    1C
    1UUSER                                                              
    1UDATE              27.october.2022                                 
    1UTIME              00:20:54                                        
    1UHOST                                                              
    1UPGM               CalculiX                                        
    1UVERSION           Version 2.17                             
    1UCOMPILETIME       Thu Jul 23 21:43:50 CEST 2020                    
    1UDIR                                                               
    1UDBN                                                               
    1UMAT    1SOLIDMATERIAL                                             
    2C                          4301                                     1
 -1         1 1.11724E+02 3.22735E+01 0.00000E+00
 -1         2 1.15335E+02 2.61485E+01 0.00000E+00
 -1         3 1.50000E+02 0.00000E+00 0.00000E+00
 -1         4 1.50000E+02 5.00000E+01 0.00000E+00
 -1         5 0.00000E+00 0.00000E+00 0.00000E+00
 -1         6 0.00000E+00 5.00000E+01 0.00000E+00
 -1         7 0.00000E+00 4.70500E+01 0.00000E+00
 -1         8 0.00000E+00 4.41000E+01 0.00000E+00
 -1         9 0.00000E+00 4.11500E+01 0.00000E+00
 -1        10 0.00000E+00 3.82000E+01 0.00000E+00
 -1        11 0.00000E+00 3.52500E+01 0.00000E+00
 -1        12 0.00000E+00 3.23500E+01 0.00000E+00
 -1        13 0.00000E+00 2.94000E+01 0.00000E+00
 -1        14 0.00000E+00 2.64500E+01 0.00000E+00
 -1        15 0.00000E+00 2.35000E+01 0.00000E+00
 -1        16 0.00000E+00 2.05500E+01 0.00000E+00
 -1        17 0.00000E+00 1.76000E+01 0.00000E+00
 -1        18 0.00000E+00 1.47000E+01 0.00000E+00
 -1        19 0.00000E+00 1.17500E+01 0.00000E+00
 -1        20 0.00000E+00 8.80000E+00 0.00000E+00
 -1        21 0.00000E+00 5.85000E+00 0.00000E+00
 -1        22 0.00000E+00 2.90000E+00 0.00000E+00
 -1        23 3.15000E+00 5.00000E+01 0.00000E+00
 -1        24 6.15000E+00 5.00000E+01 0.00000E+00
 -1        25 9.15000E+00 5.00000E+01 0.00000E+00
 -1        26 1.21500E+01 5.00000E+01 0.00000E+00
 -1        27 1.51500E+01 5.00000E+01 0.00000E+00
 -1        28 1.81500E+01 5.00000E+01 0.00000E+00
 -1        29 2.11500E+01 5.00000E+01 0.00000E+00
 -1        30 2.41500E+01 5.00000E+01 0.00000E+00
 -1        31 2.71500E+01 5.00000E+01 0.00000E+00
 -1        32 3.01500E+01 5.00000E+01 0.00000E+00
 -1        33 3.31500E+01 5.00000E+01 0.00000E+00
 -1        34 3.61500E+01 5.00000E+01 0.00000E+00
 -1        35 3.91500E+01 5.00000E+01 0.00000E+00
 -1        36 4.21500E+01 5.00000E+01 0.00000E+00
 -1        37 4.51500E+01 5.00000E+01 0.00000E+00
 -1        38 4.81500E+01 5.00000E+01 0.00000E+00
 -1        39 5.11500E+01 5.00000E+01 0.00000E+00
 -1        40 5.41500E+01 5.00000E+01 0.00000E+00
 -1        41 5.71500E+01 5.00000E+01 0.00000E+00
 -1        42 6.01500E+01 5.00000E+01 0.00000E+00
 -1        43 6.31500E+01 5.00000E+01 0.00000E+00
 -1        44 6.61500E+01 5.00000E+01 0.00000E+00
 -1        45 6.91500E+01 5.00000E+01 0.00000E+00
 -1        46 7.21500E+01 5.00000E+01 0.00000E+00
 -1        47 7.51500E+01 5.00000E+01 0.00000E+00
 -1        48 7.81500E+01 5.00000E+01 0.00000E+00
 -1        49 8.11500E+01 5.00000E+01 0.00000E+00
 -1        50 8.41500E+01 5.00000E+01 0.00000E+00
 -1        51 8.71500E+01 5.00000E+01 0.00000E+00
 -1        52 9.01500E+01 5.00000E+01 0.00000E+00
 -1        53 9.31500E+01 5.00000E+01 0.00000E+00
 -1        54 9.61500E+01 5.00000E+01 0.00000E+00
 -1        55 9.91500E+01 5.00000E+01 0.00000E+00
 -1        56 1.02150E+02 5.00000E+01 0.00000E+00
 -1        57 1.05150E+02 5.00000E+01 0.00000E+00
 -1        58 1.08150E+02 5.00000E+01 0.00000E+00
 -1        59 1.11150E+02 5.00000E+01 0.00000E+00
 -1        60 1.14150E+02 5.00000E+01 0.00000E+00
 -1        61 1.17150E+02 5.00000E+01 0.00000E+00
 -1        62 1.20150E+02 5.00000E+01 0.00000E+00
 -1        63 1.23150E+02 5.00000E+01 0.00000E+00
 -1        64 1.26150E+02 5.00000E+01 0.00000E+00
 -1        65 1.29150E+02 5.00000E+01 0.00000E+00
 -1        66 1.32150E+02 5.00000E+01 0.00000E+00
 -1        67 1.35150E+02 5.00000E+01 0.00000E+00
 -1        68 1.38150E+02 5.00000E+01 0.00000E+00
 -1        69 1.41150E+02 5.00000E+01 0.00000E+00
 -1        70 1.44150E+02 5.00000E+01 0.00000E+00
 -1        71 1.47150E+02 5.00000E+01 0.00000E+00
 -1        72 3.15000E+00 0.00000E+00 0.00000E+00
 -1        73 6.15000E+00 0.00000E+00 0.00000E+00
 -1        74 9.15000E+00 0.00000E+00 0.00000E+00
 -1        75 1.21500E+01 0.00000E+00 0.00000E+00
 -1        76 1.51500E+01 0.00000E+00 0.00000E+00
 -1        77 1.81500E+01 0.00000E+00 0.00000E+00
 -1        78 2.11500E+01 0.00000E+00 0.00000E+00
 -1        79 2.41500E+01 0.00000E+00 0.00000E+00
 -1        80 2.71500E+01 0.00000E+00 0.00000E+00
 -1        81 3.01500E+01 0.00000E+00 0.00000E+00
 -1        82 3.31500E+01 0.00000E+00 0.00000E+00
 -1        83 3.61500E+01 0.00000E+00 0.00000E+00
 -1        84 3.91500E+01 0.00000E+00 0.00000E+00
 -1        85 4.21500E+01 0.00000E+00 0.00000E+00
 -1        86 4.51500E+01 0.00000E+00 0.00000E+00
 -1        87 4.81500E+01 0.00000E+00 0.00000E+00
 -1        88 5.11500E+01 0.00000E+00 0.00000E+00
 -1        89 5.41500E+01 0.00000E+00 0.00000E+00
 -1        90 5.71500E+01 0.00000E+00 0.00000E+00
 -1        91 6.01500E+01 0.00000E+00 0.00000E+00
 -1        92 6.31500E+01 0.00000E+00 0.00000E+00
 -1        93 6.61500E+01 0.00000E+00 0.00000E+00
 -1        94 6.91500E+01 0.00000E+00 0.00000E+00
 -1        95 7.21500E+01 0.00000E+00 0.00000E+00
 -1        96 7.51500E+01 0.00000E+00 0.00000E+00
 -1        97 7.81500E+01 0.00000E+00 0.00000E+00
 -1        98 8.11500E+01 0.00000E+00 0.00000E+00
 -1        99 8.41500E+01 0.00000E+00 0.00000E+00
 -1       100 8.71500E+01 0.00000E+00 0.00000E+00
 -1       101 9.01500E+01 0.00000E+00 0.00000E+00
 -1       102 9.31500E+01 0.00000E+00 0.00000E+00
 -1       103 9.61500E+01 0.00000E+00 0.00000E+00
 -1       104 9.91500E+01 0.00000E+00 0.00000E+00
 -1       105 1.02150E+02 0.00000E+00 0.00000E+00
 -1       106 1.05150E+02 0.00000E+00 0.00000E+00
 -1       107 1.08150E+02 0.00000E+00 0.00000E+00
 -1       108 1.11150E+02 0.00000E+00 0.00000E+00
 -1       109 1.14150E+02 0.00000E+00 0.00000E+00
 -1       110 1.17150E+02 0.00000E+00 0.00000E+00
 -1       111 1.20150E+02 0.00000E+00 0.00000E+00
 -1       112 1.23150E+02 0.00000E+00 0.00000E+00
 -1       113 1.26150E+02 0.00000E+00 0.00000E+00
 -1       114 1.29150E+02 0.00000E+00 0.00000E+00
 -1       115 1.32150E+02 0.00000E+00 0.00000E+00
 -1       116 1.35150E+02 0.00000E+00 0.00000E+00
 -1       117 1.38150E+02 0.00000E+00 0.00000E+00
 -1       118 1.41150E+02 0.00000E+00 0.00000E+00
 -1       119 1.44150E+02 0.00000E+00 0.00000E+00
 -1       120 1.47150E+02 0.00000E+00 0.00000E+00
 -1       121 1.50000E+02 2.95000E+00 0.00000E+00
 -1       122 1.50000E+02 5.90000E+00 0.00000E+00
 -1       123 1.50000E+02 8.85000E+00 0.00000E+00
 -1       124 1.50000E+02 1.18000E+01 0.00000E+00
 -1       125 1.50000E+02 1.47500E+01 0.00000E+00
 -1       126 1.50000E+02 1.76500E+01 0.00000E+00
 -1       127 1.50000E+02 2.06000E+01 0.00000E+00
 -1       128 1.50000E+02 2.35500E+01 0.00000E+00
 -1       129 1.50000E+02 2.65000E+01 0.00000E+00
 -1       130 1.50000E+02 2.94500E+01 0.00000E+00
 -1       131 1.50000E+02 3.24000E+01 0.00000E+00
 -1       132 1.50000E+02 3.53000E+01 0.00000E+00
 -1       133 1.50000E+02 3.82500E+01 0.00000E+00
 -1       134 1.50000E+02 4.12000E+01 0.00000E+00
 -1       135 1.50000E+02 4.41500E+01 0.00000E+00
 -1       136 1.50000E+02 4.71000E+01 0.00000E+00
 -1       137 1.15141E+02 2.45123E+01 0.00000E+00
 -1       138 1.14637E+02 2.31009E+01 0.00000E+00
 -1       139 1.13841E+02 2.18268E+01 0.00000E+00
 -1       140 1.12884E+02 2.08285E+01 0.00000E+00
 -1       141 1.11627E+02 1.99712E+01 0.00000E+00
 -1       142 1.10266E+02 1.94200E+01 0.00000E+00
 -1       143 1.08786E+02 1.91631E+01 0.00000E+00
 -1       144 1.07308E+02 1.92242E+01 0.00000E+00
 -1       145 1.05838E+02 1.96090E+01 0.00000E+00
 -1       146 1.04527E+02 2.02748E+01 0.00000E+00
 -1       147 1.03230E+02 2.13594E+01 0.00000E+00
 -1       148 1.02341E+02 2.25324E+01 0.00000E+00
 -1       149 1.01661E+02 2.40367E+01 0.00000E+00
 -1       150 1.01373E+02 2.54164E+01 0.00000E+00
 -1       151 1.01390E+02 2.70277E+01 0.00000E+00
 -1       152 1.01719E+02 2.84342E+01 0.00000E+00
 -1       153 1.02389E+02 2.98430E+01 0.00000E+00
 -1       154 1.03322E+02 3.10341E+01 0.00000E+00
 -1       155 1.04423E+02 3.19537E+01 0.00000E+00
 -1       156 1.05829E+02 3.26846E+01 0.00000E+00
 -1       157 1.07384E+02 3.30836E+01 0.00000E+00
 -1       158 1.08862E+02 3.31286E+01 0.00000E+00
 -1       159 1.10377E+02 3.28440E+01 0.00000E+00
 -1       160 1.12950E+02 3.14117E+01 0.00000E+00
 -1       161 1.13976E+02 3.02926E+01 0.00000E+00
 -1       162 1.14710E+02 2.90398E+01 0.00000E+00
 -1       163 1.15171E+02 2.76522E+01 0.00000E+00
 -1       164 2.59800E+00 4.55750E+01 0.00000E+00
 -1       165 2.59800E+00 4.26250E+01 0.00000E+00
 -1       166 2.59800E+00 3.96750E+01 0.00000E+00
 -1       167 2.59800E+00 3.67250E+01 0.00000E+00
 -1       168 2.59800E+00 3.38250E+01 0.00000E+00
 -1       169 2.59800E+00 3.08750E+01 0.00000E+00
 -1       170 2.59800E+00 2.79250E+01 0.00000E+00
 -1       171 2.59800E+00 2.49750E+01 0.00000E+00
 -1       172 2.59800E+00 2.20250E+01 0.00000E+00
 -1       173 2.59800E+00 1.90750E+01 0.00000E+00
 -1       174 2.59800E+00 1.61750E+01 0.00000E+00
 -1       175 2.59800E+00 1.32250E+01 0.00000E+00
 -1       176 2.59800E+00 1.02750E+01 0.00000E+00
 -1       177 2.59800E+00 7.32500E+00 0.00000E+00
 -1       178 2.59800E+00 4.37500E+00 0.00000E+00
 -1       179 2.87400E+00 2.18750E+00 0.00000E+00
 -1       180 4.65000E+00 4.74020E+01 0.00000E+00
 -1       181 7.65000E+00 4.74020E+01 0.00000E+00
 -1       182 1.06500E+01 4.74020E+01 0.00000E+00
 -1       183 1.36500E+01 4.74020E+01 0.00000E+00
 -1       184 1.66500E+01 4.74020E+01 0.00000E+00
 -1       185 1.96500E+01 4.74020E+01 0.00000E+00
 -1       186 2.26500E+01 4.74020E+01 0.00000E+00
 -1       187 2.56500E+01 4.74020E+01 0.00000E+00
 -1       188 2.86500E+01 4.74020E+01 0.00000E+00
 -1       189 3.16500E+01 4.74020E+01 0.00000E+00
 -1       190 3.46500E+01 4.74020E+01 0.00000E+00
 -1       191 3.76500E+01 4.74020E+01 0.00000E+00
 -1       192 4.06500E+01 4.74020E+01 0.00000E+00
 -1       193 4.36500E+01 4.74020E+01 0.00000E+00
 -1       194 4.66500E+01 4.74020E+01 0.00000E+00
 -1       195 4.96500E+01 4.74020E+01 0.00000E+00
 -1       196 5.26500E+01 4.74020E+01 0.00000E+00
 -1       197 5.56500E+01 4.74020E+01 0.00000E+00
 -1       198 5.86500E+01 4.74020E+01 0.00000E+00
 -1       199 6.16500E+01 4.74020E+01 0.00000E+00
 -1       200 6.46500E+01 4.74020E+01 0.00000E+00
 -1       201 6.76500E+01 4.74020E+01 0.00000E+00
 -1       202 7.06500E+01 4.74020E+01 0.00000E+00
 -1       203 7.36500E+01 4.74020E+01 0.00000E+00
 -1       204 7.66500E+01 4.74020E+01 0.00000E+00
 -1       205 7.96500E+01 4.74020E+01 0.00000E+00
 -1       206 8.26500E+01 4.74020E+01 0.00000E+00
 -1       207 8.56500E+01 4.74020E+01 0.00000E+00
 -1       208 8.86500E+01 4.74020E+01 0.00000E+00
 -1       209 9.16500E+01 4.74020E+01 0.00000E+00
 -1       210 9.46500E+01 4.74020E+01 0.00000E+00
 -1       211 9.76500E+01 4.74020E+01 0.00000E+00
 -1       212 1.00650E+02 4.74020E+01 0.00000E+00
 -1       213 1.03650E+02 4.74020E+01 0.00000E+00
 -1       214 1.06650E+02 4.74020E+01 0.00000E+00
 -1       215 1.09650E+02 4.74020E+01 0.00000E+00
 -1       216 1.12650E+02 4.74020E+01 0.00000E+00
 -1       217 1.15650E+02 4.74020E+01 0.00000E+00
 -1       218 1.18650E+02 4.74020E+01 0.00000E+00
 -1       219 1.21650E+02 4.74020E+01 0.00000E+00
 -1       220 1.24650E+02 4.74020E+01 0.00000E+00
 -1       221 1.27650E+02 4.74020E+01 0.00000E+00
 -1       222 1.30650E+02 4.74020E+01 0.00000E+00
 -1       223 1.33650E+02 4.74020E+01 0.00000E+00
 -1       224 1.36650E+02 4.74020E+01 0.00000E+00
 -1       225 1.39650E+02 4.74020E+01 0.00000E+00
 -1       226 1.42650E+02 4.74020E+01 0.00000E+00
 -1       227 1.45650E+02 4.74020E+01 0.00000E+00
 -1       228 5.87400E+00 2.18750E+00 0.00000E+00
 -1       229 8.87400E+00 2.18750E+00 0.00000E+00
 -1       230 1.18740E+01 2.18750E+00 0.00000E+00
 -1       231 1.48740E+01 2.18750E+00 0.00000E+00
 -1       232 1.78740E+01 2.18750E+00 0.00000E+00
 -1       233 2.08740E+01 2.18750E+00 0.00000E+00
 -1       234 2.38740E+01 2.18750E+00 0.00000E+00
 -1       235 2.68740E+01 2.18750E+00 0.00000E+00
 -1       236 2.98740E+01 2.18750E+00 0.00000E+00
 -1       237 3.28740E+01 2.18750E+00 0.00000E+00
 -1       238 3.58740E+01 2.18750E+00 0.00000E+00
 -1       239 3.88740E+01 2.18750E+00 0.00000E+00
 -1       240 4.18740E+01 2.18750E+00 0.00000E+00
 -1       241 4.48740E+01 2.18750E+00 0.00000E+00
 -1       242 4.78740E+01 2.18750E+00 0.00000E+00
 -1       243 5.08740E+01 2.18750E+00 0.00000E+00
 -1       244 5.38740E+01 2.18750E+00 0.00000E+00
 -1       245 5.68740E+01 2.18750E+00 0.00000E+00
 -1       246 5.98740E+01 2.18750E+00 0.00000E+00
 -1       247 6.28740E+01 2.18750E+00 0.00000E+00
 -1       248 6.58740E+01 2.18750E+00 0.00000E+00
 -1       249 6.88740E+01 2.18750E+00 0.00000E+00
 -1       250 7.18740E+01 2.18750E+00 0.00000E+00
 -1       251 7.48740E+01 2.18750E+00 0.00000E+00
 -1       252 7.78740E+01 2.18750E+00 0.00000E+00
 -1       253 8.08740E+01 2.18750E+00 0.00000E+00
 -1       254 8.38740E+01 2.18750E+00 0.00000E+00
 -1       255 8.68740E+01 2.18750E+00 0.00000E+00
 -1       256 8.98740E+01 2.18750E+00 0.00000E+00
 -1       257 9.28740E+01 2.18750E+00 0.00000E+00
 -1       258 9.58740E+01 2.18750E+00 0.00000E+00
 -1       259 9.88740E+01 2.18750E+00 0.00000E+00
 -1       260 1.01874E+02 2.18750E+00 0.00000E+00
 -1       261 1.04874E+02 2.18750E+00 0.00000E+00
 -1       262 1.07874E+02 2.18750E+00 0.00000E+00
 -1       263 1.10874E+02 2.18750E+00 0.00000E+00
 -1       264 1.13874E+02 2.18750E+00 0.00000E+00
 -1       265 1.16874E+02 2.18750E+00 0.00000E+00
 -1       266 1.19874E+02 2.18750E+00 0.00000E+00
 -1       267 1.22874E+02 2.18750E+00 0.00000E+00
 -1       268 1.25874E+02 2.18750E+00 0.00000E+00
 -1       269 1.28874E+02 2.18750E+00 0.00000E+00
 -1       270 1.31874E+02 2.18750E+00 0.00000E+00
 -1       271 1.34874E+02 2.18750E+00 0.00000E+00
 -1       272 1.37874E+02 2.18750E+00 0.00000E+00
 -1       273 1.40874E+02 2.18750E+00 0.00000E+00
 -1       274 1.43874E+02 2.18750E+00 0.00000E+00
 -1       275 1.46874E+02 2.18750E+00 0.00000E+00
 -1       276 1.47402E+02 4.42500E+00 0.00000E+00
 -1       277 1.47402E+02 7.37500E+00 0.00000E+00
 -1       278 1.47402E+02 1.03250E+01 0.00000E+00
 -1       279 1.47402E+02 1.32750E+01 0.00000E+00
 -1       280 1.47402E+02 1.61750E+01 0.00000E+00
 -1       281 1.47402E+02 1.91250E+01 0.00000E+00
 -1       282 1.47402E+02 2.20750E+01 0.00000E+00
 -1       283 1.47402E+02 2.50250E+01 0.00000E+00
 -1       284 1.47402E+02 2.79750E+01 0.00000E+00
 -1       285 1.47402E+02 3.09250E+01 0.00000E+00
 -1       286 1.47402E+02 3.38250E+01 0.00000E+00
 -1       287 1.47402E+02 3.67750E+01 0.00000E+00
 -1       288 1.47402E+02 3.97250E+01 0.00000E+00
 -1       289 1.47402E+02 4.26750E+01 0.00000E+00
 -1       290 1.46526E+02 4.50385E+01 0.00000E+00
 -1       291 1.16775E+02 2.51483E+01 0.00000E+00
 -1       292 1.16109E+02 2.33704E+01 0.00000E+00
 -1       293 1.15339E+02 2.17776E+01 0.00000E+00
 -1       294 1.14238E+02 2.04886E+01 0.00000E+00
 -1       295 1.13081E+02 1.91906E+01 0.00000E+00
 -1       296 1.11401E+02 1.85718E+01 0.00000E+00
 -1       297 1.09747E+02 1.80145E+01 0.00000E+00
 -1       298 1.07994E+02 1.78986E+01 0.00000E+00
 -1       299 1.06266E+02 1.82437E+01 0.00000E+00
 -1       300 1.04596E+02 1.87862E+01 0.00000E+00
 -1       301 1.02940E+02 1.96940E+01 0.00000E+00
 -1       302 1.01819E+02 2.12139E+01 0.00000E+00
 -1       303 1.00515E+02 2.26124E+01 0.00000E+00
 -1       304 1.00330E+02 2.44790E+01 0.00000E+00
 -1       305 9.98344E+01 2.62384E+01 0.00000E+00
 -1       306 1.00374E+02 2.80065E+01 0.00000E+00
 -1       307 1.00732E+02 2.97678E+01 0.00000E+00
 -1       308 1.01901E+02 3.11860E+01 0.00000E+00
 -1       309 1.03096E+02 3.24246E+01 0.00000E+00
 -1       310 1.04490E+02 3.35435E+01 0.00000E+00
 -1       311 1.06284E+02 3.41396E+01 0.00000E+00
 -1       312 1.08086E+02 3.43179E+01 0.00000E+00
 -1       313 1.09844E+02 3.41778E+01 0.00000E+00
 -1       314 1.11556E+02 3.37523E+01 0.00000E+00
 -1       315 1.13082E+02 3.29031E+01 0.00000E+00
 -1       316 1.14418E+02 3.17283E+01 0.00000E+00
 -1       317 1.15389E+02 3.02787E+01 0.00000E+00
 -1       318 1.16171E+02 2.87551E+01 0.00000E+00
 -1       319 1.16708E+02 2.70585E+01 0.00000E+00
 -1       320 5.19600E+00 4.11500E+01 0.00000E+00
 -1       321 5.19600E+00 4.41000E+01 0.00000E+00
 -1       322 5.19600E+00 3.52750E+01 0.00000E+00
 -1       323 5.19600E+00 3.23250E+01 0.00000E+00
 -1       324 5.19600E+00 2.93750E+01 0.00000E+00
 -1       325 5.19600E+00 2.64250E+01 0.00000E+00
 -1       326 5.19600E+00 2.34750E+01 0.00000E+00
 -1       327 5.19600E+00 2.05250E+01 0.00000E+00
 -1       328 5.19600E+00 1.76250E+01 0.00000E+00
 -1       329 5.19600E+00 1.46750E+01 0.00000E+00
 -1       330 5.19600E+00 1.17250E+01 0.00000E+00
 -1       331 5.19600E+00 8.77500E+00 0.00000E+00
 -1       332 5.19600E+00 5.82500E+00 0.00000E+00
 -1       333 5.53500E+00 4.00625E+00 0.00000E+00
 -1       334 8.53500E+00 4.00625E+00 0.00000E+00
 -1       335 9.15000E+00 4.48040E+01 0.00000E+00
 -1       336 1.21500E+01 4.48040E+01 0.00000E+00
 -1       337 1.51500E+01 4.48040E+01 0.00000E+00
 -1       338 1.81500E+01 4.48040E+01 0.00000E+00
 -1       339 2.11500E+01 4.48040E+01 0.00000E+00
 -1       340 2.41500E+01 4.48040E+01 0.00000E+00
 -1       341 2.71500E+01 4.48040E+01 0.00000E+00
 -1       342 3.01500E+01 4.48040E+01 0.00000E+00
 -1       343 3.31500E+01 4.48040E+01 0.00000E+00
 -1       344 3.61500E+01 4.48040E+01 0.00000E+00
 -1       345 3.91500E+01 4.48040E+01 0.00000E+00
 -1       346 4.21500E+01 4.48040E+01 0.00000E+00
 -1       347 4.51500E+01 4.48040E+01 0.00000E+00
 -1       348 4.81500E+01 4.48040E+01 0.00000E+00
 -1       349 5.11500E+01 4.48040E+01 0.00000E+00
 -1       350 5.41500E+01 4.48040E+01 0.00000E+00
 -1       351 5.71500E+01 4.48040E+01 0.00000E+00
 -1       352 6.01500E+01 4.48040E+01 0.00000E+00
 -1       353 6.31500E+01 4.48040E+01 0.00000E+00
 -1       354 6.61500E+01 4.48040E+01 0.00000E+00
 -1       355 6.91500E+01 4.48040E+01 0.00000E+00
 -1       356 7.21500E+01 4.48040E+01 0.00000E+00
 -1       357 7.51500E+01 4.48040E+01 0.00000E+00
 -1       358 7.81500E+01 4.48040E+01 0.00000E+00
 -1       359 8.11500E+01 4.48040E+01 0.00000E+00
 -1       360 8.41500E+01 4.48040E+01 0.00000E+00
 -1       361 8.71500E+01 4.48040E+01 0.00000E+00
 -1       362 9.01500E+01 4.48040E+01 0.00000E+00
 -1       363 9.31500E+01 4.48040E+01 0.00000E+00
 -1       364 9.61500E+01 4.48040E+01 0.00000E+00
 -1       365 9.91500E+01 4.48040E+01 0.00000E+00
 -1       366 1.02150E+02 4.48040E+01 0.00000E+00
 -1       367 1.05150E+02 4.48040E+01 0.00000E+00
 -1       368 1.08150E+02 4.48040E+01 0.00000E+00
 -1       369 1.11150E+02 4.48040E+01 0.00000E+00
 -1       370 1.14150E+02 4.48040E+01 0.00000E+00
 -1       371 1.17150E+02 4.48040E+01 0.00000E+00
 -1       372 1.20150E+02 4.48040E+01 0.00000E+00
 -1       373 1.23150E+02 4.48040E+01 0.00000E+00
 -1       374 1.26150E+02 4.48040E+01 0.00000E+00
 -1       375 1.29150E+02 4.48040E+01 0.00000E+00
 -1       376 1.32150E+02 4.48040E+01 0.00000E+00
 -1       377 1.35150E+02 4.48040E+01 0.00000E+00
 -1       378 1.38150E+02 4.48040E+01 0.00000E+00
 -1       379 1.41150E+02 4.48040E+01 0.00000E+00
 -1       380 1.43838E+02 4.49212E+01 0.00000E+00
 -1       381 1.15350E+01 4.00625E+00 0.00000E+00
 -1       382 1.45350E+01 4.00625E+00 0.00000E+00
 -1       383 1.75350E+01 4.00625E+00 0.00000E+00
 -1       384 2.05350E+01 4.00625E+00 0.00000E+00
 -1       385 2.35350E+01 4.00625E+00 0.00000E+00
 -1       386 2.65350E+01 4.00625E+00 0.00000E+00
 -1       387 2.95350E+01 4.00625E+00 0.00000E+00
 -1       388 3.25350E+01 4.00625E+00 0.00000E+00
 -1       389 3.55350E+01 4.00625E+00 0.00000E+00
 -1       390 3.85350E+01 4.00625E+00 0.00000E+00
 -1       391 4.15350E+01 4.00625E+00 0.00000E+00
 -1       392 4.45350E+01 4.00625E+00 0.00000E+00
 -1       393 4.75350E+01 4.00625E+00 0.00000E+00
 -1       394 5.05350E+01 4.00625E+00 0.00000E+00
 -1       395 5.35350E+01 4.00625E+00 0.00000E+00
 -1       396 5.65350E+01 4.00625E+00 0.00000E+00
 -1       397 5.95350E+01 4.00625E+00 0.00000E+00
 -1       398 6.25350E+01 4.00625E+00 0.00000E+00
 -1       399 6.55350E+01 4.00625E+00 0.00000E+00
 -1       400 6.85350E+01 4.00625E+00 0.00000E+00
 -1       401 7.15350E+01 4.00625E+00 0.00000E+00
 -1       402 7.45350E+01 4.00625E+00 0.00000E+00
 -1       403 7.75350E+01 4.00625E+00 0.00000E+00
 -1       404 8.05350E+01 4.00625E+00 0.00000E+00
 -1       405 8.35350E+01 4.00625E+00 0.00000E+00
 -1       406 8.65350E+01 4.00625E+00 0.00000E+00
 -1       407 8.95350E+01 4.00625E+00 0.00000E+00
 -1       408 9.25350E+01 4.00625E+00 0.00000E+00
 -1       409 9.55350E+01 4.00625E+00 0.00000E+00
 -1       410 9.85350E+01 4.00625E+00 0.00000E+00
 -1       411 1.01535E+02 4.00625E+00 0.00000E+00
 -1       412 1.04535E+02 4.00625E+00 0.00000E+00
 -1       413 1.07535E+02 4.00625E+00 0.00000E+00
 -1       414 1.10535E+02 4.00625E+00 0.00000E+00
 -1       415 1.13535E+02 4.00625E+00 0.00000E+00
 -1       416 1.16535E+02 4.00625E+00 0.00000E+00
 -1       417 1.19535E+02 4.00625E+00 0.00000E+00
 -1       418 1.22535E+02 4.00625E+00 0.00000E+00
 -1       419 1.25535E+02 4.00625E+00 0.00000E+00
 -1       420 1.28535E+02 4.00625E+00 0.00000E+00
 -1       421 1.31535E+02 4.00625E+00 0.00000E+00
 -1       422 1.34535E+02 4.00625E+00 0.00000E+00
 -1       423 1.37535E+02 4.00625E+00 0.00000E+00
 -1       424 1.40535E+02 4.00625E+00 0.00000E+00
 -1       425 1.43535E+02 4.00625E+00 0.00000E+00
 -1       426 1.45469E+02 4.21562E+00 0.00000E+00
 -1       427 1.44804E+02 1.18000E+01 0.00000E+00
 -1       428 1.44804E+02 8.85000E+00 0.00000E+00
 -1       429 1.45136E+02 6.53281E+00 0.00000E+00
 -1       430 1.44804E+02 1.47000E+01 0.00000E+00
 -1       431 1.44804E+02 1.76500E+01 0.00000E+00
 -1       432 1.44804E+02 2.06000E+01 0.00000E+00
 -1       433 1.44804E+02 2.35500E+01 0.00000E+00
 -1       434 1.44804E+02 2.65000E+01 0.00000E+00
 -1       435 1.44804E+02 2.94500E+01 0.00000E+00
 -1       436 1.44804E+02 3.23500E+01 0.00000E+00
 -1       437 1.44804E+02 3.53000E+01 0.00000E+00
 -1       438 1.44804E+02 3.82500E+01 0.00000E+00
 -1       439 1.44804E+02 4.12000E+01 0.00000E+00
 -1       440 1.17268E+02 2.18270E+01 0.00000E+00
 -1       441 1.18372E+02 2.61600E+01 0.00000E+00
 -1       442 1.17933E+02 2.36048E+01 0.00000E+00
 -1       443 1.15965E+02 2.01282E+01 0.00000E+00
 -1       444 1.14808E+02 1.88303E+01 0.00000E+00
 -1       445 5.19600E+00 3.82125E+01 0.00000E+00
 -1       446 1.11122E+02 1.66678E+01 0.00000E+00
 -1       447 1.08967E+02 1.64960E+01 0.00000E+00
 -1       448 1.06810E+02 1.64714E+01 0.00000E+00
 -1       449 1.05140E+02 1.70139E+01 0.00000E+00
 -1       450 1.02983E+02 1.78096E+01 0.00000E+00
 -1       451 1.01269E+02 1.96350E+01 0.00000E+00
 -1       452 9.99644E+01 2.10335E+01 0.00000E+00
 -1       453 9.90492E+01 2.34100E+01 0.00000E+00
 -1       454 9.85533E+01 2.51695E+01 0.00000E+00
 -1       455 9.88643E+01 2.75007E+01 0.00000E+00
 -1       456 9.92228E+01 2.92620E+01 0.00000E+00
 -1       457 9.99930E+01 3.15676E+01 0.00000E+00
 -1       458 1.01188E+02 3.28063E+01 0.00000E+00
 -1       459 1.02929E+02 3.40602E+01 0.00000E+00
 -1       460 1.04846E+02 3.54692E+01 0.00000E+00
 -1       461 1.07049E+02 3.56020E+01 0.00000E+00
 -1       462 1.09094E+02 3.58741E+01 0.00000E+00
 -1       463 1.11053E+02 3.53856E+01 0.00000E+00
 -1       464 1.12949E+02 3.44603E+01 0.00000E+00
 -1       465 1.14661E+02 3.33521E+01 0.00000E+00
 -1       466 1.16190E+02 3.18648E+01 0.00000E+00
 -1       467 1.16933E+02 3.01083E+01 0.00000E+00
 -1       468 1.17915E+02 2.83744E+01 0.00000E+00
 -1       469 1.12801E+02 1.72867E+01 0.00000E+00
 -1       470 9.75832E+01 2.64318E+01 0.00000E+00
 -1       471 9.84989E+01 2.18311E+01 0.00000E+00
 -1       472 1.00350E+01 6.60425E+00 0.00000E+00
 -1       473 7.79400E+00 3.08500E+01 0.00000E+00
 -1       474 7.79400E+00 3.38000E+01 0.00000E+00
 -1       475 7.79400E+00 2.49500E+01 0.00000E+00
 -1       476 7.79400E+00 2.20000E+01 0.00000E+00
 -1       477 7.79400E+00 1.91000E+01 0.00000E+00
 -1       478 7.79400E+00 1.61500E+01 0.00000E+00
 -1       479 7.79400E+00 1.32000E+01 0.00000E+00
 -1       480 7.79400E+00 1.02500E+01 0.00000E+00
 -1       481 1.30350E+01 6.60425E+00 0.00000E+00
 -1       482 1.06500E+01 4.22060E+01 0.00000E+00
 -1       483 1.03410E+02 1.56455E+01 0.00000E+00
 -1       484 1.14850E+02 1.66991E+01 0.00000E+00
 -1       485 1.36500E+01 4.22060E+01 0.00000E+00
 -1       486 1.66500E+01 4.22060E+01 0.00000E+00
 -1       487 1.96500E+01 4.22060E+01 0.00000E+00
 -1       488 2.26500E+01 4.22060E+01 0.00000E+00
 -1       489 2.56500E+01 4.22060E+01 0.00000E+00
 -1       490 2.86500E+01 4.22060E+01 0.00000E+00
 -1       491 3.16500E+01 4.22060E+01 0.00000E+00
 -1       492 3.46500E+01 4.22060E+01 0.00000E+00
 -1       493 3.76500E+01 4.22060E+01 0.00000E+00
 -1       494 4.06500E+01 4.22060E+01 0.00000E+00
 -1       495 4.36500E+01 4.22060E+01 0.00000E+00
 -1       496 4.66500E+01 4.22060E+01 0.00000E+00
 -1       497 4.96500E+01 4.22060E+01 0.00000E+00
 -1       498 5.26500E+01 4.22060E+01 0.00000E+00
 -1       499 5.56500E+01 4.22060E+01 0.00000E+00
 -1       500 5.86500E+01 4.22060E+01 0.00000E+00
 -1       501 6.16500E+01 4.22060E+01 0.00000E+00
 -1       502 6.46500E+01 4.22060E+01 0.00000E+00
 -1       503 6.76500E+01 4.22060E+01 0.00000E+00
 -1       504 7.06500E+01 4.22060E+01 0.00000E+00
 -1       505 7.36500E+01 4.22060E+01 0.00000E+00
 -1       506 7.66500E+01 4.22060E+01 0.00000E+00
 -1       507 7.96500E+01 4.22060E+01 0.00000E+00
 -1       508 8.26500E+01 4.22060E+01 0.00000E+00
 -1       509 8.56500E+01 4.22060E+01 0.00000E+00
 -1       510 8.86500E+01 4.22060E+01 0.00000E+00
 -1       511 9.16500E+01 4.22060E+01 0.00000E+00
 -1       512 9.46500E+01 4.22060E+01 0.00000E+00
 -1       513 9.76500E+01 4.22060E+01 0.00000E+00
 -1       514 1.00650E+02 4.22060E+01 0.00000E+00
 -1       515 1.03650E+02 4.22060E+01 0.00000E+00
 -1       516 1.06650E+02 4.22060E+01 0.00000E+00
 -1       517 1.09650E+02 4.22060E+01 0.00000E+00
 -1       518 1.12650E+02 4.22060E+01 0.00000E+00
 -1       519 1.15650E+02 4.22060E+01 0.00000E+00
 -1       520 1.18650E+02 4.22060E+01 0.00000E+00
 -1       521 1.21650E+02 4.22060E+01 0.00000E+00
 -1       522 1.24650E+02 4.22060E+01 0.00000E+00
 -1       523 1.27650E+02 4.22060E+01 0.00000E+00
 -1       524 1.30650E+02 4.22060E+01 0.00000E+00
 -1       525 1.33650E+02 4.22060E+01 0.00000E+00
 -1       526 1.36650E+02 4.22060E+01 0.00000E+00
 -1       527 1.39650E+02 4.22060E+01 0.00000E+00
 -1       528 1.19128E+02 2.21441E+01 0.00000E+00
 -1       529 1.90350E+01 6.60425E+00 0.00000E+00
 -1       530 2.20350E+01 6.60425E+00 0.00000E+00
 -1       531 2.50350E+01 6.60425E+00 0.00000E+00
 -1       532 2.80350E+01 6.60425E+00 0.00000E+00
 -1       533 3.10350E+01 6.60425E+00 0.00000E+00
 -1       534 3.40350E+01 6.60425E+00 0.00000E+00
 -1       535 3.70350E+01 6.60425E+00 0.00000E+00
 -1       536 4.00350E+01 6.60425E+00 0.00000E+00
 -1       537 4.30350E+01 6.60425E+00 0.00000E+00
 -1       538 4.60350E+01 6.60425E+00 0.00000E+00
 -1       539 4.90350E+01 6.60425E+00 0.00000E+00
 -1       540 5.20350E+01 6.60425E+00 0.00000E+00
 -1       541 5.50350E+01 6.60425E+00 0.00000E+00
 -1       542 5.80350E+01 6.60425E+00 0.00000E+00
 -1       543 6.10350E+01 6.60425E+00 0.00000E+00
 -1       544 6.40350E+01 6.60425E+00 0.00000E+00
 -1       545 6.70350E+01 6.60425E+00 0.00000E+00
 -1       546 7.00350E+01 6.60425E+00 0.00000E+00
 -1       547 7.30350E+01 6.60425E+00 0.00000E+00
 -1       548 7.60350E+01 6.60425E+00 0.00000E+00
 -1       549 7.90350E+01 6.60425E+00 0.00000E+00
 -1       550 8.20350E+01 6.60425E+00 0.00000E+00
 -1       551 8.50350E+01 6.60425E+00 0.00000E+00
 -1       552 8.80350E+01 6.60425E+00 0.00000E+00
 -1       553 9.10350E+01 6.60425E+00 0.00000E+00
 -1       554 9.40350E+01 6.60425E+00 0.00000E+00
 -1       555 9.70350E+01 6.60425E+00 0.00000E+00
 -1       556 1.00035E+02 6.60425E+00 0.00000E+00
 -1       557 1.03035E+02 6.60425E+00 0.00000E+00
 -1       558 1.06035E+02 6.60425E+00 0.00000E+00
 -1       559 1.09035E+02 6.60425E+00 0.00000E+00
 -1       560 1.12035E+02 6.60425E+00 0.00000E+00
 -1       561 1.15035E+02 6.60425E+00 0.00000E+00
 -1       562 1.18035E+02 6.60425E+00 0.00000E+00
 -1       563 1.21035E+02 6.60425E+00 0.00000E+00
 -1       564 1.24035E+02 6.60425E+00 0.00000E+00
 -1       565 1.27035E+02 6.60425E+00 0.00000E+00
 -1       566 1.30035E+02 6.60425E+00 0.00000E+00
 -1       567 1.33035E+02 6.60425E+00 0.00000E+00
 -1       568 1.36035E+02 6.60425E+00 0.00000E+00
 -1       569 1.39035E+02 6.60425E+00 0.00000E+00
 -1       570 1.42035E+02 6.60425E+00 0.00000E+00
 -1       571 1.42206E+02 1.61750E+01 0.00000E+00
 -1       572 1.42206E+02 1.91250E+01 0.00000E+00
 -1       573 1.42206E+02 1.03250E+01 0.00000E+00
 -1       574 1.42206E+02 1.32500E+01 0.00000E+00
 -1       575 1.42206E+02 2.20750E+01 0.00000E+00
 -1       576 1.42206E+02 2.50250E+01 0.00000E+00
 -1       577 1.42206E+02 2.79750E+01 0.00000E+00
 -1       578 1.42206E+02 3.08750E+01 0.00000E+00
 -1       579 1.42206E+02 3.38250E+01 0.00000E+00
 -1       580 1.42206E+02 3.67750E+01 0.00000E+00
 -1       581 1.42206E+02 3.97250E+01 0.00000E+00
 -1       582 1.19823E+02 2.76140E+01 0.00000E+00
 -1       583 1.60350E+01 6.60425E+00 0.00000E+00
 -1       584 1.18111E+02 1.98320E+01 0.00000E+00
 -1       585 1.16481E+02 1.82655E+01 0.00000E+00
 -1       586 1.12613E+02 1.52107E+01 0.00000E+00
 -1       587 1.18698E+02 2.99623E+01 0.00000E+00
 -1       588 1.10181E+02 1.48722E+01 0.00000E+00
 -1       589 7.92300E+00 4.16780E+01 0.00000E+00
 -1       590 7.79400E+00 2.79000E+01 0.00000E+00
 -1       591 1.07907E+02 1.48525E+01 0.00000E+00
 -1       592 1.00876E+02 1.75480E+01 0.00000E+00
 -1       593 1.05080E+02 1.51030E+01 0.00000E+00
 -1       594 1.02872E+02 3.61468E+01 0.00000E+00
 -1       595 9.94847E+01 1.92788E+01 0.00000E+00
 -1       596 9.73924E+01 2.38926E+01 0.00000E+00
 -1       597 9.73629E+01 2.87234E+01 0.00000E+00
 -1       598 9.78222E+01 3.10113E+01 0.00000E+00
 -1       599 9.92353E+01 3.34939E+01 0.00000E+00
 -1       600 1.01056E+02 3.48249E+01 0.00000E+00
 -1       601 1.05844E+02 3.72476E+01 0.00000E+00
 -1       602 1.07890E+02 3.75196E+01 0.00000E+00
 -1       603 1.10448E+02 3.71313E+01 0.00000E+00
 -1       604 1.12753E+02 3.64644E+01 0.00000E+00
 -1       605 1.14646E+02 3.52053E+01 0.00000E+00
 -1       606 1.16505E+02 3.37174E+01 0.00000E+00
 -1       607 1.17954E+02 3.17187E+01 0.00000E+00
 -1       608 1.19595E+02 2.46347E+01 0.00000E+00
 -1       609 7.61550E+00 6.21462E+00 0.00000E+00
 -1       610 7.79400E+00 3.67375E+01 0.00000E+00
 -1       611 1.41678E+02 4.22645E+01 0.00000E+00
 -1       612 1.21046E+02 2.60887E+01 0.00000E+00
 -1       613 7.85850E+00 3.92077E+01 0.00000E+00
 -1       614 9.64223E+01 2.51549E+01 0.00000E+00
 -1       615 9.80192E+01 2.00764E+01 0.00000E+00
 -1       616 1.01302E+02 1.53839E+01 0.00000E+00
 -1       617 1.03870E+02 3.79252E+01 0.00000E+00
 -1       618 1.03920E+01 2.05500E+01 0.00000E+00
 -1       619 1.03920E+01 2.35000E+01 0.00000E+00
 -1       620 1.03920E+01 1.46750E+01 0.00000E+00
 -1       621 1.03920E+01 1.17250E+01 0.00000E+00
 -1       622 1.15350E+01 9.20225E+00 0.00000E+00
 -1       623 1.11703E+02 1.28448E+01 0.00000E+00
 -1       624 1.00856E+02 3.70080E+01 0.00000E+00
 -1       625 1.51500E+01 3.96080E+01 0.00000E+00
 -1       626 1.81500E+01 3.96080E+01 0.00000E+00
 -1       627 2.11500E+01 3.96080E+01 0.00000E+00
 -1       628 2.41500E+01 3.96080E+01 0.00000E+00
 -1       629 2.71500E+01 3.96080E+01 0.00000E+00
 -1       630 3.01500E+01 3.96080E+01 0.00000E+00
 -1       631 3.31500E+01 3.96080E+01 0.00000E+00
 -1       632 3.61500E+01 3.96080E+01 0.00000E+00
 -1       633 3.91500E+01 3.96080E+01 0.00000E+00
 -1       634 4.21500E+01 3.96080E+01 0.00000E+00
 -1       635 4.51500E+01 3.96080E+01 0.00000E+00
 -1       636 4.81500E+01 3.96080E+01 0.00000E+00
 -1       637 5.11500E+01 3.96080E+01 0.00000E+00
 -1       638 5.41500E+01 3.96080E+01 0.00000E+00
 -1       639 5.71500E+01 3.96080E+01 0.00000E+00
 -1       640 6.01500E+01 3.96080E+01 0.00000E+00
 -1       641 6.31500E+01 3.96080E+01 0.00000E+00
 -1       642 6.61500E+01 3.96080E+01 0.00000E+00
 -1       643 6.91500E+01 3.96080E+01 0.00000E+00
 -1       644 7.21500E+01 3.96080E+01 0.00000E+00
 -1       645 7.51500E+01 3.96080E+01 0.00000E+00
 -1       646 7.81500E+01 3.96080E+01 0.00000E+00
 -1       647 8.11500E+01 3.96080E+01 0.00000E+00
 -1       648 8.41500E+01 3.96080E+01 0.00000E+00
 -1       649 8.71500E+01 3.96080E+01 0.00000E+00
 -1       650 9.01500E+01 3.96080E+01 0.00000E+00
 -1       651 9.31500E+01 3.96080E+01 0.00000E+00
 -1       652 9.61500E+01 3.96080E+01 0.00000E+00
 -1       653 9.91500E+01 3.96080E+01 0.00000E+00
 -1       654 1.08150E+02 3.99882E+01 0.00000E+00
 -1       655 1.11150E+02 3.98206E+01 0.00000E+00
 -1       656 1.14150E+02 3.98206E+01 0.00000E+00
 -1       657 1.17150E+02 3.98206E+01 0.00000E+00
 -1       658 1.20150E+02 3.98206E+01 0.00000E+00
 -1       659 1.23150E+02 3.98206E+01 0.00000E+00
 -1       660 1.26150E+02 3.98206E+01 0.00000E+00
 -1       661 1.29150E+02 3.98206E+01 0.00000E+00
 -1       662 1.32150E+02 3.98206E+01 0.00000E+00
 -1       663 1.35150E+02 3.98206E+01 0.00000E+00
 -1       664 1.38150E+02 3.98206E+01 0.00000E+00
 -1       665 9.90353E+01 3.56770E+01 0.00000E+00
 -1       666 1.40178E+02 3.96665E+01 0.00000E+00
 -1       667 2.05350E+01 9.20225E+00 0.00000E+00
 -1       668 2.95350E+01 9.20225E+00 0.00000E+00
 -1       669 3.25350E+01 9.20225E+00 0.00000E+00
 -1       670 3.55350E+01 9.20225E+00 0.00000E+00
 -1       671 3.85350E+01 9.20225E+00 0.00000E+00
 -1       672 4.15350E+01 9.20225E+00 0.00000E+00
 -1       673 4.45350E+01 9.20225E+00 0.00000E+00
 -1       674 4.75350E+01 9.20225E+00 0.00000E+00
 -1       675 5.05350E+01 9.20225E+00 0.00000E+00
 -1       676 5.35350E+01 9.20225E+00 0.00000E+00
 -1       677 5.65350E+01 9.20225E+00 0.00000E+00
 -1       678 5.95350E+01 9.20225E+00 0.00000E+00
 -1       679 6.25350E+01 9.20225E+00 0.00000E+00
 -1       680 6.55350E+01 9.20225E+00 0.00000E+00
 -1       681 6.85350E+01 9.20225E+00 0.00000E+00
 -1       682 7.15350E+01 9.20225E+00 0.00000E+00
 -1       683 7.45350E+01 9.20225E+00 0.00000E+00
 -1       684 7.75350E+01 9.20225E+00 0.00000E+00
 -1       685 8.05350E+01 9.20225E+00 0.00000E+00
 -1       686 8.35350E+01 9.20225E+00 0.00000E+00
 -1       687 8.65350E+01 9.20225E+00 0.00000E+00
 -1       688 8.95350E+01 9.20225E+00 0.00000E+00
 -1       689 9.25350E+01 9.20225E+00 0.00000E+00
 -1       690 9.55350E+01 9.20225E+00 0.00000E+00
 -1       691 9.85350E+01 9.20225E+00 0.00000E+00
 -1       692 1.01535E+02 9.20225E+00 0.00000E+00
 -1       693 1.04535E+02 9.20225E+00 0.00000E+00
 -1       694 1.07535E+02 9.20225E+00 0.00000E+00
 -1       695 1.10535E+02 9.20225E+00 0.00000E+00
 -1       696 1.13535E+02 9.20225E+00 0.00000E+00
 -1       697 1.16535E+02 9.20225E+00 0.00000E+00
 -1       698 1.19535E+02 9.20225E+00 0.00000E+00
 -1       699 1.22535E+02 9.20225E+00 0.00000E+00
 -1       700 1.25535E+02 9.20225E+00 0.00000E+00
 -1       701 1.28535E+02 9.20225E+00 0.00000E+00
 -1       702 1.31535E+02 9.20225E+00 0.00000E+00
 -1       703 1.34535E+02 9.20225E+00 0.00000E+00
 -1       704 1.37535E+02 9.20225E+00 0.00000E+00
 -1       705 1.39870E+02 9.76363E+00 0.00000E+00
 -1       706 1.39608E+02 2.35500E+01 0.00000E+00
 -1       707 1.39608E+02 1.76500E+01 0.00000E+00
 -1       708 1.39608E+02 2.65000E+01 0.00000E+00
 -1       709 1.39608E+02 2.06000E+01 0.00000E+00
 -1       710 1.14681E+02 1.45268E+01 0.00000E+00
 -1       711 1.39608E+02 2.94000E+01 0.00000E+00
 -1       712 1.39608E+02 3.23500E+01 0.00000E+00
 -1       713 1.39608E+02 3.53000E+01 0.00000E+00
 -1       714 1.75350E+01 9.20225E+00 0.00000E+00
 -1       715 1.20496E+02 2.01620E+01 0.00000E+00
 -1       716 1.20060E+02 3.15746E+01 0.00000E+00
 -1       717 9.57467E+01 3.02379E+01 0.00000E+00
 -1       718 2.65350E+01 9.20225E+00 0.00000E+00
 -1       719 2.35350E+01 9.20225E+00 0.00000E+00
 -1       720 1.21500E+01 3.96080E+01 0.00000E+00
 -1       721 1.21185E+02 2.92263E+01 0.00000E+00
 -1       722 1.00042E+01 3.94079E+01 0.00000E+00
 -1       723 1.03508E+02 1.31055E+01 0.00000E+00
 -1       724 1.45350E+01 9.20225E+00 0.00000E+00
 -1       725 1.03920E+01 1.76125E+01 0.00000E+00
 -1       726 1.03920E+01 3.23250E+01 0.00000E+00
 -1       727 9.87130E+01 1.72339E+01 0.00000E+00
 -1       728 1.06335E+02 1.28550E+01 0.00000E+00
 -1       729 9.57658E+01 2.74135E+01 0.00000E+00
 -1       730 9.64344E+01 2.20508E+01 0.00000E+00
 -1       731 9.67469E+01 3.32668E+01 0.00000E+00
 -1       732 1.09059E+02 1.31473E+01 0.00000E+00
 -1       733 1.21212E+02 2.30426E+01 0.00000E+00
 -1       734 1.06619E+02 3.92499E+01 0.00000E+00
 -1       735 1.18618E+02 3.37249E+01 0.00000E+00
 -1       736 1.09426E+02 3.90212E+01 0.00000E+00
 -1       737 1.14649E+02 3.72630E+01 0.00000E+00
 -1       738 1.12345E+02 3.79299E+01 0.00000E+00
 -1       739 1.16752E+02 3.59311E+01 0.00000E+00
 -1       740 1.03920E+01 3.52625E+01 0.00000E+00
 -1       741 1.03920E+01 2.64500E+01 0.00000E+00
 -1       742 1.39870E+02 1.26886E+01 0.00000E+00
 -1       743 1.16854E+02 1.62457E+01 0.00000E+00
 -1       744 1.38879E+02 3.75603E+01 0.00000E+00
 -1       745 1.19607E+02 1.78001E+01 0.00000E+00
 -1       746 9.54644E+01 2.33130E+01 0.00000E+00
 -1       747 1.39739E+02 1.51693E+01 0.00000E+00
 -1       748 1.22408E+02 2.77011E+01 0.00000E+00
 -1       749 9.91393E+01 1.50698E+01 0.00000E+00
 -1       750 1.03920E+01 2.93875E+01 0.00000E+00
 -1       751 9.72475E+01 1.80315E+01 0.00000E+00
 -1       752 9.37061E+01 2.88118E+01 0.00000E+00
 -1       753 1.29900E+01 1.32000E+01 0.00000E+00
 -1       754 1.14282E+02 1.17546E+01 0.00000E+00
 -1       755 1.37625E+01 1.12011E+01 0.00000E+00
 -1       756 9.62828E+01 3.59990E+01 0.00000E+00
 -1       757 1.96500E+01 3.70100E+01 0.00000E+00
 -1       758 2.26500E+01 3.70100E+01 0.00000E+00
 -1       759 2.56500E+01 3.70100E+01 0.00000E+00
 -1       760 2.86500E+01 3.70100E+01 0.00000E+00
 -1       761 3.16500E+01 3.70100E+01 0.00000E+00
 -1       762 3.46500E+01 3.70100E+01 0.00000E+00
 -1       763 3.76500E+01 3.70100E+01 0.00000E+00
 -1       764 4.06500E+01 3.70100E+01 0.00000E+00
 -1       765 4.36500E+01 3.70100E+01 0.00000E+00
 -1       766 4.66500E+01 3.70100E+01 0.00000E+00
 -1       767 4.96500E+01 3.70100E+01 0.00000E+00
 -1       768 5.26500E+01 3.70100E+01 0.00000E+00
 -1       769 5.56500E+01 3.70100E+01 0.00000E+00
 -1       770 5.86500E+01 3.70100E+01 0.00000E+00
 -1       771 6.16500E+01 3.70100E+01 0.00000E+00
 -1       772 6.46500E+01 3.70100E+01 0.00000E+00
 -1       773 6.76500E+01 3.70100E+01 0.00000E+00
 -1       774 7.06500E+01 3.70100E+01 0.00000E+00
 -1       775 7.36500E+01 3.70100E+01 0.00000E+00
 -1       776 7.66500E+01 3.70100E+01 0.00000E+00
 -1       777 7.96500E+01 3.70100E+01 0.00000E+00
 -1       778 8.26500E+01 3.70100E+01 0.00000E+00
 -1       779 8.56500E+01 3.70100E+01 0.00000E+00
 -1       780 8.86500E+01 3.70100E+01 0.00000E+00
 -1       781 9.16500E+01 3.70100E+01 0.00000E+00
 -1       782 1.18650E+02 3.72226E+01 0.00000E+00
 -1       783 1.21650E+02 3.72226E+01 0.00000E+00
 -1       784 1.24650E+02 3.72226E+01 0.00000E+00
 -1       785 1.27650E+02 3.72226E+01 0.00000E+00
 -1       786 1.30650E+02 3.72226E+01 0.00000E+00
 -1       787 1.33650E+02 3.72226E+01 0.00000E+00
 -1       788 1.36264E+02 3.73915E+01 0.00000E+00
 -1       789 1.20903E+02 3.36982E+01 0.00000E+00
 -1       790 3.10350E+01 1.18003E+01 0.00000E+00
 -1       791 4.00350E+01 1.18003E+01 0.00000E+00
 -1       792 4.30350E+01 1.18003E+01 0.00000E+00
 -1       793 4.60350E+01 1.18003E+01 0.00000E+00
 -1       794 4.90350E+01 1.18003E+01 0.00000E+00
 -1       795 5.20350E+01 1.18003E+01 0.00000E+00
 -1       796 5.50350E+01 1.18003E+01 0.00000E+00
 -1       797 5.80350E+01 1.18003E+01 0.00000E+00
 -1       798 6.10350E+01 1.18003E+01 0.00000E+00
 -1       799 6.40350E+01 1.18003E+01 0.00000E+00
 -1       800 6.70350E+01 1.18003E+01 0.00000E+00
 -1       801 7.00350E+01 1.18003E+01 0.00000E+00
 -1       802 7.30350E+01 1.18003E+01 0.00000E+00
 -1       803 7.60350E+01 1.18003E+01 0.00000E+00
 -1       804 7.90350E+01 1.18003E+01 0.00000E+00
 -1       805 8.20350E+01 1.18003E+01 0.00000E+00
 -1       806 8.50350E+01 1.18003E+01 0.00000E+00
 -1       807 8.80350E+01 1.18003E+01 0.00000E+00
 -1       808 9.10350E+01 1.18003E+01 0.00000E+00
 -1       809 9.40350E+01 1.18003E+01 0.00000E+00
 -1       810 9.70350E+01 1.18003E+01 0.00000E+00
 -1       811 1.00035E+02 1.18003E+01 0.00000E+00
 -1       812 1.18035E+02 1.17552E+01 0.00000E+00
 -1       813 1.21035E+02 1.17552E+01 0.00000E+00
 -1       814 1.24035E+02 1.17552E+01 0.00000E+00
 -1       815 1.27035E+02 1.17552E+01 0.00000E+00
 -1       816 1.30035E+02 1.17552E+01 0.00000E+00
 -1       817 1.33035E+02 1.17552E+01 0.00000E+00
 -1       818 1.36035E+02 1.17552E+01 0.00000E+00
 -1       819 1.37953E+02 1.22219E+01 0.00000E+00
 -1       820 1.29900E+01 2.20250E+01 0.00000E+00
 -1       821 1.37010E+02 2.50250E+01 0.00000E+00
 -1       822 1.37010E+02 3.38250E+01 0.00000E+00
 -1       823 1.37010E+02 2.79250E+01 0.00000E+00
 -1       824 1.90350E+01 1.18003E+01 0.00000E+00
 -1       825 1.16936E+02 1.39098E+01 0.00000E+00
 -1       826 9.43000E+01 3.23953E+01 0.00000E+00
 -1       827 1.21535E+02 2.41502E+01 0.00000E+00
 -1       828 2.80350E+01 1.18003E+01 0.00000E+00
 -1       829 1.37010E+02 3.08750E+01 0.00000E+00
 -1       830 1.01981E+01 3.73352E+01 0.00000E+00
 -1       831 3.70350E+01 1.18003E+01 0.00000E+00
 -1       832 2.20350E+01 1.18003E+01 0.00000E+00
 -1       833 1.36500E+01 3.70100E+01 0.00000E+00
 -1       834 3.40350E+01 1.18003E+01 0.00000E+00
 -1       835 2.50350E+01 1.18003E+01 0.00000E+00
 -1       836 1.66500E+01 3.70100E+01 0.00000E+00
 -1       837 1.22127E+02 1.82000E+01 0.00000E+00
 -1       838 1.22320E+02 3.12139E+01 0.00000E+00
 -1       839 9.56627E+01 2.00058E+01 0.00000E+00
 -1       840 9.44471E+01 2.58055E+01 0.00000E+00
 -1       841 1.22844E+02 2.10806E+01 0.00000E+00
 -1       842 1.19689E+02 1.54642E+01 0.00000E+00
 -1       843 1.22897E+02 2.57625E+01 0.00000E+00
 -1       844 1.22870E+02 2.34216E+01 0.00000E+00
 -1       845 1.29900E+01 2.49750E+01 0.00000E+00
 -1       846 1.29900E+01 1.61375E+01 0.00000E+00
 -1       847 1.29900E+01 1.90812E+01 0.00000E+00
 -1       848 1.29900E+01 3.37938E+01 0.00000E+00
 -1       849 9.76738E+01 1.58674E+01 0.00000E+00
 -1       850 1.22209E+02 1.58642E+01 0.00000E+00
 -1       851 9.46927E+01 2.12681E+01 0.00000E+00
 -1       852 1.29900E+01 3.08563E+01 0.00000E+00
 -1       853 1.37010E+02 1.91250E+01 0.00000E+00
 -1       854 1.37010E+02 2.20750E+01 0.00000E+00
 -1       855 1.36637E+02 3.56082E+01 0.00000E+00
 -1       856 9.22593E+01 3.09692E+01 0.00000E+00
 -1       857 1.37141E+02 1.66443E+01 0.00000E+00
 -1       858 1.63988E+01 1.15007E+01 0.00000E+00
 -1       859 1.23543E+02 2.96886E+01 0.00000E+00
 -1       860 2.11500E+01 3.44120E+01 0.00000E+00
 -1       861 9.33678E+01 2.39111E+01 0.00000E+00
 -1       862 2.41500E+01 3.44120E+01 0.00000E+00
 -1       863 2.71500E+01 3.44120E+01 0.00000E+00
 -1       864 3.01500E+01 3.44120E+01 0.00000E+00
 -1       865 3.31500E+01 3.44120E+01 0.00000E+00
 -1       866 3.61500E+01 3.44120E+01 0.00000E+00
 -1       867 3.91500E+01 3.44120E+01 0.00000E+00
 -1       868 4.21500E+01 3.44120E+01 0.00000E+00
 -1       869 4.51500E+01 3.44120E+01 0.00000E+00
 -1       870 4.81500E+01 3.44120E+01 0.00000E+00
 -1       871 5.11500E+01 3.44120E+01 0.00000E+00
 -1       872 5.41500E+01 3.44120E+01 0.00000E+00
 -1       873 5.71500E+01 3.44120E+01 0.00000E+00
 -1       874 6.01500E+01 3.44120E+01 0.00000E+00
 -1       875 6.31500E+01 3.44120E+01 0.00000E+00
 -1       876 6.61500E+01 3.44120E+01 0.00000E+00
 -1       877 6.91500E+01 3.44120E+01 0.00000E+00
 -1       878 7.21500E+01 3.44120E+01 0.00000E+00
 -1       879 7.51500E+01 3.44120E+01 0.00000E+00
 -1       880 7.81500E+01 3.44120E+01 0.00000E+00
 -1       881 8.11500E+01 3.44120E+01 0.00000E+00
 -1       882 8.41500E+01 3.44120E+01 0.00000E+00
 -1       883 8.71500E+01 3.44120E+01 0.00000E+00
 -1       884 9.01500E+01 3.44120E+01 0.00000E+00
 -1       885 1.23150E+02 3.46696E+01 0.00000E+00
 -1       886 1.26150E+02 3.46696E+01 0.00000E+00
 -1       887 1.29150E+02 3.46696E+01 0.00000E+00
 -1       888 1.32150E+02 3.46696E+01 0.00000E+00
 -1       889 2.65350E+01 1.43982E+01 0.00000E+00
 -1       890 2.05350E+01 1.43982E+01 0.00000E+00
 -1       891 4.15350E+01 1.43982E+01 0.00000E+00
 -1       892 5.05350E+01 1.43982E+01 0.00000E+00
 -1       893 5.35350E+01 1.43982E+01 0.00000E+00
 -1       894 5.65350E+01 1.43982E+01 0.00000E+00
 -1       895 5.95350E+01 1.43982E+01 0.00000E+00
 -1       896 6.25350E+01 1.43982E+01 0.00000E+00
 -1       897 6.55350E+01 1.43982E+01 0.00000E+00
 -1       898 6.85350E+01 1.43982E+01 0.00000E+00
 -1       899 7.15350E+01 1.43982E+01 0.00000E+00
 -1       900 7.45350E+01 1.43982E+01 0.00000E+00
 -1       901 7.75350E+01 1.43982E+01 0.00000E+00
 -1       902 8.05350E+01 1.43982E+01 0.00000E+00
 -1       903 8.35350E+01 1.43982E+01 0.00000E+00
 -1       904 8.65350E+01 1.43982E+01 0.00000E+00
 -1       905 8.95350E+01 1.43982E+01 0.00000E+00
 -1       906 9.25350E+01 1.43982E+01 0.00000E+00
 -1       907 1.24800E+02 1.90647E+01 0.00000E+00
 -1       908 1.28535E+02 1.43532E+01 0.00000E+00
 -1       909 1.31535E+02 1.43532E+01 0.00000E+00
 -1       910 1.34535E+02 1.43532E+01 0.00000E+00
 -1       911 9.22486E+01 2.68580E+01 0.00000E+00
 -1       912 1.34412E+02 2.64750E+01 0.00000E+00
 -1       913 2.95350E+01 1.43982E+01 0.00000E+00
 -1       914 1.51500E+01 3.44120E+01 0.00000E+00
 -1       915 1.25535E+02 1.43532E+01 0.00000E+00
 -1       916 1.24640E+02 2.72327E+01 0.00000E+00
 -1       917 3.85350E+01 1.43982E+01 0.00000E+00
 -1       918 1.29900E+01 2.79188E+01 0.00000E+00
 -1       919 2.35350E+01 1.43982E+01 0.00000E+00
 -1       920 4.75350E+01 1.43982E+01 0.00000E+00
 -1       921 9.47255E+01 1.76304E+01 0.00000E+00
 -1       922 4.45350E+01 1.43982E+01 0.00000E+00
 -1       923 1.37547E+02 1.44331E+01 0.00000E+00
 -1       924 1.81500E+01 3.44120E+01 0.00000E+00
 -1       925 1.55880E+01 1.46687E+01 0.00000E+00
 -1       926 1.59934E+01 1.30847E+01 0.00000E+00
 -1       927 1.34412E+02 2.94250E+01 0.00000E+00
 -1       928 1.25101E+02 2.45670E+01 0.00000E+00
 -1       929 1.34394E+02 3.51389E+01 0.00000E+00
 -1       930 1.75351E+01 1.43983E+01 0.00000E+00
 -1       931 9.59404E+01 1.48167E+01 0.00000E+00
 -1       932 1.24882E+02 1.67288E+01 0.00000E+00
 -1       933 9.37555E+01 1.88927E+01 0.00000E+00
 -1       934 1.55880E+01 2.35000E+01 0.00000E+00
 -1       935 1.24847E+02 3.21791E+01 0.00000E+00
 -1       936 1.34412E+02 2.35250E+01 0.00000E+00
 -1       937 9.08019E+01 2.90154E+01 0.00000E+00
 -1       938 3.25350E+01 1.43982E+01 0.00000E+00
 -1       939 1.55880E+01 2.05562E+01 0.00000E+00
 -1       940 1.51500E+01 3.14745E+01 0.00000E+00
 -1       941 3.55350E+01 1.43982E+01 0.00000E+00
 -1       942 1.34412E+02 2.05750E+01 0.00000E+00
 -1       943 1.34543E+02 1.80943E+01 0.00000E+00
 -1       944 1.25075E+02 2.22260E+01 0.00000E+00
 -1       945 1.34580E+02 3.27723E+01 0.00000E+00
 -1       946 1.96500E+01 3.18140E+01 0.00000E+00
 -1       947 1.55880E+01 1.76125E+01 0.00000E+00
 -1       948 2.56500E+01 3.18140E+01 0.00000E+00
 -1       949 2.86500E+01 3.18140E+01 0.00000E+00
 -1       950 3.16500E+01 3.18140E+01 0.00000E+00
 -1       951 3.46500E+01 3.18140E+01 0.00000E+00
 -1       952 3.76500E+01 3.18140E+01 0.00000E+00
 -1       953 4.06500E+01 3.18140E+01 0.00000E+00
 -1       954 4.36500E+01 3.18140E+01 0.00000E+00
 -1       955 4.66500E+01 3.18140E+01 0.00000E+00
 -1       956 4.96500E+01 3.18140E+01 0.00000E+00
 -1       957 5.26500E+01 3.18140E+01 0.00000E+00
 -1       958 5.56500E+01 3.18140E+01 0.00000E+00
 -1       959 5.86500E+01 3.18140E+01 0.00000E+00
 -1       960 6.16500E+01 3.18140E+01 0.00000E+00
 -1       961 6.46500E+01 3.18140E+01 0.00000E+00
 -1       962 6.76500E+01 3.18140E+01 0.00000E+00
 -1       963 7.06500E+01 3.18140E+01 0.00000E+00
 -1       964 7.36500E+01 3.18140E+01 0.00000E+00
 -1       965 7.66500E+01 3.18140E+01 0.00000E+00
 -1       966 7.96500E+01 3.18140E+01 0.00000E+00
 -1       967 8.26500E+01 3.18140E+01 0.00000E+00
 -1       968 8.56500E+01 3.18140E+01 0.00000E+00
 -1       969 8.86500E+01 3.18140E+01 0.00000E+00
 -1       970 1.55880E+01 2.64438E+01 0.00000E+00
 -1       971 1.27847E+02 3.21791E+01 0.00000E+00
 -1       972 1.30847E+02 3.21791E+01 0.00000E+00
 -1       973 9.10482E+01 2.47162E+01 0.00000E+00
 -1       974 1.53690E+01 2.89591E+01 0.00000E+00
 -1       975 5.20350E+01 1.69963E+01 0.00000E+00
 -1       976 6.10350E+01 1.69963E+01 0.00000E+00
 -1       977 6.40350E+01 1.69963E+01 0.00000E+00
 -1       978 6.70350E+01 1.69963E+01 0.00000E+00
 -1       979 7.00350E+01 1.69963E+01 0.00000E+00
 -1       980 7.30350E+01 1.69963E+01 0.00000E+00
 -1       981 7.60350E+01 1.69963E+01 0.00000E+00
 -1       982 7.90350E+01 1.69963E+01 0.00000E+00
 -1       983 8.20350E+01 1.69963E+01 0.00000E+00
 -1       984 8.50350E+01 1.69963E+01 0.00000E+00
 -1       985 8.80350E+01 1.69963E+01 0.00000E+00
 -1       986 9.10350E+01 1.69963E+01 0.00000E+00
 -1       987 1.33035E+02 1.69512E+01 0.00000E+00
 -1       988 1.27221E+02 2.63060E+01 0.00000E+00
 -1       989 1.30035E+02 1.69512E+01 0.00000E+00
 -1       990 1.74000E+01 3.16443E+01 0.00000E+00
 -1       991 1.90351E+01 1.69963E+01 0.00000E+00
 -1       992 2.80350E+01 1.69963E+01 0.00000E+00
 -1       993 9.21974E+01 2.16709E+01 0.00000E+00
 -1       994 1.25964E+02 2.92968E+01 0.00000E+00
 -1       995 4.00350E+01 1.69963E+01 0.00000E+00
 -1       996 5.80350E+01 1.69963E+01 0.00000E+00
 -1       997 5.50350E+01 1.69963E+01 0.00000E+00
 -1       998 4.90350E+01 1.69963E+01 0.00000E+00
 -1       999 2.26500E+01 3.18140E+01 0.00000E+00
 -1      1000 1.27526E+02 2.04209E+01 0.00000E+00
 -1      1001 1.27374E+02 2.33634E+01 0.00000E+00
 -1      1002 1.26668E+02 1.67089E+01 0.00000E+00
 -1      1003 1.81860E+01 2.49719E+01 0.00000E+00
 -1      1004 8.96015E+01 2.68735E+01 0.00000E+00
 -1      1005 1.31814E+02 2.79500E+01 0.00000E+00
 -1      1006 2.20351E+01 1.69963E+01 0.00000E+00
 -1      1007 4.30350E+01 1.69963E+01 0.00000E+00
 -1      1008 4.60350E+01 1.69963E+01 0.00000E+00
 -1      1009 3.70350E+01 1.69963E+01 0.00000E+00
 -1      1010 3.10350E+01 1.69963E+01 0.00000E+00
 -1      1011 1.31814E+02 2.20500E+01 0.00000E+00
 -1      1012 1.31945E+02 1.95693E+01 0.00000E+00
 -1      1013 1.81860E+01 2.20281E+01 0.00000E+00
 -1      1014 2.50350E+01 1.69963E+01 0.00000E+00
 -1      1015 1.31814E+02 2.50000E+01 0.00000E+00
 -1      1016 5.65350E+01 1.95942E+01 0.00000E+00
 -1      1017 3.01500E+01 2.92160E+01 0.00000E+00
 -1      1018 3.31500E+01 2.92160E+01 0.00000E+00
 -1      1019 3.61500E+01 2.92160E+01 0.00000E+00
 -1      1020 3.91500E+01 2.92160E+01 0.00000E+00
 -1      1021 4.21500E+01 2.92160E+01 0.00000E+00
 -1      1022 4.51500E+01 2.92160E+01 0.00000E+00
 -1      1023 4.81500E+01 2.92160E+01 0.00000E+00
 -1      1024 5.11500E+01 2.92160E+01 0.00000E+00
 -1      1025 5.41500E+01 2.92160E+01 0.00000E+00
 -1      1026 5.71500E+01 2.92160E+01 0.00000E+00
 -1      1027 6.01500E+01 2.92160E+01 0.00000E+00
 -1      1028 6.31500E+01 2.92160E+01 0.00000E+00
 -1      1029 6.61500E+01 2.92160E+01 0.00000E+00
 -1      1030 6.91500E+01 2.92160E+01 0.00000E+00
 -1      1031 7.21500E+01 2.92160E+01 0.00000E+00
 -1      1032 7.51500E+01 2.92160E+01 0.00000E+00
 -1      1033 7.81500E+01 2.92160E+01 0.00000E+00
 -1      1034 8.11500E+01 2.92160E+01 0.00000E+00
 -1      1035 8.41500E+01 2.92160E+01 0.00000E+00
 -1      1036 8.71500E+01 2.92160E+01 0.00000E+00
 -1      1037 6.85350E+01 1.95942E+01 0.00000E+00
 -1      1038 1.29104E+02 2.91883E+01 0.00000E+00
 -1      1039 6.55350E+01 1.95942E+01 0.00000E+00
 -1      1040 5.35350E+01 1.95942E+01 0.00000E+00
 -1      1041 6.25350E+01 1.95942E+01 0.00000E+00
 -1      1042 7.15350E+01 1.95942E+01 0.00000E+00
 -1      1043 7.45350E+01 1.95942E+01 0.00000E+00
 -1      1044 7.75350E+01 1.95942E+01 0.00000E+00
 -1      1045 8.05350E+01 1.95942E+01 0.00000E+00
 -1      1046 8.35350E+01 1.95942E+01 0.00000E+00
 -1      1047 8.65350E+01 1.95942E+01 0.00000E+00
 -1      1048 8.95350E+01 1.95942E+01 0.00000E+00
 -1      1049 8.83858E+01 2.26395E+01 0.00000E+00
 -1      1050 5.95350E+01 1.95942E+01 0.00000E+00
 -1      1051 1.79670E+01 2.74872E+01 0.00000E+00
 -1      1052 5.05350E+01 1.95942E+01 0.00000E+00
 -1      1053 2.71500E+01 2.92160E+01 0.00000E+00
 -1      1054 3.40350E+01 1.69963E+01 0.00000E+00
 -1      1055 2.11500E+01 2.92160E+01 0.00000E+00
 -1      1056 2.41500E+01 2.92160E+01 0.00000E+00
 -1      1057 1.81860E+01 1.90844E+01 0.00000E+00
 -1      1058 8.69391E+01 2.47969E+01 0.00000E+00
 -1      1059 4.75350E+01 1.95942E+01 0.00000E+00
 -1      1060 4.15350E+01 1.95942E+01 0.00000E+00
 -1      1061 2.11860E+01 1.90844E+01 0.00000E+00
 -1      1062 3.85350E+01 1.95942E+01 0.00000E+00
 -1      1063 2.06647E+01 2.64549E+01 0.00000E+00
 -1      1064 2.95350E+01 1.95942E+01 0.00000E+00
 -1      1065 2.65350E+01 1.95943E+01 0.00000E+00
 -1      1066 2.06647E+01 2.35112E+01 0.00000E+00
 -1      1067 2.09254E+01 2.12978E+01 0.00000E+00
 -1      1068 2.86500E+01 2.66180E+01 0.00000E+00
 -1      1069 3.46500E+01 2.66180E+01 0.00000E+00
 -1      1070 3.76500E+01 2.66180E+01 0.00000E+00
 -1      1071 4.06500E+01 2.66180E+01 0.00000E+00
 -1      1072 4.36500E+01 2.66180E+01 0.00000E+00
 -1      1073 4.66500E+01 2.66180E+01 0.00000E+00
 -1      1074 4.96500E+01 2.66180E+01 0.00000E+00
 -1      1075 5.26500E+01 2.66180E+01 0.00000E+00
 -1      1076 5.56500E+01 2.66180E+01 0.00000E+00
 -1      1077 5.86500E+01 2.66180E+01 0.00000E+00
 -1      1078 6.16500E+01 2.66180E+01 0.00000E+00
 -1      1079 6.46500E+01 2.66180E+01 0.00000E+00
 -1      1080 6.76500E+01 2.66180E+01 0.00000E+00
 -1      1081 7.06500E+01 2.66180E+01 0.00000E+00
 -1      1082 7.36500E+01 2.66180E+01 0.00000E+00
 -1      1083 7.66500E+01 2.66180E+01 0.00000E+00
 -1      1084 7.96500E+01 2.66180E+01 0.00000E+00
 -1      1085 8.26500E+01 2.66180E+01 0.00000E+00
 -1      1086 7.30350E+01 2.21922E+01 0.00000E+00
 -1      1087 6.70350E+01 2.21922E+01 0.00000E+00
 -1      1088 5.50350E+01 2.21922E+01 0.00000E+00
 -1      1089 6.40350E+01 2.21922E+01 0.00000E+00
 -1      1090 7.60350E+01 2.21922E+01 0.00000E+00
 -1      1091 7.90350E+01 2.21922E+01 0.00000E+00
 -1      1092 8.20350E+01 2.21922E+01 0.00000E+00
 -1      1093 8.50350E+01 2.21922E+01 0.00000E+00
 -1      1094 5.80350E+01 2.21922E+01 0.00000E+00
 -1      1095 3.25350E+01 1.95942E+01 0.00000E+00
 -1      1096 2.56500E+01 2.66180E+01 0.00000E+00
 -1      1097 4.45350E+01 1.95942E+01 0.00000E+00
 -1      1098 6.10350E+01 2.21922E+01 0.00000E+00
 -1      1099 5.20350E+01 2.21922E+01 0.00000E+00
 -1      1100 2.38605E+01 1.93393E+01 0.00000E+00
 -1      1101 7.00350E+01 2.21922E+01 0.00000E+00
 -1      1102 3.55350E+01 1.95942E+01 0.00000E+00
 -1      1103 3.16500E+01 2.66180E+01 0.00000E+00
 -1      1104 2.31574E+01 2.50646E+01 0.00000E+00
 -1      1105 4.00350E+01 2.21922E+01 0.00000E+00
 -1      1106 4.90350E+01 2.21922E+01 0.00000E+00
 -1      1107 4.30350E+01 2.21922E+01 0.00000E+00
 -1      1108 3.10350E+01 2.21922E+01 0.00000E+00
 -1      1109 2.80350E+01 2.21923E+01 0.00000E+00
 -1      1110 3.61500E+01 2.40200E+01 0.00000E+00
 -1      1111 4.81500E+01 2.40200E+01 0.00000E+00
 -1      1112 3.40350E+01 2.21922E+01 0.00000E+00
 -1      1113 4.60350E+01 2.21922E+01 0.00000E+00
 -1      1114 2.71500E+01 2.40200E+01 0.00000E+00
 -1      1115 2.35999E+01 2.15527E+01 0.00000E+00
 -1      1116 2.58175E+01 2.18725E+01 0.00000E+00
 -1      1117 0.00000E+00 4.85250E+01 0.00000E+00
 -1      1118 0.00000E+00 4.55750E+01 0.00000E+00
 -1      1119 0.00000E+00 4.26250E+01 0.00000E+00
 -1      1120 0.00000E+00 3.96750E+01 0.00000E+00
 -1      1121 0.00000E+00 3.67250E+01 0.00000E+00
 -1      1122 0.00000E+00 3.38000E+01 0.00000E+00
 -1      1123 0.00000E+00 3.08750E+01 0.00000E+00
 -1      1124 0.00000E+00 2.79250E+01 0.00000E+00
 -1      1125 0.00000E+00 2.49750E+01 0.00000E+00
 -1      1126 0.00000E+00 2.20250E+01 0.00000E+00
 -1      1127 0.00000E+00 1.90750E+01 0.00000E+00
 -1      1128 0.00000E+00 1.61500E+01 0.00000E+00
 -1      1129 0.00000E+00 1.32250E+01 0.00000E+00
 -1      1130 0.00000E+00 1.02750E+01 0.00000E+00
 -1      1131 0.00000E+00 7.32500E+00 0.00000E+00
 -1      1132 0.00000E+00 4.37500E+00 0.00000E+00
 -1      1133 0.00000E+00 1.45000E+00 0.00000E+00
 -1      1134 1.57500E+00 5.00000E+01 0.00000E+00
 -1      1135 4.65000E+00 5.00000E+01 0.00000E+00
 -1      1136 7.65000E+00 5.00000E+01 0.00000E+00
 -1      1137 1.06500E+01 5.00000E+01 0.00000E+00
 -1      1138 1.36500E+01 5.00000E+01 0.00000E+00
 -1      1139 1.66500E+01 5.00000E+01 0.00000E+00
 -1      1140 1.96500E+01 5.00000E+01 0.00000E+00
 -1      1141 2.26500E+01 5.00000E+01 0.00000E+00
 -1      1142 2.56500E+01 5.00000E+01 0.00000E+00
 -1      1143 2.86500E+01 5.00000E+01 0.00000E+00
 -1      1144 3.16500E+01 5.00000E+01 0.00000E+00
 -1      1145 3.46500E+01 5.00000E+01 0.00000E+00
 -1      1146 3.76500E+01 5.00000E+01 0.00000E+00
 -1      1147 4.06500E+01 5.00000E+01 0.00000E+00
 -1      1148 4.36500E+01 5.00000E+01 0.00000E+00
 -1      1149 4.66500E+01 5.00000E+01 0.00000E+00
 -1      1150 4.96500E+01 5.00000E+01 0.00000E+00
 -1      1151 5.26500E+01 5.00000E+01 0.00000E+00
 -1      1152 5.56500E+01 5.00000E+01 0.00000E+00
 -1      1153 5.86500E+01 5.00000E+01 0.00000E+00
 -1      1154 6.16500E+01 5.00000E+01 0.00000E+00
 -1      1155 6.46500E+01 5.00000E+01 0.00000E+00
 -1      1156 6.76500E+01 5.00000E+01 0.00000E+00
 -1      1157 7.06500E+01 5.00000E+01 0.00000E+00
 -1      1158 7.36500E+01 5.00000E+01 0.00000E+00
 -1      1159 7.66500E+01 5.00000E+01 0.00000E+00
 -1      1160 7.96500E+01 5.00000E+01 0.00000E+00
 -1      1161 8.26500E+01 5.00000E+01 0.00000E+00
 -1      1162 8.56500E+01 5.00000E+01 0.00000E+00
 -1      1163 8.86500E+01 5.00000E+01 0.00000E+00
 -1      1164 9.16500E+01 5.00000E+01 0.00000E+00
 -1      1165 9.46500E+01 5.00000E+01 0.00000E+00
 -1      1166 9.76500E+01 5.00000E+01 0.00000E+00
 -1      1167 1.00650E+02 5.00000E+01 0.00000E+00
 -1      1168 1.03650E+02 5.00000E+01 0.00000E+00
 -1      1169 1.06650E+02 5.00000E+01 0.00000E+00
 -1      1170 1.09650E+02 5.00000E+01 0.00000E+00
 -1      1171 1.12650E+02 5.00000E+01 0.00000E+00
 -1      1172 1.15650E+02 5.00000E+01 0.00000E+00
 -1      1173 1.18650E+02 5.00000E+01 0.00000E+00
 -1      1174 1.21650E+02 5.00000E+01 0.00000E+00
 -1      1175 1.24650E+02 5.00000E+01 0.00000E+00
 -1      1176 1.27650E+02 5.00000E+01 0.00000E+00
 -1      1177 1.30650E+02 5.00000E+01 0.00000E+00
 -1      1178 1.33650E+02 5.00000E+01 0.00000E+00
 -1      1179 1.36650E+02 5.00000E+01 0.00000E+00
 -1      1180 1.39650E+02 5.00000E+01 0.00000E+00
 -1      1181 1.42650E+02 5.00000E+01 0.00000E+00
 -1      1182 1.45650E+02 5.00000E+01 0.00000E+00
 -1      1183 1.48575E+02 5.00000E+01 0.00000E+00
 -1      1184 1.57500E+00 0.00000E+00 0.00000E+00
 -1      1185 4.65000E+00 0.00000E+00 0.00000E+00
 -1      1186 7.65000E+00 0.00000E+00 0.00000E+00
 -1      1187 1.06500E+01 0.00000E+00 0.00000E+00
 -1      1188 1.36500E+01 0.00000E+00 0.00000E+00
 -1      1189 1.66500E+01 0.00000E+00 0.00000E+00
 -1      1190 1.96500E+01 0.00000E+00 0.00000E+00
 -1      1191 2.26500E+01 0.00000E+00 0.00000E+00
 -1      1192 2.56500E+01 0.00000E+00 0.00000E+00
 -1      1193 2.86500E+01 0.00000E+00 0.00000E+00
 -1      1194 3.16500E+01 0.00000E+00 0.00000E+00
 -1      1195 3.46500E+01 0.00000E+00 0.00000E+00
 -1      1196 3.76500E+01 0.00000E+00 0.00000E+00
 -1      1197 4.06500E+01 0.00000E+00 0.00000E+00
 -1      1198 4.36500E+01 0.00000E+00 0.00000E+00
 -1      1199 4.66500E+01 0.00000E+00 0.00000E+00
 -1      1200 4.96500E+01 0.00000E+00 0.00000E+00
 -1      1201 5.26500E+01 0.00000E+00 0.00000E+00
 -1      1202 5.56500E+01 0.00000E+00 0.00000E+00
 -1      1203 5.86500E+01 0.00000E+00 0.00000E+00
 -1      1204 6.16500E+01 0.00000E+00 0.00000E+00
 -1      1205 6.46500E+01 0.00000E+00 0.00000E+00
 -1      1206 6.76500E+01 0.00000E+00 0.00000E+00
 -1      1207 7.06500E+01 0.00000E+00 0.00000E+00
 -1      1208 7.36500E+01 0.00000E+00 0.00000E+00
 -1      1209 7.66500E+01 0.00000E+00 0.00000E+00
 -1      1210 7.96500E+01 0.00000E+00 0.00000E+00
 -1      1211 8.26500E+01 0.00000E+00 0.00000E+00
 -1      1212 8.56500E+01 0.00000E+00 0.00000E+00
 -1      1213 8.86500E+01 0.00000E+00 0.00000E+00
 -1      1214 9.16500E+01 0.00000E+00 0.00000E+00
 -1      1215 9.46500E+01 0.00000E+00 0.00000E+00
 -1      1216 9.76500E+01 0.00000E+00 0.00000E+00
 -1      1217 1.00650E+02 0.00000E+00 0.00000E+00
 -1      1218 1.03650E+02 0.00000E+00 0.00000E+00
 -1      1219 1.06650E+02 0.00000E+00 0.00000E+00
 -1      1220 1.09650E+02 0.00000E+00 0.00000E+00
 -1      1221 1.12650E+02 0.00000E+00 0.00000E+00
 -1      1222 1.15650E+02 0.00000E+00 0.00000E+00
 -1      1223 1.18650E+02 0.00000E+00 0.00000E+00
 -1      1224 1.21650E+02 0.00000E+00 0.00000E+00
 -1      1225 1.24650E+02 0.00000E+00 0.00000E+00
 -1      1226 1.27650E+02 0.00000E+00 0.00000E+00
 -1      1227 1.30650E+02 0.00000E+00 0.00000E+00
 -1      1228 1.33650E+02 0.00000E+00 0.00000E+00
 -1      1229 1.36650E+02 0.00000E+00 0.00000E+00
 -1      1230 1.39650E+02 0.00000E+00 0.00000E+00
 -1      1231 1.42650E+02 0.00000E+00 0.00000E+00
 -1      1232 1.45650E+02 0.00000E+00 0.00000E+00
 -1      1233 1.48575E+02 0.00000E+00 0.00000E+00
 -1      1234 1.50000E+02 1.47500E+00 0.00000E+00
 -1      1235 1.50000E+02 4.42500E+00 0.00000E+00
 -1      1236 1.50000E+02 7.37500E+00 0.00000E+00
 -1      1237 1.50000E+02 1.03250E+01 0.00000E+00
 -1      1238 1.50000E+02 1.32750E+01 0.00000E+00
 -1      1239 1.50000E+02 1.62000E+01 0.00000E+00
 -1      1240 1.50000E+02 1.91250E+01 0.00000E+00
 -1      1241 1.50000E+02 2.20750E+01 0.00000E+00
 -1      1242 1.50000E+02 2.50250E+01 0.00000E+00
 -1      1243 1.50000E+02 2.79750E+01 0.00000E+00
 -1      1244 1.50000E+02 3.09250E+01 0.00000E+00
 -1      1245 1.50000E+02 3.38500E+01 0.00000E+00
 -1      1246 1.50000E+02 3.67750E+01 0.00000E+00
 -1      1247 1.50000E+02 3.97250E+01 0.00000E+00
 -1      1248 1.50000E+02 4.26750E+01 0.00000E+00
 -1      1249 1.50000E+02 4.56250E+01 0.00000E+00
 -1      1250 1.50000E+02 4.85500E+01 0.00000E+00
 -1      1251 1.15286E+02 2.53247E+01 0.00000E+00
 -1      1252 1.14927E+02 2.37931E+01 0.00000E+00
 -1      1253 1.14273E+02 2.24425E+01 0.00000E+00
 -1      1254 1.13388E+02 2.13040E+01 0.00000E+00
 -1      1255 1.12279E+02 2.03656E+01 0.00000E+00
 -1      1256 1.10961E+02 1.96598E+01 0.00000E+00
 -1      1257 1.09533E+02 1.92517E+01 0.00000E+00
 -1      1258 1.08045E+02 1.91545E+01 0.00000E+00
 -1      1259 1.06563E+02 1.93766E+01 0.00000E+00
 -1      1260 1.05165E+02 1.99074E+01 0.00000E+00
 -1      1261 1.03845E+02 2.07777E+01 0.00000E+00
 -1      1262 1.02755E+02 2.19225E+01 0.00000E+00
 -1      1263 1.01957E+02 2.32644E+01 0.00000E+00
 -1      1264 1.01482E+02 2.47193E+01 0.00000E+00
 -1      1265 1.01335E+02 2.62225E+01 0.00000E+00
 -1      1266 1.01518E+02 2.77395E+01 0.00000E+00
 -1      1267 1.02015E+02 2.91574E+01 0.00000E+00
 -1      1268 1.02823E+02 3.04638E+01 0.00000E+00
 -1      1269 1.03849E+02 3.15222E+01 0.00000E+00
 -1      1270 1.05105E+02 3.23590E+01 0.00000E+00
 -1      1271 1.06595E+02 3.29288E+01 0.00000E+00
 -1      1272 1.08122E+02 3.31453E+01 0.00000E+00
 -1      1273 1.09628E+02 3.30281E+01 0.00000E+00
 -1      1274 1.11065E+02 3.25940E+01 0.00000E+00
 -1      1275 1.12360E+02 3.18755E+01 0.00000E+00
 -1      1276 1.13494E+02 3.08800E+01 0.00000E+00
 -1      1277 1.14376E+02 2.96852E+01 0.00000E+00
 -1      1278 1.14977E+02 2.83581E+01 0.00000E+00
 -1      1279 1.15294E+02 2.69048E+01 0.00000E+00
 -1      1280 1.57500E+00 4.85250E+01 0.00000E+00
 -1      1281 1.29900E+00 4.48375E+01 0.00000E+00
 -1      1282 1.29900E+00 4.63125E+01 0.00000E+00
 -1      1283 1.29900E+00 4.18875E+01 0.00000E+00
 -1      1284 1.29900E+00 4.33625E+01 0.00000E+00
 -1      1285 2.59800E+00 4.41000E+01 0.00000E+00
 -1      1286 1.29900E+00 3.89375E+01 0.00000E+00
 -1      1287 1.29900E+00 4.04125E+01 0.00000E+00
 -1      1288 2.59800E+00 4.11500E+01 0.00000E+00
 -1      1289 1.29900E+00 3.59875E+01 0.00000E+00
 -1      1290 1.29900E+00 3.74625E+01 0.00000E+00
 -1      1291 2.59800E+00 3.82000E+01 0.00000E+00
 -1      1292 1.29900E+00 3.30875E+01 0.00000E+00
 -1      1293 1.29900E+00 3.45375E+01 0.00000E+00
 -1      1294 2.59800E+00 3.52750E+01 0.00000E+00
 -1      1295 1.29900E+00 3.01375E+01 0.00000E+00
 -1      1296 1.29900E+00 3.16125E+01 0.00000E+00
 -1      1297 2.59800E+00 3.23500E+01 0.00000E+00
 -1      1298 1.29900E+00 2.71875E+01 0.00000E+00
 -1      1299 1.29900E+00 2.86625E+01 0.00000E+00
 -1      1300 2.59800E+00 2.94000E+01 0.00000E+00
 -1      1301 1.29900E+00 2.42375E+01 0.00000E+00
 -1      1302 1.29900E+00 2.57125E+01 0.00000E+00
 -1      1303 2.59800E+00 2.64500E+01 0.00000E+00
 -1      1304 1.29900E+00 2.12875E+01 0.00000E+00
 -1      1305 1.29900E+00 2.27625E+01 0.00000E+00
 -1      1306 2.59800E+00 2.35000E+01 0.00000E+00
 -1      1307 1.29900E+00 1.83375E+01 0.00000E+00
 -1      1308 1.29900E+00 1.98125E+01 0.00000E+00
 -1      1309 2.59800E+00 2.05500E+01 0.00000E+00
 -1      1310 1.29900E+00 1.54375E+01 0.00000E+00
 -1      1311 1.29900E+00 1.68875E+01 0.00000E+00
 -1      1312 2.59800E+00 1.76250E+01 0.00000E+00
 -1      1313 1.29900E+00 1.24875E+01 0.00000E+00
 -1      1314 1.29900E+00 1.39625E+01 0.00000E+00
 -1      1315 2.59800E+00 1.47000E+01 0.00000E+00
 -1      1316 1.29900E+00 9.53750E+00 0.00000E+00
 -1      1317 1.29900E+00 1.10125E+01 0.00000E+00
 -1      1318 2.59800E+00 1.17500E+01 0.00000E+00
 -1      1319 1.29900E+00 6.58750E+00 0.00000E+00
 -1      1320 1.29900E+00 8.06250E+00 0.00000E+00
 -1      1321 2.59800E+00 8.80000E+00 0.00000E+00
 -1      1322 1.29900E+00 3.63750E+00 0.00000E+00
 -1      1323 1.29900E+00 5.11250E+00 0.00000E+00
 -1      1324 2.59800E+00 5.85000E+00 0.00000E+00
 -1      1325 1.43700E+00 1.09375E+00 0.00000E+00
 -1      1326 1.43700E+00 2.54375E+00 0.00000E+00
 -1      1327 2.73600E+00 3.28125E+00 0.00000E+00
 -1      1328 3.01200E+00 1.09375E+00 0.00000E+00
 -1      1329 3.90000E+00 4.87010E+01 0.00000E+00
 -1      1330 5.40000E+00 4.87010E+01 0.00000E+00
 -1      1331 6.90000E+00 4.87010E+01 0.00000E+00
 -1      1332 8.40000E+00 4.87010E+01 0.00000E+00
 -1      1333 6.15000E+00 4.74020E+01 0.00000E+00
 -1      1334 9.90000E+00 4.87010E+01 0.00000E+00
 -1      1335 1.14000E+01 4.87010E+01 0.00000E+00
 -1      1336 9.15000E+00 4.74020E+01 0.00000E+00
 -1      1337 1.29000E+01 4.87010E+01 0.00000E+00
 -1      1338 1.44000E+01 4.87010E+01 0.00000E+00
 -1      1339 1.21500E+01 4.74020E+01 0.00000E+00
 -1      1340 1.59000E+01 4.87010E+01 0.00000E+00
 -1      1341 1.74000E+01 4.87010E+01 0.00000E+00
 -1      1342 1.51500E+01 4.74020E+01 0.00000E+00
 -1      1343 1.89000E+01 4.87010E+01 0.00000E+00
 -1      1344 2.04000E+01 4.87010E+01 0.00000E+00
 -1      1345 1.81500E+01 4.74020E+01 0.00000E+00
 -1      1346 2.19000E+01 4.87010E+01 0.00000E+00
 -1      1347 2.34000E+01 4.87010E+01 0.00000E+00
 -1      1348 2.11500E+01 4.74020E+01 0.00000E+00
 -1      1349 2.49000E+01 4.87010E+01 0.00000E+00
 -1      1350 2.64000E+01 4.87010E+01 0.00000E+00
 -1      1351 2.41500E+01 4.74020E+01 0.00000E+00
 -1      1352 2.79000E+01 4.87010E+01 0.00000E+00
 -1      1353 2.94000E+01 4.87010E+01 0.00000E+00
 -1      1354 2.71500E+01 4.74020E+01 0.00000E+00
 -1      1355 3.09000E+01 4.87010E+01 0.00000E+00
 -1      1356 3.24000E+01 4.87010E+01 0.00000E+00
 -1      1357 3.01500E+01 4.74020E+01 0.00000E+00
 -1      1358 3.39000E+01 4.87010E+01 0.00000E+00
 -1      1359 3.54000E+01 4.87010E+01 0.00000E+00
 -1      1360 3.31500E+01 4.74020E+01 0.00000E+00
 -1      1361 3.69000E+01 4.87010E+01 0.00000E+00
 -1      1362 3.84000E+01 4.87010E+01 0.00000E+00
 -1      1363 3.61500E+01 4.74020E+01 0.00000E+00
 -1      1364 3.99000E+01 4.87010E+01 0.00000E+00
 -1      1365 4.14000E+01 4.87010E+01 0.00000E+00
 -1      1366 3.91500E+01 4.74020E+01 0.00000E+00
 -1      1367 4.29000E+01 4.87010E+01 0.00000E+00
 -1      1368 4.44000E+01 4.87010E+01 0.00000E+00
 -1      1369 4.21500E+01 4.74020E+01 0.00000E+00
 -1      1370 4.59000E+01 4.87010E+01 0.00000E+00
 -1      1371 4.74000E+01 4.87010E+01 0.00000E+00
 -1      1372 4.51500E+01 4.74020E+01 0.00000E+00
 -1      1373 4.89000E+01 4.87010E+01 0.00000E+00
 -1      1374 5.04000E+01 4.87010E+01 0.00000E+00
 -1      1375 4.81500E+01 4.74020E+01 0.00000E+00
 -1      1376 5.19000E+01 4.87010E+01 0.00000E+00
 -1      1377 5.34000E+01 4.87010E+01 0.00000E+00
 -1      1378 5.11500E+01 4.74020E+01 0.00000E+00
 -1      1379 5.49000E+01 4.87010E+01 0.00000E+00
 -1      1380 5.64000E+01 4.87010E+01 0.00000E+00
 -1      1381 5.41500E+01 4.74020E+01 0.00000E+00
 -1      1382 5.79000E+01 4.87010E+01 0.00000E+00
 -1      1383 5.94000E+01 4.87010E+01 0.00000E+00
 -1      1384 5.71500E+01 4.74020E+01 0.00000E+00
 -1      1385 6.09000E+01 4.87010E+01 0.00000E+00
 -1      1386 6.24000E+01 4.87010E+01 0.00000E+00
 -1      1387 6.01500E+01 4.74020E+01 0.00000E+00
 -1      1388 6.39000E+01 4.87010E+01 0.00000E+00
 -1      1389 6.54000E+01 4.87010E+01 0.00000E+00
 -1      1390 6.31500E+01 4.74020E+01 0.00000E+00
 -1      1391 6.69000E+01 4.87010E+01 0.00000E+00
 -1      1392 6.84000E+01 4.87010E+01 0.00000E+00
 -1      1393 6.61500E+01 4.74020E+01 0.00000E+00
 -1      1394 6.99000E+01 4.87010E+01 0.00000E+00
 -1      1395 7.14000E+01 4.87010E+01 0.00000E+00
 -1      1396 6.91500E+01 4.74020E+01 0.00000E+00
 -1      1397 7.29000E+01 4.87010E+01 0.00000E+00
 -1      1398 7.44000E+01 4.87010E+01 0.00000E+00
 -1      1399 7.21500E+01 4.74020E+01 0.00000E+00
 -1      1400 7.59000E+01 4.87010E+01 0.00000E+00
 -1      1401 7.74000E+01 4.87010E+01 0.00000E+00
 -1      1402 7.51500E+01 4.74020E+01 0.00000E+00
 -1      1403 7.89000E+01 4.87010E+01 0.00000E+00
 -1      1404 8.04000E+01 4.87010E+01 0.00000E+00
 -1      1405 7.81500E+01 4.74020E+01 0.00000E+00
 -1      1406 8.19000E+01 4.87010E+01 0.00000E+00
 -1      1407 8.34000E+01 4.87010E+01 0.00000E+00
 -1      1408 8.11500E+01 4.74020E+01 0.00000E+00
 -1      1409 8.49000E+01 4.87010E+01 0.00000E+00
 -1      1410 8.64000E+01 4.87010E+01 0.00000E+00
 -1      1411 8.41500E+01 4.74020E+01 0.00000E+00
 -1      1412 8.79000E+01 4.87010E+01 0.00000E+00
 -1      1413 8.94000E+01 4.87010E+01 0.00000E+00
 -1      1414 8.71500E+01 4.74020E+01 0.00000E+00
 -1      1415 9.09000E+01 4.87010E+01 0.00000E+00
 -1      1416 9.24000E+01 4.87010E+01 0.00000E+00
 -1      1417 9.01500E+01 4.74020E+01 0.00000E+00
 -1      1418 9.39000E+01 4.87010E+01 0.00000E+00
 -1      1419 9.54000E+01 4.87010E+01 0.00000E+00
 -1      1420 9.31500E+01 4.74020E+01 0.00000E+00
 -1      1421 9.69000E+01 4.87010E+01 0.00000E+00
 -1      1422 9.84000E+01 4.87010E+01 0.00000E+00
 -1      1423 9.61500E+01 4.74020E+01 0.00000E+00
 -1      1424 9.99000E+01 4.87010E+01 0.00000E+00
 -1      1425 1.01400E+02 4.87010E+01 0.00000E+00
 -1      1426 9.91500E+01 4.74020E+01 0.00000E+00
 -1      1427 1.02900E+02 4.87010E+01 0.00000E+00
 -1      1428 1.04400E+02 4.87010E+01 0.00000E+00
 -1      1429 1.02150E+02 4.74020E+01 0.00000E+00
 -1      1430 1.05900E+02 4.87010E+01 0.00000E+00
 -1      1431 1.07400E+02 4.87010E+01 0.00000E+00
 -1      1432 1.05150E+02 4.74020E+01 0.00000E+00
 -1      1433 1.08900E+02 4.87010E+01 0.00000E+00
 -1      1434 1.10400E+02 4.87010E+01 0.00000E+00
 -1      1435 1.08150E+02 4.74020E+01 0.00000E+00
 -1      1436 1.11900E+02 4.87010E+01 0.00000E+00
 -1      1437 1.13400E+02 4.87010E+01 0.00000E+00
 -1      1438 1.11150E+02 4.74020E+01 0.00000E+00
 -1      1439 1.14900E+02 4.87010E+01 0.00000E+00
 -1      1440 1.16400E+02 4.87010E+01 0.00000E+00
 -1      1441 1.14150E+02 4.74020E+01 0.00000E+00
 -1      1442 1.17900E+02 4.87010E+01 0.00000E+00
 -1      1443 1.19400E+02 4.87010E+01 0.00000E+00
 -1      1444 1.17150E+02 4.74020E+01 0.00000E+00
 -1      1445 1.20900E+02 4.87010E+01 0.00000E+00
 -1      1446 1.22400E+02 4.87010E+01 0.00000E+00
 -1      1447 1.20150E+02 4.74020E+01 0.00000E+00
 -1      1448 1.23900E+02 4.87010E+01 0.00000E+00
 -1      1449 1.25400E+02 4.87010E+01 0.00000E+00
 -1      1450 1.23150E+02 4.74020E+01 0.00000E+00
 -1      1451 1.26900E+02 4.87010E+01 0.00000E+00
 -1      1452 1.28400E+02 4.87010E+01 0.00000E+00
 -1      1453 1.26150E+02 4.74020E+01 0.00000E+00
 -1      1454 1.29900E+02 4.87010E+01 0.00000E+00
 -1      1455 1.31400E+02 4.87010E+01 0.00000E+00
 -1      1456 1.29150E+02 4.74020E+01 0.00000E+00
 -1      1457 1.32900E+02 4.87010E+01 0.00000E+00
 -1      1458 1.34400E+02 4.87010E+01 0.00000E+00
 -1      1459 1.32150E+02 4.74020E+01 0.00000E+00
 -1      1460 1.35900E+02 4.87010E+01 0.00000E+00
 -1      1461 1.37400E+02 4.87010E+01 0.00000E+00
 -1      1462 1.35150E+02 4.74020E+01 0.00000E+00
 -1      1463 1.38900E+02 4.87010E+01 0.00000E+00
 -1      1464 1.40400E+02 4.87010E+01 0.00000E+00
 -1      1465 1.38150E+02 4.74020E+01 0.00000E+00
 -1      1466 1.41900E+02 4.87010E+01 0.00000E+00
 -1      1467 1.43400E+02 4.87010E+01 0.00000E+00
 -1      1468 1.41150E+02 4.74020E+01 0.00000E+00
 -1      1469 1.44900E+02 4.87010E+01 0.00000E+00
 -1      1470 1.46400E+02 4.87010E+01 0.00000E+00
 -1      1471 1.44150E+02 4.74020E+01 0.00000E+00
 -1      1472 1.48575E+02 4.85500E+01 0.00000E+00
 -1      1473 1.47825E+02 4.72510E+01 0.00000E+00
 -1      1474 6.01200E+00 1.09375E+00 0.00000E+00
 -1      1475 4.51200E+00 1.09375E+00 0.00000E+00
 -1      1476 4.37400E+00 2.18750E+00 0.00000E+00
 -1      1477 9.01200E+00 1.09375E+00 0.00000E+00
 -1      1478 7.51200E+00 1.09375E+00 0.00000E+00
 -1      1479 7.37400E+00 2.18750E+00 0.00000E+00
 -1      1480 1.20120E+01 1.09375E+00 0.00000E+00
 -1      1481 1.05120E+01 1.09375E+00 0.00000E+00
 -1      1482 1.03740E+01 2.18750E+00 0.00000E+00
 -1      1483 1.50120E+01 1.09375E+00 0.00000E+00
 -1      1484 1.35120E+01 1.09375E+00 0.00000E+00
 -1      1485 1.33740E+01 2.18750E+00 0.00000E+00
 -1      1486 1.80120E+01 1.09375E+00 0.00000E+00
 -1      1487 1.65120E+01 1.09375E+00 0.00000E+00
 -1      1488 1.63740E+01 2.18750E+00 0.00000E+00
 -1      1489 2.10120E+01 1.09375E+00 0.00000E+00
 -1      1490 1.95120E+01 1.09375E+00 0.00000E+00
 -1      1491 1.93740E+01 2.18750E+00 0.00000E+00
 -1      1492 2.40120E+01 1.09375E+00 0.00000E+00
 -1      1493 2.25120E+01 1.09375E+00 0.00000E+00
 -1      1494 2.23740E+01 2.18750E+00 0.00000E+00
 -1      1495 2.70120E+01 1.09375E+00 0.00000E+00
 -1      1496 2.55120E+01 1.09375E+00 0.00000E+00
 -1      1497 2.53740E+01 2.18750E+00 0.00000E+00
 -1      1498 3.00120E+01 1.09375E+00 0.00000E+00
 -1      1499 2.85120E+01 1.09375E+00 0.00000E+00
 -1      1500 2.83740E+01 2.18750E+00 0.00000E+00
 -1      1501 3.30120E+01 1.09375E+00 0.00000E+00
 -1      1502 3.15120E+01 1.09375E+00 0.00000E+00
 -1      1503 3.13740E+01 2.18750E+00 0.00000E+00
 -1      1504 3.60120E+01 1.09375E+00 0.00000E+00
 -1      1505 3.45120E+01 1.09375E+00 0.00000E+00
 -1      1506 3.43740E+01 2.18750E+00 0.00000E+00
 -1      1507 3.90120E+01 1.09375E+00 0.00000E+00
 -1      1508 3.75120E+01 1.09375E+00 0.00000E+00
 -1      1509 3.73740E+01 2.18750E+00 0.00000E+00
 -1      1510 4.20120E+01 1.09375E+00 0.00000E+00
 -1      1511 4.05120E+01 1.09375E+00 0.00000E+00
 -1      1512 4.03740E+01 2.18750E+00 0.00000E+00
 -1      1513 4.50120E+01 1.09375E+00 0.00000E+00
 -1      1514 4.35120E+01 1.09375E+00 0.00000E+00
 -1      1515 4.33740E+01 2.18750E+00 0.00000E+00
 -1      1516 4.80120E+01 1.09375E+00 0.00000E+00
 -1      1517 4.65120E+01 1.09375E+00 0.00000E+00
 -1      1518 4.63740E+01 2.18750E+00 0.00000E+00
 -1      1519 5.10120E+01 1.09375E+00 0.00000E+00
 -1      1520 4.95120E+01 1.09375E+00 0.00000E+00
 -1      1521 4.93740E+01 2.18750E+00 0.00000E+00
 -1      1522 5.40120E+01 1.09375E+00 0.00000E+00
 -1      1523 5.25120E+01 1.09375E+00 0.00000E+00
 -1      1524 5.23740E+01 2.18750E+00 0.00000E+00
 -1      1525 5.70120E+01 1.09375E+00 0.00000E+00
 -1      1526 5.55120E+01 1.09375E+00 0.00000E+00
 -1      1527 5.53740E+01 2.18750E+00 0.00000E+00
 -1      1528 6.00120E+01 1.09375E+00 0.00000E+00
 -1      1529 5.85120E+01 1.09375E+00 0.00000E+00
 -1      1530 5.83740E+01 2.18750E+00 0.00000E+00
 -1      1531 6.30120E+01 1.09375E+00 0.00000E+00
 -1      1532 6.15120E+01 1.09375E+00 0.00000E+00
 -1      1533 6.13740E+01 2.18750E+00 0.00000E+00
 -1      1534 6.60120E+01 1.09375E+00 0.00000E+00
 -1      1535 6.45120E+01 1.09375E+00 0.00000E+00
 -1      1536 6.43740E+01 2.18750E+00 0.00000E+00
 -1      1537 6.90120E+01 1.09375E+00 0.00000E+00
 -1      1538 6.75120E+01 1.09375E+00 0.00000E+00
 -1      1539 6.73740E+01 2.18750E+00 0.00000E+00
 -1      1540 7.20120E+01 1.09375E+00 0.00000E+00
 -1      1541 7.05120E+01 1.09375E+00 0.00000E+00
 -1      1542 7.03740E+01 2.18750E+00 0.00000E+00
 -1      1543 7.50120E+01 1.09375E+00 0.00000E+00
 -1      1544 7.35120E+01 1.09375E+00 0.00000E+00
 -1      1545 7.33740E+01 2.18750E+00 0.00000E+00
 -1      1546 7.80120E+01 1.09375E+00 0.00000E+00
 -1      1547 7.65120E+01 1.09375E+00 0.00000E+00
 -1      1548 7.63740E+01 2.18750E+00 0.00000E+00
 -1      1549 8.10120E+01 1.09375E+00 0.00000E+00
 -1      1550 7.95120E+01 1.09375E+00 0.00000E+00
 -1      1551 7.93740E+01 2.18750E+00 0.00000E+00
 -1      1552 8.40120E+01 1.09375E+00 0.00000E+00
 -1      1553 8.25120E+01 1.09375E+00 0.00000E+00
 -1      1554 8.23740E+01 2.18750E+00 0.00000E+00
 -1      1555 8.70120E+01 1.09375E+00 0.00000E+00
 -1      1556 8.55120E+01 1.09375E+00 0.00000E+00
 -1      1557 8.53740E+01 2.18750E+00 0.00000E+00
 -1      1558 9.00120E+01 1.09375E+00 0.00000E+00
 -1      1559 8.85120E+01 1.09375E+00 0.00000E+00
 -1      1560 8.83740E+01 2.18750E+00 0.00000E+00
 -1      1561 9.30120E+01 1.09375E+00 0.00000E+00
 -1      1562 9.15120E+01 1.09375E+00 0.00000E+00
 -1      1563 9.13740E+01 2.18750E+00 0.00000E+00
 -1      1564 9.60120E+01 1.09375E+00 0.00000E+00
 -1      1565 9.45120E+01 1.09375E+00 0.00000E+00
 -1      1566 9.43740E+01 2.18750E+00 0.00000E+00
 -1      1567 9.90120E+01 1.09375E+00 0.00000E+00
 -1      1568 9.75120E+01 1.09375E+00 0.00000E+00
 -1      1569 9.73740E+01 2.18750E+00 0.00000E+00
 -1      1570 1.02012E+02 1.09375E+00 0.00000E+00
 -1      1571 1.00512E+02 1.09375E+00 0.00000E+00
 -1      1572 1.00374E+02 2.18750E+00 0.00000E+00
 -1      1573 1.05012E+02 1.09375E+00 0.00000E+00
 -1      1574 1.03512E+02 1.09375E+00 0.00000E+00
 -1      1575 1.03374E+02 2.18750E+00 0.00000E+00
 -1      1576 1.08012E+02 1.09375E+00 0.00000E+00
 -1      1577 1.06512E+02 1.09375E+00 0.00000E+00
 -1      1578 1.06374E+02 2.18750E+00 0.00000E+00
 -1      1579 1.11012E+02 1.09375E+00 0.00000E+00
 -1      1580 1.09512E+02 1.09375E+00 0.00000E+00
 -1      1581 1.09374E+02 2.18750E+00 0.00000E+00
 -1      1582 1.14012E+02 1.09375E+00 0.00000E+00
 -1      1583 1.12512E+02 1.09375E+00 0.00000E+00
 -1      1584 1.12374E+02 2.18750E+00 0.00000E+00
 -1      1585 1.17012E+02 1.09375E+00 0.00000E+00
 -1      1586 1.15512E+02 1.09375E+00 0.00000E+00
 -1      1587 1.15374E+02 2.18750E+00 0.00000E+00
 -1      1588 1.20012E+02 1.09375E+00 0.00000E+00
 -1      1589 1.18512E+02 1.09375E+00 0.00000E+00
 -1      1590 1.18374E+02 2.18750E+00 0.00000E+00
 -1      1591 1.23012E+02 1.09375E+00 0.00000E+00
 -1      1592 1.21512E+02 1.09375E+00 0.00000E+00
 -1      1593 1.21374E+02 2.18750E+00 0.00000E+00
 -1      1594 1.26012E+02 1.09375E+00 0.00000E+00
 -1      1595 1.24512E+02 1.09375E+00 0.00000E+00
 -1      1596 1.24374E+02 2.18750E+00 0.00000E+00
 -1      1597 1.29012E+02 1.09375E+00 0.00000E+00
 -1      1598 1.27512E+02 1.09375E+00 0.00000E+00
 -1      1599 1.27374E+02 2.18750E+00 0.00000E+00
 -1      1600 1.32012E+02 1.09375E+00 0.00000E+00
 -1      1601 1.30512E+02 1.09375E+00 0.00000E+00
 -1      1602 1.30374E+02 2.18750E+00 0.00000E+00
 -1      1603 1.35012E+02 1.09375E+00 0.00000E+00
 -1      1604 1.33512E+02 1.09375E+00 0.00000E+00
 -1      1605 1.33374E+02 2.18750E+00 0.00000E+00
 -1      1606 1.38012E+02 1.09375E+00 0.00000E+00
 -1      1607 1.36512E+02 1.09375E+00 0.00000E+00
 -1      1608 1.36374E+02 2.18750E+00 0.00000E+00
 -1      1609 1.41012E+02 1.09375E+00 0.00000E+00
 -1      1610 1.39512E+02 1.09375E+00 0.00000E+00
 -1      1611 1.39374E+02 2.18750E+00 0.00000E+00
 -1      1612 1.44012E+02 1.09375E+00 0.00000E+00
 -1      1613 1.42512E+02 1.09375E+00 0.00000E+00
 -1      1614 1.42374E+02 2.18750E+00 0.00000E+00
 -1      1615 1.47012E+02 1.09375E+00 0.00000E+00
 -1      1616 1.45512E+02 1.09375E+00 0.00000E+00
 -1      1617 1.45374E+02 2.18750E+00 0.00000E+00
 -1      1618 1.48575E+02 1.47500E+00 0.00000E+00
 -1      1619 1.48701E+02 5.16250E+00 0.00000E+00
 -1      1620 1.48701E+02 3.68750E+00 0.00000E+00
 -1      1621 1.48701E+02 8.11250E+00 0.00000E+00
 -1      1622 1.48701E+02 6.63750E+00 0.00000E+00
 -1      1623 1.47402E+02 5.90000E+00 0.00000E+00
 -1      1624 1.48701E+02 1.10625E+01 0.00000E+00
 -1      1625 1.48701E+02 9.58750E+00 0.00000E+00
 -1      1626 1.47402E+02 8.85000E+00 0.00000E+00
 -1      1627 1.48701E+02 1.40125E+01 0.00000E+00
 -1      1628 1.48701E+02 1.25375E+01 0.00000E+00
 -1      1629 1.47402E+02 1.18000E+01 0.00000E+00
 -1      1630 1.48701E+02 1.69125E+01 0.00000E+00
 -1      1631 1.48701E+02 1.54625E+01 0.00000E+00
 -1      1632 1.47402E+02 1.47250E+01 0.00000E+00
 -1      1633 1.48701E+02 1.98625E+01 0.00000E+00
 -1      1634 1.48701E+02 1.83875E+01 0.00000E+00
 -1      1635 1.47402E+02 1.76500E+01 0.00000E+00
 -1      1636 1.48701E+02 2.28125E+01 0.00000E+00
 -1      1637 1.48701E+02 2.13375E+01 0.00000E+00
 -1      1638 1.47402E+02 2.06000E+01 0.00000E+00
 -1      1639 1.48701E+02 2.57625E+01 0.00000E+00
 -1      1640 1.48701E+02 2.42875E+01 0.00000E+00
 -1      1641 1.47402E+02 2.35500E+01 0.00000E+00
 -1      1642 1.48701E+02 2.87125E+01 0.00000E+00
 -1      1643 1.48701E+02 2.72375E+01 0.00000E+00
 -1      1644 1.47402E+02 2.65000E+01 0.00000E+00
 -1      1645 1.48701E+02 3.16625E+01 0.00000E+00
 -1      1646 1.48701E+02 3.01875E+01 0.00000E+00
 -1      1647 1.47402E+02 2.94500E+01 0.00000E+00
 -1      1648 1.48701E+02 3.45625E+01 0.00000E+00
 -1      1649 1.48701E+02 3.31125E+01 0.00000E+00
 -1      1650 1.47402E+02 3.23750E+01 0.00000E+00
 -1      1651 1.48701E+02 3.75125E+01 0.00000E+00
 -1      1652 1.48701E+02 3.60375E+01 0.00000E+00
 -1      1653 1.47402E+02 3.53000E+01 0.00000E+00
 -1      1654 1.48701E+02 4.04625E+01 0.00000E+00
 -1      1655 1.48701E+02 3.89875E+01 0.00000E+00
 -1      1656 1.47402E+02 3.82500E+01 0.00000E+00
 -1      1657 1.48701E+02 4.34125E+01 0.00000E+00
 -1      1658 1.48701E+02 4.19375E+01 0.00000E+00
 -1      1659 1.47402E+02 4.12000E+01 0.00000E+00
 -1      1660 1.48263E+02 4.60692E+01 0.00000E+00
 -1      1661 1.48263E+02 4.45942E+01 0.00000E+00
 -1      1662 1.46964E+02 4.38568E+01 0.00000E+00
 -1      1663 1.46088E+02 4.62202E+01 0.00000E+00
 -1      1664 1.15958E+02 2.48303E+01 0.00000E+00
 -1      1665 1.16055E+02 2.56484E+01 0.00000E+00
 -1      1666 1.15373E+02 2.32357E+01 0.00000E+00
 -1      1667 1.15625E+02 2.39414E+01 0.00000E+00
 -1      1668 1.14590E+02 2.18022E+01 0.00000E+00
 -1      1669 1.14988E+02 2.24393E+01 0.00000E+00
 -1      1670 1.13561E+02 2.06585E+01 0.00000E+00
 -1      1671 1.14040E+02 2.11577E+01 0.00000E+00
 -1      1672 1.12354E+02 1.95809E+01 0.00000E+00
 -1      1673 1.12983E+02 2.00096E+01 0.00000E+00
 -1      1674 1.10833E+02 1.89959E+01 0.00000E+00
 -1      1675 1.11514E+02 1.92715E+01 0.00000E+00
 -1      1676 1.09267E+02 1.85888E+01 0.00000E+00
 -1      1677 1.10007E+02 1.87173E+01 0.00000E+00
 -1      1678 1.07651E+02 1.85614E+01 0.00000E+00
 -1      1679 1.08390E+02 1.85308E+01 0.00000E+00
 -1      1680 1.06052E+02 1.89263E+01 0.00000E+00
 -1      1681 1.06787E+02 1.87339E+01 0.00000E+00
 -1      1682 1.04561E+02 1.95305E+01 0.00000E+00
 -1      1683 1.05217E+02 1.91976E+01 0.00000E+00
 -1      1684 1.03085E+02 2.05267E+01 0.00000E+00
 -1      1685 1.03733E+02 1.99844E+01 0.00000E+00
 -1      1686 1.02080E+02 2.18732E+01 0.00000E+00
 -1      1687 1.02524E+02 2.12866E+01 0.00000E+00
 -1      1688 1.01088E+02 2.33245E+01 0.00000E+00
 -1      1689 1.01428E+02 2.25724E+01 0.00000E+00
 -1      1690 1.00852E+02 2.49477E+01 0.00000E+00
 -1      1691 1.00996E+02 2.42578E+01 0.00000E+00
 -1      1692 1.00612E+02 2.66331E+01 0.00000E+00
 -1      1693 1.00604E+02 2.58274E+01 0.00000E+00
 -1      1694 1.01046E+02 2.82204E+01 0.00000E+00
 -1      1695 1.00882E+02 2.75171E+01 0.00000E+00
 -1      1696 1.01561E+02 2.98054E+01 0.00000E+00
 -1      1697 1.01225E+02 2.91010E+01 0.00000E+00
 -1      1698 1.02611E+02 3.11100E+01 0.00000E+00
 -1      1699 1.02145E+02 3.05145E+01 0.00000E+00
 -1      1700 1.03760E+02 3.21892E+01 0.00000E+00
 -1      1701 1.03209E+02 3.17294E+01 0.00000E+00
 -1      1702 1.05159E+02 3.31140E+01 0.00000E+00
 -1      1703 1.04457E+02 3.27486E+01 0.00000E+00
 -1      1704 1.06834E+02 3.36116E+01 0.00000E+00
 -1      1705 1.06056E+02 3.34121E+01 0.00000E+00
 -1      1706 1.08474E+02 3.37233E+01 0.00000E+00
 -1      1707 1.07735E+02 3.37008E+01 0.00000E+00
 -1      1708 1.10110E+02 3.35109E+01 0.00000E+00
 -1      1709 1.09353E+02 3.36532E+01 0.00000E+00
 -1      1710 1.11640E+02 3.30129E+01 0.00000E+00
 -1      1711 1.10966E+02 3.32982E+01 0.00000E+00
 -1      1712 1.13016E+02 3.21574E+01 0.00000E+00
 -1      1713 1.12403E+02 3.25883E+01 0.00000E+00
 -1      1714 1.14197E+02 3.10104E+01 0.00000E+00
 -1      1715 1.13684E+02 3.15700E+01 0.00000E+00
 -1      1716 1.15050E+02 2.96592E+01 0.00000E+00
 -1      1717 1.14683E+02 3.02857E+01 0.00000E+00
 -1      1718 1.15671E+02 2.82037E+01 0.00000E+00
 -1      1719 1.15440E+02 2.88974E+01 0.00000E+00
 -1      1720 1.16022E+02 2.66035E+01 0.00000E+00
 -1      1721 1.15940E+02 2.73553E+01 0.00000E+00
 -1      1722 1.13659E+02 1.98396E+01 0.00000E+00
 -1      1723 1.14788E+02 2.11331E+01 0.00000E+00
 -1      1724 1.48437E+02 2.56875E+00 0.00000E+00
 -1      1725 1.47138E+02 3.30625E+00 0.00000E+00
 -1      1726 1.16442E+02 2.42593E+01 0.00000E+00
 -1      1727 1.15724E+02 2.25740E+01 0.00000E+00
 -1      1728 1.16742E+02 2.61034E+01 0.00000E+00
 -1      1729 1.12241E+02 1.88812E+01 0.00000E+00
 -1      1730 1.10574E+02 1.82931E+01 0.00000E+00
 -1      1731 1.08871E+02 1.79565E+01 0.00000E+00
 -1      1732 1.07130E+02 1.80711E+01 0.00000E+00
 -1      1733 1.05431E+02 1.85149E+01 0.00000E+00
 -1      1734 1.03768E+02 1.92401E+01 0.00000E+00
 -1      1735 1.02379E+02 2.04540E+01 0.00000E+00
 -1      1736 1.01167E+02 2.19132E+01 0.00000E+00
 -1      1737 1.00423E+02 2.35457E+01 0.00000E+00
 -1      1738 1.00082E+02 2.53587E+01 0.00000E+00
 -1      1739 1.00104E+02 2.71225E+01 0.00000E+00
 -1      1740 1.00553E+02 2.88872E+01 0.00000E+00
 -1      1741 1.01317E+02 3.04769E+01 0.00000E+00
 -1      1742 1.02498E+02 3.18053E+01 0.00000E+00
 -1      1743 1.03793E+02 3.29841E+01 0.00000E+00
 -1      1744 1.05387E+02 3.38415E+01 0.00000E+00
 -1      1745 1.07185E+02 3.42288E+01 0.00000E+00
 -1      1746 1.08965E+02 3.42479E+01 0.00000E+00
 -1      1747 1.10700E+02 3.39651E+01 0.00000E+00
 -1      1748 1.12319E+02 3.33277E+01 0.00000E+00
 -1      1749 1.13750E+02 3.23157E+01 0.00000E+00
 -1      1750 1.14904E+02 3.10035E+01 0.00000E+00
 -1      1751 1.15780E+02 2.95169E+01 0.00000E+00
 -1      1752 1.16440E+02 2.79068E+01 0.00000E+00
 -1      1753 2.87400E+00 4.77875E+01 0.00000E+00
 -1      1754 3.89700E+00 4.04125E+01 0.00000E+00
 -1      1755 3.89700E+00 4.18875E+01 0.00000E+00
 -1      1756 3.89700E+00 4.33625E+01 0.00000E+00
 -1      1757 3.89700E+00 4.48375E+01 0.00000E+00
 -1      1758 5.19600E+00 4.26250E+01 0.00000E+00
 -1      1759 3.89700E+00 3.45500E+01 0.00000E+00
 -1      1760 3.89700E+00 3.60000E+01 0.00000E+00
 -1      1761 3.89700E+00 3.16000E+01 0.00000E+00
 -1      1762 3.89700E+00 3.30750E+01 0.00000E+00
 -1      1763 5.19600E+00 3.38000E+01 0.00000E+00
 -1      1764 3.89700E+00 2.86500E+01 0.00000E+00
 -1      1765 3.89700E+00 3.01250E+01 0.00000E+00
 -1      1766 5.19600E+00 3.08500E+01 0.00000E+00
 -1      1767 3.89700E+00 2.57000E+01 0.00000E+00
 -1      1768 3.89700E+00 2.71750E+01 0.00000E+00
 -1      1769 5.19600E+00 2.79000E+01 0.00000E+00
 -1      1770 3.89700E+00 2.27500E+01 0.00000E+00
 -1      1771 3.89700E+00 2.42250E+01 0.00000E+00
 -1      1772 5.19600E+00 2.49500E+01 0.00000E+00
 -1      1773 3.89700E+00 1.98000E+01 0.00000E+00
 -1      1774 3.89700E+00 2.12750E+01 0.00000E+00
 -1      1775 5.19600E+00 2.20000E+01 0.00000E+00
 -1      1776 3.89700E+00 1.69000E+01 0.00000E+00
 -1      1777 3.89700E+00 1.83500E+01 0.00000E+00
 -1      1778 5.19600E+00 1.90750E+01 0.00000E+00
 -1      1779 3.89700E+00 1.39500E+01 0.00000E+00
 -1      1780 3.89700E+00 1.54250E+01 0.00000E+00
 -1      1781 5.19600E+00 1.61500E+01 0.00000E+00
 -1      1782 3.89700E+00 1.10000E+01 0.00000E+00
 -1      1783 3.89700E+00 1.24750E+01 0.00000E+00
 -1      1784 5.19600E+00 1.32000E+01 0.00000E+00
 -1      1785 3.89700E+00 8.05000E+00 0.00000E+00
 -1      1786 3.89700E+00 9.52500E+00 0.00000E+00
 -1      1787 5.19600E+00 1.02500E+01 0.00000E+00
 -1      1788 3.89700E+00 5.10000E+00 0.00000E+00
 -1      1789 3.89700E+00 6.57500E+00 0.00000E+00
 -1      1790 5.19600E+00 7.30000E+00 0.00000E+00
 -1      1791 4.20450E+00 3.09687E+00 0.00000E+00
 -1      1792 4.06650E+00 4.19063E+00 0.00000E+00
 -1      1793 5.36550E+00 4.91563E+00 0.00000E+00
 -1      1794 5.70450E+00 3.09687E+00 0.00000E+00
 -1      1795 3.62400E+00 4.64885E+01 0.00000E+00
 -1      1796 8.70450E+00 3.09687E+00 0.00000E+00
 -1      1797 7.20450E+00 3.09687E+00 0.00000E+00
 -1      1798 7.03500E+00 4.00625E+00 0.00000E+00
 -1      1799 4.92300E+00 4.57510E+01 0.00000E+00
 -1      1800 8.40000E+00 4.61030E+01 0.00000E+00
 -1      1801 9.90000E+00 4.61030E+01 0.00000E+00
 -1      1802 1.14000E+01 4.61030E+01 0.00000E+00
 -1      1803 1.29000E+01 4.61030E+01 0.00000E+00
 -1      1804 1.06500E+01 4.48040E+01 0.00000E+00
 -1      1805 1.44000E+01 4.61030E+01 0.00000E+00
 -1      1806 1.59000E+01 4.61030E+01 0.00000E+00
 -1      1807 1.36500E+01 4.48040E+01 0.00000E+00
 -1      1808 1.74000E+01 4.61030E+01 0.00000E+00
 -1      1809 1.89000E+01 4.61030E+01 0.00000E+00
 -1      1810 1.66500E+01 4.48040E+01 0.00000E+00
 -1      1811 2.04000E+01 4.61030E+01 0.00000E+00
 -1      1812 2.19000E+01 4.61030E+01 0.00000E+00
 -1      1813 1.96500E+01 4.48040E+01 0.00000E+00
 -1      1814 2.34000E+01 4.61030E+01 0.00000E+00
 -1      1815 2.49000E+01 4.61030E+01 0.00000E+00
 -1      1816 2.26500E+01 4.48040E+01 0.00000E+00
 -1      1817 2.64000E+01 4.61030E+01 0.00000E+00
 -1      1818 2.79000E+01 4.61030E+01 0.00000E+00
 -1      1819 2.56500E+01 4.48040E+01 0.00000E+00
 -1      1820 2.94000E+01 4.61030E+01 0.00000E+00
 -1      1821 3.09000E+01 4.61030E+01 0.00000E+00
 -1      1822 2.86500E+01 4.48040E+01 0.00000E+00
 -1      1823 3.24000E+01 4.61030E+01 0.00000E+00
 -1      1824 3.39000E+01 4.61030E+01 0.00000E+00
 -1      1825 3.16500E+01 4.48040E+01 0.00000E+00
 -1      1826 3.54000E+01 4.61030E+01 0.00000E+00
 -1      1827 3.69000E+01 4.61030E+01 0.00000E+00
 -1      1828 3.46500E+01 4.48040E+01 0.00000E+00
 -1      1829 3.84000E+01 4.61030E+01 0.00000E+00
 -1      1830 3.99000E+01 4.61030E+01 0.00000E+00
 -1      1831 3.76500E+01 4.48040E+01 0.00000E+00
 -1      1832 4.14000E+01 4.61030E+01 0.00000E+00
 -1      1833 4.29000E+01 4.61030E+01 0.00000E+00
 -1      1834 4.06500E+01 4.48040E+01 0.00000E+00
 -1      1835 4.44000E+01 4.61030E+01 0.00000E+00
 -1      1836 4.59000E+01 4.61030E+01 0.00000E+00
 -1      1837 4.36500E+01 4.48040E+01 0.00000E+00
 -1      1838 4.74000E+01 4.61030E+01 0.00000E+00
 -1      1839 4.89000E+01 4.61030E+01 0.00000E+00
 -1      1840 4.66500E+01 4.48040E+01 0.00000E+00
 -1      1841 5.04000E+01 4.61030E+01 0.00000E+00
 -1      1842 5.19000E+01 4.61030E+01 0.00000E+00
 -1      1843 4.96500E+01 4.48040E+01 0.00000E+00
 -1      1844 5.34000E+01 4.61030E+01 0.00000E+00
 -1      1845 5.49000E+01 4.61030E+01 0.00000E+00
 -1      1846 5.26500E+01 4.48040E+01 0.00000E+00
 -1      1847 5.64000E+01 4.61030E+01 0.00000E+00
 -1      1848 5.79000E+01 4.61030E+01 0.00000E+00
 -1      1849 5.56500E+01 4.48040E+01 0.00000E+00
 -1      1850 5.94000E+01 4.61030E+01 0.00000E+00
 -1      1851 6.09000E+01 4.61030E+01 0.00000E+00
 -1      1852 5.86500E+01 4.48040E+01 0.00000E+00
 -1      1853 6.24000E+01 4.61030E+01 0.00000E+00
 -1      1854 6.39000E+01 4.61030E+01 0.00000E+00
 -1      1855 6.16500E+01 4.48040E+01 0.00000E+00
 -1      1856 6.54000E+01 4.61030E+01 0.00000E+00
 -1      1857 6.69000E+01 4.61030E+01 0.00000E+00
 -1      1858 6.46500E+01 4.48040E+01 0.00000E+00
 -1      1859 6.84000E+01 4.61030E+01 0.00000E+00
 -1      1860 6.99000E+01 4.61030E+01 0.00000E+00
 -1      1861 6.76500E+01 4.48040E+01 0.00000E+00
 -1      1862 7.14000E+01 4.61030E+01 0.00000E+00
 -1      1863 7.29000E+01 4.61030E+01 0.00000E+00
 -1      1864 7.06500E+01 4.48040E+01 0.00000E+00
 -1      1865 7.44000E+01 4.61030E+01 0.00000E+00
 -1      1866 7.59000E+01 4.61030E+01 0.00000E+00
 -1      1867 7.36500E+01 4.48040E+01 0.00000E+00
 -1      1868 7.74000E+01 4.61030E+01 0.00000E+00
 -1      1869 7.89000E+01 4.61030E+01 0.00000E+00
 -1      1870 7.66500E+01 4.48040E+01 0.00000E+00
 -1      1871 8.04000E+01 4.61030E+01 0.00000E+00
 -1      1872 8.19000E+01 4.61030E+01 0.00000E+00
 -1      1873 7.96500E+01 4.48040E+01 0.00000E+00
 -1      1874 8.34000E+01 4.61030E+01 0.00000E+00
 -1      1875 8.49000E+01 4.61030E+01 0.00000E+00
 -1      1876 8.26500E+01 4.48040E+01 0.00000E+00
 -1      1877 8.64000E+01 4.61030E+01 0.00000E+00
 -1      1878 8.79000E+01 4.61030E+01 0.00000E+00
 -1      1879 8.56500E+01 4.48040E+01 0.00000E+00
 -1      1880 8.94000E+01 4.61030E+01 0.00000E+00
 -1      1881 9.09000E+01 4.61030E+01 0.00000E+00
 -1      1882 8.86500E+01 4.48040E+01 0.00000E+00
 -1      1883 9.24000E+01 4.61030E+01 0.00000E+00
 -1      1884 9.39000E+01 4.61030E+01 0.00000E+00
 -1      1885 9.16500E+01 4.48040E+01 0.00000E+00
 -1      1886 9.54000E+01 4.61030E+01 0.00000E+00
 -1      1887 9.69000E+01 4.61030E+01 0.00000E+00
 -1      1888 9.46500E+01 4.48040E+01 0.00000E+00
 -1      1889 9.84000E+01 4.61030E+01 0.00000E+00
 -1      1890 9.99000E+01 4.61030E+01 0.00000E+00
 -1      1891 9.76500E+01 4.48040E+01 0.00000E+00
 -1      1892 1.01400E+02 4.61030E+01 0.00000E+00
 -1      1893 1.02900E+02 4.61030E+01 0.00000E+00
 -1      1894 1.00650E+02 4.48040E+01 0.00000E+00
 -1      1895 1.04400E+02 4.61030E+01 0.00000E+00
 -1      1896 1.05900E+02 4.61030E+01 0.00000E+00
 -1      1897 1.03650E+02 4.48040E+01 0.00000E+00
 -1      1898 1.07400E+02 4.61030E+01 0.00000E+00
 -1      1899 1.08900E+02 4.61030E+01 0.00000E+00
 -1      1900 1.06650E+02 4.48040E+01 0.00000E+00
 -1      1901 1.10400E+02 4.61030E+01 0.00000E+00
 -1      1902 1.11900E+02 4.61030E+01 0.00000E+00
 -1      1903 1.09650E+02 4.48040E+01 0.00000E+00
 -1      1904 1.13400E+02 4.61030E+01 0.00000E+00
 -1      1905 1.14900E+02 4.61030E+01 0.00000E+00
 -1      1906 1.12650E+02 4.48040E+01 0.00000E+00
 -1      1907 1.16400E+02 4.61030E+01 0.00000E+00
 -1      1908 1.17900E+02 4.61030E+01 0.00000E+00
 -1      1909 1.15650E+02 4.48040E+01 0.00000E+00
 -1      1910 1.19400E+02 4.61030E+01 0.00000E+00
 -1      1911 1.20900E+02 4.61030E+01 0.00000E+00
 -1      1912 1.18650E+02 4.48040E+01 0.00000E+00
 -1      1913 1.22400E+02 4.61030E+01 0.00000E+00
 -1      1914 1.23900E+02 4.61030E+01 0.00000E+00
 -1      1915 1.21650E+02 4.48040E+01 0.00000E+00
 -1      1916 1.25400E+02 4.61030E+01 0.00000E+00
 -1      1917 1.26900E+02 4.61030E+01 0.00000E+00
 -1      1918 1.24650E+02 4.48040E+01 0.00000E+00
 -1      1919 1.28400E+02 4.61030E+01 0.00000E+00
 -1      1920 1.29900E+02 4.61030E+01 0.00000E+00
 -1      1921 1.27650E+02 4.48040E+01 0.00000E+00
 -1      1922 1.31400E+02 4.61030E+01 0.00000E+00
 -1      1923 1.32900E+02 4.61030E+01 0.00000E+00
 -1      1924 1.30650E+02 4.48040E+01 0.00000E+00
 -1      1925 1.34400E+02 4.61030E+01 0.00000E+00
 -1      1926 1.35900E+02 4.61030E+01 0.00000E+00
 -1      1927 1.33650E+02 4.48040E+01 0.00000E+00
 -1      1928 1.37400E+02 4.61030E+01 0.00000E+00
 -1      1929 1.38900E+02 4.61030E+01 0.00000E+00
 -1      1930 1.36650E+02 4.48040E+01 0.00000E+00
 -1      1931 1.40400E+02 4.61030E+01 0.00000E+00
 -1      1932 1.41900E+02 4.61030E+01 0.00000E+00
 -1      1933 1.39650E+02 4.48040E+01 0.00000E+00
 -1      1934 1.43244E+02 4.61616E+01 0.00000E+00
 -1      1935 1.44744E+02 4.61616E+01 0.00000E+00
 -1      1936 1.45182E+02 4.49799E+01 0.00000E+00
 -1      1937 1.42494E+02 4.48626E+01 0.00000E+00
 -1      1938 1.17045E+01 3.09687E+00 0.00000E+00
 -1      1939 1.02045E+01 3.09687E+00 0.00000E+00
 -1      1940 1.00350E+01 4.00625E+00 0.00000E+00
 -1      1941 1.47045E+01 3.09687E+00 0.00000E+00
 -1      1942 1.32045E+01 3.09687E+00 0.00000E+00
 -1      1943 1.30350E+01 4.00625E+00 0.00000E+00
 -1      1944 1.77045E+01 3.09687E+00 0.00000E+00
 -1      1945 1.62045E+01 3.09687E+00 0.00000E+00
 -1      1946 1.60350E+01 4.00625E+00 0.00000E+00
 -1      1947 2.07045E+01 3.09687E+00 0.00000E+00
 -1      1948 1.92045E+01 3.09687E+00 0.00000E+00
 -1      1949 1.90350E+01 4.00625E+00 0.00000E+00
 -1      1950 2.37045E+01 3.09687E+00 0.00000E+00
 -1      1951 2.22045E+01 3.09687E+00 0.00000E+00
 -1      1952 2.20350E+01 4.00625E+00 0.00000E+00
 -1      1953 2.67045E+01 3.09687E+00 0.00000E+00
 -1      1954 2.52045E+01 3.09687E+00 0.00000E+00
 -1      1955 2.50350E+01 4.00625E+00 0.00000E+00
 -1      1956 2.97045E+01 3.09687E+00 0.00000E+00
 -1      1957 2.82045E+01 3.09687E+00 0.00000E+00
 -1      1958 2.80350E+01 4.00625E+00 0.00000E+00
 -1      1959 3.27045E+01 3.09687E+00 0.00000E+00
 -1      1960 3.12045E+01 3.09687E+00 0.00000E+00
 -1      1961 3.10350E+01 4.00625E+00 0.00000E+00
 -1      1962 3.57045E+01 3.09687E+00 0.00000E+00
 -1      1963 3.42045E+01 3.09687E+00 0.00000E+00
 -1      1964 3.40350E+01 4.00625E+00 0.00000E+00
 -1      1965 3.87045E+01 3.09687E+00 0.00000E+00
 -1      1966 3.72045E+01 3.09687E+00 0.00000E+00
 -1      1967 3.70350E+01 4.00625E+00 0.00000E+00
 -1      1968 4.17045E+01 3.09687E+00 0.00000E+00
 -1      1969 4.02045E+01 3.09687E+00 0.00000E+00
 -1      1970 4.00350E+01 4.00625E+00 0.00000E+00
 -1      1971 4.47045E+01 3.09687E+00 0.00000E+00
 -1      1972 4.32045E+01 3.09687E+00 0.00000E+00
 -1      1973 4.30350E+01 4.00625E+00 0.00000E+00
 -1      1974 4.77045E+01 3.09687E+00 0.00000E+00
 -1      1975 4.62045E+01 3.09687E+00 0.00000E+00
 -1      1976 4.60350E+01 4.00625E+00 0.00000E+00
 -1      1977 5.07045E+01 3.09687E+00 0.00000E+00
 -1      1978 4.92045E+01 3.09687E+00 0.00000E+00
 -1      1979 4.90350E+01 4.00625E+00 0.00000E+00
 -1      1980 5.37045E+01 3.09687E+00 0.00000E+00
 -1      1981 5.22045E+01 3.09687E+00 0.00000E+00
 -1      1982 5.20350E+01 4.00625E+00 0.00000E+00
 -1      1983 5.67045E+01 3.09687E+00 0.00000E+00
 -1      1984 5.52045E+01 3.09687E+00 0.00000E+00
 -1      1985 5.50350E+01 4.00625E+00 0.00000E+00
 -1      1986 5.97045E+01 3.09687E+00 0.00000E+00
 -1      1987 5.82045E+01 3.09687E+00 0.00000E+00
 -1      1988 5.80350E+01 4.00625E+00 0.00000E+00
 -1      1989 6.27045E+01 3.09687E+00 0.00000E+00
 -1      1990 6.12045E+01 3.09687E+00 0.00000E+00
 -1      1991 6.10350E+01 4.00625E+00 0.00000E+00
 -1      1992 6.57045E+01 3.09687E+00 0.00000E+00
 -1      1993 6.42045E+01 3.09687E+00 0.00000E+00
 -1      1994 6.40350E+01 4.00625E+00 0.00000E+00
 -1      1995 6.87045E+01 3.09687E+00 0.00000E+00
 -1      1996 6.72045E+01 3.09687E+00 0.00000E+00
 -1      1997 6.70350E+01 4.00625E+00 0.00000E+00
 -1      1998 7.17045E+01 3.09687E+00 0.00000E+00
 -1      1999 7.02045E+01 3.09687E+00 0.00000E+00
 -1      2000 7.00350E+01 4.00625E+00 0.00000E+00
 -1      2001 7.47045E+01 3.09687E+00 0.00000E+00
 -1      2002 7.32045E+01 3.09687E+00 0.00000E+00
 -1      2003 7.30350E+01 4.00625E+00 0.00000E+00
 -1      2004 7.77045E+01 3.09687E+00 0.00000E+00
 -1      2005 7.62045E+01 3.09687E+00 0.00000E+00
 -1      2006 7.60350E+01 4.00625E+00 0.00000E+00
 -1      2007 8.07045E+01 3.09687E+00 0.00000E+00
 -1      2008 7.92045E+01 3.09687E+00 0.00000E+00
 -1      2009 7.90350E+01 4.00625E+00 0.00000E+00
 -1      2010 8.37045E+01 3.09687E+00 0.00000E+00
 -1      2011 8.22045E+01 3.09687E+00 0.00000E+00
 -1      2012 8.20350E+01 4.00625E+00 0.00000E+00
 -1      2013 8.67045E+01 3.09687E+00 0.00000E+00
 -1      2014 8.52045E+01 3.09687E+00 0.00000E+00
 -1      2015 8.50350E+01 4.00625E+00 0.00000E+00
 -1      2016 8.97045E+01 3.09687E+00 0.00000E+00
 -1      2017 8.82045E+01 3.09687E+00 0.00000E+00
 -1      2018 8.80350E+01 4.00625E+00 0.00000E+00
 -1      2019 9.27045E+01 3.09687E+00 0.00000E+00
 -1      2020 9.12045E+01 3.09687E+00 0.00000E+00
 -1      2021 9.10350E+01 4.00625E+00 0.00000E+00
 -1      2022 9.57045E+01 3.09687E+00 0.00000E+00
 -1      2023 9.42045E+01 3.09687E+00 0.00000E+00
 -1      2024 9.40350E+01 4.00625E+00 0.00000E+00
 -1      2025 9.87045E+01 3.09687E+00 0.00000E+00
 -1      2026 9.72045E+01 3.09687E+00 0.00000E+00
 -1      2027 9.70350E+01 4.00625E+00 0.00000E+00
 -1      2028 1.01704E+02 3.09687E+00 0.00000E+00
 -1      2029 1.00204E+02 3.09687E+00 0.00000E+00
 -1      2030 1.00035E+02 4.00625E+00 0.00000E+00
 -1      2031 1.04704E+02 3.09687E+00 0.00000E+00
 -1      2032 1.03204E+02 3.09687E+00 0.00000E+00
 -1      2033 1.03035E+02 4.00625E+00 0.00000E+00
 -1      2034 1.07704E+02 3.09687E+00 0.00000E+00
 -1      2035 1.06204E+02 3.09687E+00 0.00000E+00
 -1      2036 1.06035E+02 4.00625E+00 0.00000E+00
 -1      2037 1.10704E+02 3.09687E+00 0.00000E+00
 -1      2038 1.09204E+02 3.09687E+00 0.00000E+00
 -1      2039 1.09035E+02 4.00625E+00 0.00000E+00
 -1      2040 1.13704E+02 3.09687E+00 0.00000E+00
 -1      2041 1.12204E+02 3.09687E+00 0.00000E+00
 -1      2042 1.12035E+02 4.00625E+00 0.00000E+00
 -1      2043 1.16704E+02 3.09687E+00 0.00000E+00
 -1      2044 1.15204E+02 3.09687E+00 0.00000E+00
 -1      2045 1.15035E+02 4.00625E+00 0.00000E+00
 -1      2046 1.19704E+02 3.09687E+00 0.00000E+00
 -1      2047 1.18204E+02 3.09687E+00 0.00000E+00
 -1      2048 1.18035E+02 4.00625E+00 0.00000E+00
 -1      2049 1.22704E+02 3.09687E+00 0.00000E+00
 -1      2050 1.21204E+02 3.09687E+00 0.00000E+00
 -1      2051 1.21035E+02 4.00625E+00 0.00000E+00
 -1      2052 1.25704E+02 3.09687E+00 0.00000E+00
 -1      2053 1.24204E+02 3.09687E+00 0.00000E+00
 -1      2054 1.24035E+02 4.00625E+00 0.00000E+00
 -1      2055 1.28704E+02 3.09687E+00 0.00000E+00
 -1      2056 1.27204E+02 3.09687E+00 0.00000E+00
 -1      2057 1.27035E+02 4.00625E+00 0.00000E+00
 -1      2058 1.31704E+02 3.09687E+00 0.00000E+00
 -1      2059 1.30204E+02 3.09687E+00 0.00000E+00
 -1      2060 1.30035E+02 4.00625E+00 0.00000E+00
 -1      2061 1.34704E+02 3.09687E+00 0.00000E+00
 -1      2062 1.33204E+02 3.09687E+00 0.00000E+00
 -1      2063 1.33035E+02 4.00625E+00 0.00000E+00
 -1      2064 1.37704E+02 3.09687E+00 0.00000E+00
 -1      2065 1.36204E+02 3.09687E+00 0.00000E+00
 -1      2066 1.36035E+02 4.00625E+00 0.00000E+00
 -1      2067 1.40704E+02 3.09687E+00 0.00000E+00
 -1      2068 1.39204E+02 3.09687E+00 0.00000E+00
 -1      2069 1.39035E+02 4.00625E+00 0.00000E+00
 -1      2070 1.43704E+02 3.09687E+00 0.00000E+00
 -1      2071 1.42204E+02 3.09687E+00 0.00000E+00
 -1      2072 1.42035E+02 4.00625E+00 0.00000E+00
 -1      2073 1.46171E+02 3.20156E+00 0.00000E+00
 -1      2074 1.44671E+02 3.20156E+00 0.00000E+00
 -1      2075 1.44502E+02 4.11094E+00 0.00000E+00
 -1      2076 1.46435E+02 4.32031E+00 0.00000E+00
 -1      2077 1.46103E+02 1.25375E+01 0.00000E+00
 -1      2078 1.46103E+02 1.10625E+01 0.00000E+00
 -1      2079 1.46103E+02 9.58750E+00 0.00000E+00
 -1      2080 1.46103E+02 8.11250E+00 0.00000E+00
 -1      2081 1.44804E+02 1.03250E+01 0.00000E+00
 -1      2082 1.46269E+02 6.95391E+00 0.00000E+00
 -1      2083 1.46269E+02 5.47891E+00 0.00000E+00
 -1      2084 1.45302E+02 5.37422E+00 0.00000E+00
 -1      2085 1.44970E+02 7.69141E+00 0.00000E+00
 -1      2086 1.46103E+02 1.54375E+01 0.00000E+00
 -1      2087 1.46103E+02 1.39875E+01 0.00000E+00
 -1      2088 1.44804E+02 1.32500E+01 0.00000E+00
 -1      2089 1.46103E+02 1.83875E+01 0.00000E+00
 -1      2090 1.46103E+02 1.69125E+01 0.00000E+00
 -1      2091 1.44804E+02 1.61750E+01 0.00000E+00
 -1      2092 1.46103E+02 2.13375E+01 0.00000E+00
 -1      2093 1.46103E+02 1.98625E+01 0.00000E+00
 -1      2094 1.44804E+02 1.91250E+01 0.00000E+00
 -1      2095 1.46103E+02 2.42875E+01 0.00000E+00
 -1      2096 1.46103E+02 2.28125E+01 0.00000E+00
 -1      2097 1.44804E+02 2.20750E+01 0.00000E+00
 -1      2098 1.46103E+02 2.72375E+01 0.00000E+00
 -1      2099 1.46103E+02 2.57625E+01 0.00000E+00
 -1      2100 1.44804E+02 2.50250E+01 0.00000E+00
 -1      2101 1.46103E+02 3.01875E+01 0.00000E+00
 -1      2102 1.46103E+02 2.87125E+01 0.00000E+00
 -1      2103 1.44804E+02 2.79750E+01 0.00000E+00
 -1      2104 1.46103E+02 3.30875E+01 0.00000E+00
 -1      2105 1.46103E+02 3.16375E+01 0.00000E+00
 -1      2106 1.44804E+02 3.09000E+01 0.00000E+00
 -1      2107 1.46103E+02 3.60375E+01 0.00000E+00
 -1      2108 1.46103E+02 3.45625E+01 0.00000E+00
 -1      2109 1.44804E+02 3.38250E+01 0.00000E+00
 -1      2110 1.46103E+02 3.89875E+01 0.00000E+00
 -1      2111 1.46103E+02 3.75125E+01 0.00000E+00
 -1      2112 1.44804E+02 3.67750E+01 0.00000E+00
 -1      2113 1.46103E+02 4.19375E+01 0.00000E+00
 -1      2114 1.46103E+02 4.04625E+01 0.00000E+00
 -1      2115 1.44804E+02 3.97250E+01 0.00000E+00
 -1      2116 1.16303E+02 2.18023E+01 0.00000E+00
 -1      2117 1.16689E+02 2.25987E+01 0.00000E+00
 -1      2118 1.17573E+02 2.56541E+01 0.00000E+00
 -1      2119 1.17540E+02 2.66092E+01 0.00000E+00
 -1      2120 1.17021E+02 2.34876E+01 0.00000E+00
 -1      2121 1.17354E+02 2.43765E+01 0.00000E+00
 -1      2122 1.17601E+02 2.27159E+01 0.00000E+00
 -1      2123 1.15102E+02 2.03084E+01 0.00000E+00
 -1      2124 1.15652E+02 2.09529E+01 0.00000E+00
 -1      2125 1.13944E+02 1.90104E+01 0.00000E+00
 -1      2126 1.14523E+02 1.96594E+01 0.00000E+00
 -1      2127 1.15387E+02 1.94792E+01 0.00000E+00
 -1      2128 3.89700E+00 3.74688E+01 0.00000E+00
 -1      2129 3.89700E+00 3.89437E+01 0.00000E+00
 -1      2130 5.19600E+00 3.96813E+01 0.00000E+00
 -1      2131 5.19600E+00 3.67438E+01 0.00000E+00
 -1      2132 1.10435E+02 1.73411E+01 0.00000E+00
 -1      2133 1.11262E+02 1.76198E+01 0.00000E+00
 -1      2134 1.08480E+02 1.71973E+01 0.00000E+00
 -1      2135 1.09357E+02 1.72552E+01 0.00000E+00
 -1      2136 1.06538E+02 1.73575E+01 0.00000E+00
 -1      2137 1.07402E+02 1.71850E+01 0.00000E+00
 -1      2138 1.04868E+02 1.79001E+01 0.00000E+00
 -1      2139 1.05703E+02 1.76288E+01 0.00000E+00
 -1      2140 1.05975E+02 1.67427E+01 0.00000E+00
 -1      2141 1.02962E+02 1.87518E+01 0.00000E+00
 -1      2142 1.03790E+02 1.82979E+01 0.00000E+00
 -1      2143 1.01544E+02 2.04245E+01 0.00000E+00
 -1      2144 1.02104E+02 1.96645E+01 0.00000E+00
 -1      2145 1.00240E+02 2.18230E+01 0.00000E+00
 -1      2146 1.00892E+02 2.11237E+01 0.00000E+00
 -1      2147 1.00616E+02 2.03343E+01 0.00000E+00
 -1      2148 9.96898E+01 2.39445E+01 0.00000E+00
 -1      2149 9.97820E+01 2.30112E+01 0.00000E+00
 -1      2150 9.91938E+01 2.57039E+01 0.00000E+00
 -1      2151 9.94418E+01 2.48242E+01 0.00000E+00
 -1      2152 9.88013E+01 2.42897E+01 0.00000E+00
 -1      2153 9.96190E+01 2.77536E+01 0.00000E+00
 -1      2154 9.93493E+01 2.68696E+01 0.00000E+00
 -1      2155 9.99776E+01 2.95149E+01 0.00000E+00
 -1      2156 9.97983E+01 2.86343E+01 0.00000E+00
 -1      2157 9.90436E+01 2.83814E+01 0.00000E+00
 -1      2158 1.00947E+02 3.13768E+01 0.00000E+00
 -1      2159 1.00363E+02 3.06677E+01 0.00000E+00
 -1      2160 1.02142E+02 3.26155E+01 0.00000E+00
 -1      2161 1.01544E+02 3.19961E+01 0.00000E+00
 -1      2162 1.00590E+02 3.21869E+01 0.00000E+00
 -1      2163 1.03709E+02 3.38019E+01 0.00000E+00
 -1      2164 1.03012E+02 3.32424E+01 0.00000E+00
 -1      2165 1.05565E+02 3.48044E+01 0.00000E+00
 -1      2166 1.04668E+02 3.45063E+01 0.00000E+00
 -1      2167 1.07568E+02 3.49600E+01 0.00000E+00
 -1      2168 1.06667E+02 3.48708E+01 0.00000E+00
 -1      2169 1.09469E+02 3.50259E+01 0.00000E+00
 -1      2170 1.08590E+02 3.50960E+01 0.00000E+00
 -1      2171 1.11304E+02 3.45690E+01 0.00000E+00
 -1      2172 1.10448E+02 3.47817E+01 0.00000E+00
 -1      2173 1.13016E+02 3.36817E+01 0.00000E+00
 -1      2174 1.12253E+02 3.41063E+01 0.00000E+00
 -1      2175 1.14540E+02 3.25402E+01 0.00000E+00
 -1      2176 1.13872E+02 3.31276E+01 0.00000E+00
 -1      2177 1.15790E+02 3.10718E+01 0.00000E+00
 -1      2178 1.15304E+02 3.17965E+01 0.00000E+00
 -1      2179 1.16552E+02 2.94317E+01 0.00000E+00
 -1      2180 1.16161E+02 3.01935E+01 0.00000E+00
 -1      2181 1.17312E+02 2.77164E+01 0.00000E+00
 -1      2182 1.17043E+02 2.85648E+01 0.00000E+00
 -1      2183 1.12101E+02 1.79292E+01 0.00000E+00
 -1      2184 1.12941E+02 1.82386E+01 0.00000E+00
 -1      2185 1.11962E+02 1.69772E+01 0.00000E+00
 -1      2186 1.13805E+02 1.80585E+01 0.00000E+00
 -1      2187 6.42300E+00 4.57510E+01 0.00000E+00
 -1      2188 1.04062E+02 1.74118E+01 0.00000E+00
 -1      2189 7.17300E+00 4.44520E+01 0.00000E+00
 -1      2190 1.18153E+02 2.48824E+01 0.00000E+00
 -1      2191 1.16617E+02 2.09776E+01 0.00000E+00
 -1      2192 1.45665E+02 4.31193E+01 0.00000E+00
 -1      2193 1.18143E+02 2.72672E+01 0.00000E+00
 -1      2194 1.17424E+02 2.92413E+01 0.00000E+00
 -1      2195 1.16562E+02 3.09865E+01 0.00000E+00
 -1      2196 1.15426E+02 3.26084E+01 0.00000E+00
 -1      2197 1.13805E+02 3.39062E+01 0.00000E+00
 -1      2198 1.12001E+02 3.49230E+01 0.00000E+00
 -1      2199 1.10074E+02 3.56298E+01 0.00000E+00
 -1      2200 1.08072E+02 3.57380E+01 0.00000E+00
 -1      2201 1.05948E+02 3.55356E+01 0.00000E+00
 -1      2202 1.02058E+02 3.34332E+01 0.00000E+00
 -1      2203 9.96079E+01 3.04148E+01 0.00000E+00
 -1      2204 9.87088E+01 2.63351E+01 0.00000E+00
 -1      2205 9.80683E+01 2.58006E+01 0.00000E+00
 -1      2206 9.82238E+01 2.69662E+01 0.00000E+00
 -1      2207 9.95068E+01 2.22218E+01 0.00000E+00
 -1      2208 9.92316E+01 2.14323E+01 0.00000E+00
 -1      2209 9.87741E+01 2.26206E+01 0.00000E+00
 -1      2210 1.10045E+02 1.65819E+01 0.00000E+00
 -1      2211 1.07889E+02 1.64837E+01 0.00000E+00
 -1      2212 1.02126E+02 1.87223E+01 0.00000E+00
 -1      2213 1.03887E+02 3.47647E+01 0.00000E+00
 -1      2214 1.07850E+01 5.30525E+00 0.00000E+00
 -1      2215 9.28500E+00 5.30525E+00 0.00000E+00
 -1      2216 6.49500E+00 3.01125E+01 0.00000E+00
 -1      2217 6.49500E+00 3.15875E+01 0.00000E+00
 -1      2218 6.49500E+00 3.30625E+01 0.00000E+00
 -1      2219 6.49500E+00 3.45375E+01 0.00000E+00
 -1      2220 7.79400E+00 3.23250E+01 0.00000E+00
 -1      2221 6.49500E+00 2.42125E+01 0.00000E+00
 -1      2222 6.49500E+00 2.56875E+01 0.00000E+00
 -1      2223 6.49500E+00 2.12625E+01 0.00000E+00
 -1      2224 6.49500E+00 2.27375E+01 0.00000E+00
 -1      2225 7.79400E+00 2.34750E+01 0.00000E+00
 -1      2226 6.49500E+00 1.83625E+01 0.00000E+00
 -1      2227 6.49500E+00 1.98125E+01 0.00000E+00
 -1      2228 7.79400E+00 2.05500E+01 0.00000E+00
 -1      2229 6.49500E+00 1.54125E+01 0.00000E+00
 -1      2230 6.49500E+00 1.68875E+01 0.00000E+00
 -1      2231 7.79400E+00 1.76250E+01 0.00000E+00
 -1      2232 6.49500E+00 1.24625E+01 0.00000E+00
 -1      2233 6.49500E+00 1.39375E+01 0.00000E+00
 -1      2234 7.79400E+00 1.46750E+01 0.00000E+00
 -1      2235 6.49500E+00 9.51250E+00 0.00000E+00
 -1      2236 6.49500E+00 1.09875E+01 0.00000E+00
 -1      2237 7.79400E+00 1.17250E+01 0.00000E+00
 -1      2238 1.37850E+01 5.30525E+00 0.00000E+00
 -1      2239 1.22850E+01 5.30525E+00 0.00000E+00
 -1      2240 1.15350E+01 6.60425E+00 0.00000E+00
 -1      2241 9.90000E+00 4.35050E+01 0.00000E+00
 -1      2242 1.14000E+01 4.35050E+01 0.00000E+00
 -1      2243 1.03197E+02 1.67276E+01 0.00000E+00
 -1      2244 1.04275E+02 1.63297E+01 0.00000E+00
 -1      2245 1.13826E+02 1.69929E+01 0.00000E+00
 -1      2246 1.14829E+02 1.77647E+01 0.00000E+00
 -1      2247 1.29000E+01 4.35050E+01 0.00000E+00
 -1      2248 1.44000E+01 4.35050E+01 0.00000E+00
 -1      2249 1.21500E+01 4.22060E+01 0.00000E+00
 -1      2250 1.59000E+01 4.35050E+01 0.00000E+00
 -1      2251 1.74000E+01 4.35050E+01 0.00000E+00
 -1      2252 1.51500E+01 4.22060E+01 0.00000E+00
 -1      2253 1.89000E+01 4.35050E+01 0.00000E+00
 -1      2254 2.04000E+01 4.35050E+01 0.00000E+00
 -1      2255 1.81500E+01 4.22060E+01 0.00000E+00
 -1      2256 2.19000E+01 4.35050E+01 0.00000E+00
 -1      2257 2.34000E+01 4.35050E+01 0.00000E+00
 -1      2258 2.11500E+01 4.22060E+01 0.00000E+00
 -1      2259 2.49000E+01 4.35050E+01 0.00000E+00
 -1      2260 2.64000E+01 4.35050E+01 0.00000E+00
 -1      2261 2.41500E+01 4.22060E+01 0.00000E+00
 -1      2262 2.79000E+01 4.35050E+01 0.00000E+00
 -1      2263 2.94000E+01 4.35050E+01 0.00000E+00
 -1      2264 2.71500E+01 4.22060E+01 0.00000E+00
 -1      2265 3.09000E+01 4.35050E+01 0.00000E+00
 -1      2266 3.24000E+01 4.35050E+01 0.00000E+00
 -1      2267 3.01500E+01 4.22060E+01 0.00000E+00
 -1      2268 3.39000E+01 4.35050E+01 0.00000E+00
 -1      2269 3.54000E+01 4.35050E+01 0.00000E+00
 -1      2270 3.31500E+01 4.22060E+01 0.00000E+00
 -1      2271 3.69000E+01 4.35050E+01 0.00000E+00
 -1      2272 3.84000E+01 4.35050E+01 0.00000E+00
 -1      2273 3.61500E+01 4.22060E+01 0.00000E+00
 -1      2274 3.99000E+01 4.35050E+01 0.00000E+00
 -1      2275 4.14000E+01 4.35050E+01 0.00000E+00
 -1      2276 3.91500E+01 4.22060E+01 0.00000E+00
 -1      2277 4.29000E+01 4.35050E+01 0.00000E+00
 -1      2278 4.44000E+01 4.35050E+01 0.00000E+00
 -1      2279 4.21500E+01 4.22060E+01 0.00000E+00
 -1      2280 4.59000E+01 4.35050E+01 0.00000E+00
 -1      2281 4.74000E+01 4.35050E+01 0.00000E+00
 -1      2282 4.51500E+01 4.22060E+01 0.00000E+00
 -1      2283 4.89000E+01 4.35050E+01 0.00000E+00
 -1      2284 5.04000E+01 4.35050E+01 0.00000E+00
 -1      2285 4.81500E+01 4.22060E+01 0.00000E+00
 -1      2286 5.19000E+01 4.35050E+01 0.00000E+00
 -1      2287 5.34000E+01 4.35050E+01 0.00000E+00
 -1      2288 5.11500E+01 4.22060E+01 0.00000E+00
 -1      2289 5.49000E+01 4.35050E+01 0.00000E+00
 -1      2290 5.64000E+01 4.35050E+01 0.00000E+00
 -1      2291 5.41500E+01 4.22060E+01 0.00000E+00
 -1      2292 5.79000E+01 4.35050E+01 0.00000E+00
 -1      2293 5.94000E+01 4.35050E+01 0.00000E+00
 -1      2294 5.71500E+01 4.22060E+01 0.00000E+00
 -1      2295 6.09000E+01 4.35050E+01 0.00000E+00
 -1      2296 6.24000E+01 4.35050E+01 0.00000E+00
 -1      2297 6.01500E+01 4.22060E+01 0.00000E+00
 -1      2298 6.39000E+01 4.35050E+01 0.00000E+00
 -1      2299 6.54000E+01 4.35050E+01 0.00000E+00
 -1      2300 6.31500E+01 4.22060E+01 0.00000E+00
 -1      2301 6.69000E+01 4.35050E+01 0.00000E+00
 -1      2302 6.84000E+01 4.35050E+01 0.00000E+00
 -1      2303 6.61500E+01 4.22060E+01 0.00000E+00
 -1      2304 6.99000E+01 4.35050E+01 0.00000E+00
 -1      2305 7.14000E+01 4.35050E+01 0.00000E+00
 -1      2306 6.91500E+01 4.22060E+01 0.00000E+00
 -1      2307 7.29000E+01 4.35050E+01 0.00000E+00
 -1      2308 7.44000E+01 4.35050E+01 0.00000E+00
 -1      2309 7.21500E+01 4.22060E+01 0.00000E+00
 -1      2310 7.59000E+01 4.35050E+01 0.00000E+00
 -1      2311 7.74000E+01 4.35050E+01 0.00000E+00
 -1      2312 7.51500E+01 4.22060E+01 0.00000E+00
 -1      2313 7.89000E+01 4.35050E+01 0.00000E+00
 -1      2314 8.04000E+01 4.35050E+01 0.00000E+00
 -1      2315 7.81500E+01 4.22060E+01 0.00000E+00
 -1      2316 8.19000E+01 4.35050E+01 0.00000E+00
 -1      2317 8.34000E+01 4.35050E+01 0.00000E+00
 -1      2318 8.11500E+01 4.22060E+01 0.00000E+00
 -1      2319 8.49000E+01 4.35050E+01 0.00000E+00
 -1      2320 8.64000E+01 4.35050E+01 0.00000E+00
 -1      2321 8.41500E+01 4.22060E+01 0.00000E+00
 -1      2322 8.79000E+01 4.35050E+01 0.00000E+00
 -1      2323 8.94000E+01 4.35050E+01 0.00000E+00
 -1      2324 8.71500E+01 4.22060E+01 0.00000E+00
 -1      2325 9.09000E+01 4.35050E+01 0.00000E+00
 -1      2326 9.24000E+01 4.35050E+01 0.00000E+00
 -1      2327 9.01500E+01 4.22060E+01 0.00000E+00
 -1      2328 9.39000E+01 4.35050E+01 0.00000E+00
 -1      2329 9.54000E+01 4.35050E+01 0.00000E+00
 -1      2330 9.31500E+01 4.22060E+01 0.00000E+00
 -1      2331 9.69000E+01 4.35050E+01 0.00000E+00
 -1      2332 9.84000E+01 4.35050E+01 0.00000E+00
 -1      2333 9.61500E+01 4.22060E+01 0.00000E+00
 -1      2334 9.99000E+01 4.35050E+01 0.00000E+00
 -1      2335 1.01400E+02 4.35050E+01 0.00000E+00
 -1      2336 9.91500E+01 4.22060E+01 0.00000E+00
 -1      2337 1.02900E+02 4.35050E+01 0.00000E+00
 -1      2338 1.04400E+02 4.35050E+01 0.00000E+00
 -1      2339 1.02150E+02 4.22060E+01 0.00000E+00
 -1      2340 1.05900E+02 4.35050E+01 0.00000E+00
 -1      2341 1.07400E+02 4.35050E+01 0.00000E+00
 -1      2342 1.05150E+02 4.22060E+01 0.00000E+00
 -1      2343 1.08900E+02 4.35050E+01 0.00000E+00
 -1      2344 1.10400E+02 4.35050E+01 0.00000E+00
 -1      2345 1.08150E+02 4.22060E+01 0.00000E+00
 -1      2346 1.11900E+02 4.35050E+01 0.00000E+00
 -1      2347 1.13400E+02 4.35050E+01 0.00000E+00
 -1      2348 1.11150E+02 4.22060E+01 0.00000E+00
 -1      2349 1.14900E+02 4.35050E+01 0.00000E+00
 -1      2350 1.16400E+02 4.35050E+01 0.00000E+00
 -1      2351 1.14150E+02 4.22060E+01 0.00000E+00
 -1      2352 1.17900E+02 4.35050E+01 0.00000E+00
 -1      2353 1.19400E+02 4.35050E+01 0.00000E+00
 -1      2354 1.17150E+02 4.22060E+01 0.00000E+00
 -1      2355 1.20900E+02 4.35050E+01 0.00000E+00
 -1      2356 1.22400E+02 4.35050E+01 0.00000E+00
 -1      2357 1.20150E+02 4.22060E+01 0.00000E+00
 -1      2358 1.23900E+02 4.35050E+01 0.00000E+00
 -1      2359 1.25400E+02 4.35050E+01 0.00000E+00
 -1      2360 1.23150E+02 4.22060E+01 0.00000E+00
 -1      2361 1.26900E+02 4.35050E+01 0.00000E+00
 -1      2362 1.28400E+02 4.35050E+01 0.00000E+00
 -1      2363 1.26150E+02 4.22060E+01 0.00000E+00
 -1      2364 1.29900E+02 4.35050E+01 0.00000E+00
 -1      2365 1.31400E+02 4.35050E+01 0.00000E+00
 -1      2366 1.29150E+02 4.22060E+01 0.00000E+00
 -1      2367 1.32900E+02 4.35050E+01 0.00000E+00
 -1      2368 1.34400E+02 4.35050E+01 0.00000E+00
 -1      2369 1.32150E+02 4.22060E+01 0.00000E+00
 -1      2370 1.35900E+02 4.35050E+01 0.00000E+00
 -1      2371 1.37400E+02 4.35050E+01 0.00000E+00
 -1      2372 1.35150E+02 4.22060E+01 0.00000E+00
 -1      2373 1.38900E+02 4.35050E+01 0.00000E+00
 -1      2374 1.40400E+02 4.35050E+01 0.00000E+00
 -1      2375 1.38150E+02 4.22060E+01 0.00000E+00
 -1      2376 1.18198E+02 2.19856E+01 0.00000E+00
 -1      2377 1.18531E+02 2.28745E+01 0.00000E+00
 -1      2378 1.97850E+01 5.30525E+00 0.00000E+00
 -1      2379 1.82850E+01 5.30525E+00 0.00000E+00
 -1      2380 2.27850E+01 5.30525E+00 0.00000E+00
 -1      2381 2.12850E+01 5.30525E+00 0.00000E+00
 -1      2382 2.05350E+01 6.60425E+00 0.00000E+00
 -1      2383 2.57850E+01 5.30525E+00 0.00000E+00
 -1      2384 2.42850E+01 5.30525E+00 0.00000E+00
 -1      2385 2.35350E+01 6.60425E+00 0.00000E+00
 -1      2386 2.87850E+01 5.30525E+00 0.00000E+00
 -1      2387 2.72850E+01 5.30525E+00 0.00000E+00
 -1      2388 2.65350E+01 6.60425E+00 0.00000E+00
 -1      2389 3.17850E+01 5.30525E+00 0.00000E+00
 -1      2390 3.02850E+01 5.30525E+00 0.00000E+00
 -1      2391 2.95350E+01 6.60425E+00 0.00000E+00
 -1      2392 3.47850E+01 5.30525E+00 0.00000E+00
 -1      2393 3.32850E+01 5.30525E+00 0.00000E+00
 -1      2394 3.25350E+01 6.60425E+00 0.00000E+00
 -1      2395 3.77850E+01 5.30525E+00 0.00000E+00
 -1      2396 3.62850E+01 5.30525E+00 0.00000E+00
 -1      2397 3.55350E+01 6.60425E+00 0.00000E+00
 -1      2398 4.07850E+01 5.30525E+00 0.00000E+00
 -1      2399 3.92850E+01 5.30525E+00 0.00000E+00
 -1      2400 3.85350E+01 6.60425E+00 0.00000E+00
 -1      2401 4.37850E+01 5.30525E+00 0.00000E+00
 -1      2402 4.22850E+01 5.30525E+00 0.00000E+00
 -1      2403 4.15350E+01 6.60425E+00 0.00000E+00
 -1      2404 4.67850E+01 5.30525E+00 0.00000E+00
 -1      2405 4.52850E+01 5.30525E+00 0.00000E+00
 -1      2406 4.45350E+01 6.60425E+00 0.00000E+00
 -1      2407 4.97850E+01 5.30525E+00 0.00000E+00
 -1      2408 4.82850E+01 5.30525E+00 0.00000E+00
 -1      2409 4.75350E+01 6.60425E+00 0.00000E+00
 -1      2410 5.27850E+01 5.30525E+00 0.00000E+00
 -1      2411 5.12850E+01 5.30525E+00 0.00000E+00
 -1      2412 5.05350E+01 6.60425E+00 0.00000E+00
 -1      2413 5.57850E+01 5.30525E+00 0.00000E+00
 -1      2414 5.42850E+01 5.30525E+00 0.00000E+00
 -1      2415 5.35350E+01 6.60425E+00 0.00000E+00
 -1      2416 5.87850E+01 5.30525E+00 0.00000E+00
 -1      2417 5.72850E+01 5.30525E+00 0.00000E+00
 -1      2418 5.65350E+01 6.60425E+00 0.00000E+00
 -1      2419 6.17850E+01 5.30525E+00 0.00000E+00
 -1      2420 6.02850E+01 5.30525E+00 0.00000E+00
 -1      2421 5.95350E+01 6.60425E+00 0.00000E+00
 -1      2422 6.47850E+01 5.30525E+00 0.00000E+00
 -1      2423 6.32850E+01 5.30525E+00 0.00000E+00
 -1      2424 6.25350E+01 6.60425E+00 0.00000E+00
 -1      2425 6.77850E+01 5.30525E+00 0.00000E+00
 -1      2426 6.62850E+01 5.30525E+00 0.00000E+00
 -1      2427 6.55350E+01 6.60425E+00 0.00000E+00
 -1      2428 7.07850E+01 5.30525E+00 0.00000E+00
 -1      2429 6.92850E+01 5.30525E+00 0.00000E+00
 -1      2430 6.85350E+01 6.60425E+00 0.00000E+00
 -1      2431 7.37850E+01 5.30525E+00 0.00000E+00
 -1      2432 7.22850E+01 5.30525E+00 0.00000E+00
 -1      2433 7.15350E+01 6.60425E+00 0.00000E+00
 -1      2434 7.67850E+01 5.30525E+00 0.00000E+00
 -1      2435 7.52850E+01 5.30525E+00 0.00000E+00
 -1      2436 7.45350E+01 6.60425E+00 0.00000E+00
 -1      2437 7.97850E+01 5.30525E+00 0.00000E+00
 -1      2438 7.82850E+01 5.30525E+00 0.00000E+00
 -1      2439 7.75350E+01 6.60425E+00 0.00000E+00
 -1      2440 8.27850E+01 5.30525E+00 0.00000E+00
 -1      2441 8.12850E+01 5.30525E+00 0.00000E+00
 -1      2442 8.05350E+01 6.60425E+00 0.00000E+00
 -1      2443 8.57850E+01 5.30525E+00 0.00000E+00
 -1      2444 8.42850E+01 5.30525E+00 0.00000E+00
 -1      2445 8.35350E+01 6.60425E+00 0.00000E+00
 -1      2446 8.87850E+01 5.30525E+00 0.00000E+00
 -1      2447 8.72850E+01 5.30525E+00 0.00000E+00
 -1      2448 8.65350E+01 6.60425E+00 0.00000E+00
 -1      2449 9.17850E+01 5.30525E+00 0.00000E+00
 -1      2450 9.02850E+01 5.30525E+00 0.00000E+00
 -1      2451 8.95350E+01 6.60425E+00 0.00000E+00
 -1      2452 9.47850E+01 5.30525E+00 0.00000E+00
 -1      2453 9.32850E+01 5.30525E+00 0.00000E+00
 -1      2454 9.25350E+01 6.60425E+00 0.00000E+00
 -1      2455 9.77850E+01 5.30525E+00 0.00000E+00
 -1      2456 9.62850E+01 5.30525E+00 0.00000E+00
 -1      2457 9.55350E+01 6.60425E+00 0.00000E+00
 -1      2458 1.00785E+02 5.30525E+00 0.00000E+00
 -1      2459 9.92850E+01 5.30525E+00 0.00000E+00
 -1      2460 9.85350E+01 6.60425E+00 0.00000E+00
 -1      2461 1.03785E+02 5.30525E+00 0.00000E+00
 -1      2462 1.02285E+02 5.30525E+00 0.00000E+00
 -1      2463 1.01535E+02 6.60425E+00 0.00000E+00
 -1      2464 1.06785E+02 5.30525E+00 0.00000E+00
 -1      2465 1.05285E+02 5.30525E+00 0.00000E+00
 -1      2466 1.04535E+02 6.60425E+00 0.00000E+00
 -1      2467 1.09785E+02 5.30525E+00 0.00000E+00
 -1      2468 1.08285E+02 5.30525E+00 0.00000E+00
 -1      2469 1.07535E+02 6.60425E+00 0.00000E+00
 -1      2470 1.12785E+02 5.30525E+00 0.00000E+00
 -1      2471 1.11285E+02 5.30525E+00 0.00000E+00
 -1      2472 1.10535E+02 6.60425E+00 0.00000E+00
 -1      2473 1.15785E+02 5.30525E+00 0.00000E+00
 -1      2474 1.14285E+02 5.30525E+00 0.00000E+00
 -1      2475 1.13535E+02 6.60425E+00 0.00000E+00
 -1      2476 1.18785E+02 5.30525E+00 0.00000E+00
 -1      2477 1.17285E+02 5.30525E+00 0.00000E+00
 -1      2478 1.16535E+02 6.60425E+00 0.00000E+00
 -1      2479 1.21785E+02 5.30525E+00 0.00000E+00
 -1      2480 1.20285E+02 5.30525E+00 0.00000E+00
 -1      2481 1.19535E+02 6.60425E+00 0.00000E+00
 -1      2482 1.24785E+02 5.30525E+00 0.00000E+00
 -1      2483 1.23285E+02 5.30525E+00 0.00000E+00
 -1      2484 1.22535E+02 6.60425E+00 0.00000E+00
 -1      2485 1.27785E+02 5.30525E+00 0.00000E+00
 -1      2486 1.26285E+02 5.30525E+00 0.00000E+00
 -1      2487 1.25535E+02 6.60425E+00 0.00000E+00
 -1      2488 1.30785E+02 5.30525E+00 0.00000E+00
 -1      2489 1.29285E+02 5.30525E+00 0.00000E+00
 -1      2490 1.28535E+02 6.60425E+00 0.00000E+00
 -1      2491 1.33785E+02 5.30525E+00 0.00000E+00
 -1      2492 1.32285E+02 5.30525E+00 0.00000E+00
 -1      2493 1.31535E+02 6.60425E+00 0.00000E+00
 -1      2494 1.36785E+02 5.30525E+00 0.00000E+00
 -1      2495 1.35285E+02 5.30525E+00 0.00000E+00
 -1      2496 1.34535E+02 6.60425E+00 0.00000E+00
 -1      2497 1.39785E+02 5.30525E+00 0.00000E+00
 -1      2498 1.38285E+02 5.30525E+00 0.00000E+00
 -1      2499 1.37535E+02 6.60425E+00 0.00000E+00
 -1      2500 1.42785E+02 5.30525E+00 0.00000E+00
 -1      2501 1.41285E+02 5.30525E+00 0.00000E+00
 -1      2502 1.40535E+02 6.60425E+00 0.00000E+00
 -1      2503 1.44336E+02 5.26953E+00 0.00000E+00
 -1      2504 1.43505E+02 1.69125E+01 0.00000E+00
 -1      2505 1.43505E+02 1.54375E+01 0.00000E+00
 -1      2506 1.43505E+02 1.98625E+01 0.00000E+00
 -1      2507 1.43505E+02 1.83875E+01 0.00000E+00
 -1      2508 1.42206E+02 1.76500E+01 0.00000E+00
 -1      2509 1.43505E+02 1.10625E+01 0.00000E+00
 -1      2510 1.43505E+02 9.58750E+00 0.00000E+00
 -1      2511 1.43505E+02 1.39750E+01 0.00000E+00
 -1      2512 1.43505E+02 1.25250E+01 0.00000E+00
 -1      2513 1.42206E+02 1.17875E+01 0.00000E+00
 -1      2514 1.42206E+02 1.47125E+01 0.00000E+00
 -1      2515 1.43505E+02 2.28125E+01 0.00000E+00
 -1      2516 1.43505E+02 2.13375E+01 0.00000E+00
 -1      2517 1.42206E+02 2.06000E+01 0.00000E+00
 -1      2518 1.43505E+02 2.57625E+01 0.00000E+00
 -1      2519 1.43505E+02 2.42875E+01 0.00000E+00
 -1      2520 1.42206E+02 2.35500E+01 0.00000E+00
 -1      2521 1.43505E+02 2.87125E+01 0.00000E+00
 -1      2522 1.43505E+02 2.72375E+01 0.00000E+00
 -1      2523 1.42206E+02 2.65000E+01 0.00000E+00
 -1      2524 1.43505E+02 3.16125E+01 0.00000E+00
 -1      2525 1.43505E+02 3.01625E+01 0.00000E+00
 -1      2526 1.42206E+02 2.94250E+01 0.00000E+00
 -1      2527 1.43505E+02 3.45625E+01 0.00000E+00
 -1      2528 1.43505E+02 3.30875E+01 0.00000E+00
 -1      2529 1.42206E+02 3.23500E+01 0.00000E+00
 -1      2530 1.43505E+02 3.75125E+01 0.00000E+00
 -1      2531 1.43505E+02 3.60375E+01 0.00000E+00
 -1      2532 1.42206E+02 3.53000E+01 0.00000E+00
 -1      2533 1.43505E+02 4.04625E+01 0.00000E+00
 -1      2534 1.43505E+02 3.89875E+01 0.00000E+00
 -1      2535 1.42206E+02 3.82500E+01 0.00000E+00
 -1      2536 1.44321E+02 4.30606E+01 0.00000E+00
 -1      2537 1.19097E+02 2.68870E+01 0.00000E+00
 -1      2538 1.18869E+02 2.79942E+01 0.00000E+00
 -1      2539 1.67850E+01 5.30525E+00 0.00000E+00
 -1      2540 1.52850E+01 5.30525E+00 0.00000E+00
 -1      2541 1.75350E+01 6.60425E+00 0.00000E+00
 -1      2542 1.17038E+02 1.99801E+01 0.00000E+00
 -1      2543 1.17689E+02 2.08295E+01 0.00000E+00
 -1      2544 1.15644E+02 1.85479E+01 0.00000E+00
 -1      2545 1.16223E+02 1.91969E+01 0.00000E+00
 -1      2546 1.17296E+02 1.90487E+01 0.00000E+00
 -1      2547 1.15666E+02 1.74823E+01 0.00000E+00
 -1      2548 1.11867E+02 1.59393E+01 0.00000E+00
 -1      2549 1.12707E+02 1.62487E+01 0.00000E+00
 -1      2550 1.18306E+02 2.91683E+01 0.00000E+00
 -1      2551 1.17816E+02 3.00353E+01 0.00000E+00
 -1      2552 1.09574E+02 1.56841E+01 0.00000E+00
 -1      2553 1.10652E+02 1.57700E+01 0.00000E+00
 -1      2554 6.55950E+00 4.28890E+01 0.00000E+00
 -1      2555 8.53650E+00 4.32410E+01 0.00000E+00
 -1      2556 9.28650E+00 4.19420E+01 0.00000E+00
 -1      2557 6.55950E+00 4.14140E+01 0.00000E+00
 -1      2558 6.49500E+00 2.71625E+01 0.00000E+00
 -1      2559 6.49500E+00 2.86375E+01 0.00000E+00
 -1      2560 7.79400E+00 2.93750E+01 0.00000E+00
 -1      2561 7.79400E+00 2.64250E+01 0.00000E+00
 -1      2562 1.07359E+02 1.56619E+01 0.00000E+00
 -1      2563 1.08437E+02 1.56742E+01 0.00000E+00
 -1      2564 1.01072E+02 1.85915E+01 0.00000E+00
 -1      2565 1.01930E+02 1.76788E+01 0.00000E+00
 -1      2566 1.05110E+02 1.60585E+01 0.00000E+00
 -1      2567 1.05945E+02 1.57872E+01 0.00000E+00
 -1      2568 1.04245E+02 1.53743E+01 0.00000E+00
 -1      2569 1.03859E+02 3.58080E+01 0.00000E+00
 -1      2570 1.02900E+02 3.51035E+01 0.00000E+00
 -1      2571 9.97245E+01 2.01562E+01 0.00000E+00
 -1      2572 1.00377E+02 1.94569E+01 0.00000E+00
 -1      2573 9.79728E+01 2.45310E+01 0.00000E+00
 -1      2574 9.82208E+01 2.36513E+01 0.00000E+00
 -1      2575 9.82929E+01 2.89927E+01 0.00000E+00
 -1      2576 9.81136E+01 2.81121E+01 0.00000E+00
 -1      2577 9.89076E+01 3.12894E+01 0.00000E+00
 -1      2578 9.85225E+01 3.01366E+01 0.00000E+00
 -1      2579 1.00212E+02 3.31501E+01 0.00000E+00
 -1      2580 9.96142E+01 3.25308E+01 0.00000E+00
 -1      2581 1.01992E+02 3.44426E+01 0.00000E+00
 -1      2582 1.01122E+02 3.38156E+01 0.00000E+00
 -1      2583 1.06447E+02 3.64248E+01 0.00000E+00
 -1      2584 1.05345E+02 3.63584E+01 0.00000E+00
 -1      2585 1.08492E+02 3.66969E+01 0.00000E+00
 -1      2586 1.07469E+02 3.65608E+01 0.00000E+00
 -1      2587 1.06867E+02 3.73836E+01 0.00000E+00
 -1      2588 1.10750E+02 3.62585E+01 0.00000E+00
 -1      2589 1.09771E+02 3.65027E+01 0.00000E+00
 -1      2590 1.12851E+02 3.54624E+01 0.00000E+00
 -1      2591 1.11903E+02 3.59250E+01 0.00000E+00
 -1      2592 1.14654E+02 3.42787E+01 0.00000E+00
 -1      2593 1.13798E+02 3.48328E+01 0.00000E+00
 -1      2594 1.16347E+02 3.27911E+01 0.00000E+00
 -1      2595 1.15583E+02 3.35347E+01 0.00000E+00
 -1      2596 1.17444E+02 3.09135E+01 0.00000E+00
 -1      2597 1.17072E+02 3.17918E+01 0.00000E+00
 -1      2598 1.18326E+02 3.08405E+01 0.00000E+00
 -1      2599 1.18764E+02 2.41198E+01 0.00000E+00
 -1      2600 1.18984E+02 2.53974E+01 0.00000E+00
 -1      2601 8.07525E+00 5.11044E+00 0.00000E+00
 -1      2602 6.57525E+00 5.11044E+00 0.00000E+00
 -1      2603 6.40575E+00 6.01981E+00 0.00000E+00
 -1      2604 8.82525E+00 6.40944E+00 0.00000E+00
 -1      2605 1.09044E+02 1.48623E+01 0.00000E+00
 -1      2606 7.79400E+00 3.52687E+01 0.00000E+00
 -1      2607 6.49500E+00 3.60062E+01 0.00000E+00
 -1      2608 6.49500E+00 3.74750E+01 0.00000E+00
 -1      2609 1.45350E+01 6.60425E+00 0.00000E+00
 -1      2610 6.40575E+00 7.49481E+00 0.00000E+00
 -1      2611 1.15576E+02 3.44614E+01 0.00000E+00
 -1      2612 1.13700E+02 3.58349E+01 0.00000E+00
 -1      2613 1.09169E+02 3.73255E+01 0.00000E+00
 -1      2614 1.01964E+02 3.54859E+01 0.00000E+00
 -1      2615 1.13732E+02 1.59549E+01 0.00000E+00
 -1      2616 1.19260E+02 2.87881E+01 0.00000E+00
 -1      2617 1.18620E+02 2.09881E+01 0.00000E+00
 -1      2618 1.43586E+02 6.56853E+00 0.00000E+00
 -1      2619 1.43419E+02 7.72713E+00 0.00000E+00
 -1      2620 1.42758E+02 4.35929E+01 0.00000E+00
 -1      2621 1.43241E+02 4.17323E+01 0.00000E+00
 -1      2622 1.41942E+02 4.09948E+01 0.00000E+00
 -1      2623 1.41414E+02 4.35342E+01 0.00000E+00
 -1      2624 1.00146E+02 3.41594E+01 0.00000E+00
 -1      2625 9.85288E+01 3.22526E+01 0.00000E+00
 -1      2626 1.19709E+02 2.61244E+01 0.00000E+00
 -1      2627 1.20435E+02 2.68514E+01 0.00000E+00
 -1      2628 1.20321E+02 2.53617E+01 0.00000E+00
 -1      2629 7.70475E+00 8.23231E+00 0.00000E+00
 -1      2630 1.11397E+02 1.50414E+01 0.00000E+00
 -1      2631 9.75926E+01 2.98674E+01 0.00000E+00
 -1      2632 6.52725E+00 3.87101E+01 0.00000E+00
 -1      2633 6.52725E+00 4.01789E+01 0.00000E+00
 -1      2634 7.89075E+00 4.04429E+01 0.00000E+00
 -1      2635 7.82625E+00 3.79726E+01 0.00000E+00
 -1      2636 9.74878E+01 2.51622E+01 0.00000E+00
 -1      2637 9.69074E+01 2.45238E+01 0.00000E+00
 -1      2638 9.70028E+01 2.57933E+01 0.00000E+00
 -1      2639 9.89918E+01 2.05550E+01 0.00000E+00
 -1      2640 9.87520E+01 1.96776E+01 0.00000E+00
 -1      2641 9.82590E+01 2.09538E+01 0.00000E+00
 -1      2642 9.74731E+01 2.75776E+01 0.00000E+00
 -1      2643 9.79456E+01 2.28619E+01 0.00000E+00
 -1      2644 1.02143E+02 1.65967E+01 0.00000E+00
 -1      2645 1.02356E+02 1.55147E+01 0.00000E+00
 -1      2646 1.01089E+02 1.64659E+01 0.00000E+00
 -1      2647 1.00180E+02 1.84134E+01 0.00000E+00
 -1      2648 1.06494E+02 1.49777E+01 0.00000E+00
 -1      2649 1.04358E+02 3.66972E+01 0.00000E+00
 -1      2650 1.03371E+02 3.70360E+01 0.00000E+00
 -1      2651 1.04857E+02 3.75864E+01 0.00000E+00
 -1      2652 1.19362E+02 2.33894E+01 0.00000E+00
 -1      2653 1.11601E+02 3.67979E+01 0.00000E+00
 -1      2654 1.17230E+02 3.27181E+01 0.00000E+00
 -1      2655 1.42120E+02 8.46463E+00 0.00000E+00
 -1      2656 1.40664E+02 4.22352E+01 0.00000E+00
 -1      2657 9.09300E+00 1.98250E+01 0.00000E+00
 -1      2658 9.09300E+00 2.12750E+01 0.00000E+00
 -1      2659 9.09300E+00 2.27500E+01 0.00000E+00
 -1      2660 9.09300E+00 2.42250E+01 0.00000E+00
 -1      2661 1.03920E+01 2.20250E+01 0.00000E+00
 -1      2662 9.09300E+00 1.39375E+01 0.00000E+00
 -1      2663 9.09300E+00 1.54125E+01 0.00000E+00
 -1      2664 9.09300E+00 1.09875E+01 0.00000E+00
 -1      2665 9.09300E+00 1.24625E+01 0.00000E+00
 -1      2666 1.03920E+01 1.32000E+01 0.00000E+00
 -1      2667 1.22850E+01 7.90325E+00 0.00000E+00
 -1      2668 1.07850E+01 7.90325E+00 0.00000E+00
 -1      2669 1.10942E+02 1.38585E+01 0.00000E+00
 -1      2670 1.12158E+02 1.40277E+01 0.00000E+00
 -1      2671 1.01864E+02 3.65774E+01 0.00000E+00
 -1      2672 1.00956E+02 3.59165E+01 0.00000E+00
 -1      2673 1.44000E+01 4.09070E+01 0.00000E+00
 -1      2674 1.59000E+01 4.09070E+01 0.00000E+00
 -1      2675 1.74000E+01 4.09070E+01 0.00000E+00
 -1      2676 1.89000E+01 4.09070E+01 0.00000E+00
 -1      2677 1.66500E+01 3.96080E+01 0.00000E+00
 -1      2678 2.04000E+01 4.09070E+01 0.00000E+00
 -1      2679 2.19000E+01 4.09070E+01 0.00000E+00
 -1      2680 1.96500E+01 3.96080E+01 0.00000E+00
 -1      2681 2.34000E+01 4.09070E+01 0.00000E+00
 -1      2682 2.49000E+01 4.09070E+01 0.00000E+00
 -1      2683 2.26500E+01 3.96080E+01 0.00000E+00
 -1      2684 2.64000E+01 4.09070E+01 0.00000E+00
 -1      2685 2.79000E+01 4.09070E+01 0.00000E+00
 -1      2686 2.56500E+01 3.96080E+01 0.00000E+00
 -1      2687 2.94000E+01 4.09070E+01 0.00000E+00
 -1      2688 3.09000E+01 4.09070E+01 0.00000E+00
 -1      2689 2.86500E+01 3.96080E+01 0.00000E+00
 -1      2690 3.24000E+01 4.09070E+01 0.00000E+00
 -1      2691 3.39000E+01 4.09070E+01 0.00000E+00
 -1      2692 3.16500E+01 3.96080E+01 0.00000E+00
 -1      2693 3.54000E+01 4.09070E+01 0.00000E+00
 -1      2694 3.69000E+01 4.09070E+01 0.00000E+00
 -1      2695 3.46500E+01 3.96080E+01 0.00000E+00
 -1      2696 3.84000E+01 4.09070E+01 0.00000E+00
 -1      2697 3.99000E+01 4.09070E+01 0.00000E+00
 -1      2698 3.76500E+01 3.96080E+01 0.00000E+00
 -1      2699 4.14000E+01 4.09070E+01 0.00000E+00
 -1      2700 4.29000E+01 4.09070E+01 0.00000E+00
 -1      2701 4.06500E+01 3.96080E+01 0.00000E+00
 -1      2702 4.44000E+01 4.09070E+01 0.00000E+00
 -1      2703 4.59000E+01 4.09070E+01 0.00000E+00
 -1      2704 4.36500E+01 3.96080E+01 0.00000E+00
 -1      2705 4.74000E+01 4.09070E+01 0.00000E+00
 -1      2706 4.89000E+01 4.09070E+01 0.00000E+00
 -1      2707 4.66500E+01 3.96080E+01 0.00000E+00
 -1      2708 5.04000E+01 4.09070E+01 0.00000E+00
 -1      2709 5.19000E+01 4.09070E+01 0.00000E+00
 -1      2710 4.96500E+01 3.96080E+01 0.00000E+00
 -1      2711 5.34000E+01 4.09070E+01 0.00000E+00
 -1      2712 5.49000E+01 4.09070E+01 0.00000E+00
 -1      2713 5.26500E+01 3.96080E+01 0.00000E+00
 -1      2714 5.64000E+01 4.09070E+01 0.00000E+00
 -1      2715 5.79000E+01 4.09070E+01 0.00000E+00
 -1      2716 5.56500E+01 3.96080E+01 0.00000E+00
 -1      2717 5.94000E+01 4.09070E+01 0.00000E+00
 -1      2718 6.09000E+01 4.09070E+01 0.00000E+00
 -1      2719 5.86500E+01 3.96080E+01 0.00000E+00
 -1      2720 6.24000E+01 4.09070E+01 0.00000E+00
 -1      2721 6.39000E+01 4.09070E+01 0.00000E+00
 -1      2722 6.16500E+01 3.96080E+01 0.00000E+00
 -1      2723 6.54000E+01 4.09070E+01 0.00000E+00
 -1      2724 6.69000E+01 4.09070E+01 0.00000E+00
 -1      2725 6.46500E+01 3.96080E+01 0.00000E+00
 -1      2726 6.84000E+01 4.09070E+01 0.00000E+00
 -1      2727 6.99000E+01 4.09070E+01 0.00000E+00
 -1      2728 6.76500E+01 3.96080E+01 0.00000E+00
 -1      2729 7.14000E+01 4.09070E+01 0.00000E+00
 -1      2730 7.29000E+01 4.09070E+01 0.00000E+00
 -1      2731 7.06500E+01 3.96080E+01 0.00000E+00
 -1      2732 7.44000E+01 4.09070E+01 0.00000E+00
 -1      2733 7.59000E+01 4.09070E+01 0.00000E+00
 -1      2734 7.36500E+01 3.96080E+01 0.00000E+00
 -1      2735 7.74000E+01 4.09070E+01 0.00000E+00
 -1      2736 7.89000E+01 4.09070E+01 0.00000E+00
 -1      2737 7.66500E+01 3.96080E+01 0.00000E+00
 -1      2738 8.04000E+01 4.09070E+01 0.00000E+00
 -1      2739 8.19000E+01 4.09070E+01 0.00000E+00
 -1      2740 7.96500E+01 3.96080E+01 0.00000E+00
 -1      2741 8.34000E+01 4.09070E+01 0.00000E+00
 -1      2742 8.49000E+01 4.09070E+01 0.00000E+00
 -1      2743 8.26500E+01 3.96080E+01 0.00000E+00
 -1      2744 8.64000E+01 4.09070E+01 0.00000E+00
 -1      2745 8.79000E+01 4.09070E+01 0.00000E+00
 -1      2746 8.56500E+01 3.96080E+01 0.00000E+00
 -1      2747 8.94000E+01 4.09070E+01 0.00000E+00
 -1      2748 9.09000E+01 4.09070E+01 0.00000E+00
 -1      2749 8.86500E+01 3.96080E+01 0.00000E+00
 -1      2750 9.24000E+01 4.09070E+01 0.00000E+00
 -1      2751 9.39000E+01 4.09070E+01 0.00000E+00
 -1      2752 9.16500E+01 3.96080E+01 0.00000E+00
 -1      2753 9.54000E+01 4.09070E+01 0.00000E+00
 -1      2754 9.69000E+01 4.09070E+01 0.00000E+00
 -1      2755 9.46500E+01 3.96080E+01 0.00000E+00
 -1      2756 9.84000E+01 4.09070E+01 0.00000E+00
 -1      2757 9.99000E+01 4.09070E+01 0.00000E+00
 -1      2758 9.76500E+01 3.96080E+01 0.00000E+00
 -1      2759 1.02260E+02 4.00656E+01 0.00000E+00
 -1      2760 1.03760E+02 4.00656E+01 0.00000E+00
 -1      2761 1.05260E+02 4.00656E+01 0.00000E+00
 -1      2762 1.07400E+02 4.10971E+01 0.00000E+00
 -1      2763 1.08900E+02 4.10971E+01 0.00000E+00
 -1      2764 1.10400E+02 4.10133E+01 0.00000E+00
 -1      2765 1.11900E+02 4.10133E+01 0.00000E+00
 -1      2766 1.13400E+02 4.10133E+01 0.00000E+00
 -1      2767 1.14900E+02 4.10133E+01 0.00000E+00
 -1      2768 1.12650E+02 3.98206E+01 0.00000E+00
 -1      2769 1.16400E+02 4.10133E+01 0.00000E+00
 -1      2770 1.17900E+02 4.10133E+01 0.00000E+00
 -1      2771 1.15650E+02 3.98206E+01 0.00000E+00
 -1      2772 1.19400E+02 4.10133E+01 0.00000E+00
 -1      2773 1.20900E+02 4.10133E+01 0.00000E+00
 -1      2774 1.18650E+02 3.98206E+01 0.00000E+00
 -1      2775 1.22400E+02 4.10133E+01 0.00000E+00
 -1      2776 1.23900E+02 4.10133E+01 0.00000E+00
 -1      2777 1.21650E+02 3.98206E+01 0.00000E+00
 -1      2778 1.25400E+02 4.10133E+01 0.00000E+00
 -1      2779 1.26900E+02 4.10133E+01 0.00000E+00
 -1      2780 1.24650E+02 3.98206E+01 0.00000E+00
 -1      2781 1.28400E+02 4.10133E+01 0.00000E+00
 -1      2782 1.29900E+02 4.10133E+01 0.00000E+00
 -1      2783 1.27650E+02 3.98206E+01 0.00000E+00
 -1      2784 1.31400E+02 4.10133E+01 0.00000E+00
 -1      2785 1.32900E+02 4.10133E+01 0.00000E+00
 -1      2786 1.30650E+02 3.98206E+01 0.00000E+00
 -1      2787 1.34400E+02 4.10133E+01 0.00000E+00
 -1      2788 1.35900E+02 4.10133E+01 0.00000E+00
 -1      2789 1.33650E+02 3.98206E+01 0.00000E+00
 -1      2790 1.37400E+02 4.10133E+01 0.00000E+00
 -1      2791 1.38900E+02 4.10133E+01 0.00000E+00
 -1      2792 1.36650E+02 3.98206E+01 0.00000E+00
 -1      2793 1.00046E+02 3.52510E+01 0.00000E+00
 -1      2794 9.91353E+01 3.45855E+01 0.00000E+00
 -1      2795 9.99456E+01 3.63425E+01 0.00000E+00
 -1      2796 1.40928E+02 4.09655E+01 0.00000E+00
 -1      2797 1.41192E+02 3.96958E+01 0.00000E+00
 -1      2798 1.39914E+02 4.09362E+01 0.00000E+00
 -1      2799 2.12850E+01 7.90325E+00 0.00000E+00
 -1      2800 1.97850E+01 7.90325E+00 0.00000E+00
 -1      2801 3.02850E+01 7.90325E+00 0.00000E+00
 -1      2802 2.87850E+01 7.90325E+00 0.00000E+00
 -1      2803 3.32850E+01 7.90325E+00 0.00000E+00
 -1      2804 3.17850E+01 7.90325E+00 0.00000E+00
 -1      2805 3.10350E+01 9.20225E+00 0.00000E+00
 -1      2806 3.62850E+01 7.90325E+00 0.00000E+00
 -1      2807 3.47850E+01 7.90325E+00 0.00000E+00
 -1      2808 3.40350E+01 9.20225E+00 0.00000E+00
 -1      2809 3.92850E+01 7.90325E+00 0.00000E+00
 -1      2810 3.77850E+01 7.90325E+00 0.00000E+00
 -1      2811 3.70350E+01 9.20225E+00 0.00000E+00
 -1      2812 4.22850E+01 7.90325E+00 0.00000E+00
 -1      2813 4.07850E+01 7.90325E+00 0.00000E+00
 -1      2814 4.00350E+01 9.20225E+00 0.00000E+00
 -1      2815 4.52850E+01 7.90325E+00 0.00000E+00
 -1      2816 4.37850E+01 7.90325E+00 0.00000E+00
 -1      2817 4.30350E+01 9.20225E+00 0.00000E+00
 -1      2818 4.82850E+01 7.90325E+00 0.00000E+00
 -1      2819 4.67850E+01 7.90325E+00 0.00000E+00
 -1      2820 4.60350E+01 9.20225E+00 0.00000E+00
 -1      2821 5.12850E+01 7.90325E+00 0.00000E+00
 -1      2822 4.97850E+01 7.90325E+00 0.00000E+00
 -1      2823 4.90350E+01 9.20225E+00 0.00000E+00
 -1      2824 5.42850E+01 7.90325E+00 0.00000E+00
 -1      2825 5.27850E+01 7.90325E+00 0.00000E+00
 -1      2826 5.20350E+01 9.20225E+00 0.00000E+00
 -1      2827 5.72850E+01 7.90325E+00 0.00000E+00
 -1      2828 5.57850E+01 7.90325E+00 0.00000E+00
 -1      2829 5.50350E+01 9.20225E+00 0.00000E+00
 -1      2830 6.02850E+01 7.90325E+00 0.00000E+00
 -1      2831 5.87850E+01 7.90325E+00 0.00000E+00
 -1      2832 5.80350E+01 9.20225E+00 0.00000E+00
 -1      2833 6.32850E+01 7.90325E+00 0.00000E+00
 -1      2834 6.17850E+01 7.90325E+00 0.00000E+00
 -1      2835 6.10350E+01 9.20225E+00 0.00000E+00
 -1      2836 6.62850E+01 7.90325E+00 0.00000E+00
 -1      2837 6.47850E+01 7.90325E+00 0.00000E+00
 -1      2838 6.40350E+01 9.20225E+00 0.00000E+00
 -1      2839 6.92850E+01 7.90325E+00 0.00000E+00
 -1      2840 6.77850E+01 7.90325E+00 0.00000E+00
 -1      2841 6.70350E+01 9.20225E+00 0.00000E+00
 -1      2842 7.22850E+01 7.90325E+00 0.00000E+00
 -1      2843 7.07850E+01 7.90325E+00 0.00000E+00
 -1      2844 7.00350E+01 9.20225E+00 0.00000E+00
 -1      2845 7.52850E+01 7.90325E+00 0.00000E+00
 -1      2846 7.37850E+01 7.90325E+00 0.00000E+00
 -1      2847 7.30350E+01 9.20225E+00 0.00000E+00
 -1      2848 7.82850E+01 7.90325E+00 0.00000E+00
 -1      2849 7.67850E+01 7.90325E+00 0.00000E+00
 -1      2850 7.60350E+01 9.20225E+00 0.00000E+00
 -1      2851 8.12850E+01 7.90325E+00 0.00000E+00
 -1      2852 7.97850E+01 7.90325E+00 0.00000E+00
 -1      2853 7.90350E+01 9.20225E+00 0.00000E+00
 -1      2854 8.42850E+01 7.90325E+00 0.00000E+00
 -1      2855 8.27850E+01 7.90325E+00 0.00000E+00
 -1      2856 8.20350E+01 9.20225E+00 0.00000E+00
 -1      2857 8.72850E+01 7.90325E+00 0.00000E+00
 -1      2858 8.57850E+01 7.90325E+00 0.00000E+00
 -1      2859 8.50350E+01 9.20225E+00 0.00000E+00
 -1      2860 9.02850E+01 7.90325E+00 0.00000E+00
 -1      2861 8.87850E+01 7.90325E+00 0.00000E+00
 -1      2862 8.80350E+01 9.20225E+00 0.00000E+00
 -1      2863 9.32850E+01 7.90325E+00 0.00000E+00
 -1      2864 9.17850E+01 7.90325E+00 0.00000E+00
 -1      2865 9.10350E+01 9.20225E+00 0.00000E+00
 -1      2866 9.62850E+01 7.90325E+00 0.00000E+00
 -1      2867 9.47850E+01 7.90325E+00 0.00000E+00
 -1      2868 9.40350E+01 9.20225E+00 0.00000E+00
 -1      2869 9.92850E+01 7.90325E+00 0.00000E+00
 -1      2870 9.77850E+01 7.90325E+00 0.00000E+00
 -1      2871 9.70350E+01 9.20225E+00 0.00000E+00
 -1      2872 1.02285E+02 7.90325E+00 0.00000E+00
 -1      2873 1.00785E+02 7.90325E+00 0.00000E+00
 -1      2874 1.00035E+02 9.20225E+00 0.00000E+00
 -1      2875 1.05285E+02 7.90325E+00 0.00000E+00
 -1      2876 1.03785E+02 7.90325E+00 0.00000E+00
 -1      2877 1.03035E+02 9.20225E+00 0.00000E+00
 -1      2878 1.08285E+02 7.90325E+00 0.00000E+00
 -1      2879 1.06785E+02 7.90325E+00 0.00000E+00
 -1      2880 1.06035E+02 9.20225E+00 0.00000E+00
 -1      2881 1.11285E+02 7.90325E+00 0.00000E+00
 -1      2882 1.09785E+02 7.90325E+00 0.00000E+00
 -1      2883 1.09035E+02 9.20225E+00 0.00000E+00
 -1      2884 1.14285E+02 7.90325E+00 0.00000E+00
 -1      2885 1.12785E+02 7.90325E+00 0.00000E+00
 -1      2886 1.12035E+02 9.20225E+00 0.00000E+00
 -1      2887 1.17285E+02 7.90325E+00 0.00000E+00
 -1      2888 1.15785E+02 7.90325E+00 0.00000E+00
 -1      2889 1.15035E+02 9.20225E+00 0.00000E+00
 -1      2890 1.20285E+02 7.90325E+00 0.00000E+00
 -1      2891 1.18785E+02 7.90325E+00 0.00000E+00
 -1      2892 1.18035E+02 9.20225E+00 0.00000E+00
 -1      2893 1.23285E+02 7.90325E+00 0.00000E+00
 -1      2894 1.21785E+02 7.90325E+00 0.00000E+00
 -1      2895 1.21035E+02 9.20225E+00 0.00000E+00
 -1      2896 1.26285E+02 7.90325E+00 0.00000E+00
 -1      2897 1.24785E+02 7.90325E+00 0.00000E+00
 -1      2898 1.24035E+02 9.20225E+00 0.00000E+00
 -1      2899 1.29285E+02 7.90325E+00 0.00000E+00
 -1      2900 1.27785E+02 7.90325E+00 0.00000E+00
 -1      2901 1.27035E+02 9.20225E+00 0.00000E+00
 -1      2902 1.32285E+02 7.90325E+00 0.00000E+00
 -1      2903 1.30785E+02 7.90325E+00 0.00000E+00
 -1      2904 1.30035E+02 9.20225E+00 0.00000E+00
 -1      2905 1.35285E+02 7.90325E+00 0.00000E+00
 -1      2906 1.33785E+02 7.90325E+00 0.00000E+00
 -1      2907 1.33035E+02 9.20225E+00 0.00000E+00
 -1      2908 1.38285E+02 7.90325E+00 0.00000E+00
 -1      2909 1.36785E+02 7.90325E+00 0.00000E+00
 -1      2910 1.36035E+02 9.20225E+00 0.00000E+00
 -1      2911 1.40953E+02 8.18394E+00 0.00000E+00
 -1      2912 1.39453E+02 8.18394E+00 0.00000E+00
 -1      2913 1.38703E+02 9.48294E+00 0.00000E+00
 -1      2914 1.41038E+02 1.00443E+01 0.00000E+00
 -1      2915 1.40907E+02 2.42875E+01 0.00000E+00
 -1      2916 1.40907E+02 2.28125E+01 0.00000E+00
 -1      2917 1.40907E+02 1.83875E+01 0.00000E+00
 -1      2918 1.40907E+02 1.69125E+01 0.00000E+00
 -1      2919 1.40907E+02 2.72375E+01 0.00000E+00
 -1      2920 1.40907E+02 2.57625E+01 0.00000E+00
 -1      2921 1.39608E+02 2.50250E+01 0.00000E+00
 -1      2922 1.40907E+02 2.13375E+01 0.00000E+00
 -1      2923 1.40907E+02 1.98625E+01 0.00000E+00
 -1      2924 1.39608E+02 1.91250E+01 0.00000E+00
 -1      2925 1.39608E+02 2.20750E+01 0.00000E+00
 -1      2926 1.13647E+02 1.48688E+01 0.00000E+00
 -1      2927 1.14766E+02 1.56129E+01 0.00000E+00
 -1      2928 1.40907E+02 3.01375E+01 0.00000E+00
 -1      2929 1.40907E+02 2.86875E+01 0.00000E+00
 -1      2930 1.39608E+02 2.79500E+01 0.00000E+00
 -1      2931 1.40907E+02 3.30875E+01 0.00000E+00
 -1      2932 1.40907E+02 3.16125E+01 0.00000E+00
 -1      2933 1.39608E+02 3.08750E+01 0.00000E+00
 -1      2934 1.40907E+02 3.60375E+01 0.00000E+00
 -1      2935 1.40907E+02 3.45625E+01 0.00000E+00
 -1      2936 1.39608E+02 3.38250E+01 0.00000E+00
 -1      2937 1.41192E+02 3.82207E+01 0.00000E+00
 -1      2938 1.82850E+01 7.90325E+00 0.00000E+00
 -1      2939 1.67850E+01 7.90325E+00 0.00000E+00
 -1      2940 1.90350E+01 9.20225E+00 0.00000E+00
 -1      2941 1.19303E+02 1.99970E+01 0.00000E+00
 -1      2942 1.19812E+02 2.11531E+01 0.00000E+00
 -1      2943 8.91450E+00 8.42712E+00 0.00000E+00
 -1      2944 1.19379E+02 3.07685E+01 0.00000E+00
 -1      2945 1.19007E+02 3.16467E+01 0.00000E+00
 -1      2946 9.67845E+01 3.06246E+01 0.00000E+00
 -1      2947 9.65548E+01 2.94807E+01 0.00000E+00
 -1      2948 2.72850E+01 7.90325E+00 0.00000E+00
 -1      2949 2.57850E+01 7.90325E+00 0.00000E+00
 -1      2950 2.80350E+01 9.20225E+00 0.00000E+00
 -1      2951 2.42850E+01 7.90325E+00 0.00000E+00
 -1      2952 2.27850E+01 7.90325E+00 0.00000E+00
 -1      2953 2.50350E+01 9.20225E+00 0.00000E+00
 -1      2954 1.14000E+01 4.09070E+01 0.00000E+00
 -1      2955 1.29000E+01 4.09070E+01 0.00000E+00
 -1      2956 1.36500E+01 3.96080E+01 0.00000E+00
 -1      2957 1.20504E+02 2.84202E+01 0.00000E+00
 -1      2958 1.19941E+02 2.95943E+01 0.00000E+00
 -1      2959 1.20622E+02 3.04005E+01 0.00000E+00
 -1      2960 8.96362E+00 4.05429E+01 0.00000E+00
 -1      2961 1.03271E+01 4.08069E+01 0.00000E+00
 -1      2962 1.10771E+01 3.95079E+01 0.00000E+00
 -1      2963 8.93137E+00 3.93078E+01 0.00000E+00
 -1      2964 1.03459E+02 1.43755E+01 0.00000E+00
 -1      2965 1.04294E+02 1.41042E+01 0.00000E+00
 -1      2966 1.52850E+01 7.90325E+00 0.00000E+00
 -1      2967 1.37850E+01 7.90325E+00 0.00000E+00
 -1      2968 1.30350E+01 9.20225E+00 0.00000E+00
 -1      2969 1.60350E+01 9.20225E+00 0.00000E+00
 -1      2970 9.09300E+00 1.68813E+01 0.00000E+00
 -1      2971 9.09300E+00 1.83563E+01 0.00000E+00
 -1      2972 1.03920E+01 1.90812E+01 0.00000E+00
 -1      2973 1.03920E+01 1.61437E+01 0.00000E+00
 -1      2974 9.09300E+00 3.15875E+01 0.00000E+00
 -1      2975 9.09300E+00 3.30625E+01 0.00000E+00
 -1      2976 9.90988E+01 1.82563E+01 0.00000E+00
 -1      2977 9.97945E+01 1.73909E+01 0.00000E+00
 -1      2978 1.05708E+02 1.39790E+01 0.00000E+00
 -1      2979 1.07121E+02 1.38537E+01 0.00000E+00
 -1      2980 1.04922E+02 1.29802E+01 0.00000E+00
 -1      2981 9.65644E+01 2.80685E+01 0.00000E+00
 -1      2982 9.66745E+01 2.69226E+01 0.00000E+00
 -1      2983 9.69134E+01 2.29717E+01 0.00000E+00
 -1      2984 9.74667E+01 2.19409E+01 0.00000E+00
 -1      2985 9.79911E+01 3.33804E+01 0.00000E+00
 -1      2986 9.72846E+01 3.21391E+01 0.00000E+00
 -1      2987 1.08483E+02 1.39999E+01 0.00000E+00
 -1      2988 1.09620E+02 1.40097E+01 0.00000E+00
 -1      2989 1.20170E+02 2.25934E+01 0.00000E+00
 -1      2990 1.20404E+02 2.38387E+01 0.00000E+00
 -1      2991 1.07254E+02 3.83848E+01 0.00000E+00
 -1      2992 1.06232E+02 3.82487E+01 0.00000E+00
 -1      2993 1.18286E+02 3.27218E+01 0.00000E+00
 -1      2994 1.17561E+02 3.37212E+01 0.00000E+00
 -1      2995 1.09937E+02 3.80763E+01 0.00000E+00
 -1      2996 1.08658E+02 3.82704E+01 0.00000E+00
 -1      2997 1.14648E+02 3.62342E+01 0.00000E+00
 -1      2998 1.13701E+02 3.68637E+01 0.00000E+00
 -1      2999 1.12549E+02 3.71972E+01 0.00000E+00
 -1      3000 1.11396E+02 3.75306E+01 0.00000E+00
 -1      3001 1.13497E+02 3.75965E+01 0.00000E+00
 -1      3002 1.16629E+02 3.48243E+01 0.00000E+00
 -1      3003 1.15699E+02 3.55682E+01 0.00000E+00
 -1      3004 9.09300E+00 3.45313E+01 0.00000E+00
 -1      3005 9.09300E+00 3.60000E+01 0.00000E+00
 -1      3006 1.03920E+01 3.37938E+01 0.00000E+00
 -1      3007 1.03920E+01 2.49750E+01 0.00000E+00
 -1      3008 9.09300E+00 2.57000E+01 0.00000E+00
 -1      3009 9.09300E+00 2.71750E+01 0.00000E+00
 -1      3010 1.13192E+02 1.36858E+01 0.00000E+00
 -1      3011 1.15701E+02 3.65971E+01 0.00000E+00
 -1      3012 1.01510E+02 3.87666E+01 0.00000E+00
 -1      3013 1.10799E+02 3.84760E+01 0.00000E+00
 -1      3014 1.10288E+02 3.94209E+01 0.00000E+00
 -1      3015 9.78911E+01 3.44719E+01 0.00000E+00
 -1      3016 1.39164E+02 3.97436E+01 0.00000E+00
 -1      3017 1.19339E+02 3.26498E+01 0.00000E+00
 -1      3018 2.20350E+01 9.20225E+00 0.00000E+00
 -1      3019 1.41038E+02 1.15068E+01 0.00000E+00
 -1      3020 1.39870E+02 1.12261E+01 0.00000E+00
 -1      3021 1.41038E+02 1.29693E+01 0.00000E+00
 -1      3022 1.08023E+02 3.91355E+01 0.00000E+00
 -1      3023 1.20854E+02 2.16023E+01 0.00000E+00
 -1      3024 1.15852E+02 1.64724E+01 0.00000E+00
 -1      3025 1.16667E+02 1.72556E+01 0.00000E+00
 -1      3026 1.39529E+02 3.86134E+01 0.00000E+00
 -1      3027 1.40542E+02 3.71677E+01 0.00000E+00
 -1      3028 1.39243E+02 3.64302E+01 0.00000E+00
 -1      3029 1.38514E+02 3.86905E+01 0.00000E+00
 -1      3030 9.62468E+01 3.17524E+01 0.00000E+00
 -1      3031 1.07697E+02 1.30011E+01 0.00000E+00
 -1      3032 1.18859E+02 1.88160E+01 0.00000E+00
 -1      3033 1.20052E+02 1.89811E+01 0.00000E+00
 -1      3034 9.64284E+01 2.36028E+01 0.00000E+00
 -1      3035 9.59494E+01 2.26819E+01 0.00000E+00
 -1      3036 9.59434E+01 2.42340E+01 0.00000E+00
 -1      3037 1.18044E+02 1.80328E+01 0.00000E+00
 -1      3038 9.66450E+00 9.72612E+00 0.00000E+00
 -1      3039 9.57563E+01 2.88257E+01 0.00000E+00
 -1      3040 9.72268E+01 2.10636E+01 0.00000E+00
 -1      3041 9.60941E+01 2.62842E+01 0.00000E+00
 -1      3042 1.40973E+02 1.56722E+01 0.00000E+00
 -1      3043 1.40973E+02 1.42097E+01 0.00000E+00
 -1      3044 1.39805E+02 1.39290E+01 0.00000E+00
 -1      3045 1.39674E+02 1.64097E+01 0.00000E+00
 -1      3046 1.02405E+02 1.42447E+01 0.00000E+00
 -1      3047 1.21116E+02 2.76575E+01 0.00000E+00
 -1      3048 1.21796E+02 2.84637E+01 0.00000E+00
 -1      3049 1.21727E+02 2.68949E+01 0.00000E+00
 -1      3050 1.00008E+02 1.63089E+01 0.00000E+00
 -1      3051 1.00221E+02 1.52268E+01 0.00000E+00
 -1      3052 9.89261E+01 1.61518E+01 0.00000E+00
 -1      3053 9.09300E+00 2.86437E+01 0.00000E+00
 -1      3054 9.09300E+00 3.01187E+01 0.00000E+00
 -1      3055 1.03920E+01 3.08563E+01 0.00000E+00
 -1      3056 1.03920E+01 2.79188E+01 0.00000E+00
 -1      3057 9.83661E+01 1.86551E+01 0.00000E+00
 -1      3058 9.79802E+01 1.76327E+01 0.00000E+00
 -1      3059 9.76333E+01 1.90539E+01 0.00000E+00
 -1      3060 1.05244E+02 3.85875E+01 0.00000E+00
 -1      3061 1.02363E+02 3.74666E+01 0.00000E+00
 -1      3062 1.10381E+02 1.29960E+01 0.00000E+00
 -1      3063 1.17685E+02 3.48280E+01 0.00000E+00
 -1      3064 1.11747E+02 3.88753E+01 0.00000E+00
 -1      3065 1.09635E+01 1.04636E+01 0.00000E+00
 -1      3066 1.15768E+02 1.53862E+01 0.00000E+00
 -1      3067 9.47264E+01 2.95249E+01 0.00000E+00
 -1      3068 9.47359E+01 2.81127E+01 0.00000E+00
 -1      3069 1.16910E+01 1.24625E+01 0.00000E+00
 -1      3070 1.16910E+01 1.39375E+01 0.00000E+00
 -1      3071 1.12993E+02 1.22997E+01 0.00000E+00
 -1      3072 1.14482E+02 1.31407E+01 0.00000E+00
 -1      3073 1.26488E+01 1.02017E+01 0.00000E+00
 -1      3074 1.20772E+01 1.14631E+01 0.00000E+00
 -1      3075 1.33763E+01 1.22006E+01 0.00000E+00
 -1      3076 1.41488E+01 1.02017E+01 0.00000E+00
 -1      3077 9.76591E+01 3.58380E+01 0.00000E+00
 -1      3078 9.65149E+01 3.46329E+01 0.00000E+00
 -1      3079 1.09650E+02 3.99044E+01 0.00000E+00
 -1      3080 1.89000E+01 3.83090E+01 0.00000E+00
 -1      3081 2.04000E+01 3.83090E+01 0.00000E+00
 -1      3082 2.19000E+01 3.83090E+01 0.00000E+00
 -1      3083 2.34000E+01 3.83090E+01 0.00000E+00
 -1      3084 2.11500E+01 3.70100E+01 0.00000E+00
 -1      3085 2.49000E+01 3.83090E+01 0.00000E+00
 -1      3086 2.64000E+01 3.83090E+01 0.00000E+00
 -1      3087 2.41500E+01 3.70100E+01 0.00000E+00
 -1      3088 2.79000E+01 3.83090E+01 0.00000E+00
 -1      3089 2.94000E+01 3.83090E+01 0.00000E+00
 -1      3090 2.71500E+01 3.70100E+01 0.00000E+00
 -1      3091 3.09000E+01 3.83090E+01 0.00000E+00
 -1      3092 3.24000E+01 3.83090E+01 0.00000E+00
 -1      3093 3.01500E+01 3.70100E+01 0.00000E+00
 -1      3094 3.39000E+01 3.83090E+01 0.00000E+00
 -1      3095 3.54000E+01 3.83090E+01 0.00000E+00
 -1      3096 3.31500E+01 3.70100E+01 0.00000E+00
 -1      3097 3.69000E+01 3.83090E+01 0.00000E+00
 -1      3098 3.84000E+01 3.83090E+01 0.00000E+00
 -1      3099 3.61500E+01 3.70100E+01 0.00000E+00
 -1      3100 3.99000E+01 3.83090E+01 0.00000E+00
 -1      3101 4.14000E+01 3.83090E+01 0.00000E+00
 -1      3102 3.91500E+01 3.70100E+01 0.00000E+00
 -1      3103 4.29000E+01 3.83090E+01 0.00000E+00
 -1      3104 4.44000E+01 3.83090E+01 0.00000E+00
 -1      3105 4.21500E+01 3.70100E+01 0.00000E+00
 -1      3106 4.59000E+01 3.83090E+01 0.00000E+00
 -1      3107 4.74000E+01 3.83090E+01 0.00000E+00
 -1      3108 4.51500E+01 3.70100E+01 0.00000E+00
 -1      3109 4.89000E+01 3.83090E+01 0.00000E+00
 -1      3110 5.04000E+01 3.83090E+01 0.00000E+00
 -1      3111 4.81500E+01 3.70100E+01 0.00000E+00
 -1      3112 5.19000E+01 3.83090E+01 0.00000E+00
 -1      3113 5.34000E+01 3.83090E+01 0.00000E+00
 -1      3114 5.11500E+01 3.70100E+01 0.00000E+00
 -1      3115 5.49000E+01 3.83090E+01 0.00000E+00
 -1      3116 5.64000E+01 3.83090E+01 0.00000E+00
 -1      3117 5.41500E+01 3.70100E+01 0.00000E+00
 -1      3118 5.79000E+01 3.83090E+01 0.00000E+00
 -1      3119 5.94000E+01 3.83090E+01 0.00000E+00
 -1      3120 5.71500E+01 3.70100E+01 0.00000E+00
 -1      3121 6.09000E+01 3.83090E+01 0.00000E+00
 -1      3122 6.24000E+01 3.83090E+01 0.00000E+00
 -1      3123 6.01500E+01 3.70100E+01 0.00000E+00
 -1      3124 6.39000E+01 3.83090E+01 0.00000E+00
 -1      3125 6.54000E+01 3.83090E+01 0.00000E+00
 -1      3126 6.31500E+01 3.70100E+01 0.00000E+00
 -1      3127 6.69000E+01 3.83090E+01 0.00000E+00
 -1      3128 6.84000E+01 3.83090E+01 0.00000E+00
 -1      3129 6.61500E+01 3.70100E+01 0.00000E+00
 -1      3130 6.99000E+01 3.83090E+01 0.00000E+00
 -1      3131 7.14000E+01 3.83090E+01 0.00000E+00
 -1      3132 6.91500E+01 3.70100E+01 0.00000E+00
 -1      3133 7.29000E+01 3.83090E+01 0.00000E+00
 -1      3134 7.44000E+01 3.83090E+01 0.00000E+00
 -1      3135 7.21500E+01 3.70100E+01 0.00000E+00
 -1      3136 7.59000E+01 3.83090E+01 0.00000E+00
 -1      3137 7.74000E+01 3.83090E+01 0.00000E+00
 -1      3138 7.51500E+01 3.70100E+01 0.00000E+00
 -1      3139 7.89000E+01 3.83090E+01 0.00000E+00
 -1      3140 8.04000E+01 3.83090E+01 0.00000E+00
 -1      3141 7.81500E+01 3.70100E+01 0.00000E+00
 -1      3142 8.19000E+01 3.83090E+01 0.00000E+00
 -1      3143 8.34000E+01 3.83090E+01 0.00000E+00
 -1      3144 8.11500E+01 3.70100E+01 0.00000E+00
 -1      3145 8.49000E+01 3.83090E+01 0.00000E+00
 -1      3146 8.64000E+01 3.83090E+01 0.00000E+00
 -1      3147 8.41500E+01 3.70100E+01 0.00000E+00
 -1      3148 8.79000E+01 3.83090E+01 0.00000E+00
 -1      3149 8.94000E+01 3.83090E+01 0.00000E+00
 -1      3150 8.71500E+01 3.70100E+01 0.00000E+00
 -1      3151 9.09000E+01 3.83090E+01 0.00000E+00
 -1      3152 9.24000E+01 3.83090E+01 0.00000E+00
 -1      3153 9.01500E+01 3.70100E+01 0.00000E+00
 -1      3154 9.47164E+01 3.78035E+01 0.00000E+00
 -1      3155 9.62164E+01 3.78035E+01 0.00000E+00
 -1      3156 9.77164E+01 3.78035E+01 0.00000E+00
 -1      3157 1.17900E+02 3.85216E+01 0.00000E+00
 -1      3158 1.19400E+02 3.85216E+01 0.00000E+00
 -1      3159 1.20900E+02 3.85216E+01 0.00000E+00
 -1      3160 1.22400E+02 3.85216E+01 0.00000E+00
 -1      3161 1.20150E+02 3.72226E+01 0.00000E+00
 -1      3162 1.23900E+02 3.85216E+01 0.00000E+00
 -1      3163 1.25400E+02 3.85216E+01 0.00000E+00
 -1      3164 1.23150E+02 3.72226E+01 0.00000E+00
 -1      3165 1.26900E+02 3.85216E+01 0.00000E+00
 -1      3166 1.28400E+02 3.85216E+01 0.00000E+00
 -1      3167 1.26150E+02 3.72226E+01 0.00000E+00
 -1      3168 1.29900E+02 3.85216E+01 0.00000E+00
 -1      3169 1.31400E+02 3.85216E+01 0.00000E+00
 -1      3170 1.29150E+02 3.72226E+01 0.00000E+00
 -1      3171 1.32900E+02 3.85216E+01 0.00000E+00
 -1      3172 1.34400E+02 3.85216E+01 0.00000E+00
 -1      3173 1.32150E+02 3.72226E+01 0.00000E+00
 -1      3174 1.35707E+02 3.86060E+01 0.00000E+00
 -1      3175 1.37207E+02 3.86060E+01 0.00000E+00
 -1      3176 1.37572E+02 3.74759E+01 0.00000E+00
 -1      3177 1.34957E+02 3.73070E+01 0.00000E+00
 -1      3178 1.20481E+02 3.26364E+01 0.00000E+00
 -1      3179 1.19760E+02 3.37116E+01 0.00000E+00
 -1      3180 3.17850E+01 1.05013E+01 0.00000E+00
 -1      3181 3.02850E+01 1.05013E+01 0.00000E+00
 -1      3182 4.07850E+01 1.05013E+01 0.00000E+00
 -1      3183 3.92850E+01 1.05013E+01 0.00000E+00
 -1      3184 4.37850E+01 1.05013E+01 0.00000E+00
 -1      3185 4.22850E+01 1.05013E+01 0.00000E+00
 -1      3186 4.15350E+01 1.18003E+01 0.00000E+00
 -1      3187 4.67850E+01 1.05013E+01 0.00000E+00
 -1      3188 4.52850E+01 1.05013E+01 0.00000E+00
 -1      3189 4.45350E+01 1.18003E+01 0.00000E+00
 -1      3190 4.97850E+01 1.05013E+01 0.00000E+00
 -1      3191 4.82850E+01 1.05013E+01 0.00000E+00
 -1      3192 4.75350E+01 1.18003E+01 0.00000E+00
 -1      3193 5.27850E+01 1.05013E+01 0.00000E+00
 -1      3194 5.12850E+01 1.05013E+01 0.00000E+00
 -1      3195 5.05350E+01 1.18003E+01 0.00000E+00
 -1      3196 5.57850E+01 1.05013E+01 0.00000E+00
 -1      3197 5.42850E+01 1.05013E+01 0.00000E+00
 -1      3198 5.35350E+01 1.18003E+01 0.00000E+00
 -1      3199 5.87850E+01 1.05013E+01 0.00000E+00
 -1      3200 5.72850E+01 1.05013E+01 0.00000E+00
 -1      3201 5.65350E+01 1.18003E+01 0.00000E+00
 -1      3202 6.17850E+01 1.05013E+01 0.00000E+00
 -1      3203 6.02850E+01 1.05013E+01 0.00000E+00
 -1      3204 5.95350E+01 1.18003E+01 0.00000E+00
 -1      3205 6.47850E+01 1.05013E+01 0.00000E+00
 -1      3206 6.32850E+01 1.05013E+01 0.00000E+00
 -1      3207 6.25350E+01 1.18003E+01 0.00000E+00
 -1      3208 6.77850E+01 1.05013E+01 0.00000E+00
 -1      3209 6.62850E+01 1.05013E+01 0.00000E+00
 -1      3210 6.55350E+01 1.18003E+01 0.00000E+00
 -1      3211 7.07850E+01 1.05013E+01 0.00000E+00
 -1      3212 6.92850E+01 1.05013E+01 0.00000E+00
 -1      3213 6.85350E+01 1.18003E+01 0.00000E+00
 -1      3214 7.37850E+01 1.05013E+01 0.00000E+00
 -1      3215 7.22850E+01 1.05013E+01 0.00000E+00
 -1      3216 7.15350E+01 1.18003E+01 0.00000E+00
 -1      3217 7.67850E+01 1.05013E+01 0.00000E+00
 -1      3218 7.52850E+01 1.05013E+01 0.00000E+00
 -1      3219 7.45350E+01 1.18003E+01 0.00000E+00
 -1      3220 7.97850E+01 1.05013E+01 0.00000E+00
 -1      3221 7.82850E+01 1.05013E+01 0.00000E+00
 -1      3222 7.75350E+01 1.18003E+01 0.00000E+00
 -1      3223 8.27850E+01 1.05013E+01 0.00000E+00
 -1      3224 8.12850E+01 1.05013E+01 0.00000E+00
 -1      3225 8.05350E+01 1.18003E+01 0.00000E+00
 -1      3226 8.57850E+01 1.05013E+01 0.00000E+00
 -1      3227 8.42850E+01 1.05013E+01 0.00000E+00
 -1      3228 8.35350E+01 1.18003E+01 0.00000E+00
 -1      3229 8.87850E+01 1.05013E+01 0.00000E+00
 -1      3230 8.72850E+01 1.05013E+01 0.00000E+00
 -1      3231 8.65350E+01 1.18003E+01 0.00000E+00
 -1      3232 9.17850E+01 1.05013E+01 0.00000E+00
 -1      3233 9.02850E+01 1.05013E+01 0.00000E+00
 -1      3234 8.95350E+01 1.18003E+01 0.00000E+00
 -1      3235 9.47850E+01 1.05013E+01 0.00000E+00
 -1      3236 9.32850E+01 1.05013E+01 0.00000E+00
 -1      3237 9.25350E+01 1.18003E+01 0.00000E+00
 -1      3238 9.77850E+01 1.05013E+01 0.00000E+00
 -1      3239 9.62850E+01 1.05013E+01 0.00000E+00
 -1      3240 9.55350E+01 1.18003E+01 0.00000E+00
 -1      3241 1.00785E+02 1.05013E+01 0.00000E+00
 -1      3242 9.92850E+01 1.05013E+01 0.00000E+00
 -1      3243 9.85350E+01 1.18003E+01 0.00000E+00
 -1      3244 1.04022E+02 1.11539E+01 0.00000E+00
 -1      3245 1.02522E+02 1.11539E+01 0.00000E+00
 -1      3246 1.06935E+02 1.10286E+01 0.00000E+00
 -1      3247 1.05435E+02 1.10286E+01 0.00000E+00
 -1      3248 1.09797E+02 1.11748E+01 0.00000E+00
 -1      3249 1.08297E+02 1.11748E+01 0.00000E+00
 -1      3250 1.15409E+02 1.04784E+01 0.00000E+00
 -1      3251 1.13909E+02 1.04784E+01 0.00000E+00
 -1      3252 1.18785E+02 1.04787E+01 0.00000E+00
 -1      3253 1.17285E+02 1.04787E+01 0.00000E+00
 -1      3254 1.21785E+02 1.04787E+01 0.00000E+00
 -1      3255 1.20285E+02 1.04787E+01 0.00000E+00
 -1      3256 1.19535E+02 1.17552E+01 0.00000E+00
 -1      3257 1.24785E+02 1.04787E+01 0.00000E+00
 -1      3258 1.23285E+02 1.04787E+01 0.00000E+00
 -1      3259 1.22535E+02 1.17552E+01 0.00000E+00
 -1      3260 1.27785E+02 1.04787E+01 0.00000E+00
 -1      3261 1.26285E+02 1.04787E+01 0.00000E+00
 -1      3262 1.25535E+02 1.17552E+01 0.00000E+00
 -1      3263 1.30785E+02 1.04787E+01 0.00000E+00
 -1      3264 1.29285E+02 1.04787E+01 0.00000E+00
 -1      3265 1.28535E+02 1.17552E+01 0.00000E+00
 -1      3266 1.33785E+02 1.04787E+01 0.00000E+00
 -1      3267 1.32285E+02 1.04787E+01 0.00000E+00
 -1      3268 1.31535E+02 1.17552E+01 0.00000E+00
 -1      3269 1.36785E+02 1.04787E+01 0.00000E+00
 -1      3270 1.35285E+02 1.04787E+01 0.00000E+00
 -1      3271 1.34535E+02 1.17552E+01 0.00000E+00
 -1      3272 1.38912E+02 1.09928E+01 0.00000E+00
 -1      3273 1.37744E+02 1.07121E+01 0.00000E+00
 -1      3274 1.36994E+02 1.19886E+01 0.00000E+00
 -1      3275 1.38912E+02 1.24553E+01 0.00000E+00
 -1      3276 1.16910E+01 2.12875E+01 0.00000E+00
 -1      3277 1.16910E+01 2.27625E+01 0.00000E+00
 -1      3278 1.00669E+02 1.35921E+01 0.00000E+00
 -1      3279 1.01772E+02 1.24529E+01 0.00000E+00
 -1      3280 1.38309E+02 2.57625E+01 0.00000E+00
 -1      3281 1.38309E+02 2.42875E+01 0.00000E+00
 -1      3282 1.38309E+02 3.45625E+01 0.00000E+00
 -1      3283 1.38309E+02 3.30875E+01 0.00000E+00
 -1      3284 1.38309E+02 2.86625E+01 0.00000E+00
 -1      3285 1.38309E+02 2.72125E+01 0.00000E+00
 -1      3286 1.37010E+02 2.64750E+01 0.00000E+00
 -1      3287 1.97850E+01 1.05013E+01 0.00000E+00
 -1      3288 1.82850E+01 1.05013E+01 0.00000E+00
 -1      3289 1.18231E+02 1.70229E+01 0.00000E+00
 -1      3290 1.15809E+02 1.42183E+01 0.00000E+00
 -1      3291 1.16895E+02 1.50777E+01 0.00000E+00
 -1      3292 9.55234E+01 3.28311E+01 0.00000E+00
 -1      3293 9.50233E+01 3.13166E+01 0.00000E+00
 -1      3294 1.20565E+02 2.43925E+01 0.00000E+00
 -1      3295 1.21291E+02 2.51194E+01 0.00000E+00
 -1      3296 2.87850E+01 1.05013E+01 0.00000E+00
 -1      3297 2.72850E+01 1.05013E+01 0.00000E+00
 -1      3298 2.95350E+01 1.18003E+01 0.00000E+00
 -1      3299 1.38309E+02 3.16125E+01 0.00000E+00
 -1      3300 1.38309E+02 3.01375E+01 0.00000E+00
 -1      3301 1.37010E+02 2.94000E+01 0.00000E+00
 -1      3302 1.37010E+02 3.23500E+01 0.00000E+00
 -1      3303 8.99606E+00 3.70363E+01 0.00000E+00
 -1      3304 9.02831E+00 3.82715E+01 0.00000E+00
 -1      3305 1.01012E+01 3.83715E+01 0.00000E+00
 -1      3306 1.02951E+01 3.62988E+01 0.00000E+00
 -1      3307 3.77850E+01 1.05013E+01 0.00000E+00
 -1      3308 3.62850E+01 1.05013E+01 0.00000E+00
 -1      3309 3.85350E+01 1.18003E+01 0.00000E+00
 -1      3310 2.27850E+01 1.05013E+01 0.00000E+00
 -1      3311 2.12850E+01 1.05013E+01 0.00000E+00
 -1      3312 2.05350E+01 1.18003E+01 0.00000E+00
 -1      3313 1.29000E+01 3.83090E+01 0.00000E+00
 -1      3314 1.44000E+01 3.83090E+01 0.00000E+00
 -1      3315 3.47850E+01 1.05013E+01 0.00000E+00
 -1      3316 3.32850E+01 1.05013E+01 0.00000E+00
 -1      3317 3.25350E+01 1.18003E+01 0.00000E+00
 -1      3318 3.55350E+01 1.18003E+01 0.00000E+00
 -1      3319 2.57850E+01 1.05013E+01 0.00000E+00
 -1      3320 2.42850E+01 1.05013E+01 0.00000E+00
 -1      3321 2.65350E+01 1.18003E+01 0.00000E+00
 -1      3322 1.13247E+02 3.88753E+01 0.00000E+00
 -1      3323 1.59000E+01 3.83090E+01 0.00000E+00
 -1      3324 1.74000E+01 3.83090E+01 0.00000E+00
 -1      3325 1.81500E+01 3.70100E+01 0.00000E+00
 -1      3326 1.11119E+02 1.10235E+01 0.00000E+00
 -1      3327 1.20867E+02 1.80001E+01 0.00000E+00
 -1      3328 1.21312E+02 1.91810E+01 0.00000E+00
 -1      3329 1.21752E+02 3.02201E+01 0.00000E+00
 -1      3330 1.21190E+02 3.13943E+01 0.00000E+00
 -1      3331 9.60486E+01 2.10283E+01 0.00000E+00
 -1      3332 9.68410E+01 2.00411E+01 0.00000E+00
 -1      3333 9.64551E+01 1.90186E+01 0.00000E+00
 -1      3334 9.51065E+01 2.66095E+01 0.00000E+00
 -1      3335 9.54347E+01 2.54802E+01 0.00000E+00
 -1      3336 1.21374E+02 2.35964E+01 0.00000E+00
 -1      3337 1.18634E+02 3.54738E+01 0.00000E+00
 -1      3338 1.17701E+02 3.65769E+01 0.00000E+00
 -1      3339 1.21670E+02 2.06213E+01 0.00000E+00
 -1      3340 1.22028E+02 2.20616E+01 0.00000E+00
 -1      3341 1.22486E+02 1.96403E+01 0.00000E+00
 -1      3342 1.12619E+02 1.10235E+01 0.00000E+00
 -1      3343 1.18272E+02 1.58549E+01 0.00000E+00
 -1      3344 1.19648E+02 1.66322E+01 0.00000E+00
 -1      3345 1.18313E+02 1.46870E+01 0.00000E+00
 -1      3346 1.22216E+02 2.49563E+01 0.00000E+00
 -1      3347 1.21971E+02 2.59256E+01 0.00000E+00
 -1      3348 1.22652E+02 2.67318E+01 0.00000E+00
 -1      3349 1.14400E+02 3.85418E+01 0.00000E+00
 -1      3350 1.15900E+02 3.85418E+01 0.00000E+00
 -1      3351 1.22041E+02 2.32321E+01 0.00000E+00
 -1      3352 1.22202E+02 2.37859E+01 0.00000E+00
 -1      3353 1.22883E+02 2.45920E+01 0.00000E+00
 -1      3354 1.22857E+02 2.22511E+01 0.00000E+00
 -1      3355 1.16910E+01 2.42375E+01 0.00000E+00
 -1      3356 1.16910E+01 2.57125E+01 0.00000E+00
 -1      3357 1.29900E+01 2.35000E+01 0.00000E+00
 -1      3358 1.29900E+01 1.46687E+01 0.00000E+00
 -1      3359 1.16910E+01 1.54063E+01 0.00000E+00
 -1      3360 1.16910E+01 1.68750E+01 0.00000E+00
 -1      3361 1.15609E+02 1.28322E+01 0.00000E+00
 -1      3362 1.16910E+01 1.83469E+01 0.00000E+00
 -1      3363 1.16910E+01 1.98156E+01 0.00000E+00
 -1      3364 1.29900E+01 2.05531E+01 0.00000E+00
 -1      3365 1.29900E+01 1.76094E+01 0.00000E+00
 -1      3366 1.16910E+01 3.30594E+01 0.00000E+00
 -1      3367 1.16910E+01 3.45281E+01 0.00000E+00
 -1      3368 1.16650E+02 3.72428E+01 0.00000E+00
 -1      3369 9.74606E+01 1.69494E+01 0.00000E+00
 -1      3370 9.81934E+01 1.65506E+01 0.00000E+00
 -1      3371 9.84065E+01 1.54686E+01 0.00000E+00
 -1      3372 9.39664E+01 3.65045E+01 0.00000E+00
 -1      3373 9.90927E+01 3.76425E+01 0.00000E+00
 -1      3374 1.06634E+02 4.07279E+01 0.00000E+00
 -1      3375 1.07384E+02 3.96190E+01 0.00000E+00
 -1      3376 1.00003E+02 3.83080E+01 0.00000E+00
 -1      3377 1.16159E+02 1.17549E+01 0.00000E+00
 -1      3378 1.20949E+02 1.56642E+01 0.00000E+00
 -1      3379 1.20908E+02 1.68321E+01 0.00000E+00
 -1      3380 1.22168E+02 1.70321E+01 0.00000E+00
 -1      3381 9.55636E+01 2.16594E+01 0.00000E+00
 -1      3382 9.51777E+01 2.06370E+01 0.00000E+00
 -1      3383 9.50785E+01 2.22906E+01 0.00000E+00
 -1      3384 1.16910E+01 3.15906E+01 0.00000E+00
 -1      3385 1.29900E+01 3.23250E+01 0.00000E+00
 -1      3386 1.16910E+01 3.01219E+01 0.00000E+00
 -1      3387 9.95871E+01 1.34350E+01 0.00000E+00
 -1      3388 1.38309E+02 1.98625E+01 0.00000E+00
 -1      3389 1.38309E+02 1.83875E+01 0.00000E+00
 -1      3390 1.21611E+02 3.24560E+01 0.00000E+00
 -1      3391 1.37010E+02 2.35500E+01 0.00000E+00
 -1      3392 1.38309E+02 2.28125E+01 0.00000E+00
 -1      3393 1.38309E+02 2.13375E+01 0.00000E+00
 -1      3394 9.40766E+01 2.73086E+01 0.00000E+00
 -1      3395 1.37758E+02 3.65843E+01 0.00000E+00
 -1      3396 1.38123E+02 3.54541E+01 0.00000E+00
 -1      3397 1.36824E+02 3.47166E+01 0.00000E+00
 -1      3398 1.36451E+02 3.64998E+01 0.00000E+00
 -1      3399 9.49558E+01 2.45592E+01 0.00000E+00
 -1      3400 1.51500E+01 3.70100E+01 0.00000E+00
 -1      3401 9.32796E+01 3.16822E+01 0.00000E+00
 -1      3402 9.40030E+01 3.06036E+01 0.00000E+00
 -1      3403 9.29827E+01 2.98905E+01 0.00000E+00
 -1      3404 9.52914E+01 3.41971E+01 0.00000E+00
 -1      3405 2.35350E+01 1.18003E+01 0.00000E+00
 -1      3406 1.11741E+01 3.84716E+01 0.00000E+00
 -1      3407 1.19241E+01 3.71726E+01 0.00000E+00
 -1      3408 1.38375E+02 1.71472E+01 0.00000E+00
 -1      3409 1.38440E+02 1.59068E+01 0.00000E+00
 -1      3410 1.37076E+02 1.78847E+01 0.00000E+00
 -1      3411 1.69669E+01 1.03515E+01 0.00000E+00
 -1      3412 1.54669E+01 1.03515E+01 0.00000E+00
 -1      3413 1.50806E+01 1.13509E+01 0.00000E+00
 -1      3414 1.77169E+01 1.16505E+01 0.00000E+00
 -1      3415 1.22364E+02 2.94575E+01 0.00000E+00
 -1      3416 1.22932E+02 3.04513E+01 0.00000E+00
 -1      3417 1.22976E+02 2.86948E+01 0.00000E+00
 -1      3418 1.20134E+02 3.54738E+01 0.00000E+00
 -1      3419 1.17485E+02 1.28325E+01 0.00000E+00
 -1      3420 2.04000E+01 3.57110E+01 0.00000E+00
 -1      3421 2.19000E+01 3.57110E+01 0.00000E+00
 -1      3422 1.08788E+02 3.95047E+01 0.00000E+00
 -1      3423 9.39075E+01 2.48583E+01 0.00000E+00
 -1      3424 9.44161E+01 2.36121E+01 0.00000E+00
 -1      3425 2.34000E+01 3.57110E+01 0.00000E+00
 -1      3426 2.49000E+01 3.57110E+01 0.00000E+00
 -1      3427 2.26500E+01 3.44120E+01 0.00000E+00
 -1      3428 2.64000E+01 3.57110E+01 0.00000E+00
 -1      3429 2.79000E+01 3.57110E+01 0.00000E+00
 -1      3430 2.56500E+01 3.44120E+01 0.00000E+00
 -1      3431 2.94000E+01 3.57110E+01 0.00000E+00
 -1      3432 3.09000E+01 3.57110E+01 0.00000E+00
 -1      3433 2.86500E+01 3.44120E+01 0.00000E+00
 -1      3434 3.24000E+01 3.57110E+01 0.00000E+00
 -1      3435 3.39000E+01 3.57110E+01 0.00000E+00
 -1      3436 3.16500E+01 3.44120E+01 0.00000E+00
 -1      3437 3.54000E+01 3.57110E+01 0.00000E+00
 -1      3438 3.69000E+01 3.57110E+01 0.00000E+00
 -1      3439 3.46500E+01 3.44120E+01 0.00000E+00
 -1      3440 3.84000E+01 3.57110E+01 0.00000E+00
 -1      3441 3.99000E+01 3.57110E+01 0.00000E+00
 -1      3442 3.76500E+01 3.44120E+01 0.00000E+00
 -1      3443 4.14000E+01 3.57110E+01 0.00000E+00
 -1      3444 4.29000E+01 3.57110E+01 0.00000E+00
 -1      3445 4.06500E+01 3.44120E+01 0.00000E+00
 -1      3446 4.44000E+01 3.57110E+01 0.00000E+00
 -1      3447 4.59000E+01 3.57110E+01 0.00000E+00
 -1      3448 4.36500E+01 3.44120E+01 0.00000E+00
 -1      3449 4.74000E+01 3.57110E+01 0.00000E+00
 -1      3450 4.89000E+01 3.57110E+01 0.00000E+00
 -1      3451 4.66500E+01 3.44120E+01 0.00000E+00
 -1      3452 5.04000E+01 3.57110E+01 0.00000E+00
 -1      3453 5.19000E+01 3.57110E+01 0.00000E+00
 -1      3454 4.96500E+01 3.44120E+01 0.00000E+00
 -1      3455 5.34000E+01 3.57110E+01 0.00000E+00
 -1      3456 5.49000E+01 3.57110E+01 0.00000E+00
 -1      3457 5.26500E+01 3.44120E+01 0.00000E+00
 -1      3458 5.64000E+01 3.57110E+01 0.00000E+00
 -1      3459 5.79000E+01 3.57110E+01 0.00000E+00
 -1      3460 5.56500E+01 3.44120E+01 0.00000E+00
 -1      3461 5.94000E+01 3.57110E+01 0.00000E+00
 -1      3462 6.09000E+01 3.57110E+01 0.00000E+00
 -1      3463 5.86500E+01 3.44120E+01 0.00000E+00
 -1      3464 6.24000E+01 3.57110E+01 0.00000E+00
 -1      3465 6.39000E+01 3.57110E+01 0.00000E+00
 -1      3466 6.16500E+01 3.44120E+01 0.00000E+00
 -1      3467 6.54000E+01 3.57110E+01 0.00000E+00
 -1      3468 6.69000E+01 3.57110E+01 0.00000E+00
 -1      3469 6.46500E+01 3.44120E+01 0.00000E+00
 -1      3470 6.84000E+01 3.57110E+01 0.00000E+00
 -1      3471 6.99000E+01 3.57110E+01 0.00000E+00
 -1      3472 6.76500E+01 3.44120E+01 0.00000E+00
 -1      3473 7.14000E+01 3.57110E+01 0.00000E+00
 -1      3474 7.29000E+01 3.57110E+01 0.00000E+00
 -1      3475 7.06500E+01 3.44120E+01 0.00000E+00
 -1      3476 7.44000E+01 3.57110E+01 0.00000E+00
 -1      3477 7.59000E+01 3.57110E+01 0.00000E+00
 -1      3478 7.36500E+01 3.44120E+01 0.00000E+00
 -1      3479 7.74000E+01 3.57110E+01 0.00000E+00
 -1      3480 7.89000E+01 3.57110E+01 0.00000E+00
 -1      3481 7.66500E+01 3.44120E+01 0.00000E+00
 -1      3482 8.04000E+01 3.57110E+01 0.00000E+00
 -1      3483 8.19000E+01 3.57110E+01 0.00000E+00
 -1      3484 7.96500E+01 3.44120E+01 0.00000E+00
 -1      3485 8.34000E+01 3.57110E+01 0.00000E+00
 -1      3486 8.49000E+01 3.57110E+01 0.00000E+00
 -1      3487 8.26500E+01 3.44120E+01 0.00000E+00
 -1      3488 8.64000E+01 3.57110E+01 0.00000E+00
 -1      3489 8.79000E+01 3.57110E+01 0.00000E+00
 -1      3490 8.56500E+01 3.44120E+01 0.00000E+00
 -1      3491 8.94000E+01 3.57110E+01 0.00000E+00
 -1      3492 9.09000E+01 3.57110E+01 0.00000E+00
 -1      3493 8.86500E+01 3.44120E+01 0.00000E+00
 -1      3494 1.22400E+02 3.59461E+01 0.00000E+00
 -1      3495 1.23900E+02 3.59461E+01 0.00000E+00
 -1      3496 1.25400E+02 3.59461E+01 0.00000E+00
 -1      3497 1.26900E+02 3.59461E+01 0.00000E+00
 -1      3498 1.24650E+02 3.46696E+01 0.00000E+00
 -1      3499 1.28400E+02 3.59461E+01 0.00000E+00
 -1      3500 1.29900E+02 3.59461E+01 0.00000E+00
 -1      3501 1.27650E+02 3.46696E+01 0.00000E+00
 -1      3502 1.31400E+02 3.59461E+01 0.00000E+00
 -1      3503 1.32900E+02 3.59461E+01 0.00000E+00
 -1      3504 1.30650E+02 3.46696E+01 0.00000E+00
 -1      3505 2.72850E+01 1.30992E+01 0.00000E+00
 -1      3506 2.57850E+01 1.30992E+01 0.00000E+00
 -1      3507 2.12850E+01 1.30992E+01 0.00000E+00
 -1      3508 1.97850E+01 1.30992E+01 0.00000E+00
 -1      3509 4.22850E+01 1.30992E+01 0.00000E+00
 -1      3510 4.07850E+01 1.30992E+01 0.00000E+00
 -1      3511 5.12850E+01 1.30992E+01 0.00000E+00
 -1      3512 4.97850E+01 1.30992E+01 0.00000E+00
 -1      3513 5.42850E+01 1.30992E+01 0.00000E+00
 -1      3514 5.27850E+01 1.30992E+01 0.00000E+00
 -1      3515 5.20350E+01 1.43982E+01 0.00000E+00
 -1      3516 5.72850E+01 1.30992E+01 0.00000E+00
 -1      3517 5.57850E+01 1.30992E+01 0.00000E+00
 -1      3518 5.50350E+01 1.43982E+01 0.00000E+00
 -1      3519 6.02850E+01 1.30992E+01 0.00000E+00
 -1      3520 5.87850E+01 1.30992E+01 0.00000E+00
 -1      3521 5.80350E+01 1.43982E+01 0.00000E+00
 -1      3522 6.32850E+01 1.30992E+01 0.00000E+00
 -1      3523 6.17850E+01 1.30992E+01 0.00000E+00
 -1      3524 6.10350E+01 1.43982E+01 0.00000E+00
 -1      3525 6.62850E+01 1.30992E+01 0.00000E+00
 -1      3526 6.47850E+01 1.30992E+01 0.00000E+00
 -1      3527 6.40350E+01 1.43982E+01 0.00000E+00
 -1      3528 6.92850E+01 1.30992E+01 0.00000E+00
 -1      3529 6.77850E+01 1.30992E+01 0.00000E+00
 -1      3530 6.70350E+01 1.43982E+01 0.00000E+00
 -1      3531 7.22850E+01 1.30992E+01 0.00000E+00
 -1      3532 7.07850E+01 1.30992E+01 0.00000E+00
 -1      3533 7.00350E+01 1.43982E+01 0.00000E+00
 -1      3534 7.52850E+01 1.30992E+01 0.00000E+00
 -1      3535 7.37850E+01 1.30992E+01 0.00000E+00
 -1      3536 7.30350E+01 1.43982E+01 0.00000E+00
 -1      3537 7.82850E+01 1.30992E+01 0.00000E+00
 -1      3538 7.67850E+01 1.30992E+01 0.00000E+00
 -1      3539 7.60350E+01 1.43982E+01 0.00000E+00
 -1      3540 8.12850E+01 1.30992E+01 0.00000E+00
 -1      3541 7.97850E+01 1.30992E+01 0.00000E+00
 -1      3542 7.90350E+01 1.43982E+01 0.00000E+00
 -1      3543 8.42850E+01 1.30992E+01 0.00000E+00
 -1      3544 8.27850E+01 1.30992E+01 0.00000E+00
 -1      3545 8.20350E+01 1.43982E+01 0.00000E+00
 -1      3546 8.72850E+01 1.30992E+01 0.00000E+00
 -1      3547 8.57850E+01 1.30992E+01 0.00000E+00
 -1      3548 8.50350E+01 1.43982E+01 0.00000E+00
 -1      3549 9.02850E+01 1.30992E+01 0.00000E+00
 -1      3550 8.87850E+01 1.30992E+01 0.00000E+00
 -1      3551 8.80350E+01 1.43982E+01 0.00000E+00
 -1      3552 9.32850E+01 1.30992E+01 0.00000E+00
 -1      3553 9.17850E+01 1.30992E+01 0.00000E+00
 -1      3554 9.10350E+01 1.43982E+01 0.00000E+00
 -1      3555 9.80871E+01 1.34350E+01 0.00000E+00
 -1      3556 1.23464E+02 1.86323E+01 0.00000E+00
 -1      3557 1.23822E+02 2.00726E+01 0.00000E+00
 -1      3558 1.29285E+02 1.30542E+01 0.00000E+00
 -1      3559 1.27785E+02 1.30542E+01 0.00000E+00
 -1      3560 1.32285E+02 1.30542E+01 0.00000E+00
 -1      3561 1.30785E+02 1.30542E+01 0.00000E+00
 -1      3562 1.30035E+02 1.43532E+01 0.00000E+00
 -1      3563 1.35285E+02 1.30542E+01 0.00000E+00
 -1      3564 1.33785E+02 1.30542E+01 0.00000E+00
 -1      3565 1.33035E+02 1.43532E+01 0.00000E+00
 -1      3566 1.37010E+02 2.06000E+01 0.00000E+00
 -1      3567 1.22735E+02 3.29418E+01 0.00000E+00
 -1      3568 1.22026E+02 3.41839E+01 0.00000E+00
 -1      3569 1.18862E+02 1.36097E+01 0.00000E+00
 -1      3570 1.20210E+01 3.61362E+01 0.00000E+00
 -1      3571 9.29773E+01 2.78349E+01 0.00000E+00
 -1      3572 9.33479E+01 2.63317E+01 0.00000E+00
 -1      3573 1.35711E+02 2.72000E+01 0.00000E+00
 -1      3574 1.35711E+02 2.57500E+01 0.00000E+00
 -1      3575 3.02850E+01 1.30992E+01 0.00000E+00
 -1      3576 2.87850E+01 1.30992E+01 0.00000E+00
 -1      3577 2.80350E+01 1.43982E+01 0.00000E+00
 -1      3578 1.44000E+01 3.57110E+01 0.00000E+00
 -1      3579 1.59000E+01 3.57110E+01 0.00000E+00
 -1      3580 1.26285E+02 1.30542E+01 0.00000E+00
 -1      3581 1.24785E+02 1.30542E+01 0.00000E+00
 -1      3582 1.27035E+02 1.43532E+01 0.00000E+00
 -1      3583 1.23768E+02 2.64976E+01 0.00000E+00
 -1      3584 1.23524E+02 2.74669E+01 0.00000E+00
 -1      3585 1.23122E+02 1.38097E+01 0.00000E+00
 -1      3586 1.21622E+02 1.38097E+01 0.00000E+00
 -1      3587 9.29750E+01 3.47026E+01 0.00000E+00
 -1      3588 3.92850E+01 1.30992E+01 0.00000E+00
 -1      3589 3.77850E+01 1.30992E+01 0.00000E+00
 -1      3590 4.00350E+01 1.43982E+01 0.00000E+00
 -1      3591 1.16910E+01 2.71844E+01 0.00000E+00
 -1      3592 1.16910E+01 2.86531E+01 0.00000E+00
 -1      3593 1.29900E+01 2.93875E+01 0.00000E+00
 -1      3594 2.42850E+01 1.30992E+01 0.00000E+00
 -1      3595 2.27850E+01 1.30992E+01 0.00000E+00
 -1      3596 2.20350E+01 1.43982E+01 0.00000E+00
 -1      3597 2.50350E+01 1.43982E+01 0.00000E+00
 -1      3598 4.82850E+01 1.30992E+01 0.00000E+00
 -1      3599 4.67850E+01 1.30992E+01 0.00000E+00
 -1      3600 4.90350E+01 1.43982E+01 0.00000E+00
 -1      3601 9.51941E+01 1.88181E+01 0.00000E+00
 -1      3602 9.59865E+01 1.78309E+01 0.00000E+00
 -1      3603 4.52850E+01 1.30992E+01 0.00000E+00
 -1      3604 4.37850E+01 1.30992E+01 0.00000E+00
 -1      3605 4.30350E+01 1.43982E+01 0.00000E+00
 -1      3606 4.60350E+01 1.43982E+01 0.00000E+00
 -1      3607 1.21276E+02 3.54604E+01 0.00000E+00
 -1      3608 1.38643E+02 1.48012E+01 0.00000E+00
 -1      3609 1.38709E+02 1.35609E+01 0.00000E+00
 -1      3610 1.37750E+02 1.33275E+01 0.00000E+00
 -1      3611 1.37344E+02 1.55387E+01 0.00000E+00
 -1      3612 1.74000E+01 3.57110E+01 0.00000E+00
 -1      3613 1.89000E+01 3.57110E+01 0.00000E+00
 -1      3614 1.66500E+01 3.44120E+01 0.00000E+00
 -1      3615 1.20362E+02 1.36097E+01 0.00000E+00
 -1      3616 9.22250E+01 3.34036E+01 0.00000E+00
 -1      3617 1.42890E+01 1.39344E+01 0.00000E+00
 -1      3618 1.42890E+01 1.54031E+01 0.00000E+00
 -1      3619 1.96500E+01 3.44120E+01 0.00000E+00
 -1      3620 1.48779E+01 1.21429E+01 0.00000E+00
 -1      3621 1.44917E+01 1.31424E+01 0.00000E+00
 -1      3622 1.57907E+01 1.38767E+01 0.00000E+00
 -1      3623 1.61961E+01 1.22927E+01 0.00000E+00
 -1      3624 9.61997E+01 1.67489E+01 0.00000E+00
 -1      3625 1.35711E+02 2.86750E+01 0.00000E+00
 -1      3626 1.34412E+02 2.79500E+01 0.00000E+00
 -1      3627 1.35711E+02 3.01500E+01 0.00000E+00
 -1      3628 9.28082E+01 2.53846E+01 0.00000E+00
 -1      3629 9.40302E+01 2.25896E+01 0.00000E+00
 -1      3630 1.23986E+02 2.39943E+01 0.00000E+00
 -1      3631 1.23999E+02 2.51647E+01 0.00000E+00
 -1      3632 1.34022E+02 3.61808E+01 0.00000E+00
 -1      3633 1.35329E+02 3.62652E+01 0.00000E+00
 -1      3634 1.35515E+02 3.53736E+01 0.00000E+00
 -1      3635 1.33272E+02 3.49043E+01 0.00000E+00
 -1      3636 1.90350E+01 1.43983E+01 0.00000E+00
 -1      3637 1.82850E+01 1.30993E+01 0.00000E+00
 -1      3638 9.12047E+01 3.26906E+01 0.00000E+00
 -1      3639 1.33200E+01 3.54019E+01 0.00000E+00
 -1      3640 9.75398E+01 1.49432E+01 0.00000E+00
 -1      3641 9.64877E+01 1.33085E+01 0.00000E+00
 -1      3642 9.49877E+01 1.33085E+01 0.00000E+00
 -1      3643 9.42377E+01 1.46075E+01 0.00000E+00
 -1      3644 1.23505E+02 1.74644E+01 0.00000E+00
 -1      3645 1.24841E+02 1.78968E+01 0.00000E+00
 -1      3646 1.23546E+02 1.62965E+01 0.00000E+00
 -1      3647 1.24871E+02 2.58998E+01 0.00000E+00
 -1      3648 1.24092E+02 2.84607E+01 0.00000E+00
 -1      3649 9.42241E+01 2.00804E+01 0.00000E+00
 -1      3650 9.47091E+01 1.94492E+01 0.00000E+00
 -1      3651 9.42405E+01 1.82615E+01 0.00000E+00
 -1      3652 1.42890E+01 2.27625E+01 0.00000E+00
 -1      3653 1.42890E+01 2.42375E+01 0.00000E+00
 -1      3654 1.36791E+02 1.30942E+01 0.00000E+00
 -1      3655 1.23583E+02 3.16965E+01 0.00000E+00
 -1      3656 1.23998E+02 3.34244E+01 0.00000E+00
 -1      3657 1.25498E+02 3.34244E+01 0.00000E+00
 -1      3658 1.24195E+02 3.09339E+01 0.00000E+00
 -1      3659 1.35711E+02 2.42750E+01 0.00000E+00
 -1      3660 1.35711E+02 2.28000E+01 0.00000E+00
 -1      3661 1.34412E+02 2.50000E+01 0.00000E+00
 -1      3662 9.22540E+01 2.89136E+01 0.00000E+00
 -1      3663 9.15253E+01 2.79367E+01 0.00000E+00
 -1      3664 9.15306E+01 2.99923E+01 0.00000E+00
 -1      3665 3.17850E+01 1.30992E+01 0.00000E+00
 -1      3666 3.10350E+01 1.43982E+01 0.00000E+00
 -1      3667 3.32850E+01 1.30992E+01 0.00000E+00
 -1      3668 1.40700E+01 3.41029E+01 0.00000E+00
 -1      3669 1.69669E+01 1.29495E+01 0.00000E+00
 -1      3670 1.42890E+01 2.12906E+01 0.00000E+00
 -1      3671 1.55880E+01 2.20281E+01 0.00000E+00
 -1      3672 1.42890E+01 1.98188E+01 0.00000E+00
 -1      3673 1.36041E+02 1.43932E+01 0.00000E+00
 -1      3674 1.40700E+01 3.11654E+01 0.00000E+00
 -1      3675 1.40700E+01 3.26341E+01 0.00000E+00
 -1      3676 1.51500E+01 3.29432E+01 0.00000E+00
 -1      3677 3.62850E+01 1.30992E+01 0.00000E+00
 -1      3678 3.47850E+01 1.30992E+01 0.00000E+00
 -1      3679 3.70350E+01 1.43982E+01 0.00000E+00
 -1      3680 1.35711E+02 2.13250E+01 0.00000E+00
 -1      3681 1.35711E+02 1.98500E+01 0.00000E+00
 -1      3682 1.34412E+02 2.20500E+01 0.00000E+00
 -1      3683 1.35777E+02 1.86097E+01 0.00000E+00
 -1      3684 1.35842E+02 1.73693E+01 0.00000E+00
 -1      3685 1.34478E+02 1.93347E+01 0.00000E+00
 -1      3686 1.23959E+02 2.16533E+01 0.00000E+00
 -1      3687 1.23972E+02 2.28238E+01 0.00000E+00
 -1      3688 1.25088E+02 2.33965E+01 0.00000E+00
 -1      3689 1.29900E+01 2.64469E+01 0.00000E+00
 -1      3690 1.24937E+02 2.06454E+01 0.00000E+00
 -1      3691 1.35702E+02 3.44820E+01 0.00000E+00
 -1      3692 1.34487E+02 3.39556E+01 0.00000E+00
 -1      3693 1.35795E+02 3.32987E+01 0.00000E+00
 -1      3694 1.35795E+02 3.18237E+01 0.00000E+00
 -1      3695 1.33365E+02 3.37210E+01 0.00000E+00
 -1      3696 1.89000E+01 3.31130E+01 0.00000E+00
 -1      3697 2.04000E+01 3.31130E+01 0.00000E+00
 -1      3698 1.42890E+01 1.68750E+01 0.00000E+00
 -1      3699 1.42890E+01 1.83469E+01 0.00000E+00
 -1      3700 1.55880E+01 1.90844E+01 0.00000E+00
 -1      3701 2.49000E+01 3.31130E+01 0.00000E+00
 -1      3702 2.64000E+01 3.31130E+01 0.00000E+00
 -1      3703 2.79000E+01 3.31130E+01 0.00000E+00
 -1      3704 2.94000E+01 3.31130E+01 0.00000E+00
 -1      3705 2.71500E+01 3.18140E+01 0.00000E+00
 -1      3706 3.09000E+01 3.31130E+01 0.00000E+00
 -1      3707 3.24000E+01 3.31130E+01 0.00000E+00
 -1      3708 3.01500E+01 3.18140E+01 0.00000E+00
 -1      3709 3.39000E+01 3.31130E+01 0.00000E+00
 -1      3710 3.54000E+01 3.31130E+01 0.00000E+00
 -1      3711 3.31500E+01 3.18140E+01 0.00000E+00
 -1      3712 3.69000E+01 3.31130E+01 0.00000E+00
 -1      3713 3.84000E+01 3.31130E+01 0.00000E+00
 -1      3714 3.61500E+01 3.18140E+01 0.00000E+00
 -1      3715 3.99000E+01 3.31130E+01 0.00000E+00
 -1      3716 4.14000E+01 3.31130E+01 0.00000E+00
 -1      3717 3.91500E+01 3.18140E+01 0.00000E+00
 -1      3718 4.29000E+01 3.31130E+01 0.00000E+00
 -1      3719 4.44000E+01 3.31130E+01 0.00000E+00
 -1      3720 4.21500E+01 3.18140E+01 0.00000E+00
 -1      3721 4.59000E+01 3.31130E+01 0.00000E+00
 -1      3722 4.74000E+01 3.31130E+01 0.00000E+00
 -1      3723 4.51500E+01 3.18140E+01 0.00000E+00
 -1      3724 4.89000E+01 3.31130E+01 0.00000E+00
 -1      3725 5.04000E+01 3.31130E+01 0.00000E+00
 -1      3726 4.81500E+01 3.18140E+01 0.00000E+00
 -1      3727 5.19000E+01 3.31130E+01 0.00000E+00
 -1      3728 5.34000E+01 3.31130E+01 0.00000E+00
 -1      3729 5.11500E+01 3.18140E+01 0.00000E+00
 -1      3730 5.49000E+01 3.31130E+01 0.00000E+00
 -1      3731 5.64000E+01 3.31130E+01 0.00000E+00
 -1      3732 5.41500E+01 3.18140E+01 0.00000E+00
 -1      3733 5.79000E+01 3.31130E+01 0.00000E+00
 -1      3734 5.94000E+01 3.31130E+01 0.00000E+00
 -1      3735 5.71500E+01 3.18140E+01 0.00000E+00
 -1      3736 6.09000E+01 3.31130E+01 0.00000E+00
 -1      3737 6.24000E+01 3.31130E+01 0.00000E+00
 -1      3738 6.01500E+01 3.18140E+01 0.00000E+00
 -1      3739 6.39000E+01 3.31130E+01 0.00000E+00
 -1      3740 6.54000E+01 3.31130E+01 0.00000E+00
 -1      3741 6.31500E+01 3.18140E+01 0.00000E+00
 -1      3742 6.69000E+01 3.31130E+01 0.00000E+00
 -1      3743 6.84000E+01 3.31130E+01 0.00000E+00
 -1      3744 6.61500E+01 3.18140E+01 0.00000E+00
 -1      3745 6.99000E+01 3.31130E+01 0.00000E+00
 -1      3746 7.14000E+01 3.31130E+01 0.00000E+00
 -1      3747 6.91500E+01 3.18140E+01 0.00000E+00
 -1      3748 7.29000E+01 3.31130E+01 0.00000E+00
 -1      3749 7.44000E+01 3.31130E+01 0.00000E+00
 -1      3750 7.21500E+01 3.18140E+01 0.00000E+00
 -1      3751 7.59000E+01 3.31130E+01 0.00000E+00
 -1      3752 7.74000E+01 3.31130E+01 0.00000E+00
 -1      3753 7.51500E+01 3.18140E+01 0.00000E+00
 -1      3754 7.89000E+01 3.31130E+01 0.00000E+00
 -1      3755 8.04000E+01 3.31130E+01 0.00000E+00
 -1      3756 7.81500E+01 3.18140E+01 0.00000E+00
 -1      3757 8.19000E+01 3.31130E+01 0.00000E+00
 -1      3758 8.34000E+01 3.31130E+01 0.00000E+00
 -1      3759 8.11500E+01 3.18140E+01 0.00000E+00
 -1      3760 8.49000E+01 3.31130E+01 0.00000E+00
 -1      3761 8.64000E+01 3.31130E+01 0.00000E+00
 -1      3762 8.41500E+01 3.18140E+01 0.00000E+00
 -1      3763 8.79000E+01 3.31130E+01 0.00000E+00
 -1      3764 8.94000E+01 3.31130E+01 0.00000E+00
 -1      3765 8.71500E+01 3.18140E+01 0.00000E+00
 -1      3766 1.55880E+01 1.61406E+01 0.00000E+00
 -1      3767 1.42890E+01 2.57094E+01 0.00000E+00
 -1      3768 1.42890E+01 2.71812E+01 0.00000E+00
 -1      3769 1.55880E+01 2.49719E+01 0.00000E+00
 -1      3770 1.26998E+02 3.34244E+01 0.00000E+00
 -1      3771 1.28498E+02 3.34244E+01 0.00000E+00
 -1      3772 1.26347E+02 3.21791E+01 0.00000E+00
 -1      3773 1.29998E+02 3.34244E+01 0.00000E+00
 -1      3774 1.31498E+02 3.34244E+01 0.00000E+00
 -1      3775 1.29347E+02 3.21791E+01 0.00000E+00
 -1      3776 9.04547E+01 3.13916E+01 0.00000E+00
 -1      3777 9.16484E+01 2.57871E+01 0.00000E+00
 -1      3778 9.22080E+01 2.43137E+01 0.00000E+00
 -1      3779 1.41795E+01 2.84389E+01 0.00000E+00
 -1      3780 1.41795E+01 2.99077E+01 0.00000E+00
 -1      3781 1.52595E+01 3.02168E+01 0.00000E+00
 -1      3782 1.54785E+01 2.77014E+01 0.00000E+00
 -1      3783 5.27850E+01 1.56973E+01 0.00000E+00
 -1      3784 5.12850E+01 1.56973E+01 0.00000E+00
 -1      3785 6.17850E+01 1.56973E+01 0.00000E+00
 -1      3786 6.02850E+01 1.56973E+01 0.00000E+00
 -1      3787 6.47850E+01 1.56973E+01 0.00000E+00
 -1      3788 6.32850E+01 1.56973E+01 0.00000E+00
 -1      3789 6.25350E+01 1.69963E+01 0.00000E+00
 -1      3790 6.77850E+01 1.56973E+01 0.00000E+00
 -1      3791 6.62850E+01 1.56973E+01 0.00000E+00
 -1      3792 6.55350E+01 1.69963E+01 0.00000E+00
 -1      3793 7.07850E+01 1.56973E+01 0.00000E+00
 -1      3794 6.92850E+01 1.56973E+01 0.00000E+00
 -1      3795 6.85350E+01 1.69963E+01 0.00000E+00
 -1      3796 7.37850E+01 1.56973E+01 0.00000E+00
 -1      3797 7.22850E+01 1.56973E+01 0.00000E+00
 -1      3798 7.15350E+01 1.69963E+01 0.00000E+00
 -1      3799 7.67850E+01 1.56973E+01 0.00000E+00
 -1      3800 7.52850E+01 1.56973E+01 0.00000E+00
 -1      3801 7.45350E+01 1.69963E+01 0.00000E+00
 -1      3802 7.97850E+01 1.56973E+01 0.00000E+00
 -1      3803 7.82850E+01 1.56973E+01 0.00000E+00
 -1      3804 7.75350E+01 1.69963E+01 0.00000E+00
 -1      3805 8.27850E+01 1.56973E+01 0.00000E+00
 -1      3806 8.12850E+01 1.56973E+01 0.00000E+00
 -1      3807 8.05350E+01 1.69963E+01 0.00000E+00
 -1      3808 8.57850E+01 1.56973E+01 0.00000E+00
 -1      3809 8.42850E+01 1.56973E+01 0.00000E+00
 -1      3810 8.35350E+01 1.69963E+01 0.00000E+00
 -1      3811 8.87850E+01 1.56973E+01 0.00000E+00
 -1      3812 8.72850E+01 1.56973E+01 0.00000E+00
 -1      3813 8.65350E+01 1.69963E+01 0.00000E+00
 -1      3814 9.17850E+01 1.56973E+01 0.00000E+00
 -1      3815 9.02850E+01 1.56973E+01 0.00000E+00
 -1      3816 8.95350E+01 1.69963E+01 0.00000E+00
 -1      3817 1.33785E+02 1.56522E+01 0.00000E+00
 -1      3818 1.32285E+02 1.56522E+01 0.00000E+00
 -1      3819 1.26161E+02 2.54365E+01 0.00000E+00
 -1      3820 1.25931E+02 2.67693E+01 0.00000E+00
 -1      3821 1.30785E+02 1.56522E+01 0.00000E+00
 -1      3822 1.29285E+02 1.56522E+01 0.00000E+00
 -1      3823 1.31535E+02 1.69512E+01 0.00000E+00
 -1      3824 1.62750E+01 3.30281E+01 0.00000E+00
 -1      3825 1.77750E+01 3.30281E+01 0.00000E+00
 -1      3826 1.85250E+01 3.17291E+01 0.00000E+00
 -1      3827 1.62750E+01 3.15594E+01 0.00000E+00
 -1      3828 1.23872E+02 1.51087E+01 0.00000E+00
 -1      3829 1.97850E+01 1.56973E+01 0.00000E+00
 -1      3830 1.82851E+01 1.56973E+01 0.00000E+00
 -1      3831 2.87850E+01 1.56973E+01 0.00000E+00
 -1      3832 2.72850E+01 1.56973E+01 0.00000E+00
 -1      3833 1.35838E+02 1.54988E+01 0.00000E+00
 -1      3834 9.27826E+01 2.27910E+01 0.00000E+00
 -1      3835 9.34450E+01 2.14695E+01 0.00000E+00
 -1      3836 1.25302E+02 2.82647E+01 0.00000E+00
 -1      3837 1.24754E+02 2.94927E+01 0.00000E+00
 -1      3838 4.07850E+01 1.56973E+01 0.00000E+00
 -1      3839 3.92850E+01 1.56973E+01 0.00000E+00
 -1      3840 5.87850E+01 1.56973E+01 0.00000E+00
 -1      3841 5.72850E+01 1.56973E+01 0.00000E+00
 -1      3842 5.95350E+01 1.69963E+01 0.00000E+00
 -1      3843 5.57850E+01 1.56973E+01 0.00000E+00
 -1      3844 5.42850E+01 1.56973E+01 0.00000E+00
 -1      3845 5.35350E+01 1.69963E+01 0.00000E+00
 -1      3846 4.97850E+01 1.56973E+01 0.00000E+00
 -1      3847 4.82850E+01 1.56973E+01 0.00000E+00
 -1      3848 5.05350E+01 1.69963E+01 0.00000E+00
 -1      3849 2.19000E+01 3.31130E+01 0.00000E+00
 -1      3850 2.34000E+01 3.31130E+01 0.00000E+00
 -1      3851 2.11500E+01 3.18140E+01 0.00000E+00
 -1      3852 1.26163E+02 1.97428E+01 0.00000E+00
 -1      3853 1.26300E+02 2.13235E+01 0.00000E+00
 -1      3854 1.26224E+02 2.27947E+01 0.00000E+00
 -1      3855 1.26237E+02 2.39652E+01 0.00000E+00
 -1      3856 1.27297E+02 2.48347E+01 0.00000E+00
 -1      3857 1.27450E+02 2.18922E+01 0.00000E+00
 -1      3858 1.25209E+02 1.55410E+01 0.00000E+00
 -1      3859 2.41500E+01 3.18140E+01 0.00000E+00
 -1      3860 1.34496E+02 3.10987E+01 0.00000E+00
 -1      3861 1.26101E+02 1.55311E+01 0.00000E+00
 -1      3862 1.25775E+02 1.67189E+01 0.00000E+00
 -1      3863 1.25734E+02 1.78868E+01 0.00000E+00
 -1      3864 1.27601E+02 1.55311E+01 0.00000E+00
 -1      3865 9.16228E+01 2.31935E+01 0.00000E+00
 -1      3866 1.68870E+01 2.42359E+01 0.00000E+00
 -1      3867 1.68870E+01 2.57078E+01 0.00000E+00
 -1      3868 9.68071E+01 1.53420E+01 0.00000E+00
 -1      3869 1.27097E+02 1.85649E+01 0.00000E+00
 -1      3870 1.32713E+02 3.24757E+01 0.00000E+00
 -1      3871 9.09250E+01 2.68658E+01 0.00000E+00
 -1      3872 9.03248E+01 2.57948E+01 0.00000E+00
 -1      3873 9.02017E+01 2.79444E+01 0.00000E+00
 -1      3874 1.33113E+02 2.86875E+01 0.00000E+00
 -1      3875 1.33113E+02 2.72125E+01 0.00000E+00
 -1      3876 9.36303E+01 1.60143E+01 0.00000E+00
 -1      3877 9.28803E+01 1.73133E+01 0.00000E+00
 -1      3878 9.53329E+01 1.62235E+01 0.00000E+00
 -1      3879 1.26593E+02 2.78014E+01 0.00000E+00
 -1      3880 9.29764E+01 2.02818E+01 0.00000E+00
 -1      3881 2.27850E+01 1.56973E+01 0.00000E+00
 -1      3882 2.12850E+01 1.56973E+01 0.00000E+00
 -1      3883 2.05351E+01 1.69963E+01 0.00000E+00
 -1      3884 4.22850E+01 1.56973E+01 0.00000E+00
 -1      3885 4.15350E+01 1.69963E+01 0.00000E+00
 -1      3886 4.37850E+01 1.56973E+01 0.00000E+00
 -1      3887 4.75350E+01 1.69963E+01 0.00000E+00
 -1      3888 4.67850E+01 1.56973E+01 0.00000E+00
 -1      3889 4.52850E+01 1.56973E+01 0.00000E+00
 -1      3890 1.28351E+02 1.68301E+01 0.00000E+00
 -1      3891 1.25405E+02 3.07380E+01 0.00000E+00
 -1      3892 8.97260E+01 3.04147E+01 0.00000E+00
 -1      3893 3.40350E+01 1.43982E+01 0.00000E+00
 -1      3894 1.34539E+02 1.62238E+01 0.00000E+00
 -1      3895 3.77850E+01 1.56973E+01 0.00000E+00
 -1      3896 3.62850E+01 1.56973E+01 0.00000E+00
 -1      3897 3.85350E+01 1.69963E+01 0.00000E+00
 -1      3898 3.02850E+01 1.56973E+01 0.00000E+00
 -1      3899 2.95350E+01 1.69963E+01 0.00000E+00
 -1      3900 3.17850E+01 1.56973E+01 0.00000E+00
 -1      3901 1.33113E+02 2.27875E+01 0.00000E+00
 -1      3902 1.33113E+02 2.13125E+01 0.00000E+00
 -1      3903 1.33179E+02 2.00722E+01 0.00000E+00
 -1      3904 1.33244E+02 1.88318E+01 0.00000E+00
 -1      3905 1.31880E+02 2.08097E+01 0.00000E+00
 -1      3906 1.68870E+01 2.12922E+01 0.00000E+00
 -1      3907 1.68870E+01 2.27641E+01 0.00000E+00
 -1      3908 1.81860E+01 2.35000E+01 0.00000E+00
 -1      3909 5.65350E+01 1.69963E+01 0.00000E+00
 -1      3910 2.57850E+01 1.56973E+01 0.00000E+00
 -1      3911 2.42850E+01 1.56973E+01 0.00000E+00
 -1      3912 2.35350E+01 1.69963E+01 0.00000E+00
 -1      3913 2.65350E+01 1.69963E+01 0.00000E+00
 -1      3914 1.31814E+02 2.64750E+01 0.00000E+00
 -1      3915 1.33113E+02 2.57375E+01 0.00000E+00
 -1      3916 1.33113E+02 2.42625E+01 0.00000E+00
 -1      3917 1.26905E+02 3.07380E+01 0.00000E+00
 -1      3918 5.72850E+01 1.82952E+01 0.00000E+00
 -1      3919 5.57850E+01 1.82952E+01 0.00000E+00
 -1      3920 2.94000E+01 3.05150E+01 0.00000E+00
 -1      3921 3.09000E+01 3.05150E+01 0.00000E+00
 -1      3922 3.24000E+01 3.05150E+01 0.00000E+00
 -1      3923 3.39000E+01 3.05150E+01 0.00000E+00
 -1      3924 3.16500E+01 2.92160E+01 0.00000E+00
 -1      3925 3.54000E+01 3.05150E+01 0.00000E+00
 -1      3926 3.69000E+01 3.05150E+01 0.00000E+00
 -1      3927 3.46500E+01 2.92160E+01 0.00000E+00
 -1      3928 3.84000E+01 3.05150E+01 0.00000E+00
 -1      3929 3.99000E+01 3.05150E+01 0.00000E+00
 -1      3930 3.76500E+01 2.92160E+01 0.00000E+00
 -1      3931 4.14000E+01 3.05150E+01 0.00000E+00
 -1      3932 4.29000E+01 3.05150E+01 0.00000E+00
 -1      3933 4.06500E+01 2.92160E+01 0.00000E+00
 -1      3934 4.44000E+01 3.05150E+01 0.00000E+00
 -1      3935 4.59000E+01 3.05150E+01 0.00000E+00
 -1      3936 4.36500E+01 2.92160E+01 0.00000E+00
 -1      3937 4.74000E+01 3.05150E+01 0.00000E+00
 -1      3938 4.89000E+01 3.05150E+01 0.00000E+00
 -1      3939 4.66500E+01 2.92160E+01 0.00000E+00
 -1      3940 5.04000E+01 3.05150E+01 0.00000E+00
 -1      3941 5.19000E+01 3.05150E+01 0.00000E+00
 -1      3942 4.96500E+01 2.92160E+01 0.00000E+00
 -1      3943 5.34000E+01 3.05150E+01 0.00000E+00
 -1      3944 5.49000E+01 3.05150E+01 0.00000E+00
 -1      3945 5.26500E+01 2.92160E+01 0.00000E+00
 -1      3946 5.64000E+01 3.05150E+01 0.00000E+00
 -1      3947 5.79000E+01 3.05150E+01 0.00000E+00
 -1      3948 5.56500E+01 2.92160E+01 0.00000E+00
 -1      3949 5.94000E+01 3.05150E+01 0.00000E+00
 -1      3950 6.09000E+01 3.05150E+01 0.00000E+00
 -1      3951 5.86500E+01 2.92160E+01 0.00000E+00
 -1      3952 6.24000E+01 3.05150E+01 0.00000E+00
 -1      3953 6.39000E+01 3.05150E+01 0.00000E+00
 -1      3954 6.16500E+01 2.92160E+01 0.00000E+00
 -1      3955 6.54000E+01 3.05150E+01 0.00000E+00
 -1      3956 6.69000E+01 3.05150E+01 0.00000E+00
 -1      3957 6.46500E+01 2.92160E+01 0.00000E+00
 -1      3958 6.84000E+01 3.05150E+01 0.00000E+00
 -1      3959 6.99000E+01 3.05150E+01 0.00000E+00
 -1      3960 6.76500E+01 2.92160E+01 0.00000E+00
 -1      3961 7.14000E+01 3.05150E+01 0.00000E+00
 -1      3962 7.29000E+01 3.05150E+01 0.00000E+00
 -1      3963 7.06500E+01 2.92160E+01 0.00000E+00
 -1      3964 7.44000E+01 3.05150E+01 0.00000E+00
 -1      3965 7.59000E+01 3.05150E+01 0.00000E+00
 -1      3966 7.36500E+01 2.92160E+01 0.00000E+00
 -1      3967 7.74000E+01 3.05150E+01 0.00000E+00
 -1      3968 7.89000E+01 3.05150E+01 0.00000E+00
 -1      3969 7.66500E+01 2.92160E+01 0.00000E+00
 -1      3970 8.04000E+01 3.05150E+01 0.00000E+00
 -1      3971 8.19000E+01 3.05150E+01 0.00000E+00
 -1      3972 7.96500E+01 2.92160E+01 0.00000E+00
 -1      3973 8.34000E+01 3.05150E+01 0.00000E+00
 -1      3974 8.49000E+01 3.05150E+01 0.00000E+00
 -1      3975 8.26500E+01 2.92160E+01 0.00000E+00
 -1      3976 8.64000E+01 3.05150E+01 0.00000E+00
 -1      3977 8.79000E+01 3.05150E+01 0.00000E+00
 -1      3978 8.56500E+01 2.92160E+01 0.00000E+00
 -1      3979 6.92850E+01 1.82952E+01 0.00000E+00
 -1      3980 6.77850E+01 1.82952E+01 0.00000E+00
 -1      3981 1.27534E+02 2.92425E+01 0.00000E+00
 -1      3982 1.28475E+02 3.06837E+01 0.00000E+00
 -1      3983 1.28163E+02 2.77471E+01 0.00000E+00
 -1      3984 1.73115E+01 1.58325E+01 0.00000E+00
 -1      3985 1.73115E+01 1.73044E+01 0.00000E+00
 -1      3986 1.29975E+02 3.06837E+01 0.00000E+00
 -1      3987 1.28780E+02 1.86861E+01 0.00000E+00
 -1      3988 6.62850E+01 1.82952E+01 0.00000E+00
 -1      3989 6.47850E+01 1.82952E+01 0.00000E+00
 -1      3990 6.70350E+01 1.95942E+01 0.00000E+00
 -1      3991 5.42850E+01 1.82952E+01 0.00000E+00
 -1      3992 5.27850E+01 1.82952E+01 0.00000E+00
 -1      3993 5.50350E+01 1.95942E+01 0.00000E+00
 -1      3994 6.32850E+01 1.82952E+01 0.00000E+00
 -1      3995 6.17850E+01 1.82952E+01 0.00000E+00
 -1      3996 6.40350E+01 1.95942E+01 0.00000E+00
 -1      3997 7.22850E+01 1.82952E+01 0.00000E+00
 -1      3998 7.07850E+01 1.82952E+01 0.00000E+00
 -1      3999 7.00350E+01 1.95942E+01 0.00000E+00
 -1      4000 7.52850E+01 1.82952E+01 0.00000E+00
 -1      4001 7.37850E+01 1.82952E+01 0.00000E+00
 -1      4002 7.30350E+01 1.95942E+01 0.00000E+00
 -1      4003 7.82850E+01 1.82952E+01 0.00000E+00
 -1      4004 7.67850E+01 1.82952E+01 0.00000E+00
 -1      4005 7.60350E+01 1.95942E+01 0.00000E+00
 -1      4006 8.12850E+01 1.82952E+01 0.00000E+00
 -1      4007 7.97850E+01 1.82952E+01 0.00000E+00
 -1      4008 7.90350E+01 1.95942E+01 0.00000E+00
 -1      4009 8.42850E+01 1.82952E+01 0.00000E+00
 -1      4010 8.27850E+01 1.82952E+01 0.00000E+00
 -1      4011 8.20350E+01 1.95942E+01 0.00000E+00
 -1      4012 8.72850E+01 1.82952E+01 0.00000E+00
 -1      4013 8.57850E+01 1.82952E+01 0.00000E+00
 -1      4014 8.50350E+01 1.95942E+01 0.00000E+00
 -1      4015 9.02850E+01 1.82952E+01 0.00000E+00
 -1      4016 8.87850E+01 1.82952E+01 0.00000E+00
 -1      4017 8.80350E+01 1.95942E+01 0.00000E+00
 -1      4018 1.33789E+02 1.75228E+01 0.00000E+00
 -1      4019 9.08662E+01 2.06326E+01 0.00000E+00
 -1      4020 9.16452E+01 1.92435E+01 0.00000E+00
 -1      4021 8.97170E+01 2.36778E+01 0.00000E+00
 -1      4022 9.02916E+01 2.21552E+01 0.00000E+00
 -1      4023 8.89604E+01 2.11169E+01 0.00000E+00
 -1      4024 6.02850E+01 1.82952E+01 0.00000E+00
 -1      4025 5.87850E+01 1.82952E+01 0.00000E+00
 -1      4026 5.80350E+01 1.95942E+01 0.00000E+00
 -1      4027 1.67642E+01 1.37415E+01 0.00000E+00
 -1      4028 1.80765E+01 2.62296E+01 0.00000E+00
 -1      4029 1.67775E+01 2.69655E+01 0.00000E+00
 -1      4030 1.66680E+01 2.82232E+01 0.00000E+00
 -1      4031 1.31814E+02 2.35250E+01 0.00000E+00
 -1      4032 8.89760E+01 2.91157E+01 0.00000E+00
 -1      4033 1.32629E+02 3.08021E+01 0.00000E+00
 -1      4034 5.12850E+01 1.82952E+01 0.00000E+00
 -1      4035 4.97850E+01 1.82952E+01 0.00000E+00
 -1      4036 5.20350E+01 1.95942E+01 0.00000E+00
 -1      4037 2.64000E+01 3.05150E+01 0.00000E+00
 -1      4038 2.79000E+01 3.05150E+01 0.00000E+00
 -1      4039 2.86500E+01 2.92160E+01 0.00000E+00
 -1      4040 3.47850E+01 1.56973E+01 0.00000E+00
 -1      4041 3.32850E+01 1.56973E+01 0.00000E+00
 -1      4042 3.55350E+01 1.69963E+01 0.00000E+00
 -1      4043 2.04000E+01 3.05150E+01 0.00000E+00
 -1      4044 2.19000E+01 3.05150E+01 0.00000E+00
 -1      4045 2.34000E+01 3.05150E+01 0.00000E+00
 -1      4046 2.49000E+01 3.05150E+01 0.00000E+00
 -1      4047 2.26500E+01 2.92160E+01 0.00000E+00
 -1      4048 1.65615E+01 1.45335E+01 0.00000E+00
 -1      4049 1.32490E+02 1.82603E+01 0.00000E+00
 -1      4050 1.68870E+01 1.83484E+01 0.00000E+00
 -1      4051 1.68870E+01 1.98203E+01 0.00000E+00
 -1      4052 1.30990E+02 1.82603E+01 0.00000E+00
 -1      4053 1.31330E+02 3.00646E+01 0.00000E+00
 -1      4054 1.29736E+02 1.99951E+01 0.00000E+00
 -1      4055 1.81860E+01 2.05562E+01 0.00000E+00
 -1      4056 6.10350E+01 1.95942E+01 0.00000E+00
 -1      4057 1.86105E+01 1.80403E+01 0.00000E+00
 -1      4058 8.83757E+01 2.80448E+01 0.00000E+00
 -1      4059 1.30459E+02 2.85691E+01 0.00000E+00
 -1      4060 1.29594E+02 2.41817E+01 0.00000E+00
 -1      4061 1.29594E+02 2.27067E+01 0.00000E+00
 -1      4062 1.29670E+02 2.12355E+01 0.00000E+00
 -1      4063 1.63845E+01 3.03017E+01 0.00000E+00
 -1      4064 9.23952E+01 1.79445E+01 0.00000E+00
 -1      4065 8.89937E+01 2.47565E+01 0.00000E+00
 -1      4066 8.76625E+01 2.37182E+01 0.00000E+00
 -1      4067 8.82703E+01 2.58352E+01 0.00000E+00
 -1      4068 3.25350E+01 1.69963E+01 0.00000E+00
 -1      4069 4.45350E+01 1.69963E+01 0.00000E+00
 -1      4070 4.82850E+01 1.82952E+01 0.00000E+00
 -1      4071 4.67850E+01 1.82952E+01 0.00000E+00
 -1      4072 4.90350E+01 1.95942E+01 0.00000E+00
 -1      4073 4.22850E+01 1.82952E+01 0.00000E+00
 -1      4074 4.07850E+01 1.82952E+01 0.00000E+00
 -1      4075 1.29518E+02 2.71280E+01 0.00000E+00
 -1      4076 2.01105E+01 1.80403E+01 0.00000E+00
 -1      4077 1.96860E+01 1.90844E+01 0.00000E+00
 -1      4078 2.16105E+01 1.80403E+01 0.00000E+00
 -1      4079 3.92850E+01 1.82952E+01 0.00000E+00
 -1      4080 3.77850E+01 1.82952E+01 0.00000E+00
 -1      4081 4.00350E+01 1.95942E+01 0.00000E+00
 -1      4082 1.94254E+01 2.57134E+01 0.00000E+00
 -1      4083 1.93159E+01 2.69711E+01 0.00000E+00
 -1      4084 3.02850E+01 1.82952E+01 0.00000E+00
 -1      4085 2.87850E+01 1.82952E+01 0.00000E+00
 -1      4086 2.72850E+01 1.82953E+01 0.00000E+00
 -1      4087 2.57850E+01 1.82953E+01 0.00000E+00
 -1      4088 2.80350E+01 1.95943E+01 0.00000E+00
 -1      4089 1.94254E+01 2.27696E+01 0.00000E+00
 -1      4090 1.94254E+01 2.42415E+01 0.00000E+00
 -1      4091 2.06647E+01 2.49830E+01 0.00000E+00
 -1      4092 2.56500E+01 2.92160E+01 0.00000E+00
 -1      4093 1.29518E+02 2.56530E+01 0.00000E+00
 -1      4094 1.95557E+01 2.01911E+01 0.00000E+00
 -1      4095 1.95557E+01 2.16629E+01 0.00000E+00
 -1      4096 2.07950E+01 2.24045E+01 0.00000E+00
 -1      4097 2.10557E+01 2.01911E+01 0.00000E+00
 -1      4098 1.76835E+01 2.95658E+01 0.00000E+00
 -1      4099 2.79000E+01 2.79170E+01 0.00000E+00
 -1      4100 2.94000E+01 2.79170E+01 0.00000E+00
 -1      4101 3.39000E+01 2.79170E+01 0.00000E+00
 -1      4102 3.54000E+01 2.79170E+01 0.00000E+00
 -1      4103 3.69000E+01 2.79170E+01 0.00000E+00
 -1      4104 3.84000E+01 2.79170E+01 0.00000E+00
 -1      4105 3.61500E+01 2.66180E+01 0.00000E+00
 -1      4106 3.99000E+01 2.79170E+01 0.00000E+00
 -1      4107 4.14000E+01 2.79170E+01 0.00000E+00
 -1      4108 3.91500E+01 2.66180E+01 0.00000E+00
 -1      4109 4.29000E+01 2.79170E+01 0.00000E+00
 -1      4110 4.44000E+01 2.79170E+01 0.00000E+00
 -1      4111 4.21500E+01 2.66180E+01 0.00000E+00
 -1      4112 4.59000E+01 2.79170E+01 0.00000E+00
 -1      4113 4.74000E+01 2.79170E+01 0.00000E+00
 -1      4114 4.51500E+01 2.66180E+01 0.00000E+00
 -1      4115 4.89000E+01 2.79170E+01 0.00000E+00
 -1      4116 5.04000E+01 2.79170E+01 0.00000E+00
 -1      4117 4.81500E+01 2.66180E+01 0.00000E+00
 -1      4118 5.19000E+01 2.79170E+01 0.00000E+00
 -1      4119 5.34000E+01 2.79170E+01 0.00000E+00
 -1      4120 5.11500E+01 2.66180E+01 0.00000E+00
 -1      4121 5.49000E+01 2.79170E+01 0.00000E+00
 -1      4122 5.64000E+01 2.79170E+01 0.00000E+00
 -1      4123 5.41500E+01 2.66180E+01 0.00000E+00
 -1      4124 5.79000E+01 2.79170E+01 0.00000E+00
 -1      4125 5.94000E+01 2.79170E+01 0.00000E+00
 -1      4126 5.71500E+01 2.66180E+01 0.00000E+00
 -1      4127 6.09000E+01 2.79170E+01 0.00000E+00
 -1      4128 6.24000E+01 2.79170E+01 0.00000E+00
 -1      4129 6.01500E+01 2.66180E+01 0.00000E+00
 -1      4130 6.39000E+01 2.79170E+01 0.00000E+00
 -1      4131 6.54000E+01 2.79170E+01 0.00000E+00
 -1      4132 6.31500E+01 2.66180E+01 0.00000E+00
 -1      4133 6.69000E+01 2.79170E+01 0.00000E+00
 -1      4134 6.84000E+01 2.79170E+01 0.00000E+00
 -1      4135 6.61500E+01 2.66180E+01 0.00000E+00
 -1      4136 6.99000E+01 2.79170E+01 0.00000E+00
 -1      4137 7.14000E+01 2.79170E+01 0.00000E+00
 -1      4138 6.91500E+01 2.66180E+01 0.00000E+00
 -1      4139 7.29000E+01 2.79170E+01 0.00000E+00
 -1      4140 7.44000E+01 2.79170E+01 0.00000E+00
 -1      4141 7.21500E+01 2.66180E+01 0.00000E+00
 -1      4142 7.59000E+01 2.79170E+01 0.00000E+00
 -1      4143 7.74000E+01 2.79170E+01 0.00000E+00
 -1      4144 7.51500E+01 2.66180E+01 0.00000E+00
 -1      4145 7.89000E+01 2.79170E+01 0.00000E+00
 -1      4146 8.04000E+01 2.79170E+01 0.00000E+00
 -1      4147 7.81500E+01 2.66180E+01 0.00000E+00
 -1      4148 8.19000E+01 2.79170E+01 0.00000E+00
 -1      4149 8.34000E+01 2.79170E+01 0.00000E+00
 -1      4150 8.11500E+01 2.66180E+01 0.00000E+00
 -1      4151 7.37850E+01 2.08932E+01 0.00000E+00
 -1      4152 7.22850E+01 2.08932E+01 0.00000E+00
 -1      4153 6.77850E+01 2.08932E+01 0.00000E+00
 -1      4154 6.62850E+01 2.08932E+01 0.00000E+00
 -1      4155 5.57850E+01 2.08932E+01 0.00000E+00
 -1      4156 5.42850E+01 2.08932E+01 0.00000E+00
 -1      4157 6.47850E+01 2.08932E+01 0.00000E+00
 -1      4158 6.32850E+01 2.08932E+01 0.00000E+00
 -1      4159 6.55350E+01 2.21922E+01 0.00000E+00
 -1      4160 7.67850E+01 2.08932E+01 0.00000E+00
 -1      4161 7.52850E+01 2.08932E+01 0.00000E+00
 -1      4162 7.45350E+01 2.21922E+01 0.00000E+00
 -1      4163 7.97850E+01 2.08932E+01 0.00000E+00
 -1      4164 7.82850E+01 2.08932E+01 0.00000E+00
 -1      4165 7.75350E+01 2.21922E+01 0.00000E+00
 -1      4166 8.27850E+01 2.08932E+01 0.00000E+00
 -1      4167 8.12850E+01 2.08932E+01 0.00000E+00
 -1      4168 8.05350E+01 2.21922E+01 0.00000E+00
 -1      4169 8.57850E+01 2.08932E+01 0.00000E+00
 -1      4170 8.42850E+01 2.08932E+01 0.00000E+00
 -1      4171 8.35350E+01 2.21922E+01 0.00000E+00
 -1      4172 8.74604E+01 2.11169E+01 0.00000E+00
 -1      4173 1.88085E+01 2.96506E+01 0.00000E+00
 -1      4174 5.87850E+01 2.08932E+01 0.00000E+00
 -1      4175 5.72850E+01 2.08932E+01 0.00000E+00
 -1      4176 5.65350E+01 2.21922E+01 0.00000E+00
 -1      4177 8.67104E+01 2.24159E+01 0.00000E+00
 -1      4178 1.95585E+01 2.83516E+01 0.00000E+00
 -1      4179 3.17850E+01 1.82952E+01 0.00000E+00
 -1      4180 3.10350E+01 1.95942E+01 0.00000E+00
 -1      4181 3.32850E+01 1.82952E+01 0.00000E+00
 -1      4182 2.49000E+01 2.79170E+01 0.00000E+00
 -1      4183 2.64000E+01 2.79170E+01 0.00000E+00
 -1      4184 2.71500E+01 2.66180E+01 0.00000E+00
 -1      4185 8.70445E+01 2.70064E+01 0.00000E+00
 -1      4186 4.52850E+01 1.82952E+01 0.00000E+00
 -1      4187 4.37850E+01 1.82952E+01 0.00000E+00
 -1      4188 4.30350E+01 1.95942E+01 0.00000E+00
 -1      4189 4.60350E+01 1.95942E+01 0.00000E+00
 -1      4190 6.17850E+01 2.08932E+01 0.00000E+00
 -1      4191 6.02850E+01 2.08932E+01 0.00000E+00
 -1      4192 6.25350E+01 2.21922E+01 0.00000E+00
 -1      4193 5.27850E+01 2.08932E+01 0.00000E+00
 -1      4194 5.12850E+01 2.08932E+01 0.00000E+00
 -1      4195 5.35350E+01 2.21922E+01 0.00000E+00
 -1      4196 2.44478E+01 1.81678E+01 0.00000E+00
 -1      4197 2.29478E+01 1.81678E+01 0.00000E+00
 -1      4198 2.25233E+01 1.92118E+01 0.00000E+00
 -1      4199 2.51978E+01 1.94668E+01 0.00000E+00
 -1      4200 7.07850E+01 2.08932E+01 0.00000E+00
 -1      4201 6.92850E+01 2.08932E+01 0.00000E+00
 -1      4202 6.85350E+01 2.21922E+01 0.00000E+00
 -1      4203 3.62850E+01 1.82952E+01 0.00000E+00
 -1      4204 3.47850E+01 1.82952E+01 0.00000E+00
 -1      4205 3.70350E+01 1.95942E+01 0.00000E+00
 -1      4206 3.09000E+01 2.79170E+01 0.00000E+00
 -1      4207 3.24000E+01 2.79170E+01 0.00000E+00
 -1      4208 3.31500E+01 2.66180E+01 0.00000E+00
 -1      4209 3.01500E+01 2.66180E+01 0.00000E+00
 -1      4210 2.09074E+01 2.78355E+01 0.00000E+00
 -1      4211 2.24074E+01 2.78355E+01 0.00000E+00
 -1      4212 2.19110E+01 2.57597E+01 0.00000E+00
 -1      4213 2.36537E+01 2.71403E+01 0.00000E+00
 -1      4214 2.44037E+01 2.58413E+01 0.00000E+00
 -1      4215 2.19110E+01 2.42879E+01 0.00000E+00
 -1      4216 8.55445E+01 2.70064E+01 0.00000E+00
 -1      4217 8.47945E+01 2.57074E+01 0.00000E+00
 -1      4218 7.15350E+01 2.21922E+01 0.00000E+00
 -1      4219 8.59870E+01 2.34946E+01 0.00000E+00
 -1      4220 4.07850E+01 2.08932E+01 0.00000E+00
 -1      4221 3.92850E+01 2.08932E+01 0.00000E+00
 -1      4222 5.05350E+01 2.21922E+01 0.00000E+00
 -1      4223 4.97850E+01 2.08932E+01 0.00000E+00
 -1      4224 4.82850E+01 2.08932E+01 0.00000E+00
 -1      4225 5.95350E+01 2.21922E+01 0.00000E+00
 -1      4226 4.37850E+01 2.08932E+01 0.00000E+00
 -1      4227 4.22850E+01 2.08932E+01 0.00000E+00
 -1      4228 4.15350E+01 2.21922E+01 0.00000E+00
 -1      4229 3.40350E+01 1.95942E+01 0.00000E+00
 -1      4230 3.17850E+01 2.08932E+01 0.00000E+00
 -1      4231 3.02850E+01 2.08932E+01 0.00000E+00
 -1      4232 2.87850E+01 2.08933E+01 0.00000E+00
 -1      4233 2.72850E+01 2.08933E+01 0.00000E+00
 -1      4234 2.95350E+01 2.21923E+01 0.00000E+00
 -1      4235 3.54000E+01 2.53190E+01 0.00000E+00
 -1      4236 3.69000E+01 2.53190E+01 0.00000E+00
 -1      4237 3.88425E+01 2.44051E+01 0.00000E+00
 -1      4238 4.03425E+01 2.44051E+01 0.00000E+00
 -1      4239 4.18425E+01 2.44051E+01 0.00000E+00
 -1      4240 4.33425E+01 2.44051E+01 0.00000E+00
 -1      4241 4.74000E+01 2.53190E+01 0.00000E+00
 -1      4242 4.89000E+01 2.53190E+01 0.00000E+00
 -1      4243 5.08425E+01 2.44051E+01 0.00000E+00
 -1      4244 5.23425E+01 2.44051E+01 0.00000E+00
 -1      4245 5.38425E+01 2.44051E+01 0.00000E+00
 -1      4246 5.53425E+01 2.44051E+01 0.00000E+00
 -1      4247 5.68425E+01 2.44051E+01 0.00000E+00
 -1      4248 5.83425E+01 2.44051E+01 0.00000E+00
 -1      4249 5.98425E+01 2.44051E+01 0.00000E+00
 -1      4250 6.13425E+01 2.44051E+01 0.00000E+00
 -1      4251 6.28425E+01 2.44051E+01 0.00000E+00
 -1      4252 6.43425E+01 2.44051E+01 0.00000E+00
 -1      4253 6.58425E+01 2.44051E+01 0.00000E+00
 -1      4254 6.73425E+01 2.44051E+01 0.00000E+00
 -1      4255 6.88425E+01 2.44051E+01 0.00000E+00
 -1      4256 7.03425E+01 2.44051E+01 0.00000E+00
 -1      4257 7.18425E+01 2.44051E+01 0.00000E+00
 -1      4258 7.33425E+01 2.44051E+01 0.00000E+00
 -1      4259 7.48425E+01 2.44051E+01 0.00000E+00
 -1      4260 7.63425E+01 2.44051E+01 0.00000E+00
 -1      4261 7.78425E+01 2.44051E+01 0.00000E+00
 -1      4262 7.93425E+01 2.44051E+01 0.00000E+00
 -1      4263 8.08425E+01 2.44051E+01 0.00000E+00
 -1      4264 8.23425E+01 2.44051E+01 0.00000E+00
 -1      4265 3.47850E+01 2.08932E+01 0.00000E+00
 -1      4266 3.32850E+01 2.08932E+01 0.00000E+00
 -1      4267 3.25350E+01 2.21922E+01 0.00000E+00
 -1      4268 3.80925E+01 2.31061E+01 0.00000E+00
 -1      4269 8.38425E+01 2.44051E+01 0.00000E+00
 -1      4270 4.67850E+01 2.08932E+01 0.00000E+00
 -1      4271 4.52850E+01 2.08932E+01 0.00000E+00
 -1      4272 4.45350E+01 2.21922E+01 0.00000E+00
 -1      4273 4.75350E+01 2.21922E+01 0.00000E+00
 -1      4274 3.73425E+01 2.18071E+01 0.00000E+00
 -1      4275 3.58425E+01 2.18071E+01 0.00000E+00
 -1      4276 2.64000E+01 2.53190E+01 0.00000E+00
 -1      4277 2.79000E+01 2.53190E+01 0.00000E+00
 -1      4278 4.48425E+01 2.44051E+01 0.00000E+00
 -1      4279 4.63425E+01 2.44051E+01 0.00000E+00
 -1      4280 3.28425E+01 2.44051E+01 0.00000E+00
 -1      4281 3.13425E+01 2.44051E+01 0.00000E+00
 -1      4282 2.37302E+01 2.04460E+01 0.00000E+00
 -1      4283 2.23929E+01 2.03185E+01 0.00000E+00
 -1      4284 2.22626E+01 2.14252E+01 0.00000E+00
 -1      4285 3.50925E+01 2.31061E+01 0.00000E+00
 -1      4286 2.21323E+01 2.25319E+01 0.00000E+00
 -1      4287 2.33786E+01 2.33086E+01 0.00000E+00
 -1      4288 5.00925E+01 2.31061E+01 0.00000E+00
 -1      4289 2.51537E+01 2.45423E+01 0.00000E+00
 -1      4290 2.61762E+01 2.07334E+01 0.00000E+00
 -1      4291 2.48390E+01 2.06059E+01 0.00000E+00
 -1      4292 2.47087E+01 2.17126E+01 0.00000E+00
 -1      4293 2.69262E+01 2.20324E+01 0.00000E+00
 -1      4294 2.98425E+01 2.44051E+01 0.00000E+00
 -1      4295 2.90925E+01 2.31061E+01 0.00000E+00
 -1      4296 3.43425E+01 2.44051E+01 0.00000E+00
 -1      4297 4.70925E+01 2.31061E+01 0.00000E+00
 -1      4298 2.44874E+01 2.34685E+01 0.00000E+00
 -1      4299 2.75925E+01 2.31061E+01 0.00000E+00
 -1      4300 4.85925E+01 2.31061E+01 0.00000E+00
 -1      4301 2.64837E+01 2.29462E+01 0.00000E+00
 -3
    3C                          2069                                     1
 -1       164    8    0    1
 -2         6         7        23      1117      1280      1134
 -1       165    8    0    1
 -2         7         8       164      1118      1281      1282
 -1       166    8    0    1
 -2         8         9       165      1119      1283      1284
 -1       167    8    0    1
 -2         8       165       164      1284      1285      1281
 -1       168    8    0    1
 -2         9        10       166      1120      1286      1287
 -1       169    8    0    1
 -2         9       166       165      1287      1288      1283
 -1       170    8    0    1
 -2        10        11       167      1121      1289      1290
 -1       171    8    0    1
 -2        10       167       166      1290      1291      1286
 -1       172    8    0    1
 -2        11        12       168      1122      1292      1293
 -1       173    8    0    1
 -2        11       168       167      1293      1294      1289
 -1       174    8    0    1
 -2        12        13       169      1123      1295      1296
 -1       175    8    0    1
 -2        12       169       168      1296      1297      1292
 -1       176    8    0    1
 -2        13        14       170      1124      1298      1299
 -1       177    8    0    1
 -2        13       170       169      1299      1300      1295
 -1       178    8    0    1
 -2        14        15       171      1125      1301      1302
 -1       179    8    0    1
 -2        14       171       170      1302      1303      1298
 -1       180    8    0    1
 -2        15        16       172      1126      1304      1305
 -1       181    8    0    1
 -2        15       172       171      1305      1306      1301
 -1       182    8    0    1
 -2        16        17       173      1127      1307      1308
 -1       183    8    0    1
 -2        16       173       172      1308      1309      1304
 -1       184    8    0    1
 -2        17        18       174      1128      1310      1311
 -1       185    8    0    1
 -2        17       174       173      1311      1312      1307
 -1       186    8    0    1
 -2        18        19       175      1129      1313      1314
 -1       187    8    0    1
 -2        18       175       174      1314      1315      1310
 -1       188    8    0    1
 -2        19        20       176      1130      1316      1317
 -1       189    8    0    1
 -2        19       176       175      1317      1318      1313
 -1       190    8    0    1
 -2        20        21       177      1131      1319      1320
 -1       191    8    0    1
 -2        20       177       176      1320      1321      1316
 -1       192    8    0    1
 -2        21        22       178      1132      1322      1323
 -1       193    8    0    1
 -2        21       178       177      1323      1324      1319
 -1       194    8    0    1
 -2        22         5       179      1133      1325      1326
 -1       195    8    0    1
 -2       178        22       179      1322      1326      1327
 -1       196    8    0    1
 -2         5        72       179      1184      1328      1325
 -1       197    8    0    1
 -2        24        23       180      1135      1329      1330
 -1       198    8    0    1
 -2        25        24       181      1136      1331      1332
 -1       199    8    0    1
 -2        24       180       181      1330      1333      1331
 -1       200    8    0    1
 -2        26        25       182      1137      1334      1335
 -1       201    8    0    1
 -2        25       181       182      1332      1336      1334
 -1       202    8    0    1
 -2        27        26       183      1138      1337      1338
 -1       203    8    0    1
 -2        26       182       183      1335      1339      1337
 -1       204    8    0    1
 -2        28        27       184      1139      1340      1341
 -1       205    8    0    1
 -2        27       183       184      1338      1342      1340
 -1       206    8    0    1
 -2        29        28       185      1140      1343      1344
 -1       207    8    0    1
 -2        28       184       185      1341      1345      1343
 -1       208    8    0    1
 -2        30        29       186      1141      1346      1347
 -1       209    8    0    1
 -2        29       185       186      1344      1348      1346
 -1       210    8    0    1
 -2        31        30       187      1142      1349      1350
 -1       211    8    0    1
 -2        30       186       187      1347      1351      1349
 -1       212    8    0    1
 -2        32        31       188      1143      1352      1353
 -1       213    8    0    1
 -2        31       187       188      1350      1354      1352
 -1       214    8    0    1
 -2        33        32       189      1144      1355      1356
 -1       215    8    0    1
 -2        32       188       189      1353      1357      1355
 -1       216    8    0    1
 -2        34        33       190      1145      1358      1359
 -1       217    8    0    1
 -2        33       189       190      1356      1360      1358
 -1       218    8    0    1
 -2        35        34       191      1146      1361      1362
 -1       219    8    0    1
 -2        34       190       191      1359      1363      1361
 -1       220    8    0    1
 -2        36        35       192      1147      1364      1365
 -1       221    8    0    1
 -2        35       191       192      1362      1366      1364
 -1       222    8    0    1
 -2        37        36       193      1148      1367      1368
 -1       223    8    0    1
 -2        36       192       193      1365      1369      1367
 -1       224    8    0    1
 -2        38        37       194      1149      1370      1371
 -1       225    8    0    1
 -2        37       193       194      1368      1372      1370
 -1       226    8    0    1
 -2        39        38       195      1150      1373      1374
 -1       227    8    0    1
 -2        38       194       195      1371      1375      1373
 -1       228    8    0    1
 -2        40        39       196      1151      1376      1377
 -1       229    8    0    1
 -2        39       195       196      1374      1378      1376
 -1       230    8    0    1
 -2        41        40       197      1152      1379      1380
 -1       231    8    0    1
 -2        40       196       197      1377      1381      1379
 -1       232    8    0    1
 -2        42        41       198      1153      1382      1383
 -1       233    8    0    1
 -2        41       197       198      1380      1384      1382
 -1       234    8    0    1
 -2        43        42       199      1154      1385      1386
 -1       235    8    0    1
 -2        42       198       199      1383      1387      1385
 -1       236    8    0    1
 -2        44        43       200      1155      1388      1389
 -1       237    8    0    1
 -2        43       199       200      1386      1390      1388
 -1       238    8    0    1
 -2        45        44       201      1156      1391      1392
 -1       239    8    0    1
 -2        44       200       201      1389      1393      1391
 -1       240    8    0    1
 -2        46        45       202      1157      1394      1395
 -1       241    8    0    1
 -2        45       201       202      1392      1396      1394
 -1       242    8    0    1
 -2        47        46       203      1158      1397      1398
 -1       243    8    0    1
 -2        46       202       203      1395      1399      1397
 -1       244    8    0    1
 -2        48        47       204      1159      1400      1401
 -1       245    8    0    1
 -2        47       203       204      1398      1402      1400
 -1       246    8    0    1
 -2        49        48       205      1160      1403      1404
 -1       247    8    0    1
 -2        48       204       205      1401      1405      1403
 -1       248    8    0    1
 -2        50        49       206      1161      1406      1407
 -1       249    8    0    1
 -2        49       205       206      1404      1408      1406
 -1       250    8    0    1
 -2        51        50       207      1162      1409      1410
 -1       251    8    0    1
 -2        50       206       207      1407      1411      1409
 -1       252    8    0    1
 -2        52        51       208      1163      1412      1413
 -1       253    8    0    1
 -2        51       207       208      1410      1414      1412
 -1       254    8    0    1
 -2        53        52       209      1164      1415      1416
 -1       255    8    0    1
 -2        52       208       209      1413      1417      1415
 -1       256    8    0    1
 -2        54        53       210      1165      1418      1419
 -1       257    8    0    1
 -2        53       209       210      1416      1420      1418
 -1       258    8    0    1
 -2        55        54       211      1166      1421      1422
 -1       259    8    0    1
 -2        54       210       211      1419      1423      1421
 -1       260    8    0    1
 -2        56        55       212      1167      1424      1425
 -1       261    8    0    1
 -2        55       211       212      1422      1426      1424
 -1       262    8    0    1
 -2        57        56       213      1168      1427      1428
 -1       263    8    0    1
 -2        56       212       213      1425      1429      1427
 -1       264    8    0    1
 -2        58        57       214      1169      1430      1431
 -1       265    8    0    1
 -2        57       213       214      1428      1432      1430
 -1       266    8    0    1
 -2        59        58       215      1170      1433      1434
 -1       267    8    0    1
 -2        58       214       215      1431      1435      1433
 -1       268    8    0    1
 -2        60        59       216      1171      1436      1437
 -1       269    8    0    1
 -2        59       215       216      1434      1438      1436
 -1       270    8    0    1
 -2        61        60       217      1172      1439      1440
 -1       271    8    0    1
 -2        60       216       217      1437      1441      1439
 -1       272    8    0    1
 -2        62        61       218      1173      1442      1443
 -1       273    8    0    1
 -2        61       217       218      1440      1444      1442
 -1       274    8    0    1
 -2        63        62       219      1174      1445      1446
 -1       275    8    0    1
 -2        62       218       219      1443      1447      1445
 -1       276    8    0    1
 -2        64        63       220      1175      1448      1449
 -1       277    8    0    1
 -2        63       219       220      1446      1450      1448
 -1       278    8    0    1
 -2        65        64       221      1176      1451      1452
 -1       279    8    0    1
 -2        64       220       221      1449      1453      1451
 -1       280    8    0    1
 -2        66        65       222      1177      1454      1455
 -1       281    8    0    1
 -2        65       221       222      1452      1456      1454
 -1       282    8    0    1
 -2        67        66       223      1178      1457      1458
 -1       283    8    0    1
 -2        66       222       223      1455      1459      1457
 -1       284    8    0    1
 -2        68        67       224      1179      1460      1461
 -1       285    8    0    1
 -2        67       223       224      1458      1462      1460
 -1       286    8    0    1
 -2        69        68       225      1180      1463      1464
 -1       287    8    0    1
 -2        68       224       225      1461      1465      1463
 -1       288    8    0    1
 -2        70        69       226      1181      1466      1467
 -1       289    8    0    1
 -2        69       225       226      1464      1468      1466
 -1       290    8    0    1
 -2        71        70       227      1182      1469      1470
 -1       291    8    0    1
 -2        70       226       227      1467      1471      1469
 -1       292    8    0    1
 -2         4        71       136      1183      1472      1250
 -1       293    8    0    1
 -2       136        71       227      1472      1470      1473
 -1       294    8    0    1
 -2        72        73       228      1185      1474      1475
 -1       295    8    0    1
 -2        72       228       179      1475      1476      1328
 -1       296    8    0    1
 -2        73        74       229      1186      1477      1478
 -1       297    8    0    1
 -2        73       229       228      1478      1479      1474
 -1       298    8    0    1
 -2        74        75       230      1187      1480      1481
 -1       299    8    0    1
 -2        74       230       229      1481      1482      1477
 -1       300    8    0    1
 -2        75        76       231      1188      1483      1484
 -1       301    8    0    1
 -2        75       231       230      1484      1485      1480
 -1       302    8    0    1
 -2        76        77       232      1189      1486      1487
 -1       303    8    0    1
 -2        76       232       231      1487      1488      1483
 -1       304    8    0    1
 -2        77        78       233      1190      1489      1490
 -1       305    8    0    1
 -2        77       233       232      1490      1491      1486
 -1       306    8    0    1
 -2        78        79       234      1191      1492      1493
 -1       307    8    0    1
 -2        78       234       233      1493      1494      1489
 -1       308    8    0    1
 -2        79        80       235      1192      1495      1496
 -1       309    8    0    1
 -2        79       235       234      1496      1497      1492
 -1       310    8    0    1
 -2        80        81       236      1193      1498      1499
 -1       311    8    0    1
 -2        80       236       235      1499      1500      1495
 -1       312    8    0    1
 -2        81        82       237      1194      1501      1502
 -1       313    8    0    1
 -2        81       237       236      1502      1503      1498
 -1       314    8    0    1
 -2        82        83       238      1195      1504      1505
 -1       315    8    0    1
 -2        82       238       237      1505      1506      1501
 -1       316    8    0    1
 -2        83        84       239      1196      1507      1508
 -1       317    8    0    1
 -2        83       239       238      1508      1509      1504
 -1       318    8    0    1
 -2        84        85       240      1197      1510      1511
 -1       319    8    0    1
 -2        84       240       239      1511      1512      1507
 -1       320    8    0    1
 -2        85        86       241      1198      1513      1514
 -1       321    8    0    1
 -2        85       241       240      1514      1515      1510
 -1       322    8    0    1
 -2        86        87       242      1199      1516      1517
 -1       323    8    0    1
 -2        86       242       241      1517      1518      1513
 -1       324    8    0    1
 -2        87        88       243      1200      1519      1520
 -1       325    8    0    1
 -2        87       243       242      1520      1521      1516
 -1       326    8    0    1
 -2        88        89       244      1201      1522      1523
 -1       327    8    0    1
 -2        88       244       243      1523      1524      1519
 -1       328    8    0    1
 -2        89        90       245      1202      1525      1526
 -1       329    8    0    1
 -2        89       245       244      1526      1527      1522
 -1       330    8    0    1
 -2        90        91       246      1203      1528      1529
 -1       331    8    0    1
 -2        90       246       245      1529      1530      1525
 -1       332    8    0    1
 -2        91        92       247      1204      1531      1532
 -1       333    8    0    1
 -2        91       247       246      1532      1533      1528
 -1       334    8    0    1
 -2        92        93       248      1205      1534      1535
 -1       335    8    0    1
 -2        92       248       247      1535      1536      1531
 -1       336    8    0    1
 -2        93        94       249      1206      1537      1538
 -1       337    8    0    1
 -2        93       249       248      1538      1539      1534
 -1       338    8    0    1
 -2        94        95       250      1207      1540      1541
 -1       339    8    0    1
 -2        94       250       249      1541      1542      1537
 -1       340    8    0    1
 -2        95        96       251      1208      1543      1544
 -1       341    8    0    1
 -2        95       251       250      1544      1545      1540
 -1       342    8    0    1
 -2        96        97       252      1209      1546      1547
 -1       343    8    0    1
 -2        96       252       251      1547      1548      1543
 -1       344    8    0    1
 -2        97        98       253      1210      1549      1550
 -1       345    8    0    1
 -2        97       253       252      1550      1551      1546
 -1       346    8    0    1
 -2        98        99       254      1211      1552      1553
 -1       347    8    0    1
 -2        98       254       253      1553      1554      1549
 -1       348    8    0    1
 -2        99       100       255      1212      1555      1556
 -1       349    8    0    1
 -2        99       255       254      1556      1557      1552
 -1       350    8    0    1
 -2       100       101       256      1213      1558      1559
 -1       351    8    0    1
 -2       100       256       255      1559      1560      1555
 -1       352    8    0    1
 -2       101       102       257      1214      1561      1562
 -1       353    8    0    1
 -2       101       257       256      1562      1563      1558
 -1       354    8    0    1
 -2       102       103       258      1215      1564      1565
 -1       355    8    0    1
 -2       102       258       257      1565      1566      1561
 -1       356    8    0    1
 -2       103       104       259      1216      1567      1568
 -1       357    8    0    1
 -2       103       259       258      1568      1569      1564
 -1       358    8    0    1
 -2       104       105       260      1217      1570      1571
 -1       359    8    0    1
 -2       104       260       259      1571      1572      1567
 -1       360    8    0    1
 -2       105       106       261      1218      1573      1574
 -1       361    8    0    1
 -2       105       261       260      1574      1575      1570
 -1       362    8    0    1
 -2       106       107       262      1219      1576      1577
 -1       363    8    0    1
 -2       106       262       261      1577      1578      1573
 -1       364    8    0    1
 -2       107       108       263      1220      1579      1580
 -1       365    8    0    1
 -2       107       263       262      1580      1581      1576
 -1       366    8    0    1
 -2       108       109       264      1221      1582      1583
 -1       367    8    0    1
 -2       108       264       263      1583      1584      1579
 -1       368    8    0    1
 -2       109       110       265      1222      1585      1586
 -1       369    8    0    1
 -2       109       265       264      1586      1587      1582
 -1       370    8    0    1
 -2       110       111       266      1223      1588      1589
 -1       371    8    0    1
 -2       110       266       265      1589      1590      1585
 -1       372    8    0    1
 -2       111       112       267      1224      1591      1592
 -1       373    8    0    1
 -2       111       267       266      1592      1593      1588
 -1       374    8    0    1
 -2       112       113       268      1225      1594      1595
 -1       375    8    0    1
 -2       112       268       267      1595      1596      1591
 -1       376    8    0    1
 -2       113       114       269      1226      1597      1598
 -1       377    8    0    1
 -2       113       269       268      1598      1599      1594
 -1       378    8    0    1
 -2       114       115       270      1227      1600      1601
 -1       379    8    0    1
 -2       114       270       269      1601      1602      1597
 -1       380    8    0    1
 -2       115       116       271      1228      1603      1604
 -1       381    8    0    1
 -2       115       271       270      1604      1605      1600
 -1       382    8    0    1
 -2       116       117       272      1229      1606      1607
 -1       383    8    0    1
 -2       116       272       271      1607      1608      1603
 -1       384    8    0    1
 -2       117       118       273      1230      1609      1610
 -1       385    8    0    1
 -2       117       273       272      1610      1611      1606
 -1       386    8    0    1
 -2       118       119       274      1231      1612      1613
 -1       387    8    0    1
 -2       118       274       273      1613      1614      1609
 -1       388    8    0    1
 -2       119       120       275      1232      1615      1616
 -1       389    8    0    1
 -2       119       275       274      1616      1617      1612
 -1       390    8    0    1
 -2       120         3       121      1233      1234      1618
 -1       391    8    0    1
 -2       121       122       276      1235      1619      1620
 -1       392    8    0    1
 -2       122       123       277      1236      1621      1622
 -1       393    8    0    1
 -2       122       277       276      1622      1623      1619
 -1       394    8    0    1
 -2       123       124       278      1237      1624      1625
 -1       395    8    0    1
 -2       123       278       277      1625      1626      1621
 -1       396    8    0    1
 -2       124       125       279      1238      1627      1628
 -1       397    8    0    1
 -2       124       279       278      1628      1629      1624
 -1       398    8    0    1
 -2       125       126       280      1239      1630      1631
 -1       399    8    0    1
 -2       125       280       279      1631      1632      1627
 -1       400    8    0    1
 -2       126       127       281      1240      1633      1634
 -1       401    8    0    1
 -2       126       281       280      1634      1635      1630
 -1       402    8    0    1
 -2       127       128       282      1241      1636      1637
 -1       403    8    0    1
 -2       127       282       281      1637      1638      1633
 -1       404    8    0    1
 -2       128       129       283      1242      1639      1640
 -1       405    8    0    1
 -2       128       283       282      1640      1641      1636
 -1       406    8    0    1
 -2       129       130       284      1243      1642      1643
 -1       407    8    0    1
 -2       129       284       283      1643      1644      1639
 -1       408    8    0    1
 -2       130       131       285      1244      1645      1646
 -1       409    8    0    1
 -2       130       285       284      1646      1647      1642
 -1       410    8    0    1
 -2       131       132       286      1245      1648      1649
 -1       411    8    0    1
 -2       131       286       285      1649      1650      1645
 -1       412    8    0    1
 -2       132       133       287      1246      1651      1652
 -1       413    8    0    1
 -2       132       287       286      1652      1653      1648
 -1       414    8    0    1
 -2       133       134       288      1247      1654      1655
 -1       415    8    0    1
 -2       133       288       287      1655      1656      1651
 -1       416    8    0    1
 -2       134       135       289      1248      1657      1658
 -1       417    8    0    1
 -2       134       289       288      1658      1659      1654
 -1       418    8    0    1
 -2       135       136       290      1249      1660      1661
 -1       419    8    0    1
 -2       289       135       290      1657      1661      1662
 -1       420    8    0    1
 -2       136       227       290      1473      1663      1660
 -1       421    8    0    1
 -2         2       137       291      1251      1664      1665
 -1       422    8    0    1
 -2       137       138       292      1252      1666      1667
 -1       423    8    0    1
 -2       138       139       293      1253      1668      1669
 -1       424    8    0    1
 -2       139       140       294      1254      1670      1671
 -1       425    8    0    1
 -2       140       141       295      1255      1672      1673
 -1       426    8    0    1
 -2       141       142       296      1256      1674      1675
 -1       427    8    0    1
 -2       142       143       297      1257      1676      1677
 -1       428    8    0    1
 -2       143       144       298      1258      1678      1679
 -1       429    8    0    1
 -2       144       145       299      1259      1680      1681
 -1       430    8    0    1
 -2       145       146       300      1260      1682      1683
 -1       431    8    0    1
 -2       146       147       301      1261      1684      1685
 -1       432    8    0    1
 -2       147       148       302      1262      1686      1687
 -1       433    8    0    1
 -2       148       149       303      1263      1688      1689
 -1       434    8    0    1
 -2       149       150       304      1264      1690      1691
 -1       435    8    0    1
 -2       150       151       305      1265      1692      1693
 -1       436    8    0    1
 -2       151       152       306      1266      1694      1695
 -1       437    8    0    1
 -2       152       153       307      1267      1696      1697
 -1       438    8    0    1
 -2       153       154       308      1268      1698      1699
 -1       439    8    0    1
 -2       154       155       309      1269      1700      1701
 -1       440    8    0    1
 -2       155       156       310      1270      1702      1703
 -1       441    8    0    1
 -2       156       157       311      1271      1704      1705
 -1       442    8    0    1
 -2       157       158       312      1272      1706      1707
 -1       443    8    0    1
 -2       158       159       313      1273      1708      1709
 -1       444    8    0    1
 -2       159         1       314      1274      1710      1711
 -1       445    8    0    1
 -2         1       160       315      1275      1712      1713
 -1       446    8    0    1
 -2       160       161       316      1276      1714      1715
 -1       447    8    0    1
 -2       161       162       317      1277      1716      1717
 -1       448    8    0    1
 -2       162       163       318      1278      1718      1719
 -1       449    8    0    1
 -2       163         2       319      1279      1720      1721
 -1       450    8    0    1
 -2       294       140       295      1670      1673      1722
 -1       451    8    0    1
 -2       293       139       294      1668      1671      1723
 -1       452    8    0    1
 -2       120       121       275      1618      1724      1615
 -1       453    8    0    1
 -2       121       276       275      1620      1725      1724
 -1       454    8    0    1
 -2       291       137       292      1664      1667      1726
 -1       455    8    0    1
 -2       292       138       293      1666      1669      1727
 -1       456    8    0    1
 -2         2       291       319      1665      1728      1720
 -1       457    8    0    1
 -2       141       296       295      1675      1729      1672
 -1       458    8    0    1
 -2       142       297       296      1677      1730      1674
 -1       459    8    0    1
 -2       143       298       297      1679      1731      1676
 -1       460    8    0    1
 -2       144       299       298      1681      1732      1678
 -1       461    8    0    1
 -2       145       300       299      1683      1733      1680
 -1       462    8    0    1
 -2       146       301       300      1685      1734      1682
 -1       463    8    0    1
 -2       147       302       301      1687      1735      1684
 -1       464    8    0    1
 -2       148       303       302      1689      1736      1686
 -1       465    8    0    1
 -2       149       304       303      1691      1737      1688
 -1       466    8    0    1
 -2       150       305       304      1693      1738      1690
 -1       467    8    0    1
 -2       151       306       305      1695      1739      1692
 -1       468    8    0    1
 -2       152       307       306      1697      1740      1694
 -1       469    8    0    1
 -2       153       308       307      1699      1741      1696
 -1       470    8    0    1
 -2       154       309       308      1701      1742      1698
 -1       471    8    0    1
 -2       155       310       309      1703      1743      1700
 -1       472    8    0    1
 -2       156       311       310      1705      1744      1702
 -1       473    8    0    1
 -2       157       312       311      1707      1745      1704
 -1       474    8    0    1
 -2       158       313       312      1709      1746      1706
 -1       475    8    0    1
 -2       159       314       313      1711      1747      1708
 -1       476    8    0    1
 -2         1       315       314      1713      1748      1710
 -1       477    8    0    1
 -2       160       316       315      1715      1749      1712
 -1       478    8    0    1
 -2       161       317       316      1717      1750      1714
 -1       479    8    0    1
 -2       162       318       317      1719      1751      1716
 -1       480    8    0    1
 -2       163       319       318      1721      1752      1718
 -1       481    8    0    1
 -2        23         7       164      1280      1282      1753
 -1       482    8    0    1
 -2       165       166       320      1288      1754      1755
 -1       483    8    0    1
 -2       164       165       321      1285      1756      1757
 -1       484    8    0    1
 -2       165       320       321      1755      1758      1756
 -1       485    8    0    1
 -2       167       168       322      1294      1759      1760
 -1       486    8    0    1
 -2       168       169       323      1297      1761      1762
 -1       487    8    0    1
 -2       168       323       322      1762      1763      1759
 -1       488    8    0    1
 -2       169       170       324      1300      1764      1765
 -1       489    8    0    1
 -2       169       324       323      1765      1766      1761
 -1       490    8    0    1
 -2       170       171       325      1303      1767      1768
 -1       491    8    0    1
 -2       170       325       324      1768      1769      1764
 -1       492    8    0    1
 -2       171       172       326      1306      1770      1771
 -1       493    8    0    1
 -2       171       326       325      1771      1772      1767
 -1       494    8    0    1
 -2       172       173       327      1309      1773      1774
 -1       495    8    0    1
 -2       172       327       326      1774      1775      1770
 -1       496    8    0    1
 -2       173       174       328      1312      1776      1777
 -1       497    8    0    1
 -2       173       328       327      1777      1778      1773
 -1       498    8    0    1
 -2       174       175       329      1315      1779      1780
 -1       499    8    0    1
 -2       174       329       328      1780      1781      1776
 -1       500    8    0    1
 -2       175       176       330      1318      1782      1783
 -1       501    8    0    1
 -2       175       330       329      1783      1784      1779
 -1       502    8    0    1
 -2       176       177       331      1321      1785      1786
 -1       503    8    0    1
 -2       176       331       330      1786      1787      1782
 -1       504    8    0    1
 -2       177       178       332      1324      1788      1789
 -1       505    8    0    1
 -2       177       332       331      1789      1790      1785
 -1       506    8    0    1
 -2       178       179       333      1327      1791      1792
 -1       507    8    0    1
 -2       332       178       333      1788      1792      1793
 -1       508    8    0    1
 -2       179       228       333      1476      1794      1791
 -1       509    8    0    1
 -2       180        23       164      1329      1753      1795
 -1       510    8    0    1
 -2       228       229       334      1479      1796      1797
 -1       511    8    0    1
 -2       228       334       333      1797      1798      1794
 -1       512    8    0    1
 -2       180       164       321      1795      1757      1799
 -1       513    8    0    1
 -2       182       181       335      1336      1800      1801
 -1       514    8    0    1
 -2       183       182       336      1339      1802      1803
 -1       515    8    0    1
 -2       182       335       336      1801      1804      1802
 -1       516    8    0    1
 -2       184       183       337      1342      1805      1806
 -1       517    8    0    1
 -2       183       336       337      1803      1807      1805
 -1       518    8    0    1
 -2       185       184       338      1345      1808      1809
 -1       519    8    0    1
 -2       184       337       338      1806      1810      1808
 -1       520    8    0    1
 -2       186       185       339      1348      1811      1812
 -1       521    8    0    1
 -2       185       338       339      1809      1813      1811
 -1       522    8    0    1
 -2       187       186       340      1351      1814      1815
 -1       523    8    0    1
 -2       186       339       340      1812      1816      1814
 -1       524    8    0    1
 -2       188       187       341      1354      1817      1818
 -1       525    8    0    1
 -2       187       340       341      1815      1819      1817
 -1       526    8    0    1
 -2       189       188       342      1357      1820      1821
 -1       527    8    0    1
 -2       188       341       342      1818      1822      1820
 -1       528    8    0    1
 -2       190       189       343      1360      1823      1824
 -1       529    8    0    1
 -2       189       342       343      1821      1825      1823
 -1       530    8    0    1
 -2       191       190       344      1363      1826      1827
 -1       531    8    0    1
 -2       190       343       344      1824      1828      1826
 -1       532    8    0    1
 -2       192       191       345      1366      1829      1830
 -1       533    8    0    1
 -2       191       344       345      1827      1831      1829
 -1       534    8    0    1
 -2       193       192       346      1369      1832      1833
 -1       535    8    0    1
 -2       192       345       346      1830      1834      1832
 -1       536    8    0    1
 -2       194       193       347      1372      1835      1836
 -1       537    8    0    1
 -2       193       346       347      1833      1837      1835
 -1       538    8    0    1
 -2       195       194       348      1375      1838      1839
 -1       539    8    0    1
 -2       194       347       348      1836      1840      1838
 -1       540    8    0    1
 -2       196       195       349      1378      1841      1842
 -1       541    8    0    1
 -2       195       348       349      1839      1843      1841
 -1       542    8    0    1
 -2       197       196       350      1381      1844      1845
 -1       543    8    0    1
 -2       196       349       350      1842      1846      1844
 -1       544    8    0    1
 -2       198       197       351      1384      1847      1848
 -1       545    8    0    1
 -2       197       350       351      1845      1849      1847
 -1       546    8    0    1
 -2       199       198       352      1387      1850      1851
 -1       547    8    0    1
 -2       198       351       352      1848      1852      1850
 -1       548    8    0    1
 -2       200       199       353      1390      1853      1854
 -1       549    8    0    1
 -2       199       352       353      1851      1855      1853
 -1       550    8    0    1
 -2       201       200       354      1393      1856      1857
 -1       551    8    0    1
 -2       200       353       354      1854      1858      1856
 -1       552    8    0    1
 -2       202       201       355      1396      1859      1860
 -1       553    8    0    1
 -2       201       354       355      1857      1861      1859
 -1       554    8    0    1
 -2       203       202       356      1399      1862      1863
 -1       555    8    0    1
 -2       202       355       356      1860      1864      1862
 -1       556    8    0    1
 -2       204       203       357      1402      1865      1866
 -1       557    8    0    1
 -2       203       356       357      1863      1867      1865
 -1       558    8    0    1
 -2       205       204       358      1405      1868      1869
 -1       559    8    0    1
 -2       204       357       358      1866      1870      1868
 -1       560    8    0    1
 -2       206       205       359      1408      1871      1872
 -1       561    8    0    1
 -2       205       358       359      1869      1873      1871
 -1       562    8    0    1
 -2       207       206       360      1411      1874      1875
 -1       563    8    0    1
 -2       206       359       360      1872      1876      1874
 -1       564    8    0    1
 -2       208       207       361      1414      1877      1878
 -1       565    8    0    1
 -2       207       360       361      1875      1879      1877
 -1       566    8    0    1
 -2       209       208       362      1417      1880      1881
 -1       567    8    0    1
 -2       208       361       362      1878      1882      1880
 -1       568    8    0    1
 -2       210       209       363      1420      1883      1884
 -1       569    8    0    1
 -2       209       362       363      1881      1885      1883
 -1       570    8    0    1
 -2       211       210       364      1423      1886      1887
 -1       571    8    0    1
 -2       210       363       364      1884      1888      1886
 -1       572    8    0    1
 -2       212       211       365      1426      1889      1890
 -1       573    8    0    1
 -2       211       364       365      1887      1891      1889
 -1       574    8    0    1
 -2       213       212       366      1429      1892      1893
 -1       575    8    0    1
 -2       212       365       366      1890      1894      1892
 -1       576    8    0    1
 -2       214       213       367      1432      1895      1896
 -1       577    8    0    1
 -2       213       366       367      1893      1897      1895
 -1       578    8    0    1
 -2       215       214       368      1435      1898      1899
 -1       579    8    0    1
 -2       214       367       368      1896      1900      1898
 -1       580    8    0    1
 -2       216       215       369      1438      1901      1902
 -1       581    8    0    1
 -2       215       368       369      1899      1903      1901
 -1       582    8    0    1
 -2       217       216       370      1441      1904      1905
 -1       583    8    0    1
 -2       216       369       370      1902      1906      1904
 -1       584    8    0    1
 -2       218       217       371      1444      1907      1908
 -1       585    8    0    1
 -2       217       370       371      1905      1909      1907
 -1       586    8    0    1
 -2       219       218       372      1447      1910      1911
 -1       587    8    0    1
 -2       218       371       372      1908      1912      1910
 -1       588    8    0    1
 -2       220       219       373      1450      1913      1914
 -1       589    8    0    1
 -2       219       372       373      1911      1915      1913
 -1       590    8    0    1
 -2       221       220       374      1453      1916      1917
 -1       591    8    0    1
 -2       220       373       374      1914      1918      1916
 -1       592    8    0    1
 -2       222       221       375      1456      1919      1920
 -1       593    8    0    1
 -2       221       374       375      1917      1921      1919
 -1       594    8    0    1
 -2       223       222       376      1459      1922      1923
 -1       595    8    0    1
 -2       222       375       376      1920      1924      1922
 -1       596    8    0    1
 -2       224       223       377      1462      1925      1926
 -1       597    8    0    1
 -2       223       376       377      1923      1927      1925
 -1       598    8    0    1
 -2       225       224       378      1465      1928      1929
 -1       599    8    0    1
 -2       224       377       378      1926      1930      1928
 -1       600    8    0    1
 -2       226       225       379      1468      1931      1932
 -1       601    8    0    1
 -2       225       378       379      1929      1933      1931
 -1       602    8    0    1
 -2       227       226       380      1471      1934      1935
 -1       603    8    0    1
 -2       290       227       380      1663      1935      1936
 -1       604    8    0    1
 -2       226       379       380      1932      1937      1934
 -1       605    8    0    1
 -2       229       230       381      1482      1938      1939
 -1       606    8    0    1
 -2       229       381       334      1939      1940      1796
 -1       607    8    0    1
 -2       230       231       382      1485      1941      1942
 -1       608    8    0    1
 -2       230       382       381      1942      1943      1938
 -1       609    8    0    1
 -2       231       232       383      1488      1944      1945
 -1       610    8    0    1
 -2       231       383       382      1945      1946      1941
 -1       611    8    0    1
 -2       232       233       384      1491      1947      1948
 -1       612    8    0    1
 -2       232       384       383      1948      1949      1944
 -1       613    8    0    1
 -2       233       234       385      1494      1950      1951
 -1       614    8    0    1
 -2       233       385       384      1951      1952      1947
 -1       615    8    0    1
 -2       234       235       386      1497      1953      1954
 -1       616    8    0    1
 -2       234       386       385      1954      1955      1950
 -1       617    8    0    1
 -2       235       236       387      1500      1956      1957
 -1       618    8    0    1
 -2       235       387       386      1957      1958      1953
 -1       619    8    0    1
 -2       236       237       388      1503      1959      1960
 -1       620    8    0    1
 -2       236       388       387      1960      1961      1956
 -1       621    8    0    1
 -2       237       238       389      1506      1962      1963
 -1       622    8    0    1
 -2       237       389       388      1963      1964      1959
 -1       623    8    0    1
 -2       238       239       390      1509      1965      1966
 -1       624    8    0    1
 -2       238       390       389      1966      1967      1962
 -1       625    8    0    1
 -2       239       240       391      1512      1968      1969
 -1       626    8    0    1
 -2       239       391       390      1969      1970      1965
 -1       627    8    0    1
 -2       240       241       392      1515      1971      1972
 -1       628    8    0    1
 -2       240       392       391      1972      1973      1968
 -1       629    8    0    1
 -2       241       242       393      1518      1974      1975
 -1       630    8    0    1
 -2       241       393       392      1975      1976      1971
 -1       631    8    0    1
 -2       242       243       394      1521      1977      1978
 -1       632    8    0    1
 -2       242       394       393      1978      1979      1974
 -1       633    8    0    1
 -2       243       244       395      1524      1980      1981
 -1       634    8    0    1
 -2       243       395       394      1981      1982      1977
 -1       635    8    0    1
 -2       244       245       396      1527      1983      1984
 -1       636    8    0    1
 -2       244       396       395      1984      1985      1980
 -1       637    8    0    1
 -2       245       246       397      1530      1986      1987
 -1       638    8    0    1
 -2       245       397       396      1987      1988      1983
 -1       639    8    0    1
 -2       246       247       398      1533      1989      1990
 -1       640    8    0    1
 -2       246       398       397      1990      1991      1986
 -1       641    8    0    1
 -2       247       248       399      1536      1992      1993
 -1       642    8    0    1
 -2       247       399       398      1993      1994      1989
 -1       643    8    0    1
 -2       248       249       400      1539      1995      1996
 -1       644    8    0    1
 -2       248       400       399      1996      1997      1992
 -1       645    8    0    1
 -2       249       250       401      1542      1998      1999
 -1       646    8    0    1
 -2       249       401       400      1999      2000      1995
 -1       647    8    0    1
 -2       250       251       402      1545      2001      2002
 -1       648    8    0    1
 -2       250       402       401      2002      2003      1998
 -1       649    8    0    1
 -2       251       252       403      1548      2004      2005
 -1       650    8    0    1
 -2       251       403       402      2005      2006      2001
 -1       651    8    0    1
 -2       252       253       404      1551      2007      2008
 -1       652    8    0    1
 -2       252       404       403      2008      2009      2004
 -1       653    8    0    1
 -2       253       254       405      1554      2010      2011
 -1       654    8    0    1
 -2       253       405       404      2011      2012      2007
 -1       655    8    0    1
 -2       254       255       406      1557      2013      2014
 -1       656    8    0    1
 -2       254       406       405      2014      2015      2010
 -1       657    8    0    1
 -2       255       256       407      1560      2016      2017
 -1       658    8    0    1
 -2       255       407       406      2017      2018      2013
 -1       659    8    0    1
 -2       256       257       408      1563      2019      2020
 -1       660    8    0    1
 -2       256       408       407      2020      2021      2016
 -1       661    8    0    1
 -2       257       258       409      1566      2022      2023
 -1       662    8    0    1
 -2       257       409       408      2023      2024      2019
 -1       663    8    0    1
 -2       258       259       410      1569      2025      2026
 -1       664    8    0    1
 -2       258       410       409      2026      2027      2022
 -1       665    8    0    1
 -2       259       260       411      1572      2028      2029
 -1       666    8    0    1
 -2       259       411       410      2029      2030      2025
 -1       667    8    0    1
 -2       260       261       412      1575      2031      2032
 -1       668    8    0    1
 -2       260       412       411      2032      2033      2028
 -1       669    8    0    1
 -2       261       262       413      1578      2034      2035
 -1       670    8    0    1
 -2       261       413       412      2035      2036      2031
 -1       671    8    0    1
 -2       262       263       414      1581      2037      2038
 -1       672    8    0    1
 -2       262       414       413      2038      2039      2034
 -1       673    8    0    1
 -2       263       264       415      1584      2040      2041
 -1       674    8    0    1
 -2       263       415       414      2041      2042      2037
 -1       675    8    0    1
 -2       264       265       416      1587      2043      2044
 -1       676    8    0    1
 -2       264       416       415      2044      2045      2040
 -1       677    8    0    1
 -2       265       266       417      1590      2046      2047
 -1       678    8    0    1
 -2       265       417       416      2047      2048      2043
 -1       679    8    0    1
 -2       266       267       418      1593      2049      2050
 -1       680    8    0    1
 -2       266       418       417      2050      2051      2046
 -1       681    8    0    1
 -2       267       268       419      1596      2052      2053
 -1       682    8    0    1
 -2       267       419       418      2053      2054      2049
 -1       683    8    0    1
 -2       268       269       420      1599      2055      2056
 -1       684    8    0    1
 -2       268       420       419      2056      2057      2052
 -1       685    8    0    1
 -2       269       270       421      1602      2058      2059
 -1       686    8    0    1
 -2       269       421       420      2059      2060      2055
 -1       687    8    0    1
 -2       270       271       422      1605      2061      2062
 -1       688    8    0    1
 -2       270       422       421      2062      2063      2058
 -1       689    8    0    1
 -2       271       272       423      1608      2064      2065
 -1       690    8    0    1
 -2       271       423       422      2065      2066      2061
 -1       691    8    0    1
 -2       272       273       424      1611      2067      2068
 -1       692    8    0    1
 -2       272       424       423      2068      2069      2064
 -1       693    8    0    1
 -2       273       274       425      1614      2070      2071
 -1       694    8    0    1
 -2       273       425       424      2071      2072      2067
 -1       695    8    0    1
 -2       274       275       426      1617      2073      2074
 -1       696    8    0    1
 -2       425       274       426      2070      2074      2075
 -1       697    8    0    1
 -2       275       276       426      1725      2076      2073
 -1       698    8    0    1
 -2       278       279       427      1629      2077      2078
 -1       699    8    0    1
 -2       277       278       428      1626      2079      2080
 -1       700    8    0    1
 -2       278       427       428      2078      2081      2079
 -1       701    8    0    1
 -2       276       277       429      1623      2082      2083
 -1       702    8    0    1
 -2       426       276       429      2076      2083      2084
 -1       703    8    0    1
 -2       277       428       429      2080      2085      2082
 -1       704    8    0    1
 -2       279       280       430      1632      2086      2087
 -1       705    8    0    1
 -2       279       430       427      2087      2088      2077
 -1       706    8    0    1
 -2       280       281       431      1635      2089      2090
 -1       707    8    0    1
 -2       280       431       430      2090      2091      2086
 -1       708    8    0    1
 -2       281       282       432      1638      2092      2093
 -1       709    8    0    1
 -2       281       432       431      2093      2094      2089
 -1       710    8    0    1
 -2       282       283       433      1641      2095      2096
 -1       711    8    0    1
 -2       282       433       432      2096      2097      2092
 -1       712    8    0    1
 -2       283       284       434      1644      2098      2099
 -1       713    8    0    1
 -2       283       434       433      2099      2100      2095
 -1       714    8    0    1
 -2       284       285       435      1647      2101      2102
 -1       715    8    0    1
 -2       284       435       434      2102      2103      2098
 -1       716    8    0    1
 -2       285       286       436      1650      2104      2105
 -1       717    8    0    1
 -2       285       436       435      2105      2106      2101
 -1       718    8    0    1
 -2       286       287       437      1653      2107      2108
 -1       719    8    0    1
 -2       286       437       436      2108      2109      2104
 -1       720    8    0    1
 -2       287       288       438      1656      2110      2111
 -1       721    8    0    1
 -2       287       438       437      2111      2112      2107
 -1       722    8    0    1
 -2       288       289       439      1659      2113      2114
 -1       723    8    0    1
 -2       288       439       438      2114      2115      2110
 -1       724    8    0    1
 -2       292       293       440      1727      2116      2117
 -1       725    8    0    1
 -2       319       291       441      1728      2118      2119
 -1       726    8    0    1
 -2       291       292       442      1726      2120      2121
 -1       727    8    0    1
 -2       292       440       442      2117      2122      2120
 -1       728    8    0    1
 -2       293       294       443      1723      2123      2124
 -1       729    8    0    1
 -2       294       295       444      1722      2125      2126
 -1       730    8    0    1
 -2       294       444       443      2126      2127      2123
 -1       731    8    0    1
 -2       166       167       445      1291      2128      2129
 -1       732    8    0    1
 -2       320       166       445      1754      2129      2130
 -1       733    8    0    1
 -2       167       322       445      1760      2131      2128
 -1       734    8    0    1
 -2       296       297       446      1730      2132      2133
 -1       735    8    0    1
 -2       297       298       447      1731      2134      2135
 -1       736    8    0    1
 -2       298       299       448      1732      2136      2137
 -1       737    8    0    1
 -2       299       300       449      1733      2138      2139
 -1       738    8    0    1
 -2       299       449       448      2139      2140      2136
 -1       739    8    0    1
 -2       300       301       450      1734      2141      2142
 -1       740    8    0    1
 -2       301       302       451      1735      2143      2144
 -1       741    8    0    1
 -2       302       303       452      1736      2145      2146
 -1       742    8    0    1
 -2       302       452       451      2146      2147      2143
 -1       743    8    0    1
 -2       303       304       453      1737      2148      2149
 -1       744    8    0    1
 -2       304       305       454      1738      2150      2151
 -1       745    8    0    1
 -2       304       454       453      2151      2152      2148
 -1       746    8    0    1
 -2       305       306       455      1739      2153      2154
 -1       747    8    0    1
 -2       306       307       456      1740      2155      2156
 -1       748    8    0    1
 -2       306       456       455      2156      2157      2153
 -1       749    8    0    1
 -2       307       308       457      1741      2158      2159
 -1       750    8    0    1
 -2       308       309       458      1742      2160      2161
 -1       751    8    0    1
 -2       308       458       457      2161      2162      2158
 -1       752    8    0    1
 -2       309       310       459      1743      2163      2164
 -1       753    8    0    1
 -2       310       311       460      1744      2165      2166
 -1       754    8    0    1
 -2       311       312       461      1745      2167      2168
 -1       755    8    0    1
 -2       312       313       462      1746      2169      2170
 -1       756    8    0    1
 -2       313       314       463      1747      2171      2172
 -1       757    8    0    1
 -2       314       315       464      1748      2173      2174
 -1       758    8    0    1
 -2       315       316       465      1749      2175      2176
 -1       759    8    0    1
 -2       316       317       466      1750      2177      2178
 -1       760    8    0    1
 -2       317       318       467      1751      2179      2180
 -1       761    8    0    1
 -2       318       319       468      1752      2181      2182
 -1       762    8    0    1
 -2       295       296       469      1729      2183      2184
 -1       763    8    0    1
 -2       296       446       469      2133      2185      2183
 -1       764    8    0    1
 -2       444       295       469      2125      2184      2186
 -1       765    8    0    1
 -2       180       321       181      1799      2187      1333
 -1       766    8    0    1
 -2       300       450       449      2142      2188      2138
 -1       767    8    0    1
 -2       335       181       321      1800      2187      2189
 -1       768    8    0    1
 -2       441       291       442      2118      2121      2190
 -1       769    8    0    1
 -2       293       443       440      2124      2191      2116
 -1       770    8    0    1
 -2       439       289       290      2113      1662      2192
 -1       771    8    0    1
 -2       319       441       468      2119      2193      2181
 -1       772    8    0    1
 -2       467       318       468      2179      2182      2194
 -1       773    8    0    1
 -2       466       317       467      2177      2180      2195
 -1       774    8    0    1
 -2       465       316       466      2175      2178      2196
 -1       775    8    0    1
 -2       464       315       465      2173      2176      2197
 -1       776    8    0    1
 -2       463       314       464      2171      2174      2198
 -1       777    8    0    1
 -2       462       313       463      2169      2172      2199
 -1       778    8    0    1
 -2       461       312       462      2167      2170      2200
 -1       779    8    0    1
 -2       460       311       461      2165      2168      2201
 -1       780    8    0    1
 -2       458       309       459      2160      2164      2202
 -1       781    8    0    1
 -2       456       307       457      2155      2159      2203
 -1       782    8    0    1
 -2       454       305       470      2150      2204      2205
 -1       783    8    0    1
 -2       305       455       470      2154      2206      2204
 -1       784    8    0    1
 -2       452       303       471      2145      2207      2208
 -1       785    8    0    1
 -2       303       453       471      2149      2209      2207
 -1       786    8    0    1
 -2       446       297       447      2132      2135      2210
 -1       787    8    0    1
 -2       447       298       448      2134      2137      2211
 -1       788    8    0    1
 -2       450       301       451      2141      2144      2212
 -1       789    8    0    1
 -2       459       310       460      2163      2166      2213
 -1       790    8    0    1
 -2       334       381       472      1940      2214      2215
 -1       791    8    0    1
 -2       323       324       473      1766      2216      2217
 -1       792    8    0    1
 -2       322       323       474      1763      2218      2219
 -1       793    8    0    1
 -2       323       473       474      2217      2220      2218
 -1       794    8    0    1
 -2       325       326       475      1772      2221      2222
 -1       795    8    0    1
 -2       326       327       476      1775      2223      2224
 -1       796    8    0    1
 -2       326       476       475      2224      2225      2221
 -1       797    8    0    1
 -2       327       328       477      1778      2226      2227
 -1       798    8    0    1
 -2       327       477       476      2227      2228      2223
 -1       799    8    0    1
 -2       328       329       478      1781      2229      2230
 -1       800    8    0    1
 -2       328       478       477      2230      2231      2226
 -1       801    8    0    1
 -2       329       330       479      1784      2232      2233
 -1       802    8    0    1
 -2       329       479       478      2233      2234      2229
 -1       803    8    0    1
 -2       330       331       480      1787      2235      2236
 -1       804    8    0    1
 -2       330       480       479      2236      2237      2232
 -1       805    8    0    1
 -2       381       382       481      1943      2238      2239
 -1       806    8    0    1
 -2       381       481       472      2239      2240      2214
 -1       807    8    0    1
 -2       336       335       482      1804      2241      2242
 -1       808    8    0    1
 -2       449       450       483      2188      2243      2244
 -1       809    8    0    1
 -2       444       469       484      2186      2245      2246
 -1       810    8    0    1
 -2       337       336       485      1807      2247      2248
 -1       811    8    0    1
 -2       336       482       485      2242      2249      2247
 -1       812    8    0    1
 -2       338       337       486      1810      2250      2251
 -1       813    8    0    1
 -2       337       485       486      2248      2252      2250
 -1       814    8    0    1
 -2       339       338       487      1813      2253      2254
 -1       815    8    0    1
 -2       338       486       487      2251      2255      2253
 -1       816    8    0    1
 -2       340       339       488      1816      2256      2257
 -1       817    8    0    1
 -2       339       487       488      2254      2258      2256
 -1       818    8    0    1
 -2       341       340       489      1819      2259      2260
 -1       819    8    0    1
 -2       340       488       489      2257      2261      2259
 -1       820    8    0    1
 -2       342       341       490      1822      2262      2263
 -1       821    8    0    1
 -2       341       489       490      2260      2264      2262
 -1       822    8    0    1
 -2       343       342       491      1825      2265      2266
 -1       823    8    0    1
 -2       342       490       491      2263      2267      2265
 -1       824    8    0    1
 -2       344       343       492      1828      2268      2269
 -1       825    8    0    1
 -2       343       491       492      2266      2270      2268
 -1       826    8    0    1
 -2       345       344       493      1831      2271      2272
 -1       827    8    0    1
 -2       344       492       493      2269      2273      2271
 -1       828    8    0    1
 -2       346       345       494      1834      2274      2275
 -1       829    8    0    1
 -2       345       493       494      2272      2276      2274
 -1       830    8    0    1
 -2       347       346       495      1837      2277      2278
 -1       831    8    0    1
 -2       346       494       495      2275      2279      2277
 -1       832    8    0    1
 -2       348       347       496      1840      2280      2281
 -1       833    8    0    1
 -2       347       495       496      2278      2282      2280
 -1       834    8    0    1
 -2       349       348       497      1843      2283      2284
 -1       835    8    0    1
 -2       348       496       497      2281      2285      2283
 -1       836    8    0    1
 -2       350       349       498      1846      2286      2287
 -1       837    8    0    1
 -2       349       497       498      2284      2288      2286
 -1       838    8    0    1
 -2       351       350       499      1849      2289      2290
 -1       839    8    0    1
 -2       350       498       499      2287      2291      2289
 -1       840    8    0    1
 -2       352       351       500      1852      2292      2293
 -1       841    8    0    1
 -2       351       499       500      2290      2294      2292
 -1       842    8    0    1
 -2       353       352       501      1855      2295      2296
 -1       843    8    0    1
 -2       352       500       501      2293      2297      2295
 -1       844    8    0    1
 -2       354       353       502      1858      2298      2299
 -1       845    8    0    1
 -2       353       501       502      2296      2300      2298
 -1       846    8    0    1
 -2       355       354       503      1861      2301      2302
 -1       847    8    0    1
 -2       354       502       503      2299      2303      2301
 -1       848    8    0    1
 -2       356       355       504      1864      2304      2305
 -1       849    8    0    1
 -2       355       503       504      2302      2306      2304
 -1       850    8    0    1
 -2       357       356       505      1867      2307      2308
 -1       851    8    0    1
 -2       356       504       505      2305      2309      2307
 -1       852    8    0    1
 -2       358       357       506      1870      2310      2311
 -1       853    8    0    1
 -2       357       505       506      2308      2312      2310
 -1       854    8    0    1
 -2       359       358       507      1873      2313      2314
 -1       855    8    0    1
 -2       358       506       507      2311      2315      2313
 -1       856    8    0    1
 -2       360       359       508      1876      2316      2317
 -1       857    8    0    1
 -2       359       507       508      2314      2318      2316
 -1       858    8    0    1
 -2       361       360       509      1879      2319      2320
 -1       859    8    0    1
 -2       360       508       509      2317      2321      2319
 -1       860    8    0    1
 -2       362       361       510      1882      2322      2323
 -1       861    8    0    1
 -2       361       509       510      2320      2324      2322
 -1       862    8    0    1
 -2       363       362       511      1885      2325      2326
 -1       863    8    0    1
 -2       362       510       511      2323      2327      2325
 -1       864    8    0    1
 -2       364       363       512      1888      2328      2329
 -1       865    8    0    1
 -2       363       511       512      2326      2330      2328
 -1       866    8    0    1
 -2       365       364       513      1891      2331      2332
 -1       867    8    0    1
 -2       364       512       513      2329      2333      2331
 -1       868    8    0    1
 -2       366       365       514      1894      2334      2335
 -1       869    8    0    1
 -2       365       513       514      2332      2336      2334
 -1       870    8    0    1
 -2       367       366       515      1897      2337      2338
 -1       871    8    0    1
 -2       366       514       515      2335      2339      2337
 -1       872    8    0    1
 -2       368       367       516      1900      2340      2341
 -1       873    8    0    1
 -2       367       515       516      2338      2342      2340
 -1       874    8    0    1
 -2       369       368       517      1903      2343      2344
 -1       875    8    0    1
 -2       368       516       517      2341      2345      2343
 -1       876    8    0    1
 -2       370       369       518      1906      2346      2347
 -1       877    8    0    1
 -2       369       517       518      2344      2348      2346
 -1       878    8    0    1
 -2       371       370       519      1909      2349      2350
 -1       879    8    0    1
 -2       370       518       519      2347      2351      2349
 -1       880    8    0    1
 -2       372       371       520      1912      2352      2353
 -1       881    8    0    1
 -2       371       519       520      2350      2354      2352
 -1       882    8    0    1
 -2       373       372       521      1915      2355      2356
 -1       883    8    0    1
 -2       372       520       521      2353      2357      2355
 -1       884    8    0    1
 -2       374       373       522      1918      2358      2359
 -1       885    8    0    1
 -2       373       521       522      2356      2360      2358
 -1       886    8    0    1
 -2       375       374       523      1921      2361      2362
 -1       887    8    0    1
 -2       374       522       523      2359      2363      2361
 -1       888    8    0    1
 -2       376       375       524      1924      2364      2365
 -1       889    8    0    1
 -2       375       523       524      2362      2366      2364
 -1       890    8    0    1
 -2       377       376       525      1927      2367      2368
 -1       891    8    0    1
 -2       376       524       525      2365      2369      2367
 -1       892    8    0    1
 -2       378       377       526      1930      2370      2371
 -1       893    8    0    1
 -2       377       525       526      2368      2372      2370
 -1       894    8    0    1
 -2       379       378       527      1933      2373      2374
 -1       895    8    0    1
 -2       378       526       527      2371      2375      2373
 -1       896    8    0    1
 -2       442       440       528      2122      2376      2377
 -1       897    8    0    1
 -2       383       384       529      1949      2378      2379
 -1       898    8    0    1
 -2       384       385       530      1952      2380      2381
 -1       899    8    0    1
 -2       384       530       529      2381      2382      2378
 -1       900    8    0    1
 -2       385       386       531      1955      2383      2384
 -1       901    8    0    1
 -2       385       531       530      2384      2385      2380
 -1       902    8    0    1
 -2       386       387       532      1958      2386      2387
 -1       903    8    0    1
 -2       386       532       531      2387      2388      2383
 -1       904    8    0    1
 -2       387       388       533      1961      2389      2390
 -1       905    8    0    1
 -2       387       533       532      2390      2391      2386
 -1       906    8    0    1
 -2       388       389       534      1964      2392      2393
 -1       907    8    0    1
 -2       388       534       533      2393      2394      2389
 -1       908    8    0    1
 -2       389       390       535      1967      2395      2396
 -1       909    8    0    1
 -2       389       535       534      2396      2397      2392
 -1       910    8    0    1
 -2       390       391       536      1970      2398      2399
 -1       911    8    0    1
 -2       390       536       535      2399      2400      2395
 -1       912    8    0    1
 -2       391       392       537      1973      2401      2402
 -1       913    8    0    1
 -2       391       537       536      2402      2403      2398
 -1       914    8    0    1
 -2       392       393       538      1976      2404      2405
 -1       915    8    0    1
 -2       392       538       537      2405      2406      2401
 -1       916    8    0    1
 -2       393       394       539      1979      2407      2408
 -1       917    8    0    1
 -2       393       539       538      2408      2409      2404
 -1       918    8    0    1
 -2       394       395       540      1982      2410      2411
 -1       919    8    0    1
 -2       394       540       539      2411      2412      2407
 -1       920    8    0    1
 -2       395       396       541      1985      2413      2414
 -1       921    8    0    1
 -2       395       541       540      2414      2415      2410
 -1       922    8    0    1
 -2       396       397       542      1988      2416      2417
 -1       923    8    0    1
 -2       396       542       541      2417      2418      2413
 -1       924    8    0    1
 -2       397       398       543      1991      2419      2420
 -1       925    8    0    1
 -2       397       543       542      2420      2421      2416
 -1       926    8    0    1
 -2       398       399       544      1994      2422      2423
 -1       927    8    0    1
 -2       398       544       543      2423      2424      2419
 -1       928    8    0    1
 -2       399       400       545      1997      2425      2426
 -1       929    8    0    1
 -2       399       545       544      2426      2427      2422
 -1       930    8    0    1
 -2       400       401       546      2000      2428      2429
 -1       931    8    0    1
 -2       400       546       545      2429      2430      2425
 -1       932    8    0    1
 -2       401       402       547      2003      2431      2432
 -1       933    8    0    1
 -2       401       547       546      2432      2433      2428
 -1       934    8    0    1
 -2       402       403       548      2006      2434      2435
 -1       935    8    0    1
 -2       402       548       547      2435      2436      2431
 -1       936    8    0    1
 -2       403       404       549      2009      2437      2438
 -1       937    8    0    1
 -2       403       549       548      2438      2439      2434
 -1       938    8    0    1
 -2       404       405       550      2012      2440      2441
 -1       939    8    0    1
 -2       404       550       549      2441      2442      2437
 -1       940    8    0    1
 -2       405       406       551      2015      2443      2444
 -1       941    8    0    1
 -2       405       551       550      2444      2445      2440
 -1       942    8    0    1
 -2       406       407       552      2018      2446      2447
 -1       943    8    0    1
 -2       406       552       551      2447      2448      2443
 -1       944    8    0    1
 -2       407       408       553      2021      2449      2450
 -1       945    8    0    1
 -2       407       553       552      2450      2451      2446
 -1       946    8    0    1
 -2       408       409       554      2024      2452      2453
 -1       947    8    0    1
 -2       408       554       553      2453      2454      2449
 -1       948    8    0    1
 -2       409       410       555      2027      2455      2456
 -1       949    8    0    1
 -2       409       555       554      2456      2457      2452
 -1       950    8    0    1
 -2       410       411       556      2030      2458      2459
 -1       951    8    0    1
 -2       410       556       555      2459      2460      2455
 -1       952    8    0    1
 -2       411       412       557      2033      2461      2462
 -1       953    8    0    1
 -2       411       557       556      2462      2463      2458
 -1       954    8    0    1
 -2       412       413       558      2036      2464      2465
 -1       955    8    0    1
 -2       412       558       557      2465      2466      2461
 -1       956    8    0    1
 -2       413       414       559      2039      2467      2468
 -1       957    8    0    1
 -2       413       559       558      2468      2469      2464
 -1       958    8    0    1
 -2       414       415       560      2042      2470      2471
 -1       959    8    0    1
 -2       414       560       559      2471      2472      2467
 -1       960    8    0    1
 -2       415       416       561      2045      2473      2474
 -1       961    8    0    1
 -2       415       561       560      2474      2475      2470
 -1       962    8    0    1
 -2       416       417       562      2048      2476      2477
 -1       963    8    0    1
 -2       416       562       561      2477      2478      2473
 -1       964    8    0    1
 -2       417       418       563      2051      2479      2480
 -1       965    8    0    1
 -2       417       563       562      2480      2481      2476
 -1       966    8    0    1
 -2       418       419       564      2054      2482      2483
 -1       967    8    0    1
 -2       418       564       563      2483      2484      2479
 -1       968    8    0    1
 -2       419       420       565      2057      2485      2486
 -1       969    8    0    1
 -2       419       565       564      2486      2487      2482
 -1       970    8    0    1
 -2       420       421       566      2060      2488      2489
 -1       971    8    0    1
 -2       420       566       565      2489      2490      2485
 -1       972    8    0    1
 -2       421       422       567      2063      2491      2492
 -1       973    8    0    1
 -2       421       567       566      2492      2493      2488
 -1       974    8    0    1
 -2       422       423       568      2066      2494      2495
 -1       975    8    0    1
 -2       422       568       567      2495      2496      2491
 -1       976    8    0    1
 -2       423       424       569      2069      2497      2498
 -1       977    8    0    1
 -2       423       569       568      2498      2499      2494
 -1       978    8    0    1
 -2       424       425       570      2072      2500      2501
 -1       979    8    0    1
 -2       424       570       569      2501      2502      2497
 -1       980    8    0    1
 -2       425       426       429      2075      2084      2503
 -1       981    8    0    1
 -2       430       431       571      2091      2504      2505
 -1       982    8    0    1
 -2       431       432       572      2094      2506      2507
 -1       983    8    0    1
 -2       431       572       571      2507      2508      2504
 -1       984    8    0    1
 -2       428       427       573      2081      2509      2510
 -1       985    8    0    1
 -2       427       430       574      2088      2511      2512
 -1       986    8    0    1
 -2       573       427       574      2509      2512      2513
 -1       987    8    0    1
 -2       430       571       574      2505      2514      2511
 -1       988    8    0    1
 -2       432       433       575      2097      2515      2516
 -1       989    8    0    1
 -2       432       575       572      2516      2517      2506
 -1       990    8    0    1
 -2       433       434       576      2100      2518      2519
 -1       991    8    0    1
 -2       433       576       575      2519      2520      2515
 -1       992    8    0    1
 -2       434       435       577      2103      2521      2522
 -1       993    8    0    1
 -2       434       577       576      2522      2523      2518
 -1       994    8    0    1
 -2       435       436       578      2106      2524      2525
 -1       995    8    0    1
 -2       435       578       577      2525      2526      2521
 -1       996    8    0    1
 -2       436       437       579      2109      2527      2528
 -1       997    8    0    1
 -2       436       579       578      2528      2529      2524
 -1       998    8    0    1
 -2       437       438       580      2112      2530      2531
 -1       999    8    0    1
 -2       437       580       579      2531      2532      2527
 -1      1000    8    0    1
 -2       438       439       581      2115      2533      2534
 -1      1001    8    0    1
 -2       438       581       580      2534      2535      2530
 -1      1002    8    0    1
 -2       439       290       380      2192      1936      2536
 -1      1003    8    0    1
 -2       468       441       582      2193      2537      2538
 -1      1004    8    0    1
 -2       382       383       583      1946      2539      2540
 -1      1005    8    0    1
 -2       383       529       583      2379      2541      2539
 -1      1006    8    0    1
 -2       440       443       584      2191      2542      2543
 -1      1007    8    0    1
 -2       443       444       585      2127      2544      2545
 -1      1008    8    0    1
 -2       584       443       585      2542      2545      2546
 -1      1009    8    0    1
 -2       444       484       585      2246      2547      2544
 -1      1010    8    0    1
 -2       469       446       586      2185      2548      2549
 -1      1011    8    0    1
 -2       467       468       587      2194      2550      2551
 -1      1012    8    0    1
 -2       446       447       588      2210      2552      2553
 -1      1013    8    0    1
 -2       335       321       589      2189      2554      2555
 -1      1014    8    0    1
 -2       482       335       589      2241      2555      2556
 -1      1015    8    0    1
 -2       321       320       589      1758      2557      2554
 -1      1016    8    0    1
 -2       324       325       590      1769      2558      2559
 -1      1017    8    0    1
 -2       473       324       590      2216      2559      2560
 -1      1018    8    0    1
 -2       325       475       590      2222      2561      2558
 -1      1019    8    0    1
 -2       447       448       591      2211      2562      2563
 -1      1020    8    0    1
 -2       450       451       592      2212      2564      2565
 -1      1021    8    0    1
 -2       448       449       593      2140      2566      2567
 -1      1022    8    0    1
 -2       449       483       593      2244      2568      2566
 -1      1023    8    0    1
 -2       459       460       594      2213      2569      2570
 -1      1024    8    0    1
 -2       451       452       595      2147      2571      2572
 -1      1025    8    0    1
 -2       453       454       596      2152      2573      2574
 -1      1026    8    0    1
 -2       455       456       597      2157      2575      2576
 -1      1027    8    0    1
 -2       456       457       598      2203      2577      2578
 -1      1028    8    0    1
 -2       457       458       599      2162      2579      2580
 -1      1029    8    0    1
 -2       458       459       600      2202      2581      2582
 -1      1030    8    0    1
 -2       460       461       601      2201      2583      2584
 -1      1031    8    0    1
 -2       461       462       602      2200      2585      2586
 -1      1032    8    0    1
 -2       461       602       601      2586      2587      2583
 -1      1033    8    0    1
 -2       462       463       603      2199      2588      2589
 -1      1034    8    0    1
 -2       463       464       604      2198      2590      2591
 -1      1035    8    0    1
 -2       464       465       605      2197      2592      2593
 -1      1036    8    0    1
 -2       465       466       606      2196      2594      2595
 -1      1037    8    0    1
 -2       466       467       607      2195      2596      2597
 -1      1038    8    0    1
 -2       467       587       607      2551      2598      2596
 -1      1039    8    0    1
 -2       441       442       608      2190      2599      2600
 -1      1040    8    0    1
 -2       333       334       609      1798      2601      2602
 -1      1041    8    0    1
 -2       332       333       609      1793      2602      2603
 -1      1042    8    0    1
 -2       334       472       609      2215      2604      2601
 -1      1043    8    0    1
 -2       447       591       588      2563      2605      2552
 -1      1044    8    0    1
 -2       322       474       610      2219      2606      2607
 -1      1045    8    0    1
 -2       322       610       445      2607      2608      2131
 -1      1046    8    0    1
 -2       481       382       583      2238      2540      2609
 -1      1047    8    0    1
 -2       331       332       609      1790      2603      2610
 -1      1048    8    0    1
 -2       605       465       606      2592      2595      2611
 -1      1049    8    0    1
 -2       604       464       605      2590      2593      2612
 -1      1050    8    0    1
 -2       602       462       603      2585      2589      2613
 -1      1051    8    0    1
 -2       459       594       600      2570      2614      2581
 -1      1052    8    0    1
 -2       469       586       484      2549      2615      2245
 -1      1053    8    0    1
 -2       468       582       587      2538      2616      2550
 -1      1054    8    0    1
 -2       528       440       584      2376      2543      2617
 -1      1055    8    0    1
 -2       425       429       570      2503      2618      2500
 -1      1056    8    0    1
 -2       429       428       570      2085      2619      2618
 -1      1057    8    0    1
 -2       439       380       611      2536      2620      2621
 -1      1058    8    0    1
 -2       581       439       611      2533      2621      2622
 -1      1059    8    0    1
 -2       380       379       611      1937      2623      2620
 -1      1060    8    0    1
 -2       599       458       600      2579      2582      2624
 -1      1061    8    0    1
 -2       598       457       599      2577      2580      2625
 -1      1062    8    0    1
 -2       582       441       612      2537      2626      2627
 -1      1063    8    0    1
 -2       441       608       612      2600      2628      2626
 -1      1064    8    0    1
 -2       331       609       480      2610      2629      2235
 -1      1065    8    0    1
 -2       586       446       588      2548      2553      2630
 -1      1066    8    0    1
 -2       597       456       598      2575      2578      2631
 -1      1067    8    0    1
 -2       320       445       613      2130      2632      2633
 -1      1068    8    0    1
 -2       589       320       613      2557      2633      2634
 -1      1069    8    0    1
 -2       445       610       613      2608      2635      2632
 -1      1070    8    0    1
 -2       596       454       614      2573      2636      2637
 -1      1071    8    0    1
 -2       454       470       614      2205      2638      2636
 -1      1072    8    0    1
 -2       595       452       615      2571      2639      2640
 -1      1073    8    0    1
 -2       452       471       615      2208      2641      2639
 -1      1074    8    0    1
 -2       470       455       597      2206      2576      2642
 -1      1075    8    0    1
 -2       471       453       596      2209      2574      2643
 -1      1076    8    0    1
 -2       483       450       616      2243      2644      2645
 -1      1077    8    0    1
 -2       450       592       616      2565      2646      2644
 -1      1078    8    0    1
 -2       592       451       595      2564      2572      2647
 -1      1079    8    0    1
 -2       448       593       591      2567      2648      2562
 -1      1080    8    0    1
 -2       594       460       617      2569      2649      2650
 -1      1081    8    0    1
 -2       460       601       617      2584      2651      2649
 -1      1082    8    0    1
 -2       442       528       608      2377      2652      2599
 -1      1083    8    0    1
 -2       603       463       604      2588      2591      2653
 -1      1084    8    0    1
 -2       466       607       606      2597      2654      2594
 -1      1085    8    0    1
 -2       570       428       573      2619      2510      2655
 -1      1086    8    0    1
 -2       611       379       527      2623      2374      2656
 -1      1087    8    0    1
 -2       476       477       618      2228      2657      2658
 -1      1088    8    0    1
 -2       475       476       619      2225      2659      2660
 -1      1089    8    0    1
 -2       476       618       619      2658      2661      2659
 -1      1090    8    0    1
 -2       478       479       620      2234      2662      2663
 -1      1091    8    0    1
 -2       479       480       621      2237      2664      2665
 -1      1092    8    0    1
 -2       479       621       620      2665      2666      2662
 -1      1093    8    0    1
 -2       472       481       622      2240      2667      2668
 -1      1094    8    0    1
 -2       586       588       623      2630      2669      2670
 -1      1095    8    0    1
 -2       600       594       624      2614      2671      2672
 -1      1096    8    0    1
 -2       486       485       625      2252      2673      2674
 -1      1097    8    0    1
 -2       487       486       626      2255      2675      2676
 -1      1098    8    0    1
 -2       486       625       626      2674      2677      2675
 -1      1099    8    0    1
 -2       488       487       627      2258      2678      2679
 -1      1100    8    0    1
 -2       487       626       627      2676      2680      2678
 -1      1101    8    0    1
 -2       489       488       628      2261      2681      2682
 -1      1102    8    0    1
 -2       488       627       628      2679      2683      2681
 -1      1103    8    0    1
 -2       490       489       629      2264      2684      2685
 -1      1104    8    0    1
 -2       489       628       629      2682      2686      2684
 -1      1105    8    0    1
 -2       491       490       630      2267      2687      2688
 -1      1106    8    0    1
 -2       490       629       630      2685      2689      2687
 -1      1107    8    0    1
 -2       492       491       631      2270      2690      2691
 -1      1108    8    0    1
 -2       491       630       631      2688      2692      2690
 -1      1109    8    0    1
 -2       493       492       632      2273      2693      2694
 -1      1110    8    0    1
 -2       492       631       632      2691      2695      2693
 -1      1111    8    0    1
 -2       494       493       633      2276      2696      2697
 -1      1112    8    0    1
 -2       493       632       633      2694      2698      2696
 -1      1113    8    0    1
 -2       495       494       634      2279      2699      2700
 -1      1114    8    0    1
 -2       494       633       634      2697      2701      2699
 -1      1115    8    0    1
 -2       496       495       635      2282      2702      2703
 -1      1116    8    0    1
 -2       495       634       635      2700      2704      2702
 -1      1117    8    0    1
 -2       497       496       636      2285      2705      2706
 -1      1118    8    0    1
 -2       496       635       636      2703      2707      2705
 -1      1119    8    0    1
 -2       498       497       637      2288      2708      2709
 -1      1120    8    0    1
 -2       497       636       637      2706      2710      2708
 -1      1121    8    0    1
 -2       499       498       638      2291      2711      2712
 -1      1122    8    0    1
 -2       498       637       638      2709      2713      2711
 -1      1123    8    0    1
 -2       500       499       639      2294      2714      2715
 -1      1124    8    0    1
 -2       499       638       639      2712      2716      2714
 -1      1125    8    0    1
 -2       501       500       640      2297      2717      2718
 -1      1126    8    0    1
 -2       500       639       640      2715      2719      2717
 -1      1127    8    0    1
 -2       502       501       641      2300      2720      2721
 -1      1128    8    0    1
 -2       501       640       641      2718      2722      2720
 -1      1129    8    0    1
 -2       503       502       642      2303      2723      2724
 -1      1130    8    0    1
 -2       502       641       642      2721      2725      2723
 -1      1131    8    0    1
 -2       504       503       643      2306      2726      2727
 -1      1132    8    0    1
 -2       503       642       643      2724      2728      2726
 -1      1133    8    0    1
 -2       505       504       644      2309      2729      2730
 -1      1134    8    0    1
 -2       504       643       644      2727      2731      2729
 -1      1135    8    0    1
 -2       506       505       645      2312      2732      2733
 -1      1136    8    0    1
 -2       505       644       645      2730      2734      2732
 -1      1137    8    0    1
 -2       507       506       646      2315      2735      2736
 -1      1138    8    0    1
 -2       506       645       646      2733      2737      2735
 -1      1139    8    0    1
 -2       508       507       647      2318      2738      2739
 -1      1140    8    0    1
 -2       507       646       647      2736      2740      2738
 -1      1141    8    0    1
 -2       509       508       648      2321      2741      2742
 -1      1142    8    0    1
 -2       508       647       648      2739      2743      2741
 -1      1143    8    0    1
 -2       510       509       649      2324      2744      2745
 -1      1144    8    0    1
 -2       509       648       649      2742      2746      2744
 -1      1145    8    0    1
 -2       511       510       650      2327      2747      2748
 -1      1146    8    0    1
 -2       510       649       650      2745      2749      2747
 -1      1147    8    0    1
 -2       512       511       651      2330      2750      2751
 -1      1148    8    0    1
 -2       511       650       651      2748      2752      2750
 -1      1149    8    0    1
 -2       513       512       652      2333      2753      2754
 -1      1150    8    0    1
 -2       512       651       652      2751      2755      2753
 -1      1151    8    0    1
 -2       514       513       653      2336      2756      2757
 -1      1152    8    0    1
 -2       513       652       653      2754      2758      2756
 -1      1153    8    0    1
 -2       515       514       617      2339      2759      2760
 -1      1154    8    0    1
 -2       516       515       617      2342      2760      2761
 -1      1155    8    0    1
 -2       517       516       654      2345      2762      2763
 -1      1156    8    0    1
 -2       518       517       655      2348      2764      2765
 -1      1157    8    0    1
 -2       519       518       656      2351      2766      2767
 -1      1158    8    0    1
 -2       518       655       656      2765      2768      2766
 -1      1159    8    0    1
 -2       520       519       657      2354      2769      2770
 -1      1160    8    0    1
 -2       519       656       657      2767      2771      2769
 -1      1161    8    0    1
 -2       521       520       658      2357      2772      2773
 -1      1162    8    0    1
 -2       520       657       658      2770      2774      2772
 -1      1163    8    0    1
 -2       522       521       659      2360      2775      2776
 -1      1164    8    0    1
 -2       521       658       659      2773      2777      2775
 -1      1165    8    0    1
 -2       523       522       660      2363      2778      2779
 -1      1166    8    0    1
 -2       522       659       660      2776      2780      2778
 -1      1167    8    0    1
 -2       524       523       661      2366      2781      2782
 -1      1168    8    0    1
 -2       523       660       661      2779      2783      2781
 -1      1169    8    0    1
 -2       525       524       662      2369      2784      2785
 -1      1170    8    0    1
 -2       524       661       662      2782      2786      2784
 -1      1171    8    0    1
 -2       526       525       663      2372      2787      2788
 -1      1172    8    0    1
 -2       525       662       663      2785      2789      2787
 -1      1173    8    0    1
 -2       527       526       664      2375      2790      2791
 -1      1174    8    0    1
 -2       526       663       664      2788      2792      2790
 -1      1175    8    0    1
 -2       599       600       665      2624      2793      2794
 -1      1176    8    0    1
 -2       600       624       665      2672      2795      2793
 -1      1177    8    0    1
 -2       581       611       666      2622      2796      2797
 -1      1178    8    0    1
 -2       611       527       666      2656      2798      2796
 -1      1179    8    0    1
 -2       529       530       667      2382      2799      2800
 -1      1180    8    0    1
 -2       532       533       668      2391      2801      2802
 -1      1181    8    0    1
 -2       533       534       669      2394      2803      2804
 -1      1182    8    0    1
 -2       533       669       668      2804      2805      2801
 -1      1183    8    0    1
 -2       534       535       670      2397      2806      2807
 -1      1184    8    0    1
 -2       534       670       669      2807      2808      2803
 -1      1185    8    0    1
 -2       535       536       671      2400      2809      2810
 -1      1186    8    0    1
 -2       535       671       670      2810      2811      2806
 -1      1187    8    0    1
 -2       536       537       672      2403      2812      2813
 -1      1188    8    0    1
 -2       536       672       671      2813      2814      2809
 -1      1189    8    0    1
 -2       537       538       673      2406      2815      2816
 -1      1190    8    0    1
 -2       537       673       672      2816      2817      2812
 -1      1191    8    0    1
 -2       538       539       674      2409      2818      2819
 -1      1192    8    0    1
 -2       538       674       673      2819      2820      2815
 -1      1193    8    0    1
 -2       539       540       675      2412      2821      2822
 -1      1194    8    0    1
 -2       539       675       674      2822      2823      2818
 -1      1195    8    0    1
 -2       540       541       676      2415      2824      2825
 -1      1196    8    0    1
 -2       540       676       675      2825      2826      2821
 -1      1197    8    0    1
 -2       541       542       677      2418      2827      2828
 -1      1198    8    0    1
 -2       541       677       676      2828      2829      2824
 -1      1199    8    0    1
 -2       542       543       678      2421      2830      2831
 -1      1200    8    0    1
 -2       542       678       677      2831      2832      2827
 -1      1201    8    0    1
 -2       543       544       679      2424      2833      2834
 -1      1202    8    0    1
 -2       543       679       678      2834      2835      2830
 -1      1203    8    0    1
 -2       544       545       680      2427      2836      2837
 -1      1204    8    0    1
 -2       544       680       679      2837      2838      2833
 -1      1205    8    0    1
 -2       545       546       681      2430      2839      2840
 -1      1206    8    0    1
 -2       545       681       680      2840      2841      2836
 -1      1207    8    0    1
 -2       546       547       682      2433      2842      2843
 -1      1208    8    0    1
 -2       546       682       681      2843      2844      2839
 -1      1209    8    0    1
 -2       547       548       683      2436      2845      2846
 -1      1210    8    0    1
 -2       547       683       682      2846      2847      2842
 -1      1211    8    0    1
 -2       548       549       684      2439      2848      2849
 -1      1212    8    0    1
 -2       548       684       683      2849      2850      2845
 -1      1213    8    0    1
 -2       549       550       685      2442      2851      2852
 -1      1214    8    0    1
 -2       549       685       684      2852      2853      2848
 -1      1215    8    0    1
 -2       550       551       686      2445      2854      2855
 -1      1216    8    0    1
 -2       550       686       685      2855      2856      2851
 -1      1217    8    0    1
 -2       551       552       687      2448      2857      2858
 -1      1218    8    0    1
 -2       551       687       686      2858      2859      2854
 -1      1219    8    0    1
 -2       552       553       688      2451      2860      2861
 -1      1220    8    0    1
 -2       552       688       687      2861      2862      2857
 -1      1221    8    0    1
 -2       553       554       689      2454      2863      2864
 -1      1222    8    0    1
 -2       553       689       688      2864      2865      2860
 -1      1223    8    0    1
 -2       554       555       690      2457      2866      2867
 -1      1224    8    0    1
 -2       554       690       689      2867      2868      2863
 -1      1225    8    0    1
 -2       555       556       691      2460      2869      2870
 -1      1226    8    0    1
 -2       555       691       690      2870      2871      2866
 -1      1227    8    0    1
 -2       556       557       692      2463      2872      2873
 -1      1228    8    0    1
 -2       556       692       691      2873      2874      2869
 -1      1229    8    0    1
 -2       557       558       693      2466      2875      2876
 -1      1230    8    0    1
 -2       557       693       692      2876      2877      2872
 -1      1231    8    0    1
 -2       558       559       694      2469      2878      2879
 -1      1232    8    0    1
 -2       558       694       693      2879      2880      2875
 -1      1233    8    0    1
 -2       559       560       695      2472      2881      2882
 -1      1234    8    0    1
 -2       559       695       694      2882      2883      2878
 -1      1235    8    0    1
 -2       560       561       696      2475      2884      2885
 -1      1236    8    0    1
 -2       560       696       695      2885      2886      2881
 -1      1237    8    0    1
 -2       561       562       697      2478      2887      2888
 -1      1238    8    0    1
 -2       561       697       696      2888      2889      2884
 -1      1239    8    0    1
 -2       562       563       698      2481      2890      2891
 -1      1240    8    0    1
 -2       562       698       697      2891      2892      2887
 -1      1241    8    0    1
 -2       563       564       699      2484      2893      2894
 -1      1242    8    0    1
 -2       563       699       698      2894      2895      2890
 -1      1243    8    0    1
 -2       564       565       700      2487      2896      2897
 -1      1244    8    0    1
 -2       564       700       699      2897      2898      2893
 -1      1245    8    0    1
 -2       565       566       701      2490      2899      2900
 -1      1246    8    0    1
 -2       565       701       700      2900      2901      2896
 -1      1247    8    0    1
 -2       566       567       702      2493      2902      2903
 -1      1248    8    0    1
 -2       566       702       701      2903      2904      2899
 -1      1249    8    0    1
 -2       567       568       703      2496      2905      2906
 -1      1250    8    0    1
 -2       567       703       702      2906      2907      2902
 -1      1251    8    0    1
 -2       568       569       704      2499      2908      2909
 -1      1252    8    0    1
 -2       568       704       703      2909      2910      2905
 -1      1253    8    0    1
 -2       569       570       705      2502      2911      2912
 -1      1254    8    0    1
 -2       704       569       705      2908      2912      2913
 -1      1255    8    0    1
 -2       570       573       705      2655      2914      2911
 -1      1256    8    0    1
 -2       575       576       706      2520      2915      2916
 -1      1257    8    0    1
 -2       571       572       707      2508      2917      2918
 -1      1258    8    0    1
 -2       576       577       708      2523      2919      2920
 -1      1259    8    0    1
 -2       576       708       706      2920      2921      2915
 -1      1260    8    0    1
 -2       572       575       709      2517      2922      2923
 -1      1261    8    0    1
 -2       707       572       709      2917      2923      2924
 -1      1262    8    0    1
 -2       575       706       709      2916      2925      2922
 -1      1263    8    0    1
 -2       484       586       710      2615      2926      2927
 -1      1264    8    0    1
 -2       577       578       711      2526      2928      2929
 -1      1265    8    0    1
 -2       577       711       708      2929      2930      2919
 -1      1266    8    0    1
 -2       578       579       712      2529      2931      2932
 -1      1267    8    0    1
 -2       578       712       711      2932      2933      2928
 -1      1268    8    0    1
 -2       579       580       713      2532      2934      2935
 -1      1269    8    0    1
 -2       579       713       712      2935      2936      2931
 -1      1270    8    0    1
 -2       580       581       666      2535      2797      2937
 -1      1271    8    0    1
 -2       583       529       714      2541      2938      2939
 -1      1272    8    0    1
 -2       529       667       714      2800      2940      2938
 -1      1273    8    0    1
 -2       528       584       715      2617      2941      2942
 -1      1274    8    0    1
 -2       609       472       480      2604      2943      2629
 -1      1275    8    0    1
 -2       607       587       716      2598      2944      2945
 -1      1276    8    0    1
 -2       597       598       717      2631      2946      2947
 -1      1277    8    0    1
 -2       531       532       718      2388      2948      2949
 -1      1278    8    0    1
 -2       532       668       718      2802      2950      2948
 -1      1279    8    0    1
 -2       530       531       719      2385      2951      2952
 -1      1280    8    0    1
 -2       531       718       719      2949      2953      2951
 -1      1281    8    0    1
 -2       485       482       720      2249      2954      2955
 -1      1282    8    0    1
 -2       485       720       625      2955      2956      2673
 -1      1283    8    0    1
 -2       587       582       721      2616      2957      2958
 -1      1284    8    0    1
 -2       587       721       716      2958      2959      2944
 -1      1285    8    0    1
 -2       482       589       722      2556      2960      2961
 -1      1286    8    0    1
 -2       720       482       722      2954      2961      2962
 -1      1287    8    0    1
 -2       589       613       722      2634      2963      2960
 -1      1288    8    0    1
 -2       593       483       723      2568      2964      2965
 -1      1289    8    0    1
 -2       481       583       724      2609      2966      2967
 -1      1290    8    0    1
 -2       622       481       724      2667      2967      2968
 -1      1291    8    0    1
 -2       583       714       724      2939      2969      2966
 -1      1292    8    0    1
 -2       477       478       725      2231      2970      2971
 -1      1293    8    0    1
 -2       618       477       725      2657      2971      2972
 -1      1294    8    0    1
 -2       478       620       725      2663      2973      2970
 -1      1295    8    0    1
 -2       474       473       726      2220      2974      2975
 -1      1296    8    0    1
 -2       592       595       727      2647      2976      2977
 -1      1297    8    0    1
 -2       591       593       728      2648      2978      2979
 -1      1298    8    0    1
 -2       593       723       728      2965      2980      2978
 -1      1299    8    0    1
 -2       470       597       729      2642      2981      2982
 -1      1300    8    0    1
 -2       471       596       730      2643      2983      2984
 -1      1301    8    0    1
 -2       598       599       731      2625      2985      2986
 -1      1302    8    0    1
 -2       588       591       732      2605      2987      2988
 -1      1303    8    0    1
 -2       608       528       733      2652      2989      2990
 -1      1304    8    0    1
 -2       601       602       734      2587      2991      2992
 -1      1305    8    0    1
 -2       606       607       735      2654      2993      2994
 -1      1306    8    0    1
 -2       602       603       736      2613      2995      2996
 -1      1307    8    0    1
 -2       604       605       737      2612      2997      2998
 -1      1308    8    0    1
 -2       603       604       738      2653      2999      3000
 -1      1309    8    0    1
 -2       604       737       738      2998      3001      2999
 -1      1310    8    0    1
 -2       605       606       739      2611      3002      3003
 -1      1311    8    0    1
 -2       610       474       740      2606      3004      3005
 -1      1312    8    0    1
 -2       474       726       740      2975      3006      3004
 -1      1313    8    0    1
 -2       475       619       741      2660      3007      3008
 -1      1314    8    0    1
 -2       475       741       590      3008      3009      2561
 -1      1315    8    0    1
 -2       586       623       710      2670      3010      2926
 -1      1316    8    0    1
 -2       737       605       739      2997      3003      3011
 -1      1317    8    0    1
 -2       514       653       617      2757      3012      2759
 -1      1318    8    0    1
 -2       736       603       655      2995      3013      3014
 -1      1319    8    0    1
 -2       599       665       731      2794      3015      2985
 -1      1320    8    0    1
 -2       527       664       666      2791      3016      2798
 -1      1321    8    0    1
 -2       735       607       716      2993      2945      3017
 -1      1322    8    0    1
 -2       667       530       719      2799      2952      3018
 -1      1323    8    0    1
 -2       705       573       742      2914      3019      3020
 -1      1324    8    0    1
 -2       573       574       742      2513      3021      3019
 -1      1325    8    0    1
 -2       734       602       736      2991      2996      3022
 -1      1326    8    0    1
 -2       528       715       733      2942      3023      2989
 -1      1327    8    0    1
 -2       585       484       743      2547      3024      3025
 -1      1328    8    0    1
 -2       580       666       744      2937      3026      3027
 -1      1329    8    0    1
 -2       713       580       744      2934      3027      3028
 -1      1330    8    0    1
 -2       666       664       744      3016      3029      3026
 -1      1331    8    0    1
 -2       717       598       731      2946      2986      3030
 -1      1332    8    0    1
 -2       732       591       728      2987      2979      3031
 -1      1333    8    0    1
 -2       715       584       745      2941      3032      3033
 -1      1334    8    0    1
 -2       730       596       746      2983      3034      3035
 -1      1335    8    0    1
 -2       596       614       746      2637      3036      3034
 -1      1336    8    0    1
 -2       584       585       745      2546      3037      3032
 -1      1337    8    0    1
 -2       480       472       622      2943      2668      3038
 -1      1338    8    0    1
 -2       597       717       729      2947      3039      2981
 -1      1339    8    0    1
 -2       615       471       730      2641      2984      3040
 -1      1340    8    0    1
 -2       614       470       729      2638      2982      3041
 -1      1341    8    0    1
 -2       574       571       747      2514      3042      3043
 -1      1342    8    0    1
 -2       742       574       747      3021      3043      3044
 -1      1343    8    0    1
 -2       571       707       747      2918      3045      3042
 -1      1344    8    0    1
 -2       723       483       616      2964      2645      3046
 -1      1345    8    0    1
 -2       721       582       748      2957      3047      3048
 -1      1346    8    0    1
 -2       582       612       748      2627      3049      3047
 -1      1347    8    0    1
 -2       616       592       749      2646      3050      3051
 -1      1348    8    0    1
 -2       592       727       749      2977      3052      3050
 -1      1349    8    0    1
 -2       473       590       750      2560      3053      3054
 -1      1350    8    0    1
 -2       726       473       750      2974      3054      3055
 -1      1351    8    0    1
 -2       590       741       750      3009      3056      3053
 -1      1352    8    0    1
 -2       727       595       751      2976      3057      3058
 -1      1353    8    0    1
 -2       595       615       751      2640      3059      3057
 -1      1354    8    0    1
 -2       617       601       734      2651      2992      3060
 -1      1355    8    0    1
 -2       594       617       624      2650      3061      2671
 -1      1356    8    0    1
 -2       588       732       623      2988      3062      2669
 -1      1357    8    0    1
 -2       606       735       739      2994      3063      3002
 -1      1358    8    0    1
 -2       603       738       655      3000      3064      3013
 -1      1359    8    0    1
 -2       621       480       622      2664      3038      3065
 -1      1360    8    0    1
 -2       484       710       743      2927      3066      3024
 -1      1361    8    0    1
 -2       729       717       752      3039      3067      3068
 -1      1362    8    0    1
 -2       620       621       753      2666      3069      3070
 -1      1363    8    0    1
 -2       710       623       754      3010      3071      3072
 -1      1364    8    0    1
 -2       621       622       755      3065      3073      3074
 -1      1365    8    0    1
 -2       753       621       755      3069      3074      3075
 -1      1366    8    0    1
 -2       622       724       755      2968      3076      3073
 -1      1367    8    0    1
 -2       731       665       756      3015      3077      3078
 -1      1368    8    0    1
 -2       517       654       655      2763      3079      2764
 -1      1369    8    0    1
 -2       627       626       757      2680      3080      3081
 -1      1370    8    0    1
 -2       628       627       758      2683      3082      3083
 -1      1371    8    0    1
 -2       627       757       758      3081      3084      3082
 -1      1372    8    0    1
 -2       629       628       759      2686      3085      3086
 -1      1373    8    0    1
 -2       628       758       759      3083      3087      3085
 -1      1374    8    0    1
 -2       630       629       760      2689      3088      3089
 -1      1375    8    0    1
 -2       629       759       760      3086      3090      3088
 -1      1376    8    0    1
 -2       631       630       761      2692      3091      3092
 -1      1377    8    0    1
 -2       630       760       761      3089      3093      3091
 -1      1378    8    0    1
 -2       632       631       762      2695      3094      3095
 -1      1379    8    0    1
 -2       631       761       762      3092      3096      3094
 -1      1380    8    0    1
 -2       633       632       763      2698      3097      3098
 -1      1381    8    0    1
 -2       632       762       763      3095      3099      3097
 -1      1382    8    0    1
 -2       634       633       764      2701      3100      3101
 -1      1383    8    0    1
 -2       633       763       764      3098      3102      3100
 -1      1384    8    0    1
 -2       635       634       765      2704      3103      3104
 -1      1385    8    0    1
 -2       634       764       765      3101      3105      3103
 -1      1386    8    0    1
 -2       636       635       766      2707      3106      3107
 -1      1387    8    0    1
 -2       635       765       766      3104      3108      3106
 -1      1388    8    0    1
 -2       637       636       767      2710      3109      3110
 -1      1389    8    0    1
 -2       636       766       767      3107      3111      3109
 -1      1390    8    0    1
 -2       638       637       768      2713      3112      3113
 -1      1391    8    0    1
 -2       637       767       768      3110      3114      3112
 -1      1392    8    0    1
 -2       639       638       769      2716      3115      3116
 -1      1393    8    0    1
 -2       638       768       769      3113      3117      3115
 -1      1394    8    0    1
 -2       640       639       770      2719      3118      3119
 -1      1395    8    0    1
 -2       639       769       770      3116      3120      3118
 -1      1396    8    0    1
 -2       641       640       771      2722      3121      3122
 -1      1397    8    0    1
 -2       640       770       771      3119      3123      3121
 -1      1398    8    0    1
 -2       642       641       772      2725      3124      3125
 -1      1399    8    0    1
 -2       641       771       772      3122      3126      3124
 -1      1400    8    0    1
 -2       643       642       773      2728      3127      3128
 -1      1401    8    0    1
 -2       642       772       773      3125      3129      3127
 -1      1402    8    0    1
 -2       644       643       774      2731      3130      3131
 -1      1403    8    0    1
 -2       643       773       774      3128      3132      3130
 -1      1404    8    0    1
 -2       645       644       775      2734      3133      3134
 -1      1405    8    0    1
 -2       644       774       775      3131      3135      3133
 -1      1406    8    0    1
 -2       646       645       776      2737      3136      3137
 -1      1407    8    0    1
 -2       645       775       776      3134      3138      3136
 -1      1408    8    0    1
 -2       647       646       777      2740      3139      3140
 -1      1409    8    0    1
 -2       646       776       777      3137      3141      3139
 -1      1410    8    0    1
 -2       648       647       778      2743      3142      3143
 -1      1411    8    0    1
 -2       647       777       778      3140      3144      3142
 -1      1412    8    0    1
 -2       649       648       779      2746      3145      3146
 -1      1413    8    0    1
 -2       648       778       779      3143      3147      3145
 -1      1414    8    0    1
 -2       650       649       780      2749      3148      3149
 -1      1415    8    0    1
 -2       649       779       780      3146      3150      3148
 -1      1416    8    0    1
 -2       651       650       781      2752      3151      3152
 -1      1417    8    0    1
 -2       650       780       781      3149      3153      3151
 -1      1418    8    0    1
 -2       652       651       756      2755      3154      3155
 -1      1419    8    0    1
 -2       653       652       756      2758      3155      3156
 -1      1420    8    0    1
 -2       658       657       782      2774      3157      3158
 -1      1421    8    0    1
 -2       659       658       783      2777      3159      3160
 -1      1422    8    0    1
 -2       658       782       783      3158      3161      3159
 -1      1423    8    0    1
 -2       660       659       784      2780      3162      3163
 -1      1424    8    0    1
 -2       659       783       784      3160      3164      3162
 -1      1425    8    0    1
 -2       661       660       785      2783      3165      3166
 -1      1426    8    0    1
 -2       660       784       785      3163      3167      3165
 -1      1427    8    0    1
 -2       662       661       786      2786      3168      3169
 -1      1428    8    0    1
 -2       661       785       786      3166      3170      3168
 -1      1429    8    0    1
 -2       663       662       787      2789      3171      3172
 -1      1430    8    0    1
 -2       662       786       787      3169      3173      3171
 -1      1431    8    0    1
 -2       664       663       788      2792      3174      3175
 -1      1432    8    0    1
 -2       744       664       788      3029      3175      3176
 -1      1433    8    0    1
 -2       663       787       788      3172      3177      3174
 -1      1434    8    0    1
 -2       735       716       789      3017      3178      3179
 -1      1435    8    0    1
 -2       668       669       790      2805      3180      3181
 -1      1436    8    0    1
 -2       671       672       791      2814      3182      3183
 -1      1437    8    0    1
 -2       672       673       792      2817      3184      3185
 -1      1438    8    0    1
 -2       672       792       791      3185      3186      3182
 -1      1439    8    0    1
 -2       673       674       793      2820      3187      3188
 -1      1440    8    0    1
 -2       673       793       792      3188      3189      3184
 -1      1441    8    0    1
 -2       674       675       794      2823      3190      3191
 -1      1442    8    0    1
 -2       674       794       793      3191      3192      3187
 -1      1443    8    0    1
 -2       675       676       795      2826      3193      3194
 -1      1444    8    0    1
 -2       675       795       794      3194      3195      3190
 -1      1445    8    0    1
 -2       676       677       796      2829      3196      3197
 -1      1446    8    0    1
 -2       676       796       795      3197      3198      3193
 -1      1447    8    0    1
 -2       677       678       797      2832      3199      3200
 -1      1448    8    0    1
 -2       677       797       796      3200      3201      3196
 -1      1449    8    0    1
 -2       678       679       798      2835      3202      3203
 -1      1450    8    0    1
 -2       678       798       797      3203      3204      3199
 -1      1451    8    0    1
 -2       679       680       799      2838      3205      3206
 -1      1452    8    0    1
 -2       679       799       798      3206      3207      3202
 -1      1453    8    0    1
 -2       680       681       800      2841      3208      3209
 -1      1454    8    0    1
 -2       680       800       799      3209      3210      3205
 -1      1455    8    0    1
 -2       681       682       801      2844      3211      3212
 -1      1456    8    0    1
 -2       681       801       800      3212      3213      3208
 -1      1457    8    0    1
 -2       682       683       802      2847      3214      3215
 -1      1458    8    0    1
 -2       682       802       801      3215      3216      3211
 -1      1459    8    0    1
 -2       683       684       803      2850      3217      3218
 -1      1460    8    0    1
 -2       683       803       802      3218      3219      3214
 -1      1461    8    0    1
 -2       684       685       804      2853      3220      3221
 -1      1462    8    0    1
 -2       684       804       803      3221      3222      3217
 -1      1463    8    0    1
 -2       685       686       805      2856      3223      3224
 -1      1464    8    0    1
 -2       685       805       804      3224      3225      3220
 -1      1465    8    0    1
 -2       686       687       806      2859      3226      3227
 -1      1466    8    0    1
 -2       686       806       805      3227      3228      3223
 -1      1467    8    0    1
 -2       687       688       807      2862      3229      3230
 -1      1468    8    0    1
 -2       687       807       806      3230      3231      3226
 -1      1469    8    0    1
 -2       688       689       808      2865      3232      3233
 -1      1470    8    0    1
 -2       688       808       807      3233      3234      3229
 -1      1471    8    0    1
 -2       689       690       809      2868      3235      3236
 -1      1472    8    0    1
 -2       689       809       808      3236      3237      3232
 -1      1473    8    0    1
 -2       690       691       810      2871      3238      3239
 -1      1474    8    0    1
 -2       690       810       809      3239      3240      3235
 -1      1475    8    0    1
 -2       691       692       811      2874      3241      3242
 -1      1476    8    0    1
 -2       691       811       810      3242      3243      3238
 -1      1477    8    0    1
 -2       692       693       723      2877      3244      3245
 -1      1478    8    0    1
 -2       693       694       728      2880      3246      3247
 -1      1479    8    0    1
 -2       694       695       732      2883      3248      3249
 -1      1480    8    0    1
 -2       696       697       754      2889      3250      3251
 -1      1481    8    0    1
 -2       697       698       812      2892      3252      3253
 -1      1482    8    0    1
 -2       698       699       813      2895      3254      3255
 -1      1483    8    0    1
 -2       698       813       812      3255      3256      3252
 -1      1484    8    0    1
 -2       699       700       814      2898      3257      3258
 -1      1485    8    0    1
 -2       699       814       813      3258      3259      3254
 -1      1486    8    0    1
 -2       700       701       815      2901      3260      3261
 -1      1487    8    0    1
 -2       700       815       814      3261      3262      3257
 -1      1488    8    0    1
 -2       701       702       816      2904      3263      3264
 -1      1489    8    0    1
 -2       701       816       815      3264      3265      3260
 -1      1490    8    0    1
 -2       702       703       817      2907      3266      3267
 -1      1491    8    0    1
 -2       702       817       816      3267      3268      3263
 -1      1492    8    0    1
 -2       703       704       818      2910      3269      3270
 -1      1493    8    0    1
 -2       703       818       817      3270      3271      3266
 -1      1494    8    0    1
 -2       704       705       819      2913      3272      3273
 -1      1495    8    0    1
 -2       818       704       819      3269      3273      3274
 -1      1496    8    0    1
 -2       705       742       819      3020      3275      3272
 -1      1497    8    0    1
 -2       619       618       820      2661      3276      3277
 -1      1498    8    0    1
 -2       723       616       811      3046      3278      3279
 -1      1499    8    0    1
 -2       706       708       821      2921      3280      3281
 -1      1500    8    0    1
 -2       712       713       822      2936      3282      3283
 -1      1501    8    0    1
 -2       708       711       823      2930      3284      3285
 -1      1502    8    0    1
 -2       708       823       821      3285      3286      3280
 -1      1503    8    0    1
 -2       714       667       824      2940      3287      3288
 -1      1504    8    0    1
 -2       585       743       745      3025      3289      3037
 -1      1505    8    0    1
 -2       743       710       825      3066      3290      3291
 -1      1506    8    0    1
 -2       717       731       826      3030      3292      3293
 -1      1507    8    0    1
 -2       612       608       827      2628      3294      3295
 -1      1508    8    0    1
 -2       718       668       828      2950      3296      3297
 -1      1509    8    0    1
 -2       668       790       828      3181      3298      3296
 -1      1510    8    0    1
 -2       711       712       829      2933      3299      3300
 -1      1511    8    0    1
 -2       823       711       829      3284      3300      3301
 -1      1512    8    0    1
 -2       712       822       829      3283      3302      3299
 -1      1513    8    0    1
 -2       613       610       830      2635      3303      3304
 -1      1514    8    0    1
 -2       722       613       830      2963      3304      3305
 -1      1515    8    0    1
 -2       610       740       830      3005      3306      3303
 -1      1516    8    0    1
 -2       670       671       831      2811      3307      3308
 -1      1517    8    0    1
 -2       671       791       831      3183      3309      3307
 -1      1518    8    0    1
 -2       667       719       832      3018      3310      3311
 -1      1519    8    0    1
 -2       667       832       824      3311      3312      3287
 -1      1520    8    0    1
 -2       625       720       833      2956      3313      3314
 -1      1521    8    0    1
 -2       669       670       834      2808      3315      3316
 -1      1522    8    0    1
 -2       790       669       834      3180      3316      3317
 -1      1523    8    0    1
 -2       670       831       834      3308      3318      3315
 -1      1524    8    0    1
 -2       719       718       835      2953      3319      3320
 -1      1525    8    0    1
 -2       718       828       835      3297      3321      3319
 -1      1526    8    0    1
 -2       656       655       738      2768      3064      3322
 -1      1527    8    0    1
 -2       626       625       836      2677      3323      3324
 -1      1528    8    0    1
 -2       626       836       757      3324      3325      3080
 -1      1529    8    0    1
 -2       732       695       623      3248      3326      3062
 -1      1530    8    0    1
 -2       728       723       693      2980      3244      3247
 -1      1531    8    0    1
 -2       728       694       732      3246      3249      3031
 -1      1532    8    0    1
 -2       715       745       837      3033      3327      3328
 -1      1533    8    0    1
 -2       716       721       838      2959      3329      3330
 -1      1534    8    0    1
 -2       615       730       839      3040      3331      3332
 -1      1535    8    0    1
 -2       615       839       751      3332      3333      3059
 -1      1536    8    0    1
 -2       614       729       840      3041      3334      3335
 -1      1537    8    0    1
 -2       608       733       827      2990      3336      3294
 -1      1538    8    0    1
 -2       739       735       782      3063      3337      3338
 -1      1539    8    0    1
 -2       733       715       841      3023      3339      3340
 -1      1540    8    0    1
 -2       715       837       841      3328      3341      3339
 -1      1541    8    0    1
 -2       623       695       696      3326      2886      3342
 -1      1542    8    0    1
 -2       692       723       811      3245      3279      3241
 -1      1543    8    0    1
 -2       745       743       842      3289      3343      3344
 -1      1544    8    0    1
 -2       743       825       842      3291      3345      3343
 -1      1545    8    0    1
 -2       612       827       843      3295      3346      3347
 -1      1546    8    0    1
 -2       612       843       748      3347      3348      3049
 -1      1547    8    0    1
 -2       656       738       737      3322      3001      3349
 -1      1548    8    0    1
 -2       656       737       657      3349      3350      2771
 -1      1549    8    0    1
 -2       827       733       844      3336      3351      3352
 -1      1550    8    0    1
 -2       843       827       844      3346      3352      3353
 -1      1551    8    0    1
 -2       733       841       844      3340      3354      3351
 -1      1552    8    0    1
 -2       623       696       754      3342      3251      3071
 -1      1553    8    0    1
 -2       741       619       845      3007      3355      3356
 -1      1554    8    0    1
 -2       619       820       845      3277      3357      3355
 -1      1555    8    0    1
 -2       620       753       846      3070      3358      3359
 -1      1556    8    0    1
 -2       620       846       725      3359      3360      2973
 -1      1557    8    0    1
 -2       710       754       825      3072      3361      3290
 -1      1558    8    0    1
 -2       618       725       847      2972      3362      3363
 -1      1559    8    0    1
 -2       820       618       847      3276      3363      3364
 -1      1560    8    0    1
 -2       725       846       847      3360      3365      3362
 -1      1561    8    0    1
 -2       740       726       848      3006      3366      3367
 -1      1562    8    0    1
 -2       657       737       782      3350      3368      3157
 -1      1563    8    0    1
 -2       727       751       849      3058      3369      3370
 -1      1564    8    0    1
 -2       727       849       749      3370      3371      3052
 -1      1565    8    0    1
 -2       756       651       781      3154      3152      3372
 -1      1566    8    0    1
 -2       653       756       665      3156      3077      3373
 -1      1567    8    0    1
 -2       516       617       734      2761      3060      3374
 -1      1568    8    0    1
 -2       654       516       734      2762      3374      3375
 -1      1569    8    0    1
 -2       665       624       653      2795      3376      3373
 -1      1570    8    0    1
 -2       754       697       812      3250      3253      3377
 -1      1571    8    0    1
 -2       745       842       850      3344      3378      3379
 -1      1572    8    0    1
 -2       745       850       837      3379      3380      3327
 -1      1573    8    0    1
 -2       839       730       851      3331      3381      3382
 -1      1574    8    0    1
 -2       730       746       851      3035      3383      3381
 -1      1575    8    0    1
 -2       848       726       852      3366      3384      3385
 -1      1576    8    0    1
 -2       726       750       852      3055      3386      3384
 -1      1577    8    0    1
 -2       811       616       749      3278      3051      3387
 -1      1578    8    0    1
 -2       707       709       853      2924      3388      3389
 -1      1579    8    0    1
 -2       789       716       838      3178      3330      3390
 -1      1580    8    0    1
 -2       706       821       854      3281      3391      3392
 -1      1581    8    0    1
 -2       706       854       709      3392      3393      2925
 -1      1582    8    0    1
 -2       729       752       840      3068      3394      3334
 -1      1583    8    0    1
 -2       713       744       855      3028      3395      3396
 -1      1584    8    0    1
 -2       822       713       855      3282      3396      3397
 -1      1585    8    0    1
 -2       744       788       855      3176      3398      3395
 -1      1586    8    0    1
 -2       614       840       746      3335      3399      3036
 -1      1587    8    0    1
 -2       625       833       836      3314      3400      3323
 -1      1588    8    0    1
 -2       717       826       856      3293      3401      3402
 -1      1589    8    0    1
 -2       717       856       752      3402      3403      3067
 -1      1590    8    0    1
 -2       826       731       756      3292      3078      3404
 -1      1591    8    0    1
 -2       832       719       835      3310      3320      3405
 -1      1592    8    0    1
 -2       720       722       830      2962      3305      3406
 -1      1593    8    0    1
 -2       833       720       830      3313      3406      3407
 -1      1594    8    0    1
 -2       747       707       857      3045      3408      3409
 -1      1595    8    0    1
 -2       707       853       857      3389      3410      3408
 -1      1596    8    0    1
 -2       724       714       858      2969      3411      3412
 -1      1597    8    0    1
 -2       755       724       858      3076      3412      3413
 -1      1598    8    0    1
 -2       714       824       858      3288      3414      3411
 -1      1599    8    0    1
 -2       838       721       859      3329      3415      3416
 -1      1600    8    0    1
 -2       721       748       859      3048      3417      3415
 -1      1601    8    0    1
 -2       782       735       783      3337      3418      3161
 -1      1602    8    0    1
 -2       624       617       653      3061      3012      3376
 -1      1603    8    0    1
 -2       825       754       812      3361      3377      3419
 -1      1604    8    0    1
 -2       758       757       860      3084      3420      3421
 -1      1605    8    0    1
 -2       655       654       736      3079      3422      3014
 -1      1606    8    0    1
 -2       746       840       861      3399      3423      3424
 -1      1607    8    0    1
 -2       759       758       862      3087      3425      3426
 -1      1608    8    0    1
 -2       758       860       862      3421      3427      3425
 -1      1609    8    0    1
 -2       760       759       863      3090      3428      3429
 -1      1610    8    0    1
 -2       759       862       863      3426      3430      3428
 -1      1611    8    0    1
 -2       761       760       864      3093      3431      3432
 -1      1612    8    0    1
 -2       760       863       864      3429      3433      3431
 -1      1613    8    0    1
 -2       762       761       865      3096      3434      3435
 -1      1614    8    0    1
 -2       761       864       865      3432      3436      3434
 -1      1615    8    0    1
 -2       763       762       866      3099      3437      3438
 -1      1616    8    0    1
 -2       762       865       866      3435      3439      3437
 -1      1617    8    0    1
 -2       764       763       867      3102      3440      3441
 -1      1618    8    0    1
 -2       763       866       867      3438      3442      3440
 -1      1619    8    0    1
 -2       765       764       868      3105      3443      3444
 -1      1620    8    0    1
 -2       764       867       868      3441      3445      3443
 -1      1621    8    0    1
 -2       766       765       869      3108      3446      3447
 -1      1622    8    0    1
 -2       765       868       869      3444      3448      3446
 -1      1623    8    0    1
 -2       767       766       870      3111      3449      3450
 -1      1624    8    0    1
 -2       766       869       870      3447      3451      3449
 -1      1625    8    0    1
 -2       768       767       871      3114      3452      3453
 -1      1626    8    0    1
 -2       767       870       871      3450      3454      3452
 -1      1627    8    0    1
 -2       769       768       872      3117      3455      3456
 -1      1628    8    0    1
 -2       768       871       872      3453      3457      3455
 -1      1629    8    0    1
 -2       770       769       873      3120      3458      3459
 -1      1630    8    0    1
 -2       769       872       873      3456      3460      3458
 -1      1631    8    0    1
 -2       771       770       874      3123      3461      3462
 -1      1632    8    0    1
 -2       770       873       874      3459      3463      3461
 -1      1633    8    0    1
 -2       772       771       875      3126      3464      3465
 -1      1634    8    0    1
 -2       771       874       875      3462      3466      3464
 -1      1635    8    0    1
 -2       773       772       876      3129      3467      3468
 -1      1636    8    0    1
 -2       772       875       876      3465      3469      3467
 -1      1637    8    0    1
 -2       774       773       877      3132      3470      3471
 -1      1638    8    0    1
 -2       773       876       877      3468      3472      3470
 -1      1639    8    0    1
 -2       775       774       878      3135      3473      3474
 -1      1640    8    0    1
 -2       774       877       878      3471      3475      3473
 -1      1641    8    0    1
 -2       776       775       879      3138      3476      3477
 -1      1642    8    0    1
 -2       775       878       879      3474      3478      3476
 -1      1643    8    0    1
 -2       777       776       880      3141      3479      3480
 -1      1644    8    0    1
 -2       776       879       880      3477      3481      3479
 -1      1645    8    0    1
 -2       778       777       881      3144      3482      3483
 -1      1646    8    0    1
 -2       777       880       881      3480      3484      3482
 -1      1647    8    0    1
 -2       779       778       882      3147      3485      3486
 -1      1648    8    0    1
 -2       778       881       882      3483      3487      3485
 -1      1649    8    0    1
 -2       780       779       883      3150      3488      3489
 -1      1650    8    0    1
 -2       779       882       883      3486      3490      3488
 -1      1651    8    0    1
 -2       781       780       884      3153      3491      3492
 -1      1652    8    0    1
 -2       780       883       884      3489      3493      3491
 -1      1653    8    0    1
 -2       784       783       885      3164      3494      3495
 -1      1654    8    0    1
 -2       785       784       886      3167      3496      3497
 -1      1655    8    0    1
 -2       784       885       886      3495      3498      3496
 -1      1656    8    0    1
 -2       786       785       887      3170      3499      3500
 -1      1657    8    0    1
 -2       785       886       887      3497      3501      3499
 -1      1658    8    0    1
 -2       787       786       888      3173      3502      3503
 -1      1659    8    0    1
 -2       786       887       888      3500      3504      3502
 -1      1660    8    0    1
 -2       835       828       889      3321      3505      3506
 -1      1661    8    0    1
 -2       824       832       890      3312      3507      3508
 -1      1662    8    0    1
 -2       791       792       891      3186      3509      3510
 -1      1663    8    0    1
 -2       794       795       892      3195      3511      3512
 -1      1664    8    0    1
 -2       795       796       893      3198      3513      3514
 -1      1665    8    0    1
 -2       795       893       892      3514      3515      3511
 -1      1666    8    0    1
 -2       796       797       894      3201      3516      3517
 -1      1667    8    0    1
 -2       796       894       893      3517      3518      3513
 -1      1668    8    0    1
 -2       797       798       895      3204      3519      3520
 -1      1669    8    0    1
 -2       797       895       894      3520      3521      3516
 -1      1670    8    0    1
 -2       798       799       896      3207      3522      3523
 -1      1671    8    0    1
 -2       798       896       895      3523      3524      3519
 -1      1672    8    0    1
 -2       799       800       897      3210      3525      3526
 -1      1673    8    0    1
 -2       799       897       896      3526      3527      3522
 -1      1674    8    0    1
 -2       800       801       898      3213      3528      3529
 -1      1675    8    0    1
 -2       800       898       897      3529      3530      3525
 -1      1676    8    0    1
 -2       801       802       899      3216      3531      3532
 -1      1677    8    0    1
 -2       801       899       898      3532      3533      3528
 -1      1678    8    0    1
 -2       802       803       900      3219      3534      3535
 -1      1679    8    0    1
 -2       802       900       899      3535      3536      3531
 -1      1680    8    0    1
 -2       803       804       901      3222      3537      3538
 -1      1681    8    0    1
 -2       803       901       900      3538      3539      3534
 -1      1682    8    0    1
 -2       804       805       902      3225      3540      3541
 -1      1683    8    0    1
 -2       804       902       901      3541      3542      3537
 -1      1684    8    0    1
 -2       805       806       903      3228      3543      3544
 -1      1685    8    0    1
 -2       805       903       902      3544      3545      3540
 -1      1686    8    0    1
 -2       806       807       904      3231      3546      3547
 -1      1687    8    0    1
 -2       806       904       903      3547      3548      3543
 -1      1688    8    0    1
 -2       807       808       905      3234      3549      3550
 -1      1689    8    0    1
 -2       807       905       904      3550      3551      3546
 -1      1690    8    0    1
 -2       808       809       906      3237      3552      3553
 -1      1691    8    0    1
 -2       808       906       905      3553      3554      3549
 -1      1692    8    0    1
 -2       810       811       749      3243      3387      3555
 -1      1693    8    0    1
 -2       841       837       907      3341      3556      3557
 -1      1694    8    0    1
 -2       815       816       908      3265      3558      3559
 -1      1695    8    0    1
 -2       816       817       909      3268      3560      3561
 -1      1696    8    0    1
 -2       816       909       908      3561      3562      3558
 -1      1697    8    0    1
 -2       817       818       910      3271      3563      3564
 -1      1698    8    0    1
 -2       817       910       909      3564      3565      3560
 -1      1699    8    0    1
 -2       853       709       854      3388      3393      3566
 -1      1700    8    0    1
 -2       789       838       885      3390      3567      3568
 -1      1701    8    0    1
 -2       737       739       782      3011      3338      3368
 -1      1702    8    0    1
 -2       842       825       812      3345      3419      3569
 -1      1703    8    0    1
 -2       833       830       740      3407      3306      3570
 -1      1704    8    0    1
 -2       840       752       911      3394      3571      3572
 -1      1705    8    0    1
 -2       734       736       654      3022      3422      3375
 -1      1706    8    0    1
 -2       821       823       912      3286      3573      3574
 -1      1707    8    0    1
 -2       828       790       913      3298      3575      3576
 -1      1708    8    0    1
 -2       828       913       889      3576      3577      3505
 -1      1709    8    0    1
 -2       836       833       914      3400      3578      3579
 -1      1710    8    0    1
 -2       814       815       915      3262      3580      3581
 -1      1711    8    0    1
 -2       815       908       915      3559      3582      3580
 -1      1712    8    0    1
 -2       748       843       916      3348      3583      3584
 -1      1713    8    0    1
 -2       813       814       850      3259      3585      3586
 -1      1714    8    0    1
 -2       756       781       826      3372      3587      3404
 -1      1715    8    0    1
 -2       831       791       917      3309      3588      3589
 -1      1716    8    0    1
 -2       791       891       917      3510      3590      3588
 -1      1717    8    0    1
 -2       750       741       918      3056      3591      3592
 -1      1718    8    0    1
 -2       750       918       852      3592      3593      3386
 -1      1719    8    0    1
 -2       832       835       919      3405      3594      3595
 -1      1720    8    0    1
 -2       890       832       919      3507      3595      3596
 -1      1721    8    0    1
 -2       835       889       919      3506      3597      3594
 -1      1722    8    0    1
 -2       793       794       920      3192      3598      3599
 -1      1723    8    0    1
 -2       794       892       920      3512      3600      3598
 -1      1724    8    0    1
 -2       751       839       921      3333      3601      3602
 -1      1725    8    0    1
 -2       792       793       922      3189      3603      3604
 -1      1726    8    0    1
 -2       891       792       922      3509      3604      3605
 -1      1727    8    0    1
 -2       793       920       922      3599      3606      3603
 -1      1728    8    0    1
 -2       783       735       789      3418      3179      3607
 -1      1729    8    0    1
 -2       742       747       923      3044      3608      3609
 -1      1730    8    0    1
 -2       819       742       923      3275      3609      3610
 -1      1731    8    0    1
 -2       747       857       923      3409      3611      3608
 -1      1732    8    0    1
 -2       757       836       924      3325      3612      3613
 -1      1733    8    0    1
 -2       836       914       924      3579      3614      3612
 -1      1734    8    0    1
 -2       842       812       813      3569      3256      3615
 -1      1735    8    0    1
 -2       842       813       850      3615      3586      3378
 -1      1736    8    0    1
 -2       826       781       884      3587      3492      3616
 -1      1737    8    0    1
 -2       783       789       885      3607      3568      3494
 -1      1738    8    0    1
 -2       846       753       925      3358      3617      3618
 -1      1739    8    0    1
 -2       860       757       924      3420      3613      3619
 -1      1740    8    0    1
 -2       753       755       926      3075      3620      3621
 -1      1741    8    0    1
 -2       925       753       926      3617      3621      3622
 -1      1742    8    0    1
 -2       755       858       926      3413      3623      3620
 -1      1743    8    0    1
 -2       849       751       921      3369      3602      3624
 -1      1744    8    0    1
 -2       912       823       927      3573      3625      3626
 -1      1745    8    0    1
 -2       823       829       927      3301      3627      3625
 -1      1746    8    0    1
 -2       861       840       911      3423      3572      3628
 -1      1747    8    0    1
 -2       746       861       851      3424      3629      3383
 -1      1748    8    0    1
 -2       843       844       928      3353      3630      3631
 -1      1749    8    0    1
 -2       788       787       929      3177      3632      3633
 -1      1750    8    0    1
 -2       855       788       929      3398      3633      3634
 -1      1751    8    0    1
 -2       787       888       929      3503      3635      3632
 -1      1752    8    0    1
 -2       824       890       930      3508      3636      3637
 -1      1753    8    0    1
 -2       826       884       856      3616      3638      3401
 -1      1754    8    0    1
 -2       740       848       833      3367      3639      3570
 -1      1755    8    0    1
 -2       810       749       931      3555      3640      3641
 -1      1756    8    0    1
 -2       906       809       931      3552      3642      3643
 -1      1757    8    0    1
 -2       809       810       931      3240      3641      3642
 -1      1758    8    0    1
 -2       907       837       932      3556      3644      3645
 -1      1759    8    0    1
 -2       837       850       932      3380      3646      3644
 -1      1760    8    0    1
 -2       843       928       916      3631      3647      3583
 -1      1761    8    0    1
 -2       748       916       859      3584      3648      3417
 -1      1762    8    0    1
 -2       839       851       933      3382      3649      3650
 -1      1763    8    0    1
 -2       839       933       921      3650      3651      3601
 -1      1764    8    0    1
 -2       845       820       934      3357      3652      3653
 -1      1765    8    0    1
 -2       818       819       923      3274      3610      3654
 -1      1766    8    0    1
 -2       885       838       935      3567      3655      3656
 -1      1767    8    0    1
 -2       886       885       935      3498      3656      3657
 -1      1768    8    0    1
 -2       838       859       935      3416      3658      3655
 -1      1769    8    0    1
 -2       854       821       936      3391      3659      3660
 -1      1770    8    0    1
 -2       821       912       936      3574      3661      3659
 -1      1771    8    0    1
 -2       911       752       937      3571      3662      3663
 -1      1772    8    0    1
 -2       752       856       937      3403      3664      3662
 -1      1773    8    0    1
 -2       913       790       938      3575      3665      3666
 -1      1774    8    0    1
 -2       790       834       938      3317      3667      3665
 -1      1775    8    0    1
 -2       833       848       914      3639      3668      3578
 -1      1776    8    0    1
 -2       824       930       858      3637      3669      3414
 -1      1777    8    0    1
 -2       934       820       939      3652      3670      3671
 -1      1778    8    0    1
 -2       820       847       939      3364      3672      3670
 -1      1779    8    0    1
 -2       818       923       910      3654      3673      3563
 -1      1780    8    0    1
 -2       848       852       940      3385      3674      3675
 -1      1781    8    0    1
 -2       848       940       914      3675      3676      3668
 -1      1782    8    0    1
 -2       834       831       941      3318      3677      3678
 -1      1783    8    0    1
 -2       831       917       941      3589      3679      3677
 -1      1784    8    0    1
 -2       853       854       942      3566      3680      3681
 -1      1785    8    0    1
 -2       854       936       942      3660      3682      3680
 -1      1786    8    0    1
 -2       857       853       943      3410      3683      3684
 -1      1787    8    0    1
 -2       853       942       943      3681      3685      3683
 -1      1788    8    0    1
 -2       844       841       944      3354      3686      3687
 -1      1789    8    0    1
 -2       844       944       928      3687      3688      3630
 -1      1790    8    0    1
 -2       918       741       845      3591      3356      3689
 -1      1791    8    0    1
 -2       841       907       944      3557      3690      3686
 -1      1792    8    0    1
 -2       822       855       929      3397      3634      3691
 -1      1793    8    0    1
 -2       822       929       945      3691      3692      3693
 -1      1794    8    0    1
 -2       829       822       945      3302      3693      3694
 -1      1795    8    0    1
 -2       929       888       945      3635      3695      3692
 -1      1796    8    0    1
 -2       860       924       946      3619      3696      3697
 -1      1797    8    0    1
 -2       847       846       947      3365      3698      3699
 -1      1798    8    0    1
 -2       847       947       939      3699      3700      3672
 -1      1799    8    0    1
 -2       863       862       948      3430      3701      3702
 -1      1800    8    0    1
 -2       864       863       949      3433      3703      3704
 -1      1801    8    0    1
 -2       863       948       949      3702      3705      3703
 -1      1802    8    0    1
 -2       865       864       950      3436      3706      3707
 -1      1803    8    0    1
 -2       864       949       950      3704      3708      3706
 -1      1804    8    0    1
 -2       866       865       951      3439      3709      3710
 -1      1805    8    0    1
 -2       865       950       951      3707      3711      3709
 -1      1806    8    0    1
 -2       867       866       952      3442      3712      3713
 -1      1807    8    0    1
 -2       866       951       952      3710      3714      3712
 -1      1808    8    0    1
 -2       868       867       953      3445      3715      3716
 -1      1809    8    0    1
 -2       867       952       953      3713      3717      3715
 -1      1810    8    0    1
 -2       869       868       954      3448      3718      3719
 -1      1811    8    0    1
 -2       868       953       954      3716      3720      3718
 -1      1812    8    0    1
 -2       870       869       955      3451      3721      3722
 -1      1813    8    0    1
 -2       869       954       955      3719      3723      3721
 -1      1814    8    0    1
 -2       871       870       956      3454      3724      3725
 -1      1815    8    0    1
 -2       870       955       956      3722      3726      3724
 -1      1816    8    0    1
 -2       872       871       957      3457      3727      3728
 -1      1817    8    0    1
 -2       871       956       957      3725      3729      3727
 -1      1818    8    0    1
 -2       873       872       958      3460      3730      3731
 -1      1819    8    0    1
 -2       872       957       958      3728      3732      3730
 -1      1820    8    0    1
 -2       874       873       959      3463      3733      3734
 -1      1821    8    0    1
 -2       873       958       959      3731      3735      3733
 -1      1822    8    0    1
 -2       875       874       960      3466      3736      3737
 -1      1823    8    0    1
 -2       874       959       960      3734      3738      3736
 -1      1824    8    0    1
 -2       876       875       961      3469      3739      3740
 -1      1825    8    0    1
 -2       875       960       961      3737      3741      3739
 -1      1826    8    0    1
 -2       877       876       962      3472      3742      3743
 -1      1827    8    0    1
 -2       876       961       962      3740      3744      3742
 -1      1828    8    0    1
 -2       878       877       963      3475      3745      3746
 -1      1829    8    0    1
 -2       877       962       963      3743      3747      3745
 -1      1830    8    0    1
 -2       879       878       964      3478      3748      3749
 -1      1831    8    0    1
 -2       878       963       964      3746      3750      3748
 -1      1832    8    0    1
 -2       880       879       965      3481      3751      3752
 -1      1833    8    0    1
 -2       879       964       965      3749      3753      3751
 -1      1834    8    0    1
 -2       881       880       966      3484      3754      3755
 -1      1835    8    0    1
 -2       880       965       966      3752      3756      3754
 -1      1836    8    0    1
 -2       882       881       967      3487      3757      3758
 -1      1837    8    0    1
 -2       881       966       967      3755      3759      3757
 -1      1838    8    0    1
 -2       883       882       968      3490      3760      3761
 -1      1839    8    0    1
 -2       882       967       968      3758      3762      3760
 -1      1840    8    0    1
 -2       884       883       969      3493      3763      3764
 -1      1841    8    0    1
 -2       883       968       969      3761      3765      3763
 -1      1842    8    0    1
 -2       846       925       947      3618      3766      3698
 -1      1843    8    0    1
 -2       918       845       970      3689      3767      3768
 -1      1844    8    0    1
 -2       845       934       970      3653      3769      3767
 -1      1845    8    0    1
 -2       887       886       971      3501      3770      3771
 -1      1846    8    0    1
 -2       886       935       971      3657      3772      3770
 -1      1847    8    0    1
 -2       888       887       972      3504      3773      3774
 -1      1848    8    0    1
 -2       887       971       972      3771      3775      3773
 -1      1849    8    0    1
 -2       856       884       969      3638      3764      3776
 -1      1850    8    0    1
 -2       861       911       973      3628      3777      3778
 -1      1851    8    0    1
 -2       852       918       974      3593      3779      3780
 -1      1852    8    0    1
 -2       940       852       974      3674      3780      3781
 -1      1853    8    0    1
 -2       918       970       974      3768      3782      3779
 -1      1854    8    0    1
 -2       892       893       975      3515      3783      3784
 -1      1855    8    0    1
 -2       895       896       976      3524      3785      3786
 -1      1856    8    0    1
 -2       896       897       977      3527      3787      3788
 -1      1857    8    0    1
 -2       896       977       976      3788      3789      3785
 -1      1858    8    0    1
 -2       897       898       978      3530      3790      3791
 -1      1859    8    0    1
 -2       897       978       977      3791      3792      3787
 -1      1860    8    0    1
 -2       898       899       979      3533      3793      3794
 -1      1861    8    0    1
 -2       898       979       978      3794      3795      3790
 -1      1862    8    0    1
 -2       899       900       980      3536      3796      3797
 -1      1863    8    0    1
 -2       899       980       979      3797      3798      3793
 -1      1864    8    0    1
 -2       900       901       981      3539      3799      3800
 -1      1865    8    0    1
 -2       900       981       980      3800      3801      3796
 -1      1866    8    0    1
 -2       901       902       982      3542      3802      3803
 -1      1867    8    0    1
 -2       901       982       981      3803      3804      3799
 -1      1868    8    0    1
 -2       902       903       983      3545      3805      3806
 -1      1869    8    0    1
 -2       902       983       982      3806      3807      3802
 -1      1870    8    0    1
 -2       903       904       984      3548      3808      3809
 -1      1871    8    0    1
 -2       903       984       983      3809      3810      3805
 -1      1872    8    0    1
 -2       904       905       985      3551      3811      3812
 -1      1873    8    0    1
 -2       904       985       984      3812      3813      3808
 -1      1874    8    0    1
 -2       905       906       986      3554      3814      3815
 -1      1875    8    0    1
 -2       905       986       985      3815      3816      3811
 -1      1876    8    0    1
 -2       909       910       987      3565      3817      3818
 -1      1877    8    0    1
 -2       916       928       988      3647      3819      3820
 -1      1878    8    0    1
 -2       908       909       989      3562      3821      3822
 -1      1879    8    0    1
 -2       909       987       989      3818      3823      3821
 -1      1880    8    0    1
 -2       924       914       990      3614      3824      3825
 -1      1881    8    0    1
 -2       946       924       990      3696      3825      3826
 -1      1882    8    0    1
 -2       914       940       990      3676      3827      3824
 -1      1883    8    0    1
 -2       850       814       915      3585      3581      3828
 -1      1884    8    0    1
 -2       930       890       991      3636      3829      3830
 -1      1885    8    0    1
 -2       889       913       992      3577      3831      3832
 -1      1886    8    0    1
 -2       910       923       857      3673      3611      3833
 -1      1887    8    0    1
 -2       851       861       993      3629      3834      3835
 -1      1888    8    0    1
 -2       859       916       994      3648      3836      3837
 -1      1889    8    0    1
 -2       917       891       995      3590      3838      3839
 -1      1890    8    0    1
 -2       894       895       996      3521      3840      3841
 -1      1891    8    0    1
 -2       895       976       996      3786      3842      3840
 -1      1892    8    0    1
 -2       893       894       997      3518      3843      3844
 -1      1893    8    0    1
 -2       893       997       975      3844      3845      3783
 -1      1894    8    0    1
 -2       920       892       998      3600      3846      3847
 -1      1895    8    0    1
 -2       892       975       998      3784      3848      3846
 -1      1896    8    0    1
 -2       862       860       999      3427      3849      3850
 -1      1897    8    0    1
 -2       860       946       999      3697      3851      3849
 -1      1898    8    0    1
 -2       944       907      1000      3690      3852      3853
 -1      1899    8    0    1
 -2       928       944      1001      3688      3854      3855
 -1      1900    8    0    1
 -2       988       928      1001      3819      3855      3856
 -1      1901    8    0    1
 -2       944      1000      1001      3853      3857      3854
 -1      1902    8    0    1
 -2       850       915       932      3828      3858      3646
 -1      1903    8    0    1
 -2       948       862       999      3701      3850      3859
 -1      1904    8    0    1
 -2       927       829       945      3627      3694      3860
 -1      1905    8    0    1
 -2       932       915      1002      3858      3861      3862
 -1      1906    8    0    1
 -2       907       932      1002      3645      3862      3863
 -1      1907    8    0    1
 -2       915       908      1002      3582      3864      3861
 -1      1908    8    0    1
 -2       861       973       993      3778      3865      3834
 -1      1909    8    0    1
 -2       970       934      1003      3769      3866      3867
 -1      1910    8    0    1
 -2       749       849       931      3371      3868      3640
 -1      1911    8    0    1
 -2       907      1002      1000      3863      3869      3852
 -1      1912    8    0    1
 -2       888       972       945      3774      3870      3695
 -1      1913    8    0    1
 -2       973       911      1004      3777      3871      3872
 -1      1914    8    0    1
 -2       911       937      1004      3663      3873      3871
 -1      1915    8    0    1
 -2       912       927      1005      3626      3874      3875
 -1      1916    8    0    1
 -2       986       906       921      3814      3876      3877
 -1      1917    8    0    1
 -2       906       931       921      3643      3878      3876
 -1      1918    8    0    1
 -2       916       988       994      3820      3879      3836
 -1      1919    8    0    1
 -2       933       851       993      3649      3835      3880
 -1      1920    8    0    1
 -2       890       919      1006      3596      3881      3882
 -1      1921    8    0    1
 -2       890      1006       991      3882      3883      3829
 -1      1922    8    0    1
 -2       995       891      1007      3838      3884      3885
 -1      1923    8    0    1
 -2       891       922      1007      3605      3886      3884
 -1      1924    8    0    1
 -2       920       998      1008      3847      3887      3888
 -1      1925    8    0    1
 -2       920      1008       922      3888      3889      3606
 -1      1926    8    0    1
 -2       908       989      1002      3822      3890      3864
 -1      1927    8    0    1
 -2       935       859       994      3658      3837      3891
 -1      1928    8    0    1
 -2       937       856       969      3664      3776      3892
 -1      1929    8    0    1
 -2       938       834       941      3667      3678      3893
 -1      1930    8    0    1
 -2       910       857       943      3833      3684      3894
 -1      1931    8    0    1
 -2       941       917      1009      3679      3895      3896
 -1      1932    8    0    1
 -2       917       995      1009      3839      3897      3895
 -1      1933    8    0    1
 -2       992       913      1010      3831      3898      3899
 -1      1934    8    0    1
 -2       913       938      1010      3666      3900      3898
 -1      1935    8    0    1
 -2       942       936      1011      3682      3901      3902
 -1      1936    8    0    1
 -2       943       942      1012      3685      3903      3904
 -1      1937    8    0    1
 -2       942      1011      1012      3902      3905      3903
 -1      1938    8    0    1
 -2       934       939      1013      3671      3906      3907
 -1      1939    8    0    1
 -2       934      1013      1003      3907      3908      3866
 -1      1940    8    0    1
 -2       894       996       997      3841      3909      3843
 -1      1941    8    0    1
 -2       919       889      1014      3597      3910      3911
 -1      1942    8    0    1
 -2      1006       919      1014      3881      3911      3912
 -1      1943    8    0    1
 -2       889       992      1014      3832      3913      3910
 -1      1944    8    0    1
 -2       912      1005      1015      3875      3914      3915
 -1      1945    8    0    1
 -2       912      1015       936      3915      3916      3661
 -1      1946    8    0    1
 -2       849       921       931      3624      3878      3868
 -1      1947    8    0    1
 -2       935       994       971      3891      3917      3772
 -1      1948    8    0    1
 -2       997       996      1016      3909      3918      3919
 -1      1949    8    0    1
 -2       950       949      1017      3708      3920      3921
 -1      1950    8    0    1
 -2       951       950      1018      3711      3922      3923
 -1      1951    8    0    1
 -2       950      1017      1018      3921      3924      3922
 -1      1952    8    0    1
 -2       952       951      1019      3714      3925      3926
 -1      1953    8    0    1
 -2       951      1018      1019      3923      3927      3925
 -1      1954    8    0    1
 -2       953       952      1020      3717      3928      3929
 -1      1955    8    0    1
 -2       952      1019      1020      3926      3930      3928
 -1      1956    8    0    1
 -2       954       953      1021      3720      3931      3932
 -1      1957    8    0    1
 -2       953      1020      1021      3929      3933      3931
 -1      1958    8    0    1
 -2       955       954      1022      3723      3934      3935
 -1      1959    8    0    1
 -2       954      1021      1022      3932      3936      3934
 -1      1960    8    0    1
 -2       956       955      1023      3726      3937      3938
 -1      1961    8    0    1
 -2       955      1022      1023      3935      3939      3937
 -1      1962    8    0    1
 -2       957       956      1024      3729      3940      3941
 -1      1963    8    0    1
 -2       956      1023      1024      3938      3942      3940
 -1      1964    8    0    1
 -2       958       957      1025      3732      3943      3944
 -1      1965    8    0    1
 -2       957      1024      1025      3941      3945      3943
 -1      1966    8    0    1
 -2       959       958      1026      3735      3946      3947
 -1      1967    8    0    1
 -2       958      1025      1026      3944      3948      3946
 -1      1968    8    0    1
 -2       960       959      1027      3738      3949      3950
 -1      1969    8    0    1
 -2       959      1026      1027      3947      3951      3949
 -1      1970    8    0    1
 -2       961       960      1028      3741      3952      3953
 -1      1971    8    0    1
 -2       960      1027      1028      3950      3954      3952
 -1      1972    8    0    1
 -2       962       961      1029      3744      3955      3956
 -1      1973    8    0    1
 -2       961      1028      1029      3953      3957      3955
 -1      1974    8    0    1
 -2       963       962      1030      3747      3958      3959
 -1      1975    8    0    1
 -2       962      1029      1030      3956      3960      3958
 -1      1976    8    0    1
 -2       964       963      1031      3750      3961      3962
 -1      1977    8    0    1
 -2       963      1030      1031      3959      3963      3961
 -1      1978    8    0    1
 -2       965       964      1032      3753      3964      3965
 -1      1979    8    0    1
 -2       964      1031      1032      3962      3966      3964
 -1      1980    8    0    1
 -2       966       965      1033      3756      3967      3968
 -1      1981    8    0    1
 -2       965      1032      1033      3965      3969      3967
 -1      1982    8    0    1
 -2       967       966      1034      3759      3970      3971
 -1      1983    8    0    1
 -2       966      1033      1034      3968      3972      3970
 -1      1984    8    0    1
 -2       968       967      1035      3762      3973      3974
 -1      1985    8    0    1
 -2       967      1034      1035      3971      3975      3973
 -1      1986    8    0    1
 -2       969       968      1036      3765      3976      3977
 -1      1987    8    0    1
 -2       968      1035      1036      3974      3978      3976
 -1      1988    8    0    1
 -2       978       979      1037      3795      3979      3980
 -1      1989    8    0    1
 -2       971       994      1038      3917      3981      3982
 -1      1990    8    0    1
 -2       994       988      1038      3879      3983      3981
 -1      1991    8    0    1
 -2       947       925       991      3766      3984      3985
 -1      1992    8    0    1
 -2       972       971      1038      3775      3982      3986
 -1      1993    8    0    1
 -2      1000      1002       989      3869      3890      3987
 -1      1994    8    0    1
 -2       977       978      1039      3792      3988      3989
 -1      1995    8    0    1
 -2       978      1037      1039      3980      3990      3988
 -1      1996    8    0    1
 -2       975       997      1040      3845      3991      3992
 -1      1997    8    0    1
 -2       997      1016      1040      3919      3993      3991
 -1      1998    8    0    1
 -2       976       977      1041      3789      3994      3995
 -1      1999    8    0    1
 -2       977      1039      1041      3989      3996      3994
 -1      2000    8    0    1
 -2       979       980      1042      3798      3997      3998
 -1      2001    8    0    1
 -2       979      1042      1037      3998      3999      3979
 -1      2002    8    0    1
 -2       980       981      1043      3801      4000      4001
 -1      2003    8    0    1
 -2       980      1043      1042      4001      4002      3997
 -1      2004    8    0    1
 -2       981       982      1044      3804      4003      4004
 -1      2005    8    0    1
 -2       981      1044      1043      4004      4005      4000
 -1      2006    8    0    1
 -2       982       983      1045      3807      4006      4007
 -1      2007    8    0    1
 -2       982      1045      1044      4007      4008      4003
 -1      2008    8    0    1
 -2       983       984      1046      3810      4009      4010
 -1      2009    8    0    1
 -2       983      1046      1045      4010      4011      4006
 -1      2010    8    0    1
 -2       984       985      1047      3813      4012      4013
 -1      2011    8    0    1
 -2       984      1047      1046      4013      4014      4009
 -1      2012    8    0    1
 -2       985       986      1048      3816      4015      4016
 -1      2013    8    0    1
 -2       985      1048      1047      4016      4017      4012
 -1      2014    8    0    1
 -2       987       910       943      3817      3894      4018
 -1      2015    8    0    1
 -2       933       993      1048      3880      4019      4020
 -1      2016    8    0    1
 -2       993       973      1049      3865      4021      4022
 -1      2017    8    0    1
 -2       993      1049      1048      4022      4023      4019
 -1      2018    8    0    1
 -2       996       976      1050      3842      4024      4025
 -1      2019    8    0    1
 -2       996      1050      1016      4025      4026      3918
 -1      2020    8    0    1
 -2       858       930       926      3669      4027      3623
 -1      2021    8    0    1
 -2       970      1003      1051      3867      4028      4029
 -1      2022    8    0    1
 -2       970      1051       974      4029      4030      3782
 -1      2023    8    0    1
 -2      1011       936      1015      3901      3916      4031
 -1      2024    8    0    1
 -2       937       969      1036      3892      3977      4032
 -1      2025    8    0    1
 -2       927       945       972      3860      3870      4033
 -1      2026    8    0    1
 -2       998       975      1052      3848      4034      4035
 -1      2027    8    0    1
 -2       975      1040      1052      3992      4036      4034
 -1      2028    8    0    1
 -2       949       948      1053      3705      4037      4038
 -1      2029    8    0    1
 -2       949      1053      1017      4038      4039      3920
 -1      2030    8    0    1
 -2       938       941      1054      3893      4040      4041
 -1      2031    8    0    1
 -2       941      1009      1054      3896      4042      4040
 -1      2032    8    0    1
 -2       999       946      1055      3851      4043      4044
 -1      2033    8    0    1
 -2       948       999      1056      3859      4045      4046
 -1      2034    8    0    1
 -2       999      1055      1056      4044      4047      4045
 -1      2035    8    0    1
 -2       925       926       930      3622      4027      4048
 -1      2036    8    0    1
 -2       987       943      1012      4018      3904      4049
 -1      2037    8    0    1
 -2       925       930       991      4048      3830      3984
 -1      2038    8    0    1
 -2       939       947      1057      3700      4050      4051
 -1      2039    8    0    1
 -2       987      1012       989      4049      4052      3823
 -1      2040    8    0    1
 -2       927       972      1005      4033      4053      3874
 -1      2041    8    0    1
 -2      1000       989      1012      3987      4052      4054
 -1      2042    8    0    1
 -2       939      1057      1013      4051      4055      3906
 -1      2043    8    0    1
 -2       976      1041      1050      3995      4056      4024
 -1      2044    8    0    1
 -2       947       991      1057      3985      4057      4050
 -1      2045    8    0    1
 -2      1004       937      1036      3873      4032      4058
 -1      2046    8    0    1
 -2       972      1038      1005      3986      4059      4053
 -1      2047    8    0    1
 -2      1011      1015      1001      4031      4060      4061
 -1      2048    8    0    1
 -2      1000      1012      1011      4054      3905      4062
 -1      2049    8    0    1
 -2       940       974       990      3781      4063      3827
 -1      2050    8    0    1
 -2       986       921       933      3877      3651      4064
 -1      2051    8    0    1
 -2      1048       986       933      4015      4064      4020
 -1      2052    8    0    1
 -2      1049       973      1058      4021      4065      4066
 -1      2053    8    0    1
 -2       973      1004      1058      3872      4067      4065
 -1      2054    8    0    1
 -2       938      1054      1010      4041      4068      3900
 -1      2055    8    0    1
 -2      1007       922      1008      3886      3889      4069
 -1      2056    8    0    1
 -2      1008       998      1059      3887      4070      4071
 -1      2057    8    0    1
 -2       998      1052      1059      4035      4072      4070
 -1      2058    8    0    1
 -2       995      1007      1060      3885      4073      4074
 -1      2059    8    0    1
 -2      1005      1038       988      4059      3983      4075
 -1      2060    8    0    1
 -2      1057       991      1061      4057      4076      4077
 -1      2061    8    0    1
 -2       991      1006      1061      3883      4078      4076
 -1      2062    8    0    1
 -2      1001      1000      1011      3857      4062      4061
 -1      2063    8    0    1
 -2      1009       995      1062      3897      4079      4080
 -1      2064    8    0    1
 -2       995      1060      1062      4074      4081      4079
 -1      2065    8    0    1
 -2      1051      1003      1063      4028      4082      4083
 -1      2066    8    0    1
 -2       992      1010      1064      3899      4084      4085
 -1      2067    8    0    1
 -2      1014       992      1065      3913      4086      4087
 -1      2068    8    0    1
 -2       992      1064      1065      4085      4088      4086
 -1      2069    8    0    1
 -2      1003      1013      1066      3908      4089      4090
 -1      2070    8    0    1
 -2      1003      1066      1063      4090      4091      4082
 -1      2071    8    0    1
 -2      1053       948      1056      4037      4046      4092
 -1      2072    8    0    1
 -2       988      1001      1015      3856      4060      4093
 -1      2073    8    0    1
 -2      1005       988      1015      4075      4093      3914
 -1      2074    8    0    1
 -2      1013      1057      1067      4055      4094      4095
 -1      2075    8    0    1
 -2      1066      1013      1067      4089      4095      4096
 -1      2076    8    0    1
 -2      1057      1061      1067      4077      4097      4094
 -1      2077    8    0    1
 -2       974      1051       990      4030      4098      4063
 -1      2078    8    0    1
 -2      1017      1053      1068      4039      4099      4100
 -1      2079    8    0    1
 -2      1019      1018      1069      3927      4101      4102
 -1      2080    8    0    1
 -2      1020      1019      1070      3930      4103      4104
 -1      2081    8    0    1
 -2      1019      1069      1070      4102      4105      4103
 -1      2082    8    0    1
 -2      1021      1020      1071      3933      4106      4107
 -1      2083    8    0    1
 -2      1020      1070      1071      4104      4108      4106
 -1      2084    8    0    1
 -2      1022      1021      1072      3936      4109      4110
 -1      2085    8    0    1
 -2      1021      1071      1072      4107      4111      4109
 -1      2086    8    0    1
 -2      1023      1022      1073      3939      4112      4113
 -1      2087    8    0    1
 -2      1022      1072      1073      4110      4114      4112
 -1      2088    8    0    1
 -2      1024      1023      1074      3942      4115      4116
 -1      2089    8    0    1
 -2      1023      1073      1074      4113      4117      4115
 -1      2090    8    0    1
 -2      1025      1024      1075      3945      4118      4119
 -1      2091    8    0    1
 -2      1024      1074      1075      4116      4120      4118
 -1      2092    8    0    1
 -2      1026      1025      1076      3948      4121      4122
 -1      2093    8    0    1
 -2      1025      1075      1076      4119      4123      4121
 -1      2094    8    0    1
 -2      1027      1026      1077      3951      4124      4125
 -1      2095    8    0    1
 -2      1026      1076      1077      4122      4126      4124
 -1      2096    8    0    1
 -2      1028      1027      1078      3954      4127      4128
 -1      2097    8    0    1
 -2      1027      1077      1078      4125      4129      4127
 -1      2098    8    0    1
 -2      1029      1028      1079      3957      4130      4131
 -1      2099    8    0    1
 -2      1028      1078      1079      4128      4132      4130
 -1      2100    8    0    1
 -2      1030      1029      1080      3960      4133      4134
 -1      2101    8    0    1
 -2      1029      1079      1080      4131      4135      4133
 -1      2102    8    0    1
 -2      1031      1030      1081      3963      4136      4137
 -1      2103    8    0    1
 -2      1030      1080      1081      4134      4138      4136
 -1      2104    8    0    1
 -2      1032      1031      1082      3966      4139      4140
 -1      2105    8    0    1
 -2      1031      1081      1082      4137      4141      4139
 -1      2106    8    0    1
 -2      1033      1032      1083      3969      4142      4143
 -1      2107    8    0    1
 -2      1032      1082      1083      4140      4144      4142
 -1      2108    8    0    1
 -2      1034      1033      1084      3972      4145      4146
 -1      2109    8    0    1
 -2      1033      1083      1084      4143      4147      4145
 -1      2110    8    0    1
 -2      1035      1034      1085      3975      4148      4149
 -1      2111    8    0    1
 -2      1034      1084      1085      4146      4150      4148
 -1      2112    8    0    1
 -2      1042      1043      1086      4002      4151      4152
 -1      2113    8    0    1
 -2      1039      1037      1087      3990      4153      4154
 -1      2114    8    0    1
 -2      1040      1016      1088      3993      4155      4156
 -1      2115    8    0    1
 -2      1041      1039      1089      3996      4157      4158
 -1      2116    8    0    1
 -2      1039      1087      1089      4154      4159      4157
 -1      2117    8    0    1
 -2      1043      1044      1090      4005      4160      4161
 -1      2118    8    0    1
 -2      1043      1090      1086      4161      4162      4151
 -1      2119    8    0    1
 -2      1044      1045      1091      4008      4163      4164
 -1      2120    8    0    1
 -2      1044      1091      1090      4164      4165      4160
 -1      2121    8    0    1
 -2      1045      1046      1092      4011      4166      4167
 -1      2122    8    0    1
 -2      1045      1092      1091      4167      4168      4163
 -1      2123    8    0    1
 -2      1046      1047      1093      4014      4169      4170
 -1      2124    8    0    1
 -2      1046      1093      1092      4170      4171      4166
 -1      2125    8    0    1
 -2      1047      1048      1049      4017      4023      4172
 -1      2126    8    0    1
 -2       946       990      1051      3826      4098      4173
 -1      2127    8    0    1
 -2      1016      1050      1094      4026      4174      4175
 -1      2128    8    0    1
 -2      1016      1094      1088      4175      4176      4155
 -1      2129    8    0    1
 -2      1047      1049      1093      4172      4177      4169
 -1      2130    8    0    1
 -2       946      1051      1055      4173      4178      4043
 -1      2131    8    0    1
 -2      1064      1010      1095      4084      4179      4180
 -1      2132    8    0    1
 -2      1010      1054      1095      4068      4181      4179
 -1      2133    8    0    1
 -2      1053      1056      1096      4092      4182      4183
 -1      2134    8    0    1
 -2      1053      1096      1068      4183      4184      4099
 -1      2135    8    0    1
 -2      1004      1036      1058      4058      4185      4067
 -1      2136    8    0    1
 -2      1007      1008      1097      4069      4186      4187
 -1      2137    8    0    1
 -2      1060      1007      1097      4073      4187      4188
 -1      2138    8    0    1
 -2      1008      1059      1097      4071      4189      4186
 -1      2139    8    0    1
 -2      1050      1041      1098      4056      4190      4191
 -1      2140    8    0    1
 -2      1041      1089      1098      4158      4192      4190
 -1      2141    8    0    1
 -2      1052      1040      1099      4036      4193      4194
 -1      2142    8    0    1
 -2      1040      1088      1099      4156      4195      4193
 -1      2143    8    0    1
 -2      1006      1014      1100      3912      4196      4197
 -1      2144    8    0    1
 -2      1061      1006      1100      4078      4197      4198
 -1      2145    8    0    1
 -2      1014      1065      1100      4087      4199      4196
 -1      2146    8    0    1
 -2      1037      1042      1101      3999      4200      4201
 -1      2147    8    0    1
 -2      1037      1101      1087      4201      4202      4153
 -1      2148    8    0    1
 -2      1054      1009      1102      4042      4203      4204
 -1      2149    8    0    1
 -2      1009      1062      1102      4080      4205      4203
 -1      2150    8    0    1
 -2      1018      1017      1103      3924      4206      4207
 -1      2151    8    0    1
 -2      1069      1018      1103      4101      4207      4208
 -1      2152    8    0    1
 -2      1017      1068      1103      4100      4209      4206
 -1      2153    8    0    1
 -2      1051      1063      1055      4083      4210      4178
 -1      2154    8    0    1
 -2      1055      1063      1056      4210      4211      4047
 -1      2155    8    0    1
 -2      1056      1063      1104      4211      4212      4213
 -1      2156    8    0    1
 -2      1096      1056      1104      4182      4213      4214
 -1      2157    8    0    1
 -2      1063      1066      1104      4091      4215      4212
 -1      2158    8    0    1
 -2      1058      1036      1035      4185      3978      4216
 -1      2159    8    0    1
 -2      1035      1085      1058      4149      4217      4216
 -1      2160    8    0    1
 -2      1042      1086      1101      4152      4218      4200
 -1      2161    8    0    1
 -2      1093      1049      1058      4177      4066      4219
 -1      2162    8    0    1
 -2      1062      1060      1105      4081      4220      4221
 -1      2163    8    0    1
 -2      1052      1099      1106      4194      4222      4223
 -1      2164    8    0    1
 -2      1052      1106      1059      4223      4224      4072
 -1      2165    8    0    1
 -2      1094      1050      1098      4174      4191      4225
 -1      2166    8    0    1
 -2      1060      1097      1107      4188      4226      4227
 -1      2167    8    0    1
 -2      1060      1107      1105      4227      4228      4220
 -1      2168    8    0    1
 -2      1095      1054      1102      4181      4204      4229
 -1      2169    8    0    1
 -2      1064      1095      1108      4180      4230      4231
 -1      2170    8    0    1
 -2      1065      1064      1109      4088      4232      4233
 -1      2171    8    0    1
 -2      1064      1108      1109      4231      4234      4232
 -1      2172    8    0    1
 -2      1070      1069      1110      4105      4235      4236
 -1      2173    8    0    1
 -2      1071      1070      1105      4108      4237      4238
 -1      2174    8    0    1
 -2      1072      1071      1107      4111      4239      4240
 -1      2175    8    0    1
 -2      1074      1073      1111      4117      4241      4242
 -1      2176    8    0    1
 -2      1075      1074      1099      4120      4243      4244
 -1      2177    8    0    1
 -2      1076      1075      1088      4123      4245      4246
 -1      2178    8    0    1
 -2      1077      1076      1094      4126      4247      4248
 -1      2179    8    0    1
 -2      1078      1077      1098      4129      4249      4250
 -1      2180    8    0    1
 -2      1079      1078      1089      4132      4251      4252
 -1      2181    8    0    1
 -2      1080      1079      1087      4135      4253      4254
 -1      2182    8    0    1
 -2      1081      1080      1101      4138      4255      4256
 -1      2183    8    0    1
 -2      1082      1081      1086      4141      4257      4258
 -1      2184    8    0    1
 -2      1083      1082      1090      4144      4259      4260
 -1      2185    8    0    1
 -2      1084      1083      1091      4147      4261      4262
 -1      2186    8    0    1
 -2      1085      1084      1092      4150      4263      4264
 -1      2187    8    0    1
 -2      1090      1091      1083      4165      4261      4260
 -1      2188    8    0    1
 -2      1086      1090      1082      4162      4259      4258
 -1      2189    8    0    1
 -2      1095      1102      1112      4229      4265      4266
 -1      2190    8    0    1
 -2      1095      1112      1108      4266      4267      4230
 -1      2191    8    0    1
 -2      1105      1070      1110      4237      4236      4268
 -1      2192    8    0    1
 -2      1091      1092      1084      4168      4263      4262
 -1      2193    8    0    1
 -2      1092      1093      1085      4171      4269      4264
 -1      2194    8    0    1
 -2      1088      1075      1099      4245      4244      4195
 -1      2195    8    0    1
 -2      1094      1098      1077      4225      4249      4248
 -1      2196    8    0    1
 -2      1098      1089      1078      4192      4251      4250
 -1      2197    8    0    1
 -2      1093      1058      1085      4219      4217      4269
 -1      2198    8    0    1
 -2      1086      1081      1101      4257      4256      4218
 -1      2199    8    0    1
 -2      1097      1059      1113      4189      4270      4271
 -1      2200    8    0    1
 -2      1107      1097      1113      4226      4271      4272
 -1      2201    8    0    1
 -2      1059      1106      1113      4224      4273      4270
 -1      2202    8    0    1
 -2      1101      1080      1087      4255      4254      4202
 -1      2203    8    0    1
 -2      1062      1105      1110      4221      4268      4274
 -1      2204    8    0    1
 -2      1087      1079      1089      4253      4252      4159
 -1      2205    8    0    1
 -2      1102      1062      1110      4205      4274      4275
 -1      2206    8    0    1
 -2      1068      1096      1114      4184      4276      4277
 -1      2207    8    0    1
 -2      1088      1094      1076      4176      4247      4246
 -1      2208    8    0    1
 -2      1071      1105      1107      4238      4228      4239
 -1      2209    8    0    1
 -2      1072      1107      1113      4240      4272      4278
 -1      2210    8    0    1
 -2      1073      1072      1113      4114      4278      4279
 -1      2211    8    0    1
 -2      1108      1112      1103      4267      4280      4281
 -1      2212    8    0    1
 -2      1061      1100      1115      4198      4282      4283
 -1      2213    8    0    1
 -2      1061      1115      1067      4283      4284      4097
 -1      2214    8    0    1
 -2      1112      1102      1110      4265      4275      4285
 -1      2215    8    0    1
 -2      1066      1067      1115      4096      4284      4286
 -1      2216    8    0    1
 -2      1104      1066      1115      4215      4286      4287
 -1      2217    8    0    1
 -2      1099      1074      1111      4243      4242      4288
 -1      2218    8    0    1
 -2      1096      1104      1114      4214      4289      4276
 -1      2219    8    0    1
 -2      1100      1065      1116      4199      4290      4291
 -1      2220    8    0    1
 -2      1115      1100      1116      4282      4291      4292
 -1      2221    8    0    1
 -2      1065      1109      1116      4233      4293      4290
 -1      2222    8    0    1
 -2      1103      1068      1108      4209      4294      4281
 -1      2223    8    0    1
 -2      1108      1068      1114      4294      4277      4295
 -1      2224    8    0    1
 -2      1110      1069      1112      4235      4296      4285
 -1      2225    8    0    1
 -2      1112      1069      1103      4296      4208      4280
 -1      2226    8    0    1
 -2      1111      1073      1113      4241      4279      4297
 -1      2227    8    0    1
 -2      1104      1115      1116      4287      4292      4298
 -1      2228    8    0    1
 -2      1108      1114      1109      4295      4299      4234
 -1      2229    8    0    1
 -2      1106      1099      1111      4222      4288      4300
 -1      2230    8    0    1
 -2      1114      1104      1116      4289      4298      4301
 -1      2231    8    0    1
 -2      1111      1113      1106      4297      4273      4300
 -1      2232    8    0    1
 -2      1116      1109      1114      4293      4299      4301
 -3
    1PSTEP                         1           1           1          
  100CL  101 1.000000000        4301                     0    1           1
 -4  DISP        4    1
 -5  D1          1    2    1    0
 -5  D2          1    2    2    0
 -5  D3          1    2    3    0
 -5  ALL         1    2    0    0    1ALL
 -1         1 1.18381E-02-8.50845E-04-5.23583E-14
 -1         2 1.29543E-02-1.08298E-04-5.42144E-14
 -1         3 1.48872E-02 3.02626E-04-7.78570E-14
 -1         4 1.51498E-02-7.39776E-04-8.62697E-14
 -1         5 0.00000E+00 0.00000E+00 0.00000E+00
 -1         6 0.00000E+00 0.00000E+00 0.00000E+00
 -1         7 0.00000E+00 0.00000E+00 0.00000E+00
 -1         8 0.00000E+00 0.00000E+00 0.00000E+00
 -1         9 0.00000E+00 0.00000E+00 0.00000E+00
 -1        10 0.00000E+00 0.00000E+00 0.00000E+00
 -1        11 0.00000E+00 0.00000E+00 0.00000E+00
 -1        12 0.00000E+00 0.00000E+00 0.00000E+00
 -1        13 0.00000E+00 0.00000E+00 0.00000E+00
 -1        14 0.00000E+00 0.00000E+00 0.00000E+00
 -1        15 0.00000E+00 0.00000E+00 0.00000E+00
 -1        16 0.00000E+00 0.00000E+00 0.00000E+00
 -1        17 0.00000E+00 0.00000E+00 0.00000E+00
 -1        18 0.00000E+00 0.00000E+00 0.00000E+00
 -1        19 0.00000E+00 0.00000E+00 0.00000E+00
 -1        20 0.00000E+00 0.00000E+00 0.00000E+00
 -1        21 0.00000E+00 0.00000E+00 0.00000E+00
 -1        22 0.00000E+00 0.00000E+00 0.00000E+00
 -1        23 4.11357E-04-2.60759E-04 4.38763E-18
 -1        24 7.03294E-04-4.01035E-04-1.14075E-16
 -1        25 9.73294E-04-4.98426E-04-3.49560E-16
 -1        26 1.23770E-03-5.67162E-04-6.96630E-16
 -1        27 1.50112E-03-6.16379E-04-1.15087E-15
 -1        28 1.76566E-03-6.51454E-04-1.70845E-15
 -1        29 2.03225E-03-6.76082E-04-2.36472E-15
 -1        30 2.30128E-03-6.92942E-04-3.11611E-15
 -1        31 2.57279E-03-7.04030E-04-3.96023E-15
 -1        32 2.84664E-03-7.10846E-04-4.89663E-15
 -1        33 3.12263E-03-7.14506E-04-5.91941E-15
 -1        34 3.40050E-03-7.15829E-04-7.02067E-15
 -1        35 3.68000E-03-7.15400E-04-8.19972E-15
 -1        36 3.96092E-03-7.13617E-04-9.45531E-15
 -1        37 4.24313E-03-7.10738E-04-1.07848E-14
 -1        38 4.52654E-03-7.06911E-04-1.21837E-14
 -1        39 4.81116E-03-7.02215E-04-1.36453E-14
 -1        40 5.09713E-03-6.96686E-04-1.51735E-14
 -1        41 5.38471E-03-6.90358E-04-1.67688E-14
 -1        42 5.67429E-03-6.83303E-04-1.84299E-14
 -1        43 5.96646E-03-6.75682E-04-2.01530E-14
 -1        44 6.26201E-03-6.67817E-04-2.19353E-14
 -1        45 6.56193E-03-6.60277E-04-2.37758E-14
 -1        46 6.86745E-03-6.54000E-04-2.56787E-14
 -1        47 7.18000E-03-6.50437E-04-2.76396E-14
 -1        48 7.50110E-03-6.51729E-04-2.96538E-14
 -1        49 7.83215E-03-6.60876E-04-3.17189E-14
 -1        50 8.17404E-03-6.81833E-04-3.38388E-14
 -1        51 8.52647E-03-7.19355E-04-3.60064E-14
 -1        52 8.88699E-03-7.78336E-04-3.82195E-14
 -1        53 9.25002E-03-8.62230E-04-4.04596E-14
 -1        54 9.60638E-03-9.70353E-04-4.27271E-14
 -1        55 9.94453E-03-1.09447E-03-4.50295E-14
 -1        56 1.02546E-02-1.21665E-03-4.73627E-14
 -1        57 1.05341E-02-1.31172E-03-4.97252E-14
 -1        58 1.07927E-02-1.35604E-03-5.20985E-14
 -1        59 1.10493E-02-1.33884E-03-5.44880E-14
 -1        60 1.13236E-02-1.26824E-03-5.68717E-14
 -1        61 1.16265E-02-1.16664E-03-5.92540E-14
 -1        62 1.19571E-02-1.05942E-03-6.16366E-14
 -1        63 1.23059E-02-9.65448E-04-6.40310E-14
 -1        64 1.26611E-02-8.93804E-04-6.64385E-14
 -1        65 1.30126E-02-8.45421E-04-6.88663E-14
 -1        66 1.33541E-02-8.16402E-04-7.13148E-14
 -1        67 1.36826E-02-8.00839E-04-7.37857E-14
 -1        68 1.39975E-02-7.92516E-04-7.62777E-14
 -1        69 1.42999E-02-7.85736E-04-7.87806E-14
 -1        70 1.45924E-02-7.75789E-04-8.12938E-14
 -1        71 1.48790E-02-7.59825E-04-8.38319E-14
 -1        72 4.13801E-04 2.61463E-04 6.04477E-17
 -1        73 7.03115E-04 4.03738E-04 4.34934E-17
 -1        74 9.73829E-04 5.00196E-04-5.10422E-17
 -1        75 1.23852E-03 5.68872E-04-2.28289E-16
 -1        76 1.50208E-03 6.18138E-04-4.89263E-16
 -1        77 1.76668E-03 6.53303E-04-8.34385E-16
 -1        78 2.03332E-03 6.78041E-04-1.26507E-15
 -1        79 2.30237E-03 6.95023E-04-1.77959E-15
 -1        80 2.57389E-03 7.06239E-04-2.37446E-15
 -1        81 2.84776E-03 7.13186E-04-3.05196E-15
 -1        82 3.12376E-03 7.16980E-04-3.81463E-15
 -1        83 3.40164E-03 7.18440E-04-4.65701E-15
 -1        84 3.68115E-03 7.18151E-04-5.58110E-15
 -1        85 3.96209E-03 7.16515E-04-6.58521E-15
 -1        86 4.24431E-03 7.13793E-04-7.66662E-15
 -1        87 4.52774E-03 7.10140E-04-8.82781E-15
 -1        88 4.81240E-03 7.05643E-04-1.00657E-14
 -1        89 5.09839E-03 7.00355E-04-1.13725E-14
 -1        90 5.38597E-03 6.94329E-04-1.27468E-14
 -1        91 5.67553E-03 6.87664E-04-1.41853E-14
 -1        92 5.96759E-03 6.80556E-04-1.56874E-14
 -1        93 6.26287E-03 6.73366E-04-1.72530E-14
 -1        94 6.56224E-03 6.66701E-04-1.88841E-14
 -1        95 6.86670E-03 6.61512E-04-2.05704E-14
 -1        96 7.17737E-03 6.59212E-04-2.23043E-14
 -1        97 7.49527E-03 6.61780E-04-2.40818E-14
 -1        98 7.82116E-03 6.71830E-04-2.58952E-14
 -1        99 8.15510E-03 6.92555E-04-2.77419E-14
 -1       100 8.49594E-03 7.27420E-04-2.96316E-14
 -1       101 8.84069E-03 7.79411E-04-3.15739E-14
 -1       102 9.18403E-03 8.49676E-04-3.35659E-14
 -1       103 9.51854E-03 9.35602E-04-3.56171E-14
 -1       104 9.83603E-03 1.02892E-03-3.77221E-14
 -1       105 1.01306E-02 1.11520E-03-3.98772E-14
 -1       106 1.04021E-02 1.17635E-03-4.20914E-14
 -1       107 1.06584E-02 1.19649E-03-4.43500E-14
 -1       108 1.09131E-02 1.16868E-03-4.66448E-14
 -1       109 1.11805E-02 1.09819E-03-4.89807E-14
 -1       110 1.14691E-02 9.99917E-04-5.13354E-14
 -1       111 1.17799E-02 8.91853E-04-5.37030E-14
 -1       112 1.21073E-02 7.88849E-04-5.60767E-14
 -1       113 1.24427E-02 6.99602E-04-5.84557E-14
 -1       114 1.27783E-02 6.26788E-04-6.08576E-14
 -1       115 1.31081E-02 5.68824E-04-6.32773E-14
 -1       116 1.34287E-02 5.21804E-04-6.56936E-14
 -1       117 1.37387E-02 4.80943E-04-6.81241E-14
 -1       118 1.40385E-02 4.41482E-04-7.05741E-14
 -1       119 1.43300E-02 3.99307E-04-7.30408E-14
 -1       120 1.46163E-02 3.51824E-04-7.55080E-14
 -1       121 1.49393E-02 2.17818E-04-7.83605E-14
 -1       122 1.49957E-02 1.34213E-04-7.88691E-14
 -1       123 1.50571E-02 5.56300E-05-7.93695E-14
 -1       124 1.51210E-02-1.49788E-05-7.98696E-14
 -1       125 1.51832E-02-7.61349E-05-8.03730E-14
 -1       126 1.52386E-02-1.26955E-04-8.08777E-14
 -1       127 1.52848E-02-1.70410E-04-8.13907E-14
 -1       128 1.53175E-02-2.07950E-04-8.18861E-14
 -1       129 1.53346E-02-2.42892E-04-8.23786E-14
 -1       130 1.53356E-02-2.79018E-04-8.28601E-14
 -1       131 1.53221E-02-3.20009E-04-8.33510E-14
 -1       132 1.52975E-02-3.67991E-04-8.38700E-14
 -1       133 1.52653E-02-4.26497E-04-8.43894E-14
 -1       134 1.52306E-02-4.95234E-04-8.48739E-14
 -1       135 1.51983E-02-5.73039E-04-8.53522E-14
 -1       136 1.51714E-02-6.56286E-04-8.58182E-14
 -1       137 1.28872E-02 8.50765E-05-5.38038E-14
 -1       138 1.27240E-02 2.55822E-04-5.31983E-14
 -1       139 1.24700E-02 4.11962E-04-5.23773E-14
 -1       140 1.21656E-02 5.36922E-04-5.14658E-14
 -1       141 1.17689E-02 6.47532E-04-5.03450E-14
 -1       142 1.13376E-02 7.20632E-04-4.91970E-14
 -1       143 1.08711E-02 7.56851E-04-4.80082E-14
 -1       144 1.04068E-02 7.51790E-04-4.68799E-14
 -1       145 9.94538E-03 7.05372E-04-4.58169E-14
 -1       146 9.53675E-03 6.23957E-04-4.49155E-14
 -1       147 9.13513E-03 4.93133E-04-4.40932E-14
 -1       148 8.86127E-03 3.52894E-04-4.36059E-14
 -1       149 8.65273E-03 1.78860E-04-4.33258E-14
 -1       150 8.56574E-03 1.60804E-05-4.33158E-14
 -1       151 8.57268E-03-1.69733E-04-4.35645E-14
 -1       152 8.67537E-03-3.38476E-04-4.40200E-14
 -1       153 8.88487E-03-5.08861E-04-4.47392E-14
 -1       154 9.17648E-03-6.60123E-04-4.56268E-14
 -1       155 9.52359E-03-7.81651E-04-4.66082E-14
 -1       156 9.96718E-03-8.83579E-04-4.78027E-14
 -1       157 1.04607E-02-9.43553E-04-4.90723E-14
 -1       158 1.09313E-02-9.55334E-04-5.02393E-14
 -1       159 1.14127E-02-9.22331E-04-5.13893E-14
 -1       160 1.22234E-02-7.42972E-04-5.31767E-14
 -1       161 1.25431E-02-6.05123E-04-5.37970E-14
 -1       162 1.27692E-02-4.52988E-04-5.41744E-14
 -1       163 1.29087E-02-2.86541E-04-5.43236E-14
 -1       164 2.40379E-04-1.25549E-04-3.55483E-17
 -1       165 2.25250E-04-9.46570E-05-4.69493E-17
 -1       166 2.19519E-04-7.28252E-05-5.19841E-17
 -1       167 2.16718E-04-5.51455E-05-5.38645E-17
 -1       168 2.15235E-04-4.00004E-05-5.38069E-17
 -1       169 2.14408E-04-2.59393E-05-5.26380E-17
 -1       170 2.13995E-04-1.26565E-05-5.09609E-17
 -1       171 2.13875E-04 2.72988E-07-4.90906E-17
 -1       172 2.14014E-04 1.32148E-05-4.68443E-17
 -1       173 2.14450E-04 2.65373E-05-4.38221E-17
 -1       174 2.15285E-04 4.04267E-05-4.01053E-17
 -1       175 2.16823E-04 5.59537E-05-3.46979E-17
 -1       176 2.19667E-04 7.38592E-05-2.69085E-17
 -1       177 2.25427E-04 9.60588E-05-1.49891E-17
 -1       178 2.39308E-04 1.27630E-04 3.68290E-18
 -1       179 2.97676E-04 1.85530E-04 2.43979E-17
 -1       180 4.68571E-04-2.63602E-04-9.22961E-17
 -1       181 7.66664E-04-3.82221E-04-2.84454E-16
 -1       182 1.05045E-03-4.65108E-04-5.83074E-16
 -1       183 1.32777E-03-5.23861E-04-9.86234E-16
 -1       184 1.60228E-03-5.65495E-04-1.49079E-15
 -1       185 1.87606E-03-5.94685E-04-2.09391E-15
 -1       186 2.15025E-03-6.14718E-04-2.79129E-15
 -1       187 2.42545E-03-6.27997E-04-3.58104E-15
 -1       188 2.70191E-03-6.36307E-04-4.46026E-15
 -1       189 2.97973E-03-6.40973E-04-5.42715E-15
 -1       190 3.25886E-03-6.42968E-04-6.47530E-15
 -1       191 3.53924E-03-6.42989E-04-7.60145E-15
 -1       192 3.82076E-03-6.41517E-04-8.80635E-15
 -1       193 4.10337E-03-6.38863E-04-1.00846E-14
 -1       194 4.38700E-03-6.35210E-04-1.14338E-14
 -1       195 4.67170E-03-6.30648E-04-1.28493E-14
 -1       196 4.95753E-03-6.25206E-04-1.43296E-14
 -1       197 5.24469E-03-6.18884E-04-1.58761E-14
 -1       198 5.53344E-03-6.11697E-04-1.74892E-14
 -1       199 5.82419E-03-6.03714E-04-1.91649E-14
 -1       200 6.11745E-03-5.95123E-04-2.09048E-14
 -1       201 6.41391E-03-5.86310E-04-2.27028E-14
 -1       202 6.71436E-03-5.77962E-04-2.45614E-14
 -1       203 7.01976E-03-5.71212E-04-2.64809E-14
 -1       204 7.33109E-03-5.67809E-04-2.84530E-14
 -1       205 7.64936E-03-5.70325E-04-3.04765E-14
 -1       206 7.97533E-03-5.82331E-04-3.25501E-14
 -1       207 8.30925E-03-6.08453E-04-3.46769E-14
 -1       208 8.65043E-03-6.54065E-04-3.68484E-14
 -1       209 8.99674E-03-7.24254E-04-3.90592E-14
 -1       210 9.34416E-03-8.21620E-04-4.12983E-14
 -1       211 9.68682E-03-9.42807E-04-4.35687E-14
 -1       212 1.00182E-02-1.07470E-03-4.58724E-14
 -1       213 1.03339E-02-1.19350E-03-4.82065E-14
 -1       214 1.06349E-02-1.27049E-03-5.05615E-14
 -1       215 1.09292E-02-1.28473E-03-5.29346E-14
 -1       216 1.12279E-02-1.23453E-03-5.53122E-14
 -1       217 1.15396E-02-1.13867E-03-5.76896E-14
 -1       218 1.18661E-02-1.02549E-03-6.00678E-14
 -1       219 1.22036E-02-9.19692E-04-6.24543E-14
 -1       220 1.25454E-02-8.35546E-04-6.48551E-14
 -1       221 1.28853E-02-7.77068E-04-6.72697E-14
 -1       222 1.32190E-02-7.41543E-04-6.97019E-14
 -1       223 1.35438E-02-7.23090E-04-7.21562E-14
 -1       224 1.38589E-02-7.15010E-04-7.46300E-14
 -1       225 1.41646E-02-7.10951E-04-7.71231E-14
 -1       226 1.44622E-02-7.05407E-04-7.96278E-14
 -1       227 1.47534E-02-6.94176E-04-8.21556E-14
 -1       228 6.04489E-04 3.31097E-04-1.13502E-17
 -1       229 8.93525E-04 4.32729E-04-1.20933E-16
 -1       230 1.17234E-03 5.04470E-04-3.10278E-16
 -1       231 1.44661E-03 5.55521E-04-5.81400E-16
 -1       232 1.71932E-03 5.91694E-04-9.35138E-16
 -1       233 1.99210E-03 6.16956E-04-1.37330E-15
 -1       234 2.26580E-03 6.34160E-04-1.89417E-15
 -1       235 2.54081E-03 6.45416E-04-2.49585E-15
 -1       236 2.81730E-03 6.52296E-04-3.17848E-15
 -1       237 3.09525E-03 6.55966E-04-3.94457E-15
 -1       238 3.37458E-03 6.57277E-04-4.79249E-15
 -1       239 3.65520E-03 6.56831E-04-5.72109E-15
 -1       240 3.93698E-03 6.55038E-04-6.72839E-15
 -1       241 4.21986E-03 6.52159E-04-7.81280E-15
 -1       242 4.50382E-03 6.48342E-04-8.97482E-15
 -1       243 4.78888E-03 6.43662E-04-1.02118E-14
 -1       244 5.07517E-03 6.38150E-04-1.15201E-14
 -1       245 5.36289E-03 6.31833E-04-1.28936E-14
 -1       246 5.65237E-03 6.24776E-04-1.43321E-14
 -1       247 5.94402E-03 6.17132E-04-1.58389E-14
 -1       248 6.23841E-03 6.09213E-04-1.74076E-14
 -1       249 6.53618E-03 6.01566E-04-1.90383E-14
 -1       250 6.83809E-03 5.95086E-04-2.07216E-14
 -1       251 7.14495E-03 5.91128E-04-2.24572E-14
 -1       252 7.45748E-03 5.91641E-04-2.42404E-14
 -1       253 7.77621E-03 5.99257E-04-2.60613E-14
 -1       254 8.10120E-03 6.17283E-04-2.79172E-14
 -1       255 8.43170E-03 6.49448E-04-2.98139E-14
 -1       256 8.76585E-03 6.99216E-04-3.17600E-14
 -1       257 9.10036E-03 7.68435E-04-3.37590E-14
 -1       258 9.43064E-03 8.55304E-04-3.58128E-14
 -1       259 9.75152E-03 9.52139E-04-3.79187E-14
 -1       260 1.00590E-02 1.04435E-03-4.00735E-14
 -1       261 1.03524E-02 1.11259E-03-4.22805E-14
 -1       262 1.06359E-02 1.13888E-03-4.45309E-14
 -1       263 1.09176E-02 1.11443E-03-4.68181E-14
 -1       264 1.12060E-02 1.04391E-03-4.91406E-14
 -1       265 1.15068E-02 9.43098E-04-5.14901E-14
 -1       266 1.18205E-02 8.31516E-04-5.38508E-14
 -1       267 1.21439E-02 7.25367E-04-5.62250E-14
 -1       268 1.24718E-02 6.34083E-04-5.86109E-14
 -1       269 1.27989E-02 5.60519E-04-6.10124E-14
 -1       270 1.31216E-02 5.02930E-04-6.34274E-14
 -1       271 1.34373E-02 4.57119E-04-6.58460E-14
 -1       272 1.37451E-02 4.17991E-04-6.82780E-14
 -1       273 1.40452E-02 3.80487E-04-7.07278E-14
 -1       274 1.43388E-02 3.40171E-04-7.31880E-14
 -1       275 1.46274E-02 2.93995E-04-7.56569E-14
 -1       276 1.47195E-02 2.22394E-04-7.64780E-14
 -1       277 1.47800E-02 1.42829E-04-7.69835E-14
 -1       278 1.48450E-02 6.85038E-05-7.74835E-14
 -1       279 1.49108E-02 5.57889E-07-7.79809E-14
 -1       280 1.49718E-02-5.96044E-05-7.84709E-14
 -1       281 1.50255E-02-1.14491E-04-7.89686E-14
 -1       282 1.50667E-02-1.64294E-04-7.94693E-14
 -1       283 1.50924E-02-2.11046E-04-7.99599E-14
 -1       284 1.51011E-02-2.57269E-04-8.04507E-14
 -1       285 1.50935E-02-3.05613E-04-8.09414E-14
 -1       286 1.50723E-02-3.57515E-04-8.14314E-14
 -1       287 1.50409E-02-4.16486E-04-8.19275E-14
 -1       288 1.50044E-02-4.82550E-04-8.24161E-14
 -1       289 1.49682E-02-5.55566E-04-8.28916E-14
 -1       290 1.48590E-02-6.23658E-04-8.25253E-14
 -1       291 1.29590E-02-6.73261E-05-5.52019E-14
 -1       292 1.27919E-02 5.17204E-05-5.43976E-14
 -1       293 1.25163E-02 1.90987E-04-5.35402E-14
 -1       294 1.21839E-02 3.59300E-04-5.24705E-14
 -1       295 1.17891E-02 5.26576E-04-5.13527E-14
 -1       296 1.14158E-02 6.95543E-04-4.99434E-14
 -1       297 1.10283E-02 8.06328E-04-4.85705E-14
 -1       298 1.06538E-02 8.36724E-04-4.72014E-14
 -1       299 1.02724E-02 7.77202E-04-4.59383E-14
 -1       300 9.89299E-03 6.50500E-04-4.47577E-14
 -1       301 9.49692E-03 4.65681E-04-4.36560E-14
 -1       302 9.09743E-03 2.96932E-04-4.30500E-14
 -1       303 8.79641E-03 1.20953E-04-4.23070E-14
 -1       304 8.59077E-03 2.64039E-05-4.24372E-14
 -1       305 8.52404E-03-6.94504E-05-4.23361E-14
 -1       306 8.60979E-03-1.71899E-04-4.29847E-14
 -1       307 8.82627E-03-2.78306E-04-4.35127E-14
 -1       308 9.13677E-03-4.54391E-04-4.45899E-14
 -1       309 9.50128E-03-6.31883E-04-4.56740E-14
 -1       310 9.91178E-03-8.10807E-04-4.69050E-14
 -1       311 1.03209E-02-9.64337E-04-4.83788E-14
 -1       312 1.07136E-02-1.02977E-03-4.98107E-14
 -1       313 1.10992E-02-1.00346E-03-5.11688E-14
 -1       314 1.14829E-02-8.95836E-04-5.24464E-14
 -1       315 1.18709E-02-7.34200E-04-5.35102E-14
 -1       316 1.22546E-02-5.53920E-04-5.43739E-14
 -1       317 1.25910E-02-3.97761E-04-5.49118E-14
 -1       318 1.28339E-02-2.63036E-04-5.52898E-14
 -1       319 1.29692E-02-1.57023E-04-5.54492E-14
 -1       320 4.55268E-04-1.64813E-04-1.73391E-16
 -1       321 4.74211E-04-2.13046E-04-1.57016E-16
 -1       322 4.40471E-04-9.40763E-05-1.82834E-16
 -1       323 4.37529E-04-6.49591E-05-1.81299E-16
 -1       324 4.35922E-04-3.79358E-05-1.77731E-16
 -1       325 4.35220E-04-1.20274E-05-1.72507E-16
 -1       326 4.35251E-04 1.35470E-05-1.66151E-16
 -1       327 4.36020E-04 3.95129E-05-1.58212E-16
 -1       328 4.37671E-04 6.61871E-05-1.48346E-16
 -1       329 4.40707E-04 9.54762E-05-1.35210E-16
 -1       330 4.46068E-04 1.28397E-04-1.17883E-16
 -1       331 4.55875E-04 1.67378E-04-9.38750E-17
 -1       332 4.75841E-04 2.17114E-04-5.98242E-17
 -1       333 5.31951E-04 2.70037E-04-4.07999E-17
 -1       334 8.24385E-04 3.73590E-04-1.59784E-16
 -1       335 8.63170E-04-3.57497E-04-4.66800E-16
 -1       336 1.14948E-03-4.26242E-04-8.23008E-16
 -1       337 1.43221E-03-4.75377E-04-1.27804E-15
 -1       338 1.71287E-03-5.10034E-04-1.83022E-15
 -1       339 1.99258E-03-5.33997E-04-2.47620E-15
 -1       340 2.27211E-03-5.50072E-04-3.21257E-15
 -1       341 2.55194E-03-5.60347E-04-4.03753E-15
 -1       342 2.83232E-03-5.66381E-04-4.94957E-15
 -1       343 3.11340E-03-5.69323E-04-5.94526E-15
 -1       344 3.39523E-03-5.70004E-04-7.01939E-15
 -1       345 3.67780E-03-5.69005E-04-8.17184E-15
 -1       346 3.96112E-03-5.66712E-04-9.40010E-15
 -1       347 4.24517E-03-5.63356E-04-1.07005E-14
 -1       348 4.52999E-03-5.59060E-04-1.20684E-14
 -1       349 4.81563E-03-5.53863E-04-1.35005E-14
 -1       350 5.10220E-03-5.47759E-04-1.49998E-14
 -1       351 5.38987E-03-5.40729E-04-1.65651E-14
 -1       352 5.67888E-03-5.32784E-04-1.81953E-14
 -1       353 5.96953E-03-5.24014E-04-1.98909E-14
 -1       354 6.26224E-03-5.14659E-04-2.16460E-14
 -1       355 6.55749E-03-5.05195E-04-2.34609E-14
 -1       356 6.85589E-03-4.96459E-04-2.53372E-14
 -1       357 7.15810E-03-4.89797E-04-2.72699E-14
 -1       358 7.46489E-03-4.87262E-04-2.92520E-14
 -1       359 7.77711E-03-4.91814E-04-3.12858E-14
 -1       360 8.09561E-03-5.07490E-04-3.33675E-14
 -1       361 8.42120E-03-5.39404E-04-3.55005E-14
 -1       362 8.75436E-03-5.93315E-04-3.76734E-14
 -1       363 9.09475E-03-6.74325E-04-3.98810E-14
 -1       364 9.44037E-03-7.84168E-04-4.21222E-14
 -1       365 9.78656E-03-9.17017E-04-4.43968E-14
 -1       366 1.01266E-02-1.05441E-03-4.67016E-14
 -1       367 1.04551E-02-1.16562E-03-4.90349E-14
 -1       368 1.07737E-02-1.21776E-03-5.13891E-14
 -1       369 1.10913E-02-1.19490E-03-5.37571E-14
 -1       370 1.14173E-02-1.10920E-03-5.61331E-14
 -1       371 1.17543E-02-9.92278E-04-5.85031E-14
 -1       372 1.20976E-02-8.75918E-04-6.08801E-14
 -1       373 1.24403E-02-7.79996E-04-6.32711E-14
 -1       374 1.27775E-02-7.11519E-04-6.56777E-14
 -1       375 1.31065E-02-6.68919E-04-6.80985E-14
 -1       376 1.34268E-02-6.46528E-04-7.05372E-14
 -1       377 1.37388E-02-6.37461E-04-7.29933E-14
 -1       378 1.40432E-02-6.35046E-04-7.54675E-14
 -1       379 1.43410E-02-6.33367E-04-7.79620E-14
 -1       380 1.46017E-02-6.31657E-04-8.02352E-14
 -1       381 1.10981E-03 4.47907E-04-3.56486E-16
 -1       382 1.39050E-03 5.00938E-04-6.33554E-16
 -1       383 1.66874E-03 5.38479E-04-9.92238E-16
 -1       384 1.94606E-03 5.64640E-04-1.43340E-15
 -1       385 2.22339E-03 5.82411E-04-1.95692E-15
 -1       386 2.50129E-03 5.94003E-04-2.56070E-15
 -1       387 2.78003E-03 6.01066E-04-3.24542E-15
 -1       388 3.05973E-03 6.04820E-04-4.01252E-15
 -1       389 3.34041E-03 6.06153E-04-4.86082E-15
 -1       390 3.62205E-03 6.05693E-04-5.78948E-15
 -1       391 3.90461E-03 6.03866E-04-6.79742E-15
 -1       392 4.18806E-03 6.00942E-04-7.88210E-15
 -1       393 4.47241E-03 5.97071E-04-9.04255E-15
 -1       394 4.75769E-03 5.92323E-04-1.02768E-14
 -1       395 5.04401E-03 5.86718E-04-1.15828E-14
 -1       396 5.33154E-03 5.80267E-04-1.29550E-14
 -1       397 5.62053E-03 5.73009E-04-1.43932E-14
 -1       398 5.91131E-03 5.65065E-04-1.59001E-14
 -1       399 6.20430E-03 5.56701E-04-1.74692E-14
 -1       400 6.50004E-03 5.48410E-04-1.90969E-14
 -1       401 6.79909E-03 5.41014E-04-2.07784E-14
 -1       402 7.10212E-03 5.35792E-04-2.25141E-14
 -1       403 7.40974E-03 5.34602E-04-2.42991E-14
 -1       404 7.72251E-03 5.40005E-04-2.61264E-14
 -1       405 8.04076E-03 5.55282E-04-2.79866E-14
 -1       406 8.36440E-03 5.84262E-04-2.98873E-14
 -1       407 8.69263E-03 6.30738E-04-3.18377E-14
 -1       408 9.02367E-03 6.97249E-04-3.38379E-14
 -1       409 9.35449E-03 7.83076E-04-3.58923E-14
 -1       410 9.68097E-03 8.81742E-04-3.79961E-14
 -1       411 9.99894E-03 9.79254E-04-4.01472E-14
 -1       412 1.03063E-02 1.05534E-03-4.23488E-14
 -1       413 1.06050E-02 1.08952E-03-4.45944E-14
 -1       414 1.09013E-02 1.07022E-03-4.68759E-14
 -1       415 1.12025E-02 1.00097E-03-4.91897E-14
 -1       416 1.15131E-02 8.98453E-04-5.15306E-14
 -1       417 1.18329E-02 7.83994E-04-5.38909E-14
 -1       418 1.21584E-02 6.75189E-04-5.62619E-14
 -1       419 1.24851E-02 5.82118E-04-5.86481E-14
 -1       420 1.28093E-02 5.07742E-04-6.10496E-14
 -1       421 1.31285E-02 4.50196E-04-6.34622E-14
 -1       422 1.34411E-02 4.05107E-04-6.58796E-14
 -1       423 1.37469E-02 3.67227E-04-6.83125E-14
 -1       424 1.40462E-02 3.31354E-04-7.07622E-14
 -1       425 1.43397E-02 2.92879E-04-7.32210E-14
 -1       426 1.45304E-02 2.59120E-04-7.48486E-14
 -1       427 1.46342E-02 7.06881E-05-7.55936E-14
 -1       428 1.45659E-02 1.44058E-04-7.50975E-14
 -1       429 1.45462E-02 2.00450E-04-7.49751E-14
 -1       430 1.47000E-02 3.85105E-06-7.60758E-14
 -1       431 1.47607E-02-5.87820E-05-7.65621E-14
 -1       432 1.48105E-02-1.16641E-04-7.70531E-14
 -1       433 1.48454E-02-1.71024E-04-7.75438E-14
 -1       434 1.48629E-02-2.23797E-04-7.80382E-14
 -1       435 1.48625E-02-2.77130E-04-7.85289E-14
 -1       436 1.48463E-02-3.32164E-04-7.90099E-14
 -1       437 1.48170E-02-3.92497E-04-7.94944E-14
 -1       438 1.47798E-02-4.58317E-04-7.99755E-14
 -1       439 1.47402E-02-5.30026E-04-8.04528E-14
 -1       440 1.26447E-02 4.47444E-05-5.50617E-14
 -1       441 1.30074E-02-1.18361E-04-5.66214E-14
 -1       442 1.28760E-02-4.60318E-05-5.58704E-14
 -1       443 1.22897E-02 2.08286E-04-5.37646E-14
 -1       444 1.19604E-02 3.73074E-04-5.26458E-14
 -1       445 4.45681E-04-1.26557E-04-1.80980E-16
 -1       446 1.11740E-02 7.71417E-04-4.94183E-14
 -1       447 1.08240E-02 8.64554E-04-4.77291E-14
 -1       448 1.04786E-02 8.46294E-04-4.60806E-14
 -1       449 1.01857E-02 7.48067E-04-4.49044E-14
 -1       450 9.78304E-03 5.48860E-04-4.34177E-14
 -1       451 9.31367E-03 3.13237E-04-4.24294E-14
 -1       452 8.98406E-03 1.54439E-04-4.16889E-14
 -1       453 8.64703E-03 1.92929E-05-4.13703E-14
 -1       454 8.52282E-03-3.87871E-05-4.12669E-14
 -1       455 8.54689E-03-1.00193E-04-4.18249E-14
 -1       456 8.69793E-03-1.65629E-04-4.23411E-14
 -1       457 9.04483E-03-3.04181E-04-4.32398E-14
 -1       458 9.34809E-03-4.56426E-04-4.43050E-14
 -1       459 9.75510E-03-6.80227E-04-4.57965E-14
 -1       460 1.01956E-02-9.06897E-04-4.74712E-14
 -1       461 1.05568E-02-1.03949E-03-4.91963E-14
 -1       462 1.08938E-02-1.06585E-03-5.08370E-14
 -1       463 1.12301E-02-9.80246E-04-5.22988E-14
 -1       464 1.16146E-02-8.05964E-04-5.36448E-14
 -1       465 1.20038E-02-6.00797E-04-5.48176E-14
 -1       466 1.23974E-02-4.01622E-04-5.57933E-14
 -1       467 1.27009E-02-2.74589E-04-5.61077E-14
 -1       468 1.29189E-02-1.78342E-04-5.66089E-14
 -1       469 1.14825E-02 6.25102E-04-5.08258E-14
 -1       470 8.49036E-03-6.45204E-05-4.07544E-14
 -1       471 8.77982E-03 6.17119E-05-4.07534E-14
 -1       472 9.31161E-04 3.46127E-04-3.24275E-16
 -1       473 6.65933E-04-7.51846E-05-3.79112E-16
 -1       474 6.69862E-04-1.15963E-04-3.83923E-16
 -1       475 6.63289E-04 1.10525E-06-3.59508E-16
 -1       476 6.64002E-04 3.87942E-05-3.45379E-16
 -1       477 6.66122E-04 7.68726E-05-3.28242E-16
 -1       478 6.70181E-04 1.17805E-04-3.06538E-16
 -1       479 6.77146E-04 1.62438E-04-2.79091E-16
 -1       480 6.89011E-04 2.12809E-04-2.43085E-16
 -1       481 1.21701E-03 4.06600E-04-5.82793E-16
 -1       482 9.76231E-04-3.28733E-04-6.63034E-16
 -1       483 1.00156E-02 6.74176E-04-4.34110E-14
 -1       484 1.17259E-02 4.83916E-04-5.23272E-14
 -1       485 1.26211E-03-3.83588E-04-1.07121E-15
 -1       486 1.54711E-03-4.23281E-04-1.57418E-15
 -1       487 1.83121E-03-4.51236E-04-2.17036E-15
 -1       488 2.11472E-03-4.70337E-04-2.85606E-15
 -1       489 2.39798E-03-4.82852E-04-3.62877E-15
 -1       490 2.68122E-03-4.90520E-04-4.48694E-15
 -1       491 2.96461E-03-4.94649E-04-5.42869E-15
 -1       492 3.24827E-03-4.96201E-04-6.45146E-15
 -1       493 3.53226E-03-4.95860E-04-7.55312E-15
 -1       494 3.81660E-03-4.94094E-04-8.73095E-15
 -1       495 4.10133E-03-4.91198E-04-9.98167E-15
 -1       496 4.38647E-03-4.87335E-04-1.13011E-14
 -1       497 4.67204E-03-4.82575E-04-1.26871E-14
 -1       498 4.95812E-03-4.76921E-04-1.41389E-14
 -1       499 5.24477E-03-4.70347E-04-1.56570E-14
 -1       500 5.53212E-03-4.62829E-04-1.72420E-14
 -1       501 5.82030E-03-4.54393E-04-1.88932E-14
 -1       502 6.10949E-03-4.45168E-04-2.06062E-14
 -1       503 6.39996E-03-4.35455E-04-2.23798E-14
 -1       504 6.69198E-03-4.25825E-04-2.42118E-14
 -1       505 6.98597E-03-4.17238E-04-2.61030E-14
 -1       506 7.28245E-03-4.11195E-04-2.80454E-14
 -1       507 7.58218E-03-4.09920E-04-3.00394E-14
 -1       508 7.88628E-03-4.16556E-04-3.20808E-14
 -1       509 8.19636E-03-4.35337E-04-3.41699E-14
 -1       510 8.51464E-03-4.71652E-04-3.63067E-14
 -1       511 8.84375E-03-5.31781E-04-3.84807E-14
 -1       512 9.18568E-03-6.21620E-04-4.06899E-14
 -1       513 9.54000E-03-7.43776E-04-4.29342E-14
 -1       514 9.89994E-03-8.91184E-04-4.52086E-14
 -1       515 1.02564E-02-1.03774E-03-4.75149E-14
 -1       516 1.05979E-02-1.13853E-03-4.98489E-14
 -1       517 1.09335E-02-1.15527E-03-5.22042E-14
 -1       518 1.12743E-02-1.08298E-03-5.45715E-14
 -1       519 1.16276E-02-9.58897E-04-5.69372E-14
 -1       520 1.19868E-02-8.28550E-04-5.93066E-14
 -1       521 1.23408E-02-7.20359E-04-6.16886E-14
 -1       522 1.26826E-02-6.43368E-04-6.40870E-14
 -1       523 1.30109E-02-5.95462E-04-6.64982E-14
 -1       524 1.33275E-02-5.70221E-04-6.89221E-14
 -1       525 1.36349E-02-5.60414E-04-7.13628E-14
 -1       526 1.39353E-02-5.59300E-04-7.38236E-14
 -1       527 1.42302E-02-5.60963E-04-7.63025E-14
 -1       528 1.27972E-02-2.53949E-05-5.65689E-14
 -1       529 1.78378E-03 4.81018E-04-1.34017E-15
 -1       530 2.06573E-03 5.02214E-04-1.83999E-15
 -1       531 2.34744E-03 5.16291E-04-2.41998E-15
 -1       532 2.62925E-03 5.25131E-04-3.08004E-15
 -1       533 2.91138E-03 5.30147E-04-3.82142E-15
 -1       534 3.19395E-03 5.32377E-04-4.64379E-15
 -1       535 3.47702E-03 5.32567E-04-5.54635E-15
 -1       536 3.76063E-03 5.31232E-04-6.52775E-15
 -1       537 4.04477E-03 5.28707E-04-7.58678E-15
 -1       538 4.32947E-03 5.25189E-04-8.72205E-15
 -1       539 4.61477E-03 5.20773E-04-9.93019E-15
 -1       540 4.90073E-03 5.15487E-04-1.12096E-14
 -1       541 5.18744E-03 5.09328E-04-1.25586E-14
 -1       542 5.47504E-03 5.02298E-04-1.39738E-14
 -1       543 5.76372E-03 4.94445E-04-1.54566E-14
 -1       544 6.05374E-03 4.85923E-04-1.70056E-14
 -1       545 6.34541E-03 4.77061E-04-1.86117E-14
 -1       546 6.63910E-03 4.68447E-04-2.02739E-14
 -1       547 6.93529E-03 4.61039E-04-2.19912E-14
 -1       548 7.23454E-03 4.56291E-04-2.37621E-14
 -1       549 7.53751E-03 4.56286E-04-2.55810E-14
 -1       550 7.84499E-03 4.63835E-04-2.74378E-14
 -1       551 8.15787E-03 4.82493E-04-2.93304E-14
 -1       552 8.47701E-03 5.16355E-04-3.12691E-14
 -1       553 8.80291E-03 5.69410E-04-3.32582E-14
 -1       554 9.13505E-03 6.44149E-04-3.52929E-14
 -1       555 9.47100E-03 7.39094E-04-3.73772E-14
 -1       556 9.80593E-03 8.45435E-04-3.95084E-14
 -1       557 1.01340E-02 9.44539E-04-4.16876E-14
 -1       558 1.04522E-02 1.01058E-03-4.39118E-14
 -1       559 1.07640E-02 1.02088E-03-4.61773E-14
 -1       560 1.10774E-02 9.69496E-04-4.84735E-14
 -1       561 1.13994E-02 8.71306E-04-5.07966E-14
 -1       562 1.17299E-02 7.52119E-04-5.31469E-14
 -1       563 1.20641E-02 6.35062E-04-5.55122E-14
 -1       564 1.23963E-02 5.33854E-04-5.78915E-14
 -1       565 1.27224E-02 4.53068E-04-6.02845E-14
 -1       566 1.30412E-02 3.91343E-04-6.26896E-14
 -1       567 1.33525E-02 3.44372E-04-6.51040E-14
 -1       568 1.36570E-02 3.06845E-04-6.75305E-14
 -1       569 1.39556E-02 2.73430E-04-6.99731E-14
 -1       570 1.42490E-02 2.39221E-04-7.24351E-14
 -1       571 1.44911E-02-4.00182E-06-7.41683E-14
 -1       572 1.45499E-02-6.79159E-05-7.46518E-14
 -1       573 1.43532E-02 1.37460E-04-7.32027E-14
 -1       574 1.44239E-02 6.42535E-05-7.36889E-14
 -1       575 1.45950E-02-1.27629E-04-7.51407E-14
 -1       576 1.46225E-02-1.84601E-04-7.56288E-14
 -1       577 1.46307E-02-2.40867E-04-7.61178E-14
 -1       578 1.46205E-02-2.97650E-04-7.65959E-14
 -1       579 1.45943E-02-3.58838E-04-7.70765E-14
 -1       580 1.45569E-02-4.24842E-04-7.75543E-14
 -1       581 1.45140E-02-4.96297E-04-7.80318E-14
 -1       582 1.30179E-02-1.45751E-04-5.79953E-14
 -1       583 1.50108E-03 4.50223E-04-9.21243E-16
 -1       584 1.24667E-02 1.05402E-04-5.53951E-14
 -1       585 1.21022E-02 2.78459E-04-5.38602E-14
 -1       586 1.13105E-02 7.13485E-04-5.03403E-14
 -1       587 1.28177E-02-2.14417E-04-5.74810E-14
 -1       588 1.09658E-02 8.52656E-04-4.84015E-14
 -1       589 7.12645E-04-2.51969E-04-3.79305E-16
 -1       590 6.63891E-04-3.65478E-05-3.70838E-16
 -1       591 1.06598E-02 8.88729E-04-4.66604E-14
 -1       592 9.51744E-03 4.02187E-04-4.18418E-14
 -1       593 1.02712E-02 7.94603E-04-4.45696E-14
 -1       594 9.95219E-03-7.74430E-04-4.60621E-14
 -1       595 9.16124E-03 2.21795E-04-4.10936E-14
 -1       596 8.55186E-03-1.81614E-05-4.02582E-14
 -1       597 8.57719E-03-1.07154E-04-4.09209E-14
 -1       598 8.80362E-03-1.88600E-04-4.15751E-14
 -1       599 9.21132E-03-3.67051E-04-4.29577E-14
 -1       600 9.58207E-03-5.61627E-04-4.44994E-14
 -1       601 1.04311E-02-1.01560E-03-4.85066E-14
 -1       602 1.07155E-02-1.08664E-03-5.01409E-14
 -1       603 1.10696E-02-1.04756E-03-5.20881E-14
 -1       604 1.14236E-02-9.00440E-04-5.37972E-14
 -1       605 1.17883E-02-7.01734E-04-5.50923E-14
 -1       606 1.21907E-02-4.86730E-04-5.63280E-14
 -1       607 1.25785E-02-3.07369E-04-5.71664E-14
 -1       608 1.29980E-02-9.57649E-05-5.73398E-14
 -1       609 7.03741E-04 2.90983E-04-1.64951E-16
 -1       610 6.76616E-04-1.60159E-04-3.84241E-16
 -1       611 1.44262E-02-5.62587E-04-7.79993E-14
 -1       612 1.30801E-02-1.24557E-04-5.87129E-14
 -1       613 6.91809E-04-2.02996E-04-3.85197E-16
 -1       614 8.46885E-03-4.25317E-05-3.97471E-14
 -1       615 8.92762E-03 1.26425E-04-4.01605E-14
 -1       616 9.73893E-03 5.47066E-04-4.18270E-14
 -1       617 1.01860E-02-9.17609E-04-4.70826E-14
 -1       618 8.99940E-04 7.41574E-05-5.80346E-16
 -1       619 8.97871E-04 2.51941E-05-6.05645E-16
 -1       620 9.11916E-04 1.78321E-04-5.12048E-16
 -1       621 9.24218E-04 2.36898E-04-4.65055E-16
 -1       622 1.04884E-03 3.14023E-04-5.15572E-16
 -1       623 1.11169E-02 8.27446E-04-4.92510E-14
 -1       624 9.72771E-03-6.69380E-04-4.46603E-14
 -1       625 1.38327E-03-3.37119E-04-1.32870E-15
 -1       626 1.66948E-03-3.67963E-04-1.87575E-15
 -1       627 1.95569E-03-3.89616E-04-2.51177E-15
 -1       628 2.24174E-03-4.04214E-04-3.23343E-15
 -1       629 2.52760E-03-4.13520E-04-4.03931E-15
 -1       630 2.81333E-03-4.18921E-04-4.92816E-15
 -1       631 3.09898E-03-4.21466E-04-5.89872E-15
 -1       632 3.38459E-03-4.21923E-04-6.94845E-15
 -1       633 3.67020E-03-4.20832E-04-8.07671E-15
 -1       634 3.95583E-03-4.18548E-04-9.27826E-15
 -1       635 4.24152E-03-4.15285E-04-1.05502E-14
 -1       636 4.52726E-03-4.11146E-04-1.18890E-14
 -1       637 4.81308E-03-4.06162E-04-1.32943E-14
 -1       638 5.09899E-03-4.00312E-04-1.47661E-14
 -1       639 5.38500E-03-3.93565E-04-1.63056E-14
 -1       640 5.67113E-03-3.85909E-04-1.79114E-14
 -1       641 5.95739E-03-3.77394E-04-1.95826E-14
 -1       642 6.24382E-03-3.68192E-04-2.13136E-14
 -1       643 6.53048E-03-3.58657E-04-2.31025E-14
 -1       644 6.81748E-03-3.49416E-04-2.49512E-14
 -1       645 7.10507E-03-3.41473E-04-2.68538E-14
 -1       646 7.39371E-03-3.36334E-04-2.88083E-14
 -1       647 7.68430E-03-3.36159E-04-3.08109E-14
 -1       648 7.97846E-03-3.43959E-04-3.28624E-14
 -1       649 8.27888E-03-3.63847E-04-3.49590E-14
 -1       650 8.58970E-03-4.01448E-04-3.70976E-14
 -1       651 8.91637E-03-4.64432E-04-3.92744E-14
 -1       652 9.26400E-03-5.61216E-04-4.14840E-14
 -1       653 9.63397E-03-6.99686E-04-4.37284E-14
 -1       654 1.07600E-02-1.12079E-03-5.07068E-14
 -1       655 1.11192E-02-1.07440E-03-5.30405E-14
 -1       656 1.14923E-02-9.40740E-04-5.54025E-14
 -1       657 1.18730E-02-7.87660E-04-5.77666E-14
 -1       658 1.22439E-02-6.62538E-04-6.01399E-14
 -1       659 1.25947E-02-5.76944E-04-6.25290E-14
 -1       660 1.29245E-02-5.25617E-04-6.49311E-14
 -1       661 1.32378E-02-4.99366E-04-6.73430E-14
 -1       662 1.35398E-02-4.89801E-04-6.97701E-14
 -1       663 1.38346E-02-4.90064E-04-7.22159E-14
 -1       664 1.41249E-02-4.94536E-04-7.46821E-14
 -1       665 9.39404E-03-4.84017E-04-4.31138E-14
 -1       666 1.43218E-02-4.93473E-04-7.63359E-14
 -1       667 1.90559E-03 4.20581E-04-1.70948E-15
 -1       668 2.76003E-03 4.54320E-04-3.61870E-15
 -1       669 3.04473E-03 4.57622E-04-4.41553E-15
 -1       670 3.32952E-03 4.58634E-04-5.29239E-15
 -1       671 3.61445E-03 4.57958E-04-6.24865E-15
 -1       672 3.89955E-03 4.55997E-04-7.28162E-15
 -1       673 4.18486E-03 4.52999E-04-8.39175E-15
 -1       674 4.47038E-03 4.49098E-04-9.57565E-15
 -1       675 4.75616E-03 4.44343E-04-1.08294E-14
 -1       676 5.04223E-03 4.38735E-04-1.21537E-14
 -1       677 5.32866E-03 4.32255E-04-1.35464E-14
 -1       678 5.61550E-03 4.24907E-04-1.50055E-14
 -1       679 5.90288E-03 4.16758E-04-1.65324E-14
 -1       680 6.19093E-03 4.07995E-04-1.81191E-14
 -1       681 6.47985E-03 3.98995E-04-1.97616E-14
 -1       682 6.76992E-03 3.90408E-04-2.14592E-14
 -1       683 7.06158E-03 3.83263E-04-2.32134E-14
 -1       684 7.35544E-03 3.79082E-04-2.50204E-14
 -1       685 7.65245E-03 3.80012E-04-2.68714E-14
 -1       686 7.95400E-03 3.88945E-04-2.87586E-14
 -1       687 8.26198E-03 4.09592E-04-3.06881E-14
 -1       688 8.57872E-03 4.46431E-04-3.26654E-14
 -1       689 8.90639E-03 5.04249E-04-3.46879E-14
 -1       690 9.24569E-03 5.86697E-04-3.67539E-14
 -1       691 9.59377E-03 6.92874E-04-3.88658E-14
 -1       692 9.94291E-03 8.11348E-04-4.10243E-14
 -1       693 1.02835E-02 9.14859E-04-4.32265E-14
 -1       694 1.06128E-02 9.66407E-04-4.54738E-14
 -1       695 1.09383E-02 9.41562E-04-4.77545E-14
 -1       696 1.12721E-02 8.48197E-04-5.00667E-14
 -1       697 1.16174E-02 7.19585E-04-5.24014E-14
 -1       698 1.19665E-02 5.90371E-04-5.47601E-14
 -1       699 1.23104E-02 4.79965E-04-5.71318E-14
 -1       700 1.26433E-02 3.93757E-04-5.95168E-14
 -1       701 1.29643E-02 3.29483E-04-6.19147E-14
 -1       702 1.32749E-02 2.81953E-04-6.43216E-14
 -1       703 1.35773E-02 2.45481E-04-6.67415E-14
 -1       704 1.38736E-02 2.14697E-04-6.91821E-14
 -1       705 1.41152E-02 1.76250E-04-7.11875E-14
 -1       706 1.43804E-02-1.43301E-04-7.32355E-14
 -1       707 1.42843E-02-1.88082E-05-7.22707E-14
 -1       708 1.43991E-02-2.01157E-04-7.37172E-14
 -1       709 1.43409E-02-8.31773E-05-7.27514E-14
 -1       710 1.15591E-02 6.01046E-04-5.18365E-14
 -1       711 1.43964E-02-2.58347E-04-7.41926E-14
 -1       712 1.43743E-02-3.19346E-04-7.46755E-14
 -1       713 1.43371E-02-3.85045E-04-7.51552E-14
 -1       714 1.62026E-03 3.96218E-04-1.23154E-15
 -1       715 1.27178E-02 2.67468E-05-5.73139E-14
 -1       716 1.27685E-02-2.56009E-04-5.88079E-14
 -1       717 8.59797E-03-1.29920E-04-3.99667E-14
 -1       718 2.47534E-03 4.47880E-04-2.90257E-15
 -1       719 2.19058E-03 4.37144E-04-2.26669E-15
 -1       720 1.09772E-03-2.94724E-04-8.73183E-16
 -1       721 1.30062E-02-1.77491E-04-5.93261E-14
 -1       722 8.93481E-04-2.51911E-04-6.05076E-16
 -1       723 1.01182E-02 7.68321E-04-4.30947E-14
 -1       724 1.33456E-03 3.61629E-04-8.33613E-16
 -1       725 9.04352E-04 1.24689E-04-5.49704E-16
 -1       726 9.03976E-04-1.22277E-04-6.52585E-16
 -1       727 9.26963E-03 3.04424E-04-4.02427E-14
 -1       728 1.04712E-02 8.86704E-04-4.51587E-14
 -1       729 8.45528E-03-7.19382E-05-3.95938E-14
 -1       730 8.62991E-03 2.39864E-05-3.93187E-14
 -1       731 8.92568E-03-2.62007E-04-4.10988E-14
 -1       732 1.07993E-02 9.01875E-04-4.72670E-14
 -1       733 1.29843E-02-7.30880E-05-5.83497E-14
 -1       734 1.05698E-02-1.08258E-03-4.94018E-14
 -1       735 1.24362E-02-3.91058E-04-5.79989E-14
 -1       736 1.09140E-02-1.10206E-03-5.15669E-14
 -1       737 1.16483E-02-8.05333E-04-5.54098E-14
 -1       738 1.13069E-02-9.74304E-04-5.36989E-14
 -1       739 1.20186E-02-6.04752E-04-5.68639E-14
 -1       740 9.11309E-04-1.75689E-04-6.57294E-16
 -1       741 8.97808E-04-2.31726E-05-6.25984E-16
 -1       742 1.41899E-02 9.91145E-05-7.16745E-14
 -1       743 1.19602E-02 3.74422E-04-5.38179E-14
 -1       744 1.42336E-02-4.37511E-04-7.49215E-14
 -1       745 1.24247E-02 1.61583E-04-5.62313E-14
 -1       746 8.49794E-03-1.00671E-05-3.88118E-14
 -1       747 1.42394E-02 3.84198E-05-7.19750E-14
 -1       748 1.31232E-02-1.51568E-04-6.00461E-14
 -1       749 9.47087E-03 4.45200E-04-4.02205E-14
 -1       750 8.99733E-04-7.18706E-05-6.41739E-16
 -1       751 9.03592E-03 2.09879E-04-3.93174E-14
 -1       752 8.40411E-03-8.87653E-05-3.83191E-14
 -1       753 1.16162E-03 2.43730E-04-7.59402E-16
 -1       754 1.14092E-02 7.33277E-04-5.10691E-14
 -1       755 1.24623E-03 3.00925E-04-8.01042E-16
 -1       756 9.08441E-03-3.85390E-04-4.11216E-14
 -1       757 1.79742E-03-3.09430E-04-2.18129E-15
 -1       758 2.08511E-03-3.25363E-04-2.85308E-15
 -1       759 2.37293E-03-3.35912E-04-3.60857E-15
 -1       760 2.66065E-03-3.42402E-04-4.44579E-15
 -1       761 2.94816E-03-3.45886E-04-5.36378E-15
 -1       762 3.23541E-03-3.47166E-04-6.36149E-15
 -1       763 3.52240E-03-3.46822E-04-7.43797E-15
 -1       764 3.80911E-03-3.45253E-04-8.59076E-15
 -1       765 4.09554E-03-3.42714E-04-9.81466E-15
 -1       766 4.38170E-03-3.39345E-04-1.11071E-14
 -1       767 4.66755E-03-3.35204E-04-1.24661E-14
 -1       768 4.95307E-03-3.30293E-04-1.38907E-14
 -1       769 5.23821E-03-3.24586E-04-1.53856E-14
 -1       770 5.52287E-03-3.18056E-04-1.69466E-14
 -1       771 5.80696E-03-3.10711E-04-1.85734E-14
 -1       772 6.09034E-03-3.02632E-04-2.02617E-14
 -1       773 6.37288E-03-2.94021E-04-2.20106E-14
 -1       774 6.65444E-03-2.85254E-04-2.38159E-14
 -1       775 6.93494E-03-2.76948E-04-2.56778E-14
 -1       776 7.21446E-03-2.70026E-04-2.75931E-14
 -1       777 7.49336E-03-2.65805E-04-2.95588E-14
 -1       778 7.77261E-03-2.66101E-04-3.15717E-14
 -1       779 8.05416E-03-2.73446E-04-3.36309E-14
 -1       780 8.34158E-03-2.91512E-04-3.57336E-14
 -1       781 8.64063E-03-3.26247E-04-3.78766E-14
 -1       782 1.21798E-02-5.85978E-04-5.85569E-14
 -1       783 1.25390E-02-4.91807E-04-6.09371E-14
 -1       784 1.28659E-02-4.41208E-04-6.33284E-14
 -1       785 1.31709E-02-4.18422E-04-6.57286E-14
 -1       786 1.34629E-02-4.12188E-04-6.81430E-14
 -1       787 1.37482E-02-4.15387E-04-7.05749E-14
 -1       788 1.39909E-02-4.26299E-04-7.27408E-14
 -1       789 1.26779E-02-3.36930E-04-5.98031E-14
 -1       790 2.89357E-03 3.81934E-04-4.17763E-15
 -1       791 3.75282E-03 3.82650E-04-6.96812E-15
 -1       792 4.03894E-03 3.80314E-04-8.05271E-15
 -1       793 4.32493E-03 3.77089E-04-9.21127E-15
 -1       794 4.61079E-03 3.73052E-04-1.04418E-14
 -1       795 4.89652E-03 3.68218E-04-1.17414E-14
 -1       796 5.18212E-03 3.62570E-04-1.31098E-14
 -1       797 5.46756E-03 3.56083E-04-1.45470E-14
 -1       798 5.75284E-03 3.48767E-04-1.60507E-14
 -1       799 6.03795E-03 3.40703E-04-1.76175E-14
 -1       800 6.32292E-03 3.32094E-04-1.92410E-14
 -1       801 6.60785E-03 3.23327E-04-2.09208E-14
 -1       802 6.89294E-03 3.15044E-04-2.26551E-14
 -1       803 7.17861E-03 3.08228E-04-2.44468E-14
 -1       804 7.46564E-03 3.04309E-04-2.62890E-14
 -1       805 7.75535E-03 3.05295E-04-2.81732E-14
 -1       806 8.04987E-03 3.13966E-04-3.00936E-14
 -1       807 8.35236E-03 3.34155E-04-3.20594E-14
 -1       808 8.66703E-03 3.71127E-04-3.40704E-14
 -1       809 8.99834E-03 4.31722E-04-3.61233E-14
 -1       810 9.34882E-03 5.23094E-04-3.82194E-14
 -1       811 9.71459E-03 6.47119E-04-4.03585E-14
 -1       812 1.18708E-02 5.43823E-04-5.40022E-14
 -1       813 1.22310E-02 4.20050E-04-5.63676E-14
 -1       814 1.25736E-02 3.28536E-04-5.87420E-14
 -1       815 1.28973E-02 2.63645E-04-6.11324E-14
 -1       816 1.32066E-02 2.17677E-04-6.35319E-14
 -1       817 1.35056E-02 1.83705E-04-6.59458E-14
 -1       818 1.37981E-02 1.56211E-04-6.83828E-14
 -1       819 1.39953E-02 1.27287E-04-7.00258E-14
 -1       820 1.13851E-03 5.90819E-05-9.04672E-16
 -1       821 1.41680E-02-1.60791E-04-7.13416E-14
 -1       822 1.41222E-02-3.41702E-04-7.27728E-14
 -1       823 1.41754E-02-2.17474E-04-7.18128E-14
 -1       824 1.74575E-03 3.39045E-04-1.56543E-15
 -1       825 1.18254E-02 4.95620E-04-5.34967E-14
 -1       826 8.63762E-03-1.84709E-04-3.92128E-14
 -1       827 1.30549E-02-9.68051E-05-5.87836E-14
 -1       828 2.60681E-03 3.77554E-04-3.40584E-15
 -1       829 1.41589E-02-2.77162E-04-7.22923E-14
 -1       830 9.01014E-04-2.12936E-04-6.33364E-16
 -1       831 3.46656E-03 3.83923E-04-5.95987E-15
 -1       832 2.03280E-03 3.57457E-04-2.10079E-15
 -1       833 1.22462E-03-2.55101E-04-1.09625E-15
 -1       834 3.18015E-03 3.83837E-04-5.02869E-15
 -1       835 2.31987E-03 3.69792E-04-2.71413E-15
 -1       836 1.51031E-03-2.86554E-04-1.59497E-15
 -1       837 1.27172E-02 8.39193E-05-5.82766E-14
 -1       838 1.29683E-02-2.30035E-04-6.05373E-14
 -1       839 8.72627E-03 8.95070E-05-3.84834E-14
 -1       840 8.38536E-03-4.72058E-05-3.84380E-14
 -1       841 1.29719E-02-3.00095E-05-5.93118E-14
 -1       842 1.22607E-02 2.83918E-04-5.59132E-14
 -1       843 1.31577E-02-1.25155E-04-6.01205E-14
 -1       844 1.30957E-02-8.73212E-05-5.97157E-14
 -1       845 1.13716E-03 1.19640E-06-9.37506E-16
 -1       846 1.14996E-03 1.79186E-04-8.17048E-16
 -1       847 1.14259E-03 1.17987E-04-8.64919E-16
 -1       848 1.14940E-03-1.76199E-04-9.95277E-16
 -1       849 9.24053E-03 3.40336E-04-3.92992E-14
 -1       850 1.25743E-02 1.88405E-04-5.79623E-14
 -1       851 8.56559E-03 4.09075E-05-3.79818E-14
 -1       852 1.14225E-03-1.15250E-04-9.83270E-16
 -1       853 1.40817E-02-3.80270E-05-7.03816E-14
 -1       854 1.41357E-02-1.01659E-04-7.08594E-14
 -1       855 1.40590E-02-3.82497E-04-7.27568E-14
 -1       856 8.40103E-03-1.31136E-04-3.75724E-14
 -1       857 1.40356E-02 1.95182E-05-7.00872E-14
 -1       858 1.49562E-03 3.24158E-04-1.15086E-15
 -1       859 1.31265E-02-1.92121E-04-6.12641E-14
 -1       860 1.92981E-03-2.47655E-04-2.48986E-15
 -1       861 8.36452E-03-1.70502E-05-3.74207E-14
 -1       862 2.21864E-03-2.58590E-04-3.19473E-15
 -1       863 2.50774E-03-2.65646E-04-3.98170E-15
 -1       864 2.79675E-03-2.69772E-04-4.84848E-15
 -1       865 3.08547E-03-2.71726E-04-5.79457E-15
 -1       866 3.37379E-03-2.72078E-04-6.81879E-15
 -1       867 3.66162E-03-2.71237E-04-7.91990E-15
 -1       868 3.94894E-03-2.69476E-04-9.09507E-15
 -1       869 4.23571E-03-2.66961E-04-1.03410E-14
 -1       870 4.52188E-03-2.63775E-04-1.16549E-14
 -1       871 4.80738E-03-2.59942E-04-1.30337E-14
 -1       872 5.09211E-03-2.55453E-04-1.44815E-14
 -1       873 5.37594E-03-2.50284E-04-1.59989E-14
 -1       874 5.65867E-03-2.44424E-04-1.75805E-14
 -1       875 5.94006E-03-2.37907E-04-1.92260E-14
 -1       876 6.21983E-03-2.30835E-04-2.09337E-14
 -1       877 6.49765E-03-2.23422E-04-2.26986E-14
 -1       878 6.77318E-03-2.16023E-04-2.45195E-14
 -1       879 7.04609E-03-2.09168E-04-2.63941E-14
 -1       880 7.31617E-03-2.03586E-04-2.83210E-14
 -1       881 7.58349E-03-2.00226E-04-3.02976E-14
 -1       882 7.84863E-03-2.00313E-04-3.23211E-14
 -1       883 8.11320E-03-2.05579E-04-3.43875E-14
 -1       884 8.38115E-03-2.18848E-04-3.64955E-14
 -1       885 1.28379E-02-3.51857E-04-6.17374E-14
 -1       886 1.31244E-02-3.36535E-04-6.41264E-14
 -1       887 1.33990E-02-3.36169E-04-6.65283E-14
 -1       888 1.36697E-02-3.43376E-04-6.89469E-14
 -1       889 2.45300E-03 3.00393E-04-3.18320E-15
 -1       890 1.87610E-03 2.78650E-04-1.92422E-15
 -1       891 3.89213E-03 3.06984E-04-7.70608E-15
 -1       892 4.75072E-03 2.97469E-04-1.13227E-14
 -1       893 5.03589E-03 2.92863E-04-1.26660E-14
 -1       894 5.32045E-03 2.87513E-04-1.40797E-14
 -1       895 5.60428E-03 2.81395E-04-1.55609E-14
 -1       896 5.88727E-03 2.74520E-04-1.71072E-14
 -1       897 6.16930E-03 2.66968E-04-1.87142E-14
 -1       898 6.45028E-03 2.58926E-04-2.03755E-14
 -1       899 6.73016E-03 2.50734E-04-2.20906E-14
 -1       900 7.00906E-03 2.42933E-04-2.38638E-14
 -1       901 7.28737E-03 2.36327E-04-2.56935E-14
 -1       902 7.56591E-03 2.32066E-04-2.75718E-14
 -1       903 7.84626E-03 2.31803E-04-2.94885E-14
 -1       904 8.13116E-03 2.38007E-04-3.14446E-14
 -1       905 8.42501E-03 2.54606E-04-3.34436E-14
 -1       906 8.73418E-03 2.88251E-04-3.54869E-14
 -1       907 1.30166E-02 2.12489E-05-6.05335E-14
 -1       908 1.31529E-02 1.47597E-04-6.27514E-14
 -1       909 1.34450E-02 1.18428E-04-6.51585E-14
 -1       910 1.37305E-02 9.53731E-05-6.75853E-14
 -1       911 8.27994E-03-5.61608E-05-3.70337E-14
 -1       912 1.39578E-02-1.77776E-04-6.94564E-14
 -1       913 2.74147E-03 3.05603E-04-3.93037E-15
 -1       914 1.35559E-03-2.09679E-04-1.33010E-15
 -1       915 1.28488E-02 1.88609E-04-6.03563E-14
 -1       916 1.32504E-02-1.52141E-04-6.17415E-14
 -1       917 3.60505E-03 3.08577E-04-6.64599E-15
 -1       918 1.13835E-03-5.65457E-05-9.63815E-16
 -1       919 2.16444E-03 2.91777E-04-2.51458E-15
 -1       920 4.46500E-03 3.01359E-04-1.00464E-14
 -1       921 8.79995E-03 1.78972E-04-3.74853E-14
 -1       922 4.17879E-03 3.04542E-04-8.83990E-15
 -1       923 1.40161E-02 7.22558E-05-7.00579E-14
 -1       924 1.64182E-03-2.31741E-04-1.86786E-15
 -1       925 1.40142E-03 2.37114E-04-1.12678E-15
 -1       926 1.44769E-03 2.79844E-04-1.14154E-15
 -1       927 1.39495E-02-2.35282E-04-6.99340E-14
 -1       928 1.32617E-02-1.12514E-04-6.16744E-14
 -1       929 1.38626E-02-3.62925E-04-7.08421E-14
 -1       930 1.58851E-03 2.59709E-04-1.41040E-15
 -1       931 9.09361E-03 3.39829E-04-3.79171E-14
 -1       932 1.28996E-02 1.04793E-04-6.02185E-14
 -1       933 8.63177E-03 1.17595E-04-3.69905E-14
 -1       934 1.38136E-03 3.41179E-05-1.30065E-15
 -1       935 1.31172E-02-2.58890E-04-6.26961E-14
 -1       936 1.39356E-02-1.20701E-04-6.89768E-14
 -1       937 8.23199E-03-8.78228E-05-3.62975E-14
 -1       938 3.02968E-03 3.08290E-04-4.75655E-15
 -1       939 1.38449E-03 1.00005E-04-1.25259E-15
 -1       940 1.34679E-03-1.42041E-04-1.31572E-15
 -1       941 3.31756E-03 3.09121E-04-5.66216E-15
 -1       942 1.38851E-02-5.91555E-05-6.84992E-14
 -1       943 1.38375E-02-2.17793E-06-6.82034E-14
 -1       944 1.31894E-02-6.76639E-05-6.12683E-14
 -1       945 1.39228E-02-3.07232E-04-7.06120E-14
 -1       946 1.77710E-03-1.72654E-04-2.14580E-15
 -1       947 1.39097E-03 1.67346E-04-1.19501E-15
 -1       948 2.35570E-03-1.89445E-04-3.53636E-15
 -1       949 2.64570E-03-1.93642E-04-4.35237E-15
 -1       950 2.93556E-03-1.95913E-04-5.24669E-15
 -1       951 3.22501E-03-1.96754E-04-6.21981E-15
 -1       952 3.51391E-03-1.96534E-04-7.26930E-15
 -1       953 3.80214E-03-1.95512E-04-8.39367E-15
 -1       954 4.08964E-03-1.93853E-04-9.59015E-15
 -1       955 4.37633E-03-1.91655E-04-1.08590E-14
 -1       956 4.66212E-03-1.88957E-04-1.21938E-14
 -1       957 4.94689E-03-1.85768E-04-1.35957E-14
 -1       958 5.23045E-03-1.82077E-04-1.50675E-14
 -1       959 5.51259E-03-1.77873E-04-1.66064E-14
 -1       960 5.79300E-03-1.73167E-04-1.82082E-14
 -1       961 6.07131E-03-1.68014E-04-1.98717E-14
 -1       962 6.34708E-03-1.62531E-04-2.15962E-14
 -1       963 6.61978E-03-1.56921E-04-2.33783E-14
 -1       964 6.88881E-03-1.51483E-04-2.52128E-14
 -1       965 7.15354E-03-1.46614E-04-2.71002E-14
 -1       966 7.41328E-03-1.42791E-04-2.90389E-14
 -1       967 7.66739E-03-1.40520E-04-3.10276E-14
 -1       968 7.91532E-03-1.40373E-04-3.30606E-14
 -1       969 8.15703E-03-1.43141E-04-3.51355E-14
 -1       970 1.38127E-03-3.12624E-05-1.33994E-15
 -1       971 1.33631E-02-2.65735E-04-6.50844E-14
 -1       972 1.36130E-02-2.77108E-04-6.74923E-14
 -1       973 8.21456E-03-2.27867E-05-3.59115E-14
 -1       974 1.36286E-03-8.66818E-05-1.33138E-15
 -1       975 4.89024E-03 2.22764E-04-1.22179E-14
 -1       976 5.73921E-03 2.08716E-04-1.65893E-14
 -1       977 6.01938E-03 2.02721E-04-1.81776E-14
 -1       978 6.29772E-03 1.96126E-04-1.98233E-14
 -1       979 6.57400E-03 1.89065E-04-2.15222E-14
 -1       980 6.84802E-03 1.81771E-04-2.32760E-14
 -1       981 7.11969E-03 1.74599E-04-2.50877E-14
 -1       982 7.38918E-03 1.68052E-04-2.69552E-14
 -1       983 7.65710E-03 1.62838E-04-2.88684E-14
 -1       984 7.92485E-03 1.60048E-04-3.08184E-14
 -1       985 8.19511E-03 1.61604E-04-3.28076E-14
 -1       986 8.47313E-03 1.71439E-04-3.48403E-14
 -1       987 1.36693E-02 3.43833E-05-6.67930E-14
 -1       988 1.34151E-02-1.46758E-04-6.36443E-14
 -1       989 1.33956E-02 5.19725E-05-6.43730E-14
 -1       990 1.56116E-03-1.58354E-04-1.70693E-15
 -1       991 1.72201E-03 2.02430E-04-1.73807E-15
 -1       992 2.58947E-03 2.29161E-04-3.67465E-15
 -1       993 8.36827E-03 3.08639E-05-3.62977E-14
 -1       994 1.33002E-02-1.93281E-04-6.31253E-14
 -1       995 3.74489E-03 2.32938E-04-7.35030E-15
 -1       996 5.45749E-03 2.14053E-04-1.50653E-14
 -1       997 5.17443E-03 2.18728E-04-1.36080E-14
 -1       998 4.60509E-03 2.26196E-04-1.08962E-14
 -1       999 2.06596E-03-1.82690E-04-2.80059E-15
 -1      1000 1.33065E-02-3.16056E-05-6.29265E-14
 -1      1001 1.33867E-02-9.61315E-05-6.32858E-14
 -1      1002 1.30714E-02 8.57492E-05-6.16389E-14
 -1      1003 1.62793E-03 1.56486E-06-1.76639E-15
 -1      1004 8.12052E-03-5.16325E-05-3.51921E-14
 -1      1005 1.37482E-02-1.94366E-04-6.75879E-14
 -1      1006 2.01049E-03 2.15059E-04-2.30629E-15
 -1      1007 4.03233E-03 2.31313E-04-8.46093E-15
 -1      1008 4.31909E-03 2.29048E-04-9.64301E-15
 -1      1009 3.45680E-03 2.33802E-04-6.31467E-15
 -1      1010 2.87898E-03 2.32302E-04-4.47639E-15
 -1      1011 1.36985E-02-8.16106E-05-6.66356E-14
 -1      1012 1.36489E-02-2.67219E-05-6.63383E-14
 -1      1013 1.62968E-03 7.32544E-05-1.71148E-15
 -1      1014 2.29985E-03 2.23669E-04-2.95142E-15
 -1      1015 1.37422E-02-1.39567E-04-6.71107E-14
 -1      1016 5.31245E-03 1.46196E-04-1.45650E-14
 -1      1017 2.78642E-03-1.20180E-04-4.71909E-15
 -1      1018 3.07672E-03-1.21134E-04-5.63999E-15
 -1      1019 3.36649E-03-1.21295E-04-6.63898E-15
 -1      1020 3.65556E-03-1.20862E-04-7.71261E-15
 -1      1021 3.94380E-03-1.19973E-04-8.85986E-15
 -1      1022 4.23112E-03-1.18711E-04-1.00799E-14
 -1      1023 4.51742E-03-1.17121E-04-1.13706E-14
 -1      1024 4.80255E-03-1.15221E-04-1.27279E-14
 -1      1025 5.08633E-03-1.13014E-04-1.41528E-14
 -1      1026 5.36852E-03-1.10499E-04-1.56474E-14
 -1      1027 5.64882E-03-1.07684E-04-1.72061E-14
 -1      1028 5.92681E-03-1.04601E-04-1.88261E-14
 -1      1029 6.20201E-03-1.01323E-04-2.05082E-14
 -1      1030 6.47382E-03-9.79683E-05-2.22499E-14
 -1      1031 6.74153E-03-9.47181E-05-2.40452E-14
 -1      1032 7.00428E-03-9.18087E-05-2.58939E-14
 -1      1033 7.26103E-03-8.95125E-05-2.77945E-14
 -1      1034 7.51046E-03-8.80955E-05-2.97481E-14
 -1      1035 7.75107E-03-8.76134E-05-3.17489E-14
 -1      1036 7.97937E-03-8.88222E-05-3.37905E-14
 -1      1037 6.42443E-03 1.28602E-04-2.09466E-14
 -1      1038 1.35286E-02-2.05286E-04-6.56111E-14
 -1      1039 6.15009E-03 1.33791E-04-1.92610E-14
 -1      1040 5.02956E-03 1.49306E-04-1.31305E-14
 -1      1041 5.87305E-03 1.38459E-04-1.76323E-14
 -1      1042 6.69564E-03 1.22942E-04-2.26847E-14
 -1      1043 6.96327E-03 1.16899E-04-2.44778E-14
 -1      1044 7.22691E-03 1.10596E-04-2.63289E-14
 -1      1045 7.48622E-03 1.04181E-04-2.82335E-14
 -1      1046 7.74106E-03 9.78295E-05-3.01782E-14
 -1      1047 7.99183E-03 9.19718E-05-3.21610E-14
 -1      1048 8.23981E-03 8.80661E-05-3.41828E-14
 -1      1049 8.06887E-03 2.12713E-05-3.38100E-14
 -1      1050 5.59371E-03 1.42590E-04-1.60667E-14
 -1      1051 1.60811E-03-5.92650E-05-1.76513E-15
 -1      1052 4.74529E-03 1.51956E-04-1.17623E-14
 -1      1053 2.49586E-03-1.18163E-04-3.87594E-15
 -1      1054 3.16814E-03 2.33698E-04-5.35585E-15
 -1      1055 1.91578E-03-1.09472E-04-2.42662E-15
 -1      1056 2.20545E-03-1.14739E-04-3.11179E-15
 -1      1057 1.63479E-03 1.45743E-04-1.64544E-15
 -1      1058 7.93896E-03-1.34313E-05-3.31036E-14
 -1      1059 4.45984E-03 1.54175E-04-1.04622E-14
 -1      1060 3.88593E-03 1.57342E-04-8.07322E-15
 -1      1061 1.92288E-03 1.56350E-04-2.20379E-15
 -1      1062 3.59768E-03 1.58216E-04-6.98751E-15
 -1      1063 1.86607E-03-3.66850E-05-2.27671E-15
 -1      1064 2.72887E-03 1.56349E-04-4.18801E-15
 -1      1065 2.43853E-03 1.53328E-04-3.41088E-15
 -1      1066 1.86617E-03 3.94700E-05-2.21598E-15
 -1      1067 1.89355E-03 9.74390E-05-2.21433E-15
 -1      1068 2.63874E-03-4.50821E-05-4.21170E-15
 -1      1069 3.21991E-03-4.57787E-05-6.02743E-15
 -1      1070 3.50961E-03-4.56795E-05-7.05157E-15
 -1      1071 3.79851E-03-4.53772E-05-8.15018E-15
 -1      1072 4.08646E-03-4.49172E-05-9.32026E-15
 -1      1073 4.37334E-03-4.43250E-05-1.05638E-14
 -1      1074 4.65904E-03-4.36141E-05-1.18771E-14
 -1      1075 4.94336E-03-4.28040E-05-1.32567E-14
 -1      1076 5.22609E-03-4.18914E-05-1.47049E-14
 -1      1077 5.50693E-03-4.08960E-05-1.62181E-14
 -1      1078 5.78549E-03-3.98451E-05-1.77953E-14
 -1      1079 6.06130E-03-3.87872E-05-1.94357E-14
 -1      1080 6.33379E-03-3.77998E-05-2.11354E-14
 -1      1081 6.60225E-03-3.69964E-05-2.28926E-14
 -1      1082 6.86582E-03-3.65310E-05-2.47028E-14
 -1      1083 7.12345E-03-3.65966E-05-2.65678E-14
 -1      1084 7.37371E-03-3.74170E-05-2.84833E-14
 -1      1085 7.61453E-03-3.93361E-05-3.04461E-14
 -1      1086 6.81733E-03 6.07566E-05-2.38615E-14
 -1      1087 6.28071E-03 6.79481E-05-2.03598E-14
 -1      1088 5.16898E-03 7.73762E-05-1.40585E-14
 -1      1089 6.00676E-03 7.08643E-05-1.86902E-14
 -1      1090 7.07858E-03 5.63779E-05-2.56958E-14
 -1      1091 7.33397E-03 5.13732E-05-2.75850E-14
 -1      1092 7.58239E-03 4.56514E-05-2.95207E-14
 -1      1093 7.82202E-03 3.87602E-05-3.14991E-14
 -1      1094 5.45044E-03 7.55397E-05-1.55384E-14
 -1      1095 3.01900E-03 1.57946E-04-5.04349E-15
 -1      1096 2.34793E-03-4.40663E-05-3.42109E-15
 -1      1097 4.17335E-03 1.55976E-04-9.23080E-15
 -1      1098 5.72984E-03 7.33819E-05-1.70819E-14
 -1      1099 4.88577E-03 7.89270E-05-1.26446E-14
 -1      1100 2.18038E-03 1.56058E-04-2.77523E-15
 -1      1101 6.55112E-03 6.45938E-05-2.20838E-14
 -1      1102 3.30865E-03 1.58477E-04-5.97594E-15
 -1      1103 2.92953E-03-4.56152E-05-5.08023E-15
 -1      1104 2.10620E-03-7.47723E-07-2.78702E-15
 -1      1105 3.73994E-03 8.26736E-05-7.67871E-15
 -1      1106 4.60108E-03 8.02221E-05-1.12981E-14
 -1      1107 4.02803E-03 8.21020E-05-8.81312E-15
 -1      1108 2.87082E-03 8.22874E-05-4.72347E-15
 -1      1109 2.58010E-03 8.10410E-05-3.89272E-15
 -1      1110 3.36472E-03 2.98144E-05-6.40958E-15
 -1      1111 4.51627E-03 2.91091E-05-1.10413E-14
 -1      1112 3.16120E-03 8.28665E-05-5.63050E-15
 -1      1113 4.31512E-03 8.12772E-05-1.00200E-14
 -1      1114 2.49309E-03 2.88152E-05-3.72565E-15
 -1      1115 2.15132E-03 9.49586E-05-2.78941E-15
 -1      1116 2.36556E-03 8.85091E-05-3.31843E-15
 -1      1117 0.00000E+00 0.00000E+00 0.00000E+00
 -1      1118 0.00000E+00 0.00000E+00 0.00000E+00
 -1      1119 0.00000E+00 0.00000E+00 0.00000E+00
 -1      1120 0.00000E+00 0.00000E+00 0.00000E+00
 -1      1121 0.00000E+00 0.00000E+00 0.00000E+00
 -1      1122 0.00000E+00 0.00000E+00 0.00000E+00
 -1      1123 0.00000E+00 0.00000E+00 0.00000E+00
 -1      1124 0.00000E+00 0.00000E+00 0.00000E+00
 -1      1125 0.00000E+00 0.00000E+00 0.00000E+00
 -1      1126 0.00000E+00 0.00000E+00 0.00000E+00
 -1      1127 0.00000E+00 0.00000E+00 0.00000E+00
 -1      1128 0.00000E+00 0.00000E+00 0.00000E+00
 -1      1129 0.00000E+00 0.00000E+00 0.00000E+00
 -1      1130 0.00000E+00 0.00000E+00 0.00000E+00
 -1      1131 0.00000E+00 0.00000E+00 0.00000E+00
 -1      1132 0.00000E+00 0.00000E+00 0.00000E+00
 -1      1133 0.00000E+00 0.00000E+00 0.00000E+00
 -1      1134 2.11653E-04-1.48338E-04 1.89735E-19
 -1      1135 5.51578E-04-3.37547E-04-7.12456E-17
 -1      1136 8.33334E-04-4.59059E-04-2.45003E-16
 -1      1137 1.10283E-03-5.40738E-04-5.36721E-16
 -1      1138 1.36814E-03-5.97958E-04-9.37889E-16
 -1      1139 1.63284E-03-6.38606E-04-1.44375E-15
 -1      1140 1.89876E-03-6.67319E-04-2.05073E-15
 -1      1141 2.16675E-03-6.87201E-04-2.75420E-15
 -1      1142 2.43711E-03-7.00518E-04-3.55111E-15
 -1      1143 2.70984E-03-7.08969E-04-4.43994E-15
 -1      1144 2.98479E-03-7.13827E-04-5.41966E-15
 -1      1145 3.26172E-03-7.16037E-04-6.48207E-15
 -1      1146 3.54041E-03-7.16280E-04-7.62183E-15
 -1      1147 3.82062E-03-7.15031E-04-8.83871E-15
 -1      1148 4.10219E-03-7.12602E-04-1.01300E-14
 -1      1149 4.38501E-03-7.09183E-04-1.14945E-14
 -1      1150 4.66904E-03-7.04875E-04-1.29244E-14
 -1      1151 4.95437E-03-6.99720E-04-1.44187E-14
 -1      1152 5.24119E-03-6.93738E-04-1.59788E-14
 -1      1153 5.52982E-03-6.86962E-04-1.76097E-14
 -1      1154 5.82077E-03-6.79484E-04-1.93022E-14
 -1      1155 6.11472E-03-6.71516E-04-2.10560E-14
 -1      1156 6.41255E-03-6.63465E-04-2.28649E-14
 -1      1157 6.71538E-03-6.56039E-04-2.47348E-14
 -1      1158 7.02450E-03-6.50382E-04-2.66668E-14
 -1      1159 7.34137E-03-6.48246E-04-2.86545E-14
 -1      1160 7.66743E-03-6.52190E-04-3.06935E-14
 -1      1161 8.00378E-03-6.65750E-04-3.27842E-14
 -1      1162 8.35070E-03-6.93491E-04-3.49309E-14
 -1      1163 8.70685E-03-7.40681E-04-3.71216E-14
 -1      1164 9.06833E-03-8.12217E-04-3.93442E-14
 -1      1165 9.42795E-03-9.10385E-04-4.15977E-14
 -1      1166 9.77544E-03-1.03137E-03-4.38819E-14
 -1      1167 1.00999E-02-1.16175E-03-4.61979E-14
 -1      1168 1.03949E-02-1.27811E-03-4.85477E-14
 -1      1169 1.06637E-02-1.35306E-03-5.09136E-14
 -1      1170 1.09207E-02-1.36704E-03-5.32950E-14
 -1      1171 1.11857E-02-1.31851E-03-5.56829E-14
 -1      1172 1.14745E-02-1.22492E-03-5.80643E-14
 -1      1173 1.17916E-02-1.11319E-03-6.04455E-14
 -1      1174 1.21316E-02-1.00752E-03-6.28351E-14
 -1      1175 1.24835E-02-9.22415E-04-6.52368E-14
 -1      1176 1.28366E-02-8.62354E-04-6.76575E-14
 -1      1177 1.31828E-02-8.24970E-04-7.00989E-14
 -1      1178 1.35176E-02-8.04601E-04-7.25560E-14
 -1      1179 1.38392E-02-7.94678E-04-7.50343E-14
 -1      1180 1.41479E-02-7.88930E-04-7.75323E-14
 -1      1181 1.44455E-02-7.81902E-04-8.00440E-14
 -1      1182 1.47349E-02-7.69450E-04-8.25693E-14
 -1      1183 1.50133E-02-7.51061E-04-8.50561E-14
 -1      1184 2.28411E-04 1.60716E-04 3.04661E-17
 -1      1185 5.53748E-04 3.42177E-04 4.32597E-17
 -1      1186 8.34262E-04 4.61223E-04-1.30917E-17
 -1      1187 1.10373E-03 5.42423E-04-1.49891E-16
 -1      1188 1.36904E-03 5.99638E-04-3.70214E-16
 -1      1189 1.63379E-03 6.40375E-04-6.73913E-16
 -1      1190 1.89976E-03 6.69192E-04-1.06166E-15
 -1      1191 2.16780E-03 6.89193E-04-1.53350E-15
 -1      1192 2.43819E-03 7.02637E-04-2.08892E-15
 -1      1193 2.71094E-03 7.11220E-04-2.72503E-15
 -1      1194 2.98590E-03 7.16215E-04-3.44662E-15
 -1      1195 3.26285E-03 7.18563E-04-4.24790E-15
 -1      1196 3.54154E-03 7.18947E-04-5.13032E-15
 -1      1197 3.82177E-03 7.17844E-04-6.09457E-15
 -1      1198 4.10336E-03 7.15568E-04-7.13676E-15
 -1      1199 4.38620E-03 7.12314E-04-8.25823E-15
 -1      1200 4.67025E-03 7.08192E-04-9.45717E-15
 -1      1201 4.95561E-03 7.03254E-04-1.07283E-14
 -1      1202 5.24243E-03 6.97538E-04-1.20696E-14
 -1      1203 5.53105E-03 6.91102E-04-1.34773E-14
 -1      1204 5.82192E-03 6.84069E-04-1.49473E-14
 -1      1205 6.11567E-03 6.76691E-04-1.64786E-14
 -1      1206 6.41306E-03 6.69419E-04-1.80749E-14
 -1      1207 6.71505E-03 6.63000E-04-1.97342E-14
 -1      1208 7.02266E-03 6.58584E-04-2.14462E-14
 -1      1209 7.33696E-03 6.57854E-04-2.32011E-14
 -1      1210 7.65880E-03 6.63131E-04-2.49929E-14
 -1      1211 7.98858E-03 6.77420E-04-2.68216E-14
 -1      1212 8.32576E-03 7.04276E-04-2.86928E-14
 -1      1213 8.66830E-03 7.47306E-04-3.06111E-14
 -1      1214 9.01213E-03 8.09110E-04-3.25794E-14
 -1      1215 9.35099E-03 8.89494E-04-3.46006E-14
 -1      1216 9.67710E-03 9.83261E-04-3.66759E-14
 -1      1217 9.98334E-03 1.07860E-03-3.88052E-14
 -1      1218 1.02665E-02 1.15787E-03-4.09884E-14
 -1      1219 1.05303E-02 1.20215E-03-4.32232E-14
 -1      1220 1.07856E-02 1.19855E-03-4.54991E-14
 -1      1221 1.10465E-02 1.14610E-03-4.78186E-14
 -1      1222 1.13246E-02 1.05629E-03-5.01614E-14
 -1      1223 1.16245E-02 9.47553E-04-5.25225E-14
 -1      1224 1.19437E-02 8.37829E-04-5.48949E-14
 -1      1225 1.22750E-02 7.39468E-04-5.72689E-14
 -1      1226 1.26103E-02 6.57956E-04-5.96556E-14
 -1      1227 1.29428E-02 5.93294E-04-6.20718E-14
 -1      1228 1.32678E-02 5.42181E-04-6.44859E-14
 -1      1229 1.35830E-02 4.99837E-04-6.69095E-14
 -1      1230 1.38880E-02 4.61175E-04-6.93482E-14
 -1      1231 1.41837E-02 4.21488E-04-7.18109E-14
 -1      1232 1.44724E-02 3.77123E-04-7.42756E-14
 -1      1233 1.47508E-02 3.28357E-04-7.66836E-14
 -1      1234 1.49121E-02 2.61159E-04-7.81083E-14
 -1      1235 1.49660E-02 1.76675E-04-7.86165E-14
 -1      1236 1.50254E-02 9.54881E-05-7.91211E-14
 -1      1237 1.50892E-02 2.09274E-05-7.96169E-14
 -1      1238 1.51537E-02-4.49302E-05-8.01201E-14
 -1      1239 1.52139E-02-1.00928E-04-8.06276E-14
 -1      1240 1.52660E-02-1.48230E-04-8.11404E-14
 -1      1241 1.53064E-02-1.88919E-04-8.16420E-14
 -1      1242 1.53317E-02-2.25387E-04-8.21365E-14
 -1      1243 1.53406E-02-2.61153E-04-8.26266E-14
 -1      1244 1.53336E-02-2.99915E-04-8.31013E-14
 -1      1245 1.53132E-02-3.44584E-04-8.36068E-14
 -1      1246 1.52833E-02-3.97857E-04-8.41357E-14
 -1      1247 1.52482E-02-4.61472E-04-8.46336E-14
 -1      1248 1.52134E-02-5.34713E-04-8.51084E-14
 -1      1249 1.51832E-02-6.15385E-04-8.55869E-14
 -1      1250 1.51593E-02-6.99129E-04-8.60519E-14
 -1      1251 1.29731E-02-2.57226E-05-5.40351E-14
 -1      1252 1.28385E-02 1.35719E-04-5.35222E-14
 -1      1253 1.26030E-02 2.93820E-04-5.28121E-14
 -1      1254 1.22975E-02 4.44748E-04-5.19419E-14
 -1      1255 1.19331E-02 5.85262E-04-5.09242E-14
 -1      1256 1.15190E-02 7.04555E-04-4.97861E-14
 -1      1257 1.10857E-02 7.79268E-04-4.86142E-14
 -1      1258 1.06435E-02 7.99874E-04-4.74523E-14
 -1      1259 1.02020E-02 7.62767E-04-4.63498E-14
 -1      1260 9.77722E-03 6.74034E-04-4.53632E-14
 -1      1261 9.36211E-03 5.40502E-04-4.44817E-14
 -1      1262 9.00374E-03 3.86050E-04-4.38246E-14
 -1      1263 8.73231E-03 2.27401E-04-4.34308E-14
 -1      1264 8.56458E-03 7.39842E-05-4.32964E-14
 -1      1265 8.51429E-03-7.53098E-05-4.34083E-14
 -1      1266 8.58039E-03-2.28287E-04-4.37688E-14
 -1      1267 8.75873E-03-3.84002E-04-4.43590E-14
 -1      1268 9.03740E-03-5.47665E-04-4.51758E-14
 -1      1269 9.37896E-03-7.01886E-04-4.61211E-14
 -1      1270 9.78067E-03-8.40918E-04-4.72130E-14
 -1      1271 1.02397E-02-9.48610E-04-4.84470E-14
 -1      1272 1.07000E-02-9.96372E-04-4.96678E-14
 -1      1273 1.11521E-02-9.79723E-04-5.08297E-14
 -1      1274 1.15905E-02-9.05372E-04-5.18928E-14
 -1      1275 1.19973E-02-7.88512E-04-5.27972E-14
 -1      1276 1.23673E-02-6.42626E-04-5.35197E-14
 -1      1277 1.26662E-02-4.88285E-04-5.40115E-14
 -1      1278 1.28747E-02-3.36468E-04-5.42754E-14
 -1      1279 1.29830E-02-1.84890E-04-5.42961E-14
 -1      1280 1.66682E-04-1.10352E-04-1.50840E-17
 -1      1281 1.12528E-04-5.69923E-05-2.95445E-17
 -1      1282 1.17608E-04-6.75971E-05-2.53568E-17
 -1      1283 1.08407E-04-4.35157E-05-3.60633E-17
 -1      1284 1.10267E-04-4.96257E-05-3.43150E-17
 -1      1285 2.26298E-04-1.07659E-04-8.10035E-17
 -1      1286 1.06845E-04-3.36458E-05-3.88415E-17
 -1      1287 1.07685E-04-3.83709E-05-3.81097E-17
 -1      1288 2.19084E-04-8.25163E-05-9.17642E-17
 -1      1289 1.06071E-04-2.53734E-05-3.99529E-17
 -1      1290 1.06501E-04-2.94069E-05-3.97902E-17
 -1      1291 2.15881E-04-6.33299E-05-9.65211E-17
 -1      1292 1.05668E-04-1.81116E-05-3.98986E-17
 -1      1293 1.05895E-04-2.16817E-05-4.01019E-17
 -1      1294 2.14224E-04-4.72295E-05-9.80254E-17
 -1      1295 1.05451E-04-1.12532E-05-3.92752E-17
 -1      1296 1.05573E-04-1.46416E-05-3.95463E-17
 -1      1297 2.13314E-04-3.27873E-05-9.74291E-17
 -1      1298 1.05354E-04-4.69542E-06-3.82723E-17
 -1      1299 1.05406E-04-7.95237E-06-3.85976E-17
 -1      1300 2.12826E-04-1.92119E-05-9.56402E-17
 -1      1301 1.05343E-04 1.74494E-06-3.70662E-17
 -1      1302 1.05341E-04-1.47226E-06-3.74998E-17
 -1      1303 2.12615E-04-6.16771E-06-9.31601E-17
 -1      1304 1.05414E-04 8.23478E-06-3.54805E-17
 -1      1305 1.05358E-04 4.97135E-06-3.58735E-17
 -1      1306 2.12623E-04 6.71621E-06-8.98397E-17
 -1      1307 1.05589E-04 1.49493E-05-3.32037E-17
 -1      1308 1.05463E-04 1.15462E-05-3.37865E-17
 -1      1309 2.12851E-04 1.97864E-05-8.53809E-17
 -1      1310 1.05918E-04 2.19739E-05-3.03441E-17
 -1      1311 1.05685E-04 1.83803E-05-3.11708E-17
 -1      1312 2.13355E-04 3.33013E-05-7.96482E-17
 -1      1313 1.06537E-04 2.98444E-05-2.64816E-17
 -1      1314 1.06100E-04 2.57661E-05-2.77556E-17
 -1      1315 2.14287E-04 4.78388E-05-7.24112E-17
 -1      1316 1.07721E-04 3.89442E-05-2.11555E-17
 -1      1317 1.06873E-04 3.41505E-05-2.31748E-17
 -1      1318 2.15979E-04 6.42572E-05-6.27889E-17
 -1      1319 1.10255E-04 5.03685E-05-1.31188E-17
 -1      1320 1.08419E-04 4.41864E-05-1.64663E-17
 -1      1321 2.19193E-04 8.37554E-05-4.93583E-17
 -1      1322 1.16923E-04 6.76348E-05-1.40946E-18
 -1      1323 1.12175E-04 5.77939E-05-7.02021E-18
 -1      1324 2.26293E-04 1.09485E-04-3.06423E-17
 -1      1325 1.57563E-04 1.09867E-04 1.61275E-17
 -1      1326 1.35644E-04 8.61041E-05 5.69206E-18
 -1      1327 2.56005E-04 1.52123E-04-8.71427E-18
 -1      1328 3.35046E-04 2.20759E-04 2.11013E-17
 -1      1329 4.21489E-04-2.61770E-04-7.36715E-17
 -1      1330 5.74560E-04-3.36844E-04-1.34238E-16
 -1      1331 7.21718E-04-3.97457E-04-2.26259E-16
 -1      1332 8.64853E-04-4.46757E-04-3.46619E-16
 -1      1333 6.11985E-04-3.30952E-04-2.04792E-16
 -1      1334 1.00484E-03-4.87829E-04-4.93773E-16
 -1      1335 1.14264E-03-5.21811E-04-6.68221E-16
 -1      1336 9.05158E-04-4.31661E-04-4.49442E-16
 -1      1337 1.27909E-03-5.50571E-04-8.68663E-16
 -1      1338 1.41469E-03-5.74586E-04-1.09576E-15
 -1      1339 1.18752E-03-5.01070E-04-7.99843E-16
 -1      1340 1.54988E-03-5.94921E-04-1.34844E-15
 -1      1341 1.68492E-03-6.11907E-04-1.62592E-15
 -1      1342 1.46437E-03-5.49802E-04-1.25354E-15
 -1      1343 1.82004E-03-6.26171E-04-1.92802E-15
 -1      1344 1.95536E-03-6.38004E-04-2.25449E-15
 -1      1345 1.73896E-03-5.84026E-04-1.80724E-15
 -1      1346 2.09101E-03-6.47806E-04-2.60420E-15
 -1      1347 2.22702E-03-6.55823E-04-2.97791E-15
 -1      1348 2.01316E-03-6.07709E-04-2.45688E-15
 -1      1349 2.36345E-03-6.62328E-04-3.37453E-15
 -1      1350 2.50031E-03-6.67523E-04-3.79338E-15
 -1      1351 2.28796E-03-6.23645E-04-3.19964E-15
 -1      1352 2.63761E-03-6.71598E-04-4.23600E-15
 -1      1353 2.77536E-03-6.74714E-04-4.70007E-15
 -1      1354 2.56384E-03-6.33884E-04-4.03410E-15
 -1      1355 2.91354E-03-6.77005E-04-5.18564E-15
 -1      1356 3.05214E-03-6.78596E-04-5.69309E-15
 -1      1357 2.84100E-03-6.39947E-04-4.95625E-15
 -1      1358 3.19114E-03-6.79578E-04-6.22039E-15
 -1      1359 3.33052E-03-6.80045E-04-6.76778E-15
 -1      1360 3.11948E-03-6.42957E-04-5.96304E-15
 -1      1361 3.47027E-03-6.80059E-04-7.33444E-15
 -1      1362 3.61036E-03-6.79688E-04-7.92018E-15
 -1      1363 3.39923E-03-6.43729E-04-7.05017E-15
 -1      1364 3.75078E-03-6.78969E-04-8.52573E-15
 -1      1365 3.89151E-03-6.77951E-04-9.14950E-15
 -1      1366 3.68018E-03-6.42834E-04-8.21606E-15
 -1      1367 4.03255E-03-6.76651E-04-9.79169E-15
 -1      1368 4.17387E-03-6.75106E-04-1.04518E-14
 -1      1369 3.96224E-03-6.40652E-04-9.45687E-15
 -1      1370 4.31549E-03-6.73316E-04-1.11297E-14
 -1      1371 4.45739E-03-6.71307E-04-1.18248E-14
 -1      1372 4.24536E-03-6.37419E-04-1.07697E-14
 -1      1373 4.59959E-03-6.69071E-04-1.25359E-14
 -1      1374 4.74209E-03-6.66627E-04-1.32636E-14
 -1      1375 4.52954E-03-6.33256E-04-1.21515E-14
 -1      1376 4.88491E-03-6.63958E-04-1.40075E-14
 -1      1377 5.02808E-03-6.61085E-04-1.47668E-14
 -1      1378 4.81482E-03-6.28209E-04-1.35990E-14
 -1      1379 5.17162E-03-6.57986E-04-1.55440E-14
 -1      1380 5.31557E-03-6.54685E-04-1.63383E-14
 -1      1381 5.10136E-03-6.22278E-04-1.51126E-14
 -1      1382 5.45999E-03-6.51162E-04-1.71481E-14
 -1      1383 5.60492E-03-6.47451E-04-1.79754E-14
 -1      1384 5.38937E-03-6.15455E-04-1.66921E-14
 -1      1385 5.75044E-03-6.43539E-04-1.88179E-14
 -1      1386 5.89662E-03-6.39479E-04-1.96755E-14
 -1      1387 5.67919E-03-6.07758E-04-1.83374E-14
 -1      1388 6.04354E-03-6.35270E-04-2.05482E-14
 -1      1389 6.19130E-03-6.30995E-04-2.14357E-14
 -1      1390 5.97129E-03-5.99292E-04-2.00451E-14
 -1      1391 6.34002E-03-6.26679E-04-2.23389E-14
 -1      1392 6.48980E-03-6.22446E-04-2.32546E-14
 -1      1393 6.26626E-03-5.90310E-04-2.18143E-14
 -1      1394 6.64078E-03-6.18362E-04-2.41865E-14
 -1      1395 6.79310E-03-6.14609E-04-2.51349E-14
 -1      1396 6.56483E-03-5.81306E-04-2.36427E-14
 -1      1397 6.94691E-03-6.11318E-04-2.60965E-14
 -1      1398 7.10234E-03-6.08743E-04-2.70724E-14
 -1      1399 6.86788E-03-5.73146E-04-2.55303E-14
 -1      1400 7.25956E-03-6.07115E-04-2.80625E-14
 -1      1401 7.41869E-03-6.06776E-04-2.90655E-14
 -1      1402 7.17635E-03-5.67221E-04-2.74751E-14
 -1      1403 7.57989E-03-6.08095E-04-3.00811E-14
 -1      1404 7.74324E-03-6.11514E-04-3.11094E-14
 -1      1405 7.49120E-03-5.65659E-04-2.94725E-14
 -1      1406 7.90882E-03-6.17580E-04-3.21508E-14
 -1      1407 8.07665E-03-6.26826E-04-3.32056E-14
 -1      1408 7.81327E-03-5.71541E-04-3.15214E-14
 -1      1409 8.24667E-03-6.39990E-04-3.42726E-14
 -1      1410 8.41874E-03-6.57651E-04-3.53533E-14
 -1      1411 8.14302E-03-5.89077E-04-3.36215E-14
 -1      1412 8.59263E-03-6.80676E-04-3.64435E-14
 -1      1413 8.76791E-03-7.09565E-04-3.75415E-14
 -1      1414 8.48022E-03-6.23555E-04-3.57694E-14
 -1      1415 8.94410E-03-7.45105E-04-3.86494E-14
 -1      1416 9.12047E-03-7.87466E-04-3.97655E-14
 -1      1417 8.82350E-03-6.80763E-04-3.79594E-14
 -1      1418 9.29623E-03-8.36926E-04-4.08893E-14
 -1      1419 9.47040E-03-8.92939E-04-4.20202E-14
 -1      1420 9.16991E-03-7.65386E-04-4.01836E-14
 -1      1421 9.64198E-03-9.54660E-04-4.31590E-14
 -1      1422 9.80993E-03-1.02036E-03-4.43047E-14
 -1      1423 9.51475E-03-8.77988E-04-4.24388E-14
 -1      1424 9.97341E-03-1.08760E-03-4.54598E-14
 -1      1425 1.01318E-02-1.15339E-03-4.66241E-14
 -1      1426 9.85195E-03-1.01076E-03-4.47260E-14
 -1      1427 1.02848E-02-1.21394E-03-4.77935E-14
 -1      1428 1.04328E-02-1.26566E-03-4.89691E-14
 -1      1429 1.01759E-02-1.14430E-03-4.70437E-14
 -1      1430 1.05764E-02-1.30482E-03-5.01500E-14
 -1      1431 1.07172E-02-1.32885E-03-5.13320E-14
 -1      1432 1.04845E-02-1.24962E-03-4.93876E-14
 -1      1433 1.08565E-02-1.33599E-03-5.25202E-14
 -1      1434 1.09966E-02-1.32605E-03-5.37119E-14
 -1      1435 1.07820E-02-1.29856E-03-5.17501E-14
 -1      1436 1.11388E-02-1.30033E-03-5.49023E-14
 -1      1437 1.12847E-02-1.26116E-03-5.60941E-14
 -1      1438 1.10783E-02-1.27809E-03-5.41252E-14
 -1      1439 1.14353E-02-1.21212E-03-5.72831E-14
 -1      1440 1.15909E-02-1.15671E-03-5.84696E-14
 -1      1441 1.13837E-02-1.19808E-03-5.65012E-14
 -1      1442 1.17514E-02-1.09879E-03-5.96619E-14
 -1      1443 1.19163E-02-1.04147E-03-6.08550E-14
 -1      1444 1.17032E-02-1.08540E-03-5.88790E-14
 -1      1445 1.20847E-02-9.87396E-04-6.20483E-14
 -1      1446 1.22556E-02-9.38397E-04-6.32451E-14
 -1      1447 1.20354E-02-9.69456E-04-6.12621E-14
 -1      1448 1.24280E-02-8.95481E-04-6.44465E-14
 -1      1449 1.26008E-02-8.59271E-04-6.56511E-14
 -1      1450 1.23749E-02-8.70944E-04-6.36563E-14
 -1      1451 1.27732E-02-8.29544E-04-6.68598E-14
 -1      1452 1.29445E-02-8.06106E-04-6.80759E-14
 -1      1453 1.27153E-02-7.98734E-04-6.60655E-14
 -1      1454 1.31139E-02-7.88112E-04-6.92942E-14
 -1      1455 1.32811E-02-7.74966E-04-7.05159E-14
 -1      1456 1.30516E-02-7.52587E-04-6.84899E-14
 -1      1457 1.34458E-02-7.65655E-04-7.17436E-14
 -1      1458 1.36077E-02-7.59446E-04-7.29772E-14
 -1      1459 1.33805E-02-7.27333E-04-7.09339E-14
 -1      1460 1.37670E-02-7.55384E-04-7.42156E-14
 -1      1461 1.39234E-02-7.52740E-04-7.54551E-14
 -1      1462 1.37002E-02-7.16077E-04-7.33967E-14
 -1      1463 1.40772E-02-7.50695E-04-7.67027E-14
 -1      1464 1.42286E-02-7.48587E-04-7.79563E-14
 -1      1465 1.40107E-02-7.11936E-04-7.58777E-14
 -1      1466 1.43777E-02-7.45764E-04-7.92127E-14
 -1      1467 1.45249E-02-7.41670E-04-8.04702E-14
 -1      1468 1.43125E-02-7.08756E-04-7.83799E-14
 -1      1469 1.46704E-02-7.35914E-04-8.17339E-14
 -1      1470 1.48147E-02-7.28169E-04-8.30030E-14
 -1      1471 1.46071E-02-7.01461E-04-8.08972E-14
 -1      1472 1.50235E-02-7.09706E-04-8.48303E-14
 -1      1473 1.49619E-02-6.78092E-04-8.39877E-14
 -1      1474 6.42987E-04 3.72058E-04-5.05509E-18
 -1      1475 4.92889E-04 3.03725E-04 1.76047E-17
 -1      1476 4.44822E-04 2.65933E-04-4.49944E-18
 -1      1477 9.28506E-04 4.72033E-04-1.09057E-16
 -1      1478 7.87678E-04 4.26539E-04-4.72170E-17
 -1      1479 7.44628E-04 3.90775E-04-7.65989E-17
 -1      1480 1.20331E-03 5.41441E-04-2.93114E-16
 -1      1481 1.06669E-03 5.09771E-04-1.90765E-16
 -1      1482 1.03061E-03 4.76218E-04-2.27005E-16
 -1      1483 1.47376E-03 5.90597E-04-5.59828E-16
 -1      1484 1.33876E-03 5.68163E-04-4.16008E-16
 -1      1485 1.30844E-03 5.36019E-04-4.57886E-16
 -1      1486 1.74317E-03 6.25411E-04-9.09984E-16
 -1      1487 1.60843E-03 6.09556E-04-7.24206E-16
 -1      1488 1.58258E-03 5.78251E-04-7.70502E-16
 -1      1489 2.01324E-03 6.49737E-04-1.34325E-15
 -1      1490 1.87804E-03 6.38713E-04-1.11625E-15
 -1      1491 1.85563E-03 6.07876E-04-1.16633E-15
 -1      1492 2.28477E-03 6.66305E-04-1.86052E-15
 -1      1493 2.14879E-03 6.58861E-04-1.59174E-15
 -1      1494 2.12902E-03 6.28263E-04-1.64553E-15
 -1      1495 2.55808E-03 6.77134E-04-2.45921E-15
 -1      1496 2.42119E-03 6.72338E-04-2.14955E-15
 -1      1497 2.40345E-03 6.41840E-04-2.20699E-15
 -1      1498 2.83324E-03 6.83733E-04-3.14015E-15
 -1      1499 2.69543E-03 6.80887E-04-2.78927E-15
 -1      1500 2.67923E-03 6.50405E-04-2.84912E-15
 -1      1501 3.11016E-03 6.87226E-04-3.90475E-15
 -1      1502 2.97149E-03 6.85812E-04-3.51222E-15
 -1      1503 2.95646E-03 6.55298E-04-3.57424E-15
 -1      1504 3.38871E-03 6.88432E-04-4.74806E-15
 -1      1505 3.24924E-03 6.88074E-04-4.31606E-15
 -1      1506 3.23510E-03 6.57503E-04-4.38045E-15
 -1      1507 3.66872E-03 6.87933E-04-5.67410E-15
 -1      1508 3.52854E-03 6.88367E-04-5.20105E-15
 -1      1509 3.51507E-03 6.57726E-04-5.26762E-15
 -1      1510 3.95005E-03 6.86124E-04-6.67951E-15
 -1      1511 3.80923E-03 6.87173E-04-6.16715E-15
 -1      1512 3.79626E-03 6.56458E-04-6.23576E-15
 -1      1513 4.23259E-03 6.83255E-04-7.76186E-15
 -1      1514 4.09117E-03 6.84809E-04-7.21069E-15
 -1      1515 4.07859E-03 6.54019E-04-7.28108E-15
 -1      1516 4.51629E-03 6.79468E-04-8.92374E-15
 -1      1517 4.37430E-03 6.81467E-04-8.33318E-15
 -1      1518 4.36202E-03 6.50600E-04-8.40440E-15
 -1      1519 4.80120E-03 6.74835E-04-1.01588E-14
 -1      1520 4.65860E-03 6.77250E-04-9.53222E-15
 -1      1521 4.64654E-03 6.46299E-04-9.60355E-15
 -1      1522 5.08744E-03 6.69384E-04-1.14648E-14
 -1      1523 4.94415E-03 6.72204E-04-1.08036E-14
 -1      1524 4.93224E-03 6.41155E-04-1.08753E-14
 -1      1525 5.37523E-03 6.63145E-04-1.28403E-14
 -1      1526 5.23113E-03 6.66352E-04-1.21437E-14
 -1      1527 5.21929E-03 6.35180E-04-1.22161E-14
 -1      1528 5.66493E-03 6.56183E-04-1.42800E-14
 -1      1529 5.51982E-03 6.59736E-04-1.35522E-14
 -1      1530 5.50795E-03 6.28403E-04-1.36236E-14
 -1      1531 5.95703E-03 6.48657E-04-1.57818E-14
 -1      1532 5.81065E-03 6.52461E-04-1.50227E-14
 -1      1533 5.79858E-03 6.20912E-04-1.50961E-14
 -1      1534 6.25214E-03 6.40882E-04-1.73482E-14
 -1      1535 6.10417E-03 6.44754E-04-1.65572E-14
 -1      1536 6.09168E-03 6.12911E-04-1.66325E-14
 -1      1537 6.55102E-03 6.33416E-04-1.89751E-14
 -1      1538 6.40106E-03 6.37042E-04-1.81539E-14
 -1      1539 6.38785E-03 6.04802E-04-1.82303E-14
 -1      1540 6.85453E-03 6.27159E-04-2.06606E-14
 -1      1541 6.70214E-03 6.30039E-04-1.98115E-14
 -1      1542 6.68779E-03 5.97273E-04-1.98864E-14
 -1      1543 7.16355E-03 6.23488E-04-2.23975E-14
 -1      1544 7.00829E-03 6.24870E-04-2.15226E-14
 -1      1545 6.99225E-03 5.91419E-04-2.15972E-14
 -1      1546 7.47890E-03 6.24373E-04-2.41720E-14
 -1      1547 7.32038E-03 6.23195E-04-2.32794E-14
 -1      1548 7.30199E-03 5.88876E-04-2.33558E-14
 -1      1549 7.80110E-03 6.32491E-04-2.59865E-14
 -1      1550 7.63912E-03 6.27333E-04-2.50757E-14
 -1      1551 7.61758E-03 5.91954E-04-2.51557E-14
 -1      1552 8.13008E-03 6.51210E-04-2.78414E-14
 -1      1553 7.96476E-03 6.40320E-04-2.69086E-14
 -1      1554 7.93931E-03 6.03704E-04-2.69935E-14
 -1      1555 8.46477E-03 6.84337E-04-2.97385E-14
 -1      1556 8.29681E-03 6.65801E-04-2.87841E-14
 -1      1557 8.26680E-03 6.27841E-04-2.88726E-14
 -1      1558 8.80272E-03 7.35403E-04-3.16827E-14
 -1      1559 8.63354E-03 7.07568E-04-3.07040E-14
 -1      1560 8.59876E-03 6.68307E-04-3.07952E-14
 -1      1561 9.13978E-03 8.06251E-04-3.36796E-14
 -1      1562 8.97168E-03 7.68518E-04-3.26742E-14
 -1      1563 8.93269E-03 7.28259E-04-3.27679E-14
 -1      1564 9.47037E-03 8.94906E-04-3.57309E-14
 -1      1565 9.30630E-03 8.48858E-04-3.46986E-14
 -1      1566 9.26477E-03 8.08282E-04-3.47936E-14
 -1      1567 9.78849E-03 9.93291E-04-3.78324E-14
 -1      1568 9.63137E-03 9.43784E-04-3.67754E-14
 -1      1569 9.59023E-03 9.03981E-04-3.68717E-14
 -1      1570 1.00898E-02 1.08627E-03-3.99906E-14
 -1      1571 9.94145E-03 1.04164E-03-3.89046E-14
 -1      1572 9.90453E-03 1.00393E-03-3.90017E-14
 -1      1573 1.03743E-02 1.15406E-03-4.21959E-14
 -1      1574 1.02340E-02 1.12444E-03-4.10873E-14
 -1      1575 1.02052E-02 1.08991E-03-4.11815E-14
 -1      1576 1.06473E-02 1.17865E-03-4.44475E-14
 -1      1577 1.05116E-02 1.17236E-03-4.33175E-14
 -1      1578 1.04940E-02 1.14128E-03-4.34099E-14
 -1      1579 1.09185E-02 1.15165E-03-4.67420E-14
 -1      1580 1.07824E-02 1.17138E-03-4.55890E-14
 -1      1581 1.07768E-02 1.14295E-03-4.56778E-14
 -1      1582 1.11983E-02 1.07838E-03-4.90692E-14
 -1      1583 1.10568E-02 1.11983E-03-4.79020E-14
 -1      1584 1.10621E-02 1.09250E-03-4.79848E-14
 -1      1585 1.14932E-02 9.75176E-04-5.14147E-14
 -1      1586 1.13437E-02 1.02923E-03-5.02402E-14
 -1      1587 1.13569E-02 1.00147E-03-5.03173E-14
 -1      1588 1.18042E-02 8.61968E-04-5.37827E-14
 -1      1589 1.16468E-02 9.18717E-04-5.25970E-14
 -1      1590 1.16643E-02 8.89576E-04-5.26728E-14
 -1      1591 1.21275E-02 7.55035E-04-5.61571E-14
 -1      1592 1.19647E-02 8.07052E-04-5.49693E-14
 -1      1593 1.19828E-02 7.76322E-04-5.50425E-14
 -1      1594 1.24570E-02 6.63644E-04-5.85356E-14
 -1      1595 1.22919E-02 7.07180E-04-5.73449E-14
 -1      1596 1.23081E-02 6.75174E-04-5.74210E-14
 -1      1597 1.27867E-02 5.90367E-04-6.09377E-14
 -1      1598 1.26222E-02 6.24843E-04-5.97338E-14
 -1      1599 1.26352E-02 5.92106E-04-5.98112E-14
 -1      1600 1.31119E-02 5.33192E-04-6.33538E-14
 -1      1601 1.29501E-02 5.60038E-04-6.21451E-14
 -1      1602 1.29598E-02 5.27135E-04-6.22202E-14
 -1      1603 1.34296E-02 4.87729E-04-6.57721E-14
 -1      1604 1.32718E-02 5.09326E-04-6.45632E-14
 -1      1605 1.32787E-02 4.76730E-04-6.46367E-14
 -1      1606 1.37387E-02 4.48769E-04-6.82058E-14
 -1      1607 1.35853E-02 4.67759E-04-6.69881E-14
 -1      1608 1.35904E-02 4.35814E-04-6.70641E-14
 -1      1609 1.40392E-02 4.11187E-04-7.06530E-14
 -1      1610 1.38899E-02 4.30084E-04-6.94271E-14
 -1      1611 1.38944E-02 3.99003E-04-6.95052E-14
 -1      1612 1.43324E-02 3.70521E-04-7.31184E-14
 -1      1613 1.41866E-02 3.91443E-04-7.18827E-14
 -1      1614 1.41913E-02 3.61313E-04-7.19596E-14
 -1      1615 1.46206E-02 3.23818E-04-7.55826E-14
 -1      1616 1.44770E-02 3.47971E-04-7.43508E-14
 -1      1617 1.44825E-02 3.18730E-04-7.44232E-14
 -1      1618 1.47763E-02 2.86273E-04-7.69356E-14
 -1      1619 1.48568E-02 1.80435E-04-7.76730E-14
 -1      1620 1.48283E-02 2.21364E-04-7.74187E-14
 -1      1621 1.49184E-02 1.01985E-04-7.81733E-14
 -1      1622 1.48869E-02 1.40545E-04-7.79234E-14
 -1      1623 1.47483E-02 1.83210E-04-7.67271E-14
 -1      1624 1.49838E-02 2.97389E-05-7.86715E-14
 -1      1625 1.49508E-02 6.49854E-05-7.84235E-14
 -1      1626 1.48120E-02 1.06356E-04-7.72270E-14
 -1      1627 1.50489E-02-3.50495E-05-7.91754E-14
 -1      1628 1.50167E-02-3.62940E-06-7.89243E-14
 -1      1629 1.48787E-02 3.53004E-05-7.77273E-14
 -1      1630 1.51082E-02-9.12002E-05-7.96734E-14
 -1      1631 1.50794E-02-6.40384E-05-7.94238E-14
 -1      1632 1.49436E-02-2.87279E-05-7.82245E-14
 -1      1633 1.51590E-02-1.41392E-04-8.01830E-14
 -1      1634 1.51350E-02-1.17087E-04-7.99299E-14
 -1      1635 1.50024E-02-8.63899E-05-7.87231E-14
 -1      1636 1.51965E-02-1.86310E-04-8.06768E-14
 -1      1637 1.51796E-02-1.64373E-04-8.04303E-14
 -1      1638 1.50510E-02-1.38936E-04-7.92214E-14
 -1      1639 1.52179E-02-2.28460E-04-8.11709E-14
 -1      1640 1.52093E-02-2.07558E-04-8.09242E-14
 -1      1641 1.50851E-02-1.87480E-04-7.97142E-14
 -1      1642 1.52225E-02-2.70800E-04-8.16574E-14
 -1      1643 1.52223E-02-2.49420E-04-8.14160E-14
 -1      1644 1.51024E-02-2.34261E-04-8.02060E-14
 -1      1645 1.52111E-02-3.16320E-04-8.21451E-14
 -1      1646 1.52186E-02-2.92992E-04-8.19006E-14
 -1      1647 1.51025E-02-2.81826E-04-8.06950E-14
 -1      1648 1.51871E-02-3.66659E-04-8.26444E-14
 -1      1649 1.52004E-02-3.40672E-04-8.23927E-14
 -1      1650 1.50870E-02-3.32199E-04-8.11845E-14
 -1      1651 1.51540E-02-4.25289E-04-8.31578E-14
 -1      1652 1.51714E-02-3.94971E-04-8.29024E-14
 -1      1653 1.50593E-02-3.87749E-04-8.16801E-14
 -1      1654 1.51173E-02-4.92084E-04-8.36422E-14
 -1      1655 1.51358E-02-4.57669E-04-8.34060E-14
 -1      1656 1.50237E-02-4.50295E-04-8.21760E-14
 -1      1657 1.50822E-02-5.66491E-04-8.41224E-14
 -1      1658 1.50992E-02-5.28424E-04-8.38826E-14
 -1      1659 1.49859E-02-5.19773E-04-8.26587E-14
 -1      1660 1.50138E-02-6.41955E-04-8.41742E-14
 -1      1661 1.50280E-02-6.01484E-04-8.39382E-14
 -1      1662 1.49125E-02-5.90590E-04-8.27147E-14
 -1      1663 1.48045E-02-6.59706E-04-8.23488E-14
 -1      1664 1.29620E-02-3.60711E-05-5.44919E-14
 -1      1665 1.30057E-02-8.34665E-05-5.46983E-14
 -1      1666 1.27692E-02 9.26450E-05-5.37894E-14
 -1      1667 1.28721E-02 3.46484E-05-5.40919E-14
 -1      1668 1.24711E-02 2.43145E-04-5.29580E-14
 -1      1669 1.26197E-02 1.69984E-04-5.33672E-14
 -1      1670 1.21310E-02 4.12785E-04-5.19721E-14
 -1      1671 1.22917E-02 3.35980E-04-5.24269E-14
 -1      1672 1.17253E-02 5.84106E-04-5.08564E-14
 -1      1673 1.19103E-02 4.99282E-04-5.14148E-14
 -1      1674 1.13432E-02 7.39910E-04-4.95790E-14
 -1      1675 1.15242E-02 6.76351E-04-5.01519E-14
 -1      1676 1.09488E-02 8.32366E-04-4.83029E-14
 -1      1677 1.11280E-02 7.98845E-04-4.88946E-14
 -1      1678 1.05663E-02 8.41810E-04-4.70583E-14
 -1      1679 1.07407E-02 8.48264E-04-4.76192E-14
 -1      1680 1.01708E-02 7.65255E-04-4.58932E-14
 -1      1681 1.03544E-02 8.09892E-04-4.64245E-14
 -1      1682 9.78486E-03 6.26982E-04-4.48531E-14
 -1      1683 9.96324E-03 6.96980E-04-4.53002E-14
 -1      1684 9.37002E-03 4.34048E-04-4.38869E-14
 -1      1685 9.56882E-03 5.26475E-04-4.42966E-14
 -1      1686 8.99359E-03 2.72191E-04-4.33311E-14
 -1      1687 9.14804E-03 3.46262E-04-4.35756E-14
 -1      1688 8.70388E-03 1.02999E-04-4.28202E-14
 -1      1689 8.83418E-03 1.67626E-04-4.29585E-14
 -1      1690 8.53370E-03 8.15403E-06-4.28803E-14
 -1      1691 8.59128E-03 5.42043E-05-4.28843E-14
 -1      1692 8.50068E-03-9.32840E-05-4.29548E-14
 -1      1693 8.49661E-03-4.95542E-05-4.28307E-14
 -1      1694 8.61475E-03-2.03939E-04-4.35048E-14
 -1      1695 8.54763E-03-1.54247E-04-4.32784E-14
 -1      1696 8.86218E-03-3.27234E-04-4.41319E-14
 -1      1697 8.73295E-03-2.60992E-04-4.37733E-14
 -1      1698 9.19021E-03-5.09128E-04-4.51203E-14
 -1      1699 9.02720E-03-4.28450E-04-4.46760E-14
 -1      1700 9.56216E-03-6.87792E-04-4.61560E-14
 -1      1701 9.38877E-03-6.04992E-04-4.56670E-14
 -1      1702 9.98406E-03-8.65416E-04-4.73697E-14
 -1      1703 9.78981E-03-7.82492E-04-4.67760E-14
 -1      1704 1.04046E-02-1.00126E-03-4.87353E-14
 -1      1705 1.02097E-02-9.47787E-04-4.81045E-14
 -1      1706 1.07994E-02-1.04411E-03-5.00316E-14
 -1      1707 1.06210E-02-1.03532E-03-4.94507E-14
 -1      1708 1.12001E-02-9.96714E-04-5.12796E-14
 -1      1709 1.10127E-02-1.03008E-03-5.07092E-14
 -1      1710 1.15895E-02-8.74831E-04-5.24042E-14
 -1      1711 1.14105E-02-9.38839E-04-5.19182E-14
 -1      1712 1.19856E-02-7.06381E-04-5.33505E-14
 -1      1713 1.18031E-02-7.88221E-04-5.29376E-14
 -1      1714 1.23671E-02-5.26327E-04-5.40919E-14
 -1      1715 1.21954E-02-6.08899E-04-5.37818E-14
 -1      1716 1.26859E-02-3.74028E-04-5.45400E-14
 -1      1717 1.25511E-02-4.42194E-04-5.43525E-14
 -1      1718 1.29066E-02-2.44077E-04-5.48006E-14
 -1      1719 1.28167E-02-2.98234E-04-5.47267E-14
 -1      1720 1.30106E-02-1.37661E-04-5.48248E-14
 -1      1721 1.29797E-02-1.81491E-04-5.48802E-14
 -1      1722 1.19504E-02 4.18308E-04-5.19158E-14
 -1      1723 1.23382E-02 2.33288E-04-5.30056E-14
 -1      1724 1.47826E-02 2.57556E-04-7.70106E-14
 -1      1725 1.46721E-02 2.58986E-04-7.60667E-14
 -1      1726 1.29196E-02-4.01611E-05-5.47871E-14
 -1      1727 1.26717E-02 7.67715E-05-5.39621E-14
 -1      1728 1.30193E-02-1.12073E-04-5.53146E-14
 -1      1729 1.15645E-02 6.15976E-04-5.06536E-14
 -1      1730 1.11889E-02 7.81373E-04-4.92648E-14
 -1      1731 1.08327E-02 8.66129E-04-4.78986E-14
 -1      1732 1.04835E-02 8.48003E-04-4.65835E-14
 -1      1733 1.01183E-02 7.35441E-04-4.53622E-14
 -1      1734 9.73221E-03 5.50078E-04-4.42179E-14
 -1      1735 9.32057E-03 3.46734E-04-4.33605E-14
 -1      1736 8.94021E-03 1.60499E-04-4.26815E-14
 -1      1737 8.65842E-03 4.07578E-05-4.23762E-14
 -1      1738 8.50548E-03-3.85444E-05-4.23905E-14
 -1      1739 8.51546E-03-9.99996E-05-4.26637E-14
 -1      1740 8.68551E-03-1.88486E-04-4.32522E-14
 -1      1741 8.97729E-03-3.18792E-04-4.40571E-14
 -1      1742 9.34262E-03-5.08474E-04-4.51421E-14
 -1      1743 9.74770E-03-7.11061E-04-4.63028E-14
 -1      1744 1.01521E-02-9.09108E-04-4.76540E-14
 -1      1745 1.05331E-02-1.04043E-03-4.91030E-14
 -1      1746 1.08965E-02-1.06243E-03-5.04948E-14
 -1      1747 1.12604E-02-9.79904E-04-5.18106E-14
 -1      1748 1.16356E-02-8.17094E-04-5.29827E-14
 -1      1749 1.20311E-02-6.18029E-04-5.39485E-14
 -1      1750 1.24151E-02-4.32330E-04-5.46446E-14
 -1      1751 1.27337E-02-2.86022E-04-5.50952E-14
 -1      1752 1.29461E-02-1.80928E-04-5.53613E-14
 -1      1753 2.85205E-04-1.76254E-04-6.05120E-17
 -1      1754 3.32133E-04-1.16848E-04-1.42939E-16
 -1      1755 3.36224E-04-1.33050E-04-1.37897E-16
 -1      1756 3.42167E-04-1.52049E-04-1.31229E-16
 -1      1757 3.51723E-04-1.74054E-04-1.20536E-16
 -1      1758 4.58258E-04-1.88129E-04-2.00605E-16
 -1      1759 3.24582E-04-6.54295E-05-1.49403E-16
 -1      1760 3.25720E-04-7.67272E-05-1.49254E-16
 -1      1761 3.23111E-04-4.39238E-05-1.48021E-16
 -1      1762 3.23755E-04-5.44191E-05-1.49024E-16
 -1      1763 4.36542E-04-7.93412E-05-2.19293E-16
 -1      1764 3.22339E-04-2.37912E-05-1.45026E-16
 -1      1765 3.22665E-04-3.37120E-05-1.46774E-16
 -1      1766 4.34571E-04-5.13531E-05-2.16759E-16
 -1      1767 3.22051E-04-4.34090E-06-1.40784E-16
 -1      1768 3.22146E-04-1.40013E-05-1.43006E-16
 -1      1769 4.33566E-04-2.49420E-05-2.11989E-16
 -1      1770 3.22171E-04 1.49932E-05-1.35159E-16
 -1      1771 3.22059E-04 5.32277E-06-1.38154E-16
 -1      1772 4.33274E-04 7.57824E-07-2.05172E-16
 -1      1773 3.22728E-04 3.47573E-05-1.28166E-16
 -1      1774 3.22382E-04 2.48041E-05-1.32002E-16
 -1      1775 4.33624E-04 2.64864E-05-1.96756E-16
 -1      1776 3.23843E-04 5.52070E-05-1.19411E-16
 -1      1777 3.23187E-04 4.48386E-05-1.24209E-16
 -1      1778 4.34686E-04 5.27587E-05-1.86388E-16
 -1      1779 3.25880E-04 7.78668E-05-1.07810E-16
 -1      1780 3.24692E-04 6.62822E-05-1.14099E-16
 -1      1781 4.36719E-04 8.06517E-05-1.73079E-16
 -1      1782 3.29545E-04 1.03708E-04-9.24418E-17
 -1      1783 3.27409E-04 9.03570E-05-1.00926E-16
 -1      1784 4.40338E-04 1.11630E-04-1.55827E-16
 -1      1785 3.36554E-04 1.35164E-04-7.09610E-17
 -1      1786 3.32385E-04 1.18667E-04-8.29008E-17
 -1      1787 4.46775E-04 1.47402E-04-1.32828E-16
 -1      1788 3.52258E-04 1.77648E-04-4.11455E-17
 -1      1789 3.42774E-04 1.54808E-04-5.76118E-17
 -1      1790 4.59275E-04 1.91519E-04-1.01481E-16
 -1      1791 4.07642E-04 2.33724E-04-1.82959E-17
 -1      1792 3.78039E-04 2.02704E-04-3.25261E-17
 -1      1793 4.95791E-04 2.44050E-04-7.24112E-17
 -1      1794 5.58465E-04 3.02553E-04-4.71492E-17
 -1      1795 3.39978E-04-1.90944E-04-9.46373E-17
 -1      1796 8.53434E-04 4.07175E-04-1.63294E-16
 -1      1797 7.07057E-04 3.59431E-04-9.56266E-17
 -1      1798 6.73304E-04 3.28868E-04-1.11930E-16
 -1      1799 4.58898E-04-2.36770E-04-1.58565E-16
 -1      1800 8.07114E-04-3.74183E-04-4.03852E-16
 -1      1801 9.52353E-04-4.15364E-04-5.54840E-16
 -1      1802 1.09516E-03-4.50041E-04-7.31118E-16
 -1      1803 1.23680E-03-4.78920E-04-9.32766E-16
 -1      1804 1.00379E-03-3.97983E-04-6.62434E-16
 -1      1805 1.37717E-03-5.03380E-04-1.15968E-15
 -1      1806 1.51683E-03-5.23718E-04-1.41179E-15
 -1      1807 1.28943E-03-4.55913E-04-1.06718E-15
 -1      1808 1.65596E-03-5.40853E-04-1.68799E-15
 -1      1809 1.79476E-03-5.55019E-04-1.98802E-15
 -1      1810 1.57178E-03-4.96792E-04-1.57003E-15
 -1      1811 1.93344E-03-5.66824E-04-2.31133E-15
 -1      1812 2.07205E-03-5.76468E-04-2.65795E-15
 -1      1813 1.85234E-03-5.25221E-04-2.16811E-15
 -1      1814 2.21076E-03-5.84367E-04-3.02795E-15
 -1      1815 2.34955E-03-5.90689E-04-3.42021E-15
 -1      1816 2.13218E-03-5.44519E-04-2.85853E-15
 -1      1817 2.48856E-03-5.95725E-04-3.83476E-15
 -1      1818 2.62773E-03-5.99612E-04-4.27180E-15
 -1      1819 2.41199E-03-5.57119E-04-3.63912E-15
 -1      1820 2.76716E-03-6.02557E-04-4.73052E-15
 -1      1821 2.90680E-03-6.04669E-04-5.20965E-15
 -1      1822 2.69217E-03-5.64823E-04-4.50712E-15
 -1      1823 3.04672E-03-6.06092E-04-5.70965E-15
 -1      1824 3.18686E-03-6.06909E-04-6.22992E-15
 -1      1825 2.97295E-03-5.68962E-04-5.46034E-15
 -1      1826 3.32726E-03-6.07219E-04-6.77021E-15
 -1      1827 3.46789E-03-6.07084E-04-7.33044E-15
 -1      1828 3.25443E-03-5.70510E-04-6.49403E-15
 -1      1829 3.60878E-03-6.06568E-04-7.90961E-15
 -1      1830 3.74989E-03-6.05715E-04-8.50834E-15
 -1      1831 3.53664E-03-5.70156E-04-7.60743E-15
 -1      1832 3.89124E-03-6.04562E-04-9.12554E-15
 -1      1833 4.03281E-03-6.03140E-04-9.76075E-15
 -1      1834 3.81960E-03-5.68368E-04-8.79780E-15
 -1      1835 4.17461E-03-6.01463E-04-1.04133E-14
 -1      1836 4.31664E-03-5.99555E-04-1.10838E-14
 -1      1837 4.10330E-03-5.65443E-04-1.00608E-14
 -1      1838 4.45890E-03-5.97414E-04-1.17708E-14
 -1      1839 4.60140E-03-5.95056E-04-1.24740E-14
 -1      1840 4.38775E-03-5.61545E-04-1.13940E-14
 -1      1841 4.74416E-03-5.92469E-04-1.31955E-14
 -1      1842 4.88718E-03-5.89665E-04-1.39316E-14
 -1      1843 4.67300E-03-5.56741E-04-1.27942E-14
 -1      1844 5.03049E-03-5.86626E-04-1.46842E-14
 -1      1845 5.17412E-03-5.83366E-04-1.54540E-14
 -1      1846 4.95914E-03-5.51036E-04-1.42600E-14
 -1      1847 5.31808E-03-5.79865E-04-1.62410E-14
 -1      1848 5.46243E-03-5.76142E-04-1.70429E-14
 -1      1849 5.24630E-03-5.44402E-04-1.57922E-14
 -1      1850 5.60719E-03-5.72181E-04-1.78617E-14
 -1      1851 5.75244E-03-5.68014E-04-1.86975E-14
 -1      1852 5.53469E-03-5.36815E-04-1.73912E-14
 -1      1853 5.89819E-03-5.63637E-04-1.95477E-14
 -1      1854 6.04456E-03-5.59100E-04-2.04131E-14
 -1      1855 5.82458E-03-5.28304E-04-1.90543E-14
 -1      1856 6.19155E-03-5.54424E-04-2.12942E-14
 -1      1857 6.33931E-03-5.49685E-04-2.21908E-14
 -1      1858 6.11633E-03-5.19007E-04-2.07792E-14
 -1      1859 6.48785E-03-5.44947E-04-2.31018E-14
 -1      1860 6.63734E-03-5.40323E-04-2.40272E-14
 -1      1861 6.41039E-03-5.09248E-04-2.25644E-14
 -1      1862 6.78778E-03-5.35943E-04-2.49678E-14
 -1      1863 6.93938E-03-5.31971E-04-2.59222E-14
 -1      1864 6.70728E-03-4.99644E-04-2.44091E-14
 -1      1865 7.09211E-03-5.28630E-04-2.68909E-14
 -1      1866 7.24622E-03-5.26158E-04-2.78731E-14
 -1      1867 7.00762E-03-4.91243E-04-2.63120E-14
 -1      1868 7.40168E-03-5.24907E-04-2.88687E-14
 -1      1869 7.55870E-03-5.25205E-04-2.98761E-14
 -1      1870 7.31212E-03-4.85709E-04-2.82683E-14
 -1      1871 7.71729E-03-5.27570E-04-3.08976E-14
 -1      1872 7.87756E-03-5.32443E-04-3.19304E-14
 -1      1873 7.62154E-03-4.85533E-04-3.02776E-14
 -1      1874 8.03959E-03-5.40521E-04-3.29757E-14
 -1      1875 8.20333E-03-5.52371E-04-3.40338E-14
 -1      1876 7.93672E-03-4.94257E-04-3.23353E-14
 -1      1877 8.36895E-03-5.68827E-04-3.51034E-14
 -1      1878 8.53609E-03-5.90553E-04-3.61837E-14
 -1      1879 8.25848E-03-5.16607E-04-3.44419E-14
 -1      1880 8.70511E-03-6.18374E-04-3.72739E-14
 -1      1881 8.87517E-03-6.52916E-04-3.83719E-14
 -1      1882 8.58757E-03-5.58370E-04-3.65932E-14
 -1      1883 9.04682E-03-6.94671E-04-3.94805E-14
 -1      1884 9.21864E-03-7.43908E-04-4.05978E-14
 -1      1885 8.92425E-03-6.25601E-04-3.87823E-14
 -1      1886 9.39131E-03-8.00289E-04-4.17220E-14
 -1      1887 9.56289E-03-8.63172E-04-4.28531E-14
 -1      1888 9.26764E-03-7.22623E-04-4.10076E-14
 -1      1889 9.73392E-03-9.30811E-04-4.39933E-14
 -1      1890 9.90244E-03-1.00090E-03-4.51418E-14
 -1      1891 9.61467E-03-8.48422E-04-4.32642E-14
 -1      1892 1.00685E-02-1.07009E-03-4.62975E-14
 -1      1893 1.02314E-02-1.13450E-03-4.74591E-14
 -1      1894 9.95915E-03-9.91113E-04-4.55536E-14
 -1      1895 1.03905E-02-1.19002E-03-4.86279E-14
 -1      1896 1.05473E-02-1.23218E-03-4.98018E-14
 -1      1897 1.02939E-02-1.12458E-03-4.78705E-14
 -1      1898 1.07007E-02-1.25800E-03-5.09806E-14
 -1      1899 1.08545E-02-1.26544E-03-5.21637E-14
 -1      1900 1.06159E-02-1.21292E-03-5.02138E-14
 -1      1901 1.10074E-02-1.25411E-03-5.33485E-14
 -1      1902 1.11632E-02-1.22577E-03-5.45359E-14
 -1      1903 1.09312E-02-1.22808E-03-5.25748E-14
 -1      1904 1.13208E-02-1.18320E-03-5.57219E-14
 -1      1905 1.14820E-02-1.13041E-03-5.69083E-14
 -1      1906 1.12512E-02-1.16779E-03-5.49426E-14
 -1      1907 1.16462E-02-1.07153E-03-5.80966E-14
 -1      1908 1.18128E-02-1.01070E-03-5.92859E-14
 -1      1909 1.15829E-02-1.05761E-03-5.73154E-14
 -1      1910 1.19819E-02-9.51376E-04-6.04775E-14
 -1      1911 1.21514E-02-8.96060E-04-6.16703E-14
 -1      1912 1.19244E-02-9.33152E-04-5.96905E-14
 -1      1913 1.23221E-02-8.46648E-04-6.28661E-14
 -1      1914 1.24917E-02-8.03967E-04-6.40662E-14
 -1      1915 1.22686E-02-8.22264E-04-6.20773E-14
 -1      1916 1.26611E-02-7.68453E-04-6.52710E-14
 -1      1917 1.28286E-02-7.39853E-04-6.64791E-14
 -1      1918 1.26090E-02-7.38311E-04-6.44764E-14
 -1      1919 1.29948E-02-7.17658E-04-6.76898E-14
 -1      1920 1.31588E-02-7.01175E-04-6.89047E-14
 -1      1921 1.29421E-02-6.83082E-04-6.68908E-14
 -1      1922 1.33211E-02-6.89463E-04-7.01285E-14
 -1      1923 1.34810E-02-6.81734E-04-7.13539E-14
 -1      1924 1.32665E-02-6.51996E-04-6.93212E-14
 -1      1925 1.36390E-02-6.76953E-04-7.25818E-14
 -1      1926 1.37948E-02-6.74384E-04-7.38154E-14
 -1      1927 1.35824E-02-6.38113E-04-7.17697E-14
 -1      1928 1.39486E-02-6.73068E-04-7.50547E-14
 -1      1929 1.41005E-02-6.72351E-04-7.62988E-14
 -1      1930 1.38905E-02-6.34260E-04-7.42335E-14
 -1      1931 1.42505E-02-6.71434E-04-7.75481E-14
 -1      1932 1.43990E-02-6.69725E-04-7.88041E-14
 -1      1933 1.41917E-02-6.33925E-04-7.67198E-14
 -1      1934 1.45300E-02-6.68736E-04-7.99395E-14
 -1      1935 1.46757E-02-6.63997E-04-8.12024E-14
 -1      1936 1.47298E-02-6.29433E-04-8.13834E-14
 -1      1937 1.44708E-02-6.33436E-04-7.91035E-14
 -1      1938 1.13842E-03 4.80125E-04-3.57136E-16
 -1      1939 9.96685E-04 4.46884E-04-2.50085E-16
 -1      1940 9.64321E-04 4.17435E-04-2.70359E-16
 -1      1941 1.41746E-03 5.31563E-04-6.31331E-16
 -1      1942 1.27835E-03 5.08141E-04-4.83988E-16
 -1      1943 1.24874E-03 4.80013E-04-5.07285E-16
 -1      1944 1.69376E-03 5.67775E-04-9.88047E-16
 -1      1945 1.55577E-03 5.51328E-04-7.99396E-16
 -1      1946 1.52894E-03 5.24168E-04-8.25213E-16
 -1      1947 1.96923E-03 5.92924E-04-1.42726E-15
 -1      1948 1.83150E-03 5.81563E-04-1.19745E-15
 -1      1949 1.80711E-03 5.55045E-04-1.22538E-15
 -1      1950 2.24496E-03 6.09948E-04-1.94922E-15
 -1      1951 2.10702E-03 6.02328E-04-1.67788E-15
 -1      1952 2.08464E-03 5.76220E-04-1.70759E-15
 -1      1953 2.52151E-03 6.21000E-04-2.55151E-15
 -1      1954 2.38311E-03 6.16128E-04-2.24046E-15
 -1      1955 2.36237E-03 5.90274E-04-2.27112E-15
 -1      1956 2.79915E-03 6.27676E-04-3.23600E-15
 -1      1957 2.66019E-03 6.24816E-04-2.88321E-15
 -1      1958 2.64075E-03 5.99111E-04-2.91489E-15
 -1      1959 3.07797E-03 6.31157E-04-4.00298E-15
 -1      1960 2.93842E-03 6.29766E-04-3.60921E-15
 -1      1961 2.92001E-03 6.04140E-04-3.64141E-15
 -1      1962 3.35796E-03 6.32302E-04-4.84961E-15
 -1      1963 3.21783E-03 6.31986E-04-4.41631E-15
 -1      1964 3.20021E-03 6.06396E-04-4.44898E-15
 -1      1965 3.63906E-03 6.31715E-04-5.77800E-15
 -1      1966 3.49838E-03 6.32201E-04-5.30363E-15
 -1      1967 3.48138E-03 6.06619E-04-5.33720E-15
 -1      1968 3.92121E-03 6.29806E-04-6.78502E-15
 -1      1969 3.78001E-03 6.30910E-04-6.27159E-15
 -1      1970 3.76349E-03 6.05321E-04-6.30488E-15
 -1      1971 4.20437E-03 6.26828E-04-7.86835E-15
 -1      1972 4.06267E-03 6.28440E-04-7.31689E-15
 -1      1973 4.04650E-03 6.02836E-04-7.35020E-15
 -1      1974 4.48854E-03 6.22923E-04-9.03009E-15
 -1      1975 4.34633E-03 6.24986E-04-8.43994E-15
 -1      1976 4.33041E-03 5.99360E-04-8.47309E-15
 -1      1977 4.77375E-03 6.18153E-04-1.02644E-14
 -1      1978 4.63101E-03 6.20643E-04-9.63815E-15
 -1      1979 4.61524E-03 5.94991E-04-9.66996E-15
 -1      1980 5.06013E-03 6.12534E-04-1.15704E-14
 -1      1981 4.91679E-03 6.15446E-04-1.09094E-14
 -1      1982 4.90106E-03 5.89760E-04-1.09407E-14
 -1      1983 5.34786E-03 6.06072E-04-1.29434E-14
 -1      1984 5.20381E-03 6.09402E-04-1.22482E-14
 -1      1985 5.18802E-03 5.83668E-04-1.22791E-14
 -1      1986 5.63723E-03 5.98806E-04-1.43838E-14
 -1      1987 5.49232E-03 6.02528E-04-1.36553E-14
 -1      1988 5.47633E-03 5.76722E-04-1.36849E-14
 -1      1989 5.92862E-03 5.90858E-04-1.58885E-14
 -1      1990 5.78264E-03 5.94897E-04-1.51285E-14
 -1      1991 5.76627E-03 5.68981E-04-1.51579E-14
 -1      1992 6.22251E-03 5.82497E-04-1.74553E-14
 -1      1993 6.07521E-03 5.86695E-04-1.66633E-14
 -1      1994 6.05823E-03 5.60615E-04-1.66942E-14
 -1      1995 6.51948E-03 5.74228E-04-1.90817E-14
 -1      1996 6.37056E-03 5.78300E-04-1.82620E-14
 -1      1997 6.35267E-03 5.51974E-04-1.82904E-14
 -1      1998 6.82017E-03 5.66894E-04-2.07650E-14
 -1      1999 6.66930E-03 5.70368E-04-1.99168E-14
 -1      2000 6.65013E-03 5.43687E-04-1.99454E-14
 -1      2001 7.12529E-03 5.61805E-04-2.25011E-14
 -1      2002 6.97212E-03 5.63962E-04-2.16256E-14
 -1      2003 6.95121E-03 5.36775E-04-2.16538E-14
 -1      2004 7.43544E-03 5.60878E-04-2.42811E-14
 -1      2005 7.27968E-03 5.60679E-04-2.33861E-14
 -1      2006 7.25653E-03 5.32789E-04-2.34141E-14
 -1      2007 7.75112E-03 5.66760E-04-2.61039E-14
 -1      2008 7.59256E-03 5.62791E-04-2.51885E-14
 -1      2009 7.56667E-03 5.33951E-04-2.52187E-14
 -1      2010 8.07242E-03 5.82853E-04-2.79629E-14
 -1      2011 7.91107E-03 5.73327E-04-2.70278E-14
 -1      2012 7.88204E-03 5.43252E-04-2.70620E-14
 -1      2013 8.39889E-03 6.13122E-04-2.98657E-14
 -1      2014 8.23509E-03 5.96016E-04-2.89084E-14
 -1      2015 8.20275E-03 5.64415E-04-2.89431E-14
 -1      2016 8.72921E-03 6.61460E-04-3.18143E-14
 -1      2017 8.56375E-03 6.34900E-04-3.08335E-14
 -1      2018 8.52841E-03 6.01563E-04-3.08698E-14
 -1      2019 9.06096E-03 7.30357E-04-3.38139E-14
 -1      2020 8.89522E-03 6.93381E-04-3.28074E-14
 -1      2021 8.85783E-03 6.58342E-04-3.28455E-14
 -1      2022 9.39058E-03 8.18755E-04-3.58664E-14
 -1      2023 9.22645E-03 7.72475E-04-3.48328E-14
 -1      2024 9.18877E-03 7.36238E-04-3.48713E-14
 -1      2025 9.71375E-03 9.19493E-04-3.79696E-14
 -1      2026 9.55340E-03 8.68366E-04-3.69126E-14
 -1      2027 9.51773E-03 8.32098E-04-3.69493E-14
 -1      2028 1.00266E-02 1.01772E-03-4.01236E-14
 -1      2029 9.87173E-03 9.70082E-04-3.90401E-14
 -1      2030 9.84045E-03 9.35536E-04-3.90768E-14
 -1      2031 1.03279E-02 1.09272E-03-4.23257E-14
 -1      2032 1.01786E-02 1.05934E-03-4.12190E-14
 -1      2033 1.01534E-02 1.02826E-03-4.12536E-14
 -1      2034 1.06204E-02 1.12428E-03-4.45702E-14
 -1      2035 1.04747E-02 1.11467E-03-4.34433E-14
 -1      2036 1.04561E-02 1.08784E-03-4.34758E-14
 -1      2037 1.09108E-02 1.10178E-03-4.68568E-14
 -1      2038 1.07651E-02 1.11966E-03-4.57083E-14
 -1      2039 1.07529E-02 1.09635E-03-4.57385E-14
 -1      2040 1.12067E-02 1.02960E-03-4.91732E-14
 -1      2041 1.10575E-02 1.07095E-03-4.80117E-14
 -1      2042 1.10511E-02 1.04931E-03-4.80383E-14
 -1      2043 1.15126E-02 9.24754E-04-5.15135E-14
 -1      2044 1.13582E-02 9.79961E-04-5.03407E-14
 -1      2045 1.13570E-02 9.58129E-04-5.03632E-14
 -1      2046 1.18288E-02 8.08665E-04-5.38748E-14
 -1      2047 1.16696E-02 8.67011E-04-5.26921E-14
 -1      2048 1.16725E-02 8.43946E-04-5.27134E-14
 -1      2049 1.21522E-02 6.98922E-04-5.62487E-14
 -1      2050 1.19900E-02 7.52360E-04-5.50596E-14
 -1      2051 1.19956E-02 7.27891E-04-5.50782E-14
 -1      2052 1.24782E-02 6.05524E-04-5.86313E-14
 -1      2053 1.23152E-02 6.49994E-04-5.74392E-14
 -1      2054 1.23219E-02 6.24444E-04-5.74560E-14
 -1      2055 1.28028E-02 5.31269E-04-6.10335E-14
 -1      2056 1.26410E-02 5.66123E-04-5.98307E-14
 -1      2057 1.26473E-02 5.39958E-04-5.98491E-14
 -1      2058 1.31229E-02 4.74082E-04-6.34444E-14
 -1      2059 1.29636E-02 5.00814E-04-6.22384E-14
 -1      2060 1.29687E-02 4.74464E-04-6.22561E-14
 -1      2061 1.34368E-02 4.29387E-04-6.58668E-14
 -1      2062 1.32808E-02 4.50491E-04-6.46557E-14
 -1      2063 1.32844E-02 4.24313E-04-6.46723E-14
 -1      2064 1.37437E-02 3.91767E-04-6.82998E-14
 -1      2065 1.35911E-02 4.10001E-04-6.70797E-14
 -1      2066 1.35935E-02 3.84284E-04-6.70975E-14
 -1      2067 1.40437E-02 3.55894E-04-7.07479E-14
 -1      2068 1.38945E-02 3.73884E-04-6.95226E-14
 -1      2069 1.38960E-02 3.48867E-04-6.95377E-14
 -1      2070 1.43376E-02 3.17085E-04-7.32063E-14
 -1      2071 1.41913E-02 3.37065E-04-7.19768E-14
 -1      2072 1.41925E-02 3.12929E-04-7.19934E-14
 -1      2073 1.45776E-02 2.77554E-04-7.52535E-14
 -1      2074 1.44332E-02 3.00360E-04-7.40192E-14
 -1      2075 1.44343E-02 2.77031E-04-7.40363E-14
 -1      2076 1.46243E-02 2.42094E-04-7.56623E-14
 -1      2077 1.47739E-02 3.75416E-05-7.67850E-14
 -1      2078 1.47399E-02 7.21203E-05-7.65351E-14
 -1      2079 1.47060E-02 1.08180E-04-7.62855E-14
 -1      2080 1.46725E-02 1.45549E-04-7.60361E-14
 -1      2081 1.46002E-02 1.07621E-04-7.53435E-14
 -1      2082 1.46628E-02 1.73334E-04-7.59760E-14
 -1      2083 1.46317E-02 2.12845E-04-7.57241E-14
 -1      2084 1.45370E-02 2.30360E-04-7.49110E-14
 -1      2085 1.45553E-02 1.72809E-04-7.50332E-14
 -1      2086 1.48382E-02-2.62188E-05-7.72725E-14
 -1      2087 1.48066E-02 4.95997E-06-7.70287E-14
 -1      2088 1.46686E-02 3.75499E-05-7.58350E-14
 -1      2089 1.48963E-02-8.55090E-05-7.77686E-14
 -1      2090 1.48685E-02-5.64959E-05-7.75186E-14
 -1      2091 1.47333E-02-2.72435E-05-7.63200E-14
 -1      2092 1.49423E-02-1.40084E-04-7.82608E-14
 -1      2093 1.49210E-02-1.13249E-04-7.80175E-14
 -1      2094 1.47899E-02-8.75565E-05-7.68101E-14
 -1      2095 1.49728E-02-1.91514E-04-7.87547E-14
 -1      2096 1.49597E-02-1.66002E-04-7.85076E-14
 -1      2097 1.48331E-02-1.43758E-04-7.73029E-14
 -1      2098 1.49858E-02-2.41877E-04-7.92450E-14
 -1      2099 1.49815E-02-2.16612E-04-7.89997E-14
 -1      2100 1.48597E-02-1.97415E-04-7.77938E-14
 -1      2101 1.49812E-02-2.93457E-04-7.97372E-14
 -1      2102 1.49856E-02-2.67303E-04-7.94914E-14
 -1      2103 1.48681E-02-2.50539E-04-7.82855E-14
 -1      2104 1.49617E-02-3.47416E-04-8.02210E-14
 -1      2105 1.49732E-02-3.19866E-04-7.99787E-14
 -1      2106 1.48590E-02-3.04799E-04-7.87727E-14
 -1      2107 1.49304E-02-4.07256E-04-8.07136E-14
 -1      2108 1.49472E-02-3.76604E-04-8.04663E-14
 -1      2109 1.48351E-02-3.62510E-04-7.92569E-14
 -1      2110 1.48925E-02-4.73057E-04-8.11986E-14
 -1      2111 1.49119E-02-4.39381E-04-8.09571E-14
 -1      2112 1.48003E-02-4.25604E-04-7.97417E-14
 -1      2113 1.48537E-02-5.45052E-04-8.16767E-14
 -1      2114 1.48729E-02-5.08327E-04-8.14383E-14
 -1      2115 1.47603E-02-4.94354E-04-8.02227E-14
 -1      2116 1.25756E-02 6.08525E-05-5.42939E-14
 -1      2117 1.27250E-02 4.47982E-06-5.47200E-14
 -1      2118 1.30211E-02-1.08467E-04-5.59021E-14
 -1      2119 1.30258E-02-1.23149E-04-5.60285E-14
 -1      2120 1.28533E-02-4.31760E-05-5.51246E-14
 -1      2121 1.29501E-02-7.58334E-05-5.55268E-14
 -1      2122 1.27848E-02-3.70027E-05-5.54562E-14
 -1      2123 1.22059E-02 2.36769E-04-5.31160E-14
 -1      2124 1.23798E-02 1.51701E-04-5.36492E-14
 -1      2125 1.18344E-02 4.26110E-04-5.20033E-14
 -1      2126 1.20224E-02 3.28764E-04-5.25607E-14
 -1      2127 1.21008E-02 2.58521E-04-5.32034E-14
 -1      2128 3.27209E-04-8.90336E-05-1.48292E-16
 -1      2129 3.29307E-04-1.02212E-04-1.46272E-16
 -1      2130 4.46324E-04-1.45197E-04-2.13479E-16
 -1      2131 4.40051E-04-1.10019E-04-2.18833E-16
 -1      2132 1.10807E-02 8.20939E-04-4.90060E-14
 -1      2133 1.12365E-02 7.52116E-04-4.96899E-14
 -1      2134 1.07499E-02 8.92232E-04-4.74803E-14
 -1      2135 1.08958E-02 8.73509E-04-4.81616E-14
 -1      2136 1.04197E-02 8.43853E-04-4.60254E-14
 -1      2137 1.05679E-02 8.81312E-04-4.66550E-14
 -1      2138 1.01000E-02 7.09152E-04-4.48457E-14
 -1      2139 1.02612E-02 7.87453E-04-4.54335E-14
 -1      2140 1.03603E-02 8.25959E-04-4.55045E-14
 -1      2141 9.69728E-03 4.85916E-04-4.35522E-14
 -1      2142 9.88374E-03 5.94453E-04-4.41002E-14
 -1      2143 9.24031E-03 2.60282E-04-4.27479E-14
 -1      2144 9.43902E-03 3.54548E-04-4.30520E-14
 -1      2145 8.89245E-03 9.37617E-05-4.20029E-14
 -1      2146 9.05805E-03 1.70720E-04-4.23724E-14
 -1      2147 9.15882E-03 1.93596E-04-4.20657E-14
 -1      2148 8.59472E-03-5.88107E-06-4.19086E-14
 -1      2149 8.70340E-03 2.46562E-05-4.18435E-14
 -1      2150 8.48596E-03-5.50013E-05-4.18074E-14
 -1      2151 8.52311E-03-3.64877E-05-4.18570E-14
 -1      2152 8.54728E-03-3.35005E-05-4.13252E-14
 -1      2153 8.54759E-03-1.03729E-04-4.24072E-14
 -1      2154 8.49638E-03-7.98396E-05-4.20857E-14
 -1      2155 8.74931E-03-1.73129E-04-4.29302E-14
 -1      2156 8.63087E-03-1.36493E-04-4.26672E-14
 -1      2157 8.58735E-03-1.05715E-04-4.20854E-14
 -1      2158 9.11244E-03-3.23377E-04-4.39210E-14
 -1      2159 8.94293E-03-2.44113E-04-4.33839E-14
 -1      2160 9.46258E-03-5.05580E-04-4.49980E-14
 -1      2161 9.28024E-03-4.09420E-04-4.44573E-14
 -1      2162 9.20879E-03-3.41090E-04-4.37767E-14
 -1      2163 9.87590E-03-7.38584E-04-4.63634E-14
 -1      2164 9.68528E-03-6.31796E-04-4.57486E-14
 -1      2165 1.02898E-02-9.59979E-04-4.79356E-14
 -1      2166 1.01161E-02-8.65889E-04-4.72031E-14
 -1      2167 1.06353E-02-1.07635E-03-4.95103E-14
 -1      2168 1.04795E-02-1.03537E-03-4.87963E-14
 -1      2169 1.09621E-02-1.07335E-03-5.10054E-14
 -1      2170 1.08141E-02-1.09104E-03-5.03294E-14
 -1      2171 1.13011E-02-9.55509E-04-5.23731E-14
 -1      2172 1.11420E-02-1.02414E-03-5.17351E-14
 -1      2173 1.16843E-02-7.58188E-04-5.35808E-14
 -1      2174 1.15072E-02-8.56317E-04-5.30465E-14
 -1      2175 1.20840E-02-5.39784E-04-5.46041E-14
 -1      2176 1.18946E-02-6.42315E-04-5.41692E-14
 -1      2177 1.24751E-02-3.49401E-04-5.53509E-14
 -1      2178 1.23000E-02-4.28231E-04-5.50856E-14
 -1      2179 1.27810E-02-2.28617E-04-5.56922E-14
 -1      2180 1.26462E-02-2.81889E-04-5.55056E-14
 -1      2181 1.29773E-02-1.50887E-04-5.60232E-14
 -1      2182 1.28996E-02-1.77887E-04-5.59441E-14
 -1      2183 1.14049E-02 6.68485E-04-5.03898E-14
 -1      2184 1.15744E-02 5.67405E-04-5.10942E-14
 -1      2185 1.12936E-02 7.14178E-04-5.01281E-14
 -1      2186 1.16829E-02 4.91233E-04-5.17362E-14
 -1      2187 6.07801E-04-2.98194E-04-2.50139E-16
 -1      2188 1.00199E-02 6.57871E-04-4.41711E-14
 -1      2189 6.63528E-04-2.92492E-04-3.22930E-16
 -1      2190 1.29964E-02-9.96446E-05-5.62380E-14
 -1      2191 1.24701E-02 8.28546E-05-5.44053E-14
 -1      2192 1.47974E-02-5.77470E-04-8.14951E-14
 -1      2193 1.30127E-02-1.32882E-04-5.66098E-14
 -1      2194 1.28400E-02-1.88334E-04-5.63540E-14
 -1      2195 1.25522E-02-2.95514E-04-5.59476E-14
 -1      2196 1.21816E-02-4.65342E-04-5.53074E-14
 -1      2197 1.17726E-02-6.90813E-04-5.42350E-14
 -1      2198 1.13832E-02-9.09787E-04-5.29726E-14
 -1      2199 1.10392E-02-1.06048E-03-5.15691E-14
 -1      2200 1.07317E-02-1.09686E-03-5.00197E-14
 -1      2201 1.03986E-02-1.00630E-03-4.83397E-14
 -1      2202 9.58118E-03-5.44215E-04-4.50567E-14
 -1      2203 8.85340E-03-1.93068E-04-4.27938E-14
 -1      2204 8.47798E-03-6.54603E-05-4.15501E-14
 -1      2205 8.47218E-03-5.84507E-05-4.10163E-14
 -1      2206 8.48630E-03-6.92669E-05-4.12922E-14
 -1      2207 8.78965E-03 4.21333E-05-4.15353E-14
 -1      2208 8.87587E-03 6.68090E-05-4.12259E-14
 -1      2209 8.70043E-03 8.57849E-06-4.10684E-14
 -1      2210 1.09814E-02 8.56112E-04-4.85831E-14
 -1      2211 1.06553E-02 8.98854E-04-4.69161E-14
 -1      2212 9.58221E-03 4.10212E-04-4.29338E-14
 -1      2213 1.00191E-02-8.00627E-04-4.66420E-14
 -1      2214 1.01645E-03 3.99878E-04-3.65512E-16
 -1      2215 8.72008E-04 3.63500E-04-2.61103E-16
 -1      2216 5.47867E-04-5.53409E-05-3.05271E-16
 -1      2217 5.48893E-04-7.20677E-05-3.07886E-16
 -1      2218 5.50298E-04-8.94006E-05-3.09594E-16
 -1      2219 5.52147E-04-1.07387E-04-3.10475E-16
 -1      2220 6.65369E-04-9.55534E-05-4.16998E-16
 -1      2221 5.46501E-04 8.86320E-06-2.88181E-16
 -1      2222 5.46481E-04-6.98671E-06-2.93426E-16
 -1      2223 5.47248E-04 4.08985E-05-2.75970E-16
 -1      2224 5.46754E-04 2.48121E-05-2.82462E-16
 -1      2225 6.61462E-04 1.99443E-05-3.86288E-16
 -1      2226 5.49057E-04 7.35417E-05-2.61117E-16
 -1      2227 5.48004E-04 5.70391E-05-2.69004E-16
 -1      2228 6.62775E-04 5.78253E-05-3.69632E-16
 -1      2229 5.52423E-04 1.09031E-04-2.41777E-16
 -1      2230 5.50513E-04 9.09488E-05-2.52050E-16
 -1      2231 6.65612E-04 9.73163E-05-3.48788E-16
 -1      2232 5.58269E-04 1.48376E-04-2.17206E-16
 -1      2233 5.54968E-04 1.28147E-04-2.30379E-16
 -1      2234 6.70668E-04 1.40104E-04-3.22550E-16
 -1      2235 5.68559E-04 1.93976E-04-1.84531E-16
 -1      2236 5.62739E-04 1.70259E-04-2.02149E-16
 -1      2237 6.79274E-04 1.87657E-04-2.89021E-16
 -1      2238 1.30186E-03 4.56786E-04-6.33188E-16
 -1      2239 1.15956E-03 4.30866E-04-4.89355E-16
 -1      2240 1.07165E-03 3.81400E-04-4.66735E-16
 -1      2241 9.15083E-04-3.46460E-04-5.94251E-16
 -1      2242 1.05916E-03-3.79768E-04-7.72833E-16
 -1      2243 9.94670E-03 6.12428E-04-4.34289E-14
 -1      2244 1.01300E-02 7.19204E-04-4.41672E-14
 -1      2245 1.15733E-02 5.47599E-04-5.15786E-14
 -1      2246 1.17968E-02 4.12256E-04-5.24881E-14
 -1      2247 1.20240E-03-4.08132E-04-9.75741E-16
 -1      2248 1.34518E-03-4.31981E-04-1.20315E-15
 -1      2249 1.11688E-03-3.60577E-04-8.86010E-16
 -1      2250 1.48733E-03-4.52166E-04-1.45382E-15
 -1      2251 1.62909E-03-4.68957E-04-1.72894E-15
 -1      2252 1.40318E-03-4.07293E-04-1.34030E-15
 -1      2253 1.77049E-03-4.83027E-04-2.02727E-15
 -1      2254 1.91165E-03-4.94590E-04-2.34831E-15
 -1      2255 1.68827E-03-4.40436E-04-1.88849E-15
 -1      2256 2.05265E-03-5.04136E-04-2.69197E-15
 -1      2257 2.19355E-03-5.11839E-04-3.05832E-15
 -1      2258 1.97243E-03-4.63329E-04-2.52860E-15
 -1      2259 2.33442E-03-5.18055E-04-3.44627E-15
 -1      2260 2.47529E-03-5.22925E-04-3.85602E-15
 -1      2261 2.25605E-03-4.78594E-04-3.25665E-15
 -1      2262 2.61622E-03-5.26707E-04-4.28753E-15
 -1      2263 2.75721E-03-5.29511E-04-4.74057E-15
 -1      2264 2.53944E-03-4.88240E-04-4.07150E-15
 -1      2265 2.89830E-03-5.31522E-04-5.21439E-15
 -1      2266 3.03949E-03-5.32826E-04-5.70797E-15
 -1      2267 2.82286E-03-4.93782E-04-4.97146E-15
 -1      2268 3.18081E-03-5.33552E-04-6.22176E-15
 -1      2269 3.32224E-03-5.33764E-04-6.75576E-15
 -1      2270 3.10646E-03-4.96345E-04-5.95331E-15
 -1      2271 3.46381E-03-5.33548E-04-7.30920E-15
 -1      2272 3.60550E-03-5.32951E-04-7.88201E-15
 -1      2273 3.39033E-03-4.96738E-04-7.01463E-15
 -1      2274 3.74735E-03-5.32026E-04-8.47346E-15
 -1      2275 3.88932E-03-5.30806E-04-9.08419E-15
 -1      2276 3.67452E-03-4.95527E-04-8.15367E-15
 -1      2277 4.03144E-03-5.29318E-04-9.71222E-15
 -1      2278 4.17370E-03-5.27585E-04-1.03574E-14
 -1      2279 3.95909E-03-4.93078E-04-9.36703E-15
 -1      2280 4.31611E-03-5.25615E-04-1.10211E-14
 -1      2281 4.45867E-03-5.23422E-04-1.17011E-14
 -1      2282 4.24404E-03-4.89613E-04-1.06518E-14
 -1      2283 4.60140E-03-5.21002E-04-1.23968E-14
 -1      2284 4.74430E-03-5.18362E-04-1.31107E-14
 -1      2285 4.52942E-03-4.85234E-04-1.20043E-14
 -1      2286 4.88737E-03-5.15490E-04-1.38406E-14
 -1      2287 5.03065E-03-5.12391E-04-1.45857E-14
 -1      2288 4.81528E-03-4.79966E-04-1.34231E-14
 -1      2289 5.17413E-03-5.09050E-04-1.53486E-14
 -1      2290 5.31785E-03-5.05474E-04-1.61284E-14
 -1      2291 5.10168E-03-4.73785E-04-1.49094E-14
 -1      2292 5.46181E-03-5.01650E-04-1.69242E-14
 -1      2293 5.60607E-03-4.97590E-04-1.77365E-14
 -1      2294 5.38872E-03-4.66650E-04-1.64614E-14
 -1      2295 5.75062E-03-4.93290E-04-1.85645E-14
 -1      2296 5.89554E-03-4.88777E-04-1.94088E-14
 -1      2297 5.67652E-03-4.58544E-04-1.80788E-14
 -1      2298 6.04081E-03-4.84064E-04-2.02677E-14
 -1      2299 6.18654E-03-4.79197E-04-2.11417E-14
 -1      2300 5.96525E-03-4.49521E-04-1.97605E-14
 -1      2301 6.33271E-03-4.74223E-04-2.20323E-14
 -1      2302 6.47943E-03-4.69215E-04-2.29366E-14
 -1      2303 6.25512E-03-4.39769E-04-2.15034E-14
 -1      2304 6.62669E-03-4.64272E-04-2.38558E-14
 -1      2305 6.77464E-03-4.59507E-04-2.47895E-14
 -1      2306 6.54638E-03-4.29693E-04-2.33056E-14
 -1      2307 6.92324E-03-4.55094E-04-2.57369E-14
 -1      2308 7.07268E-03-4.51206E-04-2.66978E-14
 -1      2309 6.83937E-03-4.20022E-04-2.51657E-14
 -1      2310 7.22293E-03-4.48114E-04-2.76729E-14
 -1      2311 7.37419E-03-4.46077E-04-2.86613E-14
 -1      2312 7.13454E-03-4.11949E-04-2.70818E-14
 -1      2313 7.52648E-03-4.45491E-04-2.96615E-14
 -1      2314 7.67998E-03-4.46736E-04-3.06752E-14
 -1      2315 7.43251E-03-4.07310E-04-2.90502E-14
 -1      2316 7.83480E-03-4.50343E-04-3.16995E-14
 -1      2317 7.99108E-03-4.56857E-04-3.27359E-14
 -1      2318 7.73418E-03-4.08781E-04-3.10679E-14
 -1      2319 8.14908E-03-4.66931E-04-3.37852E-14
 -1      2320 8.30883E-03-4.81313E-04-3.48452E-14
 -1      2321 8.04094E-03-4.20089E-04-3.31330E-14
 -1      2322 8.47081E-03-5.00701E-04-3.59171E-14
 -1      2323 8.63482E-03-5.26057E-04-3.69982E-14
 -1      2324 8.35480E-03-4.46180E-04-3.52453E-14
 -1      2325 8.80161E-03-5.57953E-04-3.80890E-14
 -1      2326 8.97050E-03-5.97387E-04-3.91889E-14
 -1      2327 8.67843E-03-4.93218E-04-3.73999E-14
 -1      2328 9.14244E-03-6.44496E-04-4.02966E-14
 -1      2329 9.31607E-03-6.99835E-04-4.14141E-14
 -1      2330 9.01455E-03-5.68011E-04-3.95904E-14
 -1      2331 9.49232E-03-7.62666E-04-4.25383E-14
 -1      2332 9.66880E-03-8.32284E-04-4.36716E-14
 -1      2333 9.36446E-03-6.75726E-04-4.18156E-14
 -1      2334 9.84575E-03-9.06463E-04-4.48124E-14
 -1      2335 1.00208E-02-9.81286E-04-4.59605E-14
 -1      2336 9.72484E-03-8.16453E-04-4.40744E-14
 -1      2337 1.01932E-02-1.05330E-03-4.71174E-14
 -1      2338 1.03623E-02-1.11590E-03-4.82796E-14
 -1      2339 1.00852E-02-9.73305E-04-4.63644E-14
 -1      2340 1.05267E-02-1.16494E-03-4.94472E-14
 -1      2341 1.06897E-02-1.19453E-03-5.06219E-14
 -1      2342 1.04331E-02-1.10992E-03-4.86839E-14
 -1      2343 1.08499E-02-1.20228E-03-5.18004E-14
 -1      2344 1.10124E-02-1.18811E-03-5.29820E-14
 -1      2345 1.07661E-02-1.17423E-03-5.10265E-14
 -1      2346 1.11756E-02-1.15367E-03-5.41641E-14
 -1      2347 1.13434E-02-1.10425E-03-5.53479E-14
 -1      2348 1.10981E-02-1.14138E-03-5.33855E-14
 -1      2349 1.15145E-02-1.04367E-03-5.65337E-14
 -1      2350 1.16883E-02-9.78839E-04-5.77188E-14
 -1      2351 1.14432E-02-1.03197E-03-5.57514E-14
 -1      2352 1.18642E-02-9.13547E-04-5.89061E-14
 -1      2353 1.20398E-02-8.51855E-04-6.00972E-14
 -1      2354 1.18018E-02-8.94116E-04-5.81212E-14
 -1      2355 1.22152E-02-7.96061E-04-6.12883E-14
 -1      2356 1.23882E-02-7.47431E-04-6.24826E-14
 -1      2357 1.21615E-02-7.68610E-04-6.05003E-14
 -1      2358 1.25594E-02-7.06813E-04-6.36825E-14
 -1      2359 1.27274E-02-6.73648E-04-6.48864E-14
 -1      2360 1.25115E-02-6.73783E-04-6.28890E-14
 -1      2361 1.28932E-02-6.47840E-04-6.60915E-14
 -1      2362 1.30558E-02-6.28299E-04-6.73002E-14
 -1      2363 1.28474E-02-6.11592E-04-6.52937E-14
 -1      2364 1.32163E-02-6.14395E-04-6.85139E-14
 -1      2365 1.33742E-02-6.05040E-04-6.97342E-14
 -1      2366 1.31699E-02-5.76406E-04-6.77094E-14
 -1      2367 1.35301E-02-5.99388E-04-7.09578E-14
 -1      2368 1.36840E-02-5.96527E-04-7.21829E-14
 -1      2369 1.34817E-02-5.60674E-04-7.01433E-14
 -1      2370 1.38362E-02-5.95588E-04-7.34123E-14
 -1      2371 1.39868E-02-5.95826E-04-7.46481E-14
 -1      2372 1.37853E-02-5.57050E-04-7.25938E-14
 -1      2373 1.41358E-02-5.96455E-04-7.58918E-14
 -1      2374 1.42836E-02-5.96839E-04-7.71389E-14
 -1      2375 1.40829E-02-5.59041E-04-7.50645E-14
 -1      2376 1.27306E-02-2.82735E-05-5.58099E-14
 -1      2377 1.28502E-02-6.30897E-05-5.62163E-14
 -1      2378 1.86490E-03 5.25079E-04-1.41166E-15
 -1      2379 1.72470E-03 5.12406E-04-1.18643E-15
 -1      2380 2.14490E-03 5.44143E-04-1.92310E-15
 -1      2381 2.00495E-03 5.35598E-04-1.65734E-15
 -1      2382 1.92429E-03 4.94426E-04-1.60306E-15
 -1      2383 2.42488E-03 5.56610E-04-2.51444E-15
 -1      2384 2.28488E-03 5.51097E-04-2.20867E-15
 -1      2385 2.20634E-03 5.11449E-04-2.14305E-15
 -1      2386 2.70523E-03 5.64254E-04-3.18747E-15
 -1      2387 2.56501E-03 5.60956E-04-2.84091E-15
 -1      2388 2.48824E-03 5.22410E-04-2.76317E-15
 -1      2389 2.98616E-03 5.68388E-04-3.94177E-15
 -1      2390 2.84562E-03 5.66700E-04-3.55389E-15
 -1      2391 2.77030E-03 5.28944E-04-3.46388E-15
 -1      2392 3.26777E-03 5.69970E-04-4.77653E-15
 -1      2393 3.12688E-03 5.69454E-04-4.34933E-15
 -1      2394 3.05271E-03 5.32259E-04-4.24603E-15
 -1      2395 3.55009E-03 5.69677E-04-5.69114E-15
 -1      2396 3.40885E-03 5.70026E-04-5.22370E-15
 -1      2397 3.33557E-03 5.33236E-04-5.10784E-15
 -1      2398 3.83314E-03 5.67973E-04-6.68539E-15
 -1      2399 3.69153E-03 5.68980E-04-6.17852E-15
 -1      2400 3.61893E-03 5.32489E-04-6.04928E-15
 -1      2401 4.11692E-03 5.65150E-04-7.75603E-15
 -1      2402 3.97494E-03 5.66687E-04-7.21099E-15
 -1      2403 3.90282E-03 5.30432E-04-7.06908E-15
 -1      2404 4.40143E-03 5.61372E-04-8.90375E-15
 -1      2405 4.25908E-03 5.63372E-04-8.32030E-15
 -1      2406 4.18727E-03 5.27317E-04-8.16556E-15
 -1      2407 4.68673E-03 5.56711E-04-1.01234E-14
 -1      2408 4.54398E-03 5.59147E-04-9.50416E-15
 -1      2409 4.47229E-03 5.23279E-04-9.33647E-15
 -1      2410 4.97290E-03 5.51182E-04-1.14160E-14
 -1      2411 4.82970E-03 5.54052E-04-1.07612E-14
 -1      2412 4.75794E-03 5.18367E-04-1.05800E-14
 -1      2413 5.26007E-03 5.44774E-04-1.27765E-14
 -1      2414 5.11634E-03 5.48084E-04-1.20880E-14
 -1      2415 5.04430E-03 5.12581E-04-1.18947E-14
 -1      2416 5.54843E-03 5.37493E-04-1.42040E-14
 -1      2417 5.40408E-03 5.41236E-04-1.34811E-14
 -1      2418 5.33149E-03 5.05903E-04-1.32773E-14
 -1      2419 5.83824E-03 5.29409E-04-1.56979E-14
 -1      2420 5.69312E-03 5.33539E-04-1.49429E-14
 -1      2421 5.61967E-03 4.98342E-04-1.47260E-14
 -1      2422 6.12983E-03 5.20713E-04-1.72537E-14
 -1      2423 5.98378E-03 5.25116E-04-1.64685E-14
 -1      2424 5.90907E-03 4.89979E-04-1.62404E-14
 -1      2425 6.42360E-03 5.11797E-04-1.88695E-14
 -1      2426 6.27640E-03 5.16246E-04-1.80545E-14
 -1      2427 6.19995E-03 4.81030E-04-1.78168E-14
 -1      2428 6.72003E-03 5.03352E-04-2.05431E-14
 -1      2429 6.57143E-03 5.07459E-04-1.96996E-14
 -1      2430 6.49265E-03 4.71928E-04-1.94519E-14
 -1      2431 7.01964E-03 4.96485E-04-2.22686E-14
 -1      2432 6.86938E-03 4.99637E-04-2.13986E-14
 -1      2433 6.78759E-03 4.63420E-04-2.11416E-14
 -1      2434 7.32302E-03 4.92866E-04-2.40432E-14
 -1      2435 7.17081E-03 4.94149E-04-2.31494E-14
 -1      2436 7.08527E-03 4.56690E-04-2.28831E-14
 -1      2437 7.63075E-03 4.94858E-04-2.58653E-14
 -1      2438 7.47630E-03 4.92997E-04-2.49488E-14
 -1      2439 7.38629E-03 4.53500E-04-2.46762E-14
 -1      2440 7.94342E-03 5.05613E-04-2.77225E-14
 -1      2441 7.78646E-03 4.98929E-04-2.67896E-14
 -1      2442 7.69135E-03 4.56322E-04-2.65134E-14
 -1      2443 8.26146E-03 5.29010E-04-2.96232E-14
 -1      2444 8.10181E-03 5.15481E-04-2.86679E-14
 -1      2445 8.00133E-03 4.68428E-04-2.83887E-14
 -1      2446 8.58502E-03 5.69286E-04-3.15693E-14
 -1      2447 8.42267E-03 5.46784E-04-3.05904E-14
 -1      2448 8.31715E-03 4.93825E-04-3.03067E-14
 -1      2449 8.91359E-03 6.30079E-04-3.35622E-14
 -1      2450 8.74892E-03 5.96944E-04-3.25591E-14
 -1      2451 8.63964E-03 5.36890E-04-3.22715E-14
 -1      2452 9.24552E-03 7.12608E-04-3.56058E-14
 -1      2453 9.07952E-03 6.68693E-04-3.45779E-14
 -1      2454 8.96900E-03 6.01393E-04-3.42822E-14
 -1      2455 9.57747E-03 8.12923E-04-3.76985E-14
 -1      2456 9.41197E-03 7.61062E-04-3.66457E-14
 -1      2457 9.30394E-03 6.88512E-04-3.63417E-14
 -1      2458 9.90464E-03 9.19000E-04-3.98411E-14
 -1      2459 9.74207E-03 8.66390E-04-3.87648E-14
 -1      2460 9.64071E-03 7.93668E-04-3.84498E-14
 -1      2461 1.02226E-02 1.01005E-03-4.20295E-14
 -1      2462 1.00648E-02 9.68005E-04-4.09290E-14
 -1      2463 9.97324E-03 9.02858E-04-4.06049E-14
 -1      2464 1.05308E-02 1.06158E-03-4.42627E-14
 -1      2465 1.03774E-02 1.04220E-03-4.31414E-14
 -1      2466 1.02960E-02 9.91994E-04-4.28056E-14
 -1      2467 1.08344E-02 1.05611E-03-4.65342E-14
 -1      2468 1.06822E-02 1.06645E-03-4.53917E-14
 -1      2469 1.06088E-02 1.03390E-03-4.50479E-14
 -1      2470 1.11414E-02 9.93202E-04-4.88383E-14
 -1      2471 1.09866E-02 1.03106E-03-4.76830E-14
 -1      2472 1.09187E-02 1.01222E-03-4.73276E-14
 -1      2473 1.14575E-02 8.89622E-04-5.11687E-14
 -1      2474 1.12981E-02 9.44948E-04-5.00015E-14
 -1      2475 1.12350E-02 9.32095E-04-4.96384E-14
 -1      2476 1.17823E-02 7.69796E-04-5.35231E-14
 -1      2477 1.16191E-02 8.30251E-04-5.23435E-14
 -1      2478 1.15616E-02 8.16623E-04-5.19745E-14
 -1      2479 1.21114E-02 6.54576E-04-5.58897E-14
 -1      2480 1.19468E-02 7.10659E-04-5.47037E-14
 -1      2481 1.18953E-02 6.92959E-04-5.43316E-14
 -1      2482 1.24399E-02 5.56037E-04-5.82731E-14
 -1      2483 1.22762E-02 6.02847E-04-5.70813E-14
 -1      2484 1.22297E-02 5.80543E-04-5.67027E-14
 -1      2485 1.27642E-02 4.77906E-04-6.06679E-14
 -1      2486 1.26029E-02 5.14446E-04-5.94667E-14
 -1      2487 1.25595E-02 4.88333E-04-5.90880E-14
 -1      2488 1.30825E-02 4.18393E-04-6.30754E-14
 -1      2489 1.29243E-02 4.46057E-04-6.18723E-14
 -1      2490 1.28821E-02 4.17286E-04-6.14859E-14
 -1      2491 1.33943E-02 3.72929E-04-6.54954E-14
 -1      2492 1.32393E-02 3.94216E-04-6.42840E-14
 -1      2493 1.31970E-02 3.63942E-04-6.38968E-14
 -1      2494 1.36995E-02 3.36019E-04-6.79253E-14
 -1      2495 1.35477E-02 3.53729E-04-6.67089E-14
 -1      2496 1.35048E-02 3.23052E-04-6.63169E-14
 -1      2497 1.39988E-02 3.02202E-04-7.03734E-14
 -1      2498 1.38498E-02 3.19031E-04-6.91476E-14
 -1      2499 1.38063E-02 2.89022E-04-6.87552E-14
 -1      2500 1.42926E-02 2.66543E-04-7.28289E-14
 -1      2501 1.41463E-02 2.84881E-04-7.15986E-14
 -1      2502 1.41022E-02 2.56562E-04-7.12061E-14
 -1      2503 1.44418E-02 2.47044E-04-7.40970E-14
 -1      2504 1.46286E-02-3.07837E-05-7.53693E-14
 -1      2505 1.45970E-02 1.56449E-06-7.51270E-14
 -1      2506 1.46835E-02-9.19592E-05-7.58562E-14
 -1      2507 1.46576E-02-6.18779E-05-7.56110E-14
 -1      2508 1.45241E-02-3.63389E-05-7.44182E-14
 -1      2509 1.44948E-02 1.04910E-04-7.43961E-14
 -1      2510 1.44595E-02 1.42226E-04-7.41465E-14
 -1      2511 1.45639E-02 3.48466E-05-7.48834E-14
 -1      2512 1.45298E-02 6.90983E-05-7.46417E-14
 -1      2513 1.43894E-02 1.00524E-04-7.34459E-14
 -1      2514 1.44597E-02 2.97594E-05-7.39343E-14
 -1      2515 1.47237E-02-1.49386E-04-7.63455E-14
 -1      2516 1.47056E-02-1.20996E-04-7.61004E-14
 -1      2517 1.45772E-02-9.80863E-05-7.49029E-14
 -1      2518 1.47462E-02-2.04689E-04-7.68351E-14
 -1      2519 1.47373E-02-1.77114E-04-7.65907E-14
 -1      2520 1.46141E-02-1.56283E-04-7.53901E-14
 -1      2521 1.47497E-02-2.59915E-04-7.73252E-14
 -1      2522 1.47503E-02-2.32108E-04-7.70790E-14
 -1      2523 1.46322E-02-2.12704E-04-7.58768E-14
 -1      2524 1.47358E-02-3.16169E-04-7.78044E-14
 -1      2525 1.47448E-02-2.87622E-04-7.75648E-14
 -1      2526 1.46306E-02-2.69039E-04-7.63594E-14
 -1      2527 1.47073E-02-3.77150E-04-7.82898E-14
 -1      2528 1.47231E-02-3.46055E-04-7.80478E-14
 -1      2529 1.46115E-02-3.27854E-04-7.68415E-14
 -1      2530 1.46691E-02-4.43116E-04-7.87731E-14
 -1      2531 1.46891E-02-4.09441E-04-7.85323E-14
 -1      2532 1.45783E-02-3.91356E-04-7.73257E-14
 -1      2533 1.46269E-02-5.14615E-04-7.92477E-14
 -1      2534 1.46481E-02-4.78169E-04-7.90086E-14
 -1      2535 1.45366E-02-4.60071E-04-7.78046E-14
 -1      2536 1.46696E-02-5.80431E-04-8.03518E-14
 -1      2537 1.30435E-02-1.28003E-04-5.73028E-14
 -1      2538 1.29944E-02-1.39455E-04-5.72997E-14
 -1      2539 1.58422E-03 4.97035E-04-9.81853E-16
 -1      2540 1.44331E-03 4.78755E-04-7.97160E-16
 -1      2541 1.64161E-03 4.69160E-04-1.14355E-15
 -1      2542 1.23654E-02 1.15031E-04-5.45767E-14
 -1      2543 1.25471E-02 3.91828E-05-5.52221E-14
 -1      2544 1.20029E-02 2.96978E-04-5.32530E-14
 -1      2545 1.21652E-02 2.11528E-04-5.38103E-14
 -1      2546 1.22764E-02 1.60520E-04-5.46258E-14
 -1      2547 1.18872E-02 3.64648E-04-5.30938E-14
 -1      2548 1.12163E-02 7.56280E-04-4.98871E-14
 -1      2549 1.13530E-02 6.76972E-04-5.05872E-14
 -1      2550 1.28873E-02-1.69801E-04-5.70387E-14
 -1      2551 1.27690E-02-2.04333E-04-5.67872E-14
 -1      2552 1.08891E-02 8.88925E-04-4.80790E-14
 -1      2553 1.10374E-02 8.38197E-04-4.89209E-14
 -1      2554 5.88472E-04-2.38073E-04-2.90471E-16
 -1      2555 7.81232E-04-3.04931E-04-4.56002E-16
 -1      2556 8.40701E-04-2.93700E-04-5.43660E-16
 -1      2557 5.78925E-04-2.10246E-04-3.00351E-16
 -1      2558 5.46692E-04-2.29188E-05-2.97966E-16
 -1      2559 5.47145E-04-3.89716E-05-3.02018E-16
 -1      2560 6.62626E-04-5.58538E-05-4.10208E-16
 -1      2561 6.61409E-04-1.77180E-05-3.99854E-16
 -1      2562 1.05888E-02 8.99127E-04-4.63845E-14
 -1      2563 1.07327E-02 9.09812E-04-4.72062E-14
 -1      2564 9.45621E-03 3.30801E-04-4.21476E-14
 -1      2565 9.67873E-03 4.56938E-04-4.26388E-14
 -1      2566 1.02650E-02 7.88083E-04-4.47491E-14
 -1      2567 1.03900E-02 8.45123E-04-4.53362E-14
 -1      2568 1.01692E-02 7.48629E-04-4.40006E-14
 -1      2569 1.01026E-02-8.45837E-04-4.67748E-14
 -1      2570 9.90393E-03-7.20854E-04-4.59407E-14
 -1      2571 9.08983E-03 1.52853E-04-4.13968E-14
 -1      2572 9.25830E-03 2.30341E-04-4.17686E-14
 -1      2573 8.51142E-03-4.27289E-05-4.07689E-14
 -1      2574 8.57849E-03-2.79846E-05-4.08203E-14
 -1      2575 8.61750E-03-1.03993E-04-4.16314E-14
 -1      2576 8.53973E-03-8.57095E-05-4.13761E-14
 -1      2577 8.91970E-03-2.03098E-04-4.24099E-14
 -1      2578 8.74706E-03-1.43546E-04-4.19639E-14
 -1      2579 9.30206E-03-3.74952E-04-4.36368E-14
 -1      2580 9.14860E-03-3.00784E-04-4.31060E-14
 -1      2581 9.70244E-03-6.00298E-04-4.51566E-14
 -1      2582 9.50382E-03-4.83515E-04-4.44107E-14
 -1      2583 1.05076E-02-1.05444E-03-4.88588E-14
 -1      2584 1.03509E-02-9.83641E-04-4.79985E-14
 -1      2585 1.07942E-02-1.11007E-03-5.04909E-14
 -1      2586 1.06555E-02-1.09558E-03-4.96721E-14
 -1      2587 1.05855E-02-1.08431E-03-4.93259E-14
 -1      2588 1.11161E-02-1.03904E-03-5.21932E-14
 -1      2589 1.09738E-02-1.08761E-03-5.14639E-14
 -1      2590 1.14695E-02-8.57448E-04-5.37219E-14
 -1      2591 1.12997E-02-9.54887E-04-5.30478E-14
 -1      2592 1.18513E-02-6.32916E-04-5.49607E-14
 -1      2593 1.16657E-02-7.43906E-04-5.43697E-14
 -1      2594 1.22675E-02-4.10171E-04-5.60596E-14
 -1      2595 1.20702E-02-5.11717E-04-5.55762E-14
 -1      2596 1.26347E-02-2.52505E-04-5.66323E-14
 -1      2597 1.24811E-02-3.12462E-04-5.64762E-14
 -1      2598 1.27105E-02-2.27213E-04-5.73172E-14
 -1      2599 1.29647E-02-9.52628E-05-5.65991E-14
 -1      2600 1.30348E-02-1.11607E-04-5.69767E-14
 -1      2601 7.57782E-04 3.34294E-04-1.86713E-16
 -1      2602 6.11390E-04 2.84927E-04-1.17636E-16
 -1      2603 5.84680E-04 2.58161E-04-1.28044E-16
 -1      2604 8.13619E-04 3.22972E-04-2.60588E-16
 -1      2605 1.08077E-02 9.07427E-04-4.75416E-14
 -1      2606 6.70254E-04-1.38052E-04-4.19627E-16
 -1      2607 5.54606E-04-1.26298E-04-3.10516E-16
 -1      2608 5.57797E-04-1.46277E-04-3.09011E-16
 -1      2609 1.35763E-03 4.32761E-04-7.64972E-16
 -1      2610 5.72199E-04 2.27969E-04-1.52439E-16
 -1      2611 1.19646E-02-5.73615E-04-5.57117E-14
 -1      2612 1.15713E-02-8.04205E-04-5.44465E-14
 -1      2613 1.08834E-02-1.10865E-03-5.11142E-14
 -1      2614 9.79774E-03-6.60286E-04-4.52865E-14
 -1      2615 1.14846E-02 6.05886E-04-5.13358E-14
 -1      2616 1.29561E-02-1.54092E-04-5.77337E-14
 -1      2617 1.26454E-02 5.86196E-06-5.59802E-14
 -1      2618 1.43975E-02 2.21322E-04-7.37018E-14
 -1      2619 1.44077E-02 1.92143E-04-7.37621E-14
 -1      2620 1.45122E-02-5.97822E-04-7.91210E-14
 -1      2621 1.45837E-02-5.47498E-04-7.92297E-14
 -1      2622 1.44700E-02-5.28983E-04-7.80222E-14
 -1      2623 1.43823E-02-5.97452E-04-7.79877E-14
 -1      2624 9.41264E-03-4.37731E-04-4.37332E-14
 -1      2625 9.00127E-03-2.41197E-04-4.22694E-14
 -1      2626 1.30633E-02-1.21417E-04-5.76657E-14
 -1      2627 1.30777E-02-1.28578E-04-5.83557E-14
 -1      2628 1.30669E-02-1.17580E-04-5.80268E-14
 -1      2629 6.89483E-04 2.51328E-04-2.31016E-16
 -1      2630 1.11173E-02 8.09271E-04-4.93780E-14
 -1      2631 8.66607E-03-1.19440E-04-4.12511E-14
 -1      2632 5.64274E-04-1.65043E-04-3.08862E-16
 -1      2633 5.69691E-04-1.88112E-04-3.03834E-16
 -1      2634 6.97790E-04-2.27851E-04-4.16523E-16
 -1      2635 6.80702E-04-1.81767E-04-4.19627E-16
 -1      2636 8.47417E-03-5.16055E-05-4.05128E-14
 -1      2637 8.48307E-03-4.43684E-05-4.00096E-14
 -1      2638 8.45160E-03-5.47940E-05-4.02553E-14
 -1      2639 8.96715E-03 1.01094E-04-4.09297E-14
 -1      2640 9.04773E-03 1.42253E-04-4.06332E-14
 -1      2641 8.85425E-03 6.32821E-05-4.04646E-14
 -1      2642 8.49455E-03-7.36727E-05-4.08408E-14
 -1      2643 8.63589E-03-9.86145E-06-4.05125E-14
 -1      2644 9.80398E-03 5.35730E-04-4.26365E-14
 -1      2645 9.89973E-03 6.08750E-04-4.26299E-14
 -1      2646 9.66172E-03 4.66299E-04-4.18482E-14
 -1      2647 9.35870E-03 2.86099E-04-4.14760E-14
 -1      2648 1.04801E-02 8.79853E-04-4.56223E-14
 -1      2649 1.02260E-02-9.21290E-04-4.72885E-14
 -1      2650 1.01017E-02-8.54353E-04-4.65806E-14
 -1      2651 1.03256E-02-9.83496E-04-4.78013E-14
 -1      2652 1.29319E-02-8.43392E-05-5.69538E-14
 -1      2653 1.12203E-02-1.00009E-03-5.29429E-14
 -1      2654 1.23795E-02-3.61760E-04-5.67440E-14
 -1      2655 1.43001E-02 1.87670E-04-7.28181E-14
 -1      2656 1.43281E-02-5.61738E-04-7.71547E-14
 -1      2657 7.80330E-04 7.73821E-05-4.76412E-16
 -1      2658 7.79081E-04 5.55075E-05-4.88121E-16
 -1      2659 7.78243E-04 3.35816E-05-4.98747E-16
 -1      2660 7.77824E-04 1.19034E-05-5.08369E-16
 -1      2661 8.96679E-04 4.97084E-05-6.24839E-16
 -1      2662 7.91587E-04 1.73220E-04-4.14138E-16
 -1      2663 7.87608E-04 1.47798E-04-4.32420E-16
 -1      2664 8.03390E-04 2.28425E-04-3.70702E-16
 -1      2665 7.96798E-04 2.00032E-04-3.93958E-16
 -1      2666 9.14882E-04 2.07917E-04-5.16487E-16
 -1      2667 1.12971E-03 3.62035E-04-5.74654E-16
 -1      2668 9.86120E-04 3.32978E-04-4.40240E-16
 -1      2669 1.10299E-02 8.57825E-04-4.88375E-14
 -1      2670 1.11862E-02 7.87925E-04-4.98015E-14
 -1      2671 9.86289E-03-7.14893E-04-4.53688E-14
 -1      2672 9.68792E-03-6.05944E-04-4.45900E-14
 -1      2673 1.32006E-03-3.62823E-04-1.22896E-15
 -1      2674 1.46327E-03-3.81772E-04-1.47920E-15
 -1      2675 1.60631E-03-3.97808E-04-1.75261E-15
 -1      2676 1.74924E-03-4.11159E-04-2.04907E-15
 -1      2677 1.52494E-03-3.55424E-04-1.61993E-15
 -1      2678 1.89200E-03-4.22291E-04-2.36773E-15
 -1      2679 2.03465E-03-4.31391E-04-2.70822E-15
 -1      2680 1.81163E-03-3.81212E-04-2.21016E-15
 -1      2681 2.17720E-03-4.38829E-04-3.07081E-15
 -1      2682 2.31966E-03-4.44757E-04-3.45455E-15
 -1      2683 2.09809E-03-3.98884E-04-2.88806E-15
 -1      2684 2.46207E-03-4.49457E-04-3.85920E-15
 -1      2685 2.60444E-03-4.53049E-04-4.28547E-15
 -1      2686 2.38428E-03-4.10434E-04-3.65127E-15
 -1      2687 2.74680E-03-4.55743E-04-4.73300E-15
 -1      2688 2.88914E-03-4.57633E-04-5.20070E-15
 -1      2689 2.67024E-03-4.17450E-04-4.49834E-15
 -1      2690 3.03151E-03-4.58870E-04-5.68825E-15
 -1      2691 3.17388E-03-4.59522E-04-6.19592E-15
 -1      2692 2.95604E-03-4.21148E-04-5.42758E-15
 -1      2693 3.31629E-03-4.59698E-04-6.72363E-15
 -1      2694 3.45872E-03-4.59445E-04-7.27115E-15
 -1      2695 3.24175E-03-4.22434E-04-6.43680E-15
 -1      2696 3.60120E-03-4.58836E-04-7.83782E-15
 -1      2697 3.74372E-03-4.57902E-04-8.42291E-15
 -1      2698 3.52742E-03-4.21950E-04-7.52528E-15
 -1      2699 3.88629E-03-4.56688E-04-9.02590E-15
 -1      2700 4.02891E-03-4.55214E-04-9.64722E-15
 -1      2701 3.81309E-03-4.20137E-04-8.68893E-15
 -1      2702 4.17158E-03-4.53503E-04-1.02862E-14
 -1      2703 4.31432E-03-4.51564E-04-1.09423E-14
 -1      2704 4.09879E-03-4.17268E-04-9.92476E-15
 -1      2705 4.45712E-03-4.49406E-04-1.16152E-14
 -1      2706 4.59998E-03-4.47031E-04-1.23045E-14
 -1      2707 4.38453E-03-4.13493E-04-1.12300E-14
 -1      2708 4.74292E-03-4.44437E-04-1.30108E-14
 -1      2709 4.88593E-03-4.41622E-04-1.37339E-14
 -1      2710 4.67035E-03-4.08867E-04-1.26028E-14
 -1      2711 5.02902E-03-4.38578E-04-1.44733E-14
 -1      2712 5.17221E-03-4.35304E-04-1.52295E-14
 -1      2713 4.95624E-03-4.03385E-04-1.40413E-14
 -1      2714 5.31549E-03-4.31789E-04-1.60023E-14
 -1      2715 5.45889E-03-4.28035E-04-1.67918E-14
 -1      2716 5.24224E-03-3.97009E-04-1.55476E-14
 -1      2717 5.60238E-03-4.24040E-04-1.75978E-14
 -1      2718 5.74602E-03-4.19809E-04-1.84200E-14
 -1      2719 5.52834E-03-3.89700E-04-1.71207E-14
 -1      2720 5.88978E-03-4.15354E-04-1.92574E-14
 -1      2721 6.03372E-03-4.10694E-04-2.01099E-14
 -1      2722 5.81456E-03-3.81460E-04-1.87583E-14
 -1      2723 6.17779E-03-4.05867E-04-2.09779E-14
 -1      2724 6.32209E-03-4.00907E-04-2.18621E-14
 -1      2725 6.10092E-03-3.72380E-04-2.04574E-14
 -1      2726 6.46656E-03-3.95892E-04-2.27602E-14
 -1      2727 6.61131E-03-3.90885E-04-2.36722E-14
 -1      2728 6.38746E-03-3.62697E-04-2.22178E-14
 -1      2729 6.75629E-03-3.86016E-04-2.45994E-14
 -1      2730 6.90163E-03-3.81394E-04-2.55395E-14
 -1      2731 6.67424E-03-3.52874E-04-2.40357E-14
 -1      2732 7.04728E-03-3.77218E-04-2.64947E-14
 -1      2733 7.19341E-03-3.73662E-04-2.74624E-14
 -1      2734 6.96143E-03-3.43694E-04-2.59115E-14
 -1      2735 7.34001E-03-3.71011E-04-2.84424E-14
 -1      2736 7.48730E-03-3.69537E-04-2.94356E-14
 -1      2737 7.24935E-03-3.36379E-04-2.78398E-14
 -1      2738 7.63533E-03-3.69619E-04-3.04412E-14
 -1      2739 7.78436E-03-3.71680E-04-3.14578E-14
 -1      2740 7.53867E-03-3.32730E-04-2.98182E-14
 -1      2741 7.93460E-03-3.76179E-04-3.24856E-14
 -1      2742 8.08636E-03-3.83775E-04-3.35264E-14
 -1      2743 7.83064E-03-3.35305E-04-3.18437E-14
 -1      2744 8.24007E-03-3.94969E-04-3.45801E-14
 -1      2745 8.39607E-03-4.10760E-04-3.56429E-14
 -1      2746 8.12746E-03-3.47649E-04-3.39175E-14
 -1      2747 8.55510E-03-4.31625E-04-3.67156E-14
 -1      2748 8.71737E-03-4.59032E-04-3.77985E-14
 -1      2749 8.43273E-03-3.74622E-04-3.60370E-14
 -1      2750 8.88397E-03-4.93378E-04-3.88896E-14
 -1      2751 9.05451E-03-5.36292E-04-3.99890E-14
 -1      2752 8.75170E-03-4.23089E-04-3.81930E-14
 -1      2753 9.23079E-03-5.87373E-04-4.10978E-14
 -1      2754 9.41049E-03-6.48673E-04-4.22142E-14
 -1      2755 9.09091E-03-5.01715E-04-4.03840E-14
 -1      2756 9.59567E-03-7.19527E-04-4.33401E-14
 -1      2757 9.78172E-03-7.99045E-04-4.44730E-14
 -1      2758 9.45385E-03-6.19797E-04-4.26099E-14
 -1      2759 1.00560E-02-9.01778E-04-4.61580E-14
 -1      2760 1.02428E-02-9.87702E-04-4.73109E-14
 -1      2761 1.04261E-02-1.06212E-03-4.84686E-14
 -1      2762 1.06793E-02-1.14792E-03-5.02807E-14
 -1      2763 1.08482E-02-1.15624E-03-5.14564E-14
 -1      2764 1.10160E-02-1.13488E-03-5.26210E-14
 -1      2765 1.11897E-02-1.09051E-03-5.38016E-14
 -1      2766 1.13675E-02-1.02580E-03-5.49852E-14
 -1      2767 1.15503E-02-9.53515E-04-5.61678E-14
 -1      2768 1.12928E-02-1.02552E-03-5.42173E-14
 -1      2769 1.17363E-02-8.78357E-04-5.73519E-14
 -1      2770 1.19218E-02-8.07267E-04-5.85389E-14
 -1      2771 1.16713E-02-8.65260E-04-5.65825E-14
 -1      2772 1.21067E-02-7.43245E-04-5.97269E-14
 -1      2773 1.22870E-02-6.88034E-04-6.09172E-14
 -1      2774 1.20530E-02-7.17299E-04-5.89536E-14
 -1      2775 1.24637E-02-6.42653E-04-6.21094E-14
 -1      2776 1.26351E-02-6.05869E-04-6.33083E-14
 -1      2777 1.24185E-02-6.09437E-04-6.13318E-14
 -1      2778 1.28024E-02-5.77668E-04-6.45104E-14
 -1      2779 1.29652E-02-5.56274E-04-6.57132E-14
 -1      2780 1.27607E-02-5.41909E-04-6.37259E-14
 -1      2781 1.31246E-02-5.41260E-04-6.69230E-14
 -1      2782 1.32807E-02-5.31080E-04-6.81338E-14
 -1      2783 1.30827E-02-5.05062E-04-6.61341E-14
 -1      2784 1.34343E-02-5.25123E-04-6.93484E-14
 -1      2785 1.35857E-02-5.22241E-04-7.05694E-14
 -1      2786 1.33901E-02-4.89196E-04-6.85553E-14
 -1      2787 1.37354E-02-5.21752E-04-7.17947E-14
 -1      2788 1.38836E-02-5.22811E-04-7.30221E-14
 -1      2789 1.36882E-02-4.86443E-04-7.09939E-14
 -1      2790 1.40306E-02-5.24744E-04-7.42549E-14
 -1      2791 1.41766E-02-5.26895E-04-7.54961E-14
 -1      2792 1.39805E-02-4.90510E-04-7.34495E-14
 -1      2793 9.50793E-03-5.01821E-04-4.38132E-14
 -1      2794 9.32402E-03-4.05043E-04-4.30427E-14
 -1      2795 9.57773E-03-5.64249E-04-4.38917E-14
 -1      2796 1.43732E-02-5.27808E-04-7.71733E-14
 -1      2797 1.44184E-02-4.95077E-04-7.71904E-14
 -1      2798 1.42759E-02-5.26102E-04-7.63271E-14
 -1      2799 1.98524E-03 4.63041E-04-1.79994E-15
 -1      2800 1.84321E-03 4.52873E-04-1.54539E-15
 -1      2801 2.83598E-03 4.93170E-04-3.74486E-15
 -1      2802 2.69421E-03 4.90852E-04-3.37083E-15
 -1      2803 3.11968E-03 4.95751E-04-4.55479E-15
 -1      2804 2.97781E-03 4.94778E-04-4.13973E-15
 -1      2805 2.90229E-03 4.57027E-04-4.03104E-15
 -1      2806 3.40364E-03 4.96198E-04-5.44322E-15
 -1      2807 3.26163E-03 4.96206E-04-4.98908E-15
 -1      2808 3.18711E-03 4.58942E-04-4.86750E-15
 -1      2809 3.68792E-03 4.95066E-04-6.41165E-15
 -1      2810 3.54574E-03 4.95806E-04-5.91781E-15
 -1      2811 3.47202E-03 4.58925E-04-5.78366E-15
 -1      2812 3.97254E-03 4.92718E-04-7.45728E-15
 -1      2813 3.83019E-03 4.94029E-04-6.92515E-15
 -1      2814 3.75708E-03 4.57467E-04-6.77800E-15
 -1      2815 4.25754E-03 4.89368E-04-8.57844E-15
 -1      2816 4.11500E-03 4.91159E-04-8.00808E-15
 -1      2817 4.04232E-03 4.54883E-04-7.84927E-15
 -1      2818 4.54296E-03 4.85125E-04-9.77285E-15
 -1      2819 4.40020E-03 4.87354E-04-9.16670E-15
 -1      2820 4.32776E-03 4.51353E-04-8.99479E-15
 -1      2821 4.82883E-03 4.80017E-04-1.10397E-14
 -1      2822 4.68583E-03 4.82678E-04-1.03973E-14
 -1      2823 4.61344E-03 4.46958E-04-1.02129E-14
 -1      2824 5.11523E-03 4.74033E-04-1.23765E-14
 -1      2825 4.97196E-03 4.77134E-04-1.16994E-14
 -1      2826 4.89939E-03 4.41713E-04-1.15022E-14
 -1      2827 5.40225E-03 4.67151E-04-1.37798E-14
 -1      2828 5.25865E-03 4.70703E-04-1.30700E-14
 -1      2829 5.18567E-03 4.35593E-04-1.28606E-14
 -1      2830 5.69003E-03 4.59384E-04-1.52514E-14
 -1      2831 5.54603E-03 4.63374E-04-1.45073E-14
 -1      2832 5.47233E-03 4.28579E-04-1.42865E-14
 -1      2833 5.97873E-03 4.50827E-04-1.67853E-14
 -1      2834 5.83424E-03 4.55193E-04-1.60104E-14
 -1      2835 5.75947E-03 4.20688E-04-1.57782E-14
 -1      2836 6.26857E-03 4.41721E-04-1.83811E-14
 -1      2837 6.12348E-03 4.46321E-04-1.75762E-14
 -1      2838 6.04719E-03 4.12027E-04-1.73335E-14
 -1      2839 6.55983E-03 4.32530E-04-2.00345E-14
 -1      2840 6.41399E-03 4.37098E-04-1.92004E-14
 -1      2841 6.33567E-03 4.02857E-04-1.89477E-14
 -1      2842 6.85289E-03 4.24045E-04-2.17417E-14
 -1      2843 6.70609E-03 4.28138E-04-2.08824E-14
 -1      2844 6.62514E-03 3.93668E-04-2.06192E-14
 -1      2845 7.14823E-03 4.17503E-04-2.35021E-14
 -1      2846 7.00022E-03 4.20439E-04-2.26161E-14
 -1      2847 6.91592E-03 3.85277E-04-2.23450E-14
 -1      2848 7.44651E-03 4.14722E-04-2.53124E-14
 -1      2849 7.29694E-03 4.15508E-04-2.44008E-14
 -1      2850 7.20854E-03 3.78940E-04-2.41236E-14
 -1      2851 7.74866E-03 4.18231E-04-2.71643E-14
 -1      2852 7.59704E-03 4.15501E-04-2.62335E-14
 -1      2853 7.50378E-03 3.76487E-04-2.59500E-14
 -1      2854 8.05590E-03 4.31368E-04-2.90577E-14
 -1      2855 7.90158E-03 4.23342E-04-2.81056E-14
 -1      2856 7.80280E-03 3.80454E-04-2.78195E-14
 -1      2857 8.36978E-03 4.58254E-04-3.09947E-14
 -1      2858 8.21197E-03 4.42774E-04-3.00203E-14
 -1      2859 8.10731E-03 3.94209E-04-2.97298E-14
 -1      2860 8.69192E-03 5.03475E-04-3.29742E-14
 -1      2861 8.52985E-03 4.78220E-04-3.19775E-14
 -1      2862 8.41958E-03 4.21997E-04-3.16820E-14
 -1      2863 9.02333E-03 5.71167E-04-3.50035E-14
 -1      2864 8.85666E-03 5.34233E-04-3.39839E-14
 -1      2865 8.74215E-03 4.68788E-04-3.36810E-14
 -1      2866 9.36303E-03 6.62903E-04-3.70778E-14
 -1      2867 9.19259E-03 6.14080E-04-3.60357E-14
 -1      2868 9.07683E-03 5.39494E-04-3.57263E-14
 -1      2869 9.70653E-03 7.73791E-04-3.92012E-14
 -1      2870 9.53501E-03 7.16698E-04-3.81330E-14
 -1      2871 9.42275E-03 6.36556E-04-3.78163E-14
 -1      2872 1.00458E-02 8.87668E-04-4.13681E-14
 -1      2873 9.87738E-03 8.32191E-04-4.02791E-14
 -1      2874 9.77411E-03 7.55007E-04-3.99521E-14
 -1      2875 1.03737E-02 9.75614E-04-4.35795E-14
 -1      2876 1.02111E-02 9.37207E-04-4.24675E-14
 -1      2877 1.01203E-02 8.74966E-04-4.21303E-14
 -1      2878 1.06905E-02 1.00649E-03-4.58320E-14
 -1      2879 1.05323E-02 9.99936E-04-4.47022E-14
 -1      2880 1.04526E-02 9.61006E-04-4.43530E-14
 -1      2881 1.10064E-02 9.65382E-04-4.81216E-14
 -1      2882 1.08469E-02 9.94631E-04-4.69731E-14
 -1      2883 1.07740E-02 9.76871E-04-4.66177E-14
 -1      2884 1.13326E-02 8.65564E-04-5.04377E-14
 -1      2885 1.11676E-02 9.20701E-04-4.92757E-14
 -1      2886 1.10987E-02 9.11854E-04-4.89141E-14
 -1      2887 1.16705E-02 7.38289E-04-5.27791E-14
 -1      2888 1.15006E-02 8.03029E-04-5.16063E-14
 -1      2889 1.14376E-02 7.91345E-04-5.12374E-14
 -1      2890 1.20128E-02 6.12763E-04-5.51376E-14
 -1      2891 1.18420E-02 6.73915E-04-5.39566E-14
 -1      2892 1.17871E-02 6.54859E-04-5.35826E-14
 -1      2893 1.23512E-02 5.05444E-04-5.75157E-14
 -1      2894 1.21832E-02 5.56354E-04-5.63249E-14
 -1      2895 1.21365E-02 5.30731E-04-5.59467E-14
 -1      2896 1.26810E-02 4.21205E-04-5.99020E-14
 -1      2897 1.25175E-02 4.60531E-04-5.87081E-14
 -1      2898 1.24767E-02 4.30997E-04-5.83261E-14
 -1      2899 1.30009E-02 3.58103E-04-6.23025E-14
 -1      2900 1.28423E-02 3.87352E-04-6.11003E-14
 -1      2901 1.28045E-02 3.56019E-04-6.07165E-14
 -1      2902 1.33119E-02 3.11181E-04-6.47155E-14
 -1      2903 1.31575E-02 3.33000E-04-6.35073E-14
 -1      2904 1.31205E-02 3.01187E-04-6.31185E-14
 -1      2905 1.36156E-02 2.74794E-04-6.71415E-14
 -1      2906 1.34646E-02 2.92034E-04-6.59264E-14
 -1      2907 1.34269E-02 2.60542E-04-6.55336E-14
 -1      2908 1.39132E-02 2.43443E-04-6.95855E-14
 -1      2909 1.37651E-02 2.58814E-04-6.83613E-14
 -1      2910 1.37261E-02 2.28340E-04-6.79675E-14
 -1      2911 1.41806E-02 2.08012E-04-7.18134E-14
 -1      2912 1.40347E-02 2.23629E-04-7.05861E-14
 -1      2913 1.39950E-02 1.94734E-04-7.01889E-14
 -1      2914 1.42348E-02 1.57002E-04-7.21939E-14
 -1      2915 1.45048E-02-1.64123E-04-7.44358E-14
 -1      2916 1.44905E-02-1.35108E-04-7.41934E-14
 -1      2917 1.44202E-02-4.35451E-05-7.34650E-14
 -1      2918 1.43893E-02-1.07733E-05-7.32247E-14
 -1      2919 1.45180E-02-2.21233E-04-7.49218E-14
 -1      2920 1.45140E-02-1.92644E-04-7.46805E-14
 -1      2921 1.43957E-02-1.72394E-04-7.34860E-14
 -1      2922 1.44713E-02-1.05569E-04-7.39498E-14
 -1      2923 1.44477E-02-7.50438E-05-7.37078E-14
 -1      2924 1.43170E-02-5.19439E-05-7.25150E-14
 -1      2925 1.43661E-02-1.13880E-04-7.30009E-14
 -1      2926 1.14140E-02 6.61437E-04-5.10928E-14
 -1      2927 1.16084E-02 5.41226E-04-5.20857E-14
 -1      2928 1.45110E-02-2.78297E-04-7.53982E-14
 -1      2929 1.45169E-02-2.49445E-04-7.51601E-14
 -1      2930 1.44034E-02-2.29389E-04-7.39663E-14
 -1      2931 1.44861E-02-3.39470E-04-7.58821E-14
 -1      2932 1.45005E-02-3.08323E-04-7.56394E-14
 -1      2933 1.43903E-02-2.88008E-04-7.44430E-14
 -1      2934 1.44480E-02-4.05373E-04-7.63633E-14
 -1      2935 1.44683E-02-3.71727E-04-7.61207E-14
 -1      2936 1.43593E-02-3.51044E-04-7.49230E-14
 -1      2937 1.44415E-02-4.58113E-04-7.69558E-14
 -1      2938 1.70101E-03 4.40480E-04-1.31121E-15
 -1      2939 1.55857E-03 4.25661E-04-1.09706E-15
 -1      2940 1.76201E-03 4.11130E-04-1.48445E-15
 -1      2941 1.25961E-02 3.55199E-05-5.63560E-14
 -1      2942 1.27585E-02-2.34275E-05-5.69444E-14
 -1      2943 8.03023E-04 2.78332E-04-3.10895E-16
 -1      2944 1.27962E-02-2.09080E-04-5.81388E-14
 -1      2945 1.26775E-02-2.49501E-04-5.79823E-14
 -1      2946 8.68659E-03-1.32042E-04-4.07742E-14
 -1      2947 8.57618E-03-9.95406E-05-4.04486E-14
 -1      2948 2.55245E-03 4.87658E-04-3.01671E-15
 -1      2949 2.41072E-03 4.83487E-04-2.68241E-15
 -1      2950 2.61749E-03 4.52464E-04-3.27476E-15
 -1      2951 2.26895E-03 4.78111E-04-2.36749E-15
 -1      2952 2.12714E-03 4.71400E-04-2.07367E-15
 -1      2953 2.33261E-03 4.44257E-04-2.59817E-15
 -1      2954 1.03363E-03-3.14326E-04-7.97986E-16
 -1      2955 1.17687E-03-3.40423E-04-1.00176E-15
 -1      2956 1.23838E-03-3.19151E-04-1.12027E-15
 -1      2957 1.30306E-02-1.48449E-04-5.86594E-14
 -1      2958 1.29300E-02-1.69633E-04-5.83997E-14
 -1      2959 1.29107E-02-1.92287E-04-5.90652E-14
 -1      2960 7.99383E-04-2.55303E-04-5.19604E-16
 -1      2961 9.30675E-04-2.90880E-04-6.67299E-16
 -1      2962 9.92809E-04-2.75556E-04-7.65257E-16
 -1      2963 7.89242E-04-2.29344E-04-5.22260E-16
 -1      2964 1.00969E-02 7.30222E-04-4.32659E-14
 -1      2965 1.02131E-02 7.91771E-04-4.38416E-14
 -1      2966 1.41592E-03 4.07883E-04-9.02991E-16
 -1      2967 1.27288E-03 3.86883E-04-7.28882E-16
 -1      2968 1.18959E-03 3.41574E-04-6.89038E-16
 -1      2969 1.47601E-03 3.82217E-04-1.04672E-15
 -1      2970 7.84485E-04 1.23532E-04-4.48616E-16
 -1      2971 7.82118E-04 1.00085E-04-4.63293E-16
 -1      2972 8.99763E-04 9.95035E-05-5.95606E-16
 -1      2973 9.05453E-04 1.51666E-04-5.60058E-16
 -1      2974 7.81849E-04-9.80277E-05-5.41044E-16
 -1      2975 7.84138E-04-1.21392E-04-5.44161E-16
 -1      2976 9.23900E-03 2.39887E-04-4.06750E-14
 -1      2977 9.41010E-03 3.29754E-04-4.10480E-14
 -1      2978 1.03954E-02 8.64085E-04-4.48756E-14
 -1      2979 1.05678E-02 9.11419E-04-4.59193E-14
 -1      2980 1.03087E-02 8.50031E-04-4.41326E-14
 -1      2981 8.48985E-03-7.37722E-05-4.02596E-14
 -1      2982 8.45073E-03-6.36936E-05-4.01796E-14
 -1      2983 8.57493E-03-1.73546E-05-3.97939E-14
 -1      2984 8.69454E-03 1.23860E-05-4.00396E-14
 -1      2985 9.07024E-03-2.83531E-04-4.20331E-14
 -1      2986 8.87050E-03-1.99705E-04-4.13461E-14
 -1      2987 1.07335E-02 9.20821E-04-4.69766E-14
 -1      2988 1.08689E-02 9.02643E-04-4.78472E-14
 -1      2989 1.29090E-02-7.28901E-05-5.74603E-14
 -1      2990 1.30074E-02-9.79831E-05-5.78465E-14
 -1      2991 1.06456E-02-1.10931E-03-4.97742E-14
 -1      2992 1.05187E-02-1.07153E-03-4.89607E-14
 -1      2993 1.24951E-02-3.21472E-04-5.75788E-14
 -1      2994 1.23032E-02-4.08915E-04-5.71621E-14
 -1      2995 1.09748E-02-1.10064E-03-5.18286E-14
 -1      2996 1.08183E-02-1.12232E-03-5.08549E-14
 -1      2997 1.16823E-02-7.49620E-04-5.52530E-14
 -1      2998 1.15122E-02-8.54214E-04-5.46030E-14
 -1      2999 1.13365E-02-9.49113E-04-5.37464E-14
 -1      3000 1.11725E-02-1.03109E-03-5.28906E-14
 -1      3001 1.14547E-02-8.99405E-04-5.45521E-14
 -1      3002 1.20749E-02-5.27577E-04-5.65969E-14
 -1      3003 1.18802E-02-6.36219E-04-5.59794E-14
 -1      3004 7.87161E-04-1.45548E-04-5.46004E-16
 -1      3005 7.91001E-04-1.70729E-04-5.46180E-16
 -1      3006 9.04977E-04-1.49137E-04-6.88685E-16
 -1      3007 8.95663E-04 1.01021E-06-6.48434E-16
 -1      3008 7.77795E-04-9.72773E-06-5.16961E-16
 -1      3009 7.78154E-04-3.13893E-05-5.24632E-16
 -1      3010 1.13116E-02 7.34546E-04-5.05470E-14
 -1      3011 1.18111E-02-6.97928E-04-5.61363E-14
 -1      3012 9.91879E-03-8.00593E-04-4.54070E-14
 -1      3013 1.10791E-02-1.07878E-03-5.25620E-14
 -1      3014 1.10103E-02-1.11030E-03-5.23001E-14
 -1      3015 9.16066E-03-3.44461E-04-4.21099E-14
 -1      3016 1.42239E-02-4.93337E-04-7.55135E-14
 -1      3017 1.26093E-02-2.94046E-04-5.84009E-14
 -1      3018 2.04750E-03 4.31067E-04-2.00145E-15
 -1      3019 1.42716E-02 1.18834E-04-7.24374E-14
 -1      3020 1.41530E-02 1.36775E-04-7.14331E-14
 -1      3021 1.43082E-02 8.18544E-05-7.26816E-14
 -1      3022 1.07429E-02-1.12806E-03-5.04855E-14
 -1      3023 1.28725E-02-4.70744E-05-5.78369E-14
 -1      3024 1.18217E-02 4.14470E-04-5.30757E-14
 -1      3025 1.20028E-02 3.09565E-04-5.38406E-14
 -1      3026 1.42780E-02-4.64837E-04-7.56338E-14
 -1      3027 1.43970E-02-4.31265E-04-7.62418E-14
 -1      3028 1.42875E-02-4.10060E-04-7.50427E-14
 -1      3029 1.41804E-02-4.64496E-04-7.48044E-14
 -1      3030 8.74590E-03-1.68244E-04-4.05404E-14
 -1      3031 1.06371E-02 9.26001E-04-4.62208E-14
 -1      3032 1.24303E-02 1.09577E-04-5.58139E-14
 -1      3033 1.25726E-02 7.09863E-05-5.67797E-14
 -1      3034 8.51129E-03-3.04747E-05-3.95406E-14
 -1      3035 8.54550E-03-1.13164E-05-3.90708E-14
 -1      3036 8.46081E-03-3.71221E-05-3.92854E-14
 -1      3037 1.22543E-02 1.88490E-04-5.50472E-14
 -1      3038 8.64812E-04 2.66652E-04-3.91763E-16
 -1      3039 8.49598E-03-8.45677E-05-3.97882E-14
 -1      3040 8.76169E-03 4.37451E-05-3.97453E-14
 -1      3041 8.42744E-03-5.73686E-05-3.96780E-14
 -1      3042 1.43674E-02 1.72286E-05-7.30775E-14
 -1      3043 1.43326E-02 5.19782E-05-7.28340E-14
 -1      3044 1.42162E-02 6.79901E-05-7.18280E-14
 -1      3045 1.42645E-02 8.99347E-06-7.21276E-14
 -1      3046 9.95870E-03 6.68876E-04-4.24718E-14
 -1      3047 1.30848E-02-1.39327E-04-5.90225E-14
 -1      3048 1.30867E-02-1.53246E-04-5.96892E-14
 -1      3049 1.31235E-02-1.34833E-04-5.93848E-14
 -1      3050 9.52495E-03 4.08207E-04-4.10419E-14
 -1      3051 9.62042E-03 4.86209E-04-4.10338E-14
 -1      3052 9.39092E-03 3.62615E-04-4.02415E-14
 -1      3053 7.78924E-04-5.31878E-05-5.31056E-16
 -1      3054 7.80129E-04-7.53898E-05-5.36626E-16
 -1      3055 8.99479E-04-9.71518E-05-6.80743E-16
 -1      3056 8.96549E-04-4.75557E-05-6.67123E-16
 -1      3057 9.11359E-03 1.88063E-04-4.02103E-14
 -1      3058 9.16009E-03 2.36295E-04-3.97870E-14
 -1      3059 8.99285E-03 1.45071E-04-3.97469E-14
 -1      3060 1.03984E-02-1.02890E-03-4.82441E-14
 -1      3061 9.97910E-03-7.98114E-04-4.58743E-14
 -1      3062 1.09503E-02 8.91719E-04-4.82673E-14
 -1      3063 1.22150E-02-4.75102E-04-5.74301E-14
 -1      3064 1.11924E-02-1.04346E-03-5.33657E-14
 -1      3065 9.82920E-04 2.75884E-04-5.16988E-16
 -1      3066 1.17354E-02 4.83461E-04-5.28311E-14
 -1      3067 8.48112E-03-9.34328E-05-3.91469E-14
 -1      3068 8.41593E-03-7.18912E-05-3.89636E-14
 -1      3069 1.04031E-03 2.43361E-04-6.28864E-16
 -1      3070 1.03373E-03 2.11630E-04-6.57162E-16
 -1      3071 1.12525E-02 7.90625E-04-5.01673E-14
 -1      3072 1.14596E-02 6.74526E-04-5.14589E-14
 -1      3073 1.14497E-03 3.10655E-04-6.75404E-16
 -1      3074 1.08236E-03 2.71726E-04-6.46998E-16
 -1      3075 1.20147E-03 2.73127E-04-8.06199E-16
 -1      3076 1.28813E-03 3.32609E-04-8.43008E-16
 -1      3077 9.24504E-03-4.14770E-04-4.21237E-14
 -1      3078 9.01563E-03-3.06806E-04-4.11224E-14
 -1      3079 1.09338E-02-1.13005E-03-5.18692E-14
 -1      3080 1.73171E-03-3.40409E-04-2.05609E-15
 -1      3081 1.87539E-03-3.50548E-04-2.37176E-15
 -1      3082 2.01905E-03-3.58951E-04-2.70887E-15
 -1      3083 2.16271E-03-3.65771E-04-3.06759E-15
 -1      3084 1.94029E-03-3.19200E-04-2.53397E-15
 -1      3085 2.30632E-03-3.71281E-04-3.44722E-15
 -1      3086 2.44987E-03-3.75604E-04-3.84722E-15
 -1      3087 2.22835E-03-3.32117E-04-3.24656E-15
 -1      3088 2.59338E-03-3.78957E-04-4.26802E-15
 -1      3089 2.73682E-03-3.81434E-04-4.71006E-15
 -1      3090 2.51635E-03-3.40343E-04-4.04272E-15
 -1      3091 2.88022E-03-3.83203E-04-5.17143E-15
 -1      3092 3.02355E-03-3.84332E-04-5.65284E-15
 -1      3093 2.80413E-03-3.45080E-04-4.91970E-15
 -1      3094 3.16684E-03-3.84945E-04-6.15498E-15
 -1      3095 3.31008E-03-3.85091E-04-6.67648E-15
 -1      3096 3.09164E-03-3.47258E-04-5.87728E-15
 -1      3097 3.45329E-03-3.84856E-04-7.21732E-15
 -1      3098 3.59644E-03-3.84274E-04-7.77752E-15
 -1      3099 3.37885E-03-3.47563E-04-6.91416E-15
 -1      3100 3.73957E-03-3.83402E-04-8.35619E-15
 -1      3101 3.88265E-03-3.82259E-04-8.95283E-15
 -1      3102 3.66577E-03-3.46481E-04-8.02747E-15
 -1      3103 4.02571E-03-3.80882E-04-9.56718E-15
 -1      3104 4.16873E-03-3.79277E-04-1.01997E-14
 -1      3105 3.95240E-03-3.44329E-04-9.21423E-15
 -1      3106 4.31173E-03-3.77465E-04-1.08491E-14
 -1      3107 4.45469E-03-3.75446E-04-1.15154E-14
 -1      3108 4.23874E-03-3.41299E-04-1.04722E-14
 -1      3109 4.59762E-03-3.73227E-04-1.21983E-14
 -1      3110 4.74052E-03-3.70803E-04-1.28975E-14
 -1      3111 4.52478E-03-3.37481E-04-1.17982E-14
 -1      3112 4.88339E-03-3.68174E-04-1.36145E-14
 -1      3113 5.02622E-03-3.65331E-04-1.43475E-14
 -1      3114 4.81050E-03-3.32894E-04-1.31906E-14
 -1      3115 5.16901E-03-3.62273E-04-1.50968E-14
 -1      3116 5.31176E-03-3.58991E-04-1.58638E-14
 -1      3117 5.09586E-03-3.27518E-04-1.46508E-14
 -1      3118 5.45445E-03-3.55486E-04-1.66471E-14
 -1      3119 5.59710E-03-3.51752E-04-1.74475E-14
 -1      3120 5.38078E-03-3.21313E-04-1.61778E-14
 -1      3121 5.73966E-03-3.47799E-04-1.82634E-14
 -1      3122 5.88218E-03-3.43627E-04-1.90943E-14
 -1      3123 5.66518E-03-3.14257E-04-1.77712E-14
 -1      3124 6.02460E-03-3.39267E-04-1.99413E-14
 -1      3125 6.16695E-03-3.34725E-04-2.08032E-14
 -1      3126 5.94891E-03-3.06379E-04-1.94286E-14
 -1      3127 6.30918E-03-3.30062E-04-2.16796E-14
 -1      3128 6.45135E-03-3.25302E-04-2.25714E-14
 -1      3129 6.23185E-03-2.97800E-04-2.11462E-14
 -1      3130 6.59338E-03-3.20541E-04-2.34779E-14
 -1      3131 6.73536E-03-3.15831E-04-2.43975E-14
 -1      3132 6.51384E-03-2.88788E-04-2.29231E-14
 -1      3133 6.87720E-03-3.11318E-04-2.53312E-14
 -1      3134 7.01903E-03-3.07090E-04-2.62794E-14
 -1      3135 6.79475E-03-2.79815E-04-2.47560E-14
 -1      3136 7.16079E-03-3.03352E-04-2.72404E-14
 -1      3137 7.30265E-03-3.00255E-04-2.82136E-14
 -1      3138 7.07455E-03-2.71623E-04-2.66441E-14
 -1      3139 7.44460E-03-2.98060E-04-2.91993E-14
 -1      3140 7.58689E-03-2.97019E-04-3.01974E-14
 -1      3141 7.35345E-03-2.65296E-04-2.85846E-14
 -1      3142 7.72959E-03-2.97440E-04-3.12071E-14
 -1      3143 7.87313E-03-2.99751E-04-3.22274E-14
 -1      3144 7.63206E-03-2.62348E-04-3.05732E-14
 -1      3145 8.01771E-03-3.04273E-04-3.32611E-14
 -1      3146 8.16395E-03-3.11754E-04-3.43064E-14
 -1      3147 7.91188E-03-2.64861E-04-3.26088E-14
 -1      3148 8.31236E-03-3.22478E-04-3.53619E-14
 -1      3149 8.46373E-03-3.37739E-04-3.64270E-14
 -1      3150 8.19577E-03-2.75790E-04-3.46907E-14
 -1      3151 8.61911E-03-3.57782E-04-3.74995E-14
 -1      3152 8.77929E-03-3.84980E-04-3.85819E-14
 -1      3153 8.48876E-03-2.99597E-04-3.68118E-14
 -1      3154 9.01443E-03-4.16982E-04-4.02106E-14
 -1      3155 9.19078E-03-4.66626E-04-4.13136E-14
 -1      3156 9.37514E-03-5.28746E-04-4.24251E-14
 -1      3157 1.20084E-02-6.82856E-04-5.81645E-14
 -1      3158 1.21990E-02-6.17799E-04-5.93506E-14
 -1      3159 1.23841E-02-5.68048E-04-6.05430E-14
 -1      3160 1.25597E-02-5.28282E-04-6.17351E-14
 -1      3161 1.23565E-02-5.22499E-04-5.97493E-14
 -1      3162 1.27289E-02-4.99394E-04-6.29288E-14
 -1      3163 1.28915E-02-4.77982E-04-6.41278E-14
 -1      3164 1.27040E-02-4.53893E-04-6.21350E-14
 -1      3165 1.30491E-02-4.63819E-04-6.53314E-14
 -1      3166 1.32025E-02-4.54420E-04-6.65382E-14
 -1      3167 1.30210E-02-4.20760E-04-6.45290E-14
 -1      3168 1.33527E-02-4.49488E-04-6.77471E-14
 -1      3169 1.35004E-02-4.47525E-04-6.89604E-14
 -1      3170 1.33193E-02-4.09109E-04-6.69377E-14
 -1      3171 1.36464E-02-4.48103E-04-7.01787E-14
 -1      3172 1.37910E-02-4.50291E-04-7.14015E-14
 -1      3173 1.36075E-02-4.09761E-04-6.93633E-14
 -1      3174 1.39144E-02-4.55403E-04-7.24845E-14
 -1      3175 1.40576E-02-4.59064E-04-7.37166E-14
 -1      3176 1.41134E-02-4.30787E-04-7.38349E-14
 -1      3177 1.38708E-02-4.18564E-04-7.16623E-14
 -1      3178 1.27204E-02-2.75914E-04-5.93032E-14
 -1      3179 1.25564E-02-3.40108E-04-5.88995E-14
 -1      3180 2.96921E-03 4.20514E-04-4.32166E-15
 -1      3181 2.82629E-03 4.19020E-04-3.91966E-15
 -1      3182 3.82642E-03 4.19715E-04-7.14858E-15
 -1      3183 3.68357E-03 4.20719E-04-6.62866E-15
 -1      3184 4.11215E-03 4.16960E-04-8.24457E-15
 -1      3185 3.96928E-03 4.18457E-04-7.68743E-15
 -1      3186 3.89595E-03 3.81870E-04-7.52317E-15
 -1      3187 4.39791E-03 4.13314E-04-9.41413E-15
 -1      3188 4.25503E-03 4.15244E-04-8.82035E-15
 -1      3189 4.18204E-03 3.79006E-04-8.64403E-15
 -1      3190 4.68373E-03 4.08835E-04-1.06559E-14
 -1      3191 4.54082E-03 4.11178E-04-1.00262E-14
 -1      3192 4.46801E-03 3.75306E-04-9.83760E-15
 -1      3193 4.96963E-03 4.03522E-04-1.19679E-14
 -1      3194 4.82667E-03 4.06284E-04-1.13032E-14
 -1      3195 4.75384E-03 3.70808E-04-1.11025E-14
 -1      3196 5.25562E-03 3.97346E-04-1.33483E-14
 -1      3197 5.11261E-03 4.00544E-04-1.26500E-14
 -1      3198 5.03953E-03 3.65501E-04-1.24367E-14
 -1      3199 5.54173E-03 3.90287E-04-1.47966E-14
 -1      3200 5.39865E-03 3.93928E-04-1.40640E-14
 -1      3201 5.32507E-03 3.59351E-04-1.38397E-14
 -1      3202 5.82800E-03 3.82369E-04-1.63089E-14
 -1      3203 5.68483E-03 3.86433E-04-1.55449E-14
 -1      3204 5.61044E-03 3.52338E-04-1.53091E-14
 -1      3205 6.11450E-03 3.73709E-04-1.78847E-14
 -1      3206 5.97121E-03 3.78122E-04-1.70894E-14
 -1      3207 5.89564E-03 3.44492E-04-1.68434E-14
 -1      3208 6.40133E-03 3.64580E-04-1.95172E-14
 -1      3209 6.25785E-03 3.69182E-04-1.86934E-14
 -1      3210 6.18066E-03 3.35936E-04-1.84382E-14
 -1      3211 6.68867E-03 3.55483E-04-2.12067E-14
 -1      3212 6.54490E-03 3.59990E-04-2.03548E-14
 -1      3213 6.46556E-03 3.26947E-04-2.00890E-14
 -1      3214 6.97684E-03 3.47235E-04-2.29510E-14
 -1      3215 6.83260E-03 3.51192E-04-2.20725E-14
 -1      3216 6.75046E-03 3.18017E-04-2.17966E-14
 -1      3217 7.26638E-03 3.41078E-04-2.47476E-14
 -1      3218 7.12137E-03 3.43800E-04-2.38435E-14
 -1      3219 7.03568E-03 3.09937E-04-2.35597E-14
 -1      3220 7.55820E-03 3.38802E-04-2.65910E-14
 -1      3221 7.41192E-03 3.39313E-04-2.56640E-14
 -1      3222 7.32179E-03 3.03890E-04-2.53746E-14
 -1      3223 7.85377E-03 3.42892E-04-2.84778E-14
 -1      3224 7.70540E-03 3.39843E-04-2.75291E-14
 -1      3225 7.60984E-03 3.01573E-04-2.72365E-14
 -1      3226 8.15529E-03 3.56694E-04-3.04050E-14
 -1      3227 8.00363E-03 3.48279E-04-2.94351E-14
 -1      3228 7.90159E-03 3.05356E-04-2.91389E-14
 -1      3229 8.46582E-03 3.84598E-04-3.23747E-14
 -1      3230 8.30926E-03 3.68463E-04-3.13851E-14
 -1      3231 8.19980E-03 3.18528E-04-3.10822E-14
 -1      3232 8.78896E-03 4.32114E-04-3.43908E-14
 -1      3233 8.62572E-03 4.05365E-04-3.33760E-14
 -1      3234 8.50841E-03 3.45685E-04-3.30707E-14
 -1      3235 9.12757E-03 5.05370E-04-3.64511E-14
 -1      3236 8.95647E-03 4.64996E-04-3.54157E-14
 -1      3237 8.83224E-03 3.93239E-04-3.51022E-14
 -1      3238 9.48127E-03 6.08364E-04-3.85554E-14
 -1      3239 9.30326E-03 5.53041E-04-3.74971E-14
 -1      3240 9.17559E-03 4.69168E-04-3.71774E-14
 -1      3241 9.84285E-03 7.36317E-04-4.07042E-14
 -1      3242 9.66244E-03 6.70232E-04-3.96249E-14
 -1      3243 9.53831E-03 5.79949E-04-3.92951E-14
 -1      3244 1.02208E-02 8.56834E-04-4.31734E-14
 -1      3245 1.00425E-02 7.92794E-04-4.20719E-14
 -1      3246 1.05520E-02 9.43207E-04-4.53278E-14
 -1      3247 1.03828E-02 9.10729E-04-4.42034E-14
 -1      3248 1.08676E-02 9.34656E-04-4.75238E-14
 -1      3249 1.07003E-02 9.50378E-04-4.63814E-14
 -1      3250 1.15056E-02 7.28134E-04-5.17408E-14
 -1      3251 1.13278E-02 8.00259E-04-5.05748E-14
 -1      3252 1.19114E-02 5.66430E-04-5.43841E-14
 -1      3253 1.17313E-02 6.35717E-04-5.32074E-14
 -1      3254 1.22658E-02 4.47899E-04-5.67520E-14
 -1      3255 1.20907E-02 5.03546E-04-5.55655E-14
 -1      3256 1.20465E-02 4.74928E-04-5.51870E-14
 -1      3257 1.26052E-02 3.58415E-04-5.91330E-14
 -1      3258 1.24379E-02 3.99840E-04-5.79413E-14
 -1      3259 1.24017E-02 3.66106E-04-5.75550E-14
 -1      3260 1.29287E-02 2.93885E-04-6.15245E-14
 -1      3261 1.27689E-02 3.23588E-04-6.03269E-14
 -1      3262 1.27364E-02 2.89017E-04-5.99375E-14
 -1      3263 1.32394E-02 2.47479E-04-6.39300E-14
 -1      3264 1.30855E-02 2.68922E-04-6.27265E-14
 -1      3265 1.30534E-02 2.35208E-04-6.23339E-14
 -1      3266 1.35406E-02 2.12845E-04-6.63496E-14
 -1      3267 1.33910E-02 2.29109E-04-6.51373E-14
 -1      3268 1.33576E-02 1.96856E-04-6.47410E-14
 -1      3269 1.38353E-02 1.84431E-04-6.87888E-14
 -1      3270 1.36886E-02 1.98193E-04-6.75657E-14
 -1      3271 1.36531E-02 1.67626E-04-6.71666E-14
 -1      3272 1.40550E-02 1.51465E-04-7.06090E-14
 -1      3273 1.39348E-02 1.69385E-04-6.96087E-14
 -1      3274 1.38978E-02 1.40469E-04-6.92067E-14
 -1      3275 1.40937E-02 1.12593E-04-7.08500E-14
 -1      3276 1.01677E-03 6.82383E-05-7.63698E-16
 -1      3277 1.01561E-03 4.12434E-05-7.79528E-16
 -1      3278 9.75346E-03 5.96074E-04-4.11084E-14
 -1      3279 9.92667E-03 7.08224E-04-4.17298E-14
 -1      3280 1.42869E-02-1.80960E-04-7.25379E-14
 -1      3281 1.42772E-02-1.52088E-04-7.22953E-14
 -1      3282 1.42309E-02-3.62821E-04-7.39700E-14
 -1      3283 1.42516E-02-3.29524E-04-7.37299E-14
 -1      3284 1.42887E-02-2.37609E-04-7.30088E-14
 -1      3285 1.42906E-02-2.09083E-04-7.27742E-14
 -1      3286 1.41782E-02-1.88958E-04-7.15863E-14
 -1      3287 1.82453E-03 3.81056E-04-1.66296E-15
 -1      3288 1.68118E-03 3.69528E-04-1.41968E-15
 -1      3289 1.21867E-02 2.43493E-04-5.50288E-14
 -1      3290 1.16768E-02 5.43557E-04-5.26697E-14
 -1      3291 1.18688E-02 4.29207E-04-5.36613E-14
 -1      3292 8.77343E-03-2.00903E-04-4.01613E-14
 -1      3293 8.61523E-03-1.40582E-04-3.95984E-14
 -1      3294 1.30424E-02-1.07087E-04-5.80644E-14
 -1      3295 1.30946E-02-1.15958E-04-5.87547E-14
 -1      3296 2.68333E-03 4.16817E-04-3.53748E-15
 -1      3297 2.54034E-03 4.13827E-04-3.17560E-15
 -1      3298 2.74993E-03 3.80803E-04-3.80582E-15
 -1      3299 1.42686E-02-2.97766E-04-7.34895E-14
 -1      3300 1.42812E-02-2.67139E-04-7.32497E-14
 -1      3301 1.41732E-02-2.46221E-04-7.20618E-14
 -1      3302 1.41453E-02-3.07650E-04-7.25417E-14
 -1      3303 7.85455E-04-1.87606E-04-5.35162E-16
 -1      3304 7.93282E-04-2.11151E-04-5.35718E-16
 -1      3305 8.94179E-04-2.33353E-04-6.52514E-16
 -1      3306 9.03465E-04-1.95018E-04-6.78697E-16
 -1      3307 3.54071E-03 4.21432E-04-6.12786E-15
 -1      3308 3.39785E-03 4.21827E-04-5.64654E-15
 -1      3309 3.60971E-03 3.83784E-04-6.47709E-15
 -1      3310 2.11104E-03 3.98463E-04-2.20833E-15
 -1      3311 1.96782E-03 3.90644E-04-1.92587E-15
 -1      3312 1.88831E-03 3.50309E-04-1.84728E-15
 -1      3313 1.15850E-03-2.77025E-04-1.01453E-15
 -1      3314 1.30138E-03-2.96791E-04-1.24119E-15
 -1      3315 3.25498E-03 4.21842E-04-5.18560E-15
 -1      3316 3.11211E-03 4.21436E-04-4.74376E-15
 -1      3317 3.03672E-03 3.83711E-04-4.61748E-15
 -1      3318 3.32330E-03 3.84520E-04-5.50796E-15
 -1      3319 2.39730E-03 4.09865E-04-2.83366E-15
 -1      3320 2.25420E-03 4.04825E-04-2.51085E-15
 -1      3321 2.46292E-03 3.75019E-04-3.07360E-15
 -1      3322 1.13837E-02-9.63964E-04-5.45473E-14
 -1      3323 1.44460E-03-3.13783E-04-1.49068E-15
 -1      3324 1.58811E-03-3.28213E-04-1.76217E-15
 -1      3325 1.65247E-03-3.00116E-04-1.90588E-15
 -1      3326 1.10128E-02 9.01532E-04-4.85110E-14
 -1      3327 1.25736E-02 1.02504E-04-5.72612E-14
 -1      3328 1.27133E-02 3.88855E-05-5.78028E-14
 -1      3329 1.29970E-02-1.88583E-04-5.99306E-14
 -1      3330 1.28776E-02-2.22114E-04-5.96694E-14
 -1      3331 8.67336E-03 3.66156E-05-3.89065E-14
 -1      3332 8.82451E-03 8.15401E-05-3.93265E-14
 -1      3333 8.87590E-03 1.25627E-04-3.89070E-14
 -1      3334 8.39615E-03-5.63163E-05-3.90219E-14
 -1      3335 8.40843E-03-4.92806E-05-3.90991E-14
 -1      3336 1.30384E-02-9.66646E-05-5.85727E-14
 -1      3337 1.22835E-02-4.73921E-04-5.82791E-14
 -1      3338 1.20837E-02-5.81643E-04-5.77118E-14
 -1      3339 1.28565E-02-2.14306E-05-5.83195E-14
 -1      3340 1.29850E-02-6.55555E-05-5.88364E-14
 -1      3341 1.28540E-02 8.91510E-06-5.88041E-14
 -1      3342 1.11857E-02 8.44558E-04-4.96672E-14
 -1      3343 1.21003E-02 3.11354E-04-5.48687E-14
 -1      3344 1.23299E-02 2.09655E-04-5.60778E-14
 -1      3345 1.20321E-02 3.77574E-04-5.47087E-14
 -1      3346 1.31290E-02-1.16691E-04-5.94581E-14
 -1      3347 1.31351E-02-1.25625E-04-5.94209E-14
 -1      3348 1.31643E-02-1.35857E-04-6.00898E-14
 -1      3349 1.15440E-02-8.79722E-04-5.54053E-14
 -1      3350 1.17431E-02-7.90507E-04-5.65884E-14
 -1      3351 1.30542E-02-9.13871E-05-5.90376E-14
 -1      3352 1.30893E-02-1.00430E-04-5.92576E-14
 -1      3353 1.31512E-02-1.12406E-04-5.99262E-14
 -1      3354 1.30499E-02-7.13696E-05-5.95237E-14
 -1      3355 1.01502E-03 1.44544E-05-7.93568E-16
 -1      3356 1.01498E-03-1.22356E-05-8.06348E-16
 -1      3357 1.13574E-03 3.01763E-05-9.51835E-16
 -1      3358 1.15318E-03 2.11889E-04-8.16309E-16
 -1      3359 1.02843E-03 1.81245E-04-6.83034E-16
 -1      3360 1.02429E-03 1.51906E-04-7.06290E-16
 -1      3361 1.15956E-02 6.20530E-04-5.22859E-14
 -1      3362 1.02101E-03 1.23354E-04-7.27486E-16
 -1      3363 1.01856E-03 9.55707E-05-7.46717E-16
 -1      3364 1.13837E-03 8.86565E-05-9.15189E-16
 -1      3365 1.14393E-03 1.48827E-04-8.70601E-16
 -1      3366 1.02381E-03-1.49178E-04-8.47575E-16
 -1      3367 1.02783E-03-1.78430E-04-8.50611E-16
 -1      3368 1.19039E-02-6.78229E-04-5.69830E-14
 -1      3369 9.14987E-03 2.59370E-04-3.93168E-14
 -1      3370 9.26954E-03 3.07543E-04-3.97773E-14
 -1      3371 9.36653E-03 3.81188E-04-3.97676E-14
 -1      3372 8.86155E-03-3.37679E-04-3.95001E-14
 -1      3373 9.54418E-03-5.87061E-04-4.34296E-14
 -1      3374 1.05924E-02-1.12736E-03-4.96309E-14
 -1      3375 1.06711E-02-1.12603E-03-5.00564E-14
 -1      3376 9.70036E-03-6.78898E-04-4.42042E-14
 -1      3377 1.16303E-02 6.38366E-04-5.25375E-14
 -1      3378 1.24155E-02 2.22126E-04-5.69435E-14
 -1      3379 1.24902E-02 1.60827E-04-5.71019E-14
 -1      3380 1.26420E-02 1.24127E-04-5.81280E-14
 -1      3381 8.59139E-03 1.48493E-05-3.86545E-14
 -1      3382 8.63614E-03 4.73385E-05-3.82391E-14
 -1      3383 8.51878E-03-4.75713E-08-3.84031E-14
 -1      3384 1.02065E-03-1.20764E-04-8.42669E-16
 -1      3385 1.14346E-03-1.45955E-04-1.02173E-15
 -1      3386 1.01829E-03-9.30374E-05-8.36001E-16
 -1      3387 9.61724E-03 5.46926E-04-4.03031E-14
 -1      3388 1.42149E-02-6.13478E-05-7.15709E-14
 -1      3389 1.41848E-02-2.86430E-05-7.13289E-14
 -1      3390 1.28351E-02-2.60834E-04-6.01710E-14
 -1      3391 1.41582E-02-1.31976E-04-7.11097E-14
 -1      3392 1.42617E-02-1.22840E-04-7.20548E-14
 -1      3393 1.42408E-02-9.26085E-05-7.18140E-14
 -1      3394 8.36491E-03-6.24265E-05-3.83884E-14
 -1      3395 1.41469E-02-4.09056E-04-7.38427E-14
 -1      3396 1.41998E-02-3.82948E-04-7.39609E-14
 -1      3397 1.40933E-02-3.60426E-04-7.27732E-14
 -1      3398 1.40269E-02-4.02491E-04-7.27565E-14
 -1      3399 8.41022E-03-3.82440E-05-3.86336E-14
 -1      3400 1.36552E-03-2.73184E-04-1.36471E-15
 -1      3401 8.50723E-03-1.42961E-04-3.83965E-14
 -1      3402 8.49662E-03-1.15595E-04-3.87728E-14
 -1      3403 8.39321E-03-9.95280E-05-3.79546E-14
 -1      3404 8.85331E-03-2.59360E-04-4.01712E-14
 -1      3405 2.17569E-03 3.65308E-04-2.42124E-15
 -1      3406 9.95850E-04-2.54117E-04-7.81520E-16
 -1      3407 1.06000E-03-2.37128E-04-8.81660E-16
 -1      3408 1.41626E-02-4.52225E-07-7.11796E-14
 -1      3409 1.41387E-02 2.87785E-05-7.10329E-14
 -1      3410 1.40621E-02-1.07681E-05-7.02366E-14
 -1      3411 1.55627E-03 3.61495E-04-1.21717E-15
 -1      3412 1.41290E-03 3.45365E-04-1.01187E-15
 -1      3413 1.36913E-03 3.15151E-04-9.92560E-16
 -1      3414 1.61932E-03 3.33865E-04-1.37478E-15
 -1      3415 1.30753E-02-1.72888E-04-6.02967E-14
 -1      3416 1.30620E-02-1.97588E-04-6.09041E-14
 -1      3417 1.31405E-02-1.63083E-04-6.06615E-14
 -1      3418 1.24635E-02-4.25778E-04-5.94688E-14
 -1      3419 1.18343E-02 5.17265E-04-5.37537E-14
 -1      3420 1.86205E-03-2.79889E-04-2.36292E-15
 -1      3421 2.00630E-03-2.87147E-04-2.69618E-15
 -1      3422 1.08333E-02-1.13413E-03-5.11378E-14
 -1      3423 8.35565E-03-3.68658E-05-3.79373E-14
 -1      3424 8.41646E-03-2.38951E-05-3.81228E-14
 -1      3425 2.15062E-03-2.93112E-04-3.05055E-15
 -1      3426 2.29499E-03-2.97904E-04-3.42551E-15
 -1      3427 2.07326E-03-2.54411E-04-2.85889E-15
 -1      3428 2.43936E-03-3.01716E-04-3.82097E-15
 -1      3429 2.58368E-03-3.04642E-04-4.23706E-15
 -1      3430 2.36252E-03-2.63179E-04-3.60404E-15
 -1      3431 2.72796E-03-3.06843E-04-4.67256E-15
 -1      3432 2.87216E-03-3.08388E-04-5.12825E-15
 -1      3433 2.65179E-03-2.68562E-04-4.43014E-15
 -1      3434 3.01627E-03-3.09402E-04-5.60416E-15
 -1      3435 3.16029E-03-3.09936E-04-6.10006E-15
 -1      3436 2.94083E-03-2.71425E-04-5.33591E-15
 -1      3437 3.30422E-03-3.10080E-04-6.61538E-15
 -1      3438 3.44805E-03-3.09869E-04-7.14949E-15
 -1      3439 3.22948E-03-2.72432E-04-6.32122E-15
 -1      3440 3.59178E-03-3.09367E-04-7.70286E-15
 -1      3441 3.73539E-03-3.08595E-04-8.27492E-15
 -1      3442 3.51765E-03-2.72071E-04-7.38300E-15
 -1      3443 3.87891E-03-3.07597E-04-8.86564E-15
 -1      3444 4.02232E-03-3.06380E-04-9.47332E-15
 -1      3445 3.80530E-03-2.70679E-04-8.52039E-15
 -1      3446 4.16562E-03-3.04973E-04-1.00985E-14
 -1      3447 4.30880E-03-3.03374E-04-1.07417E-14
 -1      3448 4.09241E-03-2.68469E-04-9.73029E-15
 -1      3449 4.45187E-03-3.01601E-04-1.14017E-14
 -1      3450 4.59482E-03-2.99646E-04-1.20779E-14
 -1      3451 4.37893E-03-2.65559E-04-1.10094E-14
 -1      3452 4.73763E-03-2.97517E-04-1.27713E-14
 -1      3453 4.88031E-03-2.95202E-04-1.34817E-14
 -1      3454 4.66480E-03-2.61997E-04-1.23565E-14
 -1      3455 5.02283E-03-2.92707E-04-1.42086E-14
 -1      3456 5.16520E-03-2.90018E-04-1.49524E-14
 -1      3457 4.94995E-03-2.57780E-04-1.37705E-14
 -1      3458 5.30738E-03-2.87140E-04-1.57131E-14
 -1      3459 5.44937E-03-2.84059E-04-1.64908E-14
 -1      3460 5.23425E-03-2.52885E-04-1.52528E-14
 -1      3461 5.59113E-03-2.80788E-04-1.72838E-14
 -1      3462 5.73266E-03-2.77313E-04-1.80936E-14
 -1      3463 5.51754E-03-2.47284E-04-1.68015E-14
 -1      3464 5.87391E-03-2.73662E-04-1.89195E-14
 -1      3465 6.01488E-03-2.69823E-04-1.97602E-14
 -1      3466 5.79960E-03-2.40976E-04-1.84144E-14
 -1      3467 6.15551E-03-2.65845E-04-2.06163E-14
 -1      3468 6.29580E-03-2.61722E-04-2.14870E-14
 -1      3469 6.08016E-03-2.34016E-04-2.00901E-14
 -1      3470 6.43567E-03-2.57533E-04-2.23723E-14
 -1      3471 6.57516E-03-2.53283E-04-2.32725E-14
 -1      3472 6.35889E-03-2.26547E-04-2.18262E-14
 -1      3473 6.71416E-03-2.49085E-04-2.41854E-14
 -1      3474 6.85273E-03-2.44960E-04-2.51120E-14
 -1      3475 6.63545E-03-2.18837E-04-2.36185E-14
 -1      3476 6.99076E-03-2.41061E-04-2.60529E-14
 -1      3477 7.12836E-03-2.37436E-04-2.70064E-14
 -1      3478 6.90946E-03-2.11306E-04-2.54655E-14
 -1      3479 7.26542E-03-2.34276E-04-2.79732E-14
 -1      3480 7.40213E-03-2.31670E-04-2.89521E-14
 -1      3481 7.18065E-03-2.04556E-04-2.73653E-14
 -1      3482 7.53839E-03-2.29839E-04-2.99439E-14
 -1      3483 7.67455E-03-2.28947E-04-3.09470E-14
 -1      3484 7.44890E-03-1.99383E-04-2.93174E-14
 -1      3485 7.81055E-03-2.29221E-04-3.19613E-14
 -1      3486 7.94700E-03-2.30997E-04-3.29873E-14
 -1      3487 7.71450E-03-1.96781E-04-3.13177E-14
 -1      3488 8.08392E-03-2.34457E-04-3.40244E-14
 -1      3489 8.22239E-03-2.40345E-04-3.50726E-14
 -1      3490 7.97852E-03-1.98045E-04-3.33626E-14
 -1      3491 8.36247E-03-2.48828E-04-3.61283E-14
 -1      3492 8.50611E-03-2.61191E-04-3.71934E-14
 -1      3493 8.24363E-03-2.05174E-04-3.54488E-14
 -1      3494 1.26888E-02-4.07181E-04-6.13422E-14
 -1      3495 1.28474E-02-3.88180E-04-6.25316E-14
 -1      3496 1.29992E-02-3.77614E-04-6.37297E-14
 -1      3497 1.31464E-02-3.71351E-04-6.49300E-14
 -1      3498 1.29852E-02-3.32874E-04-6.29324E-14
 -1      3499 1.32898E-02-3.69384E-04-6.61344E-14
 -1      3500 1.34312E-02-3.69790E-04-6.73411E-14
 -1      3501 1.32652E-02-3.29294E-04-6.53298E-14
 -1      3502 1.35708E-02-3.72402E-04-6.85510E-14
 -1      3503 1.37098E-02-3.76373E-04-6.97670E-14
 -1      3504 1.35371E-02-3.35372E-04-6.77423E-14
 -1      3505 2.52945E-03 3.39706E-04-3.31968E-15
 -1      3506 2.38544E-03 3.36147E-04-2.96977E-15
 -1      3507 1.95329E-03 3.18855E-04-2.03774E-15
 -1      3508 1.80929E-03 3.10344E-04-1.76617E-15
 -1      3509 3.96565E-03 3.43964E-04-7.90276E-15
 -1      3510 3.82237E-03 3.45104E-04-7.35755E-15
 -1      3511 4.82375E-03 3.32938E-04-1.15522E-14
 -1      3512 4.68094E-03 3.35254E-04-1.08999E-14
 -1      3513 5.10911E-03 3.27721E-04-1.29091E-14
 -1      3514 4.96648E-03 3.30431E-04-1.22218E-14
 -1      3515 4.89349E-03 2.95278E-04-1.20055E-14
 -1      3516 5.39405E-03 3.21689E-04-1.43345E-14
 -1      3517 5.25163E-03 3.24811E-04-1.36134E-14
 -1      3518 5.17838E-03 2.90236E-04-1.33854E-14
 -1      3519 5.67852E-03 3.14826E-04-1.58248E-14
 -1      3520 5.53635E-03 3.18364E-04-1.50716E-14
 -1      3521 5.46259E-03 2.84418E-04-1.48324E-14
 -1      3522 5.96245E-03 3.07162E-04-1.73805E-14
 -1      3523 5.82055E-03 3.11093E-04-1.65949E-14
 -1      3524 5.74600E-03 2.77807E-04-1.63444E-14
 -1      3525 6.24578E-03 2.98823E-04-1.89940E-14
 -1      3526 6.10418E-03 3.03069E-04-1.81798E-14
 -1      3527 6.02848E-03 2.70436E-04-1.79203E-14
 -1      3528 6.52851E-03 2.90075E-04-2.06642E-14
 -1      3529 6.38721E-03 2.94483E-04-1.98225E-14
 -1      3530 6.30993E-03 2.62422E-04-1.95536E-14
 -1      3531 6.81070E-03 2.81387E-04-2.23913E-14
 -1      3532 6.66964E-03 2.85693E-04-2.15207E-14
 -1      3533 6.59024E-03 2.54011E-04-2.12431E-14
 -1      3534 7.09264E-03 2.73492E-04-2.41720E-14
 -1      3535 6.95166E-03 2.77288E-04-2.32742E-14
 -1      3536 6.86947E-03 2.45624E-04-2.29873E-14
 -1      3537 7.37493E-03 2.67475E-04-2.60050E-14
 -1      3538 7.23367E-03 2.70165E-04-2.50828E-14
 -1      3539 7.14781E-03 2.37906E-04-2.47876E-14
 -1      3540 7.65872E-03 2.64883E-04-2.78838E-14
 -1      3541 7.51651E-03 2.65618E-04-2.69381E-14
 -1      3542 7.42588E-03 2.31797E-04-2.66388E-14
 -1      3543 7.94603E-03 2.67914E-04-2.98032E-14
 -1      3544 7.80174E-03 2.65482E-04-2.88389E-14
 -1      3545 7.70487E-03 2.28632E-04-2.85348E-14
 -1      3546 8.24012E-03 2.79748E-04-3.17641E-14
 -1      3547 8.09194E-03 2.72379E-04-3.07779E-14
 -1      3548 7.98701E-03 2.30362E-04-3.04711E-14
 -1      3549 8.54584E-03 3.05187E-04-3.37683E-14
 -1      3550 8.39117E-03 2.90185E-04-3.27623E-14
 -1      3551 8.27601E-03 2.39996E-04-3.24496E-14
 -1      3552 8.86955E-03 3.51707E-04-3.58172E-14
 -1      3553 8.70517E-03 3.24906E-04-3.47869E-14
 -1      3554 8.57769E-03 2.62626E-04-3.44709E-14
 -1      3555 9.42676E-03 4.78603E-04-3.92311E-14
 -1      3556 1.28747E-02 3.76601E-05-5.94112E-14
 -1      3557 1.29952E-02-1.49820E-05-5.99314E-14
 -1      3558 1.31784E-02 1.79496E-04-6.31456E-14
 -1      3559 1.30261E-02 1.99168E-04-6.19441E-14
 -1      3560 1.34750E-02 1.48739E-04-6.55576E-14
 -1      3561 1.33278E-02 1.63116E-04-6.43491E-14
 -1      3562 1.33012E-02 1.28373E-04-6.39574E-14
 -1      3563 1.37645E-02 1.24293E-04-6.79894E-14
 -1      3564 1.36204E-02 1.36047E-04-6.67711E-14
 -1      3565 1.35897E-02 1.04081E-04-6.63754E-14
 -1      3566 1.41141E-02-7.12968E-05-7.06277E-14
 -1      3567 1.29036E-02-2.75344E-04-6.11373E-14
 -1      3568 1.27563E-02-3.29531E-04-6.07687E-14
 -1      3569 1.20453E-02 4.10131E-04-5.49638E-14
 -1      3570 1.06461E-03-2.16016E-04-8.95402E-16
 -1      3571 8.32204E-03-6.61469E-05-3.76817E-14
 -1      3572 8.31896E-03-5.09071E-05-3.77418E-14
 -1      3573 1.40699E-02-1.97123E-04-7.06413E-14
 -1      3574 1.40664E-02-1.69327E-04-7.04057E-14
 -1      3575 2.81727E-03 3.44418E-04-4.07923E-15
 -1      3576 2.67339E-03 3.42436E-04-3.68955E-15
 -1      3577 2.59679E-03 3.03992E-04-3.57115E-15
 -1      3578 1.28785E-03-2.34105E-04-1.24239E-15
 -1      3579 1.43076E-03-2.48415E-04-1.49020E-15
 -1      3580 1.28701E-02 2.22429E-04-6.07469E-14
 -1      3581 1.27096E-02 2.51162E-04-5.95543E-14
 -1      3582 1.30032E-02 1.61357E-04-6.15571E-14
 -1      3583 1.32197E-02-1.37478E-04-6.09344E-14
 -1      3584 1.31995E-02-1.47500E-04-6.08966E-14
 -1      3585 1.25613E-02 2.54600E-04-5.83577E-14
 -1      3586 1.23903E-02 2.96409E-04-5.71712E-14
 -1      3587 8.65544E-03-2.44783E-04-3.85583E-14
 -1      3588 3.67901E-03 3.46004E-04-6.83093E-15
 -1      3589 3.53558E-03 3.46651E-04-6.32331E-15
 -1      3590 3.74861E-03 3.08154E-04-7.18926E-15
 -1      3591 1.01550E-03-3.89550E-05-8.17936E-16
 -1      3592 1.01658E-03-6.58085E-05-8.27572E-16
 -1      3593 1.13812E-03-8.60167E-05-1.00569E-15
 -1      3594 2.24140E-03 3.31577E-04-2.63949E-15
 -1      3595 2.09734E-03 3.25889E-04-2.32876E-15
 -1      3596 2.01931E-03 2.86719E-04-2.23415E-15
 -1      3597 2.30805E-03 2.97323E-04-2.86343E-15
 -1      3598 4.53804E-03 3.37377E-04-1.02647E-14
 -1      3599 4.39506E-03 3.39314E-04-9.64672E-15
 -1      3600 4.60801E-03 2.99582E-04-1.06955E-14
 -1      3601 8.76741E-03 1.18780E-04-3.79904E-14
 -1      3602 8.91972E-03 1.75667E-04-3.84048E-14
 -1      3603 4.25200E-03 3.41059E-04-9.04727E-15
 -1      3604 4.10886E-03 3.42615E-04-8.46614E-15
 -1      3605 4.03553E-03 3.06055E-04-8.28603E-15
 -1      3606 4.32201E-03 3.03176E-04-9.45488E-15
 -1      3607 1.25948E-02-4.00733E-04-6.03744E-14
 -1      3608 1.41297E-02 5.46241E-05-7.10193E-14
 -1      3609 1.41037E-02 8.55074E-05-7.08663E-14
 -1      3610 1.40068E-02 9.86489E-05-7.00444E-14
 -1      3611 1.40280E-02 4.46013E-05-7.00738E-14
 -1      3612 1.57416E-03-2.60701E-04-1.75948E-15
 -1      3613 1.71799E-03-2.71122E-04-2.05058E-15
 -1      3614 1.49692E-03-2.22390E-04-1.61737E-15
 -1      3615 1.22295E-02 3.48152E-04-5.61434E-14
 -1      3616 8.51417E-03-1.90888E-04-3.78609E-14
 -1      3617 1.27939E-03 2.42948E-04-9.60007E-16
 -1      3618 1.27330E-03 2.08751E-04-9.93942E-16
 -1      3619 1.78449E-03-2.41208E-04-2.19639E-15
 -1      3620 1.34488E-03 2.92937E-04-9.89213E-16
 -1      3621 1.30254E-03 2.64053E-04-9.66363E-16
 -1      3622 1.42275E-03 2.59338E-04-1.16099E-15
 -1      3623 1.46994E-03 3.03118E-04-1.17243E-15
 -1      3624 9.01736E-03 2.37066E-04-3.83949E-14
 -1      3625 1.40666E-02-2.25589E-04-7.08818E-14
 -1      3626 1.39613E-02-2.05477E-04-6.97043E-14
 -1      3627 1.40567E-02-2.55088E-04-7.11212E-14
 -1      3628 8.29573E-03-3.94766E-05-3.72360E-14
 -1      3629 8.44028E-03-3.35734E-06-3.77105E-14
 -1      3630 1.31931E-02-1.05799E-04-6.07011E-14
 -1      3631 1.32217E-02-1.21360E-04-6.09017E-14
 -1      3632 1.38081E-02-3.86074E-04-7.07181E-14
 -1      3633 1.39274E-02-3.92671E-04-7.18000E-14
 -1      3634 1.39623E-02-3.71011E-04-7.18074E-14
 -1      3635 1.37679E-02-3.50616E-04-6.99031E-14
 -1      3636 1.73095E-03 2.70954E-04-1.68264E-15
 -1      3637 1.66544E-03 3.00088E-04-1.51429E-15
 -1      3638 8.39143E-03-1.65246E-04-3.70462E-14
 -1      3639 1.18417E-03-2.15527E-04-1.07762E-15
 -1      3640 9.28762E-03 3.76716E-04-3.90734E-14
 -1      3641 9.23361E-03 4.25759E-04-3.80793E-14
 -1      3642 9.05597E-03 3.80616E-04-3.70286E-14
 -1      3643 8.91386E-03 3.01223E-04-3.67046E-14
 -1      3644 1.28063E-02 8.37679E-05-5.92546E-14
 -1      3645 1.29607E-02 5.33723E-05-6.03847E-14
 -1      3646 1.27408E-02 1.33832E-04-5.90976E-14
 -1      3647 1.32773E-02-1.32840E-04-6.17119E-14
 -1      3648 1.32103E-02-1.64386E-04-6.15072E-14
 -1      3649 8.59567E-03 6.45044E-05-3.74925E-14
 -1      3650 8.67901E-03 8.88073E-05-3.77415E-14
 -1      3651 8.71282E-03 1.34458E-04-3.72440E-14
 -1      3652 1.25776E-03 4.78656E-05-1.12303E-15
 -1      3653 1.25702E-03 1.67900E-05-1.14244E-15
 -1      3654 1.39094E-02 1.11924E-04-6.92230E-14
 -1      3655 1.30459E-02-2.32839E-04-6.16149E-14
 -1      3656 1.29887E-02-2.90056E-04-6.22169E-14
 -1      3657 1.31225E-02-2.89106E-04-6.34115E-14
 -1      3658 1.31296E-02-2.14818E-04-6.19832E-14
 -1      3659 1.40558E-02-1.41020E-04-7.01651E-14
 -1      3660 1.40385E-02-1.11807E-04-6.99254E-14
 -1      3661 1.39545E-02-1.49761E-04-6.92251E-14
 -1      3662 8.31085E-03-8.12947E-05-3.73119E-14
 -1      3663 8.24287E-03-6.73812E-05-3.66723E-14
 -1      3664 8.30235E-03-1.00628E-04-3.69392E-14
 -1      3665 2.96109E-03 3.45794E-04-4.48872E-15
 -1      3666 2.88530E-03 3.07732E-04-4.35786E-15
 -1      3667 3.10482E-03 3.46623E-04-4.91818E-15
 -1      3668 1.25036E-03-1.93840E-04-1.18770E-15
 -1      3669 1.53997E-03 2.93382E-04-1.30469E-15
 -1      3670 1.25920E-03 7.90913E-05-1.10174E-15
 -1      3671 1.38095E-03 6.71778E-05-1.30627E-15
 -1      3672 1.26139E-03 1.10652E-04-1.07858E-15
 -1      3673 1.38751E-02 8.23994E-05-6.88236E-14
 -1      3674 1.24242E-03-1.29083E-04-1.17448E-15
 -1      3675 1.24589E-03-1.61124E-04-1.18215E-15
 -1      3676 1.34902E-03-1.76222E-04-1.35418E-15
 -1      3677 3.39207E-03 3.46994E-04-5.83562E-15
 -1      3678 3.24849E-03 3.47010E-04-5.36756E-15
 -1      3679 3.46125E-03 3.09329E-04-6.16807E-15
 -1      3680 1.40147E-02-8.15173E-05-6.96861E-14
 -1      3681 1.39854E-02-4.95211E-05-6.94445E-14
 -1      3682 1.39172E-02-9.17788E-05-6.87456E-14
 -1      3683 1.39629E-02-2.16054E-05-6.92968E-14
 -1      3684 1.39379E-02 7.62575E-06-6.91480E-14
 -1      3685 1.38658E-02-3.28894E-05-6.83592E-14
 -1      3686 1.30931E-02-5.97558E-05-6.02975E-14
 -1      3687 1.31499E-02-8.51900E-05-6.04988E-14
 -1      3688 1.32414E-02-9.65022E-05-6.14775E-14
 -1      3689 1.13566E-03-2.77116E-05-9.82084E-16
 -1      3690 1.31155E-02-3.51637E-05-6.09086E-14
 -1      3691 1.39958E-02-3.50155E-04-7.18171E-14
 -1      3692 1.38965E-02-3.32431E-04-7.07379E-14
 -1      3693 1.40243E-02-3.23098E-04-7.16991E-14
 -1      3694 1.40456E-02-2.90410E-04-7.14602E-14
 -1      3695 1.38015E-02-3.21885E-04-6.97850E-14
 -1      3696 1.70775E-03-2.03419E-04-2.03433E-15
 -1      3697 1.85195E-03-2.10393E-04-2.34276E-15
 -1      3698 1.26833E-03 1.75355E-04-1.02419E-15
 -1      3699 1.26442E-03 1.42696E-04-1.05261E-15
 -1      3700 1.38567E-03 1.33936E-04-1.25263E-15
 -1      3701 2.28601E-03-2.24875E-04-3.39216E-15
 -1      3702 2.43090E-03-2.27943E-04-3.78250E-15
 -1      3703 2.57580E-03-2.30334E-04-4.19281E-15
 -1      3704 2.72066E-03-2.32110E-04-4.62292E-15
 -1      3705 2.50006E-03-1.92245E-04-3.96021E-15
 -1      3706 2.86545E-03-2.33384E-04-5.07277E-15
 -1      3707 3.01014E-03-2.34202E-04-5.54282E-15
 -1      3708 2.79020E-03-1.95342E-04-4.81478E-15
 -1      3709 3.15472E-03-2.34652E-04-6.03215E-15
 -1      3710 3.29917E-03-2.34765E-04-6.54107E-15
 -1      3711 3.08002E-03-1.96781E-04-5.74778E-15
 -1      3712 3.44348E-03-2.34607E-04-7.06847E-15
 -1      3713 3.58764E-03-2.34194E-04-7.61451E-15
 -1      3714 3.36932E-03-1.96995E-04-6.75863E-15
 -1      3715 3.73165E-03-2.33577E-04-8.18056E-15
 -1      3716 3.87549E-03-2.32760E-04-8.76416E-15
 -1      3717 3.65798E-03-1.96297E-04-7.84522E-15
 -1      3718 4.01917E-03-2.31779E-04-9.36570E-15
 -1      3719 4.16267E-03-2.30630E-04-9.98470E-15
 -1      3720 3.94593E-03-1.94895E-04-9.00545E-15
 -1      3721 4.30599E-03-2.29338E-04-1.06206E-14
 -1      3722 4.44912E-03-2.27893E-04-1.12747E-14
 -1      3723 4.23308E-03-1.92917E-04-1.02372E-14
 -1      3724 4.59204E-03-2.26311E-04-1.19455E-14
 -1      3725 4.73476E-03-2.24579E-04-1.26331E-14
 -1      3726 4.51937E-03-1.90426E-04-1.15385E-14
 -1      3727 4.87723E-03-2.22708E-04-1.33374E-14
 -1      3728 5.01947E-03-2.20682E-04-1.40587E-14
 -1      3729 4.80469E-03-1.87440E-04-1.29082E-14
 -1      3730 5.16143E-03-2.18512E-04-1.47965E-14
 -1      3731 5.30309E-03-2.16179E-04-1.55515E-14
 -1      3732 5.08888E-03-1.83953E-04-1.43444E-14
 -1      3733 5.44443E-03-2.13700E-04-1.63226E-14
 -1      3734 5.58541E-03-2.11054E-04-1.71101E-14
 -1      3735 5.37175E-03-1.79946E-04-1.58479E-14
 -1      3736 5.72599E-03-2.08266E-04-1.79147E-14
 -1      3737 5.86614E-03-2.05316E-04-1.87332E-14
 -1      3738 5.65303E-03-1.75412E-04-1.74181E-14
 -1      3739 6.00580E-03-2.02246E-04-1.95687E-14
 -1      3740 6.14494E-03-1.99032E-04-2.04186E-14
 -1      3741 5.93236E-03-1.70375E-04-1.90509E-14
 -1      3742 6.28348E-03-1.95742E-04-2.12824E-14
 -1      3743 6.42139E-03-1.92351E-04-2.21614E-14
 -1      3744 6.20934E-03-1.64910E-04-2.07440E-14
 -1      3745 6.55858E-03-1.88954E-04-2.30553E-14
 -1      3746 6.69504E-03-1.85527E-04-2.39622E-14
 -1      3747 6.48346E-03-1.59166E-04-2.24952E-14
 -1      3748 6.83064E-03-1.82198E-04-2.48830E-14
 -1      3749 6.96538E-03-1.78942E-04-2.58161E-14
 -1      3750 6.75415E-03-1.53383E-04-2.43036E-14
 -1      3751 7.09914E-03-1.75919E-04-2.67627E-14
 -1      3752 7.23196E-03-1.73104E-04-2.77227E-14
 -1      3753 7.02076E-03-1.47892E-04-2.61646E-14
 -1      3754 7.36366E-03-1.70686E-04-2.86962E-14
 -1      3755 7.49438E-03-1.68636E-04-2.96813E-14
 -1      3756 7.28258E-03-1.43100E-04-2.80782E-14
 -1      3757 7.62391E-03-1.67159E-04-3.06768E-14
 -1      3758 7.75257E-03-1.66234E-04-3.16858E-14
 -1      3759 7.53892E-03-1.39453E-04-3.00417E-14
 -1      3760 7.88005E-03-1.66084E-04-3.27045E-14
 -1      3761 8.00701E-03-1.66775E-04-3.37350E-14
 -1      3762 7.78910E-03-1.37326E-04-3.20509E-14
 -1      3763 8.13297E-03-1.68524E-04-3.47753E-14
 -1      3764 8.25925E-03-1.71648E-04-3.58235E-14
 -1      3765 8.03269E-03-1.37237E-04-3.41043E-14
 -1      3766 1.39402E-03 2.02682E-04-1.18906E-15
 -1      3767 1.25698E-03-1.41549E-05-1.15973E-15
 -1      3768 1.25762E-03-4.51528E-05-1.17552E-15
 -1      3769 1.37937E-03 1.42949E-06-1.35044E-15
 -1      3770 1.32532E-02-2.91447E-04-6.46097E-14
 -1      3771 1.33838E-02-2.95360E-04-6.58114E-14
 -1      3772 1.32454E-02-2.54597E-04-6.38911E-14
 -1      3773 1.35136E-02-3.00587E-04-6.70188E-14
 -1      3774 1.36442E-02-3.06630E-04-6.82275E-14
 -1      3775 1.34918E-02-2.66992E-04-6.62942E-14
 -1      3776 8.27706E-03-1.29721E-04-3.63582E-14
 -1      3777 8.23103E-03-4.00622E-05-3.64794E-14
 -1      3778 8.27805E-03-2.40739E-05-3.66736E-14
 -1      3779 1.24844E-03-7.14166E-05-1.17080E-15
 -1      3780 1.25040E-03-1.02660E-04-1.18265E-15
 -1      3781 1.35289E-03-1.14751E-04-1.35422E-15
 -1      3782 1.37020E-03-5.92267E-05-1.36591E-15
 -1      3783 4.96308E-03 2.57884E-04-1.24628E-14
 -1      3784 4.82061E-03 2.60013E-04-1.17871E-14
 -1      3785 5.81297E-03 2.41362E-04-1.68676E-14
 -1      3786 5.67200E-03 2.44584E-04-1.60923E-14
 -1      3787 6.09387E-03 2.34400E-04-1.84632E-14
 -1      3788 5.95359E-03 2.37973E-04-1.76583E-14
 -1      3789 5.87949E-03 2.05539E-04-1.73937E-14
 -1      3790 6.37326E-03 2.26825E-04-2.01160E-14
 -1      3791 6.23375E-03 2.30687E-04-1.92822E-14
 -1      3792 6.15868E-03 1.99099E-04-1.90097E-14
 -1      3793 6.65099E-03 2.18852E-04-2.18243E-14
 -1      3794 6.51233E-03 2.22881E-04-2.09630E-14
 -1      3795 6.43590E-03 1.92075E-04-2.06819E-14
 -1      3796 6.92701E-03 2.10835E-04-2.35878E-14
 -1      3797 6.78920E-03 2.14832E-04-2.26994E-14
 -1      3798 6.71088E-03 1.84634E-04-2.24093E-14
 -1      3799 7.20146E-03 2.03308E-04-2.54071E-14
 -1      3800 7.06438E-03 2.06978E-04-2.44908E-14
 -1      3801 6.98347E-03 1.77048E-04-2.41924E-14
 -1      3802 7.47485E-03 1.97031E-04-2.72758E-14
 -1      3803 7.33819E-03 1.99957E-04-2.63354E-14
 -1      3804 7.25370E-03 1.69711E-04-2.60296E-14
 -1      3805 7.74835E-03 1.93087E-04-2.91899E-14
 -1      3806 7.61142E-03 1.94666E-04-2.82274E-14
 -1      3807 7.52194E-03 1.63166E-04-2.79178E-14
 -1      3808 8.02421E-03 1.93126E-04-3.11429E-14
 -1      3809 7.88571E-03 1.92417E-04-3.01613E-14
 -1      3810 7.78916E-03 1.58183E-04-2.98481E-14
 -1      3811 8.30639E-03 1.99905E-04-3.31376E-14
 -1      3812 8.16404E-03 1.95281E-04-3.21348E-14
 -1      3813 8.05746E-03 1.56018E-04-3.18178E-14
 -1      3814 8.60153E-03 2.18721E-04-3.51739E-14
 -1      3815 8.45165E-03 2.07072E-04-3.41497E-14
 -1      3816 8.33080E-03 1.59038E-04-3.38271E-14
 -1      3817 1.37011E-02 6.28078E-05-6.71972E-14
 -1      3818 1.35613E-02 7.20237E-05-6.59826E-14
 -1      3819 1.33507E-02-1.30501E-04-6.26646E-14
 -1      3820 1.33420E-02-1.48070E-04-6.26969E-14
 -1      3821 1.34207E-02 8.19057E-05-6.47711E-14
 -1      3822 1.32784E-02 9.31823E-05-6.35660E-14
 -1      3823 1.35351E-02 3.99203E-05-6.55882E-14
 -1      3824 1.45628E-03-1.86024E-04-1.54436E-15
 -1      3825 1.59962E-03-1.95228E-04-1.81605E-15
 -1      3826 1.66764E-03-1.66295E-04-1.94858E-15
 -1      3827 1.45218E-03-1.50988E-04-1.53463E-15
 -1      3828 1.27099E-02 1.80046E-04-5.91635E-14
 -1      3829 1.79751E-03 2.40913E-04-1.85685E-15
 -1      3830 1.65346E-03 2.32450E-04-1.59668E-15
 -1      3831 2.66493E-03 2.67877E-04-3.82806E-15
 -1      3832 2.52029E-03 2.65572E-04-3.45051E-15
 -1      3833 1.38872E-02 5.46541E-05-6.88384E-14
 -1      3834 8.35459E-03-1.98660E-06-3.68676E-14
 -1      3835 8.45736E-03 2.36022E-05-3.71453E-14
 -1      3836 1.32880E-02-1.67847E-04-6.24350E-14
 -1      3837 1.32228E-02-1.85484E-04-6.21977E-14
 -1      3838 3.81849E-03 2.70262E-04-7.55200E-15
 -1      3839 3.67473E-03 2.71019E-04-7.01861E-15
 -1      3840 5.53075E-03 2.47608E-04-1.53333E-14
 -1      3841 5.38920E-03 2.50456E-04-1.45913E-14
 -1      3842 5.59856E-03 2.11310E-04-1.58388E-14
 -1      3843 5.24740E-03 2.53110E-04-1.38657E-14
 -1      3844 5.10535E-03 2.55589E-04-1.31558E-14
 -1      3845 5.03254E-03 2.20806E-04-1.29248E-14
 -1      3846 4.67795E-03 2.61969E-04-1.11298E-14
 -1      3847 4.53510E-03 2.63767E-04-1.04894E-14
 -1      3848 4.74784E-03 2.24588E-04-1.15681E-14
 -1      3849 1.99645E-03-2.16216E-04-2.67221E-15
 -1      3850 2.14117E-03-2.20993E-04-3.02200E-15
 -1      3851 1.92029E-03-1.78677E-04-2.49028E-15
 -1      3852 1.31711E-02-1.44041E-05-6.17360E-14
 -1      3853 1.32511E-02-5.56664E-05-6.21038E-14
 -1      3854 1.32983E-02-8.70242E-05-6.22825E-14
 -1      3855 1.33315E-02-1.07546E-04-6.24828E-14
 -1      3856 1.34168E-02-1.23653E-04-6.34704E-14
 -1      3857 1.33579E-02-6.98705E-05-6.31120E-14
 -1      3858 1.28726E-02 1.40196E-04-6.02951E-14
 -1      3859 2.20992E-03-1.86924E-04-3.18503E-15
 -1      3860 1.39431E-02-2.68639E-04-7.02820E-14
 -1      3861 1.29624E-02 1.29119E-04-6.10033E-14
 -1      3862 1.29879E-02 8.78995E-05-6.09368E-14
 -1      3863 1.30434E-02 4.63761E-05-6.10929E-14
 -1      3864 1.31110E-02 1.12128E-04-6.22006E-14
 -1      3865 8.27029E-03-4.07351E-06-3.61161E-14
 -1      3866 1.50275E-03 1.87231E-05-1.55326E-15
 -1      3867 1.50270E-03-1.57139E-05-1.57574E-15
 -1      3868 9.17510E-03 3.28765E-04-3.86139E-14
 -1      3869 1.31982E-02 1.66719E-05-6.22902E-14
 -1      3870 1.37694E-02-2.89806E-04-6.90557E-14
 -1      3871 8.19275E-03-5.22185E-05-3.61157E-14
 -1      3872 8.15379E-03-3.75727E-05-3.55610E-14
 -1      3873 8.16235E-03-6.61591E-05-3.57496E-14
 -1      3874 1.38522E-02-2.13256E-04-6.87704E-14
 -1      3875 1.38578E-02-1.85461E-04-6.85309E-14
 -1      3876 8.77774E-03 2.25313E-04-3.64919E-14
 -1      3877 8.63454E-03 1.62480E-04-3.61614E-14
 -1      3878 8.95141E-03 2.45027E-04-3.77087E-14
 -1      3879 1.33763E-02-1.66392E-04-6.33893E-14
 -1      3880 8.48439E-03 5.83815E-05-3.66533E-14
 -1      3881 2.08634E-03 2.53895E-04-2.43578E-15
 -1      3882 1.94182E-03 2.48023E-04-2.13668E-15
 -1      3883 1.86499E-03 2.09971E-04-2.03743E-15
 -1      3884 3.96211E-03 2.69314E-04-8.10353E-15
 -1      3885 3.88864E-03 2.32386E-04-7.91851E-15
 -1      3886 4.10559E-03 2.68176E-04-8.67275E-15
 -1      3887 4.46222E-03 2.27775E-04-1.02815E-14
 -1      3888 4.39209E-03 2.65397E-04-9.86597E-15
 -1      3889 4.24891E-03 2.66872E-04-9.26047E-15
 -1      3890 1.32375E-02 6.24568E-05-6.30112E-14
 -1      3891 1.32256E-02-2.15446E-04-6.29112E-14
 -1      3892 8.18911E-03-1.08897E-04-3.57268E-14
 -1      3893 3.17347E-03 3.09321E-04-5.22367E-15
 -1      3894 1.37877E-02 4.33325E-05-6.79021E-14
 -1      3895 3.53083E-03 2.71545E-04-6.50445E-15
 -1      3896 3.38681E-03 2.71830E-04-6.01025E-15
 -1      3897 3.60080E-03 2.33705E-04-6.84637E-15
 -1      3898 2.80950E-03 2.69586E-04-4.22512E-15
 -1      3899 2.73379E-03 2.31419E-04-4.09022E-15
 -1      3900 2.95399E-03 2.70754E-04-4.64190E-15
 -1      3901 1.38223E-02-1.02487E-04-6.78118E-14
 -1      3902 1.37944E-02-7.20220E-05-6.75729E-14
 -1      3903 1.37713E-02-4.50462E-05-6.74260E-14
 -1      3904 1.37450E-02-1.62257E-05-6.72774E-14
 -1      3905 1.36800E-02-5.72696E-05-6.64956E-14
 -1      3906 1.50522E-03 8.78969E-05-1.50096E-15
 -1      3907 1.50359E-03 5.32214E-05-1.52830E-15
 -1      3908 1.62702E-03 3.74832E-05-1.76774E-15
 -1      3909 5.31617E-03 2.16392E-04-1.43487E-14
 -1      3910 2.37562E-03 2.62539E-04-3.09278E-15
 -1      3911 2.23095E-03 2.58699E-04-2.75450E-15
 -1      3912 2.15425E-03 2.20406E-04-2.64372E-15
 -1      3913 2.44401E-03 2.27270E-04-3.32784E-15
 -1      3914 1.37552E-02-1.66508E-04-6.73603E-14
 -1      3915 1.38545E-02-1.58524E-04-6.82897E-14
 -1      3916 1.38426E-02-1.30898E-04-6.80510E-14
 -1      3917 1.33378E-02-2.22717E-04-6.41085E-14
 -1      3918 5.38479E-03 1.80132E-04-1.48359E-14
 -1      3919 5.24352E-03 1.82189E-04-1.41052E-14
 -1      3920 2.71521E-03-1.57379E-04-4.56108E-15
 -1      3921 2.86040E-03-1.58277E-04-5.00484E-15
 -1      3922 3.00549E-03-1.58871E-04-5.46897E-15
 -1      3923 3.15045E-03-1.59182E-04-5.95200E-15
 -1      3924 2.93119E-03-1.20974E-04-5.19429E-15
 -1      3925 3.29527E-03-1.59271E-04-6.45373E-15
 -1      3926 3.43992E-03-1.59147E-04-6.97481E-15
 -1      3927 3.22138E-03-1.21465E-04-6.15395E-15
 -1      3928 3.58439E-03-1.58857E-04-7.51486E-15
 -1      3929 3.72867E-03-1.58404E-04-8.07371E-15
 -1      3930 3.51092E-03-1.21276E-04-7.18994E-15
 -1      3931 3.87275E-03-1.57824E-04-8.65037E-15
 -1      3932 4.01661E-03-1.57111E-04-9.24506E-15
 -1      3933 3.79967E-03-1.20570E-04-8.30016E-15
 -1      3934 4.16025E-03-1.56293E-04-9.85828E-15
 -1      3935 4.30366E-03-1.55359E-04-1.04884E-14
 -1      3936 4.08752E-03-1.19459E-04-9.48365E-15
 -1      3937 4.44682E-03-1.54330E-04-1.11355E-14
 -1      3938 4.58971E-03-1.53191E-04-1.18009E-14
 -1      3939 4.37439E-03-1.18003E-04-1.07382E-14
 -1      3940 4.73233E-03-1.51959E-04-1.24824E-14
 -1      3941 4.87464E-03-1.50617E-04-1.31813E-14
 -1      3942 4.66014E-03-1.16230E-04-1.20616E-14
 -1      3943 5.01663E-03-1.49181E-04-1.38975E-14
 -1      3944 5.15826E-03-1.47631E-04-1.46296E-14
 -1      3945 4.94463E-03-1.14147E-04-1.34531E-14
 -1      3946 5.29951E-03-1.45986E-04-1.53778E-14
 -1      3947 5.44033E-03-1.44222E-04-1.61431E-14
 -1      3948 5.22764E-03-1.11751E-04-1.49119E-14
 -1      3949 5.58068E-03-1.42368E-04-1.69254E-14
 -1      3950 5.72053E-03-1.40395E-04-1.77232E-14
 -1      3951 5.50889E-03-1.09039E-04-1.64371E-14
 -1      3952 5.85980E-03-1.38344E-04-1.85366E-14
 -1      3953 5.99846E-03-1.36185E-04-1.93657E-14
 -1      3954 5.78802E-03-1.06029E-04-1.80262E-14
 -1      3955 6.13642E-03-1.33973E-04-2.02093E-14
 -1      3956 6.27363E-03-1.31675E-04-2.10666E-14
 -1      3957 6.06456E-03-1.02766E-04-1.96772E-14
 -1      3958 6.40999E-03-1.29369E-04-2.19396E-14
 -1      3959 6.54545E-03-1.27012E-04-2.28271E-14
 -1      3960 6.33797E-03-9.93388E-05-2.13879E-14
 -1      3961 6.67988E-03-1.24714E-04-2.37278E-14
 -1      3962 6.81323E-03-1.22418E-04-2.46418E-14
 -1      3963 6.60758E-03-9.58926E-05-2.31558E-14
 -1      3964 6.94534E-03-1.20265E-04-2.55702E-14
 -1      3965 7.07616E-03-1.18176E-04-2.65106E-14
 -1      3966 6.87257E-03-9.26283E-05-2.49784E-14
 -1      3967 7.20549E-03-1.16331E-04-2.74637E-14
 -1      3968 7.33329E-03-1.14607E-04-2.84302E-14
 -1      3969 7.13197E-03-8.97904E-05-2.68535E-14
 -1      3970 7.45929E-03-1.13227E-04-2.94099E-14
 -1      3971 7.58351E-03-1.12009E-04-3.03991E-14
 -1      3972 7.38455E-03-8.76229E-05-2.87800E-14
 -1      3973 7.70552E-03-1.11183E-04-3.14011E-14
 -1      3974 7.82546E-03-1.10482E-04-3.24149E-14
 -1      3975 7.62878E-03-8.62949E-05-3.07557E-14
 -1      3976 7.94243E-03-1.10460E-04-3.34379E-14
 -1      3977 8.05708E-03-1.10442E-04-3.44711E-14
 -1      3978 7.86217E-03-8.60511E-05-3.27752E-14
 -1      3979 6.49808E-03 1.58235E-04-2.12512E-14
 -1      3980 6.36092E-03 1.61492E-04-2.03986E-14
 -1      3981 1.34197E-02-1.95717E-04-6.43702E-14
 -1      3982 1.34589E-02-2.29335E-04-6.53540E-14
 -1      3983 1.34835E-02-1.73402E-04-6.46327E-14
 -1      3984 1.55967E-03 2.22713E-04-1.44199E-15
 -1      3985 1.55458E-03 1.86066E-04-1.48065E-15
 -1      3986 1.35770E-02-2.37084E-04-6.65580E-14
 -1      3987 1.33508E-02 5.21895E-06-6.36557E-14
 -1      3988 6.22313E-03 1.64594E-04-1.95594E-14
 -1      3989 6.08470E-03 1.67578E-04-1.87342E-14
 -1      3990 6.28732E-03 1.30915E-04-2.01135E-14
 -1      3991 5.10190E-03 1.84089E-04-1.33909E-14
 -1      3992 4.95996E-03 1.85857E-04-1.26920E-14
 -1      3993 5.17121E-03 1.47774E-04-1.38597E-14
 -1      3994 5.94570E-03 1.70392E-04-1.79235E-14
 -1      3995 5.80617E-03 1.73070E-04-1.71283E-14
 -1      3996 6.01172E-03 1.35957E-04-1.84570E-14
 -1      3997 6.77020E-03 1.51431E-04-2.29995E-14
 -1      3998 6.63450E-03 1.54895E-04-2.21188E-14
 -1      3999 6.55996E-03 1.25334E-04-2.18256E-14
 -1      4000 7.03922E-03 1.44362E-04-2.48012E-14
 -1      4001 6.90509E-03 1.47934E-04-2.38937E-14
 -1      4002 6.82916E-03 1.19271E-04-2.35928E-14
 -1      4003 7.30497E-03 1.37277E-04-2.66567E-14
 -1      4004 7.17247E-03 1.40822E-04-2.57221E-14
 -1      4005 7.09447E-03 1.12807E-04-2.54131E-14
 -1      4006 7.56757E-03 1.30491E-04-2.85619E-14
 -1      4007 7.43659E-03 1.33840E-04-2.76035E-14
 -1      4008 7.35550E-03 1.06037E-04-2.72871E-14
 -1      4009 7.82764E-03 1.24444E-04-3.05097E-14
 -1      4010 7.69775E-03 1.27336E-04-2.95316E-14
 -1      4011 7.61196E-03 9.90353E-05-2.92109E-14
 -1      4012 8.08683E-03 1.20008E-04-3.24956E-14
 -1      4013 7.95704E-03 1.21911E-04-3.14974E-14
 -1      4014 7.86395E-03 9.18630E-05-3.11738E-14
 -1      4015 8.34833E-03 1.18983E-04-3.45211E-14
 -1      4016 8.21672E-03 1.18866E-04-3.35036E-14
 -1      4017 8.11221E-03 8.49877E-05-3.31763E-14
 -1      4018 1.37567E-02 1.37566E-05-6.75060E-14
 -1      4019 8.30320E-03 5.21625E-05-3.52459E-14
 -1      4020 8.42613E-03 8.94220E-05-3.55870E-14
 -1      4021 8.13580E-03-4.28792E-06-3.48659E-14
 -1      4022 8.21018E-03 1.99178E-05-3.50580E-14
 -1      4023 8.14203E-03 4.69726E-05-3.40084E-14
 -1      4024 5.66615E-03 1.75574E-04-1.63478E-14
 -1      4025 5.52567E-03 1.77937E-04-1.55841E-14
 -1      4026 5.45329E-03 1.44370E-04-1.53276E-14
 -1      4027 1.51646E-03 2.71347E-04-1.29848E-15
 -1      4028 1.61635E-03-2.90194E-05-1.79506E-15
 -1      4029 1.49286E-03-4.50067E-05-1.57432E-15
 -1      4030 1.48360E-03-7.41823E-05-1.57090E-15
 -1      4031 1.37296E-02-1.12679E-04-6.68821E-14
 -1      4032 8.10226E-03-8.43413E-05-3.50454E-14
 -1      4033 1.37903E-02-2.52776E-04-6.87181E-14
 -1      4034 4.81772E-03 1.87480E-04-1.20107E-14
 -1      4035 4.67521E-03 1.88981E-04-1.13471E-14
 -1      4036 4.88761E-03 1.50690E-04-1.24578E-14
 -1      4037 2.42471E-03-1.54412E-04-3.73228E-15
 -1      4038 2.56997E-03-1.56102E-04-4.13662E-15
 -1      4039 2.64056E-03-1.19567E-04-4.31240E-15
 -1      4040 3.24265E-03 2.71818E-04-5.53439E-15
 -1      4041 3.09838E-03 2.71485E-04-5.07801E-15
 -1      4042 3.31232E-03 2.34178E-04-5.84947E-15
 -1      4043 1.84489E-03-1.42002E-04-2.31310E-15
 -1      4044 1.98948E-03-1.46089E-04-2.63804E-15
 -1      4045 2.13439E-03-1.49480E-04-2.98279E-15
 -1      4046 2.27950E-03-1.52224E-04-3.34754E-15
 -1      4047 2.05947E-03-1.12642E-04-2.78571E-15
 -1      4048 1.49334E-03 2.49664E-04-1.29104E-15
 -1      4049 1.36622E-02 1.01652E-06-6.65750E-14
 -1      4050 1.51105E-03 1.58200E-04-1.43780E-15
 -1      4051 1.50770E-03 1.22849E-04-1.47086E-15
 -1      4052 1.35295E-02 7.32486E-06-6.53625E-14
 -1      4053 1.36949E-02-2.31303E-04-6.75515E-14
 -1      4054 1.34785E-02-3.22589E-05-6.46368E-14
 -1      4055 1.63042E-03 1.09721E-04-1.70655E-15
 -1      4056 5.73358E-03 1.40440E-04-1.68608E-14
 -1      4057 1.67681E-03 1.74343E-04-1.71838E-15
 -1      4058 8.04268E-03-6.70199E-05-3.45002E-14
 -1      4059 1.36446E-02-1.97867E-04-6.66069E-14
 -1      4060 1.35700E-02-1.18958E-04-6.52008E-14
 -1      4061 1.35427E-02-9.12280E-05-6.49614E-14
 -1      4062 1.35106E-02-6.10221E-05-6.47846E-14
 -1      4063 1.45985E-03-1.21889E-04-1.54321E-15
 -1      4064 8.55511E-03 1.35339E-04-3.59182E-14
 -1      4065 8.07408E-03-1.90714E-05-3.45096E-14
 -1      4066 7.99424E-03 1.58468E-06-3.34667E-14
 -1      4067 8.02153E-03-3.29664E-05-3.41506E-14
 -1      4068 3.02329E-03 2.33545E-04-4.93064E-15
 -1      4069 4.17580E-03 2.30382E-04-9.06359E-15
 -1      4070 4.53244E-03 1.90346E-04-1.07005E-14
 -1      4071 4.38942E-03 1.91593E-04-1.00710E-14
 -1      4072 4.60272E-03 1.53157E-04-1.11238E-14
 -1      4073 3.95905E-03 1.94555E-04-8.28962E-15
 -1      4074 3.81518E-03 1.95275E-04-7.73173E-15
 -1      4075 1.35834E-02-1.68494E-04-6.56196E-14
 -1      4076 1.82093E-03 1.80704E-04-1.98967E-15
 -1      4077 1.77737E-03 1.51951E-04-1.94045E-15
 -1      4078 1.96543E-03 1.86044E-04-2.28061E-15
 -1      4079 3.67112E-03 1.95833E-04-7.19239E-15
 -1      4080 3.52688E-03 1.96229E-04-6.67165E-15
 -1      4081 3.74177E-03 1.57985E-04-7.54353E-15
 -1      4082 1.74542E-03-1.70785E-05-2.04105E-15
 -1      4083 1.73552E-03-4.86977E-05-2.04151E-15
 -1      4084 2.80335E-03 1.94631E-04-4.35760E-15
 -1      4085 2.65829E-03 1.93319E-04-3.95319E-15
 -1      4086 2.51319E-03 1.91529E-04-3.56850E-15
 -1      4087 2.36808E-03 1.89211E-04-3.20315E-15
 -1      4088 2.58309E-03 1.55364E-04-3.81439E-15
 -1      4089 1.74635E-03 5.72178E-05-1.98210E-15
 -1      4090 1.74547E-03 2.00445E-05-2.01286E-15
 -1      4091 1.86454E-03 1.39084E-06-2.27380E-15
 -1      4092 2.34982E-03-1.16929E-04-3.50954E-15
 -1      4093 1.35803E-02-1.43538E-04-6.53796E-14
 -1      4094 1.76246E-03 1.23084E-04-1.94525E-15
 -1      4095 1.76009E-03 8.55174E-05-1.98166E-15
 -1      4096 1.87847E-03 6.85515E-05-2.24130E-15
 -1      4097 1.90685E-03 1.27142E-04-2.23481E-15
 -1      4098 1.58236E-03-1.09317E-04-1.76747E-15
 -1      4099 2.56634E-03-8.19991E-05-4.06989E-15
 -1      4100 2.71180E-03-8.26721E-05-4.48774E-15
 -1      4101 3.14774E-03-8.36277E-05-5.85919E-15
 -1      4102 3.29277E-03-8.36574E-05-6.35443E-15
 -1      4103 3.43763E-03-8.35854E-05-6.86922E-15
 -1      4104 3.58229E-03-8.34074E-05-7.40327E-15
 -1      4105 3.36458E-03-4.58142E-05-6.55389E-15
 -1      4106 3.72674E-03-8.31539E-05-7.95513E-15
 -1      4107 3.87095E-03-8.28189E-05-8.52505E-15
 -1      4108 3.65399E-03-4.55873E-05-7.61487E-15
 -1      4109 4.01493E-03-8.24245E-05-9.11440E-15
 -1      4110 4.15865E-03-8.19612E-05-9.72083E-15
 -1      4111 3.94250E-03-4.51925E-05-8.74931E-15
 -1      4112 4.30211E-03-8.14474E-05-1.03448E-14
 -1      4113 4.44528E-03-8.08718E-05-1.09863E-14
 -1      4114 4.22999E-03-4.46552E-05-9.95600E-15
 -1      4115 4.58815E-03-8.02482E-05-1.16446E-14
 -1      4116 4.73070E-03-7.95629E-05-1.23209E-14
 -1      4117 4.51633E-03-4.39955E-05-1.12329E-14
 -1      4118 4.87289E-03-7.88367E-05-1.30137E-14
 -1      4119 5.01472E-03-7.80492E-05-1.37239E-14
 -1      4120 4.80138E-03-4.32218E-05-1.25787E-14
 -1      4121 5.15614E-03-7.72181E-05-1.44509E-14
 -1      4122 5.29711E-03-7.63260E-05-1.51932E-14
 -1      4123 5.08493E-03-4.23462E-05-1.39923E-14
 -1      4124 5.43760E-03-7.53952E-05-1.59531E-14
 -1      4125 5.57756E-03-7.44045E-05-1.67289E-14
 -1      4126 5.36673E-03-4.13759E-05-1.54735E-14
 -1      4127 5.71693E-03-7.33851E-05-1.75197E-14
 -1      4128 5.85566E-03-7.23112E-05-1.83273E-14
 -1      4129 5.64642E-03-4.03311E-05-1.70177E-14
 -1      4130 5.99367E-03-7.12270E-05-1.91500E-14
 -1      4131 6.13090E-03-7.01008E-05-1.99870E-14
 -1      4132 5.92357E-03-3.92481E-05-1.86257E-14
 -1      4133 6.26726E-03-6.89941E-05-2.08399E-14
 -1      4134 6.40269E-03-6.78664E-05-2.17069E-14
 -1      4135 6.19764E-03-3.81882E-05-2.02953E-14
 -1      4136 6.53705E-03-6.68025E-05-2.25877E-14
 -1      4137 6.67027E-03-6.57473E-05-2.34821E-14
 -1      4138 6.46798E-03-3.72460E-05-2.20234E-14
 -1      4139 6.80219E-03-6.48161E-05-2.43900E-14
 -1      4140 6.93274E-03-6.39288E-05-2.53122E-14
 -1      4141 6.73380E-03-3.65552E-05-2.38063E-14
 -1      4142 7.06169E-03-6.32416E-05-2.62466E-14
 -1      4143 7.18896E-03-6.26284E-05-2.71941E-14
 -1      4144 6.99409E-03-3.62908E-05-2.56434E-14
 -1      4145 7.31424E-03-6.23058E-05-2.81551E-14
 -1      4146 7.43742E-03-6.20528E-05-2.91281E-14
 -1      4147 7.24761E-03-3.66636E-05-2.75337E-14
 -1      4148 7.55806E-03-6.21935E-05-3.01129E-14
 -1      4149 7.67595E-03-6.23112E-05-3.11084E-14
 -1      4150 7.49254E-03-3.78929E-05-2.94732E-14
 -1      4151 6.88816E-03 8.81897E-05-2.41887E-14
 -1      4152 6.75554E-03 9.08760E-05-2.32886E-14
 -1      4153 6.35152E-03 9.80832E-05-2.06703E-14
 -1      4154 6.21501E-03 1.00246E-04-1.98247E-14
 -1      4155 5.24054E-03 1.11889E-04-1.43326E-14
 -1      4156 5.09924E-03 1.13120E-04-1.36121E-14
 -1      4157 6.07772E-03 1.02258E-04-1.89942E-14
 -1      4158 5.93968E-03 1.04166E-04-1.81781E-14
 -1      4159 6.14383E-03 6.93186E-05-1.95350E-14
 -1      4160 7.14976E-03 8.24541E-05-2.60283E-14
 -1      4161 7.01955E-03 8.54115E-05-2.51022E-14
 -1      4162 6.94748E-03 5.82169E-05-2.47875E-14
 -1      4163 7.40596E-03 7.61525E-05-2.79217E-14
 -1      4164 7.27852E-03 7.94054E-05-2.69697E-14
 -1      4165 7.20541E-03 5.33477E-05-2.66490E-14
 -1      4166 7.65596E-03 6.91625E-05-2.98622E-14
 -1      4167 7.53170E-03 7.28079E-05-2.88860E-14
 -1      4168 7.45676E-03 4.76967E-05-2.85594E-14
 -1      4169 7.89902E-03 6.12109E-05-3.18407E-14
 -1      4170 7.77820E-03 6.53141E-05-3.08466E-14
 -1      4171 7.70006E-03 4.09903E-05-3.05151E-14
 -1      4172 8.02619E-03 5.18076E-05-3.29927E-14
 -1      4173 1.69023E-03-1.15018E-04-1.98097E-15
 -1      4174 5.52179E-03 1.09132E-04-1.58225E-14
 -1      4175 5.38140E-03 1.10570E-04-1.50693E-14
 -1      4176 5.30992E-03 7.64666E-05-1.48096E-14
 -1      4177 7.94308E-03 2.77441E-05-3.26565E-14
 -1      4178 1.76022E-03-8.40447E-05-2.11104E-15
 -1      4179 2.94832E-03 1.95556E-04-4.78155E-15
 -1      4180 2.87353E-03 1.57573E-04-4.63048E-15
 -1      4181 3.09317E-03 1.96123E-04-5.22492E-15
 -1      4182 2.27549E-03-7.99136E-05-3.29225E-15
 -1      4183 2.42088E-03-8.10825E-05-3.67091E-15
 -1      4184 2.49260E-03-4.47495E-05-3.83183E-15
 -1      4185 7.94107E-03-4.92082E-05-3.34598E-14
 -1      4186 4.24618E-03 1.92707E-04-9.45916E-15
 -1      4187 4.10271E-03 1.93701E-04-8.86552E-15
 -1      4188 4.02969E-03 1.56820E-04-8.66516E-15
 -1      4189 4.31670E-03 1.55199E-04-9.85910E-15
 -1      4190 5.80098E-03 1.05933E-04-1.73778E-14
 -1      4191 5.66166E-03 1.07598E-04-1.65923E-14
 -1      4192 5.86847E-03 7.20782E-05-1.78971E-14
 -1      4193 4.95755E-03 1.14245E-04-1.29086E-14
 -1      4194 4.81550E-03 1.15288E-04-1.22213E-14
 -1      4195 5.02757E-03 7.81779E-05-1.33629E-14
 -1      4196 2.23909E-03 1.90165E-04-2.88921E-15
 -1      4197 2.09414E-03 1.86534E-04-2.56102E-15
 -1      4198 2.05054E-03 1.56980E-04-2.50646E-15
 -1      4199 2.30861E-03 1.55329E-04-3.10997E-15
 -1      4200 6.62187E-03 9.33957E-05-2.24017E-14
 -1      4201 6.48715E-03 9.58189E-05-2.15282E-14
 -1      4202 6.41590E-03 6.61237E-05-2.12307E-14
 -1      4203 3.38247E-03 1.96421E-04-6.17051E-15
 -1      4204 3.23789E-03 1.96405E-04-5.68795E-15
 -1      4205 3.45304E-03 1.58603E-04-6.49588E-15
 -1      4206 2.85722E-03-8.31585E-05-4.92514E-15
 -1      4207 3.00254E-03-8.34636E-05-5.38290E-15
 -1      4208 3.07440E-03-4.57946E-05-5.56905E-15
 -1      4209 2.78363E-03-4.54731E-05-4.66169E-15
 -1      4210 1.88942E-03-7.30769E-05-2.37902E-15
 -1      4211 2.03418E-03-7.50695E-05-2.70513E-15
 -1      4212 1.98484E-03-1.92223E-05-2.55263E-15
 -1      4213 2.15406E-03-5.74423E-05-2.97550E-15
 -1      4214 2.22599E-03-2.21488E-05-3.12119E-15
 -1      4215 1.98486E-03 1.99104E-05-2.51895E-15
 -1      4216 7.83251E-03-4.83119E-05-3.24408E-14
 -1      4217 7.77397E-03-2.53242E-05-3.17797E-14
 -1      4218 6.68402E-03 6.24443E-05-2.29810E-14
 -1      4219 7.87461E-03 1.02803E-05-3.23065E-14
 -1      4220 3.81274E-03 1.20185E-04-7.89844E-15
 -1      4221 3.66848E-03 1.20536E-04-7.35275E-15
 -1      4222 4.74359E-03 7.96115E-05-1.19830E-14
 -1      4223 4.67310E-03 1.16233E-04-1.15510E-14
 -1      4224 4.53039E-03 1.17105E-04-1.08982E-14
 -1      4225 5.59035E-03 7.44467E-05-1.63215E-14
 -1      4226 4.10056E-03 1.19208E-04-9.04535E-15
 -1      4227 3.95677E-03 1.19747E-04-8.46338E-15
 -1      4228 3.88399E-03 8.24810E-05-8.25903E-15
 -1      4229 3.16358E-03 1.58548E-04-5.52454E-15
 -1      4230 2.94432E-03 1.20267E-04-4.90904E-15
 -1      4231 2.79905E-03 1.19670E-04-4.47782E-15
 -1      4232 2.65369E-03 1.18800E-04-4.06600E-15
 -1      4233 2.50831E-03 1.17656E-04-3.67391E-15
 -1      4234 2.72492E-03 8.18937E-05-4.32332E-15
 -1      4235 3.29183E-03-8.00444E-06-6.24366E-15
 -1      4236 3.43677E-03-7.96181E-06-6.75213E-15
 -1      4237 3.62420E-03 1.86391E-05-7.39087E-15
 -1      4238 3.76864E-03 1.86264E-05-7.93960E-15
 -1      4239 3.91283E-03 1.85836E-05-8.50717E-15
 -1      4240 4.05677E-03 1.85411E-05-9.09266E-15
 -1      4241 4.44469E-03-7.48174E-06-1.08245E-14
 -1      4242 4.58755E-03-7.38929E-06-1.14772E-14
 -1      4243 4.77208E-03 1.80627E-05-1.22840E-14
 -1      4244 4.91413E-03 1.79272E-05-1.29743E-14
 -1      4245 5.05578E-03 1.77530E-05-1.36809E-14
 -1      4246 5.19700E-03 1.75741E-05-1.44046E-14
 -1      4247 5.33774E-03 1.73478E-05-1.51446E-14
 -1      4248 5.47796E-03 1.71141E-05-1.59002E-14
 -1      4249 5.61762E-03 1.68191E-05-1.66729E-14
 -1      4250 5.75665E-03 1.65134E-05-1.74605E-14
 -1      4251 5.89500E-03 1.61273E-05-1.82638E-14
 -1      4252 6.03261E-03 1.57259E-05-1.90838E-14
 -1      4253 6.16939E-03 1.52184E-05-1.99171E-14
 -1      4254 6.30526E-03 1.46894E-05-2.07663E-14
 -1      4255 6.44014E-03 1.40193E-05-2.16293E-14
 -1      4256 6.57393E-03 1.33196E-05-2.25054E-14
 -1      4257 6.70652E-03 1.24313E-05-2.33970E-14
 -1      4258 6.83779E-03 1.15036E-05-2.43007E-14
 -1      4259 6.96761E-03 1.03218E-05-2.52182E-14
 -1      4260 7.09583E-03 9.09075E-06-2.61501E-14
 -1      4261 7.22229E-03 7.51231E-06-2.70944E-14
 -1      4262 7.34676E-03 5.88087E-06-2.80512E-14
 -1      4263 7.46907E-03 3.76683E-06-2.90186E-14
 -1      4264 7.58890E-03 1.66009E-06-2.99987E-14
 -1      4265 3.23450E-03 1.20845E-04-5.82908E-15
 -1      4266 3.08949E-03 1.20656E-04-5.35937E-15
 -1      4267 3.01566E-03 8.27649E-05-5.19252E-15
 -1      4268 3.55225E-03 5.64118E-05-7.05535E-15
 -1      4269 7.70603E-03-1.06704E-06-3.09889E-14
 -1      4270 4.38739E-03 1.17886E-04-1.02630E-14
 -1      4271 4.24411E-03 1.18593E-04-9.64504E-15
 -1      4272 4.17165E-03 8.17623E-05-9.42948E-15
 -1      4273 4.45823E-03 8.08051E-05-1.06712E-14
 -1      4274 3.48064E-03 9.42267E-05-6.72517E-15
 -1      4275 3.33587E-03 9.42863E-05-6.22034E-15
 -1      4276 2.41944E-03-7.90571E-06-3.59905E-15
 -1      4277 2.56498E-03-7.96441E-06-3.99137E-15
 -1      4278 4.20044E-03 1.84704E-05-9.69544E-15
 -1      4279 4.34383E-03 1.83993E-05-1.03167E-14
 -1      4280 3.04436E-03 1.85138E-05-5.38357E-15
 -1      4281 2.89899E-03 1.84295E-05-4.92956E-15
 -1      4282 2.16471E-03 1.25752E-04-2.80856E-15
 -1      4283 2.03566E-03 1.26749E-04-2.51374E-15
 -1      4284 2.02125E-03 9.67093E-05-2.51871E-15
 -1      4285 3.26257E-03 5.64464E-05-6.03888E-15
 -1      4286 2.00736E-03 6.68789E-05-2.52210E-15
 -1      4287 2.12722E-03 4.70487E-05-2.81608E-15
 -1      4288 4.70122E-03 5.43245E-05-1.18521E-14
 -1      4289 2.29862E-03 1.37936E-05-3.26640E-15
 -1      4290 2.40110E-03 1.21088E-04-3.39103E-15
 -1      4291 2.27176E-03 1.23015E-04-3.06695E-15
 -1      4292 2.25752E-03 9.21032E-05-3.07355E-15
 -1      4293 2.47210E-03 8.50737E-05-3.62508E-15
 -1      4294 2.75352E-03 1.82879E-05-4.49491E-15
 -1      4295 2.68129E-03 5.54876E-05-4.23687E-15
 -1      4296 3.18959E-03 1.85865E-05-5.85630E-15
 -1      4297 4.41568E-03 5.51042E-05-1.05464E-14
 -1      4298 2.23447E-03 4.33297E-05-3.07590E-15
 -1      4299 2.53580E-03 5.49736E-05-3.83471E-15
 -1      4300 4.55862E-03 5.47347E-05-1.11904E-14
 -1      4301 2.42836E-03 5.89896E-05-3.54508E-15
 -3
    1PSTEP                         2           1           1          
  100CL  101 1.000000000        4301                     0    1           1
 -4  STRESS      6    1
 -5  SXX         1    4    1    1
 -5  SYY         1    4    2    2
 -5  SZZ         1    4    3    3
 -5  SXY         1    4    1    2
 -5  SYZ         1    4    2    3
 -5  SZX         1    4    3    1
 -1         1 3.48551E+01 1.01138E+01 1.83680E+00-1.82245E+01 9.16767E-14-2.96152E-13
 -1         2-9.53100E-01-2.46995E+01-3.40723E+00-9.07723E-02-3.77932E-13-5.82173E-14
 -1         3 1.99800E+01-2.11882E-02 4.10916E-02-2.09931E-02-3.33693E-13-3.49700E-13
 -1         4 1.99785E+01-2.20323E-02 4.84771E-02 2.22274E-02 2.41478E-13-4.69499E-14
 -1         5 3.27654E+01 6.14216E+00 2.74252E+00 6.22420E+00-3.66443E-14 2.32983E-12
 -1         6 3.57498E+01 1.22627E+01 5.12557E+00-8.64651E+00-1.56278E-13 1.63020E-12
 -1         7 2.08157E+01 6.09886E+00-1.28807E-01-4.72606E+00-2.25236E-14-2.89768E-14
 -1         8 1.96693E+01 5.93420E+00 5.06939E-02-3.27586E+00-1.89918E-14-4.53633E-13
 -1         9 1.91357E+01 5.77155E+00 4.89854E-02-2.52834E+00-1.61746E-14-6.45381E-13
 -1        10 1.88958E+01 5.69224E+00 5.12789E-02-1.95285E+00-5.59448E-15-7.19817E-13
 -1        11 1.87747E+01 5.65163E+00 5.04660E-02-1.45746E+00-2.59254E-15-7.35189E-13
 -1        12 1.87120E+01 5.63017E+00 4.88622E-02-1.01628E+00 1.22732E-15-7.08600E-13
 -1        13 1.86791E+01 5.61893E+00 4.75122E-02-5.96071E-01 3.62124E-15-6.77024E-13
 -1        14 1.86654E+01 5.61419E+00 4.67926E-02-1.91447E-01 8.65359E-15-6.45131E-13
 -1        15 1.86659E+01 5.61435E+00 4.68328E-02 2.08453E-01 1.18225E-14-6.04340E-13
 -1        16 1.86807E+01 5.61942E+00 4.76464E-02 6.13903E-01 1.36905E-14-5.70609E-13
 -1        17 1.87148E+01 5.63093E+00 4.91478E-02 1.03608E+00 1.53781E-14-5.11164E-13
 -1        18 1.87788E+01 5.65269E+00 5.08762E-02 1.48047E+00 2.01445E-14-4.25538E-13
 -1        19 1.89009E+01 5.69375E+00 5.15554E-02 1.98176E+00 2.74702E-14-2.97084E-13
 -1        20 1.91412E+01 5.77413E+00 4.87658E-02 2.56534E+00 3.11209E-14-8.22966E-14
 -1        21 1.96651E+01 5.94892E+00 4.58484E-02 3.31005E+00 3.38271E-14 2.90791E-13
 -1        22 2.11986E+01 6.38065E+00 1.39582E-01 4.52373E+00 2.49800E-15 9.69070E-13
 -1        23 2.30260E+01-1.37901E+00-9.38173E-01-7.11453E-01-1.04371E-13 1.10938E-12
 -1        24 1.93616E+01-9.94662E-02-3.09846E-01 6.31355E-02-3.06144E-14 6.63893E-13
 -1        25 1.86720E+01-5.63172E-02-6.87790E-02 6.07093E-02-1.92643E-14 2.19847E-13
 -1        26 1.84683E+01-2.20831E-02-6.42386E-03 3.29349E-02-6.15317E-15-8.72791E-14
 -1        27 1.84781E+01-1.17959E-02 1.62383E-03 2.25392E-02-1.79773E-14-3.22848E-13
 -1        28 1.85906E+01-6.24146E-03 1.80977E-03 1.62221E-02-1.39008E-14-4.64913E-13
 -1        29 1.87485E+01-3.09892E-03 1.74669E-03 1.20498E-02 1.32589E-14-5.60746E-13
 -1        30 1.89209E+01-1.26591E-03 1.91659E-03 9.06356E-03-9.48016E-15-5.98910E-13
 -1        31 1.90902E+01-2.04508E-04 2.05290E-03 6.80772E-03-6.95806E-15-7.46412E-13
 -1        32 1.92471E+01 3.71716E-04 2.04458E-03 5.05118E-03-5.38122E-14-9.56332E-13
 -1        33 1.93872E+01 6.27336E-04 1.89344E-03 3.66543E-03 6.11502E-14-1.10473E-12
 -1        34 1.95098E+01 6.61857E-04 1.62995E-03 2.57143E-03-1.30246E-14-9.70325E-13
 -1        35 1.96165E+01 5.36832E-04 1.28032E-03 1.71677E-03-1.04472E-14-9.84895E-13
 -1        36 1.97106E+01 2.89562E-04 8.58997E-04 1.06614E-03-2.53616E-14-1.00996E-12
 -1        37 1.97967E+01-5.92339E-05 3.68635E-04 5.97941E-04-7.98646E-15-1.08397E-12
 -1        38 1.98807E+01-5.00461E-04-1.98391E-04 3.03780E-04-1.54847E-14-1.09532E-12
 -1        39 1.99695E+01-1.03276E-03-8.58264E-04 1.89701E-04-2.25410E-15-1.13889E-12
 -1        40 2.00716E+01-1.65863E-03-1.63367E-03 2.78650E-04-3.71909E-14-1.16937E-12
 -1        41 2.01967E+01-2.37967E-03-2.55071E-03 6.13958E-04 1.82889E-14-1.50078E-12
 -1        42 2.03562E+01-3.18957E-03-3.63335E-03 1.26362E-03-1.47267E-14-1.41800E-12
 -1        43 2.05632E+01-4.06336E-03-4.89258E-03 2.32461E-03-4.53220E-14-1.19111E-12
 -1        44 2.08325E+01-4.93998E-03-6.30516E-03 3.92488E-03 6.66060E-14-9.82514E-13
 -1        45 2.11797E+01-5.69546E-03-7.77262E-03 6.21735E-03-1.75178E-14-8.42974E-13
 -1        46 2.16199E+01-6.10362E-03-9.04642E-03 9.35267E-03 1.02251E-14-1.01572E-12
 -1        47 2.21641E+01-5.78631E-03-9.60213E-03 1.34047E-02-2.93658E-14-8.80181E-13
 -1        48 2.28130E+01-4.16899E-03-8.45856E-03 1.82014E-02 4.26490E-14-9.31385E-13
 -1        49 2.35466E+01-4.90979E-04-3.99991E-03 2.29934E-02-1.31939E-14-9.89155E-13
 -1        50 2.43078E+01 6.01413E-03 5.96808E-03 2.59071E-02-5.24660E-14-1.14191E-12
 -1        51 2.49832E+01 1.55952E-02 2.34123E-02 2.33001E-02-1.68914E-14-1.14644E-12
 -1        52 2.53881E+01 2.69793E-02 4.77550E-02 9.66648E-03 7.01945E-14-7.82233E-13
 -1        53 2.52786E+01 3.61179E-02 7.21027E-02-2.06222E-02-9.14581E-14-1.01236E-12
 -1        54 2.44232E+01 3.59973E-02 8.00792E-02-6.79650E-02 6.42548E-14-9.92123E-13
 -1        55 2.27633E+01 1.98518E-02 5.05420E-02-1.17615E-01-7.22668E-14-1.02438E-12
 -1        56 2.06100E+01-1.16693E-02-2.09438E-02-1.38057E-01 1.65069E-14-1.13490E-12
 -1        57 1.86842E+01-4.52235E-02-1.04805E-01-9.93199E-02 1.39541E-14-7.47298E-13
 -1        58 1.78154E+01-6.11696E-02-1.46631E-01-7.87155E-03 1.45084E-14-9.48606E-13
 -1        59 1.84137E+01-4.87085E-02-1.14438E-01 8.86535E-02 5.25452E-14-7.62616E-13
 -1        60 2.01607E+01-1.60697E-02-3.23177E-02 1.35651E-01-7.80165E-14-2.58210E-13
 -1        61 2.22431E+01 1.70840E-02 4.45667E-02 1.21430E-01 5.42125E-14-3.73909E-13
 -1        62 2.38951E+01 3.57735E-02 8.01981E-02 7.31696E-02 5.13110E-15-6.47555E-13
 -1        63 2.47444E+01 3.78986E-02 7.65951E-02 2.36746E-02-6.31262E-14-5.56779E-13
 -1        64 2.48051E+01 2.95442E-02 5.35345E-02-1.02821E-02-1.05532E-14-6.84730E-13
 -1        65 2.42937E+01 1.78594E-02 2.85231E-02-2.72495E-02 3.03392E-14-3.87034E-13
 -1        66 2.34616E+01 7.17416E-03 9.39385E-03-3.24808E-02 1.68887E-14-4.35268E-13
 -1        67 2.25125E+01-1.10511E-03-3.25866E-03-3.14905E-02 3.73815E-14-3.33773E-13
 -1        68 2.15897E+01-7.29920E-03-1.22235E-02-2.75525E-02-6.22608E-14-5.66295E-13
 -1        69 2.07956E+01-1.20587E-02-2.06032E-02-2.10940E-02 6.35811E-14-5.23474E-13
 -1        70 2.02226E+01-1.31524E-02-2.62864E-02-7.52978E-03 7.08249E-14-1.42278E-14
 -1        71 1.99677E+01 2.95296E-03-7.92241E-03 1.25763E-02-1.22759E-13 3.27679E-13
 -1        72 2.10384E+01-4.04847E-01-9.80325E-01-3.11467E-01 2.47441E-14 2.21585E-12
 -1        73 1.93262E+01-6.58802E-02-2.91137E-01-5.37953E-02 1.86210E-14 1.83595E-12
 -1        74 1.86815E+01-2.05030E-02-6.42691E-02-2.03173E-02 1.02585E-14 1.50404E-12
 -1        75 1.84774E+01-9.87624E-03-9.29709E-03-1.54115E-02 1.20596E-15 1.28914E-12
 -1        76 1.84871E+01-5.16595E-03 7.00034E-04-1.23312E-02-7.23792E-15 1.16989E-12
 -1        77 1.85988E+01-2.62229E-03 1.76472E-03-1.00386E-02 7.62381E-15 1.10723E-12
 -1        78 1.87557E+01-1.16433E-03 1.89244E-03-8.26793E-03 1.89897E-14 1.01578E-12
 -1        79 1.89271E+01-3.19552E-04 2.06790E-03-6.79691E-03-1.78512E-15 8.71184E-13
 -1        80 1.90955E+01 1.51387E-04 2.18003E-03-5.51683E-03-1.47992E-14 8.12178E-13
 -1        81 1.92514E+01 3.80768E-04 2.14631E-03-4.38385E-03 3.77950E-14 7.56269E-13
 -1        82 1.93909E+01 4.46995E-04 1.97105E-03-3.37853E-03-6.63742E-15 8.11683E-13
 -1        83 1.95129E+01 3.98142E-04 1.68441E-03-2.48877E-03 3.23406E-15 6.90478E-13
 -1        84 1.96191E+01 2.63807E-04 1.31253E-03-1.70439E-03 2.93155E-14 5.82492E-13
 -1        85 1.97129E+01 6.15490E-05 8.70185E-04-1.01637E-03-2.05049E-14 5.77005E-13
 -1        86 1.97988E+01-1.99077E-04 3.61104E-04-4.18129E-04 1.79185E-14 4.24640E-13
 -1        87 1.98825E+01-5.13447E-04-2.19889E-04 9.20903E-05-2.77322E-14 2.88702E-13
 -1        88 1.99711E+01-8.78925E-04-8.84091E-04 5.07927E-04-3.69493E-14 3.68219E-13
 -1        89 2.00724E+01-1.29141E-03-1.64532E-03 8.10660E-04 7.76915E-14 7.88232E-14
 -1        90 2.01956E+01-1.74069E-03-2.51447E-03 9.63737E-04-7.33705E-14-4.08107E-14
 -1        91 2.03512E+01-2.20381E-03-3.49075E-03 9.05918E-04-3.08197E-15 1.79484E-13
 -1        92 2.05504E+01-2.63542E-03-4.54684E-03 5.43230E-04-3.48087E-14 1.84910E-13
 -1        93 2.08051E+01-2.95440E-03-5.60394E-03-2.58919E-04 1.88085E-14 2.71454E-13
 -1        94 2.11265E+01-3.02647E-03-6.49105E-03-1.67924E-03 2.44357E-15-2.97561E-14
 -1        95 2.15230E+01-2.64622E-03-6.88266E-03-3.92926E-03-2.57316E-14 4.05882E-15
 -1        96 2.19962E+01-1.52833E-03-6.21633E-03-7.20516E-03-2.60442E-14 2.63696E-13
 -1        97 2.25350E+01 6.67471E-04-3.61559E-03-1.15633E-02-4.37460E-14 7.60399E-13
 -1        98 2.31066E+01 4.23159E-03 2.09481E-03-1.66619E-02 3.50123E-14 6.81739E-13
 -1        99 2.36454E+01 9.15541E-03 1.20856E-02-2.13249E-02-9.11223E-15 2.53521E-13
 -1       100 2.40434E+01 1.47043E-02 2.66257E-02-2.30013E-02-1.53065E-14 3.04428E-13
 -1       101 2.41505E+01 1.89482E-02 4.33956E-02-1.75490E-02-7.67507E-15 2.61010E-13
 -1       102 2.37998E+01 1.87649E-02 5.56086E-02-3.31992E-04 4.51124E-14 4.43076E-13
 -1       103 2.28750E+01 1.11730E-02 5.21723E-02 3.01851E-02-4.62499E-15 5.48700E-13
 -1       104 2.14177E+01-3.77485E-03 2.33581E-02 6.68762E-02 1.01350E-14 6.01161E-13
 -1       105 1.97211E+01-2.07447E-02-2.83241E-02 9.17648E-02 8.42159E-14 2.95708E-13
 -1       106 1.83051E+01-3.10250E-02-8.10889E-02 8.46026E-02-6.37344E-14 1.18999E-13
 -1       107 1.77035E+01-2.88537E-02-1.04216E-01 4.04853E-02 2.64959E-14-3.12324E-13
 -1       108 1.81573E+01-1.59759E-02-8.20675E-02-2.07494E-02 1.61329E-15-6.17688E-13
 -1       109 1.94548E+01 3.15435E-04-2.90665E-02-6.80806E-02 1.29221E-15-1.76005E-13
 -1       110 2.10683E+01 1.28866E-02 2.36735E-02-8.32115E-02 1.35689E-14-2.96894E-13
 -1       111 2.24610E+01 1.85878E-02 5.38222E-02-6.98487E-02-7.62381E-14-1.31523E-13
 -1       112 2.33154E+01 1.80637E-02 5.83378E-02-4.33348E-02-2.68405E-14 6.58163E-13
 -1       113 2.35708E+01 1.38449E-02 4.65711E-02-1.71857E-02 5.44083E-14 4.83221E-13
 -1       114 2.33349E+01 8.39703E-03 2.94621E-02 2.15859E-03-8.99085E-15 2.20397E-15
 -1       115 2.27773E+01 3.21023E-03 1.37967E-02 1.39938E-02-4.52304E-14-4.84508E-15
 -1       116 2.20610E+01-1.20893E-03 1.56457E-03 2.01820E-02 7.40970E-14 2.47631E-13
 -1       117 2.13184E+01-4.93248E-03-8.31479E-03 2.27410E-02-4.53621E-14-3.17598E-13
 -1       118 2.06559E+01-7.93894E-03-1.76375E-02 2.24220E-02 2.55979E-14-8.95798E-13
 -1       119 2.01731E+01-8.77710E-03-2.38669E-02 1.61340E-02-1.28182E-13-8.48657E-13
 -1       120 1.99737E+01 8.80962E-03-3.43869E-03-5.30071E-03 1.42253E-13-3.70834E-13
 -1       121 1.99987E+01-1.29128E-02-4.44320E-03-1.24447E-02-4.29940E-13 1.26691E-13
 -1       122 1.99881E+01 1.91808E-01-2.27490E-02 8.07235E-03 1.41326E-13 1.09462E-13
 -1       123 1.99916E+01 6.69882E-01-1.55242E-02 1.91908E-02 4.11117E-13-8.74858E-14
 -1       124 1.99968E+01 1.30330E+00-5.67597E-03 2.36875E-02-2.53990E-13-1.94244E-13
 -1       125 2.00024E+01 1.99004E+00 3.41480E-03 2.40351E-02-4.59854E-13-7.51593E-14
 -1       126 2.00080E+01 2.62547E+00 1.15435E-02 2.13303E-02-9.43117E-13 1.54253E-13
 -1       127 2.00124E+01 3.14116E+00 1.83226E-02 1.54495E-02-3.44889E-13 1.60568E-13
 -1       128 2.00154E+01 3.45016E+00 2.28691E-02 7.01110E-03-1.22746E-13-9.81920E-14
 -1       129 2.00161E+01 3.50227E+00 2.41660E-02-2.84365E-03-3.96443E-14 4.49697E-13
 -1       130 2.00145E+01 3.28382E+00 2.18074E-02-1.25608E-02 3.10589E-13 1.75814E-13
 -1       131 2.00105E+01 2.82219E+00 1.59966E-02-2.08385E-02-8.48006E-13-4.22221E-13
 -1       132 2.00050E+01 2.19312E+00 7.68688E-03-2.56447E-02-1.48989E-12 2.25637E-13
 -1       133 1.99985E+01 1.46793E+00-3.10138E-03-2.70523E-02-3.65766E-13-1.02308E-13
 -1       134 1.99903E+01 7.66572E-01-1.68031E-02-2.50087E-02-3.29875E-14-2.06085E-15
 -1       135 1.99891E+01 2.33472E-01-2.22172E-02-1.55026E-02-2.31243E-13-2.32660E-13
 -1       136 1.99886E+01-3.55218E-03-4.41517E-03 2.65203E-02-2.79048E-13 7.96931E-14
 -1       137-1.52771E+00-1.91800E+01-3.05300E+00-3.74842E+00 9.24538E-13 4.74606E-13
 -1       138-1.32244E+00-7.01090E+00-2.14602E+00-2.47388E+00 1.09784E-12 3.12389E-13
 -1       139 4.26697E+00 4.85487E+00-8.70653E-01 4.75629E+00 4.24050E-13 3.74256E-13
 -1       140 1.69125E+01 1.05861E+01 5.28730E-01 1.32199E+01 1.01530E-13 3.19744E-14
 -1       141 3.61560E+01 9.89583E+00 1.92938E+00 1.83424E+01-7.38576E-14 3.41949E-14
 -1       142 5.50395E+01 4.84890E+00 3.01654E+00 1.50394E+01-4.42285E-14-3.64375E-13
 -1       143 6.55127E+01 1.13791E+00 3.54638E+00 4.07054E+00-5.29715E-14-1.10854E-12
 -1       144 6.28290E+01 2.04760E+00 3.39907E+00-8.87425E+00 1.50682E-13-1.34767E-12
 -1       145 4.76635E+01 7.00932E+00 2.58329E+00-1.74447E+01 6.88782E-13-1.50224E-12
 -1       146 2.77642E+01 1.08870E+01 1.34102E+00-1.69458E+01 1.42253E-12-1.89920E-12
 -1       147 8.99416E+00 8.18077E+00-2.58134E-01-8.65962E+00 1.20787E-12-1.32566E-12
 -1       148 3.53846E-01-1.81327E+00-1.64915E+00-2.23687E-01 4.73455E-13-3.99902E-13
 -1       149-1.85937E+00-1.50210E+01-2.73233E+00 4.19143E+00 3.14637E-13 3.30291E-14
 -1       150-9.12853E-01-2.33297E+01-3.26398E+00 1.89423E+00 1.54765E-13 6.55535E-14
 -1       151-9.99471E-01-2.30218E+01-3.25864E+00-2.33320E+00-4.63601E-13-1.75963E-13
 -1       152-1.91212E+00-1.41132E+01-2.71063E+00-4.25942E+00-1.27276E-12-4.12531E-13
 -1       153 3.38307E-01-1.30869E+00-1.66187E+00 3.09444E-01-1.57740E-12-8.71525E-13
 -1       154 9.59242E+00 8.49269E+00-2.58995E-01 9.05533E+00-1.15868E-12-1.12294E-12
 -1       155 2.62911E+01 1.08128E+01 1.20584E+00 1.65249E+01-8.33666E-13-1.26299E-12
 -1       156 4.77334E+01 7.10196E+00 2.60789E+00 1.74372E+01-3.35593E-13-7.52953E-13
 -1       157 6.38494E+01 1.96131E+00 3.50614E+00 8.53418E+00-1.66362E-14-5.47146E-13
 -1       158 6.61116E+01 1.12302E+00 3.63037E+00-4.85140E+00-4.96304E-14-4.14238E-13
 -1       159 5.41399E+01 5.34938E+00 2.99939E+00-1.58403E+01 2.63387E-13-6.30107E-13
 -1       160 1.55105E+01 1.03822E+01 3.58353E-01-1.25862E+01-6.60749E-13 6.88949E-13
 -1       161 2.76681E+00 3.19655E+00-1.12365E+00-3.27259E+00-8.97837E-13 5.29132E-13
 -1       162-1.60905E+00-8.91840E+00-2.32703E+00 3.16125E+00 2.22877E-13 2.60902E-14
 -1       163-1.45625E+00-2.02160E+01-3.12568E+00 3.73838E+00 5.37625E-14-4.42701E-14
 -1       164 2.10103E+01 3.69362E+00-5.74067E-02-3.61129E+00-2.95281E-13-2.16167E-13
 -1       165 1.99879E+01 4.20820E+00-4.59526E-02-2.80984E+00-2.25352E-13-4.51531E-13
 -1       166 1.95095E+01 4.47633E+00-3.13402E-02-2.19745E+00-1.38979E-13-5.70715E-13
 -1       167 1.92683E+01 4.61506E+00-2.35009E-02-1.67613E+00-7.03044E-14-6.15242E-13
 -1       168 1.91388E+01 4.69682E+00-1.95415E-02-1.22030E+00-2.00215E-14-6.07759E-13
 -1       169 1.90660E+01 4.74786E+00-1.74428E-02-7.92937E-01 3.17342E-14-5.84987E-13
 -1       170 1.90293E+01 4.77578E+00-1.64302E-02-3.87325E-01 8.28912E-14-5.52310E-13
 -1       171 1.90187E+01 4.78434E+00-1.61385E-02 8.27513E-03 1.25806E-13-5.18599E-13
 -1       172 1.90310E+01 4.77451E+00-1.64708E-02 4.04210E-01 1.76105E-13-4.77701E-13
 -1       173 1.90697E+01 4.74491E+00-1.75236E-02 8.10872E-01 2.09764E-13-4.50623E-13
 -1       174 1.91433E+01 4.69241E+00-1.96899E-02 1.23270E+00 2.45243E-13-3.83263E-13
 -1       175 1.92777E+01 4.60519E+00-2.40078E-02 1.69963E+00 2.98151E-13-2.83539E-13
 -1       176 1.95232E+01 4.45934E+00-3.28517E-02 2.22809E+00 3.32952E-13-1.31990E-13
 -1       177 2.00114E+01 4.18363E+00-4.72172E-02 2.84825E+00 3.44286E-13 1.11564E-13
 -1       178 2.11319E+01 3.46357E+00-5.97917E-02 3.53791E+00 2.88675E-13 5.48485E-13
 -1       179 2.24156E+01 1.14348E+00-3.36465E-01 3.01569E+00 1.85619E-13 1.08905E-12
 -1       180 2.19678E+01 8.58263E-01 6.86454E-04-1.96015E+00-2.71880E-13 1.54102E-13
 -1       181 2.04424E+01 1.90359E-01-9.94141E-03-7.65200E-01-2.45370E-13 4.41626E-14
 -1       182 1.96661E+01 1.01608E-01 1.35998E-02-2.86684E-01-1.80745E-13-5.93891E-14
 -1       183 1.93254E+01 4.71343E-02 1.00160E-02-6.91116E-02-1.44739E-13-1.76503E-13
 -1       184 1.91948E+01 2.25349E-02 5.15974E-03 3.81029E-02-9.51945E-14-2.34367E-13
 -1       185 1.91804E+01 9.52376E-03 2.43799E-03 9.07291E-02-7.03823E-14-2.63736E-13
 -1       186 1.92284E+01 2.18944E-03 1.14132E-03 1.13254E-01-3.72146E-14-2.90362E-13
 -1       187 1.93073E+01-1.93650E-03 5.16035E-04 1.18566E-01-9.27557E-14-3.33521E-13
 -1       188 1.93987E+01-4.07539E-03 1.93322E-04 1.14214E-01-1.26380E-13-3.42161E-13
 -1       189 1.94921E+01-4.90991E-03 2.42132E-05 1.04976E-01-7.38537E-14-3.43887E-13
 -1       190 1.95819E+01-4.85410E-03-5.31439E-05 9.40318E-02-1.32037E-14-5.26103E-13
 -1       191 1.96657E+01-4.16645E-03-6.86894E-05 8.35852E-02-9.21236E-15-6.06538E-13
 -1       192 1.97437E+01-3.00370E-03-3.92710E-05 7.52350E-02-2.72605E-14-5.71370E-13
 -1       193 1.98179E+01-1.45010E-03 2.50377E-05 7.02214E-02-4.76638E-14-4.92823E-13
 -1       194 1.98914E+01 4.64276E-04 1.18315E-04 6.96020E-02 1.10976E-14-4.22773E-13
 -1       195 1.99687E+01 2.74977E-03 2.37207E-04 7.43804E-02-3.99151E-14-4.26207E-13
 -1       196 2.00553E+01 5.44461E-03 3.79564E-04 8.55965E-02-9.66235E-14-5.14163E-13
 -1       197 2.01580E+01 8.60008E-03 5.42880E-04 1.04378E-01-1.27652E-13-5.63666E-13
 -1       198 2.02842E+01 1.22593E-02 7.22191E-04 1.31944E-01-5.28280E-14-5.51130E-13
 -1       199 2.04428E+01 1.64224E-02 9.06979E-04 1.69528E-01 1.01736E-13-6.63126E-13
 -1       200 2.06433E+01 2.09866E-02 1.07663E-03 2.18187E-01 8.73596E-14-5.78897E-13
 -1       201 2.08956E+01 2.56426E-02 1.19422E-03 2.78395E-01 8.35278E-14-6.03576E-13
 -1       202 2.12088E+01 2.97012E-02 1.19943E-03 3.49303E-01 5.98770E-14-3.98812E-13
 -1       203 2.15896E+01 3.18207E-02 1.00411E-03 4.27466E-01 3.47112E-14-3.92737E-13
 -1       204 2.20393E+01 2.96263E-02 4.99002E-04 5.04805E-01-2.74183E-14-3.32262E-13
 -1       205 2.25485E+01 1.93051E-02-4.12294E-04 5.65707E-01-2.44620E-14-3.88134E-13
 -1       206 2.30911E+01-4.47981E-03-1.73354E-03 5.83648E-01-5.22577E-14-4.29516E-13
 -1       207 2.36157E+01-4.74627E-02-3.25669E-03 5.19183E-01 8.81753E-14-3.62937E-13
 -1       208 2.40398E+01-1.11711E-01-4.43916E-03 3.24058E-01 1.24450E-13-2.97425E-13
 -1       209 2.42502E+01-1.87385E-01-4.55228E-03-4.02262E-02-1.74755E-13-3.95416E-13
 -1       210 2.41239E+01-2.42553E-01-3.16886E-03-5.62532E-01-3.34199E-14-3.59685E-13
 -1       211 2.35775E+01-2.17840E-01-6.68786E-04-1.12485E+00-3.62705E-14-4.55664E-13
 -1       212 2.26563E+01-6.29771E-02 7.76983E-04-1.47382E+00 2.81539E-14-4.44037E-13
 -1       213 2.16144E+01 1.93979E-01 1.02938E-03-1.32699E+00 1.28072E-13-4.08119E-13
 -1       214 2.08738E+01 4.07214E-01-4.30873E-04-6.02705E-01-5.35561E-14-4.92841E-13
 -1       215 2.07895E+01 4.25964E-01-9.98815E-04 4.07607E-01 3.99654E-14-3.07715E-13
 -1       216 2.13920E+01 2.26963E-01 9.15721E-05 1.19454E+00 2.41438E-13-3.50843E-13
 -1       217 2.23490E+01-3.53965E-02 1.46250E-03 1.41594E+00 4.99317E-14 1.40329E-13
 -1       218 2.32286E+01-2.08886E-01-5.13304E-05 1.10954E+00-1.94293E-13-1.36341E-14
 -1       219 2.37468E+01-2.50336E-01-2.73630E-03 5.47933E-01-1.54048E-13-2.57421E-13
 -1       220 2.38308E+01-2.03849E-01-4.61006E-03-4.45689E-03-6.03961E-14-5.55233E-13
 -1       221 2.35505E+01-1.28243E-01-4.63390E-03-4.08509E-01 1.99327E-13-5.07422E-13
 -1       222 2.30298E+01-5.97067E-02-3.32809E-03-6.37876E-01 1.01694E-13-3.44844E-13
 -1       223 2.23907E+01-9.63119E-03-1.49201E-03-7.22295E-01 1.36003E-13-2.24843E-13
 -1       224 2.17313E+01 2.46900E-02 2.05472E-04-7.02330E-01-1.17363E-14-8.60755E-14
 -1       225 2.11238E+01 5.10812E-02 1.26439E-03-6.07125E-01-1.46708E-14-1.01394E-13
 -1       226 2.06210E+01 7.77857E-02 1.76420E-03-4.49597E-01 2.70825E-13-1.21197E-13
 -1       227 2.02463E+01 1.05448E-01 1.33482E-03-2.37339E-01 9.58682E-14-5.01949E-14
 -1       228 2.09590E+01 2.77043E-01-5.13418E-02 1.16573E+00 1.99885E-13 9.42375E-13
 -1       229 1.98633E+01 1.26828E-01 8.30728E-03 4.44042E-01 1.67982E-13 7.78344E-13
 -1       230 1.93560E+01 5.80361E-02 1.27354E-02 1.51060E-01 1.14568E-13 6.34056E-13
 -1       231 1.91453E+01 2.76909E-02 7.63144E-03 1.18534E-02 6.52805E-14 5.32219E-13
 -1       232 1.90944E+01 1.30487E-02 3.82891E-03-5.72279E-02 5.30419E-14 4.79298E-13
 -1       233 1.91292E+01 5.13750E-03 1.91581E-03-8.96840E-02 5.24063E-14 4.20006E-13
 -1       234 1.92076E+01 6.55438E-04 1.01829E-03-1.01638E-01 5.53393E-14 3.82986E-13
 -1       235 1.93051E+01-1.83888E-03 5.65699E-04-1.01895E-01 6.75975E-14 3.46342E-13
 -1       236 1.94074E+01-3.07676E-03 3.12850E-04-9.57821E-02 8.29091E-15 2.62711E-13
 -1       237 1.95069E+01-3.47884E-03 1.65897E-04-8.67407E-02-3.08645E-14 3.66891E-13
 -1       238 1.95997E+01-3.30443E-03 8.54193E-05-7.70943E-02 8.75725E-14 3.57043E-13
 -1       239 1.96850E+01-2.71575E-03 5.08805E-05-6.84718E-02 8.58796E-14 3.00206E-13
 -1       240 1.97641E+01-1.81036E-03 4.95150E-05-6.20720E-02 4.07116E-14 1.73005E-13
 -1       241 1.98396E+01-6.40131E-04 7.25944E-05-5.88418E-02 5.26253E-14 1.28098E-13
 -1       242 1.99156E+01 7.75475E-04 1.13664E-04-5.96004E-02 4.04807E-14 2.37560E-13
 -1       243 1.99971E+01 2.43797E-03 1.67292E-04-6.51217E-02 6.91026E-15 8.59653E-14
 -1       244 2.00901E+01 4.35771E-03 2.27879E-04-7.61790E-02 1.95246E-13 8.19867E-14
 -1       245 2.02015E+01 6.53826E-03 2.88379E-04-9.35433E-02-5.77782E-15-1.04893E-14
 -1       246 2.03391E+01 8.95375E-03 3.38829E-04-1.17922E-01-5.87112E-14-4.35552E-14
 -1       247 2.05110E+01 1.15141E-02 3.64740E-04-1.49808E-01-4.85731E-14 1.59400E-14
 -1       248 2.07255E+01 1.40113E-02 3.45827E-04-1.89192E-01-3.52146E-14 3.28135E-14
 -1       249 2.09900E+01 1.60374E-02 2.56351E-04-2.35079E-01 1.00106E-13 7.16870E-14
 -1       250 2.13089E+01 1.68687E-02 6.97754E-05-2.84716E-01-2.14038E-14-6.71024E-14
 -1       251 2.16818E+01 1.53219E-02-2.27681E-04-3.32460E-01-9.72771E-14-5.66760E-14
 -1       252 2.20987E+01 9.62967E-03-6.09672E-04-3.68306E-01-1.77147E-13 2.50550E-14
 -1       253 2.25356E+01-2.52238E-03-9.68881E-04-3.76362E-01 4.46333E-14 8.82760E-14
 -1       254 2.29484E+01-2.34814E-02-1.08186E-03-3.34236E-01 2.05775E-13 1.44188E-13
 -1       255 2.32689E+01-5.41036E-02-6.34612E-04-2.15433E-01-7.93998E-14 4.97935E-14
 -1       256 2.34071E+01-9.07207E-02 6.02511E-04 1.76033E-03-2.49046E-14 9.22286E-14
 -1       257 2.32667E+01-1.21168E-01 2.38461E-03 3.15568E-01-1.17860E-13 1.86757E-13
 -1       258 2.27816E+01-1.23275E-01 3.64947E-03 6.74459E-01-4.51232E-14 2.60801E-13
 -1       259 2.19723E+01-7.30581E-02 2.72174E-03 9.59980E-01 5.11143E-14 1.88452E-13
 -1       260 2.09977E+01 3.29759E-02-1.24266E-03 1.01323E+00 1.93683E-13 1.10602E-13
 -1       261 2.01500E+01 1.56278E-01-6.37016E-03 7.26976E-01 5.01309E-14 1.06065E-13
 -1       262 1.97448E+01 2.27315E-01-8.64726E-03 1.55418E-01 1.99746E-13-9.17598E-15
 -1       263 1.99438E+01 1.98794E-01-5.55658E-03-4.71621E-01-1.96631E-15-1.34132E-13
 -1       264 2.06461E+01 9.04287E-02 4.33639E-04-8.86328E-01-2.56903E-13 1.02057E-13
 -1       265 2.15531E+01-3.08244E-02 4.62022E-03-9.56596E-01 1.34152E-13 1.44598E-13
 -1       266 2.23467E+01-1.08445E-01 4.99981E-03-7.36314E-01-1.56287E-13 2.88740E-13
 -1       267 2.28277E+01-1.29093E-01 2.82840E-03-3.78128E-01-1.20895E-13 2.75376E-13
 -1       268 2.29444E+01-1.09985E-01 2.99280E-04-2.37810E-02 1.08877E-13 1.55695E-13
 -1       269 2.27487E+01-7.47520E-02-1.24376E-03 2.46993E-01 4.90393E-14 1.33681E-13
 -1       270 2.23381E+01-3.94569E-02-1.58293E-03 4.12236E-01 5.78755E-14 1.92159E-13
 -1       271 2.18144E+01-1.04316E-02-1.18937E-03 4.81877E-01 8.41083E-14-9.94172E-14
 -1       272 2.12664E+01 1.25616E-02-7.64060E-04 4.74344E-01 1.48346E-13-2.99550E-14
 -1       273 2.07659E+01 3.27395E-02-9.94331E-04 4.03492E-01 1.38453E-13 1.19080E-13
 -1       274 2.03708E+01 5.48508E-02-7.43661E-04 2.74929E-01-2.63960E-15-5.04318E-14
 -1       275 2.01123E+01 6.46500E-02 1.51262E-03 1.04124E-01-6.47581E-14-2.43951E-13
 -1       276 2.00875E+01 2.24146E-01 1.63221E-03 2.08711E-01-1.37140E-13 3.77459E-13
 -1       277 2.00628E+01 5.33178E-01 9.50681E-04 3.79241E-01-3.05073E-14 7.70165E-14
 -1       278 2.00308E+01 9.41519E-01 5.34089E-04 4.90497E-01 1.64893E-14-2.32067E-13
 -1       279 2.00011E+01 1.40560E+00-1.05177E-04 5.29450E-01 2.71794E-14-2.06442E-13
 -1       280 1.99729E+01 1.86153E+00-1.10507E-03 4.97466E-01-1.87344E-13-4.90460E-13
 -1       281 1.99466E+01 2.26556E+00-2.00569E-03 3.96759E-01-3.49431E-13 5.95849E-14
 -1       282 1.99264E+01 2.55227E+00-2.67438E-03 2.37659E-01-1.54009E-13 2.85051E-13
 -1       283 1.99161E+01 2.67836E+00-2.97030E-03 4.01864E-02 1.10086E-13-3.45991E-15
 -1       284 1.99182E+01 2.62200E+00-2.85187E-03-1.67511E-01-6.98868E-14 1.20882E-13
 -1       285 1.99328E+01 2.38841E+00-2.31118E-03-3.54138E-01-2.68911E-13-5.46393E-13
 -1       286 1.99572E+01 2.01733E+00-1.39392E-03-4.89370E-01-4.33228E-14-1.92201E-13
 -1       287 1.99893E+01 1.54848E+00-4.06527E-04-5.56290E-01-6.18479E-14 4.65667E-13
 -1       288 2.00256E+01 1.05445E+00 4.42644E-04-5.38593E-01 3.11368E-14 9.51167E-14
 -1       289 2.00694E+01 6.05795E-01 1.78037E-03-4.25537E-01-1.88256E-13-1.93393E-13
 -1       290 2.01540E+01 3.31734E-01 2.28350E-03-3.76560E-01-1.38953E-13-7.21783E-14
 -1       291-3.86941E-01-8.96360E+00-6.49119E-01 1.80645E+00 1.79745E-13 4.89914E-13
 -1       292 3.49894E+00-8.16430E+00-7.00078E-01 3.93048E+00 5.57887E-15-1.15394E-14
 -1       293 1.07343E+01-4.74565E+00-4.28909E-01 5.96934E+00 1.67949E-13-2.27457E-14
 -1       294 1.95227E+01-6.42704E-01-5.81286E-02 7.32254E+00 6.02851E-14-2.81053E-13
 -1       295 2.99743E+01 1.71523E+00 2.71614E-01 6.47076E+00-8.28920E-14-5.39652E-13
 -1       296 3.90279E+01 5.09885E+00 7.33470E-01 6.14269E+00-7.45046E-14-6.69798E-13
 -1       297 4.45651E+01 6.52800E+00 9.14668E-01 2.93315E+00 2.01686E-13-5.13839E-13
 -1       298 4.60059E+01 6.84440E+00 9.67060E-01-6.62102E-01 2.66009E-13-7.06206E-13
 -1       299 4.33109E+01 5.93004E+00 9.15052E-01-4.45735E+00 3.37536E-13-1.10831E-12
 -1       300 3.52660E+01 3.97710E+00 5.32225E-01-6.38410E+00 7.60357E-13-8.66945E-13
 -1       301 2.54383E+01 2.50454E-01 1.19552E-01-6.88957E+00 3.41810E-13-8.61033E-13
 -1       302 1.39085E+01-2.73914E+00-3.03063E-01-6.48954E+00 2.01006E-13-8.89039E-13
 -1       303 7.20957E+00-6.50937E+00-3.82310E-01-5.68814E+00 1.64646E-13-2.62772E-13
 -1       304 3.02226E-01-9.88487E+00-8.80000E-01-2.22797E+00 2.60764E-13-1.56375E-13
 -1       305-9.49975E-01-8.90559E+00-6.37690E-01 5.28414E-02-7.97292E-14-4.61159E-13
 -1       306 5.90648E-01-9.84928E+00-9.03331E-01 2.19024E+00-3.66901E-13-4.94146E-13
 -1       307 6.97298E+00-6.57472E+00-5.11354E-01 5.21399E+00-4.74870E-13-5.15151E-13
 -1       308 1.45233E+01-2.73041E+00-3.04872E-01 6.45032E+00-8.78769E-13-6.50868E-13
 -1       309 2.46962E+01 1.02357E+00 1.27238E-01 7.49109E+00-7.03798E-13-8.68222E-13
 -1       310 3.50254E+01 3.49140E+00 4.80119E-01 5.96692E+00-6.46393E-13-4.20552E-13
 -1       311 4.31615E+01 5.95227E+00 8.60137E-01 3.92610E+00-3.41865E-13-2.90684E-13
 -1       312 4.74066E+01 6.64618E+00 1.10672E+00 4.75912E-01-1.29480E-13-2.74839E-13
 -1       313 4.55397E+01 6.32357E+00 1.03525E+00-3.41459E+00 1.39846E-13-2.28900E-13
 -1       314 3.84535E+01 4.72529E+00 6.68125E-01-5.84207E+00-1.28071E-13-1.46910E-13
 -1       315 2.91950E+01 2.05651E+00 2.99401E-01-7.24507E+00-4.14002E-13-4.94466E-13
 -1       316 1.87681E+01-1.52074E+00-1.16889E-01-7.05901E+00-2.55768E-13 1.57208E-13
 -1       317 9.07524E+00-5.24813E+00-5.34962E-01-5.40257E+00 1.53599E-13 6.90767E-13
 -1       318 2.80991E+00-8.64054E+00-7.58692E-01-3.52305E+00 1.68227E-13-1.59373E-13
 -1       319-5.86637E-01-9.43503E+00-7.12122E-01-1.42299E+00 1.33824E-13-2.15800E-13
 -1       320 2.01349E+01 3.00064E+00-2.20070E-02-2.09857E+00-2.09581E-13-3.76795E-13
 -1       321 2.07537E+01 2.20818E+00-1.76858E-02-2.36577E+00-2.90616E-13-2.47717E-13
 -1       322 1.95849E+01 3.69126E+00-1.56232E-02-1.31849E+00-6.68230E-14-4.82054E-13
 -1       323 1.94629E+01 3.84817E+00-1.37209E-02-9.24644E-01 6.10465E-15-4.72943E-13
 -1       324 1.93947E+01 3.93905E+00-1.27245E-02-5.44482E-01 7.39725E-14-4.48977E-13
 -1       325 1.93645E+01 3.98038E+00-1.23041E-02-1.73446E-01 1.34942E-13-4.08538E-13
 -1       326 1.93659E+01 3.97877E+00-1.23212E-02 1.94616E-01 1.93444E-13-3.80590E-13
 -1       327 1.93989E+01 3.93386E+00-1.27657E-02 5.65999E-01 2.46962E-13-3.68864E-13
 -1       328 1.94689E+01 3.84057E+00-1.37723E-02 9.40310E-01 2.80928E-13-3.29251E-13
 -1       329 1.95947E+01 3.67834E+00-1.56568E-02 1.33465E+00 3.34563E-13-2.32567E-13
 -1       330 1.98089E+01 3.40971E+00-1.88317E-02 1.74014E+00 3.72346E-13-1.37764E-13
 -1       331 2.01779E+01 2.95503E+00-2.29400E-02 2.12876E+00 3.90632E-13 9.73700E-15
 -1       332 2.07461E+01 2.12938E+00-3.04705E-02 2.32361E+00 3.47053E-13 2.83910E-13
 -1       333 2.10918E+01 1.18774E+00-2.49277E-02 1.92317E+00 2.84597E-13 5.45649E-13
 -1       334 2.03875E+01 4.89226E-01 8.33159E-03 9.28682E-01 2.36566E-13 4.26062E-13
 -1       335 2.04548E+01 6.75222E-01 1.25794E-02-1.02645E+00-2.50978E-13-1.66942E-13
 -1       336 2.00326E+01 3.36710E-01 7.16865E-03-4.59503E-01-2.11502E-13-1.65596E-13
 -1       337 1.97780E+01 1.76427E-01 4.09863E-03-1.50581E-01-1.47447E-13-1.87958E-13
 -1       338 1.96422E+01 9.05132E-02 1.88714E-03 2.06544E-02-1.20273E-13-2.06762E-13
 -1       339 1.95867E+01 4.16202E-02 7.91888E-04 1.12083E-01-5.36754E-14-2.04556E-13
 -1       340 1.95817E+01 1.30558E-02 2.80922E-04 1.55924E-01-6.77799E-14-2.21606E-13
 -1       341 1.96066E+01-3.31549E-03 3.15439E-05 1.71283E-01-8.36997E-14-2.07060E-13
 -1       342 1.96479E+01-1.18815E-02-9.18378E-05 1.70186E-01-1.14799E-13-1.90071E-13
 -1       343 1.96972E+01-1.52186E-02-1.43537E-04 1.60577E-01-1.29780E-13-2.28970E-13
 -1       344 1.97496E+01-1.49206E-02-1.48292E-04 1.47900E-01-9.39751E-14-2.36306E-13
 -1       345 1.98026E+01-1.19851E-02-1.19515E-04 1.36025E-01-6.52032E-14-3.50381E-13
 -1       346 1.98559E+01-7.01187E-03-6.50258E-05 1.27826E-01 5.76245E-14-3.25507E-13
 -1       347 1.99104E+01-3.18286E-04 1.08956E-05 1.25588E-01-9.26815E-15-2.01904E-13
 -1       348 1.99682E+01 7.98334E-03 1.06407E-04 1.31285E-01-3.70360E-14-2.99245E-13
 -1       349 2.00324E+01 1.79234E-02 2.21236E-04 1.46781E-01-1.19431E-13-2.40087E-13
 -1       350 2.01067E+01 2.96128E-02 3.55753E-04 1.73950E-01-1.57377E-13-2.56472E-13
 -1       351 2.01956E+01 4.31646E-02 5.09771E-04 2.14722E-01-4.74653E-14-2.63136E-13
 -1       352 2.03044E+01 5.85802E-02 6.80714E-04 2.71017E-01-7.48593E-14-3.37720E-13
 -1       353 2.04387E+01 7.55660E-02 8.60713E-04 3.44528E-01 7.45659E-14-4.07491E-13
 -1       354 2.06045E+01 9.32323E-02 1.03201E-03 4.36260E-01 1.51580E-13-3.31908E-13
 -1       355 2.08074E+01 1.09603E-01 1.16015E-03 5.45689E-01 1.30505E-13-3.78296E-13
 -1       356 2.10529E+01 1.20852E-01 1.18503E-03 6.69354E-01 7.73038E-14-3.79938E-13
 -1       357 2.13449E+01 1.20225E-01 1.01215E-03 7.98623E-01 1.32800E-14-3.12418E-13
 -1       358 2.16853E+01 9.67685E-02 5.11409E-04 9.16438E-01 5.25727E-14-3.65824E-13
 -1       359 2.20732E+01 3.45466E-02-4.60124E-04 9.93161E-01-1.12000E-14-3.06616E-13
 -1       360 2.25029E+01-8.58025E-02-1.98552E-03 9.82570E-01 2.24510E-14-1.09644E-13
 -1       361 2.29604E+01-2.79156E-01-3.97151E-03 8.21262E-01 4.58709E-14-2.24242E-13
 -1       362 2.34154E+01-5.35402E-01-5.89246E-03 4.39388E-01-2.72295E-14-2.91931E-13
 -1       363 2.38061E+01-7.86433E-01-6.99070E-03-2.03037E-01-1.25739E-13-2.77370E-13
 -1       364 2.40289E+01-8.80066E-01-7.31916E-03-1.05279E+00-5.39649E-14-2.99759E-13
 -1       365 2.39417E+01-5.86200E-01-5.54846E-03-1.86073E+00 1.85225E-15-2.05075E-13
 -1       366 2.34907E+01 1.73853E-01-5.71148E-03-2.16970E+00-4.43554E-14-2.10231E-13
 -1       367 2.28912E+01 1.10951E+00-3.31032E-03-1.56288E+00-6.17332E-14-2.54007E-13
 -1       368 2.25560E+01 1.59287E+00-4.27300E-03-1.69654E-01 1.87506E-14-1.82352E-13
 -1       369 2.27756E+01 1.20889E+00-6.93253E-03 1.30205E+00 1.88648E-13-7.27645E-14
 -1       370 2.33171E+01 2.93585E-01-3.81642E-03 2.02407E+00 3.85553E-13 3.70147E-16
 -1       371 2.37513E+01-5.22532E-01-3.74045E-03 1.80828E+00-1.37042E-13-2.14763E-13
 -1       372 2.38319E+01-8.81478E-01-5.54623E-03 1.02406E+00-1.40409E-13-3.51005E-15
 -1       373 2.35844E+01-8.36177E-01-7.19224E-03 1.40467E-01-2.52247E-13 2.87684E-13
 -1       374 2.31414E+01-5.96089E-01-6.45707E-03-5.60942E-01-1.34330E-14 2.24267E-13
 -1       375 2.26180E+01-3.30080E-01-4.46449E-03-9.97567E-01 1.95906E-13 1.73543E-13
 -1       376 2.20839E+01-1.14955E-01-2.20121E-03-1.19636E+00 9.33369E-14 1.58589E-13
 -1       377 2.15765E+01 3.79044E-02-2.55171E-04-1.21692E+00 8.76175E-14 7.18453E-14
 -1       378 2.11163E+01 1.46680E-01 1.19182E-03-1.11177E+00-4.98084E-14 2.04790E-13
 -1       379 2.07175E+01 2.36278E-01 2.61496E-03-9.14611E-01 1.27504E-13 3.12923E-13
 -1       380 2.04187E+01 2.92763E-01 2.97185E-03-6.64814E-01 1.26383E-13 1.08800E-13
 -1       381 1.98853E+01 2.28395E-01 1.07947E-02 4.00149E-01 1.99288E-13 3.55742E-13
 -1       382 1.95960E+01 1.15270E-01 6.17355E-03 1.21552E-01 1.22827E-13 2.51274E-13
 -1       383 1.94608E+01 5.75958E-02 2.80620E-03-2.72308E-02 8.58380E-14 1.92005E-13
 -1       384 1.94205E+01 2.58342E-02 1.18089E-03-1.04182E-01 6.61441E-14 1.70458E-13
 -1       385 1.94361E+01 7.59512E-03 4.57842E-04-1.39752E-01 7.61764E-14 1.67180E-13
 -1       386 1.94826E+01-2.78273E-03 1.18582E-04-1.51021E-01 9.65073E-14 1.68959E-13
 -1       387 1.95442E+01-8.21353E-03-5.16670E-05-1.48409E-01 4.70168E-14 1.80752E-13
 -1       388 1.96116E+01-1.03682E-02-1.31260E-04-1.38653E-01-6.55620E-14 1.62329E-13
 -1       389 1.96795E+01-1.02708E-02-1.52832E-04-1.26300E-01 9.78718E-14 1.93618E-13
 -1       390 1.97455E+01-8.56302E-03-1.33547E-04-1.14536E-01 1.45472E-13 1.52739E-13
 -1       391 1.98095E+01-5.63833E-03-8.37937E-05-1.05686E-01 1.34997E-13 8.52456E-14
 -1       392 1.98726E+01-1.71851E-03-9.97697E-06-1.01554E-01 3.32842E-14 1.31816E-13
 -1       393 1.99376E+01 3.09344E-03 8.40830E-05-1.03650E-01 2.17536E-14 5.90372E-14
 -1       394 2.00080E+01 8.76944E-03 1.96016E-04-1.13337E-01 9.00032E-14 6.67525E-14
 -1       395 2.00881E+01 1.53111E-02 3.23662E-04-1.31916E-01 1.81582E-13-2.76730E-14
 -1       396 2.01832E+01 2.26938E-02 4.63572E-04-1.60627E-01 8.83725E-14 7.37109E-14
 -1       397 2.02989E+01 3.07883E-02 6.08965E-04-2.00550E-01-9.94265E-14-4.15486E-14
 -1       398 2.04413E+01 3.92445E-02 7.46890E-04-2.52369E-01 9.88925E-15 7.31514E-14
 -1       399 2.06165E+01 4.73179E-02 8.54453E-04-3.15940E-01-5.45532E-14-5.37608E-14
 -1       400 2.08299E+01 5.36152E-02 8.94411E-04-3.89557E-01 9.98639E-14-7.15295E-14
 -1       401 2.10852E+01 5.57473E-02 8.11491E-04-4.68836E-01 5.56498E-14-9.37169E-14
 -1       402 2.13832E+01 4.99227E-02 5.32870E-04-5.45120E-01-1.35249E-13-1.10551E-13
 -1       403 2.17190E+01 3.06403E-02-2.05375E-05-6.03447E-01-1.35846E-13-2.69136E-13
 -1       404 2.20802E+01-9.08958E-03-9.03570E-04-6.20517E-01-7.05326E-14-1.19956E-13
 -1       405 2.24433E+01-7.60875E-02-2.08864E-03-5.63892E-01 1.26777E-13 1.11014E-13
 -1       406 2.27701E+01-1.72449E-01-3.38499E-03-3.95153E-01 5.86792E-15 2.11334E-13
 -1       407 2.30065E+01-2.86747E-01-4.37054E-03-8.15332E-02-1.17475E-13 2.79500E-13
 -1       408 2.30843E+01-3.82496E-01-4.45090E-03 3.79036E-01-1.57793E-13 4.01496E-13
 -1       409 2.29347E+01-3.93364E-01-3.25277E-03 9.20550E-01-3.16700E-14 1.58045E-13
 -1       410 2.25239E+01-2.44756E-01-8.93256E-04 1.37871E+00 1.61431E-13 5.20070E-14
 -1       411 2.19108E+01 8.08595E-02 1.30130E-03 1.51546E+00 1.14407E-13 9.95436E-14
 -1       412 2.12891E+01 4.72853E-01 2.42118E-03 1.14651E+00 1.38741E-13 2.81847E-13
 -1       413 2.09310E+01 7.14866E-01 2.79517E-03 3.18840E-01 2.37775E-13 2.29755E-13
 -1       414 2.10171E+01 6.44350E-01 3.82852E-03-6.32890E-01-4.15093E-14 4.51884E-13
 -1       415 2.14854E+01 3.08709E-01 4.24068E-03-1.28438E+00-2.34454E-13 4.40887E-13
 -1       416 2.20830E+01-8.30792E-02 2.03907E-03-1.41216E+00 4.62292E-14 2.38472E-13
 -1       417 2.25527E+01-3.42413E-01-1.54945E-03-1.08930E+00-2.18794E-13 1.80792E-13
 -1       418 2.27652E+01-4.18796E-01-4.42464E-03-5.48303E-01-1.09135E-13 1.47556E-13
 -1       419 2.27139E+01-3.63020E-01-5.46045E-03-6.93256E-03 1.96835E-14-1.12671E-13
 -1       420 2.24585E+01-2.50421E-01-4.81621E-03 4.11213E-01 9.85323E-15 1.35717E-13
 -1       421 2.20747E+01-1.34239E-01-3.22380E-03 6.69923E-01 2.16207E-13 2.99902E-13
 -1       422 2.16307E+01-3.70290E-02-1.42974E-03 7.81974E-01 1.96848E-13 1.05167E-13
 -1       423 2.11812E+01 3.99217E-02 1.22779E-04 7.74829E-01 1.43283E-13 1.18855E-13
 -1       424 2.07672E+01 1.04515E-01 1.14116E-03 6.72304E-01 1.43602E-13 3.52732E-14
 -1       425 2.04172E+01 1.62090E-01 1.53692E-03 4.91011E-01 6.30749E-14 9.98954E-14
 -1       426 2.02351E+01 2.03580E-01 1.61417E-03 3.59254E-01-1.29042E-13 1.90151E-13
 -1       427 2.00589E+01 9.86478E-01 6.95756E-04 8.76220E-01 4.07932E-14-1.25596E-13
 -1       428 2.01663E+01 6.46425E-01 1.93646E-03 7.64937E-01-1.21605E-13-1.12942E-13
 -1       429 2.02177E+01 4.13538E-01 2.41921E-03 5.79222E-01-1.95705E-13 4.04487E-13
 -1       430 1.99491E+01 1.33486E+00-5.10279E-04 8.78379E-01-9.63682E-15-6.01288E-13
 -1       431 1.98404E+01 1.66883E+00-1.57481E-03 7.66486E-01 1.77484E-14-2.40725E-13
 -1       432 1.97474E+01 1.93923E+00-2.42071E-03 5.46321E-01 1.15392E-15 2.91286E-13
 -1       433 1.96858E+01 2.10553E+00-2.94846E-03 2.41937E-01-2.74716E-13 1.49895E-13
 -1       434 1.96692E+01 2.13921E+00-3.07463E-03-1.05286E-01-3.07105E-13 8.22130E-14
 -1       435 1.97031E+01 2.03225E+00-2.75360E-03-4.43150E-01-2.30888E-13-1.67688E-13
 -1       436 1.97805E+01 1.80493E+00-2.00341E-03-7.15811E-01 9.58411E-14-4.54334E-13
 -1       437 1.98922E+01 1.48282E+00-9.65099E-04-8.91796E-01 2.67456E-13 3.05247E-13
 -1       438 2.00238E+01 1.11290E+00 3.72077E-04-9.40507E-01 9.08568E-14 1.51571E-13
 -1       439 2.01638E+01 7.39469E-01 2.19202E-03-8.56944E-01-5.13128E-14-3.38768E-13
 -1       440 1.21798E+01-5.56374E+00 1.73173E-02 7.22859E+00-1.55320E-13-3.97057E-13
 -1       441 2.13045E+00-3.34881E+00 8.10365E-02 7.21427E-02 2.51112E-13 1.02765E-13
 -1       442 5.59611E+00-4.47187E+00 4.07517E-02 5.40209E+00 1.07914E-13 1.00100E-13
 -1       443 2.03735E+01-5.40261E+00 1.99414E-03 6.48557E+00-2.36464E-13-5.48721E-13
 -1       444 2.67172E+01-3.61094E+00-2.94384E-02 4.27172E+00-2.62998E-13-5.61037E-13
 -1       445 1.97906E+01 3.43297E+00-1.87162E-02-1.72139E+00-1.37727E-13-4.62925E-13
 -1       446 3.38818E+01 5.17218E+00-3.55813E-02-4.31629E-01-1.99826E-13-5.50074E-13
 -1       447 3.55385E+01 7.90543E+00 2.25675E-02-6.79104E-02 2.18769E-13-4.92714E-13
 -1       448 3.47236E+01 7.22585E+00 8.21530E-03 4.89257E-01 3.47666E-13-5.25253E-13
 -1       449 3.42388E+01 4.17351E+00 2.86467E-02-3.47902E-02 3.43559E-13-4.69819E-13
 -1       450 3.05647E+01-1.08469E+00-8.30345E-03-1.81519E+00 2.37758E-13-4.58689E-13
 -1       451 2.28863E+01-4.60298E+00-4.02376E-02-5.68762E+00-5.09315E-15-7.43808E-13
 -1       452 1.56740E+01-5.64616E+00 2.89851E-04-7.02783E+00 7.44960E-14-6.65924E-13
 -1       453 5.72874E+00-4.88597E+00-4.55217E-02-5.49232E+00 9.23150E-14-1.95954E-14
 -1       454 2.32276E+00-3.80042E+00 3.45539E-02-2.35735E+00-1.18433E-13-3.35371E-13
 -1       455 2.21968E+00-4.65327E+00-6.54577E-02 2.89833E+00-1.89369E-13-6.45956E-13
 -1       456 6.89896E+00-5.24770E+00-5.62619E-02 5.93897E+00-2.22961E-13-4.22801E-13
 -1       457 1.69665E+01-5.71115E+00 3.69761E-02 6.92372E+00-6.05072E-15-3.03575E-13
 -1       458 2.33903E+01-4.99680E+00-2.89688E-02 5.31436E+00-1.35059E-13-1.76248E-15
 -1       459 3.01610E+01-1.39722E+00-1.28419E-03 2.70861E+00-2.88256E-13 6.03129E-14
 -1       460 3.35636E+01 3.35985E+00-2.59312E-02-5.91868E-01-4.62769E-13 2.62901E-13
 -1       461 3.62703E+01 7.32299E+00 7.87864E-02-3.26075E-01-1.44024E-13-9.35987E-14
 -1       462 3.54183E+01 7.82173E+00 1.66978E-02 1.88526E-01-9.69225E-14 6.35950E-15
 -1       463 3.52149E+01 5.17414E+00 5.19910E-02 4.43069E-02-1.06193E-13 4.04260E-14
 -1       464 3.24959E+01 7.28601E-01 5.02265E-02-1.90900E+00-2.53297E-13-2.08500E-13
 -1       465 2.67485E+01-3.43407E+00-1.30524E-03-4.43833E+00-3.26447E-13-4.70582E-13
 -1       466 1.88059E+01-5.71384E+00-2.45781E-02-6.71541E+00 1.98994E-13 1.61753E-13
 -1       467 1.02519E+01-5.86297E+00-7.42958E-02-6.78125E+00 7.16649E-14 6.63518E-13
 -1       468 4.53028E+00-4.54639E+00 4.03738E-03-4.71580E+00 1.37695E-13-1.30743E-13
 -1       469 3.23417E+01 1.24715E+00 3.53902E-03 6.91559E-01-6.96526E-14-5.52128E-13
 -1       470 3.72136E+00-1.93511E+00 1.47780E-01 5.31455E-01-2.29016E-13-6.85452E-13
 -1       471 1.22608E+01-4.59884E+00 9.97415E-02-6.92702E+00 9.32865E-14-4.52124E-13
 -1       472 2.03704E+01 8.31777E-01 4.02217E-03 9.73756E-01 2.53517E-13 8.64797E-14
 -1       473 1.97363E+01 3.10353E+00-5.39807E-03-6.34770E-01 4.07165E-14-4.12792E-13
 -1       474 1.98314E+01 2.93011E+00-5.99529E-03-9.51761E-01-2.72356E-14-4.30736E-13
 -1       475 1.96694E+01 3.22613E+00-5.02920E-03 8.81954E-03 1.52242E-13-3.55074E-13
 -1       476 1.96877E+01 3.19311E+00-5.10690E-03 3.30866E-01 2.12106E-13-3.25568E-13
 -1       477 1.97409E+01 3.09630E+00-5.41440E-03 6.46695E-01 2.63223E-13-3.23812E-13
 -1       478 1.98384E+01 2.91850E+00-5.95105E-03 9.62687E-01 3.12284E-13-2.50726E-13
 -1       479 1.99924E+01 2.63348E+00-6.52191E-03 1.25823E+00 3.37519E-13-1.66542E-13
 -1       480 2.02329E+01 2.18751E+00-5.70077E-03 1.50315E+00 3.41676E-13-8.01358E-14
 -1       481 2.01084E+01 4.53485E-01 5.07007E-03 4.66040E-01 2.03815E-13 7.90227E-14
 -1       482 2.03412E+01 9.73031E-01 2.64462E-03-9.43349E-01-2.03058E-13-2.50191E-13
 -1       483 2.96146E+01 8.13426E-01-1.16745E-01 1.54833E+00 3.67061E-13-1.73590E-13
 -1       484 2.88829E+01-2.66941E+00-7.17030E-02 5.91127E-01-2.73965E-13-6.74329E-13
 -1       485 2.01696E+01 5.43669E-01 1.89320E-03-4.69481E-01-1.69672E-13-1.79265E-13
 -1       486 2.00222E+01 3.03710E-01 1.04439E-03-1.68268E-01-1.33475E-13-1.47516E-13
 -1       487 1.99216E+01 1.62120E-01 4.45984E-04 1.34698E-02-9.58874E-14-1.62774E-13
 -1       488 1.98632E+01 7.65869E-02 1.60253E-04 1.16846E-01-7.66172E-14-1.84255E-13
 -1       489 1.98367E+01 2.50181E-02 2.68626E-05 1.69679E-01-1.00466E-13-2.23357E-13
 -1       490 1.98322E+01-4.80397E-03-3.79243E-05 1.90850E-01-1.07711E-13-2.42030E-13
 -1       491 1.98420E+01-2.01056E-02-6.74722E-05 1.93332E-01-1.41565E-13-2.06525E-13
 -1       492 1.98607E+01-2.53882E-02-7.49476E-05 1.86188E-01-1.01498E-13-1.59192E-13
 -1       493 1.98849E+01-2.35269E-02-6.68410E-05 1.75880E-01-7.17106E-14-1.08339E-13
 -1       494 1.99129E+01-1.63391E-02-4.70106E-05 1.67141E-01-3.48499E-14-6.46544E-14
 -1       495 1.99439E+01-4.90925E-03-1.77179E-05 1.63592E-01 6.25958E-14-1.46643E-13
 -1       496 1.99781E+01 1.02046E-02 1.99467E-05 1.68174E-01-1.16598E-13-1.73710E-13
 -1       497 2.00166E+01 2.88169E-02 6.57517E-05 1.83463E-01-7.17180E-14-1.79961E-13
 -1       498 2.00609E+01 5.09782E-02 1.19960E-04 2.11882E-01-1.38375E-13-1.72139E-13
 -1       499 2.01129E+01 7.68279E-02 1.82938E-04 2.55808E-01-9.74991E-14-1.16871E-13
 -1       500 2.01748E+01 1.06401E-01 2.54574E-04 3.17573E-01-1.10834E-13-1.10447E-13
 -1       501 2.02494E+01 1.39343E-01 3.33365E-04 3.99327E-01-7.32417E-14-1.21898E-13
 -1       502 2.03392E+01 1.74470E-01 4.14879E-04 5.02701E-01 6.10625E-14-2.85821E-13
 -1       503 2.04475E+01 2.09061E-01 4.89369E-04 6.28191E-01 8.62428E-14-4.14502E-13
 -1       504 2.05777E+01 2.37777E-01 5.38167E-04 7.74135E-01 1.09191E-13-3.26756E-13
 -1       505 2.07348E+01 2.51074E-01 5.28908E-04 9.35113E-01 2.81024E-14-3.71378E-13
 -1       506 2.09261E+01 2.33136E-01 4.11278E-04 1.09956E+00-2.24763E-14-4.58982E-13
 -1       507 2.11643E+01 1.59839E-01 1.17732E-04 1.24638E+00 2.78365E-14-4.06530E-13
 -1       508 2.14701E+01-1.55311E-03-4.17264E-04 1.34053E+00 1.01528E-13-3.19119E-13
 -1       509 2.18751E+01-2.86834E-01-1.20128E-03 1.32793E+00 5.26319E-14-2.67706E-13
 -1       510 2.24177E+01-7.14944E-01-2.26108E-03 1.13118E+00-2.95265E-14-2.52780E-13
 -1       511 2.31195E+01-1.23851E+00-3.06226E-03 6.55617E-01-5.91429E-14-1.71383E-13
 -1       512 2.39328E+01-1.67777E+00-4.56718E-03-1.56707E-01-8.48455E-14 6.50883E-14
 -1       513 2.46919E+01-1.67235E+00-1.14839E-02-1.28933E+00-5.83359E-14-3.31449E-14
 -1       514 2.49952E+01-7.78661E-01-8.95139E-03-2.27172E+00-2.81259E-14-5.82006E-14
 -1       515 2.48185E+01 1.13428E+00-1.96997E-02-2.54698E+00 4.80727E-14 3.36849E-14
 -1       516 2.41707E+01 2.94801E+00-7.80128E-02-1.27886E+00-5.48745E-14 4.75666E-14
 -1       517 2.42447E+01 2.98114E+00-5.43997E-02 8.18996E-01 9.50160E-14 2.88441E-14
 -1       518 2.46639E+01 1.40728E+00-3.66229E-02 2.22400E+00 2.45157E-13-1.36739E-13
 -1       519 2.49492E+01-5.24890E-01-1.83703E-02 2.22029E+00-5.46429E-14-4.13966E-13
 -1       520 2.46531E+01-1.61883E+00-5.78080E-03 1.24927E+00-1.21647E-16-2.95505E-13
 -1       521 2.39107E+01-1.75332E+00-4.21146E-03 9.93395E-02 4.24454E-14-1.84514E-13
 -1       522 2.30571E+01-1.35495E+00-3.50219E-03-7.94797E-01-4.84960E-14 2.32569E-13
 -1       523 2.22996E+01-8.22254E-01-2.61519E-03-1.33672E+00 6.18520E-14 3.24877E-13
 -1       524 2.17004E+01-3.60758E-01-1.44091E-03-1.58267E+00 2.59313E-14 9.83204E-15
 -1       525 2.12423E+01-2.32037E-02-3.91342E-04-1.61832E+00 4.58244E-14 1.57893E-13
 -1       526 2.08876E+01 2.10774E-01 3.57721E-04-1.51283E+00 1.33380E-13 2.46062E-14
 -1       527 2.06044E+01 3.83940E-01 1.08221E-03-1.30894E+00 7.95938E-14-7.44009E-14
 -1       528 1.16396E+01-3.61467E+00 1.32761E-01 6.48872E+00-1.47361E-13-5.58942E-13
 -1       529 1.98060E+01 1.29150E-01 9.99777E-04-1.79285E-02 1.08555E-13-3.59685E-14
 -1       530 1.97482E+01 6.02653E-02 3.67212E-04-1.17010E-01 6.86200E-14-3.16536E-14
 -1       531 1.97301E+01 1.92919E-02 9.16207E-05-1.66293E-01 8.76638E-14-1.51758E-14
 -1       532 1.97374E+01-4.30413E-03-3.83787E-05-1.84950E-01 2.66271E-14 6.11472E-15
 -1       533 1.97602E+01-1.65073E-02-9.95334E-05-1.85690E-01 2.70418E-14 6.99402E-14
 -1       534 1.97918E+01-2.09599E-02-1.19995E-04-1.77183E-01 7.97779E-14-4.13879E-14
 -1       535 1.98280E+01-1.99611E-02-1.12878E-04-1.65500E-01 1.30805E-13-7.48843E-14
 -1       536 1.98669E+01-1.49689E-02-8.57946E-05-1.55019E-01 1.53819E-13-2.38150E-14
 -1       537 1.99078E+01-6.87764E-03-4.34436E-05-1.49021E-01 6.73014E-14-5.25942E-14
 -1       538 1.99513E+01 3.80769E-03 1.13798E-05-1.50105E-01 5.81473E-14-3.36080E-14
 -1       539 1.99988E+01 1.68397E-02 7.71656E-05-1.60472E-01 5.42464E-14-2.18254E-14
 -1       540 2.00525E+01 3.21099E-02 1.52924E-04-1.82093E-01 1.12715E-13-7.39612E-14
 -1       541 2.01152E+01 4.95181E-02 2.37440E-04-2.16782E-01 1.14312E-13 1.26687E-13
 -1       542 2.01899E+01 6.88052E-02 3.28239E-04-2.66142E-01 1.64819E-14 8.72845E-14
 -1       543 2.02803E+01 8.93213E-02 4.20179E-04-3.31367E-01-7.16562E-14 1.22587E-14
 -1       544 2.03900E+01 1.09690E-01 5.03418E-04-4.12837E-01 4.53597E-14 6.37592E-14
 -1       545 2.05230E+01 1.27327E-01 5.60771E-04-5.09432E-01 7.90269E-14-5.61569E-14
 -1       546 2.06832E+01 1.37778E-01 5.64539E-04-6.17479E-01 5.30896E-14-1.98193E-14
 -1       547 2.08743E+01 1.33902E-01 4.73832E-04-7.29220E-01 6.87933E-14-1.06135E-14
 -1       548 2.11004E+01 1.05074E-01 2.34402E-04-8.30758E-01 3.56582E-15-2.16723E-13
 -1       549 2.13654E+01 3.70060E-02-2.14254E-04-8.99617E-01-1.66944E-13-1.30139E-13
 -1       550 2.16730E+01-8.65098E-02-9.20164E-04-9.02520E-01-6.68065E-14-1.46656E-13
 -1       551 2.20245E+01-2.77455E-01-1.87152E-03-7.94975E-01 3.51829E-15-9.33610E-14
 -1       552 2.24131E+01-5.29562E-01-2.90639E-03-5.26196E-01-2.02088E-13-6.56250E-14
 -1       553 2.28106E+01-7.94475E-01-3.58520E-03-5.59849E-02-2.08394E-13 1.01238E-13
 -1       554 2.31498E+01-9.56317E-01-3.28214E-03 6.07564E-01 1.16281E-15 1.69806E-13
 -1       555 2.33176E+01-8.36042E-01-2.12791E-03 1.34831E+00 1.56647E-14 4.22388E-14
 -1       556 2.31993E+01-2.80161E-01-6.87674E-04 1.89109E+00-2.94144E-14 4.39181E-13
 -1       557 2.28058E+01 6.35242E-01-1.87959E-03 1.86120E+00-1.30991E-14 6.23706E-13
 -1       558 2.23670E+01 1.49227E+00-5.08447E-03 1.05710E+00 1.91097E-13 8.26420E-13
 -1       559 2.22317E+01 1.71676E+00-6.13503E-03-2.49926E-01 8.83104E-14 7.89603E-13
 -1       560 2.25055E+01 1.13648E+00-3.55006E-03-1.39102E+00-1.44004E-14 5.60859E-13
 -1       561 2.29297E+01 1.69047E-01-1.72820E-03-1.83176E+00-1.57838E-14 5.41516E-13
 -1       562 2.31726E+01-6.20206E-01-1.58376E-03-1.53468E+00 1.39075E-13 5.41365E-13
 -1       563 2.31063E+01-9.71492E-01-2.76157E-03-8.35003E-01-8.94855E-14 1.18004E-13
 -1       564 2.27967E+01-9.40969E-01-3.71159E-03-8.06943E-02 8.83100E-14 6.78280E-14
 -1       565 2.23681E+01-7.09223E-01-3.63934E-03 5.24618E-01-1.02939E-13 1.35012E-13
 -1       566 2.19156E+01-4.28184E-01-2.62424E-03 9.16817E-01 1.47886E-13 9.54081E-14
 -1       567 2.14884E+01-1.77746E-01-1.39909E-03 1.10954E+00 2.38187E-13 2.26361E-13
 -1       568 2.11044E+01 2.20540E-02-1.77526E-04 1.14160E+00 1.77385E-13 1.49215E-13
 -1       569 2.07689E+01 1.81351E-01 1.21960E-03 1.05099E+00 2.40146E-13 1.44242E-13
 -1       570 2.04740E+01 3.14478E-01 1.84716E-03 8.64240E-01-1.12531E-13 4.65544E-13
 -1       571 1.97826E+01 1.21067E+00-6.72674E-04 1.10770E+00 2.75595E-13-3.98743E-13
 -1       572 1.95666E+01 1.48002E+00-9.38012E-04 8.93240E-01 1.40893E-13-8.13453E-14
 -1       573 2.02244E+01 6.40455E-01 6.44562E-04 1.10414E+00-4.78851E-14-1.07733E-13
 -1       574 2.00091E+01 9.21941E-01-3.31405E-05 1.17418E+00 2.62311E-15-4.87836E-13
 -1       575 1.93981E+01 1.68497E+00-1.20095E-03 5.44119E-01-1.18953E-13 1.78411E-13
 -1       576 1.93118E+01 1.78667E+00-1.34557E-03 1.02958E-01-1.39270E-13-9.38800E-14
 -1       577 1.93302E+01 1.76278E+00-1.30551E-03-3.63609E-01-2.09615E-13 2.69068E-13
 -1       578 1.94493E+01 1.62000E+00-1.07367E-03-7.74301E-01 1.25930E-14-2.35092E-13
 -1       579 1.96520E+01 1.37897E+00-7.54609E-04-1.07981E+00 3.21582E-13-1.89293E-13
 -1       580 1.99011E+01 1.07994E+00-2.77952E-04-1.23328E+00 1.17215E-13-2.57511E-14
 -1       581 2.01734E+01 7.63830E-01 3.23914E-04-1.21445E+00-1.86239E-13-7.05366E-14
 -1       582 6.32298E+00-1.44232E+00 1.86599E-01-2.81448E+00-1.26468E-13-1.25552E-13
 -1       583 1.99209E+01 2.46255E-01 2.44347E-03 1.60577E-01 1.60527E-13 2.31365E-14
 -1       584 1.93064E+01-5.46721E+00 8.29807E-02 6.35778E+00-2.62380E-13-8.94782E-13
 -1       585 2.50874E+01-5.32167E+00-9.87610E-05 4.01890E+00-4.19012E-13-6.21819E-13
 -1       586 2.96588E+01 2.09859E+00-1.42391E-01-1.88247E+00-1.28161E-13-3.24324E-13
 -1       587 1.07159E+01-3.92209E+00 1.24619E-01-6.44461E+00 5.01127E-14 4.08312E-13
 -1       588 2.97861E+01 6.12322E+00-1.71977E-01-1.32211E+00 3.81084E-14-3.87978E-13
 -1       589 2.03887E+01 1.75678E+00-5.28157E-03-1.52570E+00-2.22660E-13-3.07219E-13
 -1       590 1.96849E+01 3.19754E+00-5.11595E-03-3.13316E-01 1.06214E-13-3.81802E-13
 -1       591 2.99031E+01 7.21726E+00-1.74985E-01 4.52222E-01 2.84231E-13-3.92120E-13
 -1       592 2.69688E+01-4.31919E+00-2.71813E-02-2.36449E+00-1.09635E-13-5.33851E-13
 -1       593 2.97955E+01 4.02731E+00-1.65444E-01 2.00284E+00 1.48416E-13-3.17524E-13
 -1       594 2.99467E+01-7.17363E-01-1.03652E-01-9.69967E-01-1.57645E-13 3.40603E-13
 -1       595 2.16645E+01-5.57787E+00 3.64418E-02-5.52985E+00-5.59969E-14-4.03361E-13
 -1       596 6.85128E+00-2.29660E+00 1.69344E-01-4.45438E+00-1.97946E-13-1.85268E-13
 -1       597 7.52580E+00-2.36736E+00 1.70595E-01 4.73459E+00-2.25028E-14-3.06685E-13
 -1       598 1.41433E+01-4.26976E+00 1.12709E-01 6.61894E+00 1.95663E-13-1.48492E-13
 -1       599 2.26253E+01-5.62914E+00 5.24109E-02 4.93924E+00 1.77539E-13 4.69420E-13
 -1       600 2.75292E+01-4.32730E+00-2.99955E-02 2.00471E+00 3.08469E-14 4.20296E-13
 -1       601 3.01818E+01 5.19389E+00-1.46101E-01-1.93928E+00-5.73847E-14 4.45685E-14
 -1       602 2.99942E+01 6.94761E+00-1.80694E-01-4.98040E-01-1.37432E-13-9.97301E-14
 -1       603 3.06717E+01 5.70439E+00-1.66305E-01 1.52424E+00-1.11439E-14-3.32435E-13
 -1       604 3.07494E+01 1.50130E+00-1.20678E-01 1.55423E+00-1.13673E-13-1.70614E-13
 -1       605 2.93576E+01-2.79250E+00-4.56672E-02-9.04530E-01-7.39959E-14-3.56798E-13
 -1       606 2.45862E+01-5.56554E+00 1.26707E-02-4.40999E+00 2.71450E-14-5.36723E-13
 -1       607 1.70508E+01-5.42305E+00 7.16592E-02-6.79094E+00 2.88686E-13 1.70274E-13
 -1       608 6.01025E+00-1.74478E+00 1.68071E-01 3.16943E+00 2.32765E-14 2.17326E-13
 -1       609 2.05822E+01 1.30512E+00-1.00025E-03 1.54950E+00 3.06828E-13 1.56706E-13
 -1       610 1.99793E+01 2.65296E+00-6.75109E-03-1.24543E+00-1.11116E-13-4.27828E-13
 -1       611 2.04415E+01 4.80737E-01 1.46007E-03-1.12370E+00-3.76444E-14 8.20546E-14
 -1       612 7.57044E+00-2.74321E-01 1.66257E-01 1.78821E-01-1.84898E-13 2.30808E-13
 -1       613 2.01627E+01 2.28220E+00-6.10283E-03-1.43732E+00-1.63214E-13-3.94897E-13
 -1       614 6.42793E+00-8.32243E-01 1.71567E-01-1.94641E+00-2.82115E-13-5.17947E-13
 -1       615 1.79606E+01-4.87011E+00 8.91786E-02-6.27957E+00-4.28824E-14-4.76131E-13
 -1       616 2.79131E+01-2.46436E+00-7.66583E-02 6.66454E-01 2.26067E-13-1.48617E-13
 -1       617 2.85953E+01 1.59264E+00-1.03134E-01-2.63112E+00-1.72147E-13 7.00828E-15
 -1       618 1.99645E+01 2.44884E+00-1.58711E-03 3.94837E-01 2.03158E-13-2.76843E-13
 -1       619 1.99331E+01 2.52378E+00-1.51901E-03 1.35956E-01 1.66802E-13-3.04475E-13
 -1       620 2.01222E+01 2.04567E+00-1.60526E-03 8.51743E-01 2.99709E-13-1.84268E-13
 -1       621 2.02393E+01 1.67538E+00-2.25936E-03 9.93735E-01 3.06614E-13-1.19451E-13
 -1       622 2.03181E+01 1.03636E+00 2.89620E-03 8.33382E-01 2.56567E-13-9.43514E-14
 -1       623 2.66502E+01 3.27686E+00-1.20006E-01-2.18190E+00-4.37567E-14-5.53394E-14
 -1       624 2.78784E+01-3.13880E+00-6.44888E-02-6.12318E-01 8.49928E-14 1.91583E-13
 -1       625 2.02400E+01 6.73329E-01 4.24961E-04-3.95053E-01-1.16821E-13-2.49472E-13
 -1       626 2.01676E+01 3.92253E-01 1.70886E-04-1.41410E-01-1.01170E-13-2.16722E-13
 -1       627 2.01026E+01 2.13907E-01 5.53428E-05 2.11466E-02-7.89898E-14-1.80605E-13
 -1       628 2.00531E+01 1.01281E-01 6.68550E-06 1.17549E-01-1.05765E-13-1.79902E-13
 -1       629 2.00191E+01 3.19824E-02-1.36038E-05 1.68729E-01-6.23100E-14-1.50394E-13
 -1       630 1.99982E+01-7.93201E-03-2.29282E-05 1.90675E-01-5.95598E-14-9.30272E-14
 -1       631 1.99874E+01-2.74403E-02-2.62873E-05 1.95254E-01-9.35374E-14-1.56222E-14
 -1       632 1.99841E+01-3.24484E-02-2.50196E-05 1.91198E-01-7.70589E-14-3.44843E-14
 -1       633 1.99864E+01-2.68367E-02-2.00511E-05 1.84967E-01-1.03456E-13-8.40948E-14
 -1       634 1.99928E+01-1.30760E-02-1.20621E-05 1.81436E-01-5.69313E-14-1.04823E-13
 -1       635 2.00027E+01 7.37720E-03-1.48634E-06 1.84435E-01-4.49011E-14-1.98002E-13
 -1       636 2.00154E+01 3.37963E-02 1.15976E-05 1.97140E-01-2.51498E-14-1.44794E-13
 -1       637 2.00309E+01 6.59520E-02 2.72479E-05 2.22364E-01-1.13230E-13-1.45307E-13
 -1       638 2.00489E+01 1.03887E-01 4.56565E-05 2.62737E-01-1.22493E-13-8.97582E-14
 -1       639 2.00697E+01 1.47654E-01 6.70387E-05 3.20784E-01-9.92193E-14-1.29964E-13
 -1       640 2.00932E+01 1.96972E-01 9.15354E-05 3.98893E-01-1.11474E-13-7.25721E-14
 -1       641 2.01195E+01 2.50724E-01 1.18795E-04 4.99152E-01-1.21672E-13-3.04798E-14
 -1       642 2.01491E+01 3.06201E-01 1.47607E-04 6.23031E-01-1.49069E-14-1.44152E-13
 -1       643 2.01828E+01 3.57945E-01 1.75083E-04 7.70871E-01 1.49400E-13-1.90714E-13
 -1       644 2.02237E+01 3.96057E-01 1.95329E-04 9.41131E-01 3.77140E-14-2.04634E-13
 -1       645 2.02785E+01 4.03817E-01 1.97430E-04 1.12931E+00-1.14883E-14-2.39391E-13
 -1       646 2.03615E+01 3.54773E-01 1.65766E-04 1.32638E+00 4.73657E-14-1.37834E-13
 -1       647 2.05005E+01 2.10079E-01 8.67915E-05 1.51610E+00 1.10992E-13-1.05194E-13
 -1       648 2.07439E+01-8.11367E-02-7.55317E-06 1.67030E+00 1.48675E-13-9.76082E-14
 -1       649 2.11684E+01-5.72856E-01 2.29880E-05 1.74035E+00 5.77370E-14-1.77658E-13
 -1       650 2.18832E+01-1.29332E+00-1.85398E-04 1.63455E+00 9.99599E-14 5.25656E-14
 -1       651 2.29983E+01-2.14732E+00 5.30959E-04 1.18082E+00 9.99666E-14 1.47834E-13
 -1       652 2.43227E+01-2.73492E+00-2.32232E-02 2.77522E-01-1.29501E-13 1.04487E-13
 -1       653 2.59774E+01-2.56336E+00-1.72600E-02-1.20668E+00-1.64400E-14 4.29977E-14
 -1       654 2.60328E+01 4.85665E+00-1.44360E-01-1.76503E-01 4.85029E-14-6.44523E-14
 -1       655 2.64407E+01 3.48796E+00-1.07201E-01 2.03409E+00-5.22499E-14-1.11312E-13
 -1       656 2.65710E+01 1.39331E-01-7.68505E-02 2.46356E+00 3.84345E-14-4.91794E-13
 -1       657 2.59362E+01-2.25521E+00-2.41266E-02 1.25250E+00 1.04068E-13-2.60530E-13
 -1       658 2.46037E+01-2.78639E+00-3.80824E-03-2.19527E-01 2.75684E-14 4.78801E-14
 -1       659 2.31634E+01-2.26886E+00-8.99738E-04-1.25903E+00 1.39744E-13-9.13702E-14
 -1       660 2.20333E+01-1.44422E+00-1.17024E-03-1.79181E+00 6.65212E-15-2.90979E-13
 -1       661 2.12734E+01-7.04085E-01-7.54031E-04-1.97468E+00-7.22231E-14-2.41539E-13
 -1       662 2.08023E+01-1.56045E-01-2.30365E-04-1.95167E+00 1.78661E-13-2.22814E-13
 -1       663 2.05209E+01 2.19726E-01 2.46549E-04-1.80860E+00-2.54317E-14-4.97487E-13
 -1       664 2.03473E+01 4.81196E-01 2.86213E-04-1.59029E+00 3.16876E-13-3.12668E-13
 -1       665 2.55543E+01-4.79158E+00 4.44215E-04 2.15262E+00 8.00384E-14 3.69633E-13
 -1       666 2.02383E+01 6.38737E-01 7.03421E-04-1.41879E+00 2.41666E-13-9.41253E-14
 -1       667 2.00261E+01 1.90342E-01 1.71386E-04-1.96903E-02 1.02063E-13-6.26388E-14
 -1       668 1.99283E+01-6.61153E-03-2.33166E-05-1.92873E-01 2.31472E-14-7.34738E-14
 -1       669 1.99262E+01-2.42991E-02-3.57882E-05-1.96422E-01 9.91776E-14-7.56705E-14
 -1       670 1.99323E+01-2.95796E-02-3.79845E-05-1.90852E-01 1.25946E-13-4.66125E-14
 -1       671 1.99441E+01-2.59018E-02-3.24017E-05-1.82648E-01 9.70134E-14-6.72321E-14
 -1       672 1.99601E+01-1.54855E-02-2.09424E-05-1.76630E-01 1.03967E-13 5.80560E-14
 -1       673 1.99795E+01 3.05997E-04-4.74355E-06-1.76504E-01 3.06676E-14 8.65248E-14
 -1       674 2.00022E+01 2.06986E-02 1.56756E-05-1.85274E-01 3.59312E-14 8.07646E-14
 -1       675 2.00286E+01 4.52845E-02 3.99841E-05-2.05503E-01 4.02701E-14 6.82579E-14
 -1       676 2.00595E+01 7.38053E-02 6.79830E-05-2.39480E-01 3.14418E-14 1.06147E-13
 -1       677 2.00961E+01 1.05901E-01 9.92365E-05-2.89255E-01 1.04467E-13 1.90551E-13
 -1       678 2.01396E+01 1.40783E-01 1.32769E-04-3.56545E-01 3.27751E-14 1.54318E-13
 -1       679 2.01918E+01 1.76788E-01 1.66460E-04-4.42477E-01-1.18482E-14 4.10072E-14
 -1       680 2.02549E+01 2.10748E-01 1.96371E-04-5.47129E-01 1.17268E-13-1.05415E-14
 -1       681 2.03321E+01 2.37126E-01 2.15581E-04-6.68802E-01 8.42667E-14 1.77403E-14
 -1       682 2.04282E+01 2.46893E-01 2.12928E-04-8.02965E-01 1.16981E-13 6.19874E-14
 -1       683 2.05508E+01 2.26226E-01 1.71438E-04-9.40759E-01 4.31078E-14 1.52030E-13
 -1       684 2.07121E+01 1.55486E-01 6.57243E-05-1.06697E+00-7.10284E-14 2.29456E-13
 -1       685 2.09314E+01 9.56382E-03-1.39094E-04-1.15733E+00-8.83197E-14 4.96935E-14
 -1       686 2.12363E+01-2.37914E-01-4.94671E-04-1.17530E+00-1.90658E-14-7.33905E-14
 -1       687 2.16601E+01-6.02069E-01-1.03571E-03-1.06883E+00-9.01658E-14 2.69156E-14
 -1       688 2.22290E+01-1.05923E+00-1.69323E-03-7.70560E-01-2.93434E-13 5.73386E-14
 -1       689 2.29303E+01-1.50003E+00-2.03494E-03-2.12512E-01-1.78378E-13 5.62749E-14
 -1       690 2.36611E+01-1.68096E+00-2.01966E-03 6.21840E-01 1.61099E-14 2.52488E-13
 -1       691 2.41980E+01-1.24755E+00-4.80302E-03 1.58595E+00-1.56398E-13 4.57115E-13
 -1       692 2.42779E+01 3.00292E-02-2.21113E-03 2.23316E+00-1.43215E-13 3.76020E-13
 -1       693 2.38360E+01 1.84382E+00-2.85117E-02 1.95590E+00 8.33335E-14 3.46544E-13
 -1       694 2.34519E+01 3.00958E+00-4.09101E-02 5.60404E-01 2.46548E-13 2.72781E-13
 -1       695 2.35798E+01 2.61628E+00-3.25762E-02-1.15502E+00 1.69653E-13 2.59872E-13
 -1       696 2.40655E+01 9.63827E-01-1.06503E-02-2.06096E+00-1.07394E-13 3.48770E-13
 -1       697 2.42467E+01-7.04181E-01-1.14258E-02-1.83528E+00 8.67611E-14 2.97343E-13
 -1       698 2.39331E+01-1.59981E+00-2.63087E-03-9.57288E-01 1.57771E-13 4.40380E-13
 -1       699 2.32494E+01-1.70701E+00-7.34132E-04 1.06636E-02 9.52441E-14 1.52691E-13
 -1       700 2.24921E+01-1.36839E+00-1.55322E-03 7.49816E-01-4.01247E-14-3.95753E-15
 -1       701 2.18232E+01-8.83575E-01-1.26080E-03 1.20402E+00-8.66458E-15 1.58447E-13
 -1       702 2.13027E+01-4.34363E-01-8.30903E-04 1.41732E+00 2.49181E-13-1.81369E-14
 -1       703 2.09156E+01-7.34334E-02-2.33873E-04 1.45444E+00 4.03071E-13-2.20507E-13
 -1       704 2.06290E+01 2.05790E-01 4.47312E-04 1.36378E+00 3.59322E-14-1.60643E-13
 -1       705 2.03992E+01 4.23293E-01 5.08896E-04 1.26499E+00-1.86920E-13 6.56055E-14
 -1       706 1.89057E+01 1.50599E+00-3.69760E-04 4.28418E-01 2.21662E-13 2.31408E-13
 -1       707 1.94692E+01 1.07743E+00-3.79118E-04 1.25390E+00 3.22441E-13-3.31529E-13
 -1       708 1.88429E+01 1.56021E+00-3.56800E-04-1.48805E-01 1.12037E-13-1.84999E-13
 -1       709 1.91333E+01 1.32991E+00-3.97206E-04 9.20324E-01 1.14459E-13-1.87971E-13
 -1       710 2.79901E+01-1.04526E+00-7.93376E-02-1.52118E+00-3.09180E-13-2.83145E-13
 -1       711 1.89624E+01 1.47968E+00-3.14359E-04-7.01793E-01-4.02302E-14 1.58583E-13
 -1       712 1.92421E+01 1.28310E+00-4.60117E-04-1.15433E+00 8.52378E-15 4.69941E-14
 -1       713 1.96304E+01 1.01592E+00-4.65836E-04-1.42736E+00 2.19944E-13 5.29866E-14
 -1       714 2.01042E+01 3.53061E-01 5.59639E-04 1.51057E-01 1.67253E-13-7.61450E-14
 -1       715 1.70155E+01-3.60711E+00 8.63016E-02 5.82035E+00-3.22936E-14-7.57693E-13
 -1       716 1.57985E+01-3.64716E+00 9.18120E-02-6.04216E+00 4.74527E-13 1.16351E-13
 -1       717 1.25865E+01-1.96412E+00 1.23757E-01 5.15426E+00 1.74166E-14-6.37303E-14
 -1       718 1.99423E+01 2.87716E-02 3.64520E-06-1.71296E-01 7.86381E-14-3.52497E-14
 -1       719 1.99731E+01 9.00598E-02 5.65920E-05-1.19314E-01 5.92473E-14-8.54245E-14
 -1       720 2.02921E+01 1.11568E+00-4.10172E-04-7.65071E-01-1.38710E-13-2.94931E-13
 -1       721 1.08890E+01-1.29499E+00 1.32754E-01-4.33740E+00 2.54815E-13-3.03181E-13
 -1       722 2.02695E+01 1.62700E+00 7.13800E-04-1.09051E+00-1.68814E-13-3.46840E-13
 -1       723 2.69198E+01 1.42428E+00-1.03907E-01 2.52034E+00 1.84946E-13-8.92446E-14
 -1       724 2.02044E+01 6.14793E-01 1.15086E-03 4.22524E-01 1.99640E-13-1.01953E-13
 -1       725 2.00275E+01 2.29428E+00-1.64953E-03 6.39012E-01 2.67726E-13-2.58971E-13
 -1       726 2.00220E+01 2.30472E+00-1.63165E-03-6.30650E-01 5.07014E-15-3.73016E-13
 -1       727 2.43277E+01-4.86857E+00 1.50158E-02-3.10703E+00-2.86145E-13-5.99827E-13
 -1       728 2.64848E+01 4.73387E+00-1.38801E-01 1.65431E+00 2.35083E-13-1.77450E-13
 -1       729 7.63308E+00-4.29199E-01 1.56126E-01 2.03980E+00-5.76900E-14-3.63820E-13
 -1       730 1.23005E+01-2.55652E+00 1.34171E-01-5.69973E+00-1.47920E-13-3.84498E-13
 -1       731 1.95425E+01-4.33579E+00 4.90648E-02 5.17513E+00 7.62515E-14 2.91126E-13
 -1       732 2.67408E+01 5.71203E+00-1.50291E-01-5.20649E-01 1.72889E-13-2.64641E-13
 -1       733 1.09932E+01-1.37082E+00 1.18241E-01 4.48574E+00-2.38889E-13-3.51448E-13
 -1       734 2.71454E+01 4.70973E+00-1.56216E-01-1.53668E+00-6.73836E-14-1.67735E-13
 -1       735 2.20347E+01-5.30425E+00 5.48119E-02-4.88789E+00 2.67744E-13-3.84220E-13
 -1       736 2.72288E+01 5.48949E+00-1.55575E-01 8.54066E-01 1.08656E-13-2.19237E-13
 -1       737 2.85298E+01-1.57449E+00-7.89446E-02 1.37935E+00 2.58439E-14-2.21861E-13
 -1       738 2.87937E+01 2.42915E+00-1.21893E-01 2.30344E+00-1.89349E-13-2.48551E-13
 -1       739 2.69321E+01-4.54457E+00-1.65499E-02-1.46673E+00-4.65183E-14-3.51316E-13
 -1       740 2.01191E+01 2.05785E+00-6.67890E-04-8.45416E-01-7.52538E-14-3.58776E-13
 -1       741 1.99321E+01 2.52549E+00-1.51750E-03-1.26774E-01 1.01494E-13-3.24653E-13
 -1       742 2.00863E+01 6.53853E-01 1.85296E-04 1.38184E+00-1.55356E-13-1.88927E-13
 -1       743 2.65353E+01-4.36808E+00-3.38027E-02 1.49115E+00-1.65336E-13-4.39468E-13
 -1       744 1.99511E+01 7.40759E-01 2.57114E-04-1.57287E+00 3.62301E-13-3.14883E-13
 -1       745 2.20657E+01-4.79662E+00 3.66833E-02 4.35239E+00-2.76532E-14-3.40244E-13
 -1       746 1.02804E+01-1.03276E+00 1.25852E-01-4.10859E+00-1.78385E-13-2.09249E-13
 -1       747 1.97870E+01 8.60977E-01-3.48394E-04 1.37806E+00 1.12472E-13-2.24502E-13
 -1       748 1.02724E+01-9.61594E-03 1.06821E-01-2.02775E+00 3.63485E-14-4.03507E-13
 -1       749 2.59661E+01-3.76417E+00-3.23777E-02-5.68799E-01-1.60514E-13-2.30229E-13
 -1       750 1.99614E+01 2.45461E+00-1.57457E-03-3.85063E-01 5.46290E-14-3.46787E-13
 -1       751 2.16969E+01-4.67900E+00 3.78691E-02-4.42094E+00-3.26128E-15-2.31585E-13
 -1       752 1.16431E+01-4.17845E-02 9.20353E-02 2.90175E+00 1.36951E-13-1.47916E-13
 -1       753 2.02674E+01 1.30337E+00-3.11929E-04 6.30654E-01 2.34384E-13-1.82198E-13
 -1       754 2.58422E+01 3.49185E-01-4.21600E-02-2.27744E+00-6.08576E-14 3.06458E-13
 -1       755 2.02780E+01 9.43033E-01 2.48797E-04 5.54651E-01 2.14974E-13-1.26682E-13
 -1       756 2.31773E+01-4.06057E+00 4.01974E-02 2.80699E+00 1.20477E-15 1.42870E-13
 -1       757 2.02645E+01 4.34487E-01-1.27741E-06-9.46663E-02-5.40025E-14-2.15780E-13
 -1       758 2.02250E+01 2.37714E-01-1.09377E-05 3.59357E-02-7.04586E-14-1.66727E-13
 -1       759 2.01842E+01 1.10174E-01-1.13559E-05 1.15192E-01-1.04003E-13-1.53857E-13
 -1       760 2.01473E+01 3.12468E-02-9.62875E-06 1.58068E-01-6.39984E-15-1.60983E-13
 -1       761 2.01161E+01-1.31952E-02-8.74420E-06 1.77128E-01-4.55093E-14-2.09444E-13
 -1       762 2.00907E+01-3.29115E-02-7.82525E-06 1.82240E-01-6.16903E-14-1.43320E-13
 -1       763 2.00705E+01-3.45877E-02-6.54272E-06 1.80964E-01-8.72423E-14-8.39366E-14
 -1       764 2.00546E+01-2.27028E-02-4.85346E-06 1.79061E-01-8.79297E-14-2.27874E-14
 -1       765 2.00418E+01-1.05842E-04-2.71447E-06 1.80997E-01-1.12213E-13-9.43868E-14
 -1       766 2.00309E+01 3.15533E-02 2.61613E-08 1.90358E-01-3.37642E-14-1.24837E-13
 -1       767 2.00208E+01 7.14771E-02 3.33102E-06 2.10172E-01-9.85720E-14-1.27402E-13
 -1       768 2.00099E+01 1.19416E-01 7.23229E-06 2.43135E-01-8.93151E-14-1.39347E-13
 -1       769 1.99967E+01 1.75347E-01 1.18032E-05 2.91759E-01-7.92191E-14-5.66637E-14
 -1       770 1.99793E+01 2.39087E-01 1.74796E-05 3.58418E-01-8.72868E-14 3.75116E-14
 -1       771 1.99555E+01 3.09798E-01 2.44560E-05 4.45327E-01-1.07069E-13 3.43337E-14
 -1       772 1.99234E+01 3.85284E-01 3.31749E-05 5.54453E-01-8.98635E-14 1.45496E-13
 -1       773 1.98809E+01 4.60963E-01 4.42348E-05 6.87399E-01 2.24452E-14 1.30716E-13
 -1       774 1.98275E+01 5.28392E-01 5.82489E-05 8.45319E-01 1.14400E-13-1.84933E-14
 -1       775 1.97654E+01 5.73152E-01 7.53000E-05 1.02893E+00 3.25664E-14 1.34296E-13
 -1       776 1.97025E+01 5.72008E-01 9.38465E-05 1.23870E+00-5.35349E-14 1.22698E-13
 -1       777 1.96580E+01 4.89310E-01 1.22842E-04 1.47507E+00 2.08290E-15 1.88094E-14
 -1       778 1.96712E+01 2.73197E-01 2.10453E-04 1.73736E+00 1.67000E-13-5.85478E-14
 -1       779 1.98142E+01-1.44719E-01 7.60836E-04 2.01869E+00 6.36825E-14-1.33648E-13
 -1       780 2.02010E+01-8.37291E-01 2.19802E-03 2.29523E+00 9.19378E-14 6.58169E-14
 -1       781 2.10740E+01-1.87599E+00 1.12656E-03 2.46860E+00 1.05885E-13-1.34007E-14
 -1       782 2.53103E+01-4.09737E+00-2.07763E-02-1.19704E+00 1.86834E-13-5.22681E-13
 -1       783 2.31446E+01-3.37818E+00 9.58377E-03-2.29360E+00 2.82384E-13-3.40863E-13
 -1       784 2.14177E+01-2.12604E+00 3.21233E-03-2.62479E+00-1.62684E-14-5.98154E-14
 -1       785 2.05050E+01-1.05861E+00 1.05139E-03-2.54260E+00-2.30786E-14-2.11086E-13
 -1       786 2.00615E+01-2.87421E-01 1.18364E-04-2.31758E+00-3.04800E-14-1.34157E-13
 -1       787 1.98987E+01 2.28953E-01 3.66587E-04-2.05141E+00-1.45592E-13-1.41769E-13
 -1       788 1.99158E+01 5.22447E-01 4.67438E-04-1.81031E+00 9.35428E-14 1.00980E-13
 -1       789 1.98434E+01-3.79835E+00 4.21057E-02-4.73829E+00 3.17572E-13-3.98705E-13
 -1       790 2.00665E+01-1.10363E-02-1.14305E-05-1.85012E-01 4.93817E-14-1.33137E-13
 -1       791 2.00267E+01-2.53538E-02-7.30165E-06-1.83300E-01 1.96705E-14-6.01798E-14
 -1       792 2.00226E+01-7.21997E-03-4.04482E-06-1.82789E-01 3.64958E-15-7.46769E-14
 -1       793 2.00213E+01 1.85914E-02 6.06041E-07-1.89305E-01 2.91583E-14-7.90780E-15
 -1       794 2.00220E+01 5.11058E-02 6.40746E-06-2.05882E-01 1.80129E-14-1.78261E-15
 -1       795 2.00241E+01 8.97582E-02 1.35142E-05-2.35146E-01 1.31189E-14 1.10414E-13
 -1       796 2.00271E+01 1.34064E-01 2.18772E-05-2.79456E-01 5.49721E-14-2.41964E-14
 -1       797 2.00305E+01 1.83231E-01 3.14347E-05-3.40919E-01 2.93994E-14 8.48473E-14
 -1       798 2.00341E+01 2.35653E-01 4.18892E-05-4.21304E-01 7.84156E-14 9.42497E-14
 -1       799 2.00383E+01 2.88237E-01 5.31369E-05-5.21825E-01 6.97976E-14 6.49398E-14
 -1       800 2.00444E+01 3.35489E-01 6.45909E-05-6.42800E-01-3.14062E-15 1.23047E-13
 -1       801 2.00557E+01 3.68291E-01 7.52054E-05-7.83161E-01 3.68771E-16 2.05165E-13
 -1       802 2.00791E+01 3.72378E-01 8.32019E-05-9.39765E-01 2.10793E-14 2.54317E-13
 -1       803 2.01275E+01 3.26640E-01 8.45971E-05-1.10639E+00 9.53755E-15 2.75300E-13
 -1       804 2.02234E+01 2.01834E-01 6.50074E-05-1.27206E+00 7.69965E-14 1.76132E-13
 -1       805 2.04040E+01-3.87490E-02-6.26399E-06-1.41783E+00-6.34188E-14 5.27057E-14
 -1       806 2.07249E+01-4.33304E-01-2.19482E-04-1.51069E+00-5.03929E-14-1.78042E-14
 -1       807 2.12595E+01-1.00351E+00-6.54834E-04-1.49267E+00-2.77901E-13 9.17674E-14
 -1       808 2.20841E+01-1.71087E+00-1.03678E-03-1.26352E+00-1.77833E-13 5.49007E-15
 -1       809 2.32190E+01-2.37262E+00-3.07824E-03-6.80219E-01-3.67529E-13 5.42578E-14
 -1       810 2.45197E+01-2.53881E+00-5.58715E-03 3.66026E-01-2.43627E-13 3.06431E-13
 -1       811 2.55210E+01-1.51559E+00-2.27500E-02 1.70457E+00 4.69850E-15 2.38735E-13
 -1       812 2.51598E+01-2.23596E+00-1.82412E-02-9.09368E-01 1.23452E-14 4.47468E-13
 -1       813 2.39864E+01-2.62075E+00 1.84224E-03 3.52186E-01 1.94083E-13 2.28772E-13
 -1       814 2.26947E+01-2.16279E+00-4.97540E-03 1.20646E+00 2.56659E-13 3.35339E-13
 -1       815 2.17009E+01-1.43901E+00 4.24424E-05 1.65209E+00-1.54837E-14 9.27487E-14
 -1       816 2.10264E+01-7.61690E-01-6.96633E-04 1.79240E+00 2.70283E-13-6.70213E-14
 -1       817 2.06056E+01-2.21690E-01-1.37464E-04 1.76011E+00 2.95286E-13 9.84896E-14
 -1       818 2.03570E+01 1.84144E-01-7.48828E-05 1.62608E+00 1.21786E-13 5.78165E-14
 -1       819 2.01909E+01 4.24700E-01-9.83378E-04 1.52083E+00-1.46008E-13 5.99823E-14
 -1       820 2.01440E+01 1.88880E+00-3.22553E-04 1.99646E-01 1.49572E-13-2.51794E-13
 -1       821 1.82825E+01 1.38392E+00 1.31203E-04 2.02204E-01 1.66158E-13-2.76845E-13
 -1       822 1.91668E+01 9.41094E-01-5.25065E-04-1.55615E+00-7.49805E-14 1.41125E-13
 -1       823 1.83242E+01 1.37686E+00 9.62337E-05-5.04636E-01 2.25033E-13-1.54519E-14
 -1       824 2.02220E+01 4.14801E-01-6.16858E-05 1.12543E-01 1.24720E-13-1.35092E-13
 -1       825 2.64332E+01-2.85251E+00-2.36135E-02-5.07004E-01-1.38669E-13 3.96436E-14
 -1       826 1.70265E+01-2.34593E+00 2.32030E-02 4.55694E+00 2.11537E-13 9.72816E-14
 -1       827 9.70080E+00-6.02482E-01 1.40488E-01 2.99318E+00-1.18579E-13 3.63598E-14
 -1       828 2.00931E+01 3.14075E-02-9.00151E-06-1.64820E-01 3.88289E-14-1.75336E-13
 -1       829 1.86426E+01 1.20993E+00-5.03231E-04-1.13223E+00 4.57224E-14-9.26795E-14
 -1       830 2.01905E+01 1.87081E+00-2.07210E-05-9.86332E-01-1.19164E-13-3.77089E-13
 -1       831 2.00347E+01-3.41232E-02-1.01451E-05-1.87175E-01 9.63869E-14-2.76670E-14
 -1       832 2.01726E+01 2.26615E-01 3.99141E-06-3.20118E-02 7.56934E-14-1.40324E-13
 -1       833 2.02838E+01 1.16262E+00-4.95044E-04-5.69437E-01-9.81023E-14-3.04198E-13
 -1       834 2.00475E+01-3.07656E-02-1.17431E-05-1.89773E-01 9.03675E-14-1.07533E-13
 -1       835 2.01285E+01 1.05951E-01-6.77749E-06-1.18479E-01 6.80596E-14-1.64534E-13
 -1       836 2.02909E+01 7.30489E-01-5.55571E-06-2.92811E-01-6.99899E-14-2.71732E-13
 -1       837 1.96814E+01-3.20538E+00 3.42023E-02 4.37682E+00 4.96356E-14-3.75292E-13
 -1       838 1.51745E+01-1.85724E+00 6.64479E-02-4.77439E+00 3.80420E-13 2.01450E-13
 -1       839 1.70245E+01-3.18507E+00 7.30030E-02-5.33582E+00-3.21312E-13-3.18367E-13
 -1       840 9.04068E+00 3.34014E-01 1.16294E-01-5.45356E-01-2.67884E-14-4.48648E-13
 -1       841 1.52407E+01-1.61470E+00 6.10890E-02 4.56510E+00-5.79883E-14-4.81976E-13
 -1       842 2.41722E+01-4.18323E+00 1.04115E-03 2.14140E+00 1.61017E-14-3.10933E-13
 -1       843 1.02508E+01 3.31034E-01 8.86819E-02 5.48126E-01 6.39245E-14 3.21212E-13
 -1       844 1.19404E+01-3.57908E-01 8.39779E-02 3.20368E+00-2.56708E-13-3.53460E-13
 -1       845 2.01325E+01 1.92706E+00-3.29623E-04 3.31187E-03 1.08532E-13-2.82898E-13
 -1       846 2.02224E+01 1.58207E+00-2.00904E-04 5.35561E-01 2.48869E-13-2.02967E-13
 -1       847 2.01758E+01 1.77512E+00-3.48888E-04 3.82504E-01 1.89533E-13-2.10169E-13
 -1       848 2.02173E+01 1.59388E+00-6.65377E-04-5.29853E-01-2.89062E-14-2.97277E-13
 -1       849 2.44319E+01-4.33255E+00 1.45105E-02-2.13694E+00-3.16308E-13-4.64077E-13
 -1       850 2.20710E+01-3.39381E+00 8.83386E-03 2.96695E+00 1.94849E-13-1.04799E-13
 -1       851 1.44777E+01-1.83219E+00 6.99245E-02-4.88179E+00-2.46698E-13-2.17335E-13
 -1       852 2.01720E+01 1.78290E+00-4.62091E-04-3.75356E-01 1.64018E-14-3.29695E-13
 -1       853 1.89810E+01 9.58945E-01-4.50888E-04 1.34900E+00 2.07999E-13-2.56350E-13
 -1       854 1.85248E+01 1.22793E+00-1.37438E-04 8.65257E-01 3.65140E-13 5.00649E-14
 -1       855 1.95247E+01 7.26702E-01 5.35120E-04-1.73022E+00-5.18735E-14 4.13336E-13
 -1       856 1.51810E+01-5.85543E-01 3.67211E-02 3.46791E+00 2.57203E-13 7.84164E-14
 -1       857 1.94497E+01 7.21057E-01 1.00925E-03 1.55946E+00 1.21778E-13-1.27941E-13
 -1       858 2.02496E+01 6.38596E-01 2.04065E-04 2.97234E-01 1.56831E-13-1.43575E-13
 -1       859 1.34225E+01-4.44343E-01 6.29740E-02-3.42508E+00-1.68468E-14-4.43706E-13
 -1       860 2.03345E+01 4.34153E-01-2.91076E-05-4.66749E-02-1.63745E-14-2.01723E-13
 -1       861 1.14391E+01 1.60847E-01 7.11299E-02-2.52758E+00-2.36277E-13-2.30906E-13
 -1       862 2.03091E+01 2.34077E-01 2.79097E-06 4.88731E-02-4.21142E-14-1.91597E-13
 -1       863 2.02729E+01 1.03209E-01-5.33495E-06 1.07129E-01-6.55661E-14-1.01434E-13
 -1       864 2.02333E+01 2.31390E-02-5.25771E-06 1.38737E-01-4.26292E-14-1.17355E-13
 -1       865 2.01942E+01-1.97924E-02-3.87104E-06 1.53041E-01-2.32750E-14-1.33153E-13
 -1       866 2.01574E+01-3.54267E-02-2.41007E-06 1.57620E-01-2.23867E-14-1.11439E-13
 -1       867 2.01234E+01-3.06932E-02-2.03965E-06 1.58450E-01-7.02767E-14-9.02385E-14
 -1       868 2.00918E+01-1.02609E-02-2.13252E-06 1.60170E-01-1.66604E-13-8.61792E-14
 -1       869 2.00613E+01 2.29372E-02-1.58222E-06 1.66459E-01-1.03912E-13-1.38435E-13
 -1       870 2.00302E+01 6.72332E-02-1.22724E-06 1.80328E-01-4.52318E-14-1.92413E-13
 -1       871 1.99964E+01 1.21843E-01-1.35822E-06 2.04338E-01-8.10123E-14-1.31321E-13
 -1       872 1.99573E+01 1.86505E-01-1.83464E-06 2.40782E-01-5.70274E-15-7.31400E-14
 -1       873 1.99096E+01 2.61051E-01-1.66150E-06 2.91783E-01-4.70536E-14-4.28257E-15
 -1       874 1.98497E+01 3.44925E-01-1.30582E-06 3.59340E-01-2.78237E-14 7.49850E-14
 -1       875 1.97735E+01 4.36586E-01-5.38052E-07 4.45355E-01-1.18810E-13 6.32343E-14
 -1       876 1.96766E+01 5.32679E-01 1.09628E-06 5.51722E-01-9.59073E-15 1.57110E-14
 -1       877 1.95547E+01 6.26921E-01 4.13992E-06 6.80551E-01 1.38026E-14 6.16817E-14
 -1       878 1.94046E+01 7.08570E-01 8.48967E-06 8.34729E-01 1.27858E-13 1.11321E-14
 -1       879 1.92253E+01 7.60343E-01 1.03613E-05 1.01904E+00-3.09763E-14-7.26899E-14
 -1       880 1.90211E+01 7.55644E-01-7.19216E-06 1.24215E+00-1.26093E-13-6.19580E-14
 -1       881 1.88066E+01 6.54645E-01-5.76520E-05 1.51983E+00-8.14059E-15-1.40696E-13
 -1       882 1.86173E+01 3.97500E-01-2.11304E-04 1.87643E+00 1.23707E-13-1.84948E-13
 -1       883 1.85252E+01-9.88777E-02-8.26958E-04 2.34838E+00 1.43230E-13-5.24578E-14
 -1       884 1.87682E+01-9.38599E-01 1.09037E-02 2.96625E+00 1.68603E-13 3.96417E-14
 -1       885 2.00258E+01-2.66830E+00 1.94227E-02-3.86808E+00 1.83028E-13-3.44464E-13
 -1       886 1.91362E+01-1.25624E+00 4.57230E-03-3.23467E+00 1.11143E-13-2.20154E-13
 -1       887 1.89186E+01-3.13965E-01 1.15181E-03-2.65725E+00 2.22151E-14 2.42199E-13
 -1       888 1.89934E+01 2.89122E-01-2.36293E-04-2.19801E+00-2.28552E-14 3.48307E-13
 -1       889 2.02353E+01 1.05816E-01-9.55130E-06-1.13083E-01 3.38623E-14-1.54419E-13
 -1       890 2.03045E+01 4.32415E-01 7.76002E-05 6.39378E-02 1.03603E-13-1.51176E-13
 -1       891 2.00773E+01-1.67884E-02 1.35784E-06-1.70250E-01 6.13313E-14-8.53549E-14
 -1       892 2.00111E+01 9.49236E-02 1.15931E-06-2.09548E-01-7.45174E-14-1.21455E-13
 -1       893 1.99866E+01 1.49145E-01 2.91152E-06-2.44981E-01 8.57159E-15 2.22805E-15
 -1       894 1.99578E+01 2.10561E-01 5.42852E-06-2.95537E-01 3.29482E-14 1.53575E-13
 -1       895 1.99229E+01 2.77828E-01 7.86015E-06-3.63324E-01 4.26313E-14 7.70734E-14
 -1       896 1.98804E+01 3.48368E-01 1.12133E-05-4.50273E-01 1.00521E-13 8.85467E-14
 -1       897 1.98292E+01 4.17521E-01 1.59362E-05-5.58091E-01 4.77349E-14 6.02257E-14
 -1       898 1.97699E+01 4.77432E-01 2.28330E-05-6.88214E-01-1.92673E-14-2.45830E-14
 -1       899 1.97056E+01 5.15621E-01 3.36396E-05-8.41826E-01-2.81263E-14-1.69345E-14
 -1       900 1.96445E+01 5.13198E-01 5.20345E-05-1.01992E+00-1.00920E-14-2.97406E-14
 -1       901 1.96029E+01 4.42806E-01 8.34735E-05-1.22329E+00 5.56193E-14 2.04402E-14
 -1       902 1.96112E+01 2.66621E-01 1.17920E-04-1.45164E+00 8.03989E-14-4.45804E-14
 -1       903 1.97215E+01-6.40063E-02 1.49864E-04-1.70003E+00-7.10359E-14-9.69437E-14
 -1       904 2.00180E+01-6.03876E-01 1.55161E-04-1.94932E+00-3.09085E-13-4.58763E-14
 -1       905 2.06248E+01-1.39403E+00 3.50728E-04-2.14238E+00-2.20945E-13-2.00920E-13
 -1       906 2.17209E+01-2.41049E+00 1.57803E-03-2.13215E+00-2.79424E-13-4.50365E-14
 -1       907 1.79362E+01-1.55181E+00 2.84666E-02 3.79969E+00-9.47389E-14-3.17644E-13
 -1       908 2.04838E+01-1.07902E+00-9.86719E-04 2.31181E+00 1.66934E-13 5.32740E-14
 -1       909 2.00665E+01-3.56696E-01-3.49508E-05 2.10376E+00 6.99854E-14 2.64679E-14
 -1       910 1.98973E+01 1.66191E-01 1.99210E-03 1.86053E+00 1.21553E-13-4.05489E-14
 -1       911 1.17055E+01 7.88870E-01 6.14076E-02 6.29381E-01 1.30939E-14-2.33131E-13
 -1       912 1.75493E+01 1.28074E+00-4.11599E-04-1.59475E-01 1.44692E-13-2.50255E-13
 -1       913 2.01971E+01 2.63874E-02-5.24226E-06-1.49323E-01 1.68064E-14-1.76067E-13
 -1       914 2.02976E+01 1.14798E+00 1.15645E-04-3.85985E-01-3.93374E-14-2.61196E-13
 -1       915 2.13150E+01-2.01087E+00 7.99150E-03 2.41117E+00 3.38087E-13 8.37652E-14
 -1       916 1.23285E+01 6.12507E-01 4.45056E-02-1.01636E+00 2.76710E-13-1.06250E-13
 -1       917 2.01020E+01-3.30556E-02 3.20487E-06-1.70054E-01 1.11489E-13-8.43360E-14
 -1       918 2.01417E+01 1.89216E+00-4.93185E-04-1.92571E-01 6.51986E-14-2.90641E-13
 -1       919 2.02730E+01 2.34813E-01-1.75850E-05-4.60659E-02 1.02401E-13-1.64528E-13
 -1       920 2.00333E+01 4.86630E-02 4.43171E-07-1.86975E-01-3.22926E-14-8.70218E-14
 -1       921 2.03152E+01-3.33585E+00 2.10579E-02-3.92752E+00-2.43258E-13-2.93961E-13
 -1       922 2.00549E+01 1.10676E-02 6.07879E-07-1.74798E-01 1.77798E-14-7.50027E-14
 -1       923 1.98511E+01 5.56933E-01-1.54510E-04 1.59373E+00 1.44623E-14 3.42645E-14
 -1       924 2.03371E+01 7.28661E-01 3.60119E-05-1.89312E-01-2.82750E-14-2.20139E-13
 -1       925 2.03048E+01 1.00314E+00-3.42391E-05 3.65083E-01 1.61194E-13-2.06711E-13
 -1       926 2.02913E+01 8.18659E-01-7.51457E-06 3.41507E-01 1.54251E-13-1.92823E-13
 -1       927 1.78276E+01 1.16474E+00 3.12380E-04-1.01284E+00 1.20124E-13-6.82668E-14
 -1       928 1.29499E+01 5.69904E-01 3.64782E-02 1.44546E+00-1.61499E-13 3.01053E-14
 -1       929 1.92825E+01 5.38219E-01 8.15657E-04-1.94050E+00 1.40720E-13 1.63615E-13
 -1       930 2.03143E+01 7.28108E-01-6.65252E-05 2.32253E-01 1.05629E-13-1.76141E-13
 -1       931 2.34802E+01-3.58583E+00 1.63058E-02-1.85861E+00-3.52983E-13-2.71706E-13
 -1       932 2.00604E+01-2.13112E+00 2.56342E-03 3.25530E+00 2.69866E-13 2.46485E-14
 -1       933 1.82231E+01-2.39572E+00 3.63498E-02-4.24773E+00-2.66557E-13-4.07701E-13
 -1       934 2.02810E+01 1.40717E+00-2.47758E-05 6.97609E-02 1.13964E-13-2.30687E-13
 -1       935 1.68498E+01-1.04421E+00 2.51057E-02-3.74213E+00 1.47345E-13-2.48938E-13
 -1       936 1.77192E+01 1.16967E+00-8.52123E-05 7.19817E-01 2.92424E-14-3.31594E-13
 -1       937 1.39834E+01 5.24948E-01 2.59155E-02 2.01802E+00 2.43479E-13 4.15995E-14
 -1       938 2.01616E+01-1.72016E-02-5.07897E-06-1.65511E-01 3.46774E-14-1.40555E-13
 -1       939 2.02903E+01 1.33887E+00-5.85059E-05 1.98049E-01 1.44010E-13-2.17725E-13
 -1       940 2.02817E+01 1.33641E+00 8.93413E-04-2.95023E-01 1.55515E-14-2.81484E-13
 -1       941 2.01299E+01-3.47559E-02-6.75631E-07-1.70204E-01 7.11920E-14-7.86757E-14
 -1       942 1.82844E+01 8.63910E-01-1.13602E-03 1.41310E+00 3.33939E-13 4.03287E-14
 -1       943 1.89373E+01 5.63480E-01-1.47907E-03 1.74487E+00 5.16660E-14 1.06380E-13
 -1       944 1.46741E+01-2.26165E-01 2.81884E-02 3.06118E+00-1.61914E-13-3.36207E-13
 -1       945 1.86248E+01 8.29869E-01-1.08101E-03-1.68576E+00 4.92415E-15 8.08670E-14
 -1       946 2.03802E+01 6.79249E-01-1.12598E-04-1.03579E-01 1.62790E-16-2.37759E-13
 -1       947 2.03032E+01 1.20251E+00-7.87212E-05 3.02248E-01 1.47264E-13-1.51804E-13
 -1       948 2.03646E+01 2.07783E-01 8.31456E-06 5.31445E-02-5.11211E-15-1.63820E-13
 -1       949 2.03283E+01 8.36499E-02-1.39249E-06 9.05072E-02-1.62004E-14-7.99579E-14
 -1       950 2.02848E+01 9.96854E-03-3.69663E-06 1.10633E-01-2.94125E-14-6.47383E-14
 -1       951 2.02387E+01-2.60845E-02-1.53253E-06 1.19801E-01-5.57106E-14-7.68746E-14
 -1       952 2.01925E+01-3.39233E-02 7.45910E-07 1.23336E-01-1.17726E-14-4.64363E-14
 -1       953 2.01470E+01-2.03593E-02-1.84208E-06 1.25406E-01-1.04500E-13-8.54645E-14
 -1       954 2.01018E+01 1.01569E-02-1.81289E-06 1.29340E-01-1.56424E-13 4.00199E-14
 -1       955 2.00553E+01 5.48449E-02-1.63664E-06 1.37823E-01-9.16253E-14 1.90836E-14
 -1       956 2.00052E+01 1.12132E-01-5.18549E-06 1.53065E-01-2.72942E-14 3.74629E-14
 -1       957 1.99483E+01 1.81335E-01-1.09182E-05 1.76912E-01 4.28384E-15 1.16821E-13
 -1       958 1.98807E+01 2.62150E-01-1.53169E-05 2.11062E-01 4.13940E-15 1.15417E-13
 -1       959 1.97980E+01 3.54158E-01-2.04297E-05 2.57031E-01 1.64021E-14 7.04791E-14
 -1       960 1.96947E+01 4.56347E-01-2.72162E-05 3.16238E-01-6.62604E-14 1.73858E-13
 -1       961 1.95649E+01 5.66438E-01-3.61156E-05 3.90124E-01-5.54495E-14 2.49342E-13
 -1       962 1.94018E+01 6.80099E-01-4.81400E-05 4.80389E-01-1.02162E-15 2.50921E-13
 -1       963 1.91978E+01 7.89985E-01-6.56822E-05 5.89571E-01 3.45447E-14 1.13205E-13
 -1       964 1.89449E+01 8.84547E-01-9.55148E-05 7.22218E-01-1.81320E-14 1.51760E-14
 -1       965 1.86348E+01 9.46495E-01-1.56447E-04 8.87041E-01-4.88959E-14 4.53571E-14
 -1       966 1.82597E+01 9.50916E-01-2.41761E-04 1.10020E+00-1.02326E-14 8.02790E-14
 -1       967 1.78091E+01 8.64285E-01-5.14265E-04 1.39449E+00-4.74514E-15 7.82420E-14
 -1       968 1.72901E+01 6.23959E-01-1.26839E-03 1.81633E+00 1.48933E-13 3.64448E-14
 -1       969 1.67343E+01 1.65916E-01 2.24626E-03 2.46316E+00 1.68014E-13-9.16101E-14
 -1       970 2.02806E+01 1.40848E+00 7.89765E-05-6.46585E-02 7.84175E-14-2.49787E-13
 -1       971 1.72612E+01-9.30540E-02 5.43160E-03-2.78064E+00 3.86744E-13-3.24763E-13
 -1       972 1.77775E+01 4.90278E-01 2.53475E-04-2.13076E+00 3.95564E-14-2.77215E-13
 -1       973 1.30073E+01 7.96916E-01 3.54687E-02-1.20924E+00-6.98452E-14-2.96885E-13
 -1       974 2.02784E+01 1.39612E+00 1.75252E-04-1.82623E-01 4.40337E-14-2.60897E-13
 -1       975 1.99736E+01 1.49965E-01-2.12393E-06-1.93669E-01-9.78313E-14-1.23178E-13
 -1       976 1.97826E+01 3.83956E-01-7.43725E-06-3.49122E-01 3.37967E-14 8.20938E-15
 -1       977 1.96900E+01 4.72207E-01-9.88430E-06-4.34698E-01 1.42025E-13 4.46444E-14
 -1       978 1.95782E+01 5.57534E-01-1.23108E-05-5.41241E-01 2.25602E-14 8.54744E-14
 -1       979 1.94460E+01 6.30317E-01-1.44101E-05-6.72074E-01-6.21082E-14 8.81145E-14
 -1       980 1.92947E+01 6.75897E-01-1.44706E-05-8.31932E-01-7.28019E-14 8.50089E-14
 -1       981 1.91301E+01 6.72825E-01-6.78153E-06-1.02810E+00 9.14631E-14 5.21061E-14
 -1       982 1.89659E+01 5.90490E-01 2.22091E-05-1.27207E+00 1.17030E-13-4.16854E-14
 -1       983 1.88312E+01 3.85513E-01 9.41922E-05-1.58063E+00-3.85840E-15-5.51492E-14
 -1       984 1.87809E+01-1.47623E-03 3.40808E-04-1.97255E+00-1.31184E-13-1.01506E-13
 -1       985 1.89103E+01-6.46507E-01-1.77516E-04-2.46566E+00-2.67733E-13-2.56547E-13
 -1       986 1.94198E+01-1.62354E+00 8.26554E-03-3.00763E+00-3.65283E-13-2.04786E-13
 -1       987 1.91605E+01 2.04190E-01-2.48187E-03 2.01409E+00 7.77068E-14 3.67745E-15
 -1       988 1.42883E+01 9.37611E-01 1.55434E-02-1.13055E-01 1.02412E-13-4.11591E-13
 -1       989 1.91442E+01-3.81305E-01-2.14531E-03 2.45123E+00 2.09929E-13 9.05850E-14
 -1       990 2.03484E+01 9.70253E-01-3.80446E-05-1.93760E-01 2.52506E-14-2.69816E-13
 -1       991 2.03626E+01 6.94106E-01 3.86954E-04 1.33018E-01 7.67607E-14-2.22780E-13
 -1       992 2.03053E+01 9.15218E-02-1.11372E-05-1.00299E-01 3.15256E-14-1.71643E-13
 -1       993 1.46288E+01-4.64797E-01 3.50583E-02-3.45119E+00-8.08316E-14-2.18113E-13
 -1       994 1.44874E+01 3.42325E-01 2.04575E-02-2.29432E+00 3.34366E-13-3.57605E-14
 -1       995 2.01382E+01-2.56632E-02 1.03876E-05-1.41736E-01 6.57694E-14-7.39130E-14
 -1       996 1.98587E+01 2.98767E-01-4.90629E-06-2.81908E-01 3.98720E-14 2.46239E-14
 -1       997 1.99212E+01 2.20133E-01-2.20047E-06-2.30797E-01-7.55221E-14-9.95976E-14
 -1       998 2.00189E+01 8.93132E-02-1.33772E-06-1.68447E-01-3.54126E-14 1.33054E-14
 -1       999 2.03858E+01 3.98327E-01-7.03244E-05-9.04595E-03 1.18619E-14-2.03946E-13
 -1      1000 1.69653E+01-2.01818E-01 1.02742E-02 2.79297E+00 1.08183E-13-2.93334E-13
 -1      1001 1.50924E+01 5.88896E-01 1.28798E-02 1.72560E+00-8.13044E-14-1.22761E-13
 -1      1002 1.96354E+01-1.42849E+00 1.56616E-03 2.98801E+00 4.71188E-14 1.80730E-13
 -1      1003 2.03750E+01 1.00077E+00 1.60624E-04 1.19629E-03 6.60346E-14-1.95510E-13
 -1      1004 1.38154E+01 1.04067E+00 1.15487E-02 4.37697E-01 1.61743E-13 8.72536E-14
 -1      1005 1.67890E+01 1.13089E+00-5.26842E-04-7.43960E-01 1.39670E-13-2.78231E-13
 -1      1006 2.03630E+01 4.13007E-01 3.78230E-05 2.13524E-02 8.32584E-14-2.04229E-13
 -1      1007 2.00990E+01 7.89477E-05 7.29426E-06-1.44946E-01 5.12714E-14-1.76455E-15
 -1      1008 2.00599E+01 3.89850E-02 1.80749E-06-1.52976E-01 2.17362E-14-2.64632E-14
 -1      1009 2.01787E+01-3.52168E-02-5.49014E-07-1.40117E-01 1.03028E-13-1.82710E-13
 -1      1010 2.02636E+01 1.52580E-02 7.97268E-07-1.25046E-01 1.47063E-14-1.99173E-13
 -1      1011 1.72942E+01 8.29659E-01-8.66815E-04 1.40444E+00 1.30339E-13-2.36309E-13
 -1      1012 1.81817E+01 4.21137E-01-4.17759E-04 1.94421E+00 6.98786E-14 1.03708E-13
 -1      1013 2.03730E+01 9.71921E-01-1.15324E-04 7.94010E-02 1.39824E-13-1.86932E-13
 -1      1014 2.03408E+01 2.18680E-01 1.39693E-05-5.42601E-02 4.90497E-14-1.83323E-13
 -1      1015 1.67157E+01 1.14559E+00-2.16174E-04 4.02135E-01 2.75220E-13-1.87811E-13
 -1      1016 1.98368E+01 2.97641E-01-2.96049E-05-1.89233E-01-8.26844E-14-1.11376E-13
 -1      1017 2.03551E+01 5.61783E-02-3.45364E-05 6.36988E-02-3.29893E-14-1.92673E-13
 -1      1018 2.03067E+01-5.18810E-03-3.05142E-05 7.40069E-02-7.82119E-15-1.65829E-13
 -1      1019 2.02544E+01-3.01776E-02 6.56590E-06 7.86592E-02-2.44552E-14-8.80253E-14
 -1      1020 2.02007E+01-2.78306E-02-1.20253E-05 8.09785E-02-1.38402E-14-9.56548E-14
 -1      1021 2.01462E+01-4.07677E-03-1.20314E-05 8.32182E-02-3.64568E-14 7.83250E-15
 -1      1022 2.00900E+01 3.69940E-02-9.61459E-06 8.74433E-02-1.21448E-13 3.25774E-14
 -1      1023 2.00299E+01 9.30333E-02 2.66564E-06 9.52230E-02-2.02660E-14 5.99301E-14
 -1      1024 1.99631E+01 1.62274E-01-2.94209E-05 1.07731E-01 2.51175E-14 5.15380E-14
 -1      1025 1.98852E+01 2.44654E-01-4.70114E-05 1.26181E-01-1.58432E-14 1.16747E-13
 -1      1026 1.97917E+01 3.39423E-01-5.73851E-05 1.51377E-01 3.19790E-14 1.44620E-13
 -1      1027 1.96766E+01 4.45932E-01-7.38098E-05 1.84053E-01-9.18183E-15 1.41918E-13
 -1      1028 1.95333E+01 5.62609E-01-9.47955E-05 2.24860E-01-4.23993E-14 1.74003E-13
 -1      1029 1.93538E+01 6.86438E-01-1.22376E-04 2.74444E-01-1.80459E-14 2.16040E-13
 -1      1030 1.91288E+01 8.12355E-01-1.61158E-04 3.33756E-01-9.79878E-14 1.26891E-13
 -1      1031 1.88469E+01 9.32668E-01-2.20356E-04 4.04707E-01-8.30251E-14 7.97781E-14
 -1      1032 1.84931E+01 1.03659E+00-3.19112E-04 4.91516E-01-2.00390E-14-8.43631E-15
 -1      1033 1.80469E+01 1.10972E+00-5.02241E-04 6.03359E-01-3.35786E-14 4.06063E-14
 -1      1034 1.74807E+01 1.13143E+00-6.98485E-04 7.57819E-01 6.45548E-14 1.12760E-13
 -1      1035 1.67268E+01 1.09451E+00 8.09891E-04 1.00518E+00 7.60179E-14 9.91123E-14
 -1      1036 1.57688E+01 9.38150E-01 5.52614E-03 1.37085E+00 9.63932E-14 1.26552E-13
 -1      1037 1.93039E+01 7.00047E-01-7.70545E-05-4.61924E-01-3.22881E-14-1.09040E-13
 -1      1038 1.59914E+01 7.88546E-01-8.37911E-04-1.55405E+00 9.15062E-14-2.97832E-13
 -1      1039 1.94792E+01 5.99074E-01-6.27513E-05-3.67253E-01 9.10530E-14-2.14740E-17
 -1      1040 1.99164E+01 2.12284E-01-1.56254E-05-1.56085E-01-3.52786E-14-8.33912E-14
 -1      1041 1.96231E+01 4.94282E-01-5.07703E-05-2.92464E-01 6.39323E-14-1.74875E-14
 -1      1042 1.90927E+01 7.86907E-01-9.57756E-05-5.81746E-01-1.92109E-14-3.23829E-14
 -1      1043 1.88417E+01 8.44765E-01-1.21605E-04-7.34997E-01-1.22329E-13 7.91116E-15
 -1      1044 1.85485E+01 8.52929E-01-1.50120E-04-9.35117E-01 5.56164E-14 1.71642E-13
 -1      1045 1.82121E+01 7.83238E-01-2.50005E-04-1.20489E+00 2.82259E-14 2.52300E-13
 -1      1046 1.78440E+01 5.90463E-01-3.87450E-05-1.58417E+00-3.11410E-14 1.70999E-13
 -1      1047 1.74728E+01 2.15086E-01 1.39196E-03-2.12124E+00-1.06728E-13 1.60834E-13
 -1      1048 1.71457E+01-4.21355E-01 7.57078E-03-2.87912E+00-2.58842E-13-6.77260E-14
 -1      1049 1.54379E+01 6.56893E-01 5.73276E-03-1.79798E+00-4.39991E-15-2.27898E-13
 -1      1050 1.97407E+01 3.92423E-01-3.99003E-05-2.33997E-01 2.31284E-14-7.80021E-14
 -1      1051 2.03689E+01 1.01326E+00-1.17614E-04-7.21984E-02 5.01670E-14-2.33708E-13
 -1      1052 1.99836E+01 1.37640E-01-2.19462E-05-1.32705E-01 1.16113E-15-3.50152E-14
 -1      1053 2.03947E+01 1.66034E-01 1.57999E-06 4.40413E-02 2.31811E-14-2.01897E-13
 -1      1054 2.02207E+01-2.37923E-02 7.88988E-07-1.36283E-01 2.44677E-14-1.87878E-13
 -1      1055 2.04154E+01 5.94661E-01 5.13597E-04-4.10518E-02 4.59981E-14-2.08969E-13
 -1      1056 2.04202E+01 3.36955E-01-2.19650E-04 9.50571E-03 3.67974E-14-1.71372E-13
 -1      1057 2.03671E+01 8.85864E-01-1.39370E-04 1.43104E-01 1.20265E-13-2.05700E-13
 -1      1058 1.53161E+01 1.13450E+00-6.09147E-04-6.13808E-01 4.33557E-14-1.54692E-14
 -1      1059 2.00425E+01 7.47205E-02-8.04274E-06-1.17348E-01-5.94136E-17 6.22128E-15
 -1      1060 2.01478E+01-1.18431E-02 1.24230E-05-1.03733E-01-2.15774E-15-2.01394E-14
 -1      1061 2.03980E+01 5.48138E-01-4.52136E-05 4.57755E-02 8.43813E-14-2.17226E-13
 -1      1062 2.01990E+01-3.14761E-02-5.85480E-05-1.01499E-01 1.02180E-14-6.14437E-14
 -1      1063 2.04239E+01 6.81722E-01 1.56230E-04-1.98407E-02 5.02689E-14-1.99604E-13
 -1      1064 2.03449E+01 6.70467E-02-6.55086E-05-7.77297E-02 4.92632E-14-1.86980E-13
 -1      1065 2.03825E+01 1.84002E-01 5.65902E-05-5.10261E-02 2.56754E-14-2.18460E-13
 -1      1066 2.04235E+01 6.81774E-01 2.20851E-04 1.95251E-02 9.72243E-14-1.26052E-13
 -1      1067 2.04161E+01 6.27501E-01 6.74278E-04 3.86969E-02 7.97986E-14-2.27358E-13
 -1      1068 2.04018E+01 1.15733E-01-5.71892E-05 2.13135E-02 1.11578E-14-1.69484E-13
 -1      1069 2.03028E+01-1.77486E-02-1.93130E-05 3.00869E-02-2.61559E-14-2.36316E-13
 -1      1070 2.02468E+01-3.07966E-02 3.94625E-05 3.13697E-02-1.47433E-14-2.40905E-13
 -1      1071 2.01882E+01-1.66406E-02 3.21572E-05 3.22473E-02 1.57799E-14-2.20800E-13
 -1      1072 2.01273E+01 1.74619E-02 2.96859E-05 3.36853E-02-3.31057E-14-1.45773E-13
 -1      1073 2.00630E+01 6.82445E-02 9.73607E-06 3.58824E-02-1.77298E-14-3.23092E-14
 -1      1074 1.99932E+01 1.33721E-01 1.31105E-04 3.98963E-02 5.30691E-14-1.31165E-14
 -1      1075 1.99124E+01 2.13802E-01 5.89117E-05 4.55666E-02 4.53352E-14-3.32721E-14
 -1      1076 1.98175E+01 3.06468E-01 4.56005E-05 5.30578E-02 2.27699E-14 6.40723E-14
 -1      1077 1.97023E+01 4.11734E-01 5.49953E-05 6.26180E-02-6.32587E-14 3.04252E-14
 -1      1078 1.95603E+01 5.28313E-01 6.60370E-05 7.39874E-02-8.51499E-14-3.52876E-14
 -1      1079 1.93836E+01 6.53910E-01 7.91753E-05 8.67295E-02-4.01565E-14-1.03015E-13
 -1      1080 1.91630E+01 7.84648E-01 9.46546E-05 1.00182E-01-6.10224E-14-1.24990E-13
 -1      1081 1.88868E+01 9.14683E-01 1.12358E-04 1.13512E-01-5.53514E-14-8.11837E-14
 -1      1082 1.85397E+01 1.03607E+00 1.32020E-04 1.25864E-01-1.09453E-13-3.48507E-14
 -1      1083 1.80995E+01 1.13914E+00 1.49854E-04 1.36525E-01 7.20008E-15-3.25612E-14
 -1      1084 1.75299E+01 1.21359E+00-1.63968E-04 1.45180E-01 4.73202E-14-1.02350E-13
 -1      1085 1.67775E+01 1.24411E+00-3.52374E-03 1.59267E-01 1.17693E-13-5.86482E-14
 -1      1086 1.87296E+01 9.37807E-01-1.43748E-04-4.03532E-01-6.11802E-14-8.90539E-15
 -1      1087 1.92638E+01 7.20705E-01-8.95037E-05-2.42060E-01 9.85495E-14 5.27477E-14
 -1      1088 1.98478E+01 2.77497E-01-2.70427E-05-9.55308E-02 7.95978E-15-1.63534E-13
 -1      1089 1.94581E+01 6.01412E-01-6.76892E-05-1.89098E-01 2.36539E-14-1.95866E-14
 -1      1090 1.83670E+01 1.01263E+00-1.81349E-04-5.27779E-01-1.38098E-13 2.72313E-14
 -1      1091 1.79191E+01 1.04340E+00-2.72468E-04-6.99556E-01-1.34843E-14 4.92613E-14
 -1      1092 1.73612E+01 1.01523E+00 1.22734E-03-9.37748E-01 7.40660E-14 1.22254E-13
 -1      1093 1.66668E+01 8.81160E-01 1.84877E-04-1.30818E+00 8.42315E-14 2.32546E-14
 -1      1094 1.97433E+01 3.76232E-01-3.61965E-05-1.18131E-01-4.02460E-14-1.89853E-13
 -1      1095 2.02986E+01 7.55051E-04-1.97064E-06-9.20036E-02-2.39389E-14-1.78375E-13
 -1      1096 2.04316E+01 2.62902E-01-1.50749E-04 9.30791E-03 2.94381E-14-1.79299E-13
 -1      1097 2.00964E+01 2.42961E-02 5.09279E-06-1.08328E-01 5.69713E-14 1.82073E-14
 -1      1098 1.96155E+01 4.85096E-01-4.99074E-05-1.48680E-01-6.14818E-14-9.87667E-14
 -1      1099 1.99352E+01 1.89935E-01-1.55058E-05-7.88000E-02-4.01045E-16-1.17379E-13
 -1      1100 2.03990E+01 3.36586E-01 1.64237E-05-1.38400E-02 7.02006E-14-2.57256E-13
 -1      1101 1.90243E+01 8.36105E-01-1.14917E-04-3.11510E-01-1.03510E-14 4.13800E-14
 -1      1102 2.02491E+01-2.84628E-02-2.02165E-05-9.86681E-02 3.54754E-14-1.24734E-13
 -1      1103 2.03573E+01 2.74281E-02 9.73999E-05 2.72821E-02-2.41493E-14-1.23814E-13
 -1      1104 2.04425E+01 4.45558E-01-1.55529E-04 1.44528E-03 5.95922E-14-1.47669E-13
 -1      1105 2.01954E+01-2.21003E-02 2.56207E-05-5.49922E-02-3.69700E-16-4.67776E-14
 -1      1106 2.00100E+01 1.15534E-01 1.71760E-04-6.82063E-02 4.27824E-15-8.36142E-14
 -1      1107 2.01369E+01 7.70058E-03-4.42195E-06-5.74182E-02 6.02643E-14-1.10952E-13
 -1      1108 2.03587E+01 3.71180E-02-1.93114E-04-4.44097E-02 1.05183E-15-1.85672E-13
 -1      1109 2.03982E+01 1.38392E-01 3.86172E-05-3.46626E-02 1.78345E-14-1.98334E-13
 -1      1110 2.02789E+01-2.81408E-02 2.84236E-05-1.90819E-02-5.15208E-14-1.15561E-13
 -1      1111 2.00285E+01 9.88353E-02-1.93889E-04-2.38739E-02-1.04456E-14-9.60935E-14
 -1      1112 2.03085E+01-1.35853E-02 4.48599E-05-5.09454E-02-3.62992E-14-1.21712E-13
 -1      1113 2.00756E+01 5.42668E-02-4.59821E-05-6.14861E-02 2.54275E-14-1.06739E-13
 -1      1114 2.04228E+01 1.81815E-01 4.49533E-04-8.36403E-03 7.05208E-15-1.74521E-13
 -1      1115 2.04269E+01 3.88853E-01-2.45734E-04-1.44543E-03 5.31539E-14-2.27582E-13
 -1      1116 2.04196E+01 2.43372E-01-3.32831E-04-2.22288E-02-4.59701E-15-1.87786E-13
 -1      1117 2.79605E+01 9.08578E+00 2.32527E+00-6.69851E+00-4.78506E-14 7.79654E-13
 -1      1118 2.05447E+01 6.22628E+00 2.09527E-01-3.90500E+00-2.04836E-14-1.88675E-13
 -1      1119 1.94325E+01 5.85227E+00 7.50737E-02-2.88956E+00-1.18933E-14-5.39664E-13
 -1      1120 1.90254E+01 5.72572E+00 6.03514E-02-2.23702E+00-6.67869E-15-6.67908E-13
 -1      1121 1.88406E+01 5.66954E+00 5.78602E-02-1.70306E+00-3.13291E-15-7.15112E-13
 -1      1122 1.87474E+01 5.64092E+00 5.56330E-02-1.23552E+00-9.20271E-16-7.11303E-13
 -1      1123 1.86992E+01 5.62594E+00 5.38675E-02-8.05345E-01 7.57640E-16-6.83445E-13
 -1      1124 1.86757E+01 5.61852E+00 5.26347E-02-3.93366E-01 2.28441E-15-6.49317E-13
 -1      1125 1.86691E+01 5.61639E+00 5.22410E-02 8.48348E-03 4.39416E-15-6.13308E-13
 -1      1126 1.86768E+01 5.61887E+00 5.27486E-02 4.10739E-01 5.93731E-15-5.79712E-13
 -1      1127 1.87014E+01 5.62667E+00 5.41245E-02 8.24060E-01 6.63749E-15-5.31394E-13
 -1      1128 1.87513E+01 5.64230E+00 5.63109E-02 1.25687E+00 9.37705E-15-4.55617E-13
 -1      1129 1.88455E+01 5.67122E+00 5.84901E-02 1.72893E+00 1.17163E-14-3.49175E-13
 -1      1130 1.90308E+01 5.72738E+00 6.03964E-02 2.27008E+00 1.41484E-14-1.79122E-13
 -1      1131 1.94293E+01 5.84956E+00 6.91499E-02 2.93009E+00 1.65423E-14 1.17415E-13
 -1      1132 2.04509E+01 6.18124E+00 1.53144E-01 3.87970E+00 1.53211E-14 6.34787E-13
 -1      1133 2.52146E+01 7.99350E+00 1.43031E+00 5.84685E+00 2.17604E-14 1.60591E-12
 -1      1134 2.88101E+01 3.61635E+00 1.27150E+00-4.21726E+00-1.76165E-13 1.37645E-12
 -1      1135 2.02235E+01-1.77674E-01-6.16240E-01-1.10070E-01-5.97092E-14 9.76969E-13
 -1      1136 1.88276E+01-9.63794E-02-2.36371E-01 6.24798E-02-2.67251E-14 4.29804E-13
 -1      1137 1.84924E+01-4.80478E-02-5.95541E-02 4.04853E-02-1.99120E-14 5.31519E-14
 -1      1138 1.84360E+01-2.46058E-02-1.51461E-02 2.67396E-02-1.50646E-14-2.09395E-13
 -1      1139 1.85161E+01-1.30566E-02-4.94776E-03 1.89942E-02-1.19299E-14-3.95961E-13
 -1      1140 1.86612E+01-6.62437E-03-1.46191E-03 1.40299E-02-1.36662E-14-5.34876E-13
 -1      1141 1.88320E+01-2.88266E-03 5.52585E-04 1.05749E-02-8.48442E-16-5.85412E-13
 -1      1142 1.90060E+01-6.94417E-04 1.82789E-03 8.00795E-03-1.86913E-14-6.39707E-13
 -1      1143 1.91707E+01 5.32375E-04 2.50474E-03 6.02254E-03-1.83667E-14-8.75442E-13
 -1      1144 1.93199E+01 1.13237E-03 2.71030E-03 4.45614E-03-4.25833E-15-1.06397E-12
 -1      1145 1.94514E+01 1.30642E-03 2.56724E-03 3.21387E-03 2.94605E-14-1.05016E-12
 -1      1146 1.95657E+01 1.17926E-03 2.16902E-03 2.23486E-03-1.26524E-14-9.77593E-13
 -1      1147 1.96653E+01 8.27941E-04 1.57569E-03 1.47825E-03-1.42316E-14-1.02357E-12
 -1      1148 1.97544E+01 2.97148E-04 8.18354E-04 9.17572E-04-8.23024E-15-1.04818E-12
 -1      1149 1.98382E+01-3.91467E-04-9.52019E-05 5.39363E-04-1.38920E-14-1.10896E-12
 -1      1150 1.99232E+01-1.23253E-03-1.17543E-03 3.43719E-04-1.04362E-14-1.11973E-12
 -1      1151 2.00169E+01-2.23100E-03-2.44600E-03 3.46237E-04-3.11052E-15-1.12002E-12
 -1      1152 2.01284E+01-3.39545E-03-3.93771E-03 5.80936E-04-2.25570E-14-1.35974E-12
 -1      1153 2.02684E+01-4.72908E-03-5.67934E-03 1.10391E-03 1.47785E-14-1.51535E-12
 -1      1154 2.04489E+01-6.21586E-03-7.68186E-03 1.99713E-03-1.55078E-14-1.24718E-12
 -1      1155 2.06842E+01-7.79829E-03-9.91001E-03 3.37072E-03 1.17276E-14-1.12180E-12
 -1      1156 2.09895E+01-9.34143E-03-1.22308E-02 5.35945E-03 1.28922E-14-8.20346E-13
 -1      1157 2.13808E+01-1.05767E-02-1.43232E-02 8.10406E-03-1.12470E-14-9.91593E-13
 -1      1158 2.18721E+01-1.10203E-02-1.55296E-02 1.16979E-02 3.52669E-15-9.41825E-13
 -1      1159 2.24706E+01-9.87139E-03-1.46406E-02 1.60641E-02-2.11108E-14-9.61869E-13
 -1      1160 2.31692E+01-5.92688E-03-9.65910E-03 2.07083E-02 3.40994E-14-9.44130E-13
 -1      1161 2.39324E+01 2.37425E-03 2.24756E-03 2.42954E-02-3.78706E-15-1.11509E-12
 -1      1162 2.46780E+01 1.65157E-02 2.40791E-02 2.40826E-02-5.97827E-14-1.17750E-12
 -1      1163 2.52572E+01 3.66628E-02 5.67114E-02 1.55829E-02 6.34523E-14-9.99829E-13
 -1      1164 2.54486E+01 5.92720E-02 9.44394E-02-6.58967E-03-3.31297E-14-8.80806E-13
 -1      1165 2.49938E+01 7.45620E-02 1.19847E-01-4.53422E-02-2.74251E-14-9.98562E-13
 -1      1166 2.37151E+01 6.57356E-02 1.04011E-01-9.36828E-02 2.46400E-14-1.02660E-12
 -1      1167 2.17152E+01 1.87121E-02 2.56544E-02-1.28664E-01-2.23369E-14-1.08860E-12
 -1      1168 1.95318E+01-5.70139E-02-9.69761E-02-1.19511E-01 3.40309E-14-9.64881E-13
 -1      1169 1.80184E+01-1.19647E-01-1.97105E-01-5.40622E-02-6.61277E-15-7.02972E-13
 -1      1170 1.78741E+01-1.25027E-01-2.05028E-01 4.06484E-02 3.01113E-14-1.01327E-12
 -1      1171 1.91535E+01-6.68874E-02-1.13418E-01 1.12937E-01 1.10779E-14-4.49488E-13
 -1      1172 2.12149E+01 1.08576E-02 1.22846E-02 1.29284E-01-1.12429E-14-2.61957E-13
 -1      1173 2.31854E+01 6.30752E-02 9.95101E-02 9.80640E-02-7.11757E-15-5.01099E-13
 -1      1174 2.44667E+01 7.69587E-02 1.23554E-01 4.93608E-02 2.71224E-15-5.41137E-13
 -1      1175 2.48993E+01 6.41929E-02 1.02480E-01 7.72030E-03-3.25634E-14-6.33793E-13
 -1      1176 2.46308E+01 4.16262E-02 6.50879E-02-1.79208E-02 5.39269E-14-6.33651E-13
 -1      1177 2.39173E+01 2.00485E-02 3.04612E-02-2.93611E-02-2.20238E-14-2.38219E-13
 -1      1178 2.29948E+01 3.43110E-03 5.05481E-03-3.18128E-02 2.31492E-14-3.34691E-13
 -1      1179 2.20362E+01-8.46094E-03-1.24684E-02-2.95569E-02-3.53149E-14-3.82507E-13
 -1      1180 2.11604E+01-1.73997E-02-2.62099E-02-2.44695E-02-1.20327E-14-7.04391E-13
 -1      1181 2.04606E+01-2.45055E-02-3.80957E-02-1.52151E-02 3.87689E-14-1.67449E-13
 -1      1182 2.00393E+01-3.17224E-02-3.76713E-02 3.50614E-03 2.93849E-14 1.64399E-13
 -1      1183 1.99646E+01 1.18092E-02 2.26531E-02 1.26782E-02 3.68314E-14 1.54134E-13
 -1      1184 2.77897E+01 5.25736E-01 3.77271E-01 1.96668E+00-2.82760E-14 2.37366E-12
 -1      1185 2.00809E+01-6.62252E-02-5.73594E-01 1.29514E-01 1.20390E-14 2.04314E-12
 -1      1186 1.89024E+01-4.05949E-02-1.93227E-01 1.94367E-02 7.76375E-15 1.68930E-12
 -1      1187 1.85214E+01-2.14100E-02-5.05483E-02 1.47852E-03 4.16290E-15 1.40799E-12
 -1      1188 1.84486E+01-1.23996E-02-1.33911E-02-4.05358E-03-2.35489E-16 1.24498E-12
 -1      1189 1.85225E+01-7.39939E-03-4.64305E-03-5.49750E-03-3.39952E-15 1.14278E-12
 -1      1190 1.86646E+01-4.33540E-03-1.92010E-03-5.66479E-03 1.17887E-14 1.08390E-12
 -1      1191 1.88337E+01-2.38489E-03-3.53367E-04-5.35404E-03 5.13695E-15 9.56348E-13
 -1      1192 1.90067E+01-1.14613E-03 7.30897E-04-4.81627E-03-1.26307E-14 8.50136E-13
 -1      1193 1.91710E+01-3.92354E-04 1.38612E-03-4.16285E-03 1.71512E-14 8.08093E-13
 -1      1194 1.93200E+01 1.70244E-05 1.66729E-03-3.45819E-03 9.73141E-15 7.49859E-13
 -1      1195 1.94515E+01 1.72297E-04 1.65122E-03-2.74215E-03 6.89465E-15 8.10444E-13
 -1      1196 1.95660E+01 1.31168E-04 1.40383E-03-2.03813E-03 1.76308E-14 6.23462E-13
 -1      1197 1.96659E+01-7.13964E-05 9.68748E-04-1.35836E-03-1.44037E-14 5.58096E-13
 -1      1198 1.97554E+01-4.16935E-04 3.67727E-04-7.08247E-04 3.01934E-15 5.28857E-13
 -1      1199 1.98396E+01-8.98846E-04-3.95537E-04-9.03361E-05 1.31811E-14 3.36418E-13
 -1      1200 1.99248E+01-1.51809E-03-1.33083E-03 4.91511E-04-4.15090E-14 3.31062E-13
 -1      1201 2.00185E+01-2.27817E-03-2.45589E-03 1.02733E-03 1.10253E-14 2.56425E-13
 -1      1202 2.01292E+01-3.17825E-03-3.78867E-03 1.49512E-03 2.83462E-14-4.27652E-14
 -1      1203 2.02666E+01-4.20262E-03-5.33505E-03 1.85303E-03-3.65734E-14 1.17085E-13
 -1      1204 2.04416E+01-5.30437E-03-7.06880E-03 2.02925E-03-6.16607E-15 2.28244E-13
 -1      1205 2.06660E+01-6.38035E-03-8.89809E-03 1.90916E-03-1.24799E-14 2.78053E-13
 -1      1206 2.09514E+01-7.23418E-03-1.06116E-02 1.32111E-03 5.52997E-15 1.63413E-13
 -1      1207 2.13081E+01-7.52691E-03-1.17962E-02 2.59446E-05 2.98156E-17-7.88501E-14
 -1      1208 2.17420E+01-6.72283E-03-1.17248E-02-2.27623E-03-3.05496E-14 7.71449E-14
 -1      1209 2.22496E+01-4.05991E-03-9.23845E-03-5.89216E-03-2.79957E-14 4.99014E-13
 -1      1210 2.28110E+01 1.38321E-03-2.71130E-03-1.09808E-02-1.76013E-14 8.04785E-13
 -1      1211 2.33793E+01 1.03864E-02 9.69113E-03-1.72237E-02 1.30707E-14 3.69454E-13
 -1      1212 2.38698E+01 2.28721E-02 2.90922E-02-2.32796E-02-3.13159E-14 3.40629E-13
 -1      1213 2.41529E+01 3.67198E-02 5.39678E-02-2.61704E-02 6.72986E-15 3.13465E-13
 -1      1214 2.40639E+01 4.66077E-02 7.74934E-02-2.12168E-02 1.81474E-14 3.48443E-13
 -1      1215 2.34474E+01 4.44720E-02 8.62457E-02-3.69992E-03 1.62596E-14 4.55289E-13
 -1      1216 2.22470E+01 2.37481E-02 6.44514E-02 2.68500E-02 1.97065E-15 5.87502E-13
 -1      1217 2.06179E+01-1.30026E-02 6.23546E-03 6.15924E-02-4.06126E-15 4.58120E-13
 -1      1218 1.89776E+01-5.00816E-02-7.09755E-02 8.26791E-02 2.33151E-14 2.13954E-13
 -1      1219 1.78903E+01-6.68731E-02-1.28898E-01 7.36014E-02 6.82787E-15-8.39884E-14
 -1      1220 1.77851E+01-5.45723E-02-1.33709E-01 3.39266E-02 4.38182E-14-4.89012E-13
 -1      1221 1.86888E+01-2.36661E-02-8.43312E-02-1.74484E-02-1.09144E-14-4.74426E-13
 -1      1222 2.02078E+01 7.07834E-03-1.26289E-02-5.60449E-02 4.85723E-16-1.43746E-13
 -1      1223 2.17728E+01 2.55996E-02 4.46367E-02-6.90060E-02-1.54694E-14-3.21743E-13
 -1      1224 2.29342E+01 3.06850E-02 7.03064E-02-5.96455E-02-5.04640E-14 2.43305E-13
 -1      1225 2.35009E+01 2.69027E-02 6.83209E-02-3.92933E-02-1.59347E-14 7.49612E-13
 -1      1226 2.35052E+01 1.93469E-02 5.16004E-02-1.81031E-02 1.76074E-14 1.74708E-13
 -1      1227 2.30954E+01 1.12415E-02 3.14092E-02-1.30233E-03 1.52892E-14-1.81430E-13
 -1      1228 2.24437E+01 3.78083E-03 1.33946E-02 1.00890E-02-9.03574E-15 2.97970E-13
 -1      1229 2.16998E+01-3.14041E-03-1.70121E-03 1.71248E-02-8.55059E-15-2.13371E-14
 -1      1230 2.09819E+01-1.01851E-02-1.56509E-02 2.10287E-02 3.15154E-14-5.78610E-13
 -1      1231 2.03907E+01-1.69113E-02-2.85910E-02 2.11984E-02 1.33604E-14-1.04378E-12
 -1      1232 2.00291E+01-1.66625E-02-2.85493E-02 1.20468E-02 2.49844E-15-5.76911E-13
 -1      1233 1.99728E+01 9.63651E-03 2.11805E-02-9.83060E-03-4.57518E-14-3.35201E-13
 -1      1234 2.00094E+01-2.82056E-02 1.96905E-02-9.15528E-03-3.97387E-13-1.42625E-14
 -1      1235 1.99790E+01 3.51765E-02-3.03377E-02-4.15841E-03-2.56502E-13 9.99175E-14
 -1      1236 1.99811E+01 3.93800E-01-3.02290E-02 1.38528E-02 3.51644E-13-6.81467E-14
 -1      1237 1.99896E+01 9.67202E-01-1.64441E-02 2.14743E-02 1.91382E-13-1.21143E-13
 -1      1238 1.99996E+01 1.64608E+00-1.24566E-03 2.38167E-02-3.25590E-13-5.20871E-14
 -1      1239 2.00096E+01 2.32502E+00 1.30178E-02 2.24617E-02-8.12350E-13-1.61075E-13
 -1      1240 2.00187E+01 2.91667E+00 2.54876E-02 1.83514E-02-7.43426E-13 1.89450E-13
 -1      1241 2.00259E+01 3.34160E+00 3.51856E-02 1.11771E-02-6.47954E-14-1.13569E-13
 -1      1242 2.00295E+01 3.52846E+00 4.01241E-02 2.05330E-03-6.05425E-14 1.78087E-13
 -1      1243 2.00286E+01 3.44391E+00 3.91446E-02-7.71649E-03 1.45605E-13 2.01285E-13
 -1      1244 2.00233E+01 3.09469E+00 3.21176E-02-1.65886E-02-1.18813E-13-1.70652E-13
 -1      1245 2.00150E+01 2.53358E+00 2.02500E-02-2.32104E-02-1.41644E-12-1.50153E-13
 -1      1246 2.00037E+01 1.83710E+00 4.48828E-03-2.63260E-02-1.03468E-12-1.47897E-14
 -1      1247 1.99913E+01 1.10121E+00-1.45242E-02-2.54886E-02-5.68469E-14-7.72442E-14
 -1      1248 1.99789E+01 4.46930E-01-3.54210E-02-2.07696E-02-1.59622E-13-8.70079E-14
 -1      1249 1.99695E+01 5.70623E-02-3.27412E-02 1.05783E-02-1.25173E-13-9.24599E-14
 -1      1250 2.00128E+01-3.47616E-02 2.28231E-02 1.10285E-02-7.43693E-14 4.35999E-14
 -1      1251-1.37293E+00-2.39648E+01-3.80106E+00-2.27005E+00 2.06501E-14 1.55334E-13
 -1      1252-1.81105E+00-1.43441E+01-3.05148E+00-3.91353E+00 1.39466E-12 4.57467E-13
 -1      1253 8.51405E-01-1.16025E+00-1.69713E+00 6.34501E-01 7.20757E-13 4.01901E-13
 -1      1254 1.02448E+01 8.36839E+00-7.37741E-02 9.06312E+00 2.07168E-13 1.35447E-13
 -1      1255 2.67727E+01 1.11176E+01 1.54306E+00 1.63043E+01 9.57012E-14 1.08358E-13
 -1      1256 4.69818E+01 7.88857E+00 2.99934E+00 1.76501E+01-8.73190E-14-1.76525E-13
 -1      1257 6.24957E+01 3.24086E+00 3.96327E+00 1.00932E+01-3.63737E-14-7.71494E-13
 -1      1258 6.65943E+01 1.76049E+00 4.19289E+00-2.53145E+00 3.99611E-14-1.32894E-12
 -1      1259 5.71895E+01 4.76682E+00 3.58946E+00-1.39504E+01 3.36758E-13-1.31650E-12
 -1      1260 3.86055E+01 9.66341E+00 2.40481E+00-1.80354E+01 1.06770E-12-1.90026E-12
 -1      1261 1.82421E+01 1.04105E+01 7.51073E-01-1.31895E+01 1.39111E-12-1.74194E-12
 -1      1262 3.98799E+00 3.35516E+00-1.09502E+00-4.00304E+00 8.78408E-13-8.52429E-13
 -1      1263-1.29727E+00-9.04494E+00-2.48717E+00 2.62828E+00 3.71925E-13-1.47216E-13
 -1      1264-1.46681E+00-2.10821E+01-3.55272E+00 3.67179E+00 2.06501E-13 7.25808E-15
 -1      1265-1.10009E+00-2.48978E+01-3.74505E+00-2.41115E-01-9.85600E-14-2.94417E-14
 -1      1266-1.57138E+00-2.03358E+01-3.50609E+00-3.95374E+00-9.14602E-13-3.36176E-13
 -1      1267-1.31306E+00-8.30130E+00-2.47725E+00-2.62244E+00-1.49325E-12-6.88782E-13
 -1      1268 4.30501E+00 3.81508E+00-1.08293E+00 4.33468E+00-1.39888E-12-1.03340E-12
 -1      1269 1.78464E+01 1.04377E+01 6.79874E-01 1.31554E+01-1.01030E-12-1.19793E-12
 -1      1270 3.78017E+01 9.77308E+00 2.35589E+00 1.77930E+01-5.74762E-13-1.04006E-12
 -1      1271 5.78365E+01 4.78836E+00 3.67757E+00 1.38122E+01-1.83326E-13-5.84310E-13
 -1      1272 6.74519E+01 1.59858E+00 4.26981E+00 1.93958E+00-6.19158E-14-5.93747E-13
 -1      1273 6.23281E+01 3.36502E+00 3.94931E+00-1.09728E+01 1.30077E-13-5.30687E-13
 -1      1274 4.56771E+01 8.38860E+00 2.93062E+00-1.78585E+01 2.57017E-13-5.90417E-13
 -1      1275 2.54111E+01 1.10758E+01 1.39308E+00-1.60157E+01-3.51941E-13 3.44391E-13
 -1      1276 8.66449E+00 7.34161E+00-3.48941E-01-7.87800E+00-9.78106E-13 7.63611E-13
 -1      1277 2.62744E-02-3.11965E+00-1.93940E+00 5.55499E-01-3.05089E-13 2.63234E-13
 -1      1278-1.89544E+00-1.58644E+01-3.18249E+00 4.15549E+00 2.75113E-13-2.04836E-14
 -1      1279-1.35966E+00-2.45145E+01-3.87375E+00 2.14575E+00-1.74527E-13-1.51580E-14
 -1      1280 2.22635E+01 1.83800E+00-7.25835E-01-2.79112E+00-6.80567E-14 5.26079E-13
 -1      1281 2.03566E+01 4.68972E+00-4.87684E-02-3.30812E+00-1.43052E-13-3.57915E-13
 -1      1282 2.08637E+01 4.81018E+00-1.13445E-01-4.16218E+00-1.99535E-13-1.75117E-13
 -1      1283 1.95294E+01 4.99364E+00-1.97145E-02-2.65611E+00-1.18384E-13-5.95676E-13
 -1      1284 1.98270E+01 5.08986E+00-1.83356E-05-3.04683E+00-1.42900E-13-5.00537E-13
 -1      1285 2.05233E+01 3.95256E+00-2.60147E-02-3.07582E+00-2.42650E-13-3.11001E-13
 -1      1286 1.91847E+01 5.08403E+00-3.37351E-03-2.07247E+00-7.00204E-14-6.92016E-13
 -1      1287 1.93321E+01 5.13900E+00 1.04946E-02-2.36581E+00-9.20583E-14-6.53200E-13
 -1      1288 1.97535E+01 4.36691E+00-2.38704E-02-2.49204E+00-1.74031E-13-5.06054E-13
 -1      1289 1.90100E+01 5.13106E+00 3.49789E-03-1.56610E+00-3.50319E-14-7.21955E-13
 -1      1290 1.90875E+01 5.16057E+00 1.28043E-02-1.81616E+00-4.53717E-14-7.13478E-13
 -1      1291 1.93929E+01 4.55491E+00-1.94915E-02-1.93296E+00-9.80006E-14-5.86597E-13
 -1      1292 1.89174E+01 5.16088E+00 6.59626E-03-1.11830E+00-8.63892E-15-7.04613E-13
 -1      1293 1.89592E+01 5.17710E+00 1.27771E-02-1.33989E+00-1.56142E-14-7.16390E-13
 -1      1294 1.92068E+01 4.66133E+00-1.60433E-02-1.44613E+00-4.32237E-14-6.06890E-13
 -1      1295 1.88667E+01 5.18079E+00 8.22364E-03-6.94661E-01 2.28611E-14-6.76523E-13
 -1      1296 1.88893E+01 5.18954E+00 1.20172E-02-9.05072E-01 1.56264E-14-6.93973E-13
 -1      1297 1.91050E+01 4.72674E+00-1.39959E-02-1.00536E+00 2.81632E-15-5.96311E-13
 -1      1298 1.88433E+01 5.19278E+00 9.31877E-03-2.89531E-01 5.43948E-14-6.42396E-13
 -1      1299 1.88530E+01 5.19655E+00 1.10900E-02-4.91866E-01 4.28381E-14-6.59018E-13
 -1      1300 1.90501E+01 4.76576E+00-1.29214E-02-5.89458E-01 5.02915E-14-5.61912E-13
 -1      1301 1.88397E+01 5.19773E+00 1.02485E-02 1.08334E-01 7.65571E-14-6.05561E-13
 -1      1302 1.88393E+01 5.19760E+00 1.01772E-02-9.15600E-02 6.88009E-14-6.27543E-13
 -1      1303 1.90263E+01 4.78381E+00-1.24711E-02-1.89322E-01 1.01613E-13-5.33792E-13
 -1      1304 1.88547E+01 5.19620E+00 1.11829E-02 5.09223E-01 1.04375E-13-5.68311E-13
 -1      1305 1.88443E+01 5.19214E+00 9.25535E-03 3.06470E-01 9.84103E-14-5.89822E-13
 -1      1306 1.90271E+01 4.78317E+00-1.24881E-02 2.06004E-01 1.44313E-13-4.96186E-13
 -1      1307 1.88926E+01 5.18839E+00 1.21107E-02 9.23907E-01 1.26007E-13-5.18181E-13
 -1      1308 1.88692E+01 5.17947E+00 8.16429E-03 7.12537E-01 1.18184E-13-5.50619E-13
 -1      1309 1.90527E+01 4.76370E+00-1.29745E-02 6.06822E-01 1.80280E-13-4.59428E-13
 -1      1310 1.89636E+01 5.17523E+00 1.29078E-02 1.35746E+00 1.47731E-13-4.42106E-13
 -1      1311 1.89209E+01 5.15864E+00 6.47723E-03 1.13442E+00 1.39151E-13-4.88099E-13
 -1      1312 1.91094E+01 4.72320E+00-1.39977E-02 1.02052E+00 2.19104E-13-4.13815E-13
 -1      1313 1.90951E+01 5.15658E+00 1.28237E-02 1.84234E+00 1.82127E-13-3.23873E-13
 -1      1314 1.90162E+01 5.12641E+00 3.16732E-03 1.58945E+00 1.67040E-13-3.91819E-13
 -1      1315 1.92139E+01 4.65476E+00-1.61433E-02 1.46393E+00 2.56115E-13-3.26787E-13
 -1      1316 1.93426E+01 5.13315E+00 1.01514E-02 2.39948E+00 2.04534E-13-1.38872E-13
 -1      1317 1.91931E+01 5.07622E+00-4.36257E-03 2.10221E+00 1.89598E-13-2.51115E-13
 -1      1318 1.94052E+01 4.54225E+00-1.99847E-02 1.95979E+00 3.00372E-13-2.03389E-13
 -1      1319 1.98529E+01 5.09896E+00 6.00767E-03 3.08544E+00 2.14176E-13 1.72945E-13
 -1      1320 1.95415E+01 4.98414E+00-2.05426E-02 2.69817E+00 1.95198E-13-1.37737E-14
 -1      1321 1.97732E+01 4.34619E+00-2.45691E-02 2.52968E+00 3.19359E-13-1.49880E-15
 -1      1322 2.10998E+01 4.90656E+00 8.25901E-03 4.05507E+00 1.62426E-13 7.26044E-13
 -1      1323 2.03312E+01 4.73349E+00-4.79894E-02 3.41767E+00 1.63425E-13 3.95080E-13
 -1      1324 2.05617E+01 3.91573E+00-2.24335E-02 3.17986E+00 3.02210E-13 3.36342E-13
 -1      1325 2.71992E+01 3.20522E+00 9.29081E-01 4.58275E+00 5.82867E-14 1.66439E-12
 -1      1326 2.20164E+01 3.52193E+00-1.82013E-01 3.88587E+00 6.88893E-14 1.02321E-12
 -1      1327 2.21085E+01 2.56171E+00-3.25889E-02 3.45776E+00 2.52407E-13 8.31307E-13
 -1      1328 2.14227E+01 3.59641E-01-7.63510E-01 1.18447E+00 1.20771E-13 1.63586E-12
 -1      1329 2.19970E+01 1.31353E-01-4.00858E-01-1.28645E+00-1.71349E-13 6.09207E-13
 -1      1330 2.06735E+01 3.06765E-01-1.64819E-01-8.06434E-01-1.55896E-13 4.07382E-13
 -1      1331 2.00753E+01 1.53525E-01-7.35336E-02-4.02707E-01-1.32835E-13 3.29851E-13
 -1      1332 1.96048E+01 9.12218E-02-1.49106E-02-3.30517E-01-1.28231E-13 1.37081E-13
 -1      1333 2.09677E+01 3.69363E-01-1.04174E-01-1.27515E+00-2.74239E-13 1.03893E-13
 -1      1334 1.92469E+01 6.44929E-02 3.05884E-03-1.35889E-01-1.06457E-13 7.32955E-14
 -1      1335 1.90919E+01 4.12424E-02 1.32472E-02-1.18105E-01-9.26516E-14-6.46913E-14
 -1      1336 1.99160E+01 1.33907E-01-3.51104E-02-5.05045E-01-2.21927E-13-2.29330E-15
 -1      1337 1.89310E+01 3.14988E-02 1.32654E-02-2.86446E-02-7.71640E-14-1.27714E-13
 -1      1338 1.89108E+01 1.93690E-02 1.10726E-02-1.92825E-02-8.23955E-14-2.51649E-13
 -1      1339 1.94378E+01 5.54114E-02-8.49034E-03-1.71161E-01-1.63553E-13-1.10998E-13
 -1      1340 1.88542E+01 1.59916E-02 8.79095E-03 2.43249E-02-5.91545E-14-2.79807E-13
 -1      1341 1.88956E+01 9.07146E-03 6.44169E-03 2.89449E-02-4.99362E-14-3.49944E-13
 -1      1342 1.92278E+01 2.43534E-02-3.50563E-03-1.24435E-02-1.24799E-13-2.12241E-13
 -1      1343 1.88951E+01 7.84849E-03 4.68820E-03 5.01020E-02-4.77886E-14-3.63952E-13
 -1      1344 1.89645E+01 3.51978E-03 3.65627E-03 5.19898E-02-2.24140E-14-4.11299E-13
 -1      1345 1.91699E+01 1.01742E-02-2.22208E-03 6.61921E-02-8.88751E-14-2.62527E-13
 -1      1346 1.89936E+01 3.20575E-03 2.46753E-03 6.08336E-02-7.84106E-15-4.09412E-13
 -1      1347 1.90732E+01 3.85286E-04 2.23476E-03 6.11129E-02-2.79628E-14-4.43633E-13
 -1      1348 1.91951E+01 2.78370E-03-1.33400E-03 1.03077E-01-4.29242E-14-2.76546E-13
 -1      1349 1.91165E+01 5.07284E-04 1.36617E-03 6.29430E-02-4.65659E-14-4.60126E-13
 -1      1350 1.91966E+01-1.34737E-03 1.47371E-03 6.22979E-02-5.64097E-14-5.16578E-13
 -1      1351 1.92635E+01-1.23663E-03-5.83256E-04 1.16585E-01-6.52737E-14-3.28154E-13
 -1      1352 1.92452E+01-1.00469E-03 7.91583E-04 6.02136E-02-6.31954E-14-5.60777E-13
 -1      1353 1.93205E+01-2.19851E-03 1.01879E-03 5.90902E-02-8.35754E-14-6.43725E-13
 -1      1354 1.93516E+01-3.33876E-03-4.60111E-05 1.16799E-01-1.20478E-13-3.40397E-13
 -1      1355 1.93694E+01-1.74552E-03 4.67686E-04 5.50488E-02-7.87465E-14-6.45303E-13
 -1      1356 1.94374E+01-2.46674E-03 7.25443E-04 5.37497E-02-1.57771E-14-7.22917E-13
 -1      1357 1.94456E+01-4.24507E-03 2.74832E-04 1.09821E-01-9.83169E-14-3.66312E-13
 -1      1358 1.94839E+01-1.96280E-03 2.78636E-04 4.90524E-02 3.52191E-14-8.01705E-13
 -1      1359 1.95439E+01-2.33574E-03 5.33441E-04 4.77874E-02-3.30373E-15-7.80176E-13
 -1      1360 1.95380E+01-4.36242E-03 4.20686E-04 9.95989E-02-4.12172E-14-4.24653E-13
 -1      1361 1.95870E+01-1.81044E-03 1.71845E-04 4.33350E-02-2.97976E-14-7.59705E-13
 -1      1362 1.96396E+01-1.92033E-03 4.13298E-04 4.22547E-02-2.49108E-14-7.96382E-13
 -1      1363 1.96250E+01-3.93623E-03 4.35856E-04 8.88071E-02-1.13870E-14-5.89476E-13
 -1      1364 1.96794E+01-1.38343E-03 1.19005E-04 3.87002E-02-8.76680E-15-7.51684E-13
 -1      1365 1.97263E+01-1.28941E-03 3.47645E-04 3.79183E-02-2.89938E-14-7.76066E-13
 -1      1366 1.97057E+01-3.11542E-03 3.53911E-04 7.93353E-02-5.99520E-15-6.15269E-13
 -1      1367 1.97638E+01-7.36114E-04 1.02173E-04 3.57690E-02-2.99318E-14-7.41908E-13
 -1      1368 1.98070E+01-4.79015E-04 3.24843E-04 3.53798E-02-1.19896E-14-7.88134E-13
 -1      1369 1.97813E+01-1.98369E-03 1.96751E-04 7.25944E-02-5.99399E-14-5.47552E-13
 -1      1370 1.98441E+01 1.07001E-04 1.08391E-04 3.50694E-02-1.19122E-14-7.56961E-13
 -1      1371 1.98865E+01 4.99007E-04 3.36272E-04 3.51607E-02-2.02814E-14-7.73701E-13
 -1      1372 1.98543E+01-5.77035E-04-2.32213E-05 6.97270E-02-6.64106E-15-4.66070E-13
 -1      1373 1.99254E+01 1.14372E-03 1.26991E-04 3.71030E-02-1.57494E-14-7.58331E-13
 -1      1374 1.99704E+01 1.65016E-03 3.74634E-04 3.77661E-02-2.60798E-14-7.81868E-13
 -1      1375 1.99287E+01 1.10462E-03-3.00769E-04 7.17593E-02-1.92104E-14-4.49766E-13
 -1      1376 2.00139E+01 2.38778E-03 1.47708E-04 4.23919E-02-3.66707E-14-8.17691E-13
 -1      1377 2.00657E+01 2.99060E-03 4.32415E-04 4.37289E-02-6.22444E-14-8.47690E-13
 -1      1378 2.00094E+01 3.08787E-03-6.35754E-04 7.97102E-02-7.31119E-14-4.48991E-13
 -1      1379 2.01173E+01 3.86201E-03 1.58975E-04 5.15079E-02-9.56448E-14-8.84193E-13
 -1      1380 2.01806E+01 4.53893E-03 5.00122E-04 5.36354E-02-8.12914E-14-9.95964E-13
 -1      1381 2.01026E+01 5.41570E-03-1.03113E-03 9.46631E-02-1.04723E-13-5.83766E-13
 -1      1382 2.02441E+01 5.58888E-03 1.46125E-04 6.50770E-02-8.16133E-15-1.02000E-12
 -1      1383 2.03246E+01 6.30416E-03 5.64018E-04 6.81247E-02-2.14990E-14-1.04625E-12
 -1      1384 2.02153E+01 8.13362E-03-1.49061E-03 1.17793E-01-1.02643E-13-5.32942E-13
 -1      1385 2.04046E+01 7.57562E-03 8.94822E-05 8.37475E-02 4.27704E-14-1.04060E-12
 -1      1386 2.05085E+01 8.26615E-03 6.03278E-04 8.78496E-02 1.05649E-14-9.50524E-13
 -1      1387 2.03559E+01 1.12675E-02-2.01543E-03 1.50332E-01 4.23617E-14-6.18965E-13
 -1      1388 2.06100E+01 9.78891E-03-3.72562E-05 1.08100E-01 1.11971E-14-8.77376E-13
 -1      1389 2.07445E+01 1.03428E-02 5.87006E-04 1.13372E-01 9.34951E-14-7.91984E-13
 -1      1390 2.05334E+01 1.47849E-02-2.59942E-03 1.93439E-01 6.10336E-14-6.40868E-13
 -1      1391 2.08725E+01 1.21112E-02-2.66928E-04 1.38454E-01 7.81829E-14-8.12915E-13
 -1      1392 2.10451E+01 1.23349E-02 4.72809E-04 1.44944E-01 2.50505E-14-7.22365E-13
 -1      1393 2.07578E+01 1.85270E-02-3.22079E-03 2.47903E-01 9.94166E-14-6.38949E-13
 -1      1394 2.12045E+01 1.42669E-02-6.33589E-04 1.74510E-01 2.02512E-14-6.50400E-13
 -1      1395 2.14220E+01 1.38378E-02 2.11440E-04 1.82110E-01 1.26088E-14-6.99962E-13
 -1      1396 2.10388E+01 2.20917E-02-3.82813E-03 3.13581E-01 8.12579E-14-4.56061E-13
 -1      1397 2.16165E+01 1.57050E-02-1.15460E-03 2.14716E-01 3.45054E-14-6.84790E-13
 -1      1398 2.18836E+01 1.41098E-02-2.33241E-04 2.23003E-01 2.87871E-14-6.30520E-13
 -1      1399 2.13850E+01 2.46419E-02-4.31670E-03 3.88398E-01 2.19126E-14-3.97635E-13
 -1      1400 2.21140E+01 1.54285E-02-1.78758E-03 2.55250E-01-4.98900E-14-6.10958E-13
 -1      1401 2.24299E+01 1.19059E-02-8.34475E-04 2.63221E-01-2.51817E-14-6.34340E-13
 -1      1402 2.18010E+01 2.46229E-02-4.48982E-03 4.66704E-01 5.86944E-15-3.90251E-13
 -1      1403 2.26916E+01 1.17967E-02-2.34793E-03 2.88520E-01 3.30419E-14-6.34569E-13
 -1      1404 2.30448E+01 5.34398E-03-1.41073E-03 2.94206E-01-2.52684E-14-7.24773E-13
 -1      1405 2.22840E+01 1.94191E-02-4.00338E-03 5.36803E-01-1.30460E-14-3.33130E-13
 -1      1406 2.33245E+01 2.42051E-03-2.39024E-03 3.01346E-01-6.76693E-14-6.87873E-13
 -1      1407 2.36858E+01-7.98694E-03-1.51171E-03 3.01352E-01-7.87958E-14-7.81691E-13
 -1      1408 2.28178E+01 5.13639E-03-2.30726E-03 5.77783E-01-5.39209E-14-4.22236E-13
 -1      1409 2.39567E+01-1.55071E-02-1.12870E-03 2.73656E-01 1.07366E-14-7.15591E-13
 -1      1410 2.42701E+01-3.01928E-02-3.79431E-04 2.62900E-01 2.79412E-14-7.20153E-13
 -1      1411 2.33652E+01-2.29351E-02 1.35490E-03 5.56689E-01 2.47766E-14-4.60415E-13
 -1      1412 2.44887E+01-4.37063E-02 2.40309E-03 1.80039E-01 4.84699E-14-6.50388E-13
 -1      1413 2.46667E+01-6.07721E-02 2.75188E-03 1.52478E-01 8.76521E-14-5.44042E-13
 -1      1414 2.38599E+01-6.80186E-02 7.73517E-03 4.29241E-01 1.12519E-13-2.90188E-13
 -1      1415 2.47723E+01-7.94089E-02 8.57223E-03-1.55534E-03-3.54638E-14-6.24379E-13
 -1      1416 2.47044E+01-9.26828E-02 7.74425E-03-4.99640E-02-1.26305E-13-6.78294E-13
 -1      1417 2.42016E+01-1.26444E-01 1.68601E-02 1.50665E-01-2.21698E-14-4.30864E-13
 -1      1418 2.46306E+01-1.10648E-01 1.57124E-02-2.69923E-01-3.09145E-14-6.82135E-13
 -1      1419 2.42192E+01-1.08266E-01 1.22910E-02-3.35201E-01 2.50286E-14-6.66668E-13
 -1      1420 2.42648E+01-1.80082E-01 2.65637E-02-2.95258E-01-1.15630E-13-3.26350E-13
 -1      1421 2.39199E+01-1.12057E-01 1.88163E-02-5.70159E-01 2.50511E-14-7.39298E-13
 -1      1422 2.31520E+01-8.06629E-02 1.11390E-02-6.31389E-01-5.98323E-14-7.56839E-13
 -1      1423 2.39321E+01-1.89056E-01 3.14562E-02-8.47485E-01-2.81754E-14-4.10807E-13
 -1      1424 2.26507E+01-5.68596E-02 1.12420E-02-7.74980E-01-1.32869E-14-7.17912E-13
 -1      1425 2.16779E+01 4.47003E-03 3.87599E-05-7.95586E-01 2.55915E-14-7.85594E-13
 -1      1426 2.31674E+01-1.10157E-01 2.22514E-02-1.31965E+00-1.34927E-14-4.70464E-13
 -1      1427 2.11109E+01 5.36673E-02-7.06376E-03-7.30716E-01 8.35738E-14-7.51288E-13
 -1      1428 2.02537E+01 1.20781E-01-1.83538E-02-6.79618E-01 1.09398E-13-5.79280E-13
 -1      1429 2.21176E+01 6.22336E-02-4.86611E-03-1.43393E+00 6.81074E-14-4.51219E-13
 -1      1430 1.98511E+01 1.64197E-01-2.66384E-02-3.75525E-01-2.78909E-14-5.96051E-13
 -1      1431 1.94667E+01 1.96785E-01-3.20372E-02-2.63568E-01-3.78135E-14-6.66146E-13
 -1      1432 2.11463E+01 2.51846E-01-3.98975E-02-9.92746E-01 7.05252E-14-4.06074E-13
 -1      1433 1.94218E+01 2.00718E-01-3.29236E-02 1.58458E-01 4.88221E-14-6.64263E-13
 -1      1434 1.96829E+01 1.75602E-01-2.90583E-02 2.75915E-01 8.04218E-14-5.40609E-13
 -1      1435 2.06947E+01 3.43676E-01-5.84479E-02-1.00322E-01-3.62696E-14-4.47452E-13
 -1      1436 2.00128E+01 1.34390E-01-2.11286E-02 6.06137E-01 1.78095E-13-5.16101E-13
 -1      1437 2.07843E+01 6.90985E-02-1.04622E-02 6.66585E-01 8.72930E-14-3.49915E-13
 -1      1438 2.09851E+01 2.72482E-01-4.44508E-02 8.27292E-01 1.74999E-13-3.03037E-13
 -1      1439 2.13075E+01 1.81601E-02-1.98670E-03 7.62303E-01-4.76160E-14-7.48845E-14
 -1      1440 2.22418E+01-4.59873E-02 9.70239E-03 7.49357E-01-9.58912E-15-1.60705E-13
 -1      1441 2.18423E+01 8.68367E-02-9.28060E-03 1.33947E+00 1.59388E-13-1.40651E-13
 -1      1442 2.27234E+01-7.44369E-02 1.08640E-02 6.23918E-01-7.65239E-14-2.51729E-13
 -1      1443 2.34811E+01-1.10179E-01 1.87632E-02 5.64814E-01-1.43155E-13-3.93026E-13
 -1      1444 2.28337E+01-9.43407E-02 2.06815E-02 1.28531E+00-8.96531E-14 7.02494E-14
 -1      1445 2.37676E+01-1.09987E-01 1.30786E-02 3.30331E-01 2.06779E-15-5.01627E-13
 -1      1446 2.41712E+01-1.15622E-01 1.66996E-02 2.62697E-01-7.77538E-14-4.92884E-13
 -1      1447 2.35692E+01-1.88041E-01 3.21535E-02 8.34558E-01-1.66971E-13-7.67823E-14
 -1      1448 2.42246E+01-9.94769E-02 8.97344E-03 3.03510E-02-5.37244E-14-6.22556E-13
 -1      1449 2.42664E+01-8.72404E-02 9.72278E-03-2.26465E-02-1.47044E-14-6.00205E-13
 -1      1450 2.38708E+01-1.89689E-01 2.86232E-02 2.66618E-01-1.25584E-13-4.58081E-13
 -1      1451 2.41254E+01-6.86221E-02 3.92746E-03-1.93389E-01 1.04118E-13-5.97109E-13
 -1      1452 2.38957E+01-5.07568E-02 3.39575E-03-2.25378E-01 1.37080E-13-5.14613E-13
 -1      1453 2.37528E+01-1.40204E-01 1.90065E-02-2.15307E-01 6.56974E-14-5.04024E-13
 -1      1454 2.36273E+01-3.66436E-02 7.17745E-04-3.22705E-01 6.91634E-15-3.91928E-13
 -1      1455 2.32393E+01-2.00130E-02-2.90086E-04-3.36729E-01 3.07484E-14-4.02036E-13
 -1      1456 2.33269E+01-8.01888E-02 9.47548E-03-5.31399E-01 1.54243E-13-4.54126E-13
 -1      1457 2.29088E+01-1.15535E-02-4.56853E-04-3.72909E-01 8.22440E-14-4.03455E-13
 -1      1458 2.24591E+01 1.75594E-03-1.68405E-03-3.74407E-01 5.84934E-14-3.19071E-13
 -1      1459 2.27242E+01-3.04819E-02 2.35763E-03-6.86292E-01 1.73278E-13-2.85337E-13
 -1      1460 2.21180E+01 6.22495E-03-5.68821E-04-3.66498E-01-1.35096E-14-2.89109E-13
 -1      1461 2.16774E+01 1.66818E-02-2.05366E-03-3.59730E-01-6.78548E-14-3.24758E-13
 -1      1462 2.20573E+01 4.85508E-03-2.39511E-03-7.16750E-01 2.02716E-15-1.79518E-13
 -1      1463 2.13637E+01 1.95653E-02-9.10631E-04-3.20006E-01-7.22512E-15-3.45359E-13
 -1      1464 2.09836E+01 2.83680E-02-2.67659E-03-3.06900E-01 7.03886E-14-3.00510E-13
 -1      1465 2.14109E+01 3.02945E-02-5.74273E-03-6.58231E-01-1.92077E-15-1.63960E-13
 -1      1466 2.07246E+01 3.18001E-02-2.48110E-03-2.40873E-01 1.45584E-13-3.42290E-13
 -1      1467 2.04487E+01 3.94512E-02-3.36112E-03-2.20889E-01 1.56308E-13-8.14314E-14
 -1      1468 2.08467E+01 5.27273E-02-8.34195E-03-5.31501E-01 7.94052E-14-1.37109E-13
 -1      1469 2.02605E+01 4.74510E-02-3.38802E-03-1.29615E-01 1.37834E-13-3.39949E-14
 -1      1470 2.01248E+01 4.49783E-02 4.11170E-05-1.03692E-01 6.42021E-15 1.37211E-13
 -1      1471 2.04059E+01 7.78542E-02-9.60207E-03-3.46662E-01 2.60405E-13-6.38934E-14
 -1      1472 2.00003E+01 1.48155E-02 2.62003E-03 4.91927E-03-2.35730E-13 2.36950E-13
 -1      1473 2.00866E+01 7.42582E-02-4.18128E-03-9.92724E-02-1.19949E-13 9.69602E-15
 -1      1474 2.02542E+01 7.54833E-02-1.52113E-01 4.84371E-01 1.18405E-13 1.37197E-12
 -1      1475 2.15252E+01 2.16114E-01-2.29290E-01 7.21384E-01 1.01114E-13 1.53912E-12
 -1      1476 2.17241E+01 8.81844E-01-8.54406E-02 2.06579E+00 1.95732E-13 1.06075E-12
 -1      1477 1.93246E+01 3.23749E-02-2.13410E-02 1.86532E-01 9.69121E-14 1.12794E-12
 -1      1478 1.97460E+01 1.13602E-01-6.27135E-02 2.38532E-01 9.23324E-14 1.28000E-12
 -1      1479 2.02979E+01 1.87699E-01-5.51810E-02 7.87141E-01 1.78225E-13 8.77327E-13
 -1      1480 1.89415E+01 1.50955E-02 5.66628E-03 5.40651E-02 5.69683E-14 9.51933E-13
 -1      1481 1.90809E+01 5.16022E-02 9.71060E-04 8.03580E-02 6.04855E-14 1.05138E-12
 -1      1482 1.95518E+01 7.18294E-02-1.21454E-02 2.99994E-01 1.41907E-13 7.21723E-13
 -1      1483 1.88296E+01 7.11130E-03 6.97911E-03-8.38875E-03 3.43384E-14 8.42605E-13
 -1      1484 1.88450E+01 2.58327E-02 1.10875E-02 5.98596E-03 3.41584E-14 8.97785E-13
 -1      1485 1.92153E+01 3.10181E-02-2.45074E-03 8.45691E-02 8.75376E-14 5.88939E-13
 -1      1486 1.88541E+01 3.20336E-03 4.78744E-03-3.86028E-02 3.63975E-14 7.75264E-13
 -1      1487 1.88112E+01 1.37812E-02 8.52256E-03-3.05124E-02 2.14800E-14 8.09191E-13
 -1      1488 1.90975E+01 1.32468E-02-1.60361E-03-2.03445E-02 5.29360E-14 5.19819E-13
 -1      1489 1.89466E+01 1.06091E-03 3.29768E-03-5.20271E-02 4.61449E-14 7.08270E-13
 -1      1490 1.88771E+01 7.26388E-03 5.37274E-03-4.75795E-02 3.23946E-14 7.49666E-13
 -1      1491 1.90975E+01 4.53485E-03-1.61901E-03-7.18012E-02 5.33078E-14 4.54966E-13
 -1      1492 1.90695E+01-1.63036E-04 2.51146E-03-5.60498E-02 2.36287E-14 6.12390E-13
 -1      1493 1.89903E+01 3.45711E-03 3.43942E-03-5.38467E-02 4.14743E-14 6.74728E-13
 -1      1494 1.91591E+01-8.00725E-05-1.36631E-03-9.45176E-02 5.95982E-14 4.15996E-13
 -1      1495 1.92012E+01-8.32738E-04 2.04100E-03-5.47499E-02 1.88925E-14 5.66497E-13
 -1      1496 1.91218E+01 1.17108E-03 2.34153E-03-5.39417E-02 1.72393E-14 5.95250E-13
 -1      1497 1.92504E+01-2.53693E-03-9.97587E-04-1.00982E-01 4.80905E-14 3.73552E-13
 -1      1498 1.93296E+01-1.13944E-03 1.68789E-03-5.06261E-02 2.07781E-14 5.15522E-13
 -1      1499 1.92551E+01-1.64268E-04 1.66985E-03-5.06549E-02 7.96710E-15 5.21807E-13
 -1      1500 1.93525E+01-3.71416E-03-6.67665E-04-9.83019E-02 5.12405E-14 3.02943E-13
 -1      1501 1.94487E+01-1.19795E-03 1.38444E-03-4.53062E-02-2.01741E-14 5.89063E-13
 -1      1502 1.93814E+01-8.63919E-04 1.21855E-03-4.57880E-02-1.23808E-15 5.45431E-13
 -1      1503 1.94549E+01-4.07984E-03-4.24829E-04-9.08901E-02-1.75649E-14 3.13377E-13
 -1      1504 1.95560E+01-1.08122E-03 1.11142E-03-3.98933E-02 5.66564E-14 5.20672E-13
 -1      1505 1.94966E+01-1.11867E-03 8.98850E-04-4.05541E-02 4.60994E-14 5.79526E-13
 -1      1506 1.95519E+01-3.91128E-03-2.68842E-04-8.16493E-02 3.15774E-14 3.77924E-13
 -1      1507 1.96518E+01-8.35180E-04 8.62538E-04-3.51638E-02 5.73509E-14 4.55836E-13
 -1      1508 1.95997E+01-1.04839E-03 6.69675E-04-3.57991E-02 4.26642E-14 4.54027E-13
 -1      1509 1.96415E+01-3.38019E-03-1.88720E-04-7.25679E-02 9.45527E-14 3.24002E-13
 -1      1510 1.97384E+01-4.86859E-04 6.33537E-04-3.16925E-02-9.37498E-15 3.72867E-13
 -1      1511 1.96921E+01-7.27159E-04 5.08280E-04-3.21405E-02 1.75326E-14 3.79268E-13
 -1      1512 1.97238E+01-2.59188E-03-1.75244E-04-6.50673E-02 6.07131E-14 2.73211E-13
 -1      1513 1.98194E+01-4.95683E-05 4.19502E-04-2.99390E-02 4.46716E-14 2.68545E-13
 -1      1514 1.97767E+01-1.96982E-04 3.99800E-04-3.00610E-02 4.21306E-14 3.46836E-13
 -1      1515 1.98010E+01-1.60647E-03-2.23558E-04-6.02246E-02 5.88230E-14 1.43675E-13
 -1      1516 1.98996E+01 4.73015E-04 2.14398E-04-3.03082E-02 4.94525E-15 2.48329E-13
 -1      1517 1.98578E+01 5.23253E-04 3.33387E-04-2.99735E-02 3.23599E-14 2.91777E-13
 -1      1518 1.98764E+01-4.52233E-04-3.33109E-04-5.89243E-02 3.59291E-14 1.67275E-13
 -1      1519 1.99852E+01 1.08299E-03 1.12185E-05-3.31908E-02-2.13904E-14 2.27516E-13
 -1      1520 1.99408E+01 1.43076E-03 3.00387E-04-3.22665E-02-1.85853E-14 2.06513E-13
 -1      1521 1.99546E+01 8.64158E-04-5.07017E-04-6.19628E-02 2.28673E-14 1.80796E-13
 -1      1522 2.00830E+01 1.78375E-03-1.97620E-04-3.89855E-02 1.08370E-13 7.96523E-14
 -1      1523 2.00321E+01 2.53185E-03 2.93120E-04-3.73286E-02 7.11412E-14 1.95357E-13
 -1      1524 2.00409E+01 2.34799E-03-7.51182E-04-7.01127E-02 8.94861E-14 6.15912E-14
 -1      1525 2.02010E+01 2.57395E-03-4.19498E-04-4.80966E-02-6.42310E-14-5.27236E-14
 -1      1526 2.01393E+01 3.83316E-03 3.03766E-04-4.55529E-02 6.21614E-14 1.63269E-14
 -1      1527 2.01420E+01 4.00540E-03-1.07286E-03-8.41459E-02 1.42815E-13 5.32254E-14
 -1      1528 2.03484E+01 3.43851E-03-6.60095E-04-6.09011E-02-1.76816E-14 4.88826E-14
 -1      1529 2.02707E+01 5.32911E-03 3.23233E-04-5.73109E-02-7.11508E-14-2.78994E-14
 -1      1530 2.02652E+01 5.82841E-03-1.47816E-03-1.04804E-01-8.24776E-14-4.63981E-14
 -1      1531 2.05349E+01 4.33484E-03-9.20391E-04-7.76677E-02-3.61516E-14 7.02043E-14
 -1      1532 2.04358E+01 6.98240E-03 3.40019E-04-7.28845E-02-1.02366E-14 9.58467E-14
 -1      1533 2.04183E+01 7.77259E-03-1.96765E-03-1.32695E-01-3.41204E-14 2.64643E-14
 -1      1534 2.07704E+01 5.17171E-03-1.19068E-03-9.84038E-02 1.64896E-14 1.26675E-13
 -1      1535 2.06443E+01 8.69344E-03 3.39508E-04-9.23339E-02-3.84072E-14 9.12842E-14
 -1      1536 2.06098E+01 9.72289E-03-2.52860E-03-1.68081E-01-5.88991E-14 3.69358E-14
 -1      1537 2.10640E+01 5.77798E-03-1.43894E-03-1.22592E-01 4.07531E-14 2.06861E-14
 -1      1538 2.09056E+01 1.02532E-02 3.04837E-04-1.15268E-01 4.64438E-14 1.28723E-13
 -1      1539 2.08476E+01 1.14410E-02-3.12159E-03-2.10498E-01 4.54452E-14 6.51255E-14
 -1      1540 2.14220E+01 5.85998E-03-1.58975E-03-1.48772E-01-2.09355E-14-2.98372E-15
 -1      1541 2.12277E+01 1.12746E-02 2.21819E-04-1.40475E-01 9.60928E-15-2.78354E-14
 -1      1542 2.11379E+01 1.24882E-02-3.65865E-03-2.58144E-01 4.38660E-14 3.41242E-14
 -1      1543 2.18445E+01 4.95300E-03-1.49035E-03-1.73918E-01-8.51407E-14 7.65464E-14
 -1      1544 2.16139E+01 1.11032E-02 9.20734E-05-1.65376E-01-6.42416E-14-3.28236E-14
 -1      1545 2.14833E+01 1.21218E-02-3.97029E-03-3.06936E-01-3.31532E-14-1.08403E-13
 -1      1546 2.23203E+01 2.39028E-03-8.67056E-04-1.92621E-01-1.26219E-13 4.00416E-13
 -1      1547 2.20596E+01 8.72959E-03-4.08579E-05-1.85283E-01-1.27323E-13 2.00024E-13
 -1      1548 2.18794E+01 9.18415E-03-3.76351E-03-3.49220E-01-1.78027E-13 2.19087E-14
 -1      1549 2.28203E+01-2.64864E-03 7.02623E-04-1.96235E-01 6.54446E-14 4.21236E-13
 -1      1550 2.25461E+01 2.77314E-03-5.23913E-05-1.92600E-01 2.40205E-16 4.52948E-13
 -1      1551 2.23103E+01 2.05581E-03-2.58793E-03-3.72262E-01-5.99226E-14 7.76579E-14
 -1      1552 2.32890E+01-1.08839E-02 3.72884E-03-1.72525E-01 1.13354E-13 1.63994E-13
 -1      1553 2.30335E+01-8.29857E-03 2.96969E-04-1.76360E-01 1.37936E-13 3.40492E-13
 -1      1554 2.27433E+01-1.11518E-02 1.39599E-04-3.57122E-01 1.51614E-13 1.15875E-13
 -1      1555 2.36383E+01-2.22873E-02 8.51938E-03-1.06996E-01-4.02543E-14 1.48384E-13
 -1      1556 2.34534E+01-2.54286E-02 1.33196E-03-1.23086E-01-6.51606E-14 1.62387E-13
 -1      1557 2.31231E+01-3.18230E-02 4.94876E-03-2.79382E-01 1.55518E-14 1.39106E-13
 -1      1558 2.37499E+01-3.49231E-02 1.45131E-02 1.21129E-02 2.59168E-15 1.73926E-13
 -1      1559 2.37057E+01-4.74039E-02 3.26107E-03-2.06389E-02-2.17361E-15 1.73116E-13
 -1      1560 2.33705E+01-5.90383E-02 1.18352E-02-1.14500E-01-2.90566E-14 6.50166E-14
 -1      1561 2.34961E+01-4.36685E-02 1.93492E-02 1.83333E-01-1.41952E-14 3.24511E-13
 -1      1562 2.36682E+01-6.86255E-02 5.70780E-03 1.33115E-01-5.21970E-14 2.04128E-13
 -1      1563 2.33887E+01-8.66612E-02 1.94706E-02 1.48709E-01-8.91058E-14 9.98450E-14
 -1      1564 2.27922E+01-4.03067E-02 1.85170E-02 3.77377E-01-1.84436E-14 3.66082E-13
 -1      1565 2.32297E+01-7.77488E-02 7.15214E-03 3.17231E-01-4.54498E-16 3.21472E-13
 -1      1566 2.30894E+01-1.00788E-01 2.45325E-02 4.85523E-01-6.26756E-14 2.24916E-13
 -1      1567 2.16742E+01-1.75649E-02 7.26450E-03 5.28197E-01 3.03264E-14 4.26548E-13
 -1      1568 2.23525E+01-6.07194E-02 4.98619E-03 4.77181E-01-5.44660E-15 4.45102E-13
 -1      1569 2.24397E+01-8.15996E-02 2.24205E-02 8.12594E-01-3.56876E-14 2.53689E-13
 -1      1570 2.03668E+01 2.24817E-02-1.45353E-02 5.48921E-01 1.40029E-13 2.04774E-13
 -1      1571 2.11479E+01-1.11132E-02-2.75541E-03 5.32992E-01 1.13123E-13 3.52565E-13
 -1      1572 2.15226E+01-1.55339E-02 1.02692E-02 9.90306E-01 1.76361E-13 1.12466E-13
 -1      1573 1.92651E+01 6.28796E-02-3.78563E-02 3.83566E-01-3.41021E-14 1.50088E-13
 -1      1574 1.99121E+01 5.73273E-02-1.42807E-02 4.20162E-01 5.06409E-14 2.01887E-13
 -1      1575 2.05688E+01 8.52600E-02-8.63957E-03 8.81092E-01 6.59837E-14 1.11598E-13
 -1      1576 1.87784E+01 7.95642E-02-4.79408E-02 6.62380E-02 1.15252E-13-1.09106E-13
 -1      1577 1.90517E+01 1.11029E-01-2.29839E-02 1.47112E-01 9.19091E-14 8.48696E-14
 -1      1578 1.99000E+01 1.74359E-01-2.48326E-02 4.53115E-01 1.66579E-13 8.20125E-14
 -1      1579 1.90993E+01 6.12582E-02-3.60508E-02-2.74422E-01 4.26100E-14-3.95611E-13
 -1      1580 1.88917E+01 1.18646E-01-2.18160E-02-1.83566E-01 6.15202E-14-2.83733E-13
 -1      1581 1.97751E+01 1.96252E-01-2.92241E-02-1.52002E-01 1.33624E-13-1.32972E-13
 -1      1582 2.00763E+01 2.02461E-02-9.07253E-03-4.93003E-01-9.94131E-14-7.94920E-14
 -1      1583 1.94830E+01 7.76158E-02-1.01841E-02-4.30541E-01-1.24602E-13-2.31287E-13
 -1      1584 2.02313E+01 1.33030E-01-2.13019E-02-6.80063E-01-1.68750E-13 3.25538E-14
 -1      1585 2.13098E+01-1.93694E-02 1.66884E-02-5.21738E-01 3.50770E-14-5.16184E-14
 -1      1586 2.05686E+01 1.52359E-02 4.74388E-03-5.05648E-01 4.34751E-14 6.16174E-14
 -1      1587 2.10600E+01 2.35039E-02-8.31219E-03-9.26058E-01-4.48230E-14 1.16903E-13
 -1      1588 2.23840E+01-4.11897E-02 2.97410E-02-3.94818E-01-8.81491E-14 7.68552E-14
 -1      1589 2.17394E+01-3.59082E-02 1.47083E-02-4.17436E-01-1.71399E-14-9.45077E-15
 -1      1590 2.19385E+01-7.16296E-02 2.35069E-03-8.50456E-01 4.54324E-15 1.74969E-13
 -1      1591 2.30441E+01-4.39666E-02 2.93597E-02-1.97889E-01-7.92370E-14 4.26506E-13
 -1      1592 2.26446E+01-6.02073E-02 1.66951E-02-2.39229E-01-1.29827E-13 1.08621E-13
 -1      1593 2.25977E+01-1.16992E-01 7.91376E-03-5.59300E-01-1.77995E-13 2.91669E-13
 -1      1594 2.32316E+01-3.50448E-02 2.13300E-02-7.53418E-03 6.97879E-14 3.34452E-13
 -1      1595 2.31097E+01-6.04277E-02 1.28782E-02-4.97361E-02 1.40443E-14 4.25928E-13
 -1      1596 2.29086E+01-1.14946E-01 9.12877E-03-2.01677E-01-6.86430E-15 2.28278E-13
 -1      1597 2.30221E+01-2.23291E-02 1.17308E-02 1.35065E-01-2.59254E-14 1.16978E-13
 -1      1598 2.31315E+01-4.71962E-02 7.12448E-03 1.01772E-01 5.42092E-14 2.51618E-13
 -1      1599 2.28723E+01-8.64519E-02 7.94397E-03 1.11347E-01 9.94873E-14 1.45456E-13
 -1      1600 2.25456E+01-1.05220E-02 3.95605E-03 2.20131E-01-1.14548E-14 1.02258E-13
 -1      1601 2.28089E+01-3.00079E-02 2.21705E-03 1.98487E-01 6.52941E-14 1.22704E-13
 -1      1602 2.25663E+01-5.14038E-02 5.93201E-03 3.29399E-01 8.96965E-14 1.46139E-13
 -1      1603 2.19329E+01-1.09847E-03-1.32502E-03 2.54351E-01 4.94101E-14 8.93261E-14
 -1      1604 2.22735E+01-1.39433E-02-8.65618E-04 2.43479E-01-1.66854E-14 2.91642E-14
 -1      1605 2.20930E+01-2.06662E-02 3.80524E-03 4.46968E-01 8.66993E-15 8.46103E-14
 -1      1606 2.12943E+01 6.40702E-03-5.00421E-03 2.48101E-01 2.61852E-14-9.27088E-14
 -1      1607 2.16486E+01-1.82201E-04-2.48460E-03 2.46417E-01 1.45443E-13 1.54911E-14
 -1      1608 2.15494E+01 3.10373E-03 1.54834E-03 4.78542E-01 1.69493E-13-1.32356E-13
 -1      1609 2.07195E+01 1.31902E-02-8.21928E-03 2.08569E-01 3.65855E-14-3.51427E-13
 -1      1610 2.10355E+01 1.23161E-02-3.58092E-03 2.15431E-01 5.24220E-14-1.83385E-13
 -1      1611 2.10164E+01 2.18605E-02-1.26272E-03 4.40394E-01 1.07061E-13 4.99201E-14
 -1      1612 2.02857E+01 2.01267E-02-9.84912E-03 1.37713E-01-8.64976E-14-4.95537E-13
 -1      1613 2.05163E+01 2.51837E-02-4.56607E-03 1.54518E-01 1.64061E-14-4.47475E-13
 -1      1614 2.05588E+01 3.96578E-02-4.41181E-03 3.42563E-01 6.40837E-14 8.89601E-14
 -1      1615 2.00564E+01 2.56809E-02 1.02436E-05 4.54041E-02-7.06629E-15-3.31990E-13
 -1      1616 2.01575E+01 3.46794E-02-3.33322E-03 6.88300E-02-9.68995E-14-4.82131E-13
 -1      1617 2.02233E+01 5.55301E-02-5.84561E-03 1.92075E-01-2.09036E-14-2.26020E-13
 -1      1618 2.00040E+01 1.38855E-02 3.87688E-03-7.13721E-04-1.38193E-13-6.68640E-14
 -1      1619 2.00356E+01 2.26286E-01-4.83457E-03 1.14788E-01-2.43833E-14 3.35733E-13
 -1      1620 2.00395E+01 1.13918E-01 1.39060E-03 9.00424E-02-2.83410E-13 2.57221E-13
 -1      1621 2.00239E+01 6.12871E-01-2.70241E-03 2.03181E-01 1.34835E-13-9.69628E-14
 -1      1622 2.00319E+01 3.84716E-01-3.31817E-03 1.87789E-01 8.07475E-14 5.08556E-14
 -1      1623 2.00670E+01 3.56217E-01-6.88009E-03 2.95390E-01-9.12534E-14 2.37526E-13
 -1      1624 2.00099E+01 1.12340E+00-8.06755E-04 2.57536E-01-1.10875E-13-2.56840E-13
 -1      1625 2.00189E+01 8.23225E-01-2.28792E-03 2.49737E-01 2.04423E-13-8.42230E-14
 -1      1626 2.00383E+01 7.20723E-01-5.83805E-03 4.38524E-01 1.83074E-14-7.20340E-14
 -1      1627 1.99959E+01 1.68943E+00 1.80937E-04 2.74316E-01-1.62830E-13-1.04126E-13
 -1      1628 2.00049E+01 1.36381E+00-1.11177E-03 2.74026E-01-1.03488E-13-2.18052E-13
 -1      1629 2.00132E+01 1.16725E+00-2.24423E-03 5.13760E-01 2.66545E-14-2.93566E-13
 -1      1630 1.99828E+01 2.22675E+00 5.62066E-04 2.54286E-01-4.89228E-13-9.45288E-14
 -1      1631 1.99911E+01 1.92574E+00-4.44449E-04 2.60964E-01-3.31407E-13-2.74381E-13
 -1      1632 1.99895E+01 1.64008E+00 1.81891E-03 5.16970E-01-1.66455E-13-4.02119E-13
 -1      1633 1.99710E+01 2.68058E+00 8.31256E-04 1.98798E-01-4.22795E-13 1.66004E-13
 -1      1634 1.99783E+01 2.43671E+00 1.47004E-04 2.12264E-01-6.43367E-13 2.05001E-13
 -1      1635 1.99679E+01 2.08262E+00 5.68501E-03 4.50551E-01-2.26479E-13-1.56431E-13
 -1      1636 1.99628E+01 2.97524E+00 1.02253E-03 1.13794E-01-6.57868E-14-2.03995E-14
 -1      1637 1.99675E+01 2.82955E+00 6.36800E-04 1.32456E-01-2.81032E-13 2.53127E-13
 -1      1638 1.99495E+01 2.43873E+00 9.10193E-03 3.19828E-01-3.79351E-13 2.78519E-13
 -1      1639 1.99597E+01 3.06489E+00 1.09175E-03 1.01492E-02 8.71085E-14 1.93491E-13
 -1      1640 1.99609E+01 3.04080E+00 1.04771E-03 3.15003E-02-1.14821E-14-6.93456E-16
 -1      1641 1.99375E+01 2.65219E+00 1.13903E-02 1.40243E-01 1.00057E-13 7.37075E-14
 -1      1642 1.99627E+01 2.93189E+00 9.48430E-04-9.72289E-02 8.43492E-14 2.16753E-13
 -1      1643 1.99600E+01 3.03563E+00 1.28349E-03-7.63976E-02-8.27845E-14 3.67414E-13
 -1      1644 1.99342E+01 2.68885E+00 1.20227E-02-6.39682E-02 1.52970E-15 5.61964E-14
 -1      1645 1.99712E+01 2.59193E+00 5.80868E-04-1.92102E-01-5.20519E-13-5.04322E-13
 -1      1646 1.99653E+01 2.81054E+00 1.35802E-03-1.75022E-01-3.66859E-14-1.33013E-13
 -1      1647 1.99407E+01 2.53992E+00 1.07753E-02-2.62754E-01-1.51257E-13-1.34950E-13
 -1      1648 1.99840E+01 2.10172E+00 1.03246E-04-2.59157E-01-7.14408E-13 8.45422E-14
 -1      1649 1.99755E+01 2.39901E+00 1.13652E-03-2.48583E-01-4.72919E-13-3.49078E-13
 -1      1650 1.99565E+01 2.22798E+00 7.99027E-03-4.24896E-01-2.34571E-13-5.14695E-13
 -1      1651 2.00001E+01 1.51548E+00-7.99312E-04-2.89884E-01-2.74924E-13 1.93073E-13
 -1      1652 1.99897E+01 1.85800E+00 5.98384E-04-2.87023E-01-7.02905E-13 4.10700E-13
 -1      1653 1.99787E+01 1.79548E+00 3.89697E-03-5.26944E-01-1.16223E-13 2.83825E-13
 -1      1654 2.00173E+01 9.29501E-01-2.41111E-03-2.76385E-01-5.90535E-14 7.65733E-14
 -1      1655 2.00063E+01 1.25914E+00-6.84886E-04-2.82260E-01-2.01001E-13 2.52698E-14
 -1      1656 2.00064E+01 1.29917E+00-8.86371E-04-5.52068E-01-6.71073E-14 1.53942E-13
 -1      1657 2.00373E+01 4.46516E-01-8.54694E-04-2.14136E-01-2.58482E-13-2.15278E-13
 -1      1658 2.00232E+01 6.98891E-01-3.03638E-03-2.30395E-01-9.33732E-14-1.12646E-13
 -1      1659 2.00382E+01 8.13849E-01-5.41053E-03-4.88507E-01-3.94177E-14-8.28803E-14
 -1      1660 2.00706E+01 1.78763E-01 4.53355E-03-1.57260E-01-1.66670E-13-4.93160E-14
 -1      1661 2.00641E+01 3.11813E-01-2.50656E-03-1.98567E-01-1.23759E-13-1.24144E-13
 -1      1662 2.01002E+01 4.50464E-01-6.88222E-03-4.00962E-01-1.77076E-13-7.47397E-14
 -1      1663 2.02022E+01 2.11089E-01-1.51486E-04-3.08426E-01-6.18658E-14-1.04766E-13
 -1      1664-3.54775E-01-1.34327E+01-1.44879E+00-5.55487E-01 3.84470E-13 5.34128E-13
 -1      1665-4.44838E-01-1.57380E+01-1.63681E+00 5.73157E-01-3.95517E-14 2.38420E-13
 -1      1666 1.75475E+00-7.33543E+00-1.10551E+00 8.13165E-01 6.12066E-13 5.82312E-14
 -1      1667 8.69599E-01-1.26922E+01-1.64248E+00 6.88474E-02 5.06484E-13 2.57620E-13
 -1      1668 7.95550E+00 9.46043E-02-4.49935E-01 5.11618E+00 2.79332E-13 1.91736E-13
 -1      1669 4.49957E+00-5.34981E+00-1.23712E+00 2.06158E+00 5.35127E-13 1.38833E-13
 -1      1670 1.79770E+01 5.07661E+00 2.41504E-01 9.85877E+00 6.73905E-14-1.68532E-13
 -1      1671 1.16198E+01 2.08546E+00-5.97816E-01 6.38421E+00 2.78222E-13 1.01030E-14
 -1      1672 3.24011E+01 5.83498E+00 9.71506E-01 1.19067E+01-7.93809E-14-1.80078E-13
 -1      1673 2.35841E+01 5.40304E+00 1.55983E-01 1.00602E+01 4.90719E-14-1.58762E-13
 -1      1674 4.59715E+01 5.17478E+00 1.64068E+00 1.06666E+01-8.50431E-14-5.48894E-13
 -1      1675 3.72524E+01 6.72904E+00 9.57456E-01 1.22114E+01-7.79377E-14-2.98872E-13
 -1      1676 5.38787E+01 3.63044E+00 1.83000E+00 3.83023E+00 1.15935E-13-7.41407E-13
 -1      1677 4.92215E+01 4.89608E+00 1.52482E+00 8.51038E+00 1.30174E-13-4.54969E-13
 -1      1678 5.35673E+01 3.88374E+00 1.74664E+00-4.23605E+00 1.95621E-13-1.02285E-12
 -1      1679 5.47266E+01 3.55064E+00 1.81164E+00 1.23906E+00 1.22569E-13-8.56877E-13
 -1      1680 4.50639E+01 5.69193E+00 1.35441E+00-1.07042E+01 5.22686E-13-1.29396E-12
 -1      1681 5.19420E+01 3.99875E+00 1.83621E+00-6.93268E+00 2.38323E-13-1.23834E-12
 -1      1682 3.13446E+01 6.62434E+00 5.94543E-01-1.16903E+01 9.71223E-13-1.36735E-12
 -1      1683 4.05326E+01 5.70287E+00 1.38171E+00-1.17179E+01 7.33802E-13-1.20159E-12
 -1      1684 1.73254E+01 3.76036E+00-2.39466E-01-8.20264E+00 7.38520E-13-1.11278E-12
 -1      1685 2.61484E+01 5.56464E+00 6.62038E-01-1.13828E+01 9.03944E-13-1.24967E-12
 -1      1686 6.84673E+00-1.77001E+00-9.53998E-01-3.67976E+00 3.65263E-13-6.40821E-13
 -1      1687 1.15224E+01 2.91494E+00-1.57741E-01-7.21299E+00 7.19425E-13-1.03662E-12
 -1      1688 2.60705E+00-9.80589E+00-1.33033E+00-1.13640E+00 2.34701E-13-3.59157E-14
 -1      1689 4.52719E+00-4.28492E+00-7.52311E-01-2.97409E+00 3.00537E-13-2.91100E-13
 -1      1690-2.88089E-01-1.56651E+01-1.79722E+00 6.69400E-02 1.64924E-13-1.08691E-13
 -1      1691-2.56612E-01-1.20251E+01-1.49963E+00 8.21027E-01 2.88880E-13-7.57588E-14
 -1      1692-6.47488E-01-1.51757E+01-1.58414E+00-7.56609E-01-2.54879E-13-2.73531E-13
 -1      1693-6.49846E-01-1.53313E+01-1.60299E+00 6.08381E-01 3.60267E-14-1.40221E-13
 -1      1694-1.04813E-01-1.15770E+01-1.49269E+00-8.26823E-01-7.99583E-13-4.32446E-13
 -1      1695-2.07898E-01-1.55079E+01-1.81724E+00-2.35128E-01-4.11393E-13-3.12472E-13
 -1      1696 4.42605E+00-3.98306E+00-8.06598E-01 2.76377E+00-1.00298E-12-6.58584E-13
 -1      1697 2.45932E+00-9.57092E+00-1.44096E+00 8.09708E-01-8.52873E-13-4.86527E-13
 -1      1698 1.22196E+01 3.10339E+00-1.21289E-01 7.42152E+00-1.04694E-12-8.47766E-13
 -1      1699 7.15039E+00-1.61432E+00-9.92982E-01 3.72696E+00-1.20748E-12-7.58393E-13
 -1      1700 2.50018E+01 6.04724E+00 6.03974E-01 1.16049E+01-7.49734E-13-1.08358E-12
 -1      1701 1.69689E+01 4.41402E+00-2.73544E-01 8.60089E+00-8.84959E-13-1.04960E-12
 -1      1702 4.02807E+01 5.46386E+00 1.31775E+00 1.14700E+01-5.01044E-13-5.79981E-13
 -1      1703 3.06157E+01 6.29225E+00 5.19391E-01 1.12891E+01-7.36800E-13-8.17568E-13
 -1      1704 5.23635E+01 3.97214E+00 1.85998E+00 6.45462E+00-1.89126E-13-3.66818E-13
 -1      1705 4.50298E+01 5.62179E+00 1.29535E+00 1.03029E+01-3.21521E-13-5.06040E-13
 -1      1706 5.58131E+01 3.46507E+00 1.95609E+00-1.66588E+00-1.38556E-13-3.50886E-13
 -1      1707 5.47934E+01 3.72034E+00 1.87136E+00 4.02877E+00-7.21367E-14-4.03400E-13
 -1      1708 4.93308E+01 5.04785E+00 1.59850E+00-9.26651E+00 2.06661E-13-3.85691E-13
 -1      1709 5.47514E+01 3.61931E+00 1.98727E+00-4.52438E+00 8.70970E-14-2.74392E-13
 -1      1710 3.64666E+01 6.54306E+00 8.90130E-01-1.19076E+01 1.70419E-14-3.08642E-13
 -1      1711 4.51756E+01 5.18995E+00 1.58189E+00-1.07431E+01 1.02390E-13-3.32290E-13
 -1      1712 2.23088E+01 5.64535E+00 8.78359E-02-1.01570E+01-4.47753E-13 6.03961E-14
 -1      1713 3.13584E+01 6.19055E+00 9.48515E-01-1.23210E+01-1.94178E-13-3.33511E-13
 -1      1714 1.06480E+01 8.14934E-01-7.17345E-01-5.58976E+00-5.82867E-13 3.63931E-13
 -1      1715 1.71186E+01 4.44168E+00 1.74652E-01-9.37643E+00-4.38760E-13 3.55271E-13
 -1      1716 3.50187E+00-6.50455E+00-1.36232E+00-1.37740E+00 1.68754E-13 3.55882E-13
 -1      1717 6.35659E+00-9.31954E-01-6.22231E-01-4.14058E+00-3.09308E-13 4.94604E-13
 -1      1718 6.19450E-01-1.34188E+01-1.68317E+00 1.13654E-01 1.09912E-13-8.79574E-14
 -1      1719 1.26593E+00-8.52470E+00-1.23054E+00-3.18613E-01 2.30038E-13-5.25413E-14
 -1      1720-5.21646E-01-1.59899E+01-1.66692E+00-4.49727E-01-8.17124E-14-8.88178E-14
 -1      1721-4.82922E-01-1.41318E+01-1.52814E+00 7.78007E-01 1.01585E-13-1.08552E-13
 -1      1722 2.53019E+01 8.73253E-01 3.37254E-01 7.21186E+00-2.29816E-14-4.23661E-13
 -1      1723 1.50039E+01-2.80985E+00-2.93958E-01 6.57035E+00 1.64424E-13-1.12910E-13
 -1      1724 2.00406E+01 4.06472E-02-2.91945E-03 4.30105E-02-2.43148E-13-1.09082E-13
 -1      1725 2.00958E+01 1.38201E-01-2.36949E-03 1.53954E-01-9.48081E-14 8.61968E-14
 -1      1726 1.01108E+00-9.60238E+00-1.08694E+00 2.74848E+00-2.02061E-14 3.47944E-13
 -1      1727 6.72514E+00-6.99723E+00-8.16898E-01 4.87183E+00 2.01617E-13-1.36377E-13
 -1      1728-1.05751E+00-1.02077E+01-1.10616E+00 1.82523E-01 1.89487E-13 1.38167E-13
 -1      1729 3.50055E+01 3.91083E+00 8.06463E-01 6.33169E+00-9.56457E-14-5.40679E-13
 -1      1730 4.31144E+01 6.48687E+00 1.36895E+00 4.72247E+00 7.44960E-14-6.84119E-13
 -1      1731 4.67568E+01 7.37832E+00 1.53941E+00 1.19038E+00 2.21101E-13-5.80008E-13
 -1      1732 4.60659E+01 7.09736E+00 1.52370E+00-2.64568E+00 2.57683E-13-9.31866E-13
 -1      1733 4.02611E+01 5.53408E+00 1.15390E+00-5.58894E+00 5.80279E-13-1.04072E-12
 -1      1734 3.07930E+01 2.48516E+00 5.73673E-01-6.62744E+00 5.61162E-13-8.43214E-13
 -1      1735 1.99173E+01-1.05940E+00 1.36359E-03-6.98277E+00 2.80775E-13-9.71112E-13
 -1      1736 1.01372E+01-5.41033E+00-6.18938E-01-5.77399E+00 1.59428E-13-6.06154E-13
 -1      1737 3.24940E+00-8.49363E+00-8.60417E-01-3.98119E+00 2.63678E-13-1.36668E-13
 -1      1738-8.58833E-01-1.04485E+01-1.16460E+00-1.07767E+00 6.66966E-14-3.25073E-13
 -1      1739-7.09671E-01-1.03747E+01-1.15264E+00 1.09094E+00-1.84408E-13-4.74953E-13
 -1      1740 3.34520E+00-8.68250E+00-9.62229E-01 3.68586E+00-4.70624E-13-5.62106E-13
 -1      1741 1.04199E+01-5.21698E+00-6.24083E-01 5.60740E+00-6.58473E-13-5.99631E-13
 -1      1742 1.96803E+01-7.41780E-01-3.23742E-02 7.04376E+00-8.17124E-13-8.29448E-13
 -1      1743 3.06139E+01 2.66307E+00 6.13956E-01 7.01411E+00-7.03659E-13-6.02629E-13
 -1      1744 4.00106E+01 5.35887E+00 1.10433E+00 5.02063E+00-4.92807E-13-3.79807E-13
 -1      1745 4.66918E+01 6.95903E+00 1.54881E+00 2.33769E+00-2.12108E-13-2.81442E-13
 -1      1746 4.78725E+01 7.23391E+00 1.66172E+00-1.53273E+00-2.27041E-14-2.86660E-13
 -1      1747 4.30809E+01 6.15476E+00 1.32964E+00-4.75845E+00 4.20497E-14-1.47438E-13
 -1      1748 3.45535E+01 3.85283E+00 8.16832E-01-6.71053E+00-3.08753E-13-3.84359E-13
 -1      1749 2.42657E+01 4.76410E-01 2.32749E-01-7.24783E+00-3.38507E-13-2.37699E-13
 -1      1750 1.38432E+01-3.46147E+00-3.66398E-01-6.28299E+00-1.07692E-13 4.74676E-13
 -1      1751 5.54356E+00-7.57527E+00-9.14990E-01-4.30863E+00 1.87406E-13 3.17760E-13
 -1      1752 5.72713E-01-9.99856E+00-1.13993E+00-2.40077E+00 1.59095E-13-2.09333E-13
 -1      1753 2.28562E+01 1.98480E+00-2.35552E-02-2.72318E+00-2.07809E-13 3.92381E-13
 -1      1754 1.98210E+01 3.71834E+00-3.48986E-02-2.15661E+00-1.68030E-13-4.27380E-13
 -1      1755 2.00495E+01 3.56033E+00-4.29638E-02-2.44307E+00-2.27287E-13-3.67414E-13
 -1      1756 2.03626E+01 3.18221E+00-4.51939E-02-2.58649E+00-2.48554E-13-2.92405E-13
 -1      1757 2.05810E+01 2.80910E+00-1.42638E-01-2.85463E+00-2.90719E-13-1.91312E-13
 -1      1758 2.04277E+01 2.69089E+00-3.11422E-03-2.22286E+00-2.53334E-13-3.03976E-13
 -1      1759 1.93563E+01 4.18877E+00-2.01975E-02-1.27174E+00-3.89424E-14-4.97059E-13
 -1      1760 1.94290E+01 4.14900E+00-1.72001E-02-1.49627E+00-7.06002E-14-5.02938E-13
 -1      1761 1.92607E+01 4.29448E+00-1.68128E-02-8.60550E-01 1.92463E-14-4.82381E-13
 -1      1762 1.93029E+01 4.27049E+00-1.43765E-02-1.07149E+00-8.52747E-15-4.95675E-13
 -1      1763 1.95285E+01 3.78259E+00-9.31134E-03-1.12070E+00-3.11723E-14-4.77224E-13
 -1      1764 1.92099E+01 4.35492E+00-1.48154E-02-4.67290E-01 7.62602E-14-4.56564E-13
 -1      1765 1.92315E+01 4.34205E+00-1.33379E-02-6.67774E-01 5.15954E-14-4.73354E-13
 -1      1766 1.94324E+01 3.90293E+00-9.22443E-03-7.33969E-01 3.84878E-14-4.62413E-13
 -1      1767 1.91908E+01 4.38055E+00-1.36803E-02-8.37253E-02 1.33072E-13-4.16164E-13
 -1      1768 1.91971E+01 4.37661E+00-1.32305E-02-2.79363E-01 1.07861E-13-4.38177E-13
 -1      1769 1.93827E+01 3.96742E+00-9.16626E-03-3.58676E-01 9.80268E-14-4.30914E-13
 -1      1770 1.91987E+01 4.37524E+00-1.31818E-02 2.98436E-01 1.89632E-13-3.83431E-13
 -1      1771 1.91912E+01 4.37972E+00-1.37628E-02 1.02638E-01 1.60869E-13-4.05155E-13
 -1      1772 1.93682E+01 3.98683E+00-9.14835E-03 1.05728E-02 1.62253E-13-3.97895E-13
 -1      1773 1.92356E+01 4.33803E+00-1.33402E-02 6.87562E-01 2.30233E-13-3.69310E-13
 -1      1774 1.92126E+01 4.35175E+00-1.49234E-02 4.86580E-01 2.12244E-13-3.78721E-13
 -1      1775 1.93854E+01 3.96411E+00-9.18940E-03 3.80013E-01 2.13654E-13-3.75453E-13
 -1      1776 1.93084E+01 4.26460E+00-1.44209E-02 1.08556E+00 2.65034E-13-3.17682E-13
 -1      1777 1.92654E+01 4.28911E+00-1.69755E-02 8.77440E-01 2.44754E-13-3.53795E-13
 -1      1778 1.94377E+01 3.89661E+00-9.19454E-03 7.52548E-01 2.61091E-13-3.48764E-13
 -1      1779 1.94389E+01 4.13738E+00-1.74133E-02 1.51582E+00 3.20964E-13-2.20882E-13
 -1      1780 1.93630E+01 4.18000E+00-2.04995E-02 1.28618E+00 2.86354E-13-2.68990E-13
 -1      1781 1.95365E+01 3.77272E+00-9.24065E-03 1.13662E+00 2.97744E-13-2.81891E-13
 -1      1782 1.96669E+01 3.92085E+00-2.52031E-02 1.98103E+00 3.58346E-13-1.02727E-13
 -1      1783 1.95347E+01 3.99766E+00-2.68955E-02 1.72365E+00 3.32590E-13-1.78219E-13
 -1      1784 1.97087E+01 3.56569E+00-8.69828E-03 1.53658E+00 3.46764E-13-1.85980E-13
 -1      1785 2.00743E+01 3.52259E+00-4.51951E-02 2.47345E+00 3.71056E-13 8.23265E-14
 -1      1786 1.98349E+01 3.68306E+00-3.97133E-02 2.18438E+00 3.58439E-13-2.83454E-14
 -1      1787 2.00039E+01 3.22264E+00-5.27225E-03 1.93602E+00 3.76514E-13-5.57505E-14
 -1      1788 2.09184E+01 2.68174E+00-5.76580E-02 2.85898E+00 3.19265E-13 4.33008E-13
 -1      1789 2.04116E+01 3.09684E+00-5.04207E-02 2.61730E+00 3.39327E-13 2.21510E-13
 -1      1790 2.05157E+01 2.60981E+00 3.18629E-03 2.24596E+00 3.61532E-13 1.42879E-13
 -1      1791 2.17281E+01 1.21301E+00-1.22096E-01 2.33080E+00 2.45998E-13 8.35637E-13
 -1      1792 2.12719E+01 2.26303E+00 1.21501E-04 2.74154E+00 2.85199E-13 5.75179E-13
 -1      1793 2.09348E+01 1.68500E+00-2.29722E-02 2.14144E+00 3.21108E-13 4.17492E-13
 -1      1794 2.09491E+01 7.78688E-01-6.24665E-02 1.52514E+00 2.45234E-13 7.50067E-13
 -1      1795 2.17943E+01 2.45803E+00 9.09134E-02-3.04925E+00-2.70957E-13 2.22600E-14
 -1      1796 2.00976E+01 2.97909E-01-8.92735E-03 6.58035E-01 2.04715E-13 6.05143E-13
 -1      1797 2.06501E+01 4.40394E-01-1.24714E-02 1.03504E+00 2.10214E-13 6.82643E-13
 -1      1798 2.07417E+01 8.45120E-01 2.25665E-03 1.41630E+00 2.52607E-13 4.95486E-13
 -1      1799 2.15049E+01 1.74228E+00 7.95319E-02-2.33857E+00-2.83558E-13-4.94188E-14
 -1      1800 2.05174E+01 5.00783E-01 3.24924E-02-9.22781E-01-2.42469E-13-5.90511E-14
 -1      1801 2.00854E+01 3.51964E-01 7.64825E-03-6.30887E-01-2.08469E-13-1.19271E-13
 -1      1802 1.98907E+01 2.57184E-01 2.74391E-02-3.92604E-01-1.93342E-13-1.20965E-13
 -1      1803 1.96993E+01 1.77930E-01 1.04089E-02-2.54850E-01-1.69079E-13-1.73242E-13
 -1      1804 2.01958E+01 4.83226E-01-5.90253E-03-7.24181E-01-2.38821E-13-1.61797E-13
 -1      1805 1.95770E+01 1.32625E-01 1.66564E-02-1.21367E-01-1.46840E-13-1.82354E-13
 -1      1806 1.94984E+01 9.29790E-02 6.94474E-03-5.06394E-02-1.15331E-13-2.04709E-13
 -1      1807 1.98694E+01 2.43725E-01-5.80734E-03-2.97382E-01-1.84664E-13-1.83489E-13
 -1      1808 1.94334E+01 6.83238E-02 8.68791E-03 2.28488E-02-1.07755E-13-2.10586E-13
 -1      1809 1.94184E+01 4.66644E-02 4.11013E-03 5.89875E-02-8.79659E-14-2.29860E-13
 -1      1810 1.96864E+01 1.25126E-01-4.65539E-03-6.06603E-02-1.43339E-13-2.03088E-13
 -1      1811 1.93922E+01 3.23808E-02 4.24905E-03 9.77145E-02-6.52296E-14-2.33381E-13
 -1      1812 1.94115E+01 2.00242E-02 2.44993E-03 1.14517E-01-3.95372E-14-2.50278E-13
 -1      1813 1.95995E+01 6.08921E-02-3.47817E-03 6.89067E-02-8.78393E-14-2.12550E-13
 -1      1814 1.94098E+01 1.14930E-02 1.87835E-03 1.32600E-01-6.26136E-14-2.64788E-13
 -1      1815 1.94466E+01 4.46107E-03 1.48940E-03 1.38189E-01-7.17092E-14-2.84290E-13
 -1      1816 1.95751E+01 2.42554E-02-2.36472E-03 1.35535E-01-7.05487E-14-2.04195E-13
 -1      1817 1.94593E+01-5.63765E-04 5.92166E-04 1.43977E-01-9.68657E-14-2.58003E-13
 -1      1818 1.95036E+01-4.31497E-03 9.09203E-04 1.43141E-01-1.07993E-13-2.44012E-13
 -1      1819 1.95889E+01 3.15505E-03-1.48189E-03 1.64518E-01-7.73010E-14-2.19071E-13
 -1      1820 1.95243E+01-7.05527E-03-1.09101E-04 1.41881E-01-1.22782E-13-2.37486E-13
 -1      1821 1.95704E+01-8.67625E-03 5.60910E-04 1.37661E-01-8.30138E-14-2.48822E-13
 -1      1822 1.96245E+01-8.44189E-03-8.60297E-04 1.71246E-01-9.66169E-14-2.05182E-13
 -1      1823 1.95949E+01-9.86089E-03-4.68551E-04 1.32812E-01-8.93825E-14-2.75422E-13
 -1      1824 1.96396E+01-1.00434E-02 3.74669E-04 1.27240E-01-7.30217E-14-3.30469E-13
 -1      1825 1.96713E+01-1.38702E-02-4.60072E-04 1.65619E-01-1.27332E-13-2.24695E-13
 -1      1826 1.96655E+01-1.01316E-02-6.14260E-04 1.21170E-01-6.98939E-14-3.66373E-13
 -1      1827 1.97076E+01-9.30349E-03 3.12951E-04 1.15656E-01-2.99509E-14-4.14569E-13
 -1      1828 1.97229E+01-1.51160E-02-2.29357E-04 1.54282E-01-1.13416E-13-2.29120E-13
 -1      1829 1.97338E+01-8.58819E-03-6.21196E-04 1.10047E-01-2.34490E-14-4.72992E-13
 -1      1830 1.97733E+01-7.00903E-03 3.53805E-04 1.05613E-01-3.95911E-14-4.83784E-13
 -1      1831 1.97760E+01-1.34076E-02-1.24942E-04 1.41865E-01-7.11879E-14-2.90734E-13
 -1      1832 1.97995E+01-5.67103E-03-5.36576E-04 1.01714E-01 2.50439E-15-4.68166E-13
 -1      1833 1.98373E+01-3.48384E-03 4.84979E-04 9.91500E-02-6.25064E-15-3.89020E-13
 -1      1834 1.98291E+01-9.49783E-03-1.15227E-04 1.31718E-01-1.06912E-14-3.78098E-13
 -1      1835 1.98641E+01-1.62339E-03-3.91118E-04 9.79584E-02-2.32209E-14-3.34165E-13
 -1      1836 1.99017E+01 1.11314E-03 7.01141E-04 9.79286E-02 2.66836E-14-2.84362E-13
 -1      1837 1.98826E+01-3.81506E-03-1.78231E-04 1.26410E-01 2.64081E-14-2.67529E-13
 -1      1838 1.99301E+01 3.45444E-03-2.05024E-04 1.00309E-01-1.03739E-14-3.50230E-13
 -1      1839 1.99698E+01 6.74284E-03 1.00180E-03 1.03432E-01-3.72965E-14-3.52456E-13
 -1      1840 1.99382E+01 3.44523E-03-2.98995E-04 1.28058E-01-4.04240E-14-2.81098E-13
 -1      1841 2.00012E+01 9.56394E-03 8.14380E-06 1.10207E-01-9.23321E-14-3.43814E-13
 -1      1842 2.00458E+01 1.34475E-02 1.38908E-03 1.17110E-01-1.26927E-13-3.45254E-13
 -1      1843 1.99985E+01 1.22540E-02-4.67300E-04 1.38574E-01-6.61972E-14-2.92875E-13
 -1      1844 2.00822E+01 1.67696E-02 2.38522E-04 1.29114E-01-1.24241E-13-3.87914E-13
 -1      1845 2.01350E+01 2.13092E-02 1.86481E-03 1.40463E-01-1.12142E-13-4.00962E-13
 -1      1846 2.00668E+01 2.26894E-02-6.75702E-04 1.59825E-01-1.53468E-13-2.41586E-13
 -1      1847 2.01786E+01 2.51528E-02 4.77356E-04 1.58564E-01-7.19213E-14-3.98780E-13
 -1      1848 2.02434E+01 3.03953E-02 2.42604E-03 1.75059E-01-4.22746E-14-3.63072E-13
 -1      1849 2.01473E+01 3.48699E-02-9.17731E-04 1.93711E-01-1.03660E-13-2.61216E-13
 -1      1850 2.02968E+01 3.47466E-02 7.14494E-04 2.00129E-01-8.25069E-14-3.90917E-13
 -1      1851 2.03780E+01 4.06753E-02 3.05802E-03 2.22464E-01 2.30806E-14-4.45567E-13
 -1      1852 2.02451E+01 4.88616E-02-1.18622E-03 2.42165E-01-5.57208E-14-3.08009E-13
 -1      1853 2.04440E+01 4.54323E-02 9.35846E-04 2.55282E-01 9.80752E-14-5.08639E-13
 -1      1854 2.05463E+01 5.18844E-02 3.72292E-03 2.84025E-01 8.98653E-14-4.69064E-13
 -1      1855 2.03654E+01 6.45343E-02-1.47191E-03 3.07006E-01-1.17440E-14-4.19447E-13
 -1      1856 2.06278E+01 5.67688E-02 1.12106E-03 3.25072E-01 9.74971E-14-4.80681E-13
 -1      1857 2.07560E+01 6.32992E-02 4.34249E-03 3.60430E-01 1.05896E-13-4.65568E-13
 -1      1858 2.05142E+01 8.13248E-02-1.76278E-03 3.89609E-01 1.11140E-13-3.70808E-13
 -1      1859 2.08561E+01 6.77123E-02 1.24225E-03 4.09508E-01 1.11288E-13-4.31182E-13
 -1      1860 2.10146E+01 7.33729E-02 4.77323E-03 4.50902E-01 1.08189E-13-3.86074E-13
 -1      1861 2.06975E+01 9.78475E-02-2.04463E-03 4.90263E-01 1.57746E-13-3.33990E-13
 -1      1862 2.11359E+01 7.61705E-02 1.26579E-03 5.06489E-01 4.22169E-14-3.92563E-13
 -1      1863 2.13276E+01 7.91778E-02 4.77524E-03 5.51842E-01 4.86143E-14-3.78859E-13
 -1      1864 2.09210E+01 1.11276E-01-2.30397E-03 6.07054E-01 6.74537E-14-3.97453E-13
 -1      1865 2.14724E+01 7.83484E-02 1.16083E-03 6.10058E-01 1.76534E-14-3.52487E-13
 -1      1866 2.16972E+01 7.56411E-02 3.98411E-03 6.54676E-01 4.89387E-15-3.04950E-13
 -1      1867 2.11896E+01 1.16425E-01-2.53318E-03 7.34058E-01 8.13231E-14-3.93776E-13
 -1      1868 2.18671E+01 6.79232E-02 9.18957E-04 7.07762E-01 2.96553E-14-3.38097E-13
 -1      1869 2.21192E+01 5.47280E-02 1.91178E-03 7.42779E-01 3.30833E-15-3.46113E-13
 -1      1870 2.15065E+01 1.04579E-01-2.73467E-03 8.58606E-01 2.36724E-14-3.08774E-13
 -1      1871 2.23144E+01 3.53621E-02 5.84128E-04 7.77124E-01-3.29940E-14-3.70993E-13
 -1      1872 2.25794E+01 5.18288E-03-1.96821E-03 7.87746E-01 6.33152E-15-3.46011E-13
 -1      1873 2.18727E+01 6.24553E-02-2.91145E-03 9.57566E-01 3.53211E-15-3.89989E-13
 -1      1874 2.27982E+01-3.16390E-02 2.69644E-04 7.81956E-01 5.65888E-15-2.49910E-13
 -1      1875 2.30491E+01-8.55867E-02-7.96535E-03 7.46509E-01 3.69778E-14-2.20728E-13
 -1      1876 2.22849E+01-2.74447E-02-3.01548E-03 9.93191E-01 2.83522E-14-1.81221E-13
 -1      1877 2.32856E+01-1.44355E-01 6.99658E-05 6.71091E-01 8.70150E-14-2.82143E-13
 -1      1878 2.34804E+01-2.24302E-01-1.55870E-02 5.63287E-01 1.42106E-13-2.81149E-13
 -1      1879 2.27336E+01-1.82116E-01-2.80967E-03 9.10617E-01 2.24820E-15-1.91120E-13
 -1      1880 2.37198E+01-3.01933E-01-1.59158E-04 3.85887E-01 3.46875E-14-3.51704E-13
 -1      1881 2.38038E+01-3.95775E-01-2.27193E-02 1.84726E-01-1.32163E-13-3.40592E-13
 -1      1882 2.31975E+01-4.03712E-01-1.58163E-03 6.42371E-01 1.47369E-14-2.55422E-13
 -1      1883 2.40129E+01-4.71460E-01-1.30590E-03-1.12665E-01-1.56366E-13-3.26836E-13
 -1      1884 2.39316E+01-5.41342E-01-2.55188E-02-4.01322E-01-1.00787E-13-3.13030E-13
 -1      1885 2.36308E+01-6.52524E-01 1.81026E-03 1.30938E-01-5.48346E-14-2.80816E-13
 -1      1886 2.40524E+01-5.68142E-01-5.36935E-03-7.91909E-01-7.63747E-14-3.18618E-13
 -1      1887 2.37785E+01-5.42748E-01-1.80378E-02-1.10692E+00-5.97578E-14-3.10790E-13
 -1      1888 2.39508E+01-8.19222E-01 7.47707E-03-6.20063E-01-9.63734E-14-2.64157E-13
 -1      1889 2.37280E+01-4.48594E-01-1.26988E-02-1.47120E+00-3.84120E-14-3.29869E-13
 -1      1890 2.32981E+01-2.66012E-01 1.50858E-04-1.67284E+00-3.97685E-15-3.45803E-13
 -1      1891 2.40282E+01-7.09578E-01 1.39826E-02-1.46796E+00-4.42849E-14-2.74811E-13
 -1      1892 2.30503E+01-2.94737E-02-1.90964E-02-1.80333E+00-1.36349E-14-3.04446E-13
 -1      1893 2.25882E+01 2.79972E-01 2.00882E-02-1.73418E+00 4.13367E-14-3.24856E-13
 -1      1894 2.37526E+01-1.87900E-01 1.07564E-02-2.05438E+00-4.61744E-14-1.65352E-13
 -1      1895 2.22490E+01 5.75110E-01-1.34630E-02-1.44925E+00 1.99840E-15-3.48808E-13
 -1      1896 2.19326E+01 8.33731E-01 2.42258E-02-1.04930E+00-2.27977E-14-3.78991E-13
 -1      1897 2.31869E+01 6.45048E-01-6.88993E-03-1.91927E+00-2.26347E-14-2.52544E-13
 -1      1898 2.17496E+01 9.81611E-01 4.59054E-03-4.13632E-01 8.32320E-15-3.64291E-13
 -1      1899 2.17118E+01 1.00498E+00 7.53268E-03 1.50969E-01 3.65506E-14-2.32917E-13
 -1      1900 2.26811E+01 1.32397E+00-2.71160E-02-8.99444E-01-7.04298E-15-1.94606E-13
 -1      1901 2.18337E+01 8.86623E-01 2.21141E-02 8.20132E-01 7.65291E-14-2.24732E-13
 -1      1902 2.20866E+01 6.44777E-01-1.34474E-02 1.25325E+00 1.60923E-13-1.59940E-13
 -1      1903 2.26188E+01 1.36889E+00-3.29435E-02 5.92167E-01 1.22515E-13-1.80482E-13
 -1      1904 2.23912E+01 3.58233E-01 2.18337E-02 1.59039E+00 3.21798E-13-1.86507E-13
 -1      1905 2.28095E+01 4.21813E-02-1.87551E-02 1.70334E+00 2.95386E-13 1.05796E-13
 -1      1906 2.30369E+01 7.47047E-01-1.13606E-02 1.71530E+00 2.90218E-13-4.56103E-14
 -1      1907 2.30546E+01-2.13802E-01 4.53903E-03 1.61606E+00 1.94051E-14 2.19234E-14
 -1      1908 2.34583E+01-4.19550E-01-1.34604E-02 1.43669E+00-1.49249E-13-3.11357E-14
 -1      1909 2.35667E+01-9.54196E-02 1.13621E-02 1.95835E+00 1.12541E-13-1.02639E-13
 -1      1910 2.35072E+01-5.32966E-01-1.50955E-02 1.08369E+00-1.47340E-13 2.00612E-14
 -1      1911 2.37628E+01-5.78698E-01-6.40262E-03 7.68730E-01-2.07924E-13-6.76976E-16
 -1      1912 2.38367E+01-6.78963E-01 1.64153E-02 1.43075E+00-1.25956E-13-1.67454E-13
 -1      1913 2.36321E+01-5.66611E-01-2.46637E-02 3.63636E-01-2.50827E-13 5.01192E-14
 -1      1914 2.36900E+01-5.07196E-01-2.63993E-03 5.75364E-02-1.50569E-13-1.26393E-13
 -1      1915 2.37446E+01-8.42560E-01 9.79370E-03 5.77117E-01-2.33352E-13 2.08591E-13
 -1      1916 2.34554E+01-4.34661E-01-2.34778E-02-2.66765E-01-6.71347E-14-1.38108E-13
 -1      1917 2.33365E+01-3.40720E-01-1.12641E-03-4.89809E-01 9.76805E-14-1.15842E-13
 -1      1918 2.33857E+01-7.06483E-01 2.71341E-03-2.22907E-01-1.12539E-13 1.94821E-13
 -1      1919 2.30627E+01-2.59925E-01-1.65257E-02-6.92599E-01 1.75275E-13-1.62719E-13
 -1      1920 2.28209E+01-1.74516E-01-3.93328E-04-8.19031E-01 1.97096E-13-1.17333E-13
 -1      1921 2.28910E+01-4.58527E-01-1.24866E-03-7.91829E-01 6.24058E-14 2.06697E-13
 -1      1922 2.25454E+01-1.08976E-01-8.54711E-03-9.12010E-01 1.42625E-13 1.57621E-14
 -1      1923 2.22394E+01-4.58915E-02 5.93253E-04-9.57905E-01 1.79287E-13 6.98734E-14
 -1      1924 2.23534E+01-2.21707E-01-2.80554E-03-1.10670E+00 1.88369E-13 1.54159E-13
 -1      1925 2.19806E+01 9.40557E-04-2.00348E-03-9.68769E-01 1.00707E-13 6.18550E-14
 -1      1926 2.16601E+01 4.44796E-02 2.08418E-03-9.56071E-01 4.84345E-14 1.11747E-13
 -1      1927 2.18258E+01-4.06744E-02-3.29365E-03-1.21346E+00 1.25235E-13 7.91583E-14
 -1      1928 2.14269E+01 7.81642E-02 2.30347E-03-9.09288E-01-1.58905E-14 1.12606E-13
 -1      1929 2.11292E+01 1.10598E-01 3.77600E-03-8.54195E-01-6.95680E-14-2.93866E-14
 -1      1930 2.13367E+01 8.78467E-02-3.44903E-03-1.16920E+00 1.65081E-14 1.18382E-13
 -1      1931 2.09257E+01 1.38676E-01 4.34851E-03-7.65574E-01-2.05660E-14-5.65498E-15
 -1      1932 2.06781E+01 1.67155E-01 5.14625E-03-6.75913E-01 1.63172E-13 1.28504E-13
 -1      1933 2.09031E+01 1.84525E-01-3.27101E-03-1.01704E+00 3.96723E-14 2.42741E-13
 -1      1934 2.05253E+01 1.85683E-01 4.62853E-03-5.60003E-01 2.91565E-13 9.88981E-14
 -1      1935 2.03416E+01 2.09879E-01 6.78109E-03-4.44882E-01 1.52352E-13 1.14950E-13
 -1      1936 2.02821E+01 2.98426E-01-2.81086E-03-5.22642E-01-3.27540E-14 6.39694E-14
 -1      1937 2.05506E+01 2.59533E-01-4.04106E-03-7.90412E-01 1.72841E-13 1.61716E-13
 -1      1938 1.96142E+01 1.41986E-01 7.87507E-03 2.60483E-01 1.64488E-13 4.95118E-13
 -1      1939 1.98867E+01 2.04049E-01 1.64322E-02 4.33434E-01 1.79847E-13 5.67733E-13
 -1      1940 2.00988E+01 3.50504E-01-1.52490E-03 6.56224E-01 2.20383E-13 3.98348E-13
 -1      1941 1.93710E+01 7.18756E-02 6.94122E-03 5.75686E-02 9.47536E-14 3.86342E-13
 -1      1942 1.94865E+01 1.01754E-01 1.41966E-02 1.46041E-01 1.20969E-13 4.38722E-13
 -1      1943 1.97055E+01 1.65125E-01-1.94311E-03 2.57553E-01 1.64645E-13 3.10976E-13
 -1      1944 1.92798E+01 3.61372E-02 4.42737E-03-4.78711E-02 5.85812E-14 3.32781E-13
 -1      1945 1.93105E+01 5.19338E-02 8.34110E-03-6.99622E-04 6.94551E-14 3.59483E-13
 -1      1946 1.95046E+01 8.06436E-02-2.82565E-03 4.55939E-02 1.04652E-13 2.24832E-13
 -1      1947 1.92775E+01 1.62928E-02 2.86592E-03-1.00461E-01 5.44536E-14 2.91468E-13
 -1      1948 1.92627E+01 2.51095E-02 4.36212E-03-7.58219E-02 6.46028E-14 3.28352E-13
 -1      1949 1.94251E+01 3.75203E-02-2.84599E-03-6.63674E-02 7.99877E-14 1.85446E-13
 -1      1950 1.93243E+01 4.81472E-03 2.00021E-03-1.22884E-01 6.02182E-14 2.93673E-13
 -1      1951 1.92863E+01 9.78074E-03 2.16759E-03-1.11340E-01 4.88384E-14 3.04965E-13
 -1      1952 1.94183E+01 1.38581E-02-2.32277E-03-1.22207E-01 6.24070E-14 1.78264E-13
 -1      1953 1.93960E+01-1.74095E-03 1.47250E-03-1.27782E-01 8.50322E-14 2.64127E-13
 -1      1954 1.93476E+01 9.07370E-04 9.83699E-04-1.24012E-01 6.95782E-14 2.94039E-13
 -1      1955 1.94530E+01 5.41736E-04-1.71138E-03-1.45408E-01 9.34825E-14 1.64961E-13
 -1      1956 1.94778E+01-5.16816E-03 1.11313E-03-1.22860E-01 1.80736E-14 2.12329E-13
 -1      1957 1.94263E+01-3.98493E-03 3.31630E-04-1.23579E-01 7.12311E-14 2.56549E-13
 -1      1958 1.95095E+01-6.66671E-03-1.20262E-03-1.49617E-01 7.04612E-14 1.71023E-13
 -1      1959 1.95609E+01-6.50628E-03 8.60019E-04-1.13115E-01-5.95880E-14 2.63604E-13
 -1      1960 1.95106E+01-6.27341E-03-2.26309E-05-1.16157E-01-4.51989E-14 2.08872E-13
 -1      1961 1.95756E+01-9.99581E-03-8.29915E-04-1.43362E-01-1.53679E-14 1.70725E-13
 -1      1962 1.96410E+01-6.39680E-03 6.89158E-04-1.01923E-01 7.91498E-14 2.89585E-13
 -1      1963 1.95939E+01-6.78852E-03-1.92283E-04-1.05799E-01 3.83120E-14 2.81956E-13
 -1      1964 1.96442E+01-1.07398E-02-5.75865E-04-1.32261E-01 2.78686E-14 1.84334E-13
 -1      1965 1.97165E+01-5.24260E-03 5.88805E-04-9.16529E-02 1.20079E-13 2.32794E-13
 -1      1966 1.96731E+01-6.04999E-03-2.38423E-04-9.52968E-02 9.61038E-14 2.59019E-13
 -1      1967 1.97117E+01-9.69134E-03-4.16517E-04-1.20165E-01 9.95304E-14 1.73103E-13
 -1      1968 1.97879E+01-3.28965E-03 5.52230E-04-8.40453E-02 9.70135E-14 1.32605E-13
 -1      1969 1.97476E+01-4.38103E-03-1.97690E-04-8.66528E-02 1.10686E-13 1.95508E-13
 -1      1970 1.97768E+01-7.33891E-03-3.32449E-04-1.09820E-01 1.66405E-13 1.20095E-13
 -1      1971 1.98573E+01-6.74888E-04 5.75706E-04-8.04613E-02 2.97622E-14 1.41885E-13
 -1      1972 1.98187E+01-1.97126E-03-9.32409E-05-8.13840E-02 4.13603E-14 1.41788E-13
 -1      1973 1.98403E+01-3.97046E-03-3.09843E-04-1.03284E-01 7.41618E-14 1.21123E-13
 -1      1974 1.99279E+01 2.54022E-03 6.57480E-04-8.20575E-02 2.27208E-14 1.43868E-13
 -1      1975 1.98890E+01 1.08284E-03 6.01123E-05-8.07272E-02 5.41749E-15 9.42710E-14
 -1      1976 1.99040E+01 2.63963E-04-3.39475E-04-1.02207E-01 3.12654E-14 8.79537E-14
 -1      1977 2.00040E+01 6.34107E-03 7.96624E-04-8.99006E-02 5.99360E-14 7.83948E-14
 -1      1978 1.99624E+01 4.74657E-03 2.52674E-04-8.57777E-02 6.76373E-14 1.76962E-13
 -1      1979 1.99712E+01 5.30598E-03-4.15468E-04-1.08021E-01 5.21199E-14 4.13382E-14
 -1      1980 2.00909E+01 1.07296E-02 9.91334E-04-1.05027E-01 1.69657E-13 3.74812E-14
 -1      1981 2.00435E+01 9.01696E-03 4.77225E-04-9.75730E-02 7.78444E-14 3.86981E-14
 -1      1982 2.00457E+01 1.11463E-02-5.34243E-04-1.22059E-01 1.44067E-13 4.35775E-14
 -1      1983 2.01945E+01 1.56861E-02 1.23629E-03-1.28440E-01 6.32052E-14 7.76699E-14
 -1      1984 2.01378E+01 1.38876E-02 7.26364E-04-1.17118E-01 1.78700E-13 1.11369E-13
 -1      1985 2.01324E+01 1.77766E-02-6.93501E-04-1.45588E-01 1.40660E-13-1.64071E-14
 -1      1986 2.03217E+01 2.11150E-02 1.51851E-03-1.61030E-01-9.55989E-14-4.98379E-14
 -1      1987 2.02519E+01 1.93007E-02 9.89442E-04-1.45339E-01-6.53828E-14-2.42485E-14
 -1      1988 2.02368E+01 2.51248E-02-8.91133E-04-1.79775E-01-3.38607E-15 1.86207E-14
 -1      1989 2.04794E+01 2.67640E-02 1.81114E-03-2.03368E-01-4.72933E-14 4.91564E-14
 -1      1990 2.03924E+01 2.50778E-02 1.24870E-03-1.82939E-01-3.77187E-14 1.94490E-14
 -1      1991 2.03648E+01 3.29627E-02-1.12395E-03-2.25515E-01-4.80640E-14 3.12677E-15
 -1      1992 2.06749E+01 3.21032E-02 2.06459E-03-2.55343E-01-5.80239E-14-4.71519E-14
 -1      1993 2.05667E+01 3.08145E-02 1.47447E-03-2.30113E-01-5.56115E-14-3.75460E-14
 -1      1994 2.05225E+01 4.07656E-02-1.38606E-03-2.83104E-01-4.53142E-15 4.97438E-14
 -1      1995 2.09143E+01 3.61480E-02 2.19544E-03-3.15537E-01 1.22283E-13 2.44965E-15
 -1      1996 2.07814E+01 3.57261E-02 1.61959E-03-2.86049E-01 2.31020E-14-2.96626E-14
 -1      1997 2.07158E+01 4.75069E-02-1.66647E-03-3.51659E-01 4.88368E-15-7.08689E-14
 -1      1998 2.12016E+01 3.72210E-02 2.07594E-03-3.80265E-01 8.33361E-15-1.41942E-13
 -1      1999 2.10420E+01 3.84298E-02 1.61443E-03-3.48146E-01 1.01834E-13-1.60470E-14
 -1      2000 2.09496E+01 5.13677E-02-1.94500E-03-4.28211E-01 1.03139E-13-7.90961E-14
 -1      2001 2.15364E+01 3.26791E-02 1.53202E-03-4.42190E-01-9.85675E-14-1.05074E-13
 -1      2002 2.13509E+01 3.66738E-02 1.36556E-03-4.10848E-01-8.93261E-14-1.53569E-13
 -1      2003 2.12263E+01 4.93740E-02-2.18457E-03-5.06353E-01-5.23039E-14-1.31183E-13
 -1      2004 2.19110E+01 1.87292E-02 3.66435E-04-4.88550E-01-1.52638E-13-1.82095E-13
 -1      2005 2.17052E+01 2.70847E-02 7.64396E-04-4.64092E-01-1.42478E-13-1.01201E-13
 -1      2006 2.15443E+01 3.70548E-02-2.31691E-03-5.74427E-01-1.41424E-13-1.09268E-13
 -1      2007 2.23066E+01-9.35132E-03-1.56616E-03-4.99389E-01-4.72438E-14-8.12544E-15
 -1      2008 2.20932E+01 5.15520E-03-2.85847E-04-4.91573E-01-8.10101E-14-1.10334E-13
 -1      2009 2.18955E+01 8.40927E-03-2.21890E-03-6.13478E-01-7.89617E-14-2.68002E-13
 -1      2010 2.26891E+01-5.59356E-02-4.20260E-03-4.46918E-01 1.79436E-13 1.91531E-13
 -1      2011 2.24905E+01-3.40266E-02-1.81736E-03-4.69573E-01 6.84862E-14 5.98354E-14
 -1      2012 2.22625E+01-4.31619E-02-1.68176E-03-5.95753E-01 1.24597E-14 3.59183E-14
 -1      2013 2.30058E+01-1.21711E-01-7.03586E-03-2.98482E-01-3.10589E-14 1.46077E-13
 -1      2014 2.28556E+01-9.34194E-02-3.72276E-03-3.68125E-01 8.90442E-14 1.86051E-13
 -1      2015 2.26149E+01-1.21804E-01-3.90649E-04-4.85697E-01 6.55344E-14 1.85108E-13
 -1      2016 2.31864E+01-1.97520E-01-8.92186E-03-2.72317E-02-7.83228E-14 2.16917E-13
 -1      2017 2.31270E+01-1.69000E-01-5.68234E-03-1.57755E-01-9.93225E-14 1.30939E-13
 -1      2018 2.29063E+01-2.22682E-01 2.02482E-03-2.47021E-01-8.87424E-14 1.97921E-13
 -1      2019 2.31524E+01-2.56907E-01-8.29217E-03 3.65446E-01-1.45967E-13 2.52433E-13
 -1      2020 2.32267E+01-2.42206E-01-7.14726E-03 1.74130E-01-9.16558E-14 2.96129E-13
 -1      2021 2.30741E+01-3.22155E-01 5.72959E-03 1.39324E-01-1.00298E-13 4.16366E-13
 -1      2022 2.28403E+01-2.54523E-01-4.22775E-03 8.17799E-01-3.08130E-14 1.99986E-13
 -1      2023 2.30746E+01-2.74259E-01-7.47333E-03 5.95942E-01-8.53276E-14 1.91820E-13
 -1      2024 2.30464E+01-3.70164E-01 1.00393E-02 6.43829E-01-1.05152E-13 2.03587E-13
 -1      2025 2.22437E+01-1.43779E-01 1.77368E-03 1.18487E+00 6.13324E-14 8.81413E-15
 -1      2026 2.26251E+01-2.13670E-01-5.97507E-03 1.00392E+00 2.60044E-14 1.86183E-13
 -1      2027 2.27663E+01-2.99494E-01 1.26589E-02 1.15314E+00 7.94590E-14 1.77915E-13
 -1      2028 2.14646E+01 7.81500E-02 5.07487E-03 1.26735E+00 1.68136E-13 1.17325E-13
 -1      2029 2.19214E+01-3.12641E-02-2.34922E-03 1.22370E+00 1.90768E-13 7.33962E-14
 -1      2030 2.22409E+01-6.87063E-02 9.93110E-03 1.46351E+00 1.86958E-13 8.95117E-16
 -1      2031 2.07351E+01 3.29351E-01 1.83236E-03 9.24370E-01 5.74167E-14 1.68004E-13
 -1      2032 2.11397E+01 2.29066E-01 3.21125E-03 1.08229E+00 8.22970E-14 2.47594E-13
 -1      2033 2.15972E+01 2.73797E-01 2.22421E-04 1.35473E+00 7.35922E-14 2.75511E-13
 -1      2034 2.03453E+01 4.68393E-01-5.70805E-03 2.15507E-01 1.79294E-13 9.76053E-14
 -1      2035 2.05564E+01 4.39841E-01 9.22837E-03 5.40807E-01 1.76111E-13 1.10300E-13
 -1      2036 2.10807E+01 5.72312E-01-1.12209E-02 7.48987E-01 1.94563E-13 2.09852E-13
 -1      2037 2.04758E+01 4.02814E-01-9.49623E-03-5.72558E-01-4.50907E-14 1.67179E-13
 -1      2038 2.04097E+01 4.69210E-01 1.28345E-02-2.16478E-01 8.14297E-14 1.33820E-13
 -1      2039 2.09352E+01 6.53263E-01-1.41516E-02-1.60235E-01 9.84698E-14 2.82720E-13
 -1      2040 2.10574E+01 1.77059E-01-5.58306E-03-1.09754E+00-2.73929E-13 2.08470E-13
 -1      2041 2.07439E+01 2.97584E-01 1.11160E-02-8.62777E-01-1.97675E-13 1.70171E-13
 -1      2042 2.12243E+01 4.63281E-01-6.16478E-03-9.77685E-01-1.47913E-13 5.14748E-13
 -1      2043 2.18165E+01-7.13578E-02 2.00432E-03-1.18755E+00 1.16841E-13 1.82203E-13
 -1      2044 2.13843E+01 3.57161E-02 4.22554E-03-1.14395E+00-1.46623E-13 1.73726E-13
 -1      2045 2.17774E+01 1.16510E-01 3.25752E-03-1.36885E+00-1.27356E-13 2.92558E-13
 -1      2046 2.24576E+01-2.28696E-01 7.36059E-03-9.09262E-01-2.47046E-13 2.02081E-13
 -1      2047 2.20604E+01-1.76429E-01-3.96703E-03-1.02348E+00-8.70831E-16 1.40374E-13
 -1      2048 2.23258E+01-2.00880E-01 6.29784E-03-1.26173E+00-2.30926E-14 2.10216E-13
 -1      2049 2.28093E+01-2.69611E-01 8.13784E-03-4.56021E-01-7.25435E-14 2.40385E-13
 -1      2050 2.25537E+01-2.71146E-01-9.49811E-03-6.45102E-01-1.65156E-13 2.45791E-13
 -1      2051 2.26734E+01-3.68923E-01 4.20360E-03-8.19604E-01-2.23551E-13 2.02342E-13
 -1      2052 2.28411E+01-2.29435E-01 5.73690E-03-7.12477E-03 9.14104E-14 7.51174E-14
 -1      2053 2.27633E+01-2.61957E-01-1.11356E-02-1.96021E-01-5.03070E-16 9.98723E-14
 -1      2054 2.27548E+01-3.83012E-01 9.67572E-04-2.72660E-01-1.97628E-14-1.75780E-14
 -1      2055 2.26114E+01-1.55952E-01 2.59070E-03 3.36508E-01 3.65333E-14 1.39361E-13
 -1      2056 2.26922E+01-1.96853E-01-9.71329E-03 1.89926E-01 4.77899E-14 1.35261E-13
 -1      2057 2.25996E+01-3.02362E-01-9.14153E-04 2.08489E-01 2.03006E-14-3.06615E-14
 -1      2058 2.22096E+01-8.16581E-02 3.23396E-04 5.46606E-01 1.13513E-13 1.55487E-13
 -1      2059 2.24030E+01-1.17994E-01-6.70478E-03 4.54711E-01 1.05860E-13 1.92996E-13
 -1      2060 2.22768E+01-1.90410E-01-1.31817E-03 5.45994E-01 1.23112E-13 2.84451E-13
 -1      2061 2.17229E+01-1.96731E-02-6.13182E-04 6.35097E-01 1.72549E-13-6.27554E-14
 -1      2062 2.19774E+01-4.76132E-02-3.33426E-03 5.93899E-01 1.26218E-13 1.39879E-13
 -1      2063 2.18587E+01-8.53733E-02-1.03081E-03 7.29934E-01 2.20506E-13 1.95301E-13
 -1      2064 2.12234E+01 2.99366E-02-4.95941E-04 6.25219E-01 1.40207E-13 5.60186E-15
 -1      2065 2.14933E+01 8.99094E-03-3.54157E-04 6.26290E-01 1.13093E-13 1.08832E-14
 -1      2066 2.14073E+01 2.97597E-04-7.70390E-04 7.81391E-01 1.12128E-13 2.06758E-13
 -1      2067 2.07671E+01 7.25447E-02-7.08281E-06 5.35915E-01 1.49309E-13 1.23906E-13
 -1      2068 2.10152E+01 5.54555E-02 1.75963E-03 5.72984E-01 8.93745E-14 2.52810E-14
 -1      2069 2.09709E+01 6.95009E-02-9.37014E-04 7.26270E-01 1.44260E-13 1.22606E-14
 -1      2070 2.03982E+01 1.12922E-01 1.61066E-03 3.79006E-01 6.61118E-14 2.24674E-16
 -1      2071 2.05931E+01 9.63174E-02 2.47665E-03 4.49351E-01 1.21278E-13 1.33636E-13
 -1      2072 2.05852E+01 1.29499E-01-1.43480E-03 5.84843E-01 1.16482E-13 1.13943E-13
 -1      2073 2.01764E+01 1.39831E-01 3.81769E-03 2.26212E-01-7.68313E-14 1.29088E-14
 -1      2074 2.03097E+01 1.29997E-01 2.27926E-03 3.17703E-01-6.04035E-14 8.91549E-14
 -1      2075 2.03198E+01 1.76690E-01-2.12225E-03 4.24877E-01-5.44400E-15 8.81745E-14
 -1      2076 2.01607E+01 2.12271E-01 2.89586E-05 2.83143E-01-1.57210E-13 2.26198E-13
 -1      2077 2.00198E+01 1.19374E+00-9.31793E-04 7.02174E-01 8.36232E-14-1.36754E-13
 -1      2078 2.00565E+01 9.69818E-01 3.04122E-03 6.80058E-01 9.74958E-15-1.23352E-13
 -1      2079 2.00912E+01 7.95020E-01 9.78714E-04 6.30368E-01 2.18684E-15-2.69266E-13
 -1      2080 2.01256E+01 5.96758E-01 4.01134E-03 5.66629E-01-4.81924E-14 1.29941E-13
 -1      2081 2.01097E+01 8.10232E-01-1.36513E-03 8.26653E-01-4.44002E-14-2.43415E-13
 -1      2082 2.01370E+01 4.78589E-01 1.89663E-03 4.79655E-01-1.44710E-13 2.75915E-13
 -1      2083 2.01609E+01 3.21946E-01 3.89512E-03 3.86245E-01-2.13243E-13 3.25880E-13
 -1      2084 2.02297E+01 3.07952E-01 2.54637E-03 4.66744E-01-1.47215E-13 3.23917E-13
 -1      2085 2.01851E+01 5.26581E-01-1.02788E-03 6.72113E-01-1.75928E-13 2.38778E-13
 -1      2086 1.99488E+01 1.59093E+00-3.72141E-03 6.84412E-01-1.15472E-13-6.03952E-13
 -1      2087 1.99851E+01 1.37157E+00 6.69683E-04 7.03041E-01-3.32213E-14-3.00612E-13
 -1      2088 2.00036E+01 1.16117E+00 9.67247E-05 8.82446E-01-1.46103E-14-3.61569E-13
 -1      2089 1.98803E+01 1.95507E+00-6.43835E-03 5.75319E-01-1.46668E-13-2.65097E-13
 -1      2090 1.99146E+01 1.76186E+00-1.85426E-03 6.34104E-01-1.10956E-13-3.59058E-13
 -1      2091 1.98983E+01 1.51063E+00 2.19998E-03 8.27892E-01 2.47755E-14-3.45497E-13
 -1      2092 1.98248E+01 2.23026E+00-8.29235E-03 3.83619E-01-1.25941E-13 3.82409E-13
 -1      2093 1.98513E+01 2.09375E+00-4.42917E-03 4.76534E-01-1.35238E-13 1.58452E-13
 -1      2094 1.98015E+01 1.82135E+00 4.66232E-03 6.61144E-01 2.93333E-14-8.98034E-14
 -1      2095 1.97920E+01 2.37536E+00-8.85530E-03 1.31845E-01-7.59267E-14-6.49892E-14
 -1      2096 1.98056E+01 2.31585E+00-6.66302E-03 2.47257E-01-1.18247E-13 1.85471E-13
 -1      2097 1.97275E+01 2.04665E+00 6.78917E-03 3.97301E-01-1.08341E-13 3.15819E-13
 -1      2098 1.97897E+01 2.36546E+00-8.03964E-03-1.44997E-01-1.52084E-13 1.92710E-14
 -1      2099 1.97869E+01 2.39296E+00-8.12666E-03-2.36235E-02-6.89325E-14 1.41140E-13
 -1      2100 1.96901E+01 2.15021E+00 7.92854E-03 6.91760E-02-3.26882E-13 1.30679E-13
 -1      2101 1.98193E+01 2.19889E+00-6.09368E-03-4.05203E-01-2.47890E-13-2.90735E-13
 -1      2102 1.98005E+01 2.31091E+00-8.37628E-03-2.96334E-01-2.10392E-13-2.46916E-14
 -1      2103 1.96983E+01 2.11280E+00 7.68716E-03-2.75973E-01-2.81855E-13-2.96273E-14
 -1      2104 1.98754E+01 1.90489E+00-3.25102E-03-6.06192E-01 9.79772E-15-3.19334E-13
 -1      2105 1.98436E+01 2.08248E+00-7.36619E-03-5.27401E-01-1.22586E-13-4.66066E-13
 -1      2106 1.97520E+01 1.94028E+00 6.28550E-03-5.83377E-01-9.12415E-14-3.57849E-13
 -1      2107 1.99518E+01 1.51538E+00-3.01083E-05-7.24366E-01 1.18958E-13 4.63947E-13
 -1      2108 1.99107E+01 1.73984E+00-5.23145E-03-6.85274E-01 1.43463E-13 7.73661E-14
 -1      2109 1.98422E+01 1.65773E+00 3.84928E-03-8.09363E-01 1.88748E-13-1.53307E-13
 -1      2110 2.00389E+01 1.08856E+00 3.10462E-03-7.36568E-01 1.38460E-13 9.47463E-14
 -1      2111 1.99930E+01 1.32565E+00-2.57281E-03-7.46105E-01 7.88189E-14 1.96238E-13
 -1      2112 1.99594E+01 1.30238E+00 1.27372E-03-9.22443E-01 1.55952E-13 2.92293E-13
 -1      2113 2.01299E+01 6.71485E-01 2.62545E-03-6.38514E-01-9.71131E-14-2.39447E-13
 -1      2114 2.00803E+01 8.95673E-01-8.31594E-04-6.97134E-01 5.16948E-14-1.10671E-13
 -1      2115 2.00899E+01 9.22683E-01-6.34647E-04-9.02930E-01 2.01445E-14-9.88790E-14
 -1      2116 1.17125E+01-5.11609E+00-7.39323E-02 6.76603E+00 8.21565E-15-2.21177E-13
 -1      2117 7.90802E+00-6.56885E+00-3.07999E-01 5.65170E+00-8.48210E-14-1.86656E-13
 -1      2118 9.54288E-01-5.88492E+00-1.87269E-01 1.14535E+00 2.33397E-13 2.29317E-13
 -1      2119 8.84809E-01-6.14764E+00-2.27290E-01-9.11670E-01 2.14578E-13-9.15934E-14
 -1      2120 4.85866E+00-6.17865E+00-2.08567E-01 4.94401E+00-3.99125E-14 6.36990E-14
 -1      2121 2.60705E+00-6.34743E+00-2.32203E-01 3.52626E+00 9.97258E-14 2.24265E-13
 -1      2122 8.79601E+00-5.29595E+00-7.68381E-02 6.33578E+00-4.99045E-14-1.65035E-13
 -1      2123 2.00584E+01-3.10328E+00 3.46519E-02 6.87403E+00-1.08469E-13-3.87856E-13
 -1      2124 1.55314E+01-5.04280E+00-2.74366E-01 6.26980E+00-5.50671E-14-3.16580E-13
 -1      2125 2.79523E+01-9.53871E-01 6.54770E-02 5.38423E+00-1.70308E-13-6.34715E-13
 -1      2126 2.32183E+01-2.43913E+00-1.46511E-01 5.71942E+00-1.08635E-13-3.68539E-13
 -1      2127 2.37456E+01-4.42624E+00 7.44132E-02 5.39133E+00-2.21156E-13-4.43423E-13
 -1      2128 1.95231E+01 4.01575E+00-2.56582E-02-1.70226E+00-1.01665E-13-4.95326E-13
 -1      2129 1.96508E+01 3.94218E+00-2.43598E-02-1.95747E+00-1.41474E-13-4.70998E-13
 -1      2130 1.99723E+01 3.25280E+00-8.06016E-03-1.91062E+00-1.65800E-13-4.22537E-13
 -1      2131 1.96942E+01 3.58271E+00-9.29537E-03-1.51896E+00-1.00943E-13-4.80685E-13
 -1      2132 3.85055E+01 5.82688E+00 2.70720E-01 1.37930E+00-5.98410E-14-5.64770E-13
 -1      2133 3.61964E+01 4.67914E+00 1.19217E-01 2.42024E+00-1.37362E-13-6.73184E-13
 -1      2134 4.01777E+01 7.25094E+00 3.04887E-01-5.84509E-02 2.60458E-13-6.09596E-13
 -1      2135 3.95072E+01 6.99044E+00 2.50701E-01 1.08390E+00 1.81466E-13-5.37931E-13
 -1      2136 3.85764E+01 6.21810E+00 2.28580E-01-1.53313E+00 3.20133E-13-8.26672E-13
 -1      2137 3.96768E+01 6.92983E+00 2.86071E-01-3.42757E-01 3.35287E-13-6.56142E-13
 -1      2138 3.45771E+01 3.76192E+00 7.50829E-02-2.96181E+00 5.35100E-13-7.07989E-13
 -1      2139 3.82509E+01 5.05657E+00 3.64127E-01-2.30160E+00 3.44835E-13-7.77378E-13
 -1      2140 3.51032E+01 6.07449E+00 2.97155E-01 1.84853E-01 3.52551E-13-5.34212E-13
 -1      2141 2.80167E+01-6.09484E-01-6.29052E-02-4.21208E+00 2.56517E-13-6.19449E-13
 -1      2142 3.26156E+01 1.46333E+00 2.43271E-01-4.11869E+00 5.49782E-13-5.87752E-13
 -1      2143 1.85049E+01-3.76534E+00-2.22791E-01-6.09183E+00 8.63754E-14-8.29059E-13
 -1      2144 2.38589E+01-2.10836E+00 2.35770E-02-6.31785E+00 1.88793E-13-7.86649E-13
 -1      2145 1.14365E+01-5.73099E+00-1.45353E-01-6.36718E+00 9.19820E-14-4.84224E-13
 -1      2146 1.50383E+01-4.38029E+00-6.77886E-02-6.86077E+00 1.21014E-13-7.40991E-13
 -1      2147 1.92155E+01-5.29054E+00-4.37656E-02-6.36947E+00 5.23470E-14-7.73048E-13
 -1      2148 3.07504E+00-7.31012E+00-4.70692E-01-3.77415E+00 1.73084E-13-4.66294E-14
 -1      2149 6.37559E+00-5.65636E+00-2.05837E-01-5.53628E+00 1.76414E-13-1.41331E-13
 -1      2150 7.46353E-01-6.01520E+00-2.11639E-01-1.04788E+00-6.70089E-14-4.18443E-13
 -1      2151 1.40447E+00-6.82085E+00-3.72101E-01-2.57645E+00 8.62643E-14-2.37310E-13
 -1      2152 3.82594E+00-4.70242E+00-1.21790E-01-3.95394E+00-5.05984E-14-1.70086E-13
 -1      2153 1.56276E+00-7.29373E+00-4.46543E-01 2.78646E+00-2.65010E-13-5.50116E-13
 -1      2154 6.23923E-01-6.60202E+00-3.20744E-01 1.40887E+00-1.12216E-13-5.59663E-13
 -1      2155 6.97065E+00-5.72961E+00-1.99844E-01 5.66133E+00-3.48777E-13-4.26825E-13
 -1      2156 3.75202E+00-7.34150E+00-4.66523E-01 3.94780E+00-3.26406E-13-4.66849E-13
 -1      2157 4.37378E+00-5.21460E+00-1.59863E-01 4.39591E+00-2.49967E-13-5.82701E-13
 -1      2158 1.61085E+01-4.38801E+00-3.57949E-02 6.75894E+00-4.25215E-13-4.51833E-13
 -1      2159 1.20284E+01-5.93241E+00-2.30018E-01 6.09626E+00-2.29428E-13-3.95201E-13
 -1      2160 2.39618E+01-2.09537E+00 7.96275E-02 6.31536E+00-4.34985E-13-4.73011E-13
 -1      2161 1.90365E+01-4.04118E+00-2.55993E-01 5.90801E+00-5.16698E-13-4.19220E-13
 -1      2162 2.02422E+01-5.48153E+00-7.99426E-03 6.04054E+00-8.63754E-14-1.73764E-13
 -1      2163 3.21127E+01 1.04844E+00 1.49224E-01 4.36417E+00-4.43437E-13-2.49134E-13
 -1      2164 2.74051E+01-4.79091E-01-6.58747E-02 4.94287E+00-4.81226E-13-3.35731E-13
 -1      2165 3.77833E+01 4.66456E+00 3.13890E-01 1.77912E+00-4.43812E-13-1.64313E-14
 -1      2166 3.42248E+01 3.10558E+00 5.81994E-02 2.33349E+00-5.14713E-13-1.34004E-13
 -1      2167 4.12489E+01 6.93590E+00 4.29358E-01 3.66338E-01-1.20015E-13-1.64202E-13
 -1      2168 3.92473E+01 6.34628E+00 2.36290E-01 1.51296E+00-2.03171E-13-1.82465E-13
 -1      2169 3.99215E+01 6.79606E+00 2.88148E-01-1.16512E+00-2.38143E-14-8.27671E-14
 -1      2170 4.07284E+01 7.12035E+00 3.56899E-01-4.31844E-02-9.56457E-14-1.14759E-13
 -1      2171 3.65912E+01 4.61518E+00 1.62240E-01-2.57381E+00-1.13382E-13 3.57492E-14
 -1      2172 3.97109E+01 5.70740E+00 3.87128E-01-1.80814E+00 2.55351E-14-6.92224E-14
 -1      2173 3.07375E+01 1.10147E+00 2.13915E-02-4.42504E+00-3.05200E-13-3.51941E-13
 -1      2174 3.50654E+01 2.77223E+00 3.03142E-01-3.96324E+00-1.87126E-13-1.88516E-13
 -1      2175 2.27374E+01-2.64669E+00-1.69160E-01-5.69174E+00-2.82552E-13-1.68754E-13
 -1      2176 2.78045E+01-6.64562E-01 1.64942E-01-5.84130E+00-3.91076E-13-5.01710E-13
 -1      2177 1.40290E+01-5.51115E+00-3.32001E-01-6.12658E+00 1.41553E-13 4.47087E-13
 -1      2178 1.88388E+01-3.68195E+00-1.19868E-02-6.89689E+00-7.42739E-14 2.20102E-13
 -1      2179 6.44934E+00-6.99597E+00-4.06892E-01-5.09969E+00 1.03084E-13 1.98674E-13
 -1      2180 9.86899E+00-5.50362E+00-2.01138E-01-6.20392E+00 9.64784E-14 6.93584E-13
 -1      2181 2.00929E+00-6.64006E+00-2.84983E-01-2.96345E+00 1.84630E-13-1.72640E-13
 -1      2182 3.94846E+00-6.44878E+00-2.55991E-01-4.38024E+00 1.18017E-13-1.40943E-13
 -1      2183 3.52595E+01 3.10288E+00 2.93236E-01 3.32044E+00-8.21010E-14-6.13287E-13
 -1      2184 3.10432E+01 1.25324E+00-2.21615E-02 3.37981E+00-1.18718E-13-5.77427E-13
 -1      2185 3.35651E+01 3.51598E+00 2.06318E-01 9.87674E-02-9.72555E-14-6.42986E-13
 -1      2186 3.00642E+01-1.12999E+00 1.11720E-01 2.60917E+00-1.95052E-13-5.83311E-13
 -1      2187 2.07326E+01 1.10871E+00-2.05791E-02-1.61733E+00-2.65586E-13-1.07679E-13
 -1      2188 3.27543E+01 1.72690E+00 1.33032E-01-8.73413E-01 2.79221E-13-4.75175E-13
 -1      2189 2.06232E+01 1.32938E+00-1.88320E-02-1.67900E+00-2.75696E-13-1.98570E-13
 -1      2190 3.40149E+00-4.24801E+00-7.18619E-02 2.79771E+00 1.74805E-13 2.01505E-13
 -1      2191 1.62424E+01-5.75481E+00-3.96806E-02 6.86579E+00-1.60039E-13-4.72254E-13
 -1      2192 2.01733E+01 5.36119E-01 3.44648E-03-6.17555E-01-8.30323E-14-1.77008E-13
 -1      2193 3.02650E+00-4.27649E+00-8.66468E-02-2.34588E+00 2.90379E-13-4.80171E-14
 -1      2194 7.16343E+00-5.55865E+00-1.56636E-01-5.71512E+00 3.91909E-14 2.08999E-13
 -1      2195 1.45591E+01-5.86612E+00-6.78204E-02-6.86864E+00 1.36280E-13 4.67182E-13
 -1      2196 2.29444E+01-4.67020E+00 3.14924E-02-5.59153E+00-1.05083E-13-9.86156E-14
 -1      2197 2.99660E+01-1.24071E+00 1.52432E-01-3.18464E+00-3.20730E-13-4.50973E-13
 -1      2198 3.44722E+01 3.21388E+00 2.63824E-01-9.52255E-01-1.39444E-13-5.47895E-14
 -1      2199 3.59990E+01 6.87999E+00 3.10061E-01 1.23160E-01-1.05027E-13 5.01821E-14
 -1      2200 3.65831E+01 8.03643E+00 3.56105E-01-8.11198E-02-1.45439E-13-1.26933E-13
 -1      2201 3.53512E+01 5.67438E+00 2.21529E-01-4.72926E-01-3.09308E-13 9.01501E-14
 -1      2202 2.70202E+01-3.14579E+00 9.61947E-02 4.03622E+00-1.88988E-13 8.99281E-14
 -1      2203 1.18603E+01-5.67594E+00-6.11172E-02 6.62899E+00-9.73666E-14-3.50983E-13
 -1      2204 1.65041E+00-4.98531E+00-1.34244E-01 2.59875E-01-1.11761E-13-6.09790E-13
 -1      2205 2.95327E+00-2.96174E+00 3.31912E-02-8.36878E-01-1.58987E-13-5.06595E-13
 -1      2206 2.84585E+00-3.26982E+00 8.65264E-03 1.66422E+00-1.87766E-13-6.30329E-13
 -1      2207 1.01123E+01-5.48363E+00-7.33680E-02-6.38484E+00 1.37335E-13-4.36623E-13
 -1      2208 1.37229E+01-5.34279E+00-7.36576E-02-6.88416E+00 9.03722E-14-5.70335E-13
 -1      2209 9.15578E+00-4.59984E+00 9.27691E-02-6.32532E+00 1.07470E-13-2.20629E-13
 -1      2210 3.54012E+01 6.94532E+00 2.73224E-01-2.45849E-01-2.81997E-14-5.25052E-13
 -1      2211 3.58890E+01 7.97151E+00 3.02977E-01 2.13937E-01 3.00537E-13-4.77451E-13
 -1      2212 2.72207E+01-2.75304E+00 9.99510E-02-3.96651E+00 1.06859E-13-5.66880E-13
 -1      2213 3.26037E+01 1.22278E+00 1.91116E-01 1.15255E+00-3.83873E-13 5.76206E-14
 -1      2214 2.01442E+01 5.06326E-01 3.73044E-03 6.79534E-01 2.26890E-13 2.16376E-13
 -1      2215 2.04124E+01 6.99868E-01 2.07907E-02 9.71085E-01 2.47594E-13 2.51147E-13
 -1      2216 1.95633E+01 3.51567E+00-1.11338E-02-5.92272E-01 5.90085E-14-4.26713E-13
 -1      2217 1.95984E+01 3.46979E+00-1.05288E-02-7.76826E-01 2.14347E-14-4.46659E-13
 -1      2218 1.96445E+01 3.38174E+00-1.28064E-02-9.41536E-01-4.09102E-15-4.51191E-13
 -1      2219 1.97048E+01 3.30118E+00-1.28889E-02-1.13094E+00-5.26185E-14-4.55590E-13
 -1      2220 1.97896E+01 3.03290E+00 1.91529E-04-7.93335E-01 8.80817E-15-4.26108E-13
 -1      2221 1.95165E+01 3.59815E+00-9.62938E-03 9.95646E-02 1.76569E-13-3.70097E-13
 -1      2222 1.95159E+01 3.59898E+00-9.63759E-03-8.01476E-02 1.45128E-13-3.87745E-13
 -1      2223 1.95424E+01 3.55874E+00-9.72957E-03 4.46114E-01 2.32225E-13-3.52532E-13
 -1      2224 1.95251E+01 3.58131E+00-1.01479E-02 2.65051E-01 1.98864E-13-3.56892E-13
 -1      2225 1.96828E+01 3.22085E+00-8.98087E-04 1.69831E-01 1.78438E-13-3.39562E-13
 -1      2226 1.96036E+01 3.46221E+00-1.06165E-02 7.90558E-01 2.77395E-13-3.29663E-13
 -1      2227 1.95676E+01 3.50922E+00-1.12133E-02 6.08909E-01 2.55214E-13-3.50727E-13
 -1      2228 1.97193E+01 3.15732E+00-4.97731E-04 4.88775E-01 2.34289E-13-3.24186E-13
 -1      2229 1.97132E+01 3.28851E+00-1.29559E-02 1.14432E+00 3.25982E-13-2.44750E-13
 -1      2230 1.96511E+01 3.37184E+00-1.28760E-02 9.54872E-01 2.93009E-13-2.95301E-13
 -1      2231 1.97955E+01 3.02368E+00 2.72996E-04 8.04929E-01 2.81247E-13-2.93476E-13
 -1      2232 1.98911E+01 3.00302E+00-1.81732E-02 1.49166E+00 3.57283E-13-1.55979E-13
 -1      2233 1.97923E+01 3.14428E+00-1.51750E-02 1.30113E+00 3.35736E-13-2.05881E-13
 -1      2234 1.99236E+01 2.79861E+00 1.96320E-03 1.11158E+00 3.24617E-13-2.09126E-13
 -1      2235 2.01681E+01 2.54360E+00-2.84068E-02 1.79613E+00 3.70187E-13-3.43579E-14
 -1      2236 2.00176E+01 2.78292E+00-1.70860E-02 1.62162E+00 3.56134E-13-1.04139E-13
 -1      2237 2.01169E+01 2.44807E+00 5.84494E-03 1.37760E+00 3.35379E-13-1.15392E-13
 -1      2238 1.98666E+01 2.68159E-01 4.72697E-03 2.87075E-01 1.68871E-13 1.68705E-13
 -1      2239 2.00277E+01 3.67888E-01 2.01715E-02 4.44198E-01 2.01840E-13 2.17102E-13
 -1      2240 2.02077E+01 6.34484E-01-2.23000E-03 7.06656E-01 2.28197E-13 9.20583E-14
 -1      2241 2.03989E+01 8.54302E-01 1.31821E-02-1.00226E+00-2.22275E-13-2.10711E-13
 -1      2242 2.01864E+01 6.27050E-01-4.52177E-03-6.93058E-01-2.03672E-13-2.04707E-13
 -1      2243 3.00880E+01-5.57851E-02-8.83962E-02-4.64925E-02 2.99677E-13-2.85078E-13
 -1      2244 3.17327E+01 2.37802E+00-7.39724E-02 6.54844E-01 3.57381E-13-2.65787E-13
 -1      2245 3.02627E+01-9.17366E-01-1.43113E-01 7.26624E-01-1.42157E-13-5.58192E-13
 -1      2246 2.79927E+01-3.03369E+00-1.32210E-02 2.31334E+00-2.82940E-13-6.09873E-13
 -1      2247 2.01215E+01 4.69338E-01 1.61945E-02-4.77023E-01-1.93127E-13-1.66505E-13
 -1      2248 1.99799E+01 3.44435E-01-4.75771E-05-3.05420E-01-1.51714E-13-1.80949E-13
 -1      2249 2.02412E+01 7.45437E-01-2.21749E-03-6.95032E-01-1.95505E-13-2.18647E-13
 -1      2250 1.99166E+01 2.59447E-01 1.08333E-02-1.67919E-01-1.43565E-13-1.60101E-13
 -1      2251 1.98377E+01 1.88034E-01 6.89710E-04-7.07022E-02-1.29054E-13-1.83292E-13
 -1      2252 2.00780E+01 4.16301E-01-3.77256E-03-3.12278E-01-1.51526E-13-1.59281E-13
 -1      2253 1.97934E+01 1.38669E-01 6.38665E-03 1.14216E-02-1.05705E-13-1.76351E-13
 -1      2254 1.97583E+01 9.65273E-02 7.34336E-04 6.48430E-02-6.64143E-14-1.85804E-13
 -1      2255 1.99574E+01 2.27345E-01-3.67415E-03-7.32876E-02-1.13989E-13-1.56624E-13
 -1      2256 1.97325E+01 6.68635E-02 3.58434E-03 1.10816E-01-6.07701E-14-1.97231E-13
 -1      2257 1.97253E+01 4.16585E-02 6.61117E-04 1.37698E-01-6.16570E-14-2.03646E-13
 -1      2258 1.98818E+01 1.15464E-01-2.96134E-03 6.77997E-02-9.48109E-14-1.75993E-13
 -1      2259 1.97140E+01 2.37805E-02 1.86669E-03 1.60512E-01-8.18421E-14-2.22312E-13
 -1      2260 1.97235E+01 9.03539E-03 5.69925E-04 1.71281E-01-7.90723E-14-2.25811E-13
 -1      2261 1.98427E+01 4.81860E-02-2.16336E-03 1.44938E-01-9.56527E-14-1.98709E-13
 -1      2262 1.97222E+01-1.32134E-03 8.08897E-04 1.79690E-01-8.36257E-14-2.42596E-13
 -1      2263 1.97413E+01-9.27092E-03 4.94751E-04 1.80990E-01-1.03173E-13-2.50385E-13
 -1      2264 1.98296E+01 8.41007E-03-1.49369E-03 1.81288E-01-9.19595E-14-2.38000E-13
 -1      2265 1.97465E+01-1.46006E-02 1.63369E-04 1.80982E-01-1.29933E-13-2.16346E-13
 -1      2266 1.97704E+01-1.79652E-02 4.53918E-04 1.77237E-01-1.42399E-13-2.21743E-13
 -1      2267 1.98339E+01-1.35193E-02-9.97551E-04 1.92664E-01-1.27727E-13-2.34108E-13
 -1      2268 1.97797E+01-1.98167E-02-2.14840E-04 1.72985E-01-1.16115E-13-2.13752E-13
 -1      2269 1.98058E+01-1.99851E-02 4.57089E-04 1.67241E-01-8.59073E-14-1.94756E-13
 -1      2270 1.98493E+01-2.34015E-02-6.58442E-04 1.90014E-01-1.27175E-13-1.98394E-13
 -1      2271 1.98175E+01-1.93486E-02-4.16692E-04 1.61714E-01-7.84923E-14-1.79926E-13
 -1      2272 1.98444E+01-1.71995E-02 5.09102E-04 1.56144E-01-5.36798E-14-2.06961E-13
 -1      2273 1.98715E+01-2.48720E-02-4.45823E-04 1.81057E-01-8.73410E-14-1.38497E-13
 -1      2274 1.98578E+01-1.47023E-02-5.02901E-04 1.51515E-01-5.65404E-14-1.88222E-13
 -1      2275 1.98851E+01-1.07718E-02 6.13272E-04 1.47733E-01 2.15170E-14-1.72894E-13
 -1      2276 1.98979E+01-2.02363E-02-3.31176E-04 1.71361E-01-5.91332E-14-8.25779E-14
 -1      2277 1.98999E+01-6.78941E-03-5.15397E-04 1.45665E-01 6.74957E-14-1.89748E-13
 -1      2278 1.99281E+01-1.37067E-03 7.73164E-04 1.44948E-01 3.54684E-14-1.50000E-13
 -1      2279 1.99275E+01-1.09147E-02-2.91469E-04 1.65081E-01 2.33852E-14-1.04648E-13
 -1      2280 1.99443E+01 3.90294E-03-4.83606E-04 1.46798E-01-8.61419E-14-1.56942E-13
 -1      2281 1.99744E+01 1.06917E-02 9.92969E-04 1.50239E-01-8.93688E-14-1.94019E-13
 -1      2282 1.99600E+01 2.29391E-03-3.08864E-04 1.65483E-01-2.99890E-14-1.91250E-13
 -1      2283 1.99926E+01 1.71913E-02-4.28345E-04 1.57206E-01-5.21937E-14-2.32332E-13
 -1      2284 2.00261E+01 2.53525E-02 1.27695E-03 1.65821E-01-9.07539E-14-2.08876E-13
 -1      2285 1.99961E+01 1.90344E-02-3.69368E-04 1.75313E-01-8.84586E-14-1.70781E-13
 -1      2286 2.00470E+01 3.30945E-02-3.64391E-04 1.79041E-01-1.12892E-13-1.93766E-13
 -1      2287 2.00858E+01 4.26978E-02 1.62799E-03 1.93834E-01-1.45143E-13-1.93666E-13
 -1      2288 2.00371E+01 3.92525E-02-4.61519E-04 1.97066E-01-1.12061E-13-1.86227E-13
 -1      2289 2.01103E+01 5.17283E-02-3.02047E-04 2.14436E-01-1.35334E-13-1.80088E-13
 -1      2290 2.01568E+01 6.28460E-02 2.04514E-03 2.36425E-01-7.41183E-14-1.77972E-13
 -1      2291 2.00847E+01 6.30548E-02-5.75235E-04 2.33138E-01-1.29271E-13-1.34580E-13
 -1      2292 2.01861E+01 7.31725E-02-2.47793E-04 2.65530E-01-8.32948E-14-2.01687E-13
 -1      2293 2.02427E+01 8.57885E-02 2.51966E-03 2.95707E-01-8.93661E-14-2.30885E-13
 -1      2294 2.01412E+01 9.05401E-02-7.01021E-04 2.85887E-01-8.65021E-14-1.24664E-13
 -1      2295 2.02780E+01 9.72771E-02-2.03709E-04 3.34364E-01-7.46759E-14-2.62612E-13
 -1      2296 2.03477E+01 1.11146E-01 3.02896E-03 3.73579E-01 3.31061E-15-3.00613E-13
 -1      2297 2.02089E+01 1.21563E-01-8.30138E-04 3.57563E-01-1.16577E-13-1.20406E-13
 -1      2298 2.03904E+01 1.23360E-01-1.65020E-04 4.22605E-01 5.16194E-14-3.06636E-13
 -1      2299 2.04759E+01 1.37780E-01 3.52734E-03 4.71329E-01 1.24041E-13-2.95718E-13
 -1      2300 2.02906E+01 1.55368E-01-9.56731E-04 4.50076E-01 3.55542E-15-1.88654E-13
 -1      2301 2.05277E+01 1.49722E-01-1.14624E-04 5.31006E-01 1.39236E-13-3.42358E-13
 -1      2302 2.06318E+01 1.63178E-01 3.93292E-03 5.88899E-01 1.17080E-13-3.79982E-13
 -1      2303 2.03892E+01 1.90019E-01-1.08334E-03 5.64524E-01 9.02655E-14-4.08526E-13
 -1      2304 2.06946E+01 1.72885E-01-1.30960E-05 6.58469E-01 1.07530E-13-3.62086E-13
 -1      2305 2.08197E+01 1.82502E-01 4.11043E-03 7.23673E-01 9.99325E-14-3.16090E-13
 -1      2306 2.05081E+01 2.21495E-01-1.23223E-03 7.00379E-01 9.69088E-14-3.56187E-13
 -1      2307 2.08964E+01 1.86452E-01 2.17217E-04 8.00528E-01 7.87567E-14-3.66511E-13
 -1      2308 2.10439E+01 1.87228E-01 3.85128E-03 8.68570E-01 4.94876E-14-3.48374E-13
 -1      2309 2.06513E+01 2.42340E-01-1.46503E-03 8.54185E-01 7.10140E-14-3.54348E-13
 -1      2310 2.11388E+01 1.79563E-01 7.13449E-04 9.47019E-01 5.77262E-15-3.71254E-13
 -1      2311 2.13090E+01 1.63469E-01 2.85698E-03 1.00924E+00 2.62492E-14-3.72292E-13
 -1      2312 2.08248E+01 2.39809E-01-1.91093E-03 1.01757E+00 9.03384E-15-4.04766E-13
 -1      2313 2.14296E+01 1.35241E-01 1.68971E-03 1.07874E+00 5.90731E-14-4.19766E-13
 -1      2314 2.16206E+01 9.06095E-02 7.41523E-04 1.12033E+00 2.37494E-14-3.58431E-13
 -1      2315 2.10382E+01 1.93777E-01-2.79287E-03 1.17439E+00-8.28290E-15-4.26466E-13
 -1      2316 2.17789E+01 2.97300E-02 3.42207E-03 1.16313E+00 6.04352E-14-2.88926E-13
 -1      2317 2.19863E+01-5.78887E-02-2.91749E-03 1.16131E+00 9.90091E-14-2.07309E-13
 -1      2318 2.13073E+01 7.55222E-02-4.41363E-03 1.29679E+00 6.70993E-14-3.65674E-13
 -1      2319 2.21999E+01-1.64324E-01 6.12689E-03 1.14984E+00 3.41088E-14-2.40398E-13
 -1      2320 2.24145E+01-3.07266E-01-8.46618E-03 1.07361E+00 9.05417E-15-2.35432E-13
 -1      2321 2.16576E+01-1.49653E-01-7.02633E-03 1.34046E+00 6.90701E-14-2.97031E-13
 -1      2322 2.27040E+01-4.65076E-01 9.45685E-03 9.68694E-01 1.31787E-14-2.61848E-13
 -1      2323 2.29090E+01-6.59512E-01-1.55681E-02 7.83489E-01-4.53847E-15-2.27734E-13
 -1      2324 2.21241E+01-5.09621E-01-1.04942E-02 1.23997E+00 2.26562E-14-2.51912E-13
 -1      2325 2.32837E+01-8.48774E-01 1.18562E-02 5.39335E-01-4.40151E-14-2.58623E-13
 -1      2326 2.34497E+01-1.04889E+00-2.18111E-02 2.23218E-01-1.03749E-13-2.29268E-13
 -1      2327 2.27398E+01-9.89626E-01-1.32490E-02 9.09006E-01-7.56623E-14-2.31540E-13
 -1      2328 2.38785E+01-1.20062E+00 9.14028E-03-1.85720E-01-1.18191E-13-1.71958E-13
 -1      2329 2.39621E+01-1.30239E+00-2.54517E-02-6.08847E-01-7.23718E-14-1.52713E-13
 -1      2330 2.34979E+01-1.46966E+00-1.17894E-02 2.65876E-01-3.92056E-14-2.29593E-14
 -1      2331 2.43469E+01-1.28059E+00-6.70115E-03-1.15960E+00-3.20041E-14-2.33115E-13
 -1      2332 2.43052E+01-1.08481E+00-1.24585E-02-1.58359E+00 1.14052E-14-9.70513E-14
 -1      2333 2.43049E+01-1.69305E+00-9.16604E-03-7.04734E-01-1.06140E-13 3.93270E-14
 -1      2334 2.44283E+01-7.21517E-01-3.65985E-02-2.03714E+00 3.25803E-15-1.65896E-13
 -1      2335 2.42730E+01-1.61514E-01 6.66823E-03-2.21437E+00-6.93222E-14-1.92350E-13
 -1      2336 2.48609E+01-1.15819E+00-2.06679E-03-1.82062E+00-4.55799E-14-6.56506E-14
 -1      2337 2.40934E+01 5.19075E-01-5.35976E-02-2.30697E+00-3.79037E-15-1.56434E-13
 -1      2338 2.38605E+01 1.28567E+00 1.92652E-02-2.02672E+00 2.78597E-15-1.48560E-13
 -1      2339 2.49701E+01 6.42286E-02-6.44557E-03-2.45239E+00 1.44763E-15 5.16948E-14
 -1      2340 2.35238E+01 1.85578E+00-6.67305E-02-1.35169E+00-7.08045E-14-6.87419E-14
 -1      2341 2.34543E+01 2.25452E+00-6.97227E-03-6.71580E-01-5.47409E-14-6.35499E-14
 -1      2342 2.45293E+01 2.18925E+00-2.70531E-02-1.99690E+00 2.89074E-14 8.38947E-14
 -1      2343 2.34088E+01 2.32086E+00-1.30614E-02 3.10378E-01 1.28023E-15-8.41679E-14
 -1      2344 2.34824E+01 2.00564E+00-4.84031E-02 1.05485E+00 1.71863E-13-9.36165E-15
 -1      2345 2.43374E+01 2.96484E+00-3.53286E-02-2.43591E-01-3.60614E-14 2.62247E-14
 -1      2346 2.37485E+01 1.43977E+00 1.34773E-02 1.74424E+00 2.39631E-13 2.88293E-14
 -1      2347 2.39378E+01 7.11075E-01-5.72329E-02 2.09085E+00 2.85220E-13 2.05305E-15
 -1      2348 2.44764E+01 2.21158E+00-4.32375E-02 1.58686E+00 2.05939E-13-6.91842E-14
 -1      2349 2.41486E+01 5.42356E-03 1.12354E-02 2.12371E+00 1.16296E-13-1.65535E-13
 -1      2350 2.43039E+01-6.12914E-01-3.63712E-02 1.98346E+00-1.36468E-13-3.21874E-13
 -1      2351 2.48661E+01 4.63132E-01-5.96960E-03 2.29304E+00 7.47284E-14-3.18523E-13
 -1      2352 2.41957E+01-1.02557E+00-7.92757E-03 1.53903E+00-6.11577E-14-2.77662E-13
 -1      2353 2.42247E+01-1.26710E+00-8.32524E-03 1.12710E+00-3.25651E-14-2.08321E-13
 -1      2354 2.48458E+01-1.05365E+00 1.12219E-02 1.76026E+00-3.45787E-14-3.45484E-13
 -1      2355 2.38580E+01-1.33210E+00-2.11104E-02 5.70147E-01-6.96960E-14-5.63019E-14
 -1      2356 2.37542E+01-1.27008E+00 6.36742E-03 1.24629E-01-1.15670E-13 7.90676E-14
 -1      2357 2.42867E+01-1.68695E+00 1.84852E-03 6.66162E-01-1.69838E-14-1.95295E-13
 -1      2358 2.33095E+01-1.13257E+00-2.21173E-02-3.22512E-01-1.77804E-13 2.28293E-13
 -1      2359 2.31154E+01-9.38613E-01 1.05111E-02-6.68875E-01-3.17173E-14 2.04549E-13
 -1      2360 2.34636E+01-1.56516E+00-9.06678E-03-3.64966E-01 2.08854E-14-1.93927E-14
 -1      2361 2.27139E+01-7.45383E-01-1.62376E-02-9.46316E-01 2.65525E-14 2.70185E-13
 -1      2362 2.24750E+01-5.43183E-01 9.13621E-03-1.15904E+00 9.99647E-14 3.16043E-13
 -1      2363 2.26520E+01-1.09951E+00-1.20789E-02-1.08122E+00 2.23959E-14 2.69042E-13
 -1      2364 2.21562E+01-3.72636E-01-9.25248E-03-1.28889E+00 1.35380E-13 1.62833E-13
 -1      2365 2.19051E+01-2.13053E-01 6.62114E-03-1.38342E+00 5.51784E-14 2.97836E-14
 -1      2366 2.19780E+01-5.99449E-01-1.02276E-02-1.47076E+00 2.66885E-14 2.30344E-13
 -1      2367 2.16627E+01-8.71586E-02-3.64543E-03-1.40721E+00 2.19134E-14 6.32363E-14
 -1      2368 2.14194E+01 2.50289E-02 4.78059E-03-1.41297E+00 4.07419E-14 2.28874E-14
 -1      2369 2.14554E+01-1.97514E-01-7.15839E-03-1.60791E+00 4.89657E-14 8.43904E-14
 -1      2370 2.12333E+01 1.12953E-01 7.61774E-06-1.36562E+00 1.16689E-13 3.05482E-14
 -1      2371 2.10101E+01 1.91984E-01 3.98989E-03-1.30839E+00 9.98937E-14 1.21045E-13
 -1      2372 2.10535E+01 8.96591E-02-4.57448E-03-1.57050E+00 8.57581E-14 7.70106E-14
 -1      2373 2.08607E+01 2.58060E-01 1.99709E-03-1.21228E+00 5.88281E-14 1.00577E-13
 -1      2374 2.06678E+01 3.18872E-01 3.96782E-03-1.10799E+00 7.22322E-14 2.61610E-13
 -1      2375 2.07361E+01 2.93533E-01-2.81563E-03-1.41505E+00 1.44024E-13-7.78414E-14
 -1      2376 1.17674E+01-4.63326E+00 2.51749E-02 6.90607E+00-1.40998E-13-5.23470E-13
 -1      2377 8.78751E+00-3.94098E+00 1.15020E-01 5.83541E+00 1.65423E-14-2.75863E-13
 -1      2378 1.96185E+01 7.27873E-02 2.08768E-03-6.45708E-02 8.26806E-14 5.78119E-14
 -1      2379 1.96461E+01 1.04372E-01 6.91727E-03-1.83307E-02 1.02360E-13 7.94032E-14
 -1      2380 1.95951E+01 3.13348E-02 1.37329E-03-1.30772E-01 7.61101E-14 5.68933E-14
 -1      2381 1.95920E+01 5.00292E-02 3.69460E-03-1.08001E-01 6.63350E-14 6.78841E-14
 -1      2382 1.97648E+01 9.03022E-02-3.20199E-03-7.00608E-02 8.79866E-14-3.52459E-14
 -1      2383 1.96077E+01 6.88589E-03 9.34176E-04-1.60251E-01 9.75488E-14 6.48302E-14
 -1      2384 1.95874E+01 1.78031E-02 1.83682E-03-1.51497E-01 9.96073E-14 6.43465E-14
 -1      2385 1.97311E+01 3.69539E-02-2.32208E-03-1.43264E-01 8.76050E-14-1.54124E-14
 -1      2386 1.96413E+01-6.85678E-03 6.52522E-04-1.67729E-01 4.62127E-14 9.46085E-14
 -1      2387 1.96122E+01-9.11910E-04 7.48340E-04-1.67148E-01 6.69113E-14 8.77493E-14
 -1      2388 1.97287E+01 5.75200E-03-1.56952E-03-1.76604E-01 6.09363E-14-1.70497E-14
 -1      2389 1.96860E+01-1.35183E-02 4.82524E-04-1.62869E-01-1.98376E-14 1.05335E-13
 -1      2390 1.96531E+01-1.08906E-02 1.09405E-04-1.66647E-01 4.00387E-14 1.34565E-13
 -1      2391 1.97457E+01-1.14232E-02-1.01681E-03-1.85875E-01 2.36106E-14 6.10592E-14
 -1      2392 1.97355E+01-1.53225E-02 4.03822E-04-1.52238E-01 8.60602E-14 6.40281E-14
 -1      2393 1.97018E+01-1.49842E-02-2.47596E-04-1.57778E-01 1.60341E-14 6.47958E-14
 -1      2394 1.97742E+01-1.92944E-02-6.44512E-04-1.81694E-01 4.84336E-14 1.46448E-14
 -1      2395 1.97867E+01-1.36756E-02 4.04285E-04-1.40431E-01 1.28921E-13 2.40806E-14
 -1      2396 1.97535E+01-1.49768E-02-4.20121E-04-1.45905E-01 1.28106E-13 5.36127E-14
 -1      2397 1.98088E+01-2.07642E-02-4.15355E-04-1.71386E-01 1.21773E-13-6.06826E-14
 -1      2398 1.98383E+01-9.46217E-03 4.76022E-04-1.30778E-01 1.44109E-13 4.50317E-14
 -1      2399 1.98058E+01-1.19995E-02-4.69990E-04-1.34844E-01 1.65706E-13 5.71486E-14
 -1      2400 1.98467E+01-1.76610E-02-2.95787E-04-1.60146E-01 1.32009E-13-6.61164E-14
 -1      2401 1.98906E+01-3.21260E-03 6.14483E-04-1.25809E-01 5.37544E-14 3.53804E-14
 -1      2402 1.98583E+01-6.75198E-03-4.38393E-04-1.27423E-01 1.00417E-13 3.52314E-14
 -1      2403 1.98866E+01-1.11248E-02-2.59767E-04-1.51784E-01 1.12772E-13-9.76617E-15
 -1      2404 1.99453E+01 4.78733E-03 8.17472E-04-1.27569E-01 6.49340E-14 2.37291E-14
 -1      2405 1.99119E+01 3.63812E-04-3.53271E-04-1.25863E-01 6.95786E-14 4.89338E-14
 -1      2406 1.99286E+01-1.82970E-03-2.88045E-04-1.49227E-01 6.11676E-14-4.10447E-14
 -1      2407 2.00047E+01 1.44094E-02 1.08365E-03-1.37834E-01 4.12077E-14 8.71459E-15
 -1      2408 1.99685E+01 9.14712E-03-2.33585E-04-1.32029E-01 3.92576E-14 3.63658E-14
 -1      2409 1.99738E+01 9.86642E-03-3.66393E-04-1.54865E-01 6.15195E-14-2.37080E-14
 -1      2410 2.00722E+01 2.55995E-02 1.41022E-03-1.58235E-01 1.86694E-13-3.09706E-14
 -1      2411 2.00310E+01 1.95154E-02-9.22887E-05-1.47599E-01 1.20961E-13 9.68214E-15
 -1      2412 2.00239E+01 2.37991E-02-4.83939E-04-1.70779E-01 6.96569E-14-4.87350E-14
 -1      2413 2.01517E+01 3.82811E-02 1.78968E-03-1.90292E-01 6.63178E-14 6.87615E-14
 -1      2414 2.01029E+01 3.14167E-02 6.15693E-05-1.74137E-01 1.56896E-13 4.41344E-14
 -1      2415 2.00815E+01 3.98752E-02-6.31819E-04-1.98861E-01 1.24717E-13 4.21298E-14
 -1      2416 2.02474E+01 5.22268E-02 2.20495E-03-2.35333E-01-4.16597E-14 4.76871E-14
 -1      2417 2.01883E+01 4.47205E-02 2.21320E-04-2.13071E-01 3.60399E-14 9.69504E-14
 -1      2418 2.01495E+01 5.79266E-02-8.02087E-04-2.40825E-01 5.98375E-14 9.76186E-14
 -1      2419 2.03643E+01 6.68750E-02 2.62259E-03-2.94271E-01-3.06882E-14 1.85700E-14
 -1      2420 2.02918E+01 5.90661E-02 3.81672E-04-2.65543E-01-8.57949E-14 2.73852E-14
 -1      2421 2.02313E+01 7.75129E-02-9.87152E-04-2.98082E-01-3.60480E-14 6.22399E-14
 -1      2422 2.05071E+01 8.10640E-02 2.98321E-03-3.67180E-01-2.71484E-15 2.18305E-14
 -1      2423 2.04184E+01 7.36449E-02 5.38375E-04-3.32091E-01 4.27178E-14 5.43311E-14
 -1      2424 2.03306E+01 9.76394E-02-1.18018E-03-3.71441E-01-2.26487E-14-3.01644E-14
 -1      2425 2.06804E+01 9.26493E-02 3.18937E-03-4.52574E-01 6.08585E-14-7.98491E-14
 -1      2426 2.05729E+01 8.68820E-02 6.88967E-04-4.12086E-01 4.95350E-15-6.81497E-14
 -1      2427 2.04514E+01 1.16350E-01-1.37698E-03-4.60568E-01 7.87525E-14 3.16160E-14
 -1      2428 2.08877E+01 9.79857E-02 3.09216E-03-5.46317E-01 5.04105E-14-1.84608E-14
 -1      2429 2.07599E+01 9.59907E-02 8.35073E-04-5.02836E-01 7.25784E-14-5.99470E-14
 -1      2430 2.05975E+01 1.30156E-01-1.58002E-03-5.63124E-01 6.69475E-14-7.05989E-14
 -1      2431 2.11312E+01 9.13126E-02 2.48132E-03-6.40042E-01-5.71293E-14-5.84906E-14
 -1      2432 2.09833E+01 9.63966E-02 9.86511E-04-5.98254E-01 2.65875E-14-3.92359E-14
 -1      2433 2.07729E+01 1.33290E-01-1.80418E-03-6.73469E-01 6.84494E-14 4.14973E-15
 -1      2434 2.14102E+01 6.42388E-02 1.09041E-03-7.19119E-01-4.60247E-14-2.19705E-13
 -1      2435 2.12450E+01 8.11290E-02 1.16570E-03-6.87028E-01-6.28917E-14-1.32340E-13
 -1      2436 2.09816E+01 1.16895E-01-2.08152E-03-7.80880E-01 2.78553E-15-1.07381E-13
 -1      2437 2.17203E+01 5.88185E-03-1.36134E-03-7.60433E-01-1.35434E-13-1.36569E-13
 -1      2438 2.15448E+01 4.05160E-02 1.40648E-03-7.50376E-01-1.34543E-13-2.33537E-13
 -1      2439 2.12274E+01 6.85255E-02-2.45603E-03-8.67286E-01-5.73969E-14-1.96051E-13
 -1      2440 2.20515E+01-9.51446E-02-5.05378E-03-7.30932E-01 3.01156E-14-5.31058E-14
 -1      2441 2.18780E+01-3.69995E-02 1.72992E-03-7.59932E-01-6.58640E-14-1.48197E-13
 -1      2442 2.15142E+01-2.70693E-02-2.94884E-03-9.04900E-01-1.21814E-13-1.49563E-13
 -1      2443 2.23859E+01-2.44827E-01-9.81929E-03-5.89115E-01 1.22190E-15 4.89680E-14
 -1      2444 2.22335E+01-1.61313E-01 2.07170E-03-6.77210E-01 4.92922E-14-1.88031E-14
 -1      2445 2.18446E+01-1.83966E-01-3.46025E-03-8.54808E-01-2.18645E-14-1.06880E-13
 -1      2446 2.26936E+01-4.31520E-01-1.47089E-02-2.93511E-01-1.91919E-13 1.18290E-13
 -1      2447 2.25885E+01-3.31980E-01 2.13670E-03-4.57827E-01-9.78930E-14 1.22673E-13
 -1      2448 2.22165E+01-4.04852E-01-3.56716E-03-6.69017E-01-8.31162E-14-1.05453E-13
 -1      2449 2.29284E+01-6.07678E-01-1.74952E-02 1.76026E-01-2.03396E-13 2.95115E-13
 -1      2450 2.29013E+01-5.22572E-01 1.23878E-03-6.60509E-02-1.70991E-13 2.16045E-13
 -1      2451 2.26138E+01-6.61828E-01-2.28022E-03-3.00953E-01-2.41174E-13-4.32503E-14
 -1      2452 2.30256E+01-6.76019E-01-1.48465E-02 7.80343E-01 5.59969E-15 1.08520E-13
 -1      2453 2.31038E+01-6.62020E-01-1.67033E-03 4.93739E-01-9.48712E-14 2.49613E-13
 -1      2454 2.29907E+01-8.71664E-01 1.76742E-03 2.67754E-01-1.04672E-13 1.89217E-13
 -1      2455 2.29161E+01-5.08012E-01-4.16493E-03 1.37599E+00 9.71870E-14 8.01178E-14
 -1      2456 2.31063E+01-6.31460E-01-7.44267E-03 1.12933E+00-4.99514E-15 1.53404E-13
 -1      2457 2.32569E+01-8.85843E-01 8.71822E-03 9.78406E-01 1.26101E-14 1.24953E-13
 -1      2458 2.25716E+01-3.21370E-02 1.14536E-02 1.70318E+00 2.97363E-14 2.50368E-13
 -1      2459 2.28398E+01-3.12094E-01-1.42220E-02 1.62294E+00 1.56909E-13 2.31664E-13
 -1      2460 2.32912E+01-5.40852E-01 1.44329E-02 1.63765E+00 3.51214E-14 1.55995E-13
 -1      2461 2.20842E+01 6.28247E-01 2.09748E-02 1.48706E+00 9.35840E-14 4.23687E-13
 -1      2462 2.23456E+01 2.87631E-01-1.71457E-02 1.67514E+00-1.02448E-14 3.42879E-13
 -1      2463 2.30270E+01 1.94227E-01 1.02892E-02 1.91304E+00-6.66668E-14 5.40675E-13
 -1      2464 2.16883E+01 1.13235E+00 1.40287E-02 6.62925E-01 1.99969E-13 5.42665E-13
 -1      2465 2.18400E+01 9.25439E-01-9.63578E-03 1.09861E+00 1.88615E-13 5.06747E-13
 -1      2466 2.25853E+01 1.06090E+00-7.66236E-03 1.50013E+00 9.10079E-14 7.48272E-13
 -1      2467 2.16414E+01 1.14096E+00-3.53866E-03-4.55870E-01-1.67644E-14 6.27054E-13
 -1      2468 2.16171E+01 1.21221E+00 7.22449E-03 4.36338E-02 1.48829E-13 5.93885E-13
 -1      2469 2.22779E+01 1.58662E+00-2.15350E-02 4.14283E-01 1.49806E-13 8.03965E-13
 -1      2470 2.19822E+01 6.44216E-01-1.60448E-02-1.33159E+00-1.12272E-13 6.03142E-13
 -1      2471 2.18003E+01 9.42577E-01 2.05322E-02-1.00031E+00-2.84720E-14 6.24084E-13
 -1      2472 2.23537E+01 1.41493E+00-1.65015E-02-8.49604E-01 3.61551E-14 6.51214E-13
 -1      2473 2.24753E+01-2.67574E-02-1.70493E-02-1.60430E+00-2.06308E-14 4.06192E-13
 -1      2474 2.22264E+01 3.07578E-01 1.80023E-02-1.55257E+00-1.10228E-13 5.58619E-13
 -1      2475 2.27295E+01 6.59910E-01 1.01016E-03-1.65394E+00 2.02217E-14 5.28916E-13
 -1      2476 2.28298E+01-5.15083E-01-1.04041E-02-1.29785E+00-4.05119E-14 3.76555E-13
 -1      2477 2.26193E+01-3.05749E-01 3.51382E-03-1.47506E+00 1.01587E-13 3.85878E-13
 -1      2478 2.30825E+01-2.08410E-01 1.30134E-02-1.71192E+00 3.92377E-14 5.30658E-13
 -1      2479 2.29117E+01-6.95255E-01-3.31308E-03-6.85339E-01-1.47872E-13 1.19279E-13
 -1      2480 2.28040E+01-6.43197E-01-1.01338E-02-9.67618E-01-1.83798E-13 2.45030E-13
 -1      2481 2.31685E+01-7.80468E-01 1.23568E-02-1.19358E+00 1.93914E-14 4.05121E-13
 -1      2482 2.27416E+01-6.33271E-01 6.93104E-04-4.30913E-02 3.59981E-14 4.85853E-15
 -1      2483 2.27516E+01-6.88603E-01-1.65194E-02-3.20216E-01 1.90820E-16 1.29577E-14
 -1      2484 2.29680E+01-9.49489E-01 4.95947E-03-4.53281E-01-1.72323E-14-1.90735E-14
 -1      2485 2.24080E+01-4.55986E-01 2.07908E-03 4.66244E-01-6.07197E-14 6.13476E-14
 -1      2486 2.25170E+01-5.54270E-01-1.60065E-02 2.54077E-01-6.75675E-14-3.41469E-14
 -1      2487 2.25874E+01-8.23589E-01-1.04821E-03 2.31498E-01-1.07041E-14 2.10602E-13
 -1      2488 2.19959E+01-2.59703E-01 2.38149E-03 7.91147E-01 2.01225E-13 2.54940E-13
 -1      2489 2.21714E+01-3.58291E-01-1.18847E-02 6.60713E-01 7.80261E-14 1.46176E-13
 -1      2490 2.21403E+01-5.69680E-01-3.69267E-03 7.30445E-01-5.49387E-15 3.92841E-14
 -1      2491 2.15647E+01-9.01820E-02 2.58106E-03 9.43397E-01 2.37702E-13 1.30969E-13
 -1      2492 2.17740E+01-1.71988E-01-6.97708E-03 8.87889E-01 2.64438E-13 2.83433E-13
 -1      2493 2.16973E+01-3.05066E-01-4.04577E-03 1.02114E+00 2.12549E-13 1.64501E-13
 -1      2494 2.11508E+01 4.46390E-02 3.15661E-03 9.55397E-01 1.79428E-13 1.67392E-13
 -1      2495 2.13664E+01-1.98683E-02-2.79709E-03 9.61216E-01 1.20009E-13 2.67011E-13
 -1      2496 2.12899E+01-8.06716E-02-3.52752E-03 1.13169E+00 1.40103E-13 2.64086E-13
 -1      2497 2.07763E+01 1.54134E-01 3.92226E-03 8.57460E-01 1.79662E-13 6.73164E-14
 -1      2498 2.09771E+01 1.00939E-01 1.22132E-04 9.12570E-01 2.46012E-13 1.21955E-13
 -1      2499 2.09276E+01 9.76217E-02-3.03295E-03 1.10086E+00 2.72247E-13 1.18500E-13
 -1      2500 2.04531E+01 2.47205E-01 4.23207E-03 6.72303E-01-6.28540E-14 2.46182E-13
 -1      2501 2.06258E+01 2.01680E-01 1.76529E-03 7.66905E-01 5.85025E-14 2.58283E-13
 -1      2502 2.06117E+01 2.44545E-01-2.70892E-03 9.60260E-01 4.90509E-14 3.66029E-13
 -1      2503 2.03222E+01 2.82662E-01 2.66804E-03 5.36630E-01-7.16194E-14 2.48529E-13
 -1      2504 1.97935E+01 1.43070E+00-6.64047E-03 9.32635E-01 1.51870E-13-2.95948E-13
 -1      2505 1.98798E+01 1.27540E+00 2.40542E-03 9.91836E-01 1.49079E-13-5.80016E-13
 -1      2506 1.96405E+01 1.69753E+00-8.18408E-03 7.13468E-01 6.80528E-14 1.83579E-14
 -1      2507 1.97156E+01 1.57375E+00 5.93747E-04 8.30322E-01 1.10948E-13-1.41202E-13
 -1      2508 1.96766E+01 1.35345E+00 2.21658E-03 1.00711E+00 2.41670E-13-2.45174E-13
 -1      2509 2.01262E+01 8.10874E-01-2.00776E-03 9.87625E-01-3.33102E-14-2.19814E-13
 -1      2510 2.02072E+01 6.48105E-01 4.81215E-03 9.33212E-01-6.14114E-14-1.84933E-13
 -1      2511 1.99622E+01 1.12280E+00-4.18375E-03 1.02324E+00-6.43006E-14-6.32121E-13
 -1      2512 2.00473E+01 9.58562E-01 3.77629E-03 1.02288E+00 1.50021E-15-3.01378E-13
 -1      2513 2.01188E+01 7.80181E-01 8.20383E-04 1.14297E+00-3.65356E-14-2.88687E-13
 -1      2514 1.98979E+01 1.06924E+00 1.29946E-03 1.14683E+00 1.15987E-13-4.54922E-13
 -1      2515 1.95296E+01 1.88229E+00-8.28647E-03 3.86000E-01-1.93619E-13 2.68888E-13
 -1      2516 1.95798E+01 1.80713E+00-2.00874E-03 5.48247E-01-1.19024E-13 2.31020E-13
 -1      2517 1.94888E+01 1.59674E+00 4.78578E-03 7.24252E-01-2.65200E-14 1.44765E-14
 -1      2518 1.94849E+01 1.95149E+00-6.83574E-03-7.61336E-03-2.44693E-13-5.75345E-14
 -1      2519 1.94985E+01 1.93695E+00-4.84510E-03 1.77792E-01-2.57918E-13 1.49258E-13
 -1      2520 1.93639E+01 1.75500E+00 6.75914E-03 3.26450E-01-1.18821E-13 9.39023E-14
 -1      2521 1.95188E+01 1.88952E+00-4.28752E-03-4.07946E-01-1.62224E-13 8.08121E-15
 -1      2522 1.94917E+01 1.93902E+00-7.08626E-03-2.27680E-01-3.29365E-13 1.06797E-13
 -1      2523 1.93305E+01 1.79543E+00 7.34743E-03-1.30927E-01-1.66259E-13 4.36136E-14
 -1      2524 1.96243E+01 1.70903E+00-1.13954E-03-7.47073E-01 9.42257E-14-3.90998E-13
 -1      2525 1.95621E+01 1.81321E+00-8.16908E-03-6.01839E-01-7.41183E-14-2.69443E-13
 -1      2526 1.93985E+01 1.70919E+00 6.45309E-03-5.72769E-01-8.13538E-14-3.08722E-14
 -1      2527 1.97870E+01 1.43210E+00 1.79897E-03-9.85074E-01 2.69276E-13 5.39275E-14
 -1      2528 1.96982E+01 1.58039E+00-7.79575E-03-8.91768E-01 2.29449E-13-3.15212E-13
 -1      2529 1.95559E+01 1.51202E+00 4.21779E-03-9.33558E-01 1.76292E-13-2.57526E-13
 -1      2530 1.99817E+01 1.10067E+00 3.85286E-03-1.08286E+00 2.66870E-14 1.38262E-13
 -1      2531 1.98798E+01 1.27342E+00-6.03558E-03-1.05738E+00 1.60695E-13 1.81158E-13
 -1      2532 1.97790E+01 1.23546E+00 1.30649E-03-1.16336E+00 2.55743E-13-6.34822E-14
 -1      2533 2.01845E+01 7.57724E-01 5.40415E-03-1.02944E+00-1.67813E-13-2.37588E-13
 -1      2534 2.00825E+01 9.35824E-01-2.92511E-03-1.07558E+00-6.18120E-14 7.74736E-14
 -1      2535 2.00338E+01 9.23548E-01-1.36558E-04-1.22976E+00-1.71504E-14 3.26662E-14
 -1      2536 2.02905E+01 5.07568E-01 2.26220E-03-7.68459E-01-2.79292E-14-1.32619E-13
 -1      2537 4.20577E+00-2.30872E+00 1.23867E-01-1.40527E+00 9.75955E-14-4.79616E-14
 -1      2538 5.42832E+00-2.96703E+00 1.10865E-01-3.82580E+00 6.21447E-14-9.47020E-14
 -1      2539 1.96998E+01 1.43320E-01 3.26770E-03 6.16799E-02 1.17927E-13 1.09085E-13
 -1      2540 1.97786E+01 1.98109E-01 1.23873E-02 1.47895E-01 1.30722E-13 1.34204E-13
 -1      2541 1.98457E+01 1.81040E-01-3.86959E-03 6.71900E-02 1.35168E-13-3.60627E-15
 -1      2542 1.97224E+01-5.57957E+00 9.69952E-04 6.50426E+00-2.69618E-13-7.30110E-13
 -1      2543 1.59168E+01-5.37118E+00 8.45272E-02 6.73065E+00-1.78912E-13-6.82551E-13
 -1      2544 2.56772E+01-4.54496E+00-7.71041E-02 4.22168E+00-3.41865E-13-5.50698E-13
 -1      2545 2.28148E+01-5.23848E+00 5.21603E-03 5.14839E+00-3.72063E-13-5.75262E-13
 -1      2546 2.22595E+01-5.54918E+00 4.01884E-02 5.22668E+00-4.33154E-13-7.25149E-13
 -1      2547 2.72661E+01-4.00398E+00 2.49967E-02 2.30394E+00-3.32095E-13-6.50757E-13
 -1      2548 3.15015E+01 3.44825E+00-1.60994E-01-1.01428E+00-1.44218E-13-4.07618E-13
 -1      2549 3.09529E+01 1.74066E+00-6.48435E-02-7.81940E-01-7.28584E-14-4.78700E-13
 -1      2550 7.60518E+00-4.13235E+00 6.11690E-02-5.55020E+00 1.83187E-14 3.03368E-14
 -1      2551 1.05303E+01-4.95895E+00 2.16515E-02-6.67690E+00 2.06501E-14 5.72375E-13
 -1      2552 3.24411E+01 6.90668E+00-1.33425E-01-5.63153E-01 6.23390E-14-4.65933E-13
 -1      2553 3.17479E+01 5.66565E+00-1.40190E-01-9.72935E-01-1.08358E-13-4.56551E-13
 -1      2554 2.05448E+01 1.95526E+00-1.36853E-02-1.90337E+00-2.44983E-13-2.83037E-13
 -1      2555 2.04079E+01 1.21651E+00-6.35688E-03-1.28935E+00-2.35030E-13-2.50229E-13
 -1      2556 2.03721E+01 1.37589E+00 3.97702E-03-1.23365E+00-2.15115E-13-2.75930E-13
 -1      2557 2.02857E+01 2.36476E+00-7.72867E-03-1.82787E+00-2.12261E-13-3.34240E-13
 -1      2558 1.95231E+01 3.58436E+00-1.01075E-02-2.45638E-01 1.24422E-13-3.98062E-13
 -1      2559 1.95389E+01 3.56367E+00-9.68494E-03-4.26585E-01 9.04141E-14-4.16265E-13
 -1      2560 1.97153E+01 3.16311E+00-5.87460E-04-4.74053E-01 7.24649E-14-3.93251E-13
 -1      2561 1.96814E+01 3.22298E+00-9.18948E-04-1.52240E-01 1.24753E-13-3.76688E-13
 -1      2562 3.22022E+01 7.19802E+00-1.26621E-01 6.08250E-01 2.88325E-13-3.98986E-13
 -1      2563 3.25306E+01 7.46089E+00-1.36562E-01 3.96914E-02 2.27152E-13-4.20015E-13
 -1      2564 2.52057E+01-4.41747E+00-3.19106E-03-3.92626E+00-8.82627E-14-5.62911E-13
 -1      2565 2.83754E+01-2.87811E+00-1.17930E-01-2.09846E+00 7.97556E-14-4.77618E-13
 -1      2566 3.18369E+01 3.97821E+00-1.25309E-01 1.12075E+00 2.20213E-13-3.94185E-13
 -1      2567 3.19699E+01 5.49056E+00-1.64264E-01 1.14482E+00 2.61013E-13-4.11865E-13
 -1      2568 3.00014E+01 2.43727E+00-3.82002E-02 1.76757E+00 2.49023E-13-2.57461E-13
 -1      2569 3.14344E+01 1.21955E+00-1.35190E-01-7.63860E-01-3.28682E-13 3.28459E-13
 -1      2570 3.02643E+01-1.04837E+00-3.31020E-02 6.69753E-01-2.12812E-13 2.35645E-13
 -1      2571 1.87106E+01-5.45703E+00 3.48034E-02-6.25348E+00 4.73510E-14-6.31637E-13
 -1      2572 2.21074E+01-5.17937E+00-3.26052E-02-5.70753E+00-4.06342E-14-6.69617E-13
 -1      2573 4.60345E+00-2.95268E+00 1.13227E-01-3.34161E+00-1.95122E-13-2.86104E-13
 -1      2574 6.31991E+00-3.58345E+00 8.63773E-02-5.09028E+00-5.45397E-14-1.22624E-13
 -1      2575 7.10491E+00-3.81070E+00 2.19277E-02 5.40293E+00-1.38278E-13-3.90687E-13
 -1      2576 5.00340E+00-3.38039E+00 9.90236E-02 3.70833E+00-1.05332E-13-5.33129E-13
 -1      2577 1.51868E+01-5.12024E+00-2.31975E-02 6.81745E+00 9.32310E-14-2.09416E-13
 -1      2578 1.07991E+01-4.59224E+00 9.97204E-02 6.24700E+00-8.43769E-15-2.16605E-13
 -1      2579 2.28884E+01-5.39707E+00-3.13302E-02 5.22089E+00 8.32667E-16 3.03257E-13
 -1      2580 1.99981E+01-5.54305E+00 8.72890E-02 5.79154E+00 7.84928E-14 7.49990E-14
 -1      2581 2.85820E+01-3.03710E+00-8.12907E-02 2.43654E+00-1.30229E-13 2.51493E-13
 -1      2582 2.55378E+01-4.54768E+00-2.91594E-02 3.60397E+00-8.27116E-15 2.62013E-13
 -1      2583 3.30714E+01 6.12859E+00-6.77403E-02-1.01368E+00-9.61453E-14-7.04992E-15
 -1      2584 3.17618E+01 4.34155E+00-1.18881E-01-1.28005E+00-2.42611E-13 1.75110E-13
 -1      2585 3.24741E+01 7.32883E+00-1.50183E-01-3.65984E-02-1.63036E-13-1.24002E-13
 -1      2586 3.29417E+01 7.05680E+00-1.01964E-01-6.12312E-01-1.45162E-13-1.22777E-13
 -1      2587 3.03986E+01 6.15731E+00-6.19080E-02-1.28489E+00-8.29337E-14 5.44009E-14
 -1      2588 3.28445E+01 5.43758E+00-8.82295E-02 9.62666E-01-1.10689E-13-1.83908E-13
 -1      2589 3.28119E+01 6.66696E+00-1.52491E-01 7.25291E-01-3.21965E-14-1.27801E-13
 -1      2590 3.16632E+01 1.13224E+00-4.56385E-02 4.60695E-02-1.79329E-13-1.50824E-13
 -1      2591 3.26366E+01 3.17468E+00-1.32677E-01 7.24212E-01-9.58678E-14-1.20653E-13
 -1      2592 2.81470E+01-3.02556E+00-1.53556E-02-2.53799E+00-1.86684E-13-5.08593E-13
 -1      2593 3.06130E+01-1.21079E+00-8.99709E-02-1.47294E+00-2.28059E-13-3.54050E-13
 -1      2594 2.18315E+01-5.49693E+00 2.95246E-02-5.46292E+00 1.62842E-13-2.71227E-13
 -1      2595 2.54225E+01-4.66692E+00-6.93432E-02-4.51720E+00-1.34281E-13-5.00405E-13
 -1      2596 1.38231E+01-5.53195E+00 2.30269E-02-6.73497E+00 1.46050E-13 5.50476E-13
 -1      2597 1.76943E+01-5.63453E+00-3.68777E-02-6.82997E+00 2.68785E-13 1.38965E-13
 -1      2598 1.39862E+01-4.72631E+00 1.14191E-01-6.64937E+00 1.46494E-13 4.66155E-13
 -1      2599 5.65144E+00-3.16067E+00 7.49142E-02 4.31234E+00 1.00475E-13 1.82743E-13
 -1      2600 4.05289E+00-2.50715E+00 1.23640E-01 1.62920E+00 1.46022E-13 1.84519E-13
 -1      2601 2.04868E+01 8.74849E-01-7.32278E-03 1.22823E+00 2.72305E-13 2.92273E-13
 -1      2602 2.08376E+01 1.25688E+00-6.05386E-03 1.72888E+00 2.88703E-13 3.44107E-13
 -1      2603 2.06439E+01 1.71555E+00-1.57928E-02 1.92314E+00 3.26910E-13 2.22933E-13
 -1      2604 2.04462E+01 1.05785E+00-9.39964E-03 1.24321E+00 2.86946E-13 1.26795E-13
 -1      2605 3.01106E+01 6.83936E+00-7.65999E-02-4.60832E-01 1.93567E-13-4.25375E-13
 -1      2606 1.99133E+01 2.81296E+00 1.13787E-03-1.10041E+00-7.28527E-14-4.30373E-13
 -1      2607 1.97829E+01 3.16124E+00-1.47315E-02-1.28808E+00-8.43002E-14-4.58688E-13
 -1      2608 1.98786E+01 3.02541E+00-1.71596E-02-1.47774E+00-1.23861E-13-4.50443E-13
 -1      2609 1.99915E+01 3.40099E-01-3.58180E-03 3.06468E-01 1.85727E-13 5.34867E-14
 -1      2610 2.04203E+01 2.11563E+00-1.27738E-02 1.87621E+00 3.48440E-13 7.93358E-14
 -1      2611 2.72035E+01-4.22311E+00 3.79390E-02-2.63961E+00-6.05627E-14-4.97380E-13
 -1      2612 3.03523E+01-5.75676E-01-5.64346E-03 3.51513E-01-1.12750E-13-1.88127E-13
 -1      2613 3.06147E+01 6.55571E+00-9.22657E-02 5.17710E-01-7.97695E-14-2.52867E-13
 -1      2614 2.90571E+01-2.53636E+00 2.58941E-03 4.94812E-01-6.84730E-14 3.23103E-13
 -1      2615 2.95616E+01-2.96264E-01-6.13716E-02-6.50574E-01-1.51670E-13-5.42177E-13
 -1      2616 8.28017E+00-2.77592E+00 1.36661E-01-4.69249E+00-2.29677E-14 8.26561E-14
 -1      2617 1.55621E+01-4.62338E+00 1.23985E-01 6.53461E+00-1.38750E-13-7.10515E-13
 -1      2618 2.03418E+01 3.62793E-01 1.22089E-03 7.23581E-01-1.42104E-13 3.27534E-13
 -1      2619 2.03071E+01 4.74577E-01 3.27149E-04 8.16955E-01-1.42019E-13 1.87294E-13
 -1      2620 2.04427E+01 3.95653E-01 5.93518E-03-8.91369E-01 2.25822E-14-3.55445E-15
 -1      2621 2.02846E+01 6.05594E-01-1.95360E-03-9.93093E-01-5.71344E-14-1.58145E-13
 -1      2622 2.03088E+01 6.18419E-01 7.42069E-04-1.17246E+00-1.58953E-13 6.87807E-15
 -1      2623 2.05896E+01 3.55989E-01 4.26533E-03-1.01842E+00 6.83631E-14 1.90366E-13
 -1      2624 2.51990E+01-5.02153E+00 4.69233E-02 3.40317E+00 1.46910E-13 4.67182E-13
 -1      2625 1.85103E+01-5.09543E+00 1.04201E-01 5.95019E+00 2.08000E-13 1.21389E-13
 -1      2626 5.21233E+00-1.65530E+00 1.75852E-01 1.20006E-01 2.32366E-14 1.23568E-13
 -1      2627 6.89392E+00-8.60408E-01 1.51390E-01-1.19515E+00-1.66893E-13-6.10623E-15
 -1      2628 6.65705E+00-1.00657E+00 1.26103E-01 1.53269E+00-7.39513E-15 2.09804E-13
 -1      2629 2.04348E+01 1.80784E+00 1.25464E-02 1.56402E+00 3.19595E-13 3.18755E-14
 -1      2630 2.99430E+01 4.23253E+00-7.70431E-02-1.69530E+00-9.68947E-14-3.45557E-13
 -1      2631 1.09155E+01-3.36137E+00 1.64771E-01 5.76569E+00 4.78784E-14-1.93762E-13
 -1      2632 1.99860E+01 2.83907E+00-1.50461E-02-1.58800E+00-1.42869E-13-4.25979E-13
 -1      2633 2.01306E+01 2.61354E+00-2.20155E-02-1.75455E+00-1.77846E-13-3.93701E-13
 -1      2634 2.02786E+01 2.04998E+00 1.27681E-03-1.48732E+00-1.98484E-13-3.46395E-13
 -1      2635 2.00825E+01 2.49265E+00 2.55944E-03-1.34332E+00-1.39670E-13-4.15463E-13
 -1      2636 4.65269E+00-2.27635E+00 1.41581E-01-2.14799E+00-2.49134E-13-3.92131E-13
 -1      2637 6.54854E+00-1.60924E+00 1.26889E-01-3.12945E+00-2.46747E-13-3.53995E-13
 -1      2638 4.95696E+00-1.39025E+00 1.17898E-01-7.72088E-01-2.87511E-13-5.71043E-13
 -1      2639 1.70064E+01-5.32264E+00 5.50496E-02-6.63507E+00 2.61735E-14-5.98820E-13
 -1      2640 1.97124E+01-5.28704E+00 3.02509E-02-5.83138E+00 2.36200E-14-4.12531E-13
 -1      2641 1.51536E+01-4.59324E+00 1.21314E-01-6.64185E+00 1.84575E-14-5.65020E-13
 -1      2642 5.48264E+00-2.21821E+00 1.45880E-01 2.72770E+00-1.39930E-13-5.34961E-13
 -1      2643 9.35262E+00-3.60411E+00 9.69796E-02-5.71656E+00-6.39488E-14-2.07834E-13
 -1      2644 2.92038E+01-1.89672E+00-2.77078E-02-4.44056E-01 2.39602E-13-3.51108E-13
 -1      2645 2.86503E+01-9.57607E-01-1.52811E-01 1.14074E+00 2.98317E-13-1.72598E-13
 -1      2646 2.75868E+01-3.27197E+00 2.49685E-03-9.27765E-01 7.02494E-14-3.77254E-13
 -1      2647 2.45716E+01-5.02163E+00 5.11761E-02-4.01777E+00-1.71085E-13-4.91079E-13
 -1      2648 3.01770E+01 5.87193E+00-7.21143E-02 1.30857E+00 2.44499E-13-3.41505E-13
 -1      2649 3.09052E+01 2.24709E+00-1.20413E-01-1.63484E+00-3.20244E-13 1.59983E-13
 -1      2650 2.94967E+01 6.03326E-01-2.12570E-02-1.78104E+00-2.16993E-13 1.81438E-13
 -1      2651 2.92063E+01 3.33031E+00-2.03801E-01-2.27144E+00-1.45217E-13-3.61378E-14
 -1      2652 8.67098E+00-2.72898E+00 1.44889E-01 4.95295E+00-1.07123E-13-1.50963E-13
 -1      2653 3.09793E+01 3.75776E+00-5.98765E-02 1.57645E+00-4.74343E-14-2.87242E-13
 -1      2654 2.09689E+01-5.58316E+00 7.94562E-02-5.71428E+00 1.94705E-13-2.90601E-13
 -1      2655 2.03523E+01 4.72210E-01 8.53204E-04 9.91347E-01-5.08581E-14 2.20451E-13
 -1      2656 2.05155E+01 4.27560E-01-2.66118E-03-1.21501E+00 2.83887E-15 1.96868E-14
 -1      2657 1.98489E+01 2.76447E+00-6.30291E-03 5.17043E-01 2.34826E-13-2.97339E-13
 -1      2658 1.98244E+01 2.81422E+00-5.70598E-03 3.65964E-01 2.07721E-13-3.00439E-13
 -1      2659 1.98077E+01 2.85176E+00-5.62124E-03 2.30190E-01 1.90527E-13-3.18304E-13
 -1      2660 1.97992E+01 2.86866E+00-5.44390E-03 7.53483E-02 1.62245E-13-3.25168E-13
 -1      2661 1.99543E+01 2.50060E+00 3.65367E-03 2.65680E-01 1.80835E-13-2.97592E-13
 -1      2662 2.00453E+01 2.32353E+00-1.07178E-02 1.04752E+00 3.22504E-13-1.80535E-13
 -1      2663 1.99817E+01 2.47244E+00-6.31605E-03 9.11807E-01 3.06225E-13-2.11886E-13
 -1      2664 2.02167E+01 1.90809E+00-1.19741E-02 1.22908E+00 3.21981E-13-1.09381E-13
 -1      2665 2.01251E+01 2.14587E+00-4.82253E-03 1.13569E+00 3.20978E-13-1.45407E-13
 -1      2666 2.01905E+01 1.88609E+00 6.34583E-03 9.28174E-01 3.06909E-13-1.52868E-13
 -1      2667 2.02106E+01 7.26622E-01-3.48937E-03 6.44776E-01 2.22253E-13-1.32143E-14
 -1      2668 2.03527E+01 9.51433E-01 9.16554E-03 9.08447E-01 2.44005E-13-6.08611E-15
 -1      2669 2.80733E+01 4.51296E+00-2.02819E-01-1.64779E+00 6.95277E-14-2.29691E-13
 -1      2670 2.82240E+01 2.93816E+00-6.60592E-02-2.12719E+00-5.49283E-14-1.73195E-13
 -1      2671 2.87256E+01-2.10947E+00-1.63105E-01-6.54498E-01-7.08808E-14 2.81358E-13
 -1      2672 2.77683E+01-3.53029E+00-2.51030E-03 5.75989E-01-7.27196E-15 3.24171E-13
 -1      2673 2.02158E+01 6.27837E-01 8.58853E-03-4.38672E-01-1.42833E-13-2.02031E-13
 -1      2674 2.01313E+01 4.75530E-01-3.36942E-03-2.80177E-01-1.21755E-13-1.98684E-13
 -1      2675 2.01053E+01 3.62799E-01 6.59237E-03-1.60391E-01-1.13153E-13-1.88291E-13
 -1      2676 2.00462E+01 2.68404E-01-1.75603E-03-6.25214E-02-9.29743E-14-2.04853E-13
 -1      2677 2.01955E+01 5.28998E-01-1.68607E-03-2.63623E-01-1.14046E-13-2.33453E-13
 -1      2678 2.00203E+01 1.98564E-01 4.51605E-03 1.31341E-02-9.11140E-14-1.82628E-13
 -1      2679 1.99848E+01 1.39573E-01-7.91837E-04 7.01698E-02-7.95740E-14-1.77745E-13
 -1      2680 2.01269E+01 2.99796E-01-2.10555E-03-5.67426E-02-9.06012E-14-2.02363E-13
 -1      2681 1.99641E+01 9.60766E-02 2.88929E-03 1.14224E-01-8.76702E-14-1.72318E-13
 -1      2682 1.99466E+01 5.96338E-02-2.27139E-04 1.44510E-01-1.04374E-13-1.82964E-13
 -1      2683 2.00709E+01 1.54961E-01-1.92812E-03 7.16818E-02-9.12001E-14-1.74739E-13
 -1      2684 1.99320E+01 3.31169E-02 1.71734E-03 1.67163E-01-8.76918E-14-1.74728E-13
 -1      2685 1.99270E+01 1.15656E-02 1.04063E-04 1.80461E-01-8.21886E-14-1.78693E-13
 -1      2686 2.00307E+01 6.46392E-02-1.56143E-03 1.44679E-01-8.83193E-14-1.53565E-13
 -1      2687 1.99179E+01-3.57716E-03 9.00752E-04 1.89408E-01-9.71103E-14-1.55355E-13
 -1      2688 1.99212E+01-1.49936E-02 3.05492E-04 1.92517E-01-1.09072E-13-1.27743E-13
 -1      2689 2.00046E+01 1.05631E-02-1.19300E-03 1.80657E-01-5.61622E-14-1.58756E-13
 -1      2690 1.99164E+01-2.22884E-02 3.45608E-04 1.93426E-01-1.15611E-13-1.06844E-13
 -1      2691 1.99250E+01-2.66319E-02 4.40892E-04 1.91137E-01-9.83672E-14-8.97147E-14
 -1      2692 1.99899E+01-1.87429E-02-8.87369E-04 1.93491E-01-8.67929E-14-2.98800E-14
 -1      2693 1.99234E+01-2.83669E-02-2.32466E-05 1.88162E-01-9.87120E-14-8.17186E-14
 -1      2694 1.99354E+01-2.76362E-02 5.49179E-04 1.83910E-01-8.44256E-14-8.60923E-14
 -1      2695 1.99836E+01-3.07094E-02-6.56042E-04 1.93439E-01-7.95681E-14-2.35212E-14
 -1      2696 1.99362E+01-2.53026E-02-2.64180E-04 1.80114E-01-8.21553E-14-9.03389E-14
 -1      2697 1.99506E+01-2.07836E-02 6.54845E-04 1.76423E-01-5.39771E-14-7.20107E-14
 -1      2698 1.99836E+01-3.02106E-02-4.92115E-04 1.88061E-01-1.00179E-13-8.86993E-14
 -1      2699 1.99531E+01-1.53247E-02-4.21873E-04 1.74117E-01-5.16585E-14-1.06708E-13
 -1      2700 1.99694E+01-7.80009E-03 7.74426E-04 1.72916E-01 1.90605E-15-1.35985E-13
 -1      2701 1.99883E+01-2.04021E-02-3.83293E-04 1.83000E-01-8.02396E-14-9.84945E-14
 -1      2702 1.99733E+01 2.32671E-04-5.30276E-04 1.73919E-01-9.40958E-15-2.17091E-13
 -1      2703 1.99915E+01 1.03434E-02 9.19644E-04 1.76769E-01-6.31531E-14-2.33424E-13
 -1      2704 1.99967E+01-3.23004E-03-3.16907E-04 1.82590E-01-3.93567E-14-1.51029E-13
 -1      2705 1.99967E+01 2.06803E-02-6.15000E-04 1.82597E-01-7.00394E-14-2.08331E-13
 -1      2706 2.00173E+01 3.32151E-02 1.09885E-03 1.90852E-01-5.17173E-14-1.66133E-13
 -1      2707 2.00081E+01 2.02297E-02-2.80968E-04 1.90317E-01-4.38646E-14-1.71866E-13
 -1      2708 2.00236E+01 4.57781E-02-6.95264E-04 2.02860E-01-8.21184E-14-1.79762E-13
 -1      2709 2.00474E+01 6.07386E-02 1.31725E-03 2.17776E-01-1.17546E-13-1.84664E-13
 -1      2710 2.00222E+01 4.95132E-02-2.64220E-04 2.09169E-01-7.66815E-14-1.37536E-13
 -1      2711 2.00547E+01 7.55532E-02-7.84903E-04 2.37244E-01-1.46311E-13-1.60271E-13
 -1      2712 2.00827E+01 9.30049E-02 1.57636E-03 2.60034E-01-1.16974E-13-1.33585E-13
 -1      2713 2.00389E+01 8.45404E-02-2.56216E-04 2.41859E-01-1.00750E-13-9.51962E-14
 -1      2714 2.00911E+01 1.10097E-01-8.92399E-04 2.88211E-01-8.22971E-14-1.39228E-13
 -1      2715 2.01243E+01 1.30043E-01 1.87293E-03 3.20045E-01-9.22087E-14-1.30162E-13
 -1      2716 2.00583E+01 1.25372E-01-2.47285E-04 2.90965E-01-1.11750E-13-9.50724E-14
 -1      2717 2.01338E+01 1.49299E-01-1.01968E-03 3.58127E-01-9.79637E-14-9.98842E-14
 -1      2718 2.01736E+01 1.71502E-01 2.19743E-03 4.00062E-01-8.57819E-14-9.01176E-14
 -1      2719 2.00805E+01 1.71907E-01-2.29273E-04 3.58948E-01-9.64529E-14-1.32755E-13
 -1      2720 2.01842E+01 1.92461E-01-1.15893E-03 4.49115E-01-1.04445E-13-8.41906E-14
 -1      2721 2.02319E+01 2.16172E-01 2.53211E-03 5.01929E-01-3.25072E-14-1.45578E-13
 -1      2722 2.01055E+01 2.23458E-01-1.98679E-04 4.48056E-01-1.24496E-13-7.04652E-14
 -1      2723 2.02438E+01 2.37707E-01-1.28627E-03 5.62719E-01 2.75755E-14-2.39590E-13
 -1      2724 2.03009E+01 2.61249E-01 2.84923E-03 6.26612E-01 3.79802E-14-3.37094E-13
 -1      2725 2.01335E+01 2.78114E-01-1.63052E-04 5.60085E-01-5.81989E-14-4.92978E-14
 -1      2726 2.03149E+01 2.81073E-01-1.35075E-03 6.99335E-01 8.74056E-14-2.93466E-13
 -1      2727 2.03830E+01 3.01207E-01 3.10966E-03 7.73444E-01 1.25220E-13-2.91395E-13
 -1      2728 2.01653E+01 3.31781E-01-1.53369E-04 6.95968E-01 4.61304E-14-1.69251E-13
 -1      2729 2.04008E+01 3.15144E-01-1.25678E-03 8.57305E-01 9.83343E-14-2.62063E-13
 -1      2730 2.04820E+01 3.26150E-01 3.26168E-03 9.38968E-01 4.14484E-14-2.84964E-13
 -1      2731 2.02026E+01 3.76730E-01-2.45944E-04 8.55143E-01 1.29972E-13-2.09336E-13
 -1      2732 2.05076E+01 3.27111E-01-8.37684E-04 1.03155E+00-2.42464E-14-3.46661E-13
 -1      2733 2.06054E+01 3.19575E-01 3.23678E-03 1.11523E+00-2.19094E-14-3.99781E-13
 -1      2734 2.02498E+01 3.99529E-01-5.97335E-04 1.03464E+00-2.16052E-14-2.24674E-13
 -1      2735 2.06467E+01 2.96339E-01 1.81141E-04 1.21154E+00 1.90784E-14-3.23026E-13
 -1      2736 2.07667E+01 2.55857E-01 2.93099E-03 1.28735E+00 2.80243E-14-3.19153E-13
 -1      2737 2.03168E+01 3.78342E-01-1.49229E-03 1.22778E+00 3.61930E-14-1.54345E-13
 -1      2738 2.08390E+01 1.92093E-01 2.22089E-03 1.37821E+00 2.26499E-14-2.66887E-13
 -1      2739 2.09907E+01 9.87057E-02 2.16248E-03 1.42998E+00 8.06566E-14-2.50146E-13
 -1      2740 2.04233E+01 2.80052E-01-3.38883E-03 1.42206E+00 5.18769E-14-1.56278E-13
 -1      2741 2.11203E+01-2.64011E-02 5.86805E-03 1.49937E+00 1.33239E-13-2.59638E-13
 -1      2742 2.13177E+01-1.96006E-01 5.90879E-04 1.50241E+00 1.03618E-13-2.15669E-13
 -1      2743 2.06055E+01 5.90794E-02-6.88482E-03 1.59553E+00 1.51561E-13-1.23534E-13
 -1      2744 2.15453E+01-4.02658E-01 1.17991E-02 1.52285E+00 9.12914E-14-2.38867E-13
 -1      2745 2.18041E+01-6.66582E-01-2.92556E-03 1.44221E+00 2.43570E-14-1.99514E-13
 -1      2746 2.09239E+01-3.37928E-01-1.25539E-02 1.71015E+00 1.14255E-13-1.53656E-13
 -1      2747 2.21851E+01-9.58380E-01 1.97938E-02 1.36469E+00-8.29588E-15-1.46016E-13
 -1      2748 2.25110E+01-1.30169E+00-9.60660E-03 1.15642E+00 1.43548E-14-7.49492E-14
 -1      2749 2.14685E+01-9.54014E-01-2.10677E-02 1.69842E+00 4.19040E-14-7.05378E-14
 -1      2750 2.30890E+01-1.62288E+00 2.83971E-02 9.04967E-01 8.40947E-14 1.93686E-14
 -1      2751 2.34694E+01-1.94042E+00-1.10041E-02 5.37818E-01 6.20320E-14 1.46557E-13
 -1      2752 2.23368E+01-1.76287E+00-3.61222E-02 1.43151E+00 1.17948E-13 1.09255E-13
 -1      2753 2.41973E+01-2.16668E+00 2.17492E-02 5.10939E-02-1.22064E-13 7.95629E-14
 -1      2754 2.45212E+01-2.27496E+00-3.98319E-02-4.68480E-01-1.08344E-13 3.86440E-14
 -1      2755 2.36250E+01-2.43048E+00-1.42585E-02 7.09776E-01-2.50026E-14 1.15710E-13
 -1      2756 2.53450E+01-2.07345E+00 4.47723E-03-1.23894E+00-5.00364E-14 1.72692E-14
 -1      2757 2.54086E+01-1.57104E+00-6.06860E-04-1.71529E+00-1.93795E-14 5.67740E-14
 -1      2758 2.50822E+01-2.76869E+00-6.67540E-02-3.79762E-01-7.99118E-14 7.80903E-14
 -1      2759 2.65403E+01 7.95334E-02-6.16260E-02-2.44670E+00-3.81258E-14 9.57914E-14
 -1      2760 2.64590E+01 1.43529E+00-9.32910E-02-2.53981E+00-4.94327E-14 2.34465E-14
 -1      2761 2.63754E+01 2.76772E+00-7.70996E-02-2.04771E+00-8.26839E-14 9.35189E-15
 -1      2762 2.50627E+01 3.93878E+00-7.00154E-02-7.70113E-01-4.35901E-14-3.44655E-14
 -1      2763 2.50626E+01 3.89009E+00-1.17752E-01 2.89336E-01 4.95159E-14 4.71151E-15
 -1      2764 2.53244E+01 3.39010E+00-5.09527E-02 1.40239E+00 3.59157E-14-7.13839E-14
 -1      2765 2.54678E+01 2.27199E+00-1.19255E-01 2.08949E+00 1.19696E-13-2.59192E-13
 -1      2766 2.56544E+01 9.63304E-01-1.57824E-02 2.34414E+00 1.06540E-13-3.97331E-13
 -1      2767 2.57028E+01-3.40779E-01-8.76785E-02 2.29451E+00-1.17129E-14-4.32102E-13
 -1      2768 2.66130E+01 1.80194E+00-7.48098E-02 2.34473E+00-1.18031E-14-3.72050E-13
 -1      2769 2.54638E+01-1.29123E+00-1.16047E-02 1.74340E+00 1.32611E-14-3.53352E-13
 -1      2770 2.52773E+01-1.94698E+00-2.07824E-02 1.23614E+00 5.16345E-14-2.51529E-13
 -1      2771 2.63369E+01-1.08812E+00-1.83543E-02 1.91608E+00 2.87964E-14-4.02484E-13
 -1      2772 2.46173E+01-2.20981E+00-2.04111E-02 5.09904E-01 2.33403E-14-1.35221E-13
 -1      2773 2.42783E+01-2.22063E+00 1.84301E-02-4.60474E-02 1.63702E-14-4.74690E-14
 -1      2774 2.52354E+01-2.51096E+00-1.70160E-02 5.11045E-01 1.27374E-13-7.81476E-14
 -1      2775 2.35303E+01-2.05252E+00-2.04444E-02-5.93766E-01 8.84813E-14-2.46780E-13
 -1      2776 2.31482E+01-1.75106E+00 2.53213E-02-1.00558E+00 9.49208E-14-5.27562E-14
 -1      2777 2.38011E+01-2.56704E+00-2.77875E-02-7.68489E-01 1.66642E-15 6.09454E-14
 -1      2778 2.25483E+01-1.43655E+00-1.22435E-02-1.30470E+00 2.38221E-15-8.35573E-15
 -1      2779 2.21999E+01-1.08604E+00 1.93872E-02-1.54637E+00 6.91829E-15 6.55107E-15
 -1      2780 2.25211E+01-1.88928E+00-2.80309E-02-1.54552E+00 1.25197E-13-2.44263E-13
 -1      2781 2.17923E+01-7.87891E-01-5.40297E-03-1.66250E+00 1.38184E-14-3.93320E-14
 -1      2782 2.15098E+01-5.00696E-01 1.22736E-02-1.76650E+00-4.76893E-14-1.30891E-13
 -1      2783 2.15985E+01-1.09533E+00-2.11515E-02-1.89418E+00-5.16368E-14-3.47026E-13
 -1      2784 2.12566E+01-2.73967E-01-1.32432E-03-1.77030E+00 1.26995E-13-1.41503E-13
 -1      2785 2.10364E+01-6.93832E-02 7.06543E-03-1.77719E+00 1.51942E-13-1.49474E-14
 -1      2786 2.10042E+01-4.42019E-01-1.33347E-02-1.96937E+00 9.59957E-14-1.45954E-13
 -1      2787 2.08847E+01 8.79499E-02 6.82513E-04-1.71467E+00 4.43085E-14-1.02388E-13
 -1      2788 2.07121E+01 2.27996E-01 3.96715E-03-1.65598E+00 1.71803E-14-2.31860E-13
 -1      2789 2.06429E+01 2.60046E-02-6.98723E-03-1.88383E+00 5.07443E-14-3.17533E-13
 -1      2790 2.06176E+01 3.39498E-01 1.39249E-03-1.55255E+00 1.58277E-13-1.38460E-13
 -1      2791 2.04817E+01 4.40518E-01 2.75166E-03-1.44663E+00 1.53296E-13-2.07198E-13
 -1      2792 2.04225E+01 3.48042E-01-3.73802E-03-1.70230E+00 1.51724E-13-4.88646E-13
 -1      2793 2.62378E+01-4.70757E+00-1.12977E-01 2.18413E+00 5.23678E-14 4.52249E-13
 -1      2794 2.42613E+01-5.06004E+00 9.43028E-02 3.43705E+00 1.13180E-13 3.83346E-13
 -1      2795 2.68293E+01-3.79930E+00 3.60390E-02 6.32964E-01 1.20896E-13 2.90573E-13
 -1      2796 2.03476E+01 5.66254E-01 2.16055E-03-1.26999E+00 1.43641E-13 3.67526E-14
 -1      2797 2.02057E+01 7.00446E-01 4.48207E-04-1.31748E+00 6.44267E-14-1.12896E-13
 -1      2798 2.04274E+01 5.10837E-01 2.61105E-03-1.36435E+00 1.99176E-13-7.89871E-14
 -1      2799 1.98899E+01 1.19763E-01-2.23475E-04-6.98379E-02 7.74748E-14-4.80526E-14
 -1      2800 1.99254E+01 1.70986E-01 5.19951E-03-1.39957E-02 1.06182E-13-4.75961E-14
 -1      2801 1.98454E+01-1.24841E-02 3.78837E-04-1.89770E-01 2.59719E-14-1.27800E-14
 -1      2802 1.98356E+01-2.62590E-03 8.71448E-04-1.87546E-01 1.57568E-14-1.79377E-14
 -1      2803 1.98599E+01-2.28495E-02 4.46113E-04-1.87158E-01 9.54474E-14-4.67122E-14
 -1      2804 1.98448E+01-1.88985E-02 2.80672E-04-1.90228E-01 6.78180E-14-2.09030E-14
 -1      2805 1.99242E+01-1.65183E-02-9.30486E-04-1.95197E-01 5.13256E-14-1.08215E-13
 -1      2806 1.98810E+01-2.44642E-02 5.13129E-04-1.78473E-01 1.25877E-13-4.67560E-14
 -1      2807 1.98629E+01-2.46929E-02-9.15607E-05-1.83545E-01 1.10904E-13-4.22534E-14
 -1      2808 1.99271E+01-2.76626E-02-6.54464E-04-1.93869E-01 1.16248E-13-4.70221E-14
 -1      2809 1.99063E+01-1.97108E-02 5.96881E-04-1.69128E-01 1.14095E-13-4.04301E-14
 -1      2810 1.98865E+01-2.30063E-02-3.15475E-04-1.73824E-01 1.07315E-13-4.43102E-14
 -1      2811 1.99367E+01-2.82502E-02-4.71834E-04-1.86749E-01 1.22332E-13-7.25113E-14
 -1      2812 1.99348E+01-1.00979E-02 7.08042E-04-1.63165E-01 8.25919E-14-3.47688E-15
 -1      2813 1.99136E+01-1.57660E-02-4.41565E-04-1.65697E-01 1.33461E-13-9.27552E-15
 -1      2814 1.99510E+01-2.10878E-02-3.63879E-04-1.79462E-01 8.79719E-14-2.48214E-14
 -1      2815 1.99664E+01 3.47349E-03 8.53923E-04-1.63726E-01 2.56440E-14-7.78609E-15
 -1      2816 1.99436E+01-4.16504E-03-5.06394E-04-1.62688E-01 4.70654E-14-8.37065E-15
 -1      2817 1.99688E+01-7.94340E-03-3.13558E-04-1.76251E-01 8.20504E-14 1.02314E-13
 -1      2818 2.00018E+01 2.05129E-02 1.03928E-03-1.73405E-01 4.82070E-14 1.32437E-14
 -1      2819 1.99767E+01 1.11124E-02-5.36090E-04-1.67615E-01 2.11508E-14-5.89216E-15
 -1      2820 1.99898E+01 1.01323E-02-3.06920E-04-1.80457E-01 2.98962E-14 5.41650E-14
 -1      2821 2.00421E+01 4.07706E-02 1.26586E-03-1.94463E-01 5.45508E-14-3.03031E-14
 -1      2822 2.00137E+01 2.97100E-02-5.48814E-04-1.82875E-01 5.63395E-14 1.80037E-14
 -1      2823 2.00143E+01 3.25628E-02-3.32510E-04-1.94855E-01 3.37857E-14 8.69702E-14
 -1      2824 2.00892E+01 6.40620E-02 1.53118E-03-2.28942E-01 7.80034E-14 8.42669E-14
 -1      2825 2.00562E+01 5.14310E-02-5.56209E-04-2.10609E-01 5.42808E-14-1.76806E-14
 -1      2826 2.00428E+01 5.90273E-02-3.81063E-04-2.21866E-01 4.65075E-14 8.14084E-14
 -1      2827 2.01452E+01 9.00550E-02 1.82633E-03-2.78657E-01 6.43386E-14 1.35626E-13
 -1      2828 2.01058E+01 7.60481E-02-5.63650E-04-2.52754E-01 1.21986E-13 1.67684E-13
 -1      2829 2.00762E+01 8.92272E-02-4.45386E-04-2.63662E-01 6.40211E-14 1.48781E-13
 -1      2830 2.02124E+01 1.17985E-01 2.13284E-03-3.45047E-01-1.14587E-14 5.97122E-14
 -1      2831 2.01651E+01 1.03061E-01-5.69332E-04-3.10977E-01 3.82144E-14 1.13190E-13
 -1      2832 2.01160E+01 1.22598E-01-5.20980E-04-3.22132E-01 7.49199E-14 1.71157E-13
 -1      2833 2.02936E+01 1.46257E-01 2.41853E-03-4.28849E-01 1.65143E-15 2.83478E-14
 -1      2834 2.02365E+01 1.31362E-01-5.61827E-04-3.86438E-01-2.87854E-14 2.70599E-14
 -1      2835 2.01636E+01 1.57919E-01-6.08108E-04-3.98714E-01 1.59188E-14 1.00914E-13
 -1      2836 2.03919E+01 1.71881E-01 2.63237E-03-5.29517E-01 1.09403E-13 3.64387E-14
 -1      2837 2.03232E+01 1.58766E-01-5.15477E-04-4.79360E-01 8.32481E-14 8.98008E-14
 -1      2838 2.02210E+01 1.92778E-01-7.16111E-04-4.94036E-01 2.07141E-14-2.27594E-14
 -1      2839 2.05106E+01 1.89700E-01 2.69833E-03-6.44345E-01 6.26159E-14-3.08979E-15
 -1      2840 2.04286E+01 1.81349E-01-3.83112E-04-5.88318E-01 9.36159E-14 7.03155E-15
 -1      2841 2.02908E+01 2.22811E-01-8.71308E-04-6.07324E-01 1.33071E-13 4.92175E-15
 -1      2842 2.06541E+01 1.91408E-01 2.50854E-03-7.67175E-01 1.22724E-13 1.63144E-14
 -1      2843 2.05573E+01 1.92569E-01-8.59842E-05-7.09171E-01 9.49673E-14 2.01897E-14
 -1      2844 2.03770E+01 2.40701E-01-1.12906E-03-7.35518E-01 9.58015E-14 2.69230E-14
 -1      2845 2.08281E+01 1.64508E-01 1.91582E-03-8.86642E-01-5.41963E-15-3.56020E-14
 -1      2846 2.07151E+01 1.82225E-01 4.96989E-04-8.33539E-01 5.31958E-14 3.91899E-14
 -1      2847 2.04854E+01 2.34944E-01-1.58909E-03-8.71997E-01 6.38822E-14 8.21590E-14
 -1      2848 2.10407E+01 9.17168E-02 7.26571E-04-9.83945E-01-1.19207E-13 4.75061E-14
 -1      2849 2.09103E+01 1.35539E-01 1.53244E-03-9.46749E-01-1.51983E-14 2.36167E-14
 -1      2850 2.06257E+01 1.88666E-01-2.40784E-03-1.00482E+00-8.24694E-15 2.22050E-13
 -1      2851 2.13034E+01-4.79028E-02-1.30246E-03-1.03040E+00-8.48912E-14-9.79043E-15
 -1      2852 2.11549E+01 3.31868E-02 3.20925E-03-1.02527E+00-8.63873E-14-1.11150E-14
 -1      2853 2.08130E+01 7.92678E-02-3.78791E-03-1.11440E+00-7.27925E-14 1.09882E-13
 -1      2854 2.16305E+01-2.73572E-01-4.43869E-03-9.85562E-01 3.73845E-14-1.56071E-14
 -1      2855 2.14646E+01-1.45926E-01 5.64143E-03-1.03405E+00-1.61271E-14-2.92829E-14
 -1      2856 2.10703E+01-1.19263E-01-5.90421E-03-1.17047E+00-6.69157E-14-1.98671E-14
 -1      2857 2.20347E+01-5.88951E-01-8.80149E-03-7.97947E-01-1.46079E-13-1.91210E-15
 -1      2858 2.18563E+01-4.15819E-01 8.64310E-03-9.24897E-01-6.26871E-14 1.89675E-14
 -1      2859 2.14281E+01-4.27868E-01-8.68740E-03-1.12891E+00-5.87774E-14-6.06702E-14
 -1      2860 2.25143E+01-9.55031E-01-1.37522E-02-4.13279E-01-2.18678E-13 2.88018E-14
 -1      2861 2.23379E+01-7.63775E-01 1.12911E-02-6.39519E-01-2.30536E-13 1.92103E-14
 -1      2862 2.19178E+01-8.41984E-01-1.13194E-02-9.30026E-01-1.79790E-13 8.07496E-14
 -1      2863 2.30298E+01-1.25200E+00-1.67779E-02 1.99239E-01-1.31107E-13 1.36170E-13
 -1      2864 2.28850E+01-1.11670E+00 1.13962E-02-1.26030E-01-1.92266E-13 9.44670E-14
 -1      2865 2.25512E+01-1.29327E+00-1.15110E-02-5.05181E-01-2.43539E-13 4.16065E-14
 -1      2866 2.34769E+01-1.25717E+00-1.34429E-02 9.89676E-01 2.68943E-14 1.97991E-13
 -1      2867 2.34074E+01-1.30502E+00 5.22836E-03 6.16036E-01 2.64771E-14 2.40921E-13
 -1      2868 2.32788E+01-1.60115E+00-5.71474E-03 1.91629E-01-5.75318E-14 1.28553E-13
 -1      2869 2.36939E+01-7.08238E-01 2.42291E-04 1.74380E+00-1.04787E-13 3.72778E-13
 -1      2870 2.37345E+01-1.07009E+00-1.14333E-02 1.45227E+00-1.39272E-14 2.35993E-13
 -1      2871 2.39406E+01-1.46169E+00 5.61746E-03 1.10189E+00-6.41155E-14 3.89175E-13
 -1      2872 2.35593E+01 4.52932E-01 1.91119E-02 2.04298E+00-5.90266E-14 4.93459E-13
 -1      2873 2.36897E+01-2.02333E-01-3.37798E-02 2.03082E+00-1.24317E-13 4.64983E-13
 -1      2874 2.42774E+01-5.81190E-01 1.11206E-02 1.94252E+00-1.57340E-13 3.81388E-13
 -1      2875 2.31575E+01 1.76379E+00 1.28485E-02 1.49007E+00 1.66013E-13 6.24394E-13
 -1      2876 2.32963E+01 1.11519E+00-5.21716E-02 1.87433E+00 6.01064E-14 5.58134E-13
 -1      2877 2.41270E+01 9.60973E-01 5.43949E-03 2.16897E+00-7.12694E-14 3.80711E-13
 -1      2878 2.28769E+01 2.36042E+00-2.16747E-02 1.55963E-01 1.58189E-13 5.59905E-13
 -1      2879 2.29320E+01 2.18716E+00-3.65226E-02 7.99673E-01 2.28170E-13 6.01491E-13
 -1      2880 2.37544E+01 2.44987E+00-9.71549E-03 1.30236E+00 1.96135E-13 2.49540E-13
 -1      2881 2.30368E+01 1.77573E+00-4.75608E-02-1.25619E+00 9.66918E-14 2.97753E-13
 -1      2882 2.29539E+01 2.22492E+00-9.82667E-04-6.97477E-01 2.20452E-13 4.35707E-13
 -1      2883 2.35996E+01 2.85404E+00-1.59316E-02-3.18661E-01 2.40349E-13 2.43664E-13
 -1      2884 2.34515E+01 4.68467E-01-4.43128E-02-1.92404E+00-3.52665E-14 3.91178E-13
 -1      2885 2.33148E+01 1.18411E+00 2.10104E-02-1.72225E+00-3.72931E-14 3.45781E-13
 -1      2886 2.38897E+01 1.81657E+00-8.79419E-03-1.67354E+00-5.70030E-15 2.46540E-13
 -1      2887 2.36719E+01-7.15778E-01-2.64104E-02-1.66090E+00 1.32985E-13 4.02173E-13
 -1      2888 2.36033E+01-1.73875E-01 1.05704E-02-1.83420E+00 4.90736E-14 4.18586E-13
 -1      2889 2.42072E+01 1.17276E-01-4.27497E-03-2.00012E+00 2.91807E-14 3.97707E-13
 -1      2890 2.35082E+01-1.29038E+00-2.61048E-03-8.89137E-01 9.56299E-14 2.55723E-13
 -1      2891 2.35439E+01-1.07810E+00-5.66833E-03-1.25360E+00 2.13410E-13 4.66690E-13
 -1      2892 2.41184E+01-1.11881E+00 1.17423E-02-1.41615E+00 1.05488E-13 3.43763E-13
 -1      2893 2.30326E+01-1.29961E+00 9.36011E-03-4.04753E-02 5.26701E-14 4.79239E-14
 -1      2894 2.31655E+01-1.35258E+00-1.52682E-02-4.15804E-01 2.10864E-14 9.02963E-14
 -1      2895 2.35880E+01-1.66008E+00 4.97175E-04-4.61729E-01 1.51771E-13 3.51680E-13
 -1      2896 2.24462E+01-1.00519E+00 1.16746E-02 6.28234E-01-2.10183E-14 9.80129E-14
 -1      2897 2.26361E+01-1.18115E+00-1.52128E-02 3.33689E-01 4.71680E-14 6.85541E-14
 -1      2898 2.28459E+01-1.55310E+00-9.20955E-03 3.93591E-01-1.45800E-14 5.99530E-14
 -1      2899 2.18861E+01-6.26531E-01 1.01971E-02 1.05177E+00 9.30191E-14 3.34938E-14
 -1      2900 2.20924E+01-8.23394E-01-1.12467E-02 8.64428E-01-4.44176E-15 1.33605E-13
 -1      2901 2.21278E+01-1.13825E+00-1.16624E-02 9.90082E-01-3.05582E-14 1.09618E-13
 -1      2902 2.14090E+01-2.83218E-01 7.58062E-03 1.25667E+00 2.51487E-13 8.40293E-14
 -1      2903 2.16084E+01-4.52416E-01-6.67232E-03 1.16727E+00 2.11432E-13 4.97595E-14
 -1      2904 2.15385E+01-6.68818E-01-1.02056E-02 1.31973E+00 1.19377E-13 4.44344E-14
 -1      2905 2.10204E+01-8.33914E-03 5.70318E-03 1.29289E+00 2.90778E-13-1.73675E-13
 -1      2906 2.12024E+01-1.41015E-01-3.17975E-03 1.28214E+00 3.10445E-13 7.46765E-14
 -1      2907 2.10911E+01-2.60795E-01-7.49556E-03 1.44223E+00 3.35050E-13-4.35124E-14
 -1      2908 2.07089E+01 2.04890E-01 5.18115E-03 1.20217E+00 1.36201E-13-1.67157E-14
 -1      2909 2.08669E+01 1.02601E-01-7.83897E-04 1.25250E+00 1.59657E-13-9.56966E-14
 -1      2910 2.07581E+01 6.14957E-02-5.11961E-03 1.41418E+00 2.40846E-13-2.72881E-13
 -1      2911 2.04515E+01 3.80051E-01 4.60527E-03 1.06099E+00-8.60235E-14 3.00587E-13
 -1      2912 2.05872E+01 2.94706E-01 1.07570E-03 1.16015E+00 5.10049E-14 1.31658E-13
 -1      2913 2.04974E+01 3.08586E-01-4.86645E-03 1.31633E+00-7.73209E-14 2.02735E-14
 -1      2914 2.02983E+01 5.28134E-01-4.06916E-03 1.18567E+00-9.82486E-14 9.54467E-15
 -1      2915 1.90987E+01 1.63549E+00-6.68093E-03 2.59734E-01 2.81985E-14 1.12885E-13
 -1      2916 1.91599E+01 1.59238E+00-1.92822E-04 4.88491E-01 6.60437E-14 2.86038E-13
 -1      2917 1.94968E+01 1.26833E+00-7.93092E-03 1.06962E+00 2.43224E-13-2.97239E-13
 -1      2918 1.96426E+01 1.14801E+00 3.76947E-03 1.17760E+00 3.42153E-13-3.74175E-13
 -1      2919 1.90869E+01 1.65446E+00-3.34367E-03-2.60355E-01-8.40920E-14 1.73983E-13
 -1      2920 1.90748E+01 1.66535E+00-4.00241E-03-1.80606E-02 2.22090E-14-1.47838E-13
 -1      2921 1.88824E+01 1.54978E+00 7.51382E-03 1.41595E-01 2.04438E-13-1.20081E-14
 -1      2922 1.92479E+01 1.49546E+00-8.43837E-03 7.26130E-01-6.75585E-15-1.22706E-13
 -1      2923 1.93657E+01 1.40695E+00 3.04462E-03 9.06092E-01 1.34078E-13-1.29800E-13
 -1      2924 1.93023E+01 1.20985E+00 2.27729E-03 1.09629E+00 2.28683E-13-2.46435E-13
 -1      2925 1.90255E+01 1.43045E+00 5.51475E-03 6.80452E-01 1.12812E-13 2.42403E-14
 -1      2926 2.86216E+01 3.36859E-01-2.02009E-01-1.61368E+00-2.30552E-13-2.41862E-13
 -1      2927 2.85969E+01-1.64514E+00 1.92991E-02-5.69399E-01-2.92315E-13-5.59441E-13
 -1      2928 1.92165E+01 1.54812E+00 6.06461E-04-7.39355E-01-4.88586E-14-6.98347E-14
 -1      2929 1.91338E+01 1.60969E+00-7.10800E-03-5.26584E-01-1.42398E-13 2.37598E-13
 -1      2930 1.89112E+01 1.53567E+00 7.36862E-03-4.28327E-01-1.80090E-14 7.71466E-14
 -1      2931 1.94652E+01 1.33447E+00 3.76110E-03-1.11552E+00 1.57968E-13-1.36436E-13
 -1      2932 1.93260E+01 1.43954E+00-8.55332E-03-9.58144E-01-6.99121E-15-8.06397E-14
 -1      2933 1.91074E+01 1.39261E+00 4.92917E-03-9.35139E-01-3.77038E-14-1.17569E-14
 -1      2934 1.97829E+01 1.05463E+00 4.00363E-03-1.32488E+00 2.48428E-13-5.83325E-14
 -1      2935 1.96191E+01 1.18827E+00-7.40093E-03-1.25075E+00 3.43281E-13-8.57674E-14
 -1      2936 1.94348E+01 1.15481E+00 1.34704E-03-1.30162E+00 1.68056E-13 1.10058E-13
 -1      2937 2.00567E+01 8.51826E-01-4.91435E-04-1.32953E+00 1.28732E-13-7.75865E-14
 -1      2938 1.99589E+01 2.31394E-01-7.92255E-04 6.44196E-02 1.32751E-13-5.53649E-14
 -1      2939 2.00246E+01 3.15056E-01 7.84398E-03 1.62215E-01 1.71450E-13-2.82821E-14
 -1      2940 2.00553E+01 2.66502E-01-2.76079E-03 6.21039E-02 1.35389E-13-7.58747E-14
 -1      2941 1.78443E+01-4.61006E+00-7.93744E-03 6.11354E+00-1.04791E-13-8.33250E-13
 -1      2942 1.45847E+01-3.51544E+00 1.70863E-01 6.09023E+00-1.31839E-13-6.99052E-13
 -1      2943 2.03363E+01 1.50002E+00-1.90294E-03 1.26883E+00 2.94109E-13-1.05688E-15
 -1      2944 1.34065E+01-3.70482E+00 1.27523E-01-6.16702E+00 3.24990E-13 3.13430E-13
 -1      2945 1.61944E+01-4.59868E+00 6.27813E-03-6.46658E+00 4.28185E-13 6.46566E-14
 -1      2946 1.29794E+01-3.23949E+00-1.36024E-02 5.92059E+00 1.00697E-13-2.08944E-13
 -1      2947 1.03496E+01-2.06844E+00 2.33533E-01 4.87998E+00 2.07473E-14-1.51962E-13
 -1      2948 1.98414E+01 1.03170E-02 2.81874E-04-1.78835E-01 4.78709E-14-2.21007E-14
 -1      2949 1.98405E+01 2.87643E-02 1.78122E-03-1.66643E-01 8.11995E-14-2.95342E-14
 -1      2950 1.99309E+01 9.51896E-03-1.31660E-03-1.83074E-01 4.83839E-14-2.97083E-14
 -1      2951 1.98537E+01 5.13058E-02 1.05350E-04-1.43848E-01 7.14112E-14-4.02931E-14
 -1      2952 1.98673E+01 8.26107E-02 3.16124E-03-1.14891E-01 6.15879E-14-5.73848E-14
 -1      2953 1.99515E+01 5.71666E-02-1.81367E-03-1.46910E-01 8.29566E-14-7.10260E-14
 -1      2954 2.03201E+01 1.06026E+00 5.89020E-03-8.58421E-01-1.65620E-13-2.68520E-13
 -1      2955 2.02264E+01 8.15202E-01-5.70586E-03-6.16343E-01-1.50698E-13-2.36622E-13
 -1      2956 2.02607E+01 8.92931E-01 6.63036E-05-5.73461E-01-1.34003E-13-2.62245E-13
 -1      2957 8.60298E+00-1.35866E+00 1.45163E-01-3.59136E+00 9.06220E-15-2.21601E-13
 -1      2958 1.06528E+01-2.57871E+00 1.12842E-01-5.41305E+00 1.91999E-13 1.12771E-13
 -1      2959 1.33006E+01-2.47519E+00 1.38199E-01-5.27391E+00 3.72674E-13 5.55389E-14
 -1      2960 2.03145E+01 1.68858E+00-6.80039E-03-1.29688E+00-1.96305E-13-3.25118E-13
 -1      2961 2.02967E+01 1.30226E+00-3.05231E-03-1.02218E+00-1.88966E-13-2.97485E-13
 -1      2962 2.02802E+01 1.37339E+00 6.16985E-04-9.25508E-01-1.57234E-13-3.24227E-13
 -1      2963 2.02227E+01 1.95262E+00-4.18802E-04-1.26773E+00-1.62863E-13-3.65038E-13
 -1      2964 2.83874E+01 1.16097E+00-8.33188E-02 2.12417E+00 2.88297E-13-2.24473E-13
 -1      2965 2.81813E+01 2.53733E+00-1.98942E-01 2.14374E+00 1.98369E-13-2.40155E-13
 -1      2966 2.00675E+01 4.15647E-01-1.58622E-03 2.89734E-01 1.90516E-13-3.96841E-14
 -1      2967 2.01689E+01 5.53953E-01 1.04870E-02 4.52723E-01 1.94044E-13-2.32079E-14
 -1      2968 2.02527E+01 8.21826E-01 8.50730E-04 6.19473E-01 2.29631E-13-9.97918E-14
 -1      2969 2.01449E+01 4.77883E-01-1.90795E-03 2.82271E-01 1.88850E-13-8.96451E-14
 -1      2970 1.99265E+01 2.59539E+00-7.89575E-03 7.95722E-01 2.92488E-13-2.54299E-13
 -1      2971 1.98832E+01 2.68754E+00-6.12081E-03 6.46527E-01 2.67741E-13-2.90629E-13
 -1      2972 2.00023E+01 2.38800E+00 4.33784E-03 5.17705E-01 2.34104E-13-2.70342E-13
 -1      2973 2.00825E+01 2.19020E+00 5.58251E-03 7.47134E-01 2.79571E-13-2.18753E-13
 -1      2974 1.98782E+01 2.69632E+00-6.09688E-03-6.36346E-01 2.92013E-14-3.99494E-13
 -1      2975 1.99206E+01 2.60666E+00-7.74493E-03-7.85884E-01-1.34791E-14-4.00192E-13
 -1      2976 2.31284E+01-5.19129E+00 4.11989E-02-4.24426E+00-1.65506E-13-4.14918E-13
 -1      2977 2.54270E+01-4.71119E+00-6.23482E-02-2.78748E+00-2.03976E-13-5.83318E-13
 -1      2978 2.81542E+01 4.55180E+00-1.33978E-01 1.90458E+00 1.89571E-13-2.14301E-13
 -1      2979 2.80809E+01 5.88948E+00-1.96644E-01 9.80709E-01 2.97706E-13-2.59143E-13
 -1      2980 2.68663E+01 3.18013E+00-7.51865E-02 2.20242E+00 1.98230E-13-1.44468E-13
 -1      2981 7.27206E+00-1.49407E+00 5.46124E-02 3.35392E+00-5.68989E-14-2.81775E-13
 -1      2982 5.88730E+00-1.10983E+00 2.16414E-01 1.25425E+00-1.63917E-13-5.46035E-13
 -1      2983 9.57692E+00-2.39457E+00 1.44037E-01-5.12412E+00-2.11720E-13-2.47413E-13
 -1      2984 1.22016E+01-3.54123E+00 1.22671E-01-6.32790E+00-2.35367E-14-4.23384E-13
 -1      2985 2.06911E+01-5.18348E+00-8.95069E-02 5.14155E+00 1.57818E-13 3.86725E-13
 -1      2986 1.71605E+01-4.12533E+00 1.79919E-01 5.80483E+00 2.14023E-13 3.54231E-14
 -1      2987 2.82526E+01 6.45146E+00-1.81143E-01 3.70993E-02 2.22516E-13-3.28652E-13
 -1      2988 2.82352E+01 5.97782E+00-1.63858E-01-9.66354E-01 1.53988E-13-3.45009E-13
 -1      2989 1.10433E+01-2.53089E+00 5.37087E-02 5.50655E+00-2.47594E-13-4.46587E-13
 -1      2990 8.69401E+00-1.49742E+00 1.86772E-01 3.83082E+00-1.24116E-13-8.28226E-14
 -1      2991 2.84426E+01 5.70246E+00-2.04614E-01-9.57367E-01-7.63833E-14-1.00026E-13
 -1      2992 2.87676E+01 4.99200E+00-1.04118E-01-1.91338E+00-6.26721E-14-4.24660E-14
 -1      2993 1.96404E+01-5.21639E+00 1.15915E-01-5.79306E+00 3.06144E-13-1.97110E-13
 -1      2994 2.28842E+01-5.60335E+00-9.33007E-02-4.77077E+00 1.41401E-13-4.61978E-13
 -1      2995 2.88920E+01 5.59686E+00-1.62333E-01 1.20243E+00 2.46470E-14-2.54838E-13
 -1      2996 2.85737E+01 6.23922E+00-1.67355E-01 1.76517E-01-6.46705E-15-2.11798E-13
 -1      2997 2.90369E+01-1.99022E+00-1.83439E-02 3.69747E-01-5.57193E-15-1.25316E-13
 -1      2998 2.94220E+01-1.84888E-01-1.84823E-01 1.35726E+00-1.12299E-13-1.92429E-13
 -1      2999 2.98401E+01 2.07057E+00-7.86050E-02 1.98370E+00-1.60510E-13-2.05586E-13
 -1      3000 2.96403E+01 4.01290E+00-1.68817E-01 1.90515E+00-1.06803E-13-3.25337E-13
 -1      3001 2.88138E+01 4.37707E-01-8.05231E-02 1.90272E+00-9.18154E-14-2.58307E-13
 -1      3002 2.59422E+01-4.89002E+00 5.64247E-02-2.75607E+00-4.86694E-14-3.98903E-13
 -1      3003 2.78431E+01-3.82918E+00-1.21945E-01-1.28809E+00-4.97866E-14-3.30930E-13
 -1      3004 1.99746E+01 2.48714E+00-6.02193E-03-9.03624E-01-4.93197E-14-3.89468E-13
 -1      3005 2.00386E+01 2.34309E+00-8.97482E-03-1.03648E+00-9.62546E-14-3.90944E-13
 -1      3006 2.00765E+01 2.20437E+00 6.09134E-03-7.40990E-01-3.94682E-14-3.57629E-13
 -1      3007 1.99378E+01 2.53816E+00 3.43334E-03 4.58414E-03 1.36458E-13-3.07345E-13
 -1      3008 1.97986E+01 2.86950E+00-5.49611E-03-6.20187E-02 1.28179E-13-3.39228E-13
 -1      3009 1.98060E+01 2.85487E+00-5.55524E-03-2.16946E-01 1.00596E-13-3.60116E-13
 -1      3010 2.75067E+01 1.21520E+00-8.78522E-02-1.96422E+00-1.58790E-13-9.47575E-14
 -1      3011 2.77898E+01-3.07055E+00-3.44756E-02-7.23466E-02 8.99281E-15-2.17465E-13
 -1      3012 2.71214E+01-9.02228E-01-7.29044E-02-1.95474E+00-3.25087E-14 1.19113E-13
 -1      3013 2.84028E+01 4.40766E+00-1.54099E-01 1.76798E+00-1.55154E-14-1.60094E-13
 -1      3014 2.68408E+01 4.46531E+00-1.22623E-01 1.46060E+00 2.94487E-14-1.05749E-13
 -1      3015 2.27441E+01-4.72567E+00 6.39955E-02 3.75273E+00 6.42542E-15 3.28538E-13
 -1      3016 2.02841E+01 5.56692E-01-3.12134E-03-1.50505E+00 2.62709E-13-2.03146E-13
 -1      3017 1.89549E+01-4.46725E+00 1.23317E-01-5.58431E+00 4.04732E-13-1.50033E-13
 -1      3018 1.99912E+01 1.37088E-01-2.36767E-03-7.19727E-02 7.23726E-14-7.16248E-14
 -1      3019 2.01696E+01 6.54206E-01 3.72359E-03 1.23891E+00-9.30388E-14-9.97057E-14
 -1      3020 2.02491E+01 5.37529E-01 2.29083E-03 1.32717E+00-2.23301E-13-6.98903E-14
 -1      3021 2.00329E+01 7.83395E-01-4.79250E-03 1.27668E+00-1.27153E-14-3.77129E-13
 -1      3022 2.72368E+01 5.21635E+00-1.43242E-01-3.25242E-01 5.52614E-14-2.37851E-13
 -1      3023 1.39825E+01-2.49386E+00 1.26634E-01 5.31173E+00-2.41085E-13-5.47479E-13
 -1      3024 2.74061E+01-3.70216E+00-1.66820E-01 1.15889E+00-2.50362E-13-5.37376E-13
 -1      3025 2.59513E+01-4.67596E+00 4.82769E-02 2.64438E+00-2.42452E-13-5.26107E-13
 -1      3026 2.00965E+01 6.93291E-01 1.63020E-03-1.49267E+00 2.51936E-13-2.39436E-13
 -1      3027 1.99116E+01 9.07119E-01-2.78963E-03-1.40391E+00 2.74313E-13-3.06649E-13
 -1      3028 1.97934E+01 8.75280E-01 1.09652E-03-1.50429E+00 2.45181E-13-1.31972E-13
 -1      3029 2.01563E+01 6.09135E-01 2.81712E-03-1.58097E+00 3.99094E-13-3.11756E-13
 -1      3030 1.60899E+01-3.18720E+00 1.06411E-01 5.34433E+00 7.78544E-14 2.39184E-14
 -1      3031 2.67751E+01 5.34044E+00-1.04170E-01 5.92790E-01 2.33980E-13-2.11543E-13
 -1      3032 2.08577E+01-4.95672E+00 1.24457E-01 5.20570E+00-1.13035E-13-5.87037E-13
 -1      3033 1.96666E+01-4.24303E+00 7.28725E-02 5.14123E+00 6.76265E-14-5.49186E-13
 -1      3034 8.84533E+00-1.63783E+00 1.91160E-01-4.28620E+00-1.53891E-13-2.39309E-13
 -1      3035 1.12249E+01-1.80133E+00 1.04727E-01-4.83063E+00-1.98563E-13-2.12358E-13
 -1      3036 8.22777E+00-9.78693E-01 9.69104E-02-3.12013E+00-1.89765E-13-4.22634E-13
 -1      3037 2.32744E+01-5.24988E+00-5.43909E-02 4.31069E+00-2.29913E-13-4.14006E-13
 -1      3038 2.02896E+01 1.58739E+00-1.19199E-03 1.16773E+00 2.99659E-13-8.37139E-14
 -1      3039 1.00652E+01-1.17733E+00 1.65512E-01 3.70728E+00-5.88418E-15-1.84033E-13
 -1      3040 1.50240E+01-3.81184E+00 1.04626E-01-6.06509E+00-6.34631E-14-5.11230E-13
 -1      3041 6.97154E+00-6.14520E-01 1.83376E-01 1.17531E-01-1.55483E-13-4.72677E-13
 -1      3042 1.97673E+01 1.02892E+00-6.17684E-03 1.24017E+00 1.52600E-13-3.07155E-13
 -1      3043 1.99123E+01 8.97061E-01 3.19598E-03 1.27312E+00 6.82215E-14-4.16499E-13
 -1      3044 1.99415E+01 7.58095E-01 1.97266E-03 1.38445E+00-3.49196E-14-3.17640E-13
 -1      3045 1.96302E+01 9.71118E-01 1.09275E-03 1.32236E+00 2.46881E-13-1.45608E-13
 -1      3046 2.76580E+01-4.29751E-01-6.32402E-02 1.62024E+00 2.15925E-13-1.27551E-13
 -1      3047 8.54596E+00-6.84854E-01 1.75973E-01-2.41005E+00-1.28106E-13-3.22381E-13
 -1      3048 1.05421E+01-6.41870E-01 1.12400E-01-3.08409E+00 6.45976E-14-5.04180E-13
 -1      3049 8.81549E+00-1.89672E-01 9.32834E-02-1.00639E+00-8.31696E-14-2.92405E-14
 -1      3050 2.65739E+01-4.02424E+00 3.46455E-03-1.39313E+00-1.01238E-13-4.76688E-13
 -1      3051 2.67639E+01-3.15073E+00-1.00168E-01 9.03325E-02 3.48124E-14-1.57915E-13
 -1      3052 2.53213E+01-4.29931E+00 2.28288E-02-1.88539E+00-2.62505E-13-4.36172E-13
 -1      3053 1.98214E+01 2.81939E+00-5.70951E-03-3.52375E-01 8.32898E-14-3.55482E-13
 -1      3054 1.98452E+01 2.77113E+00-6.20204E-03-5.06201E-01 4.61742E-14-3.75909E-13
 -1      3055 1.99980E+01 2.39569E+00 4.24612E-03-5.08658E-01 3.16680E-14-3.65141E-13
 -1      3056 1.99522E+01 2.50412E+00 3.61855E-03-2.56220E-01 7.86499E-14-3.40908E-13
 -1      3057 2.16946E+01-5.16544E+00 3.03093E-02-4.96752E+00-2.05808E-14-1.98537E-13
 -1      3058 2.29923E+01-4.77023E+00 3.00433E-02-3.72065E+00-1.11043E-13-4.34252E-13
 -1      3059 1.98906E+01-4.70453E+00 6.89070E-02-5.31277E+00-2.87964E-14-2.76133E-13
 -1      3060 2.81060E+01 3.57438E+00-3.48147E-02-2.23337E+00-1.70197E-13-6.70575E-14
 -1      3061 2.84584E+01-9.68263E-01-8.16090E-02-1.58029E+00-6.06529E-14 1.24775E-13
 -1      3062 2.68009E+01 4.57607E+00-1.02107E-01-1.42183E+00 8.93591E-14-2.29712E-13
 -1      3063 2.46801E+01-4.99418E+00 5.36319E-02-3.16616E+00 7.36217E-14-3.30604E-13
 -1      3064 2.76013E+01 3.09449E+00-8.35468E-02 2.16586E+00-1.36363E-13-2.11275E-13
 -1      3065 2.02792E+01 1.36606E+00 2.07566E-03 9.21520E-01 2.79735E-13-1.03313E-13
 -1      3066 2.74453E+01-2.73920E+00-3.41096E-02-2.24065E-02-2.75638E-13-4.25979E-13
 -1      3067 1.18579E+01-1.01233E+00 4.24532E-02 3.93708E+00 7.77121E-14-3.98293E-14
 -1      3068 9.89334E+00-1.38038E-01 2.05277E-01 2.50595E+00 2.97505E-14-2.52798E-13
 -1      3069 2.02411E+01 1.47912E+00-6.70382E-03 8.04389E-01 2.76333E-13-1.46748E-13
 -1      3070 2.02027E+01 1.66928E+00-3.84528E-04 7.47869E-01 2.68460E-13-1.78715E-13
 -1      3071 2.61786E+01 1.70118E+00-1.18729E-01-2.23253E+00-9.55555E-14 9.88792E-14
 -1      3072 2.69734E+01-1.50817E-01-1.10045E-02-1.99750E+00-1.63342E-13 3.42781E-15
 -1      3073 2.02905E+01 9.88670E-01-6.09860E-04 6.92113E-01 2.42931E-13-1.08201E-13
 -1      3074 2.02682E+01 1.30804E+00 3.48983E-03 7.73401E-01 2.60204E-13-1.05886E-13
 -1      3075 2.02752E+01 1.12788E+00 1.47679E-03 5.96555E-01 2.25186E-13-1.45720E-13
 -1      3076 2.02321E+01 7.75987E-01-3.64362E-03 4.86852E-01 2.11423E-13-1.13694E-13
 -1      3077 2.40754E+01-4.68943E+00-1.13170E-01 2.57999E+00 2.42029E-14 2.85647E-13
 -1      3078 2.16536E+01-4.01036E+00 1.67223E-01 3.89400E+00-2.30684E-14 2.11739E-13
 -1      3079 2.62866E+01 4.30977E+00-1.22348E-01 9.22314E-01-7.36911E-15-5.40297E-14
 -1      3080 2.02225E+01 4.24068E-01 4.13984E-03-1.21494E-01-8.33953E-14-2.04152E-13
 -1      3081 2.01834E+01 3.16802E-01-2.27806E-03-3.63099E-02-7.11291E-14-1.98755E-13
 -1      3082 2.01694E+01 2.34001E-01 3.15540E-03 2.56500E-02-7.51653E-14-1.72030E-13
 -1      3083 2.01395E+01 1.64443E-01-1.25501E-03 7.73210E-02-9.53932E-14-1.84584E-13
 -1      3084 2.02404E+01 3.34302E-01-8.71419E-04-2.67925E-02-6.23261E-14-1.91810E-13
 -1      3085 2.01230E+01 1.11577E-01 2.20658E-03 1.14130E-01-1.04662E-13-1.72752E-13
 -1      3086 2.01025E+01 6.78628E-02-5.53105E-04 1.42542E-01-6.85058E-14-1.50804E-13
 -1      3087 2.02002E+01 1.72291E-01-1.03391E-03 7.74279E-02-9.56649E-14-1.51130E-13
 -1      3088 2.00865E+01 3.55322E-02 1.41767E-03 1.61741E-01-3.84415E-14-1.70753E-13
 -1      3089 2.00738E+01 9.82621E-03-8.76599E-05 1.74918E-01-2.12440E-14-1.49405E-13
 -1      3090 2.01619E+01 6.92799E-02-9.90167E-04 1.37888E-01-6.23028E-14-1.56037E-13
 -1      3091 2.00595E+01-8.14825E-03 8.07857E-04 1.82719E-01-4.31984E-14-1.25735E-13
 -1      3092 2.00528E+01-2.11286E-02 2.19292E-04 1.86695E-01-7.80398E-14-8.97056E-14
 -1      3093 2.01285E+01 7.84578E-03-8.64187E-04 1.68376E-01-1.37831E-14-1.92230E-13
 -1      3094 2.00406E+01-2.88976E-02 3.53518E-04 1.87934E-01-9.36717E-14-8.26320E-14
 -1      3095 2.00384E+01-3.27369E-02 4.26655E-04 1.87188E-01-6.50745E-14-7.35588E-14
 -1      3096 2.01009E+01-2.39999E-02-7.17422E-04 1.80097E-01-6.93856E-14-1.76422E-13
 -1      3097 2.00283E+01-3.30955E-02 1.86845E-05 1.85547E-01-9.09646E-14-5.12538E-14
 -1      3098 2.00295E+01-3.02010E-02 5.75535E-04 1.83410E-01-1.09235E-13-8.04606E-14
 -1      3099 2.00786E+01-3.44958E-02-5.76216E-04 1.81737E-01-8.45661E-14-1.03584E-13
 -1      3100 2.00210E+01-2.49991E-02-2.32487E-04 1.81688E-01-9.78653E-14-2.39227E-14
 -1      3101 2.00247E+01-1.69323E-02 6.94867E-04 1.80681E-01-6.89678E-14-3.40228E-14
 -1      3102 2.00610E+01-2.92238E-02-4.48194E-04 1.79936E-01-6.67074E-14-5.15130E-14
 -1      3103 2.00175E+01-7.33425E-03-4.31537E-04 1.81049E-01-8.82985E-14-7.97275E-14
 -1      3104 2.00233E+01 4.96412E-03 8.04935E-04 1.83148E-01-6.65384E-14-1.40395E-13
 -1      3105 2.00470E+01-1.18419E-02-3.32890E-04 1.79787E-01-1.13466E-13-4.88569E-14
 -1      3106 2.00167E+01 1.82940E-02-6.04370E-04 1.87351E-01-4.66319E-14-1.41500E-13
 -1      3107 2.00242E+01 3.43332E-02 9.19596E-04 1.94188E-01-1.98849E-14-1.34295E-13
 -1      3108 2.00355E+01 1.54084E-02-2.25829E-04 1.85299E-01-7.09470E-14-1.23639E-13
 -1      3109 2.00177E+01 5.10845E-02-7.71774E-04 2.03713E-01-4.95606E-14-1.47988E-13
 -1      3110 2.00269E+01 7.06826E-02 1.04769E-03 2.16716E-01-1.19643E-13-1.41633E-13
 -1      3111 2.00253E+01 5.13142E-02-1.19875E-04 1.99768E-01-7.06120E-14-1.43296E-13
 -1      3112 2.00198E+01 9.07704E-02-9.50037E-04 2.32901E-01-1.12399E-13-1.40972E-13
 -1      3113 2.00306E+01 1.13918E-01 1.19391E-03 2.53388E-01-9.41862E-14-1.03948E-13
 -1      3114 2.00151E+01 9.53644E-02-6.51281E-06 2.26048E-01-9.95761E-14-1.34820E-13
 -1      3115 2.00220E+01 1.37346E-01-1.15060E-03 2.77497E-01-9.48137E-14-5.53039E-14
 -1      3116 2.00344E+01 1.64051E-01 1.35909E-03 3.06712E-01-1.13799E-13-7.08386E-14
 -1      3117 2.00034E+01 1.47434E-01 1.22573E-04 2.66740E-01-6.77185E-14-1.00847E-13
 -1      3118 2.00234E+01 1.90745E-01-1.37943E-03 3.39959E-01-1.04346E-13-4.63823E-14
 -1      3119 2.00374E+01 2.20836E-01 1.54150E-03 3.79059E-01-1.02386E-13-2.00746E-14
 -1      3120 1.99886E+01 2.07435E-01 2.75845E-04 3.24286E-01-9.78655E-14-1.65176E-14
 -1      3121 2.00229E+01 2.50419E-01-1.63560E-03 4.22595E-01-1.11737E-13 1.71897E-14
 -1      3122 2.00387E+01 2.83271E-01 1.73857E-03 4.72568E-01-9.37617E-14 1.33177E-14
 -1      3123 1.99685E+01 2.74867E-01 4.58390E-04 4.00984E-01-9.79323E-14 2.29353E-14
 -1      3124 2.00197E+01 3.14741E-01-1.90757E-03 5.27430E-01-1.16970E-13 6.68517E-14
 -1      3125 2.00373E+01 3.48873E-01 1.95119E-03 5.88954E-01-5.80289E-14 3.75504E-14
 -1      3126 1.99412E+01 3.48220E-01 6.66935E-04 4.98930E-01-1.03850E-13 9.98604E-14
 -1      3127 2.00129E+01 3.80117E-01-2.16700E-03 6.55989E-01-1.72603E-14 3.38383E-14
 -1      3128 2.00328E+01 4.12597E-01 2.19140E-03 7.29199E-01 9.65042E-14-1.43124E-14
 -1      3129 1.99046E+01 4.24097E-01 8.80879E-04 6.19914E-01-4.57313E-14 1.46341E-13
 -1      3130 2.00030E+01 4.39679E-01-2.35833E-03 8.08974E-01 1.40473E-13-8.61755E-14
 -1      3131 2.00266E+01 4.65258E-01 2.49489E-03 8.93154E-01 6.15439E-14-1.23641E-13
 -1      3132 1.98574E+01 4.95948E-01 1.04553E-03 7.65319E-01 8.10031E-14 4.89993E-14
 -1      3133 1.99925E+01 4.81399E-01-2.38062E-03 9.85883E-01-1.83335E-14-8.26586E-14
 -1      3134 2.00234E+01 4.91306E-01 2.93714E-03 1.07904E+00-1.24424E-14-1.44389E-14
 -1      3135 1.97999E+01 5.52251E-01 1.04390E-03 9.36074E-01 7.52006E-14 3.30141E-14
 -1      3136 1.99895E+01 4.85528E-01-2.05430E-03 1.18451E+00-1.19145E-14 3.49541E-15
 -1      3137 2.00348E+01 4.65920E-01 3.64586E-03 1.28278E+00-1.07068E-15 4.37205E-14
 -1      3138 1.97367E+01 5.73986E-01 6.51533E-04 1.13276E+00 2.41615E-15 1.55367E-13
 -1      3139 2.00115E+01 4.21465E-01-1.04895E-03 1.40019E+00-9.65754E-15-2.73918E-14
 -1      3140 2.00850E+01 3.51736E-01 4.76771E-03 1.49688E+00 6.62365E-14 4.04393E-15
 -1      3141 1.96803E+01 5.31350E-01-5.30934E-04 1.35579E+00-5.11619E-14 3.61071E-14
 -1      3142 2.00931E+01 2.44805E-01 1.24128E-03 1.62381E+00 1.63445E-13-2.78506E-14
 -1      3143 2.02189E+01 9.68766E-02 6.39327E-03 1.70747E+00 1.35636E-13-5.32693E-15
 -1      3144 1.96579E+01 3.79873E-01-3.17239E-03 1.60514E+00 9.76192E-14-4.68438E-14
 -1      3145 2.02965E+01-1.02268E-01 5.95554E-03 1.83679E+00 1.03640E-13-5.01466E-14
 -1      3146 2.05120E+01-3.61161E-01 8.59274E-03 1.88730E+00 5.76683E-14-1.22074E-13
 -1      3147 1.97218E+01 5.83536E-02-8.10322E-03 1.87736E+00 1.21509E-13-1.41526E-13
 -1      3148 2.07229E+01-6.81088E-01 1.53714E-02 2.00069E+00 4.49607E-14-2.50793E-14
 -1      3149 2.10810E+01-1.08066E+00 1.03490E-02 1.98084E+00 1.32195E-13 1.03749E-13
 -1      3150 1.99634E+01-5.07383E-01-1.62572E-02 2.15611E+00 7.13208E-14-3.88994E-14
 -1      3151 2.15319E+01-1.52318E+00 3.46375E-02 2.03186E+00 1.44302E-13 4.28013E-14
 -1      3152 2.21192E+01-2.04606E+00 2.42016E-02 1.87129E+00 7.05894E-14 8.05484E-14
 -1      3153 2.05132E+01-1.39156E+00-3.50814E-02 2.39164E+00 1.06213E-13 2.61353E-14
 -1      3154 2.30351E+01-3.03400E+00 7.55748E-03 1.87201E+00 7.82339E-15 8.29354E-14
 -1      3155 2.39807E+01-3.34003E+00 4.99242E-02 1.42242E+00-3.35973E-14 1.07311E-13
 -1      3156 2.48949E+01-3.43769E+00 1.58998E-02 7.93576E-01-2.42324E-14 1.09572E-13
 -1      3157 2.56958E+01-3.18123E+00-1.90597E-02 4.20295E-02 1.11639E-13-3.28829E-13
 -1      3158 2.50505E+01-3.38543E+00 2.02415E-02-6.63084E-01 5.94941E-14-3.22853E-13
 -1      3159 2.38775E+01-3.12134E+00-1.08585E-03-1.30606E+00 9.81194E-14-1.84164E-13
 -1      3160 2.31705E+01-2.71321E+00 4.58076E-02-1.74007E+00 1.78006E-13-6.83750E-14
 -1      3161 2.40582E+01-3.73751E+00-4.43843E-02-1.75843E+00 2.43548E-13-5.79183E-13
 -1      3162 2.23380E+01-2.23956E+00 2.05898E-03-1.96584E+00 5.07355E-14 5.46898E-14
 -1      3163 2.17908E+01-1.72852E+00 3.02033E-02-2.17359E+00-2.85822E-14-1.53182E-13
 -1      3164 2.20530E+01-2.78872E+00-4.86242E-02-2.49362E+00 1.36410E-13-6.68233E-14
 -1      3165 2.13040E+01-1.27021E+00 6.62143E-03-2.18328E+00-1.81550E-14-1.69939E-13
 -1      3166 2.09295E+01-8.51065E-01 1.61450E-02-2.23961E+00-9.89302E-14-1.47820E-13
 -1      3167 2.08651E+01-1.62708E+00-3.21443E-02-2.59257E+00-2.85259E-14-1.49328E-13
 -1      3168 2.06901E+01-5.02909E-01 7.10799E-03-2.15555E+00-2.84159E-14-5.45958E-14
 -1      3169 2.04545E+01-2.06642E-01 7.46576E-03-2.12570E+00 7.46079E-14-1.48627E-13
 -1      3170 2.02296E+01-6.89873E-01-1.91077E-02-2.43237E+00-5.73033E-15-1.62917E-13
 -1      3171 2.03602E+01 3.28194E-02 5.34640E-03-2.00793E+00-2.31545E-14-1.97451E-13
 -1      3172 2.02214E+01 2.31278E-01 3.21905E-03-1.92724E+00-1.26591E-13-2.94744E-13
 -1      3173 1.99539E+01-3.37545E-02-8.45891E-03-2.18557E+00-8.29465E-14-1.51075E-13
 -1      3174 2.02239E+01 3.68079E-01 3.62741E-03-1.81202E+00 7.05882E-14-2.69890E-13
 -1      3175 2.01401E+01 5.07824E-01 1.96370E-03-1.69873E+00 3.06428E-13-1.17382E-13
 -1      3176 1.99272E+01 6.29552E-01-2.89575E-03-1.69035E+00 2.43478E-13-2.60411E-14
 -1      3177 1.98965E+01 3.71556E-01-4.17708E-03-1.93074E+00-7.00182E-14-1.46403E-14
 -1      3178 1.79281E+01-3.71235E+00 8.55419E-02-5.33522E+00 3.60045E-13-1.16171E-13
 -1      3179 2.07124E+01-4.56891E+00 1.51183E-03-4.81777E+00 3.26662E-13-4.25892E-13
 -1      3180 1.99974E+01-1.85567E-02 2.56796E-04-1.91224E-01 6.37136E-14-1.05943E-13
 -1      3181 1.99998E+01-6.24284E-03 8.55835E-04-1.87688E-01 3.88008E-14-1.05387E-13
 -1      3182 1.99944E+01-1.95271E-02 6.86501E-04-1.80375E-01 4.68584E-14 4.35836E-15
 -1      3183 1.99859E+01-2.58061E-02-2.35764E-04-1.82651E-01 5.90670E-14-5.49381E-14
 -1      3184 2.00021E+01-2.18920E-03 7.99279E-04-1.80072E-01 2.41578E-14 8.18488E-14
 -1      3185 1.99915E+01-1.20314E-02-4.15295E-04-1.79533E-01 5.47200E-14 5.21451E-14
 -1      3186 2.00234E+01-1.67382E-02-3.62423E-04-1.82820E-01 8.25893E-15-7.00870E-14
 -1      3187 2.00128E+01 2.12465E-02 9.23529E-04-1.87746E-01 4.04296E-14 7.39061E-14
 -1      3188 2.00003E+01 8.37284E-03-5.56003E-04-1.82828E-01 4.13106E-14 9.20809E-14
 -1      3189 2.00209E+01 5.32661E-03-2.80734E-04-1.85684E-01 3.12862E-14-4.59274E-14
 -1      3190 2.00265E+01 5.01085E-02 1.06696E-03-2.06192E-01 3.06658E-14 5.57502E-14
 -1      3191 2.00119E+01 3.44939E-02-6.78564E-04-1.95568E-01 3.44056E-14 8.00239E-14
 -1      3192 2.00208E+01 3.45567E-02-2.16404E-04-1.97113E-01 9.87880E-15-1.98611E-14
 -1      3193 2.00432E+01 8.39919E-02 1.23319E-03-2.37862E-01 2.45780E-14 1.31548E-13
 -1      3194 2.00260E+01 6.58210E-02-7.97348E-04-2.20361E-01 1.52719E-14 1.14372E-13
 -1      3195 2.00224E+01 7.01919E-02-1.62878E-04-2.19929E-01 9.28935E-15 6.66723E-14
 -1      3196 2.00631E+01 1.22468E-01 1.42132E-03-2.84950E-01 6.43640E-14 7.43374E-14
 -1      3197 2.00429E+01 1.01974E-01-9.20118E-04-2.59538E-01 4.70757E-14 6.85179E-14
 -1      3198 2.00251E+01 1.11717E-01-1.14881E-04-2.56623E-01 6.49133E-14 3.12936E-14
 -1      3199 2.00866E+01 1.64722E-01 1.62597E-03-3.49361E-01 1.04218E-14 1.58766E-13
 -1      3200 2.00627E+01 1.42385E-01-1.04703E-03-3.15181E-01 7.50420E-14 1.49511E-13
 -1      3201 2.00284E+01 1.58500E-01-7.01616E-05-3.09428E-01 4.33340E-14 1.70835E-15
 -1      3202 2.01147E+01 2.09082E-01 1.83706E-03-4.32535E-01 3.65537E-14 9.91649E-14
 -1      3203 2.00862E+01 1.85886E-01-1.16819E-03-3.89032E-01 4.00364E-14 1.76833E-13
 -1      3204 2.00321E+01 2.09344E-01-3.23960E-05-3.80289E-01 2.67136E-14 9.73134E-14
 -1      3205 2.01484E+01 2.52360E-01 2.04065E-03-5.35115E-01 6.89817E-14-3.00253E-14
 -1      3206 2.01144E+01 2.30154E-01-1.25934E-03-4.82253E-01 3.62927E-14 6.31918E-14
 -1      3207 2.00361E+01 2.61893E-01-1.54042E-05-4.70709E-01 1.01074E-13 8.36097E-14
 -1      3208 2.01902E+01 2.88963E-01 2.21987E-03-6.56420E-01 6.97703E-14 7.00524E-14
 -1      3209 2.01491E+01 2.70951E-01-1.27507E-03-5.95016E-01 9.19745E-14 2.87191E-14
 -1      3210 2.00413E+01 3.11833E-01-5.18981E-05-5.81472E-01 2.83860E-14 7.54110E-14
 -1      3211 2.02441E+01 3.09719E-01 2.35618E-03-7.93676E-01 5.23282E-14 1.52283E-13
 -1      3212 2.01938E+01 3.01092E-01-1.13827E-03-7.25886E-01 4.80608E-14 1.11560E-13
 -1      3213 2.00498E+01 3.51804E-01-2.06657E-04-7.12229E-01 1.65550E-14 1.48495E-13
 -1      3214 2.03175E+01 3.00455E-01 2.42690E-03-9.40956E-01 3.90549E-14 2.54028E-13
 -1      3215 2.02543E+01 3.09141E-01-7.24933E-04-8.70930E-01 6.37722E-14 2.07428E-13
 -1      3216 2.00664E+01 3.70011E-01-5.95951E-04-8.60904E-01 1.28356E-14 2.19662E-13
 -1      3217 2.04231E+01 2.40603E-01 2.38741E-03-1.08767E+00-4.80737E-14 2.56842E-13
 -1      3218 2.03414E+01 2.77958E-01 1.55423E-04-1.02244E+00 3.84556E-14 2.35186E-13
 -1      3219 2.01004E+01 3.48580E-01-1.41324E-03-1.02287E+00 3.79644E-15 2.41453E-13
 -1      3220 2.05822E+01 1.02663E-01 2.12132E-03-1.21639E+00-3.38990E-14 8.36896E-14
 -1      3221 2.04731E+01 1.83585E-01 1.77550E-03-1.16707E+00 4.09881E-14 1.73703E-13
 -1      3222 2.01687E+01 2.62025E-01-2.95585E-03-1.18960E+00 6.14868E-14 2.40942E-13
 -1      3223 2.08272E+01-1.45472E-01 1.32947E-03-1.29958E+00-7.27439E-14-1.74605E-14
 -1      3224 2.06780E+01-4.18811E-03 4.48680E-03-1.28282E+00-9.02314E-14 5.18923E-14
 -1      3225 2.03002E+01 7.69042E-02-5.62412E-03-1.34632E+00-9.80715E-15 9.26742E-14
 -1      3226 2.12021E+01-5.31370E-01-6.43633E-04-1.29487E+00-5.89729E-14-6.46158E-14
 -1      3227 2.09983E+01-3.16758E-01 8.62055E-03-1.33452E+00-4.88141E-14-6.19805E-14
 -1      3228 2.05398E+01-2.44805E-01-9.84293E-03-1.46740E+00-4.90657E-14 5.08777E-14
 -1      3229 2.17549E+01-1.05491E+00-4.88740E-03-1.13928E+00-2.76726E-13 5.44069E-14
 -1      3230 2.14869E+01-7.71851E-01 1.42259E-02-1.26699E+00-1.30693E-13 2.17087E-14
 -1      3231 2.09514E+01-7.33674E-01-1.57919E-02-1.50803E+00-1.68515E-13-7.98840E-16
 -1      3232 2.25138E+01-1.63884E+00-1.15905E-02-7.47530E-01-1.60430E-13-2.60497E-14
 -1      3233 2.21914E+01-1.33950E+00 2.02811E-02-9.97995E-01-2.33523E-13 2.81528E-14
 -1      3234 2.16116E+01-1.38170E+00-2.25505E-02-1.39079E+00-2.41188E-13 1.03298E-13
 -1      3235 2.34372E+01-2.05755E+00-1.77970E-02-3.98632E-02-1.83260E-13 1.76757E-13
 -1      3236 2.31064E+01-1.88069E+00 2.26289E-02-4.29087E-01-2.23928E-13 7.07017E-14
 -1      3237 2.25732E+01-2.07512E+00-2.80100E-02-9.93401E-01-2.61374E-13-5.87442E-14
 -1      3238 2.43454E+01-1.88640E+00-1.79359E-02 9.66828E-01-2.07161E-13 4.12235E-13
 -1      3239 2.40976E+01-2.07316E+00 1.21395E-02 4.95426E-01-1.35368E-13 3.29705E-13
 -1      3240 2.38053E+01-2.47974E+00-2.21117E-02-1.75996E-01-3.27389E-13 2.53035E-13
 -1      3241 2.48794E+01-6.88978E-01-8.67782E-03 1.92580E+00-7.58751E-14 3.26811E-13
 -1      3242 2.48426E+01-1.42423E+00-2.28030E-02 1.60313E+00-1.17715E-13 3.51440E-13
 -1      3243 2.50127E+01-2.04832E+00-1.56029E-02 1.04195E+00-8.58723E-14 1.97344E-13
 -1      3244 2.52891E+01 1.83698E+00-3.98977E-02 2.24720E+00 6.99163E-14 1.40101E-13
 -1      3245 2.54728E+01 5.73623E-01-6.55683E-02 2.33897E+00-3.00454E-15 1.84817E-13
 -1      3246 2.48224E+01 3.90476E+00-8.97051E-02 1.09342E+00 2.41071E-13 2.57017E-14
 -1      3247 2.49903E+01 3.10468E+00-1.24027E-01 1.75961E+00 1.55459E-13 1.47495E-14
 -1      3248 2.49867E+01 4.02669E+00-1.13728E-01-8.22263E-01 1.29445E-13 1.27816E-13
 -1      3249 2.49243E+01 4.32170E+00-1.04927E-01 2.46385E-02 2.54685E-13 9.05526E-16
 -1      3250 2.49817E+01-3.28420E-01-5.20203E-02-1.99145E+00 1.36037E-14 3.26194E-13
 -1      3251 2.48811E+01 7.62355E-01-6.24058E-03-2.09612E+00-7.40727E-14 4.22438E-13
 -1      3252 2.45429E+01-1.92193E+00-2.28130E-03-9.29257E-01 4.02959E-14 3.94912E-13
 -1      3253 2.46847E+01-1.40023E+00-9.58581E-03-1.38981E+00 3.26943E-14 3.14118E-13
 -1      3254 2.36310E+01-2.10924E+00 2.80371E-02 1.69496E-01 1.32961E-13 1.91253E-13
 -1      3255 2.39093E+01-2.13296E+00-2.25968E-02-2.83504E-01 9.53304E-14 2.77503E-13
 -1      3256 2.44912E+01-2.46737E+00-3.08644E-02-2.40428E-01 1.02167E-13 2.93966E-13
 -1      3257 2.26180E+01-1.71026E+00 2.22529E-02 9.70780E-01 9.45134E-14 1.41377E-13
 -1      3258 2.29682E+01-1.97051E+00-1.37327E-02 6.38977E-01 2.24167E-13 1.73456E-13
 -1      3259 2.32555E+01-2.45554E+00-3.56998E-02 8.06412E-01 2.54852E-13 3.09078E-13
 -1      3260 2.17934E+01-1.12173E+00 1.78109E-02 1.41102E+00-4.51702E-14 1.91920E-13
 -1      3261 2.21056E+01-1.43315E+00-7.12958E-03 1.21094E+00-2.47161E-14 5.22373E-14
 -1      3262 2.21056E+01-1.83162E+00-3.02196E-02 1.44620E+00 8.25100E-14 1.93829E-13
 -1      3263 2.11877E+01-5.71053E-01 1.15662E-02 1.59312E+00 2.93257E-13-9.61414E-14
 -1      3264 2.14342E+01-8.42267E-01-2.85977E-03 1.50462E+00 1.62614E-13 2.88705E-14
 -1      3265 2.13126E+01-1.12173E+00-1.94323E-02 1.73166E+00 1.55694E-13-9.47679E-15
 -1      3266 2.07759E+01-1.29700E-01 7.22834E-03 1.59976E+00 3.21867E-13-8.33827E-14
 -1      3267 2.09616E+01-3.40303E-01-1.04760E-04 1.59279E+00 3.25131E-13-3.87156E-14
 -1      3268 2.07820E+01-5.04153E-01-1.31825E-02 1.78155E+00 2.94269E-13 1.42161E-14
 -1      3269 2.05079E+01 2.06976E-01 5.58023E-03 1.49014E+00 7.55368E-14-1.80119E-14
 -1      3270 2.06419E+01 4.73642E-02 1.06755E-03 1.54244E+00 2.51937E-13-5.99270E-14
 -1      3271 2.04610E+01-2.52152E-02-7.83142E-03 1.69740E+00 1.84385E-13 5.81430E-14
 -1      3272 2.03109E+01 4.31342E-01 4.13688E-03 1.38974E+00-2.27530E-13 8.24932E-14
 -1      3273 2.04191E+01 3.10058E-01 1.37340E-03 1.44610E+00-7.54844E-14 3.03449E-15
 -1      3274 2.02617E+01 2.99020E-01-4.54283E-03 1.57467E+00-2.25468E-14 8.47527E-14
 -1      3275 2.01258E+01 5.37861E-01-4.09590E-03 1.44840E+00-1.43395E-13-4.21896E-14
 -1      3276 2.00497E+01 2.16038E+00-4.29876E-03 2.93225E-01 1.80014E-13-2.60931E-13
 -1      3277 2.00367E+01 2.19918E+00-3.32883E-03 1.71240E-01 1.52628E-13-2.76962E-13
 -1      3278 2.67468E+01-1.92688E+00-2.54837E-02 1.26787E+00 1.22968E-13 4.54775E-14
 -1      3279 2.61687E+01-1.74705E-01-6.83328E-02 2.14238E+00 9.83102E-14 1.69427E-13
 -1      3280 1.85574E+01 1.46360E+00-4.73959E-03 2.16445E-02 2.12254E-13-2.96159E-13
 -1      3281 1.86004E+01 1.44178E+00-1.76595E-04 3.17980E-01 1.98595E-13-1.01254E-14
 -1      3282 1.94196E+01 9.85960E-01 4.86858E-03-1.48688E+00 6.20160E-14 6.03761E-14
 -1      3283 1.91812E+01 1.10000E+00-9.23621E-03-1.35451E+00 1.50563E-14 2.12037E-13
 -1      3284 1.86538E+01 1.42659E+00 1.03906E-03-6.04885E-01 1.45220E-13 2.34663E-13
 -1      3285 1.85754E+01 1.45832E+00-5.61700E-03-3.21124E-01 1.98680E-13-2.10150E-13
 -1      3286 1.83133E+01 1.39569E+00 9.00709E-03-1.51745E-01 2.38256E-13-2.98553E-13
 -1      3287 2.01245E+01 2.94931E-01-1.97943E-03 4.54588E-02 1.10831E-13-1.03298E-13
 -1      3288 2.01700E+01 3.95479E-01 4.50917E-03 1.36420E-01 1.47627E-13-1.01094E-13
 -1      3289 2.43450E+01-4.75533E+00 1.61856E-02 3.00383E+00-1.39534E-13-4.16056E-13
 -1      3290 2.70240E+01-2.11049E+00-1.22339E-01-9.02900E-01-2.16622E-13-1.37008E-13
 -1      3291 2.65815E+01-3.40594E+00 3.74481E-02 3.84695E-01-1.19613E-13-2.27429E-13
 -1      3292 1.78653E+01-3.49834E+00-9.95611E-02 4.97220E+00 1.40790E-13 1.87052E-13
 -1      3293 1.49593E+01-2.05892E+00 1.25200E-01 4.81587E+00 7.47527E-14 1.22680E-14
 -1      3294 8.05608E+00-1.13437E+00 1.77804E-01 3.06395E+00-2.85189E-14 7.25808E-14
 -1      3295 8.51230E+00-4.64370E-01 1.35076E-01 1.68392E+00-9.39769E-14 1.92457E-13
 -1      3296 2.00118E+01 1.04711E-02-1.19752E-05-1.79441E-01 3.11706E-14-1.15663E-13
 -1      3297 2.00213E+01 3.43088E-02 1.54839E-03-1.66242E-01 6.05458E-14-9.28297E-14
 -1      3298 2.00763E+01 8.89170E-03-9.96357E-04-1.75771E-01 4.47223E-14-1.61148E-13
 -1      3299 1.89652E+01 1.25287E+00 5.80880E-03-1.14037E+00 4.63982E-14-3.68295E-14
 -1      3300 1.87834E+01 1.33154E+00-9.25289E-03-9.10393E-01 4.91689E-14 2.29351E-14
 -1      3301 1.84919E+01 1.30394E+00 6.47039E-03-8.26921E-01 1.36016E-13 1.29054E-14
 -1      3302 1.88969E+01 1.07681E+00-1.03326E-03-1.35933E+00 3.44657E-15 1.74731E-13
 -1      3303 2.00857E+01 2.25037E+00-6.07503E-03-1.11937E+00-1.10778E-13-3.96777E-13
 -1      3304 2.01634E+01 2.06731E+00-8.25825E-03-1.20183E+00-1.43805E-13-3.89199E-13
 -1      3305 2.02346E+01 1.76583E+00 5.80646E-03-1.04031E+00-1.42494E-13-3.68419E-13
 -1      3306 2.01684E+01 1.97999E+00 7.99778E-03-9.16970E-01-9.81349E-14-3.73988E-13
 -1      3307 1.99904E+01-2.95690E-02 5.72197E-04-1.85328E-01 9.91650E-14-7.35738E-14
 -1      3308 1.99844E+01-3.13705E-02 1.05496E-05-1.88478E-01 1.21031E-13-4.77136E-14
 -1      3309 2.00291E+01-3.03185E-02-4.69496E-04-1.85184E-01 5.74984E-14-4.74362E-14
 -1      3310 2.00739E+01 1.52997E-01-1.09191E-03-7.64778E-02 7.23959E-14-1.07264E-13
 -1      3311 2.01060E+01 2.17645E-01 3.70149E-03-2.24450E-02 8.79829E-14-8.77727E-14
 -1      3312 2.01911E+01 3.18184E-01-1.45438E-03 3.69420E-02 9.02758E-14-1.37704E-13
 -1      3313 2.02940E+01 1.15477E+00 5.74348E-03-6.68739E-01-1.22142E-13-3.06036E-13
 -1      3314 2.02572E+01 9.09659E-01-4.79426E-03-4.82323E-01-1.04208E-13-2.93574E-13
 -1      3315 1.99909E+01-3.03013E-02 4.37791E-04-1.90760E-01 1.06525E-13-8.57156E-14
 -1      3316 1.99884E+01-2.61617E-02 3.59785E-04-1.92260E-01 9.75264E-14-8.86447E-14
 -1      3317 2.00543E+01-2.18948E-02-7.86407E-04-1.87855E-01 6.35130E-14-1.24978E-13
 -1      3318 2.00390E+01-3.32003E-02-6.08840E-04-1.88643E-01 1.00490E-13-8.00347E-14
 -1      3319 2.00366E+01 6.40012E-02-4.32221E-04-1.45591E-01 6.55456E-14-9.66351E-14
 -1      3320 2.00558E+01 1.04399E-01 2.48322E-03-1.16360E-01 5.87442E-14-1.15884E-13
 -1      3321 2.01064E+01 6.70201E-02-1.22276E-03-1.43027E-01 5.91188E-14-1.68515E-13
 -1      3322 2.75637E+01 1.07410E+00-1.64859E-01 2.32927E+00-2.19269E-14-3.90944E-13
 -1      3323 2.02716E+01 7.13953E-01 4.61960E-03-3.47582E-01-8.53567E-14-2.72658E-13
 -1      3324 2.02277E+01 5.51430E-01-3.64420E-03-2.16966E-01-7.93919E-14-2.44079E-13
 -1      3325 2.02744E+01 5.80856E-01-2.94122E-04-1.90352E-01-6.15967E-14-2.42807E-13
 -1      3326 2.49846E+01 3.09138E+00-5.20963E-02-1.63782E+00-2.02130E-14 2.21876E-13
 -1      3327 2.06542E+01-4.01479E+00-2.49890E-02 4.36450E+00 5.85504E-14-3.74294E-13
 -1      3328 1.85858E+01-3.31231E+00 1.30238E-01 5.01575E+00 7.80591E-14-5.53620E-13
 -1      3329 1.30394E+01-1.57723E+00 8.82631E-02-4.55528E+00 3.54432E-13-3.27099E-14
 -1      3330 1.53354E+01-2.76035E+00 4.51219E-02-5.42336E+00 4.02837E-13 2.17021E-13
 -1      3331 1.46797E+01-2.86962E+00 9.39558E-02-5.52865E+00-2.29997E-13-3.65985E-13
 -1      3332 1.73666E+01-4.02314E+00 6.69106E-02-5.83504E+00-1.88155E-13-3.46577E-13
 -1      3333 1.94013E+01-3.99200E+00 7.39939E-02-4.93480E+00-1.51303E-13-3.06449E-13
 -1      3334 8.08332E+00-1.54523E-01 2.71235E-02 6.86523E-01-1.90872E-14-4.15640E-13
 -1      3335 7.92468E+00-1.66987E-01 2.12223E-01-1.23051E+00-1.00232E-13-5.02237E-13
 -1      3336 1.04179E+01-1.00201E+00 1.36648E-01 3.65766E+00-1.43753E-13-1.77955E-13
 -1      3337 2.39736E+01-4.63673E+00 4.22769E-02-3.02039E+00 2.43229E-13-4.00515E-13
 -1      3338 2.60685E+01-4.36714E+00-3.00099E-02-1.37277E+00 1.33223E-13-3.80473E-13
 -1      3339 1.58405E+01-2.69981E+00-1.67629E-02 5.20281E+00-5.78010E-14-6.01949E-13
 -1      3340 1.33070E+01-1.41682E+00 1.46461E-01 4.53530E+00-1.57069E-13-4.82253E-13
 -1      3341 1.75269E+01-2.48067E+00 5.57174E-02 4.57460E+00-5.07164E-14-4.33615E-13
 -1      3342 2.52295E+01 1.95297E+00-7.72011E-02-2.07189E+00-1.62540E-13 2.61763E-13
 -1      3343 2.51460E+01-4.41755E+00-6.39393E-02 1.96761E+00-5.22221E-14-4.04246E-13
 -1      3344 2.31160E+01-4.36394E+00 4.07577E-02 3.24401E+00-2.23710E-14-2.85357E-13
 -1      3345 2.53942E+01-3.61623E+00 4.40874E-03 8.18861E-01-2.68206E-14-2.53748E-13
 -1      3346 9.77393E+00-1.78446E-01 5.90043E-02 1.74278E+00-7.36390E-14 2.56434E-13
 -1      3347 9.07626E+00 7.34723E-02 1.79798E-01 3.43045E-01-5.26046E-14 2.79540E-13
 -1      3348 1.02436E+01 1.61489E-01 1.08806E-01-6.91285E-01 1.82009E-13 5.87586E-14
 -1      3349 2.75408E+01-5.11005E-01-5.11241E-02 1.94183E+00 8.11642E-14-4.26395E-13
 -1      3350 2.71482E+01-2.07803E+00-6.64350E-02 1.26869E+00 9.66137E-14-2.96055E-13
 -1      3351 1.13871E+01-9.29295E-01 4.72792E-02 3.82536E+00-2.12420E-13-3.56021E-13
 -1      3352 1.09000E+01-4.44921E-01 1.43011E-01 3.05835E+00-2.32713E-13-9.83935E-14
 -1      3353 1.10124E+01 2.05839E-03 9.09477E-02 1.90483E+00-1.68501E-13 7.61197E-14
 -1      3354 1.36521E+01-9.73674E-01 9.80200E-02 3.93114E+00-7.86454E-14-4.82239E-13
 -1      3355 2.00297E+01 2.21797E+00-3.68230E-03 6.60857E-02 1.39141E-13-2.83742E-13
 -1      3356 2.00293E+01 2.21886E+00-3.65698E-03-5.82301E-02 1.04053E-13-2.96450E-13
 -1      3357 2.01439E+01 1.92252E+00 4.96710E-03 1.01743E-01 1.25925E-13-2.65940E-13
 -1      3358 2.02533E+01 1.46086E+00 5.86375E-03 5.87096E-01 2.41646E-13-1.93809E-13
 -1      3359 2.01613E+01 1.80093E+00-6.97576E-03 6.87090E-01 2.75951E-13-1.98048E-13
 -1      3360 2.01270E+01 1.93044E+00-2.46623E-03 5.91255E-01 2.53980E-13-2.32119E-13
 -1      3361 2.62447E+01-1.26806E+00-4.48581E-02-1.43271E+00-1.28706E-13 2.18117E-13
 -1      3362 2.00945E+01 2.02438E+00-5.42941E-03 5.05811E-01 2.29396E-13-2.35678E-13
 -1      3363 2.00698E+01 2.10474E+00-3.06740E-03 3.92226E-01 1.97808E-13-2.39904E-13
 -1      3364 2.01659E+01 1.84755E+00 5.28406E-03 2.91885E-01 1.71981E-13-2.33200E-13
 -1      3365 2.02058E+01 1.69567E+00 5.77866E-03 4.60904E-01 2.14414E-13-2.10568E-13
 -1      3366 2.01233E+01 1.93956E+00-2.58301E-03-5.84565E-01-1.37454E-14-3.24998E-13
 -1      3367 2.01601E+01 1.81104E+00-6.44294E-03-6.84242E-01-5.12775E-14-3.29423E-13
 -1      3368 2.68981E+01-3.10948E+00-4.52288E-02 6.52127E-02 1.21598E-13-2.84849E-13
 -1      3369 2.30586E+01-4.49559E+00 1.39275E-02-3.26103E+00-1.28467E-13-3.82061E-13
 -1      3370 2.44683E+01-4.58893E+00 2.83650E-02-2.61243E+00-3.38951E-13-5.87003E-13
 -1      3371 2.50803E+01-4.12834E+00-6.51529E-02-1.39591E+00-2.82276E-13-3.27651E-13
 -1      3372 2.17785E+01-2.99286E+00-5.83497E-02 2.68327E+00 3.36172E-14 7.09918E-14
 -1      3373 2.60590E+01-3.41158E+00 7.02824E-02 2.56567E-01 6.01637E-14 1.27710E-13
 -1      3374 2.54059E+01 3.67211E+00-2.16291E-01-1.36338E+00-7.43364E-14-8.13724E-14
 -1      3375 2.65682E+01 4.76848E+00-1.59826E-01-7.79157E-01-3.53884E-15-1.56042E-13
 -1      3376 2.67715E+01-2.92117E+00-8.22039E-02-9.17943E-01 7.66540E-14 6.32688E-14
 -1      3377 2.55236E+01-1.05615E+00-3.61265E-02-1.63607E+00-2.07889E-14 3.94264E-13
 -1      3378 2.29745E+01-3.79188E+00-2.62438E-02 2.57100E+00 5.82086E-14-1.77707E-13
 -1      3379 2.21165E+01-4.02007E+00 4.20262E-02 3.59957E+00 1.30052E-14-2.47301E-13
 -1      3380 2.08533E+01-3.30763E+00 8.37775E-03 3.70243E+00 9.59094E-14-2.48142E-13
 -1      3381 1.35778E+01-2.18145E+00 1.30712E-01-5.25999E+00-2.08757E-13-3.18953E-13
 -1      3382 1.57345E+01-2.47989E+00 7.31263E-02-5.04079E+00-3.19016E-13-2.31370E-13
 -1      3383 1.23134E+01-1.50643E+00 4.96580E-02-4.55323E+00-2.03955E-13-1.76206E-13
 -1      3384 2.00911E+01 2.03326E+00-5.11088E-03-4.99511E-01 1.51331E-14-3.56089E-13
 -1      3385 2.01995E+01 1.70184E+00 3.96429E-03-4.53732E-01-6.70336E-15-3.11164E-13
 -1      3386 2.00672E+01 2.11077E+00-3.01412E-03-3.84143E-01 3.71298E-14-3.40040E-13
 -1      3387 2.58686E+01-2.56623E+00-1.50015E-02 5.87744E-01-2.67043E-14-1.27884E-14
 -1      3388 1.90317E+01 1.13317E+00-9.59323E-03 1.13076E+00 1.38847E-13-2.22758E-13
 -1      3389 1.92458E+01 1.02548E+00 5.89620E-03 1.29773E+00 1.98108E-13-2.39804E-13
 -1      3390 1.75579E+01-2.82890E+00 9.83127E-02-4.83843E+00 3.43663E-13-1.05603E-13
 -1      3391 1.84107E+01 1.31931E+00 7.37791E-03 5.39953E-01 1.89576E-13-4.63545E-14
 -1      3392 1.86969E+01 1.35482E+00-8.75888E-03 6.40550E-01 2.90245E-13 7.11805E-14
 -1      3393 1.88479E+01 1.28279E+00 4.69073E-03 8.91385E-01 2.44560E-13-5.91999E-14
 -1      3394 1.02974E+01 1.68958E-01 1.24138E-01 1.29563E+00 1.43635E-14-3.24907E-13
 -1      3395 1.97457E+01 7.38534E-01 9.13992E-04-1.64779E+00 1.18639E-13 1.04577E-13
 -1      3396 1.95646E+01 8.67845E-01-4.75897E-03-1.57821E+00 1.60260E-14 2.02997E-13
 -1      3397 1.93412E+01 8.30570E-01-1.14513E-03-1.64683E+00-5.45898E-14 1.58230E-13
 -1      3398 1.97272E+01 6.24823E-01 3.05314E-03-1.76826E+00-7.57516E-15 3.57214E-13
 -1      3399 9.57292E+00-3.04411E-01 1.46152E-01-2.32033E+00-1.06304E-13-3.58047E-13
 -1      3400 2.02854E+01 9.46933E-01 5.35182E-04-4.26579E-01-8.82845E-14-2.88511E-13
 -1      3401 1.60531E+01-1.33872E+00 6.71815E-02 3.93065E+00 2.03345E-13 7.47943E-14
 -1      3402 1.40238E+01-1.22989E+00 8.99281E-02 4.24908E+00 9.52086E-14 1.22499E-13
 -1      3403 1.33777E+01-3.61365E-01 2.66123E-02 3.23012E+00 2.17860E-13-1.82146E-14
 -1      3404 2.01907E+01-3.25052E+00 7.84240E-02 3.90263E+00 1.39902E-13 1.20701E-13
 -1      3405 2.01452E+01 1.64207E-01-1.40474E-03-7.73180E-02 7.60009E-14-1.58308E-13
 -1      3406 2.02387E+01 1.48302E+00-5.29759E-03-8.79706E-01-1.27770E-13-3.46553E-13
 -1      3407 2.02339E+01 1.50308E+00-2.77223E-03-7.71707E-01-1.10377E-13-3.37935E-13
 -1      3408 1.94421E+01 8.90192E-01-6.77284E-03 1.40263E+00 1.97300E-13-1.73387E-13
 -1      3409 1.96346E+01 7.95633E-01 4.20659E-03 1.46213E+00 1.52663E-13-1.13747E-13
 -1      3410 1.92203E+01 8.37823E-01 8.70485E-04 1.46455E+00 1.85664E-13-1.76233E-13
 -1      3411 2.01757E+01 4.86972E-01-2.79241E-03 2.22484E-01 1.59916E-13-9.41666E-14
 -1      3412 2.02306E+01 6.35576E-01 3.78545E-03 3.62607E-01 1.73372E-13-1.18154E-13
 -1      3413 2.02611E+01 7.94651E-01 1.48884E-03 4.23811E-01 1.84269E-13-1.51975E-13
 -1      3414 2.02308E+01 5.23629E-01-1.55516E-03 2.01508E-01 1.50419E-13-1.30365E-13
 -1      3415 1.23352E+01-8.49751E-01 1.24868E-01-3.85271E+00 1.30160E-13-5.32116E-13
 -1      3416 1.42817E+01-1.10186E+00 7.85570E-02-4.01709E+00 1.79318E-13-1.25469E-13
 -1      3417 1.17490E+01-2.83190E-01 4.15008E-02-2.77407E+00-1.98591E-14-5.18710E-13
 -1      3418 2.27934E+01-4.30090E+00 4.41209E-02-3.41085E+00 2.83334E-13-3.99937E-13
 -1      3419 2.58187E+01-2.54755E+00-1.67592E-02-7.02597E-01-8.00219E-14 2.93307E-13
 -1      3420 2.03034E+01 4.41542E-01 2.50638E-03-7.28214E-02-3.69261E-14-2.13154E-13
 -1      3421 2.02788E+01 3.30168E-01-2.09627E-03-5.36954E-03-4.22147E-14-1.96156E-13
 -1      3422 2.67057E+01 5.14704E+00-1.49691E-01 3.44888E-01 1.23651E-13-1.37501E-13
 -1      3423 1.00446E+01 1.35503E-01 2.01626E-05-1.59855E+00-1.28630E-13-3.55535E-13
 -1      3424 1.09530E+01-3.73637E-01 1.42239E-01-3.29001E+00-2.44423E-13-1.60483E-13
 -1      3425 2.02707E+01 2.41853E-01 2.12548E-03 4.04887E-02-6.13704E-14-1.80140E-13
 -1      3426 2.02465E+01 1.68086E-01-1.22965E-03 8.22943E-02-8.08893E-14-1.72609E-13
 -1      3427 2.03197E+01 3.33342E-01-5.31687E-05 3.02362E-03-3.55101E-14-2.06871E-13
 -1      3428 2.02316E+01 1.11086E-01 1.56322E-03 1.09546E-01-9.20021E-14-1.37130E-13
 -1      3429 2.02106E+01 6.46673E-02-5.80376E-04 1.32995E-01-3.65537E-14-1.23502E-13
 -1      3430 2.02884E+01 1.67638E-01-4.26067E-04 7.93673E-02-5.25555E-14-1.39589E-13
 -1      3431 2.01927E+01 3.01891E-02 1.04670E-03 1.47125E-01-2.33963E-14-1.36171E-13
 -1      3432 2.01755E+01 3.57044E-03-1.21925E-04 1.58394E-01-4.30845E-14-1.89829E-13
 -1      3433 2.02504E+01 6.21619E-02-5.76581E-04 1.23853E-01-4.95772E-14-1.02039E-13
 -1      3434 2.01570E+01-1.46470E-02 6.11968E-04 1.64118E-01-3.71612E-14-2.07967E-13
 -1      3435 2.01434E+01-2.68753E-02 1.91777E-04 1.68120E-01-2.79651E-14-1.69979E-13
 -1      3436 2.02113E+01 7.41233E-04-6.00530E-04 1.46447E-01-3.60088E-14-1.34204E-13
 -1      3437 2.01253E+01-3.32375E-02 2.59925E-04 1.69234E-01-4.28182E-14-1.46993E-13
 -1      3438 2.01149E+01-3.48756E-02 4.02810E-04 1.69762E-01-5.83692E-14-1.18281E-13
 -1      3439 2.01737E+01-2.84156E-02-5.51892E-04 1.55603E-01-2.73898E-14-1.20578E-13
 -1      3440 2.00978E+01-3.24306E-02-2.52955E-05 1.69240E-01-7.72379E-14-9.96892E-14
 -1      3441 2.00900E+01-2.60762E-02 5.45303E-04 1.69199E-01-8.74460E-14-8.48452E-14
 -1      3442 2.01387E+01-3.37192E-02-4.62427E-04 1.58086E-01-4.67308E-14-9.27300E-14
 -1      3443 2.00735E+01-1.68524E-02-2.65403E-04 1.69347E-01-1.38749E-13-8.70848E-14
 -1      3444 2.00677E+01-4.18428E-03 6.46334E-04 1.70990E-01-1.24173E-13-7.90061E-14
 -1      3445 2.01063E+01-2.09733E-02-3.44392E-04 1.59189E-01-1.24092E-13-8.93732E-14
 -1      3446 2.00515E+01 1.05588E-02-4.81042E-04 1.73635E-01-1.12701E-13-1.18438E-13
 -1      3447 2.00469E+01 2.85466E-02 7.24966E-04 1.78769E-01-6.71728E-14-1.35456E-13
 -1      3448 2.00756E+01 6.01404E-03-2.05250E-04 1.63055E-01-1.30306E-13-1.04366E-13
 -1      3449 2.00302E+01 4.81066E-02-6.90601E-04 1.85414E-01-3.33622E-14-1.39029E-13
 -1      3450 2.00263E+01 7.09094E-02 7.93068E-04 1.95552E-01-7.95565E-14-1.20572E-13
 -1      3451 2.00453E+01 4.49469E-02-4.50662E-05 1.73019E-01-6.05815E-14-1.85256E-13
 -1      3452 2.00079E+01 9.49702E-02-9.10330E-04 2.07492E-01-1.03053E-13-1.09455E-13
 -1      3453 2.00038E+01 1.22404E-01 8.58548E-04 2.23964E-01-8.17859E-14-1.25694E-13
 -1      3454 2.00135E+01 9.46086E-02 1.40420E-04 1.91859E-01-8.05233E-14-1.68958E-13
 -1      3455 1.99825E+01 1.50872E-01-1.15316E-03 2.42372E-01-4.81813E-14-8.65950E-14
 -1      3456 1.99775E+01 1.82894E-01 9.24868E-04 2.66398E-01-4.73709E-14-5.08776E-14
 -1      3457 1.99776E+01 1.54484E-01 3.56196E-04 2.21994E-01-2.82441E-14-9.49471E-14
 -1      3458 1.99516E+01 2.15704E-01-1.42783E-03 2.92384E-01-7.20815E-14-4.41923E-14
 -1      3459 1.99447E+01 2.52201E-01 9.93861E-04 3.25094E-01-6.61931E-14 8.72481E-16
 -1      3460 1.99349E+01 2.24373E-01 6.10866E-04 2.65632E-01-2.72441E-14-4.61241E-14
 -1      3461 1.99124E+01 2.89092E-01-1.74051E-03 3.59723E-01-7.17908E-14 4.69471E-14
 -1      3462 1.99026E+01 3.29622E-01 1.06785E-03 4.02148E-01-9.31373E-14 2.38321E-14
 -1      3463 1.98820E+01 3.03926E-01 9.12455E-04 3.24832E-01-3.63086E-14 4.36725E-14
 -1      3464 1.98618E+01 3.69843E-01-2.09374E-03 4.46455E-01-1.19128E-13 4.60644E-14
 -1      3465 1.98481E+01 4.13291E-01 1.15598E-03 4.99491E-01-7.96269E-14 9.08527E-14
 -1      3466 1.98150E+01 3.92106E-01 1.26462E-03 4.01544E-01-7.02257E-14 9.67175E-14
 -1      3467 1.97967E+01 4.55178E-01-2.48539E-03 5.54509E-01-3.68859E-14 5.94376E-14
 -1      3468 1.97781E+01 4.99264E-01 1.28394E-03 6.18877E-01 1.45538E-14 7.65695E-14
 -1      3469 1.97297E+01 4.86472E-01 1.66420E-03 4.97661E-01-6.40403E-14 4.61202E-15
 -1      3470 1.97139E+01 5.39655E-01-2.90813E-03 6.85732E-01 1.40869E-14 7.25797E-14
 -1      3471 1.96901E+01 5.80247E-01 1.51047E-03 7.61969E-01 6.27846E-14 1.44144E-14
 -1      3472 1.96217E+01 5.82198E-01 2.09221E-03 6.15171E-01 2.62911E-15 7.67652E-14
 -1      3473 1.96115E+01 6.13650E-01-3.34660E-03 8.42108E-01 1.33038E-13-9.56548E-15
 -1      3474 1.95840E+01 6.43817E-01 1.95169E-03 9.30650E-01 1.03574E-13 8.09579E-14
 -1      3475 1.94872E+01 6.70742E-01 2.49917E-03 7.56540E-01 7.03849E-14 5.92010E-14
 -1      3476 1.94905E+01 6.61265E-01-3.76864E-03 1.02631E+00 2.27654E-14 4.43102E-14
 -1      3477 1.94635E+01 6.69988E-01 2.81396E-03 1.12771E+00-4.16572E-14 4.44556E-14
 -1      3478 1.93237E+01 7.38008E-01 2.77873E-03 9.25541E-01 5.84977E-14-4.00281E-14
 -1      3479 1.93574E+01 6.57543E-01-4.09685E-03 1.24273E+00-9.94835E-14 3.06772E-14
 -1      3480 1.93413E+01 6.28055E-01 4.45050E-03 1.35797E+00-3.90303E-14-2.32369E-15
 -1      3481 1.91325E+01 7.61887E-01 2.72224E-03 1.12878E+00-9.52537E-14-7.97643E-14
 -1      3482 1.92300E+01 5.64929E-01-4.08004E-03 1.49906E+00-6.60655E-15-8.82904E-14
 -1      3483 1.92454E+01 4.72272E-01 7.28164E-03 1.62961E+00 6.94154E-14-9.87173E-14
 -1      3484 1.89218E+01 7.08944E-01 1.94792E-03 1.37822E+00-5.43823E-14-9.98046E-14
 -1      3485 1.91476E+01 3.28628E-01-3.05912E-03 1.80647E+00 1.47325E-13-1.58970E-13
 -1      3486 1.92318E+01 1.38793E-01 1.21205E-02 1.95216E+00 9.03268E-14-1.78932E-13
 -1      3487 1.87142E+01 5.28457E-01-4.30534E-04 1.69420E+00 6.03947E-14-1.98258E-13
 -1      3488 1.91871E+01-1.25199E-01 6.93786E-04 2.17687E+00 8.25914E-14-1.17741E-13
 -1      3489 1.93935E+01-4.56919E-01 1.69373E-02 2.33005E+00 1.02489E-13-6.43187E-14
 -1      3490 1.85594E+01 1.49650E-01-5.38550E-03 2.10565E+00 1.31000E-13-1.13819E-13
 -1      3491 1.94975E+01-8.80500E-01 1.48597E-02 2.59593E+00 8.50068E-14 3.18517E-14
 -1      3492 2.00032E+01-1.38574E+00 3.44109E-02 2.69301E+00 1.14235E-13 1.08837E-14
 -1      3493 1.85930E+01-5.28875E-01-5.31568E-03 2.65223E+00 1.61283E-13 7.58985E-15
 -1      3494 2.16570E+01-3.06965E+00 2.54793E-02-3.09453E+00 2.06921E-13-3.30353E-13
 -1      3495 2.08053E+01-2.35014E+00 3.90734E-02-3.17659E+00 1.15538E-13-2.16469E-13
 -1      3496 2.03415E+01-1.69475E+00 2.58924E-02-2.95301E+00 3.20447E-14-1.93656E-13
 -1      3497 1.98730E+01-1.14031E+00 1.52991E-02-2.86682E+00 6.24479E-15-2.23897E-13
 -1      3498 1.94659E+01-1.97516E+00-1.57944E-02-3.55450E+00 1.44905E-13-2.54668E-13
 -1      3499 1.97488E+01-6.75462E-01 1.92230E-02-2.61254E+00 6.71331E-14-8.03299E-14
 -1      3500 1.95115E+01-2.99678E-01 2.64793E-03-2.47971E+00 1.18678E-14 2.64485E-14
 -1      3501 1.89779E+01-7.93464E-01-1.43885E-02-2.93919E+00 9.76681E-14-7.03864E-15
 -1      3502 1.95440E+01 5.77637E-03 1.01116E-02-2.26436E+00-7.43462E-15-3.61211E-14
 -1      3503 1.94588E+01 2.54554E-01-6.11872E-04-2.12555E+00 2.55318E-14 9.63517E-14
 -1      3504 1.89415E+01-1.18370E-02-4.37804E-03-2.42201E+00-3.20023E-14 2.92718E-13
 -1      3505 2.01648E+01 6.57640E-02-5.74822E-04-1.39416E-01 2.65629E-14-1.67477E-13
 -1      3506 2.01855E+01 1.10877E-01 1.82656E-03-1.13910E-01 5.03295E-14-1.78135E-13
 -1      3507 2.02379E+01 3.23142E-01-2.11660E-03 1.57894E-02 7.96552E-14-1.42546E-13
 -1      3508 2.02685E+01 4.31989E-01 3.26956E-03 9.02979E-02 1.03307E-13-1.49354E-13
 -1      3509 2.00509E+01-1.10103E-02 6.80016E-04-1.76944E-01 2.31166E-14-9.86821E-14
 -1      3510 2.00525E+01-2.13820E-02-2.44799E-04-1.76479E-01 4.24496E-14-7.75331E-14
 -1      3511 2.00186E+01 9.42130E-02 9.63641E-04-2.22697E-01-4.37455E-14 4.36354E-15
 -1      3512 2.00161E+01 7.14150E-02-8.22855E-04-2.07852E-01-3.04688E-14-7.66796E-14
 -1      3513 2.00077E+01 1.43712E-01 1.07324E-03-2.62531E-01 6.58109E-14 2.92340E-14
 -1      3514 2.00046E+01 1.17501E-01-1.01488E-03-2.40324E-01 3.93295E-14 4.95443E-14
 -1      3515 1.99990E+01 1.22113E-01 1.28957E-04-2.26678E-01-5.68382E-14-5.81518E-14
 -1      3516 1.99950E+01 1.99214E-01 1.19748E-03-3.18489E-01 2.66244E-14 8.90239E-14
 -1      3517 1.99914E+01 1.70029E-01-1.21915E-03-2.87882E-01 3.14169E-14 8.05770E-14
 -1      3518 1.99728E+01 1.80108E-01 2.82718E-04-2.69582E-01 3.58100E-14 1.02467E-13
 -1      3519 1.99793E+01 2.59235E-01 1.33868E-03-3.92508E-01 4.82600E-14 2.72322E-14
 -1      3520 1.99753E+01 2.27938E-01-1.43347E-03-3.52634E-01 4.45614E-14 5.74186E-14
 -1      3521 1.99415E+01 2.44645E-01 4.43793E-04-3.28670E-01 4.44693E-14 1.05392E-13
 -1      3522 1.99601E+01 3.20924E-01 1.50348E-03-4.86163E-01 8.34646E-14 8.62681E-14
 -1      3523 1.99556E+01 2.89159E-01-1.64567E-03-4.36425E-01 1.19233E-13 6.55525E-14
 -1      3524 1.99033E+01 3.13757E-01 6.01758E-04-4.05965E-01 6.72929E-14 9.46689E-14
 -1      3525 1.99376E+01 3.79195E-01 1.70705E-03-6.00484E-01-9.01288E-15 1.23845E-13
 -1      3526 1.99319E+01 3.49853E-01-1.83037E-03-5.40698E-01 5.41927E-14 9.31147E-14
 -1      3527 1.98570E+01 3.83808E-01 7.31428E-04-5.03287E-01 6.43234E-14 5.87555E-14
 -1      3528 1.99138E+01 4.25563E-01 1.98159E-03-7.35695E-01-1.83530E-14 8.39932E-14
 -1      3529 1.99053E+01 4.03409E-01-1.94268E-03-6.66291E-01-3.56492E-14 7.69915E-14
 -1      3530 1.98020E+01 4.48502E-01 7.82720E-04-6.22209E-01 1.83335E-14 2.33528E-14
 -1      3531 1.98938E+01 4.46673E-01 2.38555E-03-8.90900E-01 2.62310E-14 7.73921E-14
 -1      3532 1.98791E+01 4.39122E-01-1.90692E-03-8.13187E-01-7.57058E-15 9.77879E-14
 -1      3533 1.97402E+01 4.97590E-01 6.64644E-04-7.64040E-01-2.80561E-14-1.58327E-14
 -1      3534 1.98886E+01 4.22537E-01 3.00610E-03-1.06364E+00 7.17120E-15 6.82541E-14
 -1      3535 1.98612E+01 4.40576E-01-1.59534E-03-9.80179E-01 2.20088E-15 9.99354E-14
 -1      3536 1.96766E+01 5.15243E-01 2.19979E-04-9.29858E-01-1.46893E-14-6.83024E-15
 -1      3537 1.99181E+01 3.24772E-01 3.92587E-03-1.24905E+00 5.21745E-14 1.16187E-13
 -1      3538 1.98666E+01 3.83849E-01-7.88153E-04-1.16431E+00 4.68985E-14 1.36533E-13
 -1      3539 1.96228E+01 4.78082E-01-8.15627E-04-1.12055E+00 1.37340E-14-1.03007E-14
 -1      3540 2.00166E+01 1.15719E-01 5.12822E-03-1.43787E+00 9.14272E-15 1.99288E-14
 -1      3541 1.99228E+01 2.36044E-01 8.85566E-04-1.35953E+00 7.17397E-14 9.89121E-14
 -1      3542 1.96009E+01 3.53072E-01-2.88113E-03-1.33642E+00 9.11054E-14-3.68256E-14
 -1      3543 2.02384E+01-2.49155E-01 6.27830E-03-1.61153E+00-6.75298E-14-3.39381E-14
 -1      3544 2.00756E+01-4.42771E-02 4.05053E-03-1.55322E+00-4.99495E-14-1.10090E-14
 -1      3545 1.96501E+01 9.62466E-02-6.63383E-03-1.57507E+00 1.19765E-14-5.61093E-14
 -1      3546 2.06621E+01-8.10721E-01 6.26897E-03-1.73197E+00-3.40735E-13 6.48290E-14
 -1      3547 2.03962E+01-5.01249E-01 9.64464E-03-1.71832E+00-1.98911E-13 3.31353E-14
 -1      3548 1.98357E+01-3.44960E-01-1.29234E-02-1.82499E+00-2.00570E-13-7.88146E-14
 -1      3549 2.13870E+01-1.57533E+00 3.30574E-03-1.72107E+00-1.94888E-13-2.97989E-14
 -1      3550 2.09859E+01-1.16333E+00 1.91369E-02-1.79622E+00-2.56077E-13 6.79600E-15
 -1      3551 2.02595E+01-1.02216E+00-2.29603E-02-2.04932E+00-2.71551E-13-1.06544E-13
 -1      3552 2.25159E+01-2.42987E+00 1.83635E-03-1.43741E+00-3.44464E-13-5.32712E-14
 -1      3553 2.19647E+01-1.99224E+00 3.45993E-02-1.66929E+00-2.47702E-13-2.36682E-14
 -1      3554 2.10579E+01-1.94673E+00-3.86824E-02-2.15394E+00-2.65214E-13-1.53402E-13
 -1      3555 2.52768E+01-3.09038E+00 1.09778E-02-7.96945E-02-1.91826E-13-1.01377E-14
 -1      3556 1.86304E+01-2.43189E+00-2.11145E-02 4.08301E+00-6.02270E-14-3.66051E-13
 -1      3557 1.67591E+01-1.50896E+00 9.92202E-02 4.16495E+00-1.12242E-13-4.57492E-13
 -1      3558 2.07924E+01-8.92114E-01 1.46241E-02 2.03550E+00 2.31169E-13 1.92989E-14
 -1      3559 2.11225E+01-1.27168E+00 6.08293E-03 1.99514E+00 1.22828E-13-2.57472E-14
 -1      3560 2.03564E+01-2.73776E-01 7.51700E-03 1.92259E+00 1.61971E-13 1.27059E-13
 -1      3561 2.05653E+01-5.64202E-01 5.82409E-03 1.95709E+00 1.40005E-13-3.30708E-14
 -1      3562 2.02258E+01-7.38604E-01-1.96810E-02 2.21143E+00 1.41285E-13 8.52434E-14
 -1      3563 2.01394E+01 1.82099E-01 3.58007E-03 1.73604E+00 2.21831E-13-2.18266E-14
 -1      3564 2.02611E+01-3.19821E-02 4.32931E-03 1.80990E+00 2.37682E-13 8.88452E-14
 -1      3565 1.99505E+01-1.02365E-01-1.05259E-02 1.98027E+00 6.39515E-14 3.84165E-14
 -1      3566 1.87526E+01 1.09929E+00 2.66666E-03 1.11864E+00 2.60160E-13-1.43761E-13
 -1      3567 1.76861E+01-2.32593E+00 2.91002E-02-4.40616E+00 2.87707E-13-1.45266E-13
 -1      3568 1.99290E+01-3.26812E+00 1.08166E-02-4.30388E+00 2.28876E-13-3.82867E-13
 -1      3569 2.48951E+01-3.24598E+00-1.44060E-04 5.62344E-01 2.78200E-14 7.55142E-14
 -1      3570 2.02065E+01 1.59470E+00-2.78215E-03-7.12448E-01-8.20600E-14-3.33024E-13
 -1      3571 1.14854E+01 3.05520E-01 1.44804E-02 1.71276E+00 6.44680E-14-1.68754E-13
 -1      3572 1.05680E+01 6.60740E-01 1.59640E-01 8.78745E-02-7.26040E-14-3.58893E-13
 -1      3573 1.79442E+01 1.32531E+00-7.06754E-04-3.36139E-01 1.49383E-13-2.30298E-13
 -1      3574 1.79176E+01 1.32535E+00-2.89103E-03 2.61540E-02 1.62724E-13-3.36209E-13
 -1      3575 2.01327E+01 6.08803E-03-1.09354E-04-1.67659E-01 3.27434E-14-1.54755E-13
 -1      3576 2.01479E+01 3.22826E-02 1.20403E-03-1.55640E-01 2.63588E-14-1.78022E-13
 -1      3577 2.02131E+01 6.49185E-02-7.42792E-04-1.32269E-01 2.57537E-14-1.60296E-13
 -1      3578 2.02882E+01 1.16022E+00-4.56961E-04-4.78382E-01-7.18663E-14-2.83292E-13
 -1      3579 2.02920E+01 9.31337E-01-3.30034E-03-3.40638E-01-6.73849E-14-2.75811E-13
 -1      3580 2.15702E+01-1.68889E+00 2.77242E-02 2.00166E+00 1.11733E-13 5.02658E-14
 -1      3581 2.20913E+01-2.10810E+00 1.59827E-02 1.79638E+00 2.71200E-13 2.74258E-13
 -1      3582 2.08149E+01-1.56963E+00-2.48635E-02 2.37003E+00 2.09137E-13-1.07614E-13
 -1      3583 1.12113E+01 4.10778E-01 1.56688E-02-2.56431E-01 1.40970E-13 1.20931E-13
 -1      3584 1.13980E+01 3.43537E-01 1.08998E-01-1.51097E+00 2.09520E-13-2.26090E-13
 -1      3585 2.25223E+01-2.71538E+00 3.18309E-02 2.01085E+00 2.38012E-13 2.20768E-13
 -1      3586 2.32089E+01-3.07827E+00 1.03660E-02 1.64720E+00 2.31186E-13 1.27325E-13
 -1      3587 1.93324E+01-2.11721E+00 3.67537E-02 3.49239E+00 1.59922E-13 8.67093E-14
 -1      3588 2.00654E+01-2.86224E-02 5.69377E-04-1.77127E-01 5.97044E-14-7.01789E-14
 -1      3589 2.00692E+01-3.32952E-02-1.67445E-06-1.78120E-01 9.84693E-14-3.57832E-14
 -1      3590 2.00882E+01-2.54608E-02-3.90769E-04-1.70048E-01 8.70329E-14-9.73145E-14
 -1      3591 2.00357E+01 2.20151E+00-3.30884E-03-1.63319E-01 8.65410E-14-3.09863E-13
 -1      3592 2.00476E+01 2.16511E+00-4.14791E-03-2.85416E-01 6.03911E-14-3.32076E-13
 -1      3593 2.01622E+01 1.85166E+00 4.48493E-03-2.84262E-01 3.78115E-14-3.15526E-13
 -1      3594 2.02009E+01 1.65909E-01-1.24621E-03-8.26620E-02 8.88333E-14-1.64778E-13
 -1      3595 2.02272E+01 2.37530E-01 2.51043E-03-3.67430E-02 8.75282E-14-1.51806E-13
 -1      3596 2.02856E+01 3.32289E-01-4.10252E-04 6.87854E-03 1.10214E-13-1.48768E-13
 -1      3597 2.02508E+01 1.69004E-01-6.89167E-04-8.11497E-02 6.91900E-14-1.76526E-13
 -1      3598 2.00286E+01 5.14986E-02 8.65744E-04-1.96806E-01-1.18371E-14-5.32229E-14
 -1      3599 2.00271E+01 3.24031E-02-6.38202E-04-1.88149E-01-2.18436E-14-7.31774E-14
 -1      3600 2.00220E+01 7.17099E-02-1.35758E-05-1.97772E-01-2.57552E-14-1.13494E-13
 -1      3601 1.87310E+01-3.22532E+00 5.16047E-02-4.62074E+00-2.29674E-13-3.59213E-13
 -1      3602 2.08978E+01-4.01133E+00 1.83523E-02-4.20575E+00-1.03299E-13-2.80512E-13
 -1      3603 2.00390E+01 1.61567E-02 7.74293E-04-1.82454E-01 5.70999E-15-6.09951E-14
 -1      3604 2.00388E+01 1.11847E-03-4.50832E-04-1.78661E-01 1.78546E-14-1.08752E-13
 -1      3605 2.00651E+01-3.24606E-03-2.71138E-04-1.72267E-01 4.47941E-14-7.30306E-14
 -1      3606 2.00435E+01 2.96295E-02-1.45967E-04-1.80506E-01-3.49040E-14-7.29033E-14
 -1      3607 2.17063E+01-3.58699E+00 3.99675E-02-3.53216E+00 3.00080E-13-3.81615E-13
 -1      3608 1.98040E+01 7.07217E-01-4.80581E-03 1.48073E+00 8.38026E-14-1.10689E-13
 -1      3609 1.99819E+01 6.08456E-01 2.28068E-03 1.48226E+00-1.57370E-13-1.03521E-13
 -1      3610 2.00305E+01 4.91843E-01 2.49221E-03 1.55762E+00-7.70948E-14-5.70059E-14
 -1      3611 1.96391E+01 6.39407E-01-2.49435E-03 1.57797E+00 1.12071E-13 5.22716E-15
 -1      3612 2.03167E+01 7.37012E-01 2.36248E-03-2.42999E-01-5.45641E-14-2.51601E-13
 -1      3613 2.02990E+01 5.73995E-01-2.97026E-03-1.42356E-01-3.15937E-14-2.40774E-13
 -1      3614 2.03196E+01 9.36142E-01 1.37545E-03-2.84811E-01-3.95296E-14-2.42638E-13
 -1      3615 2.42494E+01-3.29653E+00 5.10536E-02 1.14469E+00 1.17083E-13 5.41997E-14
 -1      3616 1.79642E+01-1.64198E+00-9.49101E-05 3.70702E+00 1.50778E-13 7.65169E-14
 -1      3617 2.02786E+01 1.14646E+00-3.69631E-03 4.93474E-01 1.95660E-13-2.00672E-13
 -1      3618 2.02688E+01 1.28784E+00 2.34970E-04 4.56161E-01 2.06937E-13-2.02197E-13
 -1      3619 2.03352E+01 5.79729E-01 3.69548E-04-1.15712E-01-2.10426E-14-2.01065E-13
 -1      3620 2.02817E+01 8.80104E-01-1.08514E-03 4.46771E-01 1.77653E-13-1.70254E-13
 -1      3621 2.02825E+01 1.05911E+00 1.75037E-03 4.84072E-01 1.91318E-13-1.85189E-13
 -1      3622 2.02994E+01 9.16921E-01 2.00300E-03 3.54195E-01 1.60067E-13-1.97423E-13
 -1      3623 2.02687E+01 7.28933E-01-9.72080E-04 3.20525E-01 1.57222E-13-1.76513E-13
 -1      3624 2.23358E+01-3.93910E+00 1.76833E-02-3.12515E+00-2.21184E-13-3.08299E-13
 -1      3625 1.80613E+01 1.25105E+00-1.08015E-02-7.49938E-01 1.22977E-13-2.24755E-14
 -1      3626 1.77099E+01 1.22837E+00 9.13077E-03-5.95825E-01 1.41003E-13-1.15983E-13
 -1      3627 1.82735E+01 1.20086E+00 1.18191E-02-1.06871E+00 4.13769E-14-1.38123E-13
 -1      3628 1.15150E+01 5.27638E-01 8.73933E-02-8.88407E-01-1.37500E-13-3.13499E-13
 -1      3629 1.29118E+01-7.98478E-01 1.01567E-01-3.75142E+00-2.50758E-13-1.50650E-13
 -1      3630 1.23255E+01 6.32325E-02 9.91677E-03 2.29683E+00-2.70011E-13-1.33046E-13
 -1      3631 1.16933E+01 4.86751E-01 8.56347E-02 1.00106E+00-3.71764E-14 8.35512E-14
 -1      3632 1.96023E+01 3.85850E-01 5.25743E-03-1.99187E+00-1.71021E-14 8.65370E-14
 -1      3633 1.96086E+01 5.30610E-01 1.53844E-04-1.87332E+00 1.29773E-14 1.44173E-13
 -1      3634 1.94086E+01 6.35695E-01 2.32082E-03-1.83001E+00 5.95378E-14 2.52764E-13
 -1      3635 1.91479E+01 4.22347E-01 4.55537E-03-2.06358E+00 1.05185E-13 3.31003E-13
 -1      3636 2.03077E+01 5.78830E-01 2.57245E-04 1.44194E-01 1.05088E-13-1.67857E-13
 -1      3637 2.02688E+01 5.64281E-01-2.30438E-03 1.73181E-01 1.26391E-13-1.49685E-13
 -1      3638 1.69653E+01-8.27263E-01-1.20232E-02 3.25579E+00 2.28040E-13-3.67935E-15
 -1      3639 2.02561E+01 1.39210E+00 3.08535E-03-5.55782E-01-6.11594E-14-3.11155E-13
 -1      3640 2.45777E+01-3.70477E+00-1.57313E-02-1.26380E+00-2.86424E-13-2.72220E-13
 -1      3641 2.40758E+01-3.11247E+00-8.49742E-03-7.31667E-01-3.47444E-13-3.56390E-14
 -1      3642 2.34288E+01-2.90708E+00 3.43731E-02-1.19827E+00-4.14795E-13-1.16028E-13
 -1      3643 2.24510E+01-3.04147E+00-3.96394E-02-2.02057E+00-2.93820E-13-1.15158E-13
 -1      3644 1.99587E+01-2.60933E+00 5.27921E-02 3.77070E+00 1.52323E-13-1.82588E-13
 -1      3645 1.90496E+01-1.86962E+00 1.83049E-02 3.54798E+00 7.54032E-14-7.12321E-14
 -1      3646 2.09719E+01-2.72965E+00 8.02796E-03 3.11883E+00 2.70034E-13-7.78162E-14
 -1      3647 1.26323E+01 6.22403E-01 6.15598E-02 2.51108E-01 3.56442E-14-4.68202E-14
 -1      3648 1.28095E+01 1.25772E-01 6.99758E-02-2.21094E+00 1.87425E-13-2.85591E-13
 -1      3649 1.63803E+01-2.15015E+00 3.32851E-02-4.58223E+00-2.55327E-13-2.56919E-13
 -1      3650 1.77266E+01-2.82268E+00 5.34183E-02-4.75790E+00-3.00645E-13-3.80140E-13
 -1      3651 1.93112E+01-2.85066E+00 4.04339E-02-4.05504E+00-2.82312E-13-4.38614E-13
 -1      3652 2.02083E+01 1.64007E+00-3.32555E-03 1.30854E-01 1.31666E-13-2.42185E-13
 -1      3653 2.02043E+01 1.66001E+00-2.65719E-03 4.00882E-02 1.06105E-13-2.67963E-13
 -1      3654 2.01061E+01 3.67625E-01 2.51855E-03 1.61362E+00 6.75429E-14 2.81799E-14
 -1      3655 1.61289E+01-1.45083E+00 5.89084E-02-4.22540E+00 2.23654E-13-4.15709E-14
 -1      3656 1.84129E+01-1.82357E+00 4.21436E-02-3.84587E+00 1.98262E-13-2.89446E-13
 -1      3657 1.79778E+01-1.17323E+00-2.49788E-03-3.46039E+00 1.80827E-13-2.61888E-13
 -1      3658 1.50947E+01-8.06303E-01 3.58656E-03-3.62178E+00 2.47909E-14-2.47694E-13
 -1      3659 1.79846E+01 1.26350E+00-8.95323E-03 4.53449E-01 5.06387E-14-2.39021E-13
 -1      3660 1.81443E+01 1.20283E+00 5.47644E-03 7.91851E-01 2.12117E-13-1.76503E-13
 -1      3661 1.76447E+01 1.23967E+00 9.65450E-03 2.85431E-01 5.88801E-14-1.97424E-13
 -1      3662 1.29923E+01 2.75022E-01 9.90866E-02 2.43899E+00 1.97318E-13-1.28345E-13
 -1      3663 1.27692E+01 6.12561E-01 5.76062E-03 1.37011E+00 1.93634E-13-1.24123E-13
 -1      3664 1.45195E+01-9.69938E-03 3.70899E-02 2.70934E+00 2.24831E-13 6.02851E-14
 -1      3665 2.01161E+01-1.20324E-02 6.96328E-04-1.74207E-01 4.89881E-14-1.22511E-13
 -1      3666 2.01766E+01 3.56242E-03-7.06073E-04-1.58067E-01 2.05672E-14-1.59054E-13
 -1      3667 2.01055E+01-2.46306E-02 2.04403E-04-1.78131E-01 6.65371E-14-1.02317E-13
 -1      3668 2.02595E+01 1.37708E+00 2.22523E-03-4.61690E-01-3.03570E-14-2.77210E-13
 -1      3669 2.02852E+01 6.91451E-01 1.86877E-03 2.68049E-01 1.39284E-13-1.66276E-13
 -1      3670 2.02166E+01 1.60710E+00-2.05678E-03 2.02193E-01 1.46347E-13-2.39919E-13
 -1      3671 2.02913E+01 1.38703E+00 5.00423E-03 1.34520E-01 1.29899E-13-2.19887E-13
 -1      3672 2.02267E+01 1.54779E+00-4.30333E-03 2.85834E-01 1.66366E-13-2.12034E-13
 -1      3673 1.98659E+01 3.66174E-01 4.94261E-04 1.72569E+00 1.32397E-13 7.06936E-14
 -1      3674 2.02288E+01 1.55502E+00-1.82178E-04-3.37258E-01 1.72437E-14-3.00423E-13
 -1      3675 2.02426E+01 1.45996E+00-3.28669E-03-4.07378E-01-9.68998E-15-2.94507E-13
 -1      3676 2.02867E+01 1.24855E+00 5.29638E-04-3.40163E-01-9.22381E-15-2.67739E-13
 -1      3677 2.00833E+01-3.43842E-02 4.19235E-04-1.79157E-01 7.10207E-14-2.94813E-14
 -1      3678 2.00901E+01-3.16827E-02 3.03616E-04-1.79243E-01 7.55618E-14-7.19391E-14
 -1      3679 2.01141E+01-3.45956E-02-5.03026E-04-1.70212E-01 1.00250E-13-6.92330E-14
 -1      3680 1.83725E+01 1.03314E+00-1.22887E-02 1.13332E+00 3.64553E-13 1.59806E-13
 -1      3681 1.86600E+01 9.21742E-01 8.06422E-03 1.37567E+00 3.03038E-13-1.44560E-13
 -1      3682 1.80012E+01 1.02538E+00 4.27061E-03 1.08229E+00 1.91636E-13-1.49027E-13
 -1      3683 1.89279E+01 7.55525E-01-1.07968E-02 1.53786E+00 2.21969E-13-6.27348E-14
 -1      3684 1.92163E+01 6.55148E-01 8.52309E-03 1.65051E+00 1.10094E-13-3.00697E-14
 -1      3685 1.86123E+01 7.16011E-01 5.95893E-04 1.58441E+00 1.93687E-13-6.46022E-14
 -1      3686 1.47537E+01-9.82733E-01-2.71207E-02 3.78830E+00-7.86593E-14-3.51087E-13
 -1      3687 1.34551E+01-2.52321E-01 9.33361E-02 3.10035E+00-1.89978E-13-3.28355E-13
 -1      3688 1.38421E+01 1.82095E-01 5.18478E-02 2.27908E+00-2.20522E-13-4.70318E-14
 -1      3689 2.01429E+01 1.92363E+00 4.73943E-03-9.48676E-02 8.27540E-14-2.84717E-13
 -1      3690 1.63172E+01-9.07355E-01 3.61542E-02 3.52288E+00-1.21871E-13-4.52870E-13
 -1      3691 1.91994E+01 7.37406E-01-5.36931E-03-1.74586E+00 5.98937E-14 1.21094E-14
 -1      3692 1.89366E+01 6.72968E-01-6.29678E-03-1.82082E+00 6.76646E-14 2.02400E-13
 -1      3693 1.89283E+01 8.99852E-01 1.10683E-02-1.61543E+00-8.37448E-14 1.52693E-13
 -1      3694 1.85942E+01 1.00548E+00-1.37732E-02-1.41203E+00 2.75695E-14-6.28302E-14
 -1      3695 1.87921E+01 5.73743E-01 7.54717E-04-1.92830E+00-7.44331E-14 3.54122E-13
 -1      3696 2.03594E+01 7.07190E-01 7.64958E-04-1.46922E-01-1.41592E-14-2.12033E-13
 -1      3697 2.03551E+01 5.51504E-01-2.17927E-03-7.50905E-02-2.43359E-15-2.04557E-13
 -1      3698 2.02545E+01 1.38172E+00-5.24754E-03 4.14098E-01 2.04937E-13-1.83858E-13
 -1      3699 2.02419E+01 1.48329E+00-1.02304E-03 3.45848E-01 1.63936E-13-1.77079E-13
 -1      3700 2.03023E+01 1.28634E+00 5.10582E-03 2.51814E-01 1.39004E-13-1.72960E-13
 -1      3701 2.03391E+01 2.25025E-01 1.31758E-03 4.97249E-02-1.33288E-14-1.74328E-13
 -1      3702 2.03185E+01 1.52647E-01-9.84928E-04 8.02259E-02-3.68774E-14-1.29044E-13
 -1      3703 2.03027E+01 9.64430E-02 9.99255E-04 9.76771E-02-3.26447E-14-9.52935E-14
 -1      3704 2.02812E+01 5.16255E-02-4.57528E-04 1.14945E-01-2.17911E-14-9.74373E-14
 -1      3705 2.03447E+01 1.45075E-01-1.01355E-04 7.26787E-02-1.52292E-14-1.13703E-13
 -1      3706 2.02608E+01 1.86187E-02 6.85237E-04 1.23728E-01-3.02717E-14-6.97301E-14
 -1      3707 2.02402E+01-5.80065E-03-7.11017E-05 1.32260E-01-2.66415E-14-6.60304E-14
 -1      3708 2.03046E+01 4.60829E-02-3.17872E-04 1.01162E-01-2.38563E-14-7.07737E-14
 -1      3709 2.02178E+01-2.16879E-02 3.96975E-04 1.35663E-01-4.06563E-14-7.91351E-14
 -1      3710 2.01989E+01-3.09634E-02 1.94444E-04 1.39165E-01-2.88085E-14-7.37777E-14
 -1      3711 2.02598E+01-8.80369E-03-4.15234E-04 1.15563E-01-4.30639E-14-8.13368E-14
 -1      3712 2.01759E+01-3.41075E-02 1.41296E-04 1.39914E-01-1.72543E-14-5.66764E-14
 -1      3713 2.01588E+01-3.20257E-02 3.63200E-04 1.41329E-01-3.21210E-14-7.27601E-14
 -1      3714 2.02138E+01-3.06821E-02-4.13826E-04 1.21707E-01-3.68278E-14-5.71367E-14
 -1      3715 2.01358E+01-2.55212E-02-9.00056E-05 1.41563E-01-7.48316E-14-9.97253E-14
 -1      3716 2.01202E+01-1.46672E-02 4.64381E-04 1.43176E-01-1.33573E-13-6.89741E-14
 -1      3717 2.01683E+01-2.76726E-02-3.31811E-04 1.24357E-01-6.23812E-14-8.56040E-14
 -1      3718 2.00969E+01-5.28310E-04-3.08156E-04 1.44580E-01-1.84755E-13-3.03377E-14
 -1      3719 2.00822E+01 1.74559E-02 5.22232E-04 1.48211E-01-1.46030E-13-3.37997E-14
 -1      3720 2.01235E+01-5.46115E-03-2.03644E-04 1.27234E-01-1.32744E-13-1.89484E-14
 -1      3721 2.00580E+01 3.79870E-02-5.23237E-04 1.52161E-01-1.04388E-13-5.34715E-14
 -1      3722 2.00433E+01 6.21401E-02 5.48653E-04 1.59287E-01-8.00971E-14-9.69570E-14
 -1      3723 2.00782E+01 3.23579E-02-2.63967E-05 1.33340E-01-1.20500E-13 2.53782E-14
 -1      3724 2.00170E+01 8.83835E-02-7.49870E-04 1.66919E-01-5.72063E-14-9.59240E-14
 -1      3725 2.00011E+01 1.18230E-01 5.52630E-04 1.78781E-01-6.19814E-14-5.10519E-14
 -1      3726 2.00305E+01 8.35954E-02 1.89652E-04 1.45122E-01-6.84136E-14 1.82408E-14
 -1      3727 1.99712E+01 1.49897E-01-1.00105E-03 1.91072E-01-2.24379E-14 9.11650E-15
 -1      3728 1.99528E+01 1.85265E-01 5.40389E-04 2.08766E-01-5.11915E-15 2.24439E-14
 -1      3729 1.99777E+01 1.47147E-01 4.53245E-04 1.64591E-01-1.70758E-15 7.96919E-14
 -1      3730 1.99173E+01 2.22233E-01-1.28333E-03 2.26619E-01-1.30968E-14-1.55926E-14
 -1      3731 1.98948E+01 2.63005E-01 5.14899E-04 2.51139E-01-1.11767E-14 2.66867E-14
 -1      3732 1.99164E+01 2.22505E-01 7.61920E-04 1.93523E-01-1.55165E-14 1.41906E-13
 -1      3733 1.98515E+01 3.05087E-01-1.60575E-03 2.75398E-01-1.37692E-14 4.51392E-14
 -1      3734 1.98230E+01 3.50968E-01 4.77225E-04 3.07646E-01-4.79431E-15 6.51901E-14
 -1      3735 1.98424E+01 3.09342E-01 1.13330E-03 2.33524E-01 4.07325E-14 6.83977E-14
 -1      3736 1.97692E+01 3.97656E-01-1.97992E-03 3.39125E-01-1.95858E-14 1.26921E-13
 -1      3737 1.97327E+01 4.47885E-01 4.32933E-04 3.79940E-01-8.19170E-14 1.42900E-13
 -1      3738 1.97507E+01 4.06947E-01 1.57137E-03 2.86057E-01-4.40704E-14 9.98670E-14
 -1      3739 1.96653E+01 4.98005E-01-2.41874E-03 4.19485E-01-9.44797E-14 1.52486E-13
 -1      3740 1.96187E+01 5.50967E-01 3.99109E-04 4.69683E-01-2.92105E-14 1.39198E-13
 -1      3741 1.96357E+01 5.13695E-01 2.08672E-03 3.52546E-01-6.41698E-14 1.98976E-13
 -1      3742 1.95343E+01 6.02235E-01-2.94480E-03 5.18290E-01-1.53715E-14 1.29504E-13
 -1      3743 1.94755E+01 6.54986E-01 4.17237E-04 5.78786E-01 6.68343E-15 1.20725E-13
 -1      3744 1.94911E+01 6.26300E-01 2.68935E-03 4.34548E-01-1.97483E-14 2.74676E-13
 -1      3745 1.93702E+01 7.03427E-01-3.59881E-03 6.37877E-01 6.02034E-14 7.69611E-14
 -1      3746 1.92977E+01 7.51065E-01 5.73568E-04 7.09988E-01 9.55424E-14 6.94065E-14
 -1      3747 1.93098E+01 7.38943E-01 3.38776E-03 5.34149E-01 1.41013E-14 1.73462E-13
 -1      3748 1.91673E+01 7.90244E-01-4.45245E-03 7.81976E-01 5.18013E-14 1.47007E-14
 -1      3749 1.90811E+01 8.25089E-01 1.02671E-03 8.68025E-01-7.17216E-15-2.34743E-15
 -1      3750 1.90840E+01 8.42200E-01 4.18581E-03 6.54824E-01-2.59572E-15 8.18635E-14
 -1      3751 1.89211E+01 8.45095E-01-5.62365E-03 9.57332E-01-1.03274E-14-5.23548E-14
 -1      3752 1.88240E+01 8.55616E-01 2.03108E-03 1.06171E+00-7.94728E-14-9.38033E-15
 -1      3753 1.88057E+01 9.21673E-01 5.07063E-03 8.03084E-01-7.31538E-15-3.15098E-14
 -1      3754 1.86297E+01 8.41744E-01-7.28936E-03 1.17638E+00-7.83179E-14-1.81219E-14
 -1      3755 1.85304E+01 8.11413E-01 4.18828E-03 1.30709E+00 4.30313E-14 1.01464E-14
 -1      3756 1.84667E+01 9.56204E-01 6.00591E-03 9.91261E-01-5.49666E-14 1.04385E-13
 -1      3757 1.82971E+01 7.42050E-01-9.57706E-03 1.46261E+00 5.66455E-15-2.36114E-14
 -1      3758 1.82151E+01 6.44480E-01 7.85780E-03 1.63342E+00 5.85805E-14-3.17213E-14
 -1      3759 1.80591E+01 9.16534E-01 7.14748E-03 1.24222E+00 9.63059E-15 8.76584E-14
 -1      3760 1.79428E+01 4.87683E-01-1.25789E-02 1.85258E+00 1.30799E-13-8.38676E-14
 -1      3761 1.79143E+01 2.89296E-01 1.38254E-02 2.08392E+00 1.59257E-13-7.18609E-16
 -1      3762 1.75777E+01 7.57002E-01 8.22409E-03 1.59956E+00 6.68945E-14 1.50090E-14
 -1      3763 1.76038E+01 7.72103E-04-1.68173E-02 2.40345E+00 1.80195E-13-7.07864E-14
 -1      3764 1.77254E+01-3.58236E-01 2.12757E-02 2.73357E+00 2.26789E-13-2.11476E-14
 -1      3765 1.70357E+01 4.09138E-01 1.13434E-02 2.12693E+00 1.54648E-13-5.88102E-14
 -1      3766 2.03100E+01 1.11483E+00 4.07254E-03 3.36173E-01 1.61413E-13-1.88444E-13
 -1      3767 2.02044E+01 1.66086E+00-2.52273E-03-3.47060E-02 1.00507E-13-2.71784E-13
 -1      3768 2.02080E+01 1.64345E+00-2.76162E-03-1.25049E-01 7.10003E-14-2.55221E-13
 -1      3769 2.02860E+01 1.42159E+00 4.86102E-03 2.30223E-03 9.86738E-14-2.52857E-13
 -1      3770 1.82200E+01-6.34157E-01 3.18205E-02-3.01590E+00 2.93248E-13-2.94678E-13
 -1      3771 1.80787E+01-2.28522E-01-1.05796E-02-2.71390E+00 1.53799E-13-1.37949E-13
 -1      3772 1.70424E+01-5.68285E-01 8.90758E-03-3.24338E+00 2.93678E-13-2.88466E-13
 -1      3773 1.83716E+01 1.02981E-01 1.61414E-02-2.39117E+00 4.95085E-14-1.19282E-14
 -1      3774 1.83904E+01 3.60765E-01-1.15570E-02-2.16664E+00-4.22820E-14 1.32763E-13
 -1      3775 1.75439E+01 1.99895E-01 6.47794E-03-2.44255E+00 2.08281E-13-3.52387E-13
 -1      3776 1.60228E+01-2.06227E-01 2.79320E-02 2.93937E+00 2.17865E-13-1.30399E-14
 -1      3777 1.22099E+01 7.26195E-01-3.24490E-03-3.31374E-01-8.22536E-14-2.72414E-13
 -1      3778 1.22927E+01 5.36264E-01 8.53260E-02-1.83613E+00-1.56626E-13-3.36176E-13
 -1      3779 2.02083E+01 1.63758E+00-2.22939E-03-1.90383E-01 6.10112E-14-2.69143E-13
 -1      3780 2.02191E+01 1.58365E+00-3.27621E-03-2.73937E-01 2.88449E-14-2.96628E-13
 -1      3781 2.02829E+01 1.37411E+00 3.23801E-03-2.40031E-01 3.25549E-14-2.74908E-13
 -1      3782 2.02857E+01 1.41422E+00 5.11803E-03-1.23464E-01 5.69382E-14-2.41746E-13
 -1      3783 1.99805E+01 1.51179E-01 7.45870E-04-2.19432E-01-8.34755E-14-1.16321E-13
 -1      3784 1.99915E+01 1.20739E-01-9.42098E-04-2.01939E-01-8.81235E-14-1.06002E-13
 -1      3785 1.98313E+01 3.68259E-01 9.54148E-04-3.99373E-01 5.80194E-14 5.27443E-14
 -1      3786 1.98505E+01 3.27984E-01-1.75149E-03-3.57195E-01 3.94031E-14 6.14524E-14
 -1      3787 1.97592E+01 4.47141E-01 1.09847E-03-4.95901E-01 7.39319E-14 4.10646E-14
 -1      3788 1.97824E+01 4.06956E-01-2.06555E-03-4.43701E-01 1.15669E-13 7.17372E-14
 -1      3789 1.97401E+01 4.29583E-01 1.32497E-03-3.91102E-01 9.99551E-14 2.58707E-14
 -1      3790 1.96736E+01 5.20020E-01 1.34158E-03-6.14090E-01-7.97600E-15 3.45016E-14
 -1      3791 1.97005E+01 4.83755E-01-2.38935E-03-5.51120E-01 5.02242E-14 6.40027E-14
 -1      3792 1.96388E+01 5.16757E-01 1.59596E-03-4.87048E-01 7.62034E-14 6.07649E-14
 -1      3793 1.95755E+01 5.75950E-01 1.76665E-03-7.56255E-01-7.71400E-14 5.06110E-14
 -1      3794 1.96044E+01 5.49636E-01-2.70521E-03-6.81798E-01-3.16377E-14 8.14668E-15
 -1      3795 1.95177E+01 5.96171E-01 1.80267E-03-6.05582E-01-2.09457E-14 7.93864E-14
 -1      3796 1.94700E+01 5.98328E-01 2.51472E-03-9.25375E-01-3.67924E-14 3.49179E-14
 -1      3797 1.94965E+01 5.91018E-01-2.97966E-03-8.38627E-01-6.38173E-14 5.34103E-14
 -1      3798 1.93765E+01 6.55617E-01 1.86188E-03-7.50695E-01-7.47897E-14 1.10858E-13
 -1      3799 1.93687E+01 5.62974E-01 3.80833E-03-1.12568E+00 7.46793E-14 3.29732E-14
 -1      3800 1.93841E+01 5.87745E-01-3.13884E-03-1.02562E+00 4.98661E-14 2.37420E-14
 -1      3801 1.92183E+01 6.76914E-01 1.62977E-03-9.28331E-01-6.47181E-15 7.40189E-14
 -1      3802 1.92943E+01 4.35772E-01 5.90743E-03-1.36313E+00 1.04712E-13-9.20851E-14
 -1      3803 1.92830E+01 5.11017E-01-2.99692E-03-1.24865E+00 1.15543E-13-1.80335E-15
 -1      3804 1.90523E+01 6.33827E-01 8.47280E-04-1.14777E+00 1.20682E-13 1.14169E-15
 -1      3805 1.92885E+01 1.70337E-01 9.01959E-03-1.64417E+00-4.06522E-14-1.05345E-13
 -1      3806 1.92238E+01 3.20946E-01-2.11547E-03-1.51540E+00 3.64847E-14-5.87621E-14
 -1      3807 1.88981E+01 4.88852E-01-1.02081E-03-1.42312E+00 4.30495E-14-5.38554E-14
 -1      3808 1.94228E+01-2.91303E-01 1.34424E-02-1.96933E+00-2.24724E-13-1.63870E-13
 -1      3809 1.92624E+01-3.47970E-02 5.26160E-04-1.83199E+00-1.14992E-13-1.02212E-13
 -1      3810 1.87951E+01 1.89479E-01-4.82162E-03-1.77247E+00-6.17288E-14-7.12058E-14
 -1      3811 1.98063E+01-1.01818E+00 1.54350E-02-2.32146E+00-2.35350E-13-2.75756E-13
 -1      3812 1.94946E+01-6.17254E-01 7.14266E-03-2.19517E+00-2.45996E-13-2.11232E-13
 -1      3813 1.88135E+01-3.31987E-01-1.21707E-02-2.21256E+00-2.18331E-13-2.13893E-13
 -1      3814 2.06403E+01-2.03525E+00 2.13265E-02-2.60032E+00-3.06978E-13-1.12382E-13
 -1      3815 2.00937E+01-1.47646E+00 2.80570E-02-2.55029E+00-3.05819E-13-2.16199E-13
 -1      3816 1.90990E+01-1.18721E+00-2.77742E-02-2.74535E+00-3.15886E-13-2.12249E-13
 -1      3817 1.95636E+01 1.91507E-01 8.86966E-03 1.93322E+00 6.26572E-14-1.23069E-13
 -1      3818 1.96381E+01-6.92201E-02 1.09713E-02 2.06134E+00 9.48387E-14-2.56156E-15
 -1      3819 1.34933E+01 6.96638E-01-2.29519E-02 6.45026E-01-4.55108E-14-1.70031E-13
 -1      3820 1.33891E+01 8.11229E-01 6.00165E-02-5.45370E-01 1.70229E-13-3.05292E-13
 -1      3821 1.96269E+01-3.60180E-01 5.22861E-03 2.26923E+00 1.69197E-13 8.81005E-14
 -1      3822 1.98397E+01-7.27278E-01 1.22643E-02 2.40384E+00 1.96414E-13 1.96927E-13
 -1      3823 1.91284E+01-8.45126E-02-6.59404E-03 2.22589E+00 1.29268E-13 1.06937E-14
 -1      3824 2.03217E+01 1.05860E+00-2.79877E-04-2.85081E-01 1.84893E-15-2.60907E-13
 -1      3825 2.03382E+01 8.48618E-01-1.99353E-03-1.90633E-01-2.14087E-15-2.26629E-13
 -1      3826 2.03638E+01 8.29631E-01 1.40255E-03-1.47183E-01 9.92511E-15-2.49451E-13
 -1      3827 2.03164E+01 1.15038E+00 6.90813E-04-2.44374E-01 2.02706E-14-2.78645E-13
 -1      3828 2.15814E+01-2.68630E+00-1.38418E-02 2.68247E+00 3.60536E-13 1.81513E-14
 -1      3829 2.03320E+01 5.57722E-01-2.41447E-03 1.00804E-01 1.01398E-13-1.94702E-13
 -1      3830 2.03396E+01 7.20916E-01 2.87216E-03 1.81525E-01 8.76459E-14-2.07122E-13
 -1      3831 2.02516E+01 5.68547E-02-5.10142E-04-1.25145E-01 2.70165E-14-1.60216E-13
 -1      3832 2.02727E+01 1.02246E-01 1.21696E-03-1.05344E-01 3.05620E-14-1.46328E-13
 -1      3833 1.96428E+01 4.40145E-01-3.61884E-03 1.71579E+00 6.06285E-14-1.38623E-14
 -1      3834 1.29602E+01-2.18823E-01 5.24457E-03-3.04079E+00-1.62446E-13-2.36429E-13
 -1      3835 1.45394E+01-1.16196E+00 4.90237E-02-4.16305E+00-1.80442E-13-1.93297E-13
 -1      3836 1.32925E+01 4.09685E-01-2.01065E-02-1.66853E+00 3.61967E-13-1.53773E-13
 -1      3837 1.40040E+01-2.25011E-02 6.28669E-02-2.83975E+00 1.29130E-13-1.70180E-13
 -1      3838 2.01087E+01-2.05513E-02 5.18795E-04-1.56401E-01 7.15576E-14-7.72938E-14
 -1      3839 2.01208E+01-2.92549E-02-5.51467E-05-1.55479E-01 9.57385E-14-8.52670E-14
 -1      3840 1.98908E+01 2.90241E-01 8.62209E-04-3.22455E-01 3.85577E-14 4.33718E-14
 -1      3841 1.99064E+01 2.52167E-01-1.45713E-03-2.89463E-01 7.51303E-14 4.72112E-14
 -1      3842 1.98235E+01 3.42492E-01 1.03710E-03-3.14802E-01 9.42912E-15 2.53456E-14
 -1      3843 1.99397E+01 2.17136E-01 7.97820E-04-2.63150E-01-8.39074E-15 2.34509E-14
 -1      3844 1.99526E+01 1.82542E-01-1.18728E-03-2.38416E-01-5.36311E-14-7.90907E-14
 -1      3845 1.99486E+01 1.85534E-01 4.99977E-04-2.11694E-01-1.16891E-13-1.48104E-13
 -1      3846 2.00156E+01 9.35600E-02 7.00303E-04-1.89206E-01-4.29552E-14-4.12887E-14
 -1      3847 2.00256E+01 6.76775E-02-7.16053E-04-1.77854E-01-1.52936E-14-3.21833E-14
 -1      3848 1.99967E+01 1.19859E-01 2.68020E-04-1.80606E-01-6.79834E-14-1.20945E-14
 -1      3849 2.03624E+01 4.21291E-01 1.50306E-03-2.89084E-02-3.21195E-18-2.06509E-13
 -1      3850 2.03464E+01 3.12248E-01-1.68581E-03 1.96876E-02-7.57222E-15-1.90490E-13
 -1      3851 2.03834E+01 5.38237E-01 1.03876E-03-5.41722E-02-2.34471E-15-2.33568E-13
 -1      3852 1.72692E+01-9.46525E-01-4.07405E-02 3.31120E+00 1.35356E-14-3.10845E-13
 -1      3853 1.59549E+01-1.46291E-01 6.85315E-02 2.91227E+00-1.14114E-13-4.43600E-13
 -1      3854 1.47500E+01 1.18890E-01-3.31119E-02 2.38565E+00-1.24857E-13-1.69540E-13
 -1      3855 1.41075E+01 6.01542E-01 5.19653E-02 1.57554E+00-1.35349E-13 2.17274E-14
 -1      3856 1.46759E+01 7.91220E-01 3.22500E-02 8.42095E-01-6.16234E-14-2.00140E-13
 -1      3857 1.60352E+01 1.97554E-01 2.20780E-02 2.31346E+00-7.17586E-14-2.54744E-13
 -1      3858 2.06695E+01-2.05753E+00 3.39524E-03 2.81699E+00 3.48225E-13 9.80414E-14
 -1      3859 2.03740E+01 3.02865E-01 2.47711E-04 2.31952E-02 1.16081E-14-1.87202E-13
 -1      3860 1.81957E+01 9.96921E-01-6.76868E-03-1.37411E+00 1.17414E-13-1.58465E-13
 -1      3861 2.04880E+01-1.71388E+00 1.36554E-02 2.70920E+00 2.04363E-13 1.40467E-13
 -1      3862 1.97667E+01-1.83618E+00-4.00850E-02 3.11842E+00 1.65535E-13 1.54550E-13
 -1      3863 1.89088E+01-1.44842E+00 5.16541E-02 3.35980E+00 1.15997E-14 4.65756E-14
 -1      3864 2.00918E+01-1.22164E+00 1.39158E-02 2.60798E+00 7.12685E-14 9.58138E-14
 -1      3865 1.37710E+01 2.48752E-01 6.98841E-02-2.34445E+00-5.11813E-14-2.77809E-13
 -1      3866 2.03247E+01 1.19737E+00-2.53434E-03 3.19507E-02 1.02532E-13-2.10370E-13
 -1      3867 2.03248E+01 1.19846E+00-2.22961E-03-2.84256E-02 6.84330E-14-2.35750E-13
 -1      3868 2.39652E+01-3.89318E+00 5.50264E-02-2.02029E+00-3.16948E-13-3.20632E-13
 -1      3869 1.83107E+01-8.36605E-01 1.51187E-02 2.97570E+00 1.55546E-13-1.11038E-13
 -1      3870 1.82567E+01 6.78060E-01 1.30637E-02-1.88203E+00 3.78743E-14-9.48519E-14
 -1      3871 1.29325E+01 9.49664E-01 7.97369E-02 5.26532E-01 1.28932E-13-4.33820E-14
 -1      3872 1.33786E+01 9.21797E-01 1.74072E-02-3.21101E-01 7.27196E-15-6.50487E-14
 -1      3873 1.38587E+01 7.85792E-01 1.79158E-02 1.17310E+00 2.44693E-13 7.70096E-14
 -1      3874 1.73302E+01 1.15659E+00 9.99050E-03-8.78276E-01 1.52349E-13-7.31004E-14
 -1      3875 1.71410E+01 1.18543E+00-1.35638E-02-4.44271E-01 1.82644E-13-2.45049E-13
 -1      3876 2.11441E+01-2.79843E+00 4.02558E-02-2.94014E+00-2.57712E-13-1.13565E-13
 -1      3877 1.97234E+01-2.44489E+00-2.01715E-02-3.44035E+00-3.27317E-13-2.73389E-13
 -1      3878 2.19998E+01-3.55943E+00 1.51796E-02-2.95005E+00-2.40565E-13-1.91231E-13
 -1      3879 1.43183E+01 6.87802E-01 3.15239E-02-1.17236E+00 2.62396E-13-3.48818E-13
 -1      3880 1.64172E+01-1.43864E+00 5.38591E-02-3.94375E+00-1.68188E-13-2.30788E-13
 -1      3881 2.03177E+01 3.19053E-01-1.68072E-03-1.19920E-02 9.22140E-14-1.78736E-13
 -1      3882 2.03362E+01 4.28133E-01 1.67522E-03 4.45128E-02 9.94306E-14-1.75886E-13
 -1      3883 2.03618E+01 5.53199E-01 4.34382E-04 7.70703E-02 8.55702E-14-2.16594E-13
 -1      3884 2.00884E+01-8.80413E-03-2.85322E-04-1.57380E-01 5.02629E-14-3.81736E-14
 -1      3885 2.01175E+01-1.32043E-02-2.64402E-04-1.43186E-01 6.85231E-14-3.98422E-14
 -1      3886 2.00778E+01 6.54910E-03 5.98934E-04-1.60237E-01 2.92024E-14-3.55764E-14
 -1      3887 2.00393E+01 6.41207E-02 5.89618E-05-1.60349E-01 1.63726E-15-2.24940E-14
 -1      3888 2.00473E+01 4.50563E-02 6.54612E-04-1.70269E-01-1.44477E-14-6.86404E-14
 -1      3889 2.00573E+01 2.41283E-02-5.00534E-04-1.63853E-01 2.29652E-14-3.77991E-14
 -1      3890 1.93090E+01-9.35963E-01-2.93545E-02 2.72706E+00 1.16966E-13 1.19607E-13
 -1      3891 1.56513E+01-3.08996E-01 4.73161E-02-3.05568E+00 2.23947E-13-1.23172E-13
 -1      3892 1.53239E+01 2.86643E-01-2.12461E-02 2.27836E+00 1.58804E-13 5.14319E-14
 -1      3893 2.01435E+01-2.68473E-02-6.20353E-04-1.68190E-01 5.25020E-14-1.27355E-13
 -1      3894 1.94220E+01 3.54378E-01-1.65934E-04 1.82058E+00-1.07160E-14-7.39038E-15
 -1      3895 2.01412E+01-3.38879E-02 3.94980E-04-1.55532E-01 1.08463E-13-1.36951E-13
 -1      3896 2.01554E+01-3.42663E-02 1.96724E-04-1.54558E-01 1.03282E-13-1.38398E-13
 -1      3897 2.01569E+01-3.10426E-02-4.02262E-04-1.40948E-01 7.78845E-14-1.34664E-13
 -1      3898 2.02324E+01 2.32656E-02 8.35488E-04-1.36099E-01 1.20088E-14-1.69622E-13
 -1      3899 2.02822E+01 5.25479E-02-4.17942E-04-1.13401E-01 3.94869E-14-1.90400E-13
 -1      3900 2.02133E+01-2.07689E-03-9.01009E-05-1.45716E-01 9.70786E-15-1.51563E-13
 -1      3901 1.74659E+01 9.66985E-01-1.83386E-02 1.06235E+00 7.51914E-14-3.26896E-13
 -1      3902 1.78269E+01 8.62866E-01 1.42721E-02 1.40314E+00 2.11619E-13-8.35473E-14
 -1      3903 1.81938E+01 6.28209E-01-1.46029E-02 1.67604E+00 1.71586E-13 8.64795E-14
 -1      3904 1.85970E+01 4.96756E-01 8.76847E-03 1.82979E+00 1.81701E-14 1.46935E-13
 -1      3905 1.77061E+01 6.31595E-01-4.12808E-03 1.70036E+00 1.03140E-13-6.14340E-14
 -1      3906 2.03274E+01 1.14766E+00-3.23620E-03 1.35275E-01 1.42268E-13-2.08841E-13
 -1      3907 2.03265E+01 1.18351E+00-1.68586E-03 7.77973E-02 1.25413E-13-2.06595E-13
 -1      3908 2.03786E+01 9.99060E-01 4.28558E-03 4.06676E-02 1.08254E-13-1.84344E-13
 -1      3909 1.98919E+01 2.60238E-01 7.57911E-04-2.55727E-01 2.24516E-14-4.91374E-14
 -1      3910 2.02881E+01 1.58726E-01-1.06466E-03-8.38652E-02 5.01423E-14-1.57434E-13
 -1      3911 2.03095E+01 2.31280E-01 1.49756E-03-4.86300E-02 7.29115E-14-1.72756E-13
 -1      3912 2.03510E+01 3.14483E-01 1.00853E-04-1.76296E-02 6.95707E-14-1.95469E-13
 -1      3913 2.03211E+01 1.53898E-01-2.96840E-04-7.83585E-02 3.00254E-14-1.79846E-13
 -1      3914 1.67830E+01 1.15029E+00 1.46056E-02-1.65233E-01 1.63568E-13-2.34978E-13
 -1      3915 1.71177E+01 1.19153E+00-7.24468E-03 1.20139E-01 1.61732E-13-1.66470E-13
 -1      3916 1.72342E+01 1.16063E+00 8.23744E-03 5.62060E-01 1.66349E-13-2.52281E-13
 -1      3917 1.58561E+01 7.45070E-02-1.75111E-02-2.57972E+00 3.91104E-13-9.01770E-14
 -1      3918 1.98472E+01 2.99463E-01 3.98279E-04-2.35154E-01-2.56097E-14-1.57949E-14
 -1      3919 1.98772E+01 2.56753E-01-1.31220E-03-2.10814E-01-5.10731E-14-7.49020E-14
 -1      3920 2.03431E+01 7.18169E-02 5.49087E-04 7.63575E-02-2.30276E-14-1.44907E-13
 -1      3921 2.03203E+01 3.21598E-02-2.68610E-04 8.74926E-02-2.87721E-14-1.51923E-13
 -1      3922 2.02969E+01 3.68856E-03 3.78021E-04 9.16000E-02-2.77255E-14-1.53161E-13
 -1      3923 2.02733E+01-1.59899E-02 1.71195E-05 9.72885E-02-3.16388E-14-1.20006E-13
 -1      3924 2.03292E+01 2.48282E-02-2.90650E-04 6.91153E-02-2.09742E-14-2.02433E-13
 -1      3925 2.02475E+01-2.73748E-02 2.20071E-04 9.86287E-02-4.04476E-14-9.36886E-14
 -1      3926 2.02241E+01-3.19643E-02 2.01424E-04 1.01420E-01-2.64480E-15-7.54857E-14
 -1      3927 2.02788E+01-1.83914E-02-3.62933E-04 7.64752E-02-1.83823E-14-1.07770E-13
 -1      3928 2.01973E+01-3.05648E-02 5.01208E-05 1.01738E-01-2.35662E-14-8.82979E-14
 -1      3929 2.01746E+01-2.37219E-02 2.97433E-04 1.03559E-01-7.46728E-14-8.82010E-14
 -1      3930 2.02260E+01-2.95330E-02-3.19631E-04 7.98592E-02-1.92639E-14-1.10979E-13
 -1      3931 2.01469E+01-1.23142E-02-1.37341E-04 1.04053E-01-8.04707E-14-4.73436E-14
 -1      3932 2.01246E+01 3.62482E-03 3.36659E-04 1.06559E-01-7.01683E-14 3.67367E-14
 -1      3933 2.01724E+01-1.64042E-02-2.50129E-04 8.20409E-02-3.07229E-14-2.96950E-14
 -1      3934 2.00958E+01 2.31078E-02-3.24926E-04 1.08320E-01-1.30033E-13 4.03396E-14
 -1      3935 2.00730E+01 4.66237E-02 3.33180E-04 1.12785E-01-1.12344E-13 4.40485E-14
 -1      3936 2.01175E+01 1.62363E-02-8.64752E-05 8.51982E-02-6.69214E-14 3.25969E-14
 -1      3937 2.00421E+01 7.30796E-02-5.24535E-04 1.16648E-01-5.92386E-14 4.56458E-14
 -1      3938 2.00176E+01 1.03289E-01 2.85659E-04 1.24141E-01-1.63544E-14 5.81327E-14
 -1      3939 2.00601E+01 6.50380E-02 1.55153E-04 9.11100E-02-7.18798E-14 4.31159E-14
 -1      3940 1.99832E+01 1.36043E-01-7.62161E-04 1.30789E-01 1.41549E-14 3.07436E-14
 -1      3941 1.99554E+01 1.72569E-01 2.07472E-04 1.42127E-01 1.58157E-14 4.22108E-14
 -1      3942 1.99975E+01 1.28078E-01 4.55915E-04 1.01288E-01 1.88733E-15 5.56053E-14
 -1      3943 1.99152E+01 2.11450E-01-1.03501E-03 1.52188E-01-1.07831E-14 9.09347E-14
 -1      3944 1.98822E+01 2.54100E-01 1.04449E-04 1.68176E-01-8.20824E-15 1.20138E-13
 -1      3945 1.99261E+01 2.04244E-01 7.47313E-04 1.16655E-01 1.03273E-14 7.13594E-14
 -1      3946 1.98340E+01 2.98862E-01-1.33527E-03 1.82176E-01 1.94909E-14 1.52178E-13
 -1      3947 1.97935E+01 3.47384E-01-2.80058E-05 2.03457E-01 4.69520E-14 8.17006E-14
 -1      3948 1.98416E+01 2.93278E-01 1.15466E-03 1.38457E-01-1.18479E-15 1.41018E-13
 -1      3949 1.97344E+01 3.97692E-01-1.68833E-03 2.21864E-01-1.10784E-15 9.92334E-14
 -1      3950 1.96837E+01 4.51573E-01-1.92477E-04 2.49029E-01-4.92856E-14 1.53422E-13
 -1      3951 1.97387E+01 3.94470E-01 1.63373E-03 1.67359E-01 2.52115E-14 7.76136E-14
 -1      3952 1.96102E+01 5.06631E-01-2.10700E-03 2.72309E-01-6.95075E-14 1.73096E-13
 -1      3953 1.95463E+01 5.64753E-01-3.87456E-04 3.05922E-01-4.74528E-14 1.97640E-13
 -1      3954 1.96112E+01 5.06732E-01 2.20511E-03 2.04072E-01-4.46018E-14 1.30410E-13
 -1      3955 1.94544E+01 6.22976E-01-2.62114E-03 3.34578E-01-4.32708E-14 2.46537E-13
 -1      3956 1.93739E+01 6.83286E-01-6.02856E-04 3.75295E-01-1.13316E-14 2.71850E-13
 -1      3957 1.94519E+01 6.27798E-01 2.89430E-03 2.49236E-01-1.76463E-14 1.99815E-13
 -1      3958 1.92589E+01 7.41925E-01-3.28630E-03 4.10034E-01-3.83198E-14 2.25783E-13
 -1      3959 1.91582E+01 8.01061E-01-8.11262E-04 4.58874E-01-4.12198E-14 1.13760E-13
 -1      3960 1.92524E+01 7.53675E-01 3.74053E-03 3.03632E-01-6.18675E-14 1.64502E-13
 -1      3961 1.90141E+01 8.55760E-01-4.20660E-03 5.00962E-01-3.67774E-14 9.34152E-14
 -1      3962 1.88893E+01 9.08646E-01-9.51736E-04 5.59866E-01-6.04075E-14 1.94941E-14
 -1      3963 1.90024E+01 8.78059E-01 4.80996E-03 3.68652E-01-7.72307E-14 1.42732E-13
 -1      3964 1.87083E+01 9.52950E-01-5.56861E-03 6.11853E-01-1.68595E-14 2.26106E-14
 -1      3965 1.85557E+01 9.92353E-01-9.00043E-04 6.84713E-01-4.45255E-14 2.35798E-14
 -1      3966 1.86891E+01 9.91841E-01 6.21771E-03 4.47282E-01-7.22255E-14 3.74796E-14
 -1      3967 1.83268E+01 1.01707E+00-7.67579E-03 7.51807E-01-9.32448E-14 1.08049E-13
 -1      3968 1.81431E+01 1.03301E+00-4.53029E-04 8.46175E-01-4.48001E-14 5.30471E-14
 -1      3969 1.82956E+01 1.08268E+00 8.15393E-03 5.46065E-01-2.41404E-14 4.43905E-15
 -1      3970 1.78507E+01 1.02468E+00-1.10305E-02 9.38010E-01 1.00359E-14 4.38095E-14
 -1      3971 1.76303E+01 1.00530E+00 1.80547E-04 1.06755E+00 6.23176E-14 1.19001E-13
 -1      3972 1.77978E+01 1.13425E+00 1.10538E-02 6.78784E-01-3.34368E-16 3.72625E-14
 -1      3973 1.72537E+01 9.41148E-01-1.65238E-02 1.20001E+00 6.51288E-14 4.43380E-14
 -1      3974 1.69931E+01 8.60604E-01-9.28002E-04 1.38093E+00 1.47116E-13 7.90058E-14
 -1      3975 1.71802E+01 1.12946E+00 2.30648E-02 8.77028E-01 7.03795E-14 1.02829E-13
 -1      3976 1.64690E+01 7.44322E-01-2.67315E-02 1.60599E+00 1.27781E-13 1.15719E-13
 -1      3977 1.62298E+01 5.82240E-01 1.48921E-02 1.90785E+00 1.30799E-13 4.59363E-14
 -1      3978 1.62917E+01 1.05423E+00 2.57889E-02 1.18202E+00 9.47150E-14 6.59767E-14
 -1      3979 1.93729E+01 6.67302E-01 7.70334E-04-5.65538E-01-5.07670E-14-2.99739E-14
 -1      3980 1.94362E+01 6.24096E-01-3.01571E-03-5.03799E-01-2.17048E-15-1.43190E-14
 -1      3981 1.53116E+01 6.03102E-01 3.09701E-02-1.90544E+00 2.17740E-13-9.95280E-14
 -1      3982 1.66270E+01 3.89761E-01 2.37936E-02-2.15242E+00 2.53707E-13-2.58834E-13
 -1      3983 1.51162E+01 8.55907E-01 1.67447E-03-8.94045E-01 1.40382E-13-4.07995E-13
 -1      3984 2.03280E+01 8.46247E-01-1.75203E-03 2.41736E-01 1.11658E-13-2.09421E-13
 -1      3985 2.03355E+01 9.41587E-01 3.85749E-04 2.17986E-01 1.03726E-13-1.78502E-13
 -1      3986 1.68714E+01 6.10994E-01-1.28738E-02-1.85967E+00 3.60233E-14-2.76750E-13
 -1      3987 1.81324E+01-3.08919E-01 6.98512E-03 2.63560E+00 2.11249E-13-8.10500E-14
 -1      3988 1.95269E+01 5.79991E-01 5.28868E-04-4.53050E-01 4.93849E-14 1.53298E-14
 -1      3989 1.95806E+01 5.31796E-01-2.48019E-03-4.02781E-01 1.30205E-13-3.97071E-15
 -1      3990 1.93994E+01 6.52715E-01 2.67470E-03-4.13636E-01 4.69510E-14-6.03338E-14
 -1      3991 1.99186E+01 2.17400E-01 4.19037E-04-1.93228E-01-7.62305E-14-8.41172E-14
 -1      3992 1.99437E+01 1.79437E-01-1.01924E-03-1.75411E-01-6.59493E-14-6.34509E-14
 -1      3993 1.98790E+01 2.55912E-01 9.01215E-04-1.72201E-01-5.03636E-14-1.24024E-13
 -1      3994 1.96552E+01 4.84709E-01 4.25118E-04-3.62662E-01 1.13635E-13-2.83064E-15
 -1      3995 1.96997E+01 4.35944E-01-2.03126E-03-3.22224E-01 6.00261E-14-1.31461E-14
 -1      3996 1.95574E+01 5.49172E-01 2.16538E-03-3.29093E-01 7.77863E-14-1.31093E-14
 -1      3997 1.91916E+01 7.34356E-01 1.26236E-03-7.05180E-01-6.91680E-14-1.87264E-14
 -1      3998 1.92636E+01 7.02775E-01-3.67565E-03-6.29570E-01-5.23275E-14 1.30731E-14
 -1      3999 1.92080E+01 7.47369E-01 3.21652E-03-5.20596E-01-5.07968E-14-6.72415E-14
 -1      4000 1.89842E+01 7.63303E-01 2.19821E-03-8.79847E-01-2.28531E-14 4.44151E-14
 -1      4001 1.90615E+01 7.52878E-01-4.51852E-03-7.86582E-01-8.71862E-14 3.90819E-14
 -1      4002 1.89790E+01 8.20539E-01 3.77524E-03-6.56670E-01-6.36962E-14-8.00469E-15
 -1      4003 1.87570E+01 7.29056E-01 3.95581E-03-1.10214E+00 9.87777E-14 1.11160E-13
 -1      4004 1.88317E+01 7.53053E-01-5.61776E-03-9.85172E-01 8.17440E-14 1.14108E-13
 -1      4005 1.87090E+01 8.54412E-01 4.32474E-03-8.32604E-01-4.13364E-14 7.50566E-14
 -1      4006 1.85252E+01 5.96284E-01 7.06504E-03-1.39233E+00-1.81101E-14 1.12576E-13
 -1      4007 1.85815E+01 6.73549E-01-6.97885E-03-1.24239E+00 4.22847E-14 9.69617E-14
 -1      4008 1.83965E+01 8.24589E-01 4.79716E-03-1.06615E+00 6.15299E-14 2.34075E-13
 -1      4009 1.83232E+01 3.12497E-01 1.22036E-02-1.78006E+00-5.94238E-14 8.51295E-14
 -1      4010 1.83312E+01 4.71386E-01-8.19793E-03-1.58539E+00-2.53772E-14 4.00581E-14
 -1      4011 1.80438E+01 6.95206E-01 4.77105E-03-1.38864E+00-2.05779E-14 1.73181E-13
 -1      4012 1.82157E+01-1.92661E-01 1.96311E-02-2.29750E+00-2.18068E-13-4.05054E-14
 -1      4013 1.81281E+01 8.62542E-02-7.32443E-03-2.04557E+00-1.09560E-13 4.60398E-14
 -1      4014 1.76724E+01 4.09839E-01 4.87754E-03-1.84173E+00-6.54757E-14 2.09956E-13
 -1      4015 1.82801E+01-1.03398E+00 1.58408E-02-2.99843E+00-3.17206E-13-1.79777E-13
 -1      4016 1.80533E+01-5.28463E-01 6.79560E-03-2.66404E+00-2.99799E-13-8.21834E-14
 -1      4017 1.73132E+01-1.24711E-01-3.85862E-03-2.48563E+00-1.98720E-13 1.11812E-13
 -1      4018 1.90262E+01 3.74300E-01-1.11440E-02 1.88301E+00 1.48860E-14 1.61243E-13
 -1      4019 1.59587E+01-4.40390E-01 2.21070E-02-3.12171E+00-1.42056E-13-1.72674E-13
 -1      4020 1.74980E+01-1.37739E+00-8.95074E-03-3.56039E+00-2.17613E-13-2.68115E-13
 -1      4021 1.42221E+01 6.90982E-01-3.05779E-03-1.52267E+00-1.48453E-14-2.52787E-13
 -1      4022 1.49676E+01 1.34016E-01 4.31817E-03-2.58980E+00-3.15720E-14-2.36481E-13
 -1      4023 1.63194E+01 1.35990E-01 3.01732E-02-2.36164E+00-1.23095E-13-1.49943E-13
 -1      4024 1.97607E+01 3.89531E-01 3.93806E-04-2.90905E-01 1.58304E-14-3.73435E-14
 -1      4025 1.97972E+01 3.42978E-01-1.64623E-03-2.59050E-01 1.66057E-14 9.15967E-15
 -1      4026 1.97922E+01 3.46429E-01 1.27623E-03-2.11081E-01-3.19681E-14-1.14287E-13
 -1      4027 2.02992E+01 7.73331E-01-1.71544E-03 2.86971E-01 1.31825E-13-1.83015E-13
 -1      4028 2.03764E+01 1.01832E+00 4.65110E-03-3.45588E-02 4.69116E-14-2.17907E-13
 -1      4029 2.03211E+01 1.20336E+00-2.52423E-03-6.90148E-02 5.91995E-14-2.38623E-13
 -1      4030 2.03207E+01 1.20081E+00-1.55795E-03-1.22423E-01 4.30232E-14-2.46805E-13
 -1      4031 1.70132E+01 9.90608E-01 8.65984E-03 9.34724E-01 2.67111E-13-2.51308E-13
 -1      4032 1.49869E+01 7.36533E-01 3.31410E-02 1.68147E+00 1.76791E-13 1.57901E-13
 -1      4033 1.77237E+01 8.40943E-01-1.19316E-02-1.55398E+00 9.46777E-14-2.23150E-13
 -1      4034 1.99787E+01 1.44914E-01 4.32318E-04-1.63144E-01-4.02086E-14-5.25123E-14
 -1      4035 2.00005E+01 1.12202E-01-7.61713E-04-1.50883E-01-2.65772E-14-1.15532E-14
 -1      4036 1.99514E+01 1.75546E-01 5.71969E-04-1.44018E-01-1.65377E-14-3.75171E-14
 -1      4037 2.03811E+01 1.89190E-01 6.58906E-04 4.77459E-02 9.65336E-15-1.65401E-13
 -1      4038 2.03615E+01 1.23106E-01-6.66227E-04 6.74929E-02-9.85635E-16-1.39908E-13
 -1      4039 2.03736E+01 1.10712E-01 1.69582E-05 5.44602E-02-4.54269E-15-2.07925E-13
 -1      4040 2.01761E+01-2.96116E-02 1.95992E-04-1.53715E-01 5.58472E-14-1.66826E-13
 -1      4041 2.01927E+01-1.89920E-02 4.86237E-04-1.50055E-01 3.32685E-14-1.87036E-13
 -1      4042 2.01977E+01-3.02819E-02-4.84057E-04-1.38402E-01 6.70220E-14-1.86309E-13
 -1      4043 2.03965E+01 6.37092E-01-6.36721E-04-7.29843E-02 2.06502E-14-2.35174E-13
 -1      4044 2.03974E+01 4.92544E-01-2.11165E-03-2.32079E-02 2.64630E-14-2.12453E-13
 -1      4045 2.04044E+01 3.71886E-01 1.18225E-03-6.92028E-04 2.52560E-14-1.80119E-13
 -1      4046 2.03908E+01 2.71471E-01-9.16103E-04 3.20748E-02 2.13254E-14-1.74518E-13
 -1      4047 2.04152E+01 4.58661E-01-1.73154E-03-1.26923E-02 4.45531E-14-1.81497E-13
 -1      4048 2.03082E+01 8.61189E-01-1.18247E-03 2.97485E-01 1.26751E-13-1.89147E-13
 -1      4049 1.86611E+01 2.99266E-01-7.79696E-03 1.98307E+00 3.64872E-14 7.17711E-14
 -1      4050 2.03294E+01 1.03558E+00-3.79470E-03 2.20533E-01 1.28428E-13-1.68763E-13
 -1      4051 2.03302E+01 1.10724E+00-9.26352E-04 1.74866E-01 1.31730E-13-2.06148E-13
 -1      4052 1.86706E+01 4.44501E-02 1.16089E-02 2.19094E+00 1.07594E-13 1.73683E-14
 -1      4053 1.72162E+01 8.42850E-01 6.47762E-03-1.47122E+00 7.79747E-14-2.49620E-13
 -1      4054 1.76084E+01 1.25058E-01 4.98698E-03 2.32222E+00 1.45158E-13-3.31310E-14
 -1      4055 2.03744E+01 9.40477E-01 3.57258E-03 1.12057E-01 1.29290E-13-2.01754E-13
 -1      4056 1.96867E+01 4.45261E-01 1.69771E-03-2.62596E-01 3.54340E-14-4.64161E-14
 -1      4057 2.03673E+01 7.94655E-01 1.99038E-03 1.39730E-01 9.64945E-14-2.10587E-13
 -1      4058 1.47527E+01 9.41183E-01-1.97791E-02 9.11859E-01 1.24087E-13 9.91585E-14
 -1      4059 1.63612E+01 9.30002E-01-2.03210E-02-1.15067E+00 1.09824E-13-3.42776E-13
 -1      4060 1.58546E+01 8.63960E-01-1.95296E-02 1.01392E+00 1.33591E-13-2.04141E-13
 -1      4061 1.62937E+01 7.31248E-01 2.23437E-02 1.53411E+00 5.75503E-14-2.49957E-13
 -1      4062 1.70347E+01 3.26611E-01-1.77192E-02 2.03812E+00 9.13948E-14-1.77658E-13
 -1      4063 2.03144E+01 1.17857E+00-1.40085E-03-1.93384E-01 3.22578E-14-2.73607E-13
 -1      4064 1.88407E+01-1.95214E+00 3.28674E-02-3.53288E+00-3.19828E-13-3.30831E-13
 -1      4065 1.43208E+01 9.55481E-01 2.82689E-02-9.32802E-01 2.85431E-14-1.45897E-13
 -1      4066 1.54143E+01 9.02656E-01 1.47751E-02-1.17073E+00 1.72223E-14-1.63202E-13
 -1      4067 1.45414E+01 1.06978E+00-1.07828E-02-1.28593E-01 8.34992E-14 3.21115E-14
 -1      4068 2.02400E+01-5.06342E-03-4.82175E-04-1.31104E-01 1.76284E-14-1.95056E-13
 -1      4069 2.00788E+01 1.92980E-02-1.13254E-04-1.48704E-01 3.21187E-14-1.24726E-14
 -1      4070 2.00310E+01 8.30085E-02 4.43718E-04-1.43021E-01-2.42283E-14-1.13559E-14
 -1      4071 2.00508E+01 5.59499E-02-5.32635E-04-1.35250E-01 9.07004E-15-2.92461E-15
 -1      4072 2.00136E+01 1.06384E-01 2.71597E-04-1.24744E-01-2.59121E-15-5.88546E-15
 -1      4073 2.01241E+01-5.22462E-03 4.20459E-04-1.24665E-01 3.68834E-14-7.94306E-15
 -1      4074 2.01435E+01-1.87960E-02-8.41951E-05-1.22417E-01 2.34436E-14-5.44504E-14
 -1      4075 1.56274E+01 1.01610E+00 1.43614E-03-4.44709E-01 1.42095E-13-3.25171E-13
 -1      4076 2.03786E+01 6.20387E-01-7.95516E-04 9.00872E-02 7.81636E-14-2.15974E-13
 -1      4077 2.03830E+01 7.16744E-01 7.96955E-04 9.47972E-02 9.18346E-14-2.11994E-13
 -1      4078 2.03789E+01 4.80537E-01-7.44661E-04 3.33580E-02 9.01010E-14-2.11139E-13
 -1      4079 2.01690E+01-2.78625E-02 3.46066E-04-1.21806E-01 1.91639E-14-8.69963E-14
 -1      4080 2.01896E+01-3.26290E-02 2.16083E-04-1.19890E-01 5.17464E-14-1.10045E-13
 -1      4081 2.01714E+01-2.19326E-02-4.13025E-04-1.02652E-01 2.58514E-15-7.78883E-14
 -1      4082 2.03957E+01 8.35678E-01-2.27986E-03-1.11600E-02 5.05532E-14-1.97438E-13
 -1      4083 2.03915E+01 8.38099E-01-3.14139E-03-4.10095E-02 4.56391E-14-2.19495E-13
 -1      4084 2.03046E+01 3.99461E-02-3.62901E-04-1.01702E-01 3.63215E-14-2.09643E-13
 -1      4085 2.03268E+01 8.16547E-02 7.16462E-04-8.81138E-02 4.90975E-14-2.03516E-13
 -1      4086 2.03440E+01 1.35383E-01-6.98935E-04-7.58673E-02 3.23167E-14-2.04577E-13
 -1      4087 2.03630E+01 2.03897E-01 6.96262E-04-5.15885E-02 3.87691E-14-2.09652E-13
 -1      4088 2.03623E+01 1.24107E-01-2.11249E-04-6.52066E-02 4.52740E-14-2.06596E-13
 -1      4089 2.03940E+01 8.20234E-01-2.84553E-03 4.61373E-02 1.19684E-13-1.56365E-13
 -1      4090 2.03972E+01 8.36858E-01-1.57747E-03 1.32022E-02 7.89478E-14-1.63557E-13
 -1      4091 2.04267E+01 6.94942E-01 4.07862E-03 5.08507E-05 7.41711E-14-1.53976E-13
 -1      4092 2.04057E+01 2.51928E-01 2.40139E-04 2.87121E-02 3.17299E-14-1.85941E-13
 -1      4093 1.55719E+01 1.04063E+00 5.33275E-03 1.62186E-01 1.69599E-13-2.35401E-13
 -1      4094 2.03889E+01 7.52480E-01-1.79673E-03 8.71355E-02 9.91513E-14-2.22148E-13
 -1      4095 2.03955E+01 7.95219E-01-1.95059E-04 6.14026E-02 1.14879E-13-1.98342E-13
 -1      4096 2.04241E+01 6.61534E-01 3.52281E-03 3.01476E-02 8.68403E-14-1.74656E-13
 -1      4097 2.04068E+01 5.91123E-01 7.53542E-04 4.15024E-02 7.88654E-14-2.32218E-13
 -1      4098 2.03601E+01 1.00323E+00 1.71084E-03-1.36058E-01 3.82965E-14-2.57498E-13
 -1      4099 2.03985E+01 1.42564E-01 2.85082E-04 3.24692E-02 2.08328E-14-1.90306E-13
 -1      4100 2.03787E+01 8.54761E-02-1.96629E-04 4.31471E-02-1.15086E-14-1.68297E-13
 -1      4101 2.03054E+01-1.13329E-02 1.18956E-04 5.09994E-02-5.19788E-15-1.75780E-13
 -1      4102 2.02791E+01-2.41139E-02 1.46807E-04 5.46365E-02-1.99049E-14-1.55750E-13
 -1      4103 2.02509E+01-2.97848E-02 1.53131E-04 5.47327E-02-4.15902E-14-1.36724E-13
 -1      4104 2.02244E+01-2.88420E-02 3.31249E-04 5.69412E-02-1.67285E-14-1.61122E-13
 -1      4105 2.02721E+01-2.49448E-02-4.44319E-04 3.08213E-02-2.22746E-14-2.43159E-13
 -1      4106 2.01945E+01-2.22290E-02-2.15152E-05 5.60780E-02 1.42868E-14-1.36483E-13
 -1      4107 2.01676E+01-9.95827E-03 3.21208E-04 5.81717E-02-8.04156E-15-1.01810E-13
 -1      4108 2.02158E+01-2.47358E-02-4.98647E-04 3.13626E-02 4.73796E-15-2.51074E-13
 -1      4109 2.01366E+01 6.43988E-03-1.43554E-04 5.80429E-02-4.33148E-14-9.16101E-14
 -1      4110 2.01089E+01 2.75969E-02 2.67240E-04 6.07558E-02-7.28878E-14-6.08360E-14
 -1      4111 2.01563E+01-3.51252E-04-3.38158E-04 3.26856E-02-7.16930E-15-1.97624E-13
 -1      4112 2.00762E+01 5.20203E-02-3.32901E-04 6.15301E-02-6.70423E-14-2.79167E-14
 -1      4113 2.00465E+01 8.08925E-02 1.34780E-04 6.55024E-02-2.50978E-14-1.04262E-14
 -1      4114 2.00948E+01 4.25728E-02 1.08244E-05 3.45945E-02-2.48823E-14-7.38064E-14
 -1      4115 2.00111E+01 1.12494E-01-4.43969E-04 6.75156E-02 2.86671E-14-7.48226E-15
 -1      4116 1.99777E+01 1.47942E-01-8.42332E-05 7.31755E-02 4.27427E-14 5.13400E-14
 -1      4117 2.00293E+01 1.01003E-01 5.46181E-04 3.77975E-02 1.11975E-14-3.54947E-14
 -1      4118 1.99369E+01 1.86564E-01-7.86633E-04 7.67506E-02 3.16329E-14 5.35134E-14
 -1      4119 1.98985E+01 2.28903E-01-1.54101E-04 8.49597E-02 2.82458E-14 8.94915E-14
 -1      4120 1.99551E+01 1.75121E-01 1.17030E-03 4.25628E-02 3.84900E-14-1.64087E-14
 -1      4121 1.98502E+01 2.73489E-01-1.11404E-03 9.00258E-02 2.54276E-14 1.23999E-13
 -1      4122 1.98041E+01 3.22202E-01-3.77197E-04 1.00844E-01 5.26532E-14 1.52460E-13
 -1      4123 1.98700E+01 2.62158E-01 2.05374E-03 4.92842E-02 4.44286E-14 1.78758E-15
 -1      4124 1.97456E+01 3.72887E-01-1.45562E-03 1.07716E-01-2.49245E-14 1.35583E-13
 -1      4125 1.96887E+01 4.27552E-01-6.56379E-04 1.21370E-01-3.77799E-14 1.21486E-13
 -1      4126 1.97676E+01 3.62246E-01 3.01390E-03 5.79698E-02-2.18947E-14 7.22590E-14
 -1      4127 1.96167E+01 4.83708E-01-1.86135E-03 1.30129E-01-5.89968E-14 1.23896E-13
 -1      4128 1.95456E+01 5.43502E-01-1.01012E-03 1.46735E-01-6.46254E-14 1.16093E-13
 -1      4129 1.96422E+01 4.74486E-01 4.16860E-03 6.86405E-02-7.09624E-14-3.15986E-14
 -1      4130 1.94562E+01 6.03969E-01-2.35098E-03 1.57400E-01-3.12550E-14 1.15743E-13
 -1      4131 1.93670E+01 6.67364E-01-1.45845E-03 1.77004E-01-1.25130E-14 5.61038E-14
 -1      4132 1.94868E+01 5.97207E-01 5.58836E-03 8.09858E-02-4.88226E-14-6.85678E-14
 -1      4133 1.92557E+01 7.30130E-01-2.96777E-03 1.89560E-01-6.15458E-14 1.04164E-14
 -1      4134 1.91435E+01 7.94635E-01-2.02973E-03 2.12257E-01-1.01131E-13-4.63200E-14
 -1      4135 1.92930E+01 7.27449E-01 7.37732E-03 9.44834E-02-7.08375E-14-1.36301E-13
 -1      4136 1.90045E+01 8.56564E-01-3.79695E-03 2.26731E-01-8.16558E-14 1.79161E-14
 -1      4137 1.88635E+01 9.18509E-01-2.76857E-03 2.52927E-01-6.57727E-14-1.42925E-16
 -1      4138 1.90511E+01 8.60548E-01 9.70748E-03 1.08419E-01-4.94410E-14-9.97665E-14
 -1      4139 1.86891E+01 9.75138E-01-5.00121E-03 2.69558E-01-9.98833E-14-2.13498E-14
 -1      4140 1.85118E+01 1.02958E+00-3.75502E-03 3.00521E-01-7.72909E-14-2.58336E-14
 -1      4141 1.87483E+01 9.89927E-01 1.28720E-02 1.22000E-01-7.17475E-14-7.87840E-14
 -1      4142 1.82906E+01 1.07510E+00-6.87949E-03 3.20120E-01 1.16393E-14-8.15530E-14
 -1      4143 1.80665E+01 1.11586E+00-5.11268E-03 3.59097E-01 3.18096E-14-1.19907E-15
 -1      4144 1.83673E+01 1.10725E+00 1.73496E-02 1.34540E-01-7.52225E-14-2.50913E-14
 -1      4145 1.77802E+01 1.14349E+00-9.96361E-03 3.84026E-01 3.53903E-14-5.39586E-15
 -1      4146 1.74939E+01 1.16184E+00-7.37306E-03 4.39440E-01 6.85342E-14 3.86898E-14
 -1      4147 1.78811E+01 1.20297E+00 2.36271E-02 1.45528E-01 3.03713E-14-3.31714E-14
 -1      4148 1.71055E+01 1.16817E+00-1.57731E-02 4.73053E-01 4.40113E-14 6.90064E-14
 -1      4149 1.66965E+01 1.15374E+00-2.16166E-02 5.82957E-01 2.99264E-14 9.46794E-14
 -1      4150 1.72376E+01 1.26393E+00 2.90680E-02 1.51097E-01 8.08006E-14-1.28974E-13
 -1      4151 1.87863E+01 8.91041E-01-5.29201E-05-5.64694E-01-8.68530E-14-1.56452E-14
 -1      4152 1.89072E+01 8.51841E-01-5.44999E-03-4.97445E-01-7.19937E-16-4.45824E-16
 -1      4153 1.92834E+01 7.09677E-01-4.34645E-04-3.49433E-01 6.00181E-14-4.07912E-14
 -1      4154 1.93689E+01 6.53861E-01-3.18193E-03-3.07710E-01 1.15036E-13 3.84366E-14
 -1      4155 1.98420E+01 2.87641E-01-6.52862E-05-1.41763E-01-6.07478E-14-1.35937E-13
 -1      4156 1.98811E+01 2.42802E-01-1.07195E-03-1.26607E-01-5.16810E-15-1.34669E-13
 -1      4157 1.94680E+01 5.99662E-01-4.04329E-04-2.76289E-01 6.35731E-14 5.26760E-15
 -1      4158 1.95385E+01 5.43174E-01-2.46527E-03-2.43149E-01 7.38803E-14 3.07723E-14
 -1      4159 1.93774E+01 6.67967E-01 5.94402E-03-2.14343E-01 5.15219E-14 1.82292E-15
 -1      4160 1.84598E+01 9.33500E-01 5.80619E-04-7.25351E-01-5.99544E-14 3.16623E-14
 -1      4161 1.85996E+01 9.14276E-01-7.35518E-03-6.37356E-01-1.22756E-13-5.53301E-15
 -1      4162 1.85857E+01 9.91419E-01 1.33378E-02-4.61848E-01-9.19703E-14 2.40568E-14
 -1      4163 1.80695E+01 9.15929E-01 1.57129E-03-9.43990E-01 4.17688E-14 1.46782E-13
 -1      4164 1.82276E+01 9.27943E-01-1.02435E-02-8.24773E-01-2.86771E-17 9.13403E-14
 -1      4165 1.81931E+01 1.04993E+00 1.78401E-02-6.08015E-01-8.37874E-14 3.97004E-14
 -1      4166 1.76087E+01 8.14327E-01 5.96216E-03-1.25205E+00 3.03481E-14 1.27077E-13
 -1      4167 1.77759E+01 8.70215E-01-1.43298E-02-1.08288E+00 9.73763E-14 2.05795E-13
 -1      4168 1.77075E+01 1.05587E+00 2.39064E-02-8.11455E-01 4.36602E-14 9.65005E-14
 -1      4169 1.70759E+01 5.58202E-01 9.55786E-03-1.71294E+00-4.26855E-14 7.87579E-14
 -1      4170 1.72213E+01 6.91500E-01-2.42538E-02-1.46942E+00-2.07803E-14 1.55013E-13
 -1      4171 1.70728E+01 9.95484E-01 2.83902E-02-1.10840E+00 5.89751E-14 8.31674E-14
 -1      4172 1.64455E+01 4.04391E-01-9.93913E-03-1.99891E+00-2.86485E-14-1.67921E-14
 -1      4173 2.03775E+01 8.49126E-01-3.25445E-04-9.40157E-02 3.07786E-14-2.33421E-13
 -1      4174 1.97415E+01 3.84173E-01-1.93641E-04-1.75123E-01-5.51238E-15-1.40504E-13
 -1      4175 1.97888E+01 3.34143E-01-1.45368E-03-1.54947E-01-7.78546E-14-1.37932E-13
 -1      4176 1.98019E+01 3.29358E-01 2.34738E-03-1.06454E-01-3.58420E-14-1.73371E-13
 -1      4177 1.61564E+01 7.67640E-01 2.47765E-02-1.54472E+00 5.43727E-14-1.04710E-13
 -1      4178 2.03957E+01 8.00421E-01 9.09685E-04-6.07971E-02 5.04939E-14-2.23016E-13
 -1      4179 2.02825E+01 9.66357E-03 5.25450E-04-1.07727E-01-9.75907E-15-2.11973E-13
 -1      4180 2.03198E+01 3.32180E-02-3.40336E-04-8.53254E-02 2.94246E-15-1.84360E-13
 -1      4181 2.02603E+01-1.20152E-02 1.19708E-05-1.14523E-01-1.72937E-14-1.83513E-13
 -1      4182 2.04258E+01 3.00190E-01-8.33041E-04 1.06809E-02 3.27634E-14-1.70979E-13
 -1      4183 2.04126E+01 2.13488E-01-7.16515E-04 2.70719E-02 2.43100E-14-1.86655E-13
 -1      4184 2.04152E+01 1.90645E-01 5.36750E-04 1.60812E-02 1.79361E-14-1.94282E-13
 -1      4185 1.54134E+01 1.06763E+00-4.41685E-05 3.75736E-01 3.60711E-14 6.34128E-14
 -1      4186 2.00787E+01 3.24946E-02 4.48540E-04-1.30888E-01 3.78038E-14-2.75621E-14
 -1      4187 2.00978E+01 1.16920E-02-3.15220E-04-1.26525E-01 7.63092E-14 1.30471E-14
 -1      4188 2.01213E+01 5.91022E-03-1.44208E-04-1.05884E-01 4.68919E-14 3.30209E-14
 -1      4189 2.00693E+01 4.94507E-02 5.31977E-05-1.12606E-01 1.72546E-14-1.36758E-14
 -1      4190 1.96187E+01 4.89307E-01-3.12799E-04-2.19214E-01 1.18074E-14-3.59378E-14
 -1      4191 1.96764E+01 4.35130E-01-1.90501E-03-1.93116E-01 2.73935E-15-5.81805E-14
 -1      4192 1.95491E+01 5.48369E-01 4.50444E-03-1.68036E-01-7.66295E-15-2.38175E-14
 -1      4193 1.99254E+01 2.01611E-01 6.84005E-05-1.17312E-01-4.89344E-15-1.11856E-13
 -1      4194 1.99588E+01 1.62515E-01-6.86560E-04-1.06308E-01 1.19660E-14-7.92999E-14
 -1      4195 1.98952E+01 2.35397E-01 1.46957E-03-8.72546E-02 1.76853E-14-1.10604E-13
 -1      4196 2.03695E+01 2.75687E-01-8.26656E-04-3.40096E-02 6.23649E-14-2.32916E-13
 -1      4197 2.03814E+01 3.76025E-01 1.92633E-04 4.49199E-03 7.97787E-14-2.40707E-13
 -1      4198 2.03984E+01 4.42474E-01 4.94929E-04 1.59360E-02 8.79312E-14-2.33258E-13
 -1      4199 2.03900E+01 2.59942E-01 1.97478E-04-3.29988E-02 3.61590E-14-2.34047E-13
 -1      4200 1.90584E+01 8.10867E-01-3.47680E-04-4.43201E-01-1.58781E-15-1.16098E-14
 -1      4201 1.91609E+01 7.60199E-01-4.13305E-03-3.90573E-01-3.50037E-14-2.73365E-15
 -1      4202 1.91656E+01 7.87591E-01 7.75592E-03-2.74998E-01 3.60676E-14 8.34295E-14
 -1      4203 2.02146E+01-3.22469E-02 1.94612E-04-1.20057E-01 7.27535E-14-1.51444E-13
 -1      4204 2.02358E+01-2.53642E-02 2.76922E-04-1.16895E-01 3.31894E-14-1.48671E-13
 -1      4205 2.02227E+01-3.11010E-02-5.41501E-04-1.00501E-01 1.87642E-14-6.82305E-14
 -1      4206 2.03560E+01 4.25473E-02 1.90133E-04 4.44216E-02-3.62750E-14-1.44483E-13
 -1      4207 2.03321E+01 1.09693E-02 1.89203E-04 5.12362E-02-1.46972E-14-1.44670E-13
 -1      4208 2.03280E+01 2.99890E-03-6.04056E-04 2.84290E-02-3.15876E-14-1.76679E-13
 -1      4209 2.03771E+01 7.05751E-02-4.94124E-04 2.34544E-02-3.10668E-15-1.41081E-13
 -1      4210 2.04257E+01 6.45934E-01 4.06424E-03-3.25420E-02 5.14557E-14-2.03207E-13
 -1      4211 2.04240E+01 5.04507E-01-3.65512E-04-9.91483E-03 5.46275E-14-1.88981E-13
 -1      4212 2.04310E+01 5.58848E-01-1.92146E-03-8.14717E-03 6.06998E-14-1.77596E-13
 -1      4213 2.04347E+01 4.00669E-01 1.98797E-03 2.81985E-03 4.36750E-14-1.72379E-13
 -1      4214 2.04367E+01 3.53485E-01-2.20709E-04 2.69653E-03 4.53894E-14-1.67044E-13
 -1      4215 2.04302E+01 5.58090E-01-2.26011E-03 7.22563E-03 8.92548E-14-1.25409E-13
 -1      4216 1.59474E+01 1.13464E+00-4.06104E-03 2.76358E-01 1.83317E-14 1.01595E-13
 -1      4217 1.61549E+01 1.22059E+00 2.92381E-02-1.91676E-01 8.76808E-14-2.41127E-14
 -1      4218 1.89052E+01 8.99119E-01 1.01209E-02-3.54923E-01-2.98845E-14-3.98780E-14
 -1      4219 1.59300E+01 9.54626E-01-3.42341E-02-9.83015E-01 1.25599E-13-2.98186E-14
 -1      4220 2.01719E+01-1.66545E-02 2.95179E-04-7.99908E-02 1.32538E-14-3.93902E-14
 -1      4221 2.01983E+01-2.67770E-02 2.48588E-04-7.79835E-02 3.12531E-14-3.71003E-14
 -1      4222 1.99737E+01 1.51580E-01 6.72099E-05-7.31015E-02 8.28787E-15-7.87458E-14
 -1      4223 1.99964E+01 1.27035E-01 1.08855E-04-1.00563E-01 1.09149E-14-8.32517E-14
 -1      4224 2.00256E+01 9.43493E-02-4.56839E-04-9.29908E-02 2.07194E-14-4.19201E-14
 -1      4225 1.96884E+01 4.34338E-01 3.32905E-03-1.32826E-01-4.23205E-14-1.59066E-13
 -1      4226 2.01167E+01 1.65567E-02 3.01632E-04-8.31689E-02 5.43874E-14-3.66264E-14
 -1      4227 2.01424E+01-2.15634E-03-3.88633E-05-8.01896E-02 2.61416E-14-5.80422E-14
 -1      4228 2.01643E+01-8.07708E-03-5.32104E-04-5.65802E-02 2.68566E-14-1.22170E-13
 -1      4229 2.02716E+01-1.46726E-02-4.36838E-04-9.54680E-02 9.80199E-15-1.61378E-13
 -1      4230 2.03282E+01 1.93808E-02-8.92047E-05-6.93357E-02-2.10972E-14-1.62374E-13
 -1      4231 2.03529E+01 5.46527E-02 7.34102E-04-6.03057E-02 5.21438E-15-1.73931E-13
 -1      4232 2.03720E+01 1.00708E-01-6.43167E-04-5.67046E-02 3.53192E-14-1.76277E-13
 -1      4233 2.03917E+01 1.62497E-01 3.55664E-04-4.23060E-02 1.18085E-14-2.03557E-13
 -1      4234 2.03764E+01 8.35041E-02-9.55840E-04-4.03226E-02 1.74303E-14-1.90184E-13
 -1      4235 2.02918E+01-2.27450E-02 1.80894E-04 5.87451E-03-4.84144E-14-1.69594E-13
 -1      4236 2.02641E+01-2.95539E-02 4.89547E-04 6.75814E-03-1.78744E-14-1.85331E-13
 -1      4237 2.02228E+01-2.65265E-02 1.14472E-04-1.21910E-02-1.20499E-14-1.47929E-13
 -1      4238 2.01940E+01-1.80062E-02 4.40745E-04-1.08248E-02 3.58681E-15-1.63081E-13
 -1      4239 2.01644E+01-4.45921E-03 1.87780E-04-1.24089E-02 2.77874E-14-1.46668E-13
 -1      4240 2.01335E+01 1.34857E-02 2.36381E-04-1.14981E-02 2.60342E-14-9.28449E-14
 -1      4241 2.00453E+01 8.33801E-02-4.06414E-04 6.12397E-03-1.14859E-15-3.50393E-14
 -1      4242 2.00098E+01 1.16089E-01-3.70171E-04 8.27598E-03 5.41055E-15-4.09266E-14
 -1      4243 1.99617E+01 1.62235E-01-5.15946E-04-1.87218E-02 6.24074E-16-9.22698E-14
 -1      4244 1.99203E+01 2.02331E-01-7.97289E-04-1.73344E-02 2.02105E-15-1.35781E-13
 -1      4245 1.98755E+01 2.44966E-01-1.30271E-03-2.37262E-02 4.50917E-14-1.20212E-13
 -1      4246 1.98267E+01 2.92022E-01-1.37789E-03-2.19970E-02 7.33011E-15-9.35381E-14
 -1      4247 1.97731E+01 3.40391E-01-1.96450E-03-3.08516E-02-3.95645E-14-7.30718E-14
 -1      4248 1.97140E+01 3.93685E-01-2.03631E-03-2.89519E-02-4.17420E-14-1.09822E-13
 -1      4249 1.96485E+01 4.47140E-01-2.71511E-03-4.08962E-02-8.35956E-14-8.89035E-14
 -1      4250 1.95756E+01 5.05918E-01-2.84825E-03-3.91173E-02-9.29969E-14-9.09144E-14
 -1      4251 1.94948E+01 5.63243E-01-3.61515E-03-5.49610E-02-5.88146E-14-6.41677E-14
 -1      4252 1.94041E+01 6.26163E-01-3.88238E-03-5.37206E-02-2.90057E-14-1.13039E-13
 -1      4253 1.93043E+01 6.85314E-01-4.72496E-03-7.46168E-02-5.19875E-17-2.18703E-14
 -1      4254 1.91909E+01 7.50158E-01-5.23677E-03-7.45102E-02 2.51939E-14-1.74538E-14
 -1      4255 1.90675E+01 8.07963E-01-6.14368E-03-1.02172E-01-3.99238E-15 3.05759E-14
 -1      4256 1.89255E+01 8.71427E-01-7.06937E-03-1.04001E-01-3.55200E-14-3.14867E-14
 -1      4257 1.87731E+01 9.23342E-01-8.03985E-03-1.41075E-01-7.30199E-14-2.08398E-14
 -1      4258 1.85941E+01 9.80926E-01-9.63660E-03-1.45882E-01-9.60948E-14-1.21049E-14
 -1      4259 1.84055E+01 1.02086E+00-1.06744E-02-1.96542E-01-1.32346E-13 4.23112E-14
 -1      4260 1.81780E+01 1.06692E+00-1.33133E-02-2.05800E-01-8.99169E-14 2.87740E-14
 -1      4261 1.79436E+01 1.08723E+00-1.42651E-02-2.76517E-01-1.53217E-14 5.72751E-14
 -1      4262 1.76502E+01 1.11537E+00-1.82765E-02-2.93351E-01 5.24017E-15-3.67970E-14
 -1      4263 1.73604E+01 1.10977E+00-1.67987E-02-3.90927E-01 3.43120E-14-1.58237E-14
 -1      4264 1.69769E+01 1.10238E+00-2.56095E-02-4.19843E-01 1.20897E-13-3.39930E-14
 -1      4265 2.02788E+01-2.07325E-02 2.03398E-04-7.45827E-02 3.62214E-15-1.27591E-13
 -1      4266 2.03040E+01-5.40496E-03 5.17548E-04-7.03035E-02-9.91571E-16-1.47475E-13
 -1      4267 2.03303E+01 1.09989E-02-7.95580E-04-4.89949E-02-1.55056E-14-1.65851E-13
 -1      4268 2.02344E+01-2.69662E-02-5.54365E-04-3.67550E-02-3.69887E-14-6.48580E-14
 -1      4269 1.66565E+01 1.09676E+00-6.70172E-04-5.48363E-01 1.74493E-13-3.20518E-14
 -1      4270 2.00590E+01 6.50259E-02 2.25007E-04-8.94554E-02 2.19234E-14-5.92334E-14
 -1      4271 2.00858E+01 3.87823E-02-2.69497E-04-8.46907E-02 3.78645E-14-3.62037E-14
 -1      4272 2.01053E+01 3.05420E-02-2.16843E-04-5.95936E-02 5.95376E-14-9.69255E-14
 -1      4273 2.00428E+01 8.46621E-02 1.75400E-04-6.46597E-02 5.97001E-15-8.98213E-14
 -1      4274 2.02400E+01-3.00417E-02-2.49633E-05-6.09997E-02-2.17239E-14-8.56203E-14
 -1      4275 2.02663E+01-2.63619E-02 3.51678E-04-5.85161E-02-1.28913E-14-1.14589E-13
 -1      4276 2.04281E+01 2.24401E-01 8.68072E-04 3.72601E-04 1.24047E-14-1.75808E-13
 -1      4277 2.04127E+01 1.47680E-01-4.65638E-04 6.34057E-03 7.18002E-15-1.77502E-13
 -1      4278 2.01024E+01 3.59380E-02 7.45831E-06-1.34952E-02 5.01076E-15-9.94213E-14
 -1      4279 2.00699E+01 6.23792E-02 1.58844E-04-1.27705E-02 1.31769E-14-6.58993E-14
 -1      4280 2.03361E+01 6.52593E-03 1.90528E-04-1.14838E-02-4.32067E-14-1.22160E-13
 -1      4281 2.03618E+01 3.56149E-02 6.48695E-04-7.37162E-03 3.32255E-15-1.64025E-13
 -1      4282 2.04122E+01 3.65705E-01 1.47124E-04-9.11547E-03 7.21018E-14-2.37406E-13
 -1      4283 2.04128E+01 4.67544E-01-5.53988E-04 2.00166E-02 7.86365E-14-2.32748E-13
 -1      4284 2.04195E+01 5.02991E-01-1.32122E-03 1.82891E-02 6.73144E-14-2.37885E-13
 -1      4285 2.02920E+01-2.08886E-02-5.06393E-04-3.61433E-02-4.39930E-14-1.07190E-13
 -1      4286 2.04266E+01 5.31506E-01-2.08528E-04 1.28004E-02 7.31327E-14-1.74045E-13
 -1      4287 2.04377E+01 4.25766E-01 2.07600E-03 2.27581E-03 5.08885E-14-1.62886E-13
 -1      4288 1.99829E+01 1.44515E-01 3.99604E-04-5.01209E-02-6.27619E-15-1.14487E-13
 -1      4289 2.04322E+01 3.08621E-01-8.79215E-06-2.89641E-03 2.54444E-14-1.53232E-13
 -1      4290 2.04005E+01 2.15048E-01-2.00653E-04-3.67957E-02 1.10053E-14-2.06468E-13
 -1      4291 2.04103E+01 2.90710E-01 2.43553E-05-1.86266E-02 2.99111E-14-2.13248E-13
 -1      4292 2.04220E+01 3.15820E-01-6.69593E-04-1.33078E-02 1.87592E-14-1.90006E-13
 -1      4293 2.04072E+01 1.93874E-01 4.41508E-04-2.81343E-02 3.44270E-15-2.04107E-13
 -1      4294 2.03842E+01 7.73177E-02 3.18513E-04-1.07935E-02 1.77790E-14-1.69449E-13
 -1      4295 2.03894E+01 1.06215E-01-2.88494E-04-2.60046E-02 2.23347E-14-1.96076E-13
 -1      4296 2.03087E+01-1.38008E-02 4.26146E-04-9.84527E-03-5.81464E-14-1.51469E-13
 -1      4297 2.00521E+01 7.62636E-02-2.09066E-04-4.33530E-02-2.26340E-15-1.08124E-13
 -1      4298 2.04335E+01 3.43309E-01 8.00514E-05-6.86227E-03 2.16871E-14-1.63324E-13
 -1      4299 2.04103E+01 1.61737E-01 6.23635E-04-2.14171E-02 2.16234E-14-1.97501E-13
 -1      4300 2.00200E+01 1.07534E-01 3.49918E-04-4.58859E-02-5.28995E-15-9.84662E-14
 -1      4301 2.04208E+01 2.12534E-01-2.22848E-04-1.54353E-02 6.02234E-16-1.77328E-13
 -3
    1PSTEP                         3           1           1          
  100CL  101 1.000000000        4301                     0    1           1
 -4  TOSTRAIN    6    1
 -5  EXX         1    4    1    1
 -5  EYY         1    4    2    2
 -5  EZZ         1    4    3    3
 -5  EXY         1    4    1    2
 -5  EYZ         1    4    2    3
 -5  EZX         1    4    3    1
 -1         1 1.48904E-04-4.25620E-06-5.54946E-05-1.12818E-04 5.67936E-19-1.83256E-18
 -1         2 3.56139E-05-1.11388E-04 2.04216E-05-5.61924E-07-2.33980E-18-3.60492E-19
 -1         3 9.51145E-05-2.87025E-05-2.83169E-05-1.29957E-07-2.06572E-18-2.16481E-18
 -1         4 9.50981E-05-2.87149E-05-2.82784E-05 1.37598E-07 1.49486E-18-2.90642E-19
 -1         5 1.43333E-04-2.14772E-05-4.25226E-05 3.85308E-05-2.26846E-19 1.44225E-17
 -1         6 1.45397E-04 2.57531E-10-4.41818E-05-5.35260E-05-9.68159E-19 1.00920E-17
 -1         7 9.05936E-05-5.10464E-07-3.90627E-05-2.92566E-05-1.39760E-19-1.79465E-19
 -1         8 8.51133E-05 8.67499E-08-3.63350E-05-2.02791E-05-1.17685E-19-2.80822E-18
 -1         9 8.28071E-05 7.69552E-08-3.53485E-05-1.56516E-05-1.00122E-19-3.99521E-18
 -1        10 8.17750E-05 3.86466E-08-3.48816E-05-1.20891E-05-3.46423E-20-4.45603E-18
 -1        11 8.12577E-05 1.93831E-08-3.46545E-05-9.02236E-06-1.60407E-20-4.55118E-18
 -1        12 8.09920E-05 9.07365E-09-3.45419E-05-6.29125E-06 7.60179E-21-4.38657E-18
 -1        13 8.08534E-05 4.42939E-09-3.44853E-05-3.68996E-06 2.24199E-20-4.19109E-18
 -1        14 8.07957E-05 2.55833E-09-3.44623E-05-1.18515E-06 5.35686E-20-3.99367E-18
 -1        15 8.07978E-05 2.54807E-09-3.44630E-05 1.29042E-06 7.31856E-20-3.74116E-18
 -1        16 8.08599E-05 4.35103E-09-3.44876E-05 3.80035E-06 8.47521E-20-3.53235E-18
 -1        17 8.10039E-05 8.26344E-09-3.45456E-05 6.41384E-06 9.51853E-20-3.16435E-18
 -1        18 8.12748E-05 1.80705E-08-3.46598E-05 9.16481E-06 1.24726E-19-2.63427E-18
 -1        19 8.17967E-05 3.81595E-08-3.48897E-05 1.22681E-05 1.70088E-19-1.83909E-18
 -1        20 8.28302E-05 8.15876E-08-3.53611E-05 1.58807E-05 1.92594E-19-5.09447E-19
 -1        21 8.50794E-05 1.69697E-07-3.63731E-05 2.04908E-05 2.09270E-19 1.80013E-18
 -1        22 9.16312E-05-9.90760E-08-3.87343E-05 2.80041E-05 1.55642E-20 5.99893E-18
 -1        23 1.12958E-04-3.81207E-05-3.53917E-05-4.40423E-06-6.46101E-19 6.86764E-18
 -1        24 9.27830E-05-2.76905E-05-2.89929E-05 3.90839E-07-1.89524E-19 4.10983E-18
 -1        25 8.90930E-05-2.68442E-05-2.69214E-05 3.75820E-07-1.19250E-19 1.36092E-18
 -1        26 8.79850E-05-2.64793E-05-2.63823E-05 2.03883E-07-3.80966E-20-5.40301E-19
 -1        27 8.80056E-05-2.64558E-05-2.63727E-05 1.39529E-07-1.11284E-19-1.99857E-18
 -1        28 8.85328E-05-2.65902E-05-2.65404E-05 1.00422E-07-8.60524E-20-2.87805E-18
 -1        29 8.92807E-05-2.68009E-05-2.67709E-05 7.45938E-08 8.20801E-20-3.47131E-18
 -1        30 9.00988E-05-2.70387E-05-2.70190E-05 5.61077E-08-5.86867E-20-3.70755E-18
 -1        31 9.09032E-05-2.72757E-05-2.72617E-05 4.21430E-08-4.30736E-20-4.62064E-18
 -1        32 9.16492E-05-2.74970E-05-2.74866E-05 3.12692E-08-3.33123E-19-5.92015E-18
 -1        33 9.23164E-05-2.76957E-05-2.76879E-05 2.26908E-08 3.78549E-19-6.83883E-18
 -1        34 9.29006E-05-2.78704E-05-2.78644E-05 1.59184E-08-8.06286E-20-6.00677E-18
 -1        35 9.34094E-05-2.80229E-05-2.80183E-05 1.06276E-08-6.46730E-20-6.09697E-18
 -1        36 9.38583E-05-2.81578E-05-2.81543E-05 6.59990E-09-1.57000E-19-6.25212E-18
 -1        37 9.42695E-05-2.82818E-05-2.82791E-05 3.70154E-09-4.94399E-20-6.71031E-18
 -1        38 9.46708E-05-2.84030E-05-2.84012E-05 1.88054E-09-9.58577E-20-6.78053E-18
 -1        39 9.50957E-05-2.85316E-05-2.85305E-05 1.17434E-09-1.39537E-20-7.05025E-18
 -1        40 9.55840E-05-2.86793E-05-2.86792E-05 1.72498E-09-2.30229E-19-7.23893E-18
 -1        41 9.61820E-05-2.88602E-05-2.88612E-05 3.80069E-09 1.13217E-19-9.29053E-18
 -1        42 9.69441E-05-2.90903E-05-2.90931E-05 7.82242E-09-9.11653E-20-8.77811E-18
 -1        43 9.79329E-05-2.93884E-05-2.93935E-05 1.43904E-08-2.80565E-19-7.37356E-18
 -1        44 9.92183E-05-2.97752E-05-2.97836E-05 2.42969E-08 4.12322E-19-6.08223E-18
 -1        45 1.00875E-04-3.02727E-05-3.02855E-05 3.84883E-08-1.08445E-19-5.21840E-18
 -1        46 1.02973E-04-3.09017E-05-3.09199E-05 5.78975E-08 6.32979E-20-6.28776E-18
 -1        47 1.05565E-04-3.16768E-05-3.17004E-05 8.29816E-08-1.81790E-19-5.44873E-18
 -1        48 1.08652E-04-3.25978E-05-3.26244E-05 1.12675E-07 2.64018E-19-5.76568E-18
 -1        49 1.12133E-04-3.36346E-05-3.36564E-05 1.42340E-07-8.16769E-20-6.12338E-18
 -1        50 1.15734E-04-3.47053E-05-3.47056E-05 1.60377E-07-3.24791E-19-7.06897E-18
 -1        51 1.18912E-04-3.56494E-05-3.56010E-05 1.44239E-07-1.04573E-19-7.09701E-18
 -1        52 1.20789E-04-3.62084E-05-3.60798E-05 5.98401E-08 4.34535E-19-4.84240E-18
 -1        53 1.20220E-04-3.60432E-05-3.58205E-05-1.27661E-07-5.66174E-19-6.26697E-18
 -1        54 1.16135E-04-3.48333E-05-3.45604E-05-4.20736E-07 3.97781E-19-6.14170E-18
 -1        55 1.08296E-04-3.24967E-05-3.23067E-05-7.28090E-07-4.47370E-19-6.34144E-18
 -1        56 9.81895E-05-2.94685E-05-2.95259E-05-8.54641E-07 1.02187E-19-7.02569E-18
 -1        57 8.91865E-05-2.67573E-05-2.71261E-05-6.14837E-07 8.63874E-20-4.62615E-18
 -1        58 8.51321E-05-2.55324E-05-2.60614E-05-4.87287E-08 8.98087E-20-5.87231E-18
 -1        59 8.79173E-05-2.63737E-05-2.67806E-05 5.48807E-07 3.25274E-19-4.72102E-18
 -1        60 9.60727E-05-2.88314E-05-2.89320E-05 8.39746E-07-4.82962E-19-1.59851E-18
 -1        61 1.05832E-04-3.17582E-05-3.15881E-05 7.51708E-07 3.35595E-19-2.31470E-18
 -1        62 1.13621E-04-3.40801E-05-3.38051E-05 4.52954E-07 3.17621E-20-4.00869E-18
 -1        63 1.17667E-04-3.52781E-05-3.50385E-05 1.46557E-07-3.90772E-19-3.44672E-18
 -1        64 1.18001E-04-3.53716E-05-3.52231E-05-6.36512E-08-6.53241E-20-4.23880E-18
 -1        65 1.15618E-04-3.46610E-05-3.45950E-05-1.68687E-07 1.87813E-19-2.39592E-18
 -1        66 1.11698E-04-3.34958E-05-3.34820E-05-2.01072E-07 1.04548E-19-2.69452E-18
 -1        67 1.07208E-04-3.21613E-05-3.21746E-05-1.94941E-07 2.31409E-19-2.06623E-18
 -1        68 1.02836E-04-3.08597E-05-3.08902E-05-1.70563E-07-3.85424E-19-3.50559E-18
 -1        69 9.90733E-05-2.97360E-05-2.97889E-05-1.30582E-07 3.93597E-19-3.24054E-18
 -1        70 9.63543E-05-2.89145E-05-2.89958E-05-4.66129E-08 4.38437E-19-8.80683E-20
 -1        71 9.50913E-05-2.84999E-05-2.85672E-05 7.78535E-08-7.59941E-19 2.02850E-18
 -1        72 1.02162E-04-3.05822E-05-3.41447E-05-1.92813E-06 1.53207E-19 1.37172E-17
 -1        73 9.25396E-05-2.75067E-05-2.89011E-05-3.33018E-07 1.15266E-19 1.13654E-17
 -1        74 8.90808E-05-2.66937E-05-2.69647E-05-1.25774E-07 6.35142E-20 9.31073E-18
 -1        75 8.80148E-05-2.64300E-05-2.64264E-05-9.54045E-08 7.46282E-21 7.98044E-18
 -1        76 8.80402E-05-2.64358E-05-2.63994E-05-7.63361E-08-4.48075E-20 7.24218E-18
 -1        77 8.85667E-05-2.65847E-05-2.65575E-05-6.21435E-08 4.71956E-20 6.85427E-18
 -1        78 8.93120E-05-2.68022E-05-2.67832E-05-5.11824E-08 1.17555E-19 6.28819E-18
 -1        79 9.01266E-05-2.70432E-05-2.70284E-05-4.20761E-08-1.10512E-20 5.39304E-18
 -1        80 9.09274E-05-2.72816E-05-2.72691E-05-3.41518E-08-9.16142E-20 5.02776E-18
 -1        81 9.16700E-05-2.75033E-05-2.74924E-05-2.71381E-08 2.33969E-19 4.68167E-18
 -1        82 9.23340E-05-2.77019E-05-2.76925E-05-2.09147E-08-4.10887E-20 5.02470E-18
 -1        83 9.29156E-05-2.78761E-05-2.78681E-05-1.54067E-08 2.00203E-20 4.27438E-18
 -1        84 9.34223E-05-2.80280E-05-2.80215E-05-1.05510E-08 1.81477E-19 3.60590E-18
 -1        85 9.38696E-05-2.81622E-05-2.81572E-05-6.29183E-09-1.26935E-19 3.57193E-18
 -1        86 9.42796E-05-2.82854E-05-2.82819E-05-2.58842E-09 1.10924E-19 2.62872E-18
 -1        87 9.46798E-05-2.84058E-05-2.84039E-05 5.70083E-10-1.71676E-19 1.78720E-18
 -1        88 9.51029E-05-2.85330E-05-2.85331E-05 3.14431E-09-2.28733E-19 2.27945E-18
 -1        89 9.55870E-05-2.86787E-05-2.86808E-05 5.01837E-09 4.80948E-19 4.87952E-19
 -1        90 9.61758E-05-2.88556E-05-2.88604E-05 5.96599E-09-4.54198E-19-2.52636E-19
 -1        91 9.69186E-05-2.90786E-05-2.90866E-05 5.60806E-09-1.90791E-20 1.11109E-18
 -1        92 9.78692E-05-2.93637E-05-2.93756E-05 3.36285E-09-2.15483E-19 1.14468E-18
 -1        93 9.90840E-05-2.97276E-05-2.97440E-05-1.60283E-09 1.16435E-19 1.68043E-18
 -1        94 1.00616E-04-3.01858E-05-3.02073E-05-1.03953E-08 1.51273E-20-1.84208E-19
 -1        95 1.02504E-04-3.07499E-05-3.07761E-05-2.43240E-08-1.59291E-19 2.51198E-20
 -1        96 1.04755E-04-3.14215E-05-3.14505E-05-4.46034E-08-1.61226E-19 1.63239E-18
 -1        97 1.07314E-04-3.21845E-05-3.22110E-05-7.15821E-08-2.70809E-19 4.70723E-18
 -1        98 1.10022E-04-3.29922E-05-3.30055E-05-1.03145E-07 2.16744E-19 4.22032E-18
 -1        99 1.12567E-04-3.37528E-05-3.37346E-05-1.32011E-07-5.64108E-20 1.56941E-18
 -1       100 1.14434E-04-3.43158E-05-3.42420E-05-1.42389E-07-9.47552E-20 1.88455E-18
 -1       101 1.14913E-04-3.44725E-05-3.43212E-05-1.08636E-07-4.75091E-20 1.61578E-18
 -1       102 1.13226E-04-3.39897E-05-3.37617E-05-2.05519E-09 2.79269E-19 2.74286E-18
 -1       103 1.08838E-04-3.26999E-05-3.24460E-05 1.86860E-07-2.86287E-20 3.39669E-18
 -1       104 1.01961E-04-3.06481E-05-3.04802E-05 4.13995E-07 6.27408E-20 3.72157E-18
 -1       105 9.39803E-05-2.82314E-05-2.82783E-05 5.68068E-07 5.21341E-19 1.83065E-18
 -1       106 8.73273E-05-2.61820E-05-2.64920E-05 5.23730E-07-3.94549E-19 7.36760E-19
 -1       107 8.44927E-05-2.52793E-05-2.57458E-05 2.50624E-07 1.64018E-19-1.93343E-18
 -1       108 8.66036E-05-2.58979E-05-2.63070E-05-1.28449E-07 9.98407E-21-3.82382E-18
 -1       109 9.26830E-05-2.77496E-05-2.79314E-05-4.21451E-07 8.00008E-21-1.08955E-18
 -1       110 1.00273E-04-3.00700E-05-3.00032E-05-5.15119E-07 8.40006E-20-1.83796E-18
 -1       111 1.06854E-04-3.20755E-05-3.18574E-05-4.32397E-07-4.71951E-19-8.14210E-19
 -1       112 1.10917E-04-3.33051E-05-3.30557E-05-2.68263E-07-1.66157E-19 4.07441E-18
 -1       113 1.12156E-04-3.36732E-05-3.34706E-05-1.06388E-07 3.36813E-19 2.99137E-18
 -1       114 1.11064E-04-3.33376E-05-3.32072E-05 1.33627E-08-5.56552E-20 1.36452E-20
 -1       115 1.08439E-04-3.25434E-05-3.24779E-05 8.66281E-08-2.79999E-19-2.99969E-20
 -1       116 1.05052E-04-3.15237E-05-3.15065E-05 1.24936E-07 4.58695E-19 1.53295E-18
 -1       117 1.01535E-04-3.04664E-05-3.04874E-05 1.40778E-07-2.80814E-19-1.96608E-18
 -1       118 9.83982E-05-2.95211E-05-2.95811E-05 1.38803E-07 1.58462E-19-5.54541E-18
 -1       119 9.61091E-05-2.88264E-05-2.89198E-05 9.98771E-08-7.93505E-19-5.25359E-18
 -1       120 9.51051E-05-2.84870E-05-2.85628E-05-3.28139E-08 8.80615E-19-2.29564E-18
 -1       121 9.52566E-05-2.86247E-05-2.85723E-05-7.70385E-08-2.66153E-18 7.84279E-19
 -1       122 9.49401E-05-2.76086E-05-2.89368E-05 4.99717E-08 8.74882E-19 6.77621E-19
 -1       123 9.42634E-05-2.53474E-05-2.95904E-05 1.18800E-07 2.54502E-18-5.41581E-19
 -1       124 9.33690E-05-2.23525E-05-3.04557E-05 1.46637E-07-1.57231E-18-1.20247E-18
 -1       125 9.24016E-05-1.91033E-05-3.14015E-05 1.48789E-07-2.84671E-18-4.65272E-19
 -1       126 9.15090E-05-1.60971E-05-3.22786E-05 1.32045E-07-5.83833E-18 9.54900E-19
 -1       127 9.07837E-05-1.36575E-05-3.29893E-05 9.56396E-08-2.13503E-18 9.93994E-19
 -1       128 9.03498E-05-1.21967E-05-3.34133E-05 4.34020E-08-7.59856E-19-6.07859E-19
 -1       129 9.02771E-05-1.19515E-05-3.34826E-05-1.76036E-08-2.45420E-19 2.78384E-18
 -1       130 9.05848E-05-1.29860E-05-3.31794E-05-7.77576E-08 1.92268E-18 1.08837E-18
 -1       131 9.12333E-05-1.51702E-05-3.25419E-05-1.29000E-07-5.24957E-18-2.61375E-18
 -1       132 9.21181E-05-1.81462E-05-3.16751E-05-1.58753E-07-9.22315E-18 1.39680E-18
 -1       133 9.31385E-05-2.15748E-05-3.06811E-05-1.67466E-07-2.26427E-18-6.33335E-19
 -1       134 9.41208E-05-2.48832E-05-2.97327E-05-1.54816E-07-2.04228E-19-1.27551E-20
 -1       135 9.48844E-05-2.74124E-05-2.89952E-05-9.59686E-08-1.43151E-18-1.44028E-18
 -1       136 9.51952E-05-2.85658E-05-2.85711E-05 1.64173E-07-1.72744E-18 4.93342E-19
 -1       137 2.44866E-05-8.47895E-05 1.50443E-05-2.32045E-05 5.72383E-18 2.93817E-18
 -1       138 6.78400E-06-2.84303E-05 1.68561E-06-1.53145E-05 6.79744E-18 1.93420E-18
 -1       139 1.46272E-05 1.82665E-05-1.71772E-05 2.94437E-05 2.62665E-18 2.31536E-18
 -1       140 6.46573E-05 2.54938E-05-3.67659E-05 8.18374E-05 6.27228E-19 1.98629E-19
 -1       141 1.55278E-04-7.28463E-06-5.66008E-05 1.13548E-04-4.58033E-19 2.12605E-19
 -1       142 2.50857E-04-5.98472E-05-7.11904E-05 9.31008E-05-2.73856E-19-2.25607E-18
 -1       143 3.05274E-04-9.32373E-05-7.83277E-05 2.51986E-05-3.28066E-19-6.86203E-18
 -1       144 2.91405E-04-8.48611E-05-7.64949E-05-5.49359E-05 9.32804E-19-8.34243E-18
 -1       145 2.13265E-04-3.84033E-05-6.58026E-05-1.07991E-04 4.26449E-18-9.30085E-18
 -1       146 1.14742E-04 1.02639E-05-4.88302E-05-1.04903E-04 8.80681E-18-1.17564E-17
 -1       147 3.15113E-05 2.64760E-05-2.57648E-05-5.36072E-05 7.47591E-18-8.20394E-18
 -1       148 6.63129E-06-6.78417E-06-5.76821E-06-1.38473E-06 2.92989E-18-2.47630E-18
 -1       149 1.65078E-05-6.49690E-05 1.11037E-05 2.59470E-05 1.94691E-18 2.04347E-19
 -1       150 3.36440E-05-1.05127E-04 1.90894E-05 1.17262E-05 9.58735E-19 4.05980E-19
 -1       151 3.27841E-05-1.03545E-04 1.87988E-05-1.44436E-05-2.87017E-18-1.08931E-18
 -1       152 1.49287E-05-6.06018E-05 9.98559E-06-2.63679E-05-7.87952E-18-2.55380E-18
 -1       153 5.85465E-06-4.34107E-06-6.52740E-06 1.91560E-06-9.76205E-18-5.39496E-18
 -1       154 3.39157E-05 2.71079E-05-2.70692E-05 5.60568E-05-7.17225E-18-6.95245E-18
 -1       155 1.08026E-04 1.22082E-05-4.72635E-05 1.02297E-04-5.16140E-18-7.81769E-18
 -1       156 2.13431E-04-3.80972E-05-6.59177E-05 1.07945E-04-2.07767E-18-4.66376E-18
 -1       157 2.96234E-04-8.68826E-05-7.73194E-05 5.28306E-05-1.03010E-19-3.38728E-18
 -1       158 3.08026E-04-9.42837E-05-7.87619E-05-3.00325E-05-3.07235E-19-2.56460E-18
 -1       159 2.45882E-04-5.61543E-05-7.07018E-05-9.80589E-05 1.63064E-18-3.90101E-18
 -1       160 5.85161E-05 2.67690E-05-3.52831E-05-7.79148E-05-4.09117E-18 4.26608E-18
 -1       161 1.02140E-05 1.28743E-05-1.38698E-05-2.02589E-05-5.55823E-18 3.27505E-18
 -1       162 8.40273E-06-3.68456E-05 3.95812E-06 1.95696E-05 1.37939E-18 1.61783E-19
 -1       163 2.64107E-05-8.97209E-05 1.60761E-05 2.31423E-05 3.31190E-19-2.74042E-19
 -1       164 9.48547E-05-1.23441E-05-3.55647E-05-2.23556E-05-1.82794E-18-1.33826E-18
 -1       165 8.92346E-05-8.44950E-06-3.47848E-05-1.73943E-05-1.39504E-18-2.79527E-18
 -1       166 8.65525E-05-6.51010E-06-3.44147E-05-1.36033E-05-8.60351E-19-3.53299E-18
 -1       167 8.51943E-05-5.51603E-06-3.42310E-05-1.03760E-05-4.35219E-19-3.80863E-18
 -1       168 8.44554E-05-4.94746E-06-3.41440E-05-7.55425E-06-1.23940E-19-3.76235E-18
 -1       169 8.40325E-05-4.60329E-06-3.41028E-05-4.90865E-06 1.96450E-19-3.62134E-18
 -1       170 8.38168E-05-4.41949E-06-3.40856E-05-2.39773E-06 5.13136E-19-3.41906E-18
 -1       171 8.37533E-05-4.36390E-06-3.40811E-05 5.12270E-08 7.78798E-19-3.21037E-18
 -1       172 8.38268E-05-4.42791E-06-3.40863E-05 2.50225E-06 1.09018E-18-2.95720E-18
 -1       173 8.40545E-05-4.62252E-06-3.41043E-05 5.01968E-06 1.29854E-18-2.78957E-18
 -1       174 8.44834E-05-4.97469E-06-3.41448E-05 7.63099E-06 1.51817E-18-2.37261E-18
 -1       175 8.52541E-05-5.57585E-06-3.42328E-05 1.05215E-05 1.84570E-18-1.75525E-18
 -1       176 8.66442E-05-6.60844E-06-3.44173E-05 1.37929E-05 2.06115E-18-8.17069E-19
 -1       177 8.93831E-05-8.59818E-06-3.47891E-05 1.76320E-05 2.13129E-18 6.90649E-19
 -1       178 9.57656E-05-1.36098E-05-3.54211E-05 2.19014E-05 1.78704E-18 3.39557E-18
 -1       179 1.05588E-04-2.60965E-05-3.52581E-05 1.86686E-05 1.14907E-18 6.74148E-18
 -1       180 1.03382E-04-2.72966E-05-3.26054E-05-1.21343E-05-1.68303E-18 9.53997E-19
 -1       181 9.70873E-05-2.82828E-05-2.95228E-05-4.73695E-06-1.51893E-18 2.73393E-19
 -1       182 9.34835E-05-2.76300E-05-2.81748E-05-1.77471E-06-1.11889E-18-3.67632E-19
 -1       183 9.19441E-05-2.73976E-05-2.76274E-05-4.27834E-07-8.95997E-19-1.09264E-18
 -1       184 9.13640E-05-2.73211E-05-2.74287E-05 2.35875E-07-5.89298E-19-1.45085E-18
 -1       185 9.13184E-05-2.73588E-05-2.74026E-05 5.61656E-07-4.35700E-19-1.63265E-18
 -1       186 9.15589E-05-2.74603E-05-2.74668E-05 7.01096E-07-2.30376E-19-1.79748E-18
 -1       187 9.19413E-05-2.75918E-05-2.75766E-05 7.33978E-07-5.74202E-19-2.06466E-18
 -1       188 9.23804E-05-2.77321E-05-2.77057E-05 7.07041E-07-7.82350E-19-2.11814E-18
 -1       189 9.28266E-05-2.78693E-05-2.78388E-05 6.49852E-07-4.57189E-19-2.12882E-18
 -1       190 9.32540E-05-2.79971E-05-2.79674E-05 5.82101E-07-8.17374E-20-3.25683E-18
 -1       191 9.36523E-05-2.81136E-05-2.80882E-05 5.17432E-07-5.70290E-20-3.75476E-18
 -1       192 9.40222E-05-2.82196E-05-2.82013E-05 4.65740E-07-1.68755E-19-3.53705E-18
 -1       193 9.43729E-05-2.83182E-05-2.83091E-05 4.34704E-07-2.95062E-19-3.05081E-18
 -1       194 9.47201E-05-2.84142E-05-2.84164E-05 4.30870E-07 6.86992E-20-2.61717E-18
 -1       195 9.50848E-05-2.85140E-05-2.85295E-05 4.60450E-07-2.47094E-19-2.63843E-18
 -1       196 9.54933E-05-2.86251E-05-2.86565E-05 5.29883E-07-5.98145E-19-3.18291E-18
 -1       197 9.59773E-05-2.87569E-05-2.88068E-05 6.46152E-07-7.90229E-19-3.48936E-18
 -1       198 9.65730E-05-2.89201E-05-2.89915E-05 8.16797E-07-3.27030E-19-3.41176E-18
 -1       199 9.73221E-05-2.91271E-05-2.92232E-05 1.04946E-06 6.29793E-19-4.10506E-18
 -1       200 9.82701E-05-2.93921E-05-2.95153E-05 1.35068E-06 5.40798E-19-3.58365E-18
 -1       201 9.94644E-05-2.97304E-05-2.98818E-05 1.72340E-06 5.17076E-19-3.73642E-18
 -1       202 1.00950E-04-3.01585E-05-3.03350E-05 2.16235E-06 3.70665E-19-2.46884E-18
 -1       203 1.02761E-04-3.06923E-05-3.08830E-05 2.64622E-06 2.14878E-19-2.43123E-18
 -1       204 1.04906E-04-3.13444E-05-3.15247E-05 3.12498E-06-1.69732E-19-2.05686E-18
 -1       205 1.07347E-04-3.21197E-05-3.22417E-05 3.50200E-06-1.51432E-19-2.40273E-18
 -1       206 1.09966E-04-3.30061E-05-3.29891E-05 3.61306E-06-3.23501E-19-2.65890E-18
 -1       207 1.12528E-04-3.39581E-05-3.36844E-05 3.21399E-06 5.45847E-19-2.24676E-18
 -1       208 1.14641E-04-3.48682E-05-3.42041E-05 2.00608E-06 7.70405E-19-1.84120E-18
 -1       209 1.15751E-04-3.55289E-05-3.43971E-05-2.49019E-07-1.08182E-18-2.44781E-18
 -1       210 1.15227E-04-3.56131E-05-3.41312E-05-3.48234E-06-2.06881E-19-2.22662E-18
 -1       211 1.12586E-04-3.47185E-05-3.33741E-05-6.96338E-06-2.24527E-19-2.82076E-18
 -1       212 1.07976E-04-3.26672E-05-3.22725E-05-9.12362E-06 1.74284E-19-2.74879E-18
 -1       213 1.02647E-04-2.99555E-05-3.11499E-05-8.21467E-06 7.92839E-19-2.52644E-18
 -1       214 9.88181E-05-2.78800E-05-3.04036E-05-3.73103E-06-3.31527E-19-3.05094E-18
 -1       215 9.83904E-05-2.76694E-05-3.03125E-05 2.52328E-06 2.47400E-19-1.90489E-18
 -1       216 1.01542E-04-2.94793E-05-3.08837E-05 7.39475E-06 1.49461E-18-2.17188E-18
 -1       217 1.06472E-04-3.20978E-05-3.18696E-05 8.76534E-06 3.09102E-19 8.68705E-19
 -1       218 1.10911E-04-3.41783E-05-3.28855E-05 6.86857E-06-1.20277E-18-8.44022E-20
 -1       219 1.13441E-04-3.51121E-05-3.35794E-05 3.39197E-06-9.53627E-19-1.59355E-18
 -1       220 1.13778E-04-3.50081E-05-3.37747E-05-2.75903E-08-3.73876E-19-3.43716E-18
 -1       221 1.12335E-04-3.42476E-05-3.34824E-05-2.52886E-06 1.23392E-18-3.14117E-18
 -1       222 1.09756E-04-3.31792E-05-3.28302E-05-3.94875E-06 6.29537E-19-2.13476E-18
 -1       223 1.06638E-04-3.20304E-05-3.19801E-05-4.47135E-06 8.41925E-19-1.39188E-18
 -1       224 1.03447E-04-3.09275E-05-3.10790E-05-4.34776E-06-7.26538E-20-5.32850E-19
 -1       225 1.00515E-04-2.99355E-05-3.02439E-05-3.75839E-06-9.08186E-20-6.27679E-19
 -1       226 9.80818E-05-2.90907E-05-2.95613E-05-2.78322E-06 1.67654E-18-7.50265E-19
 -1       227 9.62586E-05-2.84231E-05-2.90676E-05-1.46924E-06 5.93469E-19-3.10731E-19
 -1       228 9.94821E-05-2.85488E-05-3.05816E-05 7.21641E-06 1.23742E-18 5.83374E-18
 -1       229 9.43941E-05-2.77841E-05-2.85178E-05 2.74883E-06 1.03990E-18 4.81832E-18
 -1       230 9.20702E-05-2.73932E-05-2.76737E-05 9.35132E-07 7.09235E-19 3.92511E-18
 -1       231 9.11174E-05-2.72294E-05-2.73536E-05 7.33780E-08 4.04117E-19 3.29470E-18
 -1       232 9.09016E-05-2.72211E-05-2.72781E-05-3.54268E-07 3.28355E-19 2.96708E-18
 -1       233 9.10814E-05-2.73057E-05-2.73257E-05-5.55187E-07 3.24421E-19 2.60004E-18
 -1       234 9.14623E-05-2.74377E-05-2.74355E-05-6.29189E-07 3.42577E-19 2.37087E-18
 -1       235 9.19307E-05-2.75882E-05-2.75733E-05-6.30781E-07 4.18461E-19 2.14402E-18
 -1       236 9.24204E-05-2.77400E-05-2.77190E-05-5.92937E-07 5.13249E-20 1.62631E-18
 -1       237 9.28947E-05-2.78838E-05-2.78612E-05-5.36966E-07-1.91066E-19 2.27123E-18
 -1       238 9.33364E-05-2.80154E-05-2.79944E-05-4.77250E-07 5.42115E-19 2.21026E-18
 -1       239 9.37420E-05-2.81345E-05-2.81173E-05-4.23873E-07 5.31636E-19 1.85842E-18
 -1       240 9.41172E-05-2.82431E-05-2.82316E-05-3.84255E-07 2.52024E-19 1.07099E-18
 -1       241 9.44752E-05-2.83455E-05-2.83411E-05-3.64259E-07 3.25775E-19 7.92990E-19
 -1       242 9.48350E-05-2.84474E-05-2.84515E-05-3.68955E-07 2.50595E-19 1.47061E-18
 -1       243 9.52206E-05-2.85559E-05-2.85700E-05-4.03134E-07 4.27779E-20 5.32166E-19
 -1       244 9.56606E-05-2.86797E-05-2.87053E-05-4.71584E-07 1.20866E-18 5.07537E-19
 -1       245 9.61880E-05-2.88286E-05-2.88673E-05-5.79078E-07-3.57671E-20-6.49336E-20
 -1       246 9.68394E-05-2.90137E-05-2.90670E-05-7.29994E-07-3.63450E-19-2.69627E-19
 -1       247 9.76544E-05-2.92471E-05-2.93161E-05-9.27381E-07-3.00691E-19 9.86762E-20
 -1       248 9.86725E-05-2.95417E-05-2.96263E-05-1.17119E-06-2.17994E-19 2.03131E-19
 -1       249 9.99289E-05-2.99097E-05-3.00073E-05-1.45525E-06 6.19706E-19 4.43775E-19
 -1       250 1.01447E-04-3.03611E-05-3.04651E-05-1.76253E-06-1.32500E-19-4.15395E-19
 -1       251 1.03225E-04-3.09007E-05-3.09969E-05-2.05809E-06-6.02192E-19-3.50849E-19
 -1       252 1.05219E-04-3.15228E-05-3.15862E-05-2.27999E-06-1.09662E-18 1.55105E-19
 -1       253 1.07317E-04-3.22043E-05-3.21947E-05-2.32986E-06 2.76301E-19 5.46470E-19
 -1       254 1.09313E-04-3.28936E-05-3.27550E-05-2.06908E-06 1.27385E-18 8.92589E-19
 -1       255 1.10882E-04-3.34980E-05-3.31670E-05-1.33363E-06-4.91522E-19 3.08246E-19
 -1       256 1.11591E-04-3.38715E-05-3.33062E-05 1.08973E-08-1.54180E-19 5.70940E-19
 -1       257 1.10963E-04-3.38185E-05-3.30537E-05 1.95352E-06-7.29593E-19 1.15611E-18
 -1       258 1.08655E-04-3.31374E-05-3.23517E-05 4.17522E-06-2.79326E-19 1.61447E-18
 -1       259 1.04731E-04-3.17408E-05-3.12717E-05 5.94274E-06 3.16414E-19 1.16660E-18
 -1       260 9.99440E-05-2.98380E-05-3.00498E-05 6.27238E-06 1.19899E-18 6.84661E-19
 -1       261 9.57384E-05-2.80325E-05-2.90393E-05 4.50033E-06 3.10325E-19 6.56596E-19
 -1       262 9.37103E-05-2.71120E-05-2.85727E-05 9.62109E-07 1.23653E-18-5.68060E-20
 -1       263 9.46946E-05-2.75366E-05-2.88017E-05-2.91956E-06-1.21761E-20-8.30334E-19
 -1       264 9.81848E-05-2.90644E-05-2.96215E-05-5.48679E-06-1.59035E-18 6.31794E-19
 -1       265 1.02671E-04-3.09436E-05-3.07241E-05-5.92178E-06 8.30463E-19 8.95129E-19
 -1       266 1.06561E-04-3.24474E-05-3.17451E-05-4.55813E-06-9.67490E-19 1.78744E-18
 -1       267 1.08884E-04-3.32297E-05-3.24131E-05-2.34079E-06-7.48393E-19 1.70472E-18
 -1       268 1.09416E-04-3.33018E-05-3.26191E-05-1.47216E-07 6.73997E-19 9.63823E-19
 -1       269 1.08436E-04-3.28524E-05-3.23973E-05 1.52900E-06 3.03585E-19 8.27554E-19
 -1       270 1.06430E-04-3.20971E-05-3.18627E-05 2.55193E-06 3.58281E-19 1.18956E-18
 -1       271 1.03895E-04-3.12114E-05-3.11542E-05 2.98305E-06 5.20670E-19-6.15442E-19
 -1       272 1.01252E-04-3.03196E-05-3.04021E-05 2.93641E-06 9.18333E-19-1.85431E-19
 -1       273 9.88397E-05-2.95082E-05-2.97170E-05 2.49781E-06 8.57090E-19 7.37165E-19
 -1       274 9.69266E-05-2.88389E-05-2.91831E-05 1.70194E-06-1.63401E-20-3.12196E-19
 -1       275 9.56785E-05-2.84262E-05-2.88171E-05 6.44576E-07-4.00883E-19-1.51017E-18
 -1       276 9.53323E-05-2.76314E-05-2.90089E-05 1.29202E-06-8.48959E-19 2.33665E-18
 -1       277 9.47742E-05-2.61236E-05-2.94183E-05 2.34768E-06-1.88852E-19 4.76770E-19
 -1       278 9.40391E-05-2.41328E-05-2.99580E-05 3.03641E-06 1.02077E-19-1.43661E-18
 -1       279 9.32357E-05-2.18796E-05-3.05816E-05 3.27755E-06 1.68252E-19-1.27797E-18
 -1       280 9.24511E-05-1.96666E-05-3.11972E-05 3.07955E-06-1.15975E-18-3.03618E-18
 -1       281 9.17502E-05-1.77039E-05-3.17412E-05 2.45613E-06-2.16314E-18 3.68857E-19
 -1       282 9.12453E-05-1.63088E-05-3.21251E-05 1.47122E-06-9.53388E-19 1.76460E-18
 -1       283 9.10164E-05-1.56932E-05-3.22919E-05 2.48773E-07 6.81490E-19-2.14223E-20
 -1       284 9.11067E-05-1.59647E-05-3.22138E-05-1.03697E-06-4.32632E-19 7.48321E-19
 -1       285 9.15095E-05-1.70987E-05-3.18985E-05-2.19228E-06-1.66469E-18-3.38243E-18
 -1       286 9.21546E-05-1.89020E-05-3.13989E-05-3.02943E-06-2.68189E-19-1.18982E-18
 -1       287 9.29754E-05-2.11818E-05-3.07701E-05-3.44370E-06-3.82866E-19 2.88270E-18
 -1       288 9.38529E-05-2.35874E-05-3.01122E-05-3.33415E-06 1.92750E-19 5.88819E-19
 -1       289 9.47006E-05-2.57884E-05-2.95275E-05-2.63428E-06-1.16540E-18-1.19720E-18
 -1       290 9.54942E-05-2.72150E-05-2.92544E-05-2.33109E-06-8.60184E-19-4.46816E-19
 -1       291 1.18899E-05-4.12037E-05 1.02669E-05 1.11828E-05 1.11258E-18 3.03291E-18
 -1       292 2.93250E-05-4.28760E-05 3.33110E-06 2.43315E-05 3.45166E-20-7.14684E-20
 -1       293 5.85078E-05-3.73203E-05-1.05976E-05 3.69531E-05 1.03867E-18-1.40713E-19
 -1       294 9.39664E-05-3.08670E-05-2.72482E-05 4.53300E-05 3.72483E-19-1.73917E-18
 -1       295 1.39896E-04-3.50407E-05-4.39774E-05 4.00571E-05-5.13302E-19-3.34049E-18
 -1       296 1.77515E-04-3.25217E-05-5.95454E-05 3.80261E-05-4.61249E-19-4.14644E-18
 -1       297 2.01582E-04-3.38853E-05-6.86345E-05 1.81576E-05 1.24842E-18-3.18082E-18
 -1       298 2.07916E-04-3.45118E-05-7.08954E-05-4.09873E-06 1.64737E-18-4.37167E-18
 -1       299 1.96464E-04-3.49416E-05-6.59868E-05-2.75931E-05 2.08921E-18-6.86118E-18
 -1       300 1.61491E-04-3.22017E-05-5.35272E-05-3.95206E-05 4.70702E-18-5.36617E-18
 -1       301 1.20606E-04-3.53185E-05-3.61289E-05-4.26497E-05 2.11578E-18-5.32995E-18
 -1       302 7.05768E-05-3.24798E-05-1.73993E-05-4.01733E-05 1.24429E-18-5.50349E-18
 -1       303 4.41765E-05-4.07502E-05-2.82081E-06-3.52123E-05 1.01940E-18-1.62662E-18
 -1       304 1.68176E-05-4.62454E-05 9.49902E-06-1.37922E-05 1.61423E-18-9.68053E-19
 -1       305 9.10956E-06-4.01395E-05 1.10428E-05 3.27113E-07-4.93622E-19-2.85482E-18
 -1       306 1.81735E-05-4.64546E-05 8.92504E-06 1.35586E-05-2.27153E-18-3.05906E-18
 -1       307 4.33276E-05-4.05391E-05-3.00395E-06 3.22771E-05-2.94005E-18-3.18914E-18
 -1       308 7.34947E-05-3.33140E-05-1.82988E-05 3.99306E-05-5.44049E-18-4.02902E-18
 -1       309 1.15957E-04-3.05879E-05-3.61366E-05 4.63734E-05-4.35671E-18-5.37442E-18
 -1       310 1.61114E-04-3.40965E-05-5.27378E-05 3.69381E-05-4.00138E-18-2.60230E-18
 -1       311 1.95799E-04-3.45439E-05-6.60666E-05 2.43044E-05-2.11621E-18-1.79952E-18
 -1       312 2.14670E-04-3.76562E-05-7.19481E-05 2.94612E-06-8.01717E-19-1.70158E-18
 -1       313 2.06343E-04-3.64234E-05-6.91607E-05-2.11380E-05 8.65668E-19-1.41687E-18
 -1       314 1.75407E-04-3.33866E-05-5.85024E-05-3.61652E-05-7.92783E-19-9.09290E-19
 -1       315 1.35658E-04-3.23419E-05-4.32192E-05-4.48504E-05-2.56270E-18-3.06139E-18
 -1       316 9.17112E-05-3.38861E-05-2.51957E-05-4.36986E-05-1.58353E-18 9.73241E-19
 -1       317 5.14770E-05-3.71915E-05-8.01474E-06-3.34445E-05 9.51642E-19 4.27603E-18
 -1       318 2.68080E-05-4.40758E-05 4.71665E-06-2.18094E-05 1.04058E-18-9.86846E-19
 -1       319 1.17024E-05-4.30733E-05 1.09256E-05-8.80896E-06 8.28769E-19-1.33588E-18
 -1       320 9.16254E-05-1.44440E-05-3.31556E-05-1.29911E-05-1.29741E-18-2.33256E-18
 -1       321 9.56978E-05-1.91077E-05-3.28869E-05-1.46452E-05-1.79905E-18-1.53348E-18
 -1       322 8.80104E-05-1.03787E-05-3.33260E-05-8.16206E-06-4.13664E-19-2.98414E-18
 -1       323 8.72025E-05-9.45987E-06-3.33668E-05-5.72399E-06 3.77906E-20-2.92774E-18
 -1       324 8.67466E-05-8.93115E-06-3.33945E-05-3.37060E-06 4.57925E-19-2.77938E-18
 -1       325 8.65434E-05-8.69186E-06-3.34085E-05-1.07372E-06 8.35357E-19-2.52903E-18
 -1       326 8.65520E-05-8.70140E-06-3.34081E-05 1.20477E-06 1.19751E-18-2.35603E-18
 -1       327 8.67739E-05-8.96175E-06-3.33932E-05 3.50380E-06 1.52881E-18-2.28344E-18
 -1       328 8.72422E-05-9.50459E-06-3.33648E-05 5.82097E-06 1.73908E-18-2.03822E-18
 -1       329 8.80757E-05-1.04542E-05-3.33218E-05 8.26212E-06 2.07111E-18-1.43969E-18
 -1       330 8.94838E-05-1.20348E-05-3.32590E-05 1.07723E-05 2.30500E-18-8.52820E-19
 -1       331 9.18964E-05-1.47212E-05-3.31563E-05 1.31780E-05 2.41820E-18 6.02783E-20
 -1       332 9.57926E-05-1.94539E-05-3.28244E-05 1.43843E-05 2.14841E-18 1.75756E-18
 -1       333 9.87758E-05-2.44396E-05-3.19466E-05 1.19053E-05 1.76182E-18 3.37783E-18
 -1       334 9.63727E-05-2.68073E-05-2.97843E-05 5.74898E-06 1.46446E-18 2.63753E-18
 -1       335 9.64212E-05-2.60238E-05-3.01258E-05-6.35422E-06-1.55366E-18-1.03345E-18
 -1       336 9.49021E-05-2.70249E-05-2.90649E-05-2.84454E-06-1.30929E-18-1.02512E-18
 -1       337 9.39229E-05-2.74200E-05-2.84868E-05-9.32169E-07-9.12770E-19-1.16354E-18
 -1       338 9.34024E-05-2.76320E-05-2.81807E-05 1.27861E-07-7.44546E-19-1.27996E-18
 -1       339 9.32095E-05-2.77840E-05-2.80367E-05 6.93847E-07-3.32277E-19-1.26630E-18
 -1       340 9.32271E-05-2.79121E-05-2.79912E-05 9.65244E-07-4.19590E-19-1.37185E-18
 -1       341 9.33694E-05-2.80253E-05-2.80045E-05 1.06032E-06-5.18141E-19-1.28180E-18
 -1       342 9.35787E-05-2.81249E-05-2.80520E-05 1.05353E-06-7.10663E-19-1.17663E-18
 -1       343 9.38183E-05-2.82112E-05-2.81179E-05 9.94048E-07-8.03399E-19-1.41744E-18
 -1       344 9.40672E-05-2.82845E-05-2.81931E-05 9.15574E-07-5.81751E-19-1.46285E-18
 -1       345 9.43155E-05-2.83464E-05-2.82729E-05 8.42057E-07-4.03639E-19-2.16903E-18
 -1       346 9.45621E-05-2.83989E-05-2.83559E-05 7.91303E-07 3.56723E-19-2.01504E-18
 -1       347 9.48120E-05-2.84450E-05-2.84430E-05 7.77450E-07-5.73743E-20-1.24988E-18
 -1       348 9.50753E-05-2.84882E-05-2.85370E-05 8.12719E-07-2.29271E-19-1.85247E-18
 -1       349 9.53663E-05-2.85326E-05-2.86422E-05 9.08644E-07-7.39334E-19-1.48625E-18
 -1       350 9.57032E-05-2.85833E-05-2.87644E-05 1.07683E-06-9.74236E-19-1.58769E-18
 -1       351 9.61072E-05-2.86461E-05-2.89101E-05 1.32923E-06-2.93833E-19-1.62893E-18
 -1       352 9.66031E-05-2.87284E-05-2.90868E-05 1.67773E-06-4.63414E-19-2.09065E-18
 -1       353 9.72182E-05-2.88396E-05-2.93021E-05 2.13280E-06 4.61598E-19-2.52256E-18
 -1       354 9.79818E-05-2.89925E-05-2.95632E-05 2.70066E-06 9.38354E-19-2.05467E-18
 -1       355 9.89247E-05-2.92046E-05-2.98759E-05 3.37808E-06 8.07886E-19-2.34183E-18
 -1       356 1.00077E-04-2.95017E-05-3.02425E-05 4.14362E-06 4.78548E-19-2.35200E-18
 -1       357 1.01469E-04-2.99216E-05-3.06596E-05 4.94386E-06 8.22098E-20-1.93402E-18
 -1       358 1.03125E-04-3.05190E-05-3.11149E-05 5.67319E-06 3.25450E-19-2.26463E-18
 -1       359 1.05062E-04-3.13680E-05-3.15847E-05 6.14814E-06-6.93334E-20-1.89810E-18
 -1       360 1.07282E-04-3.25527E-05-3.20338E-05 6.08258E-06 1.38983E-19-6.78748E-19
 -1       361 1.09740E-04-3.41242E-05-3.24207E-05 5.08401E-06 2.83960E-19-1.38816E-18
 -1       362 1.12275E-04-3.59917E-05-3.27137E-05 2.72002E-06-1.68566E-19-1.80719E-18
 -1       363 1.14496E-04-3.77437E-05-3.29186E-05-1.25690E-06-7.78375E-19-1.71705E-18
 -1       364 1.15691E-04-3.85073E-05-3.31046E-05-6.51725E-06-3.34067E-19-1.85565E-18
 -1       365 1.14854E-04-3.69860E-05-3.33915E-05-1.15188E-05 1.14656E-20-1.26952E-18
 -1       366 1.11620E-04-3.27222E-05-3.38338E-05-1.34315E-05-2.74579E-19-1.30142E-18
 -1       367 1.07426E-04-2.74137E-05-3.43025E-05-9.67496E-06-3.82157E-19-1.57243E-18
 -1       368 1.05140E-04-2.46317E-05-3.45188E-05-1.05024E-06 1.16063E-19-1.12884E-18
 -1       369 1.06738E-04-2.67700E-05-3.42965E-05 8.06028E-06 1.16782E-18-4.50448E-19
 -1       370 1.10620E-04-3.19067E-05-3.37478E-05 1.25299E-05 2.38676E-18 2.29294E-21
 -1       371 1.13853E-04-3.64134E-05-3.32018E-05 1.11941E-05-8.48356E-19-1.32948E-18
 -1       372 1.14752E-04-3.82351E-05-3.28127E-05 6.33940E-06-8.69206E-19-2.17280E-20
 -1       373 1.13511E-04-3.76635E-05-3.25317E-05 8.69558E-07-1.56154E-18 1.78090E-18
 -1       374 1.11058E-04-3.58884E-05-3.22383E-05-3.47250E-06-8.31581E-20 1.38832E-18
 -1       375 1.08183E-04-3.38768E-05-3.18611E-05-6.17542E-06 1.21275E-18 1.07431E-18
 -1       376 1.05329E-04-3.20927E-05-3.13947E-05-7.40603E-06 5.77799E-19 9.81741E-19
 -1       377 1.02692E-04-3.06428E-05-3.08790E-05-7.53329E-06 5.42394E-19 4.44756E-19
 -1       378 1.00342E-04-2.94693E-05-3.03699E-05-6.88237E-06-3.08336E-19 1.26775E-18
 -1       379 9.83134E-05-2.84750E-05-2.99215E-05-5.66187E-06 7.89309E-19 1.93714E-18
 -1       380 9.68095E-05-2.77797E-05-2.95737E-05-4.11552E-06 7.82370E-19 6.73520E-19
 -1       381 9.43502E-05-2.73354E-05-2.86824E-05 2.47711E-06 1.23369E-18 2.20221E-18
 -1       382 9.31409E-05-2.74542E-05-2.81296E-05 7.52467E-07 7.60358E-19 1.55550E-18
 -1       383 9.25842E-05-2.75309E-05-2.78701E-05-1.68572E-07 5.31380E-19 1.18861E-18
 -1       384 9.24400E-05-2.76222E-05-2.77749E-05-6.44934E-07 4.09462E-19 1.05521E-18
 -1       385 9.25413E-05-2.77303E-05-2.77745E-05-8.65131E-07 4.71568E-19 1.03492E-18
 -1       386 9.27779E-05-2.78457E-05-2.78277E-05-9.34894E-07 5.97426E-19 1.04594E-18
 -1       387 9.30796E-05-2.79594E-05-2.79089E-05-9.18722E-07 2.91057E-19 1.11894E-18
 -1       388 9.34038E-05-2.80658E-05-2.80025E-05-8.58327E-07-4.05860E-19 1.00490E-18
 -1       389 9.37269E-05-2.81623E-05-2.80997E-05-7.81860E-07 6.05873E-19 1.19859E-18
 -1       390 9.40388E-05-2.82485E-05-2.81963E-05-7.09032E-07 9.00543E-19 9.45528E-19
 -1       391 9.43390E-05-2.83260E-05-2.82916E-05-6.54247E-07 8.35697E-19 5.27711E-19
 -1       392 9.46341E-05-2.83977E-05-2.83871E-05-6.28670E-07 2.06045E-19 8.16002E-19
 -1       393 9.49366E-05-2.84677E-05-2.84864E-05-6.41642E-07 1.34665E-19 3.65469E-19
 -1       394 9.52634E-05-2.85414E-05-2.85944E-05-7.01610E-07 5.57163E-19 4.13230E-19
 -1       395 9.56354E-05-2.86249E-05-2.87177E-05-8.16625E-07 1.12408E-18-1.71309E-19
 -1       396 9.60773E-05-2.87257E-05-2.88633E-05-9.94358E-07 5.47067E-19 4.56306E-19
 -1       397 9.66163E-05-2.88526E-05-2.90394E-05-1.24150E-06-6.15498E-19-2.57205E-19
 -1       398 9.72822E-05-2.90160E-05-2.92543E-05-1.56229E-06 6.12186E-20 4.52842E-19
 -1       399 9.81048E-05-2.92280E-05-2.95156E-05-1.95582E-06-3.37710E-19-3.32805E-19
 -1       400 9.91120E-05-2.95029E-05-2.98293E-05-2.41154E-06 6.18206E-19-4.42802E-19
 -1       401 1.00325E-04-2.98575E-05-3.01976E-05-2.90232E-06 3.44498E-19-5.80152E-19
 -1       402 1.01752E-04-3.03104E-05-3.06161E-05-3.37455E-06-8.37257E-19-6.84365E-19
 -1       403 1.03380E-04-3.08812E-05-3.10710E-05-3.73562E-06-8.40948E-19-1.66608E-18
 -1       404 1.05158E-04-3.15852E-05-3.15345E-05-3.84129E-06-4.36630E-19-7.42586E-19
 -1       405 1.06984E-04-3.24211E-05-3.19630E-05-3.49076E-06 7.84808E-19 6.87232E-19
 -1       406 1.08680E-04-3.33451E-05-3.22985E-05-2.44619E-06 3.63232E-20 1.30826E-18
 -1       407 1.09971E-04-3.42257E-05-3.24777E-05-5.04729E-07-7.27224E-19 1.73024E-18
 -1       408 1.10478E-04-3.47926E-05-3.24523E-05 2.34641E-06-9.76821E-19 2.48546E-18
 -1       409 1.09779E-04-3.46323E-05-3.22173E-05 5.69864E-06-1.96055E-19 9.78374E-19
 -1       410 1.07607E-04-3.33412E-05-3.18316E-05 8.53487E-06 9.99338E-19 3.21955E-19
 -1       411 1.04220E-04-3.09180E-05-3.14105E-05 9.38142E-06 7.08233E-19 6.16220E-19
 -1       412 1.00698E-04-2.81647E-05-3.10769E-05 7.09745E-06 8.58867E-19 1.74477E-18
 -1       413 9.86463E-05-2.65013E-05-3.09094E-05 1.97377E-06 1.47194E-18 1.42229E-18
 -1       414 9.91557E-05-2.69616E-05-3.09268E-05-3.91789E-06-2.56965E-19 2.79738E-18
 -1       415 1.01865E-04-2.92295E-05-3.11143E-05-7.95089E-06-1.45138E-18 2.72930E-18
 -1       416 1.05273E-04-3.19456E-05-3.14187E-05-8.74196E-06 2.86181E-19 1.47626E-18
 -1       417 1.07885E-04-3.38465E-05-3.17364E-05-6.74326E-06-1.35443E-18 1.11919E-18
 -1       418 1.09010E-04-3.45096E-05-3.19444E-05-3.39426E-06-6.75601E-19 9.13445E-19
 -1       419 1.08688E-04-3.41694E-05-3.19559E-05-4.29158E-08 1.21855E-19-6.97487E-19
 -1       420 1.07310E-04-3.32692E-05-3.17488E-05 2.54561E-06 6.10029E-20 8.40155E-19
 -1       421 1.05314E-04-3.21699E-05-3.13588E-05 4.14714E-06 1.33842E-18 1.85654E-18
 -1       422 1.03058E-04-3.10753E-05-3.08550E-05 4.84079E-06 1.21859E-18 6.51034E-19
 -1       423 1.00806E-04-3.00689E-05-3.03153E-05 4.79656E-06 8.86992E-19 7.35771E-19
 -1       424 9.87407E-05-2.91714E-05-2.98114E-05 4.16188E-06 8.88963E-19 2.18357E-19
 -1       425 9.69909E-05-2.83977E-05-2.93916E-05 3.03959E-06 3.90466E-19 6.18400E-19
 -1       426 9.60645E-05-2.79402E-05-2.91904E-05 2.22395E-06-7.98828E-19 1.17713E-18
 -1       427 9.41082E-05-2.39590E-05-3.00615E-05 5.42422E-06 2.52529E-19-7.77497E-19
 -1       428 9.51040E-05-2.57336E-05-2.97233E-05 4.73533E-06-7.52789E-19-6.99164E-19
 -1       429 9.56803E-05-2.69166E-05-2.94616E-05 3.58566E-06-1.21151E-18 2.50397E-18
 -1       430 9.30895E-05-2.21415E-05-3.04081E-05 5.43759E-06-5.96571E-20-3.72226E-18
 -1       431 9.20964E-05-2.03944E-05-3.07350E-05 4.74491E-06 1.09870E-19-1.49020E-18
 -1       432 9.12682E-05-1.89726E-05-3.09924E-05 3.38199E-06 7.14208E-21 1.80320E-18
 -1       433 9.07381E-05-1.80920E-05-3.11445E-05 1.49771E-06-1.70062E-18 9.27922E-19
 -1       434 9.06113E-05-1.79078E-05-3.11695E-05-6.51771E-07-1.90113E-18 5.08938E-19
 -1       435 9.09250E-05-1.84659E-05-3.10636E-05-2.74331E-06-1.42930E-18-1.03807E-18
 -1       436 9.16170E-05-1.96600E-05-3.08458E-05-4.43121E-06 5.93302E-19-2.81255E-18
 -1       437 9.26080E-05-2.13550E-05-3.05404E-05-5.52064E-06 1.65568E-18 1.88963E-18
 -1       438 9.37612E-05-2.33065E-05-3.01936E-05-5.82218E-06 5.62447E-19 9.38300E-19
 -1       439 9.49586E-05-2.52873E-05-2.98514E-05-5.30489E-06-3.17651E-19-2.09714E-18
 -1       440 6.59227E-05-4.39185E-05-9.36912E-06 4.47484E-05-9.61806E-19-2.45798E-18
 -1       441 1.48132E-05-1.91060E-05 2.12640E-06 4.46598E-07 1.55454E-18 6.36334E-19
 -1       442 3.29783E-05-2.93473E-05-1.41200E-06 3.34415E-05 6.67991E-19 6.19393E-19
 -1       443 1.04732E-04-5.48346E-05-2.13776E-05 4.01488E-05-1.46346E-18-3.39681E-18
 -1       444 1.32425E-04-5.53204E-05-3.31492E-05 2.64440E-05-1.62794E-18-3.47305E-18
 -1       445 8.93636E-05-1.18981E-05-3.32657E-05-1.06562E-05-8.52596E-19-2.86573E-18
 -1       446 1.54004E-04-2.37223E-05-5.59608E-05-2.67199E-06-1.23720E-18-3.40528E-18
 -1       447 1.57905E-04-1.31565E-05-6.19552E-05-4.20398E-07 1.35472E-18-3.05011E-18
 -1       448 1.55016E-04-1.52081E-05-5.98887E-05 3.02873E-06 2.15242E-18-3.25165E-18
 -1       449 1.57039E-04-2.90796E-05-5.47383E-05-2.15368E-07 2.12674E-18-2.90829E-18
 -1       450 1.47108E-04-4.88172E-05-4.21538E-05-1.12369E-05 1.47184E-18-2.83947E-18
 -1       451 1.15615E-04-5.45561E-05-2.63106E-05-3.52090E-05-3.16579E-20-4.60463E-18
 -1       452 8.27037E-05-4.92784E-05-1.43241E-05-4.35056E-05 4.61104E-19-4.12248E-18
 -1       453 3.43247E-05-3.13854E-05-1.42074E-06-3.40000E-05 5.71535E-19-1.21337E-19
 -1       454 1.64406E-05-2.14649E-05 2.27549E-06-1.45931E-05-7.33133E-19-2.07597E-18
 -1       455 1.73109E-05-2.52359E-05 3.16486E-06 1.79420E-05-1.17224E-18-3.99874E-18
 -1       456 4.04293E-05-3.47643E-05-2.62685E-06 3.67651E-05-1.38013E-18-2.61738E-18
 -1       457 8.88987E-05-5.14866E-05-1.59029E-05 4.28611E-05-3.73753E-20-1.87925E-18
 -1       458 1.18562E-04-5.71676E-05-2.64144E-05 3.28984E-05-8.36445E-19-1.07467E-20
 -1       459 1.45622E-04-4.97388E-05-4.10973E-05 1.67676E-05-1.78449E-18 3.73012E-19
 -1       460 1.55064E-04-3.19117E-05-5.28713E-05-3.66395E-06-2.86472E-18 1.62694E-18
 -1       461 1.62142E-04-1.70559E-05-6.19010E-05-2.01856E-06-8.91926E-19-5.79318E-19
 -1       462 1.57461E-04-1.33750E-05-6.16919E-05 1.16706E-06-6.00440E-19 3.93076E-20
 -1       463 1.60224E-04-2.57425E-05-5.74510E-05 2.74281E-07-6.57615E-19 2.50404E-19
 -1       464 1.53630E-04-4.30249E-05-4.72244E-05-1.18176E-05-1.56806E-18-1.29088E-18
 -1       465 1.32282E-04-5.45630E-05-3.33126E-05-2.74754E-05-2.02107E-18-2.91337E-18
 -1       466 9.77495E-05-5.40392E-05-1.88199E-05-4.15716E-05 1.23201E-18 1.00133E-18
 -1       467 5.73006E-05-4.24584E-05-6.62376E-06-4.19792E-05 4.43845E-19 4.10750E-18
 -1       468 2.80619E-05-2.81271E-05 4.22403E-08-2.91931E-05 8.52327E-19-8.09128E-19
 -1       469 1.52221E-04-4.02687E-05-4.79672E-05 4.28108E-06-4.31166E-19-3.41810E-18
 -1       470 2.02741E-05-1.47421E-05-1.84808E-06 3.28996E-06-1.41770E-18-4.24342E-18
 -1       471 6.48122E-05-3.95572E-05-1.04708E-05-4.28816E-05 5.77465E-19-2.79876E-18
 -1       472 9.58080E-05-2.51455E-05-3.02697E-05 6.02801E-06 1.56939E-18 5.35352E-19
 -1       473 8.95563E-05-1.34082E-05-3.26540E-05-3.92953E-06 2.52055E-19-2.55538E-18
 -1       474 9.02579E-05-1.43691E-05-3.25450E-05-5.89186E-06-1.68601E-19-2.66646E-18
 -1       475 8.90624E-05-1.27295E-05-3.27319E-05 5.45971E-08 9.42454E-19-2.19808E-18
 -1       476 8.91968E-05-1.29127E-05-3.27112E-05 2.04822E-06 1.31303E-18-2.01542E-18
 -1       477 8.95886E-05-1.34492E-05-3.26503E-05 4.00335E-06 1.62948E-18-2.00454E-18
 -1       478 9.03078E-05-1.44345E-05-3.25382E-05 5.95949E-06 1.93319E-18-1.55211E-18
 -1       479 9.14493E-05-1.60109E-05-3.23538E-05 7.78903E-06 2.08940E-18-1.03098E-18
 -1       480 9.32303E-05-1.84793E-05-3.20563E-05 9.30521E-06 2.11514E-18-4.96075E-19
 -1       481 9.50993E-05-2.65741E-05-2.93500E-05 2.88501E-06 1.26171E-18 4.89189E-19
 -1       482 9.54689E-05-2.44291E-05-3.04363E-05-5.83978E-06-1.25703E-18-1.54880E-18
 -1       483 1.40027E-04-3.82664E-05-4.40246E-05 9.58487E-06 2.27238E-18-1.07457E-18
 -1       484 1.41453E-04-5.38703E-05-3.77892E-05 3.65936E-06-1.69594E-18-4.17444E-18
 -1       485 9.52662E-05-2.62275E-05-2.95813E-05-2.90631E-06-1.05035E-18-1.10974E-18
 -1       486 9.49084E-05-2.71584E-05-2.90320E-05-1.04166E-06-8.26272E-19-9.13194E-19
 -1       487 9.46324E-05-2.76880E-05-2.86889E-05 8.33844E-08-5.93588E-19-1.00765E-18
 -1       488 9.44772E-05-2.80116E-05-2.84847E-05 7.23332E-07-4.74297E-19-1.14062E-18
 -1       489 9.44249E-05-2.82191E-05-2.83738E-05 1.05039E-06-6.21930E-19-1.38269E-18
 -1       490 9.44459E-05-2.83545E-05-2.83250E-05 1.18145E-06-6.66785E-19-1.49828E-18
 -1       491 9.45143E-05-2.84413E-05-2.83172E-05 1.19682E-06-8.76358E-19-1.27849E-18
 -1       492 9.46110E-05-2.84932E-05-2.83365E-05 1.15259E-06-6.28323E-19-9.85474E-19
 -1       493 9.47238E-05-2.85190E-05-2.83737E-05 1.08878E-06-4.43923E-19-6.70669E-19
 -1       494 9.48467E-05-2.85247E-05-2.84239E-05 1.03469E-06-2.15738E-19-4.00242E-19
 -1       495 9.49778E-05-2.85146E-05-2.84843E-05 1.01271E-06 3.87498E-19-9.07792E-19
 -1       496 9.51193E-05-2.84916E-05-2.85547E-05 1.04108E-06-7.21795E-19-1.07534E-18
 -1       497 9.52760E-05-2.84580E-05-2.86360E-05 1.13573E-06-4.43968E-19-1.11405E-18
 -1       498 9.54550E-05-2.84158E-05-2.87307E-05 1.31165E-06-8.56606E-19-1.06563E-18
 -1       499 9.56655E-05-2.83671E-05-2.88415E-05 1.58357E-06-6.03566E-19-7.23486E-19
 -1       500 9.59183E-05-2.83149E-05-2.89720E-05 1.96593E-06-6.86115E-19-6.83720E-19
 -1       501 9.62260E-05-2.82646E-05-2.91251E-05 2.47202E-06-4.53401E-19-7.54607E-19
 -1       502 9.66037E-05-2.82258E-05-2.93033E-05 3.11196E-06 3.78006E-19-1.76937E-18
 -1       503 9.70697E-05-2.82159E-05-2.95070E-05 3.88880E-06 5.33884E-19-2.56596E-18
 -1       504 9.76487E-05-2.82653E-05-2.97339E-05 4.79226E-06 6.75943E-19-2.02277E-18
 -1       505 9.83776E-05-2.84263E-05-2.99773E-05 5.78879E-06 1.73968E-19-2.29901E-18
 -1       506 9.93145E-05-2.87849E-05-3.02255E-05 6.80679E-06-1.39139E-19-2.84131E-18
 -1       507 1.00554E-04-2.94737E-05-3.04625E-05 7.71570E-06 1.72321E-19-2.51662E-18
 -1       508 1.02241E-04-3.06784E-05-3.06714E-05 8.29853E-06 6.28507E-19-1.97550E-18
 -1       509 1.04579E-04-3.26143E-05-3.08461E-05 8.22052E-06 3.25817E-19-1.65722E-18
 -1       510 1.07776E-04-3.54266E-05-3.10148E-05 7.00253E-06-1.82783E-19-1.56483E-18
 -1       511 1.11867E-04-3.89211E-05-3.12731E-05 4.05858E-06-3.66123E-19-1.06094E-18
 -1       512 1.16369E-04-4.21726E-05-3.18147E-05-9.70088E-07-5.25236E-19 4.02931E-19
 -1       513 1.19986E-04-4.32214E-05-3.29398E-05-7.98155E-06-3.61124E-19-2.05180E-19
 -1       514 1.20150E-04-3.94025E-05-3.46377E-05-1.40631E-05-1.74103E-19-3.60281E-19
 -1       515 1.16591E-04-3.00256E-05-3.71692E-05-1.57670E-05 2.97600E-19 2.08569E-19
 -1       516 1.10998E-04-2.03799E-05-3.91124E-05-7.91676E-06-3.39687E-19 2.94463E-19
 -1       517 1.11270E-04-2.03617E-05-3.91531E-05 5.06997E-06 5.88172E-19 1.78563E-19
 -1       518 1.15489E-04-2.84805E-05-3.74189E-05 1.37676E-05 1.51763E-18-8.46490E-19
 -1       519 1.19582E-04-3.81149E-05-3.49793E-05 1.37446E-05-3.38261E-19-2.56266E-18
 -1       520 1.19717E-04-4.29192E-05-3.29337E-05 7.73355E-06-7.51080E-22-1.82932E-18
 -1       521 1.16371E-04-4.25013E-05-3.16735E-05 6.14959E-07 2.62757E-19-1.14223E-18
 -1       522 1.11736E-04-3.93858E-05-3.10198E-05-4.92017E-06-3.00216E-19 1.43971E-18
 -1       523 1.07367E-04-3.57683E-05-3.06944E-05-8.27493E-06 3.82895E-19 2.01115E-18
 -1       524 1.03853E-04-3.27164E-05-3.04920E-05-9.79747E-06 1.60528E-19 6.08660E-20
 -1       525 1.01187E-04-3.04560E-05-3.03148E-05-1.00181E-05 2.83675E-19 9.77430E-19
 -1       526 9.91630E-05-2.88362E-05-3.01388E-05-9.36515E-06 8.25686E-19 1.52324E-19
 -1       527 9.75663E-05-2.76082E-05-2.99782E-05-8.10298E-06 4.92724E-19-4.60577E-19
 -1       528 6.04008E-05-3.40304E-05-1.08320E-05 4.01683E-05-9.12360E-19-3.46013E-18
 -1       529 9.41283E-05-2.76807E-05-2.84740E-05-1.10986E-07 6.72010E-19-2.22662E-19
 -1       530 9.39526E-05-2.79253E-05-2.82961E-05-7.24349E-07 4.24791E-19-1.95951E-19
 -1       531 9.39251E-05-2.80941E-05-2.82130E-05-1.02943E-06 5.42681E-19-9.39453E-20
 -1       532 9.39940E-05-2.82168E-05-2.81904E-05-1.14493E-06 1.64834E-19 3.78528E-20
 -1       533 9.41201E-05-2.83074E-05-2.82058E-05-1.14951E-06 1.67402E-19 4.32963E-19
 -1       534 9.42767E-05-2.83736E-05-2.82446E-05-1.09685E-06 4.93863E-19-2.56211E-19
 -1       535 9.44478E-05-2.84206E-05-2.82978E-05-1.02453E-06 8.09746E-19-4.63570E-19
 -1       536 9.46256E-05-2.84524E-05-2.83603E-05-9.59642E-07 9.52215E-19-1.47426E-19
 -1       537 9.48088E-05-2.84724E-05-2.84300E-05-9.22509E-07 4.16627E-19-3.25583E-19
 -1       538 9.50005E-05-2.84837E-05-2.85072E-05-9.29222E-07 3.59960E-19-2.08049E-19
 -1       539 9.52082E-05-2.84896E-05-2.85934E-05-9.93398E-07 3.35811E-19-1.35110E-19
 -1       540 9.54422E-05-2.84938E-05-2.86916E-05-1.12724E-06 6.97759E-19-4.57855E-19
 -1       541 9.57155E-05-2.85005E-05-2.88056E-05-1.34198E-06 7.07647E-19 7.84250E-19
 -1       542 9.60437E-05-2.85156E-05-2.89395E-05-1.64755E-06 1.02031E-19 5.40333E-19
 -1       543 9.64445E-05-2.85471E-05-2.90974E-05-2.05132E-06-4.43586E-19 7.58869E-20
 -1       544 9.69378E-05-2.86070E-05-2.92829E-05-2.55566E-06 2.80798E-19 3.94700E-19
 -1       545 9.75459E-05-2.87130E-05-2.94978E-05-3.15363E-06 4.89214E-19-3.47638E-19
 -1       546 9.82936E-05-2.88921E-05-2.97415E-05-3.82249E-06 3.28650E-19-1.22691E-19
 -1       547 9.92097E-05-2.91835E-05-3.00095E-05-4.51422E-06 4.25863E-19-6.57024E-20
 -1       548 1.00328E-04-2.96435E-05-3.02925E-05-5.14279E-06 2.20743E-20-1.34162E-18
 -1       549 1.01688E-04-3.03455E-05-3.05759E-05-5.56906E-06-1.03346E-18-8.05620E-19
 -1       550 1.03330E-04-3.13720E-05-3.08422E-05-5.58703E-06-4.13564E-19-9.07869E-19
 -1       551 1.05278E-04-3.27821E-05-3.10761E-05-4.92127E-06 2.17801E-20-5.77949E-19
 -1       552 1.07490E-04-3.45362E-05-3.12760E-05-3.25740E-06-1.25102E-18-4.06248E-19
 -1       553 1.09762E-04-3.63647E-05-3.14687E-05-3.46573E-07-1.29006E-18 6.26711E-19
 -1       554 1.11608E-04-3.76203E-05-3.17206E-05 3.76111E-06 7.19813E-21 1.05118E-18
 -1       555 1.12234E-04-3.72890E-05-3.21267E-05 8.34667E-06 9.69729E-20 2.61479E-19
 -1       556 1.10874E-04-3.44750E-05-3.27450E-05 1.17068E-05-1.82086E-19 2.71874E-18
 -1       557 1.07694E-04-2.95521E-05-3.34961E-05 1.15217E-05-8.10893E-20 3.86103E-18
 -1       558 1.04385E-04-2.48395E-05-3.41088E-05 6.54396E-06 1.18298E-18 5.11593E-18
 -1       559 1.03422E-04-2.35758E-05-3.42413E-05-1.54716E-06 5.46707E-19 4.88801E-18
 -1       560 1.05551E-04-2.67339E-05-3.37912E-05-8.61105E-06-8.91469E-20 3.47198E-18
 -1       561 1.08950E-04-3.19493E-05-3.30064E-05-1.13394E-05-9.77111E-20 3.35224E-18
 -1       562 1.11234E-04-3.60548E-05-3.22252E-05-9.50041E-06 8.60936E-19 3.35131E-18
 -1       563 1.11422E-04-3.76312E-05-3.16343E-05-5.16907E-06-5.53959E-19 7.30504E-19
 -1       564 1.09905E-04-3.70422E-05-3.12402E-05-4.99536E-07 5.46680E-19 4.19888E-19
 -1       565 1.07533E-04-3.53265E-05-3.09586E-05 3.24763E-06-6.37241E-19 8.35788E-19
 -1       566 1.04975E-04-3.33432E-05-3.07088E-05 5.67553E-06 9.15487E-19 5.90622E-19
 -1       567 1.02581E-04-3.15421E-05-3.04504E-05 6.86856E-06 1.47449E-18 1.40128E-18
 -1       568 1.00466E-04-3.00439E-05-3.01815E-05 7.06708E-06 1.09810E-18 9.23714E-19
 -1       569 9.86385E-05-2.88080E-05-2.99231E-05 6.50615E-06 1.48662E-18 8.92927E-19
 -1       570 9.70433E-05-2.77537E-05-2.96890E-05 5.35005E-06-6.96617E-19 2.88194E-18
 -1       571 9.24741E-05-2.24948E-05-2.99935E-05 6.85719E-06 1.70606E-18-2.46841E-18
 -1       572 9.10612E-05-2.09032E-05-3.00710E-05 5.52958E-06 8.72196E-19-5.03566E-19
 -1       573 9.53907E-05-2.58431E-05-2.98038E-05 6.83518E-06-2.96432E-19-6.66916E-19
 -1       574 9.39645E-05-2.41942E-05-2.99017E-05 7.26872E-06 1.62381E-20-3.01994E-18
 -1       575 8.99666E-05-1.96862E-05-3.01244E-05 3.36836E-06-7.36378E-19 1.10445E-18
 -1       576 8.94103E-05-1.90784E-05-3.01470E-05 6.37361E-07-8.62146E-19-5.81162E-19
 -1       577 8.95320E-05-1.92185E-05-3.01390E-05-2.25091E-06-1.29762E-18 1.66566E-18
 -1       578 9.03028E-05-2.00689E-05-3.01041E-05-4.79329E-06 7.79564E-20-1.45533E-18
 -1       579 9.16121E-05-2.15067E-05-3.00479E-05-6.68455E-06 1.99075E-18-1.17182E-18
 -1       580 9.32247E-05-2.32872E-05-2.99742E-05-7.63460E-06 7.25618E-19-1.59411E-19
 -1       581 9.49723E-05-2.51823E-05-2.99088E-05-7.51803E-06-1.15290E-18-4.36654E-19
 -1       582 3.19033E-05-1.61676E-05-6.08381E-06-1.74230E-05-7.82870E-19-7.77417E-19
 -1       583 9.45061E-05-2.72893E-05-2.87986E-05 9.94050E-07 9.93740E-19 1.43228E-19
 -1       584 9.96270E-05-5.37335E-05-1.93751E-05 3.93577E-05-1.62419E-18-5.53915E-18
 -1       585 1.27067E-04-6.11804E-05-2.82373E-05 2.48789E-05-2.59391E-18-3.84942E-18
 -1       586 1.38438E-04-3.21730E-05-4.60458E-05-1.16534E-05-7.93405E-19-2.00784E-18
 -1       587 5.64532E-05-3.41631E-05-9.11207E-06-3.98952E-05 3.10385E-19 2.52760E-18
 -1       588 1.33337E-04-1.31477E-05-5.21180E-05-8.18451E-06 2.35793E-19-2.40174E-18
 -1       589 9.45870E-05-2.07536E-05-3.16616E-05-9.44480E-06-1.37837E-18-1.90183E-18
 -1       590 8.91768E-05-1.28875E-05-3.27135E-05-1.93957E-06 6.57517E-19-2.36354E-18
 -1       591 1.32335E-04-8.10079E-06-5.38623E-05 2.79947E-06 1.75929E-18-2.42746E-18
 -1       592 1.34632E-04-5.90556E-05-3.24860E-05-1.46373E-05-6.78659E-19-3.30475E-18
 -1       593 1.36366E-04-2.31510E-05-4.91061E-05 1.23986E-05 9.18872E-19-1.96559E-18
 -1       594 1.43776E-04-4.60489E-05-4.22497E-05-6.00456E-06-9.75914E-19 2.10853E-18
 -1       595 1.11081E-04-5.75626E-05-2.28074E-05-3.42324E-05-3.46754E-19-2.49703E-18
 -1       596 3.56641E-05-2.09656E-05-5.70029E-06-2.75747E-05-1.22529E-18-1.14709E-18
 -1       597 3.89754E-05-2.22680E-05-6.55685E-06 2.93094E-05-1.39178E-19-1.89852E-18
 -1       598 7.32876E-05-4.06979E-05-1.35683E-05 4.09744E-05 1.21126E-18-9.19110E-19
 -1       599 1.15706E-04-5.92022E-05-2.40307E-05 3.05762E-05 1.09903E-18 2.90601E-18
 -1       600 1.37316E-04-5.98908E-05-3.32884E-05 1.24101E-05 1.90979E-19 2.60177E-18
 -1       601 1.36512E-04-1.81753E-05-5.12324E-05-1.20051E-05-3.55330E-19 2.75921E-19
 -1       602 1.33163E-04-9.50688E-06-5.36345E-05-3.08311E-06-8.50633E-19-6.17361E-19
 -1       603 1.38144E-04-1.64154E-05-5.27578E-05 9.43576E-06-6.89273E-20-2.05784E-18
 -1       604 1.44454E-04-3.66063E-05-4.66471E-05 9.62145E-06-7.03567E-19-1.05609E-18
 -1       605 1.43853E-04-5.51719E-05-3.81677E-05-5.59947E-06-4.58063E-19-2.20880E-18
 -1       606 1.25010E-04-6.16438E-05-2.71120E-05-2.72999E-05 1.68189E-19-3.32259E-18
 -1       607 8.88394E-05-5.02848E-05-1.62699E-05-4.20392E-05 1.78724E-18 1.05413E-18
 -1       608 3.08727E-05-1.71347E-05-5.29318E-06 1.96203E-05 1.44154E-19 1.34541E-18
 -1       609 9.61475E-05-2.31869E-05-3.12724E-05 9.59214E-06 1.89940E-18 9.70088E-19
 -1       610 9.13593E-05-1.58991E-05-3.23640E-05-7.70980E-06-6.87861E-19-2.64846E-18
 -1       611 9.66516E-05-2.69150E-05-2.98820E-05-6.95627E-06-2.33037E-19 5.07957E-19
 -1       612 3.62041E-05-1.23587E-05-9.63133E-06 1.10699E-06-1.14460E-18 1.42884E-18
 -1       613 9.27611E-05-1.79275E-05-3.20932E-05-8.89769E-06-1.01037E-18-2.44461E-18
 -1       614 3.15530E-05-1.33909E-05-7.17685E-06-1.20492E-05-1.74642E-18-3.20634E-18
 -1       615 9.23568E-05-4.89765E-05-1.82761E-05-3.88735E-05-2.65624E-19-2.94744E-18
 -1       616 1.36550E-04-5.15014E-05-3.67204E-05 4.12567E-06 1.39945E-18-9.20063E-19
 -1       617 1.34040E-04-3.31192E-05-4.36168E-05-1.62879E-05-1.06570E-18 4.34104E-20
 -1       618 9.15731E-05-1.68573E-05-3.20267E-05 2.44423E-06 1.25764E-18-1.71379E-18
 -1       619 9.13163E-05-1.64557E-05-3.20885E-05 8.41631E-07 1.03259E-18-1.88485E-18
 -1       620 9.29001E-05-1.90025E-05-3.16761E-05 5.27270E-06 1.85534E-18-1.14071E-18
 -1       621 9.39872E-05-2.09320E-05-3.13174E-05 6.15170E-06 1.89809E-18-7.39455E-19
 -1       622 9.52683E-05-2.40950E-05-3.04926E-05 5.15903E-06 1.58827E-18-5.84081E-19
 -1       623 1.22396E-04-2.22962E-05-4.33243E-05-1.35070E-05-2.70971E-19-3.42638E-19
 -1       624 1.37331E-04-5.46809E-05-3.56494E-05-3.79054E-06 5.26133E-19 1.18600E-18
 -1       625 9.54187E-05-2.57086E-05-2.98742E-05-2.44557E-06-7.23175E-19-1.54435E-18
 -1       626 9.54758E-05-2.69433E-05-2.93705E-05-8.75397E-07-6.26289E-19-1.34162E-18
 -1       627 9.54211E-05-2.76995E-05-2.90234E-05 1.30907E-07-4.88984E-19-1.11803E-18
 -1       628 9.53461E-05-2.81650E-05-2.87919E-05 7.27683E-07-6.54735E-19-1.11368E-18
 -1       629 9.52835E-05-2.84464E-05-2.86445E-05 1.04451E-06-3.85729E-19-9.31009E-19
 -1       630 9.52411E-05-2.86066E-05-2.85577E-05 1.18037E-06-3.68704E-19-5.75883E-19
 -1       631 9.52174E-05-2.86841E-05-2.85144E-05 1.20872E-06-5.79041E-19-9.67086E-20
 -1       632 9.52089E-05-2.87032E-05-2.85025E-05 1.18361E-06-4.77031E-19-2.13474E-19
 -1       633 9.52116E-05-2.86797E-05-2.85137E-05 1.14503E-06-6.40439E-19-5.20587E-19
 -1       634 9.52227E-05-2.86235E-05-2.85426E-05 1.12318E-06-3.52432E-19-6.48901E-19
 -1       635 9.52404E-05-2.85401E-05-2.85858E-05 1.14174E-06-2.77959E-19-1.22573E-18
 -1       636 9.52633E-05-2.84326E-05-2.86417E-05 1.22039E-06-1.55689E-19-8.96342E-19
 -1       637 9.52908E-05-2.83015E-05-2.87096E-05 1.37654E-06-7.00948E-19-8.99518E-19
 -1       638 9.53227E-05-2.81467E-05-2.87895E-05 1.62647E-06-7.58288E-19-5.55646E-19
 -1       639 9.53590E-05-2.79680E-05-2.88816E-05 1.98580E-06-6.14215E-19-8.04538E-19
 -1       640 9.54004E-05-2.77667E-05-2.89855E-05 2.46933E-06-6.90076E-19-4.49256E-19
 -1       641 9.54490E-05-2.75484E-05-2.90998E-05 3.08999E-06-7.53210E-19-1.88684E-19
 -1       642 9.55103E-05-2.73265E-05-2.92211E-05 3.85686E-06-9.22806E-20-8.92372E-19
 -1       643 9.55971E-05-2.71283E-05-2.93431E-05 4.77206E-06 9.24858E-19-1.18061E-18
 -1       644 9.57373E-05-2.70053E-05-2.94559E-05 5.82605E-06 2.33467E-19-1.26678E-18
 -1       645 9.59871E-05-2.70466E-05-2.95452E-05 6.99099E-06-7.11176E-20-1.48195E-18
 -1       646 9.64526E-05-2.73988E-05-2.95939E-05 8.21092E-06 2.93216E-19-8.53256E-19
 -1       647 9.73212E-05-2.82862E-05-2.95861E-05 9.38539E-06 6.87092E-19-6.51201E-19
 -1       648 9.88965E-05-3.00205E-05-2.95183E-05 1.03399E-05 9.20370E-19-6.04242E-19
 -1       649 1.01620E-04-3.29685E-05-2.94221E-05 1.07736E-05 3.57418E-19-1.09979E-18
 -1       650 1.06053E-04-3.74201E-05-2.94150E-05 1.01186E-05 6.18800E-19 3.25408E-19
 -1       651 1.12582E-04-4.30808E-05-2.97845E-05 7.30982E-06 6.18842E-19 9.15165E-19
 -1       652 1.19763E-04-4.77370E-05-3.09503E-05 1.71799E-06-8.01664E-19 6.46822E-19
 -1       653 1.27388E-04-4.92923E-05-3.35308E-05-7.46993E-06-1.01776E-19 2.66188E-19
 -1       654 1.17234E-04-1.38565E-05-4.48152E-05-1.09264E-06 3.00379E-19-3.98989E-19
 -1       655 1.21078E-04-2.10099E-05-4.32656E-05 1.25920E-05-3.23461E-19-6.89075E-19
 -1       656 1.26439E-04-3.71852E-05-3.85235E-05 1.52506E-05 2.38003E-19-3.04443E-18
 -1       657 1.26762E-04-4.77564E-05-3.39449E-05 7.75357E-06 6.44235E-19-1.61281E-18
 -1       658 1.21146E-04-4.84112E-05-3.11857E-05-1.35898E-06 1.70666E-19 2.96395E-19
 -1       659 1.13544E-04-4.38934E-05-2.98536E-05-7.79398E-06 8.65086E-19-5.65629E-19
 -1       660 1.06985E-04-3.83518E-05-2.94186E-05-1.10921E-05 4.11779E-20-1.80130E-18
 -1       661 1.02309E-04-3.37423E-05-2.93884E-05-1.22242E-05-4.47095E-19-1.49524E-18
 -1       662 9.92820E-05-3.04604E-05-2.94958E-05-1.20818E-05 1.10600E-18-1.37933E-18
 -1       663 9.74041E-05-2.82695E-05-2.96282E-05-1.11961E-05-1.57434E-19-3.07968E-18
 -1       664 9.62040E-05-2.67765E-05-2.97536E-05-9.84464E-06 1.96161E-18-1.93556E-18
 -1       665 1.28532E-04-5.93239E-05-2.96590E-05 1.33258E-05 4.95468E-19 2.28822E-18
 -1       666 9.54593E-05-2.58712E-05-2.98210E-05-8.78301E-06 1.49603E-18-5.82680E-19
 -1       667 9.50903E-05-2.77026E-05-2.88799E-05-1.21892E-07 6.31818E-19-3.87764E-19
 -1       668 9.49060E-05-2.85004E-05-2.84596E-05-1.19398E-06 1.43292E-19-4.54838E-19
 -1       669 9.49213E-05-2.85816E-05-2.84314E-05-1.21595E-06 6.13956E-19-4.68437E-19
 -1       670 9.49581E-05-2.86155E-05-2.84327E-05-1.18146E-06 7.79666E-19-2.88554E-19
 -1       671 9.50091E-05-2.86149E-05-2.84548E-05-1.13068E-06 6.00559E-19-4.16199E-19
 -1       672 9.50702E-05-2.85881E-05-2.84924E-05-1.09342E-06 6.43604E-19 3.59394E-19
 -1       673 9.51399E-05-2.85407E-05-2.85426E-05-1.09265E-06 1.89847E-19 5.35630E-19
 -1       674 9.52189E-05-2.84760E-05-2.86041E-05-1.14693E-06 2.22431E-19 4.99971E-19
 -1       675 9.53096E-05-2.83967E-05-2.86768E-05-1.27216E-06 2.49291E-19 4.22549E-19
 -1       676 9.54161E-05-2.83051E-05-2.87616E-05-1.48250E-06 1.94640E-19 6.57103E-19
 -1       677 9.55441E-05-2.82045E-05-2.88595E-05-1.79063E-06 6.46699E-19 1.17960E-18
 -1       678 9.57013E-05-2.81006E-05-2.89713E-05-2.20718E-06 2.02893E-19 9.55302E-19
 -1       679 9.58984E-05-2.80038E-05-2.90971E-05-2.73914E-06-7.33458E-20 2.53854E-19
 -1       680 9.61506E-05-2.79323E-05-2.92357E-05-3.38699E-06 7.25943E-19-6.52569E-20
 -1       681 9.64807E-05-2.79171E-05-2.93836E-05-4.14020E-06 5.21651E-19 1.09821E-19
 -1       682 9.69242E-05-2.80078E-05-2.95349E-05-4.97074E-06 7.24167E-19 3.83732E-19
 -1       683 9.75373E-05-2.82812E-05-2.96806E-05-5.82375E-06 2.66858E-19 9.41137E-19
 -1       684 9.84067E-05-2.88484E-05-2.98105E-05-6.60503E-06-4.39699E-19 1.42044E-18
 -1       685 9.96600E-05-2.98563E-05-2.99164E-05-7.16444E-06-5.46741E-19 3.07627E-19
 -1       686 1.01466E-04-3.14698E-05-3.00001E-05-7.27564E-06-1.18026E-19-4.54322E-19
 -1       687 1.04005E-04-3.38085E-05-3.00878E-05-6.61659E-06-5.58169E-19 1.66619E-19
 -1       688 1.07368E-04-3.67972E-05-3.02505E-05-4.77013E-06-1.81650E-18 3.54954E-19
 -1       689 1.11338E-04-3.98976E-05-3.06244E-05-1.31555E-06-1.10425E-18 3.48370E-19
 -1       690 1.15076E-04-4.18033E-05-3.14099E-05 3.84948E-06 9.97290E-20 1.56302E-18
 -1       691 1.17018E-04-4.05024E-05-3.28093E-05 9.81779E-06-9.68184E-19 2.82976E-18
 -1       692 1.15569E-04-3.45365E-05-3.47361E-05 1.38243E-05-8.86580E-19 2.32773E-18
 -1       693 1.10912E-04-2.52307E-05-3.68213E-05 1.21079E-05 5.15856E-19 2.14526E-18
 -1       694 1.07435E-04-1.91129E-05-3.79970E-05 3.46917E-06 1.52621E-18 1.68864E-18
 -1       695 1.08594E-04-2.11805E-05-3.75781E-05-7.15010E-06 1.05025E-18 1.60876E-18
 -1       696 1.13236E-04-2.97744E-05-3.58068E-05-1.27583E-05-6.64823E-19 2.15906E-18
 -1       697 1.16483E-04-3.79751E-05-3.36866E-05-1.13613E-05 5.37091E-19 1.84069E-18
 -1       698 1.16257E-04-4.18046E-05-3.19173E-05-5.92607E-06 9.76672E-19 2.72616E-18
 -1       699 1.13151E-04-4.13409E-05-3.07783E-05 6.60129E-08 5.89605E-19 9.45229E-19
 -1       700 1.09062E-04-3.86455E-05-3.01841E-05 4.64172E-06-2.48392E-19-2.45009E-20
 -1       701 1.05184E-04-3.53817E-05-2.99197E-05 7.45346E-06-5.36376E-20 9.80864E-19
 -1       702 1.02063E-04-3.24996E-05-2.98158E-05 8.77388E-06 1.54255E-18-1.12277E-19
 -1       703 9.97033E-05-3.02288E-05-2.97756E-05 9.00365E-06 2.49520E-18-1.36504E-18
 -1       704 9.79387E-05-2.84907E-05-2.97618E-05 8.44246E-06 2.22437E-19-9.94456E-19
 -1       705 9.65338E-05-2.71268E-05-2.97440E-05 7.83087E-06-1.15713E-18 4.06129E-19
 -1       706 8.78761E-05-1.98362E-05-2.91613E-05 2.65211E-06 1.37220E-18 1.43253E-18
 -1       707 9.11720E-05-2.26820E-05-2.93542E-05 7.76222E-06 1.99607E-18-2.05232E-18
 -1       708 8.74996E-05-1.94883E-05-2.91490E-05-9.21175E-07 6.93562E-19-1.14523E-18
 -1       709 8.92119E-05-2.09999E-05-2.92351E-05 5.69724E-06 7.08556E-19-1.16363E-18
 -1       710 1.34893E-04-4.48499E-05-3.88704E-05-9.41684E-06-1.91395E-18-1.75286E-18
 -1       711 8.81836E-05-2.00425E-05-2.92044E-05-4.34443E-06-2.49044E-19 9.81706E-19
 -1       712 8.97969E-05-2.13781E-05-2.93240E-05-7.14583E-06 5.27658E-20 2.90916E-19
 -1       713 9.20275E-05-2.32051E-05-2.94970E-05-8.83601E-06 1.36156E-18 3.28012E-19
 -1       714 9.52292E-05-2.70399E-05-2.92220E-05 9.35116E-07 1.03538E-18-4.71374E-19
 -1       715 8.60561E-05-4.16079E-05-1.87439E-05 3.60308E-05-1.99887E-19-4.69052E-18
 -1       716 8.03098E-05-4.00678E-05-1.69218E-05-3.74038E-05 2.93748E-18 7.20296E-19
 -1       717 6.25648E-05-2.75104E-05-1.45855E-05 3.19073E-05 1.07891E-19-3.94426E-19
 -1       718 9.49222E-05-2.83520E-05-2.85301E-05-1.06041E-06 4.86807E-19-2.18212E-19
 -1       719 9.49812E-05-2.81042E-05-2.86614E-05-7.38610E-07 3.66769E-19-5.28819E-19
 -1       720 9.50356E-05-2.36753E-05-3.05844E-05-4.73615E-06-8.58682E-19-1.82576E-18
 -1       721 5.35126E-05-2.19119E-05-1.30735E-05-2.68506E-05 1.57740E-18-1.87692E-18
 -1       722 9.41962E-05-2.12098E-05-3.12773E-05-6.75077E-06-1.04504E-18-2.14710E-18
 -1       723 1.26303E-04-3.15262E-05-4.09864E-05 1.56021E-05 1.14487E-18-5.52477E-19
 -1       724 9.53314E-05-2.59374E-05-2.97362E-05 2.61562E-06 1.23587E-18-6.31137E-19
 -1       725 9.20937E-05-1.76832E-05-3.18961E-05 3.95579E-06 1.65735E-18-1.60315E-18
 -1       726 9.20528E-05-1.76257E-05-3.19031E-05-3.90402E-06 3.13864E-20-2.30915E-18
 -1       727 1.22780E-04-5.79589E-05-2.77272E-05-1.92340E-05-1.77138E-18-3.71322E-18
 -1       728 1.19554E-04-1.50950E-05-4.52591E-05 1.02410E-05 1.45531E-18-1.09852E-18
 -1       729 3.67381E-05-1.31712E-05-9.54780E-06 1.26273E-05-3.57170E-19-2.25205E-18
 -1       730 6.20342E-05-2.99377E-05-1.32810E-05-3.52840E-05-9.15669E-19-2.38008E-18
 -1       731 9.91835E-05-4.86346E-05-2.14902E-05 3.20365E-05 4.72115E-19 1.80221E-18
 -1       732 1.19392E-04-1.07863E-05-4.70768E-05-3.22307E-06 1.07028E-18-1.63826E-18
 -1       733 5.41381E-05-2.24012E-05-1.31833E-05 2.77689E-05-1.47893E-18-2.17566E-18
 -1       734 1.22759E-04-1.61287E-05-4.62513E-05-9.51278E-06-4.17137E-19-1.03835E-18
 -1       735 1.12426E-04-5.68148E-05-2.36396E-05-3.02584E-05 1.65751E-18-2.37850E-18
 -1       736 1.22041E-04-1.25356E-05-4.74812E-05 5.28708E-06 6.72809E-19-1.35715E-18
 -1       737 1.38218E-04-4.81416E-05-3.88835E-05 8.53884E-06 1.59944E-19-1.37338E-18
 -1       738 1.33817E-04-2.93924E-05-4.51846E-05 1.42594E-05-1.17208E-18-1.53858E-18
 -1       739 1.34764E-04-6.00916E-05-3.20610E-05-9.07974E-06-2.87965E-19-2.17484E-18
 -1       740 9.28666E-05-1.89414E-05-3.16846E-05-5.23353E-06-4.65857E-19-2.22099E-18
 -1       741 9.13092E-05-1.64462E-05-3.20895E-05-7.84794E-07 6.28293E-19-2.00976E-18
 -1       742 9.47147E-05-2.55814E-05-2.96279E-05 8.55423E-06-9.61724E-19-1.16955E-18
 -1       743 1.32647E-04-5.86596E-05-3.18284E-05 9.23095E-06-1.02349E-18-2.72066E-18
 -1       744 9.39468E-05-2.49746E-05-2.95586E-05-9.73680E-06 2.24282E-18-1.94928E-18
 -1       745 1.11875E-04-5.44159E-05-2.44955E-05 2.69433E-05-1.71193E-19-2.10627E-18
 -1       746 5.02499E-05-1.97840E-05-1.26116E-05-2.54341E-05-1.10432E-18-1.29535E-18
 -1       747 9.29943E-05-2.41667E-05-2.94988E-05 8.53087E-06 6.96257E-19-1.38977E-18
 -1       748 4.87775E-05-1.48733E-05-1.41525E-05-1.25527E-05 2.24993E-19-2.49785E-18
 -1       749 1.29072E-04-5.49728E-05-3.18713E-05-3.52114E-06-9.93661E-19-1.42522E-18
 -1       750 9.15500E-05-1.68254E-05-3.20304E-05-2.38372E-06 3.38179E-19-2.14678E-18
 -1       751 1.09949E-04-5.33307E-05-2.41310E-05-2.73677E-05-2.02626E-20-1.43360E-18
 -1       752 5.53716E-05-1.69635E-05-1.61351E-05 1.79632E-05 8.47801E-19-9.15629E-19
 -1       753 9.46501E-05-2.27465E-05-3.08169E-05 3.90405E-06 1.45095E-18-1.12789E-18
 -1       754 1.22619E-04-3.51944E-05-3.76170E-05-1.40984E-05-3.76744E-19 1.89712E-18
 -1       755 9.52145E-05-2.44783E-05-3.03146E-05 3.43355E-06 1.33079E-18-7.84225E-19
 -1       756 1.16111E-04-5.25039E-05-2.71181E-05 1.73766E-05 7.47110E-21 8.84427E-19
 -1       757 9.58771E-05-2.68804E-05-2.95700E-05-5.86029E-07-3.34301E-19-1.33578E-18
 -1       758 9.59698E-05-2.77608E-05-2.92324E-05 2.22459E-07-4.36172E-19-1.03212E-18
 -1       759 9.59576E-05-2.83098E-05-2.89919E-05 7.13092E-07-6.43829E-19-9.52449E-19
 -1       760 9.58949E-05-2.86330E-05-2.88265E-05 9.78519E-07-3.96182E-20-9.96562E-19
 -1       761 9.58099E-05-2.88001E-05-2.87185E-05 1.09651E-06-2.81724E-19-1.29656E-18
 -1       762 9.57172E-05-2.88578E-05-2.86541E-05 1.12816E-06-3.81893E-19-8.87218E-19
 -1       763 9.56234E-05-2.88369E-05-2.86228E-05 1.12025E-06-5.40071E-19-5.19607E-19
 -1       764 9.55304E-05-2.87575E-05-2.86170E-05 1.10847E-06-5.44327E-19-1.41065E-19
 -1       765 9.54371E-05-2.86316E-05-2.86309E-05 1.12046E-06-6.94650E-19-5.84299E-19
 -1       766 9.53403E-05-2.84653E-05-2.86607E-05 1.17841E-06-2.09017E-19-7.72798E-19
 -1       767 9.52349E-05-2.82608E-05-2.87032E-05 1.30106E-06-6.10208E-19-7.88677E-19
 -1       768 9.51147E-05-2.80170E-05-2.87562E-05 1.50512E-06-5.52903E-19-8.62622E-19
 -1       769 9.49718E-05-2.77317E-05-2.88171E-05 1.80613E-06-4.90404E-19-3.50775E-19
 -1       770 9.47978E-05-2.74033E-05-2.88833E-05 2.21878E-06-5.40347E-19 2.32215E-19
 -1       771 9.45838E-05-2.70327E-05-2.89504E-05 2.75679E-06-6.62805E-19 2.12542E-19
 -1       772 9.43228E-05-2.66273E-05-2.90122E-05 3.43233E-06-5.56298E-19 9.00687E-19
 -1       773 9.40126E-05-2.62063E-05-2.90596E-05 4.25533E-06 1.38947E-19 8.09197E-19
 -1       774 9.36620E-05-2.58090E-05-2.90796E-05 5.23292E-06 7.08189E-19-1.14482E-19
 -1       775 9.33019E-05-2.55071E-05-2.90547E-05 6.36957E-06 2.01601E-19 8.31354E-19
 -1       776 9.30039E-05-2.54226E-05-2.89631E-05 7.66817E-06-3.31407E-19 7.59560E-19
 -1       777 9.29103E-05-2.57530E-05-2.87813E-05 9.13138E-06 1.28942E-20 1.16439E-19
 -1       778 9.32817E-05-2.68010E-05-2.84910E-05 1.07551E-05 1.03381E-18-3.62439E-19
 -1       779 9.45588E-05-2.89962E-05-2.80956E-05 1.24966E-05 3.94225E-19-8.27344E-19
 -1       780 9.73882E-05-3.28488E-05-2.76520E-05 1.42086E-05 5.69141E-19 4.07444E-19
 -1       781 1.03031E-04-3.90406E-05-2.74204E-05 1.52818E-05 6.55472E-19-8.29728E-20
 -1       782 1.26408E-04-5.56391E-05-3.04031E-05-7.41023E-06 1.15660E-18-3.23565E-18
 -1       783 1.15025E-04-4.91640E-05-2.81921E-05-1.41985E-05 1.74809E-18-2.11011E-18
 -1       784 1.05022E-04-4.07253E-05-2.75442E-05-1.62487E-05-1.00708E-19-3.70288E-19
 -1       785 9.91535E-05-3.43353E-05-2.77755E-05-1.57399E-05-1.42871E-19-1.30672E-18
 -1       786 9.59415E-05-3.00281E-05-2.82481E-05-1.43470E-05-1.88686E-19-8.30497E-19
 -1       787 9.44283E-05-2.73370E-05-2.87521E-05-1.26992E-05-9.01287E-19-8.77619E-19
 -1       788 9.40901E-05-2.59640E-05-2.91953E-05-1.12067E-05 5.79074E-19 6.25117E-19
 -1       789 9.98585E-05-4.64952E-05-2.27210E-05-2.93322E-05 1.96590E-18-2.46819E-18
 -1       790 9.55705E-05-2.87190E-05-2.86507E-05-1.14531E-06 3.05696E-19-8.24179E-19
 -1       791 9.54016E-05-2.87303E-05-2.85734E-05-1.13472E-06 1.21770E-19-3.72542E-19
 -1       792 9.53559E-05-2.86381E-05-2.85934E-05-1.13155E-06 2.25926E-20-4.62286E-19
 -1       793 9.53128E-05-2.85133E-05-2.86284E-05-1.17189E-06 1.80504E-19-4.89531E-20
 -1       794 9.52698E-05-2.83595E-05-2.86758E-05-1.27451E-06 1.11508E-19-1.10352E-20
 -1       795 9.52247E-05-2.81785E-05-2.87340E-05-1.45567E-06 8.12124E-20 6.83515E-19
 -1       796 9.51755E-05-2.79718E-05-2.88015E-05-1.72997E-06 3.40304E-19-1.49787E-19
 -1       797 9.51214E-05-2.77425E-05-2.88766E-05-2.11045E-06 1.81996E-19 5.25245E-19
 -1       798 9.50638E-05-2.74981E-05-2.89566E-05-2.60807E-06 4.85430E-19 5.83451E-19
 -1       799 9.50086E-05-2.72537E-05-2.90377E-05-3.23034E-06 4.32080E-19 4.02008E-19
 -1       800 9.49702E-05-2.70374E-05-2.91138E-05-3.97924E-06-1.94419E-20 7.61717E-19
 -1       801 9.49773E-05-2.68974E-05-2.91768E-05-4.84814E-06 2.28291E-21 1.27007E-18
 -1       802 9.50828E-05-2.69114E-05-2.92160E-05-5.81759E-06 1.30491E-19 1.57435E-18
 -1       803 9.53783E-05-2.71982E-05-2.92197E-05-6.84911E-06 5.90420E-20 1.70424E-18
 -1       804 9.60136E-05-2.79296E-05-2.91786E-05-7.87468E-06 4.76645E-19 1.09034E-18
 -1       805 9.72175E-05-2.93332E-05-2.90933E-05-8.77704E-06-3.92593E-19 3.26274E-19
 -1       806 9.93094E-05-3.16701E-05-2.89891E-05-9.35189E-06-3.11957E-19-1.10217E-19
 -1       807 1.02670E-04-3.51485E-05-2.89403E-05-9.24033E-06-1.72034E-18 5.68083E-19
 -1       808 1.07608E-04-3.96943E-05-2.91096E-05-7.82177E-06-1.10088E-18 3.39847E-20
 -1       809 1.13960E-04-4.44638E-05-2.97952E-05-4.21088E-06-2.27518E-18 3.35878E-19
 -1       810 1.20395E-04-4.71096E-05-3.14278E-05 2.26588E-06-1.50816E-18 1.89696E-18
 -1       811 1.23726E-04-4.36432E-05-3.44018E-05 1.05521E-05 2.91101E-20 1.47788E-18
 -1       812 1.23029E-04-4.65640E-05-3.28353E-05-5.62942E-06 7.64116E-20 2.77004E-18
 -1       813 1.17962E-04-4.67486E-05-3.05136E-05 2.18020E-06 1.20146E-18 1.41621E-18
 -1       814 1.11167E-04-4.27130E-05-2.93551E-05 7.46859E-06 1.58884E-18 2.07590E-18
 -1       815 1.05393E-04-3.78537E-05-2.89453E-05 1.02272E-05-9.58522E-20 5.74158E-19
 -1       816 1.01215E-04-3.36638E-05-2.89529E-05 1.10958E-05 1.67318E-18-4.14895E-19
 -1       817 9.84390E-05-3.04921E-05-2.91206E-05 1.08959E-05 1.82796E-18 6.09698E-19
 -1       818 9.66754E-05-2.82045E-05-2.93449E-05 1.00662E-05 7.53911E-19 3.57911E-19
 -1       819 9.55420E-05-2.68204E-05-2.94556E-05 9.41464E-06-9.03858E-19 3.71319E-19
 -1       820 9.32258E-05-1.97823E-05-3.14769E-05 1.23591E-06 9.25921E-19-1.55872E-18
 -1       821 8.50822E-05-1.95279E-05-2.80942E-05 1.25174E-06 1.02860E-18-1.71380E-18
 -1       822 8.99269E-05-2.28990E-05-2.87281E-05-9.63333E-06-4.64164E-19 8.73632E-19
 -1       823 8.52908E-05-1.96210E-05-2.81438E-05-3.12394E-06 1.39306E-18-9.56552E-20
 -1       824 9.57029E-05-2.69133E-05-2.94815E-05 6.96698E-07 7.72077E-19-8.36283E-19
 -1       825 1.29981E-04-5.13113E-05-3.37991E-05-3.13859E-06-8.58441E-19 2.45401E-19
 -1       826 8.43966E-05-3.55278E-05-2.08617E-05 2.82096E-05 1.30952E-18 6.02240E-19
 -1       827 4.68543E-05-1.69279E-05-1.23286E-05 1.85292E-05-7.34047E-19 2.25099E-19
 -1       828 9.56368E-05-2.85549E-05-2.87494E-05-1.02031E-06 2.40369E-19-1.08541E-18
 -1       829 8.70465E-05-2.08700E-05-2.83632E-05-7.00905E-06 2.83043E-19-5.73731E-19
 -1       830 9.34725E-05-1.99349E-05-3.15162E-05-6.10587E-06-7.37679E-19-2.33436E-18
 -1       831 9.54519E-05-2.87834E-05-2.85722E-05-1.15870E-06 5.96681E-19-1.71272E-19
 -1       832 9.57361E-05-2.77388E-05-2.91417E-05-1.98168E-07 4.68578E-19-8.68669E-19
 -1       833 9.49293E-05-2.34398E-05-3.06401E-05-3.52509E-06-6.07300E-19-1.88313E-18
 -1       834 9.55081E-05-2.87857E-05-2.85953E-05-1.17479E-06 5.59418E-19-6.65681E-19
 -1       835 9.56987E-05-2.82505E-05-2.89064E-05-7.33439E-07 4.21321E-19-1.01855E-18
 -1       836 9.55797E-05-2.55085E-05-3.00306E-05-1.81264E-06-4.33271E-19-1.68215E-18
 -1       837 9.82510E-05-4.34288E-05-2.33742E-05 2.70946E-05 3.07265E-19-2.32326E-18
 -1       838 7.48178E-05-3.06168E-05-1.87082E-05-2.95557E-05 2.35498E-18 1.24710E-18
 -1       839 8.55147E-05-3.95920E-05-1.94229E-05-3.30313E-05-1.98911E-18-1.97082E-18
 -1       840 4.24076E-05-1.14909E-05-1.28386E-05-3.37601E-06-1.65842E-19-2.77734E-18
 -1       841 7.47943E-05-2.95488E-05-1.91749E-05 2.82602E-05-3.58983E-19-2.98365E-18
 -1       842 1.21080E-04-5.44534E-05-2.85508E-05 1.32563E-05 9.96753E-20-1.92482E-18
 -1       843 4.82139E-05-1.31944E-05-1.46947E-05 3.39316E-06 3.95729E-19 1.98836E-18
 -1       844 5.72505E-05-1.88820E-05-1.61466E-05 1.98323E-05-1.58915E-18-2.18815E-18
 -1       845 9.31165E-05-1.95837E-05-3.15152E-05 2.05021E-08 6.71863E-19-1.75128E-18
 -1       846 9.40373E-05-2.13552E-05-3.11502E-05 3.31538E-06 1.54062E-18-1.25646E-18
 -1       847 9.35399E-05-2.03691E-05-3.13601E-05 2.36788E-06 1.17330E-18-1.30104E-18
 -1       848 9.39970E-05-2.12910E-05-3.11620E-05-3.28004E-06-1.78943E-19-1.84029E-18
 -1       849 1.22511E-04-5.55547E-05-2.86443E-05-1.32287E-05-1.95810E-18-2.87284E-18
 -1       850 1.09935E-04-4.77036E-05-2.66396E-05 1.83668E-05 1.20621E-18-6.48771E-19
 -1       851 7.14589E-05-2.95070E-05-1.77320E-05-3.02206E-05-1.52720E-18-1.34539E-18
 -1       852 9.35106E-05-2.03264E-05-3.13663E-05-2.32363E-06 1.01535E-19-2.04097E-18
 -1       853 8.90163E-05-2.25486E-05-2.84877E-05 8.35094E-06 1.28761E-18-1.58693E-18
 -1       854 8.64595E-05-2.06166E-05-2.82189E-05 5.35635E-06 2.26039E-18 3.09926E-19
 -1       855 9.19357E-05-2.44327E-05-2.89280E-05-1.07109E-05-3.21122E-19 2.55875E-18
 -1       856 7.30747E-05-2.45280E-05-2.06759E-05 2.14680E-05 1.59221E-18 4.85449E-19
 -1       857 9.15863E-05-2.43532E-05-2.88106E-05 9.65382E-06 7.53863E-19-7.92014E-19
 -1       858 9.55143E-05-2.58874E-05-2.98394E-05 1.84002E-06 9.70859E-19-8.88799E-19
 -1       859 6.44617E-05-2.13809E-05-1.82404E-05-2.12029E-05-1.04298E-19-2.74674E-18
 -1       860 9.62106E-05-2.69818E-05-2.96696E-05-2.88940E-07-1.01366E-19-1.24876E-18
 -1       861 5.41404E-05-1.56772E-05-1.62326E-05-1.56469E-05-1.46268E-18-1.42935E-18
 -1       862 9.63756E-05-2.78983E-05-2.93474E-05 3.02547E-07-2.60707E-19-1.18608E-18
 -1       863 9.63903E-05-2.84698E-05-2.91088E-05 6.63178E-07-4.05885E-19-6.27924E-19
 -1       864 9.63161E-05-2.87945E-05-2.89378E-05 8.58848E-07-2.63895E-19-7.26483E-19
 -1       865 9.61912E-05-2.89431E-05-2.88206E-05 9.47395E-07-1.44083E-19-8.24281E-19
 -1       866 9.60384E-05-2.89650E-05-2.87457E-05 9.75745E-07-1.38584E-19-6.89862E-19
 -1       867 9.58698E-05-2.88939E-05-2.87039E-05 9.80882E-07-4.35046E-19-5.58619E-19
 -1       868 9.56898E-05-2.87514E-05-2.86879E-05 9.91528E-07-1.03136E-18-5.33490E-19
 -1       869 9.54970E-05-2.85497E-05-2.86917E-05 1.03046E-06-6.43267E-19-8.56977E-19
 -1       870 9.52859E-05-2.82944E-05-2.87106E-05 1.11632E-06-2.80006E-19-1.19113E-18
 -1       871 9.50471E-05-2.79861E-05-2.87404E-05 1.26495E-06-5.01505E-19-8.12942E-19
 -1       872 9.47683E-05-2.76223E-05-2.87769E-05 1.49055E-06-3.53027E-20-4.52771E-19
 -1       873 9.44346E-05-2.71992E-05-2.88152E-05 1.80628E-06-2.91284E-19-2.65111E-20
 -1       874 9.40295E-05-2.67142E-05-2.88494E-05 2.22449E-06-1.72242E-19 4.64193E-19
 -1       875 9.35357E-05-2.61688E-05-2.88715E-05 2.75696E-06-7.35490E-19 3.91450E-19
 -1       876 9.29370E-05-2.55728E-05-2.88704E-05 3.41542E-06-5.93713E-20 9.72590E-20
 -1       877 9.22221E-05-2.49500E-05-2.88309E-05 4.21293E-06 8.54449E-20 3.81839E-19
 -1       878 9.13906E-05-2.43467E-05-2.87330E-05 5.16737E-06 7.91501E-19 6.89133E-20
 -1       879 9.04628E-05-2.38440E-05-2.85509E-05 6.30837E-06-1.91758E-19-4.49985E-19
 -1       880 8.94973E-05-2.35747E-05-2.82526E-05 7.68948E-06-7.80577E-19-3.83549E-19
 -1       881 8.86199E-05-2.37491E-05-2.78020E-05 9.40849E-06-5.03940E-20-8.70973E-19
 -1       882 8.80864E-05-2.47030E-05-2.71651E-05 1.16160E-05 7.65808E-19-1.14492E-18
 -1       883 8.83577E-05-2.69342E-05-2.63273E-05 1.45376E-05 8.86661E-19-3.24740E-19
 -1       884 9.06976E-05-3.12968E-05-2.54189E-05 1.83625E-05 1.04373E-18 2.45401E-19
 -1       885 9.91449E-05-4.13422E-05-2.47039E-05-2.39453E-05 1.13299E-18-2.13241E-18
 -1       886 9.29129E-05-3.33260E-05-2.55210E-05-2.00241E-05 6.88021E-19-1.36286E-18
 -1       887 9.05356E-05-2.85233E-05-2.65726E-05-1.64496E-05 1.37523E-19 1.49933E-18
 -1       888 9.00319E-05-2.57563E-05-2.75475E-05-1.36067E-05-1.41484E-19 2.15618E-18
 -1       889 9.62072E-05-2.84036E-05-2.90587E-05-7.00035E-07 2.09624E-19-9.55927E-19
 -1       890 9.60700E-05-2.69474E-05-2.96237E-05 3.95805E-07 6.41351E-19-9.35849E-19
 -1       891 9.56304E-05-2.87619E-05-2.86579E-05-1.05393E-06 3.79670E-19-5.28388E-19
 -1       892 9.51556E-05-2.81353E-05-2.87230E-05-1.29720E-06-4.61298E-19-7.51861E-19
 -1       893 9.49611E-05-2.78421E-05-2.87653E-05-1.51655E-06 5.30622E-20 1.37927E-20
 -1       894 9.47363E-05-2.75085E-05-2.88119E-05-1.82951E-06 2.03965E-19 9.50699E-19
 -1       895 9.44742E-05-2.71384E-05-2.88582E-05-2.24915E-06 2.63908E-19 4.77121E-19
 -1       896 9.41709E-05-2.67417E-05-2.88982E-05-2.78741E-06 6.22272E-19 5.48146E-19
 -1       897 9.38284E-05-2.63393E-05-2.89238E-05-3.45485E-06 2.95502E-19 3.72826E-19
 -1       898 9.34603E-05-2.59693E-05-2.89247E-05-4.26037E-06-1.19273E-19-1.52181E-19
 -1       899 9.30997E-05-2.56956E-05-2.88873E-05-5.21130E-06-1.74115E-19-1.04832E-19
 -1       900 9.28119E-05-2.56198E-05-2.87964E-05-6.31380E-06-6.24744E-20-1.84109E-19
 -1       901 9.27145E-05-2.58957E-05-2.86363E-05-7.57275E-06 3.44310E-19 1.26535E-19
 -1       902 9.30056E-05-2.67465E-05-2.83963E-05-8.98634E-06 4.97708E-19-2.75974E-19
 -1       903 9.40030E-05-2.84785E-05-2.80814E-05-1.05240E-05-4.39747E-19-6.00127E-19
 -1       904 9.61863E-05-3.14730E-05-2.77337E-05-1.20672E-05-1.91338E-18-2.83996E-19
 -1       905 1.00204E-04-3.61028E-05-2.74709E-05-1.32623E-05-1.36775E-18-1.24379E-18
 -1       906 1.06874E-04-4.25106E-05-2.75788E-05-1.31991E-05-1.72975E-18-2.78796E-19
 -1       907 8.75868E-05-3.30534E-05-2.32707E-05 2.35219E-05-5.86474E-19-1.96636E-18
 -1       908 9.90849E-05-3.43994E-05-2.77258E-05 1.43112E-05 1.03340E-18 3.29791E-19
 -1       909 9.60644E-05-3.03649E-05-2.81570E-05 1.30233E-05 4.33242E-19 1.63849E-19
 -1       910 9.45090E-05-2.76362E-05-2.86527E-05 1.15176E-05 7.52469E-19-2.51016E-19
 -1       911 5.45256E-05-1.30533E-05-1.75566E-05 3.89617E-06 8.10529E-20-1.44320E-18
 -1       912 8.17392E-05-1.89711E-05-2.69021E-05-9.87229E-07 8.95713E-19-1.54919E-18
 -1       913 9.61392E-05-2.87274E-05-2.88908E-05-9.24381E-07 1.04039E-19-1.08994E-18
 -1       914 9.50152E-05-2.35302E-05-3.06360E-05-2.38943E-06-2.43517E-19-1.61693E-18
 -1       915 1.04361E-04-4.00370E-05-2.75393E-05 1.49263E-05 2.09292E-18 5.18547E-19
 -1       916 5.77683E-05-1.47590E-05-1.82752E-05-6.29174E-06 1.71297E-18-6.57761E-19
 -1       917 9.57711E-05-2.88746E-05-2.86699E-05-1.05271E-06 6.90169E-19-5.22080E-19
 -1       918 9.32106E-05-1.97629E-05-3.14793E-05-1.19211E-06 4.03610E-19-1.79921E-18
 -1       919 9.62025E-05-2.78432E-05-2.92969E-05-2.85170E-07 6.33913E-19-1.01851E-18
 -1       920 9.53273E-05-2.83873E-05-2.86886E-05-1.15746E-06-1.99907E-19-5.38707E-19
 -1       921 1.01474E-04-4.49368E-05-2.41559E-05-2.43132E-05-1.50587E-18-1.81977E-18
 -1       922 9.54837E-05-2.85971E-05-2.86657E-05-1.08209E-06 1.10065E-19-4.64302E-19
 -1       923 9.37338E-05-2.57065E-05-2.91551E-05 9.86593E-06 8.95291E-20 2.12114E-19
 -1       924 9.58023E-05-2.55832E-05-3.00938E-05-1.17193E-06-1.75035E-19-1.36276E-18
 -1       925 9.52566E-05-2.42300E-05-3.04401E-05 2.26004E-06 9.97867E-19-1.27964E-18
 -1       926 9.54557E-05-2.50892E-05-3.01571E-05 2.11409E-06 9.54888E-19-1.19367E-18
 -1       927 8.32288E-05-1.99220E-05-2.71304E-05-6.26997E-06 7.43629E-19-4.22604E-19
 -1       928 6.07999E-05-1.58381E-05-1.91403E-05 8.94811E-06-9.99754E-19 1.86354E-19
 -1       929 9.10516E-05-2.49847E-05-2.83115E-05-1.20126E-05 8.71121E-19 1.01285E-18
 -1       930 9.56949E-05-2.55532E-05-3.00610E-05 1.43776E-06 6.53896E-19-1.09040E-18
 -1       931 1.16910E-04-5.06418E-05-2.83428E-05-1.15057E-05-2.18512E-18-1.68200E-18
 -1       932 9.85664E-05-3.88095E-05-2.56010E-05 2.01519E-05 1.67060E-18 1.52579E-19
 -1       933 9.01472E-05-3.74931E-05-2.24375E-05-2.62955E-05-1.65013E-18-2.52386E-18
 -1       934 9.45660E-05-2.22720E-05-3.09832E-05 4.31853E-07 7.05494E-19-1.42806E-18
 -1       935 8.16931E-05-2.90795E-05-2.24599E-05-2.31656E-05 9.12132E-19-1.54106E-18
 -1       936 8.27062E-05-1.97431E-05-2.69845E-05 4.45601E-06 1.81025E-19-2.05272E-18
 -1       937 6.58008E-05-1.75136E-05-2.06028E-05 1.24925E-05 1.50725E-18 2.57511E-19
 -1       938 9.60324E-05-2.88842E-05-2.87778E-05-1.02459E-06 2.14670E-19-8.70100E-19
 -1       939 9.47080E-05-2.26105E-05-3.08991E-05 1.22602E-06 8.91488E-19-1.34782E-18
 -1       940 9.46693E-05-2.26113E-05-3.08788E-05-1.82633E-06 9.62712E-20-1.74252E-18
 -1       941 9.59064E-05-2.89225E-05-2.87074E-05-1.05365E-06 4.40713E-19-4.87040E-19
 -1       942 8.58359E-05-2.20050E-05-2.73601E-05 8.74774E-06 2.06724E-18 2.49653E-19
 -1       943 8.93747E-05-2.43679E-05-2.78653E-05 1.08016E-05 3.19838E-19 6.58546E-19
 -1       944 7.01597E-05-2.20803E-05-2.05057E-05 1.89502E-05-1.00232E-18-2.08127E-18
 -1       945 8.75054E-05-2.26535E-05-2.77975E-05-1.04357E-05 3.04831E-20 5.00602E-19
 -1       946 9.60785E-05-2.58799E-05-3.00855E-05-6.41206E-07 1.00771E-21-1.47184E-18
 -1       947 9.49644E-05-2.32783E-05-3.07229E-05 1.87106E-06 9.11634E-19-9.39742E-19
 -1       948 9.66772E-05-2.81028E-05-2.93890E-05 3.28990E-07-3.16463E-20-1.01412E-18
 -1       949 9.66821E-05-2.86421E-05-2.91600E-05 5.60283E-07-1.00288E-19-4.94977E-19
 -1       950 9.65800E-05-2.89308E-05-2.89925E-05 6.84870E-07-1.82077E-19-4.00761E-19
 -1       951 9.64118E-05-2.90366E-05-2.88751E-05 7.41628E-07-3.44875E-19-4.75890E-19
 -1       952 9.62030E-05-2.90079E-05-2.87979E-05 7.63510E-07-7.28783E-20-2.87463E-19
 -1       953 9.59673E-05-2.88784E-05-2.87524E-05 7.76324E-07-6.46908E-19-5.29066E-19
 -1       954 9.57084E-05-2.86685E-05-2.87314E-05 8.00677E-07-9.68337E-19 2.47742E-19
 -1       955 9.54231E-05-2.83893E-05-2.87288E-05 8.53190E-07-5.67204E-19 1.18137E-19
 -1       956 9.51025E-05-2.80448E-05-2.87390E-05 9.47548E-07-1.68964E-19 2.31913E-19
 -1       957 9.47326E-05-2.76340E-05-2.87566E-05 1.09517E-06 2.65190E-20 7.23180E-19
 -1       958 9.42956E-05-2.71527E-05-2.87756E-05 1.30658E-06 2.56248E-20 7.14488E-19
 -1       959 9.37702E-05-2.65963E-05-2.87889E-05 1.59115E-06 1.01537E-19 4.36299E-19
 -1       960 9.31326E-05-2.59622E-05-2.87874E-05 1.95767E-06-4.10183E-19 1.07626E-18
 -1       961 9.23572E-05-2.52525E-05-2.87593E-05 2.41505E-06-3.43259E-19 1.54354E-18
 -1       962 9.14178E-05-2.44782E-05-2.86886E-05 2.97384E-06-6.32441E-21 1.55332E-18
 -1       963 9.02894E-05-2.36634E-05-2.85542E-05 3.64972E-06 2.13848E-19 7.00792E-19
 -1       964 8.89502E-05-2.28518E-05-2.83282E-05 4.47087E-06-1.12246E-19 9.39468E-20
 -1       965 8.73854E-05-2.21138E-05-2.79741E-05 5.49121E-06-3.02689E-19 2.80782E-19
 -1       966 8.55929E-05-2.15568E-05-2.74449E-05 6.81078E-06-6.33439E-20 4.96964E-19
 -1       967 8.35711E-05-2.13251E-05-2.66787E-05 8.63254E-06-2.93738E-20 4.84355E-19
 -1       968 8.14443E-05-2.17271E-05-2.55976E-05 1.12440E-05 9.21968E-19 2.25611E-19
 -1       969 7.94469E-05-2.31193E-05-2.41325E-05 1.52481E-05 1.04009E-18-5.67113E-19
 -1       970 9.45619E-05-2.22653E-05-3.09840E-05-4.00267E-07 4.85442E-19-1.54630E-18
 -1       971 8.23213E-05-2.51097E-05-2.45000E-05-1.72135E-05 2.39413E-18-2.01044E-18
 -1       972 8.39542E-05-2.30622E-05-2.60957E-05-1.31904E-05 2.44873E-19-1.71610E-18
 -1       973 6.07502E-05-1.48376E-05-1.95514E-05-7.48580E-06-4.32372E-19-1.83785E-18
 -1       974 9.45692E-05-2.23212E-05-3.09628E-05-1.13052E-06 2.72589E-19-1.61508E-18
 -1       975 9.48981E-05-2.78196E-05-2.87479E-05-1.19890E-06-6.05622E-19-7.62528E-19
 -1       976 9.36545E-05-2.64325E-05-2.88095E-05-2.16123E-06 2.09218E-19 5.08201E-20
 -1       977 9.30874E-05-2.58800E-05-2.88032E-05-2.69099E-06 8.79202E-19 2.76370E-19
 -1       978 9.24331E-05-2.53139E-05-2.87654E-05-3.35054E-06 1.39659E-19 5.29127E-19
 -1       979 9.16996E-05-2.47785E-05-2.86805E-05-4.16046E-06-3.84479E-19 5.45471E-19
 -1       980 9.09139E-05-2.43453E-05-2.85295E-05-5.15006E-06-4.50679E-19 5.26245E-19
 -1       981 9.01343E-05-2.41247E-05-2.82899E-05-6.36444E-06 5.66200E-19 3.22562E-19
 -1       982 8.94704E-05-2.42824E-05-2.79376E-05-7.87474E-06 7.24471E-19-2.58052E-19
 -1       983 8.91213E-05-2.50660E-05-2.74519E-05-9.78487E-06-2.38860E-20-3.41400E-19
 -1       984 8.94344E-05-2.68373E-05-2.68261E-05-1.22110E-05-8.12092E-19-6.28371E-19
 -1       985 9.09728E-05-3.00931E-05-2.60920E-05-1.52636E-05-1.65739E-18-1.58815E-18
 -1       986 9.47829E-05-3.54855E-05-2.53839E-05-1.86187E-05-2.26128E-18-1.26772E-18
 -1       987 9.09522E-05-2.63962E-05-2.76756E-05 1.24682E-05 4.81042E-19 2.27644E-20
 -1       988 6.66778E-05-1.59692E-05-2.16773E-05-6.99863E-07 6.33979E-19-2.54795E-18
 -1       989 9.17109E-05-2.91616E-05-2.68144E-05 1.51743E-05 1.29956E-18 5.60766E-19
 -1       990 9.55109E-05-2.44488E-05-3.04553E-05-1.19947E-06 1.56313E-19-1.67029E-18
 -1       991 9.59727E-05-2.57847E-05-3.00792E-05 8.23445E-07 4.75185E-19-1.37911E-18
 -1       992 9.65610E-05-2.85717E-05-2.91383E-05-6.20898E-07 1.95159E-19-1.06255E-18
 -1       993 7.02747E-05-2.31616E-05-2.00673E-05-2.13645E-05-5.00391E-19-1.35021E-18
 -1       994 6.84694E-05-1.90954E-05-2.10879E-05-1.42029E-05 2.06989E-18-2.21367E-19
 -1       995 9.59331E-05-2.88911E-05-2.87322E-05-8.77416E-07 4.07144E-19-4.57556E-19
 -1       996 9.41383E-05-2.69468E-05-2.87963E-05-1.74514E-06 2.46827E-19 1.52434E-19
 -1       997 9.45485E-05-2.74106E-05-2.87734E-05-1.42874E-06-4.67518E-19-6.16556E-19
 -1       998 9.52004E-05-2.81731E-05-2.87260E-05-1.04277E-06-2.19221E-19 8.23665E-20
 -1       999 9.65064E-05-2.72257E-05-2.96920E-05-5.59988E-08 7.34306E-20-1.26252E-18
 -1      1000 8.10606E-05-2.52118E-05-2.38989E-05 1.72898E-05 6.69699E-19-1.81588E-18
 -1      1001 7.10089E-05-1.87747E-05-2.23405E-05 1.06823E-05-5.03312E-19-7.59952E-19
 -1      1002 9.55402E-05-3.48551E-05-2.60024E-05 1.84972E-05 2.91692E-19 1.11881E-18
 -1      1003 9.55941E-05-2.43419E-05-3.05361E-05 7.40559E-09 4.08785E-19-1.21030E-18
 -1      1004 6.42842E-05-1.47971E-05-2.11679E-05 2.70955E-06 1.00126E-18 5.40142E-19
 -1      1005 7.83326E-05-1.85983E-05-2.56023E-05-4.60547E-06 8.64622E-19-1.72238E-18
 -1      1006 9.63768E-05-2.71234E-05-2.96799E-05 1.32181E-07 5.15409E-19-1.26428E-18
 -1      1007 9.57096E-05-2.87125E-05-2.87130E-05-8.97287E-07 3.17395E-19-1.09234E-20
 -1      1008 9.54676E-05-2.84713E-05-2.87127E-05-9.46995E-07 1.34557E-19-1.63820E-19
 -1      1009 9.61392E-05-2.89944E-05-2.87764E-05-8.67393E-07 6.37790E-19-1.13106E-18
 -1      1010 9.64717E-05-2.88754E-05-2.89698E-05-7.74097E-07 9.10390E-20-1.23297E-18
 -1      1011 8.11692E-05-2.07540E-05-2.58953E-05 8.69417E-06 8.06860E-19-1.46287E-18
 -1      1012 8.59787E-05-2.39679E-05-2.65775E-05 1.20356E-05 4.32581E-19 6.42002E-19
 -1      1013 9.56261E-05-2.44760E-05-3.04933E-05 4.91530E-07 8.65574E-19-1.15720E-18
 -1      1014 9.65485E-05-2.80170E-05-2.93706E-05-3.35896E-07 3.03641E-19-1.13486E-18
 -1      1015 7.79621E-05-1.84240E-05-2.55171E-05 2.48941E-06 1.70374E-18-1.16264E-18
 -1      1016 9.40359E-05-2.69209E-05-2.87637E-05-1.17144E-06-5.11856E-19-6.89472E-19
 -1      1017 9.68491E-05-2.88112E-05-2.91592E-05 3.94326E-07-2.04219E-19-1.19274E-18
 -1      1018 9.67059E-05-2.90342E-05-2.90023E-05 4.58138E-07-4.84168E-20-1.02656E-18
 -1      1019 9.64925E-05-2.90785E-05-2.88917E-05 4.86938E-07-1.51390E-19-5.44919E-19
 -1      1020 9.62338E-05-2.89907E-05-2.88185E-05 5.01295E-07-8.56774E-20-5.92149E-19
 -1      1021 9.59403E-05-2.87997E-05-2.87746E-05 5.15160E-07-2.25685E-19 4.84869E-20
 -1      1022 9.56139E-05-2.85238E-05-2.87529E-05 5.41316E-07-7.51823E-19 2.01670E-19
 -1      1023 9.52476E-05-2.81712E-05-2.87471E-05 5.89476E-07-1.25456E-19 3.70996E-19
 -1      1024 9.48306E-05-2.77459E-05-2.87507E-05 6.66903E-07 1.55490E-19 3.19045E-19
 -1      1025 9.43422E-05-2.72424E-05-2.87572E-05 7.81122E-07-9.80767E-20 7.22722E-19
 -1      1026 9.37615E-05-2.66575E-05-2.87590E-05 9.37096E-07 1.97965E-19 8.95267E-19
 -1      1027 9.30614E-05-2.59859E-05-2.87469E-05 1.13938E-06-5.68398E-20 8.78537E-19
 -1      1028 9.22121E-05-2.52255E-05-2.87089E-05 1.39199E-06-2.62472E-19 1.07716E-18
 -1      1029 9.11805E-05-2.43793E-05-2.86295E-05 1.69894E-06-1.11712E-19 1.33739E-18
 -1      1030 8.99293E-05-2.34583E-05-2.84881E-05 2.06611E-06-6.06592E-19 7.85514E-19
 -1      1031 8.84150E-05-2.24825E-05-2.82576E-05 2.50533E-06-5.13965E-19 4.93864E-19
 -1      1032 8.65821E-05-2.14821E-05-2.79011E-05 3.04272E-06-1.24051E-19-5.22254E-20
 -1      1033 8.43528E-05-2.04961E-05-2.73689E-05 3.73508E-06-2.07868E-19 2.51372E-19
 -1      1034 8.16261E-05-1.95837E-05-2.65921E-05 4.69126E-06 3.99624E-19 6.98035E-19
 -1      1035 7.80868E-05-1.86847E-05-2.54552E-05 6.22254E-06 4.70586E-19 6.13551E-19
 -1      1036 7.37415E-05-1.80674E-05-2.38408E-05 8.48624E-06 5.96727E-19 7.83419E-19
 -1      1037 9.09232E-05-2.42433E-05-2.85774E-05-2.85953E-06-1.99879E-19-6.75007E-19
 -1      1038 7.50241E-05-1.90887E-05-2.39753E-05-9.62034E-06 5.66460E-19-1.84372E-18
 -1      1039 9.19021E-05-2.49745E-05-2.86835E-05-2.27347E-06 5.63661E-19-1.33047E-22
 -1      1040 9.45366E-05-2.74410E-05-2.87553E-05-9.66241E-07-2.18391E-19-5.16231E-19
 -1      1041 9.27373E-05-2.56792E-05-2.87394E-05-1.81049E-06 3.95772E-19-1.08256E-19
 -1      1042 8.97935E-05-2.35279E-05-2.83999E-05-3.60128E-06-1.18924E-19-2.00466E-19
 -1      1043 8.85158E-05-2.28939E-05-2.81241E-05-4.54998E-06-7.57274E-19 4.89738E-20
 -1      1044 8.71077E-05-2.24360E-05-2.77170E-05-5.78882E-06 3.44292E-19 1.06254E-18
 -1      1045 8.56058E-05-2.22873E-05-2.71374E-05-7.45887E-06 1.74732E-19 1.56185E-18
 -1      1046 8.41281E-05-2.26797E-05-2.63352E-05-9.80676E-06-1.92778E-19 1.05856E-18
 -1      1047 8.28946E-05-2.39389E-05-2.52618E-05-1.31315E-05-6.60701E-19 9.95643E-19
 -1      1048 8.22375E-05-2.65112E-05-2.38559E-05-1.78231E-05-1.60236E-18-4.19261E-19
 -1      1049 7.25671E-05-1.89342E-05-2.29652E-05-1.11304E-05-2.72382E-20-1.41080E-18
 -1      1050 9.34426E-05-2.63322E-05-2.87618E-05-1.44855E-06 1.43176E-19-4.82870E-19
 -1      1051 9.55476E-05-2.42733E-05-3.05466E-05-4.46943E-07 3.10558E-19-1.44676E-18
 -1      1052 9.49636E-05-2.78926E-05-2.87448E-05-8.21508E-07 7.18786E-21-2.16761E-19
 -1      1053 9.68805E-05-2.83447E-05-2.93725E-05 2.72637E-07 1.43502E-19-1.24984E-18
 -1      1054 9.63229E-05-2.90000E-05-2.88527E-05-8.43657E-07 1.51467E-19-1.16306E-18
 -1      1055 9.63661E-05-2.63339E-05-3.00120E-05-2.54130E-07 2.84750E-19-1.29362E-18
 -1      1056 9.67578E-05-2.75668E-05-2.96541E-05 5.88449E-08 2.27793E-19-1.06088E-18
 -1      1057 9.57208E-05-2.48772E-05-3.03620E-05 8.85880E-07 7.44496E-19-1.27338E-18
 -1      1058 7.13142E-05-1.64769E-05-2.35038E-05-3.79976E-06 2.68397E-19-9.57585E-20
 -1      1059 9.53338E-05-2.82763E-05-2.87390E-05-7.26438E-07-3.67784E-22 3.85127E-20
 -1      1060 9.59589E-05-2.88390E-05-2.87656E-05-6.42154E-07-1.33574E-20-1.24672E-19
 -1      1061 9.63501E-05-2.65297E-05-2.99232E-05 2.83372E-07 5.22360E-19-1.34473E-18
 -1      1062 9.62307E-05-2.90055E-05-2.88110E-05-6.28327E-07 6.32546E-20-3.80366E-19
 -1      1063 9.62823E-05-2.59309E-05-3.01501E-05-1.22823E-07 3.11188E-19-1.23565E-18
 -1      1064 9.67848E-05-2.87448E-05-2.91602E-05-4.81184E-07 3.04963E-19-1.15749E-18
 -1      1065 9.67966E-05-2.82417E-05-2.93804E-05-3.15876E-07 1.58943E-19-1.35237E-18
 -1      1066 9.62807E-05-2.59303E-05-3.01494E-05 1.20870E-07 6.01865E-19-7.80323E-19
 -1      1067 9.63220E-05-2.61787E-05-3.00590E-05 2.39552E-07 4.93991E-19-1.40745E-18
 -1      1068 9.69863E-05-2.85943E-05-2.93111E-05 1.31941E-07 6.90723E-20-1.04919E-18
 -1      1069 9.67056E-05-2.90886E-05-2.89788E-05 1.86252E-07-1.61917E-19-1.46291E-18
 -1      1070 9.64571E-05-2.90707E-05-2.88798E-05 1.94193E-07-9.12681E-20-1.49132E-18
 -1      1071 9.61581E-05-2.89196E-05-2.88164E-05 1.99626E-07 9.76851E-20-1.36686E-18
 -1      1072 9.58195E-05-2.86702E-05-2.87782E-05 2.08528E-07-2.04940E-19-9.02404E-19
 -1      1073 9.54407E-05-2.83365E-05-2.87589E-05 2.22129E-07-1.09756E-19-2.00009E-19
 -1      1074 9.50147E-05-2.79252E-05-2.87522E-05 2.46977E-07 3.28523E-19-8.11975E-20
 -1      1075 9.45152E-05-2.74282E-05-2.87514E-05 2.82079E-07 2.80647E-19-2.05970E-19
 -1      1076 9.39310E-05-2.68514E-05-2.87483E-05 3.28453E-07 1.40956E-19 3.96638E-19
 -1      1077 9.32324E-05-2.61856E-05-2.87341E-05 3.87635E-07-3.91602E-19 1.88346E-19
 -1      1078 9.23896E-05-2.54276E-05-2.86977E-05 4.58017E-07-5.27118E-19-2.18447E-19
 -1      1079 9.13688E-05-2.45772E-05-2.86247E-05 5.36897E-07-2.48588E-19-6.37715E-19
 -1      1080 9.01313E-05-2.36394E-05-2.84962E-05 6.20173E-07-3.77757E-19-7.73748E-19
 -1      1081 8.86302E-05-2.26257E-05-2.82873E-05 7.02691E-07-3.42652E-19-5.02566E-19
 -1      1082 8.68040E-05-2.15518E-05-2.79648E-05 7.79157E-07-6.77566E-19-2.15743E-19
 -1      1083 8.45607E-05-2.04322E-05-2.74831E-05 8.45156E-07 4.45712E-20-2.01570E-19
 -1      1084 8.17424E-05-1.92635E-05-2.67773E-05 8.98736E-07 2.92935E-19-6.33597E-19
 -1      1085 7.81208E-05-1.80386E-05-2.57620E-05 9.85936E-07 7.28571E-19-3.63058E-19
 -1      1086 8.78490E-05-2.22906E-05-2.80970E-05-2.49806E-06-3.78734E-19-5.51277E-20
 -1      1087 9.07029E-05-2.40877E-05-2.85497E-05-1.49847E-06 6.10068E-19 3.26534E-19
 -1      1088 9.41171E-05-2.70326E-05-2.87506E-05-5.91381E-07 4.92749E-20-1.01235E-18
 -1      1089 9.17986E-05-2.49333E-05-2.86568E-05-1.17061E-06 1.46429E-19-1.21250E-19
 -1      1090 8.60153E-05-2.14162E-05-2.76860E-05-3.26720E-06-8.54896E-19 1.68573E-19
 -1      1091 8.38389E-05-2.06298E-05-2.70906E-05-4.33058E-06-8.34720E-20 3.04951E-19
 -1      1092 8.12203E-05-1.99690E-05-2.62462E-05-5.80511E-06 4.58509E-19 7.56809E-19
 -1      1093 7.81068E-05-1.96140E-05-2.50677E-05-8.09828E-06 5.21430E-19 1.43962E-19
 -1      1094 9.34782E-05-2.64131E-05-2.87423E-05-7.31286E-07-2.49142E-19-1.17528E-18
 -1      1095 9.66588E-05-2.89944E-05-2.89991E-05-5.69546E-07-1.48193E-19-1.10422E-18
 -1      1096 9.69180E-05-2.79359E-05-2.95643E-05 5.76204E-08 1.82236E-19-1.10995E-18
 -1      1097 9.56625E-05-2.85935E-05-2.87439E-05-6.70603E-07 3.52680E-19 1.12712E-19
 -1      1098 9.27143E-05-2.57121E-05-2.87154E-05-9.20398E-07-3.80601E-19-6.11413E-19
 -1      1099 9.46580E-05-2.75743E-05-2.87502E-05-4.87810E-07-2.48264E-21-7.26633E-19
 -1      1100 9.66572E-05-2.75387E-05-2.96222E-05-8.56759E-08 4.34575E-19-1.59254E-18
 -1      1101 8.93976E-05-2.31959E-05-2.83725E-05-1.92840E-06-6.40773E-20 2.56162E-19
 -1      1102 9.64649E-05-2.90628E-05-2.88867E-05-6.10803E-07 2.19610E-19-7.72164E-19
 -1      1103 9.69001E-05-2.89514E-05-2.91205E-05 1.68889E-07-1.49496E-19-7.66467E-19
 -1      1104 9.67089E-05-2.70816E-05-2.98408E-05 8.94698E-09 3.68904E-19-9.14142E-19
 -1      1105 9.61999E-05-2.89558E-05-2.88188E-05-3.40428E-07-2.28874E-21-2.89576E-19
 -1      1106 9.51204E-05-2.80358E-05-2.87499E-05-4.22230E-07 2.64844E-20-5.17612E-19
 -1      1107 9.58789E-05-2.87303E-05-2.87780E-05-3.55446E-07 3.73065E-19-6.86843E-19
 -1      1108 9.68933E-05-2.89068E-05-2.91378E-05-2.74917E-07 6.51141E-21-1.14940E-18
 -1      1109 9.69367E-05-2.84814E-05-2.93378E-05-2.14578E-07 1.10404E-19-1.22778E-18
 -1      1110 9.66062E-05-2.91039E-05-2.89295E-05-1.18126E-07-3.18938E-19-7.15380E-19
 -1      1111 9.52329E-05-2.81412E-05-2.87543E-05-1.47791E-07-6.46634E-20-5.94865E-19
 -1      1112 9.67266E-05-2.90769E-05-2.89926E-05-3.15377E-07-2.24709E-19-7.53453E-19
 -1      1113 9.55204E-05-2.84209E-05-2.87571E-05-3.80628E-07 1.57408E-19-6.60768E-19
 -1      1114 9.69909E-05-2.83102E-05-2.94330E-05-5.17773E-08 4.36556E-20-1.08037E-18
 -1      1115 9.67159E-05-2.73293E-05-2.97380E-05-8.94790E-09 3.29048E-19-1.40884E-18
 -1      1116 9.68891E-05-2.80115E-05-2.95201E-05-1.37607E-07-2.84577E-20-1.16248E-18
 -1      1117 1.16844E-04 2.57531E-10-4.18505E-05-4.14670E-05-2.96462E-19 4.82661E-18
 -1      1118 8.86379E-05 7.18972E-11-3.72465E-05-2.41738E-05-1.26949E-19-1.16801E-18
 -1      1119 8.40679E-05 4.14240E-11-3.57636E-05-1.78878E-05-7.37448E-20-3.34079E-18
 -1      1120 8.23311E-05 3.20343E-11-3.50713E-05-1.38482E-05-4.12929E-20-4.13467E-18
 -1      1121 8.15351E-05 2.73459E-11-3.47390E-05-1.05427E-05-1.93759E-20-4.42689E-18
 -1      1122 8.11355E-05 2.46213E-11-3.45756E-05-7.64844E-06-5.69100E-21-4.40329E-18
 -1      1123 8.09300E-05 2.29721E-11-3.44938E-05-4.98547E-06 4.69177E-21-4.23085E-18
 -1      1124 8.08304E-05 2.20810E-11-3.44554E-05-2.43512E-06 1.41464E-20-4.01958E-18
 -1      1125 8.08022E-05 2.18115E-11-3.44447E-05 5.25168E-08 2.72002E-20-3.79667E-18
 -1      1126 8.08348E-05 2.21250E-11-3.44569E-05 2.54267E-06 3.67516E-20-3.58871E-18
 -1      1127 8.09390E-05 2.30721E-11-3.44967E-05 5.10132E-06 4.10910E-20-3.28958E-18
 -1      1128 8.11513E-05 2.47835E-11-3.45799E-05 7.78064E-06 5.80416E-20-2.82049E-18
 -1      1129 8.15554E-05 2.76495E-11-3.47454E-05 1.07029E-05 7.25669E-20-2.16154E-18
 -1      1130 8.23548E-05 3.24994E-11-3.50813E-05 1.40529E-05 8.76150E-20-1.10884E-18
 -1      1131 8.40654E-05 4.19129E-11-3.57834E-05 1.81387E-05 1.02279E-19 7.26834E-19
 -1      1132 8.83363E-05 6.67183E-11-3.73167E-05 2.40172E-05 9.49736E-20 3.92960E-18
 -1      1133 1.06607E-04 1.63885E-10-4.06291E-05 3.61948E-05 1.34678E-19 9.94152E-18
 -1      1134 1.30208E-04-2.57530E-05-4.02687E-05-2.61069E-05-1.09098E-18 8.52073E-18
 -1      1135 9.74363E-05-2.88564E-05-3.15713E-05-6.81386E-07-3.69703E-19 6.04792E-18
 -1      1136 9.01308E-05-2.70179E-05-2.78845E-05 3.86779E-07-1.65449E-19 2.66066E-18
 -1      1137 8.82130E-05-2.65615E-05-2.66327E-05 2.50624E-07-1.23263E-19 3.29072E-19
 -1      1138 8.78471E-05-2.64326E-05-2.63741E-05 1.65531E-07-9.32514E-20-1.29628E-18
 -1      1139 8.81977E-05-2.65067E-05-2.64565E-05 1.17583E-07-7.38507E-20-2.45118E-18
 -1      1140 8.88746E-05-2.66884E-05-2.66564E-05 8.68518E-08-8.45982E-20-3.31114E-18
 -1      1141 8.96795E-05-2.69174E-05-2.68961E-05 6.54634E-08-5.25218E-21-3.62399E-18
 -1      1142 9.05030E-05-2.71573E-05-2.71417E-05 4.95730E-08-1.15708E-19-3.96009E-18
 -1      1143 9.12847E-05-2.73878E-05-2.73755E-05 3.72824E-08-1.13698E-19-5.41940E-18
 -1      1144 9.19941E-05-2.75983E-05-2.75886E-05 2.75857E-08-2.63609E-20-6.58649E-18
 -1      1145 9.26200E-05-2.77851E-05-2.77773E-05 1.98954E-08 1.82375E-19-6.50097E-18
 -1      1146 9.31651E-05-2.79484E-05-2.79423E-05 1.38349E-08-7.83246E-20-6.05176E-18
 -1      1147 9.36410E-05-2.80916E-05-2.80870E-05 9.15106E-09-8.81003E-20-6.33639E-18
 -1      1148 9.40671E-05-2.82204E-05-2.82171E-05 5.68021E-09-5.09491E-20-6.48870E-18
 -1      1149 9.44684E-05-2.83420E-05-2.83402E-05 3.33892E-09-8.59980E-20-6.86499E-18
 -1      1150 9.48756E-05-2.84659E-05-2.84655E-05 2.12778E-09-6.46054E-20-6.93166E-18
 -1      1151 9.53252E-05-2.86027E-05-2.86040E-05 2.14337E-09-1.92551E-20-6.93343E-18
 -1      1152 9.58602E-05-2.87655E-05-2.87688E-05 3.59627E-09-1.39638E-19-8.41742E-18
 -1      1153 9.65309E-05-2.89692E-05-2.89751E-05 6.83373E-09 9.14862E-20-9.38073E-18
 -1      1154 9.73957E-05-2.92314E-05-2.92405E-05 1.23632E-08-9.60005E-20-7.72063E-18
 -1      1155 9.85213E-05-2.95718E-05-2.95849E-05 2.08664E-08 7.25983E-20-6.94449E-18
 -1      1156 9.99809E-05-3.00120E-05-3.00299E-05 3.31776E-08 7.98089E-20-5.07833E-18
 -1      1157 1.01849E-04-3.05740E-05-3.05972E-05 5.01680E-08-6.96246E-20-6.13843E-18
 -1      1158 1.04191E-04-3.12761E-05-3.13040E-05 7.24158E-08 2.18310E-20-5.83031E-18
 -1      1159 1.07038E-04-3.21270E-05-3.21565E-05 9.94443E-08-1.30686E-19-5.95443E-18
 -1      1160 1.10352E-04-3.31133E-05-3.31364E-05 1.28194E-07 2.11091E-19-5.84463E-18
 -1      1161 1.13957E-04-3.41810E-05-3.41818E-05 1.50400E-07-2.34437E-20-6.90292E-18
 -1      1162 1.17456E-04-3.52100E-05-3.51632E-05 1.49082E-07-3.70089E-19-7.28930E-18
 -1      1163 1.20139E-04-3.59882E-05-3.58641E-05 9.64653E-08 3.92795E-19-6.18943E-18
 -1      1164 1.20964E-04-3.62078E-05-3.59901E-05-4.07932E-08-2.05091E-19-5.45260E-18
 -1      1165 1.18740E-04-3.55216E-05-3.52413E-05-2.80690E-07-1.69771E-19-6.18149E-18
 -1      1166 1.12687E-04-3.37143E-05-3.34773E-05-5.79941E-07 1.52535E-19-6.35497E-18
 -1      1167 1.03342E-04-3.09692E-05-3.09262E-05-7.96489E-07-1.38278E-19-6.73921E-18
 -1      1168 9.32286E-05-2.80355E-05-2.82829E-05-7.39831E-07 2.10663E-19-5.97306E-18
 -1      1169 8.62545E-05-2.60288E-05-2.65083E-05-3.34671E-07-4.09421E-20-4.35168E-18
 -1      1170 8.55862E-05-2.58369E-05-2.63321E-05 2.51633E-07 1.86400E-19-6.27270E-18
 -1      1171 9.14647E-05-2.75186E-05-2.78067E-05 6.99135E-07 6.85667E-20-2.78261E-18
 -1      1172 1.00990E-04-3.02728E-05-3.02640E-05 8.00329E-07-6.95977E-20-1.62175E-18
 -1      1173 1.10174E-04-3.29637E-05-3.27382E-05 6.07063E-07-4.40656E-20-3.10194E-18
 -1      1174 1.16222E-04-3.47625E-05-3.44740E-05 3.05567E-07 1.67818E-20-3.34991E-18
 -1      1175 1.18330E-04-3.54111E-05-3.51741E-05 4.77924E-08-2.01574E-19-3.92348E-18
 -1      1176 1.17137E-04-3.50816E-05-3.49364E-05-1.10938E-07 3.33830E-19-3.92262E-18
 -1      1177 1.13820E-04-3.41157E-05-3.40512E-05-1.81759E-07-1.36341E-19-1.47468E-18
 -1      1178 1.09487E-04-3.28406E-05-3.28305E-05-1.96936E-07 1.43304E-19-2.07187E-18
 -1      1179 1.04964E-04-3.15028E-05-3.15276E-05-1.82971E-07-2.18616E-19-2.36788E-18
 -1      1180 1.00826E-04-3.02745E-05-3.03291E-05-1.51478E-07-7.44860E-20-4.36047E-18
 -1      1181 9.75208E-05-2.92917E-05-2.93758E-05-9.41885E-08 2.39998E-19-1.03656E-18
 -1      1182 9.55246E-05-2.87249E-05-2.87617E-05 2.17047E-08 1.81904E-19 1.01770E-18
 -1      1183 9.50204E-05-2.84970E-05-2.84299E-05 7.84840E-08 2.28004E-19 9.54159E-19
 -1      1184 1.31042E-04-3.77350E-05-3.86541E-05 1.21747E-05-1.74965E-19 1.46943E-17
 -1      1185 9.65372E-05-2.81829E-05-3.13237E-05 8.01754E-07 7.45654E-20 1.26479E-17
 -1      1186 9.03454E-05-2.69207E-05-2.78655E-05 1.20323E-07 4.80559E-20 1.04575E-17
 -1      1187 8.82999E-05-2.64889E-05-2.66692E-05 9.15277E-09 2.57749E-20 8.71615E-18
 -1      1188 8.78875E-05-2.63951E-05-2.64013E-05-2.50936E-08-1.46246E-21 7.70705E-18
 -1      1189 8.82197E-05-2.64893E-05-2.64723E-05-3.40322E-08-2.10451E-20 7.07434E-18
 -1      1190 8.88879E-05-2.66816E-05-2.66666E-05-3.50677E-08 7.29776E-20 6.70981E-18
 -1      1191 8.96880E-05-2.69161E-05-2.69035E-05-3.31441E-08 3.17993E-20 5.92024E-18
 -1      1192 9.05088E-05-2.71590E-05-2.71474E-05-2.98150E-08-7.81902E-20 5.26275E-18
 -1      1193 9.12891E-05-2.73910E-05-2.73800E-05-2.57700E-08 1.06174E-19 5.00248E-18
 -1      1194 9.19978E-05-2.76024E-05-2.75921E-05-2.14078E-08 6.02420E-20 4.64199E-18
 -1      1195 9.26237E-05-2.77894E-05-2.77803E-05-1.69752E-08 4.26814E-20 5.01703E-18
 -1      1196 9.31692E-05-2.79528E-05-2.79449E-05-1.26170E-08 1.09143E-19 3.85952E-18
 -1      1197 9.36461E-05-2.80959E-05-2.80895E-05-8.40889E-09-8.91660E-20 3.45488E-18
 -1      1198 9.40734E-05-2.82245E-05-2.82197E-05-4.38439E-09 1.86911E-20 3.27388E-18
 -1      1199 9.44761E-05-2.83460E-05-2.83429E-05-5.59223E-10 8.15971E-20 2.08259E-18
 -1      1200 9.48841E-05-2.84693E-05-2.84682E-05 3.04269E-09-2.56960E-19 2.04944E-18
 -1      1201 9.53329E-05-2.86052E-05-2.86063E-05 6.35969E-09 6.82522E-20 1.58740E-18
 -1      1202 9.58631E-05-2.87657E-05-2.87694E-05 9.25550E-09 1.75477E-19-2.64738E-19
 -1      1203 9.65212E-05-2.89647E-05-2.89717E-05 1.14712E-08-2.26407E-19 7.24810E-19
 -1      1204 9.73588E-05-2.92175E-05-2.92284E-05 1.25621E-08-3.81711E-20 1.41294E-18
 -1      1205 9.84313E-05-2.95405E-05-2.95561E-05 1.18186E-08-7.72566E-20 1.72128E-18
 -1      1206 9.97941E-05-2.99499E-05-2.99708E-05 8.17830E-09 3.42345E-20 1.01160E-18
 -1      1207 1.01495E-04-3.04592E-05-3.04856E-05 1.60609E-10 1.85288E-22-4.88136E-19
 -1      1208 1.03560E-04-3.10753E-05-3.11062E-05-1.40910E-08-1.89117E-19 4.77568E-19
 -1      1209 1.05970E-04-3.17913E-05-3.18234E-05-3.64753E-08-1.73306E-19 3.08910E-18
 -1      1210 1.08626E-04-3.25767E-05-3.26020E-05-6.79761E-08-1.08960E-19 4.98201E-18
 -1      1211 1.11301E-04-3.33634E-05-3.33677E-05-1.06623E-07 8.09140E-20 2.28708E-18
 -1      1212 1.13592E-04-3.40324E-05-3.39939E-05-1.44112E-07-1.93861E-19 2.10865E-18
 -1      1213 1.14884E-04-3.44063E-05-3.42995E-05-1.62007E-07 4.16634E-20 1.94050E-18
 -1      1214 1.14412E-04-3.42657E-05-3.40745E-05-1.31342E-07 1.12341E-19 2.15704E-18
 -1      1215 1.11467E-04-3.34077E-05-3.31491E-05-2.29042E-08 1.00661E-19 2.81850E-18
 -1      1216 1.05812E-04-3.17604E-05-3.15085E-05 1.66214E-07 1.21960E-20 3.63689E-18
 -1      1217 9.81903E-05-2.95250E-05-2.94059E-05 3.81286E-07-2.51409E-20 2.83608E-18
 -1      1218 9.05422E-05-2.72479E-05-2.73772E-05 5.11823E-07 1.44340E-19 1.32455E-18
 -1      1219 8.54717E-05-2.56919E-05-2.60759E-05 4.55628E-07 4.22722E-20-5.19814E-19
 -1      1220 8.49597E-05-2.54761E-05-2.59660E-05 2.10022E-07 2.71256E-19-3.02718E-18
 -1      1221 8.91488E-05-2.66906E-05-2.70661E-05-1.08014E-07-6.75674E-20-2.93698E-18
 -1      1222 9.62357E-05-2.88166E-05-2.89386E-05-3.46945E-07 3.00680E-21-8.89914E-19
 -1      1223 1.03580E-04-3.10459E-05-3.09280E-05-4.27180E-07-9.57577E-20-1.99190E-18
 -1      1224 1.09066E-04-3.27175E-05-3.24722E-05-3.69234E-07-3.12400E-19 1.50624E-18
 -1      1225 1.11773E-04-3.35422E-05-3.32858E-05-2.43244E-07-9.86463E-20 4.64047E-18
 -1      1226 1.11828E-04-3.35604E-05-3.33608E-05-1.12067E-07 1.08996E-19 1.08153E-18
 -1      1227 1.09917E-04-3.29848E-05-3.28599E-05-8.06205E-09 9.46510E-20-1.12315E-18
 -1      1228 1.06850E-04-3.20636E-05-3.20041E-05 6.24557E-08-5.59356E-20 1.84457E-18
 -1      1229 1.03339E-04-3.10122E-05-3.10033E-05 1.06010E-07-5.29322E-20-1.32111E-19
 -1      1230 9.99508E-05-3.00003E-05-3.00342E-05 1.30177E-07 1.95095E-19-3.58186E-18
 -1      1231 9.71635E-05-2.91692E-05-2.92415E-05 1.31228E-07 8.27065E-20-6.46151E-18
 -1      1232 9.54412E-05-2.86515E-05-2.87251E-05 7.45755E-08 1.54683E-20-3.57136E-18
 -1      1233 9.50646E-05-2.85170E-05-2.84455E-05-6.08561E-08-2.83227E-19-2.07505E-18
 -1      1234 9.52952E-05-2.87474E-05-2.84509E-05-5.66756E-08-2.46002E-18-8.82924E-20
 -1      1235 9.51312E-05-2.83306E-05-2.87361E-05-2.57426E-08-1.58787E-18 6.18536E-19
 -1      1236 9.46285E-05-2.66260E-05-2.92509E-05 8.57554E-08 2.17685E-18-4.21862E-19
 -1      1237 9.38302E-05-2.39273E-05-3.00166E-05 1.32936E-07 1.18479E-18-7.49933E-19
 -1      1238 9.28864E-05-2.07306E-05-3.09283E-05 1.47437E-07-2.01559E-18-3.22444E-19
 -1      1239 9.19436E-05-1.75322E-05-3.18445E-05 1.39049E-07-5.02883E-18-9.97132E-19
 -1      1240 9.11243E-05-1.47457E-05-3.26435E-05 1.13604E-07-4.60215E-18 1.17279E-18
 -1      1241 9.05373E-05-1.27463E-05-3.32145E-05 6.91913E-08-4.01110E-19-7.03044E-19
 -1      1242 9.02804E-05-1.18686E-05-3.34631E-05 1.27109E-08-3.74781E-19 1.10244E-18
 -1      1243 9.03987E-05-1.22687E-05-3.33458E-05-4.77688E-08 9.01362E-19 1.24605E-18
 -1      1244 9.08820E-05-1.39139E-05-3.28727E-05-1.02692E-07-7.35542E-19-1.05642E-18
 -1      1245 9.16612E-05-1.65571E-05-3.21159E-05-1.43683E-07-8.76849E-18-9.29519E-19
 -1      1246 9.26247E-05-1.98350E-05-3.11797E-05-1.62970E-07-6.40516E-18-9.15550E-20
 -1      1247 9.36443E-05-2.32944E-05-3.02013E-05-1.57786E-07-3.51942E-19-4.78178E-19
 -1      1248 9.45498E-05-2.63625E-05-2.93485E-05-1.28574E-07-9.88143E-19-5.38620E-19
 -1      1249 9.50580E-05-2.82093E-05-2.87652E-05 6.54849E-08-7.74883E-19-5.72366E-19
 -1      1250 9.53163E-05-2.87879E-05-2.84314E-05 6.82715E-08-4.60386E-19 2.69907E-19
 -1      1251 3.31278E-05-1.06727E-04 1.80966E-05-1.40527E-05 1.27478E-19 9.61700E-19
 -1      1252 1.62269E-05-6.13590E-05 8.54797E-06-2.42266E-05 8.63296E-18 2.83205E-18
 -1      1253 8.13628E-06-4.31682E-06-7.64037E-06 3.92786E-06 4.46048E-18 2.48774E-18
 -1      1254 3.69351E-05 2.53195E-05-2.69415E-05 5.61050E-05 1.28071E-18 8.38563E-19
 -1      1255 1.09402E-04 1.24901E-05-4.67812E-05 1.00931E-04 5.91229E-19 6.70850E-19
 -1      1256 2.08169E-04-3.38370E-05-6.41037E-05 1.09263E-04-5.40407E-19-1.09183E-18
 -1      1257 2.87307E-04-7.95087E-05-7.50366E-05 6.24814E-05-2.25099E-19-4.77515E-18
 -1      1258 3.08611E-04-9.27412E-05-7.76835E-05-1.56709E-05 2.47387E-19-8.22702E-18
 -1      1259 2.60393E-04-6.41279E-05-7.14163E-05-8.63598E-05 2.08476E-18-8.14846E-18
 -1      1260 1.66595E-04-1.25699E-05-5.75040E-05-1.11648E-04 6.61025E-18-1.17653E-17
 -1      1261 7.09218E-05 2.24409E-05-3.73557E-05-8.16495E-05 8.61433E-18-1.07810E-17
 -1      1262 1.57617E-05 1.18441E-05-1.57046E-05-2.47807E-05 5.43626E-18-5.27617E-18
 -1      1263 1.02970E-05-3.76648E-05 2.93091E-06 1.62703E-05 2.30393E-18-9.12678E-19
 -1      1264 2.82077E-05-9.32200E-05 1.52949E-05 2.27301E-05 1.27817E-18 4.51045E-20
 -1      1265 3.56798E-05-1.11639E-04 1.93063E-05-1.49262E-06-6.10499E-19-1.82112E-19
 -1      1266 2.65771E-05-8.95836E-05 1.46003E-05-2.44755E-05-5.65987E-18-2.08116E-18
 -1      1267 9.14525E-06-3.41153E-05 1.93840E-06-1.62341E-05-9.24282E-18-4.26396E-18
 -1      1268 1.65970E-05 1.35641E-05-1.67569E-05 2.68337E-05-8.66006E-18-6.39764E-18
 -1      1269 6.91005E-05 2.32371E-05-3.71683E-05 8.14384E-05-6.25280E-18-7.41493E-18
 -1      1270 1.62681E-04-1.08295E-05-5.67454E-05 1.10147E-04-3.56008E-18-6.44084E-18
 -1      1271 2.63318E-04-6.50756E-05-7.19519E-05 8.55041E-05-1.13502E-18-3.62107E-18
 -1      1272 3.12816E-04-9.48472E-05-7.83111E-05 1.20069E-05-3.83441E-19-3.67570E-18
 -1      1273 2.86351E-04-7.86581E-05-7.50411E-05-6.79266E-05 8.05422E-19-3.28649E-18
 -1      1274 2.01340E-04-2.94938E-05-6.32813E-05-1.10553E-04 1.59200E-18-3.65579E-18
 -1      1275 1.03193E-04 1.44499E-05-4.54904E-05-9.91449E-05-2.18026E-18 2.13283E-18
 -1      1276 3.12700E-05 2.30807E-05-2.45275E-05-4.87686E-05-6.05459E-18 4.72983E-18
 -1      1277 7.35233E-06-1.21225E-05-4.81610E-06 3.43880E-06-1.89058E-18 1.62800E-18
 -1      1278 1.81840E-05-6.82907E-05 1.02165E-05 2.57245E-05 1.70338E-18-1.27055E-19
 -1      1279 3.40801E-05-1.09259E-04 1.85167E-05 1.32832E-05-1.08166E-18-9.38618E-20
 -1      1280 1.04428E-04-2.20158E-05-3.78871E-05-1.72783E-05-4.21399E-19 3.25642E-18
 -1      1281 9.03061E-05-6.67913E-06-3.60127E-05-2.04788E-05-8.85573E-19-2.21568E-18
 -1      1282 9.26414E-05-6.73762E-06-3.72172E-05-2.57659E-05-1.23540E-18-1.08410E-18
 -1      1283 8.58917E-05-4.09180E-06-3.51268E-05-1.64426E-05-7.32869E-19-3.68753E-18
 -1      1284 8.71432E-05-4.08689E-06-3.55956E-05-1.88613E-05-8.84779E-19-3.09861E-18
 -1      1285 9.21204E-05-1.04601E-05-3.50893E-05-1.90408E-05-1.50216E-18-1.92525E-18
 -1      1286 8.40974E-05-3.19217E-06-3.46856E-05-1.28296E-05-4.33456E-19-4.28391E-18
 -1      1287 8.47013E-05-3.16089E-06-3.49088E-05-1.46455E-05-5.69868E-19-4.04363E-18
 -1      1288 8.78598E-05-7.39032E-06-3.45713E-05-1.54269E-05-1.07733E-18-3.13270E-18
 -1      1289 8.31888E-05-2.72857E-06-3.44706E-05-9.69488E-06-2.16867E-19-4.46926E-18
 -1      1290 8.35023E-05-2.71202E-06-3.45791E-05-1.12429E-05-2.80897E-19-4.41677E-18
 -1      1291 8.58679E-05-5.98623E-06-3.43040E-05-1.19659E-05-6.06661E-19-3.63131E-18
 -1      1292 8.27005E-05-2.45857E-06-3.43661E-05-6.92280E-06-5.34756E-20-4.36189E-18
 -1      1293 8.28680E-05-2.45004E-06-3.44196E-05-8.29453E-06-9.66478E-20-4.43481E-18
 -1      1294 8.48249E-05-5.21859E-06-3.41737E-05-8.95221E-06-2.67573E-19-3.75694E-18
 -1      1295 8.24287E-05-2.29381E-06-3.43145E-05-4.30028E-06 1.41521E-19-4.18800E-18
 -1      1296 8.25183E-05-2.28982E-06-3.43411E-05-5.60283E-06 9.67371E-20-4.29602E-18
 -1      1297 8.42439E-05-4.76463E-06-3.41121E-05-6.22364E-06 1.74320E-20-3.69145E-18
 -1      1298 8.22983E-05-2.20474E-06-3.42928E-05-1.79233E-06 3.36730E-19-3.97674E-18
 -1      1299 8.23365E-05-2.20316E-06-3.43036E-05-3.04488E-06 2.65191E-19-4.07963E-18
 -1      1300 8.39249E-05-4.50187E-06-3.40841E-05-3.64902E-06 3.11326E-19-3.47854E-18
 -1      1301 8.22727E-05-2.17731E-06-3.42903E-05 6.70642E-07 4.73923E-19-3.74870E-18
 -1      1302 8.22713E-05-2.17736E-06-3.42900E-05-5.66800E-07 4.25909E-19-3.88480E-18
 -1      1303 8.37852E-05-4.38258E-06-3.40738E-05-1.17200E-06 6.29032E-19-3.30442E-18
 -1      1304 8.23451E-05-2.20746E-06-3.43052E-05 3.15233E-06 6.46131E-19-3.51812E-18
 -1      1305 8.23040E-05-2.20910E-06-3.42937E-05 1.89719E-06 6.09205E-19-3.65125E-18
 -1      1306 8.37902E-05-4.38678E-06-3.40742E-05 1.27526E-06 8.93365E-19-3.07162E-18
 -1      1307 8.25357E-05-2.30017E-06-3.43438E-05 5.71943E-06 7.80041E-19-3.20779E-18
 -1      1308 8.24426E-05-2.30357E-06-3.43164E-05 4.41094E-06 7.31620E-19-3.40857E-18
 -1      1309 8.39405E-05-4.51535E-06-3.40852E-05 3.75652E-06 1.11602E-18-2.84407E-18
 -1      1310 8.28913E-05-2.46537E-06-3.44226E-05 8.40331E-06 9.14538E-19-2.73687E-18
 -1      1311 8.27206E-05-2.47409E-06-3.43684E-05 7.02258E-06 8.61399E-19-3.02159E-18
 -1      1312 8.42697E-05-4.78771E-06-3.41132E-05 6.31749E-06 1.35636E-18-2.56169E-18
 -1      1313 8.35444E-05-2.74195E-06-3.45843E-05 1.14049E-05 1.12745E-18-2.00497E-18
 -1      1314 8.32256E-05-2.75910E-06-3.44744E-05 9.83943E-06 1.03407E-18-2.42553E-18
 -1      1315 8.48679E-05-5.25979E-06-3.41749E-05 9.06242E-06 1.58547E-18-2.02298E-18
 -1      1316 8.47599E-05-3.20319E-06-3.49170E-05 1.48540E-05 1.26613E-18-8.59686E-19
 -1      1317 8.41502E-05-3.24001E-06-3.46912E-05 1.30137E-05 1.17371E-18-1.55452E-18
 -1      1318 8.59455E-05-6.06345E-06-3.43058E-05 1.21320E-05 1.85945E-18-1.25906E-18
 -1      1319 8.72450E-05-4.08913E-06-3.56170E-05 1.91003E-05 1.32582E-18 1.07062E-18
 -1      1320 8.59641E-05-4.15315E-06-3.51345E-05 1.67030E-05 1.20829E-18-8.52327E-20
 -1      1321 8.79843E-05-7.51615E-06-3.45733E-05 1.56599E-05 1.97699E-18-9.23795E-21
 -1      1322 9.34542E-05-6.78982E-06-3.71127E-05 2.51028E-05 1.00543E-18 4.49462E-18
 -1      1323 9.01218E-05-6.43563E-06-3.60353E-05 2.11570E-05 1.01167E-18 2.44570E-18
 -1      1324 9.23508E-05-1.06954E-05-3.50745E-05 1.96849E-05 1.87083E-18 2.08206E-18
 -1      1325 1.23614E-04-2.49204E-05-3.90108E-05 2.83694E-05 3.60942E-19 1.03029E-17
 -1      1326 1.00069E-04-1.44209E-05-3.73500E-05 2.40554E-05 4.26481E-19 6.33390E-18
 -1      1327 1.01666E-04-1.93384E-05-3.53983E-05 2.14052E-05 1.56251E-18 5.14594E-18
 -1      1328 1.02590E-04-2.78006E-05-3.47534E-05 7.33245E-06 7.47586E-19 1.01269E-17
 -1      1329 1.05133E-04-3.02261E-05-3.35208E-05-7.96377E-06-1.06070E-18 3.77120E-18
 -1      1330 9.82425E-05-2.78373E-05-3.07567E-05-4.99221E-06-9.65088E-19 2.52193E-18
 -1      1331 9.54824E-05-2.78429E-05-2.92485E-05-2.49295E-06-8.22257E-19 2.04194E-18
 -1      1332 9.32473E-05-2.75512E-05-2.82082E-05-2.04605E-06-7.93776E-19 8.48568E-19
 -1      1333 9.94676E-05-2.80462E-05-3.09776E-05-7.89378E-06-1.69756E-18 6.43242E-19
 -1      1334 9.15556E-05-2.71929E-05-2.75732E-05-8.41219E-07-6.59025E-19 4.53692E-19
 -1      1335 9.08361E-05-2.70967E-05-2.72700E-05-7.31127E-07-5.73560E-19-4.00408E-19
 -1      1336 9.46971E-05-2.77637E-05-2.88100E-05-3.12647E-06-1.37383E-18-1.41746E-20
 -1      1337 9.00838E-05-2.69133E-05-2.70262E-05-1.77324E-07-4.77684E-19-7.90626E-19
 -1      1338 9.00079E-05-2.69390E-05-2.69904E-05-1.19368E-07-5.10066E-19-1.55781E-18
 -1      1339 9.24939E-05-2.74923E-05-2.78879E-05-1.05957E-06-1.01246E-18-6.87116E-19
 -1      1340 8.97463E-05-2.68709E-05-2.69155E-05 1.50582E-07-3.66193E-19-1.73213E-18
 -1      1341 8.99571E-05-2.69598E-05-2.69761E-05 1.79183E-07-3.09129E-19-2.16633E-18
 -1      1342 9.15313E-05-2.73473E-05-2.75198E-05-7.70314E-08-7.72567E-19-1.31389E-18
 -1      1343 8.99588E-05-2.69623E-05-2.69819E-05 3.10155E-07-2.95833E-19-2.25303E-18
 -1      1344 9.02971E-05-2.70807E-05-2.70798E-05 3.21842E-07-1.38753E-19-2.54615E-18
 -1      1345 9.12741E-05-2.73340E-05-2.74108E-05 4.09761E-07-5.50181E-19-1.62517E-18
 -1      1346 9.04374E-05-2.71219E-05-2.71265E-05 3.76589E-07-4.85396E-20-2.53447E-18
 -1      1347 9.08211E-05-2.72488E-05-2.72374E-05 3.78318E-07-1.73103E-19-2.74631E-18
 -1      1348 9.14033E-05-2.74064E-05-2.74319E-05 6.38093E-07-2.65721E-19-1.71195E-18
 -1      1349 9.10282E-05-2.73088E-05-2.73035E-05 3.89647E-07-2.88265E-19-2.84840E-18
 -1      1350 9.14122E-05-2.74322E-05-2.74148E-05 3.85654E-07-3.49203E-19-3.19786E-18
 -1      1351 9.17334E-05-2.75243E-05-2.75203E-05 7.21719E-07-4.04075E-19-2.03143E-18
 -1      1352 9.16443E-05-2.74991E-05-2.74880E-05 3.72751E-07-3.91210E-19-3.47147E-18
 -1      1353 9.20043E-05-2.76127E-05-2.75928E-05 3.65797E-07-5.17372E-19-3.98496E-18
 -1      1354 9.21551E-05-2.76609E-05-2.76405E-05 7.23043E-07-7.45816E-19-2.10722E-18
 -1      1355 9.22372E-05-2.76796E-05-2.76659E-05 3.40779E-07-4.87478E-19-3.99473E-18
 -1      1356 9.25616E-05-2.77805E-05-2.77608E-05 3.32736E-07-9.76681E-20-4.47520E-18
 -1      1357 9.26039E-05-2.78001E-05-2.77721E-05 6.79845E-07-6.08628E-19-2.26765E-18
 -1      1358 9.27828E-05-2.78439E-05-2.78300E-05 3.03658E-07 2.18022E-19-4.96294E-18
 -1      1359 9.30688E-05-2.79318E-05-2.79140E-05 2.95827E-07-2.04516E-20-4.82966E-18
 -1      1360 9.30438E-05-2.79328E-05-2.79032E-05 6.16565E-07-2.55154E-19-2.62880E-18
 -1      1361 9.32737E-05-2.79903E-05-2.79780E-05 2.68264E-07-1.84461E-19-4.70294E-18
 -1      1362 9.35242E-05-2.80664E-05-2.80519E-05 2.61577E-07-1.54210E-19-4.92998E-18
 -1      1363 9.34574E-05-2.80551E-05-2.80280E-05 5.49758E-07-7.04911E-20-3.64914E-18
 -1      1364 9.37134E-05-2.81203E-05-2.81109E-05 2.39573E-07-5.42707E-20-4.65328E-18
 -1      1365 9.39359E-05-2.81870E-05-2.81769E-05 2.34733E-07-1.79485E-19-4.80422E-18
 -1      1366 9.38408E-05-2.81664E-05-2.81449E-05 4.91123E-07-3.71133E-20-3.80881E-18
 -1      1367 9.41144E-05-2.82377E-05-2.82325E-05 2.21427E-07-1.85292E-19-4.59277E-18
 -1      1368 9.43194E-05-2.82985E-05-2.82935E-05 2.19018E-07-7.42214E-20-4.87892E-18
 -1      1369 9.41992E-05-2.82687E-05-2.82552E-05 4.49394E-07-3.71057E-19-3.38961E-18
 -1      1370 9.44954E-05-2.83484E-05-2.83483E-05 2.17096E-07-7.37422E-20-4.68595E-18
 -1      1371 9.46964E-05-2.84074E-05-2.84084E-05 2.17662E-07-1.25551E-19-4.78958E-18
 -1      1372 9.45452E-05-2.83660E-05-2.83626E-05 4.31643E-07-4.11114E-20-2.88519E-18
 -1      1373 9.48808E-05-2.84595E-05-2.84658E-05 2.29685E-07-9.74963E-20-4.69443E-18
 -1      1374 9.50943E-05-2.85218E-05-2.85297E-05 2.33790E-07-1.61447E-19-4.84014E-18
 -1      1375 9.48974E-05-2.84639E-05-2.84726E-05 4.44224E-07-1.18922E-19-2.78427E-18
 -1      1376 9.53008E-05-2.85802E-05-2.85940E-05 2.62426E-07-2.27009E-19-5.06190E-18
 -1      1377 9.55462E-05-2.86517E-05-2.86675E-05 2.70703E-07-3.85323E-19-5.24760E-18
 -1      1378 9.52794E-05-2.85693E-05-2.85923E-05 4.93444E-07-4.52598E-19-2.77947E-18
 -1      1379 9.57907E-05-2.87208E-05-2.87437E-05 3.18859E-07-5.92087E-19-5.47358E-18
 -1      1380 9.60909E-05-2.88085E-05-2.88335E-05 3.32028E-07-5.03232E-19-6.16549E-18
 -1      1381 9.57203E-05-2.86907E-05-2.87306E-05 5.86010E-07-6.48287E-19-3.61379E-18
 -1      1382 9.63924E-05-2.88938E-05-2.89275E-05 4.02857E-07-5.05230E-20-6.31430E-18
 -1      1383 9.67739E-05-2.90059E-05-2.90414E-05 4.21724E-07-1.33089E-19-6.47680E-18
 -1      1384 9.62539E-05-2.88382E-05-2.88977E-05 7.29193E-07-6.35410E-19-3.29917E-18
 -1      1385 9.71537E-05-2.91135E-05-2.91598E-05 5.18437E-07 2.64767E-19-6.44182E-18
 -1      1386 9.76471E-05-2.92594E-05-2.93069E-05 5.43831E-07 6.54010E-20-5.88419E-18
 -1      1387 9.69195E-05-2.90233E-05-2.91055E-05 9.30625E-07 2.62239E-19-3.83169E-18
 -1      1388 9.81287E-05-2.93961E-05-2.94570E-05 6.69190E-07 6.93136E-20-5.43137E-18
 -1      1389 9.87678E-05-2.95866E-05-2.96470E-05 7.01824E-07 5.78777E-19-4.90276E-18
 -1      1390 9.77607E-05-2.92593E-05-2.93669E-05 1.19748E-06 3.77828E-19-3.96728E-18
 -1      1391 9.93759E-05-2.97598E-05-2.98364E-05 8.57096E-07 4.83989E-19-5.03233E-18
 -1      1392 1.00196E-04-3.00064E-05-3.00798E-05 8.97273E-07 1.55073E-19-4.47178E-18
 -1      1393 9.88247E-05-2.95612E-05-2.96958E-05 1.53464E-06 6.15436E-19-3.95540E-18
 -1      1394 1.00954E-04-3.02233E-05-3.03155E-05 1.08030E-06 1.25364E-19-4.02629E-18
 -1      1395 1.01990E-04-3.05373E-05-3.06217E-05 1.12735E-06 7.80511E-20-4.33310E-18
 -1      1396 1.00159E-04-2.99448E-05-3.01053E-05 1.94122E-06 5.03025E-19-2.82323E-18
 -1      1397 1.02915E-04-3.08043E-05-3.09087E-05 1.32919E-06 2.13605E-19-4.23917E-18
 -1      1398 1.04188E-04-3.11948E-05-3.12836E-05 1.38049E-06 1.78204E-19-3.90319E-18
 -1      1399 1.01804E-04-3.04265E-05-3.06058E-05 2.40437E-06 1.35646E-19-2.46155E-18
 -1      1400 1.05285E-04-3.15154E-05-3.16219E-05 1.58012E-06-3.08843E-19-3.78213E-18
 -1      1401 1.06793E-04-3.19848E-05-3.20636E-05 1.62946E-06-1.55886E-19-3.92686E-18
 -1      1402 1.03786E-04-3.10206E-05-3.12009E-05 2.88912E-06 3.63314E-20-2.41584E-18
 -1      1403 1.08042E-04-3.23570E-05-3.24446E-05 1.78608E-06 2.04546E-19-3.92826E-18
 -1      1404 1.09732E-04-3.28937E-05-3.29355E-05 1.82128E-06-1.56423E-19-4.48669E-18
 -1      1405 1.06092E-04-3.17361E-05-3.18811E-05 3.32307E-06-8.07601E-20-2.06223E-18
 -1      1406 1.11069E-04-3.33058E-05-3.33356E-05 1.86547E-06-4.18905E-19-4.25830E-18
 -1      1407 1.12803E-04-3.38727E-05-3.38326E-05 1.86551E-06-4.87784E-19-4.83903E-18
 -1      1408 1.08652E-04-3.25691E-05-3.26152E-05 3.57675E-06-3.33796E-19-2.61384E-18
 -1      1409 1.14103E-04-3.42961E-05-3.42071E-05 1.69406E-06 6.64623E-20-4.42984E-18
 -1      1410 1.15616E-04-3.48148E-05-3.46303E-05 1.62747E-06 1.72962E-19-4.45807E-18
 -1      1411 1.11294E-04-3.34901E-05-3.33397E-05 3.44617E-06 1.53373E-19-2.85019E-18
 -1      1412 1.16672E-04-3.51953E-05-3.49099E-05 1.11453E-06 3.00048E-19-4.02620E-18
 -1      1413 1.17543E-04-3.55314E-05-3.51382E-05 9.43914E-07 5.42604E-19-3.36788E-18
 -1      1414 1.13705E-04-3.44205E-05-3.39516E-05 2.65721E-06 6.96549E-19-1.79640E-18
 -1      1415 1.18065E-04-3.57794E-05-3.52348E-05-9.62827E-09-2.19534E-19-3.86521E-18
 -1      1416 1.17761E-04-3.57444E-05-3.51227E-05-3.09301E-07-7.81891E-19-4.19898E-18
 -1      1417 1.15402E-04-3.52000E-05-3.43128E-05 9.32689E-07-1.37239E-19-2.66725E-18
 -1      1418 1.17424E-04-3.57360E-05-3.49538E-05-1.67095E-06-1.91390E-19-4.22272E-18
 -1      1419 1.15467E-04-3.51320E-05-3.43856E-05-2.07505E-06 1.54954E-19-4.12698E-18
 -1      1420 1.15766E-04-3.55594E-05-3.42802E-05-1.82779E-06-7.15809E-19-2.02026E-18
 -1      1421 1.14037E-04-3.47318E-05-3.39216E-05-3.52955E-06 1.55086E-19-4.57657E-18
 -1      1422 1.10347E-04-3.34743E-05-3.29060E-05-3.90860E-06-3.70392E-19-4.68515E-18
 -1      1423 1.14188E-04-3.51340E-05-3.37689E-05-5.24634E-06-1.74409E-19-2.54309E-18
 -1      1424 1.07925E-04-3.26449E-05-3.22233E-05-4.79750E-06-8.22515E-20-4.44433E-18
 -1      1425 1.03222E-04-3.09472E-05-3.09746E-05-4.92506E-06 1.58420E-19-4.86329E-18
 -1      1426 1.10447E-04-3.36527E-05-3.28330E-05-8.16924E-06-8.35254E-20-2.91240E-18
 -1      1427 1.00461E-04-2.98927E-05-3.02687E-05-4.52348E-06 5.17365E-19-4.65079E-18
 -1      1428 9.63000E-05-2.83325E-05-2.91938E-05-4.20716E-06 6.77229E-19-3.58607E-18
 -1      1429 1.05240E-04-3.12933E-05-3.17087E-05-8.87673E-06 4.21621E-19-2.79322E-18
 -1      1430 9.43327E-05-2.75388E-05-2.87202E-05-2.32468E-06-1.72689E-19-3.68989E-18
 -1      1431 9.24630E-05-2.68267E-05-2.82432E-05-1.63161E-06-2.34099E-19-4.12377E-18
 -1      1432 1.00394E-04-2.89527E-05-3.07587E-05-6.14557E-06 4.36606E-19-2.51378E-18
 -1      1433 9.22453E-05-2.67427E-05-2.81890E-05 9.80932E-07 3.02245E-19-4.11209E-18
 -1      1434 9.35186E-05-2.72407E-05-2.85076E-05 1.70804E-06 4.97870E-19-3.34673E-18
 -1      1435 9.81388E-05-2.78438E-05-3.03332E-05-6.21041E-07-2.24543E-19-2.76994E-18
 -1      1436 9.51372E-05-2.79196E-05-2.88823E-05 3.75228E-06 1.10249E-18-3.19496E-18
 -1      1437 9.88892E-05-2.93479E-05-2.98404E-05 4.12648E-06 5.40387E-19-2.16629E-18
 -1      1438 9.96032E-05-2.86177E-05-3.05796E-05 5.12133E-06 1.08330E-18-1.87594E-18
 -1      1439 1.01441E-04-3.03499E-05-3.04747E-05 4.71902E-06-2.94769E-19-4.63539E-19
 -1      1440 1.05965E-04-3.20068E-05-3.16621E-05 4.63888E-06-5.93651E-20-9.94840E-19
 -1      1441 1.03900E-04-3.07765E-05-3.13715E-05 8.29193E-06 9.86674E-19-8.70697E-19
 -1      1442 1.08297E-04-3.28319E-05-3.23039E-05 3.86235E-06-4.73730E-19-1.55838E-18
 -1      1443 1.11946E-04-3.40959E-05-3.32977E-05 3.49647E-06-8.86202E-19-2.43305E-18
 -1      1444 1.08837E-04-3.30983E-05-3.23863E-05 7.95666E-06-5.54998E-19 4.34859E-19
 -1      1445 1.13318E-04-3.44961E-05-3.37343E-05 2.04491E-06 1.28114E-20-3.10530E-18
 -1      1446 1.15242E-04-3.51047E-05-3.42855E-05 1.62622E-06-4.81333E-19-3.05118E-18
 -1      1447 1.12457E-04-3.46116E-05-3.32485E-05 5.16631E-06-1.03363E-18-4.75331E-19
 -1      1448 1.15484E-04-3.50930E-05-3.44217E-05 1.87887E-07-3.32560E-19-3.85392E-18
 -1      1449 1.15665E-04-3.50957E-05-3.44954E-05-1.40193E-07-9.10230E-20-3.71555E-18
 -1      1450 1.13901E-04-3.50454E-05-3.36939E-05 1.65049E-06-7.77431E-19-2.83574E-18
 -1      1451 1.14975E-04-3.47973E-05-3.43482E-05-1.19717E-06 6.44533E-19-3.69639E-18
 -1      1452 1.13857E-04-3.43833E-05-3.40480E-05-1.39520E-06 8.48581E-19-3.18570E-18
 -1      1453 1.13282E-04-3.46274E-05-3.36418E-05-1.33285E-06 4.06695E-19-3.12014E-18
 -1      1454 1.12562E-04-3.39289E-05-3.36976E-05-1.99770E-06 4.28182E-20-2.42622E-18
 -1      1455 1.10692E-04-3.32939E-05-3.31718E-05-2.08452E-06 1.90347E-19-2.48879E-18
 -1      1456 1.11182E-04-3.37195E-05-3.31645E-05-3.28961E-06 9.54844E-19-2.81126E-18
 -1      1457 1.09106E-04-3.27812E-05-3.27125E-05-2.30849E-06 5.09130E-19-2.49756E-18
 -1      1458 1.06948E-04-3.20737E-05-3.20950E-05-2.31776E-06 3.62101E-19-1.97520E-18
 -1      1459 1.08251E-04-3.26117E-05-3.24084E-05-4.24847E-06 1.07268E-18-1.76637E-18
 -1      1460 1.05316E-04-3.15667E-05-3.16088E-05-2.26880E-06-8.36313E-20-1.78978E-18
 -1      1461 1.03205E-04-3.08854E-05-3.10014E-05-2.22690E-06-4.20052E-19-2.01039E-18
 -1      1462 1.05031E-04-3.14839E-05-3.15288E-05-4.43703E-06 1.25492E-20-1.11130E-18
 -1      1463 1.01705E-04-3.04250E-05-3.05518E-05-1.98099E-06-4.47240E-20-2.13791E-18
 -1      1464 9.98850E-05-2.98376E-05-3.00298E-05-1.89986E-06 4.35742E-19-1.86030E-18
 -1      1465 1.01922E-04-3.04346E-05-3.06576E-05-4.07476E-06-1.18899E-20-1.01500E-18
 -1      1466 9.86466E-05-2.94516E-05-2.96638E-05-1.49112E-06 9.01236E-19-2.11894E-18
 -1      1467 9.73231E-05-2.90197E-05-2.92848E-05-1.36741E-06 9.67616E-19-5.04087E-19
 -1      1468 9.92066E-05-2.95180E-05-2.98960E-05-3.29025E-06 4.91554E-19-8.48763E-19
 -1      1469 9.64155E-05-2.87127E-05-2.90274E-05-8.02380E-07 8.53255E-19-2.10445E-19
 -1      1470 9.57681E-05-2.85356E-05-2.88138E-05-6.41904E-07 3.97394E-20 8.49402E-19
 -1      1471 9.70736E-05-2.87669E-05-2.93083E-05-2.14600E-06 1.61203E-18-3.95532E-19
 -1      1472 9.52147E-05-2.85051E-05-2.85806E-05 3.04526E-08-1.45928E-18 1.46684E-18
 -1      1473 9.55503E-05-2.83355E-05-2.88211E-05-6.14543E-07-7.42543E-19 6.00235E-20
 -1      1474 9.65580E-05-2.83578E-05-2.97667E-05 2.99849E-06 7.33028E-19 8.49312E-18
 -1      1475 1.02520E-04-2.93937E-05-3.21509E-05 4.46571E-06 6.25904E-19 9.52774E-18
 -1      1476 1.02310E-04-2.67131E-05-3.27011E-05 1.27882E-05 1.21168E-18 6.56662E-18
 -1      1477 9.20064E-05-2.74220E-05-2.77545E-05 1.15472E-06 5.99938E-19 6.98252E-18
 -1      1478 9.39560E-05-2.75781E-05-2.86695E-05 1.47663E-06 5.71575E-19 7.92383E-18
 -1      1479 9.64675E-05-2.80244E-05-2.95280E-05 4.87278E-06 1.10337E-18 5.43107E-18
 -1      1480 9.01681E-05-2.69955E-05-2.70539E-05 3.34689E-07 3.52657E-19 5.89289E-18
 -1      1481 9.07862E-05-2.70141E-05-2.73275E-05 4.97455E-07 3.74435E-19 6.50852E-18
 -1      1482 9.30185E-05-2.75717E-05-2.80916E-05 1.85711E-06 8.78506E-19 4.46781E-18
 -1      1483 8.96447E-05-2.68756E-05-2.68764E-05-5.19304E-08 2.12572E-19 5.21615E-18
 -1      1484 8.96856E-05-2.68143E-05-2.69056E-05 3.70559E-08 2.11457E-19 5.55774E-18
 -1      1485 9.14605E-05-2.72992E-05-2.75064E-05 5.23523E-07 5.41903E-19 3.64583E-18
 -1      1486 8.97700E-05-2.69260E-05-2.69162E-05-2.38970E-07 2.25319E-19 4.79924E-18
 -1      1487 8.95454E-05-2.68197E-05-2.68523E-05-1.88886E-07 1.32971E-19 5.00927E-18
 -1      1488 9.09238E-05-2.72168E-05-2.73087E-05-1.25942E-07 3.27694E-19 3.21793E-18
 -1      1489 9.02158E-05-2.70663E-05-2.70524E-05-3.22073E-07 2.85659E-19 4.38453E-18
 -1      1490 8.98730E-05-2.69404E-05-2.69521E-05-2.94540E-07 2.00537E-19 4.64077E-18
 -1      1491 9.09362E-05-2.72582E-05-2.72963E-05-4.44483E-07 3.30002E-19 2.81646E-18
 -1      1492 9.08037E-05-2.72465E-05-2.72299E-05-3.46975E-07 1.46272E-19 3.79098E-18
 -1      1493 9.04202E-05-2.71175E-05-2.71176E-05-3.33336E-07 2.56745E-19 4.17689E-18
 -1      1494 9.12361E-05-2.73686E-05-2.73766E-05-5.85109E-07 3.68942E-19 2.57521E-18
 -1      1495 9.14325E-05-2.74371E-05-2.74193E-05-3.38928E-07 1.16953E-19 3.50689E-18
 -1      1496 9.10510E-05-2.73146E-05-2.73073E-05-3.33925E-07 1.06720E-19 3.68488E-18
 -1      1497 9.16735E-05-2.75112E-05-2.75017E-05-6.25129E-07 2.97703E-19 2.31246E-18
 -1      1498 9.20451E-05-2.76216E-05-2.76041E-05-3.13400E-07 1.28627E-19 3.19132E-18
 -1      1499 9.16888E-05-2.75105E-05-2.74991E-05-3.13578E-07 4.93202E-20 3.23023E-18
 -1      1500 9.21611E-05-2.76632E-05-2.76443E-05-6.08536E-07 3.17203E-19 1.87536E-18
 -1      1501 9.26125E-05-2.77915E-05-2.77755E-05-2.80467E-07-1.24888E-19 3.64658E-18
 -1      1502 9.22920E-05-2.76936E-05-2.76807E-05-2.83450E-07-7.66424E-21 3.37648E-18
 -1      1503 9.26487E-05-2.78115E-05-2.77889E-05-5.62653E-07-1.08735E-19 1.93995E-18
 -1      1504 9.31236E-05-2.79438E-05-2.79302E-05-2.46958E-07 3.50730E-19 3.22321E-18
 -1      1505 9.28414E-05-2.78589E-05-2.78464E-05-2.51049E-07 2.85377E-19 3.58754E-18
 -1      1506 9.31103E-05-2.79495E-05-2.79270E-05-5.05448E-07 1.95479E-19 2.33953E-18
 -1      1507 9.35799E-05-2.80792E-05-2.80687E-05-2.17681E-07 3.55030E-19 2.82184E-18
 -1      1508 9.33326E-05-2.80056E-05-2.79949E-05-2.21613E-07 2.64112E-19 2.81064E-18
 -1      1509 9.35359E-05-2.80751E-05-2.80553E-05-4.49230E-07 5.85326E-19 2.00573E-18
 -1      1510 9.39920E-05-2.82009E-05-2.81939E-05-1.96192E-07-5.80356E-20 2.30822E-18
 -1      1511 9.37722E-05-2.81358E-05-2.81281E-05-1.98965E-07 1.08535E-19 2.34785E-18
 -1      1512 9.39269E-05-2.81890E-05-2.81740E-05-4.02798E-07 3.75843E-19 1.69131E-18
 -1      1513 9.43774E-05-2.83142E-05-2.83113E-05-1.85337E-07 2.76538E-19 1.66242E-18
 -1      1514 9.41744E-05-2.82539E-05-2.82502E-05-1.86092E-07 2.60808E-19 2.14708E-18
 -1      1515 9.42932E-05-2.82945E-05-2.82859E-05-3.72819E-07 3.64142E-19 8.89416E-19
 -1      1516 9.47592E-05-2.84261E-05-2.84277E-05-1.87622E-07 3.06134E-20 1.53727E-18
 -1      1517 9.45596E-05-2.83662E-05-2.83674E-05-1.85550E-07 2.00323E-19 1.80624E-18
 -1      1518 9.46507E-05-2.83966E-05-2.83958E-05-3.64769E-07 2.22418E-19 1.03551E-18
 -1      1519 9.51659E-05-2.85451E-05-2.85517E-05-2.05467E-07-1.32417E-19 1.40843E-18
 -1      1520 9.49535E-05-2.84804E-05-2.84874E-05-1.99745E-07-1.15052E-19 1.27841E-18
 -1      1521 9.50212E-05-2.85017E-05-2.85102E-05-3.83579E-07 1.41559E-19 1.11921E-18
 -1      1522 9.56309E-05-2.86812E-05-2.86934E-05-2.41339E-07 6.70862E-19 4.93086E-19
 -1      1523 9.53869E-05-2.86057E-05-2.86195E-05-2.31082E-07 4.40398E-19 1.20935E-18
 -1      1524 9.54308E-05-2.86177E-05-2.86368E-05-4.34031E-07 5.53962E-19 3.81279E-19
 -1      1525 9.61923E-05-2.88458E-05-2.88643E-05-2.97741E-07-3.97620E-19-3.26383E-19
 -1      1526 9.58954E-05-2.87526E-05-2.87744E-05-2.81994E-07 3.84809E-19 1.01070E-19
 -1      1527 9.59103E-05-2.87537E-05-2.87852E-05-5.20903E-07 8.84095E-19 3.29491E-19
 -1      1528 9.68932E-05-2.90518E-05-2.90772E-05-3.77007E-07-1.09458E-19 3.02606E-19
 -1      1529 9.65193E-05-2.89333E-05-2.89643E-05-3.54782E-07-4.40457E-19-1.72710E-19
 -1      1530 9.64946E-05-2.89204E-05-2.89656E-05-6.48786E-07-5.10573E-19-2.87227E-19
 -1      1531 9.77802E-05-2.93136E-05-2.93461E-05-4.80800E-07-2.23796E-19 4.34597E-19
 -1      1532 9.73029E-05-2.91612E-05-2.92024E-05-4.51190E-07-6.33687E-20 5.93336E-19
 -1      1533 9.72219E-05-2.91292E-05-2.91895E-05-8.21445E-07-2.11221E-19 1.63827E-19
 -1      1534 9.89009E-05-2.96456E-05-2.96850E-05-6.09166E-07 1.02079E-19 7.84175E-19
 -1      1535 9.82931E-05-2.94509E-05-2.95026E-05-5.71591E-07-2.37760E-19 5.65090E-19
 -1      1536 9.81319E-05-2.93927E-05-2.94686E-05-1.04050E-06-3.64613E-19 2.28651E-19
 -1      1537 1.00299E-04-3.00619E-05-3.01066E-05-7.58905E-07 2.52282E-19 1.28054E-19
 -1      1538 9.95356E-05-2.98168E-05-2.98784E-05-7.13562E-07 2.87509E-19 7.96856E-19
 -1      1539 9.92625E-05-2.97234E-05-2.98135E-05-1.30309E-06 2.81329E-19 4.03158E-19
 -1      1540 1.02004E-04-3.05727E-05-3.06188E-05-9.20972E-07-1.29602E-19-1.84759E-20
 -1      1541 1.01068E-04-3.02719E-05-3.03403E-05-8.69607E-07 5.94842E-20-1.72322E-19
 -1      1542 1.00644E-04-3.01324E-05-3.02323E-05-1.59804E-06 2.71550E-19 2.11245E-19
 -1      1543 1.04016E-04-3.11807E-05-3.12206E-05-1.07664E-06-5.27062E-19 4.73849E-19
 -1      1544 1.02907E-04-3.08242E-05-3.08924E-05-1.02375E-06-3.97686E-19-2.03182E-19
 -1      1545 1.02290E-04-3.06271E-05-3.07267E-05-1.90008E-06-2.05232E-19-6.71060E-19
 -1      1546 1.06285E-04-3.18735E-05-3.18937E-05-1.19241E-06-7.81354E-19 2.47876E-18
 -1      1547 1.05033E-04-3.14720E-05-3.15263E-05-1.14699E-06-7.88191E-19 1.23823E-18
 -1      1548 1.04180E-04-3.12072E-05-3.12873E-05-2.16184E-06-1.10207E-18 1.35625E-19
 -1      1549 1.08671E-04-3.26140E-05-3.25933E-05-1.21479E-06 4.05134E-19 2.60767E-18
 -1      1550 1.07358E-04-3.21954E-05-3.22129E-05-1.19228E-06 1.48665E-21 2.80396E-18
 -1      1551 1.06240E-04-3.18584E-05-3.18871E-05-2.30448E-06-3.70950E-19 4.80744E-19
 -1      1552 1.10910E-04-3.33271E-05-3.32366E-05-1.06801E-06 7.01714E-19 1.01520E-18
 -1      1553 1.09695E-04-3.29450E-05-3.28918E-05-1.09175E-06 8.53890E-19 2.10783E-18
 -1      1554 1.08317E-04-3.25437E-05-3.24738E-05-2.21076E-06 9.38569E-19 7.17324E-19
 -1      1555 1.12583E-04-3.38873E-05-3.36966E-05-6.62358E-07-2.49190E-19 9.18568E-19
 -1      1556 1.11717E-04-3.36279E-05-3.34622E-05-7.61958E-07-4.03380E-19 1.00526E-18
 -1      1557 1.10149E-04-3.31917E-05-3.29640E-05-1.72950E-06 9.62640E-20 8.61128E-19
 -1      1558 1.13124E-04-3.41154E-05-3.38094E-05 7.49847E-08 1.60506E-20 1.07668E-18
 -1      1559 1.12947E-04-3.40957E-05-3.37820E-05-1.27764E-07-1.34599E-20 1.07167E-18
 -1      1560 1.11355E-04-3.36844E-05-3.32457E-05-7.08808E-07-1.79875E-19 4.02480E-19
 -1      1561 1.11921E-04-3.38015E-05-3.34114E-05 1.13492E-06-8.78797E-20 2.00888E-18
 -1      1562 1.12796E-04-3.41466E-05-3.36865E-05 8.24046E-07-3.23117E-19 1.26364E-18
 -1      1563 1.11471E-04-3.38529E-05-3.31959E-05 9.20577E-07-5.51591E-19 6.18089E-19
 -1      1564 1.08565E-04-3.27786E-05-3.24145E-05 2.33614E-06-1.14187E-19 2.26618E-18
 -1      1565 1.10719E-04-3.35658E-05-3.30402E-05 1.96381E-06-2.80580E-21 1.99005E-18
 -1      1566 1.10058E-04-3.34998E-05-3.27240E-05 3.00562E-06-3.87981E-19 1.39234E-18
 -1      1567 1.03225E-04-3.10571E-05-3.09034E-05 3.26979E-06 1.87734E-19 2.64052E-18
 -1      1568 1.06520E-04-3.22284E-05-3.18216E-05 2.95398E-06-3.37159E-20 2.75535E-18
 -1      1569 1.06940E-04-3.24772E-05-3.18333E-05 5.03034E-06-2.20930E-19 1.57045E-18
 -1      1570 9.69732E-05-2.89676E-05-2.91967E-05 3.39808E-06 8.66846E-19 1.26769E-18
 -1      1571 1.00724E-04-3.02602E-05-3.02085E-05 3.29947E-06 7.00283E-19 2.18265E-18
 -1      1572 1.02496E-04-3.08352E-05-3.06755E-05 6.13046E-06 1.09176E-18 6.96182E-19
 -1      1573 9.17029E-05-2.71681E-05-2.77917E-05 2.37446E-06-2.11110E-19 9.29116E-19
 -1      1574 9.47581E-05-2.81525E-05-2.85958E-05 2.60100E-06 3.13501E-19 1.24974E-18
 -1      1575 9.78371E-05-2.89656E-05-2.95469E-05 5.45438E-06 4.08482E-19 6.90835E-19
 -1      1576 8.93760E-05-2.63790E-05-2.71683E-05 4.10045E-07 7.13466E-19-6.75413E-19
 -1      1577 9.05967E-05-2.66552E-05-2.74848E-05 9.10691E-07 5.68968E-19 5.25346E-19
 -1      1578 9.45483E-05-2.75628E-05-2.87959E-05 2.80500E-06 1.03120E-18 5.07704E-19
 -1      1579 9.09131E-05-2.69415E-05-2.75439E-05-1.69880E-06 2.63778E-19-2.44904E-18
 -1      1580 8.98223E-05-2.63921E-05-2.72616E-05-1.13636E-06 3.80847E-19-1.75646E-18
 -1      1581 9.39285E-05-2.72739E-05-2.86697E-05-9.40962E-07 8.27194E-19-8.23154E-19
 -1      1582 9.55853E-05-2.85710E-05-2.87525E-05-3.05192E-06-6.15416E-19-4.92126E-19
 -1      1583 9.26800E-05-2.74487E-05-2.79923E-05-2.66525E-06-7.71356E-19-1.43183E-18
 -1      1584 9.61797E-05-2.82379E-05-2.91933E-05-4.20991E-06-1.04466E-18 2.01528E-19
 -1      1585 1.01479E-04-3.05587E-05-3.03355E-05-3.22980E-06 2.17145E-19-3.19437E-19
 -1      1586 9.79173E-05-2.93180E-05-2.93829E-05-3.13020E-06 2.69132E-19 3.81482E-19
 -1      1587 1.00264E-04-2.99619E-05-3.01589E-05-5.73274E-06-2.77474E-19 7.23710E-19
 -1      1588 1.06607E-04-3.22157E-05-3.17766E-05-2.44411E-06-5.45694E-19 4.75768E-19
 -1      1589 1.03551E-04-3.12483E-05-3.09350E-05-2.58413E-06-1.06104E-19-5.85512E-20
 -1      1590 1.04568E-04-3.16851E-05-3.12272E-05-5.26473E-06 2.81241E-20 1.08316E-18
 -1      1591 1.09755E-04-3.31715E-05-3.27175E-05-1.22503E-06-4.90511E-19 2.64029E-18
 -1      1592 1.07894E-04-3.26600E-05-3.21840E-05-1.48094E-06-8.03695E-19 6.72412E-19
 -1      1593 1.07764E-04-3.28509E-05-3.20776E-05-3.46234E-06-1.10188E-18 1.80559E-18
 -1      1594 1.10646E-04-3.33854E-05-3.30364E-05-4.66402E-08 4.32010E-19 2.07042E-18
 -1      1595 1.10114E-04-3.33201E-05-3.28663E-05-3.07890E-07 8.69400E-20 2.63671E-18
 -1      1596 1.09240E-04-3.32870E-05-3.25189E-05-1.24848E-06-4.24972E-20 1.41315E-18
 -1      1597 1.09644E-04-3.30118E-05-3.28009E-05 8.36119E-07-1.60490E-19 7.24154E-19
 -1      1598 1.10207E-04-3.32799E-05-3.29437E-05 6.30018E-07 3.35594E-19 1.55764E-18
 -1      1599 1.09028E-04-3.30977E-05-3.25133E-05 6.89289E-07 6.15899E-19 9.00439E-19
 -1      1600 1.07369E-04-3.22637E-05-3.21741E-05 1.36271E-06-7.09059E-20 6.33038E-19
 -1      1601 1.08653E-04-3.27302E-05-3.25307E-05 1.22873E-06 4.04203E-19 7.59603E-19
 -1      1602 1.07523E-04-3.24908E-05-3.21358E-05 2.03913E-06 5.55260E-19 9.04671E-19
 -1      1603 1.04446E-04-3.13360E-05-3.13374E-05 1.57456E-06 3.05873E-19 5.52980E-19
 -1      1604 1.06085E-04-3.18844E-05-3.18035E-05 1.50725E-06-1.03291E-19 1.80550E-19
 -1      1605 1.05229E-04-3.16652E-05-3.15137E-05 2.76695E-06 5.36724E-20 5.23777E-19
 -1      1606 1.01399E-04-3.03827E-05-3.04534E-05 1.53586E-06 1.62099E-19-5.73918E-19
 -1      1607 1.03092E-04-3.09238E-05-3.09381E-05 1.52544E-06 9.00365E-19 9.59132E-20
 -1      1608 1.02610E-04-3.07723E-05-3.07819E-05 2.96240E-06 1.04924E-18-8.19346E-19
 -1      1609 9.86572E-05-2.95247E-05-2.96573E-05 1.29114E-06 2.26482E-19-2.17549E-18
 -1      1610 1.00156E-04-2.99869E-05-3.00853E-05 1.33362E-06 3.24516E-19-1.13524E-18
 -1      1611 1.00049E-04-2.99176E-05-3.00607E-05 2.72625E-06 6.62762E-19 3.09031E-19
 -1      1612 9.65837E-05-2.88696E-05-2.90552E-05 8.52511E-07-5.35462E-19-3.06761E-18
 -1      1613 9.76674E-05-2.91826E-05-2.93668E-05 9.56538E-07 1.01556E-19-2.77008E-18
 -1      1614 9.78485E-05-2.91745E-05-2.94473E-05 2.12063E-06 3.96703E-19 5.50709E-19
 -1      1615 9.54697E-05-2.85297E-05-2.86886E-05 2.81073E-07-4.37436E-20-2.05517E-18
 -1      1616 9.59434E-05-2.86266E-05-2.88619E-05 4.26091E-07-5.99855E-19-2.98462E-18
 -1      1617 9.62304E-05-2.86176E-05-2.89976E-05 1.18904E-06-1.29401E-19-1.39917E-18
 -1      1618 9.52317E-05-2.85165E-05-2.85785E-05-4.41827E-09-8.55483E-19-4.13918E-19
 -1      1619 9.50911E-05-2.75378E-05-2.89685E-05 7.10595E-07-1.50937E-19 2.07835E-18
 -1      1620 9.52614E-05-2.80874E-05-2.87840E-05 5.57405E-07-1.75444E-18 1.59232E-18
 -1      1621 9.44804E-05-2.56833E-05-2.94940E-05 1.25779E-06 8.34685E-19-6.00249E-19
 -1      1622 9.48450E-05-2.67802E-05-2.91824E-05 1.16250E-06 4.99875E-19 3.14820E-19
 -1      1623 9.50579E-05-2.69610E-05-2.92087E-05 1.82861E-06-5.64900E-19 1.47040E-18
 -1      1624 9.36814E-05-2.32348E-05-3.01942E-05 1.59427E-06-6.86361E-19-1.58996E-18
 -1      1625 9.41551E-05-2.46750E-05-2.97853E-05 1.54599E-06 1.26549E-18-5.21380E-19
 -1      1626 9.43991E-05-2.51858E-05-2.96835E-05 2.71467E-06 1.13332E-19-4.45925E-19
 -1      1627 9.28050E-05-2.05210E-05-3.09782E-05 1.69815E-06-1.00800E-18-6.44589E-19
 -1      1628 9.33148E-05-2.20825E-05-3.05320E-05 1.69635E-06-6.40648E-19-1.34985E-18
 -1      1629 9.36367E-05-2.30288E-05-3.02685E-05 3.18042E-06 1.65009E-19-1.81731E-18
 -1      1630 9.19743E-05-1.79441E-05-3.17252E-05 1.57415E-06-3.02854E-18-5.85178E-19
 -1      1631 9.24453E-05-1.93879E-05-3.13119E-05 1.61549E-06-2.05157E-18-1.69855E-18
 -1      1632 9.28426E-05-2.07492E-05-3.08907E-05 3.20029E-06-1.03044E-18-2.48931E-18
 -1      1633 9.12695E-05-1.57665E-05-3.23555E-05 1.23065E-06-2.61730E-18 1.02765E-18
 -1      1634 9.16533E-05-1.69372E-05-3.20207E-05 1.31402E-06-3.98272E-18 1.26905E-18
 -1      1635 9.21019E-05-1.86164E-05-3.14737E-05 2.78913E-06-1.40202E-18-9.68382E-19
 -1      1636 9.08092E-05-1.43520E-05-3.27638E-05 7.04436E-07-4.07247E-19-1.26287E-19
 -1      1637 9.10401E-05-1.50518E-05-3.25641E-05 8.19963E-07-1.73972E-18 1.56697E-18
 -1      1638 9.15008E-05-1.68993E-05-3.19398E-05 1.97989E-06-2.34836E-18 1.72417E-18
 -1      1639 9.06664E-05-1.39208E-05-3.28871E-05 6.28286E-08 5.39244E-19 1.19780E-18
 -1      1640 9.07064E-05-1.40371E-05-3.28546E-05 1.95002E-07-7.10780E-20-4.29803E-21
 -1      1641 9.11353E-05-1.58689E-05-3.22167E-05 8.68172E-07 6.19398E-19 4.56276E-19
 -1      1642 9.08706E-05-1.45581E-05-3.27020E-05-6.01893E-07 5.22169E-19 1.34181E-18
 -1      1643 9.07090E-05-1.40607E-05-3.28447E-05-4.72937E-07-5.12478E-19 2.27447E-18
 -1      1644 9.10665E-05-1.56906E-05-3.22614E-05-3.95994E-07 9.47205E-21 3.47889E-19
 -1      1645 9.13973E-05-1.61886E-05-3.22303E-05-1.18920E-06-3.22227E-18-3.12199E-18
 -1      1646 9.10557E-05-1.51402E-05-3.25304E-05-1.08347E-06-2.27097E-19-8.23412E-19
 -1      1647 9.13118E-05-1.64072E-05-3.20638E-05-1.62657E-06-9.36352E-19-8.35406E-19
 -1      1648 9.21594E-05-1.85406E-05-3.15506E-05-1.60430E-06-4.42252E-18 5.23356E-19
 -1      1649 9.16924E-05-1.71141E-05-3.19581E-05-1.53885E-06-2.92757E-18-2.16096E-18
 -1      1650 9.18368E-05-1.79113E-05-3.16541E-05-2.63031E-06-1.45211E-18-3.18620E-18
 -1      1651 9.30748E-05-2.13539E-05-3.07404E-05-1.79452E-06-1.70191E-18 1.19521E-18
 -1      1652 9.25338E-05-1.97099E-05-3.12081E-05-1.77681E-06-4.35130E-18 2.54243E-18
 -1      1653 9.25659E-05-1.99966E-05-3.10873E-05-3.26203E-06-7.19468E-19 1.75701E-18
 -1      1654 9.39962E-05-2.41665E-05-2.99355E-05-1.71095E-06-3.65574E-19 4.74024E-19
 -1      1655 9.34704E-05-2.25836E-05-3.03825E-05-1.74732E-06-1.24430E-18 1.56431E-19
 -1      1656 9.34140E-05-2.23928E-05-3.04408E-05-3.41756E-06-4.15420E-19 9.52977E-19
 -1      1657 9.47789E-05-2.64972E-05-2.92666E-05-1.32560E-06-1.60012E-18-1.33268E-18
 -1      1658 9.43544E-05-2.52722E-05-2.96174E-05-1.42625E-06-5.78027E-19-6.97330E-19
 -1      1659 9.42653E-05-2.47429E-05-2.98145E-05-3.02409E-06-2.44012E-19-5.13067E-19
 -1      1660 9.53126E-05-2.78276E-05-2.89061E-05-9.73515E-07-1.03176E-18-3.05288E-19
 -1      1661 9.51013E-05-2.71746E-05-2.91203E-05-1.22923E-06-7.66121E-19-7.68512E-19
 -1      1662 9.50814E-05-2.65596E-05-2.93908E-05-2.48215E-06-1.09618E-18-4.62672E-19
 -1      1663 9.58996E-05-2.78549E-05-2.91626E-05-1.90930E-06-3.82979E-19-6.48553E-19
 -1      1664 1.95698E-05-6.13886E-05 1.27974E-05-3.43873E-06 2.38016E-18 3.30660E-18
 -1      1665 2.27029E-05-7.19692E-05 1.53240E-05 3.54811E-06-2.44793E-19 1.47595E-18
 -1      1666 2.04145E-05-3.58581E-05 2.70807E-06 5.03388E-06 3.78963E-18 3.60836E-19
 -1      1667 2.46191E-05-5.93351E-05 9.06816E-06 4.26198E-07 3.13572E-18 1.59483E-18
 -1      1668 3.83910E-05-1.02717E-05-1.36427E-05 3.16716E-05 1.72795E-18 1.18669E-18
 -1      1669 3.08364E-05-3.01359E-05-4.67644E-06 1.27622E-05 3.31359E-18 8.59315E-19
 -1      1670 7.80073E-05-1.85204E-06-3.17837E-05 6.10305E-05 4.15893E-19-1.04354E-18
 -1      1671 5.32074E-05-5.81499E-06-2.24258E-05 3.95213E-05 1.72202E-18 6.18334E-20
 -1      1672 1.44567E-04-1.98895E-05-4.99967E-05 7.37082E-05-4.92126E-19-1.11639E-18
 -1      1673 1.04364E-04-8.18561E-06-4.06674E-05 6.22775E-05 3.03238E-19-9.80864E-19
 -1      1674 2.09175E-04-4.33755E-05-6.52533E-05 6.60313E-05-5.26749E-19-3.39745E-18
 -1      1675 1.66412E-04-2.25424E-05-5.82713E-05 7.55945E-05-4.82385E-19-1.84907E-18
 -1      1676 2.48765E-04-6.22960E-05-7.34416E-05 2.37109E-05 7.17437E-19-4.58922E-18
 -1      1677 2.25216E-04-4.91801E-05-7.00498E-05 5.26833E-05 8.05740E-19-2.81638E-18
 -1      1678 2.47039E-04-6.05259E-05-7.37556E-05-2.62232E-05 1.21105E-18-6.33199E-18
 -1      1679 2.52943E-04-6.38611E-05-7.46264E-05 7.67035E-06 7.58942E-19-5.30439E-18
 -1      1680 2.04524E-04-3.92074E-05-6.60588E-05-6.62640E-05 3.23582E-18-8.00954E-18
 -1      1681 2.39007E-04-5.77843E-05-7.11715E-05-4.29166E-05 1.47521E-18-7.66565E-18
 -1      1682 1.38947E-04-1.40828E-05-5.14102E-05-7.23686E-05 6.01139E-18-8.46186E-18
 -1      1683 1.82892E-04-3.27211E-05-5.94711E-05-7.25391E-05 4.54306E-18-7.43864E-18
 -1      1684 7.74719E-05-6.50195E-06-3.12628E-05-5.07782E-05 4.57144E-18-6.88807E-18
 -1      1685 1.15621E-04-1.18024E-05-4.21518E-05-7.04650E-05 5.59719E-18-7.73426E-18
 -1      1686 3.64949E-05-1.68468E-05-1.17953E-05-2.27794E-05 2.25988E-18-3.96750E-18
 -1      1687 5.09295E-05-2.35448E-06-2.13759E-05-4.46519E-05 4.45370E-18-6.41543E-18
 -1      1688 2.83234E-05-4.85186E-05 3.94917E-06-7.03488E-06 1.45266E-18-2.22452E-19
 -1      1689 2.87541E-05-2.57971E-05-3.92854E-06-1.84111E-05 1.86093E-18-1.80227E-18
 -1      1690 2.35743E-05-7.16165E-05 1.42320E-05 4.14390E-07 1.02152E-18-6.72968E-19
 -1      1691 1.80991E-05-5.47536E-05 1.04042E-05 5.08255E-06 1.78639E-18-4.68939E-19
 -1      1692 2.08594E-05-6.90773E-05 1.50610E-05-4.68377E-06-1.57845E-18-1.69322E-18
 -1      1693 2.10973E-05-6.97878E-05 1.51969E-05 3.76617E-06 2.22981E-19-8.67997E-19
 -1      1694 1.81718E-05-5.28463E-05 9.58022E-06-5.11843E-06-4.95006E-18-2.67715E-18
 -1      1695 2.37601E-05-7.09539E-05 1.37976E-05-1.45555E-06-2.54703E-18-1.93431E-18
 -1      1696 2.79188E-05-2.41376E-05-4.47379E-06 1.71091E-05-6.20706E-18-4.07677E-18
 -1      1697 2.74423E-05-4.70306E-05 3.29770E-06 5.01248E-06-5.28210E-18-3.01205E-18
 -1      1698 5.39286E-05-2.50530E-06-2.24676E-05 4.59428E-05-6.48234E-18-5.24991E-18
 -1      1699 3.77742E-05-1.64836E-05-1.26372E-05 2.30716E-05-7.47761E-18-4.69595E-18
 -1      1700 1.09554E-04-7.78326E-06-4.14797E-05 7.18397E-05-4.64174E-18-6.70681E-18
 -1      1701 7.48892E-05-2.83131E-06-3.18496E-05 5.32436E-05-5.47692E-18-6.49759E-18
 -1      1702 1.82125E-04-3.34080E-05-5.90744E-05 7.10049E-05-3.10120E-18-3.58973E-18
 -1      1703 1.36058E-04-1.45156E-05-5.02523E-05 6.98851E-05-4.56212E-18-5.06017E-18
 -1      1704 2.41018E-04-5.85471E-05-7.16224E-05 3.99572E-05-1.17081E-18-2.27132E-18
 -1      1705 2.04546E-04-3.94084E-05-6.61911E-05 6.37799E-05-1.99026E-18-3.13402E-18
 -1      1706 2.58032E-04-6.60271E-05-7.53684E-05-1.03126E-05-8.57833E-19-2.17222E-18
 -1      1707 2.52933E-04-6.32338E-05-7.46799E-05 2.49400E-05-4.46598E-19-2.49790E-18
 -1      1708 2.25414E-04-4.87187E-05-7.00719E-05-5.73641E-05 1.27960E-18-2.38779E-18
 -1      1709 2.52712E-04-6.38205E-05-7.39236E-05-2.80081E-05 5.39348E-19-1.69872E-18
 -1      1710 1.63031E-04-2.22093E-05-5.72036E-05-7.37136E-05 1.05879E-19-1.91091E-18
 -1      1711 2.05448E-04-4.20824E-05-6.44180E-05-6.65047E-05 6.33792E-19-2.05744E-18
 -1      1712 9.80420E-05-5.11257E-06-3.95162E-05-6.28767E-05-2.77234E-18 3.72694E-19
 -1      1713 1.39127E-04-1.66739E-05-4.91247E-05-7.62726E-05-1.20152E-18-2.06337E-18
 -1      1714 5.05655E-05-1.03061E-05-1.97916E-05-3.46033E-05-3.60836E-18 2.25395E-18
 -1      1715 7.49223E-05-3.55376E-06-2.99687E-05-5.80446E-05-2.71643E-18 2.20144E-18
 -1      1716 2.79140E-05-3.40306E-05-2.19771E-06-8.52678E-06 1.04270E-18 2.20313E-18
 -1      1717 3.24897E-05-1.26298E-05-1.07125E-05-2.56322E-05-1.91429E-18 3.06118E-18
 -1      1718 2.45241E-05-6.23797E-05 1.02698E-05 7.03573E-07 6.79320E-19-5.44642E-19
 -1      1719 1.99643E-05-4.06444E-05 4.50997E-06-1.97237E-06 1.42386E-18-3.25261E-19
 -1      1720 2.27400E-05-7.30160E-05 1.56503E-05-2.78402E-06-5.05890E-19-5.50148E-19
 -1      1721 2.00717E-05-6.44214E-05 1.36013E-05 4.81623E-06 6.27651E-19-6.72121E-19
 -1      1722 1.18756E-04-3.24690E-05-3.57871E-05 4.46448E-05-1.42302E-19-2.62241E-18
 -1      1723 7.58812E-05-3.43945E-05-1.88199E-05 4.06736E-05 1.01813E-18-6.97955E-19
 -1      1724 9.53775E-05-2.84317E-05-2.87014E-05 2.66256E-07-1.50520E-18-6.75271E-19
 -1      1725 9.55001E-05-2.80467E-05-2.89169E-05 9.53051E-07-5.86907E-19 5.33600E-19
 -1      1726 2.00851E-05-4.56172E-05 7.09735E-06 1.70144E-05-1.24937E-19 2.15400E-18
 -1      1727 4.31875E-05-4.17605E-05-3.50130E-06 3.01590E-05 1.24683E-18-8.44280E-19
 -1      1728 1.11268E-05-4.55169E-05 1.08257E-05 1.12991E-06 1.17314E-18 8.55503E-19
 -1      1729 1.59954E-04-3.25369E-05-5.17544E-05 3.91962E-05-5.92182E-19-3.34747E-18
 -1      1730 1.94084E-04-3.26578E-05-6.43402E-05 2.92344E-05 4.61209E-19-4.23516E-18
 -1      1731 2.09912E-04-3.38597E-05-7.00054E-05 7.36903E-06 1.36881E-18-3.59036E-18
 -1      1732 2.07046E-04-3.41882E-05-6.86918E-05-1.63780E-05 1.59496E-18-5.76872E-18
 -1      1733 1.82165E-04-3.28115E-05-5.99269E-05-3.45982E-05 3.59195E-18-6.44169E-18
 -1      1734 1.42263E-04-3.29754E-05-4.48084E-05-4.10270E-05 3.47368E-18-5.21942E-18
 -1      1735 9.63556E-05-3.34999E-05-2.69333E-05-4.32267E-05 1.73726E-18-6.01182E-18
 -1      1736 5.68854E-05-3.93610E-05-9.69993E-06-3.57437E-05 9.87640E-19-3.75236E-18
 -1      1737 2.88363E-05-4.38587E-05 3.39452E-06-2.46455E-05 1.63308E-18-8.46186E-19
 -1      1738 1.25005E-05-4.68642E-05 1.06076E-05-6.67126E-06 4.12505E-19-2.01213E-18
 -1      1739 1.30882E-05-4.67428E-05 1.03460E-05 6.75343E-06-1.14138E-18-2.93963E-18
 -1      1740 2.97077E-05-4.47495E-05 3.04267E-06 2.28172E-05-2.91252E-18-3.47940E-18
 -1      1741 5.79628E-05-3.88368E-05-1.04045E-05 3.47125E-05-4.07846E-18-3.71233E-18
 -1      1742 9.48218E-05-3.16008E-05-2.72092E-05 4.36042E-05-5.05763E-18-5.13471E-18
 -1      1743 1.41099E-04-3.19299E-05-4.46149E-05 4.34207E-05-4.35629E-18-3.72949E-18
 -1      1744 1.81293E-04-3.32171E-05-5.95548E-05 3.10801E-05-3.05080E-18-2.35052E-18
 -1      1745 2.10188E-04-3.57769E-05-6.92688E-05 1.44714E-05-1.31332E-18-1.74277E-18
 -1      1746 2.15256E-04-3.63160E-05-7.08105E-05-9.48830E-06-1.40607E-19-1.77475E-18
 -1      1747 1.94455E-04-3.41353E-05-6.40051E-05-2.94571E-05 2.60463E-19-9.12678E-19
 -1      1748 1.57870E-04-3.21823E-05-5.09766E-05-4.15414E-05-1.91112E-18-2.37932E-18
 -1      1749 1.14538E-04-3.27292E-05-3.42376E-05-4.48675E-05-2.09514E-18-1.47214E-18
 -1      1750 7.13886E-05-3.57358E-05-1.65759E-05-3.88947E-05-6.65768E-19 2.93836E-18
 -1      1751 3.85268E-05-4.26850E-05-1.45464E-06-2.66725E-05 1.16128E-18 1.96710E-18
 -1      1752 1.86393E-05-4.68019E-05 8.03726E-06-1.48619E-05 9.85523E-19-1.29660E-18
 -1      1753 1.06037E-04-2.31667E-05-3.55994E-05-1.68578E-05-1.28644E-18 2.42929E-18
 -1      1754 8.91237E-05-1.05595E-05-3.37938E-05-1.33504E-05-1.04018E-18-2.64571E-18
 -1      1755 9.04490E-05-1.16268E-05-3.39329E-05-1.51238E-05-1.40700E-18-2.27447E-18
 -1      1756 9.24835E-05-1.38716E-05-3.38507E-05-1.60116E-05-1.53866E-18-1.81014E-18
 -1      1757 9.41954E-05-1.58210E-05-3.40936E-05-1.76715E-05-1.79969E-18-1.18426E-18
 -1      1758 9.34348E-05-1.63641E-05-3.30413E-05-1.37605E-05-1.56827E-18-1.88171E-18
 -1      1759 8.62179E-05-7.67652E-06-3.37320E-05-7.87266E-06-2.41070E-19-3.07703E-18
 -1      1760 8.66167E-05-7.97404E-06-3.37648E-05-9.26260E-06-4.37046E-19-3.11340E-18
 -1      1761 8.56068E-05-7.04142E-06-3.37304E-05-5.32722E-06 1.19144E-19-2.98616E-18
 -1      1762 8.58386E-05-7.21941E-06-3.37448E-05-6.63303E-06-5.27907E-20-3.06847E-18
 -1      1763 8.76026E-05-9.87229E-06-3.33459E-05-6.93769E-06-1.92970E-19-2.95424E-18
 -1      1764 8.52755E-05-6.68378E-06-3.37346E-05-2.89275E-06 4.72086E-19-2.82634E-18
 -1      1765 8.53948E-05-6.77813E-06-3.37401E-05-4.13384E-06 3.19400E-19-2.93027E-18
 -1      1766 8.69730E-05-9.16209E-06-3.33802E-05-4.54361E-06 2.38258E-19-2.86255E-18
 -1      1767 8.51462E-05-6.53607E-06-3.37384E-05-5.18300E-07 8.23779E-19-2.57625E-18
 -1      1768 8.51813E-05-6.56449E-06-3.37397E-05-1.72939E-06 6.67713E-19-2.71252E-18
 -1      1769 8.66441E-05-8.78407E-06-3.34010E-05-2.22037E-06 6.06832E-19-2.66755E-18
 -1      1770 8.51911E-05-6.57346E-06-3.37399E-05 1.84746E-06 1.17391E-18-2.37362E-18
 -1      1771 8.51498E-05-6.54062E-06-3.37383E-05 6.35378E-07 9.95855E-19-2.50810E-18
 -1      1772 8.65470E-05-8.67084E-06-3.34078E-05 6.54509E-08 1.00443E-18-2.46314E-18
 -1      1773 8.54199E-05-6.80307E-06-3.37401E-05 4.25634E-06 1.42525E-18-2.28619E-18
 -1      1774 8.52933E-05-6.70269E-06-3.37345E-05 3.01216E-06 1.31389E-18-2.34448E-18
 -1      1775 8.66617E-05-8.80362E-06-3.34002E-05 2.35246E-06 1.32262E-18-2.32422E-18
 -1      1776 8.58729E-05-7.25516E-06-3.37443E-05 6.72011E-06 1.64069E-18-1.96660E-18
 -1      1777 8.56370E-05-7.07345E-06-3.37301E-05 5.43177E-06 1.51514E-18-2.19016E-18
 -1      1778 8.70070E-05-9.19970E-06-3.33785E-05 4.65863E-06 1.61628E-18-2.15903E-18
 -1      1779 8.66807E-05-8.04324E-06-3.37634E-05 9.38364E-06 1.98692E-18-1.36735E-18
 -1      1780 8.62627E-05-7.72738E-06-3.37305E-05 7.96206E-06 1.77266E-18-1.66519E-18
 -1      1781 8.76545E-05-9.93073E-06-3.33429E-05 7.03625E-06 1.84318E-18-1.74505E-18
 -1      1782 8.80868E-05-9.38887E-06-3.38168E-05 1.22635E-05 2.21833E-18-6.35884E-19
 -1      1783 8.73499E-05-8.83185E-06-3.37457E-05 1.06702E-05 2.05890E-18-1.10323E-18
 -1      1784 8.87697E-05-1.11634E-05-3.32906E-05 9.51214E-06 2.14664E-18-1.15130E-18
 -1      1785 9.06242E-05-1.18388E-05-3.39251E-05 1.53118E-05 2.29702E-18 5.09649E-19
 -1      1786 8.92470E-05-1.07404E-05-3.37862E-05 1.35223E-05 2.21892E-18-1.75495E-19
 -1      1787 9.06603E-05-1.32235E-05-3.32058E-05 1.19849E-05 2.33080E-18-3.45139E-19
 -1      1788 9.58629E-05-1.70309E-05-3.39891E-05 1.76984E-05 1.97639E-18 2.68059E-18
 -1      1789 9.28461E-05-1.43406E-05-3.38236E-05 1.62024E-05 2.10058E-18 1.37127E-18
 -1      1790 9.39609E-05-1.68850E-05-3.30212E-05 1.39036E-05 2.23806E-18 8.84488E-19
 -1      1791 1.01909E-04-2.50895E-05-3.33544E-05 1.44288E-05 1.52291E-18 5.17283E-18
 -1      1792 9.80618E-05-1.96123E-05-3.36208E-05 1.69714E-05 1.76555E-18 3.56066E-18
 -1      1793 9.73151E-05-2.18502E-05-3.24233E-05 1.32565E-05 1.98781E-18 2.58443E-18
 -1      1794 9.87344E-05-2.61300E-05-3.13371E-05 9.44137E-06 1.51815E-18 4.64329E-18
 -1      1795 1.00141E-04-1.95598E-05-3.42133E-05-1.88763E-05-1.67728E-18 1.37749E-19
 -1      1796 9.52901E-05-2.72795E-05-2.91790E-05 4.07355E-06 1.26733E-18 3.74611E-18
 -1      1797 9.77226E-05-2.73852E-05-3.01887E-05 6.40737E-06 1.30131E-18 4.22588E-18
 -1      1798 9.75594E-05-2.56098E-05-3.08275E-05 8.76758E-06 1.56376E-18 3.06732E-18
 -1      1799 9.98018E-05-2.25384E-05-3.28316E-05-1.44769E-05-1.75526E-18-3.05885E-19
 -1      1800 9.69399E-05-2.69722E-05-2.98712E-05-5.71245E-06-1.50100E-18-3.65548E-19
 -1      1801 9.51310E-05-2.70283E-05-2.91598E-05-3.90549E-06-1.29049E-18-7.38315E-19
 -1      1802 9.43111E-05-2.72298E-05-2.86520E-05-2.43041E-06-1.19688E-18-7.48823E-19
 -1      1803 9.35370E-05-2.73094E-05-2.83464E-05-1.57764E-06-1.04667E-18-1.07245E-18
 -1      1804 9.54887E-05-2.65417E-05-2.95696E-05-4.48303E-06-1.47841E-18-1.00160E-18
 -1      1805 9.30107E-05-2.73594E-05-2.80773E-05-7.51322E-07-9.09015E-19-1.12885E-18
 -1      1806 9.27068E-05-2.74220E-05-2.79546E-05-3.13482E-07-7.13956E-19-1.26725E-18
 -1      1807 9.42765E-05-2.72160E-05-2.87607E-05-1.84094E-06-1.14316E-18-1.13588E-18
 -1      1808 9.24299E-05-2.74490E-05-2.78182E-05 1.41445E-07-6.67057E-19-1.30363E-18
 -1      1809 9.23959E-05-2.75242E-05-2.77876E-05 3.65161E-07-5.44550E-19-1.42294E-18
 -1      1810 9.35727E-05-2.75209E-05-2.83243E-05-3.75516E-07-8.87338E-19-1.25722E-18
 -1      1811 9.22914E-05-2.75550E-05-2.77291E-05 6.04899E-07-4.03802E-19-1.44474E-18
 -1      1812 9.24037E-05-2.76389E-05-2.77477E-05 7.08918E-07-2.44753E-19-1.54934E-18
 -1      1813 9.32491E-05-2.77044E-05-2.81029E-05 4.26565E-07-5.43768E-19-1.31579E-18
 -1      1814 9.24085E-05-2.76762E-05-2.77358E-05 8.20858E-07-3.87609E-19-1.63917E-18
 -1      1815 9.25942E-05-2.77617E-05-2.77801E-05 8.55455E-07-4.43914E-19-1.75989E-18
 -1      1816 9.31837E-05-2.78456E-05-2.80104E-05 8.39026E-07-4.36730E-19-1.26407E-18
 -1      1817 9.26635E-05-2.78026E-05-2.77954E-05 8.91287E-07-5.99645E-19-1.59716E-18
 -1      1818 9.28793E-05-2.78842E-05-2.78518E-05 8.86109E-07-6.68528E-19-1.51055E-18
 -1      1819 9.32782E-05-2.79670E-05-2.79957E-05 1.01844E-06-4.78530E-19-1.35615E-18
 -1      1820 9.29832E-05-2.79253E-05-2.78823E-05 8.78311E-07-7.60076E-19-1.47015E-18
 -1      1821 9.32038E-05-2.79998E-05-2.79426E-05 8.52187E-07-5.13894E-19-1.54033E-18
 -1      1822 9.34633E-05-2.80740E-05-2.80270E-05 1.06010E-06-5.98104E-19-1.27017E-18
 -1      1823 9.33236E-05-2.80389E-05-2.79808E-05 8.22171E-07-5.53320E-19-1.70499E-18
 -1      1824 9.35357E-05-2.81049E-05-2.80404E-05 7.87676E-07-4.52039E-19-2.04576E-18
 -1      1825 9.36934E-05-2.81673E-05-2.80843E-05 1.02526E-06-7.88246E-19-1.39097E-18
 -1      1826 9.36605E-05-2.81409E-05-2.80820E-05 7.50102E-07-4.32677E-19-2.26802E-18
 -1      1827 9.38586E-05-2.81985E-05-2.81390E-05 7.15965E-07-1.85410E-19-2.56638E-18
 -1      1828 9.39407E-05-2.82473E-05-2.81551E-05 9.55080E-07-7.02098E-19-1.41836E-18
 -1      1829 9.39836E-05-2.82311E-05-2.81818E-05 6.81241E-07-1.45160E-19-2.92805E-18
 -1      1830 9.41680E-05-2.82814E-05-2.82359E-05 6.53792E-07-2.45087E-19-2.99485E-18
 -1      1831 9.41906E-05-2.83150E-05-2.82328E-05 8.78209E-07-4.40687E-19-1.79978E-18
 -1      1832 9.42923E-05-2.83113E-05-2.82795E-05 6.29660E-07 1.55034E-20-2.89817E-18
 -1      1833 9.44675E-05-2.83563E-05-2.83317E-05 6.13786E-07-3.86945E-20-2.40822E-18
 -1      1834 9.44379E-05-2.83723E-05-2.83142E-05 8.15399E-07-6.61839E-20-2.34061E-18
 -1      1835 9.45937E-05-2.83844E-05-2.83768E-05 6.06409E-07-1.43749E-19-2.06864E-18
 -1      1836 9.47673E-05-2.84267E-05-2.84292E-05 6.06225E-07 1.65184E-19-1.76034E-18
 -1      1837 9.46850E-05-2.84217E-05-2.83992E-05 7.82537E-07 1.63479E-19-1.65613E-18
 -1      1838 9.49004E-05-2.84548E-05-2.84774E-05 6.20959E-07-6.42192E-20-2.16809E-18
 -1      1839 9.50831E-05-2.84976E-05-2.85331E-05 6.40295E-07-2.30883E-19-2.18187E-18
 -1      1840 9.49395E-05-2.84664E-05-2.84896E-05 7.92738E-07-2.50244E-19-1.74013E-18
 -1      1841 9.52302E-05-2.85276E-05-2.85868E-05 6.82232E-07-5.71580E-19-2.12837E-18
 -1      1842 9.54350E-05-2.85748E-05-2.86494E-05 7.24969E-07-7.85738E-19-2.13729E-18
 -1      1843 9.52140E-05-2.85102E-05-2.85890E-05 8.57840E-07-4.09792E-19-1.81303E-18
 -1      1844 9.56053E-05-2.86094E-05-2.87117E-05 7.99280E-07-7.69109E-19-2.40137E-18
 -1      1845 9.58477E-05-2.86654E-05-2.87858E-05 8.69532E-07-6.94211E-19-2.48215E-18
 -1      1846 9.55246E-05-2.85578E-05-2.87024E-05 9.89390E-07-9.50040E-19-1.49553E-18
 -1      1847 9.60520E-05-2.87075E-05-2.88603E-05 9.81586E-07-4.45227E-19-2.46864E-18
 -1      1848 9.63503E-05-2.87779E-05-2.89510E-05 1.08370E-06-2.61700E-19-2.24759E-18
 -1      1849 9.58912E-05-2.86145E-05-2.88361E-05 1.19917E-06-6.41704E-19-1.61705E-18
 -1      1850 9.66009E-05-2.88310E-05-2.90417E-05 1.23889E-06-5.10757E-19-2.41996E-18
 -1      1851 9.69757E-05-2.89221E-05-2.91550E-05 1.37716E-06 1.42880E-19-2.75827E-18
 -1      1852 9.63369E-05-2.86871E-05-2.89970E-05 1.49912E-06-3.44939E-19-1.90672E-18
 -1      1853 9.72861E-05-2.89907E-05-2.92662E-05 1.58032E-06 6.07132E-19-3.14872E-18
 -1      1854 9.77601E-05-2.91101E-05-2.94083E-05 1.75825E-06 5.56310E-19-2.90373E-18
 -1      1855 9.68880E-05-2.87840E-05-2.91926E-05 1.90051E-06-7.27009E-20-2.59658E-18
 -1      1856 9.81450E-05-2.91996E-05-2.95441E-05 2.01235E-06 6.03556E-19-2.97565E-18
 -1      1857 9.87417E-05-2.93563E-05-2.97212E-05 2.23123E-06 6.55542E-19-2.88209E-18
 -1      1858 9.75730E-05-2.89162E-05-2.94306E-05 2.41187E-06 6.88006E-19-2.29548E-18
 -1      1859 9.92161E-05-2.94737E-05-2.98852E-05 2.53505E-06 6.88926E-19-2.66922E-18
 -1      1860 9.99577E-05-2.96782E-05-3.01029E-05 2.79130E-06 6.69738E-19-2.38998E-18
 -1      1861 9.84225E-05-2.90990E-05-2.97173E-05 3.03496E-06 9.76522E-19-2.06756E-18
 -1      1862 1.00536E-04-2.98332E-05-3.02969E-05 3.13541E-06 2.61341E-19-2.43015E-18
 -1      1863 1.01440E-04-3.00977E-05-3.05583E-05 3.41617E-06 3.00947E-19-2.34532E-18
 -1      1864 9.94680E-05-2.93539E-05-3.00570E-05 3.75795E-06 4.17570E-19-2.46043E-18
 -1      1865 1.02136E-04-3.03035E-05-3.07813E-05 3.77655E-06 1.09283E-19-2.18206E-18
 -1      1866 1.03206E-04-3.06414E-05-3.10850E-05 4.05276E-06 3.02930E-20-1.88778E-18
 -1      1867 1.00740E-04-2.97128E-05-3.04492E-05 4.54417E-06 5.03429E-19-2.43766E-18
 -1      1868 1.04031E-04-3.09166E-05-3.13314E-05 4.38138E-06 1.83581E-19-2.09298E-18
 -1      1869 1.05249E-04-3.13410E-05-3.16679E-05 4.59816E-06 2.04793E-20-2.14260E-18
 -1      1870 1.02267E-04-3.02217E-05-3.08861E-05 5.31518E-06 1.46542E-19-1.91146E-18
 -1      1871 1.06208E-04-3.17102E-05-3.19255E-05 4.81077E-06-2.04249E-19-2.29662E-18
 -1      1872 1.07516E-04-3.22288E-05-3.22731E-05 4.87653E-06 3.91951E-20-2.14197E-18
 -1      1873 1.04071E-04-3.09451E-05-3.13498E-05 5.92779E-06 2.18651E-20-2.41422E-18
 -1      1874 1.08608E-04-3.27199E-05-3.25224E-05 4.84068E-06 3.50311E-20-1.54707E-18
 -1      1875 1.09891E-04-3.33234E-05-3.28429E-05 4.62125E-06 2.28911E-19-1.36642E-18
 -1      1876 1.06162E-04-3.19619E-05-3.18107E-05 6.14832E-06 1.75514E-19-1.12184E-18
 -1      1877 1.11090E-04-3.39527E-05-3.30586E-05 4.15437E-06 5.38667E-19-1.74661E-18
 -1      1878 1.12154E-04-3.45892E-05-3.32972E-05 3.48701E-06 8.79703E-19-1.74044E-18
 -1      1879 1.08520E-04-3.33398E-05-3.22298E-05 5.63715E-06 1.39165E-20-1.18312E-18
 -1      1880 1.13383E-04-3.53229E-05-3.34548E-05 2.38882E-06 2.14729E-19-2.17722E-18
 -1      1881 1.13949E-04-3.58576E-05-3.35482E-05 1.14354E-06-8.18148E-19-2.10842E-18
 -1      1882 1.11043E-04-3.50594E-05-3.25700E-05 3.97658E-06 9.12248E-20-1.58119E-18
 -1      1883 1.15023E-04-3.65474E-05-3.36369E-05-6.97448E-07-9.67973E-19-2.02327E-18
 -1      1884 1.14770E-04-3.67293E-05-3.35361E-05-2.48438E-06-6.23913E-19-1.93780E-18
 -1      1885 1.13457E-04-3.68682E-05-3.28175E-05 8.10572E-07-3.39448E-19-1.73839E-18
 -1      1886 1.15354E-04-3.70583E-05-3.35745E-05-4.90230E-06-4.72790E-19-1.97239E-18
 -1      1887 1.14032E-04-3.65280E-05-3.32798E-05-6.85239E-06-3.69922E-19-1.92394E-18
 -1      1888 1.15211E-04-3.81271E-05-3.30095E-05-3.83849E-06-5.96589E-19-1.63526E-18
 -1      1889 1.13649E-04-3.60151E-05-3.33167E-05-9.10746E-06-2.37791E-19-2.04204E-18
 -1      1890 1.11323E-04-3.45499E-05-3.29022E-05-1.03557E-05-2.46219E-20-2.14066E-18
 -1      1891 1.15414E-04-3.77249E-05-3.32457E-05-9.08736E-06-2.74148E-19-1.70121E-18
 -1      1892 1.09833E-04-3.30421E-05-3.29778E-05-1.11635E-05-8.44121E-20-1.88466E-18
 -1      1893 1.07134E-04-3.09643E-05-3.25731E-05-1.07354E-05 2.55903E-19-2.01102E-18
 -1      1894 1.13361E-04-3.48424E-05-3.36126E-05-1.27176E-05-2.85841E-19-1.02361E-18
 -1      1895 1.05145E-04-2.90264E-05-3.26699E-05-8.97154E-06 1.23614E-20-2.15929E-18
 -1      1896 1.03215E-04-2.73967E-05-3.24079E-05-6.49565E-06-1.41110E-19-2.34614E-18
 -1      1897 1.09502E-04-3.00427E-05-3.40785E-05-1.18812E-05-1.40124E-19-1.56337E-18
 -1      1898 1.02161E-04-2.64031E-05-3.24514E-05-2.56058E-06 5.15234E-20-2.25514E-18
 -1      1899 1.01943E-04-2.62420E-05-3.24167E-05 9.34569E-07 2.26250E-19-1.44186E-18
 -1      1900 1.06153E-04-2.60583E-05-3.44221E-05-5.56798E-06-4.35693E-20-1.20470E-18
 -1      1901 1.02672E-04-2.70006E-05-3.23523E-05 5.07700E-06 4.73756E-19-1.39119E-18
 -1      1902 1.04272E-04-2.84627E-05-3.25374E-05 7.75824E-06 9.96177E-19-9.90089E-19
 -1      1903 1.05800E-04-2.57470E-05-3.44251E-05 3.66580E-06 7.58412E-19-1.11726E-18
 -1      1904 1.06082E-04-3.03128E-05-3.23953E-05 9.84525E-06 1.99208E-18-1.15457E-18
 -1      1905 1.08583E-04-3.23573E-05-3.27345E-05 1.05445E-05 1.82859E-18 6.54955E-19
 -1      1906 1.08649E-04-2.93363E-05-3.40312E-05 1.06185E-05 1.79658E-18-2.82350E-19
 -1      1907 1.10083E-04-3.39597E-05-3.26081E-05 1.00042E-05 1.20126E-19 1.35737E-19
 -1      1908 1.12325E-04-3.54905E-05-3.29766E-05 8.89380E-06-9.23928E-19-1.92733E-19
 -1      1909 1.12343E-04-3.41374E-05-3.34763E-05 1.21231E-05 6.96681E-19-6.35381E-19
 -1      1910 1.12722E-04-3.60981E-05-3.28922E-05 6.70857E-06-9.12102E-19 1.24203E-19
 -1      1911 1.13992E-04-3.66935E-05-3.31507E-05 4.75880E-06-1.28714E-18-4.18719E-21
 -1      1912 1.14454E-04-3.73090E-05-3.30042E-05 8.85704E-06-7.79727E-19-1.03662E-18
 -1      1913 1.13378E-04-3.64231E-05-3.30681E-05 2.25108E-06-1.55276E-18 3.10262E-19
 -1      1914 1.13538E-04-3.62544E-05-3.31309E-05 3.56177E-07-9.32107E-19-7.82435E-19
 -1      1915 1.14259E-04-3.79471E-05-3.26706E-05 3.57263E-06-1.44456E-18 1.29128E-18
 -1      1916 1.12347E-04-3.55440E-05-3.29986E-05-1.65141E-06-4.15602E-19-8.54952E-19
 -1      1917 1.11615E-04-3.49588E-05-3.28565E-05-3.03215E-06 6.04689E-19-7.17113E-19
 -1      1918 1.12366E-04-3.67763E-05-3.23860E-05-1.37990E-06-6.96678E-19 1.20604E-18
 -1      1919 1.10217E-04-3.41609E-05-3.26541E-05-4.28752E-06 1.08502E-18-1.00731E-18
 -1      1920 1.08921E-04-3.34318E-05-3.23539E-05-5.07019E-06 1.22012E-18-7.26351E-19
 -1      1921 1.09661E-04-3.48830E-05-3.20523E-05-4.90180E-06 3.86320E-19 1.27955E-18
 -1      1922 1.07527E-04-3.27144E-05-3.20927E-05-5.64577E-06 8.82919E-19 9.75709E-20
 -1      1923 1.05967E-04-3.19900E-05-3.17022E-05-5.92989E-06 1.10987E-18 4.32549E-19
 -1      1924 1.06766E-04-3.29852E-05-3.16301E-05-6.85100E-06 1.16610E-18 9.54318E-19
 -1      1925 1.04671E-04-3.13936E-05-3.14118E-05-5.99714E-06 6.23427E-19 3.82912E-19
 -1      1926 1.03077E-04-3.07342E-05-3.09967E-05-5.91854E-06 2.99832E-19 6.91763E-19
 -1      1927 1.03995E-04-3.13688E-05-3.11374E-05-7.51191E-06 7.75263E-19 4.90025E-19
 -1      1928 1.01918E-04-3.02410E-05-3.07106E-05-5.62893E-06-9.83700E-20 6.97078E-19
 -1      1929 1.00452E-04-2.96634E-05-3.03247E-05-5.28787E-06-4.30658E-19-1.81917E-19
 -1      1930 1.01483E-04-3.00578E-05-3.06230E-05-7.23793E-06 1.02193E-19 7.32840E-19
 -1      1931 9.94418E-05-2.92397E-05-3.00712E-05-4.73927E-06-1.27311E-19-3.50063E-20
 -1      1932 9.82210E-05-2.87515E-05-2.97544E-05-4.18422E-06 1.01011E-18 7.95500E-19
 -1      1933 9.92796E-05-2.89782E-05-3.01407E-05-6.29593E-06 2.45592E-19 1.50268E-18
 -1      1934 9.74675E-05-2.84442E-05-2.95650E-05-3.46668E-06 1.80493E-18 6.12229E-19
 -1      1935 9.65553E-05-2.80697E-05-2.93270E-05-2.75403E-06 9.43125E-19 7.11596E-19
 -1      1936 9.61593E-05-2.75494E-05-2.94142E-05-3.23540E-06-2.02763E-19 3.96001E-19
 -1      1937 9.74952E-05-2.81164E-05-2.97481E-05-4.89302E-06 1.06997E-18 1.00110E-18
 -1      1938 9.31867E-05-2.73554E-05-2.81856E-05 1.61252E-06 1.01826E-18 3.06500E-18
 -1      1939 9.43836E-05-2.74614E-05-2.86228E-05 2.68316E-06 1.11336E-18 3.51454E-18
 -1      1940 9.52101E-05-2.70414E-05-2.92206E-05 4.06234E-06 1.36428E-18 2.46596E-18
 -1      1941 9.21304E-05-2.73406E-05-2.77425E-05 3.56377E-07 5.86570E-19 2.39165E-18
 -1      1942 9.26273E-05-2.73736E-05-2.79156E-05 9.04064E-07 7.48857E-19 2.71589E-18
 -1      1943 9.36025E-05-2.73616E-05-2.83958E-05 1.59437E-06 1.01925E-18 1.92507E-18
 -1      1944 9.17507E-05-2.73768E-05-2.75731E-05-2.96345E-07 3.62644E-19 2.06008E-18
 -1      1945 9.18684E-05-2.73510E-05-2.76208E-05-4.33099E-09 4.29955E-19 2.22538E-18
 -1      1946 9.27681E-05-2.74757E-05-2.79924E-05 2.82248E-07 6.47845E-19 1.39182E-18
 -1      1947 9.17701E-05-2.74657E-05-2.75489E-05-6.21902E-07 3.37095E-19 1.80432E-18
 -1      1948 9.16849E-05-2.74048E-05-2.75332E-05-4.69373E-07 3.99922E-19 2.03266E-18
 -1      1949 9.24509E-05-2.75674E-05-2.78173E-05-4.10846E-07 4.95163E-19 1.14800E-18
 -1      1950 9.20109E-05-2.75861E-05-2.76035E-05-7.60712E-07 3.72778E-19 1.81798E-18
 -1      1951 9.18224E-05-2.75084E-05-2.75555E-05-6.89248E-07 3.02334E-19 1.88788E-18
 -1      1952 9.24516E-05-2.76711E-05-2.77713E-05-7.56518E-07 3.86329E-19 1.10354E-18
 -1      1953 9.23625E-05-2.77190E-05-2.76991E-05-7.91029E-07 5.26390E-19 1.63507E-18
 -1      1954 9.21285E-05-2.76365E-05-2.76360E-05-7.67695E-07 4.30722E-19 1.82024E-18
 -1      1955 9.26351E-05-2.77850E-05-2.77990E-05-9.00146E-07 5.78701E-19 1.02119E-18
 -1      1956 9.27570E-05-2.78516E-05-2.78127E-05-7.60564E-07 1.11884E-19 1.31441E-18
 -1      1957 9.25115E-05-2.77713E-05-2.77446E-05-7.65011E-07 4.40954E-19 1.58816E-18
 -1      1958 9.29137E-05-2.79008E-05-2.78670E-05-9.26200E-07 4.36188E-19 1.05872E-18
 -1      1959 9.31552E-05-2.79764E-05-2.79308E-05-7.00236E-07-3.68878E-19 1.63184E-18
 -1      1960 9.29168E-05-2.79022E-05-2.78635E-05-7.19067E-07-2.79802E-19 1.29302E-18
 -1      1961 9.32328E-05-2.80116E-05-2.79549E-05-8.87479E-07-9.51342E-20 1.05687E-18
 -1      1962 9.35368E-05-2.80900E-05-2.80462E-05-6.30950E-07 4.89975E-19 1.79267E-18
 -1      1963 9.33143E-05-2.80234E-05-2.79825E-05-6.54947E-07 2.37170E-19 1.74544E-18
 -1      1964 9.35601E-05-2.81135E-05-2.80506E-05-8.18759E-07 1.72519E-19 1.14112E-18
 -1      1965 9.38949E-05-2.81923E-05-2.81562E-05-5.67375E-07 7.43347E-19 1.44111E-18
 -1      1966 9.36903E-05-2.81329E-05-2.80969E-05-5.89933E-07 5.94928E-19 1.60345E-18
 -1      1967 9.38796E-05-2.82051E-05-2.81477E-05-7.43880E-07 6.16141E-19 1.07159E-18
 -1      1968 9.42322E-05-2.82849E-05-2.82611E-05-5.20281E-07 6.00560E-19 8.20888E-19
 -1      1969 9.40427E-05-2.82314E-05-2.82055E-05-5.36422E-07 6.85198E-19 1.21029E-18
 -1      1970 9.41863E-05-2.82871E-05-2.82437E-05-6.79839E-07 1.03013E-18 7.43444E-19
 -1      1971 9.45587E-05-2.83716E-05-2.83639E-05-4.98093E-07 1.84242E-19 8.78337E-19
 -1      1972 9.43777E-05-2.83217E-05-2.83101E-05-5.03806E-07 2.56040E-19 8.77736E-19
 -1      1973 9.44836E-05-2.83617E-05-2.83390E-05-6.39375E-07 4.59097E-19 7.49810E-19
 -1      1974 9.48901E-05-2.84572E-05-2.84689E-05-5.07975E-07 1.40652E-19 8.90611E-19
 -1      1975 9.47081E-05-2.84078E-05-2.84142E-05-4.99740E-07 3.35368E-20 5.83582E-19
 -1      1976 9.47812E-05-2.84326E-05-2.84363E-05-6.32707E-07 1.93548E-19 5.44476E-19
 -1      1977 9.52469E-05-2.85481E-05-2.85824E-05-5.56527E-07 3.71033E-19 4.85301E-19
 -1      1978 9.50518E-05-2.84955E-05-2.85233E-05-5.31005E-07 4.18707E-19 1.09548E-18
 -1      1979 9.50938E-05-2.85044E-05-2.85398E-05-6.68704E-07 3.22647E-19 2.55903E-19
 -1      1980 9.56541E-05-2.86516E-05-2.87118E-05-6.50166E-07 1.05026E-18 2.32026E-19
 -1      1981 9.54315E-05-2.85913E-05-2.86441E-05-6.04023E-07 4.81895E-19 2.39560E-19
 -1      1982 9.54406E-05-2.85829E-05-2.86552E-05-7.55601E-07 8.91845E-19 2.69766E-19
 -1      1983 9.61402E-05-2.87764E-05-2.88658E-05-7.95108E-07 3.91271E-19 4.80813E-19
 -1      1984 9.58736E-05-2.87033E-05-2.87847E-05-7.25015E-07 1.10623E-18 6.89428E-19
 -1      1985 9.58443E-05-2.86750E-05-2.87893E-05-9.01261E-07 8.70751E-19-1.01567E-19
 -1      1986 9.67375E-05-2.89326E-05-2.90539E-05-9.96851E-07-5.91803E-19-3.08521E-19
 -1      1987 9.64085E-05-2.88408E-05-2.89541E-05-8.99715E-07-4.04751E-19-1.50109E-19
 -1      1988 9.63311E-05-2.87888E-05-2.89499E-05-1.11289E-06-2.09620E-20 1.15271E-19
 -1      1989 9.74803E-05-2.91315E-05-2.92859E-05-1.25894E-06-2.92769E-19 3.04302E-19
 -1      1990 9.70693E-05-2.90144E-05-2.91619E-05-1.13248E-06-2.33497E-19 1.20398E-19
 -1      1991 9.69296E-05-2.89339E-05-2.91450E-05-1.39605E-06-2.97539E-19 1.93564E-20
 -1      1992 9.84031E-05-2.93857E-05-2.95716E-05-1.58069E-06-3.59195E-19-2.91893E-19
 -1      1993 9.78905E-05-2.92364E-05-2.94180E-05-1.42451E-06-3.44261E-19-2.32427E-19
 -1      1994 9.76699E-05-2.91217E-05-2.93827E-05-1.75255E-06-2.80513E-20 3.07938E-19
 -1      1995 9.95372E-05-2.97086E-05-2.99188E-05-1.95332E-06 7.56994E-19 1.51647E-20
 -1      1996 9.89058E-05-2.95199E-05-2.97311E-05-1.77078E-06 1.43015E-19-1.83626E-19
 -1      1997 9.85813E-05-2.93654E-05-2.96698E-05-2.17694E-06 3.02335E-20-4.38712E-19
 -1      1998 1.00904E-04-3.01137E-05-3.03313E-05-2.35402E-06 5.15896E-20-8.78691E-19
 -1      1999 1.00143E-04-2.98793E-05-3.01072E-05-2.15519E-06 6.30404E-19-9.93394E-20
 -1      2000 9.96894E-05-2.96806E-05-3.00106E-05-2.65083E-06 6.38478E-19-4.89643E-19
 -1      2001 1.02505E-04-3.06129E-05-3.08057E-05-2.73736E-06-6.10180E-19-6.50453E-19
 -1      2002 1.01617E-04-3.03286E-05-3.05472E-05-2.54334E-06-5.52972E-19-9.50668E-19
 -1      2003 1.01010E-04-3.00850E-05-3.04042E-05-3.13456E-06-3.23786E-19-8.12086E-19
 -1      2004 1.04311E-04-3.12128E-05-3.13265E-05-3.02435E-06-9.44900E-19-1.12725E-18
 -1      2005 1.03318E-04-3.08795E-05-3.10425E-05-2.87295E-06-8.82007E-19-6.26483E-19
 -1      2006 1.02542E-04-3.05977E-05-3.08415E-05-3.55598E-06-8.75482E-19-6.76419E-19
 -1      2007 1.06238E-04-3.19089E-05-3.18607E-05-3.09146E-06-2.92462E-19-5.02959E-20
 -1      2008 1.05199E-04-3.15368E-05-3.15705E-05-3.04307E-06-5.01491E-19-6.83020E-19
 -1      2009 1.04256E-04-3.12361E-05-3.13019E-05-3.79772E-06-4.88811E-19-1.65906E-18
 -1      2010 1.08129E-04-3.26733E-05-3.23531E-05-2.76663E-06 1.11079E-18 1.18567E-18
 -1      2011 1.07149E-04-3.22888E-05-3.20894E-05-2.90688E-06 4.23960E-19 3.70411E-19
 -1      2012 1.06076E-04-3.20068E-05-3.17500E-05-3.68799E-06 7.71288E-20 2.22349E-19
 -1      2013 1.09735E-04-3.34349E-05-3.27250E-05-1.84775E-06-1.92270E-19 9.04284E-19
 -1      2014 1.08975E-04-3.30904E-05-3.25351E-05-2.27887E-06 5.51227E-19 1.15174E-18
 -1      2015 1.07865E-04-3.28865E-05-3.21349E-05-3.00670E-06 4.05689E-19 1.14590E-18
 -1      2016 1.10707E-04-3.40513E-05-3.28838E-05-1.68578E-07-4.84860E-19 1.34282E-18
 -1      2017 1.10378E-04-3.38353E-05-3.28243E-05-9.76581E-07-6.14853E-19 8.10566E-19
 -1      2018 1.09393E-04-3.37866E-05-3.23956E-05-1.52918E-06-5.49360E-19 1.22523E-18
 -1      2019 1.10628E-04-3.42864E-05-3.27473E-05 2.26229E-06-9.03605E-19 1.56268E-18
 -1      2020 1.10959E-04-3.43241E-05-3.28690E-05 1.07795E-06-5.67393E-19 1.83318E-18
 -1      2021 1.10329E-04-3.45053E-05-3.24755E-05 8.62482E-07-6.20895E-19 2.57751E-18
 -1      2022 1.09133E-04-3.38350E-05-3.22855E-05 5.06257E-06-1.90741E-19 1.23800E-18
 -1      2023 1.10282E-04-3.42591E-05-3.26075E-05 3.68916E-06-5.28211E-19 1.18745E-18
 -1      2024 1.10259E-04-3.47004E-05-3.23468E-05 3.98561E-06-6.50945E-19 1.26030E-18
 -1      2025 1.06125E-04-3.24639E-05-3.15628E-05 7.33493E-06 3.79676E-19 5.45542E-20
 -1      2026 1.08052E-04-3.33305E-05-3.20448E-05 6.21472E-06 1.60976E-19 1.15256E-18
 -1      2027 1.08821E-04-3.39676E-05-3.20352E-05 7.13846E-06 4.91895E-19 1.10138E-18
 -1      2028 1.02094E-04-3.02989E-05-3.07512E-05 7.84548E-06 1.04084E-18 7.26278E-19
 -1      2029 1.04435E-04-3.14617E-05-3.12828E-05 7.57527E-06 1.18094E-18 4.54327E-19
 -1      2030 1.05993E-04-3.21140E-05-3.16272E-05 9.05980E-06 1.15736E-18 5.53218E-21
 -1      2031 9.82654E-05-2.80558E-05-3.00833E-05 5.72229E-06 3.55449E-19 1.04004E-18
 -1      2032 1.00334E-04-2.91134E-05-3.05116E-05 6.69992E-06 5.09470E-19 1.53271E-18
 -1      2033 1.02453E-04-2.95497E-05-3.12433E-05 8.38641E-06 4.55565E-19 1.70555E-18
 -1      2034 9.62214E-05-2.68261E-05-2.97610E-05 1.33409E-06 1.10993E-18 6.04219E-19
 -1      2035 9.72461E-05-2.72850E-05-2.99507E-05 3.34785E-06 1.09021E-18 6.82808E-19
 -1      2036 9.95827E-05-2.73739E-05-3.09863E-05 4.63659E-06 1.20444E-18 1.29908E-18
 -1      2037 9.69419E-05-2.73194E-05-2.98718E-05-3.54440E-06-2.79124E-19 1.03490E-18
 -1      2038 9.65003E-05-2.69407E-05-2.97659E-05-1.34010E-06 5.04090E-19 8.28405E-19
 -1      2039 9.87783E-05-2.67764E-05-3.09080E-05-9.91932E-07 6.09573E-19 1.75017E-18
 -1      2040 1.00029E-04-2.92309E-05-3.03616E-05-6.79427E-06-1.69576E-18 1.29053E-18
 -1      2041 9.83393E-05-2.82329E-05-3.00063E-05-5.34100E-06-1.22370E-18 1.05346E-18
 -1      2042 1.00415E-04-2.81055E-05-3.10116E-05-6.05234E-06-9.15669E-19 3.18653E-18
 -1      2043 1.03987E-04-3.15091E-05-3.10550E-05-7.35147E-06 7.23302E-19 1.12790E-18
 -1      2044 1.01773E-04-3.03850E-05-3.05799E-05-7.08157E-06-9.07667E-19 1.07544E-18
 -1      2045 1.03531E-04-3.05605E-05-3.12615E-05-8.47385E-06-7.88396E-19 1.81106E-18
 -1      2046 1.07257E-04-3.31819E-05-3.17206E-05-5.62876E-06-1.52933E-18 1.25099E-18
 -1      2047 1.05307E-04-3.23493E-05-3.12817E-05-6.33580E-06-5.39322E-21 8.68976E-19
 -1      2048 1.06591E-04-3.28596E-05-3.15770E-05-7.81074E-06-1.42953E-19 1.30133E-18
 -1      2049 1.08989E-04-3.38801E-05-3.21607E-05-2.82299E-06-4.49073E-19 1.48810E-18
 -1      2050 1.07799E-04-3.34972E-05-3.18774E-05-3.99349E-06-1.02238E-18 1.52156E-18
 -1      2051 1.08489E-04-3.41533E-05-3.18435E-05-5.07374E-06-1.38388E-18 1.25259E-18
 -1      2052 1.09087E-04-3.37309E-05-3.22750E-05-4.41057E-08 5.65871E-19 4.65010E-19
 -1      2053 1.08787E-04-3.37504E-05-3.21977E-05-1.21346E-06-3.11020E-21 6.18257E-19
 -1      2054 1.08902E-04-3.43321E-05-3.19551E-05-1.68789E-06-1.22350E-19-1.08816E-19
 -1      2055 1.07892E-04-3.30483E-05-3.20668E-05 2.08315E-06 2.26164E-19 8.62706E-19
 -1      2056 1.08353E-04-3.33410E-05-3.21825E-05 1.17573E-06 2.95853E-19 8.37335E-19
 -1      2057 1.08051E-04-3.37237E-05-3.18576E-05 1.29065E-06 1.25679E-19-1.89811E-19
 -1      2058 1.05876E-04-3.21174E-05-3.16099E-05 3.38375E-06 7.02700E-19 9.62544E-19
 -1      2059 1.06859E-04-3.25566E-05-3.18677E-05 2.81488E-06 6.55316E-19 1.19474E-18
 -1      2060 1.06354E-04-3.27288E-05-3.15582E-05 3.37996E-06 7.62125E-19 1.76089E-18
 -1      2061 1.03471E-04-3.11256E-05-3.10076E-05 3.93156E-06 1.06816E-18-3.88484E-19
 -1      2062 1.04727E-04-3.16183E-05-3.13442E-05 3.67652E-06 7.81347E-19 8.65916E-19
 -1      2063 1.04213E-04-3.16319E-05-3.11097E-05 4.51864E-06 1.36504E-18 1.20901E-18
 -1      2064 1.01022E-04-3.01758E-05-3.03642E-05 3.87040E-06 8.67952E-19 3.46820E-20
 -1      2065 1.02337E-04-3.06613E-05-3.07192E-05 3.87703E-06 7.00101E-19 6.73722E-20
 -1      2066 1.01940E-04-3.05794E-05-3.05860E-05 4.83718E-06 6.94126E-19 1.27993E-18
 -1      2067 9.87874E-05-2.93219E-05-2.97710E-05 3.31757E-06 9.24295E-19 7.67036E-19
 -1      2068 9.99908E-05-2.97602E-05-3.00926E-05 3.54705E-06 5.53270E-19 1.56503E-19
 -1      2069 9.97636E-05-2.96262E-05-3.00622E-05 4.49596E-06 8.93041E-19 7.58971E-20
 -1      2070 9.69709E-05-2.86049E-05-2.92940E-05 2.34623E-06 4.09266E-19 1.39132E-21
 -1      2071 9.79212E-05-2.89636E-05-2.95445E-05 2.78169E-06 7.50769E-19 8.27275E-19
 -1      2072 9.78416E-05-2.87887E-05-2.95992E-05 3.62046E-06 7.21080E-19 7.05362E-19
 -1      2073 9.58728E-05-2.81630E-05-2.90050E-05 1.40036E-06-4.75621E-19 7.99123E-20
 -1      2074 9.65237E-05-2.83980E-05-2.91887E-05 1.96673E-06-3.73927E-19 5.51911E-19
 -1      2075 9.65116E-05-2.81839E-05-2.92908E-05 2.63019E-06-3.36985E-20 5.45842E-19
 -1      2076 9.57002E-05-2.77903E-05-2.91042E-05 1.75279E-06-9.73204E-19 1.40027E-18
 -1      2077 9.36282E-05-2.29139E-05-3.03094E-05 4.34679E-06 5.17669E-19-8.46575E-19
 -1      2078 9.41174E-05-2.40383E-05-3.00231E-05 4.20988E-06 6.03561E-20-7.63605E-19
 -1      2079 9.45351E-05-2.49173E-05-2.98328E-05 3.90228E-06 1.35409E-20-1.66688E-18
 -1      2080 9.49779E-05-2.59149E-05-2.95843E-05 3.50771E-06-2.98333E-19 8.04393E-19
 -1      2081 9.46051E-05-2.48680E-05-2.98922E-05 5.11738E-06-2.74859E-19-1.50685E-18
 -1      2082 9.52040E-05-2.64908E-05-2.94418E-05 2.96929E-06-8.95820E-19 1.70805E-18
 -1      2083 9.55389E-05-2.72738E-05-2.92427E-05 2.39104E-06-1.32008E-18 2.01735E-18
 -1      2084 9.58884E-05-2.74368E-05-2.93274E-05 2.88937E-06-9.11332E-19 2.00520E-18
 -1      2085 9.53685E-05-2.63268E-05-2.95929E-05 4.16070E-06-1.08908E-18 1.47815E-18
 -1      2086 9.27267E-05-2.09171E-05-3.07887E-05 4.23683E-06-7.14828E-19-3.73875E-18
 -1      2087 9.32069E-05-2.20198E-05-3.05064E-05 4.35216E-06-2.05655E-19-1.86093E-18
 -1      2088 9.35965E-05-2.30474E-05-3.02350E-05 5.46276E-06-9.04439E-20-2.23828E-18
 -1      2089 9.18845E-05-1.90814E-05-3.12241E-05 3.56150E-06-9.07947E-19-1.64108E-18
 -1      2090 9.23171E-05-2.00570E-05-3.09752E-05 3.92541E-06-6.86868E-19-2.22274E-18
 -1      2091 9.25925E-05-2.12358E-05-3.05737E-05 5.12505E-06 1.53373E-19-2.13879E-18
 -1      2092 9.12294E-05-1.76890E-05-3.15467E-05 2.37479E-06-7.79633E-19 2.36729E-18
 -1      2093 9.15453E-05-1.83824E-05-3.13712E-05 2.94997E-06-8.37189E-19 9.80891E-19
 -1      2094 9.16841E-05-1.96214E-05-3.08675E-05 4.09279E-06 1.81587E-19-5.55927E-19
 -1      2095 9.08670E-05-1.69504E-05-3.17099E-05 8.16184E-07-4.70022E-19-4.02317E-19
 -1      2096 9.10135E-05-1.72564E-05-3.16338E-05 1.53064E-06-7.32002E-19 1.14815E-18
 -1      2097 9.10069E-05-1.84459E-05-3.10736E-05 2.45948E-06-6.70684E-19 1.95507E-18
 -1      2098 9.08688E-05-1.69954E-05-3.16885E-05-8.97603E-07-9.41474E-19 1.19306E-19
 -1      2099 9.08166E-05-1.68604E-05-3.17243E-05-1.46241E-07-4.26724E-19 8.73724E-19
 -1      2100 9.06796E-05-1.79010E-05-3.11628E-05 4.28232E-07-2.02355E-18 8.08969E-19
 -1      2101 9.12451E-05-1.78337E-05-3.14836E-05-2.50840E-06-1.53456E-18-1.79979E-18
 -1      2102 9.09985E-05-1.72701E-05-3.16276E-05-1.83445E-06-1.30243E-18-1.52853E-19
 -1      2103 9.07720E-05-1.80904E-05-3.11221E-05-1.70841E-06-1.74482E-18-1.83407E-19
 -1      2104 9.19284E-05-1.93180E-05-3.11302E-05-3.75262E-06 6.06522E-20-1.97683E-18
 -1      2105 9.15291E-05-1.84209E-05-3.13581E-05-3.26486E-06-7.58869E-19-2.88517E-18
 -1      2106 9.12763E-05-1.89867E-05-3.09590E-05-3.61138E-06-5.64829E-19-2.21525E-18
 -1      2107 9.28439E-05-2.12865E-05-3.06676E-05-4.48417E-06 7.36409E-19 2.87205E-18
 -1      2108 9.23349E-05-2.01514E-05-3.09543E-05-4.24217E-06 8.88107E-19 4.78935E-19
 -1      2109 9.21130E-05-2.04575E-05-3.06959E-05-5.01034E-06 1.16844E-18-9.49042E-19
 -1      2110 9.38640E-05-2.34479E-05-3.01674E-05-4.55970E-06 8.57134E-19 5.86524E-19
 -1      2111 9.33149E-05-2.22452E-05-3.04675E-05-4.61875E-06 4.87926E-19 1.21481E-18
 -1      2112 9.31822E-05-2.23134E-05-3.03678E-05-5.71036E-06 9.65416E-19 1.80943E-18
 -1      2113 9.48937E-05-2.55632E-05-2.97038E-05-3.95271E-06-6.01178E-19-1.48229E-18
 -1      2114 9.43419E-05-2.44198E-05-2.99696E-05-4.31559E-06 3.20018E-19-6.85101E-19
 -1      2115 9.43492E-05-2.43053E-05-3.00211E-05-5.58957E-06 1.24702E-19-6.12107E-19
 -1      2116 6.31879E-05-4.09888E-05-9.77545E-06 4.18849E-05 4.99749E-20-1.36915E-18
 -1      2117 4.74813E-05-4.21374E-05-3.37975E-06 3.49867E-05-5.26007E-19-1.15567E-18
 -1      2118 1.32188E-05-2.91192E-05 6.15201E-06 7.09028E-06 1.44483E-18 1.42005E-18
 -1      2119 1.33204E-05-3.02138E-05 6.43600E-06-5.64367E-06 1.32857E-18-5.67089E-19
 -1      2120 3.22611E-05-3.60651E-05 8.92518E-07 3.06058E-05-2.46910E-19 3.94082E-19
 -1      2121 2.18140E-05-3.36185E-05 4.23768E-06 2.18293E-05 6.17064E-19 1.38829E-18
 -1      2122 4.95612E-05-3.76748E-05-5.36598E-06 3.92215E-05-3.09167E-19-1.02152E-18
 -1      2123 9.99001E-05-4.34819E-05-2.40566E-05 4.25535E-05-6.71697E-19-2.40134E-18
 -1      2124 8.15551E-05-4.58092E-05-1.62903E-05 3.88131E-05-3.40507E-19-1.95982E-18
 -1      2125 1.34375E-04-4.45676E-05-3.82573E-05 3.33309E-05-1.05434E-18-3.92939E-18
 -1      2126 1.14257E-04-4.45747E-05-3.03822E-05 3.54059E-05-6.72544E-19-2.28106E-18
 -1      2127 1.19291E-04-5.51059E-05-2.72447E-05 3.33749E-05-1.36902E-18-2.74481E-18
 -1      2128 8.72671E-05-8.73090E-06-3.37491E-05-1.05378E-05-6.29362E-19-3.06633E-18
 -1      2129 8.79782E-05-9.26542E-06-3.38202E-05-1.21177E-05-8.75786E-19-2.91567E-18
 -1      2130 9.04709E-05-1.30308E-05-3.32171E-05-1.18277E-05-1.02638E-18-2.61572E-18
 -1      2131 8.86772E-05-1.10608E-05-3.32970E-05-9.40307E-06-6.24885E-19-2.97568E-18
 -1      2132 1.74649E-04-2.76476E-05-6.20429E-05 8.53850E-06-3.70577E-19-3.49634E-18
 -1      2133 1.65509E-04-2.95979E-05-5.78260E-05 1.49824E-05-8.50421E-19-4.16740E-18
 -1      2134 1.80528E-04-2.33040E-05-6.63034E-05-3.61839E-07 1.61275E-18-3.77362E-18
 -1      2135 1.77785E-04-2.35091E-05-6.52313E-05 6.70987E-06 1.12274E-18-3.32990E-18
 -1      2136 1.74488E-04-2.58257E-05-6.29037E-05-9.49078E-06 1.98121E-18-5.11735E-18
 -1      2137 1.78629E-04-2.40907E-05-6.52187E-05-2.12183E-06 2.07565E-18-4.06173E-18
 -1      2138 1.59171E-04-3.15891E-05-5.44124E-05-1.83350E-05 3.31232E-18-4.38382E-18
 -1      2139 1.74404E-04-3.10855E-05-6.01339E-05-1.42480E-05 2.13452E-18-4.81284E-18
 -1      2140 1.58056E-04-2.16458E-05-5.74102E-05 1.14433E-06 2.18196E-18-3.30682E-18
 -1      2141 1.34374E-04-4.28363E-05-3.94527E-05-2.60748E-05 1.58819E-18-3.83537E-18
 -1      2142 1.52875E-04-3.99731E-05-4.75258E-05-2.54967E-05 3.40338E-18-3.63885E-18
 -1      2143 9.38159E-05-4.40475E-05-2.21174E-05-3.77113E-05 5.34054E-19-5.13260E-18
 -1      2144 1.16592E-04-4.41576E-05-3.09600E-05-3.91105E-05 1.16806E-18-4.86959E-18
 -1      2145 6.28542E-05-4.34206E-05-8.84286E-06-3.94158E-05 5.69630E-19-2.99770E-18
 -1      2146 7.79654E-05-4.22450E-05-1.55486E-05-4.24714E-05 7.49201E-19-4.58711E-18
 -1      2147 9.91228E-05-5.25812E-05-2.01012E-05-3.94301E-05 3.23990E-19-4.78574E-18
 -1      2148 2.57585E-05-3.85306E-05 3.80873E-06-2.33638E-05 1.07192E-18-2.88838E-19
 -1      2149 3.87345E-05-3.57490E-05-2.00764E-06-3.42722E-05 1.09267E-18-8.75197E-19
 -1      2150 1.24495E-05-2.94077E-05 6.51912E-06-6.48690E-06-4.14729E-19-2.59023E-18
 -1      2151 1.69636E-05-3.39550E-05 5.96577E-06-1.59494E-05 5.33843E-19-1.46876E-18
 -1      2152 2.51105E-05-2.76841E-05 6.72164E-07-2.44767E-05-3.13190E-19-1.05244E-18
 -1      2153 1.84993E-05-3.63266E-05 6.06069E-06 1.72495E-05-1.64049E-18-3.40507E-18
 -1      2154 1.28607E-05-3.18713E-05 7.01278E-06 8.72158E-06-6.94779E-19-3.46479E-18
 -1      2155 4.16642E-05-3.69564E-05-2.72456E-06 3.50463E-05-2.15909E-18-2.64211E-18
 -1      2156 2.90211E-05-3.96531E-05 2.90629E-06 2.44387E-05-2.02102E-18-2.88965E-18
 -1      2157 2.85053E-05-3.08513E-05 4.39923E-07 2.72128E-05-1.54711E-18-3.60709E-18
 -1      2158 8.30271E-05-4.38564E-05-1.69141E-05 4.18410E-05-2.63343E-18-2.79690E-18
 -1      2159 6.60817E-05-4.51044E-05-9.80394E-06 3.77387E-05-1.42090E-18-2.44646E-18
 -1      2160 1.16984E-04-4.43229E-05-3.08586E-05 3.90951E-05-2.69229E-18-2.92819E-18
 -1      2161 9.67890E-05-4.60731E-05-2.26410E-05 3.65734E-05-3.19797E-18-2.59489E-18
 -1      2162 1.04234E-04-5.50085E-05-2.11247E-05 3.73938E-05-5.34690E-19-1.07563E-18
 -1      2163 1.51207E-04-4.10959E-05-4.66625E-05 2.70163E-05-2.74523E-18-1.54245E-18
 -1      2164 1.31279E-04-4.13375E-05-3.87795E-05 3.05987E-05-2.97880E-18-2.07777E-18
 -1      2165 1.72808E-04-3.22123E-05-5.91450E-05 1.10136E-05-2.74735E-18-1.01644E-19
 -1      2166 1.58456E-04-3.41873E-05-5.30520E-05 1.44454E-05-3.18611E-18-8.29245E-19
 -1      2167 1.85902E-04-2.65123E-05-6.67909E-05 2.26781E-06-7.43271E-19-1.01633E-18
 -1      2168 1.77488E-04-2.61847E-05-6.40085E-05 9.36592E-06-1.25827E-18-1.12952E-18
 -1      2169 1.79982E-04-2.50802E-05-6.53673E-05-7.21265E-06-1.47807E-19-5.12455E-19
 -1      2170 1.83263E-04-2.47868E-05-6.66558E-05-2.67332E-07-5.92500E-19-7.10489E-19
 -1      2171 1.67419E-04-3.05279E-05-5.80937E-05-1.59331E-05-7.01767E-19 2.21076E-19
 -1      2172 1.80393E-04-3.01048E-05-6.30398E-05-1.11932E-05 1.58183E-19-4.28599E-19
 -1      2173 1.44765E-04-3.86963E-05-4.53824E-05-2.73931E-05-1.88952E-18-2.17899E-18
 -1      2174 1.62585E-04-3.73254E-05-5.26102E-05-2.45344E-05-1.15841E-18-1.16763E-18
 -1      2175 1.12296E-04-4.48437E-05-2.95065E-05-3.52346E-05-1.74997E-18-1.04482E-18
 -1      2176 1.33116E-04-4.31210E-05-3.79859E-05-3.61604E-05-2.42082E-18-3.10565E-18
 -1      2177 7.51523E-05-4.58108E-05-1.37494E-05-3.79264E-05 8.76256E-19 2.76768E-18
 -1      2178 9.49856E-05-4.44285E-05-2.17097E-05-4.26950E-05-4.59939E-19 1.36224E-18
 -1      2179 4.12867E-05-4.19462E-05-1.15669E-06-3.15695E-05 6.37816E-19 1.22968E-18
 -1      2180 5.51448E-05-4.00189E-05-7.19404E-06-3.84052E-05 5.97158E-19 4.29377E-18
 -1      2181 1.94610E-05-3.40826E-05 5.25832E-06-1.83452E-05 1.14286E-18-1.06853E-18
 -1      2182 2.83804E-05-3.59834E-05 2.35289E-06-2.71158E-05 7.29719E-19-8.72444E-19
 -1      2183 1.63051E-04-3.60141E-05-5.34071E-05 2.05551E-05-5.08273E-19-3.79683E-18
 -1      2184 1.46066E-04-3.83480E-05-4.62433E-05 2.09226E-05-7.35013E-19-3.57490E-18
 -1      2185 1.54516E-04-3.15021E-05-5.19905E-05 6.11417E-07-6.01817E-19-3.98021E-18
 -1      2186 1.44617E-04-4.84893E-05-4.08025E-05 1.61520E-05-1.20755E-18-3.61132E-18
 -1      2187 9.71723E-05-2.43090E-05-3.12999E-05-1.00120E-05-1.64412E-18-6.66602E-19
 -1      2188 1.53316E-04-3.87585E-05-4.86254E-05-5.40684E-06 1.72842E-18-2.94175E-18
 -1      2189 9.63334E-05-2.31044E-05-3.14505E-05-1.03938E-05-1.70668E-18-1.22927E-18
 -1      2190 2.23688E-05-2.49853E-05 8.67113E-07 1.73191E-05 1.08230E-18 1.24768E-18
 -1      2191 8.56224E-05-5.05505E-05-1.51712E-05 4.25025E-05-9.90605E-19-2.92345E-18
 -1      2192 9.52927E-05-2.62710E-05-2.95685E-05-3.82296E-06-5.14010E-19-1.09576E-18
 -1      2193 2.06449E-05-2.45640E-05 1.37310E-06-1.45221E-05 1.79740E-18-2.97309E-19
 -1      2194 4.22763E-05-3.64795E-05-3.03844E-06-3.53793E-05 2.42251E-19 1.29384E-18
 -1      2195 7.78061E-05-4.86357E-05-1.27415E-05-4.25202E-05 8.43221E-19 2.89218E-18
 -1      2196 1.15886E-04-5.50618E-05-2.59561E-05-3.46142E-05-6.50521E-19-6.10711E-19
 -1      2197 1.44250E-04-4.89344E-05-4.03102E-05-1.97144E-05-1.98523E-18-2.79224E-18
 -1      2198 1.59185E-04-3.43188E-05-5.25810E-05-5.89491E-06-8.63338E-19-3.39660E-19
 -1      2199 1.61152E-04-1.91082E-05-5.97792E-05 7.62419E-07-6.49674E-19 3.10861E-19
 -1      2200 1.62216E-04-1.45016E-05-6.20464E-05-5.02170E-07-9.01243E-19-7.85755E-19
 -1      2201 1.59916E-04-2.37973E-05-5.75530E-05-2.92764E-06-1.91472E-18 5.58195E-19
 -1      2202 1.33024E-04-5.37177E-05-3.36482E-05 2.49861E-05-1.17060E-18 5.56924E-19
 -1      2203 6.46736E-05-4.38843E-05-9.12588E-06 4.10366E-05-6.02240E-19-2.17275E-18
 -1      2204 1.51727E-05-2.59055E-05 4.12488E-06 1.60875E-06-6.91894E-19-3.77523E-18
 -1      2205 1.82469E-05-1.83699E-05 1.70147E-07-5.18067E-06-9.84199E-19-3.13614E-18
 -1      2206 1.82105E-05-1.96484E-05 6.46874E-07 1.03023E-05-1.16229E-18-3.90228E-18
 -1      2207 5.60924E-05-4.04538E-05-6.96177E-06-3.95252E-05 8.49574E-19-2.70278E-18
 -1      2208 7.30851E-05-4.49408E-05-1.23224E-05-4.26162E-05 5.59254E-19-3.53054E-18
 -1      2209 5.00376E-05-3.51162E-05-6.06672E-06-3.91568E-05 6.65556E-19-1.36605E-18
 -1      2210 1.58265E-04-1.78905E-05-5.91940E-05-1.52192E-06-1.74065E-19-3.25070E-18
 -1      2211 1.59079E-04-1.37432E-05-6.12151E-05 1.32437E-06 1.86093E-18-2.95546E-18
 -1      2212 1.33412E-04-5.21391E-05-3.44778E-05-2.45546E-05 6.61744E-19-3.50926E-18
 -1      2213 1.53236E-04-4.10269E-05-4.74134E-05 7.13481E-06-2.37619E-18 3.56177E-19
 -1      2214 9.51961E-05-2.63717E-05-2.94830E-05 4.20664E-06 1.40455E-18 1.33947E-18
 -1      2215 9.61724E-05-2.58576E-05-3.00614E-05 6.01148E-06 1.53275E-18 1.55472E-18
 -1      2216 8.81518E-05-1.11903E-05-3.30229E-05-3.66644E-06 3.65291E-19-2.64156E-18
 -1      2217 8.83837E-05-1.14598E-05-3.30046E-05-4.80892E-06 1.32691E-19-2.76503E-18
 -1      2218 8.87326E-05-1.19418E-05-3.29557E-05-5.82856E-06-2.53245E-20-2.79309E-18
 -1      2219 8.91348E-05-1.24114E-05-3.29270E-05-7.00104E-06-3.25732E-19-2.82030E-18
 -1      2220 8.99033E-05-1.38288E-05-3.26027E-05-4.91112E-06 5.45269E-20-2.63781E-18
 -1      2221 8.78095E-05-1.07330E-05-3.30669E-05 6.16352E-07 1.09304E-18-2.29109E-18
 -1      2222 8.78050E-05-1.07280E-05-3.30671E-05-4.96152E-07 8.98409E-19-2.40032E-18
 -1      2223 8.79889E-05-1.09574E-05-3.30479E-05 2.76166E-06 1.43758E-18-2.18234E-18
 -1      2224 8.78751E-05-1.08247E-05-3.30575E-05 1.64079E-06 1.23106E-18-2.20933E-18
 -1      2225 8.91279E-05-1.27797E-05-3.27238E-05 1.05133E-06 1.10462E-18-2.10205E-18
 -1      2226 8.84195E-05-1.15032E-05-3.30017E-05 4.89393E-06 1.71720E-18-2.04077E-18
 -1      2227 8.81821E-05-1.12272E-05-3.30203E-05 3.76943E-06 1.57990E-18-2.17116E-18
 -1      2228 8.93915E-05-1.31348E-05-3.26832E-05 3.02575E-06 1.45036E-18-2.00687E-18
 -1      2229 8.91932E-05-1.24837E-05-3.29213E-05 7.08387E-06 2.01799E-18-1.51513E-18
 -1      2230 8.87783E-05-1.19983E-05-3.29513E-05 5.91111E-06 1.81386E-18-1.82806E-18
 -1      2231 8.99445E-05-1.38812E-05-3.25976E-05 4.98290E-06 1.74105E-18-1.81675E-18
 -1      2232 9.04557E-05-1.40899E-05-3.27925E-05 9.23407E-06 2.21175E-18-9.65578E-19
 -1      2233 8.97789E-05-1.32803E-05-3.28388E-05 8.05463E-06 2.07837E-18-1.27451E-18
 -1      2234 9.08735E-05-1.51384E-05-3.24510E-05 6.88119E-06 2.00953E-18-1.29459E-18
 -1      2235 9.24454E-05-1.66586E-05-3.25805E-05 1.11189E-05 2.29163E-18-2.12691E-19
 -1      2236 9.13708E-05-1.53202E-05-3.26536E-05 1.00386E-05 2.20464E-18-6.44671E-19
 -1      2237 9.22891E-05-1.70893E-05-3.22078E-05 8.52799E-06 2.07616E-18-7.14330E-19
 -1      2238 9.42131E-05-2.71107E-05-2.87415E-05 1.77713E-06 1.04540E-18 1.04437E-18
 -1      2239 9.48154E-05-2.68879E-05-2.90404E-05 2.74980E-06 1.24949E-18 1.34396E-18
 -1      2240 9.53240E-05-2.58436E-05-2.97852E-05 4.37454E-06 1.41265E-18 5.69891E-19
 -1      2241 9.58984E-05-2.50920E-05-3.02990E-05-6.20447E-06-1.37599E-18-1.30441E-18
 -1      2242 9.52363E-05-2.58453E-05-2.97550E-05-4.29036E-06-1.26084E-18-1.26723E-18
 -1      2243 1.43482E-04-4.31222E-05-4.33241E-05-2.87811E-07 1.85532E-18-1.76479E-18
 -1      2244 1.47817E-04-3.39029E-05-4.90819E-05 4.05379E-06 2.21277E-18-1.64494E-18
 -1      2245 1.45623E-04-4.73963E-05-4.26033E-05 4.49815E-06-8.80014E-19-3.45568E-18
 -1      2246 1.37651E-04-5.44168E-05-3.57187E-05 1.43207E-05-1.75156E-18-3.77523E-18
 -1      2247 9.51230E-05-2.65332E-05-2.93384E-05-2.95300E-06-1.19555E-18-1.03075E-18
 -1      2248 9.46504E-05-2.69025E-05-2.90350E-05-1.89070E-06-9.39179E-19-1.12016E-18
 -1      2249 9.53251E-05-2.53632E-05-2.99915E-05-4.30258E-06-1.21027E-18-1.35353E-18
 -1      2250 9.44550E-05-2.72323E-05-2.87714E-05-1.03950E-06-8.88734E-19-9.91103E-19
 -1      2251 9.41958E-05-2.74452E-05-2.86050E-05-4.37680E-07-7.98911E-19-1.13467E-18
 -1      2252 9.50201E-05-2.66951E-05-2.92955E-05-1.93315E-06-9.38018E-19-9.86027E-19
 -1      2253 9.40470E-05-2.76251E-05-2.84440E-05 7.07051E-08-6.54362E-19-1.09170E-18
 -1      2254 9.39480E-05-2.77675E-05-2.83605E-05 4.01409E-07-4.11137E-19-1.15021E-18
 -1      2255 9.47155E-05-2.74227E-05-2.88528E-05-4.53685E-07-7.05647E-19-9.69575E-19
 -1      2256 9.38638E-05-2.78760E-05-2.82678E-05 6.86005E-07-3.76196E-19-1.22095E-18
 -1      2257 9.38695E-05-2.79816E-05-2.82354E-05 8.52419E-07-3.81686E-19-1.26067E-18
 -1      2258 9.45146E-05-2.78485E-05-2.85816E-05 4.19712E-07-5.86925E-19-1.08948E-18
 -1      2259 9.38393E-05-2.80522E-05-2.81879E-05 9.93644E-07-5.06642E-19-1.37622E-18
 -1      2260 9.39079E-05-2.81343E-05-2.81867E-05 1.06031E-06-4.89495E-19-1.39788E-18
 -1      2261 9.44232E-05-2.81141E-05-2.84258E-05 8.97234E-07-5.92136E-19-1.23011E-18
 -1      2262 9.39161E-05-2.81820E-05-2.81689E-05 1.11236E-06-5.17683E-19-1.50179E-18
 -1      2263 9.40188E-05-2.82467E-05-2.81863E-05 1.12041E-06-6.38688E-19-1.55001E-18
 -1      2264 9.44168E-05-2.82858E-05-2.83471E-05 1.12226E-06-5.69273E-19-1.47333E-18
 -1      2265 9.40516E-05-2.82791E-05-2.81877E-05 1.12037E-06-8.04348E-19-1.33929E-18
 -1      2266 9.41700E-05-2.83297E-05-2.82157E-05 1.09718E-06-8.81515E-19-1.37269E-18
 -1      2267 9.44681E-05-2.83972E-05-2.83196E-05 1.19268E-06-7.90693E-19-1.44924E-18
 -1      2268 9.42177E-05-2.83508E-05-2.82294E-05 1.07086E-06-7.18807E-19-1.32323E-18
 -1      2269 9.43412E-05-2.83898E-05-2.82632E-05 1.03530E-06-5.31807E-19-1.20563E-18
 -1      2270 9.45549E-05-2.84667E-05-2.83259E-05 1.17628E-06-7.87273E-19-1.22816E-18
 -1      2271 9.43975E-05-2.84023E-05-2.82851E-05 1.00109E-06-4.85905E-19-1.11383E-18
 -1      2272 9.45210E-05-2.84318E-05-2.83222E-05 9.66606E-07-3.32303E-19-1.28118E-18
 -1      2273 9.46623E-05-2.85056E-05-2.83544E-05 1.12083E-06-5.40682E-19-8.57361E-19
 -1      2274 9.45827E-05-2.84376E-05-2.83497E-05 9.37948E-07-3.50012E-19-1.16518E-18
 -1      2275 9.47056E-05-2.84595E-05-2.83890E-05 9.14538E-07 1.33201E-19-1.07030E-18
 -1      2276 9.47815E-05-2.85215E-05-2.83983E-05 1.06081E-06-3.66062E-19-5.11196E-19
 -1      2277 9.47717E-05-2.84600E-05-2.84211E-05 9.01734E-07 4.17830E-19-1.17463E-18
 -1      2278 9.48964E-05-2.84763E-05-2.84630E-05 8.97298E-07 2.19567E-19-9.28569E-19
 -1      2279 9.49088E-05-2.85194E-05-2.84536E-05 1.02193E-06 1.44765E-19-6.47819E-19
 -1      2280 9.49680E-05-2.84726E-05-2.84997E-05 9.08752E-07-5.33259E-19-9.71543E-19
 -1      2281 9.50995E-05-2.84854E-05-2.85454E-05 9.30053E-07-5.53235E-19-1.20107E-18
 -1      2282 9.50448E-05-2.85029E-05-2.85190E-05 1.02442E-06-1.85646E-19-1.18393E-18
 -1      2283 9.51789E-05-2.84784E-05-2.85874E-05 9.73181E-07-3.23104E-19-1.43825E-18
 -1      2284 9.53243E-05-2.84898E-05-2.86388E-05 1.02651E-06-5.61810E-19-1.29304E-18
 -1      2285 9.51929E-05-2.84747E-05-2.85948E-05 1.08527E-06-5.47601E-19-1.05722E-18
 -1      2286 9.54151E-05-2.84804E-05-2.86876E-05 1.10835E-06-6.98858E-19-1.19950E-18
 -1      2287 9.55834E-05-2.84930E-05-2.87473E-05 1.19993E-06-8.98502E-19-1.19888E-18
 -1      2288 9.53593E-05-2.84368E-05-2.86827E-05 1.21994E-06-6.93710E-19-1.15283E-18
 -1      2289 9.56901E-05-2.84823E-05-2.88044E-05 1.32746E-06-8.37781E-19-1.11483E-18
 -1      2290 9.58920E-05-2.84991E-05-2.88755E-05 1.46358E-06-4.58827E-19-1.10173E-18
 -1      2291 9.55523E-05-2.83914E-05-2.87853E-05 1.44324E-06-8.00250E-19-8.33113E-19
 -1      2292 9.60200E-05-2.84885E-05-2.89430E-05 1.64376E-06-5.15635E-19-1.24854E-18
 -1      2293 9.62678E-05-2.85133E-05-2.90287E-05 1.83056E-06-5.53219E-19-1.42929E-18
 -1      2294 9.57820E-05-2.83410E-05-2.89058E-05 1.76978E-06-5.35489E-19-7.71729E-19
 -1      2295 9.64234E-05-2.85051E-05-2.91086E-05 2.06987E-06-4.62280E-19-1.62570E-18
 -1      2296 9.67306E-05-2.85432E-05-2.92125E-05 2.31263E-06 2.04942E-20-1.86094E-18
 -1      2297 9.60604E-05-2.82898E-05-2.90475E-05 2.21349E-06-7.21669E-19-7.45372E-19
 -1      2298 9.69212E-05-2.85415E-05-2.93062E-05 2.61613E-06 3.19548E-19-1.89822E-18
 -1      2299 9.73025E-05-2.86003E-05-2.94314E-05 2.91775E-06 7.67875E-19-1.83063E-18
 -1      2300 9.64013E-05-2.82454E-05-2.92131E-05 2.78619E-06 2.20096E-20-1.16786E-18
 -1      2301 9.75372E-05-2.86122E-05-2.95397E-05 3.28718E-06 8.61935E-19-2.11936E-18
 -1      2302 9.80081E-05-2.87026E-05-2.96884E-05 3.64556E-06 7.24781E-19-2.35227E-18
 -1      2303 9.68216E-05-2.82210E-05-2.94041E-05 3.49467E-06 5.58787E-19-2.52897E-18
 -1      2304 9.82989E-05-2.87405E-05-2.98108E-05 4.07624E-06 6.65663E-19-2.24148E-18
 -1      2305 9.88749E-05-2.88793E-05-2.99836E-05 4.47988E-06 6.18629E-19-1.95674E-18
 -1      2306 9.73428E-05-2.82407E-05-2.96195E-05 4.33568E-06 5.99911E-19-2.20497E-18
 -1      2307 9.92398E-05-2.89644E-05-3.01173E-05 4.95565E-06 4.87542E-19-2.26888E-18
 -1      2308 9.99361E-05-2.91766E-05-3.03118E-05 5.37686E-06 3.06353E-19-2.15660E-18
 -1      2309 9.79953E-05-2.83457E-05-2.98550E-05 5.28781E-06 4.39611E-19-2.19358E-18
 -1      2310 1.00404E-04-2.93443E-05-3.04515E-05 5.86250E-06 3.57354E-20-2.29824E-18
 -1      2311 1.01234E-04-2.96671E-05-3.06613E-05 6.24767E-06 1.62495E-19-2.30466E-18
 -1      2312 9.88259E-05-2.86050E-05-3.01014E-05 6.29927E-06 5.59238E-20-2.50570E-18
 -1      2313 1.01850E-04-2.99721E-05-3.07989E-05 6.67790E-06 3.65691E-19-2.59855E-18
 -1      2314 1.02825E-04-3.04562E-05-3.10125E-05 6.93537E-06 1.47020E-19-2.21886E-18
 -1      2315 9.99090E-05-2.91278E-05-3.03447E-05 7.27005E-06-5.12751E-20-2.64003E-18
 -1      2316 1.03662E-04-3.09760E-05-3.11389E-05 7.20034E-06 3.74122E-19-1.78859E-18
 -1      2317 1.04783E-04-3.16804E-05-3.13401E-05 7.18903E-06 6.12915E-19-1.28334E-18
 -1      2318 1.01362E-04-3.00731E-05-3.05680E-05 8.02776E-06 4.15376E-19-2.26370E-18
 -1      2319 1.05940E-04-3.25054E-05-3.14502E-05 7.11807E-06 2.11150E-19-1.48818E-18
 -1      2320 1.07187E-04-3.34718E-05-3.16221E-05 6.64618E-06 5.60498E-20-1.45743E-18
 -1      2321 1.03355E-04-3.16421E-05-3.07591E-05 8.29807E-06 4.27577E-19-1.83876E-18
 -1      2322 1.08765E-04-3.46624E-05-3.17248E-05 5.99668E-06 8.15848E-20-1.62096E-18
 -1      2323 1.10055E-04-3.58454E-05-3.18591E-05 4.85017E-06-2.80977E-20-1.40978E-18
 -1      2324 1.06096E-04-3.40176E-05-3.09278E-05 7.67602E-06 1.40253E-19-1.55945E-18
 -1      2325 1.12070E-04-3.73211E-05-3.19934E-05 3.33874E-06-2.72472E-19-1.60099E-18
 -1      2326 1.13195E-04-3.84631E-05-3.21050E-05 1.38183E-06-6.42253E-19-1.41928E-18
 -1      2327 1.09718E-04-3.71791E-05-3.11348E-05 5.62718E-06-4.68384E-19-1.43335E-18
 -1      2328 1.15409E-04-3.98424E-05-3.23534E-05-1.14970E-06-7.31658E-19-1.06450E-18
 -1      2329 1.16002E-04-4.03971E-05-3.24922E-05-3.76906E-06-4.48021E-19-9.45368E-19
 -1      2330 1.14011E-04-4.05499E-05-3.15250E-05 1.64590E-06-2.42705E-19-1.42129E-19
 -1      2331 1.17777E-04-4.08698E-05-3.29838E-05-7.17850E-06-1.98118E-19-1.44309E-18
 -1      2332 1.17307E-04-3.98698E-05-3.32314E-05-9.80316E-06 7.06065E-20-6.00793E-19
 -1      2333 1.18169E-04-4.27703E-05-3.23462E-05-4.36264E-06-6.57059E-19 2.43456E-19
 -1      2334 1.17408E-04-3.82810E-05-3.40410E-05-1.26109E-05 2.01691E-20-1.02697E-18
 -1      2335 1.15807E-04-3.54543E-05-3.44132E-05-1.37080E-05-4.29148E-19-1.19074E-18
 -1      2336 1.20043E-04-4.10278E-05-3.38709E-05-1.12705E-05-2.82155E-19-4.06410E-19
 -1      2337 1.14066E-04-3.18708E-05-3.54159E-05-1.42812E-05-2.34522E-20-9.68397E-19
 -1      2338 1.11757E-04-2.79917E-05-3.58313E-05-1.25464E-05 1.72583E-20-9.19640E-19
 -1      2339 1.18823E-04-3.53565E-05-3.57940E-05-1.51814E-05 8.96664E-21 3.19993E-19
 -1      2340 1.09462E-04-2.46730E-05-3.65743E-05-8.36761E-06-4.38313E-19-4.25545E-19
 -1      2341 1.08476E-04-2.27604E-05-3.67601E-05-4.15740E-06-3.38893E-19-3.93394E-19
 -1      2342 1.13717E-04-2.45782E-05-3.82982E-05-1.23618E-05 1.78989E-19 5.19364E-19
 -1      2343 1.08174E-04-2.23708E-05-3.68189E-05 1.92139E-06 7.88799E-21-5.21036E-19
 -1      2344 1.09025E-04-2.39264E-05-3.66420E-05 6.52999E-06 1.06393E-18-5.79581E-20
 -1      2345 1.11707E-04-2.05990E-05-3.91715E-05-1.50794E-06-2.23246E-19 1.62339E-19
 -1      2346 1.11012E-04-2.70897E-05-3.59191E-05 1.07977E-05 1.48342E-18 1.78461E-19
 -1      2347 1.13056E-04-3.07291E-05-3.54853E-05 1.29434E-05 1.76564E-18 1.27121E-20
 -1      2348 1.13456E-04-2.43731E-05-3.83315E-05 9.82341E-06 1.27484E-18-4.28281E-19
 -1      2349 1.14970E-04-3.44882E-05-3.44523E-05 1.31468E-05 7.19912E-19-1.02474E-18
 -1      2350 1.16661E-04-3.75866E-05-3.40175E-05 1.22786E-05-8.44795E-19-1.99255E-18
 -1      2351 1.17757E-04-3.33091E-05-3.62131E-05 1.41950E-05 4.62586E-19-1.97183E-18
 -1      2352 1.16694E-04-3.94377E-05-3.31380E-05 9.52731E-06-3.78596E-19-1.71886E-18
 -1      2353 1.17178E-04-4.06286E-05-3.28362E-05 6.97727E-06-2.01594E-19-1.28961E-18
 -1      2354 1.19803E-04-4.05275E-05-3.39354E-05 1.08968E-05-2.14054E-19-2.13871E-18
 -1      2355 1.15543E-04-4.03961E-05-3.22804E-05 3.52948E-06-4.31447E-19-3.48535E-19
 -1      2356 1.14921E-04-3.99918E-05-3.20899E-05 7.71514E-07-7.16051E-19 4.89464E-19
 -1      2357 1.18058E-04-4.27310E-05-3.22765E-05 4.12386E-06-1.05136E-19-1.20897E-18
 -1      2358 1.12647E-04-3.86609E-05-3.17867E-05-1.99650E-06-1.10069E-18 1.41324E-18
 -1      2359 1.11399E-04-3.75065E-05-3.16310E-05-4.14065E-06-1.96343E-19 1.26626E-18
 -1      2360 1.13980E-04-4.09596E-05-3.13266E-05-2.25931E-06 1.29288E-19-1.20049E-19
 -1      2361 1.09250E-04-3.59747E-05-3.14609E-05-5.85814E-06 1.64377E-19 1.67257E-18
 -1      2362 1.07787E-04-3.47067E-05-3.12876E-05-7.17502E-06 6.18829E-19 1.95645E-18
 -1      2363 1.09455E-04-3.75785E-05-3.08468E-05-6.69326E-06 1.38639E-19 1.66550E-18
 -1      2364 1.06051E-04-3.34130E-05-3.11635E-05-7.97887E-06 8.38063E-19 1.00802E-18
 -1      2365 1.04605E-04-3.23170E-05-3.09572E-05-8.56402E-06 3.41579E-19 1.84375E-19
 -1      2366 1.05528E-04-3.42370E-05-3.05895E-05-9.10469E-06 1.65218E-19 1.42594E-18
 -1      2367 1.03285E-04-3.13565E-05-3.08396E-05-8.71127E-06 1.35653E-19 3.91462E-19
 -1      2368 1.01955E-04-3.04869E-05-3.06122E-05-8.74694E-06 2.52212E-19 1.41685E-19
 -1      2369 1.02461E-04-3.15809E-05-3.04025E-05-9.95375E-06 3.03120E-19 5.22417E-19
 -1      2370 1.00949E-04-2.97954E-05-3.04946E-05-8.45382E-06 7.22358E-19 1.89108E-19
 -1      2371 9.97679E-05-2.91058E-05-3.02696E-05-8.09958E-06 6.18390E-19 7.49328E-19
 -1      2372 1.00133E-04-2.96429E-05-3.02263E-05-9.72212E-06 5.30884E-19 4.76732E-19
 -1      2373 9.89650E-05-2.85750E-05-3.01601E-05-7.50459E-06 3.64175E-19 6.22620E-19
 -1      2374 9.79569E-05-2.80127E-05-2.99621E-05-6.85896E-06 4.47151E-19 1.61949E-18
 -1      2375 9.83281E-05-2.82212E-05-3.00558E-05-8.75985E-06 8.91578E-19-4.81875E-19
 -1      2376 6.26182E-05-3.89097E-05-1.00718E-05 4.27519E-05-8.72867E-19-3.24022E-18
 -1      2377 4.73110E-05-3.14845E-05-6.37590E-06 3.61240E-05 1.02279E-19-1.70804E-18
 -1      2378 9.33146E-05-2.76829E-05-2.81205E-05-3.99724E-07 5.11832E-19 3.57883E-19
 -1      2379 9.33940E-05-2.75788E-05-2.81820E-05-1.13476E-07 6.33659E-19 4.91544E-19
 -1      2380 9.32631E-05-2.78457E-05-2.80312E-05-8.09539E-07 4.71158E-19 3.52196E-19
 -1      2381 9.32184E-05-2.77556E-05-2.80424E-05-6.68577E-07 4.10646E-19 4.20234E-19
 -1      2382 9.39937E-05-2.78009E-05-2.83797E-05-4.33710E-07 5.44680E-19-2.18189E-19
 -1      2383 9.33589E-05-2.79796E-05-2.80164E-05-9.92032E-07 6.03873E-19 4.01330E-19
 -1      2384 9.32451E-05-2.78998E-05-2.79986E-05-9.37839E-07 6.16616E-19 3.98335E-19
 -1      2385 9.39080E-05-2.80079E-05-2.82511E-05-8.86871E-07 5.42316E-19-9.54095E-20
 -1      2386 9.35390E-05-2.80926E-05-2.80461E-05-1.03832E-06 2.86079E-19 5.85671E-19
 -1      2387 9.33914E-05-2.80228E-05-2.80125E-05-1.03473E-06 4.14213E-19 5.43210E-19
 -1      2388 9.39400E-05-2.81542E-05-2.81995E-05-1.09326E-06 3.77225E-19-1.05546E-19
 -1      2389 9.37613E-05-2.81879E-05-2.81012E-05-1.00824E-06-1.22804E-19 6.52077E-19
 -1      2390 9.36015E-05-2.81278E-05-2.80597E-05-1.03162E-06 2.47859E-19 8.33024E-19
 -1      2391 9.40451E-05-2.82612E-05-2.81967E-05-1.15065E-06 1.46161E-19 3.77986E-19
 -1      2392 9.39999E-05-2.82671E-05-2.81698E-05-9.42423E-07 5.32754E-19 3.96365E-19
 -1      2393 9.38399E-05-2.82164E-05-2.81252E-05-9.76721E-07 9.92589E-20 4.01117E-19
 -1      2394 9.41913E-05-2.83398E-05-2.82244E-05-1.12477E-06 2.99827E-19 9.06587E-20
 -1      2395 9.42412E-05-2.83324E-05-2.82452E-05-8.69333E-07 7.98084E-19 1.49070E-19
 -1      2396 9.40863E-05-2.82900E-05-2.81999E-05-9.03221E-07 7.93037E-19 3.31888E-19
 -1      2397 9.43580E-05-2.83966E-05-2.82707E-05-1.06096E-06 7.53834E-19-3.75654E-19
 -1      2398 9.44808E-05-2.83861E-05-2.83246E-05-8.09581E-07 8.92102E-19 2.78767E-19
 -1      2399 9.43313E-05-2.83505E-05-2.82791E-05-8.34747E-07 1.02580E-18 3.53777E-19
 -1      2400 9.45339E-05-2.84361E-05-2.83286E-05-9.91379E-07 8.17199E-19-4.09292E-19
 -1      2401 9.47210E-05-2.84314E-05-2.84077E-05-7.78819E-07 3.32765E-19 2.19022E-19
 -1      2402 9.45738E-05-2.84006E-05-2.83615E-05-7.88812E-07 6.21627E-19 2.18099E-19
 -1      2403 9.47146E-05-2.84621E-05-2.83948E-05-9.39614E-07 6.98113E-19-6.04573E-20
 -1      2404 9.49696E-05-2.84717E-05-2.84962E-05-7.89712E-07 4.01973E-19 1.46894E-19
 -1      2405 9.48187E-05-2.84434E-05-2.84478E-05-7.79153E-07 4.30725E-19 3.02923E-19
 -1      2406 9.49013E-05-2.84778E-05-2.84683E-05-9.23784E-07 3.78657E-19-2.54086E-19
 -1      2407 9.52386E-05-2.85111E-05-2.85936E-05-8.53257E-07 2.55095E-19 5.39472E-20
 -1      2408 9.50755E-05-2.84826E-05-2.85407E-05-8.17324E-07 2.43023E-19 2.25122E-19
 -1      2409 9.50997E-05-2.84865E-05-2.85498E-05-9.58686E-07 3.80835E-19-1.46764E-19
 -1      2410 9.55435E-05-2.85547E-05-2.87045E-05-9.79553E-07 1.15573E-18-1.91723E-19
 -1      2411 9.53580E-05-2.85227E-05-2.86440E-05-9.13710E-07 7.48806E-19 5.99370E-20
 -1      2412 9.53187E-05-2.84916E-05-2.86419E-05-1.05720E-06 4.31210E-19-3.01693E-19
 -1      2413 9.59031E-05-2.86084E-05-2.88343E-05-1.17800E-06 4.10539E-19 4.25667E-19
 -1      2414 9.56830E-05-2.85689E-05-2.87630E-05-1.07799E-06 9.71263E-19 2.73213E-19
 -1      2415 9.55700E-05-2.84970E-05-2.87478E-05-1.23104E-06 7.72057E-19 2.60804E-19
 -1      2416 9.63386E-05-2.86794E-05-2.89890E-05-1.45682E-06-2.57894E-19 2.95206E-19
 -1      2417 9.60704E-05-2.86278E-05-2.89032E-05-1.31901E-06 2.23103E-19 6.00169E-19
 -1      2418 9.58683E-05-2.85080E-05-2.88715E-05-1.49082E-06 3.70422E-19 6.04306E-19
 -1      2419 9.68737E-05-2.87772E-05-2.91749E-05-1.82168E-06-1.89975E-19 1.14957E-19
 -1      2420 9.65428E-05-2.87076E-05-2.90709E-05-1.64384E-06-5.31111E-19 1.69527E-19
 -1      2421 9.62301E-05-2.85313E-05-2.90173E-05-1.84527E-06-2.23154E-19 3.85295E-19
 -1      2422 9.75330E-05-2.89142E-05-2.93975E-05-2.27302E-06-1.68058E-20 1.35141E-19
 -1      2423 9.71244E-05-2.88192E-05-2.92718E-05-2.05580E-06 2.64443E-19 3.36336E-19
 -1      2424 9.66747E-05-2.85771E-05-2.91889E-05-2.29939E-06-1.40207E-19-1.86732E-19
 -1      2425 9.83412E-05-2.91068E-05-2.96606E-05-2.80165E-06 3.76742E-19-4.94304E-19
 -1      2426 9.78411E-05-2.89771E-05-2.95107E-05-2.55101E-06 3.06636E-20-4.21879E-19
 -1      2427 9.72232E-05-2.86602E-05-2.93890E-05-2.85114E-06 4.87516E-19 1.95718E-19
 -1      2428 9.93211E-05-2.93775E-05-2.99649E-05-3.38196E-06 3.12065E-19-1.14281E-19
 -1      2429 9.87186E-05-2.92012E-05-2.97902E-05-3.11279E-06 4.49296E-19-3.71100E-19
 -1      2430 9.78995E-05-2.88029E-05-2.96184E-05-3.48600E-06 4.14437E-19-4.37041E-19
 -1      2431 1.00491E-04-2.97562E-05-3.03061E-05-3.96216E-06-3.53657E-19-3.62085E-19
 -1      2432 9.97812E-05-2.95185E-05-3.01091E-05-3.70348E-06 1.64589E-19-2.42889E-19
 -1      2433 9.87307E-05-2.90383E-05-2.98746E-05-4.16910E-06 4.23734E-19 2.56889E-20
 -1      2434 1.01860E-04-3.02817E-05-3.06726E-05-4.45169E-06-2.84915E-19-1.36008E-18
 -1      2435 1.01049E-04-2.99653E-05-3.04604E-05-4.25303E-06-3.89329E-19-8.19249E-19
 -1      2436 9.97481E-05-2.94140E-05-3.01505E-05-4.83402E-06 1.72438E-20-6.64742E-19
 -1      2437 1.03424E-04-3.09991E-05-3.10439E-05-4.70744E-06-8.38398E-19-8.45430E-19
 -1      2438 1.02534E-04-3.05873E-05-3.08294E-05-4.64519E-06-8.32884E-19-1.44570E-18
 -1      2439 1.00988E-04-2.99950E-05-3.04344E-05-5.36891E-06-3.55314E-19-1.21365E-18
 -1      2440 1.05151E-04-3.19481E-05-3.13904E-05-4.52482E-06 1.86430E-19-3.28751E-19
 -1      2441 1.04231E-04-3.14329E-05-3.11932E-05-4.70434E-06-4.07728E-19-9.17410E-19
 -1      2442 1.02491E-04-3.08592E-05-3.07099E-05-5.60176E-06-7.54086E-19-9.25867E-19
 -1      2443 1.06963E-04-3.31316E-05-3.16768E-05-3.64690E-06 7.56209E-21 3.03135E-19
 -1      2444 1.06101E-04-3.25333E-05-3.15218E-05-4.19225E-06 3.05139E-19-1.16398E-19
 -1      2445 1.04290E-04-3.20777E-05-3.09602E-05-5.29167E-06-1.35352E-19-6.61637E-19
 -1      2446 1.08702E-04-3.44532E-05-3.18730E-05-1.81697E-06-1.18807E-18 7.32271E-19
 -1      2447 1.08036E-04-3.38532E-05-3.17849E-05-2.83416E-06-6.06004E-19 7.59406E-19
 -1      2448 1.06376E-04-3.36607E-05-3.11765E-05-4.14153E-06-5.14529E-19-6.52803E-19
 -1      2449 1.10076E-04-3.56235E-05-3.19700E-05 1.08968E-06-1.25912E-18 1.82690E-18
 -1      2450 1.09799E-04-3.52064E-05-3.19637E-05-4.08886E-07-1.05852E-18 1.33743E-18
 -1      2451 1.08634E-04-3.54538E-05-3.13709E-05-1.86304E-06-1.49298E-18-2.67740E-19
 -1      2452 1.10633E-04-3.60917E-05-3.19987E-05 4.83069E-06 3.46622E-20 6.71790E-19
 -1      2453 1.10966E-04-3.61555E-05-3.20676E-05 3.05648E-06-5.87305E-19 1.54522E-18
 -1      2454 1.10722E-04-3.69972E-05-3.15903E-05 1.65752E-06-6.47975E-19 1.17135E-18
 -1      2455 1.09856E-04-3.51505E-05-3.20315E-05 8.51802E-06 6.01638E-19 4.95977E-19
 -1      2456 1.10943E-04-3.60054E-05-3.21424E-05 6.99112E-06-3.09233E-20 9.49646E-19
 -1      2457 1.12000E-04-3.74549E-05-3.19171E-05 6.05680E-06 7.80643E-20 7.73516E-19
 -1      2458 1.07513E-04-3.24145E-05-3.21447E-05 1.05435E-05 1.84083E-19 1.54990E-18
 -1      2459 1.09227E-04-3.40941E-05-3.22501E-05 1.00467E-05 9.71342E-19 1.43410E-18
 -1      2460 1.11663E-04-3.58693E-05-3.24318E-05 1.01379E-05 2.17418E-19 9.65685E-19
 -1      2461 1.04236E-04-2.85872E-05-3.23465E-05 9.20564E-06 5.79331E-19 2.62282E-18
 -1      2462 1.06021E-04-3.05281E-05-3.24148E-05 1.03699E-05-6.34216E-20 2.12258E-18
 -1      2463 1.09360E-04-3.19855E-05-3.31242E-05 1.18426E-05-4.12694E-19 3.34703E-18
 -1      2464 1.01640E-04-2.56112E-05-3.25342E-05 4.10382E-06 1.23790E-18 3.35935E-18
 -1      2465 1.02692E-04-2.67793E-05-3.25679E-05 6.80093E-06 1.16762E-18 3.13701E-18
 -1      2466 1.06045E-04-2.72019E-05-3.38168E-05 9.28649E-06 5.63389E-19 4.63216E-18
 -1      2467 1.01429E-04-2.54781E-05-3.25631E-05-2.82205E-06-1.03762E-19 3.88177E-18
 -1      2468 1.01196E-04-2.51194E-05-3.25789E-05 2.70114E-07 9.21320E-19 3.67643E-18
 -1      2469 1.03850E-04-2.42395E-05-3.41948E-05 2.56461E-06 9.27355E-19 4.97692E-18
 -1      2470 1.03780E-04-2.83126E-05-3.23999E-05-8.24318E-06-6.95017E-19 3.73373E-18
 -1      2471 1.02435E-04-2.66842E-05-3.23921E-05-6.19242E-06-1.76262E-19 3.86338E-18
 -1      2472 1.04448E-04-2.51725E-05-3.40338E-05-5.25945E-06 2.23828E-19 4.03132E-18
 -1      2473 1.07088E-04-3.22106E-05-3.21505E-05-9.93139E-06-1.27715E-19 2.51453E-18
 -1      2474 1.05375E-04-3.03131E-05-3.21057E-05-9.61118E-06-6.82371E-19 3.45810E-18
 -1      2475 1.07292E-04-2.93298E-05-3.34087E-05-1.02387E-05 1.25169E-19 3.27424E-18
 -1      2476 1.09464E-04-3.50520E-05-3.19278E-05-8.03429E-06-2.50781E-19 2.33105E-18
 -1      2477 1.08143E-04-3.37742E-05-3.18597E-05-9.13131E-06 6.28873E-19 2.38878E-18
 -1      2478 1.10196E-04-3.39860E-05-3.26153E-05-1.05976E-05 2.42894E-19 3.28502E-18
 -1      2479 1.10101E-04-3.60371E-05-3.17536E-05-4.24257E-06-9.15398E-19 7.38393E-19
 -1      2480 1.09524E-04-3.56255E-05-3.17065E-05-5.99002E-06-1.13780E-18 1.51685E-18
 -1      2481 1.11423E-04-3.68320E-05-3.19240E-05-7.38880E-06 1.20042E-19 2.50789E-18
 -1      2482 1.09197E-04-3.55045E-05-3.15800E-05-2.66756E-07 2.22852E-19 3.00771E-20
 -1      2483 1.09348E-04-3.57578E-05-3.15973E-05-1.98229E-06 1.17791E-21 8.02142E-20
 -1      2484 1.10721E-04-3.73398E-05-3.14314E-05-2.80602E-06-1.06680E-19-1.18075E-19
 -1      2485 1.07353E-04-3.41858E-05-3.13501E-05 2.88628E-06-3.75881E-19 3.79770E-19
 -1      2486 1.08039E-04-3.47837E-05-3.14516E-05 1.57286E-06-4.18275E-19-2.11384E-19
 -1      2487 1.08737E-04-3.61881E-05-3.10962E-05 1.43308E-06-6.62654E-20 1.30372E-18
 -1      2488 1.05110E-04-3.26628E-05-3.10404E-05 4.89758E-06 1.24568E-18 1.57820E-18
 -1      2489 1.06107E-04-3.33626E-05-3.12182E-05 4.09013E-06 4.83021E-19 9.04899E-19
 -1      2490 1.06249E-04-3.43365E-05-3.08327E-05 4.52180E-06-3.40104E-20 2.43187E-19
 -1      2491 1.02814E-04-3.12398E-05-3.06655E-05 5.84008E-06 1.47149E-18 8.10763E-19
 -1      2492 1.03941E-04-3.19147E-05-3.08932E-05 5.49645E-06 1.63700E-18 1.75458E-18
 -1      2493 1.03762E-04-3.24431E-05-3.05796E-05 6.32135E-06 1.31578E-18 1.01834E-18
 -1      2494 1.00650E-04-3.00074E-05-3.02642E-05 5.91436E-06 1.11074E-18 1.03623E-18
 -1      2495 1.01777E-04-3.06140E-05-3.05083E-05 5.95038E-06 7.42911E-19 1.65292E-18
 -1      2496 1.01501E-04-3.07933E-05-3.03157E-05 7.00567E-06 8.67301E-19 1.63482E-18
 -1      2497 9.87088E-05-2.89520E-05-2.98819E-05 5.30809E-06 1.11219E-18 4.16720E-19
 -1      2498 9.97465E-05-2.94868E-05-3.01109E-05 5.64925E-06 1.52293E-18 7.54958E-19
 -1      2499 9.95199E-05-2.94273E-05-3.00504E-05 6.81484E-06 1.68534E-18 7.33571E-19
 -1      2500 9.70363E-05-2.80475E-05-2.95517E-05 4.16187E-06-3.89096E-19 1.52398E-18
 -1      2501 9.79276E-05-2.85076E-05-2.97452E-05 4.74751E-06 3.62156E-19 1.59889E-18
 -1      2502 9.78052E-05-2.82768E-05-2.98075E-05 5.94447E-06 3.03650E-19 2.26590E-18
 -1      2503 9.63650E-05-2.76896E-05-2.94229E-05 3.32199E-06-4.43358E-19 1.53851E-18
 -1      2504 9.22205E-05-2.14541E-05-3.03519E-05 5.77345E-06 9.40149E-19-1.83206E-18
 -1      2505 9.28401E-05-2.23298E-05-3.02102E-05 6.13994E-06 9.22871E-19-3.59058E-18
 -1      2506 9.11130E-05-1.99627E-05-3.05219E-05 4.41671E-06 4.21279E-19 1.13644E-19
 -1      2507 9.16350E-05-2.06720E-05-3.04106E-05 5.14009E-06 6.86820E-19-8.74110E-19
 -1      2508 9.17614E-05-2.16676E-05-3.00324E-05 6.23447E-06 1.49605E-18-1.51774E-18
 -1      2509 9.46836E-05-2.48876E-05-2.99197E-05 6.11387E-06-2.06205E-19-1.36075E-18
 -1      2510 9.52918E-05-2.57880E-05-2.97703E-05 5.77702E-06-3.80166E-19-1.14482E-18
 -1      2511 9.34602E-05-2.31648E-05-3.01414E-05 6.33434E-06-3.98050E-19-3.91313E-18
 -1      2512 9.40885E-05-2.40798E-05-2.99904E-05 6.33209E-06 9.28758E-21-1.86567E-18
 -1      2513 9.46883E-05-2.50272E-05-2.98518E-05 7.07552E-06-2.26172E-19-1.78711E-18
 -1      2514 9.32228E-05-2.33359E-05-2.99469E-05 7.09944E-06 7.18017E-19-2.81618E-18
 -1      2515 9.03207E-05-1.89243E-05-3.06278E-05 2.38953E-06-1.19860E-18 1.66454E-18
 -1      2516 9.06583E-05-1.93629E-05-3.05623E-05 3.39391E-06-7.36815E-19 1.43012E-18
 -1      2517 9.05157E-05-2.02444E-05-3.00994E-05 4.48346E-06-1.64172E-19 8.96151E-20
 -1      2518 9.00071E-05-1.85330E-05-3.06559E-05-4.71303E-08-1.51477E-18-3.56166E-19
 -1      2519 9.00900E-05-1.86245E-05-3.06452E-05 1.10062E-06-1.59664E-18 9.23981E-19
 -1      2520 8.96921E-05-1.93152E-05-3.01376E-05 2.02088E-06-7.35561E-19 5.81299E-19
 -1      2521 9.02533E-05-1.88801E-05-3.06037E-05-2.52538E-06-1.00424E-18 5.00246E-20
 -1      2522 9.00579E-05-1.86018E-05-3.06491E-05-1.40945E-06-2.03893E-18 6.61124E-19
 -1      2523 8.94745E-05-1.90758E-05-3.01449E-05-8.10498E-07-1.02922E-18 2.69991E-19
 -1      2524 9.10094E-05-1.98949E-05-3.04817E-05-4.62474E-06 5.83301E-19-2.42047E-18
 -1      2525 9.05741E-05-1.92998E-05-3.05750E-05-3.72567E-06-4.58828E-19-1.66798E-18
 -1      2526 8.99229E-05-1.95824E-05-3.01231E-05-3.54571E-06-5.03619E-19-1.91115E-19
 -1      2527 9.21752E-05-2.14501E-05-3.03044E-05-6.09808E-06 1.66695E-18 3.33838E-19
 -1      2528 9.15545E-05-2.06035E-05-3.04351E-05-5.52047E-06 1.42040E-18-1.95131E-18
 -1      2529 9.09574E-05-2.07429E-05-3.00770E-05-5.77917E-06 1.09133E-18-1.59421E-18
 -1      2530 9.35731E-05-2.33095E-05-3.00993E-05-6.70343E-06 1.65206E-19 8.55906E-19
 -1      2531 9.28552E-05-2.23272E-05-3.02476E-05-6.54569E-06 9.94779E-19 1.12145E-18
 -1      2532 9.24188E-05-2.23744E-05-3.00144E-05-7.20176E-06 1.58317E-18-3.92984E-19
 -1      2533 9.50265E-05-2.52345E-05-2.98917E-05-6.37272E-06-1.03884E-18-1.47079E-18
 -1      2534 9.42983E-05-2.42288E-05-3.00401E-05-6.65837E-06-3.82647E-19 4.79599E-19
 -1      2535 9.40797E-05-2.42216E-05-2.99397E-05-7.61281E-06-1.06169E-19 2.02220E-19
 -1      2536 9.58930E-05-2.65726E-05-2.97007E-05-4.75713E-06-1.72895E-19-8.20973E-19
 -1      2537 2.31487E-05-1.71791E-05-2.12023E-06-8.69929E-06 6.04146E-19-2.97097E-19
 -1      2538 2.99294E-05-2.20418E-05-2.98821E-06-2.36835E-05 3.84553E-19-5.86570E-19
 -1      2539 9.35992E-05-2.74648E-05-2.83318E-05 3.81828E-07 7.30023E-19 6.75289E-19
 -1      2540 9.38833E-05-2.73295E-05-2.84792E-05 9.15538E-07 8.09231E-19 8.30792E-19
 -1      2541 9.42503E-05-2.74834E-05-2.86281E-05 4.15938E-07 8.36753E-19-2.23240E-20
 -1      2542 1.01886E-04-5.47456E-05-2.01994E-05 4.02644E-05-1.66887E-18-4.51966E-18
 -1      2543 8.33465E-05-4.84361E-05-1.46626E-05 4.16659E-05-1.10771E-18-4.22532E-18
 -1      2544 1.28875E-04-5.82142E-05-3.05560E-05 2.61342E-05-2.11610E-18-3.40910E-18
 -1      2545 1.16118E-04-5.75451E-05-2.50842E-05 3.18710E-05-2.30308E-18-3.56114E-18
 -1      2546 1.13868E-04-5.82814E-05-2.36805E-05 3.23556E-05-2.68128E-18-4.48912E-18
 -1      2547 1.35523E-04-5.80538E-05-3.31125E-05 1.42625E-05-2.05585E-18-4.02859E-18
 -1      2548 1.45311E-04-2.83519E-05-5.06949E-05-6.27885E-06-8.92773E-19-2.52373E-18
 -1      2549 1.45001E-04-3.58370E-05-4.70139E-05-4.84058E-06-4.50939E-19-2.96334E-18
 -1      2550 4.20311E-05-3.06298E-05-4.66990E-06-3.43584E-05 1.13291E-19 1.87618E-19
 -1      2551 5.71977E-05-3.86883E-05-7.85600E-06-4.13332E-05 1.27690E-19 3.54335E-18
 -1      2552 1.44805E-04-1.32649E-05-5.68464E-05-3.48619E-06 3.86247E-19-2.88436E-18
 -1      2553 1.43287E-04-1.81746E-05-5.41155E-05-6.02293E-06-6.70003E-19-2.82655E-18
 -1      2554 9.50587E-05-2.00194E-05-3.22081E-05-1.17828E-05-1.51657E-18-1.75214E-18
 -1      2555 9.54516E-05-2.33521E-05-3.09223E-05-7.98170E-06-1.45495E-18-1.54904E-18
 -1      2556 9.50386E-05-2.25568E-05-3.10496E-05-7.63691E-06-1.33167E-18-1.70814E-18
 -1      2557 9.32311E-05-1.77077E-05-3.23945E-05-1.13154E-05-1.31400E-18-2.06910E-18
 -1      2558 8.78610E-05-1.08073E-05-3.30588E-05-1.52061E-06 7.70230E-19-2.46418E-18
 -1      2559 8.79653E-05-1.09290E-05-3.30498E-05-2.64076E-06 5.59706E-19-2.57688E-18
 -1      2560 8.93645E-05-1.31015E-05-3.26862E-05-2.93461E-06 4.48592E-19-2.43441E-18
 -1      2561 8.91181E-05-1.27675E-05-3.27249E-05-9.42437E-07 7.72281E-19-2.33188E-18
 -1      2562 1.43242E-04-1.15460E-05-5.68891E-05 3.76536E-06 1.78470E-18-2.46984E-18
 -1      2563 1.44444E-04-1.07492E-05-5.77810E-05 2.45709E-07 1.40692E-18-2.60013E-18
 -1      2564 1.26343E-04-5.70392E-05-2.97127E-05-2.43054E-05-5.46336E-19-3.48469E-18
 -1      2565 1.39401E-04-5.40731E-05-3.69863E-05-1.29904E-05 4.93714E-19-2.95636E-18
 -1      2566 1.46100E-04-2.63584E-05-5.17611E-05 6.93799E-06 1.36330E-18-2.43988E-18
 -1      2567 1.44629E-04-1.92912E-05-5.42972E-05 7.08697E-06 1.61572E-18-2.54978E-18
 -1      2568 1.39437E-04-3.11986E-05-4.65229E-05 1.09421E-05 1.54139E-18-1.59369E-18
 -1      2569 1.48139E-04-3.89059E-05-4.72923E-05-4.72865E-06-2.03468E-18 2.03330E-18
 -1      2570 1.45661E-04-4.81796E-05-4.18946E-05 4.14609E-06-1.31748E-18 1.45859E-18
 -1      2571 9.68440E-05-5.27650E-05-1.87679E-05-3.87120E-05 2.92862E-19-3.91020E-18
 -1      2572 1.12719E-04-5.61991E-05-2.43382E-05-3.53323E-05-2.51781E-19-4.14538E-18
 -1      2573 2.59776E-05-2.07985E-05-1.81906E-06-2.06861E-05-1.20787E-18-1.77093E-18
 -1      2574 3.50906E-05-2.62159E-05-3.49790E-06-3.15112E-05-3.37543E-19-7.58730E-19
 -1      2575 3.92454E-05-2.83274E-05-4.60159E-06 3.34467E-05-8.55927E-19-2.41870E-18
 -1      2576 2.85134E-05-2.33863E-05-1.84705E-06 2.29563E-05-6.52004E-19-3.30046E-18
 -1      2577 7.96660E-05-4.60444E-05-1.44913E-05 4.22033E-05 5.77253E-19-1.29638E-18
 -1      2578 5.78421E-05-3.74376E-05-8.39207E-06 3.86719E-05-5.18808E-20-1.34064E-18
 -1      2579 1.16747E-04-5.83534E-05-2.51368E-05 3.23198E-05 5.08220E-21 1.87745E-18
 -1      2580 1.03023E-04-5.50889E-05-2.02344E-05 3.58524E-05 4.85773E-19 4.64333E-19
 -1      2581 1.40559E-04-5.51776E-05-3.68798E-05 1.50833E-05-8.06375E-19 1.55621E-18
 -1      2582 1.28147E-04-5.80965E-05-3.01247E-05 2.23103E-05-5.13514E-20 1.62207E-18
 -1      2583 1.48825E-04-1.79644E-05-5.63226E-05-6.27518E-06-5.95041E-19-4.36222E-20
 -1      2584 1.45214E-04-2.45301E-05-5.21422E-05-7.92414E-06-1.50179E-18 1.08399E-18
 -1      2585 1.44383E-04-1.12778E-05-5.75765E-05-2.26562E-07-1.00966E-18-7.67597E-19
 -1      2586 1.46930E-04-1.33101E-05-5.76263E-05-3.79051E-06-8.98702E-19-7.60000E-19
 -1      2587 1.36048E-04-1.40176E-05-5.25175E-05-7.95410E-06-5.13302E-19 3.36801E-19
 -1      2588 1.48760E-04-2.09014E-05-5.51088E-05 5.95936E-06-6.85250E-19-1.13862E-18
 -1      2589 1.46941E-04-1.49089E-05-5.71245E-05 4.48990E-06-1.99900E-19-7.91129E-19
 -1      2590 1.49225E-04-3.97763E-05-4.70680E-05 2.85192E-07-1.11025E-18-9.33854E-19
 -1      2591 1.51067E-04-3.13167E-05-5.17908E-05 4.48321E-06-5.93558E-19-7.46660E-19
 -1      2592 1.38378E-04-5.45955E-05-3.59609E-05-1.57114E-05-1.15572E-18-3.14884E-18
 -1      2593 1.47635E-04-4.93700E-05-4.24316E-05-9.11823E-06-1.41177E-18-2.19191E-18
 -1      2594 1.11770E-04-5.74058E-05-2.31945E-05-3.38181E-05 1.00797E-18-1.67893E-18
 -1      2595 1.27825E-04-5.84422E-05-2.99810E-05-2.79636E-05-8.31575E-19-3.09823E-18
 -1      2596 7.36942E-05-4.61228E-05-1.17349E-05-4.16927E-05 9.03572E-19 3.40777E-18
 -1      2597 9.23606E-05-5.20560E-05-1.74039E-05-4.22808E-05 1.66378E-18 8.60241E-19
 -1      2598 7.31899E-05-4.26497E-05-1.26847E-05-4.11628E-05 9.06749E-19 2.88563E-18
 -1      2599 3.13198E-05-2.32313E-05-3.20151E-06 2.66954E-05 6.21828E-19 1.13079E-18
 -1      2600 2.27045E-05-1.79053E-05-1.61944E-06 1.00855E-05 9.03996E-19 1.14201E-18
 -1      2601 9.63169E-05-2.50905E-05-3.05515E-05 7.60334E-06 1.68567E-18 1.80931E-18
 -1      2602 9.74397E-05-2.37742E-05-3.15924E-05 1.07026E-05 1.78721E-18 2.13018E-18
 -1      2603 9.58761E-05-2.12995E-05-3.20173E-05 1.19051E-05 2.02373E-18 1.38007E-18
 -1      2604 9.58650E-05-2.41580E-05-3.07648E-05 7.69605E-06 1.77633E-18 7.84922E-19
 -1      2605 1.33723E-04-1.03373E-05-5.31504E-05-2.85277E-06 1.19813E-18-2.63319E-18
 -1      2606 9.08052E-05-1.50542E-05-3.24607E-05-6.81209E-06-4.50992E-19-2.66422E-18
 -1      2607 8.97094E-05-1.31868E-05-3.28475E-05-7.97381E-06-5.21857E-19-2.83951E-18
 -1      2608 9.03623E-05-1.39667E-05-3.28017E-05-9.14790E-06-7.66754E-19-2.78845E-18
 -1      2609 9.47167E-05-2.69346E-05-2.90621E-05 1.89718E-06 1.14974E-18 3.31110E-19
 -1      2610 9.42356E-05-1.90792E-05-3.22551E-05 1.16146E-05 2.15700E-18 4.91134E-19
 -1      2611 1.35519E-04-5.90264E-05-3.26485E-05-1.63404E-05-3.74812E-19-3.07939E-18
 -1      2612 1.45365E-04-4.60937E-05-4.25650E-05 2.17603E-06-6.98061E-19-1.16467E-18
 -1      2613 1.36551E-04-1.23858E-05-5.35400E-05 3.20487E-06-4.93608E-19-1.56526E-18
 -1      2614 1.41987E-04-5.35917E-05-3.78744E-05 3.06312E-06-4.23834E-19 2.00006E-18
 -1      2615 1.41280E-04-4.35540E-05-4.20999E-05-4.02736E-06-9.38883E-19-3.35637E-18
 -1      2616 4.31997E-05-2.52427E-05-7.21245E-06-2.90487E-05-1.42090E-19 5.11608E-19
 -1      2617 8.05329E-05-4.44248E-05-1.50363E-05 4.04523E-05-8.59103E-19-4.39843E-18
 -1      2618 9.63457E-05-2.73339E-05-2.95722E-05 4.47931E-06-8.79693E-19 2.02759E-18
 -1      2619 9.60219E-05-2.67507E-05-2.96865E-05 5.05734E-06-8.79163E-19 1.15944E-18
 -1      2620 9.67725E-05-2.73283E-05-2.97408E-05-5.51800E-06 1.39794E-19-2.20038E-20
 -1      2621 9.57309E-05-2.60914E-05-2.98524E-05-6.14772E-06-3.53689E-19-9.78991E-19
 -1      2622 9.58239E-05-2.60687E-05-2.98924E-05-7.25807E-06-9.83993E-19 4.25787E-20
 -1      2623 9.75311E-05-2.77246E-05-2.99020E-05-6.30453E-06 4.23201E-19 1.17846E-18
 -1      2624 1.27102E-04-5.99777E-05-2.86015E-05 2.10672E-05 9.09502E-19 2.89198E-18
 -1      2625 9.52747E-05-5.08561E-05-1.86680E-05 3.68345E-05 1.28749E-18 7.51662E-19
 -1      2626 2.69341E-05-1.55798E-05-4.24408E-06 7.42894E-07 1.43857E-19 7.64871E-19
 -1      2627 3.38411E-05-1.41619E-05-7.89840E-06-7.39854E-06-1.03314E-18-3.81165E-20
 -1      2628 3.29581E-05-1.44834E-05-7.47163E-06 9.48810E-06-4.57398E-20 1.29893E-18
 -1      2629 9.47078E-05-2.06017E-05-3.17154E-05 9.68201E-06 1.97844E-18 1.97319E-19
 -1      2630 1.36649E-04-2.25108E-05-4.91891E-05-1.04947E-05-6.00123E-19-2.13908E-18
 -1      2631 5.65454E-05-3.18356E-05-1.00071E-05 3.56924E-05 2.96462E-19-1.19940E-18
 -1      2632 9.11369E-05-1.50105E-05-3.26788E-05-9.83047E-06-8.84427E-19-2.63700E-18
 -1      2633 9.21577E-05-1.62811E-05-3.25964E-05-1.08615E-05-1.10095E-18-2.43720E-18
 -1      2634 9.36343E-05-1.92094E-05-3.18919E-05-9.20719E-06-1.22871E-18-2.14435E-18
 -1      2635 9.20666E-05-1.68232E-05-3.22381E-05-8.31580E-06-8.64624E-19-2.57192E-18
 -1      2636 2.52053E-05-1.76887E-05-2.72057E-06-1.32971E-05-1.54224E-18-2.42717E-18
 -1      2637 3.33012E-05-1.71994E-05-6.45191E-06-1.93728E-05-1.52752E-18-2.19127E-18
 -1      2638 2.54222E-05-1.38700E-05-4.53389E-06-4.77959E-06-1.77983E-18-3.53467E-18
 -1      2639 8.85078E-05-4.97193E-05-1.64289E-05-4.10743E-05 1.61360E-19-3.70701E-18
 -1      2640 1.01378E-04-5.33802E-05-2.04636E-05-3.60990E-05 1.46219E-19-2.55379E-18
 -1      2641 7.85484E-05-4.36938E-05-1.45085E-05-4.11162E-05 1.13926E-19-3.49750E-18
 -1      2642 2.90683E-05-1.86036E-05-3.96881E-06 1.68858E-05-8.66197E-19-3.31190E-18
 -1      2643 4.95465E-05-3.06618E-05-7.75036E-06-3.53882E-05-3.95353E-19-1.28685E-18
 -1      2644 1.41815E-04-5.07121E-05-3.91420E-05-2.74892E-06 1.48329E-18-2.17327E-18
 -1      2645 1.38016E-04-4.52708E-05-4.02887E-05 7.06175E-06 1.84674E-18-1.06853E-18
 -1      2646 1.36036E-04-5.49941E-05-3.47235E-05-5.74331E-06 4.34912E-19-2.33538E-18
 -1      2647 1.24108E-04-5.90879E-05-2.76848E-05-2.48719E-05-1.05932E-18-3.03990E-18
 -1      2648 1.35415E-04-1.50454E-05-5.18419E-05 8.10067E-06 1.51365E-18-2.11409E-18
 -1      2649 1.44129E-04-3.32778E-05-4.79338E-05-1.01205E-05-1.98269E-18 9.90605E-19
 -1      2650 1.39629E-04-3.92348E-05-4.31013E-05-1.10255E-05-1.34329E-18 1.12317E-18
 -1      2651 1.34611E-04-2.55736E-05-4.74514E-05-1.40613E-05-8.98702E-19-2.23723E-19
 -1      2652 4.49820E-05-2.55893E-05-7.79862E-06 3.06611E-05-6.63121E-19-9.34913E-19
 -1      2653 1.42238E-04-2.62765E-05-4.99095E-05 9.75900E-06-2.93709E-19-1.77835E-18
 -1      2654 1.07715E-04-5.66556E-05-2.16013E-05-3.53741E-05 1.20554E-18-1.79905E-18
 -1      2655 9.62398E-05-2.68273E-05-2.97452E-05 6.13691E-06-3.14836E-19 1.36470E-18
 -1      2656 9.70857E-05-2.72680E-05-2.99313E-05-7.52148E-06 1.75759E-20 1.21871E-19
 -1      2657 9.05784E-05-1.51824E-05-3.23349E-05 3.20074E-06 1.45369E-18-1.84067E-18
 -1      2658 9.03898E-05-1.49114E-05-3.23681E-05 2.26549E-06 1.28589E-18-1.85986E-18
 -1      2659 9.02565E-05-1.47089E-05-3.23974E-05 1.42499E-06 1.17946E-18-1.97045E-18
 -1      2660 9.01918E-05-1.46166E-05-3.24086E-05 4.66442E-07 1.00437E-18-2.01295E-18
 -1      2661 9.14428E-05-1.66037E-05-3.20610E-05 1.64468E-06 1.11946E-18-1.84223E-18
 -1      2662 9.21496E-05-1.75564E-05-3.20064E-05 6.48465E-06 1.99645E-18-1.11759E-18
 -1      2663 9.16281E-05-1.67628E-05-3.21075E-05 5.64452E-06 1.89568E-18-1.31168E-18
 -1      2664 9.35614E-05-1.97778E-05-3.16639E-05 7.60862E-06 1.99321E-18-6.77115E-19
 -1      2665 9.27753E-05-1.85249E-05-3.18387E-05 7.03046E-06 1.98701E-18-9.00141E-19
 -1      2666 9.34417E-05-1.98712E-05-3.15078E-05 5.74584E-06 1.89991E-18-9.46323E-19
 -1      2667 9.52079E-05-2.54072E-05-2.99269E-05 3.99147E-06 1.37585E-18-8.18007E-20
 -1      2668 9.55455E-05-2.45578E-05-3.03909E-05 5.62372E-06 1.51051E-18-3.76758E-20
 -1      2669 1.27525E-04-1.83247E-05-4.75177E-05-1.02006E-05 4.30293E-19-1.42196E-18
 -1      2670 1.30297E-04-2.62343E-05-4.48319E-05-1.31683E-05-3.39978E-19-1.07213E-18
 -1      2671 1.40035E-04-5.08487E-05-3.87998E-05-4.05166E-06-4.38737E-19 1.74171E-18
 -1      2672 1.37277E-04-5.64763E-05-3.46376E-05 3.56564E-06-4.49986E-20 2.00673E-18
 -1      2673 9.53567E-05-2.59023E-05-2.97358E-05-2.71559E-06-8.84206E-19-1.25067E-18
 -1      2674 9.51888E-05-2.64897E-05-2.94544E-05-1.73443E-06-7.53721E-19-1.22995E-18
 -1      2675 9.52119E-05-2.70037E-05-2.92088E-05-9.92896E-07-7.00473E-19-1.16561E-18
 -1      2676 9.50773E-05-2.73568E-05-2.90293E-05-3.87037E-07-5.75556E-19-1.26813E-18
 -1      2677 9.54159E-05-2.63293E-05-2.96145E-05-1.63195E-06-7.05996E-19-1.44518E-18
 -1      2678 9.50447E-05-2.76614E-05-2.88626E-05 8.13065E-08-5.64040E-19-1.13055E-18
 -1      2679 9.49673E-05-2.78839E-05-2.87528E-05 4.34385E-07-4.92601E-19-1.10033E-18
 -1      2680 9.54170E-05-2.73221E-05-2.91910E-05-3.51264E-07-5.60865E-19-1.25273E-18
 -1      2681 9.49258E-05-2.80668E-05-2.86437E-05 7.07100E-07-5.42721E-19-1.06673E-18
 -1      2682 9.48987E-05-2.82108E-05-2.85814E-05 8.94584E-07-6.46128E-19-1.13263E-18
 -1      2683 9.53572E-05-2.79321E-05-2.89033E-05 4.43744E-07-5.64572E-19-1.08172E-18
 -1      2684 9.48647E-05-2.83191E-05-2.85135E-05 1.03482E-06-5.42854E-19-1.08165E-18
 -1      2685 9.48740E-05-2.84123E-05-2.84832E-05 1.11714E-06-5.08787E-19-1.10619E-18
 -1      2686 9.52942E-05-2.83053E-05-2.87151E-05 8.95633E-07-5.46739E-19-9.50643E-19
 -1      2687 9.48510E-05-2.84725E-05-2.84447E-05 1.17253E-06-6.01159E-19-9.61724E-19
 -1      2688 9.48841E-05-2.85308E-05-2.84360E-05 1.19177E-06-6.75210E-19-7.90789E-19
 -1      2689 9.52468E-05-2.85261E-05-2.85988E-05 1.11835E-06-3.47671E-19-9.82773E-19
 -1      2690 9.48712E-05-2.85586E-05-2.84185E-05 1.19740E-06-7.15685E-19-6.61415E-19
 -1      2691 9.49186E-05-2.85918E-05-2.84242E-05 1.18323E-06-6.08940E-19-5.55377E-19
 -1      2692 9.52179E-05-2.86449E-05-2.85344E-05 1.19780E-06-5.37289E-19-1.84971E-19
 -1      2693 9.49137E-05-2.85970E-05-2.84215E-05 1.16481E-06-6.11074E-19-5.05877E-19
 -1      2694 9.49694E-05-2.86116E-05-2.84371E-05 1.13849E-06-5.22635E-19-5.32952E-19
 -1      2695 9.52048E-05-2.86933E-05-2.85073E-05 1.19748E-06-4.92565E-19-1.45608E-19
 -1      2696 9.49706E-05-2.86003E-05-2.84453E-05 1.11499E-06-5.08580E-19-5.59241E-19
 -1      2697 9.50314E-05-2.86007E-05-2.84680E-05 1.09214E-06-3.34144E-19-4.45780E-19
 -1      2698 9.52040E-05-2.86912E-05-2.85072E-05 1.16419E-06-6.20155E-19-5.49091E-19
 -1      2699 9.50371E-05-2.85768E-05-2.84845E-05 1.07787E-06-3.19791E-19-6.60574E-19
 -1      2700 9.51022E-05-2.85659E-05-2.85128E-05 1.07043E-06 1.17994E-20-8.41814E-19
 -1      2701 9.52123E-05-2.86514E-05-2.85275E-05 1.13286E-06-4.96721E-19-6.09728E-19
 -1      2702 9.51114E-05-2.85314E-05-2.85361E-05 1.07664E-06-5.82498E-20-1.34390E-18
 -1      2703 9.51817E-05-2.85114E-05-2.85697E-05 1.09429E-06-3.90948E-19-1.44501E-18
 -1      2704 9.52275E-05-2.85817E-05-2.85636E-05 1.13032E-06-2.43637E-19-9.34940E-19
 -1      2705 9.51937E-05-2.84673E-05-2.85992E-05 1.13036E-06-4.33578E-19-1.28967E-18
 -1      2706 9.52717E-05-2.84396E-05-2.86384E-05 1.18147E-06-3.20155E-19-1.02844E-18
 -1      2707 9.52481E-05-2.84862E-05-2.86132E-05 1.17816E-06-2.71543E-19-1.06393E-18
 -1      2708 9.52861E-05-2.83862E-05-2.86739E-05 1.25580E-06-5.08352E-19-1.11281E-18
 -1      2709 9.53752E-05-2.83518E-05-2.87197E-05 1.34814E-06-7.27665E-19-1.14316E-18
 -1      2710 9.52734E-05-2.83670E-05-2.86751E-05 1.29485E-06-4.74695E-19-8.51410E-19
 -1      2711 9.53919E-05-2.82887E-05-2.87613E-05 1.46865E-06-9.05732E-19-9.92153E-19
 -1      2712 9.54967E-05-2.82489E-05-2.88149E-05 1.60973E-06-7.24127E-19-8.26954E-19
 -1      2713 9.53031E-05-2.82241E-05-2.87490E-05 1.49722E-06-6.23691E-19-5.89310E-19
 -1      2714 9.55158E-05-2.81760E-05-2.88631E-05 1.78416E-06-5.09458E-19-8.61890E-19
 -1      2715 9.56416E-05-2.81324E-05-2.89259E-05 1.98123E-06-5.70816E-19-8.05767E-19
 -1      2716 9.53371E-05-2.80574E-05-2.88351E-05 1.80121E-06-6.91784E-19-5.88543E-19
 -1      2717 9.56633E-05-2.80501E-05-2.89807E-05 2.21698E-06-6.06442E-19-6.18331E-19
 -1      2718 9.58165E-05-2.80059E-05-2.90539E-05 2.47658E-06-5.31031E-19-5.57870E-19
 -1      2719 9.53761E-05-2.78675E-05-2.89331E-05 2.22206E-06-5.97089E-19-8.21814E-19
 -1      2720 9.58418E-05-2.79164E-05-2.91150E-05 2.78023E-06-6.46567E-19-5.21180E-19
 -1      2721 9.60299E-05-2.78769E-05-2.91995E-05 3.10718E-06-2.01235E-19-9.01199E-19
 -1      2722 9.54214E-05-2.76577E-05-2.90423E-05 2.77368E-06-7.70687E-19-4.36213E-19
 -1      2723 9.60615E-05-2.77860E-05-2.92655E-05 3.48350E-06 1.70705E-19-1.48318E-18
 -1      2724 9.62937E-05-2.77613E-05-2.93609E-05 3.87903E-06 2.35116E-19-2.08677E-18
 -1      2725 9.54769E-05-2.74376E-05-2.91603E-05 3.46719E-06-3.60279E-19-3.05177E-19
 -1      2726 9.63381E-05-2.76809E-05-2.94293E-05 4.32922E-06 5.41082E-19-1.81670E-18
 -1      2727 9.66271E-05-2.76887E-05-2.95340E-05 4.78799E-06 7.75172E-19-1.80387E-18
 -1      2728 9.55514E-05-2.72274E-05-2.92823E-05 4.30837E-06 2.85570E-19-1.04775E-18
 -1      2729 9.66982E-05-2.76415E-05-2.96002E-05 5.30713E-06 6.08736E-19-1.62230E-18
 -1      2730 9.70629E-05-2.77116E-05-2.97105E-05 5.81266E-06 2.56585E-19-1.76406E-18
 -1      2731 9.56648E-05-2.70665E-05-2.94001E-05 5.29374E-06 8.04589E-19-1.29589E-18
 -1      2732 9.71890E-05-2.77377E-05-2.97678E-05 6.38579E-06-1.50096E-19-2.14600E-18
 -1      2733 9.76596E-05-2.79191E-05-2.98774E-05 6.90382E-06-1.35630E-19-2.47483E-18
 -1      2734 9.58576E-05-2.70249E-05-2.95018E-05 6.40494E-06-1.33746E-19-1.39084E-18
 -1      2735 9.78939E-05-2.80844E-05-2.99177E-05 7.49999E-06 1.18104E-19-1.99968E-18
 -1      2736 9.85194E-05-2.84526E-05-3.00183E-05 7.96930E-06 1.73484E-19-1.97571E-18
 -1      2737 9.62081E-05-2.72202E-05-2.95715E-05 7.60054E-06 2.24052E-19-9.55471E-19
 -1      2738 9.89558E-05-2.88585E-05-3.00339E-05 8.53176E-06 1.40214E-19-1.65216E-18
 -1      2739 9.98116E-05-2.95198E-05-3.01174E-05 8.85226E-06 4.99303E-19-1.54852E-18
 -1      2740 9.68584E-05-2.78377E-05-2.95923E-05 8.80321E-06 3.21142E-19-9.67433E-19
 -1      2741 1.00602E-04-3.03059E-05-3.01061E-05 9.28180E-06 8.24811E-19-1.60728E-18
 -1      2742 1.01792E-04-3.13880E-05-3.01710E-05 9.30062E-06 6.41447E-19-1.33510E-18
 -1      2743 9.80470E-05-2.91453E-05-2.95537E-05 9.87707E-06 9.38235E-19-7.64734E-19
 -1      2744 1.03155E-04-3.27133E-05-3.01476E-05 9.42717E-06 5.65137E-19-1.47870E-18
 -1      2745 1.04786E-04-3.43188E-05-3.02104E-05 8.92798E-06 1.50780E-19-1.23508E-18
 -1      2746 1.00138E-04-3.14825E-05-2.94683E-05 1.05866E-05 7.07294E-19-9.51205E-19
 -1      2747 1.06984E-04-3.62850E-05-3.02297E-05 8.44811E-06-5.13528E-20-9.03910E-19
 -1      2748 1.09069E-04-3.83434E-05-3.03448E-05 7.15878E-06 8.88657E-20-4.63971E-19
 -1      2749 1.03624E-04-3.51821E-05-2.94067E-05 1.05140E-05 2.59405E-19-4.36662E-19
 -1      2750 1.12225E-04-4.07528E-05-3.05306E-05 5.60218E-06 5.20589E-19 1.19901E-19
 -1      2751 1.14547E-04-4.27521E-05-3.08081E-05 3.32935E-06 3.84010E-19 9.07258E-19
 -1      2752 1.08936E-04-4.02528E-05-2.95634E-05 8.86173E-06 7.30159E-19 6.76343E-19
 -1      2753 1.18289E-04-4.49162E-05-3.13688E-05 3.16296E-07-7.55626E-19 4.92540E-19
 -1      2754 1.20074E-04-4.58065E-05-3.19700E-05-2.90011E-06-6.70699E-19 2.39224E-19
 -1      2755 1.15992E-04-4.53033E-05-3.03457E-05 4.39385E-06-1.54795E-19 7.16299E-19
 -1      2756 1.23646E-04-4.60871E-05-3.32238E-05-7.66962E-06-3.09749E-19 1.06898E-19
 -1      2757 1.23238E-04-4.37782E-05-3.40565E-05-1.06184E-05-1.19935E-19 3.51479E-19
 -1      2758 1.23490E-04-4.89206E-05-3.21943E-05-2.35091E-06-4.94694E-19 4.83411E-19
 -1      2759 1.26357E-04-3.74480E-05-3.83218E-05-1.51462E-05-2.36018E-19 5.92963E-19
 -1      2760 1.24078E-04-3.08306E-05-4.02933E-05-1.57226E-05-3.06097E-19 1.45160E-19
 -1      2761 1.21754E-04-2.43894E-05-4.20002E-05-1.26763E-05-5.11820E-19 5.79026E-20
 -1      2762 1.13820E-04-1.69478E-05-4.17641E-05-4.76736E-06-2.69780E-19-2.13353E-19
 -1      2763 1.13956E-04-1.71112E-05-4.19216E-05 1.79113E-06 3.06520E-19 2.91631E-20
 -1      2764 1.15822E-04-1.99615E-05-4.12633E-05 8.68144E-06 2.22346E-19-4.41887E-19
 -1      2765 1.18200E-04-2.53932E-05-4.01961E-05 1.29349E-05 7.41048E-19-1.60455E-18
 -1      2766 1.20810E-04-3.20394E-05-3.81004E-05 1.45113E-05 6.59521E-19-2.45970E-18
 -1      2767 1.23006E-04-3.82157E-05-3.66489E-05 1.42041E-05-7.25537E-20-2.67493E-18
 -1      2768 1.24261E-04-2.93311E-05-4.09491E-05 1.45150E-05-7.30566E-20-2.30314E-18
 -1      2769 1.23117E-04-4.25090E-05-3.45875E-05 1.07925E-05 8.20960E-20-2.18743E-18
 -1      2770 1.23179E-04-4.53521E-05-3.34280E-05 7.65232E-06 3.19641E-19-1.55708E-18
 -1      2771 1.26994E-04-4.27794E-05-3.61570E-05 1.18615E-05 1.78327E-19-2.49157E-18
 -1      2772 1.20411E-04-4.56614E-05-3.21079E-05 3.15655E-06 1.44489E-19-8.37084E-19
 -1      2773 1.18757E-04-4.52841E-05-3.14232E-05-2.85056E-07 1.01340E-19-2.93861E-19
 -1      2774 1.23780E-04-4.79832E-05-3.25445E-05 3.16361E-06 7.88495E-19-4.83775E-19
 -1      2775 1.15010E-04-4.33594E-05-3.07799E-05-3.67569E-06 5.47746E-19-1.52769E-18
 -1      2776 1.12695E-04-4.14435E-05-3.04468E-05-6.22504E-06 5.87604E-19-3.26587E-19
 -1      2777 1.17045E-04-4.61858E-05-3.04666E-05-4.75731E-06 1.03265E-20 3.77279E-19
 -1      2778 1.09443E-04-3.90351E-05-3.02179E-05-8.07674E-06 1.47470E-20-5.17294E-20
 -1      2779 1.07238E-04-3.69135E-05-3.00704E-05-9.57275E-06 4.28289E-20 4.05542E-20
 -1      2780 1.09982E-04-4.11295E-05-2.96075E-05-9.56750E-06 7.75028E-19-1.51210E-18
 -1      2781 1.04906E-04-3.48760E-05-3.00320E-05-1.02917E-05 8.55437E-20-2.43485E-19
 -1      2782 1.03126E-04-3.31301E-05-2.99546E-05-1.09355E-05-2.95219E-19-8.10278E-19
 -1      2783 1.04445E-04-3.60407E-05-2.93910E-05-1.17259E-05-3.19657E-19-2.14825E-18
 -1      2784 1.01615E-04-3.16692E-05-2.99814E-05-1.09590E-05 7.86160E-19-8.75969E-19
 -1      2785 1.00262E-04-3.03925E-05-2.99192E-05-1.10017E-05 9.40591E-19-9.25313E-20
 -1      2786 1.00670E-04-3.20918E-05-2.94380E-05-1.21913E-05 5.94259E-19-9.03524E-19
 -1      2787 9.93242E-05-2.94174E-05-2.99576E-05-1.06146E-05 2.74291E-19-6.33832E-19
 -1      2788 9.82975E-05-2.85086E-05-2.98955E-05-1.02513E-05 1.06355E-19-1.43532E-18
 -1      2789 9.82725E-05-2.93561E-05-2.95603E-05-1.16618E-05 3.14131E-19-1.96568E-18
 -1      2790 9.76921E-05-2.78391E-05-2.99321E-05-9.61104E-06 9.79808E-19-8.57136E-19
 -1      2791 9.68984E-05-2.71657E-05-2.98757E-05-8.95532E-06 9.48978E-19-1.28266E-18
 -1      2792 9.67583E-05-2.75124E-05-2.96901E-05-1.05380E-05 9.39241E-19-3.02495E-18
 -1      2793 1.31828E-04-5.97382E-05-3.12955E-05 1.35208E-05 3.24308E-19 2.79966E-18
 -1      2794 1.22624E-04-5.88891E-05-2.69812E-05 2.12769E-05 7.00655E-19 2.37307E-18
 -1      2795 1.33135E-04-5.64710E-05-3.27284E-05 3.91835E-06 7.48433E-19 1.79878E-18
 -1      2796 9.60815E-05-2.63747E-05-2.98667E-05-7.86186E-06 8.89207E-19 2.27516E-19
 -1      2797 9.52163E-05-2.55305E-05-2.98638E-05-8.15582E-06 3.98832E-19-6.98880E-19
 -1      2798 9.65398E-05-2.67532E-05-2.98993E-05-8.44598E-06 1.23300E-18-4.88968E-19
 -1      2799 9.45431E-05-2.78435E-05-2.85863E-05-4.32330E-07 4.79606E-19-2.97469E-19
 -1      2800 9.46313E-05-2.76581E-05-2.86844E-05-8.66402E-08 6.57318E-19-2.94643E-19
 -1      2801 9.45193E-05-2.84106E-05-2.83310E-05-1.17477E-06 1.60778E-19-7.91141E-20
 -1      2802 9.44578E-05-2.83503E-05-2.83287E-05-1.16100E-06 9.75422E-20-1.11043E-19
 -1      2803 9.46029E-05-2.84807E-05-2.83365E-05-1.15860E-06 5.90865E-19-2.89171E-19
 -1      2804 9.45258E-05-2.84402E-05-2.83214E-05-1.17760E-06 4.19826E-19-1.29400E-19
 -1      2805 9.49021E-05-2.85405E-05-2.84440E-05-1.20837E-06 3.17730E-19-6.69905E-19
 -1      2806 9.47055E-05-2.85186E-05-2.83640E-05-1.10483E-06 7.79237E-19-2.89442E-19
 -1      2807 9.46208E-05-2.84931E-05-2.83408E-05-1.13623E-06 6.86548E-19-2.61569E-19
 -1      2808 9.49316E-05-2.85981E-05-2.84310E-05-1.20014E-06 7.19629E-19-2.91089E-19
 -1      2809 9.48191E-05-2.85323E-05-2.84065E-05-1.04699E-06 7.06303E-19-2.50282E-19
 -1      2810 9.47309E-05-2.85184E-05-2.83779E-05-1.07605E-06 6.64328E-19-2.74301E-19
 -1      2811 9.49778E-05-2.86149E-05-2.84429E-05-1.15606E-06 7.57291E-19-4.48879E-19
 -1      2812 9.49410E-05-2.85274E-05-2.84605E-05-1.01007E-06 5.11283E-19-2.15235E-20
 -1      2813 9.48499E-05-2.85225E-05-2.84276E-05-1.02574E-06 8.26188E-19-5.74199E-20
 -1      2814 9.50352E-05-2.86013E-05-2.84730E-05-1.11095E-06 5.44588E-19-1.53657E-19
 -1      2815 9.50719E-05-2.85081E-05-2.85243E-05-1.01354E-06 1.58748E-19-4.81996E-20
 -1      2816 9.49764E-05-2.85100E-05-2.84874E-05-1.00711E-06 2.91357E-19-5.18183E-20
 -1      2817 9.51012E-05-2.85642E-05-2.85170E-05-1.09108E-06 5.07931E-19 6.33372E-19
 -1      2818 9.52156E-05-2.84777E-05-2.85983E-05-1.07346E-06 2.98424E-19 8.19846E-20
 -1      2819 9.51121E-05-2.84845E-05-2.85566E-05-1.03761E-06 1.30934E-19-3.64753E-20
 -1      2820 9.51756E-05-2.85082E-05-2.85728E-05-1.11712E-06 1.85072E-19 3.35307E-19
 -1      2821 9.53786E-05-2.84392E-05-2.86838E-05-1.20382E-06 3.37696E-19-1.87590E-19
 -1      2822 9.52619E-05-2.84488E-05-2.86361E-05-1.13208E-06 3.48769E-19 1.11451E-19
 -1      2823 9.52600E-05-2.84363E-05-2.86399E-05-1.20624E-06 2.09149E-19 5.38387E-19
 -1      2824 9.55692E-05-2.83960E-05-2.87831E-05-1.41726E-06 4.82878E-19 5.21653E-19
 -1      2825 9.54328E-05-2.84059E-05-2.87278E-05-1.30377E-06 3.36024E-19-1.09451E-19
 -1      2826 9.53579E-05-2.83509E-05-2.87187E-05-1.37346E-06 2.87903E-19 5.03957E-19
 -1      2827 9.57980E-05-2.83526E-05-2.88987E-05-1.72502E-06 3.98287E-19 8.39587E-19
 -1      2828 9.56343E-05-2.83597E-05-2.88340E-05-1.56467E-06 7.55150E-19 1.03804E-18
 -1      2829 9.54743E-05-2.82548E-05-2.88099E-05-1.63219E-06 3.96321E-19 9.21026E-19
 -1      2830 9.60779E-05-2.83160E-05-2.90332E-05-2.13601E-06-7.09351E-20 3.69647E-19
 -1      2831 9.58779E-05-2.83157E-05-2.89572E-05-1.92509E-06 2.36565E-19 7.00702E-19
 -1      2832 9.56160E-05-2.81526E-05-2.89147E-05-1.99415E-06 4.63790E-19 1.05954E-18
 -1      2833 9.64239E-05-2.82979E-05-2.91883E-05-2.65478E-06 1.02229E-20 1.75486E-19
 -1      2834 9.61776E-05-2.82830E-05-2.90997E-05-2.39223E-06-1.78195E-19 1.67513E-19
 -1      2835 9.57922E-05-2.80522E-05-2.90336E-05-2.46823E-06 9.85450E-20 6.24706E-19
 -1      2836 9.68548E-05-2.83165E-05-2.93642E-05-3.27796E-06 6.77260E-19 2.25573E-19
 -1      2837 9.65511E-05-2.82764E-05-2.92624E-05-2.96747E-06 5.15345E-19 5.55910E-19
 -1      2838 9.60159E-05-2.79681E-05-2.91659E-05-3.05832E-06 1.28230E-19-1.40892E-19
 -1      2839 9.73946E-05-2.84014E-05-2.95590E-05-3.98880E-06 3.87622E-19-1.91271E-20
 -1      2840 9.70208E-05-2.83197E-05-2.94447E-05-3.64197E-06 5.79526E-19 4.35286E-20
 -1      2841 9.63059E-05-2.79246E-05-2.93093E-05-3.75963E-06 8.23770E-19 3.04680E-20
 -1      2842 9.80757E-05-2.85979E-05-2.97673E-05-4.74918E-06 7.59717E-19 1.00994E-19
 -1      2843 9.76169E-05-2.84504E-05-2.96431E-05-4.39010E-06 5.87893E-19 1.24984E-19
 -1      2844 9.66910E-05-2.79622E-05-2.94592E-05-4.55321E-06 5.93057E-19 1.66666E-19
 -1      2845 9.89435E-05-2.89737E-05-2.99803E-05-5.48873E-06-3.35500E-20-2.20393E-19
 -1      2846 9.83821E-05-2.87259E-05-2.98509E-05-5.16000E-06 3.29307E-19 2.42604E-19
 -1      2847 9.72162E-05-2.81438E-05-2.96081E-05-5.39808E-06 3.95461E-19 5.08603E-19
 -1      2848 1.00062E-04-2.96224E-05-3.01857E-05-6.09109E-06-7.37949E-19 2.94085E-19
 -1      2849 9.93770E-05-2.92286E-05-3.00582E-05-5.86083E-06-9.40842E-20 1.46199E-19
 -1      2850 9.79514E-05-2.85634E-05-2.97462E-05-6.22034E-06-5.10523E-20 1.37459E-18
 -1      2851 1.01515E-04-3.06597E-05-3.03713E-05-6.37868E-06-5.25517E-19-6.06075E-20
 -1      2852 1.00686E-04-3.00678E-05-3.02534E-05-6.34694E-06-5.34778E-19-6.88068E-20
 -1      2853 9.90018E-05-2.93500E-05-2.98642E-05-6.89864E-06-4.50620E-19 6.80219E-19
 -1      2854 1.03400E-04-3.21971E-05-3.05311E-05-6.10110E-06 2.31428E-19-9.66159E-20
 -1      2855 1.02413E-04-3.13667E-05-3.04284E-05-6.40128E-06-9.98345E-20-1.81276E-19
 -1      2856 1.00514E-04-3.06600E-05-2.99582E-05-7.24574E-06-4.14240E-19-1.22986E-19
 -1      2857 1.05781E-04-3.42701E-05-3.06787E-05-4.93967E-06-9.04301E-19-1.18328E-20
 -1      2858 1.04659E-04-3.32158E-05-3.05881E-05-5.72555E-06-3.88063E-19 1.17417E-19
 -1      2859 1.02662E-04-3.26366E-05-3.00417E-05-6.98849E-06-3.63860E-19-3.75577E-19
 -1      2860 1.08595E-04-3.66914E-05-3.08644E-05-2.55840E-06-1.35372E-18 1.78296E-19
 -1      2861 1.07446E-04-3.55644E-05-3.07664E-05-3.95893E-06-1.42713E-18 1.18924E-19
 -1      2862 1.05589E-04-3.53044E-05-3.01622E-05-5.75730E-06-1.11299E-18 4.99879E-19
 -1      2863 1.11478E-04-3.88376E-05-3.11910E-05 1.23338E-06-8.11620E-19 8.42960E-19
 -1      2864 1.10555E-04-3.80267E-05-3.10432E-05-7.80189E-07-1.19022E-18 5.84796E-19
 -1      2865 1.09251E-04-3.83580E-05-3.04233E-05-3.12731E-06-1.50762E-18 2.57563E-19
 -1      2866 1.13610E-04-3.95058E-05-3.18065E-05 6.12656E-06 1.66485E-19 1.22566E-18
 -1      2867 1.13321E-04-3.96610E-05-3.15499E-05 3.81356E-06 1.63905E-19 1.49142E-18
 -1      2868 1.13147E-04-4.08718E-05-3.09953E-05 1.18628E-06-3.56151E-19 7.95802E-19
 -1      2869 1.13840E-04-3.72214E-05-3.28355E-05 1.07949E-05-6.48678E-19 2.30767E-18
 -1      2870 1.14567E-04-3.89858E-05-3.24322E-05 8.99027E-06-8.62170E-20 1.46091E-18
 -1      2871 1.16083E-04-4.11692E-05-3.20859E-05 6.82124E-06-3.96907E-19 2.40918E-18
 -1      2872 1.11513E-04-3.15267E-05-3.42122E-05 1.26470E-05-3.65402E-19 3.05475E-18
 -1      2873 1.13145E-04-3.47576E-05-3.37142E-05 1.25718E-05-7.69584E-19 2.87846E-18
 -1      2874 1.16421E-04-3.74655E-05-3.37988E-05 1.20251E-05-9.74013E-19 2.36097E-18
 -1      2875 1.07736E-04-2.47015E-05-3.55407E-05 9.22426E-06 1.02773E-18 3.86529E-18
 -1      2876 1.09416E-04-2.78955E-05-3.51220E-05 1.16030E-05 3.72092E-19 3.45512E-18
 -1      2877 1.13510E-04-2.98989E-05-3.58141E-05 1.34270E-05-4.41225E-19 2.35679E-18
 -1      2878 1.05596E-04-2.14102E-05-3.61565E-05 9.65484E-07 9.79276E-19 3.46607E-18
 -1      2879 1.06127E-04-2.22927E-05-3.60584E-05 4.95036E-06 1.41247E-18 3.72351E-18
 -1      2880 1.09630E-04-2.22549E-05-3.74809E-05 8.06224E-06 1.21420E-18 1.54477E-18
 -1      2881 1.07230E-04-2.43859E-05-3.56729E-05-7.77643E-06 5.98574E-19 1.84323E-18
 -1      2882 1.06127E-04-2.21951E-05-3.59744E-05-4.31771E-06 1.36470E-18 2.69723E-18
 -1      2883 1.08325E-04-2.01003E-05-3.78668E-05-1.97266E-06 1.48787E-18 1.50839E-18
 -1      2884 1.11068E-04-3.12080E-05-3.43823E-05-1.19107E-05-2.18319E-19 2.42158E-18
 -1      2885 1.09301E-04-2.76983E-05-3.48984E-05-1.06616E-05-2.30896E-19 2.14055E-18
 -1      2886 1.11178E-04-2.54653E-05-3.67651E-05-1.03600E-05-3.52842E-20 1.52620E-18
 -1      2887 1.13783E-04-3.71877E-05-3.29202E-05-1.02818E-05 8.23238E-19 2.48964E-18
 -1      2888 1.12630E-04-3.45620E-05-3.34202E-05-1.13545E-05 3.03787E-19 2.59125E-18
 -1      2889 1.15111E-04-3.40172E-05-3.47696E-05-1.23817E-05 1.80640E-19 2.46199E-18
 -1      2890 1.13791E-04-3.97241E-05-3.17522E-05-5.50418E-06 5.91992E-19 1.58305E-18
 -1      2891 1.13662E-04-3.87599E-05-3.21210E-05-7.76041E-06 1.32111E-18 2.88903E-18
 -1      2892 1.16431E-04-3.97993E-05-3.28006E-05-8.76665E-06 6.53013E-19 2.12805E-18
 -1      2893 1.11522E-04-3.91058E-05-3.10026E-05-2.50562E-07 3.26051E-19 2.96671E-19
 -1      2894 1.12266E-04-3.95126E-05-3.12340E-05-2.57402E-06 1.30536E-19 5.58976E-19
 -1      2895 1.14695E-04-4.16030E-05-3.13233E-05-2.85832E-06 9.39535E-19 2.17706E-18
 -1      2896 1.08306E-04-3.68693E-05-3.05745E-05 3.88907E-06-1.30112E-19 6.06746E-19
 -1      2897 1.09500E-04-3.79401E-05-3.07224E-05 2.06570E-06 2.91990E-19 4.24382E-19
 -1      2898 1.11022E-04-4.00195E-05-3.04621E-05 2.43652E-06-9.02586E-20 3.71137E-19
 -1      2899 1.05100E-04-3.42639E-05-3.03223E-05 6.51093E-06 5.75833E-19 2.07343E-19
 -1      2900 1.06394E-04-3.54654E-05-3.04378E-05 5.35122E-06-2.74922E-20 8.27078E-19
 -1      2901 1.07013E-04-3.70147E-05-3.00406E-05 6.12908E-06-1.89168E-19 6.78591E-19
 -1      2902 1.02341E-04-3.19438E-05-3.01436E-05 7.77936E-06 1.55682E-18 5.20181E-19
 -1      2903 1.03553E-04-3.30140E-05-3.02546E-05 7.22596E-06 1.30886E-18 3.08034E-19
 -1      2904 1.03534E-04-3.39396E-05-2.98625E-05 8.16974E-06 7.39003E-19 2.75069E-19
 -1      2905 1.00101E-04-3.00770E-05-2.99901E-05 8.00359E-06 1.80005E-18-1.07513E-18
 -1      2906 1.01170E-04-3.09560E-05-3.01028E-05 7.93707E-06 1.92180E-18 4.62282E-19
 -1      2907 1.00817E-04-3.13614E-05-2.97933E-05 8.92807E-06 2.07412E-18-2.69363E-19
 -1      2908 9.83135E-05-2.86158E-05-2.98521E-05 7.44202E-06 8.43147E-19-1.03479E-19
 -1      2909 9.92208E-05-2.93202E-05-2.99602E-05 7.75357E-06 9.88353E-19-5.92407E-19
 -1      2910 9.87676E-05-2.93543E-05-2.97667E-05 8.75447E-06 1.49095E-18-1.68926E-18
 -1      2911 9.68386E-05-2.74133E-05-2.97374E-05 6.56804E-06-5.32526E-19 1.86078E-18
 -1      2912 9.76116E-05-2.80084E-05-2.98261E-05 7.18189E-06 3.15744E-19 8.15024E-19
 -1      2913 9.71728E-05-2.78056E-05-2.97460E-05 8.14868E-06-4.78653E-19 1.25502E-19
 -1      2914 9.59101E-05-2.64769E-05-2.97715E-05 7.33988E-06-6.08206E-19 5.90861E-20
 -1      2915 8.86192E-05-1.94862E-05-2.96520E-05 1.60787E-06 1.74563E-19 6.98812E-19
 -1      2916 8.89631E-05-1.97882E-05-2.96470E-05 3.02399E-06 4.08842E-19 1.77071E-18
 -1      2917 9.10413E-05-2.18016E-05-2.97022E-05 6.62147E-06 1.50567E-18-1.84005E-18
 -1      2918 9.18906E-05-2.25995E-05-2.96829E-05 7.28991E-06 2.11809E-18-2.31632E-18
 -1      2919 8.85315E-05-1.93839E-05-2.96465E-05-1.61172E-06-5.20570E-19 1.07704E-18
 -1      2920 8.84589E-05-1.93137E-05-2.96478E-05-1.11804E-07 1.37484E-19-9.15189E-19
 -1      2921 8.76913E-05-1.96056E-05-2.91530E-05 8.76539E-07 1.26557E-18-7.43360E-20
 -1      2922 8.95323E-05-2.03637E-05-2.96735E-05 4.49509E-06-4.18220E-20-7.59609E-19
 -1      2923 9.02032E-05-2.09698E-05-2.96607E-05 5.60914E-06 8.30009E-19-8.03526E-19
 -1      2924 9.01840E-05-2.18167E-05-2.92922E-05 6.78654E-06 1.41566E-18-1.52555E-18
 -1      2925 8.85463E-05-2.03755E-05-2.91965E-05 4.21232E-06 6.98358E-19 1.50058E-19
 -1      2926 1.36101E-04-3.89953E-05-4.23312E-05-9.98942E-06-1.42736E-18-1.49724E-18
 -1      2927 1.38498E-04-4.87143E-05-3.84107E-05-3.52485E-06-1.80958E-18-3.46309E-18
 -1      2928 8.92947E-05-2.00810E-05-2.96609E-05-4.57696E-06-3.02458E-19-4.32310E-19
 -1      2929 8.88237E-05-1.96586E-05-2.96673E-05-3.25981E-06-8.81514E-19 1.47085E-18
 -1      2930 8.78489E-05-1.97138E-05-2.91747E-05-2.65155E-06-1.11485E-19 4.77575E-19
 -1      2931 9.07798E-05-2.14582E-05-2.96959E-05-6.90562E-06 9.77897E-19-8.44606E-19
 -1      2932 8.99841E-05-2.07413E-05-2.97057E-05-5.93137E-06-4.32795E-20-4.99199E-19
 -1      2933 8.89910E-05-2.06718E-05-2.92622E-05-5.78896E-06-2.33404E-19-7.27812E-20
 -1      2934 9.26919E-05-2.32450E-05-2.97488E-05-8.20167E-06 1.53789E-18-3.61106E-19
 -1      2935 9.17375E-05-2.23584E-05-2.97601E-05-7.74272E-06 2.12507E-18-5.30941E-19
 -1      2936 9.08948E-05-2.22668E-05-2.94073E-05-8.05766E-06 1.04035E-18 6.81309E-19
 -1      2937 9.42918E-05-2.45954E-05-2.98716E-05-8.23040E-06 7.96913E-19-4.80297E-19
 -1      2938 9.47131E-05-2.74097E-05-2.88471E-05 3.98788E-07 8.21789E-19-3.42734E-19
 -1      2939 9.48941E-05-2.71176E-05-2.90194E-05 1.00419E-06 1.06136E-18-1.75080E-19
 -1      2940 9.51248E-05-2.73775E-05-2.90443E-05 3.84452E-07 8.38122E-19-4.69700E-19
 -1      2941 9.15701E-05-4.74332E-05-1.89439E-05 3.78457E-05-6.48615E-19-5.15822E-18
 -1      2942 7.42289E-05-3.78195E-05-1.49996E-05 3.77014E-05-8.16328E-19-4.32760E-18
 -1      2943 9.46993E-05-2.19062E-05-3.12038E-05 7.85469E-06 1.82068E-18-6.54796E-21
 -1      2944 6.89509E-05-3.69763E-05-1.32523E-05-3.81768E-05 2.01192E-18 1.94055E-18
 -1      2945 8.36765E-05-4.50422E-05-1.65354E-05-4.00312E-05 2.65058E-18 4.00223E-19
 -1      2946 6.64542E-05-3.39488E-05-1.39790E-05 3.66513E-05 6.23522E-19-1.29342E-18
 -1      2947 5.19050E-05-2.49684E-05-1.07181E-05 3.02094E-05 1.28325E-19-9.40630E-19
 -1      2948 9.44679E-05-2.82962E-05-2.83583E-05-1.10708E-06 2.96344E-19-1.36814E-19
 -1      2949 9.44352E-05-2.82092E-05-2.83762E-05-1.03160E-06 5.02663E-19-1.82831E-19
 -1      2950 9.48974E-05-2.84255E-05-2.84926E-05-1.13332E-06 2.99519E-19-1.83909E-19
 -1      2951 9.44680E-05-2.81183E-05-2.84352E-05-8.90489E-07 4.42070E-19-2.49433E-19
 -1      2952 9.44835E-05-2.79929E-05-2.84848E-05-7.11232E-07 3.81259E-19-3.55239E-19
 -1      2953 9.49282E-05-2.82274E-05-2.85925E-05-9.09444E-07 5.13540E-19-4.39685E-19
 -1      2954 9.52393E-05-2.39883E-05-3.05153E-05-5.31403E-06-1.02526E-18-1.66227E-18
 -1      2955 9.51599E-05-2.50048E-05-3.00866E-05-3.81546E-06-9.32894E-19-1.46480E-18
 -1      2956 9.52038E-05-2.46919E-05-3.02191E-05-3.55000E-06-8.29545E-19-1.62342E-18
 -1      2957 4.27002E-05-1.89672E-05-9.65778E-06-2.22322E-05 5.60101E-20-1.37177E-18
 -1      2958 5.42501E-05-2.76590E-05-1.09970E-05-3.35094E-05 1.18870E-18 6.97743E-19
 -1      2959 6.66749E-05-3.09849E-05-1.48068E-05-3.26480E-05 2.30700E-18 3.43684E-19
 -1      2960 9.43330E-05-2.09701E-05-3.14653E-05-8.02832E-06-1.21522E-18-2.01264E-18
 -1      2961 9.47950E-05-2.27897E-05-3.08702E-05-6.32779E-06-1.16979E-18-1.84157E-18
 -1      2962 9.46093E-05-2.24326E-05-3.09307E-05-5.72934E-06-9.73351E-19-2.00712E-18
 -1      2963 9.35097E-05-1.95908E-05-3.16810E-05-7.84784E-06-1.00820E-18-2.25977E-18
 -1      2964 1.33639E-04-3.49060E-05-4.26088E-05 1.31496E-05 1.78480E-18-1.38977E-18
 -1      2965 1.30856E-04-2.78923E-05-4.48311E-05 1.32708E-05 1.22809E-18-1.48665E-18
 -1      2966 9.49680E-05-2.66863E-05-2.92692E-05 1.79359E-06 1.17938E-18-2.45662E-19
 -1      2967 9.52363E-05-2.61899E-05-2.95542E-05 2.80257E-06 1.20123E-18-1.43667E-19
 -1      2968 9.52664E-05-2.50202E-05-3.01025E-05 3.83483E-06 1.42153E-18-6.17758E-19
 -1      2969 9.52483E-05-2.65001E-05-2.94703E-05 1.74739E-06 1.16907E-18-5.54946E-19
 -1      2970 9.11915E-05-1.60961E-05-3.22117E-05 4.92590E-06 1.81064E-18-1.57423E-18
 -1      2971 9.08514E-05-1.55980E-05-3.22731E-05 4.00231E-06 1.65744E-18-1.79913E-18
 -1      2972 9.18313E-05-1.72095E-05-3.19654E-05 3.20484E-06 1.44922E-18-1.67355E-18
 -1      2973 9.24942E-05-1.82678E-05-3.17916E-05 4.62512E-06 1.73068E-18-1.35418E-18
 -1      2974 9.08150E-05-1.55491E-05-3.22784E-05-3.93929E-06 1.80770E-19-2.47306E-18
 -1      2975 9.11474E-05-1.60343E-05-3.22187E-05-4.86500E-06-8.34427E-20-2.47738E-18
 -1      2976 1.17493E-04-5.78199E-05-2.54283E-05-2.62740E-05-1.02465E-18-2.56857E-18
 -1      2977 1.27900E-04-5.86695E-05-2.98909E-05-1.72558E-05-1.26271E-18-3.61095E-18
 -1      2978 1.27756E-04-1.83537E-05-4.73608E-05 1.17903E-05 1.17378E-18-1.32667E-18
 -1      2979 1.25586E-04-1.17896E-05-4.94656E-05 6.07106E-06 1.84314E-18-1.60425E-18
 -1      2980 1.23499E-04-2.31296E-05-4.32815E-05 1.36340E-05 1.22714E-18-8.94361E-19
 -1      2981 3.66852E-05-1.75813E-05-7.99421E-06 2.07624E-05-3.52260E-19-1.74425E-18
 -1      2982 2.93111E-05-1.40045E-05-5.79442E-06 7.76443E-06-1.01476E-18-3.38072E-18
 -1      2983 4.88194E-05-2.52898E-05-9.57460E-06-3.17207E-05-1.31057E-18-1.53165E-18
 -1      2984 6.29864E-05-3.44690E-05-1.17878E-05-3.91727E-05-1.45372E-19-2.62093E-18
 -1      2985 1.06062E-04-5.41141E-05-2.25800E-05 3.18287E-05 9.76841E-19 2.39403E-18
 -1      2986 8.73528E-05-4.44164E-05-1.77649E-05 3.59347E-05 1.32518E-18 2.19170E-19
 -1      2987 1.25578E-04-9.38076E-06-5.04398E-05 2.29662E-07 1.37749E-18-2.03451E-18
 -1      2988 1.26148E-04-1.16361E-05-4.96561E-05-5.98219E-06 9.53336E-19-2.13579E-18
 -1      2989 5.61261E-05-2.79047E-05-1.19049E-05 3.40882E-05-1.53292E-18-2.76450E-18
 -1      2990 4.32724E-05-1.98174E-05-9.39146E-06 2.37146E-05-7.68312E-19-5.12455E-19
 -1      2991 1.27587E-04-1.31854E-05-4.97530E-05-5.92656E-06-4.73068E-19-6.19194E-19
 -1      2992 1.30006E-04-1.71764E-05-4.87238E-05-1.18447E-05-3.88153E-19-2.62792E-19
 -1      2993 1.00812E-04-5.30633E-05-2.00538E-05-3.58618E-05 1.89524E-18-1.22019E-18
 -1      2994 1.17110E-04-5.92410E-05-2.51312E-05-2.95333E-05 8.75303E-19-2.85986E-18
 -1      2995 1.29818E-04-1.43907E-05-5.00429E-05 7.44362E-06 1.52678E-19-1.57749E-18
 -1      2996 1.27391E-04-1.08699E-05-5.05297E-05 1.09272E-06-4.02341E-20-1.31115E-18
 -1      2997 1.41140E-04-5.09323E-05-3.87255E-05 2.28891E-06-3.46225E-20-7.75988E-19
 -1      2998 1.40633E-04-4.26479E-05-4.26475E-05 8.40207E-06-6.95308E-19-1.19103E-18
 -1      2999 1.39250E-04-3.26566E-05-4.59610E-05 1.22800E-05-9.93676E-19-1.27267E-18
 -1      3000 1.35653E-04-2.29930E-05-4.88799E-05 1.17938E-05-6.61321E-19-2.01403E-18
 -1      3001 1.36698E-04-3.89632E-05-4.21712E-05 1.17787E-05-5.68359E-19-1.59877E-18
 -1      3002 1.30439E-04-6.04267E-05-2.98059E-05-1.70614E-05-3.01226E-19-2.46942E-18
 -1      3003 1.38231E-04-5.78359E-05-3.48863E-05-7.97389E-06-3.08320E-19-2.04876E-18
 -1      3004 9.15726E-05-1.66830E-05-3.21169E-05-5.59386E-06-3.05313E-19-2.41099E-18
 -1      3005 9.20873E-05-1.74561E-05-3.20165E-05-6.41629E-06-5.95862E-19-2.42013E-18
 -1      3006 9.24448E-05-1.81925E-05-3.18009E-05-4.58708E-06-2.44327E-19-2.21389E-18
 -1      3007 9.13112E-05-1.64010E-05-3.20922E-05 2.83780E-08 8.44741E-19-1.90261E-18
 -1      3008 9.01876E-05-1.46116E-05-3.24092E-05-3.83926E-07 7.93492E-19-2.09998E-18
 -1      3009 9.02438E-05-1.46917E-05-3.23991E-05-1.34300E-06 6.22736E-19-2.22929E-18
 -1      3010 1.29374E-04-3.33831E-05-4.14496E-05-1.21595E-05-9.83035E-19-5.86676E-19
 -1      3011 1.36768E-04-5.42721E-05-3.54773E-05-4.47860E-07 5.55998E-20-1.34625E-18
 -1      3012 1.30542E-04-4.29370E-05-3.78031E-05-1.21008E-05-2.01223E-19 7.37342E-19
 -1      3013 1.29175E-04-1.93665E-05-4.76060E-05 1.09446E-05-9.59265E-20-9.90976E-19
 -1      3014 1.21609E-04-1.69054E-05-4.53069E-05 9.04179E-06 1.82324E-19-6.54545E-19
 -1      3015 1.14965E-04-5.50861E-05-2.54359E-05 2.32312E-05 3.97576E-20 2.03381E-18
 -1      3016 9.58002E-05-2.63219E-05-2.97874E-05-9.31700E-06 1.62629E-18-1.25757E-18
 -1      3017 9.64669E-05-4.85272E-05-2.01094E-05-3.45696E-05 2.50542E-18-9.28825E-19
 -1      3018 9.50037E-05-2.79027E-05-2.87660E-05-4.45545E-07 4.48021E-19-4.43392E-19
 -1      3019 9.51057E-05-2.57037E-05-2.97305E-05 7.66945E-06-5.75955E-19-6.17226E-19
 -1      3020 9.56533E-05-2.63709E-05-2.96843E-05 8.21579E-06-1.38234E-18-4.32654E-19
 -1      3021 9.42825E-05-2.48811E-05-2.97604E-05 7.90328E-06-7.87135E-20-2.33461E-18
 -1      3022 1.22452E-04-1.38653E-05-4.70438E-05-2.01340E-06 3.42413E-19-1.47242E-18
 -1      3023 6.99650E-05-3.20314E-05-1.58093E-05 3.28821E-05-1.49252E-18-3.38919E-18
 -1      3024 1.36032E-04-5.65425E-05-3.46571E-05 7.17411E-06-1.54989E-18-3.32651E-18
 -1      3025 1.30189E-04-5.94087E-05-3.01635E-05 1.63700E-05-1.50089E-18-3.25689E-18
 -1      3026 9.47047E-05-2.54102E-05-2.96919E-05-9.24031E-06 1.55960E-18-1.48222E-18
 -1      3027 9.35252E-05-2.41215E-05-2.97543E-05-8.69090E-06 1.69813E-18-1.89830E-18
 -1      3028 9.30023E-05-2.41098E-05-2.95214E-05-9.31225E-06 1.51779E-18-8.16970E-19
 -1      3029 9.51084E-05-2.58982E-05-2.96516E-05-9.78695E-06 2.47058E-18-1.92992E-18
 -1      3030 8.10197E-05-3.83147E-05-1.79257E-05 3.30839E-05 4.82068E-19 1.48019E-19
 -1      3031 1.20020E-04-1.26707E-05-4.63754E-05 3.66965E-06 1.44853E-18-1.30957E-18
 -1      3032 1.06226E-04-5.35780E-05-2.21231E-05 3.22258E-05-6.99755E-19-3.63405E-18
 -1      3033 9.96079E-05-4.84042E-05-2.16867E-05 3.18267E-05 4.18646E-19-3.39973E-18
 -1      3034 4.41873E-05-2.07085E-05-9.38615E-06-2.65336E-05-9.52700E-19-1.48167E-18
 -1      3035 5.58755E-05-2.47629E-05-1.29635E-05-2.99039E-05-1.22920E-18-1.31449E-18
 -1      3036 4.04395E-05-1.65528E-05-9.89434E-06-1.93151E-05-1.17473E-18-2.61606E-18
 -1      3037 1.18408E-04-5.81709E-05-2.60084E-05 2.66852E-05-1.42323E-18-2.56292E-18
 -1      3038 9.43511E-05-2.14244E-05-3.12585E-05 7.22883E-06 1.85503E-18-5.18229E-19
 -1      3039 4.93748E-05-2.02216E-05-1.19088E-05 2.29498E-05-3.64754E-20-1.13905E-18
 -1      3040 7.68388E-05-3.97639E-05-1.55191E-05-3.75458E-05-3.93129E-19-3.16483E-18
 -1      3041 3.38137E-05-1.31476E-05-8.20824E-06 7.27573E-07-9.62547E-19-2.92586E-18
 -1      3042 9.26689E-05-2.33305E-05-2.97383E-05 7.67726E-06 9.44669E-19-1.90144E-18
 -1      3043 9.35345E-05-2.41790E-05-2.97125E-05 7.88124E-06 4.22323E-19-2.57833E-18
 -1      3044 9.38736E-05-2.48807E-05-2.95614E-05 8.57039E-06-2.16169E-19-1.96634E-18
 -1      3045 9.20885E-05-2.34204E-05-2.94253E-05 8.18602E-06 1.52831E-18-9.01385E-19
 -1      3046 1.32409E-04-4.14675E-05-3.91986E-05 1.00300E-05 1.33662E-18-7.89646E-19
 -1      3047 4.14220E-05-1.57211E-05-1.03922E-05-1.49193E-05-7.93035E-19-1.99561E-18
 -1      3048 5.09571E-05-1.82773E-05-1.36080E-05-1.90920E-05 3.99852E-19-3.12110E-18
 -1      3049 4.21162E-05-1.36300E-05-1.18784E-05-6.23005E-06-5.14890E-19-1.81159E-19
 -1      3050 1.32286E-04-5.71307E-05-3.21973E-05-8.62413E-06-6.26751E-19-2.95090E-18
 -1      3051 1.32091E-04-5.30945E-05-3.42101E-05 5.59201E-07 2.15517E-19-9.77476E-19
 -1      3052 1.26687E-04-5.66788E-05-2.99227E-05-1.16714E-05-1.62503E-18-2.70008E-18
 -1      3053 9.03679E-05-1.48824E-05-3.23711E-05-2.18137E-06 5.15603E-19-2.20060E-18
 -1      3054 9.05511E-05-1.51456E-05-3.23386E-05-3.13362E-06 2.85840E-19-2.32706E-18
 -1      3055 9.18000E-05-1.71665E-05-3.19707E-05-3.14883E-06 1.96040E-19-2.26040E-18
 -1      3056 9.14282E-05-1.65840E-05-3.20633E-05-1.58612E-06 4.86881E-19-2.11038E-18
 -1      3057 1.10643E-04-5.56329E-05-2.34687E-05-3.07513E-05-1.27478E-19-1.22901E-18
 -1      3058 1.16259E-04-5.56045E-05-2.58885E-05-2.30326E-05-6.87473E-19-2.68822E-18
 -1      3059 1.01340E-04-5.09161E-05-2.13663E-05-3.28886E-05-1.78142E-19-1.70934E-18
 -1      3060 1.28782E-04-2.30808E-05-4.54235E-05-1.38256E-05-1.05339E-18-4.15046E-19
 -1      3061 1.37016E-04-4.51491E-05-3.96603E-05-9.78275E-06-3.75474E-19 7.72388E-19
 -1      3062 1.21232E-04-1.63504E-05-4.53105E-05-8.80180E-06 5.53007E-19-1.42206E-18
 -1      3063 1.24582E-04-5.91157E-05-2.78673E-05-1.96001E-05 4.55598E-19-2.04664E-18
 -1      3064 1.27133E-04-2.45754E-05-4.42490E-05 1.34077E-05-8.44386E-19-1.30782E-18
 -1      3065 9.46132E-05-2.24682E-05-3.09119E-05 5.70465E-06 1.73169E-18-6.39554E-19
 -1      3066 1.34654E-04-5.22026E-05-3.54568E-05-1.38707E-07-1.70633E-18-2.63713E-18
 -1      3067 5.78519E-05-2.18212E-05-1.52916E-05 2.43724E-05 4.81088E-19-2.46487E-19
 -1      3068 4.70151E-05-1.50839E-05-1.29586E-05 1.55130E-05 1.84150E-19-1.56479E-18
 -1      3069 9.42828E-05-2.18629E-05-3.10608E-05 4.97955E-06 1.71063E-18-9.08437E-19
 -1      3070 9.38193E-05-2.09115E-05-3.12475E-05 4.62966E-06 1.66190E-18-1.10633E-18
 -1      3071 1.22399E-04-2.91276E-05-4.03937E-05-1.38204E-05-5.91494E-19 6.12087E-19
 -1      3072 1.28676E-04-3.92359E-05-3.83704E-05-1.23655E-05-1.01115E-18 2.12288E-20
 -1      3073 9.52099E-05-2.42776E-05-3.04017E-05 4.28451E-06 1.50386E-18-6.69818E-19
 -1      3074 9.46416E-05-2.27308E-05-3.08066E-05 4.78772E-06 1.61079E-18-6.55484E-19
 -1      3075 9.49353E-05-2.35959E-05-3.05688E-05 3.69296E-06 1.39401E-18-9.02076E-19
 -1      3076 9.52401E-05-2.52027E-05-3.00289E-05 3.01384E-06 1.30881E-18-7.03821E-19
 -1      3077 1.21506E-04-5.65624E-05-2.82332E-05 1.59714E-05 1.49819E-19 1.76825E-18
 -1      3078 1.08603E-04-5.02696E-05-2.44084E-05 2.41057E-05-1.42804E-19 1.31078E-18
 -1      3079 1.19192E-04-1.68548E-05-4.42917E-05 5.70956E-06-4.55280E-20-3.34472E-19
 -1      3080 9.56861E-05-2.68759E-05-2.94754E-05-7.52106E-07-5.16257E-19-1.26380E-18
 -1      3081 9.56619E-05-2.73215E-05-2.92968E-05-2.24776E-07-4.40323E-19-1.23039E-18
 -1      3082 9.57059E-05-2.77036E-05-2.91327E-05 1.58786E-07-4.65309E-19-1.06495E-18
 -1      3083 9.56694E-05-2.79859E-05-2.90117E-05 4.78654E-07-5.90530E-19-1.14266E-18
 -1      3084 9.59064E-05-2.73217E-05-2.93966E-05-1.65858E-07-3.85828E-19-1.18740E-18
 -1      3085 9.56613E-05-2.82190E-05-2.88960E-05 7.06517E-07-6.47909E-19-1.06942E-18
 -1      3086 9.56300E-05-2.83939E-05-2.88174E-05 8.82405E-07-4.24084E-19-9.33551E-19
 -1      3087 9.59469E-05-2.80355E-05-2.91085E-05 4.79315E-07-5.92211E-19-9.35565E-19
 -1      3088 9.55970E-05-2.85278E-05-2.87390E-05 1.00126E-06-2.37971E-19-1.05704E-18
 -1      3089 9.55754E-05-2.86299E-05-2.86912E-05 1.08283E-06-1.31511E-19-9.24885E-19
 -1      3090 9.59115E-05-2.84714E-05-2.89064E-05 8.53590E-07-3.85684E-19-9.65943E-19
 -1      3091 9.55317E-05-2.86963E-05-2.86409E-05 1.13112E-06-2.67419E-19-7.78359E-19
 -1      3092 9.55193E-05-2.87478E-05-2.86156E-05 1.15573E-06-4.83103E-19-5.55320E-19
 -1      3093 9.58401E-05-2.87164E-05-2.87704E-05 1.04233E-06-8.53238E-20-1.18999E-18
 -1      3094 9.54722E-05-2.87675E-05-2.85865E-05 1.16340E-06-5.79872E-19-5.11532E-19
 -1      3095 9.54673E-05-2.87828E-05-2.85775E-05 1.15878E-06-4.02842E-19-4.55364E-19
 -1      3096 9.57537E-05-2.88288E-05-2.86846E-05 1.11488E-06-4.29530E-19-1.09214E-18
 -1      3097 9.54199E-05-2.87694E-05-2.85644E-05 1.14862E-06-5.63114E-19-3.17285E-19
 -1      3098 9.54207E-05-2.87581E-05-2.85676E-05 1.13539E-06-6.76216E-19-4.98089E-19
 -1      3099 9.56625E-05-2.88472E-05-2.86372E-05 1.12504E-06-5.23504E-19-6.41236E-19
 -1      3100 9.53740E-05-2.87201E-05-2.85668E-05 1.12474E-06-6.05833E-19-1.48093E-19
 -1      3101 9.53790E-05-2.86884E-05-2.85792E-05 1.11850E-06-4.26944E-19-2.10617E-19
 -1      3102 9.55708E-05-2.87971E-05-2.86189E-05 1.11389E-06-4.12950E-19-3.18890E-19
 -1      3103 9.53323E-05-2.86307E-05-2.85879E-05 1.12078E-06-5.46610E-19-4.93551E-19
 -1      3104 9.53406E-05-2.85822E-05-2.86079E-05 1.13377E-06-4.11904E-19-8.69109E-19
 -1      3105 9.54791E-05-2.86944E-05-2.86232E-05 1.11297E-06-7.02407E-19-3.02448E-19
 -1      3106 9.52923E-05-2.85073E-05-2.86243E-05 1.15979E-06-2.88674E-19-8.75951E-19
 -1      3107 9.53031E-05-2.84439E-05-2.86507E-05 1.20212E-06-1.23097E-19-8.31350E-19
 -1      3108 9.53853E-05-2.85484E-05-2.86452E-05 1.14709E-06-4.39196E-19-7.65382E-19
 -1      3109 9.52507E-05-2.83524E-05-2.86734E-05 1.26108E-06-3.06804E-19-9.16118E-19
 -1      3110 9.52639E-05-2.82748E-05-2.87059E-05 1.34158E-06-7.40645E-19-8.76775E-19
 -1      3111 9.52854E-05-2.83630E-05-2.86814E-05 1.23666E-06-4.37122E-19-8.87070E-19
 -1      3112 9.52040E-05-2.81661E-05-2.87339E-05 1.44177E-06-6.95800E-19-8.72685E-19
 -1      3113 9.52193E-05-2.80744E-05-2.87722E-05 1.56859E-06-5.83058E-19-6.43486E-19
 -1      3114 9.51739E-05-2.81389E-05-2.87293E-05 1.39935E-06-6.16423E-19-8.34598E-19
 -1      3115 9.51482E-05-2.79472E-05-2.88045E-05 1.71784E-06-5.86942E-19-3.42357E-19
 -1      3116 9.51655E-05-2.78413E-05-2.88484E-05 1.89869E-06-7.04468E-19-4.38525E-19
 -1      3117 9.50437E-05-2.78745E-05-2.87864E-05 1.65125E-06-4.19210E-19-6.24289E-19
 -1      3118 9.50788E-05-2.76945E-05-2.88839E-05 2.10451E-06-6.45954E-19-2.87129E-19
 -1      3119 9.50985E-05-2.75755E-05-2.89330E-05 2.34655E-06-6.33819E-19-1.24271E-19
 -1      3120 9.48869E-05-2.75677E-05-2.88501E-05 2.00749E-06-6.05834E-19-1.02251E-19
 -1      3121 9.49919E-05-2.74094E-05-2.89697E-05 2.61606E-06-6.91703E-19 1.06412E-19
 -1      3122 9.50151E-05-2.72802E-05-2.90231E-05 2.92542E-06-5.80430E-19 8.24424E-20
 -1      3123 9.46948E-05-2.72182E-05-2.89169E-05 2.48228E-06-6.06247E-19 1.41980E-19
 -1      3124 9.48850E-05-2.70981E-05-2.90583E-05 3.26505E-06-7.24103E-19 4.13843E-19
 -1      3125 9.49143E-05-2.69661E-05-2.91138E-05 3.64591E-06-3.59227E-19 2.32455E-19
 -1      3126 9.44598E-05-2.68302E-05-2.89817E-05 3.08861E-06-6.42882E-19 6.18184E-19
 -1      3127 9.47597E-05-2.67767E-05-2.91432E-05 4.06088E-06-1.06850E-19 2.09475E-19
 -1      3128 9.48019E-05-2.66567E-05-2.91973E-05 4.51409E-06 5.97407E-19-8.86005E-20
 -1      3129 9.41769E-05-2.64170E-05-2.90369E-05 3.83757E-06-2.83099E-19 9.05918E-19
 -1      3130 9.46274E-05-2.64786E-05-2.92150E-05 5.00793E-06 8.69593E-19-5.33468E-19
 -1      3131 9.46967E-05-2.63975E-05-2.92622E-05 5.52905E-06 3.80986E-19-7.65398E-19
 -1      3132 9.38490E-05-2.60075E-05-2.90712E-05 4.73769E-06 5.01448E-19 3.03329E-19
 -1      3133 9.45182E-05-2.62650E-05-2.92598E-05 6.10308E-06-1.13493E-19-5.11697E-19
 -1      3134 9.46434E-05-2.62695E-05-2.92927E-05 6.67975E-06-7.70246E-20-8.93839E-20
 -1      3135 9.34950E-05-2.56573E-05-2.90696E-05 5.79474E-06 4.65527E-19 2.04373E-19
 -1      3136 9.44975E-05-2.62415E-05-2.92598E-05 7.33271E-06-7.37567E-20 2.16384E-20
 -1      3137 9.47329E-05-2.64077E-05-2.92694E-05 7.94102E-06-6.62768E-21 2.70651E-19
 -1      3138 9.31636E-05-2.54630E-05-2.90122E-05 7.01230E-06 1.49566E-20 9.61795E-19
 -1      3139 9.46921E-05-2.65793E-05-2.91949E-05 8.66785E-06-5.97846E-20-1.69569E-19
 -1      3140 9.51336E-05-2.70247E-05-2.91726E-05 9.26642E-06 4.10035E-19 2.50342E-20
 -1      3141 9.29575E-05-2.55838E-05-2.88763E-05 8.39297E-06-3.16716E-19 2.23520E-19
 -1      3142 9.53300E-05-2.75405E-05-2.90483E-05 1.00521E-05 1.01181E-18-1.72408E-19
 -1      3143 9.61329E-05-2.84320E-05-2.89921E-05 1.05700E-05 8.39649E-19-3.29762E-20
 -1      3144 9.30708E-05-2.62692E-05-2.86405E-05 9.93656E-06 6.04309E-19-2.89986E-19
 -1      3145 9.67877E-05-2.94905E-05-2.88206E-05 1.13706E-05 6.41579E-19-3.10433E-19
 -1      3146 9.81797E-05-3.10349E-05-2.87459E-05 1.16833E-05 3.56994E-19-7.55696E-19
 -1      3147 9.38417E-05-2.78846E-05-2.82960E-05 1.16217E-05 7.52198E-19-8.76113E-19
 -1      3148 9.96313E-05-3.28693E-05-2.85579E-05 1.23852E-05 2.78327E-19-1.55254E-19
 -1      3149 1.01915E-04-3.52766E-05-2.85227E-05 1.22624E-05 8.18356E-19 6.42258E-19
 -1      3150 9.58118E-05-3.09120E-05-2.78717E-05 1.33474E-05 4.41508E-19-2.40806E-19
 -1      3151 1.04659E-04-3.80625E-05-2.84189E-05 1.25782E-05 8.93304E-19 2.64961E-19
 -1      3152 1.08218E-04-4.13766E-05-2.85607E-05 1.15842E-05 4.36970E-19 4.98632E-19
 -1      3153 9.97198E-05-3.58809E-05-2.74836E-05 1.48054E-05 6.57519E-19 1.61797E-19
 -1      3154 1.14014E-04-4.73657E-05-2.85370E-05 1.15886E-05 4.84347E-20 5.13408E-19
 -1      3155 1.18894E-04-5.02343E-05-2.92489E-05 8.80548E-06-2.07966E-19 6.64305E-19
 -1      3156 1.23435E-04-5.19568E-05-3.05774E-05 4.91261E-06-1.50017E-19 6.78262E-19
 -1      3157 1.26933E-04-5.18297E-05-3.22544E-05 2.60182E-07 6.91099E-19-2.03562E-18
 -1      3158 1.24096E-04-5.19365E-05-3.08537E-05-4.10480E-06 3.68301E-19-1.99863E-18
 -1      3159 1.18163E-04-4.89728E-05-2.96569E-05-8.08514E-06 6.07415E-19-1.14007E-18
 -1      3160 1.14146E-04-4.60862E-05-2.90066E-05-1.07718E-05 1.10195E-18-4.23278E-19
 -1      3161 1.19965E-04-5.21031E-05-2.92409E-05-1.08855E-05 1.50767E-18-3.58541E-18
 -1      3162 1.09568E-04-4.25790E-05-2.87023E-05-1.21695E-05 3.14077E-19 3.38550E-19
 -1      3163 1.06192E-04-3.94039E-05-2.85166E-05-1.34555E-05-1.76937E-19-9.48268E-19
 -1      3164 1.09067E-04-4.47144E-05-2.77519E-05-1.54367E-05 8.44439E-19-4.13676E-19
 -1      3165 1.03253E-04-3.64924E-05-2.85882E-05-1.35155E-05-1.12389E-19-1.05200E-18
 -1      3166 1.00857E-04-3.39750E-05-2.86066E-05-1.38642E-05-6.12423E-19-9.15071E-19
 -1      3167 1.01728E-04-3.75094E-05-2.76360E-05-1.60492E-05-1.76591E-19-9.24401E-19
 -1      3168 9.92325E-05-3.19622E-05-2.88050E-05-1.33439E-05-1.75907E-19-3.37975E-19
 -1      3169 9.76870E-05-3.02154E-05-2.88900E-05-1.31591E-05 4.61859E-19-9.20069E-19
 -1      3170 9.73440E-05-3.21572E-05-2.80048E-05-1.50576E-05-3.54745E-20-1.00853E-18
 -1      3171 9.68986E-05-2.89373E-05-2.91074E-05-1.24301E-05-1.43338E-19-1.22232E-18
 -1      3172 9.59572E-05-2.77909E-05-2.92027E-05-1.19305E-05-7.83658E-19-1.82461E-18
 -1      3173 9.50790E-05-2.86543E-05-2.84977E-05-1.35297E-05-5.13478E-19-9.35224E-19
 -1      3174 9.57733E-05-2.71437E-05-2.93999E-05-1.12173E-05 4.36974E-19-1.67075E-18
 -1      3175 9.51770E-05-2.63562E-05-2.94877E-05-1.05160E-05 1.89694E-18-7.26649E-19
 -1      3176 9.39962E-05-2.54654E-05-2.93806E-05-1.04641E-05 1.50724E-18-1.61207E-19
 -1      3177 9.42205E-05-2.66483E-05-2.89743E-05-1.19522E-05-4.33447E-19-9.06305E-20
 -1      3178 9.05528E-05-4.34116E-05-1.99008E-05-3.30276E-05 2.22883E-18-7.19184E-19
 -1      3179 1.05155E-04-5.13480E-05-2.30549E-05-2.98243E-05 2.02219E-18-2.63650E-18
 -1      3180 9.52519E-05-2.86565E-05-2.85400E-05-1.18377E-06 3.94418E-19-6.55840E-19
 -1      3181 9.52450E-05-2.86021E-05-2.85582E-05-1.16188E-06 2.40196E-19-6.52397E-19
 -1      3182 9.52383E-05-2.86574E-05-2.85323E-05-1.11661E-06 2.90076E-19 2.69803E-20
 -1      3183 9.52083E-05-2.86739E-05-2.85156E-05-1.13070E-06 3.65653E-19-3.40093E-19
 -1      3184 9.52499E-05-2.85859E-05-2.85674E-05-1.11473E-06 1.49548E-19 5.06683E-19
 -1      3185 9.52155E-05-2.86160E-05-2.85441E-05-1.11139E-06 3.38743E-19 3.22803E-19
 -1      3186 9.53740E-05-2.86840E-05-2.85827E-05-1.13174E-06 5.11267E-20-4.33872E-19
 -1      3187 9.52675E-05-2.84899E-05-2.86157E-05-1.16224E-06 2.50279E-19 4.57514E-19
 -1      3188 9.52285E-05-2.85312E-05-2.85865E-05-1.13179E-06 2.55732E-19 5.70025E-19
 -1      3189 9.53305E-05-2.85756E-05-2.86103E-05-1.14947E-06 1.93677E-19-2.84312E-19
 -1      3190 9.52913E-05-2.83722E-05-2.86758E-05-1.27643E-06 1.89836E-19 3.45120E-19
 -1      3191 9.52464E-05-2.84232E-05-2.86409E-05-1.21066E-06 2.12987E-19 4.95386E-19
 -1      3192 9.52882E-05-2.84363E-05-2.86516E-05-1.22022E-06 6.11545E-20-1.22949E-19
 -1      3193 9.53219E-05-2.82349E-05-2.87472E-05-1.47248E-06 1.52149E-19 8.14345E-19
 -1      3194 9.52692E-05-2.82941E-05-2.87065E-05-1.36414E-06 9.45405E-20 7.08014E-19
 -1      3195 9.52448E-05-2.82690E-05-2.87045E-05-1.36147E-06 5.75055E-20 4.12733E-19
 -1      3196 9.53614E-05-2.80804E-05-2.88297E-05-1.76398E-06 3.98444E-19 4.60184E-19
 -1      3197 9.52979E-05-2.81458E-05-2.87827E-05-1.60666E-06 2.91421E-19 4.24159E-19
 -1      3198 9.51982E-05-2.80751E-05-2.87674E-05-1.58862E-06 4.01844E-19 1.93722E-19
 -1      3199 9.54129E-05-2.79131E-05-2.89228E-05-2.16271E-06 6.45161E-20 9.82840E-19
 -1      3200 9.53349E-05-2.79815E-05-2.88694E-05-1.95112E-06 4.64546E-19 9.25546E-19
 -1      3201 9.51471E-05-2.78572E-05-2.88388E-05-1.91551E-06 2.68258E-19 1.05755E-20
 -1      3202 9.54827E-05-2.77422E-05-2.90252E-05-2.67760E-06 2.26285E-19 6.13878E-19
 -1      3203 9.53848E-05-2.78078E-05-2.89657E-05-2.40830E-06 2.47844E-19 1.09468E-18
 -1      3204 9.50918E-05-2.76203E-05-2.89165E-05-2.35417E-06 1.65370E-19 6.02416E-19
 -1      3205 9.55815E-05-2.75847E-05-2.91343E-05-3.31262E-06 4.27030E-19-1.85871E-19
 -1      3206 9.54559E-05-2.76371E-05-2.90696E-05-2.98538E-06 2.24669E-19 3.91187E-19
 -1      3207 9.50359E-05-2.73759E-05-2.89972E-05-2.91391E-06 6.25696E-19 5.17584E-19
 -1      3208 9.57279E-05-2.74703E-05-2.92454E-05-4.06355E-06 4.31911E-19 4.33658E-19
 -1      3209 9.55630E-05-2.74924E-05-2.91776E-05-3.68344E-06 5.69366E-19 1.77785E-19
 -1      3210 9.49893E-05-2.71454E-05-2.90761E-05-3.59959E-06 1.75723E-19 4.66830E-19
 -1      3211 9.59547E-05-2.74487E-05-2.93514E-05-4.91323E-06 3.23936E-19 9.42706E-19
 -1      3212 9.57323E-05-2.74129E-05-2.92838E-05-4.49358E-06 2.97519E-19 6.90610E-19
 -1      3213 9.49728E-05-2.69670E-05-2.91461E-05-4.40904E-06 1.02484E-19 9.19253E-19
 -1      3214 9.63172E-05-2.75977E-05-2.94426E-05-5.82497E-06 2.41769E-19 1.57255E-18
 -1      3215 9.60086E-05-2.74616E-05-2.93798E-05-5.39147E-06 3.94780E-19 1.28408E-18
 -1      3216 9.50263E-05-2.69034E-05-2.91976E-05-5.32941E-06 7.94581E-20 1.35982E-18
 -1      3217 9.69058E-05-2.80336E-05-2.95082E-05-6.73320E-06-2.97599E-19 1.58998E-18
 -1      3218 9.64666E-05-2.77358E-05-2.94555E-05-6.32942E-06 2.38059E-19 1.45592E-18
 -1      3219 9.52200E-05-2.70529E-05-2.92195E-05-6.33204E-06 2.35019E-20 1.49471E-18
 -1      3220 9.78610E-05-2.89174E-05-2.95398E-05-7.53003E-06-2.09851E-19 5.18078E-19
 -1      3221 9.72260E-05-2.83756E-05-2.95010E-05-7.22469E-06 2.53736E-19 1.07531E-18
 -1      3222 9.56715E-05-2.75605E-05-2.92009E-05-7.36422E-06 3.80632E-19 1.49154E-18
 -1      3223 9.93832E-05-3.04478E-05-2.95390E-05-8.04503E-06-4.50320E-19-1.08088E-19
 -1      3224 9.84663E-05-2.95664E-05-2.95127E-05-7.94128E-06-5.58575E-19 3.21238E-19
 -1      3225 9.65658E-05-2.86261E-05-2.91369E-05-8.33439E-06-6.07107E-20 5.73698E-19
 -1      3226 1.01722E-04-3.28181E-05-2.95326E-05-8.01588E-06-3.65071E-19-4.00005E-19
 -1      3227 1.00432E-04-3.15183E-05-2.95040E-05-8.26133E-06-3.02183E-19-3.83688E-19
 -1      3228 9.81724E-05-3.04943E-05-2.90397E-05-9.08392E-06-3.03740E-19 3.14959E-19
 -1      3229 1.05109E-04-3.60948E-05-2.95946E-05-7.05271E-06-1.71307E-18 3.36806E-19
 -1      3230 1.03401E-04-3.43914E-05-2.95253E-05-7.84328E-06-8.09052E-19 1.34384E-19
 -1      3231 1.00839E-04-3.34017E-05-2.89577E-05-9.33543E-06-1.04319E-18-4.94406E-21
 -1      3232 1.09566E-04-3.99500E-05-2.98765E-05-4.62756E-06-9.93140E-19-1.61259E-19
 -1      3233 1.07558E-04-3.81096E-05-2.96919E-05-6.17806E-06-1.44562E-18 1.74280E-19
 -1      3234 1.04918E-04-3.74210E-05-2.90072E-05-8.60965E-06-1.49307E-18 6.39461E-19
 -1      3235 1.14570E-04-4.32541E-05-3.06271E-05-2.46772E-07-1.13447E-18 1.09420E-18
 -1      3236 1.12685E-04-4.19971E-05-3.02147E-05-2.65625E-06-1.38622E-18 4.37674E-19
 -1      3237 1.10496E-04-4.20889E-05-2.94164E-05-6.14963E-06-1.61803E-18-3.63655E-19
 -1      3238 1.18651E-04-4.37364E-05-3.21697E-05 5.98513E-06-1.28242E-18 2.55193E-18
 -1      3239 1.17695E-04-4.43147E-05-3.14057E-05 3.06692E-06-8.37992E-19 2.04103E-18
 -1      3240 1.16932E-04-4.57842E-05-3.05703E-05-1.08950E-06-2.02669E-18 1.56640E-18
 -1      3241 1.19470E-04-3.88105E-05-3.45991E-05 1.19216E-05-4.69706E-19 2.02310E-18
 -1      3242 1.20365E-04-4.22389E-05-3.35634E-05 9.92412E-06-7.28700E-19 2.17558E-18
 -1      3243 1.22057E-04-4.54641E-05-3.28806E-05 6.45016E-06-5.31579E-19 1.22165E-18
 -1      3244 1.17857E-04-2.73228E-05-3.89415E-05 1.39113E-05 4.32834E-19 8.67256E-19
 -1      3245 1.20573E-04-3.35645E-05-3.75214E-05 1.44793E-05-1.86347E-20 1.14409E-18
 -1      3246 1.12752E-04-1.67384E-05-4.14660E-05 6.76878E-06 1.49226E-18 1.59097E-19
 -1      3247 1.14743E-04-2.07390E-05-4.07263E-05 1.08928E-05 9.62441E-19 9.13075E-20
 -1      3248 1.13394E-04-1.63581E-05-4.19893E-05-5.09020E-06 8.01293E-19 7.91276E-19
 -1      3249 1.12663E-04-1.48767E-05-4.22797E-05 1.52524E-07 1.57675E-18 5.61821E-21
 -1      3250 1.19504E-04-3.71778E-05-3.54667E-05-1.23280E-05 8.41871E-20 2.01929E-18
 -1      3251 1.17401E-04-3.19053E-05-3.66633E-05-1.29760E-05-4.58589E-19 2.61511E-18
 -1      3252 1.19620E-04-4.42101E-05-3.23266E-05-5.75255E-06 2.49446E-19 2.44470E-18
 -1      3253 1.19560E-04-4.19180E-05-3.33092E-05-8.60358E-06 2.02388E-19 1.94454E-18
 -1      3254 1.15502E-04-4.38426E-05-3.06118E-05 1.04926E-06 8.23090E-19 1.18395E-18
 -1      3255 1.16933E-04-4.42808E-05-3.12167E-05-1.75502E-06 5.90137E-19 1.71788E-18
 -1      3256 1.20194E-04-4.66927E-05-3.16095E-05-1.48836E-06 6.32462E-19 1.81979E-18
 -1      3257 1.10116E-04-4.04874E-05-2.97623E-05 6.00959E-06 5.85081E-19 8.75187E-19
 -1      3258 1.12207E-04-4.21755E-05-3.00621E-05 3.95557E-06 1.38769E-18 1.07378E-18
 -1      3259 1.14299E-04-4.48642E-05-2.98842E-05 4.99207E-06 1.57765E-18 1.91334E-18
 -1      3260 1.05355E-04-3.65004E-05-2.94461E-05 8.73489E-06-2.79625E-19 1.18807E-18
 -1      3261 1.07322E-04-3.83938E-05-2.95661E-05 7.49627E-06-1.53000E-19 3.23371E-19
 -1      3262 1.07924E-04-4.02582E-05-2.91067E-05 8.95266E-06 5.10776E-19 1.19990E-18
 -1      3263 1.01693E-04-3.30039E-05-2.93972E-05 9.86216E-06 1.81540E-18-5.95160E-19
 -1      3264 1.03275E-04-3.46270E-05-2.94306E-05 9.31431E-06 1.00665E-18 1.78720E-19
 -1      3265 1.03119E-04-3.57603E-05-2.89366E-05 1.07198E-05 9.63816E-19-5.86670E-20
 -1      3266 9.91079E-05-3.03078E-05-2.94602E-05 9.90327E-06 1.99251E-18-5.16178E-19
 -1      3267 1.00303E-04-3.15654E-05-2.94595E-05 9.86011E-06 2.01272E-18-2.39668E-19
 -1      3268 9.97011E-05-3.20705E-05-2.90312E-05 1.10287E-05 1.82166E-18 8.80037E-20
 -1      3269 9.73529E-05-2.83193E-05-2.95661E-05 9.22470E-06 4.67609E-19-1.11502E-19
 -1      3270 9.82254E-05-2.92644E-05-2.95510E-05 9.54844E-06 1.55961E-18-3.70977E-19
 -1      3271 9.74806E-05-2.93389E-05-2.92313E-05 1.05077E-05 1.14143E-18 3.59933E-19
 -1      3272 9.60964E-05-2.69674E-05-2.96120E-05 8.60318E-06-1.40852E-18 5.10673E-19
 -1      3273 9.67891E-05-2.76957E-05-2.96066E-05 8.95206E-06-4.67283E-19 1.87852E-20
 -1      3274 9.60635E-05-2.75149E-05-2.93941E-05 9.74797E-06-1.39575E-19 5.24660E-19
 -1      3275 9.50745E-05-2.61840E-05-2.95390E-05 8.96629E-06-8.87681E-19-2.61174E-19
 -1      3276 9.23945E-05-1.83487E-05-3.17491E-05 1.81521E-06 1.11437E-18-1.61529E-18
 -1      3277 9.22760E-05-1.81468E-05-3.17814E-05 1.06006E-06 9.44840E-19-1.71453E-18
 -1      3278 1.30155E-04-4.73489E-05-3.55784E-05 7.84872E-06 7.61191E-19 2.81533E-19
 -1      3279 1.24960E-04-3.81182E-05-3.74597E-05 1.32624E-05 6.08487E-19 1.04887E-18
 -1      3280 8.62843E-05-1.95342E-05-2.86239E-05 1.33989E-07 1.31396E-18-1.83337E-18
 -1      3281 8.65141E-05-1.97062E-05-2.86326E-05 1.96845E-06 1.22940E-18-6.26813E-20
 -1      3282 9.10587E-05-2.30542E-05-2.91276E-05-9.20452E-06 3.83908E-19 3.73757E-19
 -1      3283 8.97809E-05-2.21505E-05-2.90172E-05-8.38508E-06 9.32049E-20 1.31261E-18
 -1      3284 8.67883E-05-1.98565E-05-2.86814E-05-3.74453E-06 8.98981E-19 1.45268E-18
 -1      3285 8.63790E-05-1.95839E-05-2.86463E-05-1.98791E-06 1.22992E-18-1.30093E-18
 -1      3286 8.51995E-05-1.95286E-05-2.81128E-05-9.39373E-07 1.47492E-18-1.84818E-18
 -1      3287 9.54124E-05-2.73420E-05-2.91800E-05 2.81411E-07 6.86094E-19-6.39465E-19
 -1      3288 9.54764E-05-2.69376E-05-2.93579E-05 8.44506E-07 9.13880E-19-6.25820E-19
 -1      3289 1.22699E-04-5.74461E-05-2.79082E-05 1.85951E-05-8.63762E-19-2.57562E-18
 -1      3290 1.31875E-04-4.84809E-05-3.61733E-05-5.58938E-06-1.34093E-18-8.48198E-19
 -1      3291 1.31391E-04-5.42458E-05-3.29296E-05 2.38144E-06-7.40452E-19-1.40803E-18
 -1      3292 9.02126E-05-4.20384E-05-2.09983E-05 3.07803E-05 8.71650E-19 1.15795E-18
 -1      3293 7.39971E-05-3.13536E-05-1.78329E-05 2.98125E-05 4.62718E-19 7.60212E-20
 -1      3294 3.97288E-05-1.71645E-05-9.04148E-06 1.89673E-05-1.76500E-19 4.49351E-19
 -1      3295 4.10052E-05-1.45647E-05-1.08538E-05 1.04243E-05-5.81753E-19 1.19135E-18
 -1      3296 9.52796E-05-2.85385E-05-2.86034E-05-1.11083E-06 1.92961E-19-7.16008E-19
 -1      3297 9.52884E-05-2.84407E-05-2.86435E-05-1.02912E-06 3.74807E-19-5.74660E-19
 -1      3298 9.55901E-05-2.86367E-05-2.86979E-05-1.08811E-06 2.76852E-19-9.97581E-19
 -1      3299 8.85125E-05-2.11354E-05-2.88554E-05-7.05941E-06 2.87226E-19-2.27992E-19
 -1      3300 8.75558E-05-2.04796E-05-2.87797E-05-5.63576E-06 3.04379E-19 1.41979E-19
 -1      3301 8.61847E-05-2.02170E-05-2.82490E-05-5.11903E-06 8.42003E-19 7.98903E-20
 -1      3302 8.84485E-05-2.18665E-05-2.85388E-05-8.41490E-06 2.13361E-20 1.08166E-18
 -1      3303 9.24401E-05-1.79692E-05-3.19376E-05-6.92941E-06-6.85767E-19-2.45624E-18
 -1      3304 9.30746E-05-1.89487E-05-3.17974E-05-7.43989E-06-8.90223E-19-2.40933E-18
 -1      3305 9.38245E-05-2.05062E-05-3.14016E-05-6.44004E-06-8.82107E-19-2.28069E-18
 -1      3306 9.32003E-05-1.93950E-05-3.16025E-05-5.67648E-06-6.07501E-19-2.31516E-18
 -1      3307 9.52336E-05-2.86993E-05-2.85127E-05-1.14727E-06 6.13879E-19-4.55457E-19
 -1      3308 9.52088E-05-2.86986E-05-2.85043E-05-1.16677E-06 7.49241E-19-2.95370E-19
 -1      3309 9.54206E-05-2.87567E-05-2.85719E-05-1.14638E-06 3.55943E-19-2.93653E-19
 -1      3310 9.53728E-05-2.79468E-05-2.89007E-05-4.73434E-07 4.48165E-19-6.64018E-19
 -1      3311 9.54268E-05-2.76918E-05-2.90162E-05-1.38945E-07 5.44655E-19-5.43354E-19
 -1      3312 9.56958E-05-2.73272E-05-2.93059E-05 2.28688E-07 5.58850E-19-8.52453E-19
 -1      3313 9.49801E-05-2.35007E-05-3.06137E-05-4.13981E-06-7.56117E-19-1.89451E-18
 -1      3314 9.51700E-05-2.46002E-05-3.02611E-05-2.98581E-06-6.45096E-19-1.81737E-18
 -1      3315 9.52374E-05-2.87033E-05-2.85131E-05-1.18090E-06 6.59439E-19-5.30621E-19
 -1      3316 9.52198E-05-2.86800E-05-2.85158E-05-1.19018E-06 6.03735E-19-5.48753E-19
 -1      3317 9.55288E-05-2.87521E-05-2.86214E-05-1.16291E-06 3.93176E-19-7.73671E-19
 -1      3318 9.54720E-05-2.87843E-05-2.85826E-05-1.16779E-06 6.22080E-19-4.95453E-19
 -1      3319 9.53214E-05-2.83183E-05-2.87172E-05-9.01279E-07 4.05759E-19-5.98218E-19
 -1      3320 9.53512E-05-2.81576E-05-2.87885E-05-7.20322E-07 3.63654E-19-7.17378E-19
 -1      3321 9.56506E-05-2.84025E-05-2.88250E-05-8.85407E-07 3.65974E-19-1.04319E-18
 -1      3322 1.29957E-04-3.40264E-05-4.16961E-05 1.44193E-05-1.35737E-19-2.42013E-18
 -1      3323 9.55047E-05-2.55662E-05-2.99573E-05-2.15170E-06-5.28399E-19-1.68788E-18
 -1      3324 9.55397E-05-2.62656E-05-2.97018E-05-1.34312E-06-4.91473E-19-1.51097E-18
 -1      3325 9.57152E-05-2.61970E-05-2.97946E-05-1.17837E-06-3.81313E-19-1.50309E-18
 -1      3326 1.14633E-04-2.08970E-05-4.03566E-05-1.01389E-05-1.25255E-19 1.37357E-18
 -1      3327 1.04125E-04-4.85884E-05-2.38896E-05 2.70184E-05 3.62477E-19-2.31706E-18
 -1      3328 9.30496E-05-4.25101E-05-2.11991E-05 3.10499E-05 4.83285E-19-3.42719E-18
 -1      3329 6.42193E-05-2.62644E-05-1.59542E-05-2.81994E-05 2.19411E-18-2.02653E-19
 -1      3330 7.69047E-05-3.51167E-05-1.77495E-05-3.35732E-05 2.49372E-18 1.34345E-18
 -1      3331 7.38685E-05-3.47701E-05-1.64241E-05-3.42250E-05-1.42381E-18-2.26560E-18
 -1      3332 8.83501E-05-4.40629E-05-1.87435E-05-3.61217E-05-1.16467E-18-2.14543E-18
 -1      3333 9.79843E-05-4.68314E-05-2.16609E-05-3.05488E-05-9.36766E-19-1.89704E-18
 -1      3334 3.86740E-05-1.23222E-05-1.11977E-05 4.24990E-06-1.18161E-19-2.57297E-18
 -1      3335 3.76720E-05-1.24193E-05-1.00718E-05-7.61747E-06-6.20491E-19-3.10914E-18
 -1      3336 5.08453E-05-1.98494E-05-1.28006E-05 2.26427E-05-8.89940E-19-1.10157E-18
 -1      3337 1.20723E-04-5.63880E-05-2.74227E-05-1.86977E-05 1.50569E-18-2.47940E-18
 -1      3338 1.30418E-04-5.79938E-05-3.11449E-05-8.49811E-06 8.24692E-19-2.35539E-18
 -1      3339 7.93118E-05-3.54616E-05-1.88522E-05 3.22079E-05-3.57766E-19-3.72642E-18
 -1      3340 6.51814E-05-2.59660E-05-1.62885E-05 2.80757E-05-9.72367E-19-2.98537E-18
 -1      3341 8.69255E-05-3.69307E-05-2.12293E-05 2.83189E-05-3.13958E-19-2.68430E-18
 -1      3342 1.17461E-04-2.66320E-05-3.91998E-05-1.28260E-05-1.00622E-18 1.62041E-18
 -1      3343 1.26145E-04-5.68675E-05-2.99166E-05 1.21804E-05-3.23275E-19-2.50249E-18
 -1      3344 1.16252E-04-5.38618E-05-2.65946E-05 2.00820E-05-1.38530E-19-1.76649E-18
 -1      3345 1.26085E-04-5.35039E-05-3.10904E-05 5.06914E-06-1.66045E-19-1.57080E-18
 -1      3346 4.67132E-05-1.48968E-05-1.34269E-05 1.07886E-05-4.55863E-19 1.58745E-18
 -1      3347 4.28585E-05-1.28731E-05-1.22149E-05 2.12361E-06-3.25631E-19 1.73038E-18
 -1      3348 4.83928E-05-1.40201E-05-1.43463E-05-4.27938E-06 1.12672E-18 3.63801E-19
 -1      3349 1.31950E-04-4.17043E-05-3.88574E-05 1.20208E-05 5.02502E-19-2.63957E-18
 -1      3350 1.32341E-04-4.85836E-05-3.61309E-05 7.85380E-06 5.98098E-19-1.83274E-18
 -1      3351 5.54841E-05-2.07600E-05-1.47145E-05 2.36808E-05-1.31499E-18-2.20398E-18
 -1      3352 5.23361E-05-1.78944E-05-1.42548E-05 1.89327E-05-1.44062E-18-6.09017E-19
 -1      3353 5.23072E-05-1.58521E-05-1.53019E-05 1.17918E-05-1.04308E-18 4.71109E-19
 -1      3354 6.62608E-05-2.42795E-05-1.76452E-05 2.43356E-05-4.86806E-19-2.98531E-18
 -1      3355 9.22164E-05-1.80469E-05-3.18000E-05 4.09102E-07 8.61347E-19-1.75650E-18
 -1      3356 9.22130E-05-1.80420E-05-3.18005E-05-3.60472E-07 6.44137E-19-1.83517E-18
 -1      3357 9.31697E-05-1.96292E-05-3.14998E-05 6.29836E-07 7.79533E-19-1.64630E-18
 -1      3358 9.43491E-05-2.19852E-05-3.09923E-05 3.63440E-06 1.49591E-18-1.19977E-18
 -1      3359 9.34433E-05-2.02160E-05-3.14078E-05 4.25341E-06 1.70827E-18-1.22601E-18
 -1      3360 9.30887E-05-1.95568E-05-3.15224E-05 3.66015E-06 1.57226E-18-1.43692E-18
 -1      3361 1.26850E-04-4.34668E-05-3.58945E-05-8.86915E-06-7.96740E-19 1.35022E-18
 -1      3362 9.28039E-05-1.90588E-05-3.16243E-05 3.13121E-06 1.42007E-18-1.45896E-18
 -1      3363 9.25679E-05-1.86441E-05-3.16925E-05 2.42807E-06 1.22453E-18-1.48512E-18
 -1      3364 9.33814E-05-2.00182E-05-3.14227E-05 1.80691E-06 1.06465E-18-1.44362E-18
 -1      3365 9.37875E-05-2.07991E-05-3.12603E-05 2.85321E-06 1.32732E-18-1.30351E-18
 -1      3366 9.30580E-05-1.95078E-05-3.15306E-05-3.61874E-06-8.50902E-20-2.01189E-18
 -1      3367 9.34224E-05-2.01669E-05-3.14180E-05-4.23578E-06-3.17431E-19-2.03928E-18
 -1      3368 1.32593E-04-5.31684E-05-3.41992E-05 4.03697E-07 7.52748E-19-1.76326E-18
 -1      3369 1.16205E-04-5.43683E-05-2.64522E-05-2.01873E-05-7.95258E-19-2.36511E-18
 -1      3370 1.23031E-04-5.68473E-05-2.82641E-05-1.61722E-05-2.09829E-18-3.63382E-18
 -1      3371 1.25420E-04-5.53946E-05-3.02416E-05-8.64137E-06-1.74744E-18-2.02833E-18
 -1      3372 1.08066E-04-4.52806E-05-2.71145E-05 1.66107E-05 2.08105E-19 4.39451E-19
 -1      3373 1.28864E-04-5.35732E-05-3.20188E-05 1.58827E-06 3.72403E-19 7.90652E-19
 -1      3374 1.16044E-04-1.84989E-05-4.25700E-05-8.43995E-06-4.60045E-19-5.03720E-19
 -1      3375 1.19931E-04-1.50191E-05-4.55277E-05-4.82335E-06-2.18111E-20-9.65988E-19
 -1      3376 1.31774E-04-5.20379E-05-3.44634E-05-5.68251E-06 4.74537E-19 3.91647E-19
 -1      3377 1.23101E-04-4.14400E-05-3.51255E-05-1.01281E-05-1.28656E-19 2.44069E-18
 -1      3378 1.14857E-04-5.08399E-05-2.75288E-05 1.59157E-05 3.60348E-19-1.10011E-18
 -1      3379 1.11000E-04-5.07982E-05-2.56519E-05 2.22830E-05 8.05343E-20-1.53093E-18
 -1      3380 1.04014E-04-4.55530E-05-2.50253E-05 2.29198E-05 5.93730E-19-1.53615E-18
 -1      3381 6.75860E-05-2.99715E-05-1.56581E-05-3.25619E-05-1.29231E-18-1.97443E-18
 -1      3382 7.83646E-05-3.43914E-05-1.85870E-05-3.12049E-05-1.97483E-18-1.43223E-18
 -1      3383 6.07163E-05-2.48350E-05-1.52020E-05-2.81866E-05-1.26261E-18-1.09087E-18
 -1      3384 9.27747E-05-1.90121E-05-3.16306E-05-3.09221E-06 9.36805E-20-2.20436E-18
 -1      3385 9.37511E-05-2.07581E-05-3.12687E-05-2.80882E-06-4.14972E-20-1.92625E-18
 -1      3386 9.25469E-05-1.86118E-05-3.16971E-05-2.37803E-06 2.29851E-19-2.10501E-18
 -1      3387 1.26871E-04-4.91538E-05-3.33605E-05 3.63842E-06-1.65304E-19-7.91446E-20
 -1      3388 8.90220E-05-2.17784E-05-2.88526E-05 6.99996E-06 8.59527E-19-1.37898E-18
 -1      3389 9.01731E-05-2.26191E-05-2.89308E-05 8.03356E-06 1.22638E-18-1.48450E-18
 -1      3390 8.75100E-05-3.86941E-05-2.05733E-05-2.99522E-05 2.12740E-18-6.53698E-19
 -1      3391 8.57746E-05-2.00291E-05-2.81505E-05 3.34257E-06 1.17357E-18-2.86956E-19
 -1      3392 8.71101E-05-2.02459E-05-2.86871E-05 3.96531E-06 1.79675E-18 4.40641E-19
 -1      3393 8.79124E-05-2.08237E-05-2.87357E-05 5.51810E-06 1.51394E-18-3.66476E-19
 -1      3394 4.86167E-05-1.40834E-05-1.43609E-05 8.02059E-06 8.89385E-20-2.01149E-18
 -1      3395 9.29708E-05-2.46926E-05-2.92588E-05-1.02006E-05 7.34430E-19 6.47379E-19
 -1      3396 9.19316E-05-2.38100E-05-2.92118E-05-9.76984E-06 9.92081E-20 1.25665E-18
 -1      3397 9.09160E-05-2.36735E-05-2.88222E-05-1.01947E-05-3.37937E-19 9.79521E-19
 -1      3398 9.30420E-05-2.52107E-05-2.90598E-05-1.09464E-05-4.68937E-20 2.21132E-18
 -1      3399 4.58114E-05-1.53340E-05-1.25448E-05-1.43639E-05-6.58039E-19-2.21626E-18
 -1      3400 9.52437E-05-2.44707E-05-3.03294E-05-2.64073E-06-5.46523E-19-1.78602E-18
 -1      3401 7.82597E-05-2.94038E-05-2.07006E-05 2.43326E-05 1.25881E-18 4.63009E-19
 -1      3402 6.84085E-05-2.60191E-05-1.78488E-05 2.63038E-05 5.89403E-19 7.58359E-19
 -1      3403 6.41815E-05-2.08698E-05-1.84680E-05 1.99960E-05 1.34866E-18-1.12708E-19
 -1      3404 1.00678E-04-4.44346E-05-2.38268E-05 2.41592E-05 8.66065E-19 7.47258E-19
 -1      3405 9.56969E-05-2.79949E-05-2.90201E-05-4.78635E-07 4.70481E-19-9.80005E-19
 -1      3406 9.42637E-05-2.18428E-05-3.10562E-05-5.44580E-06-7.90960E-19-2.14532E-18
 -1      3407 9.42086E-05-2.17441E-05-3.10660E-05-4.77723E-06-6.83286E-19-2.09198E-18
 -1      3408 9.13194E-05-2.35257E-05-2.90784E-05 8.68296E-06 1.22138E-18-1.07335E-18
 -1      3409 9.23557E-05-2.42668E-05-2.91661E-05 9.05131E-06 9.45057E-19-7.04147E-19
 -1      3410 9.03272E-05-2.34692E-05-2.86503E-05 9.06625E-06 1.14935E-18-1.09097E-18
 -1      3411 9.53830E-05-2.64995E-05-2.95314E-05 1.37728E-06 9.89954E-19-5.82936E-19
 -1      3412 9.54228E-05-2.58797E-05-2.97908E-05 2.24471E-06 1.07325E-18-7.31433E-19
 -1      3413 9.53439E-05-2.51624E-05-3.00725E-05 2.62359E-06 1.14071E-18-9.40797E-19
 -1      3414 9.55913E-05-2.64054E-05-2.96566E-05 1.24743E-06 9.31166E-19-8.07023E-19
 -1      3415 5.97745E-05-2.18465E-05-1.58131E-05-2.38501E-05 8.05793E-19-3.29411E-18
 -1      3416 6.94699E-05-2.57616E-05-1.84542E-05-2.48677E-05 1.11006E-18-7.76729E-19
 -1      3417 5.62928E-05-1.81921E-05-1.61821E-05-1.71728E-05-1.22952E-19-3.21100E-18
 -1      3418 1.14621E-04-5.31055E-05-2.62078E-05-2.11148E-05 1.75394E-18-2.47581E-18
 -1      3419 1.26609E-04-4.89910E-05-3.33243E-05-4.34941E-06-4.95379E-19 1.81572E-18
 -1      3420 9.60483E-05-2.69058E-05-2.96236E-05-4.50799E-07-2.28590E-19-1.31953E-18
 -1      3421 9.60972E-05-2.73945E-05-2.94514E-05-3.32400E-08-2.61329E-19-1.21430E-18
 -1      3422 1.20031E-04-1.34274E-05-4.62167E-05 2.13502E-06 7.65506E-19-8.51189E-19
 -1      3423 4.76377E-05-1.37042E-05-1.45429E-05-9.89582E-06-7.96277E-19-2.20091E-18
 -1      3424 5.24879E-05-1.76296E-05-1.44361E-05-2.03667E-05-1.51309E-18-9.93358E-19
 -1      3425 9.61786E-05-2.78095E-05-2.92935E-05 2.50644E-07-3.79912E-19-1.11515E-18
 -1      3426 9.61737E-05-2.81215E-05-2.91696E-05 5.09441E-07-5.00743E-19-1.06853E-18
 -1      3427 9.62844E-05-2.74407E-05-2.95046E-05 1.87176E-08-2.19825E-19-1.28063E-18
 -1      3428 9.61802E-05-2.83756E-05-2.90536E-05 6.78141E-07-5.69537E-19-8.48898E-19
 -1      3429 9.61492E-05-2.85635E-05-2.89674E-05 8.23304E-07-2.26285E-19-7.64538E-19
 -1      3430 9.63723E-05-2.81845E-05-2.92249E-05 4.91322E-07-3.25344E-19-8.64123E-19
 -1      3431 9.61113E-05-2.87045E-05-2.88849E-05 9.10771E-07-1.44834E-19-8.42962E-19
 -1      3432 9.60687E-05-2.88049E-05-2.88278E-05 9.80536E-07-2.66714E-19-1.17513E-18
 -1      3433 9.63426E-05-2.86323E-05-2.90207E-05 7.66710E-07-3.06907E-19-6.31672E-19
 -1      3434 9.60056E-05-2.88663E-05-2.87718E-05 1.01597E-06-2.30045E-19-1.28741E-18
 -1      3435 9.59590E-05-2.89045E-05-2.87369E-05 1.04074E-06-1.73117E-19-1.05225E-18
 -1      3436 9.62440E-05-2.88689E-05-2.88772E-05 9.06580E-07-2.22911E-19-8.30787E-19
 -1      3437 9.58820E-05-2.89091E-05-2.87018E-05 1.04764E-06-2.65065E-19-9.09955E-19
 -1      3438 9.58347E-05-2.89023E-05-2.86839E-05 1.05091E-06-3.61333E-19-7.32218E-19
 -1      3439 9.61065E-05-2.89541E-05-2.87816E-05 9.63255E-07-1.69556E-19-7.46437E-19
 -1      3440 9.57500E-05-2.88655E-05-2.86649E-05 1.04768E-06-4.78139E-19-6.17124E-19
 -1      3441 9.57029E-05-2.88249E-05-2.86601E-05 1.04742E-06-5.41333E-19-5.25232E-19
 -1      3442 9.59473E-05-2.89295E-05-2.87236E-05 9.78630E-07-2.89286E-19-5.74043E-19
 -1      3443 9.56127E-05-2.87563E-05-2.86537E-05 1.04834E-06-8.58923E-19-5.39096E-19
 -1      3444 9.55654E-05-2.86890E-05-2.86591E-05 1.05851E-06-7.68692E-19-4.89085E-19
 -1      3445 9.57747E-05-2.88226E-05-2.86949E-05 9.85457E-07-7.68191E-19-5.53263E-19
 -1      3446 9.54689E-05-2.85940E-05-2.86624E-05 1.07488E-06-6.97674E-19-7.33190E-19
 -1      3447 9.54198E-05-2.85036E-05-2.86758E-05 1.10667E-06-4.15832E-19-8.38535E-19
 -1      3448 9.55900E-05-2.86506E-05-2.86891E-05 1.00939E-06-8.06658E-19-6.46074E-19
 -1      3449 9.53141E-05-2.83845E-05-2.86866E-05 1.14780E-06-2.06528E-19-8.60654E-19
 -1      3450 9.52607E-05-2.82724E-05-2.87065E-05 1.21056E-06-4.92493E-19-7.46401E-19
 -1      3451 9.53899E-05-2.84221E-05-2.87006E-05 1.07107E-06-3.75028E-19-1.14682E-18
 -1      3452 9.51412E-05-2.81291E-05-2.87227E-05 1.28447E-06-6.37948E-19-6.77577E-19
 -1      3453 9.50802E-05-2.79952E-05-2.87477E-05 1.38644E-06-5.06294E-19-7.78109E-19
 -1      3454 9.51669E-05-2.81404E-05-2.87252E-05 1.18770E-06-4.98477E-19-1.04593E-18
 -1      3455 9.49407E-05-2.78263E-05-2.87674E-05 1.50040E-06-2.98265E-19-5.36064E-19
 -1      3456 9.48683E-05-2.76697E-05-2.87961E-05 1.64913E-06-2.93248E-19-3.14957E-19
 -1      3457 9.49104E-05-2.78044E-05-2.87585E-05 1.37425E-06-1.74844E-19-5.87768E-19
 -1      3458 9.47013E-05-2.74730E-05-2.88172E-05 1.81000E-06-4.46219E-19-2.73571E-19
 -1      3459 9.46131E-05-2.72929E-05-2.88480E-05 2.01249E-06-4.09767E-19 5.40110E-21
 -1      3460 9.46069E-05-2.74109E-05-2.87961E-05 1.64439E-06-1.68654E-19-2.85530E-19
 -1      3461 9.44104E-05-2.70672E-05-2.88675E-05 2.22686E-06-4.44419E-19 2.90625E-19
 -1      3462 9.43020E-05-2.68642E-05-2.88981E-05 2.48949E-06-5.76564E-19 1.47532E-19
 -1      3463 9.42408E-05-2.69569E-05-2.88327E-05 2.01087E-06-2.24767E-19 2.70353E-19
 -1      3464 9.40549E-05-2.66099E-05-2.89124E-05 2.76377E-06-7.37460E-19 2.85161E-19
 -1      3465 9.39227E-05-2.63880E-05-2.89393E-05 3.09209E-06-4.92928E-19 5.62422E-19
 -1      3466 9.37953E-05-2.64418E-05-2.88613E-05 2.48575E-06-4.34731E-19 5.98727E-19
 -1      3467 9.36232E-05-2.61099E-05-2.89431E-05 3.43267E-06-2.28341E-19 3.67947E-19
 -1      3468 9.34662E-05-2.58788E-05-2.89615E-05 3.83115E-06 9.00950E-20 4.74001E-19
 -1      3469 9.32537E-05-2.58711E-05-2.88723E-05 3.08076E-06-3.96440E-19 2.85506E-20
 -1      3470 9.31088E-05-2.55887E-05-2.89475E-05 4.24501E-06 8.72048E-20 4.49303E-19
 -1      3471 9.29315E-05-2.53679E-05-2.89505E-05 4.71695E-06 3.88666E-19 8.92323E-20
 -1      3472 9.26021E-05-2.52617E-05-2.88528E-05 3.80820E-06 1.62753E-20 4.75213E-19
 -1      3473 9.25163E-05-2.50895E-05-2.89090E-05 5.21305E-06 8.23567E-19-5.92150E-20
 -1      3474 9.23344E-05-2.49141E-05-2.88875E-05 5.76117E-06 6.41170E-19 5.01167E-19
 -1      3475 9.18344E-05-2.46484E-05-2.87851E-05 4.68334E-06 4.35716E-19 3.66483E-19
 -1      3476 9.18726E-05-2.46893E-05-2.88062E-05 6.35335E-06 1.40929E-19 2.74301E-19
 -1      3477 9.17222E-05-2.46186E-05-2.87487E-05 6.98105E-06-2.57879E-19 2.75202E-19
 -1      3478 9.09594E-05-2.40949E-05-2.86464E-05 5.72954E-06 3.62128E-19-2.47793E-19
 -1      3479 9.12445E-05-2.45164E-05-2.86123E-05 7.69309E-06-6.15851E-19 1.89907E-19
 -1      3480 9.11978E-05-2.46460E-05-2.85064E-05 8.40647E-06-2.41616E-19-1.43844E-20
 -1      3481 9.00147E-05-2.37079E-05-2.84075E-05 6.98768E-06-5.89665E-19-4.93779E-19
 -1      3482 9.07703E-05-2.47755E-05-2.82979E-05 9.27987E-06-4.08978E-20-5.46560E-19
 -1      3483 9.09595E-05-2.52549E-05-2.81334E-05 1.00881E-05 4.29715E-19-6.11108E-19
 -1      3484 8.90881E-05-2.36579E-05-2.80346E-05 8.53183E-06-3.36653E-19-6.17838E-19
 -1      3485 9.07142E-05-2.57845E-05-2.78378E-05 1.11829E-05 9.12012E-19-9.84102E-19
 -1      3486 9.13644E-05-2.68304E-05-2.76145E-05 1.20848E-05 5.59166E-19-1.10767E-18
 -1      3487 8.83611E-05-2.42176E-05-2.74916E-05 1.04879E-05 3.73871E-19-1.22731E-18
 -1      3488 9.15450E-05-2.80073E-05-2.72280E-05 1.34759E-05 5.11280E-19-7.28875E-19
 -1      3489 9.29786E-05-2.99050E-05-2.69716E-05 1.44241E-05 6.34457E-19-3.98163E-19
 -1      3490 8.81721E-05-2.57931E-05-2.67529E-05 1.30349E-05 8.10954E-19-7.04592E-19
 -1      3491 9.40819E-05-3.20677E-05-2.65250E-05 1.60701E-05 5.26231E-19 1.97175E-19
 -1      3492 9.71838E-05-3.52239E-05-2.64325E-05 1.66710E-05 7.07164E-19 6.73722E-20
 -1      3493 8.93011E-05-2.90722E-05-2.58312E-05 1.64186E-05 9.98414E-19 4.69772E-20
 -1      3494 1.07478E-04-4.55924E-05-2.64321E-05-1.91566E-05 1.28093E-18-2.04505E-18
 -1      3495 1.02374E-04-4.09688E-05-2.61785E-05-1.96646E-05 7.15232E-19-1.34005E-18
 -1      3496 9.92482E-05-3.71664E-05-2.65149E-05-1.82806E-05 1.98368E-19-1.19882E-18
 -1      3497 9.62404E-05-3.38419E-05-2.66881E-05-1.77470E-05 3.86591E-20-1.38603E-18
 -1      3498 9.55392E-05-3.71915E-05-2.50621E-05-2.20041E-05 8.97015E-19-1.57651E-18
 -1      3499 9.49796E-05-3.14566E-05-2.71562E-05-1.61729E-05 4.15587E-19-4.97279E-19
 -1      3500 9.33362E-05-2.93044E-05-2.74328E-05-1.53506E-05 7.34665E-20 1.63728E-19
 -1      3501 9.15249E-05-3.08691E-05-2.60463E-05-1.81950E-05 6.04612E-19-4.35726E-20
 -1      3502 9.30442E-05-2.79070E-05-2.78802E-05-1.40175E-05-4.60231E-20-2.23607E-19
 -1      3503 9.22983E-05-2.65853E-05-2.81649E-05-1.31582E-05 1.58054E-19 5.96463E-19
 -1      3504 9.02208E-05-2.71094E-05-2.70632E-05-1.49934E-05-1.98108E-19 1.81206E-18
 -1      3505 9.59298E-05-2.84929E-05-2.89036E-05-8.63049E-07 1.64437E-19-1.03676E-18
 -1      3506 9.59605E-05-2.83111E-05-2.89861E-05-7.05157E-07 3.11563E-19-1.10274E-18
 -1      3507 9.59122E-05-2.73694E-05-2.93829E-05 9.77440E-08 4.93103E-19-8.82430E-19
 -1      3508 9.58949E-05-2.69026E-05-2.95566E-05 5.58987E-07 6.39518E-19-9.24573E-19
 -1      3509 9.54954E-05-2.86976E-05-2.86252E-05-1.09537E-06 1.43103E-19-6.10889E-19
 -1      3510 9.55188E-05-2.87478E-05-2.86170E-05-1.09249E-06 2.62783E-19-4.79967E-19
 -1      3511 9.51905E-05-2.81507E-05-2.87279E-05-1.37860E-06-2.70805E-19 2.70123E-20
 -1      3512 9.52137E-05-2.82531E-05-2.87003E-05-1.28670E-06-1.88616E-19-4.74683E-19
 -1      3513 9.50680E-05-2.78997E-05-2.87827E-05-1.62519E-06 4.07401E-19 1.80972E-19
 -1      3514 9.50934E-05-2.80170E-05-2.87506E-05-1.48772E-06 2.43468E-19 3.06703E-19
 -1      3515 9.50589E-05-2.79887E-05-2.87439E-05-1.40324E-06-3.51855E-19-3.59987E-19
 -1      3516 9.49279E-05-2.76173E-05-2.88431E-05-1.97160E-06 1.64818E-19 5.51101E-19
 -1      3517 9.49558E-05-2.77477E-05-2.88078E-05-1.78212E-06 1.94486E-19 4.98810E-19
 -1      3518 9.48509E-05-2.76753E-05-2.87885E-05-1.66884E-06 2.21681E-19 6.34318E-19
 -1      3519 9.47674E-05-2.73093E-05-2.89058E-05-2.42981E-06 2.98752E-19 1.68580E-19
 -1      3520 9.47971E-05-2.74487E-05-2.88686E-05-2.18297E-06 2.75857E-19 3.55449E-19
 -1      3521 9.46093E-05-2.73235E-05-2.88352E-05-2.03462E-06 2.75286E-19 6.52429E-19
 -1      3522 9.45875E-05-2.69884E-05-2.89657E-05-3.00958E-06 5.16686E-19 5.34041E-19
 -1      3523 9.46160E-05-2.71287E-05-2.89289E-05-2.70168E-06 7.38109E-19 4.05801E-19
 -1      3524 9.43286E-05-2.69401E-05-2.88787E-05-2.51311E-06 4.16575E-19 5.86046E-19
 -1      3525 9.43968E-05-2.66790E-05-2.90159E-05-3.71728E-06-5.57940E-20 7.66661E-19
 -1      3526 9.44167E-05-2.68056E-05-2.89827E-05-3.34718E-06 3.35479E-19 5.76424E-19
 -1      3527 9.40076E-05-2.65405E-05-2.89119E-05-3.11558E-06 3.98192E-19 3.63724E-19
 -1      3528 9.42167E-05-2.64246E-05-2.90468E-05-4.55430E-06-1.13614E-19 5.19958E-19
 -1      3529 9.42135E-05-2.65123E-05-2.90217E-05-4.12466E-06-2.20685E-19 4.76614E-19
 -1      3530 9.36536E-05-2.61540E-05-2.89256E-05-3.85177E-06 1.13493E-19 1.44565E-19
 -1      3531 9.40911E-05-2.62962E-05-2.90465E-05-5.51509E-06 1.62382E-19 4.79094E-19
 -1      3532 9.40378E-05-2.63049E-05-2.90351E-05-5.03401E-06-4.68655E-20 6.05354E-19
 -1      3533 9.32892E-05-2.58318E-05-2.89080E-05-4.72977E-06-1.73680E-19-9.80119E-20
 -1      3534 9.40998E-05-2.64045E-05-2.90016E-05-6.58441E-06 4.43932E-20 4.22525E-19
 -1      3535 9.39498E-05-2.62728E-05-2.90101E-05-6.06777E-06 1.36245E-20 6.18648E-19
 -1      3536 9.29619E-05-2.56563E-05-2.88445E-05-5.75626E-06-9.09338E-20-4.22824E-20
 -1      3537 9.43787E-05-2.69135E-05-2.88997E-05-7.73222E-06 3.22985E-19 7.19251E-19
 -1      3538 9.40558E-05-2.65519E-05-2.89330E-05-7.20763E-06 2.90324E-19 8.45202E-19
 -1      3539 9.27603E-05-2.57549E-05-2.87195E-05-6.93675E-06 8.50194E-20-6.37663E-20
 -1      3540 9.51446E-05-2.80515E-05-2.87361E-05-8.90110E-06 5.65978E-20 1.23369E-19
 -1      3541 9.45322E-05-2.73384E-05-2.87942E-05-8.41611E-06 4.44103E-19 6.12313E-19
 -1      3542 9.28374E-05-2.63159E-05-2.85194E-05-8.27310E-06 5.63986E-19-2.27968E-19
 -1      3543 9.67204E-05-3.01075E-05-2.85262E-05-9.97614E-06-4.18042E-19-2.10093E-19
 -1      3544 9.56556E-05-2.88961E-05-2.85969E-05-9.61515E-06-3.09212E-19-6.81506E-20
 -1      3545 9.34441E-05-2.76038E-05-2.82407E-05-9.75041E-06 7.41404E-20-3.47344E-19
 -1      3546 9.95400E-05-3.33868E-05-2.83292E-05-1.07217E-05-2.10931E-18 4.01322E-19
 -1      3547 9.78271E-05-3.15381E-05-2.83754E-05-1.06372E-05-1.23135E-18 2.05123E-19
 -1      3548 9.49672E-05-2.99610E-05-2.79055E-05-1.12975E-05-1.24163E-18-4.87899E-19
 -1      3549 1.04089E-04-3.80591E-05-2.82866E-05-1.06543E-05-1.20644E-18-1.84473E-19
 -1      3550 1.01567E-04-3.55468E-05-2.82268E-05-1.11195E-05-1.58524E-18 4.20679E-20
 -1      3551 9.79669E-05-3.37768E-05-2.75913E-05-1.26863E-05-1.68103E-18-6.59562E-19
 -1      3552 1.10687E-04-4.37390E-05-2.86856E-05-8.89824E-06-2.13240E-18-3.29775E-19
 -1      3553 1.07390E-04-4.09144E-05-2.83673E-05-1.03337E-05-1.53340E-18-1.46521E-19
 -1      3554 1.03112E-04-3.92975E-05-2.74858E-05-1.33339E-05-1.64180E-18-9.49636E-19
 -1      3555 1.24765E-04-5.08414E-05-3.16425E-05-4.93347E-07-1.18748E-18-6.27598E-20
 -1      3556 9.22206E-05-3.81652E-05-2.32413E-05 2.52758E-05-3.72840E-19-2.26599E-18
 -1      3557 8.18190E-05-3.12688E-05-2.13134E-05 2.57830E-05-6.94818E-19-2.83207E-18
 -1      3558 1.00265E-04-3.39725E-05-2.83594E-05 1.26007E-05 1.43105E-18 1.19468E-19
 -1      3559 1.02392E-04-3.62394E-05-2.83294E-05 1.23508E-05 7.60364E-19-1.59385E-19
 -1      3560 9.73158E-05-3.03951E-05-2.86537E-05 1.19018E-05 1.00268E-18 7.86554E-19
 -1      3561 9.87278E-05-3.20740E-05-2.85453E-05 1.21153E-05 8.66696E-19-2.04722E-19
 -1      3562 9.73968E-05-3.23831E-05-2.79326E-05 1.36898E-05 8.74619E-19 5.27697E-19
 -1      3563 9.56365E-05-2.79085E-05-2.90136E-05 1.07469E-05 1.37324E-18-1.35117E-19
 -1      3564 9.65210E-05-2.91029E-05-2.88781E-05 1.12042E-05 1.47137E-18 5.49996E-19
 -1      3565 9.51638E-05-2.89732E-05-2.84046E-05 1.22588E-05 3.95891E-19 2.37817E-19
 -1      3566 8.77238E-05-2.15585E-05-2.83471E-05 6.92489E-06 1.61052E-18-8.89947E-19
 -1      3567 8.75008E-05-3.63833E-05-2.18046E-05-2.72762E-05 1.78105E-18-8.99311E-19
 -1      3568 9.95531E-05-4.40479E-05-2.37497E-05-2.66431E-05 1.41685E-18-2.37013E-18
 -1      3569 1.23185E-04-5.10212E-05-3.09280E-05 3.48118E-06 1.72207E-19 4.67470E-19
 -1      3570 9.39471E-05-2.12686E-05-3.11578E-05-4.41039E-06-5.07991E-19-2.06157E-18
 -1      3571 5.42354E-05-1.49736E-05-1.67753E-05 1.06028E-05 3.99091E-19-1.04471E-18
 -1      3572 4.91516E-05-1.21788E-05-1.52808E-05 5.43985E-07-4.49472E-19-2.22177E-18
 -1      3573 8.35564E-05-1.93226E-05-2.75313E-05-2.08086E-06 9.24751E-19-1.42565E-18
 -1      3574 8.34328E-05-1.92813E-05-2.75037E-05 1.61905E-07 1.00734E-18-2.08129E-18
 -1      3575 9.58613E-05-2.87318E-05-2.87702E-05-1.03789E-06 2.02697E-19-9.58004E-19
 -1      3576 9.58946E-05-2.86307E-05-2.88231E-05-9.63488E-07 1.63174E-19-1.10204E-18
 -1      3577 9.61610E-05-2.85656E-05-2.89721E-05-8.18810E-07 1.59428E-19-9.92306E-19
 -1      3578 9.49535E-05-2.34576E-05-3.06427E-05-2.96142E-06-4.44887E-19-1.75371E-18
 -1      3579 9.53026E-05-2.45489E-05-3.03347E-05-2.10871E-06-4.17145E-19-1.70740E-18
 -1      3580 1.05088E-04-3.88965E-05-2.82698E-05 1.23912E-05 6.91675E-19 3.11169E-19
 -1      3581 1.08186E-04-4.16204E-05-2.84713E-05 1.11204E-05 1.67885E-18 1.69777E-18
 -1      3582 1.01397E-04-3.71745E-05-2.76117E-05 1.46716E-05 1.29466E-18-6.66181E-19
 -1      3583 5.27782E-05-1.40825E-05-1.65284E-05-1.58743E-06 8.72674E-19 7.48565E-19
 -1      3584 5.36295E-05-1.48026E-05-1.62545E-05-9.35362E-06 1.29702E-18-1.39956E-18
 -1      3585 1.11083E-04-4.51505E-05-2.81440E-05 1.24481E-05 1.47340E-18 1.36665E-18
 -1      3586 1.14901E-04-4.78287E-05-2.87086E-05 1.01970E-05 1.43115E-18 7.88210E-19
 -1      3587 9.50309E-05-3.77521E-05-2.44180E-05 2.16196E-05 9.89983E-19 5.36748E-19
 -1      3588 9.55894E-05-2.88019E-05-2.86212E-05-1.09650E-06 3.69599E-19-4.34441E-19
 -1      3589 9.56151E-05-2.88288E-05-2.86227E-05-1.10265E-06 6.09572E-19-2.21515E-19
 -1      3590 9.56952E-05-2.88182E-05-2.86630E-05-1.05268E-06 5.38775E-19-6.02423E-19
 -1      3591 9.22677E-05-1.81343E-05-3.17832E-05-1.01102E-06 5.35730E-19-1.91820E-18
 -1      3592 9.23776E-05-1.83234E-05-3.17522E-05-1.76686E-06 3.73850E-19-2.05571E-18
 -1      3593 9.33588E-05-1.99921E-05-3.14270E-05-1.75972E-06 2.34071E-19-1.95326E-18
 -1      3594 9.59596E-05-2.80666E-05-2.91014E-05-5.11717E-07 5.49921E-19-1.02006E-18
 -1      3595 9.59770E-05-2.77685E-05-2.92234E-05-2.27457E-07 5.41842E-19-9.39753E-19
 -1      3596 9.61241E-05-2.73965E-05-2.94561E-05 4.25814E-08 6.82277E-19-9.20947E-19
 -1      3597 9.61920E-05-2.81240E-05-2.91744E-05-5.02355E-07 4.28319E-19-1.09278E-18
 -1      3598 9.52995E-05-2.83683E-05-2.86817E-05-1.21832E-06-7.32774E-20-3.29475E-19
 -1      3599 9.53216E-05-2.84549E-05-2.86594E-05-1.16473E-06-1.35222E-19-4.53003E-19
 -1      3600 9.52404E-05-2.82614E-05-2.87054E-05-1.22431E-06-1.59437E-19-7.02585E-19
 -1      3601 9.37289E-05-4.21909E-05-2.19052E-05-2.86046E-05-1.42180E-18-2.22365E-18
 -1      3602 1.05218E-04-4.89818E-05-2.40362E-05-2.60356E-05-6.39510E-19-1.73652E-18
 -1      3603 9.53998E-05-2.85514E-05-2.86466E-05-1.12948E-06 3.53475E-20-3.77589E-19
 -1      3604 9.54219E-05-2.86209E-05-2.86306E-05-1.10600E-06 1.10529E-19-6.73227E-19
 -1      3605 9.55530E-05-2.86795E-05-2.86610E-05-1.06642E-06 2.77297E-19-4.52094E-19
 -1      3606 9.54030E-05-2.84922E-05-2.86765E-05-1.11742E-06-2.16073E-19-4.51306E-19
 -1      3607 1.08431E-04-4.81470E-05-2.56945E-05-2.18657E-05 1.85762E-18-2.36241E-18
 -1      3608 9.33013E-05-2.49168E-05-2.93246E-05 9.16644E-06 5.18779E-19-6.85219E-19
 -1      3609 9.42793E-05-2.56514E-05-2.94039E-05 9.17589E-06-9.74195E-19-6.40841E-19
 -1      3610 9.46772E-05-2.62765E-05-2.93058E-05 9.64242E-06-4.77253E-19-3.52893E-19
 -1      3611 9.26094E-05-2.50074E-05-2.89811E-05 9.76841E-06 6.93771E-19 3.23581E-20
 -1      3612 9.56898E-05-2.55176E-05-3.00655E-05-1.50428E-06-3.37778E-19-1.55753E-18
 -1      3613 9.58461E-05-2.62610E-05-2.98327E-05-8.81253E-07-1.95580E-19-1.49051E-18
 -1      3614 9.54205E-05-2.45721E-05-3.03587E-05-1.76312E-06-2.44707E-19-1.50205E-18
 -1      3615 1.20110E-04-5.04127E-05-2.96896E-05 7.08615E-06 7.24796E-19 3.35531E-19
 -1      3616 8.78897E-05-3.34820E-05-2.33179E-05 2.29482E-05 9.33394E-19 4.73670E-19
 -1      3617 9.49321E-05-2.35048E-05-3.06248E-05 3.05484E-06 1.21123E-18-1.24225E-18
 -1      3618 9.46781E-05-2.28232E-05-3.07941E-05 2.82385E-06 1.28104E-18-1.25169E-18
 -1      3619 9.60056E-05-2.62902E-05-2.98767E-05-7.16313E-07-1.30264E-19-1.24469E-18
 -1      3620 9.53239E-05-2.47814E-05-3.02363E-05 2.76573E-06 1.09976E-18-1.05395E-18
 -1      3621 9.50676E-05-2.39341E-05-3.04796E-05 2.99664E-06 1.18435E-18-1.14641E-18
 -1      3622 9.53511E-05-2.46357E-05-3.02995E-05 2.19264E-06 9.90891E-19-1.22214E-18
 -1      3623 9.54777E-05-2.54828E-05-3.00013E-05 1.98420E-06 9.73276E-19-1.09270E-18
 -1      3624 1.11963E-04-5.06911E-05-2.61967E-05-1.93462E-05-1.36923E-18-1.90852E-18
 -1      3625 8.42346E-05-1.98291E-05-2.76406E-05-4.64247E-06 7.61284E-19-1.39135E-19
 -1      3626 8.25650E-05-1.94635E-05-2.70112E-05-3.68844E-06 8.72878E-19-7.17986E-19
 -1      3627 8.52840E-05-2.04034E-05-2.77642E-05-6.61582E-06 2.56143E-19-8.55048E-19
 -1      3628 5.39546E-05-1.40622E-05-1.67876E-05-5.49966E-06-8.51194E-19-1.94066E-18
 -1      3629 6.24804E-05-2.23928E-05-1.68211E-05-2.32231E-05-1.55235E-18-9.32583E-19
 -1      3630 5.85883E-05-1.73209E-05-1.76509E-05 1.42185E-05-1.67149E-18-8.23687E-19
 -1      3631 5.48645E-05-1.45091E-05-1.69922E-05 6.19706E-06-2.30128E-19 5.17114E-19
 -1      3632 9.27854E-05-2.61734E-05-2.85294E-05-1.23306E-05-1.05870E-19 5.35705E-19
 -1      3633 9.26161E-05-2.54858E-05-2.87696E-05-1.15968E-05 8.03356E-20 8.92497E-19
 -1      3634 9.15104E-05-2.47027E-05-2.86236E-05-1.13286E-05 3.68567E-19 1.56473E-18
 -1      3635 9.05704E-05-2.53494E-05-2.79357E-05-1.27745E-05 6.51145E-19 2.04907E-18
 -1      3636 9.58759E-05-2.62550E-05-2.98366E-05 8.92627E-07 6.50544E-19-1.03912E-18
 -1      3637 9.57153E-05-2.62651E-05-2.97725E-05 1.07208E-06 7.82420E-19-9.26622E-19
 -1      3638 8.19860E-05-2.81583E-05-2.31115E-05 2.01549E-05 1.41167E-18-2.27706E-20
 -1      3639 9.44646E-05-2.23127E-05-3.09113E-05-3.44056E-06-3.78605E-19-1.92620E-18
 -1      3640 1.22352E-04-5.27302E-05-2.98933E-05-7.82355E-06-1.77310E-18-1.68517E-18
 -1      3641 1.19105E-04-4.92032E-05-2.99881E-05-4.52937E-06-2.15084E-18-2.20627E-19
 -1      3642 1.15669E-04-4.73620E-05-2.91530E-05-7.41788E-06-2.56778E-18-7.18268E-19
 -1      3643 1.11311E-04-4.64995E-05-2.79167E-05-1.25083E-05-1.81885E-18-7.12871E-19
 -1      3644 9.86936E-05-4.10132E-05-2.45334E-05 2.33424E-05 9.42953E-19-1.13032E-18
 -1      3645 9.33569E-05-3.61428E-05-2.44556E-05 2.19637E-05 4.66785E-19-4.40960E-19
 -1      3646 1.03754E-04-4.29696E-05-2.60221E-05 1.93071E-05 1.67164E-18-4.81724E-19
 -1      3647 5.91767E-05-1.51703E-05-1.86421E-05 1.55448E-06 2.20665E-19-2.89818E-19
 -1      3648 6.07182E-05-1.78004E-05-1.81458E-05-1.36868E-05 1.16024E-18-1.76792E-18
 -1      3649 8.10253E-05-3.36868E-05-2.01702E-05-2.83662E-05-1.58056E-18-1.59038E-18
 -1      3650 8.83684E-05-3.88413E-05-2.10369E-05-2.94537E-05-1.86114E-18-2.35323E-18
 -1      3651 9.59729E-05-4.12198E-05-2.33226E-05-2.51026E-05-1.74767E-18-2.71523E-18
 -1      3652 9.38920E-05-2.10544E-05-3.12279E-05 8.10051E-07 8.15077E-19-1.49924E-18
 -1      3653 9.38434E-05-2.09547E-05-3.12474E-05 2.48165E-07 6.56843E-19-1.65882E-18
 -1      3654 9.52148E-05-2.69761E-05-2.92363E-05 9.98907E-06 4.18123E-19 1.74447E-19
 -1      3655 7.87928E-05-3.00341E-05-2.06882E-05-2.61572E-05 1.38453E-18-2.57366E-19
 -1      3656 9.02251E-05-3.50479E-05-2.34983E-05-2.38078E-05 1.22730E-18-1.79183E-18
 -1      3657 8.72880E-05-3.12658E-05-2.40184E-05-2.14215E-05 1.11940E-18-1.62120E-18
 -1      3658 7.30261E-05-2.54085E-05-2.03949E-05-2.24205E-05 1.53472E-19-1.53337E-18
 -1      3659 8.38489E-05-1.96629E-05-2.75400E-05 2.80707E-06 3.13478E-19-1.47965E-18
 -1      3660 8.46754E-05-2.02005E-05-2.76127E-05 4.90194E-06 1.31310E-18-1.09264E-18
 -1      3661 8.22375E-05-1.93173E-05-2.69316E-05 1.76696E-06 3.64496E-19-1.22214E-18
 -1      3662 6.13336E-05-1.73923E-05-1.84815E-05 1.50985E-05 1.22148E-18-7.94517E-19
 -1      3663 5.99222E-05-1.53329E-05-1.90893E-05 8.48162E-06 1.19868E-18-7.68418E-19
 -1      3664 6.91014E-05-2.08413E-05-2.05517E-05 1.67721E-05 1.39181E-18 3.73197E-19
 -1      3665 9.58070E-05-2.87955E-05-2.87167E-05-1.07842E-06 3.03260E-19-7.58399E-19
 -1      3666 9.60751E-05-2.88058E-05-2.88322E-05-9.78509E-07 1.27321E-19-9.84622E-19
 -1      3667 9.57754E-05-2.88397E-05-2.86860E-05-1.10271E-06 4.11896E-19-6.33394E-19
 -1      3668 9.45032E-05-2.23877E-05-3.08988E-05-2.85808E-06-1.87924E-19-1.71606E-18
 -1      3669 9.56060E-05-2.56890E-05-2.99578E-05 1.65935E-06 8.62235E-19-1.02933E-18
 -1      3670 9.39765E-05-2.12250E-05-3.11865E-05 1.25167E-06 9.05961E-19-1.48521E-18
 -1      3671 9.46368E-05-2.23899E-05-3.09453E-05 8.32744E-07 8.04136E-19-1.36121E-18
 -1      3672 9.41125E-05-2.15187E-05-3.11269E-05 1.76945E-06 1.02989E-18-1.31259E-18
 -1      3673 9.40757E-05-2.66369E-05-2.89006E-05 1.06828E-05 8.19603E-19 4.37627E-19
 -1      3674 9.41063E-05-2.14931E-05-3.11206E-05-2.08779E-06 1.06747E-19-1.85976E-18
 -1      3675 9.43125E-05-2.19611E-05-3.10194E-05-2.52187E-06-5.99856E-20-1.82314E-18
 -1      3676 9.48187E-05-2.30362E-05-3.07620E-05-2.10577E-06-5.70998E-20-1.65743E-18
 -1      3677 9.56831E-05-2.88547E-05-2.86393E-05-1.10907E-06 4.39652E-19-1.82504E-19
 -1      3678 9.57117E-05-2.88514E-05-2.86534E-05-1.10960E-06 4.67764E-19-4.45337E-19
 -1      3679 9.58316E-05-2.88984E-05-2.86874E-05-1.05369E-06 6.20597E-19-4.28585E-19
 -1      3680 8.60296E-05-2.13091E-05-2.77808E-05 7.01580E-06 2.25676E-18 9.89273E-19
 -1      3681 8.75290E-05-2.22795E-05-2.79356E-05 8.51603E-06 1.87595E-18-8.94892E-19
 -1      3682 8.42489E-05-2.08393E-05-2.71604E-05 6.69992E-06 1.18632E-18-9.22547E-19
 -1      3683 8.90691E-05-2.34267E-05-2.81706E-05 9.52009E-06 1.37410E-18-3.88358E-19
 -1      3684 9.05583E-05-2.43443E-05-2.83473E-05 1.02174E-05 6.81534E-19-1.86146E-19
 -1      3685 8.76062E-05-2.31803E-05-2.76090E-05 9.80823E-06 1.19902E-18-3.99917E-19
 -1      3686 7.16984E-05-2.57177E-05-1.98020E-05 2.34514E-05-4.86951E-19-2.17346E-18
 -1      3687 6.42991E-05-2.05565E-05-1.84167E-05 1.91927E-05-1.17604E-18-2.03267E-18
 -1      3688 6.55803E-05-1.89813E-05-1.97876E-05 1.41086E-05-1.36515E-18-2.91115E-19
 -1      3689 9.31637E-05-1.96222E-05-3.15010E-05-5.87276E-07 5.12286E-19-1.76254E-18
 -1      3690 7.89458E-05-2.76827E-05-2.18420E-05 2.18083E-05-7.54428E-19-2.80351E-18
 -1      3691 9.03802E-05-2.39087E-05-2.85068E-05-1.08077E-05 3.70770E-19 7.49631E-20
 -1      3692 8.92217E-05-2.38386E-05-2.80436E-05-1.12717E-05 4.18875E-19 1.25295E-18
 -1      3693 8.88335E-05-2.27712E-05-2.82732E-05-1.00003E-05-5.18419E-19 9.45243E-19
 -1      3694 8.71271E-05-2.17555E-05-2.80651E-05-8.74114E-06 1.70668E-19-3.88950E-19
 -1      3695 8.86653E-05-2.41148E-05-2.76618E-05-1.19371E-05-4.60776E-19 2.19218E-18
 -1      3696 9.59382E-05-2.57184E-05-3.00915E-05-9.09518E-07-8.76518E-20-1.31259E-18
 -1      3697 9.61444E-05-2.64494E-05-2.98770E-05-4.64846E-07-1.50650E-20-1.26631E-18
 -1      3698 9.44834E-05-2.23478E-05-3.09338E-05 2.56346E-06 1.26866E-18-1.13817E-18
 -1      3699 9.42725E-05-2.18523E-05-3.10409E-05 2.14097E-06 1.01484E-18-1.09620E-18
 -1      3700 9.48325E-05-2.28851E-05-3.08166E-05 1.55885E-06 8.60499E-19-1.07071E-18
 -1      3701 9.65294E-05-2.79862E-05-2.93710E-05 3.07821E-07-8.25116E-20-1.07918E-18
 -1      3702 9.65381E-05-2.82981E-05-2.92492E-05 4.96637E-07-2.28289E-19-7.98841E-19
 -1      3703 9.65404E-05-2.85461E-05-2.91369E-05 6.04668E-07-2.02086E-19-5.89912E-19
 -1      3704 9.65038E-05-2.87266E-05-2.90490E-05 7.11562E-07-1.34897E-19-6.03183E-19
 -1      3705 9.66725E-05-2.83729E-05-2.92716E-05 4.49916E-07-9.42763E-20-7.03875E-19
 -1      3706 9.64524E-05-2.88563E-05-2.89673E-05 7.65934E-07-1.87396E-19-4.31662E-19
 -1      3707 9.63901E-05-2.89420E-05-2.89066E-05 8.18751E-07-1.64923E-19-4.08760E-19
 -1      3708 9.66231E-05-2.87867E-05-2.90739E-05 6.26238E-07-1.47682E-19-4.38123E-19
 -1      3709 9.63056E-05-2.89864E-05-2.88497E-05 8.39822E-07-2.51682E-19-4.89884E-19
 -1      3710 9.62290E-05-2.90032E-05-2.88104E-05 8.61498E-07-1.78338E-19-4.56719E-19
 -1      3711 9.64882E-05-2.89838E-05-2.89319E-05 7.15392E-07-2.66586E-19-5.03513E-19
 -1      3712 9.61242E-05-2.89853E-05-2.87733E-05 8.66133E-07-1.06812E-19-3.50854E-19
 -1      3713 9.60395E-05-2.89513E-05-2.87508E-05 8.74897E-07-1.98844E-19-4.50419E-19
 -1      3714 9.63005E-05-2.90224E-05-2.88350E-05 7.53424E-07-2.27982E-19-3.53703E-19
 -1      3715 9.59213E-05-2.88868E-05-2.87294E-05 8.76340E-07-4.63243E-19-6.17347E-19
 -1      3716 9.58308E-05-2.88136E-05-2.87200E-05 8.86325E-07-8.26880E-19-4.26983E-19
 -1      3717 9.60797E-05-2.89432E-05-2.87739E-05 7.69831E-07-3.86170E-19-5.29930E-19
 -1      3718 9.57010E-05-2.87120E-05-2.87106E-05 8.95022E-07-1.14372E-18-1.87805E-19
 -1      3719 9.56039E-05-2.86065E-05-2.87113E-05 9.17494E-07-9.03995E-19-2.09236E-19
 -1      3720 9.58341E-05-2.87735E-05-2.87410E-05 7.87639E-07-8.21750E-19-1.17300E-19
 -1      3721 9.54609E-05-2.84727E-05-2.87111E-05 9.41947E-07-6.46212E-19-3.31014E-19
 -1      3722 9.53546E-05-2.83381E-05-2.87194E-05 9.86062E-07-4.95839E-19-6.00210E-19
 -1      3723 9.55641E-05-2.85290E-05-2.87294E-05 8.25437E-07-7.45950E-19 1.57103E-19
 -1      3724 9.51939E-05-2.81738E-05-2.87256E-05 1.03331E-06-3.54134E-19-5.93815E-19
 -1      3725 9.50736E-05-2.80108E-05-2.87393E-05 1.10674E-06-3.83694E-19-3.16036E-19
 -1      3726 9.52636E-05-2.82172E-05-2.87335E-05 8.98372E-07-4.23513E-19 1.12919E-19
 -1      3727 9.48883E-05-2.78151E-05-2.87492E-05 1.18282E-06-1.38902E-19 5.64355E-20
 -1      3728 9.47478E-05-2.76225E-05-2.87661E-05 1.29236E-06-3.16900E-20 1.38938E-19
 -1      3729 9.49212E-05-2.78396E-05-2.87477E-05 1.01890E-06-1.05707E-20 4.93331E-19
 -1      3730 9.45287E-05-2.73932E-05-2.87769E-05 1.40288E-06-8.10755E-20-9.65254E-20
 -1      3731 9.43606E-05-2.71695E-05-2.87944E-05 1.55467E-06-6.91891E-20 1.65203E-19
 -1      3732 9.45211E-05-2.73936E-05-2.87662E-05 1.19800E-06-9.60545E-20 8.78467E-19
 -1      3733 9.40973E-05-2.69042E-05-2.88027E-05 1.70484E-06-8.52378E-20 2.79434E-19
 -1      3734 9.38933E-05-2.66480E-05-2.88177E-05 1.90447E-06-2.96791E-20 4.03557E-19
 -1      3735 9.40439E-05-2.68748E-05-2.87827E-05 1.44563E-06 2.52153E-19 4.23414E-19
 -1      3736 9.35737E-05-2.63453E-05-2.88192E-05 2.09934E-06-1.21246E-19 7.85699E-19
 -1      3737 9.33250E-05-2.60575E-05-2.88274E-05 2.35201E-06-5.07105E-19 8.84617E-19
 -1      3738 9.34672E-05-2.62797E-05-2.87891E-05 1.77083E-06-2.72817E-19 6.18224E-19
 -1      3739 9.29364E-05-2.57184E-05-2.88163E-05 2.59681E-06-5.84874E-19 9.43961E-19
 -1      3740 9.26349E-05-2.54037E-05-2.88119E-05 2.90756E-06-1.80827E-19 8.61703E-19
 -1      3741 9.27666E-05-2.56078E-05-2.87749E-05 2.18242E-06-3.97242E-19 1.23175E-18
 -1      3742 9.21643E-05-2.50341E-05-2.87805E-05 3.20846E-06-9.51566E-20 8.01693E-19
 -1      3743 9.18041E-05-2.47037E-05-2.87558E-05 3.58296E-06 4.13738E-20 7.47347E-19
 -1      3744 9.19163E-05-2.48659E-05-2.87264E-05 2.69006E-06-1.22252E-19 1.70038E-18
 -1      3745 9.12392E-05-2.43169E-05-2.86937E-05 3.94876E-06 3.72688E-19 4.76426E-19
 -1      3746 9.08201E-05-2.39925E-05-2.86384E-05 4.39516E-06 5.91452E-19 4.29660E-19
 -1      3747 9.08909E-05-2.40715E-05-2.86249E-05 3.30664E-06 8.72938E-20 1.07381E-18
 -1      3748 9.01503E-05-2.36124E-05-2.85320E-05 4.84080E-06 3.20674E-19 9.10048E-20
 -1      3749 8.96822E-05-2.33312E-05-2.84325E-05 5.37349E-06-4.43987E-20-1.45311E-20
 -1      3750 8.96673E-05-2.32584E-05-2.84461E-05 4.05368E-06-1.60687E-20 5.06774E-19
 -1      3751 8.89012E-05-2.29978E-05-2.82642E-05 5.92634E-06-6.39305E-20-3.24102E-19
 -1      3752 8.84129E-05-2.28200E-05-2.81041E-05 6.57247E-06-4.91975E-19-5.80679E-20
 -1      3753 8.82272E-05-2.24836E-05-2.81579E-05 4.97147E-06-4.52852E-20-1.95060E-19
 -1      3754 8.75209E-05-2.25952E-05-2.78511E-05 7.28237E-06-4.84825E-19-1.12182E-19
 -1      3755 8.70747E-05-2.26141E-05-2.76112E-05 8.09153E-06 2.66384E-19 6.28118E-20
 -1      3756 8.65622E-05-2.18363E-05-2.77184E-05 6.13638E-06-3.40270E-19 6.46190E-19
 -1      3757 8.60825E-05-2.25914E-05-2.72443E-05 9.05427E-06 3.50667E-20-1.46165E-19
 -1      3758 8.58066E-05-2.29638E-05-2.69048E-05 1.01116E-05 3.62641E-19-1.96371E-19
 -1      3759 8.46760E-05-2.14444E-05-2.70740E-05 7.68993E-06 5.96188E-20 5.42647E-19
 -1      3760 8.47632E-05-2.32923E-05-2.63892E-05 1.14684E-05 8.09708E-19-5.19181E-19
 -1      3761 8.48734E-05-2.42341E-05-2.59394E-05 1.29005E-05 9.85877E-19-4.44940E-21
 -1      3762 8.26099E-05-2.15179E-05-2.61532E-05 9.90206E-06 4.14110E-19 9.29131E-20
 -1      3763 8.38505E-05-2.51206E-05-2.52294E-05 1.48785E-05 1.11550E-18-4.38204E-19
 -1      3764 8.48882E-05-2.70583E-05-2.47090E-05 1.69221E-05 1.40393E-18-1.30923E-19
 -1      3765 8.05215E-05-2.24046E-05-2.48671E-05 1.31667E-05 9.57349E-19-3.64062E-19
 -1      3766 9.51160E-05-2.37114E-05-3.05876E-05 2.08107E-06 9.99226E-19-1.16656E-18
 -1      3767 9.38424E-05-2.09510E-05-3.12481E-05-2.14846E-07 6.22185E-19-1.68247E-18
 -1      3768 9.38845E-05-2.10386E-05-3.12295E-05-7.74114E-07 4.39526E-19-1.57994E-18
 -1      3769 9.45624E-05-2.22175E-05-3.09878E-05 1.42519E-08 6.10838E-19-1.56530E-18
 -1      3770 8.76225E-05-2.90939E-05-2.49711E-05-1.86699E-05 1.81534E-18-1.82420E-18
 -1      3771 8.64308E-05-2.68999E-05-2.55507E-05-1.68003E-05 9.52092E-19-8.53976E-19
 -1      3772 8.19534E-05-2.70651E-05-2.34920E-05-2.00780E-05 1.81800E-18-1.78574E-18
 -1      3773 8.73139E-05-2.57779E-05-2.63155E-05-1.48025E-05 3.06482E-19-7.38403E-20
 -1      3774 8.70745E-05-2.45376E-05-2.68424E-05-1.34126E-05-2.61746E-19 8.21864E-19
 -1      3775 8.32478E-05-2.41202E-05-2.53175E-05-1.51205E-05 1.28936E-18-2.18145E-18
 -1      3776 7.65536E-05-2.39116E-05-2.24620E-05 1.81961E-05 1.34868E-18-8.07196E-20
 -1      3777 5.71094E-05-1.39799E-05-1.84955E-05-2.05136E-06-5.09179E-19-1.68631E-18
 -1      3778 5.76487E-05-1.51293E-05-1.79208E-05-1.13665E-05-9.69575E-19-2.08108E-18
 -1      3779 9.38936E-05-2.10678E-05-3.12189E-05-1.17856E-06 3.77689E-19-1.66612E-18
 -1      3780 9.40238E-05-2.13386E-05-3.11624E-05-1.69580E-06 1.78564E-19-1.83627E-18
 -1      3781 9.46174E-05-2.24368E-05-3.09231E-05-1.48591E-06 2.01531E-19-1.70181E-18
 -1      3782 9.45707E-05-2.22524E-05-3.09755E-05-7.64304E-07 3.52475E-19-1.49652E-18
 -1      3783 9.49282E-05-2.78247E-05-2.87560E-05-1.35839E-06-5.16753E-19-7.20084E-19
 -1      3784 9.50263E-05-2.79829E-05-2.87362E-05-1.25010E-06-5.45527E-19-6.56201E-19
 -1      3785 9.39073E-05-2.65782E-05-2.88520E-05-2.47231E-06 3.59168E-19 3.26513E-19
 -1      3786 9.40602E-05-2.67936E-05-2.88348E-05-2.21121E-06 2.43924E-19 3.80419E-19
 -1      3787 9.34512E-05-2.60998E-05-2.88610E-05-3.06986E-06 4.57674E-19 2.54210E-19
 -1      3788 9.36237E-05-2.63198E-05-2.88518E-05-2.74672E-06 7.16044E-19 4.44088E-19
 -1      3789 9.33848E-05-2.61564E-05-2.88075E-05-2.42111E-06 6.18770E-19 1.60152E-19
 -1      3790 9.29389E-05-2.56307E-05-2.88416E-05-3.80151E-06-4.93753E-20 2.13581E-19
 -1      3791 9.31242E-05-2.58365E-05-2.88460E-05-3.41169E-06 3.10912E-19 3.96208E-19
 -1      3792 9.27777E-05-2.55970E-05-2.87861E-05-3.01506E-06 4.71735E-19 3.76164E-19
 -1      3793 9.23914E-05-2.52249E-05-2.87794E-05-4.68158E-06-4.77533E-19 3.13306E-19
 -1      3794 9.25728E-05-2.53851E-05-2.88043E-05-4.22065E-06-1.95852E-19 5.04318E-20
 -1      3795 9.20871E-05-2.50461E-05-2.87255E-05-3.74884E-06-1.29664E-19 4.91440E-19
 -1      3796 9.18560E-05-2.49687E-05-2.86571E-05-5.72851E-06-2.27762E-19 2.16158E-19
 -1      3797 9.20004E-05-2.50335E-05-2.87106E-05-5.19150E-06-3.95060E-19 3.30635E-19
 -1      3798 9.13297E-05-2.45613E-05-2.86084E-05-4.64716E-06-4.62984E-19 6.86263E-19
 -1      3799 9.14221E-05-2.49942E-05-2.84557E-05-6.96849E-06 4.62300E-19 2.04120E-19
 -1      3800 9.14702E-05-2.48883E-05-2.85462E-05-6.34909E-06 3.08695E-19 1.46974E-19
 -1      3801 9.05466E-05-2.42337E-05-2.84140E-05-5.74681E-06-4.00636E-20 4.58213E-19
 -1      3802 9.12468E-05-2.54967E-05-2.81577E-05-8.43843E-06 6.48219E-19-5.70051E-19
 -1      3803 9.10980E-05-2.51094E-05-2.82914E-05-7.72976E-06 7.15265E-19-1.11632E-20
 -1      3804 8.98187E-05-2.42006E-05-2.81190E-05-7.10524E-06 7.47082E-19 7.06764E-21
 -1      3805 9.15937E-05-2.67567E-05-2.77554E-05-1.01782E-05-2.51656E-19-6.52138E-19
 -1      3806 9.10864E-05-2.59312E-05-2.79311E-05-9.38104E-06 2.25858E-19-3.63766E-19
 -1      3807 8.92941E-05-2.46680E-05-2.77005E-05-8.80978E-06 2.66497E-19-3.33391E-19
 -1      3808 9.28866E-05-2.91533E-05-2.72667E-05-1.21911E-05-1.39115E-18-1.01443E-18
 -1      3809 9.17747E-05-2.76842E-05-2.74655E-05-1.13409E-05-7.11855E-19-6.32740E-19
 -1      3810 8.92366E-05-2.59409E-05-2.71438E-05-1.09724E-05-3.82131E-19-4.40798E-19
 -1      3811 9.57480E-05-3.31652E-05-2.67666E-05-1.43709E-05-1.45693E-18-1.70706E-18
 -1      3812 9.37032E-05-3.07990E-05-2.69337E-05-1.35891E-05-1.52283E-18-1.30763E-18
 -1      3813 9.00797E-05-2.84399E-05-2.64601E-05-1.36968E-05-1.35157E-18-1.32410E-18
 -1      3814 1.01164E-04-3.92082E-05-2.64770E-05-1.60972E-05-1.90034E-18-6.95700E-19
 -1      3815 9.77534E-05-3.57761E-05-2.64624E-05-1.57875E-05-1.89317E-18-1.33837E-18
 -1      3816 9.26835E-05-3.28980E-05-2.57206E-05-1.69950E-05-1.95548E-18-1.31392E-18
 -1      3817 9.28739E-05-2.70488E-05-2.81794E-05 1.19676E-05 3.87878E-19-7.61853E-19
 -1      3818 9.35980E-05-2.83997E-05-2.79033E-05 1.27607E-05 5.87094E-19-1.58577E-20
 -1      3819 6.32913E-05-1.59260E-05-2.03806E-05 3.99302E-06-2.81732E-19-1.05260E-18
 -1      3820 6.25130E-05-1.53500E-05-2.00004E-05-3.37610E-06 1.05380E-18-1.88989E-18
 -1      3821 9.39683E-05-2.97610E-05-2.74989E-05 1.40476E-05 1.04741E-18 5.45385E-19
 -1      3822 9.54964E-05-3.18232E-05-2.72451E-05 1.48809E-05 1.21589E-18 1.21907E-18
 -1      3823 9.12180E-05-2.77194E-05-2.72370E-05 1.37793E-05 8.00230E-19 6.61976E-20
 -1      3824 9.52580E-05-2.39896E-05-3.05446E-05-1.76479E-06 1.14458E-20-1.61514E-18
 -1      3825 9.56393E-05-2.50107E-05-3.02764E-05-1.18011E-06-1.32529E-20-1.40294E-18
 -1      3826 9.57833E-05-2.51425E-05-3.02696E-05-9.11130E-07 6.14410E-20-1.54422E-18
 -1      3827 9.51005E-05-2.35465E-05-3.06636E-05-1.51279E-06 1.25485E-19-1.72494E-18
 -1      3828 1.06626E-04-4.36027E-05-2.70589E-05 1.66058E-05 2.23189E-18 1.12364E-19
 -1      3829 9.60259E-05-2.63865E-05-2.98540E-05 6.24028E-07 6.27702E-19-1.20530E-18
 -1      3830 9.58213E-05-2.56278E-05-3.00728E-05 1.12373E-06 5.42570E-19-1.28218E-18
 -1      3831 9.63556E-05-2.86594E-05-2.90145E-05-7.74710E-07 1.67245E-19-9.91814E-19
 -1      3832 9.63891E-05-2.84759E-05-2.91013E-05-6.52128E-07 1.89193E-19-9.05843E-19
 -1      3833 9.29137E-05-2.59601E-05-2.87072E-05 1.06215E-05 3.75320E-19-8.58138E-20
 -1      3834 6.20205E-05-1.95641E-05-1.81770E-05-1.88239E-05-1.00563E-18-1.46362E-18
 -1      3835 7.08251E-05-2.63737E-05-1.88772E-05-2.57713E-05-1.11708E-18-1.19657E-18
 -1      3836 6.27410E-05-1.70096E-05-1.96703E-05-1.03290E-05 2.24074E-18-9.51906E-19
 -1      3837 6.66280E-05-2.02027E-05-1.96742E-05-1.75794E-05 7.99381E-19-1.05347E-18
 -1      3838 9.57841E-05-2.88253E-05-2.86948E-05-9.68197E-07 4.42976E-19-4.78486E-19
 -1      3839 9.58550E-05-2.88832E-05-2.87024E-05-9.62490E-07 5.92667E-19-5.27843E-19
 -1      3840 9.43023E-05-2.70346E-05-2.88260E-05-1.99615E-06 2.38691E-19 2.68492E-19
 -1      3841 9.44345E-05-2.72349E-05-2.88050E-05-1.79191E-06 4.65092E-19 2.92260E-19
 -1      3842 9.39068E-05-2.66898E-05-2.88036E-05-1.94878E-06 5.83707E-20 1.56901E-19
 -1      3843 9.46398E-05-2.74525E-05-2.87917E-05-1.62903E-06-5.19426E-20 1.45172E-19
 -1      3844 9.47532E-05-2.76327E-05-2.87701E-05-1.47591E-06-3.32002E-19-4.89609E-19
 -1      3845 9.47276E-05-2.76152E-05-2.87607E-05-1.31049E-06-7.23613E-19-9.16836E-19
 -1      3846 9.51777E-05-2.81492E-05-2.87240E-05-1.17127E-06-2.65913E-19-2.55597E-19
 -1      3847 9.52643E-05-2.82847E-05-2.87081E-05-1.10100E-06-9.46748E-20-1.99230E-19
 -1      3848 9.50510E-05-2.79964E-05-2.87367E-05-1.11804E-06-4.20849E-19-7.48704E-20
 -1      3849 9.63598E-05-2.70851E-05-2.96838E-05-1.78957E-07-1.97489E-23-1.27839E-18
 -1      3850 9.64438E-05-2.75769E-05-2.95203E-05 1.21875E-07-4.68755E-20-1.17922E-18
 -1      3851 9.62936E-05-2.65577E-05-2.98832E-05-3.35352E-07-1.45149E-20-1.44589E-18
 -1      3852 8.36449E-05-2.91194E-05-2.35122E-05 2.04979E-05 8.37884E-20-1.92429E-18
 -1      3853 7.60868E-05-2.35872E-05-2.22574E-05 1.80284E-05-7.06412E-19-2.74609E-18
 -1      3854 7.01155E-05-2.04580E-05-2.13989E-05 1.47683E-05-7.72924E-19-1.04953E-18
 -1      3855 6.62448E-05-1.73633E-05-2.07654E-05 9.75332E-06-8.37881E-19 1.34493E-19
 -1      3856 6.87087E-05-1.72439E-05-2.19423E-05 5.21297E-06-3.81479E-19-1.23898E-18
 -1      3857 7.60443E-05-2.19982E-05-2.30845E-05 1.43214E-05-4.44222E-19-1.57699E-18
 -1      3858 1.01360E-04-3.93304E-05-2.65723E-05 1.74385E-05 2.15568E-18 6.06926E-19
 -1      3859 9.65860E-05-2.76639E-05-2.95372E-05 1.43589E-07 7.18599E-20-1.15887E-18
 -1      3860 8.52319E-05-2.12370E-05-2.74503E-05-8.50639E-06 7.26849E-19-9.80973E-19
 -1      3861 9.99906E-05-3.74494E-05-2.67551E-05 1.67712E-05 1.26511E-18 8.69555E-19
 -1      3862 9.68077E-05-3.69246E-05-2.58059E-05 1.93045E-05 1.02475E-18 9.56740E-19
 -1      3863 9.20373E-05-3.39836E-05-2.46974E-05 2.07987E-05 7.18125E-20 2.88319E-19
 -1      3864 9.74007E-05-3.45398E-05-2.68911E-05 1.61446E-05 4.41186E-19 5.93132E-19
 -1      3865 6.51210E-05-1.85882E-05-1.96954E-05-1.45133E-05-3.16833E-19-1.71977E-18
 -1      3866 9.50772E-05-2.33298E-05-3.07578E-05 1.97790E-07 6.34721E-19-1.30229E-18
 -1      3867 9.50758E-05-2.33253E-05-3.07581E-05-1.75968E-07 4.23633E-19-1.45941E-18
 -1      3868 1.19603E-04-5.28535E-05-2.84122E-05-1.25066E-05-1.96207E-18-1.98486E-18
 -1      3869 8.83676E-05-3.01636E-05-2.48911E-05 1.84210E-05 9.62891E-19-6.87388E-19
 -1      3870 8.59493E-05-2.28708E-05-2.69874E-05-1.16507E-05 2.34462E-19-5.87182E-19
 -1      3871 6.01128E-05-1.40667E-05-1.94520E-05 3.25948E-06 7.98142E-19-2.68562E-19
 -1      3872 6.23659E-05-1.47476E-05-2.03463E-05-1.98777E-06 4.50119E-20-4.02698E-19
 -1      3873 6.48455E-05-1.60818E-05-2.08353E-05 7.26203E-06 1.51476E-18 4.76707E-19
 -1      3874 8.08584E-05-1.92642E-05-2.63622E-05-5.43695E-06 9.43118E-19-4.52526E-19
 -1      3875 7.99495E-05-1.88228E-05-2.62452E-05-2.75025E-06 1.13065E-18-1.51697E-18
 -1      3876 1.04627E-04-4.35893E-05-2.60164E-05-1.82008E-05-1.59534E-18-7.03027E-19
 -1      3877 9.74422E-05-3.97897E-05-2.47796E-05-2.12974E-05-2.02626E-18-1.69242E-18
 -1      3878 1.09824E-04-4.83997E-05-2.62711E-05-1.82622E-05-1.48916E-18-1.18382E-18
 -1      3879 6.71546E-05-1.72245E-05-2.12871E-05-7.25746E-06 1.62436E-18-2.15935E-18
 -1      3880 8.01552E-05-3.03807E-05-2.11414E-05-2.44137E-05-1.04118E-18-1.42868E-18
 -1      3881 9.62977E-05-2.75036E-05-2.94891E-05-7.42360E-08 5.70848E-19-1.10646E-18
 -1      3882 9.62248E-05-2.70153E-05-2.96553E-05 2.75555E-07 6.15523E-19-1.08882E-18
 -1      3883 9.61698E-05-2.64546E-05-2.98764E-05 4.77102E-07 5.29721E-19-1.34082E-18
 -1      3884 9.56722E-05-2.87393E-05-2.86866E-05-9.74256E-07 3.11152E-19-2.36313E-19
 -1      3885 9.58168E-05-2.88018E-05-2.87217E-05-8.86389E-07 4.24191E-19-2.46643E-19
 -1      3886 9.55983E-05-2.86522E-05-2.86890E-05-9.91941E-07 1.80777E-19-2.20235E-19
 -1      3887 9.53335E-05-2.83223E-05-2.87189E-05-9.92639E-07 1.01355E-20-1.39249E-19
 -1      3888 9.53982E-05-2.84254E-05-2.87003E-05-1.05405E-06-8.94385E-20-4.24917E-19
 -1      3889 9.54770E-05-2.85376E-05-2.86901E-05-1.01433E-06 1.42165E-19-2.33995E-19
 -1      3890 9.33267E-05-3.19993E-05-2.63870E-05 1.68818E-05 7.24079E-19 7.40434E-19
 -1      3891 7.49038E-05-2.38980E-05-2.16923E-05-1.89161E-05 1.38634E-18-7.62502E-19
 -1      3892 7.25918E-05-2.04960E-05-2.24019E-05 1.41042E-05 9.83074E-19 3.18392E-19
 -1      3893 9.59605E-05-2.89033E-05-2.87410E-05-1.04118E-06 3.25012E-19-7.88388E-19
 -1      3894 9.19799E-05-2.60580E-05-2.82528E-05 1.12703E-05-6.63382E-20-4.57489E-20
 -1      3895 9.59585E-05-2.89351E-05-2.87229E-05-9.62815E-07 6.71435E-19-8.47793E-19
 -1      3896 9.60266E-05-2.89568E-05-2.87435E-05-9.56790E-07 6.39364E-19-8.56751E-19
 -1      3897 9.60299E-05-2.89427E-05-2.87531E-05-8.72537E-07 4.82142E-19-8.33636E-19
 -1      3898 9.63104E-05-2.87939E-05-2.89327E-05-8.42515E-07 7.43399E-20-1.05004E-18
 -1      3899 9.65075E-05-2.87238E-05-2.90516E-05-7.02007E-07 2.44443E-19-1.17867E-18
 -1      3900 9.62570E-05-2.88859E-05-2.88736E-05-9.02051E-07 6.00963E-20-9.38247E-19
 -1      3901 8.18156E-05-2.03203E-05-2.64200E-05 6.57643E-06 4.65472E-19-2.02364E-18
 -1      3902 8.36369E-05-2.13785E-05-2.66317E-05 8.68613E-06 1.31002E-18-5.17199E-19
 -1      3903 8.57607E-05-2.29789E-05-2.69582E-05 1.03755E-05 1.06220E-18 5.35351E-19
 -1      3904 8.78348E-05-2.42141E-05-2.72350E-05 1.13273E-05 1.12482E-19 9.09599E-19
 -1      3905 8.34183E-05-2.22809E-05-2.62163E-05 1.05261E-05 6.38488E-19-3.80309E-19
 -1      3906 9.51625E-05-2.35695E-05-3.06941E-05 8.37417E-07 8.80710E-19-1.29283E-18
 -1      3907 9.51044E-05-2.33996E-05-3.07366E-05 4.81602E-07 7.76364E-19-1.27892E-18
 -1      3908 9.56077E-05-2.43610E-05-3.05191E-05 2.51752E-07 6.70144E-19-1.14118E-18
 -1      3909 9.43506E-05-2.71789E-05-2.87852E-05-1.58307E-06 1.38986E-19-3.04183E-19
 -1      3910 9.63846E-05-2.82256E-05-2.92148E-05-5.19165E-07 3.10405E-19-9.74590E-19
 -1      3911 9.63795E-05-2.79144E-05-2.93369E-05-3.01043E-07 4.51357E-19-1.06944E-18
 -1      3912 9.64602E-05-2.75755E-05-2.95217E-05-1.09135E-07 4.30676E-19-1.21005E-18
 -1      3913 9.65479E-05-2.82969E-05-2.92515E-05-4.85076E-07 1.85872E-19-1.11333E-18
 -1      3914 7.82547E-05-1.85189E-05-2.55494E-05-1.02287E-06 1.01256E-18-1.45462E-18
 -1      3915 7.98208E-05-1.87695E-05-2.61905E-05 7.43715E-07 1.00120E-18-1.03052E-18
 -1      3916 8.03979E-05-1.91053E-05-2.62391E-05 3.47942E-06 1.02978E-18-1.56174E-18
 -1      3917 7.54238E-05-2.22717E-05-2.28414E-05-1.59697E-05 2.42112E-18-5.58234E-19
 -1      3918 9.40819E-05-2.69276E-05-2.87790E-05-1.45571E-06-1.58536E-19-9.77779E-20
 -1      3919 9.42883E-05-2.71714E-05-2.87690E-05-1.30504E-06-3.16167E-19-4.63679E-19
 -1      3920 9.67685E-05-2.87204E-05-2.91615E-05 4.72689E-07-1.42552E-19-8.97043E-19
 -1      3921 9.67179E-05-2.88755E-05-2.90763E-05 5.41621E-07-1.78113E-19-9.40475E-19
 -1      3922 9.66462E-05-2.89786E-05-2.89991E-05 5.67047E-07-1.71634E-19-9.48138E-19
 -1      3923 9.65624E-05-2.90381E-05-2.89390E-05 6.02262E-07-1.95859E-19-7.42894E-19
 -1      3924 9.67707E-05-2.89231E-05-2.90786E-05 4.27857E-07-1.29840E-19-1.25316E-18
 -1      3925 9.64553E-05-2.90556E-05-2.88848E-05 6.10559E-07-2.50390E-19-5.79977E-19
 -1      3926 9.63507E-05-2.90441E-05-2.88450E-05 6.27841E-07-1.63726E-20-4.67293E-19
 -1      3927 9.65925E-05-2.90568E-05-2.89452E-05 4.73418E-07-1.13795E-19-6.67148E-19
 -1      3928 9.62211E-05-2.89989E-05-2.88094E-05 6.29806E-07-1.45886E-19-5.46606E-19
 -1      3929 9.61029E-05-2.89342E-05-2.87855E-05 6.41081E-07-4.62260E-19-5.46006E-19
 -1      3930 9.63572E-05-2.90345E-05-2.88537E-05 4.94367E-07-1.19252E-19-6.87012E-19
 -1      3931 9.59556E-05-2.88398E-05-2.87644E-05 6.44138E-07-4.98152E-19-2.93080E-19
 -1      3932 9.58257E-05-2.87326E-05-2.87530E-05 6.59653E-07-4.34375E-19 2.27418E-19
 -1      3933 9.60828E-05-2.88954E-05-2.87954E-05 5.07872E-07-1.90189E-19-1.83827E-19
 -1      3934 9.56619E-05-2.85978E-05-2.87429E-05 6.70553E-07-8.04966E-19 2.49721E-19
 -1      3935 9.55187E-05-2.84542E-05-2.87407E-05 6.98191E-07-6.95466E-19 2.72681E-19
 -1      3936 9.57747E-05-2.86619E-05-2.87629E-05 5.27417E-07-4.14276E-19 2.01791E-19
 -1      3937 9.53351E-05-2.82829E-05-2.87385E-05 7.22109E-07-3.66715E-19 2.82569E-19
 -1      3938 9.51740E-05-2.81051E-05-2.87428E-05 7.68491E-07-1.01241E-19 3.59869E-19
 -1      3939 9.54311E-05-2.83478E-05-2.87495E-05 5.64015E-07-4.44970E-19 2.66908E-19
 -1      3940 9.49647E-05-2.78985E-05-2.87454E-05 8.09647E-07 8.76258E-20 1.90318E-19
 -1      3941 9.47787E-05-2.76862E-05-2.87532E-05 8.79835E-07 9.79068E-20 2.61305E-19
 -1      3942 9.50425E-05-2.79586E-05-2.87486E-05 6.27018E-07 1.16836E-20 3.44223E-19
 -1      3943 9.45338E-05-2.74419E-05-2.87573E-05 9.42116E-07-6.67525E-20 5.62929E-19
 -1      3944 9.43141E-05-2.71933E-05-2.87657E-05 1.04109E-06-5.08129E-20 7.43711E-19
 -1      3945 9.45932E-05-2.74943E-05-2.87540E-05 7.22151E-07 6.39311E-20 4.41749E-19
 -1      3946 9.40228E-05-2.69093E-05-2.87677E-05 1.12775E-06 1.20658E-19 9.42056E-19
 -1      3947 9.37587E-05-2.66222E-05-2.87729E-05 1.25950E-06 2.90655E-19 5.05766E-19
 -1      3948 9.40632E-05-2.69502E-05-2.87586E-05 8.57115E-07-7.33446E-21 8.72968E-19
 -1      3949 9.34075E-05-2.62958E-05-2.87681E-05 1.37345E-06-6.85808E-21 6.14302E-19
 -1      3950 9.30870E-05-2.59689E-05-2.87656E-05 1.54161E-06-3.05101E-19 9.49752E-19
 -1      3951 9.34280E-05-2.63221E-05-2.87539E-05 1.03603E-06 1.56071E-19 4.80465E-19
 -1      3952 9.26610E-05-2.55990E-05-2.87483E-05 1.68572E-06-4.30285E-19 1.07155E-18
 -1      3953 9.22712E-05-2.52334E-05-2.87319E-05 1.89381E-06-2.93755E-19 1.22349E-18
 -1      3954 9.26597E-05-2.56062E-05-2.87294E-05 1.26330E-06-2.76106E-19 8.07301E-19
 -1      3955 9.17538E-05-2.48217E-05-2.86945E-05 2.07120E-06-2.67867E-19 1.52618E-18
 -1      3956 9.12814E-05-2.44224E-05-2.86560E-05 2.32326E-06-7.01472E-20 1.68288E-18
 -1      3957 9.17272E-05-2.48031E-05-2.86715E-05 1.54289E-06-1.09239E-19 1.23695E-18
 -1      3958 9.06540E-05-2.39751E-05-2.85883E-05 2.53830E-06-2.37218E-19 1.39770E-18
 -1      3959 9.00862E-05-2.35531E-05-2.85171E-05 2.84065E-06-2.55171E-19 7.04229E-19
 -1      3960 9.05959E-05-2.39198E-05-2.85622E-05 1.87962E-06-3.82989E-19 1.01835E-18
 -1      3961 8.93270E-05-2.30820E-05-2.84056E-05 3.10119E-06-2.27670E-19 5.78285E-19
 -1      3962 8.86524E-05-2.26565E-05-2.82873E-05 3.46584E-06-3.73951E-19 1.20678E-19
 -1      3963 8.92262E-05-2.29719E-05-2.83777E-05 2.28213E-06-4.78095E-19 8.83581E-19
 -1      3964 8.77339E-05-2.21804E-05-2.81141E-05 3.78766E-06-1.04368E-19 1.39971E-19
 -1      3965 8.69441E-05-2.17814E-05-2.79301E-05 4.23870E-06-2.75635E-19 1.45969E-19
 -1      3966 8.75701E-05-2.19846E-05-2.80861E-05 2.76889E-06-4.47110E-19 2.32018E-19
 -1      3967 8.58284E-05-2.13270E-05-2.76706E-05 4.65404E-06-5.77230E-19 6.68872E-19
 -1      3968 8.49209E-05-2.09990E-05-2.73967E-05 5.23823E-06-2.77334E-19 3.28386E-19
 -1      3969 8.55633E-05-2.09925E-05-2.76444E-05 3.38040E-06-1.49441E-19 2.74789E-20
 -1      3970 8.35554E-05-2.06058E-05-2.70174E-05 5.80673E-06 6.21279E-20 2.71201E-19
 -1      3971 8.25175E-05-2.03993E-05-2.66215E-05 6.60866E-06 3.85776E-19 7.36669E-19
 -1      3972 8.31153E-05-2.00400E-05-2.69932E-05 4.20200E-06-2.06961E-21 2.30673E-19
 -1      3973 8.08396E-05-2.01429E-05-2.60713E-05 7.42862E-06 4.03180E-19 2.74474E-19
 -1      3974 7.96913E-05-2.01764E-05-2.55097E-05 8.54864E-06 9.10719E-19 4.89084E-19
 -1      3975 8.01641E-05-1.91977E-05-2.60468E-05 5.42922E-06 4.35679E-19 6.36558E-19
 -1      3976 7.73985E-05-1.99445E-05-2.47177E-05 9.94187E-06 7.91023E-19 7.16357E-19
 -1      3977 7.64316E-05-2.04341E-05-2.39463E-05 1.18105E-05 8.09711E-19 2.84368E-19
 -1      3978 7.60365E-05-1.82905E-05-2.46571E-05 7.31730E-06 5.86332E-19 4.08429E-19
 -1      3979 9.12974E-05-2.44990E-05-2.86252E-05-3.50095E-06-3.14272E-19-1.85553E-19
 -1      3980 9.16662E-05-2.47898E-05-2.86720E-05-3.11876E-06-1.34364E-20-8.86414E-20
 -1      3981 7.20063E-05-1.90460E-05-2.25877E-05-1.17956E-05 1.34791E-18-6.16121E-19
 -1      3982 7.85852E-05-2.19308E-05-2.41963E-05-1.33245E-05 1.57057E-18-1.60231E-18
 -1      3983 7.07570E-05-1.75213E-05-2.28094E-05-5.53457E-06 8.69043E-19-2.52568E-18
 -1      3984 9.55935E-05-2.50077E-05-3.02572E-05 1.49646E-06 6.91218E-19-1.29641E-18
 -1      3985 9.54903E-05-2.45676E-05-3.03941E-05 1.34944E-06 6.42115E-19-1.10501E-18
 -1      3986 7.94858E-05-2.11742E-05-2.50362E-05-1.15123E-05 2.22998E-19-1.71322E-18
 -1      3987 8.67762E-05-2.73845E-05-2.54289E-05 1.63156E-05 1.30773E-18-5.01738E-19
 -1      3988 9.21560E-05-2.51345E-05-2.87216E-05-2.80459E-06 3.05716E-19 9.48989E-20
 -1      3989 9.24849E-05-2.54364E-05-2.87438E-05-2.49340E-06 8.06031E-19-2.45808E-20
 -1      3990 9.14419E-05-2.46091E-05-2.86332E-05-2.56061E-06 2.90649E-19-3.73495E-19
 -1      3991 9.45391E-05-2.74204E-05-2.87637E-05-1.19617E-06-4.71903E-19-5.20726E-19
 -1      3992 9.47149E-05-2.76350E-05-2.87521E-05-1.08588E-06-4.08258E-19-3.92791E-19
 -1      3993 9.42948E-05-2.71812E-05-2.87598E-05-1.06601E-06-3.11774E-19-7.67766E-19
 -1      3994 9.29030E-05-2.57713E-05-2.87692E-05-2.24505E-06 7.03452E-19-1.75229E-20
 -1      3995 9.31882E-05-2.60636E-05-2.87749E-05-1.99472E-06 3.71590E-19-8.13809E-20
 -1      3996 9.23427E-05-2.53271E-05-2.87133E-05-2.03724E-06 4.81535E-19-8.11528E-20
 -1      3997 9.03375E-05-2.39214E-05-2.84596E-05-4.36540E-06-4.28183E-19-1.15926E-19
 -1      3998 9.07327E-05-2.41676E-05-2.85409E-05-3.89734E-06-3.23932E-19 8.09290E-20
 -1      3999 9.03946E-05-2.38857E-05-2.84924E-05-3.22274E-06-3.14456E-19-4.16257E-19
 -1      4000 8.93074E-05-2.34887E-05-2.82003E-05-5.44667E-06-1.41471E-19 2.74951E-19
 -1      4001 8.97000E-05-2.36391E-05-2.83278E-05-4.86932E-06-5.39724E-19 2.41935E-19
 -1      4002 8.91985E-05-2.32109E-05-2.82670E-05-4.06510E-06-3.94309E-19-4.95527E-20
 -1      4003 8.82719E-05-2.33297E-05-2.78184E-05-6.82278E-06 6.11481E-19 6.88135E-19
 -1      4004 8.86071E-05-2.33085E-05-2.80050E-05-6.09868E-06 5.06035E-19 7.06381E-19
 -1      4005 8.78639E-05-2.26647E-05-2.79272E-05-5.15421E-06-2.55892E-19 4.64636E-19
 -1      4006 8.73534E-05-2.36352E-05-2.72828E-05-8.61915E-06-1.12111E-19 6.96901E-19
 -1      4007 8.75312E-05-2.33277E-05-2.75405E-05-7.69100E-06 2.61762E-19 6.00238E-19
 -1      4008 8.64177E-05-2.23610E-05-2.74359E-05-6.59998E-06 3.80900E-19 1.44904E-18
 -1      4009 8.67895E-05-2.47054E-05-2.65643E-05-1.10194E-05-3.67862E-19 5.26991E-19
 -1      4010 8.66299E-05-2.39311E-05-2.68999E-05-9.81431E-06-1.57097E-19 2.47979E-19
 -1      4011 8.49230E-05-2.24732E-05-2.67473E-05-8.59634E-06-1.27387E-19 1.07207E-18
 -1      4012 8.69887E-05-2.69679E-05-2.56537E-05-1.42226E-05-1.34994E-18-2.50747E-19
 -1      4013 8.62114E-05-2.54761E-05-2.60554E-05-1.26630E-05-6.78229E-19 2.85010E-19
 -1      4014 8.35619E-05-2.33016E-05-2.58086E-05-1.14012E-05-4.05325E-19 1.29973E-18
 -1      4015 8.85024E-05-3.10607E-05-2.45618E-05-1.85617E-05-1.96365E-18-1.11292E-18
 -1      4016 8.67132E-05-2.83166E-05-2.50031E-05-1.64917E-05-1.85590E-18-5.08756E-19
 -1      4017 8.26275E-05-2.53215E-05-2.45734E-05-1.53872E-05-1.23017E-18 6.92172E-19
 -1      4018 9.00821E-05-2.53820E-05-2.77680E-05 1.16567E-05 9.21531E-20 9.98172E-19
 -1      4019 7.65913E-05-2.49268E-05-2.20637E-05-1.93249E-05-8.79399E-19-1.06893E-18
 -1      4020 8.53043E-05-3.15433E-05-2.30721E-05-2.20405E-05-1.34713E-18-1.65976E-18
 -1      4021 6.67417E-05-1.70226E-05-2.13190E-05-9.42606E-06-9.19031E-20-1.56487E-18
 -1      4022 7.10768E-05-2.07503E-05-2.15532E-05-1.60321E-05-1.95443E-19-1.46394E-18
 -1      4023 7.74740E-05-2.27089E-05-2.33640E-05-1.46197E-05-7.62015E-19-9.28219E-19
 -1      4024 9.35414E-05-2.63752E-05-2.87841E-05-1.80084E-06 9.79977E-20-2.31174E-19
 -1      4025 9.37847E-05-2.66461E-05-2.87795E-05-1.60364E-06 1.02797E-19 5.67027E-20
 -1      4026 9.37520E-05-2.66268E-05-2.87634E-05-1.30669E-06-1.97898E-19-7.07490E-19
 -1      4027 9.55607E-05-2.53139E-05-3.01118E-05 1.77649E-06 8.16061E-19-1.13295E-18
 -1      4028 9.55692E-05-2.42667E-05-3.05418E-05-2.13935E-07 2.90405E-19-1.34895E-18
 -1      4029 9.50515E-05-2.32962E-05-3.07612E-05-4.27234E-07 3.66473E-19-1.47719E-18
 -1      4030 9.50520E-05-2.33092E-05-3.07524E-05-7.57858E-07 2.66334E-19-1.52784E-18
 -1      4031 7.95875E-05-1.95997E-05-2.56784E-05 5.78638E-06 1.65355E-18-1.55571E-18
 -1      4032 7.02665E-05-1.79498E-05-2.23042E-05 1.04091E-05 1.09443E-18 9.77483E-19
 -1      4033 8.32142E-05-2.12980E-05-2.65777E-05-9.61990E-06 5.86100E-19-1.38141E-18
 -1      4034 9.49289E-05-2.78515E-05-2.87459E-05-1.00994E-06-2.48911E-19-3.25076E-19
 -1      4035 9.50811E-05-2.80367E-05-2.87360E-05-9.34037E-07-1.64526E-19-7.15197E-20
 -1      4036 9.47550E-05-2.76669E-05-2.87500E-05-8.91542E-07-1.02377E-19-2.32249E-19
 -1      4037 9.67815E-05-2.82158E-05-2.93829E-05 2.95570E-07 5.97588E-20-1.02391E-18
 -1      4038 9.67844E-05-2.85006E-05-2.92668E-05 4.17813E-07-6.10154E-21-8.66097E-19
 -1      4039 9.68592E-05-2.85780E-05-2.92633E-05 3.37135E-07-2.81214E-20-1.28715E-18
 -1      4040 9.61188E-05-2.89643E-05-2.87798E-05-9.51568E-07 3.45721E-19-1.03273E-18
 -1      4041 9.61820E-05-2.89378E-05-2.88172E-05-9.28912E-07 2.05948E-19-1.15784E-18
 -1      4042 9.62236E-05-2.89974E-05-2.88130E-05-8.56774E-07 4.14898E-19-1.15334E-18
 -1      4043 9.62170E-05-2.61032E-05-3.00510E-05-4.51808E-07 1.27834E-19-1.45584E-18
 -1      4044 9.64298E-05-2.67907E-05-2.98528E-05-1.43668E-07 1.63819E-19-1.31518E-18
 -1      4045 9.66310E-05-2.73800E-05-2.96748E-05-4.28398E-09 1.56347E-19-1.11502E-18
 -1      4046 9.67125E-05-2.78357E-05-2.95219E-05 1.98558E-07 1.32014E-19-1.08035E-18
 -1      4047 9.65626E-05-2.69780E-05-2.98281E-05-7.85715E-08 2.75805E-19-1.12355E-18
 -1      4048 9.54769E-05-2.49091E-05-3.02475E-05 1.84157E-06 7.84647E-19-1.17091E-18
 -1      4049 8.84462E-05-2.52226E-05-2.71234E-05 1.22762E-05 2.25874E-19 4.44294E-19
 -1      4050 9.53325E-05-2.41052E-05-3.05394E-05 1.36520E-06 7.95030E-19-1.04472E-18
 -1      4051 9.52301E-05-2.37693E-05-3.06293E-05 1.08250E-06 8.15472E-19-1.27615E-18
 -1      4052 8.88274E-05-2.64772E-05-2.66805E-05 1.35630E-05 6.66059E-19 1.07517E-19
 -1      4053 8.07687E-05-2.05903E-05-2.57678E-05-9.10757E-06 4.82698E-19-1.54527E-18
 -1      4054 8.36639E-05-2.45665E-05-2.53098E-05 1.43757E-05 8.98593E-19-2.05101E-19
 -1      4055 9.56724E-05-2.46330E-05-3.04328E-05 6.93685E-07 8.00366E-19-1.24895E-18
 -1      4056 9.31075E-05-2.60059E-05-2.87518E-05-1.62559E-06 2.19353E-19-2.87338E-19
 -1      4057 9.58489E-05-2.53149E-05-3.02218E-05 8.64998E-07 5.97347E-19-1.30363E-18
 -1      4058 6.89345E-05-1.65652E-05-2.25140E-05 5.64484E-06 7.68163E-19 6.13841E-19
 -1      4059 7.66108E-05-1.89155E-05-2.47984E-05-7.12318E-06 6.79863E-19-2.12195E-18
 -1      4060 7.42917E-05-1.85074E-05-2.39766E-05 6.27665E-06 8.26993E-19-1.26373E-18
 -1      4061 7.65126E-05-1.98265E-05-2.42150E-05 9.49689E-06 3.56260E-19-1.54735E-18
 -1      4062 8.06762E-05-2.27546E-05-2.48862E-05 1.26169E-05 5.65772E-19-1.09978E-18
 -1      4063 9.50536E-05-2.34063E-05-3.07109E-05-1.19714E-06 1.99691E-19-1.69376E-18
 -1      4064 9.24593E-05-3.62581E-05-2.39700E-05-2.18702E-05-1.97989E-18-2.04800E-18
 -1      4065 6.67891E-05-1.59488E-05-2.16887E-05-5.77449E-06 1.76702E-19-9.03165E-19
 -1      4066 7.20909E-05-1.77432E-05-2.32396E-05-7.24739E-06 1.06615E-19-1.01030E-18
 -1      4067 6.77321E-05-1.56639E-05-2.23531E-05-7.96049E-07 5.16908E-19 1.98788E-19
 -1      4068 9.63887E-05-2.89377E-05-2.89093E-05-8.11593E-07 1.09128E-19-1.20749E-18
 -1      4069 9.55860E-05-2.85920E-05-2.87121E-05-9.20550E-07 1.98830E-19-7.72115E-20
 -1      4070 9.52666E-05-2.82211E-05-2.87322E-05-8.85366E-07-1.49985E-19-7.02982E-20
 -1      4071 9.54010E-05-2.83769E-05-2.87265E-05-8.37263E-07 5.61478E-20-1.81047E-20
 -1      4072 9.51506E-05-2.80847E-05-2.87416E-05-7.72226E-07-1.60409E-20-3.64338E-20
 -1      4073 9.58359E-05-2.87742E-05-2.87392E-05-7.71738E-07 2.28326E-19-4.91714E-20
 -1      4074 9.59484E-05-2.88658E-05-2.87500E-05-7.57820E-07 1.45127E-19-3.37074E-19
 -1      4075 7.29626E-05-1.74883E-05-2.37696E-05-2.75296E-06 8.79637E-19-2.01296E-18
 -1      4076 9.61558E-05-2.61569E-05-3.00023E-05 5.57683E-07 4.83870E-19-1.33698E-18
 -1      4077 9.60368E-05-2.57066E-05-3.01387E-05 5.86840E-07 5.68500E-19-1.31235E-18
 -1      4078 9.63569E-05-2.68234E-05-2.98027E-05 2.06502E-07 5.57768E-19-1.30705E-18
 -1      4079 9.60820E-05-2.89460E-05-2.87713E-05-7.54035E-07 1.18634E-19-5.38549E-19
 -1      4080 9.61875E-05-2.89980E-05-2.87947E-05-7.42175E-07 3.20335E-19-6.81233E-19
 -1      4081 9.60862E-05-2.89201E-05-2.87869E-05-6.35464E-07 1.60033E-20-4.82166E-19
 -1      4082 9.59320E-05-2.51541E-05-3.03414E-05-6.90857E-08 3.12949E-19-1.22223E-18
 -1      4083 9.59096E-05-2.51353E-05-3.03430E-05-2.53868E-07 2.82528E-19-1.35878E-18
 -1      4084 9.66319E-05-2.88158E-05-2.90653E-05-6.29584E-07 2.24848E-19-1.29779E-18
 -1      4085 9.66764E-05-2.86504E-05-2.91515E-05-5.45466E-07 3.03937E-19-1.25986E-18
 -1      4086 9.66836E-05-2.84171E-05-2.92595E-05-4.69655E-07 2.00056E-19-1.26643E-18
 -1      4087 9.66744E-05-2.81201E-05-2.93780E-05-3.19357E-07 2.39999E-19-1.29785E-18
 -1      4088 9.67864E-05-2.84977E-05-2.92673E-05-4.03660E-07 2.80268E-19-1.27893E-18
 -1      4089 9.59465E-05-2.52243E-05-3.03196E-05 2.85612E-07 7.40903E-19-9.67976E-19
 -1      4090 9.59360E-05-2.51515E-05-3.03418E-05 8.17281E-08 4.88725E-19-1.01249E-18
 -1      4091 9.62714E-05-2.58776E-05-3.01544E-05 3.14790E-10 4.59155E-19-9.53183E-19
 -1      4092 9.68096E-05-2.79516E-05-2.95097E-05 1.77742E-07 1.96423E-19-1.15106E-18
 -1      4093 7.26576E-05-1.72978E-05-2.37068E-05 1.00401E-06 1.04989E-18-1.45725E-18
 -1      4094 9.60174E-05-2.55411E-05-3.02105E-05 5.39410E-07 6.13794E-19-1.37520E-18
 -1      4095 9.59858E-05-2.53494E-05-3.02734E-05 3.80111E-07 7.11158E-19-1.22783E-18
 -1      4096 9.63077E-05-2.60322E-05-3.01056E-05 1.86628E-07 5.37583E-19-1.08121E-18
 -1      4097 9.63295E-05-2.63387E-05-2.99934E-05 2.56919E-07 4.88215E-19-1.43754E-18
 -1      4098 9.55174E-05-2.43111E-05-3.05110E-05-8.42262E-07 2.37074E-19-1.59404E-18
 -1      4099 9.69316E-05-2.84622E-05-2.93430E-05 2.01000E-07 1.28965E-19-1.17808E-18
 -1      4100 9.69194E-05-2.87051E-05-2.92354E-05 2.67101E-07-7.12439E-20-1.04184E-18
 -1      4101 9.67084E-05-2.90619E-05-2.89910E-05 3.15711E-07-3.21774E-20-1.08816E-18
 -1      4102 9.66013E-05-2.90852E-05-2.89350E-05 3.38226E-07-1.23221E-19-9.64166E-19
 -1      4103 9.64750E-05-2.90718E-05-2.88865E-05 3.38821E-07-2.57463E-19-8.46388E-19
 -1      4104 9.63475E-05-2.90299E-05-2.88493E-05 3.52493E-07-1.03557E-19-9.97419E-19
 -1      4105 9.65702E-05-2.90783E-05-2.89267E-05 1.90799E-07-1.37890E-19-1.50527E-18
 -1      4106 9.61959E-05-2.89550E-05-2.88176E-05 3.47150E-07 8.84423E-20-8.44896E-19
 -1      4107 9.60498E-05-2.88587E-05-2.87951E-05 3.60111E-07-4.97812E-20-6.30255E-19
 -1      4108 9.63017E-05-2.89968E-05-2.88467E-05 1.94149E-07 2.93302E-20-1.55426E-18
 -1      4109 9.58798E-05-2.87358E-05-2.87765E-05 3.59313E-07-2.68139E-19-5.67110E-19
 -1      4110 9.57169E-05-2.85960E-05-2.87652E-05 3.76107E-07-4.51210E-19-3.76604E-19
 -1      4111 9.59834E-05-2.87959E-05-2.87958E-05 2.02340E-07-4.43814E-20-1.22339E-18
 -1      4112 9.55270E-05-2.84321E-05-2.87562E-05 3.80900E-07-4.15024E-19-1.72818E-19
 -1      4113 9.53437E-05-2.82528E-05-2.87528E-05 4.05491E-07-1.55367E-19-6.45429E-20
 -1      4114 9.56287E-05-2.85042E-05-2.87676E-05 2.14156E-07-1.54033E-19-4.56897E-19
 -1      4115 9.51308E-05-2.80509E-05-2.87501E-05 4.17954E-07 1.77463E-19-4.63187E-20
 -1      4116 9.49208E-05-2.78350E-05-2.87513E-05 4.52991E-07 2.64598E-19 3.17819E-19
 -1      4117 9.52326E-05-2.81331E-05-2.87550E-05 2.33985E-07 6.93179E-20-2.19729E-19
 -1      4118 9.46721E-05-2.75917E-05-2.87515E-05 4.75123E-07 1.95823E-19 3.31273E-19
 -1      4119 9.44281E-05-2.73362E-05-2.87542E-05 5.25941E-07 1.74855E-19 5.53995E-19
 -1      4120 9.47726E-05-2.76751E-05-2.87519E-05 2.63484E-07 2.38271E-19-1.01578E-19
 -1      4121 9.41357E-05-2.70535E-05-2.87534E-05 5.57303E-07 1.57409E-19 7.67615E-19
 -1      4122 9.38455E-05-2.67567E-05-2.87536E-05 6.24274E-07 3.25948E-19 9.43797E-19
 -1      4123 9.42417E-05-2.71403E-05-2.87505E-05 3.05093E-07 2.75034E-19 1.10659E-20
 -1      4124 9.34959E-05-2.64302E-05-2.87476E-05 6.66814E-07-1.54294E-19 8.39325E-19
 -1      4125 9.31457E-05-2.60898E-05-2.87406E-05 7.51337E-07-2.33876E-19 7.52059E-19
 -1      4126 9.36097E-05-2.65188E-05-2.87426E-05 3.58861E-07-1.35538E-19 4.47318E-19
 -1      4127 9.27243E-05-2.57178E-05-2.87237E-05 8.05560E-07-3.65218E-19 7.66977E-19
 -1      4128 9.22992E-05-2.53327E-05-2.87035E-05 9.08357E-07-4.00062E-19 7.18672E-19
 -1      4129 9.28505E-05-2.58068E-05-2.87183E-05 4.24917E-07-4.39291E-19-1.95611E-19
 -1      4130 9.17893E-05-2.49152E-05-2.86686E-05 9.74380E-07-1.93483E-19 7.16504E-19
 -1      4131 9.12724E-05-2.44871E-05-2.86274E-05 1.09574E-06-7.74617E-20 3.47309E-19
 -1      4132 9.19330E-05-2.50024E-05-2.86648E-05 5.01341E-07-3.02235E-19-4.24468E-19
 -1      4133 9.06550E-05-2.40271E-05-2.85653E-05 1.17347E-06-3.80998E-19 6.44826E-20
 -1      4134 9.00271E-05-2.35610E-05-2.84927E-05 1.31397E-06-6.26049E-19-2.86743E-19
 -1      4135 9.08219E-05-2.41080E-05-2.85656E-05 5.84897E-07-4.38519E-19-8.43770E-19
 -1      4136 8.92794E-05-2.30650E-05-2.83910E-05 1.40357E-06-5.05488E-19 1.10910E-19
 -1      4137 8.85182E-05-2.25701E-05-2.82732E-05 1.56574E-06-4.07164E-19-8.84463E-22
 -1      4138 8.94763E-05-2.31319E-05-2.83990E-05 6.71168E-07-3.06063E-19-6.17602E-19
 -1      4139 8.76098E-05-2.20481E-05-2.81156E-05 1.66870E-06-6.18325E-19-1.32165E-19
 -1      4140 8.66861E-05-2.15373E-05-2.79342E-05 1.86037E-06-4.78467E-19-1.59922E-19
 -1      4141 8.78449E-05-2.20877E-05-2.81361E-05 7.55239E-07-4.44153E-19-4.87710E-19
 -1      4142 8.55723E-05-2.10001E-05-2.76981E-05 1.98169E-06 7.20522E-20-5.04853E-19
 -1      4143 8.44442E-05-2.04884E-05-2.74277E-05 2.22298E-06 1.96917E-19-7.42312E-21
 -1      4144 8.58566E-05-2.09911E-05-2.77381E-05 8.32868E-07-4.65665E-19-1.55326E-19
 -1      4145 8.30483E-05-1.99409E-05-2.70813E-05 2.37730E-06 2.19083E-19-3.34026E-20
 -1      4146 8.16550E-05-1.94482E-05-2.66862E-05 2.72034E-06 4.24259E-19 2.39509E-19
 -1      4147 8.33960E-05-1.98498E-05-2.71505E-05 9.00889E-07 1.88010E-19-2.05347E-19
 -1      4148 7.98083E-05-1.88511E-05-2.61803E-05 2.92843E-06 2.72448E-19 4.27180E-19
 -1      4149 7.78899E-05-1.83273E-05-2.56033E-05 3.60878E-06 1.85254E-19 5.86109E-19
 -1      4150 8.02367E-05-1.86480E-05-2.62923E-05 9.35365E-07 5.00196E-19-7.98408E-19
 -1      4151 8.81858E-05-2.25945E-05-2.81108E-05-3.49572E-06-5.37662E-19-9.68513E-20
 -1      4152 8.88254E-05-2.29462E-05-2.82532E-05-3.07942E-06-4.45602E-21-2.76009E-21
 -1      4153 9.08123E-05-2.41676E-05-2.85636E-05-2.16316E-06 3.71541E-19-2.52518E-19
 -1      4154 9.13033E-05-2.45517E-05-2.86191E-05-1.90487E-06 7.12129E-19 2.37941E-19
 -1      4155 9.40748E-05-2.69759E-05-2.87569E-05-8.77581E-07-3.76057E-19-8.41514E-19
 -1      4156 9.43268E-05-2.72439E-05-2.87536E-05-7.83756E-07-3.19930E-20-8.33667E-19
 -1      4157 9.18488E-05-2.49554E-05-2.86701E-05-1.71036E-06 3.93547E-19 3.26087E-20
 -1      4158 9.22681E-05-2.53221E-05-2.86999E-05-1.50521E-06 4.57354E-19 1.90495E-19
 -1      4159 9.13104E-05-2.45096E-05-2.86079E-05-1.32689E-06 3.18945E-19 1.12854E-20
 -1      4160 8.65693E-05-2.19267E-05-2.77019E-05-4.49027E-06-3.71146E-19 1.96004E-19
 -1      4161 8.72737E-05-2.22066E-05-2.79119E-05-3.94554E-06-7.59916E-19-3.42521E-20
 -1      4162 8.70678E-05-2.18490E-05-2.79037E-05-2.85906E-06-5.69339E-19 1.48923E-19
 -1      4163 8.47345E-05-2.14543E-05-2.71146E-05-5.84374E-06 2.58569E-19 9.08649E-19
 -1      4164 8.54870E-05-2.16060E-05-2.74138E-05-5.10574E-06-1.77223E-22 5.65442E-19
 -1      4165 8.51085E-05-2.10160E-05-2.74051E-05-3.76391E-06-5.18684E-19 2.45761E-19
 -1      4166 8.26792E-05-2.12861E-05-2.62903E-05-7.75081E-06 1.87868E-19 7.86666E-19
 -1      4167 8.34246E-05-2.12298E-05-2.67056E-05-6.70352E-06 6.02807E-19 1.27397E-18
 -1      4168 8.27791E-05-2.03027E-05-2.66910E-05-5.02329E-06 2.70280E-19 5.97383E-19
 -1      4169 8.05027E-05-2.17497E-05-2.51460E-05-1.06039E-05-2.64245E-19 4.87551E-19
 -1      4170 8.10532E-05-2.12744E-05-2.57053E-05-9.09641E-06-1.28639E-19 9.59606E-19
 -1      4171 7.98362E-05-1.96898E-05-2.56766E-05-6.86150E-06 3.65090E-19 5.14847E-19
 -1      4172 7.77486E-05-2.15538E-05-2.41187E-05-1.23742E-05-1.77351E-19-1.03953E-19
 -1      4173 9.58233E-05-2.50668E-05-3.03254E-05-5.82002E-07 1.90534E-19-1.44499E-18
 -1      4174 9.34586E-05-2.63725E-05-2.87519E-05-1.08410E-06-3.41243E-20-8.69784E-19
 -1      4175 9.37569E-05-2.66764E-05-2.87539E-05-9.59198E-07-4.81957E-19-8.53867E-19
 -1      4176 9.38207E-05-2.67233E-05-2.87477E-05-6.58998E-07-2.21879E-19-1.07325E-18
 -1      4177 7.58031E-05-1.94605E-05-2.40592E-05-9.56253E-06 3.36585E-19-6.48204E-19
 -1      4178 9.59775E-05-2.53265E-05-3.02758E-05-3.76363E-07 3.12582E-19-1.38058E-18
 -1      4179 9.65689E-05-2.89298E-05-2.89863E-05-6.66881E-07-6.04133E-20-1.31221E-18
 -1      4180 9.67142E-05-2.88697E-05-2.90774E-05-5.28205E-07 1.82152E-20-1.14128E-18
 -1      4181 9.64947E-05-2.90005E-05-2.89260E-05-7.08955E-07-1.07057E-19-1.13603E-18
 -1      4182 9.68383E-05-2.77491E-05-2.96126E-05 6.61202E-08 2.02821E-19-1.05844E-18
 -1      4183 9.68991E-05-2.81433E-05-2.94693E-05 1.67588E-07 1.50490E-19-1.15548E-18
 -1      4184 9.69422E-05-2.82575E-05-2.94344E-05 9.95501E-08 1.11033E-19-1.20270E-18
 -1      4185 7.18719E-05-1.69351E-05-2.35445E-05 2.32598E-06 2.23297E-19 3.92557E-19
 -1      4186 9.55657E-05-2.85297E-05-2.87281E-05-8.10259E-07 2.34024E-19-1.70623E-19
 -1      4187 9.56874E-05-2.86550E-05-2.87293E-05-7.83250E-07 4.72390E-19 8.07679E-20
 -1      4188 9.58077E-05-2.87164E-05-2.87539E-05-6.55473E-07 2.90283E-19 2.04415E-19
 -1      4189 9.54974E-05-2.84350E-05-2.87408E-05-6.97083E-07 1.06814E-19-8.46598E-20
 -1      4190 9.27240E-05-2.56963E-05-2.87273E-05-1.35704E-06 7.30937E-20-2.22472E-19
 -1      4191 9.30784E-05-2.60344E-05-2.87399E-05-1.19548E-06 1.69578E-20-3.60165E-19
 -1      4192 9.23013E-05-2.53225E-05-2.86893E-05-1.04023E-06-4.74374E-20-1.47441E-19
 -1      4193 9.45949E-05-2.75049E-05-2.87526E-05-7.26217E-07-3.02928E-20-6.92441E-19
 -1      4194 9.48108E-05-2.77377E-05-2.87480E-05-6.58097E-07 7.40751E-20-4.90904E-19
 -1      4195 9.44008E-05-2.73029E-05-2.87510E-05-5.40148E-07 1.09480E-19-6.84689E-19
 -1      4196 9.66048E-05-2.77853E-05-2.94970E-05-2.10536E-07 3.86068E-19-1.44186E-18
 -1      4197 9.65168E-05-2.73259E-05-2.96525E-05 2.78076E-08 4.93868E-19-1.49009E-18
 -1      4198 9.65026E-05-2.70343E-05-2.97704E-05 9.86516E-08 5.44336E-19-1.44398E-18
 -1      4199 9.67236E-05-2.78910E-05-2.94990E-05-2.04278E-07 2.23842E-19-1.44886E-18
 -1      4200 8.95963E-05-2.33645E-05-2.83863E-05-2.74362E-06-9.82897E-21-7.18700E-20
 -1      4201 9.01623E-05-2.37468E-05-2.84784E-05-2.41783E-06-2.16690E-19-1.69226E-20
 -1      4202 9.01285E-05-2.36401E-05-2.84676E-05-1.70237E-06 2.23275E-19 5.16469E-19
 -1      4203 9.63058E-05-2.90318E-05-2.88310E-05-7.43210E-07 4.50379E-19-9.37509E-19
 -1      4204 9.63967E-05-2.90294E-05-2.88707E-05-7.23637E-07 2.05458E-19-9.20345E-19
 -1      4205 9.63435E-05-2.90368E-05-2.88476E-05-6.22149E-07 1.16160E-19-4.22379E-19
 -1      4206 9.68725E-05-2.88777E-05-2.91399E-05 2.74991E-07-2.24560E-19-8.94418E-19
 -1      4207 9.68038E-05-2.89940E-05-2.90607E-05 3.17177E-07-9.09825E-20-8.95576E-19
 -1      4208 9.67964E-05-2.90248E-05-2.90471E-05 1.75989E-07-1.95542E-19-1.09373E-18
 -1      4209 9.69339E-05-2.87734E-05-2.92134E-05 1.45194E-07-1.92320E-20-8.73359E-19
 -1      4210 9.63367E-05-2.61095E-05-3.00830E-05-2.01451E-07 3.18535E-19-1.25795E-18
 -1      4211 9.65367E-05-2.67741E-05-2.98995E-05-6.13775E-08 3.38170E-19-1.16989E-18
 -1      4212 9.64947E-05-2.65232E-05-2.99946E-05-5.04349E-08 3.75761E-19-1.09941E-18
 -1      4213 9.67330E-05-2.72874E-05-2.97554E-05 1.74562E-08 2.70369E-19-1.06711E-18
 -1      4214 9.68129E-05-2.75117E-05-2.97013E-05 1.66928E-08 2.80982E-19-1.03408E-18
 -1      4215 9.64926E-05-2.65252E-05-2.99940E-05 4.47301E-08 5.52530E-19-7.76341E-19
 -1      4216 7.43249E-05-1.73731E-05-2.44222E-05 1.71079E-06 1.13479E-19 6.28924E-19
 -1      4217 7.51427E-05-1.73079E-05-2.46829E-05-1.18657E-06 5.42784E-19-1.49270E-19
 -1      4218 8.87259E-05-2.27404E-05-2.82437E-05-2.19714E-06-1.84999E-19-2.46864E-19
 -1      4219 7.45421E-05-1.81624E-05-2.42839E-05-6.08533E-06 7.77510E-19-1.84590E-19
 -1      4220 9.60801E-05-2.88968E-05-2.87918E-05-4.95181E-07 8.20472E-20-2.43844E-19
 -1      4221 9.62201E-05-2.89825E-05-2.88152E-05-4.82755E-07 1.93471E-19-2.29669E-19
 -1      4222 9.48960E-05-2.78121E-05-2.87500E-05-4.52533E-07 5.13058E-20-4.87474E-19
 -1      4223 9.50393E-05-2.79615E-05-2.87472E-05-6.22531E-07 6.75688E-20-5.15368E-19
 -1      4224 9.52259E-05-2.81581E-05-2.87450E-05-5.75657E-07 1.28263E-19-2.59505E-19
 -1      4225 9.31292E-05-2.60628E-05-2.87310E-05-8.22257E-07-2.61984E-19-9.84694E-19
 -1      4226 9.57698E-05-2.86598E-05-2.87604E-05-5.14855E-07 3.36684E-19-2.26735E-19
 -1      4227 9.59193E-05-2.87851E-05-2.87720E-05-4.96412E-07 1.61829E-19-3.59309E-19
 -1      4228 9.60328E-05-2.88438E-05-2.87971E-05-3.50258E-07 1.66255E-19-7.56290E-19
 -1      4229 9.65528E-05-2.90286E-05-2.89405E-05-5.90993E-07 6.06790E-20-9.99009E-19
 -1      4230 9.67735E-05-2.89479E-05-2.90684E-05-4.29221E-07-1.30602E-19-1.00517E-18
 -1      4231 9.68396E-05-2.88164E-05-2.91502E-05-3.73321E-07 3.22795E-20-1.07671E-18
 -1      4232 9.68666E-05-2.86224E-05-2.92498E-05-3.51028E-07 2.18643E-19-1.09124E-18
 -1      4233 9.68708E-05-2.83578E-05-2.93615E-05-2.61894E-07 7.31005E-20-1.26012E-18
 -1      4234 9.69127E-05-2.87102E-05-2.92330E-05-2.49616E-07 1.07902E-19-1.17733E-18
 -1      4235 9.66598E-05-2.90968E-05-2.89549E-05 3.63660E-08-2.99708E-19-1.04987E-18
 -1      4236 9.65372E-05-2.90901E-05-2.89041E-05 4.18361E-08-1.10651E-19-1.14728E-18
 -1      4237 9.63370E-05-2.90163E-05-2.88513E-05-7.54679E-08-7.45944E-20-9.15748E-19
 -1      4238 9.61871E-05-2.89350E-05-2.88208E-05-6.70110E-08 2.22041E-20-1.00955E-18
 -1      4239 9.60273E-05-2.88278E-05-2.87991E-05-7.68171E-08 1.72017E-19-9.07944E-19
 -1      4240 9.58543E-05-2.86983E-05-2.87803E-05-7.11788E-08 1.61164E-19-5.74754E-19
 -1      4241 9.53351E-05-2.82384E-05-2.87571E-05 3.79103E-08-7.11031E-21-2.16910E-19
 -1      4242 9.51196E-05-2.80321E-05-2.87531E-05 5.12323E-08 3.34938E-20-2.53355E-19
 -1      4243 9.48244E-05-2.77434E-05-2.87509E-05-1.15897E-07 3.86324E-21-5.71194E-19
 -1      4244 9.45705E-05-2.74929E-05-2.87504E-05-1.07308E-07 1.25113E-20-8.40547E-19
 -1      4245 9.42974E-05-2.72253E-05-2.87498E-05-1.46877E-07 2.79139E-19-7.44170E-19
 -1      4246 9.39979E-05-2.69314E-05-2.87477E-05-1.36172E-07 4.53768E-20-5.79046E-19
 -1      4247 9.36742E-05-2.66236E-05-2.87429E-05-1.90986E-07-2.44923E-19-4.52350E-19
 -1      4248 9.33167E-05-2.62853E-05-2.87350E-05-1.79226E-07-2.58403E-19-6.79851E-19
 -1      4249 9.29292E-05-2.59361E-05-2.87209E-05-2.53167E-07-5.17497E-19-5.50356E-19
 -1      4250 9.24984E-05-2.55519E-05-2.87014E-05-2.42155E-07-5.75695E-19-5.62804E-19
 -1      4251 9.20329E-05-2.51624E-05-2.86715E-05-3.40235E-07-3.64090E-19-3.97229E-19
 -1      4252 9.15116E-05-2.47329E-05-2.86332E-05-3.32556E-07-1.79559E-19-6.99762E-19
 -1      4253 9.09527E-05-2.43074E-05-2.85790E-05-4.61913E-07-3.22394E-22-1.35388E-19
 -1      4254 9.03213E-05-2.38360E-05-2.85122E-05-4.61254E-07 1.55961E-19-1.08047E-19
 -1      4255 8.96523E-05-2.33831E-05-2.84228E-05-6.32496E-07-2.47147E-20 1.89280E-19
 -1      4256 8.88866E-05-2.28767E-05-2.83150E-05-6.43813E-07-2.19886E-19-1.94918E-19
 -1      4257 8.80879E-05-2.24103E-05-2.81760E-05-8.73319E-07-4.52028E-19-1.29008E-19
 -1      4258 8.71559E-05-2.18782E-05-2.80103E-05-9.03082E-07-5.94871E-19-7.49331E-20
 -1      4259 8.62020E-05-2.14170E-05-2.78027E-05-1.21669E-06-8.19288E-19 2.61925E-19
 -1      4260 8.50568E-05-2.08690E-05-2.75561E-05-1.27400E-06-5.56630E-19 1.78123E-19
 -1      4261 8.39128E-05-2.04360E-05-2.72548E-05-1.71177E-06-9.48503E-20 3.54561E-19
 -1      4262 8.24812E-05-1.98772E-05-2.68949E-05-1.81598E-06 3.24412E-20-2.27791E-19
 -1      4263 8.11074E-05-1.94920E-05-2.64660E-05-2.42003E-06 2.12412E-19-9.79556E-20
 -1      4264 7.93039E-05-1.89666E-05-2.59494E-05-2.59903E-06 7.48413E-19-2.10433E-19
 -1      4265 9.65949E-05-2.90687E-05-2.89391E-05-4.61702E-07 2.24228E-20-7.89852E-19
 -1      4266 9.66927E-05-2.90322E-05-2.89955E-05-4.35212E-07-6.13830E-21-9.12940E-19
 -1      4267 9.67962E-05-2.89897E-05-2.90627E-05-3.03302E-07-9.59871E-20-1.02670E-18
 -1      4268 9.63937E-05-2.90339E-05-2.88704E-05-2.27531E-07-2.28978E-19-4.01502E-19
 -1      4269 7.77507E-05-1.85713E-05-2.53650E-05-3.39463E-06 1.08020E-18-1.98409E-19
 -1      4270 9.54260E-05-2.83464E-05-2.87476E-05-5.53771E-07 1.35717E-19-3.66683E-19
 -1      4271 9.55918E-05-2.85090E-05-2.87507E-05-5.24275E-07 2.34399E-19-2.24118E-19
 -1      4272 9.56963E-05-2.85761E-05-2.87666E-05-3.68913E-07 3.68566E-19-6.00015E-19
 -1      4273 9.53206E-05-2.82296E-05-2.87527E-05-4.00275E-07 3.69572E-20-5.56036E-19
 -1      4274 9.64238E-05-2.90573E-05-2.88715E-05-3.77617E-07-1.34481E-19-5.30030E-19
 -1      4275 9.65431E-05-2.90778E-05-2.89125E-05-3.62243E-07-7.98030E-20-7.09361E-19
 -1      4276 9.69551E-05-2.81157E-05-2.94995E-05 2.30658E-09 7.67910E-20-1.08833E-18
 -1      4277 9.69932E-05-2.84571E-05-2.93742E-05 3.92512E-08 4.44477E-20-1.09882E-18
 -1      4278 9.56743E-05-2.85466E-05-2.87690E-05-8.35419E-08 3.10190E-20-6.15465E-19
 -1      4279 9.54818E-05-2.83745E-05-2.87597E-05-7.90557E-08 8.15713E-20-4.07948E-19
 -1      4280 9.68292E-05-2.90208E-05-2.90601E-05-7.10904E-08-2.67470E-19-7.56230E-19
 -1      4281 9.69090E-05-2.89196E-05-2.91360E-05-4.56339E-08 2.05681E-20-1.01539E-18
 -1      4282 9.66782E-05-2.74190E-05-2.96820E-05-5.64291E-08 4.46345E-19-1.46966E-18
 -1      4283 9.65368E-05-2.69340E-05-2.98317E-05 1.23912E-07 4.86797E-19-1.44082E-18
 -1      4284 9.65188E-05-2.67736E-05-2.98955E-05 1.13218E-07 4.16708E-19-1.47262E-18
 -1      4285 9.66591E-05-2.90873E-05-2.89611E-05-2.23744E-07-2.72338E-19-6.63557E-19
 -1      4286 9.65107E-05-2.66496E-05-2.99412E-05 7.92406E-08 4.52726E-19-1.07742E-18
 -1      4287 9.67112E-05-2.71722E-05-2.97951E-05 1.40884E-08 3.15024E-19-1.00834E-18
 -1      4288 9.49497E-05-2.78594E-05-2.87516E-05-3.10272E-07-3.88526E-20-7.08732E-19
 -1      4289 9.68554E-05-2.77193E-05-2.96298E-05-1.79302E-08 1.57513E-19-9.48576E-19
 -1      4290 9.68381E-05-2.81192E-05-2.94517E-05-2.27783E-07 6.81279E-20-1.27813E-18
 -1      4291 9.67767E-05-2.77733E-05-2.95728E-05-1.15307E-07 1.85164E-19-1.32011E-18
 -1      4292 9.67976E-05-2.76695E-05-2.96287E-05-8.23816E-08 1.16128E-19-1.17623E-18
 -1      4293 9.68996E-05-2.82306E-05-2.94280E-05-1.74165E-07 2.13119E-20-1.26352E-18
 -1      4294 9.69569E-05-2.87526E-05-2.92293E-05-6.68170E-08 1.10061E-19-1.04897E-18
 -1      4295 9.69409E-05-2.86215E-05-2.92808E-05-1.60981E-07 1.38263E-19-1.21380E-18
 -1      4296 9.67270E-05-2.90787E-05-2.89906E-05-6.09469E-08-3.59954E-19-9.37667E-19
 -1      4297 9.53778E-05-2.82825E-05-2.87559E-05-2.68376E-07-1.40116E-20-6.69340E-19
 -1      4298 9.68117E-05-2.75560E-05-2.96807E-05-4.24807E-08 1.34253E-19-1.01105E-18
 -1      4299 9.69599E-05-2.83883E-05-2.93856E-05-1.32582E-07 1.33859E-19-1.22263E-18
 -1      4300 9.51793E-05-2.80885E-05-2.87520E-05-2.84056E-07-3.27472E-20-6.09553E-19
 -1      4301 9.69388E-05-2.81603E-05-2.94773E-05-9.55518E-08 3.72805E-21-1.09774E-18
 -3
    1PSTEP                         4           1           1          
  100CL  101 1.000000000        4301                     0    1           1
 -4  ERROR       1    1
 -5  STR(%)      1    1    0    0
 -1         1 1.20904E+01
 -1         2 2.69662E+01
 -1         3 9.12473E-02
 -1         4 1.23231E-01
 -1         5 1.40419E+01
 -1         6 1.31460E+01
 -1         7 1.31460E+01
 -1         8 3.66325E+00
 -1         9 1.82543E+00
 -1        10 1.28918E+00
 -1        11 1.04300E+00
 -1        12 8.99535E-01
 -1        13 8.08767E-01
 -1        14 7.54409E-01
 -1        15 7.56372E-01
 -1        16 8.13063E-01
 -1        17 9.00426E-01
 -1        18 1.05185E+00
 -1        19 1.30677E+00
 -1        20 1.83432E+00
 -1        21 3.50486E+00
 -1        22 8.64324E+00
 -1        23 1.31460E+01
 -1        24 4.32040E+00
 -1        25 3.34462E+00
 -1        26 2.11542E+00
 -1        27 1.36733E+00
 -1        28 1.01768E+00
 -1        29 7.80043E-01
 -1        30 6.02046E-01
 -1        31 4.64255E-01
 -1        32 3.58133E-01
 -1        33 2.82453E-01
 -1        34 2.23003E-01
 -1        35 1.77786E-01
 -1        36 1.44846E-01
 -1        37 1.22323E-01
 -1        38 1.13574E-01
 -1        39 1.25418E-01
 -1        40 1.55416E-01
 -1        41 1.97842E-01
 -1        42 2.53785E-01
 -1        43 3.23617E-01
 -1        44 4.06219E-01
 -1        45 4.97805E-01
 -1        46 5.90261E-01
 -1        47 7.49143E-01
 -1        48 9.47861E-01
 -1        49 1.18799E+00
 -1        50 1.42489E+00
 -1        51 1.55378E+00
 -1        52 1.55378E+00
 -1        53 1.57086E+00
 -1        54 1.61023E+00
 -1        55 2.09405E+00
 -1        56 3.77424E+00
 -1        57 4.56015E+00
 -1        58 4.56015E+00
 -1        59 4.51915E+00
 -1        60 3.94226E+00
 -1        61 2.30111E+00
 -1        62 1.62692E+00
 -1        63 1.46849E+00
 -1        64 1.53717E+00
 -1        65 1.53717E+00
 -1        66 1.38654E+00
 -1        67 1.08104E+00
 -1        68 9.46613E-01
 -1        69 8.90331E-01
 -1        70 7.08923E-01
 -1        71 5.62499E-01
 -1        72 1.40419E+01
 -1        73 3.39644E+00
 -1        74 2.41554E+00
 -1        75 1.66882E+00
 -1        76 1.14829E+00
 -1        77 9.08213E-01
 -1        78 7.34652E-01
 -1        79 5.92874E-01
 -1        80 4.75723E-01
 -1        81 3.79560E-01
 -1        82 3.07067E-01
 -1        83 2.49981E-01
 -1        84 2.05054E-01
 -1        85 1.71734E-01
 -1        86 1.49257E-01
 -1        87 1.44159E-01
 -1        88 1.56699E-01
 -1        89 1.76915E-01
 -1        90 2.02778E-01
 -1        91 2.41624E-01
 -1        92 3.02302E-01
 -1        93 3.70763E-01
 -1        94 4.41554E-01
 -1        95 5.05110E-01
 -1        96 5.46445E-01
 -1        97 5.59759E-01
 -1        98 7.20002E-01
 -1        99 8.90320E-01
 -1       100 9.89292E-01
 -1       101 1.20992E+00
 -1       102 1.38115E+00
 -1       103 1.45480E+00
 -1       104 1.75131E+00
 -1       105 2.39648E+00
 -1       106 3.05852E+00
 -1       107 3.37927E+00
 -1       108 3.37927E+00
 -1       109 3.36545E+00
 -1       110 2.46208E+00
 -1       111 1.40760E+00
 -1       112 9.23246E-01
 -1       113 1.07662E+00
 -1       114 1.17594E+00
 -1       115 1.17594E+00
 -1       116 1.07491E+00
 -1       117 8.50925E-01
 -1       118 7.36048E-01
 -1       119 5.94460E-01
 -1       120 3.46293E-01
 -1       121 1.71339E-01
 -1       122 1.71339E-01
 -1       123 1.40840E-01
 -1       124 8.60432E-02
 -1       125 4.88820E-02
 -1       126 1.09470E-01
 -1       127 1.57166E-01
 -1       128 1.80386E-01
 -1       129 1.80386E-01
 -1       130 1.75479E-01
 -1       131 1.39439E-01
 -1       132 8.26626E-02
 -1       133 7.96040E-02
 -1       134 1.52547E-01
 -1       135 2.64087E-01
 -1       136 3.09609E-01
 -1       137 2.69662E+01
 -1       138 4.60581E+01
 -1       139 4.60581E+01
 -1       140 1.82656E+01
 -1       141 1.19337E+01
 -1       142 1.23505E+01
 -1       143 1.23505E+01
 -1       144 1.20513E+01
 -1       145 1.20513E+01
 -1       146 1.42923E+01
 -1       147 3.36564E+01
 -1       148 3.36564E+01
 -1       149 2.65086E+01
 -1       150 2.61435E+01
 -1       151 2.61435E+01
 -1       152 2.69873E+01
 -1       153 3.22854E+01
 -1       154 3.22854E+01
 -1       155 1.31019E+01
 -1       156 1.24443E+01
 -1       157 1.24443E+01
 -1       158 1.19629E+01
 -1       159 1.20904E+01
 -1       160 2.17161E+01
 -1       161 4.85508E+01
 -1       162 4.85508E+01
 -1       163 2.64777E+01
 -1       164 6.07784E+00
 -1       165 2.29963E+00
 -1       166 1.50481E+00
 -1       167 1.15742E+00
 -1       168 9.71564E-01
 -1       169 8.64270E-01
 -1       170 7.96263E-01
 -1       171 7.56372E-01
 -1       172 7.99697E-01
 -1       173 8.67132E-01
 -1       174 9.80513E-01
 -1       175 1.17164E+00
 -1       176 1.52647E+00
 -1       177 2.25970E+00
 -1       178 3.93091E+00
 -1       179 1.40419E+01
 -1       180 4.32040E+00
 -1       181 3.34462E+00
 -1       182 2.11542E+00
 -1       183 1.45129E+00
 -1       184 1.03042E+00
 -1       185 7.80043E-01
 -1       186 6.02046E-01
 -1       187 4.75769E-01
 -1       188 3.78080E-01
 -1       189 2.99875E-01
 -1       190 2.45310E-01
 -1       191 1.99549E-01
 -1       192 1.62285E-01
 -1       193 1.32656E-01
 -1       194 1.12941E-01
 -1       195 1.13574E-01
 -1       196 1.29743E-01
 -1       197 1.61316E-01
 -1       198 2.02956E-01
 -1       199 2.54988E-01
 -1       200 3.23617E-01
 -1       201 4.29406E-01
 -1       202 5.64429E-01
 -1       203 7.14609E-01
 -1       204 8.65711E-01
 -1       205 9.96752E-01
 -1       206 1.18799E+00
 -1       207 1.42489E+00
 -1       208 1.55378E+00
 -1       209 1.49420E+00
 -1       210 1.57086E+00
 -1       211 1.61023E+00
 -1       212 2.31590E+00
 -1       213 3.77424E+00
 -1       214 4.56015E+00
 -1       215 4.51915E+00
 -1       216 3.94226E+00
 -1       217 2.45054E+00
 -1       218 1.62692E+00
 -1       219 1.46849E+00
 -1       220 1.40936E+00
 -1       221 1.53717E+00
 -1       222 1.38654E+00
 -1       223 1.08104E+00
 -1       224 9.46613E-01
 -1       225 8.90331E-01
 -1       226 7.08923E-01
 -1       227 5.62499E-01
 -1       228 3.39644E+00
 -1       229 2.41554E+00
 -1       230 1.66882E+00
 -1       231 1.14829E+00
 -1       232 9.08213E-01
 -1       233 7.34652E-01
 -1       234 5.92874E-01
 -1       235 4.75723E-01
 -1       236 3.79560E-01
 -1       237 3.07067E-01
 -1       238 2.49981E-01
 -1       239 2.05054E-01
 -1       240 1.71734E-01
 -1       241 1.49257E-01
 -1       242 1.40745E-01
 -1       243 1.44159E-01
 -1       244 1.56699E-01
 -1       245 1.76915E-01
 -1       246 2.16108E-01
 -1       247 2.66172E-01
 -1       248 3.21594E-01
 -1       249 3.77675E-01
 -1       250 4.41554E-01
 -1       251 5.05110E-01
 -1       252 5.46445E-01
 -1       253 6.21312E-01
 -1       254 7.29117E-01
 -1       255 8.90320E-01
 -1       256 9.89292E-01
 -1       257 1.20992E+00
 -1       258 1.38115E+00
 -1       259 1.45480E+00
 -1       260 1.75131E+00
 -1       261 2.39648E+00
 -1       262 3.05852E+00
 -1       263 3.37927E+00
 -1       264 3.36545E+00
 -1       265 2.46208E+00
 -1       266 1.40760E+00
 -1       267 9.23246E-01
 -1       268 9.07347E-01
 -1       269 1.07662E+00
 -1       270 1.17594E+00
 -1       271 1.07491E+00
 -1       272 8.50925E-01
 -1       273 7.36048E-01
 -1       274 5.94460E-01
 -1       275 3.62262E-01
 -1       276 2.18567E-01
 -1       277 2.23594E-01
 -1       278 2.23594E-01
 -1       279 1.30846E-01
 -1       280 1.81335E-01
 -1       281 2.75553E-01
 -1       282 3.35197E-01
 -1       283 3.42995E-01
 -1       284 3.42995E-01
 -1       285 3.17806E-01
 -1       286 2.41980E-01
 -1       287 1.31047E-01
 -1       288 2.34047E-01
 -1       289 2.34047E-01
 -1       290 3.11632E-01
 -1       291 3.26904E+01
 -1       292 2.75224E+01
 -1       293 4.60581E+01
 -1       294 1.92372E+01
 -1       295 1.09078E+01
 -1       296 1.19337E+01
 -1       297 1.23505E+01
 -1       298 1.20114E+01
 -1       299 1.20513E+01
 -1       300 1.16761E+01
 -1       301 1.42923E+01
 -1       302 3.36564E+01
 -1       303 3.07147E+01
 -1       304 2.81040E+01
 -1       305 3.26959E+01
 -1       306 2.50394E+01
 -1       307 3.07644E+01
 -1       308 3.22854E+01
 -1       309 1.31019E+01
 -1       310 1.20142E+01
 -1       311 1.24443E+01
 -1       312 1.15481E+01
 -1       313 1.19629E+01
 -1       314 1.20904E+01
 -1       315 1.14883E+01
 -1       316 2.37081E+01
 -1       317 4.85508E+01
 -1       318 2.98235E+01
 -1       319 3.26904E+01
 -1       320 1.06890E+00
 -1       321 2.47851E+00
 -1       322 7.88158E-01
 -1       323 6.94619E-01
 -1       324 6.31731E-01
 -1       325 5.87718E-01
 -1       326 5.90922E-01
 -1       327 6.34339E-01
 -1       328 7.00761E-01
 -1       329 7.95682E-01
 -1       330 9.30901E-01
 -1       331 1.15856E+00
 -1       332 1.32769E+00
 -1       333 2.20209E+00
 -1       334 1.91587E+00
 -1       335 1.73271E+00
 -1       336 1.27128E+00
 -1       337 9.11493E-01
 -1       338 6.61334E-01
 -1       339 5.43943E-01
 -1       340 4.48487E-01
 -1       341 3.65029E-01
 -1       342 2.99875E-01
 -1       343 2.46088E-01
 -1       344 2.00565E-01
 -1       345 1.62889E-01
 -1       346 1.32656E-01
 -1       347 1.10203E-01
 -1       348 9.81326E-02
 -1       349 1.07391E-01
 -1       350 1.29743E-01
 -1       351 1.61316E-01
 -1       352 2.13661E-01
 -1       353 2.96829E-01
 -1       354 3.98295E-01
 -1       355 5.17805E-01
 -1       356 6.51392E-01
 -1       357 7.89068E-01
 -1       358 9.12180E-01
 -1       359 1.01597E+00
 -1       360 1.13635E+00
 -1       361 1.19042E+00
 -1       362 1.08056E+00
 -1       363 9.79125E-01
 -1       364 1.08787E+00
 -1       365 1.54916E+00
 -1       366 2.11127E+00
 -1       367 2.67806E+00
 -1       368 2.56090E+00
 -1       369 2.66854E+00
 -1       370 2.21504E+00
 -1       371 1.66905E+00
 -1       372 1.10511E+00
 -1       373 1.02948E+00
 -1       374 9.70876E-01
 -1       375 1.08011E+00
 -1       376 9.88430E-01
 -1       377 8.15451E-01
 -1       378 7.08645E-01
 -1       379 6.36785E-01
 -1       380 4.92099E-01
 -1       381 1.13269E+00
 -1       382 8.94859E-01
 -1       383 7.07992E-01
 -1       384 5.49924E-01
 -1       385 4.43207E-01
 -1       386 3.78130E-01
 -1       387 3.16077E-01
 -1       388 2.60476E-01
 -1       389 2.16355E-01
 -1       390 1.81151E-01
 -1       391 1.53492E-01
 -1       392 1.32497E-01
 -1       393 1.20446E-01
 -1       394 1.18275E-01
 -1       395 1.22446E-01
 -1       396 1.46299E-01
 -1       397 1.79683E-01
 -1       398 2.49198E-01
 -1       399 3.33973E-01
 -1       400 4.31237E-01
 -1       401 5.35771E-01
 -1       402 6.37003E-01
 -1       403 7.19616E-01
 -1       404 7.97530E-01
 -1       405 8.10241E-01
 -1       406 8.10241E-01
 -1       407 7.13029E-01
 -1       408 5.93853E-01
 -1       409 6.73149E-01
 -1       410 1.27425E+00
 -1       411 1.75061E+00
 -1       412 1.83563E+00
 -1       413 1.83563E+00
 -1       414 1.84095E+00
 -1       415 2.05943E+00
 -1       416 1.72504E+00
 -1       417 1.12535E+00
 -1       418 6.51568E-01
 -1       419 5.37180E-01
 -1       420 7.07281E-01
 -1       421 7.98191E-01
 -1       422 7.92325E-01
 -1       423 6.83415E-01
 -1       424 6.02197E-01
 -1       425 5.22291E-01
 -1       426 3.62262E-01
 -1       427 2.51276E-01
 -1       428 3.91940E-01
 -1       429 3.91940E-01
 -1       430 2.16918E-01
 -1       431 3.57802E-01
 -1       432 4.63781E-01
 -1       433 4.91083E-01
 -1       434 4.94041E-01
 -1       435 4.94041E-01
 -1       436 4.38483E-01
 -1       437 3.10871E-01
 -1       438 2.59108E-01
 -1       439 3.91743E-01
 -1       440 2.75224E+01
 -1       441 3.26904E+01
 -1       442 2.73504E+01
 -1       443 1.54751E+01
 -1       444 8.20884E+00
 -1       445 9.11986E-01
 -1       446 1.04237E+01
 -1       447 1.07225E+01
 -1       448 1.09175E+01
 -1       449 9.18079E+00
 -1       450 7.79411E+00
 -1       451 1.25709E+01
 -1       452 2.03576E+01
 -1       453 2.54431E+01
 -1       454 3.18895E+01
 -1       455 3.26959E+01
 -1       456 2.44312E+01
 -1       457 2.13689E+01
 -1       458 1.23389E+01
 -1       459 6.94528E+00
 -1       460 9.35238E+00
 -1       461 1.07011E+01
 -1       462 1.13109E+01
 -1       463 1.00619E+01
 -1       464 7.01338E+00
 -1       465 9.70134E+00
 -1       466 1.73757E+01
 -1       467 2.98235E+01
 -1       468 2.72180E+01
 -1       469 7.43471E+00
 -1       470 3.26959E+01
 -1       471 1.92414E+01
 -1       472 1.05083E+00
 -1       473 4.86189E-01
 -1       474 5.10418E-01
 -1       475 4.31728E-01
 -1       476 4.57379E-01
 -1       477 4.86689E-01
 -1       478 5.10504E-01
 -1       479 5.10504E-01
 -1       480 6.06406E-01
 -1       481 8.94859E-01
 -1       482 8.04350E-01
 -1       483 4.47046E+00
 -1       484 4.82640E+00
 -1       485 7.05643E-01
 -1       486 5.92816E-01
 -1       487 4.81097E-01
 -1       488 3.82967E-01
 -1       489 3.29774E-01
 -1       490 2.81185E-01
 -1       491 2.35433E-01
 -1       492 1.94734E-01
 -1       493 1.60685E-01
 -1       494 1.30881E-01
 -1       495 1.06599E-01
 -1       496 8.63533E-02
 -1       497 8.10492E-02
 -1       498 9.56965E-02
 -1       499 1.24039E-01
 -1       500 1.83039E-01
 -1       501 2.55657E-01
 -1       502 3.44173E-01
 -1       503 4.49947E-01
 -1       504 5.72527E-01
 -1       505 7.08302E-01
 -1       506 8.48686E-01
 -1       507 9.78030E-01
 -1       508 1.07198E+00
 -1       509 1.24932E+00
 -1       510 1.42261E+00
 -1       511 1.52472E+00
 -1       512 1.75770E+00
 -1       513 2.26020E+00
 -1       514 3.44722E+00
 -1       515 3.64155E+00
 -1       516 5.69008E+00
 -1       517 3.48159E+00
 -1       518 2.51880E+00
 -1       519 1.93159E+00
 -1       520 1.86182E+00
 -1       521 1.75742E+00
 -1       522 1.31247E+00
 -1       523 1.18912E+00
 -1       524 1.01075E+00
 -1       525 8.86406E-01
 -1       526 7.48061E-01
 -1       527 5.85461E-01
 -1       528 1.69040E+01
 -1       529 5.49924E-01
 -1       530 4.43207E-01
 -1       531 3.78130E-01
 -1       532 3.16077E-01
 -1       533 2.60476E-01
 -1       534 2.16355E-01
 -1       535 1.77729E-01
 -1       536 1.44804E-01
 -1       537 1.17095E-01
 -1       538 9.69522E-02
 -1       539 8.55822E-02
 -1       540 9.94933E-02
 -1       541 1.19581E-01
 -1       542 1.61152E-01
 -1       543 2.25259E-01
 -1       544 3.01462E-01
 -1       545 3.89264E-01
 -1       546 4.85674E-01
 -1       547 5.83929E-01
 -1       548 6.72109E-01
 -1       549 7.46769E-01
 -1       550 8.06466E-01
 -1       551 8.66090E-01
 -1       552 8.61934E-01
 -1       553 8.48945E-01
 -1       554 9.75024E-01
 -1       555 1.16009E+00
 -1       556 1.48918E+00
 -1       557 1.75665E+00
 -1       558 2.20528E+00
 -1       559 2.16544E+00
 -1       560 2.07059E+00
 -1       561 1.64440E+00
 -1       562 1.36590E+00
 -1       563 1.07845E+00
 -1       564 9.50199E-01
 -1       565 7.80842E-01
 -1       566 7.02990E-01
 -1       567 6.45984E-01
 -1       568 5.60006E-01
 -1       569 4.87598E-01
 -1       570 4.41833E-01
 -1       571 3.93276E-01
 -1       572 5.79198E-01
 -1       573 3.34194E-01
 -1       574 3.48057E-01
 -1       575 6.68858E-01
 -1       576 6.68858E-01
 -1       577 6.63524E-01
 -1       578 6.63524E-01
 -1       579 5.43079E-01
 -1       580 4.49187E-01
 -1       581 4.49187E-01
 -1       582 2.72180E+01
 -1       583 7.07992E-01
 -1       584 1.18978E+01
 -1       585 7.02139E+00
 -1       586 5.12174E+00
 -1       587 2.02282E+01
 -1       588 7.57211E+00
 -1       589 8.78985E-01
 -1       590 4.57347E-01
 -1       591 8.04034E+00
 -1       592 6.56482E+00
 -1       593 6.50130E+00
 -1       594 3.84539E+00
 -1       595 9.71699E+00
 -1       596 2.54431E+01
 -1       597 2.44312E+01
 -1       598 1.62214E+01
 -1       599 1.13000E+01
 -1       600 6.08737E+00
 -1       601 6.94781E+00
 -1       602 8.56155E+00
 -1       603 6.95547E+00
 -1       604 5.21149E+00
 -1       605 5.63447E+00
 -1       606 9.34322E+00
 -1       607 1.32752E+01
 -1       608 2.73504E+01
 -1       609 1.32911E+00
 -1       610 5.10418E-01
 -1       611 3.99399E-01
 -1       612 1.85144E+01
 -1       613 4.62447E-01
 -1       614 1.91474E+01
 -1       615 1.09507E+01
 -1       616 3.78850E+00
 -1       617 5.69008E+00
 -1       618 3.58600E-01
 -1       619 3.43202E-01
 -1       620 3.61660E-01
 -1       621 3.37421E-01
 -1       622 5.44501E-01
 -1       623 4.43443E+00
 -1       624 3.42908E+00
 -1       625 4.00303E-01
 -1       626 3.87497E-01
 -1       627 3.46905E-01
 -1       628 2.97346E-01
 -1       629 2.47435E-01
 -1       630 2.15117E-01
 -1       631 1.81676E-01
 -1       632 1.52247E-01
 -1       633 1.24822E-01
 -1       634 9.95732E-02
 -1       635 7.59830E-02
 -1       636 5.30037E-02
 -1       637 6.02374E-02
 -1       638 9.09963E-02
 -1       639 1.40157E-01
 -1       640 2.00054E-01
 -1       641 2.73296E-01
 -1       642 3.62570E-01
 -1       643 4.70516E-01
 -1       644 5.99511E-01
 -1       645 7.51348E-01
 -1       646 9.25686E-01
 -1       647 1.11849E+00
 -1       648 1.31607E+00
 -1       649 1.58592E+00
 -1       650 2.06432E+00
 -1       651 2.43174E+00
 -1       652 2.26020E+00
 -1       653 4.35129E+00
 -1       654 3.96141E+00
 -1       655 4.40306E+00
 -1       656 2.34988E+00
 -1       657 3.39509E+00
 -1       658 2.83413E+00
 -1       659 2.26880E+00
 -1       660 1.85237E+00
 -1       661 1.43212E+00
 -1       662 1.12853E+00
 -1       663 9.23757E-01
 -1       664 6.51206E-01
 -1       665 7.08959E+00
 -1       666 4.49187E-01
 -1       667 4.00484E-01
 -1       668 2.40715E-01
 -1       669 2.04358E-01
 -1       670 1.70471E-01
 -1       671 1.40096E-01
 -1       672 1.13329E-01
 -1       673 8.96150E-02
 -1       674 6.79302E-02
 -1       675 6.97848E-02
 -1       676 8.31796E-02
 -1       677 1.29958E-01
 -1       678 1.86006E-01
 -1       679 2.52960E-01
 -1       680 3.31842E-01
 -1       681 4.22545E-01
 -1       682 5.23088E-01
 -1       683 6.28596E-01
 -1       684 7.29983E-01
 -1       685 8.12486E-01
 -1       686 9.52343E-01
 -1       687 1.09767E+00
 -1       688 1.20151E+00
 -1       689 1.35894E+00
 -1       690 1.68436E+00
 -1       691 1.72826E+00
 -1       692 2.77468E+00
 -1       693 4.11592E+00
 -1       694 4.97083E+00
 -1       695 4.43443E+00
 -1       696 2.55735E+00
 -1       697 1.83281E+00
 -1       698 1.81563E+00
 -1       699 1.63593E+00
 -1       700 1.12758E+00
 -1       701 9.85228E-01
 -1       702 8.32309E-01
 -1       703 6.66190E-01
 -1       704 5.49699E-01
 -1       705 4.57194E-01
 -1       706 8.78997E-01
 -1       707 6.40985E-01
 -1       708 9.07490E-01
 -1       709 8.51746E-01
 -1       710 2.91490E+00
 -1       711 9.07490E-01
 -1       712 8.28362E-01
 -1       713 6.22837E-01
 -1       714 4.67772E-01
 -1       715 1.06014E+01
 -1       716 1.00103E+01
 -1       717 1.40888E+01
 -1       718 2.77071E-01
 -1       719 3.32130E-01
 -1       720 4.03746E-01
 -1       721 1.45274E+01
 -1       722 3.68268E-01
 -1       723 4.11592E+00
 -1       724 5.18513E-01
 -1       725 3.61660E-01
 -1       726 3.60303E-01
 -1       727 4.68685E+00
 -1       728 5.21049E+00
 -1       729 1.65256E+01
 -1       730 1.42827E+01
 -1       731 1.06688E+01
 -1       732 5.40455E+00
 -1       733 1.45131E+01
 -1       734 5.69008E+00
 -1       735 7.88460E+00
 -1       736 5.46019E+00
 -1       737 3.39509E+00
 -1       738 4.06300E+00
 -1       739 6.18619E+00
 -1       740 3.60303E-01
 -1       741 3.42736E-01
 -1       742 4.15531E-01
 -1       743 5.15406E+00
 -1       744 5.00732E-01
 -1       745 6.93008E+00
 -1       746 1.40820E+01
 -1       747 4.66794E-01
 -1       748 9.39830E+00
 -1       749 3.31450E+00
 -1       750 3.57753E-01
 -1       751 5.74577E+00
 -1       752 1.08244E+01
 -1       753 2.40332E-01
 -1       754 2.66635E+00
 -1       755 2.82446E-01
 -1       756 7.67323E+00
 -1       757 2.57906E-01
 -1       758 2.51097E-01
 -1       759 2.28941E-01
 -1       760 1.99788E-01
 -1       761 1.72492E-01
 -1       762 1.49618E-01
 -1       763 1.24642E-01
 -1       764 9.90587E-02
 -1       765 7.33803E-02
 -1       766 4.73696E-02
 -1       767 4.34390E-02
 -1       768 6.38029E-02
 -1       769 1.05038E-01
 -1       770 1.58973E-01
 -1       771 2.26030E-01
 -1       772 3.08564E-01
 -1       773 4.08846E-01
 -1       774 5.28115E-01
 -1       775 6.65335E-01
 -1       776 8.22970E-01
 -1       777 1.04125E+00
 -1       778 1.36325E+00
 -1       779 1.79430E+00
 -1       780 2.28985E+00
 -1       781 5.16023E+00
 -1       782 4.41714E+00
 -1       783 4.39366E+00
 -1       784 2.76130E+00
 -1       785 2.10030E+00
 -1       786 1.62582E+00
 -1       787 1.19641E+00
 -1       788 7.20022E-01
 -1       789 6.56150E+00
 -1       790 1.90145E-01
 -1       791 1.06552E-01
 -1       792 8.02175E-02
 -1       793 5.65755E-02
 -1       794 3.81237E-02
 -1       795 5.29167E-02
 -1       796 9.16511E-02
 -1       797 1.37773E-01
 -1       798 1.93307E-01
 -1       799 2.60416E-01
 -1       800 3.41843E-01
 -1       801 4.42313E-01
 -1       802 5.59835E-01
 -1       803 6.92388E-01
 -1       804 8.40435E-01
 -1       805 1.00180E+00
 -1       806 1.19177E+00
 -1       807 1.50844E+00
 -1       808 1.86272E+00
 -1       809 2.11368E+00
 -1       810 2.83454E+00
 -1       811 2.77468E+00
 -1       812 2.40342E+00
 -1       813 2.91153E+00
 -1       814 1.83739E+00
 -1       815 1.52494E+00
 -1       816 1.17393E+00
 -1       817 8.93874E-01
 -1       818 7.15582E-01
 -1       819 5.54114E-01
 -1       820 2.88832E-01
 -1       821 1.19273E+00
 -1       822 9.11725E-01
 -1       823 1.19404E+00
 -1       824 3.08757E-01
 -1       825 2.88718E+00
 -1       826 7.67323E+00
 -1       827 1.06553E+01
 -1       828 2.19501E-01
 -1       829 1.19404E+00
 -1       830 2.67142E-01
 -1       831 1.34602E-01
 -1       832 2.89556E-01
 -1       833 2.54595E-01
 -1       834 1.62924E-01
 -1       835 2.56843E-01
 -1       836 2.35449E-01
 -1       837 6.56834E+00
 -1       838 8.70855E+00
 -1       839 8.87115E+00
 -1       840 1.08244E+01
 -1       841 8.19708E+00
 -1       842 4.28131E+00
 -1       843 7.89291E+00
 -1       844 7.15996E+00
 -1       845 2.82198E-01
 -1       846 2.80326E-01
 -1       847 2.88832E-01
 -1       848 2.81719E-01
 -1       849 4.45019E+00
 -1       850 3.37203E+00
 -1       851 9.00459E+00
 -1       852 2.88812E-01
 -1       853 9.67387E-01
 -1       854 1.19273E+00
 -1       855 7.13454E-01
 -1       856 6.82012E+00
 -1       857 9.79537E-01
 -1       858 2.72762E-01
 -1       859 7.65016E+00
 -1       860 1.76555E-01
 -1       861 7.53011E+00
 -1       862 1.84047E-01
 -1       863 1.76125E-01
 -1       864 1.59233E-01
 -1       865 1.37671E-01
 -1       866 1.21251E-01
 -1       867 1.02126E-01
 -1       868 8.15083E-02
 -1       869 6.00202E-02
 -1       870 6.18919E-02
 -1       871 6.80665E-02
 -1       872 9.93811E-02
 -1       873 1.48519E-01
 -1       874 2.09692E-01
 -1       875 2.85963E-01
 -1       876 3.80898E-01
 -1       877 4.98680E-01
 -1       878 6.44190E-01
 -1       879 8.22970E-01
 -1       880 1.04048E+00
 -1       881 1.29626E+00
 -1       882 1.74755E+00
 -1       883 2.67628E+00
 -1       884 4.95966E+00
 -1       885 6.03591E+00
 -1       886 3.85043E+00
 -1       887 2.40372E+00
 -1       888 1.52187E+00
 -1       889 1.97949E-01
 -1       890 2.09985E-01
 -1       891 8.87726E-02
 -1       892 5.56358E-02
 -1       893 8.05561E-02
 -1       894 1.24892E-01
 -1       895 1.78841E-01
 -1       896 2.43896E-01
 -1       897 3.21351E-01
 -1       898 4.11625E-01
 -1       899 5.13449E-01
 -1       900 6.28351E-01
 -1       901 7.86260E-01
 -1       902 1.01303E+00
 -1       903 1.33125E+00
 -1       904 1.69657E+00
 -1       905 2.08922E+00
 -1       906 2.94371E+00
 -1       907 5.47469E+00
 -1       908 1.64892E+00
 -1       909 1.35041E+00
 -1       910 1.32698E+00
 -1       911 7.37775E+00
 -1       912 1.76418E+00
 -1       913 1.76151E-01
 -1       914 1.43707E-01
 -1       915 2.46993E+00
 -1       916 6.56251E+00
 -1       917 1.11601E-01
 -1       918 2.88812E-01
 -1       919 2.11493E-01
 -1       920 5.21469E-02
 -1       921 5.44152E+00
 -1       922 6.52910E-02
 -1       923 6.43497E-01
 -1       924 1.44321E-01
 -1       925 1.65663E-01
 -1       926 1.18200E-01
 -1       927 1.76418E+00
 -1       928 6.56251E+00
 -1       929 1.03841E+00
 -1       930 1.82444E-01
 -1       931 4.45019E+00
 -1       932 3.11926E+00
 -1       933 5.60057E+00
 -1       934 2.17715E-01
 -1       935 5.68917E+00
 -1       936 1.61001E+00
 -1       937 5.43490E+00
 -1       938 1.52145E-01
 -1       939 2.17715E-01
 -1       940 1.75223E-01
 -1       941 1.33214E-01
 -1       942 1.45835E+00
 -1       943 1.32698E+00
 -1       944 5.47469E+00
 -1       945 1.46622E+00
 -1       946 9.28243E-02
 -1       947 2.05244E-01
 -1       948 1.36790E-01
 -1       949 1.35398E-01
 -1       950 1.25373E-01
 -1       951 1.10249E-01
 -1       952 9.64594E-02
 -1       953 8.20393E-02
 -1       954 7.05721E-02
 -1       955 7.32558E-02
 -1       956 7.92672E-02
 -1       957 9.09924E-02
 -1       958 1.26090E-01
 -1       959 1.76817E-01
 -1       960 2.40667E-01
 -1       961 3.21360E-01
 -1       962 4.24041E-01
 -1       963 5.56300E-01
 -1       964 7.29880E-01
 -1       965 9.63154E-01
 -1       966 1.28744E+00
 -1       967 1.74755E+00
 -1       968 2.43088E+00
 -1       969 4.41252E+00
 -1       970 2.13789E-01
 -1       971 4.07954E+00
 -1       972 2.70390E+00
 -1       973 5.94625E+00
 -1       974 2.02943E-01
 -1       975 7.88921E-02
 -1       976 2.22098E-01
 -1       977 2.95786E-01
 -1       978 3.86017E-01
 -1       979 4.95814E-01
 -1       980 6.28351E-01
 -1       981 7.86260E-01
 -1       982 9.68489E-01
 -1       983 1.28651E+00
 -1       984 1.78608E+00
 -1       985 2.62461E+00
 -1       986 3.19217E+00
 -1       987 1.34983E+00
 -1       988 4.27071E+00
 -1       989 2.81635E+00
 -1       990 1.35394E-01
 -1       991 1.24102E-01
 -1       992 1.52568E-01
 -1       993 6.65810E+00
 -1       994 4.86961E+00
 -1       995 9.06142E-02
 -1       996 1.62212E-01
 -1       997 1.13661E-01
 -1       998 7.10087E-02
 -1       999 1.24920E-01
 -1      1000 3.92311E+00
 -1      1001 4.27071E+00
 -1      1002 3.92311E+00
 -1      1003 1.54058E-01
 -1      1004 4.09837E+00
 -1      1005 3.98614E+00
 -1      1006 1.46153E-01
 -1      1007 7.24047E-02
 -1      1008 6.68432E-02
 -1      1009 1.07053E-01
 -1      1010 1.39697E-01
 -1      1011 3.42116E+00
 -1      1012 2.57392E+00
 -1      1013 1.54058E-01
 -1      1014 1.56560E-01
 -1      1015 3.98614E+00
 -1      1016 1.34203E-01
 -1      1017 1.03157E-01
 -1      1018 9.69659E-02
 -1      1019 8.63613E-02
 -1      1020 7.80002E-02
 -1      1021 7.71284E-02
 -1      1022 7.92031E-02
 -1      1023 8.25758E-02
 -1      1024 9.27316E-02
 -1      1025 1.12768E-01
 -1      1026 1.40884E-01
 -1      1027 1.83039E-01
 -1      1028 2.43318E-01
 -1      1029 3.20542E-01
 -1      1030 4.21180E-01
 -1      1031 5.56308E-01
 -1      1032 7.46162E-01
 -1      1033 1.02698E+00
 -1      1034 1.39415E+00
 -1      1035 2.90253E+00
 -1      1036 3.98119E+00
 -1      1037 4.28822E-01
 -1      1038 4.07954E+00
 -1      1039 3.26790E-01
 -1      1040 1.01365E-01
 -1      1041 2.46934E-01
 -1      1042 5.60720E-01
 -1      1043 7.34088E-01
 -1      1044 9.67691E-01
 -1      1045 1.28651E+00
 -1      1046 1.69168E+00
 -1      1047 2.79940E+00
 -1      1048 4.42059E+00
 -1      1049 4.02930E+00
 -1      1050 1.83995E-01
 -1      1051 1.53137E-01
 -1      1052 8.48741E-02
 -1      1053 1.02308E-01
 -1      1054 1.21850E-01
 -1      1055 1.07082E-01
 -1      1056 9.14896E-02
 -1      1057 1.41843E-01
 -1      1058 4.02930E+00
 -1      1059 7.78406E-02
 -1      1060 7.30684E-02
 -1      1061 8.89966E-02
 -1      1062 1.09164E-01
 -1      1063 1.07082E-01
 -1      1064 1.17142E-01
 -1      1065 1.17172E-01
 -1      1066 9.92570E-02
 -1      1067 9.92570E-02
 -1      1068 8.99153E-02
 -1      1069 7.60127E-02
 -1      1070 1.09946E-01
 -1      1071 7.80002E-02
 -1      1072 7.92031E-02
 -1      1073 8.25758E-02
 -1      1074 1.07257E-01
 -1      1075 1.12768E-01
 -1      1076 1.39828E-01
 -1      1077 1.75735E-01
 -1      1078 2.22399E-01
 -1      1079 2.82465E-01
 -1      1080 3.59966E-01
 -1      1081 4.61594E-01
 -1      1082 5.99213E-01
 -1      1083 7.95777E-01
 -1      1084 1.10108E+00
 -1      1085 2.55128E+00
 -1      1086 5.80540E-01
 -1      1087 3.24730E-01
 -1      1088 1.25399E-01
 -1      1089 2.49603E-01
 -1      1090 7.91253E-01
 -1      1091 1.09924E+00
 -1      1092 1.66969E+00
 -1      1093 2.74076E+00
 -1      1094 1.56992E-01
 -1      1095 1.09192E-01
 -1      1096 6.66045E-02
 -1      1097 7.47702E-02
 -1      1098 1.97797E-01
 -1      1099 1.07257E-01
 -1      1100 9.78767E-02
 -1      1101 4.32354E-01
 -1      1102 1.09164E-01
 -1      1103 8.63956E-02
 -1      1104 5.72423E-02
 -1      1105 1.09946E-01
 -1      1106 1.06765E-01
 -1      1107 7.57869E-02
 -1      1108 9.70307E-02
 -1      1109 9.70307E-02
 -1      1110 1.09946E-01
 -1      1111 1.07257E-01
 -1      1112 8.63956E-02
 -1      1113 7.78406E-02
 -1      1114 9.70307E-02
 -1      1115 6.04941E-02
 -1      1116 6.88972E-02
 -1      1117 1.31460E+01
 -1      1118 8.40463E+00
 -1      1119 2.74434E+00
 -1      1120 1.55730E+00
 -1      1121 1.16609E+00
 -1      1122 9.71266E-01
 -1      1123 8.54151E-01
 -1      1124 7.81588E-01
 -1      1125 7.55391E-01
 -1      1126 7.84718E-01
 -1      1127 8.56744E-01
 -1      1128 9.76136E-01
 -1      1129 1.17931E+00
 -1      1130 1.57054E+00
 -1      1131 2.66959E+00
 -1      1132 6.07405E+00
 -1      1133 1.13426E+01
 -1      1134 1.31460E+01
 -1      1135 8.73321E+00
 -1      1136 3.83251E+00
 -1      1137 2.73002E+00
 -1      1138 1.74138E+00
 -1      1139 1.19251E+00
 -1      1140 8.98863E-01
 -1      1141 6.91044E-01
 -1      1142 5.33150E-01
 -1      1143 4.11194E-01
 -1      1144 3.20293E-01
 -1      1145 2.52728E-01
 -1      1146 2.00394E-01
 -1      1147 1.61316E-01
 -1      1148 1.33584E-01
 -1      1149 1.17949E-01
 -1      1150 1.19496E-01
 -1      1151 1.40417E-01
 -1      1152 1.76629E-01
 -1      1153 2.25813E-01
 -1      1154 2.88701E-01
 -1      1155 3.64918E-01
 -1      1156 4.52012E-01
 -1      1157 5.44033E-01
 -1      1158 6.69702E-01
 -1      1159 8.48502E-01
 -1      1160 1.06792E+00
 -1      1161 1.30644E+00
 -1      1162 1.48933E+00
 -1      1163 1.55378E+00
 -1      1164 1.56232E+00
 -1      1165 1.59055E+00
 -1      1166 1.85214E+00
 -1      1167 2.93415E+00
 -1      1168 4.16720E+00
 -1      1169 4.56015E+00
 -1      1170 4.53965E+00
 -1      1171 4.23071E+00
 -1      1172 3.12169E+00
 -1      1173 1.96402E+00
 -1      1174 1.54771E+00
 -1      1175 1.50283E+00
 -1      1176 1.53717E+00
 -1      1177 1.46186E+00
 -1      1178 1.23379E+00
 -1      1179 1.01383E+00
 -1      1180 9.18472E-01
 -1      1181 7.99627E-01
 -1      1182 6.35711E-01
 -1      1183 3.42865E-01
 -1      1184 1.40419E+01
 -1      1185 8.71918E+00
 -1      1186 2.90599E+00
 -1      1187 2.04218E+00
 -1      1188 1.40856E+00
 -1      1189 1.02825E+00
 -1      1190 8.21433E-01
 -1      1191 6.63763E-01
 -1      1192 5.34298E-01
 -1      1193 4.27641E-01
 -1      1194 3.43314E-01
 -1      1195 2.78524E-01
 -1      1196 2.27517E-01
 -1      1197 1.88394E-01
 -1      1198 1.60495E-01
 -1      1199 1.46708E-01
 -1      1200 1.50429E-01
 -1      1201 1.66807E-01
 -1      1202 1.89847E-01
 -1      1203 2.22201E-01
 -1      1204 2.71963E-01
 -1      1205 3.36533E-01
 -1      1206 4.06159E-01
 -1      1207 4.73332E-01
 -1      1208 5.25778E-01
 -1      1209 5.53102E-01
 -1      1210 6.39880E-01
 -1      1211 8.05161E-01
 -1      1212 9.39806E-01
 -1      1213 1.09961E+00
 -1      1214 1.29554E+00
 -1      1215 1.41798E+00
 -1      1216 1.60306E+00
 -1      1217 2.07389E+00
 -1      1218 2.72750E+00
 -1      1219 3.21890E+00
 -1      1220 3.37927E+00
 -1      1221 3.37236E+00
 -1      1222 2.91377E+00
 -1      1223 1.93484E+00
 -1      1224 1.16542E+00
 -1      1225 9.99933E-01
 -1      1226 1.12628E+00
 -1      1227 1.17594E+00
 -1      1228 1.12542E+00
 -1      1229 9.62917E-01
 -1      1230 7.93487E-01
 -1      1231 6.65254E-01
 -1      1232 4.70377E-01
 -1      1233 2.18770E-01
 -1      1234 1.31293E-01
 -1      1235 1.71339E-01
 -1      1236 1.56089E-01
 -1      1237 1.13441E-01
 -1      1238 6.74626E-02
 -1      1239 7.91757E-02
 -1      1240 1.33318E-01
 -1      1241 1.68776E-01
 -1      1242 1.80386E-01
 -1      1243 1.77932E-01
 -1      1244 1.57459E-01
 -1      1245 1.11051E-01
 -1      1246 8.11333E-02
 -1      1247 1.16075E-01
 -1      1248 2.08317E-01
 -1      1249 2.86848E-01
 -1      1250 2.16420E-01
 -1      1251 2.69662E+01
 -1      1252 3.65121E+01
 -1      1253 4.60581E+01
 -1      1254 3.21619E+01
 -1      1255 1.50997E+01
 -1      1256 1.21421E+01
 -1      1257 1.23505E+01
 -1      1258 1.22009E+01
 -1      1259 1.20513E+01
 -1      1260 1.31718E+01
 -1      1261 2.39743E+01
 -1      1262 3.36564E+01
 -1      1263 3.00825E+01
 -1      1264 2.63261E+01
 -1      1265 2.61435E+01
 -1      1266 2.65654E+01
 -1      1267 2.96364E+01
 -1      1268 3.22854E+01
 -1      1269 2.26936E+01
 -1      1270 1.27731E+01
 -1      1271 1.24443E+01
 -1      1272 1.22036E+01
 -1      1273 1.20267E+01
 -1      1274 1.20904E+01
 -1      1275 1.69033E+01
 -1      1276 3.51334E+01
 -1      1277 4.85508E+01
 -1      1278 3.75142E+01
 -1      1279 2.67219E+01
 -1      1280 1.31460E+01
 -1      1281 4.87054E+00
 -1      1282 9.61193E+00
 -1      1283 2.06253E+00
 -1      1284 2.98144E+00
 -1      1285 4.18874E+00
 -1      1286 1.39699E+00
 -1      1287 1.66512E+00
 -1      1288 1.90222E+00
 -1      1289 1.10021E+00
 -1      1290 1.22330E+00
 -1      1291 1.33111E+00
 -1      1292 9.35550E-01
 -1      1293 1.00728E+00
 -1      1294 1.06449E+00
 -1      1295 8.36518E-01
 -1      1296 8.81902E-01
 -1      1297 9.17917E-01
 -1      1298 7.75336E-01
 -1      1299 8.02515E-01
 -1      1300 8.30266E-01
 -1      1301 7.56372E-01
 -1      1302 7.55391E-01
 -1      1303 7.76318E-01
 -1      1304 8.06380E-01
 -1      1305 7.78034E-01
 -1      1306 7.78034E-01
 -1      1307 8.83779E-01
 -1      1308 8.40097E-01
 -1      1309 8.33414E-01
 -1      1310 1.01618E+00
 -1      1311 9.40469E-01
 -1      1312 9.23822E-01
 -1      1313 1.23920E+00
 -1      1314 1.11174E+00
 -1      1315 1.07608E+00
 -1      1316 1.68039E+00
 -1      1317 1.41662E+00
 -1      1318 1.34905E+00
 -1      1319 2.88228E+00
 -1      1320 2.04701E+00
 -1      1321 1.89308E+00
 -1      1322 6.28708E+00
 -1      1323 3.71789E+00
 -1      1324 3.09531E+00
 -1      1325 1.40419E+01
 -1      1326 1.13426E+01
 -1      1327 8.98641E+00
 -1      1328 1.40419E+01
 -1      1329 8.73321E+00
 -1      1330 4.32040E+00
 -1      1331 3.83251E+00
 -1      1332 3.34462E+00
 -1      1333 3.83251E+00
 -1      1334 2.73002E+00
 -1      1335 2.11542E+00
 -1      1336 2.73002E+00
 -1      1337 1.78336E+00
 -1      1338 1.40931E+00
 -1      1339 1.78336E+00
 -1      1340 1.19887E+00
 -1      1341 1.02405E+00
 -1      1342 1.24085E+00
 -1      1343 8.98863E-01
 -1      1344 7.80043E-01
 -1      1345 9.05229E-01
 -1      1346 6.91044E-01
 -1      1347 6.02046E-01
 -1      1348 6.91044E-01
 -1      1349 5.38908E-01
 -1      1350 4.70012E-01
 -1      1351 5.38908E-01
 -1      1352 4.21168E-01
 -1      1353 3.68107E-01
 -1      1354 4.26925E-01
 -1      1355 3.29004E-01
 -1      1356 2.91164E-01
 -1      1357 3.38978E-01
 -1      1358 2.63882E-01
 -1      1359 2.34157E-01
 -1      1360 2.72593E-01
 -1      1361 2.11276E-01
 -1      1362 1.88668E-01
 -1      1363 2.22430E-01
 -1      1364 1.70035E-01
 -1      1365 1.53565E-01
 -1      1366 1.80917E-01
 -1      1367 1.38751E-01
 -1      1368 1.27490E-01
 -1      1369 1.47470E-01
 -1      1370 1.17632E-01
 -1      1371 1.13258E-01
 -1      1372 1.22798E-01
 -1      1373 1.13574E-01
 -1      1374 1.19496E-01
 -1      1375 1.13258E-01
 -1      1376 1.27581E-01
 -1      1377 1.42580E-01
 -1      1378 1.21659E-01
 -1      1379 1.58366E-01
 -1      1380 1.79579E-01
 -1      1381 1.45529E-01
 -1      1382 2.00399E-01
 -1      1383 2.28371E-01
 -1      1384 1.82136E-01
 -1      1385 2.54387E-01
 -1      1386 2.89303E-01
 -1      1387 2.28972E-01
 -1      1388 3.23617E-01
 -1      1389 3.64918E-01
 -1      1390 2.89303E-01
 -1      1391 4.17813E-01
 -1      1392 4.63606E-01
 -1      1393 3.76512E-01
 -1      1394 5.31117E-01
 -1      1395 5.77345E-01
 -1      1396 4.96918E-01
 -1      1397 6.52435E-01
 -1      1398 7.31876E-01
 -1      1399 6.39519E-01
 -1      1400 8.07427E-01
 -1      1401 9.06786E-01
 -1      1402 7.90160E-01
 -1      1403 9.72307E-01
 -1      1404 1.09237E+00
 -1      1405 9.31231E-01
 -1      1406 1.18799E+00
 -1      1407 1.30644E+00
 -1      1408 1.09237E+00
 -1      1409 1.42489E+00
 -1      1410 1.48933E+00
 -1      1411 1.30644E+00
 -1      1412 1.55378E+00
 -1      1413 1.55378E+00
 -1      1414 1.48933E+00
 -1      1415 1.52399E+00
 -1      1416 1.53253E+00
 -1      1417 1.52399E+00
 -1      1418 1.57086E+00
 -1      1419 1.59055E+00
 -1      1420 1.53253E+00
 -1      1421 1.61023E+00
 -1      1422 1.85214E+00
 -1      1423 1.59055E+00
 -1      1424 2.20498E+00
 -1      1425 3.04507E+00
 -1      1426 1.96307E+00
 -1      1427 3.77424E+00
 -1      1428 4.16720E+00
 -1      1429 3.04507E+00
 -1      1430 4.56015E+00
 -1      1431 4.56015E+00
 -1      1432 4.16720E+00
 -1      1433 4.53965E+00
 -1      1434 4.51915E+00
 -1      1435 4.53965E+00
 -1      1436 4.23071E+00
 -1      1437 3.94226E+00
 -1      1438 4.23071E+00
 -1      1439 3.19640E+00
 -1      1440 2.37582E+00
 -1      1441 3.19640E+00
 -1      1442 1.96402E+00
 -1      1443 1.62692E+00
 -1      1444 2.03873E+00
 -1      1445 1.54771E+00
 -1      1446 1.46849E+00
 -1      1447 1.54771E+00
 -1      1448 1.43892E+00
 -1      1449 1.47326E+00
 -1      1450 1.43892E+00
 -1      1451 1.53717E+00
 -1      1452 1.53717E+00
 -1      1453 1.47326E+00
 -1      1454 1.46186E+00
 -1      1455 1.38654E+00
 -1      1456 1.46186E+00
 -1      1457 1.23379E+00
 -1      1458 1.08104E+00
 -1      1459 1.23379E+00
 -1      1460 1.01383E+00
 -1      1461 9.46613E-01
 -1      1462 1.01383E+00
 -1      1463 9.18472E-01
 -1      1464 8.90331E-01
 -1      1465 9.18472E-01
 -1      1466 7.99627E-01
 -1      1467 7.08923E-01
 -1      1468 7.99627E-01
 -1      1469 6.35711E-01
 -1      1470 5.62499E-01
 -1      1471 6.35711E-01
 -1      1472 4.36054E-01
 -1      1473 4.36054E-01
 -1      1474 3.39644E+00
 -1      1475 8.71918E+00
 -1      1476 8.71918E+00
 -1      1477 2.41554E+00
 -1      1478 2.90599E+00
 -1      1479 2.90599E+00
 -1      1480 1.66882E+00
 -1      1481 2.04218E+00
 -1      1482 2.04218E+00
 -1      1483 1.14829E+00
 -1      1484 1.40856E+00
 -1      1485 1.40856E+00
 -1      1486 9.08213E-01
 -1      1487 1.02825E+00
 -1      1488 1.02825E+00
 -1      1489 7.34652E-01
 -1      1490 8.21433E-01
 -1      1491 8.21433E-01
 -1      1492 5.92874E-01
 -1      1493 6.63763E-01
 -1      1494 6.63763E-01
 -1      1495 4.75723E-01
 -1      1496 5.34298E-01
 -1      1497 5.34298E-01
 -1      1498 3.79560E-01
 -1      1499 4.27641E-01
 -1      1500 4.27641E-01
 -1      1501 3.07067E-01
 -1      1502 3.43314E-01
 -1      1503 3.43314E-01
 -1      1504 2.49981E-01
 -1      1505 2.78524E-01
 -1      1506 2.78524E-01
 -1      1507 2.05054E-01
 -1      1508 2.27517E-01
 -1      1509 2.27517E-01
 -1      1510 1.71734E-01
 -1      1511 1.88394E-01
 -1      1512 1.88394E-01
 -1      1513 1.49257E-01
 -1      1514 1.60495E-01
 -1      1515 1.60495E-01
 -1      1516 1.42452E-01
 -1      1517 1.45001E-01
 -1      1518 1.45001E-01
 -1      1519 1.50429E-01
 -1      1520 1.44159E-01
 -1      1521 1.42452E-01
 -1      1522 1.66807E-01
 -1      1523 1.56699E-01
 -1      1524 1.50429E-01
 -1      1525 1.89847E-01
 -1      1526 1.76915E-01
 -1      1527 1.66807E-01
 -1      1528 2.28866E-01
 -1      1529 2.09443E-01
 -1      1530 1.96512E-01
 -1      1531 2.84237E-01
 -1      1532 2.53898E-01
 -1      1533 2.41140E-01
 -1      1534 3.46179E-01
 -1      1535 3.11948E-01
 -1      1536 2.93883E-01
 -1      1537 4.09615E-01
 -1      1538 3.74219E-01
 -1      1539 3.49635E-01
 -1      1540 4.73332E-01
 -1      1541 4.41554E-01
 -1      1542 4.09615E-01
 -1      1543 5.25778E-01
 -1      1544 5.05110E-01
 -1      1545 4.73332E-01
 -1      1546 5.53102E-01
 -1      1547 5.46445E-01
 -1      1548 5.25778E-01
 -1      1549 6.70657E-01
 -1      1550 5.90536E-01
 -1      1551 5.83879E-01
 -1      1552 8.09719E-01
 -1      1553 7.24559E-01
 -1      1554 6.75215E-01
 -1      1555 9.39806E-01
 -1      1556 8.90320E-01
 -1      1557 8.09719E-01
 -1      1558 1.09961E+00
 -1      1559 9.89292E-01
 -1      1560 9.39806E-01
 -1      1561 1.29554E+00
 -1      1562 1.20992E+00
 -1      1563 1.09961E+00
 -1      1564 1.41798E+00
 -1      1565 1.38115E+00
 -1      1566 1.29554E+00
 -1      1567 1.60306E+00
 -1      1568 1.45480E+00
 -1      1569 1.41798E+00
 -1      1570 2.07389E+00
 -1      1571 1.75131E+00
 -1      1572 1.60306E+00
 -1      1573 2.72750E+00
 -1      1574 2.39648E+00
 -1      1575 2.07389E+00
 -1      1576 3.21890E+00
 -1      1577 3.05852E+00
 -1      1578 2.72750E+00
 -1      1579 3.37927E+00
 -1      1580 3.37927E+00
 -1      1581 3.21890E+00
 -1      1582 3.36545E+00
 -1      1583 3.37236E+00
 -1      1584 3.37236E+00
 -1      1585 2.46208E+00
 -1      1586 2.91377E+00
 -1      1587 2.91377E+00
 -1      1588 1.40760E+00
 -1      1589 1.93484E+00
 -1      1590 1.93484E+00
 -1      1591 9.23246E-01
 -1      1592 1.16542E+00
 -1      1593 1.16542E+00
 -1      1594 9.91984E-01
 -1      1595 9.15296E-01
 -1      1596 9.15296E-01
 -1      1597 1.12628E+00
 -1      1598 1.07662E+00
 -1      1599 9.91984E-01
 -1      1600 1.17594E+00
 -1      1601 1.17594E+00
 -1      1602 1.12628E+00
 -1      1603 1.07491E+00
 -1      1604 1.12542E+00
 -1      1605 1.12542E+00
 -1      1606 8.50925E-01
 -1      1607 9.62917E-01
 -1      1608 9.62917E-01
 -1      1609 7.36048E-01
 -1      1610 7.93487E-01
 -1      1611 7.93487E-01
 -1      1612 5.94460E-01
 -1      1613 6.65254E-01
 -1      1614 6.65254E-01
 -1      1615 3.54277E-01
 -1      1616 4.78361E-01
 -1      1617 4.78361E-01
 -1      1618 2.58816E-01
 -1      1619 1.94953E-01
 -1      1620 1.94953E-01
 -1      1621 1.82217E-01
 -1      1622 1.97467E-01
 -1      1623 2.21081E-01
 -1      1624 1.54819E-01
 -1      1625 1.82217E-01
 -1      1626 2.23594E-01
 -1      1627 8.98641E-02
 -1      1628 1.08445E-01
 -1      1629 1.77220E-01
 -1      1630 1.45402E-01
 -1      1631 1.15109E-01
 -1      1632 1.56091E-01
 -1      1633 2.16360E-01
 -1      1634 1.92511E-01
 -1      1635 2.28444E-01
 -1      1636 2.57791E-01
 -1      1637 2.46182E-01
 -1      1638 3.05375E-01
 -1      1639 2.61690E-01
 -1      1640 2.61690E-01
 -1      1641 3.39096E-01
 -1      1642 2.59237E-01
 -1      1643 2.61690E-01
 -1      1644 3.42995E-01
 -1      1645 2.28623E-01
 -1      1646 2.46642E-01
 -1      1647 3.30401E-01
 -1      1648 1.62322E-01
 -1      1649 1.90710E-01
 -1      1650 2.79893E-01
 -1      1651 1.05325E-01
 -1      1652 1.06855E-01
 -1      1653 1.86514E-01
 -1      1654 1.93297E-01
 -1      1655 1.56825E-01
 -1      1656 1.82547E-01
 -1      1657 2.49067E-01
 -1      1658 1.93297E-01
 -1      1659 2.34047E-01
 -1      1660 3.10621E-01
 -1      1661 2.87860E-01
 -1      1662 2.72839E-01
 -1      1663 4.37065E-01
 -1      1664 2.98283E+01
 -1      1665 2.98283E+01
 -1      1666 3.67902E+01
 -1      1667 2.72443E+01
 -1      1668 4.60581E+01
 -1      1669 4.60581E+01
 -1      1670 1.87514E+01
 -1      1671 3.26476E+01
 -1      1672 1.14207E+01
 -1      1673 1.45867E+01
 -1      1674 1.21421E+01
 -1      1675 1.19337E+01
 -1      1676 1.23505E+01
 -1      1677 1.23505E+01
 -1      1678 1.20313E+01
 -1      1679 1.21810E+01
 -1      1680 1.20513E+01
 -1      1681 1.20513E+01
 -1      1682 1.29842E+01
 -1      1683 1.18637E+01
 -1      1684 2.39743E+01
 -1      1685 1.42923E+01
 -1      1686 3.36564E+01
 -1      1687 3.36564E+01
 -1      1688 2.86117E+01
 -1      1689 3.21856E+01
 -1      1690 2.71238E+01
 -1      1691 2.73063E+01
 -1      1692 2.94197E+01
 -1      1693 2.94197E+01
 -1      1694 2.60134E+01
 -1      1695 2.55914E+01
 -1      1696 3.15249E+01
 -1      1697 2.88759E+01
 -1      1698 3.22854E+01
 -1      1699 3.22854E+01
 -1      1700 1.31019E+01
 -1      1701 2.26936E+01
 -1      1702 1.22292E+01
 -1      1703 1.25580E+01
 -1      1704 1.24443E+01
 -1      1705 1.24443E+01
 -1      1706 1.17555E+01
 -1      1707 1.19962E+01
 -1      1708 1.20267E+01
 -1      1709 1.19629E+01
 -1      1710 1.20904E+01
 -1      1711 1.20904E+01
 -1      1712 1.66022E+01
 -1      1713 1.17894E+01
 -1      1714 3.61294E+01
 -1      1715 2.27121E+01
 -1      1716 4.85508E+01
 -1      1717 4.85508E+01
 -1      1718 2.81506E+01
 -1      1719 3.91871E+01
 -1      1720 2.98283E+01
 -1      1721 2.95840E+01
 -1      1722 1.50725E+01
 -1      1723 3.26476E+01
 -1      1724 2.66800E-01
 -1      1725 2.90415E-01
 -1      1726 3.01064E+01
 -1      1727 3.67902E+01
 -1      1728 3.26904E+01
 -1      1729 1.14207E+01
 -1      1730 1.21421E+01
 -1      1731 1.21810E+01
 -1      1732 1.20313E+01
 -1      1733 1.18637E+01
 -1      1734 1.29842E+01
 -1      1735 2.39743E+01
 -1      1736 3.21856E+01
 -1      1737 2.94094E+01
 -1      1738 3.03999E+01
 -1      1739 2.88676E+01
 -1      1740 2.79019E+01
 -1      1741 3.15249E+01
 -1      1742 2.26936E+01
 -1      1743 1.25580E+01
 -1      1744 1.22292E+01
 -1      1745 1.19962E+01
 -1      1746 1.17555E+01
 -1      1747 1.20267E+01
 -1      1748 1.17894E+01
 -1      1749 1.75982E+01
 -1      1750 3.61294E+01
 -1      1751 3.91871E+01
 -1      1752 3.12569E+01
 -1      1753 9.61193E+00
 -1      1754 1.28686E+00
 -1      1755 1.68427E+00
 -1      1756 2.38907E+00
 -1      1757 4.27817E+00
 -1      1758 1.77371E+00
 -1      1759 8.79861E-01
 -1      1760 9.72788E-01
 -1      1761 7.79445E-01
 -1      1762 8.33092E-01
 -1      1763 7.41389E-01
 -1      1764 7.13997E-01
 -1      1765 7.48001E-01
 -1      1766 6.63175E-01
 -1      1767 6.72045E-01
 -1      1768 6.91990E-01
 -1      1769 6.09724E-01
 -1      1770 6.95309E-01
 -1      1771 6.73647E-01
 -1      1772 5.89320E-01
 -1      1773 7.50735E-01
 -1      1774 7.17018E-01
 -1      1775 6.12630E-01
 -1      1776 8.40637E-01
 -1      1777 7.83946E-01
 -1      1778 6.67550E-01
 -1      1779 9.83663E-01
 -1      1780 8.88097E-01
 -1      1781 7.48222E-01
 -1      1782 1.22868E+00
 -1      1783 1.05127E+00
 -1      1784 8.63292E-01
 -1      1785 1.70913E+00
 -1      1786 1.34251E+00
 -1      1787 1.04473E+00
 -1      1788 2.62930E+00
 -1      1789 1.79370E+00
 -1      1790 1.24313E+00
 -1      1791 8.12200E+00
 -1      1792 3.06650E+00
 -1      1793 1.76489E+00
 -1      1794 2.79927E+00
 -1      1795 5.19912E+00
 -1      1796 2.16570E+00
 -1      1797 2.65616E+00
 -1      1798 2.05898E+00
 -1      1799 3.39945E+00
 -1      1800 2.53867E+00
 -1      1801 1.92407E+00
 -1      1802 1.69335E+00
 -1      1803 1.36129E+00
 -1      1804 1.50200E+00
 -1      1805 1.18139E+00
 -1      1806 9.70955E-01
 -1      1807 1.09139E+00
 -1      1808 8.45875E-01
 -1      1809 7.20688E-01
 -1      1810 7.86414E-01
 -1      1811 6.61993E-01
 -1      1812 5.72994E-01
 -1      1813 6.02638E-01
 -1      1814 5.25266E-01
 -1      1815 4.62128E-01
 -1      1816 4.96215E-01
 -1      1817 4.20399E-01
 -1      1818 3.71555E-01
 -1      1819 4.06758E-01
 -1      1820 3.38978E-01
 -1      1821 2.99875E-01
 -1      1822 3.32452E-01
 -1      1823 2.72982E-01
 -1      1824 2.45699E-01
 -1      1825 2.72982E-01
 -1      1826 2.22938E-01
 -1      1827 2.00057E-01
 -1      1828 2.23327E-01
 -1      1829 1.81219E-01
 -1      1830 1.62587E-01
 -1      1831 1.81727E-01
 -1      1832 1.47470E-01
 -1      1833 1.32656E-01
 -1      1834 1.47772E-01
 -1      1835 1.21430E-01
 -1      1836 1.11572E-01
 -1      1837 1.21430E-01
 -1      1838 1.05537E-01
 -1      1839 1.05853E-01
 -1      1840 1.04168E-01
 -1      1841 1.10483E-01
 -1      1842 1.18567E-01
 -1      1843 1.02762E-01
 -1      1844 1.29743E-01
 -1      1845 1.45529E-01
 -1      1846 1.18567E-01
 -1      1847 1.61316E-01
 -1      1848 1.82136E-01
 -1      1849 1.45529E-01
 -1      1850 2.08309E-01
 -1      1851 2.34324E-01
 -1      1852 1.87488E-01
 -1      1853 2.75909E-01
 -1      1854 3.10223E-01
 -1      1855 2.55245E-01
 -1      1856 3.60956E-01
 -1      1857 4.13851E-01
 -1      1858 3.47562E-01
 -1      1859 4.73606E-01
 -1      1860 5.41117E-01
 -1      1861 4.58050E-01
 -1      1862 6.07910E-01
 -1      1863 6.83001E-01
 -1      1864 5.84599E-01
 -1      1865 7.51839E-01
 -1      1866 8.27389E-01
 -1      1867 7.20230E-01
 -1      1868 8.88945E-01
 -1      1869 9.54466E-01
 -1      1870 8.50624E-01
 -1      1871 1.00636E+00
 -1      1872 1.10198E+00
 -1      1873 9.64077E-01
 -1      1874 1.16217E+00
 -1      1875 1.28062E+00
 -1      1876 1.07616E+00
 -1      1877 1.30765E+00
 -1      1878 1.37210E+00
 -1      1879 1.16338E+00
 -1      1880 1.31717E+00
 -1      1881 1.28738E+00
 -1      1882 1.13549E+00
 -1      1883 1.23666E+00
 -1      1884 1.27499E+00
 -1      1885 1.02984E+00
 -1      1886 1.32937E+00
 -1      1887 1.34905E+00
 -1      1888 1.03350E+00
 -1      1889 1.57970E+00
 -1      1890 1.93253E+00
 -1      1891 1.31852E+00
 -1      1892 2.21359E+00
 -1      1893 2.94276E+00
 -1      1894 1.83021E+00
 -1      1895 3.22615E+00
 -1      1896 3.61910E+00
 -1      1897 2.39466E+00
 -1      1898 3.56052E+00
 -1      1899 3.54003E+00
 -1      1900 2.61948E+00
 -1      1901 3.59385E+00
 -1      1902 3.30540E+00
 -1      1903 2.61472E+00
 -1      1904 3.07865E+00
 -1      1905 2.33279E+00
 -1      1906 2.44179E+00
 -1      1907 2.05979E+00
 -1      1908 1.64799E+00
 -1      1909 1.94205E+00
 -1      1910 1.36602E+00
 -1      1911 1.28680E+00
 -1      1912 1.38708E+00
 -1      1913 1.24898E+00
 -1      1914 1.21942E+00
 -1      1915 1.06730E+00
 -1      1916 1.19012E+00
 -1      1917 1.25402E+00
 -1      1918 1.00018E+00
 -1      1919 1.30864E+00
 -1      1920 1.23332E+00
 -1      1921 1.02549E+00
 -1      1922 1.18749E+00
 -1      1923 1.03473E+00
 -1      1924 1.03427E+00
 -1      1925 9.48245E-01
 -1      1926 8.81032E-01
 -1      1927 9.01941E-01
 -1      1928 8.27629E-01
 -1      1929 7.99488E-01
 -1      1930 7.62048E-01
 -1      1931 7.63558E-01
 -1      1932 6.72854E-01
 -1      1933 6.72715E-01
 -1      1934 6.00511E-01
 -1      1935 5.27299E-01
 -1      1936 4.01866E-01
 -1      1937 5.64442E-01
 -1      1938 1.40076E+00
 -1      1939 1.77412E+00
 -1      1940 1.52428E+00
 -1      1941 1.02158E+00
 -1      1942 1.28184E+00
 -1      1943 1.01378E+00
 -1      1944 8.08102E-01
 -1      1945 9.28142E-01
 -1      1946 8.01425E-01
 -1      1947 6.42288E-01
 -1      1948 7.29068E-01
 -1      1949 6.28958E-01
 -1      1950 5.18040E-01
 -1      1951 5.88930E-01
 -1      1952 4.96565E-01
 -1      1953 4.26926E-01
 -1      1954 4.85502E-01
 -1      1955 4.10668E-01
 -1      1956 3.47819E-01
 -1      1957 3.95900E-01
 -1      1958 3.47104E-01
 -1      1959 2.83772E-01
 -1      1960 3.20018E-01
 -1      1961 2.88277E-01
 -1      1962 2.33168E-01
 -1      1963 2.61711E-01
 -1      1964 2.38416E-01
 -1      1965 1.93102E-01
 -1      1966 2.15566E-01
 -1      1967 1.98753E-01
 -1      1968 1.62613E-01
 -1      1969 1.79273E-01
 -1      1970 1.67321E-01
 -1      1971 1.40877E-01
 -1      1972 1.52115E-01
 -1      1973 1.42994E-01
 -1      1974 1.30595E-01
 -1      1975 1.34851E-01
 -1      1976 1.26471E-01
 -1      1977 1.31217E-01
 -1      1978 1.29510E-01
 -1      1979 1.19360E-01
 -1      1980 1.39573E-01
 -1      1981 1.33302E-01
 -1      1982 1.20360E-01
 -1      1983 1.61607E-01
 -1      1984 1.51499E-01
 -1      1985 1.34372E-01
 -1      1986 1.97896E-01
 -1      1987 1.78299E-01
 -1      1988 1.62991E-01
 -1      1989 2.57685E-01
 -1      1990 2.32653E-01
 -1      1991 2.14440E-01
 -1      1992 3.27783E-01
 -1      1993 3.00072E-01
 -1      1994 2.91585E-01
 -1      1995 4.04456E-01
 -1      1996 3.76415E-01
 -1      1997 3.82605E-01
 -1      1998 4.88662E-01
 -1      1999 4.56723E-01
 -1      2000 4.83504E-01
 -1      2001 5.71056E-01
 -1      2002 5.39278E-01
 -1      2003 5.86387E-01
 -1      2004 6.33031E-01
 -1      2005 6.12363E-01
 -1      2006 6.78309E-01
 -1      2007 7.09421E-01
 -1      2008 6.71988E-01
 -1      2009 7.58573E-01
 -1      2010 7.69679E-01
 -1      2011 7.15777E-01
 -1      2012 8.03886E-01
 -1      2013 8.50281E-01
 -1      2014 7.69679E-01
 -1      2015 8.10241E-01
 -1      2016 8.51161E-01
 -1      2017 8.01675E-01
 -1      2018 7.61635E-01
 -1      2019 9.01887E-01
 -1      2020 7.91573E-01
 -1      2021 6.53441E-01
 -1      2022 1.02715E+00
 -1      2023 9.41535E-01
 -1      2024 6.33501E-01
 -1      2025 1.36453E+00
 -1      2026 1.32770E+00
 -1      2027 9.73700E-01
 -1      2028 1.75096E+00
 -1      2029 1.60271E+00
 -1      2030 1.51243E+00
 -1      2031 2.11605E+00
 -1      2032 1.79347E+00
 -1      2033 1.79312E+00
 -1      2034 2.44707E+00
 -1      2035 2.11605E+00
 -1      2036 1.83563E+00
 -1      2037 2.61011E+00
 -1      2038 2.44974E+00
 -1      2039 1.83829E+00
 -1      2040 2.71244E+00
 -1      2041 2.71935E+00
 -1      2042 1.95019E+00
 -1      2043 2.09356E+00
 -1      2044 2.54524E+00
 -1      2045 1.89224E+00
 -1      2046 1.26647E+00
 -1      2047 1.79371E+00
 -1      2048 1.42519E+00
 -1      2049 7.87407E-01
 -1      2050 1.02959E+00
 -1      2051 8.88457E-01
 -1      2052 7.22264E-01
 -1      2053 7.30213E-01
 -1      2054 5.94374E-01
 -1      2055 8.91951E-01
 -1      2056 8.07314E-01
 -1      2057 6.22231E-01
 -1      2058 9.87064E-01
 -1      2059 9.37406E-01
 -1      2060 7.52736E-01
 -1      2061 9.33618E-01
 -1      2062 9.84131E-01
 -1      2063 7.95258E-01
 -1      2064 7.67170E-01
 -1      2065 8.79162E-01
 -1      2066 7.37870E-01
 -1      2067 6.69123E-01
 -1      2068 7.26561E-01
 -1      2069 6.42806E-01
 -1      2070 5.58376E-01
 -1      2071 6.29170E-01
 -1      2072 5.62244E-01
 -1      2073 3.62262E-01
 -1      2074 4.78361E-01
 -1      2075 4.42276E-01
 -1      2076 2.90415E-01
 -1      2077 1.91061E-01
 -1      2078 2.37435E-01
 -1      2079 3.07767E-01
 -1      2080 3.07767E-01
 -1      2081 3.21608E-01
 -1      2082 3.07767E-01
 -1      2083 3.05254E-01
 -1      2084 3.77101E-01
 -1      2085 3.91940E-01
 -1      2086 1.99127E-01
 -1      2087 1.73882E-01
 -1      2088 2.34097E-01
 -1      2089 3.16677E-01
 -1      2090 2.69569E-01
 -1      2091 2.87360E-01
 -1      2092 3.99489E-01
 -1      2093 3.69667E-01
 -1      2094 4.10791E-01
 -1      2095 4.17039E-01
 -1      2096 4.13140E-01
 -1      2097 4.77432E-01
 -1      2098 4.18518E-01
 -1      2099 4.18518E-01
 -1      2100 4.92562E-01
 -1      2101 4.05924E-01
 -1      2102 4.18518E-01
 -1      2103 4.94041E-01
 -1      2104 3.40232E-01
 -1      2105 3.78145E-01
 -1      2106 4.66262E-01
 -1      2107 2.20959E-01
 -1      2108 2.76426E-01
 -1      2109 3.74677E-01
 -1      2110 2.46577E-01
 -1      2111 1.95077E-01
 -1      2112 2.84990E-01
 -1      2113 3.12895E-01
 -1      2114 3.12895E-01
 -1      2115 3.25425E-01
 -1      2116 3.67902E+01
 -1      2117 2.75224E+01
 -1      2118 3.26904E+01
 -1      2119 3.26904E+01
 -1      2120 2.74364E+01
 -1      2121 3.00204E+01
 -1      2122 2.74364E+01
 -1      2123 1.73562E+01
 -1      2124 3.07666E+01
 -1      2125 9.55830E+00
 -1      2126 1.37230E+01
 -1      2127 1.18420E+01
 -1      2128 1.03470E+00
 -1      2129 1.20840E+00
 -1      2130 9.90444E-01
 -1      2131 8.50072E-01
 -1      2132 1.13871E+01
 -1      2133 1.11787E+01
 -1      2134 1.13670E+01
 -1      2135 1.15365E+01
 -1      2136 1.14844E+01
 -1      2137 1.14645E+01
 -1      2138 1.04284E+01
 -1      2139 1.06160E+01
 -1      2140 1.00492E+01
 -1      2141 1.10432E+01
 -1      2142 9.73510E+00
 -1      2143 2.31137E+01
 -1      2144 1.34316E+01
 -1      2145 2.55362E+01
 -1      2146 2.70070E+01
 -1      2147 1.64643E+01
 -1      2148 2.67736E+01
 -1      2149 2.80789E+01
 -1      2150 3.22927E+01
 -1      2151 2.99967E+01
 -1      2152 2.86663E+01
 -1      2153 2.88676E+01
 -1      2154 3.26959E+01
 -1      2155 2.75978E+01
 -1      2156 2.47353E+01
 -1      2157 2.85635E+01
 -1      2158 2.68271E+01
 -1      2159 2.60666E+01
 -1      2160 1.27204E+01
 -1      2161 2.23122E+01
 -1      2162 1.68539E+01
 -1      2163 9.47972E+00
 -1      2164 1.00236E+01
 -1      2165 1.08983E+01
 -1      2166 1.06833E+01
 -1      2167 1.11246E+01
 -1      2168 1.15727E+01
 -1      2169 1.16369E+01
 -1      2170 1.14295E+01
 -1      2171 1.10762E+01
 -1      2172 1.10124E+01
 -1      2173 9.25085E+00
 -1      2174 9.55190E+00
 -1      2175 1.67047E+01
 -1      2176 1.05948E+01
 -1      2177 3.29632E+01
 -1      2178 2.05419E+01
 -1      2179 2.98235E+01
 -1      2180 3.91871E+01
 -1      2181 2.99542E+01
 -1      2182 2.85207E+01
 -1      2183 9.68418E+00
 -1      2184 9.17123E+00
 -1      2185 8.92922E+00
 -1      2186 7.82178E+00
 -1      2187 2.91156E+00
 -1      2188 8.48745E+00
 -1      2189 2.10561E+00
 -1      2190 3.00204E+01
 -1      2191 2.14987E+01
 -1      2192 3.51687E-01
 -1      2193 2.99542E+01
 -1      2194 2.85207E+01
 -1      2195 2.35996E+01
 -1      2196 1.35385E+01
 -1      2197 8.35736E+00
 -1      2198 8.53766E+00
 -1      2199 1.06864E+01
 -1      2200 1.10060E+01
 -1      2201 1.00268E+01
 -1      2202 9.64211E+00
 -1      2203 2.29000E+01
 -1      2204 3.26959E+01
 -1      2205 3.22927E+01
 -1      2206 3.26959E+01
 -1      2207 2.49781E+01
 -1      2208 1.97995E+01
 -1      2209 2.23423E+01
 -1      2210 1.05731E+01
 -1      2211 1.08200E+01
 -1      2212 1.01825E+01
 -1      2213 8.14883E+00
 -1      2214 1.09176E+00
 -1      2215 1.48335E+00
 -1      2216 5.58960E-01
 -1      2217 5.90404E-01
 -1      2218 6.02519E-01
 -1      2219 6.49288E-01
 -1      2220 4.98303E-01
 -1      2221 5.11325E-01
 -1      2222 5.09723E-01
 -1      2223 5.45859E-01
 -1      2224 5.24151E-01
 -1      2225 4.44554E-01
 -1      2226 5.93725E-01
 -1      2227 5.60514E-01
 -1      2228 4.72034E-01
 -1      2229 6.53093E-01
 -1      2230 6.05632E-01
 -1      2231 4.98596E-01
 -1      2232 7.20702E-01
 -1      2233 6.53093E-01
 -1      2234 5.10504E-01
 -1      2235 8.82484E-01
 -1      2236 7.68653E-01
 -1      2237 5.58455E-01
 -1      2238 8.94859E-01
 -1      2239 1.01378E+00
 -1      2240 9.72843E-01
 -1      2241 1.26853E+00
 -1      2242 1.03782E+00
 -1      2243 6.13228E+00
 -1      2244 6.82563E+00
 -1      2245 6.13055E+00
 -1      2246 6.51762E+00
 -1      2247 9.88462E-01
 -1      2248 8.08568E-01
 -1      2249 7.54997E-01
 -1      2250 7.52155E-01
 -1      2251 6.27075E-01
 -1      2252 6.49229E-01
 -1      2253 5.71215E-01
 -1      2254 5.12520E-01
 -1      2255 5.36956E-01
 -1      2256 4.63455E-01
 -1      2257 4.15727E-01
 -1      2258 4.32032E-01
 -1      2259 3.89130E-01
 -1      2260 3.47401E-01
 -1      2261 3.56370E-01
 -1      2262 3.23107E-01
 -1      2263 2.90530E-01
 -1      2264 3.05479E-01
 -1      2265 2.67654E-01
 -1      2266 2.40761E-01
 -1      2267 2.58309E-01
 -1      2268 2.20411E-01
 -1      2269 1.97650E-01
 -1      2270 2.15084E-01
 -1      2271 1.80625E-01
 -1      2272 1.61787E-01
 -1      2273 1.77709E-01
 -1      2274 1.46885E-01
 -1      2275 1.31769E-01
 -1      2276 1.45783E-01
 -1      2277 1.19628E-01
 -1      2278 1.08401E-01
 -1      2279 1.18740E-01
 -1      2280 9.82782E-02
 -1      2281 9.22430E-02
 -1      2282 9.64761E-02
 -1      2283 8.95909E-02
 -1      2284 9.42200E-02
 -1      2285 8.37013E-02
 -1      2286 1.01544E-01
 -1      2287 1.12720E-01
 -1      2288 8.83729E-02
 -1      2289 1.26891E-01
 -1      2290 1.42678E-01
 -1      2291 1.09868E-01
 -1      2292 1.72177E-01
 -1      2293 1.98350E-01
 -1      2294 1.53539E-01
 -1      2295 2.34659E-01
 -1      2296 2.76243E-01
 -1      2297 2.19348E-01
 -1      2298 3.20501E-01
 -1      2299 3.71234E-01
 -1      2300 2.99915E-01
 -1      2301 4.24121E-01
 -1      2302 4.83876E-01
 -1      2303 3.97060E-01
 -1      2304 5.45166E-01
 -1      2305 6.11959E-01
 -1      2306 5.11237E-01
 -1      2307 6.79847E-01
 -1      2308 7.48685E-01
 -1      2309 6.40414E-01
 -1      2310 8.18877E-01
 -1      2311 8.80433E-01
 -1      2312 7.78494E-01
 -1      2313 9.45105E-01
 -1      2314 9.97002E-01
 -1      2315 9.13358E-01
 -1      2316 1.04398E+00
 -1      2317 1.10416E+00
 -1      2318 1.02501E+00
 -1      2319 1.19283E+00
 -1      2320 1.21987E+00
 -1      2321 1.16065E+00
 -1      2322 1.30652E+00
 -1      2323 1.25159E+00
 -1      2324 1.33597E+00
 -1      2325 1.30264E+00
 -1      2326 1.25192E+00
 -1      2327 1.47367E+00
 -1      2328 1.36841E+00
 -1      2329 1.42279E+00
 -1      2330 1.64121E+00
 -1      2331 1.67403E+00
 -1      2332 1.90468E+00
 -1      2333 2.00895E+00
 -1      2334 2.49819E+00
 -1      2335 2.77924E+00
 -1      2336 2.85371E+00
 -1      2337 2.87641E+00
 -1      2338 3.15981E+00
 -1      2339 3.54439E+00
 -1      2340 4.18407E+00
 -1      2341 4.12549E+00
 -1      2342 4.66581E+00
 -1      2343 3.02124E+00
 -1      2344 3.07507E+00
 -1      2345 4.58583E+00
 -1      2346 2.59367E+00
 -1      2347 2.36692E+00
 -1      2348 3.00020E+00
 -1      2349 2.07331E+00
 -1      2350 1.80032E+00
 -1      2351 2.22519E+00
 -1      2352 1.76543E+00
 -1      2353 1.48347E+00
 -1      2354 1.89670E+00
 -1      2355 1.43127E+00
 -1      2356 1.39345E+00
 -1      2357 1.80962E+00
 -1      2358 1.17097E+00
 -1      2359 1.14167E+00
 -1      2360 1.53494E+00
 -1      2361 1.08000E+00
 -1      2362 1.13461E+00
 -1      2363 1.25079E+00
 -1      2364 1.04543E+00
 -1      2365 9.99590E-01
 -1      2366 1.09993E+00
 -1      2367 9.37418E-01
 -1      2368 8.50929E-01
 -1      2369 9.48578E-01
 -1      2370 7.81756E-01
 -1      2371 7.28353E-01
 -1      2372 8.17234E-01
 -1      2373 6.47053E-01
 -1      2374 6.11123E-01
 -1      2375 6.66761E-01
 -1      2376 2.22132E+01
 -1      2377 2.21272E+01
 -1      2378 5.49924E-01
 -1      2379 6.28958E-01
 -1      2380 4.43207E-01
 -1      2381 4.96565E-01
 -1      2382 4.96565E-01
 -1      2383 3.78130E-01
 -1      2384 4.10668E-01
 -1      2385 4.10668E-01
 -1      2386 3.16077E-01
 -1      2387 3.47104E-01
 -1      2388 3.47104E-01
 -1      2389 2.60476E-01
 -1      2390 2.88277E-01
 -1      2391 2.88277E-01
 -1      2392 2.16355E-01
 -1      2393 2.38416E-01
 -1      2394 2.38416E-01
 -1      2395 1.79440E-01
 -1      2396 1.97042E-01
 -1      2397 1.97042E-01
 -1      2398 1.49148E-01
 -1      2399 1.62977E-01
 -1      2400 1.61266E-01
 -1      2401 1.24796E-01
 -1      2402 1.35293E-01
 -1      2403 1.30949E-01
 -1      2404 1.08699E-01
 -1      2405 1.14724E-01
 -1      2406 1.07024E-01
 -1      2407 1.01929E-01
 -1      2408 1.03014E-01
 -1      2409 9.12672E-02
 -1      2410 1.10969E-01
 -1      2411 1.08884E-01
 -1      2412 9.25378E-02
 -1      2413 1.32940E-01
 -1      2414 1.21013E-01
 -1      2415 1.09537E-01
 -1      2416 1.70418E-01
 -1      2417 1.53726E-01
 -1      2418 1.40366E-01
 -1      2419 2.37229E-01
 -1      2420 2.02471E-01
 -1      2421 1.93206E-01
 -1      2422 3.17717E-01
 -1      2423 2.75330E-01
 -1      2424 2.63361E-01
 -1      2425 4.10250E-01
 -1      2426 3.61618E-01
 -1      2427 3.45363E-01
 -1      2428 5.10722E-01
 -1      2429 4.58455E-01
 -1      2430 4.37469E-01
 -1      2431 6.10466E-01
 -1      2432 5.59850E-01
 -1      2433 5.34801E-01
 -1      2434 6.95862E-01
 -1      2435 6.54556E-01
 -1      2436 6.28019E-01
 -1      2437 7.72149E-01
 -1      2438 7.33192E-01
 -1      2439 7.09439E-01
 -1      2440 8.08354E-01
 -1      2441 8.01998E-01
 -1      2442 7.76618E-01
 -1      2443 8.38166E-01
 -1      2444 8.38166E-01
 -1      2445 8.36278E-01
 -1      2446 7.87481E-01
 -1      2447 8.36088E-01
 -1      2448 8.64012E-01
 -1      2449 7.21399E-01
 -1      2450 7.80987E-01
 -1      2451 8.55439E-01
 -1      2452 8.24086E-01
 -1      2453 7.84438E-01
 -1      2454 9.11984E-01
 -1      2455 1.21717E+00
 -1      2456 9.16620E-01
 -1      2457 1.06756E+00
 -1      2458 1.61989E+00
 -1      2459 1.38171E+00
 -1      2460 1.32463E+00
 -1      2461 1.79614E+00
 -1      2462 1.75363E+00
 -1      2463 1.62291E+00
 -1      2464 2.02045E+00
 -1      2465 2.02045E+00
 -1      2466 1.98096E+00
 -1      2467 2.00320E+00
 -1      2468 2.00053E+00
 -1      2469 2.18536E+00
 -1      2470 2.06501E+00
 -1      2471 1.95577E+00
 -1      2472 2.11802E+00
 -1      2473 1.68472E+00
 -1      2474 1.85192E+00
 -1      2475 1.85750E+00
 -1      2476 1.24563E+00
 -1      2477 1.54547E+00
 -1      2478 1.50515E+00
 -1      2479 8.65011E-01
 -1      2480 1.10190E+00
 -1      2481 1.22218E+00
 -1      2482 7.43690E-01
 -1      2483 8.00884E-01
 -1      2484 1.01433E+00
 -1      2485 7.44062E-01
 -1      2486 6.59011E-01
 -1      2487 8.65520E-01
 -1      2488 7.50591E-01
 -1      2489 7.05136E-01
 -1      2490 7.41916E-01
 -1      2491 7.19154E-01
 -1      2492 7.22087E-01
 -1      2493 6.74487E-01
 -1      2494 6.21710E-01
 -1      2495 6.76165E-01
 -1      2496 6.02995E-01
 -1      2497 5.44897E-01
 -1      2498 5.85506E-01
 -1      2499 5.23802E-01
 -1      2500 4.82062E-01
 -1      2501 5.22015E-01
 -1      2502 4.64715E-01
 -1      2503 4.57115E-01
 -1      2504 3.75539E-01
 -1      2505 3.05097E-01
 -1      2506 5.21489E-01
 -1      2507 4.68500E-01
 -1      2508 4.86237E-01
 -1      2509 2.92735E-01
 -1      2510 3.63067E-01
 -1      2511 2.82487E-01
 -1      2512 2.99667E-01
 -1      2513 3.41126E-01
 -1      2514 3.70666E-01
 -1      2515 5.79971E-01
 -1      2516 5.66319E-01
 -1      2517 6.24028E-01
 -1      2518 5.81449E-01
 -1      2519 5.79971E-01
 -1      2520 6.68858E-01
 -1      2521 5.78782E-01
 -1      2522 5.78782E-01
 -1      2523 6.66191E-01
 -1      2524 5.51003E-01
 -1      2525 5.78782E-01
 -1      2526 6.63524E-01
 -1      2527 4.26975E-01
 -1      2528 4.90781E-01
 -1      2529 6.03301E-01
 -1      2530 3.54147E-01
 -1      2531 3.80029E-01
 -1      2532 4.96133E-01
 -1      2533 4.20465E-01
 -1      2534 3.54147E-01
 -1      2535 4.49187E-01
 -1      2536 4.41921E-01
 -1      2537 2.99542E+01
 -1      2538 2.72180E+01
 -1      2539 7.07992E-01
 -1      2540 8.01425E-01
 -1      2541 6.28958E-01
 -1      2542 1.36865E+01
 -1      2543 1.97101E+01
 -1      2544 7.61512E+00
 -1      2545 1.12482E+01
 -1      2546 9.45962E+00
 -1      2547 5.92389E+00
 -1      2548 7.77273E+00
 -1      2549 6.27822E+00
 -1      2550 2.37231E+01
 -1      2551 2.50258E+01
 -1      2552 9.14729E+00
 -1      2553 8.99792E+00
 -1      2554 1.67875E+00
 -1      2555 1.30585E+00
 -1      2556 8.41668E-01
 -1      2557 9.73944E-01
 -1      2558 5.22532E-01
 -1      2559 5.44539E-01
 -1      2560 4.71768E-01
 -1      2561 4.44538E-01
 -1      2562 9.47893E+00
 -1      2563 9.38141E+00
 -1      2564 9.56788E+00
 -1      2565 7.17946E+00
 -1      2566 7.84105E+00
 -1      2567 8.70941E+00
 -1      2568 5.48588E+00
 -1      2569 6.59889E+00
 -1      2570 5.39533E+00
 -1      2571 1.50373E+01
 -1      2572 1.11440E+01
 -1      2573 2.86663E+01
 -1      2574 2.54431E+01
 -1      2575 2.44312E+01
 -1      2576 2.85635E+01
 -1      2577 1.87951E+01
 -1      2578 2.03263E+01
 -1      2579 1.18195E+01
 -1      2580 1.63344E+01
 -1      2581 6.51632E+00
 -1      2582 9.21315E+00
 -1      2583 8.82448E+00
 -1      2584 8.15010E+00
 -1      2585 9.93623E+00
 -1      2586 9.63134E+00
 -1      2587 7.75468E+00
 -1      2588 8.50870E+00
 -1      2589 9.13319E+00
 -1      2590 6.11243E+00
 -1      2591 7.63671E+00
 -1      2592 7.66791E+00
 -1      2593 6.32393E+00
 -1      2594 1.33595E+01
 -1      2595 9.52228E+00
 -1      2596 2.15494E+01
 -1      2597 1.53255E+01
 -1      2598 1.67517E+01
 -1      2599 2.73504E+01
 -1      2600 3.00204E+01
 -1      2601 1.62249E+00
 -1      2602 1.76560E+00
 -1      2603 1.32840E+00
 -1      2604 1.18997E+00
 -1      2605 7.80623E+00
 -1      2606 5.10418E-01
 -1      2607 6.49288E-01
 -1      2608 7.11202E-01
 -1      2609 8.01425E-01
 -1      2610 1.24384E+00
 -1      2611 7.48885E+00
 -1      2612 5.42298E+00
 -1      2613 7.75851E+00
 -1      2614 4.96638E+00
 -1      2615 4.97407E+00
 -1      2616 2.37231E+01
 -1      2617 1.44009E+01
 -1      2618 4.16886E-01
 -1      2619 4.16886E-01
 -1      2620 4.45749E-01
 -1      2621 3.95571E-01
 -1      2622 4.24293E-01
 -1      2623 5.18092E-01
 -1      2624 8.69368E+00
 -1      2625 1.37607E+01
 -1      2626 2.56024E+01
 -1      2627 2.28662E+01
 -1      2628 2.29324E+01
 -1      2629 9.67760E-01
 -1      2630 6.34692E+00
 -1      2631 2.03263E+01
 -1      2632 6.87217E-01
 -1      2633 7.65675E-01
 -1      2634 6.70716E-01
 -1      2635 4.86433E-01
 -1      2636 2.55184E+01
 -1      2637 2.22953E+01
 -1      2638 2.59216E+01
 -1      2639 1.56541E+01
 -1      2640 1.03338E+01
 -1      2641 1.50960E+01
 -1      2642 2.85635E+01
 -1      2643 2.23423E+01
 -1      2644 5.79130E+00
 -1      2645 4.12948E+00
 -1      2646 5.17666E+00
 -1      2647 8.14091E+00
 -1      2648 7.27082E+00
 -1      2649 7.52123E+00
 -1      2650 4.76773E+00
 -1      2651 6.31894E+00
 -1      2652 2.21272E+01
 -1      2653 6.08348E+00
 -1      2654 1.13092E+01
 -1      2655 3.88014E-01
 -1      2656 4.92430E-01
 -1      2657 4.22644E-01
 -1      2658 4.07989E-01
 -1      2659 4.00290E-01
 -1      2660 3.87465E-01
 -1      2661 3.50901E-01
 -1      2662 4.36082E-01
 -1      2663 4.36082E-01
 -1      2664 4.71913E-01
 -1      2665 4.23962E-01
 -1      2666 3.49541E-01
 -1      2667 7.19680E-01
 -1      2668 7.97665E-01
 -1      2669 6.00327E+00
 -1      2670 4.77808E+00
 -1      2671 3.63723E+00
 -1      2672 4.75822E+00
 -1      2673 5.52973E-01
 -1      2674 4.96559E-01
 -1      2675 4.90156E-01
 -1      2676 4.34297E-01
 -1      2677 3.93900E-01
 -1      2678 4.14001E-01
 -1      2679 3.64936E-01
 -1      2680 3.67201E-01
 -1      2681 3.40157E-01
 -1      2682 3.13560E-01
 -1      2683 3.22126E-01
 -1      2684 2.88604E-01
 -1      2685 2.64310E-01
 -1      2686 2.72390E-01
 -1      2687 2.48151E-01
 -1      2688 2.25275E-01
 -1      2689 2.31276E-01
 -1      2690 2.08555E-01
 -1      2691 1.88205E-01
 -1      2692 1.98396E-01
 -1      2693 1.73490E-01
 -1      2694 1.56466E-01
 -1      2695 1.66961E-01
 -1      2696 1.42753E-01
 -1      2697 1.27852E-01
 -1      2698 1.38534E-01
 -1      2699 1.15227E-01
 -1      2700 1.03086E-01
 -1      2701 1.12198E-01
 -1      2702 9.12910E-02
 -1      2703 8.11682E-02
 -1      2704 8.77781E-02
 -1      2705 6.96785E-02
 -1      2706 6.70265E-02
 -1      2707 6.44934E-02
 -1      2708 7.06433E-02
 -1      2709 7.79670E-02
 -1      2710 5.66206E-02
 -1      2711 9.33464E-02
 -1      2712 1.07518E-01
 -1      2713 7.56169E-02
 -1      2714 1.32098E-01
 -1      2715 1.61598E-01
 -1      2716 1.15577E-01
 -1      2717 1.91546E-01
 -1      2718 2.27856E-01
 -1      2719 1.70105E-01
 -1      2720 2.64476E-01
 -1      2721 3.08734E-01
 -1      2722 2.36675E-01
 -1      2723 3.53371E-01
 -1      2724 4.06259E-01
 -1      2725 3.17933E-01
 -1      2726 4.60231E-01
 -1      2727 5.21521E-01
 -1      2728 4.16543E-01
 -1      2729 5.86019E-01
 -1      2730 6.53906E-01
 -1      2731 5.35013E-01
 -1      2732 7.29825E-01
 -1      2733 8.00017E-01
 -1      2734 6.75429E-01
 -1      2735 8.87186E-01
 -1      2736 9.51858E-01
 -1      2737 8.38517E-01
 -1      2738 1.04826E+00
 -1      2739 1.09524E+00
 -1      2740 1.02209E+00
 -1      2741 1.19403E+00
 -1      2742 1.28270E+00
 -1      2743 1.21728E+00
 -1      2744 1.41762E+00
 -1      2745 1.50427E+00
 -1      2746 1.45100E+00
 -1      2747 1.74347E+00
 -1      2748 1.79452E+00
 -1      2749 1.82512E+00
 -1      2750 1.97823E+00
 -1      2751 2.09472E+00
 -1      2752 2.24803E+00
 -1      2753 2.00895E+00
 -1      2754 2.26020E+00
 -1      2755 2.34597E+00
 -1      2756 3.30574E+00
 -1      2757 3.89926E+00
 -1      2758 3.30574E+00
 -1      2759 4.56865E+00
 -1      2760 4.66581E+00
 -1      2761 5.69008E+00
 -1      2762 4.82574E+00
 -1      2763 3.72150E+00
 -1      2764 3.94233E+00
 -1      2765 3.46093E+00
 -1      2766 2.43434E+00
 -1      2767 2.14073E+00
 -1      2768 3.37647E+00
 -1      2769 2.66334E+00
 -1      2770 2.62845E+00
 -1      2771 2.87249E+00
 -1      2772 2.34797E+00
 -1      2773 2.29577E+00
 -1      2774 3.11461E+00
 -1      2775 2.01311E+00
 -1      2776 1.79063E+00
 -1      2777 2.55146E+00
 -1      2778 1.58242E+00
 -1      2779 1.52074E+00
 -1      2780 2.06058E+00
 -1      2781 1.31062E+00
 -1      2782 1.22144E+00
 -1      2783 1.64224E+00
 -1      2784 1.06964E+00
 -1      2785 1.00747E+00
 -1      2786 1.28033E+00
 -1      2787 9.05082E-01
 -1      2788 8.35909E-01
 -1      2789 1.02614E+00
 -1      2790 6.99634E-01
 -1      2791 6.18334E-01
 -1      2792 7.87482E-01
 -1      2793 6.58848E+00
 -1      2794 9.19479E+00
 -1      2795 5.25933E+00
 -1      2796 4.24293E-01
 -1      2797 4.49187E-01
 -1      2798 5.17324E-01
 -1      2799 4.21845E-01
 -1      2800 4.75204E-01
 -1      2801 2.50596E-01
 -1      2802 2.78396E-01
 -1      2803 2.10357E-01
 -1      2804 2.32417E-01
 -1      2805 2.22537E-01
 -1      2806 1.74100E-01
 -1      2807 1.93413E-01
 -1      2808 1.87414E-01
 -1      2809 1.42450E-01
 -1      2810 1.58912E-01
 -1      2811 1.55284E-01
 -1      2812 1.15212E-01
 -1      2813 1.29066E-01
 -1      2814 1.26712E-01
 -1      2815 9.32836E-02
 -1      2816 1.03355E-01
 -1      2817 1.01472E-01
 -1      2818 7.67562E-02
 -1      2819 8.24412E-02
 -1      2820 7.87726E-02
 -1      2821 8.46391E-02
 -1      2822 7.76835E-02
 -1      2823 6.88575E-02
 -1      2824 1.01380E-01
 -1      2825 9.13365E-02
 -1      2826 7.64822E-02
 -1      2827 1.45555E-01
 -1      2828 1.24769E-01
 -1      2829 1.06569E-01
 -1      2830 2.05633E-01
 -1      2831 1.73579E-01
 -1      2832 1.57982E-01
 -1      2833 2.77211E-01
 -1      2834 2.39109E-01
 -1      2835 2.19483E-01
 -1      2836 3.60553E-01
 -1      2837 3.16652E-01
 -1      2838 2.92401E-01
 -1      2839 4.54110E-01
 -1      2840 4.05905E-01
 -1      2841 3.77194E-01
 -1      2842 5.53509E-01
 -1      2843 5.04381E-01
 -1      2844 4.72817E-01
 -1      2845 6.50353E-01
 -1      2846 6.06263E-01
 -1      2847 5.75842E-01
 -1      2848 7.38376E-01
 -1      2849 7.01046E-01
 -1      2850 6.79290E-01
 -1      2851 8.09476E-01
 -1      2852 7.79628E-01
 -1      2853 7.71235E-01
 -1      2854 9.09217E-01
 -1      2855 8.79405E-01
 -1      2856 8.82415E-01
 -1      2857 9.79802E-01
 -1      2858 9.81880E-01
 -1      2859 1.02501E+00
 -1      2860 1.02523E+00
 -1      2861 1.03172E+00
 -1      2862 1.14959E+00
 -1      2863 1.16698E+00
 -1      2864 1.10394E+00
 -1      2865 1.28022E+00
 -1      2866 1.42223E+00
 -1      2867 1.32969E+00
 -1      2868 1.52165E+00
 -1      2869 1.60872E+00
 -1      2870 1.44418E+00
 -1      2871 1.70631E+00
 -1      2872 2.26566E+00
 -1      2873 2.13193E+00
 -1      2874 2.25147E+00
 -1      2875 3.16060E+00
 -1      2876 2.93628E+00
 -1      2877 3.44530E+00
 -1      2878 3.56814E+00
 -1      2879 3.58805E+00
 -1      2880 4.54337E+00
 -1      2881 3.25251E+00
 -1      2882 3.29994E+00
 -1      2883 4.70263E+00
 -1      2884 2.10088E+00
 -1      2885 2.31397E+00
 -1      2886 3.49589E+00
 -1      2887 1.59936E+00
 -1      2888 1.73861E+00
 -1      2889 2.19508E+00
 -1      2890 1.44704E+00
 -1      2891 1.59077E+00
 -1      2892 1.82422E+00
 -1      2893 1.29306E+00
 -1      2894 1.35719E+00
 -1      2895 1.72578E+00
 -1      2896 9.54211E-01
 -1      2897 1.03889E+00
 -1      2898 1.38175E+00
 -1      2899 8.44109E-01
 -1      2900 8.83035E-01
 -1      2901 1.05640E+00
 -1      2902 7.39146E-01
 -1      2903 7.67650E-01
 -1      2904 9.08769E-01
 -1      2905 6.13098E-01
 -1      2906 6.56087E-01
 -1      2907 7.49250E-01
 -1      2908 5.18649E-01
 -1      2909 5.54853E-01
 -1      2910 6.07945E-01
 -1      2911 4.49513E-01
 -1      2912 4.72396E-01
 -1      2913 5.03447E-01
 -1      2914 3.95694E-01
 -1      2915 7.73928E-01
 -1      2916 7.73928E-01
 -1      2917 6.10091E-01
 -1      2918 5.17130E-01
 -1      2919 7.85507E-01
 -1      2920 7.88174E-01
 -1      2921 8.93244E-01
 -1      2922 7.60302E-01
 -1      2923 7.15472E-01
 -1      2924 7.46365E-01
 -1      2925 8.65372E-01
 -1      2926 4.01832E+00
 -1      2927 3.87065E+00
 -1      2928 7.85507E-01
 -1      2929 7.85507E-01
 -1      2930 9.07490E-01
 -1      2931 6.85721E-01
 -1      2932 7.45943E-01
 -1      2933 8.67926E-01
 -1      2934 5.36012E-01
 -1      2935 5.82958E-01
 -1      2936 7.25600E-01
 -1      2937 4.49187E-01
 -1      2938 5.08848E-01
 -1      2939 5.87882E-01
 -1      2940 4.34128E-01
 -1      2941 1.12496E+01
 -1      2942 1.37527E+01
 -1      2943 8.28617E-01
 -1      2944 1.51192E+01
 -1      2945 1.16428E+01
 -1      2946 1.51551E+01
 -1      2947 1.92600E+01
 -1      2948 2.96574E-01
 -1      2949 3.27601E-01
 -1      2950 2.58893E-01
 -1      2951 3.55130E-01
 -1      2952 3.87668E-01
 -1      2953 3.04600E-01
 -1      2954 6.04048E-01
 -1      2955 5.54695E-01
 -1      2956 4.02024E-01
 -1      2957 2.08727E+01
 -1      2958 1.73778E+01
 -1      2959 1.22689E+01
 -1      2960 6.23626E-01
 -1      2961 5.86309E-01
 -1      2962 3.86007E-01
 -1      2963 4.15357E-01
 -1      2964 4.29319E+00
 -1      2965 5.30861E+00
 -1      2966 6.13252E-01
 -1      2967 7.06686E-01
 -1      2968 5.31507E-01
 -1      2969 4.93143E-01
 -1      2970 4.36082E-01
 -1      2971 4.24175E-01
 -1      2972 3.60130E-01
 -1      2973 3.61660E-01
 -1      2974 4.23246E-01
 -1      2975 4.35361E-01
 -1      2976 7.20192E+00
 -1      2977 5.62584E+00
 -1      2978 5.85590E+00
 -1      2979 6.62542E+00
 -1      2980 4.66320E+00
 -1      2981 2.04784E+01
 -1      2982 2.46107E+01
 -1      2983 1.98629E+01
 -1      2984 1.67621E+01
 -1      2985 1.09844E+01
 -1      2986 1.34451E+01
 -1      2987 6.72245E+00
 -1      2988 6.48833E+00
 -1      2989 1.57085E+01
 -1      2990 2.09317E+01
 -1      2991 7.12581E+00
 -1      2992 6.31894E+00
 -1      2993 1.05799E+01
 -1      2994 8.61391E+00
 -1      2995 6.20783E+00
 -1      2996 7.01087E+00
 -1      2997 4.51478E+00
 -1      2998 4.30329E+00
 -1      2999 4.63724E+00
 -1      3000 5.50923E+00
 -1      3001 3.72904E+00
 -1      3002 7.76470E+00
 -1      3003 5.91033E+00
 -1      3004 4.35361E-01
 -1      3005 4.35361E-01
 -1      3006 3.60303E-01
 -1      3007 3.42969E-01
 -1      3008 3.87232E-01
 -1      3009 4.00042E-01
 -1      3010 3.67466E+00
 -1      3011 4.79064E+00
 -1      3012 5.02068E+00
 -1      3013 5.67926E+00
 -1      3014 4.93163E+00
 -1      3015 8.87919E+00
 -1      3016 5.50196E-01
 -1      3017 8.94746E+00
 -1      3018 3.66307E-01
 -1      3019 3.74863E-01
 -1      3020 4.36362E-01
 -1      3021 3.81794E-01
 -1      3022 5.57513E+00
 -1      3023 1.25572E+01
 -1      3024 4.99023E+00
 -1      3025 6.08773E+00
 -1      3026 4.74959E-01
 -1      3027 4.74959E-01
 -1      3028 5.61784E-01
 -1      3029 5.75969E-01
 -1      3030 1.23788E+01
 -1      3031 5.30752E+00
 -1      3032 9.41396E+00
 -1      3033 8.76575E+00
 -1      3034 1.97626E+01
 -1      3035 1.41824E+01
 -1      3036 1.66147E+01
 -1      3037 6.97574E+00
 -1      3038 5.75454E-01
 -1      3039 1.53072E+01
 -1      3040 1.26167E+01
 -1      3041 1.78365E+01
 -1      3042 4.30035E-01
 -1      3043 4.07425E-01
 -1      3044 4.41162E-01
 -1      3045 5.53889E-01
 -1      3046 3.95221E+00
 -1      3047 1.83082E+01
 -1      3048 1.19629E+01
 -1      3049 1.39564E+01
 -1      3050 4.93966E+00
 -1      3051 3.55150E+00
 -1      3052 4.00068E+00
 -1      3053 4.07550E-01
 -1      3054 4.21971E-01
 -1      3055 3.59028E-01
 -1      3056 3.50244E-01
 -1      3057 7.73138E+00
 -1      3058 5.21631E+00
 -1      3059 8.34822E+00
 -1      3060 5.69008E+00
 -1      3061 4.55958E+00
 -1      3062 4.91949E+00
 -1      3063 7.03539E+00
 -1      3064 4.23303E+00
 -1      3065 4.40961E-01
 -1      3066 4.03448E+00
 -1      3067 1.24566E+01
 -1      3068 1.36750E+01
 -1      3069 2.88877E-01
 -1      3070 3.00996E-01
 -1      3071 3.55039E+00
 -1      3072 2.79063E+00
 -1      3073 4.13474E-01
 -1      3074 3.09934E-01
 -1      3075 2.61389E-01
 -1      3076 4.00480E-01
 -1      3077 7.38141E+00
 -1      3078 9.17101E+00
 -1      3079 4.18224E+00
 -1      3080 3.22702E-01
 -1      3081 3.02406E-01
 -1      3082 2.99001E-01
 -1      3083 2.74221E-01
 -1      3084 2.54502E-01
 -1      3085 2.63144E-01
 -1      3086 2.38188E-01
 -1      3087 2.40019E-01
 -1      3088 2.23611E-01
 -1      3089 2.07452E-01
 -1      3090 2.14364E-01
 -1      3091 1.93804E-01
 -1      3092 1.77084E-01
 -1      3093 1.86140E-01
 -1      3094 1.65647E-01
 -1      3095 1.50932E-01
 -1      3096 1.61055E-01
 -1      3097 1.38444E-01
 -1      3098 1.24732E-01
 -1      3099 1.37130E-01
 -1      3100 1.11940E-01
 -1      3101 9.93160E-02
 -1      3102 1.11850E-01
 -1      3103 8.64768E-02
 -1      3104 7.46817E-02
 -1      3105 8.62195E-02
 -1      3106 6.16763E-02
 -1      3107 5.01867E-02
 -1      3108 6.03750E-02
 -1      3109 4.82213E-02
 -1      3110 5.18382E-02
 -1      3111 4.54043E-02
 -1      3112 6.20201E-02
 -1      3113 7.73996E-02
 -1      3114 5.36209E-02
 -1      3115 9.80169E-02
 -1      3116 1.22597E-01
 -1      3117 8.44202E-02
 -1      3118 1.49565E-01
 -1      3119 1.79513E-01
 -1      3120 1.32005E-01
 -1      3121 2.13042E-01
 -1      3122 2.49663E-01
 -1      3123 1.92501E-01
 -1      3124 2.90930E-01
 -1      3125 3.35567E-01
 -1      3126 2.67297E-01
 -1      3127 3.85708E-01
 -1      3128 4.39681E-01
 -1      3129 3.58705E-01
 -1      3130 4.99315E-01
 -1      3131 5.63813E-01
 -1      3132 4.68481E-01
 -1      3133 6.32423E-01
 -1      3134 7.08341E-01
 -1      3135 5.96725E-01
 -1      3136 7.87159E-01
 -1      3137 8.74328E-01
 -1      3138 7.44152E-01
 -1      3139 9.83468E-01
 -1      3140 1.07987E+00
 -1      3141 9.32109E-01
 -1      3142 1.24087E+00
 -1      3143 1.33966E+00
 -1      3144 1.20225E+00
 -1      3145 1.55519E+00
 -1      3146 1.69011E+00
 -1      3147 1.57877E+00
 -1      3148 1.93789E+00
 -1      3149 2.17709E+00
 -1      3150 2.04208E+00
 -1      3151 3.61228E+00
 -1      3152 3.79599E+00
 -1      3153 3.72504E+00
 -1      3154 5.05248E+00
 -1      3155 4.96671E+00
 -1      3156 6.01226E+00
 -1      3157 3.90612E+00
 -1      3158 3.62563E+00
 -1      3159 3.61390E+00
 -1      3160 3.33123E+00
 -1      3161 4.40540E+00
 -1      3162 2.51505E+00
 -1      3163 2.30683E+00
 -1      3164 3.57748E+00
 -1      3165 1.97633E+00
 -1      3166 1.76621E+00
 -1      3167 2.43080E+00
 -1      3168 1.52897E+00
 -1      3169 1.37717E+00
 -1      3170 1.86306E+00
 -1      3171 1.16247E+00
 -1      3172 1.06009E+00
 -1      3173 1.41111E+00
 -1      3174 8.21889E-01
 -1      3175 6.85614E-01
 -1      3176 6.10377E-01
 -1      3177 9.58217E-01
 -1      3178 8.28590E+00
 -1      3179 7.22305E+00
 -1      3180 1.97251E-01
 -1      3181 2.15430E-01
 -1      3182 1.09940E-01
 -1      3183 1.23324E-01
 -1      3184 8.49162E-02
 -1      3185 9.67730E-02
 -1      3186 9.33848E-02
 -1      3187 6.22529E-02
 -1      3188 7.30952E-02
 -1      3189 6.83965E-02
 -1      3190 5.39542E-02
 -1      3191 5.30269E-02
 -1      3192 4.73496E-02
 -1      3193 6.80481E-02
 -1      3194 6.13507E-02
 -1      3195 4.55202E-02
 -1      3196 1.10804E-01
 -1      3197 8.74154E-02
 -1      3198 7.22839E-02
 -1      3199 1.61890E-01
 -1      3200 1.33866E-01
 -1      3201 1.14712E-01
 -1      3202 2.23133E-01
 -1      3203 1.89656E-01
 -1      3204 1.65540E-01
 -1      3205 2.96129E-01
 -1      3206 2.56688E-01
 -1      3207 2.26861E-01
 -1      3208 3.82194E-01
 -1      3209 3.36843E-01
 -1      3210 3.01130E-01
 -1      3211 4.82701E-01
 -1      3212 4.32429E-01
 -1      3213 3.92078E-01
 -1      3214 5.94216E-01
 -1      3215 5.41462E-01
 -1      3216 5.01074E-01
 -1      3217 7.11185E-01
 -1      3218 6.60492E-01
 -1      3219 6.26112E-01
 -1      3220 8.26461E-01
 -1      3221 7.85209E-01
 -1      3222 7.66411E-01
 -1      3223 9.77072E-01
 -1      3224 9.07144E-01
 -1      3225 9.21118E-01
 -1      3226 1.14472E+00
 -1      3227 1.07206E+00
 -1      3228 1.09679E+00
 -1      3229 1.35498E+00
 -1      3230 1.30306E+00
 -1      3231 1.35011E+00
 -1      3232 1.61083E+00
 -1      3233 1.53211E+00
 -1      3234 1.68558E+00
 -1      3235 1.89902E+00
 -1      3236 1.73631E+00
 -1      3237 1.98820E+00
 -1      3238 2.28140E+00
 -1      3239 2.25945E+00
 -1      3240 2.47411E+00
 -1      3241 2.77468E+00
 -1      3242 2.25147E+00
 -1      3243 2.80461E+00
 -1      3244 4.11592E+00
 -1      3245 3.44530E+00
 -1      3246 5.09066E+00
 -1      3247 4.66320E+00
 -1      3248 4.91949E+00
 -1      3249 5.18769E+00
 -1      3250 2.24958E+00
 -1      3251 2.61185E+00
 -1      3252 2.10953E+00
 -1      3253 2.11811E+00
 -1      3254 2.27373E+00
 -1      3255 2.36358E+00
 -1      3256 2.65748E+00
 -1      3257 1.48249E+00
 -1      3258 1.73666E+00
 -1      3259 2.37446E+00
 -1      3260 1.25508E+00
 -1      3261 1.32626E+00
 -1      3262 1.68116E+00
 -1      3263 1.00312E+00
 -1      3264 1.07958E+00
 -1      3265 1.34944E+00
 -1      3266 7.80032E-01
 -1      3267 8.63091E-01
 -1      3268 1.03390E+00
 -1      3269 6.32641E-01
 -1      3270 6.90886E-01
 -1      3271 8.04728E-01
 -1      3272 5.05654E-01
 -1      3273 5.51907E-01
 -1      3274 6.34848E-01
 -1      3275 4.84822E-01
 -1      3276 3.23716E-01
 -1      3277 3.16017E-01
 -1      3278 3.28159E+00
 -1      3279 3.44530E+00
 -1      3280 1.05011E+00
 -1      3281 1.03586E+00
 -1      3282 7.67281E-01
 -1      3283 8.70043E-01
 -1      3284 1.05077E+00
 -1      3285 1.05077E+00
 -1      3286 1.19338E+00
 -1      3287 3.54621E-01
 -1      3288 3.88265E-01
 -1      3289 6.04207E+00
 -1      3290 2.90104E+00
 -1      3291 4.02062E+00
 -1      3292 9.17101E+00
 -1      3293 1.08810E+01
 -1      3294 1.90028E+01
 -1      3295 1.45849E+01
 -1      3296 2.30108E-01
 -1      3297 2.48286E-01
 -1      3298 2.04823E-01
 -1      3299 1.01120E+00
 -1      3300 1.05077E+00
 -1      3301 1.19404E+00
 -1      3302 1.05288E+00
 -1      3303 3.88780E-01
 -1      3304 3.64795E-01
 -1      3305 3.17705E-01
 -1      3306 3.13723E-01
 -1      3307 1.37349E-01
 -1      3308 1.52536E-01
 -1      3309 1.20577E-01
 -1      3310 3.10843E-01
 -1      3311 3.45020E-01
 -1      3312 2.99157E-01
 -1      3313 3.29171E-01
 -1      3314 3.27449E-01
 -1      3315 1.66698E-01
 -1      3316 1.83641E-01
 -1      3317 1.76535E-01
 -1      3318 1.48763E-01
 -1      3319 2.66957E-01
 -1      3320 2.94486E-01
 -1      3321 2.38172E-01
 -1      3322 3.20644E+00
 -1      3323 3.17876E-01
 -1      3324 3.11473E-01
 -1      3325 2.46678E-01
 -1      3326 4.43443E+00
 -1      3327 6.74921E+00
 -1      3328 8.58488E+00
 -1      3329 1.16180E+01
 -1      3330 9.35943E+00
 -1      3331 1.15769E+01
 -1      3332 9.91091E+00
 -1      3333 7.30846E+00
 -1      3334 1.36750E+01
 -1      3335 1.49859E+01
 -1      3336 1.25842E+01
 -1      3337 6.15087E+00
 -1      3338 5.30166E+00
 -1      3339 9.39924E+00
 -1      3340 1.13551E+01
 -1      3341 7.38271E+00
 -1      3342 3.49589E+00
 -1      3343 4.71768E+00
 -1      3344 5.60569E+00
 -1      3345 3.58424E+00
 -1      3346 9.27409E+00
 -1      3347 1.32037E+01
 -1      3348 8.64560E+00
 -1      3349 2.87249E+00
 -1      3350 3.39509E+00
 -1      3351 1.08365E+01
 -1      3352 8.90762E+00
 -1      3353 7.52644E+00
 -1      3354 7.67852E+00
 -1      3355 3.12700E-01
 -1      3356 3.12467E-01
 -1      3357 2.85515E-01
 -1      3358 2.60329E-01
 -1      3359 3.20993E-01
 -1      3360 3.20993E-01
 -1      3361 2.77677E+00
 -1      3362 3.25246E-01
 -1      3363 3.23716E-01
 -1      3364 2.88832E-01
 -1      3365 2.84579E-01
 -1      3366 3.21011E-01
 -1      3367 3.21011E-01
 -1      3368 3.90612E+00
 -1      3369 5.09798E+00
 -1      3370 4.56852E+00
 -1      3371 3.88234E+00
 -1      3372 6.41673E+00
 -1      3373 5.72044E+00
 -1      3374 5.69008E+00
 -1      3375 4.82574E+00
 -1      3376 3.89018E+00
 -1      3377 2.53489E+00
 -1      3378 3.82667E+00
 -1      3379 5.15105E+00
 -1      3380 4.97018E+00
 -1      3381 1.16437E+01
 -1      3382 8.93787E+00
 -1      3383 1.15433E+01
 -1      3384 3.24557E-01
 -1      3385 2.85266E-01
 -1      3386 3.23282E-01
 -1      3387 3.04459E+00
 -1      3388 9.09567E-01
 -1      3389 8.04186E-01
 -1      3390 7.63503E+00
 -1      3391 1.19273E+00
 -1      3392 1.03586E+00
 -1      3393 1.02224E+00
 -1      3394 1.08244E+01
 -1      3395 6.07093E-01
 -1      3396 6.68146E-01
 -1      3397 8.12589E-01
 -1      3398 7.16738E-01
 -1      3399 1.24532E+01
 -1      3400 2.45022E-01
 -1      3401 7.24667E+00
 -1      3402 1.04545E+01
 -1      3403 8.82224E+00
 -1      3404 7.67323E+00
 -1      3405 2.73200E-01
 -1      3406 3.35444E-01
 -1      3407 2.60869E-01
 -1      3408 8.10261E-01
 -1      3409 7.23165E-01
 -1      3410 9.73462E-01
 -1      3411 3.70267E-01
 -1      3412 3.95638E-01
 -1      3413 2.77604E-01
 -1      3414 2.90760E-01
 -1      3415 1.10888E+01
 -1      3416 8.17936E+00
 -1      3417 8.52423E+00
 -1      3418 6.13913E+00
 -1      3419 2.64530E+00
 -1      3420 2.17231E-01
 -1      3421 2.13826E-01
 -1      3422 4.71080E+00
 -1      3423 9.17724E+00
 -1      3424 1.08060E+01
 -1      3425 2.17572E-01
 -1      3426 2.06494E-01
 -1      3427 1.80301E-01
 -1      3428 2.02533E-01
 -1      3429 1.87956E-01
 -1      3430 1.80086E-01
 -1      3431 1.79511E-01
 -1      3432 1.65863E-01
 -1      3433 1.67679E-01
 -1      3434 1.55081E-01
 -1      3435 1.43644E-01
 -1      3436 1.48452E-01
 -1      3437 1.35434E-01
 -1      3438 1.22947E-01
 -1      3439 1.29461E-01
 -1      3440 1.13384E-01
 -1      3441 1.00592E-01
 -1      3442 1.11688E-01
 -1      3443 9.02835E-02
 -1      3444 7.74443E-02
 -1      3445 9.18170E-02
 -1      3446 6.67003E-02
 -1      3447 5.36949E-02
 -1      3448 7.07643E-02
 -1      3449 5.46308E-02
 -1      3450 5.26655E-02
 -1      3451 6.09561E-02
 -1      3452 5.57528E-02
 -1      3453 6.59347E-02
 -1      3454 6.49792E-02
 -1      3455 8.15920E-02
 -1      3456 1.02209E-01
 -1      3457 8.37238E-02
 -1      3458 1.26778E-01
 -1      3459 1.53746E-01
 -1      3460 1.23950E-01
 -1      3461 1.84332E-01
 -1      3462 2.17861E-01
 -1      3463 1.79105E-01
 -1      3464 2.55996E-01
 -1      3465 2.97263E-01
 -1      3466 2.47827E-01
 -1      3467 3.44731E-01
 -1      3468 3.94872E-01
 -1      3469 3.33431E-01
 -1      3470 4.53763E-01
 -1      3471 5.13398E-01
 -1      3472 4.39789E-01
 -1      3473 5.86153E-01
 -1      3474 6.54763E-01
 -1      3475 5.71435E-01
 -1      3476 7.44152E-01
 -1      3477 8.22970E-01
 -1      3478 7.33580E-01
 -1      3479 9.31725E-01
 -1      3480 1.04086E+00
 -1      3481 9.31725E-01
 -1      3482 1.16875E+00
 -1      3483 1.32975E+00
 -1      3484 1.16837E+00
 -1      3485 1.55540E+00
 -1      3486 1.77093E+00
 -1      3487 1.52191E+00
 -1      3488 2.23529E+00
 -1      3489 2.48307E+00
 -1      3490 2.21192E+00
 -1      3491 3.62476E+00
 -1      3492 5.05994E+00
 -1      3493 3.81797E+00
 -1      3494 5.21479E+00
 -1      3495 4.39861E+00
 -1      3496 3.30586E+00
 -1      3497 2.97536E+00
 -1      3498 4.94317E+00
 -1      3499 2.25201E+00
 -1      3500 2.01477E+00
 -1      3501 3.12707E+00
 -1      3502 1.57384E+00
 -1      3503 1.35914E+00
 -1      3504 1.96280E+00
 -1      3505 2.08725E-01
 -1      3506 2.27396E-01
 -1      3507 2.49771E-01
 -1      3508 2.59371E-01
 -1      3509 8.44951E-02
 -1      3510 9.76624E-02
 -1      3511 5.42762E-02
 -1      3512 4.68797E-02
 -1      3513 8.61036E-02
 -1      3514 6.67364E-02
 -1      3515 6.80959E-02
 -1      3516 1.31333E-01
 -1      3517 1.08272E-01
 -1      3518 1.02724E-01
 -1      3519 1.86074E-01
 -1      3520 1.58307E-01
 -1      3521 1.51866E-01
 -1      3522 2.52156E-01
 -1      3523 2.18601E-01
 -1      3524 2.11368E-01
 -1      3525 3.31597E-01
 -1      3526 2.90884E-01
 -1      3527 2.82623E-01
 -1      3528 4.26969E-01
 -1      3529 3.76734E-01
 -1      3530 3.66488E-01
 -1      3531 5.36642E-01
 -1      3532 4.77881E-01
 -1      3533 4.62537E-01
 -1      3534 6.60369E-01
 -1      3535 5.94093E-01
 -1      3536 5.70900E-01
 -1      3537 8.13347E-01
 -1      3538 7.39324E-01
 -1      3539 7.07305E-01
 -1      3540 1.00742E+00
 -1      3541 9.26734E-01
 -1      3542 8.99647E-01
 -1      3543 1.26151E+00
 -1      3544 1.16652E+00
 -1      3545 1.17214E+00
 -1      3546 1.60251E+00
 -1      3547 1.44417E+00
 -1      3548 1.51391E+00
 -1      3549 1.97597E+00
 -1      3550 1.79883E+00
 -1      3551 1.89290E+00
 -1      3552 2.52870E+00
 -1      3553 2.40321E+00
 -1      3554 2.51646E+00
 -1      3555 3.07452E+00
 -1      3556 6.02151E+00
 -1      3557 6.83588E+00
 -1      3558 1.41143E+00
 -1      3559 1.58693E+00
 -1      3560 1.12214E+00
 -1      3561 1.26217E+00
 -1      3562 1.49967E+00
 -1      3563 1.02128E+00
 -1      3564 1.11043E+00
 -1      3565 1.33870E+00
 -1      3566 1.08006E+00
 -1      3567 7.37223E+00
 -1      3568 6.29870E+00
 -1      3569 3.34237E+00
 -1      3570 3.07449E-01
 -1      3571 9.10106E+00
 -1      3572 9.10106E+00
 -1      3573 1.47911E+00
 -1      3574 1.47845E+00
 -1      3575 1.83148E-01
 -1      3576 1.97826E-01
 -1      3577 1.87050E-01
 -1      3578 1.99151E-01
 -1      3579 1.89578E-01
 -1      3580 1.99744E+00
 -1      3581 2.15366E+00
 -1      3582 2.05943E+00
 -1      3583 7.22771E+00
 -1      3584 7.98040E+00
 -1      3585 2.60471E+00
 -1      3586 3.14178E+00
 -1      3587 6.41673E+00
 -1      3588 1.09076E-01
 -1      3589 1.23101E-01
 -1      3590 1.00187E-01
 -1      3591 3.15774E-01
 -1      3592 3.23282E-01
 -1      3593 2.88812E-01
 -1      3594 2.34168E-01
 -1      3595 2.50525E-01
 -1      3596 2.10739E-01
 -1      3597 2.04721E-01
 -1      3598 4.51353E-02
 -1      3599 5.43612E-02
 -1      3600 5.38913E-02
 -1      3601 7.15633E+00
 -1      3602 5.59364E+00
 -1      3603 6.09332E-02
 -1      3604 7.27542E-02
 -1      3605 7.70318E-02
 -1      3606 5.87189E-02
 -1      3607 5.47758E+00
 -1      3608 5.55145E-01
 -1      3609 5.29514E-01
 -1      3610 5.98805E-01
 -1      3611 8.11517E-01
 -1      3612 1.89885E-01
 -1      3613 2.01114E-01
 -1      3614 1.44014E-01
 -1      3615 3.59642E+00
 -1      3616 6.31644E+00
 -1      3617 2.02998E-01
 -1      3618 2.22994E-01
 -1      3619 1.60438E-01
 -1      3620 2.00323E-01
 -1      3621 1.79266E-01
 -1      3622 1.41932E-01
 -1      3623 1.95481E-01
 -1      3624 4.94586E+00
 -1      3625 1.47911E+00
 -1      3626 1.76418E+00
 -1      3627 1.47911E+00
 -1      3628 7.45393E+00
 -1      3629 8.26735E+00
 -1      3630 6.86124E+00
 -1      3631 7.22771E+00
 -1      3632 1.11741E+00
 -1      3633 8.79213E-01
 -1      3634 8.75930E-01
 -1      3635 1.28014E+00
 -1      3636 1.96214E-01
 -1      3637 2.45601E-01
 -1      3638 5.88989E+00
 -1      3639 2.68157E-01
 -1      3640 3.88234E+00
 -1      3641 3.64236E+00
 -1      3642 3.28194E+00
 -1      3643 3.69695E+00
 -1      3644 4.84380E+00
 -1      3645 4.29697E+00
 -1      3646 3.24564E+00
 -1      3647 6.56251E+00
 -1      3648 7.10634E+00
 -1      3649 7.30258E+00
 -1      3650 7.23586E+00
 -1      3651 5.52104E+00
 -1      3652 2.53274E-01
 -1      3653 2.49956E-01
 -1      3654 6.79539E-01
 -1      3655 7.19886E+00
 -1      3656 5.86254E+00
 -1      3657 4.76980E+00
 -1      3658 6.66966E+00
 -1      3659 1.40137E+00
 -1      3660 1.40137E+00
 -1      3661 1.68709E+00
 -1      3662 8.12963E+00
 -1      3663 6.40632E+00
 -1      3664 6.12751E+00
 -1      3665 1.71145E-01
 -1      3666 1.64148E-01
 -1      3667 1.57534E-01
 -1      3668 2.12713E-01
 -1      3669 2.27603E-01
 -1      3670 2.53274E-01
 -1      3671 2.17715E-01
 -1      3672 2.53274E-01
 -1      3673 9.85241E-01
 -1      3674 2.32017E-01
 -1      3675 2.28471E-01
 -1      3676 1.59465E-01
 -1      3677 1.33908E-01
 -1      3678 1.48069E-01
 -1      3679 1.22407E-01
 -1      3680 1.32554E+00
 -1      3681 1.21287E+00
 -1      3682 1.53418E+00
 -1      3683 1.14719E+00
 -1      3684 1.15326E+00
 -1      3685 1.39267E+00
 -1      3686 6.83588E+00
 -1      3687 6.31733E+00
 -1      3688 6.01860E+00
 -1      3689 2.85505E-01
 -1      3690 5.47469E+00
 -1      3691 9.75065E-01
 -1      3692 1.25231E+00
 -1      3693 1.18897E+00
 -1      3694 1.33013E+00
 -1      3695 1.49405E+00
 -1      3696 1.18573E-01
 -1      3697 1.34690E-01
 -1      3698 2.42785E-01
 -1      3699 2.47038E-01
 -1      3700 2.11480E-01
 -1      3701 1.60419E-01
 -1      3702 1.56458E-01
 -1      3703 1.55762E-01
 -1      3704 1.47316E-01
 -1      3705 1.36094E-01
 -1      3706 1.42303E-01
 -1      3707 1.31522E-01
 -1      3708 1.30386E-01
 -1      3709 1.23960E-01
 -1      3710 1.15750E-01
 -1      3711 1.17811E-01
 -1      3712 1.08855E-01
 -1      3713 9.92926E-02
 -1      3714 1.03354E-01
 -1      3715 9.20825E-02
 -1      3716 8.17738E-02
 -1      3717 8.92494E-02
 -1      3718 7.60402E-02
 -1      3719 6.52962E-02
 -1      3720 7.63057E-02
 -1      3721 6.66380E-02
 -1      3722 6.75739E-02
 -1      3723 7.19140E-02
 -1      3724 7.05796E-02
 -1      3725 7.36668E-02
 -1      3726 7.62615E-02
 -1      3727 7.95294E-02
 -1      3728 9.51867E-02
 -1      3729 8.51298E-02
 -1      3730 1.12736E-01
 -1      3731 1.37304E-01
 -1      3732 1.08541E-01
 -1      3733 1.62668E-01
 -1      3734 1.93255E-01
 -1      3735 1.51454E-01
 -1      3736 2.25179E-01
 -1      3737 2.63315E-01
 -1      3738 2.08742E-01
 -1      3739 3.03662E-01
 -1      3740 3.51129E-01
 -1      3741 2.81014E-01
 -1      3742 4.02470E-01
 -1      3743 4.61360E-01
 -1      3744 3.72701E-01
 -1      3745 5.27490E-01
 -1      3746 6.00245E-01
 -1      3747 4.90170E-01
 -1      3748 6.87035E-01
 -1      3749 7.76425E-01
 -1      3750 6.43090E-01
 -1      3751 8.93062E-01
 -1      3752 1.00182E+00
 -1      3753 8.46517E-01
 -1      3754 1.16396E+00
 -1      3755 1.29185E+00
 -1      3756 1.12530E+00
 -1      3757 1.52191E+00
 -1      3758 1.74755E+00
 -1      3759 1.51750E+00
 -1      3760 2.08922E+00
 -1      3761 2.55358E+00
 -1      3762 2.08922E+00
 -1      3763 3.54440E+00
 -1      3764 4.68609E+00
 -1      3765 3.42170E+00
 -1      3766 1.85454E-01
 -1      3767 2.47993E-01
 -1      3768 2.51300E-01
 -1      3769 2.15752E-01
 -1      3770 3.96498E+00
 -1      3771 3.24163E+00
 -1      3772 4.88435E+00
 -1      3773 2.55381E+00
 -1      3774 2.11289E+00
 -1      3775 3.39172E+00
 -1      3776 5.61632E+00
 -1      3777 6.66200E+00
 -1      3778 6.73818E+00
 -1      3779 2.45878E-01
 -1      3780 2.45878E-01
 -1      3781 1.89083E-01
 -1      3782 2.08366E-01
 -1      3783 7.97241E-02
 -1      3784 6.72639E-02
 -1      3785 2.32997E-01
 -1      3786 2.00469E-01
 -1      3787 3.08569E-01
 -1      3788 2.69841E-01
 -1      3789 2.58942E-01
 -1      3790 3.98821E-01
 -1      3791 3.53684E-01
 -1      3792 3.40902E-01
 -1      3793 5.04632E-01
 -1      3794 4.53719E-01
 -1      3795 4.40916E-01
 -1      3796 6.28351E-01
 -1      3797 5.70900E-01
 -1      3798 5.62082E-01
 -1      3799 7.86260E-01
 -1      3800 7.07305E-01
 -1      3801 7.07305E-01
 -1      3802 9.90762E-01
 -1      3803 8.77375E-01
 -1      3804 8.77375E-01
 -1      3805 1.30888E+00
 -1      3806 1.14977E+00
 -1      3807 1.12750E+00
 -1      3808 1.74133E+00
 -1      3809 1.55867E+00
 -1      3810 1.53629E+00
 -1      3811 2.35691E+00
 -1      3812 2.16059E+00
 -1      3813 2.20535E+00
 -1      3814 3.06794E+00
 -1      3815 2.64070E+00
 -1      3816 2.90839E+00
 -1      3817 1.33841E+00
 -1      3818 1.35012E+00
 -1      3819 5.41661E+00
 -1      3820 5.41661E+00
 -1      3821 2.08338E+00
 -1      3822 2.23263E+00
 -1      3823 2.08309E+00
 -1      3824 1.39551E-01
 -1      3825 1.39858E-01
 -1      3826 1.14109E-01
 -1      3827 1.55309E-01
 -1      3828 2.92098E+00
 -1      3829 1.67044E-01
 -1      3830 1.53273E-01
 -1      3831 1.64359E-01
 -1      3832 1.75259E-01
 -1      3833 1.15326E+00
 -1      3834 7.09411E+00
 -1      3835 7.83135E+00
 -1      3836 5.71606E+00
 -1      3837 6.25988E+00
 -1      3838 8.96934E-02
 -1      3839 1.01107E-01
 -1      3840 1.70526E-01
 -1      3841 1.43552E-01
 -1      3842 1.92155E-01
 -1      3843 1.19277E-01
 -1      3844 9.71086E-02
 -1      3845 9.62766E-02
 -1      3846 6.33222E-02
 -1      3847 6.15778E-02
 -1      3848 7.49504E-02
 -1      3849 1.50737E-01
 -1      3850 1.54483E-01
 -1      3851 1.08872E-01
 -1      3852 4.69890E+00
 -1      3853 4.69890E+00
 -1      3854 4.87270E+00
 -1      3855 5.41661E+00
 -1      3856 4.27071E+00
 -1      3857 4.09691E+00
 -1      3858 2.79460E+00
 -1      3859 1.30855E-01
 -1      3860 1.61520E+00
 -1      3861 3.19652E+00
 -1      3862 3.52118E+00
 -1      3863 4.69890E+00
 -1      3864 2.78602E+00
 -1      3865 6.30217E+00
 -1      3866 1.85887E-01
 -1      3867 1.83923E-01
 -1      3868 4.45019E+00
 -1      3869 3.92311E+00
 -1      3870 2.08506E+00
 -1      3871 5.73806E+00
 -1      3872 5.02231E+00
 -1      3873 4.76664E+00
 -1      3874 2.87516E+00
 -1      3875 2.87516E+00
 -1      3876 4.19262E+00
 -1      3877 4.31685E+00
 -1      3878 4.94586E+00
 -1      3879 4.57016E+00
 -1      3880 6.12933E+00
 -1      3881 1.78823E-01
 -1      3882 1.78069E-01
 -1      3883 1.35128E-01
 -1      3884 8.05887E-02
 -1      3885 8.15094E-02
 -1      3886 6.88478E-02
 -1      3887 6.89259E-02
 -1      3888 5.94950E-02
 -1      3889 6.60671E-02
 -1      3890 3.36973E+00
 -1      3891 5.27939E+00
 -1      3892 4.92371E+00
 -1      3893 1.42679E-01
 -1      3894 1.32698E+00
 -1      3895 1.09327E-01
 -1      3896 1.20133E-01
 -1      3897 9.88336E-02
 -1      3898 1.57924E-01
 -1      3899 1.46133E-01
 -1      3900 1.45921E-01
 -1      3901 2.51558E+00
 -1      3902 2.43975E+00
 -1      3903 2.01613E+00
 -1      3904 1.95045E+00
 -1      3905 2.99754E+00
 -1      3906 1.85887E-01
 -1      3907 1.85887E-01
 -1      3908 1.54058E-01
 -1      3909 1.37936E-01
 -1      3910 1.77255E-01
 -1      3911 1.84027E-01
 -1      3912 1.51356E-01
 -1      3913 1.54564E-01
 -1      3914 3.98614E+00
 -1      3915 2.87516E+00
 -1      3916 2.79808E+00
 -1      3917 4.47457E+00
 -1      3918 1.48207E-01
 -1      3919 1.23932E-01
 -1      3920 1.19278E-01
 -1      3921 1.14265E-01
 -1      3922 1.11169E-01
 -1      3923 1.03608E-01
 -1      3924 1.00062E-01
 -1      3925 9.83053E-02
 -1      3926 9.14104E-02
 -1      3927 9.16636E-02
 -1      3928 8.72298E-02
 -1      3929 8.00197E-02
 -1      3930 8.21808E-02
 -1      3931 7.95838E-02
 -1      3932 7.38503E-02
 -1      3933 7.75643E-02
 -1      3934 7.48876E-02
 -1      3935 7.62294E-02
 -1      3936 7.81658E-02
 -1      3937 7.79158E-02
 -1      3938 8.09215E-02
 -1      3939 8.08894E-02
 -1      3940 8.59994E-02
 -1      3941 9.18620E-02
 -1      3942 8.76537E-02
 -1      3943 1.01880E-01
 -1      3944 1.19429E-01
 -1      3945 1.02750E-01
 -1      3946 1.33487E-01
 -1      3947 1.58851E-01
 -1      3948 1.26826E-01
 -1      3949 1.79928E-01
 -1      3950 2.11853E-01
 -1      3951 1.61961E-01
 -1      3952 2.41992E-01
 -1      3953 2.82339E-01
 -1      3954 2.13178E-01
 -1      3955 3.20951E-01
 -1      3956 3.72291E-01
 -1      3957 2.81930E-01
 -1      3958 4.22610E-01
 -1      3959 4.88740E-01
 -1      3960 3.70861E-01
 -1      3961 5.56304E-01
 -1      3962 6.43094E-01
 -1      3963 4.88744E-01
 -1      3964 7.38021E-01
 -1      3965 8.54658E-01
 -1      3966 6.51235E-01
 -1      3967 9.95065E-01
 -1      3968 1.15721E+00
 -1      3969 8.86569E-01
 -1      3970 1.34080E+00
 -1      3971 1.57085E+00
 -1      3972 1.21057E+00
 -1      3973 2.32504E+00
 -1      3974 2.66671E+00
 -1      3975 2.14834E+00
 -1      3976 3.20604E+00
 -1      3977 4.19685E+00
 -1      3978 3.44186E+00
 -1      3979 4.62318E-01
 -1      3980 4.07420E-01
 -1      3981 4.47457E+00
 -1      3982 4.07954E+00
 -1      3983 4.17512E+00
 -1      3984 1.44883E-01
 -1      3985 1.64673E-01
 -1      3986 3.39172E+00
 -1      3987 3.36973E+00
 -1      3988 3.56404E-01
 -1      3989 3.11288E-01
 -1      3990 3.77806E-01
 -1      3991 1.07513E-01
 -1      3992 9.01286E-02
 -1      3993 1.17784E-01
 -1      3994 2.71360E-01
 -1      3995 2.34516E-01
 -1      3996 2.86862E-01
 -1      3997 5.94535E-01
 -1      3998 5.28267E-01
 -1      3999 4.94771E-01
 -1      4000 7.60174E-01
 -1      4001 6.81220E-01
 -1      4002 6.47404E-01
 -1      4003 9.68090E-01
 -1      4004 8.76975E-01
 -1      4005 8.50889E-01
 -1      4006 1.28651E+00
 -1      4007 1.12750E+00
 -1      4008 1.12710E+00
 -1      4009 1.73888E+00
 -1      4010 1.48909E+00
 -1      4011 1.48909E+00
 -1      4012 2.71200E+00
 -1      4013 2.29274E+00
 -1      4014 2.24554E+00
 -1      4015 3.80638E+00
 -1      4016 3.52260E+00
 -1      4017 3.60999E+00
 -1      4018 1.33841E+00
 -1      4019 5.53934E+00
 -1      4020 5.01058E+00
 -1      4021 4.98777E+00
 -1      4022 5.34370E+00
 -1      4023 4.22494E+00
 -1      4024 2.03046E-01
 -1      4025 1.73103E-01
 -1      4026 1.59099E-01
 -1      4027 1.50322E-01
 -1      4028 1.53597E-01
 -1      4029 1.83463E-01
 -1      4030 1.78040E-01
 -1      4031 3.70365E+00
 -1      4032 4.70804E+00
 -1      4033 2.23404E+00
 -1      4034 8.18831E-02
 -1      4035 7.79414E-02
 -1      4036 9.31196E-02
 -1      4037 1.19549E-01
 -1      4038 1.18853E-01
 -1      4039 1.02733E-01
 -1      4040 1.27532E-01
 -1      4041 1.36998E-01
 -1      4042 1.14452E-01
 -1      4043 9.99529E-02
 -1      4044 1.16001E-01
 -1      4045 1.08205E-01
 -1      4046 1.14140E-01
 -1      4047 9.92856E-02
 -1      4048 1.74054E-01
 -1      4049 1.96187E+00
 -1      4050 1.73544E-01
 -1      4051 1.79779E-01
 -1      4052 2.69513E+00
 -1      4053 3.34502E+00
 -1      4054 3.24851E+00
 -1      4055 1.47951E-01
 -1      4056 2.15464E-01
 -1      4057 1.32973E-01
 -1      4058 4.03978E+00
 -1      4059 4.03284E+00
 -1      4060 4.12843E+00
 -1      4061 3.84593E+00
 -1      4062 3.67213E+00
 -1      4063 1.69169E-01
 -1      4064 4.39637E+00
 -1      4065 4.98777E+00
 -1      4066 4.02930E+00
 -1      4067 4.06384E+00
 -1      4068 1.30774E-01
 -1      4069 6.96239E-02
 -1      4070 7.44246E-02
 -1      4071 7.23419E-02
 -1      4072 8.13573E-02
 -1      4073 7.27365E-02
 -1      4074 8.18413E-02
 -1      4075 4.12843E+00
 -1      4076 1.06550E-01
 -1      4077 1.15420E-01
 -1      4078 1.17575E-01
 -1      4079 9.98892E-02
 -1      4080 1.08109E-01
 -1      4081 9.11163E-02
 -1      4082 1.30570E-01
 -1      4083 1.30109E-01
 -1      4084 1.28420E-01
 -1      4085 1.34855E-01
 -1      4086 1.34870E-01
 -1      4087 1.36866E-01
 -1      4088 1.17157E-01
 -1      4089 1.26657E-01
 -1      4090 1.26657E-01
 -1      4091 1.03169E-01
 -1      4092 9.68987E-02
 -1      4093 4.12843E+00
 -1      4094 1.20550E-01
 -1      4095 1.26657E-01
 -1      4096 9.92570E-02
 -1      4097 9.41268E-02
 -1      4098 1.44266E-01
 -1      4099 9.61116E-02
 -1      4100 9.65364E-02
 -1      4101 8.64893E-02
 -1      4102 8.11870E-02
 -1      4103 9.81537E-02
 -1      4104 9.39731E-02
 -1      4105 9.29794E-02
 -1      4106 7.80002E-02
 -1      4107 7.75643E-02
 -1      4108 9.39731E-02
 -1      4109 7.81658E-02
 -1      4110 7.92031E-02
 -1      4111 7.86016E-02
 -1      4112 8.08894E-02
 -1      4113 8.25758E-02
 -1      4114 8.08894E-02
 -1      4115 9.49166E-02
 -1      4116 9.99945E-02
 -1      4117 9.49166E-02
 -1      4118 1.02750E-01
 -1      4119 1.12768E-01
 -1      4120 1.10012E-01
 -1      4121 1.26298E-01
 -1      4122 1.40356E-01
 -1      4123 1.26298E-01
 -1      4124 1.58309E-01
 -1      4125 1.79387E-01
 -1      4126 1.57782E-01
 -1      4127 2.02719E-01
 -1      4128 2.32858E-01
 -1      4129 1.99067E-01
 -1      4130 2.62891E-01
 -1      4131 3.01504E-01
 -1      4132 2.52432E-01
 -1      4133 3.40254E-01
 -1      4134 3.90573E-01
 -1      4135 3.21216E-01
 -1      4136 4.41387E-01
 -1      4137 5.08951E-01
 -1      4138 4.10780E-01
 -1      4139 5.77760E-01
 -1      4140 6.72687E-01
 -1      4141 5.30404E-01
 -1      4142 7.70969E-01
 -1      4143 9.11377E-01
 -1      4144 6.97495E-01
 -1      4145 1.06403E+00
 -1      4146 1.24762E+00
 -1      4147 9.48429E-01
 -1      4148 1.97272E+00
 -1      4149 2.72690E+00
 -1      4150 1.82618E+00
 -1      4151 6.57314E-01
 -1      4152 5.70630E-01
 -1      4153 3.76776E-01
 -1      4154 3.25760E-01
 -1      4155 1.29801E-01
 -1      4156 1.13382E-01
 -1      4157 2.88197E-01
 -1      4158 2.48269E-01
 -1      4159 2.87167E-01
 -1      4160 8.79472E-01
 -1      4161 7.62670E-01
 -1      4162 6.85896E-01
 -1      4163 1.19287E+00
 -1      4164 1.03346E+00
 -1      4165 9.45245E-01
 -1      4166 1.68068E+00
 -1      4167 1.47810E+00
 -1      4168 1.38446E+00
 -1      4169 2.77008E+00
 -1      4170 2.21622E+00
 -1      4171 2.20523E+00
 -1      4172 3.41435E+00
 -1      4173 1.22981E-01
 -1      4174 1.70493E-01
 -1      4175 1.45597E-01
 -1      4176 1.41196E-01
 -1      4177 3.38503E+00
 -1      4178 1.30109E-01
 -1      4179 1.24445E-01
 -1      4180 1.13167E-01
 -1      4181 1.15521E-01
 -1      4182 7.90470E-02
 -1      4183 8.44562E-02
 -1      4184 7.82599E-02
 -1      4185 4.00525E+00
 -1      4186 7.08067E-02
 -1      4187 7.35874E-02
 -1      4188 7.39193E-02
 -1      4189 7.63054E-02
 -1      4190 2.22366E-01
 -1      4191 1.90896E-01
 -1      4192 2.23700E-01
 -1      4193 1.04311E-01
 -1      4194 9.60657E-02
 -1      4195 1.16328E-01
 -1      4196 1.27218E-01
 -1      4197 1.22015E-01
 -1      4198 9.34367E-02
 -1      4199 1.07524E-01
 -1      4200 4.96537E-01
 -1      4201 4.30588E-01
 -1      4202 3.78542E-01
 -1      4203 1.08109E-01
 -1      4204 1.15507E-01
 -1      4205 1.09164E-01
 -1      4206 9.47765E-02
 -1      4207 9.16808E-02
 -1      4208 8.12042E-02
 -1      4209 8.81555E-02
 -1      4210 1.07082E-01
 -1      4211 9.92856E-02
 -1      4212 8.21619E-02
 -1      4213 7.43660E-02
 -1      4214 6.19234E-02
 -1      4215 7.82496E-02
 -1      4216 3.46591E+00
 -1      4217 3.29029E+00
 -1      4218 5.06447E-01
 -1      4219 3.38503E+00
 -1      4220 9.15072E-02
 -1      4221 1.09555E-01
 -1      4222 1.07011E-01
 -1      4223 9.58195E-02
 -1      4224 9.23028E-02
 -1      4225 1.77395E-01
 -1      4226 7.52785E-02
 -1      4227 7.44276E-02
 -1      4228 9.28665E-02
 -1      4229 1.09178E-01
 -1      4230 1.03112E-01
 -1      4231 1.07086E-01
 -1      4232 1.07086E-01
 -1      4233 1.07102E-01
 -1      4234 9.70307E-02
 -1      4235 9.29794E-02
 -1      4236 1.09946E-01
 -1      4237 1.09946E-01
 -1      4238 9.39731E-02
 -1      4239 7.68936E-02
 -1      4240 7.74950E-02
 -1      4241 9.49166E-02
 -1      4242 1.07257E-01
 -1      4243 1.07257E-01
 -1      4244 1.10012E-01
 -1      4245 1.19083E-01
 -1      4246 1.32614E-01
 -1      4247 1.48410E-01
 -1      4248 1.66363E-01
 -1      4249 1.86766E-01
 -1      4250 2.10098E-01
 -1      4251 2.36001E-01
 -1      4252 2.66034E-01
 -1      4253 3.03597E-01
 -1      4254 3.42348E-01
 -1      4255 3.96160E-01
 -1      4256 4.46974E-01
 -1      4257 5.21067E-01
 -1      4258 5.89876E-01
 -1      4259 6.95233E-01
 -1      4260 7.93515E-01
 -1      4261 9.47507E-01
 -1      4262 1.10016E+00
 -1      4263 1.38538E+00
 -1      4264 2.11048E+00
 -1      4265 9.77800E-02
 -1      4266 9.77940E-02
 -1      4267 9.17132E-02
 -1      4268 1.09946E-01
 -1      4269 2.64602E+00
 -1      4270 7.78406E-02
 -1      4271 7.63054E-02
 -1      4272 7.68137E-02
 -1      4273 9.23028E-02
 -1      4274 1.09555E-01
 -1      4275 1.09555E-01
 -1      4276 8.18176E-02
 -1      4277 9.34730E-02
 -1      4278 7.85218E-02
 -1      4279 8.02082E-02
 -1      4280 8.63956E-02
 -1      4281 9.17132E-02
 -1      4282 7.91854E-02
 -1      4283 7.47454E-02
 -1      4284 7.98755E-02
 -1      4285 9.81708E-02
 -1      4286 7.98755E-02
 -1      4287 5.88682E-02
 -1      4288 1.07257E-01
 -1      4289 7.71365E-02
 -1      4290 9.30348E-02
 -1      4291 8.33870E-02
 -1      4292 6.46957E-02
 -1      4293 8.29640E-02
 -1      4294 9.34730E-02
 -1      4295 9.70307E-02
 -1      4296 8.12042E-02
 -1      4297 9.25490E-02
 -1      4298 6.30698E-02
 -1      4299 9.70307E-02
 -1      4300 1.07011E-01
 -1      4301 8.29640E-02
 -3
 9999
