    1C
    1UUSER                                                              
    1UDATE              27.october.2022                                 
    1UTIME              00:36:05                                        
    1UHOST                                                              
    1UPGM               CalculiX                                        
    1UVERSION           Version 2.17                             
    1UCOMPILETIME       Thu Jul 23 21:43:50 CEST 2020                    
    1UDIR                                                               
    1UDBN                                                               
    1UMAT    1SOLIDMATERIAL                                             
    2C                          4425                                     1
 -1         1 5.72535E+01 3.15165E+01 0.00000E+00
 -1         2 5.98005E+01 2.61155E+01 0.00000E+00
 -1         3 1.50000E+02 0.00000E+00 0.00000E+00
 -1         4 1.50000E+02 5.00000E+01 0.00000E+00
 -1         5 0.00000E+00 0.00000E+00 0.00000E+00
 -1         6 0.00000E+00 5.00000E+01 0.00000E+00
 -1         7 0.00000E+00 4.70500E+01 0.00000E+00
 -1         8 0.00000E+00 4.41000E+01 0.00000E+00
 -1         9 0.00000E+00 4.11500E+01 0.00000E+00
 -1        10 0.00000E+00 3.82000E+01 0.00000E+00
 -1        11 0.00000E+00 3.52500E+01 0.00000E+00
 -1        12 0.00000E+00 3.23500E+01 0.00000E+00
 -1        13 0.00000E+00 2.94000E+01 0.00000E+00
 -1        14 0.00000E+00 2.64500E+01 0.00000E+00
 -1        15 0.00000E+00 2.35000E+01 0.00000E+00
 -1        16 0.00000E+00 2.05500E+01 0.00000E+00
 -1        17 0.00000E+00 1.76000E+01 0.00000E+00
 -1        18 0.00000E+00 1.47000E+01 0.00000E+00
 -1        19 0.00000E+00 1.17500E+01 0.00000E+00
 -1        20 0.00000E+00 8.80000E+00 0.00000E+00
 -1        21 0.00000E+00 5.85000E+00 0.00000E+00
 -1        22 0.00000E+00 2.90000E+00 0.00000E+00
 -1        23 3.15000E+00 5.00000E+01 0.00000E+00
 -1        24 6.15000E+00 5.00000E+01 0.00000E+00
 -1        25 9.15000E+00 5.00000E+01 0.00000E+00
 -1        26 1.21500E+01 5.00000E+01 0.00000E+00
 -1        27 1.51500E+01 5.00000E+01 0.00000E+00
 -1        28 1.81500E+01 5.00000E+01 0.00000E+00
 -1        29 2.11500E+01 5.00000E+01 0.00000E+00
 -1        30 2.41500E+01 5.00000E+01 0.00000E+00
 -1        31 2.71500E+01 5.00000E+01 0.00000E+00
 -1        32 3.01500E+01 5.00000E+01 0.00000E+00
 -1        33 3.31500E+01 5.00000E+01 0.00000E+00
 -1        34 3.61500E+01 5.00000E+01 0.00000E+00
 -1        35 3.91500E+01 5.00000E+01 0.00000E+00
 -1        36 4.21500E+01 5.00000E+01 0.00000E+00
 -1        37 4.51500E+01 5.00000E+01 0.00000E+00
 -1        38 4.81500E+01 5.00000E+01 0.00000E+00
 -1        39 5.11500E+01 5.00000E+01 0.00000E+00
 -1        40 5.41500E+01 5.00000E+01 0.00000E+00
 -1        41 5.71500E+01 5.00000E+01 0.00000E+00
 -1        42 6.01500E+01 5.00000E+01 0.00000E+00
 -1        43 6.31500E+01 5.00000E+01 0.00000E+00
 -1        44 6.61500E+01 5.00000E+01 0.00000E+00
 -1        45 6.91500E+01 5.00000E+01 0.00000E+00
 -1        46 7.21500E+01 5.00000E+01 0.00000E+00
 -1        47 7.51500E+01 5.00000E+01 0.00000E+00
 -1        48 7.81500E+01 5.00000E+01 0.00000E+00
 -1        49 8.11500E+01 5.00000E+01 0.00000E+00
 -1        50 8.41500E+01 5.00000E+01 0.00000E+00
 -1        51 8.71500E+01 5.00000E+01 0.00000E+00
 -1        52 9.01500E+01 5.00000E+01 0.00000E+00
 -1        53 9.31500E+01 5.00000E+01 0.00000E+00
 -1        54 9.61500E+01 5.00000E+01 0.00000E+00
 -1        55 9.91500E+01 5.00000E+01 0.00000E+00
 -1        56 1.02150E+02 5.00000E+01 0.00000E+00
 -1        57 1.05150E+02 5.00000E+01 0.00000E+00
 -1        58 1.08150E+02 5.00000E+01 0.00000E+00
 -1        59 1.11150E+02 5.00000E+01 0.00000E+00
 -1        60 1.14150E+02 5.00000E+01 0.00000E+00
 -1        61 1.17150E+02 5.00000E+01 0.00000E+00
 -1        62 1.20150E+02 5.00000E+01 0.00000E+00
 -1        63 1.23150E+02 5.00000E+01 0.00000E+00
 -1        64 1.26150E+02 5.00000E+01 0.00000E+00
 -1        65 1.29150E+02 5.00000E+01 0.00000E+00
 -1        66 1.32150E+02 5.00000E+01 0.00000E+00
 -1        67 1.35150E+02 5.00000E+01 0.00000E+00
 -1        68 1.38150E+02 5.00000E+01 0.00000E+00
 -1        69 1.41150E+02 5.00000E+01 0.00000E+00
 -1        70 1.44150E+02 5.00000E+01 0.00000E+00
 -1        71 1.47150E+02 5.00000E+01 0.00000E+00
 -1        72 3.15000E+00 0.00000E+00 0.00000E+00
 -1        73 6.15000E+00 0.00000E+00 0.00000E+00
 -1        74 9.15000E+00 0.00000E+00 0.00000E+00
 -1        75 1.21500E+01 0.00000E+00 0.00000E+00
 -1        76 1.51500E+01 0.00000E+00 0.00000E+00
 -1        77 1.81500E+01 0.00000E+00 0.00000E+00
 -1        78 2.11500E+01 0.00000E+00 0.00000E+00
 -1        79 2.41500E+01 0.00000E+00 0.00000E+00
 -1        80 2.71500E+01 0.00000E+00 0.00000E+00
 -1        81 3.01500E+01 0.00000E+00 0.00000E+00
 -1        82 3.31500E+01 0.00000E+00 0.00000E+00
 -1        83 3.61500E+01 0.00000E+00 0.00000E+00
 -1        84 3.91500E+01 0.00000E+00 0.00000E+00
 -1        85 4.21500E+01 0.00000E+00 0.00000E+00
 -1        86 4.51500E+01 0.00000E+00 0.00000E+00
 -1        87 4.81500E+01 0.00000E+00 0.00000E+00
 -1        88 5.11500E+01 0.00000E+00 0.00000E+00
 -1        89 5.41500E+01 0.00000E+00 0.00000E+00
 -1        90 5.71500E+01 0.00000E+00 0.00000E+00
 -1        91 6.01500E+01 0.00000E+00 0.00000E+00
 -1        92 6.31500E+01 0.00000E+00 0.00000E+00
 -1        93 6.61500E+01 0.00000E+00 0.00000E+00
 -1        94 6.91500E+01 0.00000E+00 0.00000E+00
 -1        95 7.21500E+01 0.00000E+00 0.00000E+00
 -1        96 7.51500E+01 0.00000E+00 0.00000E+00
 -1        97 7.81500E+01 0.00000E+00 0.00000E+00
 -1        98 8.11500E+01 0.00000E+00 0.00000E+00
 -1        99 8.41500E+01 0.00000E+00 0.00000E+00
 -1       100 8.71500E+01 0.00000E+00 0.00000E+00
 -1       101 9.01500E+01 0.00000E+00 0.00000E+00
 -1       102 9.31500E+01 0.00000E+00 0.00000E+00
 -1       103 9.61500E+01 0.00000E+00 0.00000E+00
 -1       104 9.91500E+01 0.00000E+00 0.00000E+00
 -1       105 1.02150E+02 0.00000E+00 0.00000E+00
 -1       106 1.05150E+02 0.00000E+00 0.00000E+00
 -1       107 1.08150E+02 0.00000E+00 0.00000E+00
 -1       108 1.11150E+02 0.00000E+00 0.00000E+00
 -1       109 1.14150E+02 0.00000E+00 0.00000E+00
 -1       110 1.17150E+02 0.00000E+00 0.00000E+00
 -1       111 1.20150E+02 0.00000E+00 0.00000E+00
 -1       112 1.23150E+02 0.00000E+00 0.00000E+00
 -1       113 1.26150E+02 0.00000E+00 0.00000E+00
 -1       114 1.29150E+02 0.00000E+00 0.00000E+00
 -1       115 1.32150E+02 0.00000E+00 0.00000E+00
 -1       116 1.35150E+02 0.00000E+00 0.00000E+00
 -1       117 1.38150E+02 0.00000E+00 0.00000E+00
 -1       118 1.41150E+02 0.00000E+00 0.00000E+00
 -1       119 1.44150E+02 0.00000E+00 0.00000E+00
 -1       120 1.47150E+02 0.00000E+00 0.00000E+00
 -1       121 1.50000E+02 2.95000E+00 0.00000E+00
 -1       122 1.50000E+02 5.90000E+00 0.00000E+00
 -1       123 1.50000E+02 8.85000E+00 0.00000E+00
 -1       124 1.50000E+02 1.18000E+01 0.00000E+00
 -1       125 1.50000E+02 1.47500E+01 0.00000E+00
 -1       126 1.50000E+02 1.76500E+01 0.00000E+00
 -1       127 1.50000E+02 2.06000E+01 0.00000E+00
 -1       128 1.50000E+02 2.35500E+01 0.00000E+00
 -1       129 1.50000E+02 2.65000E+01 0.00000E+00
 -1       130 1.50000E+02 2.94500E+01 0.00000E+00
 -1       131 1.50000E+02 3.24000E+01 0.00000E+00
 -1       132 1.50000E+02 3.53000E+01 0.00000E+00
 -1       133 1.50000E+02 3.82500E+01 0.00000E+00
 -1       134 1.50000E+02 4.12000E+01 0.00000E+00
 -1       135 1.50000E+02 4.41500E+01 0.00000E+00
 -1       136 1.50000E+02 4.71000E+01 0.00000E+00
 -1       137 5.96306E+01 2.45824E+01 0.00000E+00
 -1       138 5.91127E+01 2.30896E+01 0.00000E+00
 -1       139 5.83774E+01 2.18848E+01 0.00000E+00
 -1       140 5.72319E+01 2.06967E+01 0.00000E+00
 -1       141 5.58972E+01 1.98377E+01 0.00000E+00
 -1       142 5.44549E+01 1.93138E+01 0.00000E+00
 -1       143 5.28148E+01 1.91155E+01 0.00000E+00
 -1       144 5.13451E+01 1.92684E+01 0.00000E+00
 -1       145 4.99535E+01 1.97206E+01 0.00000E+00
 -1       146 4.86944E+01 2.04463E+01 0.00000E+00
 -1       147 4.76041E+01 2.14254E+01 0.00000E+00
 -1       148 4.67526E+01 2.25909E+01 0.00000E+00
 -1       149 4.61492E+01 2.39338E+01 0.00000E+00
 -1       150 4.58488E+01 2.52951E+01 0.00000E+00
 -1       151 4.58282E+01 2.67369E+01 0.00000E+00
 -1       152 4.61170E+01 2.81965E+01 0.00000E+00
 -1       153 4.67316E+01 2.96038E+01 0.00000E+00
 -1       154 4.76725E+01 3.08803E+01 0.00000E+00
 -1       155 4.88153E+01 3.18703E+01 0.00000E+00
 -1       156 5.00606E+01 3.25569E+01 0.00000E+00
 -1       157 5.15093E+01 3.29953E+01 0.00000E+00
 -1       158 5.31647E+01 3.31060E+01 0.00000E+00
 -1       159 5.45715E+01 3.28877E+01 0.00000E+00
 -1       160 5.59980E+01 3.23425E+01 0.00000E+00
 -1       161 5.83060E+01 3.04387E+01 0.00000E+00
 -1       162 5.91250E+01 2.91157E+01 0.00000E+00
 -1       163 5.96430E+01 2.75920E+01 0.00000E+00
 -1       164 2.59800E+00 4.55750E+01 0.00000E+00
 -1       165 2.59800E+00 4.26250E+01 0.00000E+00
 -1       166 2.59800E+00 3.96750E+01 0.00000E+00
 -1       167 2.59800E+00 3.67250E+01 0.00000E+00
 -1       168 2.59800E+00 3.38250E+01 0.00000E+00
 -1       169 2.59800E+00 3.08750E+01 0.00000E+00
 -1       170 2.59800E+00 2.79250E+01 0.00000E+00
 -1       171 2.59800E+00 2.49750E+01 0.00000E+00
 -1       172 2.59800E+00 2.20250E+01 0.00000E+00
 -1       173 2.59800E+00 1.90750E+01 0.00000E+00
 -1       174 2.59800E+00 1.61750E+01 0.00000E+00
 -1       175 2.59800E+00 1.32250E+01 0.00000E+00
 -1       176 2.59800E+00 1.02750E+01 0.00000E+00
 -1       177 2.59800E+00 7.32500E+00 0.00000E+00
 -1       178 2.59800E+00 4.37500E+00 0.00000E+00
 -1       179 2.87400E+00 2.18750E+00 0.00000E+00
 -1       180 4.65000E+00 4.74020E+01 0.00000E+00
 -1       181 7.65000E+00 4.74020E+01 0.00000E+00
 -1       182 1.06500E+01 4.74020E+01 0.00000E+00
 -1       183 1.36500E+01 4.74020E+01 0.00000E+00
 -1       184 1.66500E+01 4.74020E+01 0.00000E+00
 -1       185 1.96500E+01 4.74020E+01 0.00000E+00
 -1       186 2.26500E+01 4.74020E+01 0.00000E+00
 -1       187 2.56500E+01 4.74020E+01 0.00000E+00
 -1       188 2.86500E+01 4.74020E+01 0.00000E+00
 -1       189 3.16500E+01 4.74020E+01 0.00000E+00
 -1       190 3.46500E+01 4.74020E+01 0.00000E+00
 -1       191 3.76500E+01 4.74020E+01 0.00000E+00
 -1       192 4.06500E+01 4.74020E+01 0.00000E+00
 -1       193 4.36500E+01 4.74020E+01 0.00000E+00
 -1       194 4.66500E+01 4.74020E+01 0.00000E+00
 -1       195 4.96500E+01 4.74020E+01 0.00000E+00
 -1       196 5.26500E+01 4.74020E+01 0.00000E+00
 -1       197 5.56500E+01 4.74020E+01 0.00000E+00
 -1       198 5.86500E+01 4.74020E+01 0.00000E+00
 -1       199 6.16500E+01 4.74020E+01 0.00000E+00
 -1       200 6.46500E+01 4.74020E+01 0.00000E+00
 -1       201 6.76500E+01 4.74020E+01 0.00000E+00
 -1       202 7.06500E+01 4.74020E+01 0.00000E+00
 -1       203 7.36500E+01 4.74020E+01 0.00000E+00
 -1       204 7.66500E+01 4.74020E+01 0.00000E+00
 -1       205 7.96500E+01 4.74020E+01 0.00000E+00
 -1       206 8.26500E+01 4.74020E+01 0.00000E+00
 -1       207 8.56500E+01 4.74020E+01 0.00000E+00
 -1       208 8.86500E+01 4.74020E+01 0.00000E+00
 -1       209 9.16500E+01 4.74020E+01 0.00000E+00
 -1       210 9.46500E+01 4.74020E+01 0.00000E+00
 -1       211 9.76500E+01 4.74020E+01 0.00000E+00
 -1       212 1.00650E+02 4.74020E+01 0.00000E+00
 -1       213 1.03650E+02 4.74020E+01 0.00000E+00
 -1       214 1.06650E+02 4.74020E+01 0.00000E+00
 -1       215 1.09650E+02 4.74020E+01 0.00000E+00
 -1       216 1.12650E+02 4.74020E+01 0.00000E+00
 -1       217 1.15650E+02 4.74020E+01 0.00000E+00
 -1       218 1.18650E+02 4.74020E+01 0.00000E+00
 -1       219 1.21650E+02 4.74020E+01 0.00000E+00
 -1       220 1.24650E+02 4.74020E+01 0.00000E+00
 -1       221 1.27650E+02 4.74020E+01 0.00000E+00
 -1       222 1.30650E+02 4.74020E+01 0.00000E+00
 -1       223 1.33650E+02 4.74020E+01 0.00000E+00
 -1       224 1.36650E+02 4.74020E+01 0.00000E+00
 -1       225 1.39650E+02 4.74020E+01 0.00000E+00
 -1       226 1.42650E+02 4.74020E+01 0.00000E+00
 -1       227 1.45650E+02 4.74020E+01 0.00000E+00
 -1       228 5.87400E+00 2.18750E+00 0.00000E+00
 -1       229 8.87400E+00 2.18750E+00 0.00000E+00
 -1       230 1.18740E+01 2.18750E+00 0.00000E+00
 -1       231 1.48740E+01 2.18750E+00 0.00000E+00
 -1       232 1.78740E+01 2.18750E+00 0.00000E+00
 -1       233 2.08740E+01 2.18750E+00 0.00000E+00
 -1       234 2.38740E+01 2.18750E+00 0.00000E+00
 -1       235 2.68740E+01 2.18750E+00 0.00000E+00
 -1       236 2.98740E+01 2.18750E+00 0.00000E+00
 -1       237 3.28740E+01 2.18750E+00 0.00000E+00
 -1       238 3.58740E+01 2.18750E+00 0.00000E+00
 -1       239 3.88740E+01 2.18750E+00 0.00000E+00
 -1       240 4.18740E+01 2.18750E+00 0.00000E+00
 -1       241 4.48740E+01 2.18750E+00 0.00000E+00
 -1       242 4.78740E+01 2.18750E+00 0.00000E+00
 -1       243 5.08740E+01 2.18750E+00 0.00000E+00
 -1       244 5.38740E+01 2.18750E+00 0.00000E+00
 -1       245 5.68740E+01 2.18750E+00 0.00000E+00
 -1       246 5.98740E+01 2.18750E+00 0.00000E+00
 -1       247 6.28740E+01 2.18750E+00 0.00000E+00
 -1       248 6.58740E+01 2.18750E+00 0.00000E+00
 -1       249 6.88740E+01 2.18750E+00 0.00000E+00
 -1       250 7.18740E+01 2.18750E+00 0.00000E+00
 -1       251 7.48740E+01 2.18750E+00 0.00000E+00
 -1       252 7.78740E+01 2.18750E+00 0.00000E+00
 -1       253 8.08740E+01 2.18750E+00 0.00000E+00
 -1       254 8.38740E+01 2.18750E+00 0.00000E+00
 -1       255 8.68740E+01 2.18750E+00 0.00000E+00
 -1       256 8.98740E+01 2.18750E+00 0.00000E+00
 -1       257 9.28740E+01 2.18750E+00 0.00000E+00
 -1       258 9.58740E+01 2.18750E+00 0.00000E+00
 -1       259 9.88740E+01 2.18750E+00 0.00000E+00
 -1       260 1.01874E+02 2.18750E+00 0.00000E+00
 -1       261 1.04874E+02 2.18750E+00 0.00000E+00
 -1       262 1.07874E+02 2.18750E+00 0.00000E+00
 -1       263 1.10874E+02 2.18750E+00 0.00000E+00
 -1       264 1.13874E+02 2.18750E+00 0.00000E+00
 -1       265 1.16874E+02 2.18750E+00 0.00000E+00
 -1       266 1.19874E+02 2.18750E+00 0.00000E+00
 -1       267 1.22874E+02 2.18750E+00 0.00000E+00
 -1       268 1.25874E+02 2.18750E+00 0.00000E+00
 -1       269 1.28874E+02 2.18750E+00 0.00000E+00
 -1       270 1.31874E+02 2.18750E+00 0.00000E+00
 -1       271 1.34874E+02 2.18750E+00 0.00000E+00
 -1       272 1.37874E+02 2.18750E+00 0.00000E+00
 -1       273 1.40874E+02 2.18750E+00 0.00000E+00
 -1       274 1.43874E+02 2.18750E+00 0.00000E+00
 -1       275 1.46874E+02 2.18750E+00 0.00000E+00
 -1       276 1.47402E+02 4.42500E+00 0.00000E+00
 -1       277 1.47402E+02 7.37500E+00 0.00000E+00
 -1       278 1.47402E+02 1.03250E+01 0.00000E+00
 -1       279 1.47402E+02 1.32750E+01 0.00000E+00
 -1       280 1.47402E+02 1.61750E+01 0.00000E+00
 -1       281 1.47402E+02 1.91250E+01 0.00000E+00
 -1       282 1.47402E+02 2.20750E+01 0.00000E+00
 -1       283 1.47402E+02 2.50250E+01 0.00000E+00
 -1       284 1.47402E+02 2.79750E+01 0.00000E+00
 -1       285 1.47402E+02 3.09250E+01 0.00000E+00
 -1       286 1.47402E+02 3.38250E+01 0.00000E+00
 -1       287 1.47402E+02 3.67750E+01 0.00000E+00
 -1       288 1.47402E+02 3.97250E+01 0.00000E+00
 -1       289 1.47402E+02 4.26750E+01 0.00000E+00
 -1       290 1.46526E+02 4.50385E+01 0.00000E+00
 -1       291 6.10038E+01 2.52061E+01 0.00000E+00
 -1       292 6.06754E+01 2.33838E+01 0.00000E+00
 -1       293 5.97799E+01 2.18556E+01 0.00000E+00
 -1       294 5.87980E+01 2.03329E+01 0.00000E+00
 -1       295 5.72207E+01 1.92477E+01 0.00000E+00
 -1       296 5.56472E+01 1.82787E+01 0.00000E+00
 -1       297 5.38206E+01 1.76783E+01 0.00000E+00
 -1       298 5.19458E+01 1.79027E+01 0.00000E+00
 -1       299 5.02488E+01 1.82618E+01 0.00000E+00
 -1       300 4.86767E+01 1.89604E+01 0.00000E+00
 -1       301 4.72832E+01 1.99714E+01 0.00000E+00
 -1       302 4.61993E+01 2.12930E+01 0.00000E+00
 -1       303 4.53450E+01 2.27655E+01 0.00000E+00
 -1       304 4.48151E+01 2.43531E+01 0.00000E+00
 -1       305 4.45424E+01 2.59975E+01 0.00000E+00
 -1       306 4.47010E+01 2.77183E+01 0.00000E+00
 -1       307 4.51597E+01 2.94524E+01 0.00000E+00
 -1       308 4.60238E+01 3.11106E+01 0.00000E+00
 -1       309 4.74500E+01 3.22917E+01 0.00000E+00
 -1       310 4.88525E+01 3.32753E+01 0.00000E+00
 -1       311 5.03853E+01 3.40970E+01 0.00000E+00
 -1       312 5.22338E+01 3.45948E+01 0.00000E+00
 -1       313 5.40540E+01 3.41949E+01 0.00000E+00
 -1       314 5.58373E+01 3.40606E+01 0.00000E+00
 -1       315 5.73842E+01 3.30823E+01 0.00000E+00
 -1       316 5.86472E+01 3.18246E+01 0.00000E+00
 -1       317 5.97463E+01 3.04153E+01 0.00000E+00
 -1       318 6.06905E+01 2.87980E+01 0.00000E+00
 -1       319 6.09273E+01 2.69823E+01 0.00000E+00
 -1       320 5.19600E+00 4.11500E+01 0.00000E+00
 -1       321 5.19600E+00 4.41000E+01 0.00000E+00
 -1       322 5.19600E+00 3.52750E+01 0.00000E+00
 -1       323 5.19600E+00 3.23250E+01 0.00000E+00
 -1       324 5.19600E+00 2.93750E+01 0.00000E+00
 -1       325 5.19600E+00 2.64250E+01 0.00000E+00
 -1       326 5.19600E+00 2.34750E+01 0.00000E+00
 -1       327 5.19600E+00 2.05250E+01 0.00000E+00
 -1       328 5.19600E+00 1.76250E+01 0.00000E+00
 -1       329 5.19600E+00 1.46750E+01 0.00000E+00
 -1       330 5.19600E+00 1.17250E+01 0.00000E+00
 -1       331 5.19600E+00 8.77500E+00 0.00000E+00
 -1       332 5.19600E+00 5.82500E+00 0.00000E+00
 -1       333 5.53500E+00 4.00625E+00 0.00000E+00
 -1       334 8.53500E+00 4.00625E+00 0.00000E+00
 -1       335 9.15000E+00 4.48040E+01 0.00000E+00
 -1       336 1.21500E+01 4.48040E+01 0.00000E+00
 -1       337 1.51500E+01 4.48040E+01 0.00000E+00
 -1       338 1.81500E+01 4.48040E+01 0.00000E+00
 -1       339 2.11500E+01 4.48040E+01 0.00000E+00
 -1       340 2.41500E+01 4.48040E+01 0.00000E+00
 -1       341 2.71500E+01 4.48040E+01 0.00000E+00
 -1       342 3.01500E+01 4.48040E+01 0.00000E+00
 -1       343 3.31500E+01 4.48040E+01 0.00000E+00
 -1       344 3.61500E+01 4.48040E+01 0.00000E+00
 -1       345 3.91500E+01 4.48040E+01 0.00000E+00
 -1       346 4.21500E+01 4.48040E+01 0.00000E+00
 -1       347 4.51500E+01 4.48040E+01 0.00000E+00
 -1       348 4.81500E+01 4.48040E+01 0.00000E+00
 -1       349 5.11500E+01 4.48040E+01 0.00000E+00
 -1       350 5.41500E+01 4.48040E+01 0.00000E+00
 -1       351 5.71500E+01 4.48040E+01 0.00000E+00
 -1       352 6.01500E+01 4.48040E+01 0.00000E+00
 -1       353 6.31500E+01 4.48040E+01 0.00000E+00
 -1       354 6.61500E+01 4.48040E+01 0.00000E+00
 -1       355 6.91500E+01 4.48040E+01 0.00000E+00
 -1       356 7.21500E+01 4.48040E+01 0.00000E+00
 -1       357 7.51500E+01 4.48040E+01 0.00000E+00
 -1       358 7.81500E+01 4.48040E+01 0.00000E+00
 -1       359 8.11500E+01 4.48040E+01 0.00000E+00
 -1       360 8.41500E+01 4.48040E+01 0.00000E+00
 -1       361 8.71500E+01 4.48040E+01 0.00000E+00
 -1       362 9.01500E+01 4.48040E+01 0.00000E+00
 -1       363 9.31500E+01 4.48040E+01 0.00000E+00
 -1       364 9.61500E+01 4.48040E+01 0.00000E+00
 -1       365 9.91500E+01 4.48040E+01 0.00000E+00
 -1       366 1.02150E+02 4.48040E+01 0.00000E+00
 -1       367 1.05150E+02 4.48040E+01 0.00000E+00
 -1       368 1.08150E+02 4.48040E+01 0.00000E+00
 -1       369 1.11150E+02 4.48040E+01 0.00000E+00
 -1       370 1.14150E+02 4.48040E+01 0.00000E+00
 -1       371 1.17150E+02 4.48040E+01 0.00000E+00
 -1       372 1.20150E+02 4.48040E+01 0.00000E+00
 -1       373 1.23150E+02 4.48040E+01 0.00000E+00
 -1       374 1.26150E+02 4.48040E+01 0.00000E+00
 -1       375 1.29150E+02 4.48040E+01 0.00000E+00
 -1       376 1.32150E+02 4.48040E+01 0.00000E+00
 -1       377 1.35150E+02 4.48040E+01 0.00000E+00
 -1       378 1.38150E+02 4.48040E+01 0.00000E+00
 -1       379 1.41150E+02 4.48040E+01 0.00000E+00
 -1       380 1.43838E+02 4.49212E+01 0.00000E+00
 -1       381 1.15350E+01 4.00625E+00 0.00000E+00
 -1       382 1.45350E+01 4.00625E+00 0.00000E+00
 -1       383 1.75350E+01 4.00625E+00 0.00000E+00
 -1       384 2.05350E+01 4.00625E+00 0.00000E+00
 -1       385 2.35350E+01 4.00625E+00 0.00000E+00
 -1       386 2.65350E+01 4.00625E+00 0.00000E+00
 -1       387 2.95350E+01 4.00625E+00 0.00000E+00
 -1       388 3.25350E+01 4.00625E+00 0.00000E+00
 -1       389 3.55350E+01 4.00625E+00 0.00000E+00
 -1       390 3.85350E+01 4.00625E+00 0.00000E+00
 -1       391 4.15350E+01 4.00625E+00 0.00000E+00
 -1       392 4.45350E+01 4.00625E+00 0.00000E+00
 -1       393 4.75350E+01 4.00625E+00 0.00000E+00
 -1       394 5.05350E+01 4.00625E+00 0.00000E+00
 -1       395 5.35350E+01 4.00625E+00 0.00000E+00
 -1       396 5.65350E+01 4.00625E+00 0.00000E+00
 -1       397 5.95350E+01 4.00625E+00 0.00000E+00
 -1       398 6.25350E+01 4.00625E+00 0.00000E+00
 -1       399 6.55350E+01 4.00625E+00 0.00000E+00
 -1       400 6.85350E+01 4.00625E+00 0.00000E+00
 -1       401 7.15350E+01 4.00625E+00 0.00000E+00
 -1       402 7.45350E+01 4.00625E+00 0.00000E+00
 -1       403 7.75350E+01 4.00625E+00 0.00000E+00
 -1       404 8.05350E+01 4.00625E+00 0.00000E+00
 -1       405 8.35350E+01 4.00625E+00 0.00000E+00
 -1       406 8.65350E+01 4.00625E+00 0.00000E+00
 -1       407 8.95350E+01 4.00625E+00 0.00000E+00
 -1       408 9.25350E+01 4.00625E+00 0.00000E+00
 -1       409 9.55350E+01 4.00625E+00 0.00000E+00
 -1       410 9.85350E+01 4.00625E+00 0.00000E+00
 -1       411 1.01535E+02 4.00625E+00 0.00000E+00
 -1       412 1.04535E+02 4.00625E+00 0.00000E+00
 -1       413 1.07535E+02 4.00625E+00 0.00000E+00
 -1       414 1.10535E+02 4.00625E+00 0.00000E+00
 -1       415 1.13535E+02 4.00625E+00 0.00000E+00
 -1       416 1.16535E+02 4.00625E+00 0.00000E+00
 -1       417 1.19535E+02 4.00625E+00 0.00000E+00
 -1       418 1.22535E+02 4.00625E+00 0.00000E+00
 -1       419 1.25535E+02 4.00625E+00 0.00000E+00
 -1       420 1.28535E+02 4.00625E+00 0.00000E+00
 -1       421 1.31535E+02 4.00625E+00 0.00000E+00
 -1       422 1.34535E+02 4.00625E+00 0.00000E+00
 -1       423 1.37535E+02 4.00625E+00 0.00000E+00
 -1       424 1.40535E+02 4.00625E+00 0.00000E+00
 -1       425 1.43535E+02 4.00625E+00 0.00000E+00
 -1       426 1.45469E+02 4.21562E+00 0.00000E+00
 -1       427 1.44804E+02 1.18000E+01 0.00000E+00
 -1       428 1.44804E+02 8.85000E+00 0.00000E+00
 -1       429 1.45136E+02 6.53281E+00 0.00000E+00
 -1       430 1.44804E+02 1.47000E+01 0.00000E+00
 -1       431 1.44804E+02 1.76500E+01 0.00000E+00
 -1       432 1.44804E+02 2.06000E+01 0.00000E+00
 -1       433 1.44804E+02 2.35500E+01 0.00000E+00
 -1       434 1.44804E+02 2.65000E+01 0.00000E+00
 -1       435 1.44804E+02 2.94500E+01 0.00000E+00
 -1       436 1.44804E+02 3.23500E+01 0.00000E+00
 -1       437 1.44804E+02 3.53000E+01 0.00000E+00
 -1       438 1.44804E+02 3.82500E+01 0.00000E+00
 -1       439 1.44804E+02 4.12000E+01 0.00000E+00
 -1       440 6.14183E+01 2.19220E+01 0.00000E+00
 -1       441 6.23443E+01 2.61536E+01 0.00000E+00
 -1       442 6.25275E+01 2.39908E+01 0.00000E+00
 -1       443 6.04364E+01 2.03993E+01 0.00000E+00
 -1       444 5.87440E+01 1.87224E+01 0.00000E+00
 -1       445 5.19600E+00 3.82125E+01 0.00000E+00
 -1       446 5.52695E+01 1.63491E+01 0.00000E+00
 -1       447 5.27291E+01 1.65035E+01 0.00000E+00
 -1       448 5.07943E+01 1.66502E+01 0.00000E+00
 -1       449 4.88343E+01 1.71969E+01 0.00000E+00
 -1       450 4.71696E+01 1.83489E+01 0.00000E+00
 -1       451 4.56743E+01 1.97571E+01 0.00000E+00
 -1       452 4.46510E+01 2.13787E+01 0.00000E+00
 -1       453 4.36121E+01 2.30694E+01 0.00000E+00
 -1       454 4.33173E+01 2.49496E+01 0.00000E+00
 -1       455 4.32476E+01 2.69846E+01 0.00000E+00
 -1       456 4.35153E+01 2.89597E+01 0.00000E+00
 -1       457 4.40708E+01 3.10742E+01 0.00000E+00
 -1       458 4.59102E+01 3.26994E+01 0.00000E+00
 -1       459 4.74070E+01 3.38447E+01 0.00000E+00
 -1       460 4.89669E+01 3.49024E+01 0.00000E+00
 -1       461 5.09725E+01 3.55975E+01 0.00000E+00
 -1       462 5.34939E+01 3.59882E+01 0.00000E+00
 -1       463 5.52772E+01 3.58539E+01 0.00000E+00
 -1       464 5.75275E+01 3.50210E+01 0.00000E+00
 -1       465 5.90486E+01 3.34906E+01 0.00000E+00
 -1       466 6.02849E+01 3.19686E+01 0.00000E+00
 -1       467 6.14102E+01 3.03024E+01 0.00000E+00
 -1       468 6.23435E+01 2.80903E+01 0.00000E+00
 -1       469 5.72015E+01 1.75168E+01 0.00000E+00
 -1       470 6.03824E+01 1.87889E+01 0.00000E+00
 -1       471 5.22326E+01 3.69909E+01 0.00000E+00
 -1       472 5.41780E+01 1.51744E+01 0.00000E+00
 -1       473 1.00350E+01 6.60425E+00 0.00000E+00
 -1       474 7.79400E+00 3.08500E+01 0.00000E+00
 -1       475 7.79400E+00 3.38000E+01 0.00000E+00
 -1       476 7.79400E+00 2.49500E+01 0.00000E+00
 -1       477 7.79400E+00 2.20000E+01 0.00000E+00
 -1       478 7.79400E+00 1.91000E+01 0.00000E+00
 -1       479 7.79400E+00 1.61500E+01 0.00000E+00
 -1       480 7.79400E+00 1.32000E+01 0.00000E+00
 -1       481 7.79400E+00 1.02500E+01 0.00000E+00
 -1       482 1.30350E+01 6.60425E+00 0.00000E+00
 -1       483 1.06500E+01 4.22060E+01 0.00000E+00
 -1       484 5.72960E+01 1.51783E+01 0.00000E+00
 -1       485 1.36500E+01 4.22060E+01 0.00000E+00
 -1       486 1.66500E+01 4.22060E+01 0.00000E+00
 -1       487 1.96500E+01 4.22060E+01 0.00000E+00
 -1       488 2.26500E+01 4.22060E+01 0.00000E+00
 -1       489 2.56500E+01 4.22060E+01 0.00000E+00
 -1       490 2.86500E+01 4.22060E+01 0.00000E+00
 -1       491 3.16500E+01 4.22060E+01 0.00000E+00
 -1       492 3.46500E+01 4.22060E+01 0.00000E+00
 -1       493 3.76500E+01 4.22060E+01 0.00000E+00
 -1       494 4.06500E+01 4.22060E+01 0.00000E+00
 -1       495 4.36500E+01 4.22060E+01 0.00000E+00
 -1       496 4.66500E+01 4.22060E+01 0.00000E+00
 -1       497 4.96500E+01 4.22060E+01 0.00000E+00
 -1       498 5.26500E+01 4.22060E+01 0.00000E+00
 -1       499 5.56500E+01 4.22060E+01 0.00000E+00
 -1       500 5.86500E+01 4.22060E+01 0.00000E+00
 -1       501 6.16500E+01 4.22060E+01 0.00000E+00
 -1       502 6.46500E+01 4.22060E+01 0.00000E+00
 -1       503 6.76500E+01 4.22060E+01 0.00000E+00
 -1       504 7.06500E+01 4.22060E+01 0.00000E+00
 -1       505 7.36500E+01 4.22060E+01 0.00000E+00
 -1       506 7.66500E+01 4.22060E+01 0.00000E+00
 -1       507 7.96500E+01 4.22060E+01 0.00000E+00
 -1       508 8.26500E+01 4.22060E+01 0.00000E+00
 -1       509 8.56500E+01 4.22060E+01 0.00000E+00
 -1       510 8.86500E+01 4.22060E+01 0.00000E+00
 -1       511 9.16500E+01 4.22060E+01 0.00000E+00
 -1       512 9.46500E+01 4.22060E+01 0.00000E+00
 -1       513 9.76500E+01 4.22060E+01 0.00000E+00
 -1       514 1.00650E+02 4.22060E+01 0.00000E+00
 -1       515 1.03650E+02 4.22060E+01 0.00000E+00
 -1       516 1.06650E+02 4.22060E+01 0.00000E+00
 -1       517 1.09650E+02 4.22060E+01 0.00000E+00
 -1       518 1.12650E+02 4.22060E+01 0.00000E+00
 -1       519 1.15650E+02 4.22060E+01 0.00000E+00
 -1       520 1.18650E+02 4.22060E+01 0.00000E+00
 -1       521 1.21650E+02 4.22060E+01 0.00000E+00
 -1       522 1.24650E+02 4.22060E+01 0.00000E+00
 -1       523 1.27650E+02 4.22060E+01 0.00000E+00
 -1       524 1.30650E+02 4.22060E+01 0.00000E+00
 -1       525 1.33650E+02 4.22060E+01 0.00000E+00
 -1       526 1.36650E+02 4.22060E+01 0.00000E+00
 -1       527 1.39650E+02 4.22060E+01 0.00000E+00
 -1       528 1.90350E+01 6.60425E+00 0.00000E+00
 -1       529 2.20350E+01 6.60425E+00 0.00000E+00
 -1       530 2.50350E+01 6.60425E+00 0.00000E+00
 -1       531 2.80350E+01 6.60425E+00 0.00000E+00
 -1       532 3.10350E+01 6.60425E+00 0.00000E+00
 -1       533 3.40350E+01 6.60425E+00 0.00000E+00
 -1       534 3.70350E+01 6.60425E+00 0.00000E+00
 -1       535 4.00350E+01 6.60425E+00 0.00000E+00
 -1       536 4.30350E+01 6.60425E+00 0.00000E+00
 -1       537 4.60350E+01 6.60425E+00 0.00000E+00
 -1       538 4.90350E+01 6.60425E+00 0.00000E+00
 -1       539 5.20350E+01 6.60425E+00 0.00000E+00
 -1       540 5.50350E+01 6.60425E+00 0.00000E+00
 -1       541 5.80350E+01 6.60425E+00 0.00000E+00
 -1       542 6.10350E+01 6.60425E+00 0.00000E+00
 -1       543 6.40350E+01 6.60425E+00 0.00000E+00
 -1       544 6.70350E+01 6.60425E+00 0.00000E+00
 -1       545 7.00350E+01 6.60425E+00 0.00000E+00
 -1       546 7.30350E+01 6.60425E+00 0.00000E+00
 -1       547 7.60350E+01 6.60425E+00 0.00000E+00
 -1       548 7.90350E+01 6.60425E+00 0.00000E+00
 -1       549 8.20350E+01 6.60425E+00 0.00000E+00
 -1       550 8.50350E+01 6.60425E+00 0.00000E+00
 -1       551 8.80350E+01 6.60425E+00 0.00000E+00
 -1       552 9.10350E+01 6.60425E+00 0.00000E+00
 -1       553 9.40350E+01 6.60425E+00 0.00000E+00
 -1       554 9.70350E+01 6.60425E+00 0.00000E+00
 -1       555 1.00035E+02 6.60425E+00 0.00000E+00
 -1       556 1.03035E+02 6.60425E+00 0.00000E+00
 -1       557 1.06035E+02 6.60425E+00 0.00000E+00
 -1       558 1.09035E+02 6.60425E+00 0.00000E+00
 -1       559 1.12035E+02 6.60425E+00 0.00000E+00
 -1       560 1.15035E+02 6.60425E+00 0.00000E+00
 -1       561 1.18035E+02 6.60425E+00 0.00000E+00
 -1       562 1.21035E+02 6.60425E+00 0.00000E+00
 -1       563 1.24035E+02 6.60425E+00 0.00000E+00
 -1       564 1.27035E+02 6.60425E+00 0.00000E+00
 -1       565 1.30035E+02 6.60425E+00 0.00000E+00
 -1       566 1.33035E+02 6.60425E+00 0.00000E+00
 -1       567 1.36035E+02 6.60425E+00 0.00000E+00
 -1       568 1.39035E+02 6.60425E+00 0.00000E+00
 -1       569 1.42035E+02 6.60425E+00 0.00000E+00
 -1       570 1.42206E+02 1.61750E+01 0.00000E+00
 -1       571 1.42206E+02 1.91250E+01 0.00000E+00
 -1       572 1.42206E+02 1.03250E+01 0.00000E+00
 -1       573 1.42206E+02 1.32500E+01 0.00000E+00
 -1       574 1.42206E+02 2.20750E+01 0.00000E+00
 -1       575 1.42206E+02 2.50250E+01 0.00000E+00
 -1       576 1.42206E+02 2.79750E+01 0.00000E+00
 -1       577 1.42206E+02 3.08750E+01 0.00000E+00
 -1       578 1.42206E+02 3.38250E+01 0.00000E+00
 -1       579 1.42206E+02 3.67750E+01 0.00000E+00
 -1       580 1.42206E+02 3.97250E+01 0.00000E+00
 -1       581 6.43119E+01 2.52312E+01 0.00000E+00
 -1       582 6.32629E+01 2.22647E+01 0.00000E+00
 -1       583 6.43111E+01 2.71679E+01 0.00000E+00
 -1       584 1.60350E+01 6.60425E+00 0.00000E+00
 -1       585 6.22279E+01 2.03220E+01 0.00000E+00
 -1       586 7.92300E+00 4.16780E+01 0.00000E+00
 -1       587 5.88742E+01 1.69663E+01 0.00000E+00
 -1       588 7.79400E+00 2.79000E+01 0.00000E+00
 -1       589 5.16511E+01 1.51173E+01 0.00000E+00
 -1       590 5.95045E+01 3.54649E+01 0.00000E+00
 -1       591 4.93760E+01 1.53522E+01 0.00000E+00
 -1       592 4.70259E+01 1.63626E+01 0.00000E+00
 -1       593 4.53036E+01 1.78654E+01 0.00000E+00
 -1       594 4.39247E+01 1.97868E+01 0.00000E+00
 -1       595 4.28844E+01 2.14577E+01 0.00000E+00
 -1       596 4.18531E+01 2.37568E+01 0.00000E+00
 -1       597 4.15683E+01 2.59083E+01 0.00000E+00
 -1       598 4.18479E+01 2.81800E+01 0.00000E+00
 -1       599 4.21342E+01 3.04527E+01 0.00000E+00
 -1       600 4.38549E+01 3.31721E+01 0.00000E+00
 -1       601 4.56673E+01 3.45676E+01 0.00000E+00
 -1       602 4.72272E+01 3.56253E+01 0.00000E+00
 -1       603 4.94081E+01 3.68705E+01 0.00000E+00
 -1       604 5.45269E+01 3.77984E+01 0.00000E+00
 -1       605 5.70559E+01 3.72031E+01 0.00000E+00
 -1       606 6.08029E+01 3.36525E+01 0.00000E+00
 -1       607 6.20605E+01 3.19548E+01 0.00000E+00
 -1       608 6.32254E+01 2.97654E+01 0.00000E+00
 -1       609 7.61550E+00 6.21462E+00 0.00000E+00
 -1       610 7.79400E+00 3.67375E+01 0.00000E+00
 -1       611 6.50472E+01 2.35051E+01 0.00000E+00
 -1       612 4.19183E+01 3.25506E+01 0.00000E+00
 -1       613 5.06681E+01 3.82639E+01 0.00000E+00
 -1       614 5.62045E+01 1.40035E+01 0.00000E+00
 -1       615 1.41678E+02 4.22645E+01 0.00000E+00
 -1       616 1.03920E+01 2.05500E+01 0.00000E+00
 -1       617 1.03920E+01 2.35000E+01 0.00000E+00
 -1       618 1.03920E+01 1.46750E+01 0.00000E+00
 -1       619 1.03920E+01 1.17250E+01 0.00000E+00
 -1       620 1.15350E+01 9.20225E+00 0.00000E+00
 -1       621 1.45350E+01 9.20225E+00 0.00000E+00
 -1       622 6.53507E+01 2.91280E+01 0.00000E+00
 -1       623 1.51500E+01 3.96080E+01 0.00000E+00
 -1       624 1.81500E+01 3.96080E+01 0.00000E+00
 -1       625 2.11500E+01 3.96080E+01 0.00000E+00
 -1       626 2.41500E+01 3.96080E+01 0.00000E+00
 -1       627 2.71500E+01 3.96080E+01 0.00000E+00
 -1       628 3.01500E+01 3.96080E+01 0.00000E+00
 -1       629 3.31500E+01 3.96080E+01 0.00000E+00
 -1       630 3.61500E+01 3.96080E+01 0.00000E+00
 -1       631 3.91500E+01 3.96080E+01 0.00000E+00
 -1       632 4.21500E+01 3.96080E+01 0.00000E+00
 -1       633 4.51500E+01 3.96080E+01 0.00000E+00
 -1       634 5.11500E+01 3.99882E+01 0.00000E+00
 -1       635 5.41500E+01 3.99882E+01 0.00000E+00
 -1       636 5.71500E+01 3.99882E+01 0.00000E+00
 -1       637 6.01500E+01 3.99882E+01 0.00000E+00
 -1       638 6.31500E+01 3.99882E+01 0.00000E+00
 -1       639 6.61500E+01 3.99882E+01 0.00000E+00
 -1       640 6.91500E+01 3.99882E+01 0.00000E+00
 -1       641 7.21500E+01 3.99882E+01 0.00000E+00
 -1       642 7.51500E+01 3.99882E+01 0.00000E+00
 -1       643 7.81500E+01 3.99882E+01 0.00000E+00
 -1       644 8.11500E+01 3.99882E+01 0.00000E+00
 -1       645 8.41500E+01 3.99882E+01 0.00000E+00
 -1       646 8.71500E+01 3.99882E+01 0.00000E+00
 -1       647 9.01500E+01 3.99882E+01 0.00000E+00
 -1       648 9.31500E+01 3.99882E+01 0.00000E+00
 -1       649 9.61500E+01 3.99882E+01 0.00000E+00
 -1       650 9.91500E+01 3.99882E+01 0.00000E+00
 -1       651 1.02150E+02 3.99882E+01 0.00000E+00
 -1       652 1.05150E+02 3.99882E+01 0.00000E+00
 -1       653 1.08150E+02 3.99882E+01 0.00000E+00
 -1       654 1.11150E+02 3.99882E+01 0.00000E+00
 -1       655 1.14150E+02 3.99882E+01 0.00000E+00
 -1       656 1.17150E+02 3.99882E+01 0.00000E+00
 -1       657 1.20150E+02 3.99882E+01 0.00000E+00
 -1       658 1.23150E+02 3.99882E+01 0.00000E+00
 -1       659 1.26150E+02 3.99882E+01 0.00000E+00
 -1       660 1.29150E+02 3.99882E+01 0.00000E+00
 -1       661 1.32150E+02 3.99882E+01 0.00000E+00
 -1       662 1.35150E+02 3.99882E+01 0.00000E+00
 -1       663 1.38150E+02 3.99882E+01 0.00000E+00
 -1       664 2.35350E+01 9.20225E+00 0.00000E+00
 -1       665 1.39206E+02 1.03250E+01 0.00000E+00
 -1       666 2.05350E+01 9.20225E+00 0.00000E+00
 -1       667 2.95350E+01 9.20225E+00 0.00000E+00
 -1       668 3.25350E+01 9.20225E+00 0.00000E+00
 -1       669 3.55350E+01 9.20225E+00 0.00000E+00
 -1       670 3.85350E+01 9.20225E+00 0.00000E+00
 -1       671 4.15350E+01 9.20225E+00 0.00000E+00
 -1       672 4.45350E+01 9.20225E+00 0.00000E+00
 -1       673 4.75350E+01 9.20225E+00 0.00000E+00
 -1       674 5.05350E+01 9.20225E+00 0.00000E+00
 -1       675 5.35350E+01 9.20225E+00 0.00000E+00
 -1       676 5.65350E+01 9.20225E+00 0.00000E+00
 -1       677 5.95350E+01 9.20225E+00 0.00000E+00
 -1       678 6.25350E+01 9.20225E+00 0.00000E+00
 -1       679 6.55350E+01 9.20225E+00 0.00000E+00
 -1       680 6.85350E+01 9.20225E+00 0.00000E+00
 -1       681 7.15350E+01 9.20225E+00 0.00000E+00
 -1       682 7.45350E+01 9.20225E+00 0.00000E+00
 -1       683 7.75350E+01 9.20225E+00 0.00000E+00
 -1       684 8.05350E+01 9.20225E+00 0.00000E+00
 -1       685 8.35350E+01 9.20225E+00 0.00000E+00
 -1       686 8.65350E+01 9.20225E+00 0.00000E+00
 -1       687 8.95350E+01 9.20225E+00 0.00000E+00
 -1       688 9.25350E+01 9.20225E+00 0.00000E+00
 -1       689 9.55350E+01 9.20225E+00 0.00000E+00
 -1       690 9.85350E+01 9.20225E+00 0.00000E+00
 -1       691 1.01535E+02 9.20225E+00 0.00000E+00
 -1       692 1.04535E+02 9.20225E+00 0.00000E+00
 -1       693 1.07535E+02 9.20225E+00 0.00000E+00
 -1       694 1.10535E+02 9.20225E+00 0.00000E+00
 -1       695 1.13535E+02 9.20225E+00 0.00000E+00
 -1       696 1.16535E+02 9.20225E+00 0.00000E+00
 -1       697 1.19535E+02 9.20225E+00 0.00000E+00
 -1       698 1.22535E+02 9.20225E+00 0.00000E+00
 -1       699 1.25535E+02 9.20225E+00 0.00000E+00
 -1       700 1.28535E+02 9.20225E+00 0.00000E+00
 -1       701 1.31535E+02 9.20225E+00 0.00000E+00
 -1       702 1.34535E+02 9.20225E+00 0.00000E+00
 -1       703 1.36870E+02 9.76363E+00 0.00000E+00
 -1       704 1.39608E+02 2.35500E+01 0.00000E+00
 -1       705 1.40178E+02 3.98566E+01 0.00000E+00
 -1       706 1.39608E+02 1.76500E+01 0.00000E+00
 -1       707 1.39608E+02 2.65000E+01 0.00000E+00
 -1       708 1.39608E+02 2.06000E+01 0.00000E+00
 -1       709 6.28098E+01 3.38245E+01 0.00000E+00
 -1       710 1.39608E+02 2.94000E+01 0.00000E+00
 -1       711 1.39608E+02 3.23500E+01 0.00000E+00
 -1       712 1.39608E+02 3.53000E+01 0.00000E+00
 -1       713 1.39893E+02 3.75783E+01 0.00000E+00
 -1       714 6.41571E+01 3.16657E+01 0.00000E+00
 -1       715 1.75350E+01 9.20225E+00 0.00000E+00
 -1       716 9.78035E+00 3.93914E+01 0.00000E+00
 -1       717 6.25082E+01 1.81073E+01 0.00000E+00
 -1       718 6.61941E+01 2.62003E+01 0.00000E+00
 -1       719 2.65350E+01 9.20225E+00 0.00000E+00
 -1       720 1.24652E+01 3.94997E+01 0.00000E+00
 -1       721 1.03920E+01 1.76125E+01 0.00000E+00
 -1       722 4.35102E+01 3.54943E+01 0.00000E+00
 -1       723 4.75088E+01 3.76646E+01 0.00000E+00
 -1       724 1.03920E+01 3.23250E+01 0.00000E+00
 -1       725 6.15115E+01 3.56369E+01 0.00000E+00
 -1       726 4.73250E+01 1.38199E+01 0.00000E+00
 -1       727 4.49270E+01 1.56954E+01 0.00000E+00
 -1       728 4.32207E+01 1.78261E+01 0.00000E+00
 -1       729 4.20197E+01 1.97600E+01 0.00000E+00
 -1       730 4.04981E+01 2.17681E+01 0.00000E+00
 -1       731 3.98443E+01 2.45856E+01 0.00000E+00
 -1       732 4.02894E+01 2.95307E+01 0.00000E+00
 -1       733 4.55095E+01 3.65794E+01 0.00000E+00
 -1       734 4.00098E+01 2.72591E+01 0.00000E+00
 -1       735 5.29608E+01 1.30961E+01 0.00000E+00
 -1       736 5.03374E+01 1.35287E+01 0.00000E+00
 -1       737 5.93700E+01 3.78692E+01 0.00000E+00
 -1       738 6.41852E+01 2.05263E+01 0.00000E+00
 -1       739 5.93081E+01 1.49928E+01 0.00000E+00
 -1       740 6.09082E+01 1.65500E+01 0.00000E+00
 -1       741 1.03920E+01 3.52625E+01 0.00000E+00
 -1       742 1.03920E+01 2.64500E+01 0.00000E+00
 -1       743 6.69295E+01 2.44742E+01 0.00000E+00
 -1       744 4.15736E+01 3.48729E+01 0.00000E+00
 -1       745 4.81500E+01 3.98206E+01 0.00000E+00
 -1       746 1.39608E+02 1.47250E+01 0.00000E+00
 -1       747 6.59695E+01 2.17667E+01 0.00000E+00
 -1       748 5.82166E+01 1.38180E+01 0.00000E+00
 -1       749 4.00735E+01 3.16286E+01 0.00000E+00
 -1       750 1.03920E+01 2.93875E+01 0.00000E+00
 -1       751 5.27547E+01 3.91705E+01 0.00000E+00
 -1       752 1.29900E+01 1.32000E+01 0.00000E+00
 -1       753 1.96500E+01 3.70100E+01 0.00000E+00
 -1       754 2.26500E+01 3.70100E+01 0.00000E+00
 -1       755 2.56500E+01 3.70100E+01 0.00000E+00
 -1       756 2.86500E+01 3.70100E+01 0.00000E+00
 -1       757 3.16500E+01 3.70100E+01 0.00000E+00
 -1       758 3.46500E+01 3.70100E+01 0.00000E+00
 -1       759 3.76500E+01 3.70100E+01 0.00000E+00
 -1       760 6.23700E+01 3.78692E+01 0.00000E+00
 -1       761 6.53700E+01 3.78692E+01 0.00000E+00
 -1       762 6.83700E+01 3.78692E+01 0.00000E+00
 -1       763 7.13700E+01 3.78692E+01 0.00000E+00
 -1       764 7.43700E+01 3.78692E+01 0.00000E+00
 -1       765 7.73700E+01 3.78692E+01 0.00000E+00
 -1       766 8.03700E+01 3.78692E+01 0.00000E+00
 -1       767 8.33700E+01 3.78692E+01 0.00000E+00
 -1       768 8.63700E+01 3.78692E+01 0.00000E+00
 -1       769 8.93700E+01 3.78692E+01 0.00000E+00
 -1       770 9.23700E+01 3.78692E+01 0.00000E+00
 -1       771 9.53700E+01 3.78692E+01 0.00000E+00
 -1       772 9.83700E+01 3.78692E+01 0.00000E+00
 -1       773 1.01370E+02 3.78692E+01 0.00000E+00
 -1       774 1.04370E+02 3.78692E+01 0.00000E+00
 -1       775 1.07370E+02 3.78692E+01 0.00000E+00
 -1       776 1.10370E+02 3.78692E+01 0.00000E+00
 -1       777 1.13370E+02 3.78692E+01 0.00000E+00
 -1       778 1.16370E+02 3.78692E+01 0.00000E+00
 -1       779 1.19370E+02 3.78692E+01 0.00000E+00
 -1       780 1.22370E+02 3.78692E+01 0.00000E+00
 -1       781 1.25370E+02 3.78692E+01 0.00000E+00
 -1       782 1.28370E+02 3.78692E+01 0.00000E+00
 -1       783 1.31370E+02 3.78692E+01 0.00000E+00
 -1       784 1.34370E+02 3.78692E+01 0.00000E+00
 -1       785 2.20350E+01 1.18003E+01 0.00000E+00
 -1       786 3.40350E+01 1.18003E+01 0.00000E+00
 -1       787 3.10350E+01 1.18003E+01 0.00000E+00
 -1       788 4.00350E+01 1.18003E+01 0.00000E+00
 -1       789 4.30350E+01 1.18003E+01 0.00000E+00
 -1       790 5.80350E+01 1.17552E+01 0.00000E+00
 -1       791 6.10350E+01 1.17552E+01 0.00000E+00
 -1       792 6.40350E+01 1.17552E+01 0.00000E+00
 -1       793 6.70350E+01 1.17552E+01 0.00000E+00
 -1       794 7.00350E+01 1.17552E+01 0.00000E+00
 -1       795 7.30350E+01 1.17552E+01 0.00000E+00
 -1       796 7.60350E+01 1.17552E+01 0.00000E+00
 -1       797 7.90350E+01 1.17552E+01 0.00000E+00
 -1       798 8.20350E+01 1.17552E+01 0.00000E+00
 -1       799 8.50350E+01 1.17552E+01 0.00000E+00
 -1       800 8.80350E+01 1.17552E+01 0.00000E+00
 -1       801 9.10350E+01 1.17552E+01 0.00000E+00
 -1       802 9.40350E+01 1.17552E+01 0.00000E+00
 -1       803 9.70350E+01 1.17552E+01 0.00000E+00
 -1       804 1.00035E+02 1.17552E+01 0.00000E+00
 -1       805 1.03035E+02 1.17552E+01 0.00000E+00
 -1       806 1.06035E+02 1.17552E+01 0.00000E+00
 -1       807 1.09035E+02 1.17552E+01 0.00000E+00
 -1       808 1.12035E+02 1.17552E+01 0.00000E+00
 -1       809 1.15035E+02 1.17552E+01 0.00000E+00
 -1       810 1.18035E+02 1.17552E+01 0.00000E+00
 -1       811 1.21035E+02 1.17552E+01 0.00000E+00
 -1       812 1.24035E+02 1.17552E+01 0.00000E+00
 -1       813 1.27035E+02 1.17552E+01 0.00000E+00
 -1       814 1.30035E+02 1.17552E+01 0.00000E+00
 -1       815 1.33035E+02 1.17552E+01 0.00000E+00
 -1       816 1.29900E+01 2.20250E+01 0.00000E+00
 -1       817 1.37010E+02 3.08750E+01 0.00000E+00
 -1       818 1.37010E+02 2.50250E+01 0.00000E+00
 -1       819 1.37010E+02 3.38250E+01 0.00000E+00
 -1       820 1.37010E+02 2.79500E+01 0.00000E+00
 -1       821 6.63059E+01 3.11268E+01 0.00000E+00
 -1       822 3.70350E+01 1.18003E+01 0.00000E+00
 -1       823 6.79036E+01 2.82781E+01 0.00000E+00
 -1       824 6.36911E+01 3.58271E+01 0.00000E+00
 -1       825 1.66500E+01 3.70100E+01 0.00000E+00
 -1       826 3.85005E+01 2.27891E+01 0.00000E+00
 -1       827 3.98919E+01 1.97282E+01 0.00000E+00
 -1       828 3.82810E+01 2.86248E+01 0.00000E+00
 -1       829 6.50317E+01 1.81487E+01 0.00000E+00
 -1       830 6.50384E+01 3.36683E+01 0.00000E+00
 -1       831 4.24735E+01 1.54792E+01 0.00000E+00
 -1       832 4.10929E+01 1.77943E+01 0.00000E+00
 -1       833 3.80480E+01 2.60387E+01 0.00000E+00
 -1       834 1.37625E+01 1.12011E+01 0.00000E+00
 -1       835 1.29900E+01 2.49750E+01 0.00000E+00
 -1       836 6.86389E+01 2.65520E+01 0.00000E+00
 -1       837 1.37010E+02 1.61875E+01 0.00000E+00
 -1       838 3.78943E+01 2.07493E+01 0.00000E+00
 -1       839 4.36500E+01 3.70550E+01 0.00000E+00
 -1       840 1.39652E+01 3.69017E+01 0.00000E+00
 -1       841 3.67041E+01 2.42422E+01 0.00000E+00
 -1       842 2.50350E+01 1.18003E+01 0.00000E+00
 -1       843 1.36650E+02 3.73902E+01 0.00000E+00
 -1       844 1.36940E+02 1.29756E+01 0.00000E+00
 -1       845 2.80350E+01 1.18003E+01 0.00000E+00
 -1       846 5.50350E+01 1.15876E+01 0.00000E+00
 -1       847 1.34988E+02 1.23654E+01 0.00000E+00
 -1       848 1.37010E+02 1.91375E+01 0.00000E+00
 -1       849 1.29900E+01 1.90875E+01 0.00000E+00
 -1       850 1.37010E+02 2.20812E+01 0.00000E+00
 -1       851 6.16550E+01 1.41821E+01 0.00000E+00
 -1       852 6.68160E+01 1.93891E+01 0.00000E+00
 -1       853 1.67625E+01 1.12011E+01 0.00000E+00
 -1       854 1.29900E+01 3.37938E+01 0.00000E+00
 -1       855 3.80651E+01 3.07227E+01 0.00000E+00
 -1       856 1.29900E+01 1.61375E+01 0.00000E+00
 -1       857 1.93988E+01 1.15007E+01 0.00000E+00
 -1       858 6.38063E+01 1.59104E+01 0.00000E+00
 -1       859 1.29900E+01 3.08563E+01 0.00000E+00
 -1       860 2.41500E+01 3.44120E+01 0.00000E+00
 -1       861 2.71500E+01 3.44120E+01 0.00000E+00
 -1       862 3.01500E+01 3.44120E+01 0.00000E+00
 -1       863 3.31500E+01 3.44120E+01 0.00000E+00
 -1       864 3.61500E+01 3.44120E+01 0.00000E+00
 -1       865 6.82239E+01 2.24913E+01 0.00000E+00
 -1       866 6.75068E+01 3.33126E+01 0.00000E+00
 -1       867 6.66911E+01 3.58271E+01 0.00000E+00
 -1       868 6.98700E+01 3.52712E+01 0.00000E+00
 -1       869 7.28700E+01 3.52712E+01 0.00000E+00
 -1       870 7.58700E+01 3.52712E+01 0.00000E+00
 -1       871 7.88700E+01 3.52712E+01 0.00000E+00
 -1       872 8.18700E+01 3.52712E+01 0.00000E+00
 -1       873 8.48700E+01 3.52712E+01 0.00000E+00
 -1       874 8.78700E+01 3.52712E+01 0.00000E+00
 -1       875 9.08700E+01 3.52712E+01 0.00000E+00
 -1       876 9.38700E+01 3.52712E+01 0.00000E+00
 -1       877 9.68700E+01 3.52712E+01 0.00000E+00
 -1       878 9.98700E+01 3.52712E+01 0.00000E+00
 -1       879 1.02870E+02 3.52712E+01 0.00000E+00
 -1       880 1.05870E+02 3.52712E+01 0.00000E+00
 -1       881 1.08870E+02 3.52712E+01 0.00000E+00
 -1       882 1.11870E+02 3.52712E+01 0.00000E+00
 -1       883 1.14870E+02 3.52712E+01 0.00000E+00
 -1       884 1.17870E+02 3.52712E+01 0.00000E+00
 -1       885 1.20870E+02 3.52712E+01 0.00000E+00
 -1       886 1.23870E+02 3.52712E+01 0.00000E+00
 -1       887 1.26870E+02 3.52712E+01 0.00000E+00
 -1       888 1.29870E+02 3.52712E+01 0.00000E+00
 -1       889 1.32870E+02 3.52712E+01 0.00000E+00
 -1       890 6.85350E+01 1.43532E+01 0.00000E+00
 -1       891 7.15350E+01 1.43532E+01 0.00000E+00
 -1       892 7.45350E+01 1.43532E+01 0.00000E+00
 -1       893 7.75350E+01 1.43532E+01 0.00000E+00
 -1       894 8.05350E+01 1.43532E+01 0.00000E+00
 -1       895 8.35350E+01 1.43532E+01 0.00000E+00
 -1       896 8.65350E+01 1.43532E+01 0.00000E+00
 -1       897 8.95350E+01 1.43532E+01 0.00000E+00
 -1       898 9.25350E+01 1.43532E+01 0.00000E+00
 -1       899 9.55350E+01 1.43532E+01 0.00000E+00
 -1       900 9.85350E+01 1.43532E+01 0.00000E+00
 -1       901 1.01535E+02 1.43532E+01 0.00000E+00
 -1       902 1.04535E+02 1.43532E+01 0.00000E+00
 -1       903 1.07535E+02 1.43532E+01 0.00000E+00
 -1       904 1.10535E+02 1.43532E+01 0.00000E+00
 -1       905 1.13535E+02 1.43532E+01 0.00000E+00
 -1       906 1.16535E+02 1.43532E+01 0.00000E+00
 -1       907 1.19535E+02 1.43532E+01 0.00000E+00
 -1       908 1.22535E+02 1.43532E+01 0.00000E+00
 -1       909 1.25535E+02 1.43532E+01 0.00000E+00
 -1       910 1.28535E+02 1.43532E+01 0.00000E+00
 -1       911 1.31535E+02 1.43532E+01 0.00000E+00
 -1       912 6.91045E+01 3.04639E+01 0.00000E+00
 -1       913 1.34412E+02 3.23500E+01 0.00000E+00
 -1       914 3.98545E+01 3.43733E+01 0.00000E+00
 -1       915 1.29900E+01 2.79188E+01 0.00000E+00
 -1       916 3.87507E+01 1.76796E+01 0.00000E+00
 -1       917 3.59556E+01 2.75308E+01 0.00000E+00
 -1       918 3.25350E+01 1.43982E+01 0.00000E+00
 -1       919 1.59900E+01 1.32000E+01 0.00000E+00
 -1       920 3.93928E+01 1.47399E+01 0.00000E+00
 -1       921 2.11500E+01 3.44120E+01 0.00000E+00
 -1       922 6.63644E+01 1.59646E+01 0.00000E+00
 -1       923 1.81500E+01 3.44120E+01 0.00000E+00
 -1       924 6.99334E+01 2.45691E+01 0.00000E+00
 -1       925 3.60980E+01 2.22024E+01 0.00000E+00
 -1       926 1.55880E+01 2.05562E+01 0.00000E+00
 -1       927 6.98399E+01 2.87378E+01 0.00000E+00
 -1       928 1.35057E+02 1.55773E+01 0.00000E+00
 -1       929 1.55880E+01 2.35063E+01 0.00000E+00
 -1       930 1.34245E+02 3.53466E+01 0.00000E+00
 -1       931 1.34412E+02 2.64875E+01 0.00000E+00
 -1       932 2.95350E+01 1.43982E+01 0.00000E+00
 -1       933 1.34412E+02 2.35438E+01 0.00000E+00
 -1       934 1.34412E+02 2.94125E+01 0.00000E+00
 -1       935 6.81487E+01 1.72050E+01 0.00000E+00
 -1       936 3.55350E+01 1.43982E+01 0.00000E+00
 -1       937 3.57397E+01 2.96287E+01 0.00000E+00
 -1       938 1.55700E+01 3.41029E+01 0.00000E+00
 -1       939 1.33296E+02 1.49653E+01 0.00000E+00
 -1       940 2.04235E+01 1.42319E+01 0.00000E+00
 -1       941 3.74191E+01 3.27980E+01 0.00000E+00
 -1       942 2.34235E+01 1.42319E+01 0.00000E+00
 -1       943 1.55700E+01 3.11654E+01 0.00000E+00
 -1       944 1.35057E+02 1.85273E+01 0.00000E+00
 -1       945 1.55880E+01 1.76063E+01 0.00000E+00
 -1       946 2.56500E+01 3.18140E+01 0.00000E+00
 -1       947 2.65350E+01 1.43982E+01 0.00000E+00
 -1       948 2.86500E+01 3.18140E+01 0.00000E+00
 -1       949 3.16500E+01 3.18140E+01 0.00000E+00
 -1       950 3.45346E+01 3.23060E+01 0.00000E+00
 -1       951 3.61862E+01 1.86185E+01 0.00000E+00
 -1       952 7.43700E+01 3.26732E+01 0.00000E+00
 -1       953 7.73700E+01 3.26732E+01 0.00000E+00
 -1       954 8.03700E+01 3.26732E+01 0.00000E+00
 -1       955 8.33700E+01 3.26732E+01 0.00000E+00
 -1       956 8.63700E+01 3.26732E+01 0.00000E+00
 -1       957 8.93700E+01 3.26732E+01 0.00000E+00
 -1       958 9.23700E+01 3.26732E+01 0.00000E+00
 -1       959 9.53700E+01 3.26732E+01 0.00000E+00
 -1       960 9.83700E+01 3.26732E+01 0.00000E+00
 -1       961 1.01370E+02 3.26732E+01 0.00000E+00
 -1       962 1.04370E+02 3.26732E+01 0.00000E+00
 -1       963 1.07370E+02 3.26732E+01 0.00000E+00
 -1       964 1.10370E+02 3.26732E+01 0.00000E+00
 -1       965 1.13370E+02 3.26732E+01 0.00000E+00
 -1       966 1.16370E+02 3.26732E+01 0.00000E+00
 -1       967 1.19370E+02 3.26732E+01 0.00000E+00
 -1       968 1.22370E+02 3.26732E+01 0.00000E+00
 -1       969 1.25370E+02 3.26732E+01 0.00000E+00
 -1       970 1.28370E+02 3.26732E+01 0.00000E+00
 -1       971 1.31370E+02 3.26732E+01 0.00000E+00
 -1       972 7.60350E+01 1.69512E+01 0.00000E+00
 -1       973 7.30350E+01 1.69512E+01 0.00000E+00
 -1       974 7.90350E+01 1.69512E+01 0.00000E+00
 -1       975 8.20350E+01 1.69512E+01 0.00000E+00
 -1       976 8.50350E+01 1.69512E+01 0.00000E+00
 -1       977 8.80350E+01 1.69512E+01 0.00000E+00
 -1       978 9.10350E+01 1.69512E+01 0.00000E+00
 -1       979 9.40350E+01 1.69512E+01 0.00000E+00
 -1       980 9.70350E+01 1.69512E+01 0.00000E+00
 -1       981 1.00035E+02 1.69512E+01 0.00000E+00
 -1       982 1.03035E+02 1.69512E+01 0.00000E+00
 -1       983 1.06035E+02 1.69512E+01 0.00000E+00
 -1       984 1.09035E+02 1.69512E+01 0.00000E+00
 -1       985 1.12035E+02 1.69512E+01 0.00000E+00
 -1       986 1.15035E+02 1.69512E+01 0.00000E+00
 -1       987 1.18035E+02 1.69512E+01 0.00000E+00
 -1       988 1.21035E+02 1.69512E+01 0.00000E+00
 -1       989 1.24035E+02 1.69512E+01 0.00000E+00
 -1       990 1.27035E+02 1.69512E+01 0.00000E+00
 -1       991 1.30035E+02 1.69512E+01 0.00000E+00
 -1       992 2.26500E+01 3.18140E+01 0.00000E+00
 -1       993 1.96500E+01 3.18140E+01 0.00000E+00
 -1       994 1.34735E+02 2.10355E+01 0.00000E+00
 -1       995 1.55880E+01 2.64500E+01 0.00000E+00
 -1       996 1.82068E+01 1.37159E+01 0.00000E+00
 -1       997 6.95395E+01 2.00236E+01 0.00000E+00
 -1       998 1.76100E+01 3.14897E+01 0.00000E+00
 -1       999 1.31814E+02 2.79500E+01 0.00000E+00
 -1      1000 1.55790E+01 2.88077E+01 0.00000E+00
 -1      1001 7.13700E+01 3.26732E+01 0.00000E+00
 -1      1002 3.41674E+01 2.53943E+01 0.00000E+00
 -1      1003 3.35612E+01 2.33544E+01 0.00000E+00
 -1      1004 3.43899E+01 2.00716E+01 0.00000E+00
 -1      1005 1.32745E+02 3.27486E+01 0.00000E+00
 -1      1006 7.12489E+01 2.21014E+01 0.00000E+00
 -1      1007 7.11343E+01 2.67548E+01 0.00000E+00
 -1      1008 1.81860E+01 2.20313E+01 0.00000E+00
 -1      1009 1.33296E+02 1.79153E+01 0.00000E+00
 -1      1010 1.31814E+02 2.50063E+01 0.00000E+00
 -1      1011 3.10350E+01 1.69963E+01 0.00000E+00
 -1      1012 7.21049E+01 3.07055E+01 0.00000E+00
 -1      1013 1.87262E+01 1.65043E+01 0.00000E+00
 -1      1014 2.17262E+01 1.65043E+01 0.00000E+00
 -1      1015 3.34748E+01 2.83355E+01 0.00000E+00
 -1      1016 1.31666E+02 1.74332E+01 0.00000E+00
 -1      1017 1.31814E+02 3.08813E+01 0.00000E+00
 -1      1018 2.11500E+01 2.92160E+01 0.00000E+00
 -1      1019 2.48377E+01 1.66707E+01 0.00000E+00
 -1      1020 2.71500E+01 2.92160E+01 0.00000E+00
 -1      1021 3.01500E+01 2.92160E+01 0.00000E+00
 -1      1022 7.58700E+01 3.00752E+01 0.00000E+00
 -1      1023 7.88700E+01 3.00752E+01 0.00000E+00
 -1      1024 8.18700E+01 3.00752E+01 0.00000E+00
 -1      1025 8.48700E+01 3.00752E+01 0.00000E+00
 -1      1026 8.78700E+01 3.00752E+01 0.00000E+00
 -1      1027 9.08700E+01 3.00752E+01 0.00000E+00
 -1      1028 9.38700E+01 3.00752E+01 0.00000E+00
 -1      1029 9.68700E+01 3.00752E+01 0.00000E+00
 -1      1030 9.98700E+01 3.00752E+01 0.00000E+00
 -1      1031 1.02870E+02 3.00752E+01 0.00000E+00
 -1      1032 1.05870E+02 3.00752E+01 0.00000E+00
 -1      1033 1.08870E+02 3.00752E+01 0.00000E+00
 -1      1034 1.11870E+02 3.00752E+01 0.00000E+00
 -1      1035 1.14870E+02 3.00752E+01 0.00000E+00
 -1      1036 1.17870E+02 3.00752E+01 0.00000E+00
 -1      1037 1.20870E+02 3.00752E+01 0.00000E+00
 -1      1038 1.23870E+02 3.00752E+01 0.00000E+00
 -1      1039 1.26870E+02 3.00752E+01 0.00000E+00
 -1      1040 8.05350E+01 1.95492E+01 0.00000E+00
 -1      1041 1.81697E+01 1.90345E+01 0.00000E+00
 -1      1042 2.80350E+01 1.69963E+01 0.00000E+00
 -1      1043 1.81860E+01 2.49750E+01 0.00000E+00
 -1      1044 7.45350E+01 1.95492E+01 0.00000E+00
 -1      1045 8.35350E+01 1.95492E+01 0.00000E+00
 -1      1046 8.65350E+01 1.95492E+01 0.00000E+00
 -1      1047 8.95350E+01 1.95492E+01 0.00000E+00
 -1      1048 9.25350E+01 1.95492E+01 0.00000E+00
 -1      1049 9.55350E+01 1.95492E+01 0.00000E+00
 -1      1050 9.85350E+01 1.95492E+01 0.00000E+00
 -1      1051 1.01535E+02 1.95492E+01 0.00000E+00
 -1      1052 1.04535E+02 1.95492E+01 0.00000E+00
 -1      1053 1.07535E+02 1.95492E+01 0.00000E+00
 -1      1054 1.10535E+02 1.95492E+01 0.00000E+00
 -1      1055 1.13535E+02 1.95492E+01 0.00000E+00
 -1      1056 1.16535E+02 1.95492E+01 0.00000E+00
 -1      1057 1.19535E+02 1.95492E+01 0.00000E+00
 -1      1058 1.22535E+02 1.95492E+01 0.00000E+00
 -1      1059 1.25535E+02 1.95492E+01 0.00000E+00
 -1      1060 1.28535E+02 1.95492E+01 0.00000E+00
 -1      1061 2.41500E+01 2.92160E+01 0.00000E+00
 -1      1062 3.40349E+01 1.69963E+01 0.00000E+00
 -1      1063 3.25624E+01 3.00748E+01 0.00000E+00
 -1      1064 3.25349E+01 1.95943E+01 0.00000E+00
 -1      1065 7.75350E+01 1.95492E+01 0.00000E+00
 -1      1066 1.29216E+02 2.94156E+01 0.00000E+00
 -1      1067 3.12922E+01 2.62695E+01 0.00000E+00
 -1      1068 2.07758E+01 2.05187E+01 0.00000E+00
 -1      1069 2.07758E+01 2.34625E+01 0.00000E+00
 -1      1070 2.95349E+01 1.95943E+01 0.00000E+00
 -1      1071 7.24499E+01 2.42872E+01 0.00000E+00
 -1      1072 3.06861E+01 2.42296E+01 0.00000E+00
 -1      1073 1.32973E+02 2.04235E+01 0.00000E+00
 -1      1074 1.29216E+02 2.64719E+01 0.00000E+00
 -1      1075 1.30166E+02 2.00312E+01 0.00000E+00
 -1      1076 1.32394E+02 2.27149E+01 0.00000E+00
 -1      1077 7.35021E+01 2.84150E+01 0.00000E+00
 -1      1078 1.81770E+01 2.73327E+01 0.00000E+00
 -1      1079 2.12510E+01 1.85115E+01 0.00000E+00
 -1      1080 2.43625E+01 1.86779E+01 0.00000E+00
 -1      1081 1.26870E+02 2.71314E+01 0.00000E+00
 -1      1082 8.03700E+01 2.74772E+01 0.00000E+00
 -1      1083 8.33700E+01 2.74772E+01 0.00000E+00
 -1      1084 8.63700E+01 2.74772E+01 0.00000E+00
 -1      1085 8.93700E+01 2.74772E+01 0.00000E+00
 -1      1086 9.23700E+01 2.74772E+01 0.00000E+00
 -1      1087 9.53700E+01 2.74772E+01 0.00000E+00
 -1      1088 9.83700E+01 2.74772E+01 0.00000E+00
 -1      1089 1.01370E+02 2.74772E+01 0.00000E+00
 -1      1090 1.04370E+02 2.74772E+01 0.00000E+00
 -1      1091 1.07370E+02 2.74772E+01 0.00000E+00
 -1      1092 1.10370E+02 2.74772E+01 0.00000E+00
 -1      1093 1.13370E+02 2.74772E+01 0.00000E+00
 -1      1094 1.16370E+02 2.74772E+01 0.00000E+00
 -1      1095 1.19370E+02 2.74772E+01 0.00000E+00
 -1      1096 1.22370E+02 2.74772E+01 0.00000E+00
 -1      1097 1.24620E+02 2.73043E+01 0.00000E+00
 -1      1098 7.49924E+01 2.19182E+01 0.00000E+00
 -1      1099 8.20350E+01 2.21472E+01 0.00000E+00
 -1      1100 9.10350E+01 2.21472E+01 0.00000E+00
 -1      1101 9.40350E+01 2.21472E+01 0.00000E+00
 -1      1102 9.70350E+01 2.21472E+01 0.00000E+00
 -1      1103 1.00035E+02 2.21472E+01 0.00000E+00
 -1      1104 1.03035E+02 2.21472E+01 0.00000E+00
 -1      1105 1.06035E+02 2.21472E+01 0.00000E+00
 -1      1106 1.09035E+02 2.21472E+01 0.00000E+00
 -1      1107 1.12035E+02 2.21472E+01 0.00000E+00
 -1      1108 1.15035E+02 2.21472E+01 0.00000E+00
 -1      1109 1.18035E+02 2.21472E+01 0.00000E+00
 -1      1110 1.21035E+02 2.21472E+01 0.00000E+00
 -1      1111 1.24035E+02 2.21472E+01 0.00000E+00
 -1      1112 1.27035E+02 2.21472E+01 0.00000E+00
 -1      1113 2.56500E+01 2.66180E+01 0.00000E+00
 -1      1114 8.50350E+01 2.21472E+01 0.00000E+00
 -1      1115 2.07668E+01 2.58202E+01 0.00000E+00
 -1      1116 7.90350E+01 2.21472E+01 0.00000E+00
 -1      1117 8.80350E+01 2.21472E+01 0.00000E+00
 -1      1118 7.73700E+01 2.74772E+01 0.00000E+00
 -1      1119 3.16105E+01 2.19119E+01 0.00000E+00
 -1      1120 2.69487E+01 1.91361E+01 0.00000E+00
 -1      1121 2.84711E+01 2.64437E+01 0.00000E+00
 -1      1122 2.33738E+01 2.19906E+01 0.00000E+00
 -1      1123 7.48177E+01 2.59473E+01 0.00000E+00
 -1      1124 1.28666E+02 2.26292E+01 0.00000E+00
 -1      1125 1.29796E+02 2.41805E+01 0.00000E+00
 -1      1126 2.38681E+01 2.03342E+01 0.00000E+00
 -1      1127 2.86105E+01 2.19119E+01 0.00000E+00
 -1      1128 7.68668E+01 2.46265E+01 0.00000E+00
 -1      1129 8.18700E+01 2.48792E+01 0.00000E+00
 -1      1130 8.48700E+01 2.48792E+01 0.00000E+00
 -1      1131 8.78700E+01 2.48792E+01 0.00000E+00
 -1      1132 9.08700E+01 2.48792E+01 0.00000E+00
 -1      1133 9.38700E+01 2.48792E+01 0.00000E+00
 -1      1134 9.68700E+01 2.48792E+01 0.00000E+00
 -1      1135 9.98700E+01 2.48792E+01 0.00000E+00
 -1      1136 1.02870E+02 2.48792E+01 0.00000E+00
 -1      1137 1.05870E+02 2.48792E+01 0.00000E+00
 -1      1138 1.08870E+02 2.48792E+01 0.00000E+00
 -1      1139 1.11870E+02 2.48792E+01 0.00000E+00
 -1      1140 1.14870E+02 2.48792E+01 0.00000E+00
 -1      1141 1.17870E+02 2.48792E+01 0.00000E+00
 -1      1142 1.20870E+02 2.48792E+01 0.00000E+00
 -1      1143 2.69004E+01 2.39378E+01 0.00000E+00
 -1      1144 1.25535E+02 2.47452E+01 0.00000E+00
 -1      1145 2.38381E+01 2.37001E+01 0.00000E+00
 -1      1146 2.53843E+01 2.21360E+01 0.00000E+00
 -1      1147 2.62393E+01 2.11231E+01 0.00000E+00
 -1      1148 0.00000E+00 4.85250E+01 0.00000E+00
 -1      1149 0.00000E+00 4.55750E+01 0.00000E+00
 -1      1150 0.00000E+00 4.26250E+01 0.00000E+00
 -1      1151 0.00000E+00 3.96750E+01 0.00000E+00
 -1      1152 0.00000E+00 3.67250E+01 0.00000E+00
 -1      1153 0.00000E+00 3.38000E+01 0.00000E+00
 -1      1154 0.00000E+00 3.08750E+01 0.00000E+00
 -1      1155 0.00000E+00 2.79250E+01 0.00000E+00
 -1      1156 0.00000E+00 2.49750E+01 0.00000E+00
 -1      1157 0.00000E+00 2.20250E+01 0.00000E+00
 -1      1158 0.00000E+00 1.90750E+01 0.00000E+00
 -1      1159 0.00000E+00 1.61500E+01 0.00000E+00
 -1      1160 0.00000E+00 1.32250E+01 0.00000E+00
 -1      1161 0.00000E+00 1.02750E+01 0.00000E+00
 -1      1162 0.00000E+00 7.32500E+00 0.00000E+00
 -1      1163 0.00000E+00 4.37500E+00 0.00000E+00
 -1      1164 0.00000E+00 1.45000E+00 0.00000E+00
 -1      1165 1.57500E+00 5.00000E+01 0.00000E+00
 -1      1166 4.65000E+00 5.00000E+01 0.00000E+00
 -1      1167 7.65000E+00 5.00000E+01 0.00000E+00
 -1      1168 1.06500E+01 5.00000E+01 0.00000E+00
 -1      1169 1.36500E+01 5.00000E+01 0.00000E+00
 -1      1170 1.66500E+01 5.00000E+01 0.00000E+00
 -1      1171 1.96500E+01 5.00000E+01 0.00000E+00
 -1      1172 2.26500E+01 5.00000E+01 0.00000E+00
 -1      1173 2.56500E+01 5.00000E+01 0.00000E+00
 -1      1174 2.86500E+01 5.00000E+01 0.00000E+00
 -1      1175 3.16500E+01 5.00000E+01 0.00000E+00
 -1      1176 3.46500E+01 5.00000E+01 0.00000E+00
 -1      1177 3.76500E+01 5.00000E+01 0.00000E+00
 -1      1178 4.06500E+01 5.00000E+01 0.00000E+00
 -1      1179 4.36500E+01 5.00000E+01 0.00000E+00
 -1      1180 4.66500E+01 5.00000E+01 0.00000E+00
 -1      1181 4.96500E+01 5.00000E+01 0.00000E+00
 -1      1182 5.26500E+01 5.00000E+01 0.00000E+00
 -1      1183 5.56500E+01 5.00000E+01 0.00000E+00
 -1      1184 5.86500E+01 5.00000E+01 0.00000E+00
 -1      1185 6.16500E+01 5.00000E+01 0.00000E+00
 -1      1186 6.46500E+01 5.00000E+01 0.00000E+00
 -1      1187 6.76500E+01 5.00000E+01 0.00000E+00
 -1      1188 7.06500E+01 5.00000E+01 0.00000E+00
 -1      1189 7.36500E+01 5.00000E+01 0.00000E+00
 -1      1190 7.66500E+01 5.00000E+01 0.00000E+00
 -1      1191 7.96500E+01 5.00000E+01 0.00000E+00
 -1      1192 8.26500E+01 5.00000E+01 0.00000E+00
 -1      1193 8.56500E+01 5.00000E+01 0.00000E+00
 -1      1194 8.86500E+01 5.00000E+01 0.00000E+00
 -1      1195 9.16500E+01 5.00000E+01 0.00000E+00
 -1      1196 9.46500E+01 5.00000E+01 0.00000E+00
 -1      1197 9.76500E+01 5.00000E+01 0.00000E+00
 -1      1198 1.00650E+02 5.00000E+01 0.00000E+00
 -1      1199 1.03650E+02 5.00000E+01 0.00000E+00
 -1      1200 1.06650E+02 5.00000E+01 0.00000E+00
 -1      1201 1.09650E+02 5.00000E+01 0.00000E+00
 -1      1202 1.12650E+02 5.00000E+01 0.00000E+00
 -1      1203 1.15650E+02 5.00000E+01 0.00000E+00
 -1      1204 1.18650E+02 5.00000E+01 0.00000E+00
 -1      1205 1.21650E+02 5.00000E+01 0.00000E+00
 -1      1206 1.24650E+02 5.00000E+01 0.00000E+00
 -1      1207 1.27650E+02 5.00000E+01 0.00000E+00
 -1      1208 1.30650E+02 5.00000E+01 0.00000E+00
 -1      1209 1.33650E+02 5.00000E+01 0.00000E+00
 -1      1210 1.36650E+02 5.00000E+01 0.00000E+00
 -1      1211 1.39650E+02 5.00000E+01 0.00000E+00
 -1      1212 1.42650E+02 5.00000E+01 0.00000E+00
 -1      1213 1.45650E+02 5.00000E+01 0.00000E+00
 -1      1214 1.48575E+02 5.00000E+01 0.00000E+00
 -1      1215 1.57500E+00 0.00000E+00 0.00000E+00
 -1      1216 4.65000E+00 0.00000E+00 0.00000E+00
 -1      1217 7.65000E+00 0.00000E+00 0.00000E+00
 -1      1218 1.06500E+01 0.00000E+00 0.00000E+00
 -1      1219 1.36500E+01 0.00000E+00 0.00000E+00
 -1      1220 1.66500E+01 0.00000E+00 0.00000E+00
 -1      1221 1.96500E+01 0.00000E+00 0.00000E+00
 -1      1222 2.26500E+01 0.00000E+00 0.00000E+00
 -1      1223 2.56500E+01 0.00000E+00 0.00000E+00
 -1      1224 2.86500E+01 0.00000E+00 0.00000E+00
 -1      1225 3.16500E+01 0.00000E+00 0.00000E+00
 -1      1226 3.46500E+01 0.00000E+00 0.00000E+00
 -1      1227 3.76500E+01 0.00000E+00 0.00000E+00
 -1      1228 4.06500E+01 0.00000E+00 0.00000E+00
 -1      1229 4.36500E+01 0.00000E+00 0.00000E+00
 -1      1230 4.66500E+01 0.00000E+00 0.00000E+00
 -1      1231 4.96500E+01 0.00000E+00 0.00000E+00
 -1      1232 5.26500E+01 0.00000E+00 0.00000E+00
 -1      1233 5.56500E+01 0.00000E+00 0.00000E+00
 -1      1234 5.86500E+01 0.00000E+00 0.00000E+00
 -1      1235 6.16500E+01 0.00000E+00 0.00000E+00
 -1      1236 6.46500E+01 0.00000E+00 0.00000E+00
 -1      1237 6.76500E+01 0.00000E+00 0.00000E+00
 -1      1238 7.06500E+01 0.00000E+00 0.00000E+00
 -1      1239 7.36500E+01 0.00000E+00 0.00000E+00
 -1      1240 7.66500E+01 0.00000E+00 0.00000E+00
 -1      1241 7.96500E+01 0.00000E+00 0.00000E+00
 -1      1242 8.26500E+01 0.00000E+00 0.00000E+00
 -1      1243 8.56500E+01 0.00000E+00 0.00000E+00
 -1      1244 8.86500E+01 0.00000E+00 0.00000E+00
 -1      1245 9.16500E+01 0.00000E+00 0.00000E+00
 -1      1246 9.46500E+01 0.00000E+00 0.00000E+00
 -1      1247 9.76500E+01 0.00000E+00 0.00000E+00
 -1      1248 1.00650E+02 0.00000E+00 0.00000E+00
 -1      1249 1.03650E+02 0.00000E+00 0.00000E+00
 -1      1250 1.06650E+02 0.00000E+00 0.00000E+00
 -1      1251 1.09650E+02 0.00000E+00 0.00000E+00
 -1      1252 1.12650E+02 0.00000E+00 0.00000E+00
 -1      1253 1.15650E+02 0.00000E+00 0.00000E+00
 -1      1254 1.18650E+02 0.00000E+00 0.00000E+00
 -1      1255 1.21650E+02 0.00000E+00 0.00000E+00
 -1      1256 1.24650E+02 0.00000E+00 0.00000E+00
 -1      1257 1.27650E+02 0.00000E+00 0.00000E+00
 -1      1258 1.30650E+02 0.00000E+00 0.00000E+00
 -1      1259 1.33650E+02 0.00000E+00 0.00000E+00
 -1      1260 1.36650E+02 0.00000E+00 0.00000E+00
 -1      1261 1.39650E+02 0.00000E+00 0.00000E+00
 -1      1262 1.42650E+02 0.00000E+00 0.00000E+00
 -1      1263 1.45650E+02 0.00000E+00 0.00000E+00
 -1      1264 1.48575E+02 0.00000E+00 0.00000E+00
 -1      1265 1.50000E+02 1.47500E+00 0.00000E+00
 -1      1266 1.50000E+02 4.42500E+00 0.00000E+00
 -1      1267 1.50000E+02 7.37500E+00 0.00000E+00
 -1      1268 1.50000E+02 1.03250E+01 0.00000E+00
 -1      1269 1.50000E+02 1.32750E+01 0.00000E+00
 -1      1270 1.50000E+02 1.62000E+01 0.00000E+00
 -1      1271 1.50000E+02 1.91250E+01 0.00000E+00
 -1      1272 1.50000E+02 2.20750E+01 0.00000E+00
 -1      1273 1.50000E+02 2.50250E+01 0.00000E+00
 -1      1274 1.50000E+02 2.79750E+01 0.00000E+00
 -1      1275 1.50000E+02 3.09250E+01 0.00000E+00
 -1      1276 1.50000E+02 3.38500E+01 0.00000E+00
 -1      1277 1.50000E+02 3.67750E+01 0.00000E+00
 -1      1278 1.50000E+02 3.97250E+01 0.00000E+00
 -1      1279 1.50000E+02 4.26750E+01 0.00000E+00
 -1      1280 1.50000E+02 4.56250E+01 0.00000E+00
 -1      1281 1.50000E+02 4.85500E+01 0.00000E+00
 -1      1282 5.97579E+01 2.53442E+01 0.00000E+00
 -1      1283 5.94139E+01 2.38214E+01 0.00000E+00
 -1      1284 5.87755E+01 2.24686E+01 0.00000E+00
 -1      1285 5.78398E+01 2.12569E+01 0.00000E+00
 -1      1286 5.65889E+01 2.02292E+01 0.00000E+00
 -1      1287 5.51905E+01 1.95361E+01 0.00000E+00
 -1      1288 5.36407E+01 1.91661E+01 0.00000E+00
 -1      1289 5.20759E+01 1.91531E+01 0.00000E+00
 -1      1290 5.06375E+01 1.94580E+01 0.00000E+00
 -1      1291 4.93051E+01 2.00507E+01 0.00000E+00
 -1      1292 4.81235E+01 2.09072E+01 0.00000E+00
 -1      1293 4.71482E+01 2.19862E+01 0.00000E+00
 -1      1294 4.64155E+01 2.32465E+01 0.00000E+00
 -1      1295 4.59650E+01 2.46069E+01 0.00000E+00
 -1      1296 4.58012E+01 2.60155E+01 0.00000E+00
 -1      1297 4.59337E+01 2.74744E+01 0.00000E+00
 -1      1298 4.63856E+01 2.89170E+01 0.00000E+00
 -1      1299 4.71658E+01 3.02688E+01 0.00000E+00
 -1      1300 4.82171E+01 3.14062E+01 0.00000E+00
 -1      1301 4.94204E+01 3.22453E+01 0.00000E+00
 -1      1302 5.07731E+01 3.28154E+01 0.00000E+00
 -1      1303 5.23337E+01 3.30999E+01 0.00000E+00
 -1      1304 5.38737E+01 3.30327E+01 0.00000E+00
 -1      1305 5.52997E+01 3.26541E+01 0.00000E+00
 -1      1306 5.66480E+01 3.19633E+01 0.00000E+00
 -1      1307 5.78088E+01 3.10060E+01 0.00000E+00
 -1      1308 5.87523E+01 2.98000E+01 0.00000E+00
 -1      1309 5.94279E+01 2.83688E+01 0.00000E+00
 -1      1310 5.97610E+01 2.68579E+01 0.00000E+00
 -1      1311 1.57500E+00 4.85250E+01 0.00000E+00
 -1      1312 1.29900E+00 4.48375E+01 0.00000E+00
 -1      1313 1.29900E+00 4.63125E+01 0.00000E+00
 -1      1314 1.29900E+00 4.18875E+01 0.00000E+00
 -1      1315 1.29900E+00 4.33625E+01 0.00000E+00
 -1      1316 2.59800E+00 4.41000E+01 0.00000E+00
 -1      1317 1.29900E+00 3.89375E+01 0.00000E+00
 -1      1318 1.29900E+00 4.04125E+01 0.00000E+00
 -1      1319 2.59800E+00 4.11500E+01 0.00000E+00
 -1      1320 1.29900E+00 3.59875E+01 0.00000E+00
 -1      1321 1.29900E+00 3.74625E+01 0.00000E+00
 -1      1322 2.59800E+00 3.82000E+01 0.00000E+00
 -1      1323 1.29900E+00 3.30875E+01 0.00000E+00
 -1      1324 1.29900E+00 3.45375E+01 0.00000E+00
 -1      1325 2.59800E+00 3.52750E+01 0.00000E+00
 -1      1326 1.29900E+00 3.01375E+01 0.00000E+00
 -1      1327 1.29900E+00 3.16125E+01 0.00000E+00
 -1      1328 2.59800E+00 3.23500E+01 0.00000E+00
 -1      1329 1.29900E+00 2.71875E+01 0.00000E+00
 -1      1330 1.29900E+00 2.86625E+01 0.00000E+00
 -1      1331 2.59800E+00 2.94000E+01 0.00000E+00
 -1      1332 1.29900E+00 2.42375E+01 0.00000E+00
 -1      1333 1.29900E+00 2.57125E+01 0.00000E+00
 -1      1334 2.59800E+00 2.64500E+01 0.00000E+00
 -1      1335 1.29900E+00 2.12875E+01 0.00000E+00
 -1      1336 1.29900E+00 2.27625E+01 0.00000E+00
 -1      1337 2.59800E+00 2.35000E+01 0.00000E+00
 -1      1338 1.29900E+00 1.83375E+01 0.00000E+00
 -1      1339 1.29900E+00 1.98125E+01 0.00000E+00
 -1      1340 2.59800E+00 2.05500E+01 0.00000E+00
 -1      1341 1.29900E+00 1.54375E+01 0.00000E+00
 -1      1342 1.29900E+00 1.68875E+01 0.00000E+00
 -1      1343 2.59800E+00 1.76250E+01 0.00000E+00
 -1      1344 1.29900E+00 1.24875E+01 0.00000E+00
 -1      1345 1.29900E+00 1.39625E+01 0.00000E+00
 -1      1346 2.59800E+00 1.47000E+01 0.00000E+00
 -1      1347 1.29900E+00 9.53750E+00 0.00000E+00
 -1      1348 1.29900E+00 1.10125E+01 0.00000E+00
 -1      1349 2.59800E+00 1.17500E+01 0.00000E+00
 -1      1350 1.29900E+00 6.58750E+00 0.00000E+00
 -1      1351 1.29900E+00 8.06250E+00 0.00000E+00
 -1      1352 2.59800E+00 8.80000E+00 0.00000E+00
 -1      1353 1.29900E+00 3.63750E+00 0.00000E+00
 -1      1354 1.29900E+00 5.11250E+00 0.00000E+00
 -1      1355 2.59800E+00 5.85000E+00 0.00000E+00
 -1      1356 1.43700E+00 1.09375E+00 0.00000E+00
 -1      1357 1.43700E+00 2.54375E+00 0.00000E+00
 -1      1358 2.73600E+00 3.28125E+00 0.00000E+00
 -1      1359 3.01200E+00 1.09375E+00 0.00000E+00
 -1      1360 3.90000E+00 4.87010E+01 0.00000E+00
 -1      1361 5.40000E+00 4.87010E+01 0.00000E+00
 -1      1362 6.90000E+00 4.87010E+01 0.00000E+00
 -1      1363 8.40000E+00 4.87010E+01 0.00000E+00
 -1      1364 6.15000E+00 4.74020E+01 0.00000E+00
 -1      1365 9.90000E+00 4.87010E+01 0.00000E+00
 -1      1366 1.14000E+01 4.87010E+01 0.00000E+00
 -1      1367 9.15000E+00 4.74020E+01 0.00000E+00
 -1      1368 1.29000E+01 4.87010E+01 0.00000E+00
 -1      1369 1.44000E+01 4.87010E+01 0.00000E+00
 -1      1370 1.21500E+01 4.74020E+01 0.00000E+00
 -1      1371 1.59000E+01 4.87010E+01 0.00000E+00
 -1      1372 1.74000E+01 4.87010E+01 0.00000E+00
 -1      1373 1.51500E+01 4.74020E+01 0.00000E+00
 -1      1374 1.89000E+01 4.87010E+01 0.00000E+00
 -1      1375 2.04000E+01 4.87010E+01 0.00000E+00
 -1      1376 1.81500E+01 4.74020E+01 0.00000E+00
 -1      1377 2.19000E+01 4.87010E+01 0.00000E+00
 -1      1378 2.34000E+01 4.87010E+01 0.00000E+00
 -1      1379 2.11500E+01 4.74020E+01 0.00000E+00
 -1      1380 2.49000E+01 4.87010E+01 0.00000E+00
 -1      1381 2.64000E+01 4.87010E+01 0.00000E+00
 -1      1382 2.41500E+01 4.74020E+01 0.00000E+00
 -1      1383 2.79000E+01 4.87010E+01 0.00000E+00
 -1      1384 2.94000E+01 4.87010E+01 0.00000E+00
 -1      1385 2.71500E+01 4.74020E+01 0.00000E+00
 -1      1386 3.09000E+01 4.87010E+01 0.00000E+00
 -1      1387 3.24000E+01 4.87010E+01 0.00000E+00
 -1      1388 3.01500E+01 4.74020E+01 0.00000E+00
 -1      1389 3.39000E+01 4.87010E+01 0.00000E+00
 -1      1390 3.54000E+01 4.87010E+01 0.00000E+00
 -1      1391 3.31500E+01 4.74020E+01 0.00000E+00
 -1      1392 3.69000E+01 4.87010E+01 0.00000E+00
 -1      1393 3.84000E+01 4.87010E+01 0.00000E+00
 -1      1394 3.61500E+01 4.74020E+01 0.00000E+00
 -1      1395 3.99000E+01 4.87010E+01 0.00000E+00
 -1      1396 4.14000E+01 4.87010E+01 0.00000E+00
 -1      1397 3.91500E+01 4.74020E+01 0.00000E+00
 -1      1398 4.29000E+01 4.87010E+01 0.00000E+00
 -1      1399 4.44000E+01 4.87010E+01 0.00000E+00
 -1      1400 4.21500E+01 4.74020E+01 0.00000E+00
 -1      1401 4.59000E+01 4.87010E+01 0.00000E+00
 -1      1402 4.74000E+01 4.87010E+01 0.00000E+00
 -1      1403 4.51500E+01 4.74020E+01 0.00000E+00
 -1      1404 4.89000E+01 4.87010E+01 0.00000E+00
 -1      1405 5.04000E+01 4.87010E+01 0.00000E+00
 -1      1406 4.81500E+01 4.74020E+01 0.00000E+00
 -1      1407 5.19000E+01 4.87010E+01 0.00000E+00
 -1      1408 5.34000E+01 4.87010E+01 0.00000E+00
 -1      1409 5.11500E+01 4.74020E+01 0.00000E+00
 -1      1410 5.49000E+01 4.87010E+01 0.00000E+00
 -1      1411 5.64000E+01 4.87010E+01 0.00000E+00
 -1      1412 5.41500E+01 4.74020E+01 0.00000E+00
 -1      1413 5.79000E+01 4.87010E+01 0.00000E+00
 -1      1414 5.94000E+01 4.87010E+01 0.00000E+00
 -1      1415 5.71500E+01 4.74020E+01 0.00000E+00
 -1      1416 6.09000E+01 4.87010E+01 0.00000E+00
 -1      1417 6.24000E+01 4.87010E+01 0.00000E+00
 -1      1418 6.01500E+01 4.74020E+01 0.00000E+00
 -1      1419 6.39000E+01 4.87010E+01 0.00000E+00
 -1      1420 6.54000E+01 4.87010E+01 0.00000E+00
 -1      1421 6.31500E+01 4.74020E+01 0.00000E+00
 -1      1422 6.69000E+01 4.87010E+01 0.00000E+00
 -1      1423 6.84000E+01 4.87010E+01 0.00000E+00
 -1      1424 6.61500E+01 4.74020E+01 0.00000E+00
 -1      1425 6.99000E+01 4.87010E+01 0.00000E+00
 -1      1426 7.14000E+01 4.87010E+01 0.00000E+00
 -1      1427 6.91500E+01 4.74020E+01 0.00000E+00
 -1      1428 7.29000E+01 4.87010E+01 0.00000E+00
 -1      1429 7.44000E+01 4.87010E+01 0.00000E+00
 -1      1430 7.21500E+01 4.74020E+01 0.00000E+00
 -1      1431 7.59000E+01 4.87010E+01 0.00000E+00
 -1      1432 7.74000E+01 4.87010E+01 0.00000E+00
 -1      1433 7.51500E+01 4.74020E+01 0.00000E+00
 -1      1434 7.89000E+01 4.87010E+01 0.00000E+00
 -1      1435 8.04000E+01 4.87010E+01 0.00000E+00
 -1      1436 7.81500E+01 4.74020E+01 0.00000E+00
 -1      1437 8.19000E+01 4.87010E+01 0.00000E+00
 -1      1438 8.34000E+01 4.87010E+01 0.00000E+00
 -1      1439 8.11500E+01 4.74020E+01 0.00000E+00
 -1      1440 8.49000E+01 4.87010E+01 0.00000E+00
 -1      1441 8.64000E+01 4.87010E+01 0.00000E+00
 -1      1442 8.41500E+01 4.74020E+01 0.00000E+00
 -1      1443 8.79000E+01 4.87010E+01 0.00000E+00
 -1      1444 8.94000E+01 4.87010E+01 0.00000E+00
 -1      1445 8.71500E+01 4.74020E+01 0.00000E+00
 -1      1446 9.09000E+01 4.87010E+01 0.00000E+00
 -1      1447 9.24000E+01 4.87010E+01 0.00000E+00
 -1      1448 9.01500E+01 4.74020E+01 0.00000E+00
 -1      1449 9.39000E+01 4.87010E+01 0.00000E+00
 -1      1450 9.54000E+01 4.87010E+01 0.00000E+00
 -1      1451 9.31500E+01 4.74020E+01 0.00000E+00
 -1      1452 9.69000E+01 4.87010E+01 0.00000E+00
 -1      1453 9.84000E+01 4.87010E+01 0.00000E+00
 -1      1454 9.61500E+01 4.74020E+01 0.00000E+00
 -1      1455 9.99000E+01 4.87010E+01 0.00000E+00
 -1      1456 1.01400E+02 4.87010E+01 0.00000E+00
 -1      1457 9.91500E+01 4.74020E+01 0.00000E+00
 -1      1458 1.02900E+02 4.87010E+01 0.00000E+00
 -1      1459 1.04400E+02 4.87010E+01 0.00000E+00
 -1      1460 1.02150E+02 4.74020E+01 0.00000E+00
 -1      1461 1.05900E+02 4.87010E+01 0.00000E+00
 -1      1462 1.07400E+02 4.87010E+01 0.00000E+00
 -1      1463 1.05150E+02 4.74020E+01 0.00000E+00
 -1      1464 1.08900E+02 4.87010E+01 0.00000E+00
 -1      1465 1.10400E+02 4.87010E+01 0.00000E+00
 -1      1466 1.08150E+02 4.74020E+01 0.00000E+00
 -1      1467 1.11900E+02 4.87010E+01 0.00000E+00
 -1      1468 1.13400E+02 4.87010E+01 0.00000E+00
 -1      1469 1.11150E+02 4.74020E+01 0.00000E+00
 -1      1470 1.14900E+02 4.87010E+01 0.00000E+00
 -1      1471 1.16400E+02 4.87010E+01 0.00000E+00
 -1      1472 1.14150E+02 4.74020E+01 0.00000E+00
 -1      1473 1.17900E+02 4.87010E+01 0.00000E+00
 -1      1474 1.19400E+02 4.87010E+01 0.00000E+00
 -1      1475 1.17150E+02 4.74020E+01 0.00000E+00
 -1      1476 1.20900E+02 4.87010E+01 0.00000E+00
 -1      1477 1.22400E+02 4.87010E+01 0.00000E+00
 -1      1478 1.20150E+02 4.74020E+01 0.00000E+00
 -1      1479 1.23900E+02 4.87010E+01 0.00000E+00
 -1      1480 1.25400E+02 4.87010E+01 0.00000E+00
 -1      1481 1.23150E+02 4.74020E+01 0.00000E+00
 -1      1482 1.26900E+02 4.87010E+01 0.00000E+00
 -1      1483 1.28400E+02 4.87010E+01 0.00000E+00
 -1      1484 1.26150E+02 4.74020E+01 0.00000E+00
 -1      1485 1.29900E+02 4.87010E+01 0.00000E+00
 -1      1486 1.31400E+02 4.87010E+01 0.00000E+00
 -1      1487 1.29150E+02 4.74020E+01 0.00000E+00
 -1      1488 1.32900E+02 4.87010E+01 0.00000E+00
 -1      1489 1.34400E+02 4.87010E+01 0.00000E+00
 -1      1490 1.32150E+02 4.74020E+01 0.00000E+00
 -1      1491 1.35900E+02 4.87010E+01 0.00000E+00
 -1      1492 1.37400E+02 4.87010E+01 0.00000E+00
 -1      1493 1.35150E+02 4.74020E+01 0.00000E+00
 -1      1494 1.38900E+02 4.87010E+01 0.00000E+00
 -1      1495 1.40400E+02 4.87010E+01 0.00000E+00
 -1      1496 1.38150E+02 4.74020E+01 0.00000E+00
 -1      1497 1.41900E+02 4.87010E+01 0.00000E+00
 -1      1498 1.43400E+02 4.87010E+01 0.00000E+00
 -1      1499 1.41150E+02 4.74020E+01 0.00000E+00
 -1      1500 1.44900E+02 4.87010E+01 0.00000E+00
 -1      1501 1.46400E+02 4.87010E+01 0.00000E+00
 -1      1502 1.44150E+02 4.74020E+01 0.00000E+00
 -1      1503 1.48575E+02 4.85500E+01 0.00000E+00
 -1      1504 1.47825E+02 4.72510E+01 0.00000E+00
 -1      1505 6.01200E+00 1.09375E+00 0.00000E+00
 -1      1506 4.51200E+00 1.09375E+00 0.00000E+00
 -1      1507 4.37400E+00 2.18750E+00 0.00000E+00
 -1      1508 9.01200E+00 1.09375E+00 0.00000E+00
 -1      1509 7.51200E+00 1.09375E+00 0.00000E+00
 -1      1510 7.37400E+00 2.18750E+00 0.00000E+00
 -1      1511 1.20120E+01 1.09375E+00 0.00000E+00
 -1      1512 1.05120E+01 1.09375E+00 0.00000E+00
 -1      1513 1.03740E+01 2.18750E+00 0.00000E+00
 -1      1514 1.50120E+01 1.09375E+00 0.00000E+00
 -1      1515 1.35120E+01 1.09375E+00 0.00000E+00
 -1      1516 1.33740E+01 2.18750E+00 0.00000E+00
 -1      1517 1.80120E+01 1.09375E+00 0.00000E+00
 -1      1518 1.65120E+01 1.09375E+00 0.00000E+00
 -1      1519 1.63740E+01 2.18750E+00 0.00000E+00
 -1      1520 2.10120E+01 1.09375E+00 0.00000E+00
 -1      1521 1.95120E+01 1.09375E+00 0.00000E+00
 -1      1522 1.93740E+01 2.18750E+00 0.00000E+00
 -1      1523 2.40120E+01 1.09375E+00 0.00000E+00
 -1      1524 2.25120E+01 1.09375E+00 0.00000E+00
 -1      1525 2.23740E+01 2.18750E+00 0.00000E+00
 -1      1526 2.70120E+01 1.09375E+00 0.00000E+00
 -1      1527 2.55120E+01 1.09375E+00 0.00000E+00
 -1      1528 2.53740E+01 2.18750E+00 0.00000E+00
 -1      1529 3.00120E+01 1.09375E+00 0.00000E+00
 -1      1530 2.85120E+01 1.09375E+00 0.00000E+00
 -1      1531 2.83740E+01 2.18750E+00 0.00000E+00
 -1      1532 3.30120E+01 1.09375E+00 0.00000E+00
 -1      1533 3.15120E+01 1.09375E+00 0.00000E+00
 -1      1534 3.13740E+01 2.18750E+00 0.00000E+00
 -1      1535 3.60120E+01 1.09375E+00 0.00000E+00
 -1      1536 3.45120E+01 1.09375E+00 0.00000E+00
 -1      1537 3.43740E+01 2.18750E+00 0.00000E+00
 -1      1538 3.90120E+01 1.09375E+00 0.00000E+00
 -1      1539 3.75120E+01 1.09375E+00 0.00000E+00
 -1      1540 3.73740E+01 2.18750E+00 0.00000E+00
 -1      1541 4.20120E+01 1.09375E+00 0.00000E+00
 -1      1542 4.05120E+01 1.09375E+00 0.00000E+00
 -1      1543 4.03740E+01 2.18750E+00 0.00000E+00
 -1      1544 4.50120E+01 1.09375E+00 0.00000E+00
 -1      1545 4.35120E+01 1.09375E+00 0.00000E+00
 -1      1546 4.33740E+01 2.18750E+00 0.00000E+00
 -1      1547 4.80120E+01 1.09375E+00 0.00000E+00
 -1      1548 4.65120E+01 1.09375E+00 0.00000E+00
 -1      1549 4.63740E+01 2.18750E+00 0.00000E+00
 -1      1550 5.10120E+01 1.09375E+00 0.00000E+00
 -1      1551 4.95120E+01 1.09375E+00 0.00000E+00
 -1      1552 4.93740E+01 2.18750E+00 0.00000E+00
 -1      1553 5.40120E+01 1.09375E+00 0.00000E+00
 -1      1554 5.25120E+01 1.09375E+00 0.00000E+00
 -1      1555 5.23740E+01 2.18750E+00 0.00000E+00
 -1      1556 5.70120E+01 1.09375E+00 0.00000E+00
 -1      1557 5.55120E+01 1.09375E+00 0.00000E+00
 -1      1558 5.53740E+01 2.18750E+00 0.00000E+00
 -1      1559 6.00120E+01 1.09375E+00 0.00000E+00
 -1      1560 5.85120E+01 1.09375E+00 0.00000E+00
 -1      1561 5.83740E+01 2.18750E+00 0.00000E+00
 -1      1562 6.30120E+01 1.09375E+00 0.00000E+00
 -1      1563 6.15120E+01 1.09375E+00 0.00000E+00
 -1      1564 6.13740E+01 2.18750E+00 0.00000E+00
 -1      1565 6.60120E+01 1.09375E+00 0.00000E+00
 -1      1566 6.45120E+01 1.09375E+00 0.00000E+00
 -1      1567 6.43740E+01 2.18750E+00 0.00000E+00
 -1      1568 6.90120E+01 1.09375E+00 0.00000E+00
 -1      1569 6.75120E+01 1.09375E+00 0.00000E+00
 -1      1570 6.73740E+01 2.18750E+00 0.00000E+00
 -1      1571 7.20120E+01 1.09375E+00 0.00000E+00
 -1      1572 7.05120E+01 1.09375E+00 0.00000E+00
 -1      1573 7.03740E+01 2.18750E+00 0.00000E+00
 -1      1574 7.50120E+01 1.09375E+00 0.00000E+00
 -1      1575 7.35120E+01 1.09375E+00 0.00000E+00
 -1      1576 7.33740E+01 2.18750E+00 0.00000E+00
 -1      1577 7.80120E+01 1.09375E+00 0.00000E+00
 -1      1578 7.65120E+01 1.09375E+00 0.00000E+00
 -1      1579 7.63740E+01 2.18750E+00 0.00000E+00
 -1      1580 8.10120E+01 1.09375E+00 0.00000E+00
 -1      1581 7.95120E+01 1.09375E+00 0.00000E+00
 -1      1582 7.93740E+01 2.18750E+00 0.00000E+00
 -1      1583 8.40120E+01 1.09375E+00 0.00000E+00
 -1      1584 8.25120E+01 1.09375E+00 0.00000E+00
 -1      1585 8.23740E+01 2.18750E+00 0.00000E+00
 -1      1586 8.70120E+01 1.09375E+00 0.00000E+00
 -1      1587 8.55120E+01 1.09375E+00 0.00000E+00
 -1      1588 8.53740E+01 2.18750E+00 0.00000E+00
 -1      1589 9.00120E+01 1.09375E+00 0.00000E+00
 -1      1590 8.85120E+01 1.09375E+00 0.00000E+00
 -1      1591 8.83740E+01 2.18750E+00 0.00000E+00
 -1      1592 9.30120E+01 1.09375E+00 0.00000E+00
 -1      1593 9.15120E+01 1.09375E+00 0.00000E+00
 -1      1594 9.13740E+01 2.18750E+00 0.00000E+00
 -1      1595 9.60120E+01 1.09375E+00 0.00000E+00
 -1      1596 9.45120E+01 1.09375E+00 0.00000E+00
 -1      1597 9.43740E+01 2.18750E+00 0.00000E+00
 -1      1598 9.90120E+01 1.09375E+00 0.00000E+00
 -1      1599 9.75120E+01 1.09375E+00 0.00000E+00
 -1      1600 9.73740E+01 2.18750E+00 0.00000E+00
 -1      1601 1.02012E+02 1.09375E+00 0.00000E+00
 -1      1602 1.00512E+02 1.09375E+00 0.00000E+00
 -1      1603 1.00374E+02 2.18750E+00 0.00000E+00
 -1      1604 1.05012E+02 1.09375E+00 0.00000E+00
 -1      1605 1.03512E+02 1.09375E+00 0.00000E+00
 -1      1606 1.03374E+02 2.18750E+00 0.00000E+00
 -1      1607 1.08012E+02 1.09375E+00 0.00000E+00
 -1      1608 1.06512E+02 1.09375E+00 0.00000E+00
 -1      1609 1.06374E+02 2.18750E+00 0.00000E+00
 -1      1610 1.11012E+02 1.09375E+00 0.00000E+00
 -1      1611 1.09512E+02 1.09375E+00 0.00000E+00
 -1      1612 1.09374E+02 2.18750E+00 0.00000E+00
 -1      1613 1.14012E+02 1.09375E+00 0.00000E+00
 -1      1614 1.12512E+02 1.09375E+00 0.00000E+00
 -1      1615 1.12374E+02 2.18750E+00 0.00000E+00
 -1      1616 1.17012E+02 1.09375E+00 0.00000E+00
 -1      1617 1.15512E+02 1.09375E+00 0.00000E+00
 -1      1618 1.15374E+02 2.18750E+00 0.00000E+00
 -1      1619 1.20012E+02 1.09375E+00 0.00000E+00
 -1      1620 1.18512E+02 1.09375E+00 0.00000E+00
 -1      1621 1.18374E+02 2.18750E+00 0.00000E+00
 -1      1622 1.23012E+02 1.09375E+00 0.00000E+00
 -1      1623 1.21512E+02 1.09375E+00 0.00000E+00
 -1      1624 1.21374E+02 2.18750E+00 0.00000E+00
 -1      1625 1.26012E+02 1.09375E+00 0.00000E+00
 -1      1626 1.24512E+02 1.09375E+00 0.00000E+00
 -1      1627 1.24374E+02 2.18750E+00 0.00000E+00
 -1      1628 1.29012E+02 1.09375E+00 0.00000E+00
 -1      1629 1.27512E+02 1.09375E+00 0.00000E+00
 -1      1630 1.27374E+02 2.18750E+00 0.00000E+00
 -1      1631 1.32012E+02 1.09375E+00 0.00000E+00
 -1      1632 1.30512E+02 1.09375E+00 0.00000E+00
 -1      1633 1.30374E+02 2.18750E+00 0.00000E+00
 -1      1634 1.35012E+02 1.09375E+00 0.00000E+00
 -1      1635 1.33512E+02 1.09375E+00 0.00000E+00
 -1      1636 1.33374E+02 2.18750E+00 0.00000E+00
 -1      1637 1.38012E+02 1.09375E+00 0.00000E+00
 -1      1638 1.36512E+02 1.09375E+00 0.00000E+00
 -1      1639 1.36374E+02 2.18750E+00 0.00000E+00
 -1      1640 1.41012E+02 1.09375E+00 0.00000E+00
 -1      1641 1.39512E+02 1.09375E+00 0.00000E+00
 -1      1642 1.39374E+02 2.18750E+00 0.00000E+00
 -1      1643 1.44012E+02 1.09375E+00 0.00000E+00
 -1      1644 1.42512E+02 1.09375E+00 0.00000E+00
 -1      1645 1.42374E+02 2.18750E+00 0.00000E+00
 -1      1646 1.47012E+02 1.09375E+00 0.00000E+00
 -1      1647 1.45512E+02 1.09375E+00 0.00000E+00
 -1      1648 1.45374E+02 2.18750E+00 0.00000E+00
 -1      1649 1.48575E+02 1.47500E+00 0.00000E+00
 -1      1650 1.48701E+02 5.16250E+00 0.00000E+00
 -1      1651 1.48701E+02 3.68750E+00 0.00000E+00
 -1      1652 1.48701E+02 8.11250E+00 0.00000E+00
 -1      1653 1.48701E+02 6.63750E+00 0.00000E+00
 -1      1654 1.47402E+02 5.90000E+00 0.00000E+00
 -1      1655 1.48701E+02 1.10625E+01 0.00000E+00
 -1      1656 1.48701E+02 9.58750E+00 0.00000E+00
 -1      1657 1.47402E+02 8.85000E+00 0.00000E+00
 -1      1658 1.48701E+02 1.40125E+01 0.00000E+00
 -1      1659 1.48701E+02 1.25375E+01 0.00000E+00
 -1      1660 1.47402E+02 1.18000E+01 0.00000E+00
 -1      1661 1.48701E+02 1.69125E+01 0.00000E+00
 -1      1662 1.48701E+02 1.54625E+01 0.00000E+00
 -1      1663 1.47402E+02 1.47250E+01 0.00000E+00
 -1      1664 1.48701E+02 1.98625E+01 0.00000E+00
 -1      1665 1.48701E+02 1.83875E+01 0.00000E+00
 -1      1666 1.47402E+02 1.76500E+01 0.00000E+00
 -1      1667 1.48701E+02 2.28125E+01 0.00000E+00
 -1      1668 1.48701E+02 2.13375E+01 0.00000E+00
 -1      1669 1.47402E+02 2.06000E+01 0.00000E+00
 -1      1670 1.48701E+02 2.57625E+01 0.00000E+00
 -1      1671 1.48701E+02 2.42875E+01 0.00000E+00
 -1      1672 1.47402E+02 2.35500E+01 0.00000E+00
 -1      1673 1.48701E+02 2.87125E+01 0.00000E+00
 -1      1674 1.48701E+02 2.72375E+01 0.00000E+00
 -1      1675 1.47402E+02 2.65000E+01 0.00000E+00
 -1      1676 1.48701E+02 3.16625E+01 0.00000E+00
 -1      1677 1.48701E+02 3.01875E+01 0.00000E+00
 -1      1678 1.47402E+02 2.94500E+01 0.00000E+00
 -1      1679 1.48701E+02 3.45625E+01 0.00000E+00
 -1      1680 1.48701E+02 3.31125E+01 0.00000E+00
 -1      1681 1.47402E+02 3.23750E+01 0.00000E+00
 -1      1682 1.48701E+02 3.75125E+01 0.00000E+00
 -1      1683 1.48701E+02 3.60375E+01 0.00000E+00
 -1      1684 1.47402E+02 3.53000E+01 0.00000E+00
 -1      1685 1.48701E+02 4.04625E+01 0.00000E+00
 -1      1686 1.48701E+02 3.89875E+01 0.00000E+00
 -1      1687 1.47402E+02 3.82500E+01 0.00000E+00
 -1      1688 1.48701E+02 4.34125E+01 0.00000E+00
 -1      1689 1.48701E+02 4.19375E+01 0.00000E+00
 -1      1690 1.47402E+02 4.12000E+01 0.00000E+00
 -1      1691 1.48263E+02 4.60692E+01 0.00000E+00
 -1      1692 1.48263E+02 4.45942E+01 0.00000E+00
 -1      1693 1.46964E+02 4.38568E+01 0.00000E+00
 -1      1694 1.46088E+02 4.62202E+01 0.00000E+00
 -1      1695 6.03172E+01 2.48943E+01 0.00000E+00
 -1      1696 6.04022E+01 2.56608E+01 0.00000E+00
 -1      1697 5.98941E+01 2.32367E+01 0.00000E+00
 -1      1698 6.01530E+01 2.39831E+01 0.00000E+00
 -1      1699 5.90786E+01 2.18702E+01 0.00000E+00
 -1      1700 5.94463E+01 2.24726E+01 0.00000E+00
 -1      1701 5.80150E+01 2.05148E+01 0.00000E+00
 -1      1702 5.85877E+01 2.11088E+01 0.00000E+00
 -1      1703 5.65589E+01 1.95427E+01 0.00000E+00
 -1      1704 5.72263E+01 1.99722E+01 0.00000E+00
 -1      1705 5.50511E+01 1.87962E+01 0.00000E+00
 -1      1706 5.57722E+01 1.90582E+01 0.00000E+00
 -1      1707 5.33177E+01 1.83969E+01 0.00000E+00
 -1      1708 5.41378E+01 1.84960E+01 0.00000E+00
 -1      1709 5.16454E+01 1.85856E+01 0.00000E+00
 -1      1710 5.23803E+01 1.85091E+01 0.00000E+00
 -1      1711 5.01011E+01 1.89912E+01 0.00000E+00
 -1      1712 5.07969E+01 1.87651E+01 0.00000E+00
 -1      1713 4.86856E+01 1.97033E+01 0.00000E+00
 -1      1714 4.93151E+01 1.93405E+01 0.00000E+00
 -1      1715 4.74436E+01 2.06984E+01 0.00000E+00
 -1      1716 4.79888E+01 2.02088E+01 0.00000E+00
 -1      1717 4.64759E+01 2.19420E+01 0.00000E+00
 -1      1718 4.69017E+01 2.13592E+01 0.00000E+00
 -1      1719 4.57471E+01 2.33496E+01 0.00000E+00
 -1      1720 4.60488E+01 2.26782E+01 0.00000E+00
 -1      1721 4.53319E+01 2.48241E+01 0.00000E+00
 -1      1722 4.54821E+01 2.41435E+01 0.00000E+00
 -1      1723 4.51853E+01 2.63672E+01 0.00000E+00
 -1      1724 4.51956E+01 2.56463E+01 0.00000E+00
 -1      1725 4.54090E+01 2.79574E+01 0.00000E+00
 -1      1726 4.52646E+01 2.72276E+01 0.00000E+00
 -1      1727 4.59456E+01 2.95281E+01 0.00000E+00
 -1      1728 4.56383E+01 2.88244E+01 0.00000E+00
 -1      1729 4.68482E+01 3.09954E+01 0.00000E+00
 -1      1730 4.63777E+01 3.03572E+01 0.00000E+00
 -1      1731 4.81327E+01 3.20810E+01 0.00000E+00
 -1      1732 4.75613E+01 3.15860E+01 0.00000E+00
 -1      1733 4.94565E+01 3.29161E+01 0.00000E+00
 -1      1734 4.88339E+01 3.25728E+01 0.00000E+00
 -1      1735 5.09473E+01 3.35462E+01 0.00000E+00
 -1      1736 5.02229E+01 3.33270E+01 0.00000E+00
 -1      1737 5.26993E+01 3.38504E+01 0.00000E+00
 -1      1738 5.18716E+01 3.37951E+01 0.00000E+00
 -1      1739 5.43127E+01 3.35413E+01 0.00000E+00
 -1      1740 5.36093E+01 3.36505E+01 0.00000E+00
 -1      1741 5.59177E+01 3.32016E+01 0.00000E+00
 -1      1742 5.52044E+01 3.34742E+01 0.00000E+00
 -1      1743 5.73189E+01 3.22994E+01 0.00000E+00
 -1      1744 5.66911E+01 3.27124E+01 0.00000E+00
 -1      1745 5.84766E+01 3.11316E+01 0.00000E+00
 -1      1746 5.79503E+01 3.16705E+01 0.00000E+00
 -1      1747 5.94356E+01 2.97655E+01 0.00000E+00
 -1      1748 5.90261E+01 3.04270E+01 0.00000E+00
 -1      1749 6.01668E+01 2.81950E+01 0.00000E+00
 -1      1750 5.99077E+01 2.89569E+01 0.00000E+00
 -1      1751 6.03639E+01 2.65489E+01 0.00000E+00
 -1      1752 6.02852E+01 2.72871E+01 0.00000E+00
 -1      1753 5.80094E+01 1.97903E+01 0.00000E+00
 -1      1754 5.92890E+01 2.10942E+01 0.00000E+00
 -1      1755 1.48437E+02 2.56875E+00 0.00000E+00
 -1      1756 1.47138E+02 3.30625E+00 0.00000E+00
 -1      1757 6.08396E+01 2.42950E+01 0.00000E+00
 -1      1758 6.02277E+01 2.26197E+01 0.00000E+00
 -1      1759 6.09656E+01 2.60942E+01 0.00000E+00
 -1      1760 5.64339E+01 1.87632E+01 0.00000E+00
 -1      1761 5.47339E+01 1.79785E+01 0.00000E+00
 -1      1762 5.28832E+01 1.77905E+01 0.00000E+00
 -1      1763 5.10973E+01 1.80822E+01 0.00000E+00
 -1      1764 4.94627E+01 1.86111E+01 0.00000E+00
 -1      1765 4.79800E+01 1.94659E+01 0.00000E+00
 -1      1766 4.67413E+01 2.06322E+01 0.00000E+00
 -1      1767 4.57721E+01 2.20292E+01 0.00000E+00
 -1      1768 4.50800E+01 2.35593E+01 0.00000E+00
 -1      1769 4.46787E+01 2.51753E+01 0.00000E+00
 -1      1770 4.46217E+01 2.68579E+01 0.00000E+00
 -1      1771 4.49304E+01 2.85854E+01 0.00000E+00
 -1      1772 4.55917E+01 3.02815E+01 0.00000E+00
 -1      1773 4.67369E+01 3.17011E+01 0.00000E+00
 -1      1774 4.81513E+01 3.27835E+01 0.00000E+00
 -1      1775 4.96189E+01 3.36861E+01 0.00000E+00
 -1      1776 5.13095E+01 3.43459E+01 0.00000E+00
 -1      1777 5.31439E+01 3.43948E+01 0.00000E+00
 -1      1778 5.49456E+01 3.41278E+01 0.00000E+00
 -1      1779 5.66108E+01 3.35715E+01 0.00000E+00
 -1      1780 5.80157E+01 3.24534E+01 0.00000E+00
 -1      1781 5.91967E+01 3.11200E+01 0.00000E+00
 -1      1782 6.02184E+01 2.96067E+01 0.00000E+00
 -1      1783 6.08089E+01 2.78902E+01 0.00000E+00
 -1      1784 2.87400E+00 4.77875E+01 0.00000E+00
 -1      1785 3.89700E+00 4.04125E+01 0.00000E+00
 -1      1786 3.89700E+00 4.18875E+01 0.00000E+00
 -1      1787 3.89700E+00 4.33625E+01 0.00000E+00
 -1      1788 3.89700E+00 4.48375E+01 0.00000E+00
 -1      1789 5.19600E+00 4.26250E+01 0.00000E+00
 -1      1790 3.89700E+00 3.45500E+01 0.00000E+00
 -1      1791 3.89700E+00 3.60000E+01 0.00000E+00
 -1      1792 3.89700E+00 3.16000E+01 0.00000E+00
 -1      1793 3.89700E+00 3.30750E+01 0.00000E+00
 -1      1794 5.19600E+00 3.38000E+01 0.00000E+00
 -1      1795 3.89700E+00 2.86500E+01 0.00000E+00
 -1      1796 3.89700E+00 3.01250E+01 0.00000E+00
 -1      1797 5.19600E+00 3.08500E+01 0.00000E+00
 -1      1798 3.89700E+00 2.57000E+01 0.00000E+00
 -1      1799 3.89700E+00 2.71750E+01 0.00000E+00
 -1      1800 5.19600E+00 2.79000E+01 0.00000E+00
 -1      1801 3.89700E+00 2.27500E+01 0.00000E+00
 -1      1802 3.89700E+00 2.42250E+01 0.00000E+00
 -1      1803 5.19600E+00 2.49500E+01 0.00000E+00
 -1      1804 3.89700E+00 1.98000E+01 0.00000E+00
 -1      1805 3.89700E+00 2.12750E+01 0.00000E+00
 -1      1806 5.19600E+00 2.20000E+01 0.00000E+00
 -1      1807 3.89700E+00 1.69000E+01 0.00000E+00
 -1      1808 3.89700E+00 1.83500E+01 0.00000E+00
 -1      1809 5.19600E+00 1.90750E+01 0.00000E+00
 -1      1810 3.89700E+00 1.39500E+01 0.00000E+00
 -1      1811 3.89700E+00 1.54250E+01 0.00000E+00
 -1      1812 5.19600E+00 1.61500E+01 0.00000E+00
 -1      1813 3.89700E+00 1.10000E+01 0.00000E+00
 -1      1814 3.89700E+00 1.24750E+01 0.00000E+00
 -1      1815 5.19600E+00 1.32000E+01 0.00000E+00
 -1      1816 3.89700E+00 8.05000E+00 0.00000E+00
 -1      1817 3.89700E+00 9.52500E+00 0.00000E+00
 -1      1818 5.19600E+00 1.02500E+01 0.00000E+00
 -1      1819 3.89700E+00 5.10000E+00 0.00000E+00
 -1      1820 3.89700E+00 6.57500E+00 0.00000E+00
 -1      1821 5.19600E+00 7.30000E+00 0.00000E+00
 -1      1822 4.20450E+00 3.09687E+00 0.00000E+00
 -1      1823 4.06650E+00 4.19063E+00 0.00000E+00
 -1      1824 5.36550E+00 4.91563E+00 0.00000E+00
 -1      1825 5.70450E+00 3.09687E+00 0.00000E+00
 -1      1826 3.62400E+00 4.64885E+01 0.00000E+00
 -1      1827 8.70450E+00 3.09687E+00 0.00000E+00
 -1      1828 7.20450E+00 3.09687E+00 0.00000E+00
 -1      1829 7.03500E+00 4.00625E+00 0.00000E+00
 -1      1830 4.92300E+00 4.57510E+01 0.00000E+00
 -1      1831 8.40000E+00 4.61030E+01 0.00000E+00
 -1      1832 9.90000E+00 4.61030E+01 0.00000E+00
 -1      1833 1.14000E+01 4.61030E+01 0.00000E+00
 -1      1834 1.29000E+01 4.61030E+01 0.00000E+00
 -1      1835 1.06500E+01 4.48040E+01 0.00000E+00
 -1      1836 1.44000E+01 4.61030E+01 0.00000E+00
 -1      1837 1.59000E+01 4.61030E+01 0.00000E+00
 -1      1838 1.36500E+01 4.48040E+01 0.00000E+00
 -1      1839 1.74000E+01 4.61030E+01 0.00000E+00
 -1      1840 1.89000E+01 4.61030E+01 0.00000E+00
 -1      1841 1.66500E+01 4.48040E+01 0.00000E+00
 -1      1842 2.04000E+01 4.61030E+01 0.00000E+00
 -1      1843 2.19000E+01 4.61030E+01 0.00000E+00
 -1      1844 1.96500E+01 4.48040E+01 0.00000E+00
 -1      1845 2.34000E+01 4.61030E+01 0.00000E+00
 -1      1846 2.49000E+01 4.61030E+01 0.00000E+00
 -1      1847 2.26500E+01 4.48040E+01 0.00000E+00
 -1      1848 2.64000E+01 4.61030E+01 0.00000E+00
 -1      1849 2.79000E+01 4.61030E+01 0.00000E+00
 -1      1850 2.56500E+01 4.48040E+01 0.00000E+00
 -1      1851 2.94000E+01 4.61030E+01 0.00000E+00
 -1      1852 3.09000E+01 4.61030E+01 0.00000E+00
 -1      1853 2.86500E+01 4.48040E+01 0.00000E+00
 -1      1854 3.24000E+01 4.61030E+01 0.00000E+00
 -1      1855 3.39000E+01 4.61030E+01 0.00000E+00
 -1      1856 3.16500E+01 4.48040E+01 0.00000E+00
 -1      1857 3.54000E+01 4.61030E+01 0.00000E+00
 -1      1858 3.69000E+01 4.61030E+01 0.00000E+00
 -1      1859 3.46500E+01 4.48040E+01 0.00000E+00
 -1      1860 3.84000E+01 4.61030E+01 0.00000E+00
 -1      1861 3.99000E+01 4.61030E+01 0.00000E+00
 -1      1862 3.76500E+01 4.48040E+01 0.00000E+00
 -1      1863 4.14000E+01 4.61030E+01 0.00000E+00
 -1      1864 4.29000E+01 4.61030E+01 0.00000E+00
 -1      1865 4.06500E+01 4.48040E+01 0.00000E+00
 -1      1866 4.44000E+01 4.61030E+01 0.00000E+00
 -1      1867 4.59000E+01 4.61030E+01 0.00000E+00
 -1      1868 4.36500E+01 4.48040E+01 0.00000E+00
 -1      1869 4.74000E+01 4.61030E+01 0.00000E+00
 -1      1870 4.89000E+01 4.61030E+01 0.00000E+00
 -1      1871 4.66500E+01 4.48040E+01 0.00000E+00
 -1      1872 5.04000E+01 4.61030E+01 0.00000E+00
 -1      1873 5.19000E+01 4.61030E+01 0.00000E+00
 -1      1874 4.96500E+01 4.48040E+01 0.00000E+00
 -1      1875 5.34000E+01 4.61030E+01 0.00000E+00
 -1      1876 5.49000E+01 4.61030E+01 0.00000E+00
 -1      1877 5.26500E+01 4.48040E+01 0.00000E+00
 -1      1878 5.64000E+01 4.61030E+01 0.00000E+00
 -1      1879 5.79000E+01 4.61030E+01 0.00000E+00
 -1      1880 5.56500E+01 4.48040E+01 0.00000E+00
 -1      1881 5.94000E+01 4.61030E+01 0.00000E+00
 -1      1882 6.09000E+01 4.61030E+01 0.00000E+00
 -1      1883 5.86500E+01 4.48040E+01 0.00000E+00
 -1      1884 6.24000E+01 4.61030E+01 0.00000E+00
 -1      1885 6.39000E+01 4.61030E+01 0.00000E+00
 -1      1886 6.16500E+01 4.48040E+01 0.00000E+00
 -1      1887 6.54000E+01 4.61030E+01 0.00000E+00
 -1      1888 6.69000E+01 4.61030E+01 0.00000E+00
 -1      1889 6.46500E+01 4.48040E+01 0.00000E+00
 -1      1890 6.84000E+01 4.61030E+01 0.00000E+00
 -1      1891 6.99000E+01 4.61030E+01 0.00000E+00
 -1      1892 6.76500E+01 4.48040E+01 0.00000E+00
 -1      1893 7.14000E+01 4.61030E+01 0.00000E+00
 -1      1894 7.29000E+01 4.61030E+01 0.00000E+00
 -1      1895 7.06500E+01 4.48040E+01 0.00000E+00
 -1      1896 7.44000E+01 4.61030E+01 0.00000E+00
 -1      1897 7.59000E+01 4.61030E+01 0.00000E+00
 -1      1898 7.36500E+01 4.48040E+01 0.00000E+00
 -1      1899 7.74000E+01 4.61030E+01 0.00000E+00
 -1      1900 7.89000E+01 4.61030E+01 0.00000E+00
 -1      1901 7.66500E+01 4.48040E+01 0.00000E+00
 -1      1902 8.04000E+01 4.61030E+01 0.00000E+00
 -1      1903 8.19000E+01 4.61030E+01 0.00000E+00
 -1      1904 7.96500E+01 4.48040E+01 0.00000E+00
 -1      1905 8.34000E+01 4.61030E+01 0.00000E+00
 -1      1906 8.49000E+01 4.61030E+01 0.00000E+00
 -1      1907 8.26500E+01 4.48040E+01 0.00000E+00
 -1      1908 8.64000E+01 4.61030E+01 0.00000E+00
 -1      1909 8.79000E+01 4.61030E+01 0.00000E+00
 -1      1910 8.56500E+01 4.48040E+01 0.00000E+00
 -1      1911 8.94000E+01 4.61030E+01 0.00000E+00
 -1      1912 9.09000E+01 4.61030E+01 0.00000E+00
 -1      1913 8.86500E+01 4.48040E+01 0.00000E+00
 -1      1914 9.24000E+01 4.61030E+01 0.00000E+00
 -1      1915 9.39000E+01 4.61030E+01 0.00000E+00
 -1      1916 9.16500E+01 4.48040E+01 0.00000E+00
 -1      1917 9.54000E+01 4.61030E+01 0.00000E+00
 -1      1918 9.69000E+01 4.61030E+01 0.00000E+00
 -1      1919 9.46500E+01 4.48040E+01 0.00000E+00
 -1      1920 9.84000E+01 4.61030E+01 0.00000E+00
 -1      1921 9.99000E+01 4.61030E+01 0.00000E+00
 -1      1922 9.76500E+01 4.48040E+01 0.00000E+00
 -1      1923 1.01400E+02 4.61030E+01 0.00000E+00
 -1      1924 1.02900E+02 4.61030E+01 0.00000E+00
 -1      1925 1.00650E+02 4.48040E+01 0.00000E+00
 -1      1926 1.04400E+02 4.61030E+01 0.00000E+00
 -1      1927 1.05900E+02 4.61030E+01 0.00000E+00
 -1      1928 1.03650E+02 4.48040E+01 0.00000E+00
 -1      1929 1.07400E+02 4.61030E+01 0.00000E+00
 -1      1930 1.08900E+02 4.61030E+01 0.00000E+00
 -1      1931 1.06650E+02 4.48040E+01 0.00000E+00
 -1      1932 1.10400E+02 4.61030E+01 0.00000E+00
 -1      1933 1.11900E+02 4.61030E+01 0.00000E+00
 -1      1934 1.09650E+02 4.48040E+01 0.00000E+00
 -1      1935 1.13400E+02 4.61030E+01 0.00000E+00
 -1      1936 1.14900E+02 4.61030E+01 0.00000E+00
 -1      1937 1.12650E+02 4.48040E+01 0.00000E+00
 -1      1938 1.16400E+02 4.61030E+01 0.00000E+00
 -1      1939 1.17900E+02 4.61030E+01 0.00000E+00
 -1      1940 1.15650E+02 4.48040E+01 0.00000E+00
 -1      1941 1.19400E+02 4.61030E+01 0.00000E+00
 -1      1942 1.20900E+02 4.61030E+01 0.00000E+00
 -1      1943 1.18650E+02 4.48040E+01 0.00000E+00
 -1      1944 1.22400E+02 4.61030E+01 0.00000E+00
 -1      1945 1.23900E+02 4.61030E+01 0.00000E+00
 -1      1946 1.21650E+02 4.48040E+01 0.00000E+00
 -1      1947 1.25400E+02 4.61030E+01 0.00000E+00
 -1      1948 1.26900E+02 4.61030E+01 0.00000E+00
 -1      1949 1.24650E+02 4.48040E+01 0.00000E+00
 -1      1950 1.28400E+02 4.61030E+01 0.00000E+00
 -1      1951 1.29900E+02 4.61030E+01 0.00000E+00
 -1      1952 1.27650E+02 4.48040E+01 0.00000E+00
 -1      1953 1.31400E+02 4.61030E+01 0.00000E+00
 -1      1954 1.32900E+02 4.61030E+01 0.00000E+00
 -1      1955 1.30650E+02 4.48040E+01 0.00000E+00
 -1      1956 1.34400E+02 4.61030E+01 0.00000E+00
 -1      1957 1.35900E+02 4.61030E+01 0.00000E+00
 -1      1958 1.33650E+02 4.48040E+01 0.00000E+00
 -1      1959 1.37400E+02 4.61030E+01 0.00000E+00
 -1      1960 1.38900E+02 4.61030E+01 0.00000E+00
 -1      1961 1.36650E+02 4.48040E+01 0.00000E+00
 -1      1962 1.40400E+02 4.61030E+01 0.00000E+00
 -1      1963 1.41900E+02 4.61030E+01 0.00000E+00
 -1      1964 1.39650E+02 4.48040E+01 0.00000E+00
 -1      1965 1.43244E+02 4.61616E+01 0.00000E+00
 -1      1966 1.44744E+02 4.61616E+01 0.00000E+00
 -1      1967 1.45182E+02 4.49799E+01 0.00000E+00
 -1      1968 1.42494E+02 4.48626E+01 0.00000E+00
 -1      1969 1.17045E+01 3.09687E+00 0.00000E+00
 -1      1970 1.02045E+01 3.09687E+00 0.00000E+00
 -1      1971 1.00350E+01 4.00625E+00 0.00000E+00
 -1      1972 1.47045E+01 3.09687E+00 0.00000E+00
 -1      1973 1.32045E+01 3.09687E+00 0.00000E+00
 -1      1974 1.30350E+01 4.00625E+00 0.00000E+00
 -1      1975 1.77045E+01 3.09687E+00 0.00000E+00
 -1      1976 1.62045E+01 3.09687E+00 0.00000E+00
 -1      1977 1.60350E+01 4.00625E+00 0.00000E+00
 -1      1978 2.07045E+01 3.09687E+00 0.00000E+00
 -1      1979 1.92045E+01 3.09687E+00 0.00000E+00
 -1      1980 1.90350E+01 4.00625E+00 0.00000E+00
 -1      1981 2.37045E+01 3.09687E+00 0.00000E+00
 -1      1982 2.22045E+01 3.09687E+00 0.00000E+00
 -1      1983 2.20350E+01 4.00625E+00 0.00000E+00
 -1      1984 2.67045E+01 3.09687E+00 0.00000E+00
 -1      1985 2.52045E+01 3.09687E+00 0.00000E+00
 -1      1986 2.50350E+01 4.00625E+00 0.00000E+00
 -1      1987 2.97045E+01 3.09687E+00 0.00000E+00
 -1      1988 2.82045E+01 3.09687E+00 0.00000E+00
 -1      1989 2.80350E+01 4.00625E+00 0.00000E+00
 -1      1990 3.27045E+01 3.09687E+00 0.00000E+00
 -1      1991 3.12045E+01 3.09687E+00 0.00000E+00
 -1      1992 3.10350E+01 4.00625E+00 0.00000E+00
 -1      1993 3.57045E+01 3.09687E+00 0.00000E+00
 -1      1994 3.42045E+01 3.09687E+00 0.00000E+00
 -1      1995 3.40350E+01 4.00625E+00 0.00000E+00
 -1      1996 3.87045E+01 3.09687E+00 0.00000E+00
 -1      1997 3.72045E+01 3.09687E+00 0.00000E+00
 -1      1998 3.70350E+01 4.00625E+00 0.00000E+00
 -1      1999 4.17045E+01 3.09687E+00 0.00000E+00
 -1      2000 4.02045E+01 3.09687E+00 0.00000E+00
 -1      2001 4.00350E+01 4.00625E+00 0.00000E+00
 -1      2002 4.47045E+01 3.09687E+00 0.00000E+00
 -1      2003 4.32045E+01 3.09687E+00 0.00000E+00
 -1      2004 4.30350E+01 4.00625E+00 0.00000E+00
 -1      2005 4.77045E+01 3.09687E+00 0.00000E+00
 -1      2006 4.62045E+01 3.09687E+00 0.00000E+00
 -1      2007 4.60350E+01 4.00625E+00 0.00000E+00
 -1      2008 5.07045E+01 3.09687E+00 0.00000E+00
 -1      2009 4.92045E+01 3.09687E+00 0.00000E+00
 -1      2010 4.90350E+01 4.00625E+00 0.00000E+00
 -1      2011 5.37045E+01 3.09687E+00 0.00000E+00
 -1      2012 5.22045E+01 3.09687E+00 0.00000E+00
 -1      2013 5.20350E+01 4.00625E+00 0.00000E+00
 -1      2014 5.67045E+01 3.09687E+00 0.00000E+00
 -1      2015 5.52045E+01 3.09687E+00 0.00000E+00
 -1      2016 5.50350E+01 4.00625E+00 0.00000E+00
 -1      2017 5.97045E+01 3.09687E+00 0.00000E+00
 -1      2018 5.82045E+01 3.09687E+00 0.00000E+00
 -1      2019 5.80350E+01 4.00625E+00 0.00000E+00
 -1      2020 6.27045E+01 3.09687E+00 0.00000E+00
 -1      2021 6.12045E+01 3.09687E+00 0.00000E+00
 -1      2022 6.10350E+01 4.00625E+00 0.00000E+00
 -1      2023 6.57045E+01 3.09687E+00 0.00000E+00
 -1      2024 6.42045E+01 3.09687E+00 0.00000E+00
 -1      2025 6.40350E+01 4.00625E+00 0.00000E+00
 -1      2026 6.87045E+01 3.09687E+00 0.00000E+00
 -1      2027 6.72045E+01 3.09687E+00 0.00000E+00
 -1      2028 6.70350E+01 4.00625E+00 0.00000E+00
 -1      2029 7.17045E+01 3.09687E+00 0.00000E+00
 -1      2030 7.02045E+01 3.09687E+00 0.00000E+00
 -1      2031 7.00350E+01 4.00625E+00 0.00000E+00
 -1      2032 7.47045E+01 3.09687E+00 0.00000E+00
 -1      2033 7.32045E+01 3.09687E+00 0.00000E+00
 -1      2034 7.30350E+01 4.00625E+00 0.00000E+00
 -1      2035 7.77045E+01 3.09687E+00 0.00000E+00
 -1      2036 7.62045E+01 3.09687E+00 0.00000E+00
 -1      2037 7.60350E+01 4.00625E+00 0.00000E+00
 -1      2038 8.07045E+01 3.09687E+00 0.00000E+00
 -1      2039 7.92045E+01 3.09687E+00 0.00000E+00
 -1      2040 7.90350E+01 4.00625E+00 0.00000E+00
 -1      2041 8.37045E+01 3.09687E+00 0.00000E+00
 -1      2042 8.22045E+01 3.09687E+00 0.00000E+00
 -1      2043 8.20350E+01 4.00625E+00 0.00000E+00
 -1      2044 8.67045E+01 3.09687E+00 0.00000E+00
 -1      2045 8.52045E+01 3.09687E+00 0.00000E+00
 -1      2046 8.50350E+01 4.00625E+00 0.00000E+00
 -1      2047 8.97045E+01 3.09687E+00 0.00000E+00
 -1      2048 8.82045E+01 3.09687E+00 0.00000E+00
 -1      2049 8.80350E+01 4.00625E+00 0.00000E+00
 -1      2050 9.27045E+01 3.09687E+00 0.00000E+00
 -1      2051 9.12045E+01 3.09687E+00 0.00000E+00
 -1      2052 9.10350E+01 4.00625E+00 0.00000E+00
 -1      2053 9.57045E+01 3.09687E+00 0.00000E+00
 -1      2054 9.42045E+01 3.09687E+00 0.00000E+00
 -1      2055 9.40350E+01 4.00625E+00 0.00000E+00
 -1      2056 9.87045E+01 3.09687E+00 0.00000E+00
 -1      2057 9.72045E+01 3.09687E+00 0.00000E+00
 -1      2058 9.70350E+01 4.00625E+00 0.00000E+00
 -1      2059 1.01704E+02 3.09687E+00 0.00000E+00
 -1      2060 1.00204E+02 3.09687E+00 0.00000E+00
 -1      2061 1.00035E+02 4.00625E+00 0.00000E+00
 -1      2062 1.04704E+02 3.09687E+00 0.00000E+00
 -1      2063 1.03204E+02 3.09687E+00 0.00000E+00
 -1      2064 1.03035E+02 4.00625E+00 0.00000E+00
 -1      2065 1.07704E+02 3.09687E+00 0.00000E+00
 -1      2066 1.06204E+02 3.09687E+00 0.00000E+00
 -1      2067 1.06035E+02 4.00625E+00 0.00000E+00
 -1      2068 1.10704E+02 3.09687E+00 0.00000E+00
 -1      2069 1.09204E+02 3.09687E+00 0.00000E+00
 -1      2070 1.09035E+02 4.00625E+00 0.00000E+00
 -1      2071 1.13704E+02 3.09687E+00 0.00000E+00
 -1      2072 1.12204E+02 3.09687E+00 0.00000E+00
 -1      2073 1.12035E+02 4.00625E+00 0.00000E+00
 -1      2074 1.16704E+02 3.09687E+00 0.00000E+00
 -1      2075 1.15204E+02 3.09687E+00 0.00000E+00
 -1      2076 1.15035E+02 4.00625E+00 0.00000E+00
 -1      2077 1.19704E+02 3.09687E+00 0.00000E+00
 -1      2078 1.18204E+02 3.09687E+00 0.00000E+00
 -1      2079 1.18035E+02 4.00625E+00 0.00000E+00
 -1      2080 1.22704E+02 3.09687E+00 0.00000E+00
 -1      2081 1.21204E+02 3.09687E+00 0.00000E+00
 -1      2082 1.21035E+02 4.00625E+00 0.00000E+00
 -1      2083 1.25704E+02 3.09687E+00 0.00000E+00
 -1      2084 1.24204E+02 3.09687E+00 0.00000E+00
 -1      2085 1.24035E+02 4.00625E+00 0.00000E+00
 -1      2086 1.28704E+02 3.09687E+00 0.00000E+00
 -1      2087 1.27204E+02 3.09687E+00 0.00000E+00
 -1      2088 1.27035E+02 4.00625E+00 0.00000E+00
 -1      2089 1.31704E+02 3.09687E+00 0.00000E+00
 -1      2090 1.30204E+02 3.09687E+00 0.00000E+00
 -1      2091 1.30035E+02 4.00625E+00 0.00000E+00
 -1      2092 1.34704E+02 3.09687E+00 0.00000E+00
 -1      2093 1.33204E+02 3.09687E+00 0.00000E+00
 -1      2094 1.33035E+02 4.00625E+00 0.00000E+00
 -1      2095 1.37704E+02 3.09687E+00 0.00000E+00
 -1      2096 1.36204E+02 3.09687E+00 0.00000E+00
 -1      2097 1.36035E+02 4.00625E+00 0.00000E+00
 -1      2098 1.40704E+02 3.09687E+00 0.00000E+00
 -1      2099 1.39204E+02 3.09687E+00 0.00000E+00
 -1      2100 1.39035E+02 4.00625E+00 0.00000E+00
 -1      2101 1.43704E+02 3.09687E+00 0.00000E+00
 -1      2102 1.42204E+02 3.09687E+00 0.00000E+00
 -1      2103 1.42035E+02 4.00625E+00 0.00000E+00
 -1      2104 1.46171E+02 3.20156E+00 0.00000E+00
 -1      2105 1.44671E+02 3.20156E+00 0.00000E+00
 -1      2106 1.44502E+02 4.11094E+00 0.00000E+00
 -1      2107 1.46435E+02 4.32031E+00 0.00000E+00
 -1      2108 1.46103E+02 1.25375E+01 0.00000E+00
 -1      2109 1.46103E+02 1.10625E+01 0.00000E+00
 -1      2110 1.46103E+02 9.58750E+00 0.00000E+00
 -1      2111 1.46103E+02 8.11250E+00 0.00000E+00
 -1      2112 1.44804E+02 1.03250E+01 0.00000E+00
 -1      2113 1.46269E+02 6.95391E+00 0.00000E+00
 -1      2114 1.46269E+02 5.47891E+00 0.00000E+00
 -1      2115 1.45302E+02 5.37422E+00 0.00000E+00
 -1      2116 1.44970E+02 7.69141E+00 0.00000E+00
 -1      2117 1.46103E+02 1.54375E+01 0.00000E+00
 -1      2118 1.46103E+02 1.39875E+01 0.00000E+00
 -1      2119 1.44804E+02 1.32500E+01 0.00000E+00
 -1      2120 1.46103E+02 1.83875E+01 0.00000E+00
 -1      2121 1.46103E+02 1.69125E+01 0.00000E+00
 -1      2122 1.44804E+02 1.61750E+01 0.00000E+00
 -1      2123 1.46103E+02 2.13375E+01 0.00000E+00
 -1      2124 1.46103E+02 1.98625E+01 0.00000E+00
 -1      2125 1.44804E+02 1.91250E+01 0.00000E+00
 -1      2126 1.46103E+02 2.42875E+01 0.00000E+00
 -1      2127 1.46103E+02 2.28125E+01 0.00000E+00
 -1      2128 1.44804E+02 2.20750E+01 0.00000E+00
 -1      2129 1.46103E+02 2.72375E+01 0.00000E+00
 -1      2130 1.46103E+02 2.57625E+01 0.00000E+00
 -1      2131 1.44804E+02 2.50250E+01 0.00000E+00
 -1      2132 1.46103E+02 3.01875E+01 0.00000E+00
 -1      2133 1.46103E+02 2.87125E+01 0.00000E+00
 -1      2134 1.44804E+02 2.79750E+01 0.00000E+00
 -1      2135 1.46103E+02 3.30875E+01 0.00000E+00
 -1      2136 1.46103E+02 3.16375E+01 0.00000E+00
 -1      2137 1.44804E+02 3.09000E+01 0.00000E+00
 -1      2138 1.46103E+02 3.60375E+01 0.00000E+00
 -1      2139 1.46103E+02 3.45625E+01 0.00000E+00
 -1      2140 1.44804E+02 3.38250E+01 0.00000E+00
 -1      2141 1.46103E+02 3.89875E+01 0.00000E+00
 -1      2142 1.46103E+02 3.75125E+01 0.00000E+00
 -1      2143 1.44804E+02 3.67750E+01 0.00000E+00
 -1      2144 1.46103E+02 4.19375E+01 0.00000E+00
 -1      2145 1.46103E+02 4.04625E+01 0.00000E+00
 -1      2146 1.44804E+02 3.97250E+01 0.00000E+00
 -1      2147 6.05991E+01 2.18888E+01 0.00000E+00
 -1      2148 6.10469E+01 2.26529E+01 0.00000E+00
 -1      2149 6.16741E+01 2.56799E+01 0.00000E+00
 -1      2150 6.16358E+01 2.65680E+01 0.00000E+00
 -1      2151 6.16015E+01 2.36873E+01 0.00000E+00
 -1      2152 6.17657E+01 2.45985E+01 0.00000E+00
 -1      2153 5.96172E+01 2.03661E+01 0.00000E+00
 -1      2154 6.01082E+01 2.11275E+01 0.00000E+00
 -1      2155 6.09273E+01 2.11607E+01 0.00000E+00
 -1      2156 5.79824E+01 1.89851E+01 0.00000E+00
 -1      2157 5.87710E+01 1.95277E+01 0.00000E+00
 -1      2158 3.89700E+00 3.74688E+01 0.00000E+00
 -1      2159 3.89700E+00 3.89437E+01 0.00000E+00
 -1      2160 5.19600E+00 3.96813E+01 0.00000E+00
 -1      2161 5.19600E+00 3.67438E+01 0.00000E+00
 -1      2162 5.45450E+01 1.70137E+01 0.00000E+00
 -1      2163 5.54583E+01 1.73139E+01 0.00000E+00
 -1      2164 5.23374E+01 1.72031E+01 0.00000E+00
 -1      2165 5.32749E+01 1.70909E+01 0.00000E+00
 -1      2166 5.05215E+01 1.74560E+01 0.00000E+00
 -1      2167 5.13700E+01 1.72765E+01 0.00000E+00
 -1      2168 4.87555E+01 1.80786E+01 0.00000E+00
 -1      2169 4.95415E+01 1.77293E+01 0.00000E+00
 -1      2170 4.72264E+01 1.91602E+01 0.00000E+00
 -1      2171 4.79232E+01 1.86547E+01 0.00000E+00
 -1      2172 4.59368E+01 2.05250E+01 0.00000E+00
 -1      2173 4.64787E+01 1.98642E+01 0.00000E+00
 -1      2174 4.49980E+01 2.20721E+01 0.00000E+00
 -1      2175 4.54252E+01 2.13358E+01 0.00000E+00
 -1      2176 4.42136E+01 2.37113E+01 0.00000E+00
 -1      2177 4.44785E+01 2.29174E+01 0.00000E+00
 -1      2178 4.39299E+01 2.54735E+01 0.00000E+00
 -1      2179 4.40662E+01 2.46514E+01 0.00000E+00
 -1      2180 4.39743E+01 2.73515E+01 0.00000E+00
 -1      2181 4.38950E+01 2.64910E+01 0.00000E+00
 -1      2182 4.43375E+01 2.92060E+01 0.00000E+00
 -1      2183 4.41081E+01 2.83390E+01 0.00000E+00
 -1      2184 4.50473E+01 3.10924E+01 0.00000E+00
 -1      2185 4.46152E+01 3.02633E+01 0.00000E+00
 -1      2186 4.66801E+01 3.24955E+01 0.00000E+00
 -1      2187 4.59670E+01 3.19050E+01 0.00000E+00
 -1      2188 4.81297E+01 3.35600E+01 0.00000E+00
 -1      2189 4.74285E+01 3.30682E+01 0.00000E+00
 -1      2190 4.96761E+01 3.44997E+01 0.00000E+00
 -1      2191 4.89097E+01 3.40888E+01 0.00000E+00
 -1      2192 5.16032E+01 3.50961E+01 0.00000E+00
 -1      2193 5.06789E+01 3.48472E+01 0.00000E+00
 -1      2194 5.37739E+01 3.50915E+01 0.00000E+00
 -1      2195 5.28639E+01 3.52915E+01 0.00000E+00
 -1      2196 5.55572E+01 3.49573E+01 0.00000E+00
 -1      2197 5.46656E+01 3.50244E+01 0.00000E+00
 -1      2198 5.43856E+01 3.59210E+01 0.00000E+00
 -1      2199 5.74559E+01 3.40517E+01 0.00000E+00
 -1      2200 5.66824E+01 3.45408E+01 0.00000E+00
 -1      2201 5.88479E+01 3.26576E+01 0.00000E+00
 -1      2202 5.82164E+01 3.32865E+01 0.00000E+00
 -1      2203 6.00156E+01 3.11920E+01 0.00000E+00
 -1      2204 5.94660E+01 3.18966E+01 0.00000E+00
 -1      2205 6.10503E+01 2.95502E+01 0.00000E+00
 -1      2206 6.05782E+01 3.03589E+01 0.00000E+00
 -1      2207 6.16354E+01 2.75363E+01 0.00000E+00
 -1      2208 6.15170E+01 2.84442E+01 0.00000E+00
 -1      2209 5.64244E+01 1.78977E+01 0.00000E+00
 -1      2210 5.72111E+01 1.83823E+01 0.00000E+00
 -1      2211 5.95902E+01 1.95609E+01 0.00000E+00
 -1      2212 6.04094E+01 1.95941E+01 0.00000E+00
 -1      2213 5.95632E+01 1.87557E+01 0.00000E+00
 -1      2214 6.42300E+00 4.57510E+01 0.00000E+00
 -1      2215 5.62355E+01 1.69330E+01 0.00000E+00
 -1      2216 7.17300E+00 4.44520E+01 0.00000E+00
 -1      2217 6.19729E+01 2.29564E+01 0.00000E+00
 -1      2218 6.24359E+01 2.50722E+01 0.00000E+00
 -1      2219 1.45665E+02 4.31193E+01 0.00000E+00
 -1      2220 6.23439E+01 2.71220E+01 0.00000E+00
 -1      2221 5.79728E+01 1.81196E+01 0.00000E+00
 -1      2222 6.18768E+01 2.91964E+01 0.00000E+00
 -1      2223 6.08475E+01 3.11355E+01 0.00000E+00
 -1      2224 5.96667E+01 3.27296E+01 0.00000E+00
 -1      2225 5.64024E+01 3.54375E+01 0.00000E+00
 -1      2226 5.22332E+01 3.57928E+01 0.00000E+00
 -1      2227 5.16025E+01 3.62942E+01 0.00000E+00
 -1      2228 5.28633E+01 3.64895E+01 0.00000E+00
 -1      2229 4.99697E+01 3.52499E+01 0.00000E+00
 -1      2230 4.81869E+01 3.43735E+01 0.00000E+00
 -1      2231 4.66586E+01 3.32720E+01 0.00000E+00
 -1      2232 4.49905E+01 3.18868E+01 0.00000E+00
 -1      2233 4.37930E+01 3.00169E+01 0.00000E+00
 -1      2234 4.33814E+01 2.79721E+01 0.00000E+00
 -1      2235 4.32825E+01 2.59671E+01 0.00000E+00
 -1      2236 4.34647E+01 2.40095E+01 0.00000E+00
 -1      2237 4.41315E+01 2.22240E+01 0.00000E+00
 -1      2238 4.51626E+01 2.05679E+01 0.00000E+00
 -1      2239 4.64219E+01 1.90530E+01 0.00000E+00
 -1      2240 4.80019E+01 1.77729E+01 0.00000E+00
 -1      2241 4.98143E+01 1.69235E+01 0.00000E+00
 -1      2242 5.39993E+01 1.64263E+01 0.00000E+00
 -1      2243 5.47237E+01 1.57617E+01 0.00000E+00
 -1      2244 5.34535E+01 1.58389E+01 0.00000E+00
 -1      2245 5.17617E+01 1.65769E+01 0.00000E+00
 -1      2246 5.82880E+01 3.42558E+01 0.00000E+00
 -1      2247 1.07850E+01 5.30525E+00 0.00000E+00
 -1      2248 9.28500E+00 5.30525E+00 0.00000E+00
 -1      2249 6.49500E+00 3.01125E+01 0.00000E+00
 -1      2250 6.49500E+00 3.15875E+01 0.00000E+00
 -1      2251 6.49500E+00 3.30625E+01 0.00000E+00
 -1      2252 6.49500E+00 3.45375E+01 0.00000E+00
 -1      2253 7.79400E+00 3.23250E+01 0.00000E+00
 -1      2254 6.49500E+00 2.42125E+01 0.00000E+00
 -1      2255 6.49500E+00 2.56875E+01 0.00000E+00
 -1      2256 6.49500E+00 2.12625E+01 0.00000E+00
 -1      2257 6.49500E+00 2.27375E+01 0.00000E+00
 -1      2258 7.79400E+00 2.34750E+01 0.00000E+00
 -1      2259 6.49500E+00 1.83625E+01 0.00000E+00
 -1      2260 6.49500E+00 1.98125E+01 0.00000E+00
 -1      2261 7.79400E+00 2.05500E+01 0.00000E+00
 -1      2262 6.49500E+00 1.54125E+01 0.00000E+00
 -1      2263 6.49500E+00 1.68875E+01 0.00000E+00
 -1      2264 7.79400E+00 1.76250E+01 0.00000E+00
 -1      2265 6.49500E+00 1.24625E+01 0.00000E+00
 -1      2266 6.49500E+00 1.39375E+01 0.00000E+00
 -1      2267 7.79400E+00 1.46750E+01 0.00000E+00
 -1      2268 6.49500E+00 9.51250E+00 0.00000E+00
 -1      2269 6.49500E+00 1.09875E+01 0.00000E+00
 -1      2270 7.79400E+00 1.17250E+01 0.00000E+00
 -1      2271 1.37850E+01 5.30525E+00 0.00000E+00
 -1      2272 1.22850E+01 5.30525E+00 0.00000E+00
 -1      2273 1.15350E+01 6.60425E+00 0.00000E+00
 -1      2274 9.90000E+00 4.35050E+01 0.00000E+00
 -1      2275 1.14000E+01 4.35050E+01 0.00000E+00
 -1      2276 5.62827E+01 1.57637E+01 0.00000E+00
 -1      2277 5.72487E+01 1.63476E+01 0.00000E+00
 -1      2278 1.29000E+01 4.35050E+01 0.00000E+00
 -1      2279 1.44000E+01 4.35050E+01 0.00000E+00
 -1      2280 1.21500E+01 4.22060E+01 0.00000E+00
 -1      2281 1.59000E+01 4.35050E+01 0.00000E+00
 -1      2282 1.74000E+01 4.35050E+01 0.00000E+00
 -1      2283 1.51500E+01 4.22060E+01 0.00000E+00
 -1      2284 1.89000E+01 4.35050E+01 0.00000E+00
 -1      2285 2.04000E+01 4.35050E+01 0.00000E+00
 -1      2286 1.81500E+01 4.22060E+01 0.00000E+00
 -1      2287 2.19000E+01 4.35050E+01 0.00000E+00
 -1      2288 2.34000E+01 4.35050E+01 0.00000E+00
 -1      2289 2.11500E+01 4.22060E+01 0.00000E+00
 -1      2290 2.49000E+01 4.35050E+01 0.00000E+00
 -1      2291 2.64000E+01 4.35050E+01 0.00000E+00
 -1      2292 2.41500E+01 4.22060E+01 0.00000E+00
 -1      2293 2.79000E+01 4.35050E+01 0.00000E+00
 -1      2294 2.94000E+01 4.35050E+01 0.00000E+00
 -1      2295 2.71500E+01 4.22060E+01 0.00000E+00
 -1      2296 3.09000E+01 4.35050E+01 0.00000E+00
 -1      2297 3.24000E+01 4.35050E+01 0.00000E+00
 -1      2298 3.01500E+01 4.22060E+01 0.00000E+00
 -1      2299 3.39000E+01 4.35050E+01 0.00000E+00
 -1      2300 3.54000E+01 4.35050E+01 0.00000E+00
 -1      2301 3.31500E+01 4.22060E+01 0.00000E+00
 -1      2302 3.69000E+01 4.35050E+01 0.00000E+00
 -1      2303 3.84000E+01 4.35050E+01 0.00000E+00
 -1      2304 3.61500E+01 4.22060E+01 0.00000E+00
 -1      2305 3.99000E+01 4.35050E+01 0.00000E+00
 -1      2306 4.14000E+01 4.35050E+01 0.00000E+00
 -1      2307 3.91500E+01 4.22060E+01 0.00000E+00
 -1      2308 4.29000E+01 4.35050E+01 0.00000E+00
 -1      2309 4.44000E+01 4.35050E+01 0.00000E+00
 -1      2310 4.21500E+01 4.22060E+01 0.00000E+00
 -1      2311 4.59000E+01 4.35050E+01 0.00000E+00
 -1      2312 4.74000E+01 4.35050E+01 0.00000E+00
 -1      2313 4.51500E+01 4.22060E+01 0.00000E+00
 -1      2314 4.89000E+01 4.35050E+01 0.00000E+00
 -1      2315 5.04000E+01 4.35050E+01 0.00000E+00
 -1      2316 4.81500E+01 4.22060E+01 0.00000E+00
 -1      2317 5.19000E+01 4.35050E+01 0.00000E+00
 -1      2318 5.34000E+01 4.35050E+01 0.00000E+00
 -1      2319 5.11500E+01 4.22060E+01 0.00000E+00
 -1      2320 5.49000E+01 4.35050E+01 0.00000E+00
 -1      2321 5.64000E+01 4.35050E+01 0.00000E+00
 -1      2322 5.41500E+01 4.22060E+01 0.00000E+00
 -1      2323 5.79000E+01 4.35050E+01 0.00000E+00
 -1      2324 5.94000E+01 4.35050E+01 0.00000E+00
 -1      2325 5.71500E+01 4.22060E+01 0.00000E+00
 -1      2326 6.09000E+01 4.35050E+01 0.00000E+00
 -1      2327 6.24000E+01 4.35050E+01 0.00000E+00
 -1      2328 6.01500E+01 4.22060E+01 0.00000E+00
 -1      2329 6.39000E+01 4.35050E+01 0.00000E+00
 -1      2330 6.54000E+01 4.35050E+01 0.00000E+00
 -1      2331 6.31500E+01 4.22060E+01 0.00000E+00
 -1      2332 6.69000E+01 4.35050E+01 0.00000E+00
 -1      2333 6.84000E+01 4.35050E+01 0.00000E+00
 -1      2334 6.61500E+01 4.22060E+01 0.00000E+00
 -1      2335 6.99000E+01 4.35050E+01 0.00000E+00
 -1      2336 7.14000E+01 4.35050E+01 0.00000E+00
 -1      2337 6.91500E+01 4.22060E+01 0.00000E+00
 -1      2338 7.29000E+01 4.35050E+01 0.00000E+00
 -1      2339 7.44000E+01 4.35050E+01 0.00000E+00
 -1      2340 7.21500E+01 4.22060E+01 0.00000E+00
 -1      2341 7.59000E+01 4.35050E+01 0.00000E+00
 -1      2342 7.74000E+01 4.35050E+01 0.00000E+00
 -1      2343 7.51500E+01 4.22060E+01 0.00000E+00
 -1      2344 7.89000E+01 4.35050E+01 0.00000E+00
 -1      2345 8.04000E+01 4.35050E+01 0.00000E+00
 -1      2346 7.81500E+01 4.22060E+01 0.00000E+00
 -1      2347 8.19000E+01 4.35050E+01 0.00000E+00
 -1      2348 8.34000E+01 4.35050E+01 0.00000E+00
 -1      2349 8.11500E+01 4.22060E+01 0.00000E+00
 -1      2350 8.49000E+01 4.35050E+01 0.00000E+00
 -1      2351 8.64000E+01 4.35050E+01 0.00000E+00
 -1      2352 8.41500E+01 4.22060E+01 0.00000E+00
 -1      2353 8.79000E+01 4.35050E+01 0.00000E+00
 -1      2354 8.94000E+01 4.35050E+01 0.00000E+00
 -1      2355 8.71500E+01 4.22060E+01 0.00000E+00
 -1      2356 9.09000E+01 4.35050E+01 0.00000E+00
 -1      2357 9.24000E+01 4.35050E+01 0.00000E+00
 -1      2358 9.01500E+01 4.22060E+01 0.00000E+00
 -1      2359 9.39000E+01 4.35050E+01 0.00000E+00
 -1      2360 9.54000E+01 4.35050E+01 0.00000E+00
 -1      2361 9.31500E+01 4.22060E+01 0.00000E+00
 -1      2362 9.69000E+01 4.35050E+01 0.00000E+00
 -1      2363 9.84000E+01 4.35050E+01 0.00000E+00
 -1      2364 9.61500E+01 4.22060E+01 0.00000E+00
 -1      2365 9.99000E+01 4.35050E+01 0.00000E+00
 -1      2366 1.01400E+02 4.35050E+01 0.00000E+00
 -1      2367 9.91500E+01 4.22060E+01 0.00000E+00
 -1      2368 1.02900E+02 4.35050E+01 0.00000E+00
 -1      2369 1.04400E+02 4.35050E+01 0.00000E+00
 -1      2370 1.02150E+02 4.22060E+01 0.00000E+00
 -1      2371 1.05900E+02 4.35050E+01 0.00000E+00
 -1      2372 1.07400E+02 4.35050E+01 0.00000E+00
 -1      2373 1.05150E+02 4.22060E+01 0.00000E+00
 -1      2374 1.08900E+02 4.35050E+01 0.00000E+00
 -1      2375 1.10400E+02 4.35050E+01 0.00000E+00
 -1      2376 1.08150E+02 4.22060E+01 0.00000E+00
 -1      2377 1.11900E+02 4.35050E+01 0.00000E+00
 -1      2378 1.13400E+02 4.35050E+01 0.00000E+00
 -1      2379 1.11150E+02 4.22060E+01 0.00000E+00
 -1      2380 1.14900E+02 4.35050E+01 0.00000E+00
 -1      2381 1.16400E+02 4.35050E+01 0.00000E+00
 -1      2382 1.14150E+02 4.22060E+01 0.00000E+00
 -1      2383 1.17900E+02 4.35050E+01 0.00000E+00
 -1      2384 1.19400E+02 4.35050E+01 0.00000E+00
 -1      2385 1.17150E+02 4.22060E+01 0.00000E+00
 -1      2386 1.20900E+02 4.35050E+01 0.00000E+00
 -1      2387 1.22400E+02 4.35050E+01 0.00000E+00
 -1      2388 1.20150E+02 4.22060E+01 0.00000E+00
 -1      2389 1.23900E+02 4.35050E+01 0.00000E+00
 -1      2390 1.25400E+02 4.35050E+01 0.00000E+00
 -1      2391 1.23150E+02 4.22060E+01 0.00000E+00
 -1      2392 1.26900E+02 4.35050E+01 0.00000E+00
 -1      2393 1.28400E+02 4.35050E+01 0.00000E+00
 -1      2394 1.26150E+02 4.22060E+01 0.00000E+00
 -1      2395 1.29900E+02 4.35050E+01 0.00000E+00
 -1      2396 1.31400E+02 4.35050E+01 0.00000E+00
 -1      2397 1.29150E+02 4.22060E+01 0.00000E+00
 -1      2398 1.32900E+02 4.35050E+01 0.00000E+00
 -1      2399 1.34400E+02 4.35050E+01 0.00000E+00
 -1      2400 1.32150E+02 4.22060E+01 0.00000E+00
 -1      2401 1.35900E+02 4.35050E+01 0.00000E+00
 -1      2402 1.37400E+02 4.35050E+01 0.00000E+00
 -1      2403 1.35150E+02 4.22060E+01 0.00000E+00
 -1      2404 1.38900E+02 4.35050E+01 0.00000E+00
 -1      2405 1.40400E+02 4.35050E+01 0.00000E+00
 -1      2406 1.38150E+02 4.22060E+01 0.00000E+00
 -1      2407 1.97850E+01 5.30525E+00 0.00000E+00
 -1      2408 1.82850E+01 5.30525E+00 0.00000E+00
 -1      2409 2.27850E+01 5.30525E+00 0.00000E+00
 -1      2410 2.12850E+01 5.30525E+00 0.00000E+00
 -1      2411 2.05350E+01 6.60425E+00 0.00000E+00
 -1      2412 2.57850E+01 5.30525E+00 0.00000E+00
 -1      2413 2.42850E+01 5.30525E+00 0.00000E+00
 -1      2414 2.35350E+01 6.60425E+00 0.00000E+00
 -1      2415 2.87850E+01 5.30525E+00 0.00000E+00
 -1      2416 2.72850E+01 5.30525E+00 0.00000E+00
 -1      2417 2.65350E+01 6.60425E+00 0.00000E+00
 -1      2418 3.17850E+01 5.30525E+00 0.00000E+00
 -1      2419 3.02850E+01 5.30525E+00 0.00000E+00
 -1      2420 2.95350E+01 6.60425E+00 0.00000E+00
 -1      2421 3.47850E+01 5.30525E+00 0.00000E+00
 -1      2422 3.32850E+01 5.30525E+00 0.00000E+00
 -1      2423 3.25350E+01 6.60425E+00 0.00000E+00
 -1      2424 3.77850E+01 5.30525E+00 0.00000E+00
 -1      2425 3.62850E+01 5.30525E+00 0.00000E+00
 -1      2426 3.55350E+01 6.60425E+00 0.00000E+00
 -1      2427 4.07850E+01 5.30525E+00 0.00000E+00
 -1      2428 3.92850E+01 5.30525E+00 0.00000E+00
 -1      2429 3.85350E+01 6.60425E+00 0.00000E+00
 -1      2430 4.37850E+01 5.30525E+00 0.00000E+00
 -1      2431 4.22850E+01 5.30525E+00 0.00000E+00
 -1      2432 4.15350E+01 6.60425E+00 0.00000E+00
 -1      2433 4.67850E+01 5.30525E+00 0.00000E+00
 -1      2434 4.52850E+01 5.30525E+00 0.00000E+00
 -1      2435 4.45350E+01 6.60425E+00 0.00000E+00
 -1      2436 4.97850E+01 5.30525E+00 0.00000E+00
 -1      2437 4.82850E+01 5.30525E+00 0.00000E+00
 -1      2438 4.75350E+01 6.60425E+00 0.00000E+00
 -1      2439 5.27850E+01 5.30525E+00 0.00000E+00
 -1      2440 5.12850E+01 5.30525E+00 0.00000E+00
 -1      2441 5.05350E+01 6.60425E+00 0.00000E+00
 -1      2442 5.57850E+01 5.30525E+00 0.00000E+00
 -1      2443 5.42850E+01 5.30525E+00 0.00000E+00
 -1      2444 5.35350E+01 6.60425E+00 0.00000E+00
 -1      2445 5.87850E+01 5.30525E+00 0.00000E+00
 -1      2446 5.72850E+01 5.30525E+00 0.00000E+00
 -1      2447 5.65350E+01 6.60425E+00 0.00000E+00
 -1      2448 6.17850E+01 5.30525E+00 0.00000E+00
 -1      2449 6.02850E+01 5.30525E+00 0.00000E+00
 -1      2450 5.95350E+01 6.60425E+00 0.00000E+00
 -1      2451 6.47850E+01 5.30525E+00 0.00000E+00
 -1      2452 6.32850E+01 5.30525E+00 0.00000E+00
 -1      2453 6.25350E+01 6.60425E+00 0.00000E+00
 -1      2454 6.77850E+01 5.30525E+00 0.00000E+00
 -1      2455 6.62850E+01 5.30525E+00 0.00000E+00
 -1      2456 6.55350E+01 6.60425E+00 0.00000E+00
 -1      2457 7.07850E+01 5.30525E+00 0.00000E+00
 -1      2458 6.92850E+01 5.30525E+00 0.00000E+00
 -1      2459 6.85350E+01 6.60425E+00 0.00000E+00
 -1      2460 7.37850E+01 5.30525E+00 0.00000E+00
 -1      2461 7.22850E+01 5.30525E+00 0.00000E+00
 -1      2462 7.15350E+01 6.60425E+00 0.00000E+00
 -1      2463 7.67850E+01 5.30525E+00 0.00000E+00
 -1      2464 7.52850E+01 5.30525E+00 0.00000E+00
 -1      2465 7.45350E+01 6.60425E+00 0.00000E+00
 -1      2466 7.97850E+01 5.30525E+00 0.00000E+00
 -1      2467 7.82850E+01 5.30525E+00 0.00000E+00
 -1      2468 7.75350E+01 6.60425E+00 0.00000E+00
 -1      2469 8.27850E+01 5.30525E+00 0.00000E+00
 -1      2470 8.12850E+01 5.30525E+00 0.00000E+00
 -1      2471 8.05350E+01 6.60425E+00 0.00000E+00
 -1      2472 8.57850E+01 5.30525E+00 0.00000E+00
 -1      2473 8.42850E+01 5.30525E+00 0.00000E+00
 -1      2474 8.35350E+01 6.60425E+00 0.00000E+00
 -1      2475 8.87850E+01 5.30525E+00 0.00000E+00
 -1      2476 8.72850E+01 5.30525E+00 0.00000E+00
 -1      2477 8.65350E+01 6.60425E+00 0.00000E+00
 -1      2478 9.17850E+01 5.30525E+00 0.00000E+00
 -1      2479 9.02850E+01 5.30525E+00 0.00000E+00
 -1      2480 8.95350E+01 6.60425E+00 0.00000E+00
 -1      2481 9.47850E+01 5.30525E+00 0.00000E+00
 -1      2482 9.32850E+01 5.30525E+00 0.00000E+00
 -1      2483 9.25350E+01 6.60425E+00 0.00000E+00
 -1      2484 9.77850E+01 5.30525E+00 0.00000E+00
 -1      2485 9.62850E+01 5.30525E+00 0.00000E+00
 -1      2486 9.55350E+01 6.60425E+00 0.00000E+00
 -1      2487 1.00785E+02 5.30525E+00 0.00000E+00
 -1      2488 9.92850E+01 5.30525E+00 0.00000E+00
 -1      2489 9.85350E+01 6.60425E+00 0.00000E+00
 -1      2490 1.03785E+02 5.30525E+00 0.00000E+00
 -1      2491 1.02285E+02 5.30525E+00 0.00000E+00
 -1      2492 1.01535E+02 6.60425E+00 0.00000E+00
 -1      2493 1.06785E+02 5.30525E+00 0.00000E+00
 -1      2494 1.05285E+02 5.30525E+00 0.00000E+00
 -1      2495 1.04535E+02 6.60425E+00 0.00000E+00
 -1      2496 1.09785E+02 5.30525E+00 0.00000E+00
 -1      2497 1.08285E+02 5.30525E+00 0.00000E+00
 -1      2498 1.07535E+02 6.60425E+00 0.00000E+00
 -1      2499 1.12785E+02 5.30525E+00 0.00000E+00
 -1      2500 1.11285E+02 5.30525E+00 0.00000E+00
 -1      2501 1.10535E+02 6.60425E+00 0.00000E+00
 -1      2502 1.15785E+02 5.30525E+00 0.00000E+00
 -1      2503 1.14285E+02 5.30525E+00 0.00000E+00
 -1      2504 1.13535E+02 6.60425E+00 0.00000E+00
 -1      2505 1.18785E+02 5.30525E+00 0.00000E+00
 -1      2506 1.17285E+02 5.30525E+00 0.00000E+00
 -1      2507 1.16535E+02 6.60425E+00 0.00000E+00
 -1      2508 1.21785E+02 5.30525E+00 0.00000E+00
 -1      2509 1.20285E+02 5.30525E+00 0.00000E+00
 -1      2510 1.19535E+02 6.60425E+00 0.00000E+00
 -1      2511 1.24785E+02 5.30525E+00 0.00000E+00
 -1      2512 1.23285E+02 5.30525E+00 0.00000E+00
 -1      2513 1.22535E+02 6.60425E+00 0.00000E+00
 -1      2514 1.27785E+02 5.30525E+00 0.00000E+00
 -1      2515 1.26285E+02 5.30525E+00 0.00000E+00
 -1      2516 1.25535E+02 6.60425E+00 0.00000E+00
 -1      2517 1.30785E+02 5.30525E+00 0.00000E+00
 -1      2518 1.29285E+02 5.30525E+00 0.00000E+00
 -1      2519 1.28535E+02 6.60425E+00 0.00000E+00
 -1      2520 1.33785E+02 5.30525E+00 0.00000E+00
 -1      2521 1.32285E+02 5.30525E+00 0.00000E+00
 -1      2522 1.31535E+02 6.60425E+00 0.00000E+00
 -1      2523 1.36785E+02 5.30525E+00 0.00000E+00
 -1      2524 1.35285E+02 5.30525E+00 0.00000E+00
 -1      2525 1.34535E+02 6.60425E+00 0.00000E+00
 -1      2526 1.39785E+02 5.30525E+00 0.00000E+00
 -1      2527 1.38285E+02 5.30525E+00 0.00000E+00
 -1      2528 1.37535E+02 6.60425E+00 0.00000E+00
 -1      2529 1.42785E+02 5.30525E+00 0.00000E+00
 -1      2530 1.41285E+02 5.30525E+00 0.00000E+00
 -1      2531 1.40535E+02 6.60425E+00 0.00000E+00
 -1      2532 1.44336E+02 5.26953E+00 0.00000E+00
 -1      2533 1.43505E+02 1.69125E+01 0.00000E+00
 -1      2534 1.43505E+02 1.54375E+01 0.00000E+00
 -1      2535 1.43505E+02 1.98625E+01 0.00000E+00
 -1      2536 1.43505E+02 1.83875E+01 0.00000E+00
 -1      2537 1.42206E+02 1.76500E+01 0.00000E+00
 -1      2538 1.43505E+02 1.10625E+01 0.00000E+00
 -1      2539 1.43505E+02 9.58750E+00 0.00000E+00
 -1      2540 1.43505E+02 1.39750E+01 0.00000E+00
 -1      2541 1.43505E+02 1.25250E+01 0.00000E+00
 -1      2542 1.42206E+02 1.17875E+01 0.00000E+00
 -1      2543 1.42206E+02 1.47125E+01 0.00000E+00
 -1      2544 1.43505E+02 2.28125E+01 0.00000E+00
 -1      2545 1.43505E+02 2.13375E+01 0.00000E+00
 -1      2546 1.42206E+02 2.06000E+01 0.00000E+00
 -1      2547 1.43505E+02 2.57625E+01 0.00000E+00
 -1      2548 1.43505E+02 2.42875E+01 0.00000E+00
 -1      2549 1.42206E+02 2.35500E+01 0.00000E+00
 -1      2550 1.43505E+02 2.87125E+01 0.00000E+00
 -1      2551 1.43505E+02 2.72375E+01 0.00000E+00
 -1      2552 1.42206E+02 2.65000E+01 0.00000E+00
 -1      2553 1.43505E+02 3.16125E+01 0.00000E+00
 -1      2554 1.43505E+02 3.01625E+01 0.00000E+00
 -1      2555 1.42206E+02 2.94250E+01 0.00000E+00
 -1      2556 1.43505E+02 3.45625E+01 0.00000E+00
 -1      2557 1.43505E+02 3.30875E+01 0.00000E+00
 -1      2558 1.42206E+02 3.23500E+01 0.00000E+00
 -1      2559 1.43505E+02 3.75125E+01 0.00000E+00
 -1      2560 1.43505E+02 3.60375E+01 0.00000E+00
 -1      2561 1.42206E+02 3.53000E+01 0.00000E+00
 -1      2562 1.43505E+02 4.04625E+01 0.00000E+00
 -1      2563 1.43505E+02 3.89875E+01 0.00000E+00
 -1      2564 1.42206E+02 3.82500E+01 0.00000E+00
 -1      2565 6.34197E+01 2.46110E+01 0.00000E+00
 -1      2566 6.33281E+01 2.56924E+01 0.00000E+00
 -1      2567 6.23406E+01 2.20933E+01 0.00000E+00
 -1      2568 6.28952E+01 2.31277E+01 0.00000E+00
 -1      2569 6.33277E+01 2.66607E+01 0.00000E+00
 -1      2570 6.33273E+01 2.76291E+01 0.00000E+00
 -1      2571 6.43115E+01 2.61995E+01 0.00000E+00
 -1      2572 1.67850E+01 5.30525E+00 0.00000E+00
 -1      2573 1.52850E+01 5.30525E+00 0.00000E+00
 -1      2574 1.75350E+01 6.60425E+00 0.00000E+00
 -1      2575 1.44321E+02 4.30606E+01 0.00000E+00
 -1      2576 6.13322E+01 2.03607E+01 0.00000E+00
 -1      2577 6.18231E+01 2.11220E+01 0.00000E+00
 -1      2578 6.55950E+00 4.28890E+01 0.00000E+00
 -1      2579 8.53650E+00 4.32410E+01 0.00000E+00
 -1      2580 9.28650E+00 4.19420E+01 0.00000E+00
 -1      2581 6.55950E+00 4.14140E+01 0.00000E+00
 -1      2582 5.80378E+01 1.72416E+01 0.00000E+00
 -1      2583 5.88091E+01 1.78444E+01 0.00000E+00
 -1      2584 6.49500E+00 2.71625E+01 0.00000E+00
 -1      2585 6.49500E+00 2.86375E+01 0.00000E+00
 -1      2586 7.79400E+00 2.93750E+01 0.00000E+00
 -1      2587 7.79400E+00 2.64250E+01 0.00000E+00
 -1      2588 5.12227E+01 1.58837E+01 0.00000E+00
 -1      2589 5.21901E+01 1.58104E+01 0.00000E+00
 -1      2590 5.92765E+01 3.44777E+01 0.00000E+00
 -1      2591 5.85160E+01 3.52429E+01 0.00000E+00
 -1      2592 4.91051E+01 1.62746E+01 0.00000E+00
 -1      2593 5.00851E+01 1.60012E+01 0.00000E+00
 -1      2594 4.70978E+01 1.73558E+01 0.00000E+00
 -1      2595 4.79301E+01 1.67797E+01 0.00000E+00
 -1      2596 4.54889E+01 1.88112E+01 0.00000E+00
 -1      2597 4.62366E+01 1.81072E+01 0.00000E+00
 -1      2598 4.42879E+01 2.05827E+01 0.00000E+00
 -1      2599 4.47995E+01 1.97719E+01 0.00000E+00
 -1      2600 4.32483E+01 2.22635E+01 0.00000E+00
 -1      2601 4.37677E+01 2.14182E+01 0.00000E+00
 -1      2602 4.25852E+01 2.43532E+01 0.00000E+00
 -1      2603 4.27326E+01 2.34131E+01 0.00000E+00
 -1      2604 4.24080E+01 2.64465E+01 0.00000E+00
 -1      2605 4.24428E+01 2.54290E+01 0.00000E+00
 -1      2606 4.26816E+01 2.85698E+01 0.00000E+00
 -1      2607 4.25477E+01 2.75823E+01 0.00000E+00
 -1      2608 4.31025E+01 3.07634E+01 0.00000E+00
 -1      2609 4.28247E+01 2.97062E+01 0.00000E+00
 -1      2610 4.48825E+01 3.29357E+01 0.00000E+00
 -1      2611 4.39628E+01 3.21231E+01 0.00000E+00
 -1      2612 4.65371E+01 3.42061E+01 0.00000E+00
 -1      2613 4.57887E+01 3.36335E+01 0.00000E+00
 -1      2614 4.80970E+01 3.52639E+01 0.00000E+00
 -1      2615 4.73171E+01 3.47350E+01 0.00000E+00
 -1      2616 4.64472E+01 3.50965E+01 0.00000E+00
 -1      2617 5.01903E+01 3.62340E+01 0.00000E+00
 -1      2618 4.91875E+01 3.58864E+01 0.00000E+00
 -1      2619 5.49021E+01 3.68262E+01 0.00000E+00
 -1      2620 5.40104E+01 3.68933E+01 0.00000E+00
 -1      2621 5.72917E+01 3.61120E+01 0.00000E+00
 -1      2622 5.61665E+01 3.65285E+01 0.00000E+00
 -1      2623 6.05439E+01 3.28106E+01 0.00000E+00
 -1      2624 5.99257E+01 3.35716E+01 0.00000E+00
 -1      2625 6.17353E+01 3.11286E+01 0.00000E+00
 -1      2626 6.11727E+01 3.19617E+01 0.00000E+00
 -1      2627 6.27845E+01 2.89278E+01 0.00000E+00
 -1      2628 6.23178E+01 3.00339E+01 0.00000E+00
 -1      2629 8.07525E+00 5.11044E+00 0.00000E+00
 -1      2630 6.57525E+00 5.11044E+00 0.00000E+00
 -1      2631 6.40575E+00 6.01981E+00 0.00000E+00
 -1      2632 8.82525E+00 6.40944E+00 0.00000E+00
 -1      2633 5.29145E+01 1.51458E+01 0.00000E+00
 -1      2634 7.79400E+00 3.52687E+01 0.00000E+00
 -1      2635 6.49500E+00 3.60062E+01 0.00000E+00
 -1      2636 6.49500E+00 3.74750E+01 0.00000E+00
 -1      2637 1.45350E+01 6.60425E+00 0.00000E+00
 -1      2638 6.40575E+00 7.49481E+00 0.00000E+00
 -1      2639 5.80851E+01 1.60723E+01 0.00000E+00
 -1      2640 6.37682E+01 2.84666E+01 0.00000E+00
 -1      2641 6.26430E+01 3.08601E+01 0.00000E+00
 -1      2642 6.27454E+01 2.12933E+01 0.00000E+00
 -1      2643 6.14317E+01 3.28036E+01 0.00000E+00
 -1      2644 1.43586E+02 6.56853E+00 0.00000E+00
 -1      2645 1.43419E+02 7.72713E+00 0.00000E+00
 -1      2646 5.82802E+01 3.63340E+01 0.00000E+00
 -1      2647 7.70475E+00 8.23231E+00 0.00000E+00
 -1      2648 6.37874E+01 2.37479E+01 0.00000E+00
 -1      2649 6.46796E+01 2.43681E+01 0.00000E+00
 -1      2650 6.41551E+01 2.28849E+01 0.00000E+00
 -1      2651 5.57914E+01 3.75007E+01 0.00000E+00
 -1      2652 6.55950E+00 3.99453E+01 0.00000E+00
 -1      2653 4.83176E+01 3.62479E+01 0.00000E+00
 -1      2654 6.13052E+01 1.95554E+01 0.00000E+00
 -1      2655 5.96283E+01 1.78776E+01 0.00000E+00
 -1      2656 4.47611E+01 3.38698E+01 0.00000E+00
 -1      2657 4.29945E+01 3.18124E+01 0.00000E+00
 -1      2658 4.20262E+01 3.15017E+01 0.00000E+00
 -1      2659 4.28866E+01 3.28613E+01 0.00000E+00
 -1      2660 4.19910E+01 2.93163E+01 0.00000E+00
 -1      2661 5.33798E+01 3.73946E+01 0.00000E+00
 -1      2662 5.14504E+01 3.76274E+01 0.00000E+00
 -1      2663 5.08203E+01 3.69307E+01 0.00000E+00
 -1      2664 5.00381E+01 3.75672E+01 0.00000E+00
 -1      2665 4.17081E+01 2.70441E+01 0.00000E+00
 -1      2666 4.17107E+01 2.48326E+01 0.00000E+00
 -1      2667 4.23687E+01 2.26073E+01 0.00000E+00
 -1      2668 4.34046E+01 2.06222E+01 0.00000E+00
 -1      2669 4.46141E+01 1.88261E+01 0.00000E+00
 -1      2670 4.61647E+01 1.71140E+01 0.00000E+00
 -1      2671 4.82010E+01 1.58574E+01 0.00000E+00
 -1      2672 5.57370E+01 1.51763E+01 0.00000E+00
 -1      2673 5.67502E+01 1.45909E+01 0.00000E+00
 -1      2674 5.51912E+01 1.45890E+01 0.00000E+00
 -1      2675 6.01537E+01 3.45587E+01 0.00000E+00
 -1      2676 5.05135E+01 1.52347E+01 0.00000E+00
 -1      2677 1.42758E+02 4.35929E+01 0.00000E+00
 -1      2678 1.43241E+02 4.17323E+01 0.00000E+00
 -1      2679 1.41942E+02 4.09948E+01 0.00000E+00
 -1      2680 1.41414E+02 4.35342E+01 0.00000E+00
 -1      2681 1.42120E+02 8.46463E+00 0.00000E+00
 -1      2682 1.40664E+02 4.22352E+01 0.00000E+00
 -1      2683 9.09300E+00 1.98250E+01 0.00000E+00
 -1      2684 9.09300E+00 2.12750E+01 0.00000E+00
 -1      2685 9.09300E+00 2.27500E+01 0.00000E+00
 -1      2686 9.09300E+00 2.42250E+01 0.00000E+00
 -1      2687 1.03920E+01 2.20250E+01 0.00000E+00
 -1      2688 9.09300E+00 1.39375E+01 0.00000E+00
 -1      2689 9.09300E+00 1.54125E+01 0.00000E+00
 -1      2690 9.09300E+00 1.09875E+01 0.00000E+00
 -1      2691 9.09300E+00 1.24625E+01 0.00000E+00
 -1      2692 1.03920E+01 1.32000E+01 0.00000E+00
 -1      2693 1.22850E+01 7.90325E+00 0.00000E+00
 -1      2694 1.07850E+01 7.90325E+00 0.00000E+00
 -1      2695 8.91450E+00 8.42712E+00 0.00000E+00
 -1      2696 1.52850E+01 7.90325E+00 0.00000E+00
 -1      2697 1.37850E+01 7.90325E+00 0.00000E+00
 -1      2698 1.30350E+01 9.20225E+00 0.00000E+00
 -1      2699 6.48309E+01 2.81479E+01 0.00000E+00
 -1      2700 6.42881E+01 2.94467E+01 0.00000E+00
 -1      2701 1.44000E+01 4.09070E+01 0.00000E+00
 -1      2702 1.59000E+01 4.09070E+01 0.00000E+00
 -1      2703 1.74000E+01 4.09070E+01 0.00000E+00
 -1      2704 1.89000E+01 4.09070E+01 0.00000E+00
 -1      2705 1.66500E+01 3.96080E+01 0.00000E+00
 -1      2706 2.04000E+01 4.09070E+01 0.00000E+00
 -1      2707 2.19000E+01 4.09070E+01 0.00000E+00
 -1      2708 1.96500E+01 3.96080E+01 0.00000E+00
 -1      2709 2.34000E+01 4.09070E+01 0.00000E+00
 -1      2710 2.49000E+01 4.09070E+01 0.00000E+00
 -1      2711 2.26500E+01 3.96080E+01 0.00000E+00
 -1      2712 2.64000E+01 4.09070E+01 0.00000E+00
 -1      2713 2.79000E+01 4.09070E+01 0.00000E+00
 -1      2714 2.56500E+01 3.96080E+01 0.00000E+00
 -1      2715 2.94000E+01 4.09070E+01 0.00000E+00
 -1      2716 3.09000E+01 4.09070E+01 0.00000E+00
 -1      2717 2.86500E+01 3.96080E+01 0.00000E+00
 -1      2718 3.24000E+01 4.09070E+01 0.00000E+00
 -1      2719 3.39000E+01 4.09070E+01 0.00000E+00
 -1      2720 3.16500E+01 3.96080E+01 0.00000E+00
 -1      2721 3.54000E+01 4.09070E+01 0.00000E+00
 -1      2722 3.69000E+01 4.09070E+01 0.00000E+00
 -1      2723 3.46500E+01 3.96080E+01 0.00000E+00
 -1      2724 3.84000E+01 4.09070E+01 0.00000E+00
 -1      2725 3.99000E+01 4.09070E+01 0.00000E+00
 -1      2726 3.76500E+01 3.96080E+01 0.00000E+00
 -1      2727 4.14000E+01 4.09070E+01 0.00000E+00
 -1      2728 4.29000E+01 4.09070E+01 0.00000E+00
 -1      2729 4.06500E+01 3.96080E+01 0.00000E+00
 -1      2730 4.44000E+01 4.09070E+01 0.00000E+00
 -1      2731 4.59000E+01 4.09070E+01 0.00000E+00
 -1      2732 4.36500E+01 3.96080E+01 0.00000E+00
 -1      2733 5.04000E+01 4.10971E+01 0.00000E+00
 -1      2734 5.19000E+01 4.10971E+01 0.00000E+00
 -1      2735 5.34000E+01 4.10971E+01 0.00000E+00
 -1      2736 5.49000E+01 4.10971E+01 0.00000E+00
 -1      2737 5.64000E+01 4.10971E+01 0.00000E+00
 -1      2738 5.79000E+01 4.10971E+01 0.00000E+00
 -1      2739 5.56500E+01 3.99882E+01 0.00000E+00
 -1      2740 5.94000E+01 4.10971E+01 0.00000E+00
 -1      2741 6.09000E+01 4.10971E+01 0.00000E+00
 -1      2742 5.86500E+01 3.99882E+01 0.00000E+00
 -1      2743 6.24000E+01 4.10971E+01 0.00000E+00
 -1      2744 6.39000E+01 4.10971E+01 0.00000E+00
 -1      2745 6.16500E+01 3.99882E+01 0.00000E+00
 -1      2746 6.54000E+01 4.10971E+01 0.00000E+00
 -1      2747 6.69000E+01 4.10971E+01 0.00000E+00
 -1      2748 6.46500E+01 3.99882E+01 0.00000E+00
 -1      2749 6.84000E+01 4.10971E+01 0.00000E+00
 -1      2750 6.99000E+01 4.10971E+01 0.00000E+00
 -1      2751 6.76500E+01 3.99882E+01 0.00000E+00
 -1      2752 7.14000E+01 4.10971E+01 0.00000E+00
 -1      2753 7.29000E+01 4.10971E+01 0.00000E+00
 -1      2754 7.06500E+01 3.99882E+01 0.00000E+00
 -1      2755 7.44000E+01 4.10971E+01 0.00000E+00
 -1      2756 7.59000E+01 4.10971E+01 0.00000E+00
 -1      2757 7.36500E+01 3.99882E+01 0.00000E+00
 -1      2758 7.74000E+01 4.10971E+01 0.00000E+00
 -1      2759 7.89000E+01 4.10971E+01 0.00000E+00
 -1      2760 7.66500E+01 3.99882E+01 0.00000E+00
 -1      2761 8.04000E+01 4.10971E+01 0.00000E+00
 -1      2762 8.19000E+01 4.10971E+01 0.00000E+00
 -1      2763 7.96500E+01 3.99882E+01 0.00000E+00
 -1      2764 8.34000E+01 4.10971E+01 0.00000E+00
 -1      2765 8.49000E+01 4.10971E+01 0.00000E+00
 -1      2766 8.26500E+01 3.99882E+01 0.00000E+00
 -1      2767 8.64000E+01 4.10971E+01 0.00000E+00
 -1      2768 8.79000E+01 4.10971E+01 0.00000E+00
 -1      2769 8.56500E+01 3.99882E+01 0.00000E+00
 -1      2770 8.94000E+01 4.10971E+01 0.00000E+00
 -1      2771 9.09000E+01 4.10971E+01 0.00000E+00
 -1      2772 8.86500E+01 3.99882E+01 0.00000E+00
 -1      2773 9.24000E+01 4.10971E+01 0.00000E+00
 -1      2774 9.39000E+01 4.10971E+01 0.00000E+00
 -1      2775 9.16500E+01 3.99882E+01 0.00000E+00
 -1      2776 9.54000E+01 4.10971E+01 0.00000E+00
 -1      2777 9.69000E+01 4.10971E+01 0.00000E+00
 -1      2778 9.46500E+01 3.99882E+01 0.00000E+00
 -1      2779 9.84000E+01 4.10971E+01 0.00000E+00
 -1      2780 9.99000E+01 4.10971E+01 0.00000E+00
 -1      2781 9.76500E+01 3.99882E+01 0.00000E+00
 -1      2782 1.01400E+02 4.10971E+01 0.00000E+00
 -1      2783 1.02900E+02 4.10971E+01 0.00000E+00
 -1      2784 1.00650E+02 3.99882E+01 0.00000E+00
 -1      2785 1.04400E+02 4.10971E+01 0.00000E+00
 -1      2786 1.05900E+02 4.10971E+01 0.00000E+00
 -1      2787 1.03650E+02 3.99882E+01 0.00000E+00
 -1      2788 1.07400E+02 4.10971E+01 0.00000E+00
 -1      2789 1.08900E+02 4.10971E+01 0.00000E+00
 -1      2790 1.06650E+02 3.99882E+01 0.00000E+00
 -1      2791 1.10400E+02 4.10971E+01 0.00000E+00
 -1      2792 1.11900E+02 4.10971E+01 0.00000E+00
 -1      2793 1.09650E+02 3.99882E+01 0.00000E+00
 -1      2794 1.13400E+02 4.10971E+01 0.00000E+00
 -1      2795 1.14900E+02 4.10971E+01 0.00000E+00
 -1      2796 1.12650E+02 3.99882E+01 0.00000E+00
 -1      2797 1.16400E+02 4.10971E+01 0.00000E+00
 -1      2798 1.17900E+02 4.10971E+01 0.00000E+00
 -1      2799 1.15650E+02 3.99882E+01 0.00000E+00
 -1      2800 1.19400E+02 4.10971E+01 0.00000E+00
 -1      2801 1.20900E+02 4.10971E+01 0.00000E+00
 -1      2802 1.18650E+02 3.99882E+01 0.00000E+00
 -1      2803 1.22400E+02 4.10971E+01 0.00000E+00
 -1      2804 1.23900E+02 4.10971E+01 0.00000E+00
 -1      2805 1.21650E+02 3.99882E+01 0.00000E+00
 -1      2806 1.25400E+02 4.10971E+01 0.00000E+00
 -1      2807 1.26900E+02 4.10971E+01 0.00000E+00
 -1      2808 1.24650E+02 3.99882E+01 0.00000E+00
 -1      2809 1.28400E+02 4.10971E+01 0.00000E+00
 -1      2810 1.29900E+02 4.10971E+01 0.00000E+00
 -1      2811 1.27650E+02 3.99882E+01 0.00000E+00
 -1      2812 1.31400E+02 4.10971E+01 0.00000E+00
 -1      2813 1.32900E+02 4.10971E+01 0.00000E+00
 -1      2814 1.30650E+02 3.99882E+01 0.00000E+00
 -1      2815 1.34400E+02 4.10971E+01 0.00000E+00
 -1      2816 1.35900E+02 4.10971E+01 0.00000E+00
 -1      2817 1.33650E+02 3.99882E+01 0.00000E+00
 -1      2818 1.37400E+02 4.10971E+01 0.00000E+00
 -1      2819 1.38900E+02 4.10971E+01 0.00000E+00
 -1      2820 1.36650E+02 3.99882E+01 0.00000E+00
 -1      2821 2.42850E+01 7.90325E+00 0.00000E+00
 -1      2822 2.27850E+01 7.90325E+00 0.00000E+00
 -1      2823 1.40706E+02 1.03250E+01 0.00000E+00
 -1      2824 1.40620E+02 8.46463E+00 0.00000E+00
 -1      2825 1.39120E+02 8.46463E+00 0.00000E+00
 -1      2826 2.12850E+01 7.90325E+00 0.00000E+00
 -1      2827 1.97850E+01 7.90325E+00 0.00000E+00
 -1      2828 2.20350E+01 9.20225E+00 0.00000E+00
 -1      2829 3.02850E+01 7.90325E+00 0.00000E+00
 -1      2830 2.87850E+01 7.90325E+00 0.00000E+00
 -1      2831 3.32850E+01 7.90325E+00 0.00000E+00
 -1      2832 3.17850E+01 7.90325E+00 0.00000E+00
 -1      2833 3.10350E+01 9.20225E+00 0.00000E+00
 -1      2834 3.62850E+01 7.90325E+00 0.00000E+00
 -1      2835 3.47850E+01 7.90325E+00 0.00000E+00
 -1      2836 3.40350E+01 9.20225E+00 0.00000E+00
 -1      2837 3.92850E+01 7.90325E+00 0.00000E+00
 -1      2838 3.77850E+01 7.90325E+00 0.00000E+00
 -1      2839 3.70350E+01 9.20225E+00 0.00000E+00
 -1      2840 4.22850E+01 7.90325E+00 0.00000E+00
 -1      2841 4.07850E+01 7.90325E+00 0.00000E+00
 -1      2842 4.00350E+01 9.20225E+00 0.00000E+00
 -1      2843 4.52850E+01 7.90325E+00 0.00000E+00
 -1      2844 4.37850E+01 7.90325E+00 0.00000E+00
 -1      2845 4.30350E+01 9.20225E+00 0.00000E+00
 -1      2846 4.82850E+01 7.90325E+00 0.00000E+00
 -1      2847 4.67850E+01 7.90325E+00 0.00000E+00
 -1      2848 4.60350E+01 9.20225E+00 0.00000E+00
 -1      2849 5.12850E+01 7.90325E+00 0.00000E+00
 -1      2850 4.97850E+01 7.90325E+00 0.00000E+00
 -1      2851 4.90350E+01 9.20225E+00 0.00000E+00
 -1      2852 5.42850E+01 7.90325E+00 0.00000E+00
 -1      2853 5.27850E+01 7.90325E+00 0.00000E+00
 -1      2854 5.20350E+01 9.20225E+00 0.00000E+00
 -1      2855 5.72850E+01 7.90325E+00 0.00000E+00
 -1      2856 5.57850E+01 7.90325E+00 0.00000E+00
 -1      2857 5.50350E+01 9.20225E+00 0.00000E+00
 -1      2858 6.02850E+01 7.90325E+00 0.00000E+00
 -1      2859 5.87850E+01 7.90325E+00 0.00000E+00
 -1      2860 5.80350E+01 9.20225E+00 0.00000E+00
 -1      2861 6.32850E+01 7.90325E+00 0.00000E+00
 -1      2862 6.17850E+01 7.90325E+00 0.00000E+00
 -1      2863 6.10350E+01 9.20225E+00 0.00000E+00
 -1      2864 6.62850E+01 7.90325E+00 0.00000E+00
 -1      2865 6.47850E+01 7.90325E+00 0.00000E+00
 -1      2866 6.40350E+01 9.20225E+00 0.00000E+00
 -1      2867 6.92850E+01 7.90325E+00 0.00000E+00
 -1      2868 6.77850E+01 7.90325E+00 0.00000E+00
 -1      2869 6.70350E+01 9.20225E+00 0.00000E+00
 -1      2870 7.22850E+01 7.90325E+00 0.00000E+00
 -1      2871 7.07850E+01 7.90325E+00 0.00000E+00
 -1      2872 7.00350E+01 9.20225E+00 0.00000E+00
 -1      2873 7.52850E+01 7.90325E+00 0.00000E+00
 -1      2874 7.37850E+01 7.90325E+00 0.00000E+00
 -1      2875 7.30350E+01 9.20225E+00 0.00000E+00
 -1      2876 7.82850E+01 7.90325E+00 0.00000E+00
 -1      2877 7.67850E+01 7.90325E+00 0.00000E+00
 -1      2878 7.60350E+01 9.20225E+00 0.00000E+00
 -1      2879 8.12850E+01 7.90325E+00 0.00000E+00
 -1      2880 7.97850E+01 7.90325E+00 0.00000E+00
 -1      2881 7.90350E+01 9.20225E+00 0.00000E+00
 -1      2882 8.42850E+01 7.90325E+00 0.00000E+00
 -1      2883 8.27850E+01 7.90325E+00 0.00000E+00
 -1      2884 8.20350E+01 9.20225E+00 0.00000E+00
 -1      2885 8.72850E+01 7.90325E+00 0.00000E+00
 -1      2886 8.57850E+01 7.90325E+00 0.00000E+00
 -1      2887 8.50350E+01 9.20225E+00 0.00000E+00
 -1      2888 9.02850E+01 7.90325E+00 0.00000E+00
 -1      2889 8.87850E+01 7.90325E+00 0.00000E+00
 -1      2890 8.80350E+01 9.20225E+00 0.00000E+00
 -1      2891 9.32850E+01 7.90325E+00 0.00000E+00
 -1      2892 9.17850E+01 7.90325E+00 0.00000E+00
 -1      2893 9.10350E+01 9.20225E+00 0.00000E+00
 -1      2894 9.62850E+01 7.90325E+00 0.00000E+00
 -1      2895 9.47850E+01 7.90325E+00 0.00000E+00
 -1      2896 9.40350E+01 9.20225E+00 0.00000E+00
 -1      2897 9.92850E+01 7.90325E+00 0.00000E+00
 -1      2898 9.77850E+01 7.90325E+00 0.00000E+00
 -1      2899 9.70350E+01 9.20225E+00 0.00000E+00
 -1      2900 1.02285E+02 7.90325E+00 0.00000E+00
 -1      2901 1.00785E+02 7.90325E+00 0.00000E+00
 -1      2902 1.00035E+02 9.20225E+00 0.00000E+00
 -1      2903 1.05285E+02 7.90325E+00 0.00000E+00
 -1      2904 1.03785E+02 7.90325E+00 0.00000E+00
 -1      2905 1.03035E+02 9.20225E+00 0.00000E+00
 -1      2906 1.08285E+02 7.90325E+00 0.00000E+00
 -1      2907 1.06785E+02 7.90325E+00 0.00000E+00
 -1      2908 1.06035E+02 9.20225E+00 0.00000E+00
 -1      2909 1.11285E+02 7.90325E+00 0.00000E+00
 -1      2910 1.09785E+02 7.90325E+00 0.00000E+00
 -1      2911 1.09035E+02 9.20225E+00 0.00000E+00
 -1      2912 1.14285E+02 7.90325E+00 0.00000E+00
 -1      2913 1.12785E+02 7.90325E+00 0.00000E+00
 -1      2914 1.12035E+02 9.20225E+00 0.00000E+00
 -1      2915 1.17285E+02 7.90325E+00 0.00000E+00
 -1      2916 1.15785E+02 7.90325E+00 0.00000E+00
 -1      2917 1.15035E+02 9.20225E+00 0.00000E+00
 -1      2918 1.20285E+02 7.90325E+00 0.00000E+00
 -1      2919 1.18785E+02 7.90325E+00 0.00000E+00
 -1      2920 1.18035E+02 9.20225E+00 0.00000E+00
 -1      2921 1.23285E+02 7.90325E+00 0.00000E+00
 -1      2922 1.21785E+02 7.90325E+00 0.00000E+00
 -1      2923 1.21035E+02 9.20225E+00 0.00000E+00
 -1      2924 1.26285E+02 7.90325E+00 0.00000E+00
 -1      2925 1.24785E+02 7.90325E+00 0.00000E+00
 -1      2926 1.24035E+02 9.20225E+00 0.00000E+00
 -1      2927 1.29285E+02 7.90325E+00 0.00000E+00
 -1      2928 1.27785E+02 7.90325E+00 0.00000E+00
 -1      2929 1.27035E+02 9.20225E+00 0.00000E+00
 -1      2930 1.32285E+02 7.90325E+00 0.00000E+00
 -1      2931 1.30785E+02 7.90325E+00 0.00000E+00
 -1      2932 1.30035E+02 9.20225E+00 0.00000E+00
 -1      2933 1.35285E+02 7.90325E+00 0.00000E+00
 -1      2934 1.33785E+02 7.90325E+00 0.00000E+00
 -1      2935 1.33035E+02 9.20225E+00 0.00000E+00
 -1      2936 1.37953E+02 8.18394E+00 0.00000E+00
 -1      2937 1.36453E+02 8.18394E+00 0.00000E+00
 -1      2938 1.35703E+02 9.48294E+00 0.00000E+00
 -1      2939 1.38038E+02 1.00443E+01 0.00000E+00
 -1      2940 1.40907E+02 2.42875E+01 0.00000E+00
 -1      2941 1.40907E+02 2.28125E+01 0.00000E+00
 -1      2942 1.39914E+02 4.10313E+01 0.00000E+00
 -1      2943 1.40928E+02 4.10605E+01 0.00000E+00
 -1      2944 1.41192E+02 3.97908E+01 0.00000E+00
 -1      2945 1.39164E+02 3.99224E+01 0.00000E+00
 -1      2946 1.40907E+02 1.83875E+01 0.00000E+00
 -1      2947 1.40907E+02 1.69125E+01 0.00000E+00
 -1      2948 1.40907E+02 2.72375E+01 0.00000E+00
 -1      2949 1.40907E+02 2.57625E+01 0.00000E+00
 -1      2950 1.39608E+02 2.50250E+01 0.00000E+00
 -1      2951 1.40907E+02 2.13375E+01 0.00000E+00
 -1      2952 1.40907E+02 1.98625E+01 0.00000E+00
 -1      2953 1.39608E+02 1.91250E+01 0.00000E+00
 -1      2954 1.39608E+02 2.20750E+01 0.00000E+00
 -1      2955 6.24352E+01 3.28897E+01 0.00000E+00
 -1      2956 6.18064E+01 3.37385E+01 0.00000E+00
 -1      2957 1.40907E+02 3.01375E+01 0.00000E+00
 -1      2958 1.40907E+02 2.86875E+01 0.00000E+00
 -1      2959 1.39608E+02 2.79500E+01 0.00000E+00
 -1      2960 1.40907E+02 3.30875E+01 0.00000E+00
 -1      2961 1.40907E+02 3.16125E+01 0.00000E+00
 -1      2962 1.39608E+02 3.08750E+01 0.00000E+00
 -1      2963 1.40907E+02 3.60375E+01 0.00000E+00
 -1      2964 1.40907E+02 3.45625E+01 0.00000E+00
 -1      2965 1.39608E+02 3.38250E+01 0.00000E+00
 -1      2966 1.41049E+02 3.86516E+01 0.00000E+00
 -1      2967 1.41049E+02 3.71766E+01 0.00000E+00
 -1      2968 1.39751E+02 3.64391E+01 0.00000E+00
 -1      2969 1.40036E+02 3.87174E+01 0.00000E+00
 -1      2970 5.71029E+01 3.85956E+01 0.00000E+00
 -1      2971 5.58385E+01 3.88933E+01 0.00000E+00
 -1      2972 6.36913E+01 3.07155E+01 0.00000E+00
 -1      2973 6.31088E+01 3.18102E+01 0.00000E+00
 -1      2974 1.82850E+01 7.90325E+00 0.00000E+00
 -1      2975 1.67850E+01 7.90325E+00 0.00000E+00
 -1      2976 1.60350E+01 9.20225E+00 0.00000E+00
 -1      2977 1.90350E+01 9.20225E+00 0.00000E+00
 -1      2978 8.85168E+00 4.05347E+01 0.00000E+00
 -1      2979 1.02152E+01 4.07987E+01 0.00000E+00
 -1      2980 6.14453E+01 1.84481E+01 0.00000E+00
 -1      2981 6.23681E+01 1.92146E+01 0.00000E+00
 -1      2982 6.52530E+01 2.57157E+01 0.00000E+00
 -1      2983 6.52526E+01 2.66841E+01 0.00000E+00
 -1      2984 2.72850E+01 7.90325E+00 0.00000E+00
 -1      2985 2.57850E+01 7.90325E+00 0.00000E+00
 -1      2986 2.50350E+01 9.20225E+00 0.00000E+00
 -1      2987 2.80350E+01 9.20225E+00 0.00000E+00
 -1      2988 1.15576E+01 4.08528E+01 0.00000E+00
 -1      2989 1.30576E+01 4.08528E+01 0.00000E+00
 -1      2990 1.38076E+01 3.95538E+01 0.00000E+00
 -1      2991 1.11228E+01 3.94455E+01 0.00000E+00
 -1      2992 9.09300E+00 1.68813E+01 0.00000E+00
 -1      2993 9.09300E+00 1.83563E+01 0.00000E+00
 -1      2994 1.03920E+01 1.90812E+01 0.00000E+00
 -1      2995 1.03920E+01 1.61437E+01 0.00000E+00
 -1      2996 4.45887E+01 3.50310E+01 0.00000E+00
 -1      2997 4.36825E+01 3.43332E+01 0.00000E+00
 -1      2998 4.84584E+01 3.72675E+01 0.00000E+00
 -1      2999 4.73680E+01 3.66450E+01 0.00000E+00
 -1      3000 9.09300E+00 3.15875E+01 0.00000E+00
 -1      3001 9.09300E+00 3.30625E+01 0.00000E+00
 -1      3002 6.11572E+01 3.46447E+01 0.00000E+00
 -1      3003 6.05080E+01 3.55509E+01 0.00000E+00
 -1      3004 6.21607E+01 3.47307E+01 0.00000E+00
 -1      3005 4.71754E+01 1.50913E+01 0.00000E+00
 -1      3006 4.83505E+01 1.45861E+01 0.00000E+00
 -1      3007 4.51153E+01 1.67804E+01 0.00000E+00
 -1      3008 4.59765E+01 1.60290E+01 0.00000E+00
 -1      3009 4.35727E+01 1.88064E+01 0.00000E+00
 -1      3010 4.42621E+01 1.78457E+01 0.00000E+00
 -1      3011 4.24521E+01 2.06088E+01 0.00000E+00
 -1      3012 4.29722E+01 1.97734E+01 0.00000E+00
 -1      3013 4.11756E+01 2.27625E+01 0.00000E+00
 -1      3014 4.16913E+01 2.16129E+01 0.00000E+00
 -1      3015 4.07063E+01 2.52470E+01 0.00000E+00
 -1      3016 4.08487E+01 2.41712E+01 0.00000E+00
 -1      3017 4.12118E+01 2.99917E+01 0.00000E+00
 -1      3018 4.10686E+01 2.88553E+01 0.00000E+00
 -1      3019 4.63683E+01 3.61024E+01 0.00000E+00
 -1      3020 4.55884E+01 3.55735E+01 0.00000E+00
 -1      3021 4.45099E+01 3.60369E+01 0.00000E+00
 -1      3022 4.65091E+01 3.71220E+01 0.00000E+00
 -1      3023 4.09289E+01 2.77195E+01 0.00000E+00
 -1      3024 4.07891E+01 2.65837E+01 0.00000E+00
 -1      3025 4.01496E+01 2.83949E+01 0.00000E+00
 -1      3026 7.48818E+00 3.88019E+01 0.00000E+00
 -1      3027 5.23059E+01 1.41067E+01 0.00000E+00
 -1      3028 5.35694E+01 1.41352E+01 0.00000E+00
 -1      3029 4.98567E+01 1.44405E+01 0.00000E+00
 -1      3030 5.09942E+01 1.43230E+01 0.00000E+00
 -1      3031 5.94372E+01 3.66670E+01 0.00000E+00
 -1      3032 5.82129E+01 3.75361E+01 0.00000E+00
 -1      3033 6.32066E+01 2.04241E+01 0.00000E+00
 -1      3034 6.37241E+01 2.13955E+01 0.00000E+00
 -1      3035 5.83021E+01 1.50856E+01 0.00000E+00
 -1      3036 5.90911E+01 1.59796E+01 0.00000E+00
 -1      3037 5.98912E+01 1.67582E+01 0.00000E+00
 -1      3038 6.06453E+01 1.76694E+01 0.00000E+00
 -1      3039 6.17082E+01 1.73286E+01 0.00000E+00
 -1      3040 6.01082E+01 1.57714E+01 0.00000E+00
 -1      3041 9.09300E+00 3.45313E+01 0.00000E+00
 -1      3042 9.09300E+00 3.60000E+01 0.00000E+00
 -1      3043 1.03920E+01 3.37938E+01 0.00000E+00
 -1      3044 1.03920E+01 2.49750E+01 0.00000E+00
 -1      3045 9.09300E+00 2.57000E+01 0.00000E+00
 -1      3046 9.09300E+00 2.71750E+01 0.00000E+00
 -1      3047 6.47539E+01 3.03968E+01 0.00000E+00
 -1      3048 9.66450E+00 9.72612E+00 0.00000E+00
 -1      3049 6.59884E+01 2.39896E+01 0.00000E+00
 -1      3050 6.56207E+01 2.48527E+01 0.00000E+00
 -1      3051 6.65618E+01 2.53373E+01 0.00000E+00
 -1      3052 5.45826E+01 1.35498E+01 0.00000E+00
 -1      3053 6.57724E+01 2.76641E+01 0.00000E+00
 -1      3054 4.25419E+01 3.51836E+01 0.00000E+00
 -1      3055 4.27142E+01 3.40225E+01 0.00000E+00
 -1      3056 4.17460E+01 3.37118E+01 0.00000E+00
 -1      3057 5.26500E+01 3.99882E+01 0.00000E+00
 -1      3058 4.74000E+01 4.10133E+01 0.00000E+00
 -1      3059 4.89000E+01 4.10133E+01 0.00000E+00
 -1      3060 1.39608E+02 1.61875E+01 0.00000E+00
 -1      3061 1.40907E+02 1.54500E+01 0.00000E+00
 -1      3062 1.40907E+02 1.39875E+01 0.00000E+00
 -1      3063 4.88312E+01 1.36743E+01 0.00000E+00
 -1      3064 5.43385E+01 3.88933E+01 0.00000E+00
 -1      3065 1.40706E+02 1.17875E+01 0.00000E+00
 -1      3066 5.82600E+01 3.89287E+01 0.00000E+00
 -1      3067 1.09635E+01 1.04636E+01 0.00000E+00
 -1      3068 6.46162E+01 2.20157E+01 0.00000E+00
 -1      3069 6.55084E+01 2.26359E+01 0.00000E+00
 -1      3070 6.50773E+01 2.11465E+01 0.00000E+00
 -1      3071 5.77563E+01 1.44982E+01 0.00000E+00
 -1      3072 5.87624E+01 1.44054E+01 0.00000E+00
 -1      3073 5.72106E+01 1.39108E+01 0.00000E+00
 -1      3074 6.34835E+01 3.27451E+01 0.00000E+00
 -1      3075 6.33467E+01 1.93168E+01 0.00000E+00
 -1      3076 4.11038E+01 3.10407E+01 0.00000E+00
 -1      3077 4.01814E+01 3.05797E+01 0.00000E+00
 -1      3078 4.09959E+01 3.20896E+01 0.00000E+00
 -1      3079 3.99271E+01 2.59223E+01 0.00000E+00
 -1      3080 4.01712E+01 2.31768E+01 0.00000E+00
 -1      3081 9.09300E+00 2.86437E+01 0.00000E+00
 -1      3082 9.09300E+00 3.01187E+01 0.00000E+00
 -1      3083 1.03920E+01 3.08563E+01 0.00000E+00
 -1      3084 1.03920E+01 2.79188E+01 0.00000E+00
 -1      3085 4.12589E+01 2.07641E+01 0.00000E+00
 -1      3086 4.26202E+01 1.87931E+01 0.00000E+00
 -1      3087 4.40738E+01 1.67607E+01 0.00000E+00
 -1      3088 4.96500E+01 3.99044E+01 0.00000E+00
 -1      3089 4.87790E+01 3.83455E+01 0.00000E+00
 -1      3090 4.78294E+01 3.87426E+01 0.00000E+00
 -1      3091 8.78718E+00 3.80644E+01 0.00000E+00
 -1      3092 6.04407E+01 3.67530E+01 0.00000E+00
 -1      3093 4.61260E+01 1.47576E+01 0.00000E+00
 -1      3094 5.36408E+01 3.84845E+01 0.00000E+00
 -1      3095 5.24936E+01 3.80807E+01 0.00000E+00
 -1      3096 5.16491E+01 1.33124E+01 0.00000E+00
 -1      3097 4.66500E+01 3.97143E+01 0.00000E+00
 -1      3098 5.17114E+01 3.87172E+01 0.00000E+00
 -1      3099 1.16910E+01 1.24625E+01 0.00000E+00
 -1      3100 1.16910E+01 1.39375E+01 0.00000E+00
 -1      3101 1.89000E+01 3.83090E+01 0.00000E+00
 -1      3102 2.04000E+01 3.83090E+01 0.00000E+00
 -1      3103 2.19000E+01 3.83090E+01 0.00000E+00
 -1      3104 2.34000E+01 3.83090E+01 0.00000E+00
 -1      3105 2.11500E+01 3.70100E+01 0.00000E+00
 -1      3106 2.49000E+01 3.83090E+01 0.00000E+00
 -1      3107 2.64000E+01 3.83090E+01 0.00000E+00
 -1      3108 2.41500E+01 3.70100E+01 0.00000E+00
 -1      3109 2.79000E+01 3.83090E+01 0.00000E+00
 -1      3110 2.94000E+01 3.83090E+01 0.00000E+00
 -1      3111 2.71500E+01 3.70100E+01 0.00000E+00
 -1      3112 3.09000E+01 3.83090E+01 0.00000E+00
 -1      3113 3.24000E+01 3.83090E+01 0.00000E+00
 -1      3114 3.01500E+01 3.70100E+01 0.00000E+00
 -1      3115 3.39000E+01 3.83090E+01 0.00000E+00
 -1      3116 3.54000E+01 3.83090E+01 0.00000E+00
 -1      3117 3.31500E+01 3.70100E+01 0.00000E+00
 -1      3118 3.69000E+01 3.83090E+01 0.00000E+00
 -1      3119 3.84000E+01 3.83090E+01 0.00000E+00
 -1      3120 3.61500E+01 3.70100E+01 0.00000E+00
 -1      3121 4.03618E+01 3.72404E+01 0.00000E+00
 -1      3122 4.18618E+01 3.72404E+01 0.00000E+00
 -1      3123 4.63294E+01 3.86363E+01 0.00000E+00
 -1      3124 5.97600E+01 3.89287E+01 0.00000E+00
 -1      3125 6.12600E+01 3.89287E+01 0.00000E+00
 -1      3126 6.27600E+01 3.89287E+01 0.00000E+00
 -1      3127 6.08700E+01 3.78692E+01 0.00000E+00
 -1      3128 6.42600E+01 3.89287E+01 0.00000E+00
 -1      3129 6.57600E+01 3.89287E+01 0.00000E+00
 -1      3130 6.38700E+01 3.78692E+01 0.00000E+00
 -1      3131 6.72600E+01 3.89287E+01 0.00000E+00
 -1      3132 6.87600E+01 3.89287E+01 0.00000E+00
 -1      3133 6.68700E+01 3.78692E+01 0.00000E+00
 -1      3134 7.02600E+01 3.89287E+01 0.00000E+00
 -1      3135 7.17600E+01 3.89287E+01 0.00000E+00
 -1      3136 6.98700E+01 3.78692E+01 0.00000E+00
 -1      3137 7.32600E+01 3.89287E+01 0.00000E+00
 -1      3138 7.47600E+01 3.89287E+01 0.00000E+00
 -1      3139 7.28700E+01 3.78692E+01 0.00000E+00
 -1      3140 7.62600E+01 3.89287E+01 0.00000E+00
 -1      3141 7.77600E+01 3.89287E+01 0.00000E+00
 -1      3142 7.58700E+01 3.78692E+01 0.00000E+00
 -1      3143 7.92600E+01 3.89287E+01 0.00000E+00
 -1      3144 8.07600E+01 3.89287E+01 0.00000E+00
 -1      3145 7.88700E+01 3.78692E+01 0.00000E+00
 -1      3146 8.22600E+01 3.89287E+01 0.00000E+00
 -1      3147 8.37600E+01 3.89287E+01 0.00000E+00
 -1      3148 8.18700E+01 3.78692E+01 0.00000E+00
 -1      3149 8.52600E+01 3.89287E+01 0.00000E+00
 -1      3150 8.67600E+01 3.89287E+01 0.00000E+00
 -1      3151 8.48700E+01 3.78692E+01 0.00000E+00
 -1      3152 8.82600E+01 3.89287E+01 0.00000E+00
 -1      3153 8.97600E+01 3.89287E+01 0.00000E+00
 -1      3154 8.78700E+01 3.78692E+01 0.00000E+00
 -1      3155 9.12600E+01 3.89287E+01 0.00000E+00
 -1      3156 9.27600E+01 3.89287E+01 0.00000E+00
 -1      3157 9.08700E+01 3.78692E+01 0.00000E+00
 -1      3158 9.42600E+01 3.89287E+01 0.00000E+00
 -1      3159 9.57600E+01 3.89287E+01 0.00000E+00
 -1      3160 9.38700E+01 3.78692E+01 0.00000E+00
 -1      3161 9.72600E+01 3.89287E+01 0.00000E+00
 -1      3162 9.87600E+01 3.89287E+01 0.00000E+00
 -1      3163 9.68700E+01 3.78692E+01 0.00000E+00
 -1      3164 1.00260E+02 3.89287E+01 0.00000E+00
 -1      3165 1.01760E+02 3.89287E+01 0.00000E+00
 -1      3166 9.98700E+01 3.78692E+01 0.00000E+00
 -1      3167 1.03260E+02 3.89287E+01 0.00000E+00
 -1      3168 1.04760E+02 3.89287E+01 0.00000E+00
 -1      3169 1.02870E+02 3.78692E+01 0.00000E+00
 -1      3170 1.06260E+02 3.89287E+01 0.00000E+00
 -1      3171 1.07760E+02 3.89287E+01 0.00000E+00
 -1      3172 1.05870E+02 3.78692E+01 0.00000E+00
 -1      3173 1.09260E+02 3.89287E+01 0.00000E+00
 -1      3174 1.10760E+02 3.89287E+01 0.00000E+00
 -1      3175 1.08870E+02 3.78692E+01 0.00000E+00
 -1      3176 1.12260E+02 3.89287E+01 0.00000E+00
 -1      3177 1.13760E+02 3.89287E+01 0.00000E+00
 -1      3178 1.11870E+02 3.78692E+01 0.00000E+00
 -1      3179 1.15260E+02 3.89287E+01 0.00000E+00
 -1      3180 1.16760E+02 3.89287E+01 0.00000E+00
 -1      3181 1.14870E+02 3.78692E+01 0.00000E+00
 -1      3182 1.18260E+02 3.89287E+01 0.00000E+00
 -1      3183 1.19760E+02 3.89287E+01 0.00000E+00
 -1      3184 1.17870E+02 3.78692E+01 0.00000E+00
 -1      3185 1.21260E+02 3.89287E+01 0.00000E+00
 -1      3186 1.22760E+02 3.89287E+01 0.00000E+00
 -1      3187 1.20870E+02 3.78692E+01 0.00000E+00
 -1      3188 1.24260E+02 3.89287E+01 0.00000E+00
 -1      3189 1.25760E+02 3.89287E+01 0.00000E+00
 -1      3190 1.23870E+02 3.78692E+01 0.00000E+00
 -1      3191 1.27260E+02 3.89287E+01 0.00000E+00
 -1      3192 1.28760E+02 3.89287E+01 0.00000E+00
 -1      3193 1.26870E+02 3.78692E+01 0.00000E+00
 -1      3194 1.30260E+02 3.89287E+01 0.00000E+00
 -1      3195 1.31760E+02 3.89287E+01 0.00000E+00
 -1      3196 1.29870E+02 3.78692E+01 0.00000E+00
 -1      3197 1.33260E+02 3.89287E+01 0.00000E+00
 -1      3198 1.34760E+02 3.89287E+01 0.00000E+00
 -1      3199 1.32870E+02 3.78692E+01 0.00000E+00
 -1      3200 2.27850E+01 1.05013E+01 0.00000E+00
 -1      3201 2.12850E+01 1.05013E+01 0.00000E+00
 -1      3202 3.47850E+01 1.05013E+01 0.00000E+00
 -1      3203 3.32850E+01 1.05013E+01 0.00000E+00
 -1      3204 3.17850E+01 1.05013E+01 0.00000E+00
 -1      3205 3.02850E+01 1.05013E+01 0.00000E+00
 -1      3206 3.25350E+01 1.18003E+01 0.00000E+00
 -1      3207 4.07850E+01 1.05013E+01 0.00000E+00
 -1      3208 3.92850E+01 1.05013E+01 0.00000E+00
 -1      3209 4.37850E+01 1.05013E+01 0.00000E+00
 -1      3210 4.22850E+01 1.05013E+01 0.00000E+00
 -1      3211 4.15350E+01 1.18003E+01 0.00000E+00
 -1      3212 4.74300E+01 1.15111E+01 0.00000E+00
 -1      3213 4.59300E+01 1.15111E+01 0.00000E+00
 -1      3214 5.04362E+01 1.13655E+01 0.00000E+00
 -1      3215 4.89362E+01 1.13655E+01 0.00000E+00
 -1      3216 5.32479E+01 1.11492E+01 0.00000E+00
 -1      3217 5.17479E+01 1.11492E+01 0.00000E+00
 -1      3218 5.87850E+01 1.04787E+01 0.00000E+00
 -1      3219 5.72850E+01 1.04787E+01 0.00000E+00
 -1      3220 6.17850E+01 1.04787E+01 0.00000E+00
 -1      3221 6.02850E+01 1.04787E+01 0.00000E+00
 -1      3222 5.95350E+01 1.17552E+01 0.00000E+00
 -1      3223 6.47850E+01 1.04787E+01 0.00000E+00
 -1      3224 6.32850E+01 1.04787E+01 0.00000E+00
 -1      3225 6.25350E+01 1.17552E+01 0.00000E+00
 -1      3226 6.77850E+01 1.04787E+01 0.00000E+00
 -1      3227 6.62850E+01 1.04787E+01 0.00000E+00
 -1      3228 6.55350E+01 1.17552E+01 0.00000E+00
 -1      3229 7.07850E+01 1.04787E+01 0.00000E+00
 -1      3230 6.92850E+01 1.04787E+01 0.00000E+00
 -1      3231 6.85350E+01 1.17552E+01 0.00000E+00
 -1      3232 7.37850E+01 1.04787E+01 0.00000E+00
 -1      3233 7.22850E+01 1.04787E+01 0.00000E+00
 -1      3234 7.15350E+01 1.17552E+01 0.00000E+00
 -1      3235 7.67850E+01 1.04787E+01 0.00000E+00
 -1      3236 7.52850E+01 1.04787E+01 0.00000E+00
 -1      3237 7.45350E+01 1.17552E+01 0.00000E+00
 -1      3238 7.97850E+01 1.04787E+01 0.00000E+00
 -1      3239 7.82850E+01 1.04787E+01 0.00000E+00
 -1      3240 7.75350E+01 1.17552E+01 0.00000E+00
 -1      3241 8.27850E+01 1.04787E+01 0.00000E+00
 -1      3242 8.12850E+01 1.04787E+01 0.00000E+00
 -1      3243 8.05350E+01 1.17552E+01 0.00000E+00
 -1      3244 8.57850E+01 1.04787E+01 0.00000E+00
 -1      3245 8.42850E+01 1.04787E+01 0.00000E+00
 -1      3246 8.35350E+01 1.17552E+01 0.00000E+00
 -1      3247 8.87850E+01 1.04787E+01 0.00000E+00
 -1      3248 8.72850E+01 1.04787E+01 0.00000E+00
 -1      3249 8.65350E+01 1.17552E+01 0.00000E+00
 -1      3250 9.17850E+01 1.04787E+01 0.00000E+00
 -1      3251 9.02850E+01 1.04787E+01 0.00000E+00
 -1      3252 8.95350E+01 1.17552E+01 0.00000E+00
 -1      3253 9.47850E+01 1.04787E+01 0.00000E+00
 -1      3254 9.32850E+01 1.04787E+01 0.00000E+00
 -1      3255 9.25350E+01 1.17552E+01 0.00000E+00
 -1      3256 9.77850E+01 1.04787E+01 0.00000E+00
 -1      3257 9.62850E+01 1.04787E+01 0.00000E+00
 -1      3258 9.55350E+01 1.17552E+01 0.00000E+00
 -1      3259 1.00785E+02 1.04787E+01 0.00000E+00
 -1      3260 9.92850E+01 1.04787E+01 0.00000E+00
 -1      3261 9.85350E+01 1.17552E+01 0.00000E+00
 -1      3262 1.03785E+02 1.04787E+01 0.00000E+00
 -1      3263 1.02285E+02 1.04787E+01 0.00000E+00
 -1      3264 1.01535E+02 1.17552E+01 0.00000E+00
 -1      3265 1.06785E+02 1.04787E+01 0.00000E+00
 -1      3266 1.05285E+02 1.04787E+01 0.00000E+00
 -1      3267 1.04535E+02 1.17552E+01 0.00000E+00
 -1      3268 1.09785E+02 1.04787E+01 0.00000E+00
 -1      3269 1.08285E+02 1.04787E+01 0.00000E+00
 -1      3270 1.07535E+02 1.17552E+01 0.00000E+00
 -1      3271 1.12785E+02 1.04787E+01 0.00000E+00
 -1      3272 1.11285E+02 1.04787E+01 0.00000E+00
 -1      3273 1.10535E+02 1.17552E+01 0.00000E+00
 -1      3274 1.15785E+02 1.04787E+01 0.00000E+00
 -1      3275 1.14285E+02 1.04787E+01 0.00000E+00
 -1      3276 1.13535E+02 1.17552E+01 0.00000E+00
 -1      3277 1.18785E+02 1.04787E+01 0.00000E+00
 -1      3278 1.17285E+02 1.04787E+01 0.00000E+00
 -1      3279 1.16535E+02 1.17552E+01 0.00000E+00
 -1      3280 1.21785E+02 1.04787E+01 0.00000E+00
 -1      3281 1.20285E+02 1.04787E+01 0.00000E+00
 -1      3282 1.19535E+02 1.17552E+01 0.00000E+00
 -1      3283 1.24785E+02 1.04787E+01 0.00000E+00
 -1      3284 1.23285E+02 1.04787E+01 0.00000E+00
 -1      3285 1.22535E+02 1.17552E+01 0.00000E+00
 -1      3286 1.27785E+02 1.04787E+01 0.00000E+00
 -1      3287 1.26285E+02 1.04787E+01 0.00000E+00
 -1      3288 1.25535E+02 1.17552E+01 0.00000E+00
 -1      3289 1.30785E+02 1.04787E+01 0.00000E+00
 -1      3290 1.29285E+02 1.04787E+01 0.00000E+00
 -1      3291 1.28535E+02 1.17552E+01 0.00000E+00
 -1      3292 1.33785E+02 1.04787E+01 0.00000E+00
 -1      3293 1.32285E+02 1.04787E+01 0.00000E+00
 -1      3294 1.31535E+02 1.17552E+01 0.00000E+00
 -1      3295 1.39021E+02 3.87832E+01 0.00000E+00
 -1      3296 1.16910E+01 2.12875E+01 0.00000E+00
 -1      3297 1.16910E+01 2.27625E+01 0.00000E+00
 -1      3298 1.38309E+02 3.16125E+01 0.00000E+00
 -1      3299 1.38309E+02 3.01375E+01 0.00000E+00
 -1      3300 1.38309E+02 2.57625E+01 0.00000E+00
 -1      3301 1.38309E+02 2.42875E+01 0.00000E+00
 -1      3302 1.38309E+02 3.45625E+01 0.00000E+00
 -1      3303 1.38309E+02 3.30875E+01 0.00000E+00
 -1      3304 1.37010E+02 3.23500E+01 0.00000E+00
 -1      3305 1.38309E+02 2.86750E+01 0.00000E+00
 -1      3306 1.38309E+02 2.72250E+01 0.00000E+00
 -1      3307 1.37010E+02 2.64875E+01 0.00000E+00
 -1      3308 1.37010E+02 2.94125E+01 0.00000E+00
 -1      3309 6.58283E+01 3.01274E+01 0.00000E+00
 -1      3310 6.52315E+01 3.13963E+01 0.00000E+00
 -1      3311 3.77850E+01 1.05013E+01 0.00000E+00
 -1      3312 3.62850E+01 1.05013E+01 0.00000E+00
 -1      3313 3.55350E+01 1.18003E+01 0.00000E+00
 -1      3314 3.85350E+01 1.18003E+01 0.00000E+00
 -1      3315 1.39407E+02 1.25250E+01 0.00000E+00
 -1      3316 6.70488E+01 2.72392E+01 0.00000E+00
 -1      3317 6.66271E+01 2.87030E+01 0.00000E+00
 -1      3318 6.32505E+01 3.48258E+01 0.00000E+00
 -1      3319 6.26013E+01 3.57320E+01 0.00000E+00
 -1      3320 4.94091E+01 3.90422E+01 0.00000E+00
 -1      3321 1.00862E+01 3.73269E+01 0.00000E+00
 -1      3322 1.59000E+01 3.83090E+01 0.00000E+00
 -1      3323 1.74000E+01 3.83090E+01 0.00000E+00
 -1      3324 1.81500E+01 3.70100E+01 0.00000E+00
 -1      3325 3.91724E+01 2.36874E+01 0.00000E+00
 -1      3326 3.94993E+01 2.22786E+01 0.00000E+00
 -1      3327 4.01950E+01 2.07482E+01 0.00000E+00
 -1      3328 4.09558E+01 1.97441E+01 0.00000E+00
 -1      3329 3.92852E+01 2.90778E+01 0.00000E+00
 -1      3330 3.91454E+01 2.79419E+01 0.00000E+00
 -1      3331 6.37699E+01 1.81280E+01 0.00000E+00
 -1      3332 6.46084E+01 1.93375E+01 0.00000E+00
 -1      3333 6.45977E+01 3.26670E+01 0.00000E+00
 -1      3334 6.39241E+01 3.37464E+01 0.00000E+00
 -1      3335 6.43647E+01 3.47477E+01 0.00000E+00
 -1      3336 4.28471E+01 1.66527E+01 0.00000E+00
 -1      3337 4.37002E+01 1.55873E+01 0.00000E+00
 -1      3338 4.15563E+01 1.87772E+01 0.00000E+00
 -1      3339 4.21568E+01 1.78102E+01 0.00000E+00
 -1      3340 4.04924E+01 1.87613E+01 0.00000E+00
 -1      3341 6.19407E+01 3.67530E+01 0.00000E+00
 -1      3342 3.90289E+01 2.66489E+01 0.00000E+00
 -1      3343 3.89461E+01 2.53121E+01 0.00000E+00
 -1      3344 1.26488E+01 1.02017E+01 0.00000E+00
 -1      3345 1.20772E+01 1.14631E+01 0.00000E+00
 -1      3346 1.33763E+01 1.22006E+01 0.00000E+00
 -1      3347 1.41488E+01 1.02017E+01 0.00000E+00
 -1      3348 4.53298E+01 3.80937E+01 0.00000E+00
 -1      3349 4.51800E+01 1.28101E+01 0.00000E+00
 -1      3350 1.16910E+01 2.42375E+01 0.00000E+00
 -1      3351 1.16910E+01 2.57125E+01 0.00000E+00
 -1      3352 1.29900E+01 2.35000E+01 0.00000E+00
 -1      3353 6.77842E+01 2.55131E+01 0.00000E+00
 -1      3354 6.74165E+01 2.63762E+01 0.00000E+00
 -1      3355 6.82712E+01 2.74151E+01 0.00000E+00
 -1      3356 3.96118E+01 3.59414E+01 0.00000E+00
 -1      3357 6.64495E+01 2.31204E+01 0.00000E+00
 -1      3358 5.19524E+01 3.95794E+01 0.00000E+00
 -1      3359 5.09091E+01 3.91260E+01 0.00000E+00
 -1      3360 1.38309E+02 1.69188E+01 0.00000E+00
 -1      3361 1.38309E+02 1.54563E+01 0.00000E+00
 -1      3362 3.81974E+01 2.17692E+01 0.00000E+00
 -1      3363 3.91962E+01 2.12587E+01 0.00000E+00
 -1      3364 3.88931E+01 2.02387E+01 0.00000E+00
 -1      3365 4.29000E+01 3.83315E+01 0.00000E+00
 -1      3366 4.44000E+01 3.83315E+01 0.00000E+00
 -1      3367 6.56721E+01 3.23976E+01 0.00000E+00
 -1      3368 6.71047E+01 2.97025E+01 0.00000E+00
 -1      3369 1.32152E+01 3.82007E+01 0.00000E+00
 -1      3370 1.45576E+01 3.82548E+01 0.00000E+00
 -1      3371 1.53076E+01 3.69558E+01 0.00000E+00
 -1      3372 3.73761E+01 2.51405E+01 0.00000E+00
 -1      3373 3.82742E+01 2.44139E+01 0.00000E+00
 -1      3374 3.76023E+01 2.35157E+01 0.00000E+00
 -1      3375 2.42850E+01 1.05013E+01 0.00000E+00
 -1      3376 2.35350E+01 1.18003E+01 0.00000E+00
 -1      3377 2.57850E+01 1.05013E+01 0.00000E+00
 -1      3378 1.35900E+02 3.86892E+01 0.00000E+00
 -1      3379 1.37400E+02 3.86892E+01 0.00000E+00
 -1      3380 1.14286E+01 3.73811E+01 0.00000E+00
 -1      3381 1.38274E+02 1.38503E+01 0.00000E+00
 -1      3382 1.38073E+02 1.16503E+01 0.00000E+00
 -1      3383 1.36905E+02 1.13696E+01 0.00000E+00
 -1      3384 1.36975E+02 1.45815E+01 0.00000E+00
 -1      3385 2.95350E+01 1.18003E+01 0.00000E+00
 -1      3386 2.87850E+01 1.05013E+01 0.00000E+00
 -1      3387 2.72850E+01 1.05013E+01 0.00000E+00
 -1      3388 4.27542E+01 1.36397E+01 0.00000E+00
 -1      3389 4.39810E+01 1.37478E+01 0.00000E+00
 -1      3390 6.30305E+01 3.68481E+01 0.00000E+00
 -1      3391 5.57850E+01 1.03949E+01 0.00000E+00
 -1      3392 5.42850E+01 1.03949E+01 0.00000E+00
 -1      3393 1.38271E+02 3.74842E+01 0.00000E+00
 -1      3394 1.35929E+02 1.10645E+01 0.00000E+00
 -1      3395 1.34761E+02 1.07838E+01 0.00000E+00
 -1      3396 1.34011E+02 1.20603E+01 0.00000E+00
 -1      3397 1.35964E+02 1.26705E+01 0.00000E+00
 -1      3398 1.38309E+02 1.98687E+01 0.00000E+00
 -1      3399 1.38309E+02 1.83937E+01 0.00000E+00
 -1      3400 1.37010E+02 1.76625E+01 0.00000E+00
 -1      3401 1.16910E+01 1.98188E+01 0.00000E+00
 -1      3402 1.29900E+01 2.05562E+01 0.00000E+00
 -1      3403 1.16910E+01 1.83500E+01 0.00000E+00
 -1      3404 1.38309E+02 2.28156E+01 0.00000E+00
 -1      3405 1.38309E+02 2.13406E+01 0.00000E+00
 -1      3406 1.37010E+02 2.06094E+01 0.00000E+00
 -1      3407 1.37010E+02 2.35531E+01 0.00000E+00
 -1      3408 6.04816E+01 1.45874E+01 0.00000E+00
 -1      3409 6.12816E+01 1.53660E+01 0.00000E+00
 -1      3410 1.38129E+02 3.63451E+01 0.00000E+00
 -1      3411 6.55006E+01 1.99577E+01 0.00000E+00
 -1      3412 6.63927E+01 2.05779E+01 0.00000E+00
 -1      3413 6.59238E+01 1.87689E+01 0.00000E+00
 -1      3414 5.71197E+01 1.28794E+01 0.00000E+00
 -1      3415 5.81258E+01 1.27866E+01 0.00000E+00
 -1      3416 1.35510E+02 3.76297E+01 0.00000E+00
 -1      3417 5.65350E+01 1.16714E+01 0.00000E+00
 -1      3418 1.36830E+02 3.56076E+01 0.00000E+00
 -1      3419 5.56197E+01 1.27956E+01 0.00000E+00
 -1      3420 1.71488E+01 1.02017E+01 0.00000E+00
 -1      3421 1.56488E+01 1.02017E+01 0.00000E+00
 -1      3422 1.52625E+01 1.12011E+01 0.00000E+00
 -1      3423 1.16910E+01 3.30594E+01 0.00000E+00
 -1      3424 1.16910E+01 3.45281E+01 0.00000E+00
 -1      3425 3.90693E+01 3.11757E+01 0.00000E+00
 -1      3426 3.91772E+01 3.01267E+01 0.00000E+00
 -1      3427 3.81731E+01 2.96738E+01 0.00000E+00
 -1      3428 5.39979E+01 1.23419E+01 0.00000E+00
 -1      3429 1.29900E+01 1.46687E+01 0.00000E+00
 -1      3430 1.16910E+01 1.54063E+01 0.00000E+00
 -1      3431 1.16910E+01 1.68750E+01 0.00000E+00
 -1      3432 1.99669E+01 1.03515E+01 0.00000E+00
 -1      3433 1.84669E+01 1.03515E+01 0.00000E+00
 -1      3434 1.80806E+01 1.13509E+01 0.00000E+00
 -1      3435 2.07169E+01 1.16505E+01 0.00000E+00
 -1      3436 6.31573E+01 1.70089E+01 0.00000E+00
 -1      3437 6.44190E+01 1.70296E+01 0.00000E+00
 -1      3438 3.81645E+01 2.73318E+01 0.00000E+00
 -1      3439 5.34524E+01 3.95794E+01 0.00000E+00
 -1      3440 4.17832E+01 1.66368E+01 0.00000E+00
 -1      3441 1.16910E+01 3.01219E+01 0.00000E+00
 -1      3442 1.16910E+01 3.15906E+01 0.00000E+00
 -1      3443 1.29900E+01 3.23250E+01 0.00000E+00
 -1      3444 6.23573E+01 1.62302E+01 0.00000E+00
 -1      3445 4.45798E+01 3.68172E+01 0.00000E+00
 -1      3446 4.35801E+01 3.62747E+01 0.00000E+00
 -1      3447 2.34000E+01 3.57110E+01 0.00000E+00
 -1      3448 2.49000E+01 3.57110E+01 0.00000E+00
 -1      3449 2.64000E+01 3.57110E+01 0.00000E+00
 -1      3450 2.79000E+01 3.57110E+01 0.00000E+00
 -1      3451 2.56500E+01 3.44120E+01 0.00000E+00
 -1      3452 2.94000E+01 3.57110E+01 0.00000E+00
 -1      3453 3.09000E+01 3.57110E+01 0.00000E+00
 -1      3454 2.86500E+01 3.44120E+01 0.00000E+00
 -1      3455 3.24000E+01 3.57110E+01 0.00000E+00
 -1      3456 3.39000E+01 3.57110E+01 0.00000E+00
 -1      3457 3.16500E+01 3.44120E+01 0.00000E+00
 -1      3458 3.54000E+01 3.57110E+01 0.00000E+00
 -1      3459 3.69000E+01 3.57110E+01 0.00000E+00
 -1      3460 3.46500E+01 3.44120E+01 0.00000E+00
 -1      3461 6.70967E+01 2.21290E+01 0.00000E+00
 -1      3462 6.75767E+01 2.34827E+01 0.00000E+00
 -1      3463 6.69064E+01 3.22197E+01 0.00000E+00
 -1      3464 6.62726E+01 3.34904E+01 0.00000E+00
 -1      3465 6.45305E+01 3.68481E+01 0.00000E+00
 -1      3466 6.60305E+01 3.68481E+01 0.00000E+00
 -1      3467 6.75305E+01 3.68481E+01 0.00000E+00
 -1      3468 6.51911E+01 3.58271E+01 0.00000E+00
 -1      3469 6.91200E+01 3.65702E+01 0.00000E+00
 -1      3470 7.06200E+01 3.65702E+01 0.00000E+00
 -1      3471 7.21200E+01 3.65702E+01 0.00000E+00
 -1      3472 7.36200E+01 3.65702E+01 0.00000E+00
 -1      3473 7.13700E+01 3.52712E+01 0.00000E+00
 -1      3474 7.51200E+01 3.65702E+01 0.00000E+00
 -1      3475 7.66200E+01 3.65702E+01 0.00000E+00
 -1      3476 7.43700E+01 3.52712E+01 0.00000E+00
 -1      3477 7.81200E+01 3.65702E+01 0.00000E+00
 -1      3478 7.96200E+01 3.65702E+01 0.00000E+00
 -1      3479 7.73700E+01 3.52712E+01 0.00000E+00
 -1      3480 8.11200E+01 3.65702E+01 0.00000E+00
 -1      3481 8.26200E+01 3.65702E+01 0.00000E+00
 -1      3482 8.03700E+01 3.52712E+01 0.00000E+00
 -1      3483 8.41200E+01 3.65702E+01 0.00000E+00
 -1      3484 8.56200E+01 3.65702E+01 0.00000E+00
 -1      3485 8.33700E+01 3.52712E+01 0.00000E+00
 -1      3486 8.71200E+01 3.65702E+01 0.00000E+00
 -1      3487 8.86200E+01 3.65702E+01 0.00000E+00
 -1      3488 8.63700E+01 3.52712E+01 0.00000E+00
 -1      3489 9.01200E+01 3.65702E+01 0.00000E+00
 -1      3490 9.16200E+01 3.65702E+01 0.00000E+00
 -1      3491 8.93700E+01 3.52712E+01 0.00000E+00
 -1      3492 9.31200E+01 3.65702E+01 0.00000E+00
 -1      3493 9.46200E+01 3.65702E+01 0.00000E+00
 -1      3494 9.23700E+01 3.52712E+01 0.00000E+00
 -1      3495 9.61200E+01 3.65702E+01 0.00000E+00
 -1      3496 9.76200E+01 3.65702E+01 0.00000E+00
 -1      3497 9.53700E+01 3.52712E+01 0.00000E+00
 -1      3498 9.91200E+01 3.65702E+01 0.00000E+00
 -1      3499 1.00620E+02 3.65702E+01 0.00000E+00
 -1      3500 9.83700E+01 3.52712E+01 0.00000E+00
 -1      3501 1.02120E+02 3.65702E+01 0.00000E+00
 -1      3502 1.03620E+02 3.65702E+01 0.00000E+00
 -1      3503 1.01370E+02 3.52712E+01 0.00000E+00
 -1      3504 1.05120E+02 3.65702E+01 0.00000E+00
 -1      3505 1.06620E+02 3.65702E+01 0.00000E+00
 -1      3506 1.04370E+02 3.52712E+01 0.00000E+00
 -1      3507 1.08120E+02 3.65702E+01 0.00000E+00
 -1      3508 1.09620E+02 3.65702E+01 0.00000E+00
 -1      3509 1.07370E+02 3.52712E+01 0.00000E+00
 -1      3510 1.11120E+02 3.65702E+01 0.00000E+00
 -1      3511 1.12620E+02 3.65702E+01 0.00000E+00
 -1      3512 1.10370E+02 3.52712E+01 0.00000E+00
 -1      3513 1.14120E+02 3.65702E+01 0.00000E+00
 -1      3514 1.15620E+02 3.65702E+01 0.00000E+00
 -1      3515 1.13370E+02 3.52712E+01 0.00000E+00
 -1      3516 1.17120E+02 3.65702E+01 0.00000E+00
 -1      3517 1.18620E+02 3.65702E+01 0.00000E+00
 -1      3518 1.16370E+02 3.52712E+01 0.00000E+00
 -1      3519 1.20120E+02 3.65702E+01 0.00000E+00
 -1      3520 1.21620E+02 3.65702E+01 0.00000E+00
 -1      3521 1.19370E+02 3.52712E+01 0.00000E+00
 -1      3522 1.23120E+02 3.65702E+01 0.00000E+00
 -1      3523 1.24620E+02 3.65702E+01 0.00000E+00
 -1      3524 1.22370E+02 3.52712E+01 0.00000E+00
 -1      3525 1.26120E+02 3.65702E+01 0.00000E+00
 -1      3526 1.27620E+02 3.65702E+01 0.00000E+00
 -1      3527 1.25370E+02 3.52712E+01 0.00000E+00
 -1      3528 1.29120E+02 3.65702E+01 0.00000E+00
 -1      3529 1.30620E+02 3.65702E+01 0.00000E+00
 -1      3530 1.28370E+02 3.52712E+01 0.00000E+00
 -1      3531 1.32120E+02 3.65702E+01 0.00000E+00
 -1      3532 1.33620E+02 3.65702E+01 0.00000E+00
 -1      3533 1.31370E+02 3.52712E+01 0.00000E+00
 -1      3534 1.21786E+01 3.60821E+01 0.00000E+00
 -1      3535 4.12542E+01 1.36397E+01 0.00000E+00
 -1      3536 5.96258E+01 1.27866E+01 0.00000E+00
 -1      3537 6.92850E+01 1.30542E+01 0.00000E+00
 -1      3538 6.77850E+01 1.30542E+01 0.00000E+00
 -1      3539 7.22850E+01 1.30542E+01 0.00000E+00
 -1      3540 7.07850E+01 1.30542E+01 0.00000E+00
 -1      3541 7.00350E+01 1.43532E+01 0.00000E+00
 -1      3542 7.52850E+01 1.30542E+01 0.00000E+00
 -1      3543 7.37850E+01 1.30542E+01 0.00000E+00
 -1      3544 7.30350E+01 1.43532E+01 0.00000E+00
 -1      3545 7.82850E+01 1.30542E+01 0.00000E+00
 -1      3546 7.67850E+01 1.30542E+01 0.00000E+00
 -1      3547 7.60350E+01 1.43532E+01 0.00000E+00
 -1      3548 8.12850E+01 1.30542E+01 0.00000E+00
 -1      3549 7.97850E+01 1.30542E+01 0.00000E+00
 -1      3550 7.90350E+01 1.43532E+01 0.00000E+00
 -1      3551 8.42850E+01 1.30542E+01 0.00000E+00
 -1      3552 8.27850E+01 1.30542E+01 0.00000E+00
 -1      3553 8.20350E+01 1.43532E+01 0.00000E+00
 -1      3554 8.72850E+01 1.30542E+01 0.00000E+00
 -1      3555 8.57850E+01 1.30542E+01 0.00000E+00
 -1      3556 8.50350E+01 1.43532E+01 0.00000E+00
 -1      3557 9.02850E+01 1.30542E+01 0.00000E+00
 -1      3558 8.87850E+01 1.30542E+01 0.00000E+00
 -1      3559 8.80350E+01 1.43532E+01 0.00000E+00
 -1      3560 9.32850E+01 1.30542E+01 0.00000E+00
 -1      3561 9.17850E+01 1.30542E+01 0.00000E+00
 -1      3562 9.10350E+01 1.43532E+01 0.00000E+00
 -1      3563 9.62850E+01 1.30542E+01 0.00000E+00
 -1      3564 9.47850E+01 1.30542E+01 0.00000E+00
 -1      3565 9.40350E+01 1.43532E+01 0.00000E+00
 -1      3566 9.92850E+01 1.30542E+01 0.00000E+00
 -1      3567 9.77850E+01 1.30542E+01 0.00000E+00
 -1      3568 9.70350E+01 1.43532E+01 0.00000E+00
 -1      3569 1.02285E+02 1.30542E+01 0.00000E+00
 -1      3570 1.00785E+02 1.30542E+01 0.00000E+00
 -1      3571 1.00035E+02 1.43532E+01 0.00000E+00
 -1      3572 1.05285E+02 1.30542E+01 0.00000E+00
 -1      3573 1.03785E+02 1.30542E+01 0.00000E+00
 -1      3574 1.03035E+02 1.43532E+01 0.00000E+00
 -1      3575 1.08285E+02 1.30542E+01 0.00000E+00
 -1      3576 1.06785E+02 1.30542E+01 0.00000E+00
 -1      3577 1.06035E+02 1.43532E+01 0.00000E+00
 -1      3578 1.11285E+02 1.30542E+01 0.00000E+00
 -1      3579 1.09785E+02 1.30542E+01 0.00000E+00
 -1      3580 1.09035E+02 1.43532E+01 0.00000E+00
 -1      3581 1.14285E+02 1.30542E+01 0.00000E+00
 -1      3582 1.12785E+02 1.30542E+01 0.00000E+00
 -1      3583 1.12035E+02 1.43532E+01 0.00000E+00
 -1      3584 1.17285E+02 1.30542E+01 0.00000E+00
 -1      3585 1.15785E+02 1.30542E+01 0.00000E+00
 -1      3586 1.15035E+02 1.43532E+01 0.00000E+00
 -1      3587 1.20285E+02 1.30542E+01 0.00000E+00
 -1      3588 1.18785E+02 1.30542E+01 0.00000E+00
 -1      3589 1.18035E+02 1.43532E+01 0.00000E+00
 -1      3590 1.23285E+02 1.30542E+01 0.00000E+00
 -1      3591 1.21785E+02 1.30542E+01 0.00000E+00
 -1      3592 1.21035E+02 1.43532E+01 0.00000E+00
 -1      3593 1.26285E+02 1.30542E+01 0.00000E+00
 -1      3594 1.24785E+02 1.30542E+01 0.00000E+00
 -1      3595 1.24035E+02 1.43532E+01 0.00000E+00
 -1      3596 1.29285E+02 1.30542E+01 0.00000E+00
 -1      3597 1.27785E+02 1.30542E+01 0.00000E+00
 -1      3598 1.27035E+02 1.43532E+01 0.00000E+00
 -1      3599 1.32285E+02 1.30542E+01 0.00000E+00
 -1      3600 1.30785E+02 1.30542E+01 0.00000E+00
 -1      3601 1.30035E+02 1.43532E+01 0.00000E+00
 -1      3602 6.01716E+01 1.33740E+01 0.00000E+00
 -1      3603 6.13450E+01 1.29686E+01 0.00000E+00
 -1      3604 6.85040E+01 2.93710E+01 0.00000E+00
 -1      3605 6.77052E+01 3.07953E+01 0.00000E+00
 -1      3606 6.83057E+01 3.18882E+01 0.00000E+00
 -1      3607 6.27307E+01 1.50463E+01 0.00000E+00
 -1      3608 1.35711E+02 3.30875E+01 0.00000E+00
 -1      3609 1.35711E+02 3.16125E+01 0.00000E+00
 -1      3610 4.08864E+01 3.34619E+01 0.00000E+00
 -1      3611 3.99640E+01 3.30009E+01 0.00000E+00
 -1      3612 4.07141E+01 3.46231E+01 0.00000E+00
 -1      3613 1.16910E+01 2.71844E+01 0.00000E+00
 -1      3614 1.16910E+01 2.86531E+01 0.00000E+00
 -1      3615 1.29900E+01 2.93875E+01 0.00000E+00
 -1      3616 6.28450E+01 1.29686E+01 0.00000E+00
 -1      3617 3.93213E+01 1.87039E+01 0.00000E+00
 -1      3618 3.99218E+01 1.77370E+01 0.00000E+00
 -1      3619 3.71183E+01 2.80778E+01 0.00000E+00
 -1      3620 3.70018E+01 2.67848E+01 0.00000E+00
 -1      3621 3.32850E+01 1.30992E+01 0.00000E+00
 -1      3622 3.17850E+01 1.30992E+01 0.00000E+00
 -1      3623 6.58647E+01 3.47477E+01 0.00000E+00
 -1      3624 6.39207E+01 1.38328E+01 0.00000E+00
 -1      3625 1.34776E+01 3.53477E+01 0.00000E+00
 -1      3626 1.48763E+01 1.22006E+01 0.00000E+00
 -1      3627 1.44900E+01 1.32000E+01 0.00000E+00
 -1      3628 1.63762E+01 1.22006E+01 0.00000E+00
 -1      3629 4.02429E+01 1.62671E+01 0.00000E+00
 -1      3630 4.09332E+01 1.51096E+01 0.00000E+00
 -1      3631 3.97139E+01 1.32701E+01 0.00000E+00
 -1      3632 3.90718E+01 1.62098E+01 0.00000E+00
 -1      3633 2.04000E+01 3.57110E+01 0.00000E+00
 -1      3634 2.19000E+01 3.57110E+01 0.00000E+00
 -1      3635 2.26500E+01 3.44120E+01 0.00000E+00
 -1      3636 6.50854E+01 1.59375E+01 0.00000E+00
 -1      3637 6.56980E+01 1.70566E+01 0.00000E+00
 -1      3638 1.74000E+01 3.57110E+01 0.00000E+00
 -1      3639 1.89000E+01 3.57110E+01 0.00000E+00
 -1      3640 1.96500E+01 3.44120E+01 0.00000E+00
 -1      3641 6.54207E+01 1.38328E+01 0.00000E+00
 -1      3642 6.84314E+01 2.45216E+01 0.00000E+00
 -1      3643 6.92862E+01 2.55605E+01 0.00000E+00
 -1      3644 6.90787E+01 2.35302E+01 0.00000E+00
 -1      3645 3.72992E+01 2.24958E+01 0.00000E+00
 -1      3646 3.69961E+01 2.14758E+01 0.00000E+00
 -1      3647 3.64011E+01 2.32223E+01 0.00000E+00
 -1      3648 1.42890E+01 1.98219E+01 0.00000E+00
 -1      3649 1.42890E+01 2.12906E+01 0.00000E+00
 -1      3650 4.28301E+01 3.75512E+01 0.00000E+00
 -1      3651 2.65350E+01 1.18003E+01 0.00000E+00
 -1      3652 3.83225E+01 1.92145E+01 0.00000E+00
 -1      3653 6.75200E+01 2.09402E+01 0.00000E+00
 -1      3654 6.70990E+01 3.45699E+01 0.00000E+00
 -1      3655 1.44900E+01 1.46687E+01 0.00000E+00
 -1      3656 6.66997E+01 1.38599E+01 0.00000E+00
 -1      3657 3.63299E+01 2.58865E+01 0.00000E+00
 -1      3658 6.82805E+01 3.55491E+01 0.00000E+00
 -1      3659 6.88717E+01 2.85079E+01 0.00000E+00
 -1      3660 6.94722E+01 2.96008E+01 0.00000E+00
 -1      3661 6.92394E+01 2.76449E+01 0.00000E+00
 -1      3662 1.36034E+02 1.58824E+01 0.00000E+00
 -1      3663 1.35999E+02 1.42764E+01 0.00000E+00
 -1      3664 1.35023E+02 1.39714E+01 0.00000E+00
 -1      3665 1.42890E+01 2.27656E+01 0.00000E+00
 -1      3666 1.42890E+01 2.42406E+01 0.00000E+00
 -1      3667 1.55880E+01 2.20313E+01 0.00000E+00
 -1      3668 3.82139E+01 1.32701E+01 0.00000E+00
 -1      3669 1.35448E+02 3.63684E+01 0.00000E+00
 -1      3670 1.35628E+02 3.45858E+01 0.00000E+00
 -1      3671 1.35711E+02 2.72188E+01 0.00000E+00
 -1      3672 1.35711E+02 2.57563E+01 0.00000E+00
 -1      3673 1.29900E+01 1.76125E+01 0.00000E+00
 -1      3674 3.02850E+01 1.30992E+01 0.00000E+00
 -1      3675 2.87850E+01 1.30992E+01 0.00000E+00
 -1      3676 3.10350E+01 1.43982E+01 0.00000E+00
 -1      3677 1.35711E+02 2.42844E+01 0.00000E+00
 -1      3678 1.35711E+02 2.28125E+01 0.00000E+00
 -1      3679 1.34412E+02 2.50156E+01 0.00000E+00
 -1      3680 1.34329E+02 3.38483E+01 0.00000E+00
 -1      3681 1.35711E+02 3.01437E+01 0.00000E+00
 -1      3682 1.35711E+02 2.86812E+01 0.00000E+00
 -1      3683 1.34412E+02 2.79500E+01 0.00000E+00
 -1      3684 6.65902E+01 1.76768E+01 0.00000E+00
 -1      3685 6.74823E+01 1.82970E+01 0.00000E+00
 -1      3686 6.72565E+01 1.65848E+01 0.00000E+00
 -1      3687 3.47850E+01 1.30992E+01 0.00000E+00
 -1      3688 3.40350E+01 1.43982E+01 0.00000E+00
 -1      3689 3.62850E+01 1.30992E+01 0.00000E+00
 -1      3690 1.34412E+02 3.08813E+01 0.00000E+00
 -1      3691 1.29900E+01 2.64469E+01 0.00000E+00
 -1      3692 3.70103E+01 2.91268E+01 0.00000E+00
 -1      3693 3.58476E+01 2.85798E+01 0.00000E+00
 -1      3694 3.69024E+01 3.01757E+01 0.00000E+00
 -1      3695 1.47676E+01 3.55023E+01 0.00000E+00
 -1      3696 1.61100E+01 3.55564E+01 0.00000E+00
 -1      3697 1.68600E+01 3.42574E+01 0.00000E+00
 -1      3698 1.42800E+01 3.39483E+01 0.00000E+00
 -1      3699 6.74497E+01 1.51589E+01 0.00000E+00
 -1      3700 1.34142E+02 1.36653E+01 0.00000E+00
 -1      3701 1.33166E+02 1.33602E+01 0.00000E+00
 -1      3702 1.32416E+02 1.46592E+01 0.00000E+00
 -1      3703 1.34177E+02 1.52713E+01 0.00000E+00
 -1      3704 2.12293E+01 1.30161E+01 0.00000E+00
 -1      3705 1.99111E+01 1.28663E+01 0.00000E+00
 -1      3706 1.34308E+02 3.66079E+01 0.00000E+00
 -1      3707 3.86368E+01 3.35856E+01 0.00000E+00
 -1      3708 3.87463E+01 3.22133E+01 0.00000E+00
 -1      3709 2.42293E+01 1.30161E+01 0.00000E+00
 -1      3710 2.27293E+01 1.30161E+01 0.00000E+00
 -1      3711 2.19235E+01 1.42319E+01 0.00000E+00
 -1      3712 1.42800E+01 3.10108E+01 0.00000E+00
 -1      3713 1.42800E+01 3.24796E+01 0.00000E+00
 -1      3714 1.55700E+01 3.26341E+01 0.00000E+00
 -1      3715 3.77421E+01 3.17603E+01 0.00000E+00
 -1      3716 1.36034E+02 1.88324E+01 0.00000E+00
 -1      3717 1.36034E+02 1.73574E+01 0.00000E+00
 -1      3718 1.35057E+02 1.70523E+01 0.00000E+00
 -1      3719 3.80023E+01 3.43926E+01 0.00000E+00
 -1      3720 3.67846E+01 3.36050E+01 0.00000E+00
 -1      3721 1.42890E+01 1.83469E+01 0.00000E+00
 -1      3722 1.55880E+01 1.90812E+01 0.00000E+00
 -1      3723 1.42890E+01 1.68719E+01 0.00000E+00
 -1      3724 2.49000E+01 3.31130E+01 0.00000E+00
 -1      3725 2.64000E+01 3.31130E+01 0.00000E+00
 -1      3726 2.72850E+01 1.30992E+01 0.00000E+00
 -1      3727 2.57850E+01 1.30992E+01 0.00000E+00
 -1      3728 2.80350E+01 1.43982E+01 0.00000E+00
 -1      3729 2.79000E+01 3.31130E+01 0.00000E+00
 -1      3730 2.94000E+01 3.31130E+01 0.00000E+00
 -1      3731 2.71500E+01 3.18140E+01 0.00000E+00
 -1      3732 3.09000E+01 3.31130E+01 0.00000E+00
 -1      3733 3.24000E+01 3.31130E+01 0.00000E+00
 -1      3734 3.01500E+01 3.18140E+01 0.00000E+00
 -1      3735 3.38423E+01 3.33590E+01 0.00000E+00
 -1      3736 3.53423E+01 3.33590E+01 0.00000E+00
 -1      3737 3.59768E+01 3.25520E+01 0.00000E+00
 -1      3738 3.30923E+01 3.20600E+01 0.00000E+00
 -1      3739 3.70403E+01 1.96839E+01 0.00000E+00
 -1      3740 3.74685E+01 1.81491E+01 0.00000E+00
 -1      3741 1.33558E+02 3.53089E+01 0.00000E+00
 -1      3742 7.36200E+01 3.39722E+01 0.00000E+00
 -1      3743 7.51200E+01 3.39722E+01 0.00000E+00
 -1      3744 7.66200E+01 3.39722E+01 0.00000E+00
 -1      3745 7.81200E+01 3.39722E+01 0.00000E+00
 -1      3746 7.58700E+01 3.26732E+01 0.00000E+00
 -1      3747 7.96200E+01 3.39722E+01 0.00000E+00
 -1      3748 8.11200E+01 3.39722E+01 0.00000E+00
 -1      3749 7.88700E+01 3.26732E+01 0.00000E+00
 -1      3750 8.26200E+01 3.39722E+01 0.00000E+00
 -1      3751 8.41200E+01 3.39722E+01 0.00000E+00
 -1      3752 8.18700E+01 3.26732E+01 0.00000E+00
 -1      3753 8.56200E+01 3.39722E+01 0.00000E+00
 -1      3754 8.71200E+01 3.39722E+01 0.00000E+00
 -1      3755 8.48700E+01 3.26732E+01 0.00000E+00
 -1      3756 8.86200E+01 3.39722E+01 0.00000E+00
 -1      3757 9.01200E+01 3.39722E+01 0.00000E+00
 -1      3758 8.78700E+01 3.26732E+01 0.00000E+00
 -1      3759 9.16200E+01 3.39722E+01 0.00000E+00
 -1      3760 9.31200E+01 3.39722E+01 0.00000E+00
 -1      3761 9.08700E+01 3.26732E+01 0.00000E+00
 -1      3762 9.46200E+01 3.39722E+01 0.00000E+00
 -1      3763 9.61200E+01 3.39722E+01 0.00000E+00
 -1      3764 9.38700E+01 3.26732E+01 0.00000E+00
 -1      3765 9.76200E+01 3.39722E+01 0.00000E+00
 -1      3766 9.91200E+01 3.39722E+01 0.00000E+00
 -1      3767 9.68700E+01 3.26732E+01 0.00000E+00
 -1      3768 1.00620E+02 3.39722E+01 0.00000E+00
 -1      3769 1.02120E+02 3.39722E+01 0.00000E+00
 -1      3770 9.98700E+01 3.26732E+01 0.00000E+00
 -1      3771 1.03620E+02 3.39722E+01 0.00000E+00
 -1      3772 1.05120E+02 3.39722E+01 0.00000E+00
 -1      3773 1.02870E+02 3.26732E+01 0.00000E+00
 -1      3774 1.06620E+02 3.39722E+01 0.00000E+00
 -1      3775 1.08120E+02 3.39722E+01 0.00000E+00
 -1      3776 1.05870E+02 3.26732E+01 0.00000E+00
 -1      3777 1.09620E+02 3.39722E+01 0.00000E+00
 -1      3778 1.11120E+02 3.39722E+01 0.00000E+00
 -1      3779 1.08870E+02 3.26732E+01 0.00000E+00
 -1      3780 1.12620E+02 3.39722E+01 0.00000E+00
 -1      3781 1.14120E+02 3.39722E+01 0.00000E+00
 -1      3782 1.11870E+02 3.26732E+01 0.00000E+00
 -1      3783 1.15620E+02 3.39722E+01 0.00000E+00
 -1      3784 1.17120E+02 3.39722E+01 0.00000E+00
 -1      3785 1.14870E+02 3.26732E+01 0.00000E+00
 -1      3786 1.18620E+02 3.39722E+01 0.00000E+00
 -1      3787 1.20120E+02 3.39722E+01 0.00000E+00
 -1      3788 1.17870E+02 3.26732E+01 0.00000E+00
 -1      3789 1.21620E+02 3.39722E+01 0.00000E+00
 -1      3790 1.23120E+02 3.39722E+01 0.00000E+00
 -1      3791 1.20870E+02 3.26732E+01 0.00000E+00
 -1      3792 1.24620E+02 3.39722E+01 0.00000E+00
 -1      3793 1.26120E+02 3.39722E+01 0.00000E+00
 -1      3794 1.23870E+02 3.26732E+01 0.00000E+00
 -1      3795 1.27620E+02 3.39722E+01 0.00000E+00
 -1      3796 1.29120E+02 3.39722E+01 0.00000E+00
 -1      3797 1.26870E+02 3.26732E+01 0.00000E+00
 -1      3798 1.30620E+02 3.39722E+01 0.00000E+00
 -1      3799 1.32120E+02 3.39722E+01 0.00000E+00
 -1      3800 1.29870E+02 3.26732E+01 0.00000E+00
 -1      3801 7.67850E+01 1.56522E+01 0.00000E+00
 -1      3802 7.52850E+01 1.56522E+01 0.00000E+00
 -1      3803 6.86884E+01 3.42919E+01 0.00000E+00
 -1      3804 7.37850E+01 1.56522E+01 0.00000E+00
 -1      3805 7.22850E+01 1.56522E+01 0.00000E+00
 -1      3806 7.45350E+01 1.69512E+01 0.00000E+00
 -1      3807 7.97850E+01 1.56522E+01 0.00000E+00
 -1      3808 7.82850E+01 1.56522E+01 0.00000E+00
 -1      3809 7.75350E+01 1.69512E+01 0.00000E+00
 -1      3810 8.27850E+01 1.56522E+01 0.00000E+00
 -1      3811 8.12850E+01 1.56522E+01 0.00000E+00
 -1      3812 8.05350E+01 1.69512E+01 0.00000E+00
 -1      3813 8.57850E+01 1.56522E+01 0.00000E+00
 -1      3814 8.42850E+01 1.56522E+01 0.00000E+00
 -1      3815 8.35350E+01 1.69512E+01 0.00000E+00
 -1      3816 8.87850E+01 1.56522E+01 0.00000E+00
 -1      3817 8.72850E+01 1.56522E+01 0.00000E+00
 -1      3818 8.65350E+01 1.69512E+01 0.00000E+00
 -1      3819 9.17850E+01 1.56522E+01 0.00000E+00
 -1      3820 9.02850E+01 1.56522E+01 0.00000E+00
 -1      3821 8.95350E+01 1.69512E+01 0.00000E+00
 -1      3822 9.47850E+01 1.56522E+01 0.00000E+00
 -1      3823 9.32850E+01 1.56522E+01 0.00000E+00
 -1      3824 9.25350E+01 1.69512E+01 0.00000E+00
 -1      3825 9.77850E+01 1.56522E+01 0.00000E+00
 -1      3826 9.62850E+01 1.56522E+01 0.00000E+00
 -1      3827 9.55350E+01 1.69512E+01 0.00000E+00
 -1      3828 1.00785E+02 1.56522E+01 0.00000E+00
 -1      3829 9.92850E+01 1.56522E+01 0.00000E+00
 -1      3830 9.85350E+01 1.69512E+01 0.00000E+00
 -1      3831 1.03785E+02 1.56522E+01 0.00000E+00
 -1      3832 1.02285E+02 1.56522E+01 0.00000E+00
 -1      3833 1.01535E+02 1.69512E+01 0.00000E+00
 -1      3834 1.06785E+02 1.56522E+01 0.00000E+00
 -1      3835 1.05285E+02 1.56522E+01 0.00000E+00
 -1      3836 1.04535E+02 1.69512E+01 0.00000E+00
 -1      3837 1.09785E+02 1.56522E+01 0.00000E+00
 -1      3838 1.08285E+02 1.56522E+01 0.00000E+00
 -1      3839 1.07535E+02 1.69512E+01 0.00000E+00
 -1      3840 1.12785E+02 1.56522E+01 0.00000E+00
 -1      3841 1.11285E+02 1.56522E+01 0.00000E+00
 -1      3842 1.10535E+02 1.69512E+01 0.00000E+00
 -1      3843 1.15785E+02 1.56522E+01 0.00000E+00
 -1      3844 1.14285E+02 1.56522E+01 0.00000E+00
 -1      3845 1.13535E+02 1.69512E+01 0.00000E+00
 -1      3846 1.18785E+02 1.56522E+01 0.00000E+00
 -1      3847 1.17285E+02 1.56522E+01 0.00000E+00
 -1      3848 1.16535E+02 1.69512E+01 0.00000E+00
 -1      3849 1.21785E+02 1.56522E+01 0.00000E+00
 -1      3850 1.20285E+02 1.56522E+01 0.00000E+00
 -1      3851 1.19535E+02 1.69512E+01 0.00000E+00
 -1      3852 1.24785E+02 1.56522E+01 0.00000E+00
 -1      3853 1.23285E+02 1.56522E+01 0.00000E+00
 -1      3854 1.22535E+02 1.69512E+01 0.00000E+00
 -1      3855 1.27785E+02 1.56522E+01 0.00000E+00
 -1      3856 1.26285E+02 1.56522E+01 0.00000E+00
 -1      3857 1.25535E+02 1.69512E+01 0.00000E+00
 -1      3858 1.30785E+02 1.56522E+01 0.00000E+00
 -1      3859 1.29285E+02 1.56522E+01 0.00000E+00
 -1      3860 1.28535E+02 1.69512E+01 0.00000E+00
 -1      3861 2.19000E+01 3.31130E+01 0.00000E+00
 -1      3862 2.34000E+01 3.31130E+01 0.00000E+00
 -1      3863 2.41500E+01 3.18140E+01 0.00000E+00
 -1      3864 1.89000E+01 3.31130E+01 0.00000E+00
 -1      3865 2.04000E+01 3.31130E+01 0.00000E+00
 -1      3866 2.11500E+01 3.18140E+01 0.00000E+00
 -1      3867 1.35872E+02 2.15584E+01 0.00000E+00
 -1      3868 1.35872E+02 2.00865E+01 0.00000E+00
 -1      3869 1.34896E+02 1.97814E+01 0.00000E+00
 -1      3870 1.34573E+02 2.22896E+01 0.00000E+00
 -1      3871 1.42890E+01 2.57125E+01 0.00000E+00
 -1      3872 1.42890E+01 2.71844E+01 0.00000E+00
 -1      3873 1.55880E+01 2.49781E+01 0.00000E+00
 -1      3874 1.88028E+01 1.26083E+01 0.00000E+00
 -1      3875 1.74846E+01 1.24585E+01 0.00000E+00
 -1      3876 1.70984E+01 1.34580E+01 0.00000E+00
 -1      3877 1.93152E+01 1.39739E+01 0.00000E+00
 -1      3878 3.65794E+01 3.12133E+01 0.00000E+00
 -1      3879 3.87523E+01 3.56916E+01 0.00000E+00
 -1      3880 6.81777E+01 1.97063E+01 0.00000E+00
 -1      3881 6.88817E+01 2.12574E+01 0.00000E+00
 -1      3882 1.65900E+01 3.27963E+01 0.00000E+00
 -1      3883 1.78800E+01 3.29508E+01 0.00000E+00
 -1      3884 1.86300E+01 3.16518E+01 0.00000E+00
 -1      3885 1.65900E+01 3.13275E+01 0.00000E+00
 -1      3886 1.33113E+02 2.86812E+01 0.00000E+00
 -1      3887 1.33113E+02 2.72188E+01 0.00000E+00
 -1      3888 3.74639E+01 1.45691E+01 0.00000E+00
 -1      3889 1.57890E+01 1.54031E+01 0.00000E+00
 -1      3890 1.42845E+01 2.83632E+01 0.00000E+00
 -1      3891 1.42845E+01 2.98320E+01 0.00000E+00
 -1      3892 1.55745E+01 2.99865E+01 0.00000E+00
 -1      3893 1.55835E+01 2.76288E+01 0.00000E+00
 -1      3894 7.06200E+01 3.39722E+01 0.00000E+00
 -1      3895 7.21200E+01 3.39722E+01 0.00000E+00
 -1      3896 7.28700E+01 3.26732E+01 0.00000E+00
 -1      3897 6.83419E+01 1.57791E+01 0.00000E+00
 -1      3898 3.71428E+01 1.60389E+01 0.00000E+00
 -1      3899 3.50615E+01 2.64626E+01 0.00000E+00
 -1      3900 3.54358E+01 2.48183E+01 0.00000E+00
 -1      3901 6.94384E+01 3.29929E+01 0.00000E+00
 -1      3902 3.51327E+01 2.37983E+01 0.00000E+00
 -1      3903 3.48296E+01 2.27784E+01 0.00000E+00
 -1      3904 3.38643E+01 2.43744E+01 0.00000E+00
 -1      3905 2.49793E+01 1.43151E+01 0.00000E+00
 -1      3906 3.52440E+01 2.11370E+01 0.00000E+00
 -1      3907 3.61421E+01 2.04104E+01 0.00000E+00
 -1      3908 3.52881E+01 1.93450E+01 0.00000E+00
 -1      3909 1.32808E+02 3.40099E+01 0.00000E+00
 -1      3910 1.33495E+02 3.40476E+01 0.00000E+00
 -1      3911 1.32058E+02 3.27109E+01 0.00000E+00
 -1      3912 6.97364E+01 2.22963E+01 0.00000E+00
 -1      3913 7.05911E+01 2.33352E+01 0.00000E+00
 -1      3914 7.03942E+01 2.10625E+01 0.00000E+00
 -1      3915 6.98866E+01 2.66534E+01 0.00000E+00
 -1      3916 7.04871E+01 2.77463E+01 0.00000E+00
 -1      3917 7.05338E+01 2.56620E+01 0.00000E+00
 -1      3918 6.98419E+01 1.57791E+01 0.00000E+00
 -1      3919 1.33579E+02 3.25493E+01 0.00000E+00
 -1      3920 1.68870E+01 2.12938E+01 0.00000E+00
 -1      3921 1.68870E+01 2.27687E+01 0.00000E+00
 -1      3922 6.88441E+01 1.86143E+01 0.00000E+00
 -1      3923 1.34177E+02 1.82213E+01 0.00000E+00
 -1      3924 1.34177E+02 1.67463E+01 0.00000E+00
 -1      3925 1.33296E+02 1.64403E+01 0.00000E+00
 -1      3926 1.31814E+02 2.64781E+01 0.00000E+00
 -1      3927 1.33113E+02 2.57469E+01 0.00000E+00
 -1      3928 1.33113E+02 2.42750E+01 0.00000E+00
 -1      3929 7.02372E+01 3.15685E+01 0.00000E+00
 -1      3930 3.58606E+01 1.65084E+01 0.00000E+00
 -1      3931 3.17850E+01 1.56973E+01 0.00000E+00
 -1      3932 3.02850E+01 1.56973E+01 0.00000E+00
 -1      3933 7.06047E+01 3.05847E+01 0.00000E+00
 -1      3934 7.17374E+01 3.16893E+01 0.00000E+00
 -1      3935 7.32374E+01 3.16893E+01 0.00000E+00
 -1      3936 7.09724E+01 2.97216E+01 0.00000E+00
 -1      3937 1.95749E+01 1.53681E+01 0.00000E+00
 -1      3938 1.84665E+01 1.51101E+01 0.00000E+00
 -1      3939 3.51371E+01 3.09674E+01 0.00000E+00
 -1      3940 7.05919E+01 1.70781E+01 0.00000E+00
 -1      3941 2.10749E+01 1.53681E+01 0.00000E+00
 -1      3942 2.02262E+01 1.65043E+01 0.00000E+00
 -1      3943 2.25749E+01 1.53681E+01 0.00000E+00
 -1      3944 3.46072E+01 2.89821E+01 0.00000E+00
 -1      3945 3.47152E+01 2.79332E+01 0.00000E+00
 -1      3946 1.32481E+02 1.61993E+01 0.00000E+00
 -1      3947 1.31600E+02 1.58932E+01 0.00000E+00
 -1      3948 1.30850E+02 1.71922E+01 0.00000E+00
 -1      3949 1.32481E+02 1.76743E+01 0.00000E+00
 -1      3950 1.33113E+02 3.16156E+01 0.00000E+00
 -1      3951 1.33113E+02 3.01469E+01 0.00000E+00
 -1      3952 3.38211E+01 2.68649E+01 0.00000E+00
 -1      3953 1.31814E+02 2.94156E+01 0.00000E+00
 -1      3954 2.04000E+01 3.05150E+01 0.00000E+00
 -1      3955 2.19000E+01 3.05150E+01 0.00000E+00
 -1      3956 2.56863E+01 1.55345E+01 0.00000E+00
 -1      3957 2.41306E+01 1.54513E+01 0.00000E+00
 -1      3958 2.32820E+01 1.65875E+01 0.00000E+00
 -1      3959 2.64000E+01 3.05150E+01 0.00000E+00
 -1      3960 2.79000E+01 3.05150E+01 0.00000E+00
 -1      3961 2.94000E+01 3.05150E+01 0.00000E+00
 -1      3962 3.09000E+01 3.05150E+01 0.00000E+00
 -1      3963 2.86500E+01 2.92160E+01 0.00000E+00
 -1      3964 7.51200E+01 3.13742E+01 0.00000E+00
 -1      3965 7.66200E+01 3.13742E+01 0.00000E+00
 -1      3966 7.81200E+01 3.13742E+01 0.00000E+00
 -1      3967 7.96200E+01 3.13742E+01 0.00000E+00
 -1      3968 7.73700E+01 3.00752E+01 0.00000E+00
 -1      3969 8.11200E+01 3.13742E+01 0.00000E+00
 -1      3970 8.26200E+01 3.13742E+01 0.00000E+00
 -1      3971 8.03700E+01 3.00752E+01 0.00000E+00
 -1      3972 8.41200E+01 3.13742E+01 0.00000E+00
 -1      3973 8.56200E+01 3.13742E+01 0.00000E+00
 -1      3974 8.33700E+01 3.00752E+01 0.00000E+00
 -1      3975 8.71200E+01 3.13742E+01 0.00000E+00
 -1      3976 8.86200E+01 3.13742E+01 0.00000E+00
 -1      3977 8.63700E+01 3.00752E+01 0.00000E+00
 -1      3978 9.01200E+01 3.13742E+01 0.00000E+00
 -1      3979 9.16200E+01 3.13742E+01 0.00000E+00
 -1      3980 8.93700E+01 3.00752E+01 0.00000E+00
 -1      3981 9.31200E+01 3.13742E+01 0.00000E+00
 -1      3982 9.46200E+01 3.13742E+01 0.00000E+00
 -1      3983 9.23700E+01 3.00752E+01 0.00000E+00
 -1      3984 9.61200E+01 3.13742E+01 0.00000E+00
 -1      3985 9.76200E+01 3.13742E+01 0.00000E+00
 -1      3986 9.53700E+01 3.00752E+01 0.00000E+00
 -1      3987 9.91200E+01 3.13742E+01 0.00000E+00
 -1      3988 1.00620E+02 3.13742E+01 0.00000E+00
 -1      3989 9.83700E+01 3.00752E+01 0.00000E+00
 -1      3990 1.02120E+02 3.13742E+01 0.00000E+00
 -1      3991 1.03620E+02 3.13742E+01 0.00000E+00
 -1      3992 1.01370E+02 3.00752E+01 0.00000E+00
 -1      3993 1.05120E+02 3.13742E+01 0.00000E+00
 -1      3994 1.06620E+02 3.13742E+01 0.00000E+00
 -1      3995 1.04370E+02 3.00752E+01 0.00000E+00
 -1      3996 1.08120E+02 3.13742E+01 0.00000E+00
 -1      3997 1.09620E+02 3.13742E+01 0.00000E+00
 -1      3998 1.07370E+02 3.00752E+01 0.00000E+00
 -1      3999 1.11120E+02 3.13742E+01 0.00000E+00
 -1      4000 1.12620E+02 3.13742E+01 0.00000E+00
 -1      4001 1.10370E+02 3.00752E+01 0.00000E+00
 -1      4002 1.14120E+02 3.13742E+01 0.00000E+00
 -1      4003 1.15620E+02 3.13742E+01 0.00000E+00
 -1      4004 1.13370E+02 3.00752E+01 0.00000E+00
 -1      4005 1.17120E+02 3.13742E+01 0.00000E+00
 -1      4006 1.18620E+02 3.13742E+01 0.00000E+00
 -1      4007 1.16370E+02 3.00752E+01 0.00000E+00
 -1      4008 1.20120E+02 3.13742E+01 0.00000E+00
 -1      4009 1.21620E+02 3.13742E+01 0.00000E+00
 -1      4010 1.19370E+02 3.00752E+01 0.00000E+00
 -1      4011 1.23120E+02 3.13742E+01 0.00000E+00
 -1      4012 1.24620E+02 3.13742E+01 0.00000E+00
 -1      4013 1.22370E+02 3.00752E+01 0.00000E+00
 -1      4014 1.26120E+02 3.13742E+01 0.00000E+00
 -1      4015 1.27620E+02 3.13742E+01 0.00000E+00
 -1      4016 1.25370E+02 3.00752E+01 0.00000E+00
 -1      4017 8.12850E+01 1.82502E+01 0.00000E+00
 -1      4018 7.97850E+01 1.82502E+01 0.00000E+00
 -1      4019 1.68788E+01 1.97954E+01 0.00000E+00
 -1      4020 1.81778E+01 2.05329E+01 0.00000E+00
 -1      4021 7.12873E+01 1.84874E+01 0.00000E+00
 -1      4022 2.87850E+01 1.56973E+01 0.00000E+00
 -1      4023 2.72850E+01 1.56973E+01 0.00000E+00
 -1      4024 2.95350E+01 1.69963E+01 0.00000E+00
 -1      4025 1.81860E+01 2.35031E+01 0.00000E+00
 -1      4026 1.68870E+01 2.42406E+01 0.00000E+00
 -1      4027 1.68870E+01 2.57125E+01 0.00000E+00
 -1      4028 7.52850E+01 1.82502E+01 0.00000E+00
 -1      4029 7.37850E+01 1.82502E+01 0.00000E+00
 -1      4030 8.42850E+01 1.82502E+01 0.00000E+00
 -1      4031 8.27850E+01 1.82502E+01 0.00000E+00
 -1      4032 8.20350E+01 1.95492E+01 0.00000E+00
 -1      4033 1.32280E+02 3.18149E+01 0.00000E+00
 -1      4034 8.72850E+01 1.82502E+01 0.00000E+00
 -1      4035 8.57850E+01 1.82502E+01 0.00000E+00
 -1      4036 8.50350E+01 1.95492E+01 0.00000E+00
 -1      4037 9.02850E+01 1.82502E+01 0.00000E+00
 -1      4038 8.87850E+01 1.82502E+01 0.00000E+00
 -1      4039 8.80350E+01 1.95492E+01 0.00000E+00
 -1      4040 9.32850E+01 1.82502E+01 0.00000E+00
 -1      4041 9.17850E+01 1.82502E+01 0.00000E+00
 -1      4042 9.10350E+01 1.95492E+01 0.00000E+00
 -1      4043 9.62850E+01 1.82502E+01 0.00000E+00
 -1      4044 9.47850E+01 1.82502E+01 0.00000E+00
 -1      4045 9.40350E+01 1.95492E+01 0.00000E+00
 -1      4046 9.92850E+01 1.82502E+01 0.00000E+00
 -1      4047 9.77850E+01 1.82502E+01 0.00000E+00
 -1      4048 9.70350E+01 1.95492E+01 0.00000E+00
 -1      4049 1.02285E+02 1.82502E+01 0.00000E+00
 -1      4050 1.00785E+02 1.82502E+01 0.00000E+00
 -1      4051 1.00035E+02 1.95492E+01 0.00000E+00
 -1      4052 1.05285E+02 1.82502E+01 0.00000E+00
 -1      4053 1.03785E+02 1.82502E+01 0.00000E+00
 -1      4054 1.03035E+02 1.95492E+01 0.00000E+00
 -1      4055 1.08285E+02 1.82502E+01 0.00000E+00
 -1      4056 1.06785E+02 1.82502E+01 0.00000E+00
 -1      4057 1.06035E+02 1.95492E+01 0.00000E+00
 -1      4058 1.11285E+02 1.82502E+01 0.00000E+00
 -1      4059 1.09785E+02 1.82502E+01 0.00000E+00
 -1      4060 1.09035E+02 1.95492E+01 0.00000E+00
 -1      4061 1.14285E+02 1.82502E+01 0.00000E+00
 -1      4062 1.12785E+02 1.82502E+01 0.00000E+00
 -1      4063 1.12035E+02 1.95492E+01 0.00000E+00
 -1      4064 1.17285E+02 1.82502E+01 0.00000E+00
 -1      4065 1.15785E+02 1.82502E+01 0.00000E+00
 -1      4066 1.15035E+02 1.95492E+01 0.00000E+00
 -1      4067 1.20285E+02 1.82502E+01 0.00000E+00
 -1      4068 1.18785E+02 1.82502E+01 0.00000E+00
 -1      4069 1.18035E+02 1.95492E+01 0.00000E+00
 -1      4070 1.23285E+02 1.82502E+01 0.00000E+00
 -1      4071 1.21785E+02 1.82502E+01 0.00000E+00
 -1      4072 1.21035E+02 1.95492E+01 0.00000E+00
 -1      4073 1.26285E+02 1.82502E+01 0.00000E+00
 -1      4074 1.24785E+02 1.82502E+01 0.00000E+00
 -1      4075 1.24035E+02 1.95492E+01 0.00000E+00
 -1      4076 1.29285E+02 1.82502E+01 0.00000E+00
 -1      4077 1.27785E+02 1.82502E+01 0.00000E+00
 -1      4078 1.27035E+02 1.95492E+01 0.00000E+00
 -1      4079 2.34000E+01 3.05150E+01 0.00000E+00
 -1      4080 2.49000E+01 3.05150E+01 0.00000E+00
 -1      4081 2.56500E+01 2.92160E+01 0.00000E+00
 -1      4082 1.68974E+01 1.56611E+01 0.00000E+00
 -1      4083 3.32850E+01 1.56973E+01 0.00000E+00
 -1      4084 3.25350E+01 1.69963E+01 0.00000E+00
 -1      4085 3.35485E+01 3.11904E+01 0.00000E+00
 -1      4086 3.41510E+01 2.98517E+01 0.00000E+00
 -1      4087 3.30186E+01 2.92052E+01 0.00000E+00
 -1      4088 3.21062E+01 3.09444E+01 0.00000E+00
 -1      4089 3.32849E+01 1.82953E+01 0.00000E+00
 -1      4090 3.17850E+01 1.82953E+01 0.00000E+00
 -1      4091 7.82850E+01 1.82502E+01 0.00000E+00
 -1      4092 7.67850E+01 1.82502E+01 0.00000E+00
 -1      4093 7.90350E+01 1.95492E+01 0.00000E+00
 -1      4094 1.68788E+01 1.83204E+01 0.00000E+00
 -1      4095 1.30515E+02 3.01484E+01 0.00000E+00
 -1      4096 1.30515E+02 2.86828E+01 0.00000E+00
 -1      4097 3.47850E+01 1.56973E+01 0.00000E+00
 -1      4098 3.23835E+01 2.73025E+01 0.00000E+00
 -1      4099 3.27298E+01 2.58319E+01 0.00000E+00
 -1      4100 3.51106E+01 1.78074E+01 0.00000E+00
 -1      4101 1.31592E+02 3.17772E+01 0.00000E+00
 -1      4102 1.94727E+01 1.97766E+01 0.00000E+00
 -1      4103 1.94809E+01 2.12750E+01 0.00000E+00
 -1      4104 7.20373E+01 1.97864E+01 0.00000E+00
 -1      4105 3.42124E+01 1.85339E+01 0.00000E+00
 -1      4106 3.39756E+01 2.17130E+01 0.00000E+00
 -1      4107 1.71571E+01 1.70553E+01 0.00000E+00
 -1      4108 3.13562E+01 2.96454E+01 0.00000E+00
 -1      4109 2.07758E+01 2.19906E+01 0.00000E+00
 -1      4110 1.94809E+01 2.27469E+01 0.00000E+00
 -1      4111 1.94809E+01 2.42187E+01 0.00000E+00
 -1      4112 7.39874E+01 3.03903E+01 0.00000E+00
 -1      4113 3.10349E+01 1.95943E+01 0.00000E+00
 -1      4114 3.02850E+01 1.82953E+01 0.00000E+00
 -1      4115 2.87850E+01 1.82953E+01 0.00000E+00
 -1      4116 1.28043E+02 2.97454E+01 0.00000E+00
 -1      4117 1.28793E+02 3.10444E+01 0.00000E+00
 -1      4118 7.11916E+01 2.44281E+01 0.00000E+00
 -1      4119 7.17921E+01 2.55210E+01 0.00000E+00
 -1      4120 7.18494E+01 2.31943E+01 0.00000E+00
 -1      4121 1.30293E+02 3.10444E+01 0.00000E+00
 -1      4122 3.24267E+01 2.48119E+01 0.00000E+00
 -1      4123 3.21236E+01 2.37920E+01 0.00000E+00
 -1      4124 3.09892E+01 2.52495E+01 0.00000E+00
 -1      4125 1.34015E+02 1.94754E+01 0.00000E+00
 -1      4126 1.33135E+02 1.91694E+01 0.00000E+00
 -1      4127 1.33854E+02 2.07295E+01 0.00000E+00
 -1      4128 1.30515E+02 2.72109E+01 0.00000E+00
 -1      4129 1.30515E+02 2.57391E+01 0.00000E+00
 -1      4130 1.29216E+02 2.79438E+01 0.00000E+00
 -1      4131 7.60350E+01 1.95492E+01 0.00000E+00
 -1      4132 1.30100E+02 1.84912E+01 0.00000E+00
 -1      4133 1.29350E+02 1.97902E+01 0.00000E+00
 -1      4134 1.30916E+02 1.87322E+01 0.00000E+00
 -1      4135 2.26500E+01 2.92160E+01 0.00000E+00
 -1      4136 1.33403E+02 2.31293E+01 0.00000E+00
 -1      4137 1.33564E+02 2.18752E+01 0.00000E+00
 -1      4138 1.32684E+02 2.15692E+01 0.00000E+00
 -1      4139 1.32104E+02 2.38606E+01 0.00000E+00
 -1      4140 7.16710E+01 2.85764E+01 0.00000E+00
 -1      4141 7.28035E+01 2.95602E+01 0.00000E+00
 -1      4142 7.46860E+01 2.92451E+01 0.00000E+00
 -1      4143 7.23182E+01 2.75849E+01 0.00000E+00
 -1      4144 3.18124E+01 2.87758E+01 0.00000E+00
 -1      4145 1.81815E+01 2.61538E+01 0.00000E+00
 -1      4146 1.68825E+01 2.68913E+01 0.00000E+00
 -1      4147 1.68780E+01 2.80702E+01 0.00000E+00
 -1      4148 2.64363E+01 1.68335E+01 0.00000E+00
 -1      4149 1.65945E+01 3.01487E+01 0.00000E+00
 -1      4150 1.89135E+01 2.95733E+01 0.00000E+00
 -1      4151 1.96635E+01 2.82743E+01 0.00000E+00
 -1      4152 1.84480E+01 1.77694E+01 0.00000E+00
 -1      4153 3.34624E+01 1.98329E+01 0.00000E+00
 -1      4154 3.07211E+01 2.77427E+01 0.00000E+00
 -1      4155 1.99886E+01 1.75079E+01 0.00000E+00
 -1      4156 1.97104E+01 1.87730E+01 0.00000E+00
 -1      4157 2.10134E+01 1.95151E+01 0.00000E+00
 -1      4158 2.14886E+01 1.75079E+01 0.00000E+00
 -1      4159 2.46001E+01 1.76743E+01 0.00000E+00
 -1      4160 2.30444E+01 1.75911E+01 0.00000E+00
 -1      4161 2.28068E+01 1.85947E+01 0.00000E+00
 -1      4162 1.26870E+02 2.86033E+01 0.00000E+00
 -1      4163 1.28043E+02 2.82735E+01 0.00000E+00
 -1      4164 1.28043E+02 2.68016E+01 0.00000E+00
 -1      4165 7.28920E+01 2.08253E+01 0.00000E+00
 -1      4166 7.96200E+01 2.87762E+01 0.00000E+00
 -1      4167 8.11200E+01 2.87762E+01 0.00000E+00
 -1      4168 8.26200E+01 2.87762E+01 0.00000E+00
 -1      4169 8.41200E+01 2.87762E+01 0.00000E+00
 -1      4170 8.18700E+01 2.74772E+01 0.00000E+00
 -1      4171 8.56200E+01 2.87762E+01 0.00000E+00
 -1      4172 8.71200E+01 2.87762E+01 0.00000E+00
 -1      4173 8.48700E+01 2.74772E+01 0.00000E+00
 -1      4174 8.86200E+01 2.87762E+01 0.00000E+00
 -1      4175 9.01200E+01 2.87762E+01 0.00000E+00
 -1      4176 8.78700E+01 2.74772E+01 0.00000E+00
 -1      4177 9.16200E+01 2.87762E+01 0.00000E+00
 -1      4178 9.31200E+01 2.87762E+01 0.00000E+00
 -1      4179 9.08700E+01 2.74772E+01 0.00000E+00
 -1      4180 9.46200E+01 2.87762E+01 0.00000E+00
 -1      4181 9.61200E+01 2.87762E+01 0.00000E+00
 -1      4182 9.38700E+01 2.74772E+01 0.00000E+00
 -1      4183 9.76200E+01 2.87762E+01 0.00000E+00
 -1      4184 9.91200E+01 2.87762E+01 0.00000E+00
 -1      4185 9.68700E+01 2.74772E+01 0.00000E+00
 -1      4186 1.00620E+02 2.87762E+01 0.00000E+00
 -1      4187 1.02120E+02 2.87762E+01 0.00000E+00
 -1      4188 9.98700E+01 2.74772E+01 0.00000E+00
 -1      4189 1.03620E+02 2.87762E+01 0.00000E+00
 -1      4190 1.05120E+02 2.87762E+01 0.00000E+00
 -1      4191 1.02870E+02 2.74772E+01 0.00000E+00
 -1      4192 1.06620E+02 2.87762E+01 0.00000E+00
 -1      4193 1.08120E+02 2.87762E+01 0.00000E+00
 -1      4194 1.05870E+02 2.74772E+01 0.00000E+00
 -1      4195 1.09620E+02 2.87762E+01 0.00000E+00
 -1      4196 1.11120E+02 2.87762E+01 0.00000E+00
 -1      4197 1.08870E+02 2.74772E+01 0.00000E+00
 -1      4198 1.12620E+02 2.87762E+01 0.00000E+00
 -1      4199 1.14120E+02 2.87762E+01 0.00000E+00
 -1      4200 1.11870E+02 2.74772E+01 0.00000E+00
 -1      4201 1.15620E+02 2.87762E+01 0.00000E+00
 -1      4202 1.17120E+02 2.87762E+01 0.00000E+00
 -1      4203 1.14870E+02 2.74772E+01 0.00000E+00
 -1      4204 1.18620E+02 2.87762E+01 0.00000E+00
 -1      4205 1.20120E+02 2.87762E+01 0.00000E+00
 -1      4206 1.17870E+02 2.74772E+01 0.00000E+00
 -1      4207 1.21620E+02 2.87762E+01 0.00000E+00
 -1      4208 1.23120E+02 2.87762E+01 0.00000E+00
 -1      4209 1.20870E+02 2.74772E+01 0.00000E+00
 -1      4210 1.24245E+02 2.86897E+01 0.00000E+00
 -1      4211 1.25745E+02 2.86897E+01 0.00000E+00
 -1      4212 1.25745E+02 2.72178E+01 0.00000E+00
 -1      4213 1.23495E+02 2.73907E+01 0.00000E+00
 -1      4214 7.47637E+01 2.07337E+01 0.00000E+00
 -1      4215 7.31207E+01 2.20098E+01 0.00000E+00
 -1      4216 7.37212E+01 2.31027E+01 0.00000E+00
 -1      4217 7.62637E+01 2.07337E+01 0.00000E+00
 -1      4218 8.27850E+01 2.08482E+01 0.00000E+00
 -1      4219 8.12850E+01 2.08482E+01 0.00000E+00
 -1      4220 9.17850E+01 2.08482E+01 0.00000E+00
 -1      4221 9.02850E+01 2.08482E+01 0.00000E+00
 -1      4222 9.47850E+01 2.08482E+01 0.00000E+00
 -1      4223 9.32850E+01 2.08482E+01 0.00000E+00
 -1      4224 9.25350E+01 2.21472E+01 0.00000E+00
 -1      4225 9.77850E+01 2.08482E+01 0.00000E+00
 -1      4226 9.62850E+01 2.08482E+01 0.00000E+00
 -1      4227 9.55350E+01 2.21472E+01 0.00000E+00
 -1      4228 1.00785E+02 2.08482E+01 0.00000E+00
 -1      4229 9.92850E+01 2.08482E+01 0.00000E+00
 -1      4230 9.85350E+01 2.21472E+01 0.00000E+00
 -1      4231 1.03785E+02 2.08482E+01 0.00000E+00
 -1      4232 1.02285E+02 2.08482E+01 0.00000E+00
 -1      4233 1.01535E+02 2.21472E+01 0.00000E+00
 -1      4234 1.06785E+02 2.08482E+01 0.00000E+00
 -1      4235 1.05285E+02 2.08482E+01 0.00000E+00
 -1      4236 1.04535E+02 2.21472E+01 0.00000E+00
 -1      4237 1.09785E+02 2.08482E+01 0.00000E+00
 -1      4238 1.08285E+02 2.08482E+01 0.00000E+00
 -1      4239 1.07535E+02 2.21472E+01 0.00000E+00
 -1      4240 1.12785E+02 2.08482E+01 0.00000E+00
 -1      4241 1.11285E+02 2.08482E+01 0.00000E+00
 -1      4242 1.10535E+02 2.21472E+01 0.00000E+00
 -1      4243 1.15785E+02 2.08482E+01 0.00000E+00
 -1      4244 1.14285E+02 2.08482E+01 0.00000E+00
 -1      4245 1.13535E+02 2.21472E+01 0.00000E+00
 -1      4246 1.18785E+02 2.08482E+01 0.00000E+00
 -1      4247 1.17285E+02 2.08482E+01 0.00000E+00
 -1      4248 1.16535E+02 2.21472E+01 0.00000E+00
 -1      4249 1.21785E+02 2.08482E+01 0.00000E+00
 -1      4250 1.20285E+02 2.08482E+01 0.00000E+00
 -1      4251 1.19535E+02 2.21472E+01 0.00000E+00
 -1      4252 1.24785E+02 2.08482E+01 0.00000E+00
 -1      4253 1.23285E+02 2.08482E+01 0.00000E+00
 -1      4254 1.22535E+02 2.21472E+01 0.00000E+00
 -1      4255 1.27785E+02 2.08482E+01 0.00000E+00
 -1      4256 1.26285E+02 2.08482E+01 0.00000E+00
 -1      4257 1.25535E+02 2.21472E+01 0.00000E+00
 -1      4258 2.49000E+01 2.79170E+01 0.00000E+00
 -1      4259 2.64000E+01 2.79170E+01 0.00000E+00
 -1      4260 8.57850E+01 2.08482E+01 0.00000E+00
 -1      4261 8.42850E+01 2.08482E+01 0.00000E+00
 -1      4262 8.35350E+01 2.21472E+01 0.00000E+00
 -1      4263 1.94764E+01 2.53976E+01 0.00000E+00
 -1      4264 1.94719E+01 2.65764E+01 0.00000E+00
 -1      4265 2.07713E+01 2.46413E+01 0.00000E+00
 -1      4266 7.97850E+01 2.08482E+01 0.00000E+00
 -1      4267 7.82850E+01 2.08482E+01 0.00000E+00
 -1      4268 8.05350E+01 2.21472E+01 0.00000E+00
 -1      4269 8.87850E+01 2.08482E+01 0.00000E+00
 -1      4270 8.72850E+01 2.08482E+01 0.00000E+00
 -1      4271 8.95350E+01 2.21472E+01 0.00000E+00
 -1      4272 7.66200E+01 2.87762E+01 0.00000E+00
 -1      4273 7.81200E+01 2.87762E+01 0.00000E+00
 -1      4274 7.88700E+01 2.74772E+01 0.00000E+00
 -1      4275 1.76145E+01 3.03108E+01 0.00000E+00
 -1      4276 3.25858E+01 2.26332E+01 0.00000E+00
 -1      4277 3.30002E+01 2.09917E+01 0.00000E+00
 -1      4278 3.20727E+01 2.07531E+01 0.00000E+00
 -1      4279 3.11483E+01 2.30708E+01 0.00000E+00
 -1      4280 2.74919E+01 1.80662E+01 0.00000E+00
 -1      4281 2.58932E+01 1.79034E+01 0.00000E+00
 -1      4282 2.56556E+01 1.89070E+01 0.00000E+00
 -1      4283 2.82418E+01 1.93652E+01 0.00000E+00
 -1      4284 2.78106E+01 2.78299E+01 0.00000E+00
 -1      4285 2.93106E+01 2.78299E+01 0.00000E+00
 -1      4286 2.98817E+01 2.63566E+01 0.00000E+00
 -1      4287 2.70606E+01 2.65309E+01 0.00000E+00
 -1      4288 2.09584E+01 2.75181E+01 0.00000E+00
 -1      4289 7.70137E+01 2.20327E+01 0.00000E+00
 -1      4290 2.20748E+01 2.12547E+01 0.00000E+00
 -1      4291 2.20748E+01 2.27265E+01 0.00000E+00
 -1      4292 3.05727E+01 2.07531E+01 0.00000E+00
 -1      4293 7.36338E+01 2.51172E+01 0.00000E+00
 -1      4294 7.29760E+01 2.63511E+01 0.00000E+00
 -1      4295 7.41599E+01 2.71812E+01 0.00000E+00
 -1      4296 2.95786E+01 2.53367E+01 0.00000E+00
 -1      4297 2.24584E+01 2.75181E+01 0.00000E+00
 -1      4298 1.28600E+02 2.10892E+01 0.00000E+00
 -1      4299 1.27850E+02 2.23882E+01 0.00000E+00
 -1      4300 1.29416E+02 2.13302E+01 0.00000E+00
 -1      4301 2.32084E+01 2.62191E+01 0.00000E+00
 -1      4302 1.30805E+02 2.45934E+01 0.00000E+00
 -1      4303 1.31095E+02 2.34477E+01 0.00000E+00
 -1      4304 1.29506E+02 2.53262E+01 0.00000E+00
 -1      4305 7.54360E+01 2.79461E+01 0.00000E+00
 -1      4306 8.65350E+01 2.21472E+01 0.00000E+00
 -1      4307 1.32320E+02 1.89284E+01 0.00000E+00
 -1      4308 1.31570E+02 2.02274E+01 0.00000E+00
 -1      4309 2.25596E+01 1.94229E+01 0.00000E+00
 -1      4310 2.23220E+01 2.04265E+01 0.00000E+00
 -1      4311 2.36210E+01 2.11624E+01 0.00000E+00
 -1      4312 2.41153E+01 1.95061E+01 0.00000E+00
 -1      4313 3.01105E+01 2.19119E+01 0.00000E+00
 -1      4314 2.90727E+01 2.07531E+01 0.00000E+00
 -1      4315 2.96483E+01 2.30708E+01 0.00000E+00
 -1      4316 7.79509E+01 2.33869E+01 0.00000E+00
 -1      4317 7.59296E+01 2.32724E+01 0.00000E+00
 -1      4318 8.11200E+01 2.61782E+01 0.00000E+00
 -1      4319 8.26200E+01 2.61782E+01 0.00000E+00
 -1      4320 8.41200E+01 2.61782E+01 0.00000E+00
 -1      4321 8.56200E+01 2.61782E+01 0.00000E+00
 -1      4322 8.33700E+01 2.48792E+01 0.00000E+00
 -1      4323 8.71200E+01 2.61782E+01 0.00000E+00
 -1      4324 8.86200E+01 2.61782E+01 0.00000E+00
 -1      4325 8.63700E+01 2.48792E+01 0.00000E+00
 -1      4326 9.01200E+01 2.61782E+01 0.00000E+00
 -1      4327 9.16200E+01 2.61782E+01 0.00000E+00
 -1      4328 8.93700E+01 2.48792E+01 0.00000E+00
 -1      4329 9.31200E+01 2.61782E+01 0.00000E+00
 -1      4330 9.46200E+01 2.61782E+01 0.00000E+00
 -1      4331 9.23700E+01 2.48792E+01 0.00000E+00
 -1      4332 9.61200E+01 2.61782E+01 0.00000E+00
 -1      4333 9.76200E+01 2.61782E+01 0.00000E+00
 -1      4334 9.53700E+01 2.48792E+01 0.00000E+00
 -1      4335 9.91200E+01 2.61782E+01 0.00000E+00
 -1      4336 1.00620E+02 2.61782E+01 0.00000E+00
 -1      4337 9.83700E+01 2.48792E+01 0.00000E+00
 -1      4338 1.02120E+02 2.61782E+01 0.00000E+00
 -1      4339 1.03620E+02 2.61782E+01 0.00000E+00
 -1      4340 1.01370E+02 2.48792E+01 0.00000E+00
 -1      4341 1.05120E+02 2.61782E+01 0.00000E+00
 -1      4342 1.06620E+02 2.61782E+01 0.00000E+00
 -1      4343 1.04370E+02 2.48792E+01 0.00000E+00
 -1      4344 1.08120E+02 2.61782E+01 0.00000E+00
 -1      4345 1.09620E+02 2.61782E+01 0.00000E+00
 -1      4346 1.07370E+02 2.48792E+01 0.00000E+00
 -1      4347 1.11120E+02 2.61782E+01 0.00000E+00
 -1      4348 1.12620E+02 2.61782E+01 0.00000E+00
 -1      4349 1.10370E+02 2.48792E+01 0.00000E+00
 -1      4350 1.14120E+02 2.61782E+01 0.00000E+00
 -1      4351 1.15620E+02 2.61782E+01 0.00000E+00
 -1      4352 1.13370E+02 2.48792E+01 0.00000E+00
 -1      4353 1.17120E+02 2.61782E+01 0.00000E+00
 -1      4354 1.18620E+02 2.61782E+01 0.00000E+00
 -1      4355 1.16370E+02 2.48792E+01 0.00000E+00
 -1      4356 1.20120E+02 2.61782E+01 0.00000E+00
 -1      4357 1.21620E+02 2.61782E+01 0.00000E+00
 -1      4358 1.19370E+02 2.48792E+01 0.00000E+00
 -1      4359 9.99525E+01 2.35132E+01 0.00000E+00
 -1      4360 9.84525E+01 2.35132E+01 0.00000E+00
 -1      4361 2.62752E+01 2.52779E+01 0.00000E+00
 -1      4362 2.76857E+01 2.51908E+01 0.00000E+00
 -1      4363 7.49051E+01 2.39327E+01 0.00000E+00
 -1      4364 2.87932E+01 2.40837E+01 0.00000E+00
 -1      4365 9.69525E+01 2.35132E+01 0.00000E+00
 -1      4366 9.54525E+01 2.35132E+01 0.00000E+00
 -1      4367 7.71184E+01 2.60518E+01 0.00000E+00
 -1      4368 7.86184E+01 2.60518E+01 0.00000E+00
 -1      4369 9.39525E+01 2.35132E+01 0.00000E+00
 -1      4370 9.24525E+01 2.35132E+01 0.00000E+00
 -1      4371 1.02952E+02 2.35132E+01 0.00000E+00
 -1      4372 1.01452E+02 2.35132E+01 0.00000E+00
 -1      4373 1.05952E+02 2.35132E+01 0.00000E+00
 -1      4374 1.04452E+02 2.35132E+01 0.00000E+00
 -1      4375 1.08952E+02 2.35132E+01 0.00000E+00
 -1      4376 1.07452E+02 2.35132E+01 0.00000E+00
 -1      4377 1.11952E+02 2.35132E+01 0.00000E+00
 -1      4378 1.10452E+02 2.35132E+01 0.00000E+00
 -1      4379 1.14952E+02 2.35132E+01 0.00000E+00
 -1      4380 1.13452E+02 2.35132E+01 0.00000E+00
 -1      4381 1.17952E+02 2.35132E+01 0.00000E+00
 -1      4382 1.16452E+02 2.35132E+01 0.00000E+00
 -1      4383 1.20952E+02 2.35132E+01 0.00000E+00
 -1      4384 1.19452E+02 2.35132E+01 0.00000E+00
 -1      4385 1.22452E+02 2.35132E+01 0.00000E+00
 -1      4386 1.26285E+02 2.34462E+01 0.00000E+00
 -1      4387 1.24785E+02 2.34462E+01 0.00000E+00
 -1      4388 8.49525E+01 2.35132E+01 0.00000E+00
 -1      4389 8.34525E+01 2.35132E+01 0.00000E+00
 -1      4390 1.31280E+02 2.13731E+01 0.00000E+00
 -1      4391 8.19525E+01 2.35132E+01 0.00000E+00
 -1      4392 8.04525E+01 2.35132E+01 0.00000E+00
 -1      4393 9.09525E+01 2.35132E+01 0.00000E+00
 -1      4394 8.94525E+01 2.35132E+01 0.00000E+00
 -1      4395 2.23024E+01 2.47602E+01 0.00000E+00
 -1      4396 2.47440E+01 2.51591E+01 0.00000E+00
 -1      4397 2.53692E+01 2.38190E+01 0.00000E+00
 -1      4398 2.23069E+01 2.35813E+01 0.00000E+00
 -1      4399 8.79525E+01 2.35132E+01 0.00000E+00
 -1      4400 8.64525E+01 2.35132E+01 0.00000E+00
 -1      4401 2.77554E+01 2.29249E+01 0.00000E+00
 -1      4402 7.93684E+01 2.47528E+01 0.00000E+00
 -1      4403 1.23202E+02 2.48122E+01 0.00000E+00
 -1      4404 1.23952E+02 2.61112E+01 0.00000E+00
 -1      4405 2.77796E+01 2.05240E+01 0.00000E+00
 -1      4406 7.58422E+01 2.52869E+01 0.00000E+00
 -1      4407 7.60938E+01 2.67122E+01 0.00000E+00
 -1      4408 2.36059E+01 2.28454E+01 0.00000E+00
 -1      4409 1.27376E+02 2.56085E+01 0.00000E+00
 -1      4410 1.27665E+02 2.44629E+01 0.00000E+00
 -1      4411 1.30530E+02 2.26721E+01 0.00000E+00
 -1      4412 2.43790E+01 2.20633E+01 0.00000E+00
 -1      4413 2.46112E+01 2.29181E+01 0.00000E+00
 -1      4414 2.61423E+01 2.30369E+01 0.00000E+00
 -1      4415 2.46262E+01 2.12351E+01 0.00000E+00
 -1      4416 2.65940E+01 2.01296E+01 0.00000E+00
 -1      4417 2.53009E+01 1.99005E+01 0.00000E+00
 -1      4418 2.50537E+01 2.07287E+01 0.00000E+00
 -1      4419 2.74249E+01 2.15175E+01 0.00000E+00
 -1      4420 1.26202E+02 2.59383E+01 0.00000E+00
 -1      4421 1.25077E+02 2.60247E+01 0.00000E+00
 -1      4422 1.28415E+02 2.31639E+01 0.00000E+00
 -1      4423 2.65698E+01 2.25304E+01 0.00000E+00
 -1      4424 2.58118E+01 2.16296E+01 0.00000E+00
 -1      4425 1.29231E+02 2.34049E+01 0.00000E+00
 -3
    3C                          2131                                     1
 -1       164    8    0    1
 -2         6         7        23      1148      1311      1165
 -1       165    8    0    1
 -2         7         8       164      1149      1312      1313
 -1       166    8    0    1
 -2         8         9       165      1150      1314      1315
 -1       167    8    0    1
 -2         8       165       164      1315      1316      1312
 -1       168    8    0    1
 -2         9        10       166      1151      1317      1318
 -1       169    8    0    1
 -2         9       166       165      1318      1319      1314
 -1       170    8    0    1
 -2        10        11       167      1152      1320      1321
 -1       171    8    0    1
 -2        10       167       166      1321      1322      1317
 -1       172    8    0    1
 -2        11        12       168      1153      1323      1324
 -1       173    8    0    1
 -2        11       168       167      1324      1325      1320
 -1       174    8    0    1
 -2        12        13       169      1154      1326      1327
 -1       175    8    0    1
 -2        12       169       168      1327      1328      1323
 -1       176    8    0    1
 -2        13        14       170      1155      1329      1330
 -1       177    8    0    1
 -2        13       170       169      1330      1331      1326
 -1       178    8    0    1
 -2        14        15       171      1156      1332      1333
 -1       179    8    0    1
 -2        14       171       170      1333      1334      1329
 -1       180    8    0    1
 -2        15        16       172      1157      1335      1336
 -1       181    8    0    1
 -2        15       172       171      1336      1337      1332
 -1       182    8    0    1
 -2        16        17       173      1158      1338      1339
 -1       183    8    0    1
 -2        16       173       172      1339      1340      1335
 -1       184    8    0    1
 -2        17        18       174      1159      1341      1342
 -1       185    8    0    1
 -2        17       174       173      1342      1343      1338
 -1       186    8    0    1
 -2        18        19       175      1160      1344      1345
 -1       187    8    0    1
 -2        18       175       174      1345      1346      1341
 -1       188    8    0    1
 -2        19        20       176      1161      1347      1348
 -1       189    8    0    1
 -2        19       176       175      1348      1349      1344
 -1       190    8    0    1
 -2        20        21       177      1162      1350      1351
 -1       191    8    0    1
 -2        20       177       176      1351      1352      1347
 -1       192    8    0    1
 -2        21        22       178      1163      1353      1354
 -1       193    8    0    1
 -2        21       178       177      1354      1355      1350
 -1       194    8    0    1
 -2        22         5       179      1164      1356      1357
 -1       195    8    0    1
 -2       178        22       179      1353      1357      1358
 -1       196    8    0    1
 -2         5        72       179      1215      1359      1356
 -1       197    8    0    1
 -2        24        23       180      1166      1360      1361
 -1       198    8    0    1
 -2        25        24       181      1167      1362      1363
 -1       199    8    0    1
 -2        24       180       181      1361      1364      1362
 -1       200    8    0    1
 -2        26        25       182      1168      1365      1366
 -1       201    8    0    1
 -2        25       181       182      1363      1367      1365
 -1       202    8    0    1
 -2        27        26       183      1169      1368      1369
 -1       203    8    0    1
 -2        26       182       183      1366      1370      1368
 -1       204    8    0    1
 -2        28        27       184      1170      1371      1372
 -1       205    8    0    1
 -2        27       183       184      1369      1373      1371
 -1       206    8    0    1
 -2        29        28       185      1171      1374      1375
 -1       207    8    0    1
 -2        28       184       185      1372      1376      1374
 -1       208    8    0    1
 -2        30        29       186      1172      1377      1378
 -1       209    8    0    1
 -2        29       185       186      1375      1379      1377
 -1       210    8    0    1
 -2        31        30       187      1173      1380      1381
 -1       211    8    0    1
 -2        30       186       187      1378      1382      1380
 -1       212    8    0    1
 -2        32        31       188      1174      1383      1384
 -1       213    8    0    1
 -2        31       187       188      1381      1385      1383
 -1       214    8    0    1
 -2        33        32       189      1175      1386      1387
 -1       215    8    0    1
 -2        32       188       189      1384      1388      1386
 -1       216    8    0    1
 -2        34        33       190      1176      1389      1390
 -1       217    8    0    1
 -2        33       189       190      1387      1391      1389
 -1       218    8    0    1
 -2        35        34       191      1177      1392      1393
 -1       219    8    0    1
 -2        34       190       191      1390      1394      1392
 -1       220    8    0    1
 -2        36        35       192      1178      1395      1396
 -1       221    8    0    1
 -2        35       191       192      1393      1397      1395
 -1       222    8    0    1
 -2        37        36       193      1179      1398      1399
 -1       223    8    0    1
 -2        36       192       193      1396      1400      1398
 -1       224    8    0    1
 -2        38        37       194      1180      1401      1402
 -1       225    8    0    1
 -2        37       193       194      1399      1403      1401
 -1       226    8    0    1
 -2        39        38       195      1181      1404      1405
 -1       227    8    0    1
 -2        38       194       195      1402      1406      1404
 -1       228    8    0    1
 -2        40        39       196      1182      1407      1408
 -1       229    8    0    1
 -2        39       195       196      1405      1409      1407
 -1       230    8    0    1
 -2        41        40       197      1183      1410      1411
 -1       231    8    0    1
 -2        40       196       197      1408      1412      1410
 -1       232    8    0    1
 -2        42        41       198      1184      1413      1414
 -1       233    8    0    1
 -2        41       197       198      1411      1415      1413
 -1       234    8    0    1
 -2        43        42       199      1185      1416      1417
 -1       235    8    0    1
 -2        42       198       199      1414      1418      1416
 -1       236    8    0    1
 -2        44        43       200      1186      1419      1420
 -1       237    8    0    1
 -2        43       199       200      1417      1421      1419
 -1       238    8    0    1
 -2        45        44       201      1187      1422      1423
 -1       239    8    0    1
 -2        44       200       201      1420      1424      1422
 -1       240    8    0    1
 -2        46        45       202      1188      1425      1426
 -1       241    8    0    1
 -2        45       201       202      1423      1427      1425
 -1       242    8    0    1
 -2        47        46       203      1189      1428      1429
 -1       243    8    0    1
 -2        46       202       203      1426      1430      1428
 -1       244    8    0    1
 -2        48        47       204      1190      1431      1432
 -1       245    8    0    1
 -2        47       203       204      1429      1433      1431
 -1       246    8    0    1
 -2        49        48       205      1191      1434      1435
 -1       247    8    0    1
 -2        48       204       205      1432      1436      1434
 -1       248    8    0    1
 -2        50        49       206      1192      1437      1438
 -1       249    8    0    1
 -2        49       205       206      1435      1439      1437
 -1       250    8    0    1
 -2        51        50       207      1193      1440      1441
 -1       251    8    0    1
 -2        50       206       207      1438      1442      1440
 -1       252    8    0    1
 -2        52        51       208      1194      1443      1444
 -1       253    8    0    1
 -2        51       207       208      1441      1445      1443
 -1       254    8    0    1
 -2        53        52       209      1195      1446      1447
 -1       255    8    0    1
 -2        52       208       209      1444      1448      1446
 -1       256    8    0    1
 -2        54        53       210      1196      1449      1450
 -1       257    8    0    1
 -2        53       209       210      1447      1451      1449
 -1       258    8    0    1
 -2        55        54       211      1197      1452      1453
 -1       259    8    0    1
 -2        54       210       211      1450      1454      1452
 -1       260    8    0    1
 -2        56        55       212      1198      1455      1456
 -1       261    8    0    1
 -2        55       211       212      1453      1457      1455
 -1       262    8    0    1
 -2        57        56       213      1199      1458      1459
 -1       263    8    0    1
 -2        56       212       213      1456      1460      1458
 -1       264    8    0    1
 -2        58        57       214      1200      1461      1462
 -1       265    8    0    1
 -2        57       213       214      1459      1463      1461
 -1       266    8    0    1
 -2        59        58       215      1201      1464      1465
 -1       267    8    0    1
 -2        58       214       215      1462      1466      1464
 -1       268    8    0    1
 -2        60        59       216      1202      1467      1468
 -1       269    8    0    1
 -2        59       215       216      1465      1469      1467
 -1       270    8    0    1
 -2        61        60       217      1203      1470      1471
 -1       271    8    0    1
 -2        60       216       217      1468      1472      1470
 -1       272    8    0    1
 -2        62        61       218      1204      1473      1474
 -1       273    8    0    1
 -2        61       217       218      1471      1475      1473
 -1       274    8    0    1
 -2        63        62       219      1205      1476      1477
 -1       275    8    0    1
 -2        62       218       219      1474      1478      1476
 -1       276    8    0    1
 -2        64        63       220      1206      1479      1480
 -1       277    8    0    1
 -2        63       219       220      1477      1481      1479
 -1       278    8    0    1
 -2        65        64       221      1207      1482      1483
 -1       279    8    0    1
 -2        64       220       221      1480      1484      1482
 -1       280    8    0    1
 -2        66        65       222      1208      1485      1486
 -1       281    8    0    1
 -2        65       221       222      1483      1487      1485
 -1       282    8    0    1
 -2        67        66       223      1209      1488      1489
 -1       283    8    0    1
 -2        66       222       223      1486      1490      1488
 -1       284    8    0    1
 -2        68        67       224      1210      1491      1492
 -1       285    8    0    1
 -2        67       223       224      1489      1493      1491
 -1       286    8    0    1
 -2        69        68       225      1211      1494      1495
 -1       287    8    0    1
 -2        68       224       225      1492      1496      1494
 -1       288    8    0    1
 -2        70        69       226      1212      1497      1498
 -1       289    8    0    1
 -2        69       225       226      1495      1499      1497
 -1       290    8    0    1
 -2        71        70       227      1213      1500      1501
 -1       291    8    0    1
 -2        70       226       227      1498      1502      1500
 -1       292    8    0    1
 -2         4        71       136      1214      1503      1281
 -1       293    8    0    1
 -2       136        71       227      1503      1501      1504
 -1       294    8    0    1
 -2        72        73       228      1216      1505      1506
 -1       295    8    0    1
 -2        72       228       179      1506      1507      1359
 -1       296    8    0    1
 -2        73        74       229      1217      1508      1509
 -1       297    8    0    1
 -2        73       229       228      1509      1510      1505
 -1       298    8    0    1
 -2        74        75       230      1218      1511      1512
 -1       299    8    0    1
 -2        74       230       229      1512      1513      1508
 -1       300    8    0    1
 -2        75        76       231      1219      1514      1515
 -1       301    8    0    1
 -2        75       231       230      1515      1516      1511
 -1       302    8    0    1
 -2        76        77       232      1220      1517      1518
 -1       303    8    0    1
 -2        76       232       231      1518      1519      1514
 -1       304    8    0    1
 -2        77        78       233      1221      1520      1521
 -1       305    8    0    1
 -2        77       233       232      1521      1522      1517
 -1       306    8    0    1
 -2        78        79       234      1222      1523      1524
 -1       307    8    0    1
 -2        78       234       233      1524      1525      1520
 -1       308    8    0    1
 -2        79        80       235      1223      1526      1527
 -1       309    8    0    1
 -2        79       235       234      1527      1528      1523
 -1       310    8    0    1
 -2        80        81       236      1224      1529      1530
 -1       311    8    0    1
 -2        80       236       235      1530      1531      1526
 -1       312    8    0    1
 -2        81        82       237      1225      1532      1533
 -1       313    8    0    1
 -2        81       237       236      1533      1534      1529
 -1       314    8    0    1
 -2        82        83       238      1226      1535      1536
 -1       315    8    0    1
 -2        82       238       237      1536      1537      1532
 -1       316    8    0    1
 -2        83        84       239      1227      1538      1539
 -1       317    8    0    1
 -2        83       239       238      1539      1540      1535
 -1       318    8    0    1
 -2        84        85       240      1228      1541      1542
 -1       319    8    0    1
 -2        84       240       239      1542      1543      1538
 -1       320    8    0    1
 -2        85        86       241      1229      1544      1545
 -1       321    8    0    1
 -2        85       241       240      1545      1546      1541
 -1       322    8    0    1
 -2        86        87       242      1230      1547      1548
 -1       323    8    0    1
 -2        86       242       241      1548      1549      1544
 -1       324    8    0    1
 -2        87        88       243      1231      1550      1551
 -1       325    8    0    1
 -2        87       243       242      1551      1552      1547
 -1       326    8    0    1
 -2        88        89       244      1232      1553      1554
 -1       327    8    0    1
 -2        88       244       243      1554      1555      1550
 -1       328    8    0    1
 -2        89        90       245      1233      1556      1557
 -1       329    8    0    1
 -2        89       245       244      1557      1558      1553
 -1       330    8    0    1
 -2        90        91       246      1234      1559      1560
 -1       331    8    0    1
 -2        90       246       245      1560      1561      1556
 -1       332    8    0    1
 -2        91        92       247      1235      1562      1563
 -1       333    8    0    1
 -2        91       247       246      1563      1564      1559
 -1       334    8    0    1
 -2        92        93       248      1236      1565      1566
 -1       335    8    0    1
 -2        92       248       247      1566      1567      1562
 -1       336    8    0    1
 -2        93        94       249      1237      1568      1569
 -1       337    8    0    1
 -2        93       249       248      1569      1570      1565
 -1       338    8    0    1
 -2        94        95       250      1238      1571      1572
 -1       339    8    0    1
 -2        94       250       249      1572      1573      1568
 -1       340    8    0    1
 -2        95        96       251      1239      1574      1575
 -1       341    8    0    1
 -2        95       251       250      1575      1576      1571
 -1       342    8    0    1
 -2        96        97       252      1240      1577      1578
 -1       343    8    0    1
 -2        96       252       251      1578      1579      1574
 -1       344    8    0    1
 -2        97        98       253      1241      1580      1581
 -1       345    8    0    1
 -2        97       253       252      1581      1582      1577
 -1       346    8    0    1
 -2        98        99       254      1242      1583      1584
 -1       347    8    0    1
 -2        98       254       253      1584      1585      1580
 -1       348    8    0    1
 -2        99       100       255      1243      1586      1587
 -1       349    8    0    1
 -2        99       255       254      1587      1588      1583
 -1       350    8    0    1
 -2       100       101       256      1244      1589      1590
 -1       351    8    0    1
 -2       100       256       255      1590      1591      1586
 -1       352    8    0    1
 -2       101       102       257      1245      1592      1593
 -1       353    8    0    1
 -2       101       257       256      1593      1594      1589
 -1       354    8    0    1
 -2       102       103       258      1246      1595      1596
 -1       355    8    0    1
 -2       102       258       257      1596      1597      1592
 -1       356    8    0    1
 -2       103       104       259      1247      1598      1599
 -1       357    8    0    1
 -2       103       259       258      1599      1600      1595
 -1       358    8    0    1
 -2       104       105       260      1248      1601      1602
 -1       359    8    0    1
 -2       104       260       259      1602      1603      1598
 -1       360    8    0    1
 -2       105       106       261      1249      1604      1605
 -1       361    8    0    1
 -2       105       261       260      1605      1606      1601
 -1       362    8    0    1
 -2       106       107       262      1250      1607      1608
 -1       363    8    0    1
 -2       106       262       261      1608      1609      1604
 -1       364    8    0    1
 -2       107       108       263      1251      1610      1611
 -1       365    8    0    1
 -2       107       263       262      1611      1612      1607
 -1       366    8    0    1
 -2       108       109       264      1252      1613      1614
 -1       367    8    0    1
 -2       108       264       263      1614      1615      1610
 -1       368    8    0    1
 -2       109       110       265      1253      1616      1617
 -1       369    8    0    1
 -2       109       265       264      1617      1618      1613
 -1       370    8    0    1
 -2       110       111       266      1254      1619      1620
 -1       371    8    0    1
 -2       110       266       265      1620      1621      1616
 -1       372    8    0    1
 -2       111       112       267      1255      1622      1623
 -1       373    8    0    1
 -2       111       267       266      1623      1624      1619
 -1       374    8    0    1
 -2       112       113       268      1256      1625      1626
 -1       375    8    0    1
 -2       112       268       267      1626      1627      1622
 -1       376    8    0    1
 -2       113       114       269      1257      1628      1629
 -1       377    8    0    1
 -2       113       269       268      1629      1630      1625
 -1       378    8    0    1
 -2       114       115       270      1258      1631      1632
 -1       379    8    0    1
 -2       114       270       269      1632      1633      1628
 -1       380    8    0    1
 -2       115       116       271      1259      1634      1635
 -1       381    8    0    1
 -2       115       271       270      1635      1636      1631
 -1       382    8    0    1
 -2       116       117       272      1260      1637      1638
 -1       383    8    0    1
 -2       116       272       271      1638      1639      1634
 -1       384    8    0    1
 -2       117       118       273      1261      1640      1641
 -1       385    8    0    1
 -2       117       273       272      1641      1642      1637
 -1       386    8    0    1
 -2       118       119       274      1262      1643      1644
 -1       387    8    0    1
 -2       118       274       273      1644      1645      1640
 -1       388    8    0    1
 -2       119       120       275      1263      1646      1647
 -1       389    8    0    1
 -2       119       275       274      1647      1648      1643
 -1       390    8    0    1
 -2       120         3       121      1264      1265      1649
 -1       391    8    0    1
 -2       121       122       276      1266      1650      1651
 -1       392    8    0    1
 -2       122       123       277      1267      1652      1653
 -1       393    8    0    1
 -2       122       277       276      1653      1654      1650
 -1       394    8    0    1
 -2       123       124       278      1268      1655      1656
 -1       395    8    0    1
 -2       123       278       277      1656      1657      1652
 -1       396    8    0    1
 -2       124       125       279      1269      1658      1659
 -1       397    8    0    1
 -2       124       279       278      1659      1660      1655
 -1       398    8    0    1
 -2       125       126       280      1270      1661      1662
 -1       399    8    0    1
 -2       125       280       279      1662      1663      1658
 -1       400    8    0    1
 -2       126       127       281      1271      1664      1665
 -1       401    8    0    1
 -2       126       281       280      1665      1666      1661
 -1       402    8    0    1
 -2       127       128       282      1272      1667      1668
 -1       403    8    0    1
 -2       127       282       281      1668      1669      1664
 -1       404    8    0    1
 -2       128       129       283      1273      1670      1671
 -1       405    8    0    1
 -2       128       283       282      1671      1672      1667
 -1       406    8    0    1
 -2       129       130       284      1274      1673      1674
 -1       407    8    0    1
 -2       129       284       283      1674      1675      1670
 -1       408    8    0    1
 -2       130       131       285      1275      1676      1677
 -1       409    8    0    1
 -2       130       285       284      1677      1678      1673
 -1       410    8    0    1
 -2       131       132       286      1276      1679      1680
 -1       411    8    0    1
 -2       131       286       285      1680      1681      1676
 -1       412    8    0    1
 -2       132       133       287      1277      1682      1683
 -1       413    8    0    1
 -2       132       287       286      1683      1684      1679
 -1       414    8    0    1
 -2       133       134       288      1278      1685      1686
 -1       415    8    0    1
 -2       133       288       287      1686      1687      1682
 -1       416    8    0    1
 -2       134       135       289      1279      1688      1689
 -1       417    8    0    1
 -2       134       289       288      1689      1690      1685
 -1       418    8    0    1
 -2       135       136       290      1280      1691      1692
 -1       419    8    0    1
 -2       289       135       290      1688      1692      1693
 -1       420    8    0    1
 -2       136       227       290      1504      1694      1691
 -1       421    8    0    1
 -2         2       137       291      1282      1695      1696
 -1       422    8    0    1
 -2       137       138       292      1283      1697      1698
 -1       423    8    0    1
 -2       138       139       293      1284      1699      1700
 -1       424    8    0    1
 -2       139       140       294      1285      1701      1702
 -1       425    8    0    1
 -2       140       141       295      1286      1703      1704
 -1       426    8    0    1
 -2       141       142       296      1287      1705      1706
 -1       427    8    0    1
 -2       142       143       297      1288      1707      1708
 -1       428    8    0    1
 -2       143       144       298      1289      1709      1710
 -1       429    8    0    1
 -2       144       145       299      1290      1711      1712
 -1       430    8    0    1
 -2       145       146       300      1291      1713      1714
 -1       431    8    0    1
 -2       146       147       301      1292      1715      1716
 -1       432    8    0    1
 -2       147       148       302      1293      1717      1718
 -1       433    8    0    1
 -2       148       149       303      1294      1719      1720
 -1       434    8    0    1
 -2       149       150       304      1295      1721      1722
 -1       435    8    0    1
 -2       150       151       305      1296      1723      1724
 -1       436    8    0    1
 -2       151       152       306      1297      1725      1726
 -1       437    8    0    1
 -2       152       153       307      1298      1727      1728
 -1       438    8    0    1
 -2       153       154       308      1299      1729      1730
 -1       439    8    0    1
 -2       154       155       309      1300      1731      1732
 -1       440    8    0    1
 -2       155       156       310      1301      1733      1734
 -1       441    8    0    1
 -2       156       157       311      1302      1735      1736
 -1       442    8    0    1
 -2       157       158       312      1303      1737      1738
 -1       443    8    0    1
 -2       158       159       313      1304      1739      1740
 -1       444    8    0    1
 -2       159       160       314      1305      1741      1742
 -1       445    8    0    1
 -2       160         1       315      1306      1743      1744
 -1       446    8    0    1
 -2         1       161       316      1307      1745      1746
 -1       447    8    0    1
 -2       161       162       317      1308      1747      1748
 -1       448    8    0    1
 -2       162       163       318      1309      1749      1750
 -1       449    8    0    1
 -2       163         2       319      1310      1751      1752
 -1       450    8    0    1
 -2       294       140       295      1701      1704      1753
 -1       451    8    0    1
 -2       293       139       294      1699      1702      1754
 -1       452    8    0    1
 -2       120       121       275      1649      1755      1646
 -1       453    8    0    1
 -2       121       276       275      1651      1756      1755
 -1       454    8    0    1
 -2       291       137       292      1695      1698      1757
 -1       455    8    0    1
 -2       292       138       293      1697      1700      1758
 -1       456    8    0    1
 -2         2       291       319      1696      1759      1751
 -1       457    8    0    1
 -2       141       296       295      1706      1760      1703
 -1       458    8    0    1
 -2       142       297       296      1708      1761      1705
 -1       459    8    0    1
 -2       143       298       297      1710      1762      1707
 -1       460    8    0    1
 -2       144       299       298      1712      1763      1709
 -1       461    8    0    1
 -2       145       300       299      1714      1764      1711
 -1       462    8    0    1
 -2       146       301       300      1716      1765      1713
 -1       463    8    0    1
 -2       147       302       301      1718      1766      1715
 -1       464    8    0    1
 -2       148       303       302      1720      1767      1717
 -1       465    8    0    1
 -2       149       304       303      1722      1768      1719
 -1       466    8    0    1
 -2       150       305       304      1724      1769      1721
 -1       467    8    0    1
 -2       151       306       305      1726      1770      1723
 -1       468    8    0    1
 -2       152       307       306      1728      1771      1725
 -1       469    8    0    1
 -2       153       308       307      1730      1772      1727
 -1       470    8    0    1
 -2       154       309       308      1732      1773      1729
 -1       471    8    0    1
 -2       155       310       309      1734      1774      1731
 -1       472    8    0    1
 -2       156       311       310      1736      1775      1733
 -1       473    8    0    1
 -2       157       312       311      1738      1776      1735
 -1       474    8    0    1
 -2       158       313       312      1740      1777      1737
 -1       475    8    0    1
 -2       159       314       313      1742      1778      1739
 -1       476    8    0    1
 -2       160       315       314      1744      1779      1741
 -1       477    8    0    1
 -2         1       316       315      1746      1780      1743
 -1       478    8    0    1
 -2       161       317       316      1748      1781      1745
 -1       479    8    0    1
 -2       162       318       317      1750      1782      1747
 -1       480    8    0    1
 -2       163       319       318      1752      1783      1749
 -1       481    8    0    1
 -2        23         7       164      1311      1313      1784
 -1       482    8    0    1
 -2       165       166       320      1319      1785      1786
 -1       483    8    0    1
 -2       164       165       321      1316      1787      1788
 -1       484    8    0    1
 -2       165       320       321      1786      1789      1787
 -1       485    8    0    1
 -2       167       168       322      1325      1790      1791
 -1       486    8    0    1
 -2       168       169       323      1328      1792      1793
 -1       487    8    0    1
 -2       168       323       322      1793      1794      1790
 -1       488    8    0    1
 -2       169       170       324      1331      1795      1796
 -1       489    8    0    1
 -2       169       324       323      1796      1797      1792
 -1       490    8    0    1
 -2       170       171       325      1334      1798      1799
 -1       491    8    0    1
 -2       170       325       324      1799      1800      1795
 -1       492    8    0    1
 -2       171       172       326      1337      1801      1802
 -1       493    8    0    1
 -2       171       326       325      1802      1803      1798
 -1       494    8    0    1
 -2       172       173       327      1340      1804      1805
 -1       495    8    0    1
 -2       172       327       326      1805      1806      1801
 -1       496    8    0    1
 -2       173       174       328      1343      1807      1808
 -1       497    8    0    1
 -2       173       328       327      1808      1809      1804
 -1       498    8    0    1
 -2       174       175       329      1346      1810      1811
 -1       499    8    0    1
 -2       174       329       328      1811      1812      1807
 -1       500    8    0    1
 -2       175       176       330      1349      1813      1814
 -1       501    8    0    1
 -2       175       330       329      1814      1815      1810
 -1       502    8    0    1
 -2       176       177       331      1352      1816      1817
 -1       503    8    0    1
 -2       176       331       330      1817      1818      1813
 -1       504    8    0    1
 -2       177       178       332      1355      1819      1820
 -1       505    8    0    1
 -2       177       332       331      1820      1821      1816
 -1       506    8    0    1
 -2       178       179       333      1358      1822      1823
 -1       507    8    0    1
 -2       332       178       333      1819      1823      1824
 -1       508    8    0    1
 -2       179       228       333      1507      1825      1822
 -1       509    8    0    1
 -2       180        23       164      1360      1784      1826
 -1       510    8    0    1
 -2       228       229       334      1510      1827      1828
 -1       511    8    0    1
 -2       228       334       333      1828      1829      1825
 -1       512    8    0    1
 -2       180       164       321      1826      1788      1830
 -1       513    8    0    1
 -2       182       181       335      1367      1831      1832
 -1       514    8    0    1
 -2       183       182       336      1370      1833      1834
 -1       515    8    0    1
 -2       182       335       336      1832      1835      1833
 -1       516    8    0    1
 -2       184       183       337      1373      1836      1837
 -1       517    8    0    1
 -2       183       336       337      1834      1838      1836
 -1       518    8    0    1
 -2       185       184       338      1376      1839      1840
 -1       519    8    0    1
 -2       184       337       338      1837      1841      1839
 -1       520    8    0    1
 -2       186       185       339      1379      1842      1843
 -1       521    8    0    1
 -2       185       338       339      1840      1844      1842
 -1       522    8    0    1
 -2       187       186       340      1382      1845      1846
 -1       523    8    0    1
 -2       186       339       340      1843      1847      1845
 -1       524    8    0    1
 -2       188       187       341      1385      1848      1849
 -1       525    8    0    1
 -2       187       340       341      1846      1850      1848
 -1       526    8    0    1
 -2       189       188       342      1388      1851      1852
 -1       527    8    0    1
 -2       188       341       342      1849      1853      1851
 -1       528    8    0    1
 -2       190       189       343      1391      1854      1855
 -1       529    8    0    1
 -2       189       342       343      1852      1856      1854
 -1       530    8    0    1
 -2       191       190       344      1394      1857      1858
 -1       531    8    0    1
 -2       190       343       344      1855      1859      1857
 -1       532    8    0    1
 -2       192       191       345      1397      1860      1861
 -1       533    8    0    1
 -2       191       344       345      1858      1862      1860
 -1       534    8    0    1
 -2       193       192       346      1400      1863      1864
 -1       535    8    0    1
 -2       192       345       346      1861      1865      1863
 -1       536    8    0    1
 -2       194       193       347      1403      1866      1867
 -1       537    8    0    1
 -2       193       346       347      1864      1868      1866
 -1       538    8    0    1
 -2       195       194       348      1406      1869      1870
 -1       539    8    0    1
 -2       194       347       348      1867      1871      1869
 -1       540    8    0    1
 -2       196       195       349      1409      1872      1873
 -1       541    8    0    1
 -2       195       348       349      1870      1874      1872
 -1       542    8    0    1
 -2       197       196       350      1412      1875      1876
 -1       543    8    0    1
 -2       196       349       350      1873      1877      1875
 -1       544    8    0    1
 -2       198       197       351      1415      1878      1879
 -1       545    8    0    1
 -2       197       350       351      1876      1880      1878
 -1       546    8    0    1
 -2       199       198       352      1418      1881      1882
 -1       547    8    0    1
 -2       198       351       352      1879      1883      1881
 -1       548    8    0    1
 -2       200       199       353      1421      1884      1885
 -1       549    8    0    1
 -2       199       352       353      1882      1886      1884
 -1       550    8    0    1
 -2       201       200       354      1424      1887      1888
 -1       551    8    0    1
 -2       200       353       354      1885      1889      1887
 -1       552    8    0    1
 -2       202       201       355      1427      1890      1891
 -1       553    8    0    1
 -2       201       354       355      1888      1892      1890
 -1       554    8    0    1
 -2       203       202       356      1430      1893      1894
 -1       555    8    0    1
 -2       202       355       356      1891      1895      1893
 -1       556    8    0    1
 -2       204       203       357      1433      1896      1897
 -1       557    8    0    1
 -2       203       356       357      1894      1898      1896
 -1       558    8    0    1
 -2       205       204       358      1436      1899      1900
 -1       559    8    0    1
 -2       204       357       358      1897      1901      1899
 -1       560    8    0    1
 -2       206       205       359      1439      1902      1903
 -1       561    8    0    1
 -2       205       358       359      1900      1904      1902
 -1       562    8    0    1
 -2       207       206       360      1442      1905      1906
 -1       563    8    0    1
 -2       206       359       360      1903      1907      1905
 -1       564    8    0    1
 -2       208       207       361      1445      1908      1909
 -1       565    8    0    1
 -2       207       360       361      1906      1910      1908
 -1       566    8    0    1
 -2       209       208       362      1448      1911      1912
 -1       567    8    0    1
 -2       208       361       362      1909      1913      1911
 -1       568    8    0    1
 -2       210       209       363      1451      1914      1915
 -1       569    8    0    1
 -2       209       362       363      1912      1916      1914
 -1       570    8    0    1
 -2       211       210       364      1454      1917      1918
 -1       571    8    0    1
 -2       210       363       364      1915      1919      1917
 -1       572    8    0    1
 -2       212       211       365      1457      1920      1921
 -1       573    8    0    1
 -2       211       364       365      1918      1922      1920
 -1       574    8    0    1
 -2       213       212       366      1460      1923      1924
 -1       575    8    0    1
 -2       212       365       366      1921      1925      1923
 -1       576    8    0    1
 -2       214       213       367      1463      1926      1927
 -1       577    8    0    1
 -2       213       366       367      1924      1928      1926
 -1       578    8    0    1
 -2       215       214       368      1466      1929      1930
 -1       579    8    0    1
 -2       214       367       368      1927      1931      1929
 -1       580    8    0    1
 -2       216       215       369      1469      1932      1933
 -1       581    8    0    1
 -2       215       368       369      1930      1934      1932
 -1       582    8    0    1
 -2       217       216       370      1472      1935      1936
 -1       583    8    0    1
 -2       216       369       370      1933      1937      1935
 -1       584    8    0    1
 -2       218       217       371      1475      1938      1939
 -1       585    8    0    1
 -2       217       370       371      1936      1940      1938
 -1       586    8    0    1
 -2       219       218       372      1478      1941      1942
 -1       587    8    0    1
 -2       218       371       372      1939      1943      1941
 -1       588    8    0    1
 -2       220       219       373      1481      1944      1945
 -1       589    8    0    1
 -2       219       372       373      1942      1946      1944
 -1       590    8    0    1
 -2       221       220       374      1484      1947      1948
 -1       591    8    0    1
 -2       220       373       374      1945      1949      1947
 -1       592    8    0    1
 -2       222       221       375      1487      1950      1951
 -1       593    8    0    1
 -2       221       374       375      1948      1952      1950
 -1       594    8    0    1
 -2       223       222       376      1490      1953      1954
 -1       595    8    0    1
 -2       222       375       376      1951      1955      1953
 -1       596    8    0    1
 -2       224       223       377      1493      1956      1957
 -1       597    8    0    1
 -2       223       376       377      1954      1958      1956
 -1       598    8    0    1
 -2       225       224       378      1496      1959      1960
 -1       599    8    0    1
 -2       224       377       378      1957      1961      1959
 -1       600    8    0    1
 -2       226       225       379      1499      1962      1963
 -1       601    8    0    1
 -2       225       378       379      1960      1964      1962
 -1       602    8    0    1
 -2       227       226       380      1502      1965      1966
 -1       603    8    0    1
 -2       290       227       380      1694      1966      1967
 -1       604    8    0    1
 -2       226       379       380      1963      1968      1965
 -1       605    8    0    1
 -2       229       230       381      1513      1969      1970
 -1       606    8    0    1
 -2       229       381       334      1970      1971      1827
 -1       607    8    0    1
 -2       230       231       382      1516      1972      1973
 -1       608    8    0    1
 -2       230       382       381      1973      1974      1969
 -1       609    8    0    1
 -2       231       232       383      1519      1975      1976
 -1       610    8    0    1
 -2       231       383       382      1976      1977      1972
 -1       611    8    0    1
 -2       232       233       384      1522      1978      1979
 -1       612    8    0    1
 -2       232       384       383      1979      1980      1975
 -1       613    8    0    1
 -2       233       234       385      1525      1981      1982
 -1       614    8    0    1
 -2       233       385       384      1982      1983      1978
 -1       615    8    0    1
 -2       234       235       386      1528      1984      1985
 -1       616    8    0    1
 -2       234       386       385      1985      1986      1981
 -1       617    8    0    1
 -2       235       236       387      1531      1987      1988
 -1       618    8    0    1
 -2       235       387       386      1988      1989      1984
 -1       619    8    0    1
 -2       236       237       388      1534      1990      1991
 -1       620    8    0    1
 -2       236       388       387      1991      1992      1987
 -1       621    8    0    1
 -2       237       238       389      1537      1993      1994
 -1       622    8    0    1
 -2       237       389       388      1994      1995      1990
 -1       623    8    0    1
 -2       238       239       390      1540      1996      1997
 -1       624    8    0    1
 -2       238       390       389      1997      1998      1993
 -1       625    8    0    1
 -2       239       240       391      1543      1999      2000
 -1       626    8    0    1
 -2       239       391       390      2000      2001      1996
 -1       627    8    0    1
 -2       240       241       392      1546      2002      2003
 -1       628    8    0    1
 -2       240       392       391      2003      2004      1999
 -1       629    8    0    1
 -2       241       242       393      1549      2005      2006
 -1       630    8    0    1
 -2       241       393       392      2006      2007      2002
 -1       631    8    0    1
 -2       242       243       394      1552      2008      2009
 -1       632    8    0    1
 -2       242       394       393      2009      2010      2005
 -1       633    8    0    1
 -2       243       244       395      1555      2011      2012
 -1       634    8    0    1
 -2       243       395       394      2012      2013      2008
 -1       635    8    0    1
 -2       244       245       396      1558      2014      2015
 -1       636    8    0    1
 -2       244       396       395      2015      2016      2011
 -1       637    8    0    1
 -2       245       246       397      1561      2017      2018
 -1       638    8    0    1
 -2       245       397       396      2018      2019      2014
 -1       639    8    0    1
 -2       246       247       398      1564      2020      2021
 -1       640    8    0    1
 -2       246       398       397      2021      2022      2017
 -1       641    8    0    1
 -2       247       248       399      1567      2023      2024
 -1       642    8    0    1
 -2       247       399       398      2024      2025      2020
 -1       643    8    0    1
 -2       248       249       400      1570      2026      2027
 -1       644    8    0    1
 -2       248       400       399      2027      2028      2023
 -1       645    8    0    1
 -2       249       250       401      1573      2029      2030
 -1       646    8    0    1
 -2       249       401       400      2030      2031      2026
 -1       647    8    0    1
 -2       250       251       402      1576      2032      2033
 -1       648    8    0    1
 -2       250       402       401      2033      2034      2029
 -1       649    8    0    1
 -2       251       252       403      1579      2035      2036
 -1       650    8    0    1
 -2       251       403       402      2036      2037      2032
 -1       651    8    0    1
 -2       252       253       404      1582      2038      2039
 -1       652    8    0    1
 -2       252       404       403      2039      2040      2035
 -1       653    8    0    1
 -2       253       254       405      1585      2041      2042
 -1       654    8    0    1
 -2       253       405       404      2042      2043      2038
 -1       655    8    0    1
 -2       254       255       406      1588      2044      2045
 -1       656    8    0    1
 -2       254       406       405      2045      2046      2041
 -1       657    8    0    1
 -2       255       256       407      1591      2047      2048
 -1       658    8    0    1
 -2       255       407       406      2048      2049      2044
 -1       659    8    0    1
 -2       256       257       408      1594      2050      2051
 -1       660    8    0    1
 -2       256       408       407      2051      2052      2047
 -1       661    8    0    1
 -2       257       258       409      1597      2053      2054
 -1       662    8    0    1
 -2       257       409       408      2054      2055      2050
 -1       663    8    0    1
 -2       258       259       410      1600      2056      2057
 -1       664    8    0    1
 -2       258       410       409      2057      2058      2053
 -1       665    8    0    1
 -2       259       260       411      1603      2059      2060
 -1       666    8    0    1
 -2       259       411       410      2060      2061      2056
 -1       667    8    0    1
 -2       260       261       412      1606      2062      2063
 -1       668    8    0    1
 -2       260       412       411      2063      2064      2059
 -1       669    8    0    1
 -2       261       262       413      1609      2065      2066
 -1       670    8    0    1
 -2       261       413       412      2066      2067      2062
 -1       671    8    0    1
 -2       262       263       414      1612      2068      2069
 -1       672    8    0    1
 -2       262       414       413      2069      2070      2065
 -1       673    8    0    1
 -2       263       264       415      1615      2071      2072
 -1       674    8    0    1
 -2       263       415       414      2072      2073      2068
 -1       675    8    0    1
 -2       264       265       416      1618      2074      2075
 -1       676    8    0    1
 -2       264       416       415      2075      2076      2071
 -1       677    8    0    1
 -2       265       266       417      1621      2077      2078
 -1       678    8    0    1
 -2       265       417       416      2078      2079      2074
 -1       679    8    0    1
 -2       266       267       418      1624      2080      2081
 -1       680    8    0    1
 -2       266       418       417      2081      2082      2077
 -1       681    8    0    1
 -2       267       268       419      1627      2083      2084
 -1       682    8    0    1
 -2       267       419       418      2084      2085      2080
 -1       683    8    0    1
 -2       268       269       420      1630      2086      2087
 -1       684    8    0    1
 -2       268       420       419      2087      2088      2083
 -1       685    8    0    1
 -2       269       270       421      1633      2089      2090
 -1       686    8    0    1
 -2       269       421       420      2090      2091      2086
 -1       687    8    0    1
 -2       270       271       422      1636      2092      2093
 -1       688    8    0    1
 -2       270       422       421      2093      2094      2089
 -1       689    8    0    1
 -2       271       272       423      1639      2095      2096
 -1       690    8    0    1
 -2       271       423       422      2096      2097      2092
 -1       691    8    0    1
 -2       272       273       424      1642      2098      2099
 -1       692    8    0    1
 -2       272       424       423      2099      2100      2095
 -1       693    8    0    1
 -2       273       274       425      1645      2101      2102
 -1       694    8    0    1
 -2       273       425       424      2102      2103      2098
 -1       695    8    0    1
 -2       274       275       426      1648      2104      2105
 -1       696    8    0    1
 -2       425       274       426      2101      2105      2106
 -1       697    8    0    1
 -2       275       276       426      1756      2107      2104
 -1       698    8    0    1
 -2       278       279       427      1660      2108      2109
 -1       699    8    0    1
 -2       277       278       428      1657      2110      2111
 -1       700    8    0    1
 -2       278       427       428      2109      2112      2110
 -1       701    8    0    1
 -2       276       277       429      1654      2113      2114
 -1       702    8    0    1
 -2       426       276       429      2107      2114      2115
 -1       703    8    0    1
 -2       277       428       429      2111      2116      2113
 -1       704    8    0    1
 -2       279       280       430      1663      2117      2118
 -1       705    8    0    1
 -2       279       430       427      2118      2119      2108
 -1       706    8    0    1
 -2       280       281       431      1666      2120      2121
 -1       707    8    0    1
 -2       280       431       430      2121      2122      2117
 -1       708    8    0    1
 -2       281       282       432      1669      2123      2124
 -1       709    8    0    1
 -2       281       432       431      2124      2125      2120
 -1       710    8    0    1
 -2       282       283       433      1672      2126      2127
 -1       711    8    0    1
 -2       282       433       432      2127      2128      2123
 -1       712    8    0    1
 -2       283       284       434      1675      2129      2130
 -1       713    8    0    1
 -2       283       434       433      2130      2131      2126
 -1       714    8    0    1
 -2       284       285       435      1678      2132      2133
 -1       715    8    0    1
 -2       284       435       434      2133      2134      2129
 -1       716    8    0    1
 -2       285       286       436      1681      2135      2136
 -1       717    8    0    1
 -2       285       436       435      2136      2137      2132
 -1       718    8    0    1
 -2       286       287       437      1684      2138      2139
 -1       719    8    0    1
 -2       286       437       436      2139      2140      2135
 -1       720    8    0    1
 -2       287       288       438      1687      2141      2142
 -1       721    8    0    1
 -2       287       438       437      2142      2143      2138
 -1       722    8    0    1
 -2       288       289       439      1690      2144      2145
 -1       723    8    0    1
 -2       288       439       438      2145      2146      2141
 -1       724    8    0    1
 -2       292       293       440      1758      2147      2148
 -1       725    8    0    1
 -2       319       291       441      1759      2149      2150
 -1       726    8    0    1
 -2       291       292       442      1757      2151      2152
 -1       727    8    0    1
 -2       293       294       443      1754      2153      2154
 -1       728    8    0    1
 -2       293       443       440      2154      2155      2147
 -1       729    8    0    1
 -2       294       295       444      1753      2156      2157
 -1       730    8    0    1
 -2       166       167       445      1322      2158      2159
 -1       731    8    0    1
 -2       320       166       445      1785      2159      2160
 -1       732    8    0    1
 -2       167       322       445      1791      2161      2158
 -1       733    8    0    1
 -2       296       297       446      1761      2162      2163
 -1       734    8    0    1
 -2       297       298       447      1762      2164      2165
 -1       735    8    0    1
 -2       298       299       448      1763      2166      2167
 -1       736    8    0    1
 -2       299       300       449      1764      2168      2169
 -1       737    8    0    1
 -2       300       301       450      1765      2170      2171
 -1       738    8    0    1
 -2       301       302       451      1766      2172      2173
 -1       739    8    0    1
 -2       302       303       452      1767      2174      2175
 -1       740    8    0    1
 -2       303       304       453      1768      2176      2177
 -1       741    8    0    1
 -2       304       305       454      1769      2178      2179
 -1       742    8    0    1
 -2       305       306       455      1770      2180      2181
 -1       743    8    0    1
 -2       306       307       456      1771      2182      2183
 -1       744    8    0    1
 -2       307       308       457      1772      2184      2185
 -1       745    8    0    1
 -2       308       309       458      1773      2186      2187
 -1       746    8    0    1
 -2       309       310       459      1774      2188      2189
 -1       747    8    0    1
 -2       310       311       460      1775      2190      2191
 -1       748    8    0    1
 -2       311       312       461      1776      2192      2193
 -1       749    8    0    1
 -2       312       313       462      1777      2194      2195
 -1       750    8    0    1
 -2       313       314       463      1778      2196      2197
 -1       751    8    0    1
 -2       313       463       462      2197      2198      2194
 -1       752    8    0    1
 -2       314       315       464      1779      2199      2200
 -1       753    8    0    1
 -2       315       316       465      1780      2201      2202
 -1       754    8    0    1
 -2       316       317       466      1781      2203      2204
 -1       755    8    0    1
 -2       317       318       467      1782      2205      2206
 -1       756    8    0    1
 -2       318       319       468      1783      2207      2208
 -1       757    8    0    1
 -2       295       296       469      1760      2209      2210
 -1       758    8    0    1
 -2       443       294       470      2153      2211      2212
 -1       759    8    0    1
 -2       294       444       470      2157      2213      2211
 -1       760    8    0    1
 -2       180       321       181      1830      2214      1364
 -1       761    8    0    1
 -2       296       446       469      2163      2215      2209
 -1       762    8    0    1
 -2       335       181       321      1831      2214      2216
 -1       763    8    0    1
 -2       442       292       440      2151      2148      2217
 -1       764    8    0    1
 -2       441       291       442      2149      2152      2218
 -1       765    8    0    1
 -2       439       289       290      2144      1693      2219
 -1       766    8    0    1
 -2       319       441       468      2150      2220      2207
 -1       767    8    0    1
 -2       444       295       469      2156      2210      2221
 -1       768    8    0    1
 -2       467       318       468      2205      2208      2222
 -1       769    8    0    1
 -2       466       317       467      2203      2206      2223
 -1       770    8    0    1
 -2       465       316       466      2201      2204      2224
 -1       771    8    0    1
 -2       463       314       464      2196      2200      2225
 -1       772    8    0    1
 -2       461       312       471      2192      2226      2227
 -1       773    8    0    1
 -2       312       462       471      2195      2228      2226
 -1       774    8    0    1
 -2       460       311       461      2190      2193      2229
 -1       775    8    0    1
 -2       459       310       460      2188      2191      2230
 -1       776    8    0    1
 -2       458       309       459      2186      2189      2231
 -1       777    8    0    1
 -2       457       308       458      2184      2187      2232
 -1       778    8    0    1
 -2       456       307       457      2182      2185      2233
 -1       779    8    0    1
 -2       455       306       456      2180      2183      2234
 -1       780    8    0    1
 -2       454       305       455      2178      2181      2235
 -1       781    8    0    1
 -2       453       304       454      2176      2179      2236
 -1       782    8    0    1
 -2       452       303       453      2174      2177      2237
 -1       783    8    0    1
 -2       451       302       452      2172      2175      2238
 -1       784    8    0    1
 -2       450       301       451      2170      2173      2239
 -1       785    8    0    1
 -2       449       300       450      2168      2171      2240
 -1       786    8    0    1
 -2       448       299       449      2166      2169      2241
 -1       787    8    0    1
 -2       446       297       472      2162      2242      2243
 -1       788    8    0    1
 -2       297       447       472      2165      2244      2242
 -1       789    8    0    1
 -2       447       298       448      2164      2167      2245
 -1       790    8    0    1
 -2       464       315       465      2199      2202      2246
 -1       791    8    0    1
 -2       334       381       473      1971      2247      2248
 -1       792    8    0    1
 -2       323       324       474      1797      2249      2250
 -1       793    8    0    1
 -2       322       323       475      1794      2251      2252
 -1       794    8    0    1
 -2       323       474       475      2250      2253      2251
 -1       795    8    0    1
 -2       325       326       476      1803      2254      2255
 -1       796    8    0    1
 -2       326       327       477      1806      2256      2257
 -1       797    8    0    1
 -2       326       477       476      2257      2258      2254
 -1       798    8    0    1
 -2       327       328       478      1809      2259      2260
 -1       799    8    0    1
 -2       327       478       477      2260      2261      2256
 -1       800    8    0    1
 -2       328       329       479      1812      2262      2263
 -1       801    8    0    1
 -2       328       479       478      2263      2264      2259
 -1       802    8    0    1
 -2       329       330       480      1815      2265      2266
 -1       803    8    0    1
 -2       329       480       479      2266      2267      2262
 -1       804    8    0    1
 -2       330       331       481      1818      2268      2269
 -1       805    8    0    1
 -2       330       481       480      2269      2270      2265
 -1       806    8    0    1
 -2       381       382       482      1974      2271      2272
 -1       807    8    0    1
 -2       381       482       473      2272      2273      2247
 -1       808    8    0    1
 -2       336       335       483      1835      2274      2275
 -1       809    8    0    1
 -2       469       446       484      2215      2276      2277
 -1       810    8    0    1
 -2       337       336       485      1838      2278      2279
 -1       811    8    0    1
 -2       336       483       485      2275      2280      2278
 -1       812    8    0    1
 -2       338       337       486      1841      2281      2282
 -1       813    8    0    1
 -2       337       485       486      2279      2283      2281
 -1       814    8    0    1
 -2       339       338       487      1844      2284      2285
 -1       815    8    0    1
 -2       338       486       487      2282      2286      2284
 -1       816    8    0    1
 -2       340       339       488      1847      2287      2288
 -1       817    8    0    1
 -2       339       487       488      2285      2289      2287
 -1       818    8    0    1
 -2       341       340       489      1850      2290      2291
 -1       819    8    0    1
 -2       340       488       489      2288      2292      2290
 -1       820    8    0    1
 -2       342       341       490      1853      2293      2294
 -1       821    8    0    1
 -2       341       489       490      2291      2295      2293
 -1       822    8    0    1
 -2       343       342       491      1856      2296      2297
 -1       823    8    0    1
 -2       342       490       491      2294      2298      2296
 -1       824    8    0    1
 -2       344       343       492      1859      2299      2300
 -1       825    8    0    1
 -2       343       491       492      2297      2301      2299
 -1       826    8    0    1
 -2       345       344       493      1862      2302      2303
 -1       827    8    0    1
 -2       344       492       493      2300      2304      2302
 -1       828    8    0    1
 -2       346       345       494      1865      2305      2306
 -1       829    8    0    1
 -2       345       493       494      2303      2307      2305
 -1       830    8    0    1
 -2       347       346       495      1868      2308      2309
 -1       831    8    0    1
 -2       346       494       495      2306      2310      2308
 -1       832    8    0    1
 -2       348       347       496      1871      2311      2312
 -1       833    8    0    1
 -2       347       495       496      2309      2313      2311
 -1       834    8    0    1
 -2       349       348       497      1874      2314      2315
 -1       835    8    0    1
 -2       348       496       497      2312      2316      2314
 -1       836    8    0    1
 -2       350       349       498      1877      2317      2318
 -1       837    8    0    1
 -2       349       497       498      2315      2319      2317
 -1       838    8    0    1
 -2       351       350       499      1880      2320      2321
 -1       839    8    0    1
 -2       350       498       499      2318      2322      2320
 -1       840    8    0    1
 -2       352       351       500      1883      2323      2324
 -1       841    8    0    1
 -2       351       499       500      2321      2325      2323
 -1       842    8    0    1
 -2       353       352       501      1886      2326      2327
 -1       843    8    0    1
 -2       352       500       501      2324      2328      2326
 -1       844    8    0    1
 -2       354       353       502      1889      2329      2330
 -1       845    8    0    1
 -2       353       501       502      2327      2331      2329
 -1       846    8    0    1
 -2       355       354       503      1892      2332      2333
 -1       847    8    0    1
 -2       354       502       503      2330      2334      2332
 -1       848    8    0    1
 -2       356       355       504      1895      2335      2336
 -1       849    8    0    1
 -2       355       503       504      2333      2337      2335
 -1       850    8    0    1
 -2       357       356       505      1898      2338      2339
 -1       851    8    0    1
 -2       356       504       505      2336      2340      2338
 -1       852    8    0    1
 -2       358       357       506      1901      2341      2342
 -1       853    8    0    1
 -2       357       505       506      2339      2343      2341
 -1       854    8    0    1
 -2       359       358       507      1904      2344      2345
 -1       855    8    0    1
 -2       358       506       507      2342      2346      2344
 -1       856    8    0    1
 -2       360       359       508      1907      2347      2348
 -1       857    8    0    1
 -2       359       507       508      2345      2349      2347
 -1       858    8    0    1
 -2       361       360       509      1910      2350      2351
 -1       859    8    0    1
 -2       360       508       509      2348      2352      2350
 -1       860    8    0    1
 -2       362       361       510      1913      2353      2354
 -1       861    8    0    1
 -2       361       509       510      2351      2355      2353
 -1       862    8    0    1
 -2       363       362       511      1916      2356      2357
 -1       863    8    0    1
 -2       362       510       511      2354      2358      2356
 -1       864    8    0    1
 -2       364       363       512      1919      2359      2360
 -1       865    8    0    1
 -2       363       511       512      2357      2361      2359
 -1       866    8    0    1
 -2       365       364       513      1922      2362      2363
 -1       867    8    0    1
 -2       364       512       513      2360      2364      2362
 -1       868    8    0    1
 -2       366       365       514      1925      2365      2366
 -1       869    8    0    1
 -2       365       513       514      2363      2367      2365
 -1       870    8    0    1
 -2       367       366       515      1928      2368      2369
 -1       871    8    0    1
 -2       366       514       515      2366      2370      2368
 -1       872    8    0    1
 -2       368       367       516      1931      2371      2372
 -1       873    8    0    1
 -2       367       515       516      2369      2373      2371
 -1       874    8    0    1
 -2       369       368       517      1934      2374      2375
 -1       875    8    0    1
 -2       368       516       517      2372      2376      2374
 -1       876    8    0    1
 -2       370       369       518      1937      2377      2378
 -1       877    8    0    1
 -2       369       517       518      2375      2379      2377
 -1       878    8    0    1
 -2       371       370       519      1940      2380      2381
 -1       879    8    0    1
 -2       370       518       519      2378      2382      2380
 -1       880    8    0    1
 -2       372       371       520      1943      2383      2384
 -1       881    8    0    1
 -2       371       519       520      2381      2385      2383
 -1       882    8    0    1
 -2       373       372       521      1946      2386      2387
 -1       883    8    0    1
 -2       372       520       521      2384      2388      2386
 -1       884    8    0    1
 -2       374       373       522      1949      2389      2390
 -1       885    8    0    1
 -2       373       521       522      2387      2391      2389
 -1       886    8    0    1
 -2       375       374       523      1952      2392      2393
 -1       887    8    0    1
 -2       374       522       523      2390      2394      2392
 -1       888    8    0    1
 -2       376       375       524      1955      2395      2396
 -1       889    8    0    1
 -2       375       523       524      2393      2397      2395
 -1       890    8    0    1
 -2       377       376       525      1958      2398      2399
 -1       891    8    0    1
 -2       376       524       525      2396      2400      2398
 -1       892    8    0    1
 -2       378       377       526      1961      2401      2402
 -1       893    8    0    1
 -2       377       525       526      2399      2403      2401
 -1       894    8    0    1
 -2       379       378       527      1964      2404      2405
 -1       895    8    0    1
 -2       378       526       527      2402      2406      2404
 -1       896    8    0    1
 -2       383       384       528      1980      2407      2408
 -1       897    8    0    1
 -2       384       385       529      1983      2409      2410
 -1       898    8    0    1
 -2       384       529       528      2410      2411      2407
 -1       899    8    0    1
 -2       385       386       530      1986      2412      2413
 -1       900    8    0    1
 -2       385       530       529      2413      2414      2409
 -1       901    8    0    1
 -2       386       387       531      1989      2415      2416
 -1       902    8    0    1
 -2       386       531       530      2416      2417      2412
 -1       903    8    0    1
 -2       387       388       532      1992      2418      2419
 -1       904    8    0    1
 -2       387       532       531      2419      2420      2415
 -1       905    8    0    1
 -2       388       389       533      1995      2421      2422
 -1       906    8    0    1
 -2       388       533       532      2422      2423      2418
 -1       907    8    0    1
 -2       389       390       534      1998      2424      2425
 -1       908    8    0    1
 -2       389       534       533      2425      2426      2421
 -1       909    8    0    1
 -2       390       391       535      2001      2427      2428
 -1       910    8    0    1
 -2       390       535       534      2428      2429      2424
 -1       911    8    0    1
 -2       391       392       536      2004      2430      2431
 -1       912    8    0    1
 -2       391       536       535      2431      2432      2427
 -1       913    8    0    1
 -2       392       393       537      2007      2433      2434
 -1       914    8    0    1
 -2       392       537       536      2434      2435      2430
 -1       915    8    0    1
 -2       393       394       538      2010      2436      2437
 -1       916    8    0    1
 -2       393       538       537      2437      2438      2433
 -1       917    8    0    1
 -2       394       395       539      2013      2439      2440
 -1       918    8    0    1
 -2       394       539       538      2440      2441      2436
 -1       919    8    0    1
 -2       395       396       540      2016      2442      2443
 -1       920    8    0    1
 -2       395       540       539      2443      2444      2439
 -1       921    8    0    1
 -2       396       397       541      2019      2445      2446
 -1       922    8    0    1
 -2       396       541       540      2446      2447      2442
 -1       923    8    0    1
 -2       397       398       542      2022      2448      2449
 -1       924    8    0    1
 -2       397       542       541      2449      2450      2445
 -1       925    8    0    1
 -2       398       399       543      2025      2451      2452
 -1       926    8    0    1
 -2       398       543       542      2452      2453      2448
 -1       927    8    0    1
 -2       399       400       544      2028      2454      2455
 -1       928    8    0    1
 -2       399       544       543      2455      2456      2451
 -1       929    8    0    1
 -2       400       401       545      2031      2457      2458
 -1       930    8    0    1
 -2       400       545       544      2458      2459      2454
 -1       931    8    0    1
 -2       401       402       546      2034      2460      2461
 -1       932    8    0    1
 -2       401       546       545      2461      2462      2457
 -1       933    8    0    1
 -2       402       403       547      2037      2463      2464
 -1       934    8    0    1
 -2       402       547       546      2464      2465      2460
 -1       935    8    0    1
 -2       403       404       548      2040      2466      2467
 -1       936    8    0    1
 -2       403       548       547      2467      2468      2463
 -1       937    8    0    1
 -2       404       405       549      2043      2469      2470
 -1       938    8    0    1
 -2       404       549       548      2470      2471      2466
 -1       939    8    0    1
 -2       405       406       550      2046      2472      2473
 -1       940    8    0    1
 -2       405       550       549      2473      2474      2469
 -1       941    8    0    1
 -2       406       407       551      2049      2475      2476
 -1       942    8    0    1
 -2       406       551       550      2476      2477      2472
 -1       943    8    0    1
 -2       407       408       552      2052      2478      2479
 -1       944    8    0    1
 -2       407       552       551      2479      2480      2475
 -1       945    8    0    1
 -2       408       409       553      2055      2481      2482
 -1       946    8    0    1
 -2       408       553       552      2482      2483      2478
 -1       947    8    0    1
 -2       409       410       554      2058      2484      2485
 -1       948    8    0    1
 -2       409       554       553      2485      2486      2481
 -1       949    8    0    1
 -2       410       411       555      2061      2487      2488
 -1       950    8    0    1
 -2       410       555       554      2488      2489      2484
 -1       951    8    0    1
 -2       411       412       556      2064      2490      2491
 -1       952    8    0    1
 -2       411       556       555      2491      2492      2487
 -1       953    8    0    1
 -2       412       413       557      2067      2493      2494
 -1       954    8    0    1
 -2       412       557       556      2494      2495      2490
 -1       955    8    0    1
 -2       413       414       558      2070      2496      2497
 -1       956    8    0    1
 -2       413       558       557      2497      2498      2493
 -1       957    8    0    1
 -2       414       415       559      2073      2499      2500
 -1       958    8    0    1
 -2       414       559       558      2500      2501      2496
 -1       959    8    0    1
 -2       415       416       560      2076      2502      2503
 -1       960    8    0    1
 -2       415       560       559      2503      2504      2499
 -1       961    8    0    1
 -2       416       417       561      2079      2505      2506
 -1       962    8    0    1
 -2       416       561       560      2506      2507      2502
 -1       963    8    0    1
 -2       417       418       562      2082      2508      2509
 -1       964    8    0    1
 -2       417       562       561      2509      2510      2505
 -1       965    8    0    1
 -2       418       419       563      2085      2511      2512
 -1       966    8    0    1
 -2       418       563       562      2512      2513      2508
 -1       967    8    0    1
 -2       419       420       564      2088      2514      2515
 -1       968    8    0    1
 -2       419       564       563      2515      2516      2511
 -1       969    8    0    1
 -2       420       421       565      2091      2517      2518
 -1       970    8    0    1
 -2       420       565       564      2518      2519      2514
 -1       971    8    0    1
 -2       421       422       566      2094      2520      2521
 -1       972    8    0    1
 -2       421       566       565      2521      2522      2517
 -1       973    8    0    1
 -2       422       423       567      2097      2523      2524
 -1       974    8    0    1
 -2       422       567       566      2524      2525      2520
 -1       975    8    0    1
 -2       423       424       568      2100      2526      2527
 -1       976    8    0    1
 -2       423       568       567      2527      2528      2523
 -1       977    8    0    1
 -2       424       425       569      2103      2529      2530
 -1       978    8    0    1
 -2       424       569       568      2530      2531      2526
 -1       979    8    0    1
 -2       425       426       429      2106      2115      2532
 -1       980    8    0    1
 -2       430       431       570      2122      2533      2534
 -1       981    8    0    1
 -2       431       432       571      2125      2535      2536
 -1       982    8    0    1
 -2       431       571       570      2536      2537      2533
 -1       983    8    0    1
 -2       428       427       572      2112      2538      2539
 -1       984    8    0    1
 -2       427       430       573      2119      2540      2541
 -1       985    8    0    1
 -2       572       427       573      2538      2541      2542
 -1       986    8    0    1
 -2       430       570       573      2534      2543      2540
 -1       987    8    0    1
 -2       432       433       574      2128      2544      2545
 -1       988    8    0    1
 -2       432       574       571      2545      2546      2535
 -1       989    8    0    1
 -2       433       434       575      2131      2547      2548
 -1       990    8    0    1
 -2       433       575       574      2548      2549      2544
 -1       991    8    0    1
 -2       434       435       576      2134      2550      2551
 -1       992    8    0    1
 -2       434       576       575      2551      2552      2547
 -1       993    8    0    1
 -2       435       436       577      2137      2553      2554
 -1       994    8    0    1
 -2       435       577       576      2554      2555      2550
 -1       995    8    0    1
 -2       436       437       578      2140      2556      2557
 -1       996    8    0    1
 -2       436       578       577      2557      2558      2553
 -1       997    8    0    1
 -2       437       438       579      2143      2559      2560
 -1       998    8    0    1
 -2       437       579       578      2560      2561      2556
 -1       999    8    0    1
 -2       438       439       580      2146      2562      2563
 -1      1000    8    0    1
 -2       438       580       579      2563      2564      2559
 -1      1001    8    0    1
 -2       441       442       581      2218      2565      2566
 -1      1002    8    0    1
 -2       442       440       582      2217      2567      2568
 -1      1003    8    0    1
 -2       468       441       583      2220      2569      2570
 -1      1004    8    0    1
 -2       441       581       583      2566      2571      2569
 -1      1005    8    0    1
 -2       382       383       584      1977      2572      2573
 -1      1006    8    0    1
 -2       383       528       584      2408      2574      2572
 -1      1007    8    0    1
 -2       439       290       380      2219      1967      2575
 -1      1008    8    0    1
 -2       440       443       585      2155      2576      2577
 -1      1009    8    0    1
 -2       335       321       586      2216      2578      2579
 -1      1010    8    0    1
 -2       483       335       586      2274      2579      2580
 -1      1011    8    0    1
 -2       321       320       586      1789      2581      2578
 -1      1012    8    0    1
 -2       444       469       587      2221      2582      2583
 -1      1013    8    0    1
 -2       324       325       588      1800      2584      2585
 -1      1014    8    0    1
 -2       474       324       588      2249      2585      2586
 -1      1015    8    0    1
 -2       325       476       588      2255      2587      2584
 -1      1016    8    0    1
 -2       447       448       589      2245      2588      2589
 -1      1017    8    0    1
 -2       464       465       590      2246      2590      2591
 -1      1018    8    0    1
 -2       448       449       591      2241      2592      2593
 -1      1019    8    0    1
 -2       449       450       592      2240      2594      2595
 -1      1020    8    0    1
 -2       450       451       593      2239      2596      2597
 -1      1021    8    0    1
 -2       451       452       594      2238      2598      2599
 -1      1022    8    0    1
 -2       452       453       595      2237      2600      2601
 -1      1023    8    0    1
 -2       453       454       596      2236      2602      2603
 -1      1024    8    0    1
 -2       454       455       597      2235      2604      2605
 -1      1025    8    0    1
 -2       455       456       598      2234      2606      2607
 -1      1026    8    0    1
 -2       456       457       599      2233      2608      2609
 -1      1027    8    0    1
 -2       457       458       600      2232      2610      2611
 -1      1028    8    0    1
 -2       458       459       601      2231      2612      2613
 -1      1029    8    0    1
 -2       459       460       602      2230      2614      2615
 -1      1030    8    0    1
 -2       459       602       601      2615      2616      2612
 -1      1031    8    0    1
 -2       460       461       603      2229      2617      2618
 -1      1032    8    0    1
 -2       462       463       604      2198      2619      2620
 -1      1033    8    0    1
 -2       463       464       605      2225      2621      2622
 -1      1034    8    0    1
 -2       465       466       606      2224      2623      2624
 -1      1035    8    0    1
 -2       466       467       607      2223      2625      2626
 -1      1036    8    0    1
 -2       467       468       608      2222      2627      2628
 -1      1037    8    0    1
 -2       333       334       609      1829      2629      2630
 -1      1038    8    0    1
 -2       332       333       609      1824      2630      2631
 -1      1039    8    0    1
 -2       334       473       609      2248      2632      2629
 -1      1040    8    0    1
 -2       447       589       472      2589      2633      2244
 -1      1041    8    0    1
 -2       322       475       610      2252      2634      2635
 -1      1042    8    0    1
 -2       322       610       445      2635      2636      2161
 -1      1043    8    0    1
 -2       482       382       584      2271      2573      2637
 -1      1044    8    0    1
 -2       331       332       609      1821      2631      2638
 -1      1045    8    0    1
 -2       587       469       484      2582      2277      2639
 -1      1046    8    0    1
 -2       608       468       583      2627      2570      2640
 -1      1047    8    0    1
 -2       607       467       608      2625      2628      2641
 -1      1048    8    0    1
 -2       440       585       582      2577      2642      2567
 -1      1049    8    0    1
 -2       606       466       607      2623      2626      2643
 -1      1050    8    0    1
 -2       425       429       569      2532      2644      2529
 -1      1051    8    0    1
 -2       429       428       569      2116      2645      2644
 -1      1052    8    0    1
 -2       605       464       590      2621      2591      2646
 -1      1053    8    0    1
 -2       331       609       481      2638      2647      2268
 -1      1054    8    0    1
 -2       581       442       611      2565      2648      2649
 -1      1055    8    0    1
 -2       442       582       611      2568      2650      2648
 -1      1056    8    0    1
 -2       604       463       605      2619      2622      2651
 -1      1057    8    0    1
 -2       586       320       445      2581      2160      2652
 -1      1058    8    0    1
 -2       602       460       603      2614      2618      2653
 -1      1059    8    0    1
 -2       585       443       470      2576      2212      2654
 -1      1060    8    0    1
 -2       470       444       587      2213      2583      2655
 -1      1061    8    0    1
 -2       600       458       601      2610      2613      2656
 -1      1062    8    0    1
 -2       599       457       612      2608      2657      2658
 -1      1063    8    0    1
 -2       457       600       612      2611      2659      2657
 -1      1064    8    0    1
 -2       598       456       599      2606      2609      2660
 -1      1065    8    0    1
 -2       471       462       604      2228      2620      2661
 -1      1066    8    0    1
 -2       461       471       613      2227      2662      2663
 -1      1067    8    0    1
 -2       461       613       603      2663      2664      2617
 -1      1068    8    0    1
 -2       597       455       598      2604      2607      2665
 -1      1069    8    0    1
 -2       596       454       597      2602      2605      2666
 -1      1070    8    0    1
 -2       595       453       596      2600      2603      2667
 -1      1071    8    0    1
 -2       594       452       595      2598      2601      2668
 -1      1072    8    0    1
 -2       593       451       594      2596      2599      2669
 -1      1073    8    0    1
 -2       592       450       593      2594      2597      2670
 -1      1074    8    0    1
 -2       591       449       592      2592      2595      2671
 -1      1075    8    0    1
 -2       484       446       614      2276      2672      2673
 -1      1076    8    0    1
 -2       446       472       614      2243      2674      2672
 -1      1077    8    0    1
 -2       590       465       606      2590      2624      2675
 -1      1078    8    0    1
 -2       589       448       591      2588      2593      2676
 -1      1079    8    0    1
 -2       439       380       615      2575      2677      2678
 -1      1080    8    0    1
 -2       580       439       615      2562      2678      2679
 -1      1081    8    0    1
 -2       380       379       615      1968      2680      2677
 -1      1082    8    0    1
 -2       569       428       572      2645      2539      2681
 -1      1083    8    0    1
 -2       615       379       527      2680      2405      2682
 -1      1084    8    0    1
 -2       477       478       616      2261      2683      2684
 -1      1085    8    0    1
 -2       476       477       617      2258      2685      2686
 -1      1086    8    0    1
 -2       477       616       617      2684      2687      2685
 -1      1087    8    0    1
 -2       479       480       618      2267      2688      2689
 -1      1088    8    0    1
 -2       480       481       619      2270      2690      2691
 -1      1089    8    0    1
 -2       480       619       618      2691      2692      2688
 -1      1090    8    0    1
 -2       473       482       620      2273      2693      2694
 -1      1091    8    0    1
 -2       609       473       481      2632      2695      2647
 -1      1092    8    0    1
 -2       482       584       621      2637      2696      2697
 -1      1093    8    0    1
 -2       482       621       620      2697      2698      2693
 -1      1094    8    0    1
 -2       608       583       622      2640      2699      2700
 -1      1095    8    0    1
 -2       486       485       623      2283      2701      2702
 -1      1096    8    0    1
 -2       487       486       624      2286      2703      2704
 -1      1097    8    0    1
 -2       486       623       624      2702      2705      2703
 -1      1098    8    0    1
 -2       488       487       625      2289      2706      2707
 -1      1099    8    0    1
 -2       487       624       625      2704      2708      2706
 -1      1100    8    0    1
 -2       489       488       626      2292      2709      2710
 -1      1101    8    0    1
 -2       488       625       626      2707      2711      2709
 -1      1102    8    0    1
 -2       490       489       627      2295      2712      2713
 -1      1103    8    0    1
 -2       489       626       627      2710      2714      2712
 -1      1104    8    0    1
 -2       491       490       628      2298      2715      2716
 -1      1105    8    0    1
 -2       490       627       628      2713      2717      2715
 -1      1106    8    0    1
 -2       492       491       629      2301      2718      2719
 -1      1107    8    0    1
 -2       491       628       629      2716      2720      2718
 -1      1108    8    0    1
 -2       493       492       630      2304      2721      2722
 -1      1109    8    0    1
 -2       492       629       630      2719      2723      2721
 -1      1110    8    0    1
 -2       494       493       631      2307      2724      2725
 -1      1111    8    0    1
 -2       493       630       631      2722      2726      2724
 -1      1112    8    0    1
 -2       495       494       632      2310      2727      2728
 -1      1113    8    0    1
 -2       494       631       632      2725      2729      2727
 -1      1114    8    0    1
 -2       496       495       633      2313      2730      2731
 -1      1115    8    0    1
 -2       495       632       633      2728      2732      2730
 -1      1116    8    0    1
 -2       498       497       634      2319      2733      2734
 -1      1117    8    0    1
 -2       499       498       635      2322      2735      2736
 -1      1118    8    0    1
 -2       500       499       636      2325      2737      2738
 -1      1119    8    0    1
 -2       499       635       636      2736      2739      2737
 -1      1120    8    0    1
 -2       501       500       637      2328      2740      2741
 -1      1121    8    0    1
 -2       500       636       637      2738      2742      2740
 -1      1122    8    0    1
 -2       502       501       638      2331      2743      2744
 -1      1123    8    0    1
 -2       501       637       638      2741      2745      2743
 -1      1124    8    0    1
 -2       503       502       639      2334      2746      2747
 -1      1125    8    0    1
 -2       502       638       639      2744      2748      2746
 -1      1126    8    0    1
 -2       504       503       640      2337      2749      2750
 -1      1127    8    0    1
 -2       503       639       640      2747      2751      2749
 -1      1128    8    0    1
 -2       505       504       641      2340      2752      2753
 -1      1129    8    0    1
 -2       504       640       641      2750      2754      2752
 -1      1130    8    0    1
 -2       506       505       642      2343      2755      2756
 -1      1131    8    0    1
 -2       505       641       642      2753      2757      2755
 -1      1132    8    0    1
 -2       507       506       643      2346      2758      2759
 -1      1133    8    0    1
 -2       506       642       643      2756      2760      2758
 -1      1134    8    0    1
 -2       508       507       644      2349      2761      2762
 -1      1135    8    0    1
 -2       507       643       644      2759      2763      2761
 -1      1136    8    0    1
 -2       509       508       645      2352      2764      2765
 -1      1137    8    0    1
 -2       508       644       645      2762      2766      2764
 -1      1138    8    0    1
 -2       510       509       646      2355      2767      2768
 -1      1139    8    0    1
 -2       509       645       646      2765      2769      2767
 -1      1140    8    0    1
 -2       511       510       647      2358      2770      2771
 -1      1141    8    0    1
 -2       510       646       647      2768      2772      2770
 -1      1142    8    0    1
 -2       512       511       648      2361      2773      2774
 -1      1143    8    0    1
 -2       511       647       648      2771      2775      2773
 -1      1144    8    0    1
 -2       513       512       649      2364      2776      2777
 -1      1145    8    0    1
 -2       512       648       649      2774      2778      2776
 -1      1146    8    0    1
 -2       514       513       650      2367      2779      2780
 -1      1147    8    0    1
 -2       513       649       650      2777      2781      2779
 -1      1148    8    0    1
 -2       515       514       651      2370      2782      2783
 -1      1149    8    0    1
 -2       514       650       651      2780      2784      2782
 -1      1150    8    0    1
 -2       516       515       652      2373      2785      2786
 -1      1151    8    0    1
 -2       515       651       652      2783      2787      2785
 -1      1152    8    0    1
 -2       517       516       653      2376      2788      2789
 -1      1153    8    0    1
 -2       516       652       653      2786      2790      2788
 -1      1154    8    0    1
 -2       518       517       654      2379      2791      2792
 -1      1155    8    0    1
 -2       517       653       654      2789      2793      2791
 -1      1156    8    0    1
 -2       519       518       655      2382      2794      2795
 -1      1157    8    0    1
 -2       518       654       655      2792      2796      2794
 -1      1158    8    0    1
 -2       520       519       656      2385      2797      2798
 -1      1159    8    0    1
 -2       519       655       656      2795      2799      2797
 -1      1160    8    0    1
 -2       521       520       657      2388      2800      2801
 -1      1161    8    0    1
 -2       520       656       657      2798      2802      2800
 -1      1162    8    0    1
 -2       522       521       658      2391      2803      2804
 -1      1163    8    0    1
 -2       521       657       658      2801      2805      2803
 -1      1164    8    0    1
 -2       523       522       659      2394      2806      2807
 -1      1165    8    0    1
 -2       522       658       659      2804      2808      2806
 -1      1166    8    0    1
 -2       524       523       660      2397      2809      2810
 -1      1167    8    0    1
 -2       523       659       660      2807      2811      2809
 -1      1168    8    0    1
 -2       525       524       661      2400      2812      2813
 -1      1169    8    0    1
 -2       524       660       661      2810      2814      2812
 -1      1170    8    0    1
 -2       526       525       662      2403      2815      2816
 -1      1171    8    0    1
 -2       525       661       662      2813      2817      2815
 -1      1172    8    0    1
 -2       527       526       663      2406      2818      2819
 -1      1173    8    0    1
 -2       526       662       663      2816      2820      2818
 -1      1174    8    0    1
 -2       529       530       664      2414      2821      2822
 -1      1175    8    0    1
 -2       569       572       665      2681      2823      2824
 -1      1176    8    0    1
 -2       569       665       568      2824      2825      2531
 -1      1177    8    0    1
 -2       528       529       666      2411      2826      2827
 -1      1178    8    0    1
 -2       529       664       666      2822      2828      2826
 -1      1179    8    0    1
 -2       531       532       667      2420      2829      2830
 -1      1180    8    0    1
 -2       532       533       668      2423      2831      2832
 -1      1181    8    0    1
 -2       532       668       667      2832      2833      2829
 -1      1182    8    0    1
 -2       533       534       669      2426      2834      2835
 -1      1183    8    0    1
 -2       533       669       668      2835      2836      2831
 -1      1184    8    0    1
 -2       534       535       670      2429      2837      2838
 -1      1185    8    0    1
 -2       534       670       669      2838      2839      2834
 -1      1186    8    0    1
 -2       535       536       671      2432      2840      2841
 -1      1187    8    0    1
 -2       535       671       670      2841      2842      2837
 -1      1188    8    0    1
 -2       536       537       672      2435      2843      2844
 -1      1189    8    0    1
 -2       536       672       671      2844      2845      2840
 -1      1190    8    0    1
 -2       537       538       673      2438      2846      2847
 -1      1191    8    0    1
 -2       537       673       672      2847      2848      2843
 -1      1192    8    0    1
 -2       538       539       674      2441      2849      2850
 -1      1193    8    0    1
 -2       538       674       673      2850      2851      2846
 -1      1194    8    0    1
 -2       539       540       675      2444      2852      2853
 -1      1195    8    0    1
 -2       539       675       674      2853      2854      2849
 -1      1196    8    0    1
 -2       540       541       676      2447      2855      2856
 -1      1197    8    0    1
 -2       540       676       675      2856      2857      2852
 -1      1198    8    0    1
 -2       541       542       677      2450      2858      2859
 -1      1199    8    0    1
 -2       541       677       676      2859      2860      2855
 -1      1200    8    0    1
 -2       542       543       678      2453      2861      2862
 -1      1201    8    0    1
 -2       542       678       677      2862      2863      2858
 -1      1202    8    0    1
 -2       543       544       679      2456      2864      2865
 -1      1203    8    0    1
 -2       543       679       678      2865      2866      2861
 -1      1204    8    0    1
 -2       544       545       680      2459      2867      2868
 -1      1205    8    0    1
 -2       544       680       679      2868      2869      2864
 -1      1206    8    0    1
 -2       545       546       681      2462      2870      2871
 -1      1207    8    0    1
 -2       545       681       680      2871      2872      2867
 -1      1208    8    0    1
 -2       546       547       682      2465      2873      2874
 -1      1209    8    0    1
 -2       546       682       681      2874      2875      2870
 -1      1210    8    0    1
 -2       547       548       683      2468      2876      2877
 -1      1211    8    0    1
 -2       547       683       682      2877      2878      2873
 -1      1212    8    0    1
 -2       548       549       684      2471      2879      2880
 -1      1213    8    0    1
 -2       548       684       683      2880      2881      2876
 -1      1214    8    0    1
 -2       549       550       685      2474      2882      2883
 -1      1215    8    0    1
 -2       549       685       684      2883      2884      2879
 -1      1216    8    0    1
 -2       550       551       686      2477      2885      2886
 -1      1217    8    0    1
 -2       550       686       685      2886      2887      2882
 -1      1218    8    0    1
 -2       551       552       687      2480      2888      2889
 -1      1219    8    0    1
 -2       551       687       686      2889      2890      2885
 -1      1220    8    0    1
 -2       552       553       688      2483      2891      2892
 -1      1221    8    0    1
 -2       552       688       687      2892      2893      2888
 -1      1222    8    0    1
 -2       553       554       689      2486      2894      2895
 -1      1223    8    0    1
 -2       553       689       688      2895      2896      2891
 -1      1224    8    0    1
 -2       554       555       690      2489      2897      2898
 -1      1225    8    0    1
 -2       554       690       689      2898      2899      2894
 -1      1226    8    0    1
 -2       555       556       691      2492      2900      2901
 -1      1227    8    0    1
 -2       555       691       690      2901      2902      2897
 -1      1228    8    0    1
 -2       556       557       692      2495      2903      2904
 -1      1229    8    0    1
 -2       556       692       691      2904      2905      2900
 -1      1230    8    0    1
 -2       557       558       693      2498      2906      2907
 -1      1231    8    0    1
 -2       557       693       692      2907      2908      2903
 -1      1232    8    0    1
 -2       558       559       694      2501      2909      2910
 -1      1233    8    0    1
 -2       558       694       693      2910      2911      2906
 -1      1234    8    0    1
 -2       559       560       695      2504      2912      2913
 -1      1235    8    0    1
 -2       559       695       694      2913      2914      2909
 -1      1236    8    0    1
 -2       560       561       696      2507      2915      2916
 -1      1237    8    0    1
 -2       560       696       695      2916      2917      2912
 -1      1238    8    0    1
 -2       561       562       697      2510      2918      2919
 -1      1239    8    0    1
 -2       561       697       696      2919      2920      2915
 -1      1240    8    0    1
 -2       562       563       698      2513      2921      2922
 -1      1241    8    0    1
 -2       562       698       697      2922      2923      2918
 -1      1242    8    0    1
 -2       563       564       699      2516      2924      2925
 -1      1243    8    0    1
 -2       563       699       698      2925      2926      2921
 -1      1244    8    0    1
 -2       564       565       700      2519      2927      2928
 -1      1245    8    0    1
 -2       564       700       699      2928      2929      2924
 -1      1246    8    0    1
 -2       565       566       701      2522      2930      2931
 -1      1247    8    0    1
 -2       565       701       700      2931      2932      2927
 -1      1248    8    0    1
 -2       566       567       702      2525      2933      2934
 -1      1249    8    0    1
 -2       566       702       701      2934      2935      2930
 -1      1250    8    0    1
 -2       567       568       703      2528      2936      2937
 -1      1251    8    0    1
 -2       702       567       703      2933      2937      2938
 -1      1252    8    0    1
 -2       568       665       703      2825      2939      2936
 -1      1253    8    0    1
 -2       574       575       704      2549      2940      2941
 -1      1254    8    0    1
 -2       615       527       705      2682      2942      2943
 -1      1255    8    0    1
 -2       580       615       705      2679      2943      2944
 -1      1256    8    0    1
 -2       527       663       705      2819      2945      2942
 -1      1257    8    0    1
 -2       570       571       706      2537      2946      2947
 -1      1258    8    0    1
 -2       575       576       707      2552      2948      2949
 -1      1259    8    0    1
 -2       575       707       704      2949      2950      2940
 -1      1260    8    0    1
 -2       571       574       708      2546      2951      2952
 -1      1261    8    0    1
 -2       706       571       708      2946      2952      2953
 -1      1262    8    0    1
 -2       574       704       708      2941      2954      2951
 -1      1263    8    0    1
 -2       606       607       709      2643      2955      2956
 -1      1264    8    0    1
 -2       576       577       710      2555      2957      2958
 -1      1265    8    0    1
 -2       576       710       707      2958      2959      2948
 -1      1266    8    0    1
 -2       577       578       711      2558      2960      2961
 -1      1267    8    0    1
 -2       577       711       710      2961      2962      2957
 -1      1268    8    0    1
 -2       578       579       712      2561      2963      2964
 -1      1269    8    0    1
 -2       578       712       711      2964      2965      2960
 -1      1270    8    0    1
 -2       579       580       713      2564      2966      2967
 -1      1271    8    0    1
 -2       712       579       713      2963      2967      2968
 -1      1272    8    0    1
 -2       580       705       713      2944      2969      2966
 -1      1273    8    0    1
 -2       604       605       636      2651      2970      2971
 -1      1274    8    0    1
 -2       607       608       714      2641      2972      2973
 -1      1275    8    0    1
 -2       584       528       715      2574      2974      2975
 -1      1276    8    0    1
 -2       621       584       715      2696      2975      2976
 -1      1277    8    0    1
 -2       528       666       715      2827      2977      2974
 -1      1278    8    0    1
 -2       483       586       716      2580      2978      2979
 -1      1279    8    0    1
 -2       585       470       717      2654      2980      2981
 -1      1280    8    0    1
 -2       583       581       718      2571      2982      2983
 -1      1281    8    0    1
 -2       530       531       719      2417      2984      2985
 -1      1282    8    0    1
 -2       664       530       719      2821      2985      2986
 -1      1283    8    0    1
 -2       531       667       719      2830      2987      2984
 -1      1284    8    0    1
 -2       485       483       720      2280      2988      2989
 -1      1285    8    0    1
 -2       623       485       720      2701      2989      2990
 -1      1286    8    0    1
 -2       483       716       720      2979      2991      2988
 -1      1287    8    0    1
 -2       478       479       721      2264      2992      2993
 -1      1288    8    0    1
 -2       616       478       721      2683      2993      2994
 -1      1289    8    0    1
 -2       479       618       721      2689      2995      2992
 -1      1290    8    0    1
 -2       600       601       722      2656      2996      2997
 -1      1291    8    0    1
 -2       602       603       723      2653      2998      2999
 -1      1292    8    0    1
 -2       475       474       724      2253      3000      3001
 -1      1293    8    0    1
 -2       590       606       725      2675      3002      3003
 -1      1294    8    0    1
 -2       606       709       725      2956      3004      3002
 -1      1295    8    0    1
 -2       591       592       726      2671      3005      3006
 -1      1296    8    0    1
 -2       592       593       727      2670      3007      3008
 -1      1297    8    0    1
 -2       593       594       728      2669      3009      3010
 -1      1298    8    0    1
 -2       594       595       729      2668      3011      3012
 -1      1299    8    0    1
 -2       595       596       730      2667      3013      3014
 -1      1300    8    0    1
 -2       596       597       731      2666      3015      3016
 -1      1301    8    0    1
 -2       598       599       732      2660      3017      3018
 -1      1302    8    0    1
 -2       601       602       733      2616      3019      3020
 -1      1303    8    0    1
 -2       722       601       733      2996      3020      3021
 -1      1304    8    0    1
 -2       602       723       733      2999      3022      3019
 -1      1305    8    0    1
 -2       597       598       734      2665      3023      3024
 -1      1306    8    0    1
 -2       598       732       734      3018      3025      3023
 -1      1307    8    0    1
 -2       586       445       716      2652      3026      2978
 -1      1308    8    0    1
 -2       472       589       735      2633      3027      3028
 -1      1309    8    0    1
 -2       589       591       736      2676      3029      3030
 -1      1310    8    0    1
 -2       605       590       737      2646      3031      3032
 -1      1311    8    0    1
 -2       582       585       738      2642      3033      3034
 -1      1312    8    0    1
 -2       587       484       739      2639      3035      3036
 -1      1313    8    0    1
 -2       470       587       740      2655      3037      3038
 -1      1314    8    0    1
 -2       717       470       740      2980      3038      3039
 -1      1315    8    0    1
 -2       587       739       740      3036      3040      3037
 -1      1316    8    0    1
 -2       610       475       741      2634      3041      3042
 -1      1317    8    0    1
 -2       475       724       741      3001      3043      3041
 -1      1318    8    0    1
 -2       476       617       742      2686      3044      3045
 -1      1319    8    0    1
 -2       476       742       588      3045      3046      2587
 -1      1320    8    0    1
 -2       608       622       714      2700      3047      2972
 -1      1321    8    0    1
 -2       481       473       620      2695      2694      3048
 -1      1322    8    0    1
 -2       581       611       743      2649      3049      3050
 -1      1323    8    0    1
 -2       581       743       718      3050      3051      2982
 -1      1324    8    0    1
 -2       472       735       614      3028      3052      2674
 -1      1325    8    0    1
 -2       622       583       718      2699      2983      3053
 -1      1326    8    0    1
 -2       600       722       744      2997      3054      3055
 -1      1327    8    0    1
 -2       600       744       612      3055      3056      2659
 -1      1328    8    0    1
 -2       498       634       635      2734      3057      2735
 -1      1329    8    0    1
 -2       497       496       745      2316      3058      3059
 -1      1330    8    0    1
 -2       570       706       746      2947      3060      3061
 -1      1331    8    0    1
 -2       570       746       573      3061      3062      2543
 -1      1332    8    0    1
 -2       591       726       736      3006      3063      3029
 -1      1333    8    0    1
 -2       604       636       635      2971      2739      3064
 -1      1334    8    0    1
 -2       572       573       665      2542      3065      2823
 -1      1335    8    0    1
 -2       636       605       737      2970      3032      3066
 -1      1336    8    0    1
 -2       481       620       619      3048      3067      2690
 -1      1337    8    0    1
 -2       611       582       747      2650      3068      3069
 -1      1338    8    0    1
 -2       582       738       747      3034      3070      3068
 -1      1339    8    0    1
 -2       739       484       748      3035      3071      3072
 -1      1340    8    0    1
 -2       484       614       748      2673      3073      3071
 -1      1341    8    0    1
 -2       607       714       709      2973      3074      2955
 -1      1342    8    0    1
 -2       738       585       717      3033      2981      3075
 -1      1343    8    0    1
 -2       732       599       749      3017      3076      3077
 -1      1344    8    0    1
 -2       599       612       749      2658      3078      3076
 -1      1345    8    0    1
 -2       731       597       734      3015      3024      3079
 -1      1346    8    0    1
 -2       730       596       731      3013      3016      3080
 -1      1347    8    0    1
 -2       474       588       750      2586      3081      3082
 -1      1348    8    0    1
 -2       724       474       750      3000      3082      3083
 -1      1349    8    0    1
 -2       588       742       750      3046      3084      3081
 -1      1350    8    0    1
 -2       729       595       730      3011      3014      3085
 -1      1351    8    0    1
 -2       728       594       729      3009      3012      3086
 -1      1352    8    0    1
 -2       727       593       728      3007      3010      3087
 -1      1353    8    0    1
 -2       497       745       634      3059      3088      2733
 -1      1354    8    0    1
 -2       723       603       745      2998      3089      3090
 -1      1355    8    0    1
 -2       445       610       716      2636      3091      3026
 -1      1356    8    0    1
 -2       590       725       737      3003      3092      3031
 -1      1357    8    0    1
 -2       726       592       727      3005      3008      3093
 -1      1358    8    0    1
 -2       471       604       751      2661      3094      3095
 -1      1359    8    0    1
 -2       735       589       736      3027      3030      3096
 -1      1360    8    0    1
 -2       745       496       633      3058      2731      3097
 -1      1361    8    0    1
 -2       471       751       613      3095      3098      2662
 -1      1362    8    0    1
 -2       618       619       752      2692      3099      3100
 -1      1363    8    0    1
 -2       625       624       753      2708      3101      3102
 -1      1364    8    0    1
 -2       626       625       754      2711      3103      3104
 -1      1365    8    0    1
 -2       625       753       754      3102      3105      3103
 -1      1366    8    0    1
 -2       627       626       755      2714      3106      3107
 -1      1367    8    0    1
 -2       626       754       755      3104      3108      3106
 -1      1368    8    0    1
 -2       628       627       756      2717      3109      3110
 -1      1369    8    0    1
 -2       627       755       756      3107      3111      3109
 -1      1370    8    0    1
 -2       629       628       757      2720      3112      3113
 -1      1371    8    0    1
 -2       628       756       757      3110      3114      3112
 -1      1372    8    0    1
 -2       630       629       758      2723      3115      3116
 -1      1373    8    0    1
 -2       629       757       758      3113      3117      3115
 -1      1374    8    0    1
 -2       631       630       759      2726      3118      3119
 -1      1375    8    0    1
 -2       630       758       759      3116      3120      3118
 -1      1376    8    0    1
 -2       632       631       744      2729      3121      3122
 -1      1377    8    0    1
 -2       723       745       633      3090      3097      3123
 -1      1378    8    0    1
 -2       637       636       737      2742      3066      3124
 -1      1379    8    0    1
 -2       638       637       760      2745      3125      3126
 -1      1380    8    0    1
 -2       637       737       760      3124      3127      3125
 -1      1381    8    0    1
 -2       639       638       761      2748      3128      3129
 -1      1382    8    0    1
 -2       638       760       761      3126      3130      3128
 -1      1383    8    0    1
 -2       640       639       762      2751      3131      3132
 -1      1384    8    0    1
 -2       639       761       762      3129      3133      3131
 -1      1385    8    0    1
 -2       641       640       763      2754      3134      3135
 -1      1386    8    0    1
 -2       640       762       763      3132      3136      3134
 -1      1387    8    0    1
 -2       642       641       764      2757      3137      3138
 -1      1388    8    0    1
 -2       641       763       764      3135      3139      3137
 -1      1389    8    0    1
 -2       643       642       765      2760      3140      3141
 -1      1390    8    0    1
 -2       642       764       765      3138      3142      3140
 -1      1391    8    0    1
 -2       644       643       766      2763      3143      3144
 -1      1392    8    0    1
 -2       643       765       766      3141      3145      3143
 -1      1393    8    0    1
 -2       645       644       767      2766      3146      3147
 -1      1394    8    0    1
 -2       644       766       767      3144      3148      3146
 -1      1395    8    0    1
 -2       646       645       768      2769      3149      3150
 -1      1396    8    0    1
 -2       645       767       768      3147      3151      3149
 -1      1397    8    0    1
 -2       647       646       769      2772      3152      3153
 -1      1398    8    0    1
 -2       646       768       769      3150      3154      3152
 -1      1399    8    0    1
 -2       648       647       770      2775      3155      3156
 -1      1400    8    0    1
 -2       647       769       770      3153      3157      3155
 -1      1401    8    0    1
 -2       649       648       771      2778      3158      3159
 -1      1402    8    0    1
 -2       648       770       771      3156      3160      3158
 -1      1403    8    0    1
 -2       650       649       772      2781      3161      3162
 -1      1404    8    0    1
 -2       649       771       772      3159      3163      3161
 -1      1405    8    0    1
 -2       651       650       773      2784      3164      3165
 -1      1406    8    0    1
 -2       650       772       773      3162      3166      3164
 -1      1407    8    0    1
 -2       652       651       774      2787      3167      3168
 -1      1408    8    0    1
 -2       651       773       774      3165      3169      3167
 -1      1409    8    0    1
 -2       653       652       775      2790      3170      3171
 -1      1410    8    0    1
 -2       652       774       775      3168      3172      3170
 -1      1411    8    0    1
 -2       654       653       776      2793      3173      3174
 -1      1412    8    0    1
 -2       653       775       776      3171      3175      3173
 -1      1413    8    0    1
 -2       655       654       777      2796      3176      3177
 -1      1414    8    0    1
 -2       654       776       777      3174      3178      3176
 -1      1415    8    0    1
 -2       656       655       778      2799      3179      3180
 -1      1416    8    0    1
 -2       655       777       778      3177      3181      3179
 -1      1417    8    0    1
 -2       657       656       779      2802      3182      3183
 -1      1418    8    0    1
 -2       656       778       779      3180      3184      3182
 -1      1419    8    0    1
 -2       658       657       780      2805      3185      3186
 -1      1420    8    0    1
 -2       657       779       780      3183      3187      3185
 -1      1421    8    0    1
 -2       659       658       781      2808      3188      3189
 -1      1422    8    0    1
 -2       658       780       781      3186      3190      3188
 -1      1423    8    0    1
 -2       660       659       782      2811      3191      3192
 -1      1424    8    0    1
 -2       659       781       782      3189      3193      3191
 -1      1425    8    0    1
 -2       661       660       783      2814      3194      3195
 -1      1426    8    0    1
 -2       660       782       783      3192      3196      3194
 -1      1427    8    0    1
 -2       662       661       784      2817      3197      3198
 -1      1428    8    0    1
 -2       661       783       784      3195      3199      3197
 -1      1429    8    0    1
 -2       666       664       785      2828      3200      3201
 -1      1430    8    0    1
 -2       668       669       786      2836      3202      3203
 -1      1431    8    0    1
 -2       667       668       787      2833      3204      3205
 -1      1432    8    0    1
 -2       668       786       787      3203      3206      3204
 -1      1433    8    0    1
 -2       670       671       788      2842      3207      3208
 -1      1434    8    0    1
 -2       671       672       789      2845      3209      3210
 -1      1435    8    0    1
 -2       671       789       788      3210      3211      3207
 -1      1436    8    0    1
 -2       672       673       726      2848      3212      3213
 -1      1437    8    0    1
 -2       673       674       736      2851      3214      3215
 -1      1438    8    0    1
 -2       674       675       735      2854      3216      3217
 -1      1439    8    0    1
 -2       676       677       790      2860      3218      3219
 -1      1440    8    0    1
 -2       677       678       791      2863      3220      3221
 -1      1441    8    0    1
 -2       677       791       790      3221      3222      3218
 -1      1442    8    0    1
 -2       678       679       792      2866      3223      3224
 -1      1443    8    0    1
 -2       678       792       791      3224      3225      3220
 -1      1444    8    0    1
 -2       679       680       793      2869      3226      3227
 -1      1445    8    0    1
 -2       679       793       792      3227      3228      3223
 -1      1446    8    0    1
 -2       680       681       794      2872      3229      3230
 -1      1447    8    0    1
 -2       680       794       793      3230      3231      3226
 -1      1448    8    0    1
 -2       681       682       795      2875      3232      3233
 -1      1449    8    0    1
 -2       681       795       794      3233      3234      3229
 -1      1450    8    0    1
 -2       682       683       796      2878      3235      3236
 -1      1451    8    0    1
 -2       682       796       795      3236      3237      3232
 -1      1452    8    0    1
 -2       683       684       797      2881      3238      3239
 -1      1453    8    0    1
 -2       683       797       796      3239      3240      3235
 -1      1454    8    0    1
 -2       684       685       798      2884      3241      3242
 -1      1455    8    0    1
 -2       684       798       797      3242      3243      3238
 -1      1456    8    0    1
 -2       685       686       799      2887      3244      3245
 -1      1457    8    0    1
 -2       685       799       798      3245      3246      3241
 -1      1458    8    0    1
 -2       686       687       800      2890      3247      3248
 -1      1459    8    0    1
 -2       686       800       799      3248      3249      3244
 -1      1460    8    0    1
 -2       687       688       801      2893      3250      3251
 -1      1461    8    0    1
 -2       687       801       800      3251      3252      3247
 -1      1462    8    0    1
 -2       688       689       802      2896      3253      3254
 -1      1463    8    0    1
 -2       688       802       801      3254      3255      3250
 -1      1464    8    0    1
 -2       689       690       803      2899      3256      3257
 -1      1465    8    0    1
 -2       689       803       802      3257      3258      3253
 -1      1466    8    0    1
 -2       690       691       804      2902      3259      3260
 -1      1467    8    0    1
 -2       690       804       803      3260      3261      3256
 -1      1468    8    0    1
 -2       691       692       805      2905      3262      3263
 -1      1469    8    0    1
 -2       691       805       804      3263      3264      3259
 -1      1470    8    0    1
 -2       692       693       806      2908      3265      3266
 -1      1471    8    0    1
 -2       692       806       805      3266      3267      3262
 -1      1472    8    0    1
 -2       693       694       807      2911      3268      3269
 -1      1473    8    0    1
 -2       693       807       806      3269      3270      3265
 -1      1474    8    0    1
 -2       694       695       808      2914      3271      3272
 -1      1475    8    0    1
 -2       694       808       807      3272      3273      3268
 -1      1476    8    0    1
 -2       695       696       809      2917      3274      3275
 -1      1477    8    0    1
 -2       695       809       808      3275      3276      3271
 -1      1478    8    0    1
 -2       696       697       810      2920      3277      3278
 -1      1479    8    0    1
 -2       696       810       809      3278      3279      3274
 -1      1480    8    0    1
 -2       697       698       811      2923      3280      3281
 -1      1481    8    0    1
 -2       697       811       810      3281      3282      3277
 -1      1482    8    0    1
 -2       698       699       812      2926      3283      3284
 -1      1483    8    0    1
 -2       698       812       811      3284      3285      3280
 -1      1484    8    0    1
 -2       699       700       813      2929      3286      3287
 -1      1485    8    0    1
 -2       699       813       812      3287      3288      3283
 -1      1486    8    0    1
 -2       700       701       814      2932      3289      3290
 -1      1487    8    0    1
 -2       700       814       813      3290      3291      3286
 -1      1488    8    0    1
 -2       701       702       815      2935      3292      3293
 -1      1489    8    0    1
 -2       701       815       814      3293      3294      3289
 -1      1490    8    0    1
 -2       705       663       713      2945      3295      2969
 -1      1491    8    0    1
 -2       617       616       816      2687      3296      3297
 -1      1492    8    0    1
 -2       710       711       817      2962      3298      3299
 -1      1493    8    0    1
 -2       704       707       818      2950      3300      3301
 -1      1494    8    0    1
 -2       711       712       819      2965      3302      3303
 -1      1495    8    0    1
 -2       711       819       817      3303      3304      3298
 -1      1496    8    0    1
 -2       707       710       820      2959      3305      3306
 -1      1497    8    0    1
 -2       818       707       820      3300      3306      3307
 -1      1498    8    0    1
 -2       710       817       820      3299      3308      3305
 -1      1499    8    0    1
 -2       714       622       821      3047      3309      3310
 -1      1500    8    0    1
 -2       736       674       735      3214      3217      3096
 -1      1501    8    0    1
 -2       669       670       822      2839      3311      3312
 -1      1502    8    0    1
 -2       786       669       822      3202      3312      3313
 -1      1503    8    0    1
 -2       670       788       822      3208      3314      3311
 -1      1504    8    0    1
 -2       665       573       746      3065      3062      3315
 -1      1505    8    0    1
 -2       622       718       823      3053      3316      3317
 -1      1506    8    0    1
 -2       736       726       673      3063      3212      3215
 -1      1507    8    0    1
 -2       725       709       824      3004      3318      3319
 -1      1508    8    0    1
 -2       745       603       613      3089      2664      3320
 -1      1509    8    0    1
 -2       716       610       741      3091      3042      3321
 -1      1510    8    0    1
 -2       624       623       825      2705      3322      3323
 -1      1511    8    0    1
 -2       624       825       753      3323      3324      3101
 -1      1512    8    0    1
 -2       730       731       826      3080      3325      3326
 -1      1513    8    0    1
 -2       729       730       827      3085      3327      3328
 -1      1514    8    0    1
 -2       734       732       828      3025      3329      3330
 -1      1515    8    0    1
 -2       738       717       829      3075      3331      3332
 -1      1516    8    0    1
 -2       709       714       830      3074      3333      3334
 -1      1517    8    0    1
 -2       709       830       824      3334      3335      3318
 -1      1518    8    0    1
 -2       727       728       831      3087      3336      3337
 -1      1519    8    0    1
 -2       728       729       832      3086      3338      3339
 -1      1520    8    0    1
 -2       729       827       832      3328      3340      3338
 -1      1521    8    0    1
 -2       737       725       760      3092      3341      3127
 -1      1522    8    0    1
 -2       731       734       833      3079      3342      3343
 -1      1523    8    0    1
 -2       619       620       834      3067      3344      3345
 -1      1524    8    0    1
 -2       752       619       834      3099      3345      3346
 -1      1525    8    0    1
 -2       620       621       834      2698      3347      3344
 -1      1526    8    0    1
 -2       723       633       733      3123      3348      3022
 -1      1527    8    0    1
 -2       672       726       789      3213      3349      3209
 -1      1528    8    0    1
 -2       742       617       835      3044      3350      3351
 -1      1529    8    0    1
 -2       617       816       835      3297      3352      3350
 -1      1530    8    0    1
 -2       718       743       836      3051      3353      3354
 -1      1531    8    0    1
 -2       718       836       823      3354      3355      3316
 -1      1532    8    0    1
 -2       631       759       744      3119      3356      3121
 -1      1533    8    0    1
 -2       743       611       747      3049      3069      3357
 -1      1534    8    0    1
 -2       613       751       634      3098      3358      3359
 -1      1535    8    0    1
 -2       746       706       837      3060      3360      3361
 -1      1536    8    0    1
 -2       730       826       838      3326      3362      3363
 -1      1537    8    0    1
 -2       730       838       827      3363      3364      3327
 -1      1538    8    0    1
 -2       633       632       839      2732      3365      3366
 -1      1539    8    0    1
 -2       830       714       821      3333      3310      3367
 -1      1540    8    0    1
 -2       622       823       821      3317      3368      3309
 -1      1541    8    0    1
 -2       623       720       840      2990      3369      3370
 -1      1542    8    0    1
 -2       623       840       825      3370      3371      3322
 -1      1543    8    0    1
 -2       731       833       841      3343      3372      3373
 -1      1544    8    0    1
 -2       731       841       826      3373      3374      3325
 -1      1545    8    0    1
 -2       785       664       842      3200      3375      3376
 -1      1546    8    0    1
 -2       664       719       842      2986      3377      3375
 -1      1547    8    0    1
 -2       663       662       843      2820      3378      3379
 -1      1548    8    0    1
 -2       720       716       741      2991      3321      3380
 -1      1549    8    0    1
 -2       665       746       844      3315      3381      3382
 -1      1550    8    0    1
 -2       703       665       844      2939      3382      3383
 -1      1551    8    0    1
 -2       746       837       844      3361      3384      3381
 -1      1552    8    0    1
 -2       667       787       845      3205      3385      3386
 -1      1553    8    0    1
 -2       667       845       719      3386      3387      2987
 -1      1554    8    0    1
 -2       727       831       789      3337      3388      3389
 -1      1555    8    0    1
 -2       725       824       760      3319      3390      3341
 -1      1556    8    0    1
 -2       675       676       846      2857      3391      3392
 -1      1557    8    0    1
 -2       713       663       843      3295      3379      3393
 -1      1558    8    0    1
 -2       702       703       847      2938      3394      3395
 -1      1559    8    0    1
 -2       815       702       847      3292      3395      3396
 -1      1560    8    0    1
 -2       703       844       847      3383      3397      3394
 -1      1561    8    0    1
 -2       706       708       848      2953      3398      3399
 -1      1562    8    0    1
 -2       706       848       837      3399      3400      3360
 -1      1563    8    0    1
 -2       816       616       849      3296      3401      3402
 -1      1564    8    0    1
 -2       616       721       849      2994      3403      3401
 -1      1565    8    0    1
 -2       708       704       850      2954      3404      3405
 -1      1566    8    0    1
 -2       848       708       850      3398      3405      3406
 -1      1567    8    0    1
 -2       704       818       850      3301      3407      3404
 -1      1568    8    0    1
 -2       740       739       851      3040      3408      3409
 -1      1569    8    0    1
 -2       712       713       843      2968      3393      3410
 -1      1570    8    0    1
 -2       747       738       852      3070      3411      3412
 -1      1571    8    0    1
 -2       738       829       852      3332      3413      3411
 -1      1572    8    0    1
 -2       748       614       790      3073      3414      3415
 -1      1573    8    0    1
 -2       613       634       745      3359      3088      3320
 -1      1574    8    0    1
 -2       843       662       784      3378      3198      3416
 -1      1575    8    0    1
 -2       846       676       790      3391      3219      3417
 -1      1576    8    0    1
 -2       712       843       819      3410      3418      3302
 -1      1577    8    0    1
 -2       790       614       846      3414      3419      3417
 -1      1578    8    0    1
 -2       621       715       853      2976      3420      3421
 -1      1579    8    0    1
 -2       621       853       834      3421      3422      3347
 -1      1580    8    0    1
 -2       741       724       854      3043      3423      3424
 -1      1581    8    0    1
 -2       789       726       727      3349      3093      3389
 -1      1582    8    0    1
 -2       732       749       855      3077      3425      3426
 -1      1583    8    0    1
 -2       732       855       828      3426      3427      3329
 -1      1584    8    0    1
 -2       735       675       846      3216      3392      3428
 -1      1585    8    0    1
 -2       618       752       856      3100      3429      3430
 -1      1586    8    0    1
 -2       618       856       721      3430      3431      2995
 -1      1587    8    0    1
 -2       614       735       846      3052      3428      3419
 -1      1588    8    0    1
 -2       715       666       857      2977      3432      3433
 -1      1589    8    0    1
 -2       853       715       857      3420      3433      3434
 -1      1590    8    0    1
 -2       666       785       857      3201      3435      3432
 -1      1591    8    0    1
 -2       829       717       858      3331      3436      3437
 -1      1592    8    0    1
 -2       734       828       833      3330      3438      3342
 -1      1593    8    0    1
 -2       751       604       635      3094      3064      3439
 -1      1594    8    0    1
 -2       831       728       832      3336      3339      3440
 -1      1595    8    0    1
 -2       724       750       859      3083      3441      3442
 -1      1596    8    0    1
 -2       724       859       854      3442      3443      3423
 -1      1597    8    0    1
 -2       858       717       740      3436      3039      3444
 -1      1598    8    0    1
 -2       722       733       839      3021      3445      3446
 -1      1599    8    0    1
 -2       634       751       635      3358      3439      3057
 -1      1600    8    0    1
 -2       755       754       860      3108      3447      3448
 -1      1601    8    0    1
 -2       756       755       861      3111      3449      3450
 -1      1602    8    0    1
 -2       755       860       861      3448      3451      3449
 -1      1603    8    0    1
 -2       757       756       862      3114      3452      3453
 -1      1604    8    0    1
 -2       756       861       862      3450      3454      3452
 -1      1605    8    0    1
 -2       758       757       863      3117      3455      3456
 -1      1606    8    0    1
 -2       757       862       863      3453      3457      3455
 -1      1607    8    0    1
 -2       759       758       864      3120      3458      3459
 -1      1608    8    0    1
 -2       758       863       864      3456      3460      3458
 -1      1609    8    0    1
 -2       743       747       865      3357      3461      3462
 -1      1610    8    0    1
 -2       830       821       866      3367      3463      3464
 -1      1611    8    0    1
 -2       761       760       824      3130      3390      3465
 -1      1612    8    0    1
 -2       762       761       867      3133      3466      3467
 -1      1613    8    0    1
 -2       761       824       867      3465      3468      3466
 -1      1614    8    0    1
 -2       763       762       868      3136      3469      3470
 -1      1615    8    0    1
 -2       764       763       869      3139      3471      3472
 -1      1616    8    0    1
 -2       763       868       869      3470      3473      3471
 -1      1617    8    0    1
 -2       765       764       870      3142      3474      3475
 -1      1618    8    0    1
 -2       764       869       870      3472      3476      3474
 -1      1619    8    0    1
 -2       766       765       871      3145      3477      3478
 -1      1620    8    0    1
 -2       765       870       871      3475      3479      3477
 -1      1621    8    0    1
 -2       767       766       872      3148      3480      3481
 -1      1622    8    0    1
 -2       766       871       872      3478      3482      3480
 -1      1623    8    0    1
 -2       768       767       873      3151      3483      3484
 -1      1624    8    0    1
 -2       767       872       873      3481      3485      3483
 -1      1625    8    0    1
 -2       769       768       874      3154      3486      3487
 -1      1626    8    0    1
 -2       768       873       874      3484      3488      3486
 -1      1627    8    0    1
 -2       770       769       875      3157      3489      3490
 -1      1628    8    0    1
 -2       769       874       875      3487      3491      3489
 -1      1629    8    0    1
 -2       771       770       876      3160      3492      3493
 -1      1630    8    0    1
 -2       770       875       876      3490      3494      3492
 -1      1631    8    0    1
 -2       772       771       877      3163      3495      3496
 -1      1632    8    0    1
 -2       771       876       877      3493      3497      3495
 -1      1633    8    0    1
 -2       773       772       878      3166      3498      3499
 -1      1634    8    0    1
 -2       772       877       878      3496      3500      3498
 -1      1635    8    0    1
 -2       774       773       879      3169      3501      3502
 -1      1636    8    0    1
 -2       773       878       879      3499      3503      3501
 -1      1637    8    0    1
 -2       775       774       880      3172      3504      3505
 -1      1638    8    0    1
 -2       774       879       880      3502      3506      3504
 -1      1639    8    0    1
 -2       776       775       881      3175      3507      3508
 -1      1640    8    0    1
 -2       775       880       881      3505      3509      3507
 -1      1641    8    0    1
 -2       777       776       882      3178      3510      3511
 -1      1642    8    0    1
 -2       776       881       882      3508      3512      3510
 -1      1643    8    0    1
 -2       778       777       883      3181      3513      3514
 -1      1644    8    0    1
 -2       777       882       883      3511      3515      3513
 -1      1645    8    0    1
 -2       779       778       884      3184      3516      3517
 -1      1646    8    0    1
 -2       778       883       884      3514      3518      3516
 -1      1647    8    0    1
 -2       780       779       885      3187      3519      3520
 -1      1648    8    0    1
 -2       779       884       885      3517      3521      3519
 -1      1649    8    0    1
 -2       781       780       886      3190      3522      3523
 -1      1650    8    0    1
 -2       780       885       886      3520      3524      3522
 -1      1651    8    0    1
 -2       782       781       887      3193      3525      3526
 -1      1652    8    0    1
 -2       781       886       887      3523      3527      3525
 -1      1653    8    0    1
 -2       783       782       888      3196      3528      3529
 -1      1654    8    0    1
 -2       782       887       888      3526      3530      3528
 -1      1655    8    0    1
 -2       784       783       889      3199      3531      3532
 -1      1656    8    0    1
 -2       783       888       889      3529      3533      3531
 -1      1657    8    0    1
 -2       720       741       840      3380      3534      3369
 -1      1658    8    0    1
 -2       789       831       788      3388      3535      3211
 -1      1659    8    0    1
 -2       790       791       748      3222      3536      3415
 -1      1660    8    0    1
 -2       793       794       890      3231      3537      3538
 -1      1661    8    0    1
 -2       794       795       891      3234      3539      3540
 -1      1662    8    0    1
 -2       794       891       890      3540      3541      3537
 -1      1663    8    0    1
 -2       795       796       892      3237      3542      3543
 -1      1664    8    0    1
 -2       795       892       891      3543      3544      3539
 -1      1665    8    0    1
 -2       796       797       893      3240      3545      3546
 -1      1666    8    0    1
 -2       796       893       892      3546      3547      3542
 -1      1667    8    0    1
 -2       797       798       894      3243      3548      3549
 -1      1668    8    0    1
 -2       797       894       893      3549      3550      3545
 -1      1669    8    0    1
 -2       798       799       895      3246      3551      3552
 -1      1670    8    0    1
 -2       798       895       894      3552      3553      3548
 -1      1671    8    0    1
 -2       799       800       896      3249      3554      3555
 -1      1672    8    0    1
 -2       799       896       895      3555      3556      3551
 -1      1673    8    0    1
 -2       800       801       897      3252      3557      3558
 -1      1674    8    0    1
 -2       800       897       896      3558      3559      3554
 -1      1675    8    0    1
 -2       801       802       898      3255      3560      3561
 -1      1676    8    0    1
 -2       801       898       897      3561      3562      3557
 -1      1677    8    0    1
 -2       802       803       899      3258      3563      3564
 -1      1678    8    0    1
 -2       802       899       898      3564      3565      3560
 -1      1679    8    0    1
 -2       803       804       900      3261      3566      3567
 -1      1680    8    0    1
 -2       803       900       899      3567      3568      3563
 -1      1681    8    0    1
 -2       804       805       901      3264      3569      3570
 -1      1682    8    0    1
 -2       804       901       900      3570      3571      3566
 -1      1683    8    0    1
 -2       805       806       902      3267      3572      3573
 -1      1684    8    0    1
 -2       805       902       901      3573      3574      3569
 -1      1685    8    0    1
 -2       806       807       903      3270      3575      3576
 -1      1686    8    0    1
 -2       806       903       902      3576      3577      3572
 -1      1687    8    0    1
 -2       807       808       904      3273      3578      3579
 -1      1688    8    0    1
 -2       807       904       903      3579      3580      3575
 -1      1689    8    0    1
 -2       808       809       905      3276      3581      3582
 -1      1690    8    0    1
 -2       808       905       904      3582      3583      3578
 -1      1691    8    0    1
 -2       809       810       906      3279      3584      3585
 -1      1692    8    0    1
 -2       809       906       905      3585      3586      3581
 -1      1693    8    0    1
 -2       810       811       907      3282      3587      3588
 -1      1694    8    0    1
 -2       810       907       906      3588      3589      3584
 -1      1695    8    0    1
 -2       811       812       908      3285      3590      3591
 -1      1696    8    0    1
 -2       811       908       907      3591      3592      3587
 -1      1697    8    0    1
 -2       812       813       909      3288      3593      3594
 -1      1698    8    0    1
 -2       812       909       908      3594      3595      3590
 -1      1699    8    0    1
 -2       813       814       910      3291      3596      3597
 -1      1700    8    0    1
 -2       813       910       909      3597      3598      3593
 -1      1701    8    0    1
 -2       814       815       911      3294      3599      3600
 -1      1702    8    0    1
 -2       814       911       910      3600      3601      3596
 -1      1703    8    0    1
 -2       851       739       791      3408      3602      3603
 -1      1704    8    0    1
 -2       821       823       912      3368      3604      3605
 -1      1705    8    0    1
 -2       821       912       866      3605      3606      3463
 -1      1706    8    0    1
 -2       740       851       858      3409      3607      3444
 -1      1707    8    0    1
 -2       817       819       913      3304      3608      3609
 -1      1708    8    0    1
 -2       839       733       633      3445      3348      3366
 -1      1709    8    0    1
 -2       749       612       914      3078      3610      3611
 -1      1710    8    0    1
 -2       612       744       914      3056      3612      3610
 -1      1711    8    0    1
 -2       750       742       915      3084      3613      3614
 -1      1712    8    0    1
 -2       750       915       859      3614      3615      3441
 -1      1713    8    0    1
 -2       791       792       851      3225      3616      3603
 -1      1714    8    0    1
 -2       832       827       916      3340      3617      3618
 -1      1715    8    0    1
 -2       833       828       917      3438      3619      3620
 -1      1716    8    0    1
 -2       787       786       918      3206      3621      3622
 -1      1717    8    0    1
 -2       824       830       867      3335      3623      3468
 -1      1718    8    0    1
 -2       851       792       858      3616      3624      3607
 -1      1719    8    0    1
 -2       741       854       840      3424      3625      3534
 -1      1720    8    0    1
 -2       752       834       919      3346      3626      3627
 -1      1721    8    0    1
 -2       834       853       919      3422      3628      3626
 -1      1722    8    0    1
 -2       831       832       920      3440      3629      3630
 -1      1723    8    0    1
 -2       788       831       920      3535      3630      3631
 -1      1724    8    0    1
 -2       832       916       920      3618      3632      3629
 -1      1725    8    0    1
 -2       754       753       921      3105      3633      3634
 -1      1726    8    0    1
 -2       754       921       860      3634      3635      3447
 -1      1727    8    0    1
 -2       829       858       922      3437      3636      3637
 -1      1728    8    0    1
 -2       739       748       791      3072      3536      3602
 -1      1729    8    0    1
 -2       753       825       923      3324      3638      3639
 -1      1730    8    0    1
 -2       753       923       921      3639      3640      3633
 -1      1731    8    0    1
 -2       858       792       793      3624      3228      3641
 -1      1732    8    0    1
 -2       836       743       924      3353      3642      3643
 -1      1733    8    0    1
 -2       743       865       924      3462      3644      3642
 -1      1734    8    0    1
 -2       838       826       925      3362      3645      3646
 -1      1735    8    0    1
 -2       826       841       925      3374      3647      3645
 -1      1736    8    0    1
 -2       816       849       926      3402      3648      3649
 -1      1737    8    0    1
 -2       744       722       632      3054      3650      3122
 -1      1738    8    0    1
 -2       719       845       842      3387      3651      3377
 -1      1739    8    0    1
 -2       827       838       916      3364      3652      3617
 -1      1740    8    0    1
 -2       865       747       852      3461      3412      3653
 -1      1741    8    0    1
 -2       830       866       867      3464      3654      3623
 -1      1742    8    0    1
 -2       752       919       856      3627      3655      3429
 -1      1743    8    0    1
 -2       858       793       922      3641      3656      3636
 -1      1744    8    0    1
 -2       841       833       917      3372      3620      3657
 -1      1745    8    0    1
 -2       868       762       867      3469      3467      3658
 -1      1746    8    0    1
 -2       912       823       927      3604      3659      3660
 -1      1747    8    0    1
 -2       823       836       927      3355      3661      3659
 -1      1748    8    0    1
 -2       844       837       928      3384      3662      3663
 -1      1749    8    0    1
 -2       844       928       847      3663      3664      3397
 -1      1750    8    0    1
 -2       835       816       929      3352      3665      3666
 -1      1751    8    0    1
 -2       816       926       929      3649      3667      3665
 -1      1752    8    0    1
 -2       822       788       920      3314      3631      3668
 -1      1753    8    0    1
 -2       819       843       930      3418      3669      3670
 -1      1754    8    0    1
 -2       818       820       931      3307      3671      3672
 -1      1755    8    0    1
 -2       849       721       856      3403      3431      3673
 -1      1756    8    0    1
 -2       845       787       932      3385      3674      3675
 -1      1757    8    0    1
 -2       787       918       932      3622      3676      3674
 -1      1758    8    0    1
 -2       850       818       933      3407      3677      3678
 -1      1759    8    0    1
 -2       818       931       933      3672      3679      3677
 -1      1760    8    0    1
 -2       913       819       930      3608      3670      3680
 -1      1761    8    0    1
 -2       820       817       934      3308      3681      3682
 -1      1762    8    0    1
 -2       820       934       931      3682      3683      3671
 -1      1763    8    0    1
 -2       852       829       935      3413      3684      3685
 -1      1764    8    0    1
 -2       829       922       935      3637      3686      3684
 -1      1765    8    0    1
 -2       918       786       936      3621      3687      3688
 -1      1766    8    0    1
 -2       786       822       936      3313      3689      3687
 -1      1767    8    0    1
 -2       817       913       934      3609      3690      3681
 -1      1768    8    0    1
 -2       915       742       835      3613      3351      3691
 -1      1769    8    0    1
 -2       917       828       937      3619      3692      3693
 -1      1770    8    0    1
 -2       828       855       937      3427      3694      3692
 -1      1771    8    0    1
 -2       825       840       938      3371      3695      3696
 -1      1772    8    0    1
 -2       923       825       938      3638      3696      3697
 -1      1773    8    0    1
 -2       840       854       938      3625      3698      3695
 -1      1774    8    0    1
 -2       922       793       890      3656      3538      3699
 -1      1775    8    0    1
 -2       815       847       939      3396      3700      3701
 -1      1776    8    0    1
 -2       911       815       939      3599      3701      3702
 -1      1777    8    0    1
 -2       847       928       939      3664      3703      3700
 -1      1778    8    0    1
 -2       857       785       940      3435      3704      3705
 -1      1779    8    0    1
 -2       843       784       930      3416      3706      3669
 -1      1780    8    0    1
 -2       749       914       941      3611      3707      3708
 -1      1781    8    0    1
 -2       785       842       942      3376      3709      3710
 -1      1782    8    0    1
 -2       785       942       940      3710      3711      3704
 -1      1783    8    0    1
 -2       854       859       943      3443      3712      3713
 -1      1784    8    0    1
 -2       854       943       938      3713      3714      3698
 -1      1785    8    0    1
 -2       855       749       941      3425      3708      3715
 -1      1786    8    0    1
 -2       837       848       944      3400      3716      3717
 -1      1787    8    0    1
 -2       837       944       928      3717      3718      3662
 -1      1788    8    0    1
 -2       941       914       864      3707      3719      3720
 -1      1789    8    0    1
 -2       926       849       945      3648      3721      3722
 -1      1790    8    0    1
 -2       849       856       945      3673      3723      3721
 -1      1791    8    0    1
 -2       861       860       946      3451      3724      3725
 -1      1792    8    0    1
 -2       842       845       947      3651      3726      3727
 -1      1793    8    0    1
 -2       845       932       947      3675      3728      3726
 -1      1794    8    0    1
 -2       862       861       948      3454      3729      3730
 -1      1795    8    0    1
 -2       861       946       948      3725      3731      3729
 -1      1796    8    0    1
 -2       863       862       949      3457      3732      3733
 -1      1797    8    0    1
 -2       862       948       949      3730      3734      3732
 -1      1798    8    0    1
 -2       864       863       950      3460      3735      3736
 -1      1799    8    0    1
 -2       941       864       950      3720      3736      3737
 -1      1800    8    0    1
 -2       863       949       950      3733      3738      3735
 -1      1801    8    0    1
 -2       916       838       951      3652      3739      3740
 -1      1802    8    0    1
 -2       784       889       930      3532      3741      3706
 -1      1803    8    0    1
 -2       870       869       952      3476      3742      3743
 -1      1804    8    0    1
 -2       871       870       953      3479      3744      3745
 -1      1805    8    0    1
 -2       870       952       953      3743      3746      3744
 -1      1806    8    0    1
 -2       872       871       954      3482      3747      3748
 -1      1807    8    0    1
 -2       871       953       954      3745      3749      3747
 -1      1808    8    0    1
 -2       873       872       955      3485      3750      3751
 -1      1809    8    0    1
 -2       872       954       955      3748      3752      3750
 -1      1810    8    0    1
 -2       874       873       956      3488      3753      3754
 -1      1811    8    0    1
 -2       873       955       956      3751      3755      3753
 -1      1812    8    0    1
 -2       875       874       957      3491      3756      3757
 -1      1813    8    0    1
 -2       874       956       957      3754      3758      3756
 -1      1814    8    0    1
 -2       876       875       958      3494      3759      3760
 -1      1815    8    0    1
 -2       875       957       958      3757      3761      3759
 -1      1816    8    0    1
 -2       877       876       959      3497      3762      3763
 -1      1817    8    0    1
 -2       876       958       959      3760      3764      3762
 -1      1818    8    0    1
 -2       878       877       960      3500      3765      3766
 -1      1819    8    0    1
 -2       877       959       960      3763      3767      3765
 -1      1820    8    0    1
 -2       879       878       961      3503      3768      3769
 -1      1821    8    0    1
 -2       878       960       961      3766      3770      3768
 -1      1822    8    0    1
 -2       880       879       962      3506      3771      3772
 -1      1823    8    0    1
 -2       879       961       962      3769      3773      3771
 -1      1824    8    0    1
 -2       881       880       963      3509      3774      3775
 -1      1825    8    0    1
 -2       880       962       963      3772      3776      3774
 -1      1826    8    0    1
 -2       882       881       964      3512      3777      3778
 -1      1827    8    0    1
 -2       881       963       964      3775      3779      3777
 -1      1828    8    0    1
 -2       883       882       965      3515      3780      3781
 -1      1829    8    0    1
 -2       882       964       965      3778      3782      3780
 -1      1830    8    0    1
 -2       884       883       966      3518      3783      3784
 -1      1831    8    0    1
 -2       883       965       966      3781      3785      3783
 -1      1832    8    0    1
 -2       885       884       967      3521      3786      3787
 -1      1833    8    0    1
 -2       884       966       967      3784      3788      3786
 -1      1834    8    0    1
 -2       886       885       968      3524      3789      3790
 -1      1835    8    0    1
 -2       885       967       968      3787      3791      3789
 -1      1836    8    0    1
 -2       887       886       969      3527      3792      3793
 -1      1837    8    0    1
 -2       886       968       969      3790      3794      3792
 -1      1838    8    0    1
 -2       888       887       970      3530      3795      3796
 -1      1839    8    0    1
 -2       887       969       970      3793      3797      3795
 -1      1840    8    0    1
 -2       889       888       971      3533      3798      3799
 -1      1841    8    0    1
 -2       888       970       971      3796      3800      3798
 -1      1842    8    0    1
 -2       892       893       972      3547      3801      3802
 -1      1843    8    0    1
 -2       867       866       868      3654      3803      3658
 -1      1844    8    0    1
 -2       891       892       973      3544      3804      3805
 -1      1845    8    0    1
 -2       892       972       973      3802      3806      3804
 -1      1846    8    0    1
 -2       893       894       974      3550      3807      3808
 -1      1847    8    0    1
 -2       893       974       972      3808      3809      3801
 -1      1848    8    0    1
 -2       894       895       975      3553      3810      3811
 -1      1849    8    0    1
 -2       894       975       974      3811      3812      3807
 -1      1850    8    0    1
 -2       895       896       976      3556      3813      3814
 -1      1851    8    0    1
 -2       895       976       975      3814      3815      3810
 -1      1852    8    0    1
 -2       896       897       977      3559      3816      3817
 -1      1853    8    0    1
 -2       896       977       976      3817      3818      3813
 -1      1854    8    0    1
 -2       897       898       978      3562      3819      3820
 -1      1855    8    0    1
 -2       897       978       977      3820      3821      3816
 -1      1856    8    0    1
 -2       898       899       979      3565      3822      3823
 -1      1857    8    0    1
 -2       898       979       978      3823      3824      3819
 -1      1858    8    0    1
 -2       899       900       980      3568      3825      3826
 -1      1859    8    0    1
 -2       899       980       979      3826      3827      3822
 -1      1860    8    0    1
 -2       900       901       981      3571      3828      3829
 -1      1861    8    0    1
 -2       900       981       980      3829      3830      3825
 -1      1862    8    0    1
 -2       901       902       982      3574      3831      3832
 -1      1863    8    0    1
 -2       901       982       981      3832      3833      3828
 -1      1864    8    0    1
 -2       902       903       983      3577      3834      3835
 -1      1865    8    0    1
 -2       902       983       982      3835      3836      3831
 -1      1866    8    0    1
 -2       903       904       984      3580      3837      3838
 -1      1867    8    0    1
 -2       903       984       983      3838      3839      3834
 -1      1868    8    0    1
 -2       904       905       985      3583      3840      3841
 -1      1869    8    0    1
 -2       904       985       984      3841      3842      3837
 -1      1870    8    0    1
 -2       905       906       986      3586      3843      3844
 -1      1871    8    0    1
 -2       905       986       985      3844      3845      3840
 -1      1872    8    0    1
 -2       906       907       987      3589      3846      3847
 -1      1873    8    0    1
 -2       906       987       986      3847      3848      3843
 -1      1874    8    0    1
 -2       907       908       988      3592      3849      3850
 -1      1875    8    0    1
 -2       907       988       987      3850      3851      3846
 -1      1876    8    0    1
 -2       908       909       989      3595      3852      3853
 -1      1877    8    0    1
 -2       908       989       988      3853      3854      3849
 -1      1878    8    0    1
 -2       909       910       990      3598      3855      3856
 -1      1879    8    0    1
 -2       909       990       989      3856      3857      3852
 -1      1880    8    0    1
 -2       910       911       991      3601      3858      3859
 -1      1881    8    0    1
 -2       910       991       990      3859      3860      3855
 -1      1882    8    0    1
 -2       860       921       992      3635      3861      3862
 -1      1883    8    0    1
 -2       860       992       946      3862      3863      3724
 -1      1884    8    0    1
 -2       921       923       993      3640      3864      3865
 -1      1885    8    0    1
 -2       921       993       992      3865      3866      3861
 -1      1886    8    0    1
 -2       848       850       994      3406      3867      3868
 -1      1887    8    0    1
 -2       944       848       994      3716      3868      3869
 -1      1888    8    0    1
 -2       850       933       994      3678      3870      3867
 -1      1889    8    0    1
 -2       915       835       995      3691      3871      3872
 -1      1890    8    0    1
 -2       835       929       995      3666      3873      3871
 -1      1891    8    0    1
 -2       853       857       996      3434      3874      3875
 -1      1892    8    0    1
 -2       919       853       996      3628      3875      3876
 -1      1893    8    0    1
 -2       857       940       996      3705      3877      3874
 -1      1894    8    0    1
 -2       855       941       937      3715      3878      3694
 -1      1895    8    0    1
 -2       759       864       914      3459      3719      3879
 -1      1896    8    0    1
 -2       865       852       997      3653      3880      3881
 -1      1897    8    0    1
 -2       923       938       998      3697      3882      3883
 -1      1898    8    0    1
 -2       993       923       998      3864      3883      3884
 -1      1899    8    0    1
 -2       938       943       998      3714      3885      3882
 -1      1900    8    0    1
 -2       931       934       999      3683      3886      3887
 -1      1901    8    0    1
 -2       822       920       936      3668      3888      3689
 -1      1902    8    0    1
 -2       856       919       945      3655      3889      3723
 -1      1903    8    0    1
 -2       859       915      1000      3615      3890      3891
 -1      1904    8    0    1
 -2       943       859      1000      3712      3891      3892
 -1      1905    8    0    1
 -2       915       995      1000      3872      3893      3890
 -1      1906    8    0    1
 -2       869       868      1001      3473      3894      3895
 -1      1907    8    0    1
 -2       869      1001       952      3895      3896      3742
 -1      1908    8    0    1
 -2       922       890       935      3699      3897      3686
 -1      1909    8    0    1
 -2       920       916       936      3632      3898      3888
 -1      1910    8    0    1
 -2       841       917      1002      3657      3899      3900
 -1      1911    8    0    1
 -2       868       866      1001      3803      3901      3894
 -1      1912    8    0    1
 -2       925       841      1003      3647      3902      3903
 -1      1913    8    0    1
 -2       841      1002      1003      3900      3904      3902
 -1      1914    8    0    1
 -2       632       722       839      3650      3446      3365
 -1      1915    8    0    1
 -2       842       947       942      3727      3905      3709
 -1      1916    8    0    1
 -2       838       925      1004      3646      3906      3907
 -1      1917    8    0    1
 -2       838      1004       951      3907      3908      3739
 -1      1918    8    0    1
 -2       930       889      1005      3741      3909      3910
 -1      1919    8    0    1
 -2       889       971      1005      3799      3911      3909
 -1      1920    8    0    1
 -2       924       865      1006      3644      3912      3913
 -1      1921    8    0    1
 -2       865       997      1006      3881      3914      3912
 -1      1922    8    0    1
 -2       927       836      1007      3661      3915      3916
 -1      1923    8    0    1
 -2       836       924      1007      3643      3917      3915
 -1      1924    8    0    1
 -2       935       890       891      3897      3541      3918
 -1      1925    8    0    1
 -2       930      1005       913      3910      3919      3680
 -1      1926    8    0    1
 -2       929       926      1008      3667      3920      3921
 -1      1927    8    0    1
 -2       852       935       997      3685      3922      3880
 -1      1928    8    0    1
 -2       928       944      1009      3718      3923      3924
 -1      1929    8    0    1
 -2       928      1009       939      3924      3925      3703
 -1      1930    8    0    1
 -2       931       999      1010      3887      3926      3927
 -1      1931    8    0    1
 -2       931      1010       933      3927      3928      3679
 -1      1932    8    0    1
 -2       866       912      1001      3606      3929      3901
 -1      1933    8    0    1
 -2       916       951       936      3740      3930      3898
 -1      1934    8    0    1
 -2       932       918      1011      3676      3931      3932
 -1      1935    8    0    1
 -2      1001       912      1012      3929      3933      3934
 -1      1936    8    0    1
 -2       952      1001      1012      3896      3934      3935
 -1      1937    8    0    1
 -2       912       927      1012      3660      3936      3933
 -1      1938    8    0    1
 -2       996       940      1013      3877      3937      3938
 -1      1939    8    0    1
 -2       937       941       950      3878      3737      3939
 -1      1940    8    0    1
 -2       914       744       759      3612      3356      3879
 -1      1941    8    0    1
 -2       891       973       935      3805      3940      3918
 -1      1942    8    0    1
 -2      1013       940      1014      3937      3941      3942
 -1      1943    8    0    1
 -2       940       942      1014      3711      3943      3941
 -1      1944    8    0    1
 -2       917       937      1015      3693      3944      3945
 -1      1945    8    0    1
 -2       911       939      1016      3702      3946      3947
 -1      1946    8    0    1
 -2       991       911      1016      3858      3947      3948
 -1      1947    8    0    1
 -2       939      1009      1016      3925      3949      3946
 -1      1948    8    0    1
 -2       934       913      1017      3690      3950      3951
 -1      1949    8    0    1
 -2      1002       917      1015      3899      3945      3952
 -1      1950    8    0    1
 -2       934      1017       999      3951      3953      3886
 -1      1951    8    0    1
 -2       992       993      1018      3866      3954      3955
 -1      1952    8    0    1
 -2       942       947      1019      3905      3956      3957
 -1      1953    8    0    1
 -2       942      1019      1014      3957      3958      3943
 -1      1954    8    0    1
 -2       948       946      1020      3731      3959      3960
 -1      1955    8    0    1
 -2       949       948      1021      3734      3961      3962
 -1      1956    8    0    1
 -2       948      1020      1021      3960      3963      3961
 -1      1957    8    0    1
 -2       953       952      1022      3746      3964      3965
 -1      1958    8    0    1
 -2       954       953      1023      3749      3966      3967
 -1      1959    8    0    1
 -2       953      1022      1023      3965      3968      3966
 -1      1960    8    0    1
 -2       955       954      1024      3752      3969      3970
 -1      1961    8    0    1
 -2       954      1023      1024      3967      3971      3969
 -1      1962    8    0    1
 -2       956       955      1025      3755      3972      3973
 -1      1963    8    0    1
 -2       955      1024      1025      3970      3974      3972
 -1      1964    8    0    1
 -2       957       956      1026      3758      3975      3976
 -1      1965    8    0    1
 -2       956      1025      1026      3973      3977      3975
 -1      1966    8    0    1
 -2       958       957      1027      3761      3978      3979
 -1      1967    8    0    1
 -2       957      1026      1027      3976      3980      3978
 -1      1968    8    0    1
 -2       959       958      1028      3764      3981      3982
 -1      1969    8    0    1
 -2       958      1027      1028      3979      3983      3981
 -1      1970    8    0    1
 -2       960       959      1029      3767      3984      3985
 -1      1971    8    0    1
 -2       959      1028      1029      3982      3986      3984
 -1      1972    8    0    1
 -2       961       960      1030      3770      3987      3988
 -1      1973    8    0    1
 -2       960      1029      1030      3985      3989      3987
 -1      1974    8    0    1
 -2       962       961      1031      3773      3990      3991
 -1      1975    8    0    1
 -2       961      1030      1031      3988      3992      3990
 -1      1976    8    0    1
 -2       963       962      1032      3776      3993      3994
 -1      1977    8    0    1
 -2       962      1031      1032      3991      3995      3993
 -1      1978    8    0    1
 -2       964       963      1033      3779      3996      3997
 -1      1979    8    0    1
 -2       963      1032      1033      3994      3998      3996
 -1      1980    8    0    1
 -2       965       964      1034      3782      3999      4000
 -1      1981    8    0    1
 -2       964      1033      1034      3997      4001      3999
 -1      1982    8    0    1
 -2       966       965      1035      3785      4002      4003
 -1      1983    8    0    1
 -2       965      1034      1035      4000      4004      4002
 -1      1984    8    0    1
 -2       967       966      1036      3788      4005      4006
 -1      1985    8    0    1
 -2       966      1035      1036      4003      4007      4005
 -1      1986    8    0    1
 -2       968       967      1037      3791      4008      4009
 -1      1987    8    0    1
 -2       967      1036      1037      4006      4010      4008
 -1      1988    8    0    1
 -2       969       968      1038      3794      4011      4012
 -1      1989    8    0    1
 -2       968      1037      1038      4009      4013      4011
 -1      1990    8    0    1
 -2       970       969      1039      3797      4014      4015
 -1      1991    8    0    1
 -2       969      1038      1039      4012      4016      4014
 -1      1992    8    0    1
 -2       974       975      1040      3812      4017      4018
 -1      1993    8    0    1
 -2      1008       926      1041      3920      4019      4020
 -1      1994    8    0    1
 -2       997       935       973      3922      3940      4021
 -1      1995    8    0    1
 -2       947       932      1042      3728      4022      4023
 -1      1996    8    0    1
 -2       932      1011      1042      3932      4024      4022
 -1      1997    8    0    1
 -2       929      1008      1043      3921      4025      4026
 -1      1998    8    0    1
 -2       929      1043       995      4026      4027      3873
 -1      1999    8    0    1
 -2       973       972      1044      3806      4028      4029
 -1      2000    8    0    1
 -2       975       976      1045      3815      4030      4031
 -1      2001    8    0    1
 -2       975      1045      1040      4031      4032      4017
 -1      2002    8    0    1
 -2       913      1005      1017      3919      4033      3950
 -1      2003    8    0    1
 -2       976       977      1046      3818      4034      4035
 -1      2004    8    0    1
 -2       976      1046      1045      4035      4036      4030
 -1      2005    8    0    1
 -2       977       978      1047      3821      4037      4038
 -1      2006    8    0    1
 -2       977      1047      1046      4038      4039      4034
 -1      2007    8    0    1
 -2       978       979      1048      3824      4040      4041
 -1      2008    8    0    1
 -2       978      1048      1047      4041      4042      4037
 -1      2009    8    0    1
 -2       979       980      1049      3827      4043      4044
 -1      2010    8    0    1
 -2       979      1049      1048      4044      4045      4040
 -1      2011    8    0    1
 -2       980       981      1050      3830      4046      4047
 -1      2012    8    0    1
 -2       980      1050      1049      4047      4048      4043
 -1      2013    8    0    1
 -2       981       982      1051      3833      4049      4050
 -1      2014    8    0    1
 -2       981      1051      1050      4050      4051      4046
 -1      2015    8    0    1
 -2       982       983      1052      3836      4052      4053
 -1      2016    8    0    1
 -2       982      1052      1051      4053      4054      4049
 -1      2017    8    0    1
 -2       983       984      1053      3839      4055      4056
 -1      2018    8    0    1
 -2       983      1053      1052      4056      4057      4052
 -1      2019    8    0    1
 -2       984       985      1054      3842      4058      4059
 -1      2020    8    0    1
 -2       984      1054      1053      4059      4060      4055
 -1      2021    8    0    1
 -2       985       986      1055      3845      4061      4062
 -1      2022    8    0    1
 -2       985      1055      1054      4062      4063      4058
 -1      2023    8    0    1
 -2       986       987      1056      3848      4064      4065
 -1      2024    8    0    1
 -2       986      1056      1055      4065      4066      4061
 -1      2025    8    0    1
 -2       987       988      1057      3851      4067      4068
 -1      2026    8    0    1
 -2       987      1057      1056      4068      4069      4064
 -1      2027    8    0    1
 -2       988       989      1058      3854      4070      4071
 -1      2028    8    0    1
 -2       988      1058      1057      4071      4072      4067
 -1      2029    8    0    1
 -2       989       990      1059      3857      4073      4074
 -1      2030    8    0    1
 -2       989      1059      1058      4074      4075      4070
 -1      2031    8    0    1
 -2       990       991      1060      3860      4076      4077
 -1      2032    8    0    1
 -2       990      1060      1059      4077      4078      4073
 -1      2033    8    0    1
 -2       946       992      1061      3863      4079      4080
 -1      2034    8    0    1
 -2       946      1061      1020      4080      4081      3959
 -1      2035    8    0    1
 -2       919       996       945      3876      4082      3889
 -1      2036    8    0    1
 -2      1011       918      1062      3931      4083      4084
 -1      2037    8    0    1
 -2       937       950      1063      3939      4085      4086
 -1      2038    8    0    1
 -2      1015       937      1063      3944      4086      4087
 -1      2039    8    0    1
 -2       950       949      1063      3738      4088      4085
 -1      2040    8    0    1
 -2      1011      1062      1064      4084      4089      4090
 -1      2041    8    0    1
 -2       972       974      1065      3809      4091      4092
 -1      2042    8    0    1
 -2       974      1040      1065      4018      4093      4091
 -1      2043    8    0    1
 -2       926       945      1041      3722      4094      4019
 -1      2044    8    0    1
 -2       999      1017      1066      3953      4095      4096
 -1      2045    8    0    1
 -2       918       936      1062      3688      4097      4083
 -1      2046    8    0    1
 -2      1002      1015      1067      3952      4098      4099
 -1      2047    8    0    1
 -2       936       951      1062      3930      4100      4097
 -1      2048    8    0    1
 -2      1017      1005       971      4033      3911      4101
 -1      2049    8    0    1
 -2      1008      1041      1068      4020      4102      4103
 -1      2050    8    0    1
 -2       997       973      1044      4021      4029      4104
 -1      2051    8    0    1
 -2      1062       951      1004      4100      3908      4105
 -1      2052    8    0    1
 -2      1004       925      1003      3906      3903      4106
 -1      2053    8    0    1
 -2       945       996      1013      4082      3938      4107
 -1      2054    8    0    1
 -2       949      1021      1063      3962      4108      4088
 -1      2055    8    0    1
 -2      1008      1068      1069      4103      4109      4110
 -1      2056    8    0    1
 -2      1008      1069      1043      4110      4111      4025
 -1      2057    8    0    1
 -2      1022       952      1012      3964      3935      4112
 -1      2058    8    0    1
 -2      1011      1064      1070      4090      4113      4114
 -1      2059    8    0    1
 -2      1011      1070      1042      4114      4115      4024
 -1      2060    8    0    1
 -2       970      1039      1066      4015      4116      4117
 -1      2061    8    0    1
 -2      1007       924      1071      3917      4118      4119
 -1      2062    8    0    1
 -2       924      1006      1071      3913      4120      4118
 -1      2063    8    0    1
 -2       971       970      1066      3800      4117      4121
 -1      2064    8    0    1
 -2      1003      1002      1072      3904      4122      4123
 -1      2065    8    0    1
 -2      1002      1067      1072      4099      4124      4122
 -1      2066    8    0    1
 -2      1009       944      1073      3923      4125      4126
 -1      2067    8    0    1
 -2       944       994      1073      3869      4127      4125
 -1      2068    8    0    1
 -2      1010       999      1074      3926      4128      4129
 -1      2069    8    0    1
 -2       999      1066      1074      4096      4130      4128
 -1      2070    8    0    1
 -2      1044       972      1065      4028      4092      4131
 -1      2071    8    0    1
 -2      1060       991      1075      4076      4132      4133
 -1      2072    8    0    1
 -2       991      1016      1075      3948      4134      4132
 -1      2073    8    0    1
 -2      1061       992      1018      4079      3955      4135
 -1      2074    8    0    1
 -2       994       933      1076      3870      4136      4137
 -1      2075    8    0    1
 -2      1073       994      1076      4127      4137      4138
 -1      2076    8    0    1
 -2       933      1010      1076      3928      4139      4136
 -1      2077    8    0    1
 -2      1012       927      1077      3936      4140      4141
 -1      2078    8    0    1
 -2      1022      1012      1077      4112      4141      4142
 -1      2079    8    0    1
 -2       927      1007      1077      3916      4143      4140
 -1      2080    8    0    1
 -2      1015      1063      1021      4087      4108      4144
 -1      2081    8    0    1
 -2       995      1043      1078      4027      4145      4146
 -1      2082    8    0    1
 -2       995      1078      1000      4146      4147      3893
 -1      2083    8    0    1
 -2       947      1042      1019      4023      4148      3956
 -1      2084    8    0    1
 -2       998       943      1000      3885      3892      4149
 -1      2085    8    0    1
 -2      1018       993      1078      3954      4150      4151
 -1      2086    8    0    1
 -2      1041       945      1013      4094      4107      4152
 -1      2087    8    0    1
 -2      1064      1062      1004      4089      4105      4153
 -1      2088    8    0    1
 -2      1067      1015      1021      4098      4144      4154
 -1      2089    8    0    1
 -2      1041      1013      1079      4152      4155      4156
 -1      2090    8    0    1
 -2      1068      1041      1079      4102      4156      4157
 -1      2091    8    0    1
 -2      1013      1014      1079      3942      4158      4155
 -1      2092    8    0    1
 -2      1014      1019      1080      3958      4159      4160
 -1      2093    8    0    1
 -2      1014      1080      1079      4160      4161      4158
 -1      2094    8    0    1
 -2      1066      1039      1081      4116      4162      4163
 -1      2095    8    0    1
 -2      1066      1081      1074      4163      4164      4130
 -1      2096    8    0    1
 -2      1006       997      1044      3914      4104      4165
 -1      2097    8    0    1
 -2      1024      1023      1082      3971      4166      4167
 -1      2098    8    0    1
 -2      1025      1024      1083      3974      4168      4169
 -1      2099    8    0    1
 -2      1024      1082      1083      4167      4170      4168
 -1      2100    8    0    1
 -2      1026      1025      1084      3977      4171      4172
 -1      2101    8    0    1
 -2      1025      1083      1084      4169      4173      4171
 -1      2102    8    0    1
 -2      1027      1026      1085      3980      4174      4175
 -1      2103    8    0    1
 -2      1026      1084      1085      4172      4176      4174
 -1      2104    8    0    1
 -2      1028      1027      1086      3983      4177      4178
 -1      2105    8    0    1
 -2      1027      1085      1086      4175      4179      4177
 -1      2106    8    0    1
 -2      1029      1028      1087      3986      4180      4181
 -1      2107    8    0    1
 -2      1028      1086      1087      4178      4182      4180
 -1      2108    8    0    1
 -2      1030      1029      1088      3989      4183      4184
 -1      2109    8    0    1
 -2      1029      1087      1088      4181      4185      4183
 -1      2110    8    0    1
 -2      1031      1030      1089      3992      4186      4187
 -1      2111    8    0    1
 -2      1030      1088      1089      4184      4188      4186
 -1      2112    8    0    1
 -2      1032      1031      1090      3995      4189      4190
 -1      2113    8    0    1
 -2      1031      1089      1090      4187      4191      4189
 -1      2114    8    0    1
 -2      1033      1032      1091      3998      4192      4193
 -1      2115    8    0    1
 -2      1032      1090      1091      4190      4194      4192
 -1      2116    8    0    1
 -2      1034      1033      1092      4001      4195      4196
 -1      2117    8    0    1
 -2      1033      1091      1092      4193      4197      4195
 -1      2118    8    0    1
 -2      1035      1034      1093      4004      4198      4199
 -1      2119    8    0    1
 -2      1034      1092      1093      4196      4200      4198
 -1      2120    8    0    1
 -2      1036      1035      1094      4007      4201      4202
 -1      2121    8    0    1
 -2      1035      1093      1094      4199      4203      4201
 -1      2122    8    0    1
 -2      1037      1036      1095      4010      4204      4205
 -1      2123    8    0    1
 -2      1036      1094      1095      4202      4206      4204
 -1      2124    8    0    1
 -2      1038      1037      1096      4013      4207      4208
 -1      2125    8    0    1
 -2      1037      1095      1096      4205      4209      4207
 -1      2126    8    0    1
 -2      1039      1038      1097      4016      4210      4211
 -1      2127    8    0    1
 -2      1081      1039      1097      4162      4211      4212
 -1      2128    8    0    1
 -2      1038      1096      1097      4208      4213      4210
 -1      2129    8    0    1
 -2      1006      1044      1098      4165      4214      4215
 -1      2130    8    0    1
 -2      1071      1006      1098      4120      4215      4216
 -1      2131    8    0    1
 -2      1044      1065      1098      4131      4217      4214
 -1      2132    8    0    1
 -2      1040      1045      1099      4032      4218      4219
 -1      2133    8    0    1
 -2      1047      1048      1100      4042      4220      4221
 -1      2134    8    0    1
 -2      1048      1049      1101      4045      4222      4223
 -1      2135    8    0    1
 -2      1048      1101      1100      4223      4224      4220
 -1      2136    8    0    1
 -2      1049      1050      1102      4048      4225      4226
 -1      2137    8    0    1
 -2      1049      1102      1101      4226      4227      4222
 -1      2138    8    0    1
 -2      1050      1051      1103      4051      4228      4229
 -1      2139    8    0    1
 -2      1050      1103      1102      4229      4230      4225
 -1      2140    8    0    1
 -2      1051      1052      1104      4054      4231      4232
 -1      2141    8    0    1
 -2      1051      1104      1103      4232      4233      4228
 -1      2142    8    0    1
 -2      1052      1053      1105      4057      4234      4235
 -1      2143    8    0    1
 -2      1052      1105      1104      4235      4236      4231
 -1      2144    8    0    1
 -2      1053      1054      1106      4060      4237      4238
 -1      2145    8    0    1
 -2      1053      1106      1105      4238      4239      4234
 -1      2146    8    0    1
 -2      1054      1055      1107      4063      4240      4241
 -1      2147    8    0    1
 -2      1054      1107      1106      4241      4242      4237
 -1      2148    8    0    1
 -2      1055      1056      1108      4066      4243      4244
 -1      2149    8    0    1
 -2      1055      1108      1107      4244      4245      4240
 -1      2150    8    0    1
 -2      1056      1057      1109      4069      4246      4247
 -1      2151    8    0    1
 -2      1056      1109      1108      4247      4248      4243
 -1      2152    8    0    1
 -2      1057      1058      1110      4072      4249      4250
 -1      2153    8    0    1
 -2      1057      1110      1109      4250      4251      4246
 -1      2154    8    0    1
 -2      1058      1059      1111      4075      4252      4253
 -1      2155    8    0    1
 -2      1058      1111      1110      4253      4254      4249
 -1      2156    8    0    1
 -2      1059      1060      1112      4078      4255      4256
 -1      2157    8    0    1
 -2      1059      1112      1111      4256      4257      4252
 -1      2158    8    0    1
 -2      1020      1061      1113      4081      4258      4259
 -1      2159    8    0    1
 -2      1045      1046      1114      4036      4260      4261
 -1      2160    8    0    1
 -2      1045      1114      1099      4261      4262      4218
 -1      2161    8    0    1
 -2      1078      1043      1115      4145      4263      4264
 -1      2162    8    0    1
 -2      1043      1069      1115      4111      4265      4263
 -1      2163    8    0    1
 -2      1065      1040      1116      4093      4266      4267
 -1      2164    8    0    1
 -2      1040      1099      1116      4219      4268      4266
 -1      2165    8    0    1
 -2      1046      1047      1117      4039      4269      4270
 -1      2166    8    0    1
 -2      1047      1100      1117      4221      4271      4269
 -1      2167    8    0    1
 -2      1023      1022      1118      3968      4272      4273
 -1      2168    8    0    1
 -2      1023      1118      1082      4273      4274      4166
 -1      2169    8    0    1
 -2      1078       993      1000      4150      4275      4147
 -1      2170    8    0    1
 -2      1004      1003      1119      4106      4276      4277
 -1      2171    8    0    1
 -2      1064      1004      1119      4153      4277      4278
 -1      2172    8    0    1
 -2      1003      1072      1119      4123      4279      4276
 -1      2173    8    0    1
 -2      1017       971      1066      4101      4121      4095
 -1      2174    8    0    1
 -2      1019      1042      1120      4148      4280      4281
 -1      2175    8    0    1
 -2      1080      1019      1120      4159      4281      4282
 -1      2176    8    0    1
 -2      1042      1070      1120      4115      4283      4280
 -1      2177    8    0    1
 -2      1021      1020      1121      3963      4284      4285
 -1      2178    8    0    1
 -2      1067      1021      1121      4154      4285      4286
 -1      2179    8    0    1
 -2      1020      1113      1121      4259      4287      4284
 -1      2180    8    0    1
 -2      1018      1078      1115      4151      4264      4288
 -1      2181    8    0    1
 -2      1098      1065      1116      4217      4267      4289
 -1      2182    8    0    1
 -2      1069      1068      1122      4109      4290      4291
 -1      2183    8    0    1
 -2      1070      1064      1119      4113      4278      4292
 -1      2184    8    0    1
 -2      1007      1071      1123      4119      4293      4294
 -1      2185    8    0    1
 -2      1007      1123      1077      4294      4295      4143
 -1      2186    8    0    1
 -2      1072      1067      1121      4124      4286      4296
 -1      2187    8    0    1
 -2      1018      1115      1061      4288      4297      4135
 -1      2188    8    0    1
 -2      1112      1060      1124      4255      4298      4299
 -1      2189    8    0    1
 -2      1060      1075      1124      4133      4300      4298
 -1      2190    8    0    1
 -2      1113      1061      1115      4258      4297      4301
 -1      2191    8    0    1
 -2      1076      1010      1125      4139      4302      4303
 -1      2192    8    0    1
 -2      1010      1074      1125      4129      4304      4302
 -1      2193    8    0    1
 -2      1118      1022      1077      4272      4142      4305
 -1      2194    8    0    1
 -2      1114      1046      1117      4260      4270      4306
 -1      2195    8    0    1
 -2      1016      1009      1073      3949      4126      4307
 -1      2196    8    0    1
 -2      1016      1073      1075      4307      4308      4134
 -1      2197    8    0    1
 -2      1068      1079      1126      4157      4309      4310
 -1      2198    8    0    1
 -2      1122      1068      1126      4290      4310      4311
 -1      2199    8    0    1
 -2      1079      1080      1126      4161      4312      4309
 -1      2200    8    0    1
 -2      1070      1119      1127      4292      4313      4314
 -1      2201    8    0    1
 -2      1119      1072      1127      4279      4315      4313
 -1      2202    8    0    1
 -2      1098      1116      1128      4289      4316      4317
 -1      2203    8    0    1
 -2      1083      1082      1129      4170      4318      4319
 -1      2204    8    0    1
 -2      1084      1083      1130      4173      4320      4321
 -1      2205    8    0    1
 -2      1083      1129      1130      4319      4322      4320
 -1      2206    8    0    1
 -2      1085      1084      1131      4176      4323      4324
 -1      2207    8    0    1
 -2      1084      1130      1131      4321      4325      4323
 -1      2208    8    0    1
 -2      1086      1085      1132      4179      4326      4327
 -1      2209    8    0    1
 -2      1085      1131      1132      4324      4328      4326
 -1      2210    8    0    1
 -2      1087      1086      1133      4182      4329      4330
 -1      2211    8    0    1
 -2      1086      1132      1133      4327      4331      4329
 -1      2212    8    0    1
 -2      1088      1087      1134      4185      4332      4333
 -1      2213    8    0    1
 -2      1087      1133      1134      4330      4334      4332
 -1      2214    8    0    1
 -2      1089      1088      1135      4188      4335      4336
 -1      2215    8    0    1
 -2      1088      1134      1135      4333      4337      4335
 -1      2216    8    0    1
 -2      1090      1089      1136      4191      4338      4339
 -1      2217    8    0    1
 -2      1089      1135      1136      4336      4340      4338
 -1      2218    8    0    1
 -2      1091      1090      1137      4194      4341      4342
 -1      2219    8    0    1
 -2      1090      1136      1137      4339      4343      4341
 -1      2220    8    0    1
 -2      1092      1091      1138      4197      4344      4345
 -1      2221    8    0    1
 -2      1091      1137      1138      4342      4346      4344
 -1      2222    8    0    1
 -2      1093      1092      1139      4200      4347      4348
 -1      2223    8    0    1
 -2      1092      1138      1139      4345      4349      4347
 -1      2224    8    0    1
 -2      1094      1093      1140      4203      4350      4351
 -1      2225    8    0    1
 -2      1093      1139      1140      4348      4352      4350
 -1      2226    8    0    1
 -2      1095      1094      1141      4206      4353      4354
 -1      2227    8    0    1
 -2      1094      1140      1141      4351      4355      4353
 -1      2228    8    0    1
 -2      1096      1095      1142      4209      4356      4357
 -1      2229    8    0    1
 -2      1095      1141      1142      4354      4358      4356
 -1      2230    8    0    1
 -2      1102      1103      1135      4230      4359      4360
 -1      2231    8    0    1
 -2      1121      1113      1143      4287      4361      4362
 -1      2232    8    0    1
 -2      1071      1098      1123      4216      4363      4293
 -1      2233    8    0    1
 -2      1072      1121      1143      4296      4362      4364
 -1      2234    8    0    1
 -2      1101      1102      1134      4227      4365      4366
 -1      2235    8    0    1
 -2      1082      1118      1128      4274      4367      4368
 -1      2236    8    0    1
 -2      1100      1101      1133      4224      4369      4370
 -1      2237    8    0    1
 -2      1103      1104      1136      4233      4371      4372
 -1      2238    8    0    1
 -2      1104      1105      1137      4236      4373      4374
 -1      2239    8    0    1
 -2      1105      1106      1138      4239      4375      4376
 -1      2240    8    0    1
 -2      1106      1107      1139      4242      4377      4378
 -1      2241    8    0    1
 -2      1107      1108      1140      4245      4379      4380
 -1      2242    8    0    1
 -2      1108      1109      1141      4248      4381      4382
 -1      2243    8    0    1
 -2      1109      1110      1142      4251      4383      4384
 -1      2244    8    0    1
 -2      1110      1111      1142      4254      4385      4383
 -1      2245    8    0    1
 -2      1111      1112      1144      4257      4386      4387
 -1      2246    8    0    1
 -2      1099      1114      1130      4262      4388      4389
 -1      2247    8    0    1
 -2      1073      1076      1075      4138      4390      4308
 -1      2248    8    0    1
 -2      1116      1099      1129      4268      4391      4392
 -1      2249    8    0    1
 -2      1117      1100      1132      4271      4393      4394
 -1      2250    8    0    1
 -2      1113      1115      1145      4301      4395      4396
 -1      2251    8    0    1
 -2      1143      1113      1145      4361      4396      4397
 -1      2252    8    0    1
 -2      1115      1069      1145      4265      4398      4395
 -1      2253    8    0    1
 -2      1114      1117      1131      4306      4399      4400
 -1      2254    8    0    1
 -2      1127      1072      1143      4315      4364      4401
 -1      2255    8    0    1
 -2      1128      1116      1129      4316      4392      4402
 -1      2256    8    0    1
 -2      1102      1135      1134      4360      4337      4365
 -1      2257    8    0    1
 -2      1096      1142      1144      4357      4403      4404
 -1      2258    8    0    1
 -2      1139      1107      1140      4377      4380      4352
 -1      2259    8    0    1
 -2      1000       993       998      4275      3884      4149
 -1      2260    8    0    1
 -2      1120      1070      1127      4283      4314      4405
 -1      2261    8    0    1
 -2      1135      1103      1136      4359      4372      4340
 -1      2262    8    0    1
 -2      1101      1134      1133      4366      4334      4369
 -1      2263    8    0    1
 -2      1123      1098      1128      4363      4317      4406
 -1      2264    8    0    1
 -2      1138      1106      1139      4375      4378      4349
 -1      2265    8    0    1
 -2      1128      1118      1123      4367      4407      4406
 -1      2266    8    0    1
 -2      1145      1069      1122      4398      4291      4408
 -1      2267    8    0    1
 -2      1082      1128      1129      4368      4402      4318
 -1      2268    8    0    1
 -2      1077      1123      1118      4295      4407      4305
 -1      2269    8    0    1
 -2      1100      1133      1132      4370      4331      4393
 -1      2270    8    0    1
 -2      1104      1137      1136      4374      4343      4371
 -1      2271    8    0    1
 -2      1105      1138      1137      4376      4346      4373
 -1      2272    8    0    1
 -2      1108      1141      1140      4382      4355      4379
 -1      2273    8    0    1
 -2      1109      1142      1141      4384      4358      4381
 -1      2274    8    0    1
 -2      1142      1111      1144      4385      4387      4403
 -1      2275    8    0    1
 -2      1099      1130      1129      4389      4322      4391
 -1      2276    8    0    1
 -2      1125      1074      1144      4304      4409      4410
 -1      2277    8    0    1
 -2      1075      1076      1124      4390      4411      4300
 -1      2278    8    0    1
 -2      1114      1131      1130      4400      4325      4388
 -1      2279    8    0    1
 -2      1117      1132      1131      4394      4328      4399
 -1      2280    8    0    1
 -2      1145      1122      1146      4408      4412      4413
 -1      2281    8    0    1
 -2      1143      1145      1146      4397      4413      4414
 -1      2282    8    0    1
 -2      1122      1126      1146      4311      4415      4412
 -1      2283    8    0    1
 -2      1080      1120      1147      4282      4416      4417
 -1      2284    8    0    1
 -2      1126      1080      1147      4312      4417      4418
 -1      2285    8    0    1
 -2      1120      1127      1147      4405      4419      4416
 -1      2286    8    0    1
 -2      1074      1081      1144      4164      4420      4409
 -1      2287    8    0    1
 -2      1081      1097      1144      4212      4421      4420
 -1      2288    8    0    1
 -2      1144      1112      1125      4386      4422      4410
 -1      2289    8    0    1
 -2      1097      1096      1144      4213      4404      4421
 -1      2290    8    0    1
 -2      1127      1143      1147      4401      4423      4419
 -1      2291    8    0    1
 -2      1146      1126      1147      4415      4418      4424
 -1      2292    8    0    1
 -2      1124      1076      1125      4411      4303      4425
 -1      2293    8    0    1
 -2      1143      1146      1147      4414      4424      4423
 -1      2294    8    0    1
 -2      1112      1124      1125      4299      4425      4422
 -3
    1PSTEP                         1           1           1          
  100CL  101 1.000000000        4425                     0    1           1
 -4  DISP        4    1
 -5  D1          1    2    1    0
 -5  D2          1    2    2    0
 -5  D3          1    2    3    0
 -5  ALL         1    2    0    0    1ALL
 -1         1 6.88063E-03-7.46032E-04-4.31557E-15
 -1         2 7.65070E-03-1.01635E-04-4.95895E-15
 -1         3 1.50706E-02 2.13456E-04-4.12322E-14
 -1         4 1.53305E-02-1.21771E-03-3.75144E-14
 -1         5 0.00000E+00 0.00000E+00 0.00000E+00
 -1         6 0.00000E+00 0.00000E+00 0.00000E+00
 -1         7 0.00000E+00 0.00000E+00 0.00000E+00
 -1         8 0.00000E+00 0.00000E+00 0.00000E+00
 -1         9 0.00000E+00 0.00000E+00 0.00000E+00
 -1        10 0.00000E+00 0.00000E+00 0.00000E+00
 -1        11 0.00000E+00 0.00000E+00 0.00000E+00
 -1        12 0.00000E+00 0.00000E+00 0.00000E+00
 -1        13 0.00000E+00 0.00000E+00 0.00000E+00
 -1        14 0.00000E+00 0.00000E+00 0.00000E+00
 -1        15 0.00000E+00 0.00000E+00 0.00000E+00
 -1        16 0.00000E+00 0.00000E+00 0.00000E+00
 -1        17 0.00000E+00 0.00000E+00 0.00000E+00
 -1        18 0.00000E+00 0.00000E+00 0.00000E+00
 -1        19 0.00000E+00 0.00000E+00 0.00000E+00
 -1        20 0.00000E+00 0.00000E+00 0.00000E+00
 -1        21 0.00000E+00 0.00000E+00 0.00000E+00
 -1        22 0.00000E+00 0.00000E+00 0.00000E+00
 -1        23 4.09316E-04-2.51051E-04 2.08201E-17
 -1        24 7.05476E-04-3.79624E-04 2.44555E-17
 -1        25 9.84535E-04-4.65354E-04 9.25976E-18
 -1        26 1.26247E-03-5.23376E-04-2.64952E-17
 -1        27 1.54454E-03-5.63498E-04-8.29618E-17
 -1        28 1.83396E-03-5.92125E-04-1.60797E-16
 -1        29 2.13308E-03-6.14588E-04-2.62601E-16
 -1        30 2.44372E-03-6.36000E-04-3.88083E-16
 -1        31 2.76713E-03-6.61745E-04-5.41112E-16
 -1        32 3.10357E-03-6.97651E-04-7.20263E-16
 -1        33 3.45153E-03-7.49726E-04-9.26004E-16
 -1        34 3.80681E-03-8.23148E-04-1.15417E-15
 -1        35 4.16173E-03-9.20161E-04-1.40731E-15
 -1        36 4.50542E-03-1.03694E-03-1.68618E-15
 -1        37 4.82648E-03-1.16063E-03-1.98985E-15
 -1        38 5.11816E-03-1.26921E-03-2.32518E-15
 -1        39 5.38400E-03-1.33727E-03-2.69573E-15
 -1        40 5.63909E-03-1.34689E-03-3.10282E-15
 -1        41 5.90404E-03-1.29729E-03-3.56267E-15
 -1        42 6.19485E-03-1.20527E-03-4.07021E-15
 -1        43 6.51624E-03-1.09628E-03-4.62569E-15
 -1        44 6.86230E-03-9.93217E-04-5.22225E-15
 -1        45 7.22198E-03-9.10159E-04-5.86491E-15
 -1        46 7.58441E-03-8.52056E-04-6.55056E-15
 -1        47 7.94182E-03-8.17650E-04-7.27672E-15
 -1        48 8.28995E-03-8.02716E-04-8.04840E-15
 -1        49 8.62731E-03-8.02319E-04-8.84920E-15
 -1        50 8.95414E-03-8.11992E-04-9.69009E-15
 -1        51 9.27159E-03-8.28161E-04-1.05785E-14
 -1        52 9.58115E-03-8.48176E-04-1.15093E-14
 -1        53 9.88433E-03-8.70182E-04-1.24713E-14
 -1        54 1.01825E-02-8.92940E-04-1.34616E-14
 -1        55 1.04769E-02-9.15667E-04-1.44936E-14
 -1        56 1.07684E-02-9.37903E-04-1.55720E-14
 -1        57 1.10578E-02-9.59409E-04-1.66940E-14
 -1        58 1.13457E-02-9.80091E-04-1.78395E-14
 -1        59 1.16325E-02-9.99948E-04-1.90207E-14
 -1        60 1.19187E-02-1.01903E-03-2.02276E-14
 -1        61 1.22045E-02-1.03743E-03-2.14718E-14
 -1        62 1.24899E-02-1.05523E-03-2.27596E-14
 -1        63 1.27753E-02-1.07254E-03-2.40943E-14
 -1        64 1.30606E-02-1.08944E-03-2.54732E-14
 -1        65 1.33459E-02-1.10603E-03-2.69067E-14
 -1        66 1.36312E-02-1.12236E-03-2.83838E-14
 -1        67 1.39166E-02-1.13853E-03-2.99033E-14
 -1        68 1.42021E-02-1.15457E-03-3.14363E-14
 -1        69 1.44877E-02-1.17055E-03-3.29616E-14
 -1        70 1.47734E-02-1.18651E-03-3.44827E-14
 -1        71 1.50591E-02-1.20249E-03-3.60214E-14
 -1        72 4.11634E-04 2.52004E-04 6.94567E-18
 -1        73 7.05392E-04 3.82911E-04-1.43216E-17
 -1        74 9.84962E-04 4.68237E-04-6.23958E-17
 -1        75 1.26277E-03 5.26842E-04-1.36830E-16
 -1        76 1.54420E-03 5.67837E-04-2.37027E-16
 -1        77 1.83229E-03 5.97567E-04-3.63611E-16
 -1        78 2.12904E-03 6.21253E-04-5.17168E-16
 -1        79 2.43574E-03 6.43751E-04-6.98369E-16
 -1        80 2.75292E-03 6.69906E-04-9.09988E-16
 -1        81 3.08001E-03 7.04567E-04-1.15604E-15
 -1        82 3.41480E-03 7.52193E-04-1.43525E-15
 -1        83 3.75292E-03 8.15879E-04-1.74519E-15
 -1        84 4.08762E-03 8.95726E-04-2.08370E-15
 -1        85 4.41056E-03 9.86846E-04-2.45135E-15
 -1        86 4.71409E-03 1.07800E-03-2.85638E-15
 -1        87 4.99470E-03 1.15253E-03-3.30138E-15
 -1        88 5.25625E-03 1.19271E-03-3.78349E-15
 -1        89 5.51008E-03 1.18666E-03-4.31187E-15
 -1        90 5.77102E-03 1.13383E-03-4.87987E-15
 -1        91 6.05110E-03 1.04532E-03-5.47839E-15
 -1        92 6.35509E-03 9.38744E-04-6.10847E-15
 -1        93 6.68024E-03 8.31352E-04-6.76859E-15
 -1        94 7.01929E-03 7.35315E-04-7.47973E-15
 -1        95 7.36404E-03 6.56542E-04-8.23214E-15
 -1        96 7.70779E-03 5.95926E-04-9.02281E-15
 -1        97 8.04617E-03 5.51387E-04-9.85109E-15
 -1        98 8.37698E-03 5.19606E-04-1.07205E-14
 -1        99 8.69964E-03 4.97146E-04-1.16228E-14
 -1       100 9.01455E-03 4.81005E-04-1.25557E-14
 -1       101 9.32264E-03 4.68805E-04-1.35228E-14
 -1       102 9.62502E-03 4.58791E-04-1.45167E-14
 -1       103 9.92279E-03 4.49733E-04-1.55399E-14
 -1       104 1.02170E-02 4.40824E-04-1.65957E-14
 -1       105 1.05084E-02 4.31566E-04-1.77043E-14
 -1       106 1.07978E-02 4.21681E-04-1.88765E-14
 -1       107 1.10857E-02 4.11046E-04-2.01149E-14
 -1       108 1.13726E-02 3.99637E-04-2.13974E-14
 -1       109 1.16588E-02 3.87488E-04-2.27209E-14
 -1       110 1.19445E-02 3.74672E-04-2.40809E-14
 -1       111 1.22300E-02 3.61275E-04-2.54702E-14
 -1       112 1.25154E-02 3.47390E-04-2.69084E-14
 -1       113 1.28007E-02 3.33104E-04-2.83939E-14
 -1       114 1.30860E-02 3.18501E-04-2.99139E-14
 -1       115 1.33714E-02 3.03655E-04-3.14741E-14
 -1       116 1.36568E-02 2.88633E-04-3.30647E-14
 -1       117 1.39423E-02 2.73495E-04-3.46795E-14
 -1       118 1.42279E-02 2.58292E-04-3.63175E-14
 -1       119 1.45135E-02 2.43071E-04-3.79817E-14
 -1       120 1.47992E-02 2.27869E-04-3.96554E-14
 -1       121 1.50855E-02 1.29172E-04-4.10745E-14
 -1       122 1.51004E-02 4.48699E-05-4.09215E-14
 -1       123 1.51153E-02-3.94785E-05-4.07278E-14
 -1       124 1.51302E-02-1.23885E-04-4.05342E-14
 -1       125 1.51451E-02-2.08349E-04-4.03329E-14
 -1       126 1.51598E-02-2.91430E-04-4.01175E-14
 -1       127 1.51749E-02-3.75979E-04-3.98895E-14
 -1       128 1.51901E-02-4.60551E-04-3.96728E-14
 -1       129 1.52055E-02-5.45130E-04-3.94565E-14
 -1       130 1.52209E-02-6.29702E-04-3.92238E-14
 -1       131 1.52365E-02-7.14252E-04-3.90168E-14
 -1       132 1.52519E-02-7.97332E-04-3.88035E-14
 -1       133 1.52676E-02-8.81796E-04-3.85627E-14
 -1       134 1.52834E-02-9.66202E-04-3.82930E-14
 -1       135 1.52992E-02-1.05055E-03-3.80319E-14
 -1       136 1.53150E-02-1.13485E-03-3.77767E-14
 -1       137 7.59200E-03 7.71743E-05-4.96293E-15
 -1       138 7.42615E-03 2.52844E-04-4.89885E-15
 -1       139 7.19410E-03 3.98701E-04-4.78768E-15
 -1       140 6.83426E-03 5.46589E-04-4.60335E-15
 -1       141 6.41401E-03 6.57653E-04-4.38330E-15
 -1       142 5.96023E-03 7.28733E-04-4.14357E-15
 -1       143 5.44679E-03 7.59596E-04-3.87095E-15
 -1       144 4.98352E-03 7.44130E-04-3.62847E-15
 -1       145 4.54706E-03 6.90278E-04-3.40226E-15
 -1       146 4.15338E-03 6.02604E-04-3.20145E-15
 -1       147 3.81367E-03 4.85014E-04-3.02840E-15
 -1       148 3.54931E-03 3.46356E-04-2.88762E-15
 -1       149 3.36306E-03 1.88038E-04-2.77739E-15
 -1       150 3.27134E-03 2.79618E-05-2.70815E-15
 -1       151 3.26682E-03-1.41542E-04-2.67951E-15
 -1       152 3.35892E-03-3.15661E-04-2.69355E-15
 -1       153 3.55331E-03-4.86711E-04-2.74924E-15
 -1       154 3.85040E-03-6.46557E-04-2.85148E-15
 -1       155 4.21244E-03-7.75819E-04-2.98944E-15
 -1       156 4.60870E-03-8.68601E-04-3.14972E-15
 -1       157 5.06989E-03-9.30444E-04-3.34934E-15
 -1       158 5.59330E-03-9.48625E-04-3.59634E-15
 -1       159 6.04217E-03-9.21336E-04-3.82288E-15
 -1       160 6.48866E-03-8.50421E-04-4.07168E-15
 -1       161 7.20573E-03-6.12791E-04-4.54465E-15
 -1       162 7.45455E-03-4.53007E-04-4.74509E-15
 -1       163 7.60833E-03-2.74494E-04-4.88921E-15
 -1       164 2.43941E-04-1.15979E-04 4.34358E-18
 -1       165 2.28591E-04-8.36480E-05-1.09437E-18
 -1       166 2.21490E-04-6.13056E-05-4.78065E-18
 -1       167 2.16909E-04-4.42451E-05-7.35225E-18
 -1       168 2.13647E-04-3.07705E-05-8.90062E-18
 -1       169 2.11313E-04-1.93257E-05-1.00356E-17
 -1       170 2.09924E-04-9.31267E-06-1.07946E-17
 -1       171 2.09494E-04 2.94796E-08-1.15196E-17
 -1       172 2.10022E-04 9.43074E-06-1.20550E-17
 -1       173 2.11484E-04 1.96113E-05-1.24344E-17
 -1       174 2.13805E-04 3.10955E-05-1.25191E-17
 -1       175 2.17111E-04 4.50930E-05-1.21397E-17
 -1       176 2.21680E-04 6.25197E-05-1.13909E-17
 -1       177 2.28720E-04 8.52923E-05-9.63585E-18
 -1       178 2.42839E-04 1.18281E-04-5.75644E-18
 -1       179 3.00239E-04 1.76289E-04-1.92107E-18
 -1       180 4.74474E-04-2.46657E-04 9.39190E-18
 -1       181 7.79478E-04-3.52614E-04-4.12674E-18
 -1       182 1.07336E-03-4.23257E-04-3.67104E-17
 -1       183 1.36454E-03-4.70835E-04-8.97143E-17
 -1       184 1.65741E-03-5.03104E-04-1.63813E-16
 -1       185 1.95494E-03-5.25991E-04-2.60229E-16
 -1       186 2.25922E-03-5.44781E-04-3.80487E-16
 -1       187 2.57173E-03-5.64822E-04-5.25852E-16
 -1       188 2.89327E-03-5.91930E-04-6.97416E-16
 -1       189 3.22376E-03-6.32444E-04-8.94484E-16
 -1       190 3.56179E-03-6.92692E-04-1.11534E-15
 -1       191 3.90419E-03-7.77480E-04-1.36101E-15
 -1       192 4.24583E-03-8.87234E-04-1.63331E-15
 -1       193 4.58022E-03-1.01423E-03-1.93179E-15
 -1       194 4.90149E-03-1.13995E-03-2.26024E-15
 -1       195 5.20772E-03-1.23722E-03-2.62181E-15
 -1       196 5.50356E-03-1.27993E-03-3.01984E-15
 -1       197 5.79925E-03-1.25647E-03-3.46007E-15
 -1       198 6.10531E-03-1.17675E-03-3.95032E-15
 -1       199 6.42706E-03-1.06629E-03-4.48609E-15
 -1       200 6.76317E-03-9.52862E-04-5.06735E-15
 -1       201 7.10806E-03-8.56263E-04-5.69289E-15
 -1       202 7.45528E-03-7.85466E-04-6.36356E-15
 -1       203 7.79965E-03-7.41107E-04-7.07446E-15
 -1       204 8.13791E-03-7.19326E-04-7.82480E-15
 -1       205 8.46854E-03-7.14777E-04-8.61514E-15
 -1       206 8.79129E-03-7.22332E-04-9.44152E-15
 -1       207 9.10665E-03-7.37777E-04-1.03130E-14
 -1       208 9.41551E-03-7.57948E-04-1.12239E-14
 -1       209 9.71888E-03-7.80612E-04-1.21741E-14
 -1       210 1.00178E-02-8.04274E-04-1.31548E-14
 -1       211 1.03131E-02-8.27985E-04-1.41695E-14
 -1       212 1.06057E-02-8.51183E-04-1.52228E-14
 -1       213 1.08961E-02-8.73573E-04-1.63225E-14
 -1       214 1.11850E-02-8.95033E-04-1.74571E-14
 -1       215 1.14727E-02-9.15554E-04-1.86241E-14
 -1       216 1.17597E-02-9.35191E-04-1.98197E-14
 -1       217 1.20460E-02-9.54035E-04-2.10497E-14
 -1       218 1.23320E-02-9.72194E-04-2.23173E-14
 -1       219 1.26177E-02-9.89776E-04-2.36329E-14
 -1       220 1.29033E-02-1.00689E-03-2.49932E-14
 -1       221 1.31888E-02-1.02362E-03-2.64014E-14
 -1       222 1.34744E-02-1.04007E-03-2.78588E-14
 -1       223 1.37599E-02-1.05630E-03-2.93571E-14
 -1       224 1.40454E-02-1.07238E-03-3.08815E-14
 -1       225 1.43310E-02-1.08837E-03-3.24142E-14
 -1       226 1.46167E-02-1.10432E-03-3.39456E-14
 -1       227 1.49023E-02-1.12027E-03-3.54834E-14
 -1       228 6.12058E-04 3.09866E-04-2.62208E-17
 -1       229 9.09125E-04 3.99539E-04-7.52911E-17
 -1       230 1.19940E-03 4.60228E-04-1.49945E-16
 -1       231 1.48902E-03 5.01800E-04-2.49651E-16
 -1       232 1.78166E-03 5.31025E-04-3.75090E-16
 -1       233 2.07964E-03 5.53355E-04-5.27024E-16
 -1       234 2.38443E-03 5.73809E-04-7.07364E-16
 -1       235 2.69675E-03 5.97401E-04-9.16825E-16
 -1       236 3.01646E-03 6.29236E-04-1.15743E-15
 -1       237 3.34231E-03 6.74189E-04-1.43052E-15
 -1       238 3.67163E-03 7.35983E-04-1.73458E-15
 -1       239 4.00031E-03 8.15528E-04-2.06812E-15
 -1       240 4.32316E-03 9.08699E-04-2.43185E-15
 -1       241 4.63524E-03 1.00454E-03-2.83037E-15
 -1       242 4.93391E-03 1.08566E-03-3.26808E-15
 -1       243 5.22086E-03 1.13256E-03-3.74414E-15
 -1       244 5.50251E-03 1.13122E-03-4.26456E-15
 -1       245 5.78778E-03 1.07976E-03-4.82415E-15
 -1       246 6.08415E-03 9.89505E-04-5.41692E-15
 -1       247 6.39478E-03 8.79395E-04-6.04524E-15
 -1       248 6.71814E-03 7.68187E-04-6.70611E-15
 -1       249 7.04981E-03 6.69082E-04-7.41098E-15
 -1       250 7.38465E-03 5.88389E-04-8.15377E-15
 -1       251 7.71829E-03 5.26957E-04-8.93635E-15
 -1       252 8.04775E-03 4.82447E-04-9.75933E-15
 -1       253 8.37144E-03 4.51246E-04-1.06199E-14
 -1       254 8.68884E-03 4.29661E-04-1.15170E-14
 -1       255 9.00014E-03 4.14506E-04-1.24442E-14
 -1       256 9.30593E-03 4.03282E-04-1.34069E-14
 -1       257 9.60700E-03 3.94162E-04-1.43988E-14
 -1       258 9.90417E-03 3.85886E-04-1.54216E-14
 -1       259 1.01982E-02 3.77635E-04-1.64813E-14
 -1       260 1.04898E-02 3.68914E-04-1.75896E-14
 -1       261 1.07795E-02 3.59458E-04-1.87529E-14
 -1       262 1.10679E-02 3.49157E-04-1.99767E-14
 -1       263 1.13552E-02 3.38001E-04-2.12470E-14
 -1       264 1.16418E-02 3.26043E-04-2.25543E-14
 -1       265 1.19280E-02 3.13365E-04-2.38994E-14
 -1       266 1.22138E-02 3.00065E-04-2.52831E-14
 -1       267 1.24994E-02 2.86245E-04-2.67103E-14
 -1       268 1.27850E-02 2.72002E-04-2.81843E-14
 -1       269 1.30705E-02 2.57423E-04-2.96996E-14
 -1       270 1.33560E-02 2.42589E-04-3.12503E-14
 -1       271 1.36415E-02 2.27568E-04-3.28314E-14
 -1       272 1.39270E-02 2.12424E-04-3.44389E-14
 -1       273 1.42126E-02 1.97212E-04-3.60697E-14
 -1       274 1.44983E-02 1.81979E-04-3.77211E-14
 -1       275 1.47840E-02 1.66767E-04-3.93835E-14
 -1       276 1.48456E-02 1.00155E-04-3.95576E-14
 -1       277 1.48604E-02 1.58307E-05-3.93899E-14
 -1       278 1.48753E-02-6.85284E-05-3.92113E-14
 -1       279 1.48901E-02-1.52924E-04-3.90251E-14
 -1       280 1.49048E-02-2.35922E-04-3.88301E-14
 -1       281 1.49199E-02-3.20378E-04-3.86219E-14
 -1       282 1.49350E-02-4.04853E-04-3.84116E-14
 -1       283 1.49503E-02-4.89338E-04-3.82027E-14
 -1       284 1.49657E-02-5.73822E-04-3.79877E-14
 -1       285 1.49812E-02-6.58297E-04-3.77699E-14
 -1       286 1.49966E-02-7.41322E-04-3.75489E-14
 -1       287 1.50123E-02-8.25751E-04-3.73144E-14
 -1       288 1.50281E-02-9.10147E-04-3.70653E-14
 -1       289 1.50439E-02-9.94505E-04-3.68059E-14
 -1       290 1.49731E-02-1.05740E-03-3.61461E-14
 -1       291 7.65577E-03-5.91607E-05-5.23488E-15
 -1       292 7.49840E-03 4.45971E-05-5.21858E-15
 -1       293 7.23556E-03 1.90065E-04-5.07981E-15
 -1       294 6.87241E-03 3.50021E-04-4.92873E-15
 -1       295 6.46905E-03 5.53111E-04-4.65197E-15
 -1       296 6.04791E-03 7.16956E-04-4.38428E-15
 -1       297 5.64154E-03 8.26895E-04-4.07498E-15
 -1       298 5.25604E-03 8.28985E-04-3.75447E-15
 -1       299 4.88433E-03 7.52742E-04-3.47858E-15
 -1       300 4.50771E-03 6.14772E-04-3.23115E-15
 -1       301 4.13129E-03 4.46886E-04-3.01773E-15
 -1       302 3.77688E-03 2.87417E-04-2.84855E-15
 -1       303 3.48898E-03 1.45546E-04-2.71209E-15
 -1       304 3.30013E-03 3.33819E-05-2.61690E-15
 -1       305 3.22917E-03-5.98211E-05-2.55517E-15
 -1       306 3.29092E-03-1.52537E-04-2.54454E-15
 -1       307 3.49069E-03-2.64554E-04-2.57109E-15
 -1       308 3.81354E-03-4.16057E-04-2.64723E-15
 -1       309 4.17998E-03-6.17882E-04-2.80394E-15
 -1       310 4.56688E-03-7.94099E-04-2.96899E-15
 -1       311 4.96401E-03-9.40268E-04-3.16115E-15
 -1       312 5.36845E-03-1.02989E-03-3.41658E-15
 -1       313 5.75614E-03-1.00277E-03-3.70651E-15
 -1       314 6.11619E-03-9.07817E-04-4.00205E-15
 -1       315 6.51866E-03-7.43108E-04-4.30186E-15
 -1       316 6.91474E-03-5.70873E-04-4.57324E-15
 -1       317 7.26040E-03-4.03135E-04-4.82904E-15
 -1       318 7.52647E-03-2.52878E-04-5.06762E-15
 -1       319 7.66370E-03-1.53019E-04-5.16835E-15
 -1       320 4.61087E-04-1.42593E-04-1.77775E-17
 -1       321 4.82360E-04-1.91738E-04-7.61991E-18
 -1       322 4.37992E-04-7.49725E-05-3.04186E-17
 -1       323 4.31138E-04-5.00933E-05-3.42405E-17
 -1       324 4.26636E-04-2.86820E-05-3.71543E-17
 -1       325 4.24457E-04-9.23138E-06-3.93633E-17
 -1       326 4.24614E-04 9.66154E-06-4.11251E-17
 -1       327 4.27074E-04 2.93576E-05-4.24228E-17
 -1       328 4.31673E-04 5.08270E-05-4.29209E-17
 -1       329 4.38593E-04 7.62399E-05-4.26972E-17
 -1       330 4.48140E-04 1.06986E-04-4.14267E-17
 -1       331 4.61678E-04 1.45540E-04-3.84180E-17
 -1       332 4.83855E-04 1.96319E-04-3.24007E-17
 -1       333 5.40623E-04 2.48960E-04-3.06084E-17
 -1       334 8.40258E-04 3.40165E-04-8.02005E-17
 -1       335 8.80630E-04-3.19578E-04-4.00680E-17
 -1       336 1.17618E-03-3.76004E-04-8.95958E-17
 -1       337 1.47090E-03-4.13948E-04-1.60072E-16
 -1       338 1.76694E-03-4.39477E-04-2.51955E-16
 -1       339 2.06616E-03-4.57901E-04-3.66908E-16
 -1       340 2.37011E-03-4.74390E-04-5.05316E-16
 -1       341 2.68013E-03-4.94431E-04-6.68915E-16
 -1       342 2.99733E-03-5.24118E-04-8.57983E-16
 -1       343 3.32252E-03-5.70077E-04-1.07207E-15
 -1       344 3.65588E-03-6.38744E-04-1.31041E-15
 -1       345 3.99630E-03-7.34477E-04-1.57510E-15
 -1       346 4.34042E-03-8.55979E-04-1.86792E-15
 -1       347 4.68231E-03-9.91622E-04-2.18844E-15
 -1       348 5.01537E-03-1.11645E-03-2.54102E-15
 -1       349 5.33732E-03-1.19691E-03-2.92741E-15
 -1       350 5.65393E-03-1.20699E-03-3.35253E-15
 -1       351 5.97555E-03-1.14543E-03-3.82438E-15
 -1       352 6.30861E-03-1.03676E-03-4.34494E-15
 -1       353 6.65151E-03-9.14809E-04-4.91012E-15
 -1       354 6.99787E-03-8.05927E-04-5.51810E-15
 -1       355 7.34158E-03-7.23195E-04-6.17122E-15
 -1       356 7.67908E-03-6.69032E-04-6.86877E-15
 -1       357 8.00911E-03-6.40014E-04-7.60354E-15
 -1       358 8.33174E-03-6.30596E-04-8.37652E-15
 -1       359 8.64761E-03-6.35210E-04-9.18882E-15
 -1       360 8.95756E-03-6.49159E-04-1.00432E-14
 -1       361 9.26245E-03-6.68841E-04-1.09405E-14
 -1       362 9.56312E-03-6.91669E-04-1.18718E-14
 -1       363 9.86029E-03-7.15880E-04-1.28402E-14
 -1       364 1.01546E-02-7.40337E-04-1.38429E-14
 -1       365 1.04467E-02-7.64349E-04-1.48785E-14
 -1       366 1.07371E-02-7.87540E-04-1.59534E-14
 -1       367 1.10261E-02-8.09741E-04-1.70702E-14
 -1       368 1.13140E-02-8.30918E-04-1.82219E-14
 -1       369 1.16012E-02-8.51118E-04-1.94043E-14
 -1       370 1.18879E-02-8.70433E-04-2.06259E-14
 -1       371 1.21741E-02-8.88974E-04-2.18806E-14
 -1       372 1.24601E-02-9.06862E-04-2.31752E-14
 -1       373 1.27460E-02-9.24211E-04-2.45133E-14
 -1       374 1.30317E-02-9.41126E-04-2.59010E-14
 -1       375 1.33173E-02-9.57702E-04-2.73370E-14
 -1       376 1.36030E-02-9.74022E-04-2.88157E-14
 -1       377 1.38886E-02-9.90159E-04-3.03293E-14
 -1       378 1.41742E-02-1.00617E-03-3.18561E-14
 -1       379 1.44599E-02-1.02213E-03-3.33985E-14
 -1       380 1.47165E-02-1.03975E-03-3.47719E-14
 -1       381 1.13536E-03 4.02835E-04-1.53984E-16
 -1       382 1.42874E-03 4.45560E-04-2.52351E-16
 -1       383 1.72330E-03 4.75027E-04-3.76228E-16
 -1       384 2.02117E-03 4.96746E-04-5.26221E-16
 -1       385 2.32389E-03 5.15785E-04-7.03888E-16
 -1       386 2.63246E-03 5.37201E-04-9.09903E-16
 -1       387 2.94731E-03 5.66198E-04-1.14559E-15
 -1       388 3.26815E-03 6.07901E-04-1.41318E-15
 -1       389 3.59376E-03 6.66576E-04-1.71122E-15
 -1       390 3.92169E-03 7.44059E-04-2.03896E-15
 -1       391 4.24822E-03 8.37460E-04-2.39622E-15
 -1       392 4.56893E-03 9.36840E-04-2.78878E-15
 -1       393 4.88034E-03 1.02473E-03-3.21912E-15
 -1       394 5.18221E-03 1.07980E-03-3.68831E-15
 -1       395 5.47893E-03 1.08510E-03-4.20116E-15
 -1       396 5.77784E-03 1.03665E-03-4.75382E-15
 -1       397 6.08523E-03 9.45763E-04-5.34194E-15
 -1       398 6.40321E-03 8.32926E-04-5.96596E-15
 -1       399 6.72972E-03 7.18576E-04-6.62426E-15
 -1       400 7.06060E-03 6.16900E-04-7.32160E-15
 -1       401 7.39173E-03 5.34503E-04-8.05744E-15
 -1       402 7.72006E-03 4.72162E-04-8.83325E-15
 -1       403 8.04379E-03 4.27346E-04-9.64731E-15
 -1       404 8.36214E-03 3.96251E-04-1.05002E-14
 -1       405 8.67501E-03 3.75030E-04-1.13912E-14
 -1       406 8.98274E-03 3.60376E-04-1.23146E-14
 -1       407 9.28588E-03 3.49708E-04-1.32727E-14
 -1       408 9.58509E-03 3.41143E-04-1.42603E-14
 -1       409 9.88104E-03 3.33385E-04-1.52814E-14
 -1       410 1.01743E-02 3.25596E-04-1.63381E-14
 -1       411 1.04655E-02 3.17273E-04-1.74420E-14
 -1       412 1.07551E-02 3.08150E-04-1.85979E-14
 -1       413 1.10435E-02 2.98122E-04-1.98105E-14
 -1       414 1.13309E-02 2.87184E-04-2.10711E-14
 -1       415 1.16177E-02 2.75397E-04-2.23671E-14
 -1       416 1.19040E-02 2.62849E-04-2.36984E-14
 -1       417 1.21900E-02 2.49648E-04-2.50738E-14
 -1       418 1.24758E-02 2.35900E-04-2.64906E-14
 -1       419 1.27615E-02 2.21707E-04-2.79566E-14
 -1       420 1.30471E-02 2.07162E-04-2.94629E-14
 -1       421 1.33327E-02 1.92348E-04-3.10053E-14
 -1       422 1.36183E-02 1.77339E-04-3.25770E-14
 -1       423 1.39039E-02 1.62197E-04-3.41756E-14
 -1       424 1.41895E-02 1.46980E-04-3.57998E-14
 -1       425 1.44752E-02 1.31738E-04-3.74410E-14
 -1       426 1.46604E-02 1.15939E-04-3.84973E-14
 -1       427 1.46352E-02-9.74962E-05-3.77083E-14
 -1       428 1.46204E-02-1.31476E-05-3.78779E-14
 -1       429 1.46404E-02 5.14019E-05-3.81880E-14
 -1       430 1.46499E-02-1.80436E-04-3.75292E-14
 -1       431 1.46649E-02-2.64824E-04-3.73362E-14
 -1       432 1.46800E-02-3.49223E-04-3.71343E-14
 -1       433 1.46952E-02-4.33630E-04-3.69305E-14
 -1       434 1.47105E-02-5.18039E-04-3.67288E-14
 -1       435 1.47260E-02-6.02446E-04-3.65166E-14
 -1       436 1.47413E-02-6.85415E-04-3.62988E-14
 -1       437 1.47569E-02-7.69803E-04-3.60687E-14
 -1       438 1.47727E-02-8.54174E-04-3.58282E-14
 -1       439 1.47885E-02-9.38522E-04-3.55864E-14
 -1       440 7.34141E-03 5.70681E-05-5.41988E-15
 -1       441 7.69526E-03-1.11272E-04-5.48820E-15
 -1       442 7.61091E-03-5.73474E-05-5.59200E-15
 -1       443 7.04093E-03 1.91629E-04-5.26233E-15
 -1       444 6.58656E-03 4.22591E-04-4.96787E-15
 -1       445 4.47514E-04-1.04874E-04-2.50722E-17
 -1       446 5.82013E-03 7.94390E-04-4.36495E-15
 -1       447 5.42193E-03 8.70007E-04-3.91456E-15
 -1       448 5.10608E-03 8.24949E-04-3.59616E-15
 -1       449 4.75948E-03 6.88876E-04-3.28809E-15
 -1       450 4.38382E-03 5.01690E-04-3.03356E-15
 -1       451 3.99203E-03 3.04105E-04-2.81219E-15
 -1       452 3.65292E-03 1.51847E-04-2.65653E-15
 -1       453 3.38348E-03 3.40957E-05-2.50568E-15
 -1       454 3.23706E-03-3.11599E-05-2.44015E-15
 -1       455 3.22757E-03-8.57611E-05-2.39850E-15
 -1       456 3.36854E-03-1.51090E-04-2.39537E-15
 -1       457 3.65663E-03-2.61252E-04-2.42209E-15
 -1       458 4.07827E-03-4.77070E-04-2.60719E-15
 -1       459 4.44528E-03-6.74636E-04-2.77001E-15
 -1       460 4.80937E-03-8.60843E-04-2.94946E-15
 -1       461 5.18295E-03-1.01375E-03-3.20698E-15
 -1       462 5.59622E-03-1.06020E-03-3.56918E-15
 -1       463 5.87771E-03-9.94542E-04-3.85716E-15
 -1       464 6.28295E-03-8.07396E-04-4.27079E-15
 -1       465 6.67942E-03-6.02370E-04-4.60096E-15
 -1       466 7.04729E-03-4.21946E-04-4.88776E-15
 -1       467 7.37412E-03-2.72962E-04-5.16634E-15
 -1       468 7.63263E-03-1.62911E-04-5.42745E-15
 -1       469 6.21000E-03 6.16929E-04-4.69866E-15
 -1       470 6.80548E-03 2.82945E-04-5.29825E-15
 -1       471 5.40934E-03-1.07319E-03-3.35115E-15
 -1       472 5.62181E-03 8.62094E-04-4.19278E-15
 -1       473 9.48433E-04 3.05149E-04-1.27590E-16
 -1       474 6.51238E-04-5.78452E-05-7.74629E-17
 -1       475 6.61039E-04-9.13562E-05-7.09102E-17
 -1       476 6.43733E-04 2.06032E-07-8.61500E-17
 -1       477 6.46044E-04 2.85743E-05-8.90503E-17
 -1       478 6.52147E-04 5.84418E-05-9.07172E-17
 -1       479 6.62151E-04 9.26656E-05-9.13677E-17
 -1       480 6.76123E-04 1.32710E-04-9.00464E-17
 -1       481 6.94953E-04 1.80791E-04-8.63025E-17
 -1       482 1.24215E-03 3.54202E-04-2.16366E-16
 -1       483 9.92078E-04-2.83759E-04-8.34768E-17
 -1       484 6.05336E-03 6.95433E-04-4.77303E-15
 -1       485 1.28427E-03-3.26715E-04-1.49823E-16
 -1       486 1.57714E-03-3.55728E-04-2.37633E-16
 -1       487 1.87122E-03-3.75317E-04-3.47643E-16
 -1       488 2.16748E-03-3.90087E-04-4.80281E-16
 -1       489 2.46721E-03-4.04881E-04-6.36762E-16
 -1       490 2.77201E-03-4.25050E-04-8.17827E-16
 -1       491 3.08398E-03-4.56681E-04-1.02319E-15
 -1       492 3.40569E-03-5.06597E-04-1.25429E-15
 -1       493 3.73966E-03-5.81792E-04-1.51093E-15
 -1       494 4.08691E-03-6.87466E-04-1.79586E-15
 -1       495 4.44415E-03-8.22295E-04-2.10883E-15
 -1       496 4.80226E-03-9.70561E-04-2.45120E-15
 -1       497 5.15067E-03-1.09610E-03-2.82578E-15
 -1       498 5.48748E-03-1.15287E-03-3.23725E-15
 -1       499 5.82377E-03-1.11734E-03-3.69192E-15
 -1       500 6.17144E-03-1.00956E-03-4.19837E-15
 -1       501 6.52979E-03-8.75212E-04-4.74982E-15
 -1       502 6.88850E-03-7.52380E-04-5.34265E-15
 -1       503 7.23810E-03-6.58777E-04-5.97726E-15
 -1       504 7.57483E-03-5.96973E-04-6.65997E-15
 -1       505 7.89936E-03-5.62590E-04-7.38072E-15
 -1       506 8.21413E-03-5.49365E-04-8.13735E-15
 -1       507 8.52165E-03-5.51342E-04-8.93404E-15
 -1       508 8.82389E-03-5.63593E-04-9.77071E-15
 -1       509 9.12227E-03-5.82331E-04-1.06511E-14
 -1       510 9.41773E-03-6.04791E-04-1.15675E-14
 -1       511 9.71095E-03-6.29045E-04-1.25203E-14
 -1       512 1.00024E-02-6.53813E-04-1.35113E-14
 -1       513 1.02925E-02-6.78291E-04-1.45332E-14
 -1       514 1.05815E-02-7.02016E-04-1.55878E-14
 -1       515 1.08696E-02-7.24763E-04-1.66818E-14
 -1       516 1.11570E-02-7.46457E-04-1.78167E-14
 -1       517 1.14439E-02-7.67126E-04-1.89846E-14
 -1       518 1.17305E-02-7.86849E-04-2.01900E-14
 -1       519 1.20167E-02-8.05737E-04-2.14346E-14
 -1       520 1.23028E-02-8.23910E-04-2.27179E-14
 -1       521 1.25887E-02-8.41489E-04-2.40338E-14
 -1       522 1.28745E-02-8.58585E-04-2.53974E-14
 -1       523 1.31603E-02-8.75297E-04-2.68098E-14
 -1       524 1.34460E-02-8.91716E-04-2.82719E-14
 -1       525 1.37317E-02-9.07918E-04-2.97723E-14
 -1       526 1.40174E-02-9.23970E-04-3.12950E-14
 -1       527 1.43031E-02-9.39929E-04-3.28360E-14
 -1       528 1.83151E-03 4.11184E-04-4.67454E-16
 -1       529 2.12939E-03 4.29042E-04-6.31775E-16
 -1       530 2.43108E-03 4.46255E-04-8.23177E-16
 -1       531 2.73778E-03 4.67841E-04-1.04243E-15
 -1       532 3.05062E-03 4.99061E-04-1.29212E-15
 -1       533 3.37047E-03 5.45124E-04-1.57205E-15
 -1       534 3.69748E-03 6.10280E-04-1.87982E-15
 -1       535 4.03028E-03 6.95939E-04-2.21896E-15
 -1       536 4.36516E-03 7.97693E-04-2.59025E-15
 -1       537 4.69640E-03 9.01984E-04-2.99821E-15
 -1       538 5.01904E-03 9.85890E-04-3.44328E-15
 -1       539 5.33308E-03 1.02340E-03-3.92990E-15
 -1       540 5.64506E-03 9.99135E-04-4.45980E-15
 -1       541 5.96339E-03 9.18680E-04-5.03001E-15
 -1       542 6.29153E-03 8.04477E-04-5.63521E-15
 -1       543 6.62658E-03 6.82561E-04-6.27498E-15
 -1       544 6.96269E-03 5.71779E-04-6.94984E-15
 -1       545 7.29501E-03 4.81126E-04-7.66466E-15
 -1       546 7.62106E-03 4.12171E-04-8.41700E-15
 -1       547 7.94033E-03 3.62445E-04-9.20867E-15
 -1       548 8.25332E-03 3.27956E-04-1.00372E-14
 -1       549 8.56090E-03 3.04593E-04-1.09053E-14
 -1       550 8.86395E-03 2.88774E-04-1.18099E-14
 -1       551 9.16329E-03 2.77662E-04-1.27476E-14
 -1       552 9.45958E-03 2.69150E-04-1.37215E-14
 -1       553 9.75342E-03 2.61762E-04-1.47252E-14
 -1       554 1.00453E-02 2.54521E-04-1.57649E-14
 -1       555 1.03356E-02 2.46824E-04-1.68440E-14
 -1       556 1.06246E-02 2.38336E-04-1.79713E-14
 -1       557 1.09127E-02 2.28908E-04-1.91513E-14
 -1       558 1.12001E-02 2.18512E-04-2.03858E-14
 -1       559 1.14869E-02 2.07195E-04-2.16559E-14
 -1       560 1.17733E-02 1.95045E-04-2.29610E-14
 -1       561 1.20595E-02 1.82171E-04-2.43082E-14
 -1       562 1.23454E-02 1.68686E-04-2.56968E-14
 -1       563 1.26313E-02 1.54698E-04-2.71336E-14
 -1       564 1.29170E-02 1.40309E-04-2.86107E-14
 -1       565 1.32027E-02 1.25609E-04-3.01311E-14
 -1       566 1.34884E-02 1.10676E-04-3.16815E-14
 -1       567 1.37740E-02 9.55786E-05-3.32588E-14
 -1       568 1.40597E-02 8.03782E-05-3.48619E-14
 -1       569 1.43454E-02 6.51280E-05-3.64884E-14
 -1       570 1.44099E-02-2.09312E-04-3.60422E-14
 -1       571 1.44249E-02-2.93650E-04-3.58511E-14
 -1       572 1.43804E-02-4.20802E-05-3.63837E-14
 -1       573 1.43951E-02-1.25692E-04-3.62189E-14
 -1       574 1.44401E-02-3.77991E-04-3.56565E-14
 -1       575 1.44554E-02-4.62331E-04-3.54582E-14
 -1       576 1.44707E-02-5.46672E-04-3.52531E-14
 -1       577 1.44860E-02-6.29583E-04-3.50453E-14
 -1       578 1.45016E-02-7.13922E-04-3.48179E-14
 -1       579 1.45174E-02-7.98257E-04-3.45886E-14
 -1       580 1.45332E-02-8.82584E-04-3.43583E-14
 -1       581 7.72176E-03-1.02336E-04-5.93846E-15
 -1       582 7.49002E-03-2.12708E-05-5.80181E-15
 -1       583 7.72489E-03-1.31230E-04-5.87612E-15
 -1       584 1.53619E-03 3.87856E-04-3.29340E-16
 -1       585 7.19675E-03 9.29710E-05-5.63906E-15
 -1       586 7.22665E-04-2.18182E-04-4.40660E-17
 -1       587 6.40000E-03 4.99854E-04-5.04217E-15
 -1       588 6.45460E-04-2.79726E-05-8.25349E-17
 -1       589 5.27274E-03 8.76250E-04-3.76308E-15
 -1       590 6.53043E-03-6.73679E-04-4.62061E-15
 -1       591 4.95066E-03 7.80880E-04-3.40200E-15
 -1       592 4.56027E-03 5.85953E-04-3.04764E-15
 -1       593 4.18733E-03 3.83375E-04-2.79628E-15
 -1       594 3.80141E-03 1.94011E-04-2.59593E-15
 -1       595 3.51506E-03 7.51020E-05-2.44819E-15
 -1       596 3.25950E-03-1.48063E-05-2.29870E-15
 -1       597 3.17917E-03-5.53887E-05-2.23545E-15
 -1       598 3.24872E-03-9.69233E-05-2.22779E-15
 -1       599 3.44590E-03-1.66735E-04-2.21939E-15
 -1       600 3.90607E-03-3.61244E-04-2.35901E-15
 -1       601 4.29153E-03-5.62191E-04-2.54192E-15
 -1       602 4.61287E-03-7.44120E-04-2.70932E-15
 -1       603 5.00691E-03-9.54250E-04-2.96039E-15
 -1       604 5.71952E-03-1.06175E-03-3.67450E-15
 -1       605 6.07858E-03-9.24705E-04-4.11426E-15
 -1       606 6.88265E-03-4.81002E-04-4.93408E-15
 -1       607 7.21882E-03-3.21848E-04-5.24238E-15
 -1       608 7.53534E-03-1.97867E-04-5.55715E-15
 -1       609 7.16250E-04 2.59943E-04-7.20554E-17
 -1       610 6.74935E-04-1.30437E-04-6.24162E-17
 -1       611 7.67461E-03-7.61497E-05-6.15395E-15
 -1       612 3.63870E-03-2.51420E-04-2.15719E-15
 -1       613 5.21860E-03-1.04798E-03-3.09151E-15
 -1       614 5.86373E-03 7.94948E-04-4.58737E-15
 -1       615 1.44965E-02-9.52365E-04-3.38798E-14
 -1       616 8.74413E-04 5.53150E-05-1.55092E-16
 -1       617 8.68021E-04 1.78516E-05-1.51328E-16
 -1       618 9.03811E-04 1.42313E-04-1.56410E-16
 -1       619 9.26843E-04 1.96205E-04-1.52801E-16
 -1       620 1.06152E-03 2.67195E-04-1.79534E-16
 -1       621 1.35159E-03 3.03975E-04-2.82174E-16
 -1       622 7.68949E-03-1.66378E-04-6.03599E-15
 -1       623 1.39254E-03-2.76658E-04-2.17959E-16
 -1       624 1.68056E-03-2.97806E-04-3.23024E-16
 -1       625 1.96929E-03-3.12205E-04-4.50330E-16
 -1       626 2.25928E-03-3.23717E-04-6.00384E-16
 -1       627 2.55176E-03-3.36607E-04-7.73761E-16
 -1       628 2.84893E-03-3.55757E-04-9.71469E-16
 -1       629 3.15426E-03-3.87026E-04-1.19373E-15
 -1       630 3.47265E-03-4.37735E-04-1.44143E-15
 -1       631 3.80916E-03-5.17019E-04-1.71650E-15
 -1       632 4.16940E-03-6.33289E-04-2.02120E-15
 -1       633 4.54679E-03-7.89083E-04-2.35538E-15
 -1       634 5.30221E-03-1.09242E-03-3.10368E-15
 -1       635 5.65757E-03-1.10446E-03-3.54149E-15
 -1       636 6.02121E-03-1.00539E-03-4.02957E-15
 -1       637 6.39778E-03-8.53937E-04-4.56595E-15
 -1       638 6.77412E-03-7.11195E-04-5.14547E-15
 -1       639 7.13507E-03-6.04461E-04-5.76497E-15
 -1       640 7.47530E-03-5.35682E-04-6.42760E-15
 -1       641 7.79714E-03-4.97489E-04-7.13504E-15
 -1       642 8.10559E-03-4.81733E-04-7.87719E-15
 -1       643 8.40533E-03-4.81710E-04-8.65518E-15
 -1       644 8.69976E-03-4.92338E-04-9.47520E-15
 -1       645 8.99106E-03-5.09844E-04-1.03367E-14
 -1       646 9.28053E-03-5.31471E-04-1.12373E-14
 -1       647 9.56891E-03-5.55256E-04-1.21745E-14
 -1       648 9.85659E-03-5.79849E-04-1.31502E-14
 -1       649 1.01438E-02-6.04370E-04-1.41599E-14
 -1       650 1.04307E-02-6.28284E-04-1.51977E-14
 -1       651 1.07173E-02-6.51302E-04-1.62753E-14
 -1       652 1.10037E-02-6.73305E-04-1.73871E-14
 -1       653 1.12899E-02-6.94287E-04-1.85368E-14
 -1       654 1.15760E-02-7.14307E-04-1.97264E-14
 -1       655 1.18620E-02-7.33463E-04-2.09544E-14
 -1       656 1.21479E-02-7.51870E-04-2.22267E-14
 -1       657 1.24338E-02-7.69645E-04-2.35291E-14
 -1       658 1.27196E-02-7.86901E-04-2.48704E-14
 -1       659 1.30054E-02-8.03741E-04-2.62613E-14
 -1       660 1.32911E-02-8.20256E-04-2.77014E-14
 -1       661 1.35768E-02-8.36526E-04-2.91883E-14
 -1       662 1.38626E-02-8.52620E-04-3.07055E-14
 -1       663 1.41483E-02-8.68598E-04-3.22366E-14
 -1       664 2.23022E-03 3.61146E-04-7.38115E-16
 -1       665 1.40946E-02-2.67960E-05-3.47723E-14
 -1       666 1.93539E-03 3.46903E-04-5.60058E-16
 -1       667 2.83227E-03 3.97362E-04-1.17425E-15
 -1       668 3.14355E-03 4.29414E-04-1.43631E-15
 -1       669 3.46489E-03 4.78135E-04-1.72587E-15
 -1       670 3.79799E-03 5.48690E-04-2.04536E-15
 -1       671 4.14208E-03 6.43468E-04-2.39751E-15
 -1       672 4.49156E-03 7.57406E-04-2.78210E-15
 -1       673 4.83736E-03 8.71142E-04-3.20303E-15
 -1       674 5.17201E-03 9.50597E-04-3.66331E-15
 -1       675 5.49782E-03 9.62159E-04-4.16758E-15
 -1       676 5.82713E-03 8.96720E-04-4.71887E-15
 -1       677 6.16785E-03 7.78284E-04-5.30693E-15
 -1       678 6.51714E-03 6.44286E-04-5.92831E-15
 -1       679 6.86549E-03 5.22203E-04-6.58340E-15
 -1       680 7.20508E-03 4.23799E-04-7.27504E-15
 -1       681 7.53298E-03 3.50085E-04-8.00544E-15
 -1       682 7.84988E-03 2.97391E-04-8.77255E-15
 -1       683 8.15798E-03 2.60931E-04-9.57939E-15
 -1       684 8.45961E-03 2.36209E-04-1.04236E-14
 -1       685 8.75668E-03 2.19486E-04-1.13076E-14
 -1       686 9.05059E-03 2.07846E-04-1.22259E-14
 -1       687 9.34229E-03 1.99120E-04-1.31814E-14
 -1       688 9.63243E-03 1.91763E-04-1.41712E-14
 -1       689 9.92143E-03 1.84727E-04-1.51925E-14
 -1       690 1.02096E-02 1.77345E-04-1.62495E-14
 -1       691 1.04971E-02 1.69230E-04-1.73479E-14
 -1       692 1.07841E-02 1.60192E-04-1.84964E-14
 -1       693 1.10708E-02 1.50176E-04-1.96980E-14
 -1       694 1.13572E-02 1.39208E-04-2.09451E-14
 -1       695 1.16434E-02 1.27369E-04-2.22298E-14
 -1       696 1.19294E-02 1.14761E-04-2.35516E-14
 -1       697 1.22153E-02 1.01498E-04-2.49137E-14
 -1       698 1.25012E-02 8.76921E-05-2.63196E-14
 -1       699 1.27870E-02 7.34460E-05-2.77689E-14
 -1       700 1.30727E-02 5.88538E-05-2.92630E-14
 -1       701 1.33584E-02 4.39980E-05-3.07927E-14
 -1       702 1.36442E-02 2.89499E-05-3.23502E-14
 -1       703 1.38694E-02 1.10754E-06-3.35563E-14
 -1       704 1.42002E-02-4.06692E-04-3.41913E-14
 -1       705 1.43407E-02-8.75599E-04-3.32939E-14
 -1       706 1.41699E-02-2.38139E-04-3.45705E-14
 -1       707 1.42156E-02-4.90964E-04-3.39938E-14
 -1       708 1.41850E-02-3.22418E-04-3.43848E-14
 -1       709 7.10034E-03-3.94101E-04-5.32748E-15
 -1       710 1.42308E-02-5.73810E-04-3.37904E-14
 -1       711 1.42463E-02-6.58090E-04-3.35760E-14
 -1       712 1.42620E-02-7.42377E-04-3.33506E-14
 -1       713 1.43014E-02-8.08985E-04-3.33235E-14
 -1       714 7.42948E-03-2.53693E-04-5.68826E-15
 -1       715 1.64279E-03 3.29235E-04-4.08768E-16
 -1       716 8.78146E-04-2.07097E-04-8.53064E-17
 -1       717 6.98262E-03 2.00162E-04-5.75917E-15
 -1       718 7.80000E-03-1.21459E-04-6.32282E-15
 -1       719 2.52858E-03 3.76365E-04-9.41718E-16
 -1       720 1.13426E-03-2.46669E-04-1.43291E-16
 -1       721 8.86417E-04 9.60795E-05-1.56894E-16
 -1       722 4.09527E-03-4.78687E-04-2.27122E-15
 -1       723 4.77878E-03-8.53837E-04-2.69417E-15
 -1       724 8.84604E-04-9.49695E-05-1.29823E-16
 -1       725 6.78791E-03-5.57592E-04-5.00049E-15
 -1       726 4.72873E-03 7.11897E-04-3.12687E-15
 -1       727 4.31683E-03 4.83155E-04-2.77694E-15
 -1       728 3.92991E-03 2.74313E-04-2.53697E-15
 -1       729 3.61748E-03 1.31280E-04-2.37185E-15
 -1       730 3.32445E-03 3.13283E-05-2.17766E-15
 -1       731 3.14327E-03-3.27434E-05-2.07221E-15
 -1       732 3.26097E-03-1.14842E-04-2.04114E-15
 -1       733 4.44270E-03-6.63480E-04-2.47824E-15
 -1       734 3.14430E-03-7.01976E-05-2.04989E-15
 -1       735 5.44566E-03 9.06646E-04-4.01780E-15
 -1       736 5.12203E-03 8.62821E-04-3.57971E-15
 -1       737 6.36778E-03-8.04131E-04-4.50638E-15
 -1       738 7.38741E-03 2.50989E-05-6.05203E-15
 -1       739 6.31879E-03 5.64061E-04-5.17405E-15
 -1       740 6.64198E-03 3.76654E-04-5.46560E-15
 -1       741 9.01807E-04-1.40080E-04-1.18503E-16
 -1       742 8.67570E-04-1.82658E-05-1.45923E-16
 -1       743 7.80408E-03-1.00286E-04-6.54501E-15
 -1       744 3.81101E-03-3.60194E-04-2.07345E-15
 -1       745 4.93344E-03-9.67222E-04-2.71269E-15
 -1       746 1.41551E-02-1.54567E-04-3.47448E-14
 -1       747 7.61717E-03-4.00058E-05-6.41288E-15
 -1       748 6.12013E-03 6.83655E-04-4.97910E-15
 -1       749 3.39790E-03-1.76880E-04-1.98175E-15
 -1       750 8.73131E-04-5.50854E-05-1.38903E-16
 -1       751 5.48977E-03-1.10254E-03-3.35920E-15
 -1       752 1.15647E-03 1.96251E-04-2.36586E-16
 -1       753 1.78033E-03-2.41121E-04-4.15104E-16
 -1       754 2.06135E-03-2.51051E-04-5.59231E-16
 -1       755 2.34231E-03-2.59412E-04-7.26297E-16
 -1       756 2.62442E-03-2.69632E-04-9.16425E-16
 -1       757 2.91033E-03-2.85786E-04-1.13081E-15
 -1       758 3.20478E-03-3.13301E-04-1.37029E-15
 -1       759 3.51565E-03-3.60429E-04-1.63575E-15
 -1       760 6.76255E-03-6.39168E-04-5.08181E-15
 -1       761 7.13049E-03-5.26506E-04-5.69801E-15
 -1       762 7.46786E-03-4.60987E-04-6.35454E-15
 -1       763 7.78145E-03-4.27938E-04-7.05563E-15
 -1       764 8.07939E-03-4.16247E-04-7.79328E-15
 -1       765 8.36846E-03-4.18593E-04-8.56326E-15
 -1       766 8.65306E-03-4.30219E-04-9.37558E-15
 -1       767 8.93581E-03-4.47862E-04-1.02287E-14
 -1       768 9.21813E-03-4.69183E-04-1.11206E-14
 -1       769 9.50068E-03-4.92495E-04-1.20506E-14
 -1       770 9.78374E-03-5.16602E-04-1.30208E-14
 -1       771 1.00674E-02-5.40699E-04-1.40245E-14
 -1       772 1.03515E-02-5.64274E-04-1.50554E-14
 -1       773 1.06361E-02-5.87040E-04-1.61215E-14
 -1       774 1.09210E-02-6.08866E-04-1.72250E-14
 -1       775 1.12061E-02-6.29729E-04-1.83648E-14
 -1       776 1.14915E-02-6.49676E-04-1.95442E-14
 -1       777 1.17770E-02-6.68791E-04-2.07663E-14
 -1       778 1.20626E-02-6.87179E-04-2.20312E-14
 -1       779 1.23482E-02-7.04949E-04-2.33318E-14
 -1       780 1.26339E-02-7.22209E-04-2.46669E-14
 -1       781 1.29196E-02-7.39056E-04-2.60476E-14
 -1       782 1.32054E-02-7.55580E-04-2.74809E-14
 -1       783 1.34911E-02-7.71855E-04-2.89605E-14
 -1       784 1.37769E-02-7.87950E-04-3.04721E-14
 -1       785 2.03435E-03 2.82862E-04-6.53974E-16
 -1       786 3.22464E-03 3.54602E-04-1.57757E-15
 -1       787 2.91576E-03 3.24196E-04-1.30594E-15
 -1       788 3.88953E-03 4.79053E-04-2.20937E-15
 -1       789 4.24938E-03 5.86905E-04-2.57214E-15
 -1       790 6.03919E-03 7.63744E-04-4.97735E-15
 -1       791 6.40817E-03 6.08620E-04-5.58188E-15
 -1       792 6.77416E-03 4.68536E-04-6.21883E-15
 -1       793 7.12512E-03 3.61152E-04-6.88968E-15
 -1       794 7.45665E-03 2.84361E-04-7.59758E-15
 -1       795 7.77171E-03 2.31347E-04-8.34138E-15
 -1       796 8.07453E-03 1.95217E-04-9.12556E-15
 -1       797 8.36930E-03 1.70691E-04-9.94906E-15
 -1       798 8.65921E-03 1.53890E-04-1.08112E-14
 -1       799 8.94639E-03 1.42002E-04-1.17101E-14
 -1       800 9.23217E-03 1.32989E-04-1.26442E-14
 -1       801 9.51735E-03 1.25395E-04-1.36168E-14
 -1       802 9.80233E-03 1.18213E-04-1.46211E-14
 -1       803 1.00873E-02 1.10781E-04-1.56597E-14
 -1       804 1.03724E-02 1.02698E-04-1.67332E-14
 -1       805 1.06577E-02 9.37518E-05-1.78514E-14
 -1       806 1.09431E-02 8.38648E-05-1.90175E-14
 -1       807 1.12286E-02 7.30462E-05-2.02338E-14
 -1       808 1.15141E-02 6.13598E-05-2.14987E-14
 -1       809 1.17997E-02 4.88994E-05-2.28001E-14
 -1       810 1.20854E-02 3.57710E-05-2.41394E-14
 -1       811 1.23711E-02 2.20822E-05-2.55185E-14
 -1       812 1.26569E-02 7.93513E-06-2.69381E-14
 -1       813 1.29426E-02-6.57739E-06-2.84028E-14
 -1       814 1.32283E-02-2.13731E-05-2.99108E-14
 -1       815 1.35141E-02-3.63805E-05-3.14534E-14
 -1       816 1.09772E-03 4.25821E-05-2.34188E-16
 -1       817 1.39911E-02-6.02297E-04-3.23357E-14
 -1       818 1.39604E-02-4.35324E-04-3.27389E-14
 -1       819 1.40067E-02-6.86519E-04-3.21208E-14
 -1       820 1.39757E-02-5.18806E-04-3.25401E-14
 -1       821 7.63360E-03-2.17120E-04-6.17727E-15
 -1       822 3.54796E-03 4.03590E-04-1.87848E-15
 -1       823 7.85574E-03-1.55482E-04-6.64187E-15
 -1       824 7.04576E-03-4.73694E-04-5.43186E-15
 -1       825 1.49902E-03-2.26576E-04-2.93311E-16
 -1       826 3.14030E-03 3.05000E-06-1.95484E-15
 -1       827 3.42742E-03 9.98878E-05-2.13384E-15
 -1       828 3.10459E-03-8.78158E-05-1.85467E-15
 -1       829 7.26118E-03 1.13827E-04-6.30176E-15
 -1       830 7.34847E-03-3.27748E-04-5.80205E-15
 -1       831 4.01370E-03 3.77163E-04-2.47174E-15
 -1       832 3.69119E-03 2.08361E-04-2.28744E-15
 -1       833 3.04353E-03-4.85025E-05-1.86927E-15
 -1       834 1.25145E-03 2.47628E-04-2.59961E-16
 -1       835 1.09291E-03-6.44362E-07-2.27862E-16
 -1       836 7.91653E-03-1.33026E-04-6.87149E-15
 -1       837 1.39150E-02-1.83061E-04-3.32946E-14
 -1       838 3.19952E-03 5.58282E-05-1.91383E-15
 -1       839 4.22497E-03-5.75623E-04-2.25049E-15
 -1       840 1.24627E-03-2.05142E-04-2.03766E-16
 -1       841 2.98911E-03-1.88229E-05-1.75980E-15
 -1       842 2.32379E-03 2.93263E-04-8.44217E-16
 -1       843 1.39915E-02-7.86419E-04-3.16688E-14
 -1       844 1.38922E-02-9.09853E-05-3.34333E-14
 -1       845 2.61672E-03 3.05560E-04-1.06139E-15
 -1       846 5.68028E-03 8.90655E-04-4.40875E-15
 -1       847 1.37031E-02-6.36526E-05-3.24421E-14
 -1       848 1.39301E-02-2.67282E-04-3.31197E-14
 -1       849 1.11031E-03 8.83166E-05-2.38135E-16
 -1       850 1.39452E-02-3.51308E-04-3.29317E-14
 -1       851 6.58557E-03 4.61836E-04-5.67027E-15
 -1       852 7.52025E-03 3.03208E-05-6.67131E-15
 -1       853 1.53828E-03 2.72488E-04-3.80985E-16
 -1       854 1.12713E-03-1.37381E-04-1.93896E-16
 -1       855 3.18901E-03-1.33476E-04-1.79919E-15
 -1       856 1.13015E-03 1.39086E-04-2.39178E-16
 -1       857 1.78645E-03 2.79906E-04-5.07898E-16
 -1       858 6.95809E-03 2.67932E-04-6.08882E-15
 -1       859 1.10786E-03-8.81887E-05-2.07974E-16
 -1       860 2.14863E-03-1.92574E-04-6.74292E-16
 -1       861 2.41787E-03-1.97928E-04-8.58068E-16
 -1       862 2.68561E-03-2.04749E-04-1.06518E-15
 -1       863 2.95418E-03-2.16011E-04-1.29723E-15
 -1       864 3.22841E-03-2.36525E-04-1.55306E-15
 -1       865 7.80346E-03-6.80566E-05-6.90786E-15
 -1       866 7.60393E-03-2.86170E-04-6.36205E-15
 -1       867 7.38338E-03-3.99013E-04-6.07336E-15
 -1       868 7.72958E-03-3.44451E-04-6.82353E-15
 -1       869 8.01013E-03-3.37665E-04-7.54729E-15
 -1       870 8.28287E-03-3.42826E-04-8.30429E-15
 -1       871 8.55321E-03-3.55284E-04-9.09797E-15
 -1       872 8.82390E-03-3.72524E-04-9.93311E-15
 -1       873 9.09619E-03-3.92837E-04-1.08071E-14
 -1       874 9.37056E-03-4.14954E-04-1.17228E-14
 -1       875 9.64704E-03-4.37919E-04-1.26792E-14
 -1       876 9.92546E-03-4.61036E-04-1.36705E-14
 -1       877 1.02056E-02-4.83830E-04-1.46897E-14
 -1       878 1.04870E-02-5.06005E-04-1.57372E-14
 -1       879 1.07696E-02-5.27403E-04-1.68217E-14
 -1       880 1.10530E-02-5.47971E-04-1.79430E-14
 -1       881 1.13371E-02-5.67723E-04-1.91017E-14
 -1       882 1.16218E-02-5.86718E-04-2.03070E-14
 -1       883 1.19067E-02-6.05038E-04-2.15559E-14
 -1       884 1.21920E-02-6.22778E-04-2.28454E-14
 -1       885 1.24774E-02-6.40029E-04-2.41703E-14
 -1       886 1.27630E-02-6.56881E-04-2.55365E-14
 -1       887 1.30486E-02-6.73414E-04-2.69489E-14
 -1       888 1.33343E-02-6.89700E-04-2.84078E-14
 -1       889 1.36201E-02-7.05801E-04-2.99088E-14
 -1       890 7.40263E-03 2.08992E-04-7.19023E-15
 -1       891 7.71257E-03 1.59653E-04-7.91525E-15
 -1       892 8.00685E-03 1.27064E-04-8.67694E-15
 -1       893 8.29200E-03 1.05026E-04-9.47872E-15
 -1       894 8.57253E-03 8.95089E-05-1.03178E-14
 -1       895 8.85119E-03 7.80095E-05-1.11981E-14
 -1       896 9.12956E-03 6.88477E-05-1.21120E-14
 -1       897 9.40849E-03 6.08482E-05-1.30627E-14
 -1       898 9.68835E-03 5.31858E-05-1.40506E-14
 -1       899 9.96925E-03 4.53004E-05-1.50716E-14
 -1       900 1.02511E-02 3.68374E-05-1.61234E-14
 -1       901 1.05339E-02 2.75991E-05-1.72140E-14
 -1       902 1.08174E-02 1.75025E-05-1.83484E-14
 -1       903 1.11015E-02 6.54488E-06-1.95310E-14
 -1       904 1.13861E-02-5.22484E-06-2.07657E-14
 -1       905 1.16711E-02-1.77274E-05-2.20471E-14
 -1       906 1.19563E-02-3.08692E-05-2.33661E-14
 -1       907 1.22417E-02-4.45529E-05-2.47230E-14
 -1       908 1.25272E-02-5.86846E-05-2.61179E-14
 -1       909 1.28129E-02-7.31776E-05-2.75524E-14
 -1       910 1.30986E-02-8.79547E-05-2.90329E-14
 -1       911 1.33843E-02-1.02949E-04-3.05527E-14
 -1       912 7.86406E-03-2.01665E-04-6.84176E-15
 -1       913 1.37514E-02-6.30682E-04-3.09003E-14
 -1       914 3.58672E-03-2.88104E-04-1.90644E-15
 -1       915 1.09633E-03-4.34272E-05-2.19107E-16
 -1       916 3.45616E-03 1.73941E-04-2.02957E-15
 -1       917 2.94196E-03-6.59172E-05-1.64937E-15
 -1       918 2.98546E-03 2.47369E-04-1.43515E-15
 -1       919 1.43811E-03 2.19787E-04-3.52230E-16
 -1       920 3.68970E-03 3.21683E-04-2.12048E-15
 -1       921 1.87719E-03-1.86331E-04-5.13471E-16
 -1       922 7.25378E-03 1.85882E-04-6.65412E-15
 -1       923 1.60379E-03-1.77049E-04-3.75591E-16
 -1       924 7.97214E-03-1.08510E-04-7.24577E-15
 -1       925 3.00605E-03 2.14651E-05-1.72210E-15
 -1       926 1.33324E-03 7.20692E-05-3.34317E-16
 -1       927 7.96127E-03-1.70558E-04-7.07941E-15
 -1       928 1.37260E-02-1.55688E-04-3.23118E-14
 -1       929 1.32175E-03 2.25336E-05-3.27853E-16
 -1       930 1.37515E-02-7.15287E-04-3.05985E-14
 -1       931 1.37206E-02-4.63513E-04-3.13041E-14
 -1       932 2.69457E-03 2.33491E-04-1.17984E-15
 -1       933 1.37053E-02-3.79593E-04-3.14985E-14
 -1       934 1.37359E-02-5.46907E-04-3.11065E-14
 -1       935 7.50994E-03 9.78825E-05-7.03620E-15
 -1       936 3.28806E-03 2.72977E-04-1.71776E-15
 -1       937 2.98051E-03-1.02713E-04-1.59968E-15
 -1       938 1.36465E-03-1.59013E-04-2.76878E-16
 -1       939 1.35551E-02-1.29287E-04-3.14334E-14
 -1       940 1.83996E-03 2.15805E-04-5.66411E-16
 -1       941 3.25531E-03-1.91880E-04-1.70014E-15
 -1       942 2.12101E-03 2.23396E-04-7.41340E-16
 -1       943 1.33938E-03-1.04212E-04-2.95001E-16
 -1       944 1.37410E-02-2.39860E-04-3.21463E-14
 -1       945 1.35421E-03 1.25681E-04-3.37919E-16
 -1       946 2.23379E-03-1.37627E-04-7.94913E-16
 -1       947 2.40997E-03 2.25484E-04-9.51137E-16
 -1       948 2.48871E-03-1.40651E-04-9.95487E-16
 -1       949 2.73728E-03-1.44298E-04-1.21977E-15
 -1       950 2.98999E-03-1.62527E-04-1.44948E-15
 -1       951 3.16407E-03 1.20901E-04-1.76014E-15
 -1       952 8.21042E-03-2.71858E-04-8.03887E-15
 -1       953 8.46234E-03-2.85734E-04-8.81730E-15
 -1       954 8.71859E-03-3.02682E-04-9.63568E-15
 -1       955 8.97947E-03-3.21755E-04-1.04922E-14
 -1       956 9.24475E-03-3.42229E-04-1.13917E-14
 -1       957 9.51398E-03-3.63489E-04-1.23329E-14
 -1       958 9.78663E-03-3.85023E-04-1.33093E-14
 -1       959 1.00622E-02-4.06441E-04-1.43149E-14
 -1       960 1.03401E-02-4.27472E-04-1.53510E-14
 -1       961 1.06199E-02-4.47951E-04-1.64184E-14
 -1       962 1.09013E-02-4.67799E-04-1.75200E-14
 -1       963 1.11839E-02-4.87000E-04-1.86609E-14
 -1       964 1.14674E-02-5.05582E-04-1.98471E-14
 -1       965 1.17515E-02-5.23600E-04-2.10801E-14
 -1       966 1.20362E-02-5.41121E-04-2.23543E-14
 -1       967 1.23213E-02-5.58220E-04-2.36664E-14
 -1       968 1.26066E-02-5.74968E-04-2.50250E-14
 -1       969 1.28921E-02-5.91431E-04-2.64213E-14
 -1       970 1.31777E-02-6.07670E-04-2.78627E-14
 -1       971 1.34634E-02-6.23736E-04-2.93441E-14
 -1       972 8.22712E-03 4.10598E-05-9.01032E-15
 -1       973 7.95656E-03 5.86653E-05-8.23095E-15
 -1       974 8.49500E-03 2.81226E-05-9.82998E-15
 -1       975 8.76300E-03 1.76267E-05-1.06868E-14
 -1       976 9.03252E-03 8.47005E-06-1.15848E-14
 -1       977 9.30416E-03-7.92842E-08-1.25141E-14
 -1       978 9.57809E-03-8.54320E-06-1.34840E-14
 -1       979 9.85422E-03-1.72922E-05-1.44866E-14
 -1       980 1.01323E-02-2.65728E-05-1.55196E-14
 -1       981 1.04122E-02-3.65297E-05-1.65841E-14
 -1       982 1.06934E-02-4.72262E-05-1.76895E-14
 -1       983 1.09758E-02-5.86657E-05-1.88402E-14
 -1       984 1.12591E-02-7.08101E-05-2.00441E-14
 -1       985 1.15432E-02-8.35955E-05-2.12973E-14
 -1       986 1.18277E-02-9.69449E-05-2.25932E-14
 -1       987 1.21127E-02-1.10776E-04-2.39291E-14
 -1       988 1.23979E-02-1.25011E-04-2.53020E-14
 -1       989 1.26834E-02-1.39573E-04-2.67109E-14
 -1       990 1.29689E-02-1.54396E-04-2.81625E-14
 -1       991 1.32546E-02-1.69422E-04-2.96583E-14
 -1       992 1.97331E-03-1.33999E-04-6.17863E-16
 -1       993 1.70846E-03-1.28519E-04-4.64157E-16
 -1       994 1.37231E-02-3.09744E-04-3.18232E-14
 -1       995 1.32067E-03-2.51305E-05-3.18471E-16
 -1       996 1.63975E-03 2.19839E-04-4.53210E-16
 -1       997 7.78409E-03-1.15836E-05-7.29131E-15
 -1       998 1.52381E-03-1.16909E-04-3.74683E-16
 -1       999 1.34808E-02-4.91584E-04-2.98950E-14
 -1      1000 1.32666E-03-6.37609E-05-3.07520E-16
 -1      1001 7.96160E-03-2.62507E-04-7.29491E-15
 -1      1002 2.81831E-03-3.01820E-05-1.51213E-15
 -1      1003 2.79954E-03 6.05214E-06-1.47784E-15
 -1      1004 2.95139E-03 7.63087E-05-1.57843E-15
 -1      1005 1.35948E-02-6.33207E-04-3.00296E-14
 -1      1006 7.99587E-03-6.73409E-05-7.64365E-15
 -1      1007 8.06359E-03-1.44440E-04-7.46176E-15
 -1      1008 1.55459E-03 4.94907E-05-4.45414E-16
 -1      1009 1.35701E-02-2.13412E-04-3.12748E-14
 -1      1010 1.34655E-02-4.07783E-04-3.00862E-14
 -1      1011 2.76047E-03 1.60915E-04-1.29796E-15
 -1      1012 8.07556E-03-2.18071E-04-7.55245E-15
 -1      1013 1.65128E-03 1.58922E-04-4.79949E-16
 -1      1014 1.92545E-03 1.65355E-04-6.39310E-16
 -1      1015 2.79283E-03-7.63759E-05-1.41772E-15
 -1      1016 1.34123E-02-1.91389E-04-3.04629E-14
 -1      1017 1.34962E-02-5.75055E-04-2.96917E-14
 -1      1018 1.81613E-03-8.13003E-05-5.58757E-16
 -1      1019 2.20597E-03 1.64814E-04-8.32057E-16
 -1      1020 2.32163E-03-8.71105E-05-9.21673E-16
 -1      1021 2.56080E-03-8.94665E-05-1.13807E-15
 -1      1022 8.37544E-03-2.23188E-04-8.53210E-15
 -1      1023 8.61546E-03-2.39122E-04-9.33619E-15
 -1      1024 8.86427E-03-2.56354E-04-1.01793E-14
 -1      1025 9.12025E-03-2.74619E-04-1.10615E-14
 -1      1026 9.38218E-03-2.93594E-04-1.19833E-14
 -1      1027 9.64904E-03-3.12960E-04-1.29434E-14
 -1      1028 9.91999E-03-3.32428E-04-1.39361E-14
 -1      1029 1.01943E-02-3.51770E-04-1.49573E-14
 -1      1030 1.04713E-02-3.70829E-04-1.60107E-14
 -1      1031 1.07505E-02-3.89511E-04-1.70961E-14
 -1      1032 1.10314E-02-4.07775E-04-1.82197E-14
 -1      1033 1.13136E-02-4.25617E-04-1.93864E-14
 -1      1034 1.15969E-02-4.43060E-04-2.06028E-14
 -1      1035 1.18809E-02-4.60145E-04-2.18635E-14
 -1      1036 1.21655E-02-4.76916E-04-2.31617E-14
 -1      1037 1.24505E-02-4.93422E-04-2.45053E-14
 -1      1038 1.27358E-02-5.09710E-04-2.58930E-14
 -1      1039 1.30212E-02-5.25823E-04-2.73201E-14
 -1      1040 8.67967E-03-3.83756E-05-1.01812E-14
 -1      1041 1.57419E-03 1.05598E-04-4.51072E-16
 -1      1042 2.48869E-03 1.58490E-04-1.05794E-15
 -1      1043 1.54635E-03-2.32332E-06-4.35829E-16
 -1      1044 8.17383E-03-1.91801E-05-8.54554E-15
 -1      1045 8.93895E-03-4.75961E-05-1.10580E-14
 -1      1046 9.20250E-03-5.69386E-05-1.19709E-14
 -1      1047 9.47000E-03-6.65622E-05-1.29193E-14
 -1      1048 9.74101E-03-7.65998E-05-1.39040E-14
 -1      1049 1.00151E-02-8.71499E-05-1.49208E-14
 -1      1050 1.02917E-02-9.82719E-05-1.59653E-14
 -1      1051 1.05705E-02-1.09988E-04-1.70438E-14
 -1      1052 1.08510E-02-1.22287E-04-1.81639E-14
 -1      1053 1.11329E-02-1.35136E-04-1.93346E-14
 -1      1054 1.14158E-02-1.48484E-04-2.05577E-14
 -1      1055 1.16996E-02-1.62272E-04-2.18253E-14
 -1      1056 1.19840E-02-1.76439E-04-2.31367E-14
 -1      1057 1.22689E-02-1.90924E-04-2.44892E-14
 -1      1058 1.25541E-02-2.05671E-04-2.58783E-14
 -1      1059 1.28395E-02-2.20627E-04-2.73069E-14
 -1      1060 1.31251E-02-2.35748E-04-2.87716E-14
 -1      1061 2.07245E-03-8.45042E-05-7.28157E-16
 -1      1062 3.03690E-03 1.67664E-04-1.56372E-15
 -1      1063 2.76301E-03-1.08099E-04-1.31835E-15
 -1      1064 2.81388E-03 9.06315E-05-1.41509E-15
 -1      1065 8.42476E-03-2.90113E-05-9.34438E-15
 -1      1066 1.32411E-02-5.19578E-04-2.85073E-14
 -1      1067 2.61826E-03-3.89280E-05-1.25950E-15
 -1      1068 1.79209E-03 7.93576E-05-5.80912E-16
 -1      1069 1.77347E-03 2.36803E-05-5.71242E-16
 -1      1070 2.56102E-03 9.40357E-05-1.16569E-15
 -1      1071 8.13061E-03-1.10035E-04-7.87025E-15
 -1      1072 2.57919E-03-2.61778E-06-1.22855E-15
 -1      1073 1.35522E-02-2.83253E-04-3.09581E-14
 -1      1074 1.32257E-02-4.35922E-04-2.87046E-14
 -1      1075 1.32828E-02-2.57735E-04-2.95574E-14
 -1      1076 1.35088E-02-3.45545E-04-3.05226E-14
 -1      1077 8.21471E-03-1.80940E-04-7.98900E-15
 -1      1078 1.54851E-03-4.31945E-05-4.24567E-16
 -1      1079 1.85522E-03 1.20583E-04-6.10911E-16
 -1      1080 2.12939E-03 1.18217E-04-7.97851E-16
 -1      1081 1.30059E-02-4.42333E-04-2.75189E-14
 -1      1082 8.74519E-03-1.96529E-04-9.86086E-15
 -1      1083 8.99298E-03-2.11959E-04-1.07294E-14
 -1      1084 9.24852E-03-2.28101E-04-1.16349E-14
 -1      1085 9.51032E-03-2.44793E-04-1.25772E-14
 -1      1086 9.77720E-03-2.61819E-04-1.35556E-14
 -1      1087 1.00482E-02-2.78993E-04-1.45631E-14
 -1      1088 1.03227E-02-2.96175E-04-1.56018E-14
 -1      1089 1.05998E-02-3.13268E-04-1.66715E-14
 -1      1090 1.08791E-02-3.30213E-04-1.77773E-14
 -1      1091 1.11601E-02-3.46982E-04-1.89263E-14
 -1      1092 1.14425E-02-3.63567E-04-2.01240E-14
 -1      1093 1.17258E-02-3.79976E-04-2.13697E-14
 -1      1094 1.20099E-02-3.96225E-04-2.26568E-14
 -1      1095 1.22946E-02-4.12334E-04-2.39826E-14
 -1      1096 1.25796E-02-4.28324E-04-2.53576E-14
 -1      1097 1.27927E-02-4.35366E-04-2.64301E-14
 -1      1098 8.27152E-03-7.28058E-05-8.59504E-15
 -1      1099 8.84559E-03-9.88500E-05-1.05337E-14
 -1      1100 9.62792E-03-1.32427E-04-1.33225E-14
 -1      1101 9.89802E-03-1.44692E-04-1.43221E-14
 -1      1102 1.01715E-02-1.57417E-04-1.53517E-14
 -1      1103 1.04479E-02-1.70570E-04-1.64074E-14
 -1      1104 1.07265E-02-1.84114E-04-1.75002E-14
 -1      1105 1.10070E-02-1.98010E-04-1.86394E-14
 -1      1106 1.12888E-02-2.12220E-04-1.98301E-14
 -1      1107 1.15718E-02-2.26700E-04-2.10690E-14
 -1      1108 1.18557E-02-2.41413E-04-2.23522E-14
 -1      1109 1.21401E-02-2.56319E-04-2.36779E-14
 -1      1110 1.24250E-02-2.71383E-04-2.50451E-14
 -1      1111 1.27102E-02-2.86580E-04-2.64537E-14
 -1      1112 1.29957E-02-3.01875E-04-2.78970E-14
 -1      1113 2.18042E-03-3.79695E-05-8.43990E-16
 -1      1114 9.10085E-03-1.09445E-04-1.14297E-14
 -1      1115 1.76918E-03-1.89525E-05-5.59614E-16
 -1      1116 8.59738E-03-8.91013E-05-9.67985E-15
 -1      1117 9.36193E-03-1.20661E-04-1.23583E-14
 -1      1118 8.50746E-03-1.82219E-04-9.03426E-15
 -1      1119 2.68122E-03 3.93476E-05-1.32132E-15
 -1      1120 2.34823E-03 1.06962E-04-9.72966E-16
 -1      1121 2.40554E-03-3.79020E-05-1.04120E-15
 -1      1122 2.00475E-03 5.01391E-05-7.25863E-16
 -1      1123 8.31367E-03-1.44833E-04-8.41554E-15
 -1      1124 1.31534E-02-3.23914E-04-2.86661E-14
 -1      1125 1.32690E-02-3.73820E-04-2.91317E-14
 -1      1126 2.06371E-03 8.29930E-05-7.62137E-16
 -1      1127 2.44264E-03 4.53643E-05-1.08324E-15
 -1      1128 8.45685E-03-1.29117E-04-9.00460E-15
 -1      1129 8.85776E-03-1.53230E-04-1.03904E-14
 -1      1130 9.10917E-03-1.66219E-04-1.12833E-14
 -1      1131 9.36756E-03-1.79959E-04-1.22079E-14
 -1      1132 9.63162E-03-1.94241E-04-1.31684E-14
 -1      1133 9.90030E-03-2.08919E-04-1.41646E-14
 -1      1134 1.01728E-02-2.23880E-04-1.51883E-14
 -1      1135 1.04483E-02-2.39041E-04-1.62426E-14
 -1      1136 1.07264E-02-2.54340E-04-1.73312E-14
 -1      1137 1.10064E-02-2.69733E-04-1.84632E-14
 -1      1138 1.12880E-02-2.85191E-04-1.96430E-14
 -1      1139 1.15707E-02-3.00691E-04-2.08718E-14
 -1      1140 1.18544E-02-3.16221E-04-2.21437E-14
 -1      1141 1.21387E-02-3.31771E-04-2.34591E-14
 -1      1142 1.24236E-02-3.47333E-04-2.48172E-14
 -1      1143 2.28483E-03 9.30729E-06-9.47301E-16
 -1      1144 1.28664E-02-3.67760E-04-2.70234E-14
 -1      1145 2.03325E-03 1.72641E-05-7.46832E-16
 -1      1146 2.17365E-03 4.55850E-05-8.53609E-16
 -1      1147 2.25684E-03 6.48970E-05-9.16073E-16
 -1      1148 0.00000E+00 0.00000E+00 0.00000E+00
 -1      1149 0.00000E+00 0.00000E+00 0.00000E+00
 -1      1150 0.00000E+00 0.00000E+00 0.00000E+00
 -1      1151 0.00000E+00 0.00000E+00 0.00000E+00
 -1      1152 0.00000E+00 0.00000E+00 0.00000E+00
 -1      1153 0.00000E+00 0.00000E+00 0.00000E+00
 -1      1154 0.00000E+00 0.00000E+00 0.00000E+00
 -1      1155 0.00000E+00 0.00000E+00 0.00000E+00
 -1      1156 0.00000E+00 0.00000E+00 0.00000E+00
 -1      1157 0.00000E+00 0.00000E+00 0.00000E+00
 -1      1158 0.00000E+00 0.00000E+00 0.00000E+00
 -1      1159 0.00000E+00 0.00000E+00 0.00000E+00
 -1      1160 0.00000E+00 0.00000E+00 0.00000E+00
 -1      1161 0.00000E+00 0.00000E+00 0.00000E+00
 -1      1162 0.00000E+00 0.00000E+00 0.00000E+00
 -1      1163 0.00000E+00 0.00000E+00 0.00000E+00
 -1      1164 0.00000E+00 0.00000E+00 0.00000E+00
 -1      1165 2.10155E-04-1.44426E-04 1.00018E-17
 -1      1166 5.51843E-04-3.22377E-04 2.05050E-17
 -1      1167 8.40539E-04-4.31597E-04 1.46096E-17
 -1      1168 1.12144E-03-5.01665E-04-1.10724E-17
 -1      1169 1.40292E-03-5.48535E-04-5.78693E-17
 -1      1170 1.68945E-03-5.80819E-04-1.25212E-16
 -1      1171 1.98412E-03-6.04400E-04-2.15905E-16
 -1      1172 2.28919E-03-6.24372E-04-3.29164E-16
 -1      1173 2.60624E-03-6.45926E-04-4.67522E-16
 -1      1174 2.93603E-03-6.74745E-04-6.33432E-16
 -1      1175 3.27796E-03-7.17035E-04-8.26338E-16
 -1      1176 3.62926E-03-7.78955E-04-1.04432E-15
 -1      1177 3.98416E-03-8.65037E-04-1.28447E-15
 -1      1178 4.33354E-03-9.75302E-04-1.55098E-15
 -1      1179 4.66627E-03-1.10161E-03-1.84354E-15
 -1      1180 4.97298E-03-1.22540E-03-2.16187E-15
 -1      1181 5.25168E-03-1.32041E-03-2.51649E-15
 -1      1182 5.51163E-03-1.36206E-03-2.90490E-15
 -1      1183 5.77111E-03-1.33964E-03-3.33745E-15
 -1      1184 6.04889E-03-1.26230E-03-3.82226E-15
 -1      1185 6.35531E-03-1.15400E-03-4.35489E-15
 -1      1186 6.68941E-03-1.04157E-03-4.93255E-15
 -1      1187 7.04239E-03-9.44734E-04-5.55036E-15
 -1      1188 7.40326E-03-8.72889E-04-6.21299E-15
 -1      1189 7.76287E-03-8.27075E-04-6.92030E-15
 -1      1190 8.11534E-03-8.03694E-04-7.66981E-15
 -1      1191 8.45789E-03-7.97552E-04-8.45651E-15
 -1      1192 8.78991E-03-8.03606E-04-9.27299E-15
 -1      1193 9.11206E-03-8.17695E-04-1.01396E-14
 -1      1194 9.42563E-03-8.36679E-04-1.10517E-14
 -1      1195 9.73210E-03-8.58336E-04-1.19947E-14
 -1      1196 1.00329E-02-8.81163E-04-1.29701E-14
 -1      1197 1.03293E-02-9.04198E-04-1.39796E-14
 -1      1198 1.06223E-02-9.26862E-04-1.50357E-14
 -1      1199 1.09128E-02-9.48836E-04-1.61379E-14
 -1      1200 1.12015E-02-9.69979E-04-1.72701E-14
 -1      1201 1.14890E-02-9.90264E-04-1.84327E-14
 -1      1202 1.17755E-02-1.00973E-03-1.96307E-14
 -1      1203 1.20615E-02-1.02845E-03-2.08566E-14
 -1      1204 1.23471E-02-1.04652E-03-2.21224E-14
 -1      1205 1.26326E-02-1.06405E-03-2.34317E-14
 -1      1206 1.29179E-02-1.08112E-03-2.47911E-14
 -1      1207 1.32032E-02-1.09784E-03-2.61997E-14
 -1      1208 1.34885E-02-1.11427E-03-2.76512E-14
 -1      1209 1.37739E-02-1.13050E-03-2.91490E-14
 -1      1210 1.40594E-02-1.14658E-03-3.06731E-14
 -1      1211 1.43449E-02-1.16258E-03-3.22021E-14
 -1      1212 1.46305E-02-1.17854E-03-3.37270E-14
 -1      1213 1.49162E-02-1.19450E-03-3.52545E-14
 -1      1214 1.51948E-02-1.21009E-03-3.67701E-14
 -1      1215 2.26691E-04 1.56677E-04 3.71339E-18
 -1      1216 5.54007E-04 3.27267E-04-6.72205E-18
 -1      1217 8.41395E-04 4.34560E-04-4.12810E-17
 -1      1218 1.12194E-03 5.04747E-04-1.02769E-16
 -1      1219 1.40281E-03 5.52363E-04-1.90413E-16
 -1      1220 1.68828E-03 5.85695E-04-3.04254E-16
 -1      1221 1.98107E-03 6.10537E-04-4.45092E-16
 -1      1222 2.28296E-03 6.31844E-04-6.11734E-16
 -1      1223 2.59490E-03 6.54453E-04-8.08544E-16
 -1      1224 2.91692E-03 6.83317E-04-1.03728E-15
 -1      1225 3.24764E-03 7.23364E-04-1.29985E-15
 -1      1226 3.58386E-03 7.78814E-04-1.59432E-15
 -1      1227 3.92012E-03 8.51814E-04-1.91881E-15
 -1      1228 4.24896E-03 9.40393E-04-2.27260E-15
 -1      1229 4.56238E-03 1.03640E-03-2.65844E-15
 -1      1230 4.85464E-03 1.12494E-03-3.08464E-15
 -1      1231 5.12574E-03 1.18704E-03-3.54952E-15
 -1      1232 5.38325E-03 1.20605E-03-4.05427E-15
 -1      1233 5.64044E-03 1.17486E-03-4.60267E-15
 -1      1234 5.91094E-03 1.09945E-03-5.18726E-15
 -1      1235 6.20315E-03 9.96054E-04-5.80028E-15
 -1      1236 6.51789E-03 8.83944E-04-6.44455E-15
 -1      1237 6.85003E-03 7.78857E-04-7.12748E-15
 -1      1238 7.19180E-03 6.89943E-04-7.85881E-15
 -1      1239 7.53583E-03 6.20154E-04-8.63326E-15
 -1      1240 7.87665E-03 5.68310E-04-9.44458E-15
 -1      1241 8.21107E-03 5.31225E-04-1.02920E-14
 -1      1242 8.53770E-03 5.05210E-04-1.11759E-14
 -1      1243 8.85646E-03 4.86883E-04-1.20939E-14
 -1      1244 9.16799E-03 4.73496E-04-1.30438E-14
 -1      1245 9.47329E-03 4.62978E-04-1.40243E-14
 -1      1246 9.77344E-03 4.53862E-04-1.50345E-14
 -1      1247 1.00695E-02 4.45163E-04-1.60723E-14
 -1      1248 1.03623E-02 4.36259E-04-1.71533E-14
 -1      1249 1.06528E-02 4.26793E-04-1.82956E-14
 -1      1250 1.09415E-02 4.16585E-04-1.95005E-14
 -1      1251 1.12290E-02 4.05580E-04-2.07610E-14
 -1      1252 1.15156E-02 3.93795E-04-2.20667E-14
 -1      1253 1.18016E-02 3.81294E-04-2.34087E-14
 -1      1254 1.20872E-02 3.68162E-04-2.47830E-14
 -1      1255 1.23727E-02 3.54492E-04-2.61954E-14
 -1      1256 1.26580E-02 3.40378E-04-2.76605E-14
 -1      1257 1.29433E-02 3.25906E-04-2.91616E-14
 -1      1258 1.32287E-02 3.11156E-04-3.07001E-14
 -1      1259 1.35141E-02 2.96200E-04-3.22715E-14
 -1      1260 1.37995E-02 2.81099E-04-3.38726E-14
 -1      1261 1.40851E-02 2.65911E-04-3.55000E-14
 -1      1262 1.43707E-02 2.50684E-04-3.71512E-14
 -1      1263 1.46564E-02 2.35463E-04-3.88199E-14
 -1      1264 1.49349E-02 2.20655E-04-4.04490E-14
 -1      1265 1.50781E-02 1.71308E-04-4.11496E-14
 -1      1266 1.50930E-02 8.70183E-05-4.10023E-14
 -1      1267 1.51078E-02 2.69353E-06-4.08262E-14
 -1      1268 1.51227E-02-8.16844E-05-4.06275E-14
 -1      1269 1.51376E-02-1.66120E-04-4.04390E-14
 -1      1270 1.51524E-02-2.49892E-04-4.02237E-14
 -1      1271 1.51673E-02-3.33706E-04-4.00030E-14
 -1      1272 1.51825E-02-4.18266E-04-3.97782E-14
 -1      1273 1.51978E-02-5.02841E-04-3.95651E-14
 -1      1274 1.52132E-02-5.87415E-04-3.93323E-14
 -1      1275 1.52287E-02-6.71975E-04-3.91122E-14
 -1      1276 1.52442E-02-7.55789E-04-3.89113E-14
 -1      1277 1.52597E-02-8.39561E-04-3.86870E-14
 -1      1278 1.52755E-02-9.23996E-04-3.84272E-14
 -1      1279 1.52913E-02-1.00837E-03-3.81605E-14
 -1      1280 1.53071E-02-1.09270E-03-3.79044E-14
 -1      1281 1.53228E-02-1.17627E-03-3.76564E-14
 -1      1282 7.67277E-03-2.57058E-05-4.97299E-15
 -1      1283 7.54332E-03 1.31090E-04-4.94100E-15
 -1      1284 7.31627E-03 2.85495E-04-4.84983E-15
 -1      1285 6.99696E-03 4.44083E-04-4.70415E-15
 -1      1286 6.59068E-03 5.99273E-04-4.50706E-15
 -1      1287 6.15583E-03 7.17537E-04-4.28273E-15
 -1      1288 5.69024E-03 7.87319E-04-4.02697E-15
 -1      1289 5.22602E-03 7.95851E-04-3.76720E-15
 -1      1290 4.79550E-03 7.45256E-04-3.53184E-15
 -1      1291 4.38634E-03 6.49259E-04-3.31500E-15
 -1      1292 4.00956E-03 5.21492E-04-3.12455E-15
 -1      1293 3.68539E-03 3.77621E-04-2.96491E-15
 -1      1294 3.43291E-03 2.28573E-04-2.83451E-15
 -1      1295 3.27351E-03 8.33567E-05-2.74005E-15
 -1      1296 3.21607E-03-5.82189E-05-2.68907E-15
 -1      1297 3.26619E-03-2.05526E-04-2.68331E-15
 -1      1298 3.43067E-03-3.62332E-04-2.71865E-15
 -1      1299 3.70473E-03-5.28506E-04-2.79816E-15
 -1      1300 4.05819E-03-6.90688E-04-2.92271E-15
 -1      1301 4.44697E-03-8.27711E-04-3.07745E-15
 -1      1302 4.86760E-03-9.30638E-04-3.26128E-15
 -1      1303 5.33910E-03-9.85938E-04-3.48758E-15
 -1      1304 5.80069E-03-9.77261E-04-3.72724E-15
 -1      1305 6.23238E-03-9.07563E-04-3.96525E-15
 -1      1306 6.65072E-03-7.92853E-04-4.20809E-15
 -1      1307 7.02453E-03-6.50370E-04-4.44092E-15
 -1      1308 7.33825E-03-4.92866E-04-4.65775E-15
 -1      1309 7.56727E-03-3.30326E-04-4.83218E-15
 -1      1310 7.68076E-03-1.75582E-04-4.93700E-15
 -1      1311 1.67467E-04-1.06320E-04 6.47811E-18
 -1      1312 1.14348E-04-5.21995E-05 2.84603E-19
 -1      1313 1.19245E-04-6.33752E-05 1.82959E-18
 -1      1314 1.09951E-04-3.77370E-05-2.57498E-18
 -1      1315 1.12000E-04-4.41985E-05-1.55854E-18
 -1      1316 2.30177E-04-9.72731E-05-3.59142E-18
 -1      1317 1.07697E-04-2.75293E-05-4.59431E-18
 -1      1318 1.08903E-04-3.22826E-05-3.94379E-18
 -1      1319 2.21974E-04-7.08369E-05-9.10730E-18
 -1      1320 1.06105E-04-1.96342E-05-6.16640E-18
 -1      1321 1.06951E-04-2.33834E-05-5.73272E-18
 -1      1322 2.17106E-04-5.15523E-05-1.33086E-17
 -1      1323 1.04933E-04-1.33547E-05-7.07442E-18
 -1      1324 1.05540E-04-1.63707E-05-6.80337E-18
 -1      1325 2.13647E-04-3.65784E-05-1.62630E-17
 -1      1326 1.04091E-04-8.00870E-06-7.86047E-18
 -1      1327 1.04503E-04-1.06157E-05-7.71139E-18
 -1      1328 2.11090E-04-2.43621E-05-1.82959E-17
 -1      1329 1.03626E-04-3.30482E-06-8.47033E-18
 -1      1330 1.03828E-04-5.64663E-06-8.29415E-18
 -1      1331 2.09358E-04-1.39017E-05-2.00035E-17
 -1      1332 1.03553E-04 1.14395E-06-8.91756E-18
 -1      1333 1.03542E-04-1.12088E-06-8.82270E-18
 -1      1334 2.08505E-04-4.50869E-06-2.13588E-17
 -1      1335 1.03873E-04 5.71686E-06-9.24282E-18
 -1      1336 1.03652E-04 3.34459E-06-9.08019E-18
 -1      1337 2.08551E-04 4.57459E-06-2.22261E-17
 -1      1338 1.04569E-04 1.07895E-05-9.40545E-18
 -1      1339 1.04147E-04 8.12597E-06-9.36480E-18
 -1      1340 2.09485E-04 1.40882E-05-2.28360E-17
 -1      1341 1.05602E-04 1.66330E-05-9.33769E-18
 -1      1342 1.04994E-04 1.35486E-05-9.32414E-18
 -1      1343 2.11247E-04 2.46729E-05-2.30528E-17
 -1      1344 1.07018E-04 2.38679E-05-8.97177E-18
 -1      1345 1.06176E-04 2.00330E-05-9.06664E-18
 -1      1346 2.13810E-04 3.71626E-05-2.27005E-17
 -1      1347 1.08937E-04 3.29774E-05-8.30770E-18
 -1      1348 1.07741E-04 2.81258E-05-8.53809E-18
 -1      1349 2.17273E-04 5.26087E-05-2.18196E-17
 -1      1350 1.11947E-04 4.50685E-05-7.12863E-18
 -1      1351 1.09935E-04 3.85321E-05-7.71139E-18
 -1      1352 2.22058E-04 7.23168E-05-2.00577E-17
 -1      1353 1.18521E-04 6.35591E-05-4.43168E-18
 -1      1354 1.13960E-04 5.31224E-05-5.71917E-18
 -1      1355 2.30083E-04 9.93379E-05-1.66832E-17
 -1      1356 1.57916E-04 1.06389E-04-3.38813E-19
 -1      1357 1.37140E-04 8.21369E-05-3.18484E-18
 -1      1358 2.59703E-04 1.43086E-04-1.23464E-17
 -1      1359 3.36529E-04 2.11912E-04-5.52943E-18
 -1      1360 4.24486E-04-2.49057E-04 1.18043E-17
 -1      1361 5.80227E-04-3.17723E-04 1.13164E-17
 -1      1362 7.30942E-04-3.71944E-04 6.19350E-18
 -1      1363 8.78537E-04-4.14974E-04-3.48300E-18
 -1      1364 6.21833E-04-3.07651E-04-9.48677E-20
 -1      1365 1.02398E-03-4.49967E-04-1.79435E-17
 -1      1366 1.16827E-03-4.78150E-04-3.79064E-17
 -1      1367 9.23629E-04-3.95455E-04-2.31884E-17
 -1      1368 1.31235E-03-5.01403E-04-6.27346E-17
 -1      1369 1.45679E-03-5.20338E-04-9.30652E-17
 -1      1370 1.21805E-03-4.52762E-04-6.61499E-17
 -1      1371 1.60219E-03-5.36081E-04-1.28519E-16
 -1      1372 1.74889E-03-5.49163E-04-1.69529E-16
 -1      1373 1.51110E-03-4.90728E-04-1.30009E-16
 -1      1374 1.89730E-03-5.60359E-04-2.16624E-16
 -1      1375 2.04766E-03-5.70245E-04-2.69302E-16
 -1      1376 1.80684E-03-5.16430E-04-2.15824E-16
 -1      1377 2.20024E-03-5.79495E-04-3.27727E-16
 -1      1378 2.35519E-03-5.88736E-04-3.92169E-16
 -1      1379 2.10802E-03-5.35395E-04-3.24434E-16
 -1      1380 2.51268E-03-5.98683E-04-4.63293E-16
 -1      1381 2.67279E-03-6.10018E-04-5.40773E-16
 -1      1382 2.41652E-03-5.52869E-04-4.57073E-16
 -1      1383 2.83555E-03-6.23570E-04-6.25029E-16
 -1      1384 3.00088E-03-6.40054E-04-7.15994E-16
 -1      1385 2.73349E-03-5.74441E-04-6.15271E-16
 -1      1386 3.16867E-03-6.60419E-04-8.12935E-16
 -1      1387 3.33860E-03-6.85339E-04-9.16910E-16
 -1      1388 3.05925E-03-6.06346E-04-7.99084E-16
 -1      1389 3.51030E-03-7.15765E-04-1.02698E-15
 -1      1390 3.68319E-03-7.52156E-04-1.14301E-15
 -1      1391 3.39308E-03-6.55310E-04-1.00848E-15
 -1      1392 3.85660E-03-7.95155E-04-1.26472E-15
 -1      1393 4.02963E-03-8.44673E-04-1.39168E-15
 -1      1394 3.73281E-03-7.27596E-04-1.24229E-15
 -1      1395 4.20136E-03-9.00516E-04-1.52664E-15
 -1      1396 4.37071E-03-9.61625E-04-1.66882E-15
 -1      1397 4.07448E-03-8.26732E-04-1.50200E-15
 -1      1398 4.53671E-03-1.02638E-03-1.81669E-15
 -1      1399 4.69846E-03-1.09242E-03-1.97113E-15
 -1      1400 4.41248E-03-9.49811E-04-1.78778E-15
 -1      1401 4.85536E-03-1.15654E-03-2.13307E-15
 -1      1402 5.00721E-03-1.21537E-03-2.30325E-15
 -1      1403 4.74064E-03-1.08349E-03-2.10137E-15
 -1      1404 5.15424E-03-1.26493E-03-2.48200E-15
 -1      1405 5.29738E-03-1.30201E-03-2.67004E-15
 -1      1406 5.05474E-03-1.20304E-03-2.44627E-15
 -1      1407 5.43778E-03-1.32372E-03-2.86686E-15
 -1      1408 5.57733E-03-1.32864E-03-3.07397E-15
 -1      1409 5.35580E-03-1.27855E-03-2.82627E-15
 -1      1410 5.71762E-03-1.31663E-03-3.29318E-15
 -1      1411 5.86056E-03-1.28891E-03-3.52410E-15
 -1      1412 5.65137E-03-1.28840E-03-3.24568E-15
 -1      1413 6.00740E-03-1.24819E-03-3.76722E-15
 -1      1414 6.15918E-03-1.19761E-03-4.02296E-15
 -1      1415 5.95225E-03-1.23162E-03-3.71147E-15
 -1      1416 6.31622E-03-1.14114E-03-4.29011E-15
 -1      1417 6.47842E-03-1.08224E-03-4.56956E-15
 -1      1418 6.26649E-03-1.12846E-03-4.22507E-15
 -1      1419 6.64525E-03-1.02427E-03-4.85914E-15
 -1      1420 6.81587E-03-9.69747E-04-5.15939E-15
 -1      1421 6.59578E-03-1.00891E-03-4.78430E-15
 -1      1422 6.98934E-03-9.20453E-04-5.47087E-15
 -1      1423 7.16459E-03-8.77617E-04-5.79192E-15
 -1      1424 6.93632E-03-8.98794E-04-5.38840E-15
 -1      1425 7.34069E-03-8.41581E-04-6.12447E-15
 -1      1426 7.51676E-03-8.12567E-04-6.46891E-15
 -1      1427 7.28205E-03-8.12826E-04-6.03612E-15
 -1      1428 7.69211E-03-7.90044E-04-6.82268E-15
 -1      1429 7.86615E-03-7.73681E-04-7.18779E-15
 -1      1430 7.62737E-03-7.55100E-04-6.72514E-15
 -1      1431 8.03850E-03-7.62627E-04-7.56423E-15
 -1      1432 8.20884E-03-7.56337E-04-7.94853E-15
 -1      1433 7.96824E-03-7.23065E-04-7.45614E-15
 -1      1434 8.37704E-03-7.53982E-04-8.34158E-15
 -1      1435 8.54300E-03-7.54995E-04-8.74381E-15
 -1      1436 8.30240E-03-7.11381E-04-8.22743E-15
 -1      1437 8.70675E-03-7.58714E-04-9.15578E-15
 -1      1438 8.86833E-03-7.64640E-04-9.57748E-15
 -1      1439 8.62897E-03-7.14368E-04-9.03482E-15
 -1      1440 9.02785E-03-7.72299E-04-1.00107E-14
 -1      1441 9.18542E-03-7.81289E-04-1.04577E-14
 -1      1442 8.94802E-03-7.27147E-04-9.88334E-15
 -1      1443 9.34120E-03-7.91300E-04-1.09133E-14
 -1      1444 9.49533E-03-8.02024E-04-1.13769E-14
 -1      1445 9.26021E-03-7.45964E-04-1.07731E-14
 -1      1446 9.64797E-03-8.13272E-04-1.18502E-14
 -1      1447 9.79925E-03-8.24822E-04-1.23316E-14
 -1      1448 9.56644E-03-7.68132E-04-1.17041E-14
 -1      1449 9.94934E-03-8.36567E-04-1.28220E-14
 -1      1450 1.00983E-02-8.48350E-04-1.33177E-14
 -1      1451 9.86770E-03-7.91827E-04-1.26695E-14
 -1      1452 1.02464E-02-8.60122E-04-1.38248E-14
 -1      1453 1.03936E-02-8.71777E-04-1.43417E-14
 -1      1454 1.01649E-02-8.15874E-04-1.36684E-14
 -1      1455 1.05402E-02-8.83300E-04-1.48695E-14
 -1      1456 1.06860E-02-8.94622E-04-1.54090E-14
 -1      1457 1.04590E-02-8.39562E-04-1.47028E-14
 -1      1458 1.08314E-02-9.05750E-04-1.59580E-14
 -1      1459 1.09762E-02-9.16641E-04-1.65168E-14
 -1      1460 1.07506E-02-8.62496E-04-1.57802E-14
 -1      1461 1.11207E-02-9.27314E-04-1.70824E-14
 -1      1462 1.12649E-02-9.37745E-04-1.76555E-14
 -1      1463 1.10403E-02-8.84497E-04-1.68945E-14
 -1      1464 1.14087E-02-9.47957E-04-1.82362E-14
 -1      1465 1.15523E-02-9.57942E-04-1.88285E-14
 -1      1466 1.13287E-02-9.05520E-04-1.80420E-14
 -1      1467 1.16957E-02-9.67721E-04-1.94279E-14
 -1      1468 1.18390E-02-9.77295E-04-2.00358E-14
 -1      1469 1.16161E-02-9.25603E-04-1.92239E-14
 -1      1470 1.19821E-02-9.86686E-04-2.06507E-14
 -1      1471 1.21251E-02-9.95898E-04-2.12725E-14
 -1      1472 1.19028E-02-9.44831E-04-2.04410E-14
 -1      1473 1.22680E-02-1.00495E-03-2.19084E-14
 -1      1474 1.24109E-02-1.01386E-03-2.25538E-14
 -1      1475 1.21889E-02-9.63311E-04-2.16934E-14
 -1      1476 1.25537E-02-1.02263E-03-2.32077E-14
 -1      1477 1.26965E-02-1.03128E-03-2.38743E-14
 -1      1478 1.24748E-02-9.81155E-04-2.29836E-14
 -1      1479 1.28392E-02-1.03982E-03-2.45554E-14
 -1      1480 1.29819E-02-1.04826E-03-2.52496E-14
 -1      1481 1.27605E-02-9.98473E-04-2.43207E-14
 -1      1482 1.31247E-02-1.05662E-03-2.59548E-14
 -1      1483 1.32674E-02-1.06490E-03-2.66693E-14
 -1      1484 1.30461E-02-1.01537E-03-2.57074E-14
 -1      1485 1.34101E-02-1.07312E-03-2.73948E-14
 -1      1486 1.35528E-02-1.08127E-03-2.81315E-14
 -1      1487 1.33316E-02-1.03193E-03-2.71387E-14
 -1      1488 1.36956E-02-1.08938E-03-2.88787E-14
 -1      1489 1.38383E-02-1.09745E-03-2.96368E-14
 -1      1490 1.36171E-02-1.04825E-03-2.86123E-14
 -1      1491 1.39810E-02-1.10549E-03-3.03980E-14
 -1      1492 1.41238E-02-1.11350E-03-3.11577E-14
 -1      1493 1.39027E-02-1.06438E-03-3.01213E-14
 -1      1494 1.42666E-02-1.12149E-03-3.19209E-14
 -1      1495 1.44094E-02-1.12947E-03-3.26897E-14
 -1      1496 1.41882E-02-1.08040E-03-3.16468E-14
 -1      1497 1.45522E-02-1.13744E-03-3.34565E-14
 -1      1498 1.46950E-02-1.14542E-03-3.42200E-14
 -1      1499 1.44739E-02-1.09635E-03-3.31793E-14
 -1      1500 1.48379E-02-1.15339E-03-3.49873E-14
 -1      1501 1.49807E-02-1.16138E-03-3.57589E-14
 -1      1502 1.47595E-02-1.11229E-03-3.47169E-14
 -1      1503 1.51870E-02-1.16866E-03-3.69040E-14
 -1      1504 1.51087E-02-1.12755E-03-3.66291E-14
 -1      1505 6.49354E-04 3.51027E-04-2.72948E-17
 -1      1506 4.96370E-04 2.88835E-04-1.29698E-17
 -1      1507 4.50212E-04 2.50964E-04-1.82688E-17
 -1      1508 9.43436E-04 4.39067E-04-7.62194E-17
 -1      1509 7.97860E-04 3.99444E-04-4.85452E-17
 -1      1510 7.56715E-04 3.63308E-04-5.43456E-17
 -1      1511 1.23071E-03 4.97582E-04-1.50636E-16
 -1      1512 1.08734E-03 4.71182E-04-1.10141E-16
 -1      1513 1.05252E-03 4.36847E-04-1.16213E-16
 -1      1514 1.51802E-03 5.37494E-04-2.50979E-16
 -1      1515 1.37400E-03 5.19407E-04-1.97569E-16
 -1      1516 1.34383E-03 4.85973E-04-2.03559E-16
 -1      1517 1.80940E-03 5.65651E-04-3.77655E-16
 -1      1518 1.66298E-03 5.52699E-04-3.10827E-16
 -1      1519 1.63567E-03 5.19467E-04-3.16411E-16
 -1      1520 2.10731E-03 5.87404E-04-5.30405E-16
 -1      1521 1.95740E-03 5.77016E-04-4.50649E-16
 -1      1522 1.93133E-03 5.43459E-04-4.55338E-16
 -1      1523 2.41323E-03 6.07678E-04-7.11047E-16
 -1      1524 2.25919E-03 5.97419E-04-6.17223E-16
 -1      1525 2.23286E-03 5.63125E-04-6.21248E-16
 -1      1526 2.72774E-03 6.31449E-04-9.22832E-16
 -1      1527 2.56939E-03 6.18826E-04-8.12867E-16
 -1      1528 2.54141E-03 5.83470E-04-8.16364E-16
 -1      1529 3.05041E-03 6.63835E-04-1.16601E-15
 -1      1530 2.88811E-03 6.46296E-04-1.04036E-15
 -1      1531 2.85726E-03 6.09646E-04-1.04147E-15
 -1      1532 3.37943E-03 7.09747E-04-1.44179E-15
 -1      1533 3.21428E-03 6.84918E-04-1.30001E-15
 -1      1534 3.17974E-03 6.46880E-04-1.29858E-15
 -1      1535 3.71136E-03 7.72921E-04-1.74811E-15
 -1      1536 3.54530E-03 7.39174E-04-1.59074E-15
 -1      1537 3.50692E-03 6.99883E-04-1.58669E-15
 -1      1538 4.04107E-03 8.54164E-04-2.08446E-15
 -1      1539 3.87688E-03 8.11580E-04-1.91274E-15
 -1      1540 3.83554E-03 7.71507E-04-1.90527E-15
 -1      1541 4.36240E-03 9.49052E-04-2.45228E-15
 -1      1542 4.20321E-03 9.00592E-04-2.26411E-15
 -1      1543 4.16107E-03 8.60632E-04-2.25440E-15
 -1      1544 4.66975E-03 1.04611E-03-2.85400E-15
 -1      1545 4.51814E-03 9.98372E-04-2.64831E-15
 -1      1546 4.47854E-03 9.59775E-04-2.63575E-15
 -1      1547 4.96055E-03 1.12744E-03-3.29577E-15
 -1      1548 4.81723E-03 1.08994E-03-3.07009E-15
 -1      1549 4.78411E-03 1.05398E-03-3.05464E-15
 -1      1550 5.23745E-03 1.17325E-03-3.77796E-15
 -1      1551 5.10035E-03 1.15568E-03-3.53190E-15
 -1      1552 5.07718E-03 1.12310E-03-3.51231E-15
 -1      1553 5.50844E-03 1.16974E-03-4.30042E-15
 -1      1554 5.37300E-03 1.17784E-03-4.03395E-15
 -1      1555 5.36171E-03 1.14835E-03-4.01153E-15
 -1      1556 5.78416E-03 1.11559E-03-4.86318E-15
 -1      1557 5.64501E-03 1.14833E-03-4.57723E-15
 -1      1558 5.64539E-03 1.12064E-03-4.55141E-15
 -1      1559 6.07346E-03 1.02273E-03-5.46008E-15
 -1      1560 5.92668E-03 1.07278E-03-5.15769E-15
 -1      1561 5.93649E-03 1.04525E-03-5.12825E-15
 -1      1562 6.38016E-03 9.10654E-04-6.08671E-15
 -1      1563 6.22459E-03 9.67834E-04-5.76901E-15
 -1      1564 6.24024E-03 9.39159E-04-5.73746E-15
 -1      1565 6.70268E-03 7.98322E-04-6.75058E-15
 -1      1566 6.53970E-03 8.53600E-04-6.41392E-15
 -1      1567 6.55730E-03 8.23204E-04-6.38172E-15
 -1      1568 7.03593E-03 6.98885E-04-7.45396E-15
 -1      1569 6.86836E-03 7.46536E-04-7.09720E-15
 -1      1570 6.88464E-03 7.14479E-04-7.06337E-15
 -1      1571 7.37387E-03 6.18406E-04-8.20237E-15
 -1      1572 7.20470E-03 6.56198E-04-7.82389E-15
 -1      1573 7.21755E-03 6.22904E-04-7.78667E-15
 -1      1574 7.71124E-03 5.57448E-04-8.99404E-15
 -1      1575 7.54292E-03 5.85633E-04-8.59275E-15
 -1      1576 7.55138E-03 5.51622E-04-8.55164E-15
 -1      1577 8.04442E-03 5.13451E-04-9.81707E-15
 -1      1578 7.87854E-03 5.33567E-04-9.40048E-15
 -1      1579 7.88259E-03 4.99301E-04-9.35490E-15
 -1      1580 8.37142E-03 4.82667E-04-1.06823E-14
 -1      1581 8.20878E-03 4.96651E-04-1.02452E-14
 -1      1582 8.20895E-03 4.62475E-04-1.01971E-14
 -1      1583 8.69151E-03 4.61355E-04-1.15773E-14
 -1      1584 8.53234E-03 4.71038E-04-1.11258E-14
 -1      1585 8.52939E-03 4.37170E-04-1.10746E-14
 -1      1586 9.00488E-03 4.46327E-04-1.25110E-14
 -1      1587 8.84901E-03 4.53222E-04-1.20397E-14
 -1      1588 8.84373E-03 4.19773E-04-1.19858E-14
 -1      1589 9.31217E-03 4.35115E-04-1.34727E-14
 -1      1590 9.15924E-03 4.40367E-04-1.29886E-14
 -1      1591 9.15233E-03 4.07377E-04-1.29306E-14
 -1      1592 9.61427E-03 4.25926E-04-1.44670E-14
 -1      1593 9.46381E-03 4.30353E-04-1.39663E-14
 -1      1594 9.45585E-03 3.97810E-04-1.39082E-14
 -1      1595 9.91208E-03 4.17531E-04-1.54925E-14
 -1      1596 9.76365E-03 4.21685E-04-1.49751E-14
 -1      1597 9.75506E-03 3.89549E-04-1.49157E-14
 -1      1598 1.02065E-02 4.09136E-04-1.65498E-14
 -1      1599 1.00597E-02 4.13368E-04-1.60163E-14
 -1      1600 1.00508E-02 3.81586E-04-1.59566E-14
 -1      1601 1.04983E-02 4.00265E-04-1.76615E-14
 -1      1602 1.03527E-02 4.04780E-04-1.70981E-14
 -1      1603 1.03437E-02 3.73294E-04-1.70396E-14
 -1      1604 1.07880E-02 3.90665E-04-1.88310E-14
 -1      1605 1.06434E-02 3.95565E-04-1.82388E-14
 -1      1606 1.06344E-02 3.64322E-04-1.81771E-14
 -1      1607 1.10763E-02 3.80234E-04-2.00560E-14
 -1      1608 1.09323E-02 3.85556E-04-1.94362E-14
 -1      1609 1.09235E-02 3.54505E-04-1.93701E-14
 -1      1610 1.13636E-02 3.68965E-04-2.13319E-14
 -1      1611 1.12201E-02 3.74702E-04-2.06886E-14
 -1      1612 1.12114E-02 3.43801E-04-2.06153E-14
 -1      1613 1.16501E-02 3.56910E-04-2.26503E-14
 -1      1614 1.15069E-02 3.63031E-04-2.19868E-14
 -1      1615 1.14984E-02 3.32244E-04-2.19068E-14
 -1      1616 1.19361E-02 3.44152E-04-2.40019E-14
 -1      1617 1.17932E-02 3.50613E-04-2.33218E-14
 -1      1618 1.17848E-02 3.19911E-04-2.32331E-14
 -1      1619 1.22218E-02 3.30788E-04-2.53909E-14
 -1      1620 1.20790E-02 3.37540E-04-2.46922E-14
 -1      1621 1.20708E-02 3.06899E-04-2.45997E-14
 -1      1622 1.25074E-02 3.16918E-04-2.68258E-14
 -1      1623 1.23646E-02 3.23910E-04-2.61024E-14
 -1      1624 1.23566E-02 2.93313E-04-2.60061E-14
 -1      1625 1.27928E-02 3.02635E-04-2.83018E-14
 -1      1626 1.26501E-02 3.09822E-04-2.75583E-14
 -1      1627 1.26422E-02 2.79254E-04-2.74575E-14
 -1      1628 1.30782E-02 2.88026E-04-2.98202E-14
 -1      1629 1.29355E-02 2.95366E-04-2.90552E-14
 -1      1630 1.29277E-02 2.64817E-04-2.89490E-14
 -1      1631 1.33637E-02 2.73170E-04-3.13706E-14
 -1      1632 1.32209E-02 2.80625E-04-3.05919E-14
 -1      1633 1.32132E-02 2.50086E-04-3.04812E-14
 -1      1634 1.36491E-02 2.58134E-04-3.29546E-14
 -1      1635 1.35064E-02 2.65671E-04-3.21589E-14
 -1      1636 1.34987E-02 2.35136E-04-3.20447E-14
 -1      1637 1.39347E-02 2.42980E-04-3.45626E-14
 -1      1638 1.37919E-02 2.50568E-04-3.37556E-14
 -1      1639 1.37843E-02 2.20034E-04-3.36368E-14
 -1      1640 1.42203E-02 2.27760E-04-3.61999E-14
 -1      1641 1.40775E-02 2.35375E-04-3.53786E-14
 -1      1642 1.40698E-02 2.04838E-04-3.52562E-14
 -1      1643 1.45059E-02 2.12525E-04-3.78535E-14
 -1      1644 1.43631E-02 2.20142E-04-3.70241E-14
 -1      1645 1.43555E-02 1.89600E-04-3.68966E-14
 -1      1646 1.47916E-02 1.97313E-04-3.95191E-14
 -1      1647 1.46488E-02 2.04915E-04-3.86861E-14
 -1      1648 1.46411E-02 1.74366E-04-3.85527E-14
 -1      1649 1.49424E-02 1.78511E-04-4.03646E-14
 -1      1650 1.49730E-02 7.24985E-05-4.02370E-14
 -1      1651 1.49656E-02 1.14654E-04-4.03156E-14
 -1      1652 1.49878E-02-1.18393E-05-4.00598E-14
 -1      1653 1.49804E-02 3.03346E-05-4.01528E-14
 -1      1654 1.48530E-02 5.79900E-05-3.94717E-14
 -1      1655 1.50027E-02-9.62203E-05-3.98697E-14
 -1      1656 1.49953E-02-5.40242E-05-3.99647E-14
 -1      1657 1.48678E-02-2.63523E-05-3.92988E-14
 -1      1658 1.50176E-02-1.80646E-04-3.96807E-14
 -1      1659 1.50101E-02-1.38428E-04-3.97776E-14
 -1      1660 1.48827E-02-1.10730E-04-3.91162E-14
 -1      1661 1.50323E-02-2.63680E-04-3.94727E-14
 -1      1662 1.50249E-02-2.22159E-04-3.95784E-14
 -1      1663 1.48975E-02-1.94427E-04-3.89267E-14
 -1      1664 1.50474E-02-3.48177E-04-3.92568E-14
 -1      1665 1.50398E-02-3.05925E-04-3.93651E-14
 -1      1666 1.49123E-02-2.78153E-04-3.87242E-14
 -1      1667 1.50626E-02-4.32694E-04-3.90395E-14
 -1      1668 1.50549E-02-3.90434E-04-3.91469E-14
 -1      1669 1.49274E-02-3.62618E-04-3.85111E-14
 -1      1670 1.50779E-02-5.17221E-04-3.88274E-14
 -1      1671 1.50702E-02-4.74957E-04-3.89353E-14
 -1      1672 1.49426E-02-4.47096E-04-3.83015E-14
 -1      1673 1.50933E-02-6.01745E-04-3.85990E-14
 -1      1674 1.50856E-02-5.59484E-04-3.87141E-14
 -1      1675 1.49580E-02-5.31579E-04-3.80888E-14
 -1      1676 1.51088E-02-6.86253E-04-3.83853E-14
 -1      1677 1.51010E-02-6.44002E-04-3.84882E-14
 -1      1678 1.49734E-02-6.16058E-04-3.78677E-14
 -1      1679 1.51242E-02-7.69304E-04-3.81688E-14
 -1      1680 1.51165E-02-7.27782E-04-3.82824E-14
 -1      1681 1.49889E-02-6.99806E-04-3.76503E-14
 -1      1682 1.51399E-02-8.53750E-04-3.79367E-14
 -1      1683 1.51321E-02-8.11532E-04-3.80551E-14
 -1      1684 1.50044E-02-7.83533E-04-3.74284E-14
 -1      1685 1.51557E-02-9.38154E-04-3.76795E-14
 -1      1686 1.51478E-02-8.95958E-04-3.78121E-14
 -1      1687 1.50202E-02-8.67945E-04-3.71898E-14
 -1      1688 1.51715E-02-1.02251E-03-3.74199E-14
 -1      1689 1.51636E-02-9.80338E-04-3.75503E-14
 -1      1690 1.50360E-02-9.52323E-04-3.69380E-14
 -1      1691 1.51441E-02-1.09611E-03-3.69618E-14
 -1      1692 1.51362E-02-1.05396E-03-3.70890E-14
 -1      1693 1.50085E-02-1.02595E-03-3.64793E-14
 -1      1694 1.49377E-02-1.08884E-03-3.58193E-14
 -1      1695 7.66338E-03-3.04529E-05-5.10358E-15
 -1      1696 7.70168E-03-7.75424E-05-5.10163E-15
 -1      1697 7.47355E-03 8.71538E-05-5.06162E-15
 -1      1698 7.57830E-03 2.86451E-05-5.09393E-15
 -1      1699 7.19613E-03 2.37335E-04-4.93420E-15
 -1      1700 7.33237E-03 1.69989E-04-4.99103E-15
 -1      1701 6.80729E-03 4.13327E-04-4.76858E-15
 -1      1702 6.99735E-03 3.21975E-04-4.86058E-15
 -1      1703 6.39500E-03 6.09804E-04-4.52698E-15
 -1      1704 6.59011E-03 5.24542E-04-4.63540E-15
 -1      1705 5.97572E-03 7.60250E-04-4.28048E-15
 -1      1706 6.15996E-03 6.96458E-04-4.39991E-15
 -1      1707 5.55577E-03 8.48593E-04-3.98878E-15
 -1      1708 5.74514E-03 8.19853E-04-4.12791E-15
 -1      1709 5.16559E-03 8.29450E-04-3.70971E-15
 -1      1710 5.33964E-03 8.47013E-04-3.83024E-15
 -1      1711 4.78314E-03 7.36934E-04-3.45874E-15
 -1      1712 4.95896E-03 7.88379E-04-3.57136E-15
 -1      1713 4.39830E-03 5.90342E-04-3.23221E-15
 -1      1714 4.57498E-03 6.62973E-04-3.33295E-15
 -1      1715 4.01963E-03 4.20352E-04-3.03592E-15
 -1      1716 4.19192E-03 5.00018E-04-3.12185E-15
 -1      1717 3.67549E-03 2.62859E-04-2.87839E-15
 -1      1718 3.82529E-03 3.35085E-04-2.94828E-15
 -1      1719 3.40453E-03 1.24074E-04-2.75130E-15
 -1      1720 3.51963E-03 1.85188E-04-2.80627E-15
 -1      1721 3.24253E-03 1.42218E-05-2.66514E-15
 -1      1722 3.30270E-03 6.12180E-05-2.69943E-15
 -1      1723 3.20054E-03-8.20747E-05-2.61865E-15
 -1      1724 3.20395E-03-3.93355E-05-2.63228E-15
 -1      1725 3.29324E-03-1.84426E-04-2.62107E-15
 -1      1726 3.23317E-03-1.35455E-04-2.61452E-15
 -1      1727 3.52211E-03-3.10682E-04-2.66232E-15
 -1      1728 3.40112E-03-2.46964E-04-2.63650E-15
 -1      1729 3.86688E-03-4.76334E-04-2.75261E-15
 -1      1730 3.69843E-03-3.93657E-04-2.70287E-15
 -1      1731 4.24475E-03-6.76006E-04-2.90356E-15
 -1      1732 4.06208E-03-5.89389E-04-2.83466E-15
 -1      1733 4.63348E-03-8.45166E-04-3.07024E-15
 -1      1734 4.45636E-03-7.70455E-04-2.99012E-15
 -1      1735 5.03764E-03-9.79571E-04-3.27014E-15
 -1      1736 4.85547E-03-9.23103E-04-3.17023E-15
 -1      1737 5.45777E-03-1.04544E-03-3.52374E-15
 -1      1738 5.26656E-03-1.02881E-03-3.40017E-15
 -1      1739 5.84718E-03-1.00021E-03-3.78200E-15
 -1      1740 5.67581E-03-1.02792E-03-3.66829E-15
 -1      1741 6.22475E-03-8.83963E-04-4.05535E-15
 -1      1742 6.04387E-03-9.49282E-04-3.92885E-15
 -1      1743 6.63410E-03-7.15307E-04-4.32087E-15
 -1      1744 6.45263E-03-7.96897E-04-4.20088E-15
 -1      1745 7.02595E-03-5.42070E-04-4.56656E-15
 -1      1746 6.85405E-03-6.24352E-04-4.45244E-15
 -1      1747 7.36038E-03-3.77000E-04-4.79518E-15
 -1      1748 7.21379E-03-4.50744E-04-4.69446E-15
 -1      1749 7.60192E-03-2.32913E-04-4.98499E-15
 -1      1750 7.50282E-03-2.91179E-04-4.91211E-15
 -1      1751 7.70555E-03-1.31029E-04-5.06976E-15
 -1      1752 7.67641E-03-1.77125E-04-5.03379E-15
 -1      1753 6.63974E-03 4.31054E-04-4.79411E-15
 -1      1754 7.04366E-03 2.28822E-04-5.00562E-15
 -1      1755 1.49348E-02 1.47958E-04-4.02304E-14
 -1      1756 1.48148E-02 1.33457E-04-3.94694E-14
 -1      1757 7.62148E-03-3.42158E-05-5.23166E-15
 -1      1758 7.38562E-03 7.26720E-05-5.15142E-15
 -1      1759 7.71354E-03-1.05498E-04-5.20744E-15
 -1      1760 6.21580E-03 6.43181E-04-4.52855E-15
 -1      1761 5.81388E-03 8.07437E-04-4.24378E-15
 -1      1762 5.45353E-03 8.75321E-04-3.92934E-15
 -1      1763 5.09552E-03 8.27748E-04-3.63248E-15
 -1      1764 4.73587E-03 6.97203E-04-3.36992E-15
 -1      1765 4.35760E-03 5.16271E-04-3.13710E-15
 -1      1766 3.97495E-03 3.30210E-04-2.94336E-15
 -1      1767 3.62614E-03 1.71359E-04-2.78793E-15
 -1      1768 3.36182E-03 5.24065E-05-2.66857E-15
 -1      1769 3.21553E-03-2.98316E-05-2.58714E-15
 -1      1770 3.20864E-03-9.40488E-05-2.55090E-15
 -1      1771 3.35400E-03-1.73251E-04-2.56055E-15
 -1      1772 3.64338E-03-2.94590E-04-2.61311E-15
 -1      1773 4.01622E-03-4.80457E-04-2.73027E-15
 -1      1774 4.41206E-03-6.94091E-04-2.89496E-15
 -1      1775 4.80769E-03-8.83246E-04-3.07721E-15
 -1      1776 5.19167E-03-1.02647E-03-3.30313E-15
 -1      1777 5.54846E-03-1.06445E-03-3.57605E-15
 -1      1778 5.91143E-03-9.88844E-04-3.86803E-15
 -1      1779 6.27378E-03-8.30205E-04-4.16396E-15
 -1      1780 6.68184E-03-6.33688E-04-4.44607E-15
 -1      1781 7.07793E-03-4.45170E-04-4.70828E-15
 -1      1782 7.41418E-03-2.82718E-04-4.95574E-15
 -1      1783 7.64019E-03-1.77788E-04-5.12491E-15
 -1      1784 2.88340E-04-1.67223E-04 6.45100E-18
 -1      1785 3.35984E-04-9.95290E-05-1.64799E-17
 -1      1786 3.41292E-04-1.16093E-04-1.29156E-17
 -1      1787 3.48073E-04-1.35724E-04-9.09375E-18
 -1      1788 3.58005E-04-1.58675E-04-4.28260E-18
 -1      1789 4.65909E-04-1.65905E-04-1.85805E-17
 -1      1790 3.22572E-04-5.08647E-05-2.58718E-17
 -1      1791 3.25150E-04-6.08948E-05-2.41506E-17
 -1      1792 3.18508E-04-3.29769E-05-2.88669E-17
 -1      1793 3.20363E-04-4.15047E-05-2.74168E-17
 -1      1794 4.32202E-04-6.16818E-05-3.98851E-17
 -1      1795 3.15933E-04-1.75386E-05-3.11844E-17
 -1      1796 3.17038E-04-2.50063E-05-3.00188E-17
 -1      1797 4.26756E-04-3.87875E-05-4.37340E-17
 -1      1798 3.14875E-04-3.38041E-06-3.29191E-17
 -1      1799 3.15214E-04-1.03531E-05-3.21059E-17
 -1      1800 4.23526E-04-1.86553E-05-4.67698E-17
 -1      1801 3.15350E-04 1.05996E-05-3.40982E-17
 -1      1802 3.14921E-04 3.57977E-06-3.35832E-17
 -1      1803 4.22548E-04 1.96657E-07-4.89924E-17
 -1      1804 3.17325E-04 2.54790E-05-3.50468E-17
 -1      1805 3.16151E-04 1.78775E-05-3.46674E-17
 -1      1806 4.23823E-04 1.91771E-05-5.07813E-17
 -1      1807 3.20671E-04 4.20403E-05-3.51553E-17
 -1      1808 3.18819E-04 3.34768E-05-3.51959E-17
 -1      1809 4.27249E-04 3.94896E-05-5.16758E-17
 -1      1810 3.25509E-04 6.20310E-05-3.46132E-17
 -1      1811 3.22889E-04 5.15987E-05-3.49791E-17
 -1      1812 4.32760E-04 6.26854E-05-5.17707E-17
 -1      1813 3.32073E-04 8.67134E-05-3.30953E-17
 -1      1814 3.28520E-04 7.37405E-05-3.40168E-17
 -1      1815 4.40516E-04 9.05896E-05-5.08491E-17
 -1      1816 3.41519E-04 1.18542E-04-3.01408E-17
 -1      1817 3.36253E-04 1.01662E-04-3.18620E-17
 -1      1818 4.51069E-04 1.25136E-04-4.83825E-17
 -1      1819 3.58396E-04 1.62642E-04-2.41371E-17
 -1      1820 3.48570E-04 1.38851E-04-2.75387E-17
 -1      1821 4.66804E-04 1.69782E-04-4.33952E-17
 -1      1822 4.13720E-04 2.18864E-04-2.06676E-17
 -1      1823 3.84421E-04 1.87619E-04-2.30800E-17
 -1      1824 5.04847E-04 2.22968E-04-3.86247E-17
 -1      1825 5.67599E-04 2.81357E-04-3.53450E-17
 -1      1826 3.45525E-04-1.77940E-04 2.14130E-18
 -1      1827 8.70364E-04 3.73461E-04-8.50828E-17
 -1      1828 7.19759E-04 3.31927E-04-5.71646E-17
 -1      1829 6.86033E-04 3.01361E-04-5.91432E-17
 -1      1830 4.67261E-04-2.17636E-04-4.18773E-18
 -1      1831 8.23858E-04-3.40000E-04-2.66578E-17
 -1      1832 9.73788E-04-3.74752E-04-4.48453E-17
 -1      1833 1.12201E-03-4.03205E-04-6.80472E-17
 -1      1834 1.26989E-03-4.26116E-04-9.62907E-17
 -1      1835 1.02642E-03-3.53176E-04-6.82099E-17
 -1      1836 1.41738E-03-4.44945E-04-1.29820E-16
 -1      1837 1.56520E-03-4.60102E-04-1.68702E-16
 -1      1838 1.32273E-03-3.98923E-04-1.28139E-16
 -1      1839 1.71352E-03-4.72650E-04-2.13507E-16
 -1      1840 1.86277E-03-4.83008E-04-2.63868E-16
 -1      1841 1.61880E-03-4.29070E-04-2.09468E-16
 -1      1842 2.01312E-03-4.92042E-04-3.19447E-16
 -1      1843 2.16486E-03-5.00221E-04-3.81165E-16
 -1      1844 1.91681E-03-4.49382E-04-3.13253E-16
 -1      1845 2.31812E-03-5.08375E-04-4.49551E-16
 -1      1846 2.47309E-03-5.17047E-04-5.23615E-16
 -1      1847 2.21855E-03-4.65089E-04-4.40335E-16
 -1      1848 2.62990E-03-5.27124E-04-6.03697E-16
 -1      1849 2.78857E-03-5.39241E-04-6.90393E-16
 -1      1850 2.52553E-03-4.81509E-04-5.91297E-16
 -1      1851 2.94930E-03-5.54374E-04-7.83783E-16
 -1      1852 3.11184E-03-5.73248E-04-8.83164E-16
 -1      1853 2.83898E-03-5.04502E-04-7.67195E-16
 -1      1854 3.27653E-03-5.96857E-04-9.89023E-16
 -1      1855 3.44273E-03-6.25947E-04-1.10102E-15
 -1      1856 3.15992E-03-5.40648E-04-9.68708E-16
 -1      1857 3.61094E-03-6.61319E-04-1.21925E-15
 -1      1858 3.77997E-03-7.03527E-04-1.34380E-15
 -1      1859 3.48900E-03-5.96941E-04-1.19463E-15
 -1      1860 3.95050E-03-7.52771E-04-1.47485E-15
 -1      1861 4.12076E-03-8.08932E-04-1.61286E-15
 -1      1862 3.82603E-03-6.79562E-04-1.44687E-15
 -1      1863 4.29140E-03-8.71060E-04-1.75721E-15
 -1      1864 4.46040E-03-9.37745E-04-1.90920E-15
 -1      1865 4.16907E-03-7.91031E-04-1.72539E-15
 -1      1866 4.62807E-03-1.00644E-03-2.06850E-15
 -1      1867 4.79294E-03-1.07397E-03-2.23481E-15
 -1      1868 4.51340E-03-9.25591E-04-2.03296E-15
 -1      1869 4.95469E-03-1.13647E-03-2.40899E-15
 -1      1870 5.11370E-03-1.18961E-03-2.59134E-15
 -1      1871 4.85194E-03-1.06436E-03-2.36966E-15
 -1      1872 5.26904E-03-1.22956E-03-2.78316E-15
 -1      1873 5.42353E-03-1.25289E-03-2.98500E-15
 -1      1874 5.17891E-03-1.17525E-03-2.73874E-15
 -1      1875 5.57590E-03-1.25790E-03-3.19621E-15
 -1      1876 5.73032E-03-1.24444E-03-3.41842E-15
 -1      1877 5.49580E-03-1.22420E-03-3.14493E-15
 -1      1878 5.88549E-03-1.21397E-03-3.65522E-15
 -1      1879 6.04445E-03-1.16967E-03-3.90096E-15
 -1      1880 5.81243E-03-1.19529E-03-3.59473E-15
 -1      1881 6.20620E-03-1.11529E-03-4.15874E-15
 -1      1882 6.37137E-03-1.05522E-03-4.42917E-15
 -1      1883 6.13905E-03-1.10210E-03-4.09301E-15
 -1      1884 6.53957E-03-9.93413E-04-4.70999E-15
 -1      1885 6.70947E-03-9.33251E-04-5.00222E-15
 -1      1886 6.47799E-03-9.78002E-04-4.63518E-15
 -1      1887 6.88133E-03-8.77442E-04-5.30548E-15
 -1      1888 7.05313E-03-8.27582E-04-5.61991E-15
 -1      1889 6.82398E-03-8.56170E-04-5.22205E-15
 -1      1890 7.22550E-03-7.84815E-04-5.94501E-15
 -1      1891 7.39668E-03-7.49358E-04-6.28006E-15
 -1      1892 7.16985E-03-7.57113E-04-5.85255E-15
 -1      1893 7.56731E-03-7.21174E-04-6.62601E-15
 -1      1894 7.73620E-03-6.99803E-04-6.98222E-15
 -1      1895 7.51063E-03-6.87891E-04-6.52710E-15
 -1      1896 7.90385E-03-6.84582E-04-7.34880E-15
 -1      1897 8.06959E-03-6.74849E-04-7.72628E-15
 -1      1898 7.84420E-03-6.46974E-04-7.24189E-15
 -1      1899 8.23373E-03-6.69756E-04-8.11273E-15
 -1      1900 8.39603E-03-6.68671E-04-8.50699E-15
 -1      1901 8.17023E-03-6.29066E-04-7.99634E-15
 -1      1902 8.55663E-03-6.70807E-04-8.91291E-15
 -1      1903 8.71555E-03-6.75649E-04-9.32759E-15
 -1      1904 8.48924E-03-6.28106E-04-8.78995E-15
 -1      1905 8.87283E-03-6.82569E-04-9.75402E-15
 -1      1906 9.02863E-03-6.91174E-04-1.01898E-14
 -1      1907 8.80201E-03-6.38703E-04-9.62210E-15
 -1      1908 9.18296E-03-7.01012E-04-1.06344E-14
 -1      1909 9.33604E-03-7.11795E-04-1.10911E-14
 -1      1910 9.10938E-03-6.56604E-04-1.04976E-14
 -1      1911 9.48784E-03-7.23222E-04-1.15575E-14
 -1      1912 9.63859E-03-7.35086E-04-1.20315E-14
 -1      1913 9.41218E-03-6.78698E-04-1.14097E-14
 -1      1914 9.78828E-03-7.47203E-04-1.25151E-14
 -1      1915 9.93711E-03-7.59430E-04-1.30073E-14
 -1      1916 9.71116E-03-7.02836E-04-1.23600E-14
 -1      1917 1.00851E-02-7.71662E-04-1.35076E-14
 -1      1918 1.02324E-02-7.83804E-04-1.40166E-14
 -1      1919 1.00070E-02-7.27607E-04-1.33463E-14
 -1      1920 1.03790E-02-7.95807E-04-1.45358E-14
 -1      1921 1.05251E-02-8.07609E-04-1.50632E-14
 -1      1922 1.03003E-02-7.52138E-04-1.43668E-14
 -1      1923 1.06706E-02-8.19196E-04-1.56005E-14
 -1      1924 1.08158E-02-8.30530E-04-1.61486E-14
 -1      1925 1.05916E-02-7.75930E-04-1.54227E-14
 -1      1926 1.09605E-02-8.41619E-04-1.67071E-14
 -1      1927 1.11049E-02-8.52441E-04-1.72720E-14
 -1      1928 1.08813E-02-7.98742E-04-1.65174E-14
 -1      1929 1.12491E-02-8.63016E-04-1.78465E-14
 -1      1930 1.13930E-02-8.73335E-04-1.84292E-14
 -1      1931 1.11699E-02-8.20494E-04-1.76508E-14
 -1      1932 1.15366E-02-8.83421E-04-1.90201E-14
 -1      1933 1.16801E-02-8.93273E-04-1.96218E-14
 -1      1934 1.14575E-02-8.41209E-04-1.88172E-14
 -1      1935 1.18235E-02-9.02917E-04-2.02297E-14
 -1      1936 1.19668E-02-9.12356E-04-2.08484E-14
 -1      1937 1.17444E-02-8.60969E-04-2.00185E-14
 -1      1938 1.21099E-02-9.21615E-04-2.14751E-14
 -1      1939 1.22529E-02-9.30700E-04-2.21125E-14
 -1      1940 1.20309E-02-8.79887E-04-2.12570E-14
 -1      1941 1.23959E-02-9.39634E-04-2.27610E-14
 -1      1942 1.25389E-02-9.48424E-04-2.34159E-14
 -1      1943 1.23171E-02-8.98083E-04-2.25334E-14
 -1      1944 1.26817E-02-9.57090E-04-2.40860E-14
 -1      1945 1.28246E-02-9.65639E-04-2.47672E-14
 -1      1946 1.26030E-02-9.15678E-04-2.38529E-14
 -1      1947 1.29674E-02-9.74089E-04-2.54603E-14
 -1      1948 1.31103E-02-9.82448E-04-2.61674E-14
 -1      1949 1.28888E-02-9.32786E-04-2.52151E-14
 -1      1950 1.32531E-02-9.90730E-04-2.68846E-14
 -1      1951 1.33959E-02-9.98943E-04-2.76095E-14
 -1      1952 1.31745E-02-9.49509E-04-2.66272E-14
 -1      1953 1.35386E-02-1.00710E-03-2.83493E-14
 -1      1954 1.36814E-02-1.01520E-03-2.90965E-14
 -1      1955 1.34601E-02-9.65935E-04-2.80832E-14
 -1      1956 1.38242E-02-1.02327E-03-2.98477E-14
 -1      1957 1.39670E-02-1.03130E-03-3.06071E-14
 -1      1958 1.37458E-02-9.82143E-04-2.95778E-14
 -1      1959 1.41098E-02-1.03930E-03-3.13712E-14
 -1      1960 1.42527E-02-1.04729E-03-3.21355E-14
 -1      1961 1.40314E-02-9.98200E-04-3.10921E-14
 -1      1962 1.43955E-02-1.05526E-03-3.29042E-14
 -1      1963 1.45383E-02-1.06323E-03-3.36762E-14
 -1      1964 1.43171E-02-1.01417E-03-3.26290E-14
 -1      1965 1.46666E-02-1.07204E-03-3.43589E-14
 -1      1966 1.48094E-02-1.08001E-03-3.51296E-14
 -1      1967 1.48448E-02-1.04857E-03-3.54588E-14
 -1      1968 1.45882E-02-1.03094E-03-3.40843E-14
 -1      1969 1.16606E-03 4.34728E-04-1.59215E-16
 -1      1970 1.01857E-03 4.07192E-04-1.18964E-16
 -1      1971 9.85567E-04 3.77554E-04-1.20983E-16
 -1      1972 1.45930E-03 4.75911E-04-2.58487E-16
 -1      1973 1.31260E-03 4.57388E-04-2.05605E-16
 -1      1974 1.28121E-03 4.28754E-04-2.07069E-16
 -1      1975 1.75387E-03 5.04171E-04-3.83577E-16
 -1      1976 1.60618E-03 4.91333E-04-3.17766E-16
 -1      1977 1.57595E-03 4.63216E-04-3.18444E-16
 -1      1978 2.05234E-03 5.25101E-04-5.34837E-16
 -1      1979 1.90247E-03 5.15267E-04-4.56002E-16
 -1      1980 1.87256E-03 4.87172E-04-4.55677E-16
 -1      1981 2.35631E-03 5.43782E-04-7.13500E-16
 -1      1982 2.20354E-03 5.34444E-04-6.20326E-16
 -1      1983 2.17303E-03 5.05921E-04-6.19269E-16
 -1      1984 2.66666E-03 5.65313E-04-9.22155E-16
 -1      1985 2.51065E-03 5.53909E-04-8.14466E-16
 -1      1986 2.47868E-03 5.24535E-04-8.11308E-16
 -1      1987 2.98352E-03 5.94981E-04-1.16033E-15
 -1      1988 2.82431E-03 5.78855E-04-1.03694E-15
 -1      1989 2.79026E-03 5.48230E-04-1.03198E-15
 -1      1990 3.30611E-03 6.38005E-04-1.43075E-15
 -1      1991 3.14423E-03 6.14597E-04-1.29170E-15
 -1      1992 3.10788E-03 5.82385E-04-1.28376E-15
 -1      1993 3.63258E-03 6.98660E-04-1.73060E-15
 -1      1994 3.46911E-03 6.66032E-04-1.57673E-15
 -1      1995 3.43086E-03 6.32076E-04-1.56640E-15
 -1      1996 3.95983E-03 7.78580E-04-2.06183E-15
 -1      1997 3.79648E-03 7.36370E-04-1.89277E-15
 -1      1998 3.75751E-03 7.00886E-04-1.87915E-15
 -1      1999 4.28373E-03 8.74336E-04-2.42394E-15
 -1      2000 4.12265E-03 8.25031E-04-2.23862E-15
 -1      2001 4.08490E-03 7.88833E-04-2.22240E-15
 -1      2002 4.59991E-03 9.75146E-04-2.82002E-15
 -1      2003 4.44316E-03 9.25096E-04-2.61713E-15
 -1      2004 4.40896E-03 8.89689E-04-2.59763E-15
 -1      2005 4.90548E-03 1.06281E-03-3.25396E-15
 -1      2006 4.75410E-03 1.02186E-03-3.03258E-15
 -1      2007 4.72545E-03 9.89093E-04-3.00950E-15
 -1      2008 5.20108E-03 1.11589E-03-3.72995E-15
 -1      2009 5.05417E-03 1.09471E-03-3.48648E-15
 -1      2010 5.03212E-03 1.06595E-03-3.46014E-15
 -1      2011 5.49173E-03 1.11817E-03-4.24488E-15
 -1      2012 5.34631E-03 1.12370E-03-3.98208E-15
 -1      2013 5.33085E-03 1.09897E-03-3.95184E-15
 -1      2014 5.78511E-03 1.06659E-03-4.80005E-15
 -1      2015 5.63733E-03 1.09851E-03-4.51763E-15
 -1      2016 5.62791E-03 1.07636E-03-4.48335E-15
 -1      2017 6.08768E-03 9.73035E-04-5.39140E-15
 -1      2018 5.93481E-03 1.02384E-03-5.09163E-15
 -1      2019 5.93074E-03 1.00226E-03-5.05447E-15
 -1      2020 6.40183E-03 8.58247E-04-6.01544E-15
 -1      2021 6.24328E-03 9.17035E-04-5.69937E-15
 -1      2022 6.24370E-03 8.94519E-04-5.65964E-15
 -1      2023 6.72592E-03 7.42636E-04-6.67756E-15
 -1      2024 6.56291E-03 7.99644E-04-6.34204E-15
 -1      2025 6.56643E-03 7.75618E-04-6.30164E-15
 -1      2026 7.05600E-03 6.40373E-04-7.37618E-15
 -1      2027 6.89060E-03 6.89420E-04-7.02189E-15
 -1      2028 6.89545E-03 6.63987E-04-6.97844E-15
 -1      2029 7.38781E-03 5.57937E-04-8.11657E-15
 -1      2030 7.22205E-03 5.96634E-04-7.74202E-15
 -1      2031 7.22647E-03 5.70185E-04-7.69605E-15
 -1      2032 7.71788E-03 4.95922E-04-8.89807E-15
 -1      2033 7.55333E-03 5.24543E-04-8.50104E-15
 -1      2034 7.55600E-03 4.97480E-04-8.45190E-15
 -1      2035 8.04391E-03 4.51604E-04-9.71554E-15
 -1      2036 7.88157E-03 4.71793E-04-9.30228E-15
 -1      2037 7.88176E-03 4.44434E-04-9.24791E-15
 -1      2038 8.36469E-03 4.21024E-04-1.05736E-14
 -1      2039 8.20504E-03 4.34835E-04-1.01399E-14
 -1      2040 8.20257E-03 4.07412E-04-1.00823E-14
 -1      2041 8.67983E-03 4.00240E-04-1.14632E-14
 -1      2042 8.52298E-03 4.09608E-04-1.10145E-14
 -1      2043 8.51803E-03 3.82277E-04-1.09531E-14
 -1      2044 8.98950E-03 3.85907E-04-1.23899E-14
 -1      2045 8.83533E-03 3.92420E-04-1.19222E-14
 -1      2046 8.82827E-03 3.65279E-04-1.18588E-14
 -1      2047 9.29421E-03 3.75440E-04-1.33492E-14
 -1      2048 9.14243E-03 3.80299E-04-1.28658E-14
 -1      2049 9.13371E-03 3.53400E-04-1.27990E-14
 -1      2050 9.59462E-03 3.66974E-04-1.43381E-14
 -1      2051 9.44490E-03 3.71030E-04-1.38393E-14
 -1      2052 9.43494E-03 3.44393E-04-1.37711E-14
 -1      2053 9.89144E-03 3.59239E-04-1.53620E-14
 -1      2054 9.74343E-03 3.63062E-04-1.48459E-14
 -1      2055 9.73259E-03 3.36681E-04-1.47753E-14
 -1      2056 1.01854E-02 3.51419E-04-1.64211E-14
 -1      2057 1.00387E-02 3.55366E-04-1.58871E-14
 -1      2058 1.00273E-02 3.29223E-04-1.58152E-14
 -1      2059 1.04770E-02 3.43032E-04-1.75295E-14
 -1      2060 1.03314E-02 3.47310E-04-1.69690E-14
 -1      2061 1.03196E-02 3.21378E-04-1.68957E-14
 -1      2062 1.07668E-02 3.33829E-04-1.86905E-14
 -1      2063 1.06221E-02 3.38538E-04-1.81022E-14
 -1      2064 1.06101E-02 3.12787E-04-1.80271E-14
 -1      2065 1.10553E-02 3.23716E-04-1.99050E-14
 -1      2066 1.09112E-02 3.28886E-04-1.92915E-14
 -1      2067 1.08991E-02 3.03287E-04-1.92098E-14
 -1      2068 1.13428E-02 3.12696E-04-2.11671E-14
 -1      2069 1.11991E-02 3.18315E-04-2.05297E-14
 -1      2070 1.11870E-02 2.92840E-04-2.04449E-14
 -1      2071 1.16296E-02 3.00831E-04-2.24717E-14
 -1      2072 1.14862E-02 3.06863E-04-2.18157E-14
 -1      2073 1.14742E-02 2.81487E-04-2.17240E-14
 -1      2074 1.19159E-02 2.88216E-04-2.38114E-14
 -1      2075 1.17728E-02 2.94611E-04-2.31364E-14
 -1      2076 1.17608E-02 2.69312E-04-2.30391E-14
 -1      2077 1.22018E-02 2.74957E-04-2.51936E-14
 -1      2078 1.20589E-02 2.81661E-04-2.44979E-14
 -1      2079 1.20470E-02 2.56420E-04-2.43960E-14
 -1      2080 1.24876E-02 2.61161E-04-2.66166E-14
 -1      2081 1.23447E-02 2.68120E-04-2.58982E-14
 -1      2082 1.23329E-02 2.42924E-04-2.57921E-14
 -1      2083 1.27732E-02 2.46928E-04-2.80822E-14
 -1      2084 1.26304E-02 2.54094E-04-2.73445E-14
 -1      2085 1.26186E-02 2.28929E-04-2.72313E-14
 -1      2086 1.30588E-02 2.32352E-04-2.95933E-14
 -1      2087 1.29160E-02 2.39678E-04-2.88327E-14
 -1      2088 1.29043E-02 2.14536E-04-2.87159E-14
 -1      2089 1.33443E-02 2.17514E-04-3.11369E-14
 -1      2090 1.32015E-02 2.24962E-04-3.03621E-14
 -1      2091 1.31899E-02 1.99834E-04-3.02415E-14
 -1      2092 1.36299E-02 2.02486E-04-3.27110E-14
 -1      2093 1.34871E-02 2.10020E-04-3.19209E-14
 -1      2094 1.34755E-02 1.84901E-04-3.17968E-14
 -1      2095 1.39155E-02 1.87331E-04-3.43113E-14
 -1      2096 1.37727E-02 1.94921E-04-3.35071E-14
 -1      2097 1.37611E-02 1.69806E-04-3.33786E-14
 -1      2098 1.42011E-02 1.72106E-04-3.59401E-14
 -1      2099 1.40583E-02 1.79724E-04-3.51232E-14
 -1      2100 1.40467E-02 1.54609E-04-3.49897E-14
 -1      2101 1.44867E-02 1.56860E-04-3.75824E-14
 -1      2102 1.43439E-02 1.64483E-04-3.67594E-14
 -1      2103 1.43323E-02 1.39365E-04-3.66211E-14
 -1      2104 1.47222E-02 1.41348E-04-3.89410E-14
 -1      2105 1.45793E-02 1.48959E-04-3.81110E-14
 -1      2106 1.45678E-02 1.23837E-04-3.79698E-14
 -1      2107 1.47530E-02 1.08040E-04-3.90256E-14
 -1      2108 1.47627E-02-1.25215E-04-3.83687E-14
 -1      2109 1.47552E-02-8.30267E-05-3.84571E-14
 -1      2110 1.47478E-02-4.08448E-05-3.85450E-14
 -1      2111 1.47404E-02 1.32965E-06-3.86322E-14
 -1      2112 1.46278E-02-5.53216E-05-3.77967E-14
 -1      2113 1.47504E-02 3.36084E-05-3.87885E-14
 -1      2114 1.47430E-02 7.57703E-05-3.88700E-14
 -1      2115 1.46504E-02 8.36694E-05-3.83441E-14
 -1      2116 1.46304E-02 1.91262E-05-3.80350E-14
 -1      2117 1.47773E-02-2.08181E-04-3.81815E-14
 -1      2118 1.47700E-02-1.66696E-04-3.82754E-14
 -1      2119 1.46425E-02-1.38967E-04-3.76228E-14
 -1      2120 1.47923E-02-2.92599E-04-3.79786E-14
 -1      2121 1.47848E-02-2.50388E-04-3.80815E-14
 -1      2122 1.46573E-02-2.22631E-04-3.74352E-14
 -1      2123 1.48075E-02-3.77033E-04-3.77714E-14
 -1      2124 1.47999E-02-3.34815E-04-3.78761E-14
 -1      2125 1.46724E-02-3.07024E-04-3.72358E-14
 -1      2126 1.48227E-02-4.61475E-04-3.75682E-14
 -1      2127 1.48151E-02-4.19253E-04-3.76694E-14
 -1      2128 1.46875E-02-3.91427E-04-3.70344E-14
 -1      2129 1.48381E-02-5.45919E-04-3.73545E-14
 -1      2130 1.48304E-02-5.03697E-04-3.74627E-14
 -1      2131 1.47028E-02-4.75834E-04-3.68308E-14
 -1      2132 1.48536E-02-6.30357E-04-3.71351E-14
 -1      2133 1.48458E-02-5.88139E-04-3.72448E-14
 -1      2134 1.47182E-02-5.60242E-04-3.66187E-14
 -1      2135 1.48689E-02-7.13353E-04-3.69197E-14
 -1      2136 1.48612E-02-6.71857E-04-3.70272E-14
 -1      2137 1.47336E-02-6.43930E-04-3.64035E-14
 -1      2138 1.48846E-02-7.97761E-04-3.66903E-14
 -1      2139 1.48767E-02-7.55560E-04-3.68068E-14
 -1      2140 1.47491E-02-7.27608E-04-3.61824E-14
 -1      2141 1.49004E-02-8.82146E-04-3.64491E-14
 -1      2142 1.48925E-02-8.39957E-04-3.65688E-14
 -1      2143 1.47648E-02-8.11988E-04-3.59490E-14
 -1      2144 1.49162E-02-9.66502E-04-3.61972E-14
 -1      2145 1.49083E-02-9.24328E-04-3.63233E-14
 -1      2146 1.47806E-02-8.96348E-04-3.57084E-14
 -1      2147 7.28497E-03 6.92321E-05-5.25377E-15
 -1      2148 7.43032E-03 1.02610E-05-5.32464E-15
 -1      2149 7.71449E-03-1.00091E-04-5.36959E-15
 -1      2150 7.71791E-03-1.17350E-04-5.33520E-15
 -1      2151 7.57875E-03-4.97875E-05-5.41208E-15
 -1      2152 7.66496E-03-7.58225E-05-5.42092E-15
 -1      2153 6.93166E-03 2.26526E-04-5.09793E-15
 -1      2154 7.11830E-03 1.43012E-04-5.17437E-15
 -1      2155 7.19190E-03 8.18056E-05-5.34613E-15
 -1      2156 6.48418E-03 4.69142E-04-4.81565E-15
 -1      2157 6.68448E-03 3.54335E-04-4.95312E-15
 -1      2158 3.28134E-04-7.22918E-05-2.19958E-17
 -1      2159 3.31679E-04-8.49781E-05-1.93124E-17
 -1      2160 4.50434E-04-1.22569E-04-2.77827E-17
 -1      2161 4.39894E-04-8.89051E-05-3.46267E-17
 -1      2162 5.71749E-03 8.45834E-04-4.23321E-15
 -1      2163 5.88049E-03 7.77811E-04-4.39048E-15
 -1      2164 5.35932E-03 8.88975E-04-3.85109E-15
 -1      2165 5.51300E-03 8.87714E-04-4.01060E-15
 -1      2166 5.04302E-03 8.15125E-04-3.55431E-15
 -1      2167 5.19274E-03 8.64096E-04-3.69176E-15
 -1      2168 4.69504E-03 6.51598E-04-3.27603E-15
 -1      2169 4.85829E-03 7.37162E-04-3.39924E-15
 -1      2170 4.31085E-03 4.47075E-04-3.03875E-15
 -1      2171 4.49012E-03 5.46120E-04-3.14562E-15
 -1      2172 3.91618E-03 2.49698E-04-2.84117E-15
 -1      2173 4.09614E-03 3.36638E-04-2.92484E-15
 -1      2174 3.57195E-03 1.02345E-04-2.69265E-15
 -1      2175 3.72739E-03 1.66803E-04-2.76045E-15
 -1      2176 3.31841E-03 2.49886E-06-2.56602E-15
 -1      2177 3.42374E-03 3.85543E-05-2.61354E-15
 -1      2178 3.19500E-03-4.92417E-05-2.49960E-15
 -1      2179 3.23598E-03-2.94162E-05-2.53029E-15
 -1      2180 3.22430E-03-9.25595E-05-2.47403E-15
 -1      2181 3.18986E-03-7.38685E-05-2.47888E-15
 -1      2182 3.41293E-03-1.59140E-04-2.48683E-15
 -1      2183 3.30353E-03-1.23777E-04-2.47396E-15
 -1      2184 3.74696E-03-2.83900E-04-2.53888E-15
 -1      2185 3.57650E-03-2.15681E-04-2.50232E-15
 -1      2186 4.16745E-03-5.10036E-04-2.71171E-15
 -1      2187 3.97591E-03-4.04028E-04-2.63378E-15
 -1      2188 4.55088E-03-7.25214E-04-2.87860E-15
 -1      2189 4.36690E-03-6.20866E-04-2.79614E-15
 -1      2190 4.92025E-03-9.19321E-04-3.06710E-15
 -1      2191 4.74866E-03-8.29293E-04-2.97099E-15
 -1      2192 5.28276E-03-1.06054E-03-3.32614E-15
 -1      2193 5.11772E-03-1.00520E-03-3.19902E-15
 -1      2194 5.64467E-03-1.07098E-03-3.65384E-15
 -1      2195 5.49504E-03-1.08740E-03-3.50910E-15
 -1      2196 5.94467E-03-9.71416E-04-3.94669E-15
 -1      2197 5.79752E-03-1.03388E-03-3.79769E-15
 -1      2198 5.71991E-03-1.06238E-03-3.72657E-15
 -1      2199 6.33746E-03-7.65487E-04-4.29993E-15
 -1      2200 6.16130E-03-8.64732E-04-4.14976E-15
 -1      2201 6.74751E-03-5.50284E-04-4.59540E-15
 -1      2202 6.55773E-03-6.51118E-04-4.46000E-15
 -1      2203 7.13350E-03-3.64278E-04-4.86633E-15
 -1      2204 6.95254E-03-4.50335E-04-4.73651E-15
 -1      2205 7.46213E-03-2.22667E-04-5.12382E-15
 -1      2206 7.31425E-03-2.82848E-04-5.00457E-15
 -1      2207 7.68097E-03-1.41820E-04-5.30724E-15
 -1      2208 7.60533E-03-1.66395E-04-5.25544E-15
 -1      2209 6.09225E-03 6.78552E-04-4.55232E-15
 -1      2210 6.27739E-03 5.77916E-04-4.68478E-15
 -1      2211 6.79146E-03 2.72079E-04-5.11771E-15
 -1      2212 6.89639E-03 2.02913E-04-5.28524E-15
 -1      2213 6.66754E-03 3.24021E-04-5.13744E-15
 -1      2214 6.19441E-04-2.72378E-04-1.21837E-17
 -1      2215 5.97479E-03 7.26761E-04-4.54118E-15
 -1      2216 6.76492E-04-2.62508E-04-2.60073E-17
 -1      2217 7.50984E-03-3.90435E-05-5.51389E-15
 -1      2218 7.70016E-03-9.49831E-05-5.55033E-15
 -1      2219 1.48808E-02-9.97958E-04-3.58686E-14
 -1      2220 7.70869E-03-1.25368E-04-5.46904E-15
 -1      2221 6.35824E-03 5.12420E-04-4.83958E-15
 -1      2222 7.53947E-03-1.79993E-04-5.30559E-15
 -1      2223 7.21351E-03-3.03468E-04-5.03254E-15
 -1      2224 6.83899E-03-4.79332E-04-4.75020E-15
 -1      2225 6.04585E-03-9.21089E-04-4.07400E-15
 -1      2226 5.40044E-03-1.08956E-03-3.39916E-15
 -1      2227 5.31871E-03-1.07709E-03-3.29183E-15
 -1      2228 5.49534E-03-1.10080E-03-3.47262E-15
 -1      2229 5.02894E-03-9.64902E-04-3.08886E-15
 -1      2230 4.66902E-03-7.68472E-04-2.86934E-15
 -1      2231 4.29323E-03-5.51364E-04-2.69610E-15
 -1      2232 3.87001E-03-3.24563E-04-2.52020E-15
 -1      2233 3.49172E-03-1.67579E-04-2.41441E-15
 -1      2234 3.25659E-03-9.59736E-05-2.40083E-15
 -1      2235 3.18268E-03-6.09201E-05-2.42193E-15
 -1      2236 3.27248E-03-2.38389E-05-2.47625E-15
 -1      2237 3.49923E-03 5.04326E-05-2.58685E-15
 -1      2238 3.83143E-03 1.86967E-04-2.74296E-15
 -1      2239 4.21793E-03 3.76862E-04-2.93302E-15
 -1      2240 4.61254E-03 5.94810E-04-3.17290E-15
 -1      2241 4.96406E-03 7.81639E-04-3.45522E-15
 -1      2242 5.61137E-03 8.79445E-04-4.15008E-15
 -1      2243 5.69588E-03 8.56126E-04-4.29255E-15
 -1      2244 5.52417E-03 8.99230E-04-4.06733E-15
 -1      2245 5.27626E-03 8.86764E-04-3.76871E-15
 -1      2246 6.43991E-03-6.95703E-04-4.44393E-15
 -1      2247 1.03876E-03 3.55985E-04-1.48048E-16
 -1      2248 8.90049E-04 3.25675E-04-1.10494E-16
 -1      2249 5.35975E-04-4.19525E-05-6.37104E-17
 -1      2250 5.38934E-04-5.51610E-05-6.13929E-17
 -1      2251 5.42685E-04-6.93535E-05-5.87367E-17
 -1      2252 5.47159E-04-8.46726E-05-5.56738E-17
 -1      2253 6.53499E-04-7.38837E-05-8.20199E-17
 -1      2254 5.31770E-04 6.05948E-06-7.01614E-17
 -1      2255 5.31660E-04-5.61877E-06-6.88333E-17
 -1      2256 5.34279E-04 3.00893E-05-7.23569E-17
 -1      2257 5.32652E-04 1.79166E-05-7.13947E-17
 -1      2258 6.42422E-04 1.42038E-05-9.59790E-17
 -1      2259 5.39643E-04 5.58835E-05-7.34818E-17
 -1      2260 5.36620E-04 4.26375E-05-7.31023E-17
 -1      2261 6.46605E-04 4.30365E-05-9.85540E-17
 -1      2262 5.47980E-04 8.60267E-05-7.34140E-17
 -1      2263 5.43465E-04 7.03803E-05-7.35902E-17
 -1      2264 6.54523E-04 7.48385E-05-9.97330E-17
 -1      2265 5.59450E-04 1.22039E-04-7.17335E-17
 -1      2266 5.53323E-04 1.03203E-04-7.27906E-17
 -1      2267 6.66238E-04 1.11845E-04-9.92316E-17
 -1      2268 5.75102E-04 1.66430E-04-6.78304E-17
 -1      2269 5.66713E-04 1.43047E-04-7.01072E-17
 -1      2270 6.82079E-04 1.55944E-04-9.64533E-17
 -1      2271 1.33447E-03 4.01607E-04-2.41723E-16
 -1      2272 1.18669E-03 3.81166E-04-1.91850E-16
 -1      2273 1.09330E-03 3.33841E-04-1.76237E-16
 -1      2274 9.33216E-04-3.04183E-04-6.68275E-17
 -1      2275 1.08115E-03-3.31144E-04-9.32956E-17
 -1      2276 5.91486E-03 7.60579E-04-4.57715E-15
 -1      2277 6.08340E-03 6.62208E-04-4.74610E-15
 -1      2278 1.22867E-03-3.53376E-04-1.24887E-16
 -1      2279 1.37631E-03-3.71341E-04-1.61790E-16
 -1      2280 1.13634E-03-3.08698E-04-1.20184E-16
 -1      2281 1.52389E-03-3.86019E-04-2.03830E-16
 -1      2282 1.67180E-03-3.97809E-04-2.52131E-16
 -1      2283 1.42972E-03-3.43659E-04-1.97271E-16
 -1      2284 1.82006E-03-4.07579E-04-3.05515E-16
 -1      2285 1.96898E-03-4.15741E-04-3.64482E-16
 -1      2286 1.72369E-03-3.66648E-04-2.96218E-16
 -1      2287 2.11865E-03-4.23099E-04-4.29385E-16
 -1      2288 2.26930E-03-4.30132E-04-5.00712E-16
 -1      2289 2.01910E-03-3.82355E-04-4.17621E-16
 -1      2290 2.42108E-03-4.37648E-04-5.77283E-16
 -1      2291 2.57418E-03-4.46237E-04-6.60116E-16
 -1      2292 2.31712E-03-3.95523E-04-5.61874E-16
 -1      2293 2.72883E-03-4.56746E-04-7.49726E-16
 -1      2294 2.88512E-03-4.69926E-04-8.45108E-16
 -1      2295 2.61924E-03-4.11266E-04-7.30969E-16
 -1      2296 3.04347E-03-4.86642E-04-9.46820E-16
 -1      2297 3.20380E-03-5.07837E-04-1.05510E-15
 -1      2298 2.92737E-03-4.35379E-04-9.24377E-16
 -1      2299 3.36676E-03-5.34291E-04-1.16922E-15
 -1      2300 3.53190E-03-5.67084E-04-1.29027E-15
 -1      2301 3.24404E-03-4.74523E-04-1.14272E-15
 -1      2302 3.70017E-03-6.06699E-04-1.41769E-15
 -1      2303 3.87049E-03-6.54066E-04-1.55140E-15
 -1      2304 3.57215E-03-5.36062E-04-1.38652E-15
 -1      2305 4.04387E-03-7.09035E-04-1.69187E-15
 -1      2306 4.21836E-03-7.71452E-04-1.84008E-15
 -1      2307 3.91401E-03-6.27132E-04-1.65718E-15
 -1      2308 4.39469E-03-8.39955E-04-1.99482E-15
 -1      2309 4.57024E-03-9.12482E-04-2.15774E-15
 -1      2310 4.26885E-03-7.50959E-04-1.95567E-15
 -1      2311 4.74488E-03-9.86081E-04-2.32782E-15
 -1      2312 4.91669E-03-1.05536E-03-2.50567E-15
 -1      2313 4.62975E-03-9.00464E-04-2.28345E-15
 -1      2314 5.08460E-03-1.11634E-03-2.69207E-15
 -1      2315 5.24988E-03-1.16210E-03-2.88711E-15
 -1      2316 4.98397E-03-1.04892E-03-2.64310E-15
 -1      2317 5.41100E-03-1.18955E-03-3.09228E-15
 -1      2318 5.57271E-03-1.19483E-03-3.30649E-15
 -1      2319 5.32274E-03-1.14967E-03-3.03663E-15
 -1      2320 5.73348E-03-1.17782E-03-3.53363E-15
 -1      2321 5.89842E-03-1.14185E-03-3.77405E-15
 -1      2322 5.65258E-03-1.16074E-03-3.47159E-15
 -1      2323 6.06597E-03-1.08978E-03-4.02408E-15
 -1      2324 6.23763E-03-1.02847E-03-4.28582E-15
 -1      2325 5.99030E-03-1.08001E-03-3.95319E-15
 -1      2326 6.41232E-03-9.61908E-04-4.55841E-15
 -1      2327 6.58833E-03-8.95864E-04-4.84268E-15
 -1      2328 6.34394E-03-9.47235E-04-4.48117E-15
 -1      2329 6.76543E-03-8.33355E-04-5.13767E-15
 -1      2330 6.94102E-03-7.76898E-04-5.44351E-15
 -1      2331 6.70557E-03-8.10026E-04-5.05265E-15
 -1      2332 7.11569E-03-7.28076E-04-5.76134E-15
 -1      2333 7.28750E-03-6.86970E-04-6.08824E-15
 -1      2334 7.06241E-03-6.97725E-04-5.66798E-15
 -1      2335 7.45739E-03-6.54000E-04-6.42620E-15
 -1      2336 7.62428E-03-6.28271E-04-6.77507E-15
 -1      2337 7.40692E-03-6.19129E-04-6.32507E-15
 -1      2338 7.78906E-03-6.09488E-04-7.13438E-15
 -1      2339 7.95127E-03-5.96599E-04-7.50322E-15
 -1      2340 7.73787E-03-5.71743E-04-7.02624E-15
 -1      2341 8.11156E-03-5.88987E-04-7.88216E-15
 -1      2342 8.26984E-03-5.85761E-04-8.26974E-15
 -1      2343 8.05733E-03-5.49272E-04-7.76655E-15
 -1      2344 8.42649E-03-5.86236E-04-8.66588E-15
 -1      2345 8.58160E-03-5.89751E-04-9.07346E-15
 -1      2346 8.36814E-03-5.45096E-04-8.54235E-15
 -1      2347 8.73534E-03-5.95691E-04-9.49136E-15
 -1      2348 8.88791E-03-6.03589E-04-9.92014E-15
 -1      2349 8.67273E-03-5.53538E-04-9.35938E-15
 -1      2350 9.03935E-03-6.12959E-04-1.03576E-14
 -1      2351 9.18986E-03-6.23482E-04-1.08055E-14
 -1      2352 8.97284E-03-5.70151E-04-1.02167E-14
 -1      2353 9.33944E-03-6.34803E-04-1.12635E-14
 -1      2354 9.48828E-03-6.46707E-04-1.17298E-14
 -1      2355 9.26965E-03-5.91639E-04-1.11155E-14
 -1      2356 9.63636E-03-6.58955E-04-1.22054E-14
 -1      2357 9.78384E-03-6.71406E-04-1.26909E-14
 -1      2358 9.56395E-03-6.15672E-04-1.20497E-14
 -1      2359 9.93070E-03-6.83910E-04-1.31831E-14
 -1      2360 1.00771E-02-6.96376E-04-1.36859E-14
 -1      2361 9.85630E-03-6.40678E-04-1.30207E-14
 -1      2362 1.02230E-02-7.08720E-04-1.41972E-14
 -1      2363 1.03685E-02-7.20886E-04-1.47171E-14
 -1      2364 1.01471E-02-6.65650E-04-1.40270E-14
 -1      2365 1.05136E-02-7.32834E-04-1.52448E-14
 -1      2366 1.06584E-02-7.44533E-04-1.57813E-14
 -1      2367 1.04367E-02-6.89989E-04-1.50654E-14
 -1      2368 1.08029E-02-7.55972E-04-1.63296E-14
 -1      2369 1.09471E-02-7.67137E-04-1.68868E-14
 -1      2370 1.07253E-02-7.13379E-04-1.61409E-14
 -1      2371 1.10912E-02-7.78034E-04-1.74524E-14
 -1      2372 1.12350E-02-7.88659E-04-1.80271E-14
 -1      2373 1.10131E-02-7.35693E-04-1.72542E-14
 -1      2374 1.13787E-02-7.99029E-04-1.86128E-14
 -1      2375 1.15222E-02-8.09146E-04-1.92047E-14
 -1      2376 1.13003E-02-7.56925E-04-1.84055E-14
 -1      2377 1.16656E-02-8.19033E-04-1.98059E-14
 -1      2378 1.18089E-02-8.28695E-04-2.04176E-14
 -1      2379 1.15871E-02-7.77142E-04-1.95925E-14
 -1      2380 1.19521E-02-8.38156E-04-2.10361E-14
 -1      2381 1.20953E-02-8.47424E-04-2.16661E-14
 -1      2382 1.18735E-02-7.96450E-04-2.08148E-14
 -1      2383 1.22383E-02-8.56522E-04-2.23078E-14
 -1      2384 1.23813E-02-8.65459E-04-2.29583E-14
 -1      2385 1.21597E-02-8.14972E-04-2.20792E-14
 -1      2386 1.25243E-02-8.74255E-04-2.36183E-14
 -1      2387 1.26673E-02-8.82919E-04-2.42878E-14
 -1      2388 1.24457E-02-8.32833E-04-2.33813E-14
 -1      2389 1.28102E-02-8.91470E-04-2.49698E-14
 -1      2390 1.29531E-02-8.99917E-04-2.56634E-14
 -1      2391 1.27316E-02-8.50151E-04-2.47243E-14
 -1      2392 1.30959E-02-9.08275E-04-2.63713E-14
 -1      2393 1.32388E-02-9.16552E-04-2.70891E-14
 -1      2394 1.30174E-02-8.67035E-04-2.61139E-14
 -1      2395 1.33816E-02-9.24761E-04-2.78163E-14
 -1      2396 1.35245E-02-9.32910E-04-2.85566E-14
 -1      2397 1.33031E-02-8.83582E-04-2.75504E-14
 -1      2398 1.36673E-02-9.41011E-04-2.93050E-14
 -1      2399 1.38101E-02-9.49068E-04-3.00568E-14
 -1      2400 1.35888E-02-8.99873E-04-2.90293E-14
 -1      2401 1.39530E-02-9.57093E-04-3.08157E-14
 -1      2402 1.40958E-02-9.65091E-04-3.15794E-14
 -1      2403 1.38745E-02-9.15983E-04-3.05390E-14
 -1      2404 1.42386E-02-9.73071E-04-3.23470E-14
 -1      2405 1.43815E-02-9.81037E-04-3.31204E-14
 -1      2406 1.41602E-02-9.31973E-04-3.20672E-14
 -1      2407 1.92719E-03 4.53825E-04-5.04412E-16
 -1      2408 1.77824E-03 4.43963E-04-4.28856E-16
 -1      2409 2.22774E-03 4.71177E-04-6.75336E-16
 -1      2410 2.07696E-03 4.62748E-04-5.86675E-16
 -1      2411 1.98031E-03 4.20382E-04-5.53431E-16
 -1      2412 2.53287E-03 4.89434E-04-8.74368E-16
 -1      2413 2.37969E-03 4.79904E-04-7.71003E-16
 -1      2414 2.28018E-03 4.36438E-04-7.31769E-16
 -1      2415 2.84350E-03 5.13855E-04-1.10193E-15
 -1      2416 2.68750E-03 5.00563E-04-9.84645E-16
 -1      2417 2.58432E-03 4.54364E-04-9.36995E-16
 -1      2418 3.16017E-03 5.49874E-04-1.36046E-15
 -1      2419 3.00116E-03 5.30095E-04-1.22669E-15
 -1      2420 2.89397E-03 4.79417E-04-1.17132E-15
 -1      2421 3.48285E-03 6.02564E-04-1.64880E-15
 -1      2422 3.32094E-03 5.73860E-04-1.50155E-15
 -1      2423 3.21023E-03 5.17074E-04-1.43643E-15
 -1      2424 3.81055E-03 6.75339E-04-1.96723E-15
 -1      2425 3.64639E-03 6.36331E-04-1.80409E-15
 -1      2426 3.53383E-03 5.72483E-04-1.73068E-15
 -1      2427 4.14079E-03 7.67677E-04-2.31640E-15
 -1      2428 3.97581E-03 7.19307E-04-2.13765E-15
 -1      2429 3.86436E-03 6.49081E-04-2.05413E-15
 -1      2430 4.46932E-03 8.72121E-04-2.69897E-15
 -1      2431 4.30576E-03 8.19213E-04-2.50337E-15
 -1      2432 4.19939E-03 7.46051E-04-2.40983E-15
 -1      2433 4.79113E-03 9.72109E-04-3.11850E-15
 -1      2434 4.63133E-03 9.24079E-04-2.90412E-15
 -1      2435 4.53375E-03 8.54616E-04-2.79969E-15
 -1      2436 5.10338E-03 1.04400E-03-3.57712E-15
 -1      2437 4.94823E-03 1.01317E-03-3.34234E-15
 -1      2438 4.86116E-03 9.55426E-04-3.22675E-15
 -1      2439 5.40826E-03 1.06559E-03-4.07648E-15
 -1      2440 5.25590E-03 1.06217E-03-3.82176E-15
 -1      2441 5.17813E-03 1.02159E-03-3.69218E-15
 -1      2442 5.71323E-03 1.02727E-03-4.61678E-15
 -1      2443 5.55972E-03 1.05373E-03-4.34162E-15
 -1      2444 5.48836E-03 1.02962E-03-4.20025E-15
 -1      2445 6.02593E-03 9.38353E-04-5.19579E-15
 -1      2446 5.86809E-03 9.87796E-04-4.90152E-15
 -1      2447 5.80132E-03 9.73529E-04-4.75039E-15
 -1      2448 6.34873E-03 8.21553E-04-5.81002E-15
 -1      2449 6.18612E-03 8.81833E-04-5.49901E-15
 -1      2450 6.12415E-03 8.69552E-04-5.33815E-15
 -1      2451 6.67892E-03 7.00618E-04-6.46048E-15
 -1      2452 6.51337E-03 7.60346E-04-6.13047E-15
 -1      2453 6.45676E-03 7.45020E-04-5.96098E-15
 -1      2454 7.01150E-03 5.92396E-04-7.14572E-15
 -1      2455 6.84541E-03 6.44261E-04-6.79844E-15
 -1      2456 6.79369E-03 6.24125E-04-6.61859E-15
 -1      2457 7.34223E-03 5.04732E-04-7.87295E-15
 -1      2458 7.17747E-03 5.45827E-04-7.50475E-15
 -1      2459 7.12881E-03 5.21090E-04-7.31430E-15
 -1      2460 7.66860E-03 4.38668E-04-8.63646E-15
 -1      2461 7.50618E-03 4.69114E-04-8.24870E-15
 -1      2462 7.45836E-03 4.40662E-04-8.04805E-15
 -1      2463 7.98958E-03 3.91500E-04-9.43821E-15
 -1      2464 7.82986E-03 4.12953E-04-9.03258E-15
 -1      2465 7.78100E-03 3.81705E-04-8.81910E-15
 -1      2466 8.30503E-03 3.59115E-04-1.02813E-14
 -1      2467 8.14801E-03 3.73709E-04-9.85534E-15
 -1      2468 8.09694E-03 3.40460E-04-9.62922E-15
 -1      2469 8.61528E-03 3.37362E-04-1.11577E-14
 -1      2470 8.46078E-03 3.47132E-04-1.07149E-14
 -1      2471 8.40701E-03 3.12536E-04-1.04785E-14
 -1      2472 8.92087E-03 3.22680E-04-1.20716E-14
 -1      2473 8.76861E-03 3.29316E-04-1.16104E-14
 -1      2474 8.71217E-03 2.93899E-04-1.13635E-14
 -1      2475 9.22241E-03 3.12292E-04-1.30198E-14
 -1      2476 9.07209E-03 3.17084E-04-1.25410E-14
 -1      2477 9.01327E-03 2.81252E-04-1.22841E-14
 -1      2478 9.52050E-03 3.04175E-04-1.39981E-14
 -1      2479 9.37183E-03 3.08046E-04-1.35049E-14
 -1      2480 9.31105E-03 2.72096E-04-1.32390E-14
 -1      2481 9.81572E-03 2.96935E-04-1.50124E-14
 -1      2482 9.66842E-03 3.00511E-04-1.45003E-14
 -1      2483 9.60612E-03 2.64646E-04-1.42278E-14
 -1      2484 1.01086E-02 2.89671E-04-1.60632E-14
 -1      2485 9.96241E-03 2.93349E-04-1.55332E-14
 -1      2486 9.89900E-03 2.57695E-04-1.52504E-14
 -1      2487 1.03996E-02 2.81841E-04-1.71563E-14
 -1      2488 1.02543E-02 2.85853E-04-1.66039E-14
 -1      2489 1.01901E-02 2.50479E-04-1.63129E-14
 -1      2490 1.06892E-02 2.73161E-04-1.82978E-14
 -1      2491 1.05445E-02 2.77622E-04-1.77207E-14
 -1      2492 1.04798E-02 2.42554E-04-1.74150E-14
 -1      2493 1.09776E-02 2.63515E-04-1.94936E-14
 -1      2494 1.08335E-02 2.68465E-04-1.88883E-14
 -1      2495 1.07684E-02 2.33700E-04-1.85675E-14
 -1      2496 1.12651E-02 2.52898E-04-2.07348E-14
 -1      2497 1.11214E-02 2.58328E-04-2.01093E-14
 -1      2498 1.10562E-02 2.23846E-04-1.97737E-14
 -1      2499 1.15520E-02 2.41372E-04-2.20197E-14
 -1      2500 1.14086E-02 2.47246E-04-2.13721E-14
 -1      2501 1.13434E-02 2.13016E-04-2.10233E-14
 -1      2502 1.18385E-02 2.29035E-04-2.33405E-14
 -1      2503 1.16953E-02 2.35301E-04-2.26755E-14
 -1      2504 1.16300E-02 2.01288E-04-2.23130E-14
 -1      2505 1.21246E-02 2.15998E-04-2.47043E-14
 -1      2506 1.19816E-02 2.22599E-04-2.40169E-14
 -1      2507 1.19163E-02 1.88768E-04-2.36410E-14
 -1      2508 1.24105E-02 2.02375E-04-2.61072E-14
 -1      2509 1.22676E-02 2.09254E-04-2.54004E-14
 -1      2510 1.22024E-02 1.75572E-04-2.50112E-14
 -1      2511 1.26963E-02 1.88275E-04-2.75560E-14
 -1      2512 1.25535E-02 1.95379E-04-2.68273E-14
 -1      2513 1.24883E-02 1.61816E-04-2.64229E-14
 -1      2514 1.29820E-02 1.73796E-04-2.90463E-14
 -1      2515 1.28392E-02 1.81078E-04-2.82937E-14
 -1      2516 1.27741E-02 1.47607E-04-2.78779E-14
 -1      2517 1.32677E-02 1.59026E-04-3.05761E-14
 -1      2518 1.31249E-02 1.66443E-04-2.98072E-14
 -1      2519 1.30598E-02 1.33041E-04-2.93749E-14
 -1      2520 1.35533E-02 1.44042E-04-3.21360E-14
 -1      2521 1.34105E-02 1.51557E-04-3.13534E-14
 -1      2522 1.33455E-02 1.18205E-04-3.09108E-14
 -1      2523 1.38390E-02 1.28911E-04-3.37221E-14
 -1      2524 1.36961E-02 1.36492E-04-3.29265E-14
 -1      2525 1.36312E-02 1.03171E-04-3.24745E-14
 -1      2526 1.41246E-02 1.13692E-04-3.53344E-14
 -1      2527 1.39818E-02 1.21309E-04-3.45237E-14
 -1      2528 1.39169E-02 8.80059E-05-3.40643E-14
 -1      2529 1.44103E-02 9.84361E-05-3.69653E-14
 -1      2530 1.42675E-02 1.06066E-04-3.61481E-14
 -1      2531 1.42025E-02 7.27655E-05-3.56757E-14
 -1      2532 1.45578E-02 9.15728E-05-3.78163E-14
 -1      2533 1.45374E-02-2.37063E-04-3.66889E-14
 -1      2534 1.45299E-02-1.94882E-04-3.67852E-14
 -1      2535 1.45524E-02-3.21430E-04-3.64947E-14
 -1      2536 1.45449E-02-2.79246E-04-3.65936E-14
 -1      2537 1.44174E-02-2.51480E-04-3.59486E-14
 -1      2538 1.45078E-02-6.97855E-05-3.70497E-14
 -1      2539 1.45004E-02-2.76179E-05-3.71314E-14
 -1      2540 1.45225E-02-1.53061E-04-3.68767E-14
 -1      2541 1.45152E-02-1.11600E-04-3.69630E-14
 -1      2542 1.43877E-02-8.38823E-05-3.63051E-14
 -1      2543 1.44025E-02-1.67500E-04-3.61319E-14
 -1      2544 1.45676E-02-4.05802E-04-3.62959E-14
 -1      2545 1.45600E-02-3.63616E-04-3.63942E-14
 -1      2546 1.44325E-02-3.35820E-04-3.57562E-14
 -1      2547 1.45829E-02-4.90176E-04-3.60933E-14
 -1      2548 1.45752E-02-4.47990E-04-3.61958E-14
 -1      2549 1.44477E-02-4.20161E-04-3.55595E-14
 -1      2550 1.45983E-02-5.74550E-04-3.58811E-14
 -1      2551 1.45906E-02-5.32364E-04-3.59888E-14
 -1      2552 1.44630E-02-5.04502E-04-3.53566E-14
 -1      2553 1.46136E-02-6.57490E-04-3.56706E-14
 -1      2554 1.46060E-02-6.16021E-04-3.57778E-14
 -1      2555 1.44783E-02-5.88128E-04-3.51510E-14
 -1      2556 1.46293E-02-7.41855E-04-3.54455E-14
 -1      2557 1.46214E-02-6.99674E-04-3.55581E-14
 -1      2558 1.44938E-02-6.71754E-04-3.49365E-14
 -1      2559 1.46450E-02-8.26209E-04-3.52113E-14
 -1      2560 1.46371E-02-7.84034E-04-3.53289E-14
 -1      2561 1.45095E-02-7.56092E-04-3.47088E-14
 -1      2562 1.46608E-02-9.10549E-04-3.49709E-14
 -1      2563 1.46529E-02-8.68382E-04-3.50894E-14
 -1      2564 1.45252E-02-8.40425E-04-3.44730E-14
 -1      2565 7.69729E-03-9.95952E-05-5.77503E-15
 -1      2566 7.73514E-03-1.08201E-04-5.72185E-15
 -1      2567 7.42528E-03-2.22517E-05-5.61750E-15
 -1      2568 7.56978E-03-6.45706E-05-5.70668E-15
 -1      2569 7.73706E-03-1.18653E-04-5.69140E-15
 -1      2570 7.70678E-03-1.26628E-04-5.66068E-15
 -1      2571 7.75920E-03-1.16036E-04-5.91852E-15
 -1      2572 1.62996E-03 4.32333E-04-3.60145E-16
 -1      2573 1.48209E-03 4.18534E-04-2.97613E-16
 -1      2574 1.68344E-03 4.01227E-04-4.02225E-16
 -1      2575 1.47525E-02-9.89144E-04-3.51777E-14
 -1      2576 7.10780E-03 1.00149E-04-5.45483E-15
 -1      2577 7.26247E-03 3.71930E-05-5.53611E-15
 -1      2578 5.98631E-04-2.10022E-04-2.84739E-17
 -1      2579 7.95800E-04-2.68377E-04-4.87891E-17
 -1      2580 8.53927E-04-2.53753E-04-6.78711E-17
 -1      2581 5.87069E-04-1.81900E-04-3.50604E-17
 -1      2582 6.27101E-03 5.52766E-04-4.87632E-15
 -1      2583 6.44742E-03 4.45621E-04-5.01114E-15
 -1      2584 5.32326E-04-1.73952E-05-6.75051E-17
 -1      2585 5.33759E-04-2.94107E-05-6.57027E-17
 -1      2586 6.45827E-04-4.24536E-05-8.80508E-17
 -1      2587 6.42124E-04-1.37427E-05-9.25502E-17
 -1      2588 5.21391E-03 8.80018E-04-3.69469E-15
 -1      2589 5.34698E-03 9.04678E-04-3.85428E-15
 -1      2590 6.55970E-03-6.19926E-04-4.62138E-15
 -1      2591 6.37645E-03-7.32043E-04-4.45587E-15
 -1      2592 4.89733E-03 7.48725E-04-3.36032E-15
 -1      2593 5.04923E-03 8.24258E-04-3.51347E-15
 -1      2594 4.52017E-03 5.34218E-04-3.05398E-15
 -1      2595 4.69187E-03 6.37050E-04-3.18047E-15
 -1      2596 4.12689E-03 3.14740E-04-2.81514E-15
 -1      2597 4.31710E-03 4.19298E-04-2.92503E-15
 -1      2598 3.74240E-03 1.33982E-04-2.63554E-15
 -1      2599 3.91333E-03 2.09594E-04-2.71223E-15
 -1      2600 3.44002E-03 2.17686E-05-2.48360E-15
 -1      2601 3.58313E-03 7.01563E-05-2.55899E-15
 -1      2602 3.22398E-03-3.93073E-05-2.37290E-15
 -1      2603 3.29930E-03-2.17381E-05-2.40570E-15
 -1      2604 3.17201E-03-6.29919E-05-2.32018E-15
 -1      2605 3.17752E-03-5.53132E-05-2.33978E-15
 -1      2606 3.28398E-03-9.52343E-05-2.31617E-15
 -1      2607 3.21150E-03-7.86688E-05-2.31729E-15
 -1      2608 3.54215E-03-1.73733E-04-2.32598E-15
 -1      2609 3.39853E-03-1.28262E-04-2.31332E-15
 -1      2610 4.01428E-03-3.79961E-04-2.48922E-15
 -1      2611 3.79561E-03-2.76596E-04-2.39823E-15
 -1      2612 4.40342E-03-5.96843E-04-2.66273E-15
 -1      2613 4.22444E-03-4.92605E-04-2.58237E-15
 -1      2614 4.74421E-03-8.03414E-04-2.83706E-15
 -1      2615 4.57757E-03-7.00093E-04-2.74840E-15
 -1      2616 4.48269E-03-6.42869E-04-2.63186E-15
 -1      2617 5.11398E-03-1.00718E-03-3.09290E-15
 -1      2618 4.95248E-03-9.22208E-04-2.96535E-15
 -1      2619 5.76986E-03-1.05382E-03-3.78246E-15
 -1      2620 5.65052E-03-1.08920E-03-3.63858E-15
 -1      2621 6.13617E-03-8.74421E-04-4.20553E-15
 -1      2622 5.95579E-03-9.75714E-04-3.99884E-15
 -1      2623 6.93543E-03-4.17055E-04-4.91798E-15
 -1      2624 6.75453E-03-5.11687E-04-4.77340E-15
 -1      2625 7.29108E-03-2.59353E-04-5.21284E-15
 -1      2626 7.12219E-03-3.29096E-04-5.07152E-15
 -1      2627 7.60446E-03-1.55308E-04-5.50488E-15
 -1      2628 7.46742E-03-1.94673E-04-5.36997E-15
 -1      2629 7.72877E-04 3.01605E-04-8.35920E-17
 -1      2630 6.22969E-04 2.58593E-04-5.65818E-17
 -1      2631 5.95408E-04 2.31972E-04-5.73272E-17
 -1      2632 8.29089E-04 2.86437E-04-1.05046E-16
 -1      2633 5.44565E-03 9.10285E-04-3.98818E-15
 -1      2634 6.65071E-04-1.10010E-04-7.40239E-17
 -1      2635 5.52446E-04-1.01419E-04-5.20553E-17
 -1      2636 5.58525E-04-1.19823E-04-4.79217E-17
 -1      2637 1.38820E-03 3.74093E-04-2.76987E-16
 -1      2638 5.81531E-04 2.01075E-04-6.19622E-17
 -1      2639 6.18789E-03 6.03576E-04-4.91360E-15
 -1      2640 7.67305E-03-1.39685E-04-5.72749E-15
 -1      2641 7.39472E-03-2.22081E-04-5.41020E-15
 -1      2642 7.35654E-03 6.26037E-07-5.72766E-15
 -1      2643 7.04149E-03-3.67534E-04-5.09471E-15
 -1      2644 1.44929E-02 5.82634E-05-3.73375E-14
 -1      2645 1.44829E-02 2.59954E-05-3.71861E-14
 -1      2646 6.26960E-03-8.06807E-04-4.37467E-15
 -1      2647 6.99804E-04 2.18914E-04-8.75087E-17
 -1      2648 7.65622E-03-8.87648E-05-5.88032E-15
 -1      2649 7.72332E-03-1.00452E-04-6.05610E-15
 -1      2650 7.60473E-03-7.39061E-05-5.98637E-15
 -1      2651 5.87740E-03-1.02138E-03-3.90413E-15
 -1      2652 5.77353E-04-1.57165E-04-4.07660E-17
 -1      2653 4.84436E-03-8.63797E-04-2.84060E-15
 -1      2654 6.99516E-03 1.50396E-04-5.47307E-15
 -1      2655 6.57020E-03 3.73661E-04-5.17509E-15
 -1      2656 4.11557E-03-4.33824E-04-2.45652E-15
 -1      2657 3.66101E-03-2.19301E-04-2.29551E-15
 -1      2658 3.53951E-03-1.81305E-04-2.19605E-15
 -1      2659 3.77410E-03-2.74414E-04-2.26442E-15
 -1      2660 3.31936E-03-1.06050E-04-2.23014E-15
 -1      2661 5.56562E-03-1.10458E-03-3.52417E-15
 -1      2662 5.31915E-03-1.08794E-03-3.23022E-15
 -1      2663 5.22554E-03-1.05462E-03-3.16235E-15
 -1      2664 5.13696E-03-1.02455E-03-3.03438E-15
 -1      2665 3.17210E-03-6.70831E-05-2.23653E-15
 -1      2666 3.18027E-03-4.74757E-05-2.27105E-15
 -1      2667 3.35639E-03-2.01962E-06-2.37836E-15
 -1      2668 3.65454E-03 9.87333E-05-2.52921E-15
 -1      2669 4.01169E-03 2.59447E-04-2.70419E-15
 -1      2670 4.40453E-03 4.74156E-04-2.93122E-15
 -1      2671 4.78647E-03 6.96646E-04-3.23423E-15
 -1      2672 5.81636E-03 8.11768E-04-4.48879E-15
 -1      2673 5.93339E-03 7.60637E-04-4.68884E-15
 -1      2674 5.73185E-03 8.52336E-04-4.39983E-15
 -1      2675 6.67769E-03-5.58997E-04-4.78540E-15
 -1      2676 5.12915E-03 8.59375E-04-3.59367E-15
 -1      2677 1.46065E-02-9.96060E-04-3.43240E-14
 -1      2678 1.46425E-02-9.45446E-04-3.47296E-14
 -1      2679 1.45148E-02-9.17481E-04-3.41145E-14
 -1      2680 1.44782E-02-9.87254E-04-3.36375E-14
 -1      2681 1.43629E-02 1.15314E-05-3.64415E-14
 -1      2682 1.43998E-02-9.46157E-04-3.33568E-14
 -1      2683 7.61031E-04 5.80460E-05-1.29169E-16
 -1      2684 7.57290E-04 4.09728E-05-1.28004E-16
 -1      2685 7.54638E-04 2.42809E-05-1.26567E-16
 -1      2686 7.53220E-04 8.05687E-06-1.24588E-16
 -1      2687 8.68414E-04 3.62238E-05-1.61329E-16
 -1      2688 7.87722E-04 1.39474E-04-1.28898E-16
 -1      2689 7.79348E-04 1.16756E-04-1.29847E-16
 -1      2690 8.08464E-04 1.91242E-04-1.24873E-16
 -1      2691 7.97461E-04 1.64224E-04-1.27340E-16
 -1      2692 9.12317E-04 1.68541E-04-1.62278E-16
 -1      2693 1.14900E-03 3.11310E-04-2.05158E-16
 -1      2694 1.00239E-03 2.88108E-04-1.60218E-16
 -1      2695 8.14783E-04 2.40935E-04-1.14424E-16
 -1      2696 1.44230E-03 3.46317E-04-3.12941E-16
 -1      2697 1.29551E-03 3.30569E-04-2.56170E-16
 -1      2698 1.20478E-03 2.88287E-04-2.35123E-16
 -1      2699 7.73090E-03-1.36403E-04-5.96782E-15
 -1      2700 7.62988E-03-1.57392E-04-5.80701E-15
 -1      2701 1.33729E-03-3.02599E-04-1.89532E-16
 -1      2702 1.48292E-03-3.16011E-04-2.35041E-16
 -1      2703 1.62859E-03-3.26935E-04-2.85701E-16
 -1      2704 1.77455E-03-3.35719E-04-3.42283E-16
 -1      2705 1.53537E-03-2.88493E-04-2.74384E-16
 -1      2706 1.92071E-03-3.43056E-04-4.04543E-16
 -1      2707 2.06731E-03-3.49341E-04-4.72387E-16
 -1      2708 1.82406E-03-3.05160E-04-3.90191E-16
 -1      2709 2.21439E-03-3.55262E-04-5.46424E-16
 -1      2710 2.36222E-03-3.61308E-04-6.25720E-16
 -1      2711 2.11350E-03-3.16805E-04-5.29118E-16
 -1      2712 2.51094E-03-3.68172E-04-7.11169E-16
 -1      2713 2.66086E-03-3.76502E-04-8.03041E-16
 -1      2714 2.40460E-03-3.27511E-04-6.90894E-16
 -1      2715 2.81232E-03-3.86989E-04-9.01189E-16
 -1      2716 2.96565E-03-4.00543E-04-1.00514E-15
 -1      2717 2.69912E-03-3.41837E-04-8.76645E-16
 -1      2718 3.12146E-03-4.17803E-04-1.11514E-15
 -1      2719 3.28003E-03-4.40071E-04-1.23153E-15
 -1      2720 3.00004E-03-3.65138E-04-1.08710E-15
 -1      2721 3.44233E-03-4.67857E-04-1.35468E-15
 -1      2722 3.60829E-03-5.02853E-04-1.48469E-15
 -1      2723 3.31187E-03-4.04077E-04-1.32236E-15
 -1      2724 3.77917E-03-5.45460E-04-1.62067E-15
 -1      2725 3.95414E-03-5.97342E-04-1.76396E-15
 -1      2726 3.64028E-03-4.67307E-04-1.58365E-15
 -1      2727 4.13526E-03-6.57979E-04-1.91524E-15
 -1      2728 4.31852E-03-7.28025E-04-2.07331E-15
 -1      2729 3.99167E-03-5.64653E-04-1.87284E-15
 -1      2730 4.50513E-03-8.06108E-04-2.23815E-15
 -1      2731 4.69093E-03-8.88630E-04-2.41162E-15
 -1      2732 4.36631E-03-7.05164E-04-2.19166E-15
 -1      2733 5.23025E-03-1.10925E-03-2.97482E-15
 -1      2734 5.40074E-03-1.14279E-03-3.18226E-15
 -1      2735 5.56765E-03-1.14890E-03-3.40056E-15
 -1      2736 5.73767E-03-1.12674E-03-3.63164E-15
 -1      2737 5.90938E-03-1.07854E-03-3.87361E-15
 -1      2738 6.08770E-03-1.01494E-03-4.12771E-15
 -1      2739 5.82976E-03-1.08118E-03-3.79262E-15
 -1      2740 6.27052E-03-9.40539E-04-4.39351E-15
 -1      2741 6.45543E-03-8.65393E-04-4.67038E-15
 -1      2742 6.19720E-03-9.38269E-04-4.30503E-15
 -1      2743 6.64178E-03-7.93295E-04-4.95821E-15
 -1      2744 6.82525E-03-7.28713E-04-5.25633E-15
 -1      2745 6.57828E-03-7.77843E-04-4.86240E-15
 -1      2746 7.00644E-03-6.73292E-04-5.56510E-15
 -1      2747 7.18257E-03-6.26965E-04-5.88521E-15
 -1      2748 6.95198E-03-6.47729E-04-5.46273E-15
 -1      2749 7.35488E-03-5.90122E-04-6.21547E-15
 -1      2750 7.52230E-03-5.61236E-04-6.55595E-15
 -1      2751 7.30550E-03-5.59599E-04-6.10429E-15
 -1      2752 7.68607E-03-5.40098E-04-6.90702E-15
 -1      2753 7.84609E-03-5.25129E-04-7.26829E-15
 -1      2754 7.63755E-03-5.07526E-04-6.78952E-15
 -1      2755 8.00328E-03-5.15896E-04-7.63881E-15
 -1      2756 8.15793E-03-5.11158E-04-8.01868E-15
 -1      2757 7.95268E-03-4.82327E-04-7.51215E-15
 -1      2758 8.31061E-03-5.10409E-04-8.40861E-15
 -1      2759 8.46166E-03-5.12798E-04-8.80627E-15
 -1      2760 8.25639E-03-4.76082E-04-8.27315E-15
 -1      2761 8.61138E-03-5.17832E-04-9.21568E-15
 -1      2762 8.76007E-03-5.24940E-04-9.63636E-15
 -1      2763 8.55304E-03-4.82780E-04-9.07353E-15
 -1      2764 8.90788E-03-5.33694E-04-1.00659E-14
 -1      2765 9.05503E-03-5.43724E-04-1.05041E-14
 -1      2766 8.84556E-03-4.97993E-04-9.91409E-15
 -1      2767 9.20156E-03-5.54689E-04-1.09529E-14
 -1      2768 9.34765E-03-5.66349E-04-1.14124E-14
 -1      2769 9.13572E-03-5.18472E-04-1.07929E-14
 -1      2770 9.49330E-03-5.78454E-04-1.18817E-14
 -1      2771 9.63864E-03-5.90852E-04-1.23589E-14
 -1      2772 9.42450E-03-5.41883E-04-1.17119E-14
 -1      2773 9.78363E-03-6.03370E-04-1.28441E-14
 -1      2774 9.92840E-03-6.15917E-04-1.33391E-14
 -1      2775 9.71247E-03-5.66601E-04-1.26675E-14
 -1      2776 1.00729E-02-6.28382E-04-1.38424E-14
 -1      2777 1.02172E-02-6.40712E-04-1.43546E-14
 -1      2778 9.99990E-03-5.91544E-04-1.36594E-14
 -1      2779 1.03613E-02-6.52844E-04-1.48744E-14
 -1      2780 1.05053E-02-6.64752E-04-1.54023E-14
 -1      2781 1.02870E-02-6.16032E-04-1.46826E-14
 -1      2782 1.06491E-02-6.76405E-04-1.59417E-14
 -1      2783 1.07928E-02-6.87794E-04-1.64890E-14
 -1      2784 1.05737E-02-6.39682E-04-1.57419E-14
 -1      2785 1.09364E-02-6.98910E-04-1.70463E-14
 -1      2786 1.10799E-02-7.09755E-04-1.76104E-14
 -1      2787 1.08603E-02-6.62311E-04-1.68374E-14
 -1      2788 1.12233E-02-7.20334E-04-1.81861E-14
 -1      2789 1.13666E-02-7.30656E-04-1.87717E-14
 -1      2790 1.11466E-02-6.83874E-04-1.79688E-14
 -1      2791 1.15098E-02-7.40732E-04-1.93654E-14
 -1      2792 1.16530E-02-7.50576E-04-1.99686E-14
 -1      2793 1.14328E-02-7.04413E-04-1.91380E-14
 -1      2794 1.17961E-02-7.60203E-04-2.05827E-14
 -1      2795 1.19392E-02-7.69627E-04-2.12040E-14
 -1      2796 1.17189E-02-7.24016E-04-2.03476E-14
 -1      2797 1.20822E-02-7.78866E-04-2.18352E-14
 -1      2798 1.22252E-02-7.87932E-04-2.24807E-14
 -1      2799 1.20049E-02-7.42797E-04-2.15955E-14
 -1      2800 1.23682E-02-7.96845E-04-2.31331E-14
 -1      2801 1.25111E-02-8.05615E-04-2.37936E-14
 -1      2802 1.22908E-02-7.60880E-04-2.28830E-14
 -1      2803 1.26541E-02-8.14260E-04-2.44658E-14
 -1      2804 1.27970E-02-8.22790E-04-2.51487E-14
 -1      2805 1.25766E-02-7.78381E-04-2.42074E-14
 -1      2806 1.29399E-02-8.31221E-04-2.58451E-14
 -1      2807 1.30828E-02-8.39562E-04-2.65537E-14
 -1      2808 1.28624E-02-7.95413E-04-2.55782E-14
 -1      2809 1.32256E-02-8.47827E-04-2.72726E-14
 -1      2810 1.33685E-02-8.56023E-04-2.80032E-14
 -1      2811 1.31482E-02-8.12074E-04-2.69946E-14
 -1      2812 1.35114E-02-8.64162E-04-2.87407E-14
 -1      2813 1.36542E-02-8.72251E-04-2.94893E-14
 -1      2814 1.34339E-02-8.28450E-04-2.84560E-14
 -1      2815 1.37971E-02-8.80300E-04-3.02452E-14
 -1      2816 1.39400E-02-8.88315E-04-3.10061E-14
 -1      2817 1.37197E-02-8.44616E-04-2.99522E-14
 -1      2818 1.40828E-02-8.96305E-04-3.17713E-14
 -1      2819 1.42257E-02-9.04275E-04-3.25402E-14
 -1      2820 1.40054E-02-8.60637E-04-3.14754E-14
 -1      2821 2.33052E-03 4.01644E-04-7.87551E-16
 -1      2822 2.18084E-03 3.94262E-04-6.92060E-16
 -1      2823 1.42375E-02-3.44286E-05-3.55799E-14
 -1      2824 1.42200E-02 1.91709E-05-3.56291E-14
 -1      2825 1.40772E-02 2.68049E-05-3.48230E-14
 -1      2826 2.03204E-03 3.86882E-04-6.03521E-16
 -1      2827 1.88390E-03 3.79026E-04-5.21149E-16
 -1      2828 2.08219E-03 3.53452E-04-6.53123E-16
 -1      2829 2.94174E-03 4.44444E-04-1.24064E-15
 -1      2830 2.78669E-03 4.30429E-04-1.11661E-15
 -1      2831 3.25792E-03 4.83222E-04-1.51173E-15
 -1      2832 3.09887E-03 4.61761E-04-1.37267E-15
 -1      2833 2.98704E-03 4.08752E-04-1.31003E-15
 -1      2834 3.58328E-03 5.40802E-04-1.81074E-15
 -1      2835 3.41956E-03 5.09288E-04-1.65765E-15
 -1      2836 3.30352E-03 4.48092E-04-1.58570E-15
 -1      2837 3.91807E-03 6.20994E-04-2.14050E-15
 -1      2838 3.74981E-03 5.77898E-04-1.97192E-15
 -1      2839 3.63151E-03 5.07466E-04-1.89078E-15
 -1      2840 4.25968E-03 7.23085E-04-2.50302E-15
 -1      2841 4.08861E-03 6.69619E-04-2.31748E-15
 -1      2842 3.97183E-03 5.91486E-04-2.22652E-15
 -1      2843 4.60152E-03 8.37207E-04-2.89937E-15
 -1      2844 4.43133E-03 7.79950E-04-2.69628E-15
 -1      2845 4.32135E-03 7.00164E-04-2.59517E-15
 -1      2846 4.93541E-03 9.40130E-04-3.33308E-15
 -1      2847 4.76996E-03 8.92105E-04-3.11180E-15
 -1      2848 4.67150E-03 8.21390E-04-2.99782E-15
 -1      2849 5.25653E-03 1.00044E-03-3.80722E-15
 -1      2850 5.09672E-03 9.78015E-04-3.56528E-15
 -1      2851 5.01087E-03 9.27664E-04-3.43887E-15
 -1      2852 5.57145E-03 9.92407E-04-4.32505E-15
 -1      2853 5.41314E-03 1.00587E-03-4.06091E-15
 -1      2854 5.33590E-03 9.79541E-04-3.92152E-15
 -1      2855 5.89297E-03 9.15240E-04-4.88375E-15
 -1      2856 5.73044E-03 9.60838E-04-4.59932E-15
 -1      2857 5.65799E-03 9.49967E-04-4.44867E-15
 -1      2858 6.22665E-03 7.95200E-04-5.48024E-15
 -1      2859 6.05818E-03 8.58250E-04-5.17712E-15
 -1      2860 5.99046E-03 8.49513E-04-5.01694E-15
 -1      2861 6.56915E-03 6.64134E-04-6.11014E-15
 -1      2862 6.39754E-03 7.29053E-04-5.79078E-15
 -1      2863 6.33657E-03 7.14255E-04-5.62138E-15
 -1      2864 6.91184E-03 5.45714E-04-6.77678E-15
 -1      2865 6.74129E-03 6.02502E-04-6.43924E-15
 -1      2866 6.68818E-03 5.80079E-04-6.26003E-15
 -1      2867 7.24800E-03 4.49906E-04-7.48040E-15
 -1      2868 7.08121E-03 4.94814E-04-7.12307E-15
 -1      2869 7.03446E-03 4.67101E-04-6.93411E-15
 -1      2870 7.57502E-03 3.77963E-04-8.22180E-15
 -1      2871 7.41286E-03 4.11171E-04-7.84682E-15
 -1      2872 7.36941E-03 3.80413E-04-7.64543E-15
 -1      2873 7.89306E-03 3.26651E-04-9.00044E-15
 -1      2874 7.73518E-03 3.50059E-04-8.60686E-15
 -1      2875 7.69219E-03 3.17718E-04-8.39463E-15
 -1      2876 8.20357E-03 2.91395E-04-9.81929E-15
 -1      2877 8.04920E-03 3.07330E-04-9.40434E-15
 -1      2878 8.00461E-03 2.74091E-04-9.18157E-15
 -1      2879 8.50820E-03 2.67752E-04-1.06758E-14
 -1      2880 8.35654E-03 2.78382E-04-1.02435E-14
 -1      2881 8.30923E-03 2.44539E-04-1.00077E-14
 -1      2882 8.80837E-03 2.51951E-04-1.15683E-14
 -1      2883 8.65876E-03 2.59071E-04-1.11175E-14
 -1      2884 8.60832E-03 2.24785E-04-1.08730E-14
 -1      2885 9.10516E-03 2.41042E-04-1.24974E-14
 -1      2886 8.95712E-03 2.46032E-04-1.20290E-14
 -1      2887 8.90361E-03 2.11436E-04-1.17745E-14
 -1      2888 9.39937E-03 2.32845E-04-1.34594E-14
 -1      2889 9.25253E-03 2.36708E-04-1.29732E-14
 -1      2890 9.19628E-03 2.01931E-04-1.27092E-14
 -1      2891 9.69159E-03 2.25829E-04-1.44574E-14
 -1      2892 9.54568E-03 2.29260E-04-1.39546E-14
 -1      2893 9.48712E-03 1.94418E-04-1.36812E-14
 -1      2894 9.98224E-03 2.18978E-04-1.54891E-14
 -1      2895 9.83707E-03 2.22428E-04-1.49683E-14
 -1      2896 9.77666E-03 1.87617E-04-1.46875E-14
 -1      2897 1.02717E-02 2.11660E-04-1.65597E-14
 -1      2898 1.01271E-02 2.15404E-04-1.60186E-14
 -1      2899 1.00652E-02 1.80694E-04-1.57265E-14
 -1      2900 1.05601E-02 2.03523E-04-1.76734E-14
 -1      2901 1.04160E-02 2.07708E-04-1.71116E-14
 -1      2902 1.03531E-02 1.73144E-04-1.68065E-14
 -1      2903 1.08479E-02 1.94408E-04-1.88368E-14
 -1      2904 1.07041E-02 1.99093E-04-1.82485E-14
 -1      2905 1.06404E-02 1.64699E-04-1.79308E-14
 -1      2906 1.11350E-02 1.84283E-04-2.00512E-14
 -1      2907 1.09915E-02 1.89472E-04-1.94385E-14
 -1      2908 1.09273E-02 1.55252E-04-1.91038E-14
 -1      2909 1.14217E-02 1.73194E-04-2.13085E-14
 -1      2910 1.12784E-02 1.78856E-04-2.06750E-14
 -1      2911 1.12138E-02 1.44804E-04-2.03262E-14
 -1      2912 1.17081E-02 1.61233E-04-2.26042E-14
 -1      2913 1.15650E-02 1.67318E-04-2.19506E-14
 -1      2914 1.15002E-02 1.33421E-04-2.15906E-14
 -1      2915 1.19943E-02 1.48510E-04-2.39398E-14
 -1      2916 1.18512E-02 1.54960E-04-2.32665E-14
 -1      2917 1.17863E-02 1.21200E-04-2.28945E-14
 -1      2918 1.22803E-02 1.35143E-04-2.53182E-14
 -1      2919 1.21373E-02 1.41901E-04-2.46249E-14
 -1      2920 1.20723E-02 1.08258E-04-2.42385E-14
 -1      2921 1.25661E-02 1.21246E-04-2.67372E-14
 -1      2922 1.24232E-02 1.28255E-04-2.60210E-14
 -1      2923 1.23582E-02 9.47103E-05-2.56235E-14
 -1      2924 1.28519E-02 1.06925E-04-2.81998E-14
 -1      2925 1.27090E-02 1.14134E-04-2.74650E-14
 -1      2926 1.26440E-02 8.06678E-05-2.70513E-14
 -1      2927 1.31377E-02 9.22717E-05-2.97050E-14
 -1      2928 1.29948E-02 9.96351E-05-2.89472E-14
 -1      2929 1.29298E-02 6.62313E-05-2.85225E-14
 -1      2930 1.34234E-02 7.73690E-05-3.12440E-14
 -1      2931 1.32805E-02 8.48475E-05-3.04702E-14
 -1      2932 1.32155E-02 5.14900E-05-3.00327E-14
 -1      2933 1.37091E-02 6.22878E-05-3.28139E-14
 -1      2934 1.35662E-02 6.98471E-05-3.20263E-14
 -1      2935 1.35013E-02 3.65217E-05-3.15781E-14
 -1      2936 1.39645E-02 4.07582E-05-3.42109E-14
 -1      2937 1.38217E-02 4.83653E-05-3.34148E-14
 -1      2938 1.37568E-02 1.50582E-05-3.29597E-14
 -1      2939 1.39820E-02-1.28247E-05-3.41677E-14
 -1      2940 1.43278E-02-4.34503E-04-3.48262E-14
 -1      2941 1.43201E-02-3.92349E-04-3.49255E-14
 -1      2942 1.43219E-02-9.07776E-04-3.30664E-14
 -1      2943 1.44186E-02-9.13988E-04-3.35863E-14
 -1      2944 1.44369E-02-8.79098E-04-3.38234E-14
 -1      2945 1.42445E-02-8.72112E-04-3.27675E-14
 -1      2946 1.42974E-02-2.65884E-04-3.52145E-14
 -1      2947 1.42899E-02-2.23728E-04-3.53051E-14
 -1      2948 1.43431E-02-5.18810E-04-3.46234E-14
 -1      2949 1.43354E-02-4.76657E-04-3.47262E-14
 -1      2950 1.42079E-02-4.48828E-04-3.40956E-14
 -1      2951 1.43125E-02-3.50194E-04-3.50228E-14
 -1      2952 1.43050E-02-3.08040E-04-3.51186E-14
 -1      2953 1.41774E-02-2.80276E-04-3.44827E-14
 -1      2954 1.41926E-02-3.64554E-04-3.42922E-14
 -1      2955 7.14470E-03-3.29497E-04-5.29639E-15
 -1      2956 6.97872E-03-4.07544E-04-5.13831E-15
 -1      2957 1.43584E-02-6.01691E-04-3.44178E-14
 -1      2958 1.43507E-02-5.60251E-04-3.45207E-14
 -1      2959 1.42231E-02-5.32388E-04-3.38936E-14
 -1      2960 1.43740E-02-6.86003E-04-3.41999E-14
 -1      2961 1.43661E-02-6.43847E-04-3.43107E-14
 -1      2962 1.42385E-02-6.15952E-04-3.36850E-14
 -1      2963 1.43897E-02-7.70318E-04-3.39726E-14
 -1      2964 1.43818E-02-7.28161E-04-3.40869E-14
 -1      2965 1.42541E-02-7.00238E-04-3.34661E-14
 -1      2966 1.44172E-02-8.45786E-04-3.38398E-14
 -1      2967 1.44093E-02-8.03629E-04-3.39592E-14
 -1      2968 1.42817E-02-7.75687E-04-3.33405E-14
 -1      2969 1.43210E-02-8.42299E-04-3.33113E-14
 -1      2970 6.02462E-03-9.76972E-04-4.08659E-15
 -1      2971 5.86185E-03-1.05129E-03-3.86472E-15
 -1      2972 7.48739E-03-1.98994E-04-5.63601E-15
 -1      2973 7.32736E-03-2.53543E-04-5.47351E-15
 -1      2974 1.73636E-03 3.69979E-04-4.44943E-16
 -1      2975 1.58915E-03 3.59325E-04-3.75798E-16
 -1      2976 1.49606E-03 3.18426E-04-3.49682E-16
 -1      2977 1.78833E-03 3.38761E-04-4.88758E-16
 -1      2978 7.97784E-04-2.14789E-04-6.94160E-17
 -1      2979 9.31257E-04-2.44878E-04-9.14389E-17
 -1      2980 6.87559E-03 2.10763E-04-5.53182E-15
 -1      2981 7.07421E-03 1.18781E-04-5.70507E-15
 -1      2982 7.78259E-03-1.15520E-04-6.14168E-15
 -1      2983 7.78479E-03-1.20867E-04-6.11010E-15
 -1      2984 2.63321E-03 4.19096E-04-1.00026E-15
 -1      2985 2.48126E-03 4.09728E-04-8.90686E-16
 -1      2986 2.37876E-03 3.66835E-04-8.44295E-16
 -1      2987 2.67965E-03 3.83557E-04-1.06265E-15
 -1      2988 1.06125E-03-2.66942E-04-1.18449E-16
 -1      2989 1.20649E-03-2.86577E-04-1.53808E-16
 -1      2990 1.26162E-03-2.63367E-04-1.85371E-16
 -1      2991 1.00365E-03-2.28796E-04-1.19059E-16
 -1      2992 7.72088E-04 9.58295E-05-1.30145E-16
 -1      2993 7.66004E-04 7.63078E-05-1.29779E-16
 -1      2994 8.77627E-04 7.50814E-05-1.63972E-16
 -1      2995 8.92277E-04 1.18443E-04-1.64541E-16
 -1      2996 4.21415E-03-4.97862E-04-2.41213E-15
 -1      2997 4.02513E-03-3.99304E-04-2.32334E-15
 -1      2998 4.91365E-03-9.13991E-04-2.83210E-15
 -1      2999 4.73206E-03-8.02546E-04-2.70906E-15
 -1      3000 7.64696E-04-7.54538E-05-1.09830E-16
 -1      3001 7.70649E-04-9.45323E-05-1.05615E-16
 -1      3002 6.80606E-03-4.99036E-04-4.97639E-15
 -1      3003 6.63910E-03-5.99116E-04-4.81987E-15
 -1      3004 6.93021E-03-4.54548E-04-5.17507E-15
 -1      3005 4.68039E-03 6.53967E-04-3.10003E-15
 -1      3006 4.85909E-03 7.54413E-04-3.27626E-15
 -1      3007 4.28461E-03 4.20631E-04-2.79792E-15
 -1      3008 4.46098E-03 5.24993E-04-2.92258E-15
 -1      3009 3.88683E-03 2.07832E-04-2.57592E-15
 -1      3010 4.07441E-03 3.03212E-04-2.67410E-15
 -1      3011 3.56983E-03 7.45392E-05-2.41787E-15
 -1      3012 3.71391E-03 1.29850E-04-2.49073E-15
 -1      3013 3.27844E-03-1.21676E-05-2.24431E-15
 -1      3014 3.40928E-03 2.25503E-05-2.31797E-15
 -1      3015 3.13824E-03-4.85544E-05-2.15801E-15
 -1      3016 3.17908E-03-3.90752E-05-2.18879E-15
 -1      3017 3.33603E-03-1.15058E-04-2.13619E-15
 -1      3018 3.24008E-03-8.87627E-05-2.14006E-15
 -1      3019 4.55397E-03-6.95295E-04-2.59917E-15
 -1      3020 4.40073E-03-6.01489E-04-2.51737E-15
 -1      3021 4.28550E-03-5.57055E-04-2.38016E-15
 -1      3022 4.63515E-03-7.59962E-04-2.59088E-15
 -1      3023 3.17308E-03-7.03221E-05-2.14389E-15
 -1      3024 3.13679E-03-6.10938E-05-2.14651E-15
 -1      3025 3.17397E-03-7.86549E-05-2.05224E-15
 -1      3026 6.56553E-04-1.57104E-04-5.71375E-17
 -1      3027 5.36989E-03 9.18664E-04-3.90484E-15
 -1      3028 5.52165E-03 9.11324E-04-4.11989E-15
 -1      3029 5.06114E-03 8.42521E-04-3.50491E-15
 -1      3030 5.20543E-03 8.91956E-04-3.68583E-15
 -1      3031 6.41396E-03-7.36573E-04-4.57593E-15
 -1      3032 6.20350E-03-8.67666E-04-4.31987E-15
 -1      3033 7.29412E-03 2.69391E-05-5.85155E-15
 -1      3034 7.44188E-03-2.38552E-05-5.93669E-15
 -1      3035 6.16462E-03 6.32472E-04-4.97771E-15
 -1      3036 6.32484E-03 5.27465E-04-5.11417E-15
 -1      3037 6.49703E-03 4.22569E-04-5.25662E-15
 -1      3038 6.68795E-03 3.09549E-04-5.38706E-15
 -1      3039 6.79683E-03 2.68274E-04-5.61485E-15
 -1      3040 6.45573E-03 4.64348E-04-5.32332E-15
 -1      3041 7.77839E-04-1.14968E-04-1.00749E-16
 -1      3042 7.86159E-04-1.37056E-04-9.50032E-17
 -1      3043 8.90336E-04-1.16746E-04-1.31866E-16
 -1      3044 8.64974E-04-2.39042E-07-1.56681E-16
 -1      3045 7.53032E-04-7.99962E-06-1.22230E-16
 -1      3046 7.54089E-04-2.41124E-05-1.19859E-16
 -1      3047 7.58476E-03-1.83261E-04-5.87479E-15
 -1      3048 8.74029E-04 2.26530E-04-1.36284E-16
 -1      3049 7.75867E-03-9.96135E-05-6.35929E-15
 -1      3050 7.77656E-03-1.08301E-04-6.25013E-15
 -1      3051 7.82447E-03-1.13936E-04-6.44681E-15
 -1      3052 5.63998E-03 8.89490E-04-4.30827E-15
 -1      3053 7.78327E-03-1.32591E-04-6.19322E-15
 -1      3054 3.96056E-03-4.00030E-04-2.17868E-15
 -1      3055 3.87674E-03-3.35519E-04-2.22259E-15
 -1      3056 3.73494E-03-2.85379E-04-2.12413E-15
 -1      3057 5.48044E-03-1.13267E-03-3.32987E-15
 -1      3058 4.87704E-03-9.75493E-04-2.58855E-15
 -1      3059 5.05636E-03-1.04863E-03-2.77755E-15
 -1      3060 1.41625E-02-1.96349E-04-3.46618E-14
 -1      3061 1.42825E-02-1.81928E-04-3.53930E-14
 -1      3062 1.42751E-02-1.40129E-04-3.54806E-14
 -1      3063 4.94276E-03 8.07988E-04-3.36051E-15
 -1      3064 5.67718E-03-1.10397E-03-3.62446E-15
 -1      3065 1.42448E-02-7.62250E-05-3.55006E-14
 -1      3066 6.16866E-03-9.18807E-04-4.27722E-15
 -1      3067 9.90702E-04 2.31191E-04-1.73445E-16
 -1      3068 7.55902E-03-5.52288E-05-6.11346E-15
 -1      3069 7.65937E-03-7.40202E-05-6.29290E-15
 -1      3070 7.51643E-03-3.09445E-05-6.24095E-15
 -1      3071 6.06429E-03 6.95280E-04-4.88388E-15
 -1      3072 6.19704E-03 6.28542E-04-5.08258E-15
 -1      3073 5.97438E-03 7.52145E-04-4.79022E-15
 -1      3074 7.26912E-03-2.93817E-04-5.51990E-15
 -1      3075 7.18928E-03 8.13994E-05-5.91160E-15
 -1      3076 3.42115E-03-1.47674E-04-2.10621E-15
 -1      3077 3.31661E-03-1.26335E-04-2.01898E-15
 -1      3078 3.50981E-03-1.88720E-04-2.07584E-15
 -1      3079 3.10663E-03-5.23699E-05-2.06724E-15
 -1      3080 3.20124E-03-1.93918E-05-2.13109E-15
 -1      3081 7.56395E-04-4.05156E-05-1.16985E-16
 -1      3082 7.59924E-04-5.75736E-05-1.13584E-16
 -1      3083 8.76035E-04-7.44319E-05-1.42356E-16
 -1      3084 8.67525E-04-3.63713E-05-1.50433E-16
 -1      3085 3.45528E-03 5.24218E-05-2.28065E-15
 -1      3086 3.77832E-03 1.76203E-04-2.46182E-15
 -1      3087 4.14287E-03 3.63044E-04-2.66482E-15
 -1      3088 5.12872E-03-1.05498E-03-2.91316E-15
 -1      3089 4.99251E-03-9.70373E-04-2.84416E-15
 -1      3090 4.87963E-03-9.21420E-04-2.71045E-15
 -1      3091 7.71772E-04-1.66836E-04-8.06240E-17
 -1      3092 6.55105E-03-6.75188E-04-4.76222E-15
 -1      3093 4.54906E-03 6.01214E-04-2.95967E-15
 -1      3094 5.59366E-03-1.11152E-03-3.52959E-15
 -1      3095 5.45495E-03-1.11248E-03-3.36843E-15
 -1      3096 5.29222E-03 9.16714E-04-3.80860E-15
 -1      3097 4.75361E-03-8.85497E-04-2.53680E-15
 -1      3098 5.36398E-03-1.10569E-03-3.23418E-15
 -1      3099 1.03984E-03 1.98264E-04-2.00008E-16
 -1      3100 1.02676E-03 1.69172E-04-2.02149E-16
 -1      3101 1.72980E-03-2.68919E-04-3.74470E-16
 -1      3102 1.87245E-03-2.75085E-04-4.39617E-16
 -1      3103 2.01508E-03-2.80284E-04-5.10375E-16
 -1      3104 2.15790E-03-2.84856E-04-5.87177E-16
 -1      3105 1.91960E-03-2.45549E-04-4.90656E-16
 -1      3106 2.30091E-03-2.89351E-04-6.69535E-16
 -1      3107 2.44443E-03-2.94220E-04-7.57247E-16
 -1      3108 2.20049E-03-2.53524E-04-6.46306E-16
 -1      3109 2.58861E-03-2.99992E-04-8.51383E-16
 -1      3110 2.73394E-03-3.07329E-04-9.51753E-16
 -1      3111 2.48171E-03-2.61400E-04-8.25430E-16
 -1      3112 2.88079E-03-3.16700E-04-1.05788E-15
 -1      3113 3.02988E-03-3.29180E-04-1.17007E-15
 -1      3114 2.76524E-03-2.72816E-04-1.02796E-15
 -1      3115 3.18191E-03-3.45125E-04-1.28906E-15
 -1      3116 3.33784E-03-3.66402E-04-1.41457E-15
 -1      3117 3.05494E-03-2.92299E-04-1.25518E-15
 -1      3118 3.49882E-03-3.93335E-04-1.54625E-15
 -1      3119 3.66570E-03-4.28698E-04-1.68420E-15
 -1      3120 3.35748E-03-3.26548E-04-1.50806E-15
 -1      3121 3.83665E-03-4.32263E-04-1.90207E-15
 -1      3122 4.01831E-03-4.89692E-04-2.05809E-15
 -1      3123 4.67911E-03-8.19903E-04-2.52867E-15
 -1      3124 6.36453E-03-8.30011E-04-4.54927E-15
 -1      3125 6.56284E-03-7.45133E-04-4.83207E-15
 -1      3126 6.75579E-03-6.70587E-04-5.12589E-15
 -1      3127 6.55245E-03-7.12149E-04-4.80075E-15
 -1      3128 6.94470E-03-6.09329E-04-5.43051E-15
 -1      3129 7.12578E-03-5.59273E-04-5.74486E-15
 -1      3130 6.94230E-03-5.68409E-04-5.39586E-15
 -1      3131 7.30044E-03-5.21310E-04-6.07000E-15
 -1      3132 7.46823E-03-4.92108E-04-6.40594E-15
 -1      3133 7.29982E-03-4.80824E-04-6.03364E-15
 -1      3134 7.63042E-03-4.71506E-04-6.75183E-15
 -1      3135 7.78780E-03-4.57114E-04-7.10685E-15
 -1      3136 7.62686E-03-4.34273E-04-6.71231E-15
 -1      3137 7.94126E-03-4.48550E-04-7.47107E-15
 -1      3138 8.09178E-03-4.44243E-04-7.84504E-15
 -1      3139 7.93256E-03-4.14435E-04-7.43008E-15
 -1      3140 8.23992E-03-4.43770E-04-8.22908E-15
 -1      3141 8.38642E-03-4.46225E-04-8.62261E-15
 -1      3142 8.22552E-03-4.11717E-04-8.18380E-15
 -1      3143 8.53159E-03-4.51192E-04-9.02512E-15
 -1      3144 8.67593E-03-4.58115E-04-9.43868E-15
 -1      3145 8.51177E-03-4.20172E-04-8.97615E-15
 -1      3146 8.81960E-03-4.66618E-04-9.86194E-15
 -1      3147 8.96290E-03-4.76363E-04-1.02947E-14
 -1      3148 8.79496E-03-4.35940E-04-9.80922E-15
 -1      3149 9.10589E-03-4.87031E-04-1.07373E-14
 -1      3150 9.24874E-03-4.98414E-04-1.11890E-14
 -1      3151 9.07716E-03-4.56300E-04-1.06794E-14
 -1      3152 9.39147E-03-5.10259E-04-1.16520E-14
 -1      3153 9.53419E-03-5.22439E-04-1.21250E-14
 -1      3154 9.35937E-03-4.79293E-04-1.15924E-14
 -1      3155 9.67687E-03-5.34770E-04-1.26054E-14
 -1      3156 9.81958E-03-5.47175E-04-1.30951E-14
 -1      3157 9.64204E-03-5.03516E-04-1.25412E-14
 -1      3158 9.96229E-03-5.59527E-04-1.35920E-14
 -1      3159 1.01050E-02-5.71786E-04-1.40978E-14
 -1      3160 9.92532E-03-5.27998E-04-1.35262E-14
 -1      3161 1.02478E-02-5.83870E-04-1.46136E-14
 -1      3162 1.03906E-02-5.95762E-04-1.51357E-14
 -1      3163 1.02092E-02-5.52108E-04-1.45428E-14
 -1      3164 1.05334E-02-6.07416E-04-1.56681E-14
 -1      3165 1.06763E-02-6.18828E-04-1.62101E-14
 -1      3166 1.04935E-02-5.75470E-04-1.55937E-14
 -1      3167 1.08191E-02-6.29977E-04-1.67584E-14
 -1      3168 1.09620E-02-6.40870E-04-1.73166E-14
 -1      3169 1.07783E-02-5.97894E-04-1.66789E-14
 -1      3170 1.11049E-02-6.51501E-04-1.78846E-14
 -1      3171 1.12477E-02-6.61882E-04-1.84616E-14
 -1      3172 1.10634E-02-6.19320E-04-1.77992E-14
 -1      3173 1.13906E-02-6.72020E-04-1.90512E-14
 -1      3174 1.15335E-02-6.81928E-04-1.96484E-14
 -1      3175 1.13486E-02-6.39773E-04-1.89613E-14
 -1      3176 1.16764E-02-6.91618E-04-2.02551E-14
 -1      3177 1.18193E-02-7.01105E-04-2.08735E-14
 -1      3178 1.16341E-02-6.59328E-04-2.01632E-14
 -1      3179 1.19622E-02-7.10404E-04-2.15026E-14
 -1      3180 1.21051E-02-7.19528E-04-2.21385E-14
 -1      3181 1.19197E-02-6.78088E-04-2.14053E-14
 -1      3182 1.22480E-02-7.28495E-04-2.27848E-14
 -1      3183 1.23909E-02-7.37316E-04-2.34416E-14
 -1      3184 1.22053E-02-6.96165E-04-2.26883E-14
 -1      3185 1.25338E-02-7.46007E-04-2.41081E-14
 -1      3186 1.26767E-02-7.54581E-04-2.47841E-14
 -1      3187 1.24910E-02-7.13672E-04-2.40065E-14
 -1      3188 1.28196E-02-7.63051E-04-2.54741E-14
 -1      3189 1.29624E-02-7.71426E-04-2.61746E-14
 -1      3190 1.27767E-02-7.30714E-04-2.53694E-14
 -1      3191 1.31053E-02-7.79721E-04-2.68861E-14
 -1      3192 1.32482E-02-7.87944E-04-2.76109E-14
 -1      3193 1.30625E-02-7.47386E-04-2.67778E-14
 -1      3194 1.33911E-02-7.96105E-04-2.83439E-14
 -1      3195 1.35339E-02-8.04213E-04-2.90862E-14
 -1      3196 1.33482E-02-7.63771E-04-2.82307E-14
 -1      3197 1.36768E-02-8.12277E-04-2.98354E-14
 -1      3198 1.38197E-02-8.20302E-04-3.05936E-14
 -1      3199 1.36340E-02-7.79943E-04-2.97211E-14
 -1      3200 2.13086E-03 3.20097E-04-7.03132E-16
 -1      3201 1.98489E-03 3.14213E-04-6.14905E-16
 -1      3202 3.34598E-03 4.11102E-04-1.65987E-15
 -1      3203 3.18619E-03 3.89183E-04-1.51577E-15
 -1      3204 3.02938E-03 3.71984E-04-1.37817E-15
 -1      3205 2.87538E-03 3.58259E-04-1.24823E-15
 -1      3206 3.06866E-03 3.33871E-04-1.44654E-15
 -1      3207 4.02369E-03 5.59495E-04-2.31218E-15
 -1      3208 3.84868E-03 5.11721E-04-2.13714E-15
 -1      3209 4.38354E-03 6.75896E-04-2.68557E-15
 -1      3210 4.20320E-03 6.14225E-04-2.49469E-15
 -1      3211 4.07382E-03 5.25723E-04-2.39607E-15
 -1      3212 4.80763E-03 8.02853E-04-3.17936E-15
 -1      3213 4.62462E-03 7.32845E-04-2.96733E-15
 -1      3214 5.16029E-03 9.19915E-04-3.63796E-15
 -1      3215 4.98678E-03 8.73005E-04-3.40456E-15
 -1      3216 5.47246E-03 9.47725E-04-4.10871E-15
 -1      3217 5.30519E-03 9.46422E-04-3.85362E-15
 -1      3218 6.09488E-03 7.75955E-04-5.15015E-15
 -1      3219 5.91957E-03 8.44597E-04-4.85603E-15
 -1      3220 6.45449E-03 6.26764E-04-5.76214E-15
 -1      3221 6.27415E-03 7.00688E-04-5.45173E-15
 -1      3222 6.21240E-03 6.90872E-04-5.28202E-15
 -1      3223 6.81363E-03 4.93408E-04-6.41035E-15
 -1      3224 6.63537E-03 5.56723E-04-6.08229E-15
 -1      3225 6.58414E-03 5.33656E-04-5.90307E-15
 -1      3226 7.16099E-03 3.89579E-04-7.09057E-15
 -1      3227 6.98977E-03 4.38026E-04-6.74568E-15
 -1      3228 6.94731E-03 4.06630E-04-6.55769E-15
 -1      3229 7.49203E-03 3.13807E-04-7.81130E-15
 -1      3230 7.32863E-03 3.48560E-04-7.44659E-15
 -1      3231 7.29126E-03 3.14703E-04-7.24736E-15
 -1      3232 7.80875E-03 2.60942E-04-8.56707E-15
 -1      3233 7.65206E-03 2.85041E-04-8.18487E-15
 -1      3234 7.61546E-03 2.50911E-04-7.97527E-15
 -1      3235 8.11460E-03 2.24889E-04-9.36255E-15
 -1      3236 7.96284E-03 2.41229E-04-8.95963E-15
 -1      3237 7.92444E-03 2.07721E-04-8.73943E-15
 -1      3238 8.41299E-03 2.00640E-04-1.01975E-14
 -1      3239 8.26455E-03 2.11592E-04-9.77586E-15
 -1      3240 8.22295E-03 1.78661E-04-9.54376E-15
 -1      3241 8.70660E-03 1.84311E-04-1.10693E-14
 -1      3242 8.56025E-03 1.91699E-04-1.06288E-14
 -1      3243 8.51492E-03 1.59050E-04-1.03862E-14
 -1      3244 8.99724E-03 1.72988E-04-1.19782E-14
 -1      3245 8.85218E-03 1.78174E-04-1.15182E-14
 -1      3246 8.80314E-03 1.45562E-04-1.12655E-14
 -1      3247 9.28609E-03 1.64530E-04-1.29225E-14
 -1      3248 9.14182E-03 1.68504E-04-1.24478E-14
 -1      3249 9.08939E-03 1.35796E-04-1.21832E-14
 -1      3250 9.57386E-03 1.57415E-04-1.39028E-14
 -1      3251 9.43006E-03 1.60874E-04-1.34074E-14
 -1      3252 9.37471E-03 1.28027E-04-1.31364E-14
 -1      3253 9.86098E-03 1.50610E-04-1.49168E-14
 -1      3254 9.71747E-03 1.54018E-04-1.44048E-14
 -1      3255 9.65969E-03 1.21045E-04-1.41235E-14
 -1      3256 1.01477E-02 1.43448E-04-1.59639E-14
 -1      3257 1.00044E-02 1.47100E-04-1.54356E-14
 -1      3258 9.94463E-03 1.14039E-04-1.51456E-14
 -1      3259 1.04341E-02 1.35541E-04-1.70546E-14
 -1      3260 1.02909E-02 1.39601E-04-1.65040E-14
 -1      3261 1.02297E-02 1.06497E-04-1.62020E-14
 -1      3262 1.07204E-02 1.26694E-04-1.81880E-14
 -1      3263 1.05773E-02 1.31240E-04-1.76152E-14
 -1      3264 1.05149E-02 9.81301E-05-1.73004E-14
 -1      3265 1.10065E-02 1.16849E-04-1.93688E-14
 -1      3266 1.08635E-02 1.21896E-04-1.87719E-14
 -1      3267 1.08002E-02 8.88106E-05-1.84431E-14
 -1      3268 1.12925E-02 1.06032E-04-2.06011E-14
 -1      3269 1.11495E-02 1.11559E-04-1.99802E-14
 -1      3270 1.10856E-02 7.85169E-05-1.96339E-14
 -1      3271 1.15785E-02 9.43218E-05-2.18725E-14
 -1      3272 1.14355E-02 1.00283E-04-2.12311E-14
 -1      3273 1.13712E-02 6.72965E-05-2.08726E-14
 -1      3274 1.18644E-02 8.18220E-05-2.31833E-14
 -1      3275 1.17214E-02 8.81643E-05-2.25221E-14
 -1      3276 1.16568E-02 5.52365E-05-2.21522E-14
 -1      3277 1.21502E-02 6.86473E-05-2.45383E-14
 -1      3278 1.20073E-02 7.53127E-05-2.38558E-14
 -1      3279 1.19425E-02 4.24430E-05-2.34731E-14
 -1      3280 1.24360E-02 5.49109E-05-2.59284E-14
 -1      3281 1.22931E-02 6.18433E-05-2.52282E-14
 -1      3282 1.22282E-02 2.90277E-05-2.48346E-14
 -1      3283 1.27218E-02 4.07188E-05-2.73651E-14
 -1      3284 1.25789E-02 4.78664E-05-2.66413E-14
 -1      3285 1.25139E-02 1.50985E-05-2.62350E-14
 -1      3286 1.30076E-02 2.61663E-05-2.88424E-14
 -1      3287 1.28647E-02 3.34827E-05-2.80987E-14
 -1      3288 1.27997E-02 7.55275E-07-2.76764E-14
 -1      3289 1.32933E-02 1.13373E-05-3.03597E-14
 -1      3290 1.31505E-02 1.87821E-05-2.95972E-14
 -1      3291 1.30854E-02-1.39131E-05-2.91638E-14
 -1      3292 1.35791E-02-3.69524E-06-3.19111E-14
 -1      3293 1.34362E-02 3.84270E-06-3.11297E-14
 -1      3294 1.33712E-02-2.88286E-05-3.06869E-14
 -1      3295 1.42248E-02-8.38808E-04-3.27843E-14
 -1      3296 9.83855E-04 4.99127E-05-2.00781E-16
 -1      3297 9.80076E-04 2.94294E-05-1.98572E-16
 -1      3298 1.41187E-02-6.30193E-04-3.29574E-14
 -1      3299 1.41109E-02-5.88069E-04-3.30620E-14
 -1      3300 1.40880E-02-4.63135E-04-3.33699E-14
 -1      3301 1.40803E-02-4.21017E-04-3.34680E-14
 -1      3302 1.41343E-02-7.14453E-04-3.27382E-14
 -1      3303 1.41265E-02-6.72322E-04-3.28488E-14
 -1      3304 1.39988E-02-6.44413E-04-3.22329E-14
 -1      3305 1.41032E-02-5.46303E-04-3.31662E-14
 -1      3306 1.40956E-02-5.04897E-04-3.32685E-14
 -1      3307 1.39680E-02-4.77066E-04-3.26461E-14
 -1      3308 1.39833E-02-5.60554E-04-3.24426E-14
 -1      3309 7.67262E-03-1.75319E-04-6.11878E-15
 -1      3310 7.54151E-03-2.12613E-04-5.94164E-15
 -1      3311 3.67683E-03 4.71642E-04-1.97002E-15
 -1      3312 3.50960E-03 4.38118E-04-1.81096E-15
 -1      3313 3.38516E-03 3.72012E-04-1.73342E-15
 -1      3314 3.71924E-03 4.33337E-04-2.04926E-15
 -1      3315 1.41248E-02-9.06719E-05-3.47656E-14
 -1      3316 7.84740E-03-1.33992E-04-6.49444E-15
 -1      3317 7.78853E-03-1.48936E-04-6.34782E-15
 -1      3318 7.05732E-03-4.16077E-04-5.39404E-15
 -1      3319 6.90672E-03-4.96835E-04-5.22656E-15
 -1      3320 5.08620E-03-1.02466E-03-2.90665E-15
 -1      3321 8.86650E-04-1.72536E-04-1.09111E-16
 -1      3322 1.44465E-03-2.51759E-04-2.61482E-16
 -1      3323 1.58724E-03-2.61241E-04-3.15042E-16
 -1      3324 1.63830E-03-2.34266E-04-3.57760E-16
 -1      3325 3.12601E-03-2.46268E-05-2.01986E-15
 -1      3326 3.21622E-03 2.20261E-07-2.07167E-15
 -1      3327 3.37075E-03 4.66467E-05-2.16430E-15
 -1      3328 3.52009E-03 9.21704E-05-2.25959E-15
 -1      3329 3.16582E-03-8.75192E-05-1.95357E-15
 -1      3330 3.10906E-03-7.12174E-05-1.95691E-15
 -1      3331 7.11922E-03 1.32279E-04-6.03423E-15
 -1      3332 7.31744E-03 4.91400E-05-6.18753E-15
 -1      3333 7.38532E-03-2.69517E-04-5.75799E-15
 -1      3334 7.22334E-03-3.35926E-04-5.57374E-15
 -1      3335 7.19394E-03-3.80303E-04-5.62854E-15
 -1      3336 3.99257E-03 3.11426E-04-2.51416E-15
 -1      3337 4.17709E-03 4.15743E-04-2.63174E-15
 -1      3338 3.66380E-03 1.49267E-04-2.33819E-15
 -1      3339 3.81612E-03 2.18885E-04-2.41914E-15
 -1      3340 3.55605E-03 1.33267E-04-2.21864E-15
 -1      3341 6.75360E-03-5.88458E-04-5.05305E-15
 -1      3342 3.07515E-03-5.62506E-05-1.96520E-15
 -1      3343 3.07246E-03-4.48414E-05-1.97577E-15
 -1      3344 1.15503E-03 2.59439E-04-2.25473E-16
 -1      3345 1.08632E-03 2.23857E-04-2.10145E-16
 -1      3346 1.20148E-03 2.21677E-04-2.55953E-16
 -1      3347 1.29948E-03 2.75939E-04-2.78572E-16
 -1      3348 4.52246E-03-7.26365E-04-2.42464E-15
 -1      3349 4.49750E-03 6.40886E-04-2.85311E-15
 -1      3350 9.78010E-04 9.46397E-06-1.95671E-16
 -1      3351 9.77720E-04-1.02764E-05-1.92351E-16
 -1      3352 1.09218E-03 2.07348E-05-2.39229E-16
 -1      3353 7.88159E-03-1.19298E-04-6.72020E-15
 -1      3354 7.87060E-03-1.26196E-04-6.60751E-15
 -1      3355 7.90421E-03-1.40122E-04-6.76876E-15
 -1      3356 3.67024E-03-3.45110E-04-1.85643E-15
 -1      3357 7.73884E-03-8.56079E-05-6.49071E-15
 -1      3358 5.39724E-03-1.12130E-03-3.24208E-15
 -1      3359 5.27158E-03-1.09023E-03-3.10892E-15
 -1      3360 1.40425E-02-2.10583E-04-3.39350E-14
 -1      3361 1.40350E-02-1.68809E-04-3.40174E-14
 -1      3362 3.15935E-03 1.71510E-05-1.94241E-15
 -1      3363 3.25894E-03 2.79595E-05-2.05137E-15
 -1      3364 3.30338E-03 6.12176E-05-2.03061E-15
 -1      3365 4.21399E-03-5.98326E-04-2.14265E-15
 -1      3366 4.40864E-03-6.81357E-04-2.31050E-15
 -1      3367 7.50301E-03-2.49033E-04-6.00067E-15
 -1      3368 7.77197E-03-1.69548E-04-6.41962E-15
 -1      3369 1.18864E-03-2.26535E-04-1.79544E-16
 -1      3370 1.31654E-03-2.40112E-04-2.18535E-16
 -1      3371 1.37089E-03-2.16702E-04-2.53093E-16
 -1      3372 2.99979E-03-3.67073E-05-1.82217E-15
 -1      3373 3.05725E-03-3.18854E-05-1.91925E-15
 -1      3374 3.04805E-03-1.60780E-05-1.86324E-15
 -1      3375 2.27746E-03 3.25842E-04-7.98244E-16
 -1      3376 2.17794E-03 2.86836E-04-7.53561E-16
 -1      3377 2.42493E-03 3.31944E-04-9.00958E-16
 -1      3378 1.39270E-02-8.19543E-04-3.11927E-14
 -1      3379 1.40698E-02-8.27518E-04-3.19590E-14
 -1      3380 1.01222E-03-1.90146E-04-1.38954E-16
 -1      3381 1.40236E-02-1.22755E-04-3.40883E-14
 -1      3382 1.39934E-02-5.88828E-05-3.41033E-14
 -1      3383 1.38807E-02-4.49260E-05-3.34994E-14
 -1      3384 1.39036E-02-1.37015E-04-3.33666E-14
 -1      3385 2.76477E-03 3.10940E-04-1.18807E-15
 -1      3386 2.72353E-03 3.47560E-04-1.12539E-15
 -1      3387 2.57352E-03 3.38960E-04-1.00980E-15
 -1      3388 4.15499E-03 4.79688E-04-2.53180E-15
 -1      3389 4.30927E-03 5.30823E-04-2.68645E-15
 -1      3390 6.89098E-03-5.44380E-04-5.26873E-15
 -1      3391 5.74914E-03 9.04589E-04-4.57413E-15
 -1      3392 5.58225E-03 9.43490E-04-4.30019E-15
 -1      3393 1.41464E-02-7.97720E-04-3.24977E-14
 -1      3394 1.37862E-02-3.12582E-05-3.29997E-14
 -1      3395 1.36736E-02-1.73322E-05-3.24041E-14
 -1      3396 1.36086E-02-4.99880E-05-3.19511E-14
 -1      3397 1.37976E-02-7.72975E-05-3.29389E-14
 -1      3398 1.40575E-02-2.94835E-04-3.37541E-14
 -1      3399 1.40500E-02-2.52711E-04-3.38466E-14
 -1      3400 1.39225E-02-2.25167E-04-3.32114E-14
 -1      3401 9.89319E-04 7.11067E-05-2.02258E-16
 -1      3402 1.10098E-03 6.48970E-05-2.44406E-16
 -1      3403 9.96352E-04 9.33666E-05-2.03301E-16
 -1      3404 1.40727E-02-3.78988E-04-3.35638E-14
 -1      3405 1.40651E-02-3.36868E-04-3.36602E-14
 -1      3406 1.39376E-02-3.09293E-04-3.30300E-14
 -1      3407 1.39528E-02-3.93315E-04-3.28419E-14
 -1      3408 6.43717E-03 5.05298E-04-5.42581E-15
 -1      3409 6.58871E-03 4.11105E-04-5.57319E-15
 -1      3410 1.41267E-02-7.64423E-04-3.25113E-14
 -1      3411 7.45194E-03 7.89641E-06-6.36890E-15
 -1      3412 7.57367E-03-2.12864E-05-6.55245E-15
 -1      3413 7.39645E-03 5.33041E-05-6.49529E-15
 -1      3414 5.93781E-03 7.88405E-04-4.79017E-15
 -1      3415 6.06096E-03 7.32326E-04-4.98639E-15
 -1      3416 1.38841E-02-7.87209E-04-3.10737E-14
 -1      3417 5.84884E-03 8.46787E-04-4.69744E-15
 -1      3418 1.39990E-02-7.36479E-04-3.18999E-14
 -1      3419 5.75361E-03 8.62594E-04-4.50966E-15
 -1      3420 1.58912E-03 3.00656E-04-4.02117E-16
 -1      3421 1.44413E-03 2.89544E-04-3.37526E-16
 -1      3422 1.39328E-03 2.61613E-04-3.24881E-16
 -1      3423 1.00263E-03-1.15627E-04-1.67875E-16
 -1      3424 1.01261E-03-1.40139E-04-1.60923E-16
 -1      3425 3.28110E-03-1.37630E-04-1.89625E-15
 -1      3426 3.21912E-03-1.09610E-04-1.92543E-15
 -1      3427 3.13122E-03-9.88962E-05-1.83392E-15
 -1      3428 5.56246E-03 9.20757E-04-4.22402E-15
 -1      3429 1.14056E-03 1.66904E-04-2.45843E-16
 -1      3430 1.01510E-03 1.42214E-04-2.03152E-16
 -1      3431 1.00502E-03 1.17054E-04-2.03613E-16
 -1      3432 1.85962E-03 3.12478E-04-5.41667E-16
 -1      3433 1.71427E-03 3.04830E-04-4.64784E-16
 -1      3434 1.66132E-03 2.76839E-04-4.49483E-16
 -1      3435 1.90950E-03 2.81204E-04-5.86133E-16
 -1      3436 6.95206E-03 2.18024E-04-5.93048E-15
 -1      3437 7.10377E-03 1.73421E-04-6.20469E-15
 -1      3438 3.04750E-03-6.28549E-05-1.86936E-15
 -1      3439 5.57261E-03-1.12677E-03-3.46270E-15
 -1      3440 3.86149E-03 2.75770E-04-2.38749E-15
 -1      3441 9.87498E-04-7.09178E-05-1.79517E-16
 -1      3442 9.94200E-04-9.26565E-05-1.74055E-16
 -1      3443 1.11448E-03-1.12041E-04-2.08695E-16
 -1      3444 6.78931E-03 3.02148E-04-5.77931E-15
 -1      3445 4.34998E-03-6.08528E-04-2.36962E-15
 -1      3446 4.17697E-03-5.16178E-04-2.26827E-15
 -1      3447 2.10384E-03-2.20023E-04-6.22169E-16
 -1      3448 2.24162E-03-2.22983E-04-7.07239E-16
 -1      3449 2.37909E-03-2.25975E-04-7.98244E-16
 -1      3450 2.51667E-03-2.29327E-04-8.95009E-16
 -1      3451 2.28136E-03-1.93261E-04-7.69811E-16
 -1      3452 2.65434E-03-2.33407E-04-9.96829E-16
 -1      3453 2.79288E-03-2.38772E-04-1.10540E-15
 -1      3454 2.54933E-03-1.97987E-04-9.65414E-16
 -1      3455 2.93237E-03-2.45712E-04-1.22065E-15
 -1      3456 3.07418E-03-2.55301E-04-1.34182E-15
 -1      3457 2.81669E-03-2.05068E-04-1.18490E-15
 -1      3458 3.21866E-03-2.67750E-04-1.46905E-15
 -1      3459 3.36781E-03-2.85419E-04-1.60255E-15
 -1      3460 3.08717E-03-2.17792E-04-1.42937E-15
 -1      3461 7.72305E-03-6.73620E-05-6.66715E-15
 -1      3462 7.81768E-03-9.26332E-05-6.73694E-15
 -1      3463 7.62034E-03-2.37014E-04-6.28091E-15
 -1      3464 7.48125E-03-2.88345E-04-6.08961E-15
 -1      3465 7.07705E-03-4.89167E-04-5.57825E-15
 -1      3466 7.25385E-03-4.49958E-04-5.89654E-15
 -1      3467 7.42078E-03-4.21309E-04-6.22682E-15
 -1      3468 7.21449E-03-4.17260E-04-5.76123E-15
 -1      3469 7.60136E-03-3.90524E-04-6.59874E-15
 -1      3470 7.75286E-03-3.79296E-04-6.94932E-15
 -1      3471 7.89975E-03-3.73677E-04-7.30897E-15
 -1      3472 8.04364E-03-3.71575E-04-7.67762E-15
 -1      3473 7.87324E-03-3.32269E-04-7.18738E-15
 -1      3474 8.18508E-03-3.72810E-04-8.05866E-15
 -1      3475 8.32517E-03-3.76366E-04-8.44660E-15
 -1      3476 8.14902E-03-3.34337E-04-7.92981E-15
 -1      3477 8.46418E-03-3.82027E-04-8.84149E-15
 -1      3478 8.60278E-03-3.89252E-04-9.24759E-15
 -1      3479 8.41976E-03-3.44847E-04-8.70690E-15
 -1      3480 8.74108E-03-3.97796E-04-9.66601E-15
 -1      3481 8.87946E-03-4.07381E-04-1.00925E-14
 -1      3482 8.68961E-03-3.60864E-04-9.52112E-15
 -1      3483 9.01792E-03-4.17762E-04-1.05297E-14
 -1      3484 9.15669E-03-4.28778E-04-1.09762E-14
 -1      3485 8.96061E-03-3.80483E-04-1.03780E-14
 -1      3486 9.29570E-03-4.40216E-04-1.14311E-14
 -1      3487 9.43509E-03-4.51981E-04-1.18982E-14
 -1      3488 9.23361E-03-4.02333E-04-1.12719E-14
 -1      3489 9.57478E-03-4.63902E-04-1.23746E-14
 -1      3490 9.71484E-03-4.75923E-04-1.28602E-14
 -1      3491 9.50882E-03-4.25357E-04-1.22063E-14
 -1      3492 9.85519E-03-4.87920E-04-1.33537E-14
 -1      3493 9.99587E-03-4.99861E-04-1.38533E-14
 -1      3494 9.78614E-03-4.48763E-04-1.31783E-14
 -1      3495 1.01368E-02-5.11663E-04-1.43630E-14
 -1      3496 1.02780E-02-5.23311E-04-1.48813E-14
 -1      3497 1.00653E-02-4.71988E-04-1.41826E-14
 -1      3498 1.04194E-02-5.34754E-04-1.54062E-14
 -1      3499 1.05611E-02-5.45989E-04-1.59405E-14
 -1      3500 1.03461E-02-4.94665E-04-1.52179E-14
 -1      3501 1.07029E-02-5.56990E-04-1.64807E-14
 -1      3502 1.08449E-02-5.67761E-04-1.70319E-14
 -1      3503 1.06281E-02-5.16586E-04-1.62837E-14
 -1      3504 1.09870E-02-5.78294E-04-1.75936E-14
 -1      3505 1.11292E-02-5.88597E-04-1.81634E-14
 -1      3506 1.09111E-02-5.37659E-04-1.73870E-14
 -1      3507 1.12716E-02-5.98674E-04-1.87465E-14
 -1      3508 1.14140E-02-6.08535E-04-1.93383E-14
 -1      3509 1.11949E-02-5.57875E-04-1.85302E-14
 -1      3510 1.15566E-02-6.18191E-04-1.99388E-14
 -1      3511 1.16991E-02-6.27654E-04-2.05505E-14
 -1      3512 1.14793E-02-5.77281E-04-1.97144E-14
 -1      3513 1.18418E-02-6.36937E-04-2.11723E-14
 -1      3514 1.19845E-02-6.46052E-04-2.18054E-14
 -1      3515 1.17641E-02-5.95955E-04-2.09405E-14
 -1      3516 1.21272E-02-6.55016E-04-2.24476E-14
 -1      3517 1.22700E-02-6.63837E-04-2.30995E-14
 -1      3518 1.20492E-02-6.13989E-04-2.22073E-14
 -1      3519 1.24128E-02-6.72533E-04-2.37609E-14
 -1      3520 1.25556E-02-6.81112E-04-2.44345E-14
 -1      3521 1.23346E-02-6.31481E-04-2.35149E-14
 -1      3522 1.26984E-02-6.89589E-04-2.51161E-14
 -1      3523 1.28412E-02-6.97973E-04-2.58105E-14
 -1      3524 1.26201E-02-6.48525E-04-2.48634E-14
 -1      3525 1.29841E-02-7.06277E-04-2.65157E-14
 -1      3526 1.31269E-02-7.14507E-04-2.72333E-14
 -1      3527 1.29058E-02-6.65208E-04-2.62545E-14
 -1      3528 1.32698E-02-7.22676E-04-2.79599E-14
 -1      3529 1.34127E-02-7.30789E-04-2.86971E-14
 -1      3530 1.31914E-02-6.81607E-04-2.76889E-14
 -1      3531 1.35556E-02-7.38858E-04-2.94439E-14
 -1      3532 1.36984E-02-7.46886E-04-3.01958E-14
 -1      3533 1.34772E-02-6.97790E-04-2.91654E-14
 -1      3534 1.07007E-03-1.72764E-04-1.65368E-16
 -1      3535 3.96858E-03 4.22129E-04-2.35085E-15
 -1      3536 6.25122E-03 6.44164E-04-5.28492E-15
 -1      3537 7.42519E-03 2.42092E-04-7.40338E-15
 -1      3538 7.26040E-03 2.77203E-04-7.04927E-15
 -1      3539 7.73968E-03 1.91320E-04-8.13907E-15
 -1      3540 7.58479E-03 2.14367E-04-7.76672E-15
 -1      3541 7.55962E-03 1.75704E-04-7.55856E-15
 -1      3542 8.03925E-03 1.57520E-04-8.91127E-15
 -1      3543 7.89090E-03 1.72842E-04-8.52001E-15
 -1      3544 7.86189E-03 1.36992E-04-8.30189E-15
 -1      3545 8.32970E-03 1.34785E-04-9.72411E-15
 -1      3546 8.18529E-03 1.45130E-04-9.31212E-15
 -1      3547 8.15114E-03 1.11476E-04-9.08305E-15
 -1      3548 8.61512E-03 1.19121E-04-1.05758E-14
 -1      3549 8.47282E-03 1.26282E-04-1.01460E-14
 -1      3550 8.43348E-03 9.39490E-05-9.90420E-15
 -1      3551 8.89811E-03 1.07888E-04-1.14636E-14
 -1      3552 8.75678E-03 1.13089E-04-1.10150E-14
 -1      3553 8.71263E-03 8.13474E-05-1.07646E-14
 -1      3554 9.18021E-03 9.92133E-05-1.23890E-14
 -1      3555 9.03918E-03 1.03320E-04-1.19211E-14
 -1      3556 8.99079E-03 7.16994E-05-1.16619E-14
 -1      3557 9.46228E-03 9.17790E-05-1.33486E-14
 -1      3558 9.32120E-03 9.54000E-05-1.28649E-14
 -1      3559 9.26919E-03 6.36374E-05-1.25926E-14
 -1      3560 9.74474E-03 8.46661E-05-1.43440E-14
 -1      3561 9.60343E-03 8.82197E-05-1.38421E-14
 -1      3562 9.54841E-03 5.62000E-05-1.35623E-14
 -1      3563 1.00277E-02 7.72642E-05-1.53739E-14
 -1      3564 9.88615E-03 8.10233E-05-1.48548E-14
 -1      3565 9.82868E-03 4.87204E-05-1.45654E-14
 -1      3566 1.03113E-02 6.91988E-05-1.64394E-14
 -1      3567 1.01694E-02 7.33257E-05-1.59012E-14
 -1      3568 1.01100E-02 4.07611E-05-1.56033E-14
 -1      3569 1.05954E-02 6.02705E-05-1.75450E-14
 -1      3570 1.04533E-02 6.48463E-05-1.69859E-14
 -1      3571 1.03923E-02 3.20627E-05-1.66744E-14
 -1      3572 1.08799E-02 5.04048E-05-1.86950E-14
 -1      3573 1.07376E-02 5.54537E-05-1.81152E-14
 -1      3574 1.06755E-02 2.24990E-05-1.77889E-14
 -1      3575 1.11647E-02 3.96114E-05-1.98981E-14
 -1      3576 1.10223E-02 4.51199E-05-1.92915E-14
 -1      3577 1.09593E-02 1.20389E-05-1.89499E-14
 -1      3578 1.14499E-02 2.79527E-05-2.11428E-14
 -1      3579 1.13073E-02 3.38844E-05-2.05144E-14
 -1      3580 1.12437E-02 7.15347E-07-2.01587E-14
 -1      3581 1.17352E-02 1.55204E-05-2.24319E-14
 -1      3582 1.15925E-02 2.18268E-05-2.17825E-14
 -1      3583 1.15285E-02-1.13999E-05-2.14130E-14
 -1      3584 1.20207E-02 2.41907E-06-2.37610E-14
 -1      3585 1.18779E-02 9.04687E-06-2.30894E-14
 -1      3586 1.18136E-02-2.42144E-05-2.27107E-14
 -1      3587 1.23063E-02-1.12451E-05-2.51306E-14
 -1      3588 1.21635E-02-4.34881E-06-2.44420E-14
 -1      3589 1.20989E-02-3.76281E-05-2.40476E-14
 -1      3590 1.25920E-02-2.53712E-05-2.65381E-14
 -1      3591 1.24491E-02-1.82560E-05-2.58290E-14
 -1      3592 1.23844E-02-5.15421E-05-2.54256E-14
 -1      3593 1.28777E-02-3.98669E-05-2.79895E-14
 -1      3594 1.27348E-02-3.25777E-05-2.72590E-14
 -1      3595 1.26700E-02-6.58638E-05-2.68403E-14
 -1      3596 1.31634E-02-5.46509E-05-2.94835E-14
 -1      3597 1.30205E-02-4.72271E-05-2.87310E-14
 -1      3598 1.29557E-02-8.05097E-05-2.83010E-14
 -1      3599 1.34491E-02-6.96519E-05-3.10106E-14
 -1      3600 1.33063E-02-6.21279E-05-3.02419E-14
 -1      3601 1.32414E-02-9.54064E-05-2.97995E-14
 -1      3602 6.34166E-03 5.84120E-04-5.38438E-15
 -1      3603 6.47857E-03 5.35664E-04-5.63281E-15
 -1      3604 7.87142E-03-1.70014E-04-6.75225E-15
 -1      3605 7.75969E-03-1.95859E-04-6.51543E-15
 -1      3606 7.75029E-03-2.27656E-04-6.61164E-15
 -1      3607 6.76013E-03 3.53006E-04-5.88517E-15
 -1      3608 1.38790E-02-6.58607E-04-3.15157E-14
 -1      3609 1.38712E-02-6.16512E-04-3.16211E-14
 -1      3610 3.62180E-03-2.49720E-04-2.03808E-15
 -1      3611 3.49238E-03-2.13283E-04-1.95214E-15
 -1      3612 3.69987E-03-3.06404E-04-1.99678E-15
 -1      3613 9.79220E-04-3.00467E-05-1.88638E-16
 -1      3614 9.82466E-04-5.01515E-05-1.84409E-16
 -1      3615 1.09896E-03-6.53237E-05-2.21435E-16
 -1      3616 6.66793E-03 4.58741E-04-5.94964E-15
 -1      3617 3.44468E-03 1.22810E-04-2.09104E-15
 -1      3618 3.57348E-03 1.74364E-04-2.16494E-15
 -1      3619 3.00953E-03-7.10418E-05-1.75672E-15
 -1      3620 2.97936E-03-5.54167E-05-1.76411E-15
 -1      3621 3.10383E-03 2.94402E-04-1.51478E-15
 -1      3622 2.95196E-03 2.82484E-04-1.37852E-15
 -1      3623 7.35817E-03-3.49469E-04-5.94979E-15
 -1      3624 6.84346E-03 3.65096E-04-6.16599E-15
 -1      3625 1.18314E-03-1.69839E-04-2.06703E-16
 -1      3626 1.34363E-03 2.34880E-04-3.11911E-16
 -1      3627 1.29530E-03 2.09257E-04-2.98901E-16
 -1      3628 1.48619E-03 2.45706E-04-3.73928E-16
 -1      3629 3.70534E-03 2.54126E-04-2.21414E-15
 -1      3630 3.85606E-03 3.34593E-04-2.30243E-15
 -1      3631 3.79909E-03 3.94489E-04-2.17549E-15
 -1      3632 3.57773E-03 2.35486E-04-2.08491E-15
 -1      3633 1.82747E-03-2.12710E-04-4.69988E-16
 -1      3634 1.96586E-03-2.16678E-04-5.43402E-16
 -1      3635 2.01129E-03-1.88502E-04-5.97219E-16
 -1      3636 7.10362E-03 2.11373E-04-6.37650E-15
 -1      3637 7.24822E-03 1.37074E-04-6.48746E-15
 -1      3638 1.54992E-03-2.01449E-04-3.40101E-16
 -1      3639 1.68885E-03-2.07704E-04-4.02225E-16
 -1      3640 1.73890E-03-1.81546E-04-4.48467E-16
 -1      3641 7.02404E-03 3.08344E-04-6.49548E-15
 -1      3642 7.89693E-03-1.08703E-04-6.90188E-15
 -1      3643 7.95985E-03-1.22196E-04-7.06885E-15
 -1      3644 7.90523E-03-9.52205E-05-7.08515E-15
 -1      3645 3.06638E-03 3.81381E-06-1.84427E-15
 -1      3646 3.08964E-03 2.78666E-05-1.82474E-15
 -1      3647 2.98412E-03-5.30600E-06-1.74903E-15
 -1      3648 1.21984E-03 8.09899E-05-2.92071E-16
 -1      3649 1.21260E-03 5.67228E-05-2.90051E-16
 -1      3650 4.16130E-03-5.50587E-04-2.15459E-15
 -1      3651 2.46899E-03 2.96910E-04-9.57025E-16
 -1      3652 3.31903E-03 9.75340E-05-1.98019E-15
 -1      3653 7.68216E-03-3.72962E-05-6.80003E-15
 -1      3654 7.49571E-03-3.27318E-04-6.22920E-15
 -1      3655 1.27952E-03 1.77981E-04-3.00636E-16
 -1      3656 7.17474E-03 2.67945E-04-6.78385E-15
 -1      3657 2.93955E-03-4.32162E-05-1.71180E-15
 -1      3658 7.56188E-03-3.56789E-04-6.45186E-15
 -1      3659 7.91774E-03-1.57427E-04-6.86965E-15
 -1      3660 7.92558E-03-1.78692E-04-6.97055E-15
 -1      3661 7.95409E-03-1.47818E-04-6.98711E-15
 -1      3662 1.38205E-02-1.69358E-04-3.28013E-14
 -1      3663 1.38090E-02-1.23331E-04-3.28704E-14
 -1      3664 1.37145E-02-1.09660E-04-3.23779E-14
 -1      3665 1.20749E-03 3.32467E-05-2.87137E-16
 -1      3666 1.20470E-03 1.03298E-05-2.83329E-16
 -1      3667 1.32407E-03 4.68040E-05-3.39111E-16
 -1      3668 3.62633E-03 3.57736E-04-2.00844E-15
 -1      3669 1.38714E-02-7.50864E-04-3.11377E-14
 -1      3670 1.38791E-02-7.00932E-04-3.13611E-14
 -1      3671 1.38481E-02-4.91152E-04-3.19249E-14
 -1      3672 1.38405E-02-4.49432E-04-3.20256E-14
 -1      3673 1.11733E-03 1.12938E-04-2.46697E-16
 -1      3674 2.80294E-03 2.73747E-04-1.24991E-15
 -1      3675 2.65606E-03 2.66957E-04-1.12875E-15
 -1      3676 2.83780E-03 2.35771E-04-1.31237E-15
 -1      3677 1.38328E-02-4.07445E-04-3.21225E-14
 -1      3678 1.38252E-02-3.65458E-04-3.22166E-14
 -1      3679 1.37129E-02-4.21553E-04-3.14073E-14
 -1      3680 1.37514E-02-6.72993E-04-3.07562E-14
 -1      3681 1.38635E-02-5.74601E-04-3.17259E-14
 -1      3682 1.38558E-02-5.32875E-04-3.18284E-14
 -1      3683 1.37282E-02-5.05212E-04-3.12141E-14
 -1      3684 7.38396E-03 9.06683E-05-6.67381E-15
 -1      3685 7.51290E-03 5.26396E-05-6.86336E-15
 -1      3686 7.38358E-03 1.28617E-04-6.85270E-15
 -1      3687 3.25938E-03 3.09808E-04-1.65674E-15
 -1      3688 3.13448E-03 2.53260E-04-1.58146E-15
 -1      3689 3.41920E-03 3.30549E-04-1.80548E-15
 -1      3690 1.37436E-02-5.88799E-04-3.10135E-14
 -1      3691 1.09145E-03-2.18969E-05-2.31518E-16
 -1      3692 3.03559E-03-8.76836E-05-1.73133E-15
 -1      3693 2.94682E-03-7.87720E-05-1.63110E-15
 -1      3694 3.07192E-03-1.07669E-04-1.70474E-15
 -1      3695 1.30374E-03-1.82203E-04-2.46493E-16
 -1      3696 1.42856E-03-1.91515E-04-2.92653E-16
 -1      3697 1.48226E-03-1.68160E-04-3.31237E-16
 -1      3698 1.24367E-03-1.48535E-04-2.40747E-16
 -1      3699 7.32418E-03 1.88881E-04-6.92994E-15
 -1      3700 1.36291E-02-9.64611E-05-3.19378E-14
 -1      3701 1.35345E-02-8.28196E-05-3.14483E-14
 -1      3702 1.34697E-02-1.16092E-04-3.09967E-14
 -1      3703 1.36405E-02-1.42467E-04-3.18707E-14
 -1      3704 1.93468E-03 2.47687E-04-6.17602E-16
 -1      3705 1.81212E-03 2.47047E-04-5.45327E-16
 -1      3706 1.37641E-02-7.51632E-04-3.05391E-14
 -1      3707 3.41066E-03-2.20911E-04-1.80895E-15
 -1      3708 3.32596E-03-1.69136E-04-1.84569E-15
 -1      3709 2.21992E-03 2.55824E-04-8.00466E-16
 -1      3710 2.07708E-03 2.51974E-04-7.05938E-16
 -1      3711 1.97899E-03 2.18987E-04-6.59073E-16
 -1      3712 1.22132E-03-9.62972E-05-2.57105E-16
 -1      3713 1.23143E-03-1.21730E-04-2.49366E-16
 -1      3714 1.34891E-03-1.30723E-04-2.93914E-16
 -1      3715 3.21539E-03-1.49937E-04-1.75677E-15
 -1      3716 1.38355E-02-2.53558E-04-3.26335E-14
 -1      3717 1.38280E-02-2.11461E-04-3.27199E-14
 -1      3718 1.37334E-02-1.97767E-04-3.22287E-14
 -1      3719 3.40231E-03-2.45560E-04-1.73208E-15
 -1      3720 3.24024E-03-2.04547E-04-1.63355E-15
 -1      3721 1.22922E-03 1.06483E-04-2.93494E-16
 -1      3722 1.34056E-03 9.80694E-05-3.44017E-16
 -1      3723 1.24053E-03 1.33391E-04-2.93954E-16
 -1      3724 2.18882E-03-1.63058E-04-7.40225E-16
 -1      3725 2.32034E-03-1.64636E-04-8.33887E-16
 -1      3726 2.51084E-03 2.61797E-04-1.01381E-15
 -1      3727 2.36675E-03 2.57516E-04-9.05322E-16
 -1      3728 2.55036E-03 2.26510E-04-1.07019E-15
 -1      3729 2.45068E-03-1.66234E-04-9.32997E-16
 -1      3730 2.58028E-03-1.67925E-04-1.03754E-15
 -1      3731 2.35881E-03-1.37170E-04-8.98993E-16
 -1      3732 2.70877E-03-1.70049E-04-1.14799E-15
 -1      3733 2.83706E-03-1.72775E-04-1.26571E-15
 -1      3734 2.60976E-03-1.39228E-04-1.11127E-15
 -1      3735 2.96978E-03-1.82957E-04-1.37995E-15
 -1      3736 3.10025E-03-1.88775E-04-1.50843E-15
 -1      3737 3.11528E-03-1.66693E-04-1.57924E-15
 -1      3738 2.85799E-03-1.47645E-04-1.33873E-15
 -1      3739 3.18123E-03 7.81209E-05-1.84449E-15
 -1      3740 3.30354E-03 1.33429E-04-1.90007E-15
 -1      3741 1.36857E-02-7.10563E-04-3.02587E-14
 -1      3742 8.11726E-03-2.97114E-04-7.79990E-15
 -1      3743 8.24785E-03-3.02442E-04-8.18215E-15
 -1      3744 8.37808E-03-3.09118E-04-8.57051E-15
 -1      3745 8.50888E-03-3.16836E-04-8.96798E-15
 -1      3746 8.33892E-03-2.74782E-04-8.43195E-15
 -1      3747 8.64005E-03-3.25406E-04-9.37660E-15
 -1      3748 8.77206E-03-3.34740E-04-9.79518E-15
 -1      3749 8.59209E-03-2.91438E-04-9.23217E-15
 -1      3750 8.90474E-03-3.44627E-04-1.02249E-14
 -1      3751 9.03833E-03-3.55038E-04-1.06640E-14
 -1      3752 8.85001E-03-3.10218E-04-1.00711E-14
 -1      3753 9.17267E-03-3.65769E-04-1.11119E-14
 -1      3754 9.30788E-03-3.76812E-04-1.15691E-14
 -1      3755 9.11264E-03-3.30548E-04-1.09507E-14
 -1      3756 9.44382E-03-3.87992E-04-1.20364E-14
 -1      3757 9.58054E-03-3.99311E-04-1.25163E-14
 -1      3758 9.37958E-03-3.51834E-04-1.18680E-14
 -1      3759 9.71790E-03-4.10629E-04-1.30019E-14
 -1      3760 9.85594E-03-4.21952E-04-1.34954E-14
 -1      3761 9.65032E-03-3.73550E-04-1.28241E-14
 -1      3762 9.99452E-03-4.33177E-04-1.39999E-14
 -1      3763 1.01337E-02-4.44315E-04-1.45103E-14
 -1      3764 9.92429E-03-3.95268E-04-1.38148E-14
 -1      3765 1.02733E-02-4.55292E-04-1.50269E-14
 -1      3766 1.04133E-02-4.66123E-04-1.55533E-14
 -1      3767 1.02010E-02-4.16671E-04-1.48362E-14
 -1      3768 1.05537E-02-4.76762E-04-1.60879E-14
 -1      3769 1.06945E-02-4.87225E-04-1.66277E-14
 -1      3770 1.04798E-02-4.37554E-04-1.58881E-14
 -1      3771 1.08356E-02-4.97485E-04-1.71794E-14
 -1      3772 1.09769E-02-5.07560E-04-1.77404E-14
 -1      3773 1.07604E-02-4.57806E-04-1.69737E-14
 -1      3774 1.11185E-02-5.17437E-04-1.83135E-14
 -1      3775 1.12603E-02-5.27133E-04-1.88971E-14
 -1      3776 1.10424E-02-4.77389E-04-1.80969E-14
 -1      3777 1.14022E-02-5.36647E-04-1.94885E-14
 -1      3778 1.15444E-02-5.45995E-04-2.00911E-14
 -1      3779 1.13254E-02-4.96317E-04-1.92627E-14
 -1      3780 1.16866E-02-5.55180E-04-2.07061E-14
 -1      3781 1.18290E-02-5.64218E-04-2.13313E-14
 -1      3782 1.16093E-02-5.14638E-04-2.04721E-14
 -1      3783 1.19714E-02-5.73116E-04-2.19670E-14
 -1      3784 1.21140E-02-5.81887E-04-2.26118E-14
 -1      3785 1.18937E-02-5.32417E-04-2.17259E-14
 -1      3786 1.22566E-02-5.90541E-04-2.32663E-14
 -1      3787 1.23992E-02-5.99089E-04-2.39325E-14
 -1      3788 1.21786E-02-5.49729E-04-2.30185E-14
 -1      3789 1.25420E-02-6.07541E-04-2.46091E-14
 -1      3790 1.26847E-02-6.15906E-04-2.52966E-14
 -1      3791 1.24639E-02-5.66649E-04-2.43542E-14
 -1      3792 1.28275E-02-6.24195E-04-2.59924E-14
 -1      3793 1.29703E-02-6.32416E-04-2.67016E-14
 -1      3794 1.27493E-02-5.83248E-04-2.57313E-14
 -1      3795 1.31131E-02-6.40577E-04-2.74230E-14
 -1      3796 1.32560E-02-6.48684E-04-2.81512E-14
 -1      3797 1.30348E-02-5.99592E-04-2.71532E-14
 -1      3798 1.33988E-02-6.56747E-04-2.88876E-14
 -1      3799 1.35417E-02-6.64771E-04-2.96348E-14
 -1      3800 1.33205E-02-6.15736E-04-2.86129E-14
 -1      3801 8.25937E-03 6.95325E-05-9.25375E-15
 -1      3802 8.12076E-03 7.81359E-05-8.85351E-15
 -1      3803 7.66411E-03-3.05295E-04-6.60004E-15
 -1      3804 7.98077E-03 8.82788E-05-8.46384E-15
 -1      3805 7.83839E-03 1.00718E-04-8.08408E-15
 -1      3806 8.09437E-03 4.49152E-05-8.62549E-15
 -1      3807 8.53384E-03 5.60127E-05-1.00849E-14
 -1      3808 8.39684E-03 6.23102E-05-9.66451E-15
 -1      3809 8.36287E-03 3.13171E-05-9.42632E-15
 -1      3810 8.80717E-03 4.55776E-05-1.09534E-14
 -1      3811 8.67047E-03 5.05151E-05-1.05147E-14
 -1      3812 8.63021E-03 2.05739E-05-1.02643E-14
 -1      3813 9.08103E-03 3.68648E-05-1.18572E-14
 -1      3814 8.94394E-03 4.10636E-05-1.14005E-14
 -1      3815 8.89850E-03 1.14236E-05-1.11414E-14
 -1      3816 9.35622E-03 2.89586E-05-1.27994E-14
 -1      3817 9.21841E-03 3.28469E-05-1.23244E-14
 -1      3818 9.16873E-03 3.05264E-06-1.20561E-14
 -1      3819 9.63303E-03 2.12018E-05-1.37753E-14
 -1      3820 9.49440E-03 2.50835E-05-1.32825E-14
 -1      3821 9.44127E-03-5.09721E-06-1.30050E-14
 -1      3822 9.91149E-03 1.31385E-05-1.47875E-14
 -1      3823 9.77205E-03 1.72207E-05-1.42776E-14
 -1      3824 9.71614E-03-1.34381E-05-1.39893E-14
 -1      3825 1.01915E-02 4.47459E-06-1.58296E-14
 -1      3826 1.00513E-02 8.88677E-06-1.53039E-14
 -1      3827 9.99316E-03-2.22573E-05-1.50079E-14
 -1      3828 1.04728E-02-4.95524E-06-1.69102E-14
 -1      3829 1.03320E-02-1.44404E-07-1.63660E-14
 -1      3830 1.02721E-02-3.17350E-05-1.60572E-14
 -1      3831 1.07552E-02-1.52188E-05-1.80326E-14
 -1      3832 1.06138E-02-9.98599E-06-1.74665E-14
 -1      3833 1.05526E-02-4.19630E-05-1.71463E-14
 -1      3834 1.10384E-02-2.63139E-05-1.92032E-14
 -1      3835 1.08967E-02-2.06676E-05-1.86106E-14
 -1      3836 1.08344E-02-5.29647E-05-1.82756E-14
 -1      3837 1.13224E-02-3.81920E-05-2.04183E-14
 -1      3838 1.11803E-02-3.21614E-05-1.98057E-14
 -1      3839 1.11173E-02-6.47147E-05-1.94535E-14
 -1      3840 1.16069E-02-5.07772E-05-2.16824E-14
 -1      3841 1.14646E-02-4.44029E-05-2.10457E-14
 -1      3842 1.14010E-02-7.71553E-05-2.06803E-14
 -1      3843 1.18919E-02-6.39799E-05-2.29892E-14
 -1      3844 1.17493E-02-5.73079E-05-2.23309E-14
 -1      3845 1.16853E-02-9.02109E-05-2.19520E-14
 -1      3846 1.21771E-02-7.77073E-05-2.43351E-14
 -1      3847 1.20344E-02-7.07840E-05-2.36562E-14
 -1      3848 1.19701E-02-1.03798E-04-2.32666E-14
 -1      3849 1.24625E-02-9.18696E-05-2.57169E-14
 -1      3850 1.23197E-02-8.47395E-05-2.50206E-14
 -1      3851 1.22552E-02-1.17833E-04-2.46177E-14
 -1      3852 1.27480E-02-1.06384E-04-2.71433E-14
 -1      3853 1.26052E-02-9.90874E-05-2.64254E-14
 -1      3854 1.25406E-02-1.32237E-04-2.60114E-14
 -1      3855 1.30337E-02-1.21176E-04-2.86102E-14
 -1      3856 1.28908E-02-1.13749E-04-2.78712E-14
 -1      3857 1.28261E-02-1.46937E-04-2.74442E-14
 -1      3858 1.33194E-02-1.36182E-04-3.01144E-14
 -1      3859 1.31765E-02-1.28656E-04-2.93584E-14
 -1      3860 1.31117E-02-1.61870E-04-2.89177E-14
 -1      3861 1.92304E-03-1.58909E-04-5.71740E-16
 -1      3862 2.05644E-03-1.61167E-04-6.53123E-16
 -1      3863 2.10156E-03-1.34715E-04-7.10464E-16
 -1      3864 1.65403E-03-1.52128E-04-4.25888E-16
 -1      3865 1.78891E-03-1.55928E-04-4.95928E-16
 -1      3866 1.83907E-03-1.30832E-04-5.45110E-16
 -1      3867 1.38341E-02-3.30513E-04-3.23805E-14
 -1      3868 1.38265E-02-2.88518E-04-3.24739E-14
 -1      3869 1.37320E-02-2.74800E-04-3.19885E-14
 -1      3870 1.37141E-02-3.44669E-04-3.16652E-14
 -1      3871 1.20425E-03-1.22505E-05-2.79060E-16
 -1      3872 1.20615E-03-3.49123E-05-2.74032E-16
 -1      3873 1.31765E-03-1.37852E-06-3.31142E-16
 -1      3874 1.71097E-03 2.48928E-04-4.87566E-16
 -1      3875 1.58794E-03 2.46119E-04-4.23869E-16
 -1      3876 1.53756E-03 2.20285E-04-4.08270E-16
 -1      3877 1.73860E-03 2.17800E-04-5.15741E-16
 -1      3878 3.09734E-03-1.32163E-04-1.65747E-15
 -1      3879 3.55932E-03-3.13934E-04-1.77717E-15
 -1      3880 7.66029E-03-3.79258E-06-6.98674E-15
 -1      3881 7.79975E-03-4.95824E-05-7.10820E-15
 -1      3882 1.44233E-03-1.38044E-04-3.31400E-16
 -1      3883 1.56028E-03-1.45700E-04-3.82656E-16
 -1      3884 1.61399E-03-1.22374E-04-4.25170E-16
 -1      3885 1.42942E-03-1.10445E-04-3.41022E-16
 -1      3886 1.36083E-02-5.19241E-04-3.05067E-14
 -1      3887 1.36007E-02-4.77569E-04-3.06032E-14
 -1      3888 3.48672E-03 2.85177E-04-1.92221E-15
 -1      3889 1.39204E-03 1.70511E-04-3.53531E-16
 -1      3890 1.20901E-03-5.32882E-05-2.69262E-16
 -1      3891 1.21514E-03-7.68028E-05-2.62811E-16
 -1      3892 1.33007E-03-8.35012E-05-3.09106E-16
 -1      3893 1.32063E-03-4.42044E-05-3.20883E-16
 -1      3894 7.85389E-03-2.91822E-04-7.06697E-15
 -1      3895 7.98642E-03-2.93407E-04-7.42810E-15
 -1      3896 8.08972E-03-2.61069E-04-7.67069E-15
 -1      3897 7.45248E-03 1.45106E-04-7.12397E-15
 -1      3898 3.38194E-03 2.16421E-04-1.88056E-15
 -1      3899 2.86606E-03-4.73219E-05-1.58719E-15
 -1      3900 2.89340E-03-2.65446E-05-1.64082E-15
 -1      3901 7.79142E-03-2.60719E-04-6.83002E-15
 -1      3902 2.88922E-03-9.93672E-06-1.62306E-15
 -1      3903 2.89255E-03 8.65606E-06-1.60520E-15
 -1      3904 2.79776E-03-1.45225E-05-1.50273E-15
 -1      3905 2.26401E-03 2.22849E-04-8.51044E-16
 -1      3906 2.97367E-03 4.18560E-05-1.65793E-15
 -1      3907 3.07278E-03 5.74097E-05-1.74996E-15
 -1      3908 3.04988E-03 8.92944E-05-1.67560E-15
 -1      3909 1.36074E-02-6.69513E-04-2.99759E-14
 -1      3910 1.36731E-02-6.74249E-04-3.03179E-14
 -1      3911 1.35291E-02-6.28487E-04-2.96931E-14
 -1      3912 7.90472E-03-7.41789E-05-7.28156E-15
 -1      3913 7.99484E-03-9.32026E-05-7.45464E-15
 -1      3914 7.90191E-03-4.82131E-05-7.47587E-15
 -1      3915 7.99828E-03-1.37466E-04-7.17515E-15
 -1      3916 8.02667E-03-1.54143E-04-7.28027E-15
 -1      3917 8.03253E-03-1.27104E-04-7.36315E-15
 -1      3918 7.60498E-03 1.22351E-04-7.48086E-15
 -1      3919 1.36731E-02-6.31961E-04-3.04704E-14
 -1      3920 1.44193E-03 6.12086E-05-3.95788E-16
 -1      3921 1.43537E-03 3.55020E-05-3.92156E-16
 -1      3922 7.65577E-03 2.92484E-05-7.17246E-15
 -1      3923 1.36555E-02-2.26620E-04-3.17094E-14
 -1      3924 1.36480E-02-1.84548E-04-3.17902E-14
 -1      3925 1.35626E-02-1.71342E-04-3.13553E-14
 -1      3926 1.34731E-02-4.49684E-04-3.00006E-14
 -1      3927 1.35930E-02-4.35635E-04-3.07003E-14
 -1      3928 1.35853E-02-3.93702E-04-3.07953E-14
 -1      3929 7.91443E-03-2.24224E-04-7.07563E-15
 -1      3930 3.22993E-03 1.87213E-04-1.74833E-15
 -1      3931 2.86870E-03 1.97543E-04-1.37435E-15
 -1      3932 2.72722E-03 1.93784E-04-1.24685E-15
 -1      3933 7.97452E-03-2.03310E-04-7.20323E-15
 -1      3934 8.02664E-03-2.33219E-04-7.43293E-15
 -1      3935 8.14517E-03-2.39867E-04-7.80458E-15
 -1      3936 8.02387E-03-1.88659E-04-7.32513E-15
 -1      3937 1.74256E-03 1.86053E-04-5.30310E-16
 -1      3938 1.64340E-03 1.88460E-04-4.74216E-16
 -1      3939 2.97791E-03-1.24689E-04-1.53122E-15
 -1      3940 7.73800E-03 6.69353E-05-7.63128E-15
 -1      3941 1.88128E-03 1.89703E-04-6.11124E-16
 -1      3942 1.78664E-03 1.61947E-04-5.64571E-16
 -1      3943 2.02001E-03 1.92427E-04-6.98172E-16
 -1      3944 2.87595E-03-8.46329E-05-1.51414E-15
 -1      3945 2.86055E-03-6.82130E-05-1.53745E-15
 -1      3946 1.34837E-02-1.60336E-04-3.09515E-14
 -1      3947 1.33983E-02-1.47159E-04-3.05176E-14
 -1      3948 1.33334E-02-1.80383E-04-3.00673E-14
 -1      3949 1.34912E-02-2.02382E-04-3.08707E-14
 -1      3950 1.36238E-02-6.02873E-04-3.03038E-14
 -1      3951 1.36160E-02-5.61008E-04-3.04067E-14
 -1      3952 2.78988E-03-5.15573E-05-1.47233E-15
 -1      3953 1.34885E-02-5.33322E-04-2.98035E-14
 -1      3954 1.75933E-03-1.04221E-04-5.17842E-16
 -1      3955 1.89008E-03-1.06334E-04-5.95647E-16
 -1      3956 2.30437E-03 1.92198E-04-8.98627E-16
 -1      3957 2.16226E-03 1.92563E-04-7.95018E-16
 -1      3958 2.06406E-03 1.64203E-04-7.40659E-16
 -1      3959 2.27362E-03-1.10407E-04-8.64055E-16
 -1      3960 2.39790E-03-1.11170E-04-9.65645E-16
 -1      3961 2.51972E-03-1.11997E-04-1.07285E-15
 -1      3962 2.63933E-03-1.12520E-04-1.18571E-15
 -1      3963 2.43818E-03-8.67035E-05-1.03308E-15
 -1      3964 8.30115E-03-2.42574E-04-8.29421E-15
 -1      3965 8.42216E-03-2.50841E-04-8.68530E-15
 -1      3966 8.54480E-03-2.59270E-04-9.08622E-15
 -1      3967 8.66945E-03-2.68212E-04-9.49737E-15
 -1      3968 8.49766E-03-2.28960E-04-8.94017E-15
 -1      3969 8.79568E-03-2.77385E-04-9.91752E-15
 -1      3970 8.92359E-03-2.86971E-04-1.03487E-14
 -1      3971 8.74127E-03-2.46154E-04-9.76437E-15
 -1      3972 9.05291E-03-2.96734E-04-1.07882E-14
 -1      3973 9.18366E-03-3.06781E-04-1.12382E-14
 -1      3974 8.99310E-03-2.64335E-04-1.06260E-14
 -1      3975 9.31563E-03-3.16925E-04-1.16989E-14
 -1      3976 9.44881E-03-3.27237E-04-1.21678E-14
 -1      3977 9.25165E-03-2.83269E-04-1.15282E-14
 -1      3978 9.58303E-03-3.37565E-04-1.26466E-14
 -1      3979 9.71825E-03-3.47959E-04-1.31332E-14
 -1      3980 9.51578E-03-3.02681E-04-1.24684E-14
 -1      3981 9.85435E-03-3.58299E-04-1.36280E-14
 -1      3982 9.99128E-03-3.68624E-04-1.41321E-14
 -1      3983 9.78451E-03-3.22286E-04-1.34433E-14
 -1      3984 1.01289E-02-3.78845E-04-1.46436E-14
 -1      3985 1.02672E-02-3.88993E-04-1.51618E-14
 -1      3986 1.00570E-02-3.41833E-04-1.44496E-14
 -1      3987 1.04061E-02-3.99005E-04-1.56874E-14
 -1      3988 1.05456E-02-4.08910E-04-1.62224E-14
 -1      3989 1.03326E-02-3.61139E-04-1.54865E-14
 -1      3990 1.06855E-02-4.18665E-04-1.67661E-14
 -1      3991 1.08258E-02-4.28294E-04-1.73166E-14
 -1      3992 1.06107E-02-3.80084E-04-1.65562E-14
 -1      3993 1.09665E-02-4.37772E-04-1.78798E-14
 -1      3994 1.11075E-02-4.47121E-04-1.84549E-14
 -1      3995 1.08907E-02-3.98609E-04-1.76633E-14
 -1      3996 1.12488E-02-4.56326E-04-1.90373E-14
 -1      3997 1.13904E-02-4.65407E-04-1.96314E-14
 -1      3998 1.11723E-02-4.16695E-04-1.88109E-14
 -1      3999 1.15321E-02-4.74357E-04-2.02382E-14
 -1      4000 1.16741E-02-4.83194E-04-2.08557E-14
 -1      4001 1.14551E-02-4.34359E-04-2.00040E-14
 -1      4002 1.18162E-02-4.91917E-04-2.14822E-14
 -1      4003 1.19584E-02-5.00540E-04-2.21207E-14
 -1      4004 1.17387E-02-4.51634E-04-2.12397E-14
 -1      4005 1.21008E-02-5.09065E-04-2.27714E-14
 -1      4006 1.22433E-02-5.17506E-04-2.34294E-14
 -1      4007 1.20231E-02-4.68566E-04-2.25217E-14
 -1      4008 1.23858E-02-5.25866E-04-2.40975E-14
 -1      4009 1.25284E-02-5.34155E-04-2.47807E-14
 -1      4010 1.23079E-02-4.85205E-04-2.38418E-14
 -1      4011 1.26711E-02-5.42380E-04-2.54685E-14
 -1      4012 1.28139E-02-5.50546E-04-2.61693E-14
 -1      4013 1.25930E-02-5.01599E-04-2.52063E-14
 -1      4014 1.29566E-02-5.58662E-04-2.68827E-14
 -1      4015 1.30994E-02-5.66732E-04-2.76068E-14
 -1      4016 1.28784E-02-5.17796E-04-2.66129E-14
 -1      4017 8.72244E-03-1.26607E-05-1.04448E-14
 -1      4018 8.59144E-03-8.17846E-06-1.00158E-14
 -1      4019 1.45072E-03 8.82430E-05-3.98160E-16
 -1      4020 1.56072E-03 7.66746E-05-4.56408E-16
 -1      4021 7.86495E-03 1.72064E-05-7.76519E-15
 -1      4022 2.58745E-03 1.91393E-04-1.12650E-15
 -1      4023 2.44842E-03 1.89583E-04-1.01281E-15
 -1      4024 2.62194E-03 1.56366E-04-1.18286E-15
 -1      4025 1.54650E-03 2.31871E-05-4.48589E-16
 -1      4026 1.43169E-03 1.05423E-05-3.87589E-16
 -1      4027 1.43099E-03-1.41488E-05-3.82168E-16
 -1      4028 8.20182E-03 6.91088E-06-8.78820E-15
 -1      4029 8.07200E-03 1.28314E-05-8.39960E-15
 -1      4030 8.98656E-03-2.13451E-05-1.13299E-14
 -1      4031 8.85406E-03-1.70565E-05-1.08833E-14
 -1      4032 8.81039E-03-4.43461E-05-1.06248E-14
 -1      4033 1.35455E-02-6.04135E-04-2.98682E-14
 -1      4034 9.25389E-03-2.99149E-05-1.22545E-14
 -1      4035 9.11979E-03-2.56430E-05-1.17871E-14
 -1      4036 9.07136E-03-5.32130E-05-1.15208E-14
 -1      4037 9.52437E-03-3.86639E-05-1.32101E-14
 -1      4038 9.38873E-03-3.42677E-05-1.27282E-14
 -1      4039 9.33657E-03-6.24027E-05-1.24509E-14
 -1      4040 9.79777E-03-4.78202E-05-1.42045E-14
 -1      4041 9.66071E-03-4.31937E-05-1.37029E-14
 -1      4042 9.60561E-03-7.20197E-05-1.34170E-14
 -1      4043 1.00737E-02-5.75426E-05-1.52254E-14
 -1      4044 9.93544E-03-5.26147E-05-1.47101E-14
 -1      4045 9.87800E-03-8.21575E-05-1.44155E-14
 -1      4046 1.03519E-02-6.79248E-05-1.62848E-14
 -1      4047 1.02125E-02-6.26567E-05-1.57516E-14
 -1      4048 1.01533E-02-9.28803E-05-1.54473E-14
 -1      4049 1.06318E-02-7.90038E-05-1.73796E-14
 -1      4050 1.04916E-02-7.33836E-05-1.68271E-14
 -1      4051 1.04309E-02-1.04219E-04-1.65108E-14
 -1      4052 1.09133E-02-9.07716E-05-1.85180E-14
 -1      4053 1.07724E-02-8.48085E-05-1.79428E-14
 -1      4054 1.07105E-02-1.16171E-04-1.76134E-14
 -1      4055 1.11959E-02-1.03188E-04-1.97055E-14
 -1      4056 1.10544E-02-9.69058E-05-1.91064E-14
 -1      4057 1.09917E-02-1.28709E-04-1.87602E-14
 -1      4058 1.14794E-02-1.16193E-04-2.09406E-14
 -1      4059 1.13375E-02-1.09624E-04-2.03168E-14
 -1      4060 1.12742E-02-1.41785E-04-1.99572E-14
 -1      4061 1.17635E-02-1.29715E-04-2.22198E-14
 -1      4062 1.16214E-02-1.22895E-04-2.15747E-14
 -1      4063 1.15576E-02-1.55341E-04-2.12000E-14
 -1      4064 1.20482E-02-1.43679E-04-2.35434E-14
 -1      4065 1.19058E-02-1.36647E-04-2.28774E-14
 -1      4066 1.18417E-02-1.69314E-04-2.24890E-14
 -1      4067 1.23333E-02-1.58013E-04-2.49034E-14
 -1      4068 1.21907E-02-1.50805E-04-2.42193E-14
 -1      4069 1.21264E-02-1.83639E-04-2.38197E-14
 -1      4070 1.26186E-02-1.72649E-04-2.63062E-14
 -1      4071 1.24759E-02-1.65298E-04-2.55988E-14
 -1      4072 1.24114E-02-1.98258E-04-2.51892E-14
 -1      4073 1.29042E-02-1.87527E-04-2.77453E-14
 -1      4074 1.27614E-02-1.80062E-04-2.70197E-14
 -1      4075 1.26967E-02-2.13114E-04-2.65976E-14
 -1      4076 1.31898E-02-2.02593E-04-2.92232E-14
 -1      4077 1.30470E-02-1.95039E-04-2.84801E-14
 -1      4078 1.29822E-02-2.28158E-04-2.80442E-14
 -1      4079 2.01949E-03-1.08031E-04-6.79470E-16
 -1      4080 2.14750E-03-1.09281E-04-7.68794E-16
 -1      4081 2.19468E-03-8.49260E-05-8.28480E-16
 -1      4082 1.49151E-03 1.70237E-04-4.01426E-16
 -1      4083 3.01202E-03 2.02841E-04-1.50777E-15
 -1      4084 2.89533E-03 1.58863E-04-1.43519E-15
 -1      4085 2.86478E-03-1.28152E-04-1.39017E-15
 -1      4086 2.86737E-03-1.00422E-04-1.46159E-15
 -1      4087 2.76993E-03-8.86029E-05-1.37392E-15
 -1      4088 2.74456E-03-1.22036E-04-1.27499E-15
 -1      4089 2.91716E-03 1.20951E-04-1.49608E-15
 -1      4090 2.78523E-03 1.21225E-04-1.36441E-15
 -1      4091 8.46121E-03-3.49765E-06-9.59801E-15
 -1      4092 8.33127E-03 1.45607E-06-9.18795E-15
 -1      4093 8.55391E-03-3.57454E-05-9.76907E-15
 -1      4094 1.46257E-03 1.16142E-04-3.99881E-16
 -1      4095 1.33686E-02-5.47315E-04-2.91073E-14
 -1      4096 1.33609E-02-5.05612E-04-2.92078E-14
 -1      4097 3.15872E-03 2.11163E-04-1.64758E-15
 -1      4098 2.69561E-03-5.61002E-05-1.34442E-15
 -1      4099 2.71275E-03-3.41324E-05-1.38974E-15
 -1      4100 3.10050E-03 1.37426E-04-1.66828E-15
 -1      4101 1.34798E-02-5.99408E-04-2.95285E-14
 -1      4102 1.68142E-03 9.25571E-05-5.21461E-16
 -1      4103 1.67026E-03 6.38080E-05-5.18533E-16
 -1      4104 7.98052E-03-2.15482E-05-7.91556E-15
 -1      4105 2.98970E-03 1.13963E-04-1.57961E-15
 -1      4106 2.86038E-03 3.34743E-05-1.53603E-15
 -1      4107 1.50001E-03 1.42122E-04-4.13325E-16
 -1      4108 2.65580E-03-9.58180E-05-1.23253E-15
 -1      4109 1.77841E-03 5.06345E-05-5.84290E-16
 -1      4110 1.66187E-03 3.67112E-05-5.14332E-16
 -1      4111 1.65705E-03 1.03072E-05-5.08708E-16
 -1      4112 8.22998E-03-2.16521E-04-8.04624E-15
 -1      4113 2.68385E-03 8.87501E-05-1.29517E-15
 -1      4114 2.65408E-03 1.22144E-04-1.23938E-15
 -1      4115 2.52262E-03 1.23272E-04-1.12028E-15
 -1      4116 1.31311E-02-5.22727E-04-2.79228E-14
 -1      4117 1.32094E-02-5.63640E-04-2.82006E-14
 -1      4118 8.05771E-03-1.11405E-04-7.56575E-15
 -1      4119 8.10973E-03-1.28215E-04-7.67658E-15
 -1      4120 8.07520E-03-9.29592E-05-7.76812E-15
 -1      4121 1.33522E-02-5.71634E-04-2.89340E-14
 -1      4122 2.69513E-03-1.74577E-05-1.37431E-15
 -1      4123 2.68324E-03-8.18725E-08-1.35773E-15
 -1      4124 2.59045E-03-2.14287E-05-1.25149E-15
 -1      4125 1.36465E-02-2.61559E-04-3.15538E-14
 -1      4126 1.35611E-02-2.48330E-04-3.11187E-14
 -1      4127 1.36376E-02-2.96486E-04-3.13946E-14
 -1      4128 1.33532E-02-4.63740E-04-2.93048E-14
 -1      4129 1.33455E-02-4.21875E-04-2.93996E-14
 -1      4130 1.32334E-02-4.77750E-04-2.86170E-14
 -1      4131 8.30187E-03-2.71835E-05-8.95224E-15
 -1      4132 1.32686E-02-2.13573E-04-2.96197E-14
 -1      4133 1.32039E-02-2.46723E-04-2.91732E-14
 -1      4134 1.33475E-02-2.24569E-04-3.00163E-14
 -1      4135 1.94227E-03-8.24482E-05-6.47513E-16
 -1      4136 1.36070E-02-3.62559E-04-3.10163E-14
 -1      4137 1.36159E-02-3.27652E-04-3.11778E-14
 -1      4138 1.35305E-02-3.14400E-04-3.07469E-14
 -1      4139 1.34871E-02-3.76668E-04-3.03132E-14
 -1      4140 8.09281E-03-1.72199E-04-7.53760E-15
 -1      4141 8.15603E-03-1.94940E-04-7.78010E-15
 -1      4142 8.29873E-03-1.99129E-04-8.26866E-15
 -1      4143 8.14593E-03-1.60298E-04-7.73328E-15
 -1      4144 2.67370E-03-8.03654E-05-1.28016E-15
 -1      4145 1.54398E-03-2.26639E-05-4.37828E-16
 -1      4146 1.43224E-03-3.38771E-05-3.77045E-16
 -1      4147 1.43546E-03-5.38396E-05-3.71150E-16
 -1      4148 2.34560E-03 1.59846E-04-9.49748E-16
 -1      4149 1.42132E-03-8.92354E-05-3.48232E-16
 -1      4150 1.62164E-03-8.40057E-05-4.52803E-16
 -1      4151 1.67899E-03-6.15440E-05-4.96971E-16
 -1      4152 1.60963E-03 1.31161E-04-4.73241E-16
 -1      4153 2.87872E-03 7.85339E-05-1.50324E-15
 -1      4154 2.57977E-03-6.20940E-05-1.20528E-15
 -1      4155 1.75196E-03 1.39662E-04-5.51208E-16
 -1      4156 1.71243E-03 1.12835E-04-5.35555E-16
 -1      4157 1.82047E-03 9.89319E-05-6.03901E-16
 -1      4158 1.88752E-03 1.41683E-04-6.33608E-16
 -1      4159 2.16451E-03 1.39584E-04-8.22923E-16
 -1      4160 2.02635E-03 1.41024E-04-7.24911E-16
 -1      4161 1.99051E-03 1.18804E-04-7.08702E-16
 -1      4162 1.30135E-02-4.84077E-04-2.74295E-14
 -1      4163 1.31234E-02-4.80929E-04-2.80192E-14
 -1      4164 1.31157E-02-4.39143E-04-2.81148E-14
 -1      4165 8.08485E-03-4.78033E-05-8.10043E-15
 -1      4166 8.68564E-03-2.16507E-04-9.60962E-15
 -1      4167 8.80794E-03-2.24863E-04-1.00330E-14
 -1      4168 8.93238E-03-2.33308E-04-1.04647E-14
 -1      4169 9.05885E-03-2.42029E-04-1.09065E-14
 -1      4170 8.87022E-03-2.03595E-04-1.03016E-14
 -1      4171 9.18705E-03-2.50816E-04-1.13576E-14
 -1      4172 9.31688E-03-2.59821E-04-1.18194E-14
 -1      4173 9.12142E-03-2.19527E-04-1.11874E-14
 -1      4174 9.44813E-03-2.68861E-04-1.22907E-14
 -1      4175 9.58070E-03-2.78035E-04-1.27689E-14
 -1      4176 9.37975E-03-2.36074E-04-1.21105E-14
 -1      4177 9.71443E-03-2.87205E-04-1.32556E-14
 -1      4178 9.84924E-03-2.96437E-04-1.37512E-14
 -1      4179 9.64387E-03-2.53038E-04-1.30688E-14
 -1      4180 9.98501E-03-3.05628E-04-1.42546E-14
 -1      4181 1.01216E-02-3.14827E-04-1.47669E-14
 -1      4182 9.91268E-03-2.70221E-04-1.40607E-14
 -1      4183 1.02591E-02-3.23958E-04-1.52870E-14
 -1      4184 1.03972E-02-3.33059E-04-1.58130E-14
 -1      4185 1.01853E-02-2.87463E-04-1.50850E-14
 -1      4186 1.05359E-02-3.42077E-04-1.63482E-14
 -1      4187 1.06752E-02-3.51041E-04-1.68927E-14
 -1      4188 1.04611E-02-3.04649E-04-1.61409E-14
 -1      4189 1.08150E-02-3.59916E-04-1.74466E-14
 -1      4190 1.09552E-02-3.68724E-04-1.80117E-14
 -1      4191 1.07393E-02-3.21703E-04-1.72298E-14
 -1      4192 1.10959E-02-3.77444E-04-1.85846E-14
 -1      4193 1.12368E-02-3.86094E-04-1.91699E-14
 -1      4194 1.10194E-02-3.38583E-04-1.83584E-14
 -1      4195 1.13781E-02-3.94661E-04-1.97691E-14
 -1      4196 1.15196E-02-4.03161E-04-2.03793E-14
 -1      4197 1.13011E-02-3.55276E-04-1.95325E-14
 -1      4198 1.16613E-02-4.11585E-04-2.09985E-14
 -1      4199 1.18033E-02-4.19948E-04-2.16273E-14
 -1      4200 1.15840E-02-3.71782E-04-2.07545E-14
 -1      4201 1.19454E-02-4.28246E-04-2.22697E-14
 -1      4202 1.20876E-02-4.36490E-04-2.29241E-14
 -1      4203 1.18677E-02-3.88116E-04-2.20202E-14
 -1      4204 1.22300E-02-4.44679E-04-2.35879E-14
 -1      4205 1.23724E-02-4.52821E-04-2.42594E-14
 -1      4206 1.21521E-02-4.04297E-04-2.33289E-14
 -1      4207 1.25150E-02-4.60919E-04-2.49447E-14
 -1      4208 1.26576E-02-4.68978E-04-2.56385E-14
 -1      4209 1.24370E-02-4.20347E-04-2.46804E-14
 -1      4210 1.27642E-02-4.72555E-04-2.61696E-14
 -1      4211 1.29069E-02-4.80551E-04-2.68853E-14
 -1      4212 1.28992E-02-4.38862E-04-2.69772E-14
 -1      4213 1.26861E-02-4.31858E-04-2.59015E-14
 -1      4214 8.22928E-03-5.00884E-05-8.58263E-15
 -1      4215 8.13661E-03-7.31725E-05-8.12219E-15
 -1      4216 8.20611E-03-9.43170E-05-8.24128E-15
 -1      4217 8.34983E-03-5.38822E-05-8.97831E-15
 -1      4218 8.89419E-03-7.48132E-05-1.08058E-14
 -1      4219 8.76681E-03-7.02776E-05-1.03682E-14
 -1      4220 9.68509E-03-1.05293E-04-1.36229E-14
 -1      4221 9.55049E-03-9.98932E-05-1.31307E-14
 -1      4222 9.95693E-03-1.16543E-04-1.46267E-14
 -1      4223 9.82058E-03-1.10866E-04-1.41215E-14
 -1      4224 9.76301E-03-1.38727E-04-1.38262E-14
 -1      4225 1.02318E-02-1.28338E-04-1.56652E-14
 -1      4226 1.00940E-02-1.22386E-04-1.51415E-14
 -1      4227 1.00347E-02-1.51158E-04-1.48393E-14
 -1      4228 1.05093E-02-1.40666E-04-1.67365E-14
 -1      4229 1.03703E-02-1.34447E-04-1.61964E-14
 -1      4230 1.03096E-02-1.64051E-04-1.58827E-14
 -1      4231 1.07888E-02-1.53501E-04-1.78468E-14
 -1      4232 1.06488E-02-1.47030E-04-1.72863E-14
 -1      4233 1.05870E-02-1.77368E-04-1.69613E-14
 -1      4234 1.10699E-02-1.66802E-04-1.90032E-14
 -1      4235 1.09291E-02-1.60102E-04-1.84187E-14
 -1      4236 1.08666E-02-1.91067E-04-1.80799E-14
 -1      4237 1.13523E-02-1.80524E-04-2.02077E-14
 -1      4238 1.12109E-02-1.73618E-04-1.95998E-14
 -1      4239 1.11477E-02-2.05107E-04-1.92452E-14
 -1      4240 1.16356E-02-1.94613E-04-2.14584E-14
 -1      4241 1.14938E-02-1.87529E-04-2.08279E-14
 -1      4242 1.14302E-02-2.19444E-04-2.04589E-14
 -1      4243 1.19198E-02-2.09017E-04-2.27572E-14
 -1      4244 1.17776E-02-2.01781E-04-2.21035E-14
 -1      4245 1.17136E-02-2.34037E-04-2.17198E-14
 -1      4246 1.22044E-02-2.23686E-04-2.40935E-14
 -1      4247 1.20620E-02-2.16323E-04-2.34205E-14
 -1      4248 1.19978E-02-2.48845E-04-2.30231E-14
 -1      4249 1.24895E-02-2.38572E-04-2.54720E-14
 -1      4250 1.23469E-02-2.31105E-04-2.47775E-14
 -1      4251 1.22825E-02-2.63831E-04-2.43679E-14
 -1      4252 1.27748E-02-2.53633E-04-2.68886E-14
 -1      4253 1.26321E-02-2.46084E-04-2.61750E-14
 -1      4254 1.25675E-02-2.78964E-04-2.57531E-14
 -1      4255 1.30603E-02-2.68831E-04-2.83408E-14
 -1      4256 1.29175E-02-2.61217E-04-2.76106E-14
 -1      4257 1.28529E-02-2.94209E-04-2.71777E-14
 -1      4258 2.12161E-03-6.04715E-05-7.92525E-16
 -1      4259 2.24445E-03-6.15585E-05-8.90008E-16
 -1      4260 9.15305E-03-8.44270E-05-1.17092E-14
 -1      4261 9.02292E-03-7.95830E-05-1.12520E-14
 -1      4262 8.97411E-03-1.04722E-04-1.09858E-14
 -1      4263 1.65549E-03-1.04653E-05-5.03382E-16
 -1      4264 1.65636E-03-3.12274E-05-4.97337E-16
 -1      4265 1.76737E-03 2.13096E-06-5.73597E-16
 -1      4266 8.64109E-03-6.58597E-05-9.94009E-15
 -1      4267 8.51680E-03-6.17300E-05-9.52317E-15
 -1      4268 8.72291E-03-9.48001E-05-1.01117E-14
 -1      4269 9.41692E-03-9.45890E-05-1.26484E-14
 -1      4270 9.28438E-03-8.94651E-05-1.21750E-14
 -1      4271 9.49515E-03-1.26801E-04-1.28451E-14
 -1      4272 8.44898E-03-2.00690E-04-8.79285E-15
 -1      4273 8.56597E-03-2.08654E-04-9.19563E-15
 -1      4274 8.62816E-03-1.88549E-04-9.45362E-15
 -1      4275 1.51264E-03-9.47026E-05-3.89811E-16
 -1      4276 2.73530E-03 1.94927E-05-1.40611E-15
 -1      4277 2.80608E-03 5.17060E-05-1.45435E-15
 -1      4278 2.73886E-03 5.96625E-05-1.37546E-15
 -1      4279 2.62100E-03 1.55262E-05-1.28219E-15
 -1      4280 2.41404E-03 1.29633E-04-1.02320E-15
 -1      4281 2.27562E-03 1.34151E-04-9.09619E-16
 -1      4282 2.23684E-03 1.11317E-04-8.90875E-16
 -1      4283 2.45226E-03 9.84611E-05-1.07530E-15
 -1      4284 2.35680E-03-6.12274E-05-9.87817E-16
 -1      4285 2.47393E-03-6.22357E-05-1.09652E-15
 -1      4286 2.50827E-03-3.78905E-05-1.15432E-15
 -1      4287 2.29017E-03-3.75670E-05-9.47186E-16
 -1      4288 1.78710E-03-4.94623E-05-5.67512E-16
 -1      4289 8.43633E-03-8.23767E-05-9.13949E-15
 -1      4290 1.89643E-03 6.44692E-05-6.59005E-16
 -1      4291 1.88582E-03 3.63661E-05-6.53896E-16
 -1      4292 2.61789E-03 6.34120E-05-1.25098E-15
 -1      4293 8.22963E-03-1.27920E-04-8.15167E-15
 -1      4294 8.19239E-03-1.44211E-04-7.94190E-15
 -1      4295 8.27400E-03-1.61762E-04-8.21189E-15
 -1      4296 2.48515E-03-2.04811E-05-1.14030E-15
 -1      4297 1.91494E-03-5.09279E-05-6.49424E-16
 -1      4298 1.31392E-02-2.79828E-04-2.87295E-14
 -1      4299 1.30745E-02-3.12882E-04-2.82875E-14
 -1      4300 1.32180E-02-2.90840E-04-2.91196E-14
 -1      4301 1.97385E-03-2.81399E-05-7.01628E-16
 -1      4302 1.33672E-02-3.90792E-04-2.96153E-14
 -1      4303 1.33889E-02-3.59696E-04-2.98309E-14
 -1      4304 1.32473E-02-4.04879E-04-2.89264E-14
 -1      4305 8.36426E-03-1.80140E-04-8.51286E-15
 -1      4306 9.23189E-03-1.15438E-04-1.18980E-14
 -1      4307 1.34822E-02-2.37299E-04-3.07177E-14
 -1      4308 1.34175E-02-2.70472E-04-3.02615E-14
 -1      4309 1.95788E-03 1.01256E-04-6.92277E-16
 -1      4310 1.92576E-03 8.07313E-05-6.75648E-16
 -1      4311 2.03063E-03 6.55079E-05-7.51515E-16
 -1      4312 2.09319E-03 9.91716E-05-7.87524E-16
 -1      4313 2.55853E-03 4.03319E-05-1.20634E-15
 -1      4314 2.49530E-03 6.65460E-05-1.13257E-15
 -1      4315 2.50585E-03 1.94649E-05-1.16286E-15
 -1      4316 8.53088E-03-1.10753E-04-9.34920E-15
 -1      4317 8.37294E-03-1.02997E-04-8.80971E-15
 -1      4318 8.80564E-03-1.74968E-04-1.01377E-14
 -1      4319 8.92875E-03-1.82043E-04-1.05721E-14
 -1      4320 9.05402E-03-1.89203E-04-1.10142E-14
 -1      4321 9.18121E-03-1.96651E-04-1.14675E-14
 -1      4322 8.98437E-03-1.59736E-04-1.08414E-14
 -1      4323 9.31012E-03-2.04174E-04-1.19299E-14
 -1      4324 9.44058E-03-2.11902E-04-1.24012E-14
 -1      4325 9.23887E-03-1.73079E-04-1.17481E-14
 -1      4326 9.57242E-03-2.19682E-04-1.28819E-14
 -1      4327 9.70552E-03-2.27600E-04-1.33691E-14
 -1      4328 9.49982E-03-1.87076E-04-1.26915E-14
 -1      4329 9.83975E-03-2.35544E-04-1.38648E-14
 -1      4330 9.97500E-03-2.43575E-04-1.43697E-14
 -1      4331 9.76600E-03-2.01553E-04-1.36694E-14
 -1      4332 1.01112E-02-2.51612E-04-1.48815E-14
 -1      4333 1.02482E-02-2.59698E-04-1.54020E-14
 -1      4334 1.00365E-02-2.16374E-04-1.46785E-14
 -1      4335 1.03859E-02-2.67775E-04-1.59300E-14
 -1      4336 1.05243E-02-2.75876E-04-1.64654E-14
 -1      4337 1.03104E-02-2.31439E-04-1.57181E-14
 -1      4338 1.06633E-02-2.83958E-04-1.70121E-14
 -1      4339 1.08029E-02-2.92046E-04-1.75679E-14
 -1      4340 1.05872E-02-2.46672E-04-1.67919E-14
 -1      4341 1.09429E-02-3.00111E-04-1.81327E-14
 -1      4342 1.10833E-02-3.08170E-04-1.87081E-14
 -1      4343 1.08662E-02-2.62022E-04-1.79052E-14
 -1      4344 1.12241E-02-3.16206E-04-1.92972E-14
 -1      4345 1.13652E-02-3.24230E-04-1.98994E-14
 -1      4346 1.11470E-02-2.77451E-04-1.90617E-14
 -1      4347 1.15066E-02-3.32230E-04-2.05103E-14
 -1      4348 1.16482E-02-3.40217E-04-2.11333E-14
 -1      4349 1.14292E-02-2.92932E-04-2.02652E-14
 -1      4350 1.17901E-02-3.48183E-04-2.17686E-14
 -1      4351 1.19321E-02-3.56134E-04-2.24139E-14
 -1      4352 1.17124E-02-3.08450E-04-2.15155E-14
 -1      4353 1.20743E-02-3.64066E-04-2.30693E-14
 -1      4354 1.22166E-02-3.71985E-04-2.37375E-14
 -1      4355 1.19964E-02-3.23991E-04-2.28104E-14
 -1      4356 1.23590E-02-3.79888E-04-2.44151E-14
 -1      4357 1.25015E-02-3.87781E-04-2.51031E-14
 -1      4358 1.22810E-02-3.39549E-04-2.41474E-14
 -1      4359 1.04485E-02-2.04925E-04-1.63348E-14
 -1      4360 1.03103E-02-1.97842E-04-1.58006E-14
 -1      4361 2.22614E-03-1.45434E-05-9.02381E-16
 -1      4362 2.33887E-03-1.47872E-05-1.00119E-15
 -1      4363 8.30609E-03-1.11640E-04-8.51860E-15
 -1      4364 2.43004E-03 2.79631E-06-1.09025E-15
 -1      4365 1.01728E-02-1.90811E-04-1.52767E-14
 -1      4366 1.00361E-02-1.83890E-04-1.47608E-14
 -1      4367 8.48956E-03-1.55438E-04-9.02962E-15
 -1      4368 8.60547E-03-1.61800E-04-9.43803E-15
 -1      4369 9.90014E-03-1.77027E-04-1.42501E-14
 -1      4370 9.76516E-03-1.70298E-04-1.37491E-14
 -1      4371 1.07267E-02-2.19314E-04-1.74309E-14
 -1      4372 1.05874E-02-2.12097E-04-1.68780E-14
 -1      4373 1.10068E-02-2.33935E-04-1.85679E-14
 -1      4374 1.08666E-02-2.26604E-04-1.79931E-14
 -1      4375 1.12885E-02-2.48750E-04-1.97531E-14
 -1      4376 1.11475E-02-2.41325E-04-1.91548E-14
 -1      4377 1.15713E-02-2.63728E-04-2.09838E-14
 -1      4378 1.14298E-02-2.56224E-04-2.03620E-14
 -1      4379 1.18550E-02-2.78839E-04-2.22624E-14
 -1      4380 1.17131E-02-2.71270E-04-2.16173E-14
 -1      4381 1.21394E-02-2.94059E-04-2.35834E-14
 -1      4382 1.19971E-02-2.86438E-04-2.29188E-14
 -1      4383 1.24242E-02-3.09369E-04-2.49452E-14
 -1      4384 1.22818E-02-3.01705E-04-2.42600E-14
 -1      4385 1.25668E-02-3.17050E-04-2.56411E-14
 -1      4386 1.29310E-02-3.34845E-04-2.74652E-14
 -1      4387 1.27883E-02-3.27131E-04-2.67452E-14
 -1      4388 9.10782E-03-1.38425E-04-1.13646E-14
 -1      4389 8.98078E-03-1.32603E-04-1.09141E-14
 -1      4390 1.33957E-02-3.01605E-04-3.00504E-14
 -1      4391 8.85557E-03-1.26882E-04-1.04753E-14
 -1      4392 8.73240E-03-1.21523E-04-1.00437E-14
 -1      4393 9.63119E-03-1.63637E-04-1.32561E-14
 -1      4394 9.49835E-03-1.57144E-04-1.27700E-14
 -1      4395 1.89762E-03-1.13534E-06-6.57596E-16
 -1      4396 2.10122E-03-1.04957E-05-8.02906E-16
 -1      4397 2.15678E-03 1.30600E-05-8.51099E-16
 -1      4398 1.90135E-03 2.03944E-05-6.63694E-16
 -1      4399 9.36676E-03-1.50729E-04-1.22930E-14
 -1      4400 9.23654E-03-1.44530E-04-1.18240E-14
 -1      4401 2.35763E-03 2.59512E-05-1.02144E-15
 -1      4402 8.65685E-03-1.41047E-04-9.69388E-15
 -1      4403 1.26449E-02-3.57549E-04-2.59186E-14
 -1      4404 1.27229E-02-3.98134E-04-2.61952E-14
 -1      4405 2.39169E-03 7.37984E-05-1.03606E-15
 -1      4406 8.38961E-03-1.37625E-04-8.71751E-15
 -1      4407 8.41469E-03-1.62540E-04-8.73290E-15
 -1      4408 2.01537E-03 3.30632E-05-7.44183E-16
 -1      4409 1.30460E-02-4.01797E-04-2.78650E-14
 -1      4410 1.30676E-02-3.70803E-04-2.80758E-14
 -1      4411 1.33310E-02-3.34714E-04-2.95955E-14
 -1      4412 2.08662E-03 4.72241E-05-7.95886E-16
 -1      4413 2.09941E-03 3.06767E-05-8.07067E-16
 -1      4414 2.22544E-03 2.65390E-05-9.07247E-16
 -1      4415 2.11576E-03 6.32456E-05-8.14954E-16
 -1      4416 2.29792E-03 8.37881E-05-9.52472E-16
 -1      4417 2.19047E-03 9.00648E-05-8.64123E-16
 -1      4418 2.15810E-03 7.30244E-05-8.44770E-16
 -1      4419 2.34711E-03 5.38538E-05-1.00579E-15
 -1      4420 1.29361E-02-4.05022E-04-2.72755E-14
 -1      4421 1.28295E-02-4.01584E-04-2.67327E-14
 -1      4422 1.31323E-02-3.37806E-04-2.85192E-14
 -1      4423 2.26497E-03 3.54728E-05-9.39488E-16
 -1      4424 2.21154E-03 5.40279E-05-8.92231E-16
 -1      4425 1.32111E-02-3.48854E-04-2.89068E-14
 -3
    1PSTEP                         2           1           1          
  100CL  101 1.000000000        4425                     0    1           1
 -4  STRESS      6    1
 -5  SXX         1    4    1    1
 -5  SYY         1    4    2    2
 -5  SZZ         1    4    3    3
 -5  SXY         1    4    1    2
 -5  SYZ         1    4    2    3
 -5  SZX         1    4    3    1
 -1         1 1.77907E+01 1.05698E+01 5.47668E-01-1.35167E+01-4.73177E-13 7.40297E-13
 -1         2-6.88954E-01-2.45321E+01-3.35946E+00-6.59991E-02-7.03559E-13-8.39502E-14
 -1         3 2.00000E+01 2.13414E-04-1.41838E-04 2.07430E-04-5.30036E-13-4.33362E-13
 -1         4 2.00000E+01 1.83426E-04-1.66531E-04-1.81786E-04 7.09503E-14 3.65046E-13
 -1         5 3.24430E+01 6.09086E+00 2.63839E+00 6.11443E+00-7.23727E-15 4.86861E-13
 -1         6 3.52885E+01 1.20709E+01 4.94758E+00-8.46691E+00-1.45994E-14 7.02882E-13
 -1         7 2.10719E+01 6.16274E+00-8.73657E-02-4.50489E+00-1.97065E-15 3.14141E-13
 -1         8 1.99591E+01 6.01494E+00 7.10121E-02-2.96163E+00-8.16014E-15 1.50898E-13
 -1         9 1.93677E+01 5.83728E+00 5.85294E-02-2.15850E+00-8.96505E-15 3.18278E-14
 -1        10 1.90102E+01 5.72408E+00 5.13107E-02-1.57347E+00-6.05765E-15-3.93687E-14
 -1        11 1.87536E+01 5.64352E+00 4.30175E-02-1.11205E+00-6.32827E-15-8.49210E-14
 -1        12 1.85665E+01 5.58518E+00 3.56712E-02-7.41454E-01-6.21898E-15-1.12952E-13
 -1        13 1.84381E+01 5.54557E+00 3.02901E-02-4.22409E-01-6.40937E-15-1.20569E-13
 -1        14 1.83744E+01 5.52599E+00 2.76256E-02-1.36959E-01-3.04466E-15-1.33454E-13
 -1        15 1.83773E+01 5.52690E+00 2.79372E-02 1.38725E-01-1.73039E-16-1.44124E-13
 -1        16 1.84460E+01 5.54803E+00 3.11665E-02 4.28090E-01-1.50704E-15-1.62720E-13
 -1        17 1.85772E+01 5.58837E+00 3.69802E-02 7.54503E-01-1.33400E-15-1.62198E-13
 -1        18 1.87639E+01 5.64665E+00 4.45067E-02 1.13408E+00-1.75901E-15-1.59002E-13
 -1        19 1.90182E+01 5.72665E+00 5.24474E-02 1.60666E+00 3.90313E-15-1.48225E-13
 -1        20 1.93706E+01 5.83932E+00 5.83667E-02 2.20324E+00 6.91114E-15-1.26392E-13
 -1        21 1.99492E+01 6.02725E+00 6.56350E-02 3.00415E+00 6.03684E-15-6.11460E-14
 -1        22 2.14035E+01 6.42699E+00 1.60661E-01 4.31240E+00 2.47025E-15 9.98819E-14
 -1        23 2.31370E+01-1.39260E+00-9.48399E-01-6.49945E-01 3.48332E-15 6.52312E-13
 -1        24 1.98439E+01-1.00109E-01-3.04062E-01 7.09614E-02-3.54924E-15 5.94980E-13
 -1        25 1.94616E+01-5.84901E-02-6.85864E-02 6.40475E-02-1.38279E-15 5.19267E-13
 -1        26 1.95873E+01-2.61570E-02-1.12343E-02 3.73412E-02 1.03108E-15 4.69428E-13
 -1        27 1.99910E+01-1.70832E-02-6.07581E-03 2.94705E-02-1.59369E-14 4.73503E-13
 -1        28 2.05867E+01-1.19610E-02-7.45086E-03 2.68190E-02 2.22779E-14 4.16698E-13
 -1        29 2.13301E+01-8.10486E-03-7.57126E-03 2.72604E-02 1.32276E-14 5.00822E-13
 -1        30 2.21844E+01-3.78445E-03-4.85006E-03 2.93428E-02 1.45289E-15 4.66563E-13
 -1        31 2.30965E+01 2.29777E-03 2.29945E-03 3.13325E-02 8.70113E-16 3.25349E-13
 -1        32 2.39738E+01 1.09924E-02 1.59749E-02 3.02888E-02-2.58088E-14 1.76630E-13
 -1        33 2.46626E+01 2.20433E-02 3.72295E-02 2.14006E-02 5.01110E-14 1.26686E-13
 -1        34 2.49424E+01 3.29532E-02 6.26909E-02-1.43916E-03-7.93116E-15 3.18098E-13
 -1        35 2.45645E+01 3.80826E-02 8.04077E-02-4.17917E-02-4.02644E-14 2.73967E-13
 -1        36 2.33699E+01 3.00477E-02 7.07477E-02-9.31751E-02 4.11342E-14 3.76379E-13
 -1        37 2.14764E+01 5.03199E-03 1.80344E-02-1.31995E-01-4.35559E-14 5.24740E-13
 -1        38 1.94200E+01-2.99357E-02-6.63796E-02-1.24250E-01-5.81247E-14 4.95201E-13
 -1        39 1.80359E+01-5.66902E-02-1.35452E-01-5.45293E-02 7.25505E-15 5.01967E-13
 -1        40 1.79995E+01-5.80951E-02-1.39005E-01 4.66642E-02-2.75114E-14 5.50799E-13
 -1        41 1.93463E+01-3.32499E-02-7.45557E-02 1.21321E-01-1.73386E-14 1.77504E-13
 -1        42 2.14465E+01 1.65268E-03 1.04728E-02 1.34910E-01 3.25608E-15 1.53960E-13
 -1        43 2.34594E+01 2.78955E-02 6.68012E-02 9.92038E-02-3.58856E-14 1.89879E-13
 -1        44 2.48137E+01 3.73077E-02 7.95499E-02 4.80872E-02 4.41652E-14 3.84661E-13
 -1        45 2.53601E+01 3.30259E-02 6.30615E-02 6.93583E-03 1.29308E-14 4.71276E-13
 -1        46 2.52441E+01 2.24510E-02 3.75963E-02-1.64123E-02-3.39477E-14 2.88575E-13
 -1        47 2.47136E+01 1.15308E-02 1.57052E-02-2.50769E-02-1.44183E-14 4.91465E-13
 -1        48 2.39927E+01 3.12783E-03 1.37440E-03-2.50424E-02 9.67648E-14 7.46413E-13
 -1        49 2.32373E+01-2.20861E-03-6.17555E-03-2.11462E-02 1.75210E-14 9.80500E-13
 -1        50 2.25368E+01-5.01224E-03-9.14767E-03-1.62592E-02-2.45738E-14 6.93680E-13
 -1        51 2.19319E+01-6.07910E-03-9.52825E-03-1.17373E-02 1.04232E-14 4.64578E-13
 -1        52 2.14337E+01-6.10274E-03-8.66464E-03-8.05496E-03 1.08481E-13 7.55344E-13
 -1        53 2.10373E+01-5.57734E-03-7.33687E-03-5.26146E-03-2.49957E-15 8.33914E-13
 -1        54 2.07303E+01-4.81674E-03-5.94665E-03-3.23845E-03-4.74641E-14 7.27913E-13
 -1        55 2.04980E+01-4.00331E-03-4.67636E-03-1.82530E-03-8.87931E-14 2.58278E-13
 -1        56 2.03262E+01-3.23372E-03-3.59238E-03-8.70913E-04 2.93417E-14-9.52808E-15
 -1        57 2.02020E+01-2.55269E-03-2.70441E-03-2.50375E-04-5.25258E-15 3.35617E-13
 -1        58 2.01144E+01-1.97521E-03-1.99705E-03 1.33340E-04-4.66681E-14 7.80577E-14
 -1        59 2.00547E+01-1.50023E-03-1.44564E-03 3.53073E-04 6.00009E-14-7.28044E-14
 -1        60 2.00155E+01-1.11877E-03-1.02386E-03 4.62352E-04-1.14398E-15 1.61162E-13
 -1        61 1.99913E+01-8.18537E-04-7.07064E-04 4.99894E-04 3.79076E-14 2.39521E-13
 -1        62 1.99777E+01-5.86471E-04-4.73586E-04 4.93305E-04-9.47220E-14 4.04769E-13
 -1        63 1.99716E+01-4.10014E-04-3.04966E-04 4.61959E-04-2.80399E-14 3.55418E-13
 -1        64 1.99705E+01-2.77704E-04-1.85746E-04 4.19183E-04 6.75948E-14 9.14954E-14
 -1        65 1.99727E+01-1.79328E-04-1.02921E-04 3.73834E-04 9.58628E-15 2.16682E-13
 -1        66 1.99768E+01-1.05836E-04-4.51390E-05 3.31340E-04-9.66790E-14-2.35704E-13
 -1        67 1.99820E+01-4.91260E-05-1.33253E-06 2.94124E-04 1.53758E-13-3.59790E-13
 -1        68 1.99875E+01-1.77751E-06 4.13932E-05 2.61139E-04-2.43449E-14 3.58145E-13
 -1        69 1.99928E+01 4.16232E-05 9.80101E-05 2.24007E-04-1.48853E-14 1.19150E-13
 -1        70 1.99971E+01 6.87092E-05 1.61442E-04 1.46358E-04 7.56566E-14 7.91959E-13
 -1        71 1.99997E+01-1.42482E-05 1.21784E-04 1.19075E-05-3.14867E-14 8.54904E-13
 -1        72 2.11833E+01-4.03694E-01-9.84139E-01-3.27235E-01 7.74034E-15 4.27325E-13
 -1        73 1.98064E+01-6.62285E-02-2.85647E-01-5.77739E-02 5.65607E-15 2.91395E-13
 -1        74 1.94524E+01-2.22453E-02-6.39572E-02-2.16422E-02 5.98404E-15 1.68966E-13
 -1        75 1.95580E+01-1.23527E-02-1.31185E-02-1.65033E-02-1.08545E-14 1.29148E-13
 -1        76 1.99287E+01-7.81098E-03-5.31667E-03-1.47342E-02 4.46941E-15 6.78711E-14
 -1        77 2.04694E+01-4.72582E-03-4.84319E-03-1.50682E-02-1.96324E-14 3.58862E-14
 -1        78 2.11259E+01-1.73650E-03-3.46038E-03-1.71690E-02-1.51677E-14 1.20466E-13
 -1        79 2.18494E+01 1.94142E-03 6.48567E-04-2.06245E-02 1.47092E-14 7.27456E-14
 -1        80 2.25759E+01 6.71310E-03 8.54244E-03-2.45871E-02-2.25952E-14-1.18855E-14
 -1        81 2.32099E+01 1.23851E-02 2.09922E-02-2.71704E-02 3.26538E-14-2.41985E-14
 -1        82 2.36157E+01 1.77219E-02 3.71794E-02-2.49335E-02-3.86659E-15-1.24320E-13
 -1        83 2.36268E+01 2.01474E-02 5.26612E-02-1.31569E-02 2.92084E-16-7.09459E-14
 -1        84 2.30906E+01 1.63479E-02 5.80924E-02 1.18610E-02 2.37503E-14-1.16648E-13
 -1        85 2.19592E+01 4.52449E-03 4.19270E-02 4.78177E-02-7.31967E-15-1.54887E-13
 -1        86 2.03997E+01-1.26475E-02-7.07462E-04 8.17130E-02 5.05244E-14-2.82524E-13
 -1        87 1.88412E+01-2.74252E-02-5.72940E-02 9.24964E-02-3.55753E-14-3.95666E-13
 -1        88 1.78535E+01-3.17057E-02-9.88181E-02 6.54768E-02-1.93630E-14-3.29972E-13
 -1        89 1.78606E+01-2.33800E-02-9.84654E-02 8.57191E-03 1.46233E-14-5.83970E-13
 -1        90 1.88746E+01-7.84743E-03-5.68294E-02-4.91910E-02-3.65944E-14-3.84609E-13
 -1        91 2.04881E+01 7.02521E-03-7.87337E-04-8.06470E-02-1.98596E-14-3.39624E-14
 -1        92 2.21331E+01 1.60506E-02 4.14813E-02-7.95866E-02-4.62319E-14 2.84512E-13
 -1        93 2.33738E+01 1.81843E-02 5.72533E-02-5.76851E-02-2.44999E-14 3.05487E-13
 -1        94 2.40354E+01 1.54443E-02 5.15230E-02-3.07056E-02 3.53994E-14-8.87285E-14
 -1        95 2.41616E+01 1.05735E-02 3.57234E-02-8.74010E-03 5.10540E-14-4.21623E-13
 -1        96 2.39030E+01 5.67575E-03 1.92226E-02 5.11336E-03-1.10538E-14-3.37394E-13
 -1        97 2.34251E+01 1.80976E-03 6.57955E-03 1.18852E-02 3.80132E-15-1.72254E-13
 -1        98 2.28605E+01-7.70701E-04-1.36109E-03 1.38860E-02-2.33676E-15 7.17395E-14
 -1        99 2.22976E+01-2.23174E-03-5.47523E-03 1.32180E-02-4.16651E-14-2.15668E-13
 -1       100 2.17860E+01-2.87529E-03-7.03061E-03 1.13427E-02-4.25441E-14 7.64007E-14
 -1       101 2.13482E+01-2.99093E-03-7.10020E-03 9.12421E-03-9.03140E-16 6.38764E-14
 -1       102 2.09892E+01-2.80312E-03-6.42361E-03 7.00691E-03-5.44318E-14 8.35562E-14
 -1       103 2.07046E+01-2.46616E-03-5.45104E-03 5.18118E-03-2.81732E-14 4.40490E-13
 -1       104 2.04852E+01-2.07741E-03-4.43133E-03 3.69914E-03 1.07797E-13 3.92621E-13
 -1       105 2.03205E+01-1.69351E-03-3.48833E-03 2.54533E-03-1.91463E-14-2.31949E-13
 -1       106 2.02000E+01-1.34420E-03-2.67386E-03 1.67612E-03-7.98980E-14-4.03495E-13
 -1       107 2.01143E+01-1.04240E-03-2.00076E-03 1.04017E-03-2.78940E-14-6.10340E-13
 -1       108 2.00552E+01-7.91125E-04-1.46217E-03 5.88171E-04-1.81806E-14-6.50660E-13
 -1       109 2.00163E+01-5.87859E-04-1.04243E-03 2.76902E-04-3.32322E-14-6.29099E-13
 -1       110 1.99921E+01-4.27350E-04-7.22945E-04 7.04058E-05-5.69724E-14-5.12334E-13
 -1       111 1.99785E+01-3.03238E-04-4.85277E-04-6.02608E-05 8.57738E-14-4.14227E-13
 -1       112 1.99722E+01-2.08991E-04-3.12532E-04-1.37845E-04-1.30629E-13-6.14914E-13
 -1       113 1.99710E+01-1.38377E-04-1.89896E-04-1.79920E-04 1.09153E-13-3.18206E-13
 -1       114 1.99731E+01-8.56387E-05-1.04543E-04-1.99908E-04-1.23152E-13-7.59164E-14
 -1       115 1.99771E+01-4.54067E-05-4.48982E-05-2.07988E-04 1.03599E-13-1.38292E-13
 -1       116 1.99822E+01-1.28901E-05 7.60443E-07-2.11431E-04 4.31180E-15-4.57046E-13
 -1       117 1.99877E+01 1.64481E-05 4.59002E-05-2.14257E-04 9.24745E-14-8.07489E-13
 -1       118 1.99930E+01 4.51972E-05 1.05218E-04-2.16067E-04-6.72685E-14-1.12605E-12
 -1       119 1.99973E+01 6.94534E-05 1.75698E-04-1.94933E-04-4.19639E-14-1.37119E-12
 -1       120 1.99996E+01-4.98276E-05 9.34624E-05-6.20954E-05 2.82518E-13-1.36234E-12
 -1       121 1.99998E+01-2.85990E-04 8.23381E-05-2.93286E-05-1.15234E-12 7.90035E-14
 -1       122 1.99999E+01-2.62874E-03 1.30904E-04-1.54767E-04 7.49146E-14-7.17201E-14
 -1       123 1.99998E+01-6.50158E-03 3.45978E-05-1.89574E-04 8.63879E-13 6.82570E-14
 -1       124 1.99998E+01-1.07082E-02-3.67384E-05-1.71718E-04 2.53865E-13-1.17414E-14
 -1       125 1.99998E+01-1.45405E-02-7.35510E-05-1.34486E-04 1.27261E-12-2.60656E-13
 -1       126 1.99997E+01-1.75686E-02-9.01635E-05-9.54425E-05 8.64881E-13 5.97279E-14
 -1       127 1.99997E+01-1.96899E-02-9.47895E-05-5.57860E-05 1.04554E-12-2.74945E-14
 -1       128 1.99997E+01-2.07658E-02-9.58133E-05-1.83974E-05 1.70213E-13-1.03539E-13
 -1       129 1.99997E+01-2.07690E-02-9.60749E-05 1.80628E-05 6.54434E-13 3.17112E-13
 -1       130 1.99997E+01-1.96968E-02-9.55358E-05 5.55955E-05-3.11750E-13-5.97252E-13
 -1       131 1.99997E+01-1.75733E-02-9.03402E-05 9.69456E-05-1.32442E-12 1.50523E-13
 -1       132 1.99998E+01-1.45361E-02-7.49999E-05 1.35669E-04-7.64934E-13 2.04586E-13
 -1       133 1.99998E+01-1.06830E-02-3.69740E-05 1.73010E-04 4.84947E-13 1.70399E-13
 -1       134 1.99998E+01-6.44963E-03 4.12893E-05 2.01591E-04 2.00143E-13 6.82213E-15
 -1       135 1.99999E+01-2.65363E-03 1.11767E-04 2.16052E-04-3.31242E-13-3.16637E-15
 -1       136 1.99999E+01-3.56544E-04 7.38363E-05-1.72543E-05-9.20040E-13 6.99800E-14
 -1       137-1.48900E+00-1.93215E+01-3.04102E+00-3.86064E+00-4.06231E-13-2.92336E-14
 -1       138-1.26565E+00-7.23119E+00-2.16309E+00-2.48257E+00 1.46549E-14-9.71445E-16
 -1       139 3.55402E+00 4.22295E+00-9.68552E-01 4.15471E+00 4.79672E-13 3.42448E-13
 -1       140 1.80654E+01 1.08703E+01 5.87892E-01 1.39175E+01 8.91842E-13 1.12238E-12
 -1       141 3.91182E+01 9.13474E+00 2.08817E+00 1.82003E+01 6.48814E-13 1.53344E-12
 -1       142 5.75981E+01 3.94590E+00 3.11859E+00 1.30389E+01 3.30486E-13 8.18179E-13
 -1       143 6.59429E+01 1.01444E+00 3.55324E+00 4.49753E-01 5.72459E-15 4.10081E-13
 -1       144 5.95846E+01 3.27345E+00 3.24063E+00-1.21036E+01 2.18922E-14-4.29101E-14
 -1       145 4.29392E+01 8.34870E+00 2.33703E+00-1.81538E+01 1.97120E-13-3.51996E-13
 -1       146 2.34062E+01 1.11477E+01 1.04915E+00-1.58615E+01 3.39451E-13-5.73208E-13
 -1       147 7.77370E+00 7.68144E+00-3.89577E-01-7.80352E+00 6.26721E-13-5.18030E-13
 -1       148-1.97980E-01-2.26902E+00-1.72595E+00 4.71658E-01 9.81659E-13-5.75984E-13
 -1       149-1.79010E+00-1.48083E+01-2.75626E+00 4.24434E+00 1.17961E-12-3.77615E-13
 -1       150-9.23901E-01-2.32420E+01-3.29921E+00 2.39847E+00 6.16313E-13-1.50020E-13
 -1       151-8.86278E-01-2.39407E+01-3.35128E+00-1.93998E+00-2.04267E-13-2.38351E-14
 -1       152-1.82986E+00-1.59082E+01-2.84928E+00-4.29006E+00-5.94746E-13-1.44329E-13
 -1       153-2.92121E-01-3.05083E+00-1.81278E+00-6.41210E-01-6.22280E-13-3.39784E-13
 -1       154 8.42906E+00 7.75437E+00-3.85153E-01 8.23401E+00-7.88980E-13-8.11295E-13
 -1       155 2.51023E+01 1.11522E+01 1.15246E+00 1.64448E+01-5.66880E-13-7.78266E-13
 -1       156 4.48898E+01 7.88517E+00 2.44958E+00 1.79642E+01-2.79887E-13-6.06459E-13
 -1       157 6.14972E+01 2.90596E+00 3.37157E+00 1.06856E+01-4.34913E-14-2.43278E-13
 -1       158 6.63245E+01 1.08798E+00 3.62678E+00-2.84484E+00-8.33222E-14 2.92391E-13
 -1       159 5.65535E+01 4.49161E+00 3.10690E+00-1.43106E+01-2.13510E-13 6.67688E-13
 -1       160 3.76981E+01 9.30161E+00 1.99413E+00-1.79274E+01-4.63490E-13 9.81104E-13
 -1       161 3.87301E+00 4.57396E+00-9.63016E-01-4.42603E+00-2.70950E-13 2.42362E-13
 -1       162-1.51198E+00-7.87659E+00-2.26796E+00 2.80577E+00-3.50275E-13 1.17184E-13
 -1       163-1.47967E+00-1.99542E+01-3.10371E+00 3.96462E+00-7.20479E-13 2.46223E-13
 -1       164 2.13621E+01 3.65550E+00-5.31005E-02-3.29076E+00-6.60132E-14 1.94508E-13
 -1       165 2.02997E+01 4.21894E+00-4.29393E-02-2.44397E+00-8.89904E-14 8.61741E-14
 -1       166 1.96875E+01 4.53152E+00-3.01161E-02-1.81181E+00-8.63723E-14 5.98827E-15
 -1       167 1.92837E+01 4.70243E+00-2.23232E-02-1.31142E+00-7.90266E-14-4.40177E-14
 -1       168 1.89903E+01 4.81113E+00-1.76809E-02-9.11261E-01-6.99393E-14-7.46018E-14
 -1       169 1.87795E+01 4.88005E+00-1.51595E-02-5.71656E-01-6.08078E-14-9.02802E-14
 -1       170 1.86538E+01 4.91777E+00-1.38633E-02-2.75664E-01-4.05063E-14-1.06082E-13
 -1       171 1.86149E+01 4.92798E+00-1.34892E-02-2.65484E-04-2.72952E-14-1.09609E-13
 -1       172 1.86629E+01 4.91205E+00-1.39472E-02 2.77193E-01-3.50561E-15-1.21384E-13
 -1       173 1.87955E+01 4.86920E+00-1.53078E-02 5.78955E-01-1.18156E-15-1.40871E-13
 -1       174 1.90052E+01 4.79732E+00-1.78972E-02 9.20712E-01 1.05324E-14-1.31971E-13
 -1       175 1.93021E+01 4.68437E+00-2.25679E-02 1.33702E+00 3.90725E-14-1.28537E-13
 -1       176 1.97074E+01 4.50638E+00-3.13320E-02 1.85016E+00 6.14365E-14-1.20084E-13
 -1       177 2.03173E+01 4.19209E+00-4.45728E-02 2.49108E+00 7.91667E-14-8.20177E-14
 -1       178 2.14678E+01 3.43181E+00-5.59806E-02 3.23468E+00 7.99569E-14 8.10463E-15
 -1       179 2.26915E+01 1.10861E+00-3.30465E-01 2.79276E+00 6.19938E-14 1.36377E-13
 -1       180 2.23491E+01 8.36438E-01 1.45470E-03-1.71952E+00-4.23307E-14 3.05710E-13
 -1       181 2.10346E+01 1.91066E-01-8.45999E-03-5.23807E-01-4.37966E-14 2.83861E-13
 -1       182 2.05065E+01 1.16270E-01 1.46707E-02-2.17719E-02-3.89333E-14 2.52323E-13
 -1       183 2.04562E+01 7.07709E-02 1.09715E-02 2.45992E-01-8.67362E-15 1.92520E-13
 -1       184 2.06720E+01 5.17986E-02 6.10064E-03 4.20752E-01-2.28561E-14 1.77672E-13
 -1       185 2.10681E+01 4.02577E-02 3.10871E-03 5.49048E-01 1.52436E-14 1.90257E-13
 -1       186 2.15896E+01 2.76538E-02 1.16069E-03 6.41715E-01-9.13961E-15 1.70128E-13
 -1       187 2.21894E+01 7.17446E-03-5.67315E-04 6.89541E-01-4.43732E-14 1.85195E-13
 -1       188 2.28117E+01-2.79967E-02-2.34836E-03 6.66253E-01-7.09487E-14 2.26665E-13
 -1       189 2.33792E+01-8.30369E-02-3.93852E-03 5.31236E-01-3.37007E-14 2.19153E-13
 -1       190 2.37870E+01-1.55582E-01-4.66588E-03 2.40769E-01 1.96384E-14 1.24356E-13
 -1       191 2.39103E+01-2.24772E-01-3.74445E-03-2.21553E-01 1.84228E-15 8.51399E-14
 -1       192 2.36383E+01-2.44115E-01-1.43129E-03-7.92394E-01 4.25046E-14 1.67701E-13
 -1       193 2.29462E+01-1.54479E-01 9.19401E-04-1.28242E+00 3.29376E-14 1.39512E-13
 -1       194 2.19829E+01 6.29524E-02 1.15252E-03-1.40445E+00-9.21919E-15 2.37563E-13
 -1       195 2.11055E+01 3.20182E-01-4.10110E-04-9.48430E-01-4.34106E-14 2.35754E-13
 -1       196 2.07397E+01 4.45377E-01-1.66639E-03-2.14447E-02 2.95181E-14 1.91172E-13
 -1       197 2.10951E+01 3.40409E-01-4.09031E-04 9.30422E-01-1.25264E-13 1.11785E-13
 -1       198 2.19959E+01 8.88886E-02 1.35389E-03 1.44291E+00-1.18334E-13 1.34104E-13
 -1       199 2.30256E+01-1.37184E-01 9.73059E-04 1.37338E+00 5.20478E-14-4.58574E-15
 -1       200 2.38139E+01-2.38283E-01-1.55208E-03 9.11316E-01 1.13395E-13 1.25668E-13
 -1       201 2.41933E+01-2.25377E-01-3.95232E-03 3.46896E-01-6.05744E-14 1.12632E-13
 -1       202 2.41778E+01-1.57691E-01-4.77386E-03-1.18691E-01-1.23681E-14 1.58591E-13
 -1       203 2.38730E+01-8.44203E-02-4.10868E-03-4.14058E-01 1.36873E-13 3.49660E-13
 -1       204 2.34018E+01-2.83523E-02-2.67401E-03-5.52736E-01 7.85773E-14 4.36146E-13
 -1       205 2.28660E+01 6.55415E-03-1.16920E-03-5.80107E-01 1.39606E-13 3.79470E-13
 -1       206 2.23356E+01 2.44957E-02 9.30839E-06-5.41801E-01-1.55674E-13 3.50564E-13
 -1       207 2.18513E+01 3.12636E-02 7.60650E-04-4.72003E-01-8.91927E-14 1.97611E-13
 -1       208 2.14322E+01 3.16115E-02 1.13996E-03-3.92490E-01 4.28883E-14 3.11157E-13
 -1       209 2.10833E+01 2.87481E-02 1.25590E-03-3.15464E-01-6.14825E-14 1.39724E-13
 -1       210 2.08015E+01 2.46026E-02 1.21150E-03-2.46818E-01-1.04570E-13 1.01399E-13
 -1       211 2.05793E+01 2.02336E-02 1.08396E-03-1.88685E-01-5.73057E-14 3.48715E-13
 -1       212 2.04080E+01 1.61666E-02 9.23697E-04-1.41152E-01-1.49720E-13 5.08099E-13
 -1       213 2.02786E+01 1.26229E-02 7.60313E-04-1.03303E-01 1.50932E-13 3.62624E-13
 -1       214 2.01829E+01 9.66056E-03 6.09358E-04-7.38138E-02-2.05650E-13 2.53688E-13
 -1       215 2.01137E+01 7.25555E-03 4.77703E-04-5.12803E-02-3.80358E-14 2.73822E-13
 -1       216 2.00650E+01 5.34738E-03 3.67207E-04-3.43784E-02-7.89464E-14-6.27196E-14
 -1       217 2.00317E+01 3.86303E-03 2.77048E-04-2.19370E-02 5.43025E-14-1.74794E-14
 -1       218 2.00100E+01 2.72935E-03 2.05096E-04-1.29610E-02 1.22697E-13 1.04445E-13
 -1       219 1.99967E+01 1.87873E-03 1.48706E-04-6.62957E-03-1.25188E-13 1.67773E-13
 -1       220 1.99894E+01 1.25136E-03 1.05139E-04-2.28224E-03-1.10147E-13 2.85566E-14
 -1       221 1.99863E+01 7.95383E-04 7.17663E-05 5.99063E-04 1.32300E-13 1.05892E-13
 -1       222 1.99860E+01 4.65843E-04 4.62069E-05 2.40797E-03-7.12036E-14 2.52451E-13
 -1       223 1.99875E+01 2.22841E-04 2.64219E-05 3.42880E-03 8.93341E-14 5.70512E-13
 -1       224 1.99900E+01 2.91431E-05 1.10658E-05 3.84734E-03 1.12550E-13 2.94198E-13
 -1       225 1.99929E+01-1.54951E-04 5.25673E-07 3.75615E-03-3.87427E-15-5.46181E-14
 -1       226 1.99957E+01-3.77997E-04-4.85582E-06 3.15464E-03 3.33437E-13 4.12359E-14
 -1       227 1.99980E+01-6.68624E-04-1.10617E-06 2.00285E-03 1.67124E-13-1.77515E-14
 -1       228 2.14142E+01 2.70323E-01-4.84786E-02 9.66990E-01 7.06206E-14 1.15805E-13
 -1       229 2.05464E+01 1.30334E-01 9.35380E-03 2.45823E-01 5.83414E-14 9.41226E-14
 -1       230 2.02958E+01 6.83835E-02 1.29880E-02-7.03779E-02 2.84816E-14 4.79148E-14
 -1       231 2.03820E+01 4.21748E-02 7.61582E-03-2.47888E-01 5.07734E-14-5.99651E-15
 -1       232 2.06761E+01 2.87594E-02 3.61087E-03-3.62246E-01-9.88239E-15 1.07314E-15
 -1       233 2.11030E+01 1.81955E-02 1.40597E-03-4.36765E-01-3.52300E-14-2.65599E-14
 -1       234 2.16066E+01 5.39788E-03 1.54887E-04-4.73220E-01 2.63762E-14-2.50080E-14
 -1       235 2.21300E+01-1.33994E-02-5.45447E-04-4.60200E-01 1.56080E-14-4.60786E-16
 -1       236 2.26033E+01-4.07334E-02-6.48379E-04-3.77214E-01 4.30695E-14-7.79106E-14
 -1       237 2.29382E+01-7.60113E-02 6.19220E-05-2.01396E-01 1.85264E-14 4.46467E-14
 -1       238 2.30336E+01-1.11876E-01 1.57273E-03 7.80489E-02 2.60425E-15 1.06611E-14
 -1       239 2.28006E+01-1.30813E-01 3.21890E-03 4.35725E-01 3.54512E-14-2.11615E-14
 -1       240 2.22097E+01-1.07733E-01 3.47302E-03 7.84588E-01 8.56168E-14-8.84336E-14
 -1       241 2.13495E+01-2.60754E-02 7.66842E-04 9.76811E-01 1.02800E-13-1.57088E-13
 -1       242 2.04568E+01 9.76275E-02-4.33403E-03 8.64560E-01 1.35890E-14-1.26230E-13
 -1       243 1.98592E+01 2.04150E-01-8.34115E-03 4.12414E-01 1.73559E-15-2.40727E-13
 -1       244 1.98186E+01 2.26880E-01-7.29559E-03-2.26241E-01 1.05593E-13-1.32545E-13
 -1       245 2.03668E+01 1.50523E-01-2.04675E-03-7.75797E-01-1.27900E-13-1.45215E-13
 -1       246 2.12831E+01 2.69745E-02 3.11368E-03-1.02171E+00-2.09791E-13-4.49909E-14
 -1       247 2.22387E+01-7.52542E-02 5.33541E-03-9.33655E-01-1.75530E-13 4.10887E-14
 -1       248 2.29690E+01-1.21700E-01 4.09820E-03-6.31942E-01 7.15972E-14 3.36077E-14
 -1       249 2.33558E+01-1.17987E-01 1.45021E-03-2.74065E-01 1.97558E-13-2.95572E-14
 -1       250 2.34095E+01-8.78061E-02-7.72701E-04 2.94208E-02 1.65265E-13-2.18820E-13
 -1       251 2.32104E+01-5.22407E-02-1.82559E-03 2.34183E-01-9.62225E-14-1.75656E-13
 -1       252 2.28558E+01-2.26483E-02-1.86264E-03 3.42498E-01-1.38736E-13-3.54293E-14
 -1       253 2.24305E+01-2.35637E-03-1.36997E-03 3.77272E-01-1.24441E-13 2.19714E-13
 -1       254 2.19957E+01 9.49380E-03-7.48833E-04 3.64647E-01 6.40902E-14 3.97121E-13
 -1       255 2.15899E+01 1.51418E-02-2.16025E-04 3.26167E-01-1.55318E-13 2.20878E-13
 -1       256 2.12329E+01 1.68002E-02 1.56323E-04 2.76877E-01-1.79664E-14 3.37059E-13
 -1       257 2.09322E+01 1.61684E-02 3.74089E-04 2.26105E-01-7.02037E-14 3.12462E-13
 -1       258 2.06872E+01 1.43939E-02 4.73015E-04 1.78996E-01-1.05042E-13 2.58742E-13
 -1       259 2.04932E+01 1.21855E-02 4.92354E-04 1.37943E-01 2.39197E-13 1.44073E-13
 -1       260 2.03434E+01 9.94840E-03 4.64350E-04 1.03668E-01 3.20908E-13-7.33427E-15
 -1       261 2.02303E+01 7.89265E-03 4.12048E-04 7.59625E-02 3.08401E-14-6.87398E-14
 -1       262 2.01471E+01 6.11039E-03 3.50474E-04 5.41524E-02 5.97641E-14-1.44118E-13
 -1       263 2.00875E+01 4.62576E-03 2.88674E-04 3.73778E-02-4.09203E-14-2.83297E-13
 -1       264 2.00460E+01 3.42618E-03 2.31601E-04 2.47549E-02-3.96444E-14-2.08136E-13
 -1       265 2.00183E+01 2.48118E-03 1.81568E-04 1.54603E-02 4.93998E-14-1.49296E-13
 -1       266 2.00007E+01 1.75336E-03 1.39253E-04 8.77089E-03-4.91816E-14-1.93152E-13
 -1       267 1.99906E+01 1.20442E-03 1.04381E-04 4.07735E-03-5.33593E-14 1.29669E-13
 -1       268 1.99856E+01 7.98275E-04 7.61410E-05 8.83240E-04 3.10270E-14-9.60166E-15
 -1       269 1.99843E+01 5.02258E-04 5.34743E-05-1.20279E-03-1.78920E-13 8.24231E-14
 -1       270 1.99852E+01 2.86956E-04 3.53356E-05-2.47687E-03 2.25407E-13 1.02753E-13
 -1       271 1.99876E+01 1.24431E-04 2.12208E-05-3.14816E-03 1.04245E-13 1.85440E-13
 -1       272 1.99907E+01-1.16775E-05 1.20389E-05-3.34248E-03 2.47496E-13 1.26340E-13
 -1       273 1.99939E+01-1.48675E-04 1.03924E-05-3.10840E-03 1.32505E-13-9.98060E-14
 -1       274 1.99967E+01-3.35078E-04 1.19973E-05-2.41015E-03 2.52365E-13-2.23182E-13
 -1       275 1.99988E+01-5.37270E-04 9.40118E-06-1.21038E-03-1.27835E-14-3.32406E-13
 -1       276 1.99992E+01-1.85664E-03-4.28775E-06-1.97889E-03-9.03738E-14 6.86036E-13
 -1       277 1.99996E+01-4.03493E-03-3.43912E-06-2.88022E-03 4.79625E-14 3.50682E-13
 -1       278 1.99998E+01-6.53711E-03-2.11284E-06-3.11236E-03 3.32371E-13-1.29231E-13
 -1       279 2.00000E+01-9.00294E-03 2.38030E-06-2.85271E-03 2.23905E-13 4.34300E-13
 -1       280 2.00001E+01-1.11091E-02 7.14709E-06-2.30530E-03 2.45088E-13-2.45641E-13
 -1       281 2.00001E+01-1.27412E-02 1.08307E-05-1.59303E-03 1.91256E-13-1.74305E-13
 -1       282 2.00001E+01-1.37517E-02 1.29102E-05-8.10182E-04 3.27462E-13-3.22093E-13
 -1       283 2.00001E+01-1.40949E-02 1.35713E-05-2.56726E-06 2.44877E-13-8.88836E-14
 -1       284 2.00001E+01-1.37565E-02 1.29255E-05 8.06879E-04-2.14858E-13-5.44951E-13
 -1       285 2.00001E+01-1.27477E-02 1.07754E-05 1.59499E-03-1.09211E-14-5.32611E-13
 -1       286 2.00001E+01-1.11468E-02 7.02604E-06 2.30327E-03-2.90246E-13 1.78457E-13
 -1       287 2.00000E+01-8.99973E-03 2.29877E-06 2.86555E-03-6.21459E-14 8.24068E-13
 -1       288 1.99998E+01-6.52691E-03-3.15906E-06 3.12813E-03 1.59236E-13-4.97484E-14
 -1       289 1.99995E+01-4.00234E-03-6.96580E-06 2.83754E-03 7.68444E-14-1.75109E-13
 -1       290 1.99990E+01-2.16842E-03-1.21206E-05 2.82091E-03 2.14114E-14-4.01518E-13
 -1       291-7.66557E-01-1.02708E+01-8.94800E-01 1.31266E+00-2.12066E-13 1.41956E-13
 -1       292 3.40014E+00-7.92937E+00-6.67968E-01 4.00847E+00-1.41970E-13 2.69132E-13
 -1       293 9.77676E+00-4.60142E+00-4.85062E-01 5.62831E+00 1.67200E-13 3.77753E-13
 -1       294 2.02944E+01-1.31736E+00-5.56673E-02 7.04182E+00 1.62426E-13 6.00658E-13
 -1       295 3.07435E+01 3.13493E+00 4.13629E-01 7.59418E+00 3.00815E-13 5.26246E-13
 -1       296 3.94819E+01 5.18043E+00 6.45836E-01 4.77845E+00 3.37154E-13 3.27793E-13
 -1       297 4.27788E+01 7.11472E+00 6.49239E-01 1.29972E+00 1.85379E-13 4.38177E-13
 -1       298 4.54754E+01 6.71922E+00 9.35085E-01-1.82450E+00 1.94261E-13 2.58696E-13
 -1       299 4.10242E+01 5.61371E+00 7.73201E-01-4.88959E+00 2.12448E-13 8.81240E-14
 -1       300 3.31356E+01 3.41853E+00 4.66865E-01-6.87909E+00 1.86441E-13-1.29896E-14
 -1       301 2.33602E+01 3.72948E-01 8.73446E-02-7.40615E+00 2.54213E-13-1.00364E-13
 -1       302 1.32391E+01-3.01215E+00-3.28490E-01-6.41421E+00 4.82392E-13-1.39028E-13
 -1       303 5.39312E+00-7.04034E+00-7.04250E-01-4.37888E+00 4.59799E-13-1.62869E-13
 -1       304 5.17033E-01-1.00161E+01-9.27232E-01-2.27261E+00 3.15387E-13-3.23103E-13
 -1       305-1.22984E+00-1.07004E+01-9.28852E-01-2.31617E-01 1.37581E-13-4.14113E-13
 -1       306 2.44056E-01-9.85332E+00-8.60858E-01 2.12838E+00-5.33185E-14-2.17756E-13
 -1       307 5.71269E+00-7.07350E+00-5.79590E-01 4.80149E+00-1.50185E-13-1.54978E-13
 -1       308 1.46797E+01-3.94361E+00-2.69135E-01 6.56822E+00-1.02307E-13-2.73337E-13
 -1       309 2.38536E+01 8.88161E-01 1.05543E-01 7.56447E+00-2.69257E-13-1.70475E-13
 -1       310 3.42603E+01 3.81462E+00 5.51118E-01 7.20324E+00-2.71810E-13-1.33171E-13
 -1       311 4.14711E+01 5.70301E+00 7.30377E-01 4.17372E+00-2.03546E-13-6.38656E-14
 -1       312 4.36217E+01 7.35053E+00 6.94052E-01 7.44509E-01-2.61929E-13 2.22725E-13
 -1       313 4.55632E+01 6.46249E+00 9.64599E-01-2.64464E+00-2.70006E-13 4.07438E-13
 -1       314 3.83517E+01 4.66662E+00 5.02375E-01-3.82508E+00-2.09534E-13 2.16493E-13
 -1       315 3.06241E+01 2.02297E+00 3.13841E-01-6.59045E+00-1.14436E-13 4.27741E-13
 -1       316 1.96471E+01-5.91479E-01-7.08536E-02-7.21906E+00-1.03334E-13 4.37650E-13
 -1       317 9.76480E+00-4.70247E+00-5.14467E-01-5.47447E+00-1.27842E-13 1.77247E-13
 -1       318 3.07983E+00-8.15866E+00-7.02413E-01-3.73507E+00-1.68365E-13-1.05208E-13
 -1       319-9.24029E-01-1.08924E+01-9.92287E-01-9.69006E-01-4.20108E-13-1.40860E-14
 -1       320 2.04121E+01 3.07635E+00-1.77207E-02-1.68059E+00-9.94385E-14 4.28936E-14
 -1       321 2.11537E+01 2.20827E+00-1.65653E-02-1.97822E+00-7.35861E-14 1.17191E-13
 -1       322 1.94607E+01 3.89919E+00-1.42848E-02-9.37328E-01-7.88472E-14-3.19909E-14
 -1       323 1.91558E+01 4.11599E+00-1.16723E-02-6.26233E-01-7.13009E-14-6.46284E-14
 -1       324 1.89523E+01 4.24868E+00-1.02020E-02-3.59087E-01-5.55700E-14-6.69178E-14
 -1       325 1.88536E+01 4.30896E+00-9.55076E-03-1.18627E-01-4.12011E-14-6.33812E-14
 -1       326 1.88612E+01 4.30219E+00-9.60025E-03 1.14698E-01-1.21301E-14-7.75612E-14
 -1       327 1.89737E+01 4.22921E+00-1.03391E-02 3.60532E-01-4.68446E-15-1.05389E-13
 -1       328 1.91819E+01 4.08935E+00-1.18607E-02 6.31973E-01 1.19140E-14-1.09757E-13
 -1       329 1.94898E+01 3.86557E+00-1.43859E-02 9.51783E-01 3.50426E-14-8.86361E-14
 -1       330 1.99015E+01 3.52751E+00-1.81773E-02 1.31960E+00 6.37010E-14-8.96375E-14
 -1       331 2.04515E+01 3.00384E+00-2.21286E-02 1.71067E+00 9.34071E-14-7.46868E-14
 -1       332 2.11389E+01 2.12599E+00-2.92385E-02 1.95541E+00 9.14544E-14-2.30944E-14
 -1       333 2.15274E+01 1.17352E+00-2.28980E-02 1.61936E+00 8.72427E-14 2.68240E-14
 -1       334 2.09806E+01 5.03748E-01 9.20720E-03 6.04187E-01 6.21734E-14-6.63445E-15
 -1       335 2.10382E+01 7.21559E-01 1.33851E-02-6.01939E-01-7.35523E-14 1.13178E-13
 -1       336 2.07968E+01 4.17327E-01 8.02766E-03 4.09346E-02-6.98551E-14 1.02281E-13
 -1       337 2.07633E+01 2.81714E-01 5.15786E-03 4.52369E-01-4.99372E-14 4.64221E-14
 -1       338 2.08926E+01 2.08010E-01 2.92591E-03 7.43696E-01 1.34463E-14 5.89842E-14
 -1       339 2.11491E+01 1.51546E-01 1.54809E-03 9.57581E-01 1.12870E-14 6.81283E-14
 -1       340 2.15037E+01 8.31590E-02 3.32848E-04 1.10117E+00 4.93686E-15 1.12181E-13
 -1       341 2.19328E+01-2.26357E-02-1.17583E-03 1.15439E+00-8.60965E-16 1.61257E-13
 -1       342 2.24135E+01-1.88180E-01-3.12307E-03 1.07314E+00-7.10395E-14 1.56923E-13
 -1       343 2.29163E+01-4.21263E-01-5.20623E-03 7.96200E-01-4.85920E-14 1.01997E-13
 -1       344 2.33924E+01-6.88215E-01-6.50455E-03 2.67161E-01-3.52671E-14 1.15909E-13
 -1       345 2.37531E+01-8.74216E-01-5.63104E-03-5.10566E-01-1.22033E-14 1.79466E-14
 -1       346 2.38696E+01-7.85891E-01-4.27041E-03-1.38662E+00 6.68623E-14 1.33211E-14
 -1       347 2.36304E+01-2.43748E-01-3.92006E-03-1.99843E+00 4.89066E-14 6.60283E-14
 -1       348 2.30996E+01 6.70505E-01-5.07653E-03-1.86774E+00-6.28937E-14 1.14364E-13
 -1       349 2.26306E+01 1.44375E+00-5.52963E-03-7.95495E-01-2.61466E-14 7.51105E-14
 -1       350 2.26240E+01 1.48464E+00-5.75072E-03 7.52041E-01-1.64080E-13-5.64878E-14
 -1       351 2.31034E+01 7.61102E-01-4.11606E-03 1.90001E+00-7.11852E-14-7.61177E-14
 -1       352 2.36835E+01-1.62077E-01-3.12609E-03 2.12285E+00-1.50724E-14-3.59287E-14
 -1       353 2.39960E+01-7.46297E-01-5.22074E-03 1.56879E+00 1.00747E-13 4.47266E-15
 -1       354 2.39515E+01-8.68026E-01-7.20444E-03 7.09865E-01 1.20179E-13-1.10972E-14
 -1       355 2.36525E+01-6.94761E-01-7.05061E-03-7.17672E-02 4.77081E-14 1.35003E-13
 -1       356 2.32294E+01-4.30071E-01-5.40536E-03-6.11180E-01 1.11113E-13 2.34161E-13
 -1       357 2.27708E+01-1.95313E-01-3.25852E-03-8.99290E-01 1.99044E-13 2.29579E-13
 -1       358 2.23241E+01-3.15629E-02-1.35518E-03-9.94012E-01 7.53727E-14 2.51264E-13
 -1       359 2.19119E+01 6.40996E-02-2.27330E-05-9.64413E-01-8.30627E-14 2.24290E-14
 -1       360 2.15445E+01 1.09602E-01 7.61182E-04-8.67171E-01-1.71262E-13 7.41955E-14
 -1       361 2.12259E+01 1.23291E-01 1.12505E-03-7.41464E-01 6.06581E-14 9.25936E-14
 -1       362 2.09561E+01 1.19111E-01 1.21629E-03-6.11351E-01-7.96129E-14-1.37131E-13
 -1       363 2.07324E+01 1.06244E-01 1.15282E-03-4.90009E-01-6.06330E-14-1.12264E-13
 -1       364 2.05508E+01 9.01880E-02 1.01515E-03-3.83566E-01 3.84346E-14-4.29257E-14
 -1       365 2.04061E+01 7.39727E-02 8.52584E-04-2.93930E-01 4.14435E-14-3.35019E-14
 -1       366 2.02930E+01 5.91080E-02 6.92393E-04-2.20673E-01-8.22766E-14 1.45838E-13
 -1       367 2.02061E+01 4.62208E-02 5.47888E-04-1.62214E-01-2.70344E-14 1.40532E-13
 -1       368 2.01406E+01 3.54536E-02 4.24219E-04-1.16505E-01-5.61338E-14 3.13338E-13
 -1       369 2.00923E+01 2.66996E-02 3.22080E-04-8.14253E-02-2.41835E-13 2.18055E-13
 -1       370 2.00574E+01 1.97378E-02 2.39937E-04-5.49841E-02-5.65838E-14 1.47383E-13
 -1       371 2.00330E+01 1.43071E-02 1.75290E-04-3.54170E-02 2.14951E-13-1.52970E-14
 -1       372 2.00164E+01 1.01457E-02 1.25355E-04-2.12183E-02 5.96844E-14 5.35972E-14
 -1       373 2.00056E+01 7.01001E-03 8.74116E-05-1.11409E-02 3.31424E-14 2.99584E-13
 -1       374 1.99992E+01 4.68238E-03 5.89487E-05-4.17863E-03-1.28349E-13 3.48720E-13
 -1       375 1.99958E+01 2.97184E-03 3.77007E-05 4.57928E-04-3.70458E-15-3.52084E-14
 -1       376 1.99944E+01 1.71062E-03 2.17636E-05 3.36682E-03 1.78263E-13 2.67180E-13
 -1       377 1.99944E+01 7.48483E-04 9.41491E-06 4.97707E-03-5.39543E-14 2.53879E-13
 -1       378 1.99953E+01-5.15258E-05-1.42297E-09 5.56774E-03-3.22021E-13 2.95541E-13
 -1       379 1.99965E+01-8.28085E-04-9.44448E-06 5.30371E-03-6.27531E-15 2.88894E-14
 -1       380 1.99977E+01-1.50266E-03-1.77664E-05 4.34748E-03 1.46881E-13-5.07403E-14
 -1       381 2.06754E+01 2.63373E-01 1.13128E-02 3.20669E-02 6.01216E-14 1.59651E-14
 -1       382 2.06219E+01 1.62995E-01 6.78834E-03-3.08880E-01 6.83542E-14-1.31767E-14
 -1       383 2.07622E+01 1.08713E-01 3.36908E-03-5.29591E-01 5.82845E-15-5.26163E-16
 -1       384 2.10366E+01 6.76476E-02 1.41539E-03-6.73536E-01-2.75032E-14-7.01815E-15
 -1       385 2.13988E+01 2.19146E-02 1.52378E-05-7.50034E-01 3.66624E-15-2.53363E-14
 -1       386 2.18068E+01-4.10246E-02-1.35739E-03-7.46705E-01 5.97988E-14-3.70352E-14
 -1       387 2.22148E+01-1.29099E-01-2.79693E-03-6.36549E-01 4.35750E-14-3.65116E-14
 -1       388 2.25670E+01-2.40429E-01-4.06945E-03-3.87635E-01-6.83171E-14 6.13951E-14
 -1       389 2.27953E+01-3.52946E-01-4.69565E-03 1.73904E-02 5.62627E-14 1.08136E-13
 -1       390 2.28251E+01-4.14629E-01-4.20837E-03 5.47935E-01 7.10838E-14-1.63540E-14
 -1       391 2.25977E+01-3.49305E-01-2.35299E-03 1.08682E+00 1.55046E-13 1.63931E-16
 -1       392 2.21194E+01-1.02184E-01-1.87375E-04 1.42042E+00 7.31587E-14 3.76270E-14
 -1       393 2.15183E+01 2.83750E-01 1.04361E-03 1.31586E+00 2.79412E-14 2.40463E-14
 -1       394 2.10461E+01 6.31074E-01 1.98832E-03 6.86023E-01 6.65878E-14 1.16164E-14
 -1       395 2.09563E+01 7.24838E-01 4.40623E-03-2.64541E-01 8.60171E-14-9.56120E-14
 -1       396 2.13139E+01 4.97742E-01 5.44604E-03-1.11297E+00-1.76001E-14-6.28161E-14
 -1       397 2.19373E+01 1.05406E-01 3.40170E-03-1.50997E+00-1.87630E-13-2.03183E-13
 -1       398 2.25516E+01-2.30290E-01 4.11447E-04-1.39304E+00-1.10445E-13-3.04732E-13
 -1       399 2.29600E+01-3.90482E-01-2.98822E-03-9.41860E-01-9.05703E-14-2.70849E-13
 -1       400 2.31040E+01-3.86867E-01-4.89997E-03-3.97839E-01 2.38559E-13-1.92785E-15
 -1       401 2.30195E+01-2.93223E-01-5.07430E-03 6.89252E-02 1.56253E-13 8.25304E-14
 -1       402 2.27774E+01-1.78113E-01-4.02745E-03 3.88554E-01-1.12022E-13 2.37195E-13
 -1       403 2.24469E+01-7.99582E-02-2.50872E-03 5.61694E-01-1.53430E-13 3.07618E-13
 -1       404 2.20821E+01-1.11488E-02-1.11021E-03 6.20849E-01-1.07942E-13 3.62433E-13
 -1       405 2.17208E+01 3.00463E-02-7.93416E-05 6.04631E-01 5.10207E-14 4.99104E-13
 -1       406 2.13864E+01 5.04256E-02 5.59684E-04 5.45793E-01 3.61495E-15 4.45757E-13
 -1       407 2.10912E+01 5.70917E-02 8.83203E-04 4.67885E-01-1.10955E-13 4.61986E-13
 -1       408 2.08400E+01 5.56760E-02 9.88557E-04 3.85996E-01 1.48270E-14 5.35403E-13
 -1       409 2.06326E+01 5.00782E-02 9.61113E-04 3.08796E-01 4.42615E-14 1.54415E-13
 -1       410 2.04656E+01 4.27670E-02 8.63469E-04 2.40589E-01 2.61670E-13-8.90000E-14
 -1       411 2.03342E+01 3.51898E-02 7.36724E-04 1.82932E-01 2.41795E-13 5.05288E-14
 -1       412 2.02331E+01 2.81234E-02 6.05528E-04 1.35782E-01 1.00031E-13 1.53487E-13
 -1       413 2.01570E+01 2.19285E-02 4.83279E-04 9.82433E-02 1.89790E-14 2.35761E-13
 -1       414 2.01010E+01 1.67203E-02 3.76223E-04 6.90463E-02 1.30162E-13 1.64663E-13
 -1       415 2.00608E+01 1.24776E-02 2.86343E-04 4.68207E-02-1.65294E-13 7.88827E-14
 -1       416 2.00329E+01 9.10965E-03 2.13228E-04 3.02537E-02-2.49071E-14 1.92654E-13
 -1       417 2.00142E+01 6.49588E-03 1.55241E-04 1.81692E-02-8.32785E-14 1.80194E-13
 -1       418 2.00023E+01 4.50874E-03 1.10213E-04 9.56019E-03-2.36672E-13 4.49995E-13
 -1       419 1.99955E+01 3.02562E-03 7.58171E-05 3.59490E-03-4.97440E-14 3.66735E-13
 -1       420 1.99921E+01 1.93408E-03 4.97681E-05-3.90789E-04-1.00549E-13 2.95325E-13
 -1       421 1.99912E+01 1.13282E-03 2.98835E-05-2.90722E-03 1.05251E-13 2.27534E-13
 -1       422 1.99918E+01 5.27449E-04 1.46362E-05-4.32600E-03 2.36549E-14 3.20145E-13
 -1       423 1.99933E+01 3.09510E-05 3.67258E-06-4.88541E-03 2.83945E-13 4.35402E-13
 -1       424 1.99952E+01-4.37351E-04-3.94948E-06-4.71216E-03 2.17987E-13 4.15061E-13
 -1       425 1.99971E+01-9.68100E-04-8.11141E-06-3.84773E-03 2.29721E-13 5.98936E-13
 -1       426 1.99983E+01-1.42848E-03-1.10559E-05-3.03630E-03 1.76903E-13 5.36689E-13
 -1       427 2.00002E+01-5.17506E-03 1.47048E-06-4.71024E-03-9.60175E-15 7.07419E-14
 -1       428 1.99995E+01-3.73273E-03-7.51180E-06-4.82493E-03-8.42518E-14 1.44440E-13
 -1       429 1.99988E+01-2.63782E-03-1.54830E-05-4.21308E-03 4.40483E-14 5.78104E-13
 -1       430 2.00007E+01-6.39859E-03 6.72124E-06-4.04102E-03-7.52930E-14-3.56194E-13
 -1       431 2.00009E+01-7.36587E-03 1.09404E-05-3.03703E-03-5.17169E-14-3.73008E-14
 -1       432 2.00010E+01-8.02112E-03 1.28720E-05-1.86852E-03 1.23918E-13-2.95488E-14
 -1       433 2.00010E+01-8.35197E-03 1.36965E-05-6.32658E-04-1.33784E-13-5.11157E-13
 -1       434 2.00010E+01-8.35648E-03 1.36965E-05 6.22151E-04-1.53026E-13-4.73459E-13
 -1       435 2.00010E+01-8.03326E-03 1.28112E-05 1.86422E-03-2.23016E-13-4.80508E-13
 -1       436 2.00009E+01-7.39602E-03 1.04935E-05 3.02419E-03 3.19151E-14-1.57957E-13
 -1       437 2.00007E+01-6.43145E-03 6.96539E-06 4.04294E-03-1.06173E-13 8.12593E-13
 -1       438 2.00002E+01-5.18548E-03 1.41368E-06 4.73379E-03-2.29269E-13 5.45779E-13
 -1       439 1.99995E+01-3.75356E-03-1.00942E-05 4.89821E-03-6.79229E-14-3.71566E-13
 -1       440 1.12458E+01-5.57469E+00-3.92741E-02 6.95062E+00-1.11855E-14 3.06734E-13
 -1       441 1.07048E+00-4.44078E+00-5.82434E-02 4.08319E-02-1.55104E-14 1.76831E-13
 -1       442 4.53882E+00-4.00958E+00 5.24499E-02 4.66369E+00-1.15963E-13 3.09613E-13
 -1       443 1.85565E+01-5.11213E+00-4.74271E-02 6.65232E+00-4.45061E-14 3.60108E-13
 -1       444 2.75943E+01-2.15208E+00 9.95937E-03 4.06001E+00 1.07844E-13 3.22228E-13
 -1       445 1.98815E+01 3.56696E+00-1.68841E-02-1.31058E+00-1.01535E-13 6.80922E-15
 -1       446 3.33068E+01 5.57322E+00-9.91693E-02-9.00385E-01 1.59053E-13 1.38514E-13
 -1       447 3.57711E+01 8.07994E+00 4.79078E-02 5.99497E-02 2.46830E-13 2.55260E-13
 -1       448 3.51522E+01 6.52165E+00 4.50633E-02 2.03012E-01 2.20643E-13 3.19689E-13
 -1       449 3.31614E+01 2.53169E+00 1.40268E-02-5.75062E-01 2.31017E-13 2.84550E-13
 -1       450 2.93440E+01-1.63573E+00 1.88209E-02-3.30951E+00 1.49401E-13 4.89331E-14
 -1       451 2.22635E+01-4.66302E+00-2.28472E-02-6.00286E+00 2.02893E-13 1.24470E-13
 -1       452 1.38861E+01-5.70978E+00-6.72609E-02-7.07776E+00 1.77358E-13-2.18102E-14
 -1       453 6.86730E+00-5.16233E+00-3.38746E-02-6.07581E+00 7.42045E-14-1.47618E-13
 -1       454 1.97758E+00-4.71461E+00-6.86250E-02-2.70604E+00 6.92918E-14-4.17139E-13
 -1       455 1.61744E+00-4.56979E+00-6.54602E-02 1.89431E+00 1.60691E-13-3.18606E-13
 -1       456 6.19301E+00-5.00338E+00-2.19824E-02 5.69324E+00 7.24837E-14-1.70572E-13
 -1       457 1.50089E+01-5.78124E+00 2.80435E-02 7.17065E+00 3.28765E-14-1.40804E-13
 -1       458 2.35469E+01-4.48015E+00-4.52032E-03 5.57281E+00-3.39589E-14-1.93595E-14
 -1       459 3.00048E+01-1.22011E+00 3.71194E-02 3.30161E+00-1.38244E-13-5.04874E-14
 -1       460 3.39595E+01 2.71311E+00 5.52339E-02 7.48674E-01-2.17798E-13-7.71050E-14
 -1       461 3.54345E+01 6.63152E+00 2.40390E-02-3.84857E-01-3.10182E-13 4.08978E-14
 -1       462 3.45428E+01 7.72232E+00-6.23935E-02 4.32677E-01-1.82160E-13-2.17847E-14
 -1       463 3.37612E+01 5.53370E+00-4.67565E-02 1.01812E+00-4.50889E-14-1.02987E-13
 -1       464 3.18835E+01 4.08792E-01-4.97094E-02-3.50994E-01-5.21770E-14-1.37237E-13
 -1       465 2.72622E+01-3.28408E+00-1.34439E-02-3.98495E+00 8.91925E-14 1.82618E-13
 -1       466 1.95127E+01-5.25392E+00-3.41545E-02-6.43400E+00-7.11098E-14 3.33567E-13
 -1       467 1.10774E+01-5.67736E+00-4.84159E-02-6.82499E+00-8.90399E-14 1.99146E-14
 -1       468 3.66234E+00-4.47813E+00-3.02954E-02-4.17004E+00-5.49977E-14-5.05429E-14
 -1       469 3.25480E+01 1.39012E+00 1.53852E-02 1.20395E+00 2.33299E-13 1.96274E-13
 -1       470 2.48225E+01-5.17864E+00 1.04649E-02 4.52076E+00-1.28786E-14 3.79072E-13
 -1       471 3.10865E+01 7.30549E+00-1.58673E-01-3.89673E-01-2.41820E-13-2.71970E-13
 -1       472 3.05223E+01 6.91857E+00-1.48081E-01-1.09510E+00 1.14242E-13 5.80890E-14
 -1       473 2.08865E+01 9.07485E-01 4.22398E-03 4.88820E-01 4.80705E-14-4.67750E-14
 -1       474 1.92439E+01 3.53980E+00-4.34590E-03-3.43989E-01-4.92848E-14-5.53009E-14
 -1       475 1.95303E+01 3.29119E+00-4.96490E-03-5.40413E-01-5.29467E-14-3.83606E-14
 -1       476 1.90213E+01 3.71728E+00-3.83352E-03-1.00589E-02-2.89971E-14-5.25262E-14
 -1       477 1.90927E+01 3.65822E+00-3.99090E-03 1.54845E-01-1.36612E-14-8.82266E-14
 -1       478 1.92763E+01 3.50492E+00-4.48364E-03 3.35328E-01 7.48524E-15-9.79172E-14
 -1       479 1.95676E+01 3.24617E+00-5.30171E-03 5.45771E-01 3.86039E-14-9.09922E-14
 -1       480 1.99518E+01 2.86669E+00-6.18174E-03 7.77823E-01 4.33588E-14-7.69666E-14
 -1       481 2.04252E+01 2.32593E+00-5.59526E-03 1.00535E+00 5.75919E-14-6.29447E-14
 -1       482 2.07613E+01 5.62994E-01 5.45256E-03-1.02264E-01 6.60340E-14-4.19747E-14
 -1       483 2.07864E+01 1.11707E+00 3.03975E-03-3.65682E-01-7.79700E-14 3.99582E-14
 -1       484 2.94882E+01 1.65295E+00-1.38668E-01-1.94406E+00 7.62029E-14-8.59243E-14
 -1       485 2.07216E+01 7.42636E-01 2.77348E-03 2.27588E-01-7.05367E-14 3.80941E-14
 -1       486 2.07107E+01 5.36797E-01 1.59862E-03 6.73807E-01-1.05207E-14 5.25120E-14
 -1       487 2.07797E+01 4.02731E-01 9.27364E-04 1.01511E+00 1.79284E-14 1.28615E-14
 -1       488 2.09320E+01 2.78232E-01 4.36163E-04 1.27481E+00 3.38809E-14 4.97392E-14
 -1       489 2.11729E+01 1.13791E-01-1.26720E-04 1.45155E+00-7.89591E-15 4.60508E-14
 -1       490 2.15181E+01-1.37270E-01-9.44731E-04 1.51870E+00-2.93076E-14 8.10703E-15
 -1       491 2.19954E+01-5.11662E-01-2.05762E-03 1.42275E+00-6.18835E-14 5.67945E-14
 -1       492 2.26316E+01-1.00616E+00-3.18029E-03 1.08623E+00-4.77247E-14 5.79095E-14
 -1       493 2.34256E+01-1.52166E+00-2.88446E-03 4.23255E-01-5.73981E-14 8.09192E-14
 -1       494 2.42526E+01-1.76078E+00-7.11986E-04-5.77877E-01-1.92394E-14 7.17571E-14
 -1       495 2.48479E+01-1.30276E+00-1.13318E-02-1.72019E+00 4.19794E-14-3.20087E-14
 -1       496 2.48840E+01 1.79636E-01-2.85645E-02-2.39738E+00 5.77446E-14 8.11178E-15
 -1       497 2.44622E+01 2.14892E+00-4.26355E-02-1.84645E+00-7.05321E-14 1.53351E-13
 -1       498 2.41812E+01 3.16502E+00-4.36410E-02-3.66656E-02-1.80311E-13 6.42029E-14
 -1       499 2.44467E+01 2.31096E+00-4.10482E-02 1.83945E+00-8.17072E-14 1.03282E-14
 -1       500 2.49112E+01 3.61981E-01-2.50070E-02 2.51906E+00-3.21748E-14 9.72050E-14
 -1       501 2.49305E+01-1.19141E+00-1.22886E-02 1.93200E+00 4.10349E-14 1.08711E-13
 -1       502 2.43962E+01-1.73711E+00-6.98025E-03 8.18936E-01 1.14530E-13 2.19491E-14
 -1       503 2.35995E+01-1.52970E+00-4.40108E-03-1.94320E-01 6.25291E-14-1.63775E-13
 -1       504 2.28207E+01-1.02682E+00-3.05982E-03-8.73202E-01 2.12009E-13-9.83425E-14
 -1       505 2.21843E+01-5.30080E-01-1.84882E-03-1.22666E+00 1.88040E-13-4.10720E-14
 -1       506 2.17016E+01-1.58765E-01-7.76191E-04-1.34101E+00 6.50898E-14-2.18617E-14
 -1       507 2.13407E+01 7.42118E-02-7.75770E-05-1.30442E+00-8.45819E-14-1.52044E-14
 -1       508 2.10653E+01 1.97587E-01 3.34090E-04-1.18433E+00 1.34703E-14 6.02345E-14
 -1       509 2.08486E+01 2.46987E-01 5.25130E-04-1.02658E+00-1.52651E-13 1.79635E-13
 -1       510 2.06736E+01 2.51867E-01 5.78680E-04-8.59970E-01-1.39520E-13 4.40391E-14
 -1       511 2.05303E+01 2.32877E-01 5.54818E-04-7.01176E-01-1.83157E-13 3.94709E-14
 -1       512 2.04126E+01 2.03145E-01 4.92912E-04-5.58805E-01 1.43335E-14-9.74258E-14
 -1       513 2.03165E+01 1.70403E-01 4.17230E-04-4.36332E-01 1.17893E-16 1.23005E-14
 -1       514 2.02388E+01 1.38858E-01 3.41345E-04-3.34164E-01 2.52265E-14-2.26298E-14
 -1       515 2.01770E+01 1.10556E-01 2.72064E-04-2.51001E-01 3.97343E-14 1.51285E-13
 -1       516 2.01285E+01 8.62763E-02 2.12190E-04-1.84706E-01-1.14155E-13 2.73546E-13
 -1       517 2.00911E+01 6.60986E-02 1.62308E-04-1.32841E-01-1.73203E-13 5.06202E-14
 -1       518 2.00628E+01 4.97382E-02 1.21863E-04-9.29788E-02-2.09097E-13 1.32620E-13
 -1       519 2.00418E+01 3.67453E-02 8.97859E-05-6.28755E-02-7.79346E-14-6.53319E-14
 -1       520 2.00266E+01 2.66159E-02 6.48281E-05-4.05500E-02 1.60118E-13-2.28311E-13
 -1       521 2.00159E+01 1.88530E-02 4.57460E-05-2.43141E-02 5.45934E-14-1.30054E-13
 -1       522 2.00086E+01 1.29960E-02 3.13741E-05-1.27692E-02-2.98193E-14-2.83423E-13
 -1       523 2.00038E+01 8.63272E-03 2.06428E-05-4.78767E-03-2.29881E-13-1.13772E-13
 -1       524 2.00009E+01 5.39970E-03 1.25497E-05 5.13859E-04 2.87199E-13-7.93626E-14
 -1       525 1.99993E+01 2.97565E-03 6.49255E-06 3.80288E-03 7.67350E-14 4.32815E-14
 -1       526 1.99986E+01 1.07285E-03 1.68040E-06 5.55670E-03-9.47483E-14 2.51543E-13
 -1       527 1.99985E+01-5.59153E-04-2.59892E-06 6.09420E-03-3.48583E-13 3.39464E-13
 -1       528 2.08333E+01 2.48672E-01 1.36753E-03-7.90208E-01 2.59874E-14-1.03389E-14
 -1       529 2.10178E+01 1.37150E-01 4.03027E-04-9.76379E-01 9.32441E-15-5.83727E-14
 -1       530 2.12830E+01 3.66787E-03-4.50729E-04-1.06679E+00 3.42755E-14-5.24957E-14
 -1       531 2.16177E+01-1.76964E-01-1.41027E-03-1.03995E+00-1.02954E-14 1.08161E-14
 -1       532 2.20103E+01-4.15573E-01-2.46435E-03-8.58477E-01-5.63866E-14 3.78099E-14
 -1       533 2.24383E+01-6.91286E-01-3.34767E-03-4.81231E-01 1.99736E-14-7.36077E-14
 -1       534 2.28511E+01-9.25148E-01-3.60012E-03 1.08558E-01 1.25239E-13-2.63328E-14
 -1       535 2.31535E+01-9.65207E-01-3.14519E-03 8.52112E-01 1.03661E-13-1.41678E-14
 -1       536 2.32183E+01-6.25701E-01-1.78846E-03 1.55023E+00 3.09198E-14 5.86507E-14
 -1       537 2.29775E+01 1.49845E-01-2.76505E-03 1.85267E+00 7.61698E-14 9.84799E-14
 -1       538 2.25430E+01 1.12518E+00-6.71815E-03 1.42877E+00 8.48818E-14 1.21023E-13
 -1       539 2.22621E+01 1.72166E+00-4.14306E-03 2.96418E-01 1.56412E-13 1.87988E-14
 -1       540 2.23887E+01 1.50853E+00-1.58443E-03-1.02341E+00 1.75378E-14-3.02553E-14
 -1       541 2.28137E+01 6.60540E-01-2.68899E-03-1.84652E+00-9.22764E-14-7.58660E-15
 -1       542 2.32093E+01-2.65283E-01-1.63431E-03-1.89143E+00-1.28035E-13-4.29550E-15
 -1       543 2.33303E+01-8.31706E-01-2.13956E-03-1.35589E+00-3.54234E-14-2.86262E-14
 -1       544 2.31631E+01-9.59527E-01-2.92725E-03-6.15342E-01-2.26198E-14-2.16346E-13
 -1       545 2.28224E+01-8.00207E-01-3.46829E-03 5.12006E-02 3.84336E-14 5.05163E-14
 -1       546 2.24225E+01-5.34301E-01-3.06093E-03 5.24123E-01-8.09790E-14 3.75613E-13
 -1       547 2.20322E+01-2.80366E-01-2.02168E-03 7.94710E-01-8.61502E-14 2.80377E-13
 -1       548 2.16795E+01-8.74041E-02-9.81047E-04 9.02988E-01-6.88862E-14 2.69064E-13
 -1       549 2.13715E+01 3.78523E-02-1.97701E-04 8.99674E-01-2.95425E-14 1.86602E-13
 -1       550 2.11069E+01 1.07332E-01 2.95243E-04 8.29412E-01 8.28996E-14 8.93600E-14
 -1       551 2.08821E+01 1.37394E-01 5.56057E-04 7.25554E-01-7.11373E-14 1.24915E-13
 -1       552 2.06931E+01 1.42501E-01 6.53493E-04 6.10546E-01-1.47940E-14-2.81712E-14
 -1       553 2.05363E+01 1.33427E-01 6.49874E-04 4.98164E-01 1.41425E-13-1.29289E-13
 -1       554 2.04082E+01 1.17426E-01 5.91331E-04 3.95980E-01 8.96032E-14-4.22458E-14
 -1       555 2.03050E+01 9.90304E-02 5.08531E-04 3.07429E-01 1.08218E-13 3.68580E-13
 -1       556 2.02234E+01 8.08687E-02 4.20144E-04 2.33361E-01 1.89819E-13 4.67850E-13
 -1       557 2.01599E+01 6.43234E-02 3.36509E-04 1.73131E-01 1.81810E-13 2.72539E-13
 -1       558 2.01114E+01 5.00011E-02 2.62618E-04 1.25309E-01 1.33065E-13 4.65719E-14
 -1       559 2.00751E+01 3.80481E-02 2.00234E-04 8.81471E-02-4.10839E-14 3.54740E-13
 -1       560 2.00485E+01 2.83541E-02 1.49301E-04 5.98500E-02-9.47604E-14 3.04732E-13
 -1       561 2.00295E+01 2.06791E-02 1.08819E-04 3.87341E-02 9.75877E-14 3.83355E-13
 -1       562 2.00163E+01 1.47303E-02 7.73624E-05 2.33063E-02-2.42930E-13 1.08975E-13
 -1       563 2.00075E+01 1.02062E-02 5.33754E-05 1.22962E-02-1.39806E-13 1.42294E-13
 -1       564 2.00021E+01 6.81949E-03 3.53098E-05 4.65926E-03 5.65398E-14-1.17548E-13
 -1       565 1.99989E+01 4.30685E-03 2.16484E-05-4.34288E-04 4.19694E-15-1.91102E-13
 -1       566 1.99974E+01 2.43054E-03 1.19930E-05-3.61565E-03 6.13535E-14 8.22207E-14
 -1       567 1.99970E+01 9.76562E-04 4.32839E-06-5.35366E-03-1.30732E-13 2.40817E-13
 -1       568 1.99973E+01-3.06676E-04-7.37892E-06-5.97633E-03 1.26252E-13 4.03849E-13
 -1       569 1.99980E+01-1.48016E-03-6.75057E-06-5.59468E-03-8.11141E-15 4.86150E-13
 -1       570 2.00018E+01-3.07928E-03 4.37911E-06-4.05814E-03 3.67588E-13-3.22330E-13
 -1       571 2.00021E+01-3.16376E-03 5.87924E-06-2.77171E-03 1.46877E-13-1.05708E-13
 -1       572 2.00001E+01-2.40226E-03-5.99921E-06-5.78085E-03 4.87469E-14-9.58433E-14
 -1       573 2.00012E+01-2.83102E-03 2.22068E-07-5.10447E-03-4.96600E-16 1.16378E-13
 -1       574 2.00022E+01-3.18498E-03 6.16810E-06-1.40366E-03-2.50033E-13-5.82953E-13
 -1       575 2.00022E+01-3.19139E-03 6.17846E-06-1.11440E-05-1.52438E-13-2.85177E-13
 -1       576 2.00022E+01-3.20071E-03 6.02486E-06 1.38588E-03-8.59021E-14-6.02892E-13
 -1       577 2.00021E+01-3.19217E-03 5.33095E-06 2.74428E-03 6.86110E-15-1.24397E-13
 -1       578 2.00018E+01-3.11023E-03 3.70879E-06 4.04480E-03 3.16083E-14-2.48511E-13
 -1       579 2.00012E+01-2.88977E-03 1.25638E-06 5.12827E-03-4.91387E-13 6.30556E-13
 -1       580 2.00001E+01-2.44226E-03-1.14242E-06 5.75995E-03-7.19565E-13 3.58179E-13
 -1       581 5.66616E+00-1.05377E+00 2.01248E-01 1.82606E+00-9.23549E-14 1.70614E-13
 -1       582 1.08741E+01-3.67312E+00 1.29763E-01 6.42354E+00-1.16435E-13 4.97859E-13
 -1       583 5.63012E+00-1.11650E+00 1.86470E-01-1.99955E+00 8.33014E-14-6.66689E-14
 -1       584 2.07436E+01 3.73007E-01 2.89109E-03-5.07881E-01 2.08220E-14-5.18471E-15
 -1       585 1.76963E+01-5.39094E+00 6.38374E-02 6.67347E+00 3.39867E-14 4.20735E-13
 -1       586 2.07308E+01 1.85775E+00-6.08353E-03-1.03905E+00-8.45500E-14 3.70560E-14
 -1       587 2.93818E+01-2.08701E+00-5.60355E-02 7.11928E-01 5.05459E-14-1.34545E-14
 -1       588 1.90720E+01 3.67892E+00-3.95510E-03-1.71032E-01-3.76798E-14-5.59685E-14
 -1       589 3.05922E+01 6.99587E+00-1.61637E-01 8.09358E-01 1.54793E-13 1.79926E-13
 -1       590 2.87782E+01-3.16564E+00-6.80092E-02-5.69955E-01 1.76001E-13-1.72057E-13
 -1       591 3.03658E+01 3.76092E+00-1.34749E-01 1.75899E+00 3.26530E-13 2.78083E-13
 -1       592 2.96583E+01-1.23626E+00-9.12956E-02 2.95922E-01 1.90396E-13 2.76126E-13
 -1       593 2.66652E+01-4.61513E+00-1.93442E-02-3.06397E+00 1.24047E-13 1.51393E-13
 -1       594 2.01516E+01-5.70427E+00 3.91315E-02-6.26799E+00 4.19942E-14 9.53725E-14
 -1       595 1.35971E+01-4.71862E+00 1.11400E-01-7.03939E+00-4.41314E-14 1.63758E-14
 -1       596 7.09609E+00-2.39479E+00 1.56710E-01-4.68098E+00-6.46844E-14-2.05544E-13
 -1       597 4.68486E+00-1.36264E+00 1.80155E-01-5.10985E-01 4.67545E-14-3.06144E-13
 -1       598 6.43349E+00-2.22181E+00 1.60781E-01 4.03791E+00 1.81480E-13-2.64733E-13
 -1       599 1.26244E+01-3.78427E+00 1.40033E-01 6.49597E+00 1.04951E-13-2.40204E-13
 -1       600 2.22424E+01-5.73549E+00 2.90885E-02 5.31280E+00 1.50227E-14-1.24866E-13
 -1       601 2.75966E+01-4.27063E+00-2.02940E-02 2.36755E+00-6.82232E-14-8.28643E-14
 -1       602 3.02449E+01-1.16294E+00-8.73737E-02-2.32061E-01-1.35347E-13-9.00668E-15
 -1       603 3.06139E+01 3.52285E+00-1.57246E-01-1.91657E+00-2.05683E-13-1.01620E-13
 -1       604 2.91369E+01 5.77038E+00-1.90524E-01 1.59547E+00-1.33574E-13-2.67758E-13
 -1       605 2.97665E+01 1.88502E+00-1.38219E-01 2.30501E+00-1.78330E-14-1.69455E-13
 -1       606 2.45977E+01-5.37756E+00 8.16835E-03-4.24696E+00 9.66310E-14-1.08913E-13
 -1       607 1.79790E+01-5.50578E+00 7.40033E-02-6.55682E+00 1.57555E-13 1.79141E-13
 -1       608 9.99058E+00-3.63766E+00 1.24625E-01-6.18354E+00-6.28733E-14-1.98452E-13
 -1       609 2.10342E+01 1.33779E+00-8.08268E-04 1.13102E+00 8.19978E-14-4.32874E-14
 -1       610 1.99091E+01 2.91531E+00-8.58661E-03-7.53909E-01-7.04231E-14-3.46576E-15
 -1       611 9.26448E+00-1.26153E+00 1.49459E-01 4.23178E+00-6.90628E-14 3.56090E-13
 -1       612 1.88045E+01-4.64158E+00 8.23196E-02 5.83480E+00 9.47575E-14-1.42018E-13
 -1       613 2.83032E+01 5.05211E+00-1.56983E-01-1.73052E+00-1.89002E-13-1.52085E-13
 -1       614 2.80751E+01 3.57229E+00-1.47126E-01-2.28076E+00-2.15106E-16-1.89605E-14
 -1       615 1.99987E+01-1.61002E-03-6.01960E-06 5.88000E-03-2.57697E-13 1.68541E-13
 -1       616 1.92920E+01 3.02112E+00-1.27237E-03 8.93456E-02 8.73829E-15-8.38469E-14
 -1       617 1.91462E+01 3.15196E+00-1.16074E-03 1.15477E-02-1.14552E-14-6.60037E-14
 -1       618 1.99050E+01 2.41623E+00-1.49067E-03 3.03739E-01 4.70389E-14-7.96858E-14
 -1       619 2.03071E+01 1.92895E+00-1.96332E-03 4.07941E-01 4.46330E-14-7.06636E-14
 -1       620 2.06464E+01 1.21721E+00 2.77868E-03 2.25197E-01 4.24308E-14-3.67443E-14
 -1       621 2.06107E+01 8.34254E-01 1.27741E-03-3.04959E-01 2.75896E-14-4.14101E-14
 -1       622 1.01573E+01-1.27853E+00 1.33424E-01-4.36117E+00 1.53554E-13-3.33136E-14
 -1       623 2.04583E+01 1.02779E+00 8.12570E-04 4.44951E-01-4.28551E-14 2.10170E-14
 -1       624 2.04282E+01 7.84181E-01 4.03187E-04 8.75215E-01-1.91619E-14 2.54719E-15
 -1       625 2.04287E+01 5.95963E-01 2.55652E-04 1.22998E+00 1.51543E-14-4.22946E-14
 -1       626 2.04867E+01 3.93968E-01 1.24816E-04 1.52142E+00 3.51721E-15-1.05352E-13
 -1       627 2.06392E+01 1.11558E-01-8.66873E-05 1.74788E+00-9.06226E-15-6.78965E-14
 -1       628 2.09459E+01-3.18653E-01-4.87435E-04 1.88654E+00 3.46665E-15-3.44069E-14
 -1       629 2.14954E+01-9.49142E-01-1.03794E-03 1.88051E+00-9.75430E-15 3.25641E-14
 -1       630 2.23837E+01-1.75753E+00-9.52816E-04 1.61809E+00-3.27006E-15 1.34671E-13
 -1       631 2.37038E+01-2.56989E+00-1.04870E-02 9.01091E-01-3.73586E-14 1.13175E-13
 -1       632 2.52667E+01-2.79410E+00-2.39371E-02-3.46373E-01-3.79276E-14 1.69265E-13
 -1       633 2.64020E+01-1.57631E+00-4.90803E-02-1.83825E+00 5.05724E-14 2.03047E-13
 -1       634 2.61478E+01 4.31970E+00-1.11749E-01-1.28405E+00-1.65992E-13-7.41768E-15
 -1       635 2.61255E+01 4.45977E+00-1.12597E-01 1.22027E+00-1.94334E-13 2.99830E-14
 -1       636 2.64094E+01 1.77258E+00-8.99306E-02 2.70187E+00-6.77791E-14 1.72709E-14
 -1       637 2.63157E+01-1.20454E+00-3.37567E-02 2.14923E+00 2.79984E-15-4.58297E-14
 -1       638 2.52701E+01-2.54286E+00-8.64225E-03 7.08637E-01-4.91098E-14-3.66417E-14
 -1       639 2.38734E+01-2.45342E+00-1.60085E-04-5.46161E-01 3.39096E-14-1.27948E-13
 -1       640 2.26212E+01-1.73625E+00 7.36984E-05-1.28752E+00 2.36401E-13-1.02171E-13
 -1       641 2.17129E+01-9.63332E-01-7.02148E-04-1.60713E+00 2.19738E-13-5.35226E-14
 -1       642 2.11244E+01-3.59691E-01-5.16134E-04-1.66316E+00 8.69747E-14 2.89195E-15
 -1       643 2.07658E+01 3.52454E-02-2.93322E-04-1.57484E+00-5.27682E-15-5.71465E-14
 -1       644 2.05508E+01 2.57862E-01-7.76682E-05-1.41501E+00 9.05247E-15 5.87417E-14
 -1       645 2.04181E+01 3.59729E-01 4.39065E-05-1.22628E+00-2.04624E-14 9.81146E-15
 -1       646 2.03304E+01 3.85611E-01 1.01030E-04-1.03352E+00-1.49710E-13 6.01895E-14
 -1       647 2.02669E+01 3.68150E-01 1.21704E-04-8.51073E-01-2.64632E-13 1.01501E-13
 -1       648 2.02170E+01 3.28982E-01 1.21266E-04-6.86637E-01-8.68056E-14 9.03530E-14
 -1       649 2.01758E+01 2.81476E-01 1.10089E-04-5.43616E-01 2.43441E-14 1.45988E-13
 -1       650 2.01409E+01 2.33357E-01 9.45055E-05-4.22658E-01-1.09446E-13-1.31294E-14
 -1       651 2.01114E+01 1.88728E-01 7.81121E-05-3.22722E-01 1.44447E-13 4.28422E-14
 -1       652 2.00866E+01 1.49477E-01 6.27738E-05-2.41824E-01 3.74767E-14 1.65034E-13
 -1       653 2.00662E+01 1.16186E-01 4.93224E-05-1.77542E-01-2.39532E-13 1.04681E-13
 -1       654 2.00497E+01 8.87144E-02 3.80079E-05-1.27353E-01-1.93110E-13 1.27673E-13
 -1       655 2.00366E+01 6.65469E-02 2.87727E-05-8.88308E-02-1.86485E-13 1.42817E-13
 -1       656 2.00263E+01 4.90044E-02 2.14133E-05-5.97722E-02-4.76221E-14 8.79541E-14
 -1       657 2.00185E+01 3.53656E-02 1.56622E-05-3.82472E-02 1.40661E-13-9.38839E-14
 -1       658 2.00126E+01 2.49334E-02 1.12488E-05-2.26190E-02-9.52609E-14-1.54031E-13
 -1       659 2.00083E+01 1.70670E-02 7.86015E-06-1.15363E-02-9.54254E-14-1.71948E-13
 -1       660 2.00052E+01 1.11940E-02 5.13420E-06-3.91377E-03-1.32980E-13 9.53615E-14
 -1       661 2.00030E+01 6.81180E-03 3.37020E-06 1.09689E-03 4.48181E-13 2.70261E-14
 -1       662 2.00016E+01 3.47673E-03 2.20079E-06 4.12410E-03 1.26401E-13 1.63388E-13
 -1       663 2.00006E+01 7.63088E-04-4.36997E-07 5.62239E-03-1.27591E-13 4.78374E-13
 -1       664 2.08031E+01 1.85024E-01-7.37291E-06-1.22449E+00 2.94909E-14-1.47446E-14
 -1       665 2.00006E+01-3.78617E-05 7.89669E-07-5.84500E-03-1.48555E-13 4.86186E-14
 -1       666 2.06701E+01 3.87617E-01 3.43835E-04-1.01195E+00 2.82580E-14-1.61167E-14
 -1       667 2.13755E+01-4.12502E-01-7.51821E-04-1.32298E+00-6.59773E-14 3.04789E-14
 -1       668 2.18686E+01-8.52453E-01-1.26750E-03-1.13241E+00 7.06354E-14-3.41112E-14
 -1       669 2.25173E+01-1.33374E+00-1.64370E-03-7.01592E-01 6.34702E-14 2.13501E-14
 -1       670 2.32662E+01-1.68368E+00-1.69528E-03 1.50245E-02 6.63204E-14 4.38538E-14
 -1       671 2.39549E+01-1.59727E+00-3.44067E-03 9.72156E-01 2.94714E-14 1.27639E-13
 -1       672 2.42891E+01-7.50954E-01 4.43533E-03 1.86261E+00-9.94430E-16 1.25514E-13
 -1       673 2.40045E+01 9.43712E-01-2.10851E-02 2.13302E+00 1.23999E-13 1.21598E-13
 -1       674 2.35691E+01 2.59056E+00-3.89373E-02 1.24448E+00 1.59857E-13 3.82932E-14
 -1       675 2.35540E+01 3.00262E+00-2.56704E-02-4.91469E-01 1.50004E-13 5.62250E-14
 -1       676 2.39041E+01 1.88997E+00-2.94972E-02-1.91364E+00-1.78520E-14-3.07231E-14
 -1       677 2.42838E+01 8.60947E-02-1.37908E-02-2.22587E+00-1.76785E-13 6.96512E-14
 -1       678 2.42144E+01-1.22987E+00-7.34099E-03-1.59322E+00-8.05306E-14 8.30039E-14
 -1       679 2.36839E+01-1.68101E+00-2.46035E-04-6.28049E-01 3.03251E-15 6.35941E-14
 -1       680 2.29481E+01-1.50721E+00-6.46285E-04 2.08970E-01 5.58906E-16 1.04464E-13
 -1       681 2.22405E+01-1.06463E+00-1.36185E-03 7.69989E-01-8.68342E-14 8.57493E-14
 -1       682 2.16687E+01-6.06487E-01-1.02771E-03 1.06957E+00-6.15701E-16 1.91135E-14
 -1       683 2.12424E+01-2.39780E-01-5.28700E-04 1.17671E+00-1.76800E-15 5.55954E-14
 -1       684 2.09361E+01 1.02180E-02-1.62995E-04 1.15807E+00 4.60570E-14-3.98101E-14
 -1       685 2.07165E+01 1.58316E-01 4.68599E-05 1.06607E+00 8.04545E-14-1.02224E-13
 -1       686 2.05556E+01 2.31069E-01 1.63581E-04 9.37354E-01-1.59316E-14 8.16576E-14
 -1       687 2.04342E+01 2.53796E-01 2.13181E-04 7.96108E-01 6.83529E-14-1.42355E-13
 -1       688 2.03399E+01 2.46337E-01 2.21872E-04 6.57399E-01 1.25513E-13-2.46029E-13
 -1       689 2.02650E+01 2.22671E-01 2.07582E-04 5.29877E-01-9.07937E-14-3.68750E-14
 -1       690 2.02050E+01 1.91948E-01 1.82102E-04 4.17825E-01 2.36925E-14 2.82901E-14
 -1       691 2.01569E+01 1.59778E-01 1.52838E-04 3.22663E-01 7.27054E-15-8.00610E-15
 -1       692 2.01183E+01 1.29346E-01 1.24075E-04 2.44037E-01 7.83843E-14 4.22517E-13
 -1       693 2.00879E+01 1.02254E-01 9.80316E-05 1.80581E-01 3.03569E-13 5.99692E-13
 -1       694 2.00640E+01 7.91243E-02 7.56428E-05 1.30433E-01 1.71781E-13 5.07775E-13
 -1       695 2.00456E+01 5.99906E-02 5.70945E-05 9.15756E-02-2.25722E-14 2.04813E-13
 -1       696 2.00317E+01 4.45656E-02 4.21621E-05 6.20379E-02-4.65800E-14 2.62468E-16
 -1       697 2.00214E+01 3.24038E-02 3.04321E-05 4.00188E-02 2.49662E-14 2.35170E-13
 -1       698 2.00139E+01 2.30021E-02 2.14001E-05 2.39436E-02-2.52351E-13 1.16939E-13
 -1       699 2.00085E+01 1.58577E-02 1.45345E-05 1.24841E-02 8.77192E-14-2.32844E-13
 -1       700 2.00048E+01 1.04980E-02 9.24237E-06 4.55609E-03 1.29774E-13-2.26324E-13
 -1       701 2.00024E+01 6.49092E-03 6.24958E-06-6.94233E-04-4.40668E-14-3.60128E-13
 -1       702 2.00009E+01 3.45364E-03 7.22410E-06-3.91381E-03-1.17273E-13-3.02216E-13
 -1       703 2.00008E+01 1.72679E-03 5.73766E-07-5.21506E-03-2.10411E-13-3.37818E-14
 -1       704 2.00034E+01 2.01952E-03 1.92138E-06-6.41955E-04 4.17152E-14-3.94210E-13
 -1       705 2.00003E+01-8.47222E-04-4.30108E-06 5.93624E-03-4.06095E-13 4.71912E-13
 -1       706 2.00031E+01 1.13502E-03 2.31646E-06-3.18761E-03 2.36717E-13-4.43863E-13
 -1       707 2.00034E+01 2.00652E-03 1.88432E-06 6.03280E-04-1.35066E-13-4.91183E-13
 -1       708 2.00033E+01 1.70282E-03 2.28318E-06-1.90137E-03 3.82803E-14-5.65847E-13
 -1       709 2.22406E+01-5.23172E+00 4.79281E-02-4.61876E+00-5.16462E-14 4.23533E-14
 -1       710 2.00034E+01 1.67548E-03 1.85455E-06 1.85324E-03-1.48047E-13-2.87416E-13
 -1       711 2.00032E+01 1.09388E-03 1.69515E-06 3.16170E-03-1.66816E-13-3.88063E-13
 -1       712 2.00026E+01 4.15804E-04-9.77538E-07 4.43765E-03-2.61792E-14 1.00613E-13
 -1       713 2.00016E+01-3.57410E-04 2.57920E-06 5.33656E-03-2.49960E-13 4.35797E-13
 -1       714 1.59785E+01-3.84304E+00 1.01033E-01-6.05190E+00 8.34714E-14 2.72317E-14
 -1       715 2.06119E+01 5.84774E-01 8.55745E-04-7.08456E-01 5.78528E-15-3.29317E-14
 -1       716 2.04349E+01 1.91012E+00 8.46372E-05-5.54428E-01-6.90638E-14 2.86184E-14
 -1       717 2.30657E+01-5.26691E+00 4.13549E-02 4.36374E+00-9.95870E-14 1.52225E-13
 -1       718 8.37925E+00 2.18928E-01 1.49995E-01-5.99688E-02 1.43965E-14-1.11154E-13
 -1       719 2.10295E+01-6.93311E-02-3.10303E-04-1.33733E+00-1.92676E-14-1.86662E-14
 -1       720 2.04695E+01 1.37586E+00-3.08760E-05-1.91694E-02-6.83122E-14 2.69155E-14
 -1       721 1.95534E+01 2.77626E+00-1.41370E-03 1.88199E-01 3.54979E-14-6.11605E-14
 -1       722 2.55345E+01-4.78306E+00 2.29513E-02 2.22734E+00 7.40944E-14 4.70457E-14
 -1       723 2.86518E+01 2.96822E-01-1.00385E-01-2.06253E+00-5.72008E-14 1.15134E-13
 -1       724 1.95005E+01 2.83463E+00-1.32216E-03-2.00545E-01-3.86270E-14-4.54982E-14
 -1       725 2.62416E+01-4.66226E+00-2.27626E-02-1.75064E+00-3.84883E-14-1.61506E-13
 -1       726 2.75662E+01 3.32321E-01-9.72855E-02 2.17600E+00 2.09912E-13 1.53252E-13
 -1       727 2.73317E+01-3.56751E+00-5.89657E-02-4.05716E-01 1.57685E-13 2.09121E-13
 -1       728 2.37945E+01-5.27643E+00 9.43359E-03-3.99109E+00 3.13048E-14 9.98351E-14
 -1       729 1.85279E+01-4.71835E+00 7.56539E-02-6.04935E+00-5.24684E-14 9.60551E-14
 -1       730 1.31723E+01-2.45387E+00 1.24662E-01-5.65965E+00-1.03698E-13-3.28418E-14
 -1       731 8.68410E+00-3.60908E-01 1.53384E-01-2.51545E+00-5.60281E-14-1.90702E-13
 -1       732 1.12401E+01-1.62696E+00 1.36570E-01 4.77188E+00 8.68645E-14-2.72428E-13
 -1       733 2.80666E+01-3.09036E+00-5.35396E-02-2.08207E-01-2.47241E-14 1.03913E-13
 -1       734 8.01714E+00-3.18072E-01 1.53040E-01 1.80563E+00 9.16905E-14-2.14086E-13
 -1       735 2.67039E+01 5.87250E+00-1.61414E-01-2.16249E-01 4.96617E-14 9.40636E-14
 -1       736 2.74043E+01 4.57160E+00-1.47866E-01 1.81225E+00 2.58238E-13 3.86358E-14
 -1       737 2.80056E+01-1.43641E+00-6.29231E-02 1.76966E+00 3.59712E-14-9.76857E-14
 -1       738 1.61707E+01-3.88595E+00 9.00472E-02 6.10454E+00-2.28428E-14 4.32425E-13
 -1       739 2.80876E+01-1.55301E+00-7.15858E-02-1.18423E+00-1.28800E-13-1.12577E-13
 -1       740 2.67412E+01-4.20490E+00-3.24901E-02 1.47724E+00-8.58662E-14-1.84602E-13
 -1       741 1.98547E+01 2.48616E+00-1.08387E-03-3.03002E-01-5.61924E-14 1.00907E-15
 -1       742 1.91325E+01 3.16575E+00-1.15475E-03-5.36101E-02-2.86702E-14-5.81465E-14
 -1       743 1.01638E+01 1.37767E-01 1.05111E-01 2.18606E+00 4.46206E-14 2.19078E-13
 -1       744 2.28936E+01-4.63002E+00 2.41990E-02 3.65567E+00 1.60138E-13 7.05252E-15
 -1       745 2.65345E+01 1.42752E+00-8.97842E-02-2.59287E+00 5.74367E-14 2.64753E-14
 -1       746 2.00026E+01 4.81645E-04 4.87242E-07-4.44323E-03 1.92746E-13 1.47765E-13
 -1       747 1.33360E+01-1.77197E+00 9.84065E-02 5.01373E+00-4.45338E-14 5.15719E-13
 -1       748 2.75765E+01 4.62943E-01-9.43172E-02-2.15662E+00-7.92838E-14-1.41245E-13
 -1       749 1.59271E+01-2.82902E+00 7.95333E-02 5.40285E+00 1.10913E-13-1.26121E-13
 -1       750 1.92534E+01 3.06072E+00-1.26827E-03-1.20165E-01-3.62037E-14-3.87960E-14
 -1       751 2.69826E+01 5.54629E+00-1.59391E-01 6.69042E-03-1.83679E-13-1.50794E-13
 -1       752 2.01587E+01 1.68462E+00 5.52635E-04-5.40399E-02 2.83555E-14-8.13426E-14
 -1       753 1.99879E+01 1.00477E+00 5.72786E-05 1.01791E+00-2.97839E-14-3.32859E-14
 -1       754 1.98936E+01 7.76394E-01 1.16221E-04 1.37230E+00-2.57768E-14-2.84825E-14
 -1       755 1.98352E+01 5.06586E-01 8.08453E-05 1.70203E+00-2.12833E-14-6.32182E-14
 -1       756 1.98717E+01 1.15265E-01 2.44187E-05 2.01901E+00 1.68328E-14-7.81582E-14
 -1       757 2.01007E+01-4.86806E-01-4.38458E-05 2.32075E+00 3.75871E-14-9.21916E-14
 -1       758 2.06807E+01-1.38410E+00-1.08518E-04 2.56566E+00 7.49595E-14-2.59713E-14
 -1       759 2.18529E+01-2.54457E+00 1.22606E-02 2.61614E+00-1.80446E-14 3.15285E-14
 -1       760 2.59798E+01-3.51627E+00-1.22425E-02-9.39925E-02-9.69773E-14 3.04704E-14
 -1       761 2.37650E+01-3.33828E+00 1.37508E-03-1.48107E+00-1.29139E-14-1.42929E-13
 -1       762 2.20497E+01-2.28303E+00 3.22422E-03-2.06854E+00 1.27626E-13-1.07686E-13
 -1       763 2.09522E+01-1.22817E+00-8.54787E-04-2.14985E+00 1.97150E-13-2.27106E-14
 -1       764 2.03458E+01-4.36518E-01 1.47057E-05-2.01012E+00 1.56211E-13-4.59159E-14
 -1       765 2.00499E+01 7.20131E-02 4.19137E-05-1.79097E+00 5.64723E-14 6.34496E-14
 -1       766 1.99319E+01 3.57980E-01 2.16657E-04-1.55325E+00 3.21948E-14 1.76206E-13
 -1       767 1.99041E+01 4.90475E-01 2.38429E-04-1.32138E+00-1.47919E-13 1.80048E-13
 -1       768 1.99163E+01 5.25962E-01 2.05786E-04-1.10527E+00-1.76474E-13-5.17121E-14
 -1       769 1.99415E+01 5.05004E-01 1.66103E-04-9.09610E-01-1.05761E-13-2.86352E-13
 -1       770 1.99671E+01 4.54762E-01 1.28483E-04-7.36632E-01-5.75920E-14 2.29394E-14
 -1       771 1.99879E+01 3.92394E-01 9.67597E-05-5.86998E-01-2.55629E-15-9.11131E-14
 -1       772 2.00027E+01 3.28139E-01 7.13973E-05-4.60178E-01 5.18037E-14-2.96201E-13
 -1       773 2.00121E+01 2.67685E-01 5.17211E-05-3.54749E-01 1.06463E-13 7.36883E-14
 -1       774 2.00172E+01 2.13837E-01 3.67655E-05-2.68696E-01 2.03952E-13 1.59958E-13
 -1       775 2.00192E+01 1.67642E-01 2.55772E-05-1.99675E-01-2.24074E-13 5.10076E-14
 -1       776 2.00191E+01 1.29120E-01 1.73261E-05-1.45247E-01-2.52887E-13-1.03963E-13
 -1       777 2.00178E+01 9.77309E-02 1.13300E-05-1.03039E-01-8.79201E-14-8.60401E-14
 -1       778 2.00158E+01 7.26586E-02 7.04561E-06-7.08549E-02-1.14749E-13-7.83435E-15
 -1       779 2.00135E+01 5.29899E-02 4.05970E-06-4.67411E-02-9.61873E-14-9.44390E-14
 -1       780 2.00111E+01 3.78139E-02 1.99578E-06-2.90139E-02 4.59646E-14-1.53958E-13
 -1       781 2.00089E+01 2.62776E-02 6.13290E-07-1.62606E-02 8.26218E-14 7.24000E-14
 -1       782 2.00069E+01 1.76076E-02-4.08644E-07-7.32803E-03 6.86526E-14 4.54260E-13
 -1       783 2.00052E+01 1.11190E-02-3.33686E-07-1.30612E-03 2.04608E-13 6.38229E-13
 -1       784 2.00037E+01 6.20849E-03 5.49695E-06 2.51054E-03 1.48189E-13 3.90035E-13
 -1       785 2.03356E+01 5.03294E-01 2.19719E-05-1.20680E+00 4.87436E-14-4.02244E-14
 -1       786 2.16808E+01-1.38789E+00-4.80948E-04-1.59095E+00-1.62237E-14 4.15226E-14
 -1       787 2.10248E+01-7.10445E-01-3.43590E-04-1.69574E+00 6.56900E-15-6.02165E-14
 -1       788 2.39192E+01-2.60707E+00-3.83532E-03-3.54654E-01-6.13333E-15 2.06709E-13
 -1       789 2.50948E+01-2.26492E+00-9.85787E-03 9.00911E-01 3.11235E-14 2.21767E-13
 -1       790 2.57983E+01 1.06261E+00-5.23053E-02-2.45393E+00-1.43049E-13 1.78781E-13
 -1       791 2.54893E+01-1.50942E+00-2.87570E-02-1.70196E+00-8.76309E-14 4.97111E-14
 -1       792 2.45056E+01-2.50828E+00-1.96906E-02-4.05302E-01 7.51768E-14-6.28360E-15
 -1       793 2.32992E+01-2.37037E+00-1.41146E-03 6.31779E-01-2.36794E-14 2.27776E-14
 -1       794 2.21113E+01-1.71188E+00-1.02802E-03 1.25218E+00-3.44728E-14-3.12544E-14
 -1       795 2.12836E+01-1.00905E+00-8.34372E-04 1.48576E+00-2.65710E-14 2.48433E-15
 -1       796 2.07435E+01-4.37256E-01-3.11588E-04 1.50861E+00-2.14685E-14 2.99096E-15
 -1       797 2.04189E+01-4.00950E-02-7.50666E-06 1.41671E+00 3.19538E-14 5.11703E-14
 -1       798 2.02356E+01 2.02945E-01 5.21567E-05 1.27045E+00 4.78733E-14 4.57288E-14
 -1       799 2.01378E+01 3.30339E-01 8.25121E-05 1.10307E+00-9.98634E-14 9.56773E-14
 -1       800 2.00881E+01 3.78927E-01 8.60591E-05 9.33587E-01 1.11468E-13 1.84025E-13
 -1       801 2.00637E+01 3.78122E-01 8.02245E-05 7.72944E-01 1.26001E-13 2.24271E-13
 -1       802 2.00516E+01 3.49191E-01 7.10333E-05 6.27244E-01 4.59837E-14 1.19605E-13
 -1       803 2.00450E+01 3.06532E-01 6.05249E-05 4.99438E-01-1.15902E-13-1.07779E-13
 -1       804 2.00403E+01 2.59349E-01 4.99856E-05 3.90364E-01 1.66758E-14 1.90638E-13
 -1       805 2.00361E+01 2.13160E-01 4.02139E-05 2.99456E-01-1.10960E-13 2.72856E-13
 -1       806 2.00320E+01 1.70987E-01 3.16203E-05 2.25276E-01 6.76036E-14 2.73892E-13
 -1       807 2.00278E+01 1.34229E-01 2.43454E-05 1.65921E-01 3.05222E-13 3.55219E-13
 -1       808 2.00236E+01 1.03271E-01 1.83665E-05 1.19301E-01 2.27047E-13 3.22633E-13
 -1       809 2.00197E+01 7.79052E-02 1.35734E-05 8.33399E-02 7.72973E-14 3.53065E-13
 -1       810 2.00161E+01 5.75979E-02 9.79979E-06 5.61030E-02-7.63798E-14 3.29196E-13
 -1       811 2.00129E+01 4.16697E-02 6.90537E-06 3.58634E-02-1.18551E-13 2.99428E-13
 -1       812 2.00101E+01 2.94009E-02 4.69338E-06 2.11356E-02 9.70028E-14 3.82941E-14
 -1       813 2.00077E+01 2.00925E-02 2.87789E-06 1.06800E-02 2.71516E-14 1.79328E-13
 -1       814 2.00056E+01 1.30963E-02 2.83564E-06 3.49853E-03 5.26002E-14 1.80454E-13
 -1       815 2.00040E+01 7.84190E-03 6.06086E-06-1.17148E-03-1.91772E-13 2.26008E-13
 -1       816 1.92254E+01 2.62204E+00-2.53136E-04-7.45596E-02-2.60480E-15-3.56846E-14
 -1       817 2.00043E+01 6.49228E-03-4.08111E-08 1.68979E-03-2.68047E-13-1.84290E-14
 -1       818 2.00043E+01 7.86642E-03-4.30572E-08-3.21114E-05-9.91984E-14-5.21321E-13
 -1       819 2.00040E+01 5.03448E-03 4.07571E-07 2.81682E-03-6.61348E-15 1.70064E-13
 -1       820 2.00044E+01 7.49610E-03-2.90637E-07 7.63482E-04-1.08483E-13-5.36379E-13
 -1       821 1.46448E+01-1.91707E+00 6.87537E-02-4.86969E+00 1.00715E-13-9.95037E-14
 -1       822 2.26586E+01-2.12686E+00-3.54575E-03-1.18879E+00 1.85736E-14 1.09452E-13
 -1       823 1.15572E+01 2.79304E-01 7.89732E-02-2.28122E+00 6.31361E-14-1.57332E-13
 -1       824 2.39158E+01-4.44298E+00 1.34931E-02-2.62496E+00-1.92651E-13-4.37217E-14
 -1       825 2.00786E+01 1.26530E+00-1.91934E-06 6.23674E-01-6.45403E-14 2.33958E-14
 -1       826 1.24206E+01-6.49536E-01 7.05913E-02-3.75228E+00-1.04755E-13-6.82544E-14
 -1       827 1.75070E+01-3.17691E+00 5.31939E-02-5.24144E+00-1.12053E-13 2.96360E-14
 -1       828 1.16013E+01-1.07211E-01 9.11406E-02 2.86478E+00 1.29879E-14-2.96874E-13
 -1       829 2.04520E+01-3.99321E+00 3.14317E-02 4.46263E+00-8.87658E-15 1.12878E-14
 -1       830 1.98859E+01-3.90165E+00 4.80540E-02-4.66889E+00 7.66245E-14 2.59821E-13
 -1       831 2.50030E+01-4.16451E+00 1.17434E-02-1.70598E+00 5.74467E-14 2.19142E-13
 -1       832 2.15962E+01-4.42962E+00 2.84354E-02-4.29571E+00-1.53350E-14 2.49174E-14
 -1       833 1.03340E+01 5.11147E-01 7.80658E-02-1.42492E-01 1.47628E-14-1.18596E-13
 -1       834 2.04128E+01 1.24195E+00 9.50045E-05-1.73351E-01 3.46672E-14-5.66250E-14
 -1       835 1.91318E+01 2.70554E+00-2.96037E-04-3.63199E-02-2.90479E-14-5.97388E-14
 -1       836 1.14710E+01 7.52940E-01 5.87696E-02-3.90755E-01 2.65244E-14-1.91513E-14
 -1       837 2.00040E+01 5.08626E-03-2.62830E-06-2.80518E-03 8.98622E-15 3.72732E-14
 -1       838 1.57548E+01-1.51103E+00 4.07079E-02-4.35890E+00-1.26268E-13 1.39359E-14
 -1       839 2.63384E+01-3.84275E+00-2.27620E-03 7.44758E-01 3.08130E-14 1.90474E-13
 -1       840 2.01151E+01 1.59743E+00-1.49572E-04 2.24491E-01-7.90039E-14 3.29549E-14
 -1       841 1.25116E+01 4.83563E-01 5.11308E-02-1.81666E+00-7.69553E-14-2.70600E-14
 -1       842 2.04231E+01 2.07994E-01-6.97674E-05-1.45407E+00 1.39610E-14-4.12288E-14
 -1       843 2.00030E+01 3.49424E-03-1.34878E-06 4.08871E-03 1.37088E-13 3.13272E-13
 -1       844 2.00030E+01 3.35241E-03 1.45272E-06-4.06768E-03-3.00766E-14 5.41397E-13
 -1       845 2.06314E+01-1.81043E-01-1.65354E-04-1.62734E+00-7.99516E-14-4.65309E-14
 -1       846 2.53104E+01 3.87084E+00-9.15603E-02-1.65553E+00 3.77962E-14 1.67342E-13
 -1       847 2.00035E+01 5.58402E-03-2.32889E-07-2.91417E-03-3.61916E-13 6.84263E-13
 -1       848 2.00043E+01 6.53998E-03-2.77675E-06-1.71327E-03 1.01042E-13-5.67943E-13
 -1       849 1.94517E+01 2.41655E+00-2.37220E-04-9.03812E-02 3.19176E-14-6.50356E-14
 -1       850 2.00043E+01 7.52817E-03-1.63549E-06-8.16204E-04 3.05221E-14-5.79434E-13
 -1       851 2.61954E+01-3.06006E+00-1.40439E-02-2.52198E-01-6.76247E-14 3.85646E-14
 -1       852 1.76306E+01-2.51925E+00 5.00474E-02 4.63626E+00-4.75783E-14 3.14364E-13
 -1       853 2.04003E+01 9.00802E-01 5.48832E-05-6.13849E-01 5.40247E-15-2.78461E-14
 -1       854 1.97027E+01 2.18233E+00-7.07779E-04 7.27381E-02-5.71520E-14 3.68149E-15
 -1       855 1.45296E+01-1.08301E+00 4.66944E-02 4.13479E+00 9.27678E-14-1.94419E-13
 -1       856 1.97819E+01 2.09678E+00 2.89627E-04-7.75442E-02 1.41009E-14-7.44228E-14
 -1       857 2.03602E+01 7.00407E-01 3.88325E-05-9.34109E-01 5.10879E-15-1.91563E-14
 -1       858 2.40730E+01-4.26687E+00 1.11737E-02 2.26257E+00 5.16956E-14-1.73098E-13
 -1       859 1.93854E+01 2.48316E+00-3.66644E-04 5.28541E-02-3.19905E-14-3.68807E-14
 -1       860 1.92004E+01 9.51063E-01 5.74108E-05 1.40981E+00-3.19326E-14-9.73471E-15
 -1       861 1.89627E+01 6.47896E-01-9.61781E-05 1.78427E+00-5.87600E-14-2.54617E-14
 -1       862 1.87805E+01 1.96007E-01 6.95484E-05 2.22793E+00 7.97550E-15-8.08829E-14
 -1       863 1.87600E+01-5.11645E-01 2.47014E-03 2.78018E+00 8.22093E-14-8.91280E-14
 -1       864 1.90844E+01-1.60233E+00 9.95520E-03 3.44133E+00 5.46559E-14-6.46794E-14
 -1       865 1.33343E+01-3.23228E-01 4.57131E-02 3.39660E+00 7.40037E-14 4.33731E-13
 -1       866 1.81493E+01-2.20150E+00 2.67966E-02-4.12700E+00 7.71176E-14 2.71075E-13
 -1       867 2.15084E+01-3.11017E+00 1.71987E-02-3.07267E+00 7.05436E-14 1.06394E-13
 -1       868 1.96365E+01-1.55084E+00 7.38161E-03-2.99495E+00 2.63864E-13 2.44418E-13
 -1       869 1.91210E+01-5.23678E-01 1.22710E-03-2.49998E+00 1.11690E-13-2.13520E-14
 -1       870 1.89904E+01 1.23571E-01-3.03716E-05-2.04690E+00 9.84337E-14-1.32710E-13
 -1       871 1.90478E+01 4.84901E-01 1.09300E-04-1.68112E+00 1.21569E-13-6.45899E-14
 -1       872 1.91812E+01 6.57201E-01 1.08613E-04-1.38521E+00-1.78209E-13-8.94046E-14
 -1       873 1.93348E+01 7.09078E-01 7.80424E-05-1.14083E+00-2.47808E-13-9.09390E-14
 -1       874 1.94811E+01 6.88530E-01 6.21272E-05-9.34920E-01-2.65662E-13-7.48678E-14
 -1       875 1.96083E+01 6.28229E-01 4.94455E-05-7.59529E-01 7.41413E-14-1.54018E-13
 -1       876 1.97128E+01 5.49538E-01 3.97343E-05-6.10007E-01-1.23385E-13-6.19609E-14
 -1       877 1.97954E+01 4.65854E-01 3.21088E-05-4.83411E-01-6.15529E-14-9.31352E-14
 -1       878 1.98587E+01 3.85132E-01 2.58896E-05-3.77465E-01 2.81449E-13 5.35619E-14
 -1       879 1.99060E+01 3.11697E-01 2.07258E-05-2.90052E-01 2.32023E-13 1.82340E-13
 -1       880 1.99404E+01 2.47520E-01 1.64229E-05-2.19034E-01-1.67164E-13-1.96894E-13
 -1       881 1.99649E+01 1.93107E-01 1.28532E-05-1.62247E-01-2.95224E-13-9.32802E-14
 -1       882 1.99817E+01 1.48087E-01 9.91575E-06-1.17569E-01-1.36860E-13 8.21908E-14
 -1       883 1.99929E+01 1.11612E-01 7.52344E-06-8.29906E-02-1.86770E-14 1.69537E-13
 -1       884 1.99999E+01 8.26090E-02 5.61448E-06-5.66773E-02-1.13575E-13 2.32507E-13
 -1       885 2.00039E+01 5.99405E-02 4.15603E-06-3.70078E-02-5.58221E-14 3.10719E-13
 -1       886 2.00059E+01 4.25011E-02 3.11878E-06-2.25925E-02 1.14958E-13 9.55009E-14
 -1       887 2.00065E+01 2.92675E-02 1.76524E-06-1.22675E-02 3.04026E-13 1.37607E-13
 -1       888 2.00062E+01 1.92983E-02 6.76788E-07-5.08581E-03 1.51852E-13 2.42450E-13
 -1       889 2.00053E+01 1.18203E-02 5.28752E-06-3.40746E-04 1.19533E-13 5.50316E-13
 -1       890 2.17599E+01-2.41110E+00-2.16196E-03 2.12584E+00 7.37717E-14-2.20141E-13
 -1       891 2.06695E+01-1.41024E+00-2.20775E-03 2.12824E+00-6.54256E-14-2.30861E-13
 -1       892 2.00345E+01-6.10371E-01-8.56622E-04 1.95176E+00 2.88488E-14-1.37091E-13
 -1       893 1.97357E+01-6.69567E-02 2.34982E-04 1.70222E+00-7.26961E-14-1.60183E-13
 -1       894 1.96217E+01 2.67122E-01 8.66168E-05 1.45306E+00-6.83664E-14-6.92786E-14
 -1       895 1.96107E+01 4.46815E-01 8.64956E-05 1.22296E+00-2.46292E-14 9.34940E-14
 -1       896 1.96502E+01 5.20849E-01 5.99895E-05 1.01692E+00-5.05852E-15 6.54050E-14
 -1       897 1.97094E+01 5.27290E-01 3.82556E-05 8.35187E-01 4.91442E-14 1.06447E-13
 -1       898 1.97716E+01 4.93735E-01 2.57038E-05 6.76874E-01-3.89367E-14 2.28737E-13
 -1       899 1.98285E+01 4.39276E-01 1.80901E-05 5.40823E-01-5.73111E-15 2.95456E-13
 -1       900 1.98766E+01 3.76542E-01 1.30412E-05 4.25644E-01-1.69529E-13 3.48763E-13
 -1       901 1.99151E+01 3.13451E-01 9.47223E-06 3.29678E-01-1.83369E-13 3.77798E-13
 -1       902 1.99447E+01 2.54615E-01 6.86904E-06 2.51021E-01 4.29157E-14 2.43422E-13
 -1       903 1.99666E+01 2.02404E-01 4.94606E-06 1.87604E-01 4.60605E-14 4.05199E-13
 -1       904 1.99822E+01 1.57725E-01 3.51960E-06 1.37313E-01 1.78446E-13 7.39252E-13
 -1       905 1.99928E+01 1.20574E-01 2.46209E-06 9.80860E-02 2.19933E-13 7.15095E-13
 -1       906 1.99997E+01 9.04199E-02 1.69227E-06 6.80003E-02-8.19723E-14 4.73676E-13
 -1       907 2.00038E+01 6.64537E-02 1.07488E-06 4.53265E-02 7.02874E-14 5.28715E-13
 -1       908 2.00059E+01 4.77607E-02 6.23428E-07 2.85594E-02 5.14563E-14 3.98425E-13
 -1       909 2.00066E+01 3.34206E-02 1.88969E-07 1.64225E-02-3.62883E-14 4.70437E-13
 -1       910 2.00064E+01 2.25577E-02 9.97942E-07 7.86919E-03 2.05670E-14 4.44570E-13
 -1       911 2.00056E+01 1.44022E-02 4.21386E-06 2.09670E-03-1.53052E-13 7.98399E-13
 -1       912 1.46285E+01-2.85003E-01 3.49230E-02-3.22115E+00-7.57025E-14-9.70925E-15
 -1       913 2.00050E+01 1.13805E-02-4.83395E-06 4.68914E-04-7.96956E-14 1.43948E-13
 -1       914 2.06286E+01-3.60267E+00 3.89222E-02 4.15446E+00 9.98338E-14-7.75304E-14
 -1       915 1.91864E+01 2.65905E+00-4.48079E-04 1.08953E-02-1.86836E-14-3.67393E-14
 -1       916 2.01476E+01-3.11530E+00 2.53457E-02-4.02219E+00-1.18182E-13 2.08041E-14
 -1       917 1.28462E+01 7.60547E-01 4.64922E-02 1.20640E+00-4.73037E-15-2.33452E-13
 -1       918 2.04107E+01-9.87721E-01-4.80809E-05-2.22233E+00-8.40945E-14 7.83845E-14
 -1       919 2.01530E+01 1.25550E+00-6.19235E-06-4.92802E-01-1.84475E-15-5.96636E-14
 -1       920 2.29477E+01-3.30567E+00 1.32621E-02-2.18856E+00-7.10572E-14 2.63065E-13
 -1       921 1.94319E+01 1.19661E+00 5.50023E-05 1.06354E+00-2.86744E-14 4.28551E-16
 -1       922 2.19428E+01-3.34455E+00 1.56329E-02 2.80727E+00 1.48282E-13-1.07088E-13
 -1       923 1.96249E+01 1.45364E+00-1.26142E-04 7.17395E-01-6.58662E-14 2.81110E-14
 -1       924 1.29372E+01 7.65547E-01 2.92427E-02 1.32132E+00 1.95988E-13 1.63053E-13
 -1       925 1.45541E+01-1.13148E-01 2.73257E-02-2.99690E+00-1.30033E-13-8.44637E-15
 -1       926 1.92642E+01 2.13407E+00-5.02440E-05-2.73416E-01-5.58029E-15-1.77649E-14
 -1       927 1.35188E+01 5.24296E-01 3.63554E-02-1.99500E+00-9.72833E-15-1.99615E-13
 -1       928 2.00046E+01 8.28144E-03-1.86371E-06-1.65783E-03-1.41542E-13 4.24687E-13
 -1       929 1.90756E+01 2.29201E+00-8.82206E-05-1.35982E-01 6.64959E-15-2.98418E-14
 -1       930 2.00048E+01 8.92060E-03-1.88773E-06 1.25225E-03-3.56096E-14 5.54516E-13
 -1       931 2.00047E+01 1.46152E-02-5.42764E-07-7.19153E-05 9.67335E-14-2.79211E-13
 -1       932 2.00138E+01-2.75813E-01-4.75916E-05-1.96756E+00-3.09799E-14-1.44809E-14
 -1       933 2.00047E+01 1.46283E-02-1.92366E-06-2.15355E-06 1.04059E-13-4.60440E-13
 -1       934 2.00049E+01 1.34643E-02-2.07207E-06 2.29837E-05 1.46221E-14-3.91279E-13
 -1       935 1.98655E+01-2.41024E+00 2.44797E-02 3.43787E+00 6.29642E-14 5.46937E-14
 -1       936 2.12655E+01-1.95257E+00 2.01967E-03-2.34885E+00-6.38160E-14 1.54265E-13
 -1       937 1.43984E+01 2.05013E-01 3.27668E-02 2.62112E+00 4.98168E-14-1.71556E-13
 -1       938 1.96937E+01 1.77593E+00 5.45183E-05 3.93837E-01-6.57490E-14 1.95653E-14
 -1       939 2.00051E+01 1.12655E-02-1.18424E-06-8.47404E-05-4.26899E-13 8.86842E-13
 -1       940 1.99288E+01 9.11164E-01-3.87300E-05-1.02823E+00 3.56042E-15-9.77444E-14
 -1       941 1.75393E+01-1.71075E+00 4.10782E-02 4.09413E+00 3.50553E-14-6.22928E-14
 -1       942 1.98816E+01 6.04556E-01 8.60232E-05-1.35534E+00 2.41289E-14-4.49422E-15
 -1       943 1.93471E+01 2.08213E+00 1.80132E-03 2.78018E-01-4.33045E-14 1.01827E-14
 -1       944 2.00048E+01 1.05720E-02-2.17031E-06-7.81899E-04-7.85594E-14-3.25862E-13
 -1       945 1.95745E+01 1.86289E+00-3.71258E-04-3.69971E-01 2.86709E-14-8.01452E-14
 -1       946 1.83735E+01 1.12899E+00-4.49052E-05 1.28205E+00-4.68712E-14-1.36085E-14
 -1       947 1.98600E+01 2.35397E-01-5.75559E-05-1.67496E+00-1.74676E-14 3.11534E-14
 -1       948 1.78602E+01 8.45853E-01-3.21731E-04 1.67490E+00-1.96712E-14 1.12987E-14
 -1       949 1.72649E+01 4.21145E-01 4.77562E-04 2.21368E+00 3.30820E-14-3.77792E-14
 -1       950 1.70823E+01-3.85780E-01 5.49203E-03 3.06379E+00 6.84698E-14-1.11685E-13
 -1       951 1.82920E+01-1.57147E+00 1.02168E-02-3.61189E+00-1.11700E-13 2.34049E-14
 -1       952 1.75749E+01 3.11500E-01 1.36353E-03-2.15650E+00 5.74734E-14 4.70641E-15
 -1       953 1.79587E+01 6.77922E-01 2.96265E-05-1.66280E+00 8.29715E-14-1.71628E-13
 -1       954 1.83380E+01 8.50603E-01 2.65600E-05-1.31123E+00 2.64644E-14-3.64540E-13
 -1       955 1.86761E+01 9.00291E-01-1.78213E-05-1.05393E+00-1.44155E-13-5.38464E-14
 -1       956 1.89653E+01 8.73299E-01-1.51802E-05-8.54657E-01-1.47547E-13-2.31593E-14
 -1       957 1.92053E+01 8.02092E-01-1.28384E-05-6.93726E-01-8.01687E-14 2.43071E-13
 -1       958 1.94002E+01 7.08662E-01-1.10611E-05-5.60120E-01 3.58089E-15 1.34359E-13
 -1       959 1.95554E+01 6.07631E-01-9.16921E-06-4.47938E-01-1.08828E-13 2.43997E-13
 -1       960 1.96769E+01 5.08341E-01-7.41105E-06-3.53799E-01 9.75340E-14 3.04067E-13
 -1       961 1.97703E+01 4.16353E-01-5.85798E-06-2.75435E-01 2.40420E-13 8.35333E-14
 -1       962 1.98410E+01 3.34576E-01-4.52339E-06-2.11000E-01-1.41892E-13-1.10178E-13
 -1       963 1.98935E+01 2.64133E-01-3.40565E-06-1.58780E-01-1.88606E-13-1.22899E-13
 -1       964 1.99317E+01 2.04987E-01-2.49699E-06-1.17117E-01-4.01798E-14-1.51096E-13
 -1       965 1.99589E+01 1.56405E-01-1.78969E-06-8.44090E-02 2.02186E-14-2.00442E-14
 -1       966 1.99777E+01 1.17273E-01-1.27577E-06-5.91571E-02-5.13625E-15-6.18327E-14
 -1       967 1.99902E+01 8.63122E-02-7.15339E-07-3.99949E-02-2.17304E-13-1.88626E-13
 -1       968 1.99981E+01 6.22103E-02-1.36524E-06-2.57255E-02 1.63502E-14-3.22335E-13
 -1       969 2.00026E+01 4.37161E-02-2.45748E-06-1.53102E-02 3.48824E-13-1.39361E-13
 -1       970 2.00048E+01 2.97646E-02-6.57661E-07-7.93375E-03 2.38110E-13 3.50294E-14
 -1       971 2.00055E+01 1.91445E-02-6.41315E-06-2.88133E-03 3.65257E-13 2.61788E-13
 -1       972 1.87900E+01-6.71134E-03 9.49543E-05 1.98263E+00 1.17440E-14-3.24318E-14
 -1       973 1.89362E+01-6.35964E-01 1.85796E-03 2.45917E+00-7.48111E-14 1.70730E-14
 -1       974 1.88386E+01 3.85476E-01 3.22513E-05 1.58499E+00-4.10600E-14-2.20400E-13
 -1       975 1.89709E+01 5.94491E-01 1.24029E-04 1.27502E+00-1.69218E-13-1.97380E-13
 -1       976 1.91324E+01 6.81070E-01 7.23178E-05 1.02853E+00-1.57286E-13-4.88076E-14
 -1       977 1.92947E+01 6.88635E-01 3.52473E-05 8.29162E-01-8.96425E-14 1.62134E-13
 -1       978 1.94434E+01 6.48137E-01 1.78563E-05 6.65438E-01-6.17490E-15 2.37212E-13
 -1       979 1.95721E+01 5.81317E-01 9.91945E-06 5.29890E-01-9.06440E-14 1.66773E-13
 -1       980 1.96793E+01 5.03033E-01 5.94320E-06 4.17585E-01-2.23489E-13 3.25123E-13
 -1       981 1.97659E+01 4.23013E-01 3.66861E-06 3.25002E-01-1.63267E-13 3.49282E-13
 -1       982 1.98339E+01 3.47235E-01 2.25164E-06 2.49365E-01-5.84192E-14 3.68831E-13
 -1       983 1.98860E+01 2.79013E-01 1.34334E-06 1.88285E-01 4.81458E-14 4.96869E-13
 -1       984 1.99250E+01 2.19836E-01 7.61666E-07 1.39608E-01 8.62155E-15 4.06638E-13
 -1       985 1.99534E+01 1.69995E-01 3.92061E-07 1.01365E-01 1.13383E-13 4.31646E-13
 -1       986 1.99734E+01 1.29039E-01 1.57969E-07 7.17690E-02 2.12365E-13 6.97193E-13
 -1       987 1.99871E+01 9.61036E-02 3.43851E-08 4.92255E-02-5.58043E-14 5.01925E-13
 -1       988 1.99960E+01 7.01198E-02-7.17122E-08 3.23442E-02 1.13614E-13 2.95850E-13
 -1       989 2.00014E+01 4.99724E-02-5.17483E-07 1.99491E-02-9.26754E-14 1.16171E-13
 -1       990 2.00043E+01 3.45845E-02-1.62665E-08 1.10420E-02-1.12187E-13 4.62177E-13
 -1       991 2.00053E+01 2.29855E-02 2.99163E-06 4.88457E-03-1.84431E-13 5.18114E-13
 -1       992 1.88001E+01 1.35594E+00 1.20345E-04 9.69781E-01-4.08850E-14 1.28385E-14
 -1       993 1.91205E+01 1.59429E+00-1.10391E-03 6.76250E-01-4.97398E-14 4.35623E-14
 -1       994 2.00048E+01 1.28630E-02-1.48364E-06-1.91079E-04 2.21891E-13-7.63822E-13
 -1       995 1.90485E+01 2.31785E+00 2.68874E-04 2.75903E-02-5.29711E-15-5.78555E-14
 -1       996 2.00517E+01 1.07519E+00 1.31072E-05-7.74706E-01 3.52528E-15-9.19086E-14
 -1       997 1.66040E+01-9.50697E-01 1.05665E-02 3.51769E+00 8.33331E-14 3.27655E-13
 -1       998 1.92607E+01 1.81724E+00 1.28863E-03 4.72224E-01-5.02383E-14 2.80029E-14
 -1       999 2.00044E+01 2.24405E-02-1.64143E-06-1.30554E-03 1.84494E-14-5.71198E-13
 -1      1000 1.91420E+01 2.24080E+00 2.59911E-04 1.52944E-01-2.34101E-15-3.12711E-14
 -1      1001 1.72513E+01-3.57156E-01 1.18360E-02-2.88509E+00 5.26775E-14-1.66332E-13
 -1      1002 1.40370E+01 9.83856E-01 1.38947E-02-5.17987E-01-1.09227E-13-3.90772E-14
 -1      1003 1.50632E+01 7.31251E-01 1.12557E-02-1.64415E+00-1.00926E-13-6.25219E-16
 -1      1004 1.69501E+01-4.11162E-01 9.34752E-03-3.03559E+00-1.02680E-13-6.07435E-14
 -1      1005 2.00053E+01 1.51899E-02-1.33779E-05-1.09713E-03-1.81146E-14 1.25142E-13
 -1      1006 1.52044E+01 2.94069E-01 1.79240E-02 2.38828E+00 7.40277E-14 3.40756E-13
 -1      1007 1.35919E+01 1.00954E+00 2.02510E-02-3.84304E-01 2.81247E-14 1.01974E-13
 -1      1008 1.89815E+01 1.91319E+00-2.04213E-04-3.54224E-01-9.55621E-15-2.44933E-14
 -1      1009 2.00051E+01 1.45307E-02 1.50717E-07 5.45917E-04 6.98982E-14-9.38160E-14
 -1      1010 2.00041E+01 2.33174E-02-6.60253E-06-4.95283E-05 1.58073E-13-5.09887E-13
 -1      1011 1.90385E+01-2.72948E-01-1.53406E-03-2.32594E+00-9.52091E-14 1.06583E-13
 -1      1012 1.59280E+01 3.77546E-01 8.33057E-03-2.26489E+00 1.14942E-13 1.40281E-13
 -1      1013 1.96166E+01 1.35273E+00-2.09190E-04-7.59278E-01 3.23111E-15-8.13516E-14
 -1      1014 1.94806E+01 1.03703E+00 2.42919E-04-1.09713E+00-3.99430E-14-4.71646E-14
 -1      1015 1.48883E+01 8.94272E-01 1.20735E-02 1.30562E+00-4.01955E-14-1.53423E-13
 -1      1016 2.00053E+01 1.85703E-02-4.67056E-06 2.42419E-03-2.85772E-14 3.02834E-13
 -1      1017 2.00051E+01 2.00511E-02 2.46617E-05-2.15113E-03 9.63724E-14-2.35684E-13
 -1      1018 1.86397E+01 1.67266E+00 4.22219E-04 4.93328E-01-7.04715E-14 3.08862E-16
 -1      1019 1.92892E+01 7.17058E-01 3.36187E-04-1.44910E+00-5.87536E-14-1.46783E-14
 -1      1020 1.74839E+01 1.28610E+00-3.16513E-04 9.09147E-01-4.04676E-14-8.14425E-14
 -1      1021 1.66029E+01 1.07781E+00 9.32201E-05 1.21746E+00-3.85241E-14-1.27233E-13
 -1      1022 1.66984E+01 9.35924E-01-6.52752E-04-1.35168E+00-2.24290E-14-5.45001E-15
 -1      1023 1.74218E+01 1.05695E+00 2.06805E-04-1.02566E+00-9.64164E-14-5.37877E-14
 -1      1024 1.79876E+01 1.08279E+00-9.51578E-05-8.06328E-01 1.25940E-13-1.63019E-13
 -1      1025 1.84376E+01 1.04164E+00-5.42389E-05-6.47219E-01 3.30395E-14-1.61649E-13
 -1      1026 1.87959E+01 9.59438E-01-4.02251E-05-5.25997E-01 1.60889E-13 6.39968E-14
 -1      1027 1.90815E+01 8.54437E-01-2.79731E-05-4.27964E-01-6.97793E-15 1.74614E-13
 -1      1028 1.93081E+01 7.40121E-01-1.92661E-05-3.46168E-01 1.60258E-14 1.67705E-13
 -1      1029 1.94866E+01 6.26069E-01-1.34254E-05-2.77090E-01-2.08004E-14 2.44982E-14
 -1      1030 1.96255E+01 5.18596E-01-9.45739E-06-2.18833E-01 3.80262E-14 2.03439E-14
 -1      1031 1.97324E+01 4.21446E-01-6.67354E-06-1.70164E-01-5.37883E-14-2.19764E-13
 -1      1032 1.98135E+01 3.36435E-01-4.65756E-06-1.30059E-01-1.52136E-13-4.40995E-13
 -1      1033 1.98739E+01 2.64010E-01-3.17180E-06-9.75293E-02-1.52948E-13-4.07764E-13
 -1      1034 1.99181E+01 2.03711E-01-2.08414E-06-7.15832E-02 2.69493E-14-5.48123E-13
 -1      1035 1.99497E+01 1.54523E-01-1.32173E-06-5.12418E-02-5.92694E-14-5.27530E-13
 -1      1036 1.99717E+01 1.15143E-01-7.29761E-07-3.55764E-02 6.04728E-14-6.19518E-13
 -1      1037 1.99864E+01 8.41609E-02 5.72090E-07-2.37067E-02-1.08761E-13-1.68271E-13
 -1      1038 1.99958E+01 6.01453E-02-5.14797E-06-1.50016E-02 2.66460E-13-2.89389E-13
 -1      1039 2.00013E+01 4.18205E-02-2.74424E-06-8.65617E-03 4.69072E-13-3.60477E-13
 -1      1040 1.82144E+01 7.85617E-01 8.76024E-05 1.21276E+00-1.31377E-13 1.82020E-13
 -1      1041 1.92941E+01 1.68122E+00-1.30948E-04-5.70218E-01 1.94270E-15 6.14236E-15
 -1      1042 1.90583E+01 3.16505E-01-4.66049E-04-1.85448E+00-3.06861E-14 4.37323E-14
 -1      1043 1.88437E+01 2.01865E+00 1.10846E-04-8.27924E-02-1.83963E-14-5.69798E-14
 -1      1044 1.75094E+01 2.19096E-01 1.27777E-03 2.11673E+00-7.02990E-14 1.43218E-13
 -1      1045 1.85471E+01 8.61048E-01 8.30507E-05 9.38840E-01-1.49392E-13 8.46580E-14
 -1      1046 1.88385E+01 8.57482E-01 4.44895E-05 7.35793E-01-1.73730E-13 1.10950E-13
 -1      1047 1.90869E+01 8.04854E-01 1.56479E-05 5.79574E-01-1.14913E-13 3.27488E-14
 -1      1048 1.92944E+01 7.24144E-01 3.14803E-06 4.56380E-01-6.59450E-14 2.75200E-13
 -1      1049 1.94646E+01 6.30473E-01-2.78808E-06 3.57716E-01-3.22017E-13 2.65517E-13
 -1      1050 1.96016E+01 5.34273E-01-5.87693E-06 2.78139E-01-8.69569E-14 7.06093E-14
 -1      1051 1.97099E+01 4.42329E-01-7.43952E-06 2.13952E-01-1.10250E-13-3.50725E-14
 -1      1052 1.97939E+01 3.58662E-01-7.99175E-06 1.62436E-01-8.47448E-14-1.32394E-13
 -1      1053 1.98579E+01 2.85281E-01-7.84703E-06 1.21438E-01-1.47095E-14 1.12708E-13
 -1      1054 1.99056E+01 2.22794E-01-7.25795E-06 8.91636E-02 4.29322E-14 2.28748E-13
 -1      1055 1.99403E+01 1.70892E-01-6.44528E-06 6.40723E-02 6.32398E-14 2.59644E-13
 -1      1056 1.99649E+01 1.28712E-01-5.32022E-06 4.48364E-02 1.37506E-13 2.30420E-13
 -1      1057 1.99817E+01 9.51093E-02-5.40588E-06 3.03095E-02 2.85837E-13 9.55379E-14
 -1      1058 1.99928E+01 6.87599E-02-6.00959E-06 1.95026E-02 1.11399E-13-8.43046E-14
 -1      1059 1.99996E+01 4.85383E-02 2.40634E-06 1.16649E-02-3.81997E-13-1.15755E-13
 -1      1060 2.00032E+01 3.31595E-02 1.47981E-06 6.15420E-03-1.13507E-13-1.84501E-13
 -1      1061 1.81434E+01 1.47191E+00-8.63967E-04 6.76924E-01-8.58451E-14-4.05412E-14
 -1      1062 1.93267E+01-1.13361E+00 1.00819E-02-2.88622E+00-9.96904E-14 1.02968E-13
 -1      1063 1.61001E+01 6.52208E-01 6.32654E-04 1.92821E+00-1.89242E-14-1.37674E-13
 -1      1064 1.75668E+01-7.27965E-02 9.33912E-03-2.54096E+00-1.12343E-13-3.70884E-15
 -1      1065 1.78541E+01 5.90422E-01-2.44018E-04 1.58613E+00 2.98155E-14 1.45106E-13
 -1      1066 2.00034E+01 3.14435E-02-6.14750E-06-4.51215E-03 3.84665E-13-7.46469E-15
 -1      1067 1.56328E+01 1.20389E+00 3.29753E-03 7.71779E-02-6.51968E-14-4.46227E-14
 -1      1068 1.88954E+01 1.54440E+00-2.41819E-04-6.83613E-01-1.49461E-14-5.40899E-15
 -1      1069 1.86031E+01 1.73856E+00 1.62682E-04-3.28354E-01-4.38847E-14-7.55749E-15
 -1      1070 1.79554E+01 4.99919E-01-1.18310E-03-1.89441E+00-7.88262E-14 5.32614E-16
 -1      1071 1.46296E+01 9.57682E-01 9.97771E-03 1.07633E+00 7.04946E-14 2.95368E-13
 -1      1072 1.61063E+01 1.13095E+00 1.77619E-03-7.89047E-01-9.29897E-14-3.35101E-14
 -1      1073 2.00049E+01 1.76043E-02 2.52255E-06 8.14018E-04 2.89562E-13-6.39725E-13
 -1      1074 2.00023E+01 3.38089E-02 5.73618E-06-1.71382E-03 1.13202E-13-4.06304E-13
 -1      1075 2.00041E+01 2.69792E-02-3.76575E-06 3.58821E-03-1.09091E-13-6.22289E-13
 -1      1076 2.00045E+01 2.06886E-02-4.72574E-06 6.79028E-04 1.70107E-13-5.45522E-13
 -1      1077 1.53300E+01 1.01018E+00 2.53544E-03-1.07570E+00 1.41437E-13-2.54819E-13
 -1      1078 1.88654E+01 2.00722E+00 2.66188E-04 1.46664E-01-1.80658E-14-4.69785E-14
 -1      1079 1.91568E+01 1.30384E+00-1.41265E-04-9.13974E-01-3.37486E-14-3.43660E-14
 -1      1080 1.88500E+01 1.00987E+00-1.14961E-04-1.24486E+00-7.76178E-14-5.50812E-14
 -1      1081 1.99992E+01 4.56565E-02-1.50057E-06-3.97661E-03 4.02056E-13-9.26288E-14
 -1      1082 1.73622E+01 1.21681E+00 2.05345E-04-3.60486E-01-1.66742E-13 1.34183E-13
 -1      1083 1.79663E+01 1.16136E+00 6.28497E-05-2.92847E-01 2.65838E-14 1.57732E-13
 -1      1084 1.84312E+01 1.07596E+00-1.89138E-05-2.47138E-01 1.88613E-13 2.58160E-15
 -1      1085 1.87962E+01 9.67477E-01-1.98165E-05-2.08704E-01 5.38054E-14-1.51188E-13
 -1      1086 1.90845E+01 8.47465E-01-1.88493E-05-1.74908E-01 2.08424E-14-1.78284E-13
 -1      1087 1.93119E+01 7.25235E-01-1.69011E-05-1.44594E-01 8.55859E-14-2.07163E-13
 -1      1088 1.94903E+01 6.07672E-01-1.51778E-05-1.17534E-01 2.41214E-15-1.05854E-13
 -1      1089 1.96290E+01 4.99370E-01-1.36465E-05-9.37805E-02-1.00990E-13-3.77937E-13
 -1      1090 1.97355E+01 4.02968E-01-1.21150E-05-7.33741E-02-2.50891E-13-3.42414E-13
 -1      1091 1.98162E+01 3.19571E-01-1.05285E-05-5.62359E-02-1.83147E-13-6.29345E-13
 -1      1092 1.98762E+01 2.49169E-01-8.93115E-06-4.21606E-02-7.36348E-14-6.33862E-13
 -1      1093 1.99201E+01 1.91011E-01-7.42596E-06-3.08469E-02 4.09170E-14-4.74197E-13
 -1      1094 1.99513E+01 1.43899E-01-6.79105E-06-2.19373E-02 9.61384E-16-3.82401E-13
 -1      1095 1.99730E+01 1.06413E-01-4.00573E-07-1.50891E-02 1.38130E-13-2.68433E-13
 -1      1096 1.99874E+01 7.70223E-02-2.10299E-05-9.70900E-03 2.36421E-13 8.85386E-14
 -1      1097 1.99945E+01 6.00783E-02 7.12835E-05-6.55579E-03 2.82940E-13 3.12448E-13
 -1      1098 1.64751E+01 7.59640E-01-5.57609E-04 1.56501E+00 7.30514E-15 2.69546E-13
 -1      1099 1.79309E+01 1.04760E+00-2.91002E-05 6.97724E-01-1.20298E-13 6.25210E-14
 -1      1100 1.90203E+01 8.56614E-01-1.09844E-04 3.09073E-01-1.80754E-13-1.76796E-14
 -1      1101 1.92533E+01 7.48832E-01-7.76600E-05 2.37934E-01-7.92879E-14 1.26764E-14
 -1      1102 1.94394E+01 6.38418E-01-5.20640E-05 1.82712E-01 7.19621E-14-2.83882E-13
 -1      1103 1.95864E+01 5.32339E-01-3.27786E-05 1.39460E-01-8.02537E-14-3.02468E-13
 -1      1104 1.97011E+01 4.35021E-01-1.87360E-05 1.05485E-01-7.64499E-14-1.40352E-13
 -1      1105 1.97891E+01 3.48877E-01-8.81873E-06 7.88482E-02-9.61324E-14-3.21616E-13
 -1      1106 1.98555E+01 2.74822E-01-2.07119E-06 5.80798E-02-1.36322E-13-4.03984E-13
 -1      1107 1.99046E+01 2.12723E-01 2.28058E-06 4.20198E-02 5.25530E-14-3.19604E-13
 -1      1108 1.99402E+01 1.61781E-01 4.68517E-06 2.97297E-02 1.49271E-13-2.99868E-13
 -1      1109 1.99652E+01 1.20791E-01 2.56081E-06 2.04422E-02 2.67868E-13-1.99639E-13
 -1      1110 1.99823E+01 8.85769E-02 7.54790E-05 1.37176E-02 3.19821E-13-2.18827E-13
 -1      1111 1.99933E+01 6.31305E-02-1.98292E-05 8.73317E-03 1.31750E-13-2.47881E-13
 -1      1112 1.99998E+01 4.39220E-02-2.95789E-05 4.77298E-03-9.58321E-14-7.28547E-13
 -1      1113 1.75936E+01 1.48801E+00-4.77720E-04 1.62182E-01-8.48641E-14 1.52205E-14
 -1      1114 1.83734E+01 1.02069E+00-2.29186E-04 5.27210E-01-2.08721E-13 8.51583E-14
 -1      1115 1.85253E+01 1.79796E+00-3.30540E-04-7.51596E-03-6.21319E-14-5.59915E-14
 -1      1116 1.73770E+01 1.01019E+00-2.30267E-03 9.49497E-01-2.27081E-14 1.73907E-13
 -1      1117 1.87311E+01 9.51766E-01-1.49646E-04 4.02232E-01-3.67351E-14 9.19925E-15
 -1      1118 1.65758E+01 1.21040E+00 1.04110E-03-4.50329E-01 9.97613E-14 4.23644E-14
 -1      1119 1.64781E+01 6.66525E-01 1.21697E-03-1.79555E+00-8.98838E-14 5.72112E-15
 -1      1120 1.84527E+01 7.79888E-01 1.71878E-05-1.53395E+00-1.04999E-13-3.27646E-14
 -1      1121 1.67587E+01 1.36093E+00 3.06429E-03 1.42054E-01-6.10936E-14 1.48595E-14
 -1      1122 1.83671E+01 1.43922E+00 4.23519E-04-7.04405E-01-5.81758E-14 3.56388E-14
 -1      1123 1.55300E+01 1.20111E+00 7.70019E-04 9.26561E-02 1.45791E-13 1.75227E-14
 -1      1124 2.00019E+01 3.60939E-02 4.09273E-05 2.90764E-03-5.21442E-14-7.22068E-13
 -1      1125 2.00028E+01 3.13341E-02 1.25884E-05 6.28724E-04-1.73707E-13-3.42372E-13
 -1      1126 1.85670E+01 1.24295E+00 4.42069E-04-9.94974E-01-7.52428E-14-5.70526E-15
 -1      1127 1.73358E+01 1.00176E+00-2.71216E-04-1.28508E+00-5.54596E-14-1.42964E-14
 -1      1128 1.63964E+01 1.17597E+00-9.04834E-04 4.66335E-01 1.45352E-13-2.45743E-14
 -1      1129 1.76550E+01 1.18279E+00-1.74380E-03 2.00397E-01-5.33071E-14 4.76900E-14
 -1      1130 1.81773E+01 1.12088E+00 2.25879E-04 1.34586E-01-6.80807E-14-8.15766E-14
 -1      1131 1.85926E+01 1.02575E+00 1.80066E-04 8.94196E-02-5.69277E-14-2.70091E-13
 -1      1132 1.89204E+01 9.13068E-01 1.35670E-04 5.89402E-02-6.30746E-14-3.26201E-13
 -1      1133 1.91803E+01 7.92767E-01 1.05820E-04 3.84538E-02-4.35232E-14-4.38497E-13
 -1      1134 1.93859E+01 6.73007E-01 8.26041E-05 2.48033E-02 1.27134E-13-5.20849E-13
 -1      1135 1.95472E+01 5.59708E-01 6.33040E-05 1.58046E-02-1.37583E-13-4.79166E-13
 -1      1136 1.96724E+01 4.56677E-01 4.72684E-05 9.94006E-03-1.77122E-13-5.35639E-13
 -1      1137 1.97683E+01 3.65949E-01 3.42535E-05 6.16202E-03-1.59126E-13-2.42847E-13
 -1      1138 1.98406E+01 2.88190E-01 2.39756E-05 3.75540E-03-1.82249E-13-1.20024E-13
 -1      1139 1.98942E+01 2.23100E-01 1.60537E-05 2.23878E-03 7.44717E-14-2.60586E-13
 -1      1140 1.99329E+01 1.69752E-01 1.00462E-05 1.29192E-03 4.24343E-14-2.69410E-13
 -1      1141 1.99603E+01 1.26874E-01 7.28599E-06 6.93177E-04 2.79785E-13-1.59826E-13
 -1      1142 1.99792E+01 9.27034E-02-2.67723E-05 5.54272E-04 2.90450E-13 3.22258E-14
 -1      1143 1.73787E+01 1.34676E+00 6.11954E-04-5.76578E-01-6.08673E-14-3.44640E-14
 -1      1144 1.99962E+01 5.44150E-02-9.53438E-06 6.29036E-04 1.18835E-13-3.86461E-14
 -1      1145 1.80946E+01 1.52174E+00 2.79472E-04-4.37020E-01-6.20335E-14-1.32429E-14
 -1      1146 1.79818E+01 1.29658E+00-2.73074E-03-8.52379E-01-9.67502E-14 3.83891E-14
 -1      1147 1.80382E+01 1.11545E+00 8.64667E-04-1.14053E+00-7.70697E-14 2.40051E-14
 -1      1148 2.78895E+01 9.05020E+00 2.27766E+00-6.51271E+00-1.94289E-15 5.04291E-13
 -1      1149 2.08036E+01 6.31157E+00 2.34945E-01-3.63338E+00-4.52416E-15 2.46247E-13
 -1      1150 1.96964E+01 5.93686E+00 9.30528E-02-2.54447E+00-5.39846E-15 9.17790E-14
 -1      1151 1.92008E+01 5.78030E+00 6.68764E-02-1.85949E+00-3.59435E-15-1.96197E-15
 -1      1152 1.88878E+01 5.68262E+00 5.42708E-02-1.33821E+00-3.00454E-15-5.99243E-14
 -1      1153 1.86639E+01 5.61250E+00 4.43960E-02-9.23390E-01-2.89005E-15-9.77222E-14
 -1      1154 1.85051E+01 5.56262E+00 3.69196E-02-5.79705E-01-2.30892E-15-1.16805E-13
 -1      1155 1.84085E+01 5.53221E+00 3.21824E-02-2.78618E-01-2.17795E-15-1.21207E-13
 -1      1156 1.83779E+01 5.52262E+00 3.07866E-02 7.75767E-04-3.12250E-16-1.34511E-13
 -1      1157 1.84139E+01 5.53402E+00 3.28197E-02 2.82145E-01-5.35162E-16-1.52575E-13
 -1      1158 1.85143E+01 5.56572E+00 3.80744E-02 5.88864E-01 3.64292E-17-1.59534E-13
 -1      1159 1.86750E+01 5.61636E+00 4.62049E-02 9.40949E-01 1.63411E-15-1.57698E-13
 -1      1160 1.88975E+01 5.68603E+00 5.59740E-02 1.36579E+00 9.99201E-16-1.49557E-13
 -1      1161 1.92061E+01 5.78201E+00 6.72520E-02 1.89876E+00 2.59515E-15-1.32195E-13
 -1      1162 1.96894E+01 5.93294E+00 8.70599E-02 2.59293E+00 4.41314E-15-9.29378E-14
 -1      1163 2.07045E+01 6.26522E+00 1.79481E-01 3.61841E+00 4.30211E-15 2.22253E-14
 -1      1164 2.52196E+01 7.98820E+00 1.40758E+00 5.67026E+00 1.07692E-14 2.75890E-13
 -1      1165 2.86200E+01 3.51412E+00 1.17819E+00-4.09479E+00-1.56541E-14 6.88005E-13
 -1      1166 2.05182E+01-1.82619E-01-6.20172E-01-8.40776E-02-4.18415E-15 6.43888E-13
 -1      1167 1.94625E+01-9.94182E-02-2.34551E-01 6.81234E-02 3.23179E-15 5.62682E-13
 -1      1168 1.94373E+01-5.39928E-02-6.51724E-02 4.47706E-02-3.62124E-15 4.86271E-13
 -1      1169 1.97370E+01-3.31682E-02-2.61802E-02 3.27857E-02-6.03684E-16 4.78756E-13
 -1      1170 2.02523E+01-2.32501E-02-1.91580E-02 2.81105E-02-4.19521E-15 4.63997E-13
 -1      1171 2.09313E+01-1.69837E-02-1.66225E-02 2.72408E-02 1.57912E-14 4.46837E-13
 -1      1172 2.17396E+01-1.10335E-02-1.21664E-02 2.85144E-02 2.46895E-15 5.21080E-13
 -1      1173 2.26371E+01-2.94060E-03-2.79999E-03 3.03904E-02-1.86111E-15 3.96065E-13
 -1      1174 2.35549E+01 9.43538E-03 1.45846E-02 3.05581E-02-2.34654E-15 2.74024E-13
 -1      1175 2.43724E+01 2.74073E-02 4.23939E-02 2.52146E-02 8.16621E-16 1.13784E-13
 -1      1176 2.48998E+01 4.97795E-02 7.88581E-02 9.03783E-03 3.58758E-14 2.24588E-13
 -1      1177 2.48887E+01 7.00216E-02 1.12499E-01-2.26473E-02-2.44110E-14 3.35773E-13
 -1      1178 2.41079E+01 7.43947E-02 1.19324E-01-6.83644E-02-5.32560E-16 2.71463E-13
 -1      1179 2.25059E+01 4.64506E-02 7.17002E-02-1.13320E-01 1.13499E-14 4.95631E-13
 -1      1180 2.04052E+01-1.85693E-02-3.54444E-02-1.28901E-01-5.27013E-14 5.16129E-13
 -1      1181 1.85438E+01-9.42798E-02-1.57174E-01-9.00306E-02-2.50668E-16 4.91870E-13
 -1      1182 1.77664E+01-1.31091E-01-2.15333E-01-3.93990E-03-7.01349E-15 5.91747E-13
 -1      1183 1.84777E+01-1.00227E-01-1.66563E-01 8.46533E-02-3.49790E-14 3.61489E-13
 -1      1184 2.03388E+01-2.62367E-02-4.78702E-02 1.28959E-01 3.29944E-15 1.49131E-13
 -1      1185 2.25252E+01 4.10577E-02 6.27757E-02 1.17862E-01-1.95295E-14 1.22360E-13
 -1      1186 2.42729E+01 7.23265E-02 1.15741E-01 7.45794E-02 1.94584E-14 2.90906E-13
 -1      1187 2.52219E+01 6.99708E-02 1.12248E-01 2.86144E-02 2.06302E-14 4.47919E-13
 -1      1188 2.54005E+01 5.04906E-02 7.96182E-02-3.68532E-03-1.85099E-14 3.73018E-13
 -1      1189 2.50340E+01 2.81898E-02 4.28258E-02-1.99852E-02 1.25984E-15 4.07330E-13
 -1      1190 2.43736E+01 1.02970E-02 1.43434E-02-2.46854E-02 1.53236E-14 5.66564E-13
 -1      1191 2.36129E+01-1.43282E-03-3.29563E-03-2.30523E-02 6.43761E-14 9.42704E-13
 -1      1192 2.28728E+01-7.87703E-03-1.21728E-02-1.88798E-02-7.54279E-16 8.52433E-13
 -1      1193 2.22151E+01-1.06222E-02-1.53458E-02-1.42853E-02-1.19964E-14 4.97252E-13
 -1      1194 2.16629E+01-1.11041E-02-1.53257E-02-1.02141E-02 7.20902E-14 5.44353E-13
 -1      1195 2.12171E+01-1.03618E-02-1.37753E-02-6.96004E-03 1.30247E-14 7.48630E-13
 -1      1196 2.08679E+01-9.06186E-03-1.16629E-02-4.51287E-03 2.59473E-14 8.98056E-13
 -1      1197 2.06009E+01-7.59577E-03-9.49864E-03-2.74848E-03-4.51268E-14 3.98845E-13
 -1      1198 2.04015E+01-6.17465E-03-7.52194E-03-1.51956E-03 7.78023E-16 4.90348E-14
 -1      1199 2.02557E+01-4.89969E-03-5.82440E-03-6.92138E-04 1.51834E-14 1.99307E-13
 -1      1200 2.01518E+01-3.80884E-03-4.42186E-03-1.56632E-04-1.82536E-15 3.05181E-13
 -1      1201 2.00797E+01-2.90570E-03-3.29445E-03 1.71910E-04-2.09868E-14-6.29491E-14
 -1      1202 2.00314E+01-2.17654E-03-2.40775E-03 3.57344E-04 4.20587E-14 1.87360E-14
 -1      1203 2.00007E+01-1.60004E-03-1.72360E-03 4.46701E-04-2.55675E-14 2.08828E-13
 -1      1204 1.99826E+01-1.15266E-03-1.20523E-03 4.74069E-04-5.90307E-16 3.66992E-13
 -1      1205 1.99734E+01-8.11427E-04-8.19517E-04 4.63777E-04-2.84807E-14 4.30398E-13
 -1      1206 1.99702E+01-5.55233E-04-5.37640E-04 4.32886E-04-1.90532E-14 2.56519E-13
 -1      1207 1.99710E+01-3.65298E-04-3.34896E-04 3.93060E-04 6.96218E-14 1.35910E-13
 -1      1208 1.99744E+01-2.25085E-04-1.89926E-04 3.51878E-04-5.34407E-14 1.04725E-13
 -1      1209 1.99792E+01-1.19950E-04-8.34169E-05 3.13568E-04-1.20708E-15-3.47585E-13
 -1      1210 1.99847E+01-3.67065E-05 3.93035E-06 2.78994E-04 6.54530E-14 1.86524E-14
 -1      1211 1.99902E+01 3.66162E-05 9.31387E-05 2.43931E-04-8.42886E-14 2.36849E-13
 -1      1212 1.99952E+01 1.08317E-04 1.96896E-04 1.90284E-04 7.51668E-14 4.79865E-13
 -1      1213 1.99988E+01 1.85035E-04 2.71884E-04 7.96581E-05 9.75364E-15 8.80885E-13
 -1      1214 1.99999E+01-3.27848E-05-3.06005E-05-4.94215E-05 6.78825E-14 6.45368E-13
 -1      1215 2.76260E+01 5.15848E-01 3.08399E-01 1.92895E+00-6.59195E-15 4.92328E-13
 -1      1216 2.03922E+01-6.97755E-02-5.74150E-01 1.20058E-01 4.08007E-15 3.68344E-13
 -1      1217 1.95220E+01-4.49563E-02-1.92921E-01 1.70800E-02 2.33147E-15 2.28146E-13
 -1      1218 1.94370E+01-2.72914E-02-5.58940E-02 1.48802E-03-4.01242E-15 1.42511E-13
 -1      1219 1.96960E+01-1.93476E-02-2.27947E-02-3.74081E-03-8.97915E-15 1.05367E-13
 -1      1220 2.01622E+01-1.44591E-02-1.59650E-02-6.42834E-03 6.33499E-15 3.94060E-14
 -1      1221 2.07682E+01-9.93578E-03-1.26992E-02-9.34343E-03-2.45301E-14 7.75872E-14
 -1      1222 2.14664E+01-4.12159E-03-7.07532E-03-1.33761E-02-4.13558E-15 1.20726E-13
 -1      1223 2.22039E+01 4.28437E-03 3.23189E-03-1.86725E-02 1.99482E-15 1.46133E-14
 -1      1224 2.29038E+01 1.59668E-02 1.98769E-02-2.45441E-02-2.12699E-15-1.15914E-14
 -1      1225 2.34518E+01 3.01039E-02 4.29733E-02-2.89108E-02 2.21398E-14-8.25156E-14
 -1      1226 2.36941E+01 4.30888E-02 6.86390E-02-2.78595E-02-7.10239E-15-1.20968E-13
 -1      1227 2.34612E+01 4.79553E-02 8.65660E-02-1.63079E-02 1.39975E-14-1.02189E-13
 -1      1228 2.26355E+01 3.66056E-02 8.10406E-02 8.94521E-03 1.72865E-15-1.28106E-13
 -1      1229 2.12589E+01 6.24307E-03 3.94599E-02 4.39986E-02 2.30415E-15-1.90070E-13
 -1      1230 1.96276E+01-3.36436E-02-3.30632E-02 7.47267E-02 3.10147E-15-3.75838E-13
 -1      1231 1.82669E+01-6.28434E-02-1.06434E-01 8.19623E-02-2.73843E-14-3.22284E-13
 -1      1232 1.77177E+01-6.46038E-02-1.39919E-01 5.59562E-02 9.37531E-15-4.67094E-13
 -1      1233 1.82282E+01-4.06171E-02-1.14282E-01 7.01352E-03-6.15480E-15-5.36599E-13
 -1      1234 1.95926E+01-8.01477E-03-4.87934E-02-4.03998E-02-1.82632E-14-1.86559E-13
 -1      1235 2.12879E+01 1.68454E-02 1.83579E-02-6.61151E-02-2.78098E-15 1.26080E-13
 -1      1236 2.27807E+01 2.76821E-02 5.92345E-02-6.64225E-02-6.92983E-14 4.02817E-13
 -1      1237 2.37545E+01 2.72297E-02 6.85699E-02-5.01299E-02-1.86006E-15 9.45286E-14
 -1      1238 2.41492E+01 2.09718E-02 5.68933E-02-2.89829E-02 3.12294E-14-2.69463E-13
 -1      1239 2.40724E+01 1.33494E-02 3.74861E-02-1.08047E-02 1.25583E-14-4.52608E-13
 -1      1240 2.36906E+01 6.73010E-03 1.92989E-02 1.52969E-03 1.00143E-14-2.24345E-13
 -1      1241 2.31575E+01 1.90339E-03 5.97235E-03 8.31071E-03 5.23534E-15-9.29049E-14
 -1      1242 2.25849E+01-1.17770E-03-2.24759E-03 1.10394E-02-2.24859E-15-2.15106E-15
 -1      1243 2.20419E+01-2.88360E-03-6.49596E-03 1.12747E-02-5.21138E-14-5.11882E-14
 -1      1244 2.15639E+01-3.62982E-03-8.11757E-03 1.02059E-02-2.80090E-14 4.53144E-14
 -1      1245 2.11639E+01-3.76562E-03-8.19991E-03 8.60295E-03-2.61085E-14 3.01382E-14
 -1      1246 2.08416E+01-3.54801E-03-7.48708E-03 6.90806E-03-1.08556E-14 1.86880E-13
 -1      1247 2.05897E+01-3.15138E-03-6.43855E-03 5.34535E-03-1.43133E-14 4.84760E-13
 -1      1248 2.03982E+01-2.68683E-03-5.31632E-03 4.00824E-03 1.59872E-14 8.48612E-14
 -1      1249 2.02562E+01-2.22084E-03-4.25760E-03 2.91815E-03-4.88811E-14-2.92004E-13
 -1      1250 2.01537E+01-1.79006E-03-3.32531E-03 2.06034E-03-1.69227E-14-5.53373E-13
 -1      1251 2.00819E+01-1.41200E-03-2.54022E-03 1.40452E-03-2.29872E-14-6.59206E-13
 -1      1252 2.00335E+01-1.09235E-03-1.90038E-03 9.15936E-04 4.67105E-14-6.06261E-13
 -1      1253 2.00024E+01-8.29868E-04-1.39257E-03 5.61007E-04-3.53238E-14-5.85927E-13
 -1      1254 1.99839E+01-6.19510E-04-9.98855E-04 3.09817E-04-4.02628E-14-4.61382E-13
 -1      1255 1.99743E+01-4.54377E-04-7.00159E-04 1.36958E-04 3.29194E-15-5.94270E-13
 -1      1256 1.99708E+01-3.26861E-04-4.78132E-04 2.14866E-05-3.19111E-14-3.80040E-13
 -1      1257 1.99715E+01-2.29208E-04-3.15849E-04-5.35545E-05-2.52615E-14-2.78513E-13
 -1      1258 1.99747E+01-1.53620E-04-1.97605E-04-1.01812E-04 5.27208E-14-1.68672E-14
 -1      1259 1.99794E+01-9.18876E-05-1.07717E-04-1.34164E-04 3.59708E-14-3.37508E-13
 -1      1260 1.99848E+01-3.56958E-05-2.89859E-05-1.58838E-04 2.16779E-14-5.29995E-13
 -1      1261 1.99903E+01 2.46478E-05 5.84752E-05-1.81147E-04-1.18849E-14-9.81117E-13
 -1      1262 1.99952E+01 9.59213E-05 1.68771E-04-1.96732E-04-4.96995E-14-1.16089E-12
 -1      1263 1.99988E+01 1.49453E-04 2.47207E-04-1.64054E-04 1.26123E-13-1.45160E-12
 -1      1264 1.99999E+01-3.51329E-05-3.52172E-05 3.91743E-05 1.59680E-14-9.19056E-13
 -1      1265 1.99998E+01 9.94204E-05-3.86245E-05 2.54358E-05-9.93041E-13 1.38525E-14
 -1      1266 1.99999E+01-1.09161E-03 2.22558E-04-6.73867E-05-7.66955E-13-2.20715E-14
 -1      1267 1.99999E+01-4.41687E-03 1.24193E-04-1.73085E-04 7.13172E-13 1.05258E-14
 -1      1268 1.99998E+01-8.61231E-03-5.29455E-06-1.81416E-04 6.30922E-13-5.66779E-14
 -1      1269 1.99997E+01-1.27348E-02-8.96382E-05-1.54406E-04 6.61281E-13-9.03636E-14
 -1      1270 1.99997E+01-1.62205E-02-1.34159E-04-1.14986E-04 1.06281E-12-1.63001E-13
 -1      1271 1.99997E+01-1.88228E-02-1.52181E-04-7.67728E-05 1.18917E-12 7.85465E-14
 -1      1272 1.99997E+01-2.04331E-02-1.58786E-04-3.77105E-05 5.57750E-13-1.99195E-13
 -1      1273 1.99997E+01-2.09757E-02-1.60404E-04-1.58590E-07 2.92331E-13-1.01246E-14
 -1      1274 1.99997E+01-2.04390E-02-1.59531E-04 3.75488E-05 4.69535E-13 2.88088E-14
 -1      1275 1.99997E+01-1.88299E-02-1.53149E-04 7.69527E-05-1.09465E-12-1.97759E-13
 -1      1276 1.99997E+01-1.62195E-02-1.34573E-04 1.17774E-04-8.87231E-13 9.39425E-14
 -1      1277 1.99997E+01-1.27203E-02-9.07698E-05 1.55702E-04-2.22129E-13 1.50135E-13
 -1      1278 1.99998E+01-8.57161E-03-2.37017E-06 1.85310E-04 5.90229E-13 1.23892E-13
 -1      1279 1.99999E+01-4.30392E-03 1.51010E-04 2.06146E-04-1.20628E-13 7.75924E-14
 -1      1280 2.00000E+01-1.11314E-03 2.29219E-04 6.30016E-05-7.05329E-13-7.22926E-14
 -1      1281 1.99997E+01 9.89681E-05-5.24772E-05-1.86641E-05-5.43298E-13 1.07666E-13
 -1      1282-1.09318E+00-2.37100E+01-3.67472E+00-2.28579E+00-6.22113E-13-3.56798E-14
 -1      1283-1.76514E+00-1.43243E+01-2.98257E+00-3.85396E+00-1.85629E-13-2.75335E-14
 -1      1284 5.70946E-01-1.69735E+00-1.77274E+00 2.53252E-01 2.31370E-13 2.02061E-13
 -1      1285 1.03373E+01 8.14023E+00-1.43415E-01 9.01624E+00 7.06990E-13 7.43849E-13
 -1      1286 2.90166E+01 1.08071E+01 1.67617E+00 1.68912E+01 8.18901E-13 1.38578E-12
 -1      1287 5.01476E+01 7.16861E+00 3.28833E+00 1.65372E+01 5.31908E-13 1.33804E-12
 -1      1288 6.43373E+01 2.76482E+00 4.10707E+00 7.16995E+00 1.14193E-13 5.89473E-13
 -1      1289 6.54958E+01 2.29140E+00 4.20623E+00-6.22603E+00 2.29781E-14 1.75582E-13
 -1      1290 5.29519E+01 6.31168E+00 3.40082E+00-1.59446E+01 7.92144E-14-2.47358E-13
 -1      1291 3.38380E+01 1.05476E+01 2.10521E+00-1.77604E+01 3.11973E-13-4.72289E-13
 -1      1292 1.54109E+01 1.01581E+01 4.95749E-01-1.20908E+01 4.74065E-13-5.39346E-13
 -1      1293 3.26372E+00 2.92337E+00-1.13166E+00-3.33421E+00 8.27560E-13-5.96856E-13
 -1      1294-1.42361E+00-9.19765E+00-2.52838E+00 3.01097E+00 1.11933E-12-4.85056E-13
 -1      1295-1.52187E+00-2.04842E+01-3.47376E+00 3.82236E+00 1.01563E-12-2.86798E-13
 -1      1296-9.63848E-01-2.53821E+01-3.82757E+00 2.75876E-01 1.45967E-13-7.59878E-14
 -1      1297-1.48107E+00-2.15992E+01-3.58356E+00-3.63481E+00-4.59410E-13-1.05568E-13
 -1      1298-1.54559E+00-1.02980E+01-2.67274E+00-3.23902E+00-5.80425E-13-2.61346E-13
 -1      1299 3.38203E+00 2.50266E+00-1.24091E+00 3.39678E+00-7.18092E-13-6.02185E-13
 -1      1300 1.64982E+01 1.01557E+01 4.97143E-01 1.26523E+01-7.57172E-13-8.55982E-13
 -1      1301 3.57954E+01 1.02796E+01 2.24686E+00 1.80146E+01-4.01013E-13-6.67022E-13
 -1      1302 5.52340E+01 5.94770E+00 3.64390E+00 1.52048E+01-1.66200E-13-4.49862E-13
 -1      1303 6.65418E+01 2.24491E+00 4.27146E+00 4.16656E+00-6.82648E-14 8.71525E-15
 -1      1304 6.42734E+01 2.87878E+00 4.19610E+00-9.23717E+00-8.24688E-14 4.80838E-13
 -1      1305 4.85062E+01 7.66378E+00 3.14224E+00-1.69211E+01-3.64486E-13 8.22009E-13
 -1      1306 2.82889E+01 1.08899E+01 1.70515E+00-1.64603E+01-5.26135E-13 9.91207E-13
 -1      1307 1.04515E+01 8.23736E+00-1.16356E-01-9.06358E+00-3.69038E-13 4.74731E-13
 -1      1308 5.76635E-01-1.81599E+00-1.82110E+00-2.05031E-01-2.50466E-13 1.50102E-13
 -1      1309-1.83130E+00-1.50094E+01-3.05715E+00 4.05484E+00-6.44151E-13 2.20157E-13
 -1      1310-1.03655E+00-2.40815E+01-3.71604E+00 2.25525E+00-6.75848E-13 6.85944E-14
 -1      1311 2.24299E+01 1.85119E+00-7.12988E-01-2.64813E+00 2.77556E-17 4.80671E-13
 -1      1312 2.06669E+01 4.70260E+00-4.15132E-02-3.00251E+00-3.92325E-14 1.75214E-13
 -1      1313 2.11622E+01 4.80732E+00-9.82517E-02-3.88325E+00-4.34652E-14 2.51715E-13
 -1      1314 1.97946E+01 5.02440E+00-1.73579E-02-2.29152E+00-5.03972E-14 5.34815E-14
 -1      1315 2.01308E+01 5.13030E+00 1.10930E-02-2.70450E+00-5.50601E-14 1.11466E-13
 -1      1316 2.08559E+01 3.94935E+00-2.07379E-02-2.73770E+00-7.48776E-14 1.46244E-13
 -1      1317 1.93259E+01 5.12309E+00-5.31454E-03-1.69216E+00-4.87735E-14-2.35818E-14
 -1      1318 1.95424E+01 5.19743E+00 1.71570E-02-1.98721E+00-5.40748E-14 1.39125E-14
 -1      1319 1.99999E+01 4.40368E+00-2.09954E-02-2.11379E+00-8.20316E-14 4.85723E-14
 -1      1320 1.90024E+01 5.16925E+00-1.11418E-03-1.21183E+00-4.49814E-14-7.47076E-14
 -1      1321 1.91570E+01 5.22131E+00 1.56461E-02-1.44421E+00-4.66606E-14-4.94882E-14
 -1      1322 1.94904E+01 4.62817E+00-1.79477E-02-1.55717E+00-7.52298E-14-1.82319E-14
 -1      1323 1.87673E+01 5.19583E+00 5.78243E-04-8.26384E-01-3.91458E-14-1.02328E-13
 -1      1324 1.88794E+01 5.23290E+00 1.28793E-02-1.01329E+00-4.24973E-14-8.49945E-14
 -1      1325 1.91402E+01 4.76287E+00-1.44704E-02-1.10753E+00-7.34291E-14-5.39430E-14
 -1      1326 1.86017E+01 5.21211E+00 1.52345E-03-4.96583E-01-3.65047E-14-1.17644E-13
 -1      1327 1.86777E+01 5.23676E+00 9.63772E-03-6.57989E-01-3.65350E-14-1.10894E-13
 -1      1328 1.88869E+01 4.84875E+00-1.24355E-02-7.39046E-01-5.92438E-14-8.51957E-14
 -1      1329 1.85106E+01 5.22279E+00 2.79720E-03-2.05449E-01-2.28697E-14-1.31331E-13
 -1      1330 1.85480E+01 5.23480E+00 6.65444E-03-3.50356E-01-2.61605E-14-1.22397E-13
 -1      1331 1.87180E+01 4.90052E+00-1.13512E-02-4.22280E-01-4.93459E-14-9.46621E-14
 -1      1332 1.84957E+01 5.22966E+00 4.67360E-03 7.04102E-02-1.51476E-14-1.40544E-13
 -1      1333 1.84937E+01 5.22896E+00 4.27327E-03-6.97247E-02-1.84282E-14-1.33497E-13
 -1      1334 1.86353E+01 4.92371E+00-1.09140E-02-1.37590E-01-3.20527E-14-1.07839E-13
 -1      1335 1.85569E+01 5.23326E+00 7.20042E-03 3.54017E-01-2.20744E-15-1.53240E-13
 -1      1336 1.85161E+01 5.22002E+00 2.61574E-03 2.07159E-01-4.02152E-15-1.43559E-13
 -1      1337 1.86398E+01 4.92082E+00-1.09766E-02 1.37858E-01-1.72036E-14-1.13831E-13
 -1      1338 1.86912E+01 5.23275E+00 1.01720E-02 6.68131E-01-1.03563E-15-1.62559E-13
 -1      1339 1.86132E+01 5.20754E+00 1.59563E-03 5.03099E-01-2.32106E-15-1.61527E-13
 -1      1340 1.87304E+01 4.89220E+00-1.15311E-02 4.26494E-01-1.60896E-15-1.30866E-13
 -1      1341 1.88920E+01 5.22714E+00 1.33664E-02 1.02887E+00 5.87724E-15-1.59487E-13
 -1      1342 1.87799E+01 5.18982E+00 7.82139E-04 8.37670E-01 5.07754E-15-1.60698E-13
 -1      1343 1.89027E+01 4.83649E+00-1.25543E-02 7.47388E-01 5.22152E-15-1.35482E-13
 -1      1344 1.91707E+01 5.21347E+00 1.60702E-02 1.47349E+00 2.51604E-14-1.50140E-13
 -1      1345 1.90165E+01 5.16119E+00-8.76530E-04 1.23569E+00 1.64244E-14-1.52246E-13
 -1      1346 1.91568E+01 4.74706E+00-1.46413E-02 1.12514E+00 2.06727E-14-1.27579E-13
 -1      1347 1.95533E+01 5.18749E+00 1.66446E-02 2.02868E+00 4.00513E-14-1.32245E-13
 -1      1348 1.93384E+01 5.11220E+00-5.76567E-03 1.72748E+00 3.17420E-14-1.43580E-13
 -1      1349 1.95101E+01 4.60771E+00-1.80296E-02 1.58799E+00 4.86841E-14-1.24029E-13
 -1      1350 2.01502E+01 5.13628E+00 1.62276E-02 2.75164E+00 4.79061E-14-8.11018E-14
 -1      1351 1.98032E+01 5.01395E+00-1.80315E-02 2.34176E+00 4.48946E-14-1.13198E-13
 -1      1352 2.00197E+01 4.37880E+00-2.14578E-02 2.16081E+00 6.95138E-14-9.98021E-14
 -1      1353 2.13745E+01 4.90120E+00 1.78081E-02 3.79420E+00 4.57689E-14 4.23411E-14
 -1      1354 2.06369E+01 4.74393E+00-4.07358E-02 3.11797E+00 3.98709E-14-3.40283E-14
 -1      1355 2.08874E+01 3.91201E+00-1.71329E-02 2.84872E+00 7.34066E-14-3.49443E-14
 -1      1356 2.71979E+01 3.16315E+00 8.88646E-01 4.41727E+00 2.16077E-14 2.93654E-13
 -1      1357 2.22422E+01 3.51306E+00-1.74152E-01 3.67428E+00 2.53686E-14 1.13742E-13
 -1      1358 2.24129E+01 2.53738E+00-2.64098E-02 3.18690E+00 7.96741E-14 7.51343E-14
 -1      1359 2.16461E+01 3.46721E-01-7.56431E-01 1.05883E+00 3.92394E-14 2.77278E-13
 -1      1360 2.22770E+01 1.22603E-01-3.96786E-01-1.14176E+00-1.83603E-14 4.70068E-13
 -1      1361 2.11116E+01 2.97504E-01-1.58043E-01-6.82957E-01-2.90740E-14 4.45789E-13
 -1      1362 2.06145E+01 1.53893E-01-7.06592E-02-2.79081E-01-1.58450E-14 4.28436E-13
 -1      1363 2.02975E+01 9.37383E-02-1.21143E-02-2.08064E-01-2.10283E-14 3.97037E-13
 -1      1364 2.14505E+01 3.59830E-01-1.03374E-01-1.03417E+00-4.65322E-14 3.01249E-13
 -1      1365 2.00656E+01 7.07748E-02 3.97410E-03-3.24011E-03-2.06163E-14 3.78881E-13
 -1      1366 2.00764E+01 4.92463E-02 1.43304E-02 1.84319E-02-2.28966E-14 3.55976E-13
 -1      1367 2.06247E+01 1.38455E-01-3.69360E-02-2.53449E-01-3.86566E-14 2.72017E-13
 -1      1368 2.00632E+01 4.23259E-02 1.29314E-02 1.28702E-01-1.81539E-15 3.32859E-13
 -1      1369 2.02394E+01 3.09142E-02 1.13989E-02 1.44208E-01-1.91167E-14 3.25823E-13
 -1      1370 2.04132E+01 7.02430E-02-1.13338E-02 1.17988E-01-2.30718E-14 2.31761E-13
 -1      1371 2.03592E+01 2.99597E-02 7.77542E-03 2.15942E-01-1.65579E-14 3.23578E-13
 -1      1372 2.06394E+01 2.25557E-02 6.30542E-03 2.28191E-01 2.81719E-15 2.96412E-13
 -1      1373 2.05194E+01 4.54156E-02-7.30719E-03 3.36029E-01-2.08288E-14 1.86647E-13
 -1      1374 2.08487E+01 2.32017E-02 3.07638E-03 2.80904E-01 2.01792E-14 2.91748E-13
 -1      1375 2.12046E+01 1.66701E-02 2.98789E-03 2.90958E-01 1.70714E-14 3.31454E-13
 -1      1376 2.08391E+01 3.42142E-02-6.56988E-03 4.86790E-01-2.54961E-15 1.82543E-13
 -1      1377 2.14765E+01 1.71326E-02 2.65466E-04 3.29016E-01 1.40452E-14 3.32770E-13
 -1      1378 2.18865E+01 9.56447E-03 9.73279E-04 3.36398E-01-8.65063E-15 3.16903E-13
 -1      1379 2.13079E+01 2.52655E-02-5.65126E-03 5.97405E-01 1.79704E-14 1.79959E-13
 -1      1380 2.21979E+01 8.30714E-03-1.16401E-03 3.55765E-01-1.93464E-14 3.06873E-13
 -1      1381 2.26332E+01-1.84967E-03-1.66172E-04 3.58421E-01-2.43734E-14 2.52777E-13
 -1      1382 2.18789E+01 1.22120E-02-3.90062E-03 6.68546E-01-3.96661E-14 1.82271E-13
 -1      1383 2.29558E+01-6.62154E-03-1.20050E-03 3.47897E-01-3.38356E-14 2.65867E-13
 -1      1384 2.33693E+01-2.04293E-02-1.72528E-04 3.41972E-01-5.53539E-14 2.10262E-13
 -1      1385 2.25036E+01-1.06181E-02-7.57568E-04 6.82453E-01-4.90664E-14 2.04760E-13
 -1      1386 2.36630E+01-3.05419E-02 8.17493E-04 2.84347E-01-3.54404E-14 1.85386E-13
 -1      1387 2.39801E+01-4.76015E-02 1.65658E-03 2.64362E-01-8.95551E-16 1.70851E-13
 -1      1388 2.31173E+01-4.82138E-02 4.56283E-03 6.05480E-01-6.36179E-14 2.05946E-13
 -1      1389 2.41895E+01-6.36844E-02 5.61466E-03 1.41251E-01 5.37704E-14 1.16599E-13
 -1      1390 2.43078E+01-8.01693E-02 5.77047E-03 1.01798E-01 1.83039E-14 1.86600E-13
 -1      1391 2.36287E+01-1.01550E-01 1.26226E-02 3.94603E-01 3.47899E-15 1.67531E-13
 -1      1392 2.43659E+01-9.89014E-02 1.26802E-02-9.32794E-02-1.02644E-14 2.09516E-13
 -1      1393 2.41761E+01-1.05651E-01 1.09471E-02-1.52605E-01-2.77139E-14 1.85980E-13
 -1      1394 2.39186E+01-1.60122E-01 2.27040E-02 1.75861E-02 1.17302E-14 9.73635E-14
 -1      1395 2.40227E+01-1.17363E-01 1.84499E-02-3.92175E-01 1.50921E-15 2.30101E-13
 -1      1396 2.34638E+01-1.01156E-01 1.32373E-02-4.59244E-01 3.83877E-14 2.68438E-13
 -1      1397 2.38581E+01-1.94650E-01 3.09320E-02-5.05233E-01 1.70176E-14 1.25231E-13
 -1      1398 2.30841E+01-9.12948E-02 1.67121E-02-6.62863E-01 4.94760E-14 2.68223E-13
 -1      1399 2.22229E+01-4.34701E-02 7.10873E-03-7.07901E-01-2.66670E-14 3.08732E-13
 -1      1400 2.33631E+01-1.61006E-01 2.95765E-02-1.04929E+00 5.21597E-14 1.53462E-13
 -1      1401 2.16967E+01-4.51588E-03 2.74991E-03-7.55735E-01-2.12048E-14 3.58172E-13
 -1      1402 2.07794E+01 6.40139E-02-9.23787E-03-7.41490E-01-4.80518E-14 3.53703E-13
 -1      1403 2.24835E+01-3.01378E-02 1.06358E-02-1.37171E+00 2.59753E-15 1.90768E-13
 -1      1404 2.03001E+01 1.15562E-01-1.85878E-02-5.48298E-01-4.25476E-14 3.68830E-13
 -1      1405 1.96908E+01 1.69280E-01-2.75490E-02-4.61225E-01-2.82812E-14 3.40953E-13
 -1      1406 2.14835E+01 1.64221E-01-2.37657E-02-1.21011E+00-3.36571E-14 2.49897E-13
 -1      1407 1.94905E+01 1.95366E-01-3.29142E-02-7.34881E-02 5.47860E-14 3.28258E-13
 -1      1408 1.94763E+01 1.98098E-01-3.32478E-02 4.95294E-02 5.42275E-15 3.42410E-13
 -1      1409 2.07972E+01 3.17129E-01-5.35778E-02-5.01417E-01 8.53137E-15 2.20745E-13
 -1      1410 1.96691E+01 1.76337E-01-2.87787E-02 4.47538E-01-8.69270E-14 3.20657E-13
 -1      1411 2.02651E+01 1.26133E-01-2.02816E-02 5.40362E-01-8.70293E-14 1.56736E-13
 -1      1412 2.07886E+01 3.25059E-01-5.51479E-02 4.68360E-01-8.28122E-14 1.63391E-13
 -1      1413 2.07551E+01 7.56404E-02-1.10517E-02 7.56984E-01-5.96433E-14 1.66589E-13
 -1      1414 2.16941E+01 6.75313E-03 1.06048E-03 7.78425E-01-5.24385E-14 1.23845E-13
 -1      1415 2.14770E+01 1.83056E-01-2.69440E-02 1.21966E+00-1.16402E-13 1.55178E-13
 -1      1416 2.22544E+01-3.41759E-02 5.76852E-03 7.52595E-01 2.45056E-14 7.55090E-14
 -1      1417 2.31713E+01-8.47939E-02 1.58578E-02 7.12096E-01-1.58103E-14 7.12902E-14
 -1      1418 2.25223E+01-1.21707E-02 7.74596E-03 1.43759E+00-4.09273E-14 3.94407E-14
 -1      1419 2.36010E+01-9.68475E-02 1.26457E-02 5.20417E-01 4.90406E-14 2.02310E-13
 -1      1420 2.42350E+01-1.15811E-01 1.83825E-02 4.54652E-01 8.64274E-14 2.69697E-13
 -1      1421 2.34863E+01-1.51132E-01 2.79172E-02 1.15574E+00 9.22561E-14 2.49939E-14
 -1      1422 2.44445E+01-1.04914E-01 1.07305E-02 2.17976E-01 5.41581E-15 2.32397E-13
 -1      1423 2.47149E+01-9.98224E-02 1.29089E-02 1.58263E-01-2.18749E-14 2.55533E-13
 -1      1424 2.40861E+01-1.92211E-01 3.03786E-02 6.28238E-01 2.21038E-14 1.25831E-13
 -1      1425 2.47129E+01-8.06866E-02 5.56780E-03-3.80998E-02 2.52229E-15 2.68300E-13
 -1      1426 2.46740E+01-6.50323E-02 5.82788E-03-7.82010E-02-3.83695E-14 1.70189E-13
 -1      1427 2.42559E+01-1.61012E-01 2.27998E-02 1.06426E-01-4.54949E-14 1.40316E-13
 -1      1428 2.45183E+01-4.80679E-02 1.22593E-03-2.03284E-01 7.79914E-14 3.34656E-13
 -1      1429 2.42782E+01-3.15659E-02 7.02620E-04-2.23624E-01 7.60763E-14 4.51174E-13
 -1      1430 2.40722E+01-1.02734E-01 1.29391E-02-2.74927E-01 7.21810E-14 2.39859E-13
 -1      1431 2.40350E+01-2.04823E-02-1.01828E-03-2.82665E-01 3.59634E-14 4.75925E-13
 -1      1432 2.36971E+01-7.45031E-03-1.80553E-03-2.88590E-01 1.01837E-13 6.21465E-13
 -1      1433 2.36609E+01-4.85131E-02 4.87831E-03-4.90114E-01 7.21029E-14 3.64258E-13
 -1      1434 2.34205E+01-1.92025E-03-1.54743E-03-3.00606E-01 1.45618E-13 5.54808E-13
 -1      1435 2.30598E+01 6.84250E-03-2.43426E-03-2.97938E-01 6.87024E-14 6.45692E-13
 -1      1436 2.31396E+01-1.02526E-02-3.38323E-04-5.70785E-01 1.40308E-13 4.45368E-13
 -1      1437 2.27866E+01 8.51060E-03-1.18342E-03-2.82194E-01-6.80610E-14 6.53241E-13
 -1      1438 2.24478E+01 1.37182E-02-2.11694E-03-2.75334E-01-9.93380E-14 5.42087E-13
 -1      1439 2.25951E+01 1.19278E-02-3.13729E-03-5.63388E-01-1.17198E-14 3.97306E-13
 -1      1440 2.21992E+01 1.31812E-02-5.62661E-04-2.46282E-01-7.35798E-14 4.42611E-13
 -1      1441 2.19039E+01 1.58870E-02-1.49467E-03-2.38004E-01-3.01159E-14 3.07402E-13
 -1      1442 2.20817E+01 2.22439E-02-4.30070E-03-5.08026E-01-1.48769E-13 2.55559E-13
 -1      1443 2.16894E+01 1.43243E-02-1.27290E-05-2.04846E-01-8.15494E-15 4.83805E-13
 -1      1444 2.14443E+01 1.54406E-02-8.92723E-04-1.96682E-01 5.94542E-14 5.53738E-13
 -1      1445 2.16276E+01 2.51831E-02-4.50347E-03-4.32581E-01-1.41202E-14 2.42888E-13
 -1      1446 2.12664E+01 1.35622E-02 3.59564E-04-1.64562E-01 4.81000E-14 4.86070E-13
 -1      1447 2.10701E+01 1.37467E-02-4.27229E-04-1.57245E-01-3.48558E-14 4.67219E-13
 -1      1448 2.12435E+01 2.41262E-02-4.20660E-03-3.53883E-01 1.10946E-14 1.99289E-13
 -1      1449 2.09268E+01 1.19254E-02 5.59641E-04-1.28638E-01-5.95522E-14 5.21792E-13
 -1      1450 2.07740E+01 1.16089E-02-1.10673E-04-1.22435E-01-9.12332E-14 4.44360E-13
 -1      1451 2.09293E+01 2.12367E-02-3.68915E-03-2.80842E-01-9.56461E-14 1.54629E-13
 -1      1452 2.06613E+01 1.00107E-02 6.31433E-04-9.82320E-02-5.81734E-14 5.27460E-13
 -1      1453 2.05451E+01 9.45841E-03 8.33629E-05-9.31647E-02-1.03601E-13 3.21510E-13
 -1      1454 2.06790E+01 1.77582E-02-3.10733E-03-2.17377E-01-7.23091E-14 1.80145E-13
 -1      1455 2.04585E+01 8.13473E-03 6.21518E-04-7.33960E-02-1.35794E-13 4.20616E-13
 -1      1456 2.03721E+01 7.50227E-03 1.88837E-04-6.93672E-02-3.95553E-14 2.13270E-13
 -1      1457 2.04841E+01 1.43390E-02-2.54263E-03-1.64540E-01-1.28354E-13 4.53990E-13
 -1      1458 2.03069E+01 6.44725E-03 5.66476E-04-5.36430E-02 1.24306E-13 2.54510E-13
 -1      1459 2.02441E+01 5.82119E-03 2.35256E-04-5.05097E-02 1.15618E-13 3.44478E-13
 -1      1460 2.03355E+01 1.12771E-02-2.03362E-03-1.21879E-01-2.90360E-15 4.16210E-13
 -1      1461 2.01960E+01 5.00400E-03 4.91184E-04-3.82727E-02-1.33167E-13 2.83822E-13
 -1      1462 2.01515E+01 4.42899E-03 2.44783E-04-3.58828E-02-1.42845E-13 1.68187E-13
 -1      1463 2.02246E+01 8.67781E-03-1.59501E-03-8.82540E-02-6.94052E-15 3.23732E-13
 -1      1464 2.01169E+01 3.81096E-03 4.10973E-04-2.65431E-02-2.11705E-14 1.73508E-13
 -1      1465 2.00863E+01 3.30680E-03 2.32840E-04-2.47537E-02 2.74268E-14 1.13073E-13
 -1      1466 2.01435E+01 6.54758E-03-1.22875E-03-6.22909E-02-1.35389E-13 2.69250E-13
 -1      1467 2.00620E+01 2.84970E-03 3.34452E-04-1.77569E-02 3.26882E-15-6.35115E-14
 -1      1468 2.00417E+01 2.42176E-03 2.09629E-04-1.64421E-02-2.44846E-14 2.97719E-14
 -1      1469 2.00856E+01 4.84658E-03-9.30240E-04-4.26194E-02-5.21493E-14 1.01283E-13
 -1      1470 2.00252E+01 2.09139E-03 2.65874E-04-1.12986E-02 2.48074E-14 8.95782E-14
 -1      1471 2.00125E+01 1.73702E-03 1.81623E-04-1.03519E-02 3.72945E-14 1.22838E-13
 -1      1472 2.00456E+01 3.51696E-03-6.91854E-04-2.79892E-02-1.98878E-14-6.25751E-14
 -1      1473 2.00018E+01 1.50440E-03 2.06833E-04-6.64650E-03 8.22772E-14 1.54030E-13
 -1      1474 1.99946E+01 1.21670E-03 1.52735E-04-5.98007E-03-5.06290E-15 1.91738E-13
 -1      1475 2.00188E+01 2.49726E-03-5.04948E-04-1.73162E-02 7.92022E-14 7.17063E-14
 -1      1476 1.99881E+01 1.05803E-03 1.57382E-04-3.37070E-03-1.01965E-13 2.97153E-13
 -1      1477 1.99846E+01 8.28159E-04 1.25164E-04-2.91391E-03-7.71872E-14 1.88543E-13
 -1      1478 2.00019E+01 1.72941E-03-3.60912E-04-9.69240E-03 1.77855E-14 1.90905E-13
 -1      1479 1.99812E+01 7.24327E-04 1.16743E-04-1.12577E-03-1.12878E-13 1.55226E-13
 -1      1480 1.99802E+01 5.42768E-04 9.99776E-05-8.23076E-04-5.88613E-14 4.86017E-14
 -1      1481 1.99920E+01 1.16148E-03-2.51728E-04-4.37730E-03-1.28917E-13 9.71954E-14
 -1      1482 1.99789E+01 4.78541E-04 8.37577E-05 3.59139E-04 8.55940E-14 8.41733E-14
 -1      1483 1.99796E+01 3.35808E-04 7.75520E-05 5.50331E-04 7.64410E-14 1.01140E-13
 -1      1484 1.99872E+01 7.48443E-04-1.70203E-04-7.82159E-04-1.16330E-14 1.88750E-14
 -1      1485 1.99797E+01 2.98991E-04 5.72198E-05 1.28999E-03-5.66620E-14 1.53618E-13
 -1      1486 1.99815E+01 1.85893E-04 5.79485E-05 1.40107E-03-8.48999E-14-5.94175E-15
 -1      1487 1.99857E+01 4.51486E-04-1.09997E-04 1.54841E-03 6.73525E-14 1.77452E-13
 -1      1488 1.99824E+01 1.66374E-04 3.62175E-05 1.81591E-03-5.18719E-14 7.95755E-14
 -1      1489 1.99847E+01 7.40759E-05 4.14754E-05 1.86836E-03 1.01081E-13 7.85662E-14
 -1      1490 1.99865E+01 2.36690E-04-6.54745E-05 2.95300E-03-9.45048E-15 4.07847E-13
 -1      1491 1.99861E+01 6.28307E-05 2.08136E-05 2.03493E-03 1.88371E-13-1.32767E-14
 -1      1492 1.99887E+01-1.73131E-05 2.95879E-05 2.04093E-03 8.98279E-14 2.92470E-13
 -1      1493 1.99887E+01 7.30988E-05-3.13880E-05 3.66641E-03 1.22379E-13 4.94627E-13
 -1      1494 1.99903E+01-2.96432E-05 1.33256E-05 1.99646E-03-4.56726E-14 8.37127E-14
 -1      1495 1.99927E+01-1.06174E-04 2.59118E-05 1.95788E-03-8.80237E-14 2.88567E-14
 -1      1496 1.99915E+01-7.05875E-05-2.45272E-06 3.82816E-03 3.21703E-14 4.72292E-14
 -1      1497 1.99942E+01-1.31495E-04 1.83840E-05 1.70081E-03 1.79139E-13 9.14757E-14
 -1      1498 1.99963E+01-2.10455E-04 2.95312E-05 1.60561E-03 2.02064E-13 3.49856E-13
 -1      1499 1.99944E+01-2.30550E-04 2.54156E-05 3.48209E-03 1.21556E-13 4.81950E-14
 -1      1500 1.99975E+01-2.67605E-04 3.20005E-05 1.09960E-03 1.06114E-13 4.05246E-13
 -1      1501 1.99987E+01-3.08128E-04 2.87614E-05 9.49085E-04-5.00972E-15 3.79944E-13
 -1      1502 1.99970E+01-4.54821E-04 5.04526E-05 2.60245E-03 2.91592E-13 3.67080E-14
 -1      1503 1.99997E+01-2.04922E-04 5.13347E-05 9.05477E-05-4.71158E-13 4.30544E-13
 -1      1504 1.99992E+01-6.76057E-04 4.61173E-05 9.82122E-04-3.06983E-13 5.37087E-14
 -1      1505 2.07243E+01 7.37460E-02-1.46468E-01 3.81258E-01 4.17409E-14 2.00936E-13
 -1      1506 2.18355E+01 2.16588E-01-2.27391E-01 6.11679E-01 3.08920E-14 2.62235E-13
 -1      1507 2.20677E+01 8.54986E-01-8.95374E-02 1.85723E+00 6.29566E-14 1.47632E-13
 -1      1508 2.00544E+01 3.43281E-02-1.93390E-02 8.41590E-02 3.92811E-14 1.31874E-13
 -1      1509 2.03317E+01 1.16206E-01-5.91849E-02 1.37361E-01 3.15234E-14 1.82881E-13
 -1      1510 2.08591E+01 1.82404E-01-5.63573E-02 5.91110E-01 6.48856E-14 1.06570E-13
 -1      1511 1.99561E+01 1.92305E-02 5.39308E-03-6.06292E-02 8.12631E-15 8.95187E-14
 -1      1512 1.99416E+01 5.80213E-02 2.69566E-03-2.97511E-02 1.50921E-14 1.06540E-13
 -1      1513 2.03549E+01 7.56638E-02-1.42947E-02 9.20163E-02 4.52503E-14 7.74519E-14
 -1      1514 2.01741E+01 1.24346E-02 5.66522E-03-1.43515E-01 2.26377E-14 3.88821E-14
 -1      1515 2.00114E+01 3.50696E-02 1.16758E-02-1.22332E-01 1.29809E-14 6.55864E-14
 -1      1516 2.02936E+01 3.99219E-02-5.59900E-03-1.54212E-01 3.59764E-14 2.33633E-14
 -1      1517 2.05859E+01 8.59620E-03 3.13447E-03-1.97818E-01-1.16651E-14 2.34916E-14
 -1      1518 2.03328E+01 2.44315E-02 8.62088E-03-1.81644E-01 4.31859E-15 2.57502E-14
 -1      1519 2.04955E+01 2.45286E-02-5.37138E-03-3.00976E-01 2.78709E-14-9.59302E-15
 -1      1520 2.11232E+01 5.01043E-03 1.88339E-03-2.33488E-01-2.26334E-14 4.66086E-14
 -1      1521 2.08108E+01 1.72894E-02 5.24336E-03-2.21002E-01-3.52956E-14 1.24328E-14
 -1      1522 2.08640E+01 1.53148E-02-5.54742E-03-3.96394E-01-3.05546E-14 3.87537E-15
 -1      1523 2.17318E+01 1.59111E-04 2.12982E-03-2.50158E-01 2.77629E-14 2.86854E-14
 -1      1524 2.13864E+01 9.75523E-03 3.22213E-03-2.42059E-01 8.56379E-15 3.44256E-14
 -1      1525 2.13365E+01 6.33844E-03-4.69692E-03-4.53159E-01-7.20821E-15-3.12233E-14
 -1      1526 2.23499E+01-7.10919E-03 3.93287E-03-2.40911E-01-1.64376E-15-7.50788E-15
 -1      1527 2.20042E+01-7.97678E-04 2.28609E-03-2.39589E-01 2.24225E-14 1.83048E-14
 -1      1528 2.18591E+01-5.92904E-03-2.45619E-03-4.66718E-01 2.94095E-14-1.20425E-14
 -1      1529 2.28942E+01-1.74202E-02 7.55213E-03-1.94144E-01 3.98149E-14-3.54890E-14
 -1      1530 2.25951E+01-1.62781E-02 2.30543E-03-2.03498E-01 2.62941E-15-3.40457E-14
 -1      1531 2.23703E+01-2.40600E-02 1.61974E-03-4.21305E-01 8.07514E-15-3.94823E-14
 -1      1532 2.32532E+01-3.00445E-02 1.28843E-02-9.71426E-02 1.42967E-14-2.40866E-14
 -1      1533 2.30654E+01-3.70761E-02 3.37965E-03-1.21739E-01 3.62366E-14-7.08288E-15
 -1      1534 2.27917E+01-4.89850E-02 7.82868E-03-2.95109E-01 4.48105E-14-4.42988E-14
 -1      1535 2.32959E+01-4.15847E-02 1.85144E-02 5.58773E-02 5.52336E-15-3.42174E-14
 -1      1536 2.32962E+01-6.01782E-02 5.39227E-03 1.31585E-02-4.93616E-15-5.44333E-14
 -1      1537 2.30272E+01-7.77557E-02 1.55868E-02-7.05031E-02 8.77423E-15 4.82366E-14
 -1      1538 2.29070E+01-4.51180E-02 2.08780E-02 2.50304E-01 4.43231E-14-6.56385E-14
 -1      1539 2.31629E+01-7.70803E-02 7.37840E-03 1.92516E-01 1.87801E-14-5.24476E-14
 -1      1540 2.29765E+01-1.00521E-01 2.25545E-02 2.46841E-01 1.81261E-14-1.76729E-14
 -1      1541 2.20538E+01-3.20734E-02 1.48580E-02 4.37291E-01 2.75040E-14-1.20647E-13
 -1      1542 2.25822E+01-7.42222E-02 7.11183E-03 3.78044E-01 3.39572E-14-9.80743E-14
 -1      1543 2.25713E+01-9.95046E-02 2.45204E-02 6.02733E-01 7.16944E-14-4.11182E-14
 -1      1544 2.08669E+01 1.06545E-03-2.66992E-03 5.35216E-01 8.05588E-14-2.22065E-13
 -1      1545 2.15859E+01-3.98553E-02 1.92490E-03 4.98552E-01 4.68527E-14-1.69170E-13
 -1      1546 2.18320E+01-5.59927E-02 1.71684E-02 8.80258E-01 7.51417E-14-1.20987E-13
 -1      1547 1.96727E+01 4.46713E-02-2.72369E-02 4.64569E-01-2.64545E-14-2.71734E-13
 -1      1548 2.03845E+01 2.32058E-02-8.53405E-03 4.74641E-01 3.70077E-14-2.23585E-13
 -1      1549 2.09197E+01 3.25796E-02 4.17539E-04 9.28819E-01 7.16207E-14-1.26010E-13
 -1      1550 1.89054E+01 7.59335E-02-4.56957E-02 2.09906E-01-9.78037E-15-2.75221E-13
 -1      1551 1.93527E+01 8.95174E-02-1.96832E-02 2.72515E-01-1.40669E-14-2.83863E-13
 -1      1552 2.01290E+01 1.35915E-01-1.85627E-02 6.51135E-01-4.00374E-15-1.73819E-13
 -1      1553 1.88943E+01 7.47708E-02-4.42524E-02-1.40718E-01 3.71092E-14-3.54234E-13
 -1      1554 1.88875E+01 1.22595E-01-2.37358E-02-4.87318E-02 4.57637E-14-2.55486E-13
 -1      1555 1.97758E+01 1.97190E-01-2.90576E-02 1.02840E-01 6.32064E-14-2.14561E-13
 -1      1556 1.96597E+01 4.20404E-02-2.26254E-02-4.35552E-01-1.12616E-13-2.83384E-13
 -1      1557 1.91938E+01 1.03413E-01-1.63627E-02-3.54547E-01-6.27207E-14-3.64556E-13
 -1      1558 2.00218E+01 1.73959E-01-2.62928E-02-4.98671E-01-5.70724E-15-1.22178E-13
 -1      1559 2.08982E+01-9.87862E-04 5.33370E-03-5.60308E-01-1.13518E-13-3.68039E-14
 -1      1560 2.01562E+01 4.72108E-02-1.91557E-03-5.20331E-01-1.22380E-13-1.79683E-13
 -1      1561 2.07705E+01 7.92677E-02-1.50620E-02-9.01968E-01-1.92201E-13-1.22992E-13
 -1      1562 2.21751E+01-3.21009E-02 2.51707E-02-5.03553E-01-9.31638E-14 1.72196E-13
 -1      1563 2.14138E+01-1.21084E-02 1.10198E-02-5.08129E-01-9.26949E-14 1.29480E-14
 -1      1564 2.17338E+01-2.89580E-02-2.93905E-03-9.81884E-01-1.81325E-13 3.03924E-15
 -1      1565 2.31478E+01-4.31904E-02 3.06497E-02-3.34726E-01 5.58373E-14 1.83506E-13
 -1      1566 2.25680E+01-4.93896E-02 1.68427E-02-3.67722E-01-1.65336E-14 1.68171E-13
 -1      1567 2.26021E+01-9.94916E-02 4.96544E-03-7.85327E-01-8.57387E-14 8.40682E-14
 -1      1568 2.36699E+01-3.86095E-02 2.53312E-02-1.40413E-01 1.16275E-13-4.45304E-14
 -1      1569 2.33559E+01-5.95733E-02 1.52975E-02-1.81559E-01 8.59373E-14 1.09024E-13
 -1      1570 2.31770E+01-1.17653E-01 7.86138E-03-4.53686E-01 1.58691E-13 4.61081E-14
 -1      1571 2.37643E+01-2.69792E-02 1.57987E-02 2.08353E-02 1.14714E-13-3.11702E-13
 -1      1572 2.37005E+01-5.11494E-02 9.94736E-03-1.47317E-02 1.20227E-13-1.58597E-13
 -1      1573 2.34040E+01-9.86884E-02 7.41859E-03-1.22141E-01 1.97765E-13-1.24364E-13
 -1      1574 2.35424E+01-1.48953E-02 6.97403E-03 1.27231E-01-6.54290E-14-2.80689E-13
 -1      1575 2.36615E+01-3.52301E-02 4.30581E-03 1.02638E-01-2.05816E-14-3.55122E-13
 -1      1576 2.33310E+01-6.52367E-02 5.56551E-03 1.32069E-01 5.96146E-14-2.37707E-13
 -1      1577 2.31327E+01-5.46824E-03 8.78573E-04 1.81756E-01-1.18041E-13-1.29200E-13
 -1      1578 2.33586E+01-1.94748E-02 2.56403E-04 1.67964E-01-9.05738E-14-2.28749E-13
 -1      1579 2.30499E+01-3.32236E-02 3.57289E-03 2.88419E-01-1.02275E-13-8.79392E-14
 -1      1580 2.26428E+01 6.76236E-04-2.47589E-03 1.97669E-01-7.86710E-14 1.47453E-13
 -1      1581 2.29127E+01-7.28542E-03-1.88290E-03 1.92150E-01-8.17745E-14 2.58248E-14
 -1      1582 2.26546E+01-9.42503E-03 1.97370E-03 3.59806E-01-1.64748E-13 1.41147E-13
 -1      1583 2.21473E+01 4.06772E-03-3.84541E-03 1.89273E-01 1.38969E-14 9.89764E-14
 -1      1584 2.24187E+01 7.42347E-04-2.58515E-03 1.89159E-01 4.01156E-14 2.49198E-13
 -1      1585 2.22195E+01 5.41481E-03 8.60614E-04 3.70838E-01-4.25810E-15 3.42879E-13
 -1      1586 2.16905E+01 5.53237E-03-4.03496E-03 1.68002E-01-7.74182E-14 1.55898E-13
 -1      1587 2.19388E+01 5.28869E-03-2.46335E-03 1.70946E-01-9.38787E-14 4.81559E-15
 -1      1588 2.17954E+01 1.31167E-02 1.53156E-04 3.45331E-01-7.08654E-14 3.33503E-13
 -1      1589 2.12940E+01 5.80636E-03-3.63911E-03 1.41660E-01-6.28284E-15 2.36195E-13
 -1      1590 2.15077E+01 7.36114E-03-1.98839E-03 1.46020E-01-2.39372E-14 1.95076E-13
 -1      1591 2.14113E+01 1.60025E-02-2.62624E-04 3.01528E-01-9.44618E-14 2.37298E-13
 -1      1592 2.09644E+01 5.42619E-03-3.02290E-03 1.14977E-01-5.95446E-14 2.14934E-13
 -1      1593 2.11405E+01 7.86318E-03-1.43976E-03 1.19723E-01-1.77068E-14 1.98370E-13
 -1      1594 2.10808E+01 1.60204E-02-4.83373E-04 2.51579E-01-2.00428E-14 3.10760E-13
 -1      1595 2.06994E+01 4.74122E-03-2.38115E-03 9.04926E-02-4.36481E-14 3.33832E-13
 -1      1596 2.08397E+01 7.46765E-03-9.50570E-04 9.50393E-02-8.68184E-14 1.50561E-13
 -1      1597 2.08070E+01 1.45421E-02-5.78919E-04 2.02702E-01-7.67381E-14 2.72166E-13
 -1      1598 2.04924E+01 3.96073E-03-1.80344E-03 6.93349E-02 1.94400E-13 2.83660E-13
 -1      1599 2.06010E+01 6.62573E-03-5.65861E-04 7.33897E-02 6.02020E-14 3.29327E-13
 -1      1600 2.05872E+01 1.24350E-02-5.96591E-04 1.58659E-01 6.12856E-15 2.30836E-13
 -1      1601 2.03346E+01 3.20034E-03-1.32146E-03 5.17940E-02 1.44010E-13-1.25267E-13
 -1      1602 2.04165E+01 5.61788E-03-2.86874E-04 5.52448E-02 2.31580E-13 1.50236E-13
 -1      1603 2.04153E+01 1.02020E-02-5.67962E-04 1.21011E-01 3.47270E-13 7.57547E-14
 -1      1604 2.02174E+01 2.51720E-03-9.38081E-04 3.77027E-02-2.19572E-14-1.78989E-13
 -1      1605 2.02776E+01 4.60642E-03-9.73508E-05 4.05412E-02 1.46454E-14-1.47520E-13
 -1      1606 2.02841E+01 8.10913E-03-5.14042E-04 9.00192E-02 1.09302E-13-4.07593E-14
 -1      1607 2.01325E+01 1.93383E-03-6.43496E-04 2.66734E-02-4.98028E-16-3.20138E-13
 -1      1608 2.01755E+01 3.67716E-03 2.31367E-05 2.89462E-02-2.02746E-14-2.72128E-13
 -1      1609 2.01863E+01 6.27736E-03-4.48709E-04 6.52486E-02 6.07255E-14-1.01398E-13
 -1      1610 2.00727E+01 1.45332E-03-4.23519E-04 1.82380E-02-5.80022E-14-4.54565E-13
 -1      1611 2.01026E+01 2.86867E-03 9.34402E-05 2.00168E-02-2.63700E-15-4.60746E-13
 -1      1612 2.01152E+01 4.74465E-03-3.80924E-04 4.59367E-02 3.73707E-14-1.91606E-13
 -1      1613 2.00322E+01 1.06860E-03-2.63600E-04 1.19266E-02-1.92355E-14-3.69633E-13
 -1      1614 2.00521E+01 2.19164E-03 1.28939E-04 1.32905E-02-3.23819E-14-4.42121E-13
 -1      1615 2.00650E+01 3.50397E-03-3.16216E-04 3.12156E-02-6.00437E-14-2.77852E-13
 -1      1616 2.00060E+01 7.67906E-04-1.50565E-04 7.30745E-03 2.24685E-14-2.69578E-13
 -1      1617 2.00185E+01 1.64125E-03 1.41365E-04 8.33321E-03 8.32610E-15-3.79823E-13
 -1      1618 2.00307E+01 2.52632E-03-2.57716E-04 2.02341E-02 1.94060E-14-1.52940E-13
 -1      1619 1.99902E+01 5.37980E-04-7.32187E-05 4.00530E-03 3.24695E-14-3.01434E-13
 -1      1620 1.99974E+01 1.20479E-03 1.39277E-04 4.76237E-03-7.93111E-14-3.90219E-13
 -1      1621 2.00084E+01 1.77388E-03-2.06907E-04 1.22207E-02-3.95894E-14-2.18039E-13
 -1      1622 1.99818E+01 3.65711E-04-2.24133E-05 1.70631E-03-9.49374E-14-2.64485E-13
 -1      1623 1.99853E+01 8.66162E-04 1.28689E-04 2.25459E-03 5.32541E-14-1.96797E-13
 -1      1624 1.99948E+01 1.20737E-03-1.64166E-04 6.50997E-03-1.51194E-14-6.69179E-14
 -1      1625 1.99786E+01 2.38961E-04 9.13760E-06 1.56450E-04 1.01423E-13-1.38273E-13
 -1      1626 1.99795E+01 6.08477E-04 1.13672E-04 5.45759E-04-6.75201E-14-2.45181E-13
 -1      1627 1.99874E+01 7.89738E-04-1.29144E-04 2.54945E-03-5.40487E-14 5.49798E-14
 -1      1628 1.99789E+01 1.46826E-04 2.71814E-05-8.43252E-04-1.74132E-13-8.16261E-14
 -1      1629 1.99781E+01 4.15364E-04 9.68511E-05-5.73004E-04-3.37761E-14-1.59232E-13
 -1      1630 1.99844E+01 4.87729E-04-1.01003E-04-1.04921E-04-5.11713E-14 3.63875E-14
 -1      1631 1.99813E+01 7.94630E-05 3.64567E-05-1.44225E-03 2.00674E-13-8.62786E-15
 -1      1632 1.99795E+01 2.71329E-04 7.98804E-05-1.26062E-03 8.10948E-14 2.73317E-14
 -1      1633 1.99844E+01 2.72119E-04-7.84891E-05-1.79734E-03 1.76603E-14 4.11060E-14
 -1      1634 1.99850E+01 2.74515E-05 4.17022E-05-1.74461E-03 7.22944E-14-2.09444E-13
 -1      1635 1.99826E+01 1.61237E-04 6.40790E-05-1.63067E-03 1.22458E-13-5.13690E-14
 -1      1636 1.99861E+01 1.16877E-04-5.96195E-05-2.78130E-03 1.87460E-13 1.87736E-13
 -1      1637 1.99893E+01-1.80204E-05 4.85910E-05-1.81089E-03 1.78453E-13-2.44856E-13
 -1      1638 1.99867E+01 6.98237E-05 5.13347E-05-1.75368E-03 7.95572E-14-6.51526E-14
 -1      1639 1.99890E+01-2.62330E-06-4.11775E-05-3.22550E-03 1.10892E-13 1.39237E-13
 -1      1640 1.99934E+01-6.69607E-05 6.29190E-05-1.66006E-03 2.08793E-14-6.33033E-13
 -1      1641 1.99910E+01-1.91573E-05 4.46473E-05-1.65977E-03 1.22473E-13-4.75059E-13
 -1      1642 1.99922E+01-1.10466E-04-1.86136E-05-3.21893E-03 2.20895E-13 3.23594E-14
 -1      1643 1.99969E+01-1.31515E-04 8.09402E-05-1.26153E-03 5.68783E-14-8.13884E-13
 -1      1644 1.99949E+01-1.26486E-04 4.58646E-05-1.33752E-03 6.19537E-14-6.46269E-13
 -1      1645 1.99953E+01-2.36290E-04 1.16270E-05-2.77089E-03 1.63404E-13-1.49209E-13
 -1      1646 1.99991E+01-2.22551E-04 3.96199E-05-5.97915E-04 2.52284E-14-8.86805E-13
 -1      1647 1.99980E+01-2.51602E-04 4.58358E-05-7.51347E-04 3.48080E-14-9.64164E-13
 -1      1648 1.99979E+01-4.17078E-04 4.13168E-05-1.83190E-03 2.22616E-13-3.21403E-13
 -1      1649 1.99996E+01-2.31477E-04 3.74008E-05-1.20930E-04-4.64598E-13-5.10851E-13
 -1      1650 1.99996E+01-2.32660E-03 3.40869E-05-1.09644E-03-9.99172E-14 3.84881E-13
 -1      1651 1.99995E+01-1.17459E-03 1.16903E-05-9.18311E-04-5.35475E-13 3.58025E-13
 -1      1652 1.99997E+01-5.27353E-03 4.29829E-06-1.53704E-03 4.01705E-13 1.28099E-13
 -1      1653 1.99997E+01-3.46940E-03 2.03125E-05-1.48169E-03 1.45345E-13 5.03926E-14
 -1      1654 1.99994E+01-2.83885E-03 3.46228E-05-2.46062E-03-2.51474E-14 5.21968E-13
 -1      1655 1.99998E+01-8.56220E-03-1.14404E-05-1.62358E-03 3.17688E-13-1.37151E-13
 -1      1656 1.99998E+01-6.58658E-03 4.20940E-06-1.63503E-03 6.32980E-13 9.46034E-15
 -1      1657 1.99997E+01-5.25413E-03 8.17043E-06-3.02773E-03 2.34758E-13 1.33368E-13
 -1      1658 1.99999E+01-1.16770E-02-1.49692E-05-1.46544E-03 6.87288E-13 1.63051E-13
 -1      1659 1.99999E+01-9.85764E-03-3.98532E-06-1.51584E-03 2.10497E-13 2.45251E-13
 -1      1660 1.99999E+01-7.80767E-03-1.59816E-05-3.00379E-03 2.15890E-13-2.72482E-15
 -1      1661 1.99999E+01-1.42283E-02-1.29637E-05-1.16768E-03 5.29741E-13-7.03770E-14
 -1      1662 1.99999E+01-1.27785E-02-4.52220E-06-1.23578E-03 7.68903E-13-2.87940E-13
 -1      1663 2.00000E+01-1.01464E-02-3.13545E-05-2.59019E-03 2.10910E-13 1.03291E-13
 -1      1664 2.00000E+01-1.61038E-02-9.12676E-06-7.90587E-04 5.68698E-13-8.79742E-14
 -1      1665 1.99999E+01-1.50827E-02-3.89748E-06-8.68534E-04 5.54721E-13 9.58625E-15
 -1      1666 2.00000E+01-1.20468E-02-3.74703E-05-1.95573E-03 3.52986E-13-1.19452E-13
 -1      1667 2.00000E+01-1.71509E-02-5.60995E-06-3.81199E-04 3.05452E-13-2.86438E-13
 -1      1668 2.00000E+01-1.66313E-02-2.92769E-06-4.61705E-04 5.85039E-13-2.07166E-13
 -1      1669 2.00001E+01-1.33834E-02-4.00369E-05-1.20440E-03 1.90065E-13-2.13741E-13
 -1      1670 2.00000E+01-1.73311E-02-3.48047E-06 3.92420E-05 3.92574E-13 5.47736E-14
 -1      1671 2.00000E+01-1.73298E-02-3.48672E-06-4.18853E-05 2.28004E-13-6.61523E-14
 -1      1672 2.00001E+01-1.40666E-02-4.07121E-05-4.07186E-04 3.21667E-13-2.16240E-13
 -1      1673 2.00000E+01-1.66364E-02-2.93738E-06 4.60207E-04-2.93939E-13-6.17591E-13
 -1      1674 2.00000E+01-1.71547E-02-5.71917E-06 3.79337E-04 2.28036E-13 1.81356E-14
 -1      1675 2.00001E+01-1.40693E-02-4.08365E-05 4.02823E-04 7.14200E-14-2.41498E-13
 -1      1676 1.99999E+01-1.50876E-02-3.76595E-06 8.69624E-04-6.75580E-13-1.33763E-13
 -1      1677 2.00000E+01-1.61101E-02-9.55923E-06 7.91219E-04-1.95817E-13-6.09641E-13
 -1      1678 2.00001E+01-1.33900E-02-4.03038E-05 1.20364E-03-1.68940E-13-6.62339E-13
 -1      1679 1.99999E+01-1.27975E-02-5.17828E-06 1.23605E-03-4.90176E-13 1.82867E-13
 -1      1680 1.99999E+01-1.42506E-02-1.34481E-05 1.16780E-03-6.65757E-13 9.23976E-14
 -1      1681 2.00000E+01-1.20675E-02-3.80033E-05 1.95525E-03-1.55154E-13-1.19065E-13
 -1      1682 1.99999E+01-9.84292E-03-4.01987E-06 1.52282E-03 1.38529E-13 4.15539E-13
 -1      1683 1.99999E+01-1.16724E-02-1.56130E-05 1.47193E-03-4.27531E-13 5.46080E-13
 -1      1684 2.00000E+01-1.01643E-02-3.11185E-05 2.59661E-03-2.26169E-13 6.05541E-13
 -1      1685 1.99998E+01-6.56483E-03 2.26960E-06 1.64801E-03 1.63701E-13-9.48203E-14
 -1      1686 1.99998E+01-8.54401E-03-1.16627E-05 1.63180E-03 2.55818E-13 1.23538E-13
 -1      1687 1.99999E+01-7.80031E-03-1.62680E-05 3.01718E-03 1.23213E-14 4.46822E-13
 -1      1688 1.99997E+01-3.49450E-03 2.35431E-06 1.47640E-03-1.43789E-13 5.20328E-14
 -1      1689 1.99997E+01-5.25430E-03 1.63710E-06 1.53072E-03 9.78660E-14-9.67656E-14
 -1      1690 1.99997E+01-5.22653E-03 6.78510E-06 3.03691E-03 1.82625E-13-3.21402E-13
 -1      1691 1.99994E+01-1.41908E-03-1.65586E-05 1.27672E-03-3.79499E-13-1.30691E-13
 -1      1692 1.99995E+01-2.55728E-03 4.19930E-07 1.54197E-03-1.40167E-13-2.94012E-13
 -1      1693 1.99994E+01-2.94509E-03 6.12729E-05 2.82839E-03-3.52500E-14-2.08243E-13
 -1      1694 1.99985E+01-1.32470E-03 2.18055E-05 2.41330E-03 1.08100E-13-2.33046E-13
 -1      1695-5.87753E-01-1.42704E+01-1.62619E+00-9.15408E-01-3.08364E-13 8.93730E-14
 -1      1696-5.84250E-01-1.66201E+01-1.85113E+00 3.49476E-01-4.43701E-13 4.14946E-14
 -1      1697 1.77901E+00-7.43132E+00-1.11465E+00 8.81398E-01-6.23945E-14 1.31117E-13
 -1      1698 8.47563E-01-1.26950E+01-1.63992E+00 9.72710E-02-2.87548E-13 7.69523E-14
 -1      1699 7.03693E+00-8.50267E-02-5.40149E-01 4.66100E+00 3.04201E-13 3.65152E-13
 -1      1700 4.00974E+00-5.34204E+00-1.26491E+00 1.83620E+00 7.06102E-14 1.87073E-13
 -1      1701 1.90125E+01 4.83984E+00 3.01941E-01 9.96444E+00 4.84390E-13 8.51208E-13
 -1      1702 1.18439E+01 1.49601E+00-5.83292E-01 6.10287E+00 3.19966E-13 4.73399E-13
 -1      1703 3.40462E+01 6.36193E+00 1.09480E+00 1.26447E+01 4.90108E-13 1.01008E-12
 -1      1704 2.42182E+01 6.50019E+00 2.44785E-01 1.10006E+01 5.99409E-13 8.55982E-13
 -1      1705 4.70521E+01 4.52695E+00 1.46269E+00 8.94730E+00 3.70860E-13 5.88418E-13
 -1      1706 3.90043E+01 6.24331E+00 9.59958E-01 1.12621E+01 4.54553E-13 8.95173E-13
 -1      1707 5.30711E+01 3.81300E+00 1.62319E+00 1.29025E+00 1.00142E-13 4.15668E-13
 -1      1708 4.94771E+01 4.77558E+00 1.39279E+00 6.58529E+00 2.30427E-13 5.34461E-13
 -1      1709 5.16788E+01 4.37832E+00 1.62803E+00-6.47271E+00 1.06637E-13 1.30340E-13
 -1      1710 5.44262E+01 3.52197E+00 1.76124E+00-1.07730E+00 1.17517E-13 3.07337E-13
 -1      1711 4.16081E+01 6.10530E+00 1.14095E+00-1.12493E+01 1.66173E-13-1.17795E-13
 -1      1712 4.90951E+01 4.46855E+00 1.67625E+00-8.56615E+00 1.02029E-13 2.62013E-14
 -1      1713 2.81578E+01 6.55067E+00 4.55021E-01-1.14663E+01 2.66120E-13-2.63345E-13
 -1      1714 3.71296E+01 6.02359E+00 1.21501E+00-1.22365E+01 2.13995E-13-1.47660E-13
 -1      1715 1.55235E+01 3.70586E+00-3.14022E-01-7.97170E+00 4.38538E-13-3.09752E-13
 -1      1716 2.30684E+01 5.78250E+00 5.34179E-01-1.11738E+01 2.87326E-13-3.34399E-13
 -1      1717 6.30852E+00-2.35788E+00-1.04871E+00-3.32539E+00 6.97220E-13-3.76255E-13
 -1      1718 1.07193E+01 2.36034E+00-2.38515E-01-6.78564E+00 5.54223E-13-3.19744E-13
 -1      1719 1.60637E+00-1.02144E+01-1.60701E+00-1.78156E-01 7.84595E-13-2.85078E-13
 -1      1720 3.17997E+00-4.56739E+00-9.72570E-01-1.89886E+00 7.13651E-13-3.24962E-13
 -1      1721-1.77216E-01-1.57792E+01-1.86404E+00 2.09245E-01 4.87721E-13-2.58710E-13
 -1      1722-3.92599E-02-1.20516E+01-1.52794E+00 7.36749E-01 7.29194E-13-2.98352E-13
 -1      1723-7.36884E-01-1.65540E+01-1.80909E+00-7.50063E-01-1.17684E-14-1.88849E-13
 -1      1724-7.28297E-01-1.62677E+01-1.78932E+00 7.51329E-01 3.51774E-13-2.60486E-13
 -1      1725-1.87989E-01-1.24536E+01-1.51703E+00-7.95923E-01-3.20854E-13-1.72640E-13
 -1      1726-2.88486E-01-1.59955E+01-1.83563E+00-7.97007E-02-1.22902E-13-1.48048E-13
 -1      1727 3.36182E+00-4.95661E+00-9.16179E-01 2.08143E+00-3.75144E-13-2.13995E-13
 -1      1728 1.75999E+00-1.06696E+01-1.55384E+00 4.27215E-01-3.47611E-13-1.36863E-13
 -1      1729 1.19973E+01 1.80006E+00-1.63550E-01 7.01485E+00-4.23217E-13-5.18252E-13
 -1      1730 7.18657E+00-3.12671E+00-9.97412E-01 3.45554E+00-3.63487E-13-2.97096E-13
 -1      1731 2.41554E+01 6.22474E+00 6.37340E-01 1.16126E+01-4.42313E-13-4.85612E-13
 -1      1732 1.60192E+01 4.17862E+00-2.72008E-01 8.28332E+00-5.26246E-13-4.70513E-13
 -1      1733 3.85515E+01 5.95880E+00 1.26770E+00 1.23503E+01-2.61735E-13-3.72369E-13
 -1      1734 2.95078E+01 6.77973E+00 5.44906E-01 1.19006E+01-3.86247E-13-4.41647E-13
 -1      1735 4.99577E+01 4.22172E+00 1.60071E+00 7.51689E+00-1.23901E-13-1.51101E-13
 -1      1736 4.27292E+01 5.93218E+00 1.15787E+00 1.07026E+01-2.39808E-13-3.00981E-13
 -1      1737 5.37970E+01 3.90480E+00 1.69094E+00-5.40497E-01-1.82632E-13 2.77244E-13
 -1      1738 5.16755E+01 4.45910E+00 1.52510E+00 5.12842E+00-1.69365E-13 5.70100E-14
 -1      1739 5.03061E+01 4.73557E+00 1.56147E+00-8.12129E+00-2.20823E-13 5.44897E-13
 -1      1740 5.47291E+01 3.52864E+00 1.86196E+00-3.10925E+00-1.89904E-13 3.78308E-13
 -1      1741 3.78649E+01 5.93909E+00 8.25644E-01-1.05742E+01-3.10141E-13 5.56666E-13
 -1      1742 4.61860E+01 4.65099E+00 1.48310E+00-8.88472E+00-2.40703E-13 4.52860E-13
 -1      1743 2.41192E+01 5.60740E+00 1.41827E-01-1.02563E+01-2.60569E-13 6.16618E-13
 -1      1744 3.31823E+01 5.69025E+00 9.23068E-01-1.18732E+01-3.08753E-13 6.65024E-13
 -1      1745 1.15317E+01 1.94754E+00-6.46740E-01-6.21352E+00-1.90625E-13 2.95319E-13
 -1      1746 1.84744E+01 5.07816E+00 2.42640E-01-9.94805E+00-2.93099E-13 5.58886E-13
 -1      1747 3.88249E+00-5.68312E+00-1.32452E+00-1.60133E+00-2.10498E-13 1.34559E-13
 -1      1748 7.24423E+00 3.38502E-02-5.35668E-01-4.71247E+00-2.02727E-13 2.04725E-13
 -1      1749 6.96082E-01-1.31443E+01-1.69136E+00 7.42069E-02-4.34097E-13 5.38528E-14
 -1      1750 1.53612E+00-7.89095E+00-1.17754E+00-6.24767E-01-2.77445E-13-3.31957E-14
 -1      1751-6.42473E-01-1.69593E+01-1.90287E+00-2.23637E-01-5.44481E-13-3.63043E-14
 -1      1752-7.06493E-01-1.49012E+01-1.72602E+00 1.17392E+00-5.34017E-13 9.65339E-14
 -1      1753 2.55499E+01 1.06020E+00 2.49780E-01 7.29190E+00 2.38920E-13 6.31162E-13
 -1      1754 1.49762E+01-2.83280E+00-2.58148E-01 6.54108E+00 2.00284E-13 4.92995E-13
 -1      1755 1.99994E+01-5.22816E-04 5.99431E-05-6.10055E-04-5.65232E-13-1.30280E-13
 -1      1756 1.99990E+01-1.13710E-03 3.25515E-05-1.58373E-03-1.26563E-13 2.84361E-13
 -1      1757 8.27018E-01-9.83299E+00-1.10954E+00 2.62070E+00-2.44527E-13 1.62481E-13
 -1      1758 6.24011E+00-6.89645E+00-8.25125E-01 4.64511E+00 3.70814E-14 3.51705E-13
 -1      1759-1.34058E+00-1.15796E+01-1.33824E+00 1.65449E-01-3.14665E-13 8.33222E-14
 -1      1760 3.62259E+01 4.71661E+00 9.80882E-01 6.46529E+00 3.16733E-13 3.65263E-13
 -1      1761 4.26394E+01 6.84035E+00 1.23623E+00 3.14941E+00 2.85771E-13 4.49751E-13
 -1      1762 4.55675E+01 7.56405E+00 1.34537E+00-1.81312E-01 2.08777E-13 3.41102E-13
 -1      1763 4.45427E+01 6.86131E+00 1.40673E+00-3.49302E+00 1.88904E-13 1.76192E-13
 -1      1764 3.80058E+01 5.10013E+00 1.04309E+00-6.04771E+00 2.02314E-13-5.55112E-15
 -1      1765 2.87394E+01 2.25161E+00 5.19444E-01-7.28042E+00 2.03337E-13-4.80727E-14
 -1      1766 1.84246E+01-1.21203E+00-5.50982E-02-7.01555E+00 4.06342E-13-1.17906E-13
 -1      1767 9.06682E+00-5.34351E+00-6.61133E-01-5.32262E+00 4.77507E-13-1.65562E-13
 -1      1768 2.51559E+00-9.20151E+00-1.11533E+00-3.23564E+00 4.15890E-13-2.38753E-13
 -1      1769-8.33177E-01-1.12891E+01-1.30749E+00-1.19585E+00 2.49190E-13-4.21829E-13
 -1      1770-9.98709E-01-1.11975E+01-1.27718E+00 9.02414E-01 1.79023E-14-3.26461E-13
 -1      1771 2.50881E+00-9.14189E+00-1.02465E+00 3.38440E+00-1.17462E-13-1.75027E-13
 -1      1772 9.99368E+00-5.83667E+00-5.71720E-01 5.71802E+00-1.45661E-13-2.17354E-13
 -1      1773 1.91282E+01-1.67376E+00-1.34108E-01 6.89859E+00-1.74083E-13-2.57128E-13
 -1      1774 2.95399E+01 2.73222E+00 5.67839E-01 7.56573E+00-2.94820E-13-1.71640E-13
 -1      1775 3.89883E+01 5.33572E+00 1.10830E+00 5.88680E+00-2.36589E-13-1.05027E-13
 -1      1776 4.40448E+01 7.13813E+00 1.27015E+00 2.55552E+00-2.42806E-13 5.57887E-14
 -1      1777 4.61958E+01 7.59218E+00 1.43648E+00-9.08989E-01-2.58960E-13 3.12972E-13
 -1      1778 4.29585E+01 6.34411E+00 1.24769E+00-3.40168E+00-2.27096E-13 3.52385E-13
 -1      1779 3.55574E+01 3.89644E+00 8.50424E-01-5.39581E+00-2.01672E-13 2.61902E-13
 -1      1780 2.56943E+01 1.09705E+00 3.78113E-01-7.17524E+00-8.89844E-14 5.54556E-13
 -1      1781 1.46153E+01-2.71447E+00-3.26483E-01-6.35096E+00-1.13465E-13 2.92377E-13
 -1      1782 6.07009E+00-7.09017E+00-8.60060E-01-4.44850E+00-1.56319E-13 2.16632E-14
 -1      1783 5.73103E-01-1.02075E+01-1.16900E+00-2.30990E+00-2.91600E-13-1.82632E-14
 -1      1784 2.30940E+01 1.95628E+00-2.64900E-02-2.51733E+00-2.92023E-14 4.05231E-13
 -1      1785 2.00415E+01 3.76826E+00-3.69877E-02-1.74818E+00-9.03930E-14 2.48933E-14
 -1      1786 2.03516E+01 3.59976E+00-3.64572E-02-2.04693E+00-9.53890E-14 6.57426E-14
 -1      1787 2.07109E+01 3.18263E+00-4.61309E-02-2.21470E+00-8.38309E-14 1.09517E-13
 -1      1788 2.09705E+01 2.79422E+00-1.35305E-01-2.50473E+00-7.41299E-14 1.58790E-13
 -1      1789 2.07632E+01 2.72548E+00-2.26273E-03-1.81859E+00-8.78945E-14 8.65141E-14
 -1      1790 1.92155E+01 4.34753E+00-2.10894E-02-9.27535E-01-7.71319E-14-4.88221E-14
 -1      1791 1.93789E+01 4.29814E+00-1.43411E-02-1.12371E+00-8.17376E-14-2.93845E-14
 -1      1792 1.89607E+01 4.49301E+00-1.66747E-02-6.01361E-01-6.62085E-14-6.79370E-14
 -1      1793 1.90790E+01 4.46323E+00-1.10383E-02-7.68785E-01-7.16224E-14-6.43079E-14
 -1      1794 1.93138E+01 4.02108E+00-6.97184E-03-7.79321E-01-7.59753E-14-4.99531E-14
 -1      1795 1.87993E+01 4.58026E+00-1.36042E-02-3.18824E-01-4.70538E-14-7.62741E-14
 -1      1796 1.88696E+01 4.56433E+00-1.02261E-02-4.65380E-01-5.86723E-14-7.05547E-14
 -1      1797 1.90579E+01 4.19197E+00-6.39598E-03-4.91059E-01-6.04944E-14-6.64096E-14
 -1      1798 1.87334E+01 4.61715E+00-1.15070E-02-6.01165E-02-3.20737E-14-7.47822E-14
 -1      1799 1.87548E+01 4.61280E+00-1.06221E-02-1.96820E-01-4.20924E-14-7.52801E-14
 -1      1800 1.89061E+01 4.28643E+00-6.03063E-03-2.38121E-01-4.72533E-14-6.56992E-14
 -1      1801 1.87640E+01 4.60698E+00-1.02803E-02 1.95852E-01-6.50868E-15-8.99836E-14
 -1      1802 1.87364E+01 4.61350E+00-1.18932E-02 5.80897E-02-1.99875E-14-8.02206E-14
 -1      1803 1.88603E+01 4.31249E+00-5.97520E-03-2.11314E-03-2.55135E-14-7.15773E-14
 -1      1804 1.88889E+01 4.54953E+00-1.00554E-02 4.69988E-01-2.01250E-15-1.14657E-13
 -1      1805 1.88138E+01 4.56768E+00-1.39406E-02 3.20472E-01-1.48341E-15-1.04755E-13
 -1      1806 1.89203E+01 4.27312E+00-6.26481E-03 2.36627E-01-6.89661E-15-8.83850E-14
 -1      1807 1.90997E+01 4.44329E+00-1.10611E-02 7.76506E-01 1.08212E-14-1.08316E-13
 -1      1808 1.89815E+01 4.47424E+00-1.69327E-02 6.07982E-01 4.05145E-15-1.15997E-13
 -1      1809 1.90817E+01 4.16845E+00-6.71207E-03 4.94574E-01 4.58954E-15-1.10397E-13
 -1      1810 1.94032E+01 4.27224E+00-1.41964E-02 1.14400E+00 3.74861E-14-9.90874E-14
 -1      1811 1.92371E+01 4.32384E+00-2.13518E-02 9.39884E-01 2.23593E-14-9.56873E-14
 -1      1812 1.93405E+01 3.99093E+00-7.40704E-03 7.89553E-01 2.29435E-14-9.67594E-14
 -1      1813 1.98098E+01 4.00450E+00-2.21796E-02 1.58224E+00 6.46323E-14-9.60204E-14
 -1      1814 1.95882E+01 4.09304E+00-2.83611E-02 1.33367E+00 5.04831E-14-9.91082E-14
 -1      1815 1.97029E+01 3.71894E+00-7.52442E-03 1.13320E+00 4.80245E-14-8.94909E-14
 -1      1816 2.03681E+01 3.55171E+00-4.18075E-02 2.08635E+00 8.71820E-14-7.40207E-14
 -1      1817 2.00587E+01 3.72747E+00-4.07898E-02 1.78840E+00 7.77807E-14-8.78395E-14
 -1      1818 2.01866E+01 3.30730E+00-4.68092E-03 1.51479E+00 7.99413E-14-8.19657E-14
 -1      1819 2.12855E+01 2.66623E+00-5.40385E-02 2.52470E+00 8.82721E-14-4.16334E-17
 -1      1820 2.07557E+01 3.09619E+00-5.00698E-02 2.25585E+00 8.31757E-14-4.48461E-14
 -1      1821 2.08466E+01 2.63346E+00 3.34123E-03 1.85170E+00 8.91448E-14-5.05984E-14
 -1      1822 2.20839E+01 1.19323E+00-1.18985E-01 2.07271E+00 7.99499E-14 9.16489E-14
 -1      1823 2.16437E+01 2.23736E+00-4.18149E-04 2.44039E+00 8.64621E-14 3.03507E-14
 -1      1824 2.13534E+01 1.67911E+00-1.92428E-02 1.80312E+00 8.85993E-14 3.60822E-15
 -1      1825 2.14006E+01 7.69552E-01-5.75758E-02 1.26925E+00 8.20177E-14 7.28827E-14
 -1      1826 2.21440E+01 2.42063E+00 8.74156E-02-2.76150E+00-4.90961E-14 2.52631E-13
 -1      1827 2.07414E+01 3.08944E-01-5.43434E-03 3.93893E-01 5.35752E-14 4.66693E-14
 -1      1828 2.11780E+01 4.44115E-01-1.04178E-02 7.77197E-01 6.60305E-14 4.81251E-14
 -1      1829 2.12456E+01 8.42535E-01 2.79110E-04 1.10416E+00 7.51517E-14 2.28637E-15
 -1      1830 2.18934E+01 1.72920E+00 7.79235E-02-2.01839E+00-5.64444E-14 2.10061E-13
 -1      1831 2.11096E+01 5.21793E-01 3.33686E-02-5.92134E-01-5.82243E-14 2.05264E-13
 -1      1832 2.08045E+01 3.87597E-01 1.24353E-02-2.84451E-01-5.42500E-14 1.72888E-13
 -1      1833 2.06967E+01 3.03040E-01 2.78849E-02-1.16730E-02-5.97734E-14 1.73041E-13
 -1      1834 2.06528E+01 2.34852E-01 1.50178E-02 1.55973E-01-3.75784E-14 1.40462E-13
 -1      1835 2.08613E+01 5.43541E-01-8.28315E-03-2.63245E-01-7.33805E-14 1.08306E-13
 -1      1836 2.06391E+01 1.96419E-01 1.72826E-02 3.35394E-01-2.62555E-14 1.17569E-13
 -1      1837 2.07359E+01 1.64197E-01 1.17018E-02 4.45483E-01-3.78820E-14 1.08553E-13
 -1      1838 2.07358E+01 3.33177E-01-7.99488E-03 2.53272E-01-6.31717E-14 7.43433E-14
 -1      1839 2.08018E+01 1.42597E-01 9.54770E-03 5.73007E-01-9.32457E-15 1.17680E-13
 -1      1840 2.09930E+01 1.23017E-01 8.49047E-03 6.52848E-01 1.24666E-14 1.26014E-13
 -1      1841 2.07954E+01 2.32626E-01-7.04716E-03 6.01848E-01-1.55210E-14 4.79321E-14
 -1      1842 2.11220E+01 1.05802E-01 5.12528E-03 7.46790E-01 1.50810E-14 1.33281E-13
 -1      1843 2.13770E+01 8.67638E-02 5.45296E-03 8.03878E-01 9.99157E-15 1.11678E-13
 -1      1844 2.09972E+01 1.70662E-01-6.08716E-03 8.53554E-01 1.27220E-14 6.58701E-14
 -1      1845 2.15555E+01 6.56046E-02 2.57549E-03 8.66874E-01-7.62162E-15 1.36933E-13
 -1      1846 2.18485E+01 3.77430E-02 1.55121E-03 8.96905E-01-1.54928E-14 1.58664E-13
 -1      1847 2.13098E+01 1.10715E-01-5.16929E-03 1.03270E+00 2.84896E-15 8.51177E-14
 -1      1848 2.20660E+01 5.20121E-03 9.98590E-04 9.19249E-01-2.84991E-14 1.89647E-13
 -1      1849 2.23668E+01-4.02353E-02-3.99858E-03 9.08274E-01-2.53143E-14 2.01764E-13
 -1      1850 2.17081E+01 2.60118E-02-4.44377E-03 1.13266E+00-4.71610E-15 1.53822E-13
 -1      1851 2.26131E+01-9.07900E-02 3.60745E-05 8.69170E-01-6.94718E-14 2.16009E-13
 -1      1852 2.28817E+01-1.60098E-01-1.13165E-02 7.95406E-01-5.22369E-14 2.11336E-13
 -1      1853 2.21698E+01-1.06983E-01-3.81871E-03 1.12126E+00-3.33171E-14 1.47193E-13
 -1      1854 2.31429E+01-2.30973E-01-4.79588E-04 6.66141E-01-3.81743E-14 1.66181E-13
 -1      1855 2.33268E+01-3.21281E-01-1.92429E-02 5.06207E-01-2.52333E-14 1.44531E-13
 -1      1856 2.26694E+01-3.03034E-01-2.80059E-03 9.45393E-01-7.57367E-14 1.10204E-13
 -1      1857 2.35779E+01-4.02145E-01-1.03120E-03 2.60685E-01-2.07846E-14 1.44685E-13
 -1      1858 2.36190E+01-4.88681E-01-2.43375E-02 5.40518E-03 2.67321E-15 9.69834E-14
 -1      1859 2.31686E+01-5.49058E-01-2.94048E-04 5.44890E-01-2.41977E-14 1.10596E-13
 -1      1860 2.38113E+01-5.44359E-01-2.81066E-03-3.53359E-01-2.87097E-15 4.96958E-14
 -1      1861 2.36646E+01-5.71665E-01-2.16644E-02-6.70551E-01 1.28161E-14 7.73357E-14
 -1      1862 2.35998E+01-7.69978E-01 5.45495E-03-1.10843E-01-2.35966E-14 5.41758E-14
 -1      1863 2.37252E+01-5.42143E-01-8.19551E-03-1.07008E+00 6.73185E-14 5.93059E-14
 -1      1864 2.33940E+01-4.38364E-01-7.97382E-03-1.34765E+00 6.10831E-14 9.40376E-14
 -1      1865 2.38516E+01-8.10768E-01 1.35514E-02-9.49349E-01 3.77649E-14-7.96195E-15
 -1      1866 2.32583E+01-2.67689E-01-1.59830E-02-1.61883E+00 5.23106E-14 8.85715E-14
 -1      1867 2.28243E+01-7.80137E-03 1.21833E-02-1.69707E+00 3.69869E-14 1.60195E-13
 -1      1868 2.37927E+01-4.91561E-01 1.60166E-02-1.71735E+00 4.59671E-14 3.28205E-14
 -1      1869 2.25266E+01 2.78467E-01-1.83052E-02-1.62634E+00-3.18235E-14 1.56233E-13
 -1      1870 2.21485E+01 5.89594E-01 2.43711E-02-1.38092E+00-4.12483E-14 1.81530E-13
 -1      1871 2.33834E+01 2.25263E-01 3.71781E-03-1.98286E+00-2.12556E-14 8.53180E-14
 -1      1872 2.18851E+01 8.31922E-01-5.80313E-03-8.87846E-01-1.95503E-14 1.45686E-13
 -1      1873 2.17321E+01 9.84198E-01 1.65649E-02-3.72882E-01-1.00545E-14 1.46392E-13
 -1      1874 2.28366E+01 1.04026E+00-2.14345E-02-1.37697E+00-2.96482E-14 1.05217E-13
 -1      1875 2.17272E+01 9.96909E-01 1.46413E-02 3.30444E-01-7.91311E-14 8.84687E-14
 -1      1876 2.18800E+01 8.69342E-01-3.64993E-03 8.59599E-01-1.16789E-13 1.21257E-15
 -1      1877 2.25709E+01 1.43077E+00-3.56378E-02-2.40998E-02-1.08991E-13 4.59971E-14
 -1      1878 2.21464E+01 6.42554E-01 2.47588E-02 1.38636E+00-7.65065E-14-9.12204E-15
 -1      1879 2.25376E+01 3.38298E-01-1.67493E-02 1.66369E+00-8.63996E-14 3.33258E-14
 -1      1880 2.28307E+01 1.10335E+00-2.33364E-02 1.36879E+00-1.01436E-13-8.63943E-14
 -1      1881 2.28605E+01 4.87300E-02 1.40802E-02 1.77625E+00-7.32027E-14 4.37012E-14
 -1      1882 2.33258E+01-2.21529E-01-1.58684E-02 1.72725E+00 1.71835E-14 3.00662E-14
 -1      1883 2.34081E+01 3.09487E-01 2.79509E-03 2.06173E+00-4.70622E-14-7.59087E-14
 -1      1884 2.34998E+01-4.05304E-01-6.89257E-03 1.48284E+00 9.87543E-14 3.75412E-14
 -1      1885 2.38763E+01-5.22837E-01-9.09460E-03 1.22048E+00 1.18760E-13 4.16403E-14
 -1      1886 2.38815E+01-4.31826E-01 1.54169E-02 1.87329E+00 1.89983E-14-1.62522E-14
 -1      1887 2.38532E+01-5.62678E-01-2.19540E-02 8.29352E-01 9.52207E-14 4.61046E-14
 -1      1888 2.40517E+01-5.43282E-01-3.57231E-03 5.15418E-01 9.11684E-15 6.35474E-14
 -1      1889 2.40147E+01-7.88027E-01 1.24049E-02 1.14205E+00 1.27673E-13-2.36384E-14
 -1      1890 2.38907E+01-4.91585E-01-2.52257E-02 1.55091E-01-3.61699E-14 1.72226E-13
 -1      1891 2.39029E+01-4.07119E-01-9.58825E-04-1.02115E-01 2.55039E-14 2.08705E-13
 -1      1892 2.38303E+01-7.69125E-01 5.13917E-03 3.08868E-01 6.88000E-14 5.61862E-14
 -1      1893 2.36781E+01-3.26993E-01-2.03037E-02-3.52221E-01 7.67988E-14 2.46666E-13
 -1      1894 2.35457E+01-2.36151E-01-1.83624E-04-5.15287E-01 1.27821E-13 2.55680E-13
 -1      1895 2.34567E+01-5.55933E-01-4.04766E-06-3.54353E-01 8.67960E-14 1.79435E-13
 -1      1896 2.33061E+01-1.64896E-01-1.25577E-02-6.49369E-01 1.65005E-13 2.32221E-13
 -1      1897 2.30855E+01-9.49560E-02 8.95159E-05-7.25974E-01 1.38062E-13 2.87096E-13
 -1      1898 2.30064E+01-3.10305E-01-2.32580E-03-7.65940E-01 1.42319E-13 1.97420E-13
 -1      1899 2.28559E+01-4.50835E-02-5.41957E-03-7.70599E-01 7.27645E-14 3.58893E-13
 -1      1900 2.25974E+01-1.06732E-03 4.05314E-04-7.85369E-01 9.74975E-14 3.18399E-13
 -1      1901 2.25472E+01-1.13920E-01-2.98889E-03-9.53934E-01 1.58976E-13 2.98487E-13
 -1      1902 2.23884E+01 2.83194E-02-2.46273E-04-7.72665E-01 1.80988E-14 2.34795E-13
 -1      1903 2.21279E+01 5.12086E-02 7.78506E-04-7.50507E-01-1.07567E-13 1.84797E-13
 -1      1904 2.21132E+01 1.38459E-02-3.01946E-03-9.83468E-01-3.14896E-15 1.18193E-13
 -1      1905 2.19436E+01 6.55217E-02 2.88199E-03-7.06800E-01-1.89859E-13 1.52065E-13
 -1      1906 2.17030E+01 7.42039E-02 1.10973E-03-6.66604E-01-1.39510E-13 1.75415E-13
 -1      1907 2.17206E+01 8.32768E-02-2.87962E-03-9.17868E-01-1.30835E-13 2.15674E-14
 -1      1908 2.15443E+01 7.89435E-02 4.40599E-03-6.09976E-01 3.19272E-14 1.78988E-13
 -1      1909 2.13344E+01 7.92667E-02 1.32305E-03-5.63965E-01 1.05898E-13 1.37924E-13
 -1      1910 2.13761E+01 1.12344E-01-2.70297E-03-8.05006E-01-5.28456E-14 9.26827E-14
 -1      1911 2.12006E+01 7.85952E-02 4.85491E-03-5.05431E-01 9.53881E-16 5.19268E-14
 -1      1912 2.10248E+01 7.46205E-02 1.40441E-03-4.60588E-01-9.74399E-14-1.09618E-14
 -1      1913 2.10814E+01 1.17028E-01-2.50520E-03-6.76300E-01-9.57697E-15 2.39437E-14
 -1      1914 2.09143E+01 7.12720E-02 4.67106E-03-4.06116E-01-1.22602E-13-1.96031E-14
 -1      1915 2.07716E+01 6.55138E-02 1.37645E-03-3.65904E-01-8.60750E-14-1.62635E-14
 -1      1916 2.08350E+01 1.08733E-01-2.28040E-03-5.50170E-01-6.65480E-14-1.75037E-13
 -1      1917 2.06821E+01 6.11270E-02 4.16680E-03-3.18231E-01-1.77866E-14-1.23558E-14
 -1      1918 2.05691E+01 5.50095E-02 1.27406E-03-2.83974E-01 1.36315E-14 1.53373E-13
 -1      1919 2.06332E+01 9.46711E-02-2.03085E-03-4.36114E-01-2.46049E-14-7.22003E-14
 -1      1920 2.04979E+01 5.04927E-02 3.54007E-03-2.43919E-01 2.89493E-14 1.08527E-13
 -1      1921 2.04104E+01 4.47491E-02 1.13008E-03-2.15749E-01-1.87685E-14 2.56868E-13
 -1      1922 2.04711E+01 7.90110E-02-1.76733E-03-3.38048E-01 3.40754E-14-5.41287E-14
 -1      1923 2.03548E+01 4.05614E-02 2.90503E-03-1.83086E-01-1.33658E-13 3.18032E-13
 -1      1924 2.02885E+01 3.55170E-02 9.69818E-04-1.60530E-01-1.82988E-14 2.32112E-13
 -1      1925 2.03432E+01 6.39594E-02-1.50369E-03-2.56646E-01-1.95007E-14 6.90493E-14
 -1      1926 2.02459E+01 3.18568E-02 2.32081E-03-1.34520E-01 2.75084E-15 1.59358E-13
 -1      1927 2.01967E+01 2.76097E-02 8.10458E-04-1.16852E-01-7.61535E-14 1.90992E-13
 -1      1928 2.02443E+01 5.05460E-02-1.25244E-03-1.90865E-01-6.47375E-14 1.26936E-13
 -1      1929 2.01646E+01 2.45310E-02 1.81298E-03-9.65571E-02-1.15171E-13 2.46146E-13
 -1      1930 2.01289E+01 2.10611E-02 6.62422E-04-8.29841E-02-7.73756E-14 2.97181E-13
 -1      1931 2.01691E+01 3.91344E-02-1.02265E-03-1.38869E-01-2.50901E-14 2.28746E-13
 -1      1932 2.01052E+01 1.85430E-02 1.38799E-03-6.74406E-02-1.61400E-13 1.76974E-13
 -1      1933 2.00800E+01 1.57742E-02 5.31141E-04-5.72037E-02-1.81095E-13 2.78058E-14
 -1      1934 2.01131E+01 2.97334E-02-8.19596E-04-9.85606E-02-1.27688E-13 3.16336E-13
 -1      1935 2.00629E+01 1.37602E-02 1.04215E-03-4.55126E-02-4.99117E-14 4.09442E-15
 -1      1936 2.00456E+01 1.15950E-02 4.18645E-04-3.79335E-02 2.78270E-14 3.61179E-14
 -1      1937 2.00722E+01 2.21779E-02-6.45260E-04-6.78787E-02-1.56763E-13 1.49731E-13
 -1      1938 2.00336E+01 1.00150E-02 7.66949E-04-2.93010E-02 1.39238E-13-6.28887E-14
 -1      1939 2.00222E+01 8.35283E-03 3.24780E-04-2.37982E-02 1.89299E-13 1.02654E-13
 -1      1940 2.00432E+01 1.62300E-02-4.99217E-04-4.49430E-02 4.29475E-14 2.29027E-14
 -1      1941 2.00141E+01 7.13500E-03 5.52146E-04-1.75492E-02 1.39117E-13 1.13492E-13
 -1      1942 2.00071E+01 5.88142E-03 2.48075E-04-1.36399E-02 2.62337E-14 1.46451E-13
 -1      1943 2.00232E+01 1.16337E-02-3.79445E-04-2.81177E-02 1.55608E-13 2.28643E-14
 -1      1944 2.00019E+01 4.95795E-03 3.87379E-04-9.21664E-03-1.01132E-13 2.40722E-13
 -1      1945 1.99979E+01 4.02834E-03 1.86305E-04-6.50993E-03-3.25082E-14 2.90133E-13
 -1      1946 2.00099E+01 8.14322E-03-2.83019E-04-1.60269E-02 3.63259E-14 1.20842E-13
 -1      1947 1.99948E+01 3.33797E-03 2.63020E-04-3.46355E-03-4.77322E-14 2.17631E-13
 -1      1948 1.99930E+01 2.65841E-03 1.36839E-04-1.65115E-03 2.93308E-14 2.73034E-13
 -1      1949 2.00016E+01 5.53468E-03-2.06626E-04-7.54474E-03-8.74015E-15 3.66460E-13
 -1      1950 1.99914E+01 2.14689E-03 1.70546E-04 3.69819E-04 1.70995E-13 1.35227E-13
 -1      1951 1.99911E+01 1.65324E-03 9.68488E-05 1.52349E-03 8.56655E-14 2.34604E-13
 -1      1952 1.99969E+01 3.61042E-03-1.46917E-04-1.77448E-03-8.45450E-14 1.30152E-13
 -1      1953 1.99905E+01 1.27250E-03 1.02771E-04 2.78459E-03 5.22892E-14 2.76115E-13
 -1      1954 1.99911E+01 9.08312E-04 6.34690E-05 3.45111E-03 2.09703E-13 5.22488E-13
 -1      1955 1.99947E+01 2.19707E-03-1.00752E-04 1.97667E-03 1.01943E-13 5.02764E-14
 -1      1956 1.99911E+01 6.14733E-04 5.38427E-05 4.14195E-03 9.31805E-14 4.64698E-13
 -1      1957 1.99923E+01 3.29081E-04 3.41085E-05 4.43541E-03 3.45149E-14 3.61411E-13
 -1      1958 1.99942E+01 1.14099E-03-6.52789E-05 4.22145E-03 6.15769E-14 3.02896E-13
 -1      1959 1.99927E+01 8.23792E-05 1.96005E-05 4.67865E-03-2.13154E-13 2.57690E-13
 -1      1960 1.99941E+01-1.70286E-04 9.10165E-06 4.65975E-03-1.12353E-13 1.15147E-13
 -1      1961 1.99947E+01 3.03936E-04-3.77960E-05 5.31386E-03-2.00223E-13 3.37694E-13
 -1      1962 1.99948E+01-4.19417E-04-3.92386E-06 4.52905E-03 7.37604E-14-5.51852E-14
 -1      1963 1.99961E+01-6.78772E-04-1.17007E-05 4.20440E-03 1.66982E-13 7.44112E-14
 -1      1964 1.99959E+01-4.36249E-04-1.70492E-05 5.47164E-03-1.27125E-13 5.82843E-14
 -1      1965 1.99967E+01-8.95541E-04-1.08807E-05 3.74974E-03 2.86464E-13 1.48190E-14
 -1      1966 1.99978E+01-1.18142E-03-3.05376E-05 3.12996E-03 2.43930E-13-3.78633E-14
 -1      1967 1.99983E+01-1.78796E-03-1.82153E-06 3.61234E-03 5.31706E-14-1.97730E-13
 -1      1968 1.99971E+01-1.17432E-03-4.34597E-06 4.84518E-03 7.36170E-14 9.23486E-15
 -1      1969 2.04844E+01 1.66512E-01 1.04181E-02-3.69592E-02 4.82184E-14 2.97869E-14
 -1      1970 2.06267E+01 2.24051E-01 1.78374E-02 1.53698E-01 5.55528E-14 5.06088E-14
 -1      1971 2.07827E+01 3.72328E-01-3.44680E-03 3.11497E-01 5.88123E-14 1.55657E-14
 -1      1972 2.05073E+01 1.04377E-01 9.14378E-03-2.90626E-01 6.75128E-14-1.87723E-14
 -1      1973 2.04732E+01 1.32343E-01 1.54799E-02-1.76300E-01 4.84716E-14 1.67436E-14
 -1      1974 2.06060E+01 2.03278E-01-4.04885E-03-1.40314E-01 6.26391E-14 1.44329E-14
 -1      1975 2.07259E+01 7.01982E-02 6.22651E-03-4.54888E-01-4.36890E-15-1.19488E-14
 -1      1976 2.05840E+01 8.72132E-02 9.59358E-03-3.77863E-01 2.87643E-14-9.03617E-15
 -1      1977 2.06606E+01 1.26656E-01-5.00857E-03-4.19772E-01 3.93127E-14-9.62685E-15
 -1      1978 2.10756E+01 4.31587E-02 3.81958E-03-5.61717E-01-3.02759E-14-1.68472E-14
 -1      1979 2.08664E+01 5.73363E-02 5.32612E-03-5.09057E-01-2.44091E-14 3.39138E-16
 -1      1980 2.08766E+01 8.06027E-02-5.13918E-03-6.01836E-01-1.30174E-14-1.13312E-14
 -1      1981 2.15058E+01 1.19223E-02 1.41370E-03-6.15730E-01 1.48815E-14-2.82586E-14
 -1      1982 2.12589E+01 2.78922E-02 2.39942E-03-5.86609E-01-2.43433E-14-2.28394E-14
 -1      1983 2.12022E+01 3.90495E-02-4.61948E-03-7.12730E-01-2.32105E-14 1.34090E-14
 -1      1984 2.19667E+01-3.15310E-02-1.43220E-03-6.04338E-01 3.40587E-14-1.55054E-14
 -1      1985 2.17118E+01-1.06791E-02-3.47172E-05-6.05810E-01 3.67978E-14-2.27795E-14
 -1      1986 2.15947E+01-1.30143E-02-3.71717E-03-7.50841E-01 4.78684E-14-4.97866E-14
 -1      1987 2.24007E+01-9.19502E-02-4.62767E-03-5.03314E-01 4.44306E-14-8.12406E-14
 -1      1988 2.21731E+01-6.50445E-02-2.41401E-03-5.48056E-01 2.50316E-14-2.76480E-14
 -1      1989 2.20113E+01-8.54364E-02-2.33023E-03-6.96398E-01 4.37012E-14-3.59929E-14
 -1      1990 2.27367E+01-1.66891E-01-7.40980E-03-2.85199E-01-3.35409E-14 5.51328E-14
 -1      1991 2.25793E+01-1.36707E-01-4.75087E-03-3.87582E-01-4.05752E-15-2.71571E-14
 -1      1992 2.24017E+01-1.80904E-01-1.15489E-04-5.19531E-01-1.03533E-14-3.80338E-16
 -1      1993 2.28932E+01-2.39651E-01-8.38502E-03 6.32241E-02 2.88936E-14 6.52364E-14
 -1      1994 2.28526E+01-2.15930E-01-6.72345E-03-1.04143E-01 2.11740E-14 9.64143E-14
 -1      1995 2.27035E+01-2.87391E-01 3.26567E-03-1.94419E-01-8.46719E-15 1.06003E-13
 -1      1996 2.27924E+01-2.73564E-01-6.14367E-03 5.11720E-01 3.00870E-14-8.83928E-15
 -1      1997 2.29067E+01-2.74336E-01-7.80823E-03 2.93766E-01 1.85407E-14-8.42208E-16
 -1      1998 2.28432E+01-3.68588E-01 7.62292E-03 2.74473E-01 6.21066E-14 3.23395E-14
 -1      1999 2.23929E+01-2.18519E-01-8.13338E-04 9.54576E-01 1.65504E-13-5.05897E-14
 -1      2000 2.26716E+01-2.64084E-01-7.32514E-03 7.38188E-01 1.00513E-13-2.84286E-14
 -1      2001 2.27496E+01-3.62563E-01 1.15578E-02 8.15766E-01 1.16836E-13-2.03670E-14
 -1      2002 2.17391E+01-4.43383E-02 4.20458E-03 1.20854E+00 9.56729E-14-7.94885E-14
 -1      2003 2.21396E+01-1.39348E-01-4.88465E-03 1.08330E+00 7.68352E-14-4.93581E-14
 -1      2004 2.23904E+01-2.08153E-01 1.17546E-02 1.26404E+00 8.83130E-14 2.91624E-14
 -1      2005 2.10033E+01 2.10817E-01 4.07105E-03 1.08489E+00 3.10507E-14-4.82982E-14
 -1      2006 2.14215E+01 9.67520E-02-4.19178E-04 1.14036E+00 6.70987E-14-6.20545E-14
 -1      2007 2.18299E+01 9.68796E-02 4.96722E-03 1.39006E+00 7.21020E-14 1.89865E-14
 -1      2008 2.04661E+01 4.24461E-01-1.98062E-03 5.30665E-01 3.59400E-14-1.20816E-13
 -1      2009 2.07585E+01 3.53473E-01 5.87588E-03 7.86866E-01 2.53599E-14-7.22148E-14
 -1      2010 2.12641E+01 4.43162E-01-7.38788E-03 1.02317E+00 2.89595E-14-1.27138E-14
 -1      2011 2.03889E+01 4.63771E-01-7.58955E-03-2.67781E-01 9.53734E-14-1.23447E-13
 -1      2012 2.04320E+01 4.84888E-01 1.19581E-02 9.64080E-02 3.50067E-14-1.63471E-13
 -1      2013 2.09634E+01 6.51285E-01-1.41535E-02 2.17966E-01 8.59660E-14-2.57355E-14
 -1      2014 2.08333E+01 3.01915E-01-7.17389E-03-9.61419E-01-4.43603E-14-7.31568E-14
 -1      2015 2.05972E+01 4.04266E-01 1.34817E-02-6.49688E-01 5.83335E-14-5.44408E-14
 -1      2016 2.10998E+01 5.90603E-01-9.66165E-03-7.01586E-01 2.57901E-14-8.56164E-14
 -1      2017 2.16057E+01 4.72933E-02-1.15076E-03-1.27374E+00-2.04027E-13-1.41536E-13
 -1      2018 2.11780E+01 1.68144E-01 8.36178E-03-1.13249E+00-1.58108E-13-1.55757E-13
 -1      2019 2.16080E+01 2.96858E-01-7.47451E-04-1.33289E+00-9.93337E-14-1.37469E-13
 -1      2020 2.24002E+01-1.60813E-01 6.00580E-03-1.16338E+00-1.45967E-13-1.67755E-13
 -1      2021 2.19315E+01-8.05050E-02 5.25219E-05-1.20485E+00-1.54813E-13-1.45228E-13
 -1      2022 2.22449E+01-5.37960E-02 5.28740E-03-1.46742E+00-1.44856E-13-2.51239E-13
 -1      2023 2.29774E+01-2.54365E-01 9.07326E-03-7.81986E-01-7.80712E-15-1.46700E-13
 -1      2024 2.26024E+01-2.32564E-01-6.99046E-03-9.38860E-01-1.48156E-13-1.89701E-13
 -1      2025 2.27663E+01-2.98528E-01 5.24901E-03-1.17242E+00-1.17553E-13-3.39679E-13
 -1      2026 2.32446E+01-2.45826E-01 7.92579E-03-3.28928E-01 2.10267E-13-4.40899E-14
 -1      2027 2.30324E+01-2.66798E-01-1.04490E-02-5.16988E-01 1.53997E-13-3.28201E-14
 -1      2028 2.30454E+01-3.79690E-01 2.02723E-03-6.66632E-01 7.50337E-14-8.30607E-14
 -1      2029 2.32262E+01-1.83369E-01 4.72833E-03 5.61391E-02 1.34489E-13-6.75562E-14
 -1      2030 2.31805E+01-2.21863E-01-1.03765E-02-1.04997E-01 1.98676E-13-5.19608E-14
 -1      2031 2.30744E+01-3.34981E-01-6.48782E-04-1.58047E-01 2.20178E-13 2.19493E-14
 -1      2032 2.30007E+01-1.09616E-01 1.62797E-03 3.16999E-01-1.02610E-13 5.79233E-14
 -1      2033 2.30861E+01-1.47246E-01-8.15763E-03 2.06412E-01 3.21358E-15-1.10467E-14
 -1      2034 2.29088E+01-2.33475E-01-1.72165E-03 2.34872E-01 1.64608E-14 1.12479E-13
 -1      2035 2.26536E+01-4.77362E-02-4.06627E-04 4.55906E-01-1.31412E-13 1.63407E-13
 -1      2036 2.28224E+01-7.62323E-02-5.18762E-03 3.95478E-01-1.65279E-13 9.08358E-14
 -1      2037 2.26195E+01-1.28515E-01-1.62133E-03 4.79587E-01-1.44149E-13 3.06437E-13
 -1      2038 2.22555E+01-4.80445E-03-1.36885E-03 5.01126E-01-9.69693E-14 2.67350E-13
 -1      2039 2.24644E+01-2.28433E-02-2.41378E-03 4.79632E-01-9.30566E-14 2.25271E-13
 -1      2040 2.22687E+01-4.59929E-02-1.13294E-03 5.93961E-01-1.20213E-13 3.33594E-13
 -1      2041 2.18558E+01 2.06491E-02-1.59411E-03 4.85312E-01 7.43162E-14 4.57626E-13
 -1      2042 2.20726E+01 1.12238E-02-2.84061E-04 4.89512E-01-5.30121E-15 3.13210E-13
 -1      2043 2.19028E+01 8.45465E-03-7.02996E-04 6.14047E-01-2.63134E-14 4.00456E-13
 -1      2044 2.14851E+01 3.30556E-02-1.42734E-03 4.35685E-01-9.44220E-14 3.43945E-13
 -1      2045 2.16894E+01 2.96181E-02 1.11546E-03 4.54411E-01 5.73575E-15 3.85662E-13
 -1      2046 2.15526E+01 3.89158E-02-4.60372E-04 5.75612E-01 1.80637E-14 5.01788E-13
 -1      2047 2.11590E+01 3.69222E-02-1.10991E-03 3.71496E-01-1.22733E-13 4.48185E-13
 -1      2048 2.13398E+01 3.71550E-02 1.88701E-03 3.96764E-01-1.82807E-13 2.99868E-13
 -1      2049 2.12362E+01 5.22674E-02-3.74568E-04 5.06719E-01-6.22434E-14 3.74555E-13
 -1      2050 2.08834E+01 3.57853E-02-7.77808E-04 3.04870E-01-5.03386E-14 4.14791E-13
 -1      2051 2.10364E+01 3.79904E-02 2.19541E-03 3.31588E-01 2.43943E-14 4.27140E-13
 -1      2052 2.09620E+01 5.48396E-02-3.75572E-04 4.26565E-01-7.43633E-15 5.54844E-13
 -1      2053 2.06577E+01 3.20802E-02-4.92137E-04 2.42623E-01-3.83791E-14 1.81221E-13
 -1      2054 2.07828E+01 3.51434E-02 2.20027E-03 2.67878E-01-6.02927E-14 1.66649E-13
 -1      2055 2.07323E+01 5.13712E-02-4.05566E-04 3.46930E-01 1.53311E-14 3.12609E-13
 -1      2056 2.04777E+01 2.73429E-02-2.71292E-04 1.88030E-01 2.69408E-13-6.98665E-14
 -1      2057 2.05770E+01 3.05937E-02 2.02901E-03 2.10375E-01 7.43559E-14 3.70885E-14
 -1      2058 2.05451E+01 4.50200E-02-4.30665E-04 2.74228E-01 1.28900E-13 3.68506E-14
 -1      2059 2.03376E+01 2.24714E-02-1.12996E-04 1.42174E-01 2.90230E-13 8.37357E-14
 -1      2060 2.04144E+01 2.55410E-02 1.77205E-03 1.61083E-01 2.83315E-13 1.69950E-14
 -1      2061 2.03962E+01 3.77197E-02-4.36967E-04 2.11343E-01 3.03377E-13-1.07147E-13
 -1      2062 2.02309E+01 1.79455E-02-6.92645E-06 1.04890E-01 4.21674E-14-2.50404E-14
 -1      2063 2.02890E+01 2.06569E-02 1.48801E-03 1.20369E-01 1.52717E-13 1.12235E-13
 -1      2064 2.02804E+01 3.05614E-02-4.22781E-04 1.59004E-01 1.29352E-13 2.34307E-13
 -1      2065 2.01515E+01 1.39861E-02 5.89577E-05 7.53698E-02 6.20083E-14-3.15932E-14
 -1      2066 2.01943E+01 1.62770E-02 1.21176E-03 8.77060E-02 2.25768E-14 1.41644E-14
 -1      2067 2.01922E+01 2.40978E-02-3.92223E-04 1.16726E-01 2.52707E-14 1.56381E-13
 -1      2068 2.00938E+01 1.06615E-02 9.56540E-05 5.25317E-02-2.67624E-15-1.13586E-13
 -1      2069 2.01247E+01 1.25344E-02 9.61853E-04 6.21391E-02 6.31292E-14-4.19920E-14
 -1      2070 2.01266E+01 1.85557E-02-3.51167E-04 8.34206E-02 1.00623E-13 2.72798E-13
 -1      2071 2.00532E+01 7.95559E-03 1.12176E-04 3.52409E-02-1.18333E-13-1.28667E-13
 -1      2072 2.00747E+01 9.44648E-03 7.46322E-04 4.25663E-02-1.31147E-13-2.06062E-13
 -1      2073 2.00789E+01 1.39753E-02-3.05148E-04 5.77628E-02 1.49097E-14 7.83743E-14
 -1      2074 2.00254E+01 5.80872E-03 1.15444E-04 2.24258E-02 3.81231E-14 5.48504E-14
 -1      2075 2.00399E+01 6.96835E-03 5.66816E-04 2.78980E-02-5.58663E-14 5.04455E-14
 -1      2076 2.00453E+01 1.02970E-02-2.58512E-04 3.84108E-02-1.58622E-13 1.62504E-13
 -1      2077 2.00074E+01 4.14321E-03 1.10514E-04 1.31360E-02-6.47584E-14 3.38555E-14
 -1      2078 2.00166E+01 5.02616E-03 4.21369E-04 1.71396E-02-3.28111E-14-9.70860E-15
 -1      2079 2.00223E+01 7.41407E-03-2.14250E-04 2.41206E-02 2.16651E-16 1.40325E-13
 -1      2080 1.99965E+01 2.87720E-03 1.00884E-04 6.56410E-03-1.19693E-13 3.37423E-13
 -1      2081 2.00018E+01 3.53601E-03 3.06170E-04 9.42886E-03-1.22420E-13 1.98568E-13
 -1      2082 2.00073E+01 5.20316E-03-1.74156E-04 1.38016E-02-2.03492E-13 3.45156E-13
 -1      2083 1.99906E+01 1.93206E-03 8.87927E-05 2.04811E-03-4.42669E-14 1.79856E-13
 -1      2084 1.99933E+01 2.41444E-03 2.16643E-04 4.04637E-03-5.13120E-14 3.04401E-13
 -1      2085 1.99982E+01 3.54081E-03-1.39091E-04 6.53538E-03-1.09652E-13 3.56637E-13
 -1      2086 1.99883E+01 1.23562E-03 7.54636E-05-9.37325E-04-1.27178E-13 2.29965E-13
 -1      2087 1.99891E+01 1.58351E-03 1.48071E-04 4.11757E-04-5.86399E-14 1.95520E-13
 -1      2088 1.99933E+01 2.31176E-03-1.09247E-04 1.57508E-03-1.04727E-13 3.50689E-13
 -1      2089 1.99883E+01 7.22415E-04 6.13008E-05-2.79265E-03 1.16157E-13 9.62812E-14
 -1      2090 1.99879E+01 9.72457E-04 9.59423E-05-1.92667E-03-2.41815E-14 1.72399E-13
 -1      2091 1.99913E+01 1.41175E-03-8.43584E-05-1.66572E-03 6.71976E-14 2.00775E-13
 -1      2092 1.99898E+01 3.31206E-04 4.64735E-05-3.80534E-03 4.99862E-14 3.36015E-13
 -1      2093 1.99886E+01 5.16358E-04 5.62470E-05-3.30397E-03 1.08863E-13 2.38945E-13
 -1      2094 1.99912E+01 7.46643E-04-6.36790E-05-3.62757E-03 4.27599E-14 2.84476E-13
 -1      2095 1.99921E+01 4.36890E-06 3.19085E-05-4.15437E-03 2.94807E-13 1.98494E-13
 -1      2096 1.99906E+01 1.52940E-04 2.62011E-05-3.94637E-03 1.40277E-13 4.03293E-13
 -1      2097 1.99924E+01 2.26621E-04-4.57231E-05-4.61457E-03 8.12540E-14 4.27599E-13
 -1      2098 1.99946E+01-3.13594E-04 1.79514E-05-3.92530E-03 1.56379E-13 1.45971E-13
 -1      2099 1.99930E+01-1.72997E-04 4.99330E-06-3.98253E-03 2.49154E-13 1.81699E-13
 -1      2100 1.99942E+01-2.28844E-04-2.85109E-05-4.80991E-03 2.94382E-13 3.65152E-13
 -1      2101 1.99969E+01-6.84357E-04 2.39357E-06-3.10939E-03 2.71479E-13 1.63666E-13
 -1      2102 1.99955E+01-5.17735E-04-5.59484E-06-3.46288E-03 1.96723E-13 2.38429E-13
 -1      2103 1.99961E+01-7.05312E-04-1.41933E-05-4.30760E-03 2.00881E-13 4.83529E-13
 -1      2104 1.99985E+01-1.04534E-03-1.50404E-05-2.08126E-03 9.82448E-14 1.89347E-13
 -1      2105 1.99975E+01-8.59344E-04-9.51831E-06-2.71710E-03 2.48563E-13 1.44712E-13
 -1      2106 1.99977E+01-1.15294E-03 4.00355E-06-3.44404E-03 2.43387E-13 5.69989E-13
 -1      2107 1.99987E+01-1.62801E-03 9.66834E-06-2.50670E-03 1.48207E-15 5.97044E-13
 -1      2108 2.00002E+01-7.05933E-03 6.74631E-06-3.76395E-03 1.76275E-13 2.05487E-13
 -1      2109 2.00000E+01-5.86160E-03 1.75509E-06-3.91033E-03 1.33198E-13 9.09787E-15
 -1      2110 1.99997E+01-5.11172E-03 3.10590E-06-3.96862E-03 9.97826E-14-1.78161E-14
 -1      2111 1.99995E+01-3.91360E-03-1.28485E-05-3.83571E-03-8.94882E-16 3.12221E-13
 -1      2112 1.99999E+01-4.46232E-03-7.43584E-06-4.80822E-03-9.81850E-14 1.01237E-13
 -1      2113 1.99992E+01-3.34923E-03 3.61174E-07-3.53912E-03-7.12307E-15 5.20581E-13
 -1      2114 1.99989E+01-2.28438E-03-2.00500E-05-3.05432E-03 2.55619E-15 5.50517E-13
 -1      2115 1.99985E+01-2.05076E-03-1.80768E-05-3.61281E-03 1.83216E-13 4.71877E-13
 -1      2116 1.99992E+01-3.20817E-03-9.20456E-06-4.54280E-03-6.30932E-14 4.20295E-13
 -1      2117 2.00004E+01-8.71285E-03 1.21599E-05-3.15063E-03-2.13543E-14-3.47348E-13
 -1      2118 2.00003E+01-7.67666E-03 1.96422E-05-3.45964E-03 7.86425E-14 1.45880E-13
 -1      2119 2.00004E+01-5.82457E-03-1.24991E-05-4.39527E-03 2.87451E-14-4.52113E-14
 -1      2120 2.00005E+01-1.00060E-02 1.85478E-05-2.28910E-03 1.35707E-13-1.83999E-13
 -1      2121 2.00005E+01-9.19876E-03 2.99819E-05-2.69389E-03 9.86140E-14-5.21866E-14
 -1      2122 2.00008E+01-6.93718E-03-1.35590E-05-3.54985E-03-7.48953E-14-2.05459E-13
 -1      2123 2.00006E+01-1.08343E-02 2.44113E-05-1.31170E-03 1.96679E-13-1.05740E-13
 -1      2124 2.00006E+01-1.03310E-02 3.41809E-05-1.75764E-03 1.72594E-13-7.07540E-14
 -1      2125 2.00009E+01-7.75889E-03-1.35284E-05-2.45748E-03 6.17196E-14-1.32227E-13
 -1      2126 2.00006E+01-1.11688E-02 2.97170E-05-2.89047E-04 1.77572E-14-3.07396E-13
 -1      2127 2.00006E+01-1.09976E-02 3.33010E-05-7.49877E-04 1.37015E-13-3.70147E-13
 -1      2128 2.00010E+01-8.25645E-03-1.31832E-05-1.25222E-03 3.64875E-14-2.77568E-13
 -1      2129 2.00006E+01-1.10018E-02 3.36206E-05 7.43216E-04-1.20927E-13-5.00723E-13
 -1      2130 2.00006E+01-1.11712E-02 2.94965E-05 2.81305E-04-1.79969E-14-2.90907E-13
 -1      2131 2.00010E+01-8.42552E-03-1.30544E-05-5.38859E-06-1.91913E-13-5.15334E-13
 -1      2132 2.00006E+01-1.03402E-02 3.45253E-05 1.75658E-03-1.42182E-13-5.31934E-13
 -1      2133 2.00006E+01-1.08427E-02 2.41289E-05 1.30781E-03-2.13970E-13-5.41904E-13
 -1      2134 2.00010E+01-8.26533E-03-1.33760E-05 1.24463E-03-1.58796E-13-5.45164E-13
 -1      2135 2.00005E+01-9.23088E-03 3.01228E-05 2.68572E-03-1.27669E-13 9.48231E-15
 -1      2136 2.00005E+01-1.00249E-02 1.82255E-05 2.28433E-03-1.14989E-14-1.83130E-13
 -1      2137 2.00009E+01-7.77938E-03-1.38797E-05 2.44854E-03-1.10686E-13-1.94865E-13
 -1      2138 2.00003E+01-7.69389E-03 1.93895E-05 3.46756E-03-3.44735E-14 8.95747E-13
 -1      2139 2.00004E+01-8.74833E-03 1.22703E-05 3.14969E-03-2.33221E-13 4.97328E-13
 -1      2140 2.00008E+01-6.96987E-03-1.40561E-05 3.54411E-03-9.76543E-14 1.25444E-13
 -1      2141 2.00000E+01-5.85903E-03 9.99934E-07 3.92770E-03 6.51643E-15 2.89891E-13
 -1      2142 2.00002E+01-7.06175E-03 6.86093E-06 3.78092E-03-8.55201E-14 6.17330E-13
 -1      2143 2.00004E+01-5.84576E-03-1.19635E-05 4.40758E-03-7.02314E-14 7.88417E-13
 -1      2144 1.99994E+01-3.89877E-03-2.01076E-05 3.88862E-03 4.46698E-14-3.30620E-13
 -1      2145 1.99998E+01-5.10722E-03 9.70184E-06 3.98711E-03 1.24836E-13-2.55682E-13
 -1      2146 1.99999E+01-4.46413E-03-4.68851E-06 4.82813E-03-2.11184E-13 1.41621E-13
 -1      2147 1.07784E+01-5.10187E+00-1.62614E-01 6.41174E+00 7.44960E-14 3.31034E-13
 -1      2148 7.25849E+00-6.47711E+00-3.40085E-01 5.44758E+00-4.06342E-14 3.09391E-13
 -1      2149 2.19523E-01-7.06445E+00-3.73941E-01 8.66599E-01-9.71168E-14 1.65035E-13
 -1      2150 1.91716E-01-7.39982E+00-4.21394E-01-7.12760E-01-2.19075E-13 7.41629E-14
 -1      2151 4.15389E+00-5.78022E+00-1.72375E-01 4.58644E+00-1.37834E-13 3.20910E-13
 -1      2152 1.93044E+00-6.73985E+00-3.37970E-01 2.85955E+00-2.06779E-13 1.77636E-13
 -1      2153 1.92672E+01-3.31857E+00-7.29874E-02 6.71235E+00 7.19980E-14 4.54137E-13
 -1      2154 1.42002E+01-4.97519E+00-3.52303E-01 6.09774E+00 7.46070E-14 3.35953E-13
 -1      2155 1.49757E+01-5.52652E+00-7.20201E-02 6.80732E+00-4.10783E-14 3.27405E-13
 -1      2156 2.90373E+01 4.89317E-01 2.38302E-01 5.85424E+00 2.10110E-13 4.46088E-13
 -1      2157 2.40434E+01-1.73312E+00-4.68572E-02 5.64088E+00 1.44995E-13 4.94826E-13
 -1      2158 1.95669E+01 4.12593E+00-2.64787E-02-1.30636E+00-8.96574E-14-1.47087E-14
 -1      2159 1.97834E+01 4.03853E+00-2.17085E-02-1.55140E+00-9.61653E-14 1.05610E-14
 -1      2160 2.01379E+01 3.33699E+00-1.78143E-02-1.49591E+00-9.75947E-14 2.56323E-14
 -1      2161 1.96747E+01 3.76236E+00-5.14368E-03-1.11465E+00-8.35425E-14-1.06495E-14
 -1      2162 3.73081E+01 6.26265E+00 8.11747E-02 4.05801E-01 1.80911E-13 3.13471E-13
 -1      2163 3.63351E+01 5.21579E+00 1.75365E-01 1.46693E+00 2.60736E-13 2.99816E-13
 -1      2164 4.05716E+01 7.31697E+00 4.62708E-01-5.18015E-01 2.27929E-13 2.78014E-13
 -1      2165 3.90981E+01 7.49340E+00 2.79224E-01 4.70126E-01 2.12164E-13 3.26239E-13
 -1      2166 3.77615E+01 5.76123E+00 2.12448E-01-1.99103E+00 2.26208E-13 2.19769E-13
 -1      2167 3.98007E+01 6.52462E+00 3.53187E-01-1.05548E+00 1.94067E-13 2.70811E-13
 -1      2168 3.30539E+01 2.58103E+00 6.06185E-02-3.44541E+00 1.74895E-13 1.04139E-13
 -1      2169 3.65651E+01 4.04403E+00 2.90871E-01-2.78412E+00 2.29372E-13 1.74860E-13
 -1      2170 2.62848E+01-8.85212E-01-8.75603E-02-5.24163E+00 1.91291E-13-1.39888E-14
 -1      2171 3.09092E+01 8.88909E-01 2.00304E-01-5.08300E+00 1.71724E-13 2.22045E-14
 -1      2172 1.77801E+01-3.97301E+00-2.62561E-01-6.21207E+00 3.32900E-13 9.88098E-15
 -1      2173 2.26947E+01-2.14706E+00 5.34469E-02-6.68354E+00 2.49800E-13 2.21489E-14
 -1      2174 9.57538E+00-6.21014E+00-4.04156E-01-5.73201E+00 2.85105E-13-1.00205E-13
 -1      2175 1.36978E+01-4.32221E+00-1.09386E-01-6.79513E+00 3.30735E-13-7.69385E-14
 -1      2176 3.71530E+00-7.22619E+00-4.22745E-01-4.14887E+00 1.79856E-13-2.44693E-13
 -1      2177 6.42796E+00-5.99033E+00-2.26988E-01-5.45317E+00 2.66787E-13-1.39805E-13
 -1      2178 4.30525E-01-7.38911E+00-4.11645E-01-1.29371E+00 8.92342E-14-4.46254E-13
 -1      2179 1.43514E+00-7.12590E+00-3.77998E-01-2.72114E+00 1.90958E-13-3.74922E-13
 -1      2180 1.10157E+00-6.99157E+00-3.56102E-01 2.22502E+00 4.99600E-14-2.40474E-13
 -1      2181 2.55749E-01-7.35433E+00-4.18647E-01 6.32348E-01 1.38500E-13-3.63765E-13
 -1      2182 6.08066E+00-5.93141E+00-2.09764E-01 5.38286E+00-3.85247E-14-1.63508E-13
 -1      2183 3.21026E+00-7.17218E+00-4.12889E-01 3.79367E+00 1.74860E-14-1.57541E-13
 -1      2184 1.49347E+01-4.86727E+00-3.32009E-02 6.99085E+00-4.14113E-14-1.85574E-13
 -1      2185 1.04497E+01-6.25752E+00-2.71730E-01 5.99694E+00-4.49640E-14-1.79051E-13
 -1      2186 2.38020E+01-1.78186E+00 1.27893E-01 6.57519E+00-1.59484E-13-8.48210E-14
 -1      2187 1.89367E+01-4.09318E+00-2.05206E-01 6.05159E+00-5.82867E-14-1.37501E-13
 -1      2188 3.18108E+01 1.32415E+00 2.60998E-01 5.24727E+00-2.14745E-13-7.01661E-14
 -1      2189 2.68997E+01-4.49663E-01-7.51601E-02 5.35513E+00-1.76748E-13-1.01807E-13
 -1      2190 3.71626E+01 4.11531E+00 2.58653E-01 2.62896E+00-2.05586E-13-1.13853E-13
 -1      2191 3.40869E+01 2.88250E+00 1.59703E-01 3.68803E+00-2.39274E-13-1.11910E-13
 -1      2192 3.91003E+01 6.88051E+00 2.24067E-01 4.34175E-01-2.69840E-13 8.63476E-14
 -1      2193 3.85436E+01 6.02843E+00 3.35052E-01 1.56449E+00-2.36700E-13 2.01505E-14
 -1      2194 3.98220E+01 6.97893E+00 3.56492E-01-6.56960E-01-2.11386E-13 1.68615E-13
 -1      2195 3.86023E+01 7.44830E+00 1.62469E-01 3.55853E-01-2.13829E-13 1.18718E-13
 -1      2196 3.56196E+01 4.84477E+00 1.67798E-03-1.13928E+00-1.03584E-13 1.79856E-14
 -1      2197 3.90722E+01 5.96277E+00 3.41110E-01-9.53090E-01-1.60372E-13 8.68194E-14
 -1      2198 3.46974E+01 7.08084E+00 2.22769E-01 7.00057E-01-1.30951E-13-6.24500E-14
 -1      2199 3.12961E+01 8.47685E-01 4.97716E-03-3.15785E+00-1.09933E-13 9.60343E-14
 -1      2200 3.45134E+01 2.46224E+00 9.87095E-02-2.18469E+00-1.46966E-13 5.18474E-14
 -1      2201 2.35281E+01-2.24343E+00-1.60977E-01-5.50128E+00-1.78191E-14 4.03566E-13
 -1      2202 2.85120E+01-7.28635E-01 5.95075E-02-5.23214E+00-4.46587E-14 3.68594E-13
 -1      2203 1.46294E+01-4.96511E+00-3.36166E-01-5.99088E+00-8.94840E-14 2.74836E-13
 -1      2204 1.95900E+01-2.98179E+00-1.30949E-02-6.79639E+00-1.03695E-13 3.82416E-13
 -1      2205 7.02999E+00-6.64261E+00-3.58504E-01-5.22736E+00-1.47105E-13-1.01030E-14
 -1      2206 1.07075E+01-5.20559E+00-1.78091E-01-6.29805E+00-8.93730E-14 1.02834E-13
 -1      2207 1.40959E+00-7.33794E+00-4.51620E-01-2.41974E+00-2.05891E-13-4.49640E-14
 -1      2208 3.53239E+00-6.10232E+00-2.41364E-01-4.15442E+00-1.24623E-13-6.41154E-14
 -1      2209 3.53395E+01 3.20557E+00 1.66672E-01 3.06008E+00 2.96027E-13 2.57128E-13
 -1      2210 3.17099E+01 1.86925E+00 7.94740E-02 4.14319E+00 2.57364E-13 2.96763E-13
 -1      2211 2.29095E+01-3.53601E+00-7.66193E-03 5.64430E+00 5.50116E-14 4.93772E-13
 -1      2212 2.20369E+01-4.89050E+00 1.35643E-01 5.63248E+00-6.77236E-14 4.46476E-13
 -1      2213 2.57973E+01-4.05021E+00-1.93419E-01 4.25752E+00 3.01426E-14 3.33011E-13
 -1      2214 2.12257E+01 1.10994E+00-1.78550E-02-1.29297E+00-5.88245E-14 1.99387E-13
 -1      2215 3.36963E+01 3.90022E+00 2.29732E-01 1.73266E-01 2.05863E-13 2.15328E-13
 -1      2216 2.10990E+01 1.35300E+00-2.02757E-02-1.27279E+00-6.68736E-14 1.25846E-13
 -1      2217 7.59798E+00-5.21112E+00-1.17730E-01 5.84398E+00-7.23310E-14 3.83027E-13
 -1      2218 2.46846E+00-4.51280E+00-1.39480E-01 2.42181E+00-8.43769E-14 1.71807E-13
 -1      2219 1.99992E+01-3.02893E-03-1.76938E-05 3.88063E-03-2.79745E-14-2.91160E-13
 -1      2220 2.14970E+00-4.77758E+00-1.81794E-01-2.10353E+00-7.10543E-15 5.69544E-14
 -1      2221 3.06260E+01-2.17127E-01 2.05635E-01 2.71942E+00 2.09083E-13 2.15661E-13
 -1      2222 7.14523E+00-5.39460E+00-1.24878E-01-5.54888E+00-1.48326E-13-2.95319E-14
 -1      2223 1.52953E+01-5.64857E+00-7.85153E-02-6.65309E+00-3.39728E-14 2.03115E-13
 -1      2224 2.36620E+01-4.18773E+00 7.59723E-02-5.29887E+00 1.27676E-15 2.94931E-13
 -1      2225 3.34559E+01 3.18953E+00 1.56285E-01 3.45546E-01-4.00513E-14-6.17284E-14
 -1      2226 3.67226E+01 7.36738E+00 1.92611E-01 7.41023E-02-2.50966E-13 6.66134E-15
 -1      2227 3.33148E+01 7.10484E+00-1.15058E-02-4.08007E-01-2.97484E-13-9.12881E-14
 -1      2228 3.28519E+01 7.54824E+00-9.05710E-02-1.61409E-02-2.05891E-13-1.45939E-13
 -1      2229 3.54088E+01 5.01989E+00 2.84727E-01 2.12471E-01-2.55629E-13 4.66294E-15
 -1      2230 3.25061E+01 9.73961E-01 2.42328E-01 2.10313E+00-1.85633E-13-6.76126E-14
 -1      2231 2.69827E+01-2.81288E+00 7.82450E-02 4.44890E+00-8.73190E-14-6.94445E-14
 -1      2232 1.91342E+01-5.51526E+00-6.58051E-02 6.34360E+00 2.62568E-14-8.33222E-14
 -1      2233 1.05376E+01-5.47290E+00-2.46618E-02 6.57885E+00 4.38538E-14-1.86962E-13
 -1      2234 3.68633E+00-5.06932E+00-1.53845E-01 3.82282E+00 1.07497E-13-2.16438E-13
 -1      2235 1.50828E+00-5.00035E+00-2.06235E-01-4.05450E-01 1.03025E-13-4.04288E-13
 -1      2236 4.23782E+00-5.23490E+00-1.73022E-01-4.43454E+00 8.53484E-14-2.93432E-13
 -1      2237 1.02379E+01-5.75130E+00-1.36911E-01-6.54859E+00 1.33393E-13-6.45317E-14
 -1      2238 1.81688E+01-5.23547E+00-2.84574E-02-6.63790E+00 2.00950E-13 5.67879E-14
 -1      2239 2.61161E+01-3.10201E+00 1.01340E-01-4.71332E+00 1.87572E-13 4.50751E-14
 -1      2240 3.17843E+01 6.38147E-01 1.96868E-01-1.99293E+00 1.77913E-13 1.76137E-13
 -1      2241 3.47051E+01 4.83807E+00 2.54986E-01-1.73048E-01 2.36450E-13 3.16525E-13
 -1      2242 3.58827E+01 7.01282E+00 1.40864E-01-3.56200E-02 1.36668E-13 2.25209E-13
 -1      2243 3.20709E+01 6.41914E+00-8.37592E-03-9.46685E-01 1.25122E-13 5.44287E-14
 -1      2244 3.29255E+01 7.45717E+00-1.10016E-01-5.12892E-01 1.63924E-13 1.47035E-13
 -1      2245 3.60955E+01 7.67815E+00 3.01513E-01 9.48572E-02 2.37366E-13 2.74517E-13
 -1      2246 3.01469E+01-1.26003E+00 1.52435E-01-2.28128E+00 3.34455E-15-4.56302E-14
 -1      2247 2.08006E+01 5.65462E-01 6.85932E-03 2.49830E-01 5.28605E-14-1.98643E-14
 -1      2248 2.09691E+01 7.44101E-01 2.07788E-02 5.67177E-01 5.78461E-14-2.25345E-14
 -1      2249 1.90927E+01 3.88666E+00-1.12121E-02-3.54933E-01-5.53852E-14-5.91593E-14
 -1      2250 1.92020E+01 3.82268E+00-8.06111E-03-4.82650E-01-6.02420E-14-6.17414E-14
 -1      2251 1.93357E+01 3.69305E+00-1.37883E-02-5.87817E-01-5.92973E-14-5.50541E-14
 -1      2252 1.94975E+01 3.58629E+00-1.01084E-02-7.35407E-01-6.72474E-14-3.09024E-14
 -1      2253 1.93934E+01 3.43298E+00 2.20564E-03-4.40858E-01-4.87433E-14-4.85098E-14
 -1      2254 1.89408E+01 4.00531E+00-7.96315E-03 5.01965E-02-1.92690E-14-6.58267E-14
 -1      2255 1.89361E+01 4.00832E+00-8.33624E-03-6.20317E-02-3.95900E-14-5.62909E-14
 -1      2256 1.90346E+01 3.93967E+00-7.44946E-03 2.55762E-01-8.77364E-15-9.34391E-14
 -1      2257 1.89733E+01 3.97433E+00-9.61416E-03 1.37513E-01-1.54150E-14-8.04530E-14
 -1      2258 1.90620E+01 3.70030E+00 1.50332E-03 7.18525E-02-1.75211E-14-7.43325E-14
 -1      2259 1.92315E+01 3.79233E+00-7.96701E-03 4.81361E-01 1.34803E-14-1.06339E-13
 -1      2260 1.91194E+01 3.85930E+00-1.14524E-02 3.51157E-01-3.12760E-15-1.03265E-13
 -1      2261 1.91902E+01 3.59505E+00 1.51407E-03 2.43963E-01-5.35466E-15-9.27500E-14
 -1      2262 1.95303E+01 3.54791E+00-1.01672E-02 7.45251E-01 3.40282E-14-8.99298E-14
 -1      2263 1.93676E+01 3.65772E+00-1.38527E-02 5.93129E-01 2.19051E-14-9.93936E-14
 -1      2264 1.94280E+01 3.39232E+00 1.65220E-03 4.39153E-01 2.86505E-14-9.77035E-14
 -1      2265 1.99227E+01 3.18090E+00-1.54254E-02 1.04205E+00 5.40254E-14-8.05840E-14
 -1      2266 1.97141E+01 3.35190E+00-1.67289E-02 8.70598E-01 3.64456E-14-8.63224E-14
 -1      2267 1.97679E+01 3.07914E+00 2.66281E-03 6.60940E-01 3.93475E-14-8.51775E-14
 -1      2268 2.04079E+01 2.63916E+00-2.57737E-02 1.33940E+00 7.90703E-14-6.74755E-14
 -1      2269 2.01545E+01 2.90858E+00-1.89317E-02 1.16531E+00 6.14262E-14-7.41768E-14
 -1      2270 2.01930E+01 2.63366E+00 5.88399E-03 8.88133E-01 4.94213E-14-6.89969E-14
 -1      2271 2.07096E+01 3.49677E-01 8.00748E-03-2.15554E-01 6.40417E-14-2.32906E-14
 -1      2272 2.07517E+01 4.39273E-01 2.03175E-02-2.34630E-02 6.24605E-14-1.81920E-14
 -1      2273 2.07856E+01 7.24345E-01-4.45086E-03 1.80940E-01 5.79328E-14-5.15647E-14
 -1      2274 2.09181E+01 9.50017E-01 1.42690E-02-5.01731E-01-8.07401E-14 7.56645E-14
 -1      2275 2.07964E+01 7.44125E-01-3.43590E-04-1.53320E-01-7.22790E-14 7.97014E-14
 -1      2276 3.10359E+01 3.49366E+00-2.13790E-01-1.36307E+00 1.15130E-13-2.58960E-14
 -1      2277 3.10891E+01 1.51720E+00-5.96094E-02-6.23043E-01 1.24276E-13 5.30131E-14
 -1      2278 2.07811E+01 6.06399E-01 1.57422E-02 1.20750E-01-7.58902E-14 7.32289E-14
 -1      2279 2.07534E+01 5.00209E-01 4.38649E-03 3.46760E-01-6.56133E-14 4.82162E-14
 -1      2280 2.07344E+01 9.17120E-01-2.99758E-03-6.05415E-02-7.60535E-14 4.50449E-14
 -1      2281 2.07556E+01 4.27617E-01 1.06406E-02 5.53155E-01-3.35608E-14 5.09931E-14
 -1      2282 2.08116E+01 3.66351E-01 4.86382E-03 7.13714E-01 7.26697E-15 5.28534E-14
 -1      2283 2.06933E+01 6.29173E-01-5.21733E-03 4.56336E-01-4.10255E-14 4.41094E-14
 -1      2284 2.08504E+01 3.18830E-01 6.65591E-03 8.72007E-01 1.88618E-14 4.92283E-14
 -1      2285 2.09722E+01 2.72283E-01 4.20290E-03 9.89899E-01 1.27945E-14 5.01916E-14
 -1      2286 2.07254E+01 4.62038E-01-5.36201E-03 8.48277E-01 8.95475E-15 3.74642E-14
 -1      2287 2.10519E+01 2.27153E-01 4.66001E-03 1.11029E+00 1.13437E-14 6.15429E-14
 -1      2288 2.12232E+01 1.73795E-01 2.54267E-03 1.19020E+00 2.00178E-14 8.52327E-14
 -1      2289 2.08391E+01 3.34162E-01-5.26028E-03 1.14829E+00 2.00641E-14 1.41752E-14
 -1      2290 2.13488E+01 1.13036E-01 4.33109E-03 1.27097E+00-1.45790E-15 7.89834E-14
 -1      2291 2.15554E+01 3.35310E-02-4.78191E-04 1.30389E+00 3.39006E-15 1.07719E-13
 -1      2292 2.10370E+01 1.90331E-01-5.68537E-03 1.36713E+00 1.79943E-14 5.78544E-14
 -1      2293 2.17372E+01-5.97192E-02 5.47621E-03 1.33071E+00-9.74351E-15 8.18366E-14
 -1      2294 2.19652E+01-1.82887E-01-5.25401E-03 1.29567E+00-4.11685E-14 8.37612E-14
 -1      2295 2.13286E+01-1.78409E-02-7.16391E-03 1.49087E+00-1.76013E-14 2.32477E-14
 -1      2296 2.22190E+01-3.21404E-01 7.84669E-03 1.24077E+00-8.12354E-14 8.67474E-14
 -1      2297 2.24513E+01-4.96441E-01-1.17517E-02 1.10822E+00-7.93636E-14 9.00946E-14
 -1      2298 2.17354E+01-3.32414E-01-9.83934E-03 1.47955E+00-4.19856E-14 2.95806E-14
 -1      2299 2.27912E+01-6.77293E-01 1.06090E-02 9.32496E-01-2.23150E-14 6.64297E-14
 -1      2300 2.30024E+01-8.85031E-01-1.89354E-02 6.74673E-01-3.24736E-14 7.42284E-14
 -1      2301 2.22862E+01-7.69969E-01-1.28531E-02 1.26735E+00-6.17258E-14 6.60675E-14
 -1      2302 2.34219E+01-1.06685E+00 1.14681E-02 3.38119E-01-6.04898E-14 9.16194E-14
 -1      2303 2.35725E+01-1.22771E+00-2.21746E-02-4.73614E-02-2.69854E-14 7.53010E-14
 -1      2304 2.29964E+01-1.27763E+00-1.37521E-02 7.73600E-01-5.69809E-14 3.55375E-14
 -1      2305 2.40031E+01-1.30341E+00 5.85829E-03-5.44065E-01-1.20216E-15 5.51991E-14
 -1      2306 2.40449E+01-1.27040E+00-1.67224E-02-9.90058E-01 3.63112E-14 6.54643E-14
 -1      2307 2.38184E+01-1.65740E+00-7.64837E-03-6.26243E-02-4.25614E-14 7.67047E-14
 -1      2308 2.43296E+01-1.08371E+00-1.72089E-02-1.53337E+00 3.13686E-14 4.74729E-15
 -1      2309 2.42363E+01-6.95983E-01-1.57863E-03-1.86582E+00 4.26595E-14 4.16598E-14
 -1      2310 2.45657E+01-1.52643E+00 5.68326E-03-1.14731E+00 7.41854E-15 1.79314E-14
 -1      2311 2.42064E+01-1.48470E-01-4.77642E-02-2.16138E+00 3.27741E-14 7.63554E-14
 -1      2312 2.40170E+01 5.60263E-01 1.43185E-02-2.12512E+00-3.27550E-14 8.65293E-14
 -1      2313 2.49176E+01-5.36186E-01 5.51498E-03-2.10472E+00 6.38396E-14-3.86696E-14
 -1      2314 2.37354E+01 1.27530E+00-5.68136E-02-1.83262E+00-7.46139E-14 1.41002E-13
 -1      2315 2.35723E+01 1.89749E+00 7.65224E-03-1.29757E+00-7.60468E-14 1.16156E-13
 -1      2316 2.47261E+01 1.18169E+00-1.89538E-02-2.20013E+00-1.66811E-14 8.79245E-14
 -1      2317 2.33931E+01 2.26613E+00-2.83793E-02-4.26398E-01-1.07921E-13 7.76415E-14
 -1      2318 2.33935E+01 2.29912E+00-2.48673E-02 3.70023E-01-2.01370E-13 1.43167E-14
 -1      2319 2.43272E+01 2.66513E+00-5.24467E-02-9.84477E-01-1.21580E-13 1.15341E-13
 -1      2320 2.35562E+01 1.98955E+00 5.17600E-03 1.27251E+00-1.44398E-13-4.26881E-14
 -1      2321 2.37315E+01 1.40655E+00-5.36229E-02 1.84993E+00-7.21367E-14-2.98099E-14
 -1      2322 2.43146E+01 2.74888E+00-5.27067E-02 9.36877E-01-1.60462E-13 2.65950E-14
 -1      2323 2.40291E+01 6.99905E-01 1.60890E-02 2.20392E+00-6.80411E-14 9.06881E-15
 -1      2324 2.42438E+01-1.70668E-02-4.66265E-02 2.28788E+00-1.75398E-14 3.02800E-14
 -1      2325 2.47233E+01 1.35417E+00-2.11633E-02 2.25755E+00-3.79904E-14-7.02910E-15
 -1      2326 2.43104E+01-5.93863E-01 5.19557E-04 2.03794E+00 2.98260E-14 4.47385E-15
 -1      2327 2.44322E+01-1.01644E+00-2.12872E-02 1.73211E+00 7.16332E-14 2.54656E-14
 -1      2328 2.49761E+01-3.94531E-01 5.87541E-03 2.27138E+00-4.12344E-15 1.03705E-13
 -1      2329 2.41868E+01-1.23178E+00-1.76421E-02 1.20521E+00 1.08204E-13 1.68867E-14
 -1      2330 2.41707E+01-1.29319E+00-4.36778E-04 7.64046E-01 1.36195E-13 2.24452E-15
 -1      2331 2.46869E+01-1.46192E+00 3.73148E-03 1.37925E+00 7.40328E-14 7.99387E-14
 -1      2332 2.37650E+01-1.22852E+00-2.32204E-02 2.64958E-01 1.01102E-13-5.29851E-14
 -1      2333 2.36389E+01-1.07901E+00 9.07675E-03-1.24887E-01 6.52130E-14-5.09989E-14
 -1      2334 2.39886E+01-1.64106E+00-5.70046E-03 2.97508E-01 8.70380E-14-4.45070E-14
 -1      2335 2.32296E+01-8.98603E-01-1.93428E-02-4.68628E-01 1.37379E-13-7.76636E-15
 -1      2336 2.30415E+01-6.94051E-01 1.00388E-02-7.33357E-01 1.62194E-13 5.82429E-14
 -1      2337 2.31871E+01-1.28817E+00-1.06973E-02-5.50248E-01 1.33764E-13-1.55760E-13
 -1      2338 2.27032E+01-5.11155E-01-1.24385E-02-9.16999E-01 1.52529E-13 9.95432E-14
 -1      2339 2.24914E+01-3.36123E-01 7.66492E-03-1.05627E+00 1.80129E-13 1.39318E-13
 -1      2340 2.24803E+01-7.86227E-01-1.03052E-02-1.06243E+00 1.95734E-13-9.42905E-14
 -1      2341 2.22351E+01-1.97745E-01-6.06359E-03-1.11960E+00 1.26928E-13 1.42161E-13
 -1      2342 2.20228E+01-7.76352E-02 4.94089E-03-1.16308E+00 5.88646E-14 1.41133E-13
 -1      2343 2.19265E+01-3.49565E-01-7.61784E-03-1.29194E+00 1.28777E-13-3.52396E-15
 -1      2344 2.18331E+01 9.77807E-03-1.41387E-03-1.14977E+00-9.18203E-15 1.30371E-13
 -1      2345 2.16331E+01 7.93584E-02 2.84494E-03-1.13155E+00-7.79760E-14 2.17104E-14
 -1      2346 2.15100E+01-4.57313E-02-4.98889E-03-1.32744E+00-7.38895E-15 3.31304E-15
 -1      2347 2.14908E+01 1.25945E-01 1.51569E-03-1.07582E+00-4.16018E-14 3.85398E-14
 -1      2348 2.13098E+01 1.58721E-01 1.53007E-03-1.02379E+00-6.52239E-14 9.68114E-14
 -1      2349 2.11953E+01 1.33323E-01-3.15621E-03-1.24679E+00-4.89633E-14 4.13593E-15
 -1      2350 2.11998E+01 1.77678E-01 3.10881E-03-9.48926E-01-1.23473E-13 9.38136E-14
 -1      2351 2.10410E+01 1.87081E-01 7.97250E-04-8.82549E-01-4.97827E-14 1.04524E-13
 -1      2352 2.09511E+01 2.20073E-01-2.08592E-03-1.10639E+00-6.71741E-14 1.15000E-13
 -1      2353 2.09536E+01 1.89433E-01 3.77470E-03-8.03081E-01-6.30717E-14 5.68485E-14
 -1      2354 2.08179E+01 1.85599E-01 4.28271E-04-7.34449E-01-1.16249E-13-6.34649E-15
 -1      2355 2.07561E+01 2.47361E-01-1.52467E-03-9.43329E-01-1.39431E-13 8.39099E-14
 -1      2356 2.07473E+01 1.79072E-01 3.85475E-03-6.58698E-01-1.45300E-13-9.84176E-14
 -1      2357 2.06340E+01 1.68719E-01 2.59271E-04-5.94546E-01-8.09986E-14-5.91618E-14
 -1      2358 2.05974E+01 2.40405E-01-1.23940E-03-7.80139E-01-1.78707E-13 9.38279E-14
 -1      2359 2.05766E+01 1.58203E-01 3.59922E-03-5.26736E-01-7.79910E-15-3.53241E-14
 -1      2360 2.04840E+01 1.45410E-01 1.88457E-04-4.70267E-01 4.17049E-15-6.62963E-14
 -1      2361 2.04672E+01 2.16164E-01-1.08010E-03-6.29324E-01-6.79074E-14-2.20080E-14
 -1      2362 2.04374E+01 1.33766E-01 3.17819E-03-4.12064E-01 4.30773E-14-2.66223E-14
 -1      2363 2.03633E+01 1.20825E-01 1.60025E-04-3.64329E-01 6.69647E-15 1.86377E-14
 -1      2364 2.03607E+01 1.85085E-01-9.66445E-04-4.96826E-01-1.80140E-16-9.23316E-14
 -1      2365 2.03259E+01 1.09598E-01 2.69939E-03-3.15894E-01 1.19327E-14 3.64506E-14
 -1      2366 2.02676E+01 9.76800E-02 1.46460E-04-2.76730E-01 1.48969E-16 4.91155E-14
 -1      2367 2.02742E+01 1.53131E-01-8.63008E-04-3.84521E-01 6.13135E-15 2.85814E-14
 -1      2368 2.02379E+01 8.76120E-02 2.22626E-03-2.37402E-01-3.99953E-14 1.42698E-13
 -1      2369 2.01930E+01 7.72234E-02 1.35896E-04-2.06027E-01-1.50994E-14 1.62219E-13
 -1      2370 2.02049E+01 1.23411E-01-7.58686E-04-2.91918E-01 3.18674E-14 2.85683E-14
 -1      2371 2.01697E+01 6.85955E-02 1.79269E-03-1.74753E-01-6.61381E-14 2.42012E-13
 -1      2372 2.01357E+01 5.98674E-02 1.24301E-04-1.50125E-01-9.54227E-14 2.87739E-13
 -1      2373 2.01501E+01 9.73227E-02-6.53408E-04-2.17273E-01-2.60993E-14 2.54850E-13
 -1      2374 2.01179E+01 5.27057E-02 1.41396E-03-1.25717E-01-1.12706E-13 1.56430E-13
 -1      2375 2.00927E+01 4.55708E-02 1.11125E-04-1.06743E-01-1.89453E-13 2.07701E-13
 -1      2376 2.01076E+01 7.52854E-02-5.50815E-04-1.58282E-01-1.56014E-13 1.20283E-13
 -1      2377 2.00792E+01 3.97709E-02 1.09415E-03-8.80297E-02-2.00061E-13 2.57553E-13
 -1      2378 2.00609E+01 3.40667E-02 9.70563E-05-7.36706E-02-1.76980E-13 2.62292E-13
 -1      2379 2.00752E+01 5.71889E-02-4.54798E-04-1.12505E-01-1.38243E-13 1.03830E-13
 -1      2380 2.00509E+01 2.94658E-02 8.31096E-04-5.95736E-02-1.30630E-13 8.74706E-14
 -1      2381 2.00380E+01 2.49930E-02 8.29814E-05-4.89028E-02 3.15904E-14-3.68522E-14
 -1      2382 2.00509E+01 4.26628E-02-3.68179E-04-7.76003E-02-2.11493E-13 7.63488E-14
 -1      2383 2.00308E+01 2.14101E-02 6.19362E-04-3.84753E-02 2.46930E-13-1.04671E-13
 -1      2384 2.00219E+01 1.79647E-02 6.95656E-05-3.06968E-02 9.44334E-14-5.27417E-14
 -1      2385 2.00331E+01 3.12294E-02-2.92444E-04-5.14538E-02 5.80272E-14-2.30893E-13
 -1      2386 2.00169E+01 1.52218E-02 4.52182E-04-2.31348E-02-7.05107E-15-7.83609E-14
 -1      2387 2.00111E+01 1.26116E-02 5.71233E-05-1.75862E-02 8.57870E-14-1.16569E-14
 -1      2388 2.00204E+01 2.23892E-02-2.27932E-04-3.22303E-02 7.14704E-14-1.14821E-13
 -1      2389 2.00077E+01 1.05443E-02 3.22531E-04-1.22258E-02 4.42420E-14-1.06011E-14
 -1      2390 2.00041E+01 8.59567E-03 4.56039E-05-8.36997E-03-1.35194E-13 3.14570E-14
 -1      2391 2.00116E+01 1.56655E-02-1.74170E-04-1.83868E-02 3.91762E-14-1.98568E-13
 -1      2392 2.00019E+01 7.05709E-03 2.23762E-04-4.67747E-03-2.10536E-13 7.96476E-14
 -1      2393 2.00000E+01 5.61692E-03 3.46365E-05-2.09116E-03-2.30401E-13-9.43504E-14
 -1      2394 2.00057E+01 1.06245E-02-1.30191E-04-8.66104E-03-1.38408E-13-2.19212E-13
 -1      2395 1.99986E+01 4.47750E-03 1.49923E-04 3.50430E-04 8.85854E-14-5.00611E-14
 -1      2396 1.99978E+01 3.41128E-03 2.36510E-05 1.98946E-03 2.91797E-13 3.22538E-14
 -1      2397 2.00020E+01 6.88124E-03-9.48298E-05-2.04843E-03-2.59666E-15-3.74176E-14
 -1      2398 1.99971E+01 2.55635E-03 9.62364E-05 3.49406E-03 9.66320E-14 1.41919E-13
 -1      2399 1.99969E+01 1.74450E-03 1.18579E-05 4.41913E-03-3.79081E-14 1.24353E-13
 -1      2400 1.99999E+01 4.09559E-03-6.70706E-05 2.22579E-03 2.14355E-13-8.02322E-14
 -1      2401 1.99967E+01 1.06974E-03 5.81997E-05 5.20959E-03-1.19911E-13 2.60529E-13
 -1      2402 1.99970E+01 4.10509E-04 1.26522E-06 5.57354E-03-1.87033E-13 3.46771E-13
 -1      2403 1.99988E+01 1.96431E-03-4.63308E-05 4.73456E-03-2.00920E-14 1.99921E-13
 -1      2404 1.99970E+01-1.91117E-04 2.77344E-05 5.80405E-03-2.87289E-13 3.13785E-13
 -1      2405 1.99975E+01-7.62465E-04-4.16810E-06 5.68928E-03-1.82490E-13 1.72890E-13
 -1      2406 1.99985E+01 2.42592E-04-2.79471E-05 5.87573E-03-2.27187E-13 2.82580E-13
 -1      2407 2.09418E+01 1.51799E-01 4.00256E-03-7.37918E-01-5.74801E-15-2.09350E-14
 -1      2408 2.08136E+01 1.91694E-01 7.75488E-03-6.54919E-01 1.57038E-14-8.98261E-16
 -1      2409 2.12103E+01 7.13697E-02 1.37104E-03-8.66892E-01 4.47114E-15-4.77925E-14
 -1      2410 2.10376E+01 1.14115E-01 4.86714E-03-8.21421E-01-1.11646E-14-4.07477E-14
 -1      2411 2.09078E+01 1.85987E-01-5.41520E-03-8.87201E-01 1.06285E-14-4.50421E-14
 -1      2412 2.15419E+01-3.09215E-02-2.16738E-03-9.07482E-01 6.19218E-14-4.42543E-14
 -1      2413 2.13472E+01 2.56977E-02 3.37435E-03-9.05572E-01 2.65934E-14-5.64468E-14
 -1      2414 2.11371E+01 6.51716E-02-5.00224E-03-1.02607E+00 2.37417E-14-6.26724E-14
 -1      2415 2.19077E+01-1.70756E-01-6.76859E-03-8.35241E-01 1.01477E-14 5.02376E-15
 -1      2416 2.17150E+01-9.31835E-02 2.68860E-03-8.90599E-01 2.12187E-14-7.76679E-15
 -1      2417 2.14406E+01-9.05503E-02-4.78997E-03-1.05926E+00 1.32032E-14-2.82419E-14
 -1      2418 2.22746E+01-3.50563E-01-1.19791E-02-6.15548E-01-6.04885E-14 3.61972E-14
 -1      2419 2.21118E+01-2.53164E-01 2.35821E-03-7.44518E-01 1.25247E-15 1.95226E-14
 -1      2420 2.18076E+01-2.99007E-01-4.60896E-03-9.57109E-01-2.15239E-14 4.68509E-14
 -1      2421 2.25984E+01-5.44746E-01-1.62696E-02-2.19689E-01 3.06192E-14 3.25767E-14
 -1      2422 2.24978E+01-4.45586E-01 1.73539E-03-4.31321E-01-3.77879E-14 8.50448E-15
 -1      2423 2.22221E+01-5.54738E-01-3.73593E-03-6.79609E-01-2.85744E-14-2.82795E-14
 -1      2424 2.28188E+01-6.81740E-01-1.68700E-02 3.43881E-01 1.20078E-13 1.60007E-15
 -1      2425 2.28127E+01-6.24547E-01-2.48779E-04 6.48922E-02 1.01916E-13 5.48201E-14
 -1      2426 2.26496E+01-8.06773E-01-8.66020E-04-1.96037E-01 7.60858E-14-4.90734E-14
 -1      2427 2.28635E+01-6.42153E-01-1.02657E-02 9.84764E-01 1.15509E-13 1.85659E-14
 -1      2428 2.29720E+01-6.93299E-01-4.90946E-03 6.97926E-01 1.11172E-13-2.31438E-14
 -1      2429 2.30188E+01-9.38595E-01 4.86051E-03 4.75485E-01 1.16255E-13-3.66610E-14
 -1      2430 2.26737E+01-3.10936E-01 3.61819E-03 1.49196E+00 5.42452E-14 7.61440E-14
 -1      2431 2.28850E+01-5.21045E-01-1.18737E-02 1.30939E+00 8.39446E-14 6.56558E-14
 -1      2432 2.32150E+01-7.80229E-01 1.20352E-02 1.20974E+00 6.51196E-14 2.19467E-14
 -1      2433 2.22765E+01 2.95353E-01 1.72411E-02 1.57568E+00 5.64397E-14 8.66590E-14
 -1      2434 2.25281E+01-3.93155E-02-1.83069E-02 1.62236E+00 8.14626E-14 9.17261E-14
 -1      2435 2.31278E+01-2.18572E-01 1.27777E-02 1.73010E+00 5.75724E-14 7.06674E-14
 -1      2436 2.18367E+01 9.33643E-01 1.80186E-02 1.03401E+00 6.20372E-14 7.77525E-14
 -1      2437 2.20302E+01 6.33032E-01-1.71519E-02 1.36378E+00 4.68965E-14 7.98354E-14
 -1      2438 2.27742E+01 6.42588E-01-1.16042E-03 1.68576E+00 1.01067E-13 9.36560E-14
 -1      2439 2.16382E+01 1.21661E+00 6.83229E-03-6.61651E-03 1.30168E-13-3.24816E-14
 -1      2440 2.16800E+01 1.14266E+00-1.19770E-03 4.94988E-01 1.24897E-13 4.66125E-14
 -1      2441 2.23906E+01 1.41061E+00-1.65075E-02 8.89691E-01 9.89105E-14 1.03633E-13
 -1      2442 2.18523E+01 9.39020E-01-8.68961E-03-1.07165E+00-1.30573E-14-6.95069E-14
 -1      2443 2.17122E+01 1.14634E+00 1.76664E-02-6.32579E-01 9.41122E-14-4.99106E-14
 -1      2444 2.23017E+01 1.60160E+00-1.81154E-02-3.76234E-01 1.04554E-13-7.59982E-15
 -1      2445 2.23514E+01 3.04197E-01-1.74648E-02-1.66466E+00-1.25480E-13-9.33940E-14
 -1      2446 2.20945E+01 6.45068E-01 2.15139E-02-1.47037E+00-4.86382E-14-4.35710E-14
 -1      2447 2.25982E+01 1.07996E+00-7.56380E-03-1.47349E+00-6.30641E-14-3.09755E-14
 -1      2448 2.28477E+01-2.99679E-01-1.33525E-02-1.62611E+00-1.08424E-13-1.46099E-13
 -1      2449 2.25777E+01-2.07756E-02 1.06826E-02-1.69935E+00-1.61174E-13-1.09255E-13
 -1      2450 2.30362E+01 2.12796E-01 9.03739E-03-1.90613E+00-1.24891E-13-5.57947E-15
 -1      2451 2.31169E+01-6.25159E-01-5.58193E-03-1.13959E+00-6.47442E-14-1.45946E-13
 -1      2452 2.29223E+01-5.02409E-01-4.37230E-03-1.37872E+00-6.63744E-14-1.59678E-13
 -1      2453 2.33018E+01-5.32066E-01 1.34337E-02-1.64171E+00-6.18749E-14-1.95878E-14
 -1      2454 2.31154E+01-6.61068E-01 1.90517E-04-5.04440E-01 9.93181E-14-1.33515E-13
 -1      2455 2.30329E+01-6.74840E-01-1.44024E-02-7.84385E-01-5.89667E-14-2.18957E-13
 -1      2456 2.32687E+01-8.85279E-01 8.57002E-03-9.86143E-01-4.18702E-14-9.94602E-14
 -1      2457 2.29119E+01-5.24157E-01 2.43542E-03 5.85089E-02 8.43843E-14 1.29984E-13
 -1      2458 2.29363E+01-6.08382E-01-1.67734E-02-1.78625E-01 1.45016E-13 5.43538E-14
 -1      2459 2.30019E+01-8.76555E-01 1.49498E-03-2.74086E-01 2.72026E-14-1.35660E-13
 -1      2460 2.25973E+01-3.34150E-01 2.60178E-03 4.53877E-01-8.68043E-14 2.45832E-13
 -1      2461 2.27014E+01-4.32365E-01-1.40535E-02 2.92459E-01 2.54748E-14 2.52975E-13
 -1      2462 2.26231E+01-6.67536E-01-2.81025E-03 2.97452E-01-1.45385E-14 2.37476E-13
 -1      2463 2.22409E+01-1.63143E-01 2.11635E-03 6.76019E-01-1.31344E-13 2.83524E-13
 -1      2464 2.23933E+01-2.45425E-01-9.35931E-03 5.88979E-01-1.26124E-13 2.91797E-13
 -1      2465 2.22243E+01-4.08880E-01-3.99535E-03 6.67702E-01-9.88901E-14 3.12267E-13
 -1      2466 2.18846E+01-3.79990E-02 1.57706E-03 7.60216E-01-1.29329E-13 3.41872E-13
 -1      2467 2.20584E+01-9.53537E-02-4.80170E-03 7.31067E-01-8.53303E-14 2.85331E-13
 -1      2468 2.18514E+01-1.85972E-01-3.68209E-03 8.54817E-01-7.72535E-14 2.30417E-13
 -1      2469 2.15511E+01 4.04668E-02 1.18613E-03 7.50789E-01 9.89210E-15 3.45196E-13
 -1      2470 2.17270E+01 6.17520E-03-1.27435E-03 7.60126E-01-6.81148E-14 2.94788E-13
 -1      2471 2.15204E+01-2.70964E-02-2.97489E-03 9.05112E-01-6.40054E-14 2.69199E-13
 -1      2472 2.12520E+01 8.20243E-02 9.50971E-04 6.86408E-01 2.83434E-14 2.93958E-13
 -1      2473 2.14172E+01 6.51093E-02 1.06560E-03 7.17710E-01 3.18850E-14 3.31886E-13
 -1      2474 2.12337E+01 7.01239E-02-2.36377E-03 8.66630E-01 4.65244E-14 1.19596E-13
 -1      2475 2.09920E+01 9.82441E-02 8.19212E-04 5.95594E-01-7.49804E-14 3.05449E-13
 -1      2476 2.11392E+01 9.28593E-02 2.39789E-03 6.36874E-01-2.89274E-14 2.88818E-13
 -1      2477 2.09888E+01 1.19825E-01-1.94274E-03 7.78394E-01 6.33629E-15 6.39755E-14
 -1      2478 2.07715E+01 9.88551E-02 7.36559E-04 4.97185E-01-3.36543E-14 2.87531E-13
 -1      2479 2.08978E+01 1.00346E-01 2.99162E-03 5.40667E-01-4.32742E-14 2.64640E-13
 -1      2480 2.07818E+01 1.37433E-01-1.66780E-03 6.68212E-01-5.85944E-14 5.88077E-14
 -1      2481 2.05889E+01 9.08923E-02 6.70018E-04 4.02444E-01 1.53292E-13 2.38876E-14
 -1      2482 2.06939E+01 9.59952E-02 3.09813E-03 4.43591E-01 7.08746E-14 1.79960E-13
 -1      2483 2.06091E+01 1.35566E-01-1.47404E-03 5.54081E-01 7.35962E-14-3.96523E-14
 -1      2484 2.04407E+01 7.89869E-02 6.04473E-04 3.17320E-01 1.58478E-13 6.20026E-15
 -1      2485 2.05257E+01 8.56026E-02 2.91540E-03 3.53832E-01 1.11733E-13 7.84873E-14
 -1      2486 2.04670E+01 1.23221E-01-1.31425E-03 4.46576E-01 1.15927E-13-1.20873E-13
 -1      2487 2.03228E+01 6.59692E-02 5.35851E-04 2.44309E-01 2.02748E-13 2.26377E-13
 -1      2488 2.03900E+01 7.28422E-02 2.58374E-03 2.75313E-01 1.97804E-13 2.20999E-13
 -1      2489 2.03519E+01 1.06265E-01-1.16427E-03 3.51124E-01 1.02471E-13 1.11651E-13
 -1      2490 2.02309E+01 5.34391E-02 4.65358E-04 1.83806E-01 1.43201E-13 2.78791E-13
 -1      2491 2.02828E+01 5.98799E-02 2.19514E-03 2.09278E-01 1.74161E-13 2.71350E-13
 -1      2492 2.02601E+01 8.82509E-02-1.01616E-03 2.69812E-01 1.39081E-13 4.65100E-13
 -1      2493 2.01605E+01 4.22051E-02 3.95922E-04 1.35031E-01 7.53221E-14 2.44666E-13
 -1      2494 2.01998E+01 4.78830E-02 1.80556E-03 1.55405E-01 1.47993E-13 2.48970E-13
 -1      2495 2.01881E+01 7.11631E-02-8.70581E-04 2.02707E-01 1.61110E-13 3.62754E-13
 -1      2496 2.01078E+01 3.25916E-02 3.30404E-04 9.66283E-02 1.18459E-13 1.69349E-13
 -1      2497 2.01369E+01 3.73922E-02 1.44602E-03 1.12552E-01 3.32894E-14 1.88454E-13
 -1      2498 2.01327E+01 5.59804E-02-7.31402E-04 1.48746E-01 1.74070E-13 8.29357E-14
 -1      2499 2.00692E+01 2.46407E-02 2.70887E-04 6.70334E-02-8.65579E-14 3.50428E-13
 -1      2500 2.00901E+01 2.85735E-02 1.13124E-03 7.92162E-02 8.79249E-14 3.24619E-13
 -1      2501 2.00908E+01 4.30699E-02-6.02678E-04 1.06327E-01 3.38258E-14 1.76613E-13
 -1      2502 2.00416E+01 1.82416E-02 2.18521E-04 4.46892E-02-8.52584E-14 2.55722E-13
 -1      2503 2.00563E+01 2.13814E-02 8.65822E-04 5.38197E-02-1.39382E-13 3.04037E-13
 -1      2504 2.00599E+01 3.24446E-02-4.87346E-04 7.36692E-02-7.13023E-14 3.56197E-13
 -1      2505 2.00225E+01 1.32099E-02 1.73621E-04 2.81648E-02-1.32938E-14 2.76830E-13
 -1      2506 2.00324E+01 1.56609E-02 6.48478E-04 3.48649E-02 3.27076E-14 2.55603E-13
 -1      2507 2.00375E+01 2.39283E-02-3.86905E-04 4.90277E-02 2.89193E-14 3.96217E-13
 -1      2508 2.00098E+01 9.33458E-03 1.35843E-04 1.62101E-02-2.61269E-13 2.78063E-13
 -1      2509 2.00161E+01 1.12094E-02 4.74778E-04 2.10161E-02-1.79667E-13 2.02985E-13
 -1      2510 2.00217E+01 1.72557E-02-3.01562E-04 3.08125E-02-8.21844E-14 2.93632E-13
 -1      2511 2.00018E+01 6.40425E-03 1.04338E-04 7.77520E-03-1.14096E-13 2.95055E-13
 -1      2512 2.00056E+01 7.81291E-03 3.38885E-04 1.11324E-02-2.09672E-13 2.56754E-13
 -1      2513 2.00110E+01 1.21323E-02-2.30574E-04 1.76410E-02-2.01028E-13 4.63597E-14
 -1      2514 1.99973E+01 4.22056E-03 7.78670E-05 2.00713E-03-1.12007E-14 5.66398E-14
 -1      2515 1.99992E+01 5.26482E-03 2.34605E-04 4.27303E-03 1.80098E-15 1.37734E-13
 -1      2516 2.00042E+01 8.26726E-03-1.72610E-04 8.35590E-03-3.19583E-14 1.35505E-13
 -1      2517 1.99952E+01 2.60267E-03 5.48047E-05-1.76212E-03 7.08379E-14 6.69832E-14
 -1      2518 1.99958E+01 3.37469E-03 1.55975E-04-3.11561E-04-2.61292E-14-3.05784E-14
 -1      2519 2.00000E+01 5.38889E-03-1.26055E-04 2.02065E-03 3.82985E-14-2.77559E-13
 -1      2520 1.99947E+01 1.38976E-03 3.58635E-05-4.03124E-03 7.96953E-14 1.48451E-13
 -1      2521 1.99945E+01 1.96999E-03 9.75142E-05-3.19506E-03 6.68955E-14 1.75038E-13
 -1      2522 1.99978E+01 3.25069E-03-8.88722E-05-2.09556E-03-1.47126E-16-3.50175E-14
 -1      2523 1.99952E+01 4.22723E-04 1.95913E-05-5.15353E-03 4.34513E-14 2.81432E-13
 -1      2524 1.99945E+01 8.85985E-04 5.14125E-05-4.80204E-03-5.10901E-14 2.09886E-13
 -1      2525 1.99970E+01 1.64295E-03-5.79803E-05-4.53468E-03-1.56805E-14 2.17475E-13
 -1      2526 1.99962E+01-4.39409E-04 1.05998E-06-5.33341E-03 2.27805E-13 4.55678E-13
 -1      2527 1.99953E+01-2.01962E-05 2.03145E-05-5.39281E-03 2.58381E-13 4.20141E-13
 -1      2528 1.99970E+01 2.86683E-04-4.26622E-05-5.71150E-03-1.58738E-14 3.63351E-13
 -1      2529 1.99975E+01-1.28757E-03-1.95526E-05-4.69762E-03 9.44660E-15 5.13115E-13
 -1      2530 1.99966E+01-8.42486E-04 9.72575E-06-5.11192E-03 1.24490E-13 5.13603E-13
 -1      2531 1.99976E+01-9.42004E-04-2.64301E-05-5.82580E-03 1.27907E-13 4.43769E-13
 -1      2532 1.99980E+01-1.72626E-03-2.44628E-06-4.03008E-03 1.62069E-13 5.24333E-13
 -1      2533 2.00014E+01-5.20397E-03 8.37655E-06-3.53590E-03 9.32784E-14-2.11573E-13
 -1      2534 2.00012E+01-4.73241E-03 1.38065E-05-4.05254E-03 1.67603E-13-4.57375E-13
 -1      2535 2.00016E+01-5.57762E-03 9.15925E-06-2.31079E-03 1.29626E-13-8.88690E-14
 -1      2536 2.00015E+01-5.24995E-03 2.03701E-05-2.91009E-03 5.64634E-14-5.87202E-14
 -1      2537 2.00019E+01-3.12601E-03 1.14308E-06-3.41995E-03 2.54600E-13-1.92664E-13
 -1      2538 2.00002E+01-3.77568E-03 9.23282E-06-5.21634E-03-6.00590E-14-9.82722E-14
 -1      2539 1.99997E+01-3.06357E-03-1.05865E-05-5.28176E-03 8.59641E-15 7.89094E-14
 -1      2540 2.00010E+01-4.59887E-03 1.04180E-05-4.55958E-03-8.90398E-14-1.21823E-13
 -1      2541 2.00007E+01-4.01884E-03 2.78649E-06-4.90259E-03-2.79618E-14 6.60562E-14
 -1      2542 2.00007E+01-2.65606E-03-9.49949E-06-5.45857E-03 5.05161E-14-8.58399E-14
 -1      2543 2.00015E+01-2.96599E-03-3.99271E-06-4.60409E-03 1.55165E-13-1.12844E-13
 -1      2544 2.00016E+01-5.75359E-03 1.22719E-05-1.00984E-03-1.76675E-13-5.99993E-13
 -1      2545 2.00016E+01-5.58660E-03 1.96375E-05-1.64328E-03-6.03616E-14-2.55226E-13
 -1      2546 2.00021E+01-3.17415E-03 4.89375E-06-2.08953E-03-8.50671E-14-2.86019E-13
 -1      2547 2.00016E+01-5.75772E-03 1.65282E-05 3.13430E-04-1.45338E-13-4.00738E-13
 -1      2548 2.00016E+01-5.75590E-03 1.61109E-05-3.29586E-04-1.91396E-13-3.85328E-13
 -1      2549 2.00022E+01-3.18496E-03 6.81383E-06-7.07800E-04-1.69765E-13-5.24987E-13
 -1      2550 2.00016E+01-5.60025E-03 2.00545E-05 1.63258E-03-1.43062E-13-6.10488E-13
 -1      2551 2.00016E+01-5.76379E-03 1.18484E-05 9.95846E-04-6.27986E-14-6.29739E-13
 -1      2552 2.00022E+01-3.19302E-03 6.60140E-06 6.87475E-04-5.97750E-14-5.41070E-13
 -1      2553 2.00015E+01-5.27911E-03 1.98591E-05 2.88997E-03 6.75238E-14-1.02348E-13
 -1      2554 2.00016E+01-5.59866E-03 8.62552E-06 2.29524E-03-8.54735E-14-2.37999E-13
 -1      2555 2.00022E+01-3.19627E-03 4.53781E-06 2.06619E-03-1.17465E-13-3.81910E-13
 -1      2556 2.00012E+01-4.76284E-03 1.49516E-05 4.04648E-03-4.98948E-14 2.44484E-13
 -1      2557 2.00014E+01-5.23613E-03 7.57749E-06 3.52316E-03 6.17386E-14-3.13566E-13
 -1      2558 2.00020E+01-3.15722E-03-4.79338E-08 3.40068E-03 5.95394E-14-2.08388E-13
 -1      2559 2.00007E+01-4.03746E-03 3.79891E-06 4.92590E-03-3.50766E-13 6.44266E-13
 -1      2560 2.00010E+01-4.63800E-03 8.26235E-06 4.57313E-03-2.67190E-13 8.00690E-13
 -1      2561 2.00015E+01-3.01223E-03-5.99904E-06 4.60071E-03-1.98825E-13 2.42573E-13
 -1      2562 1.99997E+01-3.10291E-03-1.43267E-05 5.29063E-03-3.67223E-13-3.81773E-14
 -1      2563 2.00002E+01-3.79306E-03 7.53110E-06 5.23551E-03-5.06950E-13 4.27339E-13
 -1      2564 2.00006E+01-2.67433E-03-4.48632E-06 5.47028E-03-6.19892E-13 5.58719E-13
 -1      2565 4.93940E+00-2.45248E+00 1.13773E-01 3.19203E+00-9.08718E-14 1.84519E-13
 -1      2566 3.46877E+00-2.62383E+00 1.08607E-01 8.88751E-01-5.09280E-14 1.49269E-13
 -1      2567 1.09947E+01-4.67464E+00 4.25868E-02 6.76676E+00-7.11653E-14 3.77753E-13
 -1      2568 7.70886E+00-3.76529E+00 9.03386E-02 5.56899E+00-1.03723E-13 4.59355E-13
 -1      2569 3.45734E+00-2.62444E+00 8.21942E-02-9.13626E-01 3.66391E-14 3.90243E-14
 -1      2570 4.63149E+00-2.64046E+00 1.03564E-01-3.13598E+00 6.35880E-14-4.01346E-14
 -1      2571 5.66885E+00-1.22430E+00 1.73372E-01-5.65046E-02-3.39069E-14 1.24900E-14
 -1      2572 2.07649E+01 2.33304E-01 6.17395E-03-5.26836E-01 1.82211E-14 9.10513E-16
 -1      2573 2.07059E+01 2.85495E-01 1.28764E-02-4.00985E-01 4.19257E-14-1.52330E-14
 -1      2574 2.07650E+01 3.01721E-01-5.81128E-03-6.53413E-01 2.52443E-14 1.36588E-15
 -1      2575 1.99986E+01-2.54035E-03 3.14221E-06 4.65754E-03-2.92763E-14-1.34166E-13
 -1      2576 1.80880E+01-5.33990E+00-1.51924E-03 6.78123E+00-2.40918E-14 3.59662E-13
 -1      2577 1.46155E+01-5.34604E+00 3.35582E-02 6.75296E+00 2.44249E-14 2.77091E-13
 -1      2578 2.09218E+01 2.00745E+00-1.13395E-02-1.45973E+00-7.35627E-14 7.85344E-14
 -1      2579 2.08715E+01 1.28582E+00-5.83231E-03-8.22947E-01-7.75586E-14 7.39389E-14
 -1      2580 2.07598E+01 1.50252E+00 5.05839E-03-7.02773E-01-8.15329E-14 3.67241E-14
 -1      2581 2.05888E+01 2.47848E+00-1.05008E-03-1.37317E+00-9.00089E-14 4.74586E-14
 -1      2582 3.05459E+01-5.14162E-01-1.42000E-01 1.02302E+00 1.39139E-13 1.14075E-13
 -1      2583 2.87328E+01-2.15945E+00 8.19134E-03 2.19936E+00 7.80903E-14 1.22791E-13
 -1      2584 1.89599E+01 3.98829E+00-9.27581E-03-1.47449E-01-4.16161E-14-6.50920E-14
 -1      2585 1.90129E+01 3.95942E+00-7.70334E-03-2.62900E-01-4.98711E-14-6.18229E-14
 -1      2586 1.91635E+01 3.62349E+00 1.77876E-03-2.56611E-01-4.15277E-14-5.12038E-14
 -1      2587 1.90517E+01 3.71078E+00 1.59921E-03-9.03333E-02-4.13274E-14-5.77251E-14
 -1      2588 3.27552E+01 6.71569E+00-9.85599E-02 6.26310E-01 1.89737E-13 2.74586E-13
 -1      2589 3.30742E+01 7.46619E+00-9.82984E-02 1.85863E-01 1.86184E-13 2.32508E-13
 -1      2590 2.82485E+01-3.16808E+00 1.97793E-02-2.12415E+00 1.52989E-13-9.85878E-14
 -1      2591 2.99179E+01-1.60539E+00-1.94589E-01-5.61498E-01 8.58237E-14-2.02532E-13
 -1      2592 3.17414E+01 3.19562E+00-6.98123E-02 7.51709E-01 2.88242E-13 3.03729E-13
 -1      2593 3.24956E+01 4.98082E+00-1.26562E-01 8.56535E-01 2.60236E-13 3.23852E-13
 -1      2594 2.96085E+01-1.41538E+00-2.63944E-02-1.34288E+00 1.72737E-13 1.74694E-13
 -1      2595 3.10543E+01 4.59089E-01-1.46042E-01-2.45095E-01 2.44041E-13 2.70700E-13
 -1      2596 2.46462E+01-4.56662E+00 7.25923E-03-4.41566E+00 1.70530E-13 1.22125E-13
 -1      2597 2.76699E+01-3.30308E+00-9.51317E-02-3.24478E+00 1.34642E-13 1.01669E-13
 -1      2598 1.71568E+01-5.60989E+00 7.74421E-03-6.60160E+00 1.16906E-13 4.43603E-14
 -1      2599 2.09554E+01-5.29170E+00-5.91832E-02-6.20413E+00 1.23346E-13 1.40526E-13
 -1      2600 1.02860E+01-4.83356E+00 5.33875E-02-6.49160E+00 2.23432E-14-4.73510E-14
 -1      2601 1.37096E+01-5.28600E+00 6.19641E-03-7.13079E+00 7.49401E-14 4.55191E-15
 -1      2602 4.65075E+00-3.42669E+00 6.90993E-02-3.61650E+00 1.56125E-14-2.87437E-13
 -1      2603 6.89854E+00-3.75204E+00 5.08043E-02-5.43395E+00 8.52096E-15-1.85296E-13
 -1      2604 3.14681E+00-2.85075E+00 7.12022E-02 7.44964E-01 1.14485E-13-3.20910E-13
 -1      2605 3.33735E+00-2.94420E+00 6.80141E-02-1.66966E+00 5.50671E-14-3.46723E-13
 -1      2606 6.17964E+00-3.61947E+00 3.37972E-02 4.91295E+00 1.15602E-13-1.93678E-13
 -1      2607 4.11156E+00-3.29001E+00 7.14013E-02 2.89125E+00 1.77650E-13-2.84051E-13
 -1      2608 1.35094E+01-4.81273E+00 1.66805E-02 6.82157E+00 6.60305E-14-1.70211E-13
 -1      2609 9.63876E+00-4.32973E+00 1.00176E-01 6.03842E+00 9.69225E-14-2.31731E-13
 -1      2610 2.28346E+01-5.24949E+00 9.76376E-03 5.54714E+00 1.38778E-16-7.39131E-14
 -1      2611 1.87345E+01-5.59769E+00 5.59807E-02 6.27865E+00 1.89293E-14-1.07445E-13
 -1      2612 2.85885E+01-2.87784E+00-4.34492E-02 2.88027E+00-1.12174E-13-7.72715E-14
 -1      2613 2.56553E+01-4.30883E+00-2.89648E-02 3.87774E+00-6.36713E-14-5.74540E-14
 -1      2614 3.17319E+01 6.09298E-01-1.23915E-01 3.21589E-01-1.85407E-13-4.76841E-14
 -1      2615 3.01626E+01-1.22562E+00-4.19476E-02 1.37977E+00-1.41356E-13-5.96190E-14
 -1      2616 2.91418E+01-2.66703E+00 2.49416E-02 1.07257E+00-8.21496E-14-4.49640E-14
 -1      2617 3.26121E+01 4.99012E+00-1.81596E-01-1.03436E+00-2.76057E-13-6.26166E-14
 -1      2618 3.23215E+01 3.20719E+00-5.04326E-02-7.91369E-01-2.27790E-13-5.17364E-14
 -1      2619 3.13114E+01 5.65796E+00-1.55046E-01 1.46134E+00-6.46150E-14-1.73611E-13
 -1      2620 3.17963E+01 6.60208E+00-1.53090E-01 8.21481E-01-1.52545E-13-1.61017E-13
 -1      2621 3.09140E+01 1.30435E+00-5.43282E-02 1.15817E+00 8.43769E-15-1.69420E-13
 -1      2622 3.15105E+01 3.52777E+00-1.71761E-01 1.50614E+00-3.99680E-15-7.45515E-14
 -1      2623 2.22146E+01-5.25382E+00 9.06953E-03-5.22507E+00 1.49880E-15 1.11272E-13
 -1      2624 2.55756E+01-4.46320E+00-9.90722E-02-4.18187E+00 1.01086E-13 1.42386E-14
 -1      2625 1.46715E+01-5.46425E+00 3.88644E-02-6.60917E+00 5.59552E-14 1.31270E-13
 -1      2626 1.85648E+01-5.48776E+00-3.44006E-02-6.56226E+00 3.22520E-14 2.66648E-13
 -1      2627 6.83901E+00-3.95500E+00 5.48235E-02-5.12760E+00-9.38138E-14-5.72875E-14
 -1      2628 1.04304E+01-4.73132E+00 2.88800E-03-6.59211E+00-9.57567E-14-1.38306E-13
 -1      2629 2.10153E+01 9.01860E-01-3.79257E-03 8.55613E-01 7.34100E-14-3.18283E-14
 -1      2630 2.12849E+01 1.26690E+00-4.85371E-03 1.37097E+00 8.01928E-14-1.01932E-14
 -1      2631 2.10632E+01 1.73063E+00-1.57712E-02 1.53118E+00 8.62175E-14-3.39798E-14
 -1      2632 2.09278E+01 1.11152E+00-1.00588E-02 7.92774E-01 6.70661E-14-3.97564E-14
 -1      2633 3.09290E+01 7.09358E+00-7.90257E-02-1.12174E-01 1.20459E-13 1.26826E-13
 -1      2634 1.97318E+01 3.12529E+00 2.63202E-03-6.47174E-01-6.05248E-14-1.60241E-14
 -1      2635 1.96814E+01 3.38907E+00-1.78230E-02-8.54253E-01-7.19686E-14-1.31180E-14
 -1      2636 1.98920E+01 3.21315E+00-1.73181E-02-1.02409E+00-8.69146E-14 3.41220E-15
 -1      2637 2.07233E+01 4.55887E-01-5.46605E-03-3.11411E-01 4.55473E-14-1.89627E-14
 -1      2638 2.07785E+01 2.15616E+00-1.27729E-02 1.45513E+00 8.56338E-14-5.80577E-14
 -1      2639 2.97578E+01-4.36819E-02-1.02634E-02-6.66663E-01 4.02733E-14-3.49443E-14
 -1      2640 7.58310E+00-2.39890E+00 1.57597E-01-4.12348E+00 1.72085E-14-5.63438E-15
 -1      2641 1.40347E+01-4.66924E+00 1.16305E-01-6.48174E+00 6.70297E-14-3.95101E-14
 -1      2642 1.42866E+01-4.63934E+00 9.59807E-02 6.64304E+00-2.84772E-14 3.77670E-13
 -1      2643 2.14487E+01-5.48843E+00 8.10830E-02-5.43353E+00 1.08608E-13 4.64073E-14
 -1      2644 1.99984E+01-2.01442E-03-1.95034E-05-4.91740E-03-3.35139E-14 5.65256E-13
 -1      2645 1.99989E+01-2.53047E-03 4.70886E-06-5.19408E-03-3.88936E-14 3.06176E-13
 -1      2646 2.96212E+01-5.85232E-01-4.35015E-02 9.40631E-01 7.16233E-14-1.84242E-13
 -1      2647 2.07591E+01 1.89080E+00 1.18588E-02 1.10042E+00 7.15851E-14-5.42179E-14
 -1      2648 7.22017E+00-2.52171E+00 1.48898E-01 4.42303E+00-7.36078E-14 3.04756E-13
 -1      2649 7.49514E+00-1.18586E+00 1.73403E-01 3.16738E+00-8.56953E-14 2.52853E-13
 -1      2650 9.93418E+00-2.44994E+00 1.21551E-01 5.20748E+00-9.63951E-14 4.63934E-13
 -1      2651 2.96450E+01 3.93161E+00-1.00162E-01 1.96613E+00-6.45317E-14-2.01450E-13
 -1      2652 2.03220E+01 2.73585E+00-8.60832E-03-1.20964E+00-9.29197E-14 2.42931E-14
 -1      2653 3.08408E+01 1.35371E+00-2.10188E-02-1.11477E+00-1.88266E-13-2.01505E-14
 -1      2654 2.12058E+01-5.40988E+00 3.73426E-02 5.57798E+00-4.26048E-14 4.57051E-13
 -1      2655 2.73919E+01-3.53360E+00 5.15666E-02 2.70742E+00 5.87030E-14 1.53322E-13
 -1      2656 2.50318E+01-5.16939E+00 1.23650E-02 3.86985E+00-2.25098E-14-1.14714E-13
 -1      2657 1.71994E+01-5.14671E+00 1.05887E-01 6.46020E+00 5.68989E-14-1.51622E-13
 -1      2658 1.58192E+01-4.21824E+00 1.22925E-01 6.28759E+00 1.06498E-13-1.88211E-13
 -1      2659 2.02965E+01-5.27892E+00-9.80622E-03 5.52345E+00 4.15917E-14-1.37515E-13
 -1      2660 9.52263E+00-3.07109E+00 1.55224E-01 5.38818E+00 1.17711E-13-2.55740E-13
 -1      2661 3.02705E+01 6.65939E+00-1.41374E-01 6.57501E-01-2.00062E-13-2.60007E-13
 -1      2662 2.95205E+01 6.08428E+00-2.26941E-01-1.12095E+00-2.09388E-13-2.74294E-13
 -1      2663 3.16732E+01 5.80141E+00-6.33724E-02-1.12090E+00-2.56128E-13-1.16976E-13
 -1      2664 2.95474E+01 4.42822E+00-8.48544E-02-1.78240E+00-1.75804E-13-1.37390E-13
 -1      2665 5.44491E+00-1.85245E+00 1.62561E-01 1.76797E+00 1.39784E-13-2.89380E-13
 -1      2666 5.88332E+00-1.95433E+00 1.69107E-01-2.61487E+00-2.77209E-14-2.74669E-13
 -1      2667 1.02537E+01-3.65464E+00 1.33216E-01-5.93895E+00-5.49560E-14-8.20732E-14
 -1      2668 1.69456E+01-5.26519E+00 9.30901E-02-6.67420E+00 1.41831E-14 4.80171E-14
 -1      2669 2.36266E+01-5.21111E+00 5.21643E-02-4.77369E+00 9.27036E-14 1.05166E-13
 -1      2670 2.84477E+01-2.92356E+00 1.56974E-02-1.41104E+00 1.29279E-13 2.24182E-13
 -1      2671 3.03265E+01 1.31783E+00-3.34428E-02 1.09843E+00 2.67716E-13 2.80165E-13
 -1      2672 3.05727E+01 4.40070E+00-1.25402E-01-1.60813E+00 3.49720E-14 6.01186E-14
 -1      2673 2.88808E+01 2.73650E+00-6.88050E-02-2.02362E+00 4.96270E-14-2.47163E-14
 -1      2674 2.91109E+01 5.15829E+00-2.17452E-01-1.74927E+00 5.37625E-14 2.61180E-14
 -1      2675 2.69469E+01-4.24367E+00 3.54175E-02-2.49516E+00 1.46730E-13-1.44856E-13
 -1      2676 3.07103E+01 5.52417E+00-6.33171E-02 1.32852E+00 2.58238E-13 2.35589E-13
 -1      2677 1.99981E+01-1.61664E-03-1.76393E-05 5.10375E-03-3.06716E-14 1.51885E-14
 -1      2678 1.99991E+01-2.64815E-03-2.10686E-06 5.42362E-03-1.68294E-13-1.69806E-13
 -1      2679 1.99994E+01-1.96967E-03 5.64374E-06 5.82910E-03-4.65436E-13 1.63418E-13
 -1      2680 1.99976E+01-1.16207E-03 3.11941E-06 5.56548E-03-1.39281E-13 1.65361E-13
 -1      2681 1.99991E+01-1.93096E-03 7.88410E-06-5.72666E-03 5.47146E-14 2.16900E-13
 -1      2682 1.99986E+01-1.11684E-03-2.16981E-05 5.98766E-03-3.12953E-13 3.15605E-13
 -1      2683 1.92844E+01 3.25610E+00-4.57859E-03 2.09140E-01 2.45415E-15-9.00894E-14
 -1      2684 1.91871E+01 3.33069E+00-6.95478E-03 1.26154E-01-2.70122E-15-8.69281E-14
 -1      2685 1.91185E+01 3.39842E+00-4.76053E-03 7.98930E-02-1.34956E-14-8.08264E-14
 -1      2686 1.90802E+01 3.42673E+00-5.94857E-03 4.36909E-03-1.41288E-14-5.90337E-14
 -1      2687 1.92256E+01 3.10278E+00 5.55618E-03 4.95833E-02 1.45711E-15-7.98682E-14
 -1      2688 1.99229E+01 2.62839E+00-8.02381E-03 5.34640E-01 4.80916E-14-7.60204E-14
 -1      2689 1.97314E+01 2.81901E+00-8.45282E-03 4.30420E-01 4.75221E-14-8.21179E-14
 -1      2690 2.03530E+01 2.10727E+00-9.32344E-03 6.91319E-01 4.35552E-14-6.73643E-14
 -1      2691 2.01320E+01 2.38654E+00-6.97874E-03 6.02731E-01 4.50130E-14-7.27335E-14
 -1      2692 2.01152E+01 2.19738E+00 6.31585E-03 3.58233E-01 4.66713E-14-7.83197E-14
 -1      2693 2.07059E+01 8.75089E-01-4.13446E-04 5.52384E-02 5.51169E-14-3.97770E-14
 -1      2694 2.07780E+01 1.07900E+00 9.37180E-03 3.63353E-01 4.51696E-14-3.92036E-14
 -1      2695 2.06886E+01 1.60849E+00-7.86597E-04 7.71031E-01 5.37456E-14-5.36316E-14
 -1      2696 2.06850E+01 5.91354E-01 1.28657E-03-4.09710E-01 2.81220E-14-1.83176E-14
 -1      2697 2.07004E+01 7.17703E-01 1.02303E-02-1.94556E-01 5.19402E-14-2.88367E-14
 -1      2698 2.06157E+01 1.02036E+00-1.09093E-03-4.72686E-02 4.16316E-14-4.02362E-14
 -1      2699 7.77414E+00-1.25052E+00 1.07471E-01-3.20868E+00 1.32450E-13 2.32592E-14
 -1      2700 1.00190E+01-2.46159E+00 1.05921E-01-5.29286E+00 5.26801E-14-1.04000E-13
 -1      2701 2.06001E+01 8.99976E-01 6.69733E-03 3.29367E-01-4.77233E-14 2.36323E-14
 -1      2702 2.05880E+01 7.72770E-01 3.47026E-04 5.62291E-01-2.45289E-14 3.27004E-14
 -1      2703 2.05803E+01 6.73714E-01 5.45348E-03 7.68509E-01-1.08716E-14 2.80179E-14
 -1      2704 2.06087E+01 5.86922E-01 1.66678E-03 9.47489E-01 3.24849E-15-7.01009E-15
 -1      2705 2.04337E+01 9.00882E-01-2.20838E-03 6.64138E-01-3.04645E-14 2.19551E-14
 -1      2706 2.06141E+01 5.10546E-01 4.10058E-03 1.11743E+00 1.46923E-14-1.51032E-14
 -1      2707 2.06856E+01 4.31512E-01 2.35739E-03 1.25442E+00 2.53891E-14-3.80960E-15
 -1      2708 2.04180E+01 6.86128E-01-3.12601E-03 1.05559E+00 8.85251E-17-1.65786E-14
 -1      2709 2.07198E+01 3.47691E-01 3.97955E-03 1.39305E+00 3.25281E-14-2.26557E-14
 -1      2710 2.08359E+01 2.47018E-01 2.31563E-03 1.48861E+00 3.17530E-15-2.81256E-14
 -1      2711 2.04456E+01 4.90794E-01-4.27325E-03 1.37833E+00 1.11184E-14-8.30323E-14
 -1      2712 2.09198E+01 1.28079E-01 5.58941E-03 1.59329E+00-1.91116E-14-1.03562E-14
 -1      2713 2.10866E+01-2.36103E-02 1.34298E-03 1.63631E+00-2.50616E-14-2.29256E-14
 -1      2714 2.05458E+01 2.47106E-01-6.59323E-03 1.63769E+00-4.92290E-15-8.10798E-14
 -1      2715 2.12527E+01-2.04300E-01 9.35897E-03 1.69279E+00-2.01581E-14-2.49804E-14
 -1      2716 2.14811E+01-4.33301E-01-1.20274E-03 1.65975E+00-1.25287E-14 6.92491E-15
 -1      2717 2.07647E+01-1.12912E-01-1.09883E-02 1.82173E+00-3.30823E-15-5.99288E-14
 -1      2718 2.17763E+01-6.93180E-01 1.54660E-02 1.63592E+00-2.12474E-14 3.42017E-14
 -1      2719 2.20750E+01-1.00717E+00-6.33524E-03 1.49137E+00-4.10475E-14 6.29978E-14
 -1      2720 2.11744E+01-6.50398E-01-1.80084E-02 1.89151E+00-8.28330E-16 3.68499E-15
 -1      2721 2.25492E+01-1.32818E+00 2.32681E-02 1.33019E+00-4.11372E-14 1.11262E-13
 -1      2722 2.29155E+01-1.68165E+00-1.26310E-02 1.03495E+00-3.78538E-14 9.41510E-14
 -1      2723 2.18708E+01-1.38421E+00-2.68534E-02 1.76352E+00-4.81082E-15 8.10146E-14
 -1      2724 2.35776E+01-1.96565E+00 2.86739E-02 6.67368E-01-5.55376E-14 1.19993E-13
 -1      2725 2.39671E+01-2.19304E+00-1.36262E-02 2.19410E-01-5.24390E-14 8.35950E-14
 -1      2726 2.28917E+01-2.21403E+00-4.91842E-02 1.28922E+00-1.49269E-14 1.34763E-13
 -1      2727 2.47724E+01-2.24394E+00 2.47698E-02-4.55089E-01-4.71337E-14 7.89982E-14
 -1      2728 2.50142E+01-2.04196E+00-2.50239E-02-1.00851E+00-9.06279E-15 5.77533E-14
 -1      2729 2.44091E+01-2.75499E+00-4.69582E-02 3.07584E-01-4.45772E-14 1.12131E-13
 -1      2730 2.55904E+01-1.50288E+00-4.36205E-02-1.74412E+00 5.83561E-14 6.81486E-14
 -1      2731 2.56650E+01-5.58783E-01-1.66537E-02-2.11749E+00 8.53866E-14 4.35346E-14
 -1      2732 2.57661E+01-2.23242E+00-3.73547E-02-1.08028E+00 1.19887E-14 1.97294E-13
 -1      2733 2.52309E+01 3.10765E+00-1.08338E-01-1.54238E+00-8.58619E-14 7.72854E-14
 -1      2734 2.51285E+01 3.82700E+00-5.79436E-02-6.53426E-01-1.69753E-13 7.55385E-14
 -1      2735 2.51201E+01 3.88224E+00-6.26162E-02 5.80318E-01-1.80446E-13 7.32261E-14
 -1      2736 2.52215E+01 3.27710E+00-1.03264E-01 1.49949E+00-1.45113E-13 1.05516E-13
 -1      2737 2.54409E+01 2.21874E+00-2.85346E-02 2.24879E+00-4.12656E-14 4.35572E-14
 -1      2738 2.56124E+01 8.75205E-01-1.02079E-01 2.53904E+00-1.31978E-14 6.23737E-14
 -1      2739 2.63216E+01 3.15117E+00-8.46685E-02 2.00008E+00-1.26371E-13 3.16275E-14
 -1      2740 2.55965E+01-2.82309E-01-1.20548E-02 2.33757E+00-3.43163E-14 6.35932E-14
 -1      2741 2.55820E+01-1.27443E+00-4.04983E-02 2.01276E+00-9.27036E-15 7.00863E-14
 -1      2742 2.64335E+01 2.76209E-01-4.78225E-02 2.47684E+00-1.95746E-14-4.18346E-14
 -1      2743 2.50804E+01-1.84299E+00-2.27812E-02 1.31343E+00 4.96131E-16 7.11900E-14
 -1      2744 2.48420E+01-2.11784E+00 5.77548E-03 7.73499E-01 4.62954E-14-2.84070E-14
 -1      2745 2.57840E+01-1.93337E+00-2.67282E-02 1.41400E+00-1.46359E-14-1.66395E-14
 -1      2746 2.41247E+01-2.12742E+00-2.31037E-02 1.23557E-01 7.18384E-14-6.30263E-14
 -1      2747 2.37695E+01-1.93393E+00 2.32471E-02-3.45955E-01 3.60341E-14-1.53483E-13
 -1      2748 2.45172E+01-2.55846E+00-2.56168E-02 5.10737E-02-2.52142E-15-6.93634E-14
 -1      2749 2.31116E+01-1.67347E+00-1.61928E-02-7.52785E-01 1.48946E-13-1.07696E-13
 -1      2750 2.27560E+01-1.32988E+00 2.14154E-02-1.05853E+00 2.30083E-13-9.42822E-14
 -1      2751 2.31833E+01-2.13529E+00-2.38783E-02-9.40797E-01 1.22289E-13-7.99439E-14
 -1      2752 2.22735E+01-1.02545E+00-8.81443E-03-1.24717E+00 1.88086E-13-7.23727E-14
 -1      2753 2.19747E+01-7.11024E-01 1.41722E-02-1.40208E+00 1.83416E-13-3.10355E-14
 -1      2754 2.21185E+01-1.37208E+00-1.84665E-02-1.45995E+00 2.24670E-13-1.12117E-13
 -1      2755 2.16616E+01-4.63925E-01-3.43987E-03-1.44792E+00 1.26442E-13-3.06416E-14
 -1      2756 2.14295E+01-2.37651E-01 8.02367E-03-1.49330E+00 7.43077E-14-2.10646E-14
 -1      2757 2.13888E+01-6.70463E-01-1.15327E-02-1.64146E+00 1.48310E-13-2.20921E-14
 -1      2758 2.12398E+01-7.24813E-02-2.99317E-04-1.45858E+00 4.67537E-14-6.73984E-14
 -1      2759 2.10624E+01 6.65193E-02 3.75459E-03-1.43481E+00-2.10638E-14-7.45260E-14
 -1      2760 2.09297E+01-1.64869E-01-6.16384E-03-1.62178E+00 3.50592E-14-4.72880E-15
 -1      2761 2.09505E+01 1.60825E-01 1.37138E-03-1.35939E+00-5.91379E-14 4.53294E-15
 -1      2762 2.08126E+01 2.33319E-01 1.21051E-03-1.29712E+00 2.99885E-15 1.78450E-14
 -1      2763 2.06517E+01 1.46738E-01-2.75629E-03-1.49589E+00 7.21051E-15 7.76657E-15
 -1      2764 2.07456E+01 2.76975E-01 2.21001E-03-1.20478E+00 4.09732E-14 8.64385E-14
 -1      2765 2.06354E+01 3.05201E-01-1.81068E-04-1.12507E+00-8.32282E-14 1.25510E-13
 -1      2766 2.04826E+01 3.09957E-01-8.69941E-04-1.32063E+00-4.32633E-15 4.44227E-14
 -1      2767 2.05929E+01 3.16812E-01 2.56134E-03-1.02970E+00-2.27990E-13 1.81060E-13
 -1      2768 2.05027E+01 3.18419E-01-8.49055E-04-9.45962E-01-1.66135E-13 5.66037E-14
 -1      2769 2.03744E+01 3.73986E-01 2.99653E-05-1.12937E+00-1.19393E-13 2.21679E-14
 -1      2770 2.04734E+01 3.11801E-01 2.61969E-03-8.55437E-01-1.60125E-13 1.31310E-13
 -1      2771 2.03987E+01 2.99041E-01-1.09404E-03-7.75612E-01-2.23684E-13 1.29418E-13
 -1      2772 2.02995E+01 3.78017E-01 3.75727E-04-9.41515E-01-1.50512E-13 8.30598E-14
 -1      2773 2.03765E+01 2.83372E-01 2.49724E-03-6.94066E-01-1.73682E-13 7.20739E-14
 -1      2774 2.03147E+01 2.64069E-01-1.10972E-03-6.22334E-01-4.10080E-14-8.22687E-15
 -1      2775 2.02428E+01 3.49427E-01 4.40941E-04-7.67984E-01-2.23354E-13 8.89399E-14
 -1      2776 2.02968E+01 2.44981E-01 2.26943E-03-5.51545E-01 1.89250E-14 5.50686E-14
 -1      2777 2.02460E+01 2.23803E-01-1.01277E-03-4.89651E-01-4.57221E-14 7.86637E-14
 -1      2778 2.01969E+01 3.05824E-01 3.83490E-04-6.14264E-01 1.35508E-14 1.46331E-13
 -1      2779 2.02310E+01 2.04510E-01 1.98965E-03-4.29932E-01-6.38093E-14 3.83847E-14
 -1      2780 2.01898E+01 1.84048E-01-8.70253E-04-3.78130E-01-4.24524E-14-7.53609E-14
 -1      2781 2.01586E+01 2.57793E-01 2.87116E-04-4.82340E-01-8.08152E-14 9.44302E-14
 -1      2782 2.01771E+01 1.66226E-01 1.69482E-03-3.28921E-01 1.13687E-13-5.11722E-14
 -1      2783 2.01441E+01 1.47774E-01-7.18658E-04-2.86615E-01 1.64646E-13 9.86013E-14
 -1      2784 2.01261E+01 2.11256E-01 1.91513E-04-3.71985E-01-1.13394E-14-1.07884E-13
 -1      2785 2.01335E+01 1.32172E-01 1.40909E-03-2.46887E-01 8.01540E-14 1.65763E-13
 -1      2786 2.01075E+01 1.16251E-01-5.76347E-04-2.13052E-01-1.93254E-14 2.38875E-13
 -1      2787 2.00988E+01 1.69201E-01 1.12346E-04-2.81670E-01 1.31877E-13 1.53026E-13
 -1      2788 2.00988E+01 1.03079E-01 1.14687E-03-1.81567E-01-2.30869E-13 2.02438E-13
 -1      2789 2.00787E+01 8.97696E-02-4.51359E-04-1.55011E-01-2.56197E-13 1.24513E-13
 -1      2790 2.00761E+01 1.32854E-01 5.32514E-05-2.09181E-01-1.34840E-13 1.22704E-13
 -1      2791 2.00716E+01 7.89503E-02 9.15532E-04-1.30493E-01-1.38637E-13 1.23330E-13
 -1      2792 2.00563E+01 6.80954E-02-3.46098E-04-1.10016E-01-1.66388E-13 5.97437E-14
 -1      2793 2.00576E+01 1.02426E-01 1.25385E-05-1.52038E-01-1.57309E-13 1.49190E-13
 -1      2794 2.00506E+01 5.94040E-02 7.17575E-04-9.12474E-02-2.41841E-13 6.23734E-14
 -1      2795 2.00392E+01 5.07333E-02-2.60078E-04-7.57320E-02-1.16786E-13 2.31348E-14
 -1      2796 2.00428E+01 7.75801E-02-1.33300E-05-1.07765E-01-2.25484E-13 9.81391E-14
 -1      2797 2.00348E+01 4.38856E-02 5.52400E-04-6.16121E-02-4.11951E-14-8.46832E-14
 -1      2798 2.00265E+01 3.70866E-02-1.91485E-04-5.00651E-02 1.82561E-14-1.28184E-13
 -1      2799 2.00311E+01 5.77129E-02-2.80795E-05-7.40449E-02-1.04497E-13 3.88275E-14
 -1      2800 2.00231E+01 3.17865E-02 4.17574E-04-3.96357E-02 1.56847E-13-1.37449E-13
 -1      2801 2.00172E+01 2.65449E-02-1.38035E-04-3.12066E-02 1.08380E-13-9.15150E-14
 -1      2802 2.00221E+01 4.21195E-02-3.49293E-05-4.88116E-02 6.80308E-14 5.56689E-14
 -1      2803 2.00147E+01 2.25094E-02 3.09739E-04-2.36576E-02-4.02811E-14-5.26526E-14
 -1      2804 2.00106E+01 1.85301E-02-9.74461E-05-1.76390E-02-3.30736E-14-1.88960E-13
 -1      2805 2.00153E+01 3.00870E-02-3.64328E-05-3.02825E-02-1.13070E-14-1.58646E-13
 -1      2806 2.00087E+01 1.55019E-02 2.25213E-04-1.23038E-02-1.45948E-14-2.49131E-13
 -1      2807 2.00061E+01 1.25179E-02-6.77042E-05-8.12306E-03-1.48671E-13-1.17820E-13
 -1      2808 2.00102E+01 2.09443E-02-3.45285E-05-1.69646E-02-3.39548E-14-2.46174E-13
 -1      2809 2.00047E+01 1.02682E-02 1.60348E-04-4.46784E-03-1.44225E-13-1.10612E-13
 -1      2810 2.00031E+01 8.04303E-03-4.71396E-05-1.67496E-03 5.91483E-14-9.73460E-14
 -1      2811 2.00065E+01 1.40833E-02-3.05965E-05-7.64066E-03-1.17858E-13 1.67000E-14
 -1      2812 2.00021E+01 6.37187E-03 1.11973E-04 7.15687E-04 2.92645E-13-8.73729E-14
 -1      2813 2.00012E+01 4.69522E-03-3.42564E-05 2.46327E-03 2.78092E-13-5.44320E-15
 -1      2814 2.00040E+01 8.96521E-03-2.56349E-05-1.34579E-03 1.16290E-13 8.57541E-14
 -1      2815 2.00006E+01 3.43131E-03 7.93792E-05 3.89937E-03 1.08290E-13 1.12685E-13
 -1      2816 2.00001E+01 2.11314E-03-2.80731E-05 4.85555E-03 3.59322E-14 2.96657E-13
 -1      2817 2.00022E+01 5.11621E-03-2.00890E-05 2.65503E-03 3.26427E-13 2.49389E-14
 -1      2818 1.99997E+01 1.07475E-03 5.31831E-05 5.54063E-03-1.22739E-13 2.66379E-13
 -1      2819 1.99996E+01 2.54142E-05-9.66154E-06 5.85130E-03-2.68995E-13 3.79159E-13
 -1      2820 2.00010E+01 2.05842E-03-3.15777E-05 4.93988E-03-7.22515E-14 3.80175E-13
 -1      2821 2.10468E+01 8.42356E-02-7.91166E-05-1.14724E+00 2.31653E-14-1.85238E-14
 -1      2822 2.09221E+01 1.75735E-01 5.39069E-03-1.09469E+00 1.87641E-14-1.88342E-14
 -1      2823 2.00003E+01-1.21580E-03-1.01685E-05-5.84854E-03-8.84556E-14 1.29144E-14
 -1      2824 1.99992E+01-9.22549E-04-4.30630E-06-5.79445E-03-9.94345E-14 2.39882E-13
 -1      2825 1.99990E+01-1.22525E-04 1.85814E-05-5.92158E-03-8.50101E-14 1.63931E-13
 -1      2826 2.08493E+01 2.53534E-01 1.23554E-03-9.96851E-01 1.67399E-14-1.80221E-14
 -1      2827 2.07640E+01 3.31688E-01 5.89173E-03-8.95339E-01 2.93939E-14-9.41199E-15
 -1      2828 2.07220E+01 2.80250E-01-5.13326E-03-1.12214E+00 2.62554E-14-2.43768E-14
 -1      2829 2.16932E+01-4.34733E-01-6.17503E-03-1.09162E+00-6.04614E-14 1.31191E-14
 -1      2830 2.15114E+01-2.71704E-01 8.06624E-03-1.17418E+00-2.43804E-14 2.02899E-14
 -1      2831 2.21507E+01-7.98801E-01-1.09285E-02-8.07461E-01 5.48090E-14-5.63661E-14
 -1      2832 2.19570E+01-6.04540E-01 1.06113E-02-9.86490E-01-3.99225E-15 5.61942E-16
 -1      2833 2.15953E+01-6.43167E-01-1.10247E-02-1.23685E+00 9.06176E-16-1.13534E-14
 -1      2834 2.26769E+01-1.15738E+00-1.52761E-02-2.95935E-01 8.67032E-14-3.36288E-14
 -1      2835 2.24955E+01-9.79615E-01 1.21171E-02-5.81812E-01 6.58342E-14-4.22689E-14
 -1      2836 2.21622E+01-1.10691E+00-1.24447E-02-9.29657E-01 6.84175E-14 1.65926E-15
 -1      2837 2.31974E+01-1.33941E+00-1.63511E-02 4.36233E-01 9.00781E-14 1.97911E-14
 -1      2838 2.30686E+01-1.27928E+00 9.31535E-03 6.80586E-02 9.33706E-14 5.76253E-15
 -1      2839 2.28655E+01-1.52166E+00-9.39280E-03-3.57323E-01 6.41494E-14 2.50119E-14
 -1      2840 2.35765E+01-1.08101E+00-6.77779E-03 1.26684E+00 8.20557E-15 7.34532E-14
 -1      2841 2.35420E+01-1.28457E+00-2.89951E-03 9.05282E-01 6.29267E-14 4.58535E-14
 -1      2842 2.36034E+01-1.64698E+00-1.21245E-03 4.82230E-01 4.95940E-14 4.87631E-14
 -1      2843 2.36490E+01-1.86826E-01 1.42627E-02 1.84937E+00 4.27804E-14 1.04330E-13
 -1      2844 2.37090E+01-7.23212E-01-2.57397E-02 1.67757E+00 1.46064E-15 9.83384E-14
 -1      2845 2.41347E+01-1.13877E+00 4.60761E-03 1.44050E+00 1.18867E-14 1.52040E-13
 -1      2846 2.33467E+01 1.15868E+00 1.33464E-02 1.76057E+00 1.12688E-13 1.07202E-13
 -1      2847 2.34840E+01 4.32114E-01-5.28293E-02 1.94898E+00 9.35059E-14 1.17759E-13
 -1      2848 2.42416E+01 9.36922E-02 1.15665E-02 2.06794E+00 7.19511E-14 1.37401E-13
 -1      2849 2.29679E+01 2.20786E+00-1.02388E-02 7.50561E-01 1.43333E-13 4.23116E-14
 -1      2850 2.30783E+01 1.75911E+00-4.97329E-02 1.29612E+00 1.07230E-13 9.42404E-14
 -1      2851 2.39335E+01 1.75977E+00 3.47116E-03 1.71678E+00 1.36367E-13 8.20524E-14
 -1      2852 2.29627E+01 2.20977E+00-2.85615E-02-7.63519E-01 7.42800E-14 1.82961E-14
 -1      2853 2.29228E+01 2.38657E+00-8.65811E-03-1.10533E-01 1.74619E-13 2.07443E-14
 -1      2854 2.36270E+01 2.86364E+00-1.34211E-02 3.63761E-01 1.69061E-13 4.94969E-14
 -1      2855 2.33138E+01 1.15783E+00-4.82786E-02-1.85219E+00-6.19695E-14-3.83320E-14
 -1      2856 2.31721E+01 1.79200E+00 1.42412E-02-1.45220E+00-1.03285E-14-3.13386E-14
 -1      2857 2.37639E+01 2.47547E+00-2.83547E-02-1.24387E+00 7.31117E-14 8.34445E-15
 -1      2858 2.37009E+01-1.79698E-01-3.56702E-02-2.02802E+00-1.41217E-13 1.22231E-14
 -1      2859 2.35651E+01 4.80382E-01 1.51869E-02-2.03327E+00-1.25819E-13-1.74256E-14
 -1      2860 2.41457E+01 1.01404E+00-2.41285E-03-2.13181E+00-1.19914E-13-9.45945E-15
 -1      2861 2.37493E+01-1.06104E+00-1.29462E-02-1.45914E+00-4.55485E-14-2.43220E-14
 -1      2862 2.37093E+01-6.91431E-01-6.01947E-04-1.74778E+00-9.01787E-14-5.61834E-15
 -1      2863 2.42963E+01-5.51949E-01 1.14158E-02-1.94123E+00-1.21640E-13 9.45867E-14
 -1      2864 2.34241E+01-1.30650E+00 5.81640E-03-6.23242E-01-1.57509E-14-5.53657E-14
 -1      2865 2.34956E+01-1.25316E+00-1.21733E-02-9.97587E-01-2.35987E-14 1.06427E-14
 -1      2866 2.39639E+01-1.45087E+00 6.54508E-03-1.11068E+00-3.29738E-14 6.63666E-14
 -1      2867 2.28992E+01-1.12219E+00 1.20515E-02 1.21992E-01 8.06299E-15 1.65475E-14
 -1      2868 2.30452E+01-1.25579E+00-1.57673E-02-2.05182E-01-1.26127E-14-3.23467E-14
 -1      2869 2.32984E+01-1.60433E+00-3.95098E-03-1.97292E-01 4.11216E-15 9.22288E-14
 -1      2870 2.23485E+01-7.68655E-01 1.14259E-02 6.38029E-01-9.14669E-14 2.13599E-13
 -1      2871 2.25263E+01-9.60290E-01-1.33914E-02 4.10327E-01-4.61874E-14 5.89972E-14
 -1      2872 2.25658E+01-1.29884E+00-1.05517E-02 5.03662E-01-5.82915E-14 9.96566E-14
 -1      2873 2.18646E+01-4.19267E-01 8.64571E-03 9.25013E-01-4.24107E-15 1.77395E-13
 -1      2874 2.20439E+01-5.93190E-01-8.76221E-03 7.97027E-01-3.03271E-14 2.46757E-13
 -1      2875 2.19283E+01-8.46619E-01-1.09843E-02 9.29932E-01-3.28754E-14 4.78194E-14
 -1      2876 2.14711E+01-1.47195E-01 5.65919E-03 1.03487E+00-4.40884E-14 1.17397E-13
 -1      2877 2.16375E+01-2.75961E-01-4.51049E-03 9.86052E-01-1.20685E-14 2.23257E-13
 -1      2878 2.14355E+01-4.30974E-01-8.65553E-03 1.13004E+00-1.25334E-16 2.86481E-14
 -1      2879 2.11605E+01 3.39552E-02 3.25684E-03 1.02559E+00 2.11896E-14 8.22600E-14
 -1      2880 2.13091E+01-4.81583E-02-1.35336E-03 1.03101E+00 4.46139E-14 1.43133E-13
 -1      2881 2.10757E+01-1.19836E-01-5.92564E-03 1.17157E+00-1.24975E-14 1.22112E-14
 -1      2882 2.09159E+01 1.38071E-01 1.60359E-03 9.45570E-01 9.99682E-14-1.28326E-14
 -1      2883 2.10460E+01 9.33424E-02 6.93588E-04 9.83582E-01 4.15835E-14 1.75658E-14
 -1      2884 2.08175E+01 8.10031E-02-3.82686E-03 1.11435E+00 1.01298E-13-7.59210E-14
 -1      2885 2.07216E+01 1.86392E-01 5.94549E-04 8.29955E-01-4.03224E-14 1.17737E-13
 -1      2886 2.08338E+01 1.67804E-01 1.89270E-03 8.84357E-01 4.62200E-14 1.07052E-13
 -1      2887 2.06302E+01 1.92471E-01-2.45331E-03 1.00271E+00 3.06137E-14-1.64583E-14
 -1      2888 2.05655E+01 1.98423E-01 3.80605E-05 7.02224E-01 2.74310E-14-1.04593E-13
 -1      2889 2.06610E+01 1.96339E-01 2.49001E-03 7.62019E-01-2.55140E-15 3.75936E-15
 -1      2890 2.04907E+01 2.40766E-01-1.63672E-03 8.66916E-01 1.17649E-14-3.75646E-14
 -1      2891 2.04395E+01 1.89101E-01-2.30180E-04 5.76918E-01 1.27031E-13-1.78261E-13
 -1      2892 2.05195E+01 1.96398E-01 2.67922E-03 6.35286E-01 9.28223E-14-1.58636E-13
 -1      2893 2.03837E+01 2.48693E-01-1.17914E-03 7.26448E-01 8.72787E-14-1.89319E-13
 -1      2894 2.03377E+01 1.68757E-01-3.29496E-04 4.62224E-01 2.73482E-14 2.11906E-15
 -1      2895 2.04037E+01 1.80625E-01 2.60883E-03 5.15367E-01 5.11011E-14-8.89874E-14
 -1      2896 2.02996E+01 2.33301E-01-9.24817E-04 5.93068E-01 4.19057E-14-1.93726E-13
 -1      2897 2.02559E+01 1.44025E-01-3.37823E-04 3.62040E-01 6.09062E-14 1.45739E-13
 -1      2898 2.03094E+01 1.57436E-01 2.38732E-03 4.08202E-01 4.97252E-14 2.73289E-14
 -1      2899 2.02324E+01 2.06230E-01-7.73886E-04 4.73167E-01-2.93050E-14 7.13417E-14
 -1      2900 2.01909E+01 1.18883E-01-3.02521E-04 2.77521E-01 1.33060E-13 3.06567E-13
 -1      2901 2.02335E+01 1.32063E-01 2.09102E-03 3.16242E-01 3.26950E-14 1.97604E-13
 -1      2902 2.01786E+01 1.74897E-01-6.70108E-04 3.69541E-01-1.21348E-14-2.69184E-14
 -1      2903 2.01397E+01 9.55216E-02-2.50657E-04 2.08175E-01 1.31019E-13 3.58342E-13
 -1      2904 2.01731E+01 1.07526E-01 1.77098E-03 2.39761E-01 1.84665E-13 4.26013E-13
 -1      2905 2.01355E+01 1.43708E-01-5.85562E-04 2.82686E-01 6.28165E-14 2.20706E-13
 -1      2906 2.01002E+01 7.49893E-02-1.96674E-04 1.52609E-01 2.87496E-13 3.44825E-13
 -1      2907 2.01258E+01 8.53979E-02 1.45922E-03 1.77768E-01 2.52901E-13 4.20396E-13
 -1      2908 2.01013E+01 1.15060E-01-5.08551E-04 2.11714E-01 1.93745E-13 5.22125E-13
 -1      2909 2.00700E+01 5.76340E-02-1.47551E-04 1.09017E-01 1.47439E-14 2.77744E-13
 -1      2910 2.00893E+01 6.63427E-02 1.17405E-03 1.28636E-01 1.88438E-13 2.89859E-13
 -1      2911 2.00744E+01 9.00611E-02-4.35606E-04 1.54995E-01 2.64810E-13 6.13678E-13
 -1      2912 2.00474E+01 4.33982E-02-1.06079E-04 7.54949E-02-7.68930E-14 1.36535E-13
 -1      2913 2.00617E+01 5.04822E-02 9.24377E-04 9.04873E-02-1.13068E-14 2.36106E-13
 -1      2914 2.00535E+01 6.90346E-02-3.66793E-04 1.10576E-01 6.56242E-14 3.40680E-13
 -1      2915 2.00309E+01 3.20077E-02-7.28355E-05 5.02149E-02 5.50924E-14 2.16095E-13
 -1      2916 2.00412E+01 3.76348E-02 7.12910E-04 6.14457E-02-8.53073E-14 1.42643E-13
 -1      2917 2.00376E+01 5.18514E-02-3.03256E-04 7.64574E-02-6.64665E-14 5.73011E-14
 -1      2918 2.00191E+01 2.30890E-02-4.73391E-05 3.15309E-02-9.87331E-14 1.59070E-13
 -1      2919 2.00262E+01 2.74659E-02 5.38592E-04 3.97708E-02 9.11201E-14 2.39801E-13
 -1      2920 2.00257E+01 3.81431E-02-2.46075E-04 5.07495E-02 6.64623E-15 1.55237E-13
 -1      2921 2.00109E+01 1.62386E-02-2.87236E-05 1.80208E-02-2.10032E-13 3.96282E-14
 -1      2922 2.00157E+01 1.95799E-02 3.98227E-04 2.39290E-02-2.88411E-13 9.44150E-14
 -1      2923 2.00169E+01 2.74347E-02-1.95862E-04 3.17628E-02-1.18104E-13 2.56627E-13
 -1      2924 2.00054E+01 1.10624E-02-1.61075E-05 8.49956E-03 8.17778E-14-1.13841E-13
 -1      2925 2.00085E+01 1.35736E-02 2.87625E-04 1.26199E-02-4.90495E-15-2.27933E-14
 -1      2926 2.00107E+01 1.92236E-02-1.52776E-04 1.80457E-02-8.04625E-14-1.27574E-14
 -1      2927 2.00020E+01 7.19404E-03-8.88411E-06 2.01104E-03 6.18968E-14-1.84303E-13
 -1      2928 2.00038E+01 9.06373E-03 2.02308E-04 4.77758E-03 6.01397E-14-1.60048E-13
 -1      2929 2.00063E+01 1.30230E-02-1.16592E-04 8.39221E-03 1.34681E-13-2.45499E-13
 -1      2930 2.00000E+01 4.30581E-03-3.35979E-06-2.18598E-03-2.53588E-14-1.94521E-13
 -1      2931 2.00009E+01 5.69901E-03 1.37828E-04-4.42308E-04-3.85699E-14-2.29512E-13
 -1      2932 2.00033E+01 8.38257E-03-8.63588E-05 1.83238E-03 3.78941E-14-2.44189E-13
 -1      2933 1.99990E+01 2.12886E-03 1.65409E-05-4.62215E-03-1.09017E-13 4.16750E-15
 -1      2934 1.99993E+01 3.13928E-03 8.33141E-05-3.68850E-03-2.16909E-14-5.97817E-14
 -1      2935 2.00014E+01 4.91181E-03-5.72789E-05-2.38583E-03-9.61417E-14-3.80211E-13
 -1      2936 1.99990E+01 6.42335E-04 1.55346E-05-5.60871E-03-4.59674E-14 1.25164E-13
 -1      2937 1.99990E+01 1.47201E-03 3.77872E-05-5.24790E-03-1.38069E-13 1.30838E-13
 -1      2938 2.00007E+01 2.52468E-03-4.84890E-05-4.59983E-03-1.56023E-13-1.28561E-13
 -1      2939 2.00007E+01 7.66447E-04-3.00335E-05-5.55467E-03-1.61843E-13-6.04292E-14
 -1      2940 2.00028E+01-6.06246E-04-4.02284E-06-3.37881E-04-3.82614E-14-3.36716E-13
 -1      2941 2.00028E+01-5.99913E-04 1.51396E-06-1.01210E-03-9.58744E-14-5.02811E-13
 -1      2942 1.99994E+01-6.35218E-04 1.80044E-05 5.98253E-03-3.98460E-13 3.55072E-13
 -1      2943 1.99995E+01-1.27419E-03-7.63484E-07 5.89046E-03-4.15884E-13 3.21645E-13
 -1      2944 2.00002E+01-1.67357E-03-7.37734E-06 5.85649E-03-6.05912E-13 4.21569E-13
 -1      2945 2.00004E+01-3.12050E-05-1.88833E-05 5.78591E-03-1.94020E-13 4.96102E-13
 -1      2946 2.00026E+01-1.02850E-03-7.77690E-06-2.98476E-03 1.76680E-13-3.37898E-13
 -1      2947 2.00024E+01-9.82077E-04 8.30853E-06-3.61427E-03 3.26392E-13-2.98675E-13
 -1      2948 2.00028E+01-6.13875E-04 1.93310E-06 9.84413E-04-1.01263E-13-5.00207E-13
 -1      2949 2.00028E+01-6.12968E-04-4.58176E-06 3.07609E-04-1.34816E-13-3.03051E-13
 -1      2950 2.00034E+01 2.09015E-03 2.95775E-05-1.96995E-05-5.52729E-14-4.06440E-13
 -1      2951 2.00028E+01-7.61311E-04-7.87461E-06-1.66247E-03-1.41500E-13-5.47976E-13
 -1      2952 2.00027E+01-7.42413E-04 7.19250E-06-2.32732E-03 7.44797E-14-3.14529E-13
 -1      2953 2.00033E+01 1.47820E-03 2.16756E-05-2.54261E-03 1.29896E-13-4.35810E-13
 -1      2954 2.00034E+01 1.93328E-03 2.75466E-05-1.27004E-03 3.69207E-14-5.52236E-13
 -1      2955 2.03095E+01-5.24960E+00 1.13328E-01-5.47780E+00 6.61970E-14 8.80372E-14
 -1      2956 2.31235E+01-5.43414E+00-6.44284E-02-4.49554E+00 1.64868E-14-3.79488E-14
 -1      2957 2.00027E+01-7.69564E-04 7.28872E-06 2.28969E-03-8.16239E-14-2.93682E-13
 -1      2958 2.00028E+01-7.84154E-04-8.63392E-06 1.62957E-03-1.10625E-13-3.49195E-13
 -1      2959 2.00034E+01 1.91265E-03 2.74245E-05 1.22616E-03-1.08934E-13-4.65880E-13
 -1      2960 2.00025E+01-1.01474E-03 9.12648E-06 3.59629E-03-7.11773E-14-3.27394E-13
 -1      2961 2.00026E+01-1.06255E-03-8.30456E-06 2.95870E-03-7.89984E-14-2.46065E-13
 -1      2962 2.00033E+01 1.44336E-03 2.06362E-05 2.50548E-03-2.20457E-13-3.23594E-13
 -1      2963 2.00019E+01-1.25271E-03 5.97830E-06 4.77957E-03-2.77243E-13 2.40464E-13
 -1      2964 2.00022E+01-1.34426E-03-3.08388E-06 4.24227E-03-2.25979E-14-6.45891E-14
 -1      2965 2.00029E+01 7.93088E-04 1.05595E-05 3.80759E-03-6.29049E-14-9.97721E-14
 -1      2966 2.00008E+01-1.47427E-03-8.80410E-08 5.55226E-03-6.00371E-13 5.23659E-13
 -1      2967 2.00014E+01-1.64275E-03 7.97760E-07 5.22124E-03-4.17677E-13 4.90593E-13
 -1      2968 2.00021E+01 1.56621E-05-1.33816E-05 4.91122E-03-1.26496E-13 2.04350E-13
 -1      2969 2.00010E+01-6.23001E-04-4.98323E-06 5.62632E-03-3.21772E-13 5.67067E-13
 -1      2970 2.79992E+01 1.87950E+00-9.87760E-02 2.59820E+00-9.19820E-14-9.13436E-14
 -1      2971 2.75856E+01 3.64968E+00-1.65439E-01 2.13890E+00-1.19918E-13-1.40277E-13
 -1      2972 1.31332E+01-3.66400E+00 1.32089E-01-6.08482E+00 2.45221E-14-1.85602E-13
 -1      2973 1.67358E+01-4.79357E+00 1.54548E-03-6.36342E+00 1.39666E-13 8.83182E-14
 -1      2974 2.07294E+01 4.07010E-01 1.69557E-03-7.52781E-01 1.87755E-14-1.88293E-14
 -1      2975 2.06916E+01 4.94118E-01 7.75734E-03-6.01207E-01 1.01271E-14-1.42222E-14
 -1      2976 2.05981E+01 7.03192E-01-2.94647E-03-5.10403E-01 1.10386E-14-3.27397E-14
 -1      2977 2.06271E+01 4.80399E-01-3.97044E-03-8.63532E-01 1.83832E-14-3.55436E-14
 -1      2978 2.05687E+01 1.87595E+00-9.14597E-03-7.93095E-01-7.78804E-14 3.22266E-14
 -1      2979 2.05945E+01 1.51960E+00-3.28509E-03-4.53338E-01-7.30319E-14 2.58177E-14
 -1      2980 2.36452E+01-5.31965E+00-5.68291E-02 4.50716E+00-4.74898E-14 2.94771E-13
 -1      2981 2.05439E+01-5.20250E+00 9.59273E-02 5.47221E+00-3.94407E-14 3.92000E-13
 -1      2982 7.00035E+00-4.51097E-01 1.40203E-01 9.10147E-01-5.35683E-15 6.64746E-14
 -1      2983 7.08197E+00-4.28756E-01 1.80119E-01-1.00378E+00 4.38816E-14-1.43191E-13
 -1      2984 2.13259E+01-1.37652E-01-2.49386E-03-1.18976E+00-1.53860E-14-1.68141E-14
 -1      2985 2.11687E+01-1.52134E-02 6.13093E-03-1.19597E+00 6.03201E-15-2.84608E-14
 -1      2986 2.08993E+01 5.16146E-02-6.57515E-03-1.28561E+00 9.62593E-15-2.45767E-14
 -1      2987 2.11815E+01-2.48850E-01-8.57822E-03-1.33658E+00-4.40273E-14 1.39850E-14
 -1      2988 2.06323E+01 1.25584E+00 4.21965E-03-1.95409E-01-6.59611E-14 2.71852E-14
 -1      2989 2.05949E+01 1.05086E+00-1.71062E-03 1.07388E-01-6.34644E-14 2.88402E-14
 -1      2990 2.04573E+01 1.20203E+00 4.28408E-04 2.16376E-01-5.92698E-14 1.89297E-14
 -1      2991 2.04443E+01 1.65090E+00 1.24895E-03-2.75908E-01-6.87428E-14 2.80064E-14
 -1      2992 1.95595E+01 3.00248E+00-5.55847E-03 3.62821E-01 4.32578E-14-7.80842E-14
 -1      2993 1.94086E+01 3.13032E+00-7.92508E-03 2.66475E-01 2.40906E-14-7.70970E-14
 -1      2994 1.94296E+01 2.91610E+00 5.63380E-03 1.37600E-01 1.63953E-14-7.06666E-14
 -1      2995 1.97368E+01 2.61645E+00 6.12297E-03 2.45363E-01 4.41261E-14-6.87084E-14
 -1      2996 2.63333E+01-4.66918E+00-6.27648E-02 2.43828E+00-5.05845E-15-9.31200E-15
 -1      2997 2.39030E+01-5.18413E+00 9.52774E-03 3.81475E+00 4.11338E-14-5.22152E-14
 -1      2998 2.94888E+01 1.79058E+00-1.86168E-01-1.98127E+00-1.27023E-13-4.37150E-15
 -1      2999 2.95766E+01-2.96834E-01-5.22861E-02-1.25876E+00-1.08955E-13 6.48093E-14
 -1      3000 1.93664E+01 3.17672E+00-7.74832E-03-2.77187E-01-4.42485E-14-5.37563E-14
 -1      3001 1.95143E+01 3.05400E+00-5.50427E-03-3.65871E-01-5.13532E-14-4.11270E-14
 -1      3002 2.56290E+01-4.86814E+00 7.13855E-02-2.87163E+00 3.08364E-14-1.43496E-13
 -1      3003 2.71848E+01-4.10721E+00-1.62219E-01-1.27057E+00 9.21867E-14-1.23193E-13
 -1      3004 2.43741E+01-4.95347E+00 4.66804E-02-3.21025E+00-9.69225E-14-1.07803E-13
 -1      3005 2.87871E+01-2.04823E-01-2.44259E-02 1.36704E+00 2.20199E-13 2.66509E-13
 -1      3006 2.87629E+01 1.83970E+00-2.12194E-01 1.85542E+00 2.98178E-13 2.07626E-13
 -1      3007 2.71851E+01-3.89916E+00 4.32866E-02-1.60862E+00 1.20973E-13 1.92416E-13
 -1      3008 2.81717E+01-2.56495E+00-1.80839E-01-1.78735E-01 1.56953E-13 2.40391E-13
 -1      3009 2.21904E+01-5.35025E+00 9.26733E-02-5.03558E+00 6.93889E-15 7.90618E-14
 -1      3010 2.48958E+01-5.12587E+00-1.17218E-01-3.61474E+00 7.79654E-14 9.95454E-14
 -1      3011 1.61462E+01-4.63124E+00 1.06553E-01-6.46023E+00-5.94247E-14 5.92859E-14
 -1      3012 1.91119E+01-5.29857E+00-1.66399E-02-6.21931E+00 0.00000E+00 9.41261E-14
 -1      3013 1.02056E+01-2.35384E+00 1.50204E-01-5.19262E+00-7.75074E-14-8.42937E-14
 -1      3014 1.32375E+01-3.61610E+00 7.91053E-02-6.40339E+00-8.92897E-14-1.30451E-14
 -1      3015 6.71627E+00-8.33611E-01 1.63732E-01-1.49561E+00-2.61388E-14-2.46497E-13
 -1      3016 7.78742E+00-1.39004E+00 1.12666E-01-3.62043E+00-7.40241E-14-2.13968E-13
 -1      3017 1.16769E+01-2.77620E+00 6.63095E-02 5.61918E+00 8.57647E-14-2.67786E-13
 -1      3018 9.00772E+00-1.86619E+00 1.85408E-01 4.38945E+00 1.46064E-13-2.98400E-13
 -1      3019 2.89160E+01-2.27955E+00-1.47497E-01-1.03766E-01-8.30065E-14 6.12566E-14
 -1      3020 2.78877E+01-3.53213E+00-4.66577E-03 1.00524E+00-5.48806E-14 1.17684E-14
 -1      3021 2.68620E+01-4.07391E+00-1.29270E-02 1.04193E+00 1.29133E-14 6.06321E-14
 -1      3022 2.85639E+01-1.41951E+00-3.92988E-02-1.18916E+00-3.81570E-14 1.42594E-13
 -1      3023 7.14132E+00-1.29300E+00 1.16391E-01 2.92591E+00 1.40082E-13-2.53880E-13
 -1      3024 6.31833E+00-8.46508E-01 1.42312E-01 6.45934E-01 8.90182E-14-2.40641E-13
 -1      3025 9.65864E+00-9.75710E-01 1.76332E-01 3.35650E+00 8.52027E-14-2.83551E-13
 -1      3026 2.01933E+01 2.71078E+00-3.06325E-03-9.53319E-01-8.48661E-14 2.14394E-14
 -1      3027 2.85398E+01 6.46005E+00-1.81741E-01 4.02019E-01 8.56815E-14 8.10116E-14
 -1      3028 2.86477E+01 6.38154E+00-1.73634E-01-7.44975E-01 1.04472E-13 7.35384E-14
 -1      3029 2.88930E+01 4.35600E+00-1.14708E-01 1.85208E+00 3.04728E-13 1.49936E-13
 -1      3030 2.88896E+01 5.71196E+00-2.00430E-01 1.20289E+00 2.14218E-13 6.00978E-14
 -1      3031 2.85992E+01-2.08838E+00 2.55687E-02 7.52613E-01 9.88862E-14-1.19113E-13
 -1      3032 2.86590E+01 1.04978E-01-1.68888E-01 1.97665E+00-3.21687E-14-1.67949E-13
 -1      3033 1.67428E+01-4.71002E+00 2.02260E-02 6.46746E+00 5.76483E-14 4.84918E-13
 -1      3034 1.35865E+01-3.68696E+00 1.28001E-01 6.22837E+00-7.10820E-14 4.74343E-13
 -1      3035 2.86692E+01-1.22428E-02-1.54150E-01-1.54005E+00-2.14273E-14-6.03406E-14
 -1      3036 2.88540E+01-1.73902E+00-2.03585E-02-3.19041E-01-4.80310E-14-8.26006E-14
 -1      3037 2.77732E+01-3.31584E+00-1.39323E-01 1.14407E+00-1.23668E-14-7.27057E-14
 -1      3038 2.59241E+01-4.45591E+00 4.27354E-02 2.89705E+00 1.94150E-14 6.97220E-14
 -1      3039 2.50571E+01-4.81177E+00 2.49481E-02 2.91250E+00-7.76185E-14 8.11157E-15
 -1      3040 2.76202E+01-2.89466E+00-2.15534E-02 1.67806E-01-1.23518E-13-1.50949E-13
 -1      3041 1.96850E+01 2.87766E+00-8.00440E-03-4.24793E-01-5.50361E-14-1.67050E-14
 -1      3042 1.98780E+01 2.70617E+00-3.90536E-03-5.18700E-01-6.13162E-14-3.52517E-15
 -1      3043 1.96841E+01 2.68142E+00 6.95580E-03-2.48997E-01-5.20562E-14-1.42132E-14
 -1      3044 1.91459E+01 3.17493E+00 5.67098E-03-2.12905E-02-1.49723E-14-5.59252E-14
 -1      3045 1.90741E+01 3.43410E+00-5.56543E-03-3.54746E-02-2.95576E-14-5.57438E-14
 -1      3046 1.91005E+01 3.41502E+00-5.18557E-03-1.08954E-01-3.50020E-14-5.95355E-14
 -1      3047 1.31124E+01-2.52227E+00 1.73411E-01-5.28586E+00 9.79772E-14-1.25913E-13
 -1      3048 2.05399E+01 1.74639E+00-3.24043E-03 6.15086E-01 4.83942E-14-4.15813E-14
 -1      3049 9.62064E+00-5.79387E-01 1.01440E-01 3.18181E+00 6.35950E-15 3.01717E-13
 -1      3050 8.16093E+00-4.13800E-01 1.82283E-01 1.98470E+00-3.88127E-14 1.76748E-13
 -1      3051 9.25368E+00 9.77262E-02 9.06541E-02 1.14028E+00 4.32293E-15 3.53884E-14
 -1      3052 2.76025E+01 4.99240E+00-1.23285E-01-1.32348E+00 5.99798E-14 5.94733E-14
 -1      3053 9.09084E+00-4.67150E-01 1.60290E-01-2.19565E+00 8.85680E-14-6.27554E-14
 -1      3054 2.40800E+01-4.79910E+00-3.26923E-02 2.97929E+00 1.23630E-13 4.33507E-14
 -1      3055 2.26496E+01-5.17132E+00 5.88246E-02 4.49639E+00 8.35582E-14-6.32324E-14
 -1      3056 2.08690E+01-4.56784E+00 7.48318E-02 4.84534E+00 1.18322E-13-6.09339E-14
 -1      3057 2.61433E+01 4.55966E+00-1.08292E-01-3.70145E-02-1.96537E-13-6.09235E-15
 -1      3058 2.56474E+01 6.40728E-01-1.09942E-01-2.42968E+00 6.45456E-14-2.89699E-15
 -1      3059 2.55248E+01 2.00211E+00-2.72860E-02-2.19766E+00 9.40220E-15 6.60375E-14
 -1      3060 2.00028E+01 8.45159E-04 1.35887E-05-3.80674E-03 1.60644E-13-1.35633E-13
 -1      3061 2.00022E+01-1.31235E-03 9.34420E-07-4.23869E-03 2.78115E-13-8.30607E-14
 -1      3062 2.00018E+01-1.18677E-03-4.89649E-06-4.77524E-03 1.44702E-13 1.40397E-13
 -1      3063 2.76695E+01 2.52045E+00-9.05008E-02 2.12880E+00 2.37685E-13 1.09357E-13
 -1      3064 2.76030E+01 5.04451E+00-1.41688E-01 1.42487E+00-1.50963E-13-1.41769E-13
 -1      3065 2.00010E+01-1.30990E-03 1.30174E-05-5.44805E-03-9.77656E-15 3.28983E-14
 -1      3066 2.72820E+01 2.48221E-01-7.50028E-02 2.24663E+00-6.65093E-14-3.46390E-14
 -1      3067 2.04780E+01 1.58322E+00 2.89305E-03 3.21665E-01 3.88702E-14-5.09506E-14
 -1      3068 1.22747E+01-2.69806E+00 1.28473E-01 5.68260E+00-5.49699E-14 5.19765E-13
 -1      3069 1.12823E+01-1.52289E+00 1.15698E-01 4.66167E+00-3.82611E-14 4.86888E-13
 -1      3070 1.46746E+01-2.78065E+00 9.57909E-02 5.45454E+00-6.90489E-14 4.62672E-13
 -1      3071 2.85731E+01 9.58456E-01-1.18190E-01-1.98676E+00-2.16493E-15-6.35186E-14
 -1      3072 2.78584E+01-4.80356E-01-6.37241E-02-1.62289E+00-1.05152E-13-9.85323E-14
 -1      3073 2.78801E+01 1.94045E+00-1.27755E-01-2.26251E+00-2.71172E-14-8.79991E-14
 -1      3074 1.92364E+01-4.59691E+00 1.07807E-01-5.40911E+00 6.30329E-14 1.06401E-13
 -1      3075 1.96678E+01-4.68135E+00 7.90659E-02 5.39613E+00-2.79360E-14 2.51075E-13
 -1      3076 1.45495E+01-3.22951E+00 1.78471E-01 5.89837E+00 1.15366E-13-1.99230E-13
 -1      3077 1.36213E+01-2.25730E+00 1.10238E-01 5.18080E+00 9.92054E-14-1.91666E-13
 -1      3078 1.71014E+01-3.80331E+00 8.90203E-03 5.60131E+00 9.94690E-14-1.36398E-13
 -1      3079 8.22654E+00-2.86792E-01 1.76773E-01-3.62853E-01 4.31894E-14-1.71474E-13
 -1      3080 1.07876E+01-1.39255E+00 1.49816E-01-4.19123E+00-8.80546E-14-1.31062E-13
 -1      3081 1.91581E+01 3.36107E+00-6.67720E-03-1.49796E-01-3.23648E-14-4.06888E-14
 -1      3082 1.92481E+01 3.29275E+00-4.92493E-03-2.28489E-01-4.30030E-14-4.51427E-14
 -1      3083 1.93842E+01 2.96567E+00 6.01062E-03-1.59606E-01-3.62953E-14-4.82916E-14
 -1      3084 1.91997E+01 3.12983E+00 5.77379E-03-8.65623E-02-3.26811E-14-5.09038E-14
 -1      3085 1.58154E+01-3.64039E+00 1.14972E-01-5.91476E+00-9.44245E-14 2.40641E-14
 -1      3086 2.13011E+01-5.01791E+00 8.10904E-02-5.08505E+00-1.77081E-14 8.53345E-14
 -1      3087 2.57690E+01-4.47158E+00 4.24378E-03-2.25778E+00 1.03736E-13 1.44093E-13
 -1      3088 2.64307E+01 2.92963E+00-8.48998E-02-1.99308E+00-3.55965E-14-5.55805E-15
 -1      3089 2.84719E+01 2.30998E+00-1.23798E-01-2.26608E+00-6.87783E-14-1.18378E-14
 -1      3090 2.76094E+01 9.88729E-01-5.22060E-02-2.30066E+00-4.99600E-15 7.16649E-14
 -1      3091 2.01842E+01 2.42307E+00 5.90175E-04-6.69695E-01-6.93114E-14 1.54325E-14
 -1      3092 2.73431E+01-3.11477E+00-3.25222E-02 4.67811E-02 6.46341E-14-7.58837E-14
 -1      3093 2.77371E+01-1.63102E+00-4.42252E-02 9.12397E-01 1.96370E-13 2.05627E-13
 -1      3094 2.80628E+01 5.72734E+00-1.72361E-01 7.25035E-01-1.65395E-13-2.25251E-13
 -1      3095 2.90200E+01 6.31406E+00-1.67821E-01-2.22445E-01-1.87017E-13-2.57391E-13
 -1      3096 2.72322E+01 5.37823E+00-1.01885E-01 8.06348E-01 1.34559E-13 2.59757E-14
 -1      3097 2.65834E+01-1.25009E-01-4.79814E-02-2.26102E+00 5.28744E-14 8.57855E-14
 -1      3098 2.77773E+01 5.33920E+00-1.40642E-01-7.81230E-01-1.96676E-13-1.27773E-13
 -1      3099 2.02272E+01 1.79864E+00-4.14181E-03 1.70884E-01 3.70932E-14-7.96648E-14
 -1      3100 2.00323E+01 2.04088E+00-2.85913E-03 1.30685E-01 3.39020E-14-8.63440E-14
 -1      3101 2.02128E+01 9.02046E-01 1.83459E-03 9.43829E-01-2.94808E-14-7.94867E-15
 -1      3102 2.02102E+01 7.95845E-01 1.05457E-03 1.12446E+00-1.17657E-14-4.36164E-14
 -1      3103 2.01669E+01 6.92679E-01 1.56132E-03 1.29833E+00-1.06449E-14-5.26212E-14
 -1      3104 2.01948E+01 5.82471E-01 2.90498E-03 1.44810E+00-2.52337E-14-7.20505E-14
 -1      3105 1.99381E+01 8.89845E-01-7.87053E-04 1.19659E+00-2.57081E-14-4.62156E-14
 -1      3106 2.01695E+01 4.57195E-01 2.17084E-03 1.60796E+00-1.29351E-14-6.43187E-14
 -1      3107 2.02463E+01 3.07366E-01 4.86362E-03 1.72785E+00-7.03640E-15-4.96177E-14
 -1      3108 1.98573E+01 6.39713E-01-2.73710E-03 1.53793E+00-2.41995E-14-3.70568E-14
 -1      3109 2.02708E+01 1.23932E-01 4.64222E-03 1.87674E+00 9.73126E-16-7.01578E-14
 -1      3110 2.04255E+01-1.04314E-01 6.82987E-03 1.95899E+00 7.96964E-15-4.73149E-14
 -1      3111 1.98367E+01 3.06141E-01-6.61411E-03 1.86080E+00-1.23215E-14-8.18630E-14
 -1      3112 2.05522E+01-3.82677E-01 1.03525E-02 2.09067E+00 1.89815E-14-2.74400E-14
 -1      3113 2.08263E+01-7.26525E-01 7.93897E-03 2.11284E+00 2.60686E-15-2.20790E-14
 -1      3114 1.99503E+01-1.96815E-01-1.36462E-02 2.17047E+00 3.32932E-14-7.16328E-14
 -1      3115 2.11409E+01-1.12602E+00 2.15383E-02 2.19823E+00 2.87741E-14 7.33484E-15
 -1      3116 2.15762E+01-1.59835E+00 5.58716E-03 2.11067E+00 4.26282E-14 5.31589E-14
 -1      3117 2.03198E+01-9.57848E-01-2.54631E-02 2.44673E+00 5.65875E-14-7.67216E-14
 -1      3118 2.22235E+01-2.08729E+00 4.88740E-02 2.06784E+00-7.20301E-15 8.69721E-14
 -1      3119 2.29202E+01-2.60011E+00 2.03897E-02 1.74307E+00-2.57355E-14 5.87395E-14
 -1      3120 2.11511E+01-2.03195E+00-3.90398E-02 2.60654E+00 3.46684E-14 9.16389E-15
 -1      3121 2.35271E+01-3.50706E+00 4.02461E-02 2.10781E+00 6.44836E-14 5.12281E-14
 -1      3122 2.44378E+01-3.76751E+00 1.21063E-02 1.57707E+00 6.66151E-14 1.23186E-13
 -1      3123 2.73553E+01-8.43176E-01-1.33260E-01-1.85976E+00-2.76862E-15 1.75027E-13
 -1      3124 2.71607E+01-1.30828E+00-3.25975E-02 1.96481E+00 1.55743E-14-1.13118E-13
 -1      3125 2.61918E+01-2.42894E+00-4.95349E-02 1.02763E+00 2.35532E-15-4.06376E-14
 -1      3126 2.56880E+01-2.94480E+00 2.70139E-02 3.40015E-01-1.00581E-13-5.53620E-14
 -1      3127 2.68785E+01-2.62186E+00-7.50752E-02 8.17880E-01 3.07844E-14-2.28290E-14
 -1      3128 2.45694E+01-3.02284E+00-1.87295E-02-4.01503E-01-3.89688E-14-1.36594E-13
 -1      3129 2.39055E+01-2.81170E+00 4.24848E-02-9.77160E-01 4.23550E-14-1.45239E-13
 -1      3130 2.47419E+01-3.49385E+00-4.05069E-02-8.35272E-01-9.48456E-14-8.53512E-14
 -1      3131 2.29904E+01-2.41261E+00-1.89932E-03-1.32908E+00 7.42496E-14-1.31492E-13
 -1      3132 2.23975E+01-1.95534E+00 3.13356E-02-1.64685E+00 1.96862E-13-1.10183E-13
 -1      3133 2.27752E+01-2.84901E+00-3.97499E-02-1.80918E+00 4.81880E-14-8.64014E-14
 -1      3134 2.18062E+01-1.49752E+00 4.71231E-03-1.73997E+00 1.79378E-13-1.03351E-13
 -1      3135 2.13641E+01-1.07077E+00 1.41813E-02-1.86425E+00 2.05946E-13-2.76770E-14
 -1      3136 2.14108E+01-1.80133E+00-3.60649E-02-2.12690E+00 1.62775E-13-7.85995E-14
 -1      3137 2.10400E+01-6.98982E-01 6.84726E-03-1.82154E+00 2.13746E-13-4.48396E-14
 -1      3138 2.07472E+01-3.89656E-01 4.85555E-03-1.83012E+00 1.28410E-13-1.06673E-14
 -1      3139 2.05957E+01-8.53292E-01-2.16251E-02-2.08406E+00 1.86176E-13-3.01330E-14
 -1      3140 2.05913E+01-1.38889E-01 5.81627E-03-1.73365E+00 6.15190E-14-1.79185E-14
 -1      3141 2.04099E+01 5.45344E-02 1.98257E-04-1.68066E+00 1.35167E-14-2.00556E-14
 -1      3142 2.01729E+01-1.91662E-01-1.06934E-02-1.90089E+00 1.16231E-13-1.70100E-14
 -1      3143 2.03489E+01 2.01465E-01 4.30011E-03-1.56665E+00-5.79736E-16 4.01378E-14
 -1      3144 2.02384E+01 3.06015E-01-1.72581E-03-1.48395E+00 6.55605E-14 7.39683E-14
 -1      3145 1.99826E+01 2.12007E-01-4.17486E-03-1.67110E+00 4.47045E-14 1.55526E-13
 -1      3146 2.02256E+01 3.77985E-01 3.06497E-03-1.36861E+00-4.26432E-14 1.11678E-13
 -1      3147 2.01562E+01 4.22350E-01-2.43289E-03-1.27448E+00-8.11456E-14 8.20816E-14
 -1      3148 1.99179E+01 4.24276E-01-7.05760E-04-1.43602E+00-5.26636E-14 1.35219E-13
 -1      3149 2.01647E+01 4.45814E-01 2.22781E-03-1.16519E+00-1.42473E-13-5.32513E-14
 -1      3150 2.01178E+01 4.52934E-01-2.56851E-03-1.07026E+00-1.21491E-13-3.13255E-14
 -1      3151 1.99136E+01 5.09598E-01 8.94165E-04-1.21204E+00-1.59759E-13 7.42429E-14
 -1      3152 2.01336E+01 4.47767E-01 1.71328E-03-9.70678E-01-8.32131E-14-1.71861E-13
 -1      3153 2.00989E+01 4.33895E-01-2.43277E-03-8.81132E-01-1.95645E-13-1.71373E-13
 -1      3154 1.99333E+01 5.17289E-01 1.48294E-03-1.00624E+00-1.42392E-13-1.54433E-13
 -1      3155 2.01150E+01 4.13635E-01 1.39792E-03-7.93007E-01-2.04862E-13 6.61144E-15
 -1      3156 2.00874E+01 3.89454E-01-2.17742E-03-7.12255E-01-3.86172E-14 6.13972E-14
 -1      3157 1.99585E+01 4.81661E-01 1.55514E-03-8.22012E-01-1.01379E-13-1.52228E-13
 -1      3158 2.01010E+01 3.62694E-01 1.18760E-03-6.36156E-01-3.71587E-14 5.72447E-14
 -1      3159 2.00779E+01 3.34809E-01-1.87913E-03-5.65744E-01 2.13731E-14 7.88752E-15
 -1      3160 1.99810E+01 4.25134E-01 1.39169E-03-6.60807E-01-1.27355E-14-5.12811E-15
 -1      3161 2.00883E+01 3.06666E-01 1.02669E-03-5.01448E-01 2.47378E-14-9.73779E-14
 -1      3162 2.00685E+01 2.78915E-01-1.57835E-03-4.41697E-01-5.02796E-14-9.55245E-14
 -1      3163 1.99980E+01 3.61539E-01 1.14511E-03-5.22687E-01 3.10198E-14-2.54409E-13
 -1      3164 2.00759E+01 2.52221E-01 8.87624E-04-3.88444E-01 5.01818E-15 2.23156E-14
 -1      3165 2.00591E+01 2.26655E-01-1.29654E-03-3.38893E-01 5.51164E-14 1.06847E-13
 -1      3166 2.00094E+01 2.98907E-01 8.92106E-04-4.06673E-01 8.37661E-14-1.70265E-13
 -1      3167 2.00640E+01 2.02805E-01 7.59635E-04-2.95596E-01 1.43609E-13 1.01362E-13
 -1      3168 2.00499E+01 1.80367E-01-1.04442E-03-2.55330E-01 8.81723E-14 1.41330E-13
 -1      3169 2.00160E+01 2.41512E-01 6.66961E-04-3.11042E-01 1.51042E-13 1.33759E-13
 -1      3170 2.00528E+01 1.59892E-01 6.40292E-04-2.20740E-01-1.29654E-13 1.20850E-13
 -1      3171 2.00411E+01 1.40859E-01-8.26225E-04-1.88620E-01-1.97241E-13 6.07148E-14
 -1      3172 2.00190E+01 1.91289E-01 4.81337E-04-2.33611E-01-6.05622E-14 1.20397E-13
 -1      3173 2.00427E+01 1.23793E-01 5.30452E-04-1.61452E-01-1.79164E-13-7.73485E-15
 -1      3174 2.00332E+01 1.08069E-01-6.42277E-04-1.36275E-01-2.43417E-13 2.91599E-14
 -1      3175 2.00197E+01 1.48773E-01 3.35656E-04-1.71986E-01-2.12184E-13-3.47448E-14
 -1      3176 2.00339E+01 9.41769E-02 4.31657E-04-1.15291E-01-1.86301E-13 3.39177E-14
 -1      3177 2.00263E+01 8.14671E-02-4.90619E-04-9.58903E-02-1.19566E-13 1.52724E-14
 -1      3178 2.00187E+01 1.13696E-01 2.25420E-04-1.23757E-01-2.00555E-13-8.61402E-14
 -1      3179 2.00263E+01 7.03858E-02 3.45028E-04-7.99554E-02-1.33658E-13 1.77601E-13
 -1      3180 2.00204E+01 6.03079E-02-3.68098E-04-6.52600E-02-6.76363E-14 1.07382E-13
 -1      3181 2.00169E+01 8.53750E-02 1.44527E-04-8.66385E-02-9.23746E-14-1.10619E-13
 -1      3182 2.00201E+01 5.16281E-02 2.70953E-04-5.33726E-02-6.15947E-14 9.43476E-14
 -1      3183 2.00155E+01 4.37754E-02-2.71049E-04-4.24391E-02-1.14996E-15-9.11058E-14
 -1      3184 2.00146E+01 6.29392E-02 8.68717E-05-5.85557E-02-1.26331E-13-5.85583E-14
 -1      3185 2.00150E+01 3.70900E-02 2.09089E-04-3.37411E-02 4.19273E-14-1.76724E-13
 -1      3186 2.00116E+01 3.10681E-02-1.95733E-04-2.57646E-02-4.06558E-14-2.32411E-13
 -1      3187 2.00122E+01 4.54710E-02 4.71234E-05-3.76902E-02-1.05519E-14-1.76927E-13
 -1      3188 2.00109E+01 2.59968E-02 1.58654E-04-1.95403E-02-7.34192E-14-6.86816E-14
 -1      3189 2.00084E+01 2.14416E-02-1.38759E-04-1.38524E-02-4.98938E-14-1.24036E-13
 -1      3190 2.00099E+01 3.20839E-02 2.07551E-05-2.24945E-02-9.56812E-15-2.31439E-14
 -1      3191 2.00078E+01 1.76409E-02 1.18529E-04-9.52068E-03 3.45578E-14 1.76743E-13
 -1      3192 2.00059E+01 1.42257E-02-9.71744E-05-5.58246E-03-1.52465E-14 3.36343E-13
 -1      3193 2.00078E+01 2.19603E-02 3.94207E-06-1.16867E-02 1.68744E-13 2.03843E-13
 -1      3194 2.00053E+01 1.13923E-02 8.71707E-05-2.68485E-03 1.21272E-15 4.60712E-13
 -1      3195 2.00040E+01 8.83311E-03-6.60983E-05-7.56398E-05 3.89410E-13 4.10894E-13
 -1      3196 2.00059E+01 1.43711E-02-5.19248E-06-4.23432E-03 8.21461E-14 5.21126E-13
 -1      3197 2.00034E+01 6.68547E-03 5.88242E-05 1.75540E-03 3.18683E-13 2.18978E-13
 -1      3198 2.00026E+01 4.74681E-03-3.37818E-05 3.32192E-03 1.54897E-13 1.59721E-13
 -1      3199 2.00043E+01 8.68509E-03-7.87043E-06 6.69915E-04 1.97962E-13 5.79006E-13
 -1      3200 2.05737E+01 3.37254E-01 1.00362E-03-1.21846E+00 3.28515E-14-2.73984E-14
 -1      3201 2.05123E+01 4.56619E-01 3.89630E-03-1.10463E+00 3.00037E-14-2.40081E-14
 -1      3202 2.21087E+01-1.39097E+00-7.72951E-03-1.15615E+00 1.51773E-14 4.06175E-14
 -1      3203 2.18083E+01-1.08011E+00 1.82426E-02-1.34432E+00 4.12867E-14-1.90104E-15
 -1      3204 2.14581E+01-8.00867E-01-2.17091E-03-1.42096E+00 3.43150E-14-4.19405E-14
 -1      3205 2.12249E+01-5.34146E-01 1.22862E-02-1.49709E+00-3.96821E-14-6.00334E-15
 -1      3206 2.12995E+01-1.07026E+00-1.99509E-02-1.65287E+00 8.31561E-15-7.95349E-15
 -1      3207 2.39298E+01-2.12022E+00-1.65609E-02 2.85360E-01 1.04925E-14 1.40583E-13
 -1      3208 2.36090E+01-2.09290E+00 1.95049E-02-1.69093E-01 2.00058E-14 1.02974E-13
 -1      3209 2.46947E+01-1.50027E+00 8.05794E-04 1.33796E+00 1.62500E-14 1.54569E-13
 -1      3210 2.45510E+01-1.93377E+00-3.83272E-03 9.10046E-01 4.52407E-14 2.02405E-13
 -1      3211 2.44734E+01-2.46020E+00-2.63491E-02 2.70875E-01 1.23981E-14 2.14636E-13
 -1      3212 2.56313E+01 8.57422E-01-4.01046E-02 2.19153E+00 1.49575E-13 1.13491E-13
 -1      3213 2.57216E+01-3.54895E-01-4.98119E-02 1.98350E+00 8.16430E-14 1.11378E-13
 -1      3214 2.52870E+01 3.56820E+00-9.61038E-02 1.55989E+00 2.03795E-13 5.48277E-14
 -1      3215 2.54442E+01 2.52055E+00-1.22846E-01 1.96932E+00 2.01866E-13 6.86534E-14
 -1      3216 2.49809E+01 4.28387E+00-9.56385E-02-3.27885E-01 6.91600E-14 8.80359E-14
 -1      3217 2.49268E+01 4.18504E+00-1.07069E-01 5.69503E-01 1.12049E-13 4.19205E-14
 -1      3218 2.49795E+01 4.35413E-01-7.63516E-02-2.30468E+00-1.92645E-13 1.65146E-13
 -1      3219 2.48666E+01 1.65123E+00-1.09948E-02-2.18904E+00-8.78603E-14 1.12787E-13
 -1      3220 2.48342E+01-1.39669E+00-3.41560E-02-1.61874E+00-6.52187E-14 1.14768E-13
 -1      3221 2.49239E+01-5.95688E-01-6.23126E-03-1.95937E+00-1.17340E-13 1.27184E-13
 -1      3222 2.57519E+01-2.70477E-01-1.69025E-02-2.11027E+00-1.34320E-13 1.34837E-13
 -1      3223 2.41231E+01-2.07587E+00 8.99192E-03-5.09865E-01 2.80167E-14 3.46301E-14
 -1      3224 2.43774E+01-1.86824E+00-1.79485E-02-9.90103E-01-3.30326E-14 6.86868E-14
 -1      3225 2.50341E+01-2.01710E+00-8.91956E-03-1.05695E+00 1.81608E-14-2.30042E-14
 -1      3226 2.31217E+01-1.87991E+00 2.22809E-02 4.20135E-01-1.62327E-14 5.19662E-14
 -1      3227 2.34670E+01-2.04827E+00-1.26142E-02 3.36878E-02-1.22688E-14 5.63733E-14
 -1      3228 2.38632E+01-2.42595E+00-8.42106E-03 1.12486E-01 3.15572E-14 1.11066E-14
 -1      3229 2.22097E+01-1.34312E+00 2.02942E-02 9.91961E-01-7.00900E-14 7.82733E-14
 -1      3230 2.25362E+01-1.64290E+00-1.05903E-02 7.40020E-01-2.35246E-14 4.85571E-14
 -1      3231 2.25905E+01-2.06741E+00-3.00673E-02 9.70583E-01-3.48981E-14-6.62082E-14
 -1      3232 2.15028E+01-7.76454E-01 1.42350E-02 1.26416E+00-4.36164E-15-5.30308E-14
 -1      3233 2.17709E+01-1.06003E+00-5.18456E-03 1.13557E+00-5.86293E-15 3.14303E-14
 -1      3234 2.16384E+01-1.38482E+00-2.23042E-02 1.38125E+00-2.24712E-14 4.02319E-14
 -1      3235 2.10104E+01-3.19251E-01 8.64076E-03 1.33411E+00 1.22972E-14-1.00532E-14
 -1      3236 2.12148E+01-5.35842E-01-1.02101E-03 1.29436E+00-1.14101E-14 1.84733E-14
 -1      3237 2.09729E+01-7.39198E-01-1.60663E-02 1.50392E+00-2.27703E-14-8.87734E-15
 -1      3238 2.06876E+01-4.25272E-03 4.53180E-03 1.28251E+00-3.85952E-15 1.77750E-14
 -1      3239 2.08373E+01-1.47213E-01 1.14405E-03 1.29971E+00 5.23850E-14 6.62925E-14
 -1      3240 2.05565E+01-2.47410E-01-9.86221E-03 1.46582E+00 5.00289E-15-9.32224E-15
 -1      3241 2.04813E+01 1.85802E-01 1.82070E-03 1.16566E+00 6.46149E-14-2.60684E-14
 -1      3242 2.05905E+01 1.03429E-01 1.99592E-03 1.21586E+00 4.06593E-14-5.02041E-14
 -1      3243 2.03137E+01 7.67683E-02-5.62556E-03 1.34499E+00 2.36674E-14 4.84639E-14
 -1      3244 2.03490E+01 2.82463E-01 2.19360E-04 1.01892E+00-1.95994E-14 6.77514E-14
 -1      3245 2.04304E+01 2.43739E-01 2.29499E-03 1.08545E+00 5.08407E-15 1.78520E-14
 -1      3246 2.01800E+01 2.64416E-01-2.96570E-03 1.18719E+00-3.28467E-14 7.55494E-14
 -1      3247 2.02618E+01 3.16101E-01-6.43863E-04 8.64247E-01 1.01176E-13-1.23641E-15
 -1      3248 2.03244E+01 3.06007E-01 2.35562E-03 9.36049E-01 7.94455E-14 1.21488E-13
 -1      3249 2.01099E+01 3.53682E-01-1.42366E-03 1.01818E+00 2.19815E-14 1.50676E-13
 -1      3250 2.02016E+01 3.10857E-01-1.03910E-03 7.14915E-01 1.04387E-13 1.36204E-14
 -1      3251 2.02511E+01 3.17924E-01 2.29105E-03 7.85032E-01 1.22886E-13 4.67741E-14
 -1      3252 2.00747E+01 3.78178E-01-6.05605E-04 8.52772E-01 1.14131E-13 1.85262E-13
 -1      3253 2.01579E+01 2.84029E-01-1.15493E-03 5.78458E-01-3.89149E-14-2.66406E-14
 -1      3254 2.01977E+01 3.00235E-01 2.15014E-03 6.42843E-01 9.86672E-14-2.94205E-14
 -1      3255 2.00573E+01 3.63549E-01-2.13881E-04 6.99415E-01 7.37814E-14 2.03557E-13
 -1      3256 2.01245E+01 2.47174E-01-1.11504E-03 4.58588E-01-2.19555E-14-5.44820E-14
 -1      3257 2.01568E+01 2.67257E-01 1.95812E-03 5.15214E-01-1.72840E-13-5.44391E-14
 -1      3258 2.00482E+01 3.27813E-01-5.49515E-05 5.62582E-01-5.33853E-14-4.93619E-14
 -1      3259 2.00981E+01 2.07553E-01-9.97162E-04 3.56485E-01-1.31627E-14 6.95436E-15
 -1      3260 2.01244E+01 2.28267E-01 1.73518E-03 4.04668E-01 3.13559E-14 3.79310E-14
 -1      3261 2.00425E+01 2.82877E-01-1.19690E-05 4.44136E-01 5.83110E-15-9.99960E-15
 -1      3262 2.00768E+01 1.69418E-01-8.48363E-04 2.71716E-01-5.86955E-14 2.79520E-13
 -1      3263 2.00980E+01 1.88909E-01 1.49946E-03 3.11624E-01-5.96109E-14 6.44064E-14
 -1      3264 2.00380E+01 2.36155E-01-1.89231E-05 3.44186E-01-8.05724E-14 2.27116E-13
 -1      3265 2.00596E+01 1.35019E-01-6.95799E-04 2.02892E-01 1.60097E-13 3.26963E-13
 -1      3266 2.00765E+01 1.52346E-01 1.26605E-03 2.35190E-01 5.01793E-14 3.15984E-13
 -1      3267 2.00337E+01 1.91940E-01-4.13547E-05 2.61712E-01 8.84057E-15 3.49635E-13
 -1      3268 2.00457E+01 1.05325E-01-5.54038E-04 1.48136E-01 3.19823E-13 4.65288E-13
 -1      3269 2.00590E+01 1.20126E-01 1.04616E-03 1.73735E-01 3.45060E-13 4.41983E-13
 -1      3270 2.00295E+01 1.52453E-01-6.31633E-05 1.95028E-01 1.70846E-13 2.52336E-13
 -1      3271 2.00345E+01 8.05199E-02-4.29901E-04 1.05394E-01 1.04467E-13 3.42003E-13
 -1      3272 2.00448E+01 9.27833E-02 8.47090E-04 1.25293E-01 2.25434E-13 5.02467E-13
 -1      3273 2.00253E+01 1.18587E-01-7.82265E-05 1.42126E-01 2.96704E-13 3.30491E-13
 -1      3274 2.00256E+01 6.03431E-02-3.25621E-04 7.26461E-02 4.10869E-14 1.39295E-13
 -1      3275 2.00335E+01 7.02507E-02 6.72666E-04 8.78227E-02 7.51419E-14 3.30153E-13
 -1      3276 2.00212E+01 9.04284E-02-8.54101E-05 1.00919E-01 1.43749E-13 3.24860E-13
 -1      3277 2.00187E+01 4.42986E-02-2.40849E-04 4.80212E-02-7.26322E-14 2.25767E-13
 -1      3278 2.00246E+01 5.21301E-02 5.24041E-04 5.93753E-02-8.57236E-14 1.48989E-13
 -1      3279 2.00175E+01 6.76026E-02-8.57795E-05 6.93967E-02-6.45903E-15 3.28883E-13
 -1      3280 2.00133E+01 3.17930E-02-1.73885E-04 2.98685E-02-1.66721E-13 1.93578E-13
 -1      3281 2.00177E+01 3.78643E-02 4.00492E-04 3.81902E-02-3.06804E-14 2.81511E-13
 -1      3282 2.00141E+01 4.95007E-02-8.10732E-05 4.57251E-02-9.34402E-14 3.11642E-13
 -1      3283 2.00093E+01 2.22159E-02-1.22520E-04 1.67807E-02 1.27570E-13-7.94142E-14
 -1      3284 2.00124E+01 2.68434E-02 3.00086E-04 2.27389E-02-3.50301E-14 9.19204E-14
 -1      3285 2.00112E+01 3.54206E-02-7.30450E-05 2.82978E-02-4.20183E-14 2.26592E-13
 -1      3286 2.00063E+01 1.49834E-02-8.47046E-05 7.59544E-03 1.09671E-13-8.44515E-14
 -1      3287 2.00084E+01 1.84654E-02 2.20290E-04 1.17385E-02 1.10082E-13-1.15177E-13
 -1      3288 2.00086E+01 2.46509E-02-6.34005E-05 1.57526E-02 7.15424E-14 6.96060E-14
 -1      3289 2.00040E+01 9.56510E-03-5.43650E-05 1.38504E-03 2.08108E-14-1.07210E-13
 -1      3290 2.00055E+01 1.21676E-02 1.58231E-04 4.14636E-03 9.88982E-14-1.02417E-13
 -1      3291 2.00064E+01 1.65171E-02-5.29739E-05 6.96864E-03 4.70133E-14 2.28101E-13
 -1      3292 2.00025E+01 5.52795E-03-7.18091E-06-2.54730E-03-1.80587E-13 1.80944E-14
 -1      3293 2.00034E+01 7.40909E-03 1.01317E-04-8.66516E-04-1.29078E-13-7.82225E-14
 -1      3294 2.00046E+01 1.04183E-02-4.15492E-05 1.05554E-03-8.60962E-14 1.34959E-13
 -1      3295 2.00012E+01 3.21093E-04 3.10201E-05 5.44095E-03-1.31091E-13 4.96745E-13
 -1      3296 1.92581E+01 2.81399E+00-3.21477E-03 3.70914E-03 7.83458E-15-6.51518E-14
 -1      3297 1.91803E+01 2.87739E+00-5.20955E-03-2.68714E-02-1.14281E-14-5.92400E-14
 -1      3298 2.00038E+01 3.76087E-03 2.78139E-06 2.40449E-03-2.55755E-13-3.01231E-13
 -1      3299 2.00038E+01 4.02830E-03-2.84926E-05 1.79921E-03-2.24705E-13-1.21204E-13
 -1      3300 2.00039E+01 4.88175E-03-1.63349E-05 2.55086E-04-1.59523E-13-5.48425E-13
 -1      3301 2.00038E+01 4.88726E-03-1.72212E-05-3.07321E-04-3.53656E-14-4.15649E-13
 -1      3302 2.00033E+01 2.70796E-03 5.16677E-06 3.60493E-03 1.03813E-14 1.48812E-13
 -1      3303 2.00036E+01 3.01441E-03-2.43733E-05 3.00195E-03-3.16633E-14-1.46134E-13
 -1      3304 2.00042E+01 5.86865E-03 3.70735E-05 2.24200E-03-1.32821E-13 1.37890E-14
 -1      3305 2.00039E+01 4.54279E-03-6.03481E-06 1.28291E-03-1.67065E-13-4.17670E-13
 -1      3306 2.00039E+01 4.69134E-03-2.56171E-05 7.14487E-04-9.25851E-14-5.26107E-13
 -1      3307 2.00044E+01 7.83276E-03 5.54592E-05 3.61594E-04-4.44642E-14-5.90634E-13
 -1      3308 2.00044E+01 7.12947E-03 4.77951E-05 1.21877E-03-1.79839E-13-2.88125E-13
 -1      3309 1.24233E+01-1.62256E+00 7.83088E-02-4.61557E+00 1.38493E-13-1.61940E-13
 -1      3310 1.51320E+01-2.95506E+00 1.67732E-02-5.47532E+00 7.00690E-14-3.27793E-14
 -1      3311 2.29669E+01-1.93638E+00-1.37849E-02-5.99252E-01 3.11183E-14 8.18347E-14
 -1      3312 2.26252E+01-1.67524E+00 2.29671E-02-9.27847E-01 3.17144E-14 7.99625E-14
 -1      3313 2.20956E+01-1.78999E+00-2.79939E-02-1.40987E+00-1.11653E-14 6.96468E-14
 -1      3314 2.32046E+01-2.38618E+00-2.67932E-02-7.85179E-01 9.65634E-15 1.33832E-13
 -1      3315 2.00017E+01 2.80634E-04 6.14121E-06-5.15520E-03 1.71761E-13 1.20825E-13
 -1      3316 9.88454E+00 2.23519E-01 7.86649E-02-1.24506E+00 7.17048E-15-1.22805E-13
 -1      3317 1.08589E+01-4.31050E-01 1.13952E-01-3.27994E+00 1.05700E-13-7.23033E-14
 -1      3318 2.32615E+01-4.69621E+00 9.96249E-02-3.51164E+00-1.44412E-13-3.82697E-14
 -1      3319 2.48236E+01-4.62553E+00-7.49167E-02-2.24949E+00-1.30715E-13-1.44230E-13
 -1      3320 2.72640E+01 3.14139E+00-1.68507E-01-2.19471E+00-5.86059E-14-6.50174E-15
 -1      3321 2.01410E+01 2.21555E+00 1.06558E-05-4.31389E-01-5.88386E-14 1.28365E-14
 -1      3322 2.02713E+01 1.15355E+00 1.68224E-03 5.31356E-01-5.92381E-14 2.76226E-14
 -1      3323 2.02535E+01 1.01830E+00-5.42757E-04 7.49601E-01-4.65436E-14 9.70621E-15
 -1      3324 2.00331E+01 1.13370E+00 2.82615E-04 8.23138E-01-4.12461E-14-4.29648E-15
 -1      3325 1.06163E+01-5.21164E-01 1.15839E-01-3.20050E+00-8.68611E-14-1.46577E-13
 -1      3326 1.26539E+01-1.54505E+00 7.24765E-02-4.66816E+00-1.04361E-13-5.97855E-14
 -1      3327 1.53842E+01-2.81663E+00 8.16588E-02-5.46925E+00-1.19176E-13-1.97065E-15
 -1      3328 1.78845E+01-3.98000E+00 2.78769E-02-5.66829E+00-8.11712E-14 5.59344E-14
 -1      3329 1.12805E+01-9.21582E-01 6.10807E-02 3.79731E+00 4.83155E-14-2.69978E-13
 -1      3330 9.88146E+00-2.07541E-01 1.26233E-01 2.34882E+00 3.54786E-14-2.79027E-13
 -1      3331 2.15301E+01-4.70914E+00-2.33190E-02 4.46777E+00-5.91679E-14 1.26878E-14
 -1      3332 1.84703E+01-3.91501E+00 8.35922E-02 5.28219E+00-7.23518E-14 1.61496E-13
 -1      3333 1.81239E+01-3.78275E+00 1.26564E-01-5.28921E+00 6.75848E-14 1.75956E-13
 -1      3334 2.08014E+01-4.68927E+00-4.39997E-02-4.69548E+00 1.58901E-14 1.81900E-13
 -1      3335 2.19981E+01-4.24422E+00 3.77454E-02-3.69049E+00-5.83422E-14 1.12777E-13
 -1      3336 2.46150E+01-4.59682E+00 8.56936E-02-2.76754E+00 4.39267E-14 1.59393E-13
 -1      3337 2.59427E+01-3.95837E+00-8.51648E-02-1.08912E+00 1.01028E-13 1.72640E-13
 -1      3338 2.02000E+01-4.46940E+00 9.59383E-02-5.11280E+00-3.41602E-14 3.25226E-14
 -1      3339 2.23909E+01-4.96591E+00-7.88255E-02-4.20598E+00 2.18298E-14 7.45914E-14
 -1      3340 1.96715E+01-3.80775E+00 8.75549E-02-4.81559E+00-6.53921E-14 7.07767E-15
 -1      3341 2.62550E+01-3.95130E+00 5.28116E-02-8.47335E-01-6.76759E-14-3.41394E-15
 -1      3342 9.15312E+00 9.04892E-02 9.84795E-02 7.89350E-01 5.75182E-14-1.60746E-13
 -1      3343 9.45224E+00 7.96651E-02 9.40149E-02-1.24222E+00 5.63265E-15-1.14922E-13
 -1      3344 2.05255E+01 1.23020E+00-8.83542E-05 2.61535E-02 3.76938E-14-6.05183E-14
 -1      3345 2.03629E+01 1.58258E+00 1.32775E-03 1.17370E-01 4.12232E-14-6.49083E-14
 -1      3346 2.02872E+01 1.46604E+00 1.23039E-03-1.12869E-01 3.05109E-14-6.16891E-14
 -1      3347 2.05061E+01 1.03648E+00-1.80729E-03-2.41575E-01 2.86554E-14-5.62399E-14
 -1      3348 2.72937E+01-2.16184E+00-7.73968E-03-1.11314E+00 2.65968E-14 1.97647E-13
 -1      3349 2.61660E+01-1.20387E+00-7.41767E-02 1.51983E+00 1.08861E-13 1.55331E-13
 -1      3350 1.91370E+01 2.92069E+00-3.79188E-03-1.63328E-02-2.42567E-14-5.55472E-14
 -1      3351 1.91282E+01 2.92665E+00-4.63231E-03-4.06799E-02-2.90635E-14-5.26269E-14
 -1      3352 1.91859E+01 2.68130E+00 7.20443E-03-5.61762E-02-2.18689E-14-4.66398E-14
 -1      3353 1.07358E+01 4.46192E-01 6.63985E-02 8.03951E-01 3.36970E-14 7.61752E-14
 -1      3354 1.01706E+01 5.19098E-01 1.55875E-01-2.67548E-01-1.14075E-14-7.17273E-14
 -1      3355 1.14315E+01 4.64082E-01 3.08807E-02-1.27111E+00-8.91821E-15-1.18419E-13
 -1      3356 2.21557E+01-3.55571E+00-2.07833E-02 3.10054E+00 6.37372E-14 1.47278E-14
 -1      3357 1.16061E+01-8.07449E-01 1.15431E-01 3.67592E+00 3.62488E-14 4.62907E-13
 -1      3358 2.65752E+01 4.95494E+00-1.38559E-01-6.09674E-01-1.89765E-13-7.33684E-14
 -1      3359 2.72904E+01 4.65334E+00-1.22255E-01-1.51183E+00-1.93401E-13-6.67036E-14
 -1      3360 2.00035E+01 3.06857E-03-2.43805E-05-3.02816E-03 7.84780E-14-2.29549E-13
 -1      3361 2.00032E+01 2.76093E-03 1.78687E-06-3.60423E-03 5.05696E-14 1.99228E-13
 -1      3362 1.40905E+01-1.10436E+00 4.64679E-02-4.11240E+00-1.11879E-13-1.47660E-14
 -1      3363 1.46640E+01-1.95000E+00 1.08796E-01-4.90091E+00-1.10072E-13-9.22179E-15
 -1      3364 1.64685E+01-2.39193E+00-4.39039E-03-4.80992E+00-1.23072E-13 3.34732E-14
 -1      3365 2.56609E+01-3.32987E+00-5.82904E-02 1.72346E-01 3.93782E-15 2.14002E-13
 -1      3366 2.64646E+01-2.70593E+00-3.66320E-02-5.74989E-01 2.12651E-14 2.21434E-13
 -1      3367 1.73765E+01-2.90900E+00 1.05071E-01-4.84868E+00 7.73409E-14 7.03916E-14
 -1      3368 1.30315E+01-7.33795E-01 1.15628E-01-3.59683E+00 1.15082E-13-1.61440E-13
 -1      3369 2.02903E+01 1.48809E+00-1.15893E-03 9.94319E-02-7.76885E-14 2.56682E-14
 -1      3370 2.02841E+01 1.30913E+00-1.46988E-03 3.35741E-01-6.85178E-14 2.20276E-14
 -1      3371 2.00965E+01 1.43265E+00 9.54867E-04 4.27300E-01-7.42870E-14 3.66972E-14
 -1      3372 1.13495E+01 4.70912E-01 3.13480E-02-1.03549E+00-2.37969E-14-6.44554E-14
 -1      3373 1.08532E+01 4.64916E-02 1.12272E-01-2.13978E+00-4.15223E-14-1.00094E-13
 -1      3374 1.24365E+01-9.19437E-02 4.99649E-02-2.72382E+00-8.48217E-14-5.50809E-14
 -1      3375 2.06257E+01 2.10072E-01 5.38488E-03-1.33356E+00 2.63524E-14-2.89077E-14
 -1      3376 2.03650E+01 3.50987E-01-5.12192E-03-1.33373E+00 3.08572E-14-5.44871E-14
 -1      3377 2.07336E+01 6.10205E-02 1.37211E-03-1.39890E+00-7.83249E-15-1.82199E-14
 -1      3378 2.00023E+01 3.65316E-03 4.94442E-05 4.03270E-03 8.07115E-14 1.59789E-13
 -1      3379 2.00018E+01 2.00645E-03-2.23705E-05 4.88332E-03-1.48160E-14 4.34949E-13
 -1      3380 2.01666E+01 1.93337E+00-9.85287E-04-1.73501E-01-6.55402E-14 1.93390E-14
 -1      3381 2.00028E+01 1.90832E-03-1.20025E-05-4.29612E-03 7.78822E-14 2.34345E-13
 -1      3382 2.00018E+01 1.60635E-03 5.01710E-07-4.92670E-03 5.82945E-15 2.61537E-13
 -1      3383 2.00019E+01 2.63264E-03 1.99678E-05-4.61359E-03-1.11509E-13 2.89927E-13
 -1      3384 2.00035E+01 4.30509E-03 2.46629E-05-3.42971E-03 1.38947E-14 3.52399E-13
 -1      3385 2.07923E+01-4.58709E-01-1.36696E-02-1.66698E+00-4.09309E-14-5.67111E-14
 -1      3386 2.10130E+01-3.08920E-01 4.67056E-04-1.47973E+00-9.63701E-14 4.12490E-15
 -1      3387 2.08478E+01-1.06751E-01 7.91761E-03-1.47413E+00-5.82614E-14-1.88434E-14
 -1      3388 2.51643E+01-3.17355E+00-4.39929E-03-3.64419E-01 5.67480E-14 2.44730E-13
 -1      3389 2.62641E+01-2.83550E+00 1.16016E-02 3.91289E-01 9.47697E-14 2.43063E-13
 -1      3390 2.50055E+01-4.04074E+00-1.30117E-02-1.39268E+00-1.58401E-13 2.30562E-14
 -1      3391 2.45383E+01 2.73740E+00-1.01027E-01-1.74021E+00 2.19408E-14 8.91301E-14
 -1      3392 2.43837E+01 3.50844E+00-3.73525E-02-1.00423E+00 9.25232E-14 7.79884E-14
 -1      3393 2.00022E+01 1.55930E-03-9.93540E-06 4.77356E-03 8.09656E-15 3.64903E-13
 -1      3394 2.00021E+01 3.62319E-03 1.20605E-05-4.04986E-03-3.54828E-13 3.90800E-13
 -1      3395 2.00023E+01 4.65221E-03 4.13247E-05-3.37506E-03-2.65819E-13 1.57863E-13
 -1      3396 2.00036E+01 6.62230E-03-5.63368E-05-2.08109E-03-2.60932E-13 4.64746E-13
 -1      3397 2.00031E+01 4.39408E-03-4.15445E-05-3.53088E-03-1.94484E-13 7.10829E-13
 -1      3398 2.00038E+01 4.06609E-03-2.78034E-05-1.84566E-03 9.11175E-14-5.39742E-13
 -1      3399 2.00037E+01 3.80150E-03 2.18046E-06-2.43787E-03 1.86442E-13-4.51879E-13
 -1      3400 2.00042E+01 5.91898E-03 3.48143E-05-2.24067E-03-7.18490E-15-3.29663E-13
 -1      3401 1.93655E+01 2.70841E+00-5.60602E-03 4.28436E-03 1.86416E-14-7.19518E-14
 -1      3402 1.93457E+01 2.53634E+00 6.88240E-03-8.36381E-02 1.64791E-14-5.37739E-14
 -1      3403 1.95021E+01 2.58855E+00-3.15055E-03 4.47503E-02 3.08702E-14-6.22134E-14
 -1      3404 2.00038E+01 4.71313E-03-2.43690E-05-7.65589E-04 1.97072E-14-4.54610E-13
 -1      3405 2.00038E+01 4.57043E-03-5.74116E-06-1.33946E-03 4.96528E-14-6.40721E-13
 -1      3406 2.00044E+01 7.16621E-03 4.22319E-05-1.25457E-03 8.85916E-14-6.64124E-13
 -1      3407 2.00044E+01 7.84245E-03 5.16823E-05-4.22653E-04-4.04458E-14-4.34591E-13
 -1      3408 2.69897E+01-2.38698E+00-8.29757E-02-6.99144E-01-1.07605E-13-6.16382E-14
 -1      3409 2.65444E+01-3.53097E+00 1.60209E-02 5.21301E-01-1.02136E-13-8.86513E-14
 -1      3410 2.00028E+01 1.99905E-03-2.56563E-06 4.28219E-03 6.45803E-14 2.41502E-13
 -1      3411 1.70079E+01-3.20724E+00 6.75705E-02 5.33819E+00-9.33698E-14 3.44988E-13
 -1      3412 1.55100E+01-2.16612E+00 5.98676E-02 4.86286E+00-9.00252E-14 3.51760E-13
 -1      3413 1.90529E+01-3.23712E+00 5.45809E-02 4.46946E+00-5.97890E-14 1.76312E-13
 -1      3414 2.68244E+01 2.14345E+00-1.35149E-01-2.28975E+00-6.99163E-14 2.75197E-14
 -1      3415 2.66651E+01 8.56640E-01-4.73859E-02-2.32482E+00-9.78037E-14-2.29539E-14
 -1      3416 2.00032E+01 4.79278E-03-4.09433E-05 3.32389E-03 1.18751E-13 3.00482E-13
 -1      3417 2.56460E+01 2.49979E+00-5.74734E-02-2.13660E+00-4.62547E-14 1.98105E-13
 -1      3418 2.00036E+01 4.36525E-03 2.37735E-05 3.45034E-03 4.41684E-14 2.25319E-13
 -1      3419 2.67269E+01 3.86824E+00-9.43773E-02-1.99862E+00 1.60705E-14 5.19099E-14
 -1      3420 2.05060E+01 7.38126E-01-7.76766E-04-6.62623E-01 8.35782E-15-3.89912E-14
 -1      3421 2.05094E+01 8.74985E-01 3.00554E-03-4.55744E-01 1.24568E-14-4.64725E-14
 -1      3422 2.04026E+01 1.07190E+00 3.49546E-04-3.95542E-01 2.41920E-14-4.05183E-14
 -1      3423 1.95978E+01 2.49752E+00-4.92108E-03-7.04663E-02-4.79985E-14-1.60793E-14
 -1      3424 1.97756E+01 2.31809E+00-5.08971E-03-1.11269E-01-5.61525E-14-3.63750E-15
 -1      3425 1.50834E+01-1.95513E+00 3.30704E-02 4.70091E+00 1.06588E-13-1.51212E-13
 -1      3426 1.30937E+01-1.30145E+00 1.34789E-01 4.41386E+00 8.05293E-14-2.27526E-13
 -1      3427 1.31370E+01-6.29626E-01 8.12033E-02 3.58097E+00 5.40124E-14-2.43056E-13
 -1      3428 2.59980E+01 4.85924E+00-1.40122E-01-9.88588E-01 4.26464E-14 1.47569E-13
 -1      3429 1.99752E+01 1.90561E+00 5.58359E-03-6.50860E-02 2.05975E-14-8.50926E-14
 -1      3430 1.98389E+01 2.24716E+00-4.39378E-03 1.06978E-01 3.04624E-14-8.31100E-14
 -1      3431 1.96612E+01 2.42596E+00-5.48857E-03 5.97765E-02 2.71821E-14-6.83105E-14
 -1      3432 2.05187E+01 5.38242E-01 3.98226E-04-9.73796E-01 1.29442E-14-2.60659E-14
 -1      3433 2.04930E+01 6.52635E-01 3.45713E-03-8.16133E-01 3.13828E-15-3.67223E-14
 -1      3434 2.03745E+01 8.01058E-01-1.17112E-03-7.75582E-01 1.88505E-15-3.58619E-14
 -1      3435 2.03414E+01 5.98800E-01-2.67637E-03-1.07243E+00 2.72223E-14-2.71291E-14
 -1      3436 2.36496E+01-4.62131E+00 7.66437E-02 3.20973E+00-3.75255E-14-6.03753E-14
 -1      3437 2.23464E+01-4.20484E+00 2.64088E-02 3.47204E+00 6.10623E-15-7.85626E-14
 -1      3438 1.09924E+01 2.45744E-01 1.30738E-01 1.37966E+00 9.82547E-15-2.47274E-13
 -1      3439 2.65593E+01 5.03340E+00-1.32318E-01 6.19812E-01-2.04919E-13-1.04102E-13
 -1      3440 2.34878E+01-4.37429E+00 4.96602E-02-3.05608E+00 2.49904E-14 1.29206E-13
 -1      3441 1.93148E+01 2.76253E+00-4.81872E-03-3.94336E-02-3.51287E-14-3.61196E-14
 -1      3442 1.94416E+01 2.64878E+00-4.05942E-03-7.17875E-02-3.21273E-14-3.89861E-14
 -1      3443 1.95492E+01 2.34931E+00 5.54241E-03 6.35844E-02-4.60671E-14-1.79039E-14
 -1      3444 2.51061E+01-4.36667E+00-7.95382E-02 1.98143E+00-2.28116E-14-2.19427E-13
 -1      3445 2.71256E+01-3.53596E+00-4.47053E-02 3.40670E-01 1.66629E-14 1.16761E-13
 -1      3446 2.61660E+01-4.22509E+00 9.92767E-02 1.38247E+00 6.70575E-14 1.05631E-13
 -1      3447 1.95471E+01 8.63109E-01-1.90288E-03 1.39125E+00-2.86171E-14-5.62275E-15
 -1      3448 1.95214E+01 7.31726E-01 4.50065E-03 1.55616E+00-2.92707E-14-4.12273E-14
 -1      3449 1.94022E+01 5.74507E-01-2.14056E-03 1.74228E+00-4.05658E-14-5.20865E-14
 -1      3450 1.94283E+01 3.89252E-01 8.71838E-03 1.90459E+00-1.12267E-14-5.03671E-14
 -1      3451 1.90846E+01 8.01700E-01 5.63508E-04 1.59492E+00-4.58692E-14-1.03334E-14
 -1      3452 1.93374E+01 1.53555E-01-4.68628E-04 2.11942E+00 2.00163E-14-6.30054E-14
 -1      3453 1.94644E+01-1.33365E-01 1.45170E-02 2.28255E+00 1.72245E-14-9.47031E-14
 -1      3454 1.88649E+01 4.21733E-01-3.24766E-03 2.00208E+00-1.53759E-14-4.79953E-14
 -1      3455 1.94619E+01-4.94420E-01 6.30300E-03 2.53827E+00 7.19922E-14-1.18925E-13
 -1      3456 1.97619E+01-9.38623E-01 2.03924E-02 2.69200E+00 8.73073E-14-7.83137E-14
 -1      3457 1.87436E+01-1.67064E-01-1.04244E-02 2.49770E+00 3.33522E-14-1.09509E-13
 -1      3458 1.99608E+01-1.46219E+00 2.45811E-02 2.97663E+00 6.46171E-14-6.12020E-14
 -1      3459 2.05111E+01-2.11499E+00 1.88016E-02 3.08477E+00 1.82597E-14-3.06413E-14
 -1      3460 1.88678E+01-1.08011E+00-1.95978E-02 3.10145E+00 8.23339E-14-7.10257E-14
 -1      3461 1.32539E+01-1.04406E+00 6.08828E-02 4.19613E+00-1.56958E-14 4.54324E-13
 -1      3462 1.16793E+01-1.31734E-01 4.29679E-02 2.83469E+00 7.35904E-14 3.77864E-13
 -1      3463 1.65241E+01-2.04148E+00 6.74461E-02-4.48136E+00 4.80380E-14 1.01877E-13
 -1      3464 1.88446E+01-3.12992E+00-2.68035E-02-4.41593E+00 7.08253E-14 2.85251E-13
 -1      3465 2.39255E+01-3.77193E+00 6.15182E-02-1.98647E+00-1.12725E-13-4.04937E-14
 -1      3466 2.26515E+01-3.28013E+00-3.23237E-03-2.31385E+00 4.36630E-14-9.70491E-15
 -1      3467 2.18666E+01-2.60201E+00 5.56815E-02-2.51712E+00 1.12553E-13 1.24861E-14
 -1      3468 2.25211E+01-3.83617E+00-3.40545E-02-2.88339E+00-6.60635E-14 5.40765E-14
 -1      3469 2.08677E+01-1.94469E+00 7.38380E-03-2.57187E+00 1.98326E-13 4.80835E-14
 -1      3470 2.03590E+01-1.34557E+00 2.54997E-02-2.53580E+00 2.60232E-13 1.26325E-13
 -1      3471 2.00791E+01-8.72954E-01 1.60706E-02-2.33820E+00 1.90202E-13-3.29489E-16
 -1      3472 1.97642E+01-4.71109E-01 7.14354E-03-2.24084E+00 1.20746E-13-2.36275E-14
 -1      3473 1.93107E+01-1.07419E+00-2.58286E-02-2.74719E+00 1.89735E-13 1.38397E-13
 -1      3474 1.96943E+01-1.48420E-01 1.28355E-02-2.03438E+00 1.30635E-13-6.55933E-14
 -1      3475 1.95324E+01 9.54956E-02-1.17108E-04-1.91520E+00 1.00409E-13 3.18511E-14
 -1      3476 1.90231E+01-2.09301E-01-1.25035E-02-2.26857E+00 8.86806E-14-1.12368E-13
 -1      3477 1.95620E+01 2.84659E-01 8.21568E-03-1.73798E+00 9.63141E-14 1.00749E-13
 -1      3478 1.94930E+01 4.16314E-01-2.48277E-03-1.61766E+00 6.38506E-14 1.39380E-13
 -1      3479 1.90106E+01 3.02717E-01-4.21151E-03-1.86032E+00 1.15442E-13-7.18679E-14
 -1      3480 1.95624E+01 5.11657E-01 5.14853E-03-1.46940E+00-8.63333E-14 1.00419E-13
 -1      3481 1.95419E+01 5.68293E-01-3.19735E-03-1.35554E+00-1.57009E-13 4.98488E-14
 -1      3482 1.91164E+01 5.72763E-01-1.43827E-04-1.53060E+00-3.87110E-14-7.36553E-14
 -1      3483 1.96216E+01 6.02517E-01 3.24209E-03-1.23062E+00-2.10374E-13 5.20337E-14
 -1      3484 1.96233E+01 6.12255E-01-3.24793E-03-1.12583E+00-2.01848E-13-5.49162E-14
 -1      3485 1.92640E+01 6.85938E-01 1.58854E-03-1.26125E+00-2.06500E-13-9.21865E-14
 -1      3486 1.96992E+01 6.09354E-01 2.16270E-03-1.01948E+00-2.61961E-13-5.27045E-14
 -1      3487 1.97087E+01 5.91940E-01-3.01147E-03-9.24990E-01-1.92583E-13-1.62657E-13
 -1      3488 1.94150E+01 7.01779E-01 2.18196E-03-1.03655E+00-2.63912E-13-6.77122E-14
 -1      3489 1.97748E+01 5.68489E-01 1.57732E-03-8.34052E-01 1.57598E-14-2.05914E-13
 -1      3490 1.97853E+01 5.37132E-01-2.66612E-03-7.50499E-01 1.27448E-14-3.67886E-14
 -1      3491 1.95514E+01 6.61073E-01 2.20118E-03-8.46145E-01-6.02985E-14-1.47813E-13
 -1      3492 1.98398E+01 5.03960E-01 1.25710E-03-6.72980E-01-7.60274E-14 5.82300E-15
 -1      3493 1.98483E+01 4.67068E-01-2.29058E-03-6.00534E-01-4.10796E-14-4.43292E-14
 -1      3494 1.96662E+01 5.91133E-01 1.96119E-03-6.83824E-01-3.30995E-14-7.50750E-14
 -1      3495 1.98917E+01 4.30905E-01 1.06493E-03-5.35040E-01 9.35450E-16-1.62036E-13
 -1      3496 1.98974E+01 3.93566E-01-1.92308E-03-4.73440E-01 3.63671E-14-2.08464E-13
 -1      3497 1.97586E+01 5.09479E-01 1.63076E-03-5.45855E-01-1.03847E-13-1.08122E-13
 -1      3498 1.99309E+01 3.58359E-01 9.27502E-04-4.18798E-01 1.67027E-13-1.73257E-13
 -1      3499 1.99342E+01 3.23441E-01-1.58306E-03-3.67405E-01 2.05340E-13 2.16974E-14
 -1      3500 1.98305E+01 4.26853E-01 1.29520E-03-4.29662E-01 9.33555E-14-6.34496E-14
 -1      3501 1.99594E+01 2.91310E-01 8.10674E-04-3.22476E-01 1.78116E-13 1.55447E-13
 -1      3502 1.99607E+01 2.60246E-01-1.28002E-03-2.80375E-01 2.21753E-13 2.23686E-13
 -1      3503 1.98849E+01 3.49417E-01 9.93842E-04-3.33062E-01 3.08357E-13 2.35571E-13
 -1      3504 1.99792E+01 2.32152E-01 7.01520E-04-2.44001E-01 6.94917E-14 2.21866E-14
 -1      3505 1.99791E+01 2.05478E-01-1.01760E-03-2.10111E-01-1.76972E-13-2.54555E-14
 -1      3506 1.99250E+01 2.80326E-01 7.41030E-04-2.53930E-01 4.00010E-15-4.35565E-14
 -1      3507 1.99925E+01 1.81677E-01 5.97237E-04-1.81127E-01-2.60274E-13-7.62303E-14
 -1      3508 1.99915E+01 1.59391E-01-7.95704E-04-1.54309E-01-2.72653E-13-7.19577E-14
 -1      3509 1.99539E+01 2.20811E-01 5.38192E-04-1.90112E-01-2.42881E-13-1.31127E-13
 -1      3510 2.00009E+01 1.39725E-01 4.99004E-04-1.31583E-01-1.91423E-13-2.04677E-14
 -1      3511 1.99994E+01 1.21521E-01-6.11961E-04-1.10713E-01-1.00328E-13 3.76551E-14
 -1      3512 1.99741E+01 1.70930E-01 3.80697E-04-1.39462E-01-2.17377E-13-8.72673E-15
 -1      3513 2.00057E+01 1.05614E-01 4.08920E-04-9.31833E-02-5.28697E-14 2.90861E-14
 -1      3514 2.00041E+01 9.10362E-02-4.62687E-04-7.72135E-02-5.63039E-14-1.06865E-14
 -1      3515 1.99878E+01 1.30062E-01 2.61645E-04-9.99109E-02-7.92840E-14 1.59631E-13
 -1      3516 2.00082E+01 7.84096E-02 3.28716E-04-6.39197E-02-1.12549E-13 6.22466E-14
 -1      3517 2.00065E+01 6.69431E-02-3.43672E-04-5.19111E-02-1.50466E-13 1.05534E-13
 -1      3518 1.99967E+01 9.72384E-02 1.73811E-04-6.95345E-02 3.22848E-16 1.39334E-13
 -1      3519 2.00090E+01 5.70917E-02 2.59371E-04-4.20089E-02-6.18167E-14 1.14519E-13
 -1      3520 2.00074E+01 4.82199E-02-2.50566E-04-3.31471E-02 4.65765E-14 6.94792E-14
 -1      3521 2.00021E+01 7.13442E-02 1.10420E-04-4.66036E-02-1.38256E-13 3.02555E-13
 -1      3522 2.00088E+01 4.06546E-02 2.00913E-04-2.59169E-02 8.38785E-14 4.95581E-14
 -1      3523 2.00074E+01 3.38920E-02-1.78965E-04-1.95157E-02 1.21169E-13 1.91917E-13
 -1      3524 2.00050E+01 5.12514E-02 6.61235E-05-2.96124E-02 5.63381E-14 1.32818E-13
 -1      3525 2.00080E+01 2.81614E-02 1.53072E-04-1.43566E-02 2.99741E-13 1.69842E-13
 -1      3526 2.00067E+01 2.30642E-02-1.26205E-04-9.85213E-03 1.75698E-13 3.01046E-13
 -1      3527 2.00062E+01 3.58910E-02 3.60228E-05-1.72851E-02 2.00399E-13 1.34321E-13
 -1      3528 2.00067E+01 1.87581E-02 1.15088E-04-6.27995E-03 2.73355E-14 4.07578E-13
 -1      3529 2.00057E+01 1.49393E-02-8.42345E-05-3.22938E-03 1.53301E-13 4.03284E-13
 -1      3530 2.00063E+01 2.42682E-02 1.17617E-05-8.55926E-03 2.21107E-13 2.16695E-13
 -1      3531 2.00054E+01 1.16813E-02 7.88002E-05-8.51900E-04 1.30751E-13 5.58401E-13
 -1      3532 2.00045E+01 8.87800E-03-2.84201E-05 1.06667E-03 1.50405E-13 4.78011E-13
 -1      3533 2.00057E+01 1.55528E-02-8.22330E-07-2.60628E-03 1.42344E-13 3.60082E-13
 -1      3534 1.99908E+01 2.03110E+00-1.51481E-04-4.55401E-02-6.43408E-14 1.42427E-14
 -1      3535 2.45033E+01-3.32039E+00 2.67968E-02-9.57482E-01 3.95205E-14 2.91351E-13
 -1      3536 2.63884E+01-6.57910E-01-9.12594E-02-1.89694E+00-1.12948E-13-5.34330E-14
 -1      3537 2.20079E+01-2.02069E+00 2.84577E-02 1.65859E+00 3.06995E-14-1.59098E-13
 -1      3538 2.26067E+01-2.42595E+00 5.46518E-03 1.38061E+00 3.52982E-14-7.78292E-14
 -1      3539 2.10180E+01-1.16861E+00 2.08494E-02 1.79036E+00-8.75894E-14-5.42062E-14
 -1      3540 2.14190E+01-1.57696E+00 4.30856E-03 1.71315E+00-4.07046E-14-1.18725E-13
 -1      3541 2.11263E+01-1.91302E+00-2.48282E-02 2.13307E+00 2.16016E-15-2.44285E-13
 -1      3542 2.04157E+01-5.05957E-01 9.79297E-03 1.71869E+00-1.44986E-14-5.57921E-14
 -1      3543 2.06820E+01-8.19333E-01 4.73434E-03 1.73156E+00-2.30178E-14-1.40329E-14
 -1      3544 2.02803E+01-1.04603E+00-2.88800E-02 2.05178E+00-2.91303E-14-1.88314E-13
 -1      3545 2.00904E+01-4.62256E-02 4.20400E-03 1.55374E+00-1.36289E-14-8.48424E-14
 -1      3546 2.02551E+01-2.52797E-01 6.26831E-03 1.61173E+00-5.03832E-14-7.71822E-14
 -1      3547 1.98510E+01-3.50263E-01-1.35047E-02 1.82677E+00-3.48670E-14-1.50293E-13
 -1      3548 1.99344E+01 2.36992E-01 9.63986E-04 1.35943E+00-6.79066E-15 5.92884E-14
 -1      3549 2.00294E+01 1.15102E-01 5.08921E-03 1.43810E+00-2.42247E-14 1.47708E-14
 -1      3550 1.96621E+01 9.48357E-02-6.73721E-03 1.57693E+00-6.31053E-14-1.07016E-13
 -1      3551 1.98759E+01 3.87849E-01-6.99083E-04 1.16249E+00-1.40618E-13 1.17603E-13
 -1      3552 1.99282E+01 3.27163E-01 3.87687E-03 1.24816E+00-8.36114E-15 1.08624E-13
 -1      3553 1.96099E+01 3.55287E-01-2.93903E-03 1.33701E+00-4.05957E-14-1.41198E-14
 -1      3554 1.98686E+01 4.47829E-01-1.50481E-03 9.75601E-01 4.99125E-14 1.03570E-13
 -1      3555 1.98966E+01 4.28050E-01 2.95582E-03 1.06054E+00-5.84144E-14 7.53045E-14
 -1      3556 1.96295E+01 4.83874E-01-8.38064E-04 1.11893E+00-2.55359E-14 8.98655E-14
 -1      3557 1.98851E+01 4.50039E-01-1.81410E-03 8.04769E-01 9.45824E-14 1.39820E-13
 -1      3558 1.99001E+01 4.55616E-01 2.32340E-03 8.84544E-01 9.49773E-14 1.39519E-13
 -1      3559 1.96813E+01 5.24889E-01 2.17156E-04 9.25083E-01 4.14675E-14 8.40928E-14
 -1      3560 1.99098E+01 4.18598E-01-1.84258E-03 6.52849E-01-9.65534E-15 2.07234E-13
 -1      3561 1.99185E+01 4.38447E-01 1.90218E-03 7.24951E-01 4.64204E-14 2.21585E-13
 -1      3562 1.97429E+01 5.11579E-01 6.76528E-04 7.55101E-01-1.23381E-14 1.56025E-13
 -1      3563 1.99350E+01 3.70089E-01-1.71949E-03 5.20875E-01-4.19257E-14 1.78907E-13
 -1      3564 1.99407E+01 3.96713E-01 1.60636E-03 5.84086E-01 2.60416E-14 2.32558E-13
 -1      3565 1.98026E+01 4.67550E-01 8.09645E-04 6.07964E-01-2.20213E-14 2.12772E-13
 -1      3566 1.99569E+01 3.15328E-01-1.52237E-03 4.08645E-01-1.02590E-13 2.73190E-13
 -1      3567 1.99614E+01 3.43914E-01 1.37723E-03 4.62649E-01-1.41166E-13 1.45332E-13
 -1      3568 1.98548E+01 4.08811E-01 7.75785E-04 4.82406E-01-6.20122E-14 3.28145E-13
 -1      3569 1.99743E+01 2.60966E-01-1.29812E-03 3.15089E-01-1.41143E-13 3.77665E-13
 -1      3570 1.99783E+01 2.88612E-01 1.18258E-03 3.60185E-01-9.26029E-14 3.78651E-13
 -1      3571 1.98976E+01 3.45717E-01 6.67689E-04 3.76903E-01-2.10243E-13 3.40327E-13
 -1      3572 1.99873E+01 2.10775E-01-1.07464E-03 2.38556E-01 4.58085E-14 3.35961E-13
 -1      3573 1.99910E+01 2.35888E-01 1.00779E-03 2.75442E-01-2.51190E-14 3.05149E-13
 -1      3574 1.99313E+01 2.84576E-01 5.37004E-04 2.89672E-01-4.85081E-14 3.12886E-13
 -1      3575 1.99964E+01 1.66608E-01-8.67658E-04 1.77071E-01 1.32570E-13 4.78912E-13
 -1      3576 1.99999E+01 1.88455E-01 8.47905E-04 2.06665E-01 1.07121E-13 3.45108E-13
 -1      3577 1.99566E+01 2.28898E-01 4.10467E-04 2.18721E-01 6.97936E-14 2.72190E-13
 -1      3578 2.00023E+01 1.29090E-01-6.85011E-04 1.28533E-01 2.42219E-13 4.96611E-13
 -1      3579 2.00056E+01 1.47487E-01 7.02430E-04 1.51845E-01 2.42567E-13 5.71519E-13
 -1      3580 1.99750E+01 1.80328E-01 3.00228E-04 1.61955E-01 1.06149E-13 6.30667E-13
 -1      3581 2.00058E+01 9.81036E-02-5.29527E-04 9.08734E-02 1.06067E-13 5.39653E-13
 -1      3582 2.00087E+01 1.13190E-01 5.72250E-04 1.08912E-01 2.07457E-13 5.20304E-13
 -1      3583 1.99879E+01 1.39317E-01 2.10289E-04 1.17279E-01 1.86293E-13 7.77512E-13
 -1      3584 2.00076E+01 7.31090E-02-4.01015E-04 6.21618E-02-2.43689E-14 4.46204E-13
 -1      3585 2.00102E+01 8.52038E-02 4.58203E-04 7.58694E-02 1.71326E-15 4.76434E-13
 -1      3586 1.99965E+01 1.05594E-01 1.40376E-04 8.26987E-02 8.33330E-14 5.34270E-13
 -1      3587 2.00081E+01 5.33614E-02-2.97510E-04 4.06680E-02-5.95404E-14 3.51370E-13
 -1      3588 2.00103E+01 6.28651E-02 3.60481E-04 5.08903E-02 2.37925E-14 4.43434E-13
 -1      3589 2.00018E+01 7.84839E-02 8.81135E-05 5.63866E-02-2.79707E-14 4.93446E-13
 -1      3590 2.00078E+01 3.80447E-02-2.16036E-04 2.48939E-02 7.39327E-14 1.78564E-13
 -1      3591 2.00097E+01 4.53800E-02 2.78584E-04 3.23613E-02-3.83106E-14 3.02309E-13
 -1      3592 2.00048E+01 5.71215E-02 5.06765E-05 3.67241E-02 4.37302E-14 4.42727E-13
 -1      3593 2.00070E+01 2.63512E-02-1.53842E-04 1.35794E-02-1.19498E-13 3.27389E-13
 -1      3594 2.00086E+01 3.19288E-02 2.11412E-04 1.89039E-02-5.54893E-15 2.13096E-13
 -1      3595 2.00062E+01 4.05849E-02 2.49182E-05 2.23210E-02 6.46621E-14 4.56826E-13
 -1      3596 2.00059E+01 1.75292E-02-1.03700E-04 5.69779E-03 6.60161E-14 3.51117E-13
 -1      3597 2.00072E+01 2.17245E-02 1.57790E-04 9.37430E-03 2.00614E-14 3.36360E-13
 -1      3598 2.00064E+01 2.79708E-02 7.63112E-06 1.20128E-02-4.92838E-14 4.07744E-13
 -1      3599 2.00048E+01 1.09645E-02-3.17650E-05 4.65436E-04-8.64149E-14 4.46029E-13
 -1      3600 2.00058E+01 1.40158E-02 1.08891E-04 2.84204E-03 3.94808E-14 4.99277E-13
 -1      3601 2.00059E+01 1.84492E-02-7.38138E-06 4.85880E-03-9.39690E-15 6.56629E-13
 -1      3602 2.67044E+01-1.54727E+00-4.64003E-02-1.47020E+00-1.39423E-13-4.78645E-14
 -1      3603 2.58392E+01-2.19979E+00-1.68603E-02-9.34890E-01-9.09169E-14-2.16164E-14
 -1      3604 1.30729E+01-4.76698E-02 3.71028E-02-2.78330E+00 9.50282E-15-1.12750E-13
 -1      3605 1.45391E+01-1.07904E+00 3.25972E-02-4.03259E+00 9.69363E-15-1.01863E-14
 -1      3606 1.63938E+01-1.20256E+00 6.80373E-02-3.73982E+00-2.32384E-14 1.41703E-13
 -1      3607 2.52903E+01-3.73793E+00 2.58944E-02 9.88592E-01 1.73472E-17-2.01575E-14
 -1      3608 2.00046E+01 8.14907E-03 5.54685E-06 1.63228E-03-7.48281E-14 1.48844E-13
 -1      3609 2.00046E+01 8.83826E-03-5.05417E-05 1.13851E-03-1.98060E-13 1.02428E-13
 -1      3610 1.99236E+01-4.06316E+00 1.08363E-01 4.93931E+00 1.16358E-13-7.18557E-14
 -1      3611 1.83472E+01-3.28234E+00 4.42802E-02 4.88731E+00 1.04604E-13-9.30436E-14
 -1      3612 2.16482E+01-4.13241E+00 1.70962E-02 3.87212E+00 1.36339E-13-4.70804E-14
 -1      3613 1.91563E+01 2.90376E+00-4.35551E-03-2.57528E-02-2.30450E-14-4.47393E-14
 -1      3614 1.92177E+01 2.85100E+00-4.15183E-03-5.12565E-02-3.03873E-14-3.43283E-14
 -1      3615 1.92910E+01 2.58955E+00 6.66020E-03 3.24942E-02-2.84804E-14-4.20158E-14
 -1      3616 2.52908E+01-2.85841E+00-4.65131E-02-2.88011E-01 2.44609E-14 3.56668E-14
 -1      3617 1.89878E+01-3.07254E+00 9.87736E-02-4.60454E+00-1.09884E-13 6.83134E-15
 -1      3618 2.06471E+01-3.84920E+00-4.97162E-02-4.17053E+00-7.78370E-14 1.25663E-14
 -1      3619 1.21545E+01 2.93553E-01 3.15435E-02 1.99529E+00 5.20157E-15-2.70430E-13
 -1      3620 1.16463E+01 6.70756E-01 8.40274E-02 5.64638E-01-1.75055E-15-1.82902E-13
 -1      3621 2.10781E+01-1.20412E+00 5.93414E-03-1.91990E+00-4.23565E-14 6.47005E-14
 -1      3622 2.07554E+01-8.23093E-01 1.46527E-02-1.94088E+00-2.43145E-14-1.07016E-15
 -1      3623 2.08555E+01-3.39341E+00 8.92745E-02-3.78037E+00 4.46847E-14 1.74127E-13
 -1      3624 2.44175E+01-3.31847E+00 2.90242E-03 8.47161E-01 1.03485E-13-2.66378E-14
 -1      3625 1.99146E+01 1.90006E+00 3.99985E-03 1.44039E-01-6.30171E-14 1.52073E-14
 -1      3626 2.02857E+01 1.25054E+00 2.87101E-05-3.33748E-01 1.72056E-14-5.58422E-14
 -1      3627 2.01566E+01 1.46533E+00-5.27794E-06-2.75898E-01 1.91500E-14-6.82868E-14
 -1      3628 2.02756E+01 1.07680E+00-9.64626E-04-5.53476E-01-4.02209E-15-2.94282E-14
 -1      3629 2.24669E+01-3.76690E+00 7.87110E-02-3.15128E+00-4.18921E-14 1.58359E-13
 -1      3630 2.37379E+01-3.82105E+00-5.20642E-02-1.97814E+00-6.22636E-15 2.62759E-13
 -1      3631 2.34914E+01-2.99955E+00 1.15799E-04-1.28529E+00-2.73895E-14 2.54338E-13
 -1      3632 2.16924E+01-3.26291E+00 3.20045E-02-3.12074E+00-9.12742E-14 1.40442E-13
 -1      3633 1.97090E+01 1.10168E+00-1.47164E-03 1.04083E+00-2.79309E-14-1.77453E-14
 -1      3634 1.96625E+01 9.85275E-01 1.50990E-03 1.21699E+00-2.79551E-14-7.07119E-15
 -1      3635 1.93230E+01 1.07689E+00 2.41676E-03 1.23661E+00-3.27785E-14-6.32865E-15
 -1      3636 2.28870E+01-3.82489E+00-1.13046E-02 2.56601E+00 8.69335E-14-1.26087E-13
 -1      3637 2.12884E+01-3.62322E+00 4.96577E-02 3.60430E+00 1.01745E-13 2.24525E-14
 -1      3638 1.98488E+01 1.36089E+00-1.73486E-03 6.69663E-01-6.34642E-14 2.37463E-14
 -1      3639 1.98040E+01 1.22648E+00-2.25461E-04 8.65552E-01-4.67896E-14-5.15172E-15
 -1      3640 1.95364E+01 1.32624E+00 2.62517E-03 8.90733E-01-4.51092E-14 1.10797E-14
 -1      3641 2.37278E+01-3.27062E+00 1.02354E-02 1.33124E+00 5.48095E-14-4.30342E-14
 -1      3642 1.17329E+01 4.92428E-01 1.04629E-01 1.72460E+00 1.19009E-13 2.04947E-13
 -1      3643 1.20931E+01 7.22592E-01 4.24720E-03 5.21164E-01 1.28903E-13 9.85462E-14
 -1      3644 1.30906E+01 2.58891E-01 3.95048E-02 2.27933E+00 1.55273E-13 3.17808E-13
 -1      3645 1.36347E+01-3.27402E-01 9.39052E-02-3.36089E+00-1.11858E-13-4.20219E-14
 -1      3646 1.50745E+01-7.86978E-01 2.92558E-02-3.61465E+00-1.30687E-13 5.48173E-16
 -1      3647 1.35270E+01 1.46487E-01 3.15480E-02-2.48725E+00-1.03891E-13-1.64660E-14
 -1      3648 1.93589E+01 2.26854E+00-2.11239E-03-1.84959E-01 1.49905E-14-4.96032E-14
 -1      3649 1.92377E+01 2.36778E+00-5.16736E-03-1.68971E-01-4.56501E-15-2.37564E-14
 -1      3650 2.56735E+01-3.67688E+00 5.74028E-02 8.34313E-01 2.61180E-14 1.35489E-13
 -1      3651 2.05049E+01 5.46951E-03-8.65178E-03-1.54426E+00-3.30830E-14-5.57046E-14
 -1      3652 1.79249E+01-2.34838E+00 3.66691E-02-4.30588E+00-1.16605E-13-1.33296E-14
 -1      3653 1.54059E+01-1.42088E+00 6.35599E-02 4.15197E+00-2.70617E-15 3.61287E-13
 -1      3654 1.99165E+01-2.71940E+00 2.34743E-02-3.64759E+00 7.47527E-14 2.14596E-13
 -1      3655 1.99621E+01 1.66777E+00-2.31293E-03-2.78182E-01 7.06466E-15-6.99122E-14
 -1      3656 2.27307E+01-2.86596E+00 6.61112E-03 1.70906E+00 7.98268E-14-3.15884E-14
 -1      3657 1.25171E+01 6.86184E-01 5.91336E-02-2.87075E-01-3.84397E-14-1.29029E-13
 -1      3658 2.04152E+01-2.36619E+00-3.41557E-02-3.05317E+00 1.61494E-13 1.93510E-13
 -1      3659 1.26853E+01 4.12231E-01 9.15844E-02-2.14845E+00 3.20247E-14-2.04746E-13
 -1      3660 1.40660E+01 1.41731E-01 4.52985E-02-2.57205E+00-2.26191E-14-1.22020E-13
 -1      3661 1.24086E+01 5.91334E-01 1.78368E-02-1.24777E+00-1.51736E-14-1.47504E-13
 -1      3662 2.00042E+01 6.60077E-03-4.32706E-05-2.27726E-03 3.14944E-15 1.61327E-13
 -1      3663 2.00038E+01 5.76984E-03 7.51915E-06-2.83668E-03-5.78242E-14 5.98541E-13
 -1      3664 2.00041E+01 7.05408E-03 4.01478E-05-2.24742E-03-1.66841E-13 6.85121E-13
 -1      3665 1.91502E+01 2.44964E+00-2.70137E-03-1.09102E-01-2.83356E-16-2.24127E-14
 -1      3666 1.90980E+01 2.48886E+00-4.88529E-03-8.13167E-02-1.03576E-14-5.50458E-14
 -1      3667 1.91770E+01 2.22967E+00 7.16792E-03-2.06313E-01-4.10521E-15-2.01704E-14
 -1      3668 2.28546E+01-2.65085E+00 3.46766E-02-1.64619E+00-1.34831E-14 1.82120E-13
 -1      3669 2.00039E+01 6.12947E-03 4.24904E-06 2.66065E-03 4.09825E-14 4.09789E-13
 -1      3670 2.00044E+01 6.91667E-03-4.11734E-05 2.10832E-03-9.91508E-14 3.83600E-13
 -1      3671 2.00045E+01 1.09701E-02-2.27318E-05 2.98809E-04-4.19215E-15-3.94027E-13
 -1      3672 2.00045E+01 1.11412E-02-3.89194E-05-1.30904E-07 9.90943E-15-4.69077E-13
 -1      3673 1.96248E+01 2.27486E+00 7.21755E-03-8.56132E-02 2.57770E-14-5.65984E-14
 -1      3674 2.05397E+01-4.97585E-01 6.56745E-03-1.84034E+00-1.44682E-14-4.19956E-14
 -1      3675 2.03435E+01-2.13742E-01 7.55302E-03-1.78778E+00-4.10715E-14-2.07512E-14
 -1      3676 2.01648E+01-6.48246E-01-1.77833E-02-2.09593E+00-6.03690E-14 1.23144E-14
 -1      3677 2.00045E+01 1.11540E-02-3.49893E-05-8.63693E-05-2.67572E-15-4.55305E-13
 -1      3678 2.00045E+01 1.10041E-02-1.72353E-05-3.82692E-04 4.50212E-14-5.56623E-13
 -1      3679 2.00048E+01 1.48474E-02 8.01284E-05-3.99543E-05 1.15258E-13-4.17734E-13
 -1      3680 2.00050E+01 1.03133E-02 4.48590E-05 8.21315E-04-7.45408E-14 3.18354E-13
 -1      3681 2.00046E+01 9.91222E-03-7.42723E-06 8.22779E-04-8.22513E-14-1.11675E-13
 -1      3682 2.00046E+01 1.03770E-02-4.97309E-05 4.47788E-04-6.75247E-14-4.58835E-13
 -1      3683 2.00049E+01 1.42653E-02 8.15383E-05-3.72800E-05 2.76547E-14-3.63182E-13
 -1      3684 2.01039E+01-3.19106E+00 1.89962E-02 3.95918E+00 6.81764E-14 2.75717E-14
 -1      3685 1.87876E+01-2.43078E+00 4.82896E-02 3.99380E+00 4.67213E-14 2.17064E-13
 -1      3686 2.09378E+01-2.89489E+00 3.95259E-02 3.12665E+00 1.11082E-13-8.32875E-14
 -1      3687 2.15092E+01-1.60497E+00 3.05048E-02-1.94041E+00-4.52944E-14 8.98395E-14
 -1      3688 2.07362E+01-1.48616E+00-2.44970E-02-2.29841E+00-5.88856E-14 1.22673E-13
 -1      3689 2.19743E+01-2.06749E+00 1.33668E-03-1.79666E+00-1.85416E-14 1.13412E-13
 -1      3690 2.00051E+01 1.25981E-02 5.40873E-05 2.35461E-04-2.08024E-14-5.15154E-14
 -1      3691 1.91655E+01 2.70032E+00 7.05372E-03-1.26791E-02-1.74467E-14-5.01093E-14
 -1      3692 1.31425E+01 8.17851E-02 8.66305E-02 2.69077E+00 2.79221E-14-2.07920E-13
 -1      3693 1.36831E+01 4.42598E-01 4.25904E-02 1.93853E+00 1.73056E-14-2.22933E-13
 -1      3694 1.43468E+01-4.49018E-01 1.37751E-02 3.36990E+00 7.29096E-14-1.83326E-13
 -1      3695 1.98999E+01 1.68396E+00-3.34324E-03 3.10771E-01-7.14336E-14 2.51312E-14
 -1      3696 1.98842E+01 1.51992E+00-3.31080E-04 5.07349E-01-6.77380E-14 2.53602E-14
 -1      3697 1.96638E+01 1.61592E+00 2.04885E-03 5.55827E-01-6.74908E-14 3.79200E-14
 -1      3698 1.97021E+01 1.98031E+00 1.38329E-03 2.30663E-01-5.64217E-14 1.04106E-14
 -1      3699 2.18364E+01-2.89650E+00-5.46536E-03 2.47076E+00 1.24915E-13-1.89909E-13
 -1      3700 2.00043E+01 8.38276E-03 1.07594E-05-1.47339E-03-3.74029E-13 8.32058E-13
 -1      3701 2.00046E+01 9.72120E-03 5.59232E-05-5.66771E-04-3.21102E-13 6.60811E-13
 -1      3702 2.00052E+01 1.27334E-02-5.95738E-05 9.53825E-04-3.57480E-13 9.02594E-13
 -1      3703 2.00047E+01 9.67632E-03-5.98007E-05-9.35719E-04-2.47571E-13 7.66577E-13
 -1      3704 2.01332E+01 7.04396E-01 9.96398E-04-1.11811E+00 3.94247E-14-5.81493E-14
 -1      3705 2.01477E+01 8.10453E-01 9.70192E-04-9.81014E-01 1.11938E-14-4.51006E-14
 -1      3706 2.00043E+01 7.68023E-03 5.68378E-05 1.83105E-03 4.57558E-14 4.37225E-13
 -1      3707 1.89816E+01-2.69604E+00 2.24266E-02 4.16976E+00 5.12212E-14-8.08277E-14
 -1      3708 1.68838E+01-2.24151E+00 8.92511E-02 4.69617E+00 6.76889E-14-7.04541E-14
 -1      3709 2.01580E+01 4.04378E-01 2.95241E-03-1.40636E+00 2.45966E-14-2.04977E-14
 -1      3710 2.01144E+01 5.60364E-01 2.19544E-03-1.27790E+00 4.93102E-14-2.78947E-14
 -1      3711 1.99001E+01 7.56720E-01-1.54425E-03-1.19320E+00 2.53092E-14-5.94188E-14
 -1      3712 1.93686E+01 2.27326E+00-1.31608E-03 1.64978E-01-3.40501E-14-9.85805E-15
 -1      3713 1.95187E+01 2.12647E+00-3.78136E-03 1.84682E-01-5.32997E-14 6.25368E-15
 -1      3714 1.95182E+01 1.93841E+00 2.90646E-03 3.36583E-01-5.50155E-14 7.40575E-15
 -1      3715 1.60425E+01-1.42331E+00 3.59268E-02 4.15416E+00 6.81954E-14-1.04351E-13
 -1      3716 2.00045E+01 8.45659E-03-4.64514E-05-1.28594E-03 1.72240E-14-4.14635E-13
 -1      3717 2.00044E+01 7.77901E-03-6.49762E-07-1.75898E-03-7.72229E-14-2.37836E-13
 -1      3718 2.00048E+01 9.56281E-03 4.57537E-05-1.18784E-03-2.11041E-13-1.28795E-13
 -1      3719 1.96901E+01-2.59530E+00 6.60029E-04 3.82222E+00 5.42882E-14-7.65013E-14
 -1      3720 1.82794E+01-1.63835E+00 1.75340E-02 3.71154E+00 3.75316E-14-5.35960E-14
 -1      3721 1.95060E+01 2.12947E+00-5.32966E-03-2.25691E-01 2.72460E-14-6.90787E-14
 -1      3722 1.94261E+01 2.01323E+00 5.82224E-03-3.23449E-01 1.47258E-14-3.54040E-14
 -1      3723 1.96814E+01 1.97430E+00-1.34422E-03-2.28327E-01 1.58253E-14-8.15941E-14
 -1      3724 1.87783E+01 1.02969E+00-6.88571E-03 1.35033E+00-3.87476E-14-1.61829E-14
 -1      3725 1.86668E+01 8.96724E-01 4.96720E-03 1.53099E+00-6.62884E-14-3.18041E-14
 -1      3726 2.02581E+01 2.49470E-02 5.02909E-03-1.65669E+00-4.79462E-14-2.18715E-14
 -1      3727 2.01534E+01 2.30362E-01 3.73524E-03-1.55982E+00-4.25685E-15-9.15964E-15
 -1      3728 1.99108E+01-2.88494E-02-9.93783E-03-1.82208E+00-2.77670E-14 7.35978E-15
 -1      3729 1.84022E+01 7.30594E-01-9.52161E-03 1.73500E+00-4.84823E-14-1.18933E-14
 -1      3730 1.83256E+01 5.39014E-01 1.11197E-02 1.95177E+00-8.18101E-15-3.01420E-14
 -1      3731 1.81407E+01 9.96727E-01 7.42555E-03 1.47409E+00-3.21592E-14-1.29623E-14
 -1      3732 1.80222E+01 2.87879E-01-1.01325E-02 2.23111E+00 2.83005E-14-5.04752E-14
 -1      3733 1.80273E+01-1.52664E-02 2.13859E-02 2.50958E+00 4.99344E-14-6.86274E-14
 -1      3734 1.75851E+01 6.38196E-01 3.76076E-03 1.93671E+00-2.05115E-15 1.08719E-14
 -1      3735 1.79364E+01-4.62242E-01-1.53350E-03 2.91188E+00 6.46792E-14-6.62964E-14
 -1      3736 1.81253E+01-9.82219E-01 2.95274E-02 3.25435E+00 6.44398E-14-7.59037E-14
 -1      3737 1.72362E+01-1.04881E+00 5.37266E-03 3.58102E+00 6.30242E-14-1.04926E-13
 -1      3738 1.71658E+01 3.19283E-02 3.07901E-03 2.62458E+00 4.86004E-14-9.76805E-14
 -1      3739 1.71179E+01-1.50639E+00 5.39021E-02-3.97659E+00-1.10348E-13-7.79411E-15
 -1      3740 1.90687E+01-2.36448E+00-1.82221E-02-3.84700E+00-1.15412E-13 2.67841E-14
 -1      3741 2.00050E+01 1.02479E-02-6.34512E-05 4.76191E-04 7.66056E-14 5.87227E-13
 -1      3742 1.83621E+01-8.20994E-02 1.90949E-02-2.34099E+00 6.48349E-14-3.55204E-14
 -1      3743 1.82821E+01 2.03735E-01-5.47761E-03-2.10509E+00 7.27771E-14-1.04319E-13
 -1      3744 1.84828E+01 4.16649E-01 1.09508E-02-1.85635E+00 7.32725E-14-1.58559E-13
 -1      3745 1.84971E+01 5.66369E-01-7.72126E-03-1.67563E+00 1.08356E-13-1.96612E-13
 -1      3746 1.77771E+01 4.95249E-01 2.05261E-03-1.90253E+00 6.84315E-14-1.78064E-14
 -1      3747 1.86945E+01 6.77931E-01 6.42172E-03-1.49494E+00 6.59252E-14-2.42987E-13
 -1      3748 1.87516E+01 7.42460E-01-6.62888E-03-1.35242E+00-9.31480E-14-2.48711E-13
 -1      3749 1.81652E+01 7.71593E-01 4.88638E-03-1.48159E+00 5.74170E-14-3.07410E-13
 -1      3750 1.89270E+01 7.84470E-01 3.42991E-03-1.21752E+00-2.19771E-13-1.28277E-13
 -1      3751 1.89977E+01 7.96129E-01-5.44143E-03-1.10119E+00-2.35034E-13-8.94697E-14
 -1      3752 1.85236E+01 8.82004E-01 5.03004E-03-1.17967E+00-3.87520E-14-2.18426E-13
 -1      3753 1.91473E+01 7.94570E-01 1.87184E-03-9.95584E-01-2.03765E-13-8.16862E-14
 -1      3754 1.92164E+01 7.74333E-01-4.44545E-03-8.98068E-01-2.11030E-13-7.11288E-15
 -1      3755 1.88353E+01 8.92543E-01 4.62298E-03-9.52420E-01-1.65088E-13-3.52886E-14
 -1      3756 1.93404E+01 7.47525E-01 1.09559E-03-8.12397E-01-1.50345E-13 9.68437E-14
 -1      3757 1.94010E+01 7.09889E-01-3.65741E-03-7.29347E-01-1.59932E-14 1.67681E-14
 -1      3758 1.90975E+01 8.42467E-01 4.00689E-03-7.72931E-01-1.00229E-13 9.48383E-14
 -1      3759 1.95018E+01 6.70161E-01 7.40796E-04-6.58259E-01 2.91902E-14-1.90288E-14
 -1      3760 1.95517E+01 6.24732E-01-3.02360E-03-5.87271E-01-4.13814E-14-1.86822E-14
 -1      3761 1.93127E+01 7.59255E-01 3.35798E-03-6.25973E-01-3.64894E-14 2.25156E-13
 -1      3762 1.96322E+01 5.80112E-01 5.90689E-04-5.27782E-01-1.44635E-13-4.79564E-15
 -1      3763 1.96715E+01 5.33055E-01-2.49782E-03-4.67436E-01-1.13916E-13 6.08036E-14
 -1      3764 1.94857E+01 6.61234E-01 2.74557E-03-5.03243E-01-6.99526E-14 1.42751E-13
 -1      3765 1.97348E+01 4.88548E-01 5.26877E-04-4.17748E-01 1.32458E-14 1.39655E-13
 -1      3766 1.97647E+01 4.43608E-01-2.05150E-03-3.67016E-01 2.08741E-13 8.58840E-14
 -1      3767 1.96223E+01 5.60399E-01 2.19933E-03-4.00182E-01-1.49790E-14 3.13727E-13
 -1      3768 1.98136E+01 4.02130E-01 4.90593E-04-3.25866E-01 2.77025E-13 1.35227E-13
 -1      3769 1.98357E+01 3.61382E-01-1.66894E-03-2.83816E-01 2.58735E-13 6.60144E-14
 -1      3770 1.97283E+01 4.64200E-01 1.72993E-03-3.14006E-01 1.77305E-13 2.03226E-13
 -1      3771 1.98730E+01 3.24439E-01 4.56394E-04-2.50153E-01 1.87279E-14-3.24557E-14
 -1      3772 1.98888E+01 2.88840E-01-1.34155E-03-2.15835E-01-1.97286E-13-2.20224E-13
 -1      3773 1.98092E+01 3.76863E-01 1.33771E-03-2.42676E-01 5.81793E-14-5.67852E-14
 -1      3774 1.99167E+01 2.57017E-01 4.16116E-04-1.88689E-01-1.81776E-13-2.30208E-13
 -1      3775 1.99278E+01 2.26799E-01-1.06388E-03-1.61129E-01-2.25601E-13-1.40489E-13
 -1      3776 1.98699E+01 3.00391E-01 1.01737E-03-1.84417E-01-1.49083E-13-1.38043E-13
 -1      3777 1.99482E+01 2.00104E-01 3.69585E-04-1.39573E-01-1.48293E-13-1.00258E-13
 -1      3778 1.99556E+01 1.75059E-01-8.31436E-04-1.17798E-01-1.06532E-13-2.14793E-14
 -1      3779 1.99145E+01 2.35314E-01 7.60841E-04-1.37542E-01-1.08287E-13-1.81881E-13
 -1      3780 1.99703E+01 1.53160E-01 3.19585E-04-1.00952E-01-5.72932E-14 6.07366E-14
 -1      3781 1.99751E+01 1.32827E-01-6.39804E-04-8.40306E-02 5.29369E-15 4.67355E-14
 -1      3782 1.99467E+01 1.81234E-01 5.59043E-04-1.00421E-01-3.42229E-14-2.64087E-14
 -1      3783 1.99853E+01 1.15213E-01 2.69376E-04-7.10829E-02-1.61282E-14 1.13153E-13
 -1      3784 1.99882E+01 9.90118E-02-4.84238E-04-5.81531E-02-5.69056E-14 8.75223E-14
 -1      3785 1.99692E+01 1.37213E-01 4.02980E-04-7.15011E-02 3.82013E-14-3.26523E-14
 -1      3786 1.99951E+01 8.50972E-02 2.21862E-04-4.83716E-02-2.06175E-13 1.00752E-13
 -1      3787 1.99967E+01 7.24064E-02-3.60383E-04-3.86652E-02-1.47891E-13 6.63300E-14
 -1      3788 1.99846E+01 1.02046E-01 2.84453E-04-4.93482E-02-1.45613E-13-6.51887E-14
 -1      3789 2.00011E+01 6.15921E-02 1.79163E-04-3.14137E-02-1.57229E-14 1.54895E-15
 -1      3790 2.00017E+01 5.18071E-02-2.63804E-04-2.42692E-02 6.22175E-14-1.35810E-13
 -1      3791 1.99945E+01 7.44231E-02 1.94359E-04-3.26775E-02-4.82232E-14-3.81363E-13
 -1      3792 2.00044E+01 4.35270E-02 1.42333E-04-1.90036E-02 2.13952E-13-1.01366E-14
 -1      3793 2.00044E+01 3.60812E-02-1.90770E-04-1.38632E-02 2.86770E-13 1.77769E-14
 -1      3794 2.00006E+01 5.30591E-02 1.24017E-04-2.03709E-02 1.78001E-13-1.76061E-13
 -1      3795 2.00058E+01 2.98518E-02 1.19347E-04-1.01429E-02 2.67909E-13 1.13232E-13
 -1      3796 2.00054E+01 2.42112E-02-1.40944E-04-6.52132E-03 2.57157E-13 1.63302E-13
 -1      3797 2.00039E+01 3.67609E-02 7.12031E-05-1.15121E-02 2.58154E-13-7.58178E-14
 -1      3798 2.00060E+01 1.94949E-02 9.63404E-05-4.00177E-03 2.68099E-13 2.61175E-13
 -1      3799 2.00054E+01 1.53863E-02-4.21837E-05-1.62665E-03 2.20385E-13 4.25036E-13
 -1      3800 2.00052E+01 2.44108E-02 8.78971E-06-5.27248E-03 3.30504E-13 2.33412E-13
 -1      3801 1.92760E+01-3.83268E-02 1.03083E-03 1.83689E+00-5.06448E-14-1.78776E-13
 -1      3802 1.94361E+01-3.00725E-01 1.18487E-02 1.97496E+00 3.15533E-14-1.36836E-13
 -1      3803 1.89957E+01-1.80367E+00 5.11070E-02-3.49256E+00 2.02790E-13 2.39335E-13
 -1      3804 1.95162E+01-6.02036E-01 1.48931E-02 2.19619E+00-3.77460E-14-7.65703E-14
 -1      3805 1.98241E+01-1.03299E+00 1.06710E-02 2.33623E+00-6.93937E-14-1.03891E-13
 -1      3806 1.88292E+01-3.47585E-01-1.38139E-02 2.21767E+00-3.25345E-14 2.28624E-14
 -1      3807 1.92330E+01 3.21275E-01-2.04913E-03 1.51843E+00-8.25133E-14-2.29587E-13
 -1      3808 1.92996E+01 1.68992E-01 9.21832E-03 1.64756E+00-7.77235E-14-1.95809E-13
 -1      3809 1.88031E+01 1.86118E-01-5.39671E-03 1.77855E+00 2.81589E-15-1.71585E-13
 -1      3810 1.92895E+01 5.15147E-01-2.89572E-03 1.24991E+00-5.99033E-14-1.09599E-13
 -1      3811 1.93020E+01 4.37942E-01 5.91519E-03 1.36535E+00-1.09947E-13-1.89344E-13
 -1      3812 1.89043E+01 4.90666E-01-1.03361E-03 1.42689E+00-1.21528E-13-2.13762E-13
 -1      3813 1.93882E+01 5.95794E-01-3.05419E-03 1.02430E+00-1.13862E-13 5.00925E-14
 -1      3814 1.93738E+01 5.68995E-01 3.82272E-03 1.12574E+00-5.42378E-14 3.06763E-14
 -1      3815 1.90559E+01 6.39894E-01 9.09961E-04 1.14949E+00-1.55157E-13-1.27743E-13
 -1      3816 1.94984E+01 6.03321E-01-2.91335E-03 8.33907E-01-1.82100E-14 1.71605E-13
 -1      3817 1.94729E+01 6.08411E-01 2.50503E-03 9.22479E-01-4.92936E-14 1.84807E-13
 -1      3818 1.92196E+01 6.87417E-01 1.70740E-03 9.27185E-01-1.19456E-13 7.91091E-14
 -1      3819 1.96039E+01 5.66811E-01-2.64518E-03 6.72805E-01-4.00965E-14 2.20790E-13
 -1      3820 1.95760E+01 5.90557E-01 1.72291E-03 7.49590E-01-2.17943E-14 1.85638E-13
 -1      3821 1.93752E+01 6.70931E-01 1.94216E-03 7.46026E-01-5.90284E-14 2.26202E-13
 -1      3822 1.96971E+01 5.06655E-01-2.32888E-03 5.36815E-01-9.09936E-14 2.11101E-13
 -1      3823 1.96712E+01 5.39891E-01 1.26591E-03 6.02700E-01-6.94355E-14 1.69307E-13
 -1      3824 1.95134E+01 6.17029E-01 1.89124E-03 5.96631E-01-5.31171E-14 1.65410E-13
 -1      3825 1.97752E+01 4.36603E-01-2.00221E-03 4.22847E-01-1.40785E-13 3.38518E-13
 -1      3826 1.97533E+01 4.73222E-01 9.90393E-04 4.78647E-01-9.82665E-14 3.30151E-13
 -1      3827 1.96306E+01 5.44142E-01 1.69956E-03 4.72866E-01-1.27077E-13 2.88948E-13
 -1      3828 1.98382E+01 3.65483E-01-1.68582E-03 3.28348E-01-1.90539E-13 2.64859E-13
 -1      3829 1.98208E+01 4.01625E-01 8.11326E-04 3.74912E-01-1.36697E-13 3.79690E-13
 -1      3830 1.97266E+01 4.64637E-01 1.45062E-03 3.70543E-01-1.94725E-13 3.81410E-13
 -1      3831 1.98874E+01 2.98588E-01-1.39205E-03 2.50994E-01 4.46988E-14 3.51211E-13
 -1      3832 1.98742E+01 3.31996E-01 6.81718E-04 2.89247E-01-9.20216E-14 3.66866E-13
 -1      3833 1.98031E+01 3.86405E-01 1.19228E-03 2.86534E-01-1.24670E-13 2.82827E-13
 -1      3834 1.99248E+01 2.38755E-01-1.12820E-03 1.88567E-01 1.89411E-14 4.30505E-13
 -1      3835 1.99152E+01 2.68277E-01 5.77534E-04 2.19490E-01 7.40285E-14 4.02581E-13
 -1      3836 1.98624E+01 3.14113E-01 9.50566E-04 2.18267E-01 1.24852E-14 4.65123E-13
 -1      3837 1.99524E+01 1.87175E-01-8.97861E-04 1.38933E-01 4.17352E-14 5.46037E-13
 -1      3838 1.99458E+01 2.12393E-01 4.87640E-04 1.63528E-01-8.70919E-15 3.88012E-13
 -1      3839 1.99073E+01 2.50168E-01 7.38022E-04 1.63473E-01 2.12624E-14 4.34128E-13
 -1      3840 1.99722E+01 1.43988E-01-7.01782E-04 1.00077E-01 1.68417E-13 5.65397E-13
 -1      3841 1.99678E+01 1.64948E-01 4.07568E-04 1.19321E-01 9.92143E-14 5.20212E-13
 -1      3842 1.99405E+01 1.95460E-01 5.59056E-04 1.20090E-01 5.58800E-14 3.69174E-13
 -1      3843 1.99859E+01 1.08700E-01-5.38582E-04 7.01400E-02 8.46363E-14 5.27522E-13
 -1      3844 1.99833E+01 1.25719E-01 3.35932E-04 8.49493E-02 2.53726E-13 6.10984E-13
 -1      3845 1.99644E+01 1.49905E-01 4.13353E-04 8.62411E-02 1.75139E-13 5.77309E-13
 -1      3846 1.99950E+01 8.04736E-02-4.05932E-04 4.74568E-02 7.13184E-15 5.25469E-13
 -1      3847 1.99936E+01 9.40121E-02 2.72619E-04 5.86580E-02-9.35319E-14 4.43278E-13
 -1      3848 1.99810E+01 1.12839E-01 2.98092E-04 6.02337E-02 9.88431E-14 6.54024E-13
 -1      3849 2.00006E+01 5.83204E-02-3.00288E-04 3.05773E-02 6.34451E-14 4.48810E-13
 -1      3850 2.00001E+01 6.88934E-02 2.17705E-04 3.88925E-02 1.43027E-13 5.00209E-13
 -1      3851 1.99920E+01 8.32878E-02 2.08465E-04 4.05746E-02 2.65913E-14 3.68030E-13
 -1      3852 2.00038E+01 4.12276E-02-2.17724E-04 1.82694E-02-3.19904E-14 3.41439E-13
 -1      3853 2.00038E+01 4.93495E-02 1.70746E-04 2.43133E-02-4.81680E-14 3.74711E-13
 -1      3854 1.99990E+01 6.01605E-02 1.42593E-04 2.59809E-02-1.50301E-14 1.93658E-13
 -1      3855 2.00052E+01 2.82228E-02-1.52139E-04 9.50714E-03-3.24223E-14 4.12410E-13
 -1      3856 2.00055E+01 3.43828E-02 1.32285E-04 1.37884E-02 6.57244E-15 4.57052E-13
 -1      3857 2.00030E+01 4.23415E-02 9.05226E-05 1.53663E-02-9.30609E-14 2.74563E-13
 -1      3858 2.00054E+01 1.85029E-02-6.42685E-05 3.51215E-03-2.05543E-13 6.09340E-13
 -1      3859 2.00060E+01 2.30330E-02 1.00410E-04 6.38597E-03-7.74358E-14 4.42279E-13
 -1      3860 2.00048E+01 2.87843E-02 4.44821E-05 7.83634E-03-1.30637E-13 4.96096E-13
 -1      3861 1.91081E+01 1.27155E+00-4.74591E-03 1.02021E+00-3.25910E-14-3.02856E-15
 -1      3862 1.89956E+01 1.15558E+00 1.44111E-03 1.18653E+00-3.61227E-14-9.79325E-15
 -1      3863 1.86079E+01 1.25063E+00 7.32978E-03 1.12356E+00-4.45068E-14 1.36304E-14
 -1      3864 1.93687E+01 1.51940E+00-4.59573E-03 7.03516E-01-6.86870E-14 3.21312E-14
 -1      3865 1.92757E+01 1.39555E+00 1.91837E-04 8.70869E-01-4.54581E-14 2.11086E-14
 -1      3866 1.89840E+01 1.48116E+00 6.84492E-03 8.27231E-01-4.46052E-14 2.43477E-14
 -1      3867 2.00045E+01 1.00923E-02-4.62744E-05-5.55487E-04 1.18053E-13-6.80613E-13
 -1      3868 2.00045E+01 9.64563E-03-7.56159E-06-9.27741E-04 1.70744E-13-6.95770E-13
 -1      3869 2.00049E+01 1.18573E-02 5.23194E-05-4.66541E-04 1.84344E-13-5.06001E-13
 -1      3870 2.00048E+01 1.39285E-02 6.61650E-05-7.88476E-05 1.06977E-13-6.07182E-13
 -1      3871 1.90878E+01 2.50389E+00-3.07744E-03-9.21624E-03-1.57543E-14-7.51801E-14
 -1      3872 1.91141E+01 2.47883E+00-4.11664E-03 2.34056E-02-9.12337E-15-5.61595E-14
 -1      3873 1.90675E+01 2.32318E+00 7.50080E-03-5.51177E-02-3.14366E-15-4.72926E-14
 -1      3874 2.02062E+01 8.85667E-01 1.44510E-05-8.53890E-01 7.65127E-15-5.41631E-14
 -1      3875 2.02298E+01 9.94393E-01 1.03432E-03-6.92914E-01-1.69241E-15-4.00861E-14
 -1      3876 2.01022E+01 1.16787E+00 3.00192E-04-6.37457E-01-3.35490E-15-7.26106E-14
 -1      3877 1.99925E+01 9.93971E-01 4.56377E-04-9.02852E-01 1.32384E-15-1.00773E-13
 -1      3878 1.58343E+01-7.32108E-01 3.90469E-02 3.46657E+00 5.85998E-14-1.38025E-13
 -1      3879 2.12139E+01-2.98363E+00 3.42123E-02 3.29627E+00 4.45264E-14-8.89046E-15
 -1      3880 1.69613E+01-1.78072E+00-9.22099E-03 4.10379E+00 4.25597E-14 3.37615E-13
 -1      3881 1.49855E+01-6.66388E-01 1.95994E-02 3.50402E+00 8.21617E-14 4.00659E-13
 -1      3882 1.94713E+01 1.79350E+00-3.05451E-03 4.40347E-01-5.65305E-14 2.81713E-14
 -1      3883 1.94370E+01 1.63872E+00 1.56336E-04 5.96837E-01-6.17587E-14 3.49639E-14
 -1      3884 1.91947E+01 1.69836E+00-1.10616E-03 5.67355E-01-5.35195E-14 3.39980E-14
 -1      3885 1.93076E+01 1.95167E+00 3.21965E-03 3.72382E-01-4.44280E-14 1.69713E-14
 -1      3886 2.00047E+01 1.78506E-02-2.35867E-05-6.98808E-04 1.80905E-14-4.54418E-13
 -1      3887 2.00045E+01 1.83842E-02-6.56799E-05-6.11153E-04 6.75478E-14-3.39988E-13
 -1      3888 2.19042E+01-2.65637E+00-4.12616E-02-2.27299E+00-7.20331E-14 1.99073E-13
 -1      3889 1.98619E+01 1.57448E+00 2.88879E-03-4.31974E-01 1.07620E-14-7.56887E-14
 -1      3890 1.91644E+01 2.44050E+00-3.33589E-03 8.16368E-02-7.22873E-15-3.36888E-14
 -1      3891 1.92585E+01 2.35459E+00-4.48467E-03 1.13359E-01-1.79640E-14-3.37571E-14
 -1      3892 1.92414E+01 2.16819E+00 2.35152E-03 2.16538E-01-2.31643E-14-1.30929E-14
 -1      3893 1.91119E+01 2.29504E+00 9.57008E-03 9.17406E-02 8.06224E-15-3.88097E-14
 -1      3894 1.84589E+01-9.54211E-01 2.45826E-02-2.98644E+00 1.69620E-13 3.19046E-14
 -1      3895 1.82112E+01-4.37390E-01 1.00582E-02-2.68861E+00 8.95015E-14-9.11250E-14
 -1      3896 1.73947E+01-4.71038E-02-1.03493E-02-2.50675E+00 4.95167E-14-8.14748E-14
 -1      3897 2.08393E+01-2.43694E+00 3.88654E-03 2.77941E+00 5.51920E-14-1.18961E-13
 -1      3898 2.08914E+01-2.46099E+00 6.07088E-02-3.07790E+00-9.94701E-14 1.33196E-13
 -1      3899 1.33111E+01 8.43153E-01-6.20873E-03 3.09988E-01-5.76472E-14-1.25434E-13
 -1      3900 1.32737E+01 7.49480E-01 3.90203E-02-1.12463E+00-1.07874E-13-3.08295E-14
 -1      3901 1.75381E+01-1.24546E+00-9.04487E-03-3.49421E+00 9.32813E-14 3.36120E-14
 -1      3902 1.38900E+01 6.15654E-01 4.12805E-02-1.69547E+00-9.67442E-14-8.60423E-15
 -1      3903 1.47246E+01 2.78224E-01-1.29938E-02-2.31166E+00-1.13058E-13-4.27783E-15
 -1      3904 1.46202E+01 8.49455E-01 2.79707E-02-1.11421E+00-1.12970E-13-1.28673E-14
 -1      3905 1.98602E+01 4.17755E-01-4.11346E-03-1.51550E+00 2.84172E-15 1.90009E-14
 -1      3906 1.57783E+01-2.69350E-01 1.51071E-02-3.02345E+00-1.19644E-13-2.84980E-14
 -1      3907 1.64054E+01-9.25629E-01 3.12016E-02-3.66252E+00-1.16945E-13-4.27020E-14
 -1      3908 1.75955E+01-9.86725E-01 7.84259E-03-3.28404E+00-9.82782E-14-3.11678E-14
 -1      3909 2.00054E+01 1.36719E-02 6.33405E-05-8.14990E-04 7.24002E-14 4.65223E-13
 -1      3910 2.00051E+01 1.20124E-02-5.77637E-06 6.41491E-06 2.75361E-14 3.66638E-13
 -1      3911 2.00053E+01 1.71734E-02-3.19314E-05-1.94216E-03 1.52897E-13 2.39255E-13
 -1      3912 1.43782E+01 1.75884E-02 5.35298E-02 2.86778E+00 9.62902E-14 4.01106E-13
 -1      3913 1.39883E+01 4.84759E-01-7.91891E-03 1.91265E+00 1.33312E-13 2.40022E-13
 -1      3914 1.59080E+01-2.68892E-01 4.19385E-02 2.92660E+00 7.52679E-14 3.90404E-13
 -1      3915 1.26683E+01 9.30897E-01 8.52905E-02-3.84701E-01 7.34120E-14 6.06806E-14
 -1      3916 1.35011E+01 7.81435E-01 2.56708E-02-1.15890E+00 7.72212E-15-5.08708E-14
 -1      3917 1.31642E+01 8.57946E-01-8.35004E-04 4.19161E-01 1.18075E-13 9.87491E-14
 -1      3918 2.03005E+01-1.86908E+00 1.37767E-02 2.69083E+00 1.06755E-14-8.26986E-14
 -1      3919 2.00051E+01 1.31744E-02-5.71066E-05-2.98746E-04-5.73380E-14 3.50810E-14
 -1      3920 1.91259E+01 2.01871E+00-1.24653E-03-3.16622E-01-6.26718E-15-2.55515E-14
 -1      3921 1.90203E+01 2.09238E+00-5.56052E-03-2.40096E-01-2.10983E-15-2.85022E-14
 -1      3922 1.82753E+01-1.70751E+00 3.75741E-02 3.56860E+00 6.89292E-14 2.07525E-13
 -1      3923 2.00049E+01 1.24427E-02-4.85103E-05-1.52895E-04-1.98276E-15-1.78139E-13
 -1      3924 2.00049E+01 1.13521E-02 6.13905E-06-5.05124E-04-1.41179E-13 8.04012E-14
 -1      3925 2.00052E+01 1.30369E-02 5.40991E-05 2.82292E-04-1.80702E-13 2.01470E-13
 -1      3926 2.00044E+01 2.31925E-02 1.13950E-04-7.01011E-04 7.60685E-14-4.39785E-13
 -1      3927 2.00044E+01 1.88449E-02-4.15241E-05-1.58137E-04 1.76059E-13-2.82032E-13
 -1      3928 2.00044E+01 1.88786E-02-3.14612E-05 2.95368E-05 1.82671E-13-4.78649E-13
 -1      3929 1.60072E+01-3.22910E-01 2.69049E-02-3.04561E+00-3.30335E-14-6.81521E-14
 -1      3930 1.99046E+01-1.83373E+00 2.41662E-03-3.03499E+00-1.00255E-13 1.08687E-13
 -1      3931 1.97514E+01-6.22578E-01 1.26169E-02-2.28450E+00-1.03884E-13 8.67644E-14
 -1      3932 1.95469E+01-2.70363E-01 2.92549E-03-2.13788E+00-6.10179E-14 4.97477E-14
 -1      3933 1.53046E+01 2.70239E-02 8.29255E-03-2.73474E+00 1.94081E-14 5.26280E-14
 -1      3934 1.66560E+01 2.18379E-02 3.54615E-02-2.56171E+00 6.97671E-14-7.00308E-15
 -1      3935 1.67518E+01 3.30346E-01-3.60155E-03-2.19828E+00 9.33225E-14 8.06642E-14
 -1      3936 1.47134E+01 4.09339E-01-3.46924E-03-2.14130E+00 6.20654E-14-1.26600E-14
 -1      3937 1.97703E+01 1.13007E+00-1.82727E-04-8.91521E-01-2.32797E-15-1.00907E-13
 -1      3938 1.98288E+01 1.21609E+00-1.02617E-03-7.65673E-01 9.34279E-15-9.06575E-14
 -1      3939 1.57318E+01-1.22174E-01 5.57715E-03 2.89556E+00 6.91730E-14-1.38885E-13
 -1      3940 1.92420E+01-1.51047E+00-2.49174E-02 2.93720E+00-3.52073E-15 5.67602E-14
 -1      3941 1.97019E+01 9.76354E-01-4.25788E-04-1.06117E+00-1.85060E-14-8.29134E-14
 -1      3942 1.95487E+01 1.19199E+00-7.23401E-04-9.28469E-01-2.24817E-14-6.01745E-14
 -1      3943 1.96796E+01 8.21501E-01 2.10346E-03-1.22683E+00-9.73202E-15-3.59334E-14
 -1      3944 1.45945E+01 5.25501E-01-1.33465E-03 1.90683E+00 1.53354E-14-1.83567E-13
 -1      3945 1.39875E+01 8.58542E-01 6.21053E-02 1.24538E+00-2.45283E-14-1.98026E-13
 -1      3946 2.00052E+01 1.48589E-02-2.73109E-06 1.22791E-03-2.52870E-13 4.64006E-13
 -1      3947 2.00055E+01 1.66768E-02 6.59863E-05 2.35066E-03-2.36464E-13 5.55681E-13
 -1      3948 2.00053E+01 2.06939E-02-3.60145E-05 3.58427E-03-1.19288E-13 4.43957E-13
 -1      3949 2.00051E+01 1.65732E-02-1.49452E-05 1.42785E-03 4.85054E-14 1.15064E-13
 -1      3950 2.00051E+01 1.55577E-02-6.42761E-06-8.21750E-04-2.03061E-14-1.17139E-14
 -1      3951 2.00049E+01 1.66055E-02-5.89410E-05-9.60641E-04 3.85676E-14-3.96479E-13
 -1      3952 1.43869E+01 9.61547E-01 1.43479E-02 4.41520E-01-7.80083E-14-1.01622E-13
 -1      3953 2.00048E+01 2.15136E-02 9.17846E-05-1.74252E-03 1.36206E-13-4.21158E-13
 -1      3954 1.88660E+01 1.62648E+00-7.22464E-03 5.92114E-01-5.74552E-14 2.37601E-14
 -1      3955 1.87076E+01 1.51651E+00-1.57849E-03 7.26570E-01-5.49612E-14 8.14203E-15
 -1      3956 1.95777E+01 4.82405E-01 5.54962E-03-1.56282E+00-2.93647E-14 1.95210E-14
 -1      3957 1.95839E+01 6.60960E-01-9.99484E-04-1.40069E+00-2.27270E-14-4.56666E-16
 -1      3958 1.93822E+01 8.74089E-01-1.59358E-03-1.27229E+00-4.96184E-14-3.28949E-14
 -1      3959 1.79085E+01 1.19057E+00-1.18585E-02 1.10533E+00-3.88130E-14-4.62526E-14
 -1      3960 1.76594E+01 1.07474E+00 1.82072E-03 1.28268E+00-2.40233E-14-3.99498E-14
 -1      3961 1.72063E+01 9.35927E-01-1.52004E-02 1.46488E+00-2.95787E-14-5.28705E-14
 -1      3962 1.69117E+01 7.66396E-01 6.02366E-03 1.71194E+00-2.76597E-14-6.21606E-14
 -1      3963 1.70983E+01 1.20023E+00 1.85912E-02 1.05716E+00-3.56165E-14-1.03939E-13
 -1      3964 1.71346E+01 6.45603E-01 1.25580E-02-1.75662E+00 1.56374E-14 3.13415E-14
 -1      3965 1.73046E+01 7.83477E-01-1.36291E-02-1.52592E+00 3.38353E-14-5.40310E-14
 -1      3966 1.76814E+01 8.80194E-01 4.75451E-03-1.33847E+00-2.24022E-14-9.94812E-14
 -1      3967 1.78609E+01 9.35335E-01-1.12764E-02-1.17772E+00-5.14818E-14-2.30276E-13
 -1      3968 1.70996E+01 1.00889E+00 1.25342E-02-1.18399E+00-4.27155E-14-2.89946E-14
 -1      3969 1.81544E+01 9.72242E-01 1.62973E-03-1.05367E+00 1.00306E-13-2.62658E-13
 -1      3970 1.83176E+01 9.79075E-01-8.11680E-03-9.36738E-01 5.81663E-14-8.18997E-14
 -1      3971 1.77384E+01 1.08184E+00 1.08721E-02-9.13067E-01 1.89985E-14-1.45188E-13
 -1      3972 1.85494E+01 9.73785E-01 3.76341E-04-8.46272E-01-5.73988E-14-8.84507E-14
 -1      3973 1.86904E+01 9.48999E-01-5.92024E-03-7.56161E-01-7.27316E-14-6.59417E-14
 -1      3974 1.82379E+01 1.07172E+00 8.25665E-03-7.24614E-01 6.11845E-14-2.00080E-13
 -1      3975 1.88743E+01 9.17566E-01-2.03234E-04-6.86827E-01 1.15803E-14 6.29435E-14
 -1      3976 1.89920E+01 8.74641E-01-4.48619E-03-6.13909E-01 2.08207E-14 1.49264E-13
 -1      3977 1.86359E+01 1.00777E+00 6.35703E-03-5.85494E-01 1.15207E-13 3.17238E-16
 -1      3978 1.91384E+01 8.28844E-01-3.62768E-04-5.58050E-01-5.64079E-14 2.96994E-13
 -1      3979 1.92341E+01 7.76854E-01-3.51356E-03-4.97215E-01-9.05333E-15 1.91429E-13
 -1      3980 1.89535E+01 9.12600E-01 5.00563E-03-4.76236E-01 6.84914E-14 1.46001E-13
 -1      3981 1.93502E+01 7.24813E-01-3.40893E-04-4.50961E-01-1.94673E-14 2.30970E-13
 -1      3982 1.94264E+01 6.70113E-01-2.81230E-03-3.99546E-01-2.78730E-14 2.85559E-13
 -1      3983 1.92063E+01 8.01724E-01 3.97438E-03-3.86505E-01 1.55369E-14 1.06950E-13
 -1      3984 1.95180E+01 6.17301E-01-2.50070E-04-3.60848E-01-5.83299E-14 2.63394E-13
 -1      3985 1.95775E+01 5.64107E-01-2.27482E-03-3.17400E-01-1.72938E-14 1.99595E-13
 -1      3986 1.94063E+01 6.86578E-01 3.15826E-03-3.11160E-01-5.95178E-15 1.19699E-13
 -1      3987 1.96490E+01 5.13997E-01-1.47634E-04-2.85073E-01 8.53613E-15 2.10154E-13
 -1      3988 1.96946E+01 4.64896E-01-1.84266E-03-2.48658E-01 9.42608E-14 3.90017E-14
 -1      3989 1.95630E+01 5.75044E-01 2.49889E-03-2.47546E-01-9.56976E-15-2.17020E-14
 -1      3990 1.97497E+01 4.19490E-01-5.93668E-05-2.21893E-01 4.52155E-14-2.05607E-14
 -1      3991 1.97841E+01 3.75866E-01-1.48499E-03-1.91759E-01-1.18887E-13-1.43544E-13
 -1      3992 1.96843E+01 4.72112E-01 1.96150E-03-1.94124E-01 3.77274E-15-9.65361E-14
 -1      3993 1.98261E+01 3.36123E-01 6.21942E-06-1.69885E-01-1.27416E-13-2.09801E-13
 -1      3994 1.98515E+01 2.98513E-01-1.18554E-03-1.45318E-01-2.01746E-13-1.95781E-13
 -1      3995 1.97770E+01 3.80534E-01 1.52359E-03-1.49775E-01-8.77373E-14-3.97967E-13
 -1      3996 1.98829E+01 2.64678E-01 4.92176E-05-1.27710E-01-2.31533E-13-1.51102E-13
 -1      3997 1.99013E+01 2.33055E-01-9.35032E-04-1.08000E-01-1.08309E-13-3.06876E-13
 -1      3998 1.98467E+01 3.01421E-01 1.16891E-03-1.13498E-01-1.94334E-13-4.18762E-13
 -1      3999 1.99244E+01 2.04917E-01 7.33679E-05-9.40527E-02-7.45605E-15-3.17332E-13
 -1      4000 1.99373E+01 1.78898E-01-7.27237E-04-7.84978E-02-1.12921E-14-2.78590E-13
 -1      4001 1.98982E+01 2.34748E-01 8.84423E-04-8.43011E-02-3.92878E-14-5.39018E-13
 -1      4002 1.99540E+01 1.55974E-01 8.33877E-05-6.76357E-02-4.97785E-14-3.04228E-13
 -1      4003 1.99628E+01 1.34979E-01-5.57174E-04-5.55650E-02 3.57292E-15-3.95087E-13
 -1      4004 1.99355E+01 1.79763E-01 6.58922E-04-6.11974E-02-3.36113E-14-5.26018E-13
 -1      4005 1.99745E+01 1.16650E-01 8.35949E-05-4.72528E-02 2.10285E-14-4.59391E-13
 -1      4006 1.99803E+01 1.00014E-01-4.18634E-04-3.80481E-02-1.24395E-13-3.65769E-13
 -1      4007 1.99618E+01 1.35293E-01 4.82600E-04-4.32310E-02 1.21721E-14-5.93815E-13
 -1      4008 1.99882E+01 8.56114E-02 7.88932E-05-3.17938E-02-1.79946E-13-2.12056E-13
 -1      4009 1.99918E+01 7.26215E-02-3.14977E-04-2.48949E-02-3.38129E-14-3.03242E-13
 -1      4010 1.99798E+01 9.99806E-02 3.49239E-04-2.95056E-02-4.05260E-14-2.99266E-13
 -1      4011 1.99969E+01 6.15250E-02 8.50501E-05-2.03227E-02 1.20102E-13-2.26814E-13
 -1      4012 1.99989E+01 5.15248E-02-2.31163E-04-1.52242E-02 3.34042E-13-2.41890E-13
 -1      4013 1.99917E+01 7.23188E-02 2.30828E-04-1.92355E-02 9.22894E-14-1.89840E-13
 -1      4014 2.00020E+01 4.30566E-02 8.31443E-05-1.19429E-02 3.84331E-13-2.76945E-13
 -1      4015 2.00029E+01 3.55073E-02-1.54759E-04-8.32064E-03 3.01608E-13-1.82190E-13
 -1      4016 1.99988E+01 5.09526E-02 8.57100E-05-1.17154E-02 3.88553E-13-4.45119E-13
 -1      4017 1.85850E+01 6.77516E-01-6.61826E-03 1.24739E+00-1.87334E-13 1.86924E-14
 -1      4018 1.85294E+01 5.96725E-01 6.76163E-03 1.39853E+00-9.27315E-14 8.30993E-14
 -1      4019 1.92699E+01 1.89919E+00-4.74641E-03-4.17558E-01 2.02610E-16-2.72360E-15
 -1      4020 1.91404E+01 1.81146E+00 5.30347E-03-4.65880E-01 2.25579E-15-7.79596E-15
 -1      4021 1.78655E+01-7.72165E-01 1.41703E-02 2.94705E+00 7.79498E-15 1.20093E-13
 -1      4022 1.95505E+01 2.93806E-02 9.89464E-03-1.91863E+00-1.74719E-14 3.67803E-14
 -1      4023 1.94662E+01 2.75145E-01-4.54280E-04-1.76217E+00-1.22699E-14 5.92947E-14
 -1      4024 1.90259E+01 1.85533E-02-8.52433E-03-2.08679E+00-5.34351E-14 7.29321E-14
 -1      4025 1.89170E+01 1.98232E+00 6.73985E-03-2.20896E-01-2.43262E-14-3.27228E-14
 -1      4026 1.89601E+01 2.14921E+00-1.96294E-03-1.13970E-01-4.17976E-15-3.73411E-14
 -1      4027 1.89404E+01 2.15821E+00-4.68314E-03-2.36673E-02-6.43372E-15-5.18919E-14
 -1      4028 1.81382E+01 9.17842E-02-3.53138E-03 2.05105E+00-2.31317E-14 1.42773E-13
 -1      4029 1.82618E+01-1.97908E-01 2.16527E-02 2.29381E+00-5.51065E-14 1.18126E-13
 -1      4030 1.88323E+01 7.61493E-01-5.39134E-03 9.87321E-01-1.56561E-13 1.75587E-15
 -1      4031 1.87587E+01 7.35221E-01 4.12124E-03 1.10551E+00-1.66431E-13-1.71690E-14
 -1      4032 1.83958E+01 8.29746E-01 4.72582E-03 1.07188E+00-1.61756E-13 1.20470E-13
 -1      4033 2.00053E+01 1.76290E-02 2.01233E-05-1.62802E-03-3.58710E-14-5.40194E-14
 -1      4034 1.90599E+01 7.65826E-01-4.37178E-03 7.85668E-01-1.25717E-13 8.56448E-14
 -1      4035 1.89836E+01 7.73889E-01 2.30110E-03 8.80436E-01-1.44838E-13-4.20002E-15
 -1      4036 1.87064E+01 8.64577E-01 4.33635E-03 8.34962E-01-1.66260E-13 7.48660E-14
 -1      4037 1.92593E+01 7.20851E-01-3.57250E-03 6.25234E-01-4.54598E-14 1.22396E-13
 -1      4038 1.91885E+01 7.49721E-01 1.28925E-03 7.02668E-01-1.44013E-13 4.04889E-14
 -1      4039 1.89743E+01 8.35724E-01 3.80806E-03 6.56086E-01-1.49233E-13 1.05788E-13
 -1      4040 1.94284E+01 6.48209E-01-2.93788E-03 4.95421E-01-8.47726E-14 1.84164E-13
 -1      4041 1.93666E+01 6.88218E-01 7.46963E-04 5.59387E-01-4.93145E-15 1.88843E-13
 -1      4042 1.92004E+01 7.68324E-01 3.27195E-03 5.16823E-01-6.36915E-14 8.90317E-14
 -1      4043 1.95679E+01 5.63066E-01-2.41996E-03 3.89532E-01-2.86800E-13 2.53397E-13
 -1      4044 1.95164E+01 6.07481E-01 4.63187E-04 4.42526E-01-1.76638E-13 2.37990E-13
 -1      4045 1.93875E+01 6.80462E-01 2.75949E-03 4.06172E-01-1.98260E-13 3.34769E-13
 -1      4046 1.96804E+01 4.75609E-01-1.98660E-03 3.03094E-01-1.32154E-13 2.29391E-13
 -1      4047 1.96388E+01 5.19961E-01 3.18887E-04 3.46839E-01-2.07086E-13 2.17220E-13
 -1      4048 1.95396E+01 5.84928E-01 2.28573E-03 3.17235E-01-1.98013E-13 1.24494E-13
 -1      4049 1.97692E+01 3.92284E-01-1.61840E-03 2.32871E-01-1.24294E-13 1.48011E-13
 -1      4050 1.97366E+01 4.33802E-01 2.45808E-04 2.68690E-01-1.32282E-13 1.39578E-13
 -1      4051 1.96609E+01 4.90335E-01 1.85953E-03 2.45482E-01-6.40122E-14 2.89087E-14
 -1      4052 1.98379E+01 3.16792E-01-1.30427E-03 1.76310E-01 8.90106E-15 1.92746E-13
 -1      4053 1.98129E+01 3.53946E-01 2.06568E-04 2.05316E-01-8.72197E-14 1.38541E-13
 -1      4054 1.97559E+01 4.02086E-01 1.48575E-03 1.87729E-01-1.26998E-13-8.93794E-14
 -1      4055 1.98898E+01 2.50899E-01-1.03761E-03 1.31253E-01-1.34951E-14 2.93841E-13
 -1      4056 1.98712E+01 2.83027E-01 1.81775E-04 1.54443E-01 4.19835E-14 2.53837E-13
 -1      4057 1.98290E+01 3.23192E-01 1.16576E-03 1.41552E-01-2.06599E-14-2.48067E-14
 -1      4058 1.99282E+01 1.95064E-01-8.13685E-04 9.58162E-02 5.81539E-14 3.90453E-13
 -1      4059 1.99148E+01 2.22084E-01 1.62140E-04 1.14098E-01 1.07677E-14 3.85455E-13
 -1      4060 1.98840E+01 2.54956E-01 8.98029E-04 1.04983E-01-2.33332E-14 1.20376E-13
 -1      4061 1.99559E+01 1.48913E-01-6.28395E-04 6.83300E-02 1.07792E-13 4.46668E-13
 -1      4062 1.99465E+01 1.71104E-01 1.43794E-04 8.25309E-02 1.19336E-13 3.92123E-13
 -1      4063 1.99246E+01 1.97520E-01 6.78814E-04 7.63588E-02 9.16576E-14 2.82360E-13
 -1      4064 1.99753E+01 1.11588E-01-4.76919E-04 4.73286E-02 7.63527E-14 4.45575E-13
 -1      4065 1.99690E+01 1.29434E-01 1.25612E-04 5.81878E-02 1.35291E-13 5.36983E-13
 -1      4066 1.99538E+01 1.50290E-01 5.02962E-04 5.42447E-02 5.06077E-14 2.03596E-13
 -1      4067 1.99884E+01 8.19809E-02-3.58218E-04 3.15340E-02 1.33130E-13 1.88058E-13
 -1      4068 1.99843E+01 9.60693E-02 1.08296E-04 3.97024E-02 7.07282E-14 2.94529E-13
 -1      4069 1.99742E+01 1.12251E-01 3.64351E-04 3.74077E-02 2.43436E-13 1.48453E-13
 -1      4070 1.99968E+01 5.88889E-02-2.63322E-04 1.98810E-02 1.63986E-15-4.39059E-14
 -1      4071 1.99944E+01 6.98250E-02 9.26635E-05 2.58996E-02 1.07011E-13 5.37647E-14
 -1      4072 1.99879E+01 8.21434E-02 2.47330E-04 2.47644E-02 2.06422E-13 5.91001E-14
 -1      4073 2.00017E+01 4.11934E-02-1.87825E-04 1.14463E-02-3.27335E-13 1.42424E-13
 -1      4074 2.00005E+01 4.95537E-02 7.69703E-05 1.58055E-02-2.33491E-13 1.52751E-15
 -1      4075 1.99966E+01 5.88178E-02 1.86469E-04 1.54860E-02-1.69304E-13-1.13329E-13
 -1      4076 2.00042E+01 2.78650E-02-9.29548E-05 5.56462E-03-1.39585E-13 1.68592E-13
 -1      4077 2.00038E+01 3.40882E-02 7.25322E-05 8.55938E-03-1.14177E-13 1.27212E-13
 -1      4078 2.00016E+01 4.08899E-02 1.12808E-04 8.79729E-03-2.22905E-13-1.00596E-13
 -1      4079 1.84567E+01 1.39995E+00-9.22152E-03 8.35450E-01-6.43718E-14-8.12469E-15
 -1      4080 1.82476E+01 1.29947E+00-1.49682E-03 9.75254E-01-6.73935E-14-1.91866E-14
 -1      4081 1.78601E+01 1.39634E+00 1.57696E-02 7.91219E-01-6.65049E-14-6.56094E-14
 -1      4082 1.98049E+01 1.46653E+00-9.51443E-04-5.68387E-01 1.82467E-14-9.39598E-14
 -1      4083 1.98865E+01-1.04454E+00 9.78753E-03-2.51706E+00-9.25867E-14 9.29424E-14
 -1      4084 1.91340E+01-7.10370E-01-1.05302E-02-2.60067E+00-9.85271E-14 8.33221E-14
 -1      4085 1.65654E+01 1.72575E-01 1.46735E-02 2.47962E+00 3.36586E-14-1.37787E-13
 -1      4086 1.53441E+01 4.35250E-01 2.89255E-02 2.24547E+00 2.88344E-14-1.39892E-13
 -1      4087 1.55134E+01 7.49125E-01 9.63898E-04 1.64523E+00-2.58613E-14-1.49434E-13
 -1      4088 1.66391E+01 5.12795E-01-1.58546E-02 2.06059E+00 4.30775E-15-9.73323E-14
 -1      4089 1.84109E+01-5.90232E-01 1.21445E-02-2.74631E+00-1.16518E-13 4.11028E-14
 -1      4090 1.82952E+01-1.86658E-01-7.29261E-03-2.42949E+00-1.06176E-13 5.11984E-14
 -1      4091 1.83385E+01 4.74011E-01-6.97932E-03 1.58962E+00 3.54970E-14 2.89376E-14
 -1      4092 1.83254E+01 3.09096E-01 1.05877E-02 1.78910E+00 6.29004E-14 1.30708E-13
 -1      4093 1.80478E+01 6.92687E-01 4.11031E-03 1.39379E+00-5.45900E-14 1.83901E-13
 -1      4094 1.94392E+01 1.76699E+00-9.16536E-04-4.70848E-01 1.78903E-14-3.53414E-14
 -1      4095 2.00043E+01 2.55620E-02-2.02750E-05-3.34352E-03 2.40633E-13-5.80271E-14
 -1      4096 2.00038E+01 2.67670E-02-8.25561E-05-2.74140E-03 1.63512E-13-2.95956E-13
 -1      4097 2.02925E+01-1.57220E+00 2.58728E-04-2.63744E+00-7.44014E-14 1.43766E-13
 -1      4098 1.51786E+01 1.02412E+00-1.87817E-02 6.79519E-01-6.01767E-14-9.70838E-14
 -1      4099 1.48851E+01 1.10736E+00 1.92133E-02-2.08639E-01-8.58051E-14-5.31641E-14
 -1      4100 1.88821E+01-1.33680E+00 2.76959E-02-3.23746E+00-1.11501E-13 9.22795E-14
 -1      4101 2.00053E+01 1.96925E-02 1.96576E-05-2.61739E-03 2.08944E-13-5.86958E-15
 -1      4102 1.90985E+01 1.60918E+00-9.27212E-04-6.27128E-01-5.08588E-15-6.51904E-15
 -1      4103 1.89262E+01 1.72030E+00-5.60213E-03-5.14954E-01-1.48639E-14-1.77287E-14
 -1      4104 1.70409E+01-3.23827E-01-4.09171E-03 2.77539E+00-1.36696E-15 2.56978E-13
 -1      4105 1.81360E+01-8.20680E-01-5.23033E-03-3.00053E+00-1.02683E-13 3.19063E-14
 -1      4106 1.59285E+01 1.85673E-01 1.60417E-02-2.38771E+00-1.03448E-13-2.53192E-14
 -1      4107 1.95940E+01 1.60313E+00-7.67600E-04-5.62418E-01 2.84871E-14-7.61258E-14
 -1      4108 1.63493E+01 8.59196E-01-3.85945E-03 1.55651E+00-4.72899E-14-1.20256E-13
 -1      4109 1.87464E+01 1.65555E+00 4.77552E-03-5.11559E-01-2.82495E-14 6.92003E-15
 -1      4110 1.87973E+01 1.82304E+00 8.04333E-05-3.45053E-01-3.19069E-14-1.06294E-14
 -1      4111 1.87126E+01 1.86789E+00-6.22621E-03-2.02773E-01-4.23715E-14-3.55216E-14
 -1      4112 1.63059E+01 6.70482E-01 2.92665E-03-1.79304E+00 3.02544E-14 1.11909E-13
 -1      4113 1.77521E+01 1.98651E-01-6.37117E-03-2.21531E+00-8.95807E-14-2.40411E-15
 -1      4114 1.85004E+01 1.33724E-01 1.08298E-02-2.12019E+00-8.46235E-14 5.14735E-14
 -1      4115 1.85043E+01 3.96692E-01-6.39882E-03-1.87793E+00-7.16973E-14 1.60348E-14
 -1      4116 2.00023E+01 3.65936E-02-2.86229E-05-6.42890E-03 4.58728E-13-8.19802E-14
 -1      4117 2.00042E+01 3.09831E-02 1.00039E-04-6.31833E-03 3.15069E-13 9.40135E-15
 -1      4118 1.38906E+01 9.08943E-01 5.93057E-02 1.19874E+00 1.47216E-13 1.99837E-13
 -1      4119 1.40707E+01 9.81837E-01 9.80484E-03 3.91948E-01 2.17725E-14 1.66893E-13
 -1      4120 1.48740E+01 6.35642E-01 1.48092E-02 1.70817E+00 8.55991E-14 3.23454E-13
 -1      4121 2.00045E+01 2.51135E-02-4.61031E-05-3.82539E-03 3.99254E-13 1.03446E-13
 -1      4122 1.51349E+01 1.06446E+00 1.18609E-02-6.58973E-01-1.02464E-13-4.41418E-14
 -1      4123 1.55557E+01 9.12447E-01-1.10091E-02-1.20361E+00-9.44574E-14-2.65944E-14
 -1      4124 1.58774E+01 1.15361E+00 1.92262E-03-3.76194E-01-9.02542E-14-3.51615E-14
 -1      4125 2.00049E+01 1.40045E-02-7.61898E-06 5.99913E-05 1.99282E-13-4.93021E-13
 -1      4126 2.00050E+01 1.61108E-02 1.82913E-06 7.03230E-04 3.01977E-13-2.20355E-13
 -1      4127 2.00048E+01 1.50918E-02-5.29940E-05 3.15972E-04 2.70848E-13-7.71274E-13
 -1      4128 2.00033E+01 2.80104E-02-3.77295E-05-1.55762E-03 3.27493E-14-5.29425E-13
 -1      4129 2.00031E+01 2.84631E-02-4.84458E-05-7.10987E-04 8.42129E-14-4.18676E-13
 -1      4130 2.00030E+01 3.31419E-02 1.66573E-04-3.17188E-03 2.69589E-13-3.10162E-13
 -1      4131 1.76734E+01 3.86021E-01-4.96351E-03 1.85101E+00 2.00718E-14 1.03632E-13
 -1      4132 2.00047E+01 2.52159E-02 5.77634E-05 4.37072E-03-1.71881E-13 6.19127E-14
 -1      4133 2.00037E+01 3.00853E-02 7.25687E-06 4.79314E-03-1.26057E-13-4.17998E-13
 -1      4134 2.00047E+01 2.26567E-02-4.60606E-05 3.09875E-03-5.19579E-14-9.37099E-14
 -1      4135 1.84145E+01 1.57851E+00 6.66775E-03 5.83977E-01-7.13519E-14-2.34165E-14
 -1      4136 2.00045E+01 1.75483E-02-6.31127E-05 3.25830E-04 1.58176E-13-4.09367E-13
 -1      4137 2.00046E+01 1.67547E-02-1.49000E-05 2.98546E-04 1.52342E-13-6.91283E-13
 -1      4138 2.00046E+01 1.92298E-02-6.63082E-06 7.42537E-04 1.38144E-13-7.10617E-13
 -1      4139 2.00044E+01 2.23146E-02 1.04013E-04 3.87604E-04 1.59635E-13-5.67442E-13
 -1      4140 1.44843E+01 7.75250E-01 2.37782E-02-1.52177E+00 8.16990E-14-1.93911E-13
 -1      4141 1.56226E+01 7.29111E-01 2.38117E-02-1.66370E+00 1.37192E-13-6.16540E-14
 -1      4142 1.59912E+01 9.43446E-01-1.62417E-02-1.21250E+00 3.04867E-14-1.20010E-13
 -1      4143 1.44192E+01 9.70966E-01-1.87779E-02-7.53468E-01 8.71605E-14-8.51610E-14
 -1      4144 1.58470E+01 9.96380E-01 2.55073E-02 1.24587E+00-3.33106E-14-1.32419E-13
 -1      4145 1.88686E+01 2.02338E+00 7.40931E-03 3.24711E-02-6.22075E-15-5.56097E-14
 -1      4146 1.89573E+01 2.14938E+00-4.22339E-03 8.74159E-02-1.95156E-15-4.25431E-14
 -1      4147 1.90028E+01 2.11235E+00-3.82190E-03 1.53577E-01-5.32354E-15-3.60328E-14
 -1      4148 1.91693E+01 5.16223E-01-2.76122E-03-1.64892E+00-4.53953E-14 1.68328E-14
 -1      4149 1.91977E+01 2.03405E+00 2.51350E-03 3.03643E-01-3.05163E-14-4.56959E-15
 -1      4150 1.89760E+01 1.82112E+00 3.37057E-03 4.08414E-01-3.42761E-14 6.79825E-15
 -1      4151 1.87523E+01 1.84052E+00 9.22360E-04 3.14264E-01-5.46199E-14-2.18244E-14
 -1      4152 1.94614E+01 1.52237E+00 3.51102E-03-6.65198E-01 1.73120E-16-3.71384E-14
 -1      4153 1.72848E+01-2.19476E-01 2.44804E-02-2.76220E+00-1.09133E-13-3.39177E-14
 -1      4154 1.60693E+01 1.13903E+00-8.31939E-03 6.84877E-01-3.55731E-14-1.01469E-13
 -1      4155 1.93891E+01 1.32593E+00-1.52499E-03-8.37760E-01-2.93694E-14-5.85998E-14
 -1      4156 1.92215E+01 1.48877E+00-2.03255E-03-7.40403E-01-1.76790E-14-7.94387E-15
 -1      4157 1.90323E+01 1.42981E+00 4.17597E-03-7.98446E-01-1.73835E-14-1.21828E-14
 -1      4158 1.93234E+01 1.17340E+00 2.80263E-03-1.00595E+00-4.15803E-14-3.95514E-14
 -1      4159 1.90765E+01 8.66719E-01 4.04677E-03-1.34581E+00-7.41242E-14-4.78261E-14
 -1      4160 1.91694E+01 1.02175E+00-1.53376E-03-1.16907E+00-5.20915E-14-5.75010E-14
 -1      4161 1.90035E+01 1.15623E+00-8.05807E-04-1.07794E+00-5.07684E-14-5.00659E-14
 -1      4162 2.00004E+01 4.41380E-02 1.21118E-04-6.40802E-03 4.58645E-13-2.65348E-13
 -1      4163 2.00012E+01 3.83117E-02-9.41242E-05-4.37854E-03 4.35928E-13-2.10379E-13
 -1      4164 2.00007E+01 3.93348E-02-1.31205E-04-2.85836E-03 2.99213E-13-2.87723E-13
 -1      4165 1.63711E+01 2.30182E-01-9.36233E-03 2.24276E+00-9.46227E-15 2.29046E-13
 -1      4166 1.73713E+01 1.13187E+00-3.92575E-03-6.78719E-01-1.11432E-13 8.27702E-15
 -1      4167 1.76531E+01 1.13094E+00-1.06017E-02-5.91240E-01-2.86216E-14-4.55393E-14
 -1      4168 1.79623E+01 1.12182E+00-2.65356E-03-5.41922E-01 6.87435E-14-9.79137E-14
 -1      4169 1.81863E+01 1.09248E+00-6.84623E-03-4.77287E-01 9.15181E-14-8.04190E-14
 -1      4170 1.77046E+01 1.20268E+00 1.41782E-02-3.25061E-01-7.53504E-14 1.17899E-13
 -1      4171 1.84236E+01 1.05720E+00-2.38643E-03-4.41775E-01 1.28086E-13-8.96601E-14
 -1      4172 1.86023E+01 1.01154E+00-4.88645E-03-3.91828E-01 1.67971E-13-6.13958E-14
 -1      4173 1.82252E+01 1.12853E+00 8.96978E-03-2.69831E-01 1.32727E-13 1.25296E-13
 -1      4174 1.87879E+01 9.61900E-01-1.94109E-03-3.63202E-01 1.18182E-13-9.92575E-14
 -1      4175 1.89304E+01 9.06463E-01-3.67224E-03-3.22341E-01 4.04358E-14-1.20222E-14
 -1      4176 1.86333E+01 1.02911E+00 6.66830E-03-2.27666E-01 9.59247E-14-1.14617E-13
 -1      4177 1.90767E+01 8.49661E-01-1.54420E-03-2.98237E-01 2.30360E-14-4.73007E-14
 -1      4178 1.91898E+01 7.90335E-01-2.86117E-03-2.63638E-01 6.44510E-14-6.75178E-14
 -1      4179 1.89552E+01 9.13140E-01 5.12031E-03-1.91633E-01 3.61523E-14-1.56620E-13
 -1      4180 1.93052E+01 7.31731E-01-1.19633E-03-2.42918E-01 2.00689E-14-6.77143E-14
 -1      4181 1.93941E+01 6.72885E-01-2.28062E-03-2.13261E-01 3.21824E-14-6.19245E-14
 -1      4182 1.92096E+01 7.90757E-01 3.99878E-03-1.59598E-01 6.63838E-14-2.69282E-13
 -1      4183 1.94848E+01 6.16249E-01-9.04917E-04-1.95428E-01 5.30176E-14-1.21358E-13
 -1      4184 1.95539E+01 5.60870E-01-1.83716E-03-1.70073E-01 8.73019E-14-1.94630E-14
 -1      4185 1.94099E+01 6.69890E-01 3.14557E-03-1.30910E-01 5.34568E-14-1.80250E-13
 -1      4186 1.96245E+01 5.08632E-01-6.69042E-04-1.54881E-01 4.13989E-14-2.26807E-13
 -1      4187 1.96776E+01 4.58543E-01-1.48135E-03-1.33440E-01-2.82387E-14-3.21003E-13
 -1      4188 1.95664E+01 5.56193E-01 2.47391E-03-1.05500E-01-4.91296E-14-2.15374E-13
 -1      4189 1.97319E+01 4.12060E-01-4.83474E-04-1.20704E-01-1.25598E-13-2.90371E-13
 -1      4190 1.97721E+01 3.68170E-01-1.18762E-03-1.02848E-01-1.80638E-13-3.84552E-13
 -1      4191 1.96875E+01 4.53231E-01 1.93508E-03-8.34216E-02-1.82326E-13-3.88215E-13
 -1      4192 1.98133E+01 3.27996E-01-3.41093E-04-9.23644E-02-1.82088E-13-5.89193E-13
 -1      4193 1.98432E+01 2.90545E-01-9.42593E-04-7.77441E-02-1.47020E-13-5.56950E-13
 -1      4194 1.97798E+01 3.62845E-01 1.49993E-03-6.46573E-02-2.22571E-13-5.38431E-13
 -1      4195 1.98740E+01 2.56671E-01-2.34332E-04-6.92798E-02-9.59007E-14-5.77085E-13
 -1      4196 1.98957E+01 2.25439E-01-7.38556E-04-5.75187E-02-7.96668E-14-5.68726E-13
 -1      4197 1.98492E+01 2.85557E-01 1.14916E-03-4.90636E-02-9.15085E-14-6.98530E-13
 -1      4198 1.99183E+01 1.97491E-01-1.56035E-04-5.08157E-02 3.18958E-14-5.02394E-13
 -1      4199 1.99338E+01 1.71975E-01-5.70146E-04-4.15222E-02 2.05490E-14-4.59920E-13
 -1      4200 1.99004E+01 2.20971E-01 8.68462E-04-3.63852E-02-3.52270E-14-5.07976E-13
 -1      4201 1.99500E+01 1.49362E-01-9.99929E-05-3.63151E-02 5.81708E-17-4.12284E-13
 -1      4202 1.99607E+01 1.28902E-01-4.34645E-04-2.91027E-02 5.03930E-14-4.58182E-13
 -1      4203 1.99373E+01 1.68099E-01 6.46114E-04-2.62916E-02 6.60330E-14-4.63369E-13
 -1      4204 1.99720E+01 1.10929E-01-6.20207E-05-2.51471E-02 1.59735E-13-4.01899E-13
 -1      4205 1.99792E+01 9.48488E-02-3.07693E-04-1.96655E-02 4.29345E-14-2.33742E-13
 -1      4206 1.99633E+01 1.25616E-01 4.73306E-04-1.84164E-02 3.46564E-14-3.24786E-13
 -1      4207 1.99866E+01 8.07831E-02-3.81532E-05-1.66205E-02 1.36408E-14-1.08594E-13
 -1      4208 1.99913E+01 6.82380E-02-2.25834E-04-1.25995E-02 1.87870E-13-1.66434E-13
 -1      4209 1.99810E+01 9.22592E-02 3.92259E-04-1.23974E-02 1.50263E-13-1.28298E-13
 -1      4210 1.99950E+01 6.03397E-02 4.26795E-05-1.08520E-02 3.19451E-13-9.12776E-14
 -1      4211 1.99978E+01 5.06170E-02-1.12399E-04-7.86784E-03 4.29736E-13-1.50690E-13
 -1      4212 1.99969E+01 5.28599E-02 6.46070E-05-5.16934E-03 3.09321E-13 2.49726E-13
 -1      4213 1.99912E+01 6.84720E-02 8.53698E-05-8.04544E-03 2.82712E-13 2.16468E-13
 -1      4214 1.70374E+01 4.95513E-01 1.80371E-02 1.83621E+00-2.03318E-14 1.28325E-13
 -1      4215 1.58790E+01 5.11508E-01 3.54730E-03 1.96728E+00 5.09480E-14 2.67862E-13
 -1      4216 1.55525E+01 8.34673E-01-6.49000E-03 1.33132E+00 4.33633E-14 3.30950E-13
 -1      4217 1.71779E+01 6.55140E-01-8.45835E-03 1.57237E+00 2.80973E-14 1.31878E-13
 -1      4218 1.82254E+01 9.39235E-01-8.55726E-03 8.27954E-01-1.43759E-13 9.25673E-14
 -1      4219 1.80665E+01 9.24687E-01 2.62315E-03 9.51472E-01-1.11146E-13 1.17696E-13
 -1      4220 1.91511E+01 7.84900E-01-3.52737E-03 3.86999E-01-1.40549E-13 1.79155E-13
 -1      4221 1.90492E+01 8.31781E-01-2.42225E-04 4.42492E-01-1.19434E-13 5.88169E-14
 -1      4222 1.93539E+01 6.85522E-01-2.73433E-03 3.01191E-01-2.22535E-13 2.35858E-13
 -1      4223 1.92701E+01 7.37102E-01-3.78257E-04 3.45743E-01-1.01829E-13 2.64108E-13
 -1      4224 1.91490E+01 8.07605E-01 4.15224E-03 2.71912E-01-1.70442E-13 3.21986E-15
 -1      4225 1.95165E+01 5.83175E-01-2.13802E-03 2.33076E-01-6.29695E-15-6.75508E-14
 -1      4226 1.94489E+01 6.34860E-01-4.03282E-04 2.69155E-01-1.21654E-13 1.20583E-14
 -1      4227 1.93558E+01 6.97277E-01 3.23766E-03 2.09214E-01 1.06433E-14-1.50711E-13
 -1      4228 1.96451E+01 4.84874E-01-1.67549E-03 1.78780E-01-9.41845E-14-1.64127E-13
 -1      4229 1.95915E+01 5.33636E-01-3.72913E-04 2.08031E-01-1.02319E-13-1.25690E-13
 -1      4230 1.95202E+01 5.88078E-01 2.52004E-03 1.60310E-01 2.31050E-15-3.41159E-13
 -1      4231 1.97451E+01 3.94924E-01-1.30891E-03 1.35568E-01-5.73296E-14-1.39254E-13
 -1      4232 1.97035E+01 4.38972E-01-3.18541E-04 1.59180E-01-7.92159E-14-8.96093E-14
 -1      4233 1.96494E+01 4.85644E-01 1.94862E-03 1.21930E-01-1.06122E-13-1.93631E-13
 -1      4234 1.98217E+01 3.15587E-01-1.01513E-03 1.01374E-01-5.47587E-14-8.28565E-14
 -1      4235 1.97899E+01 3.54051E-01-2.57665E-04 1.20282E-01-9.75548E-14-1.89547E-13
 -1      4236 1.97494E+01 3.93348E-01 1.49163E-03 9.17888E-02-7.83895E-14-1.76035E-13
 -1      4237 1.98791E+01 2.47652E-01-7.79163E-04 7.45503E-02-5.01908E-14-9.40757E-14
 -1      4238 1.98555E+01 2.80319E-01-1.99613E-04 8.95328E-02-8.04304E-14-7.88515E-14
 -1      4239 1.98255E+01 3.12821E-01 1.12731E-03 6.82040E-02-8.93113E-14-3.51360E-13
 -1      4240 1.99214E+01 1.90920E-01-5.90486E-04 5.37353E-02 4.20675E-14 4.75381E-14
 -1      4241 1.99042E+01 2.18009E-01-1.48827E-04 6.54621E-02 4.24670E-14 2.11984E-14
 -1      4242 1.98824E+01 2.44426E-01 8.39217E-04 4.98737E-02-6.70255E-14-3.69815E-13
 -1      4243 1.99518E+01 1.44571E-01-4.40975E-04 3.77839E-02 1.55802E-13 7.90783E-15
 -1      4244 1.99396E+01 1.66566E-01-1.06764E-04 4.68382E-02 1.01260E-13 4.56002E-14
 -1      4245 1.99241E+01 1.87673E-01 6.13655E-04 3.57580E-02 1.42364E-13-3.52976E-13
 -1      4246 1.99729E+01 1.07438E-01-3.30187E-04 2.57257E-02 2.99982E-13 2.47358E-15
 -1      4247 1.99646E+01 1.24966E-01-7.22931E-05 3.26186E-02 1.88896E-13 6.00358E-14
 -1      4248 1.99539E+01 1.41540E-01 4.34761E-04 2.50139E-02 1.85790E-13-2.29730E-13
 -1      4249 1.99870E+01 7.82339E-02-2.75303E-04 1.67081E-02 2.20017E-13-1.17771E-13
 -1      4250 1.99816E+01 9.20451E-02-1.78071E-05 2.19428E-02 3.10069E-13-1.23164E-13
 -1      4251 1.99745E+01 1.04634E-01 2.57740E-04 1.69860E-02 2.61653E-13-2.59040E-13
 -1      4252 1.99960E+01 5.56030E-02-2.00933E-04 1.03120E-02-1.57090E-13-2.46499E-13
 -1      4253 1.99929E+01 6.61535E-02 9.38065E-06 1.40273E-02 1.26563E-13-1.97627E-13
 -1      4254 1.99882E+01 7.55965E-02 8.82782E-05 1.11611E-02 3.18588E-13-1.40985E-13
 -1      4255 2.00014E+01 3.83902E-02-1.11956E-04 5.59726E-03-1.36557E-13-4.28009E-13
 -1      4256 1.99996E+01 4.64617E-02 1.56554E-05 8.16562E-03-2.43597E-13-4.48283E-13
 -1      4257 1.99969E+01 5.40510E-02 2.42752E-04 6.68015E-03-8.62251E-14-4.91741E-13
 -1      4258 1.78413E+01 1.47419E+00-1.01333E-02 4.31009E-01-8.20236E-14-1.99577E-14
 -1      4259 1.75032E+01 1.38320E+00-8.86454E-03 5.27859E-01-6.22911E-14-3.12976E-14
 -1      4260 1.85958E+01 9.28695E-01-6.20815E-03 6.38500E-01-2.22036E-13 1.27779E-13
 -1      4261 1.84545E+01 9.44304E-01 7.17900E-04 7.30161E-01-1.51479E-13 1.13188E-13
 -1      4262 1.81798E+01 1.04505E+00 9.24252E-03 6.08006E-01-1.58737E-13 6.67467E-14
 -1      4263 1.86887E+01 1.90163E+00-8.96304E-04-4.07320E-02-3.85943E-14-6.07168E-14
 -1      4264 1.86909E+01 1.89554E+00-3.43099E-03 7.53503E-02-4.45211E-14-4.84800E-14
 -1      4265 1.85658E+01 1.77567E+00 3.76745E-03-1.65782E-01-5.07268E-14-4.25670E-14
 -1      4266 1.77762E+01 8.73525E-01-1.28771E-02 1.09590E+00-8.53122E-14 1.72237E-13
 -1      4267 1.76198E+01 8.09571E-01 5.97998E-03 1.26275E+00-6.52054E-14 1.36353E-13
 -1      4268 1.76864E+01 1.04637E+00 1.20418E-02 8.15656E-01-7.29031E-14 1.29209E-13
 -1      4269 1.89010E+01 8.70861E-01-4.62230E-03 4.96354E-01-6.30392E-14 1.07485E-13
 -1      4270 1.87798E+01 9.06534E-01 9.88060E-05 5.66708E-01-1.17209E-13 1.30923E-13
 -1      4271 1.88915E+01 9.10678E-01 5.34944E-03 3.53346E-01-7.78808E-14 4.24004E-15
 -1      4272 1.66335E+01 1.09120E+00 8.54401E-03-8.85408E-01 3.73393E-14 7.19655E-15
 -1      4273 1.69607E+01 1.11719E+00-1.30327E-02-7.54821E-01 1.92615E-14 3.81205E-14
 -1      4274 1.70042E+01 1.22761E+00 1.33982E-02-4.11393E-01-2.92503E-14 8.13800E-14
 -1      4275 1.91275E+01 1.91512E+00-2.33683E-04 3.96541E-01-2.55537E-14 1.38885E-14
 -1      4276 1.57899E+01 7.02843E-01 1.38791E-02-1.71893E+00-1.03745E-13 1.52270E-14
 -1      4277 1.66090E+01 1.42374E-01-8.31661E-03-2.39958E+00-9.30731E-14-2.47649E-14
 -1      4278 1.69854E+01 3.00367E-01 1.83242E-03-2.19077E+00-9.06857E-14-8.18789E-15
 -1      4279 1.63065E+01 9.09092E-01 1.43188E-02-1.29115E+00-1.03735E-13-3.75134E-15
 -1      4280 1.87608E+01 5.58062E-01 6.17370E-03-1.68980E+00-7.63116E-14-6.95863E-15
 -1      4281 1.88729E+01 7.42695E-01-3.50168E-03-1.49003E+00-7.40912E-14-3.44765E-14
 -1      4282 1.86590E+01 8.94411E-01 1.37681E-03-1.38836E+00-9.21895E-14-4.15988E-14
 -1      4283 1.82171E+01 6.41436E-01 2.56459E-03-1.70992E+00-9.89820E-14-1.76877E-15
 -1      4284 1.70774E+01 1.30355E+00-1.49893E-02 5.40300E-01-4.72998E-14-3.64626E-14
 -1      4285 1.66261E+01 1.20387E+00-1.23900E-02 6.60805E-01-3.84664E-14-6.29327E-14
 -1      4286 1.62638E+01 1.31967E+00 3.10716E-02 1.14661E-01-6.04559E-14-7.92275E-15
 -1      4287 1.72289E+01 1.44753E+00 2.13514E-02 1.51810E-01-7.49087E-14 1.16248E-14
 -1      4288 1.85675E+01 1.74450E+00 9.97094E-04 2.42698E-01-6.98158E-14-1.58137E-14
 -1      4289 1.69718E+01 8.92510E-01 7.79924E-03 1.24219E+00 2.67278E-15 2.13533E-13
 -1      4290 1.86354E+01 1.48906E+00-8.96256E-04-6.96316E-01-3.62596E-14 2.52842E-14
 -1      4291 1.84730E+01 1.58348E+00-4.91610E-03-5.11304E-01-4.83755E-14 2.16443E-14
 -1      4292 1.72210E+01 5.78381E-01-6.28341E-03-1.84886E+00-7.15450E-14-1.59779E-14
 -1      4293 1.50255E+01 1.04434E+00-2.16945E-02 5.75729E-01 8.09337E-14 1.57824E-13
 -1      4294 1.46569E+01 1.10862E+00 2.23926E-02-1.48298E-01 6.12249E-14 5.78117E-14
 -1      4295 1.54482E+01 1.12091E+00 1.56702E-02-4.73877E-01 1.34274E-13-1.30336E-13
 -1      4296 1.64049E+01 1.23770E+00-5.47875E-03-2.95204E-01-7.41490E-14 8.20091E-16
 -1      4297 1.83200E+01 1.63620E+00-3.40161E-03 3.06666E-01-7.55758E-14-3.67419E-14
 -1      4298 2.00024E+01 3.48628E-02 2.82525E-05 4.69083E-03-8.22276E-14-4.89657E-13
 -1      4299 2.00009E+01 3.98177E-02-3.95963E-05 3.79858E-03-3.60940E-14-7.82569E-13
 -1      4300 2.00029E+01 3.14127E-02-5.97765E-05 3.31472E-03-4.82912E-14-6.87384E-13
 -1      4301 1.81155E+01 1.64385E+00 1.05312E-02 7.03246E-02-6.68593E-14-3.09410E-14
 -1      4302 2.00033E+01 2.70268E-02-1.33935E-04 2.93446E-04-4.62292E-14-4.61196E-13
 -1      4303 2.00036E+01 2.58018E-02-6.94312E-05 7.71050E-04-1.58580E-14-4.05396E-13
 -1      4304 2.00028E+01 3.28547E-02 1.53008E-04-4.34791E-04-4.85558E-14-3.15841E-13
 -1      4305 1.59822E+01 1.11971E+00 7.30438E-03-7.50522E-01 9.68133E-14-1.07622E-13
 -1      4306 1.85729E+01 9.94920E-01 6.97075E-03 4.61315E-01-1.53238E-13 3.97772E-14
 -1      4307 2.00051E+01 1.82456E-02 3.11946E-05 1.59379E-03 1.81479E-13-1.02700E-13
 -1      4308 2.00045E+01 2.23216E-02 4.01623E-05 2.12251E-03 2.27496E-14-6.22707E-13
 -1      4309 1.88603E+01 1.26910E+00-3.09552E-03-9.54452E-01-4.72863E-14-1.45856E-14
 -1      4310 1.87304E+01 1.39015E+00-1.96600E-03-8.37518E-01-4.00564E-14 3.29950E-15
 -1      4311 1.84693E+01 1.34435E+00 3.13741E-03-8.48729E-01-6.53531E-14 7.77411E-15
 -1      4312 1.87052E+01 1.13135E+00 1.93974E-03-1.11988E+00-8.20866E-14-2.09208E-14
 -1      4313 1.69423E+01 8.31858E-01 4.55167E-03-1.53234E+00-7.29434E-14-1.22982E-14
 -1      4314 1.76460E+01 7.59832E-01 5.23666E-03-1.58508E+00-6.22327E-14-2.62397E-14
 -1      4315 1.67050E+01 1.05315E+00-7.54901E-03-1.05900E+00-7.63420E-14 1.24835E-15
 -1      4316 1.68578E+01 1.08030E+00-1.57426E-02 7.29948E-01 5.68627E-14 8.42445E-14
 -1      4317 1.63680E+01 9.74447E-01-7.03753E-03 1.01322E+00 1.49162E-14 1.96182E-13
 -1      4318 1.74907E+01 1.19520E+00-6.90730E-03-6.44263E-02-1.04205E-13 1.49813E-13
 -1      4319 1.77881E+01 1.16428E+00-7.08876E-03-5.16985E-02-2.93960E-14 2.32934E-13
 -1      4320 1.80572E+01 1.13295E+00-5.58351E-03-6.95634E-02-2.06649E-14 1.56909E-13
 -1      4321 1.82926E+01 1.09219E+00-4.52649E-03-6.08212E-02 1.24573E-13 9.49557E-14
 -1      4322 1.79482E+01 1.16837E+00 1.32851E-02 1.64855E-01-6.42420E-14 6.83980E-15
 -1      4323 1.85015E+01 1.04510E+00-3.95350E-03-7.14225E-02 4.82894E-14-7.79721E-14
 -1      4324 1.86857E+01 9.92168E-01-3.35355E-03-6.29001E-02-1.35204E-14-1.28592E-13
 -1      4325 1.84124E+01 1.08473E+00 1.01694E-02 1.08993E-01-7.28042E-14-1.54314E-13
 -1      4326 1.88506E+01 9.36058E-01-2.92181E-03-6.93096E-02-4.54327E-15-1.52787E-13
 -1      4327 1.89957E+01 8.76915E-01-2.60279E-03-6.03917E-02-5.09826E-14-1.43455E-13
 -1      4328 1.87766E+01 9.77759E-01 7.48515E-03 7.20805E-02-3.63579E-14-2.96855E-13
 -1      4329 1.91266E+01 8.17048E-01-2.18149E-03-6.39855E-02-2.55293E-14-2.57322E-13
 -1      4330 1.92408E+01 7.56393E-01-2.07855E-03-5.48568E-02 9.46857E-14-3.26711E-13
 -1      4331 1.90654E+01 8.59054E-01 5.62482E-03 4.72544E-02-9.27239E-14-4.00217E-13
 -1      4332 1.93444E+01 6.96915E-01-1.63321E-03-5.66434E-02 9.96762E-14-2.98657E-13
 -1      4333 1.94338E+01 6.38274E-01-1.68367E-03-4.76845E-02 4.35010E-15-3.21769E-13
 -1      4334 1.92945E+01 7.37433E-01 4.28714E-03 3.06611E-02 8.50519E-14-4.53464E-13
 -1      4335 1.95154E+01 5.82131E-01-1.21962E-03-4.83713E-02-1.05487E-13-2.65471E-13
 -1      4336 1.95847E+01 5.27894E-01-1.36806E-03-3.99514E-02-1.55408E-13-3.67467E-13
 -1      4337 1.94752E+01 6.19731E-01 3.28585E-03 1.96808E-02-8.63692E-15-5.29721E-13
 -1      4338 1.96482E+01 4.76946E-01-9.04787E-04-4.00187E-02-1.48154E-13-4.21683E-13
 -1      4339 1.97013E+01 4.28516E-01-1.10640E-03-3.24091E-02-1.97954E-13-3.38660E-13
 -1      4340 1.96164E+01 5.10686E-01 2.51562E-03 1.24953E-02-1.76274E-13-5.00329E-13
 -1      4341 1.97500E+01 3.83734E-01-6.64630E-04-3.21691E-02-2.42512E-13-2.02435E-13
 -1      4342 1.97901E+01 3.41731E-01-8.86117E-04-2.55235E-02-1.75951E-13-2.50958E-13
 -1      4343 1.97254E+01 4.13141E-01 1.91425E-03 7.84570E-03-1.63745E-13-3.94578E-13
 -1      4344 1.98270E+01 3.03410E-01-4.82017E-04-2.51677E-02-1.57926E-13-2.74431E-13
 -1      4345 1.98568E+01 2.67879E-01-7.00636E-04-1.95352E-02-9.52937E-14-3.50796E-13
 -1      4346 1.98082E+01 3.28392E-01 1.44236E-03 4.86933E-03-1.64654E-13-1.63180E-13
 -1      4347 1.98842E+01 2.35843E-01-3.44164E-04-1.91722E-02 5.41907E-14-4.03559E-13
 -1      4348 1.99059E+01 2.06443E-01-5.45942E-04-1.45233E-02 8.11361E-14-3.79304E-13
 -1      4349 1.98702E+01 2.56587E-01 1.07289E-03 2.98260E-03-6.24994E-14-1.78987E-13
 -1      4350 1.99258E+01 1.80214E-01-2.41333E-04-1.42076E-02 2.85266E-14-3.41378E-13
 -1      4351 1.99412E+01 1.56365E-01-4.19377E-04-1.04605E-02 6.22502E-15-3.18175E-13
 -1      4352 1.99156E+01 1.97083E-01 7.85654E-04 1.79626E-03 6.90227E-14-2.29106E-13
 -1      4353 1.99553E+01 1.35301E-01-1.66592E-04-1.02129E-02 1.16452E-13-2.98816E-13
 -1      4354 1.99660E+01 1.16310E-01-3.12037E-04-7.25818E-03 2.21160E-13-1.85217E-13
 -1      4355 1.99481E+01 1.48753E-01 5.64146E-04 1.05192E-03 1.24618E-13-2.20105E-13
 -1      4356 1.99756E+01 9.94947E-02-1.74672E-04-7.09605E-03 2.27966E-13-3.21943E-14
 -1      4357 1.99831E+01 8.48488E-02-9.50008E-05-4.79028E-03 3.07986E-13 1.09139E-13
 -1      4358 1.99706E+01 1.10201E-01 3.70391E-04 5.95540E-04 3.30588E-13-2.81884E-14
 -1      4359 1.95625E+01 5.45363E-01-1.17681E-03 7.88623E-02-8.04860E-14-3.75424E-13
 -1      4360 1.94886E+01 5.97378E-01-1.74304E-03 9.63151E-02-3.18018E-14-4.21074E-13
 -1      4361 1.74499E+01 1.40800E+00-9.94047E-03-1.93797E-01-8.50950E-14-7.20669E-15
 -1      4362 1.70418E+01 1.33769E+00-1.06128E-02-2.32585E-01-7.22627E-14-1.10344E-14
 -1      4363 1.59242E+01 1.00821E+00 4.35263E-03 8.52898E-01 7.35948E-14 2.20719E-13
 -1      4364 1.68027E+01 1.24262E+00 1.36851E-02-6.75898E-01-7.10842E-14-3.07757E-14
 -1      4365 1.94069E+01 6.54426E-01-1.67155E-03 1.05459E-01 1.21939E-13-3.94897E-13
 -1      4366 1.93133E+01 7.09104E-01-2.18712E-03 1.27889E-01 9.33226E-14-3.23735E-13
 -1      4367 1.64810E+01 1.19320E+00 4.75930E-03 1.37142E-02 1.62179E-13 1.12013E-14
 -1      4368 1.68712E+01 1.20014E+00-4.65542E-03 1.73805E-02 2.88788E-15 2.89716E-14
 -1      4369 1.92090E+01 7.68612E-01-2.35953E-03 1.40524E-01-6.16828E-14-2.44911E-13
 -1      4370 1.90920E+01 8.22781E-01-2.75662E-03 1.69652E-01-1.72125E-13-2.74613E-13
 -1      4371 1.96835E+01 4.45609E-01-8.18806E-04 5.85894E-02-1.67759E-13-4.13020E-13
 -1      4372 1.96259E+01 4.92987E-01-1.38574E-03 7.22292E-02-1.39901E-13-4.58780E-13
 -1      4373 1.97763E+01 3.57441E-01-5.59705E-04 4.31182E-02-1.29903E-13-4.01132E-13
 -1      4374 1.97321E+01 3.99147E-01-1.09357E-03 5.37748E-02-1.04284E-13-3.61417E-13
 -1      4375 1.98463E+01 2.81693E-01-3.73164E-04 3.13353E-02-1.48343E-13-3.20226E-13
 -1      4376 1.98129E+01 3.17386E-01-8.53734E-04 3.96279E-02-1.37277E-13-3.28530E-13
 -1      4377 1.98982E+01 2.18182E-01-2.40220E-04 2.24042E-02 4.90297E-14-3.28061E-13
 -1      4378 1.98734E+01 2.47999E-01-6.57761E-04 2.88131E-02-6.44657E-14-4.07157E-13
 -1      4379 1.99357E+01 1.66067E-01-1.46440E-04 1.56836E-02 1.22671E-13-3.80344E-13
 -1      4380 1.99178E+01 1.90449E-01-4.98999E-04 2.05906E-02 1.14271E-13-3.73972E-13
 -1      4381 1.99622E+01 1.24132E-01-7.57099E-05 1.06664E-02 3.06132E-13-2.38664E-13
 -1      4382 1.99496E+01 1.43692E-01-3.69006E-04 1.43838E-02 1.39976E-13-2.49199E-13
 -1      4383 1.99804E+01 9.10979E-02 5.34737E-05 7.23745E-03 2.87407E-13-1.79319E-13
 -1      4384 1.99717E+01 1.06515E-01-2.22986E-04 9.71489E-03 2.85713E-13-1.93301E-13
 -1      4385 1.99862E+01 7.74899E-02-1.56007E-04 5.26971E-03 2.38825E-13-8.81806E-14
 -1      4386 1.99979E+01 4.91913E-02-7.05638E-05 2.78018E-03 1.39642E-14-3.54283E-13
 -1      4387 1.99946E+01 5.89668E-02 6.36827E-06 4.47736E-03 7.77547E-14-1.44801E-13
 -1      4388 1.82550E+01 1.06294E+00-6.80702E-03 3.37187E-01-1.68421E-13-9.93459E-14
 -1      4389 1.80330E+01 1.08213E+00-5.71055E-03 4.08940E-01-1.26684E-13-1.01654E-13
 -1      4390 2.00043E+01 2.38913E-02 8.31296E-06 1.98137E-03 3.87344E-14-6.85141E-13
 -1      4391 1.77603E+01 1.10178E+00-1.08185E-02 4.58318E-01-1.05395E-13-9.81366E-16
 -1      4392 1.74991E+01 1.10702E+00-2.93430E-03 5.55460E-01-2.14661E-14 2.80546E-14
 -1      4393 1.89598E+01 8.81385E-01-3.32900E-03 1.87191E-01-1.13399E-13-2.67976E-13
 -1      4394 1.88145E+01 9.30441E-01-3.52265E-03 2.25666E-01-4.58518E-14-2.22044E-13
 -1      4395 1.82958E+01 1.65159E+00-7.56629E-03-2.06360E-01-5.15188E-14-4.58961E-14
 -1      4396 1.78331E+01 1.50541E+00-2.21692E-03-1.57651E-01-6.99996E-14-3.82414E-15
 -1      4397 1.77683E+01 1.44982E+00 1.24543E-02-5.07952E-01-6.76364E-14-2.58273E-14
 -1      4398 1.83655E+01 1.62811E+00 3.08804E-03-3.75815E-01-4.66175E-14-1.65267E-14
 -1      4399 1.86473E+01 9.83527E-01-4.72798E-03 2.50201E-01-4.59920E-14-2.20618E-13
 -1      4400 1.84674E+01 1.02123E+00-4.61168E-03 3.02254E-01-1.14301E-13-1.44942E-13
 -1      4401 1.73362E+01 1.17783E+00-3.40650E-03-9.11656E-01-4.50568E-14-1.15894E-14
 -1      4402 1.70968E+01 1.19082E+00 1.01708E-02 3.21450E-01 4.19456E-14-6.03120E-14
 -1      4403 1.99887E+01 7.30930E-02 1.72673E-04 8.07345E-04 2.05539E-13 8.24399E-14
 -1      4404 1.99916E+01 6.55026E-02-1.30603E-04-4.03390E-03 2.62904E-13 1.53447E-13
 -1      4405 1.78876E+01 8.74592E-01-7.16940E-03-1.42378E+00-9.09731E-14-2.38687E-14
 -1      4406 1.59696E+01 1.20110E+00 1.01494E-02 2.91551E-01 1.79891E-13-9.26993E-16
 -1      4407 1.60241E+01 1.17226E+00-2.02162E-02-1.82110E-01 1.32629E-13-4.65166E-15
 -1      4408 1.82261E+01 1.47665E+00-1.15537E-03-5.74774E-01-6.30736E-14 1.22345E-14
 -1      4409 1.99993E+01 4.36799E-02-1.02675E-04-8.31802E-04 1.26457E-13-2.06868E-13
 -1      4410 1.99998E+01 4.25469E-02 2.82849E-05 6.23232E-04 7.46524E-14-2.18062E-13
 -1      4411 2.00034E+01 2.81936E-02 4.69199E-05 1.69711E-03 4.73711E-14-5.16278E-13
 -1      4412 1.81843E+01 1.37440E+00 3.19185E-03-7.77345E-01-8.19209E-14 2.45155E-14
 -1      4413 1.80329E+01 1.40575E+00-3.22685E-03-6.33912E-01-8.57334E-14 1.35269E-14
 -1      4414 1.76889E+01 1.32597E+00 2.99516E-03-7.26188E-01-6.89205E-14 3.05588E-15
 -1      4415 1.82721E+01 1.26482E+00-3.79915E-03-9.31021E-01-8.67856E-14 5.70261E-15
 -1      4416 1.82306E+01 9.53259E-01-5.07138E-04-1.33429E+00-9.69742E-14-5.27318E-15
 -1      4417 1.84387E+01 1.05564E+00-4.48297E-03-1.19578E+00-7.49126E-14-1.76300E-14
 -1      4418 1.83197E+01 1.17769E+00 3.66351E-03-1.06672E+00-7.95498E-14 3.80609E-15
 -1      4419 1.77135E+01 1.06994E+00 1.04001E-02-1.21146E+00-6.73778E-14 3.91581E-15
 -1      4420 1.99976E+01 5.03274E-02 4.50659E-05-1.86558E-03 1.86259E-13-4.18394E-14
 -1      4421 1.99951E+01 5.76444E-02 5.04257E-05-2.77251E-03 1.32740E-13 1.39667E-13
 -1      4422 2.00012E+01 3.74956E-02-7.30630E-05 2.57321E-03-5.74641E-14-5.29830E-13
 -1      4423 1.76836E+01 1.22745E+00-4.03481E-03-8.70868E-01-5.85166E-14-7.40293E-16
 -1      4424 1.79996E+01 1.19993E+00-4.64586E-03-9.97860E-01-8.92584E-14 4.11351E-14
 -1      4425 2.00024E+01 3.39851E-02 1.04629E-04 1.64130E-03-1.70580E-13-6.04243E-13
 -3
    1PSTEP                         3           1           1          
  100CL  101 1.000000000        4425                     0    1           1
 -4  TOSTRAIN    6    1
 -5  EXX         1    4    1    1
 -5  EYY         1    4    2    2
 -5  EZZ         1    4    3    3
 -5  EXY         1    4    1    2
 -5  EYZ         1    4    2    3
 -5  EZX         1    4    3    1
 -1         1 6.88356E-05 2.41348E-05-3.79071E-05-8.36750E-05-2.92862E-18 4.57991E-18
 -1         2 3.65643E-05-1.11036E-04 2.00326E-05-4.08566E-07-4.35529E-18-5.19602E-19
 -1         3 9.52380E-05-2.85702E-05-2.85724E-05 1.28409E-09-3.28118E-18-2.68272E-18
 -1         4 9.52380E-05-2.85703E-05-2.85725E-05-1.12534E-09 4.39216E-19 2.25981E-18
 -1         5 1.42020E-04-2.11121E-05-4.24846E-05 3.78512E-05-4.47869E-20 3.01353E-18
 -1         6 1.43728E-04 2.58350E-10-4.40963E-05-5.24142E-05-8.97855E-20 4.35110E-18
 -1         7 9.16632E-05-6.31533E-07-3.93226E-05-2.78874E-05-1.20702E-20 1.94452E-18
 -1         8 8.63491E-05 2.81319E-08-3.67676E-05-1.83339E-05-5.06632E-20 9.34135E-19
 -1         9 8.38044E-05 4.48576E-08-3.57283E-05-1.33621E-05-5.54542E-20 1.97038E-19
 -1        10 8.22740E-05 2.68622E-08-3.50903E-05-9.74054E-06-3.74944E-20-2.43709E-19
 -1        11 8.11793E-05 2.15575E-08-3.46482E-05-6.88414E-06-3.91620E-20-5.25701E-19
 -1        12 8.03820E-05 2.16242E-08-3.43325E-05-4.58995E-06-3.84937E-20-6.99219E-19
 -1        13 7.98349E-05 2.40839E-08-3.41181E-05-2.61492E-06-3.96683E-20-7.46378E-19
 -1        14 7.95635E-05 2.55883E-08-3.40119E-05-8.47840E-07-1.88531E-20-8.26135E-19
 -1        15 7.95757E-05 2.52967E-08-3.40159E-05 8.58772E-07-1.06872E-21-8.92200E-19
 -1        16 7.98678E-05 2.32517E-08-3.41288E-05 2.65008E-06-9.33060E-21-1.00732E-18
 -1        17 8.04265E-05 1.96322E-08-3.43461E-05 4.67073E-06-8.27842E-21-1.00409E-18
 -1        18 8.12218E-05 1.95940E-08-3.46603E-05 7.02052E-06-1.08725E-20-9.84312E-19
 -1        19 8.23072E-05 2.59269E-08-3.51001E-05 9.94596E-06 2.41537E-20-9.17578E-19
 -1        20 8.38158E-05 5.05575E-08-3.57363E-05 1.36391E-05 4.26825E-20-7.82407E-19
 -1        21 8.62919E-05 1.08627E-07-3.67966E-05 1.85971E-05 3.73224E-20-3.78524E-19
 -1        22 9.25103E-05-2.01179E-07-3.89927E-05 2.66958E-05 1.51407E-20 6.18274E-19
 -1        23 1.13521E-04-3.83294E-05-3.55796E-05-4.02347E-06 2.15199E-20 4.03834E-18
 -1        24 9.50722E-05-2.83908E-05-2.96533E-05 4.39285E-07-2.19468E-20 3.68319E-18
 -1        25 9.28559E-05-2.79828E-05-2.80453E-05 3.96485E-07-8.57125E-21 3.21454E-18
 -1        26 9.33265E-05-2.80904E-05-2.79981E-05 2.31160E-07 6.38418E-21 2.90598E-18
 -1        27 9.52285E-05-2.86313E-05-2.85632E-05 1.82436E-07-9.86570E-20 2.93120E-18
 -1        28 9.80598E-05-2.94559E-05-2.94280E-05 1.66022E-07 1.37909E-19 2.57955E-18
 -1        29 1.01594E-04-3.04993E-05-3.04960E-05 1.68755E-07 8.18843E-20 3.10032E-18
 -1        30 1.05652E-04-3.17031E-05-3.17097E-05 1.81646E-07 8.99373E-21 2.88824E-18
 -1        31 1.09977E-04-3.29874E-05-3.29874E-05 1.93963E-07 5.38515E-21 2.01409E-18
 -1        32 1.14122E-04-3.42188E-05-3.41879E-05 1.87502E-07-1.59772E-19 1.09341E-18
 -1        33 1.17356E-04-3.51805E-05-3.50865E-05 1.32480E-07 3.10213E-19 7.84266E-19
 -1        34 1.18637E-04-3.55646E-05-3.53805E-05-8.90906E-09-4.90915E-20 1.96919E-18
 -1        35 1.16805E-04-3.50257E-05-3.47637E-05-2.58711E-07-2.49251E-19 1.69597E-18
 -1        36 1.11141E-04-3.33436E-05-3.30916E-05-5.76798E-07 2.54644E-19 2.32992E-18
 -1        37 1.02236E-04-3.06824E-05-3.06019E-05-8.17110E-07-2.69631E-19 3.24821E-18
 -1        38 9.26140E-05-2.77906E-05-2.80162E-05-7.69166E-07-3.59822E-19 3.06536E-18
 -1        39 8.61597E-05-2.58420E-05-2.63296E-05-3.37562E-07 4.49159E-20 3.10745E-18
 -1        40 8.59932E-05-2.57916E-05-2.62924E-05 2.88874E-07-1.70330E-19 3.40966E-18
 -1        41 9.22791E-05-2.76894E-05-2.79451E-05 7.51037E-07-1.07340E-19 1.09879E-18
 -1        42 1.02109E-04-3.06449E-05-3.05903E-05 8.35156E-07 2.01561E-20 9.53044E-19
 -1        43 1.11576E-04-3.34761E-05-3.32352E-05 6.14119E-07-2.22154E-19 1.17547E-18
 -1        44 1.17993E-04-3.53841E-05-3.51226E-05 2.97683E-07 2.73395E-19 2.38123E-18
 -1        45 1.20625E-04-3.61615E-05-3.59756E-05 4.29361E-08 8.00496E-20 2.91743E-18
 -1        46 1.20124E-04-3.60099E-05-3.59161E-05-1.01600E-07-2.10158E-19 1.78641E-18
 -1        47 1.17645E-04-3.52726E-05-3.52468E-05-1.55238E-07-8.92573E-20 3.04240E-18
 -1        48 1.14244E-04-3.42623E-05-3.42732E-05-1.55025E-07 5.99019E-19 4.62066E-18
 -1        49 1.10666E-04-3.31978E-05-3.32224E-05-1.30905E-07 1.08463E-19 6.06976E-18
 -1        50 1.07338E-04-3.22062E-05-3.22318E-05-1.00652E-07-1.52124E-19 4.29422E-18
 -1        51 1.04460E-04-3.13466E-05-3.13680E-05-7.26592E-08 6.45251E-20 2.87596E-18
 -1        52 1.02087E-04-3.06363E-05-3.06522E-05-4.98640E-08 6.71548E-19 4.67594E-18
 -1        53 1.00196E-04-3.00694E-05-3.00803E-05-3.25709E-08-1.54743E-20 5.16233E-18
 -1        54 9.87311E-05-2.96292E-05-2.96362E-05-2.00475E-08-2.93825E-19 4.50613E-18
 -1        55 9.76221E-05-2.92953E-05-2.92995E-05-1.12995E-08-5.49671E-19 1.59887E-18
 -1        56 9.68012E-05-2.90477E-05-2.90499E-05-5.39136E-09 1.81640E-19-5.89834E-20
 -1        57 9.62074E-05-2.88683E-05-2.88692E-05-1.54994E-09-3.25158E-20 2.07763E-18
 -1        58 9.57887E-05-2.87415E-05-2.87416E-05 8.25435E-10-2.88898E-19 4.83214E-19
 -1        59 9.55026E-05-2.86546E-05-2.86542E-05 2.18569E-09 3.71434E-19-4.50694E-19
 -1        60 9.53148E-05-2.85974E-05-2.85968E-05 2.86218E-09-7.08170E-21 9.97670E-19
 -1        61 9.51987E-05-2.85618E-05-2.85611E-05 3.09459E-09 2.34666E-19 1.48275E-18
 -1        62 9.51336E-05-2.85417E-05-2.85410E-05 3.05379E-09-5.86374E-19 2.50571E-18
 -1        63 9.51040E-05-2.85324E-05-2.85318E-05 2.85975E-09-1.73581E-19 2.20021E-18
 -1        64 9.50984E-05-2.85304E-05-2.85298E-05 2.59494E-09 4.18444E-19 5.66400E-19
 -1        65 9.51084E-05-2.85331E-05-2.85326E-05 2.31421E-09 5.93437E-20 1.34136E-18
 -1        66 9.51278E-05-2.85387E-05-2.85383E-05 2.05115E-09-5.98489E-19-1.45912E-18
 -1        67 9.51523E-05-2.85459E-05-2.85456E-05 1.82077E-09 9.51834E-19-2.22727E-18
 -1        68 9.51786E-05-2.85537E-05-2.85534E-05 1.61658E-09-1.50706E-19 2.21709E-18
 -1        69 9.52036E-05-2.85611E-05-2.85607E-05 1.38671E-09-9.21470E-20 7.37597E-19
 -1        70 9.52242E-05-2.85672E-05-2.85667E-05 9.06024E-10 4.68350E-19 4.90260E-18
 -1        71 9.52364E-05-2.85712E-05-2.85704E-05 7.37130E-11-1.94918E-19 5.29227E-18
 -1        72 1.02856E-04-3.07784E-05-3.43716E-05-2.02574E-06 4.79103E-20 2.64571E-18
 -1        73 9.48187E-05-2.82021E-05-2.95604E-05-3.57648E-07 3.49831E-20 1.80386E-18
 -1        74 9.27535E-05-2.78037E-05-2.80619E-05-1.33975E-07 3.70445E-20 1.04598E-18
 -1        75 9.31699E-05-2.79801E-05-2.79849E-05-1.02163E-07-6.71927E-20 7.99506E-19
 -1        76 9.49172E-05-2.84991E-05-2.84837E-05-9.12115E-08 2.76680E-20 4.20195E-19
 -1        77 9.74869E-05-2.92576E-05-2.92583E-05-9.32791E-08-1.21534E-19 2.22154E-19
 -1        78 1.00607E-04-3.01832E-05-3.01938E-05-1.06284E-07-9.38972E-20 7.45753E-19
 -1        79 1.04041E-04-3.12051E-05-3.12132E-05-1.27675E-07 9.10566E-20 4.50357E-19
 -1        80 1.07483E-04-3.22316E-05-3.22202E-05-1.52206E-07-1.39876E-19-7.35728E-20
 -1        81 1.10476E-04-3.31281E-05-3.30748E-05-1.68198E-07 2.02143E-19-1.49779E-19
 -1        82 1.12377E-04-3.37055E-05-3.35850E-05-1.54350E-07-2.39320E-20-7.69596E-19
 -1        83 1.12405E-04-3.37319E-05-3.35306E-05-8.14477E-08 1.80822E-21-4.39187E-19
 -1        84 1.09849E-04-3.29918E-05-3.27333E-05 7.34255E-08 1.47029E-19-7.22029E-19
 -1        85 1.04501E-04-3.14086E-05-3.11771E-05 2.96014E-07-4.53121E-20-9.58788E-19
 -1        86 9.71606E-05-2.92017E-05-2.91278E-05 5.05842E-07 3.12769E-19-1.74899E-18
 -1        87 8.98410E-05-2.69647E-05-2.71496E-05 5.72597E-07-2.20227E-19-2.44935E-18
 -1        88 8.52032E-05-2.55148E-05-2.59303E-05 4.05332E-07-1.19862E-19-2.04270E-18
 -1        89 8.52246E-05-2.54858E-05-2.59506E-05 5.30642E-08 9.05316E-20-3.61504E-18
 -1        90 8.99716E-05-2.69200E-05-2.72232E-05-3.04516E-07-2.26543E-19-2.38104E-18
 -1        91 9.75536E-05-2.92342E-05-2.92825E-05-4.99243E-07-1.22942E-19-2.10435E-19
 -1        92 1.05314E-04-3.16016E-05-3.14441E-05-4.92679E-07-2.86198E-19 1.76125E-18
 -1        93 1.11196E-04-3.33864E-05-3.31445E-05-3.57098E-07-1.51664E-19 1.89119E-18
 -1        94 1.14359E-04-3.43364E-05-3.41131E-05-1.90082E-07 2.19144E-19-5.49274E-19
 -1        95 1.14989E-04-3.45172E-05-3.43616E-05-5.41054E-08 3.16048E-19-2.61005E-18
 -1        96 1.13788E-04-3.41476E-05-3.40638E-05 3.16541E-08-6.84285E-20-2.08861E-18
 -1        97 1.11536E-04-3.34653E-05-3.34357E-05 7.35749E-08 2.35318E-20-1.06634E-18
 -1        98 1.08863E-04-3.26596E-05-3.26633E-05 8.59608E-08-1.44658E-20 4.44123E-19
 -1        99 1.06190E-04-3.18565E-05-3.18765E-05 8.18257E-08-2.57926E-19-1.33509E-18
 -1       100 1.03757E-04-3.11265E-05-3.11522E-05 7.02168E-08-2.63368E-19 4.72945E-19
 -1       101 1.01673E-04-3.05015E-05-3.05270E-05 5.64832E-08-5.59009E-21 3.95432E-19
 -1       102 9.99620E-05-2.99888E-05-3.00112E-05 4.33761E-08-3.36958E-19 5.17251E-19
 -1       103 9.86047E-05-2.95820E-05-2.96005E-05 3.20740E-08-1.74406E-19 2.72684E-18
 -1       104 9.75581E-05-2.92682E-05-2.92828E-05 2.28995E-08 6.67315E-19 2.43051E-18
 -1       105 9.67718E-05-2.90324E-05-2.90435E-05 1.57568E-08-1.18524E-19-1.43587E-18
 -1       106 9.61962E-05-2.88597E-05-2.88680E-05 1.03760E-08-4.94607E-19-2.49783E-18
 -1       107 9.57865E-05-2.87368E-05-2.87427E-05 6.43917E-09-1.72678E-19-3.77829E-18
 -1       108 9.55044E-05-2.86520E-05-2.86562E-05 3.64106E-09-1.12547E-19-4.02789E-18
 -1       109 9.53180E-05-2.85960E-05-2.85988E-05 1.71416E-09-2.05723E-19-3.89442E-18
 -1       110 9.52021E-05-2.85611E-05-2.85630E-05 4.35845E-10-3.52686E-19-3.17159E-18
 -1       111 9.51367E-05-2.85414E-05-2.85425E-05-3.73043E-10 5.30980E-19-2.56427E-18
 -1       112 9.51066E-05-2.85323E-05-2.85329E-05-8.53328E-10-8.08658E-19-3.80661E-18
 -1       113 9.51005E-05-2.85304E-05-2.85307E-05-1.11379E-09 6.75708E-19-1.96984E-18
 -1       114 9.51101E-05-2.85332E-05-2.85333E-05-1.23752E-09-7.62368E-19-4.69959E-19
 -1       115 9.51292E-05-2.85389E-05-2.85389E-05-1.28754E-09 6.41324E-19-8.56092E-19
 -1       116 9.51535E-05-2.85461E-05-2.85460E-05-1.30886E-09 2.66921E-20-2.82933E-18
 -1       117 9.51796E-05-2.85539E-05-2.85537E-05-1.32635E-09 5.72461E-19-4.99874E-18
 -1       118 9.52045E-05-2.85613E-05-2.85610E-05-1.33756E-09-4.16424E-19-6.97077E-18
 -1       119 9.52248E-05-2.85675E-05-2.85668E-05-1.20673E-09-2.59776E-19-8.48833E-18
 -1       120 9.52364E-05-2.85713E-05-2.85704E-05-3.84400E-10 1.74892E-18-8.43351E-18
 -1       121 9.52375E-05-2.85726E-05-2.85704E-05-1.81558E-10-7.13355E-18 4.89069E-19
 -1       122 9.52410E-05-2.85839E-05-2.85669E-05-9.58084E-10 4.63757E-19-4.43981E-19
 -1       123 9.52465E-05-2.86022E-05-2.85617E-05-1.17355E-09 5.34782E-18 4.22543E-19
 -1       124 9.52524E-05-2.86221E-05-2.85560E-05-1.06302E-09 1.57155E-18-7.26848E-20
 -1       125 9.52578E-05-2.86402E-05-2.85507E-05-8.32530E-10 7.87809E-18-1.61359E-18
 -1       126 9.52621E-05-2.86546E-05-2.85464E-05-5.90835E-10 5.35403E-18 3.69744E-19
 -1       127 9.52651E-05-2.86647E-05-2.85434E-05-3.45342E-10 6.47242E-18-1.70204E-19
 -1       128 9.52666E-05-2.86698E-05-2.85418E-05-1.13889E-10 1.05370E-18-6.40955E-19
 -1       129 9.52666E-05-2.86698E-05-2.85418E-05 1.11817E-10 4.05126E-18 1.96308E-18
 -1       130 9.52651E-05-2.86647E-05-2.85434E-05 3.44163E-10-1.92988E-18-3.69728E-18
 -1       131 9.52621E-05-2.86546E-05-2.85464E-05 6.00139E-10-8.19877E-18 9.31810E-19
 -1       132 9.52578E-05-2.86402E-05-2.85507E-05 8.39855E-10-4.73531E-18 1.26649E-18
 -1       133 9.52524E-05-2.86219E-05-2.85560E-05 1.07101E-09 3.00205E-18 1.05485E-18
 -1       134 9.52464E-05-2.86020E-05-2.85618E-05 1.24794E-09 1.23898E-18 4.22323E-20
 -1       135 9.52411E-05-2.85840E-05-2.85669E-05 1.33746E-09-2.05054E-18-1.96013E-20
 -1       136 9.52379E-05-2.85730E-05-2.85704E-05-1.06813E-10-5.69549E-18 4.33210E-19
 -1       137 2.48560E-05-8.55356E-05 1.52482E-05-2.38992E-05-2.51421E-18-1.81053E-19
 -1       138 7.39349E-06-2.95360E-05 1.83793E-06-1.53683E-05 8.89385E-20-4.65868E-21
 -1       139 1.22747E-05 1.64158E-05-1.57221E-05 2.57196E-05 2.96927E-18 2.12097E-18
 -1       140 6.96570E-05 2.51156E-05-3.85372E-05 8.61559E-05 5.52265E-18 6.94779E-18
 -1       141 1.70244E-04-1.53675E-05-5.89891E-05 1.12668E-04 4.01642E-18 9.49143E-18
 -1       142 2.64185E-04-6.79482E-05-7.30696E-05 8.07171E-05 2.04577E-18 5.06632E-18
 -1       143 3.07488E-04-9.44495E-05-7.87331E-05 2.78419E-06 3.54430E-20 2.53858E-18
 -1       144 2.74430E-04-7.41625E-05-7.43657E-05-7.49272E-05 1.35472E-19-2.66604E-19
 -1       145 1.89207E-04-2.49246E-05-6.21397E-05-1.12381E-04 1.21888E-18-2.17857E-18
 -1       146 9.40338E-05 1.81483E-05-4.43668E-05-9.81904E-05 2.10149E-18-3.54992E-18
 -1       147 2.66007E-05 2.60296E-05-2.39339E-05-4.83075E-05 3.87772E-18-3.20771E-18
 -1       148 4.76434E-06-8.05639E-06-4.69452E-06 2.91979E-06 6.07746E-18-3.56431E-18
 -1       149 1.65680E-05-6.40211E-05 1.05870E-05 2.62745E-05 7.30100E-18-2.33739E-18
 -1       150 3.35165E-05-1.04643E-04 1.88122E-05 1.48477E-05 3.81525E-18-9.28818E-19
 -1       151 3.47682E-05-1.07950E-04 1.95087E-05-1.20094E-05-1.26473E-18-1.47503E-19
 -1       152 1.80828E-05-6.90689E-05 1.17721E-05-2.65575E-05-3.68121E-18-8.93620E-19
 -1       153 5.55696E-06-1.15207E-05-3.85664E-06-3.96939E-06-3.84976E-18-2.10361E-18
 -1       154 2.96110E-05 2.54343E-05-2.49532E-05 5.09724E-05-4.88569E-18-5.02036E-18
 -1       155 1.01956E-04 1.55992E-05-4.63043E-05 1.01801E-04-3.50672E-18-4.81835E-18
 -1       156 1.98997E-04-3.00793E-05-6.37282E-05 1.11207E-04-1.73239E-18-3.75151E-18
 -1       157 2.83876E-04-7.88318E-05-7.59495E-05 6.61487E-05-2.69131E-19-1.50581E-18
 -1       158 3.09096E-04-9.47496E-05-7.90332E-05-1.76109E-05-5.15843E-19 1.81006E-18
 -1       159 2.58447E-04-6.38405E-05-7.24125E-05-8.85894E-05-1.32179E-18 4.13352E-18
 -1       160 1.63378E-04-1.24098E-05-5.76466E-05-1.10979E-04-2.86911E-18 6.07407E-18
 -1       161 1.32844E-05 1.76236E-05-1.66529E-05-2.73992E-05-1.67501E-18 1.49967E-18
 -1       162 7.29230E-06-3.21077E-05 2.61243E-06 1.73690E-05-2.16756E-18 7.25695E-19
 -1       163 2.58939E-05-8.84725E-05 1.58403E-05 2.45429E-05-4.46069E-18 1.52437E-18
 -1       164 9.65779E-05-1.30342E-05-3.59923E-05-2.03714E-05-4.08667E-19 1.20400E-18
 -1       165 9.06994E-05-8.84802E-06-3.52311E-05-1.51293E-05-5.50896E-19 5.33432E-19
 -1       166 8.73194E-05-6.50332E-06-3.47420E-05-1.12159E-05-5.34696E-19 3.70445E-20
 -1       167 8.51415E-05-5.12380E-06-3.43723E-05-8.11834E-06-4.89208E-19-2.72506E-19
 -1       168 8.35822E-05-4.19359E-06-3.40862E-05-5.64114E-06-4.32955E-19-4.61838E-19
 -1       169 8.24763E-05-3.56784E-06-3.38715E-05-3.53882E-06-3.76428E-19-5.58903E-19
 -1       170 8.18221E-05-3.21057E-06-3.37397E-05-1.70649E-06-2.50756E-19-6.56692E-19
 -1       171 8.16215E-05-3.10683E-06-3.36969E-05-1.64347E-09-1.68970E-19-6.78523E-19
 -1       172 8.18736E-05-3.25065E-06-3.37449E-05 1.71596E-06-2.17044E-20-7.51447E-19
 -1       173 8.25683E-05-3.64219E-06-3.38796E-05 3.58401E-06-7.31807E-21-8.72067E-19
 -1       174 8.36734E-05-4.28038E-06-3.40889E-05 5.69965E-06 6.51984E-20-8.16970E-19
 -1       175 8.52549E-05-5.23560E-06-3.43738E-05 8.27681E-06 2.41873E-19-7.95708E-19
 -1       176 8.74519E-05-6.64973E-06-3.47403E-05 1.14534E-05 3.80328E-19-7.43391E-19
 -1       177 9.08242E-05-8.99874E-06-3.52257E-05 1.54210E-05 4.90061E-19-5.07717E-19
 -1       178 9.74051E-05-1.42464E-05-3.58375E-05 2.00242E-05 4.94972E-19 5.00279E-20
 -1       179 1.06943E-04-2.66652E-05-3.55738E-05 1.72885E-05 3.83799E-19 8.44386E-19
 -1       180 1.05227E-04-2.79463E-05-3.31152E-05-1.06446E-05-2.62051E-19 1.89248E-18
 -1       181 9.99041E-05-2.91276E-05-3.03627E-05-3.24262E-06-2.71117E-19 1.75724E-18
 -1       182 9.74631E-05-2.87624E-05-2.93913E-05-1.34778E-07-2.41034E-19 1.56200E-18
 -1       183 9.72938E-05-2.89018E-05-2.92720E-05 1.52281E-06-5.36873E-20 1.19180E-18
 -1       184 9.83554E-05-2.92935E-05-2.95764E-05 2.60466E-06-1.41493E-19 1.09987E-18
 -1       185 1.00263E-04-2.99101E-05-3.01401E-05 3.39887E-06 9.43672E-20 1.17778E-18
 -1       186 1.02766E-04-3.07123E-05-3.08763E-05 3.97252E-06-5.65792E-20 1.05317E-18
 -1       187 1.05654E-04-3.16642E-05-3.17121E-05 4.26859E-06-2.74691E-19 1.14644E-18
 -1       188 1.08671E-04-3.27181E-05-3.25594E-05 4.12442E-06-4.39205E-19 1.40317E-18
 -1       189 1.11454E-04-3.37886E-05-3.32990E-05 3.28860E-06-2.08620E-19 1.35666E-18
 -1       190 1.13501E-04-3.47157E-05-3.37814E-05 1.49047E-06 1.21566E-19 7.69831E-19
 -1       191 1.14185E-04-3.52225E-05-3.38543E-05-1.37152E-06 1.14085E-20 5.27049E-19
 -1       192 1.12914E-04-3.49295E-05-3.34271E-05-4.90529E-06 2.63139E-19 1.03815E-18
 -1       193 1.09487E-04-3.35172E-05-3.25552E-05-7.93879E-06 2.03900E-19 8.63629E-19
 -1       194 1.04589E-04-3.11060E-05-3.14886E-05-8.69422E-06-5.70730E-20 1.47061E-18
 -1       195 1.00046E-04-2.86255E-05-3.06101E-05-5.87123E-06-2.68734E-19 1.45944E-18
 -1       196 9.81265E-05-2.75049E-05-3.02723E-05-1.32753E-07 1.82721E-19 1.18345E-18
 -1       197 9.99672E-05-2.85143E-05-3.06241E-05 5.75976E-06-7.75432E-19 6.92009E-19
 -1       198 1.04613E-04-3.10013E-05-3.15432E-05 8.93228E-06-7.32548E-19 8.30172E-19
 -1       199 1.09840E-04-3.35483E-05-3.26931E-05 8.50185E-06 3.22200E-19-2.83888E-20
 -1       200 1.13742E-04-3.51524E-05-3.36869E-05 5.64148E-06 7.01975E-19 7.77944E-19
 -1       201 1.15534E-04-3.56295E-05-3.42588E-05 2.14745E-06-3.74981E-19 6.97237E-19
 -1       202 1.15365E-04-3.52838E-05-3.43372E-05-7.34752E-07-7.65738E-20 9.81751E-19
 -1       203 1.13808E-04-3.45005E-05-3.40033E-05-2.56322E-06 8.47313E-19 2.16456E-18
 -1       204 1.11481E-04-3.35623E-05-3.34034E-05-3.42170E-06 4.86432E-19 2.69995E-18
 -1       205 1.08878E-04-3.26328E-05-3.26806E-05-3.59114E-06 8.64228E-19 2.34909E-18
 -1       206 1.06325E-04-3.17913E-05-3.19429E-05-3.35400E-06-9.63700E-19 2.17016E-18
 -1       207 1.04008E-04-3.10683E-05-3.12571E-05-2.92192E-06-5.52144E-19 1.22331E-18
 -1       208 1.02011E-04-3.04685E-05-3.06572E-05-2.42970E-06 2.65500E-19 1.92621E-18
 -1       209 1.00354E-04-2.99840E-05-3.01541E-05-1.95287E-06-3.80608E-19 8.64957E-19
 -1       210 9.90178E-05-2.96010E-05-2.97458E-05-1.52792E-06-6.47338E-19 6.27708E-19
 -1       211 9.79664E-05-2.93043E-05-2.94228E-05-1.16805E-06-3.54750E-19 2.15871E-18
 -1       212 9.71567E-05-2.90787E-05-2.91730E-05-8.73801E-07-9.26842E-19 3.14538E-18
 -1       213 9.65458E-05-2.89105E-05-2.89839E-05-6.39495E-07 9.34337E-19 2.24481E-18
 -1       214 9.60945E-05-2.87876E-05-2.88437E-05-4.56943E-07-1.27307E-18 1.57045E-18
 -1       215 9.57686E-05-2.87000E-05-2.87420E-05-3.17450E-07-2.35460E-19 1.69509E-18
 -1       216 9.55393E-05-2.86393E-05-2.86701E-05-2.12819E-07-4.88715E-19-3.88264E-19
 -1       217 9.53832E-05-2.85987E-05-2.86209E-05-1.35801E-07 3.36158E-19-1.08206E-19
 -1       218 9.52816E-05-2.85730E-05-2.85886E-05-8.02348E-08 7.59552E-19 6.46564E-19
 -1       219 9.52195E-05-2.85580E-05-2.85687E-05-4.10402E-08-7.74975E-19 1.03860E-18
 -1       220 9.51858E-05-2.85505E-05-2.85576E-05-1.41281E-08-6.81862E-19 1.76779E-19
 -1       221 9.51718E-05-2.85482E-05-2.85527E-05 3.70849E-09 8.18998E-19 6.55524E-19
 -1       222 9.51709E-05-2.85493E-05-2.85519E-05 1.49065E-08-4.40784E-19 1.56279E-18
 -1       223 9.51784E-05-2.85526E-05-2.85538E-05 2.12259E-08 5.53021E-19 3.53174E-18
 -1       224 9.51906E-05-2.85571E-05-2.85572E-05 2.38168E-08 6.96740E-19 1.82122E-18
 -1       225 9.52047E-05-2.85621E-05-2.85611E-05 2.32523E-08-2.39836E-20-3.38112E-19
 -1       226 9.52182E-05-2.85671E-05-2.85648E-05 1.95287E-08 2.06413E-18 2.55270E-19
 -1       227 9.52297E-05-2.85718E-05-2.85677E-05 1.23986E-08 1.03458E-18-1.09890E-19
 -1       228 1.01655E-04-2.92352E-05-3.12087E-05 5.98613E-06 4.37135E-19 7.16888E-19
 -1       229 9.76403E-05-2.87447E-05-2.94936E-05 1.52176E-06 3.61160E-19 5.82659E-19
 -1       230 9.65302E-05-2.86869E-05-2.90298E-05-4.35673E-07 1.76322E-19 2.96620E-19
 -1       231 9.69860E-05-2.89272E-05-2.91411E-05-1.53455E-06 3.14312E-19-3.71272E-20
 -1       232 9.84115E-05-2.94055E-05-2.95612E-05-2.24247E-06-6.11791E-20 6.64226E-21
 -1       233 1.00463E-04-3.00626E-05-3.01665E-05-2.70378E-06-2.18089E-19-1.64422E-19
 -1       234 1.02881E-04-3.08411E-05-3.08735E-05-2.92946E-06 1.63282E-19-1.54815E-19
 -1       235 1.05401E-04-3.16773E-05-3.15978E-05-2.84886E-06 9.66221E-20-2.85212E-21
 -1       236 1.07694E-04-3.24835E-05-3.22354E-05-2.33514E-06 2.66620E-19-4.82309E-19
 -1       237 1.09338E-04-3.31309E-05-3.26599E-05-1.24674E-06 1.14682E-19 2.76385E-19
 -1       238 1.09841E-04-3.34401E-05-3.27378E-05 4.83160E-07 1.61300E-20 6.59983E-20
 -1       239 1.08757E-04-3.31998E-05-3.23701E-05 2.69734E-06 2.19458E-19-1.30989E-19
 -1       240 1.05909E-04-3.22461E-05-3.15577E-05 4.85698E-06 5.30004E-19-5.47435E-19
 -1       241 1.01701E-04-3.06246E-05-3.04584E-05 6.04693E-06 6.36379E-19-9.72460E-19
 -1       242 9.72802E-05-2.87530E-05-2.93841E-05 5.35204E-06 8.41210E-20-7.81421E-19
 -1       243 9.42881E-05-2.73863E-05-2.87017E-05 2.55304E-06 1.07401E-20-1.49022E-18
 -1       244 9.40606E-05-2.72215E-05-2.86711E-05-1.40054E-06 6.53678E-19-8.20510E-19
 -1       245 9.67727E-05-2.83757E-05-2.93202E-05-4.80256E-06-7.91761E-19-8.98920E-19
 -1       246 1.01305E-04-3.02804E-05-3.04281E-05-6.32486E-06-1.29871E-18-2.78489E-19
 -1       247 1.05998E-04-3.21355E-05-3.16366E-05-5.77977E-06-1.08661E-18 2.54355E-19
 -1       248 1.09544E-04-3.33982E-05-3.26195E-05-3.91202E-06 4.43217E-19 2.08049E-19
 -1       249 1.11385E-04-3.39293E-05-3.31900E-05-1.69659E-06 1.22299E-18-1.82973E-19
 -1       250 1.11600E-04-3.38592E-05-3.33204E-05 1.82129E-07 1.02307E-18-1.35460E-18
 -1       251 1.10603E-04-3.34039E-05-3.30918E-05 1.44970E-06-5.95659E-19-1.08740E-18
 -1       252 1.08872E-04-3.27563E-05-3.26276E-05 2.12022E-06-8.58847E-19-2.19325E-19
 -1       253 1.06817E-04-3.20528E-05-3.20467E-05 2.33549E-06-7.70351E-19 1.36013E-18
 -1       254 1.04729E-04-3.13762E-05-3.14396E-05 2.25734E-06 3.96749E-19 2.45837E-18
 -1       255 1.02788E-04-3.07703E-05-3.08653E-05 2.01913E-06-9.61495E-19 1.36734E-18
 -1       256 1.01085E-04-3.02529E-05-3.03560E-05 1.71400E-06-1.11220E-19 2.08656E-18
 -1       257 9.96535E-05-2.98267E-05-2.99244E-05 1.39970E-06-4.34593E-19 1.93429E-18
 -1       258 9.84894E-05-2.94853E-05-2.95715E-05 1.10807E-06-6.50260E-19 1.60174E-18
 -1       259 9.75687E-05-2.92187E-05-2.92911E-05 8.53930E-07 1.48074E-18 8.91882E-19
 -1       260 9.68583E-05-2.90153E-05-2.90740E-05 6.41752E-07 1.98658E-18-4.54027E-20
 -1       261 9.63231E-05-2.88635E-05-2.89098E-05 4.70244E-07 1.90915E-19-4.25532E-19
 -1       262 9.59295E-05-2.87530E-05-2.87887E-05 3.35229E-07 3.69968E-19-8.92158E-19
 -1       263 9.56475E-05-2.86748E-05-2.87016E-05 2.31386E-07-2.53317E-19-1.75374E-18
 -1       264 9.54518E-05-2.86211E-05-2.86409E-05 1.53245E-07-2.45417E-19-1.28846E-18
 -1       265 9.53212E-05-2.85860E-05-2.86002E-05 9.57067E-08 3.05808E-19-9.24212E-19
 -1       266 9.52388E-05-2.85643E-05-2.85743E-05 5.42960E-08-3.04458E-19-1.19570E-18
 -1       267 9.51913E-05-2.85524E-05-2.85592E-05 2.52407E-08-3.30320E-19 8.02713E-19
 -1       268 9.51684E-05-2.85472E-05-2.85517E-05 5.46768E-09 1.92072E-19-5.94389E-20
 -1       269 9.51624E-05-2.85466E-05-2.85494E-05-7.44587E-09-1.10760E-18 5.10238E-19
 -1       270 9.51673E-05-2.85490E-05-2.85506E-05-1.53330E-08 1.39537E-18 6.36092E-19
 -1       271 9.51789E-05-2.85532E-05-2.85538E-05-1.94886E-08 6.45324E-19 1.14796E-18
 -1       272 9.51939E-05-2.85582E-05-2.85581E-05-2.06915E-08 1.53212E-18 7.82102E-19
 -1       273 9.52094E-05-2.85635E-05-2.85625E-05-1.92425E-08 8.20267E-19-6.17847E-19
 -1       274 9.52231E-05-2.85684E-05-2.85662E-05-1.49200E-08 1.56226E-18-1.38160E-18
 -1       275 9.52331E-05-2.85723E-05-2.85689E-05-7.49283E-09-7.91359E-20-2.05775E-18
 -1       276 9.52370E-05-2.85791E-05-2.85677E-05-1.22503E-08-5.59457E-19 4.24689E-18
 -1       277 9.52418E-05-2.85900E-05-2.85650E-05-1.78299E-08 2.96911E-19 2.17089E-18
 -1       278 9.52466E-05-2.86023E-05-2.85619E-05-1.92670E-08 2.05754E-18-8.00003E-19
 -1       279 9.52509E-05-2.86143E-05-2.85585E-05-1.76596E-08 1.38608E-18 2.68852E-18
 -1       280 9.52543E-05-2.86244E-05-2.85556E-05-1.42709E-08 1.51721E-18-1.52063E-18
 -1       281 9.52568E-05-2.86323E-05-2.85533E-05-9.86164E-09 1.18396E-18-1.07903E-18
 -1       282 9.52583E-05-2.86371E-05-2.85519E-05-5.01541E-09 2.02715E-18-1.99391E-18
 -1       283 9.52588E-05-2.86388E-05-2.85514E-05-1.58926E-11 1.51591E-18-5.50232E-19
 -1       284 9.52583E-05-2.86371E-05-2.85519E-05 4.99497E-09-1.33007E-18-3.37351E-18
 -1       285 9.52568E-05-2.86323E-05-2.85533E-05 9.87378E-09-6.76068E-20-3.29711E-18
 -1       286 9.52544E-05-2.86246E-05-2.85556E-05 1.42583E-08-1.79676E-18 1.10473E-18
 -1       287 9.52509E-05-2.86143E-05-2.85585E-05 1.77391E-08-3.84713E-19 5.10137E-18
 -1       288 9.52466E-05-2.86023E-05-2.85619E-05 1.93646E-08 9.85748E-19-3.07966E-19
 -1       289 9.52416E-05-2.85898E-05-2.85651E-05 1.75657E-08 4.75703E-19-1.08401E-18
 -1       290 9.52363E-05-2.85803E-05-2.85669E-05 1.74628E-08 1.32547E-19-2.48559E-18
 -1       291 1.23006E-05-4.65354E-05 1.15067E-05 8.12598E-06-1.31285E-18 8.78797E-19
 -1       292 2.84730E-05-4.16620E-05 3.28953E-06 2.48143E-05-8.78797E-19 1.66606E-18
 -1       293 5.38224E-05-3.51854E-05-9.70316E-06 3.48419E-05 1.03529E-18 2.33855E-18
 -1       294 9.86014E-05-3.51856E-05-2.73751E-05 4.35922E-05 1.00458E-18 3.71826E-18
 -1       295 1.41328E-04-2.95819E-05-4.64280E-05 4.70116E-05 1.86199E-18 3.25663E-18
 -1       296 1.79686E-04-3.26566E-05-6.07279E-05 2.95809E-05 2.08720E-18 2.02886E-18
 -1       297 1.92617E-04-2.81604E-05-6.81848E-05 8.04585E-06 1.14762E-18 2.71262E-18
 -1       298 2.05615E-04-3.43045E-05-7.01110E-05-1.12945E-05 1.20247E-18 1.60169E-18
 -1       299 1.86229E-04-3.29786E-05-6.29437E-05-3.02689E-05 1.31523E-18 5.45913E-19
 -1       300 1.52238E-04-3.17248E-05-4.99970E-05-4.25848E-05 1.15398E-18-7.98329E-20
 -1       301 1.10581E-04-3.17206E-05-3.34886E-05-4.58476E-05 1.57400E-18-6.21299E-19
 -1       302 6.78155E-05-3.27872E-05-1.61741E-05-3.97070E-05 2.98473E-18-8.60480E-19
 -1       303 3.67452E-05-4.02238E-05-1.00040E-06-2.71074E-05 2.84603E-18-1.00819E-18
 -1       304 1.80954E-05-4.71098E-05 9.15473E-06-1.40685E-05 1.95305E-18-2.00037E-18
 -1       305 1.07569E-05-4.78704E-05 1.26201E-05-1.43382E-06 8.51718E-19-2.56376E-18
 -1       306 1.64681E-05-4.60394E-05 9.62819E-06 1.31757E-05-3.30025E-19-1.34816E-18
 -1       307 3.81363E-05-4.10163E-05-8.15946E-07 2.97235E-05-9.28983E-19-9.59410E-19
 -1       308 7.59215E-05-3.93656E-05-1.66189E-05 4.06604E-05-6.33792E-19-1.69163E-18
 -1       309 1.12169E-04-2.99980E-05-3.48428E-05 4.68276E-05-1.66696E-18-1.05561E-18
 -1       310 1.56907E-04-3.15657E-05-5.17683E-05 4.45915E-05-1.68268E-18-8.24163E-19
 -1       311 1.88291E-04-3.31307E-05-6.39136E-05 2.58373E-05-1.26007E-18-3.94929E-19
 -1       312 1.96230E-04-2.83058E-05-6.95125E-05 4.60886E-06-1.62122E-18 1.37870E-18
 -1       313 2.06357E-04-3.56945E-05-6.97291E-05-1.63716E-05-1.67141E-18 2.52257E-18
 -1       314 1.75243E-04-3.32837E-05-5.90624E-05-2.36791E-05-1.29723E-18 1.33937E-18
 -1       315 1.42491E-04-3.45639E-05-4.51442E-05-4.07980E-05-7.08225E-19 2.64867E-18
 -1       316 9.45036E-05-3.07826E-05-2.75597E-05-4.46894E-05-6.40357E-19 2.71008E-18
 -1       317 5.39518E-05-3.56075E-05-9.68173E-06-3.38896E-05-7.91764E-19 1.09712E-18
 -1       318 2.73245E-05-4.22471E-05 3.91065E-06-2.31219E-05-1.04249E-18-6.51210E-19
 -1       319 1.25780E-05-4.91311E-05 1.21555E-05-5.99861E-06-2.60076E-18-8.73503E-20
 -1       320 9.28311E-05-1.44856E-05-3.36394E-05-1.04036E-05-6.15571E-19 2.65538E-19
 -1       321 9.76007E-05-1.96803E-05-3.34531E-05-1.22462E-05-4.55535E-19 7.25504E-19
 -1       322 8.71204E-05-9.21310E-06-3.34394E-05-5.80251E-06-4.88100E-19-1.98037E-19
 -1       323 8.53549E-05-7.74886E-06-3.33010E-05-3.87668E-06-4.41385E-19-4.00087E-19
 -1       324 8.41941E-05-6.82834E-06-3.31928E-05-2.22292E-06-3.44005E-19-4.14264E-19
 -1       325 8.36368E-05-6.40114E-06-3.31348E-05-7.34356E-07-2.55054E-19-3.92362E-19
 -1       326 8.36831E-05-6.44430E-06-3.31363E-05 7.10036E-07-7.50912E-20-4.80132E-19
 -1       327 8.43238E-05-6.95140E-06-3.31962E-05 2.23187E-06-2.89997E-20-6.52407E-19
 -1       328 8.55172E-05-7.91261E-06-3.33011E-05 3.91221E-06 7.37535E-20-6.79443E-19
 -1       329 8.73070E-05-9.41455E-06-3.34334E-05 5.89199E-06 2.16928E-19-5.48705E-19
 -1       330 8.97559E-05-1.16071E-05-3.35566E-05 8.16896E-06 3.94339E-19-5.54896E-19
 -1       331 9.31287E-05-1.48809E-05-3.36131E-05 1.05899E-05 5.78232E-19-4.62334E-19
 -1       332 9.76661E-05-2.00329E-05-3.33748E-05 1.21049E-05 5.66146E-19-1.42977E-19
 -1       333 1.00868E-04-2.51325E-05-3.25389E-05 1.00246E-05 5.40036E-19 1.66052E-19
 -1       334 9.91746E-05-2.75866E-05-3.06480E-05 3.74020E-06 3.84877E-19-4.10745E-20
 -1       335 9.91318E-05-2.66376E-05-3.10216E-05-3.72629E-06-4.55323E-19 7.00621E-19
 -1       336 9.84249E-05-2.77340E-05-3.02677E-05 2.53404E-07-4.32433E-19 6.33168E-19
 -1       337 9.84628E-05-2.83277E-05-3.00397E-05 2.80038E-06-3.09131E-19 2.87376E-19
 -1       338 9.91873E-05-2.88603E-05-3.01298E-05 4.60383E-06 8.32371E-20 3.65141E-19
 -1       339 1.00491E-04-2.94935E-05-3.04221E-05 5.92788E-06 6.98740E-20 4.21747E-19
 -1       340 1.02279E-04-3.03240E-05-3.08367E-05 6.81676E-06 3.05614E-20 6.94456E-19
 -1       341 1.04476E-04-3.14387E-05-3.13058E-05 7.14625E-06-5.32849E-21 9.98255E-19
 -1       342 1.07004E-04-3.29109E-05-3.17654E-05 6.64324E-06-4.39768E-19 9.71432E-19
 -1       343 1.09734E-04-3.47361E-05-3.21606E-05 4.92886E-06-3.00806E-19 6.31412E-19
 -1       344 1.12385E-04-3.66857E-05-3.24655E-05 1.65385E-06-2.18319E-19 7.17532E-19
 -1       345 1.14367E-04-3.80879E-05-3.27109E-05-3.16065E-06-7.55398E-20 1.11097E-19
 -1       346 1.14793E-04-3.78356E-05-3.29970E-05-8.58383E-06 4.13911E-19 8.24637E-20
 -1       347 1.12880E-04-3.49129E-05-3.34282E-05-1.23712E-05 3.02755E-19 4.08743E-19
 -1       348 1.09048E-04-2.97994E-05-3.39815E-05-1.15622E-05-3.89344E-19 7.07972E-19
 -1       349 1.05710E-04-2.54465E-05-3.44182E-05-4.92450E-06-1.61836E-19 4.64971E-19
 -1       350 1.05621E-04-2.52420E-05-3.44683E-05 4.65549E-06-1.01573E-18-3.49687E-19
 -1       351 1.08935E-04-2.93747E-05-3.41118E-05 1.17620E-05-4.40652E-19-4.71203E-19
 -1       352 1.13015E-04-3.46010E-05-3.36170E-05 1.31415E-05-9.33082E-20-2.22426E-19
 -1       353 1.15340E-04-3.78263E-05-3.32387E-05 9.71153E-06 6.23676E-19 2.76857E-20
 -1       354 1.15305E-04-3.83396E-05-3.30107E-05 4.39440E-06 7.43956E-19-6.86985E-20
 -1       355 1.13634E-04-3.70877E-05-3.28304E-05-4.44273E-07 2.95333E-19 8.35729E-19
 -1       356 1.11238E-04-3.52251E-05-3.25962E-05-3.78350E-06 6.87836E-19 1.44957E-18
 -1       357 1.08716E-04-3.34551E-05-3.22662E-05-5.56703E-06 1.23218E-18 1.42120E-18
 -1       358 1.06352E-04-3.20399E-05-3.18529E-05-6.15341E-06 4.66593E-19 1.55544E-18
 -1       359 1.04251E-04-3.09975E-05-3.13944E-05-5.97018E-06-5.14198E-19 1.38847E-19
 -1       360 1.02435E-04-3.02571E-05-3.09309E-05-5.36820E-06-1.06020E-18 4.59306E-19
 -1       361 1.00898E-04-2.97372E-05-3.04935E-05-4.59001E-06 3.75503E-19 5.73199E-19
 -1       362 9.96189E-05-2.93718E-05-3.01016E-05-3.78455E-06-4.92842E-19-8.48904E-19
 -1       363 9.85725E-05-2.91135E-05-2.97641E-05-3.03339E-06-3.75347E-19-6.94968E-19
 -1       364 9.77308E-05-2.89303E-05-2.94823E-05-2.37446E-06 2.37928E-19-2.65731E-19
 -1       365 9.70652E-05-2.88006E-05-2.92532E-05-1.81956E-06 2.56555E-19-2.07392E-19
 -1       366 9.65478E-05-2.87095E-05-2.90711E-05-1.36607E-06-5.09331E-19 9.02805E-19
 -1       367 9.61526E-05-2.86465E-05-2.89293E-05-1.00418E-06-1.67356E-19 8.69959E-19
 -1       368 9.58565E-05-2.86041E-05-2.88209E-05-7.21222E-07-3.47495E-19 1.93971E-18
 -1       369 9.56390E-05-2.85766E-05-2.87399E-05-5.04061E-07-1.49708E-18 1.34986E-18
 -1       370 9.54831E-05-2.85598E-05-2.86805E-05-3.40378E-07-3.50281E-19 9.12370E-19
 -1       371 9.53744E-05-2.85507E-05-2.86381E-05-2.19248E-07 1.33065E-18-9.46959E-20
 -1       372 9.53014E-05-2.85467E-05-2.86087E-05-1.31351E-07 3.69475E-19 3.31792E-19
 -1       373 9.52548E-05-2.85462E-05-2.85891E-05-6.89673E-08 2.05167E-19 1.85457E-18
 -1       374 9.52274E-05-2.85480E-05-2.85767E-05-2.58677E-08-7.94541E-19 2.15874E-18
 -1       375 9.52136E-05-2.85513E-05-2.85694E-05 2.83479E-09-2.29331E-20-2.17957E-19
 -1       376 9.52090E-05-2.85553E-05-2.85658E-05 2.08422E-08 1.10353E-18 1.65397E-18
 -1       377 9.52106E-05-2.85599E-05-2.85645E-05 3.08104E-08-3.34003E-19 1.57163E-18
 -1       378 9.52158E-05-2.85650E-05-2.85646E-05 3.44669E-08-1.99346E-18 1.82954E-18
 -1       379 9.52228E-05-2.85704E-05-2.85653E-05 3.28325E-08-3.88472E-20 1.78839E-19
 -1       380 9.52292E-05-2.85753E-05-2.85661E-05 2.69130E-08 9.09260E-19-3.14107E-19
 -1       381 9.80618E-05-2.82983E-05-2.98586E-05 1.98509E-07 3.72185E-19 9.88233E-20
 -1       382 9.79570E-05-2.86934E-05-2.96604E-05-1.91212E-06 4.23143E-19-8.15683E-20
 -1       383 9.87075E-05-2.91474E-05-2.97996E-05-3.27842E-06 3.60816E-20-3.25826E-21
 -1       384 1.00075E-04-2.97321E-05-3.01421E-05-4.16951E-06-1.70259E-19-4.34460E-20
 -1       385 1.01868E-04-3.04653E-05-3.06009E-05-4.64307E-06 2.26955E-20-1.56843E-19
 -1       386 1.03903E-04-3.13460E-05-3.11005E-05-4.62246E-06 3.70184E-19-2.29266E-19
 -1       387 1.05973E-04-3.23462E-05-3.15644E-05-3.94054E-06 2.69751E-19-2.26025E-19
 -1       388 1.07811E-04-3.33777E-05-3.19145E-05-2.39964E-06-4.22913E-19 3.80065E-19
 -1       389 1.09060E-04-3.42387E-05-3.20829E-05 1.07655E-07 3.48293E-19 6.69416E-19
 -1       390 1.09289E-04-3.45757E-05-3.20350E-05 3.39198E-06 4.40034E-19-1.01240E-19
 -1       391 1.08110E-04-3.39424E-05-3.17946E-05 6.72795E-06 9.59806E-19 1.01247E-21
 -1       392 1.05477E-04-3.20854E-05-3.14540E-05 8.79305E-06 4.52884E-19 2.32918E-19
 -1       393 1.02061E-04-2.93907E-05-3.11408E-05 8.14583E-06 1.72973E-19 1.48856E-19
 -1       394 9.93151E-05-2.70636E-05-3.09579E-05 4.24681E-06 4.12217E-19 7.19118E-20
 -1       395 9.87500E-05-2.64922E-05-3.09520E-05-1.63763E-06 5.32486E-19-5.91882E-19
 -1       396 1.00776E-04-2.80860E-05-3.11336E-05-6.88979E-06-1.08950E-19-3.88858E-19
 -1       397 1.04308E-04-3.08419E-05-3.14734E-05-9.34742E-06-1.16152E-18-1.25780E-18
 -1       398 1.07717E-04-3.33138E-05-3.18856E-05-8.62357E-06-6.83706E-19-1.88643E-18
 -1       399 1.09896E-04-3.46552E-05-3.22564E-05-5.83056E-06-5.60676E-19-1.67669E-18
 -1       400 1.10579E-04-3.48410E-05-3.24764E-05-2.46281E-06 1.47679E-18-1.19344E-20
 -1       401 1.10043E-04-3.42741E-05-3.24903E-05 4.26680E-07 9.67277E-19 5.10903E-19
 -1       402 1.08724E-04-3.33816E-05-3.23039E-05 2.40533E-06-6.93472E-19 1.46835E-18
 -1       403 1.07008E-04-3.24441E-05-3.19647E-05 3.47715E-06-9.49808E-19 1.90430E-18
 -1       404 1.05170E-04-3.15974E-05-3.15352E-05 3.84335E-06-6.68211E-19 2.24363E-18
 -1       405 1.03390E-04-3.08866E-05-3.10731E-05 3.74295E-06 3.15843E-19 3.08970E-18
 -1       406 1.01767E-04-3.03126E-05-3.06213E-05 3.37872E-06 2.23783E-20 2.75944E-18
 -1       407 1.00351E-04-2.98597E-05-3.02076E-05 2.89643E-06-6.86862E-19 2.85991E-18
 -1       408 9.91572E-05-2.95077E-05-2.98463E-05 2.38950E-06 9.17856E-20 3.31440E-18
 -1       409 9.81775E-05-2.92380E-05-2.95421E-05 1.91159E-06 2.74000E-19 9.55900E-19
 -1       410 9.73929E-05-2.90342E-05-2.92936E-05 1.48936E-06 1.61986E-18-5.50953E-19
 -1       411 9.67784E-05-2.88824E-05-2.90957E-05 1.13244E-06 1.49682E-18 3.12797E-19
 -1       412 9.63072E-05-2.87714E-05-2.89418E-05 8.40553E-07 6.19238E-19 9.50156E-19
 -1       413 9.59538E-05-2.86920E-05-2.88248E-05 6.08173E-07 1.17489E-19 1.45947E-18
 -1       414 9.56946E-05-2.86366E-05-2.87378E-05 4.27430E-07 8.05766E-19 1.01934E-18
 -1       415 9.55094E-05-2.85993E-05-2.86748E-05 2.89842E-07-1.02325E-18 4.88321E-19
 -1       416 9.53812E-05-2.85753E-05-2.86304E-05 1.87285E-07-1.54187E-19 1.19262E-18
 -1       417 9.52960E-05-2.85609E-05-2.86002E-05 1.12476E-07-5.15534E-19 1.11549E-18
 -1       418 9.52425E-05-2.85534E-05-2.85807E-05 5.91821E-08-1.46511E-18 2.78568E-18
 -1       419 9.52121E-05-2.85507E-05-2.85689E-05 2.22542E-08-3.07939E-19 2.27026E-18
 -1       420 9.51978E-05-2.85510E-05-2.85627E-05-2.41917E-09-6.22446E-19 1.82821E-18
 -1       421 9.51945E-05-2.85535E-05-2.85603E-05-1.79971E-08 6.51555E-19 1.40854E-18
 -1       422 9.51983E-05-2.85572E-05-2.85604E-05-2.67800E-08 1.46435E-19 1.98185E-18
 -1       423 9.52062E-05-2.85617E-05-2.85619E-05-3.02430E-08 1.75776E-18 2.69534E-18
 -1       424 9.52159E-05-2.85667E-05-2.85640E-05-2.91705E-08 1.34944E-18 2.56943E-18
 -1       425 9.52258E-05-2.85719E-05-2.85660E-05-2.38193E-08 1.42208E-18 3.70770E-18
 -1       426 9.52319E-05-2.85757E-05-2.85670E-05-1.87961E-08 1.09511E-18 3.32236E-18
 -1       427 9.52466E-05-2.85964E-05-2.85644E-05-2.91586E-08-5.94394E-20 4.37926E-19
 -1       428 9.52412E-05-2.85885E-05-2.85654E-05-2.98686E-08-5.21559E-19 8.94150E-19
 -1       429 9.52363E-05-2.85823E-05-2.85661E-05-2.60809E-08 2.72680E-19 3.57874E-18
 -1       430 9.52504E-05-2.86029E-05-2.85632E-05-2.50159E-08-4.66100E-19-2.20501E-18
 -1       431 9.52529E-05-2.86078E-05-2.85621E-05-1.88007E-08-3.20153E-19-2.30910E-19
 -1       432 9.52543E-05-2.86111E-05-2.85613E-05-1.15670E-08 7.67112E-19-1.82921E-19
 -1       433 9.52550E-05-2.86127E-05-2.85609E-05-3.91645E-09-8.28189E-19-3.16430E-18
 -1       434 9.52550E-05-2.86127E-05-2.85609E-05 3.85141E-09-9.47301E-19-2.93094E-18
 -1       435 9.52544E-05-2.86111E-05-2.85613E-05 1.15404E-08-1.38057E-18-2.97457E-18
 -1       436 9.52530E-05-2.86080E-05-2.85621E-05 1.87212E-08 1.97570E-19-9.77829E-19
 -1       437 9.52505E-05-2.86030E-05-2.85632E-05 2.50277E-08-6.57264E-19 5.03034E-18
 -1       438 9.52466E-05-2.85965E-05-2.85643E-05 2.93044E-08-1.41928E-18 3.37863E-18
 -1       439 9.52411E-05-2.85886E-05-2.85654E-05 3.03222E-08-4.20475E-19-2.30017E-18
 -1       440 6.15715E-05-4.25555E-05-8.28864E-06 4.30277E-05-6.89273E-20 1.89886E-18
 -1       441 1.15247E-05-2.25926E-05 4.53736E-06 2.52769E-07-9.60340E-20 1.09458E-18
 -1       442 2.72665E-05-2.56522E-05-5.06297E-07 2.88705E-05-7.17807E-19 1.91673E-18
 -1       443 9.57350E-05-5.07850E-05-1.94321E-05 4.11811E-05-2.75603E-19 2.22921E-18
 -1       444 1.34462E-04-4.96827E-05-3.62986E-05 2.51334E-05 6.67621E-19 1.99497E-18
 -1       445 8.96024E-05-1.13925E-05-3.35782E-05-8.11313E-06-6.28548E-19 4.21432E-20
 -1       446 1.50784E-04-2.09003E-05-5.60151E-05-5.57381E-06 9.84358E-19 8.57621E-19
 -1       447 1.58727E-04-1.26941E-05-6.24162E-05 3.71117E-07 1.52815E-18 1.58017E-18
 -1       448 1.58010E-04-1.92263E-05-5.93194E-05 1.25674E-06 1.36531E-18 1.97893E-18
 -1       449 1.54275E-04-3.53378E-05-5.09233E-05-3.55991E-06 1.43000E-18 1.76109E-18
 -1       450 1.42043E-04-4.97361E-05-3.94936E-05-2.04875E-05 9.24722E-19 3.03238E-19
 -1       451 1.12711E-04-5.39772E-05-2.52523E-05-3.71606E-05 1.25604E-18 7.70641E-19
 -1       452 7.43773E-05-4.69307E-05-1.20008E-05-4.38147E-05 1.09786E-18-1.35026E-19
 -1       453 4.01246E-05-3.43445E-05-2.59698E-06-3.76121E-05 4.59727E-19-9.14054E-19
 -1       454 1.62502E-05-2.51776E-05 3.58327E-06-1.67517E-05 4.29075E-19-2.58197E-18
 -1       455 1.43239E-05-2.39780E-05 3.90592E-06 1.17267E-05 9.94840E-19-1.97221E-18
 -1       456 3.66696E-05-3.26414E-05-1.80415E-06 3.52439E-05 4.48927E-19-1.05604E-18
 -1       457 7.96900E-05-4.90111E-05-1.30489E-05 4.43897E-05 2.03182E-19-8.71676E-19
 -1       458 1.18535E-04-5.49661E-05-2.72598E-05 3.44984E-05-2.10276E-19-1.19538E-19
 -1       459 1.44570E-04-4.87271E-05-4.09443E-05 2.04385E-05-8.55821E-19-3.12238E-19
 -1       460 1.57757E-04-3.56729E-05-5.21264E-05 4.63465E-06-1.34821E-18-4.77303E-19
 -1       461 1.59228E-04-1.90764E-05-5.99799E-05-2.38245E-06-1.92033E-18 2.53263E-19
 -1       462 1.53547E-04-1.24848E-05-6.06759E-05 2.67847E-06-1.12772E-18-1.34731E-19
 -1       463 1.52929E-04-2.18126E-05-5.63583E-05 6.30265E-06-2.79097E-19-6.37445E-19
 -1       464 1.51313E-04-4.35302E-05-4.63686E-05-2.17282E-06-3.23037E-19-8.49892E-19
 -1       465 1.34531E-04-5.45653E-05-3.43185E-05-2.46688E-05 5.52318E-19 1.13058E-18
 -1       466 1.00472E-04-5.28451E-05-2.05323E-05-3.98295E-05-4.40351E-19 2.06512E-18
 -1       467 6.09294E-05-4.27908E-05-7.94496E-06-4.22500E-05-5.51630E-19 1.23429E-19
 -1       468 2.38803E-05-2.65131E-05 1.02116E-06-2.58145E-05-3.40401E-19-3.12449E-19
 -1       469 1.52983E-04-3.98996E-05-4.84098E-05 7.45303E-06 1.44422E-18 1.21539E-18
 -1       470 1.25586E-04-6.01359E-05-2.80128E-05 2.79857E-05-7.97799E-20 2.34660E-18
 -1       471 1.37821E-04-9.39457E-06-5.56013E-05-2.41226E-06-1.49702E-18-1.68369E-18
 -1       472 1.35672E-04-1.04462E-05-5.41921E-05-6.77918E-06 7.07167E-19 3.59671E-19
 -1       473 9.81572E-05-2.55226E-05-3.11142E-05 3.02603E-06 2.97575E-19-2.89558E-19
 -1       474 8.65869E-05-1.06289E-05-3.25688E-05-2.12946E-06-3.05097E-19-3.42339E-19
 -1       475 8.83068E-05-1.22210E-05-3.26258E-05-3.34542E-06-3.27765E-19-2.37474E-19
 -1       476 8.52728E-05-9.46648E-06-3.25020E-05-6.22694E-08-1.79506E-19-3.25161E-19
 -1       477 8.56975E-05-9.84952E-06-3.25204E-05 9.58566E-07-8.45698E-20-5.46168E-19
 -1       478 8.67911E-05-1.08410E-05-3.25659E-05 2.07584E-06 4.63377E-20-6.06155E-19
 -1       479 8.85493E-05-1.24882E-05-3.26164E-05 3.37858E-06 2.38977E-19-5.63280E-19
 -1       480 9.09219E-05-1.48428E-05-3.26272E-05 4.81510E-06 2.68412E-19-4.76466E-19
 -1       481 9.39480E-05-1.80950E-05-3.25282E-05 6.22360E-06 3.56522E-19-3.89655E-19
 -1       482 9.80511E-05-2.69858E-05-3.04373E-05-6.33061E-07 4.08781E-19-2.59844E-19
 -1       483 9.73827E-05-2.43798E-05-3.12762E-05-2.26374E-06-4.82672E-19 2.47360E-19
 -1       484 1.38257E-04-3.40567E-05-4.51477E-05-1.20347E-05 4.71744E-19-5.31990E-19
 -1       485 9.76093E-05-2.60699E-05-3.06500E-05 1.40888E-06-4.36657E-19 2.35821E-19
 -1       486 9.78533E-05-2.70328E-05-3.03460E-05 4.17119E-06-6.51285E-20 3.25075E-19
 -1       487 9.83744E-05-2.77689E-05-3.02562E-05 6.28402E-06 1.10985E-19 7.96187E-20
 -1       488 9.92781E-05-2.85786E-05-3.02982E-05 7.89170E-06 2.09739E-19 3.07909E-19
 -1       489 1.00661E-04-2.97049E-05-3.04101E-05 8.98577E-06-4.88799E-20 2.85076E-19
 -1       490 1.02665E-04-3.13925E-05-3.05486E-05 9.40150E-06-1.81428E-19 5.01859E-20
 -1       491 1.05474E-04-3.38556E-05-3.07009E-05 8.80749E-06-3.83089E-19 3.51586E-19
 -1       492 1.09212E-04-3.71176E-05-3.09087E-05 6.72427E-06-2.95440E-19 3.58488E-19
 -1       493 1.13728E-04-4.07070E-05-3.13050E-05 2.62015E-06-3.55322E-19 5.00929E-19
 -1       494 1.18005E-04-4.30302E-05-3.21346E-05-3.57733E-06-1.19102E-19 4.44208E-19
 -1       495 1.20201E-04-4.16844E-05-3.36899E-05-1.06488E-05 2.59867E-19-1.98148E-19
 -1       496 1.18279E-04-3.46523E-05-3.59412E-05-1.48409E-05 3.57471E-19 5.02132E-20
 -1       497 1.13478E-04-2.46522E-05-3.82190E-05-1.14304E-05-4.36606E-19 9.49311E-19
 -1       498 1.10690E-04-1.94107E-05-3.92739E-05-2.26978E-07-1.11623E-18 3.97442E-19
 -1       499 1.13170E-04-2.38607E-05-3.84207E-05 1.13871E-05-5.05798E-19 6.39328E-20
 -1       500 1.18143E-04-3.38280E-05-3.62236E-05 1.55942E-05-1.99152E-19 6.01741E-19
 -1       501 1.20436E-04-4.12708E-05-3.39716E-05 1.19600E-05 2.54027E-19 6.72981E-19
 -1       502 1.18664E-04-4.31137E-05-3.24033E-05 5.06960E-06 7.08994E-19 1.35877E-19
 -1       503 1.14570E-04-4.09916E-05-3.15493E-05-1.20293E-06 3.87083E-19-1.01385E-18
 -1       504 1.10141E-04-3.74862E-05-3.11487E-05-5.40554E-06 1.31244E-18-6.08787E-19
 -1       505 1.06399E-04-3.42134E-05-3.09434E-05-7.59364E-06 1.16406E-18-2.54254E-19
 -1       506 1.03569E-04-3.17572E-05-3.07792E-05-8.30152E-06 4.02936E-19-1.35334E-19
 -1       507 1.01516E-04-3.01332E-05-3.05931E-05-8.07497E-06-5.23602E-19-9.41226E-20
 -1       508 1.00028E-04-2.91529E-05-3.03740E-05-7.33155E-06 8.33876E-20 3.72880E-19
 -1       509 9.89255E-05-2.86084E-05-3.01341E-05-6.35503E-06-9.44981E-19 1.11202E-18
 -1       510 9.80852E-05-2.83352E-05-2.98908E-05-5.32362E-06-8.63693E-19 2.72623E-19
 -1       511 9.74299E-05-2.82209E-05-2.96591E-05-4.34062E-06-1.13383E-18 2.44344E-19
 -1       512 9.69119E-05-2.81942E-05-2.94487E-05-3.45927E-06 8.87311E-20-6.03112E-19
 -1       513 9.65011E-05-2.82127E-05-2.92650E-05-2.70110E-06 7.29935E-22 7.61462E-20
 -1       514 9.61765E-05-2.82519E-05-2.91093E-05-2.06863E-06 1.56164E-19-1.40089E-19
 -1       515 9.59225E-05-2.82982E-05-2.89809E-05-1.55381E-06 2.45974E-19 9.36525E-19
 -1       516 9.57263E-05-2.83444E-05-2.88772E-05-1.14342E-06-7.06674E-19 1.69338E-18
 -1       517 9.55771E-05-2.83870E-05-2.87952E-05-8.22346E-07-1.07221E-18 3.13363E-19
 -1       518 9.54658E-05-2.84244E-05-2.87316E-05-5.75583E-07-1.29441E-18 8.20979E-19
 -1       519 9.53845E-05-2.84563E-05-2.86832E-05-3.89229E-07-4.82452E-19-4.04435E-19
 -1       520 9.53266E-05-2.84828E-05-2.86471E-05-2.51024E-07 9.91204E-19-1.41335E-18
 -1       521 9.52867E-05-2.85044E-05-2.86208E-05-1.50516E-07 3.37959E-19-8.05097E-19
 -1       522 9.52603E-05-2.85218E-05-2.86021E-05-7.90473E-08-1.84595E-19-1.75452E-18
 -1       523 9.52438E-05-2.85358E-05-2.85891E-05-2.96380E-08-1.42307E-18-7.04301E-19
 -1       524 9.52346E-05-2.85470E-05-2.85804E-05 3.18103E-09 1.77790E-18-4.91292E-19
 -1       525 9.52305E-05-2.85563E-05-2.85747E-05 2.35416E-08 4.75026E-19 2.67933E-19
 -1       526 9.52300E-05-2.85644E-05-2.85710E-05 3.43986E-08-5.86537E-19 1.55717E-18
 -1       527 9.52319E-05-2.85720E-05-2.85685E-05 3.77260E-08-2.15790E-18 2.10144E-18
 -1       528 9.88492E-05-2.85797E-05-3.01107E-05-4.89176E-06 1.60874E-19-6.40025E-20
 -1       529 9.98884E-05-2.93729E-05-3.02195E-05-6.04425E-06 5.77234E-20-3.61355E-19
 -1       530 1.01343E-04-3.03862E-05-3.04117E-05-6.60396E-06 2.12182E-19-3.24973E-19
 -1       531 1.03196E-04-3.17231E-05-3.06363E-05-6.43776E-06-6.37330E-20 6.69565E-20
 -1       532 1.05408E-04-3.34186E-05-3.08613E-05-5.31438E-06-3.49061E-19 2.34062E-19
 -1       533 1.07842E-04-3.53418E-05-3.10831E-05-2.97905E-06 1.23645E-19-4.55667E-19
 -1       534 1.10142E-04-3.70448E-05-3.13400E-05 6.72026E-07 7.75292E-19-1.63013E-19
 -1       535 1.11638E-04-3.76681E-05-3.17125E-05 5.27498E-06 6.41711E-19-8.77045E-20
 -1       536 1.11460E-04-3.61459E-05-3.22836E-05 9.59668E-06 1.91407E-19 3.63073E-19
 -1       537 1.09207E-04-3.21075E-05-3.30522E-05 1.14689E-05 4.71524E-19 6.09637E-19
 -1       538 1.05750E-04-2.68366E-05-3.38436E-05 8.84477E-06 5.25471E-19 7.49189E-19
 -1       539 1.03556E-04-2.35987E-05-3.42823E-05 1.83497E-06 9.68251E-19 1.16373E-19
 -1       540 1.04460E-04-2.47981E-05-3.41465E-05-6.33540E-06 1.08571E-19-1.87294E-19
 -1       541 1.07697E-04-2.94417E-05-3.35474E-05-1.14308E-05-5.71229E-19-4.69615E-20
 -1       542 1.10902E-04-3.44171E-05-3.27850E-05-1.17089E-05-7.92599E-19-2.65905E-20
 -1       543 1.12288E-04-3.72865E-05-3.21510E-05-8.39363E-06-2.19287E-19-1.77210E-19
 -1       544 1.11675E-04-3.76552E-05-3.17334E-05-3.80926E-06-1.40026E-19-1.33929E-18
 -1       545 1.09826E-04-3.64089E-05-3.14768E-05 3.16956E-07 2.37922E-19 3.12720E-19
 -1       546 1.07541E-04-3.45720E-05-3.12834E-05 3.24457E-06-5.01300E-19 2.32522E-18
 -1       547 1.05318E-04-3.28067E-05-3.10836E-05 4.91963E-06-5.33311E-19 1.73567E-18
 -1       548 1.03362E-04-3.13855E-05-3.08505E-05 5.58992E-06-4.26439E-19 1.66564E-18
 -1       549 1.01715E-04-3.03502E-05-3.05857E-05 5.56941E-06-1.82882E-19 1.15515E-18
 -1       550 1.00355E-04-2.96420E-05-3.03047E-05 5.13445E-06 5.13188E-19 5.53181E-19
 -1       551 9.92413E-05-2.91781E-05-3.00251E-05 4.49153E-06-4.40373E-19 7.73283E-19
 -1       552 9.83341E-05-2.88839E-05-2.97620E-05 3.77957E-06-9.15817E-20-1.74393E-19
 -1       553 9.76006E-05-2.87032E-05-2.95252E-05 3.08387E-06 8.75487E-19-8.00363E-19
 -1       554 9.70133E-05-2.85962E-05-2.93195E-05 2.45131E-06 5.54687E-19-2.61521E-19
 -1       555 9.65485E-05-2.85364E-05-2.91463E-05 1.90313E-06 6.69924E-19 2.28169E-18
 -1       556 9.61858E-05-2.85061E-05-2.90041E-05 1.44462E-06 1.17507E-18 2.89622E-18
 -1       557 9.59072E-05-2.84941E-05-2.88902E-05 1.07176E-06 1.12549E-18 1.68715E-18
 -1       558 9.56968E-05-2.84929E-05-2.88008E-05 7.75722E-07 8.23735E-19 2.88302E-19
 -1       559 9.55410E-05-2.84978E-05-2.87321E-05 5.45672E-07-2.54329E-19 2.19601E-18
 -1       560 9.54282E-05-2.85059E-05-2.86805E-05 3.70500E-07-5.86612E-19 1.88644E-18
 -1       561 9.53487E-05-2.85152E-05-2.86425E-05 2.39782E-07 6.04115E-19 2.37315E-18
 -1       562 9.52946E-05-2.85247E-05-2.86154E-05 1.44277E-07-1.50385E-18 6.74609E-19
 -1       563 9.52594E-05-2.85337E-05-2.85965E-05 7.61194E-08-8.65468E-19 8.80869E-19
 -1       564 9.52381E-05-2.85419E-05-2.85839E-05 2.88431E-08 3.50009E-19-7.27676E-19
 -1       565 9.52267E-05-2.85494E-05-2.85759E-05-2.68845E-09 2.59811E-20-1.18302E-18
 -1       566 9.52223E-05-2.85562E-05-2.85711E-05-2.23826E-08 3.79807E-19 5.08986E-19
 -1       567 9.52224E-05-2.85625E-05-2.85685E-05-3.31417E-08-8.09294E-19 1.49077E-18
 -1       568 9.52255E-05-2.85690E-05-2.85671E-05-3.69963E-08 7.81563E-19 2.50002E-18
 -1       569 9.52306E-05-2.85756E-05-2.85665E-05-3.46337E-08-5.02135E-20 3.00950E-18
 -1       570 9.52510E-05-2.85887E-05-2.85696E-05-2.51218E-08 2.27554E-18-1.99538E-18
 -1       571 9.52526E-05-2.85895E-05-2.85699E-05-1.71582E-08 9.09236E-19-6.54386E-19
 -1       572 9.52419E-05-2.85830E-05-2.85681E-05-3.57862E-08 3.01767E-19-5.93316E-19
 -1       573 9.52478E-05-2.85866E-05-2.85691E-05-3.15991E-08-3.07419E-21 7.20432E-19
 -1       574 9.52531E-05-2.85898E-05-2.85700E-05-8.68929E-09-1.54783E-18-3.60876E-18
 -1       575 9.52533E-05-2.85898E-05-2.85700E-05-6.89867E-11-9.43665E-19-1.76538E-18
 -1       576 9.52532E-05-2.85898E-05-2.85700E-05 8.57925E-09-5.31775E-19-3.73219E-18
 -1       577 9.52527E-05-2.85897E-05-2.85699E-05 1.69884E-08 4.24735E-20-7.70076E-19
 -1       578 9.52512E-05-2.85888E-05-2.85696E-05 2.50392E-08 1.95671E-19-1.53840E-18
 -1       579 9.52479E-05-2.85869E-05-2.85690E-05 3.17464E-08-3.04192E-18 3.90344E-18
 -1       580 9.52420E-05-2.85832E-05-2.85681E-05 3.56568E-08-4.45445E-18 2.21730E-18
 -1       581 2.81996E-05-1.34000E-05-5.63080E-06 1.13042E-05-5.71727E-19 1.05614E-18
 -1       582 5.68434E-05-3.32109E-05-9.66919E-06 3.97648E-05-7.20772E-19 3.08219E-18
 -1       583 2.81387E-05-1.36261E-05-5.56007E-06-1.23782E-05 5.15697E-19-4.12717E-19
 -1       584 9.82419E-05-2.78616E-05-3.01528E-05-3.14403E-06 1.28899E-19-3.20946E-20
 -1       585 9.18784E-05-5.10428E-05-1.72752E-05 4.13120E-05 2.10329E-19 2.60453E-18
 -1       586 9.60728E-05-2.07603E-05-3.22983E-05-6.43219E-06-5.23403E-19 2.29396E-19
 -1       587 1.42975E-04-5.18321E-05-3.92593E-05 4.40717E-06 3.12906E-19-8.31680E-20
 -1       588 8.55691E-05-9.72138E-06-3.25202E-05-1.05877E-06-2.33256E-19-3.46470E-19
 -1       589 1.35914E-04-1.01585E-05-5.44669E-05 5.01031E-06 9.57888E-19 1.11377E-18
 -1       590 1.41658E-04-5.60890E-05-3.69132E-05-3.52829E-06 1.08951E-18-1.06509E-18
 -1       591 1.39419E-04-2.52780E-05-4.93941E-05 1.08890E-05 2.02150E-18 1.72117E-18
 -1       592 1.43126E-04-4.81255E-05-4.10376E-05 1.83190E-06 1.17861E-18 1.70921E-18
 -1       593 1.33598E-04-6.00423E-05-3.15922E-05-1.89674E-05 7.67809E-19 9.37348E-19
 -1       594 1.04053E-04-5.60071E-05-2.04527E-05-3.88019E-05 2.59986E-19 5.90382E-19
 -1       595 7.13299E-05-4.20532E-05-1.21531E-05-4.35772E-05-2.73168E-19 1.01379E-19
 -1       596 3.69881E-05-2.17649E-05-5.96990E-06-2.89775E-05-4.00514E-19-1.27246E-18
 -1       597 2.39981E-05-1.34388E-05-3.88814E-06-3.16324E-06 2.89424E-19-1.89513E-18
 -1       598 3.35800E-05-2.00004E-05-5.25106E-06 2.49966E-05 1.12340E-18-1.63880E-18
 -1       599 6.53220E-05-3.62552E-05-1.19619E-05 4.02132E-05 6.49727E-19-1.48702E-18
 -1       600 1.14068E-04-5.91283E-05-2.34428E-05 3.28888E-05 9.28560E-20-7.72964E-19
 -1       601 1.37542E-04-5.97310E-05-3.34194E-05 1.46562E-05-4.22325E-19-5.12826E-19
 -1       602 1.45809E-04-4.86200E-05-4.19617E-05-1.43657E-06-8.37874E-19-5.56924E-20
 -1       603 1.40972E-04-2.67340E-05-4.95156E-05-1.18645E-05-1.27325E-18-6.29187E-19
 -1       604 1.30776E-04-1.38740E-05-5.07748E-05 9.87674E-06-8.27128E-19-1.65759E-18
 -1       605 1.39250E-04-3.33498E-05-4.58746E-05 1.42691E-05-1.10432E-19-1.04884E-18
 -1       606 1.24803E-04-6.07587E-05-2.74185E-05-2.62907E-05 5.98376E-19-6.74318E-19
 -1       607 9.33741E-05-5.20081E-05-1.74665E-05-4.05898E-05 9.75517E-19 1.10899E-18
 -1       608 5.25928E-05-3.17725E-05-8.48216E-06-3.82790E-05-3.89370E-19-1.22841E-18
 -1       609 9.82527E-05-2.36772E-05-3.19638E-05 7.00156E-06 5.07601E-19-2.67959E-19
 -1       610 9.06530E-05-1.45469E-05-3.26472E-05-4.66705E-06-4.35953E-19-2.14562E-20
 -1       611 4.57052E-05-1.94558E-05-1.07211E-05 2.61967E-05-4.27593E-19 2.20435E-18
 -1       612 9.60586E-05-4.90840E-05-1.98408E-05 3.61202E-05 5.86597E-19-8.79141E-19
 -1       613 1.27784E-04-1.61513E-05-4.83980E-05-1.07128E-05-1.16991E-18-9.41517E-19
 -1       614 1.28798E-04-2.28862E-05-4.59111E-05-1.41190E-05-1.24408E-21-1.17367E-19
 -1       615 9.52340E-05-2.85772E-05-2.85672E-05 3.64000E-08-1.59527E-18 1.04335E-18
 -1       616 8.75527E-05-1.31719E-05-3.18820E-05 5.53092E-07 5.40941E-20-5.19052E-19
 -1       617 8.66714E-05-1.23408E-05-3.18601E-05 7.14859E-08-7.09135E-20-4.08595E-19
 -1       618 9.13359E-05-1.69277E-05-3.18945E-05 1.88029E-06 2.91193E-19-4.93293E-19
 -1       619 9.39479E-05-1.98219E-05-3.17752E-05 2.52535E-06 2.76299E-19-4.37441E-19
 -1       620 9.65732E-05-2.37025E-05-3.12205E-05 1.39407E-06 2.62667E-19-2.27465E-19
 -1       621 9.69524E-05-2.54730E-05-3.06295E-05-1.88784E-06 1.70792E-19-2.56349E-19
 -1       622 5.00038E-05-2.07892E-05-1.20485E-05-2.69977E-05 9.50556E-19-2.06305E-19
 -1       623 9.59510E-05-2.43330E-05-3.06905E-05 2.75446E-06-2.65293E-19 1.30105E-19
 -1       624 9.61564E-05-2.54495E-05-3.03015E-05 5.41799E-06-1.18621E-19 1.57682E-20
 -1       625 9.64279E-05-2.63463E-05-3.00340E-05 7.61416E-06 9.38121E-20-2.61824E-19
 -1       626 9.69927E-05-2.73908E-05-2.98289E-05 9.41834E-06 2.17732E-20-6.52180E-19
 -1       627 9.81227E-05-2.89532E-05-2.96444E-05 1.08202E-05-5.60995E-20-4.20312E-19
 -1       628 1.00198E-04-3.14394E-05-2.94698E-05 1.16786E-05 2.14591E-20-2.12996E-19
 -1       629 1.03717E-04-3.52260E-05-2.93568E-05 1.16413E-05-6.03832E-20 2.01586E-19
 -1       630 1.09101E-04-4.03445E-05-2.94705E-05 1.00168E-05-2.02419E-20 8.33674E-19
 -1       631 1.16561E-04-4.60851E-05-3.02412E-05 5.57818E-06-2.31268E-19 7.00610E-19
 -1       632 1.24344E-04-4.93664E-05-3.22177E-05-2.14422E-06-2.34800E-19 1.04783E-18
 -1       633 1.28046E-04-4.51532E-05-3.56990E-05-1.13797E-05 3.13045E-19 1.25696E-18
 -1       634 1.18502E-04-1.66244E-05-4.40572E-05-7.94888E-06-1.02748E-18-4.59118E-20
 -1       635 1.18197E-04-1.59243E-05-4.42294E-05 7.55403E-06-1.20308E-18 1.85619E-19
 -1       636 1.23355E-04-2.91584E-05-4.06883E-05 1.67259E-05-4.19586E-19 1.06925E-19
 -1       637 1.27082E-04-4.32816E-05-3.60339E-05 1.33047E-05 1.73509E-20-2.83696E-19
 -1       638 1.23979E-04-4.81966E-05-3.25086E-05 4.38680E-06-3.04010E-19-2.26823E-19
 -1       639 1.17188E-04-4.57875E-05-3.06007E-05-3.38100E-06 2.09911E-19-7.92061E-19
 -1       640 1.10200E-04-4.05839E-05-2.98353E-05-7.97034E-06 1.46344E-18-6.32487E-19
 -1       641 1.04772E-04-3.56047E-05-2.96455E-05-9.94890E-06 1.36028E-18-3.31331E-19
 -1       642 1.01107E-04-3.18898E-05-2.96664E-05-1.02957E-05 5.38415E-19 1.79020E-20
 -1       643 9.88349E-05-2.94972E-05-2.97172E-05-9.74898E-06-3.26661E-20-3.53763E-19
 -1       644 9.74925E-05-2.81302E-05-2.97270E-05-8.75958E-06 5.60390E-20 3.63639E-19
 -1       645 9.67151E-05-2.74558E-05-2.96824E-05-7.59125E-06-1.26672E-19 6.07375E-20
 -1       646 9.62603E-05-2.72073E-05-2.95938E-05-6.39799E-06-9.26778E-19 3.72602E-19
 -1       647 9.59829E-05-2.71998E-05-2.94780E-05-5.26855E-06-1.63820E-18 6.28338E-19
 -1       648 9.58013E-05-2.73150E-05-2.93508E-05-4.25061E-06-5.37368E-19 5.59328E-19
 -1       649 9.56728E-05-2.74823E-05-2.92241E-05-3.36524E-06 1.50701E-19 9.03734E-19
 -1       650 9.55755E-05-2.76616E-05-2.91056E-05-2.61646E-06-6.77521E-19-8.12770E-20
 -1       651 9.54987E-05-2.78319E-05-2.89998E-05-1.99780E-06 8.94194E-19 2.65214E-19
 -1       652 9.54370E-05-2.79835E-05-2.89084E-05-1.49700E-06 2.31999E-19 1.02164E-18
 -1       653 9.53874E-05-2.81128E-05-2.88318E-05-1.09907E-06-1.48282E-18 6.48023E-19
 -1       654 9.53480E-05-2.82200E-05-2.87690E-05-7.88374E-07-1.19544E-18 7.90358E-19
 -1       655 9.53171E-05-2.83068E-05-2.87186E-05-5.49905E-07-1.15443E-18 8.84106E-19
 -1       656 9.52934E-05-2.83757E-05-2.86789E-05-3.70018E-07-2.94804E-19 5.44478E-19
 -1       657 9.52755E-05-2.84294E-05-2.86483E-05-2.36768E-07 8.70760E-19-5.81186E-19
 -1       658 9.52624E-05-2.84707E-05-2.86250E-05-1.40023E-07-5.89710E-19-9.53527E-19
 -1       659 9.52531E-05-2.85020E-05-2.86076E-05-7.14154E-08-5.90729E-19-1.06444E-18
 -1       660 9.52468E-05-2.85255E-05-2.85948E-05-2.42281E-08-8.23213E-19 5.90333E-19
 -1       661 9.52428E-05-2.85433E-05-2.85855E-05 6.79025E-09 2.77446E-18 1.67305E-19
 -1       662 9.52406E-05-2.85571E-05-2.85786E-05 2.55302E-08 7.82483E-19 1.01145E-18
 -1       663 9.52400E-05-2.85687E-05-2.85734E-05 3.48053E-08-7.89851E-19 2.96136E-18
 -1       664 9.87978E-05-2.88376E-05-2.99830E-05-7.58017E-06 1.82562E-19-9.12762E-20
 -1       665 9.52412E-05-2.85725E-05-2.85723E-05-3.61833E-08-9.19624E-19 3.00972E-19
 -1       666 9.78750E-05-2.76835E-05-3.00809E-05-6.26447E-06 1.74931E-19-9.97704E-20
 -1       667 1.02379E-04-3.24997E-05-2.99507E-05-8.18986E-06-4.08432E-19 1.88678E-19
 -1       668 1.05356E-04-3.52984E-05-3.00291E-05-7.01014E-06 4.37268E-19-2.11164E-19
 -1       669 1.09133E-04-3.85164E-05-3.02701E-05-4.34319E-06 3.92910E-19 1.32164E-19
 -1       670 1.13199E-04-4.12525E-05-3.08402E-05 9.30088E-08 4.10556E-19 2.71474E-19
 -1       671 1.16358E-04-4.18224E-05-3.19559E-05 6.01811E-06 1.82442E-19 7.90144E-19
 -1       672 1.16729E-04-3.82811E-05-3.36048E-05 1.15304E-05-6.15753E-21 7.76986E-19
 -1       673 1.12989E-04-2.97682E-05-3.57407E-05 1.32044E-05 7.67624E-19 7.52731E-19
 -1       674 1.08589E-04-2.12785E-05-3.75564E-05 7.70395E-06 9.89593E-19 2.37053E-19
 -1       675 1.07909E-04-1.93138E-05-3.80603E-05-3.04243E-06 9.28606E-19 3.48045E-19
 -1       676 1.11171E-04-2.51066E-05-3.69891E-05-1.18463E-05-1.10498E-19-1.90200E-19
 -1       677 1.15534E-04-3.42614E-05-3.48798E-05-1.37792E-05-1.09438E-18 4.31176E-19
 -1       678 1.17074E-04-4.04381E-05-3.28701E-05-9.86277E-06-4.98524E-19 5.13835E-19
 -1       679 1.15182E-04-4.18386E-05-3.14339E-05-3.88793E-06 1.87687E-20 3.93678E-19
 -1       680 1.11431E-04-3.99593E-05-3.06329E-05 1.29362E-06 3.46010E-21 6.46680E-19
 -1       681 1.07430E-04-3.68399E-05-3.02577E-05 4.76660E-06-5.37544E-19 5.30828E-19
 -1       682 1.04052E-04-3.38419E-05-3.00938E-05 6.62112E-06-3.81207E-21 1.18321E-19
 -1       683 1.01497E-04-3.14873E-05-3.00062E-05 7.28437E-06-1.09450E-20 3.44161E-19
 -1       684 9.96814E-05-2.98598E-05-2.99241E-05 7.16899E-06 2.85115E-19-2.46444E-19
 -1       685 9.84236E-05-2.88411E-05-2.98209E-05 6.59948E-06 4.98051E-19-6.32816E-19
 -1       686 9.75535E-05-2.82651E-05-2.96945E-05 5.80267E-06-9.86243E-20 5.05499E-19
 -1       687 9.69428E-05-2.79835E-05-2.95532E-05 4.92829E-06 4.23137E-19-8.81247E-19
 -1       688 9.65042E-05-2.78842E-05-2.94078E-05 4.06961E-06 7.76986E-19-1.52304E-18
 -1       689 9.61817E-05-2.78900E-05-2.92671E-05 3.28019E-06-5.62056E-19-2.28274E-19
 -1       690 9.59400E-05-2.79506E-05-2.91377E-05 2.58654E-06 1.46668E-19 1.75130E-19
 -1       691 9.57565E-05-2.80349E-05-2.90230E-05 1.99744E-06 4.50081E-20-4.95616E-20
 -1       692 9.56167E-05-2.81247E-05-2.89247E-05 1.51071E-06 4.85236E-19 2.61558E-18
 -1       693 9.55102E-05-2.82101E-05-2.88425E-05 1.11788E-06 1.87924E-18 3.71238E-18
 -1       694 9.54298E-05-2.82862E-05-2.87755E-05 8.07445E-07 1.06341E-18 3.14337E-18
 -1       695 9.53697E-05-2.83510E-05-2.87221E-05 5.66897E-07-1.39733E-19 1.26789E-18
 -1       696 9.53254E-05-2.84046E-05-2.86802E-05 3.84044E-07-2.88352E-19 1.62479E-21
 -1       697 9.52936E-05-2.84477E-05-2.86481E-05 2.47736E-07 1.54552E-19 1.45581E-18
 -1       698 9.52712E-05-2.84817E-05-2.86240E-05 1.48222E-07-1.56217E-18 7.23907E-19
 -1       699 9.52560E-05-2.85081E-05-2.86062E-05 7.72828E-08 5.43024E-19-1.44141E-18
 -1       700 9.52462E-05-2.85284E-05-2.85933E-05 2.82044E-08 8.03363E-19-1.40105E-18
 -1       701 9.52403E-05-2.85440E-05-2.85841E-05-4.29763E-09-2.72795E-19-2.22936E-18
 -1       702 9.52375E-05-2.85563E-05-2.85776E-05-2.42283E-08-7.25973E-19-1.87086E-18
 -1       703 9.52392E-05-2.85643E-05-2.85750E-05-3.22837E-08-1.30254E-18-2.09125E-19
 -1       704 9.52514E-05-2.85667E-05-2.85792E-05-3.97401E-09 2.58237E-19-2.44035E-18
 -1       705 9.52407E-05-2.85759E-05-2.85707E-05 3.67482E-08-2.51392E-18 2.92136E-18
 -1       706 9.52513E-05-2.85705E-05-2.85775E-05-1.97328E-08 1.46539E-18-2.74772E-18
 -1       707 9.52515E-05-2.85668E-05-2.85792E-05 3.73459E-09-8.36123E-19-3.04066E-18
 -1       708 9.52516E-05-2.85681E-05-2.85786E-05-1.17704E-08 2.36973E-19-3.50286E-18
 -1       709 1.13313E-04-5.67536E-05-2.40701E-05-2.85924E-05-3.19623E-19 2.62208E-19
 -1       710 9.52518E-05-2.85683E-05-2.85786E-05 1.14724E-08-9.16483E-19-1.77924E-18
 -1       711 9.52516E-05-2.85707E-05-2.85775E-05 1.95724E-08-1.03267E-18-2.40230E-18
 -1       712 9.52498E-05-2.85731E-05-2.85757E-05 2.74712E-08-1.62062E-19 6.22841E-19
 -1       713 9.52464E-05-2.85755E-05-2.85732E-05 3.30358E-08-1.54737E-18 2.69779E-18
 -1       714 8.14338E-05-4.12709E-05-1.68553E-05-3.74641E-05 5.16637E-19 1.68507E-19
 -1       715 9.73152E-05-2.66621E-05-3.02768E-05-4.38568E-06 3.58136E-20-2.03863E-19
 -1       716 9.45803E-05-2.00970E-05-3.19211E-05-3.43218E-06-4.27537E-19 1.77159E-19
 -1       717 1.17302E-04-5.80906E-05-2.52299E-05 2.70136E-05-6.16402E-19 9.42337E-19
 -1       718 3.93742E-05-1.11421E-05-1.15689E-05-3.71236E-07 8.91155E-20-6.88029E-19
 -1       719 1.00240E-04-3.03719E-05-2.99446E-05-8.27871E-06-1.19275E-19-1.15552E-19
 -1       720 9.55081E-05-2.26903E-05-3.12077E-05-1.18668E-07-4.22885E-19 1.66620E-19
 -1       721 8.91475E-05-1.47111E-05-3.19063E-05 1.16504E-06 2.19749E-19-3.78614E-19
 -1       722 1.28393E-04-5.92871E-05-2.95356E-05 1.37883E-05 4.58675E-19 2.91234E-19
 -1       723 1.36157E-04-3.93744E-05-4.18333E-05-1.27680E-05-3.54113E-19 7.12672E-19
 -1       724 8.88118E-05-1.43577E-05-3.19136E-05-1.24147E-06-2.39120E-19-2.81655E-19
 -1       725 1.31653E-04-5.96568E-05-3.09361E-05-1.08373E-05-2.38268E-19-9.99790E-19
 -1       726 1.30932E-04-3.76588E-05-4.03182E-05 1.34705E-05 1.29945E-18 9.48783E-19
 -1       727 1.35332E-04-5.59492E-05-3.42297E-05-2.51158E-06 9.76159E-19 1.29456E-18
 -1       728 1.20831E-04-5.91314E-05-2.64095E-05-2.47068E-05 1.93706E-19 6.18030E-19
 -1       729 9.48606E-05-4.90448E-05-1.93677E-05-3.74483E-05-3.24652E-19 5.94683E-19
 -1       730 6.60528E-05-3.06808E-05-1.47185E-05-3.50359E-05-6.41919E-19-2.03314E-19
 -1       731 4.16493E-05-1.43436E-05-1.11599E-05-1.55719E-05-3.46860E-19-1.18045E-18
 -1       732 5.56532E-05-2.39998E-05-1.30827E-05 2.95402E-05 5.37734E-19-1.68642E-18
 -1       733 1.38142E-04-5.47347E-05-3.59354E-05-1.28890E-06-1.53052E-19 6.43269E-19
 -1       734 3.84126E-05-1.31863E-05-1.02699E-05 1.11777E-05 5.67625E-19-1.32534E-18
 -1       735 1.19003E-04-9.95355E-06-4.73063E-05-1.33868E-06 3.07473E-19 5.82302E-19
 -1       736 1.24177E-04-1.71682E-05-4.63839E-05 1.12187E-05 1.59846E-18 2.39141E-19
 -1       737 1.35502E-04-4.67581E-05-3.82556E-05 1.09550E-05 2.22664E-19-6.04623E-19
 -1       738 8.24261E-05-4.17342E-05-1.71209E-05 3.77900E-05-1.41375E-19 2.67692E-18
 -1       739 1.36071E-04-4.74182E-05-3.82474E-05-7.33096E-06-7.97349E-19-6.96923E-19
 -1       740 1.33392E-04-5.81786E-05-3.23494E-05 9.14483E-06-5.31573E-19-1.14286E-18
 -1       741 9.09960E-05-1.65234E-05-3.19207E-05-1.87573E-06-3.47858E-19 6.24687E-21
 -1       742 8.65864E-05-1.22555E-05-3.18602E-05-3.31872E-07-1.77482E-19-3.59955E-19
 -1       743 4.80523E-05-1.40139E-05-1.42161E-05 1.35328E-05 2.76222E-19 1.35610E-18
 -1       744 1.15597E-04-5.47874E-05-2.59756E-05 2.26303E-05 9.91346E-19 4.36619E-20
 -1       745 1.24444E-04-3.09805E-05-4.03734E-05-1.60511E-05 3.55582E-19 1.63954E-19
 -1       746 9.52496E-05-2.85728E-05-2.85758E-05-2.75057E-08 1.19319E-18 9.14734E-19
 -1       747 6.58955E-05-2.76299E-05-1.60514E-05 3.10374E-05-2.75709E-19 3.19255E-18
 -1       748 1.30790E-04-3.70558E-05-4.05055E-05-1.33505E-05-4.90816E-19-8.74363E-19
 -1       749 7.97711E-05-3.63381E-05-1.83328E-05 3.34462E-05 6.86653E-19-7.80726E-19
 -1       750 8.73124E-05-1.29282E-05-3.18834E-05-7.43881E-07-2.24118E-19-2.40165E-19
 -1       751 1.20793E-04-1.19080E-05-4.72289E-05 4.14169E-08-1.13730E-18-9.33506E-19
 -1       752 9.35864E-05-2.07769E-05-3.12021E-05-3.34533E-07 1.75534E-19-5.03549E-19
 -1       753 9.37450E-05-2.37696E-05-2.99893E-05 6.30135E-06-1.84377E-19-2.06055E-19
 -1       754 9.36221E-05-2.47225E-05-2.95280E-05 8.49517E-06-1.59571E-19-1.76320E-19
 -1       755 9.37294E-05-2.59238E-05-2.90593E-05 1.05363E-05-1.31754E-19-3.91351E-19
 -1       756 9.44624E-05-2.78393E-05-2.85527E-05 1.24986E-05 1.04204E-19-4.83837E-19
 -1       757 9.64132E-05-3.10334E-05-2.80201E-05 1.43665E-05 2.32683E-19-5.70707E-19
 -1       758 1.00457E-04-3.61347E-05-2.75671E-05 1.58827E-05 4.64037E-19-1.60774E-19
 -1       759 1.07679E-04-4.33530E-05-2.75250E-05 1.61952E-05-1.11719E-19 1.95180E-19
 -1       760 1.28754E-04-5.38406E-05-3.21490E-05-5.81858E-07-6.00336E-19 1.88617E-19
 -1       761 1.17933E-04-4.98485E-05-2.91744E-05-9.16855E-06-7.99470E-20-8.84804E-19
 -1       762 1.08256E-04-4.23758E-05-2.82228E-05-1.28052E-05 7.90070E-19-6.66629E-19
 -1       763 1.01528E-04-3.57790E-05-2.81813E-05-1.33086E-05 1.22045E-18-1.40588E-19
 -1       764 9.75084E-05-3.11441E-05-2.84418E-05-1.24436E-05 9.67022E-19-2.84241E-19
 -1       765 9.53728E-05-2.82999E-05-2.87454E-05-1.10870E-05 3.49592E-19 3.92784E-19
 -1       766 9.44021E-05-2.67698E-05-2.89845E-05-9.61533E-06 1.99302E-19 1.09080E-18
 -1       767 9.40806E-05-2.60992E-05-2.91340E-05-8.17995E-06-9.15692E-19 1.11458E-18
 -1       768 9.40876E-05-2.59475E-05-2.92022E-05-6.84215E-06-1.09246E-18-3.20122E-19
 -1       769 9.42378E-05-2.60833E-05-2.92085E-05-5.63092E-06-6.54711E-19-1.77266E-18
 -1       770 9.44315E-05-2.63590E-05-2.91734E-05-4.56010E-06-3.56522E-19 1.42005E-19
 -1       771 9.46197E-05-2.66857E-05-2.91142E-05-3.63380E-06-1.58246E-20-5.64034E-19
 -1       772 9.47822E-05-2.70128E-05-2.90437E-05-2.84872E-06 3.20689E-19-1.83363E-18
 -1       773 9.49133E-05-2.73141E-05-2.89709E-05-2.19607E-06 6.59054E-19 4.56166E-19
 -1       774 9.50144E-05-2.75778E-05-2.89013E-05-1.66335E-06 1.26256E-18 9.90216E-19
 -1       775 9.50899E-05-2.78006E-05-2.88382E-05-1.23608E-06-1.38712E-18 3.15761E-19
 -1       776 9.51446E-05-2.79839E-05-2.87831E-05-8.99150E-07-1.56549E-18-6.43583E-19
 -1       777 9.51831E-05-2.81314E-05-2.87364E-05-6.37860E-07-5.44267E-19-5.32629E-19
 -1       778 9.52093E-05-2.82479E-05-2.86977E-05-4.38625E-07-7.10353E-19-4.84984E-20
 -1       779 9.52265E-05-2.83383E-05-2.86663E-05-2.89350E-07-5.95445E-19-5.84622E-19
 -1       780 9.52371E-05-2.84073E-05-2.86413E-05-1.79610E-07 2.84543E-19-9.53075E-19
 -1       781 9.52431E-05-2.84591E-05-2.86217E-05-1.00661E-07 5.11468E-19 4.48191E-19
 -1       782 9.52460E-05-2.84975E-05-2.86065E-05-4.53640E-08 4.24992E-19 2.81209E-18
 -1       783 9.52468E-05-2.85259E-05-2.85947E-05-8.08549E-09 1.26662E-18 3.95094E-18
 -1       784 9.52467E-05-2.85471E-05-2.85855E-05 1.55415E-08 9.17363E-19 2.41450E-18
 -1       785 9.61172E-05-2.66543E-05-2.97698E-05-7.47066E-06 3.01746E-19-2.49008E-19
 -1       786 1.05225E-04-3.75809E-05-2.89922E-05-9.84876E-06-1.00434E-19 2.57042E-19
 -1       787 1.01134E-04-3.34180E-05-2.90222E-05-1.04974E-05 4.06667E-20-3.72770E-19
 -1       788 1.17631E-04-4.65794E-05-3.04641E-05-2.19548E-06-3.79669E-20 1.27963E-18
 -1       789 1.22749E-04-4.66210E-05-3.26611E-05 5.57707E-06 1.92680E-19 1.37285E-18
 -1       790 1.21406E-04-3.17200E-05-3.86219E-05-1.51910E-05-8.85560E-19 1.10675E-18
 -1       791 1.23575E-04-4.35599E-05-3.43939E-05-1.05359E-05-5.42478E-19 3.07758E-19
 -1       792 1.20305E-04-4.69240E-05-3.15185E-05-2.50901E-06 4.65375E-19-3.88940E-20
 -1       793 1.14337E-04-4.45700E-05-2.99051E-05 3.91101E-06-1.46589E-19 1.41003E-19
 -1       794 1.07739E-04-3.97379E-05-2.91469E-05 7.75161E-06-2.13401E-19-1.93479E-19
 -1       795 1.02793E-04-3.52090E-05-2.89677E-05 9.19757E-06-1.64488E-19 1.53791E-20
 -1       796 9.94038E-05-3.17153E-05-2.90104E-05 9.33899E-06-1.32899E-19 1.85147E-20
 -1       797 9.72900E-05-2.93607E-05-2.91126E-05 8.77011E-06 1.97810E-19 3.16769E-19
 -1       798 9.60702E-05-2.79417E-05-2.91977E-05 7.86469E-06 2.96358E-19 2.83084E-19
 -1       799 9.54222E-05-2.71953E-05-2.92398E-05 6.82854E-06-6.18202E-19 5.92288E-19
 -1       800 9.51160E-05-2.68930E-05-2.92382E-05 5.77935E-06 6.90041E-19 1.13920E-18
 -1       801 9.50011E-05-2.68619E-05-2.92022E-05 4.78489E-06 7.80005E-19 1.38835E-18
 -1       802 9.49850E-05-2.69825E-05-2.91437E-05 3.88294E-06 2.84661E-19 7.40410E-19
 -1       803 9.50142E-05-2.71761E-05-2.90733E-05 3.09176E-06-7.17487E-19-6.67202E-19
 -1       804 9.50594E-05-2.73941E-05-2.89992E-05 2.41654E-06 1.03231E-19 1.18014E-18
 -1       805 9.51055E-05-2.76080E-05-2.89274E-05 1.85377E-06-6.86895E-19 1.68911E-18
 -1       806 9.51460E-05-2.78029E-05-2.88612E-05 1.39457E-06 4.18499E-19 1.69552E-18
 -1       807 9.51785E-05-2.79719E-05-2.88027E-05 1.02713E-06 1.88947E-18 2.19897E-18
 -1       808 9.52030E-05-2.81134E-05-2.87526E-05 7.38527E-07 1.40553E-18 1.99725E-18
 -1       809 9.52206E-05-2.82286E-05-2.87108E-05 5.15914E-07 4.78507E-19 2.18564E-18
 -1       810 9.52324E-05-2.83201E-05-2.86766E-05 3.47304E-07-4.72828E-19 2.03788E-18
 -1       811 9.52398E-05-2.83914E-05-2.86493E-05 2.22012E-07-7.33884E-19 1.85360E-18
 -1       812 9.52440E-05-2.84458E-05-2.86278E-05 1.30839E-07 6.00494E-19 2.37059E-19
 -1       813 9.52458E-05-2.84867E-05-2.86111E-05 6.61145E-08 1.68082E-19 1.11012E-18
 -1       814 9.52463E-05-2.85171E-05-2.85982E-05 2.16576E-08 3.25621E-19 1.11710E-18
 -1       815 9.52459E-05-2.85398E-05-2.85883E-05-7.25203E-09-1.18716E-18 1.39910E-18
 -1       816 8.78043E-05-1.49787E-05-3.12119E-05-4.61559E-07-1.61247E-20-2.20904E-19
 -1       817 9.52495E-05-2.85467E-05-2.85869E-05 1.04606E-08-1.65934E-18-1.14085E-19
 -1       818 9.52475E-05-2.85402E-05-2.85889E-05-1.98785E-10-6.14085E-19-3.22723E-18
 -1       819 9.52502E-05-2.85532E-05-2.85844E-05 1.74375E-08-4.09406E-20 1.05277E-18
 -1       820 9.52482E-05-2.85420E-05-2.85884E-05 4.72632E-09-6.71564E-19-3.32044E-18
 -1       821 7.23774E-05-3.01482E-05-1.78550E-05-3.01457E-05 6.23469E-19-6.15925E-19
 -1       822 1.10941E-04-4.24922E-05-2.93479E-05-7.35915E-06 1.14983E-19 6.77567E-19
 -1       823 5.45226E-05-1.52931E-05-1.65333E-05-1.41218E-05 3.90833E-19-9.73929E-19
 -1       824 1.20213E-04-5.53418E-05-2.77541E-05-1.62497E-05-1.19260E-18-2.70653E-19
 -1       825 9.38047E-05-2.26584E-05-3.04913E-05 3.86084E-06-3.99535E-19 1.44831E-19
 -1       826 5.99727E-05-2.09376E-05-1.64796E-05-2.32284E-05-6.48470E-19-4.22511E-19
 -1       827 8.78289E-05-4.02141E-05-2.02182E-05-3.24470E-05-6.93654E-19 1.83568E-19
 -1       828 5.52674E-05-1.72141E-05-1.59862E-05 1.77343E-05 8.03821E-20-1.83780E-18
 -1       829 1.03050E-04-4.82774E-05-2.33629E-05 2.76258E-05-5.49645E-20 6.98405E-20
 -1       830 1.00200E-04-4.70563E-05-2.26058E-05-2.89026E-05 4.74325E-19 1.60838E-18
 -1       831 1.24994E-04-5.55663E-05-2.97133E-05-1.05608E-05 3.55621E-19 1.35657E-18
 -1       832 1.09126E-04-5.19857E-05-2.43882E-05-2.65925E-05-9.49339E-20 1.54249E-19
 -1       833 4.83680E-05-1.24404E-05-1.51214E-05-8.82091E-07 9.13898E-20-7.34219E-19
 -1       834 9.54293E-05-2.32472E-05-3.09349E-05-1.07313E-06 2.14606E-19-3.50536E-19
 -1       835 8.72391E-05-1.44472E-05-3.11976E-05-2.24837E-07-1.79821E-19-3.69812E-19
 -1       836 5.34641E-05-1.28856E-05-1.71829E-05-2.41896E-06 1.64200E-19-1.18585E-19
 -1       837 9.52497E-05-2.85529E-05-2.85844E-05-1.73654E-08 5.56290E-20 2.30739E-19
 -1       838 7.71234E-05-2.97604E-05-2.01544E-05-2.69836E-05-7.81679E-19 8.62782E-20
 -1       839 1.30914E-04-5.59219E-05-3.21475E-05 4.61041E-06 1.90768E-19 1.17913E-18
 -1       840 9.35045E-05-2.11289E-05-3.10186E-05 1.38970E-06-4.89072E-19 2.04007E-19
 -1       841 5.88151E-05-1.56441E-05-1.83210E-05-1.12460E-05-4.76393E-19-1.67534E-19
 -1       842 9.69556E-05-2.81853E-05-2.94733E-05-9.00140E-06 8.64256E-20-2.55226E-19
 -1       843 9.52472E-05-2.85590E-05-2.85806E-05 2.53111E-08 8.48643E-19 1.93930E-18
 -1       844 9.52475E-05-2.85597E-05-2.85805E-05-2.51809E-08-1.86189E-19 3.35151E-18
 -1       845 9.85036E-05-3.03353E-05-2.92156E-05-1.00740E-05-4.94939E-19-2.88048E-19
 -1       846 1.15127E-04-1.75943E-05-4.21234E-05-1.02485E-05 2.34125E-19 1.03592E-18
 -1       847 9.52466E-05-2.85498E-05-2.85844E-05-1.80401E-08-2.24044E-18 4.23591E-18
 -1       848 9.52491E-05-2.85464E-05-2.85869E-05-1.06060E-08 6.25499E-19-3.51584E-18
 -1       849 8.91751E-05-1.62804E-05-3.12414E-05-5.59502E-07 1.97586E-19-4.02602E-19
 -1       850 9.52479E-05-2.85418E-05-2.85884E-05-5.05269E-09 1.88946E-19-3.58697E-18
 -1       851 1.29132E-04-5.19737E-05-3.31174E-05-1.56123E-06-4.18643E-19 2.38718E-19
 -1       852 8.74826E-05-3.72545E-05-2.13493E-05 2.87006E-05-2.94542E-19 1.94607E-18
 -1       853 9.58573E-05-2.48538E-05-3.04299E-05-3.80001E-06 3.34439E-20-1.72380E-19
 -1       854 9.07058E-05-1.77536E-05-3.12677E-05 4.50283E-07-3.53798E-19 2.27897E-20
 -1       855 7.06692E-05-2.59805E-05-1.89871E-05 2.55963E-05 5.74268E-19-1.20351E-18
 -1       856 9.12035E-05-1.82755E-05-3.12538E-05-4.80036E-07 8.72914E-20-4.60713E-19
 -1       857 9.59526E-05-2.57508E-05-3.00864E-05-5.78258E-06 3.16259E-20-1.18587E-19
 -1       858 1.20713E-04-5.47244E-05-2.82413E-05 1.40064E-05 3.20026E-19-1.07157E-18
 -1       859 8.87644E-05-1.58683E-05-3.12425E-05 3.27192E-07-1.98036E-19-2.28309E-19
 -1       860 9.00718E-05-2.29004E-05-2.87876E-05 8.72739E-06-1.97678E-19-6.02628E-20
 -1       861 8.93732E-05-2.40042E-05-2.80156E-05 1.10455E-05-3.63753E-19-1.57620E-19
 -1       862 8.91509E-05-2.58960E-05-2.71090E-05 1.37920E-05 4.93725E-20-5.00703E-19
 -1       863 9.00609E-05-2.92400E-05-2.60574E-05 1.72106E-05 5.08917E-19-5.51746E-19
 -1       864 9.31529E-05-3.49078E-05-2.49270E-05 2.13035E-05 3.38342E-19-4.00395E-19
 -1       865 6.38932E-05-2.06535E-05-1.83696E-05 2.10265E-05 4.58116E-19 2.68499E-18
 -1       866 8.95320E-05-3.64492E-05-2.26550E-05-2.55481E-05 4.77402E-19 1.67809E-18
 -1       867 1.06839E-04-4.55612E-05-2.62013E-05-1.90213E-05 4.36702E-19 6.58631E-19
 -1       868 9.57122E-05-3.54477E-05-2.58016E-05-1.85401E-05 1.63344E-18 1.51307E-18
 -1       869 9.17989E-05-2.98112E-05-2.65618E-05-1.54760E-05 6.91410E-19-1.32177E-19
 -1       870 9.02542E-05-2.65407E-05-2.73059E-05-1.26713E-05 6.09351E-19-8.21537E-19
 -1       871 9.00108E-05-2.49022E-05-2.79033E-05-1.04069E-05 7.52567E-19-3.99842E-19
 -1       872 9.03998E-05-2.42723E-05-2.83400E-05-8.57509E-06-1.10320E-18-5.53457E-19
 -1       873 9.10574E-05-2.42447E-05-2.86337E-05-7.06231E-06-1.53405E-18-5.62956E-19
 -1       874 9.17836E-05-2.45516E-05-2.88135E-05-5.78760E-06-1.64458E-18-4.63468E-19
 -1       875 9.24753E-05-2.50204E-05-2.89091E-05-4.70185E-06 4.58970E-19-9.53447E-19
 -1       876 9.30853E-05-2.55443E-05-2.89460E-05-3.77624E-06-7.63812E-19-3.83568E-19
 -1       877 9.35981E-05-2.60608E-05-2.89445E-05-2.99254E-06-3.81042E-19-5.76551E-19
 -1       878 9.40150E-05-2.65356E-05-2.89196E-05-2.33669E-06 1.74231E-18 3.31573E-19
 -1       879 9.43451E-05-2.69529E-05-2.88823E-05-1.79556E-06 1.43633E-18 1.12877E-18
 -1       880 9.46008E-05-2.73077E-05-2.88399E-05-1.35592E-06-1.03482E-18-1.21887E-18
 -1       881 9.47950E-05-2.76017E-05-2.87971E-05-1.00439E-06-1.82758E-18-5.77449E-19
 -1       882 9.49394E-05-2.78401E-05-2.87568E-05-7.27809E-07-8.47229E-19 5.08800E-19
 -1       883 9.50447E-05-2.80298E-05-2.87206E-05-5.13752E-07-1.15620E-19 1.04951E-18
 -1       884 9.51195E-05-2.81779E-05-2.86893E-05-3.50859E-07-7.03086E-19 1.43933E-18
 -1       885 9.51712E-05-2.82916E-05-2.86627E-05-2.29096E-07-3.45565E-19 1.92350E-18
 -1       886 9.52056E-05-2.83775E-05-2.86406E-05-1.39858E-07 7.11645E-19 5.91196E-19
 -1       887 9.52273E-05-2.84414E-05-2.86225E-05-7.59416E-08 1.88207E-18 8.51855E-19
 -1       888 9.52401E-05-2.84884E-05-2.86079E-05-3.14836E-08 9.40035E-19 1.50088E-18
 -1       889 9.52467E-05-2.85228E-05-2.85959E-05-2.10938E-09 7.39964E-19 3.40672E-18
 -1       890 1.07066E-04-4.25639E-05-2.76514E-05 1.31599E-05 4.56683E-19-1.36278E-18
 -1       891 1.00444E-04-3.62401E-05-2.75237E-05 1.31748E-05-4.05019E-19-1.42914E-18
 -1       892 9.62756E-05-3.15260E-05-2.77528E-05 1.20823E-05 1.78588E-19-8.48656E-19
 -1       893 9.40746E-05-2.85130E-05-2.80970E-05 1.05376E-05-4.50023E-19-9.91609E-19
 -1       894 9.30547E-05-2.67590E-05-2.84121E-05 8.99512E-06-4.23221E-19-4.28868E-19
 -1       895 9.27460E-05-2.58878E-05-2.86532E-05 7.57069E-06-1.52467E-19 5.78772E-19
 -1       896 9.28281E-05-2.55915E-05-2.88155E-05 6.29523E-06-3.13144E-20 4.04888E-19
 -1       897 9.31008E-05-2.56454E-05-2.89093E-05 5.17020E-06 3.04226E-19 6.58956E-19
 -1       898 9.34450E-05-2.58940E-05-2.89503E-05 4.19018E-06-2.41037E-19 1.41599E-18
 -1       899 9.37937E-05-2.62346E-05-2.89538E-05 3.34795E-06-3.54782E-20 1.82901E-18
 -1       900 9.41124E-05-2.66021E-05-2.89329E-05 2.63494E-06-1.04947E-18 2.15901E-18
 -1       901 9.43860E-05-2.69575E-05-2.88979E-05 2.04087E-06-1.13514E-18 2.33875E-18
 -1       902 9.46110E-05-2.72800E-05-2.88561E-05 1.55394E-06 2.65669E-19 1.50690E-18
 -1       903 9.47898E-05-2.75599E-05-2.88128E-05 1.16136E-06 2.85136E-19 2.50837E-18
 -1       904 9.49279E-05-2.77949E-05-2.87713E-05 8.50034E-07 1.10467E-18 4.57632E-18
 -1       905 9.50316E-05-2.79870E-05-2.87334E-05 6.07199E-07 1.36149E-18 4.42678E-18
 -1       906 9.51074E-05-2.81404E-05-2.87001E-05 4.20954E-07-5.07448E-19 2.93228E-18
 -1       907 9.51611E-05-2.82604E-05-2.86717E-05 2.80593E-07 4.35112E-19 3.27300E-18
 -1       908 9.51978E-05-2.83524E-05-2.86480E-05 1.76796E-07 3.18539E-19 2.46644E-18
 -1       909 9.52217E-05-2.84217E-05-2.86286E-05 1.01663E-07-2.24642E-19 2.91223E-18
 -1       910 9.52362E-05-2.84731E-05-2.86128E-05 4.87141E-08 1.27320E-19 2.75210E-18
 -1       911 9.52442E-05-2.85109E-05-2.86000E-05 1.29796E-08-9.47462E-19 4.94247E-18
 -1       912 7.00167E-05-2.23049E-05-2.03244E-05-1.99404E-05-4.68638E-19-6.01195E-20
 -1       913 9.52459E-05-2.85244E-05-2.85949E-05 2.90280E-09-4.93354E-19 8.91108E-19
 -1       914 1.03323E-04-4.66807E-05-2.41375E-05 2.57181E-05 6.18010E-19-4.79960E-19
 -1       915 8.75660E-05-1.47464E-05-3.12100E-05 6.74473E-08-1.15660E-19-2.27433E-19
 -1       916 1.00355E-04-4.36533E-05-2.42112E-05-2.48993E-05-7.31585E-19 1.28772E-19
 -1       917 6.00195E-05-1.47965E-05-1.92168E-05 7.46822E-06-2.92855E-20-1.44516E-18
 -1       918 9.86051E-05-3.38616E-05-2.77474E-05-1.37573E-05-5.20583E-19 4.85239E-19
 -1       919 9.41733E-05-2.28115E-05-3.05837E-05-3.05068E-06-1.14197E-20-3.69346E-19
 -1       920 1.13978E-04-4.85426E-05-2.79968E-05-1.35482E-05-4.39872E-19 1.62849E-18
 -1       921 9.08234E-05-2.20618E-05-2.94690E-05 6.58380E-06-1.77509E-19 2.65357E-21
 -1       922 1.09245E-04-4.72956E-05-2.64945E-05 1.73784E-05 9.17932E-19-6.62936E-19
 -1       923 9.13756E-05-2.11133E-05-3.01128E-05 4.44102E-06-4.07743E-19 1.74021E-19
 -1       924 6.04704E-05-1.48781E-05-1.94361E-05 8.17961E-06 1.21326E-18 1.00938E-18
 -1       925 6.94280E-05-2.13695E-05-2.04999E-05-1.85522E-05-8.04964E-19-5.23175E-20
 -1       926 8.86859E-05-1.73580E-05-3.05693E-05-1.69258E-06-3.45449E-20-1.09974E-19
 -1       927 6.35743E-05-1.68679E-05-1.98884E-05-1.23500E-05-6.02237E-20-1.23573E-18
 -1       928 9.52481E-05-2.85386E-05-2.85898E-05-1.02628E-08-8.76211E-19 2.62902E-18
 -1       929 8.75622E-05-1.63364E-05-3.05256E-05-8.41795E-07 4.11646E-20-1.84735E-19
 -1       930 9.52482E-05-2.85358E-05-2.85910E-05 7.75203E-09-2.20441E-19 3.43272E-18
 -1       931 9.52397E-05-2.85086E-05-2.85990E-05-4.45190E-10 5.98827E-19-1.72845E-18
 -1       932 9.56979E-05-2.99045E-05-2.81974E-05-1.21801E-05-1.91781E-19-8.96445E-20
 -1       933 9.52395E-05-2.85085E-05-2.85990E-05-1.33315E-11 6.44173E-19-2.85034E-18
 -1       934 9.52423E-05-2.85143E-05-2.85977E-05 1.42280E-10 9.05175E-20-2.42221E-18
 -1       935 9.80056E-05-3.98915E-05-2.48195E-05 2.12820E-05 3.89777E-19 3.38595E-19
 -1       936 1.04051E-04-3.96801E-05-2.75803E-05-1.45405E-05-3.95055E-19 9.54968E-19
 -1       937 6.82240E-05-1.96397E-05-2.07059E-05 1.62260E-05 3.08387E-19-1.06200E-18
 -1       938 9.12425E-05-1.96771E-05-3.06707E-05 2.43804E-06-4.07017E-19 1.21118E-19
 -1       939 9.52463E-05-2.85251E-05-2.85948E-05-5.24583E-10-2.64271E-18 5.48997E-18
 -1       940 9.35975E-05-2.41308E-05-2.97716E-05-6.36526E-06 2.20404E-20-6.05084E-19
 -1       941 8.59058E-05-3.32613E-05-2.24166E-05 2.53446E-05 2.17006E-19-3.85630E-19
 -1       942 9.38104E-05-2.55235E-05-2.92655E-05-8.39018E-06 1.49369E-19-2.78213E-20
 -1       943 8.91521E-05-1.77264E-05-3.06046E-05 1.72107E-06-2.68076E-19 6.30353E-20
 -1       944 9.52459E-05-2.85280E-05-2.85934E-05-4.84033E-09-4.86320E-19-2.01724E-18
 -1       945 9.05511E-05-1.90921E-05-3.06266E-05-2.29029E-06 1.77487E-19-4.96137E-19
 -1       946 8.58801E-05-2.08717E-05-2.78609E-05 7.93650E-06-2.90155E-19-8.42436E-20
 -1       947 9.42352E-05-2.72504E-05-2.87080E-05-1.03688E-05-1.08133E-19 1.92854E-19
 -1       948 8.38406E-05-2.14862E-05-2.67245E-05 1.03684E-05-1.21774E-19 6.99438E-20
 -1       949 8.16115E-05-2.26594E-05-2.52635E-05 1.37037E-05 2.04793E-19-2.33873E-19
 -1       950 8.18874E-05-2.62481E-05-2.38260E-05 1.89663E-05 4.23861E-19-6.91387E-19
 -1       951 8.93351E-05-3.36292E-05-2.38378E-05-2.23593E-05-6.91467E-19 1.44896E-19
 -1       952 8.32432E-05-2.36257E-05-2.55455E-05-1.33498E-05 3.55787E-19 2.91354E-20
 -1       953 8.45490E-05-2.24271E-05-2.66236E-05-1.02935E-05 5.13633E-19-1.06246E-18
 -1       954 8.61086E-05-2.21467E-05-2.74122E-05-8.11716E-06 1.63828E-19-2.25667E-18
 -1       955 8.76479E-05-2.23931E-05-2.79664E-05-6.52433E-06-8.92387E-19-3.33335E-19
 -1       956 8.90635E-05-2.29347E-05-2.83409E-05-5.29074E-06-9.13389E-19-1.43367E-19
 -1       957 9.03082E-05-2.36167E-05-2.85821E-05-4.29449E-06-4.96283E-19 1.50472E-18
 -1       958 9.13696E-05-2.43400E-05-2.87270E-05-3.46741E-06 2.21674E-20 8.31744E-19
 -1       959 9.22530E-05-2.50428E-05-2.88044E-05-2.77295E-06-6.73694E-19 1.51046E-18
 -1       960 9.29733E-05-2.56892E-05-2.88361E-05-2.19018E-06 6.03782E-19 1.88232E-18
 -1       961 9.35497E-05-2.62607E-05-2.88382E-05-1.70507E-06 1.48831E-18 5.17111E-19
 -1       962 9.40031E-05-2.67511E-05-2.88223E-05-1.30619E-06-8.78381E-19-6.82055E-19
 -1       963 9.43537E-05-2.71615E-05-2.87967E-05-9.82927E-07-1.16756E-18-7.60805E-19
 -1       964 9.46202E-05-2.74978E-05-2.87668E-05-7.25008E-07-2.48732E-19-9.35357E-19
 -1       965 9.48190E-05-2.77679E-05-2.87362E-05-5.22532E-07 1.25163E-19-1.24083E-19
 -1       966 9.49643E-05-2.79811E-05-2.87071E-05-3.66211E-07-3.17958E-20-3.82774E-19
 -1       967 9.50680E-05-2.81464E-05-2.86807E-05-2.47588E-07-1.34521E-18-1.16768E-18
 -1       968 9.51400E-05-2.82724E-05-2.86575E-05-1.59253E-07 1.01215E-19-1.99541E-18
 -1       969 9.51882E-05-2.83670E-05-2.86377E-05-9.47772E-08 2.15939E-18-8.62708E-19
 -1       970 9.52186E-05-2.84366E-05-2.86209E-05-4.91137E-08 1.47401E-18 2.16849E-19
 -1       971 9.52370E-05-2.84881E-05-2.86067E-05-1.78368E-08 2.26111E-18 1.62059E-18
 -1       972 8.94855E-05-2.68749E-05-2.68328E-05 1.22734E-05 7.27001E-20-2.00770E-19
 -1       973 9.10781E-05-3.00827E-05-2.61343E-05 1.52234E-05-4.63119E-19 1.05693E-19
 -1       974 8.91567E-05-2.50767E-05-2.74628E-05 9.81184E-06-2.54180E-19-1.36438E-18
 -1       975 8.94881E-05-2.42705E-05-2.79500E-05 7.89299E-06-1.04754E-18-1.22188E-18
 -1       976 9.01338E-05-2.40890E-05-2.83047E-05 6.36706E-06-9.73677E-19-3.02142E-19
 -1       977 9.08958E-05-2.42847E-05-2.85475E-05 5.13291E-06-5.54930E-19 1.00369E-18
 -1       978 9.16615E-05-2.46899E-05-2.87021E-05 4.11938E-06-3.82258E-20 1.46846E-18
 -1       979 9.23701E-05-2.51920E-05-2.87906E-05 3.28027E-06-5.61130E-19 1.03241E-18
 -1       980 9.29924E-05-2.57179E-05-2.88319E-05 2.58505E-06-1.38350E-18 2.01266E-18
 -1       981 9.35189E-05-2.62226E-05-2.88412E-05 2.01192E-06-1.01070E-18 2.16222E-18
 -1       982 9.39510E-05-2.66806E-05-2.88301E-05 1.54369E-06-3.61643E-19 2.28324E-18
 -1       983 9.42966E-05-2.70799E-05-2.88071E-05 1.16557E-06 2.98045E-19 3.07586E-18
 -1       984 9.45667E-05-2.74174E-05-2.87783E-05 8.64240E-07 5.33715E-20 2.51728E-18
 -1       985 9.47732E-05-2.76953E-05-2.87477E-05 6.27497E-07 7.01893E-19 2.67210E-18
 -1       986 9.49273E-05-2.79190E-05-2.87178E-05 4.44284E-07 1.31464E-18 4.31596E-18
 -1       987 9.50396E-05-2.80954E-05-2.86903E-05 3.04730E-07-3.45455E-19 3.10715E-18
 -1       988 9.51191E-05-2.82319E-05-2.86659E-05 2.00226E-07 7.03322E-19 1.83145E-18
 -1       989 9.51734E-05-2.83355E-05-2.86448E-05 1.23495E-07-5.73705E-19 7.19155E-19
 -1       990 9.52089E-05-2.84128E-05-2.86269E-05 6.83550E-08-6.94493E-19 2.86109E-18
 -1       991 9.52307E-05-2.84696E-05-2.86119E-05 3.02378E-08-1.14171E-18 3.20737E-18
 -1       992 8.75872E-05-2.04006E-05-2.87938E-05 6.00340E-06-2.53097E-19 7.94763E-20
 -1       993 8.87740E-05-1.97216E-05-2.95978E-05 4.18631E-06-3.07913E-19 2.69671E-19
 -1       994 9.52425E-05-2.85170E-05-2.85966E-05-1.18287E-09 1.37361E-18-4.72842E-18
 -1       995 8.73955E-05-1.61751E-05-3.05221E-05 1.70797E-07-3.27917E-20-3.58153E-19
 -1       996 9.39484E-05-2.35254E-05-3.01812E-05-4.79580E-06 2.18234E-20-5.68958E-19
 -1       997 8.04097E-05-2.82622E-05-2.23115E-05 2.17762E-05 5.15871E-19 2.02832E-18
 -1       998 8.91197E-05-1.88636E-05-3.01052E-05 2.92329E-06-3.10999E-19 1.73351E-19
 -1       999 9.52270E-05-2.84709E-05-2.86098E-05-8.08194E-09 1.14210E-19-3.53599E-18
 -1      1000 8.79510E-05-1.66757E-05-3.05457E-05 9.46797E-07-1.44922E-20-1.93583E-19
 -1      1001 8.26423E-05-2.63623E-05-2.40781E-05-1.78601E-05 3.26100E-19-1.02967E-18
 -1      1002 6.54177E-05-1.53877E-05-2.13923E-05-3.20658E-06-6.76169E-19-2.41904E-19
 -1      1003 7.06687E-05-1.80527E-05-2.25099E-05-1.01781E-05-6.24784E-19-3.86821E-21
 -1      1004 8.12888E-05-2.61857E-05-2.35825E-05-1.87917E-05-6.35637E-19-3.76025E-19
 -1      1005 9.52419E-05-2.85067E-05-2.86008E-05-6.79173E-09-1.12138E-19 7.74687E-19
 -1      1006 7.19564E-05-2.03459E-05-2.20554E-05 1.47846E-05 4.58267E-19 2.10944E-18
 -1      1007 6.32520E-05-1.46385E-05-2.07627E-05-2.37902E-06 1.74113E-19 6.31266E-19
 -1      1008 8.76551E-05-1.80057E-05-2.98505E-05-2.19282E-06-5.91580E-20-1.51625E-19
 -1      1009 9.52417E-05-2.85096E-05-2.85995E-05 3.37948E-09 4.32703E-19-5.80766E-19
 -1      1010 9.52242E-05-2.84662E-05-2.86106E-05-3.06604E-10 9.78548E-19-3.15644E-18
 -1      1011 9.10516E-05-2.84954E-05-2.68152E-05-1.43987E-05-5.89390E-19 6.59796E-19
 -1      1012 7.52962E-05-2.09683E-05-2.32539E-05-1.40207E-05 7.11543E-19 8.68411E-19
 -1      1013 9.14800E-05-2.15818E-05-2.99571E-05-4.70030E-06 2.00019E-20-5.03605E-19
 -1      1014 9.12830E-05-2.28916E-05-2.93097E-05-6.79179E-06-2.47266E-19-2.91971E-19
 -1      1015 6.96021E-05-1.70279E-05-2.24891E-05 8.08239E-06-2.48830E-19-9.49769E-19
 -1      1016 9.52368E-05-2.84905E-05-2.86055E-05 1.50069E-08-1.76906E-19 1.87468E-18
 -1      1017 9.52337E-05-2.84833E-05-2.86072E-05-1.33165E-08 5.96591E-19-1.45900E-18
 -1      1018 8.63704E-05-1.86637E-05-2.90156E-05 3.05393E-06-4.36252E-19 1.91223E-21
 -1      1019 9.08284E-05-2.41419E-05-2.85788E-05-8.97060E-06-3.63713E-19-9.08657E-20
 -1      1020 8.14198E-05-1.88522E-05-2.68158E-05 5.62805E-06-2.50513E-19-5.04169E-19
 -1      1021 7.75216E-05-1.85861E-05-2.52577E-05 7.53665E-06-2.38487E-19-7.87630E-19
 -1      1022 7.81799E-05-1.93971E-05-2.51949E-05-8.36753E-06-1.38845E-19-3.37390E-20
 -1      1023 8.14505E-05-1.98554E-05-2.63972E-05-6.34931E-06-5.96864E-19-3.32971E-19
 -1      1024 8.41083E-05-2.05402E-05-2.72438E-05-4.99156E-06 7.79626E-19-1.00916E-18
 -1      1025 8.63101E-05-2.13792E-05-2.78277E-05-4.00660E-06 2.04531E-19-1.00068E-18
 -1      1026 8.81336E-05-2.22824E-05-2.82221E-05-3.25617E-06 9.95978E-19 3.96171E-19
 -1      1027 8.96435E-05-2.31904E-05-2.84800E-05-2.64930E-06-4.31964E-20 1.08094E-18
 -1      1028 9.08861E-05-2.40586E-05-2.86404E-05-2.14294E-06 9.92072E-20 1.03817E-18
 -1      1029 9.18987E-05-2.48566E-05-2.87324E-05-1.71532E-06-1.28764E-19 1.51655E-19
 -1      1030 9.27141E-05-2.55670E-05-2.87774E-05-1.35468E-06 2.35400E-19 1.25938E-19
 -1      1031 9.33619E-05-2.61823E-05-2.87913E-05-1.05340E-06-3.32975E-19-1.36044E-18
 -1      1032 9.38692E-05-2.67029E-05-2.87856E-05-8.05126E-07-9.41794E-19-2.72997E-18
 -1      1033 9.42603E-05-2.71340E-05-2.87684E-05-6.03753E-07-9.46821E-19-2.52425E-18
 -1      1034 9.45569E-05-2.74843E-05-2.87454E-05-4.43134E-07 1.66829E-19-3.39314E-18
 -1      1035 9.47777E-05-2.77637E-05-2.87203E-05-3.17211E-07-3.66906E-19-3.26566E-18
 -1      1036 9.49387E-05-2.79827E-05-2.86954E-05-2.20235E-07 3.74356E-19-3.83511E-18
 -1      1037 9.50532E-05-2.81513E-05-2.86723E-05-1.46756E-07-6.73282E-19-1.04168E-18
 -1      1038 9.51323E-05-2.82790E-05-2.86514E-05-9.28669E-08 1.64951E-18-1.79145E-18
 -1      1039 9.51848E-05-2.83742E-05-2.86331E-05-5.35858E-08 2.90378E-18-2.23153E-18
 -1      1040 8.56127E-05-2.22796E-05-2.71424E-05 7.50754E-06-8.13283E-19 1.12679E-18
 -1      1041 8.94749E-05-1.95570E-05-2.99653E-05-3.52992E-06 1.20263E-20 3.80245E-20
 -1      1042 9.03022E-05-2.57183E-05-2.76805E-05-1.14801E-05-1.89961E-19 2.70724E-19
 -1      1043 8.68482E-05-1.73072E-05-2.98029E-05-5.12525E-07-1.13882E-19-3.52732E-19
 -1      1044 8.30633E-05-2.39720E-05-2.53204E-05 1.31035E-05-4.35183E-19 8.86590E-19
 -1      1045 8.70893E-05-2.23957E-05-2.77255E-05 5.81186E-06-9.24809E-19 5.24074E-19
 -1      1046 8.84821E-05-2.28290E-05-2.81369E-05 4.55491E-06-1.07547E-18 6.86834E-19
 -1      1047 8.97401E-05-2.34344E-05-2.84167E-05 3.58784E-06-7.11368E-19 2.02731E-19
 -1      1048 9.08438E-05-2.41152E-05-2.85980E-05 2.82521E-06-4.08231E-19 1.70362E-18
 -1      1049 9.17880E-05-2.48044E-05-2.87073E-05 2.21443E-06-1.99344E-18 1.64367E-18
 -1      1050 9.25778E-05-2.54582E-05-2.87656E-05 1.72182E-06-5.38305E-19 4.37105E-19
 -1      1051 9.32249E-05-2.60507E-05-2.87890E-05 1.32447E-06-6.82501E-19-2.17115E-19
 -1      1052 9.37445E-05-2.65691E-05-2.87895E-05 1.00556E-06-5.24611E-19-8.19579E-19
 -1      1053 9.41538E-05-2.70099E-05-2.87760E-05 7.51761E-07-9.10591E-20 6.97717E-19
 -1      1054 9.44701E-05-2.73756E-05-2.87548E-05 5.51965E-07 2.65771E-19 1.41606E-18
 -1      1055 9.47096E-05-2.76723E-05-2.87303E-05 3.96638E-07 3.91484E-19 1.60732E-18
 -1      1056 9.48870E-05-2.79083E-05-2.87052E-05 2.77559E-07 8.51225E-19 1.42641E-18
 -1      1057 9.50153E-05-2.80924E-05-2.86812E-05 1.87630E-07 1.76947E-18 5.91425E-19
 -1      1058 9.51056E-05-2.82337E-05-2.86594E-05 1.20730E-07 6.89612E-19-5.21886E-19
 -1      1059 9.51667E-05-2.83397E-05-2.86401E-05 7.22115E-08-2.36475E-18-7.16581E-19
 -1      1060 9.52061E-05-2.84181E-05-2.86234E-05 3.80975E-08-7.02663E-19-1.14215E-18
 -1      1061 8.42958E-05-1.89088E-05-2.80260E-05 4.19048E-06-5.31423E-19-2.50971E-19
 -1      1062 9.36371E-05-3.30222E-05-2.59422E-05-1.78671E-05-6.17128E-19 6.37420E-19
 -1      1063 7.57345E-05-1.98953E-05-2.39288E-05 1.19365E-05-1.17148E-19-8.52268E-19
 -1      1064 8.37421E-05-2.54554E-05-2.49470E-05-1.57298E-05-6.95461E-19-2.29601E-20
 -1      1065 8.41765E-05-2.26940E-05-2.63505E-05 9.81890E-06 1.84573E-19 8.98275E-19
 -1      1066 9.52093E-05-2.84265E-05-2.86212E-05-2.79323E-08 2.38126E-18-4.62100E-20
 -1      1067 7.27172E-05-1.66044E-05-2.40367E-05 4.77768E-07-4.03595E-19-2.76234E-19
 -1      1068 8.77722E-05-1.96388E-05-2.92009E-05-4.23189E-06-9.25234E-20-3.34835E-20
 -1      1069 8.61022E-05-1.82972E-05-2.90587E-05-2.03267E-06-2.71668E-19-4.67845E-20
 -1      1070 8.47896E-05-2.32684E-05-2.63704E-05-1.17273E-05-4.87972E-19 3.29756E-21
 -1      1071 6.82825E-05-1.63533E-05-2.22201E-05 6.66300E-06 4.36399E-19 1.82847E-18
 -1      1072 7.50784E-05-1.76260E-05-2.46162E-05-4.88457E-06-5.75653E-19-2.07443E-19
 -1      1073 9.52361E-05-2.84945E-05-2.86035E-05 5.03916E-09 1.79253E-18-3.96020E-18
 -1      1074 9.52010E-05-2.84138E-05-2.86231E-05-1.06093E-08 7.00772E-19-2.51521E-18
 -1      1075 9.52190E-05-2.84488E-05-2.86158E-05 2.22127E-08-6.75323E-19-3.85227E-18
 -1      1076 9.52299E-05-2.84793E-05-2.86074E-05 4.20351E-09 1.05304E-18-3.37704E-18
 -1      1077 7.15533E-05-1.70933E-05-2.33310E-05-6.65909E-06 8.75564E-19-1.57745E-18
 -1      1078 8.69672E-05-1.73927E-05-2.98167E-05 9.07923E-07-1.11836E-19-2.90820E-19
 -1      1079 8.93604E-05-2.11579E-05-2.92301E-05-5.65793E-06-2.08920E-19-2.12742E-19
 -1      1080 8.83195E-05-2.21195E-05-2.83718E-05-7.70627E-06-4.80491E-19-3.40978E-19
 -1      1081 9.51693E-05-2.83529E-05-2.86356E-05-2.46171E-08 2.48892E-18-5.73417E-19
 -1      1082 8.09386E-05-1.90091E-05-2.65405E-05-2.23158E-06-1.03221E-18 8.30656E-19
 -1      1083 8.38949E-05-2.01360E-05-2.73250E-05-1.81286E-06 1.64566E-19 9.76440E-19
 -1      1084 8.62304E-05-2.12066E-05-2.78674E-05-1.52990E-06 1.16760E-18 1.59815E-20
 -1      1085 8.81239E-05-2.22447E-05-2.82340E-05-1.29198E-06 3.33082E-19-9.35925E-19
 -1      1086 8.96677E-05-2.32279E-05-2.84743E-05-1.08277E-06 1.29024E-19-1.10367E-18
 -1      1087 9.09252E-05-2.41348E-05-2.86245E-05-8.95107E-07 5.29817E-19-1.28244E-18
 -1      1088 9.19428E-05-2.49496E-05-2.87114E-05-7.27590E-07 1.49322E-20-6.55284E-19
 -1      1089 9.27581E-05-2.56635E-05-2.87549E-05-5.80546E-07-6.25175E-19-2.33961E-18
 -1      1090 9.34031E-05-2.62747E-05-2.87694E-05-4.54220E-07-1.55313E-18-2.11971E-18
 -1      1091 9.39063E-05-2.67871E-05-2.87654E-05-3.48127E-07-1.13377E-18-3.89594E-18
 -1      1092 9.42928E-05-2.72081E-05-2.87506E-05-2.60994E-07-4.55835E-19-3.92391E-18
 -1      1093 9.45846E-05-2.75477E-05-2.87301E-05-1.90957E-07 2.53296E-19-2.93551E-18
 -1      1094 9.48007E-05-2.78166E-05-2.87075E-05-1.35802E-07 5.95142E-21-2.36725E-18
 -1      1095 9.49574E-05-2.80261E-05-2.86849E-05-9.34086E-08 8.55090E-19-1.66173E-18
 -1      1096 9.50679E-05-2.81866E-05-2.86635E-05-6.01033E-08 1.46356E-18 5.48096E-19
 -1      1097 9.51258E-05-2.82775E-05-2.86490E-05-4.05835E-08 1.75153E-18 1.93420E-18
 -1      1098 7.73686E-05-1.99178E-05-2.46238E-05 9.68813E-06 4.52236E-20 1.66862E-18
 -1      1099 8.38888E-05-2.06270E-05-2.71123E-05 4.31924E-06-7.44705E-19 3.87034E-19
 -1      1100 8.93494E-05-2.30926E-05-2.83961E-05 1.91331E-06-1.11895E-18-1.09445E-19
 -1      1101 9.06125E-05-2.39387E-05-2.85748E-05 1.47292E-06-4.90830E-19 7.84728E-20
 -1      1102 9.16565E-05-2.47304E-05-2.86828E-05 1.13108E-06 4.45480E-19-1.75736E-18
 -1      1103 9.25083E-05-2.54456E-05-2.87413E-05 8.63324E-07-4.96808E-19-1.87242E-18
 -1      1104 9.31933E-05-2.60729E-05-2.87660E-05 6.53001E-07-4.73261E-19-8.68848E-19
 -1      1105 9.37354E-05-2.66088E-05-2.87686E-05 4.88108E-07-5.95105E-19-1.99096E-18
 -1      1106 9.41574E-05-2.70563E-05-2.87576E-05 3.59542E-07-8.43900E-19-2.50085E-18
 -1      1107 9.44801E-05-2.74222E-05-2.87391E-05 2.60122E-07 3.25328E-19-1.97850E-18
 -1      1108 9.47220E-05-2.77156E-05-2.87170E-05 1.84041E-07 9.24061E-19-1.85632E-18
 -1      1109 9.48997E-05-2.79465E-05-2.86942E-05 1.26547E-07 1.65823E-18-1.23586E-18
 -1      1110 9.50272E-05-2.81245E-05-2.86723E-05 8.49182E-08 1.97984E-18-1.35464E-18
 -1      1111 9.51158E-05-2.82611E-05-2.86521E-05 5.40625E-08 8.15593E-19-1.53450E-18
 -1      1112 9.51746E-05-2.83620E-05-2.86341E-05 2.95470E-08-5.93247E-19-4.51005E-18
 -1      1113 8.16540E-05-1.80473E-05-2.72617E-05 1.00399E-06-5.25351E-19 9.42215E-20
 -1      1114 8.60347E-05-2.13870E-05-2.77070E-05 3.26368E-06-1.29208E-18 5.27170E-19
 -1      1115 8.56474E-05-1.79025E-05-2.90347E-05-4.65274E-08-3.84626E-19-3.46614E-19
 -1      1116 8.13078E-05-2.00106E-05-2.62784E-05 5.87784E-06-1.40573E-19 1.07657E-18
 -1      1117 8.78363E-05-2.22263E-05-2.81191E-05 2.49001E-06-2.27408E-19 5.69480E-20
 -1      1118 7.72016E-05-1.79173E-05-2.54039E-05-2.78775E-06 6.17568E-19 2.62255E-19
 -1      1119 7.75132E-05-2.03680E-05-2.44865E-05-1.11153E-05-5.56426E-19 3.54124E-20
 -1      1120 8.67560E-05-2.26473E-05-2.74751E-05-9.49585E-06-6.49991E-19-2.02828E-19
 -1      1121 7.78549E-05-1.74648E-05-2.58706E-05 8.79385E-07-3.78199E-19 9.19879E-20
 -1      1122 8.54058E-05-1.93859E-05-2.82927E-05-4.36060E-06-3.60136E-19 2.20621E-19
 -1      1123 7.22354E-05-1.64672E-05-2.38979E-05 5.73586E-07 9.02518E-19 1.08474E-19
 -1      1124 9.51955E-05-2.84023E-05-2.86255E-05 1.79997E-08-3.22797E-19-4.46995E-18
 -1      1125 9.52068E-05-2.84263E-05-2.86202E-05 3.89210E-09-1.07533E-18-2.11945E-18
 -1      1126 8.66379E-05-2.06061E-05-2.82978E-05-6.15936E-06-4.65789E-19-3.53185E-20
 -1      1127 8.11208E-05-1.99947E-05-2.61978E-05-7.95524E-06-3.43322E-19-8.85013E-20
 -1      1128 7.63997E-05-1.78223E-05-2.51078E-05 2.88684E-06 8.99796E-19-1.52127E-19
 -1      1129 8.23840E-05-1.95866E-05-2.69194E-05 1.24055E-06-3.29997E-19 2.95224E-19
 -1      1130 8.49568E-05-2.06303E-05-2.75677E-05 8.33153E-07-4.21452E-19-5.04998E-19
 -1      1131 8.70705E-05-2.16766E-05-2.80254E-05 5.53550E-07-3.52409E-19-1.67199E-18
 -1      1132 8.87926E-05-2.26814E-05-2.83329E-05 3.64868E-07-3.90462E-19-2.01934E-18
 -1      1133 9.02022E-05-2.36255E-05-2.85325E-05 2.38048E-07-2.69430E-19-2.71450E-18
 -1      1134 9.13520E-05-2.44894E-05-2.86551E-05 1.53544E-07 7.87019E-19-3.22431E-18
 -1      1135 9.22820E-05-2.52593E-05-2.87238E-05 9.78377E-08-8.51707E-19-2.96627E-18
 -1      1136 9.30255E-05-2.59288E-05-2.87556E-05 6.15337E-08-1.09647E-18-3.31586E-18
 -1      1137 9.36119E-05-2.64979E-05-2.87630E-05 3.81458E-08-9.85067E-19-1.50334E-18
 -1      1138 9.40674E-05-2.69714E-05-2.87553E-05 2.32477E-08-1.12821E-18-7.43008E-19
 -1      1139 9.44153E-05-2.73579E-05-2.87389E-05 1.38591E-08 4.61015E-19-1.61315E-18
 -1      1140 9.46763E-05-2.76673E-05-2.87181E-05 7.99760E-09 2.62688E-19-1.66777E-18
 -1      1141 9.48680E-05-2.79106E-05-2.86960E-05 4.29110E-09 1.73200E-18-9.89397E-19
 -1      1142 9.50067E-05-2.81002E-05-2.86743E-05 3.43120E-09 1.79802E-18 1.99493E-19
 -1      1143 8.08308E-05-1.84144E-05-2.67477E-05-3.56929E-06-3.76796E-19-2.13349E-19
 -1      1144 9.51422E-05-2.83068E-05-2.86438E-05 3.89403E-09 7.35646E-19-2.39237E-19
 -1      1145 8.39905E-05-1.86035E-05-2.80220E-05-2.70536E-06-3.84017E-19-8.19801E-20
 -1      1146 8.37791E-05-1.95101E-05-2.75535E-05-5.27663E-06-5.98930E-19 2.37647E-19
 -1      1147 8.43016E-05-2.04585E-05-2.73583E-05-7.06042E-06-4.77099E-19 1.48603E-19
 -1      1148 1.16624E-04 2.58350E-10-4.19250E-05-4.03168E-05-1.18585E-20 3.12174E-18
 -1      1149 8.97125E-05 7.57677E-11-3.76171E-05-2.24924E-05-2.78462E-20 1.52439E-18
 -1      1150 8.51784E-05 4.38066E-11-3.61759E-05-1.57515E-05-3.35107E-20 5.68147E-19
 -1      1151 8.30791E-05 3.22256E-11-3.53688E-05-1.15111E-05-2.22876E-20-1.21496E-20
 -1      1152 8.17462E-05 2.54180E-11-3.48421E-05-8.28415E-06-1.85553E-20-3.70947E-19
 -1      1153 8.07945E-05 2.08002E-11-3.44692E-05-5.71623E-06-1.78671E-20-6.04937E-19
 -1      1154 8.01203E-05 1.76748E-11-3.42067E-05-3.58865E-06-1.42804E-20-7.23075E-19
 -1      1155 7.97104E-05 1.58767E-11-3.40478E-05-1.72478E-06-1.34797E-20-7.50332E-19
 -1      1156 7.95805E-05 1.53548E-11-3.39971E-05 4.80237E-09-1.93560E-21-8.32686E-19
 -1      1157 7.97326E-05 1.60832E-11-3.40550E-05 1.74661E-06-3.30211E-21-9.44521E-19
 -1      1158 8.01580E-05 1.80575E-11-3.42187E-05 3.64535E-06 1.98523E-22-9.87581E-19
 -1      1159 8.08391E-05 2.12717E-11-3.44819E-05 5.82492E-06 1.01644E-20-9.76245E-19
 -1      1160 8.17850E-05 2.59989E-11-3.48527E-05 8.45487E-06 6.19393E-21-9.25840E-19
 -1      1161 8.31014E-05 3.28916E-11-3.53770E-05 1.17542E-05 1.60407E-20-8.18340E-19
 -1      1162 8.51589E-05 4.43142E-11-3.61887E-05 1.60515E-05 2.73168E-20-5.75347E-19
 -1      1163 8.93863E-05 7.07573E-11-3.76736E-05 2.23997E-05 2.66815E-20 1.37537E-19
 -1      1164 1.06671E-04 1.67257E-10-4.07370E-05 3.51016E-05 6.60686E-20 1.70794E-18
 -1      1165 1.29582E-04-2.58348E-05-4.02954E-05-2.53487E-05-9.66676E-20 4.25846E-18
 -1      1166 9.88523E-05-2.92953E-05-3.20040E-05-5.20480E-07-2.58345E-20 3.98593E-18
 -1      1167 9.31554E-05-2.79418E-05-2.87784E-05 4.21716E-07 2.00112E-20 3.48326E-18
 -1      1168 9.27287E-05-2.79315E-05-2.80007E-05 2.77151E-07-2.24232E-20 3.01030E-18
 -1      1169 9.40703E-05-2.83162E-05-2.82729E-05 2.02959E-07-3.73224E-21 2.96377E-18
 -1      1170 9.65003E-05-2.90153E-05-2.89899E-05 1.74017E-07-2.59702E-20 2.87237E-18
 -1      1171 9.97207E-05-2.99589E-05-2.99567E-05 1.68633E-07 9.77546E-20 2.76609E-18
 -1      1172 1.03555E-04-3.10918E-05-3.10988E-05 1.76517E-07 1.52838E-20 3.22577E-18
 -1      1173 1.07804E-04-3.23487E-05-3.23479E-05 1.88131E-07-1.15216E-20 2.45184E-18
 -1      1174 1.12132E-04-3.36258E-05-3.35939E-05 1.89169E-07-1.45286E-20 1.69637E-18
 -1      1175 1.15959E-04-3.47478E-05-3.46550E-05 1.56090E-07 5.05407E-21 7.04361E-19
 -1      1176 1.18387E-04-3.54467E-05-3.52667E-05 5.59485E-08 2.22095E-19 1.39031E-18
 -1      1177 1.18257E-04-3.53826E-05-3.51196E-05-1.40197E-07-1.51123E-19 2.07862E-18
 -1      1178 1.14523E-04-3.42561E-05-3.39780E-05-4.23208E-07-3.28887E-21 1.68035E-18
 -1      1179 1.07002E-04-3.20326E-05-3.18763E-05-7.01506E-07 7.02673E-20 3.06785E-18
 -1      1180 9.72449E-05-2.91881E-05-2.92926E-05-7.97961E-07-3.26247E-19 3.19501E-18
 -1      1181 8.86629E-05-2.67155E-05-2.71049E-05-5.57332E-07-1.55510E-21 3.04498E-18
 -1      1182 8.50968E-05-2.56972E-05-2.62187E-05-2.43899E-08-4.34237E-20 3.66315E-18
 -1      1183 8.83701E-05-2.66360E-05-2.70467E-05 5.24044E-07-2.16556E-19 2.23781E-18
 -1      1184 9.69574E-05-2.91120E-05-2.92459E-05 7.98320E-07 2.04247E-20 9.23054E-19
 -1      1185 1.07114E-04-3.20730E-05-3.19385E-05 7.29622E-07-1.20894E-19 7.57459E-19
 -1      1186 1.15317E-04-3.44966E-05-3.42278E-05 4.61682E-07 1.20444E-19 1.80090E-18
 -1      1187 1.19844E-04-3.58584E-05-3.55967E-05 1.77137E-07 1.27703E-19 2.77287E-18
 -1      1188 1.20769E-04-3.61597E-05-3.59794E-05-2.28139E-08-1.14588E-19 2.30916E-18
 -1      1189 1.19108E-04-3.56899E-05-3.55993E-05-1.23718E-07 7.79535E-21 2.52156E-18
 -1      1190 1.16029E-04-3.47908E-05-3.47658E-05-1.52814E-07 9.48586E-20 3.50727E-18
 -1      1191 1.12449E-04-3.37348E-05-3.37463E-05-1.42705E-07 3.98518E-19 5.83577E-18
 -1      1192 1.08947E-04-3.26955E-05-3.27221E-05-1.16875E-07-4.66943E-21 5.27696E-18
 -1      1193 1.05823E-04-3.17645E-05-3.17937E-05-8.84327E-08-7.42626E-20 3.07821E-18
 -1      1194 1.03194E-04-3.09779E-05-3.10041E-05-6.32299E-08 4.46271E-19 3.36979E-18
 -1      1195 1.01068E-04-3.03398E-05-3.03609E-05-4.30860E-08 8.06294E-20 4.63438E-18
 -1      1196 9.94004E-05-2.98377E-05-2.98538E-05-2.79368E-08 1.60628E-19 5.55939E-18
 -1      1197 9.81241E-05-2.94525E-05-2.94643E-05-1.70144E-08-2.79355E-19 2.46904E-18
 -1      1198 9.71694E-05-2.91636E-05-2.91720E-05-9.40682E-09 4.81791E-21 3.03547E-19
 -1      1199 9.64711E-05-2.89517E-05-2.89575E-05-4.28466E-09 9.39925E-20 1.23380E-18
 -1      1200 9.59725E-05-2.88000E-05-2.88038E-05-9.69625E-10-1.12999E-20 1.88921E-18
 -1      1201 9.56263E-05-2.86944E-05-2.86968E-05 1.06420E-09-1.29918E-19-3.89685E-19
 -1      1202 9.53944E-05-2.86233E-05-2.86247E-05 2.21213E-09 2.60363E-19 1.15986E-19
 -1      1203 9.52463E-05-2.85776E-05-2.85784E-05 2.76529E-09-1.58275E-19 1.29275E-18
 -1      1204 9.51587E-05-2.85504E-05-2.85507E-05 2.93471E-09-3.65407E-21 2.27185E-18
 -1      1205 9.51137E-05-2.85361E-05-2.85361E-05 2.87100E-09-1.76309E-19 2.66437E-18
 -1      1206 9.50978E-05-2.85307E-05-2.85306E-05 2.67977E-09-1.17949E-19 1.58797E-18
 -1      1207 9.51012E-05-2.85313E-05-2.85311E-05 2.43323E-09 4.30992E-19 8.41347E-19
 -1      1208 9.51168E-05-2.85357E-05-2.85354E-05 2.17829E-09-3.30824E-19 6.48297E-19
 -1      1209 9.51394E-05-2.85422E-05-2.85420E-05 1.94114E-09-7.47241E-21-2.15172E-18
 -1      1210 9.51653E-05-2.85498E-05-2.85495E-05 1.72710E-09 4.05185E-19 1.15467E-19
 -1      1211 9.51915E-05-2.85575E-05-2.85571E-05 1.51005E-09-5.21786E-19 1.46621E-18
 -1      1212 9.52148E-05-2.85643E-05-2.85638E-05 1.17795E-09 4.65318E-19 2.97059E-18
 -1      1213 9.52316E-05-2.85692E-05-2.85686E-05 4.93121E-10 6.03797E-20 5.45310E-18
 -1      1214 9.52378E-05-2.85714E-05-2.85714E-05-3.05943E-10 4.20225E-19 3.99514E-18
 -1      1215 1.30375E-04-3.74498E-05-3.87340E-05 1.19411E-05-4.07370E-20 3.04805E-18
 -1      1216 9.80255E-05-2.86437E-05-3.17661E-05 7.43215E-07 2.53051E-20 2.28011E-18
 -1      1217 9.33017E-05-2.78270E-05-2.87430E-05 1.05733E-07 1.44260E-20 1.41233E-18
 -1      1218 9.26762E-05-2.78173E-05-2.79944E-05 9.21153E-09-2.48353E-20 8.82317E-19
 -1      1219 9.38505E-05-2.81966E-05-2.82180E-05-2.31574E-08-5.55865E-20 6.52321E-19
 -1      1220 9.60541E-05-2.88492E-05-2.88586E-05-3.97945E-08 3.92150E-20 2.43919E-19
 -1      1221 9.89284E-05-2.96980E-05-2.97151E-05-5.78403E-08-1.51854E-19 4.80321E-19
 -1      1222 1.02237E-04-3.06758E-05-3.06941E-05-8.28046E-08-2.56025E-20 7.47348E-19
 -1      1223 1.05722E-04-3.17041E-05-3.17106E-05-1.15592E-07 1.23485E-20 9.05002E-20
 -1      1224 1.09014E-04-3.26720E-05-3.26478E-05-1.51940E-07-1.31679E-20-7.17066E-20
 -1      1225 1.11571E-04-3.34206E-05-3.33409E-05-1.78972E-07 1.37061E-19-5.10801E-19
 -1      1226 1.12669E-04-3.37415E-05-3.35834E-05-1.72464E-07-4.39630E-20-7.48843E-19
 -1      1227 1.11528E-04-3.34113E-05-3.31723E-05-1.00954E-07 8.66521E-20-6.32628E-19
 -1      1228 1.07620E-04-3.22778E-05-3.20028E-05 5.53751E-08 1.07037E-20-7.93035E-19
 -1      1229 1.01167E-04-3.03965E-05-3.01908E-05 2.72372E-07 1.42622E-20-1.17658E-18
 -1      1230 9.35600E-05-2.81524E-05-2.81488E-05 4.62594E-07 1.91989E-20-2.32675E-18
 -1      1231 8.72271E-05-2.62428E-05-2.65126E-05 5.07386E-07-1.69522E-19-1.99503E-18
 -1      1232 8.46623E-05-2.54188E-05-2.58850E-05 3.46396E-07 5.80416E-20-2.89153E-18
 -1      1233 8.70224E-05-2.60705E-05-2.65265E-05 4.34170E-08-3.81032E-20-3.32180E-18
 -1      1234 9.33792E-05-2.79579E-05-2.82103E-05-2.50094E-07-1.13061E-19-1.15514E-18
 -1      1235 1.01321E-04-3.03572E-05-3.03479E-05-4.09284E-07-1.72161E-20 7.80435E-19
 -1      1236 1.08355E-04-3.24966E-05-3.23013E-05-4.11187E-07-4.28992E-19 2.49366E-18
 -1      1237 1.12980E-04-3.39033E-05-3.36474E-05-3.10328E-07-1.15144E-20 5.85194E-19
 -1      1238 1.14885E-04-3.44802E-05-3.42578E-05-1.79418E-07 1.93332E-19-1.66811E-18
 -1      1239 1.14558E-04-3.43791E-05-3.42296E-05-6.68861E-08 7.77417E-20-2.80184E-18
 -1      1240 1.12775E-04-3.38393E-05-3.37615E-05 9.46951E-09 6.19955E-20-1.38880E-18
 -1      1241 1.10262E-04-3.30816E-05-3.30564E-05 5.14472E-08 3.24085E-20-5.75109E-19
 -1      1242 1.07552E-04-3.22665E-05-3.22732E-05 6.83391E-08-1.39199E-20-1.32878E-20
 -1      1243 1.04975E-04-3.14929E-05-3.15153E-05 6.97960E-08-3.22609E-19-3.16909E-19
 -1      1244 1.02702E-04-3.08113E-05-3.08391E-05 6.31794E-08-1.73389E-19 2.80500E-19
 -1      1245 1.00798E-04-3.02404E-05-3.02679E-05 5.32563E-08-1.61623E-19 1.86566E-19
 -1      1246 9.92616E-05-2.97799E-05-2.98043E-05 4.27642E-08-6.72006E-20 1.15687E-18
 -1      1247 9.80601E-05-2.94197E-05-2.94401E-05 3.30903E-08-8.86076E-20 3.00089E-18
 -1      1248 9.71455E-05-2.91454E-05-2.91617E-05 2.48129E-08 9.89684E-20 5.25331E-19
 -1      1249 9.64671E-05-2.89419E-05-2.89545E-05 1.80647E-08-3.02598E-19-1.80764E-18
 -1      1250 9.59772E-05-2.87947E-05-2.88043E-05 1.27545E-08-1.04760E-19-3.42564E-18
 -1      1251 9.56339E-05-2.86916E-05-2.86986E-05 8.69462E-09-1.42302E-19-4.08080E-18
 -1      1252 9.54020E-05-2.86218E-05-2.86268E-05 5.67008E-09 2.89160E-19-3.75305E-18
 -1      1253 9.52528E-05-2.85769E-05-2.85803E-05 3.47290E-09-2.18672E-19-3.62716E-18
 -1      1254 9.51638E-05-2.85500E-05-2.85523E-05 1.91792E-09-2.49246E-19-2.85618E-18
 -1      1255 9.51174E-05-2.85359E-05-2.85374E-05 8.47838E-10 2.03786E-20-3.67881E-18
 -1      1256 9.51004E-05-2.85306E-05-2.85316E-05 1.33012E-10-1.97545E-19-2.35263E-18
 -1      1257 9.51030E-05-2.85313E-05-2.85318E-05-3.31528E-10-1.56381E-19-1.72413E-18
 -1      1258 9.51179E-05-2.85357E-05-2.85360E-05-6.30265E-10 3.26367E-19-1.04415E-19
 -1      1259 9.51402E-05-2.85422E-05-2.85423E-05-8.30541E-10 2.22676E-19-2.08934E-18
 -1      1260 9.51658E-05-2.85498E-05-2.85498E-05-9.83283E-10 1.34197E-19-3.28092E-18
 -1      1261 9.51917E-05-2.85575E-05-2.85573E-05-1.12138E-09-7.35729E-20-6.07358E-18
 -1      1262 9.52149E-05-2.85644E-05-2.85639E-05-1.21787E-09-3.07663E-19-7.18643E-18
 -1      1263 9.52317E-05-2.85693E-05-2.85687E-05-1.01557E-09 7.80761E-19-8.98607E-18
 -1      1264 9.52378E-05-2.85714E-05-2.85714E-05 2.42508E-10 9.88494E-20-5.68940E-18
 -1      1265 9.52368E-05-2.85705E-05-2.85714E-05 1.57460E-10-6.14739E-18 8.57536E-20
 -1      1266 9.52390E-05-2.85769E-05-2.85687E-05-4.17155E-10-4.74782E-18-1.36633E-19
 -1      1267 9.52436E-05-2.85925E-05-2.85643E-05-1.07148E-09 4.41488E-18 6.51595E-20
 -1      1268 9.52494E-05-2.86121E-05-2.85589E-05-1.12305E-09 3.90571E-18-3.50863E-19
 -1      1269 9.52552E-05-2.86316E-05-2.85533E-05-9.55844E-10 4.09365E-18-5.59394E-19
 -1      1270 9.52601E-05-2.86481E-05-2.85485E-05-7.11816E-10 6.57933E-18-1.00905E-18
 -1      1271 9.52637E-05-2.86604E-05-2.85448E-05-4.75260E-10 7.36154E-18 4.86240E-19
 -1      1272 9.52660E-05-2.86681E-05-2.85425E-05-2.33446E-10 3.45274E-18-1.23311E-18
 -1      1273 9.52668E-05-2.86706E-05-2.85418E-05-9.81748E-13 1.80967E-18-6.26759E-20
 -1      1274 9.52660E-05-2.86681E-05-2.85425E-05 2.32445E-10 2.90665E-18 1.78340E-19
 -1      1275 9.52638E-05-2.86604E-05-2.85448E-05 4.76374E-10-6.77639E-18-1.22422E-18
 -1      1276 9.52601E-05-2.86481E-05-2.85485E-05 7.29080E-10-5.49238E-18 5.81549E-19
 -1      1277 9.52552E-05-2.86315E-05-2.85533E-05 9.63872E-10-1.37509E-18 9.29408E-19
 -1      1278 9.52494E-05-2.86120E-05-2.85589E-05 1.14716E-09 3.65380E-18 7.66949E-19
 -1      1279 9.52435E-05-2.85920E-05-2.85644E-05 1.27614E-09-7.46744E-19 4.80334E-19
 -1      1280 9.52393E-05-2.85770E-05-2.85687E-05 3.90010E-10-4.36632E-18-4.47526E-19
 -1      1281 9.52368E-05-2.85705E-05-2.85714E-05-1.15539E-10-3.36327E-18 6.66504E-19
 -1      1282 3.39154E-05-1.06093E-04 1.79344E-05-1.41501E-05-3.85061E-18-2.20890E-19
 -1      1283 1.63187E-05-6.14287E-05 8.78225E-06-2.38578E-05-1.15027E-18-1.69830E-19
 -1      1284 7.67605E-06-6.36577E-06-6.83245E-06 1.56775E-06 1.42979E-18 1.25107E-18
 -1      1285 3.78013E-05 2.42003E-05-2.70794E-05 5.58148E-05 4.37577E-18 4.60786E-18
 -1      1286 1.20341E-04 7.61559E-06-4.89093E-05 1.04565E-04 5.06949E-18 8.57875E-18
 -1      1287 2.23859E-04-4.22008E-05-6.62215E-05 1.02373E-04 3.29326E-18 8.28483E-18
 -1      1288 2.96551E-04-8.46118E-05-7.63026E-05 4.43854E-05 7.07008E-19 3.64944E-18
 -1      1289 3.02603E-04-8.86629E-05-7.68092E-05-3.85421E-05 1.42302E-19 1.08632E-18
 -1      1290 2.38277E-04-5.04482E-05-6.84678E-05-9.87044E-05 4.89797E-19-1.53059E-18
 -1      1291 1.43058E-04-1.12059E-06-5.33833E-05-1.09945E-04 1.92954E-18-2.92396E-18
 -1      1292 5.81654E-05 2.56483E-05-3.41664E-05-7.48477E-05 2.93497E-18-3.34070E-18
 -1      1293 1.29819E-05 1.08750E-05-1.42276E-05-2.06403E-05 5.12116E-18-3.69476E-18
 -1      1294 9.97236E-06-3.81526E-05 3.13333E-06 1.86393E-05 6.93042E-18-3.00273E-18
 -1      1295 2.69787E-05-9.04074E-05 1.48956E-05 2.36622E-05 6.28583E-18-1.77538E-18
 -1      1296 3.71383E-05-1.14022E-04 1.94105E-05 1.70780E-06 9.03784E-19-4.70527E-19
 -1      1297 2.89227E-05-9.56183E-05 1.59073E-05-2.25012E-05-2.84349E-18-6.53274E-19
 -1      1298 1.11697E-05-4.30120E-05 4.19212E-06-2.00511E-05-3.59057E-18-1.61868E-18
 -1      1299 1.43024E-05 8.85869E-06-1.43158E-05 2.10277E-05-4.44692E-18-3.72694E-18
 -1      1300 6.33443E-05 2.40816E-05-3.57096E-05 7.83239E-05-4.68579E-18-5.29904E-18
 -1      1301 1.52559E-04-5.39537E-06-5.51221E-05 1.11519E-04-2.48011E-18-4.12844E-18
 -1      1302 2.49317E-04-5.57889E-05-7.00506E-05 9.41250E-05-1.02851E-18-2.78250E-18
 -1      1303 3.07557E-04-9.04718E-05-7.79265E-05 2.57930E-05-4.22617E-19 5.27278E-20
 -1      1304 2.95957E-04-8.41051E-05-7.59503E-05-5.71825E-05-5.10470E-19 2.97732E-18
 -1      1305 2.15545E-04-3.72892E-05-6.52797E-05-1.04749E-04-2.25607E-18 5.08474E-18
 -1      1306 1.16716E-04 9.00803E-06-4.78499E-05-1.01897E-04-3.25938E-18 6.13591E-18
 -1      1307 3.81678E-05 2.44610E-05-2.72525E-05-5.61079E-05-2.28360E-18 2.93582E-18
 -1      1308 7.94173E-06-6.86978E-06-6.90140E-06-1.26924E-06-1.54838E-18 9.30042E-19
 -1      1309 1.70888E-05-6.44896E-05 9.50020E-06 2.51014E-05-3.98698E-18 1.36372E-18
 -1      1310 3.47748E-05-1.07885E-04 1.81875E-05 1.39611E-05-4.18392E-18 4.24734E-19
 -1      1311 1.05183E-04-2.22089E-05-3.80824E-05-1.63932E-05 0.00000E+00 2.97563E-18
 -1      1312 9.17552E-05-7.07156E-06-3.64399E-05-1.85870E-05-2.42887E-19 1.08468E-18
 -1      1313 9.40454E-05-7.19943E-06-3.75672E-05-2.40392E-05-2.69145E-19 1.55817E-18
 -1      1314 8.71069E-05-4.32745E-06-3.55383E-05-1.41856E-05-3.11973E-19 3.31084E-19
 -1      1315 8.85159E-05-4.34408E-06-3.60344E-05-1.67421E-05-3.40878E-19 6.90041E-19
 -1      1316 9.37017E-05-1.09581E-05-3.55349E-05-1.69476E-05-4.63512E-19 9.05372E-19
 -1      1317 8.47172E-05-3.20523E-06-3.49525E-05-1.04753E-05-3.01941E-19-1.46021E-19
 -1      1318 8.56098E-05-3.19260E-06-3.52610E-05-1.23018E-05-3.34763E-19 8.61062E-20
 -1      1319 8.89764E-05-7.57135E-06-3.49622E-05-1.30853E-05-5.07836E-19 3.00697E-19
 -1      1320 8.31045E-05-2.52920E-06-3.45362E-05-7.50180E-06-2.78422E-19-4.62480E-19
 -1      1321 8.37425E-05-2.52612E-06-3.47517E-05-8.94035E-06-2.88812E-19-3.06374E-19
 -1      1322 8.62253E-05-5.77887E-06-3.45405E-05-9.63959E-06-4.65709E-19-1.12867E-19
 -1      1323 8.19447E-05-2.06925E-06-3.42303E-05-5.11571E-06-2.42331E-19-6.33475E-19
 -1      1324 8.24081E-05-2.07047E-06-3.43849E-05-6.27273E-06-2.63057E-19-5.26166E-19
 -1      1325 8.43604E-05-4.64214E-06-3.42161E-05-6.85616E-06-4.54552E-19-3.33943E-19
 -1      1326 8.11315E-05-1.75648E-06-3.40125E-05-3.07408E-06-2.25979E-19-7.28263E-19
 -1      1327 8.14465E-05-1.75920E-06-3.41176E-05-4.07327E-06-2.26158E-19-6.86494E-19
 -1      1328 8.30285E-05-3.87423E-06-3.39673E-05-4.57504E-06-3.66745E-19-5.27424E-19
 -1      1329 8.06805E-05-1.57728E-06-3.38915E-05-1.27183E-06-1.41575E-19-8.12980E-19
 -1      1330 8.08358E-05-1.57896E-06-3.39437E-05-2.16887E-06-1.61942E-19-7.57697E-19
 -1      1331 8.21488E-05-3.38795E-06-3.37948E-05-2.61411E-06-3.05474E-19-5.86001E-19
 -1      1332 8.05973E-05-1.52603E-06-3.38712E-05 4.35873E-07-9.37708E-20-8.70022E-19
 -1      1333 8.05894E-05-1.52594E-06-3.38692E-05-4.31629E-07-1.14080E-19-8.26387E-19
 -1      1334 8.17212E-05-3.16002E-06-3.37077E-05-8.51746E-07-1.98422E-19-6.67568E-19
 -1      1335 8.08797E-05-1.59985E-06-3.39516E-05 2.19153E-06-1.36650E-20-9.48637E-19
 -1      1336 8.07108E-05-1.59802E-06-3.38962E-05 1.28241E-06-2.48981E-20-8.88710E-19
 -1      1337 8.17469E-05-3.18014E-06-3.37103E-05 8.53408E-07-1.06498E-19-7.04665E-19
 -1      1338 8.15158E-05-1.79838E-06-3.41286E-05 4.13605E-06-6.43216E-21-1.00630E-18
 -1      1339 8.11928E-05-1.79481E-06-3.40221E-05 3.11442E-06-1.43731E-20-9.99922E-19
 -1      1340 8.22198E-05-3.44497E-06-3.38014E-05 2.64020E-06-9.96256E-21-8.10134E-19
 -1      1341 8.24755E-05-2.11654E-06-3.43923E-05 6.36919E-06 3.63959E-20-9.87310E-19
 -1      1342 8.20130E-05-2.11615E-06-3.42387E-05 5.18557E-06 3.14196E-20-9.94800E-19
 -1      1343 8.31214E-05-3.95499E-06-3.39729E-05 4.62669E-06 3.23229E-20-8.38721E-19
 -1      1344 8.38182E-05-2.58362E-06-3.47580E-05 9.12159E-06 1.55748E-19-9.29447E-19
 -1      1345 8.31829E-05-2.58807E-06-3.45437E-05 7.64950E-06 1.01670E-19-9.42457E-19
 -1      1346 8.44622E-05-4.74088E-06-3.42181E-05 6.96516E-06 1.27981E-19-7.89779E-19
 -1      1347 8.56763E-05-3.25464E-06-3.52647E-05 1.25585E-05 2.47942E-19-8.18657E-19
 -1      1348 8.47926E-05-3.27422E-06-3.49568E-05 1.06939E-05 1.96485E-19-8.88802E-19
 -1      1349 8.63485E-05-5.90435E-06-3.45399E-05 9.83040E-06 3.01372E-19-7.67809E-19
 -1      1350 8.85925E-05-4.35070E-06-3.60462E-05 1.70340E-05 2.96620E-19-5.02052E-19
 -1      1351 8.71641E-05-4.38861E-06-3.55390E-05 1.44966E-05 2.77827E-19-7.00708E-19
 -1      1352 8.91073E-05-7.71753E-06-3.49572E-05 1.33765E-05 4.30319E-19-6.17752E-19
 -1      1353 9.47561E-05-7.22135E-06-3.74519E-05 2.34879E-05 2.83227E-19 2.62051E-19
 -1      1354 9.15522E-05-6.83298E-06-3.64523E-05 1.93017E-05 2.46910E-19-2.10699E-19
 -1      1355 9.38995E-05-1.11860E-05-3.55093E-05 1.76349E-05 4.54433E-19-2.16417E-19
 -1      1356 1.23726E-04-2.50611E-05-3.91413E-05 2.73450E-05 1.33725E-19 1.81816E-18
 -1      1357 1.01145E-04-1.47969E-05-3.76225E-05 2.27456E-05 1.56913E-19 7.04096E-19
 -1      1358 1.03141E-04-1.98980E-05-3.57691E-05 1.97284E-05 4.93211E-19 4.64809E-19
 -1      1359 1.03662E-04-2.81913E-05-3.50203E-05 6.55464E-06 2.42940E-19 1.71694E-18
 -1      1360 1.06473E-04-3.06736E-05-3.38889E-05-7.06806E-06-1.13714E-19 2.90998E-18
 -1      1361 1.00332E-04-2.85170E-05-3.13371E-05-4.22783E-06-1.79889E-19 2.75963E-18
 -1      1362 9.80455E-05-2.86156E-05-3.00056E-05-1.72764E-06-9.80970E-20 2.65223E-18
 -1      1363 9.65382E-05-2.85328E-05-2.91880E-05-1.28802E-06-1.30178E-19 2.45788E-18
 -1      1364 1.01779E-04-2.87824E-05-3.16498E-05-6.40202E-06-2.88097E-19 1.86493E-18
 -1      1365 9.54438E-05-2.83338E-05-2.87474E-05-2.00578E-08-1.27631E-19 2.34549E-18
 -1      1366 9.55112E-05-2.84666E-05-2.86827E-05 1.14102E-07-1.41759E-19 2.20364E-18
 -1      1367 9.80679E-05-2.87518E-05-2.98375E-05-1.56897E-06-2.39340E-19 1.68390E-18
 -1      1368 9.54602E-05-2.84787E-05-2.86606E-05 7.96728E-07-1.12364E-20 2.06054E-18
 -1      1369 9.63176E-05-2.87825E-05-2.89033E-05 8.92715E-07-1.18340E-19 2.01701E-18
 -1      1370 9.71216E-05-2.88110E-05-2.93160E-05 7.30405E-07-1.42844E-19 1.43471E-18
 -1      1371 9.68946E-05-2.89530E-05-2.90903E-05 1.33678E-06-1.02504E-19 2.00310E-18
 -1      1372 9.82418E-05-2.93865E-05-2.94871E-05 1.41261E-06 1.74436E-20 1.83495E-18
 -1      1373 9.76569E-05-2.90867E-05-2.94131E-05 2.08018E-06-1.28941E-19 1.15542E-18
 -1      1374 9.92418E-05-2.96777E-05-2.98023E-05 1.73893E-06 1.24918E-19 1.80605E-18
 -1      1375 1.00946E-04-3.02172E-05-3.03019E-05 1.80117E-06 1.05677E-19 2.05188E-18
 -1      1376 9.91944E-05-2.95979E-05-2.98503E-05 3.01346E-06-1.57826E-20 1.13003E-18
 -1      1377 1.02244E-04-3.05995E-05-3.07039E-05 2.03677E-06 8.69458E-20 2.06001E-18
 -1      1378 1.04206E-04-3.12222E-05-3.12754E-05 2.08247E-06-5.35533E-20 1.96181E-18
 -1      1379 1.01438E-04-3.03115E-05-3.05029E-05 3.69822E-06 1.11246E-19 1.11403E-18
 -1      1380 1.05694E-04-3.16700E-05-3.17287E-05 2.20236E-06-1.19764E-19 1.89968E-18
 -1      1381 1.07780E-04-3.23417E-05-3.23313E-05 2.21880E-06-1.50883E-19 1.56487E-18
 -1      1382 1.04173E-04-3.11918E-05-3.12916E-05 4.13862E-06-2.45552E-19 1.12834E-18
 -1      1383 1.09324E-04-3.28238E-05-3.27902E-05 2.15365E-06-2.09459E-19 1.64586E-18
 -1      1384 1.11312E-04-3.34817E-05-3.33563E-05 2.11697E-06-3.42668E-19 1.30161E-18
 -1      1385 1.07176E-04-3.21975E-05-3.21364E-05 4.22471E-06-3.03744E-19 1.26757E-18
 -1      1386 1.12723E-04-3.39509E-05-3.37567E-05 1.76025E-06-2.19398E-19 1.14762E-18
 -1      1387 1.14257E-04-3.44863E-05-3.41814E-05 1.63653E-06-5.54542E-21 1.05765E-18
 -1      1388 1.10145E-04-3.32608E-05-3.29341E-05 3.74821E-06-3.93824E-19 1.27490E-18
 -1      1389 1.15271E-04-3.48677E-05-3.44387E-05 8.74408E-07 3.32857E-19 7.21811E-19
 -1      1390 1.15858E-04-3.51154E-05-3.45834E-05 6.30179E-07 1.13324E-19 1.15515E-18
 -1      1391 1.12645E-04-3.42570E-05-3.35502E-05 2.44278E-06 2.15332E-20 1.03709E-18
 -1      1392 1.16151E-04-3.52975E-05-3.46067E-05-5.77444E-07-6.35407E-20 1.29701E-18
 -1      1393 1.15259E-04-3.50560E-05-3.43342E-05-9.44699E-07-1.71564E-19 1.15128E-18
 -1      1394 1.14094E-04-3.49643E-05-3.38325E-05 1.08866E-07 7.26198E-20 6.02730E-19
 -1      1395 1.14535E-04-3.49034E-05-3.40627E-05-2.42775E-06 9.35707E-21 1.42439E-18
 -1      1396 1.11858E-04-3.40203E-05-3.33121E-05-2.84294E-06 2.37632E-19 1.66177E-18
 -1      1397 1.13844E-04-3.50540E-05-3.36576E-05-3.12763E-06 1.05350E-19 7.75234E-19
 -1      1398 1.10031E-04-3.34359E-05-3.27673E-05-4.10344E-06 3.06288E-19 1.66040E-18
 -1      1399 1.05875E-04-3.19641E-05-3.16510E-05-4.38225E-06-1.65079E-19 1.91101E-18
 -1      1400 1.11440E-04-3.41848E-05-3.30050E-05-6.49563E-06 3.22885E-19 9.50000E-19
 -1      1401 1.03320E-04-3.10208E-05-3.09758E-05-4.67836E-06-1.31269E-19 2.21721E-18
 -1      1402 9.88714E-05-2.93669E-05-2.98203E-05-4.59017E-06-2.97464E-19 2.18958E-18
 -1      1403 1.07092E-04-3.22780E-05-3.20256E-05-8.49156E-06 1.60837E-20 1.18094E-18
 -1      1404 9.65288E-05-2.84234E-05-2.92538E-05-3.39423E-06-2.63388E-19 2.28312E-18
 -1      1405 9.35634E-05-2.72843E-05-2.85028E-05-2.85521E-06-1.75058E-19 2.11067E-18
 -1      1406 1.02102E-04-2.98747E-05-3.10385E-05-7.49118E-06-2.08350E-19 1.54700E-18
 -1      1407 9.25797E-05-2.68662E-05-2.82794E-05-4.54926E-07 3.39184E-19 2.03208E-18
 -1      1408 9.25088E-05-2.68325E-05-2.82646E-05 3.06611E-07 3.35372E-20 2.11965E-18
 -1      1409 9.86579E-05-2.81236E-05-3.04185E-05-3.10401E-06 5.27940E-20 1.36653E-18
 -1      1410 9.34514E-05-2.72178E-05-2.84876E-05 2.77047E-06-5.38131E-19 1.98505E-18
 -1      1411 9.63491E-05-2.83205E-05-2.92269E-05 3.34510E-06-5.38753E-19 9.70276E-19
 -1      1412 9.86077E-05-2.80713E-05-3.04250E-05 2.89937E-06-5.12667E-19 1.01148E-18
 -1      1413 9.87416E-05-2.92742E-05-2.98108E-05 4.68609E-06-3.69224E-19 1.03121E-18
 -1      1414 1.03294E-04-3.09610E-05-3.09962E-05 4.81882E-06-3.24615E-19 7.66671E-19
 -1      1415 1.02048E-04-2.97712E-05-3.10712E-05 7.55028E-06-7.20600E-19 9.60628E-19
 -1      1416 1.06014E-04-3.19631E-05-3.17158E-05 4.65892E-06 1.51705E-19 4.67456E-19
 -1      1417 1.10438E-04-3.35283E-05-3.29052E-05 4.40821E-06-9.78753E-20 4.41251E-19
 -1      1418 1.07255E-04-3.22437E-05-3.21204E-05 8.89935E-06-2.53360E-19 2.44144E-19
 -1      1419 1.12506E-04-3.41950E-05-3.35172E-05 3.22163E-06 3.03582E-19 1.25239E-18
 -1      1420 1.15544E-04-3.51992E-05-3.43685E-05 2.81451E-06 5.35027E-19 1.66955E-18
 -1      1421 1.12015E-04-3.43114E-05-3.32030E-05 7.15458E-06 5.71125E-19 1.54742E-19
 -1      1422 1.16537E-04-3.54356E-05-3.47197E-05 1.34937E-06 3.35306E-20 1.43866E-18
 -1      1423 1.17814E-04-3.58008E-05-3.51029E-05 9.79725E-07-1.35413E-19 1.58187E-18
 -1      1424 1.14927E-04-3.53674E-05-3.39895E-05 3.88909E-06 1.36849E-19 7.78953E-19
 -1      1425 1.17788E-04-3.56963E-05-3.51624E-05-2.35856E-07 1.56172E-20 1.66090E-18
 -1      1426 1.17580E-04-3.55666E-05-3.51280E-05-4.84101E-07-2.37540E-19 1.05355E-18
 -1      1427 1.15702E-04-3.54506E-05-3.43128E-05 6.58829E-07-2.81632E-19 8.68622E-19
 -1      1428 1.16821E-04-3.52569E-05-3.49517E-05-1.25843E-06 4.82796E-19 2.07166E-18
 -1      1429 1.15655E-04-3.48345E-05-3.46347E-05-1.38434E-06 4.70950E-19 2.79297E-18
 -1      1430 1.14758E-04-3.48966E-05-3.41805E-05-1.70193E-06 4.46843E-19 1.48484E-18
 -1      1431 1.14483E-04-3.44317E-05-3.43113E-05-1.74983E-06 2.22632E-19 2.94619E-18
 -1      1432 1.12856E-04-3.38859E-05-3.38509E-05-1.78651E-06 6.30416E-19 3.84717E-18
 -1      1433 1.12733E-04-3.40393E-05-3.37088E-05-3.03404E-06 4.46353E-19 2.25493E-18
 -1      1434 1.11531E-04-3.34648E-05-3.34625E-05-1.86090E-06 9.01446E-19 3.43453E-18
 -1      1435 1.09802E-04-3.29065E-05-3.29639E-05-1.84438E-06 4.25300E-19 3.99715E-18
 -1      1436 1.10204E-04-3.31049E-05-3.30436E-05-3.53343E-06 8.68571E-19 2.75703E-18
 -1      1437 1.08497E-04-3.25101E-05-3.25702E-05-1.74691E-06-4.21331E-19 4.04388E-18
 -1      1438 1.06878E-04-3.20000E-05-3.20980E-05-1.70445E-06-6.14950E-19 3.35579E-18
 -1      1439 1.07583E-04-3.22175E-05-3.23107E-05-3.48764E-06-7.25528E-20 2.45952E-18
 -1      1440 1.05693E-04-3.16496E-05-3.17347E-05-1.52460E-06-4.55494E-19 2.73997E-18
 -1      1441 1.04284E-04-3.12135E-05-3.13211E-05-1.47336E-06-1.86428E-19 1.90296E-18
 -1      1442 1.05125E-04-3.14332E-05-3.15975E-05-3.14492E-06-9.20953E-19 1.58203E-18
 -1      1443 1.03263E-04-3.09167E-05-3.10054E-05-1.26809E-06-5.04812E-20 2.99498E-18
 -1      1444 1.02095E-04-3.05600E-05-3.06611E-05-1.21756E-06 3.68049E-19 3.42790E-18
 -1      1445 1.02959E-04-3.07702E-05-3.09540E-05-2.67788E-06-8.74082E-20 1.50360E-18
 -1      1446 1.01249E-04-3.03165E-05-3.03982E-05-1.01871E-06 2.97762E-19 3.00900E-18
 -1      1447 1.00315E-04-3.00341E-05-3.01219E-05-9.73421E-07-2.15775E-19 2.89231E-18
 -1      1448 1.01131E-04-3.02270E-05-3.04024E-05-2.19070E-06 6.86792E-20 1.23370E-18
 -1      1449 9.96336E-05-2.98395E-05-2.99098E-05-7.96328E-07-3.68659E-19 3.23014E-18
 -1      1450 9.89072E-05-2.96216E-05-2.96942E-05-7.57931E-07-5.64777E-19 2.75081E-18
 -1      1451 9.96382E-05-2.97926E-05-2.99469E-05-1.73855E-06-5.92096E-19 9.57226E-19
 -1      1452 9.83721E-05-2.94694E-05-2.95275E-05-6.08103E-07-3.60122E-19 3.26523E-18
 -1      1453 9.78203E-05-2.93052E-05-2.93633E-05-5.76734E-07-6.41338E-19 1.99030E-18
 -1      1454 9.84504E-05-2.94524E-05-2.95816E-05-1.34567E-06-4.47629E-19 1.11518E-18
 -1      1455 9.74091E-05-2.91886E-05-2.92351E-05-4.54356E-07-8.40630E-19 2.60382E-18
 -1      1456 9.69991E-05-2.90676E-05-2.91128E-05-4.29416E-07-2.44867E-19 1.32024E-18
 -1      1457 9.75265E-05-2.91911E-05-2.92956E-05-1.01858E-06-7.94572E-19 2.81041E-18
 -1      1458 9.66896E-05-2.89800E-05-2.90164E-05-3.32076E-07 7.69512E-19 1.57554E-18
 -1      1459 9.63918E-05-2.88928E-05-2.89273E-05-3.12679E-07 7.15727E-19 2.13249E-18
 -1      1460 9.68227E-05-2.89942E-05-2.90766E-05-7.54488E-07-1.79763E-20 2.57654E-18
 -1      1461 9.61637E-05-2.88283E-05-2.88563E-05-2.36926E-07-8.24371E-19 1.75700E-18
 -1      1462 9.59529E-05-2.87671E-05-2.87930E-05-2.22131E-07-8.84280E-19 1.04116E-18
 -1      1463 9.62974E-05-2.88487E-05-2.89122E-05-5.46335E-07-4.29646E-20 2.00405E-18
 -1      1464 9.57886E-05-2.87208E-05-2.87419E-05-1.64315E-07-1.31056E-19 1.07409E-18
 -1      1465 9.56438E-05-2.86792E-05-2.86983E-05-1.53237E-07 1.69785E-19 6.99979E-19
 -1      1466 9.59138E-05-2.87435E-05-2.87916E-05-3.85610E-07-8.38120E-19 1.66679E-18
 -1      1467 9.55286E-05-2.86469E-05-2.86624E-05-1.09924E-07 2.02364E-20-3.93166E-19
 -1      1468 9.54329E-05-2.86198E-05-2.86335E-05-1.01785E-07-1.51571E-19 1.84302E-19
 -1      1469 9.56403E-05-2.86694E-05-2.87051E-05-2.63834E-07-3.22830E-19 6.26989E-19
 -1      1470 9.53548E-05-2.85979E-05-2.86092E-05-6.99439E-08 1.53570E-19 5.54532E-19
 -1      1471 9.52950E-05-2.85813E-05-2.85909E-05-6.40834E-08 2.30870E-19 7.60425E-19
 -1      1472 9.54510E-05-2.86188E-05-2.86448E-05-1.73266E-07-1.23115E-19-3.87370E-19
 -1      1473 9.52444E-05-2.85672E-05-2.85752E-05-4.11450E-08 5.09335E-19 9.53521E-19
 -1      1474 9.52102E-05-2.85581E-05-2.85647E-05-3.70195E-08-3.13416E-20 1.18695E-18
 -1      1475 9.53248E-05-2.85857E-05-2.86043E-05-1.07196E-07 4.90300E-19 4.43896E-19
 -1      1476 9.51797E-05-2.85496E-05-2.85552E-05-2.08662E-08-6.31213E-19 1.83952E-18
 -1      1477 9.51635E-05-2.85457E-05-2.85500E-05-1.80385E-08-4.77826E-19 1.16717E-18
 -1      1478 9.52451E-05-2.85654E-05-2.85783E-05-6.00006E-08 1.10101E-19 1.18179E-18
 -1      1479 9.51472E-05-2.85412E-05-2.85450E-05-6.96907E-09-6.98766E-19 9.60921E-19
 -1      1480 9.51431E-05-2.85408E-05-2.85435E-05-5.09523E-09-3.64379E-19 3.00868E-19
 -1      1481 9.51988E-05-2.85541E-05-2.85629E-05-2.70976E-08-7.98060E-19 6.01686E-19
 -1      1482 9.51367E-05-2.85391E-05-2.85415E-05 2.22324E-09 5.29868E-19 5.21073E-19
 -1      1483 9.51406E-05-2.85409E-05-2.85425E-05 3.40681E-09 4.73206E-19 6.26103E-19
 -1      1484 9.51761E-05-2.85493E-05-2.85550E-05-4.84194E-09-7.20138E-20 1.16845E-19
 -1      1485 9.51407E-05-2.85410E-05-2.85425E-05 7.98566E-09-3.50765E-19 9.50968E-19
 -1      1486 9.51495E-05-2.85442E-05-2.85450E-05 8.67331E-09-5.25571E-19-3.67822E-20
 -1      1487 9.51696E-05-2.85487E-05-2.85522E-05 9.58539E-09 4.16944E-19 1.09851E-18
 -1      1488 9.51538E-05-2.85455E-05-2.85463E-05 1.12413E-08-3.21112E-19 4.92610E-19
 -1      1489 9.51653E-05-2.85493E-05-2.85495E-05 1.15660E-08 6.25737E-19 4.86362E-19
 -1      1490 9.51736E-05-2.85509E-05-2.85528E-05 1.82805E-08-5.85029E-20 2.52477E-18
 -1      1491 9.51719E-05-2.85513E-05-2.85516E-05 1.25972E-08 1.16611E-18-8.21889E-20
 -1      1492 9.51843E-05-2.85554E-05-2.85551E-05 1.26343E-08 5.56077E-19 1.81053E-18
 -1      1493 9.51840E-05-2.85548E-05-2.85555E-05 2.26968E-08 7.57585E-19 3.06198E-18
 -1      1494 9.51917E-05-2.85577E-05-2.85574E-05 1.23591E-08-2.82735E-19 5.18221E-19
 -1      1495 9.52036E-05-2.85616E-05-2.85608E-05 1.21202E-08-5.44908E-19 1.78636E-19
 -1      1496 9.51975E-05-2.85596E-05-2.85591E-05 2.36982E-08 1.99149E-19 2.92371E-19
 -1      1497 9.52107E-05-2.85638E-05-2.85629E-05 1.05288E-08 1.10896E-18 5.66278E-19
 -1      1498 9.52205E-05-2.85671E-05-2.85656E-05 9.93951E-09 1.25087E-18 2.16577E-18
 -1      1499 9.52117E-05-2.85646E-05-2.85630E-05 2.15558E-08 7.52492E-19 2.98350E-19
 -1      1500 9.52263E-05-2.85691E-05-2.85673E-05 6.80704E-09 6.56898E-19 2.50866E-18
 -1      1501 9.52323E-05-2.85711E-05-2.85690E-05 5.87529E-09-3.10125E-20 2.35203E-18
 -1      1502 9.52244E-05-2.85694E-05-2.85663E-05 1.61104E-08 1.80509E-18 2.27240E-19
 -1      1503 9.52367E-05-2.85720E-05-2.85704E-05 5.60533E-10-2.91669E-18 2.66527E-18
 -1      1504 9.52350E-05-2.85735E-05-2.85690E-05 6.07981E-09-1.90037E-18 3.32482E-19
 -1      1505 9.87908E-05-2.90457E-05-3.04089E-05 2.36017E-06 2.58345E-19 1.24389E-18
 -1      1506 1.03994E-04-2.98373E-05-3.25857E-05 3.78659E-06 1.91165E-19 1.62355E-18
 -1      1507 1.03991E-04-2.73260E-05-3.31731E-05 1.14971E-05 3.89741E-19 9.14107E-19
 -1      1508 9.54760E-05-2.84581E-05-2.87903E-05 5.20984E-07 2.43165E-19 8.16381E-19
 -1      1509 9.67360E-05-2.84073E-05-2.94931E-05 8.50328E-07 1.95135E-19 1.13214E-18
 -1      1510 9.91489E-05-2.88496E-05-3.03276E-05 3.65926E-06 4.01652E-19 6.59720E-19
 -1      1511 9.49937E-05-2.84248E-05-2.85105E-05-3.75324E-07 5.03191E-20 5.54171E-19
 -1      1512 9.48734E-05-2.82156E-05-2.85581E-05-1.84173E-07 9.34317E-20 6.59547E-19
 -1      1513 9.68402E-05-2.86976E-05-2.92545E-05 5.69625E-07 2.80143E-19 4.79447E-19
 -1      1514 9.60414E-05-2.87691E-05-2.88110E-05-8.88424E-07 1.40138E-19 2.40716E-19
 -1      1515 9.52258E-05-2.84375E-05-2.85823E-05-7.57296E-07 8.03623E-20 4.05993E-19
 -1      1516 9.65874E-05-2.87928E-05-2.90746E-05-9.54648E-07 2.22710E-19 1.44604E-19
 -1      1517 9.80113E-05-2.93720E-05-2.94058E-05-1.22459E-06-7.22129E-20 1.45412E-19
 -1      1518 9.67755E-05-2.89428E-05-2.90407E-05-1.12446E-06 2.67345E-20 1.59401E-19
 -1      1519 9.75705E-05-2.91549E-05-2.93400E-05-1.86318E-06 1.72537E-19-5.93783E-20
 -1      1520 1.00577E-04-3.01549E-05-3.01742E-05-1.44540E-06-1.40111E-19 2.88534E-19
 -1      1521 9.90669E-05-2.96549E-05-2.97295E-05-1.36811E-06-2.18495E-19 7.69741E-20
 -1      1522 9.93385E-05-2.97249E-05-2.98540E-05-2.45387E-06-1.89146E-19 2.40015E-20
 -1      1523 1.03481E-04-3.10477E-05-3.10355E-05-1.54860E-06 1.71865E-19 1.77573E-19
 -1      1524 1.01821E-04-3.05102E-05-3.05506E-05-1.49846E-06 5.30136E-20 2.13108E-19
 -1      1525 1.01600E-04-3.04439E-05-3.05122E-05-2.80527E-06-4.46214E-20-1.93296E-19
 -1      1526 1.06433E-04-3.19679E-05-3.18996E-05-1.49135E-06-1.01760E-20-4.64809E-20
 -1      1527 1.04780E-04-3.14417E-05-3.14226E-05-1.48317E-06 1.38806E-19 1.13317E-19
 -1      1528 1.04103E-04-3.12520E-05-3.12306E-05-2.88920E-06 1.82058E-19-7.45389E-20
 -1      1529 1.09034E-04-3.27997E-05-3.26451E-05-1.20184E-06 2.46473E-19-2.19699E-19
 -1      1530 1.07616E-04-3.23596E-05-3.22445E-05-1.25975E-06 1.62773E-20-2.10752E-19
 -1      1531 1.06557E-04-3.20745E-05-3.19155E-05-2.60808E-06 4.99915E-20-2.44429E-19
 -1      1532 1.10754E-04-3.33803E-05-3.31145E-05-6.01359E-07 8.85083E-20-1.49098E-19
 -1      1533 1.09883E-04-3.31319E-05-3.28815E-05-7.53622E-07 2.24321E-19-4.38472E-20
 -1      1534 1.08591E-04-3.28040E-05-3.24523E-05-1.82686E-06 2.77390E-19-2.74234E-19
 -1      1535 1.10966E-04-3.35043E-05-3.31323E-05 3.45907E-07 3.41923E-20-2.11818E-19
 -1      1536 1.11013E-04-3.35746E-05-3.31686E-05 8.14573E-08-3.05527E-20-3.36969E-19
 -1      1537 1.09742E-04-3.32885E-05-3.27107E-05-4.36448E-07 5.43094E-20 2.98606E-19
 -1      1538 1.09115E-04-3.29689E-05-3.25604E-05 1.54950E-06 2.74379E-19-4.06285E-19
 -1      1539 1.10399E-04-3.34675E-05-3.29446E-05 1.19176E-06 1.16255E-19-3.24665E-19
 -1      1540 1.09523E-04-3.33345E-05-3.25726E-05 1.52806E-06 1.12199E-19-1.09396E-19
 -1      1541 1.05043E-04-3.16794E-05-3.13888E-05 2.70704E-06 1.70260E-19-7.46871E-19
 -1      1542 1.07630E-04-3.26239E-05-3.21204E-05 2.34027E-06 2.10216E-19-6.07058E-19
 -1      1543 1.07590E-04-3.27536E-05-3.19858E-05 3.73120E-06 4.43832E-19-2.54533E-19
 -1      1544 9.93684E-05-2.98009E-05-2.98241E-05 3.31324E-06 4.98696E-19-1.37468E-18
 -1      1545 1.02844E-04-3.10296E-05-3.07710E-05 3.08628E-06 2.90039E-19-1.04730E-18
 -1      1546 1.04017E-04-3.14797E-05-3.10268E-05 5.44922E-06 4.65160E-19-7.48976E-19
 -1      1547 9.36544E-05-2.78522E-05-2.82973E-05 2.87590E-06-1.63762E-19-1.68221E-18
 -1      1548 9.70482E-05-2.89980E-05-2.91945E-05 2.93825E-06 2.29096E-19-1.38410E-18
 -1      1549 9.95703E-05-2.97307E-05-2.99298E-05 5.74983E-06 4.43362E-19-7.80078E-19
 -1      1550 8.99825E-05-2.65808E-05-2.73338E-05 1.29942E-06-6.05364E-20-1.70375E-18
 -1      1551 9.20559E-05-2.71923E-05-2.78683E-05 1.68700E-06-8.70856E-20-1.75720E-18
 -1      1552 9.56847E-05-2.80820E-05-2.90383E-05 4.03083E-06-2.47889E-20-1.07602E-18
 -1      1553 8.99294E-05-2.65726E-05-2.73094E-05-8.71109E-07 2.29725E-19-2.19288E-18
 -1      1554 8.97993E-05-2.63645E-05-2.72703E-05-3.01673E-07 2.83293E-19-1.58158E-18
 -1      1555 9.39304E-05-2.72707E-05-2.86713E-05 6.36627E-07 3.91303E-19-1.32824E-18
 -1      1556 9.35898E-05-2.78528E-05-2.82531E-05-2.69627E-06-6.97148E-19-1.75442E-18
 -1      1557 9.12746E-05-2.69039E-05-2.76453E-05-2.19482E-06-3.88259E-19-2.25673E-18
 -1      1558 9.51311E-05-2.77367E-05-2.89763E-05-3.08701E-06-3.53107E-20-7.56334E-19
 -1      1559 9.95089E-05-2.98669E-05-2.98277E-05-3.46857E-06-7.02728E-19-2.27958E-19
 -1      1560 9.59171E-05-2.85670E-05-2.88711E-05-3.22110E-06-7.57588E-19-1.11237E-18
 -1      1561 9.88155E-05-2.92732E-05-2.98571E-05-5.58361E-06-1.18982E-18-7.61364E-19
 -1      1562 1.05606E-04-3.18675E-05-3.15130E-05-3.11723E-06-5.76724E-19 1.06594E-18
 -1      1563 1.01972E-04-3.06646E-05-3.05214E-05-3.14556E-06-5.73825E-19 8.00446E-20
 -1      1564 1.03540E-04-3.11820E-05-3.10210E-05-6.07833E-06-1.12248E-18 1.88068E-20
 -1      1565 1.10246E-04-3.33177E-05-3.28606E-05-2.07211E-06 3.45659E-19 1.13603E-18
 -1      1566 1.07513E-04-3.24993E-05-3.20892E-05-2.27637E-06-1.02345E-19 1.04106E-18
 -1      1567 1.07764E-04-3.27695E-05-3.21229E-05-4.86155E-06-5.30759E-19 5.20422E-19
 -1      1568 1.12733E-04-3.40341E-05-3.36383E-05-8.69226E-07 7.19809E-19-2.75670E-19
 -1      1569 1.11282E-04-3.36711E-05-3.32076E-05-1.12394E-06 5.31990E-19 6.74926E-19
 -1      1570 1.10524E-04-3.36815E-05-3.29045E-05-2.80853E-06 9.82366E-19 2.85437E-19
 -1      1571 1.13179E-04-3.41000E-05-3.38352E-05 1.28980E-07 7.10131E-19-1.92959E-18
 -1      1572 1.12918E-04-3.41156E-05-3.37374E-05-9.11965E-08 7.44271E-19-9.81791E-19
 -1      1573 1.11578E-04-3.39149E-05-3.32580E-05-7.56113E-07 1.22427E-18-7.69873E-19
 -1      1574 1.12118E-04-3.37128E-05-3.35774E-05 7.87621E-07-4.05041E-19-1.73760E-18
 -1      1575 1.12718E-04-3.39761E-05-3.37313E-05 6.35379E-07-1.27412E-19-2.19837E-18
 -1      1576 1.11185E-04-3.36486E-05-3.32103E-05 8.17569E-07 3.69028E-19-1.47152E-18
 -1      1577 1.10162E-04-3.30740E-05-3.30347E-05 1.12515E-06-7.30731E-19-7.99811E-19
 -1      1578 1.11259E-04-3.34625E-05-3.33403E-05 1.03978E-06-5.60694E-19-1.41607E-18
 -1      1579 1.09804E-04-3.30917E-05-3.28640E-05 1.78545E-06-6.33131E-19-5.44391E-19
 -1      1580 1.07825E-04-3.23401E-05-3.23596E-05 1.22367E-06-4.87012E-19 9.12824E-19
 -1      1581 1.09121E-04-3.27645E-05-3.27310E-05 1.18950E-06-5.06223E-19 1.59851E-19
 -1      1582 1.07889E-04-3.24114E-05-3.23408E-05 2.22737E-06-1.01987E-18 8.73767E-19
 -1      1583 1.05463E-04-3.16141E-05-3.16631E-05 1.17169E-06 8.60280E-20 6.12709E-19
 -1      1584 1.06758E-04-3.20195E-05-3.20401E-05 1.17098E-06 2.48335E-19 1.54268E-18
 -1      1585 1.05798E-04-3.17177E-05-3.17458E-05 2.29566E-06-2.63598E-20 2.12259E-18
 -1      1586 1.03286E-04-3.09544E-05-3.10136E-05 1.04001E-06-4.79257E-19 9.65088E-19
 -1      1587 1.04466E-04-3.13124E-05-3.13604E-05 1.05824E-06-5.81154E-19 2.97984E-20
 -1      1588 1.03768E-04-3.10740E-05-3.11542E-05 2.13776E-06-4.38692E-19 2.06454E-18
 -1      1589 1.01397E-04-3.03872E-05-3.04457E-05 8.76941E-07-3.88940E-20 1.46216E-18
 -1      1590 1.02410E-04-3.06874E-05-3.07453E-05 9.03934E-07-1.48183E-19 1.20760E-18
 -1      1591 1.01936E-04-3.05109E-05-3.06116E-05 1.86660E-06-5.84764E-19 1.46899E-18
 -1      1592 9.98271E-05-2.99190E-05-2.99713E-05 7.11762E-07-3.68608E-19 1.33055E-18
 -1      1593 1.00660E-04-3.01612E-05-3.02188E-05 7.41144E-07-1.09614E-19 1.22801E-18
 -1      1594 1.00362E-04-3.00384E-05-3.01405E-05 1.55739E-06-1.24074E-19 1.92375E-18
 -1      1595 9.85654E-05-2.95446E-05-2.95887E-05 5.60192E-07-2.70201E-19 2.06657E-18
 -1      1596 9.92273E-05-2.97341E-05-2.97862E-05 5.88339E-07-5.37447E-19 9.32044E-19
 -1      1597 9.90612E-05-2.96543E-05-2.97479E-05 1.25482E-06-4.75043E-19 1.68484E-18
 -1      1598 9.75796E-05-2.92534E-05-2.92891E-05 4.29216E-07 1.20343E-18 1.75599E-18
 -1      1599 9.80911E-05-2.93976E-05-2.94421E-05 4.54317E-07 3.72677E-19 2.03869E-18
 -1      1600 9.80175E-05-2.93503E-05-2.94309E-05 9.82175E-07 3.79378E-20 1.42898E-18
 -1      1601 9.68288E-05-2.90323E-05-2.90603E-05 3.20630E-07 8.91494E-19-7.75464E-19
 -1      1602 9.72139E-05-2.91393E-05-2.91758E-05 3.41992E-07 1.43359E-18 9.30033E-19
 -1      1603 9.72021E-05-2.91154E-05-2.91820E-05 7.49113E-07 2.14977E-18 4.68958E-19
 -1      1604 9.62709E-05-2.88686E-05-2.88900E-05 2.33398E-07-1.35925E-19-1.10803E-18
 -1      1605 9.65535E-05-2.89459E-05-2.89750E-05 2.50970E-07 9.06615E-20-9.13219E-19
 -1      1606 9.65801E-05-2.89379E-05-2.89913E-05 5.57262E-07 6.76630E-19-2.52319E-19
 -1      1607 9.58670E-05-2.87505E-05-2.87665E-05 1.65121E-07-3.08373E-21-1.98181E-18
 -1      1608 9.60687E-05-2.88047E-05-2.88273E-05 1.79191E-07-1.25509E-19-1.68460E-18
 -1      1609 9.61169E-05-2.88070E-05-2.88487E-05 4.03920E-07 3.75921E-19-6.27704E-19
 -1      1610 9.55830E-05-2.86678E-05-2.86794E-05 1.12902E-07-3.59061E-19-2.81397E-18
 -1      1611 9.57223E-05-2.87044E-05-2.87216E-05 1.23914E-07-1.63244E-20-2.85224E-18
 -1      1612 9.57805E-05-2.87129E-05-2.87446E-05 2.84370E-07 2.31342E-19-1.18613E-18
 -1      1613 9.53903E-05-2.86120E-05-2.86202E-05 7.38312E-08-1.19077E-19-2.28821E-18
 -1      1614 9.54827E-05-2.86356E-05-2.86483E-05 8.22745E-08-2.00459E-19-2.73694E-18
 -1      1615 9.55430E-05-2.86471E-05-2.86708E-05 1.93239E-07-3.71699E-19-1.72004E-18
 -1      1616 9.52657E-05-2.85761E-05-2.85818E-05 4.52366E-08 1.39090E-19-1.66882E-18
 -1      1617 9.53235E-05-2.85902E-05-2.85995E-05 5.15866E-08 5.15422E-20-2.35129E-18
 -1      1618 9.53811E-05-2.86029E-05-2.86201E-05 1.25259E-07 1.20133E-19-9.46773E-19
 -1      1619 9.51907E-05-2.85547E-05-2.85585E-05 2.47947E-08 2.01001E-19-1.86602E-18
 -1      1620 9.52237E-05-2.85621E-05-2.85687E-05 2.94813E-08-4.90973E-19-2.41564E-18
 -1      1621 9.52757E-05-2.85746E-05-2.85869E-05 7.56517E-08-2.45078E-19-1.34976E-18
 -1      1622 9.51511E-05-2.85437E-05-2.85461E-05 1.05629E-08-5.87708E-19-1.63729E-18
 -1      1623 9.51666E-05-2.85465E-05-2.85510E-05 1.39570E-08 3.29668E-19-1.21827E-18
 -1      1624 9.52117E-05-2.85580E-05-2.85665E-05 4.02998E-08-9.35965E-20-4.14254E-19
 -1      1625 9.51360E-05-2.85398E-05-2.85412E-05 9.68502E-10 6.27858E-19-8.55978E-19
 -1      1626 9.51396E-05-2.85395E-05-2.85425E-05 3.37851E-09-4.17982E-19-1.51779E-18
 -1      1627 9.51772E-05-2.85495E-05-2.85552E-05 1.57823E-08-3.34587E-19 3.40351E-19
 -1      1628 9.51372E-05-2.85406E-05-2.85413E-05-5.22013E-09-1.07796E-18-5.05305E-19
 -1      1629 9.51331E-05-2.85383E-05-2.85403E-05-3.54717E-09-2.09090E-19-9.85723E-19
 -1      1630 9.51634E-05-2.85467E-05-2.85504E-05-6.49510E-10-3.16775E-19 2.25256E-19
 -1      1631 9.51489E-05-2.85444E-05-2.85447E-05-8.92820E-09 1.24227E-18-5.34106E-20
 -1      1632 9.51400E-05-2.85410E-05-2.85422E-05-7.80384E-09 5.02016E-19 1.69196E-19
 -1      1633 9.51633E-05-2.85477E-05-2.85498E-05-1.11264E-08 1.09326E-19 2.54466E-19
 -1      1634 9.51666E-05-2.85499E-05-2.85499E-05-1.08000E-08 4.47537E-19-1.29656E-18
 -1      1635 9.51551E-05-2.85460E-05-2.85466E-05-1.00947E-08 7.58073E-19-3.17999E-19
 -1      1636 9.51720E-05-2.85510E-05-2.85521E-05-1.72175E-08 1.16047E-18 1.16217E-18
 -1      1637 9.51869E-05-2.85562E-05-2.85558E-05-1.12103E-08 1.10471E-18-1.51577E-18
 -1      1638 9.51745E-05-2.85521E-05-2.85523E-05-1.08561E-08 4.92497E-19-4.03326E-19
 -1      1639 9.51857E-05-2.85556E-05-2.85559E-05-1.99674E-08 6.86472E-19 8.61941E-19
 -1      1640 9.52068E-05-2.85625E-05-2.85616E-05-1.02766E-08 1.29253E-19-3.91878E-18
 -1      1641 9.51950E-05-2.85587E-05-2.85583E-05-1.02748E-08 7.58167E-19-2.94084E-18
 -1      1642 9.52012E-05-2.85608E-05-2.85602E-05-1.99267E-08 1.36745E-18 2.00320E-19
 -1      1643 9.52236E-05-2.85678E-05-2.85665E-05-7.80946E-09 3.52104E-19-5.03833E-18
 -1      1644 9.52140E-05-2.85648E-05-2.85638E-05-8.27986E-09 3.83523E-19-4.00071E-18
 -1      1645 9.52161E-05-2.85659E-05-2.85644E-05-1.71531E-08 1.01155E-18-9.23676E-19
 -1      1646 9.52341E-05-2.85713E-05-2.85697E-05-3.70138E-09 1.56176E-19-5.48975E-18
 -1      1647 9.52288E-05-2.85698E-05-2.85680E-05-4.65120E-09 2.15478E-19-5.96863E-18
 -1      1648 9.52284E-05-2.85704E-05-2.85676E-05-1.13403E-08 1.37810E-18-1.98964E-18
 -1      1649 9.52367E-05-2.85721E-05-2.85704E-05-7.48617E-10-2.87608E-18-3.16241E-18
 -1      1650 9.52394E-05-2.85820E-05-2.85674E-05-6.78746E-09-6.18535E-19 2.38259E-18
 -1      1651 9.52374E-05-2.85763E-05-2.85690E-05-5.68478E-09-3.31485E-18 2.21635E-18
 -1      1652 9.52444E-05-2.85962E-05-2.85635E-05-9.51503E-09 2.48675E-18 7.92993E-19
 -1      1653 9.52414E-05-2.85875E-05-2.85659E-05-9.17239E-09 8.99754E-19 3.11954E-19
 -1      1654 9.52394E-05-2.85842E-05-2.85664E-05-1.52324E-08-1.55674E-19 3.23123E-18
 -1      1655 9.52496E-05-2.86120E-05-2.85590E-05-1.00507E-08 1.96664E-18-8.49028E-19
 -1      1656 9.52464E-05-2.86025E-05-2.85617E-05-1.01216E-08 3.91845E-18 5.85640E-20
 -1      1657 9.52442E-05-2.85960E-05-2.85635E-05-1.87431E-08 1.45327E-18 8.25610E-19
 -1      1658 9.52544E-05-2.86269E-05-2.85547E-05-9.07178E-09 4.25464E-18 1.00937E-18
 -1      1659 9.52515E-05-2.86182E-05-2.85572E-05-9.38378E-09 1.30307E-18 1.51822E-18
 -1      1660 9.52487E-05-2.86084E-05-2.85602E-05-1.85949E-08 1.33646E-18-1.68679E-20
 -1      1661 9.52581E-05-2.86391E-05-2.85511E-05-7.22849E-09 3.27935E-18-4.35667E-19
 -1      1662 9.52559E-05-2.86321E-05-2.85531E-05-7.65009E-09 4.75988E-18-1.78248E-18
 -1      1663 9.52526E-05-2.86197E-05-2.85571E-05-1.60345E-08 1.30563E-18 6.39420E-19
 -1      1664 9.52609E-05-2.86480E-05-2.85484E-05-4.89411E-09 3.52051E-18-5.44602E-19
 -1      1665 9.52594E-05-2.86432E-05-2.85498E-05-5.37664E-09 3.43399E-18 5.93434E-20
 -1      1666 9.52555E-05-2.86288E-05-2.85545E-05-1.21069E-08 2.18515E-18-7.39465E-19
 -1      1667 9.52624E-05-2.86530E-05-2.85469E-05-2.35980E-09 1.89089E-18-1.77319E-18
 -1      1668 9.52616E-05-2.86505E-05-2.85476E-05-2.85818E-09 3.62167E-18-1.28246E-18
 -1      1669 9.52576E-05-2.86352E-05-2.85526E-05-7.45578E-09 1.17659E-18-1.32316E-18
 -1      1670 9.52626E-05-2.86539E-05-2.85466E-05 2.42926E-10 2.43022E-18 3.39075E-19
 -1      1671 9.52626E-05-2.86539E-05-2.85466E-05-2.59290E-10 1.41146E-18-4.09514E-19
 -1      1672 9.52586E-05-2.86385E-05-2.85516E-05-2.52067E-09 1.99127E-18-1.33863E-18
 -1      1673 9.52616E-05-2.86506E-05-2.85476E-05 2.84890E-09-1.81962E-18-3.82318E-18
 -1      1674 9.52624E-05-2.86530E-05-2.85469E-05 2.34828E-09 1.41165E-18 1.12268E-19
 -1      1675 9.52586E-05-2.86385E-05-2.85516E-05 2.49367E-09 4.42124E-19-1.49499E-18
 -1      1676 9.52594E-05-2.86432E-05-2.85498E-05 5.38339E-09-4.18216E-18-8.28058E-19
 -1      1677 9.52609E-05-2.86481E-05-2.85484E-05 4.89802E-09-1.21220E-18-3.77397E-18
 -1      1678 9.52576E-05-2.86352E-05-2.85526E-05 7.45113E-09-1.04582E-18-4.10019E-18
 -1      1679 9.52560E-05-2.86322E-05-2.85530E-05 7.65172E-09-3.03442E-18 1.13203E-18
 -1      1680 9.52582E-05-2.86392E-05-2.85510E-05 7.22922E-09-4.12135E-18 5.71985E-19
 -1      1681 9.52556E-05-2.86289E-05-2.85544E-05 1.21039E-08-9.60478E-19-7.37067E-19
 -1      1682 9.52515E-05-2.86181E-05-2.85572E-05 9.42700E-09 8.57562E-19 2.57238E-18
 -1      1683 9.52543E-05-2.86269E-05-2.85547E-05 9.11194E-09-2.64662E-18 3.38050E-18
 -1      1684 9.52526E-05-2.86198E-05-2.85570E-05 1.60743E-08-1.40010E-18 3.74859E-18
 -1      1685 9.52464E-05-2.86024E-05-2.85617E-05 1.02020E-08 1.01339E-18-5.86983E-19
 -1      1686 9.52496E-05-2.86119E-05-2.85591E-05 1.01016E-08 1.58363E-18 7.64756E-19
 -1      1687 9.52487E-05-2.86084E-05-2.85602E-05 1.86778E-08 7.62745E-20 2.76604E-18
 -1      1688 9.52414E-05-2.85876E-05-2.85659E-05 9.13959E-09-8.90124E-19 3.22108E-19
 -1      1689 9.52443E-05-2.85961E-05-2.85635E-05 9.47588E-09 6.05837E-19-5.99025E-19
 -1      1690 9.52441E-05-2.85959E-05-2.85635E-05 1.87999E-08 1.13053E-18-1.98963E-18
 -1      1691 9.52372E-05-2.85773E-05-2.85686E-05 7.90353E-09-2.34928E-18-8.09040E-19
 -1      1692 9.52391E-05-2.85828E-05-2.85670E-05 9.54551E-09-8.67699E-19-1.82007E-18
 -1      1693 9.52392E-05-2.85846E-05-2.85660E-05 1.75091E-08-2.18214E-19-1.28912E-18
 -1      1694 9.52329E-05-2.85756E-05-2.85673E-05 1.49395E-08 6.69192E-19-1.44267E-18
 -1      1695 1.99105E-05-6.47914E-05 1.34821E-05-5.66681E-06-1.90837E-18 5.53113E-19
 -1      1696 2.36053E-05-7.56641E-05 1.57627E-05 2.16343E-06-2.74672E-18 2.57074E-19
 -1      1697 2.06800E-05-3.63363E-05 2.76688E-06 5.45627E-06-3.87941E-19 8.12305E-19
 -1      1698 2.45145E-05-5.93205E-05 9.11582E-06 6.02154E-07-1.78046E-18 4.76244E-19
 -1      1699 3.44023E-05-9.68600E-06-1.25034E-05 2.88538E-05 1.88295E-18 2.26031E-18
 -1      1700 2.85325E-05-2.93595E-05-4.12011E-06 1.13670E-05 4.37069E-19 1.15916E-18
 -1      1701 8.31905E-05-4.54527E-06-3.26370E-05 6.16846E-05 2.99934E-18 5.26939E-18
 -1      1702 5.50955E-05-8.96271E-06-2.18346E-05 3.77797E-05 1.98036E-18 2.93243E-18
 -1      1703 1.51472E-04-1.99065E-05-5.25126E-05 7.82768E-05 3.03492E-18 6.25110E-18
 -1      1704 1.05689E-04-3.99393E-06-4.27178E-05 6.80992E-05 3.71085E-18 5.29904E-18
 -1      1705 2.15501E-04-4.77499E-05-6.67191E-05 5.53880E-05 2.29578E-18 3.64309E-18
 -1      1706 1.75444E-04-2.73618E-05-6.00682E-05 6.97176E-05 2.81427E-18 5.54129E-18
 -1      1707 2.44954E-04-5.99775E-05-7.35336E-05 7.98723E-06 6.20240E-19 2.57329E-18
 -1      1708 2.26793E-04-4.99304E-05-7.08715E-05 4.07661E-05 1.42662E-18 3.30936E-18
 -1      1709 2.37509E-04-5.53035E-05-7.23291E-05-4.00691E-05 6.60262E-19 8.06375E-19
 -1      1710 2.51625E-04-6.34965E-05-7.43962E-05-6.66902E-06 7.27178E-19 1.90286E-18
 -1      1711 1.87782E-04-3.19971E-05-6.27289E-05-6.96383E-05 1.02830E-18-7.29295E-19
 -1      1712 2.25008E-04-5.12517E-05-6.85373E-05-5.30285E-05 6.31463E-19 1.61783E-19
 -1      1713 1.24077E-04-9.68175E-06-4.74167E-05-7.09817E-05 1.64663E-18-1.63223E-18
 -1      1714 1.66467E-04-2.60942E-05-5.58616E-05-7.57499E-05 1.32349E-18-9.13949E-19
 -1      1715 6.90758E-05-4.08081E-06-2.89658E-05-4.93486E-05 2.71389E-18-1.91768E-18
 -1      1716 1.00826E-04-6.18228E-06-3.86719E-05-6.91709E-05 1.77877E-18-2.06845E-18
 -1      1717 3.49071E-05-1.87420E-05-1.06376E-05-2.05857E-05 4.31733E-18-2.32892E-18
 -1      1718 4.80131E-05-3.73284E-06-1.98210E-05-4.20063E-05 3.42964E-18-1.97782E-18
 -1      1719 2.45371E-05-4.86390E-05 4.64476E-06-1.10287E-06 4.85604E-18-1.76479E-18
 -1      1720 2.30569E-05-2.49029E-05-2.64926E-06-1.17549E-05 4.41982E-18-2.01128E-18
 -1      1721 2.43608E-05-7.22231E-05 1.39185E-05 1.29532E-06 3.01925E-18-1.60163E-18
 -1      1722 1.92125E-05-5.51500E-05 9.99683E-06 4.56083E-06 4.51384E-18-1.84680E-18
 -1      1723 2.27240E-05-7.51913E-05 1.60865E-05-4.64324E-06-7.26331E-20-1.16933E-18
 -1      1724 2.23276E-05-7.38686E-05 1.57594E-05 4.65108E-06 2.17751E-18-1.61254E-18
 -1      1725 1.90629E-05-5.68673E-05 1.08355E-05-4.92714E-06-1.98545E-18-1.06864E-18
 -1      1726 2.40993E-05-7.31347E-05 1.45218E-05-4.93385E-07-7.61059E-19-9.16278E-19
 -1      1727 2.43983E-05-2.70967E-05-2.08447E-06 1.28850E-05-2.32087E-18-1.32497E-18
 -1      1728 2.58430E-05-5.11022E-05 5.32883E-06 2.64466E-06-2.15146E-18-8.47351E-19
 -1      1729 5.47922E-05-8.33365E-06-2.04893E-05 4.34252E-05-2.62411E-18-3.20856E-18
 -1      1730 4.01134E-05-2.37308E-05-1.05494E-05 2.13914E-05-2.24972E-18-1.83933E-18
 -1      1731 1.05223E-04-5.77651E-06-4.03652E-05 7.18878E-05-2.73761E-18-3.00527E-18
 -1      1732 7.07012E-05-2.59783E-06-3.01494E-05 5.12777E-05-3.25854E-18-2.91210E-18
 -1      1733 1.73255E-04-2.85093E-05-5.75494E-05 7.64545E-05-1.61953E-18-2.30478E-18
 -1      1734 1.30050E-04-1.06481E-05-4.92446E-05 7.36705E-05-2.38990E-18-2.73507E-18
 -1      1735 2.29576E-04-5.35515E-05-6.97768E-05 4.65331E-05-7.66777E-19-9.34277E-19
 -1      1736 1.93344E-04-3.44474E-05-6.40026E-05 6.62541E-05-1.48453E-18-1.86008E-18
 -1      1737 2.48182E-04-6.06742E-05-7.43791E-05-3.34593E-06-1.13121E-18 1.71630E-18
 -1      1738 2.37525E-04-5.47670E-05-7.29299E-05 3.17474E-05-1.04863E-18 3.52789E-19
 -1      1739 2.30557E-04-5.15462E-05-7.11953E-05-5.02747E-05-1.36658E-18 3.37458E-18
 -1      1740 2.52914E-04-6.40414E-05-7.43589E-05-1.92478E-05-1.17526E-18 2.34183E-18
 -1      1741 1.70645E-04-2.69908E-05-5.86454E-05-6.54592E-05-1.91938E-18 3.44573E-18
 -1      1742 2.11170E-04-4.59512E-05-6.55619E-05-5.50007E-05-1.49009E-18 2.80198E-18
 -1      1743 1.06640E-04-7.95675E-06-4.17913E-05-6.34914E-05-1.61275E-18 3.81673E-18
 -1      1744 1.48563E-04-2.16255E-05-5.11366E-05-7.35005E-05-1.91133E-18 4.11827E-18
 -1      1745 5.30544E-05-6.27589E-06-2.23357E-05-3.84646E-05-1.17822E-18 1.82874E-18
 -1      1746 8.03722E-05-2.55692E-06-3.24911E-05-6.15831E-05-1.81434E-18 3.45928E-18
 -1      1747 2.84990E-05-3.07167E-05-3.73490E-06-9.91299E-06-1.30274E-18 8.33480E-19
 -1      1748 3.52132E-05-9.42246E-06-1.29481E-05-2.91724E-05-1.25530E-18 1.26547E-18
 -1      1749 2.45085E-05-6.11701E-05 9.72905E-06 4.59376E-07-2.68679E-18 3.33519E-19
 -1      1750 2.02698E-05-3.80882E-05 3.47103E-06-3.86760E-06-1.71778E-18-2.05405E-19
 -1      1751 2.38865E-05-7.71222E-05 1.60840E-05-1.38442E-06-3.37066E-18-2.24675E-19
 -1      1752 2.03890E-05-6.74832E-05 1.40776E-05 7.26715E-06-3.30555E-18 5.97794E-19
 -1      1753 1.19795E-04-3.18081E-05-3.68250E-05 4.51403E-05 1.47850E-18 3.90736E-18
 -1      1754 7.57307E-05-3.45153E-05-1.85769E-05 4.04924E-05 1.24006E-18 3.05186E-18
 -1      1755 9.52361E-05-2.85732E-05-2.85696E-05-3.77653E-09-3.49905E-18-8.06496E-19
 -1      1756 9.52350E-05-2.85755E-05-2.85683E-05-9.80404E-09-7.83484E-19 1.76033E-18
 -1      1757 1.95704E-05-4.64201E-05 7.58214E-06 1.62234E-05-1.51407E-18 1.00564E-18
 -1      1758 4.07456E-05-4.05759E-05-2.99154E-06 2.87554E-05 2.29546E-19 2.17762E-18
 -1      1759 1.20704E-05-5.13142E-05 1.20849E-05 1.02421E-06-1.94775E-18 5.15843E-19
 -1      1760 1.64365E-04-3.06925E-05-5.38185E-05 4.00232E-05 1.96067E-18 2.25988E-18
 -1      1761 1.91507E-04-3.01063E-05-6.47985E-05 1.94963E-05 1.76860E-18 2.78420E-18
 -1      1762 2.04260E-04-3.09991E-05-6.94956E-05-1.12241E-06 1.29257E-18 2.11181E-18
 -1      1763 2.00297E-04-3.29691E-05-6.67356E-05-2.16235E-05 1.16912E-18 1.09098E-18
 -1      1764 1.72204E-04-3.14978E-05-5.66128E-05-3.74382E-05 1.25229E-18-3.38813E-20
 -1      1765 1.32896E-04-3.10764E-05-4.17994E-05-4.50693E-05 1.25911E-18-2.96462E-19
 -1      1766 8.95462E-05-3.20137E-05-2.48517E-05-4.34296E-05 2.51484E-18-7.29719E-19
 -1      1767 5.17534E-05-3.74534E-05-8.46726E-06-3.29496E-05 2.95614E-18-1.02491E-18
 -1      1768 2.67173E-05-4.58171E-05 4.24022E-06-2.00302E-05 2.57456E-18-1.47797E-18
 -1      1769 1.40276E-05-5.06994E-05 1.10914E-05-7.40287E-06 1.54329E-18-2.61140E-18
 -1      1770 1.30653E-05-5.00703E-05 1.13414E-05 5.58637E-06 1.10326E-19-2.02144E-18
 -1      1771 2.64703E-05-4.56530E-05 4.59653E-06 2.09510E-05-7.26754E-19-1.08378E-18
 -1      1772 5.67438E-05-4.12536E-05-8.66106E-06 3.53973E-05-9.02090E-19-1.34551E-18
 -1      1773 9.36694E-05-3.51047E-05-2.55736E-05 4.27056E-05-1.07912E-18-1.59327E-18
 -1      1774 1.35952E-04-3.00004E-05-4.33990E-05 4.68355E-05-1.82493E-18-1.06218E-18
 -1      1775 1.76453E-04-3.18727E-05-5.80424E-05 3.64421E-05-1.46473E-18-6.48827E-19
 -1      1776 1.97725E-04-3.07445E-05-6.70701E-05 1.58199E-05-1.50306E-18 3.44742E-19
 -1      1777 2.07082E-04-3.18929E-05-6.99996E-05-5.62707E-06-1.60259E-18 1.93748E-18
 -1      1778 1.93719E-04-3.29417E-05-6.44910E-05-2.10580E-05-1.40586E-18 2.18111E-18
 -1      1779 1.62540E-04-3.34567E-05-5.23130E-05-3.34026E-05-1.24842E-18 1.62122E-18
 -1      1780 1.20246E-04-3.20222E-05-3.64728E-05-4.44181E-05-5.50995E-19 3.43472E-18
 -1      1781 7.39411E-05-3.33387E-05-1.85559E-05-3.93155E-05-7.02190E-19 1.81011E-18
 -1      1782 4.02627E-05-4.12056E-05-2.63827E-06-2.75383E-05-9.66465E-19 1.33937E-19
 -1      1783 1.89812E-05-4.77558E-05 8.19676E-06-1.42994E-05-1.80545E-18-1.13079E-19
 -1      1784 1.07215E-04-2.36380E-05-3.59123E-05-1.55835E-05-1.80789E-19 2.50891E-18
 -1      1785 9.01054E-05-1.06338E-05-3.41901E-05-1.08221E-05-5.59578E-19 1.54107E-19
 -1      1786 9.18219E-05-1.18799E-05-3.43898E-05-1.26715E-05-5.90508E-19 4.07052E-19
 -1      1787 9.41424E-05-1.43656E-05-3.43532E-05-1.37101E-05-5.18955E-19 6.77944E-19
 -1      1788 9.60610E-05-1.64588E-05-3.45939E-05-1.55055E-05-4.58907E-19 9.82929E-19
 -1      1789 9.49822E-05-1.66801E-05-3.35661E-05-1.12579E-05-5.44101E-19 5.35642E-19
 -1      1790 8.53217E-05-6.71804E-06-3.37619E-05-5.74188E-06-4.77478E-19-3.02232E-19
 -1      1791 8.61608E-05-7.19632E-06-3.38926E-05-6.95632E-06-5.05993E-19-1.81900E-19
 -1      1792 8.38944E-05-5.66763E-06-3.35847E-05-3.72271E-06-4.09865E-19-4.20578E-19
 -1      1793 8.44919E-05-5.98641E-06-3.36843E-05-4.75915E-06-4.43372E-19-3.98079E-19
 -1      1794 8.62360E-05-8.43317E-06-3.33687E-05-4.82437E-06-4.70325E-19-3.09233E-19
 -1      1795 8.29966E-05-5.02594E-06-3.34641E-05-1.97367E-06-2.91288E-19-4.72181E-19
 -1      1796 8.33496E-05-5.20711E-06-3.35258E-05-2.88093E-06-3.63210E-19-4.36751E-19
 -1      1797 8.47725E-05-7.25468E-06-3.32446E-05-3.03989E-06-3.74489E-19-4.11115E-19
 -1      1798 8.26274E-05-4.75920E-06-3.34128E-05-3.72150E-07-1.98552E-19-4.62943E-19
 -1      1799 8.27342E-05-4.81171E-06-3.34329E-05-1.21841E-06-2.60572E-19-4.66040E-19
 -1      1800 8.39141E-05-6.58852E-06-3.31609E-05-1.47408E-06-2.92521E-19-4.06721E-19
 -1      1801 8.27859E-05-4.85310E-06-3.34361E-05 1.21242E-06-4.02903E-20-5.57043E-19
 -1      1802 8.26472E-05-4.78024E-06-3.34136E-05 3.59603E-07-1.23733E-19-4.96613E-19
 -1      1803 8.36588E-05-6.39906E-06-3.31324E-05-1.30813E-08-1.57941E-19-4.43097E-19
 -1      1804 8.34622E-05-5.30535E-06-3.35314E-05 2.90945E-06-1.24590E-20-7.09787E-19
 -1      1805 8.30840E-05-5.10603E-06-3.34685E-05 1.98387E-06-9.18336E-21-6.48483E-19
 -1      1806 8.40014E-05-6.67193E-06-3.31634E-05 1.46483E-06-4.26933E-20-5.47137E-19
 -1      1807 8.46193E-05-6.11100E-06-3.36855E-05 4.80694E-06 6.69917E-20-6.70532E-19
 -1      1808 8.40203E-05-5.78629E-06-3.35888E-05 3.76370E-06 2.50801E-20-7.18072E-19
 -1      1809 8.49197E-05-7.40017E-06-3.32464E-05 3.06165E-06 2.84112E-20-6.83403E-19
 -1      1810 8.63132E-05-7.35457E-06-3.38896E-05 7.08188E-06 2.32061E-19-6.13397E-19
 -1      1811 8.54587E-05-6.86129E-06-3.37601E-05 5.81833E-06 1.38410E-19-5.92354E-19
 -1      1812 8.64070E-05-8.61431E-06-3.33659E-05 4.88771E-06 1.42027E-19-5.98985E-19
 -1      1813 8.86433E-05-9.19895E-06-3.41260E-05 9.79480E-06 4.00097E-19-5.94458E-19
 -1      1814 8.74705E-05-8.45199E-06-3.39654E-05 8.25607E-06 3.12515E-19-6.13543E-19
 -1      1815 8.85212E-05-1.04270E-05-3.34956E-05 7.01507E-06 2.97289E-19-5.54012E-19
 -1      1816 9.19769E-05-1.21247E-05-3.43703E-05 1.29155E-05 5.39706E-19-4.58192E-19
 -1      1817 9.02511E-05-1.08472E-05-3.41745E-05 1.10710E-05 4.81492E-19-5.43795E-19
 -1      1818 9.14089E-05-1.30823E-05-3.35851E-05 9.37729E-06 4.94876E-19-5.07399E-19
 -1      1819 9.76277E-05-1.76343E-05-3.44741E-05 1.56291E-05 5.46449E-19-3.17637E-22
 -1      1820 9.44851E-05-1.48357E-05-3.43126E-05 1.39648E-05 5.14897E-19-2.77589E-19
 -1      1821 9.55027E-05-1.72454E-05-3.35270E-05 1.14629E-05 5.51847E-19-3.13217E-19
 -1      1822 1.03627E-04-2.56964E-05-3.38197E-05 1.28310E-05 4.94985E-19 5.67406E-19
 -1      1823 9.98697E-05-2.02649E-05-3.41178E-05 1.51072E-05 5.35259E-19 1.87882E-19
 -1      1824 9.93114E-05-2.24815E-05-3.29952E-05 1.11621E-05 5.48467E-19 2.23405E-20
 -1      1825 1.00891E-04-2.68255E-05-3.19458E-05 7.85724E-06 5.07770E-19 4.51204E-19
 -1      1826 1.01865E-04-2.02323E-05-3.46760E-05-1.70950E-05-3.03979E-19 1.56383E-18
 -1      1827 9.83349E-05-2.81516E-05-3.00978E-05 2.43839E-06 3.31666E-19 2.88891E-19
 -1      1828 1.00228E-04-2.81246E-05-3.09384E-05 4.81122E-06 4.08773E-19 2.97919E-19
 -1      1829 9.99655E-05-2.63392E-05-3.15532E-05 6.83525E-06 4.65180E-19 1.41481E-20
 -1      1830 1.01673E-04-2.31534E-05-3.33756E-05-1.24948E-05-3.49401E-19 1.30046E-18
 -1      1831 9.97286E-05-2.77195E-05-3.07430E-05-3.66559E-06-3.60413E-19 1.27068E-18
 -1      1832 9.84975E-05-2.78927E-05-3.02152E-05-1.76088E-06-3.35809E-19 1.07027E-18
 -1      1833 9.80831E-05-2.81636E-05-2.98669E-05-7.22614E-08-3.70034E-19 1.07121E-18
 -1      1834 9.79898E-05-2.84071E-05-2.97680E-05 9.65547E-07-2.32630E-19 8.69532E-19
 -1      1835 9.85750E-05-2.72018E-05-3.06178E-05-1.62961E-06-4.54248E-19 6.70458E-19
 -1      1836 9.79763E-05-2.85738E-05-2.96828E-05 2.07625E-06-1.62531E-19 7.27816E-19
 -1      1837 9.84911E-05-2.88575E-05-2.98015E-05 2.75775E-06-2.34512E-19 6.71995E-19
 -1      1838 9.82773E-05-2.80246E-05-3.01366E-05 1.56788E-06-3.91058E-19 4.60223E-19
 -1      1839 9.88390E-05-2.90515E-05-2.98751E-05 3.54719E-06-5.77223E-20 7.28491E-19
 -1      1840 9.97790E-05-2.94164E-05-3.01254E-05 4.04144E-06 7.71760E-20 7.80089E-19
 -1      1841 9.87033E-05-2.85899E-05-3.00736E-05 3.72572E-06-9.60836E-20 2.96723E-19
 -1      1842 1.00422E-04-2.96777E-05-3.03010E-05 4.62299E-06 9.33622E-20 8.25071E-19
 -1      1843 1.01664E-04-3.01333E-05-3.06366E-05 4.97639E-06 6.18516E-20 6.91334E-19
 -1      1844 9.97515E-05-2.91746E-05-3.02688E-05 5.28390E-06 7.87542E-20 4.07767E-19
 -1      1845 1.02548E-04-3.04849E-05-3.08750E-05 5.36636E-06-4.71816E-20 8.47675E-19
 -1      1846 1.03985E-04-3.10347E-05-3.12587E-05 5.55227E-06-9.59083E-20 9.82206E-19
 -1      1847 1.01325E-04-2.99080E-05-3.06254E-05 6.39288E-06 1.76355E-20 5.26917E-19
 -1      1848 1.05067E-04-3.14995E-05-3.15255E-05 5.69059E-06-1.76423E-19 1.17401E-18
 -1      1849 1.06572E-04-3.21385E-05-3.19142E-05 5.62265E-06-1.56706E-19 1.24902E-18
 -1      1850 1.03341E-04-3.08814E-05-3.10699E-05 7.01168E-06-2.91941E-20 9.52232E-19
 -1      1851 1.07811E-04-3.27369E-05-3.21746E-05 5.38058E-06-4.30064E-19 1.33720E-18
 -1      1852 1.09205E-04-3.34343E-05-3.25133E-05 4.92394E-06-3.23368E-19 1.30826E-18
 -1      1853 1.05729E-04-3.21752E-05-3.15365E-05 6.94115E-06-2.06251E-19 9.11199E-19
 -1      1854 1.10535E-04-3.41605E-05-3.27336E-05 4.12373E-06-2.36319E-19 1.02874E-18
 -1      1855 1.11567E-04-3.48265E-05-3.29567E-05 3.13366E-06-1.56205E-19 8.94715E-19
 -1      1856 1.08386E-04-3.38239E-05-3.19653E-05 5.85243E-06-4.68843E-19 6.82219E-19
 -1      1857 1.12852E-04-3.55962E-05-3.31131E-05 1.61377E-06-1.28670E-19 8.95671E-19
 -1      1858 1.13204E-04-3.60337E-05-3.31592E-05 3.34606E-08 1.65436E-20 6.00375E-19
 -1      1859 1.11111E-04-3.57121E-05-3.23150E-05 3.37313E-06-1.49799E-19 6.84644E-19
 -1      1860 1.14169E-04-3.66044E-05-3.32519E-05-2.18746E-06-1.77811E-20 3.07639E-19
 -1      1861 1.13536E-04-3.64979E-05-3.30931E-05-4.15103E-06 7.93432E-20 4.78746E-19
 -1      1862 1.13472E-04-3.73884E-05-3.25881E-05-6.86168E-07-1.46067E-19 3.35374E-19
 -1      1863 1.13764E-04-3.64631E-05-3.31577E-05-6.62433E-06 4.16740E-19 3.67129E-19
 -1      1864 1.12038E-04-3.54961E-05-3.28318E-05-8.34257E-06 3.78134E-19 5.82117E-19
 -1      1865 1.14718E-04-3.79539E-05-3.28510E-05-5.87692E-06 2.33781E-19-4.92900E-20
 -1      1866 1.11159E-04-3.44780E-05-3.29198E-05-1.00214E-05 3.23825E-19 5.48282E-19
 -1      1867 1.08681E-04-3.26606E-05-3.25369E-05-1.05057E-05 2.28967E-19 9.91664E-19
 -1      1868 1.13978E-04-3.63532E-05-3.32110E-05-1.06312E-05 2.84560E-19 2.03172E-19
 -1      1869 1.06898E-04-3.08287E-05-3.26659E-05-1.00678E-05-1.97001E-19 9.67153E-19
 -1      1870 1.04592E-04-2.88680E-05-3.23670E-05-8.54855E-06-2.55314E-19 1.12376E-18
 -1      1871 1.11023E-04-3.23375E-05-3.37090E-05-1.22749E-05-1.31575E-19 5.28161E-19
 -1      1872 1.03034E-04-2.72945E-05-3.24805E-05-5.49619E-06-1.21033E-19 9.01878E-19
 -1      1873 1.02056E-04-2.63828E-05-3.23729E-05-2.30832E-06-6.22437E-20 9.06237E-19
 -1      1874 1.07290E-04-2.76395E-05-3.42119E-05-8.52412E-06-1.83541E-19 6.51348E-19
 -1      1875 1.02018E-04-2.63126E-05-3.23933E-05 2.04560E-06-4.89850E-19 5.47666E-19
 -1      1876 1.02954E-04-2.71122E-05-3.25164E-05 5.32133E-06-7.22982E-19 7.49757E-21
 -1      1877 1.05488E-04-2.53801E-05-3.44578E-05-1.49189E-07-6.74701E-19 2.84739E-19
 -1      1878 1.04506E-04-2.86133E-05-3.24377E-05 8.58223E-06-4.73624E-19-5.64667E-20
 -1      1879 1.06863E-04-3.05617E-05-3.27596E-05 1.02990E-05-5.34862E-19 2.06332E-19
 -1      1880 1.07175E-04-2.73279E-05-3.43026E-05 8.47344E-06-6.27929E-19-5.34821E-19
 -1      1881 1.08770E-04-3.24459E-05-3.26604E-05 1.09958E-05-4.53163E-19 2.70521E-19
 -1      1882 1.11414E-04-3.43548E-05-3.30817E-05 1.06925E-05 1.06375E-19 1.86096E-19
 -1      1883 1.11021E-04-3.19703E-05-3.38689E-05 1.27631E-05-2.91326E-19-4.69910E-19
 -1      1884 1.12493E-04-3.54914E-05-3.30250E-05 9.17947E-06 6.11333E-19 2.32391E-19
 -1      1885 1.14457E-04-3.65857E-05-3.34054E-05 7.55533E-06 7.35185E-19 2.57766E-19
 -1      1886 1.14316E-04-3.61948E-05-3.34262E-05 1.15966E-05 1.17611E-19-1.00618E-19
 -1      1887 1.14422E-04-3.67241E-05-3.33768E-05 5.13408E-06 5.89469E-19 2.85404E-19
 -1      1888 1.15313E-04-3.69415E-05-3.36004E-05 3.19068E-06 5.64468E-20 3.93388E-19
 -1      1889 1.15464E-04-3.80769E-05-3.31219E-05 7.06981E-06 7.90358E-19-1.46333E-19
 -1      1890 1.14504E-04-3.64344E-05-3.35474E-05 9.60088E-07-2.23908E-19 1.06616E-18
 -1      1891 1.14406E-04-3.60843E-05-3.35700E-05-6.32138E-07 1.57886E-19 1.29199E-18
 -1      1892 1.14569E-04-3.77132E-05-3.29201E-05 1.91204E-06 4.25905E-19 3.47819E-19
 -1      1893 1.13249E-04-3.53540E-05-3.34554E-05-2.18042E-06 4.75424E-19 1.52698E-18
 -1      1894 1.12460E-04-3.47609E-05-3.33002E-05-3.18987E-06 7.91268E-19 1.58278E-18
 -1      1895 1.12493E-04-3.61568E-05-3.27153E-05-2.19361E-06 5.37303E-19 1.11079E-18
 -1      1896 1.11235E-04-3.40617E-05-3.31187E-05-4.01990E-06 1.02146E-18 1.43756E-18
 -1      1897 1.10066E-04-3.34316E-05-3.28432E-05-4.49413E-06 8.54673E-19 1.77726E-18
 -1      1898 1.10001E-04-3.43406E-05-3.24341E-05-4.74154E-06 8.81023E-19 1.22213E-18
 -1      1899 1.08910E-04-3.28583E-05-3.26127E-05-4.77038E-06 4.50446E-19 2.22172E-18
 -1      1900 1.07607E-04-3.22876E-05-3.22785E-05-4.86181E-06 6.03556E-19 1.97104E-18
 -1      1901 1.07535E-04-3.27485E-05-3.20617E-05-5.90531E-06 9.84135E-19 1.84778E-18
 -1      1902 1.06571E-04-3.18483E-05-3.20251E-05-4.78316E-06 1.12040E-19 1.45350E-18
 -1      1903 1.05297E-04-3.13686E-05-3.16808E-05-4.64600E-06-6.65889E-19 1.14398E-18
 -1      1904 1.05286E-04-3.15201E-05-3.16245E-05-6.08814E-06-1.94933E-20 7.31671E-19
 -1      1905 1.04396E-04-3.10401E-05-3.14279E-05-4.37543E-06-1.17532E-18 9.41356E-19
 -1      1906 1.03240E-04-3.06525E-05-3.11050E-05-4.12659E-06-8.63634E-19 1.08591E-18
 -1      1907 1.03316E-04-3.06287E-05-3.11621E-05-5.68204E-06-8.09929E-19 1.33514E-19
 -1      1908 1.02473E-04-3.04080E-05-3.08694E-05-3.77604E-06 1.97645E-19 1.10802E-18
 -1      1909 1.01477E-04-3.01021E-05-3.05846E-05-3.49121E-06 6.55559E-19 8.53817E-19
 -1      1910 1.01634E-04-2.99984E-05-3.07106E-05-4.98337E-06-3.27140E-19 5.73750E-19
 -1      1911 1.00836E-04-2.99193E-05-3.03758E-05-3.12886E-06 5.90276E-21 3.21452E-19
 -1      1912 1.00009E-04-2.96821E-05-3.01353E-05-2.85126E-06-6.03200E-19-6.78585E-20
 -1      1913 1.00224E-04-2.95555E-05-3.02954E-05-4.18662E-06-5.92865E-20 1.48223E-19
 -1      1914 9.94836E-05-2.95449E-05-2.99572E-05-2.51405E-06-7.58965E-19-1.21352E-19
 -1      1915 9.88167E-05-2.93637E-05-2.97607E-05-2.26512E-06-5.32845E-19-1.00679E-19
 -1      1916 9.90623E-05-2.92433E-05-2.99305E-05-3.40581E-06-4.11965E-19-1.08357E-18
 -1      1917 9.83928E-05-2.92607E-05-2.96133E-05-1.97000E-06-1.10106E-19-7.64884E-20
 -1      1918 9.78676E-05-2.91243E-05-2.94569E-05-1.75794E-06 8.43840E-20 9.49455E-19
 -1      1919 9.81209E-05-2.90223E-05-2.96209E-05-2.69976E-06-1.52315E-19-4.46954E-19
 -1      1920 9.75318E-05-2.90473E-05-2.93380E-05-1.50998E-06 1.79211E-19 6.71832E-19
 -1      1921 9.71270E-05-2.89463E-05-2.92163E-05-1.33559E-06-1.16187E-19 1.59013E-18
 -1      1922 9.73709E-05-2.88656E-05-2.93657E-05-2.09268E-06 2.10943E-19-3.35082E-19
 -1      1923 9.68657E-05-2.88893E-05-2.91224E-05-1.13339E-06-8.27407E-19 1.96877E-18
 -1      1924 9.65600E-05-2.88159E-05-2.90298E-05-9.93759E-07-1.13279E-19 1.43688E-18
 -1      1925 9.67833E-05-2.87551E-05-2.91603E-05-1.58876E-06-1.20718E-19 4.27448E-19
 -1      1926 9.63602E-05-2.87743E-05-2.89572E-05-8.32744E-07 1.70275E-20 9.86500E-19
 -1      1927 9.61342E-05-2.87221E-05-2.88880E-05-7.23371E-07-4.71426E-19 1.18233E-18
 -1      1928 9.63310E-05-2.86779E-05-2.89986E-05-1.18155E-06-4.00756E-19 7.85796E-19
 -1      1929 9.59843E-05-2.86924E-05-2.88330E-05-5.97735E-07-7.12964E-19 1.52376E-18
 -1      1930 9.58209E-05-2.86562E-05-2.87825E-05-5.13711E-07-4.78991E-19 1.83969E-18
 -1      1931 9.59889E-05-2.86252E-05-2.88738E-05-8.59665E-07-1.55320E-19 1.41605E-18
 -1      1932 9.57107E-05-2.86354E-05-2.87416E-05-4.17489E-07-9.99141E-19 1.09556E-18
 -1      1933 9.55956E-05-2.86113E-05-2.87057E-05-3.54118E-07-1.12107E-18 1.72131E-19
 -1      1934 9.57353E-05-2.85902E-05-2.87794E-05-6.10137E-07-7.90450E-19 1.95827E-18
 -1      1935 9.55165E-05-2.85973E-05-2.86760E-05-2.81745E-07-3.08977E-19 2.53465E-20
 -1      1936 9.54381E-05-2.85820E-05-2.86511E-05-2.34826E-07 1.72262E-19 2.23587E-19
 -1      1937 9.55514E-05-2.85681E-05-2.87094E-05-4.20202E-07-9.70435E-19 9.26903E-19
 -1      1938 9.53829E-05-2.85729E-05-2.86301E-05-1.81387E-07 8.61948E-19-3.89311E-19
 -1      1939 9.53316E-05-2.85639E-05-2.86136E-05-1.47322E-07 1.17185E-18 6.35476E-19
 -1      1940 9.54213E-05-2.85551E-05-2.86587E-05-2.78219E-07 2.65866E-19 1.41778E-19
 -1      1941 9.52945E-05-2.85585E-05-2.85992E-05-1.08638E-07 8.61199E-19 7.02571E-19
 -1      1942 9.52631E-05-2.85539E-05-2.85888E-05-8.44374E-08 1.62399E-19 9.06601E-19
 -1      1943 9.53323E-05-2.85486E-05-2.86229E-05-1.74062E-07 9.63290E-19 1.41541E-19
 -1      1944 9.52394E-05-2.85510E-05-2.85793E-05-5.70554E-08-6.26056E-19 1.49018E-18
 -1      1945 9.52222E-05-2.85495E-05-2.85733E-05-4.02995E-08-2.01242E-19 1.79606E-18
 -1      1946 9.52739E-05-2.85464E-05-2.85985E-05-9.92141E-08 2.24875E-19 7.48068E-19
 -1      1947 9.52082E-05-2.85485E-05-2.85675E-05-2.14410E-08-2.95485E-19 1.34724E-18
 -1      1948 9.52009E-05-2.85490E-05-2.85646E-05-1.02214E-08 1.81571E-19 1.69021E-18
 -1      1949 9.52381E-05-2.85471E-05-2.85826E-05-4.67055E-08-5.41056E-20 2.26856E-18
 -1      1950 9.51937E-05-2.85491E-05-2.85614E-05 2.28935E-09 1.05854E-18 8.37119E-19
 -1      1951 9.51931E-05-2.85509E-05-2.85606E-05 9.43113E-09 5.30310E-19 1.45231E-18
 -1      1952 9.52184E-05-2.85496E-05-2.85729E-05-1.09849E-08-5.23374E-19 8.05703E-19
 -1      1953 9.51907E-05-2.85519E-05-2.85591E-05 1.72379E-08 3.23695E-19 1.70929E-18
 -1      1954 9.51943E-05-2.85545E-05-2.85597E-05 2.13640E-08 1.29816E-18 3.23445E-18
 -1      1955 9.52099E-05-2.85533E-05-2.85675E-05 1.22365E-08 6.31076E-19 3.11235E-19
 -1      1956 9.51949E-05-2.85559E-05-2.85594E-05 2.56406E-08 5.76832E-19 2.87670E-18
 -1      1957 9.52009E-05-2.85589E-05-2.85607E-05 2.74573E-08 2.13664E-19 2.23731E-18
 -1      1958 9.52089E-05-2.85576E-05-2.85651E-05 2.61328E-08 3.81190E-19 1.87507E-18
 -1      1959 9.52034E-05-2.85607E-05-2.85611E-05 2.89631E-08-1.31952E-18 1.59522E-18
 -1      1960 9.52103E-05-2.85638E-05-2.85627E-05 2.88460E-08-6.95518E-19 7.12817E-19
 -1      1961 9.52127E-05-2.85624E-05-2.85645E-05 3.28953E-08-1.23948E-18 2.09049E-18
 -1      1962 9.52138E-05-2.85659E-05-2.85634E-05 2.80370E-08 4.56612E-19-3.41623E-19
 -1      1963 9.52205E-05-2.85691E-05-2.85649E-05 2.60272E-08 1.03370E-18 4.60641E-19
 -1      1964 9.52191E-05-2.85676E-05-2.85650E-05 3.38721E-08-7.86963E-19 3.60808E-19
 -1      1965 9.52237E-05-2.85710E-05-2.85655E-05 2.32127E-08 1.77335E-18 9.17367E-20
 -1      1966 9.52294E-05-2.85739E-05-2.85668E-05 1.93760E-08 1.51004E-18-2.34392E-19
 -1      1967 9.52326E-05-2.85775E-05-2.85665E-05 2.23621E-08 3.29151E-19-1.22404E-18
 -1      1968 9.52261E-05-2.85729E-05-2.85657E-05 2.99940E-08 4.55724E-19 5.71682E-20
 -1      1969 9.72918E-05-2.84853E-05-2.94516E-05-2.28795E-07 2.98480E-19 1.84402E-19
 -1      1970 9.78768E-05-2.84253E-05-2.97018E-05 9.51465E-07 3.43948E-19 3.13270E-19
 -1      1971 9.84381E-05-2.79116E-05-3.02378E-05 1.92832E-06 3.64065E-19 9.63500E-20
 -1      1972 9.74916E-05-2.88122E-05-2.94017E-05-1.79911E-06 4.17931E-19-1.16216E-19
 -1      1973 9.72803E-05-2.86394E-05-2.93628E-05-1.09138E-06 3.00068E-19 1.03649E-19
 -1      1974 9.78390E-05-2.84633E-05-2.97468E-05-8.68609E-07 3.87776E-19 8.93421E-20
 -1      1975 9.85854E-05-2.92830E-05-2.96790E-05-2.81598E-06-2.70455E-20-7.39632E-20
 -1      1976 9.78808E-05-2.90041E-05-2.94846E-05-2.33916E-06 1.78066E-19-5.59340E-20
 -1      1977 9.82101E-05-2.89049E-05-2.97200E-05-2.59859E-06 2.43360E-19-5.95967E-20
 -1      1978 1.00293E-04-2.99080E-05-3.01515E-05-3.47729E-06-1.87423E-19-1.04291E-19
 -1      1979 9.92741E-05-2.95437E-05-2.98656E-05-3.15131E-06-1.51106E-19 2.10766E-21
 -1      1980 9.93046E-05-2.94326E-05-2.99633E-05-3.72565E-06-8.05823E-20-7.01449E-20
 -1      1981 1.02389E-04-3.06678E-05-3.07328E-05-3.81166E-06 9.21243E-20-1.74935E-19
 -1      1982 1.01190E-04-3.02404E-05-3.03983E-05-3.63139E-06-1.50697E-19-1.41388E-19
 -1      1983 1.00914E-04-3.00963E-05-3.03666E-05-4.41214E-06-1.43686E-19 8.30059E-20
 -1      1984 1.04651E-04-3.15292E-05-3.13428E-05-3.74114E-06 2.10841E-19-9.59860E-20
 -1      1985 1.03405E-04-3.10677E-05-3.10018E-05-3.75025E-06 2.27796E-19-1.41014E-19
 -1      1986 1.02856E-04-3.09062E-05-3.08487E-05-4.64807E-06 2.96328E-19-3.08204E-19
 -1      1987 1.06808E-04-3.24323E-05-3.18917E-05-3.11575E-06 2.75046E-19-5.02919E-19
 -1      1988 1.05682E-04-3.19821E-05-3.15944E-05-3.39273E-06 1.54961E-19-1.71160E-19
 -1      1989 1.04941E-04-3.18482E-05-3.13337E-05-4.31104E-06 2.70538E-19-2.22819E-19
 -1      1990 1.08519E-04-3.32652E-05-3.22779E-05-1.76552E-06-2.07642E-19 3.41298E-19
 -1      1991 1.07723E-04-3.29003E-05-3.20835E-05-2.39931E-06-2.51132E-20-1.68119E-19
 -1      1992 1.06933E-04-3.28636E-05-3.17445E-05-3.21614E-06-6.40933E-20-2.35250E-21
 -1      1993 1.09369E-04-3.38337E-05-3.24021E-05 3.91387E-07 1.78856E-19 4.03846E-19
 -1      1994 1.09140E-04-3.36651E-05-3.23701E-05-6.44693E-07 1.31072E-19 5.96852E-19
 -1      1995 1.08518E-04-3.38067E-05-3.20074E-05-1.20354E-06-5.24234E-20 6.56209E-19
 -1      1996 1.08935E-04-3.38545E-05-3.21990E-05 3.16779E-06 1.86255E-19-5.47263E-20
 -1      1997 1.09483E-04-3.40191E-05-3.23692E-05 1.81855E-06 1.14773E-19-5.21786E-21
 -1      1998 1.09293E-04-3.43992E-05-3.20703E-05 1.69912E-06 3.84460E-19 2.00196E-19
 -1      1999 1.06946E-04-3.30293E-05-3.16816E-05 5.90928E-06 1.02454E-18-3.13190E-19
 -1      2000 1.08348E-04-3.36351E-05-3.20456E-05 4.56973E-06 6.22245E-19-1.76004E-19
 -1      2001 1.08833E-04-3.42425E-05-3.19265E-05 5.04998E-06 7.23267E-19-1.26082E-19
 -1      2002 1.03577E-04-3.12730E-05-3.09725E-05 7.48145E-06 5.92261E-19-4.92060E-19
 -1      2003 1.05633E-04-3.22846E-05-3.14522E-05 6.70613E-06 4.75645E-19-3.05567E-19
 -1      2004 1.06902E-04-3.29943E-05-3.16330E-05 7.82503E-06 5.46694E-19 1.80524E-19
 -1      2005 9.97086E-05-2.90066E-05-3.02865E-05 6.71600E-06 1.92224E-19-2.98976E-19
 -1      2006 1.01869E-04-3.01408E-05-3.07423E-05 7.05935E-06 4.15377E-19-3.84129E-19
 -1      2007 1.03806E-04-3.07314E-05-3.13003E-05 8.60512E-06 4.46348E-19 1.17539E-19
 -1      2008 9.68543E-05-2.72133E-05-2.98532E-05 3.28507E-06 2.22485E-19-7.47910E-19
 -1      2009 9.83368E-05-2.79802E-05-3.01320E-05 4.87108E-06 1.56992E-19-4.47048E-19
 -1      2010 1.00635E-04-2.82564E-05-3.10455E-05 6.33393E-06 1.79280E-19-7.87013E-20
 -1      2011 9.64385E-05-2.69078E-05-2.98257E-05-1.65769E-06 5.90408E-19-7.64196E-19
 -1      2012 9.65857E-05-2.68967E-05-2.98244E-05 5.96812E-07 2.16708E-19-1.01196E-18
 -1      2013 9.89157E-05-2.68262E-05-3.09456E-05 1.34931E-06 5.32162E-19-1.59315E-19
 -1      2014 9.87850E-05-2.83139E-05-3.02273E-05-5.95164E-06-2.74617E-19-4.52871E-19
 -1      2015 9.74852E-05-2.75188E-05-2.99379E-05-4.02188E-06 3.61127E-19-3.37007E-19
 -1      2016 9.96453E-05-2.73164E-05-3.10323E-05-4.34315E-06 1.59666E-19-5.29998E-19
 -1      2017 1.02818E-04-3.06384E-05-3.09383E-05-7.88506E-06-1.26303E-18-8.76176E-19
 -1      2018 1.00595E-04-2.94656E-05-3.04547E-05-7.01068E-06-9.78773E-19-9.64215E-19
 -1      2019 1.02472E-04-2.94539E-05-3.12962E-05-8.25122E-06-6.14913E-19-8.51003E-19
 -1      2020 1.06889E-04-3.27746E-05-3.17419E-05-7.20188E-06-9.03599E-19-1.03849E-18
 -1      2021 1.04551E-04-3.17142E-05-3.12155E-05-7.45858E-06-9.58362E-19-8.99020E-19
 -1      2022 1.05997E-04-3.20422E-05-3.16764E-05-9.08403E-06-8.96727E-19-1.55529E-18
 -1      2023 1.09766E-04-3.40490E-05-3.24182E-05-4.84087E-06-4.83272E-20-9.08145E-19
 -1      2024 1.07973E-04-3.33866E-05-3.19902E-05-5.81199E-06-9.17151E-19-1.17432E-18
 -1      2025 1.08830E-04-3.39524E-05-3.20719E-05-7.25785E-06-7.27707E-19-2.10277E-18
 -1      2026 1.11028E-04-3.43885E-05-3.28177E-05-2.03622E-06 1.30164E-18-2.72939E-19
 -1      2027 1.10074E-04-3.41589E-05-3.25720E-05-3.20040E-06 9.53322E-19-2.03172E-19
 -1      2028 1.10279E-04-3.47329E-05-3.23699E-05-4.12677E-06 4.64498E-19-5.14185E-19
 -1      2029 1.10856E-04-3.40602E-05-3.28958E-05 3.47528E-07 8.32561E-19-4.18206E-19
 -1      2030 1.10715E-04-3.41567E-05-3.28475E-05-6.49980E-07 1.22990E-18-3.21665E-19
 -1      2031 1.10357E-04-3.45576E-05-3.24879E-05-9.78388E-07 1.36300E-18 1.35877E-19
 -1      2032 1.09681E-04-3.33824E-05-3.26937E-05 1.96238E-06-6.35205E-19 3.58573E-19
 -1      2033 1.10156E-04-3.36697E-05-3.28086E-05 1.27779E-06 1.98987E-20-6.83880E-20
 -1      2034 1.09426E-04-3.38362E-05-3.24015E-05 1.45397E-06 1.01899E-19 6.96297E-19
 -1      2035 1.07943E-04-3.25891E-05-3.22961E-05 2.82228E-06-8.13506E-19 1.01157E-18
 -1      2036 1.08794E-04-3.29591E-05-3.25193E-05 2.44820E-06-1.02316E-18 5.62317E-19
 -1      2037 1.07898E-04-3.29232E-05-3.21377E-05 2.96887E-06-8.92359E-19 1.89699E-18
 -1      2038 1.05987E-04-3.18145E-05-3.17932E-05 3.10221E-06-6.00287E-19 1.65502E-18
 -1      2039 1.07009E-04-3.21973E-05-3.20708E-05 2.96915E-06-5.76065E-19 1.39454E-18
 -1      2040 1.06109E-04-3.20298E-05-3.17521E-05 3.67690E-06-7.44175E-19 2.06511E-18
 -1      2041 1.04048E-04-3.11220E-05-3.12597E-05 3.00432E-06 4.60053E-19 2.83292E-18
 -1      2042 1.05092E-04-3.14785E-05-3.15497E-05 3.03031E-06-3.28167E-20 1.93892E-18
 -1      2043 1.04288E-04-3.12484E-05-3.13051E-05 3.80125E-06-1.62893E-19 2.47902E-18
 -1      2044 1.02265E-04-3.05335E-05-3.07470E-05 2.69710E-06-5.84516E-19 2.12919E-18
 -1      2045 1.03239E-04-3.08454E-05-3.10218E-05 2.81302E-06 3.55059E-20 2.38743E-18
 -1      2046 1.02576E-04-3.06035E-05-3.08472E-05 3.56331E-06 1.11822E-19 3.10631E-18
 -1      2047 1.00706E-04-3.00498E-05-3.02852E-05 2.29974E-06-7.59777E-19 2.77448E-18
 -1      2048 1.01562E-04-3.03112E-05-3.05296E-05 2.45616E-06-1.13166E-18 1.85633E-18
 -1      2049 1.01050E-04-3.00879E-05-3.04138E-05 3.13683E-06-3.85316E-19 2.31868E-18
 -1      2050 9.93950E-05-2.96620E-05-2.98883E-05 1.88729E-06-3.11623E-19 2.56776E-18
 -1      2051 1.00116E-04-2.98743E-05-3.00958E-05 2.05269E-06 1.51013E-19 2.64420E-18
 -1      2052 9.97414E-05-2.96841E-05-3.00259E-05 2.64064E-06-4.60343E-20 3.43475E-18
 -1      2053 9.83251E-05-2.93576E-05-2.95592E-05 1.50195E-06-2.37584E-19 1.12184E-18
 -1      2054 9.89122E-05-2.95255E-05-2.97294E-05 1.65829E-06-3.73239E-19 1.03164E-18
 -1      2055 9.86526E-05-2.93724E-05-2.96929E-05 2.14766E-06 9.49057E-20 1.93520E-18
 -1      2056 9.74743E-05-2.91233E-05-2.92943E-05 1.16399E-06 1.66776E-18-4.32507E-19
 -1      2057 9.79392E-05-2.92530E-05-2.94298E-05 1.30232E-06 4.60300E-19 2.29595E-19
 -1      2058 9.77702E-05-2.91352E-05-2.94165E-05 1.69760E-06 7.97955E-19 2.28123E-19
 -1      2059 9.68136E-05-2.89465E-05-2.90863E-05 8.80126E-07 1.79666E-18 5.18364E-19
 -1      2060 9.71726E-05-2.90444E-05-2.91915E-05 9.97179E-07 1.75385E-18 1.05207E-19
 -1      2061 9.70715E-05-2.89572E-05-2.91934E-05 1.30832E-06 1.87805E-18-6.63291E-19
 -1      2062 9.63118E-05-2.88157E-05-2.89269E-05 6.49322E-07 2.61036E-19-1.55012E-19
 -1      2063 9.65825E-05-2.88880E-05-2.90067E-05 7.45141E-07 9.45390E-19 6.94788E-19
 -1      2064 9.65301E-05-2.88258E-05-2.90176E-05 9.84311E-07 8.00751E-19 1.45047E-18
 -1      2065 9.59393E-05-2.87213E-05-2.88075E-05 4.66575E-07 3.83861E-19-1.95577E-19
 -1      2066 9.61386E-05-2.87733E-05-2.88666E-05 5.42942E-07 1.39760E-19 8.76844E-20
 -1      2067 9.61195E-05-2.87307E-05-2.88823E-05 7.22592E-07 1.56438E-19 9.68073E-19
 -1      2068 9.56696E-05-2.86548E-05-2.87203E-05 3.25196E-07-1.65672E-20-7.03152E-19
 -1      2069 9.58124E-05-2.86912E-05-2.87628E-05 3.84670E-07 3.90799E-19-2.59950E-19
 -1      2070 9.58150E-05-2.86634E-05-2.87805E-05 5.16413E-07 6.22903E-19 1.68875E-18
 -1      2071 9.54797E-05-2.86097E-05-2.86582E-05 2.18158E-07-7.32537E-19-7.96509E-19
 -1      2072 9.55790E-05-2.86342E-05-2.86880E-05 2.63506E-07-8.11861E-19-1.27562E-18
 -1      2073 9.55945E-05-2.86172E-05-2.87056E-05 3.57579E-07 9.22978E-20 4.85174E-19
 -1      2074 9.53508E-05-2.85803E-05-2.86155E-05 1.38826E-07 2.36000E-19 3.39550E-19
 -1      2075 9.54171E-05-2.85960E-05-2.86356E-05 1.72702E-07-3.45839E-19 3.12282E-19
 -1      2076 9.54393E-05-2.85867E-05-2.86520E-05 2.37781E-07-9.81945E-19 1.00598E-18
 -1      2077 9.52672E-05-2.85624E-05-2.85874E-05 8.13178E-08-4.00885E-19 2.09582E-19
 -1      2078 9.53092E-05-2.85718E-05-2.86003E-05 1.06102E-07-2.03116E-19-6.01009E-20
 -1      2079 9.53339E-05-2.85676E-05-2.86149E-05 1.49318E-07 1.34127E-21 8.68677E-19
 -1      2080 9.52170E-05-2.85528E-05-2.85700E-05 4.06349E-08-7.40959E-19 2.08881E-18
 -1      2081 9.52413E-05-2.85576E-05-2.85776E-05 5.83691E-08-7.57839E-19 1.22923E-18
 -1      2082 9.52656E-05-2.85568E-05-2.85901E-05 8.54384E-08-1.25971E-18 2.13668E-18
 -1      2083 9.51904E-05-2.85489E-05-2.85603E-05 1.26788E-08-2.74033E-19 1.11339E-18
 -1      2084 9.52022E-05-2.85506E-05-2.85642E-05 2.50490E-08-3.17646E-19 1.88438E-18
 -1      2085 9.52245E-05-2.85518E-05-2.85745E-05 4.04571E-08-6.78801E-19 2.20775E-18
 -1      2086 9.51803E-05-2.85489E-05-2.85561E-05-5.80249E-09-7.87295E-19 1.42359E-18
 -1      2087 9.51836E-05-2.85485E-05-2.85574E-05 2.54897E-09-3.63009E-19 1.21036E-18
 -1      2088 9.52029E-05-2.85506E-05-2.85656E-05 9.75048E-09-6.48313E-19 2.17093E-18
 -1      2089 9.51812E-05-2.85513E-05-2.85554E-05-1.72878E-08 7.19066E-19 5.96027E-19
 -1      2090 9.51788E-05-2.85496E-05-2.85550E-05-1.19270E-08-1.49695E-19 1.06723E-18
 -1      2091 9.51947E-05-2.85521E-05-2.85614E-05-1.03116E-08 4.15985E-19 1.24289E-18
 -1      2092 9.51889E-05-2.85553E-05-2.85571E-05-2.35569E-08 3.09438E-19 2.08009E-18
 -1      2093 9.51832E-05-2.85528E-05-2.85557E-05-2.04531E-08 6.73916E-19 1.47918E-18
 -1      2094 9.51954E-05-2.85553E-05-2.85603E-05-2.24564E-08 2.64704E-19 1.76104E-18
 -1      2095 9.52003E-05-2.85601E-05-2.85599E-05-2.57176E-08 1.82500E-18 1.22877E-18
 -1      2096 9.51928E-05-2.85572E-05-2.85580E-05-2.44299E-08 8.68379E-19 2.49658E-18
 -1      2097 9.52016E-05-2.85594E-05-2.85611E-05-2.85664E-08 5.03001E-19 2.64704E-18
 -1      2098 9.52128E-05-2.85652E-05-2.85632E-05-2.42995E-08 9.68059E-19 9.03628E-19
 -1      2099 9.52051E-05-2.85623E-05-2.85612E-05-2.46537E-08 1.54238E-18 1.12480E-18
 -1      2100 9.52107E-05-2.85642E-05-2.85629E-05-2.97757E-08 1.82236E-18 2.26046E-18
 -1      2101 9.52244E-05-2.85703E-05-2.85660E-05-1.92486E-08 1.68059E-18 1.01317E-18
 -1      2102 9.52176E-05-2.85675E-05-2.85644E-05-2.14369E-08 1.21781E-18 1.47599E-18
 -1      2103 9.52207E-05-2.85692E-05-2.85650E-05-2.66661E-08 1.24355E-18 2.99327E-18
 -1      2104 9.52324E-05-2.85742E-05-2.85679E-05-1.28840E-08 6.08182E-19 1.17215E-18
 -1      2105 9.52272E-05-2.85719E-05-2.85666E-05-1.68201E-08 1.53872E-18 8.95839E-19
 -1      2106 9.52288E-05-2.85736E-05-2.85665E-05-2.13202E-08 1.50668E-18 3.52850E-18
 -1      2107 9.52344E-05-2.85774E-05-2.85673E-05-1.55177E-08 9.17473E-21 3.69599E-18
 -1      2108 9.52489E-05-2.86053E-05-2.85615E-05-2.33007E-08 1.09123E-18 1.27206E-18
 -1      2109 9.52463E-05-2.85993E-05-2.85630E-05-2.42068E-08 8.24557E-19 5.63201E-20
 -1      2110 9.52441E-05-2.85954E-05-2.85637E-05-2.45676E-08 6.17702E-19-1.10290E-19
 -1      2111 9.52411E-05-2.85893E-05-2.85651E-05-2.37449E-08-5.53976E-21 1.93280E-18
 -1      2112 9.52438E-05-2.85925E-05-2.85649E-05-2.97652E-08-6.07812E-19 6.26705E-19
 -1      2113 9.52393E-05-2.85863E-05-2.85656E-05-2.19089E-08-4.40952E-20 3.22265E-18
 -1      2114 9.52363E-05-2.85807E-05-2.85667E-05-1.89077E-08 1.58240E-20 3.40796E-18
 -1      2115 9.52340E-05-2.85791E-05-2.85665E-05-2.23650E-08 1.13419E-18 2.92114E-18
 -1      2116 9.52389E-05-2.85855E-05-2.85657E-05-2.81221E-08-3.90577E-19 2.60182E-18
 -1      2117 9.52525E-05-2.86135E-05-2.85595E-05-1.95039E-08-1.32193E-19-2.15025E-18
 -1      2118 9.52505E-05-2.86084E-05-2.85608E-05-2.14168E-08 4.86835E-19 9.03068E-19
 -1      2119 9.52485E-05-2.85998E-05-2.85638E-05-2.72088E-08 1.77946E-19-2.79880E-19
 -1      2120 9.52549E-05-2.86199E-05-2.85578E-05-1.41706E-08 8.40093E-19-1.13904E-18
 -1      2121 9.52535E-05-2.86160E-05-2.85588E-05-1.66765E-08 6.10468E-19-3.23060E-19
 -1      2122 9.52516E-05-2.86055E-05-2.85627E-05-2.19753E-08-4.63637E-19-1.27189E-18
 -1      2123 9.52563E-05-2.86239E-05-2.85567E-05-8.12003E-09 1.21753E-18-6.54583E-19
 -1      2124 9.52555E-05-2.86215E-05-2.85573E-05-1.08807E-08 1.06844E-18-4.38001E-19
 -1      2125 9.52536E-05-2.86097E-05-2.85617E-05-1.52130E-08 3.82074E-19-8.18547E-19
 -1      2126 9.52569E-05-2.86255E-05-2.85562E-05-1.78934E-09 1.09925E-19-1.90293E-18
 -1      2127 9.52566E-05-2.86247E-05-2.85564E-05-4.64210E-09 8.48188E-19-2.29139E-18
 -1      2128 9.52546E-05-2.86121E-05-2.85611E-05-7.75181E-09 2.25875E-19-1.71828E-18
 -1      2129 9.52566E-05-2.86247E-05-2.85564E-05 4.60086E-09-7.48597E-19-3.09972E-18
 -1      2130 9.52569E-05-2.86255E-05-2.85562E-05 1.74141E-09-1.11410E-19-1.80085E-18
 -1      2131 9.52550E-05-2.86130E-05-2.85609E-05-3.33579E-11-1.18804E-18-3.19016E-18
 -1      2132 9.52556E-05-2.86215E-05-2.85573E-05 1.08741E-08-8.80175E-19-3.29293E-18
 -1      2133 9.52564E-05-2.86239E-05-2.85567E-05 8.09596E-09-1.32458E-18-3.35465E-18
 -1      2134 9.52547E-05-2.86122E-05-2.85611E-05 7.70482E-09-9.83023E-19-3.37483E-18
 -1      2135 9.52536E-05-2.86161E-05-2.85588E-05 1.66259E-08-7.90332E-19 5.87000E-20
 -1      2136 9.52550E-05-2.86200E-05-2.85578E-05 1.41411E-08-7.11838E-20-1.13366E-18
 -1      2137 9.52537E-05-2.86098E-05-2.85617E-05 1.51576E-08-6.85200E-19-1.20631E-18
 -1      2138 9.52505E-05-2.86085E-05-2.85608E-05 2.14659E-08-2.13407E-19 5.54510E-18
 -1      2139 9.52526E-05-2.86137E-05-2.85595E-05 1.94981E-08-1.44375E-18 3.07870E-18
 -1      2140 9.52518E-05-2.86057E-05-2.85626E-05 2.19397E-08-6.04527E-19 7.76555E-19
 -1      2141 9.52463E-05-2.85993E-05-2.85630E-05 2.43143E-08 4.03398E-20 1.79456E-18
 -1      2142 9.52490E-05-2.86053E-05-2.85615E-05 2.34057E-08-5.29410E-19 3.82156E-18
 -1      2143 9.52486E-05-2.85999E-05-2.85638E-05 2.72850E-08-4.34766E-19 4.88068E-18
 -1      2144 9.52408E-05-2.85891E-05-2.85651E-05 2.40724E-08 2.76527E-19-2.04670E-18
 -1      2145 9.52442E-05-2.85954E-05-2.85637E-05 2.46821E-08 7.72794E-19-1.58279E-18
 -1      2146 9.52439E-05-2.85925E-05-2.85649E-05 2.98884E-08-1.30733E-18 8.76699E-19
 -1      2147 5.88464E-05-3.94600E-05-8.88366E-06 3.96917E-05 4.61633E-19 2.04945E-18
 -1      2148 4.43031E-05-4.07268E-05-2.73571E-06 3.37231E-05-2.51992E-19 1.91546E-18
 -1      2149 1.16716E-05-3.34196E-05 7.99780E-06 5.36466E-06-6.01076E-19 1.02152E-18
 -1      2150 1.20861E-05-3.49091E-05 8.29066E-06-4.41232E-06-1.35631E-18 4.59092E-19
 -1      2151 2.82842E-05-3.32127E-05 1.50249E-06 2.83922E-05-8.53386E-19 1.98672E-18
 -1      2152 1.93038E-05-3.43695E-05 5.26120E-06 1.77020E-05-1.27987E-18 1.09945E-18
 -1      2153 9.65935E-05-4.32230E-05-2.31313E-05 4.15526E-05 4.45116E-19 2.81130E-18
 -1      2154 7.52306E-05-4.34741E-05-1.48562E-05 3.77479E-05 4.62056E-19 2.07968E-18
 -1      2155 7.93108E-05-4.76077E-05-1.38418E-05 4.21406E-05-2.53686E-19 2.02684E-18
 -1      2156 1.37233E-04-3.94922E-05-4.10461E-05 3.62406E-05 1.30041E-18 2.76133E-18
 -1      2157 1.17035E-04-4.25338E-05-3.20950E-05 3.49197E-05 8.96584E-19 3.06287E-18
 -1      2158 8.73193E-05-8.26757E-06-3.39730E-05-8.08698E-06-5.55015E-19-9.10428E-20
 -1      2159 8.84684E-05-8.99990E-06-3.41347E-05-9.60392E-06-5.95319E-19 6.53671E-20
 -1      2160 9.11530E-05-1.28525E-05-3.36204E-05-9.26038E-06-6.04159E-19 1.58686E-19
 -1      2161 8.83217E-05-1.01834E-05-3.35060E-05-6.90020E-06-5.17167E-19-6.59230E-20
 -1      2162 1.68595E-04-2.35911E-05-6.18574E-05 2.51210E-06 1.12062E-18 1.94076E-18
 -1      2163 1.65323E-04-2.73207E-05-5.85233E-05 9.08097E-06 1.61360E-18 1.85627E-18
 -1      2164 1.82084E-04-2.37777E-05-6.62089E-05-3.20676E-06 1.41116E-18 1.72128E-18
 -1      2165 1.75078E-04-2.05704E-05-6.52296E-05 2.91030E-06 1.31290E-18 2.01954E-18
 -1      2166 1.71283E-04-2.68140E-05-6.11636E-05-1.23254E-05 1.40015E-18 1.35991E-18
 -1      2167 1.79702E-04-2.62930E-05-6.44971E-05-6.53390E-06 1.20152E-18 1.67649E-18
 -1      2168 1.53626E-04-3.50158E-05-5.06183E-05-2.13288E-05 1.08261E-18 6.43745E-19
 -1      2169 1.67927E-04-3.33941E-05-5.66280E-05-1.72350E-05 1.41984E-18 1.08208E-18
 -1      2170 1.26556E-04-4.16400E-05-3.67021E-05-3.24482E-05 1.18394E-18-8.63974E-20
 -1      2171 1.45631E-04-4.02093E-05-4.44721E-05-3.14662E-05 1.06303E-18 1.37219E-19
 -1      2172 9.07179E-05-4.39441E-05-2.09747E-05-3.84557E-05 2.06083E-18 6.09864E-20
 -1      2173 1.11061E-04-4.27214E-05-2.90992E-05-4.13743E-05 1.54668E-18 1.36372E-19
 -1      2174 5.50460E-05-4.26739E-05-6.73204E-06-3.54839E-05 1.76479E-18-6.20372E-19
 -1      2175 7.15586E-05-3.99940E-05-1.39146E-05-4.20651E-05 2.04728E-18-4.76033E-19
 -1      2176 2.86189E-05-3.91141E-05 3.00248E-06-2.56835E-05 1.11342E-18-1.51492E-18
 -1      2177 3.94912E-05-3.73839E-05-1.70608E-06-3.37577E-05 1.65171E-18-8.65456E-19
 -1      2178 1.31941E-05-3.52132E-05 7.98062E-06-8.00867E-06 5.52477E-19-2.76217E-18
 -1      2179 1.75538E-05-3.54430E-05 6.32967E-06-1.68451E-05 1.18225E-18-2.32129E-18
 -1      2180 1.57422E-05-3.43582E-05 6.71857E-06 1.37739E-05 3.09591E-19-1.48824E-18
 -1      2181 1.23221E-05-3.47879E-05 8.14727E-06 3.91454E-06 8.57383E-19-2.25226E-18
 -1      2182 3.77286E-05-3.66318E-05-1.21209E-06 3.33225E-05-2.38016E-19-1.01220E-18
 -1      2183 2.61228E-05-3.81495E-05 3.69374E-06 2.34846E-05 1.08844E-19-9.75147E-19
 -1      2184 7.81182E-05-4.44653E-05-1.45401E-05 4.32767E-05-2.56651E-19-1.14858E-18
 -1      2185 5.90882E-05-4.43377E-05-7.28285E-06 3.71239E-05-2.77827E-19-1.10842E-18
 -1      2186 1.15706E-04-4.26706E-05-3.08483E-05 4.07035E-05-9.86793E-19-5.24313E-19
 -1      2187 9.63154E-05-4.62507E-05-2.21822E-05 3.74623E-05-3.60836E-19-8.51056E-19
 -1      2188 1.49216E-04-3.95114E-05-4.60928E-05 3.24831E-05-1.32942E-18-4.34528E-19
 -1      2189 1.28843E-04-4.04620E-05-3.81436E-05 3.31508E-05-1.09352E-18-6.29345E-19
 -1      2190 1.70716E-04-3.38622E-05-5.77368E-05 1.62745E-05-1.27267E-18-7.04731E-19
 -1      2191 1.57973E-04-3.51975E-05-5.20530E-05 2.28307E-05-1.48130E-18-6.93720E-19
 -1      2192 1.76042E-04-2.34133E-05-6.46199E-05 2.68775E-06-1.67077E-18 5.34478E-19
 -1      2193 1.74450E-04-2.68342E-05-6.20789E-05 9.68494E-06-1.46579E-18 1.24937E-19
 -1      2194 1.79149E-04-2.41649E-05-6.51609E-05-4.06690E-06-1.30867E-18 1.04376E-18
 -1      2195 1.72948E-04-1.99101E-05-6.50129E-05 2.20290E-06-1.32349E-18 7.34828E-19
 -1      2196 1.62694E-04-2.78172E-05-5.77982E-05-7.05271E-06-6.41627E-19 1.11385E-19
 -1      2197 1.77052E-04-2.79105E-05-6.27113E-05-5.90008E-06-9.93146E-19 5.38078E-19
 -1      2198 1.54792E-04-1.61676E-05-5.86224E-05 4.33368E-06-8.10611E-19-3.86247E-19
 -1      2199 1.47811E-04-4.06792E-05-4.58960E-05-1.95486E-05-6.80538E-19 5.94617E-19
 -1      2200 1.60691E-04-3.77209E-05-5.23523E-05-1.35243E-05-9.09819E-19 3.20602E-19
 -1      2201 1.15474E-04-4.40647E-05-3.11733E-05-3.40556E-05-1.10961E-19 2.49917E-18
 -1      2202 1.36727E-04-4.42861E-05-3.94071E-05-3.23894E-05-2.75709E-19 2.28148E-18
 -1      2203 7.72372E-05-4.40624E-05-1.54070E-05-3.70864E-05-5.54807E-19 1.70169E-18
 -1      2204 9.75640E-05-4.21659E-05-2.37883E-05-4.20729E-05-6.42898E-19 2.36788E-18
 -1      2205 4.34777E-05-4.11622E-05-2.26055E-06-3.23598E-05-9.10984E-19-6.25746E-20
 -1      2206 5.86792E-05-3.98306E-05-8.70796E-06-3.89880E-05-5.53536E-19 6.36598E-19
 -1      2207 1.78403E-05-3.63111E-05 6.31850E-06-1.49793E-05-1.27457E-18-2.78674E-19
 -1      2208 2.58833E-05-3.37601E-05 2.52198E-06-2.57179E-05-7.71647E-19-3.96623E-19
 -1      2209 1.63466E-04-3.54585E-05-5.42707E-05 1.89433E-05 1.83256E-18 1.59157E-18
 -1      2210 1.48216E-04-3.65122E-05-4.75917E-05 2.56483E-05 1.59306E-18 1.83679E-18
 -1      2211 1.14155E-04-4.95551E-05-2.77129E-05 3.49409E-05 3.40507E-19 3.05694E-18
 -1      2212 1.11730E-04-5.49631E-05-2.38489E-05 3.48677E-05-4.19281E-19 2.76397E-18
 -1      2213 1.28907E-04-5.58638E-05-3.19884E-05 2.63561E-05 1.86559E-19 2.06168E-18
 -1      2214 9.95147E-05-2.50115E-05-3.19931E-05-8.00410E-06-3.64198E-19 1.23434E-18
 -1      2215 1.54559E-04-2.98933E-05-5.26153E-05 1.07260E-06 1.27436E-18 1.33344E-18
 -1      2216 9.85677E-05-2.36697E-05-3.21709E-05-7.87916E-06-4.13974E-19 7.79059E-19
 -1      2217 4.37935E-05-3.55009E-05-3.97041E-06 3.61770E-05-4.48080E-19 2.37106E-18
 -1      2218 1.84007E-05-2.48167E-05 2.25630E-06 1.49922E-05-5.22302E-19 1.06387E-18
 -1      2219 9.52384E-05-2.85846E-05-2.85660E-05 2.40229E-08-1.73175E-19-1.80242E-18
 -1      2220 1.73215E-05-2.55616E-05 2.88843E-06-1.30218E-05-4.39398E-20 3.53213E-19
 -1      2221 1.45854E-04-4.50791E-05-4.24620E-05 1.68345E-05 1.29437E-18 1.33492E-18
 -1      2222 4.19099E-05-3.57177E-05-3.09554E-06-3.43502E-05-9.18607E-19-1.82536E-19
 -1      2223 8.10162E-05-4.86362E-05-1.41549E-05-4.11858E-05-2.10064E-19 1.25747E-18
 -1      2224 1.18550E-04-5.38530E-05-2.74586E-05-3.28025E-05 7.62330E-21 1.82641E-18
 -1      2225 1.54534E-04-3.28292E-05-5.16064E-05 2.13910E-06-2.48181E-19-3.82012E-19
 -1      2226 1.64070E-04-1.76532E-05-6.20685E-05 4.58729E-07-1.55346E-18 4.12399E-20
 -1      2227 1.48509E-04-1.37436E-05-5.77972E-05-2.52576E-06-1.84187E-18-5.65183E-19
 -1      2228 1.45784E-04-1.08579E-05-5.81458E-05-9.99200E-08-1.27478E-18-9.03427E-19
 -1      2229 1.61035E-04-2.70865E-05-5.63994E-05 1.31529E-06-1.58205E-18 2.83756E-20
 -1      2230 1.53054E-04-4.21456E-05-4.66748E-05 1.30194E-05-1.14929E-18-4.18434E-19
 -1      2231 1.32396E-04-5.20532E-05-3.41558E-05 2.75408E-05-5.40407E-19-4.29869E-19
 -1      2232 9.90882E-05-5.35037E-05-1.97690E-05 3.92699E-05 1.62207E-19-5.15525E-19
 -1      2233 5.80328E-05-4.10799E-05-7.35273E-06 4.07262E-05 2.71474E-19-1.15747E-18
 -1      2234 2.50156E-05-2.91860E-05 1.24310E-06 2.36651E-05 6.65556E-19-1.33958E-18
 -1      2235 1.46203E-05-2.56713E-05 4.00660E-06-2.50993E-06 6.37789E-19-2.50256E-18
 -1      2236 2.79057E-05-3.07350E-05 6.00480E-07-2.74519E-05 5.28549E-19-1.81667E-18
 -1      2237 5.71638E-05-4.18172E-05-7.06145E-06-4.05389E-05 8.25857E-19-3.99694E-19
 -1      2238 9.40380E-05-5.08456E-05-1.86117E-05-4.10917E-05 1.24429E-18 3.51625E-19
 -1      2239 1.28649E-04-5.22250E-05-3.23947E-05-2.91777E-05 1.16128E-18 2.78674E-19
 -1      2240 1.50161E-04-4.26486E-05-4.53803E-05-1.23372E-05 1.10125E-18 1.09098E-18
 -1      2241 1.57986E-04-2.69045E-05-5.52760E-05-1.07125E-06 1.46367E-18 1.95919E-18
 -1      2242 1.60650E-04-1.80678E-05-6.06085E-05-2.20505E-07 8.46186E-19 1.39432E-18
 -1      2243 1.43560E-04-1.52362E-05-5.50256E-05-5.86043E-06 7.74612E-19 3.37119E-19
 -1      2244 1.46292E-04-1.13690E-05-5.82135E-05-3.17504E-06 1.01559E-18 9.10190E-19
 -1      2245 1.60484E-04-1.54331E-05-6.10980E-05 5.87211E-07 1.46918E-18 1.69936E-18
 -1      2246 1.45139E-04-4.92849E-05-4.05410E-05-1.41222E-05 2.08582E-20-2.82909E-19
 -1      2247 9.82330E-05-2.70323E-05-3.04903E-05 1.54657E-06 3.27233E-19-1.22965E-19
 -1      2248 9.87601E-05-2.64422E-05-3.09199E-05 3.51110E-06 3.58096E-19-1.39492E-19
 -1      2249 8.53813E-05-8.75136E-06-3.28811E-05-2.19720E-06-3.42861E-19-3.66226E-19
 -1      2250 8.59887E-05-9.21670E-06-3.29308E-05-2.98784E-06-3.72927E-19-3.82210E-19
 -1      2251 8.68188E-05-1.00168E-05-3.29639E-05-3.63886E-06-3.67078E-19-3.40805E-19
 -1      2252 8.77364E-05-1.07616E-05-3.30250E-05-4.55252E-06-4.16294E-19-1.91297E-19
 -1      2253 8.74422E-05-1.13605E-05-3.25987E-05-2.72912E-06-3.01744E-19-3.00296E-19
 -1      2254 8.44837E-05-7.97398E-06-3.28181E-05 3.10740E-07-1.19284E-19-4.07496E-19
 -1      2255 8.44575E-05-7.95237E-06-3.28174E-05-3.84006E-07-2.45081E-19-3.48471E-19
 -1      2256 8.50236E-05-8.42131E-06-3.28559E-05 1.58329E-06-5.43135E-20-5.78431E-19
 -1      2257 8.46852E-05-8.16559E-06-3.28281E-05 8.51273E-07-9.54262E-20-4.98036E-19
 -1      2258 8.54832E-05-9.61313E-06-3.25104E-05 4.44801E-07-1.08464E-19-4.60154E-19
 -1      2259 8.61724E-05-9.40349E-06-3.29291E-05 2.97985E-06 8.34497E-20-6.58293E-19
 -1      2260 8.55478E-05-8.91943E-06-3.28812E-05 2.17383E-06-1.93618E-20-6.39255E-19
 -1      2261 8.62439E-05-1.02974E-05-3.25431E-05 1.51025E-06-3.31476E-20-5.74173E-19
 -1      2262 8.79477E-05-1.09911E-05-3.30173E-05 4.61346E-06 2.10651E-19-5.56699E-19
 -1      2263 8.70210E-05-1.02304E-05-3.29592E-05 3.67175E-06 1.35601E-19-6.15290E-19
 -1      2264 8.76657E-05-1.16027E-05-3.25926E-05 2.71857E-06 1.77361E-19-6.04834E-19
 -1      2265 9.03481E-05-1.32919E-05-3.30787E-05 6.45078E-06 3.34441E-19-4.98856E-19
 -1      2266 8.91120E-05-1.21776E-05-3.30310E-05 5.38941E-06 2.25614E-19-5.34379E-19
 -1      2267 8.97304E-05-1.35811E-05-3.26260E-05 4.09153E-06 2.43582E-19-5.27285E-19
 -1      2268 9.34471E-05-1.65499E-05-3.30471E-05 8.29152E-06 4.89483E-19-4.17700E-19
 -1      2269 9.18458E-05-1.49147E-05-3.30374E-05 7.21385E-06 3.80257E-19-4.59185E-19
 -1      2270 9.23863E-05-1.63143E-05-3.25815E-05 5.49797E-06 3.05939E-19-4.27130E-19
 -1      2271 9.81062E-05-2.79315E-05-3.00466E-05-1.33438E-06 3.96448E-19-1.44183E-19
 -1      2272 9.81610E-05-2.75825E-05-3.01761E-05-1.45247E-07 3.86661E-19-1.12622E-19
 -1      2273 9.79507E-05-2.62381E-05-3.07497E-05 1.12010E-06 3.58626E-19-3.19212E-19
 -1      2274 9.82324E-05-2.53795E-05-3.11722E-05-3.10595E-06-4.99816E-19 4.68399E-19
 -1      2275 9.79679E-05-2.61652E-05-3.07738E-05-9.49123E-07-4.47445E-19 4.93392E-19
 -1      2276 1.43104E-04-2.73951E-05-5.03460E-05-8.43804E-06 7.12566E-19-1.60513E-19
 -1      2277 1.45961E-04-3.71032E-05-4.68643E-05-3.85693E-06 7.69318E-19 3.28437E-19
 -1      2278 9.80688E-05-2.68222E-05-3.04786E-05 7.47502E-07-4.69792E-19 4.53322E-19
 -1      2279 9.81048E-05-2.72720E-05-3.03414E-05 2.14661E-06-4.06179E-19 2.98481E-19
 -1      2280 9.74292E-05-2.52490E-05-3.09450E-05-3.74781E-07-4.70808E-19 2.78850E-19
 -1      2281 9.82101E-05-2.76298E-05-3.02111E-05 3.42429E-06-2.07756E-19 3.15672E-19
 -1      2282 9.85727E-05-2.79933E-05-3.02311E-05 4.41823E-06 4.49854E-20 3.27188E-19
 -1      2283 9.76480E-05-2.65583E-05-3.04855E-05 2.82494E-06-2.53968E-19 2.73058E-19
 -1      2284 9.88225E-05-2.82775E-05-3.02100E-05 5.39814E-06 1.16762E-19 3.04747E-19
 -1      2285 9.94728E-05-2.86697E-05-3.03293E-05 6.12794E-06 7.92059E-20 3.10710E-19
 -1      2286 9.80401E-05-2.73999E-05-3.02933E-05 5.25124E-06 5.54339E-20 2.31922E-19
 -1      2287 9.99161E-05-2.89992E-05-3.03765E-05 6.87320E-06 7.02239E-20 3.80979E-19
 -1      2288 1.00811E-04-2.94949E-05-3.05550E-05 7.36788E-06 1.23921E-19 5.27630E-19
 -1      2289 9.87640E-05-2.81714E-05-3.02726E-05 7.10846E-06 1.24207E-19 8.77506E-20
 -1      2290 1.01493E-04-2.99662E-05-3.06392E-05 7.86792E-06-9.02449E-21 4.88945E-19
 -1      2291 1.02598E-04-3.06331E-05-3.08437E-05 8.07168E-06 2.09863E-20 6.66830E-19
 -1      2292 9.99122E-05-2.91383E-05-3.03518E-05 8.46321E-06 1.11394E-19 3.58146E-19
 -1      2293 1.03588E-04-3.13453E-05-3.09418E-05 8.23773E-06-6.03164E-20 5.06608E-19
 -1      2294 1.04865E-04-3.22423E-05-3.11427E-05 8.02084E-06-2.54852E-19 5.18523E-19
 -1      2295 1.01600E-04-3.05441E-05-3.04780E-05 9.22918E-06-1.08961E-19 1.43914E-19
 -1      2296 1.06253E-04-3.32831E-05-3.12449E-05 7.68095E-06-5.02884E-19 5.37008E-19
 -1      2297 1.07637E-04-3.44205E-05-3.14201E-05 6.86043E-06-4.91299E-19 5.57729E-19
 -1      2298 1.03991E-04-3.26195E-05-3.06226E-05 9.15914E-06-2.59910E-19 1.83118E-19
 -1      2299 1.09482E-04-3.57992E-05-3.15408E-05 5.77259E-06-1.38141E-19 4.11233E-19
 -1      2300 1.10827E-04-3.70479E-05-3.16864E-05 4.17655E-06-2.01025E-19 4.59508E-19
 -1      2301 1.07243E-04-3.54856E-05-3.07987E-05 7.84551E-06-3.82115E-19 4.08989E-19
 -1      2302 1.13040E-04-3.85564E-05-3.18811E-05 2.09312E-06-3.74455E-19 5.67166E-19
 -1      2303 1.14035E-04-3.94895E-05-3.20267E-05-2.93190E-07-1.67051E-19 4.66149E-19
 -1      2304 1.11352E-04-3.89163E-05-3.10923E-05 4.78895E-06-3.52743E-19 2.19994E-19
 -1      2305 1.16154E-04-4.05053E-05-3.24002E-05-3.36802E-06-7.43801E-21 3.41707E-19
 -1      2306 1.16338E-04-4.03756E-05-3.26147E-05-6.12893E-06 2.24788E-19 4.05256E-19
 -1      2307 1.15800E-04-4.19078E-05-3.16950E-05-3.87675E-07-2.63477E-19 4.74839E-19
 -1      2308 1.17428E-04-3.98925E-05-3.32903E-05-9.49229E-06 1.94186E-19 2.93889E-20
 -1      2309 1.16408E-04-3.79353E-05-3.36366E-05-1.15503E-05 2.64079E-19 2.57891E-19
 -1      2310 1.19152E-04-4.23706E-05-3.28861E-05-7.10241E-06 4.59234E-20 1.11008E-19
 -1      2311 1.15549E-04-3.52194E-05-3.45960E-05-1.33800E-05 2.02891E-19 4.72668E-19
 -1      2312 1.13546E-04-3.16625E-05-3.50421E-05-1.31555E-05-2.02759E-19 5.35666E-19
 -1      2313 1.19413E-04-3.81577E-05-3.48043E-05-1.30292E-05 3.95194E-19-2.39379E-19
 -1      2314 1.11285E-04-2.77537E-05-3.60001E-05-1.13448E-05-4.61871E-19 8.72877E-19
 -1      2315 1.09527E-04-2.46500E-05-3.63490E-05-8.03258E-06-4.70765E-19 7.19060E-19
 -1      2316 1.16082E-04-2.96689E-05-3.71014E-05-1.36198E-05-1.03259E-19 5.44272E-19
 -1      2317 1.08199E-04-2.25870E-05-3.67911E-05-2.63960E-06-6.68097E-19 4.80632E-19
 -1      2318 1.08148E-04-2.24355E-05-3.68221E-05 2.29062E-06-1.24657E-18 8.86258E-20
 -1      2319 1.12112E-04-2.19872E-05-3.88103E-05-6.09438E-06-7.52642E-19 7.14016E-19
 -1      2320 1.09323E-04-2.41851E-05-3.64693E-05 7.87744E-06-8.93884E-19-2.64258E-19
 -1      2321 1.11074E-04-2.71277E-05-3.61669E-05 1.14519E-05-4.46572E-19-1.84534E-19
 -1      2322 1.11932E-04-2.15699E-05-3.89130E-05 5.79972E-06-9.93305E-19 1.64629E-19
 -1      2323 1.13402E-04-3.10175E-05-3.52506E-05 1.36433E-05-4.21174E-19 5.61374E-20
 -1      2324 1.15538E-04-3.46487E-05-3.48316E-05 1.41631E-05-1.08576E-19 1.87446E-19
 -1      2325 1.15826E-04-2.88404E-05-3.73544E-05 1.39753E-05-2.35210E-19-4.35296E-20
 -1      2326 1.16612E-04-3.75578E-05-3.38783E-05 1.26158E-05 1.84637E-19 2.76940E-20
 -1      2327 1.17826E-04-3.97130E-05-3.35525E-05 1.07226E-05 4.43439E-19 1.57644E-19
 -1      2328 1.19489E-04-3.75672E-05-3.50885E-05 1.40609E-05-2.55169E-20 6.41991E-19
 -1      2329 1.16960E-04-4.03930E-05-3.28768E-05 7.46081E-06 6.69836E-19 1.04538E-19
 -1      2330 1.16947E-04-4.06870E-05-3.26843E-05 4.72981E-06 8.43115E-19 1.38917E-20
 -1      2331 1.19640E-04-4.22338E-05-3.31608E-05 8.53822E-06 4.58296E-19 4.94859E-19
 -1      2332 1.14955E-04-3.97669E-05-3.23055E-05 1.64021E-06 6.25871E-19-3.28007E-19
 -1      2333 1.14095E-04-3.89210E-05-3.21853E-05-7.73108E-07 4.03696E-19-3.15713E-19
 -1      2334 1.16584E-04-4.20759E-05-3.19522E-05 1.84172E-06 5.38807E-19-2.75519E-19
 -1      2335 1.11928E-04-3.74366E-05-3.19935E-05-2.90103E-06 8.50434E-19-4.80799E-20
 -1      2336 1.10699E-04-3.62358E-05-3.18772E-05-4.53983E-06 1.00406E-18 3.60548E-19
 -1      2337 1.12270E-04-3.92432E-05-3.13351E-05-3.40630E-06 8.28060E-19-9.64231E-19
 -1      2338 1.08859E-04-3.48495E-05-3.17622E-05-5.67666E-06 9.44222E-19 6.16218E-19
 -1      2339 1.07571E-04-3.37421E-05-3.16139E-05-6.53882E-06 1.11509E-18 8.62447E-19
 -1      2340 1.08187E-04-3.58439E-05-3.10406E-05-6.57693E-06 1.21169E-18-5.83703E-19
 -1      2341 1.06173E-04-3.26974E-05-3.15108E-05-6.93083E-06 7.85745E-19 8.80046E-19
 -1      2342 1.04974E-04-3.18379E-05-3.13267E-05-7.19999E-06 3.64400E-19 8.73681E-19
 -1      2343 1.04922E-04-3.29773E-05-3.08605E-05-7.99772E-06 7.97190E-19-2.18146E-20
 -1      2344 1.03955E-04-3.11416E-05-3.12109E-05-7.11764E-06-5.68410E-20 8.07059E-19
 -1      2345 1.02897E-04-3.05306E-05-3.10043E-05-7.00484E-06-4.82709E-19 1.34398E-19
 -1      2346 1.02501E-04-3.09392E-05-3.06870E-05-8.21747E-06-4.57414E-20 2.05089E-20
 -1      2347 1.02155E-04-3.01036E-05-3.08738E-05-6.65982E-06-2.57535E-19 2.38580E-19
 -1      2348 1.01246E-04-2.96889E-05-3.06620E-05-6.33776E-06-4.03766E-19 5.99308E-19
 -1      2349 1.00744E-04-2.96396E-05-3.04845E-05-7.71820E-06-3.03106E-19 2.56033E-20
 -1      2350 1.00693E-04-2.94438E-05-3.05245E-05-5.87431E-06-7.64356E-19 5.80752E-19
 -1      2351 9.99269E-05-2.91689E-05-3.03221E-05-5.46340E-06-3.08179E-19 6.47056E-19
 -1      2352 9.94556E-05-2.88792E-05-3.02544E-05-6.84910E-06-4.15839E-19 7.11906E-19
 -1      2353 9.95033E-05-2.90371E-05-3.01864E-05-4.97145E-06-3.90445E-19 3.51919E-19
 -1      2354 9.88673E-05-2.88567E-05-3.00030E-05-4.54659E-06-7.19639E-19-3.92878E-20
 -1      2355 9.84875E-05-2.84715E-05-3.00122E-05-5.83966E-06-8.63144E-19 5.19442E-19
 -1      2356 9.85354E-05-2.87918E-05-2.98765E-05-4.07765E-06-8.99475E-19-6.09252E-19
 -1      2357 9.80159E-05-2.86742E-05-2.97170E-05-3.68052E-06-5.01420E-19-3.66240E-19
 -1      2358 9.77413E-05-2.82783E-05-2.97742E-05-4.82943E-06-1.10628E-18 5.80839E-19
 -1      2359 9.77526E-05-2.86469E-05-2.96040E-05-3.26075E-06-4.82805E-20-2.18673E-19
 -1      2360 9.73351E-05-2.85708E-05-2.94698E-05-2.91118E-06 2.58171E-20-4.10406E-19
 -1      2361 9.71558E-05-2.82080E-05-2.95529E-05-3.89582E-06-4.20379E-19-1.36240E-19
 -1      2362 9.71255E-05-2.85639E-05-2.93723E-05-2.55087E-06 2.66669E-19-1.64805E-19
 -1      2363 9.67954E-05-2.85153E-05-2.92623E-05-2.25537E-06 4.14546E-20 1.15376E-19
 -1      2364 9.66926E-05-2.82040E-05-2.93557E-05-3.07559E-06-1.11483E-21-5.71576E-19
 -1      2365 9.66294E-05-2.85189E-05-2.91807E-05-1.95554E-06 7.38697E-20 2.25646E-19
 -1      2366 9.63728E-05-2.84888E-05-2.90926E-05-1.71309E-06 9.21479E-22 3.04048E-19
 -1      2367 9.63263E-05-2.82327E-05-2.91860E-05-2.38037E-06 3.79564E-20 1.76933E-19
 -1      2368 9.62426E-05-2.84973E-05-2.90258E-05-1.46963E-06-2.47590E-19 8.83368E-19
 -1      2369 9.60465E-05-2.84796E-05-2.89568E-05-1.27540E-06-9.34726E-20 1.00421E-18
 -1      2370 9.60385E-05-2.82754E-05-2.90440E-05-1.80711E-06 1.97274E-19 1.76851E-19
 -1      2371 9.59458E-05-2.84898E-05-2.89034E-05-1.08180E-06-4.09427E-19 1.49817E-18
 -1      2372 9.57988E-05-2.84804E-05-2.88503E-05-9.29345E-07-5.90712E-19 1.78124E-18
 -1      2373 9.58150E-05-2.83216E-05-2.89281E-05-1.34502E-06-1.61567E-19 1.57764E-18
 -1      2374 9.57221E-05-2.84909E-05-2.88084E-05-7.78251E-07-6.97706E-19 9.68375E-19
 -1      2375 9.56141E-05-2.84870E-05-2.87684E-05-6.60790E-07-1.17281E-18 1.28577E-18
 -1      2376 9.56439E-05-2.83659E-05-2.88354E-05-9.79841E-07-9.65802E-19 7.44610E-19
 -1      2377 9.55567E-05-2.84967E-05-2.87361E-05-5.44946E-07-1.23847E-18 1.59438E-18
 -1      2378 9.54792E-05-2.84963E-05-2.87066E-05-4.56056E-07-1.09559E-18 1.62371E-18
 -1      2379 9.55151E-05-2.84059E-05-2.87627E-05-6.96458E-07-8.55790E-19 6.42759E-19
 -1      2380 9.54372E-05-2.85050E-05-2.86823E-05-3.68789E-07-8.08660E-19 5.41485E-19
 -1      2381 9.53832E-05-2.85068E-05-2.86610E-05-3.02732E-07 1.95560E-19-2.28133E-19
 -1      2382 9.54200E-05-2.84405E-05-2.87068E-05-4.80383E-07-1.30924E-18 4.72635E-19
 -1      2383 9.53532E-05-2.85143E-05-2.86430E-05-2.38180E-07 1.52862E-18-6.47962E-19
 -1      2384 9.53168E-05-2.85173E-05-2.86281E-05-1.90028E-07 5.84588E-19-3.26496E-19
 -1      2385 9.53515E-05-2.84696E-05-2.86647E-05-3.18524E-07 3.59216E-19-1.42934E-18
 -1      2386 9.52961E-05-2.85237E-05-2.86151E-05-1.43216E-07-4.36495E-20-4.85091E-19
 -1      2387 9.52729E-05-2.85273E-05-2.86050E-05-1.08867E-07 5.31062E-19-7.21619E-20
 -1      2388 9.53035E-05-2.84936E-05-2.86336E-05-1.99521E-07 4.42436E-19-7.10795E-19
 -1      2389 9.52591E-05-2.85326E-05-2.85959E-05-7.56837E-08 2.73879E-19-6.56258E-20
 -1      2390 9.52454E-05-2.85365E-05-2.85894E-05-5.18141E-08-8.36914E-19 1.94734E-19
 -1      2391 9.52711E-05-2.85131E-05-2.86112E-05-1.13823E-07 2.42520E-19-1.22923E-18
 -1      2392 9.52368E-05-2.85409E-05-2.85832E-05-2.89558E-08-1.30332E-18 4.93056E-19
 -1      2393 9.52298E-05-2.85447E-05-2.85792E-05-1.29453E-08-1.42629E-18-5.84074E-19
 -1      2394 9.52503E-05-2.85288E-05-2.85954E-05-5.36160E-08-8.56813E-19-1.35703E-18
 -1      2395 9.52249E-05-2.85484E-05-2.85751E-05 2.16933E-09 5.48386E-19-3.09902E-19
 -1      2396 9.52226E-05-2.85520E-05-2.85730E-05 1.23157E-08 1.80636E-18 1.99666E-19
 -1      2397 9.52380E-05-2.85414E-05-2.85846E-05-1.26807E-08-1.60745E-20-2.31633E-19
 -1      2398 9.52203E-05-2.85552E-05-2.85704E-05 2.16299E-08 5.98198E-19 8.78549E-19
 -1      2399 9.52210E-05-2.85588E-05-2.85695E-05 2.73565E-08-2.34669E-19 7.69801E-19
 -1      2400 9.52317E-05-2.85516E-05-2.85774E-05 1.37787E-08 1.32696E-18-4.96676E-19
 -1      2401 9.52206E-05-2.85617E-05-2.85679E-05 3.22498E-08-7.42305E-19 1.61280E-18
 -1      2402 9.52232E-05-2.85652E-05-2.85677E-05 3.45028E-08-1.15782E-18 2.14668E-18
 -1      2403 9.52297E-05-2.85603E-05-2.85728E-05 2.93092E-08-1.24379E-19 1.23760E-18
 -1      2404 9.52240E-05-2.85681E-05-2.85667E-05 3.59299E-08-1.77846E-18 1.94248E-18
 -1      2405 9.52275E-05-2.85715E-05-2.85668E-05 3.52193E-08-1.12970E-18 1.07027E-18
 -1      2406 9.52305E-05-2.85681E-05-2.85697E-05 3.63736E-08-1.40640E-18 1.74931E-18
 -1      2407 9.95005E-05-2.91998E-05-3.01147E-05-4.56806E-06-3.55820E-20-1.29598E-19
 -1      2408 9.88274E-05-2.88320E-05-2.99706E-05-4.05426E-06 9.72161E-20-5.56031E-21
 -1      2409 1.00898E-04-2.99626E-05-3.03959E-05-5.36647E-06 2.76779E-20-2.95858E-19
 -1      2410 1.00009E-04-2.95173E-05-3.01936E-05-5.08499E-06-6.91130E-20-2.52249E-19
 -1      2411 9.93028E-05-2.89748E-05-3.01597E-05-5.49219E-06 6.57968E-20-2.78833E-19
 -1      2412 1.02628E-04-3.09182E-05-3.07402E-05-5.61775E-06 3.83327E-19-2.73954E-19
 -1      2413 1.01612E-04-3.03784E-05-3.05166E-05-5.60592E-06 1.64626E-19-3.49431E-19
 -1      2414 1.00567E-04-2.98784E-05-3.03128E-05-6.35188E-06 1.46973E-19-3.87973E-19
 -1      2415 1.04576E-04-3.21002E-05-3.10851E-05-5.17054E-06 6.28178E-20 3.10979E-20
 -1      2416 1.03534E-04-3.14690E-05-3.08755E-05-5.51323E-06 1.31355E-19-4.80815E-20
 -1      2417 1.02235E-04-3.10538E-05-3.05229E-05-6.55733E-06 8.17354E-20-1.74830E-19
 -1      2418 1.06587E-04-3.34731E-05-3.13771E-05-3.81054E-06-3.74455E-19 2.24077E-19
 -1      2419 1.05653E-04-3.27972E-05-3.12154E-05-4.60892E-06 7.75234E-21 1.20854E-19
 -1      2420 1.04279E-04-3.25709E-05-3.07485E-05-5.92496E-06-1.33244E-19 2.90029E-19
 -1      2421 1.08413E-04-3.48542E-05-3.15826E-05-1.35998E-06 1.89547E-19 2.01665E-19
 -1      2422 1.07766E-04-3.42640E-05-3.14948E-05-2.67008E-06-2.33927E-19 5.26467E-20
 -1      2423 1.06617E-04-3.43821E-05-3.09711E-05-4.20710E-06-1.76891E-19-1.75064E-19
 -1      2424 1.09659E-04-3.58206E-05-3.17047E-05 2.12879E-06 7.43331E-19 9.90466E-21
 -1      2425 1.09525E-04-3.55633E-05-3.16986E-05 4.01714E-07 6.30907E-19 3.39363E-19
 -1      2426 1.09009E-04-3.61971E-05-3.12082E-05-1.21356E-06 4.71007E-19-3.03788E-19
 -1      2427 1.09806E-04-3.57054E-05-3.17937E-05 6.09616E-06 7.15048E-19 1.14935E-19
 -1      2428 1.10388E-04-3.61115E-05-3.18501E-05 4.32049E-06 6.88208E-19-1.43271E-19
 -1      2429 1.10947E-04-3.73605E-05-3.15200E-05 2.94348E-06 7.19679E-19-2.26949E-19
 -1      2430 1.08409E-04-3.38768E-05-3.19296E-05 9.23597E-06 3.35802E-19 4.71367E-19
 -1      2431 1.09738E-04-3.51571E-05-3.20051E-05 8.10572E-06 5.19651E-19 4.06443E-19
 -1      2432 1.11645E-04-3.68969E-05-3.19924E-05 7.48889E-06 4.03118E-19 1.35861E-19
 -1      2433 1.05632E-04-3.04418E-05-3.21635E-05 9.75422E-06 3.49391E-19 5.36466E-19
 -1      2434 1.07359E-04-3.23441E-05-3.22141E-05 1.00432E-05 5.04290E-19 5.67830E-19
 -1      2435 1.10427E-04-3.40988E-05-3.26667E-05 1.07101E-05 3.56397E-19 4.37464E-19
 -1      2436 1.02625E-04-2.67751E-05-3.24432E-05 6.40099E-06 3.84050E-19 4.81326E-19
 -1      2437 1.04026E-04-2.84328E-05-3.24578E-05 8.44248E-06 2.90321E-19 4.94217E-19
 -1      2438 1.07532E-04-2.94729E-05-3.34581E-05 1.04357E-05 6.25653E-19 5.79779E-19
 -1      2439 1.01291E-04-2.51281E-05-3.26172E-05-4.09593E-08 8.05793E-19-2.01079E-19
 -1      2440 1.01607E-04-2.55284E-05-3.26095E-05 3.06421E-06 7.73176E-19 2.88560E-19
 -1      2441 1.04630E-04-2.52458E-05-3.40803E-05 5.50761E-06 6.12292E-19 6.41536E-19
 -1      2442 1.02729E-04-2.67336E-05-3.26004E-05-6.63405E-06-8.08255E-20-4.30286E-19
 -1      2443 1.01729E-04-2.55840E-05-3.25710E-05-3.91596E-06 5.82606E-19-3.08972E-19
 -1      2444 1.03936E-04-2.42070E-05-3.42338E-05-2.32907E-06 6.47232E-19-4.70476E-20
 -1      2445 1.06026E-04-3.04571E-05-3.24483E-05-1.03051E-05-7.76779E-19-5.78153E-19
 -1      2446 1.04260E-04-2.85226E-05-3.23827E-05-9.10229E-06-3.01087E-19-2.69734E-19
 -1      2447 1.06079E-04-2.71297E-05-3.38620E-05-9.12160E-06-3.90386E-19-1.91754E-19
 -1      2448 1.09246E-04-3.40475E-05-3.22750E-05-1.00664E-05-6.71196E-19-9.04426E-19
 -1      2449 1.07528E-04-3.23681E-05-3.21734E-05-1.05198E-05-9.97742E-19-6.76343E-19
 -1      2450 1.09379E-04-3.19085E-05-3.31699E-05-1.17998E-05-7.73129E-19-3.45418E-20
 -1      2451 1.10982E-04-3.59931E-05-3.21577E-05-7.05458E-06-4.00799E-19-9.03473E-19
 -1      2452 1.09878E-04-3.51323E-05-3.20493E-05-8.53496E-06-4.10890E-19-9.88481E-19
 -1      2453 1.11702E-04-3.58411E-05-3.24642E-05-1.01629E-05-3.83035E-19-1.21259E-19
 -1      2454 1.11018E-04-3.61702E-05-3.20767E-05-3.12272E-06 6.14827E-19-8.26524E-19
 -1      2455 1.10665E-04-3.60971E-05-3.20087E-05-4.85571E-06-3.65035E-19-1.35545E-18
 -1      2456 1.12056E-04-3.74688E-05-3.19354E-05-6.10470E-06-2.59195E-19-6.15705E-19
 -1      2457 1.09850E-04-3.52307E-05-3.19709E-05 3.62198E-07 5.22374E-19 8.04666E-19
 -1      2458 1.10114E-04-3.56393E-05-3.19770E-05-1.10578E-06 8.97716E-19 3.36475E-19
 -1      2459 1.10783E-04-3.70360E-05-3.16005E-05-1.69672E-06 1.68397E-19-8.39798E-19
 -1      2460 1.08080E-04-3.38768E-05-3.17922E-05 2.80971E-06-5.37360E-19 1.52181E-18
 -1      2461 1.08740E-04-3.44694E-05-3.18799E-05 1.81046E-06 1.57700E-19 1.56603E-18
 -1      2462 1.08687E-04-3.54935E-05-3.13785E-05 1.84137E-06-9.00022E-20 1.47009E-18
 -1      2463 1.06139E-04-3.25527E-05-3.15296E-05 4.18488E-06-8.13087E-19 1.75515E-18
 -1      2464 1.06999E-04-3.31457E-05-3.16844E-05 3.64606E-06-7.80774E-19 1.80636E-18
 -1      2465 1.06420E-04-3.36904E-05-3.11839E-05 4.13339E-06-6.12178E-19 1.93308E-18
 -1      2466 1.04264E-04-3.14469E-05-3.12019E-05 4.70610E-06-8.00612E-19 2.11635E-18
 -1      2467 1.05183E-04-3.19592E-05-3.13987E-05 4.52565E-06-5.28238E-19 1.76634E-18
 -1      2468 1.04325E-04-3.20966E-05-3.09681E-05 5.29173E-06-4.78237E-19 1.42639E-18
 -1      2469 1.02565E-04-3.05963E-05-3.08395E-05 4.64774E-06 6.12370E-20 2.13693E-18
 -1      2470 1.03455E-04-3.10073E-05-3.10534E-05 4.70555E-06-4.21663E-19 1.82488E-18
 -1      2471 1.02521E-04-3.08682E-05-3.07189E-05 5.60307E-06-3.96224E-19 1.66647E-18
 -1      2472 1.01082E-04-2.99708E-05-3.04727E-05 4.24919E-06 1.75459E-19 1.81974E-18
 -1      2473 1.01892E-04-3.02874E-05-3.06839E-05 4.44296E-06 1.97383E-19 2.05453E-18
 -1      2474 1.01016E-04-2.99966E-05-3.04453E-05 5.36485E-06 2.88008E-19 7.40354E-19
 -1      2475 9.98202E-05-2.95218E-05-3.01249E-05 3.68701E-06-4.64164E-19 1.89087E-18
 -1      2476 1.00527E-04-2.97601E-05-3.03201E-05 3.94255E-06-1.79073E-19 1.78792E-18
 -1      2477 9.97781E-05-2.94106E-05-3.01644E-05 4.81863E-06 3.92241E-20 3.96039E-19
 -1      2478 9.87697E-05-2.92039E-05-2.98113E-05 3.07781E-06-2.08336E-19 1.77995E-18
 -1      2479 9.93659E-05-2.93805E-05-2.99832E-05 3.34699E-06-2.67888E-19 1.63824E-18
 -1      2480 9.87671E-05-2.90315E-05-2.98926E-05 4.13655E-06-3.62726E-19 3.64048E-19
 -1      2481 9.79115E-05-2.89808E-05-2.95393E-05 2.49132E-06 9.48952E-19 1.47875E-19
 -1      2482 9.84008E-05-2.91100E-05-2.96851E-05 2.74604E-06 4.38746E-19 1.11404E-18
 -1      2483 9.79471E-05-2.87939E-05-2.96423E-05 3.43003E-06 4.55596E-19-2.45467E-19
 -1      2484 9.72229E-05-2.88257E-05-2.93109E-05 1.96436E-06 9.81054E-19 3.83827E-20
 -1      2485 9.76150E-05-2.89190E-05-2.94308E-05 2.19039E-06 6.91683E-19 4.85874E-19
 -1      2486 9.72878E-05-2.86500E-05-2.94209E-05 2.76452E-06 7.17645E-19-7.48264E-19
 -1      2487 9.66803E-05-2.87192E-05-2.91243E-05 1.51239E-06 1.25511E-18 1.40138E-18
 -1      2488 9.69876E-05-2.87854E-05-2.92204E-05 1.70432E-06 1.22450E-18 1.36809E-18
 -1      2489 9.67635E-05-2.85664E-05-2.92315E-05 2.17362E-06 6.34343E-19 6.91174E-19
 -1      2490 9.62604E-05-2.86474E-05-2.89753E-05 1.13784E-06 8.86484E-19 1.72585E-18
 -1      2491 9.64962E-05-2.86935E-05-2.90506E-05 1.29553E-06 1.07814E-18 1.67978E-18
 -1      2492 9.63519E-05-2.85213E-05-2.90739E-05 1.67027E-06 8.60979E-19 2.87919E-18
 -1      2493 9.59416E-05-2.86003E-05-2.88591E-05 8.35905E-07 4.66280E-19 1.51460E-18
 -1      2494 9.61187E-05-2.86315E-05-2.89167E-05 9.62032E-07 9.16145E-19 1.54124E-18
 -1      2495 9.60334E-05-2.85000E-05-2.89460E-05 1.25485E-06 9.97349E-19 2.24562E-18
 -1      2496 9.57044E-05-2.85707E-05-2.87704E-05 5.98175E-07 7.33318E-19 1.04835E-18
 -1      2497 9.58344E-05-2.85910E-05-2.88135E-05 6.96750E-07 2.06077E-19 1.16662E-18
 -1      2498 9.57911E-05-2.84934E-05-2.88445E-05 9.20810E-07 1.07758E-18 5.13411E-19
 -1      2499 9.55319E-05-2.85533E-05-2.87042E-05 4.14968E-07-5.35835E-19 2.16932E-18
 -1      2500 9.56249E-05-2.85658E-05-2.87356E-05 4.90386E-07 5.44297E-19 2.00955E-18
 -1      2501 9.56100E-05-2.84952E-05-2.87656E-05 6.58217E-07 2.09398E-19 1.09332E-18
 -1      2502 9.54097E-05-2.85443E-05-2.86559E-05 2.76647E-07-5.27790E-19 1.58304E-18
 -1      2503 9.54743E-05-2.85512E-05-2.86782E-05 3.33169E-07-8.62842E-19 1.88213E-18
 -1      2504 9.54775E-05-2.85017E-05-2.87056E-05 4.56047E-07-4.41395E-19 2.20503E-18
 -1      2505 9.53261E-05-2.85409E-05-2.86216E-05 1.74353E-07-8.22951E-20 1.71371E-18
 -1      2506 9.53690E-05-2.85441E-05-2.86370E-05 2.15830E-07 2.02476E-19 1.58231E-18
 -1      2507 9.53828E-05-2.85104E-05-2.86610E-05 3.03505E-07 1.79024E-19 2.45277E-18
 -1      2508 9.52712E-05-2.85412E-05-2.85981E-05 1.00349E-07-1.61738E-18 1.72134E-18
 -1      2509 9.52983E-05-2.85418E-05-2.86082E-05 1.30100E-07-1.11223E-18 1.25657E-18
 -1      2510 9.53173E-05-2.85199E-05-2.86285E-05 1.90744E-07-5.08761E-19 1.81772E-18
 -1      2511 9.52376E-05-2.85437E-05-2.85827E-05 4.81322E-08-7.06305E-19 1.82653E-18
 -1      2512 9.52531E-05-2.85427E-05-2.85890E-05 6.89149E-08-1.29797E-18 1.58943E-18
 -1      2513 9.52737E-05-2.85291E-05-2.86056E-05 1.09206E-07-1.24446E-18 2.86989E-19
 -1      2514 9.52192E-05-2.85476E-05-2.85733E-05 1.24251E-08-6.93376E-20 3.50627E-19
 -1      2515 9.52266E-05-2.85456E-05-2.85767E-05 2.64521E-08 1.11490E-20 8.52636E-19
 -1      2516 9.52463E-05-2.85378E-05-2.85900E-05 5.17270E-08-1.97837E-19 8.38842E-19
 -1      2517 9.52114E-05-2.85522E-05-2.85680E-05-1.09084E-08 4.38520E-19 4.14658E-19
 -1      2518 9.52132E-05-2.85496E-05-2.85696E-05-1.92871E-09-1.61752E-19-1.89295E-19
 -1      2519 9.52307E-05-2.85456E-05-2.85798E-05 1.25088E-08 2.37086E-19-1.71822E-18
 -1      2520 9.52107E-05-2.85573E-05-2.85656E-05-2.49553E-08 4.93352E-19 9.18985E-19
 -1      2521 9.52090E-05-2.85543E-05-2.85659E-05-1.97789E-08 4.14115E-19 1.08357E-18
 -1      2522 9.52233E-05-2.85527E-05-2.85734E-05-1.29725E-08-9.10778E-22-2.16775E-19
 -1      2523 9.52145E-05-2.85626E-05-2.85651E-05-3.19028E-08 2.68985E-19 1.74220E-18
 -1      2524 9.52106E-05-2.85594E-05-2.85646E-05-2.97269E-08-3.16272E-19 1.29929E-18
 -1      2525 9.52215E-05-2.85592E-05-2.85698E-05-2.80719E-08-9.70697E-20 1.34628E-18
 -1      2526 9.52208E-05-2.85682E-05-2.85654E-05-3.30163E-08 1.41022E-18 2.82086E-18
 -1      2527 9.52159E-05-2.85649E-05-2.85647E-05-3.33841E-08 1.59950E-18 2.60088E-18
 -1      2528 9.52235E-05-2.85657E-05-2.85678E-05-3.53569E-08-9.82666E-20 2.24932E-18
 -1      2529 9.52280E-05-2.85739E-05-2.85661E-05-2.90805E-08 5.84790E-20 3.17642E-18
 -1      2530 9.52231E-05-2.85706E-05-2.85653E-05-3.16452E-08 7.70652E-19 3.17945E-18
 -1      2531 9.52279E-05-2.85724E-05-2.85667E-05-3.60645E-08 7.91806E-19 2.74714E-18
 -1      2532 9.52310E-05-2.85768E-05-2.85661E-05-2.49481E-08 1.00328E-18 3.24587E-18
 -1      2533 9.52521E-05-2.85982E-05-2.85659E-05-2.18889E-08 5.77438E-19-1.30974E-18
 -1      2534 9.52506E-05-2.85957E-05-2.85663E-05-2.50871E-08 1.03754E-18-2.83137E-18
 -1      2535 9.52535E-05-2.86002E-05-2.85656E-05-1.43049E-08 8.02446E-19-5.50142E-19
 -1      2536 9.52527E-05-2.85986E-05-2.85660E-05-1.80148E-08 3.49535E-19-3.63506E-19
 -1      2537 9.52518E-05-2.85891E-05-2.85697E-05-2.11711E-08 1.57609E-18-1.19268E-18
 -1      2538 9.52446E-05-2.85898E-05-2.85663E-05-3.22916E-08-3.71794E-19-6.08352E-19
 -1      2539 9.52412E-05-2.85856E-05-2.85667E-05-3.26966E-08 5.32159E-20 4.88487E-19
 -1      2540 9.52493E-05-2.85947E-05-2.85662E-05-2.82260E-08-5.51199E-19-7.54145E-19
 -1      2541 9.52470E-05-2.85915E-05-2.85666E-05-3.03494E-08-1.73097E-19 4.08919E-19
 -1      2542 9.52452E-05-2.85851E-05-2.85687E-05-3.37912E-08 3.12719E-19-5.31390E-19
 -1      2543 9.52493E-05-2.85876E-05-2.85693E-05-2.85015E-08 9.60543E-19-6.98559E-19
 -1      2544 9.52541E-05-2.86012E-05-2.85655E-05-6.25139E-09-1.09371E-18-3.71424E-18
 -1      2545 9.52537E-05-2.86004E-05-2.85657E-05-1.01727E-08-3.73667E-19-1.57997E-18
 -1      2546 9.52528E-05-2.85896E-05-2.85699E-05-1.29352E-08-5.26606E-19-1.77060E-18
 -1      2547 9.52541E-05-2.86012E-05-2.85655E-05 1.94028E-09-8.99714E-19-2.48076E-18
 -1      2548 9.52541E-05-2.86012E-05-2.85655E-05-2.04029E-09-1.18483E-18-2.38536E-18
 -1      2549 9.52532E-05-2.85898E-05-2.85700E-05-4.38162E-09-1.05092E-18-3.24992E-18
 -1      2550 9.52538E-05-2.86004E-05-2.85656E-05 1.01064E-08-8.85620E-19-3.77921E-18
 -1      2551 9.52541E-05-2.86012E-05-2.85655E-05 6.16476E-09-3.88753E-19-3.89839E-18
 -1      2552 9.52533E-05-2.85898E-05-2.85700E-05 4.25580E-09-3.70036E-19-3.34948E-18
 -1      2553 9.52528E-05-2.85988E-05-2.85659E-05 1.78903E-08 4.18004E-19-6.33581E-19
 -1      2554 9.52536E-05-2.86004E-05-2.85656E-05 1.42086E-08-5.29121E-19-1.47332E-18
 -1      2555 9.52530E-05-2.85897E-05-2.85699E-05 1.27907E-08-7.27165E-19-2.36421E-18
 -1      2556 9.52507E-05-2.85959E-05-2.85663E-05 2.50497E-08-3.08873E-19 1.51347E-18
 -1      2557 9.52522E-05-2.85984E-05-2.85659E-05 2.18101E-08 3.82191E-19-1.94112E-18
 -1      2558 9.52520E-05-2.85893E-05-2.85697E-05 2.10519E-08 3.68577E-19-1.29002E-18
 -1      2559 9.52470E-05-2.85916E-05-2.85666E-05 3.04937E-08-2.17141E-18 3.98832E-18
 -1      2560 9.52494E-05-2.85949E-05-2.85662E-05 2.83098E-08-1.65403E-18 4.95665E-18
 -1      2561 9.52496E-05-2.85879E-05-2.85693E-05 2.84806E-08-1.23082E-18 1.50164E-18
 -1      2562 9.52412E-05-2.85858E-05-2.85667E-05 3.27516E-08-2.27328E-18-2.36336E-19
 -1      2563 9.52446E-05-2.85898E-05-2.85663E-05 3.24103E-08-3.13826E-18 2.64543E-18
 -1      2564 9.52450E-05-2.85851E-05-2.85686E-05 3.38636E-08-3.83743E-18 3.45873E-18
 -1      2565 2.68620E-05-1.88973E-05-3.01096E-06 1.97602E-05-5.62536E-19 1.14222E-18
 -1      2566 2.01111E-05-1.76049E-05-6.89882E-07 5.50179E-06-3.15255E-19 9.23689E-19
 -1      2567 5.89729E-05-3.80277E-05-8.82584E-06 4.18895E-05-4.40881E-19 2.33866E-18
 -1      2568 4.19588E-05-2.90717E-05-5.20348E-06 3.44747E-05-6.42051E-19 2.84349E-18
 -1      2569 2.00953E-05-1.75538E-05-7.98443E-07-5.65578E-06 2.26793E-19 2.41616E-19
 -1      2570 2.56789E-05-1.93380E-05-2.35117E-06-1.94132E-05 3.93553E-19-2.47757E-19
 -1      2571 2.84958E-05-1.41760E-05-5.52376E-06-3.49790E-07-2.09892E-19 7.68682E-20
 -1      2572 9.85383E-05-2.85620E-05-2.99680E-05-3.26136E-06 1.12798E-19 5.63806E-21
 -1      2573 9.81735E-05-2.82388E-05-2.99265E-05-2.48229E-06 2.59538E-19-9.43019E-20
 -1      2574 9.84581E-05-2.82192E-05-3.01230E-05-4.04494E-06 1.56275E-19 8.45627E-21
 -1      2575 9.52353E-05-2.85816E-05-2.85659E-05 2.88324E-08-1.81234E-19-8.30552E-19
 -1      2576 9.37638E-05-5.12659E-05-1.82188E-05 4.19790E-05-1.49501E-19 2.22649E-18
 -1      2577 7.71869E-05-4.63846E-05-1.30823E-05 4.18041E-05 1.51407E-19 1.71535E-18
 -1      2578 9.67763E-05-2.03129E-05-3.28101E-05-9.03644E-06-4.55386E-19 4.86184E-19
 -1      2579 9.75596E-05-2.36852E-05-3.16811E-05-5.09443E-06-4.80122E-19 4.57715E-19
 -1      2580 9.67024E-05-2.25092E-05-3.17792E-05-4.35050E-06-5.04732E-19 2.27339E-19
 -1      2581 9.45029E-05-1.76088E-05-3.29583E-05-8.50058E-06-5.57197E-19 2.93788E-19
 -1      2582 1.46394E-04-4.58826E-05-4.35787E-05 6.33300E-06 8.61274E-19 7.06002E-19
 -1      2583 1.39896E-04-5.13417E-05-3.79230E-05 1.36151E-05 4.83285E-19 7.59789E-19
 -1      2584 8.46007E-05-8.08041E-06-3.28272E-05-9.12780E-07-2.57623E-19-4.02949E-19
 -1      2585 8.48924E-05-8.29595E-06-3.28543E-05-1.62748E-06-3.08726E-19-3.82720E-19
 -1      2586 8.60757E-05-1.01242E-05-3.25443E-05-1.58854E-06-2.57076E-19-3.16979E-19
 -1      2587 8.54192E-05-9.54870E-06-3.25103E-05-5.59206E-07-2.55836E-19-3.57344E-19
 -1      2588 1.46524E-04-1.46729E-05-5.68563E-05 3.87715E-06 1.17399E-18 1.69978E-18
 -1      2589 1.46970E-04-1.15551E-05-5.83829E-05 1.15058E-06 1.15239E-18 1.43929E-18
 -1      2590 1.39014E-04-5.54694E-05-3.57350E-05-1.31495E-05 9.47089E-19-6.10287E-19
 -1      2591 1.45037E-04-5.01065E-05-4.13730E-05-3.47594E-06 5.31301E-19-1.25382E-18
 -1      2592 1.46684E-04-3.00279E-05-5.02425E-05 4.65344E-06 1.78427E-18 1.87999E-18
 -1      2593 1.47806E-04-2.25233E-05-5.41405E-05 5.30236E-06 1.61042E-18 2.00472E-18
 -1      2594 1.43052E-04-4.90000E-05-4.04015E-05-8.31307E-06 1.06927E-18 1.08124E-18
 -1      2595 1.47431E-04-4.19686E-05-4.57146E-05-1.51726E-06 1.51047E-18 1.67543E-18
 -1      2596 1.23876E-04-5.69651E-05-2.86506E-05-2.73350E-05 1.05604E-18 7.56189E-19
 -1      2597 1.36616E-04-5.51215E-05-3.52628E-05-2.00867E-05 8.33692E-19 6.29134E-19
 -1      2598 8.97021E-05-5.12345E-05-1.64587E-05-4.08671E-05 7.23790E-19 2.74677E-19
 -1      2599 1.07432E-04-5.50503E-05-2.26585E-05-3.84065E-05 7.64024E-19 8.70115E-19
 -1      2600 5.58097E-05-3.77875E-05-7.53494E-06-4.01861E-05 1.38066E-19-2.93497E-19
 -1      2601 7.28262E-05-4.47653E-05-1.20041E-05-4.41430E-05 4.64174E-19 2.81109E-20
 -1      2602 2.69430E-05-2.30602E-05-1.41962E-06-2.23879E-05 9.67735E-20-1.77962E-18
 -1      2603 3.81377E-05-2.77945E-05-4.25307E-06-3.36388E-05 5.25160E-20-1.14752E-18
 -1      2604 1.89556E-05-1.81721E-05-8.38862E-08 4.61168E-06 7.08755E-19-1.98629E-18
 -1      2605 2.00010E-05-1.88848E-05-2.37760E-07-1.03360E-05 3.40878E-19-2.14596E-18
 -1      2606 3.45492E-05-2.61119E-05-3.49644E-06 3.04135E-05 7.15955E-19-1.19855E-18
 -1      2607 2.41769E-05-2.16424E-05-8.33639E-07 1.78982E-05 1.09966E-18-1.75844E-18
 -1      2608 7.11820E-05-4.22408E-05-1.23444E-05 4.22288E-05 4.08693E-19-1.05371E-18
 -1      2609 5.19411E-05-3.45305E-05-7.10731E-06 3.73807E-05 5.99911E-19-1.43466E-18
 -1      2610 1.16222E-04-5.76324E-05-2.50751E-05 3.43394E-05 8.47033E-22-4.57504E-19
 -1      2611 9.71284E-05-5.34991E-05-1.85002E-05 3.88679E-05 1.16891E-19-6.65126E-19
 -1      2612 1.40309E-04-5.44826E-05-3.69364E-05 1.78303E-05-6.94355E-19-4.78150E-19
 -1      2613 1.28365E-04-5.71274E-05-3.06330E-05 2.40051E-05-3.93976E-19-3.55542E-19
 -1      2614 1.50411E-04-4.22528E-05-4.67918E-05 1.99079E-06-1.14773E-18-2.95614E-19
 -1      2615 1.45442E-04-4.88658E-05-4.15383E-05 8.54146E-06-8.75091E-19-3.69095E-19
 -1      2616 1.42545E-04-5.43669E-05-3.77024E-05 6.63972E-06-5.08590E-19-2.78250E-19
 -1      2617 1.48426E-04-2.25668E-05-5.45822E-05-6.40321E-06-1.70889E-18-3.87941E-19
 -1      2618 1.49402E-04-3.08292E-05-5.09954E-05-4.89895E-06-1.40989E-18-3.20178E-19
 -1      2619 1.41240E-04-1.75664E-05-5.35516E-05 9.04640E-06-4.00435E-19-1.07436E-18
 -1      2620 1.42198E-04-1.37660E-05-5.55838E-05 5.08536E-06-9.44865E-19-9.96746E-19
 -1      2621 1.45424E-04-3.78740E-05-4.62849E-05 7.16961E-06 5.21984E-20-1.04905E-18
 -1      2622 1.45256E-04-2.79708E-05-5.08726E-05 9.32374E-06-2.47757E-20-4.61209E-19
 -1      2623 1.13276E-04-5.67663E-05-2.41865E-05-3.23457E-05 9.31736E-21 6.88850E-19
 -1      2624 1.28306E-04-5.76484E-05-3.06323E-05-2.58877E-05 6.25534E-19 8.78797E-20
 -1      2625 7.76147E-05-4.70350E-05-1.29681E-05-4.09139E-05 3.46860E-19 8.12569E-19
 -1      2626 9.62925E-05-5.26042E-05-1.88453E-05-4.06235E-05 2.00747E-19 1.65060E-18
 -1      2627 3.81384E-05-2.86817E-05-3.85895E-06-3.17423E-05-5.80853E-19-3.54695E-19
 -1      2628 5.64233E-05-3.74348E-05-8.12773E-06-4.08083E-05-5.92711E-19-8.56139E-19
 -1      2629 9.87897E-05-2.57218E-05-3.13282E-05 5.29665E-06 4.54460E-19-1.97034E-19
 -1      2630 9.95536E-05-2.43672E-05-3.22399E-05 8.48696E-06 4.96414E-19-6.31040E-20
 -1      2631 9.78511E-05-2.18266E-05-3.26377E-05 9.47873E-06 5.33717E-19-2.10342E-19
 -1      2632 9.80825E-05-2.45895E-05-3.15326E-05 4.90765E-06 4.15178E-19-2.46109E-19
 -1      2633 1.37260E-04-1.02925E-05-5.46943E-05-6.94410E-07 7.45389E-19 7.85080E-19
 -1      2634 8.94924E-05-1.33097E-05-3.26404E-05-4.00632E-06-3.74677E-19-9.91988E-20
 -1      2635 8.89051E-05-1.19525E-05-3.30427E-05-5.28823E-06-4.45519E-19-8.12027E-20
 -1      2636 9.01581E-05-1.30916E-05-3.30898E-05-6.33957E-06-5.38044E-19 2.11229E-20
 -1      2637 9.80387E-05-2.74260E-05-3.02819E-05-1.92778E-06 2.81961E-19-1.17390E-19
 -1      2638 9.58831E-05-1.93978E-05-3.28246E-05 9.00794E-06 5.30104E-19-3.59393E-19
 -1      2639 1.41781E-04-4.27046E-05-4.24977E-05-4.12696E-06 2.49345E-19-2.16205E-19
 -1      2640 3.93119E-05-2.24815E-05-6.65554E-06-2.55263E-05 1.06303E-19-3.45166E-20
 -1      2641 7.33362E-05-4.24503E-05-1.28254E-05-4.01251E-05 4.14834E-19-2.44475E-19
 -1      2642 7.45220E-05-4.26386E-05-1.33248E-05 4.11236E-05-1.76183E-19 2.33813E-18
 -1      2643 1.09862E-04-5.68922E-05-2.24143E-05-3.36361E-05 6.72544E-19 2.87144E-19
 -1      2644 9.52332E-05-2.85786E-05-2.85663E-05-3.04410E-08-2.07467E-19 3.49920E-18
 -1      2645 9.52364E-05-2.85819E-05-2.85662E-05-3.21539E-08-2.40770E-19 1.89537E-18
 -1      2646 1.41951E-04-4.50406E-05-4.16871E-05 5.82295E-06 4.43369E-19-1.14053E-18
 -1      2647 9.61348E-05-2.06690E-05-3.23005E-05 6.81213E-06 4.43150E-19-3.35637E-19
 -1      2648 3.77715E-05-2.25354E-05-6.00305E-06 2.73807E-05-4.55704E-19 1.88634E-18
 -1      2649 3.71375E-05-1.66020E-05-8.18754E-06 1.96076E-05-5.30560E-19 1.56532E-18
 -1      2650 5.06319E-05-2.60317E-05-1.01130E-05 3.22368E-05-5.96629E-19 2.87208E-18
 -1      2651 1.35693E-04-2.34850E-05-4.84436E-05 1.21713E-05-3.99376E-19-1.24694E-18
 -1      2652 9.28752E-05-1.59912E-05-3.29807E-05-7.48825E-06-5.75215E-19 1.50388E-19
 -1      2653 1.44957E-04-3.75820E-05-4.60922E-05-6.90095E-06-1.16552E-18-1.24937E-19
 -1      2654 1.08655E-04-5.61087E-05-2.23878E-05 3.45303E-05-2.63851E-19 2.82930E-18
 -1      2655 1.35412E-04-5.60316E-05-3.38377E-05 1.67602E-05 3.63377E-19 9.48889E-19
 -1      2656 1.26566E-04-6.03935E-05-2.83160E-05 2.39562E-05-1.39443E-19-7.10025E-19
 -1      2657 8.91031E-05-4.92300E-05-1.67139E-05 3.99917E-05 3.51519E-19-9.38618E-19
 -1      2658 8.11799E-05-4.28613E-05-1.59874E-05 3.89232E-05 6.59415E-19-1.16509E-18
 -1      2659 1.04205E-04-5.41186E-05-2.15003E-05 3.41928E-05 2.57498E-19-8.51281E-19
 -1      2660 4.95114E-05-2.84497E-05-8.47732E-06 3.33554E-05 7.28660E-19-1.58332E-18
 -1      2661 1.34834E-04-1.13302E-05-5.34301E-05 4.07025E-06-1.23879E-18-1.60957E-18
 -1      2662 1.32206E-04-1.28751E-05-5.19446E-05-6.93921E-06-1.29617E-18-1.69798E-18
 -1      2663 1.42628E-04-1.75311E-05-5.38369E-05-6.93893E-06-1.58565E-18-7.24001E-19
 -1      2664 1.34497E-04-2.10027E-05-4.89407E-05-1.10339E-05-1.08801E-18-8.50633E-19
 -1      2665 2.83423E-05-1.68319E-05-4.35799E-06 1.09446E-05 8.65350E-19-1.79126E-18
 -1      2666 3.05661E-05-1.79527E-05-4.80756E-06-1.61873E-05-1.71577E-19-1.70063E-18
 -1      2667 5.38580E-05-3.22416E-05-8.79293E-06-3.67649E-05-3.40719E-19-5.08220E-19
 -1      2668 8.80821E-05-4.94133E-05-1.62430E-05-4.13165E-05 8.80914E-20 2.97256E-19
 -1      2669 1.19877E-04-5.86416E-05-2.60594E-05-2.95514E-05 5.73653E-19 6.51262E-19
 -1      2670 1.39619E-04-5.45836E-05-3.63882E-05-8.73502E-06 8.00234E-19 1.38786E-18
 -1      2671 1.42577E-04-3.70004E-05-4.53655E-05 6.79979E-06 1.65743E-18 1.73409E-18
 -1      2672 1.39477E-04-2.25405E-05-5.05592E-05-9.95506E-06 2.16417E-19 3.71953E-19
 -1      2673 1.33717E-04-2.81291E-05-4.54953E-05-1.25272E-05 3.07261E-19-1.52995E-19
 -1      2674 1.31565E-04-1.67131E-05-4.99915E-05-1.08288E-05 3.32884E-19 1.61677E-19
 -1      2675 1.34331E-04-5.87542E-05-3.22646E-05-1.54463E-05 9.08443E-19-8.96796E-19
 -1      2676 1.38438E-04-1.74759E-05-5.20651E-05 8.22416E-06 1.59814E-18 1.45827E-18
 -1      2677 9.52315E-05-2.85764E-05-2.85665E-05 3.15946E-08-1.89872E-19 9.40243E-20
 -1      2678 9.52378E-05-2.85828E-05-2.85664E-05 3.35748E-08-1.04182E-18-1.05118E-18
 -1      2679 9.52380E-05-2.85800E-05-2.85677E-05 3.60849E-08-2.88127E-18 1.01163E-18
 -1      2680 9.52283E-05-2.85735E-05-2.85663E-05 3.44530E-08-8.62214E-19 1.02366E-18
 -1      2681 9.52364E-05-2.85793E-05-2.85673E-05-3.54508E-08 3.38709E-19 1.34271E-18
 -1      2682 9.52328E-05-2.85746E-05-2.85679E-05 3.70665E-08-1.93733E-18 1.95375E-18
 -1      2683 8.71852E-05-1.20373E-05-3.22225E-05 1.29468E-06 1.51922E-20-5.57700E-19
 -1      2684 8.66187E-05-1.15397E-05-3.22013E-05 7.80953E-07-1.67221E-20-5.38131E-19
 -1      2685 8.61926E-05-1.11224E-05-3.21898E-05 4.94576E-07-8.35441E-20-5.00355E-19
 -1      2686 8.59713E-05-1.09312E-05-3.21811E-05 2.70468E-08-8.74639E-20-3.65450E-19
 -1      2687 8.71100E-05-1.26979E-05-3.18712E-05 3.06944E-07 9.01978E-21-4.94421E-19
 -1      2688 9.11278E-05-1.59337E-05-3.22544E-05 3.30968E-06 2.97710E-19-4.70603E-19
 -1      2689 8.99440E-05-1.47518E-05-3.22551E-05 2.66451E-06 2.94184E-19-5.08347E-19
 -1      2690 9.39217E-05-1.90277E-05-3.21304E-05 4.27959E-06 2.69628E-19-4.17015E-19
 -1      2691 9.24675E-05-1.73856E-05-3.22026E-05 3.73119E-06 2.78651E-19-4.50258E-19
 -1      2692 9.26388E-05-1.82814E-05-3.18451E-05 2.21763E-06 2.88917E-19-4.84838E-19
 -1      2693 9.73500E-05-2.54122E-05-3.08319E-05 3.41952E-07 3.41205E-19-2.46240E-19
 -1      2694 9.73879E-05-2.45581E-05-3.11796E-05 2.24933E-06 2.79620E-19-2.42690E-19
 -1      2695 9.62206E-05-2.18946E-05-3.18568E-05 4.77305E-06 3.32705E-19-3.32014E-19
 -1      2696 9.76532E-05-2.67358E-05-3.03886E-05-2.53630E-06 1.74090E-19-1.13396E-19
 -1      2697 9.75333E-05-2.61689E-05-3.05485E-05-1.20440E-06 3.21529E-19-1.78515E-19
 -1      2698 9.67139E-05-2.45906E-05-3.09138E-05-2.92615E-07 2.57719E-19-2.49080E-19
 -1      2699 3.86527E-05-1.72143E-05-8.80769E-06-1.98633E-05 8.19928E-19 1.44207E-19
 -1      2700 5.10746E-05-2.61860E-05-1.02919E-05-3.27654E-05 3.25896E-19-6.43533E-19
 -1      2701 9.68007E-05-2.51527E-05-3.06826E-05 2.03894E-06-2.95430E-19 1.46295E-19
 -1      2702 9.69334E-05-2.57320E-05-3.05137E-05 3.48085E-06-1.51846E-19 2.02430E-19
 -1      2703 9.70312E-05-2.62000E-05-3.03369E-05 4.75744E-06-6.72998E-20 1.73444E-19
 -1      2704 9.72959E-05-2.66485E-05-3.02716E-05 5.86541E-06 2.01096E-20-4.33961E-20
 -1      2705 9.60197E-05-2.48980E-05-3.04885E-05 4.11133E-06-1.88588E-19 1.35912E-19
 -1      2706 9.74274E-05-2.70235E-05-3.01586E-05 6.91745E-06 9.09521E-20-9.34962E-20
 -1      2707 9.78830E-05-2.74994E-05-3.01561E-05 7.76547E-06 1.57172E-19-2.35843E-20
 -1      2708 9.62530E-05-2.58969E-05-3.01637E-05 6.53462E-06 5.47594E-22-1.02630E-19
 -1      2709 9.81632E-05-2.79497E-05-3.00774E-05 8.62365E-06 2.01364E-19-1.40250E-19
 -1      2710 9.88623E-05-2.85926E-05-3.01074E-05 9.21520E-06 1.96563E-20-1.74112E-19
 -1      2711 9.66649E-05-2.68648E-05-2.99295E-05 8.53252E-06 6.88283E-20-5.14010E-19
 -1      2712 9.94269E-05-2.92834E-05-3.00417E-05 9.86323E-06-1.18310E-19-6.41099E-20
 -1      2713 1.00444E-04-3.02380E-05-3.00836E-05 1.01295E-05-1.55143E-19-1.41921E-19
 -1      2714 9.74938E-05-2.81651E-05-2.97356E-05 1.01381E-05-3.04746E-20-5.01923E-19
 -1      2715 1.01482E-04-3.13472E-05-3.00246E-05 1.04792E-05-1.24788E-19-1.54641E-19
 -1      2716 1.02912E-04-3.27489E-05-3.00740E-05 1.02746E-05-7.75573E-20 4.28695E-20
 -1      2717 9.90564E-05-3.01858E-05-2.95549E-05 1.12774E-05-2.04798E-20-3.70988E-19
 -1      2718 1.04665E-04-3.44319E-05-3.00450E-05 1.01271E-05-1.31533E-19 2.11725E-19
 -1      2719 1.06567E-04-3.63227E-05-3.01271E-05 9.23231E-06-2.54107E-19 3.89989E-19
 -1      2720 1.01785E-04-3.33205E-05-2.94057E-05 1.17094E-05-5.12852E-21 2.28103E-20
 -1      2721 1.09241E-04-3.85710E-05-3.02049E-05 8.23454E-06-2.54660E-19 6.88767E-19
 -1      2722 1.11542E-04-4.07263E-05-3.03943E-05 6.40685E-06-2.34334E-19 5.82839E-19
 -1      2723 1.06162E-04-3.77971E-05-2.93944E-05 1.09170E-05-2.97810E-20 5.01520E-19
 -1      2724 1.15042E-04-4.30835E-05-3.07377E-05 4.13133E-06-3.43803E-19 7.42815E-19
 -1      2725 1.17282E-04-4.46623E-05-3.11707E-05 1.35826E-06-3.24625E-19 5.17487E-19
 -1      2726 1.12241E-04-4.31752E-05-2.97738E-05 7.98091E-06-9.23994E-20 8.34246E-19
 -1      2727 1.21134E-04-4.61099E-05-3.20655E-05-2.81722E-06-2.91783E-19 4.89038E-19
 -1      2728 1.22068E-04-4.54224E-05-3.29367E-05-6.24315E-06-5.61060E-20 3.57519E-19
 -1      2729 1.20237E-04-4.79220E-05-3.11581E-05 1.90409E-06-2.75954E-19 6.94147E-19
 -1      2730 1.24068E-04-4.36520E-05-3.46185E-05-1.07970E-05 3.61246E-19 4.21875E-19
 -1      2731 1.23036E-04-3.93013E-05-3.59453E-05-1.31082E-05 5.28575E-19 2.69502E-19
 -1      2732 1.25938E-04-4.73859E-05-3.37974E-05-6.68745E-06 7.42213E-20 1.22136E-18
 -1      2733 1.15862E-04-2.10910E-05-4.09995E-05-9.54805E-06-5.31460E-19 4.78428E-19
 -1      2734 1.14275E-04-1.75912E-05-4.16409E-05-4.04502E-06-1.05085E-18 4.67628E-19
 -1      2735 1.14163E-04-1.73096E-05-4.17301E-05 3.59245E-06-1.11708E-18 4.53295E-19
 -1      2736 1.15569E-04-2.02780E-05-4.12041E-05 9.28254E-06-8.98384E-19 6.53195E-19
 -1      2737 1.18018E-04-2.57380E-05-3.96497E-05 1.39211E-05-2.55433E-19 2.69648E-19
 -1      2738 1.20860E-04-3.22757E-05-3.83256E-05 1.57178E-05-8.16593E-20 3.86128E-19
 -1      2739 1.20960E-04-2.24757E-05-4.25071E-05 1.23814E-05-7.82447E-19 1.95823E-19
 -1      2740 1.22309E-04-3.78936E-05-3.62206E-05 1.44707E-05-2.12446E-19 3.93672E-19
 -1      2741 1.23697E-04-4.25566E-05-3.49179E-05 1.24599E-05-5.73865E-20 4.33866E-19
 -1      2742 1.25548E-04-3.63786E-05-3.83845E-05 1.53328E-05-1.21126E-19-2.58954E-19
 -1      2743 1.22096E-04-4.45728E-05-3.33048E-05 8.13076E-06 3.07049E-21 4.40709E-19
 -1      2744 1.21313E-04-4.55818E-05-3.24356E-05 4.78833E-06 2.86592E-19-1.75852E-19
 -1      2745 1.25581E-04-4.60026E-05-3.41996E-05 8.75331E-06-9.05994E-20-1.02994E-19
 -1      2746 1.17952E-04-4.45615E-05-3.15347E-05 7.64876E-07 4.44715E-19-3.90161E-19
 -1      2747 1.15918E-04-4.31989E-05-3.10830E-05-2.14163E-06 2.23069E-19-9.50136E-19
 -1      2748 1.20440E-04-4.71711E-05-3.14916E-05 3.16171E-07-1.56147E-20-4.29386E-19
 -1      2749 1.12469E-04-4.09624E-05-3.07031E-05-4.66010E-06 9.22042E-19-6.66686E-19
 -1      2750 1.10231E-04-3.88720E-05-3.05068E-05-6.55281E-06 1.42433E-18-5.83653E-19
 -1      2751 1.13481E-04-4.32529E-05-3.01823E-05-5.82398E-06 7.57029E-19-4.94887E-19
 -1      2752 1.07542E-04-3.66897E-05-3.03963E-05-7.72060E-06 1.16434E-18-4.48023E-19
 -1      2753 1.05637E-04-3.47985E-05-3.03091E-05-8.67955E-06 1.13543E-18-1.92123E-19
 -1      2754 1.07313E-04-3.81052E-05-2.97257E-05-9.03780E-06 1.39081E-18-6.94056E-19
 -1      2755 1.03818E-04-3.31494E-05-3.02987E-05-8.96328E-06 7.82734E-19-1.89684E-19
 -1      2756 1.02373E-04-3.17567E-05-3.02358E-05-9.24426E-06 4.59999E-19-1.30400E-19
 -1      2757 1.02826E-04-3.37316E-05-2.96526E-05-1.01614E-05 9.18108E-19-1.36762E-19
 -1      2758 1.01246E-04-3.06872E-05-3.02404E-05-9.02929E-06 2.89428E-19-4.17228E-19
 -1      2759 1.00197E-04-2.97777E-05-3.01663E-05-8.88218E-06-1.30395E-19-4.61351E-19
 -1      2760 9.99096E-05-3.06759E-05-2.96934E-05-1.00396E-05 2.17032E-19-2.92735E-20
 -1      2761 9.95324E-05-2.91654E-05-3.01525E-05-8.41526E-06-3.66092E-19 2.80612E-20
 -1      2762 9.87726E-05-2.86230E-05-3.00598E-05-8.02979E-06 1.85642E-20 1.10469E-19
 -1      2763 9.81359E-05-2.87998E-05-2.97252E-05-9.26027E-06 4.46364E-20 4.80786E-20
 -1      2764 9.83897E-05-2.83208E-05-3.00217E-05-7.45819E-06 2.53643E-19 5.35096E-19
 -1      2765 9.78279E-05-2.80255E-05-2.99160E-05-6.96470E-06-5.15223E-19 7.76967E-19
 -1      2766 9.70944E-05-2.77836E-05-2.97077E-05-8.17535E-06-2.67822E-20 2.74998E-19
 -1      2767 9.76052E-05-2.79135E-05-2.98588E-05-6.37433E-06-1.41137E-18 1.12085E-18
 -1      2768 9.71784E-05-2.77721E-05-2.97485E-05-5.85596E-06-1.02845E-18 3.50404E-19
 -1      2769 9.64867E-05-2.73255E-05-2.96404E-05-6.99134E-06-7.39100E-19 1.37230E-19
 -1      2770 9.70430E-05-2.77666E-05-2.96806E-05-5.29556E-06-9.91252E-19 8.12873E-19
 -1      2771 9.67112E-05-2.77155E-05-2.95735E-05-4.80141E-06-1.38471E-18 8.01156E-19
 -1      2772 9.61235E-05-2.71997E-05-2.95375E-05-5.82843E-06-9.31742E-19 5.14180E-19
 -1      2773 9.66227E-05-2.77635E-05-2.95022E-05-4.29660E-06-1.07517E-18 4.46172E-19
 -1      2774 9.63612E-05-2.77620E-05-2.94036E-05-3.85254E-06-2.53859E-19-5.09282E-20
 -1      2775 9.58942E-05-2.72549E-05-2.94153E-05-4.75418E-06-1.38267E-18 5.50580E-19
 -1      2776 9.62982E-05-2.78321E-05-2.93346E-05-3.41433E-06 1.17155E-19 3.40901E-19
 -1      2777 9.60913E-05-2.78557E-05-2.92474E-05-3.03118E-06-2.83041E-19 4.86966E-19
 -1      2778 9.57384E-05-2.73970E-05-2.92878E-05-3.80259E-06 8.38858E-20 9.05861E-19
 -1      2779 9.60431E-05-2.79304E-05-2.91841E-05-2.66148E-06-3.95010E-19 2.37620E-19
 -1      2780 9.58801E-05-2.79649E-05-2.91096E-05-2.34081E-06-2.62800E-19-4.66520E-19
 -1      2781 9.56244E-05-2.75708E-05-2.91648E-05-2.98591E-06-5.00285E-19 5.84568E-19
 -1      2782 9.58417E-05-2.80353E-05-2.90539E-05-2.03618E-06 7.03779E-19-3.16780E-19
 -1      2783 9.57144E-05-2.80726E-05-2.89919E-05-1.77429E-06 1.01924E-18 6.10389E-19
 -1      2784 9.55365E-05-2.77459E-05-2.90525E-05-2.30276E-06-7.01967E-20-6.67855E-19
 -1      2785 9.56831E-05-2.81348E-05-2.89443E-05-1.52835E-06 4.96191E-19 1.02615E-18
 -1      2786 9.55850E-05-2.81707E-05-2.88939E-05-1.31889E-06-1.19633E-19 1.47875E-18
 -1      2787 9.54667E-05-2.79070E-05-2.89537E-05-1.74367E-06 8.16379E-19 9.47302E-19
 -1      2788 9.55596E-05-2.82233E-05-2.88544E-05-1.12399E-06-1.42919E-18 1.25319E-18
 -1      2789 9.54852E-05-2.82557E-05-2.88142E-05-9.59593E-07-1.58598E-18 7.70797E-19
 -1      2790 9.54107E-05-2.80476E-05-2.88697E-05-1.29493E-06-8.34721E-19 7.59594E-19
 -1      2791 9.54648E-05-2.82990E-05-2.87821E-05-8.07813E-07-8.58230E-19 7.63472E-19
 -1      2792 9.54093E-05-2.83271E-05-2.87508E-05-6.81053E-07-1.03002E-18 3.69842E-19
 -1      2793 9.53661E-05-2.81660E-05-2.88000E-05-9.41189E-07-9.73818E-19 9.23554E-19
 -1      2794 9.53933E-05-2.83619E-05-2.87252E-05-5.64865E-07-1.49711E-18 3.86121E-19
 -1      2795 9.53528E-05-2.83855E-05-2.87012E-05-4.68817E-07-7.22963E-19 1.43215E-19
 -1      2796 9.53309E-05-2.82631E-05-2.87434E-05-6.67115E-07-1.39585E-18 6.07528E-19
 -1      2797 9.53404E-05-2.84130E-05-2.86812E-05-3.81408E-07-2.55017E-19-5.24229E-19
 -1      2798 9.53116E-05-2.84324E-05-2.86632E-05-3.09927E-07 1.13014E-19-7.93522E-19
 -1      2799 9.53037E-05-2.83410E-05-2.86984E-05-4.58373E-07-6.46886E-19 2.40361E-19
 -1      2800 9.53022E-05-2.84537E-05-2.86479E-05-2.45364E-07 9.70960E-19-8.50873E-19
 -1      2801 9.52824E-05-2.84694E-05-2.86346E-05-1.93184E-07 6.70921E-19-5.66521E-19
 -1      2802 9.52831E-05-2.84024E-05-2.86633E-05-3.02167E-07 4.21143E-19 3.44617E-19
 -1      2803 9.52754E-05-2.84856E-05-2.86231E-05-1.46452E-07-2.49359E-19-3.25945E-19
 -1      2804 9.52623E-05-2.84982E-05-2.86135E-05-1.09194E-07-2.04741E-19-1.16975E-18
 -1      2805 9.52679E-05-2.84499E-05-2.86364E-05-1.87463E-07-6.99958E-20-9.82093E-19
 -1      2806 9.52573E-05-2.85104E-05-2.86050E-05-7.61661E-08-9.03485E-20-1.54224E-18
 -1      2807 9.52492E-05-2.85204E-05-2.85983E-05-5.02856E-08-9.20344E-19-7.29364E-19
 -1      2808 9.52569E-05-2.84862E-05-2.86161E-05-1.05019E-07-2.10196E-19-1.52393E-18
 -1      2809 9.52457E-05-2.85295E-05-2.85921E-05-2.76581E-08-8.92823E-19-6.84744E-19
 -1      2810 9.52413E-05-2.85374E-05-2.85875E-05-1.03688E-08 3.66156E-19-6.02618E-19
 -1      2811 9.52492E-05-2.85137E-05-2.86010E-05-4.72993E-08-7.29598E-19 1.03381E-19
 -1      2812 9.52390E-05-2.85443E-05-2.85830E-05 4.43045E-09 1.81161E-18-5.40880E-19
 -1      2813 9.52370E-05-2.85507E-05-2.85800E-05 1.52488E-08 1.72152E-18-3.36960E-20
 -1      2814 9.52442E-05-2.85344E-05-2.85900E-05-8.33111E-09 7.19892E-19 5.30859E-19
 -1      2815 9.52357E-05-2.85560E-05-2.85767E-05 2.41390E-08 6.70365E-19 6.97575E-19
 -1      2816 9.52355E-05-2.85614E-05-2.85747E-05 3.00582E-08 2.22437E-19 1.83645E-18
 -1      2817 9.52412E-05-2.85502E-05-2.85819E-05 1.64359E-08 2.02074E-18 1.54384E-19
 -1      2818 9.52351E-05-2.85660E-05-2.85723E-05 3.42991E-08-7.59812E-19 1.64901E-18
 -1      2819 9.52360E-05-2.85707E-05-2.85709E-05 3.62223E-08-1.66521E-18 2.34717E-18
 -1      2820 9.52400E-05-2.85630E-05-2.85760E-05 3.05802E-08-4.47271E-19 2.35347E-18
 -1      2821 1.00103E-04-2.96656E-05-3.01876E-05-7.10195E-06 1.43404E-19-1.14671E-19
 -1      2822 9.93703E-05-2.90596E-05-3.01141E-05-6.77664E-06 1.16159E-19-1.16593E-19
 -1      2823 9.52413E-05-2.85776E-05-2.85702E-05-3.62053E-08-5.47582E-19 7.99464E-20
 -1      2824 9.52356E-05-2.85747E-05-2.85690E-05-3.58704E-08-6.15547E-19 1.48499E-18
 -1      2825 9.52334E-05-2.85706E-05-2.85697E-05-3.66574E-08-5.26253E-19 1.01481E-18
 -1      2826 9.89185E-05-2.85792E-05-3.01411E-05-6.17098E-06 1.03629E-19-1.11565E-19
 -1      2827 9.83941E-05-2.80918E-05-3.01087E-05-5.54257E-06 1.81962E-19-5.82653E-20
 -1      2828 9.82832E-05-2.82610E-05-3.00277E-05-6.94658E-06 1.62534E-19-1.50904E-19
 -1      2829 1.03931E-04-3.30517E-05-3.03987E-05-6.75766E-06-3.74286E-19 8.12134E-20
 -1      2830 1.02812E-04-3.20359E-05-3.03040E-05-7.26874E-06-1.50927E-19 1.25604E-19
 -1      2831 1.06636E-04-3.54321E-05-3.05548E-05-4.99857E-06 3.39293E-19-3.48931E-19
 -1      2832 1.05406E-04-3.42611E-05-3.04530E-05-6.10684E-06-2.47145E-20 3.47912E-21
 -1      2833 1.03769E-04-3.38974E-05-2.99841E-05-7.65668E-06 5.60766E-21-7.02822E-20
 -1      2834 1.09660E-04-3.78851E-05-3.08149E-05-1.83198E-06 5.36738E-19-2.08179E-19
 -1      2835 1.08504E-04-3.68186E-05-3.06793E-05-3.60169E-06 4.07544E-19-2.61665E-19
 -1      2836 1.07133E-04-3.69135E-05-3.01383E-05-5.75502E-06 4.23539E-19 1.02736E-20
 -1      2837 1.12401E-04-3.94940E-05-3.13036E-05 2.70049E-06 5.57626E-19 1.22517E-19
 -1      2838 1.11665E-04-3.90603E-05-3.10833E-05 4.21315E-07 5.78007E-19 3.56697E-20
 -1      2839 1.11071E-04-3.98976E-05-3.05359E-05-2.21200E-06 3.97114E-19 1.54836E-19
 -1      2840 1.13823E-04-3.88187E-05-3.21687E-05 7.84236E-06 5.07955E-20 4.54706E-19
 -1      2841 1.13944E-04-3.97444E-05-3.18102E-05 5.60412E-06 3.89545E-19 2.83855E-19
 -1      2842 1.14752E-04-4.15601E-05-3.13721E-05 2.98523E-06 3.07012E-19 3.01870E-19
 -1      2843 1.12861E-04-3.46943E-05-3.34495E-05 1.14485E-05 2.64827E-19 6.45853E-19
 -1      2844 1.13970E-04-3.72772E-05-3.29595E-05 1.03849E-05 9.04274E-21 6.08758E-19
 -1      2845 1.16547E-04-3.99074E-05-3.28294E-05 8.91738E-06 7.35852E-20 9.41193E-19
 -1      2846 1.09501E-04-2.78540E-05-3.49442E-05 1.08988E-05 6.97598E-19 6.63630E-19
 -1      2847 1.11287E-04-3.14155E-05-3.44175E-05 1.20651E-05 5.78861E-19 7.28983E-19
 -1      2848 1.15286E-04-3.42012E-05-3.47096E-05 1.28015E-05 4.45427E-19 8.50553E-19
 -1      2849 1.06231E-04-2.22830E-05-3.60141E-05 4.64633E-06 8.87280E-19 2.61932E-19
 -1      2850 1.07455E-04-2.45212E-05-3.57188E-05 8.02360E-06 6.63809E-19 5.83396E-19
 -1      2851 1.11450E-04-2.58159E-05-3.66882E-05 1.06277E-05 8.44187E-19 5.07935E-19
 -1      2852 1.06230E-04-2.22403E-05-3.60967E-05-4.72655E-06 4.59833E-19 1.13251E-19
 -1      2853 1.05759E-04-2.13699E-05-3.61975E-05-6.84250E-07 1.08097E-18 1.28418E-19
 -1      2854 1.08438E-04-2.00972E-05-3.79076E-05 2.25186E-06 1.04660E-18 3.06414E-19
 -1      2855 1.09433E-04-2.77230E-05-3.51894E-05-1.14660E-05-3.83600E-19-2.37290E-19
 -1      2856 1.07763E-04-2.45901E-05-3.55953E-05-8.98984E-06-6.39113E-20-1.94004E-19
 -1      2857 1.09665E-04-2.21199E-05-3.76198E-05-7.70018E-06 4.52620E-19 5.16574E-20
 -1      2858 1.13169E-04-3.46632E-05-3.37716E-05-1.25544E-05-8.74203E-19 7.56655E-20
 -1      2859 1.11507E-04-3.13986E-05-3.42784E-05-1.25869E-05-7.78853E-19-1.07867E-19
 -1      2860 1.13534E-04-2.96616E-05-3.59539E-05-1.31969E-05-7.42332E-19-5.85578E-20
 -1      2861 1.14626E-04-3.89617E-05-3.24735E-05-9.03275E-06-2.81969E-19-1.50565E-19
 -1      2862 1.13890E-04-3.71621E-05-3.28856E-05-1.08196E-05-5.58254E-19-3.47763E-20
 -1      2863 1.16469E-04-3.73537E-05-3.38662E-05-1.20172E-05-7.53012E-19 5.85541E-19
 -1      2864 1.13401E-04-3.96927E-05-3.15689E-05-3.85817E-06-9.75014E-20-3.42741E-19
 -1      2865 1.13691E-04-3.95152E-05-3.18328E-05-6.17554E-06-1.46087E-19 6.58858E-20
 -1      2866 1.16177E-04-4.11524E-05-3.21303E-05-6.87565E-06-2.04125E-19 4.10847E-19
 -1      2867 1.10630E-04-3.80741E-05-3.10526E-05 7.55189E-07 4.99104E-20 1.02438E-19
 -1      2868 1.11555E-04-3.88791E-05-3.12027E-05-1.27017E-06-7.80792E-20-2.00244E-19
 -1      2869 1.13242E-04-4.09175E-05-3.10104E-05-1.22133E-06 2.54540E-20 5.70942E-19
 -1      2870 1.07503E-04-3.56030E-05-3.07739E-05 3.94970E-06-5.66223E-19 1.32228E-18
 -1      2871 1.08659E-04-3.67341E-05-3.08723E-05 2.54012E-06-2.85920E-19 3.65220E-19
 -1      2872 1.09327E-04-3.84067E-05-3.04316E-05 3.11791E-06-3.60849E-19 6.16921E-19
 -1      2873 1.04704E-04-3.32440E-05-3.05950E-05 5.72627E-06-2.62543E-20 1.09816E-18
 -1      2874 1.05831E-04-3.43034E-05-3.06855E-05 4.93398E-06-1.87742E-19 1.52754E-18
 -1      2875 1.05646E-04-3.53420E-05-3.01690E-05 5.75672E-06-2.03515E-19 2.96024E-19
 -1      2876 1.02445E-04-3.13819E-05-3.04357E-05 6.40637E-06-2.72929E-19 7.26744E-19
 -1      2877 1.03436E-04-3.22184E-05-3.05380E-05 6.10413E-06-7.47101E-20 1.38207E-18
 -1      2878 1.02702E-04-3.26621E-05-3.00477E-05 6.99547E-06-7.75275E-22 1.77345E-19
 -1      2879 1.00711E-04-3.00722E-05-3.02623E-05 6.34889E-06 1.31173E-19 5.09229E-19
 -1      2880 1.01543E-04-3.06690E-05-3.03793E-05 6.38242E-06 2.76182E-19 8.86065E-19
 -1      2881 1.00540E-04-3.06703E-05-2.99651E-05 7.25256E-06-7.73660E-20 7.55931E-20
 -1      2882 9.94002E-05-2.92247E-05-3.00695E-05 5.85353E-06 6.18851E-19-7.94400E-20
 -1      2883 1.00085E-04-2.96223E-05-3.01958E-05 6.08884E-06 2.57421E-19 1.08740E-19
 -1      2884 9.90206E-05-2.93481E-05-2.98732E-05 6.89833E-06 6.27082E-19-4.69987E-19
 -1      2885 9.84070E-05-2.87155E-05-2.98657E-05 5.13782E-06-2.49615E-19 7.28847E-19
 -1      2886 9.89661E-05-2.89662E-05-2.99933E-05 5.47459E-06 2.86123E-19 6.62701E-19
 -1      2887 9.79675E-05-2.85516E-05-2.97583E-05 6.20727E-06 1.89513E-19-1.01885E-19
 -1      2888 9.76475E-05-2.84345E-05-2.96626E-05 4.34710E-06 1.69811E-19-6.47481E-19
 -1      2889 9.81016E-05-2.85843E-05-2.97843E-05 4.71726E-06-1.57946E-20 2.32723E-20
 -1      2890 9.72331E-05-2.81236E-05-2.96241E-05 5.36662E-06 7.28300E-20-2.32543E-19
 -1      2891 9.70609E-05-2.82984E-05-2.94705E-05 3.57140E-06 7.86384E-19-1.10352E-18
 -1      2892 9.74274E-05-2.83822E-05-2.95814E-05 3.93273E-06 5.74614E-19-9.82035E-19
 -1      2893 9.67115E-05-2.79336E-05-2.94804E-05 4.49706E-06 5.40297E-19-1.17198E-18
 -1      2894 9.66054E-05-2.82497E-05-2.92965E-05 2.86139E-06 1.69298E-19 1.31181E-20
 -1      2895 9.68986E-05-2.82917E-05-2.93937E-05 3.19036E-06 3.16340E-19-5.50874E-19
 -1      2896 9.63326E-05-2.78871E-05-2.93371E-05 3.67137E-06 2.59416E-19-1.19925E-18
 -1      2897 9.62515E-05-2.82507E-05-2.91444E-05 2.24120E-06 3.77039E-19 9.02194E-19
 -1      2898 9.64833E-05-2.82672E-05-2.92270E-05 2.52696E-06 3.07822E-19 1.69179E-19
 -1      2899 9.60515E-05-2.79203E-05-2.92018E-05 2.92913E-06-1.81412E-19 4.41639E-19
 -1      2900 9.59776E-05-2.82776E-05-2.90154E-05 1.71799E-06 8.23704E-19 1.89779E-18
 -1      2901 9.61584E-05-2.82791E-05-2.90837E-05 1.95769E-06 2.02398E-19 1.22326E-18
 -1      2902 9.58398E-05-2.79928E-05-2.90796E-05 2.28764E-06-7.51199E-20-1.66638E-19
 -1      2903 9.57675E-05-2.83158E-05-2.89087E-05 1.28870E-06 8.11070E-19 2.21831E-18
 -1      2904 9.59064E-05-2.83093E-05-2.89639E-05 1.48423E-06 1.14316E-18 2.63722E-18
 -1      2905 9.56790E-05-2.80799E-05-2.89731E-05 1.74996E-06 3.88864E-19 1.36627E-18
 -1      2906 9.56082E-05-2.83571E-05-2.88226E-05 9.44720E-07 1.77974E-18 2.13463E-18
 -1      2907 9.57131E-05-2.83466E-05-2.88662E-05 1.10047E-06 1.56558E-18 2.60245E-18
 -1      2908 9.55567E-05-2.81675E-05-2.88829E-05 1.31061E-06 1.19938E-18 3.23220E-18
 -1      2909 9.54892E-05-2.83967E-05-2.87544E-05 6.74869E-07 9.12719E-20 1.71936E-18
 -1      2910 9.55670E-05-2.83848E-05-2.87882E-05 7.96317E-07 1.16652E-18 1.79437E-18
 -1      2911 9.54642E-05-2.82482E-05-2.88084E-05 9.59491E-07 1.63930E-18 3.79896E-18
 -1      2912 9.54020E-05-2.84324E-05-2.87017E-05 4.67349E-07-4.76005E-19 8.45214E-19
 -1      2913 9.54584E-05-2.84205E-05-2.87273E-05 5.60159E-07-6.99943E-20 1.46161E-18
 -1      2914 9.53948E-05-2.83186E-05-2.87482E-05 6.84519E-07 4.06245E-19 2.10897E-18
 -1      2915 9.53395E-05-2.84630E-05-2.86616E-05 3.10854E-07 3.41048E-19 1.33773E-18
 -1      2916 9.53793E-05-2.84520E-05-2.86806E-05 3.80378E-07-5.28093E-19 8.83031E-19
 -1      2917 9.53435E-05-2.83778E-05-2.87007E-05 4.73307E-07-4.11459E-19 3.54721E-19
 -1      2918 9.52960E-05-2.84887E-05-2.86319E-05 1.95191E-07-6.11205E-19 9.84720E-19
 -1      2919 9.53231E-05-2.84789E-05-2.86456E-05 2.46200E-07 5.64077E-19 1.48448E-18
 -1      2920 9.53062E-05-2.84261E-05-2.86638E-05 3.14164E-07 4.11433E-20 9.60989E-19
 -1      2921 9.52667E-05-2.85096E-05-2.86103E-05 1.11558E-07-1.30020E-18 2.45317E-19
 -1      2922 9.52844E-05-2.85012E-05-2.86200E-05 1.48132E-07-1.78540E-18 5.84474E-19
 -1      2923 9.52798E-05-2.84647E-05-2.86357E-05 1.96627E-07-7.31120E-19 1.58864E-18
 -1      2924 9.52481E-05-2.85265E-05-2.85951E-05 5.26163E-08 5.06243E-19-7.04729E-19
 -1      2925 9.52588E-05-2.85194E-05-2.86016E-05 7.81230E-08-3.03640E-20-1.41101E-19
 -1      2926 9.52616E-05-2.84949E-05-2.86148E-05 1.11711E-07-4.98101E-19-7.89743E-20
 -1      2927 9.52372E-05-2.85400E-05-2.85846E-05 1.24493E-08 3.83171E-19-1.14093E-18
 -1      2928 9.52430E-05-2.85340E-05-2.85888E-05 2.95755E-08 3.72293E-19-9.90775E-19
 -1      2929 9.52495E-05-2.85182E-05-2.85996E-05 5.19518E-08 8.33740E-19-1.51975E-18
 -1      2930 9.52319E-05-2.85509E-05-2.85776E-05-1.35322E-08-1.56983E-19-1.20418E-18
 -1      2931 9.52341E-05-2.85458E-05-2.85802E-05-2.73810E-09-2.38766E-19-1.42079E-18
 -1      2932 9.52421E-05-2.85362E-05-2.85886E-05 1.13433E-08 2.34582E-19-1.51165E-18
 -1      2933 9.52304E-05-2.85599E-05-2.85730E-05-2.86133E-08-6.74864E-19 2.57988E-20
 -1      2934 9.52303E-05-2.85556E-05-2.85746E-05-2.28336E-08-1.34277E-19-3.70077E-19
 -1      2935 9.52380E-05-2.85500E-05-2.85808E-05-1.47694E-08-5.95163E-19-2.35369E-18
 -1      2936 9.52325E-05-2.85670E-05-2.85709E-05-3.47206E-08-2.84560E-19 7.74823E-19
 -1      2937 9.52310E-05-2.85630E-05-2.85719E-05-3.24870E-08-8.54711E-19 8.09952E-19
 -1      2938 9.52381E-05-2.85604E-05-2.85763E-05-2.84751E-08-9.65860E-19-7.95855E-19
 -1      2939 9.52402E-05-2.85687E-05-2.85736E-05-3.43860E-08-1.00189E-18-3.74085E-19
 -1      2940 9.52524E-05-2.85783E-05-2.85746E-05-2.09164E-09-2.36856E-19-2.08443E-18
 -1      2941 9.52523E-05-2.85783E-05-2.85746E-05-6.26535E-09-5.93508E-19-3.11264E-18
 -1      2942 9.52363E-05-2.85737E-05-2.85696E-05 3.70347E-08-2.46666E-18 2.19806E-18
 -1      2943 9.52374E-05-2.85768E-05-2.85689E-05 3.64648E-08-2.57452E-18 1.99113E-18
 -1      2944 9.52414E-05-2.85797E-05-2.85693E-05 3.62545E-08-3.75088E-18 2.60971E-18
 -1      2945 9.52401E-05-2.85721E-05-2.85721E-05 3.58175E-08-1.20108E-18 3.07111E-18
 -1      2946 9.52520E-05-2.85800E-05-2.85737E-05-1.84771E-08 1.09373E-18-2.09175E-18
 -1      2947 9.52511E-05-2.85796E-05-2.85735E-05-2.23741E-08 2.02052E-18-1.84894E-18
 -1      2948 9.52524E-05-2.85784E-05-2.85746E-05 6.09399E-09-6.26867E-19-3.09652E-18
 -1      2949 9.52524E-05-2.85784E-05-2.85746E-05 1.90425E-09-8.34572E-19-1.87603E-18
 -1      2950 9.52515E-05-2.85664E-05-2.85792E-05-1.21949E-10-3.42166E-19-2.51606E-18
 -1      2951 9.52524E-05-2.85790E-05-2.85743E-05-1.02915E-08-8.75952E-19-3.39223E-18
 -1      2952 9.52520E-05-2.85788E-05-2.85742E-05-1.44072E-08 4.61065E-19-1.94709E-18
 -1      2953 9.52515E-05-2.85691E-05-2.85781E-05-1.57400E-08 8.04116E-19-2.69787E-18
 -1      2954 9.52515E-05-2.85671E-05-2.85789E-05-7.86217E-09 2.28557E-19-3.41861E-18
 -1      2955 1.04050E-04-5.41736E-05-2.09745E-05-3.39102E-05 4.09858E-19 5.44986E-19
 -1      2956 1.17967E-04-5.88184E-05-2.55773E-05-2.78295E-05 1.02279E-19-2.34893E-19
 -1      2957 9.52522E-05-2.85790E-05-2.85742E-05 1.41743E-08-5.05291E-19-1.81803E-18
 -1      2958 9.52525E-05-2.85791E-05-2.85743E-05 1.00878E-08-6.84822E-19-2.16169E-18
 -1      2959 9.52516E-05-2.85673E-05-2.85789E-05 7.59054E-09-6.74355E-19-2.88402E-18
 -1      2960 9.52513E-05-2.85798E-05-2.85735E-05 2.22627E-08-4.40622E-19-2.02672E-18
 -1      2961 9.52522E-05-2.85802E-05-2.85737E-05 1.83158E-08-4.89038E-19-1.52326E-18
 -1      2962 9.52517E-05-2.85693E-05-2.85781E-05 1.55101E-08-1.36474E-18-2.00320E-18
 -1      2963 9.52487E-05-2.85801E-05-2.85723E-05 2.95878E-08-1.71627E-18 1.48859E-18
 -1      2964 9.52506E-05-2.85810E-05-2.85727E-05 2.62617E-08-1.39892E-19-3.99837E-19
 -1      2965 9.52507E-05-2.85718E-05-2.85766E-05 2.35708E-08-3.89411E-19-6.17637E-19
 -1      2966 9.52441E-05-2.85796E-05-2.85705E-05 3.43711E-08-3.71658E-18 3.24170E-18
 -1      2967 9.52472E-05-2.85813E-05-2.85711E-05 3.23220E-08-2.58562E-18 3.03701E-18
 -1      2968 9.52480E-05-2.85743E-05-2.85745E-05 3.04028E-08-7.83072E-19 1.26502E-18
 -1      2969 9.52437E-05-2.85758E-05-2.85720E-05 3.48296E-08-1.99192E-18 3.51042E-18
 -1      2970 1.30785E-04-3.09077E-05-4.31542E-05 1.60841E-05-5.69418E-19-5.65394E-19
 -1      2971 1.26383E-04-2.17922E-05-4.54096E-05 1.32408E-05-7.42530E-19-8.68421E-19
 -1      2972 6.75846E-05-3.63980E-05-1.28984E-05-3.76679E-05 1.51725E-19-1.14900E-18
 -1      2973 8.65401E-05-4.67370E-05-1.70530E-05-3.93926E-05 8.64609E-19 5.46760E-19
 -1      2974 9.81275E-05-2.76777E-05-3.01868E-05-4.66008E-06 1.16229E-19-1.16563E-19
 -1      2975 9.78145E-05-2.72176E-05-3.02284E-05-3.72176E-06 6.26920E-20-8.80424E-20
 -1      2976 9.70858E-05-2.60731E-05-3.04444E-05-3.15964E-06 6.83340E-20-2.02675E-19
 -1      2977 9.75436E-05-2.71740E-05-3.01725E-05-5.34567E-06 1.13801E-19-2.20032E-19
 -1      2978 9.52794E-05-2.04377E-05-3.21074E-05-4.90964E-06-4.82114E-19 1.99501E-19
 -1      2979 9.59027E-05-2.21798E-05-3.16072E-05-2.80638E-06-4.52101E-19 1.59823E-19
 -1      2980 1.20277E-04-5.90293E-05-2.64499E-05 2.79015E-05-2.93603E-19 1.82483E-18
 -1      2981 1.05123E-04-5.42593E-05-2.14595E-05 3.38756E-05-2.44051E-19 2.42670E-18
 -1      2982 3.37791E-05-1.23489E-05-8.68845E-06 5.63424E-06-3.31534E-20 4.11446E-19
 -1      2983 3.40789E-05-1.24161E-05-8.64688E-06-6.21387E-06 2.71646E-19-8.86420E-19
 -1      2984 1.01752E-04-3.11175E-05-3.02808E-05-7.36517E-06-9.52461E-20-1.04087E-19
 -1      2985 1.00816E-04-3.03222E-05-3.01901E-05-7.40365E-06 3.73412E-20-1.76187E-19
 -1      2986 9.94562E-05-2.96010E-05-2.99612E-05-7.95852E-06 5.95891E-20-1.52141E-19
 -1      2987 1.01232E-04-3.14321E-05-2.99447E-05-8.27406E-06-2.72550E-19 8.65737E-20
 -1      2988 9.64492E-05-2.35006E-05-3.12487E-05-1.20967E-06-4.08331E-19 1.68289E-19
 -1      2989 9.65724E-05-2.44148E-05-3.09307E-05 6.64785E-07-3.92876E-19 1.78535E-19
 -1      2990 9.56981E-05-2.35014E-05-3.09399E-05 1.33947E-06-3.66909E-19 1.17185E-19
 -1      2991 9.49936E-05-2.13465E-05-3.15586E-05-1.70800E-06-4.25550E-19 1.73373E-19
 -1      2992 8.88594E-05-1.36368E-05-3.22579E-05 2.24603E-06 2.67786E-19-4.83381E-19
 -1      2993 8.79612E-05-1.28090E-05-3.22362E-05 1.64961E-06 1.49132E-19-4.77270E-19
 -1      2994 8.83480E-05-1.38784E-05-3.18956E-05 8.51812E-07 1.01495E-19-4.37459E-19
 -1      2995 9.02384E-05-1.57449E-05-3.19041E-05 1.51892E-06 2.73161E-19-4.25337E-19
 -1      2996 1.32157E-04-5.97635E-05-3.12476E-05 1.50941E-05-3.13402E-20-5.75982E-20
 -1      2997 1.21216E-04-5.88471E-05-2.66958E-05 2.36151E-05 2.54586E-19-3.23249E-19
 -1      2998 1.38131E-04-3.33344E-05-4.55714E-05-1.22650E-05-7.86258E-19-2.71051E-20
 -1      2999 1.41340E-04-4.35910E-05-4.20772E-05-7.79234E-06-6.74450E-19 4.01070E-19
 -1      3000 8.76938E-05-1.25280E-05-3.22413E-05-1.71592E-06-2.73919E-19-3.32776E-19
 -1      3001 8.85702E-05-1.33269E-05-3.22666E-05-2.26491E-06-3.17901E-19-2.54598E-19
 -1      3002 1.28895E-04-5.98964E-05-2.93184E-05-1.77768E-05 1.90900E-19-8.88326E-19
 -1      3003 1.35550E-04-5.81618E-05-3.37404E-05-7.86544E-06 5.70662E-19-7.62647E-19
 -1      3004 1.23077E-04-5.84748E-05-2.75215E-05-1.98730E-05-5.99964E-19-6.67303E-19
 -1      3005 1.37409E-04-4.20649E-05-4.09481E-05 8.46261E-06 1.36309E-18 1.65023E-18
 -1      3006 1.34641E-04-3.20263E-05-4.47285E-05 1.14859E-05 1.84590E-18 1.28527E-18
 -1      3007 1.34961E-04-5.74651E-05-3.30595E-05-9.95814E-06 7.48883E-19 1.19125E-18
 -1      3008 1.38073E-04-5.22009E-05-3.74421E-05-1.10645E-06 9.71620E-19 1.48824E-18
 -1      3009 1.13179E-04-5.73103E-05-2.36160E-05-3.11727E-05 4.27752E-20 4.89426E-19
 -1      3010 1.26041E-04-5.98068E-05-2.88009E-05-2.23769E-05 4.82491E-19 6.16322E-19
 -1      3011 8.33506E-05-4.52718E-05-1.59426E-05-3.99919E-05-3.67824E-19 3.67083E-19
 -1      3012 9.86023E-05-5.25102E-05-1.98126E-05-3.85005E-05 1.05879E-22 5.82732E-19
 -1      3013 5.17462E-05-2.60028E-05-1.05016E-05-3.21448E-05-4.79844E-19-5.21772E-19
 -1      3014 6.80885E-05-3.62432E-05-1.33682E-05-3.96400E-05-5.52583E-19-8.05740E-20
 -1      3015 3.29392E-05-1.37981E-05-7.62412E-06-9.25853E-06-1.61810E-19-1.52551E-18
 -1      3016 3.89078E-05-1.79051E-05-8.60260E-06-2.24122E-05-4.58192E-19-1.32434E-18
 -1      3017 5.94756E-05-2.99960E-05-1.23995E-05 3.47854E-05 5.31090E-19-1.65775E-18
 -1      3018 4.52950E-05-2.20197E-05-9.31929E-06 2.71728E-05 9.03996E-19-1.84696E-18
 -1      3019 1.41162E-04-5.19528E-05-3.87544E-05-6.42361E-07-5.13831E-19 3.79047E-19
 -1      3020 1.37851E-04-5.66525E-05-3.48159E-05 6.22290E-06-3.39720E-19 7.29507E-20
 -1      3021 1.33753E-04-5.77554E-05-3.26160E-05 6.45004E-06 7.99387E-20 3.75341E-19
 -1      3022 1.38103E-04-4.75090E-05-3.89648E-05-7.36146E-06-2.36216E-19 8.82608E-19
 -1      3023 3.56872E-05-1.65253E-05-7.80050E-06 1.81128E-05 8.67150E-19-1.57125E-18
 -1      3024 3.10933E-05-1.32605E-05-7.13921E-06 3.99864E-06 5.51081E-19-1.48930E-18
 -1      3025 4.71355E-05-1.86962E-05-1.15645E-05 2.07783E-05 5.27490E-19-1.75537E-18
 -1      3026 9.22904E-05-1.59347E-05-3.27347E-05-5.90150E-06-5.25359E-19 1.32719E-19
 -1      3027 1.26935E-04-9.74938E-06-5.08653E-05 2.48869E-06 5.30666E-19 5.01523E-19
 -1      3028 1.27549E-04-1.02890E-05-5.08686E-05-4.61175E-06 6.47133E-19 4.55280E-19
 -1      3029 1.31527E-04-2.03690E-05-4.80448E-05 1.14653E-05 1.88634E-18 9.28136E-19
 -1      3030 1.29696E-04-1.37848E-05-5.03853E-05 7.44648E-06 1.32603E-18 3.72059E-19
 -1      3031 1.39133E-04-5.08372E-05-3.77508E-05 4.65903E-06 6.12140E-19-7.37342E-19
 -1      3032 1.36563E-04-4.02003E-05-4.18957E-05 1.22364E-05-1.99159E-19-1.03973E-18
 -1      3033 8.64271E-05-4.63758E-05-1.70933E-05 4.00367E-05 3.56813E-19 3.00178E-18
 -1      3034 6.97819E-05-3.71491E-05-1.35327E-05 3.85566E-05-4.39822E-19 2.93635E-18
 -1      3035 1.36758E-04-4.07941E-05-4.16726E-05-9.53366E-06-1.32667E-19-3.73542E-19
 -1      3036 1.39913E-04-4.94719E-05-3.88326E-05-1.97501E-06-2.97335E-19-5.10973E-19
 -1      3037 1.37189E-04-5.52667E-05-3.56025E-05 7.08235E-06-7.65374E-20-4.49986E-19
 -1      3038 1.29753E-04-5.83141E-05-3.04654E-05 1.79341E-05 1.20226E-19 4.31457E-19
 -1      3039 1.26158E-04-5.87447E-05-2.88031E-05 1.80298E-05-4.80585E-19 5.01867E-20
 -1      3040 1.35691E-04-5.32107E-05-3.54248E-05 1.03880E-06-7.64646E-19-9.34277E-19
 -1      3041 8.96386E-05-1.44068E-05-3.22705E-05-2.62967E-06-3.40700E-19-1.03416E-19
 -1      3042 9.07968E-05-1.55051E-05-3.22817E-05-3.21100E-06-3.79576E-19-2.18227E-20
 -1      3043 8.98934E-05-1.53615E-05-3.19177E-05-1.54141E-06-3.22253E-19-8.79851E-20
 -1      3044 8.66272E-05-1.22407E-05-3.18599E-05-1.31798E-07-9.26860E-20-3.46204E-19
 -1      3045 8.59313E-05-1.08879E-05-3.21811E-05-2.19605E-07-1.82976E-19-3.45082E-19
 -1      3046 8.60836E-05-1.10171E-05-3.21897E-05-6.74480E-07-2.16679E-19-3.68555E-19
 -1      3047 6.57956E-05-3.09906E-05-1.43030E-05-3.27220E-05 6.06476E-19-7.79588E-19
 -1      3048 9.53188E-05-2.10219E-05-3.18530E-05 3.80767E-06 2.99586E-19-2.57412E-19
 -1      3049 4.64954E-05-1.66477E-05-1.24330E-05 1.96969E-05 3.93341E-20 1.86771E-18
 -1      3050 3.91923E-05-1.38894E-05-1.01993E-05 1.22863E-05-2.40319E-19 1.09373E-18
 -1      3051 4.37960E-05-1.28837E-05-1.29275E-05 7.05889E-06 2.67609E-20 2.19064E-19
 -1      3052 1.24484E-04-1.54827E-05-4.71512E-05-8.19296E-06 3.71424E-19 3.68142E-19
 -1      3053 4.37281E-05-1.54404E-05-1.15563E-05-1.35921E-05 5.48295E-19-3.88682E-19
 -1      3054 1.21569E-04-5.72061E-05-2.76998E-05 1.84432E-05 7.65321E-19 2.68390E-19
 -1      3055 1.15159E-04-5.70660E-05-2.46889E-05 2.78348E-05 5.17325E-19-3.91438E-19
 -1      3056 1.05795E-04-5.16714E-05-2.29311E-05 2.99950E-05 7.32683E-19-3.77247E-19
 -1      3057 1.18133E-04-1.54802E-05-4.43770E-05-2.29137E-07-1.21655E-18-3.76930E-20
 -1      3058 1.21372E-04-3.34310E-05-3.80780E-05-1.50409E-05 3.99561E-19-1.79333E-20
 -1      3059 1.18725E-04-2.68912E-05-3.94541E-05-1.36046E-05 5.81806E-20 4.08813E-19
 -1      3060 9.52504E-05-2.85715E-05-2.85766E-05-2.35655E-08 9.94463E-19-8.39632E-19
 -1      3061 9.52505E-05-2.85808E-05-2.85727E-05-2.62395E-08 1.72166E-18-5.14185E-19
 -1      3062 9.52485E-05-2.85797E-05-2.85724E-05-2.95610E-08 8.95772E-19 8.69122E-19
 -1      3063 1.28288E-04-2.73964E-05-4.35594E-05 1.31783E-05 1.47140E-18 6.76991E-19
 -1      3064 1.24439E-04-1.52090E-05-4.73140E-05 8.82060E-06-9.34701E-19-8.77632E-19
 -1      3065 9.52449E-05-2.85792E-05-2.85710E-05-3.37260E-08-6.05216E-20 2.03656E-19
 -1      3066 1.29667E-04-3.76851E-05-3.96860E-05 1.39077E-05-4.11605E-19-2.14326E-19
 -1      3067 9.52485E-05-2.17193E-05-3.15023E-05 1.99126E-06 2.40626E-19-3.15409E-19
 -1      3068 6.21217E-05-3.05667E-05-1.30691E-05 3.51780E-05-3.40084E-19 3.21767E-18
 -1      3069 5.57356E-05-2.35347E-05-1.33911E-05 2.88580E-05-2.36905E-19 3.01417E-18
 -1      3070 7.37143E-05-3.43417E-05-1.65352E-05 3.37662E-05-4.27328E-19 2.86424E-18
 -1      3071 1.34862E-04-3.60858E-05-4.27507E-05-1.22990E-05-1.35525E-20-3.93341E-19
 -1      3072 1.33436E-04-4.19941E-05-3.94150E-05-1.00465E-05-6.50998E-19-6.10075E-19
 -1      3073 1.30173E-04-3.04060E-05-4.32092E-05-1.40060E-05-1.67818E-19-5.44695E-19
 -1      3074 9.80148E-05-4.95246E-05-2.04002E-05-3.34850E-05 3.90376E-19 6.58648E-19
 -1      3075 1.00231E-04-5.05020E-05-2.10327E-05 3.34046E-05-1.72901E-19 1.55428E-18
 -1      3076 7.36419E-05-3.64185E-05-1.53215E-05 3.65137E-05 7.14049E-19-1.23328E-18
 -1      3077 6.79305E-05-3.03655E-05-1.57093E-05 3.20716E-05 6.14152E-19-1.18648E-18
 -1      3078 8.68559E-05-4.25543E-05-1.89549E-05 3.46748E-05 6.15793E-19-8.44280E-19
 -1      3079 3.93312E-05-1.33704E-05-1.05007E-05-2.24623E-06 2.67345E-19-1.06154E-18
 -1      3080 5.31451E-05-2.22562E-05-1.27081E-05-2.59457E-05-5.45119E-19-8.11352E-19
 -1      3081 8.64370E-05-1.13541E-05-3.22020E-05-9.27312E-07-2.00353E-19-2.51883E-19
 -1      3082 8.69609E-05-1.18106E-05-3.22247E-05-1.41445E-06-2.66210E-19-2.79455E-19
 -1      3083 8.80605E-05-1.35781E-05-3.18998E-05-9.88038E-07-2.24686E-19-2.98946E-19
 -1      3084 8.69479E-05-1.25325E-05-3.18719E-05-5.35862E-07-2.02311E-19-3.15118E-19
 -1      3085 8.03477E-05-4.00929E-05-1.68454E-05-3.66152E-05-5.84453E-19 1.48972E-19
 -1      3086 1.08487E-04-5.44408E-05-2.28756E-05-3.14789E-05-1.09691E-19 5.28290E-19
 -1      3087 1.29091E-04-5.81121E-05-3.04046E-05-1.39767E-05 6.42316E-19 8.92137E-19
 -1      3088 1.21797E-04-2.36863E-05-4.23477E-05-1.23381E-05-2.20387E-19-3.43578E-20
 -1      3089 1.32458E-04-2.94974E-05-4.45637E-05-1.40281E-05-4.25634E-19-7.31625E-20
 -1      3090 1.30136E-04-3.46592E-05-4.11031E-05-1.42422E-05-3.09696E-20 4.43686E-19
 -1      3091 9.26528E-05-1.72970E-05-3.22933E-05-4.14573E-06-4.29071E-19 9.55327E-20
 -1      3092 1.34701E-04-5.38474E-05-3.47668E-05 2.89597E-07 4.00104E-19-4.69680E-19
 -1      3093 1.34474E-04-4.73280E-05-3.75050E-05 5.64817E-06 1.21564E-18 1.27298E-18
 -1      3094 1.25697E-04-1.25705E-05-4.90925E-05 4.48831E-06-1.02385E-18-1.39441E-18
 -1      3095 1.29410E-04-1.11504E-05-5.12764E-05-1.37704E-06-1.15811E-18-1.59343E-18
 -1      3096 1.22140E-04-1.31470E-05-4.70715E-05 4.99168E-06 8.32951E-19 1.60764E-19
 -1      3097 1.26835E-04-3.85030E-05-3.80261E-05-1.39968E-05 3.27299E-19 5.31037E-19
 -1      3098 1.24846E-04-1.40561E-05-4.79790E-05-4.83619E-06-1.21761E-18-7.91010E-19
 -1      3099 9.37563E-05-2.03251E-05-3.14852E-05 1.05785E-06 2.29624E-19-4.93163E-19
 -1      3100 9.24804E-05-1.88950E-05-3.15467E-05 8.09002E-07 2.09870E-19-5.34511E-19
 -1      3101 9.49603E-05-2.45826E-05-3.01554E-05 5.84275E-06-1.82500E-19-4.92055E-20
 -1      3102 9.51008E-05-2.50835E-05-3.00037E-05 6.96097E-06-7.28351E-20-2.70006E-19
 -1      3103 9.50411E-05-2.55136E-05-2.97920E-05 8.03728E-06-6.58967E-20-3.25750E-19
 -1      3104 9.53293E-05-2.60801E-05-2.96679E-05 8.96444E-06-1.56209E-19-4.46027E-19
 -1      3105 9.36731E-05-2.42445E-05-2.97579E-05 7.40746E-06-1.59145E-19-2.86097E-19
 -1      3106 9.53891E-05-2.66396E-05-2.94564E-05 9.95404E-06-8.00744E-20-3.98164E-19
 -1      3107 9.59650E-05-2.74666E-05-2.93393E-05 1.06962E-05-4.35586E-20-3.07157E-19
 -1      3108 9.36486E-05-2.53174E-05-2.92945E-05 9.52053E-06-1.49806E-19-2.29400E-19
 -1      3109 9.63440E-05-2.83748E-05-2.91133E-05 1.16179E-05 6.02415E-21-4.34311E-19
 -1      3110 9.74034E-05-2.96857E-05-2.89977E-05 1.21271E-05 4.93364E-20-2.92902E-19
 -1      3111 9.40324E-05-2.68708E-05-2.88069E-05 1.15192E-05-7.62760E-20-5.06771E-19
 -1      3112 9.83996E-05-3.11974E-05-2.87643E-05 1.29423E-05 1.17503E-19-1.69867E-19
 -1      3113 1.00199E-04-3.32229E-05-2.86762E-05 1.30795E-05 1.61366E-20-1.36679E-19
 -1      3114 9.53022E-05-2.94182E-05-2.82843E-05 1.34362E-05 2.06102E-19-4.43442E-19
 -1      3115 1.02249E-04-3.55940E-05-2.84901E-05 1.36081E-05 1.78125E-19 4.54039E-20
 -1      3116 1.05019E-04-3.84423E-05-2.85131E-05 1.30660E-05 2.63894E-19 3.29076E-19
 -1      3117 9.81659E-05-3.35531E-05-2.77812E-05 1.51464E-05 3.50305E-19-4.74939E-19
 -1      3118 1.08738E-04-4.17571E-05-2.85333E-05 1.28009E-05-4.45999E-20 5.38395E-19
 -1      3119 1.12829E-04-4.51537E-05-2.89315E-05 1.07904E-05-1.59335E-19 3.63642E-19
 -1      3120 1.03678E-04-3.98360E-05-2.74989E-05 1.61357E-05 2.14617E-19 5.67264E-20
 -1      3121 1.16987E-04-5.03679E-05-2.84085E-05 1.30483E-05 3.99164E-19 3.17125E-19
 -1      3122 1.21735E-04-5.28690E-05-2.94713E-05 9.76279E-06 4.12373E-19 7.62574E-19
 -1      3123 1.31658E-04-4.29038E-05-3.85091E-05-1.15128E-05-1.71259E-20 1.08343E-18
 -1      3124 1.31252E-04-4.49844E-05-3.70873E-05 1.21631E-05 9.64294E-20-7.00232E-19
 -1      3125 1.28263E-04-4.89124E-05-3.41828E-05 6.36150E-06 1.45716E-20-2.51595E-19
 -1      3126 1.26492E-04-5.07586E-05-3.23617E-05 2.10486E-06-6.22622E-19-3.42717E-19
 -1      3127 1.31846E-04-5.07757E-05-3.50099E-05 5.06307E-06 1.90556E-19-1.41269E-19
 -1      3128 1.21342E-04-4.94669E-05-3.08700E-05-2.48550E-06-2.41232E-19-8.45577E-19
 -1      3129 1.17792E-04-4.76004E-05-2.99316E-05-6.04909E-06 2.62188E-19-8.99109E-19
 -1      3130 1.22868E-04-5.19251E-05-3.05472E-05-5.17073E-06-5.87143E-19-5.28370E-19
 -1      3131 1.12927E-04-4.43293E-05-2.94058E-05-8.22766E-06 4.59641E-19-8.14002E-19
 -1      3132 1.09403E-04-4.13524E-05-2.90539E-05-1.01948E-05 1.21868E-18-6.82087E-19
 -1      3133 1.12580E-04-4.60459E-05-2.86553E-05-1.11997E-05 2.98301E-19-5.34862E-19
 -1      3134 1.05971E-04-3.82894E-05-2.89899E-05-1.07712E-05 1.11043E-18-6.39790E-19
 -1      3135 1.03243E-04-3.56393E-05-2.89229E-05-1.15406E-05 1.27490E-18-1.71336E-19
 -1      3136 1.04581E-04-3.91131E-05-2.81852E-05-1.31665E-05 1.00765E-18-4.86567E-19
 -1      3137 1.01179E-04-3.33954E-05-2.90260E-05-1.12762E-05 1.32319E-18-2.77580E-19
 -1      3138 9.93457E-05-3.15012E-05-2.90590E-05-1.13293E-05 7.94920E-19-6.60363E-20
 -1      3139 9.93245E-05-3.34548E-05-2.83064E-05-1.29013E-05 1.15252E-18-1.86540E-19
 -1      3140 9.82440E-05-3.00858E-05-2.91901E-05-1.07321E-05 3.80832E-19-1.10924E-19
 -1      3141 9.71117E-05-2.88976E-05-2.92339E-05-1.04041E-05 8.36743E-20-1.24154E-19
 -1      3142 9.63507E-05-2.97159E-05-2.85956E-05-1.17674E-05 7.19526E-19-1.05300E-19
 -1      3143 9.66058E-05-2.81167E-05-2.93373E-05-9.69829E-06-3.58862E-21 2.48472E-19
 -1      3144 9.59387E-05-2.74523E-05-2.93574E-05-9.18633E-06 4.05850E-19 4.57899E-19
 -1      3145 9.48582E-05-2.75310E-05-2.88693E-05-1.03449E-05 2.76743E-19 9.62780E-19
 -1      3146 9.57680E-05-2.70981E-05-2.94191E-05-8.47233E-06-2.63982E-19 6.91339E-19
 -1      3147 9.53818E-05-2.67798E-05-2.94095E-05-7.88963E-06-5.02330E-19 5.08124E-19
 -1      3148 9.42422E-05-2.64328E-05-2.90637E-05-8.88964E-06-3.26013E-19 8.37069E-19
 -1      3149 9.53823E-05-2.66870E-05-2.94330E-05-7.21310E-06-8.81973E-19-3.29651E-19
 -1      3150 9.51558E-05-2.65793E-05-2.93990E-05-6.62541E-06-7.52088E-19-1.93920E-19
 -1      3151 9.40974E-05-2.60226E-05-2.91717E-05-7.50311E-06-9.88986E-19 4.59599E-19
 -1      3152 9.52320E-05-2.66325E-05-2.93937E-05-6.00896E-06-5.15129E-19-1.06390E-18
 -1      3153 9.50929E-05-2.66431E-05-2.93442E-05-5.45463E-06-1.21114E-18-1.06088E-18
 -1      3154 9.41793E-05-2.60149E-05-2.92080E-05-6.22908E-06-8.81477E-19-9.56016E-19
 -1      3155 9.51929E-05-2.67681E-05-2.93200E-05-4.90909E-06-1.26819E-18 4.09277E-20
 -1      3156 9.51009E-05-2.68386E-05-2.92630E-05-4.40919E-06-2.39059E-19 3.80078E-19
 -1      3157 9.43501E-05-2.62207E-05-2.91928E-05-5.08864E-06-6.27585E-19-9.42362E-19
 -1      3158 9.51992E-05-2.69903E-05-2.92282E-05-3.93811E-06-2.30030E-19 3.54372E-19
 -1      3159 9.51332E-05-2.70856E-05-2.91699E-05-3.50223E-06 1.32309E-19 4.88276E-20
 -1      3160 9.45382E-05-2.65218E-05-2.91450E-05-4.09071E-06-7.88389E-20-3.17455E-20
 -1      3161 9.52189E-05-2.72387E-05-2.91307E-05-3.10420E-06 1.53139E-19-6.02816E-19
 -1      3162 9.51683E-05-2.73389E-05-2.90753E-05-2.73432E-06-3.11254E-19-5.91342E-19
 -1      3163 9.47104E-05-2.68486E-05-2.90796E-05-3.23568E-06 1.92027E-19-1.57491E-18
 -1      3164 9.52380E-05-2.74801E-05-2.90360E-05-2.40465E-06 3.10649E-20 1.38144E-19
 -1      3165 9.51977E-05-2.75747E-05-2.89859E-05-2.09791E-06 3.41197E-19 6.61433E-19
 -1      3166 9.48544E-05-2.71627E-05-2.90076E-05-2.51750E-06 5.18552E-19-1.05402E-18
 -1      3167 9.52520E-05-2.76982E-05-2.89489E-05-1.82988E-06 8.89011E-19 6.27479E-19
 -1      3168 9.52193E-05-2.77823E-05-2.89053E-05-1.58061E-06 5.45828E-19 8.74902E-19
 -1      3169 9.49683E-05-2.74452E-05-2.89361E-05-1.92550E-06 9.35021E-19 8.28030E-19
 -1      3170 9.52603E-05-2.78864E-05-2.88722E-05-1.36649E-06-8.02623E-19 7.48117E-19
 -1      3171 9.52339E-05-2.79582E-05-2.88353E-05-1.16765E-06-1.22102E-18 3.75854E-19
 -1      3172 9.50548E-05-2.76884E-05-2.88696E-05-1.44617E-06-3.74909E-19 7.45312E-19
 -1      3173 9.52639E-05-2.80437E-05-2.88068E-05-9.99467E-07-1.10911E-18-4.78824E-20
 -1      3174 9.52428E-05-2.81033E-05-2.87763E-05-8.43610E-07-1.50686E-18 1.80514E-19
 -1      3175 9.51187E-05-2.78915E-05-2.88104E-05-1.06468E-06-1.31352E-18-2.15087E-19
 -1      3176 9.52642E-05-2.81720E-05-2.87523E-05-7.13707E-07-1.15329E-18 2.09967E-19
 -1      3177 9.52475E-05-2.82203E-05-2.87277E-05-5.93607E-07-7.40172E-19 9.45436E-20
 -1      3178 9.51644E-05-2.80571E-05-2.87595E-05-7.66115E-07-1.24153E-18-5.33249E-19
 -1      3179 9.52624E-05-2.82744E-05-2.87079E-05-4.94962E-07-8.27407E-19 1.09943E-18
 -1      3180 9.52496E-05-2.83128E-05-2.86885E-05-4.03990E-07-4.18701E-19 6.64746E-19
 -1      3181 9.51962E-05-2.81892E-05-2.87168E-05-5.36333E-07-5.71842E-19-6.84782E-19
 -1      3182 9.52595E-05-2.83546E-05-2.86726E-05-3.30402E-07-3.81301E-19 5.84056E-19
 -1      3183 9.52498E-05-2.83847E-05-2.86574E-05-2.62718E-07-7.11881E-21-5.63988E-19
 -1      3184 9.52176E-05-2.82927E-05-2.86818E-05-3.62488E-07-7.82047E-19-3.62503E-19
 -1      3185 9.52561E-05-2.84165E-05-2.86448E-05-2.08874E-07 2.59550E-19-1.09401E-18
 -1      3186 9.52490E-05-2.84397E-05-2.86332E-05-1.59495E-07-2.51679E-19-1.43873E-18
 -1      3187 9.52313E-05-2.83724E-05-2.86536E-05-2.33320E-07-6.53211E-20-1.09526E-18
 -1      3188 9.52528E-05-2.84635E-05-2.86234E-05-1.20964E-07-4.54500E-19-4.25172E-19
 -1      3189 9.52476E-05-2.84811E-05-2.86147E-05-8.57531E-08-3.08866E-19-7.67842E-19
 -1      3190 9.52395E-05-2.84329E-05-2.86314E-05-1.39252E-07-5.92312E-20-1.43272E-19
 -1      3191 9.52497E-05-2.84987E-05-2.86071E-05-5.89376E-08 2.13929E-19 1.09413E-18
 -1      3192 9.52461E-05-2.85120E-05-2.86007E-05-3.45581E-08-9.43830E-20 2.08212E-18
 -1      3193 9.52440E-05-2.84780E-05-2.86140E-05-7.23460E-08 1.04461E-18 1.26189E-18
 -1      3194 9.52470E-05-2.85249E-05-2.85949E-05-1.66205E-08 7.50730E-21 2.85203E-18
 -1      3195 9.52447E-05-2.85350E-05-2.85901E-05-4.68247E-10 2.41063E-18 2.54363E-18
 -1      3196 9.52459E-05-2.85115E-05-2.86005E-05-2.62125E-08 5.08524E-19 3.22602E-18
 -1      3197 9.52448E-05-2.85446E-05-2.85856E-05 1.08668E-08 1.97280E-18 1.35558E-18
 -1      3198 9.52438E-05-2.85525E-05-2.85821E-05 2.05643E-08 9.58889E-19 9.88749E-19
 -1      3199 9.52462E-05-2.85362E-05-2.85900E-05 4.14709E-09 1.22548E-18 3.58432E-18
 -1      3200 9.74865E-05-2.77864E-05-2.98679E-05-7.54284E-06 2.03366E-19-1.69610E-19
 -1      3201 9.70199E-05-2.71345E-05-2.99371E-05-6.83816E-06 1.85737E-19-1.48622E-19
 -1      3202 1.07278E-04-3.81965E-05-2.96336E-05-7.15710E-06 9.39512E-20 2.51437E-19
 -1      3203 1.05366E-04-3.63242E-05-2.95249E-05-8.32200E-06 2.55587E-19-1.17708E-20
 -1      3204 1.03329E-04-3.44650E-05-2.95207E-05-8.79642E-06 2.12427E-19-2.59632E-19
 -1      3205 1.01817E-04-3.28825E-05-2.94998E-05-9.26772E-06-2.45653E-19-3.71636E-20
 -1      3206 1.02984E-04-3.54958E-05-2.89939E-05-1.02320E-05 5.14812E-20-4.92363E-20
 -1      3207 1.17004E-04-4.42581E-05-3.12354E-05 1.76651E-06 6.49502E-20 8.70273E-19
 -1      3208 1.15386E-04-4.37211E-05-3.06444E-05-1.04677E-06 1.23846E-19 6.37452E-19
 -1      3209 1.19736E-04-4.24234E-05-3.31310E-05 8.28259E-06 1.00582E-19 9.56856E-19
 -1      3210 1.19678E-04-4.42758E-05-3.23286E-05 5.63362E-06 2.80064E-19 1.25298E-18
 -1      3211 1.20092E-04-4.66396E-05-3.15729E-05 1.67685E-06 7.67888E-20 1.32870E-18
 -1      3212 1.20886E-04-3.24759E-05-3.80321E-05 1.35666E-05 9.25913E-19 7.02561E-19
 -1      3213 1.23062E-04-3.83640E-05-3.64754E-05 1.22788E-05 5.05414E-19 6.89511E-19
 -1      3214 1.15454E-04-1.89956E-05-4.16794E-05 9.65649E-06 1.26166E-18 3.39396E-19
 -1      3215 1.17738E-04-2.41707E-05-4.05346E-05 1.21911E-05 1.24974E-18 4.24926E-19
 -1      3216 1.12974E-04-1.51510E-05-4.22623E-05-2.02976E-06 4.28122E-19 5.44937E-19
 -1      3217 1.12873E-04-1.55280E-05-4.20982E-05 3.52550E-06 6.93614E-19 2.59496E-19
 -1      3218 1.18437E-04-3.35025E-05-3.66705E-05-1.42671E-05-1.19258E-18 1.02232E-18
 -1      3219 1.16069E-04-2.76450E-05-3.79349E-05-1.35512E-05-5.43901E-19 6.98187E-19
 -1      3220 1.20302E-04-4.20796E-05-3.36449E-05-1.00208E-05-4.03730E-19 7.10475E-19
 -1      3221 1.19545E-04-3.84332E-05-3.47842E-05-1.21295E-05-7.26384E-19 7.87335E-19
 -1      3222 1.23039E-04-3.80523E-05-3.64825E-05-1.30636E-05-8.31508E-19 8.34724E-19
 -1      3223 1.17825E-04-4.43595E-05-3.14532E-05-3.15631E-06 1.73437E-19 2.14377E-19
 -1      3224 1.18778E-04-4.36956E-05-3.22414E-05-6.12921E-06-2.04492E-19 4.25207E-19
 -1      3225 1.22104E-04-4.53554E-05-3.29238E-05-6.54302E-06 1.12417E-19-1.42397E-19
 -1      3226 1.12757E-04-4.20148E-05-3.02393E-05 2.60083E-06-1.00491E-19 3.21694E-19
 -1      3227 1.14692E-04-4.32599E-05-3.06582E-05 2.08544E-07-7.59550E-20 3.48981E-19
 -1      3228 1.17112E-04-4.56304E-05-3.06648E-05 6.96342E-07 1.95354E-19 6.87536E-20
 -1      3229 1.07650E-04-3.81529E-05-2.97127E-05 6.14071E-06-4.33889E-19 4.84548E-19
 -1      3230 1.09677E-04-4.00027E-05-2.98980E-05 4.58107E-06-1.45628E-19 3.00592E-19
 -1      3231 1.10570E-04-4.20740E-05-2.94620E-05 6.00837E-06-2.16036E-19-4.09855E-19
 -1      3232 1.03483E-04-3.44361E-05-2.95413E-05 7.82578E-06-2.70008E-20-3.28286E-19
 -1      3233 1.05193E-04-3.61417E-05-2.96117E-05 7.02971E-06-3.62934E-20 1.94568E-19
 -1      3234 1.05050E-04-3.74744E-05-2.90398E-05 8.55056E-06-1.39108E-19 2.49053E-19
 -1      3235 1.00493E-04-3.15474E-05-2.95176E-05 8.25878E-06 7.61261E-20-6.22340E-20
 -1      3236 1.01790E-04-3.28571E-05-2.95463E-05 8.01271E-06-7.06346E-20 1.14359E-19
 -1      3237 1.00950E-04-3.34584E-05-2.89818E-05 9.30997E-06-1.40957E-19-5.49571E-20
 -1      3238 9.85122E-05-2.95805E-05-2.95261E-05 7.93935E-06-2.38920E-20 1.10036E-19
 -1      3239 9.94340E-05-3.04702E-05-2.95518E-05 8.04583E-06 3.24289E-19 4.10382E-19
 -1      3240 9.82557E-05-3.05305E-05-2.90600E-05 9.07415E-06 3.09721E-20-5.77091E-20
 -1      3241 9.72619E-05-2.83768E-05-2.95158E-05 7.21600E-06 3.99997E-19-1.61376E-19
 -1      3242 9.78996E-05-2.89254E-05-2.95533E-05 7.52675E-06 2.51701E-19-3.10787E-19
 -1      3243 9.66304E-05-2.86460E-05-2.91561E-05 8.32615E-06 1.46512E-19 3.00015E-19
 -1      3244 9.64962E-05-2.77252E-05-2.94725E-05 6.30759E-06-1.21330E-19 4.19413E-19
 -1      3245 9.69362E-05-2.80289E-05-2.95236E-05 6.71944E-06 3.14729E-20 1.10512E-19
 -1      3246 9.57216E-05-2.75652E-05-2.92204E-05 7.34926E-06-2.03337E-19 4.67686E-19
 -1      3247 9.60341E-05-2.74393E-05-2.94001E-05 5.35010E-06 6.26326E-19-7.65380E-21
 -1      3248 9.63422E-05-2.75810E-05-2.94607E-05 5.79459E-06 4.91805E-19 7.52066E-19
 -1      3249 9.52584E-05-2.70422E-05-2.92405E-05 6.30299E-06 1.36076E-19 9.32755E-19
 -1      3250 9.57557E-05-2.73777E-05-2.93085E-05 4.42566E-06 6.46204E-19 8.43164E-20
 -1      3251 9.59762E-05-2.74195E-05-2.93734E-05 4.85972E-06 7.60724E-19 2.89554E-19
 -1      3252 9.50546E-05-2.68765E-05-2.92213E-05 5.27907E-06 7.06527E-19 1.14686E-18
 -1      3253 9.55858E-05-2.74428E-05-2.92082E-05 3.58093E-06-2.40902E-19-1.64918E-19
 -1      3254 9.57475E-05-2.74272E-05-2.92725E-05 3.97951E-06 6.10797E-19-1.82127E-19
 -1      3255 9.49919E-05-2.69218E-05-2.91736E-05 4.32971E-06 4.56742E-19 1.26011E-18
 -1      3256 9.54793E-05-2.75706E-05-2.91077E-05 2.83888E-06-1.35915E-19-3.37270E-19
 -1      3257 9.56002E-05-2.75256E-05-2.91679E-05 3.18942E-06-1.06996E-18-3.37004E-19
 -1      3258 9.49992E-05-2.70791E-05-2.91088E-05 3.48265E-06-3.30480E-19-3.05574E-19
 -1      3259 9.54100E-05-2.77218E-05-2.90128E-05 2.20681E-06-8.14836E-20 4.30506E-20
 -1      3260 9.55017E-05-2.76646E-05-2.90669E-05 2.50509E-06 1.94108E-19 2.34811E-19
 -1      3261 9.50363E-05-2.72851E-05-2.90363E-05 2.74942E-06 3.60972E-20-6.19023E-20
 -1      3262 9.53631E-05-2.78732E-05-2.89272E-05 1.68205E-06-3.63353E-19 1.73036E-18
 -1      3263 9.54329E-05-2.78141E-05-2.89742E-05 1.92910E-06-3.69020E-19 3.98706E-19
 -1      3264 9.50816E-05-2.75011E-05-2.89631E-05 2.13068E-06-4.98782E-19 1.40596E-18
 -1      3265 9.53300E-05-2.80126E-05-2.88528E-05 1.25600E-06 9.91080E-19 2.02405E-18
 -1      3266 9.53831E-05-2.79571E-05-2.88924E-05 1.45594E-06 3.10634E-19 1.95609E-18
 -1      3267 9.51245E-05-2.77055E-05-2.88940E-05 1.62012E-06 5.47273E-20 2.16441E-18
 -1      3268 9.53059E-05-2.81343E-05-2.87898E-05 9.17031E-07 1.97986E-18 2.88035E-18
 -1      3269 9.53460E-05-2.80852E-05-2.88224E-05 1.07550E-06 2.13608E-18 2.73609E-18
 -1      3270 9.51607E-05-2.78875E-05-2.88316E-05 1.20731E-06 1.05762E-18 1.56208E-18
 -1      3271 9.52879E-05-2.82366E-05-2.87378E-05 6.52442E-07 6.46700E-19 2.11716E-18
 -1      3272 9.53179E-05-2.81949E-05-2.87640E-05 7.75625E-07 1.39554E-18 3.11051E-18
 -1      3273 9.51891E-05-2.80427E-05-2.87773E-05 8.79830E-07 1.83674E-18 2.04590E-18
 -1      3274 9.52743E-05-2.83202E-05-2.86958E-05 4.49714E-07 2.54347E-19 8.62302E-19
 -1      3275 9.52964E-05-2.82858E-05-2.87165E-05 5.43664E-07 4.65164E-19 2.04380E-18
 -1      3276 9.52102E-05-2.81710E-05-2.87314E-05 6.24739E-07 8.89875E-19 2.01104E-18
 -1      3277 9.52641E-05-2.83868E-05-2.86625E-05 2.97274E-07-4.49628E-19 1.39761E-18
 -1      3278 9.52800E-05-2.83591E-05-2.86786E-05 3.67561E-07-5.30670E-19 9.22315E-19
 -1      3279 9.52250E-05-2.82744E-05-2.86934E-05 4.29599E-07-3.99845E-20 2.03594E-18
 -1      3280 9.52564E-05-2.84388E-05-2.86367E-05 1.84901E-07-1.03208E-18 1.19834E-18
 -1      3281 9.52676E-05-2.84170E-05-2.86489E-05 2.36415E-07-1.89927E-19 1.74269E-18
 -1      3282 9.52347E-05-2.83558E-05-2.86627E-05 2.83060E-07-5.78440E-19 1.92921E-18
 -1      3283 9.52507E-05-2.84787E-05-2.86170E-05 1.03881E-07 7.89717E-19-4.91612E-19
 -1      3284 9.52583E-05-2.84617E-05-2.86261E-05 1.40765E-07-2.16853E-19 5.69031E-19
 -1      3285 9.52407E-05-2.84186E-05-2.86383E-05 1.75177E-07-2.60113E-19 1.40271E-18
 -1      3286 9.52466E-05-2.85089E-05-2.86022E-05 4.70194E-08 6.78918E-19-5.22795E-19
 -1      3287 9.52515E-05-2.84958E-05-2.86088E-05 7.26669E-08 6.81457E-19-7.13000E-19
 -1      3288 9.52439E-05-2.84662E-05-2.86192E-05 9.75163E-08 4.42882E-19 4.30894E-19
 -1      3289 9.52437E-05-2.85316E-05-2.85911E-05 8.57404E-09 1.28829E-19-6.63683E-19
 -1      3290 9.52467E-05-2.85216E-05-2.85959E-05 2.56679E-08 6.12227E-19-6.34010E-19
 -1      3291 9.52452E-05-2.85019E-05-2.86045E-05 4.31392E-08 2.91035E-19 1.41205E-18
 -1      3292 9.52420E-05-2.85486E-05-2.85829E-05-1.57690E-08-1.11792E-18 1.12013E-19
 -1      3293 9.52434E-05-2.85411E-05-2.85863E-05-5.36415E-09-7.99056E-19-4.84235E-19
 -1      3294 9.52453E-05-2.85284E-05-2.85931E-05 6.53432E-09-5.32977E-19 8.35460E-19
 -1      3295 9.52434E-05-2.85717E-05-2.85735E-05 3.36821E-08-8.11518E-19 3.07509E-18
 -1      3296 8.76901E-05-1.41071E-05-3.15469E-05 2.29613E-08 4.85000E-20-4.03320E-19
 -1      3297 8.72318E-05-1.36912E-05-3.15358E-05-1.66347E-07-7.07454E-20-3.66723E-19
 -1      3298 9.52506E-05-2.85589E-05-2.85822E-05 1.48849E-08-1.58324E-18-1.86476E-18
 -1      3299 9.52506E-05-2.85577E-05-2.85828E-05 1.11380E-08-1.39103E-18-7.50309E-19
 -1      3300 9.52495E-05-2.85537E-05-2.85840E-05 1.57910E-09-9.87525E-19-3.39501E-18
 -1      3301 9.52495E-05-2.85536E-05-2.85840E-05-1.90246E-09-2.18930E-19-2.57306E-18
 -1      3302 9.52500E-05-2.85633E-05-2.85800E-05 2.23162E-08 6.42653E-20 9.21217E-19
 -1      3303 9.52509E-05-2.85622E-05-2.85810E-05 1.85835E-08-1.96011E-19-9.04641E-19
 -1      3304 9.52499E-05-2.85496E-05-2.85857E-05 1.38790E-08-8.22223E-19 8.53602E-20
 -1      3305 9.52500E-05-2.85553E-05-2.85835E-05 7.94182E-09-1.03421E-18-2.58557E-18
 -1      3306 9.52498E-05-2.85546E-05-2.85838E-05 4.42301E-09-5.73146E-19-3.25685E-18
 -1      3307 9.52478E-05-2.85405E-05-2.85887E-05 2.23844E-09-2.75255E-19-3.65631E-18
 -1      3308 9.52489E-05-2.85439E-05-2.85877E-05 7.54474E-09-1.11329E-18-1.78363E-18
 -1      3309 6.13645E-05-2.55859E-05-1.50567E-05-2.85726E-05 8.57409E-19-1.00257E-18
 -1      3310 7.62545E-05-3.57128E-05-1.73157E-05-3.38948E-05 4.33681E-19-2.02917E-19
 -1      3311 1.12152E-04-4.20111E-05-3.01093E-05-3.70965E-06 1.92637E-19 5.06595E-19
 -1      3312 1.10099E-04-4.03318E-05-2.98192E-05-5.74382E-06 1.96327E-19 4.95005E-19
 -1      3313 1.07814E-04-4.00489E-05-2.91413E-05-8.72776E-06-6.91192E-20 4.31151E-19
 -1      3314 1.13945E-04-4.44739E-05-2.98681E-05-4.86063E-06 5.97787E-20 8.28488E-19
 -1      3315 9.52457E-05-2.85725E-05-2.85742E-05-3.19131E-08 1.06328E-18 7.47965E-19
 -1      3316 4.66376E-05-1.31688E-05-1.40655E-05-7.70751E-06 4.43964E-20-7.60212E-19
 -1      3317 5.21621E-05-1.77281E-05-1.43543E-05-2.03044E-05 6.54386E-19-4.47763E-19
 -1      3318 1.17336E-04-5.57360E-05-2.60475E-05-2.17387E-05-8.93964E-19-2.36891E-19
 -1      3319 1.24923E-04-5.73816E-05-2.92112E-05-1.39254E-05-8.09208E-19-8.92865E-19
 -1      3320 1.25582E-04-2.37489E-05-4.42387E-05-1.35863E-05-3.62742E-19-4.03399E-20
 -1      3321 9.27446E-05-1.82227E-05-3.19379E-05-2.67050E-06-3.64238E-19 7.94656E-20
 -1      3322 9.48798E-05-2.34683E-05-3.05989E-05 3.28935E-06-3.66712E-19 1.70996E-19
 -1      3323 9.49911E-05-2.40837E-05-3.03908E-05 4.64039E-06-2.88126E-19 6.00854E-20
 -1      3324 9.37759E-05-2.32206E-05-3.02370E-05 5.09561E-06-2.55333E-19-2.65970E-20
 -1      3325 5.11329E-05-1.78134E-05-1.38700E-05-1.98126E-05-5.37707E-19-9.07490E-19
 -1      3326 6.23603E-05-2.55379E-05-1.55246E-05-2.88981E-05-6.46048E-19-3.70153E-19
 -1      3327 7.71651E-05-3.55066E-05-1.75648E-05-3.38573E-05-7.37819E-19-1.21232E-20
 -1      3328 9.08104E-05-4.45415E-05-1.97309E-05-3.50894E-05-5.02343E-19 3.46331E-19
 -1      3329 5.49460E-05-2.05908E-05-1.45076E-05 2.35072E-05 2.99082E-19-1.67120E-18
 -1      3330 4.71707E-05-1.52850E-05-1.32188E-05 1.45403E-05 2.19659E-19-1.72742E-18
 -1      3331 1.09285E-04-5.31484E-05-2.41410E-05 2.76577E-05-3.66342E-19 7.85094E-20
 -1      3332 9.34271E-05-4.51484E-05-2.03952E-05 3.26993E-05-4.47922E-19 9.99711E-19
 -1      3333 9.15276E-05-4.40853E-05-1.98847E-05-3.27427E-05 4.18381E-19 1.08923E-18
 -1      3334 1.05816E-04-5.19833E-05-2.32269E-05-2.90673E-05 9.85205E-20 1.12602E-18
 -1      3335 1.10762E-04-5.16904E-05-2.51830E-05-2.28459E-05-3.61207E-19 6.98137E-19
 -1      3336 1.23659E-04-5.71764E-05-2.81894E-05-1.71324E-05 2.71951E-19 9.86688E-19
 -1      3337 1.29313E-04-5.57887E-05-3.18117E-05-6.74216E-06 6.25395E-19 1.06874E-18
 -1      3338 1.02438E-04-5.02771E-05-2.20155E-05-3.16506E-05-2.11388E-19 2.01316E-19
 -1      3339 1.13830E-04-5.55216E-05-2.52682E-05-2.60370E-05 1.35049E-19 4.61745E-19
 -1      3340 9.89884E-05-4.63593E-05-2.22456E-05-2.98108E-05-4.04882E-19 4.38207E-20
 -1      3341 1.30593E-04-5.63983E-05-3.16110E-05-5.24541E-06-4.18924E-19-2.11229E-20
 -1      3342 4.33163E-05-1.27857E-05-1.27362E-05 4.88645E-06 3.56071E-19-9.94946E-19
 -1      3343 4.47626E-05-1.32582E-05-1.31693E-05-7.68994E-06 3.48607E-20-7.11296E-19
 -1      3344 9.59832E-05-2.34639E-05-3.10800E-05 1.61903E-07 2.33344E-19-3.74637E-19
 -1      3345 9.47035E-05-2.15557E-05-3.13444E-05 7.26579E-07 2.55191E-19-4.01813E-19
 -1      3346 9.45097E-05-2.20024E-05-3.10702E-05-6.98712E-07 1.88877E-19-3.81885E-19
 -1      3347 9.61698E-05-2.43562E-05-3.07837E-05-1.49546E-06 1.77390E-19-3.48152E-19
 -1      3348 1.33069E-04-4.92744E-05-3.59395E-05-6.89085E-06 1.64563E-19 1.22343E-18
 -1      3349 1.26426E-04-4.30067E-05-3.60134E-05 9.40845E-06 6.73921E-19 9.61647E-19
 -1      3350 8.69617E-05-1.34252E-05-3.15291E-05-1.01108E-07-1.50160E-19-3.43865E-19
 -1      3351 8.69122E-05-1.33829E-05-3.15289E-05-2.51828E-07-1.79917E-19-3.25786E-19
 -1      3352 8.75206E-05-1.46506E-05-3.12045E-05-3.47758E-07-1.35379E-19-2.88722E-19
 -1      3353 5.03908E-05-1.33071E-05-1.56582E-05 4.97684E-06 2.08608E-19 4.71480E-19
 -1      3354 4.74671E-05-1.22802E-05-1.45287E-05-1.65625E-06-7.06081E-20-4.44004E-19
 -1      3355 5.37284E-05-1.41649E-05-1.68466E-05-7.86881E-06-5.52019E-20-7.33001E-19
 -1      3356 1.10612E-04-4.85532E-05-2.66703E-05 1.91938E-05 3.94532E-19 9.11884E-20
 -1      3357 5.62556E-05-2.05900E-05-1.48769E-05 2.27557E-05 2.24437E-19 2.86551E-18
 -1      3358 1.19668E-04-1.41717E-05-4.57028E-05-3.77417E-06-1.17494E-18-4.54221E-19
 -1      3359 1.23481E-04-1.66528E-05-4.62161E-05-9.35893E-06-1.19718E-18-4.12929E-19
 -1      3360 9.52505E-05-2.85618E-05-2.85810E-05-1.87457E-08 4.85816E-19-1.42102E-18
 -1      3361 9.52495E-05-2.85629E-05-2.85800E-05-2.23119E-08 3.13050E-19 1.23332E-18
 -1      3362 6.86089E-05-2.54545E-05-1.83304E-05-2.54577E-05-6.92608E-19-9.13207E-20
 -1      3363 7.24587E-05-3.03897E-05-1.76447E-05-3.03390E-05-6.81412E-19-5.71747E-20
 -1      3364 8.18446E-05-3.49103E-05-2.01303E-05-2.97757E-05-7.61906E-19 2.07311E-19
 -1      3365 1.27035E-04-5.24316E-05-3.21790E-05 1.06691E-06 2.43687E-20 1.32476E-18
 -1      3366 1.29940E-04-5.06397E-05-3.41155E-05-3.55946E-06 1.31638E-19 1.37082E-18
 -1      3367 8.67507E-05-3.88260E-05-2.01675E-05-3.00156E-05 4.78732E-19 4.35719E-19
 -1      3368 6.29376E-05-2.22758E-05-1.70175E-05-2.22661E-05 7.12394E-19-9.99393E-19
 -1      3369 9.44962E-05-2.18983E-05-3.11175E-05 6.15531E-07-4.80930E-19 1.58899E-19
 -1      3370 9.47228E-05-2.27412E-05-3.08545E-05 2.07840E-06-4.24158E-19 1.36361E-19
 -1      3371 9.36496E-05-2.18885E-05-3.07514E-05 2.64519E-06-4.59871E-19 2.27173E-19
 -1      3372 5.33278E-05-1.40159E-05-1.67371E-05-6.41016E-06-1.47311E-19-3.98953E-19
 -1      3373 5.14550E-05-1.54435E-05-1.50363E-05-1.32463E-05-2.57048E-19-6.19605E-19
 -1      3374 5.92813E-05-1.82756E-05-1.73971E-05-1.68617E-05-5.25094E-19-3.40931E-19
 -1      3375 9.79098E-05-2.84726E-05-2.97397E-05-8.25539E-06 1.63134E-19-1.78952E-19
 -1      3376 9.64820E-05-2.74141E-05-2.96186E-05-8.25645E-06 1.91021E-19-3.37301E-19
 -1      3377 9.86424E-05-2.93308E-05-2.97001E-05-8.65988E-06-4.84866E-20-1.12789E-19
 -1      3378 9.52440E-05-2.85575E-05-2.85798E-05 2.49643E-08 4.99643E-19 9.89168E-19
 -1      3379 9.52438E-05-2.85644E-05-2.85769E-05 3.02301E-08-9.17184E-20 2.69254E-18
 -1      3380 9.32708E-05-1.96015E-05-3.15761E-05-1.07406E-06-4.05725E-19 1.19718E-19
 -1      3381 9.52487E-05-2.85663E-05-2.85782E-05-2.65950E-08 4.82128E-19 1.45071E-18
 -1      3382 9.52442E-05-2.85663E-05-2.85763E-05-3.04987E-08 3.60871E-20 1.61904E-18
 -1      3383 9.52432E-05-2.85616E-05-2.85778E-05-2.85603E-08-6.90296E-19 1.79478E-18
 -1      3384 9.52487E-05-2.85560E-05-2.85825E-05-2.12316E-08 8.60151E-20 2.18152E-18
 -1      3385 9.96858E-05-3.18681E-05-2.91131E-05-1.03194E-05-2.53382E-19-3.51070E-19
 -1      3386 1.00502E-04-3.14902E-05-2.95750E-05-9.16026E-06-5.96577E-19 2.55353E-20
 -1      3387 9.94164E-05-3.03022E-05-2.95924E-05-9.12557E-06-3.60665E-19-1.16649E-19
 -1      3388 1.24370E-04-5.10548E-05-3.14363E-05-2.25593E-06 3.51333E-19 1.51500E-18
 -1      3389 1.29101E-04-5.10392E-05-3.34142E-05 2.42227E-06 5.86683E-19 1.50473E-18
 -1      3390 1.24865E-04-5.49452E-05-3.00116E-05-8.62134E-06-9.80560E-19 1.42752E-19
 -1      3391 1.13083E-04-2.18751E-05-3.94463E-05-1.07727E-05 1.35896E-19 5.51723E-19
 -1      3392 1.11154E-04-1.80736E-05-4.00238E-05-6.21665E-06 5.72806E-19 4.82762E-19
 -1      3393 9.52464E-05-2.85672E-05-2.85769E-05 2.95506E-08 5.01215E-20 2.25892E-18
 -1      3394 9.52430E-05-2.85572E-05-2.85796E-05-2.50706E-08-2.19656E-18 2.41924E-18
 -1      3395 9.52422E-05-2.85526E-05-2.85811E-05-2.08932E-08-1.64555E-18 9.77249E-19
 -1      3396 9.52460E-05-2.85450E-05-2.85863E-05-1.28829E-08-1.61530E-18 2.87700E-18
 -1      3397 9.52468E-05-2.85549E-05-2.85824E-05-2.18578E-08-1.20395E-18 4.40037E-18
 -1      3398 9.52503E-05-2.85574E-05-2.85828E-05-1.14255E-08 5.64061E-19-3.34126E-18
 -1      3399 9.52503E-05-2.85586E-05-2.85821E-05-1.50916E-08 1.15416E-18-2.79734E-18
 -1      3400 9.52495E-05-2.85493E-05-2.85857E-05-1.38708E-08-4.44780E-20-2.04077E-18
 -1      3401 8.83557E-05-1.47599E-05-3.15609E-05 2.65222E-08 1.15400E-19-4.45415E-19
 -1      3402 8.84891E-05-1.55687E-05-3.12272E-05-5.17759E-07 1.02014E-19-3.32886E-19
 -1      3403 8.91738E-05-1.55292E-05-3.15731E-05 2.77025E-07 1.91102E-19-3.85131E-19
 -1      3404 9.52497E-05-2.85544E-05-2.85838E-05-4.73936E-09 1.21997E-19-2.81425E-18
 -1      3405 9.52498E-05-2.85551E-05-2.85835E-05-8.29190E-09 3.07374E-19-3.96637E-18
 -1      3406 9.52485E-05-2.85436E-05-2.85877E-05-7.76640E-09 5.48424E-19-4.11124E-18
 -1      3407 9.52477E-05-2.85404E-05-2.85887E-05-2.61643E-09-2.50379E-19-2.69033E-18
 -1      3408 1.32051E-04-4.98047E-05-3.55418E-05-4.32803E-06-6.66086E-19-3.81588E-19
 -1      3409 1.31423E-04-5.47576E-05-3.28000E-05 3.22710E-06-6.32277E-19-5.48877E-19
 -1      3410 9.52486E-05-2.85659E-05-2.85783E-05 2.65088E-08 3.99783E-19 1.49501E-18
 -1      3411 8.54751E-05-3.96661E-05-1.93934E-05 3.30460E-05-5.77941E-19 2.13569E-18
 -1      3412 7.68663E-05-3.25576E-05-1.87777E-05 3.01034E-05-5.57348E-19 2.17751E-18
 -1      3413 9.52748E-05-4.27113E-05-2.23341E-05 2.76681E-05-3.70100E-19 1.09145E-18
 -1      3414 1.24866E-04-2.79206E-05-4.20262E-05-1.41746E-05-4.32887E-19 1.70412E-19
 -1      3415 1.25821E-04-3.39461E-05-3.95424E-05-1.43917E-05-6.05417E-19-1.42090E-19
 -1      3416 9.52466E-05-2.85531E-05-2.85831E-05 2.05765E-08 7.35123E-19 1.86013E-18
 -1      3417 1.18635E-04-2.46513E-05-4.04820E-05-1.32266E-05-2.86350E-19 1.22629E-18
 -1      3418 9.52488E-05-2.85558E-05-2.85826E-05 2.13592E-08 2.73424E-19 1.39483E-18
 -1      3419 1.21880E-04-1.96262E-05-4.41567E-05-1.23724E-05 9.97381E-20 3.21343E-19
 -1      3420 9.65944E-05-2.57783E-05-3.03525E-05-4.10195E-06 5.17391E-20-2.41375E-19
 -1      3421 9.64096E-05-2.51369E-05-3.05348E-05-2.82127E-06 7.71133E-20-2.87687E-19
 -1      3422 9.56235E-05-2.40428E-05-3.06762E-05-2.44859E-06 1.49760E-19-2.50827E-19
 -1      3423 8.97622E-05-1.60969E-05-3.15882E-05-4.36220E-07-2.97133E-19-9.95371E-20
 -1      3424 9.08653E-05-1.72051E-05-3.15867E-05-6.88810E-07-3.47612E-19-2.25190E-20
 -1      3425 7.45717E-05-3.09052E-05-1.85972E-05 2.91009E-05 6.59865E-19-9.36077E-19
 -1      3426 6.40175E-05-2.50952E-05-1.62042E-05 2.73239E-05 4.98479E-19-1.40846E-18
 -1      3427 6.33408E-05-2.18814E-05-1.74810E-05 2.21679E-05 3.34366E-19-1.50454E-18
 -1      3428 1.17058E-04-1.38005E-05-4.47490E-05-6.11983E-06 2.64274E-19 9.13552E-19
 -1      3429 9.23899E-05-1.94697E-05-3.12318E-05-4.02914E-07 1.27508E-19-5.26763E-19
 -1      3430 9.12672E-05-1.76343E-05-3.15725E-05 6.62247E-07 1.88577E-19-5.14491E-19
 -1      3431 9.01668E-05-1.65273E-05-3.15792E-05 3.70045E-07 1.68271E-19-4.22875E-19
 -1      3432 9.69387E-05-2.67500E-05-3.00795E-05-6.02826E-06 8.01306E-20-1.61360E-19
 -1      3433 9.66482E-05-2.61728E-05-3.01915E-05-5.05226E-06 1.94277E-20-2.27329E-19
 -1      3434 9.58787E-05-2.52902E-05-3.02563E-05-4.80122E-06 1.16697E-20-2.22002E-19
 -1      3435 9.60121E-05-2.62039E-05-2.99273E-05-6.63882E-06 1.68519E-19-1.67942E-19
 -1      3436 1.19110E-04-5.59009E-05-2.68183E-05 1.98697E-05-2.32299E-19-3.73767E-19
 -1      3437 1.12381E-04-5.19843E-05-2.57908E-05 2.14936E-05 3.77988E-20-4.86367E-19
 -1      3438 5.18070E-05-1.47200E-05-1.54319E-05 8.54076E-06 6.08209E-20-1.53091E-18
 -1      3439 1.19471E-04-1.37842E-05-4.57625E-05 3.83693E-06-1.26864E-18-6.44433E-19
 -1      3440 1.18025E-04-5.44549E-05-2.70686E-05-1.89186E-05 1.54689E-19 7.99837E-19
 -1      3441 8.80356E-05-1.44307E-05-3.15620E-05-2.44112E-07-2.17463E-19-2.23597E-19
 -1      3442 8.88007E-05-1.51546E-05-3.15770E-05-4.44399E-07-1.98883E-19-2.41342E-19
 -1      3443 8.97272E-05-1.67481E-05-3.12572E-05 3.93618E-07-2.85177E-19-1.10834E-19
 -1      3444 1.25904E-04-5.65458E-05-3.00065E-05 1.22660E-05-1.41243E-19-1.35840E-18
 -1      3445 1.34285E-04-5.55250E-05-3.39124E-05 2.10891E-06 1.03159E-19 7.22890E-19
 -1      3446 1.30494E-04-5.76412E-05-3.08714E-05 8.55816E-06 4.15126E-19 6.53909E-19
 -1      3447 9.18511E-05-2.38117E-05-2.91665E-05 8.61247E-06-1.77153E-19-3.48078E-20
 -1      3448 9.19075E-05-2.44098E-05-2.89117E-05 9.63336E-06-1.81200E-19-2.55217E-19
 -1      3449 9.15736E-05-2.49786E-05-2.85483E-05 1.07855E-05-2.51121E-19-3.22442E-19
 -1      3450 9.19474E-05-2.59137E-05-2.82693E-05 1.17903E-05-6.94987E-20-3.11796E-19
 -1      3451 8.97331E-05-2.34469E-05-2.84064E-05 9.87331E-06-2.83952E-19-6.39684E-20
 -1      3452 9.18643E-05-2.68930E-05-2.78465E-05 1.31202E-05 1.23912E-19-3.90035E-19
 -1      3453 9.28574E-05-2.84621E-05-2.75466E-05 1.41301E-05 1.06629E-19-5.86258E-19
 -1      3454 8.92350E-05-2.49370E-05-2.75678E-05 1.23938E-05-9.51843E-20-2.97114E-19
 -1      3455 9.33729E-05-3.01661E-05-2.70663E-05 1.57131E-05 4.45669E-19-7.36199E-19
 -1      3456 9.54162E-05-3.27301E-05-2.67933E-05 1.66648E-05 5.40478E-19-4.84799E-19
 -1      3457 8.95087E-05-2.75572E-05-2.65875E-05 1.54619E-05 2.06466E-19-6.77910E-19
 -1      3458 9.71050E-05-3.55133E-05-2.63095E-05 1.84268E-05 4.00005E-19-3.78870E-19
 -1      3459 1.00666E-04-3.93998E-05-2.61906E-05 1.90962E-05 1.13013E-19-1.89681E-19
 -1      3460 9.14178E-05-3.20694E-05-2.55044E-05 1.91994E-05 5.09686E-19-4.39686E-19
 -1      3461 6.45185E-05-2.39929E-05-1.71528E-05 2.59760E-05-9.71706E-20 2.81257E-18
 -1      3462 5.57426E-05-1.73734E-05-1.62919E-05 1.75481E-05 4.55558E-19 2.33913E-18
 -1      3463 8.15063E-05-3.34236E-05-2.03683E-05-2.77417E-05 2.97362E-19 6.30722E-19
 -1      3464 9.42459E-05-4.17870E-05-2.25772E-05-2.73367E-05 4.38445E-19 1.76585E-18
 -1      3465 1.19232E-04-5.22288E-05-2.84979E-05-1.22972E-05-6.97823E-19-2.50682E-19
 -1      3466 1.12555E-04-4.79743E-05-2.76888E-05-1.43238E-05 2.70270E-19-6.00897E-20
 -1      3467 1.07764E-04-4.37081E-05-2.72557E-05-1.55822E-05 6.96752E-19 7.72951E-20
 -1      3468 1.12772E-04-5.03919E-05-2.68549E-05-1.78495E-05-4.08958E-19 3.34763E-19
 -1      3469 1.02137E-04-3.90819E-05-2.69977E-05-1.59211E-05 1.22772E-18 2.97663E-19
 -1      3470 9.88336E-05-3.55282E-05-2.70407E-05-1.56978E-05 1.61096E-18 7.82016E-19
 -1      3471 9.68391E-05-3.28644E-05-2.73609E-05-1.44746E-05 1.17744E-18-2.03569E-21
 -1      3472 9.47781E-05-3.04882E-05-2.75276E-05-1.38719E-05 7.47477E-19-1.46264E-19
 -1      3473 9.35272E-05-3.26650E-05-2.61752E-05-1.70064E-05 1.17454E-18 8.56751E-19
 -1      3474 9.39761E-05-2.88598E-05-2.78616E-05-1.25938E-05 8.08694E-19-4.06054E-19
 -1      3475 9.28752E-05-2.74485E-05-2.80404E-05-1.18560E-05 6.21577E-19 1.97173E-19
 -1      3476 9.09029E-05-2.81546E-05-2.69363E-05-1.40436E-05 5.48975E-19-6.95609E-19
 -1      3477 9.27340E-05-2.66019E-05-2.83133E-05-1.07589E-05 5.96230E-19 6.23686E-19
 -1      3478 9.22328E-05-2.58612E-05-2.84537E-05-1.00141E-05 3.95266E-19 8.62826E-19
 -1      3479 9.01003E-05-2.57105E-05-2.76105E-05-1.15162E-05 7.14640E-19-4.44896E-19
 -1      3480 9.24161E-05-2.55172E-05-2.86527E-05-9.09631E-06-5.34444E-19 6.21641E-19
 -1      3481 9.22495E-05-2.52063E-05-2.87441E-05-8.39144E-06-9.71962E-19 3.08588E-19
 -1      3482 9.02122E-05-2.45814E-05-2.81280E-05-9.47516E-06-2.39639E-19-4.55962E-19
 -1      3483 9.25710E-05-2.51664E-05-2.88762E-05-7.61815E-06-1.30232E-18 3.22114E-19
 -1      3484 9.25742E-05-2.51131E-05-2.89234E-05-6.96944E-06-1.24954E-18-3.39957E-19
 -1      3485 9.07512E-05-2.42559E-05-2.84924E-05-7.80774E-06-1.27833E-18-5.70678E-19
 -1      3486 9.29321E-05-2.52431E-05-2.90019E-05-6.31105E-06-1.62166E-18-3.26266E-19
 -1      3487 9.30098E-05-2.53323E-05-2.90153E-05-5.72613E-06-1.19218E-18-1.00692E-18
 -1      3488 9.14469E-05-2.43971E-05-2.87279E-05-6.41676E-06-1.63374E-18-4.19171E-19
 -1      3489 9.33515E-05-2.55449E-05-2.90544E-05-5.16318E-06 9.75608E-20-1.27471E-18
 -1      3490 9.34521E-05-2.57031E-05-2.90447E-05-4.64595E-06 7.88968E-20-2.27739E-19
 -1      3491 9.21542E-05-2.47857E-05-2.88644E-05-5.23804E-06-3.73277E-19-9.15030E-19
 -1      3492 9.37536E-05-2.59446E-05-2.90565E-05-4.16607E-06-4.70646E-19 3.60468E-20
 -1      3493 9.38518E-05-2.61273E-05-2.90329E-05-3.71759E-06-2.54302E-19-2.74419E-19
 -1      3494 9.28012E-05-2.52824E-05-2.89297E-05-4.23319E-06-2.04902E-19-4.64750E-19
 -1      3495 9.41051E-05-2.63662E-05-2.90272E-05-3.31215E-06 5.79094E-21-1.00308E-18
 -1      3496 9.41902E-05-2.65480E-05-2.89963E-05-2.93082E-06 2.25130E-19-1.29049E-18
 -1      3497 9.33584E-05-2.58028E-05-2.89466E-05-3.37910E-06-6.42863E-19-6.69325E-19
 -1      3498 9.43958E-05-2.67676E-05-2.89802E-05-2.59256E-06 1.03397E-18-1.07254E-18
 -1      3499 9.44648E-05-2.69349E-05-2.89470E-05-2.27441E-06 1.27115E-18 1.34317E-19
 -1      3500 9.38192E-05-2.62985E-05-2.89329E-05-2.65981E-06 5.77915E-19-3.92783E-19
 -1      3501 9.46274E-05-2.71274E-05-2.89257E-05-1.99628E-06 1.10262E-18 9.62292E-19
 -1      3502 9.46808E-05-2.72741E-05-2.88931E-05-1.73565E-06 1.37275E-18 1.38472E-18
 -1      3503 9.41893E-05-2.67445E-05-2.89014E-05-2.06181E-06 1.90888E-18 1.45830E-18
 -1      3504 9.48066E-05-2.74373E-05-2.88701E-05-1.51048E-06 4.30186E-19 1.37346E-19
 -1      3505 9.48466E-05-2.75617E-05-2.88400E-05-1.30069E-06-1.09554E-18-1.57581E-19
 -1      3506 9.44795E-05-2.71305E-05-2.88612E-05-1.57195E-06 2.47626E-20-2.69636E-19
 -1      3507 9.49419E-05-2.76964E-05-2.88174E-05-1.12126E-06-1.61122E-18-4.71902E-19
 -1      3508 9.49711E-05-2.77992E-05-2.87908E-05-9.55245E-07-1.68785E-18-4.45452E-19
 -1      3509 9.47023E-05-2.74549E-05-2.88184E-05-1.17688E-06-1.50355E-18-8.11739E-19
 -1      3510 9.50419E-05-2.79080E-05-2.87699E-05-8.14560E-07-1.18500E-18-1.26705E-19
 -1      3511 9.50625E-05-2.79910E-05-2.87471E-05-6.85363E-07-6.21080E-19 2.33103E-19
 -1      3512 9.48701E-05-2.77210E-05-2.87768E-05-8.63337E-07-1.34567E-18-5.40226E-20
 -1      3513 9.51140E-05-2.80773E-05-2.87286E-05-5.76849E-07-3.27289E-19 1.80057E-19
 -1      3514 9.51281E-05-2.81431E-05-2.87095E-05-4.77988E-07-3.48548E-19-6.61544E-20
 -1      3515 9.49938E-05-2.79350E-05-2.87386E-05-6.18496E-07-4.90805E-19 9.88192E-19
 -1      3516 9.51647E-05-2.82102E-05-2.86936E-05-3.95693E-07-6.96733E-19 3.85336E-19
 -1      3517 9.51740E-05-2.82615E-05-2.86780E-05-3.21354E-07-9.31456E-19 6.53307E-19
 -1      3518 9.50831E-05-2.81039E-05-2.87048E-05-4.30452E-07 1.99858E-21 8.62546E-19
 -1      3519 9.51992E-05-2.83128E-05-2.86646E-05-2.60055E-07-3.82675E-19 7.08926E-19
 -1      3520 9.52050E-05-2.83521E-05-2.86521E-05-2.05197E-07 2.88331E-19 4.30109E-19
 -1      3521 9.51458E-05-2.82348E-05-2.86758E-05-2.88498E-07-8.55868E-19 1.87296E-18
 -1      3522 9.52217E-05-2.83907E-05-2.86411E-05-1.60438E-07 5.19248E-19 3.06788E-19
 -1      3523 9.52251E-05-2.84203E-05-2.86312E-05-1.20811E-07 7.50094E-19 1.18806E-18
 -1      3524 9.51886E-05-2.83346E-05-2.86515E-05-1.83315E-07 3.48759E-19 8.22206E-19
 -1      3525 9.52355E-05-2.84489E-05-2.86223E-05-8.88743E-08 1.85554E-18 1.05140E-18
 -1      3526 9.52372E-05-2.84710E-05-2.86145E-05-6.09894E-08 1.08766E-18 1.86362E-18
 -1      3527 9.52164E-05-2.84095E-05-2.86314E-05-1.07003E-07 1.24057E-18 8.31511E-19
 -1      3528 9.52433E-05-2.84919E-05-2.86073E-05-3.88759E-08 1.69220E-19 2.52310E-18
 -1      3529 9.52439E-05-2.85083E-05-2.86013E-05-1.99914E-08 9.49007E-19 2.49652E-18
 -1      3530 9.52335E-05-2.84649E-05-2.86151E-05-5.29859E-08 1.36875E-18 1.34144E-18
 -1      3531 9.52469E-05-2.85236E-05-2.85954E-05-5.27367E-09 8.09410E-19 3.45677E-18
 -1      3532 9.52469E-05-2.85355E-05-2.85907E-05 6.60318E-09 9.31077E-19 2.95912E-18
 -1      3533 9.52430E-05-2.85055E-05-2.86018E-05-1.61341E-08 8.81179E-19 2.22908E-18
 -1      3534 9.22927E-05-1.88861E-05-3.14605E-05-2.81915E-07-3.98301E-19 8.81700E-20
 -1      3535 1.21387E-04-5.08544E-05-3.01337E-05-5.92727E-06 2.44660E-19 1.80360E-18
 -1      3536 1.26729E-04-4.07002E-05-3.71924E-05-1.17430E-05-6.99173E-19-3.30766E-19
 -1      3537 1.07646E-04-4.11028E-05-2.84176E-05 1.02674E-05 1.90046E-19-9.84891E-19
 -1      3538 1.11109E-04-4.38552E-05-2.88036E-05 8.54665E-06 2.18521E-19-4.81803E-19
 -1      3539 1.01726E-04-3.56204E-05-2.82570E-05 1.10832E-05-5.42222E-19-3.35557E-19
 -1      3540 1.04242E-04-3.81140E-05-2.83252E-05 1.06052E-05-2.51981E-19-7.34967E-19
 -1      3541 1.03370E-04-3.92545E-05-2.75657E-05 1.32047E-05 1.33639E-20-1.51224E-18
 -1      3542 9.79264E-05-3.15886E-05-2.83958E-05 1.06395E-05-8.97491E-20-3.45379E-19
 -1      3543 9.96494E-05-3.34540E-05-2.83527E-05 1.07192E-05-1.42489E-19-8.68680E-20
 -1      3544 9.81086E-05-3.39117E-05-2.76151E-05 1.27015E-05-1.80331E-19-1.16575E-18
 -1      3545 9.57285E-05-2.89267E-05-2.86145E-05 9.61838E-06-8.43686E-20-5.25216E-19
 -1      3546 9.68050E-05-3.01486E-05-2.85449E-05 9.97740E-06-3.11895E-19-4.77794E-19
 -1      3547 9.50482E-05-3.00072E-05-2.79225E-05 1.13086E-05-2.15844E-19-9.30385E-19
 -1      3548 9.45858E-05-2.73506E-05-2.88117E-05 8.41550E-06-4.20377E-20 3.67023E-19
 -1      3549 9.52063E-05-2.80726E-05-2.87536E-05 8.90250E-06-1.49962E-19 9.14388E-20
 -1      3550 9.35034E-05-2.76276E-05-2.82563E-05 9.76196E-06-3.90652E-19-6.62481E-19
 -1      3551 9.40940E-05-2.65462E-05-2.89515E-05 7.19637E-06-8.70495E-19 7.28019E-19
 -1      3552 9.44231E-05-2.69164E-05-2.89177E-05 7.72670E-06-5.17598E-20 6.72435E-19
 -1      3553 9.28772E-05-2.63181E-05-2.85357E-05 8.27672E-06-2.51307E-19-8.74083E-20
 -1      3554 9.39749E-05-2.62491E-05-2.90307E-05 6.03943E-06 3.08982E-19 6.41149E-19
 -1      3555 9.41300E-05-2.63896E-05-2.90211E-05 6.56527E-06-3.61613E-19 4.66170E-19
 -1      3556 9.27838E-05-2.57368E-05-2.87374E-05 6.92670E-06-1.58080E-19 5.56311E-19
 -1      3557 9.40505E-05-2.62616E-05-2.90588E-05 4.98191E-06 5.85510E-19 8.65552E-19
 -1      3558 9.41083E-05-2.62625E-05-2.90686E-05 5.47575E-06 5.87955E-19 8.63689E-19
 -1      3559 9.29703E-05-2.56170E-05-2.88650E-05 5.72671E-06 2.56704E-19 5.20574E-19
 -1      3560 9.42134E-05-2.64467E-05-2.90494E-05 4.04145E-06-5.97710E-20 1.28288E-18
 -1      3561 9.42209E-05-2.63699E-05-2.90723E-05 4.48779E-06 2.87364E-19 1.37172E-18
 -1      3562 9.32821E-05-2.57690E-05-2.89318E-05 4.67443E-06-7.63788E-20 9.65869E-19
 -1      3563 9.44023E-05-2.67138E-05-2.90155E-05 3.22446E-06-2.59540E-19 1.10752E-18
 -1      3564 9.43868E-05-2.65999E-05-2.90458E-05 3.61577E-06 1.61210E-19 1.43964E-18
 -1      3565 9.36288E-05-2.60641E-05-2.89534E-05 3.76359E-06-1.36322E-19 1.31716E-18
 -1      3566 9.45845E-05-2.70061E-05-2.89676E-05 2.52971E-06-6.35080E-19 1.69118E-18
 -1      3567 9.45610E-05-2.68806E-05-2.90010E-05 2.86401E-06-8.73887E-19 8.99675E-19
 -1      3568 9.39613E-05-2.64183E-05-2.89443E-05 2.98632E-06-3.83885E-19 2.03137E-18
 -1      3569 9.47449E-05-2.72902E-05-2.89137E-05 1.95055E-06-8.73740E-19 2.33793E-18
 -1      3570 9.47209E-05-2.71678E-05-2.89471E-05 2.22972E-06-5.73256E-19 2.34403E-18
 -1      3571 9.42558E-05-2.67799E-05-2.89159E-05 2.33321E-06-1.30150E-18 2.10678E-18
 -1      3572 9.48781E-05-2.75481E-05-2.88595E-05 1.47678E-06 2.83577E-19 2.07976E-18
 -1      3573 9.48570E-05-2.74368E-05-2.88908E-05 1.70512E-06-1.55499E-19 1.88902E-18
 -1      3574 9.45035E-05-2.71189E-05-2.88772E-05 1.79321E-06-3.00288E-19 1.93691E-18
 -1      3575 9.49841E-05-2.77716E-05-2.88084E-05 1.09615E-06 8.20673E-19 2.96469E-18
 -1      3576 9.49672E-05-2.76751E-05-2.88365E-05 1.27936E-06 6.63129E-19 2.13638E-18
 -1      3577 9.47039E-05-2.74201E-05-2.88345E-05 1.35399E-06 4.32056E-19 1.68499E-18
 -1      3578 9.50656E-05-2.79590E-05-2.87624E-05 7.95679E-07 1.49945E-18 3.07426E-18
 -1      3579 9.50528E-05-2.78780E-05-2.87867E-05 9.39996E-07 1.50161E-18 3.53797E-18
 -1      3580 9.48612E-05-2.76775E-05-2.87920E-05 1.00258E-06 6.57113E-19 3.90413E-18
 -1      3581 9.51264E-05-2.81118E-05-2.87224E-05 5.62550E-07 6.56603E-19 3.34071E-18
 -1      3582 9.51172E-05-2.80457E-05-2.87429E-05 6.74214E-07 1.28426E-18 3.22093E-18
 -1      3583 9.49812E-05-2.78910E-05-2.87522E-05 7.26011E-07 1.15324E-18 4.81317E-18
 -1      3584 9.51703E-05-2.82335E-05-2.86886E-05 3.84811E-07-1.50855E-19 2.76221E-18
 -1      3585 9.51641E-05-2.81809E-05-2.87055E-05 4.69668E-07 1.06059E-20 2.94935E-18
 -1      3586 9.50703E-05-2.80638E-05-2.87166E-05 5.11945E-07 5.15871E-19 3.30738E-18
 -1      3587 9.52009E-05-2.83285E-05-2.86606E-05 2.51754E-07-3.68584E-19 2.17515E-18
 -1      3588 9.51970E-05-2.82873E-05-2.86743E-05 3.15035E-07 1.47287E-19 2.74507E-18
 -1      3589 9.51346E-05-2.82004E-05-2.86857E-05 3.49060E-07-1.73152E-19 3.05466E-18
 -1      3590 9.52213E-05-2.84011E-05-2.86380E-05 1.54105E-07 4.57679E-19 1.10540E-18
 -1      3591 9.52191E-05-2.83696E-05-2.86488E-05 2.00332E-07-2.37161E-19 1.87144E-18
 -1      3592 9.51795E-05-2.83064E-05-2.86597E-05 2.27340E-07 2.70711E-19 2.74069E-18
 -1      3593 9.52341E-05-2.84558E-05-2.86198E-05 8.40630E-08-7.39746E-19 2.02670E-18
 -1      3594 9.52331E-05-2.84320E-05-2.86283E-05 1.17024E-07-3.43505E-20 1.31917E-18
 -1      3595 9.52096E-05-2.83871E-05-2.86381E-05 1.38178E-07 4.00289E-19 2.82797E-18
 -1      3596 9.52415E-05-2.84963E-05-2.86055E-05 3.52720E-08 4.08671E-19 2.17358E-18
 -1      3597 9.52413E-05-2.84785E-05-2.86120E-05 5.80314E-08 1.24190E-19 2.08223E-18
 -1      3598 9.52287E-05-2.84474E-05-2.86205E-05 7.43649E-08-3.05090E-19 2.52413E-18
 -1      3599 9.52453E-05-2.85260E-05-2.85941E-05 2.88127E-09-5.34949E-19 2.76113E-18
 -1      3600 9.52455E-05-2.85131E-05-2.85992E-05 1.75936E-08 2.44405E-19 3.09076E-18
 -1      3601 9.52398E-05-2.84920E-05-2.86062E-05 3.00783E-08-5.81713E-20 4.06485E-18
 -1      3602 1.29441E-04-4.54509E-05-3.61598E-05-9.10122E-06-8.63047E-19-2.96250E-19
 -1      3603 1.26210E-04-4.73642E-05-3.38509E-05-5.78741E-06-5.62827E-19-1.33792E-19
 -1      3604 6.22669E-05-1.89555E-05-1.84308E-05-1.72299E-05 5.88159E-20-6.97955E-19
 -1      3605 7.07285E-05-2.59549E-05-1.90734E-05-2.49637E-05 6.00335E-20-6.31040E-20
 -1      3606 7.96862E-05-2.92433E-05-2.13777E-05-2.31513E-05-1.43824E-19 8.77222E-19
 -1      3607 1.25733E-04-5.39657E-05-3.06658E-05 6.11985E-06 7.94093E-23-1.24805E-19
 -1      3608 9.52482E-05-2.85392E-05-2.85896E-05 1.01046E-08-4.63222E-19 9.21413E-19
 -1      3609 9.52476E-05-2.85359E-05-2.85909E-05 7.04791E-09-1.22609E-18 6.34077E-19
 -1      3610 1.00524E-04-4.79655E-05-2.21418E-05 3.05767E-05 7.20349E-19-4.44811E-19
 -1      3611 9.19935E-05-4.19038E-05-2.13104E-05 3.02548E-05 6.47504E-19-5.75982E-19
 -1      3612 1.08966E-04-5.06285E-05-2.49411E-05 2.39702E-05 8.43989E-19-2.91446E-19
 -1      3613 8.70783E-05-1.35325E-05-3.15351E-05-1.59422E-07-1.42660E-19-2.76957E-19
 -1      3614 8.74459E-05-1.38718E-05-3.15465E-05-3.17302E-07-1.88112E-19-2.12508E-19
 -1      3615 8.81529E-05-1.52369E-05-3.12262E-05 2.01154E-07-1.76307E-19-2.60097E-19
 -1      3616 1.24582E-04-4.96748E-05-3.22678E-05-1.78292E-06 1.51404E-19 2.20794E-19
 -1      3617 9.46664E-05-4.18977E-05-2.22657E-05-2.85043E-05-6.80220E-19 4.23252E-20
 -1      3618 1.03889E-04-4.77543E-05-2.42337E-05-2.58175E-05-4.81856E-19 7.77682E-20
 -1      3619 5.74143E-05-1.60108E-05-1.76328E-05 1.23518E-05 3.21806E-20-1.67405E-18
 -1      3620 5.43802E-05-1.35635E-05-1.71956E-05 3.49538E-06-1.08369E-20-1.13227E-18
 -1      3621 1.02084E-04-3.58539E-05-2.83631E-05-1.18851E-05-2.62203E-19 4.00525E-19
 -1      3622 9.99901E-05-3.35910E-05-2.84049E-05-1.20149E-05-1.50516E-19-6.62696E-21
 -1      3623 1.04032E-04-4.60802E-05-2.45207E-05-2.34023E-05 2.76609E-19 1.07793E-18
 -1      3624 1.21010E-04-5.06884E-05-3.01276E-05 5.24433E-06 6.40608E-19-1.64892E-19
 -1      3625 9.21114E-05-1.94073E-05-3.11448E-05 8.91672E-07-3.90106E-19 9.41389E-20
 -1      3626 9.48119E-05-2.30246E-05-3.07659E-05-2.06606E-06 1.06511E-19-3.45690E-19
 -1      3627 9.38906E-05-2.18174E-05-3.08885E-05-1.70794E-06 1.18548E-19-4.22728E-19
 -1      3628 9.50137E-05-2.38362E-05-3.05080E-05-3.42628E-06-2.48986E-20-1.82175E-19
 -1      3629 1.12254E-04-5.01457E-05-2.63395E-05-1.95080E-05-2.59329E-19 9.80318E-19
 -1      3630 1.18570E-04-5.20323E-05-2.87005E-05-1.22456E-05-3.85466E-20 1.62658E-18
 -1      3631 1.16149E-04-4.78429E-05-2.92736E-05-7.95658E-06-1.69549E-19 1.57448E-18
 -1      3632 1.07913E-04-4.65725E-05-2.61754E-05-1.93189E-05-5.65024E-19 8.69407E-19
 -1      3633 9.22806E-05-2.29075E-05-2.97365E-05 6.44326E-06-1.72906E-19-1.09851E-19
 -1      3634 9.22212E-05-2.33996E-05-2.94896E-05 7.53373E-06-1.73056E-19-4.37740E-20
 -1      3635 9.04725E-05-2.24797E-05-2.91312E-05 7.65518E-06-2.02915E-19-3.91769E-20
 -1      3636 1.14466E-04-5.08933E-05-2.72854E-05 1.58848E-05 5.38174E-19-7.80554E-19
 -1      3637 1.06478E-04-4.77363E-05-2.49995E-05 2.23124E-05 6.29835E-19 1.38966E-19
 -1      3638 9.25765E-05-2.18725E-05-3.03078E-05 4.14553E-06-3.92873E-19 1.47001E-19
 -1      3639 9.25532E-05-2.24508E-05-3.00447E-05 5.35818E-06-2.89650E-19-3.18915E-20
 -1      3640 9.11322E-05-2.15975E-05-2.97913E-05 5.51406E-06-2.79247E-19 6.85886E-20
 -1      3641 1.17647E-04-4.94859E-05-2.91759E-05 8.24098E-06 3.39293E-19-2.66398E-19
 -1      3642 5.50181E-05-1.45659E-05-1.69665E-05 1.06761E-05 7.36727E-19 1.26867E-18
 -1      3643 5.65480E-05-1.38411E-05-1.82880E-05 3.22626E-06 7.97968E-19 6.10023E-19
 -1      3644 6.19098E-05-1.75244E-05-1.88825E-05 1.41102E-05 9.61217E-19 1.96739E-18
 -1      3645 6.52607E-05-2.11714E-05-1.85633E-05-2.08055E-05-6.92463E-19-2.60119E-19
 -1      3646 7.28659E-05-2.53243E-05-2.02715E-05-2.23764E-05-8.09029E-19 3.36166E-21
 -1      3647 6.41600E-05-1.86718E-05-1.93833E-05-1.53973E-05-6.43136E-19-1.01935E-19
 -1      3648 8.89473E-05-1.68499E-05-3.09063E-05-1.14499E-06 9.27985E-20-3.07068E-19
 -1      3649 8.82328E-05-1.61999E-05-3.08895E-05-1.04601E-06-2.82592E-20-1.47064E-19
 -1      3650 1.27425E-04-5.42673E-05-3.11504E-05 5.16480E-06 1.61664E-19 8.38774E-19
 -1      3651 9.76469E-05-2.92543E-05-2.93417E-05-9.55974E-06-2.04800E-19-3.44838E-19
 -1      3652 8.86591E-05-3.68421E-05-2.20775E-05-2.66554E-05-7.21804E-19-8.25328E-20
 -1      3653 7.53006E-05-2.88654E-05-1.96760E-05 2.57027E-05-1.68083E-20 2.23654E-18
 -1      3654 9.86916E-05-4.14352E-05-2.44555E-05-2.25803E-05 4.62758E-19 1.32846E-18
 -1      3655 9.26784E-05-2.05722E-05-3.09108E-05-1.72208E-06 4.37339E-20-4.32788E-19
 -1      3656 1.12326E-04-4.61293E-05-2.83467E-05 1.05799E-05 4.94164E-19-1.95555E-19
 -1      3657 5.85405E-05-1.46985E-05-1.85802E-05-1.77713E-06-2.37963E-19-7.98752E-19
 -1      3658 1.00644E-04-4.03833E-05-2.59469E-05-1.89006E-05 9.99730E-19 1.19792E-18
 -1      3659 5.96865E-05-1.62897E-05-1.82746E-05-1.32999E-05 1.98252E-19-1.26745E-18
 -1      3660 6.67136E-05-1.94840E-05-2.00810E-05-1.59222E-05-1.40025E-19-7.55342E-19
 -1      3661 5.82185E-05-1.49362E-05-1.84864E-05-7.72432E-06-9.39280E-20-9.13154E-19
 -1      3662 9.52488E-05-2.85460E-05-2.85871E-05-1.40973E-08 1.94966E-20 9.98690E-19
 -1      3663 9.52480E-05-2.85494E-05-2.85851E-05-1.75604E-08-3.57960E-19 3.70526E-18
 -1      3664 9.52475E-05-2.85438E-05-2.85872E-05-1.39126E-08-1.03283E-18 4.24123E-18
 -1      3665 8.76957E-05-1.56886E-05-3.08697E-05-6.75395E-07-1.75362E-21-1.38746E-19
 -1      3666 8.73942E-05-1.54241E-05-3.08616E-05-5.03389E-07-6.41183E-20-3.40760E-19
 -1      3667 8.81238E-05-1.67886E-05-3.05469E-05-1.27718E-06-2.54127E-20-1.24864E-19
 -1      3668 1.12569E-04-4.53220E-05-2.86973E-05-1.01907E-05-8.34625E-20 1.12742E-18
 -1      3669 9.52478E-05-2.85478E-05-2.85857E-05 1.64707E-08 2.53701E-19 2.53679E-18
 -1      3670 9.52491E-05-2.85447E-05-2.85877E-05 1.30515E-08-6.13791E-19 2.37466E-18
 -1      3671 9.52440E-05-2.85256E-05-2.85937E-05 1.84977E-09-2.59514E-20-2.43922E-18
 -1      3672 9.52436E-05-2.85247E-05-2.85939E-05-8.10356E-13 6.13441E-20-2.90381E-18
 -1      3673 9.01914E-05-1.72131E-05-3.12509E-05-5.29986E-07 1.59573E-19-3.50372E-19
 -1      3674 9.85096E-05-3.17213E-05-2.86003E-05-1.13926E-05-8.95646E-20-2.59974E-19
 -1      3675 9.71684E-05-3.00908E-05-2.87209E-05-1.10672E-05-2.54253E-19-1.28459E-19
 -1      3676 9.69742E-05-3.18683E-05-2.79654E-05-1.29748E-05-3.73713E-19 7.62297E-20
 -1      3677 9.52435E-05-2.85247E-05-2.85939E-05-5.34667E-10-1.65640E-20-2.81855E-18
 -1      3678 9.52438E-05-2.85254E-05-2.85937E-05-2.36904E-09 2.78703E-19-3.44576E-18
 -1      3679 9.52396E-05-2.85077E-05-2.85991E-05-2.47336E-10 7.13502E-19-2.58597E-18
 -1      3680 9.52471E-05-2.85295E-05-2.85931E-05 5.08433E-09-4.61443E-19 1.97076E-18
 -1      3681 9.52460E-05-2.85308E-05-2.85923E-05 5.09339E-09-5.09175E-19-6.91320E-19
 -1      3682 9.52451E-05-2.85285E-05-2.85930E-05 2.77202E-09-4.18010E-19-2.84041E-18
 -1      3683 9.52410E-05-2.85106E-05-2.85984E-05-2.30781E-10 1.71196E-19-2.24827E-18
 -1      3684 1.00264E-04-4.39425E-05-2.40707E-05 2.45092E-05 4.22047E-19 1.70677E-19
 -1      3685 9.28685E-05-3.84836E-05-2.31370E-05 2.47235E-05 2.89222E-19 1.34373E-18
 -1      3686 1.03783E-04-4.37527E-05-2.55873E-05 1.93554E-05 6.87649E-19-5.15578E-19
 -1      3687 1.04674E-04-3.84137E-05-2.82894E-05-1.20121E-05-2.80396E-19 5.56147E-19
 -1      3688 1.00902E-04-3.66651E-05-2.76167E-05-1.42282E-05-3.64527E-19 7.59398E-19
 -1      3689 1.07591E-04-4.12389E-05-2.84319E-05-1.11222E-05-1.14780E-19 7.02081E-19
 -1      3690 9.52441E-05-2.85187E-05-2.85964E-05 1.45761E-09-1.28777E-19-3.18905E-19
 -1      3691 8.73968E-05-1.45308E-05-3.12033E-05-7.84896E-08-1.08004E-19-3.10200E-19
 -1      3692 6.23427E-05-1.85093E-05-1.84793E-05 1.66571E-05 1.72834E-19-1.28712E-18
 -1      3693 6.44647E-05-1.75006E-05-1.99768E-05 1.20004E-05 1.07130E-19-1.38005E-18
 -1      3694 6.89398E-05-2.26533E-05-1.97884E-05 2.08613E-05 4.51349E-19-1.13484E-18
 -1      3695 9.23604E-05-2.04048E-05-3.08500E-05 1.92382E-06-4.42208E-19 1.55574E-19
 -1      3696 9.25158E-05-2.11678E-05-3.05789E-05 3.14073E-06-4.19331E-19 1.56992E-19
 -1      3697 9.13257E-05-2.03992E-05-3.03898E-05 3.44084E-06-4.17800E-19 2.34743E-19
 -1      3698 9.09887E-05-1.87178E-05-3.09683E-05 1.42792E-06-3.49277E-19 6.44469E-20
 -1      3699 1.08129E-04-4.49800E-05-2.70831E-05 1.52952E-05 7.73285E-19-1.17562E-18
 -1      3700 9.52467E-05-2.85377E-05-2.85895E-05-9.12096E-09-2.31542E-18 5.15084E-18
 -1      3701 9.52462E-05-2.85318E-05-2.85917E-05-3.50858E-09-1.98777E-18 4.09074E-18
 -1      3702 9.52450E-05-2.85182E-05-2.85974E-05 5.90463E-09-2.21297E-18 5.58749E-18
 -1      3703 9.52469E-05-2.85320E-05-2.85923E-05-5.79255E-09-1.53258E-18 4.74548E-18
 -1      3704 9.48647E-05-2.54089E-05-2.97633E-05-6.92164E-06 2.44057E-19-3.59972E-19
 -1      3705 9.47823E-05-2.49245E-05-2.99356E-05-6.07294E-06 6.92942E-20-2.79194E-19
 -1      3706 9.52476E-05-2.85411E-05-2.85883E-05 1.13351E-08 2.83250E-19 2.70663E-18
 -1      3707 9.42079E-05-3.99869E-05-2.31583E-05 2.58128E-05 3.17095E-19-5.00385E-19
 -1      3708 8.34736E-05-3.49210E-05-2.04925E-05 2.90715E-05 4.19043E-19-4.36169E-19
 -1      3709 9.54087E-05-2.68758E-05-2.93608E-05-8.70601E-06 1.52265E-19-1.26890E-19
 -1      3710 9.49794E-05-2.60696E-05-2.95250E-05-7.91078E-06 3.05254E-19-1.72682E-19
 -1      3711 9.36838E-05-2.48231E-05-2.95172E-05-7.38650E-06 1.56676E-19-3.67830E-19
 -1      3712 8.89858E-05-1.68425E-05-3.09232E-05 1.02129E-06-2.10786E-19-6.10267E-20
 -1      3713 8.99136E-05-1.77523E-05-3.09396E-05 1.14327E-06-3.29950E-19 3.87129E-20
 -1      3714 9.01704E-05-1.86568E-05-3.06384E-05 2.08361E-06-3.40573E-19 4.58452E-20
 -1      3715 7.83748E-05-2.97468E-05-2.07135E-05 2.57162E-05 4.22153E-19-6.46021E-19
 -1      3716 9.52474E-05-2.85375E-05-2.85901E-05-7.96056E-09 1.06625E-19-2.56679E-18
 -1      3717 9.52480E-05-2.85407E-05-2.85889E-05-1.08889E-08-4.78047E-19-1.47232E-18
 -1      3718 9.52471E-05-2.85328E-05-2.85917E-05-7.35329E-09-1.30644E-18-7.97302E-19
 -1      3719 9.74692E-05-4.04883E-05-2.44181E-05 2.36614E-05 3.36077E-19-4.73544E-19
 -1      3720 8.93600E-05-3.39401E-05-2.36894E-05 2.29762E-05 2.32338E-19-3.31785E-19
 -1      3721 8.98514E-05-1.77178E-05-3.09332E-05-1.39713E-06 1.68666E-19-4.27630E-19
 -1      3722 8.96209E-05-1.81731E-05-3.05999E-05-2.00230E-06 9.11593E-20-2.19168E-19
 -1      3723 9.09023E-05-1.87129E-05-3.09431E-05-1.41346E-06 9.79659E-20-5.05106E-19
 -1      3724 8.79591E-05-2.19130E-05-2.83299E-05 8.35918E-06-2.39865E-19-1.00181E-19
 -1      3725 8.76014E-05-2.24039E-05-2.79243E-05 9.47755E-06-4.10357E-19-1.96883E-19
 -1      3726 9.64241E-05-2.88285E-05-2.89518E-05-1.02557E-05-2.96810E-19-1.35395E-19
 -1      3727 9.56344E-05-2.76990E-05-2.91019E-05-9.65604E-06-2.63522E-20-5.67032E-20
 -1      3728 9.48688E-05-2.85672E-05-2.84501E-05-1.12795E-05-1.71891E-19 4.55603E-20
 -1      3729 8.65993E-05-2.27962E-05-2.73779E-05 1.07405E-05-3.00129E-19-7.36247E-20
 -1      3730 8.64788E-05-2.36286E-05-2.68965E-05 1.20824E-05-5.06441E-20-1.86594E-19
 -1      3731 8.49496E-05-2.11795E-05-2.73038E-05 9.12534E-06-1.99080E-19-8.02431E-20
 -1      3732 8.54234E-05-2.43607E-05-2.62056E-05 1.38116E-05 1.75194E-19-3.12467E-19
 -1      3733 8.58358E-05-2.58566E-05-2.56297E-05 1.55355E-05 3.09117E-19-4.24838E-19
 -1      3734 8.28213E-05-2.20879E-05-2.60153E-05 1.19891E-05-1.26972E-20 6.73019E-20
 -1      3735 8.60741E-05-2.78224E-05-2.49704E-05 1.80259E-05 4.00397E-19-4.10407E-19
 -1      3736 8.76720E-05-3.06127E-05-2.43495E-05 2.01460E-05 3.98913E-19-4.69882E-19
 -1      3737 8.35678E-05-2.96252E-05-2.30993E-05 2.21682E-05 3.90138E-19-6.49542E-19
 -1      3738 8.16917E-05-2.43749E-05-2.45535E-05 1.62474E-05 3.00857E-19-6.04689E-19
 -1      3739 8.35890E-05-3.17045E-05-2.20455E-05-2.46170E-05-6.83112E-19-4.82279E-20
 -1      3740 9.42073E-05-3.84744E-05-2.39500E-05-2.38147E-05-7.14443E-19 1.65807E-19
 -1      3741 9.52472E-05-2.85296E-05-2.85935E-05 2.94785E-09 4.74225E-19 3.63522E-18
 -1      3742 8.75286E-05-2.66498E-05-2.60234E-05-1.44919E-05 4.01358E-19-2.19888E-19
 -1      3743 8.67742E-05-2.51392E-05-2.64344E-05-1.30315E-05 4.50524E-19-6.45781E-19
 -1      3744 8.74024E-05-2.44356E-05-2.69470E-05-1.14917E-05 4.53591E-19-9.81558E-19
 -1      3745 8.72835E-05-2.37164E-05-2.72703E-05-1.03729E-05 6.70778E-19-1.21712E-18
 -1      3746 8.39425E-05-2.30405E-05-2.60936E-05-1.17776E-05 4.23625E-19-1.10230E-19
 -1      3747 8.80438E-05-2.34874E-05-2.76443E-05-9.25436E-06 4.08108E-19-1.50420E-18
 -1      3748 8.82420E-05-2.32430E-05-2.78802E-05-8.37211E-06-5.76630E-19-1.53964E-18
 -1      3749 8.53916E-05-2.22830E-05-2.70293E-05-9.17178E-06 3.55441E-19-1.90302E-18
 -1      3750 8.90031E-05-2.33079E-05-2.81429E-05-7.53706E-06-1.36049E-18-7.94095E-19
 -1      3751 8.93358E-05-2.33407E-05-2.83028E-05-6.81691E-06-1.45497E-18-5.53860E-19
 -1      3752 8.69403E-05-2.22694E-05-2.76983E-05-7.30271E-06-2.39894E-19-1.35216E-18
 -1      3753 9.00400E-05-2.35723E-05-2.84795E-05-6.16314E-06-1.26141E-18-5.05676E-19
 -1      3754 9.04067E-05-2.37583E-05-2.85793E-05-5.55947E-06-1.30638E-18-4.40322E-20
 -1      3755 8.84100E-05-2.26639E-05-2.81606E-05-5.89593E-06-1.02197E-18-2.18453E-19
 -1      3756 9.10279E-05-2.40711E-05-2.86919E-05-5.02912E-06-9.30708E-19 5.99509E-19
 -1      3757 9.13769E-05-2.43301E-05-2.87473E-05-4.51501E-06-9.90054E-20 1.03802E-19
 -1      3758 8.97313E-05-2.32761E-05-2.84666E-05-4.78481E-06-6.20465E-19 5.87094E-19
 -1      3759 9.19075E-05-2.46696E-05-2.88136E-05-4.07494E-06 1.80701E-19-1.17797E-19
 -1      3760 9.22152E-05-2.49518E-05-2.88379E-05-3.63549E-06-2.56171E-19-1.15652E-19
 -1      3761 9.08758E-05-2.39789E-05-2.86582E-05-3.87507E-06-2.25887E-19 1.39382E-18
 -1      3762 9.26572E-05-2.52844E-05-2.88720E-05-3.26722E-06-8.95357E-19-2.96875E-20
 -1      3763 9.29159E-05-2.55602E-05-2.88756E-05-2.89365E-06-7.05192E-19 3.76403E-19
 -1      3764 9.18405E-05-2.46919E-05-2.87683E-05-3.11531E-06-4.33040E-19 8.83694E-19
 -1      3765 9.32765E-05-2.58669E-05-2.88880E-05-2.58606E-06 8.19979E-20 8.64530E-19
 -1      3766 9.34868E-05-2.61199E-05-2.88788E-05-2.27200E-06 1.29220E-18 5.31663E-19
 -1      3767 9.26359E-05-2.53664E-05-2.88220E-05-2.47732E-06-9.27269E-20 1.94212E-18
 -1      3768 9.37754E-05-2.63910E-05-2.88773E-05-2.01727E-06 1.71492E-18 8.37118E-19
 -1      3769 9.39420E-05-2.66135E-05-2.88610E-05-1.75695E-06 1.60169E-18 4.08661E-19
 -1      3770 9.32788E-05-2.59753E-05-2.88382E-05-1.94385E-06 1.09760E-18 1.25807E-18
 -1      3771 9.41690E-05-2.68456E-05-2.88512E-05-1.54857E-06 1.15934E-19-2.00916E-19
 -1      3772 9.42981E-05-2.70353E-05-2.88317E-05-1.33612E-06-1.22130E-18-1.36329E-18
 -1      3773 9.37894E-05-2.65062E-05-2.88309E-05-1.50228E-06 3.60158E-19-3.51528E-19
 -1      3774 9.44736E-05-2.72291E-05-2.88176E-05-1.16807E-06-1.12528E-18-1.42510E-18
 -1      3775 9.45716E-05-2.73867E-05-2.87973E-05-9.97466E-07-1.39658E-18-8.69695E-19
 -1      3776 9.41880E-05-2.69566E-05-2.88099E-05-1.14163E-06-9.22896E-19-8.54551E-19
 -1      3777 9.47049E-05-2.75451E-05-2.87815E-05-8.64020E-07-9.18006E-19-6.20648E-19
 -1      3778 9.47779E-05-2.76733E-05-2.87621E-05-7.29226E-07-6.59481E-19-1.32967E-19
 -1      3779 9.44938E-05-2.73299E-05-2.87819E-05-8.51453E-07-6.70348E-19-1.12593E-18
 -1      3780 9.48774E-05-2.78001E-05-2.87463E-05-6.24943E-07-3.54672E-19 3.75989E-19
 -1      3781 9.49306E-05-2.79024E-05-2.87286E-05-5.20190E-07 3.27704E-20 2.89315E-19
 -1      3782 9.47244E-05-2.76330E-05-2.87515E-05-6.21655E-07-2.11856E-19-1.63482E-19
 -1      3783 9.50033E-05-2.80022E-05-2.87138E-05-4.40037E-07-9.98410E-20 7.00468E-19
 -1      3784 9.50412E-05-2.80824E-05-2.86983E-05-3.59995E-07-3.52272E-19 5.41805E-19
 -1      3785 9.48950E-05-2.78746E-05-2.87216E-05-4.42626E-07 2.36484E-19-2.02133E-19
 -1      3786 9.50930E-05-2.81596E-05-2.86850E-05-2.99443E-07-1.27632E-18 6.23700E-19
 -1      3787 9.51192E-05-2.82213E-05-2.86718E-05-2.39356E-07-9.15516E-19 4.10614E-19
 -1      3788 9.50184E-05-2.80638E-05-2.86938E-05-3.05489E-07-9.01412E-19-4.03549E-19
 -1      3789 9.51552E-05-2.82800E-05-2.86602E-05-1.94465E-07-9.73320E-20 9.58875E-21
 -1      3790 9.51726E-05-2.83268E-05-2.86491E-05-1.50238E-07 3.85156E-19-8.40728E-19
 -1      3791 9.51054E-05-2.82095E-05-2.86690E-05-2.02289E-07-2.98525E-19-2.36082E-18
 -1      3792 9.51967E-05-2.83707E-05-2.86392E-05-1.17641E-07 1.32447E-18-6.27505E-20
 -1      3793 9.52077E-05-2.84056E-05-2.86301E-05-8.58200E-08 1.77525E-18 1.10047E-19
 -1      3794 9.51649E-05-2.83198E-05-2.86475E-05-1.26106E-07 1.10191E-18-1.08990E-18
 -1      3795 9.52229E-05-2.84377E-05-2.86218E-05-6.27895E-08 1.65849E-18 7.00961E-19
 -1      3796 9.52293E-05-2.84636E-05-2.86144E-05-4.03701E-08 1.59192E-18 1.01092E-18
 -1      3797 9.52039E-05-2.84020E-05-2.86291E-05-7.12656E-08 1.59810E-18-4.69348E-19
 -1      3798 9.52386E-05-2.84873E-05-2.86074E-05-2.47728E-08 1.65966E-18 1.61680E-18
 -1      3799 9.52418E-05-2.85058E-05-2.86013E-05-1.00698E-08 1.36429E-18 2.63117E-18
 -1      3800 9.52279E-05-2.84626E-05-2.86137E-05-3.26392E-08 2.04598E-18 1.44493E-18
 -1      3801 9.18437E-05-2.77211E-05-2.74775E-05 1.13712E-05-3.13515E-19-1.10670E-18
 -1      3802 9.29657E-05-2.92148E-05-2.72799E-05 1.22259E-05 1.95330E-19-8.47077E-19
 -1      3803 9.29595E-05-3.57987E-05-2.43167E-05-2.16206E-05 1.25537E-18 1.48160E-18
 -1      3804 9.37731E-05-3.07684E-05-2.69493E-05 1.35955E-05-2.33667E-19-4.74006E-19
 -1      3805 9.58610E-05-3.32544E-05-2.67936E-05 1.44624E-05-4.29578E-19-6.43138E-19
 -1      3806 9.01791E-05-2.85343E-05-2.64681E-05 1.37285E-05-2.01404E-19 1.41527E-19
 -1      3807 9.11296E-05-2.59429E-05-2.79444E-05 9.39978E-06-5.10797E-19-1.42125E-18
 -1      3808 9.16484E-05-2.67793E-05-2.77684E-05 1.01992E-05-4.81145E-19-1.21215E-18
 -1      3809 8.92805E-05-2.59676E-05-2.71532E-05 1.10101E-05 1.74332E-20-1.06220E-18
 -1      3810 9.11228E-05-2.50991E-05-2.83061E-05 7.73751E-06-3.70830E-19-6.78472E-19
 -1      3811 9.12803E-05-2.54973E-05-2.81718E-05 8.45214E-06-6.80622E-19-1.17213E-18
 -1      3812 8.93211E-05-2.46682E-05-2.77120E-05 8.83310E-06-7.52315E-19-1.32329E-18
 -1      3813 9.14781E-05-2.48560E-05-2.85631E-05 6.34091E-06-7.04858E-19 3.10097E-19
 -1      3814 9.14378E-05-2.49728E-05-2.84715E-05 6.96885E-06-3.35758E-19 1.89900E-19
 -1      3815 8.98270E-05-2.41769E-05-2.81325E-05 7.11592E-06-9.60493E-19-7.90791E-19
 -1      3816 9.19920E-05-2.49778E-05-2.87307E-05 5.16228E-06-1.12729E-19 1.06232E-18
 -1      3817 9.18551E-05-2.49247E-05-2.86756E-05 5.71058E-06-3.05151E-19 1.14404E-18
 -1      3818 9.05373E-05-2.41855E-05-2.84304E-05 5.73972E-06-7.39488E-19 4.89723E-19
 -1      3819 9.25460E-05-2.53027E-05-2.88279E-05 4.16498E-06-2.48216E-19 1.36679E-18
 -1      3820 9.23729E-05-2.51560E-05-2.88011E-05 4.64032E-06-1.34917E-19 1.14919E-18
 -1      3821 9.13018E-05-2.44868E-05-2.86281E-05 4.61826E-06-3.65414E-19 1.40030E-18
 -1      3822 9.30751E-05-2.57227E-05-2.88736E-05 3.32314E-06-5.63294E-19 1.30682E-18
 -1      3823 9.28995E-05-2.55327E-05-2.88670E-05 3.73100E-06-4.29839E-19 1.04809E-18
 -1      3824 9.20370E-05-2.49408E-05-2.87488E-05 3.69343E-06-3.28820E-19 1.02397E-18
 -1      3825 9.35466E-05-2.61683E-05-2.88835E-05 2.61763E-06-8.71524E-19 2.09559E-18
 -1      3826 9.33861E-05-2.59670E-05-2.88904E-05 2.96305E-06-6.08317E-19 2.04379E-18
 -1      3827 9.26994E-05-2.54550E-05-2.88130E-05 2.92726E-06-7.86667E-19 1.78873E-18
 -1      3828 9.39478E-05-2.65974E-05-2.88704E-05 2.03263E-06-1.17953E-18 1.63960E-18
 -1      3829 9.38099E-05-2.64041E-05-2.88853E-05 2.32089E-06-8.46218E-19 2.35046E-18
 -1      3830 9.32706E-05-2.59704E-05-2.88378E-05 2.29384E-06-1.20544E-18 2.36111E-18
 -1      3831 9.42774E-05-2.69868E-05-2.88438E-05 1.55377E-06 2.76707E-19 2.17416E-18
 -1      3832 9.41639E-05-2.68118E-05-2.88628E-05 1.79057E-06-5.69658E-19 2.27108E-18
 -1      3833 9.37467E-05-2.64518E-05-2.88365E-05 1.77378E-06-7.71765E-19 1.75084E-18
 -1      3834 9.45406E-05-2.73255E-05-2.88105E-05 1.16732E-06 1.17254E-19 2.66503E-18
 -1      3835 9.44504E-05-2.71737E-05-2.88308E-05 1.35875E-06 4.58272E-19 2.49217E-18
 -1      3836 9.41328E-05-2.68805E-05-2.88191E-05 1.35118E-06 7.72894E-20 2.87934E-18
 -1      3837 9.47455E-05-2.76109E-05-2.87751E-05 8.60064E-07 2.58361E-19 3.38023E-18
 -1      3838 9.46758E-05-2.74833E-05-2.87951E-05 1.01232E-06-5.39141E-20 2.40198E-18
 -1      3839 9.44384E-05-2.72488E-05-2.87929E-05 1.01197E-06 1.31625E-19 2.68746E-18
 -1      3840 9.49012E-05-2.78451E-05-2.87408E-05 6.19524E-07 1.04258E-18 3.50008E-18
 -1      3841 9.48488E-05-2.77406E-05-2.87592E-05 7.38656E-07 6.14184E-19 3.22036E-18
 -1      3842 9.46748E-05-2.75565E-05-2.87630E-05 7.43417E-07 3.45924E-19 2.28536E-18
 -1      3843 9.50166E-05-2.80329E-05-2.87092E-05 4.34200E-07 5.23939E-19 3.26561E-18
 -1      3844 9.49783E-05-2.79493E-05-2.87255E-05 5.25877E-07 1.57069E-18 3.78229E-18
 -1      3845 9.48537E-05-2.78073E-05-2.87327E-05 5.33873E-07 1.08420E-18 3.57382E-18
 -1      3846 9.50999E-05-2.81805E-05-2.86812E-05 2.93780E-07 4.41495E-20 3.25291E-18
 -1      3847 9.50727E-05-2.81149E-05-2.86952E-05 3.63121E-07-5.79007E-19 2.74410E-18
 -1      3848 9.49858E-05-2.80073E-05-2.87040E-05 3.72876E-07 6.11886E-19 4.04872E-18
 -1      3849 9.51582E-05-2.82942E-05-2.86571E-05 1.89288E-07 3.92755E-19 2.77835E-18
 -1      3850 9.51396E-05-2.82438E-05-2.86689E-05 2.40763E-07 8.85408E-19 3.09653E-18
 -1      3851 9.50808E-05-2.81637E-05-2.86780E-05 2.51176E-07 1.64613E-19 2.27828E-18
 -1      3852 9.51974E-05-2.83802E-05-2.86367E-05 1.13097E-07-1.98036E-19 2.11367E-18
 -1      3853 9.51854E-05-2.83421E-05-2.86465E-05 1.50511E-07-2.98183E-19 2.31964E-18
 -1      3854 9.51472E-05-2.82837E-05-2.86553E-05 1.60834E-07-9.30434E-20 1.19884E-18
 -1      3855 9.52226E-05-2.84442E-05-2.86198E-05 5.88537E-08-2.00710E-19 2.55302E-18
 -1      3856 9.52152E-05-2.84158E-05-2.86278E-05 8.53570E-08 4.06866E-20 2.82937E-18
 -1      3857 9.51917E-05-2.83742E-05-2.86358E-05 9.51248E-08-5.76091E-19 1.69968E-18
 -1      3858 9.52376E-05-2.84910E-05-2.86059E-05 2.17419E-08-1.27241E-18 3.77211E-18
 -1      3859 9.52335E-05-2.84704E-05-2.86124E-05 3.95322E-08-4.79364E-19 2.73792E-18
 -1      3860 9.52200E-05-2.84413E-05-2.86193E-05 4.85107E-08-8.08708E-19 3.07107E-18
 -1      3861 8.91813E-05-2.12355E-05-2.91364E-05 6.31556E-06-2.01753E-19-1.87472E-20
 -1      3862 8.88022E-05-2.16358E-05-2.87805E-05 7.34520E-06-2.23617E-19-6.06257E-20
 -1      3863 8.68119E-05-2.06378E-05-2.83344E-05 6.95535E-06-2.75518E-19 8.43782E-20
 -1      3864 9.00678E-05-2.04278E-05-2.98620E-05 4.35510E-06-4.25205E-19 1.98908E-19
 -1      3865 8.97953E-05-2.08916E-05-2.95295E-05 5.39109E-06-2.81407E-19 1.30673E-19
 -1      3866 8.82741E-05-2.00766E-05-2.92033E-05 5.12095E-06-2.76127E-19 1.50724E-19
 -1      3867 9.52452E-05-2.85297E-05-2.85925E-05-3.43873E-09 7.30804E-19-4.21332E-18
 -1      3868 9.52459E-05-2.85320E-05-2.85917E-05-5.74316E-09 1.05698E-18-4.30715E-18
 -1      3869 9.52442E-05-2.85220E-05-2.85951E-05-2.88811E-09 1.14118E-18-3.13238E-18
 -1      3870 9.52410E-05-2.85121E-05-2.85979E-05-4.88104E-10 6.62238E-19-3.75874E-18
 -1      3871 8.73217E-05-1.53406E-05-3.08599E-05-5.70529E-08-9.75262E-20-4.65400E-19
 -1      3872 8.74843E-05-1.54961E-05-3.08667E-05 1.44892E-07-5.64780E-20-3.47654E-19
 -1      3873 8.74681E-05-1.61873E-05-3.05224E-05-3.41205E-07-1.94607E-20-2.92763E-19
 -1      3874 9.49546E-05-2.46485E-05-3.01311E-05-5.28599E-06 4.73652E-20-3.35295E-19
 -1      3875 9.49102E-05-2.41659E-05-3.03153E-05-4.28947E-06-1.04769E-20-2.48152E-19
 -1      3876 9.40557E-05-2.31565E-05-3.03843E-05-3.94616E-06-2.07683E-20-4.49495E-19
 -1      3877 9.37816E-05-2.38281E-05-2.99785E-05-5.58908E-06 8.19498E-21-6.23830E-19
 -1      3878 7.63913E-05-2.61624E-05-2.13886E-05 2.14597E-05 3.62755E-19-8.54444E-19
 -1      3879 1.05232E-04-4.45623E-05-2.58804E-05 2.04055E-05 2.75636E-19-5.50307E-20
 -1      3880 8.33253E-05-3.26969E-05-2.17305E-05 2.54044E-05 2.63427E-19 2.09003E-18
 -1      3881 7.22837E-05-2.46092E-05-2.03626E-05 2.16915E-05 5.08630E-19 2.48022E-18
 -1      3882 9.01627E-05-1.92713E-05-3.03928E-05 2.72596E-06-3.49950E-19 1.74394E-19
 -1      3883 9.02160E-05-1.99640E-05-3.01075E-05 3.69470E-06-3.82316E-19 2.16443E-19
 -1      3884 8.89788E-05-1.93320E-05-2.98525E-05 3.51220E-06-3.31311E-19 2.10463E-19
 -1      3885 8.91480E-05-1.82931E-05-3.03550E-05 2.30522E-06-2.75031E-19 1.05061E-19
 -1      3886 9.52348E-05-2.84930E-05-2.86037E-05-4.32596E-09 1.11989E-19-2.81306E-18
 -1      3887 9.52332E-05-2.84902E-05-2.86044E-05-3.78333E-09 4.18153E-19-2.10469E-18
 -1      3888 1.08159E-04-4.38821E-05-2.76933E-05-1.40709E-05-4.45923E-19 1.23237E-18
 -1      3889 9.23271E-05-2.08807E-05-3.06096E-05-2.67412E-06 6.66224E-20-4.68549E-19
 -1      3890 8.77773E-05-1.57515E-05-3.08800E-05 5.05371E-07-4.47490E-20-2.08550E-19
 -1      3891 8.83497E-05-1.62933E-05-3.08972E-05 7.01746E-07-1.11206E-19-2.08972E-19
 -1      3892 8.85251E-05-1.71664E-05-3.05740E-05 1.34047E-06-1.43399E-19-8.10515E-20
 -1      3893 8.77169E-05-1.63877E-05-3.05358E-05 5.67918E-07 4.99088E-20-2.40251E-19
 -1      3894 8.92274E-05-3.09488E-05-2.48896E-05-1.84875E-05 1.05004E-18 1.97514E-19
 -1      3895 8.73306E-05-2.81132E-05-2.53433E-05-1.66438E-05 5.54056E-19-5.64107E-19
 -1      3896 8.29138E-05-2.50590E-05-2.48315E-05-1.55180E-05 3.06530E-19-5.04372E-19
 -1      3897 1.02711E-04-4.13805E-05-2.62706E-05 1.72059E-05 3.41672E-19-7.36429E-19
 -1      3898 1.02912E-04-4.16505E-05-2.60400E-05-1.90537E-05-6.15768E-19 8.24545E-19
 -1      3899 6.21906E-05-1.49920E-05-2.02499E-05 1.91897E-06-3.56862E-19-7.76438E-19
 -1      3900 6.20817E-05-1.54492E-05-1.98473E-05-6.96199E-06-6.67791E-19-1.90860E-19
 -1      3901 8.53071E-05-3.09723E-05-2.33183E-05-2.16308E-05 5.77465E-19 2.08092E-19
 -1      3902 6.52042E-05-1.69701E-05-2.05257E-05-1.04958E-05-5.98899E-19-5.32572E-20
 -1      3903 6.97384E-05-1.96918E-05-2.14945E-05-1.43103E-05-6.99896E-19-2.64962E-20
 -1      3904 6.83664E-05-1.68809E-05-2.19663E-05-6.89751E-06-6.99332E-19-7.96509E-20
 -1      3905 9.39814E-05-2.63765E-05-2.89881E-05-9.38170E-06 1.75917E-20 1.17625E-19
 -1      3906 7.54978E-05-2.38446E-05-2.20837E-05-1.87166E-05-7.40658E-19-1.76434E-19
 -1      3907 7.93988E-05-2.78886E-05-2.19654E-05-2.26727E-05-7.23942E-19-2.64360E-19
 -1      3908 8.51866E-05-2.98463E-05-2.36895E-05-2.03298E-05-6.08381E-19-1.92951E-19
 -1      3909 9.52444E-05-2.85142E-05-2.85984E-05-5.04518E-09 4.48192E-19 2.87995E-18
 -1      3910 9.52454E-05-2.85215E-05-2.85959E-05 3.97113E-11 1.70462E-19 2.26966E-18
 -1      3911 9.52390E-05-2.84972E-05-2.86037E-05-1.20229E-08 9.46506E-19 1.48110E-18
 -1      3912 6.83662E-05-2.05331E-05-2.03106E-05 1.77529E-05 5.96090E-19 2.48302E-18
 -1      3913 6.59297E-05-1.76636E-05-2.07135E-05 1.18402E-05 8.25262E-19 1.48584E-18
 -1      3914 7.60767E-05-2.40661E-05-2.21419E-05 1.81170E-05 4.65946E-19 2.41678E-18
 -1      3915 5.88735E-05-1.37866E-05-1.90213E-05-2.38148E-06 4.54463E-19 3.75672E-19
 -1      3916 6.31379E-05-1.56028E-05-2.02814E-05-7.17417E-06 4.78110E-20-3.14951E-19
 -1      3917 6.14621E-05-1.47193E-05-2.00356E-05 2.59480E-06 7.30940E-19 6.11293E-19
 -1      3918 9.93196E-05-3.79208E-05-2.62650E-05 1.66575E-05 6.60818E-20-5.11949E-19
 -1      3919 9.52438E-05-2.85159E-05-2.85978E-05-1.84938E-09-3.54949E-19 2.17168E-19
 -1      3920 8.81934E-05-1.77080E-05-3.02125E-05-1.96004E-06-3.87973E-20-1.58176E-19
 -1      3921 8.75915E-05-1.72001E-05-3.01874E-05-1.48631E-06-1.30604E-20-1.76442E-19
 -1      3922 8.94109E-05-3.42923E-05-2.34894E-05 2.20913E-05 4.26693E-19 1.28470E-18
 -1      3923 9.52437E-05-2.85191E-05-2.85964E-05-9.46495E-10-1.22742E-20-1.10277E-18
 -1      3924 9.52453E-05-2.85244E-05-2.85946E-05-3.12696E-09-8.73968E-19 4.97722E-19
 -1      3925 9.52442E-05-2.85169E-05-2.85972E-05 1.74752E-09-1.11863E-18 1.24720E-18
 -1      3926 9.52257E-05-2.84674E-05-2.86103E-05-4.33959E-09 4.70900E-19-2.72248E-18
 -1      3927 9.52320E-05-2.84879E-05-2.86048E-05-9.78943E-10 1.08989E-18-1.74591E-18
 -1      3928 9.52319E-05-2.84877E-05-2.86048E-05 1.82847E-10 1.13082E-18-2.96307E-18
 -1      3929 7.66478E-05-2.44436E-05-2.22781E-05-1.88538E-05-2.04486E-19-4.21889E-19
 -1      3930 9.74000E-05-3.71706E-05-2.58040E-05-1.87881E-05-6.20622E-19 6.72815E-19
 -1      3931 9.49255E-05-3.11989E-05-2.72668E-05-1.41421E-05-6.43094E-19 5.37112E-19
 -1      3932 9.34624E-05-2.92157E-05-2.75240E-05-1.32345E-05-3.77730E-19 3.07961E-19
 -1      3933 7.28286E-05-2.17469E-05-2.18628E-05-1.69294E-05 1.20146E-19 3.25790E-19
 -1      3934 7.92325E-05-2.37410E-05-2.36566E-05-1.58582E-05 4.31893E-19-4.33509E-20
 -1      3935 7.93036E-05-2.23529E-05-2.44202E-05-1.36084E-05 5.77710E-19 4.99352E-19
 -1      3936 6.94839E-05-1.90649E-05-2.16204E-05-1.32556E-05 3.84212E-19-7.83770E-20
 -1      3937 9.25302E-05-2.28617E-05-2.98585E-05-5.51894E-06-1.44116E-20-6.24662E-19
 -1      3938 9.26872E-05-2.25346E-05-3.00691E-05-4.73988E-06 5.78363E-20-5.61213E-19
 -1      3939 7.50801E-05-2.30638E-05-2.22730E-05 1.79249E-05 4.28208E-19-8.59752E-19
 -1      3940 9.38218E-05-3.46456E-05-2.54494E-05 1.81827E-05-2.17954E-20 3.51386E-19
 -1      3941 9.24243E-05-2.34956E-05-2.95424E-05-6.56916E-06-1.14561E-19-5.13272E-19
 -1      3942 9.13871E-05-2.22495E-05-2.96330E-05-5.74766E-06-1.39172E-19-3.72509E-19
 -1      3943 9.25359E-05-2.42048E-05-2.92773E-05-7.59464E-06-6.02465E-20-2.22445E-19
 -1      3944 6.87486E-05-1.83449E-05-2.16063E-05 1.18042E-05 9.49306E-20-1.13636E-18
 -1      3945 6.52922E-05-1.59826E-05-2.09130E-05 7.70953E-06-1.51849E-19-1.22587E-18
 -1      3946 9.52418E-05-2.85081E-05-2.86001E-05 7.60135E-09-1.56539E-18 2.87242E-18
 -1      3947 9.52406E-05-2.85000E-05-2.86029E-05 1.45517E-08-1.46382E-18 3.43993E-18
 -1      3948 9.52336E-05-2.84804E-05-2.86087E-05 2.21883E-08-7.38448E-19 2.74831E-18
 -1      3949 9.52389E-05-2.84998E-05-2.86025E-05 8.83906E-09 3.00272E-19 7.12303E-19
 -1      3950 9.52402E-05-2.85046E-05-2.86010E-05-5.08702E-09-1.25704E-19-7.25149E-20
 -1      3951 9.52379E-05-2.84993E-05-2.86025E-05-5.94682E-09 2.38752E-19-2.45439E-18
 -1      3952 6.71147E-05-1.59944E-05-2.18580E-05 2.73322E-06-4.82901E-19-6.29081E-19
 -1      3953 9.52302E-05-2.84760E-05-2.86086E-05-1.07871E-08 8.43182E-19-2.60717E-18
 -1      3954 8.75249E-05-1.91960E-05-2.93094E-05 3.66547E-06-3.55675E-19 1.47086E-19
 -1      3955 8.69194E-05-1.95014E-05-2.88990E-05 4.49781E-06-3.40236E-19 5.04038E-20
 -1      3956 9.25299E-05-2.56789E-05-2.86308E-05-9.67458E-06-1.81781E-19 1.20844E-19
 -1      3957 9.23140E-05-2.48282E-05-2.89260E-05-8.67094E-06-1.40691E-19-2.82710E-21
 -1      3958 9.10497E-05-2.35242E-05-2.89451E-05-7.87610E-06-3.07162E-19-2.03635E-19
 -1      3959 8.35946E-05-1.98972E-05-2.73408E-05 6.84249E-06-2.40271E-19-2.86326E-19
 -1      3960 8.25546E-05-2.01126E-05-2.67545E-05 7.94042E-06-1.48715E-19-2.47309E-19
 -1      3961 8.06195E-05-2.01019E-05-2.59899E-05 9.06832E-06-1.83107E-19-3.27295E-19
 -1      3962 7.94285E-05-2.05187E-05-2.52257E-05 1.05977E-05-1.71226E-19-3.84806E-19
 -1      3963 7.96795E-05-1.87374E-05-2.60523E-05 6.54433E-06-2.20482E-19-6.43429E-19
 -1      3964 8.06530E-05-2.14216E-05-2.53405E-05-1.08743E-05 9.68049E-20 1.94018E-19
 -1      3965 8.13030E-05-2.09705E-05-2.59050E-05-9.44616E-06 2.09455E-19-3.34477E-19
 -1      3966 8.29327E-05-2.10745E-05-2.64939E-05-8.28577E-06-1.38681E-19-6.15834E-19
 -1      3967 8.37316E-05-2.10454E-05-2.69054E-05-7.29066E-06-3.18695E-19-1.42552E-18
 -1      3968 7.99675E-05-1.96417E-05-2.58096E-05-7.32943E-06-2.64429E-19-1.79490E-19
 -1      3969 8.50585E-05-2.13075E-05-2.73161E-05-6.52270E-06 6.20940E-19-1.62598E-18
 -1      3970 8.58396E-05-2.14942E-05-2.76053E-05-5.79886E-06 3.60076E-19-5.06999E-19
 -1      3971 8.29074E-05-2.02045E-05-2.68342E-05-5.65232E-06 1.17609E-19-8.98783E-19
 -1      3972 8.69390E-05-2.18627E-05-2.78885E-05-5.23883E-06-3.55326E-19-5.47552E-19
 -1      3973 8.76546E-05-2.21731E-05-2.80845E-05-4.68100E-06-4.50244E-19-4.08211E-19
 -1      3974 8.53043E-05-2.09625E-05-2.75458E-05-4.48570E-06 3.78762E-19-1.23859E-18
 -1      3975 8.85673E-05-2.25937E-05-2.82751E-05-4.25179E-06 7.16876E-20 3.89650E-19
 -1      3976 8.91951E-05-2.29601E-05-2.84023E-05-3.80039E-06 1.28891E-19 9.24014E-19
 -1      3977 8.72937E-05-2.18329E-05-2.80321E-05-3.62449E-06 7.13188E-19 1.96414E-21
 -1      3978 8.99515E-05-2.33931E-05-2.85263E-05-3.45459E-06-3.49192E-19 1.83853E-18
 -1      3979 9.04861E-05-2.37729E-05-2.86038E-05-3.07800E-06-5.60445E-20 1.18504E-18
 -1      3980 8.89437E-05-2.27378E-05-2.83563E-05-2.94813E-06 4.23995E-19 9.03815E-19
 -1      3981 9.11089E-05-2.41912E-05-2.86802E-05-2.79166E-06-1.20512E-19 1.42981E-18
 -1      3982 9.15535E-05-2.45570E-05-2.87227E-05-2.47338E-06-1.72547E-19 1.76775E-18
 -1      3983 9.03075E-05-2.36255E-05-2.85640E-05-2.39265E-06 9.61806E-20 6.62073E-19
 -1      3984 9.20612E-05-2.49429E-05-2.87658E-05-2.23382E-06-3.61090E-19 1.63054E-18
 -1      3985 9.24236E-05-2.52784E-05-2.87846E-05-1.96486E-06-1.07056E-19 1.23559E-18
 -1      3986 9.14255E-05-2.44583E-05-2.86890E-05-1.92623E-06-3.68444E-20 7.40993E-19
 -1      3987 9.28324E-05-2.56221E-05-2.88049E-05-1.76474E-06 5.28427E-20 1.30096E-18
 -1      3988 9.31224E-05-2.59188E-05-2.88081E-05-1.53931E-06 5.83520E-19 2.41439E-19
 -1      3989 9.23319E-05-2.52124E-05-2.87567E-05-1.53243E-06-5.92415E-20-1.34346E-19
 -1      3990 9.34472E-05-2.62163E-05-2.88135E-05-1.37362E-06 2.79905E-19-1.27281E-19
 -1      3991 9.36753E-05-2.64711E-05-2.88071E-05-1.18708E-06-7.35970E-19-8.88603E-19
 -1      3992 9.30575E-05-2.58751E-05-2.87855E-05-1.20172E-06 2.33550E-20-5.97604E-19
 -1      3993 9.39297E-05-2.67224E-05-2.88031E-05-1.05167E-06-7.88766E-19-1.29877E-18
 -1      3994 9.41061E-05-2.69361E-05-2.87914E-05-8.99589E-07-1.24890E-18-1.21198E-18
 -1      3995 9.36303E-05-2.64429E-05-2.87892E-05-9.27180E-07-5.43136E-19-2.46361E-18
 -1      3996 9.43023E-05-2.71438E-05-2.87820E-05-7.90584E-07-1.43330E-18-9.35392E-19
 -1      3997 9.44364E-05-2.73193E-05-2.87678E-05-6.68569E-07-6.70482E-19-1.89971E-18
 -1      3998 9.40757E-05-2.69187E-05-2.87774E-05-7.02606E-07-1.20302E-18-2.59234E-18
 -1      3999 9.45851E-05-2.74877E-05-2.87558E-05-5.82231E-07-4.61565E-20-1.96444E-18
 -1      4000 9.46852E-05-2.76290E-05-2.87409E-05-4.85939E-07-6.99033E-20-1.72460E-18
 -1      4001 9.44167E-05-2.73094E-05-2.87571E-05-5.21864E-07-2.43210E-19-3.33678E-18
 -1      4002 9.47959E-05-2.77630E-05-2.87281E-05-4.18697E-07-3.08153E-19-1.88331E-18
 -1      4003 9.48691E-05-2.78748E-05-2.87138E-05-3.43974E-07 2.21180E-20-2.44577E-18
 -1      4004 9.46731E-05-2.76242E-05-2.87329E-05-3.78841E-07-2.08070E-19-3.25630E-18
 -1      4005 9.49498E-05-2.79796E-05-2.87012E-05-2.92517E-07 1.30176E-19-2.84385E-18
 -1      4006 9.50021E-05-2.80664E-05-2.86882E-05-2.35536E-07-7.70066E-19-2.26428E-18
 -1      4007 9.48623E-05-2.78733E-05-2.87079E-05-2.67620E-07 7.53511E-20-3.67599E-18
 -1      4008 9.50595E-05-2.81470E-05-2.86765E-05-1.96819E-07-1.11395E-18-1.31273E-18
 -1      4009 9.50958E-05-2.82135E-05-2.86650E-05-1.54112E-07-2.09318E-19-1.87721E-18
 -1      4010 9.49988E-05-2.80670E-05-2.86838E-05-1.82654E-07-2.50875E-19-1.85260E-18
 -1      4011 9.51354E-05-2.82742E-05-2.86545E-05-1.25807E-07 7.43487E-19-1.40409E-18
 -1      4012 9.51596E-05-2.83242E-05-2.86446E-05-9.42449E-08 2.06788E-18-1.49741E-18
 -1      4013 9.50948E-05-2.82155E-05-2.86617E-05-1.19077E-07 5.71315E-19-1.17520E-18
 -1      4014 9.51861E-05-2.83694E-05-2.86354E-05-7.39325E-08 2.37919E-18-1.71442E-18
 -1      4015 9.52013E-05-2.84063E-05-2.86270E-05-5.15087E-08 1.86710E-18-1.12784E-18
 -1      4016 9.51596E-05-2.83272E-05-2.86421E-05-7.25238E-08 2.40533E-18-2.75550E-18
 -1      4017 8.75417E-05-2.33143E-05-2.75494E-05 7.72193E-06-1.15969E-18 1.15715E-19
 -1      4018 8.73732E-05-2.36387E-05-2.72909E-05 8.65754E-06-5.74052E-19 5.14424E-19
 -1      4019 8.90552E-05-1.84779E-05-3.02642E-05-2.58488E-06 1.25421E-21-1.68609E-20
 -1      4020 8.85494E-05-1.87250E-05-2.99060E-05-2.88402E-06 1.39643E-20-4.82603E-20
 -1      4021 8.61568E-05-2.92194E-05-2.43516E-05 1.82436E-05 4.82577E-20 7.43434E-19
 -1      4022 9.30417E-05-2.78036E-05-2.79242E-05-1.18772E-05-1.08160E-19 2.27687E-19
 -1      4023 9.23038E-05-2.64980E-05-2.82041E-05-1.09087E-05-7.59565E-20 3.67062E-19
 -1      4024 9.05853E-05-2.70794E-05-2.72470E-05-1.29182E-05-3.30788E-19 4.51485E-19
 -1      4025 8.72392E-05-1.75942E-05-2.98240E-05-1.36745E-06-1.50591E-19-2.02570E-19
 -1      4026 8.72188E-05-1.68487E-05-3.01656E-05-7.05527E-07-2.58744E-20-2.31159E-19
 -1      4027 8.71159E-05-1.67738E-05-3.01632E-05-1.46512E-07-3.98279E-20-3.21235E-19
 -1      4028 8.62461E-05-2.54695E-05-2.60596E-05 1.26970E-05-1.43198E-19 8.83827E-19
 -1      4029 8.72126E-05-2.70616E-05-2.57024E-05 1.41998E-05-3.41136E-19 7.31254E-19
 -1      4030 8.85977E-05-2.32695E-05-2.80169E-05 6.11199E-06-9.69187E-19 1.08694E-20
 -1      4031 8.82712E-05-2.33030E-05-2.78289E-05 6.84366E-06-1.03029E-18-1.06284E-19
 -1      4032 8.64068E-05-2.23353E-05-2.74425E-05 6.63547E-06-1.00135E-18 7.45769E-19
 -1      4033 9.52379E-05-2.84950E-05-2.86040E-05-1.00782E-08-2.22059E-19-3.34406E-19
 -1      4034 8.96736E-05-2.35754E-05-2.83433E-05 4.86366E-06-7.78248E-19 5.30183E-19
 -1      4035 8.92895E-05-2.34376E-05-2.82141E-05 5.45032E-06-8.96617E-19-2.60004E-20
 -1      4036 8.78368E-05-2.26126E-05-2.79379E-05 5.16881E-06-1.02923E-18 4.63456E-19
 -1      4037 9.06864E-05-2.40756E-05-2.85601E-05 3.87050E-06-2.81418E-19 7.57693E-19
 -1      4038 9.03010E-05-2.38439E-05-2.84770E-05 4.34985E-06-8.91511E-19 2.50646E-19
 -1      4039 8.91544E-05-2.31319E-05-2.82819E-05 4.06148E-06-9.23822E-19 6.54875E-19
 -1      4040 9.15943E-05-2.46639E-05-2.86948E-05 3.06689E-06-5.24783E-19 1.14006E-18
 -1      4041 9.12378E-05-2.43905E-05-2.86462E-05 3.46287E-06-3.05282E-20 1.16903E-18
 -1      4042 9.03281E-05-2.37751E-05-2.85111E-05 3.19938E-06-3.94281E-19 5.51149E-19
 -1      4043 9.23797E-05-2.52694E-05-2.87701E-05 2.41139E-06-1.77543E-18 1.56865E-18
 -1      4044 9.20666E-05-2.49884E-05-2.87461E-05 2.73944E-06-1.09347E-18 1.47327E-18
 -1      4045 9.13455E-05-2.44601E-05-2.86554E-05 2.51440E-06-1.22733E-18 2.07238E-18
 -1      4046 9.30398E-05-2.58473E-05-2.88038E-05 1.87629E-06-8.18098E-19 1.42004E-18
 -1      4047 9.27749E-05-2.55799E-05-2.87967E-05 2.14710E-06-1.28196E-18 1.34470E-18
 -1      4048 9.22067E-05-2.51316E-05-2.87384E-05 1.96383E-06-1.22579E-18 7.70678E-19
 -1      4049 9.35811E-05-2.63714E-05-2.88099E-05 1.44158E-06-7.69440E-19 9.16257E-19
 -1      4050 9.33637E-05-2.61298E-05-2.88137E-05 1.66332E-06-8.18888E-19 8.64055E-19
 -1      4051 9.29202E-05-2.57547E-05-2.87786E-05 1.51965E-06-3.96266E-19 1.78959E-19
 -1      4052 9.40153E-05-2.68294E-05-2.87986E-05 1.09144E-06 5.51018E-20 1.19319E-18
 -1      4053 9.38414E-05-2.66190E-05-2.88088E-05 1.27100E-06-5.39932E-19 8.57635E-19
 -1      4054 9.34993E-05-2.63102E-05-2.87901E-05 1.16213E-06-7.86179E-19-5.53301E-19
 -1      4055 9.43564E-05-2.72178E-05-2.87774E-05 8.12522E-07-8.35413E-20 1.81902E-18
 -1      4056 9.42203E-05-2.70400E-05-2.87909E-05 9.56078E-07 2.59898E-19 1.57137E-18
 -1      4057 9.39604E-05-2.67898E-05-2.87833E-05 8.76273E-07-1.27895E-19-1.53565E-19
 -1      4058 9.46187E-05-2.75388E-05-2.87514E-05 5.93148E-07 3.60000E-19 2.41709E-18
 -1      4059 9.45148E-05-2.73924E-05-2.87662E-05 7.06324E-07 6.66571E-20 2.38615E-18
 -1      4060 9.43203E-05-2.71930E-05-2.87657E-05 6.49898E-07-1.44444E-19 7.45182E-19
 -1      4061 9.48164E-05-2.77985E-05-2.87242E-05 4.22995E-07 6.67285E-19 2.76508E-18
 -1      4062 9.47387E-05-2.76804E-05-2.87388E-05 5.10906E-07 7.38748E-19 2.42742E-18
 -1      4063 9.45960E-05-2.75241E-05-2.87427E-05 4.72697E-07 5.67404E-19 1.74794E-18
 -1      4064 9.49619E-05-2.80041E-05-2.86979E-05 2.92987E-07 4.72660E-19 2.75832E-18
 -1      4065 9.49052E-05-2.79109E-05-2.87114E-05 3.60210E-07 8.37517E-19 3.32418E-18
 -1      4066 9.48027E-05-2.77905E-05-2.87177E-05 3.35800E-07 3.13286E-19 1.26035E-18
 -1      4067 9.50662E-05-2.81639E-05-2.86737E-05 1.95211E-07 8.24137E-19 1.16417E-18
 -1      4068 9.50261E-05-2.80917E-05-2.86858E-05 2.45777E-07 4.37841E-19 1.82327E-18
 -1      4069 9.49542E-05-2.80005E-05-2.86932E-05 2.31572E-07 1.50699E-18 9.18993E-19
 -1      4070 9.51389E-05-2.82860E-05-2.86522E-05 1.23073E-07 1.01515E-20-2.71798E-19
 -1      4071 9.51115E-05-2.82310E-05-2.86627E-05 1.60331E-07 6.62448E-19 3.32829E-19
 -1      4072 9.50626E-05-2.81633E-05-2.86702E-05 1.53304E-07 1.27785E-18 3.65857E-19
 -1      4073 9.51874E-05-2.83774E-05-2.86335E-05 7.08581E-08-2.02636E-18 8.81670E-19
 -1      4074 9.51695E-05-2.83363E-05-2.86425E-05 9.78433E-08-1.44542E-18 9.45600E-21
 -1      4075 9.51375E-05-2.82867E-05-2.86497E-05 9.58654E-08-1.04807E-18-7.01559E-19
 -1      4076 9.52183E-05-2.84446E-05-2.86176E-05 3.44476E-08-8.64097E-19 1.04367E-18
 -1      4077 9.52074E-05-2.84146E-05-2.86252E-05 5.29867E-08-7.06810E-19 7.87504E-19
 -1      4078 9.51873E-05-2.83792E-05-2.86316E-05 5.44594E-08-1.37989E-18-6.22738E-19
 -1      4079 8.59022E-05-1.96871E-05-2.84105E-05 5.17183E-06-3.98492E-19-5.02959E-20
 -1      4080 8.50391E-05-1.98779E-05-2.79315E-05 6.03729E-06-4.17198E-19-1.18775E-19
 -1      4081 8.30310E-05-1.88878E-05-2.74342E-05 4.89802E-06-4.11697E-19-4.06154E-19
 -1      4082 9.22154E-05-2.13079E-05-3.03923E-05-3.51859E-06 1.12956E-19-5.81655E-19
 -1      4083 9.61760E-05-3.33973E-05-2.68705E-05-1.55818E-05-5.73157E-19 5.75359E-19
 -1      4084 9.21441E-05-3.07019E-05-2.63696E-05-1.60994E-05-6.09930E-19 5.15805E-19
 -1      4085 7.86154E-05-2.28640E-05-2.38415E-05 1.53500E-05 2.08366E-19-8.52969E-19
 -1      4086 7.24041E-05-1.98889E-05-2.24042E-05 1.39005E-05 1.78502E-19-8.65992E-19
 -1      4087 7.28020E-05-1.85962E-05-2.32277E-05 1.01847E-05-1.60099E-19-9.25068E-19
 -1      4088 7.85240E-05-2.13056E-05-2.45782E-05 1.27560E-05 2.66650E-20-6.02533E-19
 -1      4089 8.84970E-05-2.91293E-05-2.54003E-05-1.70010E-05-7.21298E-19 2.54446E-19
 -1      4090 8.73969E-05-2.70144E-05-2.59040E-05-1.50397E-05-6.57279E-19 3.16943E-19
 -1      4091 8.66591E-05-2.39307E-05-2.69083E-05 9.84050E-06 2.19744E-19 1.79138E-19
 -1      4092 8.68069E-05-2.47223E-05-2.65702E-05 1.10754E-05 3.89385E-19 8.09141E-19
 -1      4093 8.49467E-05-2.24900E-05-2.67526E-05 8.62821E-06-3.37936E-19 1.13843E-18
 -1      4094 9.00447E-05-1.93548E-05-3.02989E-05-2.91477E-06 1.10750E-19-2.18780E-19
 -1      4095 9.52219E-05-2.84558E-05-2.86141E-05-2.06980E-08 1.48963E-18-3.59216E-19
 -1      4096 9.52180E-05-2.84492E-05-2.86155E-05-1.69706E-08 1.01222E-18-1.83211E-18
 -1      4097 9.88765E-05-3.64763E-05-2.67420E-05-1.63270E-05-4.60581E-19 8.89977E-19
 -1      4098 7.08428E-05-1.67801E-05-2.32362E-05 4.20655E-06-3.72514E-19-6.00996E-19
 -1      4099 6.92722E-05-1.60188E-05-2.27549E-05-1.29158E-06-5.31169E-19-3.29119E-19
 -1      4100 9.17847E-05-3.33796E-05-2.49328E-05-2.00414E-05-6.90243E-19 5.71248E-19
 -1      4101 9.52351E-05-2.84852E-05-2.86070E-05-1.62029E-08 1.29347E-18-3.63355E-20
 -1      4102 8.86476E-05-1.96194E-05-2.95868E-05-3.88222E-06-3.14839E-20-4.03552E-20
 -1      4103 8.76753E-05-1.88376E-05-2.95217E-05-3.18781E-06-9.20146E-20-1.09749E-19
 -1      4104 8.16154E-05-2.58803E-05-2.39009E-05 1.71810E-05-8.45751E-21 1.59081E-18
 -1      4105 8.75418E-05-2.98091E-05-2.47611E-05-1.85747E-05-6.35645E-19 1.97514E-19
 -1      4106 7.55617E-05-2.18937E-05-2.29438E-05-1.47810E-05-6.40390E-19-1.56747E-19
 -1      4107 9.10158E-05-2.03564E-05-3.02853E-05-3.48164E-06 1.76349E-19-4.71255E-19
 -1      4108 7.66318E-05-1.92592E-05-2.46019E-05 9.63554E-06-2.92749E-19-7.44444E-19
 -1      4109 8.68968E-05-1.89039E-05-2.91229E-05-3.16679E-06-1.74878E-19 4.28382E-20
 -1      4110 8.69066E-05-1.81723E-05-2.94573E-05-2.13604E-06-1.97520E-19-6.58010E-20
 -1      4111 8.64481E-05-1.78287E-05-2.94303E-05-1.25526E-06-2.62299E-19-2.19896E-19
 -1      4112 7.66849E-05-2.01055E-05-2.42380E-05-1.10998E-05 1.87289E-19 6.92768E-19
 -1      4113 8.42590E-05-2.44051E-05-2.56742E-05-1.37138E-05-5.54550E-19-1.48826E-20
 -1      4114 8.78906E-05-2.58078E-05-2.65686E-05-1.31250E-05-5.23860E-19 3.18646E-19
 -1      4115 8.75584E-05-2.45366E-05-2.70320E-05-1.16253E-05-4.43840E-19 9.92629E-20
 -1      4116 9.51968E-05-2.84004E-05-2.86271E-05-3.97980E-08 2.83974E-18-5.07497E-19
 -1      4117 9.52136E-05-2.84300E-05-2.86212E-05-3.91135E-08 1.95043E-18 5.81988E-20
 -1      4118 6.47626E-05-1.56002E-05-2.08598E-05 7.42075E-06 9.11343E-19 1.23708E-18
 -1      4119 6.55869E-05-1.54396E-05-2.14570E-05 2.42634E-06 1.34781E-19 1.03314E-18
 -1      4120 6.98996E-05-1.82429E-05-2.20862E-05 1.05744E-05 5.29895E-19 2.00233E-18
 -1      4121 9.52237E-05-2.84582E-05-2.86140E-05-2.36810E-08 2.47157E-18 6.40381E-19
 -1      4122 7.05335E-05-1.65694E-05-2.30855E-05-4.07936E-06-6.34302E-19-2.73261E-19
 -1      4123 7.27871E-05-1.78617E-05-2.35784E-05-7.45092E-06-5.84738E-19-1.64632E-19
 -1      4124 7.39557E-05-1.71913E-05-2.43208E-05-2.32882E-06-5.58713E-19-2.17670E-19
 -1      4125 9.52412E-05-2.85117E-05-2.85984E-05 3.71375E-10 1.23365E-18-3.05203E-18
 -1      4126 9.52388E-05-2.85018E-05-2.86016E-05 4.35333E-09 1.86938E-18-1.36410E-18
 -1      4127 9.52393E-05-2.85063E-05-2.86000E-05 1.95602E-09 1.67668E-18-4.77456E-18
 -1      4128 9.52141E-05-2.84428E-05-2.86164E-05-9.64241E-09 2.02734E-19-3.27739E-18
 -1      4129 9.52124E-05-2.84403E-05-2.86168E-05-4.40135E-09 5.21318E-19-2.59181E-18
 -1      4130 9.52048E-05-2.84181E-05-2.86223E-05-1.96354E-08 1.66888E-18-1.92005E-18
 -1      4131 8.36147E-05-2.34024E-05-2.58228E-05 1.14586E-05 1.24255E-19 6.41529E-19
 -1      4132 9.52246E-05-2.84582E-05-2.86140E-05 2.70568E-08-1.06403E-18 3.83269E-19
 -1      4133 9.52125E-05-2.84334E-05-2.86196E-05 2.96718E-08-7.80353E-19-2.58761E-18
 -1      4134 9.52280E-05-2.84701E-05-2.86107E-05 1.91827E-08-3.21644E-19-5.80109E-19
 -1      4135 8.54235E-05-1.87992E-05-2.85297E-05 3.61510E-06-4.41703E-19-1.44959E-19
 -1      4136 9.52345E-05-2.84942E-05-2.86032E-05 2.01704E-09 9.79187E-19-2.53417E-18
 -1      4137 9.52361E-05-2.84982E-05-2.86020E-05 1.84814E-09 9.43069E-19-4.27937E-18
 -1      4138 9.52325E-05-2.84864E-05-2.86055E-05 4.59665E-09 8.55175E-19-4.39906E-18
 -1      4139 9.52269E-05-2.84716E-05-2.86091E-05 2.39945E-09 9.88214E-19-3.51274E-18
 -1      4140 6.78313E-05-1.70341E-05-2.16861E-05-9.42049E-06 5.05761E-19-1.20039E-18
 -1      4141 7.33179E-05-1.88801E-05-2.32462E-05-1.02991E-05 8.49281E-19-3.81666E-19
 -1      4142 7.48239E-05-1.83287E-05-2.42697E-05-7.50597E-06 1.88727E-19-7.42920E-19
 -1      4143 6.73025E-05-1.59483E-05-2.20753E-05-4.66433E-06 5.39569E-19-5.27189E-19
 -1      4144 7.40019E-05-1.79303E-05-2.39405E-05 7.71253E-06-2.06214E-19-8.19739E-19
 -1      4145 8.69495E-05-1.73307E-05-2.98105E-05 2.01011E-07-3.85092E-20-3.44251E-19
 -1      4146 8.72086E-05-1.68408E-05-3.01726E-05 5.41146E-07-1.20811E-20-2.63362E-19
 -1      4147 8.74775E-05-1.70826E-05-3.01827E-05 9.50717E-07-3.29553E-20-2.23060E-19
 -1      4148 9.05487E-05-2.49225E-05-2.81353E-05-1.02076E-05-2.81018E-19 1.04203E-19
 -1      4149 8.85082E-05-1.77429E-05-3.03191E-05 1.87969E-06-1.88910E-19-2.82871E-20
 -1      4150 8.77556E-05-1.84414E-05-2.96941E-05 2.52828E-06-2.12185E-19 4.20838E-20
 -1      4151 8.66661E-05-1.80259E-05-2.94139E-05 1.94545E-06-3.38123E-19-1.35104E-19
 -1      4152 9.04936E-05-2.05576E-05-2.99601E-05-4.11789E-06 1.07161E-21-2.29904E-19
 -1      4153 8.25871E-05-2.57727E-05-2.42625E-05-1.70994E-05-6.75588E-19-2.09965E-19
 -1      4154 7.49051E-05-1.75203E-05-2.46229E-05 4.23972E-06-2.20217E-19-6.28136E-19
 -1      4155 9.04372E-05-2.13826E-05-2.96002E-05-5.18613E-06-1.81811E-19-3.62760E-19
 -1      4156 8.94069E-05-2.03669E-05-2.95957E-05-4.58345E-06-1.09441E-19-4.91762E-20
 -1      4157 8.85817E-05-2.03864E-05-2.92118E-05-4.94276E-06-1.07612E-19-7.54167E-20
 -1      4158 9.03358E-05-2.20212E-05-2.92678E-05-6.22730E-06-2.57402E-19-2.44842E-19
 -1      4159 8.95964E-05-2.31307E-05-2.84710E-05-8.33121E-06-4.58864E-19-2.96067E-19
 -1      4160 8.98256E-05-2.25172E-05-2.88519E-05-7.23710E-06-3.22471E-19-3.55958E-19
 -1      4161 8.88424E-05-2.16409E-05-2.88035E-05-6.67296E-06-3.14280E-19-3.09931E-19
 -1      4162 9.51767E-05-2.83620E-05-2.86345E-05-3.96687E-08 2.83923E-18-1.64263E-18
 -1      4163 9.51894E-05-2.83906E-05-2.86284E-05-2.71052E-08 2.69860E-18-1.30235E-18
 -1      4164 9.51854E-05-2.83849E-05-2.86292E-05-1.76946E-08 1.85227E-18-1.78114E-18
 -1      4165 7.76422E-05-2.22778E-05-2.37607E-05 1.38838E-05-5.85776E-20 1.41791E-18
 -1      4166 8.11091E-05-1.94207E-05-2.64518E-05-4.20159E-06-6.89817E-19 5.12389E-20
 -1      4167 8.24620E-05-1.98181E-05-2.68849E-05-3.66006E-06-1.77182E-19-2.81910E-19
 -1      4168 8.39359E-05-2.03146E-05-2.72757E-05-3.35475E-06 4.25555E-19-6.06131E-19
 -1      4169 8.50506E-05-2.07684E-05-2.75737E-05-2.95463E-06 5.66541E-19-4.97831E-19
 -1      4170 8.25692E-05-1.95855E-05-2.69429E-05-2.01228E-06-4.66455E-19 7.29850E-19
 -1      4171 8.62247E-05-2.12818E-05-2.78411E-05-2.73480E-06 7.92911E-19-5.55038E-19
 -1      4172 8.71443E-05-2.17509E-05-2.80430E-05-2.42560E-06 1.03982E-18-3.80069E-19
 -1      4173 8.51618E-05-2.06749E-05-2.76055E-05-1.67038E-06 8.21642E-19 7.75640E-19
 -1      4174 8.80950E-05-2.22567E-05-2.82233E-05-2.24839E-06 7.31602E-19-6.14452E-19
 -1      4175 8.88551E-05-2.27217E-05-2.83559E-05-1.99544E-06 2.50317E-19-7.44230E-20
 -1      4176 8.72505E-05-2.17281E-05-2.80575E-05-1.40936E-06 5.93820E-19-7.09534E-19
 -1      4177 8.96300E-05-2.32043E-05-2.84736E-05-1.84623E-06 1.42604E-19-2.92813E-19
 -1      4178 9.02549E-05-2.36464E-05-2.85566E-05-1.63205E-06 3.98982E-19-4.17967E-19
 -1      4179 8.89511E-05-2.27379E-05-2.83590E-05-1.18630E-06 2.23800E-19-9.69554E-19
 -1      4180 9.08860E-05-2.40927E-05-2.86299E-05-1.50378E-06 1.24236E-19-4.19183E-19
 -1      4181 9.13949E-05-2.44984E-05-2.86780E-05-1.32019E-06 1.99225E-19-3.83342E-19
 -1      4182 9.03387E-05-2.36824E-05-2.85528E-05-9.87987E-07 4.10947E-19-1.66698E-18
 -1      4183 9.19056E-05-2.48996E-05-2.87201E-05-1.20979E-06 3.28204E-19-7.51265E-19
 -1      4184 9.23153E-05-2.52607E-05-2.87442E-05-1.05283E-06 5.40440E-19-1.20485E-19
 -1      4185 9.14665E-05-2.45429E-05-2.86704E-05-8.10394E-07 3.30923E-19-1.11583E-18
 -1      4186 9.27244E-05-2.56120E-05-2.87648E-05-9.58788E-07 2.56279E-19-1.40404E-18
 -1      4187 9.30499E-05-2.59252E-05-2.87730E-05-8.26060E-07-1.74811E-19-1.98716E-18
 -1      4188 9.23754E-05-2.53071E-05-2.87348E-05-6.53094E-07-3.04136E-19-1.33327E-18
 -1      4189 9.33736E-05-2.62256E-05-2.87794E-05-7.47216E-07-7.77512E-19-1.79754E-18
 -1      4190 9.36284E-05-2.64909E-05-2.87774E-05-6.36676E-07-1.11824E-18-2.38056E-18
 -1      4191 9.30997E-05-2.59695E-05-2.87632E-05-5.16420E-07-1.12869E-18-2.40324E-18
 -1      4192 9.38810E-05-2.67424E-05-2.87749E-05-5.71780E-07-1.12721E-18-3.64738E-18
 -1      4193 9.40775E-05-2.69625E-05-2.87669E-05-4.81273E-07-9.10122E-19-3.44778E-18
 -1      4194 9.36692E-05-2.65312E-05-2.87681E-05-4.00259E-07-1.37782E-18-3.33314E-18
 -1      4195 9.42715E-05-2.71688E-05-2.87592E-05-4.28875E-07-5.93671E-19-3.57243E-18
 -1      4196 9.44206E-05-2.73479E-05-2.87480E-05-3.56068E-07-4.93176E-19-3.52069E-18
 -1      4197 9.41104E-05-2.69978E-05-2.87585E-05-3.03727E-07-5.66481E-19-4.32423E-18
 -1      4198 9.45671E-05-2.75140E-05-2.87376E-05-3.14573E-07 1.97450E-19-3.11006E-18
 -1      4199 9.46780E-05-2.76571E-05-2.87253E-05-2.57042E-07 1.27208E-19-2.84712E-18
 -1      4200 9.44467E-05-2.73781E-05-2.87406E-05-2.25242E-07-2.18072E-19-3.14461E-18
 -1      4201 9.47865E-05-2.77885E-05-2.87138E-05-2.24807E-07 3.60076E-22-2.55224E-18
 -1      4202 9.48675E-05-2.79009E-05-2.87015E-05-1.80160E-07 3.11956E-19-2.83636E-18
 -1      4203 9.46984E-05-2.76823E-05-2.87189E-05-1.62758E-07 4.08776E-19-2.86848E-18
 -1      4204 9.49461E-05-2.80030E-05-2.86901E-05-1.55672E-07 9.88834E-19-2.48795E-18
 -1      4205 9.50038E-05-2.80895E-05-2.86786E-05-1.21739E-07 2.65785E-19-1.44697E-18
 -1      4206 9.48831E-05-2.79215E-05-2.86962E-05-1.14006E-07 2.14539E-19-2.01058E-18
 -1      4207 9.50590E-05-2.81676E-05-2.86679E-05-1.02889E-07 8.44431E-20-6.72249E-19
 -1      4208 9.50993E-05-2.82337E-05-2.86575E-05-7.79967E-08 1.16301E-18-1.03031E-18
 -1      4209 9.50151E-05-2.81055E-05-2.86742E-05-7.67460E-08 9.30199E-19-7.94227E-19
 -1      4210 9.51280E-05-2.82770E-05-2.86503E-05-6.71788E-08 1.97755E-18-5.65052E-19
 -1      4211 9.51553E-05-2.83270E-05-2.86411E-05-4.87057E-08 2.66027E-18-9.32840E-19
 -1      4212 9.51479E-05-2.83154E-05-2.86423E-05-3.20007E-08 1.91484E-18 1.54593E-18
 -1      4213 9.50980E-05-2.82329E-05-2.86562E-05-4.98051E-08 1.75012E-18 1.34004E-18
 -1      4214 8.03967E-05-2.20053E-05-2.49611E-05 1.13670E-05-1.25870E-19 7.94393E-19
 -1      4215 7.48785E-05-2.02536E-05-2.33981E-05 1.21784E-05 3.15394E-19 1.65819E-18
 -1      4216 7.28766E-05-1.82340E-05-2.34412E-05 8.24148E-06 2.68440E-19 2.04873E-18
 -1      4217 8.08755E-05-2.14080E-05-2.55160E-05 9.73369E-06 1.73933E-19 8.16384E-19
 -1      4218 8.54582E-05-2.15515E-05-2.74188E-05 5.12543E-06-8.89939E-19 5.73036E-19
 -1      4219 8.47062E-05-2.14097E-05-2.71178E-05 5.89006E-06-6.88049E-19 7.28592E-19
 -1      4220 9.00793E-05-2.36160E-05-2.84967E-05 2.39571E-06-8.70064E-19 1.10905E-18
 -1      4221 8.95228E-05-2.32520E-05-2.84026E-05 2.73924E-06-7.39352E-19 3.64105E-19
 -1      4222 9.11862E-05-2.43802E-05-2.86408E-05 1.86451E-06-1.37760E-18 1.46007E-18
 -1      4223 9.07101E-05-2.40182E-05-2.85836E-05 2.14032E-06-6.30368E-19 1.63495E-18
 -1      4224 9.00259E-05-2.35158E-05-2.84896E-05 1.68326E-06-1.05512E-18 1.99328E-20
 -1      4225 9.21059E-05-2.51007E-05-2.87241E-05 1.44285E-06-3.89813E-20-4.18172E-19
 -1      4226 9.17075E-05-2.47605E-05-2.86930E-05 1.66619E-06-7.53098E-19 7.46465E-20
 -1      4227 9.11695E-05-2.43353E-05-2.86318E-05 1.29514E-06 6.58873E-20-9.32970E-19
 -1      4228 9.28577E-05-2.57531E-05-2.87651E-05 1.10673E-06-5.83047E-19-1.01602E-18
 -1      4229 9.25311E-05-2.54462E-05-2.87520E-05 1.28781E-06-6.33405E-19-7.78079E-19
 -1      4230 9.21097E-05-2.50892E-05-2.87141E-05 9.92396E-07 1.43034E-20-2.11194E-18
 -1      4231 9.34620E-05-2.63248E-05-2.87777E-05 8.39228E-07-3.54898E-19-8.62050E-19
 -1      4232 9.31995E-05-2.60571E-05-2.87765E-05 9.85403E-07-4.90384E-19-5.54724E-19
 -1      4233 9.28719E-05-2.57607E-05-2.87550E-05 7.54802E-07-6.56948E-19-1.19867E-18
 -1      4234 9.39395E-05-2.68124E-05-2.87723E-05 6.27551E-07-3.38982E-19-5.12921E-19
 -1      4235 9.37324E-05-2.65850E-05-2.87784E-05 7.44605E-07-6.03911E-19-1.17338E-18
 -1      4236 9.34806E-05-2.63424E-05-2.87682E-05 5.68216E-07-4.85268E-19-1.08974E-18
 -1      4237 9.43099E-05-2.72184E-05-2.87563E-05 4.61502E-07-3.10705E-19-5.82373E-19
 -1      4238 9.41498E-05-2.70298E-05-2.87664E-05 5.54250E-07-4.97903E-19-4.88128E-19
 -1      4239 9.39587E-05-2.68342E-05-2.87637E-05 4.22215E-07-5.52880E-19-2.17509E-18
 -1      4240 9.45920E-05-2.75492E-05-2.87347E-05 3.32647E-07 2.60418E-19 2.94283E-19
 -1      4241 9.44706E-05-2.73962E-05-2.87467E-05 4.05241E-07 2.62891E-19 1.31228E-19
 -1      4242 9.43279E-05-2.72408E-05-2.87487E-05 3.08742E-07-4.14920E-19-2.28933E-18
 -1      4243 9.48026E-05-2.78135E-05-2.87112E-05 2.33901E-07 9.64488E-19 4.89532E-20
 -1      4244 9.47124E-05-2.76917E-05-2.87235E-05 2.89951E-07 6.26849E-19 2.82287E-19
 -1      4245 9.46078E-05-2.75702E-05-2.87282E-05 2.21359E-07 8.81302E-19-2.18509E-18
 -1      4246 9.49561E-05-2.80207E-05-2.86878E-05 1.59254E-07 1.85703E-18 1.53127E-20
 -1      4247 9.48909E-05-2.79256E-05-2.86997E-05 2.01925E-07 1.16936E-18 3.71650E-19
 -1      4248 9.48157E-05-2.78322E-05-2.87057E-05 1.54848E-07 1.15013E-18-1.42214E-18
 -1      4249 9.50647E-05-2.81799E-05-2.86659E-05 1.03431E-07 1.36201E-18-7.29058E-19
 -1      4250 9.50192E-05-2.81069E-05-2.86768E-05 1.35836E-07 1.91947E-18-7.62446E-19
 -1      4251 9.49668E-05-2.80371E-05-2.86833E-05 1.05152E-07 1.61976E-18-1.60358E-18
 -1      4252 9.51401E-05-2.83007E-05-2.86462E-05 6.38359E-08-9.72464E-19-1.52595E-18
 -1      4253 9.51099E-05-2.82463E-05-2.86558E-05 8.68359E-08 7.83484E-19-1.22341E-18
 -1      4254 9.50737E-05-2.81947E-05-2.86621E-05 6.90923E-08 1.97221E-18-8.72767E-19
 -1      4255 9.51900E-05-2.83904E-05-2.86288E-05 3.46497E-08-8.45353E-19-2.64958E-18
 -1      4256 9.51698E-05-2.83496E-05-2.86372E-05 5.05491E-08-1.50798E-18-2.77509E-18
 -1      4257 9.51457E-05-2.83099E-05-2.86430E-05 4.13533E-08-5.33774E-19-3.04411E-18
 -1      4258 8.28668E-05-1.84531E-05-2.76418E-05 2.66815E-06-5.07765E-19-1.23550E-19
 -1      4259 8.13850E-05-1.84052E-05-2.70227E-05 3.26770E-06-3.85612E-19-1.93750E-19
 -1      4260 8.72336E-05-2.21342E-05-2.79217E-05 3.95262E-06-1.37451E-18 7.91014E-19
 -1      4261 8.65287E-05-2.18680E-05-2.77092E-05 4.52004E-06-9.37725E-19 7.00688E-19
 -1      4262 8.50645E-05-2.10080E-05-2.74201E-05 3.76384E-06-9.82659E-19 4.13194E-19
 -1      4263 8.62785E-05-1.76415E-05-2.94190E-05-2.52150E-07-2.38917E-19-3.75865E-19
 -1      4264 8.63012E-05-1.76700E-05-2.94255E-05 4.66454E-07-2.75607E-19-3.00114E-19
 -1      4265 8.58664E-05-1.80723E-05-2.90413E-05-1.02627E-06-3.14023E-19-2.63510E-19
 -1      4266 8.34192E-05-2.12166E-05-2.67038E-05 6.78413E-06-5.28123E-19 1.06623E-18
 -1      4267 8.27386E-05-2.13246E-05-2.62992E-05 7.81704E-06-4.03653E-19 8.44093E-19
 -1      4268 8.27089E-05-2.03008E-05-2.67038E-05 5.04930E-06-4.51305E-19 7.99864E-19
 -1      4269 8.87673E-05-2.28479E-05-2.82675E-05 3.07267E-06-3.90242E-19 6.65382E-19
 -1      4270 8.81324E-05-2.25116E-05-2.81228E-05 3.50819E-06-7.25581E-19 8.10473E-19
 -1      4271 8.86508E-05-2.26589E-05-2.82633E-05 2.18738E-06-4.82120E-19 2.62475E-20
 -1      4272 7.76363E-05-1.85782E-05-2.52804E-05-5.48110E-06 2.31149E-19 4.45480E-20
 -1      4273 7.91880E-05-1.88910E-05-2.58876E-05-4.67270E-06 1.19236E-19 2.35984E-19
 -1      4274 7.91993E-05-1.84651E-05-2.59816E-05-2.54672E-06-1.81071E-19 5.03779E-19
 -1      4275 8.83476E-05-1.82050E-05-3.00619E-05 2.45478E-06-1.58189E-19 8.59767E-20
 -1      4276 7.41662E-05-1.92300E-05-2.34950E-05-1.06410E-05-6.42236E-19 9.42622E-20
 -1      4277 7.88991E-05-2.30373E-05-2.39702E-05-1.48545E-05-5.76169E-19-1.53300E-19
 -1      4278 8.04513E-05-2.28372E-05-2.46853E-05-1.35619E-05-5.61389E-19-5.06847E-20
 -1      4279 7.63310E-05-1.89865E-05-2.45256E-05-7.99283E-06-6.42170E-19-2.32206E-20
 -1      4280 8.85313E-05-2.41526E-05-2.75690E-05-1.04607E-05-4.72405E-19-4.30771E-20
 -1      4281 8.88151E-05-2.34197E-05-2.80390E-05-9.22399E-06-4.58660E-19-2.13426E-19
 -1      4282 8.75729E-05-2.23986E-05-2.79269E-05-8.59459E-06-5.70698E-19-2.57515E-19
 -1      4283 8.58281E-05-2.29736E-05-2.69286E-05-1.05852E-05-6.12744E-19-1.09494E-20
 -1      4284 7.94800E-05-1.81674E-05-2.63298E-05 3.34471E-06-2.92807E-19-2.25720E-19
 -1      4285 7.74698E-05-1.80012E-05-2.55304E-05 4.09070E-06-2.38125E-19-3.89585E-19
 -1      4286 7.55171E-05-1.69943E-05-2.49713E-05 7.09803E-07-3.74251E-19-4.90464E-20
 -1      4287 7.99439E-05-1.77502E-05-2.65789E-05 9.39776E-07-4.63723E-19 7.19635E-20
 -1      4288 8.59232E-05-1.82193E-05-2.90124E-05 1.50241E-06-4.32193E-19-9.78943E-20
 -1      4289 7.95321E-05-2.00066E-05-2.54833E-05 7.68973E-06 1.65436E-20 1.32187E-18
 -1      4290 8.66143E-05-1.95300E-05-2.87536E-05-4.31052E-06-2.24464E-19 1.56521E-19
 -1      4291 8.57114E-05-1.88425E-05-2.86755E-05-3.16522E-06-2.99468E-19 1.33989E-19
 -1      4292 8.11876E-05-2.18383E-05-2.54576E-05-1.14453E-05-4.42899E-19-9.89118E-20
 -1      4293 7.00892E-05-1.64610E-05-2.30603E-05 3.56404E-06 5.01017E-19 9.76996E-19
 -1      4294 6.81792E-05-1.56913E-05-2.24156E-05-9.18033E-07 3.79011E-19 3.57879E-19
 -1      4295 7.19392E-05-1.67536E-05-2.35956E-05-2.93353E-06 8.31224E-19-8.06838E-19
 -1      4296 7.63581E-05-1.75339E-05-2.52298E-05-1.82745E-06-4.59022E-19 5.07558E-21
 -1      4297 8.49054E-05-1.83751E-05-2.85250E-05 1.89841E-06-4.67849E-19-2.27450E-19
 -1      4298 9.51999E-05-2.84089E-05-2.86246E-05 2.90385E-08-5.09028E-19-3.03121E-18
 -1      4299 9.51855E-05-2.83830E-05-2.86298E-05 2.35150E-08-2.23439E-19-4.84447E-18
 -1      4300 9.52070E-05-2.84259E-05-2.86207E-05 2.05197E-08-2.98946E-19-4.25523E-18
 -1      4301 8.39007E-05-1.80664E-05-2.81774E-05 4.35343E-07-4.13890E-19-1.91535E-19
 -1      4302 9.52154E-05-2.84472E-05-2.86154E-05 1.81657E-09-2.86181E-19-2.85502E-18
 -1      4303 9.52185E-05-2.84536E-05-2.86138E-05 4.77317E-09-9.81688E-20-2.50960E-18
 -1      4304 9.52044E-05-2.84192E-05-2.86217E-05-2.69156E-09-3.00584E-19-1.95521E-18
 -1      4305 7.44957E-05-1.75102E-05-2.43965E-05-4.64609E-06 5.99318E-19-6.66231E-19
 -1      4306 8.70111E-05-2.18050E-05-2.79208E-05 2.85576E-06-9.48614E-19 2.46240E-19
 -1      4307 9.52362E-05-2.84919E-05-2.86046E-05 9.86634E-09 1.12344E-18-6.35762E-19
 -1      4308 9.52277E-05-2.84717E-05-2.86096E-05 1.31394E-08 1.40831E-19-3.85485E-18
 -1      4309 8.80022E-05-2.08955E-05-2.87710E-05-5.90851E-06-2.92724E-19-9.02926E-20
 -1      4310 8.72095E-05-2.01352E-05-2.87531E-05-5.18463E-06-2.47968E-19 2.04252E-20
 -1      4311 8.60243E-05-1.99876E-05-2.82903E-05-5.25403E-06-4.04566E-19 4.81250E-20
 -1      4312 8.74532E-05-2.13371E-05-2.83286E-05-6.93257E-06-5.08155E-19-1.29509E-19
 -1      4313 7.94829E-05-2.02486E-05-2.53700E-05-9.48591E-06-4.51554E-19-7.61320E-20
 -1      4314 8.29356E-05-2.15978E-05-2.62691E-05-9.81239E-06-3.85249E-19-1.62436E-19
 -1      4315 7.80541E-05-1.88386E-05-2.54048E-05-6.55572E-06-4.72594E-19 7.72918E-21
 -1      4316 7.87545E-05-1.89158E-05-2.57008E-05 4.51872E-06 3.52009E-19 5.21512E-19
 -1      4317 7.65609E-05-1.87326E-05-2.48085E-05 6.27232E-06 9.23369E-20 1.21446E-18
 -1      4318 8.15913E-05-1.92854E-05-2.67270E-05-3.98829E-07-6.45083E-19 9.27413E-19
 -1      4319 8.30523E-05-1.98573E-05-2.71086E-05-3.20038E-07-1.81976E-19 1.44197E-18
 -1      4320 8.43763E-05-2.03931E-05-2.74411E-05-4.30631E-07-1.27926E-19 9.71340E-19
 -1      4321 8.55540E-05-2.09250E-05-2.77142E-05-3.76512E-07 7.71169E-19 5.87821E-19
 -1      4322 8.37794E-05-2.00955E-05-2.72461E-05 1.02053E-06-3.97689E-19 4.23417E-20
 -1      4323 8.66150E-05-2.14484E-05-2.79425E-05-4.42139E-07 2.98935E-19-4.82684E-19
 -1      4324 8.75669E-05-2.19645E-05-2.81272E-05-3.89382E-07-8.36976E-20-7.96047E-19
 -1      4325 8.61138E-05-2.11525E-05-2.78046E-05 6.74720E-07-4.50692E-19-9.55276E-19
 -1      4326 8.84317E-05-2.24678E-05-2.82806E-05-4.29059E-07-2.81248E-20-9.45821E-19
 -1      4327 8.92066E-05-2.29572E-05-2.84018E-05-3.73854E-07-3.15607E-19-8.88054E-19
 -1      4328 8.80047E-05-2.21783E-05-2.81848E-05 4.46213E-07-2.25072E-19-1.83767E-18
 -1      4329 8.99147E-05-2.34298E-05-2.85012E-05-3.96101E-07-1.58038E-19-1.59295E-18
 -1      4330 9.05451E-05-2.38820E-05-2.85773E-05-3.39590E-07 5.86150E-19-2.02250E-18
 -1      4331 8.95524E-05-2.31536E-05-2.84367E-05 2.92527E-07-5.74006E-19-2.47753E-18
 -1      4332 9.11230E-05-2.43139E-05-2.86383E-05-3.50650E-07 6.17043E-19-1.84883E-18
 -1      4333 9.16326E-05-2.47208E-05-2.86825E-05-2.95190E-07 2.69292E-20-1.99191E-18
 -1      4334 9.08191E-05-2.40582E-05-2.85967E-05 1.89807E-07 5.26512E-19-2.80716E-18
 -1      4335 9.21004E-05-2.51053E-05-2.87165E-05-2.99441E-07-6.53017E-19-1.64339E-18
 -1      4336 9.25083E-05-2.54624E-05-2.87388E-05-2.47318E-07-9.62048E-19-2.27480E-18
 -1      4337 9.18492E-05-2.48754E-05-2.86915E-05 1.21833E-07-5.34667E-20-3.27923E-18
 -1      4338 9.28826E-05-2.57963E-05-2.87545E-05-2.47735E-07-9.17146E-19-2.61042E-18
 -1      4339 9.32050E-05-2.61026E-05-2.87621E-05-2.00628E-07-1.22543E-18-2.09647E-18
 -1      4340 9.26784E-05-2.55952E-05-2.87410E-05 7.73516E-08-1.09122E-18-3.09727E-18
 -1      4341 9.35006E-05-2.63861E-05-2.87657E-05-1.99142E-07-1.50126E-18-1.25317E-18
 -1      4342 9.37518E-05-2.66431E-05-2.87640E-05-1.58003E-07-1.08922E-18-1.55355E-18
 -1      4343 9.33374E-05-2.62145E-05-2.87602E-05 4.85686E-08-1.01366E-18-2.44263E-18
 -1      4344 9.39817E-05-2.68788E-05-2.87601E-05-1.55800E-07-9.77635E-19-1.69886E-18
 -1      4345 9.41745E-05-2.70902E-05-2.87529E-05-1.20932E-07-5.89913E-19-2.17159E-18
 -1      4346 9.38537E-05-2.67358E-05-2.87597E-05 3.01435E-08-1.01929E-18-1.01016E-18
 -1      4347 9.43503E-05-2.72824E-05-2.87446E-05-1.18685E-07 3.35466E-19-2.49822E-18
 -1      4348 9.44957E-05-2.74531E-05-2.87345E-05-8.99061E-08 5.02271E-19-2.34807E-18
 -1      4349 9.42518E-05-2.71657E-05-2.87474E-05 1.84637E-08-3.86901E-19-1.10802E-18
 -1      4350 9.46277E-05-2.76069E-05-2.87240E-05-8.79518E-08 1.76594E-19-2.11329E-18
 -1      4351 9.47353E-05-2.77422E-05-2.87128E-05-6.47558E-08 3.85358E-20-1.96965E-18
 -1      4352 9.45534E-05-2.75135E-05-2.87286E-05 1.11197E-08 4.27283E-19-1.41828E-18
 -1      4353 9.48324E-05-2.78631E-05-2.87017E-05-6.32227E-08 7.20893E-19-1.84982E-18
 -1      4354 9.49103E-05-2.79685E-05-2.86904E-05-4.49316E-08 1.36909E-18-1.14658E-18
 -1      4355 9.47776E-05-2.77897E-05-2.87071E-05 6.51190E-09 7.71444E-19-1.36256E-18
 -1      4356 9.49802E-05-2.80626E-05-2.86796E-05-4.39279E-08 1.41122E-18-1.99298E-19
 -1      4357 9.50364E-05-2.81431E-05-2.86689E-05-2.96541E-08 1.90658E-18 6.75620E-19
 -1      4358 9.49403E-05-2.80052E-05-2.86851E-05 3.68668E-09 2.04650E-18-1.74500E-19
 -1      4359 9.23774E-05-2.53478E-05-2.87311E-05 4.88195E-07-4.98246E-19-2.32405E-18
 -1      4360 9.19519E-05-2.49937E-05-2.87025E-05 5.96236E-07-1.96868E-19-2.60665E-18
 -1      4361 8.10976E-05-1.82095E-05-2.69872E-05-1.19970E-06-5.26779E-19-4.46123E-20
 -1      4362 7.92558E-05-1.79604E-05-2.63070E-05-1.43981E-06-4.47339E-19-6.83119E-20
 -1      4363 7.43829E-05-1.79541E-05-2.41684E-05 5.27984E-06 4.55588E-19 1.36636E-18
 -1      4364 7.82183E-05-1.81062E-05-2.57139E-05-4.18413E-06-4.40045E-19-1.90519E-19
 -1      4365 9.14811E-05-2.46054E-05-2.86669E-05 6.52839E-07 7.54858E-19-2.44460E-18
 -1      4366 9.09584E-05-2.42107E-05-2.86139E-05 7.91697E-07 5.77712E-19-2.00407E-18
 -1      4367 7.67698E-05-1.78693E-05-2.52263E-05 8.48972E-08 1.00397E-18 6.93426E-20
 -1      4368 7.86314E-05-1.83802E-05-2.58384E-05 1.07594E-07 1.78770E-20 1.79348E-19
 -1      4369 9.03770E-05-2.37781E-05-2.85507E-05 8.69912E-07-3.81846E-19-1.51612E-18
 -1      4370 8.97429E-05-2.33524E-05-2.84628E-05 1.05022E-06-1.06554E-18-1.69999E-18
 -1      4371 9.30958E-05-2.59962E-05-2.87598E-05 3.62696E-07-1.03851E-18-2.55679E-18
 -1      4372 9.27544E-05-2.56875E-05-2.87479E-05 4.47133E-07-8.66055E-19-2.84007E-18
 -1      4373 9.36633E-05-2.65490E-05-2.87652E-05 2.66922E-07-8.04164E-19-2.48320E-18
 -1      4374 9.33936E-05-2.62864E-05-2.87641E-05 3.32892E-07-6.45566E-19-2.23735E-18
 -1      4375 9.41045E-05-2.70100E-05-2.87561E-05 1.93980E-07-9.18316E-19-1.98235E-18
 -1      4376 9.38951E-05-2.67916E-05-2.87617E-05 2.45316E-07-8.49811E-19-2.03376E-18
 -1      4377 9.44418E-05-2.73866E-05-2.87388E-05 1.38692E-07 3.03517E-19-2.03085E-18
 -1      4378 9.42820E-05-2.72087E-05-2.87480E-05 1.78367E-07-3.99073E-19-2.52049E-18
 -1      4379 9.46948E-05-2.76886E-05-2.87175E-05 9.70889E-08 7.59391E-19-2.35451E-18
 -1      4380 9.45753E-05-2.75464E-05-2.87284E-05 1.27466E-07 7.07391E-19-2.31507E-18
 -1      4381 9.48809E-05-2.79262E-05-2.86951E-05 6.60299E-08 1.89510E-18-1.47744E-18
 -1      4382 9.47932E-05-2.78146E-05-2.87064E-05 8.90423E-08 8.66521E-19-1.54266E-18
 -1      4383 9.50147E-05-2.81098E-05-2.86734E-05 4.48033E-08 1.77919E-18-1.11007E-18
 -1      4384 9.49515E-05-2.80235E-05-2.86842E-05 6.01398E-08 1.76870E-18-1.19662E-18
 -1      4385 9.50618E-05-2.81825E-05-2.86631E-05 3.26220E-08 1.47844E-18-5.45880E-19
 -1      4386 9.51577E-05-2.83340E-05-2.86390E-05 1.72107E-08 8.64450E-20-2.19318E-18
 -1      4387 9.51284E-05-2.82830E-05-2.86480E-05 2.77170E-08 4.81338E-19-8.96389E-19
 -1      4388 8.54196E-05-2.10072E-05-2.76294E-05 2.08735E-06-1.04261E-18-6.14999E-19
 -1      4389 8.43337E-05-2.06003E-05-2.73345E-05 2.53153E-06-7.84232E-19-6.29286E-19
 -1      4390 9.52244E-05-2.84638E-05-2.86117E-05 1.22656E-08 2.39784E-19-4.24135E-18
 -1      4391 8.30143E-05-2.01098E-05-2.69973E-05 2.83720E-06-6.52441E-19-6.07606E-21
 -1      4392 8.17519E-05-1.97230E-05-2.65942E-05 3.43856E-06-1.32883E-19 1.73673E-19
 -1      4393 8.90306E-05-2.28836E-05-2.83604E-05 1.15880E-06-7.01995E-19-1.65890E-18
 -1      4394 8.82686E-05-2.24421E-05-2.82238E-05 1.39698E-06-2.83844E-19-1.37456E-18
 -1      4395 8.47745E-05-1.82614E-05-2.85324E-05-1.27747E-06-3.18926E-19-2.84120E-19
 -1      4396 8.27722E-05-1.83041E-05-2.76370E-05-9.75936E-07-4.33329E-19-2.36725E-20
 -1      4397 8.25221E-05-1.84972E-05-2.73952E-05-3.14446E-06-4.18700E-19-1.59883E-19
 -1      4398 8.51244E-05-1.84879E-05-2.85476E-05-2.32647E-06-2.88585E-19-1.02308E-19
 -1      4399 8.73984E-05-2.19488E-05-2.80666E-05 1.54887E-06-2.84712E-19-1.36573E-18
 -1      4400 8.64877E-05-2.15124E-05-2.78629E-05 1.87110E-06-7.07577E-19-8.97259E-19
 -1      4401 8.08757E-05-1.91524E-05-2.64649E-05-5.64359E-06-2.78922E-19-7.17414E-20
 -1      4402 7.96977E-05-1.87680E-05-2.60768E-05 1.98993E-06 2.59663E-19-3.73356E-19
 -1      4403 9.50794E-05-2.82074E-05-2.86588E-05 4.99785E-09 1.27239E-18 5.10342E-19
 -1      4404 9.51045E-05-2.82473E-05-2.86536E-05-2.49718E-08 1.62750E-18 9.49911E-19
 -1      4405 8.39396E-05-2.13787E-05-2.68372E-05-8.81386E-06-5.63166E-19-1.47758E-19
 -1      4406 7.43152E-05-1.71086E-05-2.44812E-05 1.80484E-06 1.11361E-18-5.73732E-21
 -1      4407 7.46594E-05-1.72805E-05-2.46625E-05-1.12735E-06 8.21040E-19-2.87962E-20
 -1      4408 8.46830E-05-1.90040E-05-2.81523E-05-3.55812E-06-3.90455E-19 7.57370E-20
 -1      4409 9.51723E-05-2.83622E-05-2.86333E-05-5.14925E-09 7.82829E-19-1.28061E-18
 -1      4410 9.51763E-05-2.83686E-05-2.86318E-05 3.85810E-09 4.62134E-19-1.34991E-18
 -1      4411 9.52138E-05-2.84421E-05-2.86163E-05 1.05059E-08 2.93250E-19-3.19601E-18
 -1      4412 8.46238E-05-1.94373E-05-2.79258E-05-4.81214E-06-5.07129E-19 1.51763E-19
 -1      4413 8.38674E-05-1.90627E-05-2.77849E-05-3.92422E-06-5.30731E-19 8.37382E-20
 -1      4414 8.23341E-05-1.89599E-05-2.71498E-05-4.49545E-06-4.26649E-19 1.89176E-20
 -1      4415 8.52087E-05-2.00747E-05-2.79280E-05-5.76346E-06-5.37244E-19 3.53012E-20
 -1      4416 8.54515E-05-2.15037E-05-2.74080E-05-8.25987E-06-6.00316E-19-3.26436E-20
 -1      4417 8.63016E-05-2.13077E-05-2.78704E-05-7.40248E-06-4.63745E-19-1.09138E-19
 -1      4418 8.55490E-05-2.05682E-05-2.78359E-05-6.60349E-06-4.92451E-19 2.35606E-20
 -1      4419 8.28068E-05-2.02249E-05-2.67840E-05-7.49954E-06-4.17101E-19 2.42409E-20
 -1      4420 9.51549E-05-2.83285E-05-2.86397E-05-1.15488E-08 1.15303E-18-2.59006E-19
 -1      4421 9.51322E-05-2.82900E-05-2.86465E-05-1.71631E-08 8.21723E-19 8.64602E-19
 -1      4422 9.51904E-05-2.83945E-05-2.86271E-05 1.59294E-08-3.55730E-19-3.27990E-18
 -1      4423 8.24597E-05-1.94115E-05-2.70349E-05-5.39109E-06-3.62245E-19-4.58217E-21
 -1      4424 8.40048E-05-1.99931E-05-2.74500E-05-6.17723E-06-5.52552E-19 2.54645E-19
 -1      4425 9.52006E-05-2.84131E-05-2.86228E-05 1.01604E-08-1.05597E-18-3.74055E-18
 -3
    1PSTEP                         4           1           1          
  100CL  101 1.000000000        4425                     0    1           1
 -4  ERROR       1    1
 -5  STR(%)      1    1    0    0
 -1         1 1.93401E+01
 -1         2 2.45844E+01
 -1         3 6.62531E-04
 -1         4 6.98677E-04
 -1         5 1.36578E+01
 -1         6 1.27484E+01
 -1         7 1.27484E+01
 -1         8 3.52361E+00
 -1         9 1.84666E+00
 -1        10 1.34501E+00
 -1        11 1.07179E+00
 -1        12 8.75623E-01
 -1        13 7.27650E-01
 -1        14 6.19385E-01
 -1        15 6.29800E-01
 -1        16 7.41537E-01
 -1        17 8.81949E-01
 -1        18 1.08422E+00
 -1        19 1.36650E+00
 -1        20 1.85683E+00
 -1        21 3.37538E+00
 -1        22 8.27995E+00
 -1        23 1.27484E+01
 -1        24 4.17668E+00
 -1        25 3.04879E+00
 -1        26 1.87871E+00
 -1        27 1.36485E+00
 -1        28 9.94372E-01
 -1        29 8.94802E-01
 -1        30 8.94802E-01
 -1        31 1.20952E+00
 -1        32 1.45376E+00
 -1        33 1.50255E+00
 -1        34 1.50255E+00
 -1        35 1.47971E+00
 -1        36 1.84609E+00
 -1        37 2.99715E+00
 -1        38 4.31718E+00
 -1        39 4.31809E+00
 -1        40 4.39802E+00
 -1        41 4.39802E+00
 -1        42 3.15697E+00
 -1        43 1.93982E+00
 -1        44 1.57090E+00
 -1        45 1.57090E+00
 -1        46 1.51377E+00
 -1        47 1.51377E+00
 -1        48 1.33147E+00
 -1        49 1.07915E+00
 -1        50 8.63161E-01
 -1        51 6.68967E-01
 -1        52 5.50659E-01
 -1        53 4.56069E-01
 -1        54 3.65350E-01
 -1        55 2.84548E-01
 -1        56 2.16048E-01
 -1        57 1.60047E-01
 -1        58 1.16377E-01
 -1        59 9.70990E-02
 -1        60 7.91187E-02
 -1        61 6.30787E-02
 -1        62 4.92129E-02
 -1        63 3.75003E-02
 -1        64 2.77697E-02
 -1        65 2.17190E-02
 -1        66 1.74702E-02
 -1        67 1.33604E-02
 -1        68 9.41515E-03
 -1        69 5.94285E-03
 -1        70 5.16450E-03
 -1        71 3.39209E-03
 -1        72 1.36578E+01
 -1        73 3.34085E+00
 -1        74 2.27742E+00
 -1        75 1.55479E+00
 -1        76 1.29914E+00
 -1        77 1.06956E+00
 -1        78 8.46252E-01
 -1        79 7.54205E-01
 -1        80 7.28706E-01
 -1        81 8.72060E-01
 -1        82 9.33393E-01
 -1        83 1.21256E+00
 -1        84 1.25139E+00
 -1        85 1.56548E+00
 -1        86 1.89197E+00
 -1        87 2.83545E+00
 -1        88 3.07993E+00
 -1        89 3.56399E+00
 -1        90 3.56399E+00
 -1        91 3.02432E+00
 -1        92 1.90183E+00
 -1        93 1.25126E+00
 -1        94 9.80598E-01
 -1        95 1.11974E+00
 -1        96 1.14539E+00
 -1        97 1.14539E+00
 -1        98 1.04504E+00
 -1        99 8.85346E-01
 -1       100 7.44713E-01
 -1       101 5.97902E-01
 -1       102 4.60776E-01
 -1       103 3.41753E-01
 -1       104 2.67026E-01
 -1       105 2.06275E-01
 -1       106 1.55008E-01
 -1       107 1.13279E-01
 -1       108 8.03087E-02
 -1       109 5.49297E-02
 -1       110 4.42305E-02
 -1       111 3.64456E-02
 -1       112 2.92611E-02
 -1       113 2.28567E-02
 -1       114 1.90129E-02
 -1       115 1.65301E-02
 -1       116 1.36505E-02
 -1       117 1.05081E-02
 -1       118 7.36288E-03
 -1       119 5.05839E-03
 -1       120 3.13789E-03
 -1       121 1.46674E-03
 -1       122 1.17200E-03
 -1       123 5.33158E-04
 -1       124 4.38054E-04
 -1       125 6.11068E-04
 -1       126 6.88495E-04
 -1       127 7.11561E-04
 -1       128 7.13128E-04
 -1       129 7.14678E-04
 -1       130 7.14678E-04
 -1       131 6.87544E-04
 -1       132 6.16983E-04
 -1       133 4.42225E-04
 -1       134 5.67376E-04
 -1       135 1.55589E-03
 -1       136 2.27910E-03
 -1       137 2.49575E+01
 -1       138 4.70380E+01
 -1       139 4.70380E+01
 -1       140 2.00692E+01
 -1       141 1.29278E+01
 -1       142 1.34352E+01
 -1       143 1.34352E+01
 -1       144 1.24990E+01
 -1       145 1.23914E+01
 -1       146 1.39144E+01
 -1       147 3.62213E+01
 -1       148 3.62213E+01
 -1       149 2.62287E+01
 -1       150 2.44475E+01
 -1       151 2.51002E+01
 -1       152 2.51241E+01
 -1       153 3.68472E+01
 -1       154 3.68472E+01
 -1       155 1.41623E+01
 -1       156 1.31020E+01
 -1       157 1.32642E+01
 -1       158 1.32642E+01
 -1       159 1.30355E+01
 -1       160 1.30355E+01
 -1       161 4.75411E+01
 -1       162 4.75411E+01
 -1       163 2.50749E+01
 -1       164 5.81616E+00
 -1       165 2.33153E+00
 -1       166 1.58602E+00
 -1       167 1.20922E+00
 -1       168 9.72006E-01
 -1       169 8.01797E-01
 -1       170 6.73902E-01
 -1       171 5.92657E-01
 -1       172 6.85767E-01
 -1       173 8.11437E-01
 -1       174 9.86848E-01
 -1       175 1.22796E+00
 -1       176 1.60728E+00
 -1       177 2.32044E+00
 -1       178 3.79241E+00
 -1       179 1.36578E+01
 -1       180 4.17668E+00
 -1       181 3.04879E+00
 -1       182 1.87871E+00
 -1       183 1.36485E+00
 -1       184 9.94372E-01
 -1       185 8.42370E-01
 -1       186 8.94802E-01
 -1       187 9.05915E-01
 -1       188 1.20952E+00
 -1       189 1.45376E+00
 -1       190 1.50255E+00
 -1       191 1.47971E+00
 -1       192 1.35564E+00
 -1       193 1.84609E+00
 -1       194 2.99715E+00
 -1       195 4.31718E+00
 -1       196 4.31809E+00
 -1       197 4.39802E+00
 -1       198 3.15697E+00
 -1       199 1.93982E+00
 -1       200 1.38210E+00
 -1       201 1.57090E+00
 -1       202 1.50964E+00
 -1       203 1.51377E+00
 -1       204 1.33147E+00
 -1       205 1.10014E+00
 -1       206 9.40860E-01
 -1       207 8.01942E-01
 -1       208 6.49408E-01
 -1       209 5.04323E-01
 -1       210 3.77438E-01
 -1       211 2.84548E-01
 -1       212 2.21968E-01
 -1       213 1.70043E-01
 -1       214 1.27368E-01
 -1       215 9.70990E-02
 -1       216 7.91187E-02
 -1       217 6.30787E-02
 -1       218 4.92129E-02
 -1       219 3.75003E-02
 -1       220 2.81230E-02
 -1       221 2.17190E-02
 -1       222 1.74702E-02
 -1       223 1.33604E-02
 -1       224 9.48257E-03
 -1       225 6.47679E-03
 -1       226 5.16450E-03
 -1       227 3.39209E-03
 -1       228 3.34085E+00
 -1       229 2.27742E+00
 -1       230 1.55479E+00
 -1       231 1.29914E+00
 -1       232 1.06956E+00
 -1       233 8.46252E-01
 -1       234 7.54205E-01
 -1       235 7.28706E-01
 -1       236 6.77054E-01
 -1       237 8.72060E-01
 -1       238 9.33393E-01
 -1       239 1.21256E+00
 -1       240 1.25139E+00
 -1       241 1.56548E+00
 -1       242 2.02635E+00
 -1       243 2.83545E+00
 -1       244 3.07993E+00
 -1       245 3.56399E+00
 -1       246 3.02432E+00
 -1       247 1.90183E+00
 -1       248 1.25126E+00
 -1       249 8.96665E-01
 -1       250 9.80598E-01
 -1       251 1.11974E+00
 -1       252 1.14539E+00
 -1       253 1.04504E+00
 -1       254 8.85346E-01
 -1       255 7.44713E-01
 -1       256 6.13847E-01
 -1       257 4.87217E-01
 -1       258 3.72542E-01
 -1       259 2.74866E-01
 -1       260 2.06275E-01
 -1       261 1.55008E-01
 -1       262 1.13750E-01
 -1       263 8.28942E-02
 -1       264 5.86545E-02
 -1       265 4.42305E-02
 -1       266 3.64456E-02
 -1       267 2.92611E-02
 -1       268 2.28567E-02
 -1       269 1.90129E-02
 -1       270 1.65301E-02
 -1       271 1.36505E-02
 -1       272 1.05081E-02
 -1       273 7.36288E-03
 -1       274 5.05839E-03
 -1       275 3.13789E-03
 -1       276 1.21370E-03
 -1       277 1.03825E-03
 -1       278 7.10223E-04
 -1       279 1.02210E-03
 -1       280 1.18453E-03
 -1       281 1.23594E-03
 -1       282 1.24882E-03
 -1       283 1.24995E-03
 -1       284 1.24995E-03
 -1       285 1.23942E-03
 -1       286 1.19235E-03
 -1       287 1.04505E-03
 -1       288 7.52546E-04
 -1       289 7.52546E-04
 -1       290 2.13321E-03
 -1       291 2.98389E+01
 -1       292 2.78401E+01
 -1       293 4.70380E+01
 -1       294 2.17083E+01
 -1       295 1.12824E+01
 -1       296 1.29278E+01
 -1       297 1.34352E+01
 -1       298 1.24990E+01
 -1       299 1.23914E+01
 -1       300 1.13525E+01
 -1       301 1.39144E+01
 -1       302 3.62213E+01
 -1       303 3.46082E+01
 -1       304 2.54723E+01
 -1       305 2.74298E+01
 -1       306 2.74298E+01
 -1       307 3.41956E+01
 -1       308 3.68472E+01
 -1       309 1.41623E+01
 -1       310 1.14270E+01
 -1       311 1.31020E+01
 -1       312 1.32642E+01
 -1       313 1.23932E+01
 -1       314 1.30355E+01
 -1       315 1.11139E+01
 -1       316 2.06326E+01
 -1       317 4.75411E+01
 -1       318 2.88524E+01
 -1       319 2.98389E+01
 -1       320 1.13316E+00
 -1       321 2.38720E+00
 -1       322 8.44375E-01
 -1       323 6.99446E-01
 -1       324 5.87915E-01
 -1       325 4.96180E-01
 -1       326 5.08652E-01
 -1       327 5.99196E-01
 -1       328 7.15039E-01
 -1       329 8.49910E-01
 -1       330 1.01164E+00
 -1       331 1.23552E+00
 -1       332 1.35627E+00
 -1       333 1.96912E+00
 -1       334 1.61588E+00
 -1       335 1.41313E+00
 -1       336 8.55873E-01
 -1       337 6.47623E-01
 -1       338 5.39750E-01
 -1       339 6.29198E-01
 -1       340 7.37038E-01
 -1       341 8.77040E-01
 -1       342 1.04367E+00
 -1       343 1.06257E+00
 -1       344 9.18277E-01
 -1       345 1.07964E+00
 -1       346 1.30275E+00
 -1       347 1.87321E+00
 -1       348 2.46411E+00
 -1       349 2.64843E+00
 -1       350 2.65722E+00
 -1       351 2.52425E+00
 -1       352 1.90388E+00
 -1       353 1.26494E+00
 -1       354 1.03052E+00
 -1       355 9.53194E-01
 -1       356 1.13448E+00
 -1       357 1.17557E+00
 -1       358 1.07953E+00
 -1       359 9.63514E-01
 -1       360 8.61838E-01
 -1       361 7.31293E-01
 -1       362 5.94564E-01
 -1       363 4.66745E-01
 -1       364 3.55344E-01
 -1       365 2.62862E-01
 -1       366 1.88867E-01
 -1       367 1.31431E-01
 -1       368 9.32194E-02
 -1       369 6.65720E-02
 -1       370 4.85362E-02
 -1       371 3.91702E-02
 -1       372 3.18385E-02
 -1       373 2.51568E-02
 -1       374 1.92345E-02
 -1       375 1.40839E-02
 -1       376 1.14630E-02
 -1       377 8.87488E-03
 -1       378 6.26766E-03
 -1       379 4.33452E-03
 -1       380 3.01042E-03
 -1       381 9.58778E-01
 -1       382 6.89875E-01
 -1       383 6.39185E-01
 -1       384 5.48570E-01
 -1       385 5.77211E-01
 -1       386 6.23292E-01
 -1       387 6.40236E-01
 -1       388 6.40236E-01
 -1       389 5.08750E-01
 -1       390 5.11851E-01
 -1       391 9.78671E-01
 -1       392 1.55905E+00
 -1       393 1.82788E+00
 -1       394 1.82788E+00
 -1       395 1.82118E+00
 -1       396 2.07793E+00
 -1       397 1.99219E+00
 -1       398 1.42893E+00
 -1       399 8.50312E-01
 -1       400 5.61350E-01
 -1       401 7.04771E-01
 -1       402 8.07921E-01
 -1       403 8.45413E-01
 -1       404 8.28010E-01
 -1       405 7.45121E-01
 -1       406 6.67343E-01
 -1       407 5.66581E-01
 -1       408 4.60410E-01
 -1       409 3.60456E-01
 -1       410 2.72807E-01
 -1       411 1.99980E-01
 -1       412 1.52009E-01
 -1       413 1.13750E-01
 -1       414 8.28942E-02
 -1       415 5.86545E-02
 -1       416 4.00568E-02
 -1       417 2.74421E-02
 -1       418 2.33569E-02
 -1       419 1.91653E-02
 -1       420 1.51246E-02
 -1       421 1.13832E-02
 -1       422 9.06851E-03
 -1       423 7.43019E-03
 -1       424 5.66725E-03
 -1       425 4.16072E-03
 -1       426 2.85902E-03
 -1       427 1.37490E-03
 -1       428 2.06418E-03
 -1       429 2.21130E-03
 -1       430 1.53650E-03
 -1       431 1.53765E-03
 -1       432 1.53765E-03
 -1       433 1.51037E-03
 -1       434 1.51318E-03
 -1       435 1.54946E-03
 -1       436 1.54946E-03
 -1       437 1.54608E-03
 -1       438 1.41006E-03
 -1       439 2.47946E-03
 -1       440 2.78401E+01
 -1       441 3.42459E+01
 -1       442 3.37040E+01
 -1       443 1.66724E+01
 -1       444 9.46804E+00
 -1       445 1.00996E+00
 -1       446 9.91637E+00
 -1       447 1.01679E+01
 -1       448 1.01809E+01
 -1       449 8.43476E+00
 -1       450 7.27715E+00
 -1       451 1.31716E+01
 -1       452 2.30942E+01
 -1       453 2.50180E+01
 -1       454 3.71098E+01
 -1       455 3.71098E+01
 -1       456 2.66805E+01
 -1       457 2.21158E+01
 -1       458 1.28035E+01
 -1       459 7.53722E+00
 -1       460 8.11299E+00
 -1       461 8.95720E+00
 -1       462 1.10917E+01
 -1       463 1.09444E+01
 -1       464 7.17730E+00
 -1       465 8.91270E+00
 -1       466 1.69359E+01
 -1       467 2.88524E+01
 -1       468 3.42459E+01
 -1       469 7.87624E+00
 -1       470 8.81676E+00
 -1       471 9.58998E+00
 -1       472 1.01679E+01
 -1       473 7.31989E-01
 -1       474 4.90227E-01
 -1       475 5.70104E-01
 -1       476 3.40057E-01
 -1       477 4.17054E-01
 -1       478 5.01686E-01
 -1       479 5.73817E-01
 -1       480 6.09150E-01
 -1       481 8.60024E-01
 -1       482 4.74357E-01
 -1       483 5.93231E-01
 -1       484 5.07008E+00
 -1       485 4.68341E-01
 -1       486 4.11350E-01
 -1       487 5.52120E-01
 -1       488 7.08528E-01
 -1       489 8.47744E-01
 -1       490 1.00448E+00
 -1       491 1.20137E+00
 -1       492 1.35719E+00
 -1       493 1.44976E+00
 -1       494 2.14081E+00
 -1       495 1.87054E+00
 -1       496 2.08467E+00
 -1       497 2.94881E+00
 -1       498 3.03362E+00
 -1       499 2.90449E+00
 -1       500 2.12387E+00
 -1       501 1.80039E+00
 -1       502 1.80853E+00
 -1       503 1.47768E+00
 -1       504 1.29105E+00
 -1       505 1.16835E+00
 -1       506 1.10227E+00
 -1       507 1.02360E+00
 -1       508 9.02092E-01
 -1       509 7.56493E-01
 -1       510 6.15908E-01
 -1       511 4.88273E-01
 -1       512 3.77453E-01
 -1       513 2.84870E-01
 -1       514 2.09867E-01
 -1       515 1.51732E-01
 -1       516 1.08395E-01
 -1       517 7.52839E-02
 -1       518 5.05183E-02
 -1       519 3.45073E-02
 -1       520 2.37892E-02
 -1       521 1.86335E-02
 -1       522 1.57502E-02
 -1       523 1.27322E-02
 -1       524 9.78604E-03
 -1       525 7.07401E-03
 -1       526 5.53746E-03
 -1       527 3.97564E-03
 -1       528 3.72272E-01
 -1       529 4.73618E-01
 -1       530 5.80887E-01
 -1       531 6.81947E-01
 -1       532 7.38211E-01
 -1       533 7.66886E-01
 -1       534 9.36161E-01
 -1       535 1.03021E+00
 -1       536 1.33585E+00
 -1       537 1.63004E+00
 -1       538 2.14983E+00
 -1       539 2.08876E+00
 -1       540 2.06748E+00
 -1       541 1.74931E+00
 -1       542 1.49082E+00
 -1       543 1.18079E+00
 -1       544 9.75216E-01
 -1       545 8.57375E-01
 -1       546 8.63659E-01
 -1       547 8.68266E-01
 -1       548 8.08985E-01
 -1       549 7.47522E-01
 -1       550 6.73554E-01
 -1       551 5.85574E-01
 -1       552 4.87622E-01
 -1       553 3.91828E-01
 -1       554 3.05170E-01
 -1       555 2.30876E-01
 -1       556 1.69716E-01
 -1       557 1.21008E-01
 -1       558 8.33293E-02
 -1       559 5.49697E-02
 -1       560 3.85816E-02
 -1       561 2.74421E-02
 -1       562 2.33569E-02
 -1       563 1.91653E-02
 -1       564 1.51246E-02
 -1       565 1.13832E-02
 -1       566 8.71753E-03
 -1       567 6.82578E-03
 -1       568 4.88460E-03
 -1       569 3.91868E-03
 -1       570 2.02403E-03
 -1       571 1.74695E-03
 -1       572 3.05151E-03
 -1       573 2.02403E-03
 -1       574 1.59680E-03
 -1       575 1.50466E-03
 -1       576 1.60287E-03
 -1       577 1.77744E-03
 -1       578 1.88623E-03
 -1       579 2.08250E-03
 -1       580 2.08250E-03
 -1       581 3.37040E+01
 -1       582 1.98648E+01
 -1       583 3.42459E+01
 -1       584 3.55237E-01
 -1       585 1.22197E+01
 -1       586 1.00996E+00
 -1       587 5.89728E+00
 -1       588 4.06398E-01
 -1       589 7.46992E+00
 -1       590 5.67418E+00
 -1       591 5.96575E+00
 -1       592 4.17888E+00
 -1       593 7.95040E+00
 -1       594 1.07272E+01
 -1       595 1.65665E+01
 -1       596 2.50180E+01
 -1       597 3.71098E+01
 -1       598 2.66805E+01
 -1       599 1.63377E+01
 -1       600 1.09426E+01
 -1       601 5.98547E+00
 -1       602 3.82773E+00
 -1       603 6.22302E+00
 -1       604 7.28996E+00
 -1       605 4.96510E+00
 -1       606 8.54187E+00
 -1       607 1.30218E+01
 -1       608 2.19392E+01
 -1       609 1.11122E+00
 -1       610 6.79574E-01
 -1       611 1.56418E+01
 -1       612 1.07388E+01
 -1       613 7.74468E+00
 -1       614 6.22758E+00
 -1       615 2.60706E-03
 -1       616 3.47914E-01
 -1       617 2.68751E-01
 -1       618 5.05907E-01
 -1       619 5.53702E-01
 -1       620 5.47013E-01
 -1       621 3.59472E-01
 -1       622 1.67237E+01
 -1       623 4.87403E-01
 -1       624 5.36254E-01
 -1       625 6.80582E-01
 -1       626 8.65036E-01
 -1       627 1.07115E+00
 -1       628 1.27183E+00
 -1       629 1.66029E+00
 -1       630 2.08755E+00
 -1       631 2.61997E+00
 -1       632 3.81680E+00
 -1       633 2.31124E+00
 -1       634 3.74730E+00
 -1       635 4.18628E+00
 -1       636 4.34114E+00
 -1       637 2.73774E+00
 -1       638 2.67651E+00
 -1       639 2.34757E+00
 -1       640 1.95645E+00
 -1       641 1.53943E+00
 -1       642 1.32200E+00
 -1       643 1.11351E+00
 -1       644 9.15362E-01
 -1       645 7.43045E-01
 -1       646 5.94794E-01
 -1       647 4.72006E-01
 -1       648 3.70340E-01
 -1       649 2.86916E-01
 -1       650 2.19181E-01
 -1       651 1.64858E-01
 -1       652 1.21879E-01
 -1       653 8.83721E-02
 -1       654 6.26591E-02
 -1       655 4.32627E-02
 -1       656 2.89075E-02
 -1       657 1.85146E-02
 -1       658 1.15339E-02
 -1       659 8.44132E-03
 -1       660 7.28662E-03
 -1       661 5.89145E-03
 -1       662 4.43506E-03
 -1       663 3.53072E-03
 -1       664 6.01111E-01
 -1       665 4.23913E-03
 -1       666 5.00118E-01
 -1       667 8.99783E-01
 -1       668 1.04403E+00
 -1       669 1.15294E+00
 -1       670 1.53839E+00
 -1       671 1.73008E+00
 -1       672 3.13667E+00
 -1       673 4.35394E+00
 -1       674 5.48568E+00
 -1       675 3.93574E+00
 -1       676 2.65982E+00
 -1       677 1.78669E+00
 -1       678 1.60174E+00
 -1       679 1.74272E+00
 -1       680 1.33339E+00
 -1       681 1.18533E+00
 -1       682 1.08703E+00
 -1       683 9.42529E-01
 -1       684 8.08985E-01
 -1       685 7.22237E-01
 -1       686 6.22369E-01
 -1       687 5.18817E-01
 -1       688 4.20617E-01
 -1       689 3.32699E-01
 -1       690 2.57192E-01
 -1       691 1.94419E-01
 -1       692 1.43634E-01
 -1       693 1.03525E-01
 -1       694 7.25568E-02
 -1       695 4.91756E-02
 -1       696 3.19337E-02
 -1       697 1.95497E-02
 -1       698 1.31639E-02
 -1       699 1.15121E-02
 -1       700 9.73419E-03
 -1       701 7.74406E-03
 -1       702 5.77063E-03
 -1       703 4.88460E-03
 -1       704 1.50466E-03
 -1       705 2.44065E-03
 -1       706 1.92226E-03
 -1       707 1.50129E-03
 -1       708 1.59680E-03
 -1       709 8.18606E+00
 -1       710 1.60287E-03
 -1       711 2.00338E-03
 -1       712 2.04748E-03
 -1       713 2.55049E-03
 -1       714 1.17036E+01
 -1       715 3.58634E-01
 -1       716 7.74095E-01
 -1       717 8.30163E+00
 -1       718 1.24336E+01
 -1       719 7.38991E-01
 -1       720 7.74095E-01
 -1       721 4.32896E-01
 -1       722 5.46897E+00
 -1       723 3.06970E+00
 -1       724 4.35042E-01
 -1       725 5.39696E+00
 -1       726 4.35394E+00
 -1       727 4.93717E+00
 -1       728 6.72127E+00
 -1       729 8.85113E+00
 -1       730 1.40468E+01
 -1       731 1.52320E+01
 -1       732 1.31879E+01
 -1       733 3.58624E+00
 -1       734 1.44070E+01
 -1       735 6.25042E+00
 -1       736 5.48568E+00
 -1       737 3.54168E+00
 -1       738 1.07654E+01
 -1       739 3.04600E+00
 -1       740 4.80229E+00
 -1       741 7.74095E-01
 -1       742 2.51818E-01
 -1       743 1.17513E+01
 -1       744 6.04247E+00
 -1       745 4.58491E+00
 -1       746 3.06709E-03
 -1       747 1.02391E+01
 -1       748 2.45802E+00
 -1       749 9.42278E+00
 -1       750 3.28017E-01
 -1       751 5.68369E+00
 -1       752 4.81552E-01
 -1       753 6.60215E-01
 -1       754 8.08825E-01
 -1       755 1.06737E+00
 -1       756 1.44916E+00
 -1       757 1.92629E+00
 -1       758 2.48603E+00
 -1       759 3.44286E+00
 -1       760 3.29702E+00
 -1       761 3.09811E+00
 -1       762 3.10143E+00
 -1       763 2.19017E+00
 -1       764 1.79584E+00
 -1       765 1.44354E+00
 -1       766 1.13345E+00
 -1       767 8.98307E-01
 -1       768 7.04048E-01
 -1       769 5.47387E-01
 -1       770 4.27144E-01
 -1       771 3.25953E-01
 -1       772 2.47188E-01
 -1       773 1.84074E-01
 -1       774 1.34346E-01
 -1       775 9.76201E-02
 -1       776 6.95781E-02
 -1       777 4.84037E-02
 -1       778 3.26895E-02
 -1       779 2.12622E-02
 -1       780 1.31542E-02
 -1       781 7.58232E-03
 -1       782 5.52268E-03
 -1       783 3.94064E-03
 -1       784 3.50031E-03
 -1       785 6.04896E-01
 -1       786 1.60067E+00
 -1       787 1.24652E+00
 -1       788 2.38695E+00
 -1       789 3.13667E+00
 -1       790 2.65982E+00
 -1       791 2.61413E+00
 -1       792 2.33452E+00
 -1       793 2.58146E+00
 -1       794 1.83794E+00
 -1       795 1.51183E+00
 -1       796 1.19537E+00
 -1       797 1.00517E+00
 -1       798 8.44029E-01
 -1       799 6.95759E-01
 -1       800 5.63823E-01
 -1       801 4.47147E-01
 -1       802 3.48386E-01
 -1       803 2.69522E-01
 -1       804 2.05416E-01
 -1       805 1.54032E-01
 -1       806 1.13440E-01
 -1       807 8.18608E-02
 -1       808 5.76947E-02
 -1       809 3.95306E-02
 -1       810 2.61509E-02
 -1       811 1.65248E-02
 -1       812 9.79644E-03
 -1       813 6.22418E-03
 -1       814 5.79561E-03
 -1       815 5.00333E-03
 -1       816 2.90529E-01
 -1       817 1.67980E-03
 -1       818 1.34626E-03
 -1       819 2.42736E-03
 -1       820 1.45468E-03
 -1       821 9.74659E+00
 -1       822 1.98512E+00
 -1       823 9.20771E+00
 -1       824 5.23965E+00
 -1       825 5.60742E-01
 -1       826 9.89780E+00
 -1       827 7.82382E+00
 -1       828 9.42319E+00
 -1       829 6.87415E+00
 -1       830 7.14664E+00
 -1       831 4.66895E+00
 -1       832 5.21692E+00
 -1       833 9.42319E+00
 -1       834 3.92334E-01
 -1       835 2.25213E-01
 -1       836 7.61158E+00
 -1       837 2.05320E-03
 -1       838 6.26033E+00
 -1       839 2.54088E+00
 -1       840 6.81202E-01
 -1       841 7.74263E+00
 -1       842 7.93232E-01
 -1       843 3.53072E-03
 -1       844 3.41915E-03
 -1       845 9.57499E-01
 -1       846 4.25892E+00
 -1       847 3.86833E-03
 -1       848 1.67588E-03
 -1       849 4.14245E-01
 -1       850 1.45728E-03
 -1       851 3.33487E+00
 -1       852 7.06804E+00
 -1       853 4.12810E-01
 -1       854 5.27001E-01
 -1       855 6.42436E+00
 -1       856 6.60451E-01
 -1       857 4.96244E-01
 -1       858 4.58771E+00
 -1       859 4.14762E-01
 -1       860 1.04719E+00
 -1       861 1.40478E+00
 -1       862 1.95746E+00
 -1       863 2.46841E+00
 -1       864 3.94251E+00
 -1       865 7.88299E+00
 -1       866 5.78427E+00
 -1       867 4.38716E+00
 -1       868 3.29099E+00
 -1       869 2.72354E+00
 -1       870 1.89260E+00
 -1       871 1.39154E+00
 -1       872 1.06739E+00
 -1       873 8.66326E-01
 -1       874 6.90265E-01
 -1       875 5.41493E-01
 -1       876 4.18759E-01
 -1       877 3.19153E-01
 -1       878 2.39463E-01
 -1       879 1.76587E-01
 -1       880 1.27682E-01
 -1       881 9.02195E-02
 -1       882 6.27649E-02
 -1       883 4.28959E-02
 -1       884 2.82644E-02
 -1       885 1.78048E-02
 -1       886 1.05310E-02
 -1       887 5.74391E-03
 -1       888 3.32000E-03
 -1       889 3.09320E-03
 -1       890 2.70818E+00
 -1       891 2.25670E+00
 -1       892 1.67678E+00
 -1       893 1.32883E+00
 -1       894 1.01821E+00
 -1       895 7.88880E-01
 -1       896 6.31597E-01
 -1       897 5.16713E-01
 -1       898 4.16023E-01
 -1       899 3.27297E-01
 -1       900 2.52023E-01
 -1       901 1.89975E-01
 -1       902 1.40053E-01
 -1       903 1.00758E-01
 -1       904 7.07692E-02
 -1       905 4.91379E-02
 -1       906 3.29511E-02
 -1       907 2.11125E-02
 -1       908 1.27907E-02
 -1       909 7.26403E-03
 -1       910 4.23132E-03
 -1       911 3.38154E-03
 -1       912 6.79684E+00
 -1       913 1.81081E-03
 -1       914 6.93320E+00
 -1       915 3.06368E-01
 -1       916 6.26033E+00
 -1       917 6.06119E+00
 -1       918 1.89357E+00
 -1       919 7.26855E-01
 -1       920 3.92357E+00
 -1       921 8.08825E-01
 -1       922 2.94728E+00
 -1       923 6.32764E-01
 -1       924 5.93572E+00
 -1       925 4.57402E+00
 -1       926 4.06069E-01
 -1       927 5.38631E+00
 -1       928 2.57067E-03
 -1       929 3.93083E-01
 -1       930 2.94907E-03
 -1       931 1.71821E-03
 -1       932 1.42151E+00
 -1       933 1.71148E-03
 -1       934 1.71821E-03
 -1       935 4.22443E+00
 -1       936 3.82974E+00
 -1       937 5.16073E+00
 -1       938 5.43504E-01
 -1       939 2.86186E-03
 -1       940 5.41899E-01
 -1       941 5.01566E+00
 -1       942 7.03428E-01
 -1       943 5.01445E-01
 -1       944 1.61350E-03
 -1       945 7.26855E-01
 -1       946 1.40478E+00
 -1       947 1.07067E+00
 -1       948 1.95746E+00
 -1       949 2.11675E+00
 -1       950 4.74832E+00
 -1       951 4.28442E+00
 -1       952 2.38926E+00
 -1       953 1.81923E+00
 -1       954 1.39154E+00
 -1       955 1.05994E+00
 -1       956 8.12817E-01
 -1       957 6.24431E-01
 -1       958 4.79356E-01
 -1       959 3.66262E-01
 -1       960 2.77570E-01
 -1       961 2.08007E-01
 -1       962 1.53698E-01
 -1       963 1.11647E-01
 -1       964 7.94499E-02
 -1       965 5.51331E-02
 -1       966 3.77035E-02
 -1       967 2.52486E-02
 -1       968 1.61999E-02
 -1       969 9.77798E-03
 -1       970 5.35519E-03
 -1       971 3.01499E-03
 -1       972 1.82228E+00
 -1       973 3.37741E+00
 -1       974 1.28255E+00
 -1       975 9.71439E-01
 -1       976 7.88880E-01
 -1       977 6.31597E-01
 -1       978 4.99521E-01
 -1       979 3.90391E-01
 -1       980 3.01258E-01
 -1       981 2.29237E-01
 -1       982 1.71709E-01
 -1       983 1.26339E-01
 -1       984 9.10573E-02
 -1       985 6.40451E-02
 -1       986 4.39449E-02
 -1       987 2.98489E-02
 -1       988 1.94923E-02
 -1       989 1.20595E-02
 -1       990 6.86615E-03
 -1       991 3.41600E-03
 -1       992 1.01766E+00
 -1       993 7.40661E-01
 -1       994 1.21158E-03
 -1       995 4.10661E-01
 -1       996 7.26855E-01
 -1       997 6.01592E+00
 -1       998 6.00933E-01
 -1       999 3.77593E-03
 -1      1000 4.10661E-01
 -1      1001 4.51748E+00
 -1      1002 4.85068E+00
 -1      1003 4.85068E+00
 -1      1004 3.69695E+00
 -1      1005 1.73578E-03
 -1      1006 4.54655E+00
 -1      1007 4.40258E+00
 -1      1008 5.40316E-01
 -1      1009 1.51897E-03
 -1      1010 3.77593E-03
 -1      1011 2.19849E+00
 -1      1012 3.85786E+00
 -1      1013 5.65969E-01
 -1      1014 7.75338E-01
 -1      1015 3.94186E+00
 -1      1016 2.05062E-03
 -1      1017 3.02430E-03
 -1      1018 8.06236E-01
 -1      1019 1.04206E+00
 -1      1020 1.72954E+00
 -1      1021 2.79500E+00
 -1      1022 2.38926E+00
 -1      1023 1.73293E+00
 -1      1024 1.20645E+00
 -1      1025 8.80657E-01
 -1      1026 6.55591E-01
 -1      1027 4.95776E-01
 -1      1028 3.77280E-01
 -1      1029 2.86969E-01
 -1      1030 2.17047E-01
 -1      1031 1.62572E-01
 -1      1032 1.20173E-01
 -1      1033 8.73738E-02
 -1      1034 6.22537E-02
 -1      1035 4.32628E-02
 -1      1036 2.93243E-02
 -1      1037 1.97535E-02
 -1      1038 1.28110E-02
 -1      1039 9.17315E-03
 -1      1040 1.28255E+00
 -1      1041 5.63105E-01
 -1      1042 1.40293E+00
 -1      1043 5.40316E-01
 -1      1044 3.27982E+00
 -1      1045 9.71439E-01
 -1      1046 7.37485E-01
 -1      1047 5.63641E-01
 -1      1048 4.31582E-01
 -1      1049 3.29695E-01
 -1      1050 2.50355E-01
 -1      1051 1.88340E-01
 -1      1052 1.39940E-01
 -1      1053 1.02385E-01
 -1      1054 7.35125E-02
 -1      1055 5.15822E-02
 -1      1056 3.51677E-02
 -1      1057 2.37893E-02
 -1      1058 1.56364E-02
 -1      1059 9.72932E-03
 -1      1060 5.67207E-03
 -1      1061 1.26933E+00
 -1      1062 3.36213E+00
 -1      1063 3.64040E+00
 -1      1064 2.59791E+00
 -1      1065 1.90081E+00
 -1      1066 5.89635E-03
 -1      1067 3.58594E+00
 -1      1068 7.57665E-01
 -1      1069 7.20986E-01
 -1      1070 2.02295E+00
 -1      1071 3.67307E+00
 -1      1072 3.58594E+00
 -1      1073 2.05062E-03
 -1      1074 9.24604E-03
 -1      1075 3.77382E-03
 -1      1076 3.77382E-03
 -1      1077 3.85786E+00
 -1      1078 5.87977E-01
 -1      1079 7.75338E-01
 -1      1080 1.07646E+00
 -1      1081 8.63675E-03
 -1      1082 1.74133E+00
 -1      1083 8.64475E-01
 -1      1084 6.45336E-01
 -1      1085 4.92757E-01
 -1      1086 3.80072E-01
 -1      1087 2.94050E-01
 -1      1088 2.26866E-01
 -1      1089 1.73783E-01
 -1      1090 1.31717E-01
 -1      1091 9.84906E-02
 -1      1092 7.24400E-02
 -1      1093 5.22260E-02
 -1      1094 3.67346E-02
 -1      1095 2.53217E-02
 -1      1096 1.90665E-02
 -1      1097 9.57628E-03
 -1      1098 3.27982E+00
 -1      1099 1.12225E+00
 -1      1100 4.32791E-01
 -1      1101 3.24932E-01
 -1      1102 2.44445E-01
 -1      1103 1.85168E-01
 -1      1104 1.41849E-01
 -1      1105 1.07068E-01
 -1      1106 7.94347E-02
 -1      1107 5.77562E-02
 -1      1108 4.09906E-02
 -1      1109 2.82286E-02
 -1      1110 1.95323E-02
 -1      1111 2.03247E-02
 -1      1112 8.52547E-03
 -1      1113 1.26933E+00
 -1      1114 7.90002E-01
 -1      1115 1.26933E+00
 -1      1116 1.90081E+00
 -1      1117 5.81155E-01
 -1      1118 2.23589E+00
 -1      1119 2.60593E+00
 -1      1120 1.54738E+00
 -1      1121 1.88318E+00
 -1      1122 7.78574E-01
 -1      1123 3.57058E+00
 -1      1124 4.03551E-03
 -1      1125 9.24604E-03
 -1      1126 1.00468E+00
 -1      1127 2.02295E+00
 -1      1128 1.86924E+00
 -1      1129 1.80426E+00
 -1      1130 7.43149E-01
 -1      1131 5.62875E-01
 -1      1132 4.34742E-01
 -1      1133 3.38246E-01
 -1      1134 2.63152E-01
 -1      1135 2.03650E-01
 -1      1136 1.56164E-01
 -1      1137 1.18292E-01
 -1      1138 8.82703E-02
 -1      1139 6.46961E-02
 -1      1140 4.64054E-02
 -1      1141 3.24086E-02
 -1      1142 2.23076E-02
 -1      1143 1.88318E+00
 -1      1144 2.03247E-02
 -1      1145 1.15346E+00
 -1      1146 9.71334E-01
 -1      1147 1.40623E+00
 -1      1148 1.27484E+01
 -1      1149 8.13600E+00
 -1      1150 2.68513E+00
 -1      1151 1.59583E+00
 -1      1152 1.20840E+00
 -1      1153 9.73705E-01
 -1      1154 8.01636E-01
 -1      1155 6.73518E-01
 -1      1156 6.24593E-01
 -1      1157 6.85669E-01
 -1      1158 8.11743E-01
 -1      1159 9.83085E-01
 -1      1160 1.22536E+00
 -1      1161 1.61167E+00
 -1      1162 2.61611E+00
 -1      1163 5.82767E+00
 -1      1164 1.09689E+01
 -1      1165 1.27484E+01
 -1      1166 8.46254E+00
 -1      1167 3.61274E+00
 -1      1168 2.46375E+00
 -1      1169 1.62178E+00
 -1      1170 1.17961E+00
 -1      1171 9.44587E-01
 -1      1172 8.94802E-01
 -1      1173 1.05216E+00
 -1      1174 1.33164E+00
 -1      1175 1.47816E+00
 -1      1176 1.50255E+00
 -1      1177 1.49113E+00
 -1      1178 1.66290E+00
 -1      1179 2.42162E+00
 -1      1180 3.65716E+00
 -1      1181 4.31763E+00
 -1      1182 4.35805E+00
 -1      1183 4.39802E+00
 -1      1184 3.77749E+00
 -1      1185 2.54839E+00
 -1      1186 1.75536E+00
 -1      1187 1.57090E+00
 -1      1188 1.54233E+00
 -1      1189 1.51377E+00
 -1      1190 1.42262E+00
 -1      1191 1.20531E+00
 -1      1192 9.71156E-01
 -1      1193 7.66064E-01
 -1      1194 6.09813E-01
 -1      1195 5.03364E-01
 -1      1196 4.10710E-01
 -1      1197 3.24949E-01
 -1      1198 2.50298E-01
 -1      1199 1.88047E-01
 -1      1200 1.38212E-01
 -1      1201 1.06738E-01
 -1      1202 8.81089E-02
 -1      1203 7.10987E-02
 -1      1204 5.61458E-02
 -1      1205 4.33566E-02
 -1      1206 3.26350E-02
 -1      1207 2.47444E-02
 -1      1208 1.95946E-02
 -1      1209 1.54153E-02
 -1      1210 1.13878E-02
 -1      1211 7.67900E-03
 -1      1212 5.55367E-03
 -1      1213 4.27830E-03
 -1      1214 2.04539E-03
 -1      1215 1.36578E+01
 -1      1216 8.49934E+00
 -1      1217 2.80914E+00
 -1      1218 1.91611E+00
 -1      1219 1.42697E+00
 -1      1220 1.18435E+00
 -1      1221 9.57906E-01
 -1      1222 8.00228E-01
 -1      1223 7.41455E-01
 -1      1224 8.00383E-01
 -1      1225 9.02727E-01
 -1      1226 1.07297E+00
 -1      1227 1.23197E+00
 -1      1228 1.40843E+00
 -1      1229 1.72873E+00
 -1      1230 2.36371E+00
 -1      1231 2.95769E+00
 -1      1232 3.32196E+00
 -1      1233 3.56399E+00
 -1      1234 3.29416E+00
 -1      1235 2.46307E+00
 -1      1236 1.57654E+00
 -1      1237 1.11593E+00
 -1      1238 1.05017E+00
 -1      1239 1.13257E+00
 -1      1240 1.14539E+00
 -1      1241 1.09522E+00
 -1      1242 9.65195E-01
 -1      1243 8.15030E-01
 -1      1244 6.71308E-01
 -1      1245 5.29339E-01
 -1      1246 4.01264E-01
 -1      1247 3.04390E-01
 -1      1248 2.36651E-01
 -1      1249 1.80642E-01
 -1      1250 1.34143E-01
 -1      1251 9.67936E-02
 -1      1252 6.76192E-02
 -1      1253 4.95801E-02
 -1      1254 4.03381E-02
 -1      1255 3.28534E-02
 -1      1256 2.60589E-02
 -1      1257 2.09348E-02
 -1      1258 1.77715E-02
 -1      1259 1.50903E-02
 -1      1260 1.20793E-02
 -1      1261 8.93551E-03
 -1      1262 6.21064E-03
 -1      1263 4.09814E-03
 -1      1264 1.90021E-03
 -1      1265 1.06464E-03
 -1      1266 1.31937E-03
 -1      1267 8.52581E-04
 -1      1268 4.85606E-04
 -1      1269 5.24561E-04
 -1      1270 6.49781E-04
 -1      1271 7.00028E-04
 -1      1272 7.12344E-04
 -1      1273 7.13903E-04
 -1      1274 7.14678E-04
 -1      1275 7.01111E-04
 -1      1276 6.52264E-04
 -1      1277 5.29604E-04
 -1      1278 5.04800E-04
 -1      1279 1.06163E-03
 -1      1280 1.91749E-03
 -1      1281 1.48889E-03
 -1      1282 2.47709E+01
 -1      1283 3.59977E+01
 -1      1284 4.70380E+01
 -1      1285 3.35536E+01
 -1      1286 1.64985E+01
 -1      1287 1.31815E+01
 -1      1288 1.34352E+01
 -1      1289 1.29671E+01
 -1      1290 1.24452E+01
 -1      1291 1.31529E+01
 -1      1292 2.50678E+01
 -1      1293 3.62213E+01
 -1      1294 3.12250E+01
 -1      1295 2.53381E+01
 -1      1296 2.47738E+01
 -1      1297 2.51122E+01
 -1      1298 3.09856E+01
 -1      1299 3.68472E+01
 -1      1300 2.55047E+01
 -1      1301 1.36321E+01
 -1      1302 1.31831E+01
 -1      1303 1.32642E+01
 -1      1304 1.31498E+01
 -1      1305 1.30355E+01
 -1      1306 1.61878E+01
 -1      1307 3.34406E+01
 -1      1308 4.75411E+01
 -1      1309 3.63080E+01
 -1      1310 2.48296E+01
 -1      1311 1.27484E+01
 -1      1312 4.66988E+00
 -1      1313 9.28228E+00
 -1      1314 2.08909E+00
 -1      1315 2.92757E+00
 -1      1316 4.07384E+00
 -1      1317 1.46551E+00
 -1      1318 1.71634E+00
 -1      1319 1.95878E+00
 -1      1320 1.14051E+00
 -1      1321 1.27711E+00
 -1      1322 1.39762E+00
 -1      1323 9.23814E-01
 -1      1324 1.02190E+00
 -1      1325 1.09061E+00
 -1      1326 7.64724E-01
 -1      1327 8.38710E-01
 -1      1328 8.86902E-01
 -1      1329 6.46644E-01
 -1      1330 7.00776E-01
 -1      1331 7.37850E-01
 -1      1332 6.11229E-01
 -1      1333 6.06021E-01
 -1      1334 6.33280E-01
 -1      1335 7.13652E-01
 -1      1336 6.57784E-01
 -1      1337 6.39212E-01
 -1      1338 8.46693E-01
 -1      1339 7.76487E-01
 -1      1340 7.48602E-01
 -1      1341 1.03553E+00
 -1      1342 9.34398E-01
 -1      1343 8.99142E-01
 -1      1344 1.29723E+00
 -1      1345 1.15609E+00
 -1      1346 1.10740E+00
 -1      1347 1.73206E+00
 -1      1348 1.48689E+00
 -1      1349 1.41762E+00
 -1      1350 2.84791E+00
 -1      1351 2.08864E+00
 -1      1352 1.96386E+00
 -1      1353 6.03618E+00
 -1      1354 3.58390E+00
 -1      1355 3.05643E+00
 -1      1356 1.36578E+01
 -1      1357 1.09689E+01
 -1      1358 8.72512E+00
 -1      1359 1.36578E+01
 -1      1360 8.46254E+00
 -1      1361 4.17668E+00
 -1      1362 3.61274E+00
 -1      1363 3.04879E+00
 -1      1364 3.61274E+00
 -1      1365 2.46375E+00
 -1      1366 1.87871E+00
 -1      1367 2.46375E+00
 -1      1368 1.62178E+00
 -1      1369 1.36485E+00
 -1      1370 1.62178E+00
 -1      1371 1.17961E+00
 -1      1372 9.94372E-01
 -1      1373 1.17961E+00
 -1      1374 9.18371E-01
 -1      1375 8.68586E-01
 -1      1376 9.18371E-01
 -1      1377 8.94802E-01
 -1      1378 8.94802E-01
 -1      1379 8.68586E-01
 -1      1380 9.00359E-01
 -1      1381 1.05772E+00
 -1      1382 9.00359E-01
 -1      1383 1.20952E+00
 -1      1384 1.33164E+00
 -1      1385 1.05772E+00
 -1      1386 1.45376E+00
 -1      1387 1.47816E+00
 -1      1388 1.33164E+00
 -1      1389 1.50255E+00
 -1      1390 1.50255E+00
 -1      1391 1.47816E+00
 -1      1392 1.49113E+00
 -1      1393 1.47971E+00
 -1      1394 1.49113E+00
 -1      1395 1.41768E+00
 -1      1396 1.60087E+00
 -1      1397 1.41768E+00
 -1      1398 1.84609E+00
 -1      1399 2.42162E+00
 -1      1400 1.60087E+00
 -1      1401 2.99715E+00
 -1      1402 3.65716E+00
 -1      1403 2.42162E+00
 -1      1404 4.31718E+00
 -1      1405 4.31763E+00
 -1      1406 3.65716E+00
 -1      1407 4.31809E+00
 -1      1408 4.35805E+00
 -1      1409 4.31763E+00
 -1      1410 4.39802E+00
 -1      1411 4.39802E+00
 -1      1412 4.35805E+00
 -1      1413 3.77749E+00
 -1      1414 3.15697E+00
 -1      1415 3.77749E+00
 -1      1416 2.54839E+00
 -1      1417 1.93982E+00
 -1      1418 2.54839E+00
 -1      1419 1.66096E+00
 -1      1420 1.47650E+00
 -1      1421 1.66096E+00
 -1      1422 1.57090E+00
 -1      1423 1.57090E+00
 -1      1424 1.47650E+00
 -1      1425 1.54027E+00
 -1      1426 1.51170E+00
 -1      1427 1.54027E+00
 -1      1428 1.51377E+00
 -1      1429 1.51377E+00
 -1      1430 1.51170E+00
 -1      1431 1.42262E+00
 -1      1432 1.33147E+00
 -1      1433 1.42262E+00
 -1      1434 1.21581E+00
 -1      1435 1.08965E+00
 -1      1436 1.21581E+00
 -1      1437 1.01001E+00
 -1      1438 9.02011E-01
 -1      1439 1.02050E+00
 -1      1440 8.32552E-01
 -1      1441 7.35454E-01
 -1      1442 8.71401E-01
 -1      1443 6.59187E-01
 -1      1444 6.00033E-01
 -1      1445 7.25675E-01
 -1      1446 5.27491E-01
 -1      1447 4.80196E-01
 -1      1448 5.76865E-01
 -1      1449 4.16753E-01
 -1      1450 3.71394E-01
 -1      1451 4.40881E-01
 -1      1452 3.24949E-01
 -1      1453 2.84548E-01
 -1      1454 3.30993E-01
 -1      1455 2.53258E-01
 -1      1456 2.19008E-01
 -1      1457 2.53258E-01
 -1      1458 1.93045E-01
 -1      1459 1.65045E-01
 -1      1460 1.96005E-01
 -1      1461 1.43707E-01
 -1      1462 1.21873E-01
 -1      1463 1.48705E-01
 -1      1464 1.06738E-01
 -1      1465 9.70990E-02
 -1      1466 1.12233E-01
 -1      1467 8.81089E-02
 -1      1468 7.91187E-02
 -1      1469 8.81089E-02
 -1      1470 7.10987E-02
 -1      1471 6.30787E-02
 -1      1472 7.10987E-02
 -1      1473 5.61458E-02
 -1      1474 4.92129E-02
 -1      1475 5.61458E-02
 -1      1476 4.33566E-02
 -1      1477 3.75003E-02
 -1      1478 4.33566E-02
 -1      1479 3.28116E-02
 -1      1480 2.79463E-02
 -1      1481 3.28116E-02
 -1      1482 2.47444E-02
 -1      1483 2.17190E-02
 -1      1484 2.49210E-02
 -1      1485 1.95946E-02
 -1      1486 1.74702E-02
 -1      1487 1.95946E-02
 -1      1488 1.54153E-02
 -1      1489 1.33604E-02
 -1      1490 1.54153E-02
 -1      1491 1.14215E-02
 -1      1492 9.44886E-03
 -1      1493 1.14215E-02
 -1      1494 7.94597E-03
 -1      1495 6.20982E-03
 -1      1496 7.97968E-03
 -1      1497 5.55367E-03
 -1      1498 5.16450E-03
 -1      1499 5.82065E-03
 -1      1500 4.27830E-03
 -1      1501 3.39209E-03
 -1      1502 4.27830E-03
 -1      1503 2.83559E-03
 -1      1504 2.83559E-03
 -1      1505 3.34085E+00
 -1      1506 8.49934E+00
 -1      1507 8.49934E+00
 -1      1508 2.27742E+00
 -1      1509 2.80914E+00
 -1      1510 2.80914E+00
 -1      1511 1.55479E+00
 -1      1512 1.91611E+00
 -1      1513 1.91611E+00
 -1      1514 1.29914E+00
 -1      1515 1.42697E+00
 -1      1516 1.42697E+00
 -1      1517 1.06956E+00
 -1      1518 1.18435E+00
 -1      1519 1.18435E+00
 -1      1520 8.46252E-01
 -1      1521 9.57906E-01
 -1      1522 9.57906E-01
 -1      1523 7.54205E-01
 -1      1524 8.00228E-01
 -1      1525 8.00228E-01
 -1      1526 7.28706E-01
 -1      1527 7.41455E-01
 -1      1528 7.41455E-01
 -1      1529 7.74557E-01
 -1      1530 7.02880E-01
 -1      1531 7.02880E-01
 -1      1532 9.02727E-01
 -1      1533 8.72060E-01
 -1      1534 7.74557E-01
 -1      1535 1.07297E+00
 -1      1536 9.33393E-01
 -1      1537 9.02727E-01
 -1      1538 1.23197E+00
 -1      1539 1.21256E+00
 -1      1540 1.07297E+00
 -1      1541 1.40843E+00
 -1      1542 1.25139E+00
 -1      1543 1.23197E+00
 -1      1544 1.72873E+00
 -1      1545 1.56548E+00
 -1      1546 1.40843E+00
 -1      1547 2.43090E+00
 -1      1548 1.95916E+00
 -1      1549 1.79591E+00
 -1      1550 2.95769E+00
 -1      1551 2.83545E+00
 -1      1552 2.43090E+00
 -1      1553 3.32196E+00
 -1      1554 3.07993E+00
 -1      1555 2.95769E+00
 -1      1556 3.56399E+00
 -1      1557 3.56399E+00
 -1      1558 3.32196E+00
 -1      1559 3.02432E+00
 -1      1560 3.29416E+00
 -1      1561 3.29416E+00
 -1      1562 1.90183E+00
 -1      1563 2.46307E+00
 -1      1564 2.46307E+00
 -1      1565 1.25126E+00
 -1      1566 1.57654E+00
 -1      1567 1.57654E+00
 -1      1568 9.38632E-01
 -1      1569 1.07396E+00
 -1      1570 1.07396E+00
 -1      1571 1.05017E+00
 -1      1572 9.80598E-01
 -1      1573 9.38632E-01
 -1      1574 1.13257E+00
 -1      1575 1.11974E+00
 -1      1576 1.05017E+00
 -1      1577 1.14539E+00
 -1      1578 1.14539E+00
 -1      1579 1.13257E+00
 -1      1580 1.04504E+00
 -1      1581 1.09522E+00
 -1      1582 1.09522E+00
 -1      1583 8.85346E-01
 -1      1584 9.65195E-01
 -1      1585 9.65195E-01
 -1      1586 7.44713E-01
 -1      1587 8.15030E-01
 -1      1588 8.15030E-01
 -1      1589 6.05875E-01
 -1      1590 6.79280E-01
 -1      1591 6.79280E-01
 -1      1592 4.73997E-01
 -1      1593 5.42560E-01
 -1      1594 5.50532E-01
 -1      1595 3.57147E-01
 -1      1596 4.16659E-01
 -1      1597 4.29880E-01
 -1      1598 2.70946E-01
 -1      1599 3.08309E-01
 -1      1600 3.23704E-01
 -1      1601 2.06275E-01
 -1      1602 2.36651E-01
 -1      1603 2.40571E-01
 -1      1604 1.55008E-01
 -1      1605 1.80642E-01
 -1      1606 1.80642E-01
 -1      1607 1.13514E-01
 -1      1608 1.34379E-01
 -1      1609 1.34379E-01
 -1      1610 8.16014E-02
 -1      1611 9.80864E-02
 -1      1612 9.83220E-02
 -1      1613 5.67921E-02
 -1      1614 6.94816E-02
 -1      1615 7.07743E-02
 -1      1616 4.42305E-02
 -1      1617 4.95801E-02
 -1      1618 5.14425E-02
 -1      1619 3.64456E-02
 -1      1620 4.03381E-02
 -1      1621 4.03381E-02
 -1      1622 2.92611E-02
 -1      1623 3.28534E-02
 -1      1624 3.28534E-02
 -1      1625 2.28567E-02
 -1      1626 2.60589E-02
 -1      1627 2.60589E-02
 -1      1628 1.90129E-02
 -1      1629 2.09348E-02
 -1      1630 2.09348E-02
 -1      1631 1.65301E-02
 -1      1632 1.77715E-02
 -1      1633 1.77715E-02
 -1      1634 1.36505E-02
 -1      1635 1.50903E-02
 -1      1636 1.50903E-02
 -1      1637 1.05081E-02
 -1      1638 1.20793E-02
 -1      1639 1.20793E-02
 -1      1640 7.36288E-03
 -1      1641 8.93551E-03
 -1      1642 8.93551E-03
 -1      1643 5.05839E-03
 -1      1644 6.21064E-03
 -1      1645 6.21064E-03
 -1      1646 3.13789E-03
 -1      1647 4.09814E-03
 -1      1648 4.09814E-03
 -1      1649 2.30232E-03
 -1      1650 1.19285E-03
 -1      1651 1.34022E-03
 -1      1652 7.85706E-04
 -1      1653 1.10513E-03
 -1      1654 1.12597E-03
 -1      1655 5.74139E-04
 -1      1656 6.21691E-04
 -1      1657 8.74238E-04
 -1      1658 8.16584E-04
 -1      1659 7.30078E-04
 -1      1660 8.66162E-04
 -1      1661 9.36515E-04
 -1      1662 8.97801E-04
 -1      1663 1.10332E-03
 -1      1664 9.73749E-04
 -1      1665 9.62215E-04
 -1      1666 1.21024E-03
 -1      1667 9.80974E-04
 -1      1668 9.80191E-04
 -1      1669 1.24238E-03
 -1      1670 9.82312E-04
 -1      1671 9.81537E-04
 -1      1672 1.24938E-03
 -1      1673 9.82312E-04
 -1      1674 9.82312E-04
 -1      1675 1.24995E-03
 -1      1676 9.63483E-04
 -1      1677 9.77049E-04
 -1      1678 1.24468E-03
 -1      1679 9.04666E-04
 -1      1680 9.39947E-04
 -1      1681 1.21589E-03
 -1      1682 7.43636E-04
 -1      1683 8.31015E-04
 -1      1684 1.11870E-03
 -1      1685 6.59961E-04
 -1      1686 5.97385E-04
 -1      1687 8.98796E-04
 -1      1688 1.15422E-03
 -1      1689 6.59961E-04
 -1      1690 7.52546E-04
 -1      1691 2.20615E-03
 -1      1692 1.84455E-03
 -1      1693 1.44288E-03
 -1      1694 2.76265E-03
 -1      1695 2.73982E+01
 -1      1696 2.72116E+01
 -1      1697 3.74391E+01
 -1      1698 2.63988E+01
 -1      1699 4.70380E+01
 -1      1700 4.70380E+01
 -1      1701 2.08888E+01
 -1      1702 3.43732E+01
 -1      1703 1.21051E+01
 -1      1704 1.56758E+01
 -1      1705 1.31815E+01
 -1      1706 1.29278E+01
 -1      1707 1.34352E+01
 -1      1708 1.34352E+01
 -1      1709 1.24990E+01
 -1      1710 1.29671E+01
 -1      1711 1.23914E+01
 -1      1712 1.24452E+01
 -1      1713 1.26334E+01
 -1      1714 1.18719E+01
 -1      1715 2.50678E+01
 -1      1716 1.39144E+01
 -1      1717 3.62213E+01
 -1      1718 3.62213E+01
 -1      1719 3.04185E+01
 -1      1720 3.54148E+01
 -1      1721 2.49599E+01
 -1      1722 2.58505E+01
 -1      1723 2.62650E+01
 -1      1724 2.59386E+01
 -1      1725 2.62769E+01
 -1      1726 2.62650E+01
 -1      1727 3.55214E+01
 -1      1728 2.96599E+01
 -1      1729 3.68472E+01
 -1      1730 3.68472E+01
 -1      1731 1.41623E+01
 -1      1732 2.55047E+01
 -1      1733 1.22645E+01
 -1      1734 1.27947E+01
 -1      1735 1.31831E+01
 -1      1736 1.31020E+01
 -1      1737 1.32642E+01
 -1      1738 1.32642E+01
 -1      1739 1.27144E+01
 -1      1740 1.28287E+01
 -1      1741 1.30355E+01
 -1      1742 1.30355E+01
 -1      1743 1.52270E+01
 -1      1744 1.20747E+01
 -1      1745 3.40868E+01
 -1      1746 1.99863E+01
 -1      1747 4.75411E+01
 -1      1748 4.75411E+01
 -1      1749 2.69636E+01
 -1      1750 3.81967E+01
 -1      1751 2.72116E+01
 -1      1752 2.74569E+01
 -1      1753 1.64954E+01
 -1      1754 3.43732E+01
 -1      1755 2.30232E-03
 -1      1756 2.17579E-03
 -1      1757 2.88395E+01
 -1      1758 3.74391E+01
 -1      1759 2.98389E+01
 -1      1760 1.21051E+01
 -1      1761 1.31815E+01
 -1      1762 1.29671E+01
 -1      1763 1.24452E+01
 -1      1764 1.18719E+01
 -1      1765 1.26334E+01
 -1      1766 2.50678E+01
 -1      1767 3.54148E+01
 -1      1768 3.00403E+01
 -1      1769 2.64511E+01
 -1      1770 2.74298E+01
 -1      1771 3.08127E+01
 -1      1772 3.55214E+01
 -1      1773 2.55047E+01
 -1      1774 1.27947E+01
 -1      1775 1.22645E+01
 -1      1776 1.31831E+01
 -1      1777 1.28287E+01
 -1      1778 1.27144E+01
 -1      1779 1.20747E+01
 -1      1780 1.58733E+01
 -1      1781 3.40868E+01
 -1      1782 3.81967E+01
 -1      1783 2.93456E+01
 -1      1784 9.28228E+00
 -1      1785 1.35959E+00
 -1      1786 1.73234E+00
 -1      1787 2.35936E+00
 -1      1788 4.10168E+00
 -1      1789 1.76018E+00
 -1      1790 9.08190E-01
 -1      1791 1.02680E+00
 -1      1792 7.50622E-01
 -1      1793 8.35726E-01
 -1      1794 7.71910E-01
 -1      1795 6.30909E-01
 -1      1796 6.94856E-01
 -1      1797 6.43681E-01
 -1      1798 5.44418E-01
 -1      1799 5.85041E-01
 -1      1800 5.42048E-01
 -1      1801 5.97209E-01
 -1      1802 5.50654E-01
 -1      1803 5.02416E-01
 -1      1804 7.05317E-01
 -1      1805 6.42482E-01
 -1      1806 5.53924E-01
 -1      1807 8.50944E-01
 -1      1808 7.63238E-01
 -1      1809 6.57118E-01
 -1      1810 1.03894E+00
 -1      1811 9.18379E-01
 -1      1812 7.82475E-01
 -1      1813 1.30946E+00
 -1      1814 1.11980E+00
 -1      1815 9.30773E-01
 -1      1816 1.77798E+00
 -1      1817 1.42140E+00
 -1      1818 1.12358E+00
 -1      1819 2.57434E+00
 -1      1820 1.83836E+00
 -1      1821 1.29590E+00
 -1      1822 7.81347E+00
 -1      1823 2.88076E+00
 -1      1824 1.66269E+00
 -1      1825 2.65498E+00
 -1      1826 4.99642E+00
 -1      1827 1.94665E+00
 -1      1828 2.47837E+00
 -1      1829 1.79250E+00
 -1      1830 3.28194E+00
 -1      1831 2.23096E+00
 -1      1832 1.64592E+00
 -1      1833 1.36729E+00
 -1      1834 1.11036E+00
 -1      1835 1.13450E+00
 -1      1836 1.00624E+00
 -1      1837 8.20998E-01
 -1      1838 7.51748E-01
 -1      1839 7.67061E-01
 -1      1840 6.91060E-01
 -1      1841 5.93687E-01
 -1      1842 7.35784E-01
 -1      1843 7.62000E-01
 -1      1844 5.84474E-01
 -1      1845 8.15920E-01
 -1      1846 8.21476E-01
 -1      1847 6.83118E-01
 -1      1848 8.91478E-01
 -1      1849 1.04328E+00
 -1      1850 8.07039E-01
 -1      1851 1.12659E+00
 -1      1852 1.24871E+00
 -1      1853 9.60353E-01
 -1      1854 1.25817E+00
 -1      1855 1.28256E+00
 -1      1856 1.05312E+00
 -1      1857 1.21041E+00
 -1      1858 1.19899E+00
 -1      1859 9.90424E-01
 -1      1860 1.27968E+00
 -1      1861 1.21764E+00
 -1      1862 9.98959E-01
 -1      1863 1.32919E+00
 -1      1864 1.57442E+00
 -1      1865 1.19119E+00
 -1      1866 1.85965E+00
 -1      1867 2.43518E+00
 -1      1868 1.58798E+00
 -1      1869 2.73063E+00
 -1      1870 3.39064E+00
 -1      1871 2.16866E+00
 -1      1872 3.48280E+00
 -1      1873 3.48326E+00
 -1      1874 2.55627E+00
 -1      1875 3.48765E+00
 -1      1876 3.52762E+00
 -1      1877 2.65282E+00
 -1      1878 3.46114E+00
 -1      1879 2.84061E+00
 -1      1880 2.59074E+00
 -1      1881 2.53043E+00
 -1      1882 1.92185E+00
 -1      1883 2.21407E+00
 -1      1884 1.60238E+00
 -1      1885 1.32352E+00
 -1      1886 1.58441E+00
 -1      1887 1.20631E+00
 -1      1888 1.30071E+00
 -1      1889 1.14773E+00
 -1      1890 1.26205E+00
 -1      1891 1.23142E+00
 -1      1892 9.91856E-01
 -1      1893 1.32206E+00
 -1      1894 1.32412E+00
 -1      1895 1.04384E+00
 -1      1896 1.34467E+00
 -1      1897 1.25352E+00
 -1      1898 1.15503E+00
 -1      1899 1.20550E+00
 -1      1900 1.08984E+00
 -1      1901 1.12755E+00
 -1      1902 1.03183E+00
 -1      1903 9.52187E-01
 -1      1904 1.02152E+00
 -1      1905 9.01349E-01
 -1      1906 8.31890E-01
 -1      1907 9.12676E-01
 -1      1908 7.66618E-01
 -1      1909 6.90350E-01
 -1      1910 7.96565E-01
 -1      1911 6.21986E-01
 -1      1912 5.49444E-01
 -1      1913 6.62929E-01
 -1      1914 4.85534E-01
 -1      1915 4.22092E-01
 -1      1916 5.30655E-01
 -1      1917 3.66391E-01
 -1      1918 3.19946E-01
 -1      1919 4.11045E-01
 -1      1920 2.73705E-01
 -1      1921 2.42415E-01
 -1      1922 3.09103E-01
 -1      1923 2.05417E-01
 -1      1924 1.79455E-01
 -1      1925 2.25864E-01
 -1      1926 1.50737E-01
 -1      1927 1.29400E-01
 -1      1928 1.60149E-01
 -1      1929 1.10294E-01
 -1      1930 9.51592E-02
 -1      1931 1.12325E-01
 -1      1932 8.18355E-02
 -1      1933 7.28454E-02
 -1      1934 7.98957E-02
 -1      1935 6.38275E-02
 -1      1936 5.58074E-02
 -1      1937 5.75541E-02
 -1      1938 5.11244E-02
 -1      1939 4.41916E-02
 -1      1940 4.38532E-02
 -1      1941 4.05257E-02
 -1      1942 3.46694E-02
 -1      1943 3.55044E-02
 -1      1944 3.13285E-02
 -1      1945 2.66399E-02
 -1      1946 2.84976E-02
 -1      1947 2.36787E-02
 -1      1948 2.04767E-02
 -1      1949 2.21956E-02
 -1      1950 1.79014E-02
 -1      1951 1.57770E-02
 -1      1952 1.66592E-02
 -1      1953 1.44666E-02
 -1      1954 1.24117E-02
 -1      1955 1.27734E-02
 -1      1956 1.11177E-02
 -1      1957 9.17872E-03
 -1      1958 1.01689E-02
 -1      1959 7.87511E-03
 -1      1960 6.37223E-03
 -1      1961 7.57127E-03
 -1      1962 5.40566E-03
 -1      1963 4.74951E-03
 -1      1964 5.30109E-03
 -1      1965 4.08746E-03
 -1      1966 3.20126E-03
 -1      1967 2.57181E-03
 -1      1968 3.67247E-03
 -1      1969 1.25679E+00
 -1      1970 1.61810E+00
 -1      1971 1.28733E+00
 -1      1972 9.94507E-01
 -1      1973 1.12233E+00
 -1      1974 8.24327E-01
 -1      1975 8.54373E-01
 -1      1976 9.69162E-01
 -1      1977 6.64530E-01
 -1      1978 6.97411E-01
 -1      1979 8.09065E-01
 -1      1980 5.93878E-01
 -1      1981 6.65708E-01
 -1      1982 7.11731E-01
 -1      1983 5.62891E-01
 -1      1984 6.75999E-01
 -1      1985 6.88749E-01
 -1      1986 6.00252E-01
 -1      1987 6.58645E-01
 -1      1988 6.84471E-01
 -1      1989 6.31764E-01
 -1      1990 7.56148E-01
 -1      1991 6.58645E-01
 -1      1992 6.40236E-01
 -1      1993 7.21071E-01
 -1      1994 6.90405E-01
 -1      1995 5.74493E-01
 -1      1996 8.62204E-01
 -1      1997 7.22622E-01
 -1      1998 5.10301E-01
 -1      1999 1.11503E+00
 -1      2000 1.09561E+00
 -1      2001 7.45261E-01
 -1      2002 1.56227E+00
 -1      2003 1.40522E+00
 -1      2004 1.26886E+00
 -1      2005 1.92711E+00
 -1      2006 1.69668E+00
 -1      2007 1.69347E+00
 -1      2008 2.33167E+00
 -1      2009 1.92711E+00
 -1      2010 1.82788E+00
 -1      2011 2.45055E+00
 -1      2012 2.32832E+00
 -1      2013 1.82453E+00
 -1      2014 2.82096E+00
 -1      2015 2.57893E+00
 -1      2016 1.94956E+00
 -1      2017 2.50825E+00
 -1      2018 2.77809E+00
 -1      2019 2.03506E+00
 -1      2020 1.66538E+00
 -1      2021 2.22663E+00
 -1      2022 1.71056E+00
 -1      2023 1.05079E+00
 -1      2024 1.37607E+00
 -1      2025 1.13962E+00
 -1      2026 7.29008E-01
 -1      2027 9.06305E-01
 -1      2028 7.05831E-01
 -1      2029 8.42684E-01
 -1      2030 8.00718E-01
 -1      2031 6.33060E-01
 -1      2032 9.63832E-01
 -1      2033 8.94260E-01
 -1      2034 7.56346E-01
 -1      2035 9.95402E-01
 -1      2036 9.82578E-01
 -1      2037 8.26667E-01
 -1      2038 9.36527E-01
 -1      2039 9.86701E-01
 -1      2040 8.36711E-01
 -1      2041 8.15233E-01
 -1      2042 8.95083E-01
 -1      2043 7.86565E-01
 -1      2044 7.06028E-01
 -1      2045 7.76344E-01
 -1      2046 7.06232E-01
 -1      2047 5.90214E-01
 -1      2048 6.55647E-01
 -1      2049 6.16962E-01
 -1      2050 4.73814E-01
 -1      2051 5.37129E-01
 -1      2052 5.13495E-01
 -1      2053 3.66499E-01
 -1      2054 4.23837E-01
 -1      2055 4.10433E-01
 -1      2056 2.73836E-01
 -1      2057 3.22674E-01
 -1      2058 3.16632E-01
 -1      2059 2.03128E-01
 -1      2060 2.37423E-01
 -1      2061 2.36393E-01
 -1      2062 1.53509E-01
 -1      2063 1.79142E-01
 -1      2064 1.75995E-01
 -1      2065 1.13750E-01
 -1      2066 1.34379E-01
 -1      2067 1.32880E-01
 -1      2068 8.28942E-02
 -1      2069 9.83220E-02
 -1      2070 9.83220E-02
 -1      2071 5.86545E-02
 -1      2072 7.07743E-02
 -1      2073 7.07743E-02
 -1      2074 4.21437E-02
 -1      2075 4.93557E-02
 -1      2076 4.93557E-02
 -1      2077 3.19439E-02
 -1      2078 3.58363E-02
 -1      2079 3.37495E-02
 -1      2080 2.63090E-02
 -1      2081 2.99013E-02
 -1      2082 2.53995E-02
 -1      2083 2.10110E-02
 -1      2084 2.42132E-02
 -1      2085 2.12611E-02
 -1      2086 1.70688E-02
 -1      2087 1.89907E-02
 -1      2088 1.71450E-02
 -1      2089 1.39567E-02
 -1      2090 1.51981E-02
 -1      2091 1.32539E-02
 -1      2092 1.13595E-02
 -1      2093 1.27993E-02
 -1      2094 1.02259E-02
 -1      2095 8.96916E-03
 -1      2096 1.05403E-02
 -1      2097 8.24935E-03
 -1      2098 6.51507E-03
 -1      2099 8.08770E-03
 -1      2100 6.54872E-03
 -1      2101 4.60955E-03
 -1      2102 5.76180E-03
 -1      2103 4.91398E-03
 -1      2104 2.99846E-03
 -1      2105 3.95870E-03
 -1      2106 3.50987E-03
 -1      2107 2.03636E-03
 -1      2108 1.19850E-03
 -1      2109 1.04256E-03
 -1      2110 1.38720E-03
 -1      2111 1.55122E-03
 -1      2112 1.71954E-03
 -1      2113 1.62478E-03
 -1      2114 1.71250E-03
 -1      2115 2.53516E-03
 -1      2116 2.13774E-03
 -1      2117 1.36052E-03
 -1      2118 1.27930E-03
 -1      2119 1.45570E-03
 -1      2120 1.38679E-03
 -1      2121 1.36109E-03
 -1      2122 1.53708E-03
 -1      2123 1.39324E-03
 -1      2124 1.38679E-03
 -1      2125 1.53765E-03
 -1      2126 1.38016E-03
 -1      2127 1.37960E-03
 -1      2128 1.52401E-03
 -1      2129 1.38156E-03
 -1      2130 1.38156E-03
 -1      2131 1.51178E-03
 -1      2132 1.39444E-03
 -1      2133 1.39971E-03
 -1      2134 1.53132E-03
 -1      2135 1.37091E-03
 -1      2136 1.39444E-03
 -1      2137 1.54946E-03
 -1      2138 1.29556E-03
 -1      2139 1.36922E-03
 -1      2140 1.54777E-03
 -1      2141 1.08131E-03
 -1      2142 1.22756E-03
 -1      2143 1.47807E-03
 -1      2144 1.61600E-03
 -1      2145 1.61600E-03
 -1      2146 1.94476E-03
 -1      2147 3.74391E+01
 -1      2148 2.78401E+01
 -1      2149 3.20424E+01
 -1      2150 3.20424E+01
 -1      2151 3.07721E+01
 -1      2152 3.17714E+01
 -1      2153 1.91904E+01
 -1      2154 3.18552E+01
 -1      2155 2.22563E+01
 -1      2156 1.03752E+01
 -1      2157 1.55882E+01
 -1      2158 1.10959E+00
 -1      2159 1.29799E+00
 -1      2160 1.07156E+00
 -1      2161 9.27166E-01
 -1      2162 1.16758E+01
 -1      2163 1.14221E+01
 -1      2164 1.13335E+01
 -1      2165 1.18016E+01
 -1      2166 1.12861E+01
 -1      2167 1.13399E+01
 -1      2168 9.89360E+00
 -1      2169 1.04131E+01
 -1      2170 1.05958E+01
 -1      2171 9.31480E+00
 -1      2172 2.46965E+01
 -1      2173 1.35430E+01
 -1      2174 2.88512E+01
 -1      2175 2.96577E+01
 -1      2176 2.52452E+01
 -1      2177 2.98131E+01
 -1      2178 3.22698E+01
 -1      2179 3.12911E+01
 -1      2180 3.22698E+01
 -1      2181 3.22698E+01
 -1      2182 3.04381E+01
 -1      2183 2.70551E+01
 -1      2184 2.94815E+01
 -1      2185 2.81557E+01
 -1      2186 1.34829E+01
 -1      2187 2.48253E+01
 -1      2188 9.48212E+00
 -1      2189 1.08498E+01
 -1      2190 1.06075E+01
 -1      2191 9.77001E+00
 -1      2192 1.11107E+01
 -1      2193 1.10296E+01
 -1      2194 1.17425E+01
 -1      2195 1.21779E+01
 -1      2196 1.19899E+01
 -1      2197 1.16688E+01
 -1      2198 1.10180E+01
 -1      2199 9.14562E+00
 -1      2200 1.01064E+01
 -1      2201 1.47727E+01
 -1      2202 1.00133E+01
 -1      2203 3.22385E+01
 -1      2204 1.87843E+01
 -1      2205 2.88524E+01
 -1      2206 3.81967E+01
 -1      2207 3.20424E+01
 -1      2208 3.15491E+01
 -1      2209 1.04020E+01
 -1      2210 9.57932E+00
 -1      2211 1.52626E+01
 -1      2212 1.27446E+01
 -1      2213 9.14240E+00
 -1      2214 2.71800E+00
 -1      2215 8.89630E+00
 -1      2216 1.90016E+00
 -1      2217 3.07721E+01
 -1      2218 3.39749E+01
 -1      2219 2.30634E-03
 -1      2220 3.42459E+01
 -1      2221 8.67214E+00
 -1      2222 3.15491E+01
 -1      2223 2.28942E+01
 -1      2224 1.29243E+01
 -1      2225 9.06083E+00
 -1      2226 1.14271E+01
 -1      2227 9.27359E+00
 -1      2228 1.03408E+01
 -1      2229 8.53509E+00
 -1      2230 7.82510E+00
 -1      2231 1.01704E+01
 -1      2232 1.74597E+01
 -1      2233 2.43982E+01
 -1      2234 3.18952E+01
 -1      2235 3.71098E+01
 -1      2236 3.10639E+01
 -1      2237 2.40561E+01
 -1      2238 1.81329E+01
 -1      2239 1.02244E+01
 -1      2240 7.85595E+00
 -1      2241 9.30781E+00
 -1      2242 1.18016E+01
 -1      2243 1.00421E+01
 -1      2244 1.01679E+01
 -1      2245 1.01744E+01
 -1      2246 8.04500E+00
 -1      2247 8.45384E-01
 -1      2248 1.17394E+00
 -1      2249 5.39071E-01
 -1      2250 5.94837E-01
 -1      2251 6.34775E-01
 -1      2252 7.07239E-01
 -1      2253 5.30166E-01
 -1      2254 4.24355E-01
 -1      2255 4.18119E-01
 -1      2256 5.08125E-01
 -1      2257 4.62853E-01
 -1      2258 3.78556E-01
 -1      2259 6.08363E-01
 -1      2260 5.50441E-01
 -1      2261 4.59370E-01
 -1      2262 7.11863E-01
 -1      2263 6.44428E-01
 -1      2264 5.37752E-01
 -1      2265 8.10393E-01
 -1      2266 7.29530E-01
 -1      2267 5.91484E-01
 -1      2268 1.04777E+00
 -1      2269 9.35830E-01
 -1      2270 7.34587E-01
 -1      2271 5.82116E-01
 -1      2272 7.16568E-01
 -1      2273 6.03173E-01
 -1      2274 1.00318E+00
 -1      2275 7.24552E-01
 -1      2276 7.49323E+00
 -1      2277 6.47316E+00
 -1      2278 6.62107E-01
 -1      2279 5.57982E-01
 -1      2280 5.30786E-01
 -1      2281 5.29487E-01
 -1      2282 4.75550E-01
 -1      2283 4.39845E-01
 -1      2284 5.45935E-01
 -1      2285 5.90659E-01
 -1      2286 4.81735E-01
 -1      2287 6.68863E-01
 -1      2288 7.22783E-01
 -1      2289 6.30324E-01
 -1      2290 7.92391E-01
 -1      2291 8.62392E-01
 -1      2292 7.78136E-01
 -1      2293 9.40759E-01
 -1      2294 1.02407E+00
 -1      2295 9.26111E-01
 -1      2296 1.12252E+00
 -1      2297 1.13197E+00
 -1      2298 1.10292E+00
 -1      2299 1.20988E+00
 -1      2300 1.13773E+00
 -1      2301 1.27928E+00
 -1      2302 1.18402E+00
 -1      2303 1.26470E+00
 -1      2304 1.40348E+00
 -1      2305 1.61023E+00
 -1      2306 1.72178E+00
 -1      2307 1.79529E+00
 -1      2308 1.58664E+00
 -1      2309 1.87188E+00
 -1      2310 2.00568E+00
 -1      2311 1.97894E+00
 -1      2312 2.27439E+00
 -1      2313 1.97760E+00
 -1      2314 2.70646E+00
 -1      2315 2.79862E+00
 -1      2316 2.51674E+00
 -1      2317 2.84102E+00
 -1      2318 2.84542E+00
 -1      2319 2.99121E+00
 -1      2320 2.78086E+00
 -1      2321 2.71437E+00
 -1      2322 2.96905E+00
 -1      2323 2.32406E+00
 -1      2324 2.01387E+00
 -1      2325 2.51418E+00
 -1      2326 1.85214E+00
 -1      2327 1.53267E+00
 -1      2328 1.96213E+00
 -1      2329 1.53673E+00
 -1      2330 1.41952E+00
 -1      2331 1.80446E+00
 -1      2332 1.25410E+00
 -1      2333 1.21544E+00
 -1      2334 1.64310E+00
 -1      2335 1.12212E+00
 -1      2336 1.21276E+00
 -1      2337 1.38437E+00
 -1      2338 1.15142E+00
 -1      2339 1.17196E+00
 -1      2340 1.22970E+00
 -1      2341 1.13892E+00
 -1      2342 1.09090E+00
 -1      2343 1.13531E+00
 -1      2344 1.05157E+00
 -1      2345 9.93558E-01
 -1      2346 1.06294E+00
 -1      2347 9.32803E-01
 -1      2348 8.81965E-01
 -1      2349 9.62847E-01
 -1      2350 8.09165E-01
 -1      2351 7.43893E-01
 -1      2352 8.29292E-01
 -1      2353 6.73600E-01
 -1      2354 6.05236E-01
 -1      2355 6.86200E-01
 -1      2356 5.41419E-01
 -1      2357 4.77509E-01
 -1      2358 5.52090E-01
 -1      2359 4.22099E-01
 -1      2360 3.66399E-01
 -1      2361 4.32863E-01
 -1      2362 3.20107E-01
 -1      2363 2.73866E-01
 -1      2364 3.31162E-01
 -1      2365 2.36365E-01
 -1      2366 1.99367E-01
 -1      2367 2.47369E-01
 -1      2368 1.70299E-01
 -1      2369 1.41582E-01
 -1      2370 1.80799E-01
 -1      2371 1.19913E-01
 -1      2372 1.00807E-01
 -1      2373 1.30064E-01
 -1      2374 8.42517E-02
 -1      2375 7.09279E-02
 -1      2376 9.18396E-02
 -1      2377 5.85452E-02
 -1      2378 4.95273E-02
 -1      2379 6.29011E-02
 -1      2380 4.15218E-02
 -1      2381 3.68388E-02
 -1      2382 4.25128E-02
 -1      2383 3.14797E-02
 -1      2384 2.78138E-02
 -1      2385 2.91482E-02
 -1      2386 2.52360E-02
 -1      2387 2.18952E-02
 -1      2388 2.12114E-02
 -1      2389 2.04535E-02
 -1      2390 1.74924E-02
 -1      2391 1.71919E-02
 -1      2392 1.59834E-02
 -1      2393 1.34081E-02
 -1      2394 1.42412E-02
 -1      2395 1.19350E-02
 -1      2396 1.06245E-02
 -1      2397 1.12591E-02
 -1      2398 9.26849E-03
 -1      2399 7.97444E-03
 -1      2400 8.43003E-03
 -1      2401 7.20617E-03
 -1      2402 5.90256E-03
 -1      2403 6.30573E-03
 -1      2404 5.12165E-03
 -1      2405 4.15508E-03
 -1      2406 4.75655E-03
 -1      2407 4.60421E-01
 -1      2408 5.05729E-01
 -1      2409 5.25414E-01
 -1      2410 5.11094E-01
 -1      2411 4.22945E-01
 -1      2412 6.02090E-01
 -1      2413 5.79049E-01
 -1      2414 5.27252E-01
 -1      2415 6.61091E-01
 -1      2416 6.52619E-01
 -1      2417 6.31417E-01
 -1      2418 6.89223E-01
 -1      2419 6.89223E-01
 -1      2420 7.10079E-01
 -1      2421 6.37818E-01
 -1      2422 7.03561E-01
 -1      2423 7.52548E-01
 -1      2424 7.24006E-01
 -1      2425 7.22455E-01
 -1      2426 8.51523E-01
 -1      2427 1.00444E+00
 -1      2428 7.71029E-01
 -1      2429 9.83184E-01
 -1      2430 1.44745E+00
 -1      2431 1.15726E+00
 -1      2432 1.18303E+00
 -1      2433 1.72896E+00
 -1      2434 1.59455E+00
 -1      2435 1.48295E+00
 -1      2436 1.98885E+00
 -1      2437 1.98885E+00
 -1      2438 1.88994E+00
 -1      2439 1.95497E+00
 -1      2440 1.95832E+00
 -1      2441 2.11929E+00
 -1      2442 2.07271E+00
 -1      2443 1.94433E+00
 -1      2444 2.07812E+00
 -1      2445 1.87075E+00
 -1      2446 1.91362E+00
 -1      2447 1.90839E+00
 -1      2448 1.45988E+00
 -1      2449 1.74150E+00
 -1      2450 1.62006E+00
 -1      2451 1.01555E+00
 -1      2452 1.30486E+00
 -1      2453 1.33581E+00
 -1      2454 7.68283E-01
 -1      2455 9.12764E-01
 -1      2456 1.07800E+00
 -1      2457 7.81073E-01
 -1      2458 7.09363E-01
 -1      2459 9.16296E-01
 -1      2460 8.35790E-01
 -1      2461 7.84215E-01
 -1      2462 8.60517E-01
 -1      2463 8.56839E-01
 -1      2464 8.38094E-01
 -1      2465 8.65962E-01
 -1      2466 8.18497E-01
 -1      2467 8.27199E-01
 -1      2468 8.38626E-01
 -1      2469 7.46321E-01
 -1      2470 7.87766E-01
 -1      2471 7.78253E-01
 -1      2472 6.70449E-01
 -1      2473 7.09337E-01
 -1      2474 7.10538E-01
 -1      2475 5.76077E-01
 -1      2476 6.26458E-01
 -1      2477 6.29564E-01
 -1      2478 4.74016E-01
 -1      2479 5.27101E-01
 -1      2480 5.36598E-01
 -1      2481 3.76142E-01
 -1      2482 4.26119E-01
 -1      2483 4.39725E-01
 -1      2484 2.88989E-01
 -1      2485 3.32813E-01
 -1      2486 3.48499E-01
 -1      2487 2.15428E-01
 -1      2488 2.51842E-01
 -1      2489 2.68023E-01
 -1      2490 1.60863E-01
 -1      2491 1.84848E-01
 -1      2492 2.00296E-01
 -1      2493 1.17379E-01
 -1      2494 1.36509E-01
 -1      2495 1.45362E-01
 -1      2496 8.31117E-02
 -1      2497 9.85396E-02
 -1      2498 1.02169E-01
 -1      2499 5.68121E-02
 -1      2500 6.89319E-02
 -1      2501 6.91495E-02
 -1      2502 3.93192E-02
 -1      2503 4.86181E-02
 -1      2504 4.67757E-02
 -1      2505 2.74421E-02
 -1      2506 3.37495E-02
 -1      2507 3.30118E-02
 -1      2508 2.33569E-02
 -1      2509 2.53995E-02
 -1      2510 2.53995E-02
 -1      2511 1.91653E-02
 -1      2512 2.12611E-02
 -1      2513 2.12611E-02
 -1      2514 1.51246E-02
 -1      2515 1.71450E-02
 -1      2516 1.71450E-02
 -1      2517 1.13832E-02
 -1      2518 1.32539E-02
 -1      2519 1.32539E-02
 -1      2520 8.89302E-03
 -1      2521 1.00504E-02
 -1      2522 1.00504E-02
 -1      2523 7.12798E-03
 -1      2524 7.94715E-03
 -1      2525 7.77165E-03
 -1      2526 5.27593E-03
 -1      2527 6.15740E-03
 -1      2528 5.85519E-03
 -1      2529 4.03970E-03
 -1      2530 4.79297E-03
 -1      2531 4.40164E-03
 -1      2532 3.18601E-03
 -1      2533 1.78084E-03
 -1      2534 1.78027E-03
 -1      2535 1.64230E-03
 -1      2536 1.64230E-03
 -1      2537 1.88549E-03
 -1      2538 2.21320E-03
 -1      2539 2.55785E-03
 -1      2540 1.78027E-03
 -1      2541 1.69946E-03
 -1      2542 2.53777E-03
 -1      2543 2.02403E-03
 -1      2544 1.55359E-03
 -1      2545 1.56722E-03
 -1      2546 1.67187E-03
 -1      2547 1.50892E-03
 -1      2548 1.50752E-03
 -1      2549 1.55073E-03
 -1      2550 1.57617E-03
 -1      2551 1.55802E-03
 -1      2552 1.55376E-03
 -1      2553 1.66345E-03
 -1      2554 1.66345E-03
 -1      2555 1.69015E-03
 -1      2556 1.71616E-03
 -1      2557 1.71785E-03
 -1      2558 1.83184E-03
 -1      2559 1.74628E-03
 -1      2560 1.81429E-03
 -1      2561 1.98437E-03
 -1      2562 2.28098E-03
 -1      2563 1.74628E-03
 -1      2564 2.08250E-03
 -1      2565 3.37040E+01
 -1      2566 3.39749E+01
 -1      2567 2.38525E+01
 -1      2568 2.67844E+01
 -1      2569 3.42459E+01
 -1      2570 3.42459E+01
 -1      2571 3.39749E+01
 -1      2572 4.97211E-01
 -1      2573 5.22556E-01
 -1      2574 3.63754E-01
 -1      2575 2.74494E-03
 -1      2576 1.44460E+01
 -1      2577 2.00299E+01
 -1      2578 1.69858E+00
 -1      2579 1.21154E+00
 -1      2580 8.01594E-01
 -1      2581 1.07156E+00
 -1      2582 6.88676E+00
 -1      2583 7.68266E+00
 -1      2584 4.51289E-01
 -1      2585 4.97157E-01
 -1      2586 4.48313E-01
 -1      2587 3.73228E-01
 -1      2588 8.82539E+00
 -1      2589 8.81892E+00
 -1      2590 7.29344E+00
 -1      2591 6.42574E+00
 -1      2592 7.20025E+00
 -1      2593 8.07331E+00
 -1      2594 5.72801E+00
 -1      2595 6.30682E+00
 -1      2596 1.05610E+01
 -1      2597 7.61377E+00
 -1      2598 1.69107E+01
 -1      2599 1.19494E+01
 -1      2600 2.07922E+01
 -1      2601 1.98303E+01
 -1      2602 3.10639E+01
 -1      2603 2.50180E+01
 -1      2604 3.71098E+01
 -1      2605 3.71098E+01
 -1      2606 2.66805E+01
 -1      2607 3.18952E+01
 -1      2608 1.92268E+01
 -1      2609 2.15091E+01
 -1      2610 1.18731E+01
 -1      2611 1.65292E+01
 -1      2612 6.76135E+00
 -1      2613 9.39450E+00
 -1      2614 5.97036E+00
 -1      2615 5.68247E+00
 -1      2616 4.90660E+00
 -1      2617 7.59011E+00
 -1      2618 7.16800E+00
 -1      2619 9.11716E+00
 -1      2620 9.19083E+00
 -1      2621 6.07120E+00
 -1      2622 7.95473E+00
 -1      2623 1.27389E+01
 -1      2624 8.72729E+00
 -1      2625 2.09371E+01
 -1      2626 1.49789E+01
 -1      2627 2.80926E+01
 -1      2628 2.53958E+01
 -1      2629 1.36355E+00
 -1      2630 1.54017E+00
 -1      2631 1.23374E+00
 -1      2632 9.21603E-01
 -1      2633 8.81892E+00
 -1      2634 6.24839E-01
 -1      2635 7.61974E-01
 -1      2636 8.44766E-01
 -1      2637 4.14797E-01
 -1      2638 1.17337E+00
 -1      2639 5.48368E+00
 -1      2640 2.80926E+01
 -1      2641 1.74805E+01
 -1      2642 1.60423E+01
 -1      2643 1.07818E+01
 -1      2644 3.06499E-03
 -1      2645 2.99143E-03
 -1      2646 5.31964E+00
 -1      2647 9.85620E-01
 -1      2648 2.46729E+01
 -1      2649 2.46729E+01
 -1      2650 1.77533E+01
 -1      2651 6.12753E+00
 -1      2652 1.00996E+00
 -1      2653 5.02538E+00
 -1      2654 1.05182E+01
 -1      2655 7.35702E+00
 -1      2656 8.46403E+00
 -1      2657 1.64273E+01
 -1      2658 1.35382E+01
 -1      2659 1.08407E+01
 -1      2660 2.15091E+01
 -1      2661 8.43997E+00
 -1      2662 8.66733E+00
 -1      2663 8.35094E+00
 -1      2664 6.98385E+00
 -1      2665 3.18952E+01
 -1      2666 3.10639E+01
 -1      2667 2.07922E+01
 -1      2668 1.36468E+01
 -1      2669 9.33881E+00
 -1      2670 6.06464E+00
 -1      2671 5.07231E+00
 -1      2672 8.07197E+00
 -1      2673 5.64883E+00
 -1      2674 8.19774E+00
 -1      2675 7.10803E+00
 -1      2676 6.71784E+00
 -1      2677 2.80874E-03
 -1      2678 2.54326E-03
 -1      2679 2.34478E-03
 -1      2680 3.47079E-03
 -1      2681 3.48510E-03
 -1      2682 3.29135E-03
 -1      2683 4.24800E-01
 -1      2684 3.82484E-01
 -1      2685 3.42903E-01
 -1      2686 3.04404E-01
 -1      2687 3.08332E-01
 -1      2688 5.57529E-01
 -1      2689 5.39862E-01
 -1      2690 7.06863E-01
 -1      2691 5.81426E-01
 -1      2692 5.29804E-01
 -1      2693 5.10685E-01
 -1      2694 6.39501E-01
 -1      2695 7.96006E-01
 -1      2696 3.57354E-01
 -1      2697 4.16915E-01
 -1      2698 4.53243E-01
 -1      2699 2.54848E+01
 -1      2700 1.93315E+01
 -1      2701 4.77872E-01
 -1      2702 4.49376E-01
 -1      2703 4.73802E-01
 -1      2704 5.44187E-01
 -1      2705 5.11829E-01
 -1      2706 6.16351E-01
 -1      2707 6.94555E-01
 -1      2708 6.08418E-01
 -1      2709 7.86782E-01
 -1      2710 8.56390E-01
 -1      2711 7.72809E-01
 -1      2712 9.59449E-01
 -1      2713 1.03782E+00
 -1      2714 9.68095E-01
 -1      2715 1.13815E+00
 -1      2716 1.23660E+00
 -1      2717 1.17149E+00
 -1      2718 1.43083E+00
 -1      2719 1.50874E+00
 -1      2720 1.46606E+00
 -1      2721 1.72237E+00
 -1      2722 1.76865E+00
 -1      2723 1.87392E+00
 -1      2724 2.03487E+00
 -1      2725 2.38039E+00
 -1      2726 2.35376E+00
 -1      2727 2.97881E+00
 -1      2728 2.84367E+00
 -1      2729 3.21839E+00
 -1      2730 2.09089E+00
 -1      2731 2.19795E+00
 -1      2732 3.06402E+00
 -1      2733 3.34805E+00
 -1      2734 3.39046E+00
 -1      2735 3.60995E+00
 -1      2736 3.54539E+00
 -1      2737 3.62282E+00
 -1      2738 3.23251E+00
 -1      2739 4.26371E+00
 -1      2740 2.43081E+00
 -1      2741 2.26907E+00
 -1      2742 3.53944E+00
 -1      2743 2.23845E+00
 -1      2744 2.24252E+00
 -1      2745 2.70713E+00
 -1      2746 2.07805E+00
 -1      2747 1.91263E+00
 -1      2748 2.51204E+00
 -1      2749 1.71707E+00
 -1      2750 1.62375E+00
 -1      2751 2.15201E+00
 -1      2752 1.41524E+00
 -1      2753 1.35389E+00
 -1      2754 1.74794E+00
 -1      2755 1.24518E+00
 -1      2756 1.21214E+00
 -1      2757 1.43072E+00
 -1      2758 1.10789E+00
 -1      2759 1.06856E+00
 -1      2760 1.21776E+00
 -1      2761 9.69482E-01
 -1      2762 9.08727E-01
 -1      2763 1.01444E+00
 -1      2764 8.22569E-01
 -1      2765 7.49769E-01
 -1      2766 8.29203E-01
 -1      2767 6.75643E-01
 -1      2768 6.05351E-01
 -1      2769 6.68919E-01
 -1      2770 5.43957E-01
 -1      2771 4.80139E-01
 -1      2772 5.33400E-01
 -1      2773 4.29307E-01
 -1      2774 3.73897E-01
 -1      2775 4.21173E-01
 -1      2776 3.32185E-01
 -1      2777 2.85893E-01
 -1      2778 3.28628E-01
 -1      2779 2.52026E-01
 -1      2780 2.14524E-01
 -1      2781 2.53049E-01
 -1      2782 1.87363E-01
 -1      2783 1.58295E-01
 -1      2784 1.92020E-01
 -1      2785 1.36805E-01
 -1      2786 1.15137E-01
 -1      2787 1.43368E-01
 -1      2788 9.83837E-02
 -1      2789 8.18280E-02
 -1      2790 1.05125E-01
 -1      2791 6.89715E-02
 -1      2792 5.65887E-02
 -1      2793 7.55156E-02
 -1      2794 4.68905E-02
 -1      2795 3.88850E-02
 -1      2796 5.29609E-02
 -1      2797 3.17074E-02
 -1      2798 2.63483E-02
 -1      2799 3.60851E-02
 -1      2800 2.11519E-02
 -1      2801 1.85741E-02
 -1      2802 2.37111E-02
 -1      2803 1.50837E-02
 -1      2804 1.36421E-02
 -1      2805 1.50242E-02
 -1      2806 1.20958E-02
 -1      2807 1.05868E-02
 -1      2808 9.98761E-03
 -1      2809 1.00094E-02
 -1      2810 8.53633E-03
 -1      2811 7.86397E-03
 -1      2812 7.83875E-03
 -1      2813 6.48273E-03
 -1      2814 6.58904E-03
 -1      2815 5.75454E-03
 -1      2816 4.98626E-03
 -1      2817 5.16325E-03
 -1      2818 4.53409E-03
 -1      2819 3.75318E-03
 -1      2820 3.98289E-03
 -1      2821 5.90999E-01
 -1      2822 5.37364E-01
 -1      2823 3.64532E-03
 -1      2824 4.07891E-03
 -1      2825 4.56187E-03
 -1      2826 4.86868E-01
 -1      2827 4.36195E-01
 -1      2828 5.50615E-01
 -1      2829 8.18997E-01
 -1      2830 7.90865E-01
 -1      2831 9.05460E-01
 -1      2832 8.91123E-01
 -1      2833 9.71908E-01
 -1      2834 1.04455E+00
 -1      2835 9.59910E-01
 -1      2836 1.09848E+00
 -1      2837 1.28430E+00
 -1      2838 1.23728E+00
 -1      2839 1.34566E+00
 -1      2840 1.53296E+00
 -1      2841 1.38014E+00
 -1      2842 1.63423E+00
 -1      2843 2.38336E+00
 -1      2844 2.23626E+00
 -1      2845 2.43337E+00
 -1      2846 3.25188E+00
 -1      2847 2.99199E+00
 -1      2848 3.74531E+00
 -1      2849 3.78722E+00
 -1      2850 3.81775E+00
 -1      2851 4.91981E+00
 -1      2852 3.00161E+00
 -1      2853 3.01225E+00
 -1      2854 4.71071E+00
 -1      2855 2.20457E+00
 -1      2856 2.36365E+00
 -1      2857 3.29778E+00
 -1      2858 1.63876E+00
 -1      2859 1.76800E+00
 -1      2860 2.22326E+00
 -1      2861 1.39126E+00
 -1      2862 1.54628E+00
 -1      2863 1.69421E+00
 -1      2864 1.35897E+00
 -1      2865 1.46176E+00
 -1      2866 1.67223E+00
 -1      2867 1.09538E+00
 -1      2868 1.15430E+00
 -1      2869 1.53805E+00
 -1      2870 1.02449E+00
 -1      2871 1.02135E+00
 -1      2872 1.25936E+00
 -1      2873 9.77649E-01
 -1      2874 9.75346E-01
 -1      2875 1.13618E+00
 -1      2876 8.75757E-01
 -1      2877 9.05398E-01
 -1      2878 1.01478E+00
 -1      2879 7.78253E-01
 -1      2880 8.08985E-01
 -1      2881 8.75757E-01
 -1      2882 6.97895E-01
 -1      2883 7.34879E-01
 -1      2884 7.65611E-01
 -1      2885 6.03971E-01
 -1      2886 6.47962E-01
 -1      2887 6.72303E-01
 -1      2888 5.03219E-01
 -1      2889 5.52195E-01
 -1      2890 5.70593E-01
 -1      2891 4.06222E-01
 -1      2892 4.54119E-01
 -1      2893 4.69717E-01
 -1      2894 3.18935E-01
 -1      2895 3.62264E-01
 -1      2896 3.76658E-01
 -1      2897 2.44034E-01
 -1      2898 2.81181E-01
 -1      2899 2.94946E-01
 -1      2900 1.82068E-01
 -1      2901 2.12648E-01
 -1      2902 2.25806E-01
 -1      2903 1.32321E-01
 -1      2904 1.56675E-01
 -1      2905 1.69027E-01
 -1      2906 9.34273E-02
 -1      2907 1.12267E-01
 -1      2908 1.23580E-01
 -1      2909 6.37633E-02
 -1      2910 7.79430E-02
 -1      2911 8.80411E-02
 -1      2912 4.38786E-02
 -1      2913 5.20727E-02
 -1      2914 6.08662E-02
 -1      2915 2.96879E-02
 -1      2916 3.52577E-02
 -1      2917 4.05547E-02
 -1      2918 2.14533E-02
 -1      2919 2.34959E-02
 -1      2920 2.57417E-02
 -1      2921 1.61646E-02
 -1      2922 1.82604E-02
 -1      2923 1.63568E-02
 -1      2924 1.33184E-02
 -1      2925 1.53387E-02
 -1      2926 1.23380E-02
 -1      2927 1.05587E-02
 -1      2928 1.24294E-02
 -1      2929 1.06231E-02
 -1      2930 8.23080E-03
 -1      2931 9.56364E-03
 -1      2932 8.73913E-03
 -1      2933 6.29821E-03
 -1      2934 7.24408E-03
 -1      2935 6.75735E-03
 -1      2936 4.88460E-03
 -1      2937 5.85519E-03
 -1      2938 5.32762E-03
 -1      2939 4.56187E-03
 -1      2940 1.50466E-03
 -1      2941 1.55073E-03
 -1      2942 3.20815E-03
 -1      2943 2.52385E-03
 -1      2944 2.26158E-03
 -1      2945 2.98568E-03
 -1      2946 1.83460E-03
 -1      2947 1.97314E-03
 -1      2948 1.55208E-03
 -1      2949 1.50297E-03
 -1      2950 1.50297E-03
 -1      2951 1.59680E-03
 -1      2952 1.67187E-03
 -1      2953 1.75953E-03
 -1      2954 1.55073E-03
 -1      2955 1.06039E+01
 -1      2956 8.36397E+00
 -1      2957 1.69015E-03
 -1      2958 1.60287E-03
 -1      2959 1.55208E-03
 -1      2960 1.94481E-03
 -1      2961 1.89041E-03
 -1      2962 1.80312E-03
 -1      2963 2.06499E-03
 -1      2964 1.96685E-03
 -1      2965 2.02543E-03
 -1      2966 2.31650E-03
 -1      2967 2.31650E-03
 -1      2968 2.29898E-03
 -1      2969 2.49557E-03
 -1      2970 4.65312E+00
 -1      2971 5.81555E+00
 -1      2972 1.68214E+01
 -1      2973 1.23627E+01
 -1      2974 3.65453E-01
 -1      2975 3.56935E-01
 -1      2976 3.59053E-01
 -1      2977 4.29376E-01
 -1      2978 8.92026E-01
 -1      2979 6.83663E-01
 -1      2980 8.55919E+00
 -1      2981 1.02607E+01
 -1      2982 2.30688E+01
 -1      2983 2.33397E+01
 -1      2984 7.10469E-01
 -1      2985 6.59939E-01
 -1      2986 6.70051E-01
 -1      2987 8.19387E-01
 -1      2988 6.83663E-01
 -1      2989 6.21218E-01
 -1      2990 6.30749E-01
 -1      2991 7.74095E-01
 -1      2992 5.03356E-01
 -1      2993 4.67291E-01
 -1      2994 3.90405E-01
 -1      2995 4.69401E-01
 -1      2996 5.72722E+00
 -1      2997 8.20578E+00
 -1      2998 4.64636E+00
 -1      2999 3.44871E+00
 -1      3000 4.62634E-01
 -1      3001 5.02573E-01
 -1      3002 6.96942E+00
 -1      3003 5.53557E+00
 -1      3004 6.79151E+00
 -1      3005 4.26641E+00
 -1      3006 5.15984E+00
 -1      3007 6.44379E+00
 -1      3008 4.55803E+00
 -1      3009 8.72424E+00
 -1      3010 7.33583E+00
 -1      3011 1.27088E+01
 -1      3012 9.78918E+00
 -1      3013 1.95324E+01
 -1      3014 1.53066E+01
 -1      3015 2.61709E+01
 -1      3016 2.01250E+01
 -1      3017 1.47628E+01
 -1      3018 1.99342E+01
 -1      3019 3.70699E+00
 -1      3020 4.78586E+00
 -1      3021 4.52761E+00
 -1      3022 3.32797E+00
 -1      3023 2.05437E+01
 -1      3024 2.57584E+01
 -1      3025 1.37974E+01
 -1      3026 8.92026E-01
 -1      3027 6.86017E+00
 -1      3028 8.20916E+00
 -1      3029 5.72571E+00
 -1      3030 6.47780E+00
 -1      3031 4.60793E+00
 -1      3032 4.25339E+00
 -1      3033 1.14925E+01
 -1      3034 1.53151E+01
 -1      3035 4.05804E+00
 -1      3036 4.47164E+00
 -1      3037 5.34979E+00
 -1      3038 6.80953E+00
 -1      3039 6.55196E+00
 -1      3040 3.92415E+00
 -1      3041 6.72100E-01
 -1      3042 7.26835E-01
 -1      3043 6.04568E-01
 -1      3044 2.60284E-01
 -1      3045 2.95938E-01
 -1      3046 3.29108E-01
 -1      3047 1.42136E+01
 -1      3048 7.03518E-01
 -1      3049 1.36966E+01
 -1      3050 2.27276E+01
 -1      3051 1.20924E+01
 -1      3052 6.23900E+00
 -1      3053 1.45786E+01
 -1      3054 5.75572E+00
 -1      3055 8.49253E+00
 -1      3056 8.39061E+00
 -1      3057 3.96679E+00
 -1      3058 3.33479E+00
 -1      3059 3.76686E+00
 -1      3060 2.49468E-03
 -1      3061 2.54556E-03
 -1      3062 2.54556E-03
 -1      3063 4.91981E+00
 -1      3064 5.73812E+00
 -1      3065 3.13158E-03
 -1      3066 3.94141E+00
 -1      3067 5.50358E-01
 -1      3068 1.50520E+01
 -1      3069 1.29405E+01
 -1      3070 1.05022E+01
 -1      3071 3.76405E+00
 -1      3072 2.75201E+00
 -1      3073 4.34280E+00
 -1      3074 9.94483E+00
 -1      3075 9.53349E+00
 -1      3076 1.28802E+01
 -1      3077 1.13054E+01
 -1      3078 1.00808E+01
 -1      3079 1.48195E+01
 -1      3080 1.46394E+01
 -1      3081 3.67208E-01
 -1      3082 4.09122E-01
 -1      3083 3.81529E-01
 -1      3084 2.89917E-01
 -1      3085 1.14490E+01
 -1      3086 7.78620E+00
 -1      3087 5.82922E+00
 -1      3088 4.16611E+00
 -1      3089 5.40397E+00
 -1      3090 3.82731E+00
 -1      3091 7.26835E-01
 -1      3092 4.46932E+00
 -1      3093 4.64556E+00
 -1      3094 6.48682E+00
 -1      3095 7.63684E+00
 -1      3096 5.86805E+00
 -1      3097 3.44808E+00
 -1      3098 6.71418E+00
 -1      3099 5.17627E-01
 -1      3100 4.93729E-01
 -1      3101 5.98235E-01
 -1      3102 6.70398E-01
 -1      3103 7.44703E-01
 -1      3104 8.36931E-01
 -1      3105 7.34520E-01
 -1      3106 9.66203E-01
 -1      3107 1.06926E+00
 -1      3108 9.38097E-01
 -1      3109 1.26016E+00
 -1      3110 1.36050E+00
 -1      3111 1.25827E+00
 -1      3112 1.59906E+00
 -1      3113 1.79329E+00
 -1      3114 1.68772E+00
 -1      3115 2.07316E+00
 -1      3116 2.28679E+00
 -1      3117 2.20616E+00
 -1      3118 2.76520E+00
 -1      3119 3.03141E+00
 -1      3120 2.96444E+00
 -1      3121 4.33122E+00
 -1      3122 4.92963E+00
 -1      3123 2.69047E+00
 -1      3124 3.13971E+00
 -1      3125 3.01738E+00
 -1      3126 2.98676E+00
 -1      3127 3.41935E+00
 -1      3128 2.88731E+00
 -1      3129 2.72284E+00
 -1      3130 3.19756E+00
 -1      3131 2.72450E+00
 -1      3132 2.52894E+00
 -1      3133 3.09977E+00
 -1      3134 2.07331E+00
 -1      3135 1.86480E+00
 -1      3136 2.64580E+00
 -1      3137 1.66764E+00
 -1      3138 1.55892E+00
 -1      3139 1.99301E+00
 -1      3140 1.38277E+00
 -1      3141 1.27853E+00
 -1      3142 1.61969E+00
 -1      3143 1.12348E+00
 -1      3144 1.02440E+00
 -1      3145 1.28849E+00
 -1      3146 9.06834E-01
 -1      3147 8.20676E-01
 -1      3148 1.01588E+00
 -1      3149 7.23547E-01
 -1      3150 6.49421E-01
 -1      3151 8.01178E-01
 -1      3152 5.71090E-01
 -1      3153 5.09697E-01
 -1      3154 6.25718E-01
 -1      3155 4.49575E-01
 -1      3156 3.98742E-01
 -1      3157 4.87265E-01
 -1      3158 3.48147E-01
 -1      3159 3.06435E-01
 -1      3160 3.76548E-01
 -1      3161 2.67052E-01
 -1      3162 2.33185E-01
 -1      3163 2.86571E-01
 -1      3164 2.01628E-01
 -1      3165 1.74466E-01
 -1      3166 2.15631E-01
 -1      3167 1.49602E-01
 -1      3168 1.28112E-01
 -1      3169 1.59210E-01
 -1      3170 1.09749E-01
 -1      3171 9.29961E-02
 -1      3172 1.15983E-01
 -1      3173 7.89751E-02
 -1      3174 6.61186E-02
 -1      3175 8.35991E-02
 -1      3176 5.55314E-02
 -1      3177 4.58332E-02
 -1      3178 5.89909E-02
 -1      3179 3.79761E-02
 -1      3180 3.07985E-02
 -1      3181 4.05466E-02
 -1      3182 2.50849E-02
 -1      3183 1.98884E-02
 -1      3184 2.69758E-02
 -1      3185 1.58344E-02
 -1      3186 1.23440E-02
 -1      3187 1.72082E-02
 -1      3188 9.55811E-03
 -1      3189 8.01182E-03
 -1      3190 1.03682E-02
 -1      3191 6.98200E-03
 -1      3192 6.40465E-03
 -1      3193 6.55250E-03
 -1      3194 5.61363E-03
 -1      3195 4.91604E-03
 -1      3196 4.73166E-03
 -1      3197 4.69588E-03
 -1      3198 3.96768E-03
 -1      3199 3.72047E-03
 -1      3200 6.03004E-01
 -1      3201 5.52507E-01
 -1      3202 1.37680E+00
 -1      3203 1.32235E+00
 -1      3204 1.14528E+00
 -1      3205 1.07315E+00
 -1      3206 1.42359E+00
 -1      3207 2.05851E+00
 -1      3208 1.96267E+00
 -1      3209 3.13667E+00
 -1      3210 2.43337E+00
 -1      3211 2.76181E+00
 -1      3212 4.35394E+00
 -1      3213 3.74531E+00
 -1      3214 5.48568E+00
 -1      3215 4.91981E+00
 -1      3216 5.09308E+00
 -1      3217 5.86805E+00
 -1      3218 2.22326E+00
 -1      3219 2.65982E+00
 -1      3220 2.10793E+00
 -1      3221 2.20041E+00
 -1      3222 2.63698E+00
 -1      3223 2.03862E+00
 -1      3224 1.96813E+00
 -1      3225 2.47432E+00
 -1      3226 1.95742E+00
 -1      3227 2.16209E+00
 -1      3228 2.45799E+00
 -1      3229 1.51163E+00
 -1      3230 1.58566E+00
 -1      3231 2.20970E+00
 -1      3232 1.29943E+00
 -1      3233 1.34858E+00
 -1      3234 1.67488E+00
 -1      3235 1.06895E+00
 -1      3236 1.14120E+00
 -1      3237 1.35360E+00
 -1      3238 9.07078E-01
 -1      3239 9.73850E-01
 -1      3240 1.10027E+00
 -1      3241 7.83133E-01
 -1      3242 8.26507E-01
 -1      3243 9.24600E-01
 -1      3244 6.59064E-01
 -1      3245 7.08998E-01
 -1      3246 7.69894E-01
 -1      3247 5.41320E-01
 -1      3248 5.93096E-01
 -1      3249 6.29791E-01
 -1      3250 4.33882E-01
 -1      3251 4.82982E-01
 -1      3252 5.05485E-01
 -1      3253 3.40543E-01
 -1      3254 3.84501E-01
 -1      3255 3.97767E-01
 -1      3256 2.63357E-01
 -1      3257 3.01110E-01
 -1      3258 3.08954E-01
 -1      3259 1.99918E-01
 -1      3260 2.31304E-01
 -1      3261 2.37469E-01
 -1      3262 1.48833E-01
 -1      3263 1.74226E-01
 -1      3264 1.79724E-01
 -1      3265 1.08482E-01
 -1      3266 1.28537E-01
 -1      3267 1.33736E-01
 -1      3268 7.72088E-02
 -1      3269 9.26930E-02
 -1      3270 9.76502E-02
 -1      3271 5.34352E-02
 -1      3272 6.51258E-02
 -1      3273 6.97777E-02
 -1      3274 3.57322E-02
 -1      3275 4.43531E-02
 -1      3276 4.86127E-02
 -1      3277 2.28503E-02
 -1      3278 2.90423E-02
 -1      3279 3.28408E-02
 -1      3280 1.48444E-02
 -1      3281 1.80373E-02
 -1      3282 2.13379E-02
 -1      3283 1.06543E-02
 -1      3284 1.14802E-02
 -1      3285 1.31606E-02
 -1      3286 7.97919E-03
 -1      3287 8.86814E-03
 -1      3288 8.01031E-03
 -1      3289 6.76984E-03
 -1      3290 7.76490E-03
 -1      3291 6.00990E-03
 -1      3292 5.38698E-03
 -1      3293 6.37370E-03
 -1      3294 5.39947E-03
 -1      3295 3.04060E-03
 -1      3296 3.19221E-01
 -1      3297 2.79640E-01
 -1      3298 1.84159E-03
 -1      3299 1.64133E-03
 -1      3300 1.42377E-03
 -1      3301 1.42546E-03
 -1      3302 2.23742E-03
 -1      3303 2.21537E-03
 -1      3304 2.05358E-03
 -1      3305 1.52877E-03
 -1      3306 1.47798E-03
 -1      3307 1.40047E-03
 -1      3308 1.56724E-03
 -1      3309 1.32351E+01
 -1      3310 1.07251E+01
 -1      3311 1.76176E+00
 -1      3312 1.56903E+00
 -1      3313 1.79290E+00
 -1      3314 2.18604E+00
 -1      3315 3.65311E-03
 -1      3316 1.08206E+01
 -1      3317 1.29657E+01
 -1      3318 6.71286E+00
 -1      3319 5.31831E+00
 -1      3320 6.16480E+00
 -1      3321 7.74095E-01
 -1      3322 5.24072E-01
 -1      3323 5.48498E-01
 -1      3324 6.10479E-01
 -1      3325 1.25649E+01
 -1      3326 1.19723E+01
 -1      3327 1.09353E+01
 -1      3328 8.33748E+00
 -1      3329 1.13056E+01
 -1      3330 1.19151E+01
 -1      3331 7.58789E+00
 -1      3332 8.81975E+00
 -1      3333 9.42513E+00
 -1      3334 7.66635E+00
 -1      3335 6.19315E+00
 -1      3336 5.69511E+00
 -1      3337 4.80306E+00
 -1      3338 7.03402E+00
 -1      3339 5.96909E+00
 -1      3340 6.52037E+00
 -1      3341 4.34699E+00
 -1      3342 1.19151E+01
 -1      3343 1.23276E+01
 -1      3344 4.69674E-01
 -1      3345 4.73018E-01
 -1      3346 4.36943E-01
 -1      3347 3.75903E-01
 -1      3348 2.94874E+00
 -1      3349 3.74531E+00
 -1      3350 2.46982E-01
 -1      3351 2.38516E-01
 -1      3352 2.57871E-01
 -1      3353 9.68145E+00
 -1      3354 1.00226E+01
 -1      3355 8.40965E+00
 -1      3356 4.74266E+00
 -1      3357 1.09952E+01
 -1      3358 4.71549E+00
 -1      3359 5.74599E+00
 -1      3360 1.98773E-03
 -1      3361 2.56015E-03
 -1      3362 8.07906E+00
 -1      3363 1.01536E+01
 -1      3364 7.04208E+00
 -1      3365 3.17884E+00
 -1      3366 2.42606E+00
 -1      3367 8.44662E+00
 -1      3368 9.47715E+00
 -1      3369 7.27649E-01
 -1      3370 5.84303E-01
 -1      3371 6.20972E-01
 -1      3372 8.58291E+00
 -1      3373 1.14873E+01
 -1      3374 8.82021E+00
 -1      3375 6.97172E-01
 -1      3376 6.99064E-01
 -1      3377 7.66111E-01
 -1      3378 3.98289E-03
 -1      3379 3.53072E-03
 -1      3380 7.74095E-01
 -1      3381 3.24312E-03
 -1      3382 3.82914E-03
 -1      3383 4.15188E-03
 -1      3384 2.73618E-03
 -1      3385 1.10201E+00
 -1      3386 9.28641E-01
 -1      3387 8.48245E-01
 -1      3388 3.90281E+00
 -1      3389 4.03692E+00
 -1      3390 4.26833E+00
 -1      3391 3.45937E+00
 -1      3392 4.09733E+00
 -1      3393 3.04060E-03
 -1      3394 4.37646E-03
 -1      3395 4.81948E-03
 -1      3396 4.43583E-03
 -1      3397 3.64374E-03
 -1      3398 1.63634E-03
 -1      3399 1.79907E-03
 -1      3400 1.86454E-03
 -1      3401 3.81079E-01
 -1      3402 3.52387E-01
 -1      3403 4.23570E-01
 -1      3404 1.48097E-03
 -1      3405 1.52704E-03
 -1      3406 1.56658E-03
 -1      3407 1.40177E-03
 -1      3408 3.19044E+00
 -1      3409 4.06858E+00
 -1      3410 2.78910E-03
 -1      3411 8.91670E+00
 -1      3412 8.65357E+00
 -1      3413 6.97109E+00
 -1      3414 4.44370E+00
 -1      3415 2.55892E+00
 -1      3416 3.51551E-03
 -1      3417 3.45937E+00
 -1      3418 2.97904E-03
 -1      3419 5.24325E+00
 -1      3420 3.85722E-01
 -1      3421 3.86141E-01
 -1      3422 4.02572E-01
 -1      3423 4.81021E-01
 -1      3424 6.50548E-01
 -1      3425 7.92357E+00
 -1      3426 9.80614E+00
 -1      3427 7.92377E+00
 -1      3428 5.25467E+00
 -1      3429 5.71001E-01
 -1      3430 5.83179E-01
 -1      3431 5.46673E-01
 -1      3432 4.98181E-01
 -1      3433 4.27439E-01
 -1      3434 4.54527E-01
 -1      3435 5.50570E-01
 -1      3436 6.44467E+00
 -1      3437 5.73093E+00
 -1      3438 9.42319E+00
 -1      3439 4.93498E+00
 -1      3440 4.94293E+00
 -1      3441 3.71389E-01
 -1      3442 4.24902E-01
 -1      3443 4.70882E-01
 -1      3444 4.69500E+00
 -1      3445 3.06356E+00
 -1      3446 4.00492E+00
 -1      3447 9.28005E-01
 -1      3448 1.05728E+00
 -1      3449 1.23607E+00
 -1      3450 1.42697E+00
 -1      3451 1.22598E+00
 -1      3452 1.70331E+00
 -1      3453 1.94187E+00
 -1      3454 1.68112E+00
 -1      3455 2.19735E+00
 -1      3456 2.47722E+00
 -1      3457 2.21293E+00
 -1      3458 3.21427E+00
 -1      3459 3.69268E+00
 -1      3460 3.20546E+00
 -1      3461 9.06105E+00
 -1      3462 9.81715E+00
 -1      3463 7.76543E+00
 -1      3464 6.46546E+00
 -1      3465 4.16888E+00
 -1      3466 3.74264E+00
 -1      3467 3.74430E+00
 -1      3468 4.81341E+00
 -1      3469 3.19621E+00
 -1      3470 2.74058E+00
 -1      3471 2.45685E+00
 -1      3472 2.25969E+00
 -1      3473 3.00726E+00
 -1      3474 1.84422E+00
 -1      3475 1.66807E+00
 -1      3476 2.30807E+00
 -1      3477 1.41754E+00
 -1      3478 1.26249E+00
 -1      3479 1.64207E+00
 -1      3480 1.10042E+00
 -1      3481 9.82848E-01
 -1      3482 1.22946E+00
 -1      3483 8.82316E-01
 -1      3484 7.85187E-01
 -1      3485 9.66858E-01
 -1      3486 6.97157E-01
 -1      3487 6.18826E-01
 -1      3488 7.78296E-01
 -1      3489 5.44440E-01
 -1      3490 4.84318E-01
 -1      3491 6.15879E-01
 -1      3492 4.22951E-01
 -1      3493 3.72356E-01
 -1      3494 4.80126E-01
 -1      3495 3.22553E-01
 -1      3496 2.83171E-01
 -1      3497 3.68956E-01
 -1      3498 2.43325E-01
 -1      3499 2.11768E-01
 -1      3500 2.79308E-01
 -1      3501 1.80330E-01
 -1      3502 1.55466E-01
 -1      3503 2.08025E-01
 -1      3504 1.31014E-01
 -1      3505 1.12651E-01
 -1      3506 1.52134E-01
 -1      3507 9.39198E-02
 -1      3508 7.98988E-02
 -1      3509 1.08951E-01
 -1      3510 6.61715E-02
 -1      3511 5.55843E-02
 -1      3512 7.64922E-02
 -1      3513 4.56498E-02
 -1      3514 3.77927E-02
 -1      3515 5.28304E-02
 -1      3516 3.04769E-02
 -1      3517 2.47633E-02
 -1      3518 3.55802E-02
 -1      3519 1.95335E-02
 -1      3520 1.54795E-02
 -1      3521 2.30346E-02
 -1      3522 1.18426E-02
 -1      3523 9.05667E-03
 -1      3524 1.41679E-02
 -1      3525 6.66311E-03
 -1      3526 5.63330E-03
 -1      3527 8.13746E-03
 -1      3528 4.42134E-03
 -1      3529 3.63032E-03
 -1      3530 4.53195E-03
 -1      3531 3.51692E-03
 -1      3532 3.29675E-03
 -1      3533 3.20660E-03
 -1      3534 7.27649E-01
 -1      3535 3.52795E+00
 -1      3536 2.53607E+00
 -1      3537 2.27306E+00
 -1      3538 2.64482E+00
 -1      3539 1.88426E+00
 -1      3540 2.04732E+00
 -1      3541 2.48244E+00
 -1      3542 1.43608E+00
 -1      3543 1.59430E+00
 -1      3544 1.96674E+00
 -1      3545 1.16700E+00
 -1      3546 1.26210E+00
 -1      3547 1.50280E+00
 -1      3548 9.31118E-01
 -1      3549 1.01169E+00
 -1      3550 1.17352E+00
 -1      3551 7.42319E-01
 -1      3552 8.16454E-01
 -1      3553 9.03544E-01
 -1      3554 5.97710E-01
 -1      3555 6.63678E-01
 -1      3556 7.10238E-01
 -1      3557 4.81930E-01
 -1      3558 5.40268E-01
 -1      3559 5.74155E-01
 -1      3560 3.82204E-01
 -1      3561 4.31585E-01
 -1      3562 4.66368E-01
 -1      3563 2.98409E-01
 -1      3564 3.37841E-01
 -1      3565 3.71660E-01
 -1      3566 2.28719E-01
 -1      3567 2.60772E-01
 -1      3568 2.89660E-01
 -1      3569 1.72004E-01
 -1      3570 1.97696E-01
 -1      3571 2.20999E-01
 -1      3572 1.26746E-01
 -1      3573 1.47042E-01
 -1      3574 1.65014E-01
 -1      3575 9.13094E-02
 -1      3576 1.07099E-01
 -1      3577 1.20405E-01
 -1      3578 6.42319E-02
 -1      3579 7.63150E-02
 -1      3580 8.57636E-02
 -1      3581 4.43343E-02
 -1      3582 5.34163E-02
 -1      3583 5.99536E-02
 -1      3584 2.95510E-02
 -1      3585 3.62409E-02
 -1      3586 4.10445E-02
 -1      3587 1.88187E-02
 -1      3588 2.36317E-02
 -1      3589 2.70318E-02
 -1      3590 1.12936E-02
 -1      3591 1.46577E-02
 -1      3592 1.69516E-02
 -1      3593 6.74411E-03
 -1      3594 8.53024E-03
 -1      3595 1.00273E-02
 -1      3596 5.01347E-03
 -1      3597 5.22775E-03
 -1      3598 5.74768E-03
 -1      3599 4.19243E-03
 -1      3600 4.58858E-03
 -1      3601 3.80643E-03
 -1      3602 2.83007E+00
 -1      3603 2.97450E+00
 -1      3604 8.00227E+00
 -1      3605 8.27172E+00
 -1      3606 6.29056E+00
 -1      3607 3.96129E+00
 -1      3608 2.11908E-03
 -1      3609 1.74530E-03
 -1      3610 8.83598E+00
 -1      3611 8.17799E+00
 -1      3612 6.48783E+00
 -1      3613 2.79093E-01
 -1      3614 3.17192E-01
 -1      3615 3.60565E-01
 -1      3616 2.83469E+00
 -1      3617 7.04208E+00
 -1      3618 5.73862E+00
 -1      3619 7.74219E+00
 -1      3620 7.74219E+00
 -1      3621 1.74712E+00
 -1      3622 1.57004E+00
 -1      3623 5.76690E+00
 -1      3624 3.46111E+00
 -1      3625 6.04102E-01
 -1      3626 5.59595E-01
 -1      3627 6.04204E-01
 -1      3628 5.69833E-01
 -1      3629 4.57024E+00
 -1      3630 4.29626E+00
 -1      3631 3.15526E+00
 -1      3632 5.09195E+00
 -1      3633 7.34520E-01
 -1      3634 8.08825E-01
 -1      3635 9.28005E-01
 -1      3636 3.76749E+00
 -1      3637 4.91071E+00
 -1      3638 5.96753E-01
 -1      3639 6.46490E-01
 -1      3640 7.20794E-01
 -1      3641 3.58458E+00
 -1      3642 8.84352E+00
 -1      3643 6.77365E+00
 -1      3644 6.90936E+00
 -1      3645 7.23591E+00
 -1      3646 5.41718E+00
 -1      3647 6.15833E+00
 -1      3648 4.10157E-01
 -1      3649 3.48299E-01
 -1      3650 4.64288E+00
 -1      3651 8.75365E-01
 -1      3652 6.26033E+00
 -1      3653 7.47551E+00
 -1      3654 5.08572E+00
 -1      3655 6.93653E-01
 -1      3656 2.76437E+00
 -1      3657 6.90191E+00
 -1      3658 3.83908E+00
 -1      3659 7.29701E+00
 -1      3660 6.09158E+00
 -1      3661 6.49895E+00
 -1      3662 2.31194E-03
 -1      3663 2.99491E-03
 -1      3664 3.21950E-03
 -1      3665 3.41806E-01
 -1      3666 3.09148E-01
 -1      3667 3.99576E-01
 -1      3668 2.95435E+00
 -1      3669 3.23989E-03
 -1      3670 2.68821E-03
 -1      3671 1.58644E-03
 -1      3672 1.53223E-03
 -1      3673 5.37348E-01
 -1      3674 1.33401E+00
 -1      3675 1.18950E+00
 -1      3676 1.65754E+00
 -1      3677 1.52887E-03
 -1      3678 1.58438E-03
 -1      3679 1.71484E-03
 -1      3680 2.37994E-03
 -1      3681 1.69900E-03
 -1      3682 1.58644E-03
 -1      3683 1.71821E-03
 -1      3684 5.54929E+00
 -1      3685 5.64623E+00
 -1      3686 3.58585E+00
 -1      3687 2.71521E+00
 -1      3688 2.86166E+00
 -1      3689 2.90743E+00
 -1      3690 1.76451E-03
 -1      3691 2.65791E-01
 -1      3692 7.29196E+00
 -1      3693 5.61096E+00
 -1      3694 5.79254E+00
 -1      3695 6.12353E-01
 -1      3696 5.52123E-01
 -1      3697 5.88134E-01
 -1      3698 5.35252E-01
 -1      3699 2.82773E+00
 -1      3700 3.36510E-03
 -1      3701 3.93260E-03
 -1      3702 3.12170E-03
 -1      3703 2.71627E-03
 -1      3704 5.73398E-01
 -1      3705 5.19071E-01
 -1      3706 3.22469E-03
 -1      3707 5.97443E+00
 -1      3708 7.21922E+00
 -1      3709 7.48330E-01
 -1      3710 6.54162E-01
 -1      3711 6.22663E-01
 -1      3712 4.58104E-01
 -1      3713 5.14223E-01
 -1      3714 5.22474E-01
 -1      3715 5.72001E+00
 -1      3716 1.64469E-03
 -1      3717 1.83335E-03
 -1      3718 2.09209E-03
 -1      3719 5.43785E+00
 -1      3720 4.47908E+00
 -1      3721 5.70550E-01
 -1      3722 5.66462E-01
 -1      3723 6.93653E-01
 -1      3724 1.22598E+00
 -1      3725 1.40478E+00
 -1      3726 1.01409E+00
 -1      3727 9.31953E-01
 -1      3728 1.24609E+00
 -1      3729 1.68112E+00
 -1      3730 1.95746E+00
 -1      3731 1.68112E+00
 -1      3732 2.03710E+00
 -1      3733 2.29258E+00
 -1      3734 2.03710E+00
 -1      3735 3.60837E+00
 -1      3736 4.34541E+00
 -1      3737 4.88199E+00
 -1      3738 3.43254E+00
 -1      3739 5.27238E+00
 -1      3740 5.27238E+00
 -1      3741 3.02113E-03
 -1      3742 2.55640E+00
 -1      3743 2.14093E+00
 -1      3744 1.85592E+00
 -1      3745 1.60539E+00
 -1      3746 2.10425E+00
 -1      3747 1.39154E+00
 -1      3748 1.22946E+00
 -1      3749 1.60539E+00
 -1      3750 1.06367E+00
 -1      3751 9.63134E-01
 -1      3752 1.22574E+00
 -1      3753 8.39572E-01
 -1      3754 7.51541E-01
 -1      3755 9.36379E-01
 -1      3756 6.57348E-01
 -1      3757 5.82962E-01
 -1      3758 7.18624E-01
 -1      3759 5.10425E-01
 -1      3760 4.49058E-01
 -1      3761 5.51894E-01
 -1      3762 3.92511E-01
 -1      3763 3.42708E-01
 -1      3764 4.22809E-01
 -1      3765 2.98361E-01
 -1      3766 2.58516E-01
 -1      3767 3.21916E-01
 -1      3768 2.23735E-01
 -1      3769 1.92297E-01
 -1      3770 2.42788E-01
 -1      3771 1.65142E-01
 -1      3772 1.40690E-01
 -1      3773 1.80852E-01
 -1      3774 1.19665E-01
 -1      3775 1.00933E-01
 -1      3776 1.32672E-01
 -1      3777 8.48347E-02
 -1      3778 7.11074E-02
 -1      3779 9.55484E-02
 -1      3780 5.89490E-02
 -1      3781 4.90145E-02
 -1      3782 6.72915E-02
 -1      3783 4.02997E-02
 -1      3784 3.29839E-02
 -1      3785 4.64183E-02
 -1      3786 2.67565E-02
 -1      3787 2.15267E-02
 -1      3788 3.14760E-02
 -1      3789 1.70024E-02
 -1      3790 1.33655E-02
 -1      3791 2.07242E-02
 -1      3792 1.01545E-02
 -1      3793 7.76094E-03
 -1      3794 1.29889E-02
 -1      3795 5.54955E-03
 -1      3796 4.33759E-03
 -1      3797 7.56659E-03
 -1      3798 3.16749E-03
 -1      3799 3.05410E-03
 -1      3800 4.18509E-03
 -1      3801 1.57556E+00
 -1      3802 1.74953E+00
 -1      3803 4.53763E+00
 -1      3804 2.52710E+00
 -1      3805 2.81705E+00
 -1      3806 2.59985E+00
 -1      3807 1.15038E+00
 -1      3808 1.30569E+00
 -1      3809 1.55242E+00
 -1      3810 8.80159E-01
 -1      3811 9.94823E-01
 -1      3812 1.12700E+00
 -1      3813 7.10238E-01
 -1      3814 7.88880E-01
 -1      3815 8.80159E-01
 -1      3816 5.74155E-01
 -1      3817 6.31597E-01
 -1      3818 7.10238E-01
 -1      3819 4.57772E-01
 -1      3820 5.08117E-01
 -1      3821 5.65559E-01
 -1      3822 3.58844E-01
 -1      3823 4.03207E-01
 -1      3824 4.44956E-01
 -1      3825 2.76640E-01
 -1      3826 3.14278E-01
 -1      3827 3.45825E-01
 -1      3828 2.09606E-01
 -1      3829 2.40630E-01
 -1      3830 2.65248E-01
 -1      3831 1.55881E-01
 -1      3832 1.80842E-01
 -1      3833 2.00473E-01
 -1      3834 1.13548E-01
 -1      3835 1.33196E-01
 -1      3836 1.49024E-01
 -1      3837 8.09132E-02
 -1      3838 9.59077E-02
 -1      3839 1.08698E-01
 -1      3840 5.65915E-02
 -1      3841 6.74071E-02
 -1      3842 7.75512E-02
 -1      3843 3.84480E-02
 -1      3844 4.65414E-02
 -1      3845 5.39950E-02
 -1      3846 2.54807E-02
 -1      3847 3.14000E-02
 -1      3848 3.68969E-02
 -1      3849 1.61415E-02
 -1      3850 2.03024E-02
 -1      3851 2.46706E-02
 -1      3852 9.66178E-03
 -1      3853 1.24251E-02
 -1      3854 1.57759E-02
 -1      3855 5.54873E-03
 -1      3856 7.06509E-03
 -1      3857 9.46283E-03
 -1      3858 3.39877E-03
 -1      3859 3.82366E-03
 -1      3860 5.14108E-03
 -1      3861 9.13243E-01
 -1      3862 1.03242E+00
 -1      3863 1.21122E+00
 -1      3864 6.86712E-01
 -1      3865 7.74743E-01
 -1      3866 8.79161E-01
 -1      3867 1.33443E-03
 -1      3868 1.44373E-03
 -1      3869 1.41254E-03
 -1      3870 1.46153E-03
 -1      3871 3.17937E-01
 -1      3872 3.58514E-01
 -1      3873 4.01872E-01
 -1      3874 6.11550E-01
 -1      3875 5.69833E-01
 -1      3876 7.26855E-01
 -1      3877 6.34377E-01
 -1      3878 5.08819E+00
 -1      3879 5.18803E+00
 -1      3880 6.54198E+00
 -1      3881 6.94945E+00
 -1      3882 5.72218E-01
 -1      3883 6.16848E-01
 -1      3884 6.70797E-01
 -1      3885 5.51189E-01
 -1      3886 2.74707E-03
 -1      3887 2.74707E-03
 -1      3888 3.87666E+00
 -1      3889 7.26855E-01
 -1      3890 3.58514E-01
 -1      3891 4.12711E-01
 -1      3892 4.56053E-01
 -1      3893 4.10661E-01
 -1      3894 3.90424E+00
 -1      3895 3.62051E+00
 -1      3896 3.45337E+00
 -1      3897 3.46630E+00
 -1      3898 5.04504E+00
 -1      3899 5.45594E+00
 -1      3900 6.29666E+00
 -1      3901 5.15088E+00
 -1      3902 6.29666E+00
 -1      3903 4.71235E+00
 -1      3904 4.85068E+00
 -1      3905 8.87051E-01
 -1      3906 4.13549E+00
 -1      3907 4.97864E+00
 -1      3908 3.99069E+00
 -1      3909 2.41449E-03
 -1      3910 2.34242E-03
 -1      3911 2.37538E-03
 -1      3912 6.21477E+00
 -1      3913 5.24114E+00
 -1      3914 5.28123E+00
 -1      3915 6.00708E+00
 -1      3916 4.89444E+00
 -1      3917 5.16915E+00
 -1      3918 3.24056E+00
 -1      3919 1.77329E-03
 -1      3920 4.73192E-01
 -1      3921 4.66699E-01
 -1      3922 5.12017E+00
 -1      3923 1.56623E-03
 -1      3924 2.04482E-03
 -1      3925 2.19042E-03
 -1      3926 3.77593E-03
 -1      3927 2.74707E-03
 -1      3928 2.74370E-03
 -1      3929 5.65716E+00
 -1      3930 4.05708E+00
 -1      3931 2.04603E+00
 -1      3932 1.81000E+00
 -1      3933 5.32735E+00
 -1      3934 4.18767E+00
 -1      3935 3.12356E+00
 -1      3936 4.62208E+00
 -1      3937 5.53934E-01
 -1      3938 6.46412E-01
 -1      3939 4.95452E+00
 -1      3940 3.80092E+00
 -1      3941 6.58619E-01
 -1      3942 6.70653E-01
 -1      3943 7.39383E-01
 -1      3944 4.55129E+00
 -1      3945 5.00153E+00
 -1      3946 2.45624E-03
 -1      3947 2.71608E-03
 -1      3948 2.73331E-03
 -1      3949 1.78479E-03
 -1      3950 2.41755E-03
 -1      3951 2.37125E-03
 -1      3952 4.39627E+00
 -1      3953 3.40011E-03
 -1      3954 7.73448E-01
 -1      3955 9.11948E-01
 -1      3956 1.05637E+00
 -1      3957 8.72745E-01
 -1      3958 9.08700E-01
 -1      3959 1.56716E+00
 -1      3960 1.84350E+00
 -1      3961 2.37623E+00
 -1      3962 2.45587E+00
 -1      3963 2.26227E+00
 -1      3964 2.38926E+00
 -1      3965 2.10425E+00
 -1      3966 1.77608E+00
 -1      3967 1.56223E+00
 -1      3968 2.06110E+00
 -1      3969 1.29899E+00
 -1      3970 1.13319E+00
 -1      3971 1.46969E+00
 -1      3972 9.70299E-01
 -1      3973 8.46737E-01
 -1      3974 1.04355E+00
 -1      3975 7.34204E-01
 -1      3976 6.40011E-01
 -1      3977 7.68124E-01
 -1      3978 5.60103E-01
 -1      3979 4.87566E-01
 -1      3980 5.75683E-01
 -1      3981 4.28318E-01
 -1      3982 3.71771E-01
 -1      3983 4.36528E-01
 -1      3984 3.26615E-01
 -1      3985 2.82269E-01
 -1      3986 3.32124E-01
 -1      3987 2.47308E-01
 -1      3988 2.12527E-01
 -1      3989 2.52008E-01
 -1      3990 1.85289E-01
 -1      3991 1.58135E-01
 -1      3992 1.89810E-01
 -1      3993 1.36935E-01
 -1      3994 1.15910E-01
 -1      3995 1.41372E-01
 -1      3996 9.95104E-02
 -1      3997 8.34119E-02
 -1      3998 1.03773E-01
 -1      3999 7.08518E-02
 -1      4000 5.86934E-02
 -1      4001 7.48138E-02
 -1      4002 4.91980E-02
 -1      4003 4.04831E-02
 -1      4004 5.27582E-02
 -1      4005 3.35139E-02
 -1      4006 2.72864E-02
 -1      4007 3.62935E-02
 -1      4008 2.25010E-02
 -1      4009 1.79767E-02
 -1      4010 2.45389E-02
 -1      4011 1.45055E-02
 -1      4012 1.12945E-02
 -1      4013 1.62823E-02
 -1      4014 9.47557E-03
 -1      4015 7.26417E-03
 -1      4016 1.09921E-02
 -1      4017 1.12700E+00
 -1      4018 1.28255E+00
 -1      4019 4.84587E-01
 -1      4020 5.51711E-01
 -1      4021 4.69666E+00
 -1      4022 1.41222E+00
 -1      4023 1.23680E+00
 -1      4024 1.80071E+00
 -1      4025 5.40316E-01
 -1      4026 4.66699E-01
 -1      4027 4.75488E-01
 -1      4028 2.55105E+00
 -1      4029 3.32862E+00
 -1      4030 8.80159E-01
 -1      4031 9.71439E-01
 -1      4032 1.12700E+00
 -1      4033 2.38004E-03
 -1      4034 6.84541E-01
 -1      4035 7.63182E-01
 -1      4036 8.54462E-01
 -1      4037 5.31581E-01
 -1      4038 5.97619E-01
 -1      4039 6.50563E-01
 -1      4040 4.10987E-01
 -1      4041 4.65552E-01
 -1      4042 4.97612E-01
 -1      4043 3.15477E-01
 -1      4044 3.60043E-01
 -1      4045 3.80639E-01
 -1      4046 2.39796E-01
 -1      4047 2.75807E-01
 -1      4048 2.90025E-01
 -1      4049 1.80025E-01
 -1      4050 2.08789E-01
 -1      4051 2.19347E-01
 -1      4052 1.33139E-01
 -1      4053 1.55825E-01
 -1      4054 1.64140E-01
 -1      4055 9.67211E-02
 -1      4056 1.14362E-01
 -1      4057 1.21163E-01
 -1      4058 6.87788E-02
 -1      4059 8.22849E-02
 -1      4060 8.79487E-02
 -1      4061 4.77636E-02
 -1      4062 5.78136E-02
 -1      4063 6.25473E-02
 -1      4064 3.25083E-02
 -1      4065 3.95563E-02
 -1      4066 4.33749E-02
 -1      4067 2.16408E-02
 -1      4068 2.68191E-02
 -1      4069 2.94785E-02
 -1      4070 1.38480E-02
 -1      4071 1.75643E-02
 -1      4072 1.97128E-02
 -1      4073 8.29773E-03
 -1      4074 1.08944E-02
 -1      4075 1.26829E-02
 -1      4076 4.54404E-03
 -1      4077 6.26911E-03
 -1      4078 7.70070E-03
 -1      4079 1.14350E+00
 -1      4080 1.33706E+00
 -1      4081 1.49944E+00
 -1      4082 7.26855E-01
 -1      4083 2.62785E+00
 -1      4084 2.78031E+00
 -1      4085 4.19436E+00
 -1      4086 4.40056E+00
 -1      4087 3.79113E+00
 -1      4088 2.87857E+00
 -1      4089 2.98002E+00
 -1      4090 2.39820E+00
 -1      4091 1.59168E+00
 -1      4092 1.86155E+00
 -1      4093 1.59168E+00
 -1      4094 6.44980E-01
 -1      4095 4.46032E-03
 -1      4096 4.83614E-03
 -1      4097 3.59594E+00
 -1      4098 3.76390E+00
 -1      4099 4.21831E+00
 -1      4100 3.82327E+00
 -1      4101 3.01964E-03
 -1      4102 6.60385E-01
 -1      4103 6.48990E-01
 -1      4104 4.64787E+00
 -1      4105 3.52954E+00
 -1      4106 4.27382E+00
 -1      4107 6.46412E-01
 -1      4108 3.21770E+00
 -1      4109 7.39325E-01
 -1      4110 6.30651E-01
 -1      4111 6.30651E-01
 -1      4112 3.12356E+00
 -1      4113 2.31043E+00
 -1      4114 2.11072E+00
 -1      4115 1.71294E+00
 -1      4116 7.53475E-03
 -1      4117 5.62577E-03
 -1      4118 4.80440E+00
 -1      4119 4.03782E+00
 -1      4120 4.10981E+00
 -1      4121 4.45567E-03
 -1      4122 4.21831E+00
 -1      4123 4.21831E+00
 -1      4124 3.58594E+00
 -1      4125 1.83206E-03
 -1      4126 1.78479E-03
 -1      4127 1.63110E-03
 -1      4128 6.51098E-03
 -1      4129 6.51098E-03
 -1      4130 7.57120E-03
 -1      4131 2.59032E+00
 -1      4132 3.59491E-03
 -1      4133 4.72295E-03
 -1      4134 2.91222E-03
 -1      4135 1.03779E+00
 -1      4136 2.74265E-03
 -1      4137 2.49270E-03
 -1      4138 2.91222E-03
 -1      4139 3.77487E-03
 -1      4140 4.62208E+00
 -1      4141 3.85786E+00
 -1      4142 3.12356E+00
 -1      4143 4.13022E+00
 -1      4144 3.36843E+00
 -1      4145 5.64146E-01
 -1      4146 4.99319E-01
 -1      4147 4.99319E-01
 -1      4148 1.22250E+00
 -1      4149 5.05797E-01
 -1      4150 6.64319E-01
 -1      4151 6.97106E-01
 -1      4152 5.64537E-01
 -1      4153 3.14743E+00
 -1      4154 3.19047E+00
 -1      4155 6.70653E-01
 -1      4156 6.69222E-01
 -1      4157 7.66501E-01
 -1      4158 7.75338E-01
 -1      4159 1.05926E+00
 -1      4160 9.25897E-01
 -1      4161 9.25897E-01
 -1      4162 8.90495E-03
 -1      4163 7.26655E-03
 -1      4164 8.94139E-03
 -1      4165 3.91318E+00
 -1      4166 1.73713E+00
 -1      4167 1.47389E+00
 -1      4168 1.03546E+00
 -1      4169 8.72566E-01
 -1      4170 1.30290E+00
 -1      4171 7.62996E-01
 -1      4172 6.50463E-01
 -1      4173 7.54906E-01
 -1      4174 5.74174E-01
 -1      4175 4.94266E-01
 -1      4176 5.69046E-01
 -1      4177 4.37924E-01
 -1      4178 3.78676E-01
 -1      4179 4.36415E-01
 -1      4180 3.35665E-01
 -1      4181 2.90509E-01
 -1      4182 3.37061E-01
 -1      4183 2.56918E-01
 -1      4184 2.21957E-01
 -1      4185 2.60458E-01
 -1      4186 1.95415E-01
 -1      4187 1.68178E-01
 -1      4188 2.00324E-01
 -1      4189 1.47145E-01
 -1      4190 1.25945E-01
 -1      4191 1.52750E-01
 -1      4192 1.09332E-01
 -1      4193 9.29322E-02
 -1      4194 1.15104E-01
 -1      4195 7.99069E-02
 -1      4196 6.73468E-02
 -1      4197 8.54653E-02
 -1      4198 5.72398E-02
 -1      4199 4.77444E-02
 -1      4200 6.23330E-02
 -1      4201 3.99987E-02
 -1      4202 3.30294E-02
 -1      4203 4.44803E-02
 -1      4204 2.73230E-02
 -1      4205 2.25376E-02
 -1      4206 3.10282E-02
 -1      4207 1.94100E-02
 -1      4208 1.59387E-02
 -1      4209 2.21941E-02
 -1      4210 1.11937E-02
 -1      4211 9.37472E-03
 -1      4212 9.10651E-03
 -1      4213 1.43214E-02
 -1      4214 3.27982E+00
 -1      4215 3.91318E+00
 -1      4216 3.47645E+00
 -1      4217 2.59032E+00
 -1      4218 1.04684E+00
 -1      4219 1.20240E+00
 -1      4220 4.32186E-01
 -1      4221 4.98216E-01
 -1      4222 3.27314E-01
 -1      4223 3.78257E-01
 -1      4224 3.78861E-01
 -1      4225 2.47400E-01
 -1      4226 2.87070E-01
 -1      4227 2.84689E-01
 -1      4228 1.86754E-01
 -1      4229 2.17761E-01
 -1      4230 2.14807E-01
 -1      4231 1.40894E-01
 -1      4232 1.65094E-01
 -1      4233 1.63508E-01
 -1      4234 1.04727E-01
 -1      4235 1.23504E-01
 -1      4236 1.24458E-01
 -1      4237 7.64736E-02
 -1      4238 9.09098E-02
 -1      4239 9.32514E-02
 -1      4240 5.46692E-02
 -1      4241 6.56344E-02
 -1      4242 6.85955E-02
 -1      4243 3.80792E-02
 -1      4244 4.62864E-02
 -1      4245 4.93734E-02
 -1      4246 2.60089E-02
 -1      4247 3.16981E-02
 -1      4248 3.46096E-02
 -1      4249 1.75843E-02
 -1      4250 2.16608E-02
 -1      4251 2.38804E-02
 -1      4252 1.50270E-02
 -1      4253 1.79806E-02
 -1      4254 1.99285E-02
 -1      4255 7.09877E-03
 -1      4256 9.12740E-03
 -1      4257 1.44251E-02
 -1      4258 1.26933E+00
 -1      4259 1.49944E+00
 -1      4260 7.63743E-01
 -1      4261 8.80720E-01
 -1      4262 9.56124E-01
 -1      4263 9.04825E-01
 -1      4264 9.28656E-01
 -1      4265 9.95160E-01
 -1      4266 1.59168E+00
 -1      4267 1.90081E+00
 -1      4268 1.51153E+00
 -1      4269 5.72398E-01
 -1      4270 6.59320E-01
 -1      4271 5.06973E-01
 -1      4272 2.31258E+00
 -1      4273 1.98441E+00
 -1      4274 1.98861E+00
 -1      4275 5.75661E-01
 -1      4276 3.72830E+00
 -1      4277 3.15144E+00
 -1      4278 2.60192E+00
 -1      4279 3.09593E+00
 -1      4280 1.47516E+00
 -1      4281 1.29472E+00
 -1      4282 1.31192E+00
 -1      4283 1.78517E+00
 -1      4284 1.80636E+00
 -1      4285 2.33909E+00
 -1      4286 2.73456E+00
 -1      4287 1.57626E+00
 -1      4288 1.03779E+00
 -1      4289 2.59032E+00
 -1      4290 7.68119E-01
 -1      4291 7.49780E-01
 -1      4292 2.31444E+00
 -1      4293 3.62183E+00
 -1      4294 3.98658E+00
 -1      4295 3.71422E+00
 -1      4296 2.73456E+00
 -1      4297 1.26933E+00
 -1      4298 4.85379E-03
 -1      4299 6.28049E-03
 -1      4300 3.90467E-03
 -1      4301 1.26933E+00
 -1      4302 6.51098E-03
 -1      4303 6.50993E-03
 -1      4304 9.24604E-03
 -1      4305 3.04687E+00
 -1      4306 6.85578E-01
 -1      4307 2.05062E-03
 -1      4308 2.91222E-03
 -1      4309 8.90009E-01
 -1      4310 8.81172E-01
 -1      4311 8.91627E-01
 -1      4312 1.04057E+00
 -1      4313 2.31444E+00
 -1      4314 2.02295E+00
 -1      4315 2.80444E+00
 -1      4316 1.88503E+00
 -1      4317 2.57453E+00
 -1      4318 1.77280E+00
 -1      4319 1.33437E+00
 -1      4320 8.03812E-01
 -1      4321 6.94242E-01
 -1      4322 1.27371E+00
 -1      4323 6.04106E-01
 -1      4324 5.27816E-01
 -1      4325 6.53012E-01
 -1      4326 4.63750E-01
 -1      4327 4.07407E-01
 -1      4328 4.98809E-01
 -1      4329 3.59159E-01
 -1      4330 3.16148E-01
 -1      4331 3.86494E-01
 -1      4332 2.78601E-01
 -1      4333 2.45009E-01
 -1      4334 3.00699E-01
 -1      4335 2.15258E-01
 -1      4336 1.88717E-01
 -1      4337 2.33401E-01
 -1      4338 1.64973E-01
 -1      4339 1.43941E-01
 -1      4340 1.79907E-01
 -1      4341 1.25005E-01
 -1      4342 1.08392E-01
 -1      4343 1.37228E-01
 -1      4344 9.33805E-02
 -1      4345 8.03551E-02
 -1      4346 1.03281E-01
 -1      4347 6.85680E-02
 -1      4348 5.84610E-02
 -1      4349 7.64832E-02
 -1      4350 4.93157E-02
 -1      4351 4.15700E-02
 -1      4352 5.55508E-02
 -1      4353 3.45716E-02
 -1      4354 2.88652E-02
 -1      4355 3.94070E-02
 -1      4356 2.38147E-02
 -1      4357 2.06870E-02
 -1      4358 2.73581E-02
 -1      4359 1.94409E-01
 -1      4360 2.24048E-01
 -1      4361 1.57626E+00
 -1      4362 1.88318E+00
 -1      4363 3.42520E+00
 -1      4364 2.73456E+00
 -1      4365 2.53799E-01
 -1      4366 2.94042E-01
 -1      4367 2.05257E+00
 -1      4368 1.80529E+00
 -1      4369 3.31589E-01
 -1      4370 3.85518E-01
 -1      4371 1.49006E-01
 -1      4372 1.70666E-01
 -1      4373 1.12680E-01
 -1      4374 1.30071E-01
 -1      4375 8.38525E-02
 -1      4376 9.76692E-02
 -1      4377 6.12262E-02
 -1      4378 7.20654E-02
 -1      4379 4.36980E-02
 -1      4380 5.20808E-02
 -1      4381 3.03186E-02
 -1      4382 3.66996E-02
 -1      4383 2.09199E-02
 -1      4384 2.52681E-02
 -1      4385 2.13162E-02
 -1      4386 1.44251E-02
 -1      4387 2.03247E-02
 -1      4388 7.66575E-01
 -1      4389 9.32698E-01
 -1      4390 3.77382E-03
 -1      4391 1.46326E+00
 -1      4392 1.85254E+00
 -1      4393 4.33766E-01
 -1      4394 5.07949E-01
 -1      4395 1.21140E+00
 -1      4396 1.21140E+00
 -1      4397 1.51832E+00
 -1      4398 9.37222E-01
 -1      4399 5.72015E-01
 -1      4400 6.76439E-01
 -1      4401 1.95306E+00
 -1      4402 1.83675E+00
 -1      4403 2.13162E-02
 -1      4404 1.96956E-02
 -1      4405 1.78517E+00
 -1      4406 2.71991E+00
 -1      4407 2.90324E+00
 -1      4408 9.66016E-01
 -1      4409 1.47854E-02
 -1      4410 1.47854E-02
 -1      4411 3.90467E-03
 -1      4412 8.74954E-01
 -1      4413 1.06240E+00
 -1      4414 1.42726E+00
 -1      4415 9.88007E-01
 -1      4416 1.47681E+00
 -1      4417 1.24134E+00
 -1      4418 1.20546E+00
 -1      4419 1.71459E+00
 -1      4420 1.44807E-02
 -1      4421 1.49505E-02
 -1      4422 8.88576E-03
 -1      4423 1.64471E+00
 -1      4424 1.18878E+00
 -1      4425 6.64078E-03
 -3
 9999
