    1C
    1UUSER                                                              
    1UDATE              26.october.2022                                 
    1UTIME              23:38:27                                        
    1UHOST                                                              
    1UPGM               CalculiX                                        
    1UVERSION           Version 2.17                             
    1UCOMPILETIME       Thu Jul 23 21:43:50 CEST 2020                    
    1UDIR                                                               
    1UDBN                                                               
    1UMAT    1SOLIDMATERIAL                                             
    2C                          4317                                     1
 -1         1 9.71454E+01 2.63636E+01 0.00000E+00
 -1         2 9.89558E+01 2.16661E+01 0.00000E+00
 -1         3 1.50000E+02 0.00000E+00 0.00000E+00
 -1         4 1.50000E+02 5.00000E+01 0.00000E+00
 -1         5 0.00000E+00 0.00000E+00 0.00000E+00
 -1         6 0.00000E+00 5.00000E+01 0.00000E+00
 -1         7 0.00000E+00 4.70500E+01 0.00000E+00
 -1         8 0.00000E+00 4.41000E+01 0.00000E+00
 -1         9 0.00000E+00 4.11500E+01 0.00000E+00
 -1        10 0.00000E+00 3.82000E+01 0.00000E+00
 -1        11 0.00000E+00 3.52500E+01 0.00000E+00
 -1        12 0.00000E+00 3.23500E+01 0.00000E+00
 -1        13 0.00000E+00 2.94000E+01 0.00000E+00
 -1        14 0.00000E+00 2.64500E+01 0.00000E+00
 -1        15 0.00000E+00 2.35000E+01 0.00000E+00
 -1        16 0.00000E+00 2.05500E+01 0.00000E+00
 -1        17 0.00000E+00 1.76000E+01 0.00000E+00
 -1        18 0.00000E+00 1.47000E+01 0.00000E+00
 -1        19 0.00000E+00 1.17500E+01 0.00000E+00
 -1        20 0.00000E+00 8.80000E+00 0.00000E+00
 -1        21 0.00000E+00 5.85000E+00 0.00000E+00
 -1        22 0.00000E+00 2.90000E+00 0.00000E+00
 -1        23 3.15000E+00 5.00000E+01 0.00000E+00
 -1        24 6.15000E+00 5.00000E+01 0.00000E+00
 -1        25 9.15000E+00 5.00000E+01 0.00000E+00
 -1        26 1.21500E+01 5.00000E+01 0.00000E+00
 -1        27 1.51500E+01 5.00000E+01 0.00000E+00
 -1        28 1.81500E+01 5.00000E+01 0.00000E+00
 -1        29 2.11500E+01 5.00000E+01 0.00000E+00
 -1        30 2.41500E+01 5.00000E+01 0.00000E+00
 -1        31 2.71500E+01 5.00000E+01 0.00000E+00
 -1        32 3.01500E+01 5.00000E+01 0.00000E+00
 -1        33 3.31500E+01 5.00000E+01 0.00000E+00
 -1        34 3.61500E+01 5.00000E+01 0.00000E+00
 -1        35 3.91500E+01 5.00000E+01 0.00000E+00
 -1        36 4.21500E+01 5.00000E+01 0.00000E+00
 -1        37 4.51500E+01 5.00000E+01 0.00000E+00
 -1        38 4.81500E+01 5.00000E+01 0.00000E+00
 -1        39 5.11500E+01 5.00000E+01 0.00000E+00
 -1        40 5.41500E+01 5.00000E+01 0.00000E+00
 -1        41 5.71500E+01 5.00000E+01 0.00000E+00
 -1        42 6.01500E+01 5.00000E+01 0.00000E+00
 -1        43 6.31500E+01 5.00000E+01 0.00000E+00
 -1        44 6.61500E+01 5.00000E+01 0.00000E+00
 -1        45 6.91500E+01 5.00000E+01 0.00000E+00
 -1        46 7.21500E+01 5.00000E+01 0.00000E+00
 -1        47 7.51500E+01 5.00000E+01 0.00000E+00
 -1        48 7.81500E+01 5.00000E+01 0.00000E+00
 -1        49 8.11500E+01 5.00000E+01 0.00000E+00
 -1        50 8.41500E+01 5.00000E+01 0.00000E+00
 -1        51 8.71500E+01 5.00000E+01 0.00000E+00
 -1        52 9.01500E+01 5.00000E+01 0.00000E+00
 -1        53 9.31500E+01 5.00000E+01 0.00000E+00
 -1        54 9.61500E+01 5.00000E+01 0.00000E+00
 -1        55 9.91500E+01 5.00000E+01 0.00000E+00
 -1        56 1.02150E+02 5.00000E+01 0.00000E+00
 -1        57 1.05150E+02 5.00000E+01 0.00000E+00
 -1        58 1.08150E+02 5.00000E+01 0.00000E+00
 -1        59 1.11150E+02 5.00000E+01 0.00000E+00
 -1        60 1.14150E+02 5.00000E+01 0.00000E+00
 -1        61 1.17150E+02 5.00000E+01 0.00000E+00
 -1        62 1.20150E+02 5.00000E+01 0.00000E+00
 -1        63 1.23150E+02 5.00000E+01 0.00000E+00
 -1        64 1.26150E+02 5.00000E+01 0.00000E+00
 -1        65 1.29150E+02 5.00000E+01 0.00000E+00
 -1        66 1.32150E+02 5.00000E+01 0.00000E+00
 -1        67 1.35150E+02 5.00000E+01 0.00000E+00
 -1        68 1.38150E+02 5.00000E+01 0.00000E+00
 -1        69 1.41150E+02 5.00000E+01 0.00000E+00
 -1        70 1.44150E+02 5.00000E+01 0.00000E+00
 -1        71 1.47150E+02 5.00000E+01 0.00000E+00
 -1        72 3.15000E+00 0.00000E+00 0.00000E+00
 -1        73 6.15000E+00 0.00000E+00 0.00000E+00
 -1        74 9.15000E+00 0.00000E+00 0.00000E+00
 -1        75 1.21500E+01 0.00000E+00 0.00000E+00
 -1        76 1.51500E+01 0.00000E+00 0.00000E+00
 -1        77 1.81500E+01 0.00000E+00 0.00000E+00
 -1        78 2.11500E+01 0.00000E+00 0.00000E+00
 -1        79 2.41500E+01 0.00000E+00 0.00000E+00
 -1        80 2.71500E+01 0.00000E+00 0.00000E+00
 -1        81 3.01500E+01 0.00000E+00 0.00000E+00
 -1        82 3.31500E+01 0.00000E+00 0.00000E+00
 -1        83 3.61500E+01 0.00000E+00 0.00000E+00
 -1        84 3.91500E+01 0.00000E+00 0.00000E+00
 -1        85 4.21500E+01 0.00000E+00 0.00000E+00
 -1        86 4.51500E+01 0.00000E+00 0.00000E+00
 -1        87 4.81500E+01 0.00000E+00 0.00000E+00
 -1        88 5.11500E+01 0.00000E+00 0.00000E+00
 -1        89 5.41500E+01 0.00000E+00 0.00000E+00
 -1        90 5.71500E+01 0.00000E+00 0.00000E+00
 -1        91 6.01500E+01 0.00000E+00 0.00000E+00
 -1        92 6.31500E+01 0.00000E+00 0.00000E+00
 -1        93 6.61500E+01 0.00000E+00 0.00000E+00
 -1        94 6.91500E+01 0.00000E+00 0.00000E+00
 -1        95 7.21500E+01 0.00000E+00 0.00000E+00
 -1        96 7.51500E+01 0.00000E+00 0.00000E+00
 -1        97 7.81500E+01 0.00000E+00 0.00000E+00
 -1        98 8.11500E+01 0.00000E+00 0.00000E+00
 -1        99 8.41500E+01 0.00000E+00 0.00000E+00
 -1       100 8.71500E+01 0.00000E+00 0.00000E+00
 -1       101 9.01500E+01 0.00000E+00 0.00000E+00
 -1       102 9.31500E+01 0.00000E+00 0.00000E+00
 -1       103 9.61500E+01 0.00000E+00 0.00000E+00
 -1       104 9.91500E+01 0.00000E+00 0.00000E+00
 -1       105 1.02150E+02 0.00000E+00 0.00000E+00
 -1       106 1.05150E+02 0.00000E+00 0.00000E+00
 -1       107 1.08150E+02 0.00000E+00 0.00000E+00
 -1       108 1.11150E+02 0.00000E+00 0.00000E+00
 -1       109 1.14150E+02 0.00000E+00 0.00000E+00
 -1       110 1.17150E+02 0.00000E+00 0.00000E+00
 -1       111 1.20150E+02 0.00000E+00 0.00000E+00
 -1       112 1.23150E+02 0.00000E+00 0.00000E+00
 -1       113 1.26150E+02 0.00000E+00 0.00000E+00
 -1       114 1.29150E+02 0.00000E+00 0.00000E+00
 -1       115 1.32150E+02 0.00000E+00 0.00000E+00
 -1       116 1.35150E+02 0.00000E+00 0.00000E+00
 -1       117 1.38150E+02 0.00000E+00 0.00000E+00
 -1       118 1.41150E+02 0.00000E+00 0.00000E+00
 -1       119 1.44150E+02 0.00000E+00 0.00000E+00
 -1       120 1.47150E+02 0.00000E+00 0.00000E+00
 -1       121 1.50000E+02 2.95000E+00 0.00000E+00
 -1       122 1.50000E+02 5.90000E+00 0.00000E+00
 -1       123 1.50000E+02 8.85000E+00 0.00000E+00
 -1       124 1.50000E+02 1.18000E+01 0.00000E+00
 -1       125 1.50000E+02 1.47500E+01 0.00000E+00
 -1       126 1.50000E+02 1.76500E+01 0.00000E+00
 -1       127 1.50000E+02 2.06000E+01 0.00000E+00
 -1       128 1.50000E+02 2.35500E+01 0.00000E+00
 -1       129 1.50000E+02 2.65000E+01 0.00000E+00
 -1       130 1.50000E+02 2.94500E+01 0.00000E+00
 -1       131 1.50000E+02 3.24000E+01 0.00000E+00
 -1       132 1.50000E+02 3.53000E+01 0.00000E+00
 -1       133 1.50000E+02 3.82500E+01 0.00000E+00
 -1       134 1.50000E+02 4.12000E+01 0.00000E+00
 -1       135 1.50000E+02 4.41500E+01 0.00000E+00
 -1       136 1.50000E+02 4.71000E+01 0.00000E+00
 -1       137 9.87910E+01 2.01564E+01 0.00000E+00
 -1       138 9.83326E+01 1.87790E+01 0.00000E+00
 -1       139 9.74734E+01 1.73585E+01 0.00000E+00
 -1       140 9.64216E+01 1.62757E+01 0.00000E+00
 -1       141 9.51308E+01 1.54276E+01 0.00000E+00
 -1       142 9.36586E+01 1.48763E+01 0.00000E+00
 -1       143 9.20219E+01 1.46664E+01 0.00000E+00
 -1       144 9.05554E+01 1.48076E+01 0.00000E+00
 -1       145 8.90433E+01 1.53007E+01 0.00000E+00
 -1       146 8.77647E+01 1.60594E+01 0.00000E+00
 -1       147 8.66442E+01 1.71068E+01 0.00000E+00
 -1       148 8.57915E+01 1.83491E+01 0.00000E+00
 -1       149 8.52258E+01 1.97406E+01 0.00000E+00
 -1       150 8.49728E+01 2.11780E+01 0.00000E+00
 -1       151 8.50466E+01 2.27901E+01 0.00000E+00
 -1       152 8.54477E+01 2.42438E+01 0.00000E+00
 -1       153 8.62059E+01 2.56585E+01 0.00000E+00
 -1       154 8.73185E+01 2.69097E+01 0.00000E+00
 -1       155 8.87512E+01 2.78895E+01 0.00000E+00
 -1       156 9.01753E+01 2.84358E+01 0.00000E+00
 -1       157 9.17144E+01 2.86619E+01 0.00000E+00
 -1       158 9.33214E+01 2.85316E+01 0.00000E+00
 -1       159 9.47571E+01 2.80811E+01 0.00000E+00
 -1       160 9.60209E+01 2.73647E+01 0.00000E+00
 -1       161 9.79299E+01 2.53144E+01 0.00000E+00
 -1       162 9.85074E+01 2.41311E+01 0.00000E+00
 -1       163 9.88441E+01 2.29114E+01 0.00000E+00
 -1       164 2.59800E+00 4.55750E+01 0.00000E+00
 -1       165 2.59800E+00 4.26250E+01 0.00000E+00
 -1       166 2.59800E+00 3.96750E+01 0.00000E+00
 -1       167 2.59800E+00 3.67250E+01 0.00000E+00
 -1       168 2.59800E+00 3.38250E+01 0.00000E+00
 -1       169 2.59800E+00 3.08750E+01 0.00000E+00
 -1       170 2.59800E+00 2.79250E+01 0.00000E+00
 -1       171 2.59800E+00 2.49750E+01 0.00000E+00
 -1       172 2.59800E+00 2.20250E+01 0.00000E+00
 -1       173 2.59800E+00 1.90750E+01 0.00000E+00
 -1       174 2.59800E+00 1.61750E+01 0.00000E+00
 -1       175 2.59800E+00 1.32250E+01 0.00000E+00
 -1       176 2.59800E+00 1.02750E+01 0.00000E+00
 -1       177 2.59800E+00 7.32500E+00 0.00000E+00
 -1       178 2.59800E+00 4.37500E+00 0.00000E+00
 -1       179 2.87400E+00 2.18750E+00 0.00000E+00
 -1       180 4.65000E+00 4.74020E+01 0.00000E+00
 -1       181 7.65000E+00 4.74020E+01 0.00000E+00
 -1       182 1.06500E+01 4.74020E+01 0.00000E+00
 -1       183 1.36500E+01 4.74020E+01 0.00000E+00
 -1       184 1.66500E+01 4.74020E+01 0.00000E+00
 -1       185 1.96500E+01 4.74020E+01 0.00000E+00
 -1       186 2.26500E+01 4.74020E+01 0.00000E+00
 -1       187 2.56500E+01 4.74020E+01 0.00000E+00
 -1       188 2.86500E+01 4.74020E+01 0.00000E+00
 -1       189 3.16500E+01 4.74020E+01 0.00000E+00
 -1       190 3.46500E+01 4.74020E+01 0.00000E+00
 -1       191 3.76500E+01 4.74020E+01 0.00000E+00
 -1       192 4.06500E+01 4.74020E+01 0.00000E+00
 -1       193 4.36500E+01 4.74020E+01 0.00000E+00
 -1       194 4.66500E+01 4.74020E+01 0.00000E+00
 -1       195 4.96500E+01 4.74020E+01 0.00000E+00
 -1       196 5.26500E+01 4.74020E+01 0.00000E+00
 -1       197 5.56500E+01 4.74020E+01 0.00000E+00
 -1       198 5.86500E+01 4.74020E+01 0.00000E+00
 -1       199 6.16500E+01 4.74020E+01 0.00000E+00
 -1       200 6.46500E+01 4.74020E+01 0.00000E+00
 -1       201 6.76500E+01 4.74020E+01 0.00000E+00
 -1       202 7.06500E+01 4.74020E+01 0.00000E+00
 -1       203 7.36500E+01 4.74020E+01 0.00000E+00
 -1       204 7.66500E+01 4.74020E+01 0.00000E+00
 -1       205 7.96500E+01 4.74020E+01 0.00000E+00
 -1       206 8.26500E+01 4.74020E+01 0.00000E+00
 -1       207 8.56500E+01 4.74020E+01 0.00000E+00
 -1       208 8.86500E+01 4.74020E+01 0.00000E+00
 -1       209 9.16500E+01 4.74020E+01 0.00000E+00
 -1       210 9.46500E+01 4.74020E+01 0.00000E+00
 -1       211 9.76500E+01 4.74020E+01 0.00000E+00
 -1       212 1.00650E+02 4.74020E+01 0.00000E+00
 -1       213 1.03650E+02 4.74020E+01 0.00000E+00
 -1       214 1.06650E+02 4.74020E+01 0.00000E+00
 -1       215 1.09650E+02 4.74020E+01 0.00000E+00
 -1       216 1.12650E+02 4.74020E+01 0.00000E+00
 -1       217 1.15650E+02 4.74020E+01 0.00000E+00
 -1       218 1.18650E+02 4.74020E+01 0.00000E+00
 -1       219 1.21650E+02 4.74020E+01 0.00000E+00
 -1       220 1.24650E+02 4.74020E+01 0.00000E+00
 -1       221 1.27650E+02 4.74020E+01 0.00000E+00
 -1       222 1.30650E+02 4.74020E+01 0.00000E+00
 -1       223 1.33650E+02 4.74020E+01 0.00000E+00
 -1       224 1.36650E+02 4.74020E+01 0.00000E+00
 -1       225 1.39650E+02 4.74020E+01 0.00000E+00
 -1       226 1.42650E+02 4.74020E+01 0.00000E+00
 -1       227 1.45650E+02 4.74020E+01 0.00000E+00
 -1       228 5.87400E+00 2.18750E+00 0.00000E+00
 -1       229 8.87400E+00 2.18750E+00 0.00000E+00
 -1       230 1.18740E+01 2.18750E+00 0.00000E+00
 -1       231 1.48740E+01 2.18750E+00 0.00000E+00
 -1       232 1.78740E+01 2.18750E+00 0.00000E+00
 -1       233 2.08740E+01 2.18750E+00 0.00000E+00
 -1       234 2.38740E+01 2.18750E+00 0.00000E+00
 -1       235 2.68740E+01 2.18750E+00 0.00000E+00
 -1       236 2.98740E+01 2.18750E+00 0.00000E+00
 -1       237 3.28740E+01 2.18750E+00 0.00000E+00
 -1       238 3.58740E+01 2.18750E+00 0.00000E+00
 -1       239 3.88740E+01 2.18750E+00 0.00000E+00
 -1       240 4.18740E+01 2.18750E+00 0.00000E+00
 -1       241 4.48740E+01 2.18750E+00 0.00000E+00
 -1       242 4.78740E+01 2.18750E+00 0.00000E+00
 -1       243 5.08740E+01 2.18750E+00 0.00000E+00
 -1       244 5.38740E+01 2.18750E+00 0.00000E+00
 -1       245 5.68740E+01 2.18750E+00 0.00000E+00
 -1       246 5.98740E+01 2.18750E+00 0.00000E+00
 -1       247 6.28740E+01 2.18750E+00 0.00000E+00
 -1       248 6.58740E+01 2.18750E+00 0.00000E+00
 -1       249 6.88740E+01 2.18750E+00 0.00000E+00
 -1       250 7.18740E+01 2.18750E+00 0.00000E+00
 -1       251 7.48740E+01 2.18750E+00 0.00000E+00
 -1       252 7.78740E+01 2.18750E+00 0.00000E+00
 -1       253 8.08740E+01 2.18750E+00 0.00000E+00
 -1       254 8.38740E+01 2.18750E+00 0.00000E+00
 -1       255 8.68740E+01 2.18750E+00 0.00000E+00
 -1       256 8.98740E+01 2.18750E+00 0.00000E+00
 -1       257 9.28740E+01 2.18750E+00 0.00000E+00
 -1       258 9.58740E+01 2.18750E+00 0.00000E+00
 -1       259 9.88740E+01 2.18750E+00 0.00000E+00
 -1       260 1.01874E+02 2.18750E+00 0.00000E+00
 -1       261 1.04874E+02 2.18750E+00 0.00000E+00
 -1       262 1.07874E+02 2.18750E+00 0.00000E+00
 -1       263 1.10874E+02 2.18750E+00 0.00000E+00
 -1       264 1.13874E+02 2.18750E+00 0.00000E+00
 -1       265 1.16874E+02 2.18750E+00 0.00000E+00
 -1       266 1.19874E+02 2.18750E+00 0.00000E+00
 -1       267 1.22874E+02 2.18750E+00 0.00000E+00
 -1       268 1.25874E+02 2.18750E+00 0.00000E+00
 -1       269 1.28874E+02 2.18750E+00 0.00000E+00
 -1       270 1.31874E+02 2.18750E+00 0.00000E+00
 -1       271 1.34874E+02 2.18750E+00 0.00000E+00
 -1       272 1.37874E+02 2.18750E+00 0.00000E+00
 -1       273 1.40874E+02 2.18750E+00 0.00000E+00
 -1       274 1.43874E+02 2.18750E+00 0.00000E+00
 -1       275 1.46874E+02 2.18750E+00 0.00000E+00
 -1       276 1.47402E+02 4.42500E+00 0.00000E+00
 -1       277 1.47402E+02 7.37500E+00 0.00000E+00
 -1       278 1.47402E+02 1.03250E+01 0.00000E+00
 -1       279 1.47402E+02 1.32750E+01 0.00000E+00
 -1       280 1.47402E+02 1.61750E+01 0.00000E+00
 -1       281 1.47402E+02 1.91250E+01 0.00000E+00
 -1       282 1.47402E+02 2.20750E+01 0.00000E+00
 -1       283 1.47402E+02 2.50250E+01 0.00000E+00
 -1       284 1.47402E+02 2.79750E+01 0.00000E+00
 -1       285 1.47402E+02 3.09250E+01 0.00000E+00
 -1       286 1.47402E+02 3.38250E+01 0.00000E+00
 -1       287 1.47402E+02 3.67750E+01 0.00000E+00
 -1       288 1.47402E+02 3.97250E+01 0.00000E+00
 -1       289 1.47402E+02 4.26750E+01 0.00000E+00
 -1       290 1.46526E+02 4.50385E+01 0.00000E+00
 -1       291 1.00162E+02 2.07706E+01 0.00000E+00
 -1       292 9.97122E+01 1.90848E+01 0.00000E+00
 -1       293 9.92272E+01 1.72678E+01 0.00000E+00
 -1       294 9.78172E+01 1.59723E+01 0.00000E+00
 -1       295 9.64420E+01 1.48384E+01 0.00000E+00
 -1       296 9.48786E+01 1.38596E+01 0.00000E+00
 -1       297 9.30372E+01 1.32364E+01 0.00000E+00
 -1       298 9.11725E+01 1.35301E+01 0.00000E+00
 -1       299 8.93715E+01 1.37422E+01 0.00000E+00
 -1       300 8.77426E+01 1.45653E+01 0.00000E+00
 -1       301 8.62621E+01 1.55749E+01 0.00000E+00
 -1       302 8.52183E+01 1.70418E+01 0.00000E+00
 -1       303 8.43079E+01 1.85566E+01 0.00000E+00
 -1       304 8.39053E+01 2.02491E+01 0.00000E+00
 -1       305 8.35475E+01 2.20510E+01 0.00000E+00
 -1       306 8.39976E+01 2.38617E+01 0.00000E+00
 -1       307 8.45367E+01 2.56427E+01 0.00000E+00
 -1       308 8.56057E+01 2.73124E+01 0.00000E+00
 -1       309 8.71612E+01 2.86770E+01 0.00000E+00
 -1       310 8.90289E+01 2.92946E+01 0.00000E+00
 -1       311 9.07565E+01 2.98313E+01 0.00000E+00
 -1       312 9.26362E+01 3.00557E+01 0.00000E+00
 -1       313 9.44273E+01 2.95431E+01 0.00000E+00
 -1       314 9.59869E+01 2.87776E+01 0.00000E+00
 -1       315 9.74450E+01 2.78323E+01 0.00000E+00
 -1       316 9.85758E+01 2.66151E+01 0.00000E+00
 -1       317 9.91533E+01 2.54318E+01 0.00000E+00
 -1       318 9.98444E+01 2.38439E+01 0.00000E+00
 -1       319 9.99561E+01 2.25985E+01 0.00000E+00
 -1       320 5.19600E+00 4.11500E+01 0.00000E+00
 -1       321 5.19600E+00 4.41000E+01 0.00000E+00
 -1       322 5.19600E+00 3.52750E+01 0.00000E+00
 -1       323 5.19600E+00 3.23250E+01 0.00000E+00
 -1       324 5.19600E+00 2.93750E+01 0.00000E+00
 -1       325 5.19600E+00 2.64250E+01 0.00000E+00
 -1       326 5.19600E+00 2.34750E+01 0.00000E+00
 -1       327 5.19600E+00 2.05250E+01 0.00000E+00
 -1       328 5.19600E+00 1.76250E+01 0.00000E+00
 -1       329 5.19600E+00 1.46750E+01 0.00000E+00
 -1       330 5.19600E+00 1.17250E+01 0.00000E+00
 -1       331 5.19600E+00 8.77500E+00 0.00000E+00
 -1       332 5.19600E+00 5.82500E+00 0.00000E+00
 -1       333 5.53500E+00 4.00625E+00 0.00000E+00
 -1       334 8.53500E+00 4.00625E+00 0.00000E+00
 -1       335 1.00764E+02 2.51886E+01 0.00000E+00
 -1       336 9.15000E+00 4.48040E+01 0.00000E+00
 -1       337 1.21500E+01 4.48040E+01 0.00000E+00
 -1       338 1.51500E+01 4.48040E+01 0.00000E+00
 -1       339 1.81500E+01 4.48040E+01 0.00000E+00
 -1       340 2.11500E+01 4.48040E+01 0.00000E+00
 -1       341 2.41500E+01 4.48040E+01 0.00000E+00
 -1       342 2.71500E+01 4.48040E+01 0.00000E+00
 -1       343 3.01500E+01 4.48040E+01 0.00000E+00
 -1       344 3.31500E+01 4.48040E+01 0.00000E+00
 -1       345 3.61500E+01 4.48040E+01 0.00000E+00
 -1       346 3.91500E+01 4.48040E+01 0.00000E+00
 -1       347 4.21500E+01 4.48040E+01 0.00000E+00
 -1       348 4.51500E+01 4.48040E+01 0.00000E+00
 -1       349 4.81500E+01 4.48040E+01 0.00000E+00
 -1       350 5.11500E+01 4.48040E+01 0.00000E+00
 -1       351 5.41500E+01 4.48040E+01 0.00000E+00
 -1       352 5.71500E+01 4.48040E+01 0.00000E+00
 -1       353 6.01500E+01 4.48040E+01 0.00000E+00
 -1       354 6.31500E+01 4.48040E+01 0.00000E+00
 -1       355 6.61500E+01 4.48040E+01 0.00000E+00
 -1       356 6.91500E+01 4.48040E+01 0.00000E+00
 -1       357 7.21500E+01 4.48040E+01 0.00000E+00
 -1       358 7.51500E+01 4.48040E+01 0.00000E+00
 -1       359 7.81500E+01 4.48040E+01 0.00000E+00
 -1       360 8.11500E+01 4.48040E+01 0.00000E+00
 -1       361 8.41500E+01 4.48040E+01 0.00000E+00
 -1       362 8.71500E+01 4.48040E+01 0.00000E+00
 -1       363 9.01500E+01 4.48040E+01 0.00000E+00
 -1       364 9.31500E+01 4.48040E+01 0.00000E+00
 -1       365 9.61500E+01 4.48040E+01 0.00000E+00
 -1       366 9.91500E+01 4.48040E+01 0.00000E+00
 -1       367 1.02150E+02 4.48040E+01 0.00000E+00
 -1       368 1.05150E+02 4.48040E+01 0.00000E+00
 -1       369 1.08150E+02 4.48040E+01 0.00000E+00
 -1       370 1.11150E+02 4.48040E+01 0.00000E+00
 -1       371 1.14150E+02 4.48040E+01 0.00000E+00
 -1       372 1.17150E+02 4.48040E+01 0.00000E+00
 -1       373 1.20150E+02 4.48040E+01 0.00000E+00
 -1       374 1.23150E+02 4.48040E+01 0.00000E+00
 -1       375 1.26150E+02 4.48040E+01 0.00000E+00
 -1       376 1.29150E+02 4.48040E+01 0.00000E+00
 -1       377 1.32150E+02 4.48040E+01 0.00000E+00
 -1       378 1.35150E+02 4.48040E+01 0.00000E+00
 -1       379 1.38150E+02 4.48040E+01 0.00000E+00
 -1       380 1.41150E+02 4.48040E+01 0.00000E+00
 -1       381 1.43838E+02 4.49212E+01 0.00000E+00
 -1       382 1.15350E+01 4.00625E+00 0.00000E+00
 -1       383 1.45350E+01 4.00625E+00 0.00000E+00
 -1       384 1.75350E+01 4.00625E+00 0.00000E+00
 -1       385 2.05350E+01 4.00625E+00 0.00000E+00
 -1       386 2.35350E+01 4.00625E+00 0.00000E+00
 -1       387 2.65350E+01 4.00625E+00 0.00000E+00
 -1       388 2.95350E+01 4.00625E+00 0.00000E+00
 -1       389 3.25350E+01 4.00625E+00 0.00000E+00
 -1       390 3.55350E+01 4.00625E+00 0.00000E+00
 -1       391 3.85350E+01 4.00625E+00 0.00000E+00
 -1       392 4.15350E+01 4.00625E+00 0.00000E+00
 -1       393 4.45350E+01 4.00625E+00 0.00000E+00
 -1       394 4.75350E+01 4.00625E+00 0.00000E+00
 -1       395 5.05350E+01 4.00625E+00 0.00000E+00
 -1       396 5.35350E+01 4.00625E+00 0.00000E+00
 -1       397 5.65350E+01 4.00625E+00 0.00000E+00
 -1       398 5.95350E+01 4.00625E+00 0.00000E+00
 -1       399 6.25350E+01 4.00625E+00 0.00000E+00
 -1       400 6.55350E+01 4.00625E+00 0.00000E+00
 -1       401 6.85350E+01 4.00625E+00 0.00000E+00
 -1       402 7.15350E+01 4.00625E+00 0.00000E+00
 -1       403 7.45350E+01 4.00625E+00 0.00000E+00
 -1       404 7.75350E+01 4.00625E+00 0.00000E+00
 -1       405 8.05350E+01 4.00625E+00 0.00000E+00
 -1       406 8.35350E+01 4.00625E+00 0.00000E+00
 -1       407 8.65350E+01 4.00625E+00 0.00000E+00
 -1       408 8.95350E+01 4.00625E+00 0.00000E+00
 -1       409 9.25350E+01 4.00625E+00 0.00000E+00
 -1       410 9.55350E+01 4.00625E+00 0.00000E+00
 -1       411 9.85350E+01 4.00625E+00 0.00000E+00
 -1       412 1.01535E+02 4.00625E+00 0.00000E+00
 -1       413 1.04535E+02 4.00625E+00 0.00000E+00
 -1       414 1.07535E+02 4.00625E+00 0.00000E+00
 -1       415 1.10535E+02 4.00625E+00 0.00000E+00
 -1       416 1.13535E+02 4.00625E+00 0.00000E+00
 -1       417 1.16535E+02 4.00625E+00 0.00000E+00
 -1       418 1.19535E+02 4.00625E+00 0.00000E+00
 -1       419 1.22535E+02 4.00625E+00 0.00000E+00
 -1       420 1.25535E+02 4.00625E+00 0.00000E+00
 -1       421 1.28535E+02 4.00625E+00 0.00000E+00
 -1       422 1.31535E+02 4.00625E+00 0.00000E+00
 -1       423 1.34535E+02 4.00625E+00 0.00000E+00
 -1       424 1.37535E+02 4.00625E+00 0.00000E+00
 -1       425 1.40535E+02 4.00625E+00 0.00000E+00
 -1       426 1.43535E+02 4.00625E+00 0.00000E+00
 -1       427 1.45469E+02 4.21562E+00 0.00000E+00
 -1       428 1.44804E+02 1.18000E+01 0.00000E+00
 -1       429 1.44804E+02 8.85000E+00 0.00000E+00
 -1       430 1.45136E+02 6.53281E+00 0.00000E+00
 -1       431 1.44804E+02 1.47000E+01 0.00000E+00
 -1       432 1.44804E+02 1.76500E+01 0.00000E+00
 -1       433 1.44804E+02 2.06000E+01 0.00000E+00
 -1       434 1.44804E+02 2.35500E+01 0.00000E+00
 -1       435 1.44804E+02 2.65000E+01 0.00000E+00
 -1       436 1.44804E+02 2.94500E+01 0.00000E+00
 -1       437 1.44804E+02 3.23500E+01 0.00000E+00
 -1       438 1.44804E+02 3.53000E+01 0.00000E+00
 -1       439 1.44804E+02 3.82500E+01 0.00000E+00
 -1       440 1.44804E+02 4.12000E+01 0.00000E+00
 -1       441 1.00884E+02 1.77988E+01 0.00000E+00
 -1       442 1.01347E+02 2.18296E+01 0.00000E+00
 -1       443 1.01334E+02 1.94846E+01 0.00000E+00
 -1       444 9.93991E+01 1.56655E+01 0.00000E+00
 -1       445 1.00187E+02 2.63719E+01 0.00000E+00
 -1       446 9.80075E+01 1.43406E+01 0.00000E+00
 -1       447 1.01235E+02 2.30750E+01 0.00000E+00
 -1       448 5.19600E+00 3.82125E+01 0.00000E+00
 -1       449 9.43734E+01 1.23202E+01 0.00000E+00
 -1       450 9.18379E+01 1.16891E+01 0.00000E+00
 -1       451 9.00369E+01 1.19011E+01 0.00000E+00
 -1       452 8.78591E+01 1.27725E+01 0.00000E+00
 -1       453 8.61305E+01 1.37916E+01 0.00000E+00
 -1       454 8.46158E+01 1.55083E+01 0.00000E+00
 -1       455 8.36521E+01 1.71316E+01 0.00000E+00
 -1       456 8.26011E+01 1.90447E+01 0.00000E+00
 -1       457 8.22433E+01 2.08465E+01 0.00000E+00
 -1       458 8.25147E+01 2.32691E+01 0.00000E+00
 -1       459 8.28662E+01 2.51762E+01 0.00000E+00
 -1       460 8.39090E+01 2.72216E+01 0.00000E+00
 -1       461 8.53077E+01 2.92210E+01 0.00000E+00
 -1       462 8.76618E+01 3.02960E+01 0.00000E+00
 -1       463 8.94584E+01 3.09608E+01 0.00000E+00
 -1       464 9.15228E+01 3.13969E+01 0.00000E+00
 -1       465 9.38884E+01 3.10456E+01 0.00000E+00
 -1       466 9.59627E+01 3.07000E+01 0.00000E+00
 -1       467 9.74209E+01 2.97547E+01 0.00000E+00
 -1       468 9.90214E+01 2.81629E+01 0.00000E+00
 -1       469 9.64815E+01 1.30373E+01 0.00000E+00
 -1       470 1.01056E+02 1.61966E+01 0.00000E+00
 -1       471 9.27750E+01 3.23868E+01 0.00000E+00
 -1       472 8.58083E+01 3.08400E+01 0.00000E+00
 -1       473 8.12105E+01 2.20646E+01 0.00000E+00
 -1       474 9.31742E+01 1.07729E+01 0.00000E+00
 -1       475 1.00350E+01 6.60425E+00 0.00000E+00
 -1       476 7.79400E+00 3.08500E+01 0.00000E+00
 -1       477 7.79400E+00 3.38000E+01 0.00000E+00
 -1       478 7.79400E+00 2.49500E+01 0.00000E+00
 -1       479 7.79400E+00 2.20000E+01 0.00000E+00
 -1       480 7.79400E+00 1.91000E+01 0.00000E+00
 -1       481 7.79400E+00 1.61500E+01 0.00000E+00
 -1       482 7.79400E+00 1.32000E+01 0.00000E+00
 -1       483 7.79400E+00 1.02500E+01 0.00000E+00
 -1       484 1.06500E+01 4.22060E+01 0.00000E+00
 -1       485 1.01866E+02 2.64590E+01 0.00000E+00
 -1       486 1.30350E+01 6.60425E+00 0.00000E+00
 -1       487 7.92300E+00 4.16780E+01 0.00000E+00
 -1       488 1.36500E+01 4.22060E+01 0.00000E+00
 -1       489 1.66500E+01 4.22060E+01 0.00000E+00
 -1       490 1.96500E+01 4.22060E+01 0.00000E+00
 -1       491 2.26500E+01 4.22060E+01 0.00000E+00
 -1       492 2.56500E+01 4.22060E+01 0.00000E+00
 -1       493 2.86500E+01 4.22060E+01 0.00000E+00
 -1       494 3.16500E+01 4.22060E+01 0.00000E+00
 -1       495 3.46500E+01 4.22060E+01 0.00000E+00
 -1       496 3.76500E+01 4.22060E+01 0.00000E+00
 -1       497 4.06500E+01 4.22060E+01 0.00000E+00
 -1       498 4.36500E+01 4.22060E+01 0.00000E+00
 -1       499 4.66500E+01 4.22060E+01 0.00000E+00
 -1       500 4.96500E+01 4.22060E+01 0.00000E+00
 -1       501 5.26500E+01 4.22060E+01 0.00000E+00
 -1       502 5.56500E+01 4.22060E+01 0.00000E+00
 -1       503 5.86500E+01 4.22060E+01 0.00000E+00
 -1       504 6.16500E+01 4.22060E+01 0.00000E+00
 -1       505 6.46500E+01 4.22060E+01 0.00000E+00
 -1       506 6.76500E+01 4.22060E+01 0.00000E+00
 -1       507 7.06500E+01 4.22060E+01 0.00000E+00
 -1       508 7.36500E+01 4.22060E+01 0.00000E+00
 -1       509 7.66500E+01 4.22060E+01 0.00000E+00
 -1       510 7.96500E+01 4.22060E+01 0.00000E+00
 -1       511 8.26500E+01 4.22060E+01 0.00000E+00
 -1       512 8.56500E+01 4.22060E+01 0.00000E+00
 -1       513 8.86500E+01 4.22060E+01 0.00000E+00
 -1       514 9.16500E+01 4.22060E+01 0.00000E+00
 -1       515 9.46500E+01 4.22060E+01 0.00000E+00
 -1       516 9.76500E+01 4.22060E+01 0.00000E+00
 -1       517 1.00650E+02 4.22060E+01 0.00000E+00
 -1       518 1.03650E+02 4.22060E+01 0.00000E+00
 -1       519 1.06650E+02 4.22060E+01 0.00000E+00
 -1       520 1.09650E+02 4.22060E+01 0.00000E+00
 -1       521 1.12650E+02 4.22060E+01 0.00000E+00
 -1       522 1.15650E+02 4.22060E+01 0.00000E+00
 -1       523 1.18650E+02 4.22060E+01 0.00000E+00
 -1       524 1.21650E+02 4.22060E+01 0.00000E+00
 -1       525 1.24650E+02 4.22060E+01 0.00000E+00
 -1       526 1.27650E+02 4.22060E+01 0.00000E+00
 -1       527 1.30650E+02 4.22060E+01 0.00000E+00
 -1       528 1.33650E+02 4.22060E+01 0.00000E+00
 -1       529 1.36650E+02 4.22060E+01 0.00000E+00
 -1       530 1.39650E+02 4.22060E+01 0.00000E+00
 -1       531 1.02950E+02 1.81506E+01 0.00000E+00
 -1       532 1.90350E+01 6.60425E+00 0.00000E+00
 -1       533 2.20350E+01 6.60425E+00 0.00000E+00
 -1       534 2.50350E+01 6.60425E+00 0.00000E+00
 -1       535 2.80350E+01 6.60425E+00 0.00000E+00
 -1       536 3.10350E+01 6.60425E+00 0.00000E+00
 -1       537 3.40350E+01 6.60425E+00 0.00000E+00
 -1       538 3.70350E+01 6.60425E+00 0.00000E+00
 -1       539 4.00350E+01 6.60425E+00 0.00000E+00
 -1       540 4.30350E+01 6.60425E+00 0.00000E+00
 -1       541 4.60350E+01 6.60425E+00 0.00000E+00
 -1       542 4.90350E+01 6.60425E+00 0.00000E+00
 -1       543 5.20350E+01 6.60425E+00 0.00000E+00
 -1       544 5.50350E+01 6.60425E+00 0.00000E+00
 -1       545 5.80350E+01 6.60425E+00 0.00000E+00
 -1       546 6.10350E+01 6.60425E+00 0.00000E+00
 -1       547 6.40350E+01 6.60425E+00 0.00000E+00
 -1       548 6.70350E+01 6.60425E+00 0.00000E+00
 -1       549 7.00350E+01 6.60425E+00 0.00000E+00
 -1       550 7.30350E+01 6.60425E+00 0.00000E+00
 -1       551 7.60350E+01 6.60425E+00 0.00000E+00
 -1       552 7.90350E+01 6.60425E+00 0.00000E+00
 -1       553 8.20350E+01 6.60425E+00 0.00000E+00
 -1       554 8.50350E+01 6.60425E+00 0.00000E+00
 -1       555 8.80350E+01 6.60425E+00 0.00000E+00
 -1       556 9.10350E+01 6.60425E+00 0.00000E+00
 -1       557 9.40350E+01 6.60425E+00 0.00000E+00
 -1       558 9.70350E+01 6.60425E+00 0.00000E+00
 -1       559 1.00035E+02 6.60425E+00 0.00000E+00
 -1       560 1.03035E+02 6.60425E+00 0.00000E+00
 -1       561 1.06035E+02 6.60425E+00 0.00000E+00
 -1       562 1.09035E+02 6.60425E+00 0.00000E+00
 -1       563 1.12035E+02 6.60425E+00 0.00000E+00
 -1       564 1.15035E+02 6.60425E+00 0.00000E+00
 -1       565 1.18035E+02 6.60425E+00 0.00000E+00
 -1       566 1.21035E+02 6.60425E+00 0.00000E+00
 -1       567 1.24035E+02 6.60425E+00 0.00000E+00
 -1       568 1.27035E+02 6.60425E+00 0.00000E+00
 -1       569 1.30035E+02 6.60425E+00 0.00000E+00
 -1       570 1.33035E+02 6.60425E+00 0.00000E+00
 -1       571 1.36035E+02 6.60425E+00 0.00000E+00
 -1       572 1.39035E+02 6.60425E+00 0.00000E+00
 -1       573 1.42035E+02 6.60425E+00 0.00000E+00
 -1       574 1.42206E+02 1.61750E+01 0.00000E+00
 -1       575 1.42206E+02 1.91250E+01 0.00000E+00
 -1       576 1.42206E+02 1.03250E+01 0.00000E+00
 -1       577 1.42206E+02 1.32500E+01 0.00000E+00
 -1       578 1.42206E+02 2.20750E+01 0.00000E+00
 -1       579 1.42206E+02 2.50250E+01 0.00000E+00
 -1       580 1.42206E+02 2.79750E+01 0.00000E+00
 -1       581 1.42206E+02 3.08750E+01 0.00000E+00
 -1       582 1.42206E+02 3.38250E+01 0.00000E+00
 -1       583 1.42206E+02 3.67750E+01 0.00000E+00
 -1       584 1.42206E+02 3.97250E+01 0.00000E+00
 -1       585 1.00701E+02 2.82501E+01 0.00000E+00
 -1       586 1.60350E+01 6.60425E+00 0.00000E+00
 -1       587 1.02696E+02 2.45099E+01 0.00000E+00
 -1       588 9.51661E+01 3.23167E+01 0.00000E+00
 -1       589 8.18437E+01 1.73833E+01 0.00000E+00
 -1       590 1.02808E+02 2.32646E+01 0.00000E+00
 -1       591 7.79400E+00 2.79000E+01 0.00000E+00
 -1       592 1.02963E+02 2.04956E+01 0.00000E+00
 -1       593 9.83584E+01 1.23848E+01 0.00000E+00
 -1       594 9.07565E+01 1.02581E+01 0.00000E+00
 -1       595 8.11685E+01 2.45031E+01 0.00000E+00
 -1       596 8.81863E+01 1.04333E+01 0.00000E+00
 -1       597 8.41499E+01 1.35707E+01 0.00000E+00
 -1       598 8.28033E+01 1.55299E+01 0.00000E+00
 -1       599 8.09865E+01 1.96605E+01 0.00000E+00
 -1       600 8.20835E+01 2.68638E+01 0.00000E+00
 -1       601 8.32030E+01 2.92044E+01 0.00000E+00
 -1       602 8.79940E+01 3.21583E+01 0.00000E+00
 -1       603 9.00668E+01 3.31848E+01 0.00000E+00
 -1       604 9.75792E+01 3.15962E+01 0.00000E+00
 -1       605 9.60337E+01 1.08964E+01 0.00000E+00
 -1       606 7.61550E+00 6.21462E+00 0.00000E+00
 -1       607 8.64577E+01 1.14523E+01 0.00000E+00
 -1       608 9.92534E+01 2.99967E+01 0.00000E+00
 -1       609 9.97500E+01 1.37097E+01 0.00000E+00
 -1       610 7.79400E+00 3.67375E+01 0.00000E+00
 -1       611 8.44771E+01 1.12314E+01 0.00000E+00
 -1       612 9.13190E+01 3.41747E+01 0.00000E+00
 -1       613 1.03122E+02 1.65483E+01 0.00000E+00
 -1       614 1.01407E+02 1.42407E+01 0.00000E+00
 -1       615 1.41678E+02 4.22645E+01 0.00000E+00
 -1       616 8.37035E+01 3.08234E+01 0.00000E+00
 -1       617 7.99537E+01 2.08786E+01 0.00000E+00
 -1       618 9.20927E+01 9.34196E+00 0.00000E+00
 -1       619 1.03920E+01 2.05500E+01 0.00000E+00
 -1       620 1.03920E+01 2.35000E+01 0.00000E+00
 -1       621 1.03920E+01 1.46750E+01 0.00000E+00
 -1       622 1.03920E+01 1.17250E+01 0.00000E+00
 -1       623 1.04514E+02 2.19716E+01 0.00000E+00
 -1       624 1.40178E+02 3.96665E+01 0.00000E+00
 -1       625 1.21500E+01 3.96080E+01 0.00000E+00
 -1       626 2.35350E+01 9.20225E+00 0.00000E+00
 -1       627 1.51500E+01 3.96080E+01 0.00000E+00
 -1       628 1.81500E+01 3.96080E+01 0.00000E+00
 -1       629 2.11500E+01 3.96080E+01 0.00000E+00
 -1       630 2.41500E+01 3.96080E+01 0.00000E+00
 -1       631 2.71500E+01 3.96080E+01 0.00000E+00
 -1       632 3.01500E+01 3.96080E+01 0.00000E+00
 -1       633 3.31500E+01 3.96080E+01 0.00000E+00
 -1       634 3.61500E+01 3.96080E+01 0.00000E+00
 -1       635 3.91500E+01 3.96080E+01 0.00000E+00
 -1       636 4.21500E+01 3.96080E+01 0.00000E+00
 -1       637 4.51500E+01 3.96080E+01 0.00000E+00
 -1       638 4.81500E+01 3.96080E+01 0.00000E+00
 -1       639 5.11500E+01 3.96080E+01 0.00000E+00
 -1       640 5.41500E+01 3.96080E+01 0.00000E+00
 -1       641 5.71500E+01 3.96080E+01 0.00000E+00
 -1       642 6.01500E+01 3.96080E+01 0.00000E+00
 -1       643 6.31500E+01 3.96080E+01 0.00000E+00
 -1       644 6.61500E+01 3.96080E+01 0.00000E+00
 -1       645 6.91500E+01 3.96080E+01 0.00000E+00
 -1       646 7.21500E+01 3.96080E+01 0.00000E+00
 -1       647 7.51500E+01 3.96080E+01 0.00000E+00
 -1       648 7.81500E+01 3.96080E+01 0.00000E+00
 -1       649 8.11500E+01 3.96080E+01 0.00000E+00
 -1       650 8.41500E+01 3.96080E+01 0.00000E+00
 -1       651 8.71500E+01 3.96080E+01 0.00000E+00
 -1       652 9.01500E+01 3.96080E+01 0.00000E+00
 -1       653 9.31500E+01 3.96080E+01 0.00000E+00
 -1       654 9.61500E+01 3.96080E+01 0.00000E+00
 -1       655 9.91500E+01 3.96080E+01 0.00000E+00
 -1       656 1.02150E+02 3.96080E+01 0.00000E+00
 -1       657 1.05150E+02 3.96080E+01 0.00000E+00
 -1       658 1.08150E+02 3.96080E+01 0.00000E+00
 -1       659 1.11150E+02 3.96080E+01 0.00000E+00
 -1       660 1.14150E+02 3.96080E+01 0.00000E+00
 -1       661 1.17150E+02 3.96080E+01 0.00000E+00
 -1       662 1.20150E+02 3.96080E+01 0.00000E+00
 -1       663 1.23150E+02 3.96080E+01 0.00000E+00
 -1       664 1.26150E+02 3.96080E+01 0.00000E+00
 -1       665 1.29150E+02 3.96080E+01 0.00000E+00
 -1       666 1.32150E+02 3.96080E+01 0.00000E+00
 -1       667 1.35150E+02 3.96080E+01 0.00000E+00
 -1       668 1.37664E+02 3.96372E+01 0.00000E+00
 -1       669 9.70071E+01 3.40816E+01 0.00000E+00
 -1       670 2.05350E+01 9.20225E+00 0.00000E+00
 -1       671 2.95350E+01 9.20225E+00 0.00000E+00
 -1       672 3.25350E+01 9.20225E+00 0.00000E+00
 -1       673 3.55350E+01 9.20225E+00 0.00000E+00
 -1       674 3.85350E+01 9.20225E+00 0.00000E+00
 -1       675 4.15350E+01 9.20225E+00 0.00000E+00
 -1       676 4.45350E+01 9.20225E+00 0.00000E+00
 -1       677 4.75350E+01 9.20225E+00 0.00000E+00
 -1       678 5.05350E+01 9.20225E+00 0.00000E+00
 -1       679 5.35350E+01 9.20225E+00 0.00000E+00
 -1       680 5.65350E+01 9.20225E+00 0.00000E+00
 -1       681 5.95350E+01 9.20225E+00 0.00000E+00
 -1       682 6.25350E+01 9.20225E+00 0.00000E+00
 -1       683 6.55350E+01 9.20225E+00 0.00000E+00
 -1       684 6.85350E+01 9.20225E+00 0.00000E+00
 -1       685 7.15350E+01 9.20225E+00 0.00000E+00
 -1       686 7.45350E+01 9.20225E+00 0.00000E+00
 -1       687 7.75350E+01 9.20225E+00 0.00000E+00
 -1       688 8.05350E+01 9.20225E+00 0.00000E+00
 -1       689 1.01535E+02 9.20225E+00 0.00000E+00
 -1       690 1.04535E+02 9.20225E+00 0.00000E+00
 -1       691 1.07535E+02 9.20225E+00 0.00000E+00
 -1       692 1.10535E+02 9.20225E+00 0.00000E+00
 -1       693 1.13535E+02 9.20225E+00 0.00000E+00
 -1       694 1.16535E+02 9.20225E+00 0.00000E+00
 -1       695 1.19535E+02 9.20225E+00 0.00000E+00
 -1       696 1.22535E+02 9.20225E+00 0.00000E+00
 -1       697 1.25535E+02 9.20225E+00 0.00000E+00
 -1       698 1.28535E+02 9.20225E+00 0.00000E+00
 -1       699 1.31535E+02 9.20225E+00 0.00000E+00
 -1       700 1.34535E+02 9.20225E+00 0.00000E+00
 -1       701 1.37535E+02 9.20225E+00 0.00000E+00
 -1       702 1.39870E+02 9.76363E+00 0.00000E+00
 -1       703 7.98099E+01 1.79177E+01 0.00000E+00
 -1       704 1.39608E+02 2.35500E+01 0.00000E+00
 -1       705 1.39608E+02 1.76500E+01 0.00000E+00
 -1       706 1.39608E+02 2.65000E+01 0.00000E+00
 -1       707 1.39608E+02 2.06000E+01 0.00000E+00
 -1       708 1.39608E+02 2.94000E+01 0.00000E+00
 -1       709 1.39608E+02 3.23500E+01 0.00000E+00
 -1       710 1.39608E+02 3.53000E+01 0.00000E+00
 -1       711 1.02651E+02 2.82441E+01 0.00000E+00
 -1       712 1.75350E+01 9.20225E+00 0.00000E+00
 -1       713 1.03859E+02 2.61563E+01 0.00000E+00
 -1       714 8.20631E+01 1.35788E+01 0.00000E+00
 -1       715 8.07937E+01 2.89187E+01 0.00000E+00
 -1       716 9.91967E+01 9.49452E+00 0.00000E+00
 -1       717 1.04187E+02 2.40640E+01 0.00000E+00
 -1       718 2.65350E+01 9.20225E+00 0.00000E+00
 -1       719 1.03920E+01 1.76125E+01 0.00000E+00
 -1       720 1.03920E+01 3.23250E+01 0.00000E+00
 -1       721 1.04672E+02 1.93133E+01 0.00000E+00
 -1       722 1.45350E+01 9.20225E+00 0.00000E+00
 -1       723 8.59288E+01 3.31113E+01 0.00000E+00
 -1       724 7.91395E+01 2.32486E+01 0.00000E+00
 -1       725 8.08004E+01 1.56680E+01 0.00000E+00
 -1       726 7.98786E+01 2.65581E+01 0.00000E+00
 -1       727 9.40257E+01 3.42336E+01 0.00000E+00
 -1       728 8.81949E+01 3.43587E+01 0.00000E+00
 -1       729 1.01298E+02 3.02178E+01 0.00000E+00
 -1       730 9.96011E+01 3.20365E+01 0.00000E+00
 -1       731 1.00302E+02 1.18676E+01 0.00000E+00
 -1       732 1.17135E+01 9.16463E+00 0.00000E+00
 -1       733 1.03920E+01 3.52625E+01 0.00000E+00
 -1       734 1.03920E+01 2.64500E+01 0.00000E+00
 -1       735 7.87771E+01 1.91358E+01 0.00000E+00
 -1       736 1.39870E+02 1.26886E+01 0.00000E+00
 -1       737 8.94471E+01 3.53486E+01 0.00000E+00
 -1       738 8.38240E+01 3.30947E+01 0.00000E+00
 -1       739 8.12942E+01 3.05377E+01 0.00000E+00
 -1       740 1.03920E+01 2.93875E+01 0.00000E+00
 -1       741 1.39739E+02 1.51693E+01 0.00000E+00
 -1       742 1.04844E+02 1.77110E+01 0.00000E+00
 -1       743 9.90290E+01 3.45219E+01 0.00000E+00
 -1       744 9.78035E+00 3.93914E+01 0.00000E+00
 -1       745 1.29900E+01 1.32000E+01 0.00000E+00
 -1       746 1.60350E+01 1.18003E+01 0.00000E+00
 -1       747 1.66500E+01 3.70100E+01 0.00000E+00
 -1       748 1.96500E+01 3.70100E+01 0.00000E+00
 -1       749 2.26500E+01 3.70100E+01 0.00000E+00
 -1       750 2.56500E+01 3.70100E+01 0.00000E+00
 -1       751 2.86500E+01 3.70100E+01 0.00000E+00
 -1       752 3.16500E+01 3.70100E+01 0.00000E+00
 -1       753 3.46500E+01 3.70100E+01 0.00000E+00
 -1       754 3.76500E+01 3.70100E+01 0.00000E+00
 -1       755 4.06500E+01 3.70100E+01 0.00000E+00
 -1       756 4.36500E+01 3.70100E+01 0.00000E+00
 -1       757 4.66500E+01 3.70100E+01 0.00000E+00
 -1       758 4.96500E+01 3.70100E+01 0.00000E+00
 -1       759 5.26500E+01 3.70100E+01 0.00000E+00
 -1       760 5.56500E+01 3.70100E+01 0.00000E+00
 -1       761 5.86500E+01 3.70100E+01 0.00000E+00
 -1       762 6.16500E+01 3.70100E+01 0.00000E+00
 -1       763 6.46500E+01 3.70100E+01 0.00000E+00
 -1       764 6.76500E+01 3.70100E+01 0.00000E+00
 -1       765 7.06500E+01 3.70100E+01 0.00000E+00
 -1       766 7.36500E+01 3.70100E+01 0.00000E+00
 -1       767 7.66500E+01 3.70100E+01 0.00000E+00
 -1       768 7.96500E+01 3.70100E+01 0.00000E+00
 -1       769 8.26500E+01 3.70100E+01 0.00000E+00
 -1       770 8.56500E+01 3.70100E+01 0.00000E+00
 -1       771 9.46500E+01 3.70100E+01 0.00000E+00
 -1       772 1.00650E+02 3.70550E+01 0.00000E+00
 -1       773 1.03650E+02 3.70550E+01 0.00000E+00
 -1       774 1.06650E+02 3.70550E+01 0.00000E+00
 -1       775 1.09650E+02 3.70550E+01 0.00000E+00
 -1       776 1.12650E+02 3.70550E+01 0.00000E+00
 -1       777 1.15650E+02 3.70550E+01 0.00000E+00
 -1       778 1.18650E+02 3.70550E+01 0.00000E+00
 -1       779 1.21650E+02 3.70550E+01 0.00000E+00
 -1       780 1.24650E+02 3.70550E+01 0.00000E+00
 -1       781 1.27650E+02 3.70550E+01 0.00000E+00
 -1       782 1.30650E+02 3.70550E+01 0.00000E+00
 -1       783 1.33650E+02 3.70550E+01 0.00000E+00
 -1       784 2.20350E+01 1.18003E+01 0.00000E+00
 -1       785 3.40350E+01 1.18003E+01 0.00000E+00
 -1       786 3.10350E+01 1.18003E+01 0.00000E+00
 -1       787 4.00350E+01 1.18003E+01 0.00000E+00
 -1       788 4.30350E+01 1.18003E+01 0.00000E+00
 -1       789 4.60350E+01 1.18003E+01 0.00000E+00
 -1       790 4.90350E+01 1.18003E+01 0.00000E+00
 -1       791 5.20350E+01 1.18003E+01 0.00000E+00
 -1       792 5.50350E+01 1.18003E+01 0.00000E+00
 -1       793 5.80350E+01 1.18003E+01 0.00000E+00
 -1       794 6.10350E+01 1.18003E+01 0.00000E+00
 -1       795 6.40350E+01 1.18003E+01 0.00000E+00
 -1       796 6.70350E+01 1.18003E+01 0.00000E+00
 -1       797 7.00350E+01 1.18003E+01 0.00000E+00
 -1       798 7.30350E+01 1.18003E+01 0.00000E+00
 -1       799 7.60350E+01 1.18003E+01 0.00000E+00
 -1       800 7.90350E+01 1.18003E+01 0.00000E+00
 -1       801 1.12035E+02 1.18003E+01 0.00000E+00
 -1       802 1.15035E+02 1.18003E+01 0.00000E+00
 -1       803 1.18035E+02 1.18003E+01 0.00000E+00
 -1       804 1.21035E+02 1.18003E+01 0.00000E+00
 -1       805 1.24035E+02 1.18003E+01 0.00000E+00
 -1       806 1.27035E+02 1.18003E+01 0.00000E+00
 -1       807 1.30035E+02 1.18003E+01 0.00000E+00
 -1       808 1.33035E+02 1.18003E+01 0.00000E+00
 -1       809 1.36035E+02 1.18003E+01 0.00000E+00
 -1       810 1.37953E+02 1.22444E+01 0.00000E+00
 -1       811 1.37010E+02 2.79500E+01 0.00000E+00
 -1       812 7.76717E+01 2.53137E+01 0.00000E+00
 -1       813 7.76076E+01 2.13975E+01 0.00000E+00
 -1       814 1.37010E+02 2.50000E+01 0.00000E+00
 -1       815 7.99639E+01 1.37363E+01 0.00000E+00
 -1       816 1.90350E+01 1.18003E+01 0.00000E+00
 -1       817 9.26205E+01 3.65890E+01 0.00000E+00
 -1       818 1.37010E+02 3.09000E+01 0.00000E+00
 -1       819 1.37010E+02 3.38500E+01 0.00000E+00
 -1       820 1.09035E+02 1.18003E+01 0.00000E+00
 -1       821 1.37625E+01 1.12011E+01 0.00000E+00
 -1       822 1.06035E+02 1.18003E+01 0.00000E+00
 -1       823 7.84245E+01 2.84794E+01 0.00000E+00
 -1       824 3.70350E+01 1.18003E+01 0.00000E+00
 -1       825 1.37337E+02 3.67436E+01 0.00000E+00
 -1       826 1.04740E+02 2.80593E+01 0.00000E+00
 -1       827 1.06305E+02 2.07438E+01 0.00000E+00
 -1       828 1.36500E+01 3.70100E+01 0.00000E+00
 -1       829 1.29900E+01 2.20250E+01 0.00000E+00
 -1       830 1.03527E+02 3.02956E+01 0.00000E+00
 -1       831 7.87355E+01 1.61017E+01 0.00000E+00
 -1       832 1.02071E+02 3.26400E+01 0.00000E+00
 -1       833 1.04197E+02 1.39580E+01 0.00000E+00
 -1       834 8.60732E+01 3.55312E+01 0.00000E+00
 -1       835 1.29900E+01 2.49750E+01 0.00000E+00
 -1       836 2.50350E+01 1.18003E+01 0.00000E+00
 -1       837 1.29900E+01 1.61375E+01 0.00000E+00
 -1       838 9.80786E+01 3.68448E+01 0.00000E+00
 -1       839 9.16500E+01 3.70100E+01 0.00000E+00
 -1       840 2.80350E+01 1.18003E+01 0.00000E+00
 -1       841 7.77026E+01 1.73198E+01 0.00000E+00
 -1       842 1.06237E+02 2.54567E+01 0.00000E+00
 -1       843 1.03035E+02 1.18003E+01 0.00000E+00
 -1       844 1.37010E+02 1.91250E+01 0.00000E+00
 -1       845 7.61397E+01 2.34626E+01 0.00000E+00
 -1       846 1.37010E+02 2.20625E+01 0.00000E+00
 -1       847 1.37141E+02 1.66443E+01 0.00000E+00
 -1       848 8.14147E+01 3.28090E+01 0.00000E+00
 -1       849 7.89250E+01 3.00984E+01 0.00000E+00
 -1       850 1.29900E+01 1.90812E+01 0.00000E+00
 -1       851 1.06477E+02 1.91416E+01 0.00000E+00
 -1       852 1.05919E+02 1.51207E+01 0.00000E+00
 -1       853 1.06379E+02 2.27723E+01 0.00000E+00
 -1       854 1.29900E+01 3.37938E+01 0.00000E+00
 -1       855 1.29900E+01 3.08563E+01 0.00000E+00
 -1       856 2.11500E+01 3.44120E+01 0.00000E+00
 -1       857 2.41500E+01 3.44120E+01 0.00000E+00
 -1       858 2.71500E+01 3.44120E+01 0.00000E+00
 -1       859 3.01500E+01 3.44120E+01 0.00000E+00
 -1       860 3.31500E+01 3.44120E+01 0.00000E+00
 -1       861 3.61500E+01 3.44120E+01 0.00000E+00
 -1       862 3.91500E+01 3.44120E+01 0.00000E+00
 -1       863 4.21500E+01 3.44120E+01 0.00000E+00
 -1       864 4.51500E+01 3.44120E+01 0.00000E+00
 -1       865 4.81500E+01 3.44120E+01 0.00000E+00
 -1       866 5.11500E+01 3.44120E+01 0.00000E+00
 -1       867 5.41500E+01 3.44120E+01 0.00000E+00
 -1       868 5.71500E+01 3.44120E+01 0.00000E+00
 -1       869 6.01500E+01 3.44120E+01 0.00000E+00
 -1       870 6.31500E+01 3.44120E+01 0.00000E+00
 -1       871 6.61500E+01 3.44120E+01 0.00000E+00
 -1       872 6.91500E+01 3.44120E+01 0.00000E+00
 -1       873 7.21500E+01 3.44120E+01 0.00000E+00
 -1       874 7.51500E+01 3.44120E+01 0.00000E+00
 -1       875 7.81500E+01 3.44120E+01 0.00000E+00
 -1       876 1.05150E+02 3.44570E+01 0.00000E+00
 -1       877 1.08150E+02 3.44570E+01 0.00000E+00
 -1       878 1.11150E+02 3.44570E+01 0.00000E+00
 -1       879 1.14150E+02 3.44570E+01 0.00000E+00
 -1       880 1.17150E+02 3.44570E+01 0.00000E+00
 -1       881 1.20150E+02 3.44570E+01 0.00000E+00
 -1       882 1.23150E+02 3.44570E+01 0.00000E+00
 -1       883 1.26150E+02 3.44570E+01 0.00000E+00
 -1       884 1.29150E+02 3.44570E+01 0.00000E+00
 -1       885 1.32150E+02 3.44570E+01 0.00000E+00
 -1       886 1.52625E+01 1.37991E+01 0.00000E+00
 -1       887 4.45350E+01 1.43982E+01 0.00000E+00
 -1       888 4.15350E+01 1.43982E+01 0.00000E+00
 -1       889 5.05350E+01 1.43982E+01 0.00000E+00
 -1       890 5.35350E+01 1.43982E+01 0.00000E+00
 -1       891 5.65350E+01 1.43982E+01 0.00000E+00
 -1       892 5.95350E+01 1.43982E+01 0.00000E+00
 -1       893 6.25350E+01 1.43982E+01 0.00000E+00
 -1       894 6.55350E+01 1.43982E+01 0.00000E+00
 -1       895 6.85350E+01 1.43982E+01 0.00000E+00
 -1       896 7.15350E+01 1.43982E+01 0.00000E+00
 -1       897 7.45350E+01 1.43982E+01 0.00000E+00
 -1       898 1.34412E+02 2.64750E+01 0.00000E+00
 -1       899 1.19535E+02 1.43982E+01 0.00000E+00
 -1       900 1.16535E+02 1.43982E+01 0.00000E+00
 -1       901 7.55644E+01 2.74871E+01 0.00000E+00
 -1       902 1.13535E+02 1.43982E+01 0.00000E+00
 -1       903 1.22535E+02 1.43982E+01 0.00000E+00
 -1       904 1.25535E+02 1.43982E+01 0.00000E+00
 -1       905 1.28535E+02 1.43982E+01 0.00000E+00
 -1       906 1.31535E+02 1.43982E+01 0.00000E+00
 -1       907 1.34535E+02 1.43982E+01 0.00000E+00
 -1       908 1.34412E+02 3.23750E+01 0.00000E+00
 -1       909 1.06230E+02 3.03144E+01 0.00000E+00
 -1       910 4.75350E+01 1.43982E+01 0.00000E+00
 -1       911 3.25350E+01 1.43982E+01 0.00000E+00
 -1       912 1.29900E+01 2.79188E+01 0.00000E+00
 -1       913 1.34412E+02 2.94250E+01 0.00000E+00
 -1       914 7.76789E+01 1.40513E+01 0.00000E+00
 -1       915 1.10535E+02 1.43982E+01 0.00000E+00
 -1       916 1.59900E+01 3.37938E+01 0.00000E+00
 -1       917 1.85700E+01 3.41029E+01 0.00000E+00
 -1       918 1.08224E+02 2.16890E+01 0.00000E+00
 -1       919 1.04541E+02 3.25495E+01 0.00000E+00
 -1       920 1.07727E+02 2.77118E+01 0.00000E+00
 -1       921 1.37547E+02 1.44444E+01 0.00000E+00
 -1       922 1.08227E+02 1.47595E+01 0.00000E+00
 -1       923 7.65331E+01 1.95816E+01 0.00000E+00
 -1       924 1.08081E+02 2.43734E+01 0.00000E+00
 -1       925 1.08396E+02 2.00868E+01 0.00000E+00
 -1       926 7.66461E+01 1.52694E+01 0.00000E+00
 -1       927 1.82625E+01 1.37991E+01 0.00000E+00
 -1       928 2.95350E+01 1.43982E+01 0.00000E+00
 -1       929 3.55350E+01 1.43982E+01 0.00000E+00
 -1       930 3.85350E+01 1.43982E+01 0.00000E+00
 -1       931 1.34412E+02 2.35375E+01 0.00000E+00
 -1       932 2.12625E+01 1.37991E+01 0.00000E+00
 -1       933 7.61577E+01 3.03952E+01 0.00000E+00
 -1       934 2.42625E+01 1.37991E+01 0.00000E+00
 -1       935 7.40324E+01 2.56361E+01 0.00000E+00
 -1       936 7.50652E+01 2.16467E+01 0.00000E+00
 -1       937 1.34481E+02 1.77474E+01 0.00000E+00
 -1       938 1.33537E+02 3.35726E+01 0.00000E+00
 -1       939 1.55880E+01 2.05531E+01 0.00000E+00
 -1       940 1.55880E+01 2.35031E+01 0.00000E+00
 -1       941 1.07157E+02 1.76038E+01 0.00000E+00
 -1       942 1.34447E+02 2.06424E+01 0.00000E+00
 -1       943 7.85375E+01 3.22552E+01 0.00000E+00
 -1       944 2.26500E+01 3.18140E+01 0.00000E+00
 -1       945 2.56500E+01 3.18140E+01 0.00000E+00
 -1       946 2.86500E+01 3.18140E+01 0.00000E+00
 -1       947 3.16500E+01 3.18140E+01 0.00000E+00
 -1       948 3.46500E+01 3.18140E+01 0.00000E+00
 -1       949 3.76500E+01 3.18140E+01 0.00000E+00
 -1       950 4.06500E+01 3.18140E+01 0.00000E+00
 -1       951 4.36500E+01 3.18140E+01 0.00000E+00
 -1       952 4.66500E+01 3.18140E+01 0.00000E+00
 -1       953 4.96500E+01 3.18140E+01 0.00000E+00
 -1       954 5.26500E+01 3.18140E+01 0.00000E+00
 -1       955 5.56500E+01 3.18140E+01 0.00000E+00
 -1       956 5.86500E+01 3.18140E+01 0.00000E+00
 -1       957 6.16500E+01 3.18140E+01 0.00000E+00
 -1       958 6.46500E+01 3.18140E+01 0.00000E+00
 -1       959 6.76500E+01 3.18140E+01 0.00000E+00
 -1       960 7.06500E+01 3.18140E+01 0.00000E+00
 -1       961 7.36500E+01 3.18140E+01 0.00000E+00
 -1       962 7.60938E+01 3.20346E+01 0.00000E+00
 -1       963 1.55880E+01 2.64469E+01 0.00000E+00
 -1       964 1.10276E+02 2.62937E+01 0.00000E+00
 -1       965 1.09650E+02 3.18590E+01 0.00000E+00
 -1       966 1.12650E+02 3.18590E+01 0.00000E+00
 -1       967 1.15650E+02 3.18590E+01 0.00000E+00
 -1       968 1.18650E+02 3.18590E+01 0.00000E+00
 -1       969 1.21650E+02 3.18590E+01 0.00000E+00
 -1       970 1.24650E+02 3.18590E+01 0.00000E+00
 -1       971 1.27650E+02 3.18590E+01 0.00000E+00
 -1       972 1.30650E+02 3.18590E+01 0.00000E+00
 -1       973 4.30350E+01 1.69963E+01 0.00000E+00
 -1       974 5.50350E+01 1.69963E+01 0.00000E+00
 -1       975 5.20350E+01 1.69963E+01 0.00000E+00
 -1       976 6.10350E+01 1.69963E+01 0.00000E+00
 -1       977 6.40350E+01 1.69963E+01 0.00000E+00
 -1       978 6.70350E+01 1.69963E+01 0.00000E+00
 -1       979 7.00350E+01 1.69963E+01 0.00000E+00
 -1       980 7.30350E+01 1.69963E+01 0.00000E+00
 -1       981 1.21035E+02 1.69963E+01 0.00000E+00
 -1       982 1.15035E+02 1.69963E+01 0.00000E+00
 -1       983 1.18035E+02 1.69963E+01 0.00000E+00
 -1       984 1.27035E+02 1.69963E+01 0.00000E+00
 -1       985 1.30035E+02 1.69963E+01 0.00000E+00
 -1       986 1.63076E+01 3.04687E+01 0.00000E+00
 -1       987 1.59894E+01 1.67789E+01 0.00000E+00
 -1       988 2.68988E+01 1.40987E+01 0.00000E+00
 -1       989 1.12035E+02 1.69963E+01 0.00000E+00
 -1       990 7.54765E+01 1.75311E+01 0.00000E+00
 -1       991 5.80350E+01 1.69963E+01 0.00000E+00
 -1       992 1.07190E+02 3.23857E+01 0.00000E+00
 -1       993 1.08901E+02 3.01189E+01 0.00000E+00
 -1       994 1.10557E+02 2.31593E+01 0.00000E+00
 -1       995 1.24035E+02 1.69963E+01 0.00000E+00
 -1       996 1.11450E+02 2.87009E+01 0.00000E+00
 -1       997 4.60350E+01 1.69963E+01 0.00000E+00
 -1       998 3.10350E+01 1.69963E+01 0.00000E+00
 -1       999 4.00350E+01 1.69963E+01 0.00000E+00
 -1      1000 1.31814E+02 2.50063E+01 0.00000E+00
 -1      1001 1.97625E+01 1.63971E+01 0.00000E+00
 -1      1002 7.29579E+01 2.38201E+01 0.00000E+00
 -1      1003 1.88876E+01 3.07778E+01 0.00000E+00
 -1      1004 1.09727E+02 1.73575E+01 0.00000E+00
 -1      1005 7.29607E+01 2.80825E+01 0.00000E+00
 -1      1006 2.27625E+01 1.63971E+01 0.00000E+00
 -1      1007 3.40350E+01 1.69963E+01 0.00000E+00
 -1      1008 1.31814E+02 2.79562E+01 0.00000E+00
 -1      1009 1.10729E+02 2.15570E+01 0.00000E+00
 -1      1010 1.81860E+01 2.20281E+01 0.00000E+00
 -1      1011 7.40086E+01 1.95962E+01 0.00000E+00
 -1      1012 1.30000E+02 1.98913E+01 0.00000E+00
 -1      1013 1.32531E+02 3.06420E+01 0.00000E+00
 -1      1014 4.90350E+01 1.69963E+01 0.00000E+00
 -1      1015 1.30907E+02 2.24488E+01 0.00000E+00
 -1      1016 2.71500E+01 2.92160E+01 0.00000E+00
 -1      1017 3.01500E+01 2.92160E+01 0.00000E+00
 -1      1018 3.31500E+01 2.92160E+01 0.00000E+00
 -1      1019 3.61500E+01 2.92160E+01 0.00000E+00
 -1      1020 3.91500E+01 2.92160E+01 0.00000E+00
 -1      1021 4.21500E+01 2.92160E+01 0.00000E+00
 -1      1022 4.51500E+01 2.92160E+01 0.00000E+00
 -1      1023 4.81500E+01 2.92160E+01 0.00000E+00
 -1      1024 5.11500E+01 2.92160E+01 0.00000E+00
 -1      1025 5.41500E+01 2.92160E+01 0.00000E+00
 -1      1026 5.71500E+01 2.92160E+01 0.00000E+00
 -1      1027 6.01500E+01 2.92160E+01 0.00000E+00
 -1      1028 6.31500E+01 2.92160E+01 0.00000E+00
 -1      1029 6.61500E+01 2.92160E+01 0.00000E+00
 -1      1030 6.91500E+01 2.92160E+01 0.00000E+00
 -1      1031 5.35350E+01 1.95942E+01 0.00000E+00
 -1      1032 1.81860E+01 2.49719E+01 0.00000E+00
 -1      1033 1.12959E+02 2.49543E+01 0.00000E+00
 -1      1034 5.05350E+01 1.95942E+01 0.00000E+00
 -1      1035 1.14150E+02 2.92610E+01 0.00000E+00
 -1      1036 1.17150E+02 2.92610E+01 0.00000E+00
 -1      1037 1.20150E+02 2.92610E+01 0.00000E+00
 -1      1038 1.23150E+02 2.92610E+01 0.00000E+00
 -1      1039 1.26150E+02 2.92610E+01 0.00000E+00
 -1      1040 1.29150E+02 2.92610E+01 0.00000E+00
 -1      1041 3.70350E+01 1.69963E+01 0.00000E+00
 -1      1042 6.55350E+01 1.95942E+01 0.00000E+00
 -1      1043 6.25350E+01 1.95942E+01 0.00000E+00
 -1      1044 7.10086E+01 1.95962E+01 0.00000E+00
 -1      1045 5.65350E+01 1.95942E+01 0.00000E+00
 -1      1046 2.80351E+01 1.69963E+01 0.00000E+00
 -1      1047 1.81697E+01 1.90314E+01 0.00000E+00
 -1      1048 1.19535E+02 1.95942E+01 0.00000E+00
 -1      1049 1.13535E+02 1.95942E+01 0.00000E+00
 -1      1050 5.95350E+01 1.95942E+01 0.00000E+00
 -1      1051 1.85368E+01 2.78749E+01 0.00000E+00
 -1      1052 1.16535E+02 1.95942E+01 0.00000E+00
 -1      1053 2.22992E+01 2.89110E+01 0.00000E+00
 -1      1054 6.82718E+01 1.95952E+01 0.00000E+00
 -1      1055 2.07758E+01 2.05156E+01 0.00000E+00
 -1      1056 2.47246E+01 2.90635E+01 0.00000E+00
 -1      1057 7.18863E+01 2.62666E+01 0.00000E+00
 -1      1058 2.07758E+01 2.34593E+01 0.00000E+00
 -1      1059 4.75350E+01 1.95942E+01 0.00000E+00
 -1      1060 4.15350E+01 1.95942E+01 0.00000E+00
 -1      1061 7.19833E+01 2.17082E+01 0.00000E+00
 -1      1062 1.26703E+02 2.03027E+01 0.00000E+00
 -1      1063 2.53988E+01 1.66967E+01 0.00000E+00
 -1      1064 1.22535E+02 1.95942E+01 0.00000E+00
 -1      1065 2.95351E+01 1.95943E+01 0.00000E+00
 -1      1066 1.29150E+02 2.63110E+01 0.00000E+00
 -1      1067 1.28243E+02 2.37536E+01 0.00000E+00
 -1      1068 3.25351E+01 1.95943E+01 0.00000E+00
 -1      1069 1.13555E+02 2.71077E+01 0.00000E+00
 -1      1070 4.45350E+01 1.95942E+01 0.00000E+00
 -1      1071 2.86500E+01 2.66180E+01 0.00000E+00
 -1      1072 3.16500E+01 2.66180E+01 0.00000E+00
 -1      1073 3.46500E+01 2.66180E+01 0.00000E+00
 -1      1074 3.76500E+01 2.66180E+01 0.00000E+00
 -1      1075 4.06500E+01 2.66180E+01 0.00000E+00
 -1      1076 4.36500E+01 2.66180E+01 0.00000E+00
 -1      1077 4.66500E+01 2.66180E+01 0.00000E+00
 -1      1078 4.96500E+01 2.66180E+01 0.00000E+00
 -1      1079 5.26500E+01 2.66180E+01 0.00000E+00
 -1      1080 5.56500E+01 2.66180E+01 0.00000E+00
 -1      1081 5.86500E+01 2.66180E+01 0.00000E+00
 -1      1082 6.16500E+01 2.66180E+01 0.00000E+00
 -1      1083 6.46500E+01 2.66180E+01 0.00000E+00
 -1      1084 6.76500E+01 2.66180E+01 0.00000E+00
 -1      1085 1.16555E+02 2.71077E+01 0.00000E+00
 -1      1086 3.85350E+01 1.95942E+01 0.00000E+00
 -1      1087 1.19555E+02 2.71077E+01 0.00000E+00
 -1      1088 1.22555E+02 2.71077E+01 0.00000E+00
 -1      1089 1.25555E+02 2.71077E+01 0.00000E+00
 -1      1090 1.18035E+02 2.21922E+01 0.00000E+00
 -1      1091 6.40350E+01 2.21922E+01 0.00000E+00
 -1      1092 7.00836E+01 2.40190E+01 0.00000E+00
 -1      1093 6.10350E+01 2.21922E+01 0.00000E+00
 -1      1094 2.41091E+01 1.95851E+01 0.00000E+00
 -1      1095 5.50350E+01 2.21922E+01 0.00000E+00
 -1      1096 5.80350E+01 2.21922E+01 0.00000E+00
 -1      1097 2.19484E+01 2.60080E+01 0.00000E+00
 -1      1098 2.65352E+01 1.95943E+01 0.00000E+00
 -1      1099 4.30350E+01 2.21922E+01 0.00000E+00
 -1      1100 5.20350E+01 2.21922E+01 0.00000E+00
 -1      1101 2.43738E+01 2.61605E+01 0.00000E+00
 -1      1102 2.41091E+01 2.25289E+01 0.00000E+00
 -1      1103 4.90350E+01 2.21922E+01 0.00000E+00
 -1      1104 4.00350E+01 2.21922E+01 0.00000E+00
 -1      1105 1.25101E+02 2.30871E+01 0.00000E+00
 -1      1106 6.92465E+01 2.17072E+01 0.00000E+00
 -1      1107 1.21035E+02 2.21922E+01 0.00000E+00
 -1      1108 1.15786E+02 2.25469E+01 0.00000E+00
 -1      1109 3.10351E+01 2.21923E+01 0.00000E+00
 -1      1110 6.66407E+01 2.19497E+01 0.00000E+00
 -1      1111 1.16381E+02 2.47003E+01 0.00000E+00
 -1      1112 4.60350E+01 2.21922E+01 0.00000E+00
 -1      1113 2.80352E+01 2.21923E+01 0.00000E+00
 -1      1114 2.65119E+01 2.63893E+01 0.00000E+00
 -1      1115 3.55350E+01 1.95943E+01 0.00000E+00
 -1      1116 3.31500E+01 2.40200E+01 0.00000E+00
 -1      1117 3.61500E+01 2.40200E+01 0.00000E+00
 -1      1118 1.19381E+02 2.47003E+01 0.00000E+00
 -1      1119 2.98425E+01 2.44051E+01 0.00000E+00
 -1      1120 2.72735E+01 2.42908E+01 0.00000E+00
 -1      1121 0.00000E+00 4.85250E+01 0.00000E+00
 -1      1122 0.00000E+00 4.55750E+01 0.00000E+00
 -1      1123 0.00000E+00 4.26250E+01 0.00000E+00
 -1      1124 0.00000E+00 3.96750E+01 0.00000E+00
 -1      1125 0.00000E+00 3.67250E+01 0.00000E+00
 -1      1126 0.00000E+00 3.38000E+01 0.00000E+00
 -1      1127 0.00000E+00 3.08750E+01 0.00000E+00
 -1      1128 0.00000E+00 2.79250E+01 0.00000E+00
 -1      1129 0.00000E+00 2.49750E+01 0.00000E+00
 -1      1130 0.00000E+00 2.20250E+01 0.00000E+00
 -1      1131 0.00000E+00 1.90750E+01 0.00000E+00
 -1      1132 0.00000E+00 1.61500E+01 0.00000E+00
 -1      1133 0.00000E+00 1.32250E+01 0.00000E+00
 -1      1134 0.00000E+00 1.02750E+01 0.00000E+00
 -1      1135 0.00000E+00 7.32500E+00 0.00000E+00
 -1      1136 0.00000E+00 4.37500E+00 0.00000E+00
 -1      1137 0.00000E+00 1.45000E+00 0.00000E+00
 -1      1138 1.57500E+00 5.00000E+01 0.00000E+00
 -1      1139 4.65000E+00 5.00000E+01 0.00000E+00
 -1      1140 7.65000E+00 5.00000E+01 0.00000E+00
 -1      1141 1.06500E+01 5.00000E+01 0.00000E+00
 -1      1142 1.36500E+01 5.00000E+01 0.00000E+00
 -1      1143 1.66500E+01 5.00000E+01 0.00000E+00
 -1      1144 1.96500E+01 5.00000E+01 0.00000E+00
 -1      1145 2.26500E+01 5.00000E+01 0.00000E+00
 -1      1146 2.56500E+01 5.00000E+01 0.00000E+00
 -1      1147 2.86500E+01 5.00000E+01 0.00000E+00
 -1      1148 3.16500E+01 5.00000E+01 0.00000E+00
 -1      1149 3.46500E+01 5.00000E+01 0.00000E+00
 -1      1150 3.76500E+01 5.00000E+01 0.00000E+00
 -1      1151 4.06500E+01 5.00000E+01 0.00000E+00
 -1      1152 4.36500E+01 5.00000E+01 0.00000E+00
 -1      1153 4.66500E+01 5.00000E+01 0.00000E+00
 -1      1154 4.96500E+01 5.00000E+01 0.00000E+00
 -1      1155 5.26500E+01 5.00000E+01 0.00000E+00
 -1      1156 5.56500E+01 5.00000E+01 0.00000E+00
 -1      1157 5.86500E+01 5.00000E+01 0.00000E+00
 -1      1158 6.16500E+01 5.00000E+01 0.00000E+00
 -1      1159 6.46500E+01 5.00000E+01 0.00000E+00
 -1      1160 6.76500E+01 5.00000E+01 0.00000E+00
 -1      1161 7.06500E+01 5.00000E+01 0.00000E+00
 -1      1162 7.36500E+01 5.00000E+01 0.00000E+00
 -1      1163 7.66500E+01 5.00000E+01 0.00000E+00
 -1      1164 7.96500E+01 5.00000E+01 0.00000E+00
 -1      1165 8.26500E+01 5.00000E+01 0.00000E+00
 -1      1166 8.56500E+01 5.00000E+01 0.00000E+00
 -1      1167 8.86500E+01 5.00000E+01 0.00000E+00
 -1      1168 9.16500E+01 5.00000E+01 0.00000E+00
 -1      1169 9.46500E+01 5.00000E+01 0.00000E+00
 -1      1170 9.76500E+01 5.00000E+01 0.00000E+00
 -1      1171 1.00650E+02 5.00000E+01 0.00000E+00
 -1      1172 1.03650E+02 5.00000E+01 0.00000E+00
 -1      1173 1.06650E+02 5.00000E+01 0.00000E+00
 -1      1174 1.09650E+02 5.00000E+01 0.00000E+00
 -1      1175 1.12650E+02 5.00000E+01 0.00000E+00
 -1      1176 1.15650E+02 5.00000E+01 0.00000E+00
 -1      1177 1.18650E+02 5.00000E+01 0.00000E+00
 -1      1178 1.21650E+02 5.00000E+01 0.00000E+00
 -1      1179 1.24650E+02 5.00000E+01 0.00000E+00
 -1      1180 1.27650E+02 5.00000E+01 0.00000E+00
 -1      1181 1.30650E+02 5.00000E+01 0.00000E+00
 -1      1182 1.33650E+02 5.00000E+01 0.00000E+00
 -1      1183 1.36650E+02 5.00000E+01 0.00000E+00
 -1      1184 1.39650E+02 5.00000E+01 0.00000E+00
 -1      1185 1.42650E+02 5.00000E+01 0.00000E+00
 -1      1186 1.45650E+02 5.00000E+01 0.00000E+00
 -1      1187 1.48575E+02 5.00000E+01 0.00000E+00
 -1      1188 1.57500E+00 0.00000E+00 0.00000E+00
 -1      1189 4.65000E+00 0.00000E+00 0.00000E+00
 -1      1190 7.65000E+00 0.00000E+00 0.00000E+00
 -1      1191 1.06500E+01 0.00000E+00 0.00000E+00
 -1      1192 1.36500E+01 0.00000E+00 0.00000E+00
 -1      1193 1.66500E+01 0.00000E+00 0.00000E+00
 -1      1194 1.96500E+01 0.00000E+00 0.00000E+00
 -1      1195 2.26500E+01 0.00000E+00 0.00000E+00
 -1      1196 2.56500E+01 0.00000E+00 0.00000E+00
 -1      1197 2.86500E+01 0.00000E+00 0.00000E+00
 -1      1198 3.16500E+01 0.00000E+00 0.00000E+00
 -1      1199 3.46500E+01 0.00000E+00 0.00000E+00
 -1      1200 3.76500E+01 0.00000E+00 0.00000E+00
 -1      1201 4.06500E+01 0.00000E+00 0.00000E+00
 -1      1202 4.36500E+01 0.00000E+00 0.00000E+00
 -1      1203 4.66500E+01 0.00000E+00 0.00000E+00
 -1      1204 4.96500E+01 0.00000E+00 0.00000E+00
 -1      1205 5.26500E+01 0.00000E+00 0.00000E+00
 -1      1206 5.56500E+01 0.00000E+00 0.00000E+00
 -1      1207 5.86500E+01 0.00000E+00 0.00000E+00
 -1      1208 6.16500E+01 0.00000E+00 0.00000E+00
 -1      1209 6.46500E+01 0.00000E+00 0.00000E+00
 -1      1210 6.76500E+01 0.00000E+00 0.00000E+00
 -1      1211 7.06500E+01 0.00000E+00 0.00000E+00
 -1      1212 7.36500E+01 0.00000E+00 0.00000E+00
 -1      1213 7.66500E+01 0.00000E+00 0.00000E+00
 -1      1214 7.96500E+01 0.00000E+00 0.00000E+00
 -1      1215 8.26500E+01 0.00000E+00 0.00000E+00
 -1      1216 8.56500E+01 0.00000E+00 0.00000E+00
 -1      1217 8.86500E+01 0.00000E+00 0.00000E+00
 -1      1218 9.16500E+01 0.00000E+00 0.00000E+00
 -1      1219 9.46500E+01 0.00000E+00 0.00000E+00
 -1      1220 9.76500E+01 0.00000E+00 0.00000E+00
 -1      1221 1.00650E+02 0.00000E+00 0.00000E+00
 -1      1222 1.03650E+02 0.00000E+00 0.00000E+00
 -1      1223 1.06650E+02 0.00000E+00 0.00000E+00
 -1      1224 1.09650E+02 0.00000E+00 0.00000E+00
 -1      1225 1.12650E+02 0.00000E+00 0.00000E+00
 -1      1226 1.15650E+02 0.00000E+00 0.00000E+00
 -1      1227 1.18650E+02 0.00000E+00 0.00000E+00
 -1      1228 1.21650E+02 0.00000E+00 0.00000E+00
 -1      1229 1.24650E+02 0.00000E+00 0.00000E+00
 -1      1230 1.27650E+02 0.00000E+00 0.00000E+00
 -1      1231 1.30650E+02 0.00000E+00 0.00000E+00
 -1      1232 1.33650E+02 0.00000E+00 0.00000E+00
 -1      1233 1.36650E+02 0.00000E+00 0.00000E+00
 -1      1234 1.39650E+02 0.00000E+00 0.00000E+00
 -1      1235 1.42650E+02 0.00000E+00 0.00000E+00
 -1      1236 1.45650E+02 0.00000E+00 0.00000E+00
 -1      1237 1.48575E+02 0.00000E+00 0.00000E+00
 -1      1238 1.50000E+02 1.47500E+00 0.00000E+00
 -1      1239 1.50000E+02 4.42500E+00 0.00000E+00
 -1      1240 1.50000E+02 7.37500E+00 0.00000E+00
 -1      1241 1.50000E+02 1.03250E+01 0.00000E+00
 -1      1242 1.50000E+02 1.32750E+01 0.00000E+00
 -1      1243 1.50000E+02 1.62000E+01 0.00000E+00
 -1      1244 1.50000E+02 1.91250E+01 0.00000E+00
 -1      1245 1.50000E+02 2.20750E+01 0.00000E+00
 -1      1246 1.50000E+02 2.50250E+01 0.00000E+00
 -1      1247 1.50000E+02 2.79750E+01 0.00000E+00
 -1      1248 1.50000E+02 3.09250E+01 0.00000E+00
 -1      1249 1.50000E+02 3.38500E+01 0.00000E+00
 -1      1250 1.50000E+02 3.67750E+01 0.00000E+00
 -1      1251 1.50000E+02 3.97250E+01 0.00000E+00
 -1      1252 1.50000E+02 4.26750E+01 0.00000E+00
 -1      1253 1.50000E+02 4.56250E+01 0.00000E+00
 -1      1254 1.50000E+02 4.85500E+01 0.00000E+00
 -1      1255 9.89145E+01 2.09067E+01 0.00000E+00
 -1      1256 9.85976E+01 1.94558E+01 0.00000E+00
 -1      1257 9.79453E+01 1.80432E+01 0.00000E+00
 -1      1258 9.69768E+01 1.67886E+01 0.00000E+00
 -1      1259 9.57997E+01 1.58159E+01 0.00000E+00
 -1      1260 9.44102E+01 1.51105E+01 0.00000E+00
 -1      1261 9.28465E+01 1.47230E+01 0.00000E+00
 -1      1262 9.12850E+01 1.46983E+01 0.00000E+00
 -1      1263 8.97853E+01 1.50111E+01 0.00000E+00
 -1      1264 8.83838E+01 1.56460E+01 0.00000E+00
 -1      1265 8.71757E+01 1.65523E+01 0.00000E+00
 -1      1266 8.61843E+01 1.77049E+01 0.00000E+00
 -1      1267 8.54712E+01 1.90296E+01 0.00000E+00
 -1      1268 8.50617E+01 2.04527E+01 0.00000E+00
 -1      1269 8.49631E+01 2.19862E+01 0.00000E+00
 -1      1270 8.52079E+01 2.35278E+01 0.00000E+00
 -1      1271 8.57861E+01 2.49730E+01 0.00000E+00
 -1      1272 8.67247E+01 2.63175E+01 0.00000E+00
 -1      1273 8.80043E+01 2.74442E+01 0.00000E+00
 -1      1274 8.94483E+01 2.82016E+01 0.00000E+00
 -1      1275 9.09385E+01 2.85918E+01 0.00000E+00
 -1      1276 9.25216E+01 2.86432E+01 0.00000E+00
 -1      1277 9.40514E+01 2.83450E+01 0.00000E+00
 -1      1278 9.54076E+01 2.77558E+01 0.00000E+00
 -1      1279 9.66102E+01 2.68945E+01 0.00000E+00
 -1      1280 9.75623E+01 2.58574E+01 0.00000E+00
 -1      1281 9.82465E+01 2.47363E+01 0.00000E+00
 -1      1282 9.87033E+01 2.35289E+01 0.00000E+00
 -1      1283 9.89278E+01 2.22913E+01 0.00000E+00
 -1      1284 1.57500E+00 4.85250E+01 0.00000E+00
 -1      1285 1.29900E+00 4.48375E+01 0.00000E+00
 -1      1286 1.29900E+00 4.63125E+01 0.00000E+00
 -1      1287 1.29900E+00 4.18875E+01 0.00000E+00
 -1      1288 1.29900E+00 4.33625E+01 0.00000E+00
 -1      1289 2.59800E+00 4.41000E+01 0.00000E+00
 -1      1290 1.29900E+00 3.89375E+01 0.00000E+00
 -1      1291 1.29900E+00 4.04125E+01 0.00000E+00
 -1      1292 2.59800E+00 4.11500E+01 0.00000E+00
 -1      1293 1.29900E+00 3.59875E+01 0.00000E+00
 -1      1294 1.29900E+00 3.74625E+01 0.00000E+00
 -1      1295 2.59800E+00 3.82000E+01 0.00000E+00
 -1      1296 1.29900E+00 3.30875E+01 0.00000E+00
 -1      1297 1.29900E+00 3.45375E+01 0.00000E+00
 -1      1298 2.59800E+00 3.52750E+01 0.00000E+00
 -1      1299 1.29900E+00 3.01375E+01 0.00000E+00
 -1      1300 1.29900E+00 3.16125E+01 0.00000E+00
 -1      1301 2.59800E+00 3.23500E+01 0.00000E+00
 -1      1302 1.29900E+00 2.71875E+01 0.00000E+00
 -1      1303 1.29900E+00 2.86625E+01 0.00000E+00
 -1      1304 2.59800E+00 2.94000E+01 0.00000E+00
 -1      1305 1.29900E+00 2.42375E+01 0.00000E+00
 -1      1306 1.29900E+00 2.57125E+01 0.00000E+00
 -1      1307 2.59800E+00 2.64500E+01 0.00000E+00
 -1      1308 1.29900E+00 2.12875E+01 0.00000E+00
 -1      1309 1.29900E+00 2.27625E+01 0.00000E+00
 -1      1310 2.59800E+00 2.35000E+01 0.00000E+00
 -1      1311 1.29900E+00 1.83375E+01 0.00000E+00
 -1      1312 1.29900E+00 1.98125E+01 0.00000E+00
 -1      1313 2.59800E+00 2.05500E+01 0.00000E+00
 -1      1314 1.29900E+00 1.54375E+01 0.00000E+00
 -1      1315 1.29900E+00 1.68875E+01 0.00000E+00
 -1      1316 2.59800E+00 1.76250E+01 0.00000E+00
 -1      1317 1.29900E+00 1.24875E+01 0.00000E+00
 -1      1318 1.29900E+00 1.39625E+01 0.00000E+00
 -1      1319 2.59800E+00 1.47000E+01 0.00000E+00
 -1      1320 1.29900E+00 9.53750E+00 0.00000E+00
 -1      1321 1.29900E+00 1.10125E+01 0.00000E+00
 -1      1322 2.59800E+00 1.17500E+01 0.00000E+00
 -1      1323 1.29900E+00 6.58750E+00 0.00000E+00
 -1      1324 1.29900E+00 8.06250E+00 0.00000E+00
 -1      1325 2.59800E+00 8.80000E+00 0.00000E+00
 -1      1326 1.29900E+00 3.63750E+00 0.00000E+00
 -1      1327 1.29900E+00 5.11250E+00 0.00000E+00
 -1      1328 2.59800E+00 5.85000E+00 0.00000E+00
 -1      1329 1.43700E+00 1.09375E+00 0.00000E+00
 -1      1330 1.43700E+00 2.54375E+00 0.00000E+00
 -1      1331 2.73600E+00 3.28125E+00 0.00000E+00
 -1      1332 3.01200E+00 1.09375E+00 0.00000E+00
 -1      1333 3.90000E+00 4.87010E+01 0.00000E+00
 -1      1334 5.40000E+00 4.87010E+01 0.00000E+00
 -1      1335 6.90000E+00 4.87010E+01 0.00000E+00
 -1      1336 8.40000E+00 4.87010E+01 0.00000E+00
 -1      1337 6.15000E+00 4.74020E+01 0.00000E+00
 -1      1338 9.90000E+00 4.87010E+01 0.00000E+00
 -1      1339 1.14000E+01 4.87010E+01 0.00000E+00
 -1      1340 9.15000E+00 4.74020E+01 0.00000E+00
 -1      1341 1.29000E+01 4.87010E+01 0.00000E+00
 -1      1342 1.44000E+01 4.87010E+01 0.00000E+00
 -1      1343 1.21500E+01 4.74020E+01 0.00000E+00
 -1      1344 1.59000E+01 4.87010E+01 0.00000E+00
 -1      1345 1.74000E+01 4.87010E+01 0.00000E+00
 -1      1346 1.51500E+01 4.74020E+01 0.00000E+00
 -1      1347 1.89000E+01 4.87010E+01 0.00000E+00
 -1      1348 2.04000E+01 4.87010E+01 0.00000E+00
 -1      1349 1.81500E+01 4.74020E+01 0.00000E+00
 -1      1350 2.19000E+01 4.87010E+01 0.00000E+00
 -1      1351 2.34000E+01 4.87010E+01 0.00000E+00
 -1      1352 2.11500E+01 4.74020E+01 0.00000E+00
 -1      1353 2.49000E+01 4.87010E+01 0.00000E+00
 -1      1354 2.64000E+01 4.87010E+01 0.00000E+00
 -1      1355 2.41500E+01 4.74020E+01 0.00000E+00
 -1      1356 2.79000E+01 4.87010E+01 0.00000E+00
 -1      1357 2.94000E+01 4.87010E+01 0.00000E+00
 -1      1358 2.71500E+01 4.74020E+01 0.00000E+00
 -1      1359 3.09000E+01 4.87010E+01 0.00000E+00
 -1      1360 3.24000E+01 4.87010E+01 0.00000E+00
 -1      1361 3.01500E+01 4.74020E+01 0.00000E+00
 -1      1362 3.39000E+01 4.87010E+01 0.00000E+00
 -1      1363 3.54000E+01 4.87010E+01 0.00000E+00
 -1      1364 3.31500E+01 4.74020E+01 0.00000E+00
 -1      1365 3.69000E+01 4.87010E+01 0.00000E+00
 -1      1366 3.84000E+01 4.87010E+01 0.00000E+00
 -1      1367 3.61500E+01 4.74020E+01 0.00000E+00
 -1      1368 3.99000E+01 4.87010E+01 0.00000E+00
 -1      1369 4.14000E+01 4.87010E+01 0.00000E+00
 -1      1370 3.91500E+01 4.74020E+01 0.00000E+00
 -1      1371 4.29000E+01 4.87010E+01 0.00000E+00
 -1      1372 4.44000E+01 4.87010E+01 0.00000E+00
 -1      1373 4.21500E+01 4.74020E+01 0.00000E+00
 -1      1374 4.59000E+01 4.87010E+01 0.00000E+00
 -1      1375 4.74000E+01 4.87010E+01 0.00000E+00
 -1      1376 4.51500E+01 4.74020E+01 0.00000E+00
 -1      1377 4.89000E+01 4.87010E+01 0.00000E+00
 -1      1378 5.04000E+01 4.87010E+01 0.00000E+00
 -1      1379 4.81500E+01 4.74020E+01 0.00000E+00
 -1      1380 5.19000E+01 4.87010E+01 0.00000E+00
 -1      1381 5.34000E+01 4.87010E+01 0.00000E+00
 -1      1382 5.11500E+01 4.74020E+01 0.00000E+00
 -1      1383 5.49000E+01 4.87010E+01 0.00000E+00
 -1      1384 5.64000E+01 4.87010E+01 0.00000E+00
 -1      1385 5.41500E+01 4.74020E+01 0.00000E+00
 -1      1386 5.79000E+01 4.87010E+01 0.00000E+00
 -1      1387 5.94000E+01 4.87010E+01 0.00000E+00
 -1      1388 5.71500E+01 4.74020E+01 0.00000E+00
 -1      1389 6.09000E+01 4.87010E+01 0.00000E+00
 -1      1390 6.24000E+01 4.87010E+01 0.00000E+00
 -1      1391 6.01500E+01 4.74020E+01 0.00000E+00
 -1      1392 6.39000E+01 4.87010E+01 0.00000E+00
 -1      1393 6.54000E+01 4.87010E+01 0.00000E+00
 -1      1394 6.31500E+01 4.74020E+01 0.00000E+00
 -1      1395 6.69000E+01 4.87010E+01 0.00000E+00
 -1      1396 6.84000E+01 4.87010E+01 0.00000E+00
 -1      1397 6.61500E+01 4.74020E+01 0.00000E+00
 -1      1398 6.99000E+01 4.87010E+01 0.00000E+00
 -1      1399 7.14000E+01 4.87010E+01 0.00000E+00
 -1      1400 6.91500E+01 4.74020E+01 0.00000E+00
 -1      1401 7.29000E+01 4.87010E+01 0.00000E+00
 -1      1402 7.44000E+01 4.87010E+01 0.00000E+00
 -1      1403 7.21500E+01 4.74020E+01 0.00000E+00
 -1      1404 7.59000E+01 4.87010E+01 0.00000E+00
 -1      1405 7.74000E+01 4.87010E+01 0.00000E+00
 -1      1406 7.51500E+01 4.74020E+01 0.00000E+00
 -1      1407 7.89000E+01 4.87010E+01 0.00000E+00
 -1      1408 8.04000E+01 4.87010E+01 0.00000E+00
 -1      1409 7.81500E+01 4.74020E+01 0.00000E+00
 -1      1410 8.19000E+01 4.87010E+01 0.00000E+00
 -1      1411 8.34000E+01 4.87010E+01 0.00000E+00
 -1      1412 8.11500E+01 4.74020E+01 0.00000E+00
 -1      1413 8.49000E+01 4.87010E+01 0.00000E+00
 -1      1414 8.64000E+01 4.87010E+01 0.00000E+00
 -1      1415 8.41500E+01 4.74020E+01 0.00000E+00
 -1      1416 8.79000E+01 4.87010E+01 0.00000E+00
 -1      1417 8.94000E+01 4.87010E+01 0.00000E+00
 -1      1418 8.71500E+01 4.74020E+01 0.00000E+00
 -1      1419 9.09000E+01 4.87010E+01 0.00000E+00
 -1      1420 9.24000E+01 4.87010E+01 0.00000E+00
 -1      1421 9.01500E+01 4.74020E+01 0.00000E+00
 -1      1422 9.39000E+01 4.87010E+01 0.00000E+00
 -1      1423 9.54000E+01 4.87010E+01 0.00000E+00
 -1      1424 9.31500E+01 4.74020E+01 0.00000E+00
 -1      1425 9.69000E+01 4.87010E+01 0.00000E+00
 -1      1426 9.84000E+01 4.87010E+01 0.00000E+00
 -1      1427 9.61500E+01 4.74020E+01 0.00000E+00
 -1      1428 9.99000E+01 4.87010E+01 0.00000E+00
 -1      1429 1.01400E+02 4.87010E+01 0.00000E+00
 -1      1430 9.91500E+01 4.74020E+01 0.00000E+00
 -1      1431 1.02900E+02 4.87010E+01 0.00000E+00
 -1      1432 1.04400E+02 4.87010E+01 0.00000E+00
 -1      1433 1.02150E+02 4.74020E+01 0.00000E+00
 -1      1434 1.05900E+02 4.87010E+01 0.00000E+00
 -1      1435 1.07400E+02 4.87010E+01 0.00000E+00
 -1      1436 1.05150E+02 4.74020E+01 0.00000E+00
 -1      1437 1.08900E+02 4.87010E+01 0.00000E+00
 -1      1438 1.10400E+02 4.87010E+01 0.00000E+00
 -1      1439 1.08150E+02 4.74020E+01 0.00000E+00
 -1      1440 1.11900E+02 4.87010E+01 0.00000E+00
 -1      1441 1.13400E+02 4.87010E+01 0.00000E+00
 -1      1442 1.11150E+02 4.74020E+01 0.00000E+00
 -1      1443 1.14900E+02 4.87010E+01 0.00000E+00
 -1      1444 1.16400E+02 4.87010E+01 0.00000E+00
 -1      1445 1.14150E+02 4.74020E+01 0.00000E+00
 -1      1446 1.17900E+02 4.87010E+01 0.00000E+00
 -1      1447 1.19400E+02 4.87010E+01 0.00000E+00
 -1      1448 1.17150E+02 4.74020E+01 0.00000E+00
 -1      1449 1.20900E+02 4.87010E+01 0.00000E+00
 -1      1450 1.22400E+02 4.87010E+01 0.00000E+00
 -1      1451 1.20150E+02 4.74020E+01 0.00000E+00
 -1      1452 1.23900E+02 4.87010E+01 0.00000E+00
 -1      1453 1.25400E+02 4.87010E+01 0.00000E+00
 -1      1454 1.23150E+02 4.74020E+01 0.00000E+00
 -1      1455 1.26900E+02 4.87010E+01 0.00000E+00
 -1      1456 1.28400E+02 4.87010E+01 0.00000E+00
 -1      1457 1.26150E+02 4.74020E+01 0.00000E+00
 -1      1458 1.29900E+02 4.87010E+01 0.00000E+00
 -1      1459 1.31400E+02 4.87010E+01 0.00000E+00
 -1      1460 1.29150E+02 4.74020E+01 0.00000E+00
 -1      1461 1.32900E+02 4.87010E+01 0.00000E+00
 -1      1462 1.34400E+02 4.87010E+01 0.00000E+00
 -1      1463 1.32150E+02 4.74020E+01 0.00000E+00
 -1      1464 1.35900E+02 4.87010E+01 0.00000E+00
 -1      1465 1.37400E+02 4.87010E+01 0.00000E+00
 -1      1466 1.35150E+02 4.74020E+01 0.00000E+00
 -1      1467 1.38900E+02 4.87010E+01 0.00000E+00
 -1      1468 1.40400E+02 4.87010E+01 0.00000E+00
 -1      1469 1.38150E+02 4.74020E+01 0.00000E+00
 -1      1470 1.41900E+02 4.87010E+01 0.00000E+00
 -1      1471 1.43400E+02 4.87010E+01 0.00000E+00
 -1      1472 1.41150E+02 4.74020E+01 0.00000E+00
 -1      1473 1.44900E+02 4.87010E+01 0.00000E+00
 -1      1474 1.46400E+02 4.87010E+01 0.00000E+00
 -1      1475 1.44150E+02 4.74020E+01 0.00000E+00
 -1      1476 1.48575E+02 4.85500E+01 0.00000E+00
 -1      1477 1.47825E+02 4.72510E+01 0.00000E+00
 -1      1478 6.01200E+00 1.09375E+00 0.00000E+00
 -1      1479 4.51200E+00 1.09375E+00 0.00000E+00
 -1      1480 4.37400E+00 2.18750E+00 0.00000E+00
 -1      1481 9.01200E+00 1.09375E+00 0.00000E+00
 -1      1482 7.51200E+00 1.09375E+00 0.00000E+00
 -1      1483 7.37400E+00 2.18750E+00 0.00000E+00
 -1      1484 1.20120E+01 1.09375E+00 0.00000E+00
 -1      1485 1.05120E+01 1.09375E+00 0.00000E+00
 -1      1486 1.03740E+01 2.18750E+00 0.00000E+00
 -1      1487 1.50120E+01 1.09375E+00 0.00000E+00
 -1      1488 1.35120E+01 1.09375E+00 0.00000E+00
 -1      1489 1.33740E+01 2.18750E+00 0.00000E+00
 -1      1490 1.80120E+01 1.09375E+00 0.00000E+00
 -1      1491 1.65120E+01 1.09375E+00 0.00000E+00
 -1      1492 1.63740E+01 2.18750E+00 0.00000E+00
 -1      1493 2.10120E+01 1.09375E+00 0.00000E+00
 -1      1494 1.95120E+01 1.09375E+00 0.00000E+00
 -1      1495 1.93740E+01 2.18750E+00 0.00000E+00
 -1      1496 2.40120E+01 1.09375E+00 0.00000E+00
 -1      1497 2.25120E+01 1.09375E+00 0.00000E+00
 -1      1498 2.23740E+01 2.18750E+00 0.00000E+00
 -1      1499 2.70120E+01 1.09375E+00 0.00000E+00
 -1      1500 2.55120E+01 1.09375E+00 0.00000E+00
 -1      1501 2.53740E+01 2.18750E+00 0.00000E+00
 -1      1502 3.00120E+01 1.09375E+00 0.00000E+00
 -1      1503 2.85120E+01 1.09375E+00 0.00000E+00
 -1      1504 2.83740E+01 2.18750E+00 0.00000E+00
 -1      1505 3.30120E+01 1.09375E+00 0.00000E+00
 -1      1506 3.15120E+01 1.09375E+00 0.00000E+00
 -1      1507 3.13740E+01 2.18750E+00 0.00000E+00
 -1      1508 3.60120E+01 1.09375E+00 0.00000E+00
 -1      1509 3.45120E+01 1.09375E+00 0.00000E+00
 -1      1510 3.43740E+01 2.18750E+00 0.00000E+00
 -1      1511 3.90120E+01 1.09375E+00 0.00000E+00
 -1      1512 3.75120E+01 1.09375E+00 0.00000E+00
 -1      1513 3.73740E+01 2.18750E+00 0.00000E+00
 -1      1514 4.20120E+01 1.09375E+00 0.00000E+00
 -1      1515 4.05120E+01 1.09375E+00 0.00000E+00
 -1      1516 4.03740E+01 2.18750E+00 0.00000E+00
 -1      1517 4.50120E+01 1.09375E+00 0.00000E+00
 -1      1518 4.35120E+01 1.09375E+00 0.00000E+00
 -1      1519 4.33740E+01 2.18750E+00 0.00000E+00
 -1      1520 4.80120E+01 1.09375E+00 0.00000E+00
 -1      1521 4.65120E+01 1.09375E+00 0.00000E+00
 -1      1522 4.63740E+01 2.18750E+00 0.00000E+00
 -1      1523 5.10120E+01 1.09375E+00 0.00000E+00
 -1      1524 4.95120E+01 1.09375E+00 0.00000E+00
 -1      1525 4.93740E+01 2.18750E+00 0.00000E+00
 -1      1526 5.40120E+01 1.09375E+00 0.00000E+00
 -1      1527 5.25120E+01 1.09375E+00 0.00000E+00
 -1      1528 5.23740E+01 2.18750E+00 0.00000E+00
 -1      1529 5.70120E+01 1.09375E+00 0.00000E+00
 -1      1530 5.55120E+01 1.09375E+00 0.00000E+00
 -1      1531 5.53740E+01 2.18750E+00 0.00000E+00
 -1      1532 6.00120E+01 1.09375E+00 0.00000E+00
 -1      1533 5.85120E+01 1.09375E+00 0.00000E+00
 -1      1534 5.83740E+01 2.18750E+00 0.00000E+00
 -1      1535 6.30120E+01 1.09375E+00 0.00000E+00
 -1      1536 6.15120E+01 1.09375E+00 0.00000E+00
 -1      1537 6.13740E+01 2.18750E+00 0.00000E+00
 -1      1538 6.60120E+01 1.09375E+00 0.00000E+00
 -1      1539 6.45120E+01 1.09375E+00 0.00000E+00
 -1      1540 6.43740E+01 2.18750E+00 0.00000E+00
 -1      1541 6.90120E+01 1.09375E+00 0.00000E+00
 -1      1542 6.75120E+01 1.09375E+00 0.00000E+00
 -1      1543 6.73740E+01 2.18750E+00 0.00000E+00
 -1      1544 7.20120E+01 1.09375E+00 0.00000E+00
 -1      1545 7.05120E+01 1.09375E+00 0.00000E+00
 -1      1546 7.03740E+01 2.18750E+00 0.00000E+00
 -1      1547 7.50120E+01 1.09375E+00 0.00000E+00
 -1      1548 7.35120E+01 1.09375E+00 0.00000E+00
 -1      1549 7.33740E+01 2.18750E+00 0.00000E+00
 -1      1550 7.80120E+01 1.09375E+00 0.00000E+00
 -1      1551 7.65120E+01 1.09375E+00 0.00000E+00
 -1      1552 7.63740E+01 2.18750E+00 0.00000E+00
 -1      1553 8.10120E+01 1.09375E+00 0.00000E+00
 -1      1554 7.95120E+01 1.09375E+00 0.00000E+00
 -1      1555 7.93740E+01 2.18750E+00 0.00000E+00
 -1      1556 8.40120E+01 1.09375E+00 0.00000E+00
 -1      1557 8.25120E+01 1.09375E+00 0.00000E+00
 -1      1558 8.23740E+01 2.18750E+00 0.00000E+00
 -1      1559 8.70120E+01 1.09375E+00 0.00000E+00
 -1      1560 8.55120E+01 1.09375E+00 0.00000E+00
 -1      1561 8.53740E+01 2.18750E+00 0.00000E+00
 -1      1562 9.00120E+01 1.09375E+00 0.00000E+00
 -1      1563 8.85120E+01 1.09375E+00 0.00000E+00
 -1      1564 8.83740E+01 2.18750E+00 0.00000E+00
 -1      1565 9.30120E+01 1.09375E+00 0.00000E+00
 -1      1566 9.15120E+01 1.09375E+00 0.00000E+00
 -1      1567 9.13740E+01 2.18750E+00 0.00000E+00
 -1      1568 9.60120E+01 1.09375E+00 0.00000E+00
 -1      1569 9.45120E+01 1.09375E+00 0.00000E+00
 -1      1570 9.43740E+01 2.18750E+00 0.00000E+00
 -1      1571 9.90120E+01 1.09375E+00 0.00000E+00
 -1      1572 9.75120E+01 1.09375E+00 0.00000E+00
 -1      1573 9.73740E+01 2.18750E+00 0.00000E+00
 -1      1574 1.02012E+02 1.09375E+00 0.00000E+00
 -1      1575 1.00512E+02 1.09375E+00 0.00000E+00
 -1      1576 1.00374E+02 2.18750E+00 0.00000E+00
 -1      1577 1.05012E+02 1.09375E+00 0.00000E+00
 -1      1578 1.03512E+02 1.09375E+00 0.00000E+00
 -1      1579 1.03374E+02 2.18750E+00 0.00000E+00
 -1      1580 1.08012E+02 1.09375E+00 0.00000E+00
 -1      1581 1.06512E+02 1.09375E+00 0.00000E+00
 -1      1582 1.06374E+02 2.18750E+00 0.00000E+00
 -1      1583 1.11012E+02 1.09375E+00 0.00000E+00
 -1      1584 1.09512E+02 1.09375E+00 0.00000E+00
 -1      1585 1.09374E+02 2.18750E+00 0.00000E+00
 -1      1586 1.14012E+02 1.09375E+00 0.00000E+00
 -1      1587 1.12512E+02 1.09375E+00 0.00000E+00
 -1      1588 1.12374E+02 2.18750E+00 0.00000E+00
 -1      1589 1.17012E+02 1.09375E+00 0.00000E+00
 -1      1590 1.15512E+02 1.09375E+00 0.00000E+00
 -1      1591 1.15374E+02 2.18750E+00 0.00000E+00
 -1      1592 1.20012E+02 1.09375E+00 0.00000E+00
 -1      1593 1.18512E+02 1.09375E+00 0.00000E+00
 -1      1594 1.18374E+02 2.18750E+00 0.00000E+00
 -1      1595 1.23012E+02 1.09375E+00 0.00000E+00
 -1      1596 1.21512E+02 1.09375E+00 0.00000E+00
 -1      1597 1.21374E+02 2.18750E+00 0.00000E+00
 -1      1598 1.26012E+02 1.09375E+00 0.00000E+00
 -1      1599 1.24512E+02 1.09375E+00 0.00000E+00
 -1      1600 1.24374E+02 2.18750E+00 0.00000E+00
 -1      1601 1.29012E+02 1.09375E+00 0.00000E+00
 -1      1602 1.27512E+02 1.09375E+00 0.00000E+00
 -1      1603 1.27374E+02 2.18750E+00 0.00000E+00
 -1      1604 1.32012E+02 1.09375E+00 0.00000E+00
 -1      1605 1.30512E+02 1.09375E+00 0.00000E+00
 -1      1606 1.30374E+02 2.18750E+00 0.00000E+00
 -1      1607 1.35012E+02 1.09375E+00 0.00000E+00
 -1      1608 1.33512E+02 1.09375E+00 0.00000E+00
 -1      1609 1.33374E+02 2.18750E+00 0.00000E+00
 -1      1610 1.38012E+02 1.09375E+00 0.00000E+00
 -1      1611 1.36512E+02 1.09375E+00 0.00000E+00
 -1      1612 1.36374E+02 2.18750E+00 0.00000E+00
 -1      1613 1.41012E+02 1.09375E+00 0.00000E+00
 -1      1614 1.39512E+02 1.09375E+00 0.00000E+00
 -1      1615 1.39374E+02 2.18750E+00 0.00000E+00
 -1      1616 1.44012E+02 1.09375E+00 0.00000E+00
 -1      1617 1.42512E+02 1.09375E+00 0.00000E+00
 -1      1618 1.42374E+02 2.18750E+00 0.00000E+00
 -1      1619 1.47012E+02 1.09375E+00 0.00000E+00
 -1      1620 1.45512E+02 1.09375E+00 0.00000E+00
 -1      1621 1.45374E+02 2.18750E+00 0.00000E+00
 -1      1622 1.48575E+02 1.47500E+00 0.00000E+00
 -1      1623 1.48701E+02 5.16250E+00 0.00000E+00
 -1      1624 1.48701E+02 3.68750E+00 0.00000E+00
 -1      1625 1.48701E+02 8.11250E+00 0.00000E+00
 -1      1626 1.48701E+02 6.63750E+00 0.00000E+00
 -1      1627 1.47402E+02 5.90000E+00 0.00000E+00
 -1      1628 1.48701E+02 1.10625E+01 0.00000E+00
 -1      1629 1.48701E+02 9.58750E+00 0.00000E+00
 -1      1630 1.47402E+02 8.85000E+00 0.00000E+00
 -1      1631 1.48701E+02 1.40125E+01 0.00000E+00
 -1      1632 1.48701E+02 1.25375E+01 0.00000E+00
 -1      1633 1.47402E+02 1.18000E+01 0.00000E+00
 -1      1634 1.48701E+02 1.69125E+01 0.00000E+00
 -1      1635 1.48701E+02 1.54625E+01 0.00000E+00
 -1      1636 1.47402E+02 1.47250E+01 0.00000E+00
 -1      1637 1.48701E+02 1.98625E+01 0.00000E+00
 -1      1638 1.48701E+02 1.83875E+01 0.00000E+00
 -1      1639 1.47402E+02 1.76500E+01 0.00000E+00
 -1      1640 1.48701E+02 2.28125E+01 0.00000E+00
 -1      1641 1.48701E+02 2.13375E+01 0.00000E+00
 -1      1642 1.47402E+02 2.06000E+01 0.00000E+00
 -1      1643 1.48701E+02 2.57625E+01 0.00000E+00
 -1      1644 1.48701E+02 2.42875E+01 0.00000E+00
 -1      1645 1.47402E+02 2.35500E+01 0.00000E+00
 -1      1646 1.48701E+02 2.87125E+01 0.00000E+00
 -1      1647 1.48701E+02 2.72375E+01 0.00000E+00
 -1      1648 1.47402E+02 2.65000E+01 0.00000E+00
 -1      1649 1.48701E+02 3.16625E+01 0.00000E+00
 -1      1650 1.48701E+02 3.01875E+01 0.00000E+00
 -1      1651 1.47402E+02 2.94500E+01 0.00000E+00
 -1      1652 1.48701E+02 3.45625E+01 0.00000E+00
 -1      1653 1.48701E+02 3.31125E+01 0.00000E+00
 -1      1654 1.47402E+02 3.23750E+01 0.00000E+00
 -1      1655 1.48701E+02 3.75125E+01 0.00000E+00
 -1      1656 1.48701E+02 3.60375E+01 0.00000E+00
 -1      1657 1.47402E+02 3.53000E+01 0.00000E+00
 -1      1658 1.48701E+02 4.04625E+01 0.00000E+00
 -1      1659 1.48701E+02 3.89875E+01 0.00000E+00
 -1      1660 1.47402E+02 3.82500E+01 0.00000E+00
 -1      1661 1.48701E+02 4.34125E+01 0.00000E+00
 -1      1662 1.48701E+02 4.19375E+01 0.00000E+00
 -1      1663 1.47402E+02 4.12000E+01 0.00000E+00
 -1      1664 1.48263E+02 4.60692E+01 0.00000E+00
 -1      1665 1.48263E+02 4.45942E+01 0.00000E+00
 -1      1666 1.46964E+02 4.38568E+01 0.00000E+00
 -1      1667 1.46088E+02 4.62202E+01 0.00000E+00
 -1      1668 9.94765E+01 2.04635E+01 0.00000E+00
 -1      1669 9.95588E+01 2.12183E+01 0.00000E+00
 -1      1670 9.90224E+01 1.89319E+01 0.00000E+00
 -1      1671 9.92516E+01 1.96206E+01 0.00000E+00
 -1      1672 9.83503E+01 1.73131E+01 0.00000E+00
 -1      1673 9.87799E+01 1.80234E+01 0.00000E+00
 -1      1674 9.71194E+01 1.61240E+01 0.00000E+00
 -1      1675 9.76453E+01 1.66654E+01 0.00000E+00
 -1      1676 9.57864E+01 1.51330E+01 0.00000E+00
 -1      1677 9.64318E+01 1.55570E+01 0.00000E+00
 -1      1678 9.42686E+01 1.43680E+01 0.00000E+00
 -1      1679 9.50047E+01 1.46436E+01 0.00000E+00
 -1      1680 9.25295E+01 1.39514E+01 0.00000E+00
 -1      1681 9.33479E+01 1.40564E+01 0.00000E+00
 -1      1682 9.08640E+01 1.41689E+01 0.00000E+00
 -1      1683 9.15972E+01 1.40983E+01 0.00000E+00
 -1      1684 8.92074E+01 1.45215E+01 0.00000E+00
 -1      1685 8.99635E+01 1.42749E+01 0.00000E+00
 -1      1686 8.77537E+01 1.53123E+01 0.00000E+00
 -1      1687 8.83930E+01 1.49330E+01 0.00000E+00
 -1      1688 8.64532E+01 1.63408E+01 0.00000E+00
 -1      1689 8.70134E+01 1.58171E+01 0.00000E+00
 -1      1690 8.55049E+01 1.76955E+01 0.00000E+00
 -1      1691 8.59312E+01 1.70743E+01 0.00000E+00
 -1      1692 8.47669E+01 1.91486E+01 0.00000E+00
 -1      1693 8.50497E+01 1.84529E+01 0.00000E+00
 -1      1694 8.44390E+01 2.07136E+01 0.00000E+00
 -1      1695 8.45655E+01 1.99948E+01 0.00000E+00
 -1      1696 8.42970E+01 2.24205E+01 0.00000E+00
 -1      1697 8.42601E+01 2.16145E+01 0.00000E+00
 -1      1698 8.47227E+01 2.40528E+01 0.00000E+00
 -1      1699 8.45221E+01 2.33259E+01 0.00000E+00
 -1      1700 8.53713E+01 2.56506E+01 0.00000E+00
 -1      1701 8.49922E+01 2.49432E+01 0.00000E+00
 -1      1702 8.64621E+01 2.71111E+01 0.00000E+00
 -1      1703 8.59058E+01 2.64855E+01 0.00000E+00
 -1      1704 8.79562E+01 2.82832E+01 0.00000E+00
 -1      1705 8.72399E+01 2.77933E+01 0.00000E+00
 -1      1706 8.96021E+01 2.88652E+01 0.00000E+00
 -1      1707 8.88900E+01 2.85920E+01 0.00000E+00
 -1      1708 9.12354E+01 2.92466E+01 0.00000E+00
 -1      1709 9.04659E+01 2.91336E+01 0.00000E+00
 -1      1710 9.29788E+01 2.92936E+01 0.00000E+00
 -1      1711 9.21753E+01 2.93588E+01 0.00000E+00
 -1      1712 9.45922E+01 2.88121E+01 0.00000E+00
 -1      1713 9.38743E+01 2.90373E+01 0.00000E+00
 -1      1714 9.60039E+01 2.80712E+01 0.00000E+00
 -1      1715 9.53720E+01 2.84294E+01 0.00000E+00
 -1      1716 9.72952E+01 2.70980E+01 0.00000E+00
 -1      1717 9.67330E+01 2.75985E+01 0.00000E+00
 -1      1718 9.82528E+01 2.59648E+01 0.00000E+00
 -1      1719 9.78606E+01 2.64894E+01 0.00000E+00
 -1      1720 9.88304E+01 2.47815E+01 0.00000E+00
 -1      1721 9.85416E+01 2.53731E+01 0.00000E+00
 -1      1722 9.88646E+01 2.60235E+01 0.00000E+00
 -1      1723 9.93443E+01 2.33777E+01 0.00000E+00
 -1      1724 9.91759E+01 2.39875E+01 0.00000E+00
 -1      1725 9.94559E+01 2.21323E+01 0.00000E+00
 -1      1726 9.94001E+01 2.27550E+01 0.00000E+00
 -1      1727 9.99003E+01 2.32212E+01 0.00000E+00
 -1      1728 9.71296E+01 1.54053E+01 0.00000E+00
 -1      1729 9.85222E+01 1.66200E+01 0.00000E+00
 -1      1730 1.48437E+02 2.56875E+00 0.00000E+00
 -1      1731 1.47138E+02 3.30625E+00 0.00000E+00
 -1      1732 9.99371E+01 1.99277E+01 0.00000E+00
 -1      1733 9.94697E+01 1.81763E+01 0.00000E+00
 -1      1734 1.00059E+02 2.16846E+01 0.00000E+00
 -1      1735 9.56603E+01 1.43490E+01 0.00000E+00
 -1      1736 9.39579E+01 1.35480E+01 0.00000E+00
 -1      1737 9.21048E+01 1.33833E+01 0.00000E+00
 -1      1738 9.02720E+01 1.36362E+01 0.00000E+00
 -1      1739 8.85570E+01 1.41537E+01 0.00000E+00
 -1      1740 8.70024E+01 1.50701E+01 0.00000E+00
 -1      1741 8.57402E+01 1.63084E+01 0.00000E+00
 -1      1742 8.47631E+01 1.77992E+01 0.00000E+00
 -1      1743 8.41066E+01 1.94029E+01 0.00000E+00
 -1      1744 8.37264E+01 2.11500E+01 0.00000E+00
 -1      1745 8.37726E+01 2.29563E+01 0.00000E+00
 -1      1746 8.42672E+01 2.47522E+01 0.00000E+00
 -1      1747 8.50712E+01 2.64775E+01 0.00000E+00
 -1      1748 8.63835E+01 2.79947E+01 0.00000E+00
 -1      1749 8.80951E+01 2.89858E+01 0.00000E+00
 -1      1750 8.98927E+01 2.95630E+01 0.00000E+00
 -1      1751 9.16963E+01 2.99435E+01 0.00000E+00
 -1      1752 9.35317E+01 2.97994E+01 0.00000E+00
 -1      1753 9.52071E+01 2.91604E+01 0.00000E+00
 -1      1754 9.67160E+01 2.83050E+01 0.00000E+00
 -1      1755 9.80104E+01 2.72237E+01 0.00000E+00
 -1      1756 2.87400E+00 4.77875E+01 0.00000E+00
 -1      1757 9.94989E+01 2.46379E+01 0.00000E+00
 -1      1758 3.89700E+00 4.04125E+01 0.00000E+00
 -1      1759 3.89700E+00 4.18875E+01 0.00000E+00
 -1      1760 3.89700E+00 4.33625E+01 0.00000E+00
 -1      1761 3.89700E+00 4.48375E+01 0.00000E+00
 -1      1762 5.19600E+00 4.26250E+01 0.00000E+00
 -1      1763 3.89700E+00 3.45500E+01 0.00000E+00
 -1      1764 3.89700E+00 3.60000E+01 0.00000E+00
 -1      1765 3.89700E+00 3.16000E+01 0.00000E+00
 -1      1766 3.89700E+00 3.30750E+01 0.00000E+00
 -1      1767 5.19600E+00 3.38000E+01 0.00000E+00
 -1      1768 3.89700E+00 2.86500E+01 0.00000E+00
 -1      1769 3.89700E+00 3.01250E+01 0.00000E+00
 -1      1770 5.19600E+00 3.08500E+01 0.00000E+00
 -1      1771 3.89700E+00 2.57000E+01 0.00000E+00
 -1      1772 3.89700E+00 2.71750E+01 0.00000E+00
 -1      1773 5.19600E+00 2.79000E+01 0.00000E+00
 -1      1774 3.89700E+00 2.27500E+01 0.00000E+00
 -1      1775 3.89700E+00 2.42250E+01 0.00000E+00
 -1      1776 5.19600E+00 2.49500E+01 0.00000E+00
 -1      1777 3.89700E+00 1.98000E+01 0.00000E+00
 -1      1778 3.89700E+00 2.12750E+01 0.00000E+00
 -1      1779 5.19600E+00 2.20000E+01 0.00000E+00
 -1      1780 3.89700E+00 1.69000E+01 0.00000E+00
 -1      1781 3.89700E+00 1.83500E+01 0.00000E+00
 -1      1782 5.19600E+00 1.90750E+01 0.00000E+00
 -1      1783 3.89700E+00 1.39500E+01 0.00000E+00
 -1      1784 3.89700E+00 1.54250E+01 0.00000E+00
 -1      1785 5.19600E+00 1.61500E+01 0.00000E+00
 -1      1786 3.89700E+00 1.10000E+01 0.00000E+00
 -1      1787 3.89700E+00 1.24750E+01 0.00000E+00
 -1      1788 5.19600E+00 1.32000E+01 0.00000E+00
 -1      1789 3.89700E+00 8.05000E+00 0.00000E+00
 -1      1790 3.89700E+00 9.52500E+00 0.00000E+00
 -1      1791 5.19600E+00 1.02500E+01 0.00000E+00
 -1      1792 3.89700E+00 5.10000E+00 0.00000E+00
 -1      1793 3.89700E+00 6.57500E+00 0.00000E+00
 -1      1794 5.19600E+00 7.30000E+00 0.00000E+00
 -1      1795 4.20450E+00 3.09687E+00 0.00000E+00
 -1      1796 4.06650E+00 4.19063E+00 0.00000E+00
 -1      1797 5.36550E+00 4.91563E+00 0.00000E+00
 -1      1798 5.70450E+00 3.09687E+00 0.00000E+00
 -1      1799 3.62400E+00 4.64885E+01 0.00000E+00
 -1      1800 8.70450E+00 3.09687E+00 0.00000E+00
 -1      1801 7.20450E+00 3.09687E+00 0.00000E+00
 -1      1802 7.03500E+00 4.00625E+00 0.00000E+00
 -1      1803 1.00304E+02 2.45162E+01 0.00000E+00
 -1      1804 9.99588E+01 2.53102E+01 0.00000E+00
 -1      1805 4.92300E+00 4.57510E+01 0.00000E+00
 -1      1806 8.40000E+00 4.61030E+01 0.00000E+00
 -1      1807 9.90000E+00 4.61030E+01 0.00000E+00
 -1      1808 1.14000E+01 4.61030E+01 0.00000E+00
 -1      1809 1.29000E+01 4.61030E+01 0.00000E+00
 -1      1810 1.06500E+01 4.48040E+01 0.00000E+00
 -1      1811 1.44000E+01 4.61030E+01 0.00000E+00
 -1      1812 1.59000E+01 4.61030E+01 0.00000E+00
 -1      1813 1.36500E+01 4.48040E+01 0.00000E+00
 -1      1814 1.74000E+01 4.61030E+01 0.00000E+00
 -1      1815 1.89000E+01 4.61030E+01 0.00000E+00
 -1      1816 1.66500E+01 4.48040E+01 0.00000E+00
 -1      1817 2.04000E+01 4.61030E+01 0.00000E+00
 -1      1818 2.19000E+01 4.61030E+01 0.00000E+00
 -1      1819 1.96500E+01 4.48040E+01 0.00000E+00
 -1      1820 2.34000E+01 4.61030E+01 0.00000E+00
 -1      1821 2.49000E+01 4.61030E+01 0.00000E+00
 -1      1822 2.26500E+01 4.48040E+01 0.00000E+00
 -1      1823 2.64000E+01 4.61030E+01 0.00000E+00
 -1      1824 2.79000E+01 4.61030E+01 0.00000E+00
 -1      1825 2.56500E+01 4.48040E+01 0.00000E+00
 -1      1826 2.94000E+01 4.61030E+01 0.00000E+00
 -1      1827 3.09000E+01 4.61030E+01 0.00000E+00
 -1      1828 2.86500E+01 4.48040E+01 0.00000E+00
 -1      1829 3.24000E+01 4.61030E+01 0.00000E+00
 -1      1830 3.39000E+01 4.61030E+01 0.00000E+00
 -1      1831 3.16500E+01 4.48040E+01 0.00000E+00
 -1      1832 3.54000E+01 4.61030E+01 0.00000E+00
 -1      1833 3.69000E+01 4.61030E+01 0.00000E+00
 -1      1834 3.46500E+01 4.48040E+01 0.00000E+00
 -1      1835 3.84000E+01 4.61030E+01 0.00000E+00
 -1      1836 3.99000E+01 4.61030E+01 0.00000E+00
 -1      1837 3.76500E+01 4.48040E+01 0.00000E+00
 -1      1838 4.14000E+01 4.61030E+01 0.00000E+00
 -1      1839 4.29000E+01 4.61030E+01 0.00000E+00
 -1      1840 4.06500E+01 4.48040E+01 0.00000E+00
 -1      1841 4.44000E+01 4.61030E+01 0.00000E+00
 -1      1842 4.59000E+01 4.61030E+01 0.00000E+00
 -1      1843 4.36500E+01 4.48040E+01 0.00000E+00
 -1      1844 4.74000E+01 4.61030E+01 0.00000E+00
 -1      1845 4.89000E+01 4.61030E+01 0.00000E+00
 -1      1846 4.66500E+01 4.48040E+01 0.00000E+00
 -1      1847 5.04000E+01 4.61030E+01 0.00000E+00
 -1      1848 5.19000E+01 4.61030E+01 0.00000E+00
 -1      1849 4.96500E+01 4.48040E+01 0.00000E+00
 -1      1850 5.34000E+01 4.61030E+01 0.00000E+00
 -1      1851 5.49000E+01 4.61030E+01 0.00000E+00
 -1      1852 5.26500E+01 4.48040E+01 0.00000E+00
 -1      1853 5.64000E+01 4.61030E+01 0.00000E+00
 -1      1854 5.79000E+01 4.61030E+01 0.00000E+00
 -1      1855 5.56500E+01 4.48040E+01 0.00000E+00
 -1      1856 5.94000E+01 4.61030E+01 0.00000E+00
 -1      1857 6.09000E+01 4.61030E+01 0.00000E+00
 -1      1858 5.86500E+01 4.48040E+01 0.00000E+00
 -1      1859 6.24000E+01 4.61030E+01 0.00000E+00
 -1      1860 6.39000E+01 4.61030E+01 0.00000E+00
 -1      1861 6.16500E+01 4.48040E+01 0.00000E+00
 -1      1862 6.54000E+01 4.61030E+01 0.00000E+00
 -1      1863 6.69000E+01 4.61030E+01 0.00000E+00
 -1      1864 6.46500E+01 4.48040E+01 0.00000E+00
 -1      1865 6.84000E+01 4.61030E+01 0.00000E+00
 -1      1866 6.99000E+01 4.61030E+01 0.00000E+00
 -1      1867 6.76500E+01 4.48040E+01 0.00000E+00
 -1      1868 7.14000E+01 4.61030E+01 0.00000E+00
 -1      1869 7.29000E+01 4.61030E+01 0.00000E+00
 -1      1870 7.06500E+01 4.48040E+01 0.00000E+00
 -1      1871 7.44000E+01 4.61030E+01 0.00000E+00
 -1      1872 7.59000E+01 4.61030E+01 0.00000E+00
 -1      1873 7.36500E+01 4.48040E+01 0.00000E+00
 -1      1874 7.74000E+01 4.61030E+01 0.00000E+00
 -1      1875 7.89000E+01 4.61030E+01 0.00000E+00
 -1      1876 7.66500E+01 4.48040E+01 0.00000E+00
 -1      1877 8.04000E+01 4.61030E+01 0.00000E+00
 -1      1878 8.19000E+01 4.61030E+01 0.00000E+00
 -1      1879 7.96500E+01 4.48040E+01 0.00000E+00
 -1      1880 8.34000E+01 4.61030E+01 0.00000E+00
 -1      1881 8.49000E+01 4.61030E+01 0.00000E+00
 -1      1882 8.26500E+01 4.48040E+01 0.00000E+00
 -1      1883 8.64000E+01 4.61030E+01 0.00000E+00
 -1      1884 8.79000E+01 4.61030E+01 0.00000E+00
 -1      1885 8.56500E+01 4.48040E+01 0.00000E+00
 -1      1886 8.94000E+01 4.61030E+01 0.00000E+00
 -1      1887 9.09000E+01 4.61030E+01 0.00000E+00
 -1      1888 8.86500E+01 4.48040E+01 0.00000E+00
 -1      1889 9.24000E+01 4.61030E+01 0.00000E+00
 -1      1890 9.39000E+01 4.61030E+01 0.00000E+00
 -1      1891 9.16500E+01 4.48040E+01 0.00000E+00
 -1      1892 9.54000E+01 4.61030E+01 0.00000E+00
 -1      1893 9.69000E+01 4.61030E+01 0.00000E+00
 -1      1894 9.46500E+01 4.48040E+01 0.00000E+00
 -1      1895 9.84000E+01 4.61030E+01 0.00000E+00
 -1      1896 9.99000E+01 4.61030E+01 0.00000E+00
 -1      1897 9.76500E+01 4.48040E+01 0.00000E+00
 -1      1898 1.01400E+02 4.61030E+01 0.00000E+00
 -1      1899 1.02900E+02 4.61030E+01 0.00000E+00
 -1      1900 1.00650E+02 4.48040E+01 0.00000E+00
 -1      1901 1.04400E+02 4.61030E+01 0.00000E+00
 -1      1902 1.05900E+02 4.61030E+01 0.00000E+00
 -1      1903 1.03650E+02 4.48040E+01 0.00000E+00
 -1      1904 1.07400E+02 4.61030E+01 0.00000E+00
 -1      1905 1.08900E+02 4.61030E+01 0.00000E+00
 -1      1906 1.06650E+02 4.48040E+01 0.00000E+00
 -1      1907 1.10400E+02 4.61030E+01 0.00000E+00
 -1      1908 1.11900E+02 4.61030E+01 0.00000E+00
 -1      1909 1.09650E+02 4.48040E+01 0.00000E+00
 -1      1910 1.13400E+02 4.61030E+01 0.00000E+00
 -1      1911 1.14900E+02 4.61030E+01 0.00000E+00
 -1      1912 1.12650E+02 4.48040E+01 0.00000E+00
 -1      1913 1.16400E+02 4.61030E+01 0.00000E+00
 -1      1914 1.17900E+02 4.61030E+01 0.00000E+00
 -1      1915 1.15650E+02 4.48040E+01 0.00000E+00
 -1      1916 1.19400E+02 4.61030E+01 0.00000E+00
 -1      1917 1.20900E+02 4.61030E+01 0.00000E+00
 -1      1918 1.18650E+02 4.48040E+01 0.00000E+00
 -1      1919 1.22400E+02 4.61030E+01 0.00000E+00
 -1      1920 1.23900E+02 4.61030E+01 0.00000E+00
 -1      1921 1.21650E+02 4.48040E+01 0.00000E+00
 -1      1922 1.25400E+02 4.61030E+01 0.00000E+00
 -1      1923 1.26900E+02 4.61030E+01 0.00000E+00
 -1      1924 1.24650E+02 4.48040E+01 0.00000E+00
 -1      1925 1.28400E+02 4.61030E+01 0.00000E+00
 -1      1926 1.29900E+02 4.61030E+01 0.00000E+00
 -1      1927 1.27650E+02 4.48040E+01 0.00000E+00
 -1      1928 1.31400E+02 4.61030E+01 0.00000E+00
 -1      1929 1.32900E+02 4.61030E+01 0.00000E+00
 -1      1930 1.30650E+02 4.48040E+01 0.00000E+00
 -1      1931 1.34400E+02 4.61030E+01 0.00000E+00
 -1      1932 1.35900E+02 4.61030E+01 0.00000E+00
 -1      1933 1.33650E+02 4.48040E+01 0.00000E+00
 -1      1934 1.37400E+02 4.61030E+01 0.00000E+00
 -1      1935 1.38900E+02 4.61030E+01 0.00000E+00
 -1      1936 1.36650E+02 4.48040E+01 0.00000E+00
 -1      1937 1.40400E+02 4.61030E+01 0.00000E+00
 -1      1938 1.41900E+02 4.61030E+01 0.00000E+00
 -1      1939 1.39650E+02 4.48040E+01 0.00000E+00
 -1      1940 1.43244E+02 4.61616E+01 0.00000E+00
 -1      1941 1.44744E+02 4.61616E+01 0.00000E+00
 -1      1942 1.45182E+02 4.49799E+01 0.00000E+00
 -1      1943 1.42494E+02 4.48626E+01 0.00000E+00
 -1      1944 1.17045E+01 3.09687E+00 0.00000E+00
 -1      1945 1.02045E+01 3.09687E+00 0.00000E+00
 -1      1946 1.00350E+01 4.00625E+00 0.00000E+00
 -1      1947 1.47045E+01 3.09687E+00 0.00000E+00
 -1      1948 1.32045E+01 3.09687E+00 0.00000E+00
 -1      1949 1.30350E+01 4.00625E+00 0.00000E+00
 -1      1950 1.77045E+01 3.09687E+00 0.00000E+00
 -1      1951 1.62045E+01 3.09687E+00 0.00000E+00
 -1      1952 1.60350E+01 4.00625E+00 0.00000E+00
 -1      1953 2.07045E+01 3.09687E+00 0.00000E+00
 -1      1954 1.92045E+01 3.09687E+00 0.00000E+00
 -1      1955 1.90350E+01 4.00625E+00 0.00000E+00
 -1      1956 2.37045E+01 3.09687E+00 0.00000E+00
 -1      1957 2.22045E+01 3.09687E+00 0.00000E+00
 -1      1958 2.20350E+01 4.00625E+00 0.00000E+00
 -1      1959 2.67045E+01 3.09687E+00 0.00000E+00
 -1      1960 2.52045E+01 3.09687E+00 0.00000E+00
 -1      1961 2.50350E+01 4.00625E+00 0.00000E+00
 -1      1962 2.97045E+01 3.09687E+00 0.00000E+00
 -1      1963 2.82045E+01 3.09687E+00 0.00000E+00
 -1      1964 2.80350E+01 4.00625E+00 0.00000E+00
 -1      1965 3.27045E+01 3.09687E+00 0.00000E+00
 -1      1966 3.12045E+01 3.09687E+00 0.00000E+00
 -1      1967 3.10350E+01 4.00625E+00 0.00000E+00
 -1      1968 3.57045E+01 3.09687E+00 0.00000E+00
 -1      1969 3.42045E+01 3.09687E+00 0.00000E+00
 -1      1970 3.40350E+01 4.00625E+00 0.00000E+00
 -1      1971 3.87045E+01 3.09687E+00 0.00000E+00
 -1      1972 3.72045E+01 3.09687E+00 0.00000E+00
 -1      1973 3.70350E+01 4.00625E+00 0.00000E+00
 -1      1974 4.17045E+01 3.09687E+00 0.00000E+00
 -1      1975 4.02045E+01 3.09687E+00 0.00000E+00
 -1      1976 4.00350E+01 4.00625E+00 0.00000E+00
 -1      1977 4.47045E+01 3.09687E+00 0.00000E+00
 -1      1978 4.32045E+01 3.09687E+00 0.00000E+00
 -1      1979 4.30350E+01 4.00625E+00 0.00000E+00
 -1      1980 4.77045E+01 3.09687E+00 0.00000E+00
 -1      1981 4.62045E+01 3.09687E+00 0.00000E+00
 -1      1982 4.60350E+01 4.00625E+00 0.00000E+00
 -1      1983 5.07045E+01 3.09687E+00 0.00000E+00
 -1      1984 4.92045E+01 3.09687E+00 0.00000E+00
 -1      1985 4.90350E+01 4.00625E+00 0.00000E+00
 -1      1986 5.37045E+01 3.09687E+00 0.00000E+00
 -1      1987 5.22045E+01 3.09687E+00 0.00000E+00
 -1      1988 5.20350E+01 4.00625E+00 0.00000E+00
 -1      1989 5.67045E+01 3.09687E+00 0.00000E+00
 -1      1990 5.52045E+01 3.09687E+00 0.00000E+00
 -1      1991 5.50350E+01 4.00625E+00 0.00000E+00
 -1      1992 5.97045E+01 3.09687E+00 0.00000E+00
 -1      1993 5.82045E+01 3.09687E+00 0.00000E+00
 -1      1994 5.80350E+01 4.00625E+00 0.00000E+00
 -1      1995 6.27045E+01 3.09687E+00 0.00000E+00
 -1      1996 6.12045E+01 3.09687E+00 0.00000E+00
 -1      1997 6.10350E+01 4.00625E+00 0.00000E+00
 -1      1998 6.57045E+01 3.09687E+00 0.00000E+00
 -1      1999 6.42045E+01 3.09687E+00 0.00000E+00
 -1      2000 6.40350E+01 4.00625E+00 0.00000E+00
 -1      2001 6.87045E+01 3.09687E+00 0.00000E+00
 -1      2002 6.72045E+01 3.09687E+00 0.00000E+00
 -1      2003 6.70350E+01 4.00625E+00 0.00000E+00
 -1      2004 7.17045E+01 3.09687E+00 0.00000E+00
 -1      2005 7.02045E+01 3.09687E+00 0.00000E+00
 -1      2006 7.00350E+01 4.00625E+00 0.00000E+00
 -1      2007 7.47045E+01 3.09687E+00 0.00000E+00
 -1      2008 7.32045E+01 3.09687E+00 0.00000E+00
 -1      2009 7.30350E+01 4.00625E+00 0.00000E+00
 -1      2010 7.77045E+01 3.09687E+00 0.00000E+00
 -1      2011 7.62045E+01 3.09687E+00 0.00000E+00
 -1      2012 7.60350E+01 4.00625E+00 0.00000E+00
 -1      2013 8.07045E+01 3.09687E+00 0.00000E+00
 -1      2014 7.92045E+01 3.09687E+00 0.00000E+00
 -1      2015 7.90350E+01 4.00625E+00 0.00000E+00
 -1      2016 8.37045E+01 3.09687E+00 0.00000E+00
 -1      2017 8.22045E+01 3.09687E+00 0.00000E+00
 -1      2018 8.20350E+01 4.00625E+00 0.00000E+00
 -1      2019 8.67045E+01 3.09687E+00 0.00000E+00
 -1      2020 8.52045E+01 3.09687E+00 0.00000E+00
 -1      2021 8.50350E+01 4.00625E+00 0.00000E+00
 -1      2022 8.97045E+01 3.09687E+00 0.00000E+00
 -1      2023 8.82045E+01 3.09687E+00 0.00000E+00
 -1      2024 8.80350E+01 4.00625E+00 0.00000E+00
 -1      2025 9.27045E+01 3.09687E+00 0.00000E+00
 -1      2026 9.12045E+01 3.09687E+00 0.00000E+00
 -1      2027 9.10350E+01 4.00625E+00 0.00000E+00
 -1      2028 9.57045E+01 3.09687E+00 0.00000E+00
 -1      2029 9.42045E+01 3.09687E+00 0.00000E+00
 -1      2030 9.40350E+01 4.00625E+00 0.00000E+00
 -1      2031 9.87045E+01 3.09687E+00 0.00000E+00
 -1      2032 9.72045E+01 3.09687E+00 0.00000E+00
 -1      2033 9.70350E+01 4.00625E+00 0.00000E+00
 -1      2034 1.01704E+02 3.09687E+00 0.00000E+00
 -1      2035 1.00204E+02 3.09687E+00 0.00000E+00
 -1      2036 1.00035E+02 4.00625E+00 0.00000E+00
 -1      2037 1.04704E+02 3.09687E+00 0.00000E+00
 -1      2038 1.03204E+02 3.09687E+00 0.00000E+00
 -1      2039 1.03035E+02 4.00625E+00 0.00000E+00
 -1      2040 1.07704E+02 3.09687E+00 0.00000E+00
 -1      2041 1.06204E+02 3.09687E+00 0.00000E+00
 -1      2042 1.06035E+02 4.00625E+00 0.00000E+00
 -1      2043 1.10704E+02 3.09687E+00 0.00000E+00
 -1      2044 1.09204E+02 3.09687E+00 0.00000E+00
 -1      2045 1.09035E+02 4.00625E+00 0.00000E+00
 -1      2046 1.13704E+02 3.09687E+00 0.00000E+00
 -1      2047 1.12204E+02 3.09687E+00 0.00000E+00
 -1      2048 1.12035E+02 4.00625E+00 0.00000E+00
 -1      2049 1.16704E+02 3.09687E+00 0.00000E+00
 -1      2050 1.15204E+02 3.09687E+00 0.00000E+00
 -1      2051 1.15035E+02 4.00625E+00 0.00000E+00
 -1      2052 1.19704E+02 3.09687E+00 0.00000E+00
 -1      2053 1.18204E+02 3.09687E+00 0.00000E+00
 -1      2054 1.18035E+02 4.00625E+00 0.00000E+00
 -1      2055 1.22704E+02 3.09687E+00 0.00000E+00
 -1      2056 1.21204E+02 3.09687E+00 0.00000E+00
 -1      2057 1.21035E+02 4.00625E+00 0.00000E+00
 -1      2058 1.25704E+02 3.09687E+00 0.00000E+00
 -1      2059 1.24204E+02 3.09687E+00 0.00000E+00
 -1      2060 1.24035E+02 4.00625E+00 0.00000E+00
 -1      2061 1.28704E+02 3.09687E+00 0.00000E+00
 -1      2062 1.27204E+02 3.09687E+00 0.00000E+00
 -1      2063 1.27035E+02 4.00625E+00 0.00000E+00
 -1      2064 1.31704E+02 3.09687E+00 0.00000E+00
 -1      2065 1.30204E+02 3.09687E+00 0.00000E+00
 -1      2066 1.30035E+02 4.00625E+00 0.00000E+00
 -1      2067 1.34704E+02 3.09687E+00 0.00000E+00
 -1      2068 1.33204E+02 3.09687E+00 0.00000E+00
 -1      2069 1.33035E+02 4.00625E+00 0.00000E+00
 -1      2070 1.37704E+02 3.09687E+00 0.00000E+00
 -1      2071 1.36204E+02 3.09687E+00 0.00000E+00
 -1      2072 1.36035E+02 4.00625E+00 0.00000E+00
 -1      2073 1.40704E+02 3.09687E+00 0.00000E+00
 -1      2074 1.39204E+02 3.09687E+00 0.00000E+00
 -1      2075 1.39035E+02 4.00625E+00 0.00000E+00
 -1      2076 1.43704E+02 3.09687E+00 0.00000E+00
 -1      2077 1.42204E+02 3.09687E+00 0.00000E+00
 -1      2078 1.42035E+02 4.00625E+00 0.00000E+00
 -1      2079 1.46171E+02 3.20156E+00 0.00000E+00
 -1      2080 1.44671E+02 3.20156E+00 0.00000E+00
 -1      2081 1.44502E+02 4.11094E+00 0.00000E+00
 -1      2082 1.46435E+02 4.32031E+00 0.00000E+00
 -1      2083 1.46103E+02 1.25375E+01 0.00000E+00
 -1      2084 1.46103E+02 1.10625E+01 0.00000E+00
 -1      2085 1.46103E+02 9.58750E+00 0.00000E+00
 -1      2086 1.46103E+02 8.11250E+00 0.00000E+00
 -1      2087 1.44804E+02 1.03250E+01 0.00000E+00
 -1      2088 1.46269E+02 6.95391E+00 0.00000E+00
 -1      2089 1.46269E+02 5.47891E+00 0.00000E+00
 -1      2090 1.45302E+02 5.37422E+00 0.00000E+00
 -1      2091 1.44970E+02 7.69141E+00 0.00000E+00
 -1      2092 1.46103E+02 1.54375E+01 0.00000E+00
 -1      2093 1.46103E+02 1.39875E+01 0.00000E+00
 -1      2094 1.44804E+02 1.32500E+01 0.00000E+00
 -1      2095 1.46103E+02 1.83875E+01 0.00000E+00
 -1      2096 1.46103E+02 1.69125E+01 0.00000E+00
 -1      2097 1.44804E+02 1.61750E+01 0.00000E+00
 -1      2098 1.46103E+02 2.13375E+01 0.00000E+00
 -1      2099 1.46103E+02 1.98625E+01 0.00000E+00
 -1      2100 1.44804E+02 1.91250E+01 0.00000E+00
 -1      2101 1.46103E+02 2.42875E+01 0.00000E+00
 -1      2102 1.46103E+02 2.28125E+01 0.00000E+00
 -1      2103 1.44804E+02 2.20750E+01 0.00000E+00
 -1      2104 1.46103E+02 2.72375E+01 0.00000E+00
 -1      2105 1.46103E+02 2.57625E+01 0.00000E+00
 -1      2106 1.44804E+02 2.50250E+01 0.00000E+00
 -1      2107 1.46103E+02 3.01875E+01 0.00000E+00
 -1      2108 1.46103E+02 2.87125E+01 0.00000E+00
 -1      2109 1.44804E+02 2.79750E+01 0.00000E+00
 -1      2110 1.46103E+02 3.30875E+01 0.00000E+00
 -1      2111 1.46103E+02 3.16375E+01 0.00000E+00
 -1      2112 1.44804E+02 3.09000E+01 0.00000E+00
 -1      2113 1.46103E+02 3.60375E+01 0.00000E+00
 -1      2114 1.46103E+02 3.45625E+01 0.00000E+00
 -1      2115 1.44804E+02 3.38250E+01 0.00000E+00
 -1      2116 1.46103E+02 3.89875E+01 0.00000E+00
 -1      2117 1.46103E+02 3.75125E+01 0.00000E+00
 -1      2118 1.44804E+02 3.67750E+01 0.00000E+00
 -1      2119 1.46103E+02 4.19375E+01 0.00000E+00
 -1      2120 1.46103E+02 4.04625E+01 0.00000E+00
 -1      2121 1.44804E+02 3.97250E+01 0.00000E+00
 -1      2122 1.00056E+02 1.75333E+01 0.00000E+00
 -1      2123 1.00298E+02 1.84418E+01 0.00000E+00
 -1      2124 1.00754E+02 2.13001E+01 0.00000E+00
 -1      2125 1.00652E+02 2.22141E+01 0.00000E+00
 -1      2126 1.00523E+02 1.92847E+01 0.00000E+00
 -1      2127 1.00748E+02 2.01276E+01 0.00000E+00
 -1      2128 1.01109E+02 1.86417E+01 0.00000E+00
 -1      2129 9.86081E+01 1.58189E+01 0.00000E+00
 -1      2130 9.93132E+01 1.64667E+01 0.00000E+00
 -1      2131 9.96700E+01 2.59018E+01 0.00000E+00
 -1      2132 9.93812E+01 2.64935E+01 0.00000E+00
 -1      2133 1.00475E+02 2.57802E+01 0.00000E+00
 -1      2134 9.72247E+01 1.45895E+01 0.00000E+00
 -1      2135 9.79123E+01 1.51565E+01 0.00000E+00
 -1      2136 1.00596E+02 2.28368E+01 0.00000E+00
 -1      2137 1.00540E+02 2.34595E+01 0.00000E+00
 -1      2138 1.01291E+02 2.24523E+01 0.00000E+00
 -1      2139 3.89700E+00 3.74688E+01 0.00000E+00
 -1      2140 3.89700E+00 3.89437E+01 0.00000E+00
 -1      2141 5.19600E+00 3.96813E+01 0.00000E+00
 -1      2142 5.19600E+00 3.67438E+01 0.00000E+00
 -1      2143 9.37053E+01 1.27783E+01 0.00000E+00
 -1      2144 9.46260E+01 1.30899E+01 0.00000E+00
 -1      2145 9.15052E+01 1.26096E+01 0.00000E+00
 -1      2146 9.24376E+01 1.24627E+01 0.00000E+00
 -1      2147 8.97042E+01 1.28216E+01 0.00000E+00
 -1      2148 9.06047E+01 1.27156E+01 0.00000E+00
 -1      2149 9.09374E+01 1.17951E+01 0.00000E+00
 -1      2150 8.78008E+01 1.36689E+01 0.00000E+00
 -1      2151 8.86153E+01 1.32574E+01 0.00000E+00
 -1      2152 8.61963E+01 1.46833E+01 0.00000E+00
 -1      2153 8.69365E+01 1.41784E+01 0.00000E+00
 -1      2154 8.49171E+01 1.62751E+01 0.00000E+00
 -1      2155 8.54390E+01 1.55416E+01 0.00000E+00
 -1      2156 8.39800E+01 1.78441E+01 0.00000E+00
 -1      2157 8.44352E+01 1.70867E+01 0.00000E+00
 -1      2158 8.32532E+01 1.96469E+01 0.00000E+00
 -1      2159 8.34545E+01 1.88006E+01 0.00000E+00
 -1      2160 8.28954E+01 2.14488E+01 0.00000E+00
 -1      2161 8.30743E+01 2.05478E+01 0.00000E+00
 -1      2162 8.24222E+01 1.99456E+01 0.00000E+00
 -1      2163 8.32561E+01 2.35654E+01 0.00000E+00
 -1      2164 8.30311E+01 2.26600E+01 0.00000E+00
 -1      2165 8.37014E+01 2.54094E+01 0.00000E+00
 -1      2166 8.34319E+01 2.45190E+01 0.00000E+00
 -1      2167 8.47574E+01 2.72670E+01 0.00000E+00
 -1      2168 8.42229E+01 2.64321E+01 0.00000E+00
 -1      2169 8.62345E+01 2.89490E+01 0.00000E+00
 -1      2170 8.54567E+01 2.82667E+01 0.00000E+00
 -1      2171 8.83454E+01 2.97953E+01 0.00000E+00
 -1      2172 8.74115E+01 2.94865E+01 0.00000E+00
 -1      2173 9.01074E+01 3.03961E+01 0.00000E+00
 -1      2174 8.92437E+01 3.01277E+01 0.00000E+00
 -1      2175 9.20795E+01 3.07263E+01 0.00000E+00
 -1      2176 9.11396E+01 3.06141E+01 0.00000E+00
 -1      2177 9.41578E+01 3.02943E+01 0.00000E+00
 -1      2178 9.32623E+01 3.05506E+01 0.00000E+00
 -1      2179 9.59748E+01 2.97388E+01 0.00000E+00
 -1      2180 9.51950E+01 3.01216E+01 0.00000E+00
 -1      2181 9.74330E+01 2.87935E+01 0.00000E+00
 -1      2182 9.67039E+01 2.92662E+01 0.00000E+00
 -1      2183 9.66918E+01 3.02274E+01 0.00000E+00
 -1      2184 9.87986E+01 2.73890E+01 0.00000E+00
 -1      2185 9.82332E+01 2.79976E+01 0.00000E+00
 -1      2186 9.56800E+01 1.34484E+01 0.00000E+00
 -1      2187 9.64617E+01 1.39378E+01 0.00000E+00
 -1      2188 9.87033E+01 1.50031E+01 0.00000E+00
 -1      2189 1.01000E+02 2.41318E+01 0.00000E+00
 -1      2190 6.42300E+00 4.57510E+01 0.00000E+00
 -1      2191 7.17300E+00 4.44520E+01 0.00000E+00
 -1      2192 1.01340E+02 2.06571E+01 0.00000E+00
 -1      2193 1.00227E+02 1.59311E+01 0.00000E+00
 -1      2194 1.00142E+02 1.67322E+01 0.00000E+00
 -1      2195 1.00970E+02 1.69977E+01 0.00000E+00
 -1      2196 1.45665E+02 4.31193E+01 0.00000E+00
 -1      2197 9.96041E+01 2.72674E+01 0.00000E+00
 -1      2198 9.54274E+01 1.26788E+01 0.00000E+00
 -1      2199 9.82212E+01 2.89588E+01 0.00000E+00
 -1      2200 9.49256E+01 3.08728E+01 0.00000E+00
 -1      2201 9.27056E+01 3.12212E+01 0.00000E+00
 -1      2202 9.21489E+01 3.18919E+01 0.00000E+00
 -1      2203 9.33317E+01 3.17162E+01 0.00000E+00
 -1      2204 9.04906E+01 3.11789E+01 0.00000E+00
 -1      2205 8.85601E+01 3.06284E+01 0.00000E+00
 -1      2206 8.64848E+01 2.97585E+01 0.00000E+00
 -1      2207 8.55580E+01 3.00305E+01 0.00000E+00
 -1      2208 8.67350E+01 3.05680E+01 0.00000E+00
 -1      2209 8.46084E+01 2.82213E+01 0.00000E+00
 -1      2210 8.33876E+01 2.61989E+01 0.00000E+00
 -1      2211 8.23790E+01 2.20578E+01 0.00000E+00
 -1      2212 8.17269E+01 2.14556E+01 0.00000E+00
 -1      2213 8.18626E+01 2.26668E+01 0.00000E+00
 -1      2214 8.31266E+01 1.80881E+01 0.00000E+00
 -1      2215 8.41340E+01 1.63199E+01 0.00000E+00
 -1      2216 8.53732E+01 1.46499E+01 0.00000E+00
 -1      2217 8.89480E+01 1.23368E+01 0.00000E+00
 -1      2218 9.72445E+01 1.36890E+01 0.00000E+00
 -1      2219 9.25061E+01 1.12310E+01 0.00000E+00
 -1      2220 9.31057E+01 1.20046E+01 0.00000E+00
 -1      2221 9.37738E+01 1.15465E+01 0.00000E+00
 -1      2222 8.69948E+01 1.32821E+01 0.00000E+00
 -1      2223 8.26904E+01 2.42226E+01 0.00000E+00
 -1      2224 1.07850E+01 5.30525E+00 0.00000E+00
 -1      2225 9.28500E+00 5.30525E+00 0.00000E+00
 -1      2226 6.49500E+00 3.01125E+01 0.00000E+00
 -1      2227 6.49500E+00 3.15875E+01 0.00000E+00
 -1      2228 6.49500E+00 3.30625E+01 0.00000E+00
 -1      2229 6.49500E+00 3.45375E+01 0.00000E+00
 -1      2230 7.79400E+00 3.23250E+01 0.00000E+00
 -1      2231 6.49500E+00 2.42125E+01 0.00000E+00
 -1      2232 6.49500E+00 2.56875E+01 0.00000E+00
 -1      2233 6.49500E+00 2.12625E+01 0.00000E+00
 -1      2234 6.49500E+00 2.27375E+01 0.00000E+00
 -1      2235 7.79400E+00 2.34750E+01 0.00000E+00
 -1      2236 6.49500E+00 1.83625E+01 0.00000E+00
 -1      2237 6.49500E+00 1.98125E+01 0.00000E+00
 -1      2238 7.79400E+00 2.05500E+01 0.00000E+00
 -1      2239 6.49500E+00 1.54125E+01 0.00000E+00
 -1      2240 6.49500E+00 1.68875E+01 0.00000E+00
 -1      2241 7.79400E+00 1.76250E+01 0.00000E+00
 -1      2242 6.49500E+00 1.24625E+01 0.00000E+00
 -1      2243 6.49500E+00 1.39375E+01 0.00000E+00
 -1      2244 7.79400E+00 1.46750E+01 0.00000E+00
 -1      2245 6.49500E+00 9.51250E+00 0.00000E+00
 -1      2246 6.49500E+00 1.09875E+01 0.00000E+00
 -1      2247 7.79400E+00 1.17250E+01 0.00000E+00
 -1      2248 9.90000E+00 4.35050E+01 0.00000E+00
 -1      2249 1.14000E+01 4.35050E+01 0.00000E+00
 -1      2250 1.01315E+02 2.58238E+01 0.00000E+00
 -1      2251 1.01026E+02 2.64154E+01 0.00000E+00
 -1      2252 1.37850E+01 5.30525E+00 0.00000E+00
 -1      2253 1.22850E+01 5.30525E+00 0.00000E+00
 -1      2254 1.15350E+01 6.60425E+00 0.00000E+00
 -1      2255 6.55950E+00 4.28890E+01 0.00000E+00
 -1      2256 8.53650E+00 4.32410E+01 0.00000E+00
 -1      2257 9.28650E+00 4.19420E+01 0.00000E+00
 -1      2258 6.55950E+00 4.14140E+01 0.00000E+00
 -1      2259 1.29000E+01 4.35050E+01 0.00000E+00
 -1      2260 1.44000E+01 4.35050E+01 0.00000E+00
 -1      2261 1.21500E+01 4.22060E+01 0.00000E+00
 -1      2262 1.59000E+01 4.35050E+01 0.00000E+00
 -1      2263 1.74000E+01 4.35050E+01 0.00000E+00
 -1      2264 1.51500E+01 4.22060E+01 0.00000E+00
 -1      2265 1.89000E+01 4.35050E+01 0.00000E+00
 -1      2266 2.04000E+01 4.35050E+01 0.00000E+00
 -1      2267 1.81500E+01 4.22060E+01 0.00000E+00
 -1      2268 2.19000E+01 4.35050E+01 0.00000E+00
 -1      2269 2.34000E+01 4.35050E+01 0.00000E+00
 -1      2270 2.11500E+01 4.22060E+01 0.00000E+00
 -1      2271 2.49000E+01 4.35050E+01 0.00000E+00
 -1      2272 2.64000E+01 4.35050E+01 0.00000E+00
 -1      2273 2.41500E+01 4.22060E+01 0.00000E+00
 -1      2274 2.79000E+01 4.35050E+01 0.00000E+00
 -1      2275 2.94000E+01 4.35050E+01 0.00000E+00
 -1      2276 2.71500E+01 4.22060E+01 0.00000E+00
 -1      2277 3.09000E+01 4.35050E+01 0.00000E+00
 -1      2278 3.24000E+01 4.35050E+01 0.00000E+00
 -1      2279 3.01500E+01 4.22060E+01 0.00000E+00
 -1      2280 3.39000E+01 4.35050E+01 0.00000E+00
 -1      2281 3.54000E+01 4.35050E+01 0.00000E+00
 -1      2282 3.31500E+01 4.22060E+01 0.00000E+00
 -1      2283 3.69000E+01 4.35050E+01 0.00000E+00
 -1      2284 3.84000E+01 4.35050E+01 0.00000E+00
 -1      2285 3.61500E+01 4.22060E+01 0.00000E+00
 -1      2286 3.99000E+01 4.35050E+01 0.00000E+00
 -1      2287 4.14000E+01 4.35050E+01 0.00000E+00
 -1      2288 3.91500E+01 4.22060E+01 0.00000E+00
 -1      2289 4.29000E+01 4.35050E+01 0.00000E+00
 -1      2290 4.44000E+01 4.35050E+01 0.00000E+00
 -1      2291 4.21500E+01 4.22060E+01 0.00000E+00
 -1      2292 4.59000E+01 4.35050E+01 0.00000E+00
 -1      2293 4.74000E+01 4.35050E+01 0.00000E+00
 -1      2294 4.51500E+01 4.22060E+01 0.00000E+00
 -1      2295 4.89000E+01 4.35050E+01 0.00000E+00
 -1      2296 5.04000E+01 4.35050E+01 0.00000E+00
 -1      2297 4.81500E+01 4.22060E+01 0.00000E+00
 -1      2298 5.19000E+01 4.35050E+01 0.00000E+00
 -1      2299 5.34000E+01 4.35050E+01 0.00000E+00
 -1      2300 5.11500E+01 4.22060E+01 0.00000E+00
 -1      2301 5.49000E+01 4.35050E+01 0.00000E+00
 -1      2302 5.64000E+01 4.35050E+01 0.00000E+00
 -1      2303 5.41500E+01 4.22060E+01 0.00000E+00
 -1      2304 5.79000E+01 4.35050E+01 0.00000E+00
 -1      2305 5.94000E+01 4.35050E+01 0.00000E+00
 -1      2306 5.71500E+01 4.22060E+01 0.00000E+00
 -1      2307 6.09000E+01 4.35050E+01 0.00000E+00
 -1      2308 6.24000E+01 4.35050E+01 0.00000E+00
 -1      2309 6.01500E+01 4.22060E+01 0.00000E+00
 -1      2310 6.39000E+01 4.35050E+01 0.00000E+00
 -1      2311 6.54000E+01 4.35050E+01 0.00000E+00
 -1      2312 6.31500E+01 4.22060E+01 0.00000E+00
 -1      2313 6.69000E+01 4.35050E+01 0.00000E+00
 -1      2314 6.84000E+01 4.35050E+01 0.00000E+00
 -1      2315 6.61500E+01 4.22060E+01 0.00000E+00
 -1      2316 6.99000E+01 4.35050E+01 0.00000E+00
 -1      2317 7.14000E+01 4.35050E+01 0.00000E+00
 -1      2318 6.91500E+01 4.22060E+01 0.00000E+00
 -1      2319 7.29000E+01 4.35050E+01 0.00000E+00
 -1      2320 7.44000E+01 4.35050E+01 0.00000E+00
 -1      2321 7.21500E+01 4.22060E+01 0.00000E+00
 -1      2322 7.59000E+01 4.35050E+01 0.00000E+00
 -1      2323 7.74000E+01 4.35050E+01 0.00000E+00
 -1      2324 7.51500E+01 4.22060E+01 0.00000E+00
 -1      2325 7.89000E+01 4.35050E+01 0.00000E+00
 -1      2326 8.04000E+01 4.35050E+01 0.00000E+00
 -1      2327 7.81500E+01 4.22060E+01 0.00000E+00
 -1      2328 8.19000E+01 4.35050E+01 0.00000E+00
 -1      2329 8.34000E+01 4.35050E+01 0.00000E+00
 -1      2330 8.11500E+01 4.22060E+01 0.00000E+00
 -1      2331 8.49000E+01 4.35050E+01 0.00000E+00
 -1      2332 8.64000E+01 4.35050E+01 0.00000E+00
 -1      2333 8.41500E+01 4.22060E+01 0.00000E+00
 -1      2334 8.79000E+01 4.35050E+01 0.00000E+00
 -1      2335 8.94000E+01 4.35050E+01 0.00000E+00
 -1      2336 8.71500E+01 4.22060E+01 0.00000E+00
 -1      2337 9.09000E+01 4.35050E+01 0.00000E+00
 -1      2338 9.24000E+01 4.35050E+01 0.00000E+00
 -1      2339 9.01500E+01 4.22060E+01 0.00000E+00
 -1      2340 9.39000E+01 4.35050E+01 0.00000E+00
 -1      2341 9.54000E+01 4.35050E+01 0.00000E+00
 -1      2342 9.31500E+01 4.22060E+01 0.00000E+00
 -1      2343 9.69000E+01 4.35050E+01 0.00000E+00
 -1      2344 9.84000E+01 4.35050E+01 0.00000E+00
 -1      2345 9.61500E+01 4.22060E+01 0.00000E+00
 -1      2346 9.99000E+01 4.35050E+01 0.00000E+00
 -1      2347 1.01400E+02 4.35050E+01 0.00000E+00
 -1      2348 9.91500E+01 4.22060E+01 0.00000E+00
 -1      2349 1.02900E+02 4.35050E+01 0.00000E+00
 -1      2350 1.04400E+02 4.35050E+01 0.00000E+00
 -1      2351 1.02150E+02 4.22060E+01 0.00000E+00
 -1      2352 1.05900E+02 4.35050E+01 0.00000E+00
 -1      2353 1.07400E+02 4.35050E+01 0.00000E+00
 -1      2354 1.05150E+02 4.22060E+01 0.00000E+00
 -1      2355 1.08900E+02 4.35050E+01 0.00000E+00
 -1      2356 1.10400E+02 4.35050E+01 0.00000E+00
 -1      2357 1.08150E+02 4.22060E+01 0.00000E+00
 -1      2358 1.11900E+02 4.35050E+01 0.00000E+00
 -1      2359 1.13400E+02 4.35050E+01 0.00000E+00
 -1      2360 1.11150E+02 4.22060E+01 0.00000E+00
 -1      2361 1.14900E+02 4.35050E+01 0.00000E+00
 -1      2362 1.16400E+02 4.35050E+01 0.00000E+00
 -1      2363 1.14150E+02 4.22060E+01 0.00000E+00
 -1      2364 1.17900E+02 4.35050E+01 0.00000E+00
 -1      2365 1.19400E+02 4.35050E+01 0.00000E+00
 -1      2366 1.17150E+02 4.22060E+01 0.00000E+00
 -1      2367 1.20900E+02 4.35050E+01 0.00000E+00
 -1      2368 1.22400E+02 4.35050E+01 0.00000E+00
 -1      2369 1.20150E+02 4.22060E+01 0.00000E+00
 -1      2370 1.23900E+02 4.35050E+01 0.00000E+00
 -1      2371 1.25400E+02 4.35050E+01 0.00000E+00
 -1      2372 1.23150E+02 4.22060E+01 0.00000E+00
 -1      2373 1.26900E+02 4.35050E+01 0.00000E+00
 -1      2374 1.28400E+02 4.35050E+01 0.00000E+00
 -1      2375 1.26150E+02 4.22060E+01 0.00000E+00
 -1      2376 1.29900E+02 4.35050E+01 0.00000E+00
 -1      2377 1.31400E+02 4.35050E+01 0.00000E+00
 -1      2378 1.29150E+02 4.22060E+01 0.00000E+00
 -1      2379 1.32900E+02 4.35050E+01 0.00000E+00
 -1      2380 1.34400E+02 4.35050E+01 0.00000E+00
 -1      2381 1.32150E+02 4.22060E+01 0.00000E+00
 -1      2382 1.35900E+02 4.35050E+01 0.00000E+00
 -1      2383 1.37400E+02 4.35050E+01 0.00000E+00
 -1      2384 1.35150E+02 4.22060E+01 0.00000E+00
 -1      2385 1.38900E+02 4.35050E+01 0.00000E+00
 -1      2386 1.40400E+02 4.35050E+01 0.00000E+00
 -1      2387 1.38150E+02 4.22060E+01 0.00000E+00
 -1      2388 1.01917E+02 1.79747E+01 0.00000E+00
 -1      2389 1.02142E+02 1.88176E+01 0.00000E+00
 -1      2390 1.97850E+01 5.30525E+00 0.00000E+00
 -1      2391 1.82850E+01 5.30525E+00 0.00000E+00
 -1      2392 2.27850E+01 5.30525E+00 0.00000E+00
 -1      2393 2.12850E+01 5.30525E+00 0.00000E+00
 -1      2394 2.05350E+01 6.60425E+00 0.00000E+00
 -1      2395 2.57850E+01 5.30525E+00 0.00000E+00
 -1      2396 2.42850E+01 5.30525E+00 0.00000E+00
 -1      2397 2.35350E+01 6.60425E+00 0.00000E+00
 -1      2398 2.87850E+01 5.30525E+00 0.00000E+00
 -1      2399 2.72850E+01 5.30525E+00 0.00000E+00
 -1      2400 2.65350E+01 6.60425E+00 0.00000E+00
 -1      2401 3.17850E+01 5.30525E+00 0.00000E+00
 -1      2402 3.02850E+01 5.30525E+00 0.00000E+00
 -1      2403 2.95350E+01 6.60425E+00 0.00000E+00
 -1      2404 3.47850E+01 5.30525E+00 0.00000E+00
 -1      2405 3.32850E+01 5.30525E+00 0.00000E+00
 -1      2406 3.25350E+01 6.60425E+00 0.00000E+00
 -1      2407 3.77850E+01 5.30525E+00 0.00000E+00
 -1      2408 3.62850E+01 5.30525E+00 0.00000E+00
 -1      2409 3.55350E+01 6.60425E+00 0.00000E+00
 -1      2410 4.07850E+01 5.30525E+00 0.00000E+00
 -1      2411 3.92850E+01 5.30525E+00 0.00000E+00
 -1      2412 3.85350E+01 6.60425E+00 0.00000E+00
 -1      2413 4.37850E+01 5.30525E+00 0.00000E+00
 -1      2414 4.22850E+01 5.30525E+00 0.00000E+00
 -1      2415 4.15350E+01 6.60425E+00 0.00000E+00
 -1      2416 4.67850E+01 5.30525E+00 0.00000E+00
 -1      2417 4.52850E+01 5.30525E+00 0.00000E+00
 -1      2418 4.45350E+01 6.60425E+00 0.00000E+00
 -1      2419 4.97850E+01 5.30525E+00 0.00000E+00
 -1      2420 4.82850E+01 5.30525E+00 0.00000E+00
 -1      2421 4.75350E+01 6.60425E+00 0.00000E+00
 -1      2422 5.27850E+01 5.30525E+00 0.00000E+00
 -1      2423 5.12850E+01 5.30525E+00 0.00000E+00
 -1      2424 5.05350E+01 6.60425E+00 0.00000E+00
 -1      2425 5.57850E+01 5.30525E+00 0.00000E+00
 -1      2426 5.42850E+01 5.30525E+00 0.00000E+00
 -1      2427 5.35350E+01 6.60425E+00 0.00000E+00
 -1      2428 5.87850E+01 5.30525E+00 0.00000E+00
 -1      2429 5.72850E+01 5.30525E+00 0.00000E+00
 -1      2430 5.65350E+01 6.60425E+00 0.00000E+00
 -1      2431 6.17850E+01 5.30525E+00 0.00000E+00
 -1      2432 6.02850E+01 5.30525E+00 0.00000E+00
 -1      2433 5.95350E+01 6.60425E+00 0.00000E+00
 -1      2434 6.47850E+01 5.30525E+00 0.00000E+00
 -1      2435 6.32850E+01 5.30525E+00 0.00000E+00
 -1      2436 6.25350E+01 6.60425E+00 0.00000E+00
 -1      2437 6.77850E+01 5.30525E+00 0.00000E+00
 -1      2438 6.62850E+01 5.30525E+00 0.00000E+00
 -1      2439 6.55350E+01 6.60425E+00 0.00000E+00
 -1      2440 7.07850E+01 5.30525E+00 0.00000E+00
 -1      2441 6.92850E+01 5.30525E+00 0.00000E+00
 -1      2442 6.85350E+01 6.60425E+00 0.00000E+00
 -1      2443 7.37850E+01 5.30525E+00 0.00000E+00
 -1      2444 7.22850E+01 5.30525E+00 0.00000E+00
 -1      2445 7.15350E+01 6.60425E+00 0.00000E+00
 -1      2446 7.67850E+01 5.30525E+00 0.00000E+00
 -1      2447 7.52850E+01 5.30525E+00 0.00000E+00
 -1      2448 7.45350E+01 6.60425E+00 0.00000E+00
 -1      2449 7.97850E+01 5.30525E+00 0.00000E+00
 -1      2450 7.82850E+01 5.30525E+00 0.00000E+00
 -1      2451 7.75350E+01 6.60425E+00 0.00000E+00
 -1      2452 8.27850E+01 5.30525E+00 0.00000E+00
 -1      2453 8.12850E+01 5.30525E+00 0.00000E+00
 -1      2454 8.05350E+01 6.60425E+00 0.00000E+00
 -1      2455 8.57850E+01 5.30525E+00 0.00000E+00
 -1      2456 8.42850E+01 5.30525E+00 0.00000E+00
 -1      2457 8.35350E+01 6.60425E+00 0.00000E+00
 -1      2458 8.87850E+01 5.30525E+00 0.00000E+00
 -1      2459 8.72850E+01 5.30525E+00 0.00000E+00
 -1      2460 8.65350E+01 6.60425E+00 0.00000E+00
 -1      2461 9.17850E+01 5.30525E+00 0.00000E+00
 -1      2462 9.02850E+01 5.30525E+00 0.00000E+00
 -1      2463 8.95350E+01 6.60425E+00 0.00000E+00
 -1      2464 9.47850E+01 5.30525E+00 0.00000E+00
 -1      2465 9.32850E+01 5.30525E+00 0.00000E+00
 -1      2466 9.25350E+01 6.60425E+00 0.00000E+00
 -1      2467 9.77850E+01 5.30525E+00 0.00000E+00
 -1      2468 9.62850E+01 5.30525E+00 0.00000E+00
 -1      2469 9.55350E+01 6.60425E+00 0.00000E+00
 -1      2470 1.00785E+02 5.30525E+00 0.00000E+00
 -1      2471 9.92850E+01 5.30525E+00 0.00000E+00
 -1      2472 9.85350E+01 6.60425E+00 0.00000E+00
 -1      2473 1.03785E+02 5.30525E+00 0.00000E+00
 -1      2474 1.02285E+02 5.30525E+00 0.00000E+00
 -1      2475 1.01535E+02 6.60425E+00 0.00000E+00
 -1      2476 1.06785E+02 5.30525E+00 0.00000E+00
 -1      2477 1.05285E+02 5.30525E+00 0.00000E+00
 -1      2478 1.04535E+02 6.60425E+00 0.00000E+00
 -1      2479 1.09785E+02 5.30525E+00 0.00000E+00
 -1      2480 1.08285E+02 5.30525E+00 0.00000E+00
 -1      2481 1.07535E+02 6.60425E+00 0.00000E+00
 -1      2482 1.12785E+02 5.30525E+00 0.00000E+00
 -1      2483 1.11285E+02 5.30525E+00 0.00000E+00
 -1      2484 1.10535E+02 6.60425E+00 0.00000E+00
 -1      2485 1.15785E+02 5.30525E+00 0.00000E+00
 -1      2486 1.14285E+02 5.30525E+00 0.00000E+00
 -1      2487 1.13535E+02 6.60425E+00 0.00000E+00
 -1      2488 1.18785E+02 5.30525E+00 0.00000E+00
 -1      2489 1.17285E+02 5.30525E+00 0.00000E+00
 -1      2490 1.16535E+02 6.60425E+00 0.00000E+00
 -1      2491 1.21785E+02 5.30525E+00 0.00000E+00
 -1      2492 1.20285E+02 5.30525E+00 0.00000E+00
 -1      2493 1.19535E+02 6.60425E+00 0.00000E+00
 -1      2494 1.24785E+02 5.30525E+00 0.00000E+00
 -1      2495 1.23285E+02 5.30525E+00 0.00000E+00
 -1      2496 1.22535E+02 6.60425E+00 0.00000E+00
 -1      2497 1.27785E+02 5.30525E+00 0.00000E+00
 -1      2498 1.26285E+02 5.30525E+00 0.00000E+00
 -1      2499 1.25535E+02 6.60425E+00 0.00000E+00
 -1      2500 1.30785E+02 5.30525E+00 0.00000E+00
 -1      2501 1.29285E+02 5.30525E+00 0.00000E+00
 -1      2502 1.28535E+02 6.60425E+00 0.00000E+00
 -1      2503 1.33785E+02 5.30525E+00 0.00000E+00
 -1      2504 1.32285E+02 5.30525E+00 0.00000E+00
 -1      2505 1.31535E+02 6.60425E+00 0.00000E+00
 -1      2506 1.36785E+02 5.30525E+00 0.00000E+00
 -1      2507 1.35285E+02 5.30525E+00 0.00000E+00
 -1      2508 1.34535E+02 6.60425E+00 0.00000E+00
 -1      2509 1.39785E+02 5.30525E+00 0.00000E+00
 -1      2510 1.38285E+02 5.30525E+00 0.00000E+00
 -1      2511 1.37535E+02 6.60425E+00 0.00000E+00
 -1      2512 1.42785E+02 5.30525E+00 0.00000E+00
 -1      2513 1.41285E+02 5.30525E+00 0.00000E+00
 -1      2514 1.40535E+02 6.60425E+00 0.00000E+00
 -1      2515 1.44336E+02 5.26953E+00 0.00000E+00
 -1      2516 1.43505E+02 1.69125E+01 0.00000E+00
 -1      2517 1.43505E+02 1.54375E+01 0.00000E+00
 -1      2518 1.43505E+02 1.98625E+01 0.00000E+00
 -1      2519 1.43505E+02 1.83875E+01 0.00000E+00
 -1      2520 1.42206E+02 1.76500E+01 0.00000E+00
 -1      2521 1.43505E+02 1.10625E+01 0.00000E+00
 -1      2522 1.43505E+02 9.58750E+00 0.00000E+00
 -1      2523 1.43505E+02 1.39750E+01 0.00000E+00
 -1      2524 1.43505E+02 1.25250E+01 0.00000E+00
 -1      2525 1.42206E+02 1.17875E+01 0.00000E+00
 -1      2526 1.42206E+02 1.47125E+01 0.00000E+00
 -1      2527 1.43505E+02 2.28125E+01 0.00000E+00
 -1      2528 1.43505E+02 2.13375E+01 0.00000E+00
 -1      2529 1.42206E+02 2.06000E+01 0.00000E+00
 -1      2530 1.43505E+02 2.57625E+01 0.00000E+00
 -1      2531 1.43505E+02 2.42875E+01 0.00000E+00
 -1      2532 1.42206E+02 2.35500E+01 0.00000E+00
 -1      2533 1.43505E+02 2.87125E+01 0.00000E+00
 -1      2534 1.43505E+02 2.72375E+01 0.00000E+00
 -1      2535 1.42206E+02 2.65000E+01 0.00000E+00
 -1      2536 1.43505E+02 3.16125E+01 0.00000E+00
 -1      2537 1.43505E+02 3.01625E+01 0.00000E+00
 -1      2538 1.42206E+02 2.94250E+01 0.00000E+00
 -1      2539 1.43505E+02 3.45625E+01 0.00000E+00
 -1      2540 1.43505E+02 3.30875E+01 0.00000E+00
 -1      2541 1.42206E+02 3.23500E+01 0.00000E+00
 -1      2542 1.43505E+02 3.75125E+01 0.00000E+00
 -1      2543 1.43505E+02 3.60375E+01 0.00000E+00
 -1      2544 1.42206E+02 3.53000E+01 0.00000E+00
 -1      2545 1.43505E+02 4.04625E+01 0.00000E+00
 -1      2546 1.43505E+02 3.89875E+01 0.00000E+00
 -1      2547 1.42206E+02 3.82500E+01 0.00000E+00
 -1      2548 1.44321E+02 4.30606E+01 0.00000E+00
 -1      2549 1.00444E+02 2.73110E+01 0.00000E+00
 -1      2550 9.98612E+01 2.82065E+01 0.00000E+00
 -1      2551 1.01284E+02 2.73545E+01 0.00000E+00
 -1      2552 1.67850E+01 5.30525E+00 0.00000E+00
 -1      2553 1.52850E+01 5.30525E+00 0.00000E+00
 -1      2554 1.75350E+01 6.60425E+00 0.00000E+00
 -1      2555 1.01966E+02 2.37925E+01 0.00000E+00
 -1      2556 1.01730E+02 2.48492E+01 0.00000E+00
 -1      2557 9.55644E+01 3.15083E+01 0.00000E+00
 -1      2558 9.45272E+01 3.16811E+01 0.00000E+00
 -1      2559 8.22224E+01 1.82140E+01 0.00000E+00
 -1      2560 8.27479E+01 1.72574E+01 0.00000E+00
 -1      2561 1.02077E+02 2.25471E+01 0.00000E+00
 -1      2562 1.02022E+02 2.31698E+01 0.00000E+00
 -1      2563 1.02752E+02 2.38872E+01 0.00000E+00
 -1      2564 6.49500E+00 2.71625E+01 0.00000E+00
 -1      2565 6.49500E+00 2.86375E+01 0.00000E+00
 -1      2566 7.79400E+00 2.93750E+01 0.00000E+00
 -1      2567 7.79400E+00 2.64250E+01 0.00000E+00
 -1      2568 1.02148E+02 1.99901E+01 0.00000E+00
 -1      2569 1.02155E+02 2.11626E+01 0.00000E+00
 -1      2570 1.02957E+02 1.93231E+01 0.00000E+00
 -1      2571 9.74199E+01 1.27110E+01 0.00000E+00
 -1      2572 9.81829E+01 1.33627E+01 0.00000E+00
 -1      2573 9.03967E+01 1.10796E+01 0.00000E+00
 -1      2574 9.12972E+01 1.09736E+01 0.00000E+00
 -1      2575 8.20173E+01 2.48397E+01 0.00000E+00
 -1      2576 8.18416E+01 2.38861E+01 0.00000E+00
 -1      2577 8.80227E+01 1.16029E+01 0.00000E+00
 -1      2578 8.91116E+01 1.11672E+01 0.00000E+00
 -1      2579 8.43829E+01 1.45395E+01 0.00000E+00
 -1      2580 8.51402E+01 1.36811E+01 0.00000E+00
 -1      2581 8.32277E+01 1.63307E+01 0.00000E+00
 -1      2582 8.37096E+01 1.55191E+01 0.00000E+00
 -1      2583 8.16149E+01 2.02535E+01 0.00000E+00
 -1      2584 8.17938E+01 1.93526E+01 0.00000E+00
 -1      2585 8.29963E+01 2.70427E+01 0.00000E+00
 -1      2586 8.24749E+01 2.60200E+01 0.00000E+00
 -1      2587 8.42553E+01 2.92127E+01 0.00000E+00
 -1      2588 8.35560E+01 2.82130E+01 0.00000E+00
 -1      2589 8.87262E+01 3.15596E+01 0.00000E+00
 -1      2590 8.78279E+01 3.12272E+01 0.00000E+00
 -1      2591 9.07948E+01 3.22909E+01 0.00000E+00
 -1      2592 8.97626E+01 3.20728E+01 0.00000E+00
 -1      2593 9.75001E+01 3.06755E+01 0.00000E+00
 -1      2594 9.67710E+01 3.11481E+01 0.00000E+00
 -1      2595 9.52036E+01 1.16083E+01 0.00000E+00
 -1      2596 9.62576E+01 1.19668E+01 0.00000E+00
 -1      2597 8.07525E+00 5.11044E+00 0.00000E+00
 -1      2598 6.57525E+00 5.11044E+00 0.00000E+00
 -1      2599 6.40575E+00 6.01981E+00 0.00000E+00
 -1      2600 8.82525E+00 6.40944E+00 0.00000E+00
 -1      2601 8.62941E+01 1.26220E+01 0.00000E+00
 -1      2602 8.71584E+01 1.21124E+01 0.00000E+00
 -1      2603 8.73220E+01 1.09428E+01 0.00000E+00
 -1      2604 9.91374E+01 2.90798E+01 0.00000E+00
 -1      2605 9.83371E+01 2.98757E+01 0.00000E+00
 -1      2606 9.88787E+01 1.40252E+01 0.00000E+00
 -1      2607 9.95746E+01 1.46876E+01 0.00000E+00
 -1      2608 9.90542E+01 1.30472E+01 0.00000E+00
 -1      2609 1.02885E+02 2.18801E+01 0.00000E+00
 -1      2610 7.79400E+00 3.52687E+01 0.00000E+00
 -1      2611 6.49500E+00 3.60062E+01 0.00000E+00
 -1      2612 6.49500E+00 3.74750E+01 0.00000E+00
 -1      2613 6.40575E+00 7.49481E+00 0.00000E+00
 -1      2614 8.53038E+01 1.25115E+01 0.00000E+00
 -1      2615 8.54674E+01 1.13419E+01 0.00000E+00
 -1      2616 8.43135E+01 1.24010E+01 0.00000E+00
 -1      2617 1.45350E+01 6.60425E+00 0.00000E+00
 -1      2618 6.55950E+00 3.99453E+01 0.00000E+00
 -1      2619 9.46040E+01 1.08346E+01 0.00000E+00
 -1      2620 9.84163E+01 3.07964E+01 0.00000E+00
 -1      2621 9.14209E+01 3.27858E+01 0.00000E+00
 -1      2622 9.06929E+01 3.36798E+01 0.00000E+00
 -1      2623 9.20470E+01 3.32807E+01 0.00000E+00
 -1      2624 9.99771E+01 2.91234E+01 0.00000E+00
 -1      2625 1.02003E+02 1.71736E+01 0.00000E+00
 -1      2626 1.03036E+02 1.73494E+01 0.00000E+00
 -1      2627 1.02089E+02 1.63725E+01 0.00000E+00
 -1      2628 1.02281E+02 2.54845E+01 0.00000E+00
 -1      2629 1.43586E+02 6.56853E+00 0.00000E+00
 -1      2630 8.14151E+01 1.85219E+01 0.00000E+00
 -1      2631 1.43419E+02 7.72713E+00 0.00000E+00
 -1      2632 1.00403E+02 1.49531E+01 0.00000E+00
 -1      2633 1.01231E+02 1.52187E+01 0.00000E+00
 -1      2634 1.00578E+02 1.39752E+01 0.00000E+00
 -1      2635 1.42758E+02 4.35929E+01 0.00000E+00
 -1      2636 1.43241E+02 4.17323E+01 0.00000E+00
 -1      2637 1.41942E+02 4.09948E+01 0.00000E+00
 -1      2638 1.41414E+02 4.35342E+01 0.00000E+00
 -1      2639 9.63726E+01 3.19564E+01 0.00000E+00
 -1      2640 8.90304E+01 3.26716E+01 0.00000E+00
 -1      2641 8.45056E+01 3.00222E+01 0.00000E+00
 -1      2642 8.34533E+01 3.00139E+01 0.00000E+00
 -1      2643 8.47559E+01 3.08317E+01 0.00000E+00
 -1      2644 9.39705E+01 3.23517E+01 0.00000E+00
 -1      2645 8.26433E+01 2.80341E+01 0.00000E+00
 -1      2646 8.10985E+01 2.08626E+01 0.00000E+00
 -1      2647 8.04701E+01 2.02696E+01 0.00000E+00
 -1      2648 8.05821E+01 2.14716E+01 0.00000E+00
 -1      2649 8.23235E+01 1.64566E+01 0.00000E+00
 -1      2650 8.34766E+01 1.45503E+01 0.00000E+00
 -1      2651 8.69011E+01 3.14992E+01 0.00000E+00
 -1      2652 8.16260E+01 2.56835E+01 0.00000E+00
 -1      2653 8.11895E+01 2.32839E+01 0.00000E+00
 -1      2654 8.94714E+01 1.03457E+01 0.00000E+00
 -1      2655 9.19653E+01 1.05155E+01 0.00000E+00
 -1      2656 9.26334E+01 1.00574E+01 0.00000E+00
 -1      2657 9.14246E+01 9.80005E+00 0.00000E+00
 -1      2658 9.71961E+01 1.16406E+01 0.00000E+00
 -1      2659 7.70475E+00 8.23231E+00 0.00000E+00
 -1      2660 1.40664E+02 4.22352E+01 0.00000E+00
 -1      2661 1.42120E+02 8.46463E+00 0.00000E+00
 -1      2662 9.09300E+00 1.98250E+01 0.00000E+00
 -1      2663 9.09300E+00 2.12750E+01 0.00000E+00
 -1      2664 9.09300E+00 2.27500E+01 0.00000E+00
 -1      2665 9.09300E+00 2.42250E+01 0.00000E+00
 -1      2666 1.03920E+01 2.20250E+01 0.00000E+00
 -1      2667 9.09300E+00 1.39375E+01 0.00000E+00
 -1      2668 9.09300E+00 1.54125E+01 0.00000E+00
 -1      2669 9.09300E+00 1.09875E+01 0.00000E+00
 -1      2670 9.09300E+00 1.24625E+01 0.00000E+00
 -1      2671 1.03920E+01 1.32000E+01 0.00000E+00
 -1      2672 1.03739E+02 2.12336E+01 0.00000E+00
 -1      2673 1.03661E+02 2.26181E+01 0.00000E+00
 -1      2674 1.39914E+02 4.09362E+01 0.00000E+00
 -1      2675 1.40928E+02 4.09655E+01 0.00000E+00
 -1      2676 1.41192E+02 3.96958E+01 0.00000E+00
 -1      2677 1.14000E+01 4.09070E+01 0.00000E+00
 -1      2678 1.29000E+01 4.09070E+01 0.00000E+00
 -1      2679 8.91450E+00 8.42712E+00 0.00000E+00
 -1      2680 2.42850E+01 7.90325E+00 0.00000E+00
 -1      2681 2.27850E+01 7.90325E+00 0.00000E+00
 -1      2682 1.44000E+01 4.09070E+01 0.00000E+00
 -1      2683 1.59000E+01 4.09070E+01 0.00000E+00
 -1      2684 1.36500E+01 3.96080E+01 0.00000E+00
 -1      2685 1.74000E+01 4.09070E+01 0.00000E+00
 -1      2686 1.89000E+01 4.09070E+01 0.00000E+00
 -1      2687 1.66500E+01 3.96080E+01 0.00000E+00
 -1      2688 2.04000E+01 4.09070E+01 0.00000E+00
 -1      2689 2.19000E+01 4.09070E+01 0.00000E+00
 -1      2690 1.96500E+01 3.96080E+01 0.00000E+00
 -1      2691 2.34000E+01 4.09070E+01 0.00000E+00
 -1      2692 2.49000E+01 4.09070E+01 0.00000E+00
 -1      2693 2.26500E+01 3.96080E+01 0.00000E+00
 -1      2694 2.64000E+01 4.09070E+01 0.00000E+00
 -1      2695 2.79000E+01 4.09070E+01 0.00000E+00
 -1      2696 2.56500E+01 3.96080E+01 0.00000E+00
 -1      2697 2.94000E+01 4.09070E+01 0.00000E+00
 -1      2698 3.09000E+01 4.09070E+01 0.00000E+00
 -1      2699 2.86500E+01 3.96080E+01 0.00000E+00
 -1      2700 3.24000E+01 4.09070E+01 0.00000E+00
 -1      2701 3.39000E+01 4.09070E+01 0.00000E+00
 -1      2702 3.16500E+01 3.96080E+01 0.00000E+00
 -1      2703 3.54000E+01 4.09070E+01 0.00000E+00
 -1      2704 3.69000E+01 4.09070E+01 0.00000E+00
 -1      2705 3.46500E+01 3.96080E+01 0.00000E+00
 -1      2706 3.84000E+01 4.09070E+01 0.00000E+00
 -1      2707 3.99000E+01 4.09070E+01 0.00000E+00
 -1      2708 3.76500E+01 3.96080E+01 0.00000E+00
 -1      2709 4.14000E+01 4.09070E+01 0.00000E+00
 -1      2710 4.29000E+01 4.09070E+01 0.00000E+00
 -1      2711 4.06500E+01 3.96080E+01 0.00000E+00
 -1      2712 4.44000E+01 4.09070E+01 0.00000E+00
 -1      2713 4.59000E+01 4.09070E+01 0.00000E+00
 -1      2714 4.36500E+01 3.96080E+01 0.00000E+00
 -1      2715 4.74000E+01 4.09070E+01 0.00000E+00
 -1      2716 4.89000E+01 4.09070E+01 0.00000E+00
 -1      2717 4.66500E+01 3.96080E+01 0.00000E+00
 -1      2718 5.04000E+01 4.09070E+01 0.00000E+00
 -1      2719 5.19000E+01 4.09070E+01 0.00000E+00
 -1      2720 4.96500E+01 3.96080E+01 0.00000E+00
 -1      2721 5.34000E+01 4.09070E+01 0.00000E+00
 -1      2722 5.49000E+01 4.09070E+01 0.00000E+00
 -1      2723 5.26500E+01 3.96080E+01 0.00000E+00
 -1      2724 5.64000E+01 4.09070E+01 0.00000E+00
 -1      2725 5.79000E+01 4.09070E+01 0.00000E+00
 -1      2726 5.56500E+01 3.96080E+01 0.00000E+00
 -1      2727 5.94000E+01 4.09070E+01 0.00000E+00
 -1      2728 6.09000E+01 4.09070E+01 0.00000E+00
 -1      2729 5.86500E+01 3.96080E+01 0.00000E+00
 -1      2730 6.24000E+01 4.09070E+01 0.00000E+00
 -1      2731 6.39000E+01 4.09070E+01 0.00000E+00
 -1      2732 6.16500E+01 3.96080E+01 0.00000E+00
 -1      2733 6.54000E+01 4.09070E+01 0.00000E+00
 -1      2734 6.69000E+01 4.09070E+01 0.00000E+00
 -1      2735 6.46500E+01 3.96080E+01 0.00000E+00
 -1      2736 6.84000E+01 4.09070E+01 0.00000E+00
 -1      2737 6.99000E+01 4.09070E+01 0.00000E+00
 -1      2738 6.76500E+01 3.96080E+01 0.00000E+00
 -1      2739 7.14000E+01 4.09070E+01 0.00000E+00
 -1      2740 7.29000E+01 4.09070E+01 0.00000E+00
 -1      2741 7.06500E+01 3.96080E+01 0.00000E+00
 -1      2742 7.44000E+01 4.09070E+01 0.00000E+00
 -1      2743 7.59000E+01 4.09070E+01 0.00000E+00
 -1      2744 7.36500E+01 3.96080E+01 0.00000E+00
 -1      2745 7.74000E+01 4.09070E+01 0.00000E+00
 -1      2746 7.89000E+01 4.09070E+01 0.00000E+00
 -1      2747 7.66500E+01 3.96080E+01 0.00000E+00
 -1      2748 8.04000E+01 4.09070E+01 0.00000E+00
 -1      2749 8.19000E+01 4.09070E+01 0.00000E+00
 -1      2750 7.96500E+01 3.96080E+01 0.00000E+00
 -1      2751 8.34000E+01 4.09070E+01 0.00000E+00
 -1      2752 8.49000E+01 4.09070E+01 0.00000E+00
 -1      2753 8.26500E+01 3.96080E+01 0.00000E+00
 -1      2754 8.64000E+01 4.09070E+01 0.00000E+00
 -1      2755 8.79000E+01 4.09070E+01 0.00000E+00
 -1      2756 8.56500E+01 3.96080E+01 0.00000E+00
 -1      2757 8.94000E+01 4.09070E+01 0.00000E+00
 -1      2758 9.09000E+01 4.09070E+01 0.00000E+00
 -1      2759 8.86500E+01 3.96080E+01 0.00000E+00
 -1      2760 9.24000E+01 4.09070E+01 0.00000E+00
 -1      2761 9.39000E+01 4.09070E+01 0.00000E+00
 -1      2762 9.16500E+01 3.96080E+01 0.00000E+00
 -1      2763 9.54000E+01 4.09070E+01 0.00000E+00
 -1      2764 9.69000E+01 4.09070E+01 0.00000E+00
 -1      2765 9.46500E+01 3.96080E+01 0.00000E+00
 -1      2766 9.84000E+01 4.09070E+01 0.00000E+00
 -1      2767 9.99000E+01 4.09070E+01 0.00000E+00
 -1      2768 9.76500E+01 3.96080E+01 0.00000E+00
 -1      2769 1.01400E+02 4.09070E+01 0.00000E+00
 -1      2770 1.02900E+02 4.09070E+01 0.00000E+00
 -1      2771 1.00650E+02 3.96080E+01 0.00000E+00
 -1      2772 1.04400E+02 4.09070E+01 0.00000E+00
 -1      2773 1.05900E+02 4.09070E+01 0.00000E+00
 -1      2774 1.03650E+02 3.96080E+01 0.00000E+00
 -1      2775 1.07400E+02 4.09070E+01 0.00000E+00
 -1      2776 1.08900E+02 4.09070E+01 0.00000E+00
 -1      2777 1.06650E+02 3.96080E+01 0.00000E+00
 -1      2778 1.10400E+02 4.09070E+01 0.00000E+00
 -1      2779 1.11900E+02 4.09070E+01 0.00000E+00
 -1      2780 1.09650E+02 3.96080E+01 0.00000E+00
 -1      2781 1.13400E+02 4.09070E+01 0.00000E+00
 -1      2782 1.14900E+02 4.09070E+01 0.00000E+00
 -1      2783 1.12650E+02 3.96080E+01 0.00000E+00
 -1      2784 1.16400E+02 4.09070E+01 0.00000E+00
 -1      2785 1.17900E+02 4.09070E+01 0.00000E+00
 -1      2786 1.15650E+02 3.96080E+01 0.00000E+00
 -1      2787 1.19400E+02 4.09070E+01 0.00000E+00
 -1      2788 1.20900E+02 4.09070E+01 0.00000E+00
 -1      2789 1.18650E+02 3.96080E+01 0.00000E+00
 -1      2790 1.22400E+02 4.09070E+01 0.00000E+00
 -1      2791 1.23900E+02 4.09070E+01 0.00000E+00
 -1      2792 1.21650E+02 3.96080E+01 0.00000E+00
 -1      2793 1.25400E+02 4.09070E+01 0.00000E+00
 -1      2794 1.26900E+02 4.09070E+01 0.00000E+00
 -1      2795 1.24650E+02 3.96080E+01 0.00000E+00
 -1      2796 1.28400E+02 4.09070E+01 0.00000E+00
 -1      2797 1.29900E+02 4.09070E+01 0.00000E+00
 -1      2798 1.27650E+02 3.96080E+01 0.00000E+00
 -1      2799 1.31400E+02 4.09070E+01 0.00000E+00
 -1      2800 1.32900E+02 4.09070E+01 0.00000E+00
 -1      2801 1.30650E+02 3.96080E+01 0.00000E+00
 -1      2802 1.34400E+02 4.09070E+01 0.00000E+00
 -1      2803 1.35900E+02 4.09070E+01 0.00000E+00
 -1      2804 1.33650E+02 3.96080E+01 0.00000E+00
 -1      2805 1.37157E+02 4.09216E+01 0.00000E+00
 -1      2806 1.38657E+02 4.09216E+01 0.00000E+00
 -1      2807 1.38921E+02 3.96519E+01 0.00000E+00
 -1      2808 1.36407E+02 3.96226E+01 0.00000E+00
 -1      2809 9.72932E+01 3.28389E+01 0.00000E+00
 -1      2810 9.60866E+01 3.31991E+01 0.00000E+00
 -1      2811 2.12850E+01 7.90325E+00 0.00000E+00
 -1      2812 1.97850E+01 7.90325E+00 0.00000E+00
 -1      2813 2.20350E+01 9.20225E+00 0.00000E+00
 -1      2814 3.02850E+01 7.90325E+00 0.00000E+00
 -1      2815 2.87850E+01 7.90325E+00 0.00000E+00
 -1      2816 3.32850E+01 7.90325E+00 0.00000E+00
 -1      2817 3.17850E+01 7.90325E+00 0.00000E+00
 -1      2818 3.10350E+01 9.20225E+00 0.00000E+00
 -1      2819 3.62850E+01 7.90325E+00 0.00000E+00
 -1      2820 3.47850E+01 7.90325E+00 0.00000E+00
 -1      2821 3.40350E+01 9.20225E+00 0.00000E+00
 -1      2822 3.92850E+01 7.90325E+00 0.00000E+00
 -1      2823 3.77850E+01 7.90325E+00 0.00000E+00
 -1      2824 3.70350E+01 9.20225E+00 0.00000E+00
 -1      2825 4.22850E+01 7.90325E+00 0.00000E+00
 -1      2826 4.07850E+01 7.90325E+00 0.00000E+00
 -1      2827 4.00350E+01 9.20225E+00 0.00000E+00
 -1      2828 4.52850E+01 7.90325E+00 0.00000E+00
 -1      2829 4.37850E+01 7.90325E+00 0.00000E+00
 -1      2830 4.30350E+01 9.20225E+00 0.00000E+00
 -1      2831 4.82850E+01 7.90325E+00 0.00000E+00
 -1      2832 4.67850E+01 7.90325E+00 0.00000E+00
 -1      2833 4.60350E+01 9.20225E+00 0.00000E+00
 -1      2834 5.12850E+01 7.90325E+00 0.00000E+00
 -1      2835 4.97850E+01 7.90325E+00 0.00000E+00
 -1      2836 4.90350E+01 9.20225E+00 0.00000E+00
 -1      2837 5.42850E+01 7.90325E+00 0.00000E+00
 -1      2838 5.27850E+01 7.90325E+00 0.00000E+00
 -1      2839 5.20350E+01 9.20225E+00 0.00000E+00
 -1      2840 5.72850E+01 7.90325E+00 0.00000E+00
 -1      2841 5.57850E+01 7.90325E+00 0.00000E+00
 -1      2842 5.50350E+01 9.20225E+00 0.00000E+00
 -1      2843 6.02850E+01 7.90325E+00 0.00000E+00
 -1      2844 5.87850E+01 7.90325E+00 0.00000E+00
 -1      2845 5.80350E+01 9.20225E+00 0.00000E+00
 -1      2846 6.32850E+01 7.90325E+00 0.00000E+00
 -1      2847 6.17850E+01 7.90325E+00 0.00000E+00
 -1      2848 6.10350E+01 9.20225E+00 0.00000E+00
 -1      2849 6.62850E+01 7.90325E+00 0.00000E+00
 -1      2850 6.47850E+01 7.90325E+00 0.00000E+00
 -1      2851 6.40350E+01 9.20225E+00 0.00000E+00
 -1      2852 6.92850E+01 7.90325E+00 0.00000E+00
 -1      2853 6.77850E+01 7.90325E+00 0.00000E+00
 -1      2854 6.70350E+01 9.20225E+00 0.00000E+00
 -1      2855 7.22850E+01 7.90325E+00 0.00000E+00
 -1      2856 7.07850E+01 7.90325E+00 0.00000E+00
 -1      2857 7.00350E+01 9.20225E+00 0.00000E+00
 -1      2858 7.52850E+01 7.90325E+00 0.00000E+00
 -1      2859 7.37850E+01 7.90325E+00 0.00000E+00
 -1      2860 7.30350E+01 9.20225E+00 0.00000E+00
 -1      2861 7.82850E+01 7.90325E+00 0.00000E+00
 -1      2862 7.67850E+01 7.90325E+00 0.00000E+00
 -1      2863 7.60350E+01 9.20225E+00 0.00000E+00
 -1      2864 8.12850E+01 7.90325E+00 0.00000E+00
 -1      2865 7.97850E+01 7.90325E+00 0.00000E+00
 -1      2866 7.90350E+01 9.20225E+00 0.00000E+00
 -1      2867 8.47561E+01 8.91783E+00 0.00000E+00
 -1      2868 8.32561E+01 8.91783E+00 0.00000E+00
 -1      2869 8.81107E+01 8.51877E+00 0.00000E+00
 -1      2870 8.66107E+01 8.51877E+00 0.00000E+00
 -1      2871 8.96107E+01 8.51877E+00 0.00000E+00
 -1      2872 9.30639E+01 7.97310E+00 0.00000E+00
 -1      2873 9.15639E+01 7.97310E+00 0.00000E+00
 -1      2874 9.65344E+01 8.75031E+00 0.00000E+00
 -1      2875 9.50344E+01 8.75031E+00 0.00000E+00
 -1      2876 1.02285E+02 7.90325E+00 0.00000E+00
 -1      2877 1.00785E+02 7.90325E+00 0.00000E+00
 -1      2878 1.05285E+02 7.90325E+00 0.00000E+00
 -1      2879 1.03785E+02 7.90325E+00 0.00000E+00
 -1      2880 1.03035E+02 9.20225E+00 0.00000E+00
 -1      2881 1.08285E+02 7.90325E+00 0.00000E+00
 -1      2882 1.06785E+02 7.90325E+00 0.00000E+00
 -1      2883 1.06035E+02 9.20225E+00 0.00000E+00
 -1      2884 1.11285E+02 7.90325E+00 0.00000E+00
 -1      2885 1.09785E+02 7.90325E+00 0.00000E+00
 -1      2886 1.09035E+02 9.20225E+00 0.00000E+00
 -1      2887 1.14285E+02 7.90325E+00 0.00000E+00
 -1      2888 1.12785E+02 7.90325E+00 0.00000E+00
 -1      2889 1.12035E+02 9.20225E+00 0.00000E+00
 -1      2890 1.17285E+02 7.90325E+00 0.00000E+00
 -1      2891 1.15785E+02 7.90325E+00 0.00000E+00
 -1      2892 1.15035E+02 9.20225E+00 0.00000E+00
 -1      2893 1.20285E+02 7.90325E+00 0.00000E+00
 -1      2894 1.18785E+02 7.90325E+00 0.00000E+00
 -1      2895 1.18035E+02 9.20225E+00 0.00000E+00
 -1      2896 1.23285E+02 7.90325E+00 0.00000E+00
 -1      2897 1.21785E+02 7.90325E+00 0.00000E+00
 -1      2898 1.21035E+02 9.20225E+00 0.00000E+00
 -1      2899 1.26285E+02 7.90325E+00 0.00000E+00
 -1      2900 1.24785E+02 7.90325E+00 0.00000E+00
 -1      2901 1.24035E+02 9.20225E+00 0.00000E+00
 -1      2902 1.29285E+02 7.90325E+00 0.00000E+00
 -1      2903 1.27785E+02 7.90325E+00 0.00000E+00
 -1      2904 1.27035E+02 9.20225E+00 0.00000E+00
 -1      2905 1.32285E+02 7.90325E+00 0.00000E+00
 -1      2906 1.30785E+02 7.90325E+00 0.00000E+00
 -1      2907 1.30035E+02 9.20225E+00 0.00000E+00
 -1      2908 1.35285E+02 7.90325E+00 0.00000E+00
 -1      2909 1.33785E+02 7.90325E+00 0.00000E+00
 -1      2910 1.33035E+02 9.20225E+00 0.00000E+00
 -1      2911 1.38285E+02 7.90325E+00 0.00000E+00
 -1      2912 1.36785E+02 7.90325E+00 0.00000E+00
 -1      2913 1.36035E+02 9.20225E+00 0.00000E+00
 -1      2914 1.40953E+02 8.18394E+00 0.00000E+00
 -1      2915 1.39453E+02 8.18394E+00 0.00000E+00
 -1      2916 1.38703E+02 9.48294E+00 0.00000E+00
 -1      2917 1.41038E+02 1.00443E+01 0.00000E+00
 -1      2918 8.03982E+01 1.87891E+01 0.00000E+00
 -1      2919 8.08268E+01 1.76505E+01 0.00000E+00
 -1      2920 1.40907E+02 2.42875E+01 0.00000E+00
 -1      2921 1.40907E+02 2.28125E+01 0.00000E+00
 -1      2922 1.40907E+02 1.83875E+01 0.00000E+00
 -1      2923 1.40907E+02 1.69125E+01 0.00000E+00
 -1      2924 1.40907E+02 2.72375E+01 0.00000E+00
 -1      2925 1.40907E+02 2.57625E+01 0.00000E+00
 -1      2926 1.39608E+02 2.50250E+01 0.00000E+00
 -1      2927 1.40907E+02 2.13375E+01 0.00000E+00
 -1      2928 1.40907E+02 1.98625E+01 0.00000E+00
 -1      2929 1.39608E+02 1.91250E+01 0.00000E+00
 -1      2930 1.39608E+02 2.20750E+01 0.00000E+00
 -1      2931 1.40907E+02 3.01375E+01 0.00000E+00
 -1      2932 1.40907E+02 2.86875E+01 0.00000E+00
 -1      2933 1.39608E+02 2.79500E+01 0.00000E+00
 -1      2934 1.40907E+02 3.30875E+01 0.00000E+00
 -1      2935 1.40907E+02 3.16125E+01 0.00000E+00
 -1      2936 1.39608E+02 3.08750E+01 0.00000E+00
 -1      2937 1.40907E+02 3.60375E+01 0.00000E+00
 -1      2938 1.40907E+02 3.45625E+01 0.00000E+00
 -1      2939 1.39608E+02 3.38250E+01 0.00000E+00
 -1      2940 1.41192E+02 3.82207E+01 0.00000E+00
 -1      2941 1.02259E+02 2.73515E+01 0.00000E+00
 -1      2942 1.01676E+02 2.82471E+01 0.00000E+00
 -1      2943 1.82850E+01 7.90325E+00 0.00000E+00
 -1      2944 1.67850E+01 7.90325E+00 0.00000E+00
 -1      2945 1.90350E+01 9.20225E+00 0.00000E+00
 -1      2946 1.03278E+02 2.53331E+01 0.00000E+00
 -1      2947 1.02863E+02 2.63077E+01 0.00000E+00
 -1      2948 8.24332E+01 1.45543E+01 0.00000E+00
 -1      2949 8.31065E+01 1.35747E+01 0.00000E+00
 -1      2950 8.19983E+01 2.90616E+01 0.00000E+00
 -1      2951 8.14386E+01 2.78912E+01 0.00000E+00
 -1      2952 9.81158E+01 8.04939E+00 0.00000E+00
 -1      2953 9.76152E+01 1.01954E+01 0.00000E+00
 -1      2954 9.87775E+01 1.09397E+01 0.00000E+00
 -1      2955 9.96158E+01 8.04939E+00 0.00000E+00
 -1      2956 1.03497E+02 2.36643E+01 0.00000E+00
 -1      2957 1.03441E+02 2.42869E+01 0.00000E+00
 -1      2958 1.04023E+02 2.51102E+01 0.00000E+00
 -1      2959 1.04350E+02 2.30178E+01 0.00000E+00
 -1      2960 2.72850E+01 7.90325E+00 0.00000E+00
 -1      2961 2.57850E+01 7.90325E+00 0.00000E+00
 -1      2962 2.50350E+01 9.20225E+00 0.00000E+00
 -1      2963 2.80350E+01 9.20225E+00 0.00000E+00
 -1      2964 7.85850E+00 3.92077E+01 0.00000E+00
 -1      2965 9.09300E+00 1.68813E+01 0.00000E+00
 -1      2966 9.09300E+00 1.83563E+01 0.00000E+00
 -1      2967 1.03920E+01 1.90812E+01 0.00000E+00
 -1      2968 1.03920E+01 1.61437E+01 0.00000E+00
 -1      2969 9.09300E+00 3.15875E+01 0.00000E+00
 -1      2970 9.09300E+00 3.30625E+01 0.00000E+00
 -1      2971 1.03811E+02 1.87319E+01 0.00000E+00
 -1      2972 1.03817E+02 1.99044E+01 0.00000E+00
 -1      2973 1.52850E+01 7.90325E+00 0.00000E+00
 -1      2974 1.37850E+01 7.90325E+00 0.00000E+00
 -1      2975 1.60350E+01 9.20225E+00 0.00000E+00
 -1      2976 8.69614E+01 3.26348E+01 0.00000E+00
 -1      2977 8.58685E+01 3.19757E+01 0.00000E+00
 -1      2978 8.01540E+01 2.38759E+01 0.00000E+00
 -1      2979 8.01750E+01 2.26566E+01 0.00000E+00
 -1      2980 8.13220E+01 1.65257E+01 0.00000E+00
 -1      2981 8.18018E+01 1.55990E+01 0.00000E+00
 -1      2982 8.09811E+01 2.67109E+01 0.00000E+00
 -1      2983 8.05236E+01 2.55306E+01 0.00000E+00
 -1      2984 8.03361E+01 2.77384E+01 0.00000E+00
 -1      2985 9.45959E+01 3.32751E+01 0.00000E+00
 -1      2986 9.34004E+01 3.33102E+01 0.00000E+00
 -1      2987 8.91309E+01 3.37718E+01 0.00000E+00
 -1      2988 8.80944E+01 3.32585E+01 0.00000E+00
 -1      2989 1.00999E+02 2.92339E+01 0.00000E+00
 -1      2990 1.00276E+02 3.01073E+01 0.00000E+00
 -1      2991 9.94272E+01 3.10166E+01 0.00000E+00
 -1      2992 9.85902E+01 3.18164E+01 0.00000E+00
 -1      2993 9.93300E+01 1.21262E+01 0.00000E+00
 -1      2994 1.00026E+02 1.27887E+01 0.00000E+00
 -1      2995 1.00854E+02 1.30542E+01 0.00000E+00
 -1      2996 9.97492E+01 1.06811E+01 0.00000E+00
 -1      2997 1.08743E+01 7.88444E+00 0.00000E+00
 -1      2998 9.75375E+00 9.70731E+00 0.00000E+00
 -1      2999 1.10527E+01 1.04448E+01 0.00000E+00
 -1      3000 1.23743E+01 7.88444E+00 0.00000E+00
 -1      3001 9.09300E+00 3.45313E+01 0.00000E+00
 -1      3002 9.09300E+00 3.60000E+01 0.00000E+00
 -1      3003 1.03920E+01 3.37938E+01 0.00000E+00
 -1      3004 1.03920E+01 2.49750E+01 0.00000E+00
 -1      3005 9.09300E+00 2.57000E+01 0.00000E+00
 -1      3006 9.09300E+00 2.71750E+01 0.00000E+00
 -1      3007 1.04593E+02 2.06424E+01 0.00000E+00
 -1      3008 1.01974E+02 2.92310E+01 0.00000E+00
 -1      3009 8.32701E+01 1.24051E+01 0.00000E+00
 -1      3010 9.26724E+01 3.42041E+01 0.00000E+00
 -1      3011 9.55164E+01 3.41576E+01 0.00000E+00
 -1      3012 1.02264E+02 1.53945E+01 0.00000E+00
 -1      3013 1.03255E+02 2.72002E+01 0.00000E+00
 -1      3014 8.25061E+01 1.02168E+01 0.00000E+00
 -1      3015 9.36046E+01 8.68856E+00 0.00000E+00
 -1      3016 1.00366E+02 9.34839E+00 0.00000E+00
 -1      3017 7.98818E+01 1.93981E+01 0.00000E+00
 -1      3018 7.92935E+01 1.85267E+01 0.00000E+00
 -1      3019 7.93654E+01 2.00072E+01 0.00000E+00
 -1      3020 1.41038E+02 1.15068E+01 0.00000E+00
 -1      3021 1.39870E+02 1.12261E+01 0.00000E+00
 -1      3022 1.41038E+02 1.29693E+01 0.00000E+00
 -1      3023 8.14318E+01 1.46234E+01 0.00000E+00
 -1      3024 1.00449E+02 3.11272E+01 0.00000E+00
 -1      3025 1.31243E+01 9.18344E+00 0.00000E+00
 -1      3026 8.03052E+01 1.67929E+01 0.00000E+00
 -1      3027 1.39893E+02 3.74832E+01 0.00000E+00
 -1      3028 8.97570E+01 3.42667E+01 0.00000E+00
 -1      3029 8.88210E+01 3.48537E+01 0.00000E+00
 -1      3030 9.03830E+01 3.47616E+01 0.00000E+00
 -1      3031 8.48162E+01 3.19674E+01 0.00000E+00
 -1      3032 8.37638E+01 3.19591E+01 0.00000E+00
 -1      3033 8.48764E+01 3.31030E+01 0.00000E+00
 -1      3034 8.22486E+01 2.98711E+01 0.00000E+00
 -1      3035 8.10439E+01 2.97282E+01 0.00000E+00
 -1      3036 8.24989E+01 3.06806E+01 0.00000E+00
 -1      3037 9.09300E+00 2.86437E+01 0.00000E+00
 -1      3038 9.09300E+00 3.01187E+01 0.00000E+00
 -1      3039 1.03920E+01 3.08563E+01 0.00000E+00
 -1      3040 1.03920E+01 2.79188E+01 0.00000E+00
 -1      3041 7.95466E+01 2.20636E+01 0.00000E+00
 -1      3042 1.40973E+02 1.56722E+01 0.00000E+00
 -1      3043 1.40973E+02 1.42097E+01 0.00000E+00
 -1      3044 1.39805E+02 1.39290E+01 0.00000E+00
 -1      3045 1.39674E+02 1.64097E+01 0.00000E+00
 -1      3046 7.95091E+01 2.49033E+01 0.00000E+00
 -1      3047 1.03897E+02 1.79308E+01 0.00000E+00
 -1      3048 1.04758E+02 1.85122E+01 0.00000E+00
 -1      3049 1.03983E+02 1.71297E+01 0.00000E+00
 -1      3050 9.83041E+01 3.30590E+01 0.00000E+00
 -1      3051 9.80181E+01 3.43017E+01 0.00000E+00
 -1      3052 9.93150E+01 3.32792E+01 0.00000E+00
 -1      3053 8.70618E+01 3.37350E+01 0.00000E+00
 -1      3054 8.85168E+00 4.05347E+01 0.00000E+00
 -1      3055 1.02152E+01 4.07987E+01 0.00000E+00
 -1      3056 1.09652E+01 3.94997E+01 0.00000E+00
 -1      3057 1.16910E+01 1.24625E+01 0.00000E+00
 -1      3058 1.16910E+01 1.39375E+01 0.00000E+00
 -1      3059 1.67850E+01 1.05013E+01 0.00000E+00
 -1      3060 1.52850E+01 1.05013E+01 0.00000E+00
 -1      3061 1.59000E+01 3.83090E+01 0.00000E+00
 -1      3062 1.74000E+01 3.83090E+01 0.00000E+00
 -1      3063 1.89000E+01 3.83090E+01 0.00000E+00
 -1      3064 2.04000E+01 3.83090E+01 0.00000E+00
 -1      3065 1.81500E+01 3.70100E+01 0.00000E+00
 -1      3066 2.19000E+01 3.83090E+01 0.00000E+00
 -1      3067 2.34000E+01 3.83090E+01 0.00000E+00
 -1      3068 2.11500E+01 3.70100E+01 0.00000E+00
 -1      3069 2.49000E+01 3.83090E+01 0.00000E+00
 -1      3070 2.64000E+01 3.83090E+01 0.00000E+00
 -1      3071 2.41500E+01 3.70100E+01 0.00000E+00
 -1      3072 2.79000E+01 3.83090E+01 0.00000E+00
 -1      3073 2.94000E+01 3.83090E+01 0.00000E+00
 -1      3074 2.71500E+01 3.70100E+01 0.00000E+00
 -1      3075 3.09000E+01 3.83090E+01 0.00000E+00
 -1      3076 3.24000E+01 3.83090E+01 0.00000E+00
 -1      3077 3.01500E+01 3.70100E+01 0.00000E+00
 -1      3078 3.39000E+01 3.83090E+01 0.00000E+00
 -1      3079 3.54000E+01 3.83090E+01 0.00000E+00
 -1      3080 3.31500E+01 3.70100E+01 0.00000E+00
 -1      3081 3.69000E+01 3.83090E+01 0.00000E+00
 -1      3082 3.84000E+01 3.83090E+01 0.00000E+00
 -1      3083 3.61500E+01 3.70100E+01 0.00000E+00
 -1      3084 3.99000E+01 3.83090E+01 0.00000E+00
 -1      3085 4.14000E+01 3.83090E+01 0.00000E+00
 -1      3086 3.91500E+01 3.70100E+01 0.00000E+00
 -1      3087 4.29000E+01 3.83090E+01 0.00000E+00
 -1      3088 4.44000E+01 3.83090E+01 0.00000E+00
 -1      3089 4.21500E+01 3.70100E+01 0.00000E+00
 -1      3090 4.59000E+01 3.83090E+01 0.00000E+00
 -1      3091 4.74000E+01 3.83090E+01 0.00000E+00
 -1      3092 4.51500E+01 3.70100E+01 0.00000E+00
 -1      3093 4.89000E+01 3.83090E+01 0.00000E+00
 -1      3094 5.04000E+01 3.83090E+01 0.00000E+00
 -1      3095 4.81500E+01 3.70100E+01 0.00000E+00
 -1      3096 5.19000E+01 3.83090E+01 0.00000E+00
 -1      3097 5.34000E+01 3.83090E+01 0.00000E+00
 -1      3098 5.11500E+01 3.70100E+01 0.00000E+00
 -1      3099 5.49000E+01 3.83090E+01 0.00000E+00
 -1      3100 5.64000E+01 3.83090E+01 0.00000E+00
 -1      3101 5.41500E+01 3.70100E+01 0.00000E+00
 -1      3102 5.79000E+01 3.83090E+01 0.00000E+00
 -1      3103 5.94000E+01 3.83090E+01 0.00000E+00
 -1      3104 5.71500E+01 3.70100E+01 0.00000E+00
 -1      3105 6.09000E+01 3.83090E+01 0.00000E+00
 -1      3106 6.24000E+01 3.83090E+01 0.00000E+00
 -1      3107 6.01500E+01 3.70100E+01 0.00000E+00
 -1      3108 6.39000E+01 3.83090E+01 0.00000E+00
 -1      3109 6.54000E+01 3.83090E+01 0.00000E+00
 -1      3110 6.31500E+01 3.70100E+01 0.00000E+00
 -1      3111 6.69000E+01 3.83090E+01 0.00000E+00
 -1      3112 6.84000E+01 3.83090E+01 0.00000E+00
 -1      3113 6.61500E+01 3.70100E+01 0.00000E+00
 -1      3114 6.99000E+01 3.83090E+01 0.00000E+00
 -1      3115 7.14000E+01 3.83090E+01 0.00000E+00
 -1      3116 6.91500E+01 3.70100E+01 0.00000E+00
 -1      3117 7.29000E+01 3.83090E+01 0.00000E+00
 -1      3118 7.44000E+01 3.83090E+01 0.00000E+00
 -1      3119 7.21500E+01 3.70100E+01 0.00000E+00
 -1      3120 7.59000E+01 3.83090E+01 0.00000E+00
 -1      3121 7.74000E+01 3.83090E+01 0.00000E+00
 -1      3122 7.51500E+01 3.70100E+01 0.00000E+00
 -1      3123 7.89000E+01 3.83090E+01 0.00000E+00
 -1      3124 8.04000E+01 3.83090E+01 0.00000E+00
 -1      3125 7.81500E+01 3.70100E+01 0.00000E+00
 -1      3126 8.19000E+01 3.83090E+01 0.00000E+00
 -1      3127 8.34000E+01 3.83090E+01 0.00000E+00
 -1      3128 8.11500E+01 3.70100E+01 0.00000E+00
 -1      3129 8.49000E+01 3.83090E+01 0.00000E+00
 -1      3130 8.64000E+01 3.83090E+01 0.00000E+00
 -1      3131 8.41500E+01 3.70100E+01 0.00000E+00
 -1      3132 8.82985E+01 3.74783E+01 0.00000E+00
 -1      3133 8.97985E+01 3.74783E+01 0.00000E+00
 -1      3134 9.39000E+01 3.83090E+01 0.00000E+00
 -1      3135 9.54000E+01 3.83090E+01 0.00000E+00
 -1      3136 9.99000E+01 3.83315E+01 0.00000E+00
 -1      3137 1.01400E+02 3.83315E+01 0.00000E+00
 -1      3138 1.02900E+02 3.83315E+01 0.00000E+00
 -1      3139 1.04400E+02 3.83315E+01 0.00000E+00
 -1      3140 1.02150E+02 3.70550E+01 0.00000E+00
 -1      3141 1.05900E+02 3.83315E+01 0.00000E+00
 -1      3142 1.07400E+02 3.83315E+01 0.00000E+00
 -1      3143 1.05150E+02 3.70550E+01 0.00000E+00
 -1      3144 1.08900E+02 3.83315E+01 0.00000E+00
 -1      3145 1.10400E+02 3.83315E+01 0.00000E+00
 -1      3146 1.08150E+02 3.70550E+01 0.00000E+00
 -1      3147 1.11900E+02 3.83315E+01 0.00000E+00
 -1      3148 1.13400E+02 3.83315E+01 0.00000E+00
 -1      3149 1.11150E+02 3.70550E+01 0.00000E+00
 -1      3150 1.14900E+02 3.83315E+01 0.00000E+00
 -1      3151 1.16400E+02 3.83315E+01 0.00000E+00
 -1      3152 1.14150E+02 3.70550E+01 0.00000E+00
 -1      3153 1.17900E+02 3.83315E+01 0.00000E+00
 -1      3154 1.19400E+02 3.83315E+01 0.00000E+00
 -1      3155 1.17150E+02 3.70550E+01 0.00000E+00
 -1      3156 1.20900E+02 3.83315E+01 0.00000E+00
 -1      3157 1.22400E+02 3.83315E+01 0.00000E+00
 -1      3158 1.20150E+02 3.70550E+01 0.00000E+00
 -1      3159 1.23900E+02 3.83315E+01 0.00000E+00
 -1      3160 1.25400E+02 3.83315E+01 0.00000E+00
 -1      3161 1.23150E+02 3.70550E+01 0.00000E+00
 -1      3162 1.26900E+02 3.83315E+01 0.00000E+00
 -1      3163 1.28400E+02 3.83315E+01 0.00000E+00
 -1      3164 1.26150E+02 3.70550E+01 0.00000E+00
 -1      3165 1.29900E+02 3.83315E+01 0.00000E+00
 -1      3166 1.31400E+02 3.83315E+01 0.00000E+00
 -1      3167 1.29150E+02 3.70550E+01 0.00000E+00
 -1      3168 1.32900E+02 3.83315E+01 0.00000E+00
 -1      3169 1.34400E+02 3.83315E+01 0.00000E+00
 -1      3170 1.32150E+02 3.70550E+01 0.00000E+00
 -1      3171 2.27850E+01 1.05013E+01 0.00000E+00
 -1      3172 2.12850E+01 1.05013E+01 0.00000E+00
 -1      3173 3.47850E+01 1.05013E+01 0.00000E+00
 -1      3174 3.32850E+01 1.05013E+01 0.00000E+00
 -1      3175 3.17850E+01 1.05013E+01 0.00000E+00
 -1      3176 3.02850E+01 1.05013E+01 0.00000E+00
 -1      3177 3.25350E+01 1.18003E+01 0.00000E+00
 -1      3178 4.07850E+01 1.05013E+01 0.00000E+00
 -1      3179 3.92850E+01 1.05013E+01 0.00000E+00
 -1      3180 4.37850E+01 1.05013E+01 0.00000E+00
 -1      3181 4.22850E+01 1.05013E+01 0.00000E+00
 -1      3182 4.15350E+01 1.18003E+01 0.00000E+00
 -1      3183 4.67850E+01 1.05013E+01 0.00000E+00
 -1      3184 4.52850E+01 1.05013E+01 0.00000E+00
 -1      3185 4.45350E+01 1.18003E+01 0.00000E+00
 -1      3186 4.97850E+01 1.05013E+01 0.00000E+00
 -1      3187 4.82850E+01 1.05013E+01 0.00000E+00
 -1      3188 4.75350E+01 1.18003E+01 0.00000E+00
 -1      3189 5.27850E+01 1.05013E+01 0.00000E+00
 -1      3190 5.12850E+01 1.05013E+01 0.00000E+00
 -1      3191 5.05350E+01 1.18003E+01 0.00000E+00
 -1      3192 5.57850E+01 1.05013E+01 0.00000E+00
 -1      3193 5.42850E+01 1.05013E+01 0.00000E+00
 -1      3194 5.35350E+01 1.18003E+01 0.00000E+00
 -1      3195 5.87850E+01 1.05013E+01 0.00000E+00
 -1      3196 5.72850E+01 1.05013E+01 0.00000E+00
 -1      3197 5.65350E+01 1.18003E+01 0.00000E+00
 -1      3198 6.17850E+01 1.05013E+01 0.00000E+00
 -1      3199 6.02850E+01 1.05013E+01 0.00000E+00
 -1      3200 5.95350E+01 1.18003E+01 0.00000E+00
 -1      3201 6.47850E+01 1.05013E+01 0.00000E+00
 -1      3202 6.32850E+01 1.05013E+01 0.00000E+00
 -1      3203 6.25350E+01 1.18003E+01 0.00000E+00
 -1      3204 6.77850E+01 1.05013E+01 0.00000E+00
 -1      3205 6.62850E+01 1.05013E+01 0.00000E+00
 -1      3206 6.55350E+01 1.18003E+01 0.00000E+00
 -1      3207 7.07850E+01 1.05013E+01 0.00000E+00
 -1      3208 6.92850E+01 1.05013E+01 0.00000E+00
 -1      3209 6.85350E+01 1.18003E+01 0.00000E+00
 -1      3210 7.37850E+01 1.05013E+01 0.00000E+00
 -1      3211 7.22850E+01 1.05013E+01 0.00000E+00
 -1      3212 7.15350E+01 1.18003E+01 0.00000E+00
 -1      3213 7.67850E+01 1.05013E+01 0.00000E+00
 -1      3214 7.52850E+01 1.05013E+01 0.00000E+00
 -1      3215 7.45350E+01 1.18003E+01 0.00000E+00
 -1      3216 7.97850E+01 1.05013E+01 0.00000E+00
 -1      3217 7.82850E+01 1.05013E+01 0.00000E+00
 -1      3218 7.75350E+01 1.18003E+01 0.00000E+00
 -1      3219 8.57464E+01 9.02829E+00 0.00000E+00
 -1      3220 9.08958E+01 8.43120E+00 0.00000E+00
 -1      3221 1.12785E+02 1.05013E+01 0.00000E+00
 -1      3222 1.11285E+02 1.05013E+01 0.00000E+00
 -1      3223 1.15785E+02 1.05013E+01 0.00000E+00
 -1      3224 1.14285E+02 1.05013E+01 0.00000E+00
 -1      3225 1.13535E+02 1.18003E+01 0.00000E+00
 -1      3226 1.18785E+02 1.05013E+01 0.00000E+00
 -1      3227 1.17285E+02 1.05013E+01 0.00000E+00
 -1      3228 1.16535E+02 1.18003E+01 0.00000E+00
 -1      3229 1.21785E+02 1.05013E+01 0.00000E+00
 -1      3230 1.20285E+02 1.05013E+01 0.00000E+00
 -1      3231 1.19535E+02 1.18003E+01 0.00000E+00
 -1      3232 1.24785E+02 1.05013E+01 0.00000E+00
 -1      3233 1.23285E+02 1.05013E+01 0.00000E+00
 -1      3234 1.22535E+02 1.18003E+01 0.00000E+00
 -1      3235 1.27785E+02 1.05013E+01 0.00000E+00
 -1      3236 1.26285E+02 1.05013E+01 0.00000E+00
 -1      3237 1.25535E+02 1.18003E+01 0.00000E+00
 -1      3238 1.30785E+02 1.05013E+01 0.00000E+00
 -1      3239 1.29285E+02 1.05013E+01 0.00000E+00
 -1      3240 1.28535E+02 1.18003E+01 0.00000E+00
 -1      3241 1.33785E+02 1.05013E+01 0.00000E+00
 -1      3242 1.32285E+02 1.05013E+01 0.00000E+00
 -1      3243 1.31535E+02 1.18003E+01 0.00000E+00
 -1      3244 1.36785E+02 1.05013E+01 0.00000E+00
 -1      3245 1.35285E+02 1.05013E+01 0.00000E+00
 -1      3246 1.34535E+02 1.18003E+01 0.00000E+00
 -1      3247 1.38912E+02 1.10040E+01 0.00000E+00
 -1      3248 1.37744E+02 1.07233E+01 0.00000E+00
 -1      3249 1.36994E+02 1.20223E+01 0.00000E+00
 -1      3250 1.38912E+02 1.24665E+01 0.00000E+00
 -1      3251 1.38309E+02 2.86750E+01 0.00000E+00
 -1      3252 1.38309E+02 2.72250E+01 0.00000E+00
 -1      3253 7.87751E+01 2.59359E+01 0.00000E+00
 -1      3254 7.84056E+01 2.42811E+01 0.00000E+00
 -1      3255 7.83736E+01 2.23231E+01 0.00000E+00
 -1      3256 7.87806E+01 2.11381E+01 0.00000E+00
 -1      3257 1.38309E+02 2.57500E+01 0.00000E+00
 -1      3258 1.38309E+02 2.42750E+01 0.00000E+00
 -1      3259 1.37010E+02 2.64750E+01 0.00000E+00
 -1      3260 8.03822E+01 1.47021E+01 0.00000E+00
 -1      3261 8.10135E+01 1.36575E+01 0.00000E+00
 -1      3262 1.97850E+01 1.05013E+01 0.00000E+00
 -1      3263 1.82850E+01 1.05013E+01 0.00000E+00
 -1      3264 1.75350E+01 1.18003E+01 0.00000E+00
 -1      3265 2.05350E+01 1.18003E+01 0.00000E+00
 -1      3266 8.12991E+01 1.13905E+01 0.00000E+00
 -1      3267 1.00918E+02 1.05349E+01 0.00000E+00
 -1      3268 9.33231E+01 3.54113E+01 0.00000E+00
 -1      3269 9.19697E+01 3.53818E+01 0.00000E+00
 -1      3270 1.38309E+02 3.16250E+01 0.00000E+00
 -1      3271 1.38309E+02 3.01500E+01 0.00000E+00
 -1      3272 1.37010E+02 2.94250E+01 0.00000E+00
 -1      3273 1.38309E+02 3.45750E+01 0.00000E+00
 -1      3274 1.38309E+02 3.31000E+01 0.00000E+00
 -1      3275 1.37010E+02 3.23750E+01 0.00000E+00
 -1      3276 1.09785E+02 1.05013E+01 0.00000E+00
 -1      3277 1.08285E+02 1.05013E+01 0.00000E+00
 -1      3278 1.10535E+02 1.18003E+01 0.00000E+00
 -1      3279 9.58286E+01 3.55458E+01 0.00000E+00
 -1      3280 9.43379E+01 3.56218E+01 0.00000E+00
 -1      3281 1.27380E+01 1.01829E+01 0.00000E+00
 -1      3282 1.20772E+01 1.14631E+01 0.00000E+00
 -1      3283 1.33763E+01 1.22006E+01 0.00000E+00
 -1      3284 1.41488E+01 1.02017E+01 0.00000E+00
 -1      3285 1.06785E+02 1.05013E+01 0.00000E+00
 -1      3286 1.05285E+02 1.05013E+01 0.00000E+00
 -1      3287 1.07535E+02 1.18003E+01 0.00000E+00
 -1      3288 7.96091E+01 2.86990E+01 0.00000E+00
 -1      3289 7.91516E+01 2.75187E+01 0.00000E+00
 -1      3290 3.77850E+01 1.05013E+01 0.00000E+00
 -1      3291 3.62850E+01 1.05013E+01 0.00000E+00
 -1      3292 3.55350E+01 1.18003E+01 0.00000E+00
 -1      3293 3.85350E+01 1.18003E+01 0.00000E+00
 -1      3294 1.38758E+02 3.82051E+01 0.00000E+00
 -1      3295 1.38473E+02 3.60218E+01 0.00000E+00
 -1      3296 1.37173E+02 3.52968E+01 0.00000E+00
 -1      3297 1.37501E+02 3.81904E+01 0.00000E+00
 -1      3298 1.04299E+02 2.71078E+01 0.00000E+00
 -1      3299 1.03695E+02 2.81517E+01 0.00000E+00
 -1      3300 1.05488E+02 2.00285E+01 0.00000E+00
 -1      3301 1.05410E+02 2.13577E+01 0.00000E+00
 -1      3302 1.29000E+01 3.83090E+01 0.00000E+00
 -1      3303 1.44000E+01 3.83090E+01 0.00000E+00
 -1      3304 1.51500E+01 3.70100E+01 0.00000E+00
 -1      3305 1.16910E+01 2.12875E+01 0.00000E+00
 -1      3306 1.16910E+01 2.27625E+01 0.00000E+00
 -1      3307 1.03089E+02 2.92699E+01 0.00000E+00
 -1      3308 1.02412E+02 3.02567E+01 0.00000E+00
 -1      3309 7.92727E+01 1.70097E+01 0.00000E+00
 -1      3310 7.97679E+01 1.58849E+01 0.00000E+00
 -1      3311 8.78718E+00 3.80644E+01 0.00000E+00
 -1      3312 1.01684E+02 3.14289E+01 0.00000E+00
 -1      3313 1.00836E+02 3.23383E+01 0.00000E+00
 -1      3314 1.02802E+02 1.40994E+01 0.00000E+00
 -1      3315 1.03659E+02 1.52532E+01 0.00000E+00
 -1      3316 8.71340E+01 3.49449E+01 0.00000E+00
 -1      3317 8.60010E+01 3.43212E+01 0.00000E+00
 -1      3318 1.00862E+01 3.73269E+01 0.00000E+00
 -1      3319 1.16910E+01 2.42375E+01 0.00000E+00
 -1      3320 1.16910E+01 2.57125E+01 0.00000E+00
 -1      3321 1.29900E+01 2.35000E+01 0.00000E+00
 -1      3322 2.57850E+01 1.05013E+01 0.00000E+00
 -1      3323 2.42850E+01 1.05013E+01 0.00000E+00
 -1      3324 2.35350E+01 1.18003E+01 0.00000E+00
 -1      3325 1.48988E+01 1.15007E+01 0.00000E+00
 -1      3326 1.29900E+01 1.46687E+01 0.00000E+00
 -1      3327 1.16910E+01 1.54063E+01 0.00000E+00
 -1      3328 1.16910E+01 1.68750E+01 0.00000E+00
 -1      3329 9.63643E+01 3.69274E+01 0.00000E+00
 -1      3330 9.71143E+01 3.82264E+01 0.00000E+00
 -1      3331 9.86143E+01 3.82264E+01 0.00000E+00
 -1      3332 9.75428E+01 3.54632E+01 0.00000E+00
 -1      3333 9.09000E+01 3.83090E+01 0.00000E+00
 -1      3334 9.24000E+01 3.83090E+01 0.00000E+00
 -1      3335 8.05491E+01 1.26895E+01 0.00000E+00
 -1      3336 1.36243E+02 3.81758E+01 0.00000E+00
 -1      3337 2.95350E+01 1.18003E+01 0.00000E+00
 -1      3338 2.87850E+01 1.05013E+01 0.00000E+00
 -1      3339 2.72850E+01 1.05013E+01 0.00000E+00
 -1      3340 1.35493E+02 3.68993E+01 0.00000E+00
 -1      3341 7.87563E+01 1.76188E+01 0.00000E+00
 -1      3342 7.82190E+01 1.67108E+01 0.00000E+00
 -1      3343 7.82399E+01 1.82278E+01 0.00000E+00
 -1      3344 7.81923E+01 2.02667E+01 0.00000E+00
 -1      3345 1.05212E+02 2.47603E+01 0.00000E+00
 -1      3346 1.05048E+02 2.58065E+01 0.00000E+00
 -1      3347 1.03785E+02 1.05013E+01 0.00000E+00
 -1      3348 1.02285E+02 1.05013E+01 0.00000E+00
 -1      3349 7.80481E+01 2.68965E+01 0.00000E+00
 -1      3350 1.38309E+02 1.98625E+01 0.00000E+00
 -1      3351 1.38309E+02 1.83875E+01 0.00000E+00
 -1      3352 9.10338E+01 3.59688E+01 0.00000E+00
 -1      3353 7.69057E+01 2.43881E+01 0.00000E+00
 -1      3354 7.76396E+01 2.33556E+01 0.00000E+00
 -1      3355 7.68736E+01 2.24301E+01 0.00000E+00
 -1      3356 1.05488E+02 2.67580E+01 0.00000E+00
 -1      3357 7.93497E+01 1.49190E+01 0.00000E+00
 -1      3358 1.38309E+02 2.28062E+01 0.00000E+00
 -1      3359 1.38309E+02 2.13312E+01 0.00000E+00
 -1      3360 1.37010E+02 2.05938E+01 0.00000E+00
 -1      3361 1.37010E+02 2.35313E+01 0.00000E+00
 -1      3362 1.04133E+02 2.91774E+01 0.00000E+00
 -1      3363 1.37076E+02 1.78847E+01 0.00000E+00
 -1      3364 1.38375E+02 1.71472E+01 0.00000E+00
 -1      3365 1.38440E+02 1.59068E+01 0.00000E+00
 -1      3366 1.01668E+02 1.18339E+01 0.00000E+00
 -1      3367 8.49486E+01 3.43130E+01 0.00000E+00
 -1      3368 8.25591E+01 3.18162E+01 0.00000E+00
 -1      3369 8.13545E+01 3.16733E+01 0.00000E+00
 -1      3370 8.26194E+01 3.29519E+01 0.00000E+00
 -1      3371 8.01096E+01 3.03180E+01 0.00000E+00
 -1      3372 7.98594E+01 2.95085E+01 0.00000E+00
 -1      3373 7.86748E+01 2.92889E+01 0.00000E+00
 -1      3374 9.93643E+01 3.69499E+01 0.00000E+00
 -1      3375 9.36352E+01 3.67995E+01 0.00000E+00
 -1      3376 1.02221E+02 1.30205E+01 0.00000E+00
 -1      3377 1.03616E+02 1.28791E+01 0.00000E+00
 -1      3378 1.16910E+01 1.83469E+01 0.00000E+00
 -1      3379 1.16910E+01 1.98156E+01 0.00000E+00
 -1      3380 1.29900E+01 2.05531E+01 0.00000E+00
 -1      3381 1.29900E+01 1.76094E+01 0.00000E+00
 -1      3382 1.05574E+02 1.92274E+01 0.00000E+00
 -1      3383 1.06391E+02 1.99427E+01 0.00000E+00
 -1      3384 1.05660E+02 1.84263E+01 0.00000E+00
 -1      3385 1.04520E+02 1.58345E+01 0.00000E+00
 -1      3386 1.05381E+02 1.64159E+01 0.00000E+00
 -1      3387 1.05058E+02 1.45394E+01 0.00000E+00
 -1      3388 1.06342E+02 2.17580E+01 0.00000E+00
 -1      3389 1.05447E+02 2.23719E+01 0.00000E+00
 -1      3390 1.00550E+02 3.35809E+01 0.00000E+00
 -1      3391 1.05283E+02 2.34181E+01 0.00000E+00
 -1      3392 1.16910E+01 3.30594E+01 0.00000E+00
 -1      3393 1.16910E+01 3.45281E+01 0.00000E+00
 -1      3394 1.02799E+02 3.14678E+01 0.00000E+00
 -1      3395 1.12710E+01 3.74352E+01 0.00000E+00
 -1      3396 1.16910E+01 3.01219E+01 0.00000E+00
 -1      3397 1.16910E+01 3.15906E+01 0.00000E+00
 -1      3398 1.29900E+01 3.23250E+01 0.00000E+00
 -1      3399 1.04535E+02 1.18003E+01 0.00000E+00
 -1      3400 9.85538E+01 3.56833E+01 0.00000E+00
 -1      3401 1.20210E+01 3.61362E+01 0.00000E+00
 -1      3402 1.33200E+01 3.54019E+01 0.00000E+00
 -1      3403 8.75485E+01 3.61793E+01 0.00000E+00
 -1      3404 2.04000E+01 3.57110E+01 0.00000E+00
 -1      3405 2.19000E+01 3.57110E+01 0.00000E+00
 -1      3406 2.34000E+01 3.57110E+01 0.00000E+00
 -1      3407 2.49000E+01 3.57110E+01 0.00000E+00
 -1      3408 2.26500E+01 3.44120E+01 0.00000E+00
 -1      3409 2.64000E+01 3.57110E+01 0.00000E+00
 -1      3410 2.79000E+01 3.57110E+01 0.00000E+00
 -1      3411 2.56500E+01 3.44120E+01 0.00000E+00
 -1      3412 2.94000E+01 3.57110E+01 0.00000E+00
 -1      3413 3.09000E+01 3.57110E+01 0.00000E+00
 -1      3414 2.86500E+01 3.44120E+01 0.00000E+00
 -1      3415 3.24000E+01 3.57110E+01 0.00000E+00
 -1      3416 3.39000E+01 3.57110E+01 0.00000E+00
 -1      3417 3.16500E+01 3.44120E+01 0.00000E+00
 -1      3418 3.54000E+01 3.57110E+01 0.00000E+00
 -1      3419 3.69000E+01 3.57110E+01 0.00000E+00
 -1      3420 3.46500E+01 3.44120E+01 0.00000E+00
 -1      3421 3.84000E+01 3.57110E+01 0.00000E+00
 -1      3422 3.99000E+01 3.57110E+01 0.00000E+00
 -1      3423 3.76500E+01 3.44120E+01 0.00000E+00
 -1      3424 4.14000E+01 3.57110E+01 0.00000E+00
 -1      3425 4.29000E+01 3.57110E+01 0.00000E+00
 -1      3426 4.06500E+01 3.44120E+01 0.00000E+00
 -1      3427 4.44000E+01 3.57110E+01 0.00000E+00
 -1      3428 4.59000E+01 3.57110E+01 0.00000E+00
 -1      3429 4.36500E+01 3.44120E+01 0.00000E+00
 -1      3430 4.74000E+01 3.57110E+01 0.00000E+00
 -1      3431 4.89000E+01 3.57110E+01 0.00000E+00
 -1      3432 4.66500E+01 3.44120E+01 0.00000E+00
 -1      3433 5.04000E+01 3.57110E+01 0.00000E+00
 -1      3434 5.19000E+01 3.57110E+01 0.00000E+00
 -1      3435 4.96500E+01 3.44120E+01 0.00000E+00
 -1      3436 5.34000E+01 3.57110E+01 0.00000E+00
 -1      3437 5.49000E+01 3.57110E+01 0.00000E+00
 -1      3438 5.26500E+01 3.44120E+01 0.00000E+00
 -1      3439 5.64000E+01 3.57110E+01 0.00000E+00
 -1      3440 5.79000E+01 3.57110E+01 0.00000E+00
 -1      3441 5.56500E+01 3.44120E+01 0.00000E+00
 -1      3442 5.94000E+01 3.57110E+01 0.00000E+00
 -1      3443 6.09000E+01 3.57110E+01 0.00000E+00
 -1      3444 5.86500E+01 3.44120E+01 0.00000E+00
 -1      3445 6.24000E+01 3.57110E+01 0.00000E+00
 -1      3446 6.39000E+01 3.57110E+01 0.00000E+00
 -1      3447 6.16500E+01 3.44120E+01 0.00000E+00
 -1      3448 6.54000E+01 3.57110E+01 0.00000E+00
 -1      3449 6.69000E+01 3.57110E+01 0.00000E+00
 -1      3450 6.46500E+01 3.44120E+01 0.00000E+00
 -1      3451 6.84000E+01 3.57110E+01 0.00000E+00
 -1      3452 6.99000E+01 3.57110E+01 0.00000E+00
 -1      3453 6.76500E+01 3.44120E+01 0.00000E+00
 -1      3454 7.14000E+01 3.57110E+01 0.00000E+00
 -1      3455 7.29000E+01 3.57110E+01 0.00000E+00
 -1      3456 7.06500E+01 3.44120E+01 0.00000E+00
 -1      3457 7.44000E+01 3.57110E+01 0.00000E+00
 -1      3458 7.59000E+01 3.57110E+01 0.00000E+00
 -1      3459 7.36500E+01 3.44120E+01 0.00000E+00
 -1      3460 7.74000E+01 3.57110E+01 0.00000E+00
 -1      3461 7.89000E+01 3.57110E+01 0.00000E+00
 -1      3462 7.66500E+01 3.44120E+01 0.00000E+00
 -1      3463 8.05324E+01 3.49095E+01 0.00000E+00
 -1      3464 8.20324E+01 3.49095E+01 0.00000E+00
 -1      3465 1.04400E+02 3.57560E+01 0.00000E+00
 -1      3466 1.05900E+02 3.57560E+01 0.00000E+00
 -1      3467 1.07400E+02 3.57560E+01 0.00000E+00
 -1      3468 1.08900E+02 3.57560E+01 0.00000E+00
 -1      3469 1.06650E+02 3.44570E+01 0.00000E+00
 -1      3470 1.10400E+02 3.57560E+01 0.00000E+00
 -1      3471 1.11900E+02 3.57560E+01 0.00000E+00
 -1      3472 1.09650E+02 3.44570E+01 0.00000E+00
 -1      3473 1.13400E+02 3.57560E+01 0.00000E+00
 -1      3474 1.14900E+02 3.57560E+01 0.00000E+00
 -1      3475 1.12650E+02 3.44570E+01 0.00000E+00
 -1      3476 1.16400E+02 3.57560E+01 0.00000E+00
 -1      3477 1.17900E+02 3.57560E+01 0.00000E+00
 -1      3478 1.15650E+02 3.44570E+01 0.00000E+00
 -1      3479 1.19400E+02 3.57560E+01 0.00000E+00
 -1      3480 1.20900E+02 3.57560E+01 0.00000E+00
 -1      3481 1.18650E+02 3.44570E+01 0.00000E+00
 -1      3482 1.22400E+02 3.57560E+01 0.00000E+00
 -1      3483 1.23900E+02 3.57560E+01 0.00000E+00
 -1      3484 1.21650E+02 3.44570E+01 0.00000E+00
 -1      3485 1.25400E+02 3.57560E+01 0.00000E+00
 -1      3486 1.26900E+02 3.57560E+01 0.00000E+00
 -1      3487 1.24650E+02 3.44570E+01 0.00000E+00
 -1      3488 1.28400E+02 3.57560E+01 0.00000E+00
 -1      3489 1.29900E+02 3.57560E+01 0.00000E+00
 -1      3490 1.27650E+02 3.44570E+01 0.00000E+00
 -1      3491 1.31400E+02 3.57560E+01 0.00000E+00
 -1      3492 1.32900E+02 3.57560E+01 0.00000E+00
 -1      3493 1.30650E+02 3.44570E+01 0.00000E+00
 -1      3494 1.56488E+01 1.27997E+01 0.00000E+00
 -1      3495 1.45125E+01 1.25001E+01 0.00000E+00
 -1      3496 1.41263E+01 1.34996E+01 0.00000E+00
 -1      3497 1.35330E+02 3.54525E+01 0.00000E+00
 -1      3498 4.52850E+01 1.30992E+01 0.00000E+00
 -1      3499 4.37850E+01 1.30992E+01 0.00000E+00
 -1      3500 4.22850E+01 1.30992E+01 0.00000E+00
 -1      3501 4.07850E+01 1.30992E+01 0.00000E+00
 -1      3502 4.30350E+01 1.43982E+01 0.00000E+00
 -1      3503 5.12850E+01 1.30992E+01 0.00000E+00
 -1      3504 4.97850E+01 1.30992E+01 0.00000E+00
 -1      3505 5.42850E+01 1.30992E+01 0.00000E+00
 -1      3506 5.27850E+01 1.30992E+01 0.00000E+00
 -1      3507 5.20350E+01 1.43982E+01 0.00000E+00
 -1      3508 5.72850E+01 1.30992E+01 0.00000E+00
 -1      3509 5.57850E+01 1.30992E+01 0.00000E+00
 -1      3510 5.50350E+01 1.43982E+01 0.00000E+00
 -1      3511 6.02850E+01 1.30992E+01 0.00000E+00
 -1      3512 5.87850E+01 1.30992E+01 0.00000E+00
 -1      3513 5.80350E+01 1.43982E+01 0.00000E+00
 -1      3514 6.32850E+01 1.30992E+01 0.00000E+00
 -1      3515 6.17850E+01 1.30992E+01 0.00000E+00
 -1      3516 6.10350E+01 1.43982E+01 0.00000E+00
 -1      3517 6.62850E+01 1.30992E+01 0.00000E+00
 -1      3518 6.47850E+01 1.30992E+01 0.00000E+00
 -1      3519 6.40350E+01 1.43982E+01 0.00000E+00
 -1      3520 6.92850E+01 1.30992E+01 0.00000E+00
 -1      3521 6.77850E+01 1.30992E+01 0.00000E+00
 -1      3522 6.70350E+01 1.43982E+01 0.00000E+00
 -1      3523 7.22850E+01 1.30992E+01 0.00000E+00
 -1      3524 7.07850E+01 1.30992E+01 0.00000E+00
 -1      3525 7.00350E+01 1.43982E+01 0.00000E+00
 -1      3526 7.52850E+01 1.30992E+01 0.00000E+00
 -1      3527 7.37850E+01 1.30992E+01 0.00000E+00
 -1      3528 7.30350E+01 1.43982E+01 0.00000E+00
 -1      3529 1.35711E+02 2.72125E+01 0.00000E+00
 -1      3530 1.35711E+02 2.57375E+01 0.00000E+00
 -1      3531 1.20285E+02 1.30992E+01 0.00000E+00
 -1      3532 1.18785E+02 1.30992E+01 0.00000E+00
 -1      3533 1.17285E+02 1.30992E+01 0.00000E+00
 -1      3534 1.15785E+02 1.30992E+01 0.00000E+00
 -1      3535 1.18035E+02 1.43982E+01 0.00000E+00
 -1      3536 1.06308E+02 2.41145E+01 0.00000E+00
 -1      3537 7.69944E+01 2.79833E+01 0.00000E+00
 -1      3538 7.66180E+01 2.64004E+01 0.00000E+00
 -1      3539 1.14285E+02 1.30992E+01 0.00000E+00
 -1      3540 1.12785E+02 1.30992E+01 0.00000E+00
 -1      3541 1.15035E+02 1.43982E+01 0.00000E+00
 -1      3542 1.23285E+02 1.30992E+01 0.00000E+00
 -1      3543 1.21785E+02 1.30992E+01 0.00000E+00
 -1      3544 1.21035E+02 1.43982E+01 0.00000E+00
 -1      3545 1.26285E+02 1.30992E+01 0.00000E+00
 -1      3546 1.24785E+02 1.30992E+01 0.00000E+00
 -1      3547 1.24035E+02 1.43982E+01 0.00000E+00
 -1      3548 1.29285E+02 1.30992E+01 0.00000E+00
 -1      3549 1.27785E+02 1.30992E+01 0.00000E+00
 -1      3550 1.27035E+02 1.43982E+01 0.00000E+00
 -1      3551 1.32285E+02 1.30992E+01 0.00000E+00
 -1      3552 1.30785E+02 1.30992E+01 0.00000E+00
 -1      3553 1.30035E+02 1.43982E+01 0.00000E+00
 -1      3554 1.35285E+02 1.30992E+01 0.00000E+00
 -1      3555 1.33785E+02 1.30992E+01 0.00000E+00
 -1      3556 1.33035E+02 1.43982E+01 0.00000E+00
 -1      3557 1.35711E+02 3.31125E+01 0.00000E+00
 -1      3558 1.35711E+02 3.16375E+01 0.00000E+00
 -1      3559 1.05485E+02 2.91868E+01 0.00000E+00
 -1      3560 1.04879E+02 3.03050E+01 0.00000E+00
 -1      3561 4.82850E+01 1.30992E+01 0.00000E+00
 -1      3562 4.67850E+01 1.30992E+01 0.00000E+00
 -1      3563 4.60350E+01 1.43982E+01 0.00000E+00
 -1      3564 4.90350E+01 1.43982E+01 0.00000E+00
 -1      3565 3.32850E+01 1.30992E+01 0.00000E+00
 -1      3566 3.17850E+01 1.30992E+01 0.00000E+00
 -1      3567 1.16910E+01 2.71844E+01 0.00000E+00
 -1      3568 1.16910E+01 2.86531E+01 0.00000E+00
 -1      3569 1.29900E+01 2.93875E+01 0.00000E+00
 -1      3570 9.98395E+01 3.57885E+01 0.00000E+00
 -1      3571 1.35711E+02 3.01625E+01 0.00000E+00
 -1      3572 1.35711E+02 2.86875E+01 0.00000E+00
 -1      3573 1.34412E+02 2.79500E+01 0.00000E+00
 -1      3574 1.34412E+02 3.09000E+01 0.00000E+00
 -1      3575 7.82072E+01 1.50765E+01 0.00000E+00
 -1      3576 7.88214E+01 1.38938E+01 0.00000E+00
 -1      3577 1.11285E+02 1.30992E+01 0.00000E+00
 -1      3578 1.09785E+02 1.30992E+01 0.00000E+00
 -1      3579 1.12035E+02 1.43982E+01 0.00000E+00
 -1      3580 1.44900E+01 3.37938E+01 0.00000E+00
 -1      3581 1.48200E+01 3.54019E+01 0.00000E+00
 -1      3582 1.63200E+01 3.54019E+01 0.00000E+00
 -1      3583 1.76100E+01 3.55564E+01 0.00000E+00
 -1      3584 1.91100E+01 3.55564E+01 0.00000E+00
 -1      3585 1.98600E+01 3.42574E+01 0.00000E+00
 -1      3586 1.72800E+01 3.39483E+01 0.00000E+00
 -1      3587 1.07264E+02 2.12164E+01 0.00000E+00
 -1      3588 1.07302E+02 2.22306E+01 0.00000E+00
 -1      3589 1.01361E+02 3.48475E+01 0.00000E+00
 -1      3590 1.05116E+02 1.28791E+01 0.00000E+00
 -1      3591 1.04034E+02 3.14225E+01 0.00000E+00
 -1      3592 1.03306E+02 3.25947E+01 0.00000E+00
 -1      3593 1.06982E+02 2.65842E+01 0.00000E+00
 -1      3594 1.06233E+02 2.78855E+01 0.00000E+00
 -1      3595 1.06979E+02 2.90131E+01 0.00000E+00
 -1      3596 1.38643E+02 1.48068E+01 0.00000E+00
 -1      3597 1.38709E+02 1.35665E+01 0.00000E+00
 -1      3598 1.37750E+02 1.33444E+01 0.00000E+00
 -1      3599 1.37344E+02 1.55443E+01 0.00000E+00
 -1      3600 9.28852E+01 3.80985E+01 0.00000E+00
 -1      3601 1.05977E+02 1.34605E+01 0.00000E+00
 -1      3602 1.08631E+02 1.32799E+01 0.00000E+00
 -1      3603 1.07131E+02 1.32799E+01 0.00000E+00
 -1      3604 1.07073E+02 1.49401E+01 0.00000E+00
 -1      3605 1.09381E+02 1.45789E+01 0.00000E+00
 -1      3606 7.70703E+01 2.04896E+01 0.00000E+00
 -1      3607 7.76551E+01 1.93587E+01 0.00000E+00
 -1      3608 7.71179E+01 1.84507E+01 0.00000E+00
 -1      3609 1.07230E+02 2.35729E+01 0.00000E+00
 -1      3610 1.07159E+02 2.49151E+01 0.00000E+00
 -1      3611 1.08152E+02 2.30312E+01 0.00000E+00
 -1      3612 1.02861E+02 3.48475E+01 0.00000E+00
 -1      3613 2.65350E+01 1.18003E+01 0.00000E+00
 -1      3614 1.41263E+01 1.49683E+01 0.00000E+00
 -1      3615 1.29900E+01 2.64469E+01 0.00000E+00
 -1      3616 1.07350E+02 2.04153E+01 0.00000E+00
 -1      3617 1.08310E+02 2.08879E+01 0.00000E+00
 -1      3618 1.07436E+02 1.96142E+01 0.00000E+00
 -1      3619 7.97824E+01 3.36105E+01 0.00000E+00
 -1      3620 8.32370E+01 3.50524E+01 0.00000E+00
 -1      3621 7.94995E+01 1.27683E+01 0.00000E+00
 -1      3622 7.71744E+01 1.62946E+01 0.00000E+00
 -1      3623 7.76908E+01 1.56856E+01 0.00000E+00
 -1      3624 7.71625E+01 1.46603E+01 0.00000E+00
 -1      3625 1.71488E+01 1.27997E+01 0.00000E+00
 -1      3626 1.67625E+01 1.37991E+01 0.00000E+00
 -1      3627 1.86488E+01 1.27997E+01 0.00000E+00
 -1      3628 3.02850E+01 1.30992E+01 0.00000E+00
 -1      3629 2.87850E+01 1.30992E+01 0.00000E+00
 -1      3630 3.10350E+01 1.43982E+01 0.00000E+00
 -1      3631 3.47850E+01 1.30992E+01 0.00000E+00
 -1      3632 3.40350E+01 1.43982E+01 0.00000E+00
 -1      3633 3.62850E+01 1.30992E+01 0.00000E+00
 -1      3634 4.00350E+01 1.43982E+01 0.00000E+00
 -1      3635 3.92850E+01 1.30992E+01 0.00000E+00
 -1      3636 3.77850E+01 1.30992E+01 0.00000E+00
 -1      3637 1.34412E+02 2.50063E+01 0.00000E+00
 -1      3638 1.35711E+02 2.42687E+01 0.00000E+00
 -1      3639 1.35711E+02 2.28000E+01 0.00000E+00
 -1      3640 7.68569E+01 1.29258E+01 0.00000E+00
 -1      3641 7.61069E+01 1.42248E+01 0.00000E+00
 -1      3642 7.83569E+01 1.29258E+01 0.00000E+00
 -1      3643 2.16488E+01 1.27997E+01 0.00000E+00
 -1      3644 2.01488E+01 1.27997E+01 0.00000E+00
 -1      3645 1.97625E+01 1.37991E+01 0.00000E+00
 -1      3646 1.07904E+02 2.60426E+01 0.00000E+00
 -1      3647 7.72911E+01 2.94373E+01 0.00000E+00
 -1      3648 7.58610E+01 2.89412E+01 0.00000E+00
 -1      3649 1.03611E+02 3.35485E+01 0.00000E+00
 -1      3650 1.36791E+02 1.31223E+01 0.00000E+00
 -1      3651 1.05386E+02 3.14319E+01 0.00000E+00
 -1      3652 2.46488E+01 1.27997E+01 0.00000E+00
 -1      3653 2.31488E+01 1.27997E+01 0.00000E+00
 -1      3654 2.27625E+01 1.37991E+01 0.00000E+00
 -1      3655 7.58520E+01 2.54749E+01 0.00000E+00
 -1      3656 7.50860E+01 2.45493E+01 0.00000E+00
 -1      3657 7.47984E+01 2.65616E+01 0.00000E+00
 -1      3658 7.56024E+01 2.25546E+01 0.00000E+00
 -1      3659 7.63364E+01 2.15221E+01 0.00000E+00
 -1      3660 7.57991E+01 2.06141E+01 0.00000E+00
 -1      3661 8.77601E+01 3.54399E+01 0.00000E+00
 -1      3662 1.35746E+02 1.84362E+01 0.00000E+00
 -1      3663 1.35811E+02 1.71959E+01 0.00000E+00
 -1      3664 1.36041E+02 1.44213E+01 0.00000E+00
 -1      3665 1.44900E+01 3.23250E+01 0.00000E+00
 -1      3666 1.33593E+02 3.53138E+01 0.00000E+00
 -1      3667 1.35273E+02 3.37113E+01 0.00000E+00
 -1      3668 7.75414E+01 3.02468E+01 0.00000E+00
 -1      3669 1.42890E+01 1.98172E+01 0.00000E+00
 -1      3670 1.42890E+01 2.12891E+01 0.00000E+00
 -1      3671 1.55880E+01 2.20281E+01 0.00000E+00
 -1      3672 1.42890E+01 2.27641E+01 0.00000E+00
 -1      3673 1.42890E+01 2.42391E+01 0.00000E+00
 -1      3674 1.06000E+02 1.76574E+01 0.00000E+00
 -1      3675 1.06817E+02 1.83727E+01 0.00000E+00
 -1      3676 1.07776E+02 1.88453E+01 0.00000E+00
 -1      3677 1.06538E+02 1.63623E+01 0.00000E+00
 -1      3678 1.35728E+02 2.13525E+01 0.00000E+00
 -1      3679 1.35728E+02 1.98837E+01 0.00000E+00
 -1      3680 1.34464E+02 1.91949E+01 0.00000E+00
 -1      3681 1.34429E+02 2.20900E+01 0.00000E+00
 -1      3682 7.99761E+01 3.25321E+01 0.00000E+00
 -1      3683 7.99159E+01 3.13964E+01 0.00000E+00
 -1      3684 7.87313E+01 3.11768E+01 0.00000E+00
 -1      3685 7.83438E+01 3.33336E+01 0.00000E+00
 -1      3686 2.19000E+01 3.31130E+01 0.00000E+00
 -1      3687 2.34000E+01 3.31130E+01 0.00000E+00
 -1      3688 2.49000E+01 3.31130E+01 0.00000E+00
 -1      3689 2.64000E+01 3.31130E+01 0.00000E+00
 -1      3690 2.41500E+01 3.18140E+01 0.00000E+00
 -1      3691 2.79000E+01 3.31130E+01 0.00000E+00
 -1      3692 2.94000E+01 3.31130E+01 0.00000E+00
 -1      3693 2.71500E+01 3.18140E+01 0.00000E+00
 -1      3694 3.09000E+01 3.31130E+01 0.00000E+00
 -1      3695 3.24000E+01 3.31130E+01 0.00000E+00
 -1      3696 3.01500E+01 3.18140E+01 0.00000E+00
 -1      3697 3.39000E+01 3.31130E+01 0.00000E+00
 -1      3698 3.54000E+01 3.31130E+01 0.00000E+00
 -1      3699 3.31500E+01 3.18140E+01 0.00000E+00
 -1      3700 3.69000E+01 3.31130E+01 0.00000E+00
 -1      3701 3.84000E+01 3.31130E+01 0.00000E+00
 -1      3702 3.61500E+01 3.18140E+01 0.00000E+00
 -1      3703 3.99000E+01 3.31130E+01 0.00000E+00
 -1      3704 4.14000E+01 3.31130E+01 0.00000E+00
 -1      3705 3.91500E+01 3.18140E+01 0.00000E+00
 -1      3706 4.29000E+01 3.31130E+01 0.00000E+00
 -1      3707 4.44000E+01 3.31130E+01 0.00000E+00
 -1      3708 4.21500E+01 3.18140E+01 0.00000E+00
 -1      3709 4.59000E+01 3.31130E+01 0.00000E+00
 -1      3710 4.74000E+01 3.31130E+01 0.00000E+00
 -1      3711 4.51500E+01 3.18140E+01 0.00000E+00
 -1      3712 4.89000E+01 3.31130E+01 0.00000E+00
 -1      3713 5.04000E+01 3.31130E+01 0.00000E+00
 -1      3714 4.81500E+01 3.18140E+01 0.00000E+00
 -1      3715 5.19000E+01 3.31130E+01 0.00000E+00
 -1      3716 5.34000E+01 3.31130E+01 0.00000E+00
 -1      3717 5.11500E+01 3.18140E+01 0.00000E+00
 -1      3718 5.49000E+01 3.31130E+01 0.00000E+00
 -1      3719 5.64000E+01 3.31130E+01 0.00000E+00
 -1      3720 5.41500E+01 3.18140E+01 0.00000E+00
 -1      3721 5.79000E+01 3.31130E+01 0.00000E+00
 -1      3722 5.94000E+01 3.31130E+01 0.00000E+00
 -1      3723 5.71500E+01 3.18140E+01 0.00000E+00
 -1      3724 6.09000E+01 3.31130E+01 0.00000E+00
 -1      3725 6.24000E+01 3.31130E+01 0.00000E+00
 -1      3726 6.01500E+01 3.18140E+01 0.00000E+00
 -1      3727 6.39000E+01 3.31130E+01 0.00000E+00
 -1      3728 6.54000E+01 3.31130E+01 0.00000E+00
 -1      3729 6.31500E+01 3.18140E+01 0.00000E+00
 -1      3730 6.69000E+01 3.31130E+01 0.00000E+00
 -1      3731 6.84000E+01 3.31130E+01 0.00000E+00
 -1      3732 6.61500E+01 3.18140E+01 0.00000E+00
 -1      3733 6.99000E+01 3.31130E+01 0.00000E+00
 -1      3734 7.14000E+01 3.31130E+01 0.00000E+00
 -1      3735 6.91500E+01 3.18140E+01 0.00000E+00
 -1      3736 7.29000E+01 3.31130E+01 0.00000E+00
 -1      3737 7.44000E+01 3.31130E+01 0.00000E+00
 -1      3738 7.21500E+01 3.18140E+01 0.00000E+00
 -1      3739 7.56219E+01 3.32233E+01 0.00000E+00
 -1      3740 7.71219E+01 3.32233E+01 0.00000E+00
 -1      3741 7.73156E+01 3.21449E+01 0.00000E+00
 -1      3742 7.48719E+01 3.19243E+01 0.00000E+00
 -1      3743 8.43616E+01 3.62706E+01 0.00000E+00
 -1      3744 1.42890E+01 2.57109E+01 0.00000E+00
 -1      3745 1.42890E+01 2.71828E+01 0.00000E+00
 -1      3746 1.55880E+01 2.49750E+01 0.00000E+00
 -1      3747 8.58616E+01 3.62706E+01 0.00000E+00
 -1      3748 1.09178E+02 2.53336E+01 0.00000E+00
 -1      3749 1.09002E+02 2.70028E+01 0.00000E+00
 -1      3750 1.32843E+02 3.40148E+01 0.00000E+00
 -1      3751 1.08900E+02 3.31580E+01 0.00000E+00
 -1      3752 1.10400E+02 3.31580E+01 0.00000E+00
 -1      3753 1.11900E+02 3.31580E+01 0.00000E+00
 -1      3754 1.13400E+02 3.31580E+01 0.00000E+00
 -1      3755 1.11150E+02 3.18590E+01 0.00000E+00
 -1      3756 1.14900E+02 3.31580E+01 0.00000E+00
 -1      3757 1.16400E+02 3.31580E+01 0.00000E+00
 -1      3758 1.14150E+02 3.18590E+01 0.00000E+00
 -1      3759 1.17900E+02 3.31580E+01 0.00000E+00
 -1      3760 1.19400E+02 3.31580E+01 0.00000E+00
 -1      3761 1.17150E+02 3.18590E+01 0.00000E+00
 -1      3762 1.20900E+02 3.31580E+01 0.00000E+00
 -1      3763 1.22400E+02 3.31580E+01 0.00000E+00
 -1      3764 1.20150E+02 3.18590E+01 0.00000E+00
 -1      3765 1.23900E+02 3.31580E+01 0.00000E+00
 -1      3766 1.25400E+02 3.31580E+01 0.00000E+00
 -1      3767 1.23150E+02 3.18590E+01 0.00000E+00
 -1      3768 1.26900E+02 3.31580E+01 0.00000E+00
 -1      3769 1.28400E+02 3.31580E+01 0.00000E+00
 -1      3770 1.26150E+02 3.18590E+01 0.00000E+00
 -1      3771 1.29900E+02 3.31580E+01 0.00000E+00
 -1      3772 1.31400E+02 3.31580E+01 0.00000E+00
 -1      3773 1.29150E+02 3.18590E+01 0.00000E+00
 -1      3774 4.37850E+01 1.56973E+01 0.00000E+00
 -1      3775 4.22850E+01 1.56973E+01 0.00000E+00
 -1      3776 5.57850E+01 1.56973E+01 0.00000E+00
 -1      3777 5.42850E+01 1.56973E+01 0.00000E+00
 -1      3778 5.27850E+01 1.56973E+01 0.00000E+00
 -1      3779 5.12850E+01 1.56973E+01 0.00000E+00
 -1      3780 5.35350E+01 1.69963E+01 0.00000E+00
 -1      3781 6.17850E+01 1.56973E+01 0.00000E+00
 -1      3782 6.02850E+01 1.56973E+01 0.00000E+00
 -1      3783 6.47850E+01 1.56973E+01 0.00000E+00
 -1      3784 6.32850E+01 1.56973E+01 0.00000E+00
 -1      3785 6.25350E+01 1.69963E+01 0.00000E+00
 -1      3786 6.77850E+01 1.56973E+01 0.00000E+00
 -1      3787 6.62850E+01 1.56973E+01 0.00000E+00
 -1      3788 6.55350E+01 1.69963E+01 0.00000E+00
 -1      3789 7.07850E+01 1.56973E+01 0.00000E+00
 -1      3790 6.92850E+01 1.56973E+01 0.00000E+00
 -1      3791 6.85350E+01 1.69963E+01 0.00000E+00
 -1      3792 7.37850E+01 1.56973E+01 0.00000E+00
 -1      3793 7.22850E+01 1.56973E+01 0.00000E+00
 -1      3794 7.15350E+01 1.69963E+01 0.00000E+00
 -1      3795 1.21785E+02 1.56973E+01 0.00000E+00
 -1      3796 1.20285E+02 1.56973E+01 0.00000E+00
 -1      3797 1.15785E+02 1.56973E+01 0.00000E+00
 -1      3798 1.14285E+02 1.56973E+01 0.00000E+00
 -1      3799 1.18785E+02 1.56973E+01 0.00000E+00
 -1      3800 1.17285E+02 1.56973E+01 0.00000E+00
 -1      3801 1.19535E+02 1.69963E+01 0.00000E+00
 -1      3802 1.04845E+02 3.35033E+01 0.00000E+00
 -1      3803 1.27785E+02 1.56973E+01 0.00000E+00
 -1      3804 1.26285E+02 1.56973E+01 0.00000E+00
 -1      3805 1.30785E+02 1.56973E+01 0.00000E+00
 -1      3806 1.29285E+02 1.56973E+01 0.00000E+00
 -1      3807 1.28535E+02 1.69963E+01 0.00000E+00
 -1      3808 1.46488E+01 3.06625E+01 0.00000E+00
 -1      3809 1.61488E+01 3.21312E+01 0.00000E+00
 -1      3810 1.46488E+01 2.91937E+01 0.00000E+00
 -1      3811 1.56259E+01 1.52890E+01 0.00000E+00
 -1      3812 1.44897E+01 1.64582E+01 0.00000E+00
 -1      3813 2.74669E+01 1.29495E+01 0.00000E+00
 -1      3814 2.59669E+01 1.29495E+01 0.00000E+00
 -1      3815 2.55806E+01 1.39489E+01 0.00000E+00
 -1      3816 2.82169E+01 1.42485E+01 0.00000E+00
 -1      3817 1.35838E+02 1.55213E+01 0.00000E+00
 -1      3818 1.44897E+01 1.79301E+01 0.00000E+00
 -1      3819 1.12785E+02 1.56973E+01 0.00000E+00
 -1      3820 1.11285E+02 1.56973E+01 0.00000E+00
 -1      3821 1.13535E+02 1.69963E+01 0.00000E+00
 -1      3822 7.60048E+01 1.85564E+01 0.00000E+00
 -1      3823 7.65896E+01 1.74255E+01 0.00000E+00
 -1      3824 7.60613E+01 1.64003E+01 0.00000E+00
 -1      3825 5.87850E+01 1.56973E+01 0.00000E+00
 -1      3826 5.72850E+01 1.56973E+01 0.00000E+00
 -1      3827 5.95350E+01 1.69963E+01 0.00000E+00
 -1      3828 9.21352E+01 3.67995E+01 0.00000E+00
 -1      3829 7.73476E+01 3.13252E+01 0.00000E+00
 -1      3830 1.57887E+01 1.86660E+01 0.00000E+00
 -1      3831 1.05865E+02 3.24676E+01 0.00000E+00
 -1      3832 1.06170E+02 3.34214E+01 0.00000E+00
 -1      3833 1.07670E+02 3.34214E+01 0.00000E+00
 -1      3834 1.06710E+02 3.13500E+01 0.00000E+00
 -1      3835 1.34508E+02 1.60728E+01 0.00000E+00
 -1      3836 1.08314E+02 2.89153E+01 0.00000E+00
 -1      3837 1.07566E+02 3.02166E+01 0.00000E+00
 -1      3838 1.33008E+02 1.60728E+01 0.00000E+00
 -1      3839 1.09390E+02 2.24241E+01 0.00000E+00
 -1      3840 1.09319E+02 2.37664E+01 0.00000E+00
 -1      3841 1.24785E+02 1.56973E+01 0.00000E+00
 -1      3842 1.23285E+02 1.56973E+01 0.00000E+00
 -1      3843 1.22535E+02 1.69963E+01 0.00000E+00
 -1      3844 1.25535E+02 1.69963E+01 0.00000E+00
 -1      3845 1.32258E+02 1.73718E+01 0.00000E+00
 -1      3846 1.10863E+02 2.74973E+01 0.00000E+00
 -1      3847 1.09589E+02 2.82063E+01 0.00000E+00
 -1      3848 1.10176E+02 2.94099E+01 0.00000E+00
 -1      3849 9.05485E+01 3.61793E+01 0.00000E+00
 -1      3850 1.10417E+02 2.47265E+01 0.00000E+00
 -1      3851 5.65350E+01 1.69963E+01 0.00000E+00
 -1      3852 1.32093E+02 3.27158E+01 0.00000E+00
 -1      3853 1.08420E+02 3.21224E+01 0.00000E+00
 -1      3854 4.52850E+01 1.56973E+01 0.00000E+00
 -1      3855 4.45350E+01 1.69963E+01 0.00000E+00
 -1      3856 4.67850E+01 1.56973E+01 0.00000E+00
 -1      3857 3.17850E+01 1.56973E+01 0.00000E+00
 -1      3858 3.02850E+01 1.56973E+01 0.00000E+00
 -1      3859 3.70350E+01 1.43982E+01 0.00000E+00
 -1      3860 4.07850E+01 1.56973E+01 0.00000E+00
 -1      3861 3.92850E+01 1.56973E+01 0.00000E+00
 -1      3862 4.15350E+01 1.69963E+01 0.00000E+00
 -1      3863 1.33113E+02 2.57406E+01 0.00000E+00
 -1      3864 1.33113E+02 2.42719E+01 0.00000E+00
 -1      3865 7.50058E+01 1.59647E+01 0.00000E+00
 -1      3866 7.42558E+01 1.72637E+01 0.00000E+00
 -1      3867 2.05125E+01 1.50981E+01 0.00000E+00
 -1      3868 1.90125E+01 1.50981E+01 0.00000E+00
 -1      3869 1.71259E+01 1.52890E+01 0.00000E+00
 -1      3870 7.34951E+01 2.47281E+01 0.00000E+00
 -1      3871 7.45488E+01 2.36414E+01 0.00000E+00
 -1      3872 7.40116E+01 2.27334E+01 0.00000E+00
 -1      3873 1.07692E+02 1.61816E+01 0.00000E+00
 -1      3874 1.16535E+02 1.69963E+01 0.00000E+00
 -1      3875 1.75976E+01 3.06233E+01 0.00000E+00
 -1      3876 1.74388E+01 3.22858E+01 0.00000E+00
 -1      3877 1.87288E+01 3.24403E+01 0.00000E+00
 -1      3878 1.59478E+01 2.84578E+01 0.00000E+00
 -1      3879 1.10881E+02 1.71769E+01 0.00000E+00
 -1      3880 1.10131E+02 1.58779E+01 0.00000E+00
 -1      3881 1.08977E+02 1.60585E+01 0.00000E+00
 -1      3882 1.33974E+02 3.29738E+01 0.00000E+00
 -1      3883 7.42626E+01 2.77848E+01 0.00000E+00
 -1      3884 7.34966E+01 2.68593E+01 0.00000E+00
 -1      3885 2.20125E+01 1.50981E+01 0.00000E+00
 -1      3886 2.12625E+01 1.63971E+01 0.00000E+00
 -1      3887 2.35125E+01 1.50981E+01 0.00000E+00
 -1      3888 3.32850E+01 1.56973E+01 0.00000E+00
 -1      3889 3.25350E+01 1.69963E+01 0.00000E+00
 -1      3890 3.47850E+01 1.56973E+01 0.00000E+00
 -1      3891 1.33113E+02 2.72156E+01 0.00000E+00
 -1      3892 1.31814E+02 2.64813E+01 0.00000E+00
 -1      3893 1.33113E+02 2.86906E+01 0.00000E+00
 -1      3894 7.45592E+01 2.92389E+01 0.00000E+00
 -1      3895 1.09562E+02 2.08219E+01 0.00000E+00
 -1      3896 1.09476E+02 2.16230E+01 0.00000E+00
 -1      3897 1.10643E+02 2.23582E+01 0.00000E+00
 -1      3898 1.68870E+01 2.12906E+01 0.00000E+00
 -1      3899 1.68870E+01 2.27656E+01 0.00000E+00
 -1      3900 7.52709E+01 1.95889E+01 0.00000E+00
 -1      3901 7.47426E+01 1.85637E+01 0.00000E+00
 -1      3902 7.45369E+01 2.06214E+01 0.00000E+00
 -1      3903 1.08046E+02 3.12523E+01 0.00000E+00
 -1      3904 2.00188E+01 3.25949E+01 0.00000E+00
 -1      3905 2.07688E+01 3.12959E+01 0.00000E+00
 -1      3906 1.32241E+02 1.88193E+01 0.00000E+00
 -1      3907 1.30018E+02 1.84438E+01 0.00000E+00
 -1      3908 1.32223E+02 2.02669E+01 0.00000E+00
 -1      3909 1.33034E+02 3.21073E+01 0.00000E+00
 -1      3910 1.33471E+02 3.15085E+01 0.00000E+00
 -1      3911 1.33471E+02 3.00335E+01 0.00000E+00
 -1      3912 1.31590E+02 3.12505E+01 0.00000E+00
 -1      3913 4.97850E+01 1.56973E+01 0.00000E+00
 -1      3914 4.82850E+01 1.56973E+01 0.00000E+00
 -1      3915 4.75350E+01 1.69963E+01 0.00000E+00
 -1      3916 5.05350E+01 1.69963E+01 0.00000E+00
 -1      3917 1.32660E+02 2.29931E+01 0.00000E+00
 -1      3918 1.32677E+02 2.15456E+01 0.00000E+00
 -1      3919 1.30454E+02 2.11700E+01 0.00000E+00
 -1      3920 1.31361E+02 2.37275E+01 0.00000E+00
 -1      3921 2.64000E+01 3.05150E+01 0.00000E+00
 -1      3922 2.79000E+01 3.05150E+01 0.00000E+00
 -1      3923 2.94000E+01 3.05150E+01 0.00000E+00
 -1      3924 3.09000E+01 3.05150E+01 0.00000E+00
 -1      3925 2.86500E+01 2.92160E+01 0.00000E+00
 -1      3926 3.24000E+01 3.05150E+01 0.00000E+00
 -1      3927 3.39000E+01 3.05150E+01 0.00000E+00
 -1      3928 3.16500E+01 2.92160E+01 0.00000E+00
 -1      3929 3.54000E+01 3.05150E+01 0.00000E+00
 -1      3930 3.69000E+01 3.05150E+01 0.00000E+00
 -1      3931 3.46500E+01 2.92160E+01 0.00000E+00
 -1      3932 3.84000E+01 3.05150E+01 0.00000E+00
 -1      3933 3.99000E+01 3.05150E+01 0.00000E+00
 -1      3934 3.76500E+01 2.92160E+01 0.00000E+00
 -1      3935 4.14000E+01 3.05150E+01 0.00000E+00
 -1      3936 4.29000E+01 3.05150E+01 0.00000E+00
 -1      3937 4.06500E+01 2.92160E+01 0.00000E+00
 -1      3938 4.44000E+01 3.05150E+01 0.00000E+00
 -1      3939 4.59000E+01 3.05150E+01 0.00000E+00
 -1      3940 4.36500E+01 2.92160E+01 0.00000E+00
 -1      3941 4.74000E+01 3.05150E+01 0.00000E+00
 -1      3942 4.89000E+01 3.05150E+01 0.00000E+00
 -1      3943 4.66500E+01 2.92160E+01 0.00000E+00
 -1      3944 5.04000E+01 3.05150E+01 0.00000E+00
 -1      3945 5.19000E+01 3.05150E+01 0.00000E+00
 -1      3946 4.96500E+01 2.92160E+01 0.00000E+00
 -1      3947 5.34000E+01 3.05150E+01 0.00000E+00
 -1      3948 5.49000E+01 3.05150E+01 0.00000E+00
 -1      3949 5.26500E+01 2.92160E+01 0.00000E+00
 -1      3950 5.64000E+01 3.05150E+01 0.00000E+00
 -1      3951 5.79000E+01 3.05150E+01 0.00000E+00
 -1      3952 5.56500E+01 2.92160E+01 0.00000E+00
 -1      3953 5.94000E+01 3.05150E+01 0.00000E+00
 -1      3954 6.09000E+01 3.05150E+01 0.00000E+00
 -1      3955 5.86500E+01 2.92160E+01 0.00000E+00
 -1      3956 6.24000E+01 3.05150E+01 0.00000E+00
 -1      3957 6.39000E+01 3.05150E+01 0.00000E+00
 -1      3958 6.16500E+01 2.92160E+01 0.00000E+00
 -1      3959 6.54000E+01 3.05150E+01 0.00000E+00
 -1      3960 6.69000E+01 3.05150E+01 0.00000E+00
 -1      3961 6.46500E+01 2.92160E+01 0.00000E+00
 -1      3962 6.84000E+01 3.05150E+01 0.00000E+00
 -1      3963 6.99000E+01 3.05150E+01 0.00000E+00
 -1      3964 6.76500E+01 2.92160E+01 0.00000E+00
 -1      3965 5.42850E+01 1.82952E+01 0.00000E+00
 -1      3966 5.27850E+01 1.82952E+01 0.00000E+00
 -1      3967 1.68870E+01 2.42375E+01 0.00000E+00
 -1      3968 1.68870E+01 2.57094E+01 0.00000E+00
 -1      3969 1.81860E+01 2.35000E+01 0.00000E+00
 -1      3970 1.11758E+02 2.40568E+01 0.00000E+00
 -1      3971 1.11618E+02 2.56240E+01 0.00000E+00
 -1      3972 5.12850E+01 1.82952E+01 0.00000E+00
 -1      3973 4.97850E+01 1.82952E+01 0.00000E+00
 -1      3974 5.20350E+01 1.95942E+01 0.00000E+00
 -1      3975 1.09276E+02 3.09890E+01 0.00000E+00
 -1      3976 1.13400E+02 3.05600E+01 0.00000E+00
 -1      3977 1.14900E+02 3.05600E+01 0.00000E+00
 -1      3978 1.16400E+02 3.05600E+01 0.00000E+00
 -1      3979 1.17900E+02 3.05600E+01 0.00000E+00
 -1      3980 1.15650E+02 2.92610E+01 0.00000E+00
 -1      3981 1.19400E+02 3.05600E+01 0.00000E+00
 -1      3982 1.20900E+02 3.05600E+01 0.00000E+00
 -1      3983 1.18650E+02 2.92610E+01 0.00000E+00
 -1      3984 1.22400E+02 3.05600E+01 0.00000E+00
 -1      3985 1.23900E+02 3.05600E+01 0.00000E+00
 -1      3986 1.21650E+02 2.92610E+01 0.00000E+00
 -1      3987 1.25400E+02 3.05600E+01 0.00000E+00
 -1      3988 1.26900E+02 3.05600E+01 0.00000E+00
 -1      3989 1.24650E+02 2.92610E+01 0.00000E+00
 -1      3990 1.28400E+02 3.05600E+01 0.00000E+00
 -1      3991 1.29900E+02 3.05600E+01 0.00000E+00
 -1      3992 1.27650E+02 2.92610E+01 0.00000E+00
 -1      3993 3.77850E+01 1.56973E+01 0.00000E+00
 -1      3994 3.62850E+01 1.56973E+01 0.00000E+00
 -1      3995 3.55350E+01 1.69963E+01 0.00000E+00
 -1      3996 3.85350E+01 1.69963E+01 0.00000E+00
 -1      3997 7.35218E+01 1.82962E+01 0.00000E+00
 -1      3998 6.62850E+01 1.82952E+01 0.00000E+00
 -1      3999 6.47850E+01 1.82952E+01 0.00000E+00
 -1      4000 6.32850E+01 1.82952E+01 0.00000E+00
 -1      4001 6.17850E+01 1.82952E+01 0.00000E+00
 -1      4002 6.40350E+01 1.95942E+01 0.00000E+00
 -1      4003 7.20218E+01 1.82962E+01 0.00000E+00
 -1      4004 7.05218E+01 1.82962E+01 0.00000E+00
 -1      4005 7.25086E+01 1.95962E+01 0.00000E+00
 -1      4006 1.78759E+01 1.65880E+01 0.00000E+00
 -1      4007 1.28518E+02 1.84438E+01 0.00000E+00
 -1      4008 5.72850E+01 1.82952E+01 0.00000E+00
 -1      4009 5.57850E+01 1.82952E+01 0.00000E+00
 -1      4010 5.50350E+01 1.95942E+01 0.00000E+00
 -1      4011 1.08442E+02 1.74806E+01 0.00000E+00
 -1      4012 2.95350E+01 1.69963E+01 0.00000E+00
 -1      4013 2.87850E+01 1.56973E+01 0.00000E+00
 -1      4014 7.55905E+01 1.48338E+01 0.00000E+00
 -1      4015 1.68788E+01 1.97922E+01 0.00000E+00
 -1      4016 1.81778E+01 2.05297E+01 0.00000E+00
 -1      4017 1.20285E+02 1.82952E+01 0.00000E+00
 -1      4018 1.18785E+02 1.82952E+01 0.00000E+00
 -1      4019 1.14285E+02 1.82952E+01 0.00000E+00
 -1      4020 1.12785E+02 1.82952E+01 0.00000E+00
 -1      4021 6.02850E+01 1.82952E+01 0.00000E+00
 -1      4022 5.87850E+01 1.82952E+01 0.00000E+00
 -1      4023 5.80350E+01 1.95942E+01 0.00000E+00
 -1      4024 1.70795E+01 1.79051E+01 0.00000E+00
 -1      4025 1.70624E+01 2.71609E+01 0.00000E+00
 -1      4026 1.74222E+01 2.91718E+01 0.00000E+00
 -1      4027 1.87122E+01 2.93263E+01 0.00000E+00
 -1      4028 1.83614E+01 2.64234E+01 0.00000E+00
 -1      4029 1.17285E+02 1.82952E+01 0.00000E+00
 -1      4030 1.15785E+02 1.82952E+01 0.00000E+00
 -1      4031 1.18035E+02 1.95942E+01 0.00000E+00
 -1      4032 2.05934E+01 2.98444E+01 0.00000E+00
 -1      4033 2.24746E+01 3.03625E+01 0.00000E+00
 -1      4034 2.04180E+01 2.83929E+01 0.00000E+00
 -1      4035 6.91534E+01 1.82957E+01 0.00000E+00
 -1      4036 6.76534E+01 1.82957E+01 0.00000E+00
 -1      4037 6.69034E+01 1.95947E+01 0.00000E+00
 -1      4038 6.96402E+01 1.95957E+01 0.00000E+00
 -1      4039 1.09061E+02 1.87221E+01 0.00000E+00
 -1      4040 1.94727E+01 1.97735E+01 0.00000E+00
 -1      4041 1.94809E+01 2.12719E+01 0.00000E+00
 -1      4042 2.36873E+01 3.04388E+01 0.00000E+00
 -1      4043 2.51873E+01 3.04388E+01 0.00000E+00
 -1      4044 2.59373E+01 2.91398E+01 0.00000E+00
 -1      4045 2.35119E+01 2.89873E+01 0.00000E+00
 -1      4046 7.24235E+01 2.71745E+01 0.00000E+00
 -1      4047 7.29593E+01 2.59513E+01 0.00000E+00
 -1      4048 7.24221E+01 2.50434E+01 0.00000E+00
 -1      4049 7.61257E+01 3.12149E+01 0.00000E+00
 -1      4050 7.49038E+01 3.11046E+01 0.00000E+00
 -1      4051 7.33054E+01 2.99483E+01 0.00000E+00
 -1      4052 7.18054E+01 2.99483E+01 0.00000E+00
 -1      4053 1.89661E+01 1.77142E+01 0.00000E+00
 -1      4054 7.10554E+01 2.86493E+01 0.00000E+00
 -1      4055 2.02692E+01 1.84564E+01 0.00000E+00
 -1      4056 1.10550E+02 3.02799E+01 0.00000E+00
 -1      4057 2.07758E+01 2.19875E+01 0.00000E+00
 -1      4058 1.94809E+01 2.27437E+01 0.00000E+00
 -1      4059 1.94809E+01 2.42156E+01 0.00000E+00
 -1      4060 1.15035E+02 1.95942E+01 0.00000E+00
 -1      4061 1.12046E+02 2.13768E+01 0.00000E+00
 -1      4062 1.13247E+02 2.22743E+01 0.00000E+00
 -1      4063 1.12050E+02 3.02799E+01 0.00000E+00
 -1      4064 4.90350E+01 1.95942E+01 0.00000E+00
 -1      4065 4.82850E+01 1.82952E+01 0.00000E+00
 -1      4066 4.67850E+01 1.82952E+01 0.00000E+00
 -1      4067 1.12800E+02 2.89809E+01 0.00000E+00
 -1      4068 1.30482E+02 2.86086E+01 0.00000E+00
 -1      4069 1.31232E+02 2.99076E+01 0.00000E+00
 -1      4070 4.22850E+01 1.82952E+01 0.00000E+00
 -1      4071 4.07850E+01 1.82952E+01 0.00000E+00
 -1      4072 7.35242E+01 2.16774E+01 0.00000E+00
 -1      4073 7.29960E+01 2.06522E+01 0.00000E+00
 -1      4074 7.14960E+01 2.06522E+01 0.00000E+00
 -1      4075 7.24706E+01 2.27642E+01 0.00000E+00
 -1      4076 6.10350E+01 1.95942E+01 0.00000E+00
 -1      4077 1.28352E+02 2.00970E+01 0.00000E+00
 -1      4078 1.26869E+02 1.86495E+01 0.00000E+00
 -1      4079 2.48306E+01 1.52479E+01 0.00000E+00
 -1      4080 2.40806E+01 1.65469E+01 0.00000E+00
 -1      4081 2.61488E+01 1.53977E+01 0.00000E+00
 -1      4082 1.21785E+02 1.82952E+01 0.00000E+00
 -1      4083 1.21035E+02 1.95942E+01 0.00000E+00
 -1      4084 1.23285E+02 1.82952E+01 0.00000E+00
 -1      4085 2.74669E+01 1.55475E+01 0.00000E+00
 -1      4086 1.10228E+02 1.94573E+01 0.00000E+00
 -1      4087 2.17692E+01 1.84564E+01 0.00000E+00
 -1      4088 7.05181E+01 2.77413E+01 0.00000E+00
 -1      4089 3.02850E+01 1.82953E+01 0.00000E+00
 -1      4090 2.87851E+01 1.82953E+01 0.00000E+00
 -1      4091 1.30482E+02 2.71336E+01 0.00000E+00
 -1      4092 1.30482E+02 2.56586E+01 0.00000E+00
 -1      4093 1.29150E+02 2.77860E+01 0.00000E+00
 -1      4094 1.30029E+02 2.43799E+01 0.00000E+00
 -1      4095 1.29575E+02 2.31012E+01 0.00000E+00
 -1      4096 1.28697E+02 2.50323E+01 0.00000E+00
 -1      4097 3.32850E+01 1.82953E+01 0.00000E+00
 -1      4098 3.17850E+01 1.82953E+01 0.00000E+00
 -1      4099 3.10351E+01 1.95943E+01 0.00000E+00
 -1      4100 1.11915E+02 2.67007E+01 0.00000E+00
 -1      4101 1.12502E+02 2.79043E+01 0.00000E+00
 -1      4102 1.13852E+02 2.81844E+01 0.00000E+00
 -1      4103 1.13257E+02 2.60310E+01 0.00000E+00
 -1      4104 4.52850E+01 1.82952E+01 0.00000E+00
 -1      4105 4.37850E+01 1.82952E+01 0.00000E+00
 -1      4106 4.60350E+01 1.95942E+01 0.00000E+00
 -1      4107 4.30350E+01 1.95942E+01 0.00000E+00
 -1      4108 1.25369E+02 1.86495E+01 0.00000E+00
 -1      4109 2.79000E+01 2.79170E+01 0.00000E+00
 -1      4110 2.94000E+01 2.79170E+01 0.00000E+00
 -1      4111 3.09000E+01 2.79170E+01 0.00000E+00
 -1      4112 3.24000E+01 2.79170E+01 0.00000E+00
 -1      4113 3.01500E+01 2.66180E+01 0.00000E+00
 -1      4114 3.39000E+01 2.79170E+01 0.00000E+00
 -1      4115 3.54000E+01 2.79170E+01 0.00000E+00
 -1      4116 3.31500E+01 2.66180E+01 0.00000E+00
 -1      4117 3.69000E+01 2.79170E+01 0.00000E+00
 -1      4118 3.84000E+01 2.79170E+01 0.00000E+00
 -1      4119 3.61500E+01 2.66180E+01 0.00000E+00
 -1      4120 3.99000E+01 2.79170E+01 0.00000E+00
 -1      4121 4.14000E+01 2.79170E+01 0.00000E+00
 -1      4122 3.91500E+01 2.66180E+01 0.00000E+00
 -1      4123 4.29000E+01 2.79170E+01 0.00000E+00
 -1      4124 4.44000E+01 2.79170E+01 0.00000E+00
 -1      4125 4.21500E+01 2.66180E+01 0.00000E+00
 -1      4126 4.59000E+01 2.79170E+01 0.00000E+00
 -1      4127 4.74000E+01 2.79170E+01 0.00000E+00
 -1      4128 4.51500E+01 2.66180E+01 0.00000E+00
 -1      4129 4.89000E+01 2.79170E+01 0.00000E+00
 -1      4130 5.04000E+01 2.79170E+01 0.00000E+00
 -1      4131 4.81500E+01 2.66180E+01 0.00000E+00
 -1      4132 5.19000E+01 2.79170E+01 0.00000E+00
 -1      4133 5.34000E+01 2.79170E+01 0.00000E+00
 -1      4134 5.11500E+01 2.66180E+01 0.00000E+00
 -1      4135 5.49000E+01 2.79170E+01 0.00000E+00
 -1      4136 5.64000E+01 2.79170E+01 0.00000E+00
 -1      4137 5.41500E+01 2.66180E+01 0.00000E+00
 -1      4138 5.79000E+01 2.79170E+01 0.00000E+00
 -1      4139 5.94000E+01 2.79170E+01 0.00000E+00
 -1      4140 5.71500E+01 2.66180E+01 0.00000E+00
 -1      4141 6.09000E+01 2.79170E+01 0.00000E+00
 -1      4142 6.24000E+01 2.79170E+01 0.00000E+00
 -1      4143 6.01500E+01 2.66180E+01 0.00000E+00
 -1      4144 6.39000E+01 2.79170E+01 0.00000E+00
 -1      4145 6.54000E+01 2.79170E+01 0.00000E+00
 -1      4146 6.31500E+01 2.66180E+01 0.00000E+00
 -1      4147 6.69000E+01 2.79170E+01 0.00000E+00
 -1      4148 6.84000E+01 2.79170E+01 0.00000E+00
 -1      4149 6.61500E+01 2.66180E+01 0.00000E+00
 -1      4150 1.32173E+02 2.92991E+01 0.00000E+00
 -1      4151 1.24619E+02 1.99485E+01 0.00000E+00
 -1      4152 1.15352E+02 2.81844E+01 0.00000E+00
 -1      4153 1.16852E+02 2.81844E+01 0.00000E+00
 -1      4154 1.15055E+02 2.71077E+01 0.00000E+00
 -1      4155 4.00350E+01 1.95942E+01 0.00000E+00
 -1      4156 3.92850E+01 1.82952E+01 0.00000E+00
 -1      4157 3.77850E+01 1.82952E+01 0.00000E+00
 -1      4158 1.18352E+02 2.81844E+01 0.00000E+00
 -1      4159 1.19852E+02 2.81844E+01 0.00000E+00
 -1      4160 1.18055E+02 2.71077E+01 0.00000E+00
 -1      4161 1.21352E+02 2.81844E+01 0.00000E+00
 -1      4162 1.22852E+02 2.81844E+01 0.00000E+00
 -1      4163 1.21055E+02 2.71077E+01 0.00000E+00
 -1      4164 1.24352E+02 2.81844E+01 0.00000E+00
 -1      4165 1.25852E+02 2.81844E+01 0.00000E+00
 -1      4166 1.24055E+02 2.71077E+01 0.00000E+00
 -1      4167 1.27650E+02 2.77860E+01 0.00000E+00
 -1      4168 1.29122E+02 2.18224E+01 0.00000E+00
 -1      4169 1.27473E+02 2.20282E+01 0.00000E+00
 -1      4170 1.18785E+02 2.08932E+01 0.00000E+00
 -1      4171 1.17285E+02 2.08932E+01 0.00000E+00
 -1      4172 1.11382E+02 1.92766E+01 0.00000E+00
 -1      4173 1.27352E+02 2.67094E+01 0.00000E+00
 -1      4174 6.47850E+01 2.08932E+01 0.00000E+00
 -1      4175 6.32850E+01 2.08932E+01 0.00000E+00
 -1      4176 7.09850E+01 2.51428E+01 0.00000E+00
 -1      4177 7.15208E+01 2.39196E+01 0.00000E+00
 -1      4178 6.17850E+01 2.08932E+01 0.00000E+00
 -1      4179 6.02850E+01 2.08932E+01 0.00000E+00
 -1      4180 6.25350E+01 2.21922E+01 0.00000E+00
 -1      4181 2.34358E+01 1.79911E+01 0.00000E+00
 -1      4182 2.24425E+01 2.00504E+01 0.00000E+00
 -1      4183 5.57850E+01 2.08932E+01 0.00000E+00
 -1      4184 5.42850E+01 2.08932E+01 0.00000E+00
 -1      4185 5.87850E+01 2.08932E+01 0.00000E+00
 -1      4186 5.72850E+01 2.08932E+01 0.00000E+00
 -1      4187 5.95350E+01 2.21922E+01 0.00000E+00
 -1      4188 6.97681E+01 2.64423E+01 0.00000E+00
 -1      4189 2.00672E+01 2.54900E+01 0.00000E+00
 -1      4190 2.02426E+01 2.69415E+01 0.00000E+00
 -1      4191 2.21238E+01 2.74595E+01 0.00000E+00
 -1      4192 2.80351E+01 1.95943E+01 0.00000E+00
 -1      4193 2.72851E+01 1.82953E+01 0.00000E+00
 -1      4194 4.37850E+01 2.08932E+01 0.00000E+00
 -1      4195 4.22850E+01 2.08932E+01 0.00000E+00
 -1      4196 5.27850E+01 2.08932E+01 0.00000E+00
 -1      4197 5.12850E+01 2.08932E+01 0.00000E+00
 -1      4198 5.35350E+01 2.21922E+01 0.00000E+00
 -1      4199 2.67169E+01 1.68465E+01 0.00000E+00
 -1      4200 2.31611E+01 2.60843E+01 0.00000E+00
 -1      4201 2.33365E+01 2.75358E+01 0.00000E+00
 -1      4202 2.45492E+01 2.76120E+01 0.00000E+00
 -1      4203 2.24425E+01 2.15222E+01 0.00000E+00
 -1      4204 2.24425E+01 2.29941E+01 0.00000E+00
 -1      4205 2.41091E+01 2.10570E+01 0.00000E+00
 -1      4206 7.10335E+01 2.28636E+01 0.00000E+00
 -1      4207 4.97850E+01 2.08932E+01 0.00000E+00
 -1      4208 4.82850E+01 2.08932E+01 0.00000E+00
 -1      4209 5.05350E+01 2.21922E+01 0.00000E+00
 -1      4210 4.07850E+01 2.08932E+01 0.00000E+00
 -1      4211 3.92850E+01 2.08932E+01 0.00000E+00
 -1      4212 4.15350E+01 2.21922E+01 0.00000E+00
 -1      4213 1.26672E+02 2.34204E+01 0.00000E+00
 -1      4214 1.25902E+02 2.16949E+01 0.00000E+00
 -1      4215 7.06149E+01 2.17077E+01 0.00000E+00
 -1      4216 7.01275E+01 2.06517E+01 0.00000E+00
 -1      4217 6.87591E+01 2.06512E+01 0.00000E+00
 -1      4218 1.20285E+02 2.08932E+01 0.00000E+00
 -1      4219 1.19535E+02 2.21922E+01 0.00000E+00
 -1      4220 1.21785E+02 2.08932E+01 0.00000E+00
 -1      4221 1.14660E+02 2.10706E+01 0.00000E+00
 -1      4222 1.14372E+02 2.37506E+01 0.00000E+00
 -1      4223 2.47539E+01 1.81409E+01 0.00000E+00
 -1      4224 1.12132E+02 2.05756E+01 0.00000E+00
 -1      4225 2.13621E+01 2.47337E+01 0.00000E+00
 -1      4226 6.88668E+01 2.53185E+01 0.00000E+00
 -1      4227 1.26899E+02 2.54306E+01 0.00000E+00
 -1      4228 3.17851E+01 2.08933E+01 0.00000E+00
 -1      4229 3.02851E+01 2.08933E+01 0.00000E+00
 -1      4230 6.74563E+01 2.07725E+01 0.00000E+00
 -1      4231 6.60879E+01 2.07720E+01 0.00000E+00
 -1      4232 6.53379E+01 2.20710E+01 0.00000E+00
 -1      4233 6.79436E+01 2.18285E+01 0.00000E+00
 -1      4234 1.16160E+02 2.10706E+01 0.00000E+00
 -1      4235 1.16083E+02 2.36236E+01 0.00000E+00
 -1      4236 1.14670E+02 2.48273E+01 0.00000E+00
 -1      4237 1.14968E+02 2.59040E+01 0.00000E+00
 -1      4238 4.67850E+01 2.08932E+01 0.00000E+00
 -1      4239 4.52850E+01 2.08932E+01 0.00000E+00
 -1      4240 4.45350E+01 2.21922E+01 0.00000E+00
 -1      4241 4.75350E+01 2.21922E+01 0.00000E+00
 -1      4242 2.59670E+01 1.81455E+01 0.00000E+00
 -1      4243 5.65350E+01 2.21922E+01 0.00000E+00
 -1      4244 2.95351E+01 2.21923E+01 0.00000E+00
 -1      4245 2.87851E+01 2.08933E+01 0.00000E+00
 -1      4246 2.72852E+01 2.08933E+01 0.00000E+00
 -1      4247 1.23818E+02 2.13407E+01 0.00000E+00
 -1      4248 2.56182E+01 2.77264E+01 0.00000E+00
 -1      4249 2.68309E+01 2.78026E+01 0.00000E+00
 -1      4250 2.75809E+01 2.65036E+01 0.00000E+00
 -1      4251 2.54428E+01 2.62749E+01 0.00000E+00
 -1      4252 3.62850E+01 1.82953E+01 0.00000E+00
 -1      4253 3.47850E+01 1.82953E+01 0.00000E+00
 -1      4254 3.40350E+01 1.95943E+01 0.00000E+00
 -1      4255 3.70350E+01 1.95943E+01 0.00000E+00
 -1      4256 1.16910E+02 2.23696E+01 0.00000E+00
 -1      4257 3.24000E+01 2.53190E+01 0.00000E+00
 -1      4258 3.39000E+01 2.53190E+01 0.00000E+00
 -1      4259 3.54000E+01 2.53190E+01 0.00000E+00
 -1      4260 3.69000E+01 2.53190E+01 0.00000E+00
 -1      4261 3.46500E+01 2.40200E+01 0.00000E+00
 -1      4262 3.88425E+01 2.44051E+01 0.00000E+00
 -1      4263 4.03425E+01 2.44051E+01 0.00000E+00
 -1      4264 4.18425E+01 2.44051E+01 0.00000E+00
 -1      4265 4.33425E+01 2.44051E+01 0.00000E+00
 -1      4266 4.48425E+01 2.44051E+01 0.00000E+00
 -1      4267 4.63425E+01 2.44051E+01 0.00000E+00
 -1      4268 4.78425E+01 2.44051E+01 0.00000E+00
 -1      4269 4.93425E+01 2.44051E+01 0.00000E+00
 -1      4270 5.08425E+01 2.44051E+01 0.00000E+00
 -1      4271 5.23425E+01 2.44051E+01 0.00000E+00
 -1      4272 5.38425E+01 2.44051E+01 0.00000E+00
 -1      4273 5.53425E+01 2.44051E+01 0.00000E+00
 -1      4274 5.68425E+01 2.44051E+01 0.00000E+00
 -1      4275 5.83425E+01 2.44051E+01 0.00000E+00
 -1      4276 5.98425E+01 2.44051E+01 0.00000E+00
 -1      4277 6.13425E+01 2.44051E+01 0.00000E+00
 -1      4278 6.28425E+01 2.44051E+01 0.00000E+00
 -1      4279 6.43425E+01 2.44051E+01 0.00000E+00
 -1      4280 6.56454E+01 2.42839E+01 0.00000E+00
 -1      4281 6.71454E+01 2.42839E+01 0.00000E+00
 -1      4282 1.16468E+02 2.59040E+01 0.00000E+00
 -1      4283 1.25328E+02 2.50974E+01 0.00000E+00
 -1      4284 1.17968E+02 2.59040E+01 0.00000E+00
 -1      4285 1.19468E+02 2.59040E+01 0.00000E+00
 -1      4286 1.17881E+02 2.47003E+01 0.00000E+00
 -1      4287 1.20968E+02 2.59040E+01 0.00000E+00
 -1      4288 1.23828E+02 2.50974E+01 0.00000E+00
 -1      4289 6.96651E+01 2.28631E+01 0.00000E+00
 -1      4290 2.53221E+01 1.95897E+01 0.00000E+00
 -1      4291 3.28425E+01 2.18071E+01 0.00000E+00
 -1      4292 3.20925E+01 2.31061E+01 0.00000E+00
 -1      4293 1.17208E+02 2.34463E+01 0.00000E+00
 -1      4294 1.22241E+02 2.38937E+01 0.00000E+00
 -1      4295 2.30288E+01 2.42685E+01 0.00000E+00
 -1      4296 2.53221E+01 2.10616E+01 0.00000E+00
 -1      4297 3.80925E+01 2.31061E+01 0.00000E+00
 -1      4298 1.18708E+02 2.34463E+01 0.00000E+00
 -1      4299 2.42415E+01 2.43447E+01 0.00000E+00
 -1      4300 3.07463E+01 2.55116E+01 0.00000E+00
 -1      4301 3.14963E+01 2.42126E+01 0.00000E+00
 -1      4302 3.04388E+01 2.32987E+01 0.00000E+00
 -1      4303 2.92463E+01 2.55116E+01 0.00000E+00
 -1      4304 3.43425E+01 2.18071E+01 0.00000E+00
 -1      4305 2.89388E+01 2.32987E+01 0.00000E+00
 -1      4306 1.20208E+02 2.34463E+01 0.00000E+00
 -1      4307 6.83622E+01 2.29844E+01 0.00000E+00
 -1      4308 1.23068E+02 2.26397E+01 0.00000E+00
 -1      4309 2.79618E+01 2.54544E+01 0.00000E+00
 -1      4310 2.85580E+01 2.43480E+01 0.00000E+00
 -1      4311 2.76543E+01 2.32415E+01 0.00000E+00
 -1      4312 2.68927E+01 2.53400E+01 0.00000E+00
 -1      4313 3.73425E+01 2.18071E+01 0.00000E+00
 -1      4314 2.60721E+01 2.23606E+01 0.00000E+00
 -1      4315 3.58425E+01 2.18071E+01 0.00000E+00
 -1      4316 2.56913E+01 2.34098E+01 0.00000E+00
 -1      4317 2.58237E+01 2.52257E+01 0.00000E+00
 -3
    3C                          2077                                     1
 -1       164    8    0    1
 -2         6         7        23      1121      1284      1138
 -1       165    8    0    1
 -2         7         8       164      1122      1285      1286
 -1       166    8    0    1
 -2         8         9       165      1123      1287      1288
 -1       167    8    0    1
 -2         8       165       164      1288      1289      1285
 -1       168    8    0    1
 -2         9        10       166      1124      1290      1291
 -1       169    8    0    1
 -2         9       166       165      1291      1292      1287
 -1       170    8    0    1
 -2        10        11       167      1125      1293      1294
 -1       171    8    0    1
 -2        10       167       166      1294      1295      1290
 -1       172    8    0    1
 -2        11        12       168      1126      1296      1297
 -1       173    8    0    1
 -2        11       168       167      1297      1298      1293
 -1       174    8    0    1
 -2        12        13       169      1127      1299      1300
 -1       175    8    0    1
 -2        12       169       168      1300      1301      1296
 -1       176    8    0    1
 -2        13        14       170      1128      1302      1303
 -1       177    8    0    1
 -2        13       170       169      1303      1304      1299
 -1       178    8    0    1
 -2        14        15       171      1129      1305      1306
 -1       179    8    0    1
 -2        14       171       170      1306      1307      1302
 -1       180    8    0    1
 -2        15        16       172      1130      1308      1309
 -1       181    8    0    1
 -2        15       172       171      1309      1310      1305
 -1       182    8    0    1
 -2        16        17       173      1131      1311      1312
 -1       183    8    0    1
 -2        16       173       172      1312      1313      1308
 -1       184    8    0    1
 -2        17        18       174      1132      1314      1315
 -1       185    8    0    1
 -2        17       174       173      1315      1316      1311
 -1       186    8    0    1
 -2        18        19       175      1133      1317      1318
 -1       187    8    0    1
 -2        18       175       174      1318      1319      1314
 -1       188    8    0    1
 -2        19        20       176      1134      1320      1321
 -1       189    8    0    1
 -2        19       176       175      1321      1322      1317
 -1       190    8    0    1
 -2        20        21       177      1135      1323      1324
 -1       191    8    0    1
 -2        20       177       176      1324      1325      1320
 -1       192    8    0    1
 -2        21        22       178      1136      1326      1327
 -1       193    8    0    1
 -2        21       178       177      1327      1328      1323
 -1       194    8    0    1
 -2        22         5       179      1137      1329      1330
 -1       195    8    0    1
 -2       178        22       179      1326      1330      1331
 -1       196    8    0    1
 -2         5        72       179      1188      1332      1329
 -1       197    8    0    1
 -2        24        23       180      1139      1333      1334
 -1       198    8    0    1
 -2        25        24       181      1140      1335      1336
 -1       199    8    0    1
 -2        24       180       181      1334      1337      1335
 -1       200    8    0    1
 -2        26        25       182      1141      1338      1339
 -1       201    8    0    1
 -2        25       181       182      1336      1340      1338
 -1       202    8    0    1
 -2        27        26       183      1142      1341      1342
 -1       203    8    0    1
 -2        26       182       183      1339      1343      1341
 -1       204    8    0    1
 -2        28        27       184      1143      1344      1345
 -1       205    8    0    1
 -2        27       183       184      1342      1346      1344
 -1       206    8    0    1
 -2        29        28       185      1144      1347      1348
 -1       207    8    0    1
 -2        28       184       185      1345      1349      1347
 -1       208    8    0    1
 -2        30        29       186      1145      1350      1351
 -1       209    8    0    1
 -2        29       185       186      1348      1352      1350
 -1       210    8    0    1
 -2        31        30       187      1146      1353      1354
 -1       211    8    0    1
 -2        30       186       187      1351      1355      1353
 -1       212    8    0    1
 -2        32        31       188      1147      1356      1357
 -1       213    8    0    1
 -2        31       187       188      1354      1358      1356
 -1       214    8    0    1
 -2        33        32       189      1148      1359      1360
 -1       215    8    0    1
 -2        32       188       189      1357      1361      1359
 -1       216    8    0    1
 -2        34        33       190      1149      1362      1363
 -1       217    8    0    1
 -2        33       189       190      1360      1364      1362
 -1       218    8    0    1
 -2        35        34       191      1150      1365      1366
 -1       219    8    0    1
 -2        34       190       191      1363      1367      1365
 -1       220    8    0    1
 -2        36        35       192      1151      1368      1369
 -1       221    8    0    1
 -2        35       191       192      1366      1370      1368
 -1       222    8    0    1
 -2        37        36       193      1152      1371      1372
 -1       223    8    0    1
 -2        36       192       193      1369      1373      1371
 -1       224    8    0    1
 -2        38        37       194      1153      1374      1375
 -1       225    8    0    1
 -2        37       193       194      1372      1376      1374
 -1       226    8    0    1
 -2        39        38       195      1154      1377      1378
 -1       227    8    0    1
 -2        38       194       195      1375      1379      1377
 -1       228    8    0    1
 -2        40        39       196      1155      1380      1381
 -1       229    8    0    1
 -2        39       195       196      1378      1382      1380
 -1       230    8    0    1
 -2        41        40       197      1156      1383      1384
 -1       231    8    0    1
 -2        40       196       197      1381      1385      1383
 -1       232    8    0    1
 -2        42        41       198      1157      1386      1387
 -1       233    8    0    1
 -2        41       197       198      1384      1388      1386
 -1       234    8    0    1
 -2        43        42       199      1158      1389      1390
 -1       235    8    0    1
 -2        42       198       199      1387      1391      1389
 -1       236    8    0    1
 -2        44        43       200      1159      1392      1393
 -1       237    8    0    1
 -2        43       199       200      1390      1394      1392
 -1       238    8    0    1
 -2        45        44       201      1160      1395      1396
 -1       239    8    0    1
 -2        44       200       201      1393      1397      1395
 -1       240    8    0    1
 -2        46        45       202      1161      1398      1399
 -1       241    8    0    1
 -2        45       201       202      1396      1400      1398
 -1       242    8    0    1
 -2        47        46       203      1162      1401      1402
 -1       243    8    0    1
 -2        46       202       203      1399      1403      1401
 -1       244    8    0    1
 -2        48        47       204      1163      1404      1405
 -1       245    8    0    1
 -2        47       203       204      1402      1406      1404
 -1       246    8    0    1
 -2        49        48       205      1164      1407      1408
 -1       247    8    0    1
 -2        48       204       205      1405      1409      1407
 -1       248    8    0    1
 -2        50        49       206      1165      1410      1411
 -1       249    8    0    1
 -2        49       205       206      1408      1412      1410
 -1       250    8    0    1
 -2        51        50       207      1166      1413      1414
 -1       251    8    0    1
 -2        50       206       207      1411      1415      1413
 -1       252    8    0    1
 -2        52        51       208      1167      1416      1417
 -1       253    8    0    1
 -2        51       207       208      1414      1418      1416
 -1       254    8    0    1
 -2        53        52       209      1168      1419      1420
 -1       255    8    0    1
 -2        52       208       209      1417      1421      1419
 -1       256    8    0    1
 -2        54        53       210      1169      1422      1423
 -1       257    8    0    1
 -2        53       209       210      1420      1424      1422
 -1       258    8    0    1
 -2        55        54       211      1170      1425      1426
 -1       259    8    0    1
 -2        54       210       211      1423      1427      1425
 -1       260    8    0    1
 -2        56        55       212      1171      1428      1429
 -1       261    8    0    1
 -2        55       211       212      1426      1430      1428
 -1       262    8    0    1
 -2        57        56       213      1172      1431      1432
 -1       263    8    0    1
 -2        56       212       213      1429      1433      1431
 -1       264    8    0    1
 -2        58        57       214      1173      1434      1435
 -1       265    8    0    1
 -2        57       213       214      1432      1436      1434
 -1       266    8    0    1
 -2        59        58       215      1174      1437      1438
 -1       267    8    0    1
 -2        58       214       215      1435      1439      1437
 -1       268    8    0    1
 -2        60        59       216      1175      1440      1441
 -1       269    8    0    1
 -2        59       215       216      1438      1442      1440
 -1       270    8    0    1
 -2        61        60       217      1176      1443      1444
 -1       271    8    0    1
 -2        60       216       217      1441      1445      1443
 -1       272    8    0    1
 -2        62        61       218      1177      1446      1447
 -1       273    8    0    1
 -2        61       217       218      1444      1448      1446
 -1       274    8    0    1
 -2        63        62       219      1178      1449      1450
 -1       275    8    0    1
 -2        62       218       219      1447      1451      1449
 -1       276    8    0    1
 -2        64        63       220      1179      1452      1453
 -1       277    8    0    1
 -2        63       219       220      1450      1454      1452
 -1       278    8    0    1
 -2        65        64       221      1180      1455      1456
 -1       279    8    0    1
 -2        64       220       221      1453      1457      1455
 -1       280    8    0    1
 -2        66        65       222      1181      1458      1459
 -1       281    8    0    1
 -2        65       221       222      1456      1460      1458
 -1       282    8    0    1
 -2        67        66       223      1182      1461      1462
 -1       283    8    0    1
 -2        66       222       223      1459      1463      1461
 -1       284    8    0    1
 -2        68        67       224      1183      1464      1465
 -1       285    8    0    1
 -2        67       223       224      1462      1466      1464
 -1       286    8    0    1
 -2        69        68       225      1184      1467      1468
 -1       287    8    0    1
 -2        68       224       225      1465      1469      1467
 -1       288    8    0    1
 -2        70        69       226      1185      1470      1471
 -1       289    8    0    1
 -2        69       225       226      1468      1472      1470
 -1       290    8    0    1
 -2        71        70       227      1186      1473      1474
 -1       291    8    0    1
 -2        70       226       227      1471      1475      1473
 -1       292    8    0    1
 -2         4        71       136      1187      1476      1254
 -1       293    8    0    1
 -2       136        71       227      1476      1474      1477
 -1       294    8    0    1
 -2        72        73       228      1189      1478      1479
 -1       295    8    0    1
 -2        72       228       179      1479      1480      1332
 -1       296    8    0    1
 -2        73        74       229      1190      1481      1482
 -1       297    8    0    1
 -2        73       229       228      1482      1483      1478
 -1       298    8    0    1
 -2        74        75       230      1191      1484      1485
 -1       299    8    0    1
 -2        74       230       229      1485      1486      1481
 -1       300    8    0    1
 -2        75        76       231      1192      1487      1488
 -1       301    8    0    1
 -2        75       231       230      1488      1489      1484
 -1       302    8    0    1
 -2        76        77       232      1193      1490      1491
 -1       303    8    0    1
 -2        76       232       231      1491      1492      1487
 -1       304    8    0    1
 -2        77        78       233      1194      1493      1494
 -1       305    8    0    1
 -2        77       233       232      1494      1495      1490
 -1       306    8    0    1
 -2        78        79       234      1195      1496      1497
 -1       307    8    0    1
 -2        78       234       233      1497      1498      1493
 -1       308    8    0    1
 -2        79        80       235      1196      1499      1500
 -1       309    8    0    1
 -2        79       235       234      1500      1501      1496
 -1       310    8    0    1
 -2        80        81       236      1197      1502      1503
 -1       311    8    0    1
 -2        80       236       235      1503      1504      1499
 -1       312    8    0    1
 -2        81        82       237      1198      1505      1506
 -1       313    8    0    1
 -2        81       237       236      1506      1507      1502
 -1       314    8    0    1
 -2        82        83       238      1199      1508      1509
 -1       315    8    0    1
 -2        82       238       237      1509      1510      1505
 -1       316    8    0    1
 -2        83        84       239      1200      1511      1512
 -1       317    8    0    1
 -2        83       239       238      1512      1513      1508
 -1       318    8    0    1
 -2        84        85       240      1201      1514      1515
 -1       319    8    0    1
 -2        84       240       239      1515      1516      1511
 -1       320    8    0    1
 -2        85        86       241      1202      1517      1518
 -1       321    8    0    1
 -2        85       241       240      1518      1519      1514
 -1       322    8    0    1
 -2        86        87       242      1203      1520      1521
 -1       323    8    0    1
 -2        86       242       241      1521      1522      1517
 -1       324    8    0    1
 -2        87        88       243      1204      1523      1524
 -1       325    8    0    1
 -2        87       243       242      1524      1525      1520
 -1       326    8    0    1
 -2        88        89       244      1205      1526      1527
 -1       327    8    0    1
 -2        88       244       243      1527      1528      1523
 -1       328    8    0    1
 -2        89        90       245      1206      1529      1530
 -1       329    8    0    1
 -2        89       245       244      1530      1531      1526
 -1       330    8    0    1
 -2        90        91       246      1207      1532      1533
 -1       331    8    0    1
 -2        90       246       245      1533      1534      1529
 -1       332    8    0    1
 -2        91        92       247      1208      1535      1536
 -1       333    8    0    1
 -2        91       247       246      1536      1537      1532
 -1       334    8    0    1
 -2        92        93       248      1209      1538      1539
 -1       335    8    0    1
 -2        92       248       247      1539      1540      1535
 -1       336    8    0    1
 -2        93        94       249      1210      1541      1542
 -1       337    8    0    1
 -2        93       249       248      1542      1543      1538
 -1       338    8    0    1
 -2        94        95       250      1211      1544      1545
 -1       339    8    0    1
 -2        94       250       249      1545      1546      1541
 -1       340    8    0    1
 -2        95        96       251      1212      1547      1548
 -1       341    8    0    1
 -2        95       251       250      1548      1549      1544
 -1       342    8    0    1
 -2        96        97       252      1213      1550      1551
 -1       343    8    0    1
 -2        96       252       251      1551      1552      1547
 -1       344    8    0    1
 -2        97        98       253      1214      1553      1554
 -1       345    8    0    1
 -2        97       253       252      1554      1555      1550
 -1       346    8    0    1
 -2        98        99       254      1215      1556      1557
 -1       347    8    0    1
 -2        98       254       253      1557      1558      1553
 -1       348    8    0    1
 -2        99       100       255      1216      1559      1560
 -1       349    8    0    1
 -2        99       255       254      1560      1561      1556
 -1       350    8    0    1
 -2       100       101       256      1217      1562      1563
 -1       351    8    0    1
 -2       100       256       255      1563      1564      1559
 -1       352    8    0    1
 -2       101       102       257      1218      1565      1566
 -1       353    8    0    1
 -2       101       257       256      1566      1567      1562
 -1       354    8    0    1
 -2       102       103       258      1219      1568      1569
 -1       355    8    0    1
 -2       102       258       257      1569      1570      1565
 -1       356    8    0    1
 -2       103       104       259      1220      1571      1572
 -1       357    8    0    1
 -2       103       259       258      1572      1573      1568
 -1       358    8    0    1
 -2       104       105       260      1221      1574      1575
 -1       359    8    0    1
 -2       104       260       259      1575      1576      1571
 -1       360    8    0    1
 -2       105       106       261      1222      1577      1578
 -1       361    8    0    1
 -2       105       261       260      1578      1579      1574
 -1       362    8    0    1
 -2       106       107       262      1223      1580      1581
 -1       363    8    0    1
 -2       106       262       261      1581      1582      1577
 -1       364    8    0    1
 -2       107       108       263      1224      1583      1584
 -1       365    8    0    1
 -2       107       263       262      1584      1585      1580
 -1       366    8    0    1
 -2       108       109       264      1225      1586      1587
 -1       367    8    0    1
 -2       108       264       263      1587      1588      1583
 -1       368    8    0    1
 -2       109       110       265      1226      1589      1590
 -1       369    8    0    1
 -2       109       265       264      1590      1591      1586
 -1       370    8    0    1
 -2       110       111       266      1227      1592      1593
 -1       371    8    0    1
 -2       110       266       265      1593      1594      1589
 -1       372    8    0    1
 -2       111       112       267      1228      1595      1596
 -1       373    8    0    1
 -2       111       267       266      1596      1597      1592
 -1       374    8    0    1
 -2       112       113       268      1229      1598      1599
 -1       375    8    0    1
 -2       112       268       267      1599      1600      1595
 -1       376    8    0    1
 -2       113       114       269      1230      1601      1602
 -1       377    8    0    1
 -2       113       269       268      1602      1603      1598
 -1       378    8    0    1
 -2       114       115       270      1231      1604      1605
 -1       379    8    0    1
 -2       114       270       269      1605      1606      1601
 -1       380    8    0    1
 -2       115       116       271      1232      1607      1608
 -1       381    8    0    1
 -2       115       271       270      1608      1609      1604
 -1       382    8    0    1
 -2       116       117       272      1233      1610      1611
 -1       383    8    0    1
 -2       116       272       271      1611      1612      1607
 -1       384    8    0    1
 -2       117       118       273      1234      1613      1614
 -1       385    8    0    1
 -2       117       273       272      1614      1615      1610
 -1       386    8    0    1
 -2       118       119       274      1235      1616      1617
 -1       387    8    0    1
 -2       118       274       273      1617      1618      1613
 -1       388    8    0    1
 -2       119       120       275      1236      1619      1620
 -1       389    8    0    1
 -2       119       275       274      1620      1621      1616
 -1       390    8    0    1
 -2       120         3       121      1237      1238      1622
 -1       391    8    0    1
 -2       121       122       276      1239      1623      1624
 -1       392    8    0    1
 -2       122       123       277      1240      1625      1626
 -1       393    8    0    1
 -2       122       277       276      1626      1627      1623
 -1       394    8    0    1
 -2       123       124       278      1241      1628      1629
 -1       395    8    0    1
 -2       123       278       277      1629      1630      1625
 -1       396    8    0    1
 -2       124       125       279      1242      1631      1632
 -1       397    8    0    1
 -2       124       279       278      1632      1633      1628
 -1       398    8    0    1
 -2       125       126       280      1243      1634      1635
 -1       399    8    0    1
 -2       125       280       279      1635      1636      1631
 -1       400    8    0    1
 -2       126       127       281      1244      1637      1638
 -1       401    8    0    1
 -2       126       281       280      1638      1639      1634
 -1       402    8    0    1
 -2       127       128       282      1245      1640      1641
 -1       403    8    0    1
 -2       127       282       281      1641      1642      1637
 -1       404    8    0    1
 -2       128       129       283      1246      1643      1644
 -1       405    8    0    1
 -2       128       283       282      1644      1645      1640
 -1       406    8    0    1
 -2       129       130       284      1247      1646      1647
 -1       407    8    0    1
 -2       129       284       283      1647      1648      1643
 -1       408    8    0    1
 -2       130       131       285      1248      1649      1650
 -1       409    8    0    1
 -2       130       285       284      1650      1651      1646
 -1       410    8    0    1
 -2       131       132       286      1249      1652      1653
 -1       411    8    0    1
 -2       131       286       285      1653      1654      1649
 -1       412    8    0    1
 -2       132       133       287      1250      1655      1656
 -1       413    8    0    1
 -2       132       287       286      1656      1657      1652
 -1       414    8    0    1
 -2       133       134       288      1251      1658      1659
 -1       415    8    0    1
 -2       133       288       287      1659      1660      1655
 -1       416    8    0    1
 -2       134       135       289      1252      1661      1662
 -1       417    8    0    1
 -2       134       289       288      1662      1663      1658
 -1       418    8    0    1
 -2       135       136       290      1253      1664      1665
 -1       419    8    0    1
 -2       289       135       290      1661      1665      1666
 -1       420    8    0    1
 -2       136       227       290      1477      1667      1664
 -1       421    8    0    1
 -2         2       137       291      1255      1668      1669
 -1       422    8    0    1
 -2       137       138       292      1256      1670      1671
 -1       423    8    0    1
 -2       138       139       293      1257      1672      1673
 -1       424    8    0    1
 -2       139       140       294      1258      1674      1675
 -1       425    8    0    1
 -2       140       141       295      1259      1676      1677
 -1       426    8    0    1
 -2       141       142       296      1260      1678      1679
 -1       427    8    0    1
 -2       142       143       297      1261      1680      1681
 -1       428    8    0    1
 -2       143       144       298      1262      1682      1683
 -1       429    8    0    1
 -2       144       145       299      1263      1684      1685
 -1       430    8    0    1
 -2       145       146       300      1264      1686      1687
 -1       431    8    0    1
 -2       146       147       301      1265      1688      1689
 -1       432    8    0    1
 -2       147       148       302      1266      1690      1691
 -1       433    8    0    1
 -2       148       149       303      1267      1692      1693
 -1       434    8    0    1
 -2       149       150       304      1268      1694      1695
 -1       435    8    0    1
 -2       150       151       305      1269      1696      1697
 -1       436    8    0    1
 -2       151       152       306      1270      1698      1699
 -1       437    8    0    1
 -2       152       153       307      1271      1700      1701
 -1       438    8    0    1
 -2       153       154       308      1272      1702      1703
 -1       439    8    0    1
 -2       154       155       309      1273      1704      1705
 -1       440    8    0    1
 -2       155       156       310      1274      1706      1707
 -1       441    8    0    1
 -2       156       157       311      1275      1708      1709
 -1       442    8    0    1
 -2       157       158       312      1276      1710      1711
 -1       443    8    0    1
 -2       158       159       313      1277      1712      1713
 -1       444    8    0    1
 -2       159       160       314      1278      1714      1715
 -1       445    8    0    1
 -2       160         1       315      1279      1716      1717
 -1       446    8    0    1
 -2         1       161       316      1280      1718      1719
 -1       447    8    0    1
 -2       161       162       317      1281      1720      1721
 -1       448    8    0    1
 -2       161       317       316      1721      1722      1718
 -1       449    8    0    1
 -2       162       163       318      1282      1723      1724
 -1       450    8    0    1
 -2       163         2       319      1283      1725      1726
 -1       451    8    0    1
 -2       163       319       318      1726      1727      1723
 -1       452    8    0    1
 -2       294       140       295      1674      1677      1728
 -1       453    8    0    1
 -2       293       139       294      1672      1675      1729
 -1       454    8    0    1
 -2       120       121       275      1622      1730      1619
 -1       455    8    0    1
 -2       121       276       275      1624      1731      1730
 -1       456    8    0    1
 -2       291       137       292      1668      1671      1732
 -1       457    8    0    1
 -2       292       138       293      1670      1673      1733
 -1       458    8    0    1
 -2         2       291       319      1669      1734      1725
 -1       459    8    0    1
 -2       141       296       295      1679      1735      1676
 -1       460    8    0    1
 -2       142       297       296      1681      1736      1678
 -1       461    8    0    1
 -2       143       298       297      1683      1737      1680
 -1       462    8    0    1
 -2       144       299       298      1685      1738      1682
 -1       463    8    0    1
 -2       145       300       299      1687      1739      1684
 -1       464    8    0    1
 -2       146       301       300      1689      1740      1686
 -1       465    8    0    1
 -2       147       302       301      1691      1741      1688
 -1       466    8    0    1
 -2       148       303       302      1693      1742      1690
 -1       467    8    0    1
 -2       149       304       303      1695      1743      1692
 -1       468    8    0    1
 -2       150       305       304      1697      1744      1694
 -1       469    8    0    1
 -2       151       306       305      1699      1745      1696
 -1       470    8    0    1
 -2       152       307       306      1701      1746      1698
 -1       471    8    0    1
 -2       153       308       307      1703      1747      1700
 -1       472    8    0    1
 -2       154       309       308      1705      1748      1702
 -1       473    8    0    1
 -2       155       310       309      1707      1749      1704
 -1       474    8    0    1
 -2       156       311       310      1709      1750      1706
 -1       475    8    0    1
 -2       157       312       311      1711      1751      1708
 -1       476    8    0    1
 -2       158       313       312      1713      1752      1710
 -1       477    8    0    1
 -2       159       314       313      1715      1753      1712
 -1       478    8    0    1
 -2       160       315       314      1717      1754      1714
 -1       479    8    0    1
 -2         1       316       315      1719      1755      1716
 -1       480    8    0    1
 -2        23         7       164      1284      1286      1756
 -1       481    8    0    1
 -2       162       318       317      1724      1757      1720
 -1       482    8    0    1
 -2       165       166       320      1292      1758      1759
 -1       483    8    0    1
 -2       164       165       321      1289      1760      1761
 -1       484    8    0    1
 -2       165       320       321      1759      1762      1760
 -1       485    8    0    1
 -2       167       168       322      1298      1763      1764
 -1       486    8    0    1
 -2       168       169       323      1301      1765      1766
 -1       487    8    0    1
 -2       168       323       322      1766      1767      1763
 -1       488    8    0    1
 -2       169       170       324      1304      1768      1769
 -1       489    8    0    1
 -2       169       324       323      1769      1770      1765
 -1       490    8    0    1
 -2       170       171       325      1307      1771      1772
 -1       491    8    0    1
 -2       170       325       324      1772      1773      1768
 -1       492    8    0    1
 -2       171       172       326      1310      1774      1775
 -1       493    8    0    1
 -2       171       326       325      1775      1776      1771
 -1       494    8    0    1
 -2       172       173       327      1313      1777      1778
 -1       495    8    0    1
 -2       172       327       326      1778      1779      1774
 -1       496    8    0    1
 -2       173       174       328      1316      1780      1781
 -1       497    8    0    1
 -2       173       328       327      1781      1782      1777
 -1       498    8    0    1
 -2       174       175       329      1319      1783      1784
 -1       499    8    0    1
 -2       174       329       328      1784      1785      1780
 -1       500    8    0    1
 -2       175       176       330      1322      1786      1787
 -1       501    8    0    1
 -2       175       330       329      1787      1788      1783
 -1       502    8    0    1
 -2       176       177       331      1325      1789      1790
 -1       503    8    0    1
 -2       176       331       330      1790      1791      1786
 -1       504    8    0    1
 -2       177       178       332      1328      1792      1793
 -1       505    8    0    1
 -2       177       332       331      1793      1794      1789
 -1       506    8    0    1
 -2       178       179       333      1331      1795      1796
 -1       507    8    0    1
 -2       332       178       333      1792      1796      1797
 -1       508    8    0    1
 -2       179       228       333      1480      1798      1795
 -1       509    8    0    1
 -2       180        23       164      1333      1756      1799
 -1       510    8    0    1
 -2       228       229       334      1483      1800      1801
 -1       511    8    0    1
 -2       228       334       333      1801      1802      1798
 -1       512    8    0    1
 -2       317       318       335      1757      1803      1804
 -1       513    8    0    1
 -2       180       164       321      1799      1761      1805
 -1       514    8    0    1
 -2       182       181       336      1340      1806      1807
 -1       515    8    0    1
 -2       183       182       337      1343      1808      1809
 -1       516    8    0    1
 -2       182       336       337      1807      1810      1808
 -1       517    8    0    1
 -2       184       183       338      1346      1811      1812
 -1       518    8    0    1
 -2       183       337       338      1809      1813      1811
 -1       519    8    0    1
 -2       185       184       339      1349      1814      1815
 -1       520    8    0    1
 -2       184       338       339      1812      1816      1814
 -1       521    8    0    1
 -2       186       185       340      1352      1817      1818
 -1       522    8    0    1
 -2       185       339       340      1815      1819      1817
 -1       523    8    0    1
 -2       187       186       341      1355      1820      1821
 -1       524    8    0    1
 -2       186       340       341      1818      1822      1820
 -1       525    8    0    1
 -2       188       187       342      1358      1823      1824
 -1       526    8    0    1
 -2       187       341       342      1821      1825      1823
 -1       527    8    0    1
 -2       189       188       343      1361      1826      1827
 -1       528    8    0    1
 -2       188       342       343      1824      1828      1826
 -1       529    8    0    1
 -2       190       189       344      1364      1829      1830
 -1       530    8    0    1
 -2       189       343       344      1827      1831      1829
 -1       531    8    0    1
 -2       191       190       345      1367      1832      1833
 -1       532    8    0    1
 -2       190       344       345      1830      1834      1832
 -1       533    8    0    1
 -2       192       191       346      1370      1835      1836
 -1       534    8    0    1
 -2       191       345       346      1833      1837      1835
 -1       535    8    0    1
 -2       193       192       347      1373      1838      1839
 -1       536    8    0    1
 -2       192       346       347      1836      1840      1838
 -1       537    8    0    1
 -2       194       193       348      1376      1841      1842
 -1       538    8    0    1
 -2       193       347       348      1839      1843      1841
 -1       539    8    0    1
 -2       195       194       349      1379      1844      1845
 -1       540    8    0    1
 -2       194       348       349      1842      1846      1844
 -1       541    8    0    1
 -2       196       195       350      1382      1847      1848
 -1       542    8    0    1
 -2       195       349       350      1845      1849      1847
 -1       543    8    0    1
 -2       197       196       351      1385      1850      1851
 -1       544    8    0    1
 -2       196       350       351      1848      1852      1850
 -1       545    8    0    1
 -2       198       197       352      1388      1853      1854
 -1       546    8    0    1
 -2       197       351       352      1851      1855      1853
 -1       547    8    0    1
 -2       199       198       353      1391      1856      1857
 -1       548    8    0    1
 -2       198       352       353      1854      1858      1856
 -1       549    8    0    1
 -2       200       199       354      1394      1859      1860
 -1       550    8    0    1
 -2       199       353       354      1857      1861      1859
 -1       551    8    0    1
 -2       201       200       355      1397      1862      1863
 -1       552    8    0    1
 -2       200       354       355      1860      1864      1862
 -1       553    8    0    1
 -2       202       201       356      1400      1865      1866
 -1       554    8    0    1
 -2       201       355       356      1863      1867      1865
 -1       555    8    0    1
 -2       203       202       357      1403      1868      1869
 -1       556    8    0    1
 -2       202       356       357      1866      1870      1868
 -1       557    8    0    1
 -2       204       203       358      1406      1871      1872
 -1       558    8    0    1
 -2       203       357       358      1869      1873      1871
 -1       559    8    0    1
 -2       205       204       359      1409      1874      1875
 -1       560    8    0    1
 -2       204       358       359      1872      1876      1874
 -1       561    8    0    1
 -2       206       205       360      1412      1877      1878
 -1       562    8    0    1
 -2       205       359       360      1875      1879      1877
 -1       563    8    0    1
 -2       207       206       361      1415      1880      1881
 -1       564    8    0    1
 -2       206       360       361      1878      1882      1880
 -1       565    8    0    1
 -2       208       207       362      1418      1883      1884
 -1       566    8    0    1
 -2       207       361       362      1881      1885      1883
 -1       567    8    0    1
 -2       209       208       363      1421      1886      1887
 -1       568    8    0    1
 -2       208       362       363      1884      1888      1886
 -1       569    8    0    1
 -2       210       209       364      1424      1889      1890
 -1       570    8    0    1
 -2       209       363       364      1887      1891      1889
 -1       571    8    0    1
 -2       211       210       365      1427      1892      1893
 -1       572    8    0    1
 -2       210       364       365      1890      1894      1892
 -1       573    8    0    1
 -2       212       211       366      1430      1895      1896
 -1       574    8    0    1
 -2       211       365       366      1893      1897      1895
 -1       575    8    0    1
 -2       213       212       367      1433      1898      1899
 -1       576    8    0    1
 -2       212       366       367      1896      1900      1898
 -1       577    8    0    1
 -2       214       213       368      1436      1901      1902
 -1       578    8    0    1
 -2       213       367       368      1899      1903      1901
 -1       579    8    0    1
 -2       215       214       369      1439      1904      1905
 -1       580    8    0    1
 -2       214       368       369      1902      1906      1904
 -1       581    8    0    1
 -2       216       215       370      1442      1907      1908
 -1       582    8    0    1
 -2       215       369       370      1905      1909      1907
 -1       583    8    0    1
 -2       217       216       371      1445      1910      1911
 -1       584    8    0    1
 -2       216       370       371      1908      1912      1910
 -1       585    8    0    1
 -2       218       217       372      1448      1913      1914
 -1       586    8    0    1
 -2       217       371       372      1911      1915      1913
 -1       587    8    0    1
 -2       219       218       373      1451      1916      1917
 -1       588    8    0    1
 -2       218       372       373      1914      1918      1916
 -1       589    8    0    1
 -2       220       219       374      1454      1919      1920
 -1       590    8    0    1
 -2       219       373       374      1917      1921      1919
 -1       591    8    0    1
 -2       221       220       375      1457      1922      1923
 -1       592    8    0    1
 -2       220       374       375      1920      1924      1922
 -1       593    8    0    1
 -2       222       221       376      1460      1925      1926
 -1       594    8    0    1
 -2       221       375       376      1923      1927      1925
 -1       595    8    0    1
 -2       223       222       377      1463      1928      1929
 -1       596    8    0    1
 -2       222       376       377      1926      1930      1928
 -1       597    8    0    1
 -2       224       223       378      1466      1931      1932
 -1       598    8    0    1
 -2       223       377       378      1929      1933      1931
 -1       599    8    0    1
 -2       225       224       379      1469      1934      1935
 -1       600    8    0    1
 -2       224       378       379      1932      1936      1934
 -1       601    8    0    1
 -2       226       225       380      1472      1937      1938
 -1       602    8    0    1
 -2       225       379       380      1935      1939      1937
 -1       603    8    0    1
 -2       227       226       381      1475      1940      1941
 -1       604    8    0    1
 -2       290       227       381      1667      1941      1942
 -1       605    8    0    1
 -2       226       380       381      1938      1943      1940
 -1       606    8    0    1
 -2       229       230       382      1486      1944      1945
 -1       607    8    0    1
 -2       229       382       334      1945      1946      1800
 -1       608    8    0    1
 -2       230       231       383      1489      1947      1948
 -1       609    8    0    1
 -2       230       383       382      1948      1949      1944
 -1       610    8    0    1
 -2       231       232       384      1492      1950      1951
 -1       611    8    0    1
 -2       231       384       383      1951      1952      1947
 -1       612    8    0    1
 -2       232       233       385      1495      1953      1954
 -1       613    8    0    1
 -2       232       385       384      1954      1955      1950
 -1       614    8    0    1
 -2       233       234       386      1498      1956      1957
 -1       615    8    0    1
 -2       233       386       385      1957      1958      1953
 -1       616    8    0    1
 -2       234       235       387      1501      1959      1960
 -1       617    8    0    1
 -2       234       387       386      1960      1961      1956
 -1       618    8    0    1
 -2       235       236       388      1504      1962      1963
 -1       619    8    0    1
 -2       235       388       387      1963      1964      1959
 -1       620    8    0    1
 -2       236       237       389      1507      1965      1966
 -1       621    8    0    1
 -2       236       389       388      1966      1967      1962
 -1       622    8    0    1
 -2       237       238       390      1510      1968      1969
 -1       623    8    0    1
 -2       237       390       389      1969      1970      1965
 -1       624    8    0    1
 -2       238       239       391      1513      1971      1972
 -1       625    8    0    1
 -2       238       391       390      1972      1973      1968
 -1       626    8    0    1
 -2       239       240       392      1516      1974      1975
 -1       627    8    0    1
 -2       239       392       391      1975      1976      1971
 -1       628    8    0    1
 -2       240       241       393      1519      1977      1978
 -1       629    8    0    1
 -2       240       393       392      1978      1979      1974
 -1       630    8    0    1
 -2       241       242       394      1522      1980      1981
 -1       631    8    0    1
 -2       241       394       393      1981      1982      1977
 -1       632    8    0    1
 -2       242       243       395      1525      1983      1984
 -1       633    8    0    1
 -2       242       395       394      1984      1985      1980
 -1       634    8    0    1
 -2       243       244       396      1528      1986      1987
 -1       635    8    0    1
 -2       243       396       395      1987      1988      1983
 -1       636    8    0    1
 -2       244       245       397      1531      1989      1990
 -1       637    8    0    1
 -2       244       397       396      1990      1991      1986
 -1       638    8    0    1
 -2       245       246       398      1534      1992      1993
 -1       639    8    0    1
 -2       245       398       397      1993      1994      1989
 -1       640    8    0    1
 -2       246       247       399      1537      1995      1996
 -1       641    8    0    1
 -2       246       399       398      1996      1997      1992
 -1       642    8    0    1
 -2       247       248       400      1540      1998      1999
 -1       643    8    0    1
 -2       247       400       399      1999      2000      1995
 -1       644    8    0    1
 -2       248       249       401      1543      2001      2002
 -1       645    8    0    1
 -2       248       401       400      2002      2003      1998
 -1       646    8    0    1
 -2       249       250       402      1546      2004      2005
 -1       647    8    0    1
 -2       249       402       401      2005      2006      2001
 -1       648    8    0    1
 -2       250       251       403      1549      2007      2008
 -1       649    8    0    1
 -2       250       403       402      2008      2009      2004
 -1       650    8    0    1
 -2       251       252       404      1552      2010      2011
 -1       651    8    0    1
 -2       251       404       403      2011      2012      2007
 -1       652    8    0    1
 -2       252       253       405      1555      2013      2014
 -1       653    8    0    1
 -2       252       405       404      2014      2015      2010
 -1       654    8    0    1
 -2       253       254       406      1558      2016      2017
 -1       655    8    0    1
 -2       253       406       405      2017      2018      2013
 -1       656    8    0    1
 -2       254       255       407      1561      2019      2020
 -1       657    8    0    1
 -2       254       407       406      2020      2021      2016
 -1       658    8    0    1
 -2       255       256       408      1564      2022      2023
 -1       659    8    0    1
 -2       255       408       407      2023      2024      2019
 -1       660    8    0    1
 -2       256       257       409      1567      2025      2026
 -1       661    8    0    1
 -2       256       409       408      2026      2027      2022
 -1       662    8    0    1
 -2       257       258       410      1570      2028      2029
 -1       663    8    0    1
 -2       257       410       409      2029      2030      2025
 -1       664    8    0    1
 -2       258       259       411      1573      2031      2032
 -1       665    8    0    1
 -2       258       411       410      2032      2033      2028
 -1       666    8    0    1
 -2       259       260       412      1576      2034      2035
 -1       667    8    0    1
 -2       259       412       411      2035      2036      2031
 -1       668    8    0    1
 -2       260       261       413      1579      2037      2038
 -1       669    8    0    1
 -2       260       413       412      2038      2039      2034
 -1       670    8    0    1
 -2       261       262       414      1582      2040      2041
 -1       671    8    0    1
 -2       261       414       413      2041      2042      2037
 -1       672    8    0    1
 -2       262       263       415      1585      2043      2044
 -1       673    8    0    1
 -2       262       415       414      2044      2045      2040
 -1       674    8    0    1
 -2       263       264       416      1588      2046      2047
 -1       675    8    0    1
 -2       263       416       415      2047      2048      2043
 -1       676    8    0    1
 -2       264       265       417      1591      2049      2050
 -1       677    8    0    1
 -2       264       417       416      2050      2051      2046
 -1       678    8    0    1
 -2       265       266       418      1594      2052      2053
 -1       679    8    0    1
 -2       265       418       417      2053      2054      2049
 -1       680    8    0    1
 -2       266       267       419      1597      2055      2056
 -1       681    8    0    1
 -2       266       419       418      2056      2057      2052
 -1       682    8    0    1
 -2       267       268       420      1600      2058      2059
 -1       683    8    0    1
 -2       267       420       419      2059      2060      2055
 -1       684    8    0    1
 -2       268       269       421      1603      2061      2062
 -1       685    8    0    1
 -2       268       421       420      2062      2063      2058
 -1       686    8    0    1
 -2       269       270       422      1606      2064      2065
 -1       687    8    0    1
 -2       269       422       421      2065      2066      2061
 -1       688    8    0    1
 -2       270       271       423      1609      2067      2068
 -1       689    8    0    1
 -2       270       423       422      2068      2069      2064
 -1       690    8    0    1
 -2       271       272       424      1612      2070      2071
 -1       691    8    0    1
 -2       271       424       423      2071      2072      2067
 -1       692    8    0    1
 -2       272       273       425      1615      2073      2074
 -1       693    8    0    1
 -2       272       425       424      2074      2075      2070
 -1       694    8    0    1
 -2       273       274       426      1618      2076      2077
 -1       695    8    0    1
 -2       273       426       425      2077      2078      2073
 -1       696    8    0    1
 -2       274       275       427      1621      2079      2080
 -1       697    8    0    1
 -2       426       274       427      2076      2080      2081
 -1       698    8    0    1
 -2       275       276       427      1731      2082      2079
 -1       699    8    0    1
 -2       278       279       428      1633      2083      2084
 -1       700    8    0    1
 -2       277       278       429      1630      2085      2086
 -1       701    8    0    1
 -2       278       428       429      2084      2087      2085
 -1       702    8    0    1
 -2       276       277       430      1627      2088      2089
 -1       703    8    0    1
 -2       427       276       430      2082      2089      2090
 -1       704    8    0    1
 -2       277       429       430      2086      2091      2088
 -1       705    8    0    1
 -2       279       280       431      1636      2092      2093
 -1       706    8    0    1
 -2       279       431       428      2093      2094      2083
 -1       707    8    0    1
 -2       280       281       432      1639      2095      2096
 -1       708    8    0    1
 -2       280       432       431      2096      2097      2092
 -1       709    8    0    1
 -2       281       282       433      1642      2098      2099
 -1       710    8    0    1
 -2       281       433       432      2099      2100      2095
 -1       711    8    0    1
 -2       282       283       434      1645      2101      2102
 -1       712    8    0    1
 -2       282       434       433      2102      2103      2098
 -1       713    8    0    1
 -2       283       284       435      1648      2104      2105
 -1       714    8    0    1
 -2       283       435       434      2105      2106      2101
 -1       715    8    0    1
 -2       284       285       436      1651      2107      2108
 -1       716    8    0    1
 -2       284       436       435      2108      2109      2104
 -1       717    8    0    1
 -2       285       286       437      1654      2110      2111
 -1       718    8    0    1
 -2       285       437       436      2111      2112      2107
 -1       719    8    0    1
 -2       286       287       438      1657      2113      2114
 -1       720    8    0    1
 -2       286       438       437      2114      2115      2110
 -1       721    8    0    1
 -2       287       288       439      1660      2116      2117
 -1       722    8    0    1
 -2       287       439       438      2117      2118      2113
 -1       723    8    0    1
 -2       288       289       440      1663      2119      2120
 -1       724    8    0    1
 -2       288       440       439      2120      2121      2116
 -1       725    8    0    1
 -2       292       293       441      1733      2122      2123
 -1       726    8    0    1
 -2       319       291       442      1734      2124      2125
 -1       727    8    0    1
 -2       291       292       443      1732      2126      2127
 -1       728    8    0    1
 -2       292       441       443      2123      2128      2126
 -1       729    8    0    1
 -2       293       294       444      1729      2129      2130
 -1       730    8    0    1
 -2       316       317       445      1722      2131      2132
 -1       731    8    0    1
 -2       317       335       445      1804      2133      2131
 -1       732    8    0    1
 -2       294       295       446      1728      2134      2135
 -1       733    8    0    1
 -2       318       319       447      1727      2136      2137
 -1       734    8    0    1
 -2       319       442       447      2125      2138      2136
 -1       735    8    0    1
 -2       166       167       448      1295      2139      2140
 -1       736    8    0    1
 -2       320       166       448      1758      2140      2141
 -1       737    8    0    1
 -2       167       322       448      1764      2142      2139
 -1       738    8    0    1
 -2       296       297       449      1736      2143      2144
 -1       739    8    0    1
 -2       297       298       450      1737      2145      2146
 -1       740    8    0    1
 -2       298       299       451      1738      2147      2148
 -1       741    8    0    1
 -2       298       451       450      2148      2149      2145
 -1       742    8    0    1
 -2       299       300       452      1739      2150      2151
 -1       743    8    0    1
 -2       300       301       453      1740      2152      2153
 -1       744    8    0    1
 -2       301       302       454      1741      2154      2155
 -1       745    8    0    1
 -2       302       303       455      1742      2156      2157
 -1       746    8    0    1
 -2       303       304       456      1743      2158      2159
 -1       747    8    0    1
 -2       304       305       457      1744      2160      2161
 -1       748    8    0    1
 -2       304       457       456      2161      2162      2158
 -1       749    8    0    1
 -2       305       306       458      1745      2163      2164
 -1       750    8    0    1
 -2       306       307       459      1746      2165      2166
 -1       751    8    0    1
 -2       307       308       460      1747      2167      2168
 -1       752    8    0    1
 -2       308       309       461      1748      2169      2170
 -1       753    8    0    1
 -2       309       310       462      1749      2171      2172
 -1       754    8    0    1
 -2       310       311       463      1750      2173      2174
 -1       755    8    0    1
 -2       311       312       464      1751      2175      2176
 -1       756    8    0    1
 -2       312       313       465      1752      2177      2178
 -1       757    8    0    1
 -2       313       314       466      1753      2179      2180
 -1       758    8    0    1
 -2       314       315       467      1754      2181      2182
 -1       759    8    0    1
 -2       314       467       466      2182      2183      2179
 -1       760    8    0    1
 -2       315       316       468      1755      2184      2185
 -1       761    8    0    1
 -2       295       296       469      1735      2186      2187
 -1       762    8    0    1
 -2       294       446       444      2135      2188      2129
 -1       763    8    0    1
 -2       335       318       447      1803      2137      2189
 -1       764    8    0    1
 -2       181       180       321      1337      1805      2190
 -1       765    8    0    1
 -2       336       181       321      1806      2190      2191
 -1       766    8    0    1
 -2       442       291       443      2124      2127      2192
 -1       767    8    0    1
 -2       293       444       470      2130      2193      2194
 -1       768    8    0    1
 -2       293       470       441      2194      2195      2122
 -1       769    8    0    1
 -2       440       289       290      2119      1666      2196
 -1       770    8    0    1
 -2       316       445       468      2132      2197      2184
 -1       771    8    0    1
 -2       469       296       449      2186      2144      2198
 -1       772    8    0    1
 -2       467       315       468      2181      2185      2199
 -1       773    8    0    1
 -2       465       313       466      2177      2180      2200
 -1       774    8    0    1
 -2       464       312       471      2175      2201      2202
 -1       775    8    0    1
 -2       312       465       471      2178      2203      2201
 -1       776    8    0    1
 -2       463       311       464      2173      2176      2204
 -1       777    8    0    1
 -2       462       310       463      2171      2174      2205
 -1       778    8    0    1
 -2       461       309       472      2169      2206      2207
 -1       779    8    0    1
 -2       309       462       472      2172      2208      2206
 -1       780    8    0    1
 -2       460       308       461      2167      2170      2209
 -1       781    8    0    1
 -2       459       307       460      2165      2168      2210
 -1       782    8    0    1
 -2       457       305       473      2160      2211      2212
 -1       783    8    0    1
 -2       305       458       473      2164      2213      2211
 -1       784    8    0    1
 -2       455       303       456      2156      2159      2214
 -1       785    8    0    1
 -2       454       302       455      2154      2157      2215
 -1       786    8    0    1
 -2       453       301       454      2152      2155      2216
 -1       787    8    0    1
 -2       451       299       452      2147      2151      2217
 -1       788    8    0    1
 -2       446       295       469      2134      2187      2218
 -1       789    8    0    1
 -2       297       450       474      2146      2219      2220
 -1       790    8    0    1
 -2       297       474       449      2220      2221      2143
 -1       791    8    0    1
 -2       452       300       453      2150      2153      2222
 -1       792    8    0    1
 -2       458       306       459      2163      2166      2223
 -1       793    8    0    1
 -2       334       382       475      1946      2224      2225
 -1       794    8    0    1
 -2       323       324       476      1770      2226      2227
 -1       795    8    0    1
 -2       322       323       477      1767      2228      2229
 -1       796    8    0    1
 -2       323       476       477      2227      2230      2228
 -1       797    8    0    1
 -2       325       326       478      1776      2231      2232
 -1       798    8    0    1
 -2       326       327       479      1779      2233      2234
 -1       799    8    0    1
 -2       326       479       478      2234      2235      2231
 -1       800    8    0    1
 -2       327       328       480      1782      2236      2237
 -1       801    8    0    1
 -2       327       480       479      2237      2238      2233
 -1       802    8    0    1
 -2       328       329       481      1785      2239      2240
 -1       803    8    0    1
 -2       328       481       480      2240      2241      2236
 -1       804    8    0    1
 -2       329       330       482      1788      2242      2243
 -1       805    8    0    1
 -2       329       482       481      2243      2244      2239
 -1       806    8    0    1
 -2       330       331       483      1791      2245      2246
 -1       807    8    0    1
 -2       330       483       482      2246      2247      2242
 -1       808    8    0    1
 -2       337       336       484      1810      2248      2249
 -1       809    8    0    1
 -2       445       335       485      2133      2250      2251
 -1       810    8    0    1
 -2       382       383       486      1949      2252      2253
 -1       811    8    0    1
 -2       382       486       475      2253      2254      2224
 -1       812    8    0    1
 -2       336       321       487      2191      2255      2256
 -1       813    8    0    1
 -2       484       336       487      2248      2256      2257
 -1       814    8    0    1
 -2       321       320       487      1762      2258      2255
 -1       815    8    0    1
 -2       338       337       488      1813      2259      2260
 -1       816    8    0    1
 -2       337       484       488      2249      2261      2259
 -1       817    8    0    1
 -2       339       338       489      1816      2262      2263
 -1       818    8    0    1
 -2       338       488       489      2260      2264      2262
 -1       819    8    0    1
 -2       340       339       490      1819      2265      2266
 -1       820    8    0    1
 -2       339       489       490      2263      2267      2265
 -1       821    8    0    1
 -2       341       340       491      1822      2268      2269
 -1       822    8    0    1
 -2       340       490       491      2266      2270      2268
 -1       823    8    0    1
 -2       342       341       492      1825      2271      2272
 -1       824    8    0    1
 -2       341       491       492      2269      2273      2271
 -1       825    8    0    1
 -2       343       342       493      1828      2274      2275
 -1       826    8    0    1
 -2       342       492       493      2272      2276      2274
 -1       827    8    0    1
 -2       344       343       494      1831      2277      2278
 -1       828    8    0    1
 -2       343       493       494      2275      2279      2277
 -1       829    8    0    1
 -2       345       344       495      1834      2280      2281
 -1       830    8    0    1
 -2       344       494       495      2278      2282      2280
 -1       831    8    0    1
 -2       346       345       496      1837      2283      2284
 -1       832    8    0    1
 -2       345       495       496      2281      2285      2283
 -1       833    8    0    1
 -2       347       346       497      1840      2286      2287
 -1       834    8    0    1
 -2       346       496       497      2284      2288      2286
 -1       835    8    0    1
 -2       348       347       498      1843      2289      2290
 -1       836    8    0    1
 -2       347       497       498      2287      2291      2289
 -1       837    8    0    1
 -2       349       348       499      1846      2292      2293
 -1       838    8    0    1
 -2       348       498       499      2290      2294      2292
 -1       839    8    0    1
 -2       350       349       500      1849      2295      2296
 -1       840    8    0    1
 -2       349       499       500      2293      2297      2295
 -1       841    8    0    1
 -2       351       350       501      1852      2298      2299
 -1       842    8    0    1
 -2       350       500       501      2296      2300      2298
 -1       843    8    0    1
 -2       352       351       502      1855      2301      2302
 -1       844    8    0    1
 -2       351       501       502      2299      2303      2301
 -1       845    8    0    1
 -2       353       352       503      1858      2304      2305
 -1       846    8    0    1
 -2       352       502       503      2302      2306      2304
 -1       847    8    0    1
 -2       354       353       504      1861      2307      2308
 -1       848    8    0    1
 -2       353       503       504      2305      2309      2307
 -1       849    8    0    1
 -2       355       354       505      1864      2310      2311
 -1       850    8    0    1
 -2       354       504       505      2308      2312      2310
 -1       851    8    0    1
 -2       356       355       506      1867      2313      2314
 -1       852    8    0    1
 -2       355       505       506      2311      2315      2313
 -1       853    8    0    1
 -2       357       356       507      1870      2316      2317
 -1       854    8    0    1
 -2       356       506       507      2314      2318      2316
 -1       855    8    0    1
 -2       358       357       508      1873      2319      2320
 -1       856    8    0    1
 -2       357       507       508      2317      2321      2319
 -1       857    8    0    1
 -2       359       358       509      1876      2322      2323
 -1       858    8    0    1
 -2       358       508       509      2320      2324      2322
 -1       859    8    0    1
 -2       360       359       510      1879      2325      2326
 -1       860    8    0    1
 -2       359       509       510      2323      2327      2325
 -1       861    8    0    1
 -2       361       360       511      1882      2328      2329
 -1       862    8    0    1
 -2       360       510       511      2326      2330      2328
 -1       863    8    0    1
 -2       362       361       512      1885      2331      2332
 -1       864    8    0    1
 -2       361       511       512      2329      2333      2331
 -1       865    8    0    1
 -2       363       362       513      1888      2334      2335
 -1       866    8    0    1
 -2       362       512       513      2332      2336      2334
 -1       867    8    0    1
 -2       364       363       514      1891      2337      2338
 -1       868    8    0    1
 -2       363       513       514      2335      2339      2337
 -1       869    8    0    1
 -2       365       364       515      1894      2340      2341
 -1       870    8    0    1
 -2       364       514       515      2338      2342      2340
 -1       871    8    0    1
 -2       366       365       516      1897      2343      2344
 -1       872    8    0    1
 -2       365       515       516      2341      2345      2343
 -1       873    8    0    1
 -2       367       366       517      1900      2346      2347
 -1       874    8    0    1
 -2       366       516       517      2344      2348      2346
 -1       875    8    0    1
 -2       368       367       518      1903      2349      2350
 -1       876    8    0    1
 -2       367       517       518      2347      2351      2349
 -1       877    8    0    1
 -2       369       368       519      1906      2352      2353
 -1       878    8    0    1
 -2       368       518       519      2350      2354      2352
 -1       879    8    0    1
 -2       370       369       520      1909      2355      2356
 -1       880    8    0    1
 -2       369       519       520      2353      2357      2355
 -1       881    8    0    1
 -2       371       370       521      1912      2358      2359
 -1       882    8    0    1
 -2       370       520       521      2356      2360      2358
 -1       883    8    0    1
 -2       372       371       522      1915      2361      2362
 -1       884    8    0    1
 -2       371       521       522      2359      2363      2361
 -1       885    8    0    1
 -2       373       372       523      1918      2364      2365
 -1       886    8    0    1
 -2       372       522       523      2362      2366      2364
 -1       887    8    0    1
 -2       374       373       524      1921      2367      2368
 -1       888    8    0    1
 -2       373       523       524      2365      2369      2367
 -1       889    8    0    1
 -2       375       374       525      1924      2370      2371
 -1       890    8    0    1
 -2       374       524       525      2368      2372      2370
 -1       891    8    0    1
 -2       376       375       526      1927      2373      2374
 -1       892    8    0    1
 -2       375       525       526      2371      2375      2373
 -1       893    8    0    1
 -2       377       376       527      1930      2376      2377
 -1       894    8    0    1
 -2       376       526       527      2374      2378      2376
 -1       895    8    0    1
 -2       378       377       528      1933      2379      2380
 -1       896    8    0    1
 -2       377       527       528      2377      2381      2379
 -1       897    8    0    1
 -2       379       378       529      1936      2382      2383
 -1       898    8    0    1
 -2       378       528       529      2380      2384      2382
 -1       899    8    0    1
 -2       380       379       530      1939      2385      2386
 -1       900    8    0    1
 -2       379       529       530      2383      2387      2385
 -1       901    8    0    1
 -2       443       441       531      2128      2388      2389
 -1       902    8    0    1
 -2       384       385       532      1955      2390      2391
 -1       903    8    0    1
 -2       385       386       533      1958      2392      2393
 -1       904    8    0    1
 -2       385       533       532      2393      2394      2390
 -1       905    8    0    1
 -2       386       387       534      1961      2395      2396
 -1       906    8    0    1
 -2       386       534       533      2396      2397      2392
 -1       907    8    0    1
 -2       387       388       535      1964      2398      2399
 -1       908    8    0    1
 -2       387       535       534      2399      2400      2395
 -1       909    8    0    1
 -2       388       389       536      1967      2401      2402
 -1       910    8    0    1
 -2       388       536       535      2402      2403      2398
 -1       911    8    0    1
 -2       389       390       537      1970      2404      2405
 -1       912    8    0    1
 -2       389       537       536      2405      2406      2401
 -1       913    8    0    1
 -2       390       391       538      1973      2407      2408
 -1       914    8    0    1
 -2       390       538       537      2408      2409      2404
 -1       915    8    0    1
 -2       391       392       539      1976      2410      2411
 -1       916    8    0    1
 -2       391       539       538      2411      2412      2407
 -1       917    8    0    1
 -2       392       393       540      1979      2413      2414
 -1       918    8    0    1
 -2       392       540       539      2414      2415      2410
 -1       919    8    0    1
 -2       393       394       541      1982      2416      2417
 -1       920    8    0    1
 -2       393       541       540      2417      2418      2413
 -1       921    8    0    1
 -2       394       395       542      1985      2419      2420
 -1       922    8    0    1
 -2       394       542       541      2420      2421      2416
 -1       923    8    0    1
 -2       395       396       543      1988      2422      2423
 -1       924    8    0    1
 -2       395       543       542      2423      2424      2419
 -1       925    8    0    1
 -2       396       397       544      1991      2425      2426
 -1       926    8    0    1
 -2       396       544       543      2426      2427      2422
 -1       927    8    0    1
 -2       397       398       545      1994      2428      2429
 -1       928    8    0    1
 -2       397       545       544      2429      2430      2425
 -1       929    8    0    1
 -2       398       399       546      1997      2431      2432
 -1       930    8    0    1
 -2       398       546       545      2432      2433      2428
 -1       931    8    0    1
 -2       399       400       547      2000      2434      2435
 -1       932    8    0    1
 -2       399       547       546      2435      2436      2431
 -1       933    8    0    1
 -2       400       401       548      2003      2437      2438
 -1       934    8    0    1
 -2       400       548       547      2438      2439      2434
 -1       935    8    0    1
 -2       401       402       549      2006      2440      2441
 -1       936    8    0    1
 -2       401       549       548      2441      2442      2437
 -1       937    8    0    1
 -2       402       403       550      2009      2443      2444
 -1       938    8    0    1
 -2       402       550       549      2444      2445      2440
 -1       939    8    0    1
 -2       403       404       551      2012      2446      2447
 -1       940    8    0    1
 -2       403       551       550      2447      2448      2443
 -1       941    8    0    1
 -2       404       405       552      2015      2449      2450
 -1       942    8    0    1
 -2       404       552       551      2450      2451      2446
 -1       943    8    0    1
 -2       405       406       553      2018      2452      2453
 -1       944    8    0    1
 -2       405       553       552      2453      2454      2449
 -1       945    8    0    1
 -2       406       407       554      2021      2455      2456
 -1       946    8    0    1
 -2       406       554       553      2456      2457      2452
 -1       947    8    0    1
 -2       407       408       555      2024      2458      2459
 -1       948    8    0    1
 -2       407       555       554      2459      2460      2455
 -1       949    8    0    1
 -2       408       409       556      2027      2461      2462
 -1       950    8    0    1
 -2       408       556       555      2462      2463      2458
 -1       951    8    0    1
 -2       409       410       557      2030      2464      2465
 -1       952    8    0    1
 -2       409       557       556      2465      2466      2461
 -1       953    8    0    1
 -2       410       411       558      2033      2467      2468
 -1       954    8    0    1
 -2       410       558       557      2468      2469      2464
 -1       955    8    0    1
 -2       411       412       559      2036      2470      2471
 -1       956    8    0    1
 -2       411       559       558      2471      2472      2467
 -1       957    8    0    1
 -2       412       413       560      2039      2473      2474
 -1       958    8    0    1
 -2       412       560       559      2474      2475      2470
 -1       959    8    0    1
 -2       413       414       561      2042      2476      2477
 -1       960    8    0    1
 -2       413       561       560      2477      2478      2473
 -1       961    8    0    1
 -2       414       415       562      2045      2479      2480
 -1       962    8    0    1
 -2       414       562       561      2480      2481      2476
 -1       963    8    0    1
 -2       415       416       563      2048      2482      2483
 -1       964    8    0    1
 -2       415       563       562      2483      2484      2479
 -1       965    8    0    1
 -2       416       417       564      2051      2485      2486
 -1       966    8    0    1
 -2       416       564       563      2486      2487      2482
 -1       967    8    0    1
 -2       417       418       565      2054      2488      2489
 -1       968    8    0    1
 -2       417       565       564      2489      2490      2485
 -1       969    8    0    1
 -2       418       419       566      2057      2491      2492
 -1       970    8    0    1
 -2       418       566       565      2492      2493      2488
 -1       971    8    0    1
 -2       419       420       567      2060      2494      2495
 -1       972    8    0    1
 -2       419       567       566      2495      2496      2491
 -1       973    8    0    1
 -2       420       421       568      2063      2497      2498
 -1       974    8    0    1
 -2       420       568       567      2498      2499      2494
 -1       975    8    0    1
 -2       421       422       569      2066      2500      2501
 -1       976    8    0    1
 -2       421       569       568      2501      2502      2497
 -1       977    8    0    1
 -2       422       423       570      2069      2503      2504
 -1       978    8    0    1
 -2       422       570       569      2504      2505      2500
 -1       979    8    0    1
 -2       423       424       571      2072      2506      2507
 -1       980    8    0    1
 -2       423       571       570      2507      2508      2503
 -1       981    8    0    1
 -2       424       425       572      2075      2509      2510
 -1       982    8    0    1
 -2       424       572       571      2510      2511      2506
 -1       983    8    0    1
 -2       425       426       573      2078      2512      2513
 -1       984    8    0    1
 -2       425       573       572      2513      2514      2509
 -1       985    8    0    1
 -2       426       427       430      2081      2090      2515
 -1       986    8    0    1
 -2       431       432       574      2097      2516      2517
 -1       987    8    0    1
 -2       432       433       575      2100      2518      2519
 -1       988    8    0    1
 -2       432       575       574      2519      2520      2516
 -1       989    8    0    1
 -2       429       428       576      2087      2521      2522
 -1       990    8    0    1
 -2       428       431       577      2094      2523      2524
 -1       991    8    0    1
 -2       576       428       577      2521      2524      2525
 -1       992    8    0    1
 -2       431       574       577      2517      2526      2523
 -1       993    8    0    1
 -2       433       434       578      2103      2527      2528
 -1       994    8    0    1
 -2       433       578       575      2528      2529      2518
 -1       995    8    0    1
 -2       434       435       579      2106      2530      2531
 -1       996    8    0    1
 -2       434       579       578      2531      2532      2527
 -1       997    8    0    1
 -2       435       436       580      2109      2533      2534
 -1       998    8    0    1
 -2       435       580       579      2534      2535      2530
 -1       999    8    0    1
 -2       436       437       581      2112      2536      2537
 -1      1000    8    0    1
 -2       436       581       580      2537      2538      2533
 -1      1001    8    0    1
 -2       437       438       582      2115      2539      2540
 -1      1002    8    0    1
 -2       437       582       581      2540      2541      2536
 -1      1003    8    0    1
 -2       438       439       583      2118      2542      2543
 -1      1004    8    0    1
 -2       438       583       582      2543      2544      2539
 -1      1005    8    0    1
 -2       439       440       584      2121      2545      2546
 -1      1006    8    0    1
 -2       439       584       583      2546      2547      2542
 -1      1007    8    0    1
 -2       440       290       381      2196      1942      2548
 -1      1008    8    0    1
 -2       468       445       585      2197      2549      2550
 -1      1009    8    0    1
 -2       445       485       585      2251      2551      2549
 -1      1010    8    0    1
 -2       383       384       586      1952      2552      2553
 -1      1011    8    0    1
 -2       384       532       586      2391      2554      2552
 -1      1012    8    0    1
 -2       335       447       587      2189      2555      2556
 -1      1013    8    0    1
 -2       465       466       588      2200      2557      2558
 -1      1014    8    0    1
 -2       455       456       589      2214      2559      2560
 -1      1015    8    0    1
 -2       447       442       590      2138      2561      2562
 -1      1016    8    0    1
 -2       447       590       587      2562      2563      2555
 -1      1017    8    0    1
 -2       324       325       591      1773      2564      2565
 -1      1018    8    0    1
 -2       476       324       591      2226      2565      2566
 -1      1019    8    0    1
 -2       325       478       591      2232      2567      2564
 -1      1020    8    0    1
 -2       442       443       592      2192      2568      2569
 -1      1021    8    0    1
 -2       443       531       592      2389      2570      2568
 -1      1022    8    0    1
 -2       446       469       593      2218      2571      2572
 -1      1023    8    0    1
 -2       450       451       594      2149      2573      2574
 -1      1024    8    0    1
 -2       458       459       595      2223      2575      2576
 -1      1025    8    0    1
 -2       451       452       596      2217      2577      2578
 -1      1026    8    0    1
 -2       453       454       597      2216      2579      2580
 -1      1027    8    0    1
 -2       454       455       598      2215      2581      2582
 -1      1028    8    0    1
 -2       456       457       599      2162      2583      2584
 -1      1029    8    0    1
 -2       459       460       600      2210      2585      2586
 -1      1030    8    0    1
 -2       460       461       601      2209      2587      2588
 -1      1031    8    0    1
 -2       462       463       602      2205      2589      2590
 -1      1032    8    0    1
 -2       463       464       603      2204      2591      2592
 -1      1033    8    0    1
 -2       466       467       604      2183      2593      2594
 -1      1034    8    0    1
 -2       469       449       605      2198      2595      2596
 -1      1035    8    0    1
 -2       333       334       606      1802      2597      2598
 -1      1036    8    0    1
 -2       332       333       606      1797      2598      2599
 -1      1037    8    0    1
 -2       334       475       606      2225      2600      2597
 -1      1038    8    0    1
 -2       452       453       607      2222      2601      2602
 -1      1039    8    0    1
 -2       452       607       596      2602      2603      2577
 -1      1040    8    0    1
 -2       467       468       608      2199      2604      2605
 -1      1041    8    0    1
 -2       444       446       609      2188      2606      2607
 -1      1042    8    0    1
 -2       446       593       609      2572      2608      2606
 -1      1043    8    0    1
 -2       442       592       590      2569      2609      2561
 -1      1044    8    0    1
 -2       322       477       610      2229      2610      2611
 -1      1045    8    0    1
 -2       322       610       448      2611      2612      2142
 -1      1046    8    0    1
 -2       331       332       606      1794      2599      2613
 -1      1047    8    0    1
 -2       607       453       611      2601      2614      2615
 -1      1048    8    0    1
 -2       453       597       611      2580      2616      2614
 -1      1049    8    0    1
 -2       383       586       486      2553      2617      2252
 -1      1050    8    0    1
 -2       487       320       448      2258      2141      2618
 -1      1051    8    0    1
 -2       605       449       474      2595      2221      2619
 -1      1052    8    0    1
 -2       604       467       608      2593      2605      2620
 -1      1053    8    0    1
 -2       603       464       612      2591      2621      2622
 -1      1054    8    0    1
 -2       464       471       612      2202      2623      2621
 -1      1055    8    0    1
 -2       468       585       608      2550      2624      2604
 -1      1056    8    0    1
 -2       531       441       613      2388      2625      2626
 -1      1057    8    0    1
 -2       441       470       613      2195      2627      2625
 -1      1058    8    0    1
 -2       335       587       485      2556      2628      2250
 -1      1059    8    0    1
 -2       426       430       573      2515      2629      2512
 -1      1060    8    0    1
 -2       589       456       599      2559      2584      2630
 -1      1061    8    0    1
 -2       430       429       573      2091      2631      2629
 -1      1062    8    0    1
 -2       470       444       614      2193      2632      2633
 -1      1063    8    0    1
 -2       444       609       614      2607      2634      2632
 -1      1064    8    0    1
 -2       440       381       615      2548      2635      2636
 -1      1065    8    0    1
 -2       584       440       615      2545      2636      2637
 -1      1066    8    0    1
 -2       381       380       615      1943      2638      2635
 -1      1067    8    0    1
 -2       588       466       604      2557      2594      2639
 -1      1068    8    0    1
 -2       602       463       603      2589      2592      2640
 -1      1069    8    0    1
 -2       601       461       616      2587      2641      2642
 -1      1070    8    0    1
 -2       461       472       616      2207      2643      2641
 -1      1071    8    0    1
 -2       465       588       471      2558      2644      2203
 -1      1072    8    0    1
 -2       600       460       601      2585      2588      2645
 -1      1073    8    0    1
 -2       599       457       617      2583      2646      2647
 -1      1074    8    0    1
 -2       457       473       617      2212      2648      2646
 -1      1075    8    0    1
 -2       598       455       589      2581      2560      2649
 -1      1076    8    0    1
 -2       597       454       598      2579      2582      2650
 -1      1077    8    0    1
 -2       472       462       602      2208      2590      2651
 -1      1078    8    0    1
 -2       595       459       600      2575      2586      2652
 -1      1079    8    0    1
 -2       473       458       595      2213      2576      2653
 -1      1080    8    0    1
 -2       594       451       596      2573      2578      2654
 -1      1081    8    0    1
 -2       474       450       618      2219      2655      2656
 -1      1082    8    0    1
 -2       450       594       618      2574      2657      2655
 -1      1083    8    0    1
 -2       593       469       605      2571      2596      2658
 -1      1084    8    0    1
 -2       331       606       483      2613      2659      2245
 -1      1085    8    0    1
 -2       380       530       615      2386      2660      2638
 -1      1086    8    0    1
 -2       573       429       576      2631      2522      2661
 -1      1087    8    0    1
 -2       479       480       619      2238      2662      2663
 -1      1088    8    0    1
 -2       478       479       620      2235      2664      2665
 -1      1089    8    0    1
 -2       479       619       620      2663      2666      2664
 -1      1090    8    0    1
 -2       481       482       621      2244      2667      2668
 -1      1091    8    0    1
 -2       482       483       622      2247      2669      2670
 -1      1092    8    0    1
 -2       482       622       621      2670      2671      2667
 -1      1093    8    0    1
 -2       590       592       623      2609      2672      2673
 -1      1094    8    0    1
 -2       615       530       624      2660      2674      2675
 -1      1095    8    0    1
 -2       615       624       584      2675      2676      2637
 -1      1096    8    0    1
 -2       488       484       625      2261      2677      2678
 -1      1097    8    0    1
 -2       606       475       483      2600      2679      2659
 -1      1098    8    0    1
 -2       533       534       626      2397      2680      2681
 -1      1099    8    0    1
 -2       489       488       627      2264      2682      2683
 -1      1100    8    0    1
 -2       488       625       627      2678      2684      2682
 -1      1101    8    0    1
 -2       490       489       628      2267      2685      2686
 -1      1102    8    0    1
 -2       489       627       628      2683      2687      2685
 -1      1103    8    0    1
 -2       491       490       629      2270      2688      2689
 -1      1104    8    0    1
 -2       490       628       629      2686      2690      2688
 -1      1105    8    0    1
 -2       492       491       630      2273      2691      2692
 -1      1106    8    0    1
 -2       491       629       630      2689      2693      2691
 -1      1107    8    0    1
 -2       493       492       631      2276      2694      2695
 -1      1108    8    0    1
 -2       492       630       631      2692      2696      2694
 -1      1109    8    0    1
 -2       494       493       632      2279      2697      2698
 -1      1110    8    0    1
 -2       493       631       632      2695      2699      2697
 -1      1111    8    0    1
 -2       495       494       633      2282      2700      2701
 -1      1112    8    0    1
 -2       494       632       633      2698      2702      2700
 -1      1113    8    0    1
 -2       496       495       634      2285      2703      2704
 -1      1114    8    0    1
 -2       495       633       634      2701      2705      2703
 -1      1115    8    0    1
 -2       497       496       635      2288      2706      2707
 -1      1116    8    0    1
 -2       496       634       635      2704      2708      2706
 -1      1117    8    0    1
 -2       498       497       636      2291      2709      2710
 -1      1118    8    0    1
 -2       497       635       636      2707      2711      2709
 -1      1119    8    0    1
 -2       499       498       637      2294      2712      2713
 -1      1120    8    0    1
 -2       498       636       637      2710      2714      2712
 -1      1121    8    0    1
 -2       500       499       638      2297      2715      2716
 -1      1122    8    0    1
 -2       499       637       638      2713      2717      2715
 -1      1123    8    0    1
 -2       501       500       639      2300      2718      2719
 -1      1124    8    0    1
 -2       500       638       639      2716      2720      2718
 -1      1125    8    0    1
 -2       502       501       640      2303      2721      2722
 -1      1126    8    0    1
 -2       501       639       640      2719      2723      2721
 -1      1127    8    0    1
 -2       503       502       641      2306      2724      2725
 -1      1128    8    0    1
 -2       502       640       641      2722      2726      2724
 -1      1129    8    0    1
 -2       504       503       642      2309      2727      2728
 -1      1130    8    0    1
 -2       503       641       642      2725      2729      2727
 -1      1131    8    0    1
 -2       505       504       643      2312      2730      2731
 -1      1132    8    0    1
 -2       504       642       643      2728      2732      2730
 -1      1133    8    0    1
 -2       506       505       644      2315      2733      2734
 -1      1134    8    0    1
 -2       505       643       644      2731      2735      2733
 -1      1135    8    0    1
 -2       507       506       645      2318      2736      2737
 -1      1136    8    0    1
 -2       506       644       645      2734      2738      2736
 -1      1137    8    0    1
 -2       508       507       646      2321      2739      2740
 -1      1138    8    0    1
 -2       507       645       646      2737      2741      2739
 -1      1139    8    0    1
 -2       509       508       647      2324      2742      2743
 -1      1140    8    0    1
 -2       508       646       647      2740      2744      2742
 -1      1141    8    0    1
 -2       510       509       648      2327      2745      2746
 -1      1142    8    0    1
 -2       509       647       648      2743      2747      2745
 -1      1143    8    0    1
 -2       511       510       649      2330      2748      2749
 -1      1144    8    0    1
 -2       510       648       649      2746      2750      2748
 -1      1145    8    0    1
 -2       512       511       650      2333      2751      2752
 -1      1146    8    0    1
 -2       511       649       650      2749      2753      2751
 -1      1147    8    0    1
 -2       513       512       651      2336      2754      2755
 -1      1148    8    0    1
 -2       512       650       651      2752      2756      2754
 -1      1149    8    0    1
 -2       514       513       652      2339      2757      2758
 -1      1150    8    0    1
 -2       513       651       652      2755      2759      2757
 -1      1151    8    0    1
 -2       515       514       653      2342      2760      2761
 -1      1152    8    0    1
 -2       514       652       653      2758      2762      2760
 -1      1153    8    0    1
 -2       516       515       654      2345      2763      2764
 -1      1154    8    0    1
 -2       515       653       654      2761      2765      2763
 -1      1155    8    0    1
 -2       517       516       655      2348      2766      2767
 -1      1156    8    0    1
 -2       516       654       655      2764      2768      2766
 -1      1157    8    0    1
 -2       518       517       656      2351      2769      2770
 -1      1158    8    0    1
 -2       517       655       656      2767      2771      2769
 -1      1159    8    0    1
 -2       519       518       657      2354      2772      2773
 -1      1160    8    0    1
 -2       518       656       657      2770      2774      2772
 -1      1161    8    0    1
 -2       520       519       658      2357      2775      2776
 -1      1162    8    0    1
 -2       519       657       658      2773      2777      2775
 -1      1163    8    0    1
 -2       521       520       659      2360      2778      2779
 -1      1164    8    0    1
 -2       520       658       659      2776      2780      2778
 -1      1165    8    0    1
 -2       522       521       660      2363      2781      2782
 -1      1166    8    0    1
 -2       521       659       660      2779      2783      2781
 -1      1167    8    0    1
 -2       523       522       661      2366      2784      2785
 -1      1168    8    0    1
 -2       522       660       661      2782      2786      2784
 -1      1169    8    0    1
 -2       524       523       662      2369      2787      2788
 -1      1170    8    0    1
 -2       523       661       662      2785      2789      2787
 -1      1171    8    0    1
 -2       525       524       663      2372      2790      2791
 -1      1172    8    0    1
 -2       524       662       663      2788      2792      2790
 -1      1173    8    0    1
 -2       526       525       664      2375      2793      2794
 -1      1174    8    0    1
 -2       525       663       664      2791      2795      2793
 -1      1175    8    0    1
 -2       527       526       665      2378      2796      2797
 -1      1176    8    0    1
 -2       526       664       665      2794      2798      2796
 -1      1177    8    0    1
 -2       528       527       666      2381      2799      2800
 -1      1178    8    0    1
 -2       527       665       666      2797      2801      2799
 -1      1179    8    0    1
 -2       529       528       667      2384      2802      2803
 -1      1180    8    0    1
 -2       528       666       667      2800      2804      2802
 -1      1181    8    0    1
 -2       530       529       668      2387      2805      2806
 -1      1182    8    0    1
 -2       624       530       668      2674      2806      2807
 -1      1183    8    0    1
 -2       529       667       668      2803      2808      2805
 -1      1184    8    0    1
 -2       588       604       669      2639      2809      2810
 -1      1185    8    0    1
 -2       532       533       670      2394      2811      2812
 -1      1186    8    0    1
 -2       533       626       670      2681      2813      2811
 -1      1187    8    0    1
 -2       535       536       671      2403      2814      2815
 -1      1188    8    0    1
 -2       536       537       672      2406      2816      2817
 -1      1189    8    0    1
 -2       536       672       671      2817      2818      2814
 -1      1190    8    0    1
 -2       537       538       673      2409      2819      2820
 -1      1191    8    0    1
 -2       537       673       672      2820      2821      2816
 -1      1192    8    0    1
 -2       538       539       674      2412      2822      2823
 -1      1193    8    0    1
 -2       538       674       673      2823      2824      2819
 -1      1194    8    0    1
 -2       539       540       675      2415      2825      2826
 -1      1195    8    0    1
 -2       539       675       674      2826      2827      2822
 -1      1196    8    0    1
 -2       540       541       676      2418      2828      2829
 -1      1197    8    0    1
 -2       540       676       675      2829      2830      2825
 -1      1198    8    0    1
 -2       541       542       677      2421      2831      2832
 -1      1199    8    0    1
 -2       541       677       676      2832      2833      2828
 -1      1200    8    0    1
 -2       542       543       678      2424      2834      2835
 -1      1201    8    0    1
 -2       542       678       677      2835      2836      2831
 -1      1202    8    0    1
 -2       543       544       679      2427      2837      2838
 -1      1203    8    0    1
 -2       543       679       678      2838      2839      2834
 -1      1204    8    0    1
 -2       544       545       680      2430      2840      2841
 -1      1205    8    0    1
 -2       544       680       679      2841      2842      2837
 -1      1206    8    0    1
 -2       545       546       681      2433      2843      2844
 -1      1207    8    0    1
 -2       545       681       680      2844      2845      2840
 -1      1208    8    0    1
 -2       546       547       682      2436      2846      2847
 -1      1209    8    0    1
 -2       546       682       681      2847      2848      2843
 -1      1210    8    0    1
 -2       547       548       683      2439      2849      2850
 -1      1211    8    0    1
 -2       547       683       682      2850      2851      2846
 -1      1212    8    0    1
 -2       548       549       684      2442      2852      2853
 -1      1213    8    0    1
 -2       548       684       683      2853      2854      2849
 -1      1214    8    0    1
 -2       549       550       685      2445      2855      2856
 -1      1215    8    0    1
 -2       549       685       684      2856      2857      2852
 -1      1216    8    0    1
 -2       550       551       686      2448      2858      2859
 -1      1217    8    0    1
 -2       550       686       685      2859      2860      2855
 -1      1218    8    0    1
 -2       551       552       687      2451      2861      2862
 -1      1219    8    0    1
 -2       551       687       686      2862      2863      2858
 -1      1220    8    0    1
 -2       552       553       688      2454      2864      2865
 -1      1221    8    0    1
 -2       552       688       687      2865      2866      2861
 -1      1222    8    0    1
 -2       553       554       611      2457      2867      2868
 -1      1223    8    0    1
 -2       554       555       596      2460      2869      2870
 -1      1224    8    0    1
 -2       555       556       596      2463      2871      2869
 -1      1225    8    0    1
 -2       556       557       618      2466      2872      2873
 -1      1226    8    0    1
 -2       557       558       605      2469      2874      2875
 -1      1227    8    0    1
 -2       559       560       689      2475      2876      2877
 -1      1228    8    0    1
 -2       560       561       690      2478      2878      2879
 -1      1229    8    0    1
 -2       560       690       689      2879      2880      2876
 -1      1230    8    0    1
 -2       561       562       691      2481      2881      2882
 -1      1231    8    0    1
 -2       561       691       690      2882      2883      2878
 -1      1232    8    0    1
 -2       562       563       692      2484      2884      2885
 -1      1233    8    0    1
 -2       562       692       691      2885      2886      2881
 -1      1234    8    0    1
 -2       563       564       693      2487      2887      2888
 -1      1235    8    0    1
 -2       563       693       692      2888      2889      2884
 -1      1236    8    0    1
 -2       564       565       694      2490      2890      2891
 -1      1237    8    0    1
 -2       564       694       693      2891      2892      2887
 -1      1238    8    0    1
 -2       565       566       695      2493      2893      2894
 -1      1239    8    0    1
 -2       565       695       694      2894      2895      2890
 -1      1240    8    0    1
 -2       566       567       696      2496      2896      2897
 -1      1241    8    0    1
 -2       566       696       695      2897      2898      2893
 -1      1242    8    0    1
 -2       567       568       697      2499      2899      2900
 -1      1243    8    0    1
 -2       567       697       696      2900      2901      2896
 -1      1244    8    0    1
 -2       568       569       698      2502      2902      2903
 -1      1245    8    0    1
 -2       568       698       697      2903      2904      2899
 -1      1246    8    0    1
 -2       569       570       699      2505      2905      2906
 -1      1247    8    0    1
 -2       569       699       698      2906      2907      2902
 -1      1248    8    0    1
 -2       570       571       700      2508      2908      2909
 -1      1249    8    0    1
 -2       570       700       699      2909      2910      2905
 -1      1250    8    0    1
 -2       571       572       701      2511      2911      2912
 -1      1251    8    0    1
 -2       571       701       700      2912      2913      2908
 -1      1252    8    0    1
 -2       572       573       702      2514      2914      2915
 -1      1253    8    0    1
 -2       701       572       702      2911      2915      2916
 -1      1254    8    0    1
 -2       573       576       702      2661      2917      2914
 -1      1255    8    0    1
 -2       589       599       703      2630      2918      2919
 -1      1256    8    0    1
 -2       578       579       704      2532      2920      2921
 -1      1257    8    0    1
 -2       574       575       705      2520      2922      2923
 -1      1258    8    0    1
 -2       579       580       706      2535      2924      2925
 -1      1259    8    0    1
 -2       579       706       704      2925      2926      2920
 -1      1260    8    0    1
 -2       575       578       707      2529      2927      2928
 -1      1261    8    0    1
 -2       705       575       707      2922      2928      2929
 -1      1262    8    0    1
 -2       578       704       707      2921      2930      2927
 -1      1263    8    0    1
 -2       580       581       708      2538      2931      2932
 -1      1264    8    0    1
 -2       580       708       706      2932      2933      2924
 -1      1265    8    0    1
 -2       581       582       709      2541      2934      2935
 -1      1266    8    0    1
 -2       581       709       708      2935      2936      2931
 -1      1267    8    0    1
 -2       582       583       710      2544      2937      2938
 -1      1268    8    0    1
 -2       582       710       709      2938      2939      2934
 -1      1269    8    0    1
 -2       583       584       624      2547      2676      2940
 -1      1270    8    0    1
 -2       585       485       711      2551      2941      2942
 -1      1271    8    0    1
 -2       586       532       712      2554      2943      2944
 -1      1272    8    0    1
 -2       532       670       712      2812      2945      2943
 -1      1273    8    0    1
 -2       485       587       713      2628      2946      2947
 -1      1274    8    0    1
 -2       597       598       714      2650      2948      2949
 -1      1275    8    0    1
 -2       600       601       715      2645      2950      2951
 -1      1276    8    0    1
 -2       605       558       716      2874      2952      2953
 -1      1277    8    0    1
 -2       593       605       716      2658      2953      2954
 -1      1278    8    0    1
 -2       558       559       716      2472      2955      2952
 -1      1279    8    0    1
 -2       587       590       717      2563      2956      2957
 -1      1280    8    0    1
 -2       713       587       717      2946      2957      2958
 -1      1281    8    0    1
 -2       590       623       717      2673      2959      2956
 -1      1282    8    0    1
 -2       534       535       718      2400      2960      2961
 -1      1283    8    0    1
 -2       626       534       718      2680      2961      2962
 -1      1284    8    0    1
 -2       535       671       718      2815      2963      2960
 -1      1285    8    0    1
 -2       487       448       610      2618      2612      2964
 -1      1286    8    0    1
 -2       480       481       719      2241      2965      2966
 -1      1287    8    0    1
 -2       619       480       719      2662      2966      2967
 -1      1288    8    0    1
 -2       481       621       719      2668      2968      2965
 -1      1289    8    0    1
 -2       477       476       720      2230      2969      2970
 -1      1290    8    0    1
 -2       592       531       721      2570      2971      2972
 -1      1291    8    0    1
 -2       486       586       722      2617      2973      2974
 -1      1292    8    0    1
 -2       586       712       722      2944      2975      2973
 -1      1293    8    0    1
 -2       472       602       723      2651      2976      2977
 -1      1294    8    0    1
 -2       473       595       724      2653      2978      2979
 -1      1295    8    0    1
 -2       598       589       725      2649      2980      2981
 -1      1296    8    0    1
 -2       595       600       726      2652      2982      2983
 -1      1297    8    0    1
 -2       600       715       726      2951      2984      2982
 -1      1298    8    0    1
 -2       471       588       727      2644      2985      2986
 -1      1299    8    0    1
 -2       602       603       728      2640      2987      2988
 -1      1300    8    0    1
 -2       608       585       729      2624      2989      2990
 -1      1301    8    0    1
 -2       604       608       730      2620      2991      2992
 -1      1302    8    0    1
 -2       609       593       731      2608      2993      2994
 -1      1303    8    0    1
 -2       614       609       731      2634      2994      2995
 -1      1304    8    0    1
 -2       593       716       731      2954      2996      2993
 -1      1305    8    0    1
 -2       483       475       732      2679      2997      2998
 -1      1306    8    0    1
 -2       622       483       732      2669      2998      2999
 -1      1307    8    0    1
 -2       475       486       732      2254      3000      2997
 -1      1308    8    0    1
 -2       610       477       733      2610      3001      3002
 -1      1309    8    0    1
 -2       477       720       733      2970      3003      3001
 -1      1310    8    0    1
 -2       478       620       734      2665      3004      3005
 -1      1311    8    0    1
 -2       478       734       591      3005      3006      2567
 -1      1312    8    0    1
 -2       623       592       721      2672      2972      3007
 -1      1313    8    0    1
 -2       585       711       729      2942      3008      2989
 -1      1314    8    0    1
 -2       611       597       714      2616      2949      3009
 -1      1315    8    0    1
 -2       612       471       727      2623      2986      3010
 -1      1316    8    0    1
 -2       588       669       727      2810      3011      2985
 -1      1317    8    0    1
 -2       613       470       614      2627      2633      3012
 -1      1318    8    0    1
 -2       485       713       711      2947      3013      2941
 -1      1319    8    0    1
 -2       688       553       611      2864      2868      3014
 -1      1320    8    0    1
 -2       557       605       474      2875      2619      3015
 -1      1321    8    0    1
 -2       559       689       716      2877      3016      2955
 -1      1322    8    0    1
 -2       703       599       735      2918      3017      3018
 -1      1323    8    0    1
 -2       599       617       735      2647      3019      3017
 -1      1324    8    0    1
 -2       702       576       736      2917      3020      3021
 -1      1325    8    0    1
 -2       576       577       736      2525      3022      3020
 -1      1326    8    0    1
 -2       714       598       725      2948      2981      3023
 -1      1327    8    0    1
 -2       730       608       729      2991      2990      3024
 -1      1328    8    0    1
 -2       732       486       722      3000      2974      3025
 -1      1329    8    0    1
 -2       589       703       725      2919      3026      2980
 -1      1330    8    0    1
 -2       583       624       710      2940      3027      2937
 -1      1331    8    0    1
 -2       728       603       737      2987      3028      3029
 -1      1332    8    0    1
 -2       603       612       737      2622      3030      3028
 -1      1333    8    0    1
 -2       616       472       738      2643      3031      3032
 -1      1334    8    0    1
 -2       472       723       738      2977      3033      3031
 -1      1335    8    0    1
 -2       715       601       739      2950      3034      3035
 -1      1336    8    0    1
 -2       601       616       739      2642      3036      3034
 -1      1337    8    0    1
 -2       476       591       740      2566      3037      3038
 -1      1338    8    0    1
 -2       720       476       740      2969      3038      3039
 -1      1339    8    0    1
 -2       591       734       740      3006      3040      3037
 -1      1340    8    0    1
 -2       617       473       724      2648      2979      3041
 -1      1341    8    0    1
 -2       577       574       741      2526      3042      3043
 -1      1342    8    0    1
 -2       736       577       741      3022      3043      3044
 -1      1343    8    0    1
 -2       574       705       741      2923      3045      3042
 -1      1344    8    0    1
 -2       724       595       726      2978      2983      3046
 -1      1345    8    0    1
 -2       721       531       742      2971      3047      3048
 -1      1346    8    0    1
 -2       531       613       742      2626      3049      3047
 -1      1347    8    0    1
 -2       669       604       743      2809      3050      3051
 -1      1348    8    0    1
 -2       604       730       743      2992      3052      3050
 -1      1349    8    0    1
 -2       723       602       728      2976      2988      3053
 -1      1350    8    0    1
 -2       484       487       744      2257      3054      3055
 -1      1351    8    0    1
 -2       484       744       625      3055      3056      2677
 -1      1352    8    0    1
 -2       621       622       745      2671      3057      3058
 -1      1353    8    0    1
 -2       722       712       746      2975      3059      3060
 -1      1354    8    0    1
 -2       628       627       747      2687      3061      3062
 -1      1355    8    0    1
 -2       629       628       748      2690      3063      3064
 -1      1356    8    0    1
 -2       628       747       748      3062      3065      3063
 -1      1357    8    0    1
 -2       630       629       749      2693      3066      3067
 -1      1358    8    0    1
 -2       629       748       749      3064      3068      3066
 -1      1359    8    0    1
 -2       631       630       750      2696      3069      3070
 -1      1360    8    0    1
 -2       630       749       750      3067      3071      3069
 -1      1361    8    0    1
 -2       632       631       751      2699      3072      3073
 -1      1362    8    0    1
 -2       631       750       751      3070      3074      3072
 -1      1363    8    0    1
 -2       633       632       752      2702      3075      3076
 -1      1364    8    0    1
 -2       632       751       752      3073      3077      3075
 -1      1365    8    0    1
 -2       634       633       753      2705      3078      3079
 -1      1366    8    0    1
 -2       633       752       753      3076      3080      3078
 -1      1367    8    0    1
 -2       635       634       754      2708      3081      3082
 -1      1368    8    0    1
 -2       634       753       754      3079      3083      3081
 -1      1369    8    0    1
 -2       636       635       755      2711      3084      3085
 -1      1370    8    0    1
 -2       635       754       755      3082      3086      3084
 -1      1371    8    0    1
 -2       637       636       756      2714      3087      3088
 -1      1372    8    0    1
 -2       636       755       756      3085      3089      3087
 -1      1373    8    0    1
 -2       638       637       757      2717      3090      3091
 -1      1374    8    0    1
 -2       637       756       757      3088      3092      3090
 -1      1375    8    0    1
 -2       639       638       758      2720      3093      3094
 -1      1376    8    0    1
 -2       638       757       758      3091      3095      3093
 -1      1377    8    0    1
 -2       640       639       759      2723      3096      3097
 -1      1378    8    0    1
 -2       639       758       759      3094      3098      3096
 -1      1379    8    0    1
 -2       641       640       760      2726      3099      3100
 -1      1380    8    0    1
 -2       640       759       760      3097      3101      3099
 -1      1381    8    0    1
 -2       642       641       761      2729      3102      3103
 -1      1382    8    0    1
 -2       641       760       761      3100      3104      3102
 -1      1383    8    0    1
 -2       643       642       762      2732      3105      3106
 -1      1384    8    0    1
 -2       642       761       762      3103      3107      3105
 -1      1385    8    0    1
 -2       644       643       763      2735      3108      3109
 -1      1386    8    0    1
 -2       643       762       763      3106      3110      3108
 -1      1387    8    0    1
 -2       645       644       764      2738      3111      3112
 -1      1388    8    0    1
 -2       644       763       764      3109      3113      3111
 -1      1389    8    0    1
 -2       646       645       765      2741      3114      3115
 -1      1390    8    0    1
 -2       645       764       765      3112      3116      3114
 -1      1391    8    0    1
 -2       647       646       766      2744      3117      3118
 -1      1392    8    0    1
 -2       646       765       766      3115      3119      3117
 -1      1393    8    0    1
 -2       648       647       767      2747      3120      3121
 -1      1394    8    0    1
 -2       647       766       767      3118      3122      3120
 -1      1395    8    0    1
 -2       649       648       768      2750      3123      3124
 -1      1396    8    0    1
 -2       648       767       768      3121      3125      3123
 -1      1397    8    0    1
 -2       650       649       769      2753      3126      3127
 -1      1398    8    0    1
 -2       649       768       769      3124      3128      3126
 -1      1399    8    0    1
 -2       651       650       770      2756      3129      3130
 -1      1400    8    0    1
 -2       650       769       770      3127      3131      3129
 -1      1401    8    0    1
 -2       652       651       737      2759      3132      3133
 -1      1402    8    0    1
 -2       654       653       771      2765      3134      3135
 -1      1403    8    0    1
 -2       656       655       772      2771      3136      3137
 -1      1404    8    0    1
 -2       657       656       773      2774      3138      3139
 -1      1405    8    0    1
 -2       656       772       773      3137      3140      3138
 -1      1406    8    0    1
 -2       658       657       774      2777      3141      3142
 -1      1407    8    0    1
 -2       657       773       774      3139      3143      3141
 -1      1408    8    0    1
 -2       659       658       775      2780      3144      3145
 -1      1409    8    0    1
 -2       658       774       775      3142      3146      3144
 -1      1410    8    0    1
 -2       660       659       776      2783      3147      3148
 -1      1411    8    0    1
 -2       659       775       776      3145      3149      3147
 -1      1412    8    0    1
 -2       661       660       777      2786      3150      3151
 -1      1413    8    0    1
 -2       660       776       777      3148      3152      3150
 -1      1414    8    0    1
 -2       662       661       778      2789      3153      3154
 -1      1415    8    0    1
 -2       661       777       778      3151      3155      3153
 -1      1416    8    0    1
 -2       663       662       779      2792      3156      3157
 -1      1417    8    0    1
 -2       662       778       779      3154      3158      3156
 -1      1418    8    0    1
 -2       664       663       780      2795      3159      3160
 -1      1419    8    0    1
 -2       663       779       780      3157      3161      3159
 -1      1420    8    0    1
 -2       665       664       781      2798      3162      3163
 -1      1421    8    0    1
 -2       664       780       781      3160      3164      3162
 -1      1422    8    0    1
 -2       666       665       782      2801      3165      3166
 -1      1423    8    0    1
 -2       665       781       782      3163      3167      3165
 -1      1424    8    0    1
 -2       667       666       783      2804      3168      3169
 -1      1425    8    0    1
 -2       666       782       783      3166      3170      3168
 -1      1426    8    0    1
 -2       670       626       784      2813      3171      3172
 -1      1427    8    0    1
 -2       672       673       785      2821      3173      3174
 -1      1428    8    0    1
 -2       671       672       786      2818      3175      3176
 -1      1429    8    0    1
 -2       672       785       786      3174      3177      3175
 -1      1430    8    0    1
 -2       674       675       787      2827      3178      3179
 -1      1431    8    0    1
 -2       675       676       788      2830      3180      3181
 -1      1432    8    0    1
 -2       675       788       787      3181      3182      3178
 -1      1433    8    0    1
 -2       676       677       789      2833      3183      3184
 -1      1434    8    0    1
 -2       676       789       788      3184      3185      3180
 -1      1435    8    0    1
 -2       677       678       790      2836      3186      3187
 -1      1436    8    0    1
 -2       677       790       789      3187      3188      3183
 -1      1437    8    0    1
 -2       678       679       791      2839      3189      3190
 -1      1438    8    0    1
 -2       678       791       790      3190      3191      3186
 -1      1439    8    0    1
 -2       679       680       792      2842      3192      3193
 -1      1440    8    0    1
 -2       679       792       791      3193      3194      3189
 -1      1441    8    0    1
 -2       680       681       793      2845      3195      3196
 -1      1442    8    0    1
 -2       680       793       792      3196      3197      3192
 -1      1443    8    0    1
 -2       681       682       794      2848      3198      3199
 -1      1444    8    0    1
 -2       681       794       793      3199      3200      3195
 -1      1445    8    0    1
 -2       682       683       795      2851      3201      3202
 -1      1446    8    0    1
 -2       682       795       794      3202      3203      3198
 -1      1447    8    0    1
 -2       683       684       796      2854      3204      3205
 -1      1448    8    0    1
 -2       683       796       795      3205      3206      3201
 -1      1449    8    0    1
 -2       684       685       797      2857      3207      3208
 -1      1450    8    0    1
 -2       684       797       796      3208      3209      3204
 -1      1451    8    0    1
 -2       685       686       798      2860      3210      3211
 -1      1452    8    0    1
 -2       685       798       797      3211      3212      3207
 -1      1453    8    0    1
 -2       686       687       799      2863      3213      3214
 -1      1454    8    0    1
 -2       686       799       798      3214      3215      3210
 -1      1455    8    0    1
 -2       687       688       800      2866      3216      3217
 -1      1456    8    0    1
 -2       687       800       799      3217      3218      3213
 -1      1457    8    0    1
 -2       557       474       618      3015      2656      2872
 -1      1458    8    0    1
 -2       554       596       607      2870      2603      3219
 -1      1459    8    0    1
 -2       596       556       594      2871      3220      2654
 -1      1460    8    0    1
 -2       692       693       801      2889      3221      3222
 -1      1461    8    0    1
 -2       693       694       802      2892      3223      3224
 -1      1462    8    0    1
 -2       693       802       801      3224      3225      3221
 -1      1463    8    0    1
 -2       694       695       803      2895      3226      3227
 -1      1464    8    0    1
 -2       694       803       802      3227      3228      3223
 -1      1465    8    0    1
 -2       695       696       804      2898      3229      3230
 -1      1466    8    0    1
 -2       695       804       803      3230      3231      3226
 -1      1467    8    0    1
 -2       696       697       805      2901      3232      3233
 -1      1468    8    0    1
 -2       696       805       804      3233      3234      3229
 -1      1469    8    0    1
 -2       697       698       806      2904      3235      3236
 -1      1470    8    0    1
 -2       697       806       805      3236      3237      3232
 -1      1471    8    0    1
 -2       698       699       807      2907      3238      3239
 -1      1472    8    0    1
 -2       698       807       806      3239      3240      3235
 -1      1473    8    0    1
 -2       699       700       808      2910      3241      3242
 -1      1474    8    0    1
 -2       699       808       807      3242      3243      3238
 -1      1475    8    0    1
 -2       700       701       809      2913      3244      3245
 -1      1476    8    0    1
 -2       700       809       808      3245      3246      3241
 -1      1477    8    0    1
 -2       701       702       810      2916      3247      3248
 -1      1478    8    0    1
 -2       809       701       810      3244      3248      3249
 -1      1479    8    0    1
 -2       702       736       810      3021      3250      3247
 -1      1480    8    0    1
 -2       706       708       811      2933      3251      3252
 -1      1481    8    0    1
 -2       724       726       812      3046      3253      3254
 -1      1482    8    0    1
 -2       617       724       813      3041      3255      3256
 -1      1483    8    0    1
 -2       704       706       814      2926      3257      3258
 -1      1484    8    0    1
 -2       706       811       814      3252      3259      3257
 -1      1485    8    0    1
 -2       714       725       815      3023      3260      3261
 -1      1486    8    0    1
 -2       712       670       816      2945      3262      3263
 -1      1487    8    0    1
 -2       746       712       816      3059      3263      3264
 -1      1488    8    0    1
 -2       670       784       816      3172      3265      3262
 -1      1489    8    0    1
 -2       688       611       714      3014      3009      3266
 -1      1490    8    0    1
 -2       716       689       731      3016      3267      2996
 -1      1491    8    0    1
 -2       612       727       817      3010      3268      3269
 -1      1492    8    0    1
 -2       708       709       818      2936      3270      3271
 -1      1493    8    0    1
 -2       708       818       811      3271      3272      3251
 -1      1494    8    0    1
 -2       709       710       819      2939      3273      3274
 -1      1495    8    0    1
 -2       709       819       818      3274      3275      3270
 -1      1496    8    0    1
 -2       691       692       820      2886      3276      3277
 -1      1497    8    0    1
 -2       692       801       820      3222      3278      3276
 -1      1498    8    0    1
 -2       727       669       771      3011      3279      3280
 -1      1499    8    0    1
 -2       622       732       821      2999      3281      3282
 -1      1500    8    0    1
 -2       745       622       821      3057      3282      3283
 -1      1501    8    0    1
 -2       732       722       821      3025      3284      3281
 -1      1502    8    0    1
 -2       690       691       822      2883      3285      3286
 -1      1503    8    0    1
 -2       691       820       822      3277      3287      3285
 -1      1504    8    0    1
 -2       726       715       823      2984      3288      3289
 -1      1505    8    0    1
 -2       673       674       824      2824      3290      3291
 -1      1506    8    0    1
 -2       785       673       824      3173      3291      3292
 -1      1507    8    0    1
 -2       674       787       824      3179      3293      3290
 -1      1508    8    0    1
 -2       710       624       825      3027      3294      3295
 -1      1509    8    0    1
 -2       819       710       825      3273      3295      3296
 -1      1510    8    0    1
 -2       624       668       825      2807      3297      3294
 -1      1511    8    0    1
 -2       711       713       826      3013      3298      3299
 -1      1512    8    0    1
 -2       623       721       827      3007      3300      3301
 -1      1513    8    0    1
 -2       627       625       828      2684      3302      3303
 -1      1514    8    0    1
 -2       627       828       747      3303      3304      3061
 -1      1515    8    0    1
 -2       620       619       829      2666      3305      3306
 -1      1516    8    0    1
 -2       729       711       830      3008      3307      3308
 -1      1517    8    0    1
 -2       725       703       831      3026      3309      3310
 -1      1518    8    0    1
 -2       744       487       610      3054      2964      3311
 -1      1519    8    0    1
 -2       730       729       832      3024      3312      3313
 -1      1520    8    0    1
 -2       594       556       618      3220      2873      2657
 -1      1521    8    0    1
 -2       613       614       833      3012      3314      3315
 -1      1522    8    0    1
 -2       723       728       834      3053      3316      3317
 -1      1523    8    0    1
 -2       744       610       733      3311      3002      3318
 -1      1524    8    0    1
 -2       734       620       835      3004      3319      3320
 -1      1525    8    0    1
 -2       620       829       835      3306      3321      3319
 -1      1526    8    0    1
 -2       626       718       836      2962      3322      3323
 -1      1527    8    0    1
 -2       626       836       784      3323      3324      3171
 -1      1528    8    0    1
 -2       722       746       821      3060      3325      3284
 -1      1529    8    0    1
 -2       621       745       837      3058      3326      3327
 -1      1530    8    0    1
 -2       621       837       719      3327      3328      2968
 -1      1531    8    0    1
 -2       654       771       838      3135      3329      3330
 -1      1532    8    0    1
 -2       655       654       838      2768      3330      3331
 -1      1533    8    0    1
 -2       771       669       838      3279      3332      3329
 -1      1534    8    0    1
 -2       653       652       839      2762      3333      3334
 -1      1535    8    0    1
 -2       688       714       800      3266      3335      3216
 -1      1536    8    0    1
 -2       668       667       825      2808      3336      3297
 -1      1537    8    0    1
 -2       671       786       840      3176      3337      3338
 -1      1538    8    0    1
 -2       671       840       718      3338      3339      2963
 -1      1539    8    0    1
 -2       825       667       783      3336      3169      3340
 -1      1540    8    0    1
 -2       831       703       841      3309      3341      3342
 -1      1541    8    0    1
 -2       703       735       841      3018      3343      3341
 -1      1542    8    0    1
 -2       611       554       607      2867      3219      2615
 -1      1543    8    0    1
 -2       735       617       813      3019      3256      3344
 -1      1544    8    0    1
 -2       713       717       842      2958      3345      3346
 -1      1545    8    0    1
 -2       689       690       843      2880      3347      3348
 -1      1546    8    0    1
 -2       812       726       823      3253      3289      3349
 -1      1547    8    0    1
 -2       705       707       844      2929      3350      3351
 -1      1548    8    0    1
 -2       612       817       737      3269      3352      3030
 -1      1549    8    0    1
 -2       724       812       845      3254      3353      3354
 -1      1550    8    0    1
 -2       724       845       813      3354      3355      3255
 -1      1551    8    0    1
 -2       713       842       826      3346      3356      3298
 -1      1552    8    0    1
 -2       815       725       831      3260      3310      3357
 -1      1553    8    0    1
 -2       707       704       846      2930      3358      3359
 -1      1554    8    0    1
 -2       844       707       846      3350      3359      3360
 -1      1555    8    0    1
 -2       704       814       846      3258      3361      3358
 -1      1556    8    0    1
 -2       830       711       826      3307      3299      3362
 -1      1557    8    0    1
 -2       705       844       847      3351      3363      3364
 -1      1558    8    0    1
 -2       705       847       741      3364      3365      3045
 -1      1559    8    0    1
 -2       731       689       843      3267      3348      3366
 -1      1560    8    0    1
 -2       738       723       834      3033      3317      3367
 -1      1561    8    0    1
 -2       739       616       848      3036      3368      3369
 -1      1562    8    0    1
 -2       616       738       848      3032      3370      3368
 -1      1563    8    0    1
 -2       715       739       849      3035      3371      3372
 -1      1564    8    0    1
 -2       715       849       823      3372      3373      3288
 -1      1565    8    0    1
 -2       772       655       838      3136      3331      3374
 -1      1566    8    0    1
 -2       817       727       771      3268      3280      3375
 -1      1567    8    0    1
 -2       833       614       843      3314      3376      3377
 -1      1568    8    0    1
 -2       619       719       850      2967      3378      3379
 -1      1569    8    0    1
 -2       829       619       850      3305      3379      3380
 -1      1570    8    0    1
 -2       719       837       850      3328      3381      3378
 -1      1571    8    0    1
 -2       827       721       851      3300      3382      3383
 -1      1572    8    0    1
 -2       721       742       851      3048      3384      3382
 -1      1573    8    0    1
 -2       742       613       852      3049      3385      3386
 -1      1574    8    0    1
 -2       613       833       852      3315      3387      3385
 -1      1575    8    0    1
 -2       623       827       853      3301      3388      3389
 -1      1576    8    0    1
 -2       743       730       832      3052      3313      3390
 -1      1577    8    0    1
 -2       623       853       717      3389      3391      2959
 -1      1578    8    0    1
 -2       733       720       854      3003      3392      3393
 -1      1579    8    0    1
 -2       729       830       832      3308      3394      3312
 -1      1580    8    0    1
 -2       625       744       733      3056      3318      3395
 -1      1581    8    0    1
 -2       720       740       855      3039      3396      3397
 -1      1582    8    0    1
 -2       720       855       854      3397      3398      3392
 -1      1583    8    0    1
 -2       690       822       843      3286      3399      3347
 -1      1584    8    0    1
 -2       614       731       843      2995      3366      3376
 -1      1585    8    0    1
 -2       669       743       838      3051      3400      3332
 -1      1586    8    0    1
 -2       625       733       828      3395      3401      3302
 -1      1587    8    0    1
 -2       828       733       854      3401      3393      3402
 -1      1588    8    0    1
 -2       651       770       737      3130      3403      3132
 -1      1589    8    0    1
 -2       749       748       856      3068      3404      3405
 -1      1590    8    0    1
 -2       750       749       857      3071      3406      3407
 -1      1591    8    0    1
 -2       749       856       857      3405      3408      3406
 -1      1592    8    0    1
 -2       751       750       858      3074      3409      3410
 -1      1593    8    0    1
 -2       750       857       858      3407      3411      3409
 -1      1594    8    0    1
 -2       752       751       859      3077      3412      3413
 -1      1595    8    0    1
 -2       751       858       859      3410      3414      3412
 -1      1596    8    0    1
 -2       753       752       860      3080      3415      3416
 -1      1597    8    0    1
 -2       752       859       860      3413      3417      3415
 -1      1598    8    0    1
 -2       754       753       861      3083      3418      3419
 -1      1599    8    0    1
 -2       753       860       861      3416      3420      3418
 -1      1600    8    0    1
 -2       755       754       862      3086      3421      3422
 -1      1601    8    0    1
 -2       754       861       862      3419      3423      3421
 -1      1602    8    0    1
 -2       756       755       863      3089      3424      3425
 -1      1603    8    0    1
 -2       755       862       863      3422      3426      3424
 -1      1604    8    0    1
 -2       757       756       864      3092      3427      3428
 -1      1605    8    0    1
 -2       756       863       864      3425      3429      3427
 -1      1606    8    0    1
 -2       758       757       865      3095      3430      3431
 -1      1607    8    0    1
 -2       757       864       865      3428      3432      3430
 -1      1608    8    0    1
 -2       759       758       866      3098      3433      3434
 -1      1609    8    0    1
 -2       758       865       866      3431      3435      3433
 -1      1610    8    0    1
 -2       760       759       867      3101      3436      3437
 -1      1611    8    0    1
 -2       759       866       867      3434      3438      3436
 -1      1612    8    0    1
 -2       761       760       868      3104      3439      3440
 -1      1613    8    0    1
 -2       760       867       868      3437      3441      3439
 -1      1614    8    0    1
 -2       762       761       869      3107      3442      3443
 -1      1615    8    0    1
 -2       761       868       869      3440      3444      3442
 -1      1616    8    0    1
 -2       763       762       870      3110      3445      3446
 -1      1617    8    0    1
 -2       762       869       870      3443      3447      3445
 -1      1618    8    0    1
 -2       764       763       871      3113      3448      3449
 -1      1619    8    0    1
 -2       763       870       871      3446      3450      3448
 -1      1620    8    0    1
 -2       765       764       872      3116      3451      3452
 -1      1621    8    0    1
 -2       764       871       872      3449      3453      3451
 -1      1622    8    0    1
 -2       766       765       873      3119      3454      3455
 -1      1623    8    0    1
 -2       765       872       873      3452      3456      3454
 -1      1624    8    0    1
 -2       767       766       874      3122      3457      3458
 -1      1625    8    0    1
 -2       766       873       874      3455      3459      3457
 -1      1626    8    0    1
 -2       768       767       875      3125      3460      3461
 -1      1627    8    0    1
 -2       767       874       875      3458      3462      3460
 -1      1628    8    0    1
 -2       769       768       848      3128      3463      3464
 -1      1629    8    0    1
 -2       774       773       876      3143      3465      3466
 -1      1630    8    0    1
 -2       775       774       877      3146      3467      3468
 -1      1631    8    0    1
 -2       774       876       877      3466      3469      3467
 -1      1632    8    0    1
 -2       776       775       878      3149      3470      3471
 -1      1633    8    0    1
 -2       775       877       878      3468      3472      3470
 -1      1634    8    0    1
 -2       777       776       879      3152      3473      3474
 -1      1635    8    0    1
 -2       776       878       879      3471      3475      3473
 -1      1636    8    0    1
 -2       778       777       880      3155      3476      3477
 -1      1637    8    0    1
 -2       777       879       880      3474      3478      3476
 -1      1638    8    0    1
 -2       779       778       881      3158      3479      3480
 -1      1639    8    0    1
 -2       778       880       881      3477      3481      3479
 -1      1640    8    0    1
 -2       780       779       882      3161      3482      3483
 -1      1641    8    0    1
 -2       779       881       882      3480      3484      3482
 -1      1642    8    0    1
 -2       781       780       883      3164      3485      3486
 -1      1643    8    0    1
 -2       780       882       883      3483      3487      3485
 -1      1644    8    0    1
 -2       782       781       884      3167      3488      3489
 -1      1645    8    0    1
 -2       781       883       884      3486      3490      3488
 -1      1646    8    0    1
 -2       783       782       885      3170      3491      3492
 -1      1647    8    0    1
 -2       782       884       885      3489      3493      3491
 -1      1648    8    0    1
 -2       821       746       886      3325      3494      3495
 -1      1649    8    0    1
 -2       821       886       745      3495      3496      3283
 -1      1650    8    0    1
 -2       819       825       783      3296      3340      3497
 -1      1651    8    0    1
 -2       788       789       887      3185      3498      3499
 -1      1652    8    0    1
 -2       787       788       888      3182      3500      3501
 -1      1653    8    0    1
 -2       788       887       888      3499      3502      3500
 -1      1654    8    0    1
 -2       790       791       889      3191      3503      3504
 -1      1655    8    0    1
 -2       791       792       890      3194      3505      3506
 -1      1656    8    0    1
 -2       791       890       889      3506      3507      3503
 -1      1657    8    0    1
 -2       792       793       891      3197      3508      3509
 -1      1658    8    0    1
 -2       792       891       890      3509      3510      3505
 -1      1659    8    0    1
 -2       793       794       892      3200      3511      3512
 -1      1660    8    0    1
 -2       793       892       891      3512      3513      3508
 -1      1661    8    0    1
 -2       794       795       893      3203      3514      3515
 -1      1662    8    0    1
 -2       794       893       892      3515      3516      3511
 -1      1663    8    0    1
 -2       795       796       894      3206      3517      3518
 -1      1664    8    0    1
 -2       795       894       893      3518      3519      3514
 -1      1665    8    0    1
 -2       796       797       895      3209      3520      3521
 -1      1666    8    0    1
 -2       796       895       894      3521      3522      3517
 -1      1667    8    0    1
 -2       797       798       896      3212      3523      3524
 -1      1668    8    0    1
 -2       797       896       895      3524      3525      3520
 -1      1669    8    0    1
 -2       798       799       897      3215      3526      3527
 -1      1670    8    0    1
 -2       798       897       896      3527      3528      3523
 -1      1671    8    0    1
 -2       814       811       898      3259      3529      3530
 -1      1672    8    0    1
 -2       803       804       899      3231      3531      3532
 -1      1673    8    0    1
 -2       802       803       900      3228      3533      3534
 -1      1674    8    0    1
 -2       803       899       900      3532      3535      3533
 -1      1675    8    0    1
 -2       842       717       853      3345      3391      3536
 -1      1676    8    0    1
 -2       812       823       901      3349      3537      3538
 -1      1677    8    0    1
 -2       801       802       902      3225      3539      3540
 -1      1678    8    0    1
 -2       802       900       902      3534      3541      3539
 -1      1679    8    0    1
 -2       804       805       903      3234      3542      3543
 -1      1680    8    0    1
 -2       804       903       899      3543      3544      3531
 -1      1681    8    0    1
 -2       805       806       904      3237      3545      3546
 -1      1682    8    0    1
 -2       805       904       903      3546      3547      3542
 -1      1683    8    0    1
 -2       806       807       905      3240      3548      3549
 -1      1684    8    0    1
 -2       806       905       904      3549      3550      3545
 -1      1685    8    0    1
 -2       807       808       906      3243      3551      3552
 -1      1686    8    0    1
 -2       807       906       905      3552      3553      3548
 -1      1687    8    0    1
 -2       808       809       907      3246      3554      3555
 -1      1688    8    0    1
 -2       808       907       906      3555      3556      3551
 -1      1689    8    0    1
 -2       818       819       908      3275      3557      3558
 -1      1690    8    0    1
 -2       830       826       909      3362      3559      3560
 -1      1691    8    0    1
 -2       789       790       910      3188      3561      3562
 -1      1692    8    0    1
 -2       887       789       910      3498      3562      3563
 -1      1693    8    0    1
 -2       790       889       910      3504      3564      3561
 -1      1694    8    0    1
 -2       786       785       911      3177      3565      3566
 -1      1695    8    0    1
 -2       740       734       912      3040      3567      3568
 -1      1696    8    0    1
 -2       740       912       855      3568      3569      3396
 -1      1697    8    0    1
 -2       838       743       772      3400      3570      3374
 -1      1698    8    0    1
 -2       811       818       913      3272      3571      3572
 -1      1699    8    0    1
 -2       898       811       913      3529      3572      3573
 -1      1700    8    0    1
 -2       818       908       913      3558      3574      3571
 -1      1701    8    0    1
 -2       815       831       914      3357      3575      3576
 -1      1702    8    0    1
 -2       820       801       915      3278      3577      3578
 -1      1703    8    0    1
 -2       801       902       915      3540      3579      3577
 -1      1704    8    0    1
 -2       828       854       916      3402      3580      3581
 -1      1705    8    0    1
 -2       828       916       747      3581      3582      3304
 -1      1706    8    0    1
 -2       748       747       917      3065      3583      3584
 -1      1707    8    0    1
 -2       856       748       917      3404      3584      3585
 -1      1708    8    0    1
 -2       747       916       917      3582      3586      3583
 -1      1709    8    0    1
 -2       853       827       918      3388      3587      3588
 -1      1710    8    0    1
 -2       743       832       772      3390      3589      3570
 -1      1711    8    0    1
 -2       843       822       833      3399      3590      3377
 -1      1712    8    0    1
 -2       832       830       919      3394      3591      3592
 -1      1713    8    0    1
 -2       826       842       920      3356      3593      3594
 -1      1714    8    0    1
 -2       826       920       909      3594      3595      3559
 -1      1715    8    0    1
 -2       736       741       921      3044      3596      3597
 -1      1716    8    0    1
 -2       810       736       921      3250      3597      3598
 -1      1717    8    0    1
 -2       741       847       921      3365      3599      3596
 -1      1718    8    0    1
 -2       771       653       817      3134      3600      3375
 -1      1719    8    0    1
 -2       833       822       852      3590      3601      3387
 -1      1720    8    0    1
 -2       822       820       922      3287      3602      3603
 -1      1721    8    0    1
 -2       852       822       922      3601      3603      3604
 -1      1722    8    0    1
 -2       820       915       922      3578      3605      3602
 -1      1723    8    0    1
 -2       735       813       923      3344      3606      3607
 -1      1724    8    0    1
 -2       735       923       841      3607      3608      3343
 -1      1725    8    0    1
 -2       842       853       924      3536      3609      3610
 -1      1726    8    0    1
 -2       853       918       924      3588      3611      3609
 -1      1727    8    0    1
 -2       772       832       773      3589      3612      3140
 -1      1728    8    0    1
 -2       836       718       840      3322      3339      3613
 -1      1729    8    0    1
 -2       837       745       886      3326      3496      3614
 -1      1730    8    0    1
 -2       734       835       912      3320      3615      3567
 -1      1731    8    0    1
 -2       918       827       925      3587      3616      3617
 -1      1732    8    0    1
 -2       827       851       925      3383      3618      3616
 -1      1733    8    0    1
 -2       768       875       848      3461      3619      3463
 -1      1734    8    0    1
 -2       769       848       738      3464      3370      3620
 -1      1735    8    0    1
 -2       800       714       815      3335      3261      3621
 -1      1736    8    0    1
 -2       831       841       926      3342      3622      3623
 -1      1737    8    0    1
 -2       831       926       914      3623      3624      3575
 -1      1738    8    0    1
 -2       886       746       927      3494      3625      3626
 -1      1739    8    0    1
 -2       746       816       927      3264      3627      3625
 -1      1740    8    0    1
 -2       840       786       928      3337      3628      3629
 -1      1741    8    0    1
 -2       786       911       928      3566      3630      3628
 -1      1742    8    0    1
 -2       911       785       929      3565      3631      3632
 -1      1743    8    0    1
 -2       785       824       929      3292      3633      3631
 -1      1744    8    0    1
 -2       787       888       930      3501      3634      3635
 -1      1745    8    0    1
 -2       787       930       824      3635      3636      3293
 -1      1746    8    0    1
 -2       814       898       931      3530      3637      3638
 -1      1747    8    0    1
 -2       814       931       846      3638      3639      3361
 -1      1748    8    0    1
 -2       897       799       914      3526      3640      3641
 -1      1749    8    0    1
 -2       799       800       914      3218      3642      3640
 -1      1750    8    0    1
 -2       816       784       932      3265      3643      3644
 -1      1751    8    0    1
 -2       816       932       927      3644      3645      3627
 -1      1752    8    0    1
 -2       842       924       920      3610      3646      3593
 -1      1753    8    0    1
 -2       901       823       933      3537      3647      3648
 -1      1754    8    0    1
 -2       773       832       876      3612      3649      3465
 -1      1755    8    0    1
 -2       815       914       800      3576      3642      3621
 -1      1756    8    0    1
 -2       809       810       921      3249      3598      3650
 -1      1757    8    0    1
 -2       830       909       919      3560      3651      3591
 -1      1758    8    0    1
 -2       784       836       934      3324      3652      3653
 -1      1759    8    0    1
 -2       784       934       932      3653      3654      3643
 -1      1760    8    0    1
 -2       845       812       935      3353      3655      3656
 -1      1761    8    0    1
 -2       812       901       935      3538      3657      3655
 -1      1762    8    0    1
 -2       813       845       936      3355      3658      3659
 -1      1763    8    0    1
 -2       813       936       923      3659      3660      3606
 -1      1764    8    0    1
 -2       728       737       834      3029      3661      3316
 -1      1765    8    0    1
 -2       847       844       937      3363      3662      3663
 -1      1766    8    0    1
 -2       809       921       907      3650      3664      3554
 -1      1767    8    0    1
 -2       916       854       855      3580      3398      3665
 -1      1768    8    0    1
 -2       819       783       938      3497      3666      3667
 -1      1769    8    0    1
 -2       823       849       933      3373      3668      3647
 -1      1770    8    0    1
 -2       829       850       939      3380      3669      3670
 -1      1771    8    0    1
 -2       829       939       940      3670      3671      3672
 -1      1772    8    0    1
 -2       829       940       835      3672      3673      3321
 -1      1773    8    0    1
 -2       851       742       941      3384      3674      3675
 -1      1774    8    0    1
 -2       925       851       941      3618      3675      3676
 -1      1775    8    0    1
 -2       742       852       941      3386      3677      3674
 -1      1776    8    0    1
 -2       844       846       942      3360      3678      3679
 -1      1777    8    0    1
 -2       937       844       942      3662      3679      3680
 -1      1778    8    0    1
 -2       846       931       942      3639      3681      3678
 -1      1779    8    0    1
 -2       739       848       943      3369      3682      3683
 -1      1780    8    0    1
 -2       849       739       943      3371      3683      3684
 -1      1781    8    0    1
 -2       848       875       943      3619      3685      3682
 -1      1782    8    0    1
 -2       857       856       944      3408      3686      3687
 -1      1783    8    0    1
 -2       858       857       945      3411      3688      3689
 -1      1784    8    0    1
 -2       857       944       945      3687      3690      3688
 -1      1785    8    0    1
 -2       859       858       946      3414      3691      3692
 -1      1786    8    0    1
 -2       858       945       946      3689      3693      3691
 -1      1787    8    0    1
 -2       860       859       947      3417      3694      3695
 -1      1788    8    0    1
 -2       859       946       947      3692      3696      3694
 -1      1789    8    0    1
 -2       861       860       948      3420      3697      3698
 -1      1790    8    0    1
 -2       860       947       948      3695      3699      3697
 -1      1791    8    0    1
 -2       862       861       949      3423      3700      3701
 -1      1792    8    0    1
 -2       861       948       949      3698      3702      3700
 -1      1793    8    0    1
 -2       863       862       950      3426      3703      3704
 -1      1794    8    0    1
 -2       862       949       950      3701      3705      3703
 -1      1795    8    0    1
 -2       864       863       951      3429      3706      3707
 -1      1796    8    0    1
 -2       863       950       951      3704      3708      3706
 -1      1797    8    0    1
 -2       865       864       952      3432      3709      3710
 -1      1798    8    0    1
 -2       864       951       952      3707      3711      3709
 -1      1799    8    0    1
 -2       866       865       953      3435      3712      3713
 -1      1800    8    0    1
 -2       865       952       953      3710      3714      3712
 -1      1801    8    0    1
 -2       867       866       954      3438      3715      3716
 -1      1802    8    0    1
 -2       866       953       954      3713      3717      3715
 -1      1803    8    0    1
 -2       868       867       955      3441      3718      3719
 -1      1804    8    0    1
 -2       867       954       955      3716      3720      3718
 -1      1805    8    0    1
 -2       869       868       956      3444      3721      3722
 -1      1806    8    0    1
 -2       868       955       956      3719      3723      3721
 -1      1807    8    0    1
 -2       870       869       957      3447      3724      3725
 -1      1808    8    0    1
 -2       869       956       957      3722      3726      3724
 -1      1809    8    0    1
 -2       871       870       958      3450      3727      3728
 -1      1810    8    0    1
 -2       870       957       958      3725      3729      3727
 -1      1811    8    0    1
 -2       872       871       959      3453      3730      3731
 -1      1812    8    0    1
 -2       871       958       959      3728      3732      3730
 -1      1813    8    0    1
 -2       873       872       960      3456      3733      3734
 -1      1814    8    0    1
 -2       872       959       960      3731      3735      3733
 -1      1815    8    0    1
 -2       874       873       961      3459      3736      3737
 -1      1816    8    0    1
 -2       873       960       961      3734      3738      3736
 -1      1817    8    0    1
 -2       875       874       962      3462      3739      3740
 -1      1818    8    0    1
 -2       943       875       962      3685      3740      3741
 -1      1819    8    0    1
 -2       874       961       962      3737      3742      3739
 -1      1820    8    0    1
 -2       769       738       834      3620      3367      3743
 -1      1821    8    0    1
 -2       912       835       963      3615      3744      3745
 -1      1822    8    0    1
 -2       835       940       963      3673      3746      3744
 -1      1823    8    0    1
 -2       770       769       834      3131      3743      3747
 -1      1824    8    0    1
 -2       920       924       964      3646      3748      3749
 -1      1825    8    0    1
 -2       783       885       938      3492      3750      3666
 -1      1826    8    0    1
 -2       878       877       965      3472      3751      3752
 -1      1827    8    0    1
 -2       879       878       966      3475      3753      3754
 -1      1828    8    0    1
 -2       878       965       966      3752      3755      3753
 -1      1829    8    0    1
 -2       880       879       967      3478      3756      3757
 -1      1830    8    0    1
 -2       879       966       967      3754      3758      3756
 -1      1831    8    0    1
 -2       881       880       968      3481      3759      3760
 -1      1832    8    0    1
 -2       880       967       968      3757      3761      3759
 -1      1833    8    0    1
 -2       882       881       969      3484      3762      3763
 -1      1834    8    0    1
 -2       881       968       969      3760      3764      3762
 -1      1835    8    0    1
 -2       883       882       970      3487      3765      3766
 -1      1836    8    0    1
 -2       882       969       970      3763      3767      3765
 -1      1837    8    0    1
 -2       884       883       971      3490      3768      3769
 -1      1838    8    0    1
 -2       883       970       971      3766      3770      3768
 -1      1839    8    0    1
 -2       885       884       972      3493      3771      3772
 -1      1840    8    0    1
 -2       884       971       972      3769      3773      3771
 -1      1841    8    0    1
 -2       888       887       973      3502      3774      3775
 -1      1842    8    0    1
 -2       890       891       974      3510      3776      3777
 -1      1843    8    0    1
 -2       889       890       975      3507      3778      3779
 -1      1844    8    0    1
 -2       890       974       975      3777      3780      3778
 -1      1845    8    0    1
 -2       892       893       976      3516      3781      3782
 -1      1846    8    0    1
 -2       893       894       977      3519      3783      3784
 -1      1847    8    0    1
 -2       893       977       976      3784      3785      3781
 -1      1848    8    0    1
 -2       894       895       978      3522      3786      3787
 -1      1849    8    0    1
 -2       894       978       977      3787      3788      3783
 -1      1850    8    0    1
 -2       895       896       979      3525      3789      3790
 -1      1851    8    0    1
 -2       895       979       978      3790      3791      3786
 -1      1852    8    0    1
 -2       896       897       980      3528      3792      3793
 -1      1853    8    0    1
 -2       896       980       979      3793      3794      3789
 -1      1854    8    0    1
 -2       899       903       981      3544      3795      3796
 -1      1855    8    0    1
 -2       902       900       982      3541      3797      3798
 -1      1856    8    0    1
 -2       900       899       983      3535      3799      3800
 -1      1857    8    0    1
 -2       899       981       983      3796      3801      3799
 -1      1858    8    0    1
 -2       876       832       919      3649      3592      3802
 -1      1859    8    0    1
 -2       904       905       984      3550      3803      3804
 -1      1860    8    0    1
 -2       905       906       985      3553      3805      3806
 -1      1861    8    0    1
 -2       905       985       984      3806      3807      3803
 -1      1862    8    0    1
 -2       916       855       986      3665      3808      3809
 -1      1863    8    0    1
 -2       855       912       986      3569      3810      3808
 -1      1864    8    0    1
 -2       837       886       987      3614      3811      3812
 -1      1865    8    0    1
 -2       836       840       988      3613      3813      3814
 -1      1866    8    0    1
 -2       934       836       988      3652      3814      3815
 -1      1867    8    0    1
 -2       840       928       988      3629      3816      3813
 -1      1868    8    0    1
 -2       907       921       847      3664      3599      3817
 -1      1869    8    0    1
 -2       850       837       987      3381      3812      3818
 -1      1870    8    0    1
 -2       915       902       989      3579      3819      3820
 -1      1871    8    0    1
 -2       902       982       989      3798      3821      3819
 -1      1872    8    0    1
 -2       841       923       990      3608      3822      3823
 -1      1873    8    0    1
 -2       841       990       926      3823      3824      3622
 -1      1874    8    0    1
 -2       891       892       991      3513      3825      3826
 -1      1875    8    0    1
 -2       892       976       991      3782      3827      3825
 -1      1876    8    0    1
 -2       653       839       817      3334      3828      3600
 -1      1877    8    0    1
 -2       933       849       943      3668      3684      3829
 -1      1878    8    0    1
 -2       939       850       987      3669      3818      3830
 -1      1879    8    0    1
 -2       876       919       992      3802      3831      3832
 -1      1880    8    0    1
 -2       877       876       992      3469      3832      3833
 -1      1881    8    0    1
 -2       919       909       992      3651      3834      3831
 -1      1882    8    0    1
 -2       907       847       937      3817      3663      3835
 -1      1883    8    0    1
 -2       909       920       993      3595      3836      3837
 -1      1884    8    0    1
 -2       907       937       906      3835      3838      3556
 -1      1885    8    0    1
 -2       924       918       994      3611      3839      3840
 -1      1886    8    0    1
 -2       903       904       995      3547      3841      3842
 -1      1887    8    0    1
 -2       981       903       995      3795      3842      3843
 -1      1888    8    0    1
 -2       904       984       995      3804      3844      3841
 -1      1889    8    0    1
 -2       906       937       985      3838      3845      3805
 -1      1890    8    0    1
 -2       920       964       996      3749      3846      3847
 -1      1891    8    0    1
 -2       920       996       993      3847      3848      3836
 -1      1892    8    0    1
 -2       652       737       839      3133      3849      3333
 -1      1893    8    0    1
 -2       964       924       994      3748      3840      3850
 -1      1894    8    0    1
 -2       891       991       974      3826      3851      3776
 -1      1895    8    0    1
 -2       938       885       972      3750      3772      3852
 -1      1896    8    0    1
 -2       965       877       992      3751      3833      3853
 -1      1897    8    0    1
 -2       973       887       997      3774      3854      3855
 -1      1898    8    0    1
 -2       887       910       997      3563      3856      3854
 -1      1899    8    0    1
 -2       928       911       998      3630      3857      3858
 -1      1900    8    0    1
 -2       929       824       930      3633      3636      3859
 -1      1901    8    0    1
 -2       930       888       999      3634      3860      3861
 -1      1902    8    0    1
 -2       888       973       999      3775      3862      3860
 -1      1903    8    0    1
 -2       931       898      1000      3637      3863      3864
 -1      1904    8    0    1
 -2       980       897       990      3792      3865      3866
 -1      1905    8    0    1
 -2       927       932      1001      3645      3867      3868
 -1      1906    8    0    1
 -2       886       927       987      3626      3869      3811
 -1      1907    8    0    1
 -2       845       935      1002      3656      3870      3871
 -1      1908    8    0    1
 -2       845      1002       936      3871      3872      3658
 -1      1909    8    0    1
 -2       941       852       922      3677      3604      3873
 -1      1910    8    0    1
 -2       900       983       982      3800      3874      3797
 -1      1911    8    0    1
 -2       916       986      1003      3809      3875      3876
 -1      1912    8    0    1
 -2       916      1003       917      3876      3877      3586
 -1      1913    8    0    1
 -2       912       963       986      3745      3878      3810
 -1      1914    8    0    1
 -2       915       989      1004      3820      3879      3880
 -1      1915    8    0    1
 -2       915      1004       922      3880      3881      3605
 -1      1916    8    0    1
 -2       908       819       938      3557      3667      3882
 -1      1917    8    0    1
 -2       935       901      1005      3657      3883      3884
 -1      1918    8    0    1
 -2      1001       932      1006      3867      3885      3886
 -1      1919    8    0    1
 -2       932       934      1006      3654      3887      3885
 -1      1920    8    0    1
 -2       998       911      1007      3857      3888      3889
 -1      1921    8    0    1
 -2       911       929      1007      3632      3890      3888
 -1      1922    8    0    1
 -2      1000       898      1008      3863      3891      3892
 -1      1923    8    0    1
 -2       898       913      1008      3573      3893      3891
 -1      1924    8    0    1
 -2      1005       901       933      3883      3648      3894
 -1      1925    8    0    1
 -2       918       925      1009      3617      3895      3896
 -1      1926    8    0    1
 -2       918      1009       994      3896      3897      3839
 -1      1927    8    0    1
 -2       940       939      1010      3671      3898      3899
 -1      1928    8    0    1
 -2       990       923      1011      3822      3900      3901
 -1      1929    8    0    1
 -2       923       936      1011      3660      3902      3900
 -1      1930    8    0    1
 -2       992       909       993      3834      3837      3903
 -1      1931    8    0    1
 -2       770       834       737      3747      3661      3403
 -1      1932    8    0    1
 -2       856       917      1003      3585      3877      3904
 -1      1933    8    0    1
 -2       856      1003       944      3904      3905      3686
 -1      1934    8    0    1
 -2       985       937      1012      3845      3906      3907
 -1      1935    8    0    1
 -2       937       942      1012      3680      3908      3906
 -1      1936    8    0    1
 -2       908       938      1013      3882      3909      3910
 -1      1937    8    0    1
 -2       913       908      1013      3574      3910      3911
 -1      1938    8    0    1
 -2       938       972      1013      3852      3912      3909
 -1      1939    8    0    1
 -2       910       889      1014      3564      3913      3914
 -1      1940    8    0    1
 -2       910      1014       997      3914      3915      3856
 -1      1941    8    0    1
 -2      1014       889       975      3913      3779      3916
 -1      1942    8    0    1
 -2       942       931      1015      3681      3917      3918
 -1      1943    8    0    1
 -2      1012       942      1015      3908      3918      3919
 -1      1944    8    0    1
 -2       931      1000      1015      3864      3920      3917
 -1      1945    8    0    1
 -2       946       945      1016      3693      3921      3922
 -1      1946    8    0    1
 -2       947       946      1017      3696      3923      3924
 -1      1947    8    0    1
 -2       946      1016      1017      3922      3925      3923
 -1      1948    8    0    1
 -2       948       947      1018      3699      3926      3927
 -1      1949    8    0    1
 -2       947      1017      1018      3924      3928      3926
 -1      1950    8    0    1
 -2       949       948      1019      3702      3929      3930
 -1      1951    8    0    1
 -2       948      1018      1019      3927      3931      3929
 -1      1952    8    0    1
 -2       950       949      1020      3705      3932      3933
 -1      1953    8    0    1
 -2       949      1019      1020      3930      3934      3932
 -1      1954    8    0    1
 -2       951       950      1021      3708      3935      3936
 -1      1955    8    0    1
 -2       950      1020      1021      3933      3937      3935
 -1      1956    8    0    1
 -2       952       951      1022      3711      3938      3939
 -1      1957    8    0    1
 -2       951      1021      1022      3936      3940      3938
 -1      1958    8    0    1
 -2       953       952      1023      3714      3941      3942
 -1      1959    8    0    1
 -2       952      1022      1023      3939      3943      3941
 -1      1960    8    0    1
 -2       954       953      1024      3717      3944      3945
 -1      1961    8    0    1
 -2       953      1023      1024      3942      3946      3944
 -1      1962    8    0    1
 -2       955       954      1025      3720      3947      3948
 -1      1963    8    0    1
 -2       954      1024      1025      3945      3949      3947
 -1      1964    8    0    1
 -2       956       955      1026      3723      3950      3951
 -1      1965    8    0    1
 -2       955      1025      1026      3948      3952      3950
 -1      1966    8    0    1
 -2       957       956      1027      3726      3953      3954
 -1      1967    8    0    1
 -2       956      1026      1027      3951      3955      3953
 -1      1968    8    0    1
 -2       958       957      1028      3729      3956      3957
 -1      1969    8    0    1
 -2       957      1027      1028      3954      3958      3956
 -1      1970    8    0    1
 -2       959       958      1029      3732      3959      3960
 -1      1971    8    0    1
 -2       958      1028      1029      3957      3961      3959
 -1      1972    8    0    1
 -2       960       959      1030      3735      3962      3963
 -1      1973    8    0    1
 -2       959      1029      1030      3960      3964      3962
 -1      1974    8    0    1
 -2       975       974      1031      3780      3965      3966
 -1      1975    8    0    1
 -2       963       940      1032      3746      3967      3968
 -1      1976    8    0    1
 -2       940      1010      1032      3899      3969      3967
 -1      1977    8    0    1
 -2       964       994      1033      3850      3970      3971
 -1      1978    8    0    1
 -2      1014       975      1034      3916      3972      3973
 -1      1979    8    0    1
 -2       975      1031      1034      3966      3974      3972
 -1      1980    8    0    1
 -2       965       992       993      3853      3903      3975
 -1      1981    8    0    1
 -2       967       966      1035      3758      3976      3977
 -1      1982    8    0    1
 -2       968       967      1036      3761      3978      3979
 -1      1983    8    0    1
 -2       967      1035      1036      3977      3980      3978
 -1      1984    8    0    1
 -2       969       968      1037      3764      3981      3982
 -1      1985    8    0    1
 -2       968      1036      1037      3979      3983      3981
 -1      1986    8    0    1
 -2       970       969      1038      3767      3984      3985
 -1      1987    8    0    1
 -2       969      1037      1038      3982      3986      3984
 -1      1988    8    0    1
 -2       971       970      1039      3770      3987      3988
 -1      1989    8    0    1
 -2       970      1038      1039      3985      3989      3987
 -1      1990    8    0    1
 -2       972       971      1040      3773      3990      3991
 -1      1991    8    0    1
 -2       971      1039      1040      3988      3992      3990
 -1      1992    8    0    1
 -2       929       930      1041      3859      3993      3994
 -1      1993    8    0    1
 -2      1007       929      1041      3890      3994      3995
 -1      1994    8    0    1
 -2       930       999      1041      3861      3996      3993
 -1      1995    8    0    1
 -2       817       839       737      3828      3849      3352
 -1      1996    8    0    1
 -2       980       990      1011      3866      3901      3997
 -1      1997    8    0    1
 -2       977       978      1042      3788      3998      3999
 -1      1998    8    0    1
 -2       976       977      1043      3785      4000      4001
 -1      1999    8    0    1
 -2       977      1042      1043      3999      4002      4000
 -1      2000    8    0    1
 -2       979       980      1044      3794      4003      4004
 -1      2001    8    0    1
 -2       980      1011      1044      3997      4005      4003
 -1      2002    8    0    1
 -2       927      1001       987      3868      4006      3869
 -1      2003    8    0    1
 -2       984       985      1012      3807      3907      4007
 -1      2004    8    0    1
 -2       974       991      1045      3851      4008      4009
 -1      2005    8    0    1
 -2       974      1045      1031      4009      4010      3965
 -1      2006    8    0    1
 -2       941       922      1004      3873      3881      4011
 -1      2007    8    0    1
 -2       928       998      1046      3858      4012      4013
 -1      2008    8    0    1
 -2       897       914       926      3641      3624      4014
 -1      2009    8    0    1
 -2      1010       939      1047      3898      4015      4016
 -1      2010    8    0    1
 -2       983       981      1048      3801      4017      4018
 -1      2011    8    0    1
 -2       989       982      1049      3821      4019      4020
 -1      2012    8    0    1
 -2       991       976      1050      3827      4021      4022
 -1      2013    8    0    1
 -2       991      1050      1045      4022      4023      4008
 -1      2014    8    0    1
 -2       939       987      1047      3830      4024      4015
 -1      2015    8    0    1
 -2       986       963      1051      3878      4025      4026
 -1      2016    8    0    1
 -2      1003       986      1051      3875      4026      4027
 -1      2017    8    0    1
 -2       963      1032      1051      3968      4028      4025
 -1      2018    8    0    1
 -2       982       983      1052      3874      4029      4030
 -1      2019    8    0    1
 -2       983      1048      1052      4018      4031      4029
 -1      2020    8    0    1
 -2       944      1003      1053      3905      4032      4033
 -1      2021    8    0    1
 -2      1003      1051      1053      4027      4034      4032
 -1      2022    8    0    1
 -2       978       979      1054      3791      4035      4036
 -1      2023    8    0    1
 -2      1042       978      1054      3998      4036      4037
 -1      2024    8    0    1
 -2       979      1044      1054      4004      4038      4035
 -1      2025    8    0    1
 -2       925       941      1004      3676      4011      4039
 -1      2026    8    0    1
 -2      1010      1047      1055      4016      4040      4041
 -1      2027    8    0    1
 -2       945       944      1056      3690      4042      4043
 -1      2028    8    0    1
 -2      1016       945      1056      3921      4043      4044
 -1      2029    8    0    1
 -2       944      1053      1056      4033      4045      4042
 -1      2030    8    0    1
 -2       935      1005      1057      3884      4046      4047
 -1      2031    8    0    1
 -2       935      1057      1002      4047      4048      3870
 -1      2032    8    0    1
 -2       933       943       962      3829      3741      4049
 -1      2033    8    0    1
 -2       933       962       961      4049      3742      4050
 -1      2034    8    0    1
 -2       897       926       990      4014      3824      3865
 -1      2035    8    0    1
 -2       933       961      1005      4050      4051      3894
 -1      2036    8    0    1
 -2      1005       961       960      4051      3738      4052
 -1      2037    8    0    1
 -2      1047       987      1001      4024      4006      4053
 -1      2038    8    0    1
 -2      1005       960      1030      4052      3963      4054
 -1      2039    8    0    1
 -2      1047      1001      1055      4053      4055      4040
 -1      2040    8    0    1
 -2       965       993       996      3975      3848      4056
 -1      2041    8    0    1
 -2      1010      1055      1058      4041      4057      4058
 -1      2042    8    0    1
 -2      1010      1058      1032      4058      4059      3969
 -1      2043    8    0    1
 -2       982      1052      1049      4030      4060      4019
 -1      2044    8    0    1
 -2      1033       994      1049      3970      4061      4062
 -1      2045    8    0    1
 -2       966       965       996      3755      4056      4063
 -1      2046    8    0    1
 -2      1014      1034      1059      3973      4064      4065
 -1      2047    8    0    1
 -2      1014      1059       997      4065      4066      3915
 -1      2048    8    0    1
 -2      1035       966       996      3976      4063      4067
 -1      2049    8    0    1
 -2       972      1040      1008      3991      4068      4069
 -1      2050    8    0    1
 -2       999       973      1060      3862      4070      4071
 -1      2051    8    0    1
 -2      1011       936      1061      3902      4072      4073
 -1      2052    8    0    1
 -2      1044      1011      1061      4005      4073      4074
 -1      2053    8    0    1
 -2       936      1002      1061      3872      4075      4072
 -1      2054    8    0    1
 -2       976      1043      1050      4001      4076      4021
 -1      2055    8    0    1
 -2       984      1012      1062      4007      4077      4078
 -1      2056    8    0    1
 -2      1006       934      1063      3887      4079      4080
 -1      2057    8    0    1
 -2       934       988      1063      3815      4081      4079
 -1      2058    8    0    1
 -2      1048       981      1064      4017      4082      4083
 -1      2059    8    0    1
 -2       981       995      1064      3843      4084      4082
 -1      2060    8    0    1
 -2       928      1046       988      4013      4085      3816
 -1      2061    8    0    1
 -2      1009       925      1004      3895      4039      4086
 -1      2062    8    0    1
 -2      1001      1006      1055      3886      4087      4055
 -1      2063    8    0    1
 -2      1005      1030      1057      4054      4088      4046
 -1      2064    8    0    1
 -2      1046       998      1065      4012      4089      4090
 -1      2065    8    0    1
 -2      1000      1008      1066      3892      4091      4092
 -1      2066    8    0    1
 -2      1008      1040      1066      4068      4093      4091
 -1      2067    8    0    1
 -2      1015      1000      1067      3920      4094      4095
 -1      2068    8    0    1
 -2      1000      1066      1067      4092      4096      4094
 -1      2069    8    0    1
 -2       998      1007      1068      3889      4097      4098
 -1      2070    8    0    1
 -2       998      1068      1065      4098      4099      4089
 -1      2071    8    0    1
 -2       996       964      1069      3846      4100      4101
 -1      2072    8    0    1
 -2      1035       996      1069      4067      4101      4102
 -1      2073    8    0    1
 -2       964      1033      1069      3971      4103      4100
 -1      2074    8    0    1
 -2       973       997      1070      3855      4104      4105
 -1      2075    8    0    1
 -2       997      1059      1070      4066      4106      4104
 -1      2076    8    0    1
 -2       973      1070      1060      4105      4107      4070
 -1      2077    8    0    1
 -2       995       984      1062      3844      4078      4108
 -1      2078    8    0    1
 -2      1017      1016      1071      3925      4109      4110
 -1      2079    8    0    1
 -2      1018      1017      1072      3928      4111      4112
 -1      2080    8    0    1
 -2      1017      1071      1072      4110      4113      4111
 -1      2081    8    0    1
 -2      1019      1018      1073      3931      4114      4115
 -1      2082    8    0    1
 -2      1018      1072      1073      4112      4116      4114
 -1      2083    8    0    1
 -2      1020      1019      1074      3934      4117      4118
 -1      2084    8    0    1
 -2      1019      1073      1074      4115      4119      4117
 -1      2085    8    0    1
 -2      1021      1020      1075      3937      4120      4121
 -1      2086    8    0    1
 -2      1020      1074      1075      4118      4122      4120
 -1      2087    8    0    1
 -2      1022      1021      1076      3940      4123      4124
 -1      2088    8    0    1
 -2      1021      1075      1076      4121      4125      4123
 -1      2089    8    0    1
 -2      1023      1022      1077      3943      4126      4127
 -1      2090    8    0    1
 -2      1022      1076      1077      4124      4128      4126
 -1      2091    8    0    1
 -2      1024      1023      1078      3946      4129      4130
 -1      2092    8    0    1
 -2      1023      1077      1078      4127      4131      4129
 -1      2093    8    0    1
 -2      1025      1024      1079      3949      4132      4133
 -1      2094    8    0    1
 -2      1024      1078      1079      4130      4134      4132
 -1      2095    8    0    1
 -2      1026      1025      1080      3952      4135      4136
 -1      2096    8    0    1
 -2      1025      1079      1080      4133      4137      4135
 -1      2097    8    0    1
 -2      1027      1026      1081      3955      4138      4139
 -1      2098    8    0    1
 -2      1026      1080      1081      4136      4140      4138
 -1      2099    8    0    1
 -2      1028      1027      1082      3958      4141      4142
 -1      2100    8    0    1
 -2      1027      1081      1082      4139      4143      4141
 -1      2101    8    0    1
 -2      1029      1028      1083      3961      4144      4145
 -1      2102    8    0    1
 -2      1028      1082      1083      4142      4146      4144
 -1      2103    8    0    1
 -2      1030      1029      1084      3964      4147      4148
 -1      2104    8    0    1
 -2      1029      1083      1084      4145      4149      4147
 -1      2105    8    0    1
 -2       972      1008      1013      4069      4150      3912
 -1      2106    8    0    1
 -2       995      1062      1064      4108      4151      4084
 -1      2107    8    0    1
 -2      1036      1035      1085      3980      4152      4153
 -1      2108    8    0    1
 -2      1035      1069      1085      4102      4154      4152
 -1      2109    8    0    1
 -2       999      1060      1086      4071      4155      4156
 -1      2110    8    0    1
 -2       999      1086      1041      4156      4157      3996
 -1      2111    8    0    1
 -2      1037      1036      1087      3983      4158      4159
 -1      2112    8    0    1
 -2      1036      1085      1087      4153      4160      4158
 -1      2113    8    0    1
 -2      1038      1037      1088      3986      4161      4162
 -1      2114    8    0    1
 -2      1037      1087      1088      4159      4163      4161
 -1      2115    8    0    1
 -2      1039      1038      1089      3989      4164      4165
 -1      2116    8    0    1
 -2      1038      1088      1089      4162      4166      4164
 -1      2117    8    0    1
 -2      1040      1039      1066      3992      4167      4093
 -1      2118    8    0    1
 -2      1008       913      1013      3893      3911      4150
 -1      2119    8    0    1
 -2      1012      1015      1067      3919      4095      4168
 -1      2120    8    0    1
 -2      1062      1012      1067      4077      4168      4169
 -1      2121    8    0    1
 -2      1052      1048      1090      4031      4170      4171
 -1      2122    8    0    1
 -2      1004       989      1009      3879      4172      4086
 -1      2123    8    0    1
 -2      1066      1039      1089      4167      4165      4173
 -1      2124    8    0    1
 -2      1043      1042      1091      4002      4174      4175
 -1      2125    8    0    1
 -2      1002      1057      1092      4048      4176      4177
 -1      2126    8    0    1
 -2      1050      1043      1093      4076      4178      4179
 -1      2127    8    0    1
 -2      1043      1091      1093      4175      4180      4178
 -1      2128    8    0    1
 -2      1055      1006      1094      4087      4181      4182
 -1      2129    8    0    1
 -2      1031      1045      1095      4010      4183      4184
 -1      2130    8    0    1
 -2      1045      1050      1096      4023      4185      4186
 -1      2131    8    0    1
 -2      1050      1093      1096      4179      4187      4185
 -1      2132    8    0    1
 -2      1057      1030      1084      4088      4148      4188
 -1      2133    8    0    1
 -2      1051      1032      1097      4028      4189      4190
 -1      2134    8    0    1
 -2      1051      1097      1053      4190      4191      4034
 -1      2135    8    0    1
 -2      1046      1065      1098      4090      4192      4193
 -1      2136    8    0    1
 -2      1060      1070      1099      4107      4194      4195
 -1      2137    8    0    1
 -2      1034      1031      1100      3974      4196      4197
 -1      2138    8    0    1
 -2      1031      1095      1100      4184      4198      4196
 -1      2139    8    0    1
 -2       988      1046      1063      4085      4199      4081
 -1      2140    8    0    1
 -2      1053      1097      1101      4191      4200      4201
 -1      2141    8    0    1
 -2      1053      1101      1056      4201      4202      4045
 -1      2142    8    0    1
 -2      1058      1055      1102      4057      4203      4204
 -1      2143    8    0    1
 -2      1055      1094      1102      4182      4205      4203
 -1      2144    8    0    1
 -2      1061      1002      1092      4075      4177      4206
 -1      2145    8    0    1
 -2      1059      1034      1103      4064      4207      4208
 -1      2146    8    0    1
 -2      1034      1100      1103      4197      4209      4207
 -1      2147    8    0    1
 -2      1086      1060      1104      4155      4210      4211
 -1      2148    8    0    1
 -2      1060      1099      1104      4195      4212      4210
 -1      2149    8    0    1
 -2      1062      1067      1105      4169      4213      4214
 -1      2150    8    0    1
 -2      1044      1061      1106      4074      4215      4216
 -1      2151    8    0    1
 -2      1044      1106      1054      4216      4217      4038
 -1      2152    8    0    1
 -2      1090      1048      1107      4170      4218      4219
 -1      2153    8    0    1
 -2      1048      1064      1107      4083      4220      4218
 -1      2154    8    0    1
 -2      1033      1049      1108      4062      4221      4222
 -1      2155    8    0    1
 -2      1006      1063      1094      4080      4223      4181
 -1      2156    8    0    1
 -2      1009       989      1049      4172      4020      4224
 -1      2157    8    0    1
 -2      1032      1058      1097      4059      4225      4189
 -1      2158    8    0    1
 -2      1092      1057      1084      4176      4188      4226
 -1      2159    8    0    1
 -2      1066      1089      1067      4173      4227      4096
 -1      2160    8    0    1
 -2      1065      1068      1109      4099      4228      4229
 -1      2161    8    0    1
 -2      1042      1054      1110      4037      4230      4231
 -1      2162    8    0    1
 -2      1091      1042      1110      4174      4231      4232
 -1      2163    8    0    1
 -2      1054      1106      1110      4217      4233      4230
 -1      2164    8    0    1
 -2      1108      1049      1052      4221      4060      4234
 -1      2165    8    0    1
 -2      1033      1108      1111      4222      4235      4236
 -1      2166    8    0    1
 -2      1033      1111      1069      4236      4237      4103
 -1      2167    8    0    1
 -2      1070      1059      1112      4106      4238      4239
 -1      2168    8    0    1
 -2      1099      1070      1112      4194      4239      4240
 -1      2169    8    0    1
 -2      1059      1103      1112      4208      4241      4238
 -1      2170    8    0    1
 -2      1063      1046      1098      4199      4193      4242
 -1      2171    8    0    1
 -2      1045      1096      1095      4186      4243      4183
 -1      2172    8    0    1
 -2      1065      1109      1113      4229      4244      4245
 -1      2173    8    0    1
 -2      1065      1113      1098      4245      4246      4192
 -1      2174    8    0    1
 -2      1062      1105      1064      4214      4247      4151
 -1      2175    8    0    1
 -2      1016      1056      1114      4044      4248      4249
 -1      2176    8    0    1
 -2      1071      1016      1114      4109      4249      4250
 -1      2177    8    0    1
 -2      1056      1101      1114      4202      4251      4248
 -1      2178    8    0    1
 -2      1007      1041      1115      3995      4252      4253
 -1      2179    8    0    1
 -2      1068      1007      1115      4097      4253      4254
 -1      2180    8    0    1
 -2      1041      1086      1115      4157      4255      4252
 -1      2181    8    0    1
 -2      1108      1052      1090      4234      4171      4256
 -1      2182    8    0    1
 -2      1073      1072      1116      4116      4257      4258
 -1      2183    8    0    1
 -2      1074      1073      1117      4119      4259      4260
 -1      2184    8    0    1
 -2      1073      1116      1117      4258      4261      4259
 -1      2185    8    0    1
 -2      1075      1074      1104      4122      4262      4263
 -1      2186    8    0    1
 -2      1076      1075      1099      4125      4264      4265
 -1      2187    8    0    1
 -2      1077      1076      1112      4128      4266      4267
 -1      2188    8    0    1
 -2      1078      1077      1103      4131      4268      4269
 -1      2189    8    0    1
 -2      1079      1078      1100      4134      4270      4271
 -1      2190    8    0    1
 -2      1080      1079      1095      4137      4272      4273
 -1      2191    8    0    1
 -2      1081      1080      1096      4140      4274      4275
 -1      2192    8    0    1
 -2      1082      1081      1093      4143      4276      4277
 -1      2193    8    0    1
 -2      1083      1082      1091      4146      4278      4279
 -1      2194    8    0    1
 -2      1084      1083      1110      4149      4280      4281
 -1      2195    8    0    1
 -2      1085      1069      1111      4154      4237      4282
 -1      2196    8    0    1
 -2      1105      1067      1089      4213      4227      4283
 -1      2197    8    0    1
 -2      1087      1085      1118      4160      4284      4285
 -1      2198    8    0    1
 -2      1085      1111      1118      4282      4286      4284
 -1      2199    8    0    1
 -2      1088      1087      1118      4163      4285      4287
 -1      2200    8    0    1
 -2      1089      1088      1105      4166      4288      4283
 -1      2201    8    0    1
 -2      1061      1092      1106      4206      4289      4215
 -1      2202    8    0    1
 -2      1096      1093      1081      4187      4276      4275
 -1      2203    8    0    1
 -2      1093      1091      1082      4180      4278      4277
 -1      2204    8    0    1
 -2      1094      1063      1098      4223      4242      4290
 -1      2205    8    0    1
 -2      1109      1068      1116      4228      4291      4292
 -1      2206    8    0    1
 -2      1100      1095      1079      4198      4272      4271
 -1      2207    8    0    1
 -2      1108      1090      1111      4256      4293      4235
 -1      2208    8    0    1
 -2      1105      1088      1118      4288      4287      4294
 -1      2209    8    0    1
 -2      1097      1058      1102      4225      4204      4295
 -1      2210    8    0    1
 -2      1096      1080      1095      4274      4273      4243
 -1      2211    8    0    1
 -2      1100      1078      1103      4270      4269      4209
 -1      2212    8    0    1
 -2      1099      1075      1104      4264      4263      4212
 -1      2213    8    0    1
 -2      1076      1099      1112      4265      4240      4266
 -1      2214    8    0    1
 -2      1094      1098      1102      4290      4296      4205
 -1      2215    8    0    1
 -2      1074      1117      1104      4260      4297      4262
 -1      2216    8    0    1
 -2      1077      1112      1103      4267      4241      4268
 -1      2217    8    0    1
 -2      1111      1090      1118      4293      4298      4286
 -1      2218    8    0    1
 -2      1083      1091      1110      4279      4232      4280
 -1      2219    8    0    1
 -2      1097      1102      1101      4295      4299      4200
 -1      2220    8    0    1
 -2      1049       994      1009      4061      3897      4224
 -1      2221    8    0    1
 -2      1116      1072      1119      4257      4300      4301
 -1      2222    8    0    1
 -2      1109      1116      1119      4292      4301      4302
 -1      2223    8    0    1
 -2      1072      1071      1119      4113      4303      4300
 -1      2224    8    0    1
 -2      1068      1115      1116      4254      4304      4291
 -1      2225    8    0    1
 -2      1109      1119      1113      4302      4305      4244
 -1      2226    8    0    1
 -2      1118      1090      1107      4298      4219      4306
 -1      2227    8    0    1
 -2      1092      1084      1110      4226      4281      4307
 -1      2228    8    0    1
 -2      1064      1105      1107      4247      4308      4220
 -1      2229    8    0    1
 -2      1119      1071      1120      4303      4309      4310
 -1      2230    8    0    1
 -2      1113      1119      1120      4305      4310      4311
 -1      2231    8    0    1
 -2      1071      1114      1120      4250      4312      4309
 -1      2232    8    0    1
 -2      1086      1104      1117      4211      4297      4313
 -1      2233    8    0    1
 -2      1098      1113      1102      4246      4314      4296
 -1      2234    8    0    1
 -2      1115      1086      1117      4255      4313      4315
 -1      2235    8    0    1
 -2      1102      1113      1120      4314      4311      4316
 -1      2236    8    0    1
 -2      1117      1116      1115      4261      4304      4315
 -1      2237    8    0    1
 -2      1092      1110      1106      4307      4233      4289
 -1      2238    8    0    1
 -2      1107      1105      1118      4308      4294      4306
 -1      2239    8    0    1
 -2      1101      1102      1120      4299      4316      4317
 -1      2240    8    0    1
 -2      1114      1101      1120      4251      4317      4312
 -3
    1PSTEP                         1           1           1          
  100CL  101 1.000000000        4317                     0    1           1
 -4  DISP        4    1
 -5  D1          1    2    1    0
 -5  D2          1    2    2    0
 -5  D3          1    2    3    0
 -5  ALL         1    2    0    0    1ALL
 -1         1 1.07953E-02-2.45182E-04-4.11847E-14
 -1         2 1.14124E-02 3.16314E-04-4.19748E-14
 -1         3 1.55707E-02 1.58886E-03-8.15636E-14
 -1         4 1.47867E-02 2.35850E-04-8.88084E-14
 -1         5 0.00000E+00 0.00000E+00 0.00000E+00
 -1         6 0.00000E+00 0.00000E+00 0.00000E+00
 -1         7 0.00000E+00 0.00000E+00 0.00000E+00
 -1         8 0.00000E+00 0.00000E+00 0.00000E+00
 -1         9 0.00000E+00 0.00000E+00 0.00000E+00
 -1        10 0.00000E+00 0.00000E+00 0.00000E+00
 -1        11 0.00000E+00 0.00000E+00 0.00000E+00
 -1        12 0.00000E+00 0.00000E+00 0.00000E+00
 -1        13 0.00000E+00 0.00000E+00 0.00000E+00
 -1        14 0.00000E+00 0.00000E+00 0.00000E+00
 -1        15 0.00000E+00 0.00000E+00 0.00000E+00
 -1        16 0.00000E+00 0.00000E+00 0.00000E+00
 -1        17 0.00000E+00 0.00000E+00 0.00000E+00
 -1        18 0.00000E+00 0.00000E+00 0.00000E+00
 -1        19 0.00000E+00 0.00000E+00 0.00000E+00
 -1        20 0.00000E+00 0.00000E+00 0.00000E+00
 -1        21 0.00000E+00 0.00000E+00 0.00000E+00
 -1        22 0.00000E+00 0.00000E+00 0.00000E+00
 -1        23 4.11009E-04-2.60586E-04 9.46983E-18
 -1        24 7.02643E-04-4.00666E-04-1.07068E-16
 -1        25 9.72337E-04-4.97765E-04-3.42679E-16
 -1        26 1.23643E-03-5.66081E-04-6.92561E-16
 -1        27 1.49956E-03-6.14721E-04-1.15200E-15
 -1        28 1.76383E-03-6.49028E-04-1.71396E-15
 -1        29 2.03022E-03-6.72658E-04-2.37560E-15
 -1        30 2.29915E-03-6.88248E-04-3.13396E-15
 -1        31 2.57075E-03-6.97751E-04-3.98651E-15
 -1        32 2.84499E-03-7.02627E-04-4.92826E-15
 -1        33 3.12179E-03-7.03970E-04-5.95565E-15
 -1        34 3.40111E-03-7.02601E-04-7.06304E-15
 -1        35 3.68294E-03-6.99148E-04-8.25041E-15
 -1        36 3.96739E-03-6.94122E-04-9.51552E-15
 -1        37 4.25469E-03-6.87992E-04-1.08562E-14
 -1        38 4.54523E-03-6.81259E-04-1.22687E-14
 -1        39 4.83952E-03-6.74546E-04-1.37429E-14
 -1        40 5.13821E-03-6.68684E-04-1.52788E-14
 -1        41 5.44198E-03-6.64804E-04-1.68724E-14
 -1        42 5.75151E-03-6.64423E-04-1.85228E-14
 -1        43 6.06721E-03-6.69480E-04-2.02316E-14
 -1        44 6.38900E-03-6.82284E-04-2.19854E-14
 -1        45 6.71591E-03-7.05289E-04-2.37984E-14
 -1        46 7.04573E-03-7.40586E-04-2.56763E-14
 -1        47 7.37464E-03-7.89031E-04-2.76084E-14
 -1        48 7.69732E-03-8.49032E-04-2.95918E-14
 -1        49 8.00779E-03-9.15306E-04-3.16280E-14
 -1        50 8.30110E-03-9.78307E-04-3.37104E-14
 -1        51 8.57565E-03-1.02526E-03-3.58366E-14
 -1        52 8.83504E-03-1.04328E-03-3.80125E-14
 -1        53 9.08784E-03-1.02378E-03-4.02348E-14
 -1        54 9.34503E-03-9.65870E-04-4.24879E-14
 -1        55 9.61594E-03-8.76780E-04-4.47698E-14
 -1        56 9.90529E-03-7.68867E-04-4.70818E-14
 -1        57 1.02124E-02-6.55241E-04-4.94273E-14
 -1        58 1.05329E-02-5.46245E-04-5.18079E-14
 -1        59 1.08607E-02-4.48007E-04-5.42254E-14
 -1        60 1.11904E-02-3.62754E-04-5.66752E-14
 -1        61 1.15177E-02-2.89989E-04-5.91539E-14
 -1        62 1.18401E-02-2.27742E-04-6.16583E-14
 -1        63 1.21565E-02-1.73524E-04-6.42045E-14
 -1        64 1.24665E-02-1.24898E-04-6.67980E-14
 -1        65 1.27707E-02-7.97509E-05-6.94470E-14
 -1        66 1.30697E-02-3.63807E-05-7.21477E-14
 -1        67 1.33642E-02 6.53042E-06-7.48937E-14
 -1        68 1.36552E-02 4.99736E-05-7.76672E-14
 -1        69 1.39435E-02 9.46661E-05-8.04682E-14
 -1        70 1.42299E-02 1.41053E-04-8.32647E-14
 -1        71 1.45155E-02 1.89167E-04-8.60905E-14
 -1        72 4.13455E-04 2.61291E-04 5.55992E-17
 -1        73 7.02462E-04 4.03373E-04 2.21245E-17
 -1        74 9.72866E-04 4.99539E-04-9.93400E-17
 -1        75 1.23725E-03 5.67795E-04-3.11657E-16
 -1        76 1.50049E-03 6.16483E-04-6.15624E-16
 -1        77 1.76481E-03 6.50875E-04-1.01362E-15
 -1        78 2.03122E-03 6.74603E-04-1.50345E-15
 -1        79 2.30015E-03 6.90289E-04-2.08150E-15
 -1        80 2.57172E-03 6.99873E-04-2.74856E-15
 -1        81 2.84591E-03 7.04799E-04-3.50841E-15
 -1        82 3.12266E-03 7.06137E-04-4.35840E-15
 -1        83 3.40191E-03 7.04674E-04-5.28994E-15
 -1        84 3.68368E-03 7.00992E-04-6.29681E-15
 -1        85 3.96814E-03 6.95537E-04-7.38519E-15
 -1        86 4.25561E-03 6.88692E-04-8.55258E-15
 -1        87 4.54660E-03 6.80856E-04-9.79853E-15
 -1        88 4.84192E-03 6.72535E-04-1.11130E-14
 -1        89 5.14266E-03 6.64474E-04-1.24870E-14
 -1        90 5.45023E-03 6.57804E-04-1.39243E-14
 -1        91 5.76639E-03 6.54265E-04-1.54178E-14
 -1        92 6.09313E-03 6.56459E-04-1.69601E-14
 -1        93 6.43249E-03 6.68157E-04-1.85550E-14
 -1        94 6.78600E-03 6.94534E-04-2.02103E-14
 -1        95 7.15376E-03 7.42115E-04-2.19042E-14
 -1        96 7.53300E-03 8.17950E-04-2.36417E-14
 -1        97 7.91629E-03 9.27271E-04-2.54294E-14
 -1        98 8.29072E-03 1.06903E-03-2.72694E-14
 -1        99 8.63994E-03 1.23017E-03-2.91631E-14
 -1       100 8.95122E-03 1.38257E-03-3.11108E-14
 -1       101 9.22542E-03 1.48915E-03-3.31234E-14
 -1       102 9.48190E-03 1.52114E-03-3.51983E-14
 -1       103 9.75012E-03 1.47551E-03-3.73331E-14
 -1       104 1.00528E-02 1.37678E-03-3.95137E-14
 -1       105 1.03947E-02 1.26184E-03-4.17274E-14
 -1       106 1.07652E-02 1.16157E-03-4.39844E-14
 -1       107 1.11477E-02 1.09216E-03-4.62990E-14
 -1       108 1.15283E-02 1.05668E-03-4.86517E-14
 -1       109 1.18985E-02 1.05075E-03-5.10488E-14
 -1       110 1.22545E-02 1.06739E-03-5.34770E-14
 -1       111 1.25962E-02 1.09980E-03-5.59485E-14
 -1       112 1.29247E-02 1.14244E-03-5.84445E-14
 -1       113 1.32422E-02 1.19120E-03-6.09411E-14
 -1       114 1.35506E-02 1.24315E-03-6.34467E-14
 -1       115 1.38519E-02 1.29630E-03-6.59661E-14
 -1       116 1.41476E-02 1.34930E-03-6.85096E-14
 -1       117 1.44391E-02 1.40123E-03-7.10886E-14
 -1       118 1.47275E-02 1.45148E-03-7.37105E-14
 -1       119 1.50139E-02 1.49970E-03-7.63611E-14
 -1       120 1.52995E-02 1.54596E-03-7.90389E-14
 -1       121 1.55265E-02 1.50439E-03-8.20143E-14
 -1       122 1.54834E-02 1.41996E-03-8.24939E-14
 -1       123 1.54419E-02 1.33647E-03-8.29440E-14
 -1       124 1.54018E-02 1.25477E-03-8.33642E-14
 -1       125 1.53622E-02 1.17528E-03-8.37743E-14
 -1       126 1.53226E-02 1.09928E-03-8.41960E-14
 -1       127 1.52809E-02 1.02376E-03-8.46482E-14
 -1       128 1.52371E-02 9.49387E-04-8.50946E-14
 -1       129 1.51907E-02 8.75341E-04-8.55454E-14
 -1       130 1.51419E-02 8.00766E-04-8.59947E-14
 -1       131 1.50911E-02 7.24903E-04-8.64341E-14
 -1       132 1.50397E-02 6.48521E-04-8.68816E-14
 -1       133 1.49871E-02 5.68707E-04-8.73075E-14
 -1       134 1.49349E-02 4.86815E-04-8.77118E-14
 -1       135 1.48839E-02 4.03250E-04-8.81059E-14
 -1       136 1.48344E-02 3.18886E-04-8.84683E-14
 -1       137 1.13800E-02 4.91455E-04-4.16837E-14
 -1       138 1.12546E-02 6.54460E-04-4.11898E-14
 -1       139 1.10023E-02 8.23877E-04-4.04059E-14
 -1       140 1.06823E-02 9.58115E-04-3.95247E-14
 -1       141 1.02790E-02 1.06444E-03-3.84963E-14
 -1       142 9.81107E-03 1.13155E-03-3.73760E-14
 -1       143 9.28787E-03 1.14968E-03-3.61865E-14
 -1       144 8.81105E-03 1.11725E-03-3.51650E-14
 -1       145 8.32304E-03 1.03399E-03-3.41581E-14
 -1       146 7.91051E-03 9.18759E-04-3.33541E-14
 -1       147 7.55144E-03 7.71491E-04-3.26961E-14
 -1       148 7.27888E-03 6.07638E-04-3.22385E-14
 -1       149 7.09770E-03 4.34502E-04-3.19925E-14
 -1       150 7.01465E-03 2.61491E-04-3.19729E-14
 -1       151 7.03240E-03 7.61432E-05-3.21945E-14
 -1       152 7.15136E-03-8.99486E-05-3.26208E-14
 -1       153 7.38072E-03-2.48281E-04-3.32884E-14
 -1       154 7.71996E-03-3.87107E-04-3.41907E-14
 -1       155 8.15915E-03-4.94259E-04-3.52953E-14
 -1       156 8.60092E-03-5.49640E-04-3.63567E-14
 -1       157 9.08058E-03-5.65558E-04-3.74806E-14
 -1       158 9.58176E-03-5.36677E-04-3.86314E-14
 -1       159 1.00344E-02-4.70068E-04-3.96309E-14
 -1       160 1.04354E-02-3.73429E-04-4.04772E-14
 -1       161 1.10504E-02-1.15796E-04-4.16388E-14
 -1       162 1.12434E-02 2.66286E-05-4.19237E-14
 -1       163 1.13619E-02 1.69971E-04-4.20322E-14
 -1       164 2.40249E-04-1.25496E-04-3.40236E-17
 -1       165 2.25202E-04-9.46205E-05-4.67562E-17
 -1       166 2.19518E-04-7.27837E-05-5.26448E-17
 -1       167 2.16761E-04-5.51122E-05-5.51385E-17
 -1       168 2.15314E-04-3.99695E-05-5.55179E-17
 -1       169 2.14507E-04-2.59146E-05-5.49318E-17
 -1       170 2.14105E-04-1.26436E-05-5.36545E-17
 -1       171 2.13989E-04 2.71308E-07-5.21840E-17
 -1       172 2.14125E-04 1.31989E-05-5.02697E-17
 -1       173 2.14549E-04 2.65102E-05-4.79522E-17
 -1       174 2.15364E-04 4.03935E-05-4.45268E-17
 -1       175 2.16871E-04 5.59189E-05-3.95869E-17
 -1       176 2.19669E-04 7.38246E-05-3.19941E-17
 -1       177 2.25371E-04 9.60207E-05-2.01560E-17
 -1       178 2.39178E-04 1.27575E-04-1.70084E-18
 -1       179 2.97455E-04 1.85428E-04 1.85670E-17
 -1       180 4.68233E-04-2.63410E-04-8.86268E-17
 -1       181 7.66109E-04-3.81787E-04-2.81503E-16
 -1       182 1.04969E-03-4.64320E-04-5.83060E-16
 -1       183 1.32683E-03-5.22574E-04-9.92079E-16
 -1       184 1.60120E-03-5.63530E-04-1.50371E-15
 -1       185 1.87490E-03-5.91825E-04-2.11397E-15
 -1       186 2.14912E-03-6.10699E-04-2.82061E-15
 -1       187 2.42450E-03-6.22507E-04-3.62062E-15
 -1       188 2.70139E-03-6.28985E-04-4.51037E-15
 -1       189 2.97997E-03-6.31418E-04-5.48619E-15
 -1       190 3.26037E-03-6.30753E-04-6.54386E-15
 -1       191 3.54266E-03-6.27697E-04-7.68179E-15
 -1       192 3.82699E-03-6.22790E-04-8.89875E-15
 -1       193 4.11353E-03-6.16486E-04-1.01896E-14
 -1       194 4.40256E-03-6.09229E-04-1.15534E-14
 -1       195 4.69444E-03-6.01542E-04-1.29841E-14
 -1       196 4.98960E-03-5.94111E-04-1.44774E-14
 -1       197 5.28851E-03-5.87894E-04-1.60311E-14
 -1       198 5.59166E-03-5.84215E-04-1.76420E-14
 -1       199 5.89941E-03-5.84847E-04-1.93076E-14
 -1       200 6.21188E-03-5.92033E-04-2.10309E-14
 -1       201 6.52876E-03-6.08378E-04-2.28071E-14
 -1       202 6.84906E-03-6.36508E-04-2.46438E-14
 -1       203 7.17093E-03-6.78375E-04-2.65379E-14
 -1       204 7.49157E-03-7.34127E-04-2.84850E-14
 -1       205 7.80748E-03-8.00671E-04-3.04833E-14
 -1       206 8.11514E-03-8.70429E-04-3.25326E-14
 -1       207 8.41225E-03-9.31274E-04-3.46275E-14
 -1       208 8.69911E-03-9.68671E-04-3.67694E-14
 -1       209 8.97928E-03-9.70097E-04-3.89593E-14
 -1       210 9.25877E-03-9.29943E-04-4.11889E-14
 -1       211 9.54384E-03-8.51975E-04-4.34503E-14
 -1       212 9.83865E-03-7.47658E-04-4.57393E-14
 -1       213 1.01442E-02-6.31520E-04-4.80597E-14
 -1       214 1.04585E-02-5.16431E-04-5.04133E-14
 -1       215 1.07783E-02-4.10935E-04-5.28042E-14
 -1       216 1.10999E-02-3.18942E-04-5.52290E-14
 -1       217 1.14205E-02-2.40811E-04-5.76890E-14
 -1       218 1.17378E-02-1.74812E-04-6.01752E-14
 -1       219 1.20508E-02-1.18334E-04-6.26961E-14
 -1       220 1.23591E-02-6.86616E-05-6.52569E-14
 -1       221 1.26628E-02-2.33788E-05-6.78673E-14
 -1       222 1.29621E-02 1.94867E-05-7.05297E-14
 -1       223 1.32577E-02 6.14645E-05-7.32410E-14
 -1       224 1.35502E-02 1.03706E-04-7.59888E-14
 -1       225 1.38402E-02 1.47057E-04-7.87653E-14
 -1       226 1.41282E-02 1.92107E-04-8.15618E-14
 -1       227 1.44149E-02 2.39136E-04-8.43732E-14
 -1       228 6.04029E-04 3.30813E-04-3.25566E-17
 -1       229 8.92837E-04 4.32163E-04-1.66825E-16
 -1       230 1.17144E-03 5.03495E-04-3.88588E-16
 -1       231 1.44551E-03 5.53979E-04-7.00696E-16
 -1       232 1.71807E-03 5.89390E-04-1.10396E-15
 -1       233 1.99077E-03 6.13648E-04-1.59838E-15
 -1       234 2.26451E-03 6.29556E-04-2.18188E-15
 -1       235 2.53976E-03 6.39166E-04-2.85312E-15
 -1       236 2.81675E-03 6.43992E-04-3.61310E-15
 -1       237 3.09562E-03 6.45142E-04-4.46026E-15
 -1       238 3.37645E-03 6.43422E-04-5.39104E-15
 -1       239 3.65937E-03 6.39413E-04-6.39957E-15
 -1       240 3.94456E-03 6.33545E-04-7.48729E-15
 -1       241 4.23232E-03 6.26170E-04-8.65195E-15
 -1       242 4.52312E-03 6.17635E-04-9.89367E-15
 -1       243 4.81757E-03 6.08385E-04-1.12051E-14
 -1       244 5.11651E-03 5.99074E-04-1.25795E-14
 -1       245 5.42098E-03 5.90731E-04-1.40138E-14
 -1       246 5.73225E-03 5.84968E-04-1.55031E-14
 -1       247 6.05170E-03 5.84264E-04-1.70479E-14
 -1       248 6.38068E-03 5.92286E-04-1.86471E-14
 -1       249 6.72022E-03 6.14206E-04-2.03022E-14
 -1       250 7.07046E-03 6.56774E-04-2.19983E-14
 -1       251 7.42993E-03 7.27684E-04-2.37383E-14
 -1       252 7.79459E-03 8.33454E-04-2.55298E-14
 -1       253 8.15737E-03 9.74938E-04-2.73736E-14
 -1       254 8.50901E-03 1.14086E-03-2.92674E-14
 -1       255 8.84147E-03 1.30319E-03-3.12159E-14
 -1       256 9.15353E-03 1.42158E-03-3.32247E-14
 -1       257 9.45457E-03 1.46199E-03-3.52957E-14
 -1       258 9.76066E-03 1.41800E-03-3.74254E-14
 -1       259 1.00847E-02 1.31505E-03-3.96052E-14
 -1       260 1.04295E-02 1.19361E-03-4.18255E-14
 -1       261 1.07889E-02 1.08768E-03-4.40898E-14
 -1       262 1.11537E-02 1.01477E-03-4.64004E-14
 -1       263 1.15156E-02 9.77941E-04-4.87483E-14
 -1       264 1.18694E-02 9.72206E-04-5.11339E-14
 -1       265 1.22128E-02 9.89952E-04-5.35551E-14
 -1       266 1.25454E-02 1.02389E-03-5.60150E-14
 -1       267 1.28680E-02 1.06816E-03-5.85046E-14
 -1       268 1.31818E-02 1.11847E-03-6.10052E-14
 -1       269 1.34883E-02 1.17182E-03-6.35207E-14
 -1       270 1.37888E-02 1.22620E-03-6.60487E-14
 -1       271 1.40846E-02 1.28024E-03-6.85954E-14
 -1       272 1.43768E-02 1.33304E-03-7.11791E-14
 -1       273 1.46663E-02 1.38400E-03-7.38033E-14
 -1       274 1.49538E-02 1.43275E-03-7.64515E-14
 -1       275 1.52401E-02 1.47930E-03-7.91233E-14
 -1       276 1.52573E-02 1.42360E-03-7.99361E-14
 -1       277 1.52153E-02 1.34036E-03-8.03874E-14
 -1       278 1.51751E-02 1.25840E-03-8.08237E-14
 -1       279 1.51359E-02 1.17804E-03-8.12464E-14
 -1       280 1.50972E-02 1.10067E-03-8.16624E-14
 -1       281 1.50568E-02 1.02343E-03-8.20904E-14
 -1       282 1.50144E-02 9.47271E-04-8.25256E-14
 -1       283 1.49693E-02 8.71636E-04-8.29656E-14
 -1       284 1.49216E-02 7.95911E-04-8.34015E-14
 -1       285 1.48714E-02 7.19503E-04-8.38327E-14
 -1       286 1.48202E-02 6.43247E-04-8.42525E-14
 -1       287 1.47672E-02 5.64198E-04-8.46695E-14
 -1       288 1.47141E-02 4.83541E-04-8.50648E-14
 -1       289 1.46620E-02 4.01397E-04-8.54462E-14
 -1       290 1.45379E-02 3.20446E-04-8.49152E-14
 -1       291 1.14330E-02 3.75059E-04-4.28098E-14
 -1       292 1.13156E-02 4.78138E-04-4.22797E-14
 -1       293 1.10553E-02 5.93518E-04-4.17149E-14
 -1       294 1.07176E-02 7.84539E-04-4.05188E-14
 -1       295 1.03317E-02 9.63100E-04-3.93803E-14
 -1       296 9.91298E-03 1.12368E-03-3.81334E-14
 -1       297 9.49765E-03 1.22739E-03-3.67423E-14
 -1       298 9.10005E-03 1.20937E-03-3.54578E-14
 -1       299 8.70865E-03 1.10845E-03-3.42259E-14
 -1       300 8.28977E-03 9.30675E-04-3.31986E-14
 -1       301 7.89220E-03 7.25747E-04-3.23076E-14
 -1       302 7.50678E-03 5.48080E-04-3.17581E-14
 -1       303 7.21461E-03 3.89117E-04-3.13098E-14
 -1       304 7.03209E-03 2.78875E-04-3.12110E-14
 -1       305 6.98028E-03 1.80508E-04-3.11622E-14
 -1       306 7.08407E-03 8.13587E-05-3.16389E-14
 -1       307 7.32349E-03-3.12729E-05-3.21780E-14
 -1       308 7.68232E-03-1.90262E-04-3.30641E-14
 -1       309 8.10624E-03-3.82731E-04-3.42639E-14
 -1       310 8.49977E-03-5.43469E-04-3.56281E-14
 -1       311 8.89189E-03-6.30301E-04-3.69050E-14
 -1       312 9.28200E-03-6.34590E-04-3.82805E-14
 -1       313 9.68153E-03-5.37648E-04-3.95349E-14
 -1       314 1.00755E-02-3.88220E-04-4.06007E-14
 -1       315 1.04581E-02-2.06117E-04-4.15746E-14
 -1       316 1.08091E-02-3.68291E-05-4.22795E-14
 -1       317 1.10597E-02 6.92531E-05-4.25768E-14
 -1       318 1.13025E-02 2.02157E-04-4.29169E-14
 -1       319 1.14053E-02 2.72488E-04-4.28573E-14
 -1       320 4.55321E-04-1.64709E-04-1.76071E-16
 -1       321 4.74023E-04-2.12867E-04-1.57043E-16
 -1       322 4.40598E-04-9.39515E-05-1.88753E-16
 -1       323 4.37704E-04-6.48593E-05-1.88539E-16
 -1       324 4.36125E-04-3.78721E-05-1.86347E-16
 -1       325 4.35435E-04-1.20079E-05-1.82397E-16
 -1       326 4.35467E-04 1.35200E-05-1.77203E-16
 -1       327 4.36224E-04 3.94431E-05-1.70572E-16
 -1       328 4.37848E-04 6.60833E-05-1.61851E-16
 -1       329 4.40835E-04 9.53486E-05-1.49955E-16
 -1       330 4.46122E-04 1.28255E-04-1.33587E-16
 -1       331 4.55823E-04 1.67223E-04-1.10382E-16
 -1       332 4.75652E-04 2.16939E-04-7.70122E-17
 -1       333 5.31640E-04 2.69814E-04-6.01190E-17
 -1       334 8.23908E-04 3.73098E-04-2.02089E-16
 -1       335 1.11713E-02 2.06711E-04-4.37766E-14
 -1       336 8.62781E-04-3.56949E-04-4.69903E-16
 -1       337 1.14899E-03-4.25269E-04-8.32000E-16
 -1       338 1.43165E-03-4.73817E-04-1.29567E-15
 -1       339 1.71229E-03-5.07686E-04-1.85629E-15
 -1       340 1.99206E-03-5.30616E-04-2.51358E-15
 -1       341 2.27177E-03-5.45359E-04-3.26297E-15
 -1       342 2.55193E-03-5.53952E-04-4.10214E-15
 -1       343 2.83289E-03-5.57902E-04-5.02773E-15
 -1       344 3.11486E-03-5.58317E-04-6.03665E-15
 -1       345 3.39802E-03-5.56010E-04-7.12473E-15
 -1       346 3.68250E-03-5.51581E-04-8.29260E-15
 -1       347 3.96847E-03-5.45499E-04-9.53586E-15
 -1       348 4.25612E-03-5.38180E-04-1.08527E-14
 -1       349 4.54571E-03-5.30066E-04-1.22397E-14
 -1       350 4.83755E-03-5.21716E-04-1.36897E-14
 -1       351 5.13199E-03-5.13903E-04-1.52016E-14
 -1       352 5.42944E-03-5.07718E-04-1.67729E-14
 -1       353 5.73034E-03-5.04673E-04-1.84001E-14
 -1       354 6.03509E-03-5.06772E-04-2.00859E-14
 -1       355 6.34397E-03-5.16504E-04-2.18259E-14
 -1       356 6.65707E-03-5.36684E-04-2.36225E-14
 -1       357 6.97403E-03-5.70010E-04-2.54793E-14
 -1       358 7.29384E-03-6.18207E-04-2.73907E-14
 -1       359 7.61455E-03-6.80663E-04-2.93522E-14
 -1       360 7.93325E-03-7.52727E-04-3.13657E-14
 -1       361 8.24658E-03-8.24375E-04-3.34269E-14
 -1       362 8.55220E-03-8.80634E-04-3.55374E-14
 -1       363 8.85053E-03-9.05109E-04-3.76937E-14
 -1       364 9.14546E-03-8.86272E-04-3.98944E-14
 -1       365 9.44266E-03-8.22927E-04-4.21291E-14
 -1       366 9.74660E-03-7.24834E-04-4.44002E-14
 -1       367 1.00584E-02-6.07914E-04-4.67012E-14
 -1       368 1.03762E-02-4.87844E-04-4.90309E-14
 -1       369 1.06967E-02-3.75764E-04-5.13931E-14
 -1       370 1.10167E-02-2.77325E-04-5.37908E-14
 -1       371 1.13342E-02-1.93798E-04-5.62309E-14
 -1       372 1.16479E-02-1.23773E-04-5.86995E-14
 -1       373 1.19575E-02-6.46172E-05-6.11957E-14
 -1       374 1.22628E-02-1.34302E-05-6.37298E-14
 -1       375 1.25642E-02 3.24412E-05-6.63046E-14
 -1       376 1.28621E-02 7.51983E-05-6.89303E-14
 -1       377 1.31570E-02 1.16562E-04-7.16027E-14
 -1       378 1.34494E-02 1.57829E-04-7.43232E-14
 -1       379 1.37396E-02 1.99958E-04-7.70749E-14
 -1       380 1.40281E-02 2.43641E-04-7.98526E-14
 -1       381 1.42834E-02 2.81152E-04-8.23753E-14
 -1       382 1.10918E-03 4.47022E-04-4.29280E-16
 -1       383 1.38975E-03 4.99502E-04-7.44745E-16
 -1       384 1.66792E-03 5.36299E-04-1.15020E-15
 -1       385 1.94523E-03 5.61475E-04-1.64539E-15
 -1       386 2.22268E-03 5.77966E-04-2.22925E-15
 -1       387 2.50086E-03 5.87926E-04-2.90017E-15
 -1       388 2.78013E-03 5.92939E-04-3.65768E-15
 -1       389 3.06072E-03 5.94162E-04-4.50199E-15
 -1       390 3.34278E-03 5.92431E-04-5.42969E-15
 -1       391 3.62647E-03 5.88339E-04-6.43498E-15
 -1       392 3.91198E-03 5.82317E-04-7.51991E-15
 -1       393 4.19956E-03 5.74699E-04-8.68086E-15
 -1       394 4.48958E-03 5.65807E-04-9.91853E-15
 -1       395 4.78251E-03 5.56036E-04-1.12254E-14
 -1       396 5.07897E-03 5.45975E-04-1.25970E-14
 -1       397 5.37973E-03 5.36555E-04-1.40266E-14
 -1       398 5.68569E-03 5.29260E-04-1.55143E-14
 -1       399 5.99789E-03 5.26394E-04-1.70582E-14
 -1       400 6.31745E-03 5.31412E-04-1.86572E-14
 -1       401 6.64543E-03 5.49257E-04-2.03105E-14
 -1       402 6.98267E-03 5.86533E-04-2.20088E-14
 -1       403 7.32939E-03 6.51125E-04-2.37496E-14
 -1       404 7.68453E-03 7.50526E-04-2.55403E-14
 -1       405 8.04470E-03 8.87883E-04-2.73832E-14
 -1       406 8.40348E-03 1.05520E-03-2.92759E-14
 -1       407 8.75259E-03 1.22685E-03-3.12187E-14
 -1       408 9.08674E-03 1.35984E-03-3.32241E-14
 -1       409 9.41069E-03 1.41253E-03-3.52905E-14
 -1       410 9.73733E-03 1.37252E-03-3.74176E-14
 -1       411 1.00772E-02 1.26622E-03-3.95964E-14
 -1       412 1.04309E-02 1.13899E-03-4.18187E-14
 -1       413 1.07911E-02 1.02831E-03-4.40852E-14
 -1       414 1.11498E-02 9.52576E-04-4.63947E-14
 -1       415 1.15017E-02 9.14441E-04-4.87377E-14
 -1       416 1.18446E-02 9.08374E-04-5.11151E-14
 -1       417 1.21780E-02 9.26368E-04-5.35241E-14
 -1       418 1.25023E-02 9.60881E-04-5.59790E-14
 -1       419 1.28186E-02 1.00590E-03-5.84629E-14
 -1       420 1.31279E-02 1.05702E-03-6.09676E-14
 -1       421 1.34315E-02 1.11118E-03-6.34849E-14
 -1       422 1.37302E-02 1.16633E-03-6.60146E-14
 -1       423 1.40251E-02 1.22110E-03-6.85647E-14
 -1       424 1.43170E-02 1.27458E-03-7.11536E-14
 -1       425 1.46065E-02 1.32614E-03-7.37793E-14
 -1       426 1.48943E-02 1.37543E-03-7.64278E-14
 -1       427 1.50760E-02 1.39997E-03-7.81802E-14
 -1       428 1.49089E-02 1.17838E-03-7.87104E-14
 -1       429 1.49479E-02 1.25940E-03-7.82793E-14
 -1       430 1.50112E-02 1.32931E-03-7.82332E-14
 -1       431 1.48711E-02 1.10026E-03-7.91230E-14
 -1       432 1.48320E-02 1.02223E-03-7.95427E-14
 -1       433 1.47910E-02 9.45315E-04-7.99633E-14
 -1       434 1.47475E-02 8.69078E-04-8.03922E-14
 -1       435 1.47011E-02 7.92993E-04-8.08219E-14
 -1       436 1.46518E-02 7.16534E-04-8.12438E-14
 -1       437 1.46010E-02 6.40550E-04-8.16507E-14
 -1       438 1.45478E-02 5.62066E-04-8.20484E-14
 -1       439 1.44940E-02 4.82168E-04-8.24409E-14
 -1       440 1.44407E-02 4.00806E-04-8.28184E-14
 -1       441 1.12224E-02 4.71756E-04-4.30364E-14
 -1       442 1.14520E-02 3.34464E-04-4.38450E-14
 -1       443 1.13927E-02 4.01239E-04-4.35716E-14
 -1       444 1.08218E-02 6.53926E-04-4.16682E-14
 -1       445 1.09682E-02 1.22398E-04-4.34690E-14
 -1       446 1.04651E-02 8.35828E-04-4.04783E-14
 -1       447 1.13982E-02 2.97290E-04-4.38991E-14
 -1       448 4.45659E-04-1.26409E-04-1.85141E-16
 -1       449 9.69364E-03 1.20167E-03-3.75922E-14
 -1       450 9.26870E-03 1.26843E-03-3.57167E-14
 -1       451 8.97752E-03 1.20405E-03-3.44853E-14
 -1       452 8.56433E-03 1.01058E-03-3.30936E-14
 -1       453 8.18125E-03 7.91781E-04-3.20474E-14
 -1       454 7.72805E-03 5.53989E-04-3.12272E-14
 -1       455 7.38869E-03 3.97444E-04-3.07605E-14
 -1       456 7.10096E-03 2.68088E-04-3.02722E-14
 -1       457 6.97622E-03 2.09022E-04-3.02174E-14
 -1       458 7.00749E-03 1.47202E-04-3.06258E-14
 -1       459 7.17872E-03 7.83426E-05-3.10395E-14
 -1       460 7.51152E-03-5.68414E-05-3.19215E-14
 -1       461 7.93784E-03-2.53043E-04-3.30494E-14
 -1       462 8.39279E-03-4.83098E-04-3.47689E-14
 -1       463 8.72336E-03-6.14692E-04-3.60908E-14
 -1       464 9.06450E-03-6.76062E-04-3.76046E-14
 -1       465 9.45563E-03-6.09891E-04-3.92872E-14
 -1       466 9.80748E-03-4.54777E-04-4.07767E-14
 -1       467 1.01301E-02-2.84625E-04-4.17609E-14
 -1       468 1.05728E-02-5.71158E-05-4.27865E-14
 -1       469 1.00856E-02 1.03029E-03-3.92041E-14
 -1       470 1.10483E-02 5.37899E-04-4.29866E-14
 -1       471 9.24112E-03-6.72973E-04-3.86033E-14
 -1       472 8.17030E-03-3.72592E-04-3.35427E-14
 -1       473 6.94317E-03 1.74649E-04-2.96791E-14
 -1       474 9.47021E-03 1.27537E-03-3.65543E-14
 -1       475 9.30878E-04 3.45481E-04-3.78834E-16
 -1       476 6.66199E-04-7.50050E-05-3.95581E-16
 -1       477 6.70084E-04-1.15712E-04-3.97841E-16
 -1       478 6.63589E-04 1.09893E-06-3.81216E-16
 -1       479 6.64296E-04 3.86915E-05-3.69662E-16
 -1       480 6.66391E-04 7.66846E-05-3.54778E-16
 -1       481 6.70402E-04 1.17548E-04-3.35296E-16
 -1       482 6.77284E-04 1.62131E-04-3.09834E-16
 -1       483 6.89016E-04 2.12464E-04-2.75540E-16
 -1       484 9.76053E-04-3.28021E-04-6.73967E-16
 -1       485 1.10786E-02 2.04223E-04-4.47576E-14
 -1       486 1.21667E-03 4.05499E-04-6.70349E-16
 -1       487 7.12465E-04-2.51552E-04-3.85434E-16
 -1       488 1.26191E-03-3.82390E-04-1.09111E-15
 -1       489 1.54691E-03-4.21413E-04-1.60477E-15
 -1       490 1.83106E-03-4.48476E-04-2.21301E-15
 -1       491 2.11468E-03-4.66413E-04-2.91365E-15
 -1       492 2.39813E-03-4.77439E-04-3.70332E-15
 -1       493 2.68169E-03-4.83239E-04-4.57924E-15
 -1       494 2.96557E-03-4.85069E-04-5.53837E-15
 -1       495 3.24994E-03-4.83854E-04-6.57883E-15
 -1       496 3.53494E-03-4.80268E-04-7.69838E-15
 -1       497 3.82068E-03-4.74815E-04-8.89416E-15
 -1       498 4.10731E-03-4.67899E-04-1.01639E-14
 -1       499 4.39499E-03-4.59902E-04-1.15056E-14
 -1       500 4.68392E-03-4.51266E-04-1.29150E-14
 -1       501 4.97439E-03-4.42580E-04-1.43859E-14
 -1       502 5.26673E-03-4.34678E-04-1.59167E-14
 -1       503 5.56141E-03-4.28743E-04-1.75052E-14
 -1       504 5.85902E-03-4.26402E-04-1.91532E-14
 -1       505 6.16029E-03-4.29802E-04-2.08562E-14
 -1       506 6.46608E-03-4.41601E-04-2.26148E-14
 -1       507 6.77730E-03-4.64814E-04-2.44327E-14
 -1       508 7.09455E-03-5.02363E-04-2.63082E-14
 -1       509 7.41764E-03-5.56128E-04-2.82350E-14
 -1       510 7.74482E-03-6.25249E-04-3.02114E-14
 -1       511 8.07230E-03-7.03734E-04-3.22386E-14
 -1       512 8.39509E-03-7.78375E-04-3.43128E-14
 -1       513 8.70968E-03-8.29560E-04-3.64373E-14
 -1       514 9.01735E-03-8.37600E-04-3.86059E-14
 -1       515 9.32426E-03-7.92958E-04-4.08141E-14
 -1       516 9.63714E-03-7.02149E-04-4.30612E-14
 -1       517 9.95837E-03-5.83490E-04-4.53414E-14
 -1       518 1.02853E-02-4.57386E-04-4.76502E-14
 -1       519 1.06128E-02-3.38555E-04-4.99910E-14
 -1       520 1.09369E-02-2.34316E-04-5.23639E-14
 -1       521 1.12553E-02-1.46349E-04-5.47768E-14
 -1       522 1.15677E-02-7.31406E-05-5.72250E-14
 -1       523 1.18744E-02-1.18413E-05-5.97002E-14
 -1       524 1.21764E-02 4.06479E-05-6.22095E-14
 -1       525 1.24746E-02 8.71447E-05-6.47582E-14
 -1       526 1.27697E-02 1.29985E-04-6.73459E-14
 -1       527 1.30625E-02 1.70998E-04-6.99832E-14
 -1       528 1.33532E-02 2.11565E-04-7.26707E-14
 -1       529 1.36425E-02 2.52706E-04-7.53934E-14
 -1       530 1.39304E-02 2.95175E-04-7.81471E-14
 -1       531 1.13641E-02 4.23256E-04-4.46658E-14
 -1       532 1.78345E-03 4.78424E-04-1.51563E-15
 -1       533 2.06551E-03 4.98492E-04-2.07058E-15
 -1       534 2.34742E-03 5.11114E-04-2.71126E-15
 -1       535 2.62960E-03 5.18108E-04-3.43745E-15
 -1       536 2.91230E-03 5.20816E-04-4.24928E-15
 -1       537 3.19574E-03 5.20215E-04-5.14533E-15
 -1       538 3.48007E-03 5.17000E-04-6.12091E-15
 -1       539 3.76543E-03 5.11661E-04-7.17496E-15
 -1       540 4.05200E-03 5.04556E-04-8.30695E-15
 -1       541 4.33995E-03 4.95980E-04-9.51446E-15
 -1       542 4.62955E-03 4.86252E-04-1.07940E-14
 -1       543 4.92109E-03 4.75809E-04-1.21393E-14
 -1       544 5.21494E-03 4.65329E-04-1.35449E-14
 -1       545 5.51159E-03 4.55899E-04-1.50104E-14
 -1       546 5.81164E-03 4.49220E-04-1.65345E-14
 -1       547 6.11588E-03 4.47887E-04-1.81154E-14
 -1       548 6.42546E-03 4.55699E-04-1.97493E-14
 -1       549 6.74201E-03 4.77984E-04-2.14316E-14
 -1       550 7.06789E-03 5.21780E-04-2.31606E-14
 -1       551 7.40602E-03 5.95528E-04-2.49352E-14
 -1       552 7.75895E-03 7.07502E-04-2.67581E-14
 -1       553 8.12558E-03 8.61402E-04-2.86308E-14
 -1       554 8.49932E-03 1.04525E-03-3.05495E-14
 -1       555 8.86814E-03 1.22348E-03-3.25247E-14
 -1       556 9.22055E-03 1.33479E-03-3.45660E-14
 -1       557 9.57062E-03 1.33609E-03-3.66694E-14
 -1       558 9.92872E-03 1.23923E-03-3.88333E-14
 -1       559 1.03004E-02 1.09966E-03-4.10431E-14
 -1       560 1.06730E-02 9.71455E-04-4.32966E-14
 -1       561 1.10349E-02 8.80854E-04-4.55909E-14
 -1       562 1.13819E-02 8.31550E-04-4.79200E-14
 -1       563 1.17148E-02 8.17411E-04-5.02752E-14
 -1       564 1.20366E-02 8.29776E-04-5.26635E-14
 -1       565 1.23501E-02 8.60612E-04-5.50913E-14
 -1       566 1.26573E-02 9.03490E-04-5.75584E-14
 -1       567 1.29597E-02 9.53642E-04-6.00564E-14
 -1       568 1.32582E-02 1.00769E-03-6.25720E-14
 -1       569 1.35536E-02 1.06333E-03-6.50997E-14
 -1       570 1.38464E-02 1.11900E-03-6.76458E-14
 -1       571 1.41372E-02 1.17366E-03-7.02236E-14
 -1       572 1.44263E-02 1.22662E-03-7.28401E-14
 -1       573 1.47140E-02 1.27740E-03-7.54891E-14
 -1       574 1.46066E-02 1.01965E-03-7.70101E-14
 -1       575 1.45674E-02 9.42574E-04-7.74216E-14
 -1       576 1.46812E-02 1.17680E-03-7.61807E-14
 -1       577 1.46440E-02 1.09741E-03-7.65976E-14
 -1       578 1.45256E-02 8.66406E-04-7.78376E-14
 -1       579 1.44807E-02 7.90619E-04-7.82540E-14
 -1       580 1.44326E-02 7.14662E-04-7.86634E-14
 -1       581 1.43824E-02 6.39329E-04-7.90599E-14
 -1       582 1.43291E-02 5.61610E-04-7.94488E-14
 -1       583 1.42746E-02 4.82497E-04-7.98308E-14
 -1       584 1.42200E-02 4.01851E-04-8.02092E-14
 -1       585 1.07441E-02 6.08785E-05-4.40638E-14
 -1       586 1.50072E-03 4.48484E-04-1.04891E-15
 -1       587 1.13312E-02 2.93545E-04-4.51815E-14
 -1       588 9.57858E-03-5.60652E-04-4.03467E-14
 -1       589 7.23718E-03 2.99088E-04-2.96360E-14
 -1       590 1.14245E-02 3.23558E-04-4.51309E-14
 -1       591 6.64181E-04-3.64566E-05-3.89882E-16
 -1       592 1.14785E-02 3.71005E-04-4.49427E-14
 -1       593 1.03074E-02 9.14773E-04-4.05131E-14
 -1       594 9.13426E-03 1.26409E-03-3.47988E-14
 -1       595 7.04238E-03 1.25229E-04-2.98805E-14
 -1       596 8.77297E-03 1.12027E-03-3.30620E-14
 -1       597 7.93886E-03 6.28097E-04-3.07365E-14
 -1       598 7.53919E-03 4.25604E-04-3.00661E-14
 -1       599 7.00090E-03 2.14046E-04-2.93113E-14
 -1       600 7.31190E-03 3.02345E-05-3.06888E-14
 -1       601 7.67606E-03-1.29643E-04-3.16376E-14
 -1       602 8.56282E-03-5.66794E-04-3.51735E-14
 -1       603 8.87167E-03-6.75704E-04-3.67287E-14
 -1       604 9.96524E-03-3.54553E-04-4.20648E-14
 -1       605 9.88112E-03 1.14617E-03-3.86279E-14
 -1       606 7.03494E-04 2.90619E-04-1.98470E-16
 -1       607 8.46752E-03 9.40054E-04-3.20206E-14
 -1       608 1.03517E-02-1.37851E-04-4.31553E-14
 -1       609 1.06204E-02 7.43025E-04-4.17083E-14
 -1       610 6.76756E-04-1.59863E-04-3.95463E-16
 -1       611 8.20221E-03 7.90435E-04-3.07043E-14
 -1       612 9.03328E-03-7.04000E-04-3.77152E-14
 -1       613 1.12507E-02 4.76293E-04-4.46118E-14
 -1       614 1.08750E-02 6.29934E-04-4.30262E-14
 -1       615 1.41234E-02 3.23279E-04-8.00344E-14
 -1       616 7.88499E-03-2.46284E-04-3.21166E-14
 -1       617 6.91922E-03 1.82257E-04-2.87752E-14
 -1       618 9.32391E-03 1.30308E-03-3.56233E-14
 -1       619 9.00277E-04 7.38971E-05-6.22630E-16
 -1       620 8.98221E-04 2.50998E-05-6.43894E-16
 -1       621 9.12147E-04 1.77809E-04-5.61749E-16
 -1       622 9.24322E-04 2.36313E-04-5.17568E-16
 -1       623 1.15256E-02 3.60948E-04-4.63042E-14
 -1       624 1.40279E-02 3.73580E-04-7.83211E-14
 -1       625 1.09774E-03-2.93851E-04-8.94145E-16
 -1       626 2.19072E-03 4.32892E-04-2.51275E-15
 -1       627 1.38332E-03-3.35697E-04-1.36129E-15
 -1       628 1.66953E-03-3.65805E-04-1.92168E-15
 -1       629 1.95579E-03-3.86484E-04-2.57327E-15
 -1       630 2.24189E-03-3.99823E-04-3.31471E-15
 -1       631 2.52783E-03-4.07532E-04-4.14162E-15
 -1       632 2.81366E-03-4.10941E-04-5.05251E-15
 -1       633 3.09946E-03-4.11053E-04-6.04470E-15
 -1       634 3.38528E-03-4.08604E-04-7.11593E-15
 -1       635 3.67119E-03-4.04134E-04-8.26504E-15
 -1       636 3.95724E-03-3.98047E-04-9.48784E-15
 -1       637 4.24353E-03-3.90682E-04-1.07836E-14
 -1       638 4.53015E-03-3.82380E-04-1.21506E-14
 -1       639 4.81728E-03-3.73561E-04-1.35812E-14
 -1       640 5.10517E-03-3.64807E-04-1.50723E-14
 -1       641 5.39422E-03-3.56948E-04-1.66222E-14
 -1       642 5.68503E-03-3.51165E-04-1.82307E-14
 -1       643 5.97852E-03-3.49089E-04-1.98971E-14
 -1       644 6.27598E-03-3.52901E-04-2.16182E-14
 -1       645 6.57913E-03-3.65399E-04-2.33966E-14
 -1       646 6.88998E-03-3.89972E-04-2.52352E-14
 -1       647 7.21038E-03-4.30305E-04-2.71275E-14
 -1       648 7.54092E-03-4.89394E-04-2.90679E-14
 -1       649 7.87944E-03-5.67129E-04-3.10589E-14
 -1       650 8.21994E-03-6.56095E-04-3.30982E-14
 -1       651 8.55420E-03-7.37382E-04-3.51892E-14
 -1       652 8.87780E-03-7.81768E-04-3.73259E-14
 -1       653 9.19525E-03-7.65197E-04-3.95035E-14
 -1       654 9.51699E-03-6.84560E-04-4.17252E-14
 -1       655 9.84904E-03-5.61389E-04-4.39832E-14
 -1       656 1.01890E-02-4.24872E-04-4.62726E-14
 -1       657 1.05285E-02-2.96857E-04-4.85921E-14
 -1       658 1.08610E-02-1.86667E-04-5.09432E-14
 -1       659 1.11835E-02-9.55322E-05-5.33333E-14
 -1       660 1.14961E-02-2.08114E-05-5.57555E-14
 -1       661 1.18007E-02 4.11891E-05-5.82094E-14
 -1       662 1.20992E-02 9.40037E-05-6.06997E-14
 -1       663 1.23933E-02 1.40613E-04-6.32223E-14
 -1       664 1.26846E-02 1.83386E-04-6.57793E-14
 -1       665 1.29739E-02 2.24142E-04-6.83774E-14
 -1       666 1.32620E-02 2.64241E-04-7.10299E-14
 -1       667 1.35491E-02 3.04686E-04-7.37253E-14
 -1       668 1.37887E-02 3.38583E-04-7.60095E-14
 -1       669 9.74719E-03-4.90965E-04-4.18770E-14
 -1       670 1.90562E-03 4.17575E-04-1.90105E-15
 -1       671 2.76058E-03 4.46460E-04-3.98880E-15
 -1       672 3.04563E-03 4.47269E-04-4.85274E-15
 -1       673 3.33091E-03 4.45252E-04-5.79832E-15
 -1       674 3.61650E-03 4.40969E-04-6.82352E-15
 -1       675 3.90247E-03 4.34821E-04-7.92675E-15
 -1       676 4.18888E-03 4.27111E-04-9.10535E-15
 -1       677 4.47579E-03 4.18120E-04-1.03576E-14
 -1       678 4.76326E-03 4.08186E-04-1.16776E-14
 -1       679 5.05137E-03 3.97800E-04-1.30592E-14
 -1       680 5.34021E-03 3.87725E-04-1.45015E-14
 -1       681 5.62999E-03 3.79146E-04-1.60033E-14
 -1       682 5.92106E-03 3.73850E-04-1.75662E-14
 -1       683 6.21419E-03 3.74454E-04-1.91822E-14
 -1       684 6.51089E-03 3.84674E-04-2.08493E-14
 -1       685 6.81395E-03 4.09684E-04-2.25623E-14
 -1       686 7.12804E-03 4.56607E-04-2.43222E-14
 -1       687 7.45986E-03 5.35054E-04-2.61292E-14
 -1       688 7.81576E-03 6.56456E-04-2.79795E-14
 -1       689 1.05664E-02 9.07992E-04-4.25015E-14
 -1       690 1.09398E-02 8.01869E-04-4.47823E-14
 -1       691 1.12861E-02 7.45403E-04-4.70971E-14
 -1       692 1.16101E-02 7.27459E-04-4.94384E-14
 -1       693 1.19192E-02 7.36961E-04-5.18044E-14
 -1       694 1.22193E-02 7.65264E-04-5.42106E-14
 -1       695 1.25143E-02 8.06016E-04-5.66559E-14
 -1       696 1.28065E-02 8.54600E-04-5.91389E-14
 -1       697 1.30970E-02 9.07696E-04-6.16491E-14
 -1       698 1.33863E-02 9.62954E-04-6.41767E-14
 -1       699 1.36748E-02 1.01874E-03-6.67201E-14
 -1       700 1.39627E-02 1.07394E-03-6.92902E-14
 -1       701 1.42498E-02 1.12779E-03-7.18990E-14
 -1       702 1.44659E-02 1.15295E-03-7.40329E-14
 -1       703 7.06555E-03 2.36755E-04-2.84102E-14
 -1       704 1.42609E-02 7.87824E-04-7.57161E-14
 -1       705 1.43434E-02 9.38531E-04-7.49077E-14
 -1       706 1.42142E-02 7.12871E-04-7.61145E-14
 -1       707 1.43039E-02 8.62830E-04-7.53129E-14
 -1       708 1.41648E-02 6.38643E-04-7.64968E-14
 -1       709 1.41116E-02 5.62065E-04-7.68783E-14
 -1       710 1.40564E-02 4.84015E-04-7.72513E-14
 -1       711 1.09418E-02 1.50664E-04-4.55473E-14
 -1       712 1.62023E-03 3.94171E-04-1.37490E-15
 -1       713 1.12495E-02 2.67485E-04-4.62538E-14
 -1       714 7.68027E-03 4.95161E-04-2.94029E-14
 -1       715 7.38730E-03-4.21156E-05-3.00285E-14
 -1       716 1.02694E-02 1.01130E-03-4.07875E-14
 -1       717 1.14287E-02 3.25931E-04-4.62808E-14
 -1       718 2.47565E-03 4.42032E-04-3.20818E-15
 -1       719 9.04653E-04 1.24286E-04-5.95867E-16
 -1       720 9.04275E-04-1.21888E-04-6.77911E-16
 -1       721 1.15075E-02 3.99608E-04-4.61272E-14
 -1       722 1.33451E-03 3.60307E-04-9.35378E-16
 -1       723 8.31882E-03-4.83480E-04-3.38267E-14
 -1       724 6.89946E-03 1.44271E-04-2.84779E-14
 -1       725 7.33776E-03 3.37596E-04-2.88139E-14
 -1       726 7.11826E-03 6.76694E-05-2.92370E-14
 -1       727 9.36594E-03-6.53952E-04-3.96868E-14
 -1       728 8.64735E-03-6.34499E-04-3.55103E-14
 -1       729 1.05868E-02-1.65031E-05-4.47220E-14
 -1       730 1.02083E-02-2.24312E-04-4.36218E-14
 -1       731 1.05394E-02 8.21534E-04-4.19038E-14
 -1       732 1.06607E-03 3.17357E-04-5.99764E-16
 -1       733 9.11552E-04-1.75191E-04-6.78877E-16
 -1       734 8.98154E-04-2.30923E-05-6.59859E-16
 -1       735 6.93611E-03 1.98498E-04-2.78789E-14
 -1       736 1.44300E-02 1.07348E-03-7.44510E-14
 -1       737 8.80852E-03-6.94186E-04-3.64809E-14
 -1       738 8.03992E-03-3.74463E-04-3.23899E-14
 -1       739 7.56762E-03-1.37795E-04-3.04928E-14
 -1       740 9.00063E-04-7.16237E-05-6.71182E-16
 -1       741 1.43871E-02 1.00538E-03-7.46816E-14
 -1       742 1.14463E-02 4.35119E-04-4.60754E-14
 -1       743 9.98866E-03-3.80214E-04-4.34330E-14
 -1       744 8.72403E-04-2.46675E-04-5.93533E-16
 -1       745 1.16182E-03 2.42828E-04-8.36022E-16
 -1       746 1.45917E-03 3.11196E-04-1.22501E-15
 -1       747 1.51048E-03-2.84969E-04-1.64209E-15
 -1       748 1.79758E-03-3.07067E-04-2.24514E-15
 -1       749 2.08521E-03-3.21992E-04-2.93729E-15
 -1       750 2.37291E-03-3.31249E-04-3.71655E-15
 -1       751 2.66044E-03-3.36109E-04-4.57868E-15
 -1       752 2.94765E-03-3.37577E-04-5.52301E-15
 -1       753 3.23448E-03-3.36409E-04-6.54712E-15
 -1       754 3.52088E-03-3.33161E-04-7.64865E-15
 -1       755 3.80682E-03-3.28236E-04-8.82566E-15
 -1       756 4.09229E-03-3.21939E-04-1.00756E-14
 -1       757 4.37729E-03-3.14534E-04-1.13988E-14
 -1       758 4.66186E-03-3.06299E-04-1.27879E-14
 -1       759 4.94613E-03-2.97594E-04-1.42389E-14
 -1       760 5.23034E-03-2.88927E-04-1.57509E-14
 -1       761 5.51497E-03-2.81031E-04-1.73214E-14
 -1       762 5.80079E-03-2.74963E-04-1.89503E-14
 -1       763 6.08911E-03-2.72220E-04-2.06344E-14
 -1       764 6.38187E-03-2.74915E-04-2.23753E-14
 -1       765 6.68182E-03-2.86024E-04-2.41736E-14
 -1       766 6.99243E-03-3.09674E-04-2.60299E-14
 -1       767 7.31727E-03-3.51303E-04-2.79365E-14
 -1       768 7.65803E-03-4.16841E-04-2.98919E-14
 -1       769 8.01243E-03-5.08296E-04-3.18950E-14
 -1       770 8.37059E-03-6.15762E-04-3.39477E-14
 -1       771 9.39008E-03-6.78183E-04-4.03916E-14
 -1       772 1.00919E-02-3.94816E-04-4.48983E-14
 -1       773 1.04478E-02-2.52058E-04-4.71982E-14
 -1       774 1.07916E-02-1.33912E-04-4.95310E-14
 -1       775 1.11198E-02-4.05620E-05-5.18979E-14
 -1       776 1.14332E-02 3.36315E-05-5.42982E-14
 -1       777 1.17353E-02 9.43153E-05-5.67321E-14
 -1       778 1.20294E-02 1.45919E-04-5.91974E-14
 -1       779 1.23187E-02 1.91678E-04-6.16951E-14
 -1       780 1.26051E-02 2.33914E-04-6.42290E-14
 -1       781 1.28900E-02 2.74307E-04-6.67970E-14
 -1       782 1.31743E-02 3.14076E-04-6.94123E-14
 -1       783 1.34584E-02 3.54118E-04-7.20774E-14
 -1       784 2.03297E-03 3.54120E-04-2.30638E-15
 -1       785 3.18004E-03 3.72902E-04-5.47151E-15
 -1       786 2.89361E-03 3.73547E-04-4.55576E-15
 -1       787 3.75207E-03 3.65071E-04-7.54087E-15
 -1       788 4.03759E-03 3.58652E-04-8.69194E-15
 -1       789 4.32267E-03 3.50942E-04-9.91622E-15
 -1       790 4.60721E-03 3.42225E-04-1.12107E-14
 -1       791 4.89103E-03 3.32866E-04-1.25683E-14
 -1       792 5.17396E-03 3.23403E-04-1.39863E-14
 -1       793 5.45580E-03 3.14636E-04-1.54668E-14
 -1       794 5.73644E-03 3.07732E-04-1.70079E-14
 -1       795 6.01600E-03 3.04346E-04-1.86072E-14
 -1       796 6.29514E-03 3.06751E-04-2.02591E-14
 -1       797 6.57558E-03 3.18059E-04-2.19563E-14
 -1       798 6.86097E-03 3.42705E-04-2.36994E-14
 -1       799 7.15819E-03 3.87717E-04-2.54894E-14
 -1       800 7.47820E-03 4.64952E-04-2.73257E-14
 -1       801 1.18248E-02 6.46844E-04-5.09513E-14
 -1       802 1.21078E-02 6.74941E-04-5.33360E-14
 -1       803 1.23874E-02 7.14347E-04-5.57618E-14
 -1       804 1.26666E-02 7.61176E-04-5.82229E-14
 -1       805 1.29466E-02 8.12625E-04-6.07196E-14
 -1       806 1.32278E-02 8.66620E-04-6.32437E-14
 -1       807 1.35100E-02 9.21620E-04-6.57889E-14
 -1       808 1.37932E-02 9.76524E-04-6.83569E-14
 -1       809 1.40772E-02 1.03054E-03-7.09549E-14
 -1       810 1.42537E-02 1.05240E-03-7.26968E-14
 -1       811 1.39483E-02 6.37086E-04-7.39764E-14
 -1       812 6.89889E-03 9.62878E-05-2.77326E-14
 -1       813 6.81918E-03 1.57202E-04-2.73563E-14
 -1       814 1.39974E-02 7.11027E-04-7.35930E-14
 -1       815 7.43314E-03 4.02186E-04-2.80992E-14
 -1       816 1.74590E-03 3.36716E-04-1.72338E-15
 -1       817 9.16723E-03-7.22074E-04-3.88687E-14
 -1       818 1.38953E-02 5.62071E-04-7.43495E-14
 -1       819 1.38393E-02 4.85455E-04-7.47141E-14
 -1       820 1.15333E-02 6.35791E-04-4.85989E-14
 -1       821 1.24633E-03 2.99809E-04-8.89591E-16
 -1       822 1.12236E-02 6.51861E-04-4.62672E-14
 -1       823 7.13163E-03 4.65534E-07-2.84665E-14
 -1       824 3.46621E-03 3.69930E-04-6.46721E-15
 -1       825 1.38138E-02 4.13030E-04-7.53598E-14
 -1       826 1.11505E-02 2.15011E-04-4.71373E-14
 -1       827 1.16073E-02 3.91168E-04-4.75532E-14
 -1       828 1.22478E-03-2.54087E-04-1.12882E-15
 -1       829 1.13887E-03 5.87960E-05-9.64211E-16
 -1       830 1.08368E-02 7.79760E-05-4.64350E-14
 -1       831 7.12868E-03 2.75518E-04-2.75678E-14
 -1       832 1.04827E-02-1.10393E-04-4.55581E-14
 -1       833 1.11518E-02 5.76244E-04-4.51252E-14
 -1       834 8.40170E-03-5.82120E-04-3.41267E-14
 -1       835 1.13751E-03 1.18635E-06-9.90534E-16
 -1       836 2.32003E-03 3.65149E-04-2.97275E-15
 -1       837 1.15026E-03 1.78459E-04-8.88534E-16
 -1       838 9.79095E-03-5.20766E-04-4.29322E-14
 -1       839 9.05567E-03-7.37914E-04-3.82008E-14
 -1       840 2.60693E-03 3.71246E-04-3.72247E-15
 -1       841 6.97220E-03 2.27517E-04-2.70444E-14
 -1       842 1.14548E-02 3.17388E-04-4.80203E-14
 -1       843 1.08831E-02 7.11885E-04-4.39664E-14
 -1       844 1.40821E-02 8.57871E-04-7.28146E-14
 -1       845 6.75498E-03 1.18921E-04-2.66252E-14
 -1       846 1.40419E-02 7.84261E-04-7.32082E-14
 -1       847 1.41255E-02 9.23132E-04-7.25927E-14
 -1       848 7.72097E-03-2.64035E-04-3.07562E-14
 -1       849 7.28061E-03-7.22234E-05-2.89156E-14
 -1       850 1.14292E-03 1.17440E-04-9.30574E-16
 -1       851 1.15941E-02 4.16134E-04-4.75057E-14
 -1       852 1.13842E-02 5.17694E-04-4.65937E-14
 -1       853 1.15846E-02 3.65857E-04-4.78382E-14
 -1       854 1.14968E-03-1.75472E-04-1.03103E-15
 -1       855 1.14257E-03-1.14743E-04-1.02412E-15
 -1       856 1.92989E-03-2.45251E-04-2.57536E-15
 -1       857 2.21847E-03-2.55213E-04-3.30542E-15
 -1       858 2.50717E-03-2.61029E-04-4.11971E-15
 -1       859 2.79559E-03-2.63602E-04-5.01566E-15
 -1       860 3.08345E-03-2.63642E-04-5.99247E-15
 -1       861 3.37056E-03-2.61683E-04-7.04697E-15
 -1       862 3.65678E-03-2.58107E-04-8.17721E-15
 -1       863 3.94199E-03-2.53186E-04-9.38202E-15
 -1       864 4.22608E-03-2.47124E-04-1.06599E-14
 -1       865 4.50896E-03-2.40092E-04-1.20067E-14
 -1       866 4.79061E-03-2.32277E-04-1.34178E-14
 -1       867 5.07108E-03-2.23927E-04-1.48910E-14
 -1       868 5.35056E-03-2.15398E-04-1.64237E-14
 -1       869 5.62955E-03-2.07223E-04-1.80162E-14
 -1       870 5.90895E-03-2.00196E-04-1.96643E-14
 -1       871 6.19031E-03-1.95531E-04-2.13682E-14
 -1       872 6.47618E-03-1.95159E-04-2.31271E-14
 -1       873 6.77038E-03-2.02261E-04-2.49444E-14
 -1       874 7.07818E-03-2.22166E-04-2.68143E-14
 -1       875 7.40580E-03-2.63385E-04-2.87342E-14
 -1       876 1.07420E-02-7.05566E-05-4.81127E-14
 -1       877 1.10746E-02 2.37847E-05-5.04627E-14
 -1       878 1.13863E-02 9.46204E-05-5.28435E-14
 -1       879 1.16832E-02 1.51201E-04-5.52542E-14
 -1       880 1.19707E-02 1.99438E-04-5.76963E-14
 -1       881 1.22530E-02 2.42928E-04-6.01728E-14
 -1       882 1.25329E-02 2.83844E-04-6.26798E-14
 -1       883 1.28121E-02 3.23570E-04-6.52240E-14
 -1       884 1.30915E-02 3.63039E-04-6.78092E-14
 -1       885 1.33717E-02 4.02908E-04-7.04383E-14
 -1       886 1.37466E-03 2.53880E-04-1.16092E-15
 -1       887 4.17106E-03 2.83971E-04-9.47046E-15
 -1       888 3.88691E-03 2.90041E-04-8.27381E-15
 -1       889 4.73493E-03 2.69287E-04-1.20724E-14
 -1       890 5.01395E-03 2.61362E-04-1.34678E-14
 -1       891 5.29044E-03 2.53735E-04-1.49250E-14
 -1       892 5.56386E-03 2.47177E-04-1.64449E-14
 -1       893 5.83372E-03 2.42717E-04-1.80245E-14
 -1       894 6.09965E-03 2.41664E-04-1.96596E-14
 -1       895 6.36175E-03 2.45634E-04-2.13411E-14
 -1       896 6.62102E-03 2.56680E-04-2.30688E-14
 -1       897 6.88062E-03 2.78055E-04-2.48427E-14
 -1       898 1.37341E-02 6.35326E-04-7.14771E-14
 -1       899 1.25370E-02 6.74374E-04-5.73164E-14
 -1       900 1.22734E-02 6.29381E-04-5.48722E-14
 -1       901 6.84190E-03 2.88985E-05-2.65892E-14
 -1       902 1.20131E-02 5.90465E-04-5.24666E-14
 -1       903 1.28046E-02 7.23566E-04-5.97953E-14
 -1       904 1.30760E-02 7.75433E-04-6.23072E-14
 -1       905 1.33506E-02 8.28705E-04-6.48476E-14
 -1       906 1.36281E-02 8.82354E-04-6.74177E-14
 -1       907 1.39077E-02 9.35699E-04-7.00060E-14
 -1       908 1.36252E-02 4.87570E-04-7.22013E-14
 -1       909 1.11169E-02 1.53027E-04-4.85361E-14
 -1       910 4.45383E-03 2.76955E-04-1.07383E-14
 -1       911 3.02847E-03 2.99903E-04-5.13906E-15
 -1       912 1.13867E-03-5.62591E-05-1.01066E-15
 -1       913 1.36817E-02 5.62311E-04-7.18414E-14
 -1       914 7.18343E-03 3.31922E-04-2.67165E-14
 -1       915 1.17541E-02 5.60282E-04-5.00989E-14
 -1       916 1.43351E-03-2.00516E-04-1.52177E-15
 -1       917 1.68106E-03-2.24672E-04-2.01578E-15
 -1       918 1.17014E-02 3.96029E-04-4.91558E-14
 -1       919 1.07835E-02-2.65862E-07-4.74502E-14
 -1       920 1.14244E-02 2.72953E-04-4.94309E-14
 -1       921 1.41897E-02 9.87079E-04-7.26476E-14
 -1       922 1.15668E-02 5.34684E-04-4.83376E-14
 -1       923 6.80030E-03 1.74738E-04-2.65328E-14
 -1       924 1.16233E-02 3.54989E-04-4.93427E-14
 -1       925 1.17156E-02 4.19831E-04-4.91072E-14
 -1       926 7.01428E-03 2.74102E-04-2.62023E-14
 -1       927 1.66121E-03 2.78586E-04-1.64890E-15
 -1       928 2.74086E-03 2.99223E-04-4.25384E-15
 -1       929 3.31545E-03 2.98312E-04-6.10657E-15
 -1       930 3.60165E-03 2.94911E-04-7.15136E-15
 -1       931 1.37812E-02 7.07005E-04-7.11070E-14
 -1       932 1.94886E-03 2.95853E-04-2.22045E-15
 -1       933 7.02320E-03-6.72825E-05-2.71762E-14
 -1       934 2.23692E-03 3.07128E-04-2.87483E-15
 -1       935 6.66676E-03 6.44762E-05-2.55066E-14
 -1       936 6.68353E-03 1.36919E-04-2.58148E-14
 -1       937 1.38652E-02 8.50052E-04-7.04107E-14
 -1       938 1.35196E-02 4.44637E-04-7.15645E-14
 -1       939 1.38481E-03 9.94593E-05-1.33862E-15
 -1       940 1.38165E-03 3.38263E-05-1.37822E-15
 -1       941 1.15910E-02 4.51710E-04-4.78540E-14
 -1       942 1.38256E-02 7.78083E-04-7.07643E-14
 -1       943 7.35794E-03-1.68567E-04-2.88310E-14
 -1       944 2.06574E-03-1.80504E-04-2.91062E-15
 -1       945 2.35499E-03-1.86395E-04-3.67583E-15
 -1       946 2.64424E-03-1.89511E-04-4.52346E-15
 -1       947 2.93300E-03-1.90434E-04-5.45210E-15
 -1       948 3.22090E-03-1.89617E-04-6.46008E-15
 -1       949 3.50768E-03-1.87390E-04-7.54358E-15
 -1       950 3.79310E-03-1.83983E-04-8.70259E-15
 -1       951 4.07695E-03-1.79544E-04-9.93546E-15
 -1       952 4.35904E-03-1.74166E-04-1.12404E-14
 -1       953 4.63916E-03-1.67918E-04-1.26105E-14
 -1       954 4.91718E-03-1.60862E-04-1.40448E-14
 -1       955 5.19301E-03-1.53083E-04-1.55396E-14
 -1       956 5.46674E-03-1.44717E-04-1.70939E-14
 -1       957 5.73872E-03-1.35995E-04-1.87063E-14
 -1       958 6.00972E-03-1.27331E-04-2.03727E-14
 -1       959 6.28125E-03-1.19498E-04-2.20957E-14
 -1       960 6.55591E-03-1.14062E-04-2.38746E-14
 -1       961 6.83888E-03-1.14317E-04-2.57067E-14
 -1       962 7.08876E-03-1.32279E-04-2.72515E-14
 -1       963 1.38157E-03-3.11440E-05-1.40907E-15
 -1       964 1.16932E-02 3.35224E-04-5.12862E-14
 -1       965 1.13609E-02 1.60518E-04-5.13904E-14
 -1       966 1.16465E-02 2.10084E-04-5.37798E-14
 -1       967 1.19228E-02 2.52747E-04-5.61990E-14
 -1       968 1.21951E-02 2.92596E-04-5.86528E-14
 -1       969 1.24664E-02 3.31440E-04-6.11379E-14
 -1       970 1.27383E-02 3.70194E-04-6.36565E-14
 -1       971 1.30118E-02 4.09381E-04-6.62151E-14
 -1       972 1.32872E-02 4.49334E-04-6.88190E-14
 -1       973 4.02136E-03 2.16542E-04-9.01976E-15
 -1       974 5.13390E-03 1.94413E-04-1.43785E-14
 -1       975 4.86028E-03 2.00054E-04-1.29438E-14
 -1       976 5.66774E-03 1.86044E-04-1.74331E-14
 -1       977 5.92600E-03 1.84836E-04-1.90490E-14
 -1       978 6.17694E-03 1.86779E-04-2.07153E-14
 -1       979 6.41922E-03 1.92736E-04-2.24278E-14
 -1       980 6.65158E-03 2.03637E-04-2.41878E-14
 -1       981 1.26670E-02 6.41230E-04-5.88774E-14
 -1       982 1.21671E-02 5.52410E-04-5.39873E-14
 -1       983 1.24130E-02 5.95048E-04-5.64140E-14
 -1       984 1.31944E-02 7.40684E-04-6.39054E-14
 -1       985 1.34656E-02 7.92232E-04-6.64688E-14
 -1       986 1.45464E-03-1.24180E-04-1.56549E-15
 -1       987 1.43193E-03 1.88562E-04-1.33786E-15
 -1       988 2.48887E-03 3.04679E-04-3.53121E-15
 -1       989 1.19301E-02 5.14258E-04-5.15992E-14
 -1       990 6.80896E-03 2.05527E-04-2.57034E-14
 -1       991 5.40335E-03 1.89510E-04-1.58744E-14
 -1       992 1.10835E-02 8.69452E-05-4.95003E-14
 -1       993 1.13841E-02 2.10370E-04-5.06152E-14
 -1       994 1.18168E-02 3.96454E-04-5.11572E-14
 -1       995 1.29280E-02 6.90048E-04-6.13710E-14
 -1       996 1.16800E-02 2.87738E-04-5.24842E-14
 -1       997 4.30346E-03 2.11481E-04-1.02616E-14
 -1       998 2.87713E-03 2.26397E-04-4.80415E-15
 -1       999 3.73738E-03 2.20815E-04-7.85188E-15
 -1      1000 1.35219E-02 6.32112E-04-6.90132E-14
 -1      1001 1.79405E-03 2.19680E-04-2.00005E-15
 -1      1002 6.56004E-03 9.06491E-05-2.47144E-14
 -1      1003 1.70149E-03-1.42021E-04-2.06356E-15
 -1      1004 1.17644E-02 4.81284E-04-4.98293E-14
 -1      1005 6.65344E-03 2.19378E-07-2.50299E-14
 -1      1006 2.08252E-03 2.31160E-04-2.62567E-15
 -1      1007 3.16500E-03 2.26038E-04-5.74161E-15
 -1      1008 1.34707E-02 5.61478E-04-6.93700E-14
 -1      1009 1.18544E-02 4.21841E-04-5.11109E-14
 -1      1010 1.62982E-03 7.26486E-05-1.81849E-15
 -1      1011 6.64633E-03 1.60754E-04-2.49996E-14
 -1      1012 1.34311E-02 7.23423E-04-6.68089E-14
 -1      1013 1.34852E-02 5.05479E-04-7.03244E-14
 -1      1014 4.58326E-03 2.05881E-04-1.15706E-14
 -1      1015 1.34792E-02 6.78419E-04-6.79103E-14
 -1      1016 2.49443E-03-1.15861E-04-4.04736E-15
 -1      1017 2.78383E-03-1.17080E-04-4.92764E-15
 -1      1018 3.07248E-03-1.17033E-04-5.88799E-15
 -1      1019 3.35996E-03-1.15954E-04-6.92532E-15
 -1      1020 3.64593E-03-1.14001E-04-8.03796E-15
 -1      1021 3.93010E-03-1.11266E-04-9.22573E-15
 -1      1022 4.21217E-03-1.07781E-04-1.04872E-14
 -1      1023 4.49183E-03-1.03536E-04-1.18163E-14
 -1      1024 4.76876E-03-9.84790E-05-1.32110E-14
 -1      1025 5.04265E-03-9.25284E-05-1.46664E-14
 -1      1026 5.31323E-03-8.55745E-05-1.61822E-14
 -1      1027 5.58029E-03-7.74893E-05-1.77583E-14
 -1      1028 5.84378E-03-6.81501E-05-1.93902E-14
 -1      1029 6.10397E-03-5.75050E-05-2.10770E-14
 -1      1030 6.36181E-03-4.58046E-05-2.28181E-14
 -1      1031 4.98519E-03 1.34895E-04-1.38267E-14
 -1      1032 1.62807E-03 1.56798E-06-1.86265E-15
 -1      1033 1.19383E-02 3.87698E-04-5.32726E-14
 -1      1034 4.71232E-03 1.38166E-04-1.24159E-14
 -1      1035 1.18865E-02 3.04164E-04-5.47067E-14
 -1      1036 1.21443E-02 3.39510E-04-5.71383E-14
 -1      1037 1.24043E-02 3.75873E-04-5.96012E-14
 -1      1038 1.26674E-02 4.13564E-04-6.20991E-14
 -1      1039 1.29339E-02 4.52615E-04-6.46345E-14
 -1      1040 1.32038E-02 4.92908E-04-6.72068E-14
 -1      1041 3.45183E-03 2.24067E-04-6.75910E-15
 -1      1042 6.01944E-03 1.34297E-04-2.00804E-14
 -1      1043 5.77214E-03 1.31337E-04-1.84311E-14
 -1      1044 6.44016E-03 1.48114E-04-2.32147E-14
 -1      1045 5.25350E-03 1.32290E-04-1.52994E-14
 -1      1046 2.58851E-03 2.24701E-04-3.94836E-15
 -1      1047 1.63354E-03 1.45849E-04-1.76006E-15
 -1      1048 1.25284E-02 5.65749E-04-5.79604E-14
 -1      1049 1.20591E-02 4.84958E-04-5.31037E-14
 -1      1050 5.51625E-03 1.30892E-04-1.68362E-14
 -1      1051 1.66308E-03-6.92227E-05-1.96611E-15
 -1      1052 1.22873E-02 5.23693E-04-5.55134E-14
 -1      1053 2.02582E-03-1.02277E-04-2.79429E-15
 -1      1054 6.23562E-03 1.39740E-04-2.16278E-14
 -1      1055 1.88035E-03 1.16340E-04-2.30585E-15
 -1      1056 2.26002E-03-1.09565E-04-3.39360E-15
 -1      1057 6.52275E-03 3.73453E-05-2.42519E-14
 -1      1058 1.87677E-03 4.04593E-05-2.36549E-15
 -1      1059 4.43571E-03 1.41672E-04-1.10657E-14
 -1      1060 3.87372E-03 1.48157E-04-8.56610E-15
 -1      1061 6.48735E-03 1.18505E-04-2.39637E-14
 -1      1062 1.31330E-02 6.60845E-04-6.40374E-14
 -1      1063 2.33545E-03 2.29374E-04-3.25356E-15
 -1      1064 1.27795E-02 6.10668E-04-6.04411E-14
 -1      1065 2.72683E-03 1.52718E-04-4.46648E-15
 -1      1066 1.32601E-02 5.62575E-04-6.68563E-14
 -1      1067 1.32220E-02 6.07800E-04-6.57731E-14
 -1      1068 3.01552E-03 1.53211E-04-5.37424E-15
 -1      1069 1.19157E-02 3.49471E-04-5.39920E-14
 -1      1070 4.15600E-03 1.45087E-04-9.78070E-15
 -1      1071 2.63650E-03-4.40099E-05-4.42076E-15
 -1      1072 2.92573E-03-4.41491E-05-5.33281E-15
 -1      1073 3.21390E-03-4.38164E-05-6.32297E-15
 -1      1074 3.50063E-03-4.30610E-05-7.38833E-15
 -1      1075 3.78550E-03-4.19114E-05-8.53069E-15
 -1      1076 4.06818E-03-4.03252E-05-9.74645E-15
 -1      1077 4.34828E-03-3.82468E-05-1.10344E-14
 -1      1078 4.62537E-03-3.55619E-05-1.23891E-14
 -1      1079 4.89899E-03-3.21017E-05-1.38048E-14
 -1      1080 5.16862E-03-2.76342E-05-1.52814E-14
 -1      1081 5.43366E-03-2.18545E-05-1.68201E-14
 -1      1082 5.69348E-03-1.43791E-05-1.84167E-14
 -1      1083 5.94736E-03-4.77638E-06-2.00704E-14
 -1      1084 6.19433E-03 7.43006E-06-2.17749E-14
 -1      1085 1.21590E-02 3.81961E-04-5.64159E-14
 -1      1086 3.58930E-03 1.50672E-04-7.42596E-15
 -1      1087 1.24089E-02 4.17113E-04-5.88676E-14
 -1      1088 1.26649E-02 4.54718E-04-6.13531E-14
 -1      1089 1.29261E-02 4.94337E-04-6.38800E-14
 -1      1090 1.23813E-02 4.96104E-04-5.70476E-14
 -1      1091 5.88326E-03 8.21446E-05-1.94362E-14
 -1      1092 6.35770E-03 7.02781E-05-2.30158E-14
 -1      1093 5.63366E-03 7.72260E-05-1.78058E-14
 -1      1094 2.20338E-03 1.47648E-04-3.03196E-15
 -1      1095 5.11208E-03 7.36656E-05-1.47199E-14
 -1      1096 5.37609E-03 7.46090E-05-1.62338E-14
 -1      1097 1.98926E-03-2.54340E-05-2.66976E-15
 -1      1098 2.43749E-03 1.50598E-04-3.63993E-15
 -1      1099 4.01117E-03 7.72926E-05-9.29561E-15
 -1      1100 4.84276E-03 7.38520E-05-1.32715E-14
 -1      1101 2.22326E-03-3.03973E-05-3.25351E-15
 -1      1102 2.19875E-03 6.77890E-05-3.10896E-15
 -1      1103 4.56904E-03 7.47301E-05-1.18828E-14
 -1      1104 3.72812E-03 7.85282E-05-8.10922E-15
 -1      1105 1.29571E-02 5.76140E-04-6.30178E-14
 -1      1106 6.29211E-03 1.06355E-04-2.23534E-14
 -1      1107 1.26252E-02 5.36525E-04-5.95122E-14
 -1      1108 1.22012E-02 4.61744E-04-5.52628E-14
 -1      1109 2.86754E-03 8.00882E-05-5.00494E-15
 -1      1110 6.09231E-03 9.31119E-05-2.08775E-14
 -1      1111 1.22065E-02 4.29073E-04-5.59983E-14
 -1      1112 4.29164E-03 7.59620E-05-1.05555E-14
 -1      1113 2.57823E-03 7.93602E-05-4.12677E-15
 -1      1114 2.42990E-03-3.72490E-05-3.81553E-15
 -1      1115 3.30313E-03 1.52438E-04-6.36139E-15
 -1      1116 3.06974E-03 2.88545E-05-5.73653E-15
 -1      1117 3.35721E-03 2.88315E-05-6.75516E-15
 -1      1118 1.24477E-02 4.64995E-04-5.84470E-14
 -1      1119 2.75122E-03 1.78775E-05-4.71404E-15
 -1      1120 2.50327E-03 2.07934E-05-3.97389E-15
 -1      1121 0.00000E+00 0.00000E+00 0.00000E+00
 -1      1122 0.00000E+00 0.00000E+00 0.00000E+00
 -1      1123 0.00000E+00 0.00000E+00 0.00000E+00
 -1      1124 0.00000E+00 0.00000E+00 0.00000E+00
 -1      1125 0.00000E+00 0.00000E+00 0.00000E+00
 -1      1126 0.00000E+00 0.00000E+00 0.00000E+00
 -1      1127 0.00000E+00 0.00000E+00 0.00000E+00
 -1      1128 0.00000E+00 0.00000E+00 0.00000E+00
 -1      1129 0.00000E+00 0.00000E+00 0.00000E+00
 -1      1130 0.00000E+00 0.00000E+00 0.00000E+00
 -1      1131 0.00000E+00 0.00000E+00 0.00000E+00
 -1      1132 0.00000E+00 0.00000E+00 0.00000E+00
 -1      1133 0.00000E+00 0.00000E+00 0.00000E+00
 -1      1134 0.00000E+00 0.00000E+00 0.00000E+00
 -1      1135 0.00000E+00 0.00000E+00 0.00000E+00
 -1      1136 0.00000E+00 0.00000E+00 0.00000E+00
 -1      1137 0.00000E+00 0.00000E+00 0.00000E+00
 -1      1138 2.11482E-04-1.48260E-04 2.80537E-18
 -1      1139 5.51084E-04-3.37314E-04-6.53367E-17
 -1      1140 8.32536E-04-4.58588E-04-2.38430E-16
 -1      1141 1.10172E-03-5.39921E-04-5.31571E-16
 -1      1142 1.36674E-03-5.96653E-04-9.36737E-16
 -1      1143 1.63116E-03-6.36641E-04-1.44752E-15
 -1      1144 1.89685E-03-6.64483E-04-2.05886E-15
 -1      1145 2.16470E-03-6.83243E-04-2.76810E-15
 -1      1146 2.43507E-03-6.95142E-04-3.57268E-15
 -1      1147 2.70806E-03-7.01834E-04-4.46922E-15
 -1      1148 2.98362E-03-7.04559E-04-5.45385E-15
 -1      1149 3.26172E-03-7.04243E-04-6.52164E-15
 -1      1150 3.54232E-03-7.01582E-04-7.66845E-15
 -1      1151 3.82549E-03-6.97119E-04-8.89371E-15
 -1      1152 4.11141E-03-6.91317E-04-1.01967E-14
 -1      1153 4.40038E-03-6.84631E-04-1.15732E-14
 -1      1154 4.69284E-03-6.77593E-04-1.30167E-14
 -1      1155 4.98937E-03-6.70900E-04-1.45202E-14
 -1      1156 5.29063E-03-6.65511E-04-1.60832E-14
 -1      1157 5.59728E-03-6.62740E-04-1.77058E-14
 -1      1158 5.90984E-03-6.64334E-04-1.93878E-14
 -1      1159 6.22847E-03-6.72491E-04-2.11200E-14
 -1      1160 6.55265E-03-6.89742E-04-2.29005E-14
 -1      1161 6.88080E-03-7.18609E-04-2.47445E-14
 -1      1162 7.20995E-03-7.60903E-04-2.66503E-14
 -1      1163 7.53561E-03-8.16609E-04-2.86089E-14
 -1      1164 7.85218E-03-8.82490E-04-3.06180E-14
 -1      1165 8.15419E-03-9.50953E-04-3.26761E-14
 -1      1166 8.43827E-03-1.01012E-03-3.47806E-14
 -1      1167 8.70533E-03-1.04601E-03-3.69311E-14
 -1      1168 8.96144E-03-1.04675E-03-3.91277E-14
 -1      1169 9.21643E-03-1.00705E-03-4.13671E-14
 -1      1170 9.48055E-03-9.30467E-04-4.36309E-14
 -1      1171 9.76083E-03-8.27838E-04-4.59275E-14
 -1      1172 1.00592E-02-7.13097E-04-4.82584E-14
 -1      1173 1.03730E-02-5.98797E-04-5.06236E-14
 -1      1174 1.06971E-02-4.93456E-04-5.30232E-14
 -1      1175 1.10256E-02-4.01110E-04-5.54570E-14
 -1      1176 1.13539E-02-3.22286E-04-5.79215E-14
 -1      1177 1.16786E-02-2.55401E-04-6.04093E-14
 -1      1178 1.19978E-02-1.97956E-04-6.29330E-14
 -1      1179 1.23110E-02-1.47319E-04-6.55101E-14
 -1      1180 1.26181E-02-1.01129E-04-6.81348E-14
 -1      1181 1.29197E-02-5.74462E-05-7.08045E-14
 -1      1182 1.32165E-02-1.47594E-05-7.35286E-14
 -1      1183 1.35094E-02 2.80777E-05-7.62875E-14
 -1      1184 1.37991E-02 7.19165E-05-7.90740E-14
 -1      1185 1.40865E-02 1.17353E-04-8.18698E-14
 -1      1186 1.43725E-02 1.64667E-04-8.46777E-14
 -1      1187 1.46509E-02 2.12248E-04-8.74548E-14
 -1      1188 2.28230E-04 1.60632E-04 2.82164E-17
 -1      1189 5.53254E-04 3.41947E-04 2.90295E-17
 -1      1190 8.33459E-04 4.60759E-04-4.88975E-17
 -1      1191 1.10261E-03 5.41611E-04-2.17532E-16
 -1      1192 1.36762E-03 5.98339E-04-4.76724E-16
 -1      1193 1.63208E-03 6.38413E-04-8.27599E-16
 -1      1194 1.89780E-03 6.66354E-04-1.27219E-15
 -1      1195 2.16567E-03 6.85217E-04-1.80526E-15
 -1      1196 2.43603E-03 6.97212E-04-2.42712E-15
 -1      1197 2.70899E-03 7.03980E-04-3.13933E-15
 -1      1198 2.98451E-03 7.06740E-04-3.94511E-15
 -1      1199 3.26255E-03 7.06391E-04-4.83642E-15
 -1      1200 3.54310E-03 7.03590E-04-5.80443E-15
 -1      1201 3.82627E-03 6.98823E-04-6.85200E-15
 -1      1202 4.11229E-03 6.92475E-04-7.97912E-15
 -1      1203 4.40160E-03 6.84900E-04-9.18720E-15
 -1      1204 4.69486E-03 6.76509E-04-1.04675E-14
 -1      1205 4.99300E-03 6.67872E-04-1.18101E-14
 -1      1206 5.29727E-03 6.59862E-04-1.32135E-14
 -1      1207 5.60925E-03 6.53833E-04-1.46804E-14
 -1      1208 5.93077E-03 6.51876E-04-1.61994E-14
 -1      1209 6.26381E-03 6.57127E-04-1.77650E-14
 -1      1210 6.61010E-03 6.74107E-04-1.93873E-14
 -1      1211 6.97044E-03 7.08933E-04-2.10639E-14
 -1      1212 7.34356E-03 7.69046E-04-2.27814E-14
 -1      1213 7.72458E-03 8.61742E-04-2.45456E-14
 -1      1214 8.10362E-03 9.90594E-04-2.63573E-14
 -1      1215 8.46609E-03 1.14959E-03-2.82229E-14
 -1      1216 8.79700E-03 1.31719E-03-3.01419E-14
 -1      1217 9.08961E-03 1.45719E-03-3.21219E-14
 -1      1218 9.35383E-03 1.53151E-03-3.41659E-14
 -1      1219 9.61496E-03 1.52123E-03-3.62729E-14
 -1      1220 9.90004E-03 1.43904E-03-3.84328E-14
 -1      1221 1.02228E-02 1.32080E-03-4.06294E-14
 -1      1222 1.05797E-02 1.20483E-03-4.28599E-14
 -1      1223 1.09565E-02 1.11606E-03-4.51447E-14
 -1      1224 1.13379E-02 1.06319E-03-4.74777E-14
 -1      1225 1.17129E-02 1.04401E-03-4.98559E-14
 -1      1226 1.20757E-02 1.05156E-03-5.22671E-14
 -1      1227 1.24244E-02 1.07823E-03-5.47159E-14
 -1      1228 1.27594E-02 1.11755E-03-5.71991E-14
 -1      1229 1.30825E-02 1.16462E-03-5.96968E-14
 -1      1230 1.33955E-02 1.21597E-03-6.21985E-14
 -1      1231 1.37005E-02 1.26923E-03-6.47066E-14
 -1      1232 1.39992E-02 1.32280E-03-6.72345E-14
 -1      1233 1.42929E-02 1.37560E-03-6.98007E-14
 -1      1234 1.45830E-02 1.42689E-03-7.24058E-14
 -1      1235 1.48705E-02 1.47620E-03-7.50403E-14
 -1      1236 1.51565E-02 1.52335E-03-7.77013E-14
 -1      1237 1.54348E-02 1.56770E-03-8.03055E-14
 -1      1238 1.55483E-02 1.54688E-03-8.17825E-14
 -1      1239 1.55045E-02 1.46237E-03-8.22524E-14
 -1      1240 1.54622E-02 1.37837E-03-8.27230E-14
 -1      1241 1.54216E-02 1.29577E-03-8.31543E-14
 -1      1242 1.53820E-02 1.21517E-03-8.35710E-14
 -1      1243 1.53427E-02 1.13742E-03-8.39771E-14
 -1      1244 1.53024E-02 1.06162E-03-8.44222E-14
 -1      1245 1.52598E-02 9.86622E-04-8.48726E-14
 -1      1246 1.52147E-02 9.12357E-04-8.53214E-14
 -1      1247 1.51671E-02 8.37990E-04-8.57707E-14
 -1      1248 1.51171E-02 7.62725E-04-8.62089E-14
 -1      1249 1.50657E-02 6.86564E-04-8.66553E-14
 -1      1250 1.50134E-02 6.08463E-04-8.70992E-14
 -1      1251 1.49607E-02 5.27613E-04-8.75090E-14
 -1      1252 1.49089E-02 4.44887E-04-8.79078E-14
 -1      1253 1.48587E-02 3.60893E-04-8.82925E-14
 -1      1254 1.48103E-02 2.77135E-04-8.86477E-14
 -1      1255 1.14476E-02 3.90889E-04-4.18643E-14
 -1      1256 1.13530E-02 5.38767E-04-4.14671E-14
 -1      1257 1.11400E-02 6.98203E-04-4.08320E-14
 -1      1258 1.08245E-02 8.61233E-04-3.99955E-14
 -1      1259 1.04475E-02 1.00651E-03-3.90410E-14
 -1      1260 1.00137E-02 1.12233E-03-3.79639E-14
 -1      1261 9.53565E-03 1.18581E-03-3.67992E-14
 -1      1262 9.06008E-03 1.18023E-03-3.56885E-14
 -1      1263 8.59737E-03 1.10462E-03-3.46662E-14
 -1      1264 8.15274E-03 9.77086E-04-3.37535E-14
 -1      1265 7.75406E-03 8.19439E-04-3.30161E-14
 -1      1266 7.41326E-03 6.49236E-04-3.24526E-14
 -1      1267 7.15913E-03 4.83118E-04-3.20915E-14
 -1      1268 7.00756E-03 3.27812E-04-3.19554E-14
 -1      1269 6.96870E-03 1.74347E-04-3.20539E-14
 -1      1270 7.05210E-03 2.20721E-05-3.23832E-14
 -1      1271 7.25146E-03-1.29637E-04-3.29344E-14
 -1      1272 7.56374E-03-2.86463E-04-3.37310E-14
 -1      1273 7.97107E-03-4.34712E-04-3.47433E-14
 -1      1274 8.41250E-03-5.44328E-04-3.58352E-14
 -1      1275 8.85548E-03-5.99370E-04-3.69364E-14
 -1      1276 9.32183E-03-5.95524E-04-3.80793E-14
 -1      1277 9.77890E-03-5.32656E-04-3.91552E-14
 -1      1278 1.01985E-02-4.25650E-04-4.00831E-14
 -1      1279 1.05886E-02-2.87986E-04-4.08672E-14
 -1      1280 1.09153E-02-1.42661E-04-4.14422E-14
 -1      1281 1.11629E-02-4.89927E-06-4.18049E-14
 -1      1282 1.13400E-02 1.28303E-04-4.19969E-14
 -1      1283 1.14366E-02 2.54330E-04-4.20251E-14
 -1      1284 1.66551E-04-1.10310E-04-1.31053E-17
 -1      1285 1.12476E-04-5.69939E-05-2.91108E-17
 -1      1286 1.17536E-04-6.75901E-05-2.45572E-17
 -1      1287 1.08399E-04-4.35221E-05-3.62530E-17
 -1      1288 1.10242E-04-4.96331E-05-3.42879E-17
 -1      1289 2.26219E-04-1.07645E-04-8.08815E-17
 -1      1290 1.06848E-04-3.36369E-05-3.95056E-17
 -1      1291 1.07681E-04-3.83614E-05-3.86518E-17
 -1      1292 2.19077E-04-8.24920E-05-9.28484E-17
 -1      1293 1.06094E-04-2.53772E-05-4.10642E-17
 -1      1294 1.06512E-04-2.94103E-05-4.07931E-17
 -1      1295 2.15892E-04-6.33067E-05-9.87708E-17
 -1      1296 1.05714E-04-1.81086E-05-4.12539E-17
 -1      1297 1.05934E-04-2.16790E-05-4.12674E-17
 -1      1298 2.14287E-04-4.72157E-05-1.00966E-16
 -1      1299 1.05505E-04-1.12496E-05-4.11048E-17
 -1      1300 1.05623E-04-1.46367E-05-4.13352E-17
 -1      1301 2.13410E-04-3.27691E-05-1.01359E-16
 -1      1302 1.05413E-04-4.69421E-06-4.02781E-17
 -1      1303 1.05463E-04-7.94869E-06-4.04678E-17
 -1      1304 2.12935E-04-1.91987E-05-1.00248E-16
 -1      1305 1.05403E-04 1.74266E-06-3.92210E-17
 -1      1306 1.05401E-04-1.47174E-06-3.95734E-17
 -1      1307 2.12732E-04-6.16404E-06-9.82423E-17
 -1      1308 1.05471E-04 8.22963E-06-3.78522E-17
 -1      1309 1.05417E-04 4.96849E-06-3.81775E-17
 -1      1310 2.12740E-04 6.70914E-06-9.53420E-17
 -1      1311 1.05639E-04 1.49433E-05-3.61175E-17
 -1      1312 1.05517E-04 1.15413E-05-3.66596E-17
 -1      1313 2.12961E-04 1.97705E-05-9.18048E-17
 -1      1314 1.05956E-04 2.19696E-05-3.35425E-17
 -1      1315 1.05730E-04 1.83759E-05-3.42879E-17
 -1      1316 2.13450E-04 3.32809E-05-8.70072E-17
 -1      1317 1.06557E-04 2.98441E-05-2.99917E-17
 -1      1318 1.06130E-04 2.57648E-05-3.11437E-17
 -1      1319 2.14355E-04 4.78190E-05-8.03665E-17
 -1      1320 1.07717E-04 3.89478E-05-2.47605E-17
 -1      1321 1.06882E-04 3.41534E-05-2.67391E-17
 -1      1322 2.16009E-04 6.42417E-05-7.12863E-17
 -1      1323 1.10220E-04 5.03721E-05-1.67916E-17
 -1      1324 1.08401E-04 4.41915E-05-2.00713E-17
 -1      1325 2.19171E-04 8.37426E-05-5.80726E-17
 -1      1326 1.16852E-04 6.76269E-05-4.98733E-18
 -1      1327 1.12123E-04 5.77939E-05-1.06523E-17
 -1      1328 2.26205E-04 1.09466E-04-3.94243E-17
 -1      1329 1.57437E-04 1.09823E-04 1.30240E-17
 -1      1330 1.35547E-04 8.60821E-05 2.05998E-18
 -1      1331 2.55837E-04 1.52074E-04-1.77809E-17
 -1      1332 3.34772E-04 2.20650E-04 1.24683E-17
 -1      1333 4.21145E-04-2.61620E-04-6.94567E-17
 -1      1334 5.74083E-04-3.36597E-04-1.29616E-16
 -1      1335 7.21110E-04-3.97090E-04-2.21733E-16
 -1      1336 8.64117E-04-4.46248E-04-3.42608E-16
 -1      1337 6.11543E-04-3.30679E-04-2.01933E-16
 -1      1338 1.00398E-03-4.87146E-04-4.90859E-16
 -1      1339 1.14166E-03-5.20921E-04-6.67123E-16
 -1      1340 9.04508E-04-4.31099E-04-4.48562E-16
 -1      1341 1.27799E-03-5.49437E-04-8.70194E-16
 -1      1342 1.41348E-03-5.73166E-04-1.10007E-15
 -1      1343 1.18668E-03-5.00091E-04-8.03434E-16
 -1      1344 1.54857E-03-5.93168E-04-1.35531E-15
 -1      1345 1.68352E-03-6.09772E-04-1.63561E-15
 -1      1346 1.46337E-03-5.48245E-04-1.26337E-15
 -1      1347 1.81857E-03-6.23597E-04-1.94080E-15
 -1      1348 1.95385E-03-6.34930E-04-2.27043E-15
 -1      1349 1.73786E-03-5.81694E-04-1.82353E-15
 -1      1350 2.08947E-03-6.44163E-04-2.62415E-15
 -1      1351 2.22550E-03-6.51539E-04-3.00175E-15
 -1      1352 2.01204E-03-6.04362E-04-2.48139E-15
 -1      1353 2.36199E-03-6.57322E-04-3.40258E-15
 -1      1354 2.49897E-03-6.61712E-04-3.82615E-15
 -1      1355 2.28696E-03-6.18994E-04-3.23397E-15
 -1      1356 2.63646E-03-6.64888E-04-4.27271E-15
 -1      1357 2.77448E-03-6.67011E-04-4.74122E-15
 -1      1358 2.56316E-03-6.27588E-04-4.07820E-15
 -1      1359 2.91303E-03-6.68206E-04-5.23058E-15
 -1      1360 3.05212E-03-6.68600E-04-5.74146E-15
 -1      1361 2.84094E-03-6.31617E-04-5.01061E-15
 -1      1362 3.19176E-03-6.68276E-04-6.27265E-15
 -1      1363 3.33194E-03-6.67339E-04-6.82431E-15
 -1      1364 3.12045E-03-6.32166E-04-6.02700E-15
 -1      1365 3.47269E-03-6.65842E-04-7.39563E-15
 -1      1366 3.61400E-03-6.63873E-04-7.98558E-15
 -1      1367 3.40182E-03-6.30037E-04-7.12448E-15
 -1      1368 3.75591E-03-6.61467E-04-8.59645E-15
 -1      1369 3.89843E-03-6.58705E-04-9.22615E-15
 -1      1370 3.68516E-03-6.25824E-04-8.30180E-15
 -1      1371 4.04159E-03-6.55614E-04-9.87388E-15
 -1      1372 4.18543E-03-6.52275E-04-1.05413E-14
 -1      1373 3.97064E-03-6.20000E-04-9.55524E-15
 -1      1374 4.32999E-03-6.48717E-04-1.12261E-14
 -1      1375 4.47532E-03-6.45033E-04-1.19275E-14
 -1      1376 4.25847E-03-6.12986E-04-1.08820E-14
 -1      1377 4.62148E-03-6.41266E-04-1.26453E-14
 -1      1378 4.76853E-03-6.37527E-04-1.33796E-14
 -1      1379 4.54898E-03-6.05235E-04-1.22785E-14
 -1      1380 4.91653E-03-6.33891E-04-1.41291E-14
 -1      1381 5.06555E-03-6.30499E-04-1.48923E-14
 -1      1382 4.84255E-03-5.97323E-04-1.37399E-14
 -1      1383 5.21568E-03-6.27470E-04-1.56716E-14
 -1      1384 5.36696E-03-6.24983E-04-1.64656E-14
 -1      1385 5.13963E-03-5.90047E-04-1.52633E-14
 -1      1386 5.51946E-03-6.23220E-04-1.72737E-14
 -1      1387 5.67324E-03-6.22405E-04-1.80963E-14
 -1      1388 5.44069E-03-5.84529E-04-1.68447E-14
 -1      1389 5.82832E-03-6.22798E-04-1.89330E-14
 -1      1390 5.98472E-03-6.24660E-04-1.97854E-14
 -1      1391 5.74613E-03-5.82319E-04-1.84837E-14
 -1      1392 6.14242E-03-6.28338E-04-2.06490E-14
 -1      1393 6.30135E-03-6.34112E-04-2.15236E-14
 -1      1394 6.05616E-03-5.85465E-04-2.01792E-14
 -1      1395 6.46141E-03-6.42396E-04-2.24151E-14
 -1      1396 6.62244E-03-6.53444E-04-2.33188E-14
 -1      1397 6.37067E-03-5.96492E-04-2.19294E-14
 -1      1398 6.78420E-03-6.67676E-04-2.42380E-14
 -1      1399 6.94639E-03-6.85240E-04-2.51739E-14
 -1      1400 6.68902E-03-6.18205E-04-2.37351E-14
 -1      1401 7.10865E-03-7.06430E-04-2.61223E-14
 -1      1402 7.27052E-03-7.31167E-04-2.70854E-14
 -1      1403 7.00979E-03-6.53184E-04-2.55989E-14
 -1      1404 7.43151E-03-7.59419E-04-2.80623E-14
 -1      1405 7.59107E-03-7.90721E-04-2.90518E-14
 -1      1406 7.33075E-03-7.02847E-04-2.75186E-14
 -1      1407 7.74865E-03-8.24482E-04-3.00542E-14
 -1      1408 7.90372E-03-8.59725E-04-3.10673E-14
 -1      1409 7.64883E-03-7.66052E-04-2.94917E-14
 -1      1410 8.05584E-03-8.95153E-04-3.20934E-14
 -1      1411 8.20468E-03-9.29275E-04-3.31325E-14
 -1      1412 7.96058E-03-8.37549E-04-3.15153E-14
 -1      1413 8.35010E-03-9.60204E-04-3.41826E-14
 -1      1414 8.49219E-03-9.86199E-04-3.52439E-14
 -1      1415 8.26310E-03-9.07079E-04-3.35860E-14
 -1      1416 8.63127E-03-1.00526E-03-3.63172E-14
 -1      1417 8.76794E-03-1.01590E-03-3.74015E-14
 -1      1418 8.55532E-03-9.60318E-04-3.57046E-14
 -1      1419 8.90294E-03-1.01676E-03-3.84979E-14
 -1      1420 9.03725E-03-1.00717E-03-3.96056E-14
 -1      1421 8.83907E-03-9.82424E-04-3.78700E-14
 -1      1422 9.17184E-03-9.87001E-04-4.07212E-14
 -1      1423 9.30771E-03-9.56686E-04-4.18445E-14
 -1      1424 9.11911E-03-9.63334E-04-4.00779E-14
 -1      1425 9.44569E-03-9.17378E-04-4.29765E-14
 -1      1426 9.58648E-03-8.70436E-04-4.41149E-14
 -1      1427 9.40161E-03-9.02018E-04-4.23212E-14
 -1      1428 9.73047E-03-8.17791E-04-4.52623E-14
 -1      1429 9.87787E-03-7.61178E-04-4.64173E-14
 -1      1430 9.69179E-03-8.06944E-04-4.45978E-14
 -1      1431 1.00286E-02-7.02558E-04-4.75798E-14
 -1      1432 1.01825E-02-6.43504E-04-4.87522E-14
 -1      1433 9.99212E-03-6.92415E-04-4.69049E-14
 -1      1434 1.03390E-02-5.85452E-04-4.99325E-14
 -1      1435 1.04977E-02-5.29489E-04-5.11201E-14
 -1      1436 1.03021E-02-5.73227E-04-4.92429E-14
 -1      1437 1.06581E-02-4.76340E-04-5.23180E-14
 -1      1438 1.08195E-02-4.26566E-04-5.35233E-14
 -1      1439 1.06190E-02-4.60618E-04-5.16150E-14
 -1      1440 1.09816E-02-3.80290E-04-5.47383E-14
 -1      1441 1.11437E-02-3.37654E-04-5.59640E-14
 -1      1442 1.09394E-02-3.60807E-04-5.40228E-14
 -1      1443 1.13055E-02-2.98408E-04-5.71934E-14
 -1      1444 1.14666E-02-2.62433E-04-5.84277E-14
 -1      1445 1.12602E-02-2.75629E-04-5.64659E-14
 -1      1446 1.16269E-02-2.29317E-04-5.96740E-14
 -1      1447 1.17861E-02-1.98812E-04-6.09257E-14
 -1      1448 1.15788E-02-2.04029E-04-5.89378E-14
 -1      1449 1.19441E-02-1.70490E-04-6.21854E-14
 -1      1450 1.21008E-02-1.44061E-04-6.34585E-14
 -1      1451 1.18938E-02-1.43525E-04-6.14410E-14
 -1      1452 1.22561E-02-1.19154E-04-6.47447E-14
 -1      1453 1.24102E-02-9.54926E-05-6.60432E-14
 -1      1454 1.22044E-02-9.12438E-05-6.39834E-14
 -1      1455 1.25629E-02-7.27837E-05-6.73534E-14
 -1      1456 1.27144E-02-5.07874E-05-6.86723E-14
 -1      1457 1.25104E-02-4.45020E-05-6.65722E-14
 -1      1458 1.28648E-02-2.92881E-05-7.00056E-14
 -1      1459 1.30140E-02-8.08802E-06-7.13508E-14
 -1      1460 1.28119E-02-1.05425E-06-6.92103E-14
 -1      1461 1.31622E-02 1.29656E-05-7.27072E-14
 -1      1462 1.33095E-02 3.40302E-05-7.40758E-14
 -1      1463 1.31094E-02 4.08620E-05-7.18940E-14
 -1      1464 1.34559E-02 5.52128E-05-7.54525E-14
 -1      1465 1.36016E-02 7.66351E-05-7.68354E-14
 -1      1466 1.34036E-02 8.25806E-05-7.46212E-14
 -1      1467 1.37466E-02 9.83714E-05-7.82256E-14
 -1      1468 1.38911E-02 1.20512E-04-7.96208E-14
 -1      1469 1.36949E-02 1.25092E-04-7.73824E-14
 -1      1470 1.40350E-02 1.43100E-04-8.10187E-14
 -1      1471 1.41786E-02 1.66193E-04-8.24168E-14
 -1      1472 1.39839E-02 1.69113E-04-8.01658E-14
 -1      1473 1.43219E-02 1.89784E-04-8.38240E-14
 -1      1474 1.44649E-02 2.13867E-04-8.52396E-14
 -1      1475 1.42713E-02 2.15102E-04-8.29688E-14
 -1      1476 1.46746E-02 2.53673E-04-8.72849E-14
 -1      1477 1.46245E-02 2.78449E-04-8.64188E-14
 -1      1478 6.42438E-04 3.71766E-04-2.90295E-17
 -1      1479 4.92477E-04 3.03534E-04 2.66985E-18
 -1      1480 4.44484E-04 2.65779E-04-1.97867E-17
 -1      1481 9.27688E-04 4.71458E-04-1.58348E-16
 -1      1482 7.86994E-04 4.26119E-04-8.26975E-17
 -1      1483 7.44058E-04 3.90395E-04-1.11483E-16
 -1      1484 1.20224E-03 5.40458E-04-3.77072E-16
 -1      1485 1.06574E-03 5.09009E-04-2.56332E-16
 -1      1486 1.02982E-03 4.75501E-04-2.90688E-16
 -1      1487 1.47244E-03 5.89049E-04-6.85378E-16
 -1      1488 1.33756E-03 5.66920E-04-5.19780E-16
 -1      1489 1.30745E-03 5.34826E-04-5.58242E-16
 -1      1490 1.74165E-03 6.23103E-04-1.08599E-15
 -1      1491 1.60700E-03 6.07655E-04-8.73948E-16
 -1      1492 1.58141E-03 5.76404E-04-9.15988E-16
 -1      1493 2.01159E-03 6.46432E-04-1.57732E-15
 -1      1494 1.87644E-03 6.35939E-04-1.32035E-15
 -1      1495 1.85436E-03 6.05160E-04-1.36464E-15
 -1      1496 2.28311E-03 6.61712E-04-2.15733E-15
 -1      1497 2.14711E-03 6.54951E-04-1.85648E-15
 -1      1498 2.12774E-03 6.24411E-04-1.90305E-15
 -1      1499 2.55660E-03 6.70907E-04-2.82622E-15
 -1      1500 2.41959E-03 6.66973E-04-2.48071E-15
 -1      1501 2.40232E-03 6.36530E-04-2.52996E-15
 -1      1502 2.83223E-03 6.75469E-04-3.58536E-15
 -1      1503 2.69414E-03 6.73693E-04-3.19441E-15
 -1      1504 2.67849E-03 6.43255E-04-3.24479E-15
 -1      1505 3.11007E-03 6.76466E-04-4.43412E-15
 -1      1506 2.97087E-03 6.76357E-04-3.99898E-15
 -1      1507 2.95646E-03 6.45864E-04-4.04870E-15
 -1      1508 3.39015E-03 6.74675E-04-5.36306E-15
 -1      1509 3.24983E-03 6.75875E-04-4.88832E-15
 -1      1510 3.23634E-03 6.45285E-04-4.93755E-15
 -1      1511 3.67258E-03 6.70658E-04-6.37112E-15
 -1      1512 3.53107E-03 6.72909E-04-5.85751E-15
 -1      1513 3.51824E-03 6.42184E-04-5.90626E-15
 -1      1514 3.95754E-03 6.64834E-04-7.45878E-15
 -1      1515 3.81473E-03 6.67940E-04-6.90484E-15
 -1      1516 3.80234E-03 6.37042E-04-6.95438E-15
 -1      1517 4.24535E-03 6.57544E-04-8.62449E-15
 -1      1518 4.10106E-03 6.61337E-04-8.03196E-15
 -1      1519 4.08889E-03 6.30218E-04-8.08037E-15
 -1      1520 4.53652E-03 6.49136E-04-9.86816E-15
 -1      1521 4.39048E-03 6.53436E-04-9.23696E-15
 -1      1522 4.37825E-03 6.22030E-04-9.28444E-15
 -1      1523 4.83177E-03 6.40050E-04-1.11780E-14
 -1      1524 4.68359E-03 6.44617E-04-1.05146E-14
 -1      1525 4.67098E-03 6.12832E-04-1.05597E-14
 -1      1526 5.13205E-03 6.30944E-04-1.25513E-14
 -1      1527 4.98122E-03 6.35412E-04-1.18575E-14
 -1      1528 4.96781E-03 6.03123E-04-1.19020E-14
 -1      1529 5.43860E-03 6.22851E-04-1.39850E-14
 -1      1530 5.28446E-03 6.26644E-04-1.32603E-14
 -1      1531 5.26967E-03 5.93683E-04-1.33046E-14
 -1      1532 5.75286E-03 6.17394E-04-1.54779E-14
 -1      1533 5.59467E-03 6.19613E-04-1.47246E-14
 -1      1534 5.57770E-03 5.85757E-04-1.47674E-14
 -1      1535 6.07643E-03 6.17079E-04-1.70212E-14
 -1      1536 5.91337E-03 6.16346E-04-1.62431E-14
 -1      1537 5.89319E-03 5.81314E-04-1.62854E-14
 -1      1538 6.41083E-03 6.25637E-04-1.86170E-14
 -1      1539 6.24218E-03 6.19924E-04-1.78123E-14
 -1      1540 6.21745E-03 5.83372E-04-1.78563E-14
 -1      1541 6.75710E-03 6.48366E-04-2.02661E-14
 -1      1542 6.58243E-03 6.34835E-04-1.94351E-14
 -1      1543 6.55161E-03 5.96375E-04-1.94808E-14
 -1      1544 7.11504E-03 6.92234E-04-2.19645E-14
 -1      1545 6.93466E-03 6.67240E-04-2.11101E-14
 -1      1546 6.89619E-03 6.26492E-04-2.11557E-14
 -1      1547 7.48230E-03 7.65231E-04-2.37069E-14
 -1      1548 7.29774E-03 7.24779E-04-2.28296E-14
 -1      1549 7.25052E-03 6.81493E-04-2.28753E-14
 -1      1550 7.85329E-03 8.74103E-04-2.54969E-14
 -1      1551 7.66783E-03 8.15221E-04-2.45955E-14
 -1      1552 7.61199E-03 7.69523E-04-2.46431E-14
 -1      1553 8.21876E-03 1.01954E-03-2.73357E-14
 -1      1554 8.03747E-03 9.42992E-04-2.64104E-14
 -1      1555 7.97534E-03 8.95752E-04-2.64602E-14
 -1      1556 8.56731E-03 1.18944E-03-2.92306E-14
 -1      1557 8.39594E-03 1.10316E-03-2.82766E-14
 -1      1558 8.33265E-03 1.05631E-03-2.83280E-14
 -1      1559 8.89008E-03 1.35391E-03-3.11777E-14
 -1      1560 8.73228E-03 1.27479E-03-3.01969E-14
 -1      1561 8.67523E-03 1.23114E-03-3.02482E-14
 -1      1562 9.18709E-03 1.47181E-03-3.31897E-14
 -1      1563 9.04125E-03 1.42096E-03-3.21760E-14
 -1      1564 8.99781E-03 1.38285E-03-3.22264E-14
 -1      1565 9.47117E-03 1.50885E-03-3.52623E-14
 -1      1566 9.32943E-03 1.50106E-03-3.42179E-14
 -1      1567 9.30410E-03 1.46862E-03-3.42668E-14
 -1      1568 9.76237E-03 1.45985E-03-3.73937E-14
 -1      1569 9.61455E-03 1.49362E-03-3.63213E-14
 -1      1570 9.60729E-03 1.46430E-03-3.63672E-14
 -1      1571 1.00766E-02 1.35190E-03-3.95739E-14
 -1      1572 9.91602E-03 1.41054E-03-3.84776E-14
 -1      1573 9.92250E-03 1.38092E-03-3.85226E-14
 -1      1574 1.04180E-02 1.22676E-03-4.17898E-14
 -1      1575 1.02442E-02 1.28904E-03-4.06778E-14
 -1      1576 1.02575E-02 1.25689E-03-4.07230E-14
 -1      1577 1.07794E-02 1.11909E-03-4.40501E-14
 -1      1578 1.05969E-02 1.16945E-03-4.29140E-14
 -1      1579 1.06099E-02 1.13435E-03-4.29647E-14
 -1      1580 1.11497E-02 1.04601E-03-4.63584E-14
 -1      1581 1.09642E-02 1.07797E-03-4.51980E-14
 -1      1582 1.09718E-02 1.04063E-03-4.52501E-14
 -1      1583 1.15186E-02 1.00993E-03-4.87109E-14
 -1      1584 1.13349E-02 1.02368E-03-4.75286E-14
 -1      1585 1.13345E-02 9.85106E-04-4.75782E-14
 -1      1586 1.18794E-02 1.00520E-03-5.11018E-14
 -1      1587 1.17003E-02 1.00417E-03-4.99023E-14
 -1      1588 1.16918E-02 9.65214E-04-4.99471E-14
 -1      1589 1.22289E-02 1.02383E-03-5.35270E-14
 -1      1590 1.20557E-02 1.01209E-03-5.23102E-14
 -1      1591 1.20400E-02 9.73355E-04-5.23493E-14
 -1      1592 1.25663E-02 1.05838E-03-5.59890E-14
 -1      1593 1.23991E-02 1.03951E-03-5.47545E-14
 -1      1594 1.23779E-02 1.00133E-03-5.47903E-14
 -1      1595 1.28924E-02 1.10297E-03-5.84767E-14
 -1      1596 1.27307E-02 1.07971E-03-5.72300E-14
 -1      1597 1.27055E-02 1.04223E-03-5.72626E-14
 -1      1598 1.32087E-02 1.15339E-03-6.09794E-14
 -1      1599 1.30517E-02 1.12766E-03-5.97274E-14
 -1      1600 1.30238E-02 1.09092E-03-5.97582E-14
 -1      1601 1.35168E-02 1.20669E-03-6.34876E-14
 -1      1602 1.33636E-02 1.17982E-03-6.22311E-14
 -1      1603 1.33341E-02 1.14379E-03-6.22649E-14
 -1      1604 1.38182E-02 1.26092E-03-6.60098E-14
 -1      1605 1.36682E-02 1.23378E-03-6.47484E-14
 -1      1606 1.36377E-02 1.19839E-03-6.47844E-14
 -1      1607 1.41145E-02 1.31477E-03-6.85601E-14
 -1      1608 1.39669E-02 1.28796E-03-6.72808E-14
 -1      1609 1.39361E-02 1.25312E-03-6.73237E-14
 -1      1610 1.44068E-02 1.36736E-03-7.11470E-14
 -1      1611 1.42611E-02 1.34127E-03-6.98481E-14
 -1      1612 1.42302E-02 1.30690E-03-6.98924E-14
 -1      1613 1.46961E-02 1.41808E-03-7.37654E-14
 -1      1614 1.45517E-02 1.39297E-03-7.24506E-14
 -1      1615 1.45212E-02 1.35901E-03-7.24973E-14
 -1      1616 1.49834E-02 1.46658E-03-7.64127E-14
 -1      1617 1.48399E-02 1.44261E-03-7.50865E-14
 -1      1618 1.48098E-02 1.40897E-03-7.51311E-14
 -1      1619 1.52695E-02 1.51290E-03-7.90778E-14
 -1      1620 1.51265E-02 1.48998E-03-7.77443E-14
 -1      1621 1.50967E-02 1.45658E-03-7.77884E-14
 -1      1622 1.54126E-02 1.52556E-03-8.05236E-14
 -1      1623 1.53700E-02 1.42232E-03-8.12107E-14
 -1      1624 1.53916E-02 1.46427E-03-8.09769E-14
 -1      1625 1.53284E-02 1.33914E-03-8.16607E-14
 -1      1626 1.53489E-02 1.38058E-03-8.14397E-14
 -1      1627 1.52357E-02 1.38214E-03-8.01600E-14
 -1      1628 1.52884E-02 1.25738E-03-8.20915E-14
 -1      1629 1.53082E-02 1.29805E-03-8.18756E-14
 -1      1630 1.51948E-02 1.29955E-03-8.06016E-14
 -1      1631 1.52492E-02 1.17740E-03-8.25098E-14
 -1      1632 1.52687E-02 1.21716E-03-8.23042E-14
 -1      1633 1.51553E-02 1.21840E-03-8.10303E-14
 -1      1634 1.52103E-02 1.10054E-03-8.29257E-14
 -1      1635 1.52298E-02 1.13876E-03-8.27169E-14
 -1      1636 1.51167E-02 1.13954E-03-8.14504E-14
 -1      1637 1.51694E-02 1.02390E-03-8.33673E-14
 -1      1638 1.51901E-02 1.06205E-03-8.31444E-14
 -1      1639 1.50775E-02 1.06220E-03-8.18724E-14
 -1      1640 1.51263E-02 9.48324E-04-8.38090E-14
 -1      1641 1.51482E-02 9.86012E-04-8.35888E-14
 -1      1642 1.50363E-02 9.85445E-04-8.23057E-14
 -1      1643 1.50806E-02 8.73185E-04-8.42535E-14
 -1      1644 1.51038E-02 9.10742E-04-8.40316E-14
 -1      1645 1.49927E-02 9.09481E-04-8.27449E-14
 -1      1646 1.50323E-02 7.97785E-04-8.46922E-14
 -1      1647 1.50568E-02 8.35558E-04-8.44737E-14
 -1      1648 1.49463E-02 8.33731E-04-8.31812E-14
 -1      1649 1.49816E-02 7.21483E-04-8.51283E-14
 -1      1650 1.50072E-02 7.59781E-04-8.49112E-14
 -1      1651 1.48972E-02 7.57600E-04-8.36138E-14
 -1      1652 1.49301E-02 6.45104E-04-8.55580E-14
 -1      1653 1.49560E-02 6.83486E-04-8.53429E-14
 -1      1654 1.48462E-02 6.81216E-04-8.40387E-14
 -1      1655 1.48770E-02 5.65722E-04-8.59850E-14
 -1      1656 1.49036E-02 6.05634E-04-8.57745E-14
 -1      1657 1.47938E-02 6.03546E-04-8.44576E-14
 -1      1658 1.48242E-02 4.84594E-04-8.63835E-14
 -1      1659 1.48505E-02 5.25368E-04-8.61891E-14
 -1      1660 1.47405E-02 5.23692E-04-8.48687E-14
 -1      1661 1.47726E-02 4.01941E-04-8.67740E-14
 -1      1662 1.47982E-02 4.43432E-04-8.65793E-14
 -1      1663 1.46877E-02 4.42304E-04-8.52593E-14
 -1      1664 1.46858E-02 3.19319E-04-8.66923E-14
 -1      1665 1.47106E-02 3.61215E-04-8.65097E-14
 -1      1666 1.45996E-02 3.60675E-04-8.51861E-14
 -1      1667 1.44760E-02 2.79568E-04-8.46514E-14
 -1      1668 1.14465E-02 3.94891E-04-4.22507E-14
 -1      1669 1.14704E-02 3.49499E-04-4.23950E-14
 -1      1670 1.13017E-02 5.07737E-04-4.17377E-14
 -1      1671 1.13836E-02 4.54561E-04-4.19873E-14
 -1      1672 1.10065E-02 6.43445E-04-4.10696E-14
 -1      1673 1.11583E-02 5.67842E-04-4.14638E-14
 -1      1674 1.06560E-02 8.35759E-04-4.00320E-14
 -1      1675 1.08268E-02 7.53893E-04-4.04756E-14
 -1      1676 1.02566E-02 1.01489E-03-3.89576E-14
 -1      1677 1.04455E-02 9.32596E-04-3.94700E-14
 -1      1678 9.83159E-03 1.16495E-03-3.77749E-14
 -1      1679 1.00221E-02 1.10057E-03-3.83373E-14
 -1      1680 9.40319E-03 1.24610E-03-3.64836E-14
 -1      1681 9.59600E-03 1.22233E-03-3.70795E-14
 -1      1682 9.00044E-03 1.20845E-03-3.53344E-14
 -1      1683 9.18102E-03 1.23440E-03-3.58412E-14
 -1      1684 8.58821E-03 1.08491E-03-3.42148E-14
 -1      1685 8.78445E-03 1.15481E-03-3.47157E-14
 -1      1686 8.16799E-03 9.03369E-04-3.32943E-14
 -1      1687 8.35556E-03 9.90696E-04-3.36944E-14
 -1      1688 7.76650E-03 6.98516E-04-3.25179E-14
 -1      1689 7.95180E-03 7.92241E-04-3.28431E-14
 -1      1690 7.39751E-03 5.24349E-04-3.20103E-14
 -1      1691 7.55442E-03 6.04853E-04-3.22380E-14
 -1      1692 7.12822E-03 3.73065E-04-3.16549E-14
 -1      1693 7.24124E-03 4.35728E-04-3.17782E-14
 -1      1694 6.97599E-03 2.63227E-04-3.15924E-14
 -1      1695 7.02971E-03 3.11764E-04-3.16023E-14
 -1      1696 6.96114E-03 1.61063E-04-3.16792E-14
 -1      1697 6.94774E-03 2.05783E-04-3.15716E-14
 -1      1698 7.09705E-03 5.22537E-05-3.21288E-14
 -1      1699 7.01862E-03 1.02276E-04-3.19195E-14
 -1      1700 7.36717E-03-7.59003E-05-3.27371E-14
 -1      1701 7.22815E-03-9.49134E-06-3.24041E-14
 -1      1702 7.74658E-03-2.46388E-04-3.36402E-14
 -1      1703 7.56439E-03-1.62606E-04-3.31913E-14
 -1      1704 8.18465E-03-4.38672E-04-3.47931E-14
 -1      1705 7.98105E-03-3.51252E-04-3.42470E-14
 -1      1706 8.57999E-03-5.80770E-04-3.60073E-14
 -1      1707 8.39675E-03-5.26049E-04-3.54772E-14
 -1      1708 8.98063E-03-6.49647E-04-3.72131E-14
 -1      1709 8.79811E-03-6.27658E-04-3.66502E-14
 -1      1710 9.38542E-03-6.31552E-04-3.84699E-14
 -1      1711 9.19958E-03-6.54153E-04-3.78989E-14
 -1      1712 9.79127E-03-5.20547E-04-3.95933E-14
 -1      1713 9.60949E-03-5.78660E-04-3.90925E-14
 -1      1714 1.01898E-02-3.65203E-04-4.05511E-14
 -1      1715 1.00095E-02-4.41307E-04-4.01251E-14
 -1      1716 1.05789E-02-1.81172E-04-4.13931E-14
 -1      1717 1.03972E-02-2.66845E-04-4.10351E-14
 -1      1718 1.09121E-02-2.06749E-05-4.19687E-14
 -1      1719 1.07688E-02-8.94012E-05-4.17410E-14
 -1      1720 1.11664E-02 9.29291E-05-4.22540E-14
 -1      1721 1.10484E-02 3.50763E-05-4.21130E-14
 -1      1722 1.09311E-02 6.13546E-05-4.24353E-14
 -1      1723 1.13701E-02 2.13019E-04-4.24753E-14
 -1      1724 1.12942E-02 1.67328E-04-4.24178E-14
 -1      1725 1.14575E-02 2.91907E-04-4.24170E-14
 -1      1726 1.14248E-02 2.51574E-04-4.24447E-14
 -1      1727 1.13933E-02 2.61163E-04-4.28859E-14
 -1      1728 1.04921E-02 8.50597E-04-3.99641E-14
 -1      1729 1.08793E-02 6.44169E-04-4.11262E-14
 -1      1730 1.53830E-02 1.49224E-03-8.05686E-14
 -1      1731 1.52483E-02 1.45169E-03-7.95267E-14
 -1      1732 1.14190E-02 3.98458E-04-4.25464E-14
 -1      1733 1.12085E-02 4.93701E-04-4.20049E-14
 -1      1734 1.14743E-02 3.27589E-04-4.28336E-14
 -1      1735 1.00786E-02 1.04961E-03-3.87759E-14
 -1      1736 9.67277E-03 1.21217E-03-3.74564E-14
 -1      1737 9.30466E-03 1.26904E-03-3.61190E-14
 -1      1738 8.92602E-03 1.19897E-03-3.48614E-14
 -1      1739 8.54059E-03 1.03239E-03-3.37309E-14
 -1      1740 8.12685E-03 8.10828E-04-3.27682E-14
 -1      1741 7.71564E-03 5.96905E-04-3.20462E-14
 -1      1742 7.34706E-03 4.22188E-04-3.15411E-14
 -1      1743 7.08398E-03 3.01176E-04-3.12613E-14
 -1      1744 6.95189E-03 2.17819E-04-3.11875E-14
 -1      1745 6.98271E-03 1.53997E-04-3.14007E-14
 -1      1746 7.17703E-03 6.48892E-05-3.19093E-14
 -1      1747 7.50623E-03-6.75538E-05-3.26273E-14
 -1      1748 7.92408E-03-2.61820E-04-3.36758E-14
 -1      1749 8.33804E-03-4.71370E-04-3.49584E-14
 -1      1750 8.72632E-03-6.19786E-04-3.62818E-14
 -1      1751 9.09496E-03-6.79013E-04-3.76086E-14
 -1      1752 9.45490E-03-6.24734E-04-3.89191E-14
 -1      1753 9.83756E-03-4.77441E-04-4.00769E-14
 -1      1754 1.02292E-02-2.84374E-04-4.10980E-14
 -1      1755 1.06110E-02-8.53194E-05-4.19362E-14
 -1      1756 2.84991E-04-1.76182E-04-5.79371E-17
 -1      1757 1.12077E-02 1.76712E-04-4.27482E-14
 -1      1758 3.32168E-04-1.16769E-04-1.45513E-16
 -1      1759 3.36251E-04-1.33009E-04-1.39618E-16
 -1      1760 3.42070E-04-1.51989E-04-1.31812E-16
 -1      1761 3.51558E-04-1.73975E-04-1.19899E-16
 -1      1762 4.58188E-04-1.88001E-04-2.02895E-16
 -1      1763 3.24701E-04-6.53711E-05-1.54580E-16
 -1      1764 3.25807E-04-7.66708E-05-1.53930E-16
 -1      1765 3.23258E-04-4.38781E-05-1.54309E-16
 -1      1766 3.23889E-04-5.43676E-05-1.54553E-16
 -1      1767 4.36711E-04-7.92353E-05-2.27452E-16
 -1      1768 3.22504E-04-2.37646E-05-1.52208E-16
 -1      1769 3.22823E-04-3.36753E-05-1.53523E-16
 -1      1770 4.34770E-04-5.12778E-05-2.26246E-16
 -1      1771 3.22224E-04-4.33762E-06-1.48929E-16
 -1      1772 3.22316E-04-1.39859E-05-1.50785E-16
 -1      1773 4.33784E-04-2.49041E-05-2.22939E-16
 -1      1774 3.22342E-04 1.49727E-05-1.44199E-16
 -1      1775 3.22233E-04 5.31405E-06-1.46747E-16
 -1      1776 4.33499E-04 7.53905E-07-2.17667E-16
 -1      1777 3.22887E-04 3.47168E-05-1.38547E-16
 -1      1778 3.22548E-04 2.47730E-05-1.41597E-16
 -1      1779 4.33844E-04 2.64417E-05-2.10688E-16
 -1      1780 3.23975E-04 5.51535E-05-1.30687E-16
 -1      1781 3.23335E-04 4.47908E-05-1.35024E-16
 -1      1782 4.34886E-04 5.26796E-05-2.01702E-16
 -1      1783 3.25970E-04 7.78080E-05-1.20130E-16
 -1      1784 3.24806E-04 6.62252E-05-1.26039E-16
 -1      1785 4.36881E-04 8.05483E-05-1.89884E-16
 -1      1786 3.29573E-04 1.03649E-04-1.05520E-16
 -1      1787 3.27470E-04 9.02980E-05-1.13760E-16
 -1      1788 4.40440E-04 1.11513E-04-1.74014E-16
 -1      1789 3.36498E-04 1.35101E-04-8.46491E-17
 -1      1790 3.32373E-04 1.18607E-04-9.63043E-17
 -1      1791 4.46786E-04 1.47276E-04-1.52195E-16
 -1      1792 3.52093E-04 1.77568E-04-5.48606E-17
 -1      1793 3.42666E-04 1.54740E-04-7.12321E-17
 -1      1794 4.59166E-04 1.91382E-04-1.21526E-16
 -1      1795 4.07367E-04 2.33598E-04-3.31088E-17
 -1      1796 3.77826E-04 2.02604E-04-4.68782E-17
 -1      1797 4.95550E-04 2.43881E-04-9.35531E-17
 -1      1798 5.58088E-04 3.02330E-04-7.02292E-17
 -1      1799 3.39761E-04-1.90858E-04-9.27128E-17
 -1      1800 8.52860E-04 4.06679E-04-2.09725E-16
 -1      1801 7.06580E-04 3.59086E-04-1.29386E-16
 -1      1802 6.72914E-04 3.28555E-04-1.44267E-16
 -1      1803 1.12549E-02 2.40898E-04-4.33484E-14
 -1      1804 1.11210E-02 1.91220E-04-4.31789E-14
 -1      1805 4.58639E-04-2.36616E-04-1.57264E-16
 -1      1806 8.06643E-04-3.73724E-04-4.04380E-16
 -1      1807 9.51806E-04-4.14731E-04-5.57266E-16
 -1      1808 1.09455E-03-4.49201E-04-7.36214E-16
 -1      1809 1.23612E-03-4.77833E-04-9.41372E-16
 -1      1810 1.00336E-03-3.97270E-04-6.68831E-16
 -1      1811 1.37644E-03-5.02003E-04-1.17170E-15
 -1      1812 1.51605E-03-5.22005E-04-1.42708E-15
 -1      1813 1.28892E-03-4.54705E-04-1.08076E-15
 -1      1814 1.65516E-03-5.38749E-04-1.70751E-15
 -1      1815 1.79395E-03-5.52469E-04-2.01193E-15
 -1      1816 1.57123E-03-4.94907E-04-1.59215E-15
 -1      1817 1.93265E-03-5.63761E-04-2.34003E-15
 -1      1818 2.07131E-03-5.72824E-04-2.69209E-15
 -1      1819 1.85182E-03-5.22435E-04-2.20036E-15
 -1      1820 2.21010E-03-5.80062E-04-3.06764E-15
 -1      1821 2.34902E-03-5.85641E-04-3.46560E-15
 -1      1822 2.13179E-03-5.40559E-04-2.90272E-15
 -1      1823 2.48820E-03-5.89842E-04-3.88605E-15
 -1      1824 2.62762E-03-5.92799E-04-4.32907E-15
 -1      1825 2.41186E-03-5.51658E-04-3.69653E-15
 -1      1826 2.76736E-03-5.94709E-04-4.79327E-15
 -1      1827 2.90741E-03-5.95679E-04-5.27845E-15
 -1      1828 2.69251E-03-5.57478E-04-4.57829E-15
 -1      1829 3.04783E-03-5.95845E-04-5.78458E-15
 -1      1830 3.18859E-03-5.95293E-04-6.31082E-15
 -1      1831 2.97405E-03-5.59302E-04-5.54479E-15
 -1      1832 3.32976E-03-5.94116E-04-6.85715E-15
 -1      1833 3.47132E-03-5.92383E-04-7.42359E-15
 -1      1834 3.25666E-03-5.58066E-04-6.59241E-15
 -1      1835 3.61331E-03-5.90158E-04-8.00957E-15
 -1      1836 3.75574E-03-5.87501E-04-8.61514E-15
 -1      1837 3.54052E-03-5.54453E-04-7.72077E-15
 -1      1838 3.89863E-03-5.84459E-04-9.23868E-15
 -1      1839 4.04203E-03-5.81089E-04-9.88098E-15
 -1      1840 3.82578E-03-5.48975E-04-8.92508E-15
 -1      1841 4.18594E-03-5.77436E-04-1.05419E-14
 -1      1842 4.33042E-03-5.73560E-04-1.12203E-14
 -1      1843 4.11263E-03-5.42049E-04-1.02045E-14
 -1      1844 4.47549E-03-5.69514E-04-1.19157E-14
 -1      1845 4.62121E-03-5.65375E-04-1.26272E-14
 -1      1846 4.40129E-03-5.34079E-04-1.15557E-14
 -1      1847 4.76761E-03-5.61217E-04-1.33560E-14
 -1      1848 4.91476E-03-5.57140E-04-1.40994E-14
 -1      1849 4.69204E-03-5.25538E-04-1.29744E-14
 -1      1850 5.06268E-03-5.53262E-04-1.48576E-14
 -1      1851 5.21147E-03-5.49712E-04-1.56306E-14
 -1      1852 4.98519E-03-5.17067E-04-1.44554E-14
 -1      1853 5.36112E-03-5.46668E-04-1.64195E-14
 -1      1854 5.51174E-03-5.44300E-04-1.72218E-14
 -1      1855 5.28114E-03-5.09577E-04-1.59966E-14
 -1      1856 5.66334E-03-5.42864E-04-1.80375E-14
 -1      1857 5.81596E-03-5.42574E-04-1.88684E-14
 -1      1858 5.58029E-03-5.04364E-04-1.75962E-14
 -1      1859 5.96963E-03-5.43772E-04-1.97143E-14
 -1      1860 6.12434E-03-5.46720E-04-2.05731E-14
 -1      1861 5.88303E-03-5.03200E-04-1.92523E-14
 -1      1862 6.28014E-03-5.51831E-04-2.14456E-14
 -1      1863 6.43687E-03-5.59399E-04-2.23328E-14
 -1      1864 6.18972E-03-5.08393E-04-2.09658E-14
 -1      1865 6.59464E-03-5.69866E-04-2.32343E-14
 -1      1866 6.75310E-03-5.83510E-04-2.41487E-14
 -1      1867 6.50054E-03-5.22720E-04-2.27341E-14
 -1      1868 6.91242E-03-6.00698E-04-2.50781E-14
 -1      1869 7.07201E-03-6.21603E-04-2.60208E-14
 -1      1870 6.81542E-03-5.49153E-04-2.45602E-14
 -1      1871 7.23208E-03-6.46342E-04-2.69791E-14
 -1      1872 7.39181E-03-6.74831E-04-2.79505E-14
 -1      1873 7.13374E-03-5.90217E-04-2.64427E-14
 -1      1874 7.55142E-03-7.06713E-04-2.89344E-14
 -1      1875 7.70993E-03-7.41436E-04-2.99307E-14
 -1      1876 7.45414E-03-6.46841E-04-2.83801E-14
 -1      1877 7.86750E-03-7.77964E-04-3.09405E-14
 -1      1878 8.02328E-03-8.15114E-04-3.19610E-14
 -1      1879 7.77421E-03-7.16692E-04-3.03673E-14
 -1      1880 8.17725E-03-8.51136E-04-3.29931E-14
 -1      1881 8.32909E-03-8.84240E-04-3.40383E-14
 -1      1882 8.09071E-03-7.92408E-04-3.24044E-14
 -1      1883 8.47857E-03-9.12256E-04-3.50953E-14
 -1      1884 8.62626E-03-9.33249E-04-3.61640E-14
 -1      1885 8.40046E-03-8.60840E-04-3.44881E-14
 -1      1886 8.77180E-03-9.45303E-04-3.72440E-14
 -1      1887 8.91666E-03-9.47037E-04-3.83354E-14
 -1      1888 8.70221E-03-9.05018E-04-3.66206E-14
 -1      1889 9.06038E-03-9.37604E-04-3.94376E-14
 -1      1890 9.20494E-03-9.16845E-04-4.05477E-14
 -1      1891 8.99809E-03-9.09552E-04-3.87979E-14
 -1      1892 9.34987E-03-8.85337E-04-4.16686E-14
 -1      1893 9.49681E-03-8.44258E-04-4.27972E-14
 -1      1894 9.29333E-03-8.67323E-04-4.10167E-14
 -1      1895 9.64536E-03-7.95356E-04-4.39321E-14
 -1      1896 9.79629E-03-7.40523E-04-4.50770E-14
 -1      1897 9.59355E-03-7.83114E-04-4.32685E-14
 -1      1898 9.94935E-03-6.81934E-04-4.62285E-14
 -1      1899 1.01043E-02-6.21466E-04-4.73878E-14
 -1      1900 9.90162E-03-6.71140E-04-4.55534E-14
 -1      1901 1.02613E-02-5.60988E-04-4.85556E-14
 -1      1902 1.04193E-02-5.01819E-04-4.97311E-14
 -1      1903 1.02169E-02-5.48585E-04-4.78687E-14
 -1      1904 1.05785E-02-4.45141E-04-5.09157E-14
 -1      1905 1.07380E-02-3.91627E-04-5.21080E-14
 -1      1906 1.05364E-02-4.29648E-04-5.02172E-14
 -1      1907 1.08980E-02-3.41755E-04-5.33090E-14
 -1      1908 1.10577E-02-2.95683E-04-5.45206E-14
 -1      1909 1.08569E-02-3.22852E-04-5.25989E-14
 -1      1910 1.12171E-02-2.53369E-04-5.57403E-14
 -1      1911 1.13757E-02-2.14672E-04-5.69675E-14
 -1      1912 1.11756E-02-2.31407E-04-5.50153E-14
 -1      1913 1.15337E-02-1.79255E-04-5.82031E-14
 -1      1914 1.16907E-02-1.46847E-04-5.94456E-14
 -1      1915 1.14911E-02-1.54866E-04-5.74700E-14
 -1      1916 1.18468E-02-1.17002E-04-6.06978E-14
 -1      1917 1.20018E-02-8.94209E-05-6.19554E-14
 -1      1918 1.18025E-02-9.08799E-05-5.99526E-14
 -1      1919 1.21557E-02-6.36657E-05-6.32240E-14
 -1      1920 1.23086E-02-3.94603E-05-6.45056E-14
 -1      1921 1.21098E-02-3.64457E-05-6.24698E-14
 -1      1922 1.24605E-02-1.64325E-05-6.57968E-14
 -1      1923 1.26114E-02 5.65044E-06-6.71013E-14
 -1      1924 1.24131E-02 1.13556E-05-6.50256E-14
 -1      1925 1.27613E-02 2.70800E-05-6.84164E-14
 -1      1926 1.29103E-02 4.80427E-05-6.97426E-14
 -1      1927 1.27128E-02 5.50234E-05-6.76264E-14
 -1      1928 1.30584E-02 6.87545E-05-7.10833E-14
 -1      1929 1.32059E-02 8.93611E-05-7.24334E-14
 -1      1930 1.30092E-02 9.65449E-05-7.02744E-14
 -1      1931 1.33525E-02 1.10017E-04-7.37932E-14
 -1      1932 1.34986E-02 1.30836E-04-7.51639E-14
 -1      1933 1.33028E-02 1.37430E-04-7.29708E-14
 -1      1934 1.36440E-02 1.51926E-04-7.65416E-14
 -1      1935 1.37890E-02 1.73375E-04-7.79258E-14
 -1      1936 1.35942E-02 1.78799E-04-7.57039E-14
 -1      1937 1.39334E-02 1.95251E-04-7.93173E-14
 -1      1938 1.40775E-02 2.17624E-04-8.07117E-14
 -1      1939 1.38836E-02 2.21467E-04-7.84682E-14
 -1      1940 1.42052E-02 2.36434E-04-8.19715E-14
 -1      1941 1.43487E-02 2.59836E-04-8.33783E-14
 -1      1942 1.44105E-02 3.00330E-04-8.36455E-14
 -1      1943 1.41555E-02 2.61976E-04-8.11177E-14
 -1      1944 1.13767E-03 4.79234E-04-4.35321E-16
 -1      1945 9.96022E-04 4.46207E-04-3.11342E-16
 -1      1946 9.63777E-04 4.16797E-04-3.29408E-16
 -1      1947 1.41656E-03 5.30120E-04-7.49346E-16
 -1      1948 1.27752E-03 5.06994E-04-5.80943E-16
 -1      1949 1.24806E-03 4.78912E-04-6.00770E-16
 -1      1950 1.69275E-03 5.65583E-04-1.15382E-15
 -1      1951 1.55481E-03 5.49537E-04-9.40396E-16
 -1      1952 1.52817E-03 5.22431E-04-9.61565E-16
 -1      1953 1.96821E-03 5.89744E-04-1.64768E-15
 -1      1954 1.83048E-03 5.78910E-04-1.38946E-15
 -1      1955 1.80630E-03 5.52455E-04-1.41170E-15
 -1      1956 2.24404E-03 6.05485E-04-2.23073E-15
 -1      1957 2.10603E-03 5.98546E-04-1.92823E-15
 -1      1958 2.08391E-03 5.72511E-04-1.95057E-15
 -1      1959 2.52088E-03 6.14899E-04-2.90149E-15
 -1      1960 2.38231E-03 6.10893E-04-2.55534E-15
 -1      1961 2.36185E-03 5.85120E-04-2.57758E-15
 -1      1962 2.79909E-03 6.19519E-04-3.65917E-15
 -1      1963 2.65981E-03 6.17742E-04-3.26921E-15
 -1      1964 2.64066E-03 5.92123E-04-3.29107E-15
 -1      1965 3.07887E-03 6.20463E-04-4.50535E-15
 -1      1966 2.93878E-03 6.20401E-04-4.07149E-15
 -1      1967 2.92064E-03 5.94863E-04-4.09174E-15
 -1      1968 3.36037E-03 6.18534E-04-5.43211E-15
 -1      1969 3.21940E-03 6.19821E-04-4.95882E-15
 -1      1970 3.20201E-03 5.94311E-04-4.97742E-15
 -1      1971 3.64375E-03 6.14304E-04-6.43973E-15
 -1      1972 3.50182E-03 6.16678E-04-5.92619E-15
 -1      1973 3.48493E-03 5.91158E-04-5.94354E-15
 -1      1974 3.92921E-03 6.08184E-04-7.52547E-15
 -1      1975 3.78621E-03 6.11456E-04-6.97252E-15
 -1      1976 3.76957E-03 5.85890E-04-6.98846E-15
 -1      1977 4.21703E-03 6.00495E-04-8.68848E-15
 -1      1978 4.07280E-03 6.04511E-04-8.09720E-15
 -1      1979 4.05618E-03 5.78862E-04-8.11163E-15
 -1      1980 4.50764E-03 5.91547E-04-9.92724E-15
 -1      1981 4.36196E-03 5.96148E-04-9.29873E-15
 -1      1982 4.34506E-03 5.70371E-04-9.31124E-15
 -1      1983 4.80159E-03 5.81728E-04-1.12337E-14
 -1      1984 4.65415E-03 5.86704E-04-1.05718E-14
 -1      1985 4.63663E-03 5.60737E-04-1.05822E-14
 -1      1986 5.09960E-03 5.71624E-04-1.26055E-14
 -1      1987 4.95002E-03 5.76649E-04-1.19121E-14
 -1      1988 4.93144E-03 5.50404E-04-1.19206E-14
 -1      1989 5.40256E-03 5.62173E-04-1.40361E-14
 -1      1990 5.25038E-03 5.66723E-04-1.33136E-14
 -1      1991 5.23016E-03 5.40075E-04-1.33200E-14
 -1      1992 5.71153E-03 5.54883E-04-1.55257E-14
 -1      1993 5.55620E-03 5.58120E-04-1.47737E-14
 -1      1994 5.53362E-03 5.30887E-04-1.47793E-14
 -1      1995 6.02764E-03 5.52118E-04-1.70707E-14
 -1      1996 5.86858E-03 5.52737E-04-1.62920E-14
 -1      1997 5.84277E-03 5.24661E-04-1.62960E-14
 -1      1998 6.35202E-03 5.57461E-04-1.86684E-14
 -1      1999 6.18869E-03 5.53502E-04-1.78625E-14
 -1      2000 6.15863E-03 5.24218E-04-1.78675E-14
 -1      2001 6.68559E-03 5.76084E-04-2.03181E-14
 -1      2002 6.51759E-03 5.64752E-04-1.94882E-14
 -1      2003 6.48224E-03 5.33761E-04-1.94922E-14
 -1      2004 7.02870E-03 6.14953E-04-2.20162E-14
 -1      2005 6.85598E-03 5.92556E-04-2.11617E-14
 -1      2006 6.81450E-03 5.59217E-04-2.11670E-14
 -1      2007 7.38069E-03 6.82390E-04-2.37594E-14
 -1      2008 7.20378E-03 6.44677E-04-2.28806E-14
 -1      2009 7.15601E-03 6.08282E-04-2.28861E-14
 -1      2010 7.73919E-03 7.86160E-04-2.55511E-14
 -1      2011 7.55958E-03 7.29525E-04-2.46491E-14
 -1      2012 7.50657E-03 6.89575E-04-2.46535E-14
 -1      2013 8.09948E-03 9.29008E-04-2.73924E-14
 -1      2014 7.91986E-03 8.53096E-04-2.64650E-14
 -1      2015 7.86443E-03 8.09920E-04-2.64692E-14
 -1      2016 8.45422E-03 1.10150E-03-2.92857E-14
 -1      2017 8.27840E-03 1.01302E-03-2.83329E-14
 -1      2018 8.22497E-03 9.68588E-04-2.83359E-14
 -1      2019 8.79557E-03 1.27501E-03-3.12328E-14
 -1      2020 8.62712E-03 1.19056E-03-3.02531E-14
 -1      2021 8.58054E-03 1.14874E-03-3.02542E-14
 -1      2022 9.11980E-03 1.40596E-03-3.32415E-14
 -1      2023 8.95935E-03 1.34852E-03-3.22294E-14
 -1      2024 8.92263E-03 1.31333E-03-3.22299E-14
 -1      2025 9.43358E-03 1.45354E-03-3.53092E-14
 -1      2026 9.27653E-03 1.44112E-03-3.42676E-14
 -1      2027 9.24970E-03 1.41366E-03-3.42660E-14
 -1      2028 9.75114E-03 1.40801E-03-3.74355E-14
 -1      2029 9.59041E-03 1.44097E-03-3.63646E-14
 -1      2030 9.57208E-03 1.41796E-03-3.63620E-14
 -1      2031 1.00836E-02 1.29706E-03-3.96136E-14
 -1      2032 9.91492E-03 1.35789E-03-3.85188E-14
 -1      2033 9.90422E-03 1.33475E-03-3.85141E-14
 -1      2034 1.04324E-02 1.16632E-03-4.18362E-14
 -1      2035 1.02564E-02 1.23169E-03-4.07206E-14
 -1      2036 1.02521E-02 1.20579E-03-4.07154E-14
 -1      2037 1.07908E-02 1.05360E-03-4.41011E-14
 -1      2038 1.06112E-02 1.10650E-03-4.29630E-14
 -1      2039 1.06106E-02 1.07782E-03-4.29608E-14
 -1      2040 1.11508E-02 9.77148E-04-4.64065E-14
 -1      2041 1.09713E-02 1.01067E-03-4.52483E-14
 -1      2042 1.09708E-02 9.80252E-04-4.52460E-14
 -1      2043 1.15063E-02 9.39376E-04-4.87520E-14
 -1      2044 1.13296E-02 9.53817E-04-4.75742E-14
 -1      2045 1.13260E-02 9.22518E-04-4.75697E-14
 -1      2046 1.18538E-02 9.34247E-04-5.11336E-14
 -1      2047 1.16813E-02 9.33267E-04-4.99390E-14
 -1      2048 1.16730E-02 9.01630E-04-4.99296E-14
 -1      2049 1.21919E-02 9.53311E-04-5.35504E-14
 -1      2050 1.20241E-02 9.41239E-04-5.23365E-14
 -1      2051 1.20107E-02 9.09572E-04-5.23236E-14
 -1      2052 1.25204E-02 9.88767E-04-5.60066E-14
 -1      2053 1.23573E-02 9.69362E-04-5.47750E-14
 -1      2054 1.23393E-02 9.37853E-04-5.47576E-14
 -1      2055 1.28402E-02 1.03449E-03-5.84868E-14
 -1      2056 1.26814E-02 1.01061E-03-5.72434E-14
 -1      2057 1.26595E-02 9.79374E-04-5.72246E-14
 -1      2058 1.31522E-02 1.08607E-03-6.09909E-14
 -1      2059 1.29971E-02 1.05972E-03-5.97356E-14
 -1      2060 1.29723E-02 1.02883E-03-5.97166E-14
 -1      2061 1.34577E-02 1.14049E-03-6.35036E-14
 -1      2062 1.33057E-02 1.11304E-03-6.22464E-14
 -1      2063 1.32788E-02 1.08253E-03-6.22251E-14
 -1      2064 1.37578E-02 1.19575E-03-6.60359E-14
 -1      2065 1.36083E-02 1.16809E-03-6.47698E-14
 -1      2066 1.35801E-02 1.13795E-03-6.47510E-14
 -1      2067 1.40536E-02 1.25051E-03-6.85906E-14
 -1      2068 1.39061E-02 1.22324E-03-6.73095E-14
 -1      2069 1.38771E-02 1.19346E-03-6.72935E-14
 -1      2070 1.43459E-02 1.30389E-03-7.11773E-14
 -1      2071 1.42001E-02 1.27740E-03-6.98758E-14
 -1      2072 1.41706E-02 1.24797E-03-6.98629E-14
 -1      2073 1.46357E-02 1.35529E-03-7.37978E-14
 -1      2074 1.44911E-02 1.32986E-03-7.24845E-14
 -1      2075 1.44614E-02 1.30075E-03-7.24687E-14
 -1      2076 1.49235E-02 1.40437E-03-7.64448E-14
 -1      2077 1.47798E-02 1.38013E-03-7.51191E-14
 -1      2078 1.47501E-02 1.35132E-03-7.51052E-14
 -1      2079 1.51576E-02 1.43994E-03-7.86521E-14
 -1      2080 1.50144E-02 1.41668E-03-7.73195E-14
 -1      2081 1.49848E-02 1.38810E-03-7.73062E-14
 -1      2082 1.51664E-02 1.41218E-03-7.90581E-14
 -1      2083 1.50224E-02 1.17881E-03-7.99804E-14
 -1      2084 1.50418E-02 1.21894E-03-7.97663E-14
 -1      2085 1.50613E-02 1.25949E-03-7.95504E-14
 -1      2086 1.50812E-02 1.30038E-03-7.93348E-14
 -1      2087 1.49281E-02 1.21895E-03-7.85021E-14
 -1      2088 1.51130E-02 1.33533E-03-7.93082E-14
 -1      2089 1.51338E-02 1.37682E-03-7.90857E-14
 -1      2090 1.50431E-02 1.36484E-03-7.82094E-14
 -1      2091 1.49791E-02 1.29452E-03-7.82613E-14
 -1      2092 1.49844E-02 1.10099E-03-8.03912E-14
 -1      2093 1.50034E-02 1.13972E-03-8.01832E-14
 -1      2094 1.48900E-02 1.13939E-03-7.89204E-14
 -1      2095 1.49447E-02 1.02321E-03-8.08162E-14
 -1      2096 1.49647E-02 1.06195E-03-8.06036E-14
 -1      2097 1.48519E-02 1.06130E-03-7.93347E-14
 -1      2098 1.49031E-02 9.46469E-04-8.12466E-14
 -1      2099 1.49242E-02 9.84746E-04-8.10306E-14
 -1      2100 1.48121E-02 9.83813E-04-7.97570E-14
 -1      2101 1.48589E-02 8.70310E-04-8.16783E-14
 -1      2102 1.48814E-02 9.08365E-04-8.14603E-14
 -1      2103 1.47700E-02 9.07219E-04-8.01809E-14
 -1      2104 1.48118E-02 7.94194E-04-8.21087E-14
 -1      2105 1.48357E-02 8.32296E-04-8.18952E-14
 -1      2106 1.47251E-02 8.31033E-04-8.06080E-14
 -1      2107 1.47619E-02 7.17590E-04-8.25329E-14
 -1      2108 1.47871E-02 7.55997E-04-8.23205E-14
 -1      2109 1.46771E-02 7.54735E-04-8.10302E-14
 -1      2110 1.47108E-02 6.41363E-04-8.29441E-14
 -1      2111 1.47365E-02 6.79622E-04-8.27399E-14
 -1      2112 1.46269E-02 6.78488E-04-8.14431E-14
 -1      2113 1.46574E-02 5.62558E-04-8.33559E-14
 -1      2114 1.46842E-02 6.02137E-04-8.31512E-14
 -1      2115 1.45747E-02 6.01244E-04-8.18480E-14
 -1      2116 1.46038E-02 4.82309E-04-8.37529E-14
 -1      2117 1.46306E-02 5.22613E-04-8.35552E-14
 -1      2118 1.45209E-02 5.22046E-04-8.22468E-14
 -1      2119 1.45511E-02 4.00616E-04-8.41319E-14
 -1      2120 1.45773E-02 4.41627E-04-8.39446E-14
 -1      2121 1.44671E-02 4.41414E-04-8.26328E-14
 -1      2122 1.11439E-02 4.80353E-04-4.23830E-14
 -1      2123 1.12816E-02 4.34047E-04-4.26635E-14
 -1      2124 1.14821E-02 3.41645E-04-4.33277E-14
 -1      2125 1.14674E-02 3.21030E-04-4.33505E-14
 -1      2126 1.13788E-02 3.97398E-04-4.29274E-14
 -1      2127 1.14471E-02 3.71352E-04-4.31934E-14
 -1      2128 1.13354E-02 4.02961E-04-4.33079E-14
 -1      2129 1.07391E-02 6.72479E-04-4.11038E-14
 -1      2130 1.09223E-02 5.78333E-04-4.17057E-14
 -1      2131 1.10062E-02 1.45433E-04-4.30281E-14
 -1      2132 1.08768E-02 9.45111E-05-4.28785E-14
 -1      2133 1.10775E-02 2.04892E-04-4.36248E-14
 -1      2134 1.03544E-02 8.77833E-04-3.99448E-14
 -1      2135 1.05432E-02 7.74494E-04-4.05131E-14
 -1      2136 1.14353E-02 3.02934E-04-4.33777E-14
 -1      2137 1.13817E-02 2.85324E-04-4.34061E-14
 -1      2138 1.14630E-02 3.26831E-04-4.38705E-14
 -1      2139 3.27197E-04-8.89773E-05-1.52168E-16
 -1      2140 3.29266E-04-1.02122E-04-1.49362E-16
 -1      2141 4.46320E-04-1.45042E-04-2.18047E-16
 -1      2142 4.40109E-04-1.09888E-04-2.25202E-16
 -1      2143 9.57971E-03 1.24975E-03-3.71861E-14
 -1      2144 9.75149E-03 1.18370E-03-3.78832E-14
 -1      2145 9.20683E-03 1.28235E-03-3.56099E-14
 -1      2146 9.35971E-03 1.29093E-03-3.62494E-14
 -1      2147 8.89418E-03 1.18391E-03-3.43802E-14
 -1      2148 9.04925E-03 1.24736E-03-3.49917E-14
 -1      2149 9.13559E-03 1.27607E-03-3.51215E-14
 -1      2150 8.49018E-03 9.68862E-04-3.31681E-14
 -1      2151 8.67205E-03 1.07533E-03-3.36796E-14
 -1      2152 8.08982E-03 7.29242E-04-3.21945E-14
 -1      2153 8.28150E-03 8.46371E-04-3.26366E-14
 -1      2154 7.64449E-03 5.02706E-04-3.15064E-14
 -1      2155 7.84049E-03 5.97678E-04-3.17787E-14
 -1      2156 7.29621E-03 3.48875E-04-3.10432E-14
 -1      2157 7.45580E-03 4.18025E-04-3.12694E-14
 -1      2158 7.03779E-03 2.48114E-04-3.07448E-14
 -1      2159 7.13847E-03 2.80593E-04-3.07950E-14
 -1      2160 6.93767E-03 1.99477E-04-3.06921E-14
 -1      2161 6.96928E-03 2.18674E-04-3.07166E-14
 -1      2162 6.99826E-03 2.17196E-04-3.02491E-14
 -1      2163 7.01765E-03 1.50689E-04-3.11327E-14
 -1      2164 6.95690E-03 1.73550E-04-3.08986E-14
 -1      2165 7.24420E-03 7.49184E-05-3.16090E-14
 -1      2166 7.11487E-03 1.16524E-04-3.13427E-14
 -1      2167 7.61761E-03-7.68556E-05-3.25012E-14
 -1      2168 7.43053E-03 2.32606E-06-3.20576E-14
 -1      2169 8.06202E-03-2.94848E-04-3.36692E-14
 -1      2170 7.85548E-03-1.85596E-04-3.30726E-14
 -1      2171 8.48613E-03-5.23806E-04-3.52113E-14
 -1      2172 8.30462E-03-4.26861E-04-3.45316E-14
 -1      2173 8.82400E-03-6.56454E-04-3.65152E-14
 -1      2174 8.66452E-03-5.99973E-04-3.58749E-14
 -1      2175 9.15839E-03-6.96641E-04-3.79591E-14
 -1      2176 9.00542E-03-6.91803E-04-3.72735E-14
 -1      2177 9.52264E-03-6.00050E-04-3.94196E-14
 -1      2178 9.35978E-03-6.59346E-04-3.87948E-14
 -1      2179 9.87656E-03-4.22141E-04-4.06989E-14
 -1      2180 9.70885E-03-5.13594E-04-4.01629E-14
 -1      2181 1.02363E-02-2.20397E-04-4.16799E-14
 -1      2182 1.00545E-02-3.26477E-04-4.11893E-14
 -1      2183 9.92914E-03-3.70596E-04-4.12774E-14
 -1      2184 1.06580E-02-2.94790E-06-4.25432E-14
 -1      2185 1.04792E-02-9.43068E-05-4.21888E-14
 -1      2186 9.96035E-03 1.08647E-03-3.86853E-14
 -1      2187 1.01443E-02 9.86937E-04-3.93103E-14
 -1      2188 1.06195E-02 7.11604E-04-4.10859E-14
 -1      2189 1.13232E-02 2.82909E-04-4.38379E-14
 -1      2190 6.07461E-04-2.97927E-04-2.49597E-16
 -1      2191 6.63247E-04-2.92175E-04-3.24705E-16
 -1      2192 1.14754E-02 3.56103E-04-4.37086E-14
 -1      2193 1.09279E-02 5.52227E-04-4.23360E-14
 -1      2194 1.10347E-02 5.12421E-04-4.23605E-14
 -1      2195 1.11373E-02 4.67445E-04-4.30193E-14
 -1      2196 1.44886E-02 3.60512E-04-8.38699E-14
 -1      2197 1.07619E-02 7.31140E-05-4.31332E-14
 -1      2198 9.85436E-03 1.13630E-03-3.84126E-14
 -1      2199 1.03193E-02-1.48491E-04-4.22827E-14
 -1      2200 9.60298E-03-5.57221E-04-4.00386E-14
 -1      2201 9.24755E-03-6.91325E-04-3.84549E-14
 -1      2202 9.15719E-03-7.07892E-04-3.81160E-14
 -1      2203 9.32400E-03-6.72276E-04-3.89531E-14
 -1      2204 8.91335E-03-6.83842E-04-3.68608E-14
 -1      2205 8.59257E-03-5.67190E-04-3.54422E-14
 -1      2206 8.20015E-03-3.58606E-04-3.39180E-14
 -1      2207 8.09385E-03-2.98388E-04-3.33103E-14
 -1      2208 8.31479E-03-4.21876E-04-3.41658E-14
 -1      2209 7.74427E-03-1.21107E-04-3.24951E-14
 -1      2210 7.33293E-03 5.33223E-05-3.14852E-14
 -1      2211 6.93255E-03 1.85603E-04-3.04248E-14
 -1      2212 6.92533E-03 1.87086E-04-2.99531E-14
 -1      2213 6.94198E-03 1.77298E-04-3.01554E-14
 -1      2214 7.21735E-03 2.90383E-04-3.05228E-14
 -1      2215 7.56248E-03 4.32685E-04-3.10046E-14
 -1      2216 7.98222E-03 6.44189E-04-3.16504E-14
 -1      2217 8.80556E-03 1.13574E-03-3.38086E-14
 -1      2218 1.02348E-02 9.23718E-04-3.98554E-14
 -1      2219 9.36914E-03 1.30665E-03-3.61574E-14
 -1      2220 9.46060E-03 1.28781E-03-3.66702E-14
 -1      2221 9.55069E-03 1.26958E-03-3.70933E-14
 -1      2222 8.41092E-03 8.99206E-04-3.25865E-14
 -1      2223 7.06066E-03 1.42623E-04-3.08357E-14
 -1      2224 1.01603E-03 3.99155E-04-4.31458E-16
 -1      2225 8.71632E-04 3.62967E-04-3.12101E-16
 -1      2226 5.48115E-04-5.52362E-05-3.19216E-16
 -1      2227 5.49126E-04-7.19364E-05-3.20802E-16
 -1      2228 5.50512E-04-8.92446E-05-3.21588E-16
 -1      2229 5.52340E-04-1.07211E-04-3.21642E-16
 -1      2230 6.65630E-04-9.53431E-05-4.33789E-16
 -1      2231 5.46773E-04 8.84172E-06-3.06124E-16
 -1      2232 5.46753E-04-6.97548E-06-3.10448E-16
 -1      2233 5.47510E-04 4.08149E-05-2.96028E-16
 -1      2234 5.47023E-04 2.47588E-05-3.01435E-16
 -1      2235 6.61773E-04 1.98912E-05-4.11021E-16
 -1      2236 5.49292E-04 7.34061E-05-2.82882E-16
 -1      2237 5.48255E-04 5.69280E-05-2.90011E-16
 -1      2238 6.63072E-04 5.76852E-05-3.96954E-16
 -1      2239 5.52607E-04 1.08857E-04-2.65711E-16
 -1      2240 5.50726E-04 9.07920E-05-2.74899E-16
 -1      2241 6.65873E-04 9.71027E-05-3.78617E-16
 -1      2242 5.58371E-04 1.48178E-04-2.42726E-16
 -1      2243 5.55116E-04 1.27960E-04-2.55086E-16
 -1      2244 6.70864E-04 1.39836E-04-3.54914E-16
 -1      2245 5.68539E-04 1.93763E-04-2.11555E-16
 -1      2246 5.62785E-04 1.70054E-04-2.28441E-16
 -1      2247 6.79364E-04 1.87353E-04-3.23404E-16
 -1      2248 9.14804E-04-3.45859E-04-6.01488E-16
 -1      2249 1.05885E-03-3.78955E-04-7.83580E-16
 -1      2250 1.11270E-02 2.41433E-04-4.42701E-14
 -1      2251 1.10222E-02 2.05035E-04-4.41161E-14
 -1      2252 1.30135E-03 4.55564E-04-7.34655E-16
 -1      2253 1.15909E-03 4.29917E-04-5.71944E-16
 -1      2254 1.07136E-03 3.80593E-04-5.39391E-16
 -1      2255 5.88302E-04-2.37810E-04-2.93941E-16
 -1      2256 7.81006E-04-3.04478E-04-4.61707E-16
 -1      2257 8.40546E-04-2.93184E-04-5.52726E-16
 -1      2258 5.78869E-04-2.10027E-04-3.05677E-16
 -1      2259 1.20207E-03-4.07083E-04-9.90405E-16
 -1      2260 1.34484E-03-4.30644E-04-1.22202E-15
 -1      2261 1.11670E-03-3.59670E-04-9.01243E-16
 -1      2262 1.48699E-03-4.50490E-04-1.47789E-15
 -1      2263 1.62875E-03-4.66892E-04-1.75825E-15
 -1      2264 1.40299E-03-4.05820E-04-1.36563E-15
 -1      2265 1.77018E-03-4.80512E-04-2.06232E-15
 -1      2266 1.91137E-03-4.91561E-04-2.38950E-15
 -1      2267 1.68812E-03-4.38188E-04-1.92569E-15
 -1      2268 2.05244E-03-5.00521E-04-2.73974E-15
 -1      2269 2.19343E-03-5.07560E-04-3.11316E-15
 -1      2270 1.97237E-03-4.60059E-04-2.57909E-15
 -1      2271 2.33444E-03-5.13025E-04-3.50861E-15
 -1      2272 2.47547E-03-5.17052E-04-3.92633E-15
 -1      2273 2.25614E-03-4.74003E-04-3.32317E-15
 -1      2274 2.61661E-03-5.19889E-04-4.36549E-15
 -1      2275 2.75786E-03-5.21645E-04-4.82581E-15
 -1      2276 2.53981E-03-4.81970E-04-4.15512E-15
 -1      2277 2.89927E-03-5.22492E-04-5.30717E-15
 -1      2278 3.04086E-03-5.22517E-04-5.80906E-15
 -1      2279 2.82365E-03-4.85422E-04-5.07233E-15
 -1      2280 3.18265E-03-5.21841E-04-6.33078E-15
 -1      2281 3.32466E-03-5.20530E-04-6.87278E-15
 -1      2282 3.10786E-03-4.85431E-04-6.07169E-15
 -1      2283 3.46691E-03-5.18668E-04-7.43424E-15
 -1      2284 3.60942E-03-5.16309E-04-8.01532E-15
 -1      2285 3.39261E-03-4.82781E-04-7.15091E-15
 -1      2286 3.75220E-03-5.13513E-04-8.61552E-15
 -1      2287 3.89529E-03-5.10327E-04-9.23382E-15
 -1      2288 3.67803E-03-4.78039E-04-8.30819E-15
 -1      2289 4.03869E-03-5.06799E-04-9.87052E-15
 -1      2290 4.18244E-03-5.02977E-04-1.05262E-14
 -1      2291 3.96425E-03-4.71640E-04-9.54032E-15
 -1      2292 4.32655E-03-4.98911E-04-1.12000E-14
 -1      2293 4.47108E-03-4.94656E-04-1.18897E-14
 -1      2294 4.25144E-03-4.63953E-04-1.08455E-14
 -1      2295 4.61602E-03-4.90278E-04-1.25952E-14
 -1      2296 4.76146E-03-4.85848E-04-1.33186E-14
 -1      2297 4.53976E-03-4.55369E-04-1.22205E-14
 -1      2298 4.90738E-03-4.81464E-04-1.40562E-14
 -1      2299 5.05388E-03-4.77224E-04-1.48083E-14
 -1      2300 4.82946E-03-4.46379E-04-1.36592E-14
 -1      2301 5.20097E-03-4.73271E-04-1.55766E-14
 -1      2302 5.34874E-03-4.69743E-04-1.63599E-14
 -1      2303 5.12083E-03-4.37673E-04-1.51601E-14
 -1      2304 5.49720E-03-4.66844E-04-1.71574E-14
 -1      2305 5.64645E-03-4.64765E-04-1.79683E-14
 -1      2306 5.41428E-03-4.30245E-04-1.67205E-14
 -1      2307 5.79654E-03-4.63780E-04-1.87932E-14
 -1      2308 5.94753E-03-4.64144E-04-1.96339E-14
 -1      2309 5.71032E-03-4.25500E-04-1.83383E-14
 -1      2310 6.09952E-03-4.66202E-04-2.04881E-14
 -1      2311 6.25252E-03-4.70280E-04-2.13557E-14
 -1      2312 6.00961E-03-4.25346E-04-2.00127E-14
 -1      2313 6.40669E-03-4.76765E-04-2.22384E-14
 -1      2314 6.56193E-03-4.86045E-04-2.31352E-14
 -1      2315 6.31297E-03-4.32249E-04-2.17447E-14
 -1      2316 6.71851E-03-4.98489E-04-2.40462E-14
 -1      2317 6.87613E-03-5.14496E-04-2.49701E-14
 -1      2318 6.62136E-03-4.49176E-04-2.35334E-14
 -1      2319 7.03514E-03-5.34307E-04-2.59089E-14
 -1      2320 7.19500E-03-5.58205E-04-2.68622E-14
 -1      2321 6.93564E-03-4.79320E-04-2.53785E-14
 -1      2322 7.35606E-03-5.86133E-04-2.78279E-14
 -1      2323 7.51750E-03-6.18023E-04-2.88068E-14
 -1      2324 7.25618E-03-5.25433E-04-2.72792E-14
 -1      2325 7.67956E-03-6.53317E-04-2.97976E-14
 -1      2326 7.84117E-03-6.91224E-04-3.08018E-14
 -1      2327 7.58215E-03-5.88497E-04-2.92311E-14
 -1      2328 8.00236E-03-7.30514E-04-3.18168E-14
 -1      2329 8.16216E-03-7.69402E-04-3.28439E-14
 -1      2330 7.91065E-03-6.65508E-04-3.12318E-14
 -1      2331 8.32030E-03-8.05985E-04-3.38840E-14
 -1      2332 8.47646E-03-8.37599E-04-3.49365E-14
 -1      2333 8.23679E-03-7.46821E-04-3.32822E-14
 -1      2334 8.63017E-03-8.62064E-04-3.60010E-14
 -1      2335 8.78241E-03-8.76810E-04-3.70757E-14
 -1      2336 8.55545E-03-8.14984E-04-3.53822E-14
 -1      2337 8.93261E-03-8.80332E-04-3.81616E-14
 -1      2338 9.08286E-03-8.71185E-04-3.92585E-14
 -1      2339 8.86498E-03-8.48409E-04-3.75278E-14
 -1      2340 9.23270E-03-8.49234E-04-4.03645E-14
 -1      2341 9.38430E-03-8.15431E-04-4.14810E-14
 -1      2342 9.16979E-03-8.30567E-04-3.97148E-14
 -1      2343 9.53713E-03-7.71072E-04-4.26039E-14
 -1      2344 9.69242E-03-7.18618E-04-4.37365E-14
 -1      2345 9.47783E-03-7.59592E-04-4.19405E-14
 -1      2346 9.84968E-03-6.60150E-04-4.48791E-14
 -1      2347 1.00088E-02-5.98447E-04-4.60278E-14
 -1      2348 9.79454E-03-6.49708E-04-4.42042E-14
 -1      2349 1.01695E-02-5.35517E-04-4.71835E-14
 -1      2350 1.03309E-02-4.73349E-04-4.83479E-14
 -1      2351 1.01195E-02-5.22327E-04-4.64992E-14
 -1      2352 1.04930E-02-4.13307E-04-4.95201E-14
 -1      2353 1.06545E-02-3.56383E-04-5.07007E-14
 -1      2354 1.04479E-02-3.96315E-04-4.88243E-14
 -1      2355 1.08159E-02-3.03255E-04-5.18912E-14
 -1      2356 1.09761E-02-2.54100E-04-5.30885E-14
 -1      2357 1.07747E-02-2.82865E-04-5.11831E-14
 -1      2358 1.11355E-02-2.09060E-04-5.42951E-14
 -1      2359 1.12935E-02-1.67895E-04-5.55106E-14
 -1      2360 1.10964E-02-1.86119E-04-5.35768E-14
 -1      2361 1.14505E-02-1.30406E-04-5.67354E-14
 -1      2362 1.16062E-02-9.61988E-05-5.79679E-14
 -1      2363 1.14118E-02-1.05671E-04-5.60031E-14
 -1      2364 1.17608E-02-6.49137E-05-5.92094E-14
 -1      2365 1.19141E-02-3.61484E-05-6.04591E-14
 -1      2366 1.17213E-02-3.89625E-05-5.84662E-14
 -1      2367 1.20665E-02-9.50376E-06-6.17154E-14
 -1      2368 1.22178E-02 1.53676E-05-6.29810E-14
 -1      2369 1.20255E-02 1.72293E-05-6.09626E-14
 -1      2370 1.23682E-02 3.88333E-05-6.42567E-14
 -1      2371 1.25177E-02 6.11705E-05-6.55442E-14
 -1      2372 1.23255E-02 6.60094E-05-6.34920E-14
 -1      2373 1.26664E-02 8.26844E-05-6.68428E-14
 -1      2374 1.28144E-02 1.03587E-04-6.81518E-14
 -1      2375 1.26220E-02 1.10030E-04-6.60609E-14
 -1      2376 1.29617E-02 1.24114E-04-6.94732E-14
 -1      2377 1.31084E-02 1.44425E-04-7.08078E-14
 -1      2378 1.29159E-02 1.51404E-04-6.86747E-14
 -1      2379 1.32545E-02 1.64694E-04-7.21507E-14
 -1      2380 1.34002E-02 1.85041E-04-7.35038E-14
 -1      2381 1.32076E-02 1.91744E-04-7.13345E-14
 -1      2382 1.35454E-02 2.05589E-04-7.48689E-14
 -1      2383 1.36901E-02 2.26433E-04-7.62414E-14
 -1      2384 1.34976E-02 2.32239E-04-7.40373E-14
 -1      2385 1.38345E-02 2.47655E-04-7.76227E-14
 -1      2386 1.39786E-02 2.69327E-04-7.90098E-14
 -1      2387 1.37863E-02 2.73772E-04-7.67776E-14
 -1      2388 1.13073E-02 4.09919E-04-4.38528E-14
 -1      2389 1.13940E-02 3.86731E-04-4.41199E-14
 -1      2390 1.86439E-03 5.22250E-04-1.60719E-15
 -1      2391 1.72417E-03 5.10067E-04-1.35607E-15
 -1      2392 2.14452E-03 5.40112E-04-2.17559E-15
 -1      2393 2.00449E-03 5.32206E-04-1.88035E-15
 -1      2394 1.92405E-03 4.91348E-04-1.80741E-15
 -1      2395 2.42478E-03 5.51032E-04-2.83073E-15
 -1      2396 2.28462E-03 5.46338E-04-2.49227E-15
 -1      2397 2.20626E-03 5.07089E-04-2.40453E-15
 -1      2398 2.70561E-03 5.56717E-04-3.57171E-15
 -1      2399 2.56511E-03 5.54452E-04-3.19074E-15
 -1      2400 2.48846E-03 5.16405E-04-3.08733E-15
 -1      2401 2.98732E-03 5.58412E-04-4.39979E-15
 -1      2402 2.84635E-03 5.58005E-04-3.97463E-15
 -1      2403 2.77101E-03 5.20861E-04-3.85609E-15
 -1      2404 3.27010E-03 5.57009E-04-5.30995E-15
 -1      2405 3.12857E-03 5.58054E-04-4.84497E-15
 -1      2406 3.05416E-03 5.21599E-04-4.70957E-15
 -1      2407 3.55414E-03 5.53139E-04-6.30043E-15
 -1      2408 3.41195E-03 5.55350E-04-5.79513E-15
 -1      2409 3.33811E-03 5.19433E-04-5.64510E-15
 -1      2410 3.83961E-03 5.47243E-04-7.36970E-15
 -1      2411 3.69668E-03 5.50419E-04-6.82530E-15
 -1      2412 3.62302E-03 5.14933E-04-6.65981E-15
 -1      2413 4.12674E-03 5.39646E-04-8.51574E-15
 -1      2414 3.98295E-03 5.43635E-04-7.93289E-15
 -1      2415 3.90904E-03 5.08501E-04-7.75306E-15
 -1      2416 4.41580E-03 5.30631E-04-9.73717E-15
 -1      2417 4.27100E-03 5.35292E-04-9.11725E-15
 -1      2418 4.19636E-03 5.00436E-04-8.92198E-15
 -1      2419 4.70715E-03 5.20523E-04-1.10278E-14
 -1      2420 4.56115E-03 5.25683E-04-1.03741E-14
 -1      2421 4.48521E-03 4.91012E-04-1.01646E-14
 -1      2422 5.00123E-03 5.09797E-04-1.23845E-14
 -1      2423 4.85379E-03 5.15193E-04-1.16982E-14
 -1      2424 4.77584E-03 4.80569E-04-1.14755E-14
 -1      2425 5.29859E-03 4.99215E-04-1.38024E-14
 -1      2426 5.14943E-03 5.04422E-04-1.30864E-14
 -1      2427 5.06859E-03 4.69617E-04-1.28510E-14
 -1      2428 5.59990E-03 4.90018E-04-1.52791E-14
 -1      2429 5.44867E-03 4.94343E-04-1.45334E-14
 -1      2430 5.36388E-03 4.58984E-04-1.42867E-14
 -1      2431 5.90593E-03 4.84174E-04-1.68141E-14
 -1      2432 5.75223E-03 4.86526E-04-1.60392E-14
 -1      2433 5.66222E-03 4.50000E-04-1.57817E-14
 -1      2434 6.21762E-03 4.84704E-04-1.84028E-14
 -1      2435 6.06097E-03 4.83418E-04-1.76018E-14
 -1      2436 5.96427E-03 4.44753E-04-1.73339E-14
 -1      2437 6.53606E-03 4.96057E-04-2.00432E-14
 -1      2438 6.37590E-03 4.88702E-04-1.92169E-14
 -1      2439 6.27095E-03 4.46401E-04-1.89404E-14
 -1      2440 6.86258E-03 5.24435E-04-2.17339E-14
 -1      2441 6.69826E-03 5.07666E-04-2.08826E-14
 -1      2442 6.58364E-03 4.59531E-04-2.05980E-14
 -1      2443 7.19876E-03 5.77811E-04-2.34693E-14
 -1      2444 7.02951E-03 5.47421E-04-2.25954E-14
 -1      2445 6.90439E-03 4.90489E-04-2.23030E-14
 -1      2446 7.54599E-03 6.65039E-04-2.52520E-14
 -1      2447 7.37123E-03 6.16585E-04-2.43541E-14
 -1      2448 7.23612E-03 5.47467E-04-2.40540E-14
 -1      2449 7.90428E-03 7.93034E-04-2.70844E-14
 -1      2450 7.72432E-03 7.23618E-04-2.61628E-14
 -1      2451 7.58209E-03 6.39787E-04-2.58535E-14
 -1      2452 8.26961E-03 9.60504E-04-2.89656E-14
 -1      2453 8.08696E-03 8.72567E-04-2.80187E-14
 -1      2454 7.94376E-03 7.75421E-04-2.77012E-14
 -1      2455 8.63416E-03 1.14699E-03-3.09005E-14
 -1      2456 8.45342E-03 1.05344E-03-2.99273E-14
 -1      2457 8.31779E-03 9.52078E-04-2.95984E-14
 -1      2458 8.98455E-03 1.31000E-03-3.28931E-14
 -1      2459 8.81104E-03 1.23553E-03-3.18886E-14
 -1      2460 8.69169E-03 1.14742E-03-3.15474E-14
 -1      2461 9.31984E-03 1.39363E-03-3.49461E-14
 -1      2462 9.15226E-03 1.36473E-03-3.39118E-14
 -1      2463 9.05006E-03 1.30822E-03-3.35565E-14
 -1      2464 9.65398E-03 1.36914E-03-3.70596E-14
 -1      2465 9.48475E-03 1.39440E-03-3.59950E-14
 -1      2466 9.39395E-03 1.36901E-03-3.56277E-14
 -1      2467 1.00015E-02 1.26033E-03-3.92281E-14
 -1      2468 9.82507E-03 1.32198E-03-3.81368E-14
 -1      2469 9.74196E-03 1.31129E-03-3.77603E-14
 -1      2470 1.03639E-02 1.12009E-03-4.14453E-14
 -1      2471 1.01817E-02 1.19026E-03-4.03305E-14
 -1      2472 1.01073E-02 1.17648E-03-3.99454E-14
 -1      2473 1.07298E-02 9.96328E-04-4.37047E-14
 -1      2474 1.05476E-02 1.05435E-03-4.25696E-14
 -1      2475 1.04829E-02 1.03043E-03-4.21771E-14
 -1      2476 1.10894E-02 9.10674E-04-4.60015E-14
 -1      2477 1.09113E-02 9.48327E-04-4.48476E-14
 -1      2478 1.08532E-02 9.15539E-04-4.44484E-14
 -1      2479 1.14380E-02 8.66199E-04-4.83331E-14
 -1      2480 1.12654E-02 8.83658E-04-4.71631E-14
 -1      2481 1.12091E-02 8.44457E-04-4.67567E-14
 -1      2482 1.17753E-02 8.56456E-04-5.07026E-14
 -1      2483 1.16081E-02 8.57551E-04-4.95157E-14
 -1      2484 1.15491E-02 8.13938E-04-4.90989E-14
 -1      2485 1.21028E-02 8.72575E-04-5.31039E-14
 -1      2486 1.19402E-02 8.61811E-04-5.18996E-14
 -1      2487 1.18761E-02 8.15054E-04-5.14748E-14
 -1      2488 1.24219E-02 9.06389E-04-5.55463E-14
 -1      2489 1.22633E-02 8.87693E-04-5.43196E-14
 -1      2490 1.21933E-02 8.38719E-04-5.38842E-14
 -1      2491 1.27341E-02 9.51441E-04-5.80168E-14
 -1      2492 1.25787E-02 9.27823E-04-5.67781E-14
 -1      2493 1.25033E-02 8.77394E-04-5.63313E-14
 -1      2494 1.30405E-02 1.00303E-03-6.05156E-14
 -1      2495 1.28879E-02 9.76641E-04-5.92629E-14
 -1      2496 1.28079E-02 9.25382E-04-5.88099E-14
 -1      2497 1.33421E-02 1.05792E-03-6.30291E-14
 -1      2498 1.31918E-02 1.03022E-03-6.17701E-14
 -1      2499 1.31083E-02 9.78620E-04-6.13141E-14
 -1      2500 1.36397E-02 1.11391E-03-6.55617E-14
 -1      2501 1.34913E-02 1.08588E-03-6.42937E-14
 -1      2502 1.34053E-02 1.03431E-03-6.38350E-14
 -1      2503 1.39341E-02 1.16959E-03-6.81178E-14
 -1      2504 1.37873E-02 1.14186E-03-6.68375E-14
 -1      2505 1.36995E-02 1.09059E-03-6.63768E-14
 -1      2506 1.42258E-02 1.22399E-03-7.06997E-14
 -1      2507 1.40802E-02 1.19700E-03-6.94051E-14
 -1      2508 1.39914E-02 1.14620E-03-6.89425E-14
 -1      2509 1.45155E-02 1.27648E-03-7.33178E-14
 -1      2510 1.43709E-02 1.25051E-03-7.20034E-14
 -1      2511 1.42814E-02 1.20034E-03-7.15390E-14
 -1      2512 1.48034E-02 1.32664E-03-7.59610E-14
 -1      2513 1.46596E-02 1.30187E-03-7.46356E-14
 -1      2514 1.45699E-02 1.25242E-03-7.41662E-14
 -1      2515 1.49523E-02 1.35260E-03-7.73337E-14
 -1      2516 1.47195E-02 1.02127E-03-7.82800E-14
 -1      2517 1.47388E-02 1.06025E-03-7.80699E-14
 -1      2518 1.46795E-02 9.44172E-04-7.86977E-14
 -1      2519 1.46998E-02 9.82604E-04-7.84878E-14
 -1      2520 1.45874E-02 9.81044E-04-7.72258E-14
 -1      2521 1.47951E-02 1.17800E-03-7.74479E-14
 -1      2522 1.48142E-02 1.21848E-03-7.72336E-14
 -1      2523 1.47577E-02 1.09923E-03-7.78616E-14
 -1      2524 1.47763E-02 1.13825E-03-7.76583E-14
 -1      2525 1.46625E-02 1.13702E-03-7.63960E-14
 -1      2526 1.46255E-02 1.05845E-03-7.68114E-14
 -1      2527 1.46369E-02 8.67842E-04-7.91168E-14
 -1      2528 1.46586E-02 9.05954E-04-7.89077E-14
 -1      2529 1.45472E-02 9.04451E-04-7.76396E-14
 -1      2530 1.45912E-02 7.91768E-04-7.95390E-14
 -1      2531 1.46145E-02 8.29819E-04-7.93287E-14
 -1      2532 1.45039E-02 8.28505E-04-7.80559E-14
 -1      2533 1.45424E-02 7.15430E-04-7.99513E-14
 -1      2534 1.45672E-02 7.53676E-04-7.97447E-14
 -1      2535 1.44574E-02 7.52661E-04-7.84662E-14
 -1      2536 1.44918E-02 6.39669E-04-8.03521E-14
 -1      2537 1.45174E-02 6.77673E-04-8.01542E-14
 -1      2538 1.44081E-02 6.77034E-04-7.88679E-14
 -1      2539 1.44384E-02 5.61497E-04-8.07512E-14
 -1      2540 1.44653E-02 6.00747E-04-8.05523E-14
 -1      2541 1.43562E-02 6.00529E-04-7.92624E-14
 -1      2542 1.43841E-02 4.81953E-04-8.11373E-14
 -1      2543 1.44113E-02 5.21908E-04-8.09445E-14
 -1      2544 1.43020E-02 5.22122E-04-7.96483E-14
 -1      2545 1.43301E-02 4.00933E-04-8.15153E-14
 -1      2546 1.43570E-02 4.41626E-04-8.13261E-14
 -1      2547 1.42472E-02 4.42230E-04-8.00264E-14
 -1      2548 1.43615E-02 3.40971E-04-8.26014E-14
 -1      2549 1.08393E-02 1.29504E-04-4.37718E-14
 -1      2550 1.06391E-02 3.91137E-05-4.34306E-14
 -1      2551 1.09135E-02 1.68492E-04-4.44142E-14
 -1      2552 1.58368E-03 4.95123E-04-1.12685E-15
 -1      2553 1.44278E-03 4.77212E-04-9.19620E-16
 -1      2554 1.64129E-03 4.67064E-04-1.29692E-15
 -1      2555 1.13870E-02 3.15810E-04-4.45418E-14
 -1      2556 1.12697E-02 2.87752E-04-4.44796E-14
 -1      2557 9.65308E-03-5.22967E-04-4.05704E-14
 -1      2558 9.49634E-03-6.06912E-04-3.98238E-14
 -1      2559 7.15414E-03 2.53026E-04-2.99619E-14
 -1      2560 7.30686E-03 3.04651E-04-3.02067E-14
 -1      2561 1.14704E-02 3.34931E-04-4.44885E-14
 -1      2562 1.14362E-02 3.28118E-04-4.45146E-14
 -1      2563 1.14035E-02 3.26864E-04-4.51578E-14
 -1      2564 5.46959E-04-2.28751E-05-3.13917E-16
 -1      2565 5.47404E-04-3.88964E-05-3.16831E-16
 -1      2566 6.62918E-04-5.57227E-05-4.29452E-16
 -1      2567 6.61718E-04-1.76775E-05-4.21782E-16
 -1      2568 1.14658E-02 3.63784E-04-4.42577E-14
 -1      2569 1.14973E-02 3.52286E-04-4.43930E-14
 -1      2570 1.14559E-02 3.77771E-04-4.48042E-14
 -1      2571 1.01640E-02 9.64635E-04-3.98711E-14
 -1      2572 1.03392E-02 8.58102E-04-4.05111E-14
 -1      2573 9.07837E-03 1.26296E-03-3.46657E-14
 -1      2574 9.20195E-03 1.29819E-03-3.52791E-14
 -1      2575 7.09227E-03 1.35886E-04-3.04640E-14
 -1      2576 7.00453E-03 1.57133E-04-3.02608E-14
 -1      2577 8.71476E-03 1.07831E-03-3.31012E-14
 -1      2578 8.89342E-03 1.18362E-03-3.37918E-14
 -1      2579 7.86838E-03 5.58973E-04-3.09952E-14
 -1      2580 8.08732E-03 6.84347E-04-3.14020E-14
 -1      2581 7.47540E-03 3.71814E-04-3.04250E-14
 -1      2582 7.64668E-03 4.47867E-04-3.06570E-14
 -1      2583 6.96118E-03 1.99662E-04-2.97683E-14
 -1      2584 7.02674E-03 2.14065E-04-2.97965E-14
 -1      2585 7.41424E-03 2.81108E-05-3.13128E-14
 -1      2586 7.24319E-03 8.88622E-05-3.08728E-14
 -1      2587 7.82756E-03-1.60268E-04-3.23542E-14
 -1      2588 7.61984E-03-5.92139E-05-3.17916E-14
 -1      2589 8.66808E-03-6.07473E-04-3.56462E-14
 -1      2590 8.52252E-03-5.33224E-04-3.49856E-14
 -1      2591 8.97116E-03-7.06308E-04-3.71823E-14
 -1      2592 8.83099E-03-6.70922E-04-3.64258E-14
 -1      2593 1.00028E-02-3.13489E-04-4.19231E-14
 -1      2594 9.85434E-03-4.06028E-04-4.14285E-14
 -1      2595 9.76310E-03 1.19109E-03-3.81253E-14
 -1      2596 9.93625E-03 1.09684E-03-3.89315E-14
 -1      2597 7.57435E-04 3.33898E-04-2.27059E-16
 -1      2598 6.11108E-04 2.84669E-04-1.46571E-16
 -1      2599 5.84466E-04 2.57928E-04-1.55637E-16
 -1      2600 8.13362E-04 3.22510E-04-3.06897E-16
 -1      2601 8.37325E-03 8.61281E-04-3.20521E-14
 -1      2602 8.54932E-03 9.76490E-04-3.25753E-14
 -1      2603 8.64795E-03 1.04207E-03-3.25582E-14
 -1      2604 1.04246E-02-7.04432E-05-4.29812E-14
 -1      2605 1.02103E-02-1.91868E-04-4.24657E-14
 -1      2606 1.05121E-02 7.60128E-04-4.11056E-14
 -1      2607 1.06885E-02 6.66111E-04-4.17024E-14
 -1      2608 1.04373E-02 8.11981E-04-4.11217E-14
 -1      2609 1.15036E-02 3.50242E-04-4.50372E-14
 -1      2610 6.70478E-04-1.37775E-04-4.33518E-16
 -1      2611 5.54776E-04-1.26107E-04-3.20097E-16
 -1      2612 5.57882E-04-1.46086E-04-3.17170E-16
 -1      2613 5.72076E-04 2.27750E-04-1.79734E-16
 -1      2614 8.23829E-03 7.73198E-04-3.13890E-14
 -1      2615 8.35610E-03 8.59358E-04-3.13743E-14
 -1      2616 8.10363E-03 6.94722E-04-3.07342E-14
 -1      2617 1.35730E-03 4.31405E-04-8.74395E-16
 -1      2618 5.71817E-04-1.85062E-04-3.13917E-16
 -1      2619 9.65777E-03 1.24506E-03-3.76031E-14
 -1      2620 1.01257E-02-2.38394E-04-4.26190E-14
 -1      2621 9.05478E-03-7.17401E-04-3.76756E-14
 -1      2622 8.96392E-03-7.15560E-04-3.72342E-14
 -1      2623 9.12871E-03-7.17385E-04-3.81684E-14
 -1      2624 1.05287E-02-1.09003E-05-4.36160E-14
 -1      2625 1.12332E-02 4.36994E-04-4.38282E-14
 -1      2626 1.13195E-02 4.24256E-04-4.46393E-14
 -1      2627 1.11545E-02 4.70180E-04-4.38027E-14
 -1      2628 1.12269E-02 2.80448E-04-4.49724E-14
 -1      2629 1.48624E-02 1.30394E-03-7.68595E-14
 -1      2630 7.08566E-03 2.27002E-04-2.94818E-14
 -1      2631 1.48308E-02 1.26878E-03-7.68840E-14
 -1      2632 1.08218E-02 6.01834E-04-4.23557E-14
 -1      2633 1.09479E-02 5.52102E-04-4.30143E-14
 -1      2634 1.07350E-02 6.57706E-04-4.23739E-14
 -1      2635 1.42028E-02 3.01960E-04-8.12082E-14
 -1      2636 1.42820E-02 3.61561E-04-8.14285E-14
 -1      2637 1.41714E-02 3.62555E-04-8.01272E-14
 -1      2638 1.40752E-02 2.83429E-04-7.99516E-14
 -1      2639 9.74328E-03-4.72006E-04-4.12120E-14
 -1      2640 8.74353E-03-6.47644E-04-3.59621E-14
 -1      2641 7.94609E-03-2.25785E-04-3.25968E-14
 -1      2642 7.80272E-03-1.68082E-04-3.18892E-14
 -1      2643 8.05012E-03-2.93350E-04-3.28385E-14
 -1      2644 9.39462E-03-6.49786E-04-3.94798E-14
 -1      2645 7.49803E-03-1.60128E-05-3.11734E-14
 -1      2646 6.92573E-03 1.86591E-04-2.95011E-14
 -1      2647 6.93205E-03 1.85880E-04-2.90503E-14
 -1      2648 6.90340E-03 1.78762E-04-2.92333E-14
 -1      2649 7.37935E-03 3.25542E-04-2.98622E-14
 -1      2650 7.75205E-03 4.94306E-04-3.04128E-14
 -1      2651 8.40149E-03-4.77364E-04-3.43673E-14
 -1      2652 7.15289E-03 1.10858E-04-3.02944E-14
 -1      2653 6.95198E-03 1.65036E-04-2.97882E-14
 -1      2654 8.96959E-03 1.22394E-03-3.39461E-14
 -1      2655 9.29873E-03 1.31411E-03-3.56946E-14
 -1      2656 9.38716E-03 1.31853E-03-3.61111E-14
 -1      2657 9.23580E-03 1.31330E-03-3.52334E-14
 -1      2658 1.00609E-02 1.03819E-03-3.95799E-14
 -1      2659 6.89386E-04 2.51006E-04-2.66876E-16
 -1      2660 1.40267E-02 3.09013E-04-7.90975E-14
 -1      2661 1.46970E-02 1.22692E-03-7.58390E-14
 -1      2662 7.80652E-04 7.71628E-05-5.12462E-16
 -1      2663 7.79416E-04 5.53442E-05-5.22613E-16
 -1      2664 7.78585E-04 3.34790E-05-5.31544E-16
 -1      2665 7.78169E-04 1.18643E-05-5.39431E-16
 -1      2666 8.97041E-04 4.95335E-05-6.66744E-16
 -1      2667 7.91786E-04 1.72832E-04-4.56476E-16
 -1      2668 7.87852E-04 1.47442E-04-4.73349E-16
 -1      2669 8.03456E-04 2.27988E-04-4.15493E-16
 -1      2670 7.96937E-04 1.99615E-04-4.37503E-16
 -1      2671 9.15073E-04 2.07379E-04-5.70168E-16
 -1      2672 1.15303E-02 3.60662E-04-4.56233E-14
 -1      2673 1.15026E-02 3.51918E-04-4.57173E-14
 -1      2674 1.39788E-02 3.34486E-04-7.82461E-14
 -1      2675 1.40752E-02 3.48402E-04-7.91842E-14
 -1      2676 1.41238E-02 3.87493E-04-7.92704E-14
 -1      2677 1.03356E-03-3.13559E-04-8.13965E-16
 -1      2678 1.17679E-03-3.39427E-04-1.02247E-15
 -1      2679 8.02928E-04 2.77893E-04-3.56404E-16
 -1      2680 2.26909E-03 4.73432E-04-2.63727E-15
 -1      2681 2.12718E-03 4.67440E-04-2.31408E-15
 -1      2682 1.32000E-03-3.61541E-04-1.25517E-15
 -1      2683 1.46323E-03-3.80161E-04-1.51161E-15
 -1      2684 1.23841E-03-3.18051E-04-1.14714E-15
 -1      2685 1.60629E-03-3.95819E-04-1.79143E-15
 -1      2686 1.74924E-03-4.08734E-04-2.09464E-15
 -1      2687 1.52501E-03-3.53689E-04-1.65971E-15
 -1      2688 1.89204E-03-4.19366E-04-2.42063E-15
 -1      2689 2.03473E-03-4.27895E-04-2.76912E-15
 -1      2690 1.81174E-03-3.78626E-04-2.26471E-15
 -1      2691 2.17734E-03-4.34684E-04-3.14068E-15
 -1      2692 2.31988E-03-4.39879E-04-3.53363E-15
 -1      2693 2.09825E-03-3.95186E-04-2.96035E-15
 -1      2694 2.46239E-03-4.43754E-04-3.94763E-15
 -1      2695 2.60487E-03-4.46423E-04-4.38320E-15
 -1      2696 2.38452E-03-4.05308E-04-3.74332E-15
 -1      2697 2.74737E-03-4.48088E-04-4.84069E-15
 -1      2698 2.88988E-03-4.48836E-04-5.31820E-15
 -1      2699 2.67058E-03-4.10523E-04-4.61167E-15
 -1      2700 3.03244E-03-4.48814E-04-5.81525E-15
 -1      2701 3.17506E-03-4.48087E-04-6.33301E-15
 -1      2702 2.95653E-03-4.11995E-04-5.56254E-15
 -1      2703 3.31775E-03-4.46758E-04-6.87049E-15
 -1      2704 3.46051E-03-4.44877E-04-7.42760E-15
 -1      2705 3.24243E-03-4.10583E-04-6.59322E-15
 -1      2706 3.60338E-03-4.42517E-04-8.00387E-15
 -1      2707 3.74636E-03-4.39718E-04-8.59939E-15
 -1      2708 3.52837E-03-4.06911E-04-7.70296E-15
 -1      2709 3.88945E-03-4.36535E-04-9.21341E-15
 -1      2710 4.03269E-03-4.33004E-04-9.84462E-15
 -1      2711 3.81440E-03-4.01433E-04-8.88876E-15
 -1      2712 4.17608E-03-4.29174E-04-1.04948E-14
 -1      2713 4.31965E-03-4.25082E-04-1.11635E-14
 -1      2714 4.10060E-03-3.94503E-04-1.01479E-14
 -1      2715 4.46339E-03-4.20786E-04-1.18478E-14
 -1      2716 4.60738E-03-4.16331E-04-1.25488E-14
 -1      2717 4.38707E-03-3.86442E-04-1.14784E-14
 -1      2718 4.75159E-03-4.11794E-04-1.32660E-14
 -1      2719 4.89610E-03-4.07241E-04-1.39986E-14
 -1      2720 4.67393E-03-3.77611E-04-1.28759E-14
 -1      2721 5.04092E-03-4.02779E-04-1.47467E-14
 -1      2722 5.18612E-03-3.98509E-04-1.55096E-14
 -1      2723 4.96139E-03-3.68489E-04-1.43362E-14
 -1      2724 5.33174E-03-3.94581E-04-1.62877E-14
 -1      2725 5.47788E-03-3.91142E-04-1.70800E-14
 -1      2726 5.24977E-03-3.59765E-04-1.58573E-14
 -1      2727 5.62459E-03-3.88396E-04-1.78854E-14
 -1      2728 5.77200E-03-3.86559E-04-1.87059E-14
 -1      2729 5.53957E-03-3.52431E-04-1.74361E-14
 -1      2730 5.92020E-03-3.85886E-04-1.95418E-14
 -1      2731 6.06934E-03-3.86688E-04-2.03906E-14
 -1      2732 5.83154E-03-3.47886E-04-1.90733E-14
 -1      2733 6.21960E-03-3.89264E-04-2.12543E-14
 -1      2734 6.37108E-03-3.94038E-04-2.21324E-14
 -1      2735 6.12680E-03-3.48050E-04-2.07673E-14
 -1      2736 6.52409E-03-4.01326E-04-2.30237E-14
 -1      2737 6.67865E-03-4.11674E-04-2.39295E-14
 -1      2738 6.42692E-03-3.55455E-04-2.25171E-14
 -1      2739 6.83518E-03-4.25359E-04-2.48511E-14
 -1      2740 6.99352E-03-4.43004E-04-2.57853E-14
 -1      2741 6.73390E-03-3.73301E-04-2.43247E-14
 -1      2742 7.15416E-03-4.64758E-04-2.67323E-14
 -1      2743 7.31660E-03-4.91152E-04-2.76933E-14
 -1      2744 7.04987E-03-4.05352E-04-2.61893E-14
 -1      2745 7.48130E-03-5.22059E-04-2.86664E-14
 -1      2746 7.64722E-03-5.57528E-04-2.96517E-14
 -1      2747 7.37634E-03-4.55410E-04-2.81046E-14
 -1      2748 7.81461E-03-5.96974E-04-3.06508E-14
 -1      2749 7.98192E-03-6.39170E-04-3.16602E-14
 -1      2750 7.71267E-03-5.25749E-04-3.00706E-14
 -1      2751 8.14898E-03-6.82740E-04-3.26824E-14
 -1      2752 8.31430E-03-7.24888E-04-3.37176E-14
 -1      2753 8.05448E-03-6.13391E-04-3.20864E-14
 -1      2754 8.47730E-03-7.63448E-04-3.47648E-14
 -1      2755 8.63765E-03-7.94024E-04-3.58249E-14
 -1      2756 8.39335E-03-7.05163E-04-3.41500E-14
 -1      2757 8.79434E-03-8.14415E-04-3.68953E-14
 -1      2758 8.95010E-03-8.20987E-04-3.79755E-14
 -1      2759 8.72064E-03-7.75342E-04-3.62637E-14
 -1      2760 9.10414E-03-8.12455E-04-3.90671E-14
 -1      2761 9.25937E-03-7.88417E-04-4.01679E-14
 -1      2762 9.03675E-03-7.92942E-04-3.84199E-14
 -1      2763 9.41539E-03-7.49781E-04-4.12787E-14
 -1      2764 9.57465E-03-6.99683E-04-4.23995E-14
 -1      2765 9.35190E-03-7.41775E-04-4.06180E-14
 -1      2766 9.73640E-03-6.40190E-04-4.35289E-14
 -1      2767 9.90086E-03-5.75783E-04-4.46681E-14
 -1      2768 9.67679E-03-6.33159E-04-4.28560E-14
 -1      2769 1.00674E-02-5.08770E-04-4.58157E-14
 -1      2770 1.02346E-02-4.42333E-04-4.69689E-14
 -1      2771 1.00138E-02-4.96098E-04-4.51299E-14
 -1      2772 1.04022E-02-3.77963E-04-4.81290E-14
 -1      2773 1.05686E-02-3.17258E-04-4.92987E-14
 -1      2774 1.03558E-02-3.59059E-04-4.74352E-14
 -1      2775 1.07340E-02-2.60925E-04-5.04768E-14
 -1      2776 1.08972E-02-2.09078E-04-5.16643E-14
 -1      2777 1.06938E-02-2.37570E-04-4.97720E-14
 -1      2778 1.10587E-02-1.61929E-04-5.28598E-14
 -1      2779 1.12179E-02-1.18999E-04-5.40634E-14
 -1      2780 1.10224E-02-1.36328E-04-5.21425E-14
 -1      2781 1.13752E-02-8.01823E-05-5.52760E-14
 -1      2782 1.15304E-02-4.48470E-05-5.64955E-14
 -1      2783 1.13404E-02-5.37039E-05-5.45489E-14
 -1      2784 1.16841E-02-1.27289E-05-5.77237E-14
 -1      2785 1.18361E-02 1.67456E-05-5.89640E-14
 -1      2786 1.16491E-02 1.39889E-05-5.69870E-14
 -1      2787 1.19868E-02 4.38979E-05-6.02101E-14
 -1      2788 1.21364E-02 6.91818E-05-6.14643E-14
 -1      2789 1.19504E-02 7.06338E-05-5.94583E-14
 -1      2790 1.22849E-02 9.29142E-05-6.27267E-14
 -1      2791 1.24326E-02 1.15432E-04-6.39989E-14
 -1      2792 1.22466E-02 1.19612E-04-6.19636E-14
 -1      2793 1.25796E-02 1.37015E-04-6.52822E-14
 -1      2794 1.27259E-02 1.57904E-04-6.65736E-14
 -1      2795 1.25391E-02 1.63651E-04-6.45063E-14
 -1      2796 1.28717E-02 1.78328E-04-6.78806E-14
 -1      2797 1.30171E-02 1.98458E-04-6.91966E-14
 -1      2798 1.28293E-02 2.04862E-04-6.70874E-14
 -1      2799 1.31621E-02 2.18471E-04-7.05226E-14
 -1      2800 1.33067E-02 2.38489E-04-7.18598E-14
 -1      2801 1.31179E-02 2.44835E-04-6.97135E-14
 -1      2802 1.34510E-02 2.58642E-04-7.32089E-14
 -1      2803 1.35950E-02 2.79014E-04-7.45665E-14
 -1      2804 1.34054E-02 2.84744E-04-7.23858E-14
 -1      2805 1.37153E-02 2.95921E-04-7.57135E-14
 -1      2806 1.38589E-02 3.16946E-04-7.70877E-14
 -1      2807 1.39082E-02 3.55953E-04-7.71731E-14
 -1      2808 1.36688E-02 3.21680E-04-7.48749E-14
 -1      2809 9.82049E-03-4.31345E-04-4.19812E-14
 -1      2810 9.64305E-03-5.35258E-04-4.11170E-14
 -1      2811 1.98521E-03 4.59717E-04-2.01212E-15
 -1      2812 1.84312E-03 4.50104E-04-1.73169E-15
 -1      2813 2.04763E-03 4.27509E-04-2.22154E-15
 -1      2814 2.83685E-03 4.84579E-04-4.14379E-15
 -1      2815 2.69484E-03 4.83410E-04-3.73543E-15
 -1      2816 3.12118E-03 4.84466E-04-5.02267E-15
 -1      2817 2.97896E-03 4.84907E-04-4.57285E-15
 -1      2818 2.90310E-03 4.47987E-04-4.43481E-15
 -1      2819 3.40604E-03 4.81644E-04-5.98305E-15
 -1      2820 3.26354E-03 4.83360E-04-5.49306E-15
 -1      2821 3.18837E-03 4.47121E-04-5.33926E-15
 -1      2822 3.69155E-03 4.76628E-04-7.02292E-15
 -1      2823 3.54871E-03 4.79386E-04-6.49303E-15
 -1      2824 3.47388E-03 4.43745E-04-6.32502E-15
 -1      2825 3.97783E-03 4.69780E-04-8.13916E-15
 -1      2826 3.83458E-03 4.73414E-04-7.57135E-15
 -1      2827 3.75973E-03 4.38323E-04-7.38820E-15
 -1      2828 4.26502E-03 4.61380E-04-9.33115E-15
 -1      2829 4.12130E-03 4.65757E-04-8.72548E-15
 -1      2830 4.04598E-03 4.31182E-04-8.52823E-15
 -1      2831 4.55325E-03 4.51705E-04-1.05955E-14
 -1      2832 4.40898E-03 4.56683E-04-9.95491E-15
 -1      2833 4.33269E-03 4.22591E-04-9.74282E-15
 -1      2834 4.84271E-03 4.41109E-04-1.19250E-14
 -1      2835 4.69780E-03 4.46495E-04-1.12522E-14
 -1      2836 4.61993E-03 4.12827E-04-1.10279E-14
 -1      2837 5.13359E-03 4.30142E-04-1.33193E-14
 -1      2838 4.98793E-03 4.35630E-04-1.26147E-14
 -1      2839 4.90774E-03 4.02268E-04-1.23775E-14
 -1      2840 5.42616E-03 4.19686E-04-1.47734E-14
 -1      2841 5.27961E-03 4.24785E-04-1.40390E-14
 -1      2842 5.19621E-03 3.91499E-04-1.37895E-14
 -1      2843 5.72080E-03 4.11141E-04-1.62870E-14
 -1      2844 5.57316E-03 4.15072E-04-1.55226E-14
 -1      2845 5.48545E-03 3.81445E-04-1.52623E-14
 -1      2846 6.01808E-03 4.06659E-04-1.78566E-14
 -1      2847 5.86902E-03 4.08234E-04-1.70647E-14
 -1      2848 5.77571E-03 3.73537E-04-1.67937E-14
 -1      2849 6.31900E-03 4.09435E-04-1.94812E-14
 -1      2850 6.16797E-03 4.06897E-04-1.86628E-14
 -1      2851 6.06752E-03 3.69922E-04-1.83826E-14
 -1      2852 6.62529E-03 4.24049E-04-2.11540E-14
 -1      2853 6.47131E-03 4.14895E-04-2.03114E-14
 -1      2854 6.36197E-03 3.73717E-04-2.00240E-14
 -1      2855 6.93986E-03 4.56821E-04-2.28752E-14
 -1      2856 6.78133E-03 4.37615E-04-2.20092E-14
 -1      2857 6.66124E-03 3.89328E-04-2.17131E-14
 -1      2858 7.26720E-03 5.16095E-04-2.46410E-14
 -1      2859 7.10175E-03 4.82356E-04-2.37519E-14
 -1      2860 6.96927E-03 4.22904E-04-2.34484E-14
 -1      2861 7.61284E-03 6.11948E-04-2.64566E-14
 -1      2862 7.43779E-03 5.58477E-04-2.55424E-14
 -1      2863 7.29238E-03 4.83053E-04-2.52301E-14
 -1      2864 7.98103E-03 7.54308E-04-2.83174E-14
 -1      2865 7.79482E-03 6.76353E-04-2.73819E-14
 -1      2866 7.63855E-03 5.81410E-04-2.70601E-14
 -1      2867 8.38845E-03 9.26249E-04-3.06467E-14
 -1      2868 8.18960E-03 8.21357E-04-2.96797E-14
 -1      2869 8.84314E-03 1.18459E-03-3.28171E-14
 -1      2870 8.65027E-03 1.08364E-03-3.18183E-14
 -1      2871 9.03229E-03 1.26730E-03-3.38316E-14
 -1      2872 9.44886E-03 1.34270E-03-3.61665E-14
 -1      2873 9.27059E-03 1.34013E-03-3.51156E-14
 -1      2874 9.87947E-03 1.20055E-03-3.87483E-14
 -1      2875 9.68596E-03 1.27238E-03-3.76627E-14
 -1      2876 1.06106E-02 9.35780E-04-4.29109E-14
 -1      2877 1.04192E-02 1.00392E-03-4.17828E-14
 -1      2878 1.09814E-02 8.35059E-04-4.51954E-14
 -1      2879 1.07995E-02 8.79498E-04-4.40499E-14
 -1      2880 1.07497E-02 8.41090E-04-4.36471E-14
 -1      2881 1.13297E-02 7.81559E-04-4.75117E-14
 -1      2882 1.11586E-02 8.03260E-04-4.63488E-14
 -1      2883 1.11137E-02 7.59571E-04-4.59408E-14
 -1      2884 1.16589E-02 7.65828E-04-4.98633E-14
 -1      2885 1.14965E-02 7.69854E-04-4.86837E-14
 -1      2886 1.14499E-02 7.24643E-04-4.82685E-14
 -1      2887 1.19747E-02 7.77528E-04-5.22453E-14
 -1      2888 1.18182E-02 7.68917E-04-5.10502E-14
 -1      2889 1.17662E-02 7.22980E-04-5.06256E-14
 -1      2890 1.22817E-02 8.08089E-04-5.46620E-14
 -1      2891 1.21290E-02 7.90930E-04-5.34488E-14
 -1      2892 1.20702E-02 7.44130E-04-5.30148E-14
 -1      2893 1.25830E-02 8.50927E-04-5.71162E-14
 -1      2894 1.24329E-02 8.28305E-04-5.58859E-14
 -1      2895 1.23672E-02 7.80522E-04-5.54396E-14
 -1      2896 1.28806E-02 9.01237E-04-5.96031E-14
 -1      2897 1.27322E-02 8.75375E-04-5.83564E-14
 -1      2898 1.26604E-02 8.26682E-04-5.79032E-14
 -1      2899 1.31754E-02 9.55619E-04-6.21130E-14
 -1      2900 1.30282E-02 9.28074E-04-6.08558E-14
 -1      2901 1.29515E-02 8.78688E-04-6.03973E-14
 -1      2902 1.34681E-02 1.01173E-03-6.46425E-14
 -1      2903 1.33220E-02 9.83562E-04-6.33760E-14
 -1      2904 1.32413E-02 9.33756E-04-6.29150E-14
 -1      2905 1.37592E-02 1.06798E-03-6.71945E-14
 -1      2906 1.36138E-02 1.03991E-03-6.59142E-14
 -1      2907 1.35302E-02 9.89946E-04-6.54526E-14
 -1      2908 1.40488E-02 1.12332E-03-6.97722E-14
 -1      2909 1.39041E-02 1.09581E-03-6.84800E-14
 -1      2910 1.38184E-02 1.04594E-03-6.80144E-14
 -1      2911 1.43372E-02 1.17703E-03-7.23805E-14
 -1      2912 1.41931E-02 1.15041E-03-7.10726E-14
 -1      2913 1.41059E-02 1.10083E-03-7.06045E-14
 -1      2914 1.45891E-02 1.21518E-03-7.47640E-14
 -1      2915 1.44456E-02 1.18955E-03-7.34440E-14
 -1      2916 1.43577E-02 1.14047E-03-7.29726E-14
 -1      2917 1.45735E-02 1.16513E-03-7.51107E-14
 -1      2918 7.01598E-03 2.07082E-04-2.88668E-14
 -1      2919 7.13694E-03 2.38896E-04-2.90307E-14
 -1      2920 1.43711E-02 7.89305E-04-7.69898E-14
 -1      2921 1.43935E-02 8.27019E-04-7.67855E-14
 -1      2922 1.44557E-02 9.40746E-04-7.61701E-14
 -1      2923 1.44750E-02 9.79120E-04-7.59635E-14
 -1      2924 1.43236E-02 7.13778E-04-7.73903E-14
 -1      2925 1.43478E-02 7.51598E-04-7.71922E-14
 -1      2926 1.42384E-02 7.50368E-04-7.59247E-14
 -1      2927 1.44150E-02 8.64764E-04-7.65793E-14
 -1      2928 1.44357E-02 9.02664E-04-7.63751E-14
 -1      2929 1.43243E-02 9.00520E-04-7.51160E-14
 -1      2930 1.42832E-02 8.25256E-04-7.55228E-14
 -1      2931 1.42737E-02 6.38929E-04-7.77802E-14
 -1      2932 1.42991E-02 6.76469E-04-7.75855E-14
 -1      2933 1.41903E-02 6.75855E-04-7.63149E-14
 -1      2934 1.42203E-02 5.61717E-04-7.81690E-14
 -1      2935 1.42473E-02 6.00490E-04-7.79762E-14
 -1      2936 1.41388E-02 6.00520E-04-7.66987E-14
 -1      2937 1.41653E-02 4.83092E-04-7.85471E-14
 -1      2938 1.41930E-02 5.22599E-04-7.83597E-14
 -1      2939 1.40843E-02 5.23249E-04-7.70783E-14
 -1      2940 1.41514E-02 4.28027E-04-7.90859E-14
 -1      2941 1.10050E-02 2.05898E-04-4.51601E-14
 -1      2942 1.08369E-02 1.37877E-04-4.48109E-14
 -1      2943 1.70089E-03 4.38197E-04-1.47245E-15
 -1      2944 1.55842E-03 4.23799E-04-1.23516E-15
 -1      2945 1.76205E-03 4.08666E-04-1.65321E-15
 -1      2946 1.13005E-02 3.02569E-04-4.57233E-14
 -1      2947 1.11728E-02 2.65685E-04-4.55102E-14
 -1      2948 7.62709E-03 4.32933E-04-2.97467E-14
 -1      2949 7.82267E-03 5.33707E-04-3.00781E-14
 -1      2950 7.53602E-03-5.52418E-05-3.08422E-14
 -1      2951 7.36116E-03 2.11339E-05-3.03724E-14
 -1      2952 1.00749E-02 1.13867E-03-3.98183E-14
 -1      2953 1.00587E-02 1.07851E-03-3.97146E-14
 -1      2954 1.02521E-02 9.58740E-04-4.06640E-14
 -1      2955 1.02698E-02 1.05658E-03-4.09287E-14
 -1      2956 1.14460E-02 3.38300E-04-4.57086E-14
 -1      2957 1.13986E-02 3.28882E-04-4.57341E-14
 -1      2958 1.13610E-02 3.16602E-04-4.62742E-14
 -1      2959 1.15081E-02 3.52642E-04-4.62952E-14
 -1      2960 2.55288E-03 4.81247E-04-3.34834E-15
 -1      2961 2.41099E-03 4.77993E-04-2.98238E-15
 -1      2962 2.33288E-03 4.39283E-04-2.87490E-15
 -1      2963 2.61799E-03 4.45685E-04-3.61291E-15
 -1      2964 6.88589E-04-2.03764E-04-4.28802E-16
 -1      2965 7.84764E-04 1.23215E-04-4.87877E-16
 -1      2966 7.82421E-04 9.98131E-05-5.00901E-16
 -1      2967 9.00100E-04 9.91774E-05-6.41793E-16
 -1      2968 9.05742E-04 1.51217E-04-6.10338E-16
 -1      2969 7.82148E-04-9.77660E-05-5.63365E-16
 -1      2970 7.84415E-04-1.21082E-04-5.64964E-16
 -1      2971 1.14588E-02 3.90110E-04-4.53964E-14
 -1      2972 1.15120E-02 3.74121E-04-4.55359E-14
 -1      2973 1.41575E-03 4.06385E-04-1.02000E-15
 -1      2974 1.27272E-03 3.85703E-04-8.26149E-16
 -1      2975 1.47599E-03 3.80574E-04-1.17091E-15
 -1      2976 8.46302E-03-5.29180E-04-3.45106E-14
 -1      2977 8.28236E-03-4.27602E-04-3.36986E-14
 -1      2978 6.94582E-03 1.53124E-04-2.91860E-14
 -1      2979 6.90055E-03 1.65477E-04-2.90863E-14
 -1      2980 7.28756E-03 2.89861E-04-2.92343E-14
 -1      2981 7.43832E-03 3.47554E-04-2.94484E-14
 -1      2982 7.20786E-03 7.93182E-05-2.99702E-14
 -1      2983 7.07096E-03 1.18943E-04-2.95704E-14
 -1      2984 7.24520E-03 3.87313E-05-2.96442E-14
 -1      2985 9.44708E-03-6.30230E-04-4.00252E-14
 -1      2986 9.29750E-03-6.87264E-04-3.91540E-14
 -1      2987 8.77162E-03-6.73735E-04-3.61302E-14
 -1      2988 8.63360E-03-6.14306E-04-3.53544E-14
 -1      2989 1.06423E-02 4.70710E-05-4.44021E-14
 -1      2990 1.04511E-02-5.30550E-05-4.39474E-14
 -1      2991 1.02465E-02-1.68397E-04-4.33997E-14
 -1      2992 1.00638E-02-2.81369E-04-4.28517E-14
 -1      2993 1.04019E-02 8.52786E-04-4.12176E-14
 -1      2994 1.05518E-02 7.64240E-04-4.18181E-14
 -1      2995 1.06876E-02 7.04586E-04-4.24716E-14
 -1      2996 1.03775E-02 9.11985E-04-4.13555E-14
 -1      2997 9.94679E-04 3.34603E-04-5.11337E-16
 -1      2998 8.73380E-04 2.68418E-04-4.50052E-16
 -1      2999 9.91554E-04 2.77234E-04-5.87502E-16
 -1      3000 1.13825E-03 3.63186E-04-6.63003E-16
 -1      3001 7.87421E-04-1.45196E-04-5.64951E-16
 -1      3002 7.91250E-04-1.70339E-04-5.63162E-16
 -1      3003 9.05272E-04-1.48700E-04-7.13635E-16
 -1      3004 8.96030E-04 1.00303E-06-6.86015E-16
 -1      3005 7.78138E-04-9.70274E-06-5.46072E-16
 -1      3006 7.78492E-04-3.13004E-05-5.51886E-16
 -1      3007 1.15526E-02 3.73442E-04-4.62176E-14
 -1      3008 1.07578E-02 9.31382E-05-4.51453E-14
 -1      3009 7.95689E-03 6.21488E-04-3.00637E-14
 -1      3010 9.19591E-03-7.13101E-04-3.87069E-14
 -1      3011 9.54044E-03-5.95091E-04-4.07853E-14
 -1      3012 1.10727E-02 5.17307E-04-4.38212E-14
 -1      3013 1.11074E-02 2.37246E-04-4.59102E-14
 -1      3014 8.01946E-03 7.03869E-04-2.93453E-14
 -1      3015 9.50981E-03 1.32425E-03-3.66348E-14
 -1      3016 1.04068E-02 9.52542E-04-4.16517E-14
 -1      3017 6.95433E-03 1.91230E-04-2.86010E-14
 -1      3018 6.98119E-03 2.00983E-04-2.81540E-14
 -1      3019 6.90529E-03 1.81217E-04-2.83357E-14
 -1      3020 1.45551E-02 1.12516E-03-7.53189E-14
 -1      3021 1.44477E-02 1.11296E-03-7.42465E-14
 -1      3022 1.45370E-02 1.08566E-03-7.55268E-14
 -1      3023 7.50825E-03 3.87338E-04-2.91182E-14
 -1      3024 1.03770E-02-1.05426E-04-4.41835E-14
 -1      3025 1.19822E-03 3.42428E-04-7.84908E-16
 -1      3026 7.18359E-03 2.59325E-04-2.86209E-14
 -1      3027 1.40419E-02 4.29263E-04-7.77972E-14
 -1      3028 8.85216E-03-7.02163E-04-3.66178E-14
 -1      3029 8.74262E-03-6.81494E-04-3.60029E-14
 -1      3030 8.92525E-03-7.21359E-04-3.71059E-14
 -1      3031 8.13574E-03-3.61923E-04-3.29787E-14
 -1      3032 7.98984E-03-3.02738E-04-3.22653E-14
 -1      3033 8.19735E-03-4.25640E-04-3.31154E-14
 -1      3034 7.63900E-03-1.10284E-04-3.10768E-14
 -1      3035 7.48483E-03-7.05931E-05-3.02735E-14
 -1      3036 7.73616E-03-1.70041E-04-3.13122E-14
 -1      3037 7.79253E-04-5.30366E-05-5.56684E-16
 -1      3038 7.80446E-04-7.51805E-05-5.60519E-16
 -1      3039 8.99810E-04-9.68386E-05-7.09651E-16
 -1      3040 8.96903E-04-4.73945E-05-7.00083E-16
 -1      3041 6.87511E-03 1.64774E-04-2.86371E-14
 -1      3042 1.44970E-02 1.01272E-03-7.58498E-14
 -1      3043 1.45154E-02 1.05142E-03-7.56445E-14
 -1      3044 1.44086E-02 1.03923E-03-7.45705E-14
 -1      3045 1.43656E-02 9.71775E-04-7.48002E-14
 -1      3046 6.97299E-03 1.28440E-04-2.88686E-14
 -1      3047 1.14152E-02 4.07945E-04-4.53692E-14
 -1      3048 1.14950E-02 4.01808E-04-4.61022E-14
 -1      3049 1.13648E-02 4.30732E-04-4.53426E-14
 -1      3050 9.94552E-03-3.64739E-04-4.27572E-14
 -1      3051 9.85217E-03-4.38947E-04-4.26596E-14
 -1      3052 1.00707E-02-3.01992E-04-4.35382E-14
 -1      3053 8.50740E-03-5.73353E-04-3.46739E-14
 -1      3054 7.88806E-04-2.52124E-04-5.18750E-16
 -1      3055 9.19943E-04-2.87751E-04-6.67408E-16
 -1      3056 9.82164E-04-2.72672E-04-7.68970E-16
 -1      3057 1.04048E-03 2.42638E-04-6.95583E-16
 -1      3058 1.03396E-03 2.10960E-04-7.22092E-16
 -1      3059 1.53793E-03 3.53931E-04-1.32766E-15
 -1      3060 1.39454E-03 3.37919E-04-1.10412E-15
 -1      3061 1.44475E-03-3.12293E-04-1.53068E-15
 -1      3062 1.58827E-03-3.26372E-04-1.80980E-15
 -1      3063 1.73187E-03-3.38156E-04-2.11174E-15
 -1      3064 1.87556E-03-3.47828E-04-2.43592E-15
 -1      3065 1.65268E-03-2.98184E-04-1.96189E-15
 -1      3066 2.01923E-03-3.55697E-04-2.78288E-15
 -1      3067 2.16288E-03-3.61913E-04-3.15182E-15
 -1      3068 1.94046E-03-3.16382E-04-2.60881E-15
 -1      3069 2.30648E-03-3.66738E-04-3.54193E-15
 -1      3070 2.45003E-03-3.70290E-04-3.95295E-15
 -1      3071 2.22845E-03-3.28152E-04-3.34342E-15
 -1      3072 2.59351E-03-3.72777E-04-4.38549E-15
 -1      3073 2.73693E-03-3.74290E-04-4.83928E-15
 -1      3074 2.51630E-03-3.34914E-04-4.16328E-15
 -1      3075 2.88029E-03-3.74987E-04-5.31243E-15
 -1      3076 3.02358E-03-3.74933E-04-5.80571E-15
 -1      3077 2.80385E-03-3.37818E-04-5.06556E-15
 -1      3078 3.16682E-03-3.74246E-04-6.31971E-15
 -1      3079 3.31000E-03-3.72971E-04-6.85308E-15
 -1      3080 3.09101E-03-3.37745E-04-6.04931E-15
 -1      3081 3.45312E-03-3.71195E-04-7.40513E-15
 -1      3082 3.59619E-03-3.68948E-04-7.97688E-15
 -1      3083 3.37772E-03-3.35342E-04-7.11147E-15
 -1      3084 3.73921E-03-3.66297E-04-8.56769E-15
 -1      3085 3.88219E-03-3.63263E-04-9.17663E-15
 -1      3086 3.66397E-03-3.31078E-04-8.25009E-15
 -1      3087 4.02512E-03-3.59900E-04-9.80397E-15
 -1      3088 4.16802E-03-3.56227E-04-1.04495E-14
 -1      3089 3.94971E-03-3.25292E-04-9.46355E-15
 -1      3090 4.31089E-03-3.52297E-04-1.11128E-14
 -1      3091 4.45376E-03-3.48131E-04-1.17926E-14
 -1      3092 4.23496E-03-3.18255E-04-1.07496E-14
 -1      3093 4.59661E-03-3.43791E-04-1.24882E-14
 -1      3094 4.73950E-03-3.39311E-04-1.32000E-14
 -1      3095 4.51973E-03-3.10220E-04-1.21043E-14
 -1      3096 4.88241E-03-3.34769E-04-1.39285E-14
 -1      3097 5.02543E-03-3.30221E-04-1.46717E-14
 -1      3098 4.80411E-03-3.01490E-04-1.35230E-14
 -1      3099 5.16856E-03-3.25774E-04-1.54294E-14
 -1      3100 5.31189E-03-3.21520E-04-1.62031E-14
 -1      3101 5.08825E-03-2.92478E-04-1.50053E-14
 -1      3102 5.45547E-03-3.17597E-04-1.69904E-14
 -1      3103 5.59944E-03-3.14155E-04-1.77912E-14
 -1      3104 5.37251E-03-2.83787E-04-1.65461E-14
 -1      3105 5.74388E-03-3.11369E-04-1.86080E-14
 -1      3106 5.88898E-03-3.09475E-04-1.94386E-14
 -1      3107 5.65752E-03-2.76291E-04-1.81458E-14
 -1      3108 6.03490E-03-3.08680E-04-2.02825E-14
 -1      3109 6.18189E-03-3.09348E-04-2.11415E-14
 -1      3110 5.94433E-03-2.71245E-04-1.98018E-14
 -1      3111 6.33022E-03-3.11709E-04-2.20149E-14
 -1      3112 6.48017E-03-3.16313E-04-2.29012E-14
 -1      3113 6.23458E-03-2.70430E-04-2.15147E-14
 -1      3114 6.63216E-03-3.23390E-04-2.38029E-14
 -1      3115 6.78642E-03-3.33731E-04-2.47197E-14
 -1      3116 6.53073E-03-2.76379E-04-2.32842E-14
 -1      3117 6.94356E-03-3.47541E-04-2.56479E-14
 -1      3118 7.10360E-03-3.65861E-04-2.65896E-14
 -1      3119 6.83609E-03-2.92681E-04-2.51097E-14
 -1      3120 7.26723E-03-3.88838E-04-2.75460E-14
 -1      3121 7.43394E-03-4.17513E-04-2.85142E-14
 -1      3122 7.15454E-03-3.24339E-04-2.69897E-14
 -1      3123 7.60432E-03-4.51897E-04-2.94936E-14
 -1      3124 7.77696E-03-4.92291E-04-3.04870E-14
 -1      3125 7.48919E-03-3.77742E-04-2.89205E-14
 -1      3126 7.95261E-03-5.38098E-04-3.14924E-14
 -1      3127 8.12781E-03-5.87556E-04-3.25093E-14
 -1      3128 7.84019E-03-4.58166E-04-3.08998E-14
 -1      3129 8.30270E-03-6.39100E-04-3.35382E-14
 -1      3130 8.47468E-03-6.87724E-04-3.45794E-14
 -1      3131 8.20073E-03-5.64016E-04-3.29283E-14
 -1      3132 8.68723E-03-7.21715E-04-3.58503E-14
 -1      3133 8.85372E-03-7.50702E-04-3.69171E-14
 -1      3134 9.28565E-03-7.36714E-04-3.99598E-14
 -1      3135 9.44870E-03-6.90420E-04-4.10675E-14
 -1      3136 9.95859E-03-4.84754E-04-4.44468E-14
 -1      3137 1.01336E-02-4.10882E-04-4.55927E-14
 -1      3138 1.03096E-02-3.39637E-04-4.67422E-14
 -1      3139 1.04831E-02-2.73434E-04-4.79004E-14
 -1      3140 1.02640E-02-3.20207E-04-4.60486E-14
 -1      3141 1.06547E-02-2.13017E-04-4.90687E-14
 -1      3142 1.08227E-02-1.58411E-04-5.02451E-14
 -1      3143 1.06176E-02-1.86863E-04-4.83662E-14
 -1      3144 1.09878E-02-1.09663E-04-5.14320E-14
 -1      3145 1.11492E-02-6.57998E-05-5.26244E-14
 -1      3146 1.09558E-02-8.09822E-05-5.07187E-14
 -1      3147 1.13076E-02-2.66945E-05-5.38257E-14
 -1      3148 1.14630E-02 8.72267E-06-5.50356E-14
 -1      3149 1.12775E-02 1.89288E-06-5.31042E-14
 -1      3150 1.16159E-02 4.06560E-05-5.62535E-14
 -1      3151 1.17667E-02 6.99512E-05-5.74789E-14
 -1      3152 1.15854E-02 6.82422E-05-5.55210E-14
 -1      3153 1.19157E-02 9.68475E-05-5.87124E-14
 -1      3154 1.20632E-02 1.21940E-04-5.99564E-14
 -1      3155 1.18833E-02 1.23394E-04-5.79690E-14
 -1      3156 1.22096E-02 1.45469E-04-6.12083E-14
 -1      3157 1.23551E-02 1.67838E-04-6.24666E-14
 -1      3158 1.21748E-02 1.71242E-04-6.04522E-14
 -1      3159 1.24998E-02 1.89270E-04-6.37349E-14
 -1      3160 1.26440E-02 2.10031E-04-6.50137E-14
 -1      3161 1.24623E-02 2.14556E-04-6.29672E-14
 -1      3162 1.27878E-02 2.30313E-04-6.63030E-14
 -1      3163 1.29312E-02 2.50293E-04-6.76037E-14
 -1      3164 1.27477E-02 2.55317E-04-6.55209E-14
 -1      3165 1.30744E-02 2.70127E-04-6.89150E-14
 -1      3166 1.32175E-02 2.89931E-04-7.02353E-14
 -1      3167 1.30322E-02 2.94952E-04-6.81165E-14
 -1      3168 1.33604E-02 3.09832E-04-7.15663E-14
 -1      3169 1.35032E-02 3.29904E-04-7.29096E-14
 -1      3170 1.33163E-02 3.34494E-04-7.07545E-14
 -1      3171 2.11126E-03 3.94701E-04-2.43535E-15
 -1      3172 1.96800E-03 3.87483E-04-2.12674E-15
 -1      3173 3.25571E-03 4.09618E-04-5.65981E-15
 -1      3174 3.11275E-03 4.10696E-04-5.18449E-15
 -1      3175 2.96976E-03 4.11122E-04-4.72925E-15
 -1      3176 2.82677E-03 4.10844E-04-4.29515E-15
 -1      3177 3.03679E-03 3.74085E-04-5.02839E-15
 -1      3178 3.82757E-03 4.00119E-04-7.75713E-15
 -1      3179 3.68460E-03 4.03185E-04-7.20372E-15
 -1      3180 4.11350E-03 3.92836E-04-8.92048E-15
 -1      3181 3.97053E-03 3.96663E-04-8.32959E-15
 -1      3182 3.89506E-03 3.62117E-04-8.12981E-15
 -1      3183 4.39943E-03 3.84223E-04-1.01571E-14
 -1      3184 4.25646E-03 3.88684E-04-9.52955E-15
 -1      3185 4.18041E-03 3.54844E-04-9.31548E-15
 -1      3186 4.68531E-03 3.74565E-04-1.14618E-14
 -1      3187 4.54237E-03 3.79509E-04-1.08015E-14
 -1      3188 4.46526E-03 3.46381E-04-1.05733E-14
 -1      3189 4.97108E-03 3.64263E-04-1.28313E-14
 -1      3190 4.82819E-03 3.69471E-04-1.21388E-14
 -1      3191 4.74945E-03 3.37027E-04-1.18993E-14
 -1      3192 5.25668E-03 3.53931E-04-1.42622E-14
 -1      3193 5.11388E-03 3.59063E-04-1.35393E-14
 -1      3194 5.03279E-03 3.27202E-04-1.32875E-14
 -1      3195 5.54207E-03 3.44514E-04-1.57532E-14
 -1      3196 5.39936E-03 3.49048E-04-1.50000E-14
 -1      3197 5.31509E-03 3.17537E-04-1.47371E-14
 -1      3198 5.82736E-03 3.37435E-04-1.73043E-14
 -1      3199 5.68467E-03 3.40588E-04-1.65220E-14
 -1      3200 5.59614E-03 3.08977E-04-1.62480E-14
 -1      3201 6.11301E-03 3.34761E-04-1.89108E-14
 -1      3202 5.97004E-03 3.35402E-04-1.80999E-14
 -1      3203 5.87592E-03 3.02882E-04-1.78174E-14
 -1      3204 6.40019E-03 3.39411E-04-2.05672E-14
 -1      3205 6.25624E-03 3.35941E-04-1.97330E-14
 -1      3206 6.15476E-03 3.01151E-04-1.94401E-14
 -1      3207 6.69143E-03 3.55461E-04-2.22727E-14
 -1      3208 6.54501E-03 3.45637E-04-2.14140E-14
 -1      3209 6.43382E-03 3.06364E-04-2.11134E-14
 -1      3210 6.99152E-03 3.88726E-04-2.40226E-14
 -1      3211 6.83989E-03 3.69297E-04-2.31424E-14
 -1      3212 6.71585E-03 3.22072E-04-2.28332E-14
 -1      3213 7.30856E-03 4.48061E-04-2.58209E-14
 -1      3214 7.14728E-03 4.14019E-04-2.49160E-14
 -1      3215 7.00639E-03 3.53592E-04-2.45995E-14
 -1      3216 7.65398E-03 5.47164E-04-2.76645E-14
 -1      3217 7.47707E-03 4.90854E-04-2.67371E-14
 -1      3218 7.31531E-03 4.10277E-04-2.64126E-14
 -1      3219 8.51815E-03 9.96246E-04-3.13061E-14
 -1      3220 9.18843E-03 1.32073E-03-3.47052E-14
 -1      3221 1.18699E-02 6.85499E-04-5.13880E-14
 -1      3222 1.17208E-02 6.77267E-04-5.02023E-14
 -1      3223 1.21619E-02 7.14835E-04-5.37851E-14
 -1      3224 1.20167E-02 6.98439E-04-5.25822E-14
 -1      3225 1.19684E-02 6.53580E-04-5.21496E-14
 -1      3226 1.24494E-02 7.55954E-04-5.62192E-14
 -1      3227 1.23059E-02 7.34232E-04-5.49966E-14
 -1      3228 1.22488E-02 6.89341E-04-5.45557E-14
 -1      3229 1.27351E-02 8.04591E-04-5.86900E-14
 -1      3230 1.25923E-02 7.79535E-04-5.74511E-14
 -1      3231 1.25276E-02 7.33942E-04-5.69991E-14
 -1      3232 1.30204E-02 8.57671E-04-6.11891E-14
 -1      3233 1.28778E-02 8.30713E-04-5.99365E-14
 -1      3234 1.28068E-02 7.84214E-04-5.94770E-14
 -1      3235 1.33058E-02 9.12977E-04-6.37166E-14
 -1      3236 1.31631E-02 8.85142E-04-6.24509E-14
 -1      3237 1.30871E-02 8.37809E-04-6.19861E-14
 -1      3238 1.35914E-02 9.68926E-04-6.62652E-14
 -1      3239 1.34485E-02 9.40936E-04-6.49874E-14
 -1      3240 1.33687E-02 8.92976E-04-6.45219E-14
 -1      3241 1.38771E-02 1.02443E-03-6.88379E-14
 -1      3242 1.37342E-02 9.96780E-04-6.75465E-14
 -1      3243 1.36514E-02 9.48434E-04-6.70802E-14
 -1      3244 1.41628E-02 1.07872E-03-7.14380E-14
 -1      3245 1.40199E-02 1.05176E-03-7.01343E-14
 -1      3246 1.39350E-02 1.00328E-03-6.96617E-14
 -1      3247 1.43593E-02 1.10247E-03-7.33717E-14
 -1      3248 1.42515E-02 1.08968E-03-7.23085E-14
 -1      3249 1.41654E-02 1.04137E-03-7.18336E-14
 -1      3250 1.43418E-02 1.06297E-03-7.35774E-14
 -1      3251 1.40567E-02 6.37959E-04-7.52400E-14
 -1      3252 1.40816E-02 6.74808E-04-7.50517E-14
 -1      3253 6.99209E-03 1.00959E-04-2.84934E-14
 -1      3254 6.88458E-03 1.31060E-04-2.81187E-14
 -1      3255 6.83434E-03 1.54878E-04-2.79257E-14
 -1      3256 6.85279E-03 1.66180E-04-2.80732E-14
 -1      3257 1.41060E-02 7.12068E-04-7.48592E-14
 -1      3258 1.41294E-02 7.49227E-04-7.46642E-14
 -1      3259 1.39738E-02 6.74171E-04-7.37928E-14
 -1      3260 7.39122E-03 3.48079E-04-2.84660E-14
 -1      3261 7.55893E-03 4.24209E-04-2.87584E-14
 -1      3262 1.82469E-03 3.78430E-04-1.83923E-15
 -1      3263 1.68130E-03 3.67363E-04-1.57276E-15
 -1      3264 1.60118E-03 3.26456E-04-1.49044E-15
 -1      3265 1.88853E-03 3.47547E-04-2.03041E-15
 -1      3266 7.78134E-03 5.65745E-04-2.87058E-14
 -1      3267 1.05302E-02 8.56361E-04-4.22146E-14
 -1      3268 9.25504E-03-7.09766E-04-3.92882E-14
 -1      3269 9.10445E-03-7.33595E-04-3.83031E-14
 -1      3270 1.40034E-02 5.62135E-04-7.56177E-14
 -1      3271 1.40304E-02 6.00225E-04-7.54285E-14
 -1      3272 1.39226E-02 5.99824E-04-7.41679E-14
 -1      3273 1.39477E-02 4.84773E-04-7.59904E-14
 -1      3274 1.39758E-02 5.23677E-04-7.58055E-14
 -1      3275 1.38678E-02 5.24102E-04-7.45396E-14
 -1      3276 1.15683E-02 6.74052E-04-4.90237E-14
 -1      3277 1.14114E-02 6.78232E-04-4.78506E-14
 -1      3278 1.16819E-02 6.31262E-04-4.97782E-14
 -1      3279 9.54319E-03-6.08600E-04-4.11440E-14
 -1      3280 9.36812E-03-6.80056E-04-4.00508E-14
 -1      3281 1.15366E-03 3.11585E-04-7.65691E-16
 -1      3282 1.08248E-03 2.70917E-04-7.19233E-16
 -1      3283 1.20165E-03 2.72130E-04-8.91783E-16
 -1      3284 1.28819E-03 3.31417E-04-9.40925E-16
 -1      3285 1.12485E-02 6.89723E-04-4.66856E-14
 -1      3286 1.10786E-02 7.12756E-04-4.55325E-14
 -1      3287 1.13813E-02 6.29673E-04-4.74348E-14
 -1      3288 7.25516E-03 1.41479E-06-2.92567E-14
 -1      3289 7.12543E-03 5.18910E-05-2.88641E-14
 -1      3290 3.54164E-03 4.05814E-04-6.66920E-15
 -1      3291 3.39868E-03 4.07979E-04-6.15441E-15
 -1      3292 3.32320E-03 3.72060E-04-5.98373E-15
 -1      3293 3.60930E-03 3.67948E-04-7.01747E-15
 -1      3294 1.39203E-02 3.93389E-04-7.68432E-14
 -1      3295 1.39353E-02 4.48489E-04-7.63163E-14
 -1      3296 1.38267E-02 4.49618E-04-7.50474E-14
 -1      3297 1.38010E-02 3.76144E-04-7.56959E-14
 -1      3298 1.12025E-02 2.60675E-04-4.67052E-14
 -1      3299 1.10488E-02 2.06466E-04-4.63512E-14
 -1      3300 1.15792E-02 3.86102E-04-4.68446E-14
 -1      3301 1.15848E-02 3.74685E-04-4.69320E-14
 -1      3302 1.15864E-03-2.76095E-04-1.04173E-15
 -1      3303 1.30154E-03-2.95599E-04-1.27476E-15
 -1      3304 1.36573E-03-2.71922E-04-1.40499E-15
 -1      3305 1.01714E-03 6.79621E-05-8.16215E-16
 -1      3306 1.01599E-03 4.10717E-05-8.29442E-16
 -1      3307 1.08779E-02 1.34091E-04-4.60023E-14
 -1      3308 1.07048E-02 5.26126E-05-4.55873E-14
 -1      3309 7.09043E-03 2.37452E-04-2.79975E-14
 -1      3310 7.22530E-03 2.82355E-04-2.81985E-14
 -1      3311 7.70062E-04-2.02185E-04-5.25242E-16
 -1      3312 1.05124E-02-5.08331E-05-4.51508E-14
 -1      3313 1.03315E-02-1.53784E-04-4.45966E-14
 -1      3314 1.10109E-02 5.74106E-04-4.40759E-14
 -1      3315 1.11950E-02 5.03651E-04-4.48708E-14
 -1      3316 8.53793E-03-6.16871E-04-3.48269E-14
 -1      3317 8.38425E-03-5.38894E-04-3.39896E-14
 -1      3318 8.88045E-04-2.11394E-04-6.71948E-16
 -1      3319 1.01540E-03 1.43916E-05-8.40880E-16
 -1      3320 1.01536E-03-1.21881E-05-8.50841E-16
 -1      3321 1.13611E-03 3.00289E-05-1.01010E-15
 -1      3322 2.39760E-03 4.04640E-04-3.11682E-15
 -1      3323 2.25446E-03 4.00375E-04-2.76545E-15
 -1      3324 2.17592E-03 3.61385E-04-2.65441E-15
 -1      3325 1.35094E-03 3.07945E-04-1.07804E-15
 -1      3326 1.15346E-03 2.11076E-04-8.92759E-16
 -1      3327 1.02872E-03 1.80634E-04-7.45470E-16
 -1      3328 1.02461E-03 1.51366E-04-7.66328E-16
 -1      3329 9.57963E-03-6.17161E-04-4.16657E-14
 -1      3330 9.64043E-03-6.16762E-04-4.23376E-14
 -1      3331 9.81187E-03-5.45485E-04-4.34640E-14
 -1      3332 9.75272E-03-5.10985E-04-4.24117E-14
 -1      3333 8.96682E-03-7.72390E-04-3.77744E-14
 -1      3334 9.12694E-03-7.64828E-04-3.88607E-14
 -1      3335 7.58906E-03 4.59514E-04-2.83690E-14
 -1      3336 1.36818E-02 3.59190E-04-7.45530E-14
 -1      3337 2.75010E-03 3.73508E-04-4.15373E-15
 -1      3338 2.68375E-03 4.09737E-04-3.88117E-15
 -1      3339 2.54070E-03 4.07727E-04-3.48838E-15
 -1      3340 1.36362E-02 3.83556E-04-7.37234E-14
 -1      3341 7.01104E-03 2.15598E-04-2.77349E-14
 -1      3342 7.03830E-03 2.34852E-04-2.73163E-14
 -1      3343 6.94103E-03 1.99590E-04-2.74723E-14
 -1      3344 6.84943E-03 1.70014E-04-2.76290E-14
 -1      3345 1.14516E-02 3.34712E-04-4.71577E-14
 -1      3346 1.13660E-02 3.10904E-04-4.71449E-14
 -1      3347 1.08990E-02 7.46971E-04-4.43836E-14
 -1      3348 1.07108E-02 7.98352E-04-4.32417E-14
 -1      3349 6.99853E-03 6.82503E-05-2.81129E-14
 -1      3350 1.41933E-02 8.60461E-04-7.40677E-14
 -1      3351 1.42127E-02 8.97998E-04-7.38661E-14
 -1      3352 8.99596E-03-7.39595E-04-3.76778E-14
 -1      3353 6.80835E-03 1.16578E-04-2.71895E-14
 -1      3354 6.81755E-03 1.37795E-04-2.75575E-14
 -1      3355 6.76818E-03 1.40417E-04-2.70023E-14
 -1      3356 1.13224E-02 2.87367E-04-4.75903E-14
 -1      3357 7.27248E-03 3.14664E-04-2.78435E-14
 -1      3358 1.41517E-02 7.86165E-04-7.44670E-14
 -1      3359 1.41730E-02 8.23334E-04-7.42672E-14
 -1      3360 1.40628E-02 8.20866E-04-7.30183E-14
 -1      3361 1.40206E-02 7.47604E-04-7.34098E-14
 -1      3362 1.09956E-02 1.67631E-04-4.67983E-14
 -1      3363 1.41043E-02 8.90202E-04-7.27107E-14
 -1      3364 1.42346E-02 9.30888E-04-7.37553E-14
 -1      3365 1.42561E-02 9.64086E-04-7.36421E-14
 -1      3366 1.07030E-02 7.45116E-04-4.29399E-14
 -1      3367 8.24637E-03-4.85588E-04-3.32643E-14
 -1      3368 7.82287E-03-2.39718E-04-3.14469E-14
 -1      3369 7.66003E-03-1.89317E-04-3.06367E-14
 -1      3370 7.89183E-03-3.08782E-04-3.15781E-14
 -1      3371 7.42485E-03-8.53087E-05-2.97118E-14
 -1      3372 7.33997E-03-3.93126E-05-2.94842E-14
 -1      3373 7.20483E-03-2.01455E-05-2.87030E-14
 -1      3374 9.93214E-03-4.61134E-04-4.39184E-14
 -1      3375 9.27469E-03-7.19191E-04-3.96383E-14
 -1      3376 1.08579E-02 6.51105E-04-4.35039E-14
 -1      3377 1.10136E-02 6.24081E-04-4.45486E-14
 -1      3378 1.02135E-03 1.22886E-04-7.85044E-16
 -1      3379 1.01892E-03 9.51958E-05-8.01605E-16
 -1      3380 1.13874E-03 8.82423E-05-9.79468E-16
 -1      3381 1.14428E-03 1.48193E-04-9.40898E-16
 -1      3382 1.15641E-02 3.97133E-04-4.68152E-14
 -1      3383 1.16195E-02 3.96755E-04-4.75329E-14
 -1      3384 1.15397E-02 4.10619E-04-4.67883E-14
 -1      3385 1.13143E-02 4.74997E-04-4.56046E-14
 -1      3386 1.14205E-02 4.58265E-04-4.63372E-14
 -1      3387 1.12747E-02 5.26755E-04-4.58589E-14
 -1      3388 1.16193E-02 3.78488E-04-4.77050E-14
 -1      3389 1.15712E-02 3.66098E-04-4.70752E-14
 -1      3390 1.02183E-02-2.39782E-04-4.45012E-14
 -1      3391 1.15278E-02 3.55841E-04-4.70657E-14
 -1      3392 1.02413E-03-1.48656E-04-8.79302E-16
 -1      3393 1.02812E-03-1.77829E-04-8.79898E-16
 -1      3394 1.06488E-02-9.63431E-07-4.60073E-14
 -1      3395 9.99842E-04-2.32594E-04-8.18884E-16
 -1      3396 1.01864E-03-9.26815E-05-8.72281E-16
 -1      3397 1.02098E-03-1.20315E-04-8.76686E-16
 -1      3398 1.14380E-03-1.45348E-04-1.06114E-15
 -1      3399 1.10538E-02 6.62259E-04-4.51206E-14
 -1      3400 9.87141E-03-4.57976E-04-4.31911E-14
 -1      3401 1.06483E-03-2.15271E-04-9.23578E-16
 -1      3402 1.18442E-03-2.14668E-04-1.11293E-15
 -1      3403 8.59728E-03-6.67735E-04-3.52181E-14
 -1      3404 1.86223E-03-2.77492E-04-2.43852E-15
 -1      3405 2.00642E-03-2.84281E-04-2.78290E-15
 -1      3406 2.15066E-03-2.89715E-04-3.14867E-15
 -1      3407 2.29493E-03-2.93901E-04-3.53594E-15
 -1      3408 2.07327E-03-2.51561E-04-2.95776E-15
 -1      3409 2.43916E-03-2.97031E-04-3.94408E-15
 -1      3410 2.58332E-03-2.99193E-04-4.37332E-15
 -1      3411 2.36221E-03-2.59221E-04-3.72894E-15
 -1      3412 2.72739E-03-3.00539E-04-4.82237E-15
 -1      3413 2.87133E-03-3.01134E-04-5.29206E-15
 -1      3414 2.65100E-03-2.63202E-04-4.58295E-15
 -1      3415 3.01514E-03-3.01097E-04-5.78197E-15
 -1      3416 3.15881E-03-3.00470E-04-6.29191E-15
 -1      3417 2.93932E-03-2.64320E-04-5.51855E-15
 -1      3418 3.30230E-03-2.99346E-04-6.82131E-15
 -1      3419 3.44563E-03-2.97749E-04-7.36883E-15
 -1      3420 3.22694E-03-2.63194E-04-6.53382E-15
 -1      3421 3.58878E-03-2.95751E-04-7.93595E-15
 -1      3422 3.73173E-03-2.93363E-04-8.52195E-15
 -1      3423 3.51370E-03-2.60277E-04-7.62598E-15
 -1      3424 3.87448E-03-2.90644E-04-9.12623E-15
 -1      3425 4.01704E-03-2.87596E-04-9.74915E-15
 -1      3426 3.79948E-03-2.55887E-04-8.79270E-15
 -1      3427 4.15937E-03-2.84271E-04-1.03902E-14
 -1      3428 4.30150E-03-2.80670E-04-1.10488E-14
 -1      3429 4.08416E-03-2.50251E-04-1.00337E-14
 -1      3430 4.44340E-03-2.76845E-04-1.17231E-14
 -1      3431 4.58510E-03-2.72799E-04-1.24137E-14
 -1      3432 4.36765E-03-2.43544E-04-1.13454E-14
 -1      3433 4.72657E-03-2.68592E-04-1.31213E-14
 -1      3434 4.86787E-03-2.64239E-04-1.38448E-14
 -1      3435 4.64988E-03-2.35930E-04-1.27233E-14
 -1      3436 5.00898E-03-2.59813E-04-1.45831E-14
 -1      3437 5.14998E-03-2.55349E-04-1.53369E-14
 -1      3438 4.93084E-03-2.27612E-04-1.41649E-14
 -1      3439 5.29086E-03-2.50939E-04-1.61055E-14
 -1      3440 5.43176E-03-2.46652E-04-1.68885E-14
 -1      3441 5.21066E-03-2.18871E-04-1.56675E-14
 -1      3442 5.57271E-03-2.42601E-04-1.76866E-14
 -1      3443 5.71389E-03-2.38916E-04-1.84988E-14
 -1      3444 5.48968E-03-2.10127E-04-1.72302E-14
 -1      3445 5.85541E-03-2.35727E-04-1.93237E-14
 -1      3446 5.99754E-03-2.33267E-04-2.01638E-14
 -1      3447 5.76857E-03-2.02008E-04-1.88498E-14
 -1      3448 6.14047E-03-2.31674E-04-2.10183E-14
 -1      3449 6.28460E-03-2.31359E-04-2.18870E-14
 -1      3450 6.04858E-03-1.95465E-04-2.05252E-14
 -1      3451 6.43025E-03-2.32460E-04-2.27698E-14
 -1      3452 6.57795E-03-2.35689E-04-2.36662E-14
 -1      3453 6.33181E-03-1.91971E-04-2.22580E-14
 -1      3454 6.72824E-03-2.41169E-04-2.45764E-14
 -1      3455 6.88167E-03-2.50091E-04-2.54989E-14
 -1      3456 6.62159E-03-1.93961E-04-2.40458E-14
 -1      3457 7.03905E-03-2.62593E-04-2.64363E-14
 -1      3458 7.20074E-03-2.80477E-04-2.73872E-14
 -1      3459 6.92277E-03-2.05610E-04-2.58874E-14
 -1      3460 7.36791E-03-3.03910E-04-2.83500E-14
 -1      3461 7.54000E-03-3.35219E-04-2.93244E-14
 -1      3462 7.24174E-03-2.34018E-04-2.77817E-14
 -1      3463 7.70888E-03-3.38110E-04-3.03403E-14
 -1      3464 7.89268E-03-3.87645E-04-3.13385E-14
 -1      3465 1.05855E-02-1.57026E-04-4.76629E-14
 -1      3466 1.07598E-02-9.88140E-05-4.88302E-14
 -1      3467 1.09293E-02-4.89118E-05-5.00031E-14
 -1      3468 1.10931E-02-5.02028E-06-5.11888E-14
 -1      3469 1.09081E-02-1.41871E-05-4.92906E-14
 -1      3470 1.12524E-02 3.30158E-05-5.23803E-14
 -1      3471 1.14074E-02 6.71453E-05-5.35785E-14
 -1      3472 1.12319E-02 6.62519E-05-5.16562E-14
 -1      3473 1.15591E-02 9.74925E-05-5.47868E-14
 -1      3474 1.17079E-02 1.25370E-04-5.60016E-14
 -1      3475 1.15365E-02 1.27971E-04-5.40527E-14
 -1      3476 1.18544E-02 1.50917E-04-5.72246E-14
 -1      3477 1.19993E-02 1.74915E-04-5.84553E-14
 -1      3478 1.18284E-02 1.78900E-04-5.64803E-14
 -1      3479 1.21428E-02 1.97514E-04-5.96931E-14
 -1      3480 1.22853E-02 2.19179E-04-6.09416E-14
 -1      3481 1.21130E-02 2.23719E-04-5.89384E-14
 -1      3482 1.24272E-02 2.40056E-04-6.21998E-14
 -1      3483 1.25686E-02 2.60416E-04-6.34631E-14
 -1      3484 1.23938E-02 2.65167E-04-6.14317E-14
 -1      3485 1.27097E-02 2.80397E-04-6.47379E-14
 -1      3486 1.28507E-02 3.00159E-04-6.60234E-14
 -1      3487 1.26730E-02 3.04927E-04-6.39583E-14
 -1      3488 1.29916E-02 3.19824E-04-6.73188E-14
 -1      3489 1.31326E-02 3.39486E-04-6.86264E-14
 -1      3490 1.29520E-02 3.44098E-04-6.65240E-14
 -1      3491 1.32736E-02 3.59251E-04-6.99431E-14
 -1      3492 1.34148E-02 3.79163E-04-7.12678E-14
 -1      3493 1.32317E-02 3.83431E-04-6.91322E-14
 -1      3494 1.41497E-03 2.83426E-04-1.22142E-15
 -1      3495 1.30817E-03 2.78773E-04-1.05002E-15
 -1      3496 1.26622E-03 2.50385E-04-1.01988E-15
 -1      3497 1.36499E-02 4.20040E-04-7.34037E-14
 -1      3498 4.24680E-03 3.17323E-04-9.71444E-15
 -1      3499 4.10464E-03 3.21021E-04-9.10094E-15
 -1      3500 3.96227E-03 3.24416E-04-8.50540E-15
 -1      3501 3.81967E-03 3.27504E-04-7.92842E-15
 -1      3502 4.02920E-03 2.87107E-04-8.88491E-15
 -1      3503 4.81253E-03 3.00369E-04-1.23387E-14
 -1      3504 4.67158E-03 3.04864E-04-1.16581E-14
 -1      3505 5.09316E-03 2.91255E-04-1.37457E-14
 -1      3506 4.95305E-03 2.95827E-04-1.30343E-14
 -1      3507 4.87467E-03 2.64676E-04-1.27804E-14
 -1      3508 5.37183E-03 2.82502E-04-1.52145E-14
 -1      3509 5.23273E-03 2.86803E-04-1.44722E-14
 -1      3510 5.15233E-03 2.56501E-04-1.42066E-14
 -1      3511 5.64817E-03 2.75027E-04-1.67447E-14
 -1      3512 5.51028E-03 2.78560E-04-1.59718E-14
 -1      3513 5.42710E-03 2.48893E-04-1.56948E-14
 -1      3514 5.92197E-03 2.70093E-04-1.83316E-14
 -1      3515 5.78535E-03 2.72175E-04-1.75310E-14
 -1      3516 5.69843E-03 2.42717E-04-1.72426E-14
 -1      3517 6.19336E-03 2.69367E-04-1.99715E-14
 -1      3518 6.05787E-03 2.69104E-04-1.91451E-14
 -1      3519 5.96583E-03 2.39093E-04-1.88484E-14
 -1      3520 6.46329E-03 2.75011E-04-2.16603E-14
 -1      3521 6.32829E-03 2.71233E-04-2.08103E-14
 -1      3522 6.22912E-03 2.39394E-04-2.05050E-14
 -1      3523 6.73435E-03 2.89942E-04-2.33959E-14
 -1      3524 6.59825E-03 2.81009E-04-2.25228E-14
 -1      3525 6.48878E-03 2.45234E-04-2.22091E-14
 -1      3526 7.01219E-03 3.18793E-04-2.51787E-14
 -1      3527 6.87167E-03 3.01990E-04-2.42822E-14
 -1      3528 6.74688E-03 2.58686E-04-2.39615E-14
 -1      3529 1.38414E-02 6.36398E-04-7.27302E-14
 -1      3530 1.38661E-02 6.72957E-04-7.25440E-14
 -1      3531 1.26017E-02 7.14269E-04-5.77805E-14
 -1      3532 1.24658E-02 6.90147E-04-5.65492E-14
 -1      3533 1.23305E-02 6.67377E-04-5.53282E-14
 -1      3534 1.21954E-02 6.46203E-04-5.41154E-14
 -1      3535 1.24065E-02 6.48152E-04-5.61020E-14
 -1      3536 1.15446E-02 3.52162E-04-4.79412E-14
 -1      3537 6.97650E-03 3.02172E-05-2.75336E-14
 -1      3538 6.86807E-03 7.31040E-05-2.71742E-14
 -1      3539 1.20606E-02 6.26956E-04-5.29122E-14
 -1      3540 1.19252E-02 6.10165E-04-5.17183E-14
 -1      3541 1.21454E-02 6.04748E-04-5.36754E-14
 -1      3542 1.28753E-02 7.65389E-04-6.02669E-14
 -1      3543 1.27382E-02 7.39393E-04-5.90210E-14
 -1      3544 1.26715E-02 6.96291E-04-5.85640E-14
 -1      3545 1.31514E-02 8.18984E-04-6.27836E-14
 -1      3546 1.30130E-02 7.91946E-04-6.15207E-14
 -1      3547 1.29405E-02 7.47610E-04-6.10583E-14
 -1      3548 1.34299E-02 8.73670E-04-6.53284E-14
 -1      3549 1.32904E-02 8.46243E-04-6.40532E-14
 -1      3550 1.32133E-02 8.00804E-04-6.35842E-14
 -1      3551 1.37102E-02 9.28402E-04-6.78961E-14
 -1      3552 1.35698E-02 9.01061E-04-6.66093E-14
 -1      3553 1.34893E-02 8.54753E-04-6.61374E-14
 -1      3554 1.39921E-02 9.82454E-04-7.04925E-14
 -1      3555 1.38510E-02 9.55549E-04-6.91913E-14
 -1      3556 1.37678E-02 9.08633E-04-6.87173E-14
 -1      3557 1.37321E-02 4.86740E-04-7.34651E-14
 -1      3558 1.37607E-02 5.24823E-04-7.32819E-14
 -1      3559 1.11283E-02 1.98017E-04-4.78464E-14
 -1      3560 1.09774E-02 1.32926E-04-4.74929E-14
 -1      3561 4.53030E-03 3.09205E-04-1.09932E-14
 -1      3562 4.38868E-03 3.13383E-04-1.03452E-14
 -1      3563 4.31270E-03 2.80365E-04-1.01161E-14
 -1      3564 4.59464E-03 2.72781E-04-1.14157E-14
 -1      3565 3.10419E-03 3.36923E-04-5.33136E-15
 -1      3566 2.96067E-03 3.37305E-04-4.87062E-15
 -1      3567 1.01587E-03-3.87971E-05-8.59447E-16
 -1      3568 1.01694E-03-6.55404E-05-8.66616E-16
 -1      3569 1.13849E-03-8.56211E-05-1.05084E-15
 -1      3570 1.00263E-02-3.87356E-04-4.41726E-14
 -1      3571 1.37885E-02 5.62411E-04-7.30995E-14
 -1      3572 1.38155E-02 5.99593E-04-7.29175E-14
 -1      3573 1.37089E-02 5.99106E-04-7.16717E-14
 -1      3574 1.36542E-02 5.25392E-04-7.20353E-14
 -1      3575 7.15598E-03 2.88156E-04-2.71511E-14
 -1      3576 7.30475E-03 3.47279E-04-2.74144E-14
 -1      3577 1.17891E-02 5.96084E-04-5.05326E-14
 -1      3578 1.16507E-02 5.86025E-04-4.93533E-14
 -1      3579 1.18871E-02 5.67946E-04-5.12873E-14
 -1      3580 1.28937E-03-1.89574E-04-1.29702E-15
 -1      3581 1.32671E-03-2.29870E-04-1.35214E-15
 -1      3582 1.46974E-03-2.42993E-04-1.61362E-15
 -1      3583 1.59381E-03-2.56643E-04-1.85666E-15
 -1      3584 1.73765E-03-2.66343E-04-2.15993E-15
 -1      3585 1.80424E-03-2.36174E-04-2.31698E-15
 -1      3586 1.55568E-03-2.13829E-04-1.79128E-15
 -1      3587 1.16679E-02 3.91482E-04-4.83607E-14
 -1      3588 1.16576E-02 3.82207E-04-4.85046E-14
 -1      3589 1.02574E-02-2.56686E-04-4.52403E-14
 -1      3590 1.11799E-02 5.99843E-04-4.56987E-14
 -1      3591 1.07982E-02 5.06556E-05-4.69536E-14
 -1      3592 1.06279E-02-4.18056E-05-4.65105E-14
 -1      3593 1.14451E-02 3.06608E-04-4.87351E-14
 -1      3594 1.12950E-02 2.60051E-04-4.82900E-14
 -1      3595 1.12795E-02 2.29050E-04-4.89937E-14
 -1      3596 1.42885E-02 9.96262E-04-7.36694E-14
 -1      3597 1.43095E-02 1.03013E-03-7.35529E-14
 -1      3598 1.42217E-02 1.01943E-03-7.26807E-14
 -1      3599 1.41578E-02 9.54775E-04-7.26274E-14
 -1      3600 9.17994E-03-7.55220E-04-3.91979E-14
 -1      3601 1.13021E-02 5.68292E-04-4.64364E-14
 -1      3602 1.15497E-02 5.74656E-04-4.84736E-14
 -1      3603 1.14061E-02 5.73062E-04-4.73083E-14
 -1      3604 1.14796E-02 5.12600E-04-4.74677E-14
 -1      3605 1.16640E-02 5.38062E-04-4.92235E-14
 -1      3606 6.79153E-03 1.61881E-04-2.69550E-14
 -1      3607 6.85461E-03 1.77425E-04-2.72144E-14
 -1      3608 6.86489E-03 1.88875E-04-2.68009E-14
 -1      3609 1.16165E-02 3.65625E-04-4.85993E-14
 -1      3610 1.15531E-02 3.45320E-04-4.86922E-14
 -1      3611 1.16832E-02 3.79354E-04-4.92592E-14
 -1      3612 1.04430E-02-1.79598E-04-4.63876E-14
 -1      3613 2.46313E-03 3.69604E-04-3.36242E-15
 -1      3614 1.25983E-03 2.16207E-04-1.05063E-15
 -1      3615 1.13602E-03-2.75749E-05-1.03372E-15
 -1      3616 1.16723E-02 4.01092E-04-4.83340E-14
 -1      3617 1.17237E-02 4.05495E-04-4.91368E-14
 -1      3618 1.16689E-02 4.11035E-04-4.83049E-14
 -1      3619 7.56916E-03-2.52737E-04-2.97525E-14
 -1      3620 8.04952E-03-4.41659E-04-3.21590E-14
 -1      3621 7.46233E-03 4.18599E-04-2.77220E-14
 -1      3622 6.98738E-03 2.37327E-04-2.66334E-14
 -1      3623 7.06840E-03 2.60027E-04-2.68916E-14
 -1      3624 7.09254E-03 2.88845E-04-2.64683E-14
 -1      3625 1.55842E-03 2.97116E-04-1.45698E-15
 -1      3626 1.51626E-03 2.68310E-04-1.42167E-15
 -1      3627 1.70215E-03 3.08612E-04-1.71385E-15
 -1      3628 2.81703E-03 3.37025E-04-4.43058E-15
 -1      3629 2.67329E-03 3.36028E-04-4.01152E-15
 -1      3630 2.88449E-03 3.00375E-04-4.71219E-15
 -1      3631 3.24758E-03 3.35980E-04-5.81151E-15
 -1      3632 3.17192E-03 2.99726E-04-5.63789E-15
 -1      3633 3.39084E-03 3.34508E-04-6.31118E-15
 -1      3634 3.74444E-03 2.92752E-04-7.72588E-15
 -1      3635 3.67690E-03 3.30231E-04-7.37001E-15
 -1      3636 3.53395E-03 3.32586E-04-6.83068E-15
 -1      3637 1.37588E-02 6.71242E-04-7.13006E-14
 -1      3638 1.38896E-02 7.09163E-04-7.23542E-14
 -1      3639 1.39118E-02 7.45323E-04-7.21635E-14
 -1      3640 7.17456E-03 3.48563E-04-2.61116E-14
 -1      3641 7.02541E-03 2.90285E-04-2.57847E-14
 -1      3642 7.32767E-03 3.80703E-04-2.70310E-14
 -1      3643 1.98994E-03 3.25917E-04-2.28994E-15
 -1      3644 1.84599E-03 3.18155E-04-1.99145E-15
 -1      3645 1.80385E-03 2.89062E-04-1.95060E-15
 -1      3646 1.15416E-02 3.26454E-04-4.93982E-14
 -1      3647 7.08102E-03-2.20361E-05-2.78341E-14
 -1      3648 6.92654E-03-6.43728E-06-2.68960E-14
 -1      3649 1.06048E-02-7.96630E-05-4.68401E-14
 -1      3650 1.41337E-02 1.00852E-03-7.18089E-14
 -1      3651 1.09492E-02 9.14482E-05-4.80020E-14
 -1      3652 2.27783E-03 3.36979E-04-2.95037E-15
 -1      3653 2.13389E-03 3.32145E-04-2.60962E-15
 -1      3654 2.09209E-03 3.03047E-04-2.56308E-15
 -1      3655 6.77879E-03 8.79619E-05-2.66225E-14
 -1      3656 6.70249E-03 9.72618E-05-2.60757E-14
 -1      3657 6.74298E-03 5.53312E-05-2.60559E-14
 -1      3658 6.70289E-03 1.29925E-04-2.62302E-14
 -1      3659 6.74103E-03 1.46196E-04-2.65926E-14
 -1      3660 6.72376E-03 1.52463E-04-2.61853E-14
 -1      3661 8.61817E-03-6.55945E-04-3.53059E-14
 -1      3662 1.39740E-02 8.53933E-04-7.16162E-14
 -1      3663 1.39952E-02 8.86242E-04-7.15062E-14
 -1      3664 1.40486E-02 9.61282E-04-7.13328E-14
 -1      3665 1.28509E-03-1.56576E-04-1.29395E-15
 -1      3666 1.34892E-02 4.00150E-04-7.18325E-14
 -1      3667 1.36794E-02 4.65106E-04-7.31441E-14
 -1      3668 7.15036E-03-5.62940E-05-2.80541E-14
 -1      3669 1.26175E-03 1.10112E-04-1.15587E-15
 -1      3670 1.25956E-03 7.86986E-05-1.17559E-15
 -1      3671 1.38127E-03 6.67572E-05-1.38949E-15
 -1      3672 1.25811E-03 4.75672E-05-1.19299E-15
 -1      3673 1.25738E-03 1.66586E-05-1.20863E-15
 -1      3674 1.15281E-02 4.29052E-04-4.69622E-14
 -1      3675 1.16055E-02 4.23761E-04-4.76791E-14
 -1      3676 1.16743E-02 4.25974E-04-4.84804E-14
 -1      3677 1.15046E-02 4.66958E-04-4.72249E-14
 -1      3678 1.39341E-02 7.81246E-04-7.19883E-14
 -1      3679 1.39539E-02 8.17598E-04-7.17941E-14
 -1      3680 1.38463E-02 8.13668E-04-7.05955E-14
 -1      3681 1.38045E-02 7.42385E-04-7.09426E-14
 -1      3682 7.54167E-03-2.01289E-04-2.97987E-14
 -1      3683 7.47213E-03-1.38312E-04-2.96726E-14
 -1      3684 7.32577E-03-1.08813E-04-2.88869E-14
 -1      3685 7.38879E-03-2.09002E-04-2.87966E-14
 -1      3686 1.99645E-03-2.13891E-04-2.77113E-15
 -1      3687 2.14101E-03-2.18235E-04-3.13368E-15
 -1      3688 2.28564E-03-2.21617E-04-3.51737E-15
 -1      3689 2.43028E-03-2.24128E-04-3.92198E-15
 -1      3690 2.20953E-03-1.84327E-04-3.31025E-15
 -1      3691 2.57486E-03-2.25893E-04-4.34757E-15
 -1      3692 2.71934E-03-2.26967E-04-4.79308E-15
 -1      3693 2.49905E-03-1.88681E-04-4.11574E-15
 -1      3694 2.86367E-03-2.27462E-04-5.25846E-15
 -1      3695 3.00782E-03-2.27411E-04-5.74470E-15
 -1      3696 2.78827E-03-1.90559E-04-5.00289E-15
 -1      3697 3.15174E-03-2.26905E-04-6.25028E-15
 -1      3698 3.29543E-03-2.25961E-04-6.77513E-15
 -1      3699 3.07677E-03-1.90483E-04-5.97020E-15
 -1      3700 3.43885E-03-2.24650E-04-7.31908E-15
 -1      3701 3.58197E-03-2.22977E-04-7.88126E-15
 -1      3702 3.36424E-03-1.88847E-04-7.01553E-15
 -1      3703 3.72479E-03-2.20998E-04-8.46283E-15
 -1      3704 3.86728E-03-2.18708E-04-9.06264E-15
 -1      3705 3.65043E-03-1.85925E-04-8.13644E-15
 -1      3706 4.00941E-03-2.16155E-04-9.68088E-15
 -1      3707 4.15118E-03-2.13324E-04-1.03176E-14
 -1      3708 3.93512E-03-1.81899E-04-9.33209E-15
 -1      3709 4.29255E-03-2.10261E-04-1.09715E-14
 -1      3710 4.43353E-03-2.06947E-04-1.16413E-14
 -1      3711 4.21811E-03-1.76882E-04-1.06002E-14
 -1      3712 4.57408E-03-2.03430E-04-1.23282E-14
 -1      3713 4.71422E-03-1.99691E-04-1.30313E-14
 -1      3714 4.49918E-03-1.70944E-04-1.19371E-14
 -1      3715 4.85390E-03-1.95782E-04-1.37504E-14
 -1      3716 4.99318E-03-1.91690E-04-1.44847E-14
 -1      3717 4.77818E-03-1.64138E-04-1.33388E-14
 -1      3718 5.13202E-03-1.87475E-04-1.52332E-14
 -1      3719 5.27049E-03-1.83137E-04-1.59973E-14
 -1      3720 5.05497E-03-1.56523E-04-1.48027E-14
 -1      3721 5.40858E-03-1.78746E-04-1.67770E-14
 -1      3722 5.54643E-03-1.74329E-04-1.75710E-14
 -1      3723 5.32954E-03-1.48188E-04-1.63265E-14
 -1      3724 5.68404E-03-1.69961E-04-1.83785E-14
 -1      3725 5.82165E-03-1.65725E-04-1.91990E-14
 -1      3726 5.60210E-03-1.39281E-04-1.79094E-14
 -1      3727 5.95931E-03-1.61697E-04-2.00358E-14
 -1      3728 6.09741E-03-1.58069E-04-2.08858E-14
 -1      3729 5.87319E-03-1.30067E-04-1.95491E-14
 -1      3730 6.23605E-03-1.54904E-04-2.17489E-14
 -1      3731 6.37586E-03-1.52611E-04-2.26271E-14
 -1      3732 6.14397E-03-1.21034E-04-2.12443E-14
 -1      3733 6.51711E-03-1.51220E-04-2.35198E-14
 -1      3734 6.66068E-03-1.51653E-04-2.44239E-14
 -1      3735 6.41655E-03-1.13117E-04-2.29952E-14
 -1      3736 6.80702E-03-1.53963E-04-2.53415E-14
 -1      3737 6.95739E-03-1.59779E-04-2.62728E-14
 -1      3738 6.69484E-03-1.08424E-04-2.48000E-14
 -1      3739 7.08751E-03-1.71501E-04-2.70482E-14
 -1      3740 7.24818E-03-1.86775E-04-2.80028E-14
 -1      3741 7.22268E-03-1.39420E-04-2.80504E-14
 -1      3742 6.96156E-03-1.15407E-04-2.64891E-14
 -1      3743 8.21561E-03-5.43326E-04-3.30176E-14
 -1      3744 1.25733E-03-1.41198E-05-1.22249E-15
 -1      3745 1.25797E-03-4.49593E-05-1.23447E-15
 -1      3746 1.37968E-03 1.34142E-06-1.42505E-15
 -1      3747 8.39835E-03-6.04415E-04-3.40501E-14
 -1      3748 1.16637E-02 3.51173E-04-5.03212E-14
 -1      3749 1.15700E-02 3.13508E-04-5.03659E-14
 -1      3750 1.34459E-02 4.24122E-04-7.10137E-14
 -1      3751 1.12183E-02 1.01093E-04-5.09300E-14
 -1      3752 1.13707E-02 1.32157E-04-5.21221E-14
 -1      3753 1.15187E-02 1.59170E-04-5.33207E-14
 -1      3754 1.16636E-02 1.84116E-04-5.45239E-14
 -1      3755 1.15063E-02 1.91498E-04-5.25865E-14
 -1      3756 1.18058E-02 2.06988E-04-5.57369E-14
 -1      3757 1.19464E-02 2.28803E-04-5.69570E-14
 -1      3758 1.17868E-02 2.35343E-04-5.49935E-14
 -1      3759 1.20856E-02 2.49607E-04-5.81843E-14
 -1      3760 1.22241E-02 2.69890E-04-5.94194E-14
 -1      3761 1.20606E-02 2.75243E-04-5.74311E-14
 -1      3762 1.23620E-02 2.89721E-04-6.06645E-14
 -1      3763 1.24998E-02 3.09324E-04-6.19183E-14
 -1      3764 1.23319E-02 3.13721E-04-5.99004E-14
 -1      3765 1.26375E-02 3.28785E-04-6.31811E-14
 -1      3766 1.27753E-02 3.48207E-04-6.44519E-14
 -1      3767 1.26031E-02 3.51949E-04-6.24041E-14
 -1      3768 1.29134E-02 3.67673E-04-6.57324E-14
 -1      3769 1.30518E-02 3.87232E-04-6.70257E-14
 -1      3770 1.28755E-02 3.90521E-04-6.49445E-14
 -1      3771 1.31904E-02 4.06967E-04-6.83298E-14
 -1      3772 1.33295E-02 4.26870E-04-6.96418E-14
 -1      3773 1.31498E-02 4.29795E-04-6.75265E-14
 -1      3774 4.09596E-03 2.50273E-04-9.26760E-15
 -1      3775 3.95415E-03 2.53065E-04-8.66755E-15
 -1      3776 5.21071E-03 2.23042E-04-1.46703E-14
 -1      3777 5.07385E-03 2.26513E-04-1.39397E-14
 -1      3778 4.93616E-03 2.30048E-04-1.32247E-14
 -1      3779 4.79766E-03 2.33658E-04-1.25246E-14
 -1      3780 4.99719E-03 1.96540E-04-1.36713E-14
 -1      3781 5.74759E-03 2.12171E-04-1.77447E-14
 -1      3782 5.61511E-03 2.14277E-04-1.69538E-14
 -1      3783 6.00835E-03 2.10077E-04-1.93668E-14
 -1      3784 5.87864E-03 2.10787E-04-1.85493E-14
 -1      3785 5.79609E-03 1.83414E-04-1.82480E-14
 -1      3786 6.26303E-03 2.11614E-04-2.10399E-14
 -1      3787 6.13639E-03 2.10380E-04-2.01978E-14
 -1      3788 6.05003E-03 1.83073E-04-1.98881E-14
 -1      3789 6.51132E-03 2.17880E-04-2.27607E-14
 -1      3790 6.38779E-03 2.14141E-04-2.18942E-14
 -1      3791 6.29565E-03 1.86065E-04-2.15772E-14
 -1      3792 6.75389E-03 2.30115E-04-2.45286E-14
 -1      3793 6.63287E-03 2.23166E-04-2.36388E-14
 -1      3794 6.53150E-03 1.92923E-04-2.33143E-14
 -1      3795 1.27369E-02 6.79724E-04-5.93470E-14
 -1      3796 1.26060E-02 6.55063E-04-5.81067E-14
 -1      3797 1.22226E-02 5.86375E-04-5.44408E-14
 -1      3798 1.20978E-02 5.65592E-04-5.32368E-14
 -1      3799 1.24767E-02 6.31260E-04-5.68752E-14
 -1      3800 1.23487E-02 6.08249E-04-5.56527E-14
 -1      3801 1.25412E-02 6.15737E-04-5.76498E-14
 -1      3802 1.07549E-02-2.84646E-05-4.77910E-14
 -1      3803 1.32728E-02 7.83133E-04-6.43882E-14
 -1      3804 1.31371E-02 7.56761E-04-6.31146E-14
 -1      3805 1.35469E-02 8.36143E-04-6.69493E-14
 -1      3806 1.34094E-02 8.09604E-04-6.56644E-14
 -1      3807 1.33301E-02 7.65630E-04-6.51924E-14
 -1      3808 1.29633E-03-1.20867E-04-1.31319E-15
 -1      3809 1.44193E-03-1.62828E-04-1.57616E-15
 -1      3810 1.29392E-03-8.89144E-05-1.30524E-15
 -1      3811 1.40113E-03 2.22203E-04-1.27773E-15
 -1      3812 1.28895E-03 1.85490E-04-1.13092E-15
 -1      3813 2.54750E-03 3.38693E-04-3.65283E-15
 -1      3814 2.40363E-03 3.36022E-04-3.27308E-15
 -1      3815 2.36232E-03 3.07088E-04-3.22018E-15
 -1      3816 2.61448E-03 3.02901E-04-3.90988E-15
 -1      3817 1.40172E-02 9.29325E-04-7.13060E-14
 -1      3818 1.28475E-03 1.52512E-04-1.15674E-15
 -1      3819 1.19750E-02 5.46255E-04-5.20427E-14
 -1      3820 1.18531E-02 5.28231E-04-5.08573E-14
 -1      3821 1.20520E-02 5.28683E-04-5.27985E-14
 -1      3822 6.79262E-03 1.81989E-04-2.61295E-14
 -1      3823 6.88145E-03 2.05379E-04-2.63831E-14
 -1      3824 6.89786E-03 2.26411E-04-2.59640E-14
 -1      3825 5.48145E-03 2.16815E-04-1.61773E-14
 -1      3826 5.34658E-03 2.19815E-04-1.54159E-14
 -1      3827 5.53520E-03 1.86301E-04-1.66626E-14
 -1      3828 9.11089E-03-7.46508E-04-3.85444E-14
 -1      3829 7.18656E-03-1.03062E-04-2.80111E-14
 -1      3830 1.40600E-03 1.43827E-04-1.37009E-15
 -1      3831 1.09333E-02 5.55448E-05-4.84813E-14
 -1      3832 1.09108E-02 1.89610E-05-4.88152E-14
 -1      3833 1.10750E-02 6.12865E-05-4.99904E-14
 -1      3834 1.10958E-02 1.29052E-04-4.90285E-14
 -1      3835 1.38871E-02 8.92167E-04-7.02198E-14
 -1      3836 1.14047E-02 2.50692E-04-5.00305E-14
 -1      3837 1.12540E-02 1.93187E-04-4.95795E-14
 -1      3838 1.37481E-02 8.65955E-04-6.89163E-14
 -1      3839 1.17684E-02 3.96902E-04-5.01608E-14
 -1      3840 1.17308E-02 3.78752E-04-5.02566E-14
 -1      3841 1.30025E-02 7.30683E-04-6.18518E-14
 -1      3842 1.28690E-02 7.04914E-04-6.05976E-14
 -1      3843 1.27981E-02 6.63896E-04-6.01326E-14
 -1      3844 1.30615E-02 7.14167E-04-6.26481E-14
 -1      3845 1.36652E-02 8.20879E-04-6.84389E-14
 -1      3846 1.16908E-02 3.17571E-04-5.18910E-14
 -1      3847 1.15530E-02 2.87062E-04-5.09602E-14
 -1      3848 1.15392E-02 2.57670E-04-5.15527E-14
 -1      3849 8.94114E-03-7.38883E-04-3.73467E-14
 -1      3850 1.17704E-02 3.71508E-04-5.12294E-14
 -1      3851 5.26856E-03 1.90921E-04-1.51359E-14
 -1      3852 1.34031E-02 4.47478E-04-7.01991E-14
 -1      3853 1.12246E-02 1.32996E-04-5.04484E-14
 -1      3854 4.23734E-03 2.47275E-04-9.88550E-15
 -1      3855 4.16260E-03 2.13989E-04-9.65315E-15
 -1      3856 4.37826E-03 2.44062E-04-1.05198E-14
 -1      3857 2.95245E-03 2.63596E-04-4.99843E-15
 -1      3858 2.80839E-03 2.63345E-04-4.55261E-15
 -1      3859 3.45862E-03 2.97055E-04-6.64337E-15
 -1      3860 3.81197E-03 2.55585E-04-8.08590E-15
 -1      3861 3.66942E-03 2.57837E-04-7.52301E-15
 -1      3862 3.87952E-03 2.18808E-04-8.44907E-15
 -1      3863 1.36283E-02 6.33935E-04-7.02504E-14
 -1      3864 1.36520E-02 6.69242E-04-7.00668E-14
 -1      3865 6.83828E-03 2.30728E-04-2.52858E-14
 -1      3866 6.72527E-03 1.97395E-04-2.49543E-14
 -1      3867 1.87008E-03 2.58271E-04-2.13713E-15
 -1      3868 1.72597E-03 2.50502E-04-1.84866E-15
 -1      3869 1.54437E-03 2.33608E-04-1.51986E-15
 -1      3870 6.60234E-03 8.16343E-05-2.51180E-14
 -1      3871 6.65201E-03 1.07315E-04-2.56746E-14
 -1      3872 6.61070E-03 1.15425E-04-2.52741E-14
 -1      3873 1.15854E-02 4.80632E-04-4.80997E-14
 -1      3874 1.22921E-02 5.70464E-04-5.52048E-14
 -1      3875 1.57642E-03-1.33812E-04-1.83642E-15
 -1      3876 1.56541E-03-1.73676E-04-1.81566E-15
 -1      3877 1.68941E-03-1.83868E-04-2.07130E-15
 -1      3878 1.41574E-03-7.70906E-05-1.51868E-15
 -1      3879 1.18522E-02 4.91891E-04-5.07188E-14
 -1      3880 1.17657E-02 5.11551E-04-4.99694E-14
 -1      3881 1.16798E-02 4.95359E-04-4.90882E-14
 -1      3882 1.35728E-02 4.66399E-04-7.18947E-14
 -1      3883 6.74468E-03 2.14293E-05-2.58192E-14
 -1      3884 6.65443E-03 3.87009E-05-2.52806E-14
 -1      3885 2.01436E-03 2.64650E-04-2.44657E-15
 -1      3886 1.93717E-03 2.26715E-04-2.32923E-15
 -1      3887 2.15874E-03 2.69718E-04-2.77679E-15
 -1      3888 3.09633E-03 2.63319E-04-5.46361E-15
 -1      3889 3.02089E-03 2.26766E-04-5.28847E-15
 -1      3890 3.23999E-03 2.62544E-04-5.94894E-15
 -1      3891 1.36030E-02 5.98270E-04-7.04353E-14
 -1      3892 1.34977E-02 5.97067E-04-6.92067E-14
 -1      3893 1.35763E-02 5.62213E-04-7.06175E-14
 -1      3894 6.82550E-03-2.01778E-05-2.61072E-14
 -1      3895 1.17965E-02 4.18340E-04-5.01102E-14
 -1      3896 1.17857E-02 4.07852E-04-5.01372E-14
 -1      3897 1.18462E-02 4.09380E-04-5.11399E-14
 -1      3898 1.50549E-03 8.73058E-05-1.59908E-15
 -1      3899 1.50384E-03 5.27990E-05-1.62133E-15
 -1      3900 6.71504E-03 1.62803E-04-2.57744E-14
 -1      3901 6.71275E-03 1.75897E-04-2.53637E-14
 -1      3902 6.65131E-03 1.46129E-04-2.54178E-14
 -1      3903 1.12372E-02 1.60444E-04-5.00650E-14
 -1      3904 1.81375E-03-1.93351E-04-2.34323E-15
 -1      3905 1.88224E-03-1.62011E-04-2.49869E-15
 -1      3906 1.36473E-02 7.85588E-04-6.86134E-14
 -1      3907 1.34497E-02 7.57044E-04-6.66454E-14
 -1      3908 1.36281E-02 7.50640E-04-6.87838E-14
 -1      3909 1.35028E-02 4.75729E-04-7.09578E-14
 -1      3910 1.35553E-02 4.96936E-04-7.12748E-14
 -1      3911 1.35840E-02 5.34012E-04-7.10969E-14
 -1      3912 1.33868E-02 4.77693E-04-6.95861E-14
 -1      3913 4.65848E-03 2.37208E-04-1.18402E-14
 -1      3914 4.51865E-03 2.40709E-04-1.11716E-14
 -1      3915 4.44357E-03 2.08481E-04-1.09275E-14
 -1      3916 4.72195E-03 2.02549E-04-1.22683E-14
 -1      3917 1.36303E-02 6.92772E-04-6.95090E-14
 -1      3918 1.36524E-02 7.27536E-04-6.93417E-14
 -1      3919 1.34566E-02 7.00726E-04-6.73656E-14
 -1      3920 1.35018E-02 6.55367E-04-6.84709E-14
 -1      3921 2.42370E-03-1.51672E-04-3.88806E-15
 -1      3922 2.56852E-03-1.52912E-04-4.30962E-15
 -1      3923 2.71324E-03-1.53681E-04-4.75142E-15
 -1      3924 2.85780E-03-1.54009E-04-5.21278E-15
 -1      3925 2.63863E-03-1.16882E-04-4.50361E-15
 -1      3926 3.00213E-03-1.53970E-04-5.69474E-15
 -1      3927 3.14621E-03-1.53573E-04-6.19600E-15
 -1      3928 2.92786E-03-1.17387E-04-5.42326E-15
 -1      3929 3.28998E-03-1.52883E-04-6.71620E-15
 -1      3930 3.43342E-03-1.51894E-04-7.25577E-15
 -1      3931 3.21608E-03-1.16752E-04-6.42117E-15
 -1      3932 3.57648E-03-1.50660E-04-7.81451E-15
 -1      3933 3.71913E-03-1.49166E-04-8.39144E-15
 -1      3934 3.50293E-03-1.15169E-04-7.49590E-15
 -1      3935 3.86135E-03-1.47456E-04-8.98675E-15
 -1      3936 4.00310E-03-1.45507E-04-9.60069E-15
 -1      3937 3.78808E-03-1.12764E-04-8.64531E-15
 -1      3938 4.14435E-03-1.43358E-04-1.02329E-14
 -1      3939 4.28506E-03-1.40975E-04-1.08823E-14
 -1      3940 4.07124E-03-1.09594E-04-9.86900E-15
 -1      3941 4.42521E-03-1.38399E-04-1.15488E-14
 -1      3942 4.56476E-03-1.35587E-04-1.22315E-14
 -1      3943 4.35210E-03-1.05662E-04-1.11637E-14
 -1      3944 4.70368E-03-1.32581E-04-1.29297E-14
 -1      3945 4.84195E-03-1.29333E-04-1.36445E-14
 -1      3946 4.63034E-03-1.00931E-04-1.25246E-14
 -1      3947 4.97953E-03-1.25886E-04-1.43749E-14
 -1      3948 5.11643E-03-1.22188E-04-1.51191E-14
 -1      3949 4.90564E-03-9.53241E-05-1.39493E-14
 -1      3950 5.25259E-03-1.18286E-04-1.58791E-14
 -1      3951 5.38808E-03-1.14128E-04-1.66544E-14
 -1      3952 5.17770E-03-8.87293E-05-1.54344E-14
 -1      3953 5.52282E-03-1.09763E-04-1.74433E-14
 -1      3954 5.65695E-03-1.05148E-04-1.82465E-14
 -1      3955 5.44624E-03-8.10024E-05-1.69798E-14
 -1      3956 5.79040E-03-1.00331E-04-1.90640E-14
 -1      3957 5.92342E-03-9.53023E-05-1.98964E-14
 -1      3958 5.71114E-03-7.19731E-05-1.85826E-14
 -1      3959 6.05593E-03-9.01051E-05-2.07426E-14
 -1      3960 6.18840E-03-8.48186E-05-2.16011E-14
 -1      3961 5.97246E-03-6.14731E-05-2.02422E-14
 -1      3962 6.32071E-03-7.94763E-05-2.24739E-14
 -1      3963 6.45371E-03-7.42993E-05-2.33615E-14
 -1      3964 6.23075E-03-4.94081E-05-2.19570E-14
 -1      3965 5.05814E-03 1.64173E-04-1.41214E-14
 -1      3966 4.92225E-03 1.66482E-04-1.34026E-14
 -1      3967 1.50300E-03 1.85470E-05-1.64131E-15
 -1      3968 1.50295E-03-1.56466E-05-1.65929E-15
 -1      3969 1.62719E-03 3.71726E-05-1.87070E-15
 -1      3970 1.18834E-02 3.94284E-04-5.22193E-14
 -1      3971 1.18241E-02 3.65535E-04-5.22862E-14
 -1      3972 4.78534E-03 1.68841E-04-1.26980E-14
 -1      3973 4.64750E-03 1.71278E-04-1.20099E-14
 -1      3974 4.84883E-03 1.36109E-04-1.31318E-14
 -1      3975 1.13724E-02 1.92262E-04-5.10060E-14
 -1      3976 1.17718E-02 2.63146E-04-5.42507E-14
 -1      3977 1.19054E-02 2.81814E-04-5.54616E-14
 -1      3978 1.20380E-02 3.00114E-04-5.66798E-14
 -1      3979 1.21707E-02 3.18459E-04-5.79035E-14
 -1      3980 1.20177E-02 3.24196E-04-5.59280E-14
 -1      3981 1.23033E-02 3.36868E-04-5.91372E-14
 -1      3982 1.24363E-02 3.55447E-04-6.03790E-14
 -1      3983 1.22759E-02 3.59092E-04-5.83765E-14
 -1      3984 1.25697E-02 3.74247E-04-6.16298E-14
 -1      3985 1.27037E-02 3.93247E-04-6.28905E-14
 -1      3986 1.25369E-02 3.95602E-04-6.08575E-14
 -1      3987 1.28382E-02 4.12519E-04-6.41584E-14
 -1      3988 1.29735E-02 4.32036E-04-6.54369E-14
 -1      3989 1.28013E-02 4.33611E-04-6.33743E-14
 -1      3990 1.31094E-02 4.51840E-04-6.67256E-14
 -1      3991 1.32460E-02 4.71912E-04-6.80256E-14
 -1      3992 1.30692E-02 4.73047E-04-6.59295E-14
 -1      3993 3.52656E-03 2.59761E-04-6.97904E-15
 -1      3994 3.38341E-03 2.61353E-04-6.45426E-15
 -1      3995 3.30838E-03 2.25457E-04-6.26462E-15
 -1      3996 3.59468E-03 2.22708E-04-7.31915E-15
 -1      3997 6.63866E-03 1.75894E-04-2.46058E-14
 -1      3998 6.09218E-03 1.58152E-04-2.04110E-14
 -1      3999 5.96967E-03 1.57020E-04-1.95760E-14
 -1      4000 5.84489E-03 1.56449E-04-1.87540E-14
 -1      4001 5.71791E-03 1.56672E-04-1.79457E-14
 -1      4002 5.89457E-03 1.31251E-04-1.92625E-14
 -1      4003 6.53288E-03 1.70300E-04-2.37145E-14
 -1      4004 6.42243E-03 1.66185E-04-2.28336E-14
 -1      4005 6.53840E-03 1.50928E-04-2.41139E-14
 -1      4006 1.61125E-03 2.05794E-04-1.68092E-15
 -1      4007 1.33148E-02 7.31738E-04-6.53620E-14
 -1      4008 5.32640E-03 1.60142E-04-1.56055E-14
 -1      4009 5.19289E-03 1.62074E-04-1.48558E-14
 -1      4010 5.11929E-03 1.32957E-04-1.45741E-14
 -1      4011 1.16845E-02 4.57548E-04-4.88392E-14
 -1      4012 2.73247E-03 2.26257E-04-4.39225E-15
 -1      4013 2.66416E-03 2.62462E-04-4.12737E-15
 -1      4014 6.94483E-03 2.65578E-04-2.55305E-14
 -1      4015 1.50725E-03 1.22619E-04-1.57234E-15
 -1      4016 1.62989E-03 1.09465E-04-1.81898E-15
 -1      4017 1.26004E-02 6.01205E-04-5.84286E-14
 -1      4018 1.24760E-02 5.78356E-04-5.71965E-14
 -1      4019 1.21189E-02 5.14646E-04-5.35564E-14
 -1      4020 1.20063E-02 4.94749E-04-5.23615E-14
 -1      4021 5.58908E-03 1.57341E-04-1.71516E-14
 -1      4022 5.45849E-03 1.58588E-04-1.63711E-14
 -1      4023 5.38458E-03 1.30697E-04-1.60779E-14
 -1      4024 1.53092E-03 1.68840E-04-1.57074E-15
 -1      4025 1.52036E-03-4.96973E-05-1.70655E-15
 -1      4026 1.55698E-03-9.81842E-05-1.79197E-15
 -1      4027 1.68058E-03-1.05700E-04-2.04501E-15
 -1      4028 1.64384E-03-3.37305E-05-1.94426E-15
 -1      4029 1.23541E-02 5.56424E-04-5.59737E-14
 -1      4030 1.22348E-02 5.35025E-04-5.47616E-14
 -1      4031 1.24096E-02 5.42887E-04-5.67452E-14
 -1      4032 1.86211E-03-1.23714E-04-2.44619E-15
 -1      4033 2.04440E-03-1.41603E-04-2.88199E-15
 -1      4034 1.84289E-03-8.58911E-05-2.39163E-15
 -1      4035 6.31868E-03 1.62724E-04-2.20401E-14
 -1      4036 6.20152E-03 1.60080E-04-2.11828E-14
 -1      4037 6.12529E-03 1.35060E-04-2.08613E-14
 -1      4038 6.33444E-03 1.41422E-04-2.24292E-14
 -1      4039 1.17524E-02 4.42962E-04-4.94717E-14
 -1      4040 1.75546E-03 1.32315E-04-2.05214E-15
 -1      4041 1.75353E-03 9.44178E-05-2.08441E-15
 -1      4042 2.16158E-03-1.45932E-04-3.17778E-15
 -1      4043 2.30642E-03-1.48167E-04-3.56116E-15
 -1      4044 2.37649E-03-1.13098E-04-3.74057E-15
 -1      4045 2.14196E-03-1.06332E-04-3.11486E-15
 -1      4046 6.58049E-03 2.43268E-05-2.46519E-14
 -1      4047 6.59034E-03 5.47234E-05-2.48864E-14
 -1      4048 6.53319E-03 6.79767E-05-2.44943E-14
 -1      4049 7.05652E-03-9.13267E-05-2.72282E-14
 -1      4050 6.93200E-03-8.41792E-05-2.64527E-14
 -1      4051 6.74009E-03-4.68154E-05-2.53829E-14
 -1      4052 6.60708E-03-5.15279E-05-2.44687E-14
 -1      4053 1.71210E-03 1.82801E-04-1.90761E-15
 -1      4054 6.50724E-03-1.93055E-05-2.39303E-14
 -1      4055 1.83516E-03 1.68783E-04-2.18079E-15
 -1      4056 1.15283E-02 2.34815E-04-5.19413E-14
 -1      4057 1.87700E-03 7.85607E-05-2.36516E-15
 -1      4058 1.75176E-03 5.74028E-05-2.11194E-15
 -1      4059 1.75084E-03 2.05151E-05-2.13668E-15
 -1      4060 1.21760E-02 5.01921E-04-5.43162E-14
 -1      4061 1.19511E-02 4.38041E-04-5.21412E-14
 -1      4062 1.20227E-02 4.37334E-04-5.32034E-14
 -1      4063 1.16635E-02 2.54363E-04-5.31377E-14
 -1      4064 4.57416E-03 1.39673E-04-1.17509E-14
 -1      4065 4.50883E-03 1.73672E-04-1.13373E-14
 -1      4066 4.36939E-03 1.76046E-04-1.06811E-14
 -1      4067 1.17855E-02 2.99630E-04-5.35974E-14
 -1      4068 1.33380E-02 5.27267E-04-6.83009E-14
 -1      4069 1.33809E-02 5.06058E-04-6.91122E-14
 -1      4070 3.94718E-03 1.82473E-04-8.81580E-15
 -1      4071 3.80534E-03 1.84318E-04-8.22981E-15
 -1      4072 6.57989E-03 1.26694E-04-2.48939E-14
 -1      4073 6.55496E-03 1.37493E-04-2.44920E-14
 -1      4074 6.45457E-03 1.31250E-04-2.36003E-14
 -1      4075 6.51240E-03 1.05351E-04-2.43477E-14
 -1      4076 5.64354E-03 1.29917E-04-1.76417E-14
 -1      4077 1.32821E-02 6.91421E-04-6.54258E-14
 -1      4078 1.31659E-02 6.99592E-04-6.39828E-14
 -1      4079 2.28507E-03 2.69082E-04-3.08964E-15
 -1      4080 2.20818E-03 2.31299E-04-2.95792E-15
 -1      4081 2.41144E-03 2.67576E-04-3.41879E-15
 -1      4082 1.27269E-02 6.24544E-04-5.96674E-14
 -1      4083 1.26550E-02 5.86845E-04-5.92071E-14
 -1      4084 1.28555E-02 6.48562E-04-6.09193E-14
 -1      4085 2.53782E-03 2.65351E-04-3.76455E-15
 -1      4086 1.18351E-02 4.44674E-04-5.04754E-14
 -1      4087 1.97957E-03 1.73411E-04-2.49479E-15
 -1      4088 6.44153E-03-3.38914E-07-2.35474E-14
 -1      4089 2.80139E-03 1.89876E-04-4.66211E-15
 -1      4090 2.65686E-03 1.89189E-04-4.23121E-15
 -1      4091 1.33656E-02 5.62407E-04-6.81249E-14
 -1      4092 1.33916E-02 5.97100E-04-6.79441E-14
 -1      4093 1.32336E-02 5.28319E-04-6.70457E-14
 -1      4094 1.33720E-02 6.20071E-04-6.73965E-14
 -1      4095 1.33511E-02 6.42581E-04-6.68489E-14
 -1      4096 1.32426E-02 5.85509E-04-6.63271E-14
 -1      4097 3.08981E-03 1.89923E-04-5.58296E-15
 -1      4098 2.94572E-03 1.90114E-04-5.11256E-15
 -1      4099 2.87087E-03 1.53389E-04-4.93594E-15
 -1      4100 1.18065E-02 3.45943E-04-5.26423E-14
 -1      4101 1.18049E-02 3.23628E-04-5.32414E-14
 -1      4102 1.19049E-02 3.30626E-04-5.43571E-14
 -1      4103 1.19330E-02 3.71985E-04-5.36407E-14
 -1      4104 4.22926E-03 1.78307E-04-1.00429E-14
 -1      4105 4.08851E-03 1.80474E-04-9.42058E-15
 -1      4106 4.29602E-03 1.43277E-04-1.04347E-14
 -1      4107 4.01500E-03 1.46639E-04-9.18678E-15
 -1      4108 1.30338E-02 6.74840E-04-6.27139E-14
 -1      4109 2.56453E-03-8.02432E-05-4.26062E-15
 -1      4110 2.70937E-03-8.06312E-05-4.69821E-15
 -1      4111 2.85404E-03-8.07945E-05-5.15558E-15
 -1      4112 2.99847E-03-8.07298E-05-5.63319E-15
 -1      4113 2.78070E-03-4.42276E-05-4.89271E-15
 -1      4114 3.14261E-03-8.04876E-05-6.13000E-15
 -1      4115 3.28641E-03-8.00521E-05-6.64543E-15
 -1      4116 3.06959E-03-4.41051E-05-5.84291E-15
 -1      4117 3.42983E-03-7.94666E-05-7.18079E-15
 -1      4118 3.57282E-03-7.87061E-05-7.73520E-15
 -1      4119 3.35718E-03-4.35384E-05-6.86960E-15
 -1      4120 3.71533E-03-7.78121E-05-8.30807E-15
 -1      4121 3.85733E-03-7.67527E-05-8.89896E-15
 -1      4122 3.64309E-03-4.25630E-05-7.97362E-15
 -1      4123 3.99878E-03-7.55556E-05-9.50921E-15
 -1      4124 4.13963E-03-7.41880E-05-1.01370E-14
 -1      4125 3.92692E-03-4.11783E-05-9.15256E-15
 -1      4126 4.27983E-03-7.26738E-05-1.07820E-14
 -1      4127 4.41935E-03-7.09698E-05-1.14447E-14
 -1      4128 4.20834E-03-3.93347E-05-1.04040E-14
 -1      4129 4.55812E-03-6.90982E-05-1.21219E-14
 -1      4130 4.69611E-03-6.70050E-05-1.28161E-14
 -1      4131 4.48691E-03-3.69397E-05-1.17232E-14
 -1      4132 4.83324E-03-6.47110E-05-1.35267E-14
 -1      4133 4.96950E-03-6.21503E-05-1.42520E-14
 -1      4134 4.76219E-03-3.38473E-05-1.31072E-14
 -1      4135 5.10478E-03-5.93421E-05-1.49922E-14
 -1      4136 5.23908E-03-5.62072E-05-1.57481E-14
 -1      4137 5.03368E-03-2.98488E-05-1.45531E-14
 -1      4138 5.37229E-03-5.27623E-05-1.65193E-14
 -1      4139 5.50443E-03-4.89149E-05-1.73044E-14
 -1      4140 5.30080E-03-2.46603E-05-1.60610E-14
 -1      4141 5.63535E-03-4.46774E-05-1.81041E-14
 -1      4142 5.76515E-03-3.99493E-05-1.89177E-14
 -1      4143 5.56290E-03-1.79099E-05-1.76280E-14
 -1      4144 5.89359E-03-3.47463E-05-1.97453E-14
 -1      4145 6.02090E-03-2.89435E-05-2.05873E-14
 -1      4146 5.81928E-03-9.13499E-06-1.92515E-14
 -1      4147 6.14670E-03-2.25868E-05-2.14433E-14
 -1      4148 6.27150E-03-1.55386E-05-2.23120E-14
 -1      4149 6.06903E-03 2.17778E-06-2.09317E-14
 -1      4150 1.34787E-02 5.34004E-04-6.98641E-14
 -1      4151 1.29563E-02 6.34912E-04-6.22391E-14
 -1      4152 1.20292E-02 3.46601E-04-5.55660E-14
 -1      4153 1.21548E-02 3.63159E-04-5.67853E-14
 -1      4154 1.20400E-02 3.67565E-04-5.52058E-14
 -1      4155 3.73160E-03 1.49538E-04-8.00968E-15
 -1      4156 3.66302E-03 1.85945E-04-7.66260E-15
 -1      4157 3.52027E-03 1.87362E-04-7.11391E-15
 -1      4158 1.22813E-02 3.80346E-04-5.80118E-14
 -1      4159 1.24090E-02 3.98094E-04-5.92441E-14
 -1      4160 1.22858E-02 4.00528E-04-5.76459E-14
 -1      4161 1.25379E-02 4.16502E-04-6.04864E-14
 -1      4162 1.26680E-02 4.35283E-04-6.17388E-14
 -1      4163 1.25381E-02 4.36536E-04-6.01159E-14
 -1      4164 1.27991E-02 4.54545E-04-6.30008E-14
 -1      4165 1.29314E-02 4.74239E-04-6.42700E-14
 -1      4166 1.27962E-02 4.74793E-04-6.26240E-14
 -1      4167 1.30992E-02 5.07660E-04-6.57560E-14
 -1      4168 1.33288E-02 6.64684E-04-6.63008E-14
 -1      4169 1.31801E-02 6.34433E-04-6.49148E-14
 -1      4170 1.24593E-02 5.29532E-04-5.75147E-14
 -1      4171 1.23405E-02 5.09037E-04-5.62908E-14
 -1      4172 1.19120E-02 4.61855E-04-5.13666E-14
 -1      4173 1.30936E-02 5.28312E-04-6.53756E-14
 -1      4174 5.94644E-03 1.07564E-04-1.97721E-14
 -1      4175 5.82417E-03 1.05461E-04-1.89465E-14
 -1      4176 6.43078E-03 5.69110E-05-2.36427E-14
 -1      4177 6.45481E-03 8.15767E-05-2.38703E-14
 -1      4178 5.69946E-03 1.03830E-04-1.81343E-14
 -1      4179 5.57256E-03 1.02943E-04-1.73363E-14
 -1      4180 5.75742E-03 7.89973E-05-1.86295E-14
 -1      4181 2.14155E-03 1.90197E-04-2.85380E-15
 -1      4182 2.04074E-03 1.32460E-04-2.68478E-15
 -1      4183 5.18108E-03 1.02810E-04-1.50292E-14
 -1      4184 5.04755E-03 1.03480E-04-1.42912E-14
 -1      4185 5.44375E-03 1.02452E-04-1.65525E-14
 -1      4186 5.31319E-03 1.02493E-04-1.57833E-14
 -1      4187 5.50430E-03 7.53451E-05-1.70294E-14
 -1      4188 6.35726E-03 2.40222E-05-2.30149E-14
 -1      4189 1.80701E-03-1.15115E-05-2.27756E-15
 -1      4190 1.82453E-03-4.85176E-05-2.33534E-15
 -1      4191 2.00609E-03-6.38763E-05-2.76122E-15
 -1      4192 2.58164E-03 1.52202E-04-4.07007E-15
 -1      4193 2.51220E-03 1.87959E-04-3.82128E-15
 -1      4194 4.08310E-03 1.11329E-04-9.56131E-15
 -1      4195 3.94210E-03 1.12475E-04-8.95190E-15
 -1      4196 4.91277E-03 1.04313E-04-1.35676E-14
 -1      4197 4.77681E-03 1.05358E-04-1.28595E-14
 -1      4198 4.97736E-03 7.34357E-05-1.40059E-14
 -1      4199 2.46140E-03 2.27868E-04-3.61907E-15
 -1      4200 2.10524E-03-2.80015E-05-2.98287E-15
 -1      4201 2.12318E-03-6.70418E-05-3.05015E-15
 -1      4202 2.24040E-03-7.00483E-05-3.35216E-15
 -1      4203 2.03820E-03 9.32312E-05-2.72086E-15
 -1      4204 2.03653E-03 5.41445E-05-2.75390E-15
 -1      4205 2.19979E-03 1.07938E-04-3.09934E-15
 -1      4206 6.41454E-03 9.53611E-05-2.35009E-14
 -1      4207 4.63982E-03 1.06472E-04-1.21677E-14
 -1      4208 4.50187E-03 1.07692E-04-1.14909E-14
 -1      4209 4.70596E-03 7.40747E-05-1.25870E-14
 -1      4210 3.80049E-03 1.13516E-04-8.36091E-15
 -1      4211 3.65833E-03 1.14474E-04-7.78907E-15
 -1      4212 3.86973E-03 7.79247E-05-8.71632E-15
 -1      4213 1.30899E-02 5.91797E-04-6.44016E-14
 -1      4214 1.30471E-02 6.17614E-04-6.35380E-14
 -1      4215 6.38567E-03 1.11373E-04-2.31647E-14
 -1      4216 6.35802E-03 1.25821E-04-2.27977E-14
 -1      4217 6.25755E-03 1.21457E-04-2.20026E-14
 -1      4218 1.25811E-02 5.50584E-04-5.87467E-14
 -1      4219 1.25046E-02 5.15543E-04-5.82862E-14
 -1      4220 1.27053E-02 5.72419E-04-5.99861E-14
 -1      4221 1.21391E-02 4.72475E-04-5.41931E-14
 -1      4222 1.20774E-02 4.25368E-04-5.42771E-14
 -1      4223 2.26832E-03 1.88759E-04-3.17075E-15
 -1      4224 1.19633E-02 4.50661E-04-5.21148E-14
 -1      4225 1.93156E-03 7.90066E-06-2.54447E-15
 -1      4226 6.27229E-03 4.10835E-05-2.24092E-14
 -1      4227 1.30769E-02 5.50802E-04-6.48365E-14
 -1      4228 2.94091E-03 1.16832E-04-5.21497E-15
 -1      4229 2.79643E-03 1.16661E-04-4.75921E-15
 -1      4230 6.15780E-03 1.15463E-04-2.12661E-14
 -1      4231 6.05111E-03 1.12325E-04-2.04917E-14
 -1      4232 5.98583E-03 8.70172E-05-2.01658E-14
 -1      4233 6.18930E-03 9.89127E-05-2.16242E-14
 -1      4234 1.22518E-02 4.91415E-04-5.54016E-14
 -1      4235 1.22093E-02 4.46238E-04-5.56412E-14
 -1      4236 1.20752E-02 4.09203E-04-5.46384E-14
 -1      4237 1.20691E-02 3.91626E-04-5.50007E-14
 -1      4238 4.36305E-03 1.08907E-04-1.08301E-14
 -1      4239 4.22344E-03 1.10148E-04-1.01871E-14
 -1      4240 4.15153E-03 7.65768E-05-9.93791E-15
 -1      4241 4.43046E-03 7.52200E-05-1.12297E-14
 -1      4242 2.38538E-03 1.90567E-04-3.47279E-15
 -1      4243 5.24383E-03 7.36931E-05-1.54870E-14
 -1      4244 2.72245E-03 7.99725E-05-4.58176E-15
 -1      4245 2.65174E-03 1.16186E-04-4.32355E-15
 -1      4246 2.50690E-03 1.15392E-04-3.90784E-15
 -1      4247 1.28720E-02 5.93421E-04-6.17384E-14
 -1      4248 2.34383E-03-7.38807E-05-3.63079E-15
 -1      4249 2.46111E-03-7.66245E-05-3.95903E-15
 -1      4250 2.53256E-03-4.07400E-05-4.13980E-15
 -1      4251 2.32578E-03-3.39018E-05-3.55686E-15
 -1      4252 3.37713E-03 1.88511E-04-6.58420E-15
 -1      4253 3.23363E-03 1.89388E-04-6.07408E-15
 -1      4254 3.15918E-03 1.53137E-04-5.88247E-15
 -1      4255 3.44621E-03 1.51773E-04-6.90803E-15
 -1      4256 1.22940E-02 4.78322E-04-5.61642E-14
 -1      4257 2.99707E-03-7.65383E-06-5.55957E-15
 -1      4258 3.14122E-03-7.54285E-06-6.05126E-15
 -1      4259 3.28502E-03-7.41557E-06-6.56338E-15
 -1      4260 3.42840E-03-7.23858E-06-7.09387E-15
 -1      4261 3.21333E-03 2.88955E-05-6.26045E-15
 -1      4262 3.61344E-03 1.81468E-05-7.77369E-15
 -1      4263 3.75570E-03 1.81979E-05-8.34628E-15
 -1      4264 3.89739E-03 1.82373E-05-8.93746E-15
 -1      4265 4.03846E-03 1.83485E-05-9.54727E-15
 -1      4266 4.17884E-03 1.84762E-05-1.01742E-14
 -1      4267 4.31850E-03 1.87154E-05-1.08191E-14
 -1      4268 4.45735E-03 1.90046E-05-1.14804E-14
 -1      4269 4.59535E-03 1.94611E-05-1.21568E-14
 -1      4270 4.73238E-03 2.00140E-05-1.28501E-14
 -1      4271 4.86842E-03 2.08111E-05-1.35592E-14
 -1      4272 5.00332E-03 2.17673E-05-1.42839E-14
 -1      4273 5.13705E-03 2.30720E-05-1.50228E-14
 -1      4274 5.26942E-03 2.46172E-05-1.57774E-14
 -1      4275 5.40040E-03 2.66480E-05-1.65474E-14
 -1      4276 5.52975E-03 2.90200E-05-1.73315E-14
 -1      4277 5.65746E-03 3.20552E-05-1.81308E-14
 -1      4278 5.78317E-03 3.55494E-05-1.89437E-14
 -1      4279 5.90691E-03 3.99397E-05-1.97705E-14
 -1      4280 6.01195E-03 4.64925E-05-2.04921E-14
 -1      4281 6.13104E-03 5.24881E-05-2.13449E-14
 -1      4282 1.21879E-02 4.07522E-04-5.62149E-14
 -1      4283 1.29454E-02 5.35987E-04-6.34626E-14
 -1      4284 1.23089E-02 4.24600E-04-5.74370E-14
 -1      4285 1.24322E-02 4.42296E-04-5.86662E-14
 -1      4286 1.23290E-02 4.47277E-04-5.72271E-14
 -1      4287 1.25574E-02 4.60912E-04-5.99047E-14
 -1      4288 1.28158E-02 5.15375E-04-6.21965E-14
 -1      4289 6.31666E-03 8.86352E-05-2.26968E-14
 -1      4290 2.31967E-03 1.49671E-04-3.35622E-15
 -1      4291 3.04146E-03 9.10965E-05-5.58252E-15
 -1      4292 2.96814E-03 5.45656E-05-5.39006E-15
 -1      4293 1.22999E-02 4.62742E-04-5.65322E-14
 -1      4294 1.27022E-02 5.18851E-04-6.07258E-14
 -1      4295 2.09239E-03 2.05316E-05-2.91645E-15
 -1      4296 2.31697E-03 1.09124E-04-3.39953E-15
 -1      4297 3.54267E-03 5.39974E-05-7.44294E-15
 -1      4298 1.24188E-02 4.81068E-04-5.77566E-14
 -1      4299 2.20950E-03 1.87974E-05-3.21101E-15
 -1      4300 2.83781E-03-1.31307E-05-5.04520E-15
 -1      4301 2.91018E-03 2.34199E-05-5.23881E-15
 -1      4302 2.80870E-03 4.90356E-05-4.88544E-15
 -1      4303 2.69309E-03-1.31522E-05-4.59399E-15
 -1      4304 3.18547E-03 9.09180E-05-6.07430E-15
 -1      4305 2.66395E-03 4.88188E-05-4.44264E-15
 -1      4306 1.25406E-02 5.00532E-04-5.89882E-14
 -1      4307 6.21990E-03 8.09111E-05-2.19496E-14
 -1      4308 1.27913E-02 5.55800E-04-6.12672E-14
 -1      4309 2.56901E-03-1.15296E-05-4.22213E-15
 -1      4310 2.62669E-03 1.93941E-05-4.36275E-15
 -1      4311 2.53991E-03 5.01108E-05-4.07804E-15
 -1      4312 2.46567E-03-8.32926E-06-3.92255E-15
 -1      4313 3.47237E-03 9.01384E-05-7.11588E-15
 -1      4314 2.38776E-03 7.38971E-05-3.62801E-15
 -1      4315 3.32913E-03 9.06087E-05-6.58586E-15
 -1      4316 2.35005E-03 4.48026E-05-3.55613E-15
 -1      4317 2.36231E-03-5.13047E-06-3.63393E-15
 -3
    1PSTEP                         2           1           1          
  100CL  101 1.000000000        4317                     0    1           1
 -4  STRESS      6    1
 -5  SXX         1    4    1    1
 -5  SYY         1    4    2    2
 -5  SZZ         1    4    3    3
 -5  SXY         1    4    1    2
 -5  SYZ         1    4    2    3
 -5  SZX         1    4    3    1
 -1         1 8.13107E+00 7.94399E+00-3.35133E-01-8.16033E+00-1.32083E-12 1.14309E-12
 -1         2-6.81307E-01-2.46331E+01-3.39711E+00-1.51154E-01 3.40096E-13-9.60690E-15
 -1         3 1.99965E+01-3.56105E-03 1.45143E-02-3.61880E-03-4.39837E-13-5.50085E-13
 -1         4 1.99968E+01-3.16399E-03 1.32378E-02 3.27291E-03 3.14365E-13 4.52419E-14
 -1         5 3.27397E+01 6.13719E+00 2.74035E+00 6.22092E+00-3.13222E-14 2.33946E-12
 -1         6 3.57228E+01 1.22535E+01 5.12187E+00-8.64169E+00-1.57374E-13 1.78413E-12
 -1         7 2.08017E+01 6.09487E+00-1.28953E-01-4.72507E+00-2.18159E-14 5.10633E-14
 -1         8 1.96620E+01 5.93206E+00 5.08965E-02-3.27615E+00-2.02199E-14-4.11666E-13
 -1         9 1.91343E+01 5.77096E+00 4.92461E-02-2.52834E+00-1.62821E-14-6.32812E-13
 -1        10 1.88973E+01 5.69273E+00 5.10938E-02-1.95280E+00-7.17568E-15-7.22711E-13
 -1        11 1.87804E+01 5.65318E+00 5.04202E-02-1.45745E+00-5.49517E-15-7.44667E-13
 -1        12 1.87203E+01 5.63256E+00 4.89737E-02-1.01605E+00 9.51279E-16-7.39626E-13
 -1        13 1.86889E+01 5.62175E+00 4.75635E-02-5.95846E-01-1.04387E-15-7.05936E-13
 -1        14 1.86758E+01 5.61724E+00 4.68216E-02-1.91392E-01 7.18213E-15-6.85422E-13
 -1        15 1.86764E+01 5.61740E+00 4.68640E-02 2.08295E-01 9.89443E-15-6.50032E-13
 -1        16 1.86904E+01 5.62225E+00 4.76964E-02 6.13594E-01 1.10739E-14-6.23828E-13
 -1        17 1.87231E+01 5.63331E+00 4.92268E-02 1.03576E+00 1.52369E-14-5.70502E-13
 -1        18 1.87846E+01 5.65437E+00 5.09833E-02 1.48031E+00 1.75558E-14-4.96465E-13
 -1        19 1.89033E+01 5.69440E+00 5.16738E-02 1.98187E+00 2.44900E-14-3.77946E-13
 -1        20 1.91391E+01 5.77344E+00 4.88637E-02 2.56566E+00 2.81771E-14-1.63620E-13
 -1        21 1.96574E+01 5.94660E+00 4.58555E-02 3.31024E+00 3.26961E-14 2.05426E-13
 -1        22 2.11844E+01 6.37654E+00 1.39356E-01 4.52280E+00 2.40086E-15 8.93565E-13
 -1        23 2.30039E+01-1.37792E+00-9.37758E-01-7.11363E-01-1.12157E-13 1.25278E-12
 -1        24 1.93404E+01-9.94708E-02-3.09763E-01 6.30119E-02-2.93463E-14 7.68434E-13
 -1        25 1.86506E+01-5.63633E-02-6.88251E-02 6.05449E-02-6.48136E-16 3.38346E-13
 -1        26 1.84471E+01-2.21785E-02-6.53496E-03 3.27738E-02-1.39128E-14 2.22669E-14
 -1        27 1.84582E+01-1.19495E-02 1.49949E-03 2.23509E-02-1.39959E-14-1.48836E-13
 -1        28 1.85737E+01-6.47253E-03 1.63147E-03 1.60073E-02-7.94330E-15-2.59178E-13
 -1        29 1.87376E+01-3.43411E-03 1.46124E-03 1.18251E-02 2.59319E-15-3.64826E-13
 -1        30 1.89202E+01-1.73223E-03 1.48840E-03 8.85259E-03-6.98412E-15-4.90515E-13
 -1        31 1.91060E+01-8.34449E-04 1.43832E-03 6.64585E-03-2.47807E-14-5.97764E-13
 -1        32 1.92880E+01-4.56782E-04 1.19128E-03 4.99159E-03-2.72299E-14-7.82919E-13
 -1        33 1.94650E+01-4.34223E-04 7.42482E-04 3.78529E-03 3.45270E-14-8.38207E-13
 -1        34 1.96399E+01-6.61262E-04 1.19707E-04 2.97884E-03-1.17893E-14-7.64362E-13
 -1        35 1.98186E+01-1.06100E-03-6.45268E-04 2.55828E-03-2.74924E-14-8.71043E-13
 -1        36 2.00091E+01-1.56593E-03-1.51721E-03 2.53361E-03-9.49563E-15-8.89320E-13
 -1        37 2.02210E+01-2.10243E-03-2.44603E-03 2.93178E-03-2.68162E-14-9.59575E-13
 -1        38 2.04643E+01-2.57543E-03-3.34747E-03 3.78731E-03-2.80665E-15-9.60370E-13
 -1        39 2.07483E+01-2.85213E-03-4.07522E-03 5.12445E-03-7.73638E-15-8.60810E-13
 -1        40 2.10799E+01-2.74621E-03-4.38339E-03 6.92320E-03 1.33805E-14-8.71142E-13
 -1        41 2.14599E+01-2.00877E-03-3.88392E-03 9.05848E-03-1.30697E-15-9.50828E-13
 -1        42 2.18796E+01-3.40019E-04-2.01773E-03 1.12013E-02-2.81640E-14-1.09843E-12
 -1        43 2.23139E+01 2.55238E-03 1.91146E-03 1.26791E-02 5.35608E-15-8.41318E-13
 -1        44 2.27156E+01 6.81082E-03 8.54563E-03 1.23258E-02-5.33015E-15-3.60924E-13
 -1        45 2.30097E+01 1.21691E-02 1.79926E-02 8.42771E-03-3.51125E-14-5.28080E-13
 -1        46 2.30947E+01 1.76018E-02 2.89860E-02-9.94541E-04 4.43220E-14-8.18661E-13
 -1        47 2.28584E+01 2.10724E-02 3.79426E-02-1.72108E-02 3.59619E-14-6.56959E-13
 -1        48 2.22155E+01 1.97733E-02 3.87908E-02-3.89163E-02-5.66788E-15-4.88437E-13
 -1        49 2.11691E+01 1.13697E-02 2.52221E-02-6.02205E-02 6.66910E-14-4.01283E-13
 -1        50 1.98705E+01-3.91679E-03-4.32228E-03-7.07015E-02-2.68484E-14-3.75738E-13
 -1        51 1.86296E+01-2.16509E-02-4.13361E-02-6.01285E-02-2.63110E-14-3.56271E-13
 -1        52 1.78277E+01-3.43384E-02-6.89272E-02-2.67462E-02-5.79870E-14-5.30137E-13
 -1        53 1.77463E+01-3.56422E-02-7.17895E-02 1.79304E-02-2.28578E-14-5.69877E-13
 -1        54 1.84149E+01-2.48849E-02-4.82050E-02 5.49389E-02 1.14887E-13-4.84968E-13
 -1        55 1.95939E+01-7.53196E-03-1.16219E-02 7.04505E-02-9.50112E-14-6.45626E-13
 -1        56 2.09073E+01 8.75484E-03 2.04605E-02 6.35829E-02 4.86715E-14-8.12638E-13
 -1        57 2.20196E+01 1.87145E-02 3.74229E-02 4.35031E-02 4.74233E-14-9.95870E-13
 -1        58 2.27450E+01 2.13241E-02 3.90786E-02 2.11929E-02 8.04001E-15-8.11688E-13
 -1        59 2.30544E+01 1.85792E-02 3.12177E-02 3.58412E-03-4.59694E-14-7.25719E-13
 -1        60 2.30205E+01 1.33312E-02 2.02576E-02-7.22500E-03 1.26808E-15-4.24820E-13
 -1        61 2.27540E+01 7.81189E-03 1.03122E-02-1.21544E-02 7.40846E-15-1.30911E-14
 -1        62 2.23610E+01 3.23667E-03 3.04747E-03-1.31456E-02-5.59472E-14-8.31314E-14
 -1        63 2.19228E+01-1.20730E-05-1.45284E-03-1.20055E-02-5.71496E-14-5.70222E-13
 -1        64 2.14931E+01-2.03166E-03-3.79300E-03-1.00088E-02 3.88136E-14-6.72809E-13
 -1        65 2.11026E+01-3.11734E-03-4.71623E-03-7.90094E-03 1.49374E-14-2.72879E-13
 -1        66 2.07655E+01-3.59696E-03-4.87772E-03-6.03224E-03-1.09817E-14-4.51214E-13
 -1        67 2.04867E+01-3.75628E-03-4.81366E-03-4.47899E-03 9.80805E-14-2.82151E-13
 -1        68 2.02669E+01-3.80360E-03-4.95295E-03-3.10786E-03 3.15916E-14 4.26042E-13
 -1        69 2.01069E+01-3.79956E-03-5.49103E-03-1.52350E-03 7.39266E-14 7.06020E-13
 -1        70 2.00107E+01-3.17450E-03-5.41846E-03 1.31416E-03-2.07485E-14 6.76506E-13
 -1        71 1.99849E+01 6.07570E-04 3.21611E-04 4.94213E-03-1.05259E-13 2.35439E-13
 -1        72 2.10173E+01-4.04560E-01-9.79909E-01-3.10986E-01 2.44943E-14 2.17856E-12
 -1        73 1.93046E+01-6.58820E-02-2.91067E-01-5.36712E-02 1.54963E-14 1.72709E-12
 -1        74 1.86596E+01-2.05509E-02-6.42725E-02-2.01844E-02 1.30280E-14 1.34803E-12
 -1        75 1.84554E+01-9.95151E-03-9.34227E-03-1.52185E-02-9.00712E-15 1.19586E-12
 -1        76 1.84661E+01-5.29021E-03 6.11627E-04-1.20765E-02 1.23463E-14 1.03528E-12
 -1        77 1.85803E+01-2.80834E-03 1.59417E-03-9.70408E-03-6.08742E-15 8.91892E-13
 -1        78 1.87425E+01-1.43255E-03 1.61493E-03-7.84458E-03-7.27226E-15 9.06264E-13
 -1        79 1.89233E+01-6.94722E-04 1.64896E-03-6.27147E-03-7.52225E-15 8.31738E-13
 -1        80 1.91072E+01-3.62299E-04 1.56816E-03-4.87977E-03 1.94896E-14 6.60496E-13
 -1        81 1.92873E+01-3.09697E-04 1.27780E-03-3.62975E-03 1.12146E-14 3.22475E-13
 -1        82 1.94628E+01-4.66435E-04 7.65262E-04-2.50929E-03 8.27488E-15 2.66011E-13
 -1        83 1.96373E+01-7.92767E-04 3.90099E-05-1.51923E-03-1.99225E-14 4.01270E-13
 -1        84 1.98178E+01-1.26673E-03-9.01269E-04-6.71451E-04 3.20098E-14 2.87318E-13
 -1        85 2.00146E+01-1.87529E-03-2.07169E-03 6.24230E-06 2.11861E-14 1.72598E-13
 -1        86 2.02412E+01-2.60516E-03-3.50140E-03 4.59813E-04-3.97891E-15-5.63589E-14
 -1        87 2.05139E+01-3.42973E-03-5.22260E-03 5.91610E-04-5.47858E-14-4.69195E-14
 -1        88 2.08524E+01-4.28748E-03-7.24679E-03 2.33904E-04-3.47260E-14 2.64716E-13
 -1        89 2.12790E+01-5.04596E-03-9.51211E-03-8.87766E-04 5.08800E-14 2.37586E-13
 -1        90 2.18174E+01-5.44565E-03-1.17733E-02-3.19639E-03-7.14115E-15 1.51597E-14
 -1        91 2.24890E+01-5.02334E-03-1.33894E-02-7.28583E-03-8.62591E-15 2.58362E-13
 -1        92 2.33056E+01-3.03949E-03-1.29653E-02-1.38492E-02-4.94191E-14 5.17197E-13
 -1        93 2.42540E+01 1.50040E-03-7.88879E-03-2.33349E-02 5.29660E-14 3.61471E-13
 -1        94 2.52715E+01 9.50884E-03 5.85993E-03-3.49971E-02-4.18329E-15 1.06415E-13
 -1        95 2.62101E+01 2.07951E-02 3.24871E-02-4.49805E-02 3.80533E-15 3.29981E-13
 -1        96 2.68030E+01 3.20953E-02 7.17363E-02-4.37613E-02 6.62697E-14 7.16005E-13
 -1        97 2.66726E+01 3.55492E-02 1.10003E-01-1.59873E-02-5.43159E-14 9.00028E-13
 -1        98 2.54582E+01 2.16203E-02 1.14719E-01 4.98604E-02 4.59832E-14 9.94899E-13
 -1        99 2.31183E+01-1.17429E-02 4.88410E-02 1.38431E-01-8.88754E-14 5.62654E-13
 -1       100 2.02742E+01-4.59121E-02-8.60649E-02 1.92712E-01 3.04596E-15 5.28938E-13
 -1       101 1.82001E+01-5.59874E-02-1.99850E-01 1.45090E-01-8.24514E-15 3.49720E-14
 -1       102 1.80449E+01-3.62249E-02-2.04314E-01 8.61992E-03-1.59733E-14-5.43631E-13
 -1       103 1.98993E+01-3.52800E-03-9.62977E-02-1.24723E-01-2.45271E-14-4.98650E-13
 -1       104 2.27202E+01 2.19186E-02 3.65018E-02-1.73107E-01-1.79190E-14-1.18024E-13
 -1       105 2.51940E+01 3.17665E-02 1.09972E-01-1.37505E-01 1.62463E-14 4.06758E-13
 -1       106 2.65806E+01 2.84894E-02 1.12783E-01-7.14113E-02 1.39476E-14 1.80540E-13
 -1       107 2.68453E+01 1.88078E-02 7.68209E-02-1.65758E-02 2.99055E-14-2.02798E-13
 -1       108 2.63274E+01 8.89026E-03 3.67097E-02 1.47102E-02 3.78220E-14-4.61069E-13
 -1       109 2.54140E+01 1.57115E-03 8.24139E-03 2.69124E-02-3.10048E-14-1.09246E-13
 -1       110 2.43899E+01-2.73873E-03-7.06517E-03 2.81539E-02 1.99573E-14-1.64868E-13
 -1       111 2.34186E+01-4.72261E-03-1.30603E-02 2.45944E-02 6.85131E-14-5.40071E-13
 -1       112 2.25735E+01-5.25133E-03-1.39146E-02 1.97167E-02-8.02525E-14-5.47402E-13
 -1       113 2.18743E+01-5.01541E-03-1.24901E-02 1.51191E-02-2.19719E-14-4.35017E-14
 -1       114 2.13137E+01-4.47093E-03-1.03842E-02 1.13692E-02-5.96854E-14 1.75346E-13
 -1       115 2.08740E+01-3.88994E-03-8.39603E-03 8.55522E-03-4.81660E-15-1.92781E-13
 -1       116 2.05359E+01-3.41555E-03-6.93492E-03 6.55142E-03 1.10643E-13-1.00421E-12
 -1       117 2.02837E+01-3.11057E-03-6.26156E-03 5.11012E-03-2.04828E-14-1.60399E-12
 -1       118 2.01079E+01-2.91899E-03-6.40607E-03 3.80916E-03-2.72347E-14-1.24063E-12
 -1       119 2.00068E+01-2.21318E-03-5.98861E-03 1.33337E-03 3.46407E-14-1.26627E-12
 -1       120 1.99839E+01 2.44985E-03 1.11125E-03-4.23251E-03 2.94756E-13-1.28132E-12
 -1       121 2.00000E+01-1.36633E-02 3.66843E-04-6.17468E-03-1.51750E-12-8.89506E-14
 -1       122 1.99969E+01 1.31005E-02-6.08172E-03-7.59491E-05-1.44706E-12 1.68286E-13
 -1       123 1.99977E+01 1.14175E-01-4.66850E-03 3.75430E-03 5.10828E-14 2.68782E-13
 -1       124 1.99992E+01 2.60733E-01-1.64099E-03 5.41498E-03 2.68541E-13 1.69499E-13
 -1       125 2.00008E+01 4.21158E-01 1.21504E-03 5.46031E-03 9.41653E-13-3.11210E-13
 -1       126 2.00022E+01 5.64206E-01 3.38521E-03 4.51589E-03-8.59697E-13-6.91614E-14
 -1       127 2.00031E+01 6.71301E-01 4.76344E-03 2.83068E-03-5.30689E-13 2.79565E-13
 -1       128 2.00036E+01 7.24378E-01 5.33725E-03 7.96755E-04-5.51956E-13 8.70856E-14
 -1       129 2.00034E+01 7.16828E-01 5.12403E-03-1.27127E-03-7.14116E-13-5.78278E-14
 -1       130 2.00028E+01 6.50941E-01 4.20033E-03-3.09610E-03-6.05789E-13-6.33944E-14
 -1       131 2.00017E+01 5.37160E-01 2.65178E-03-4.47851E-03-1.34282E-12-3.46597E-13
 -1       132 2.00004E+01 3.95127E-01 6.42561E-04-5.06925E-03-1.70213E-12 2.55710E-13
 -1       133 1.99990E+01 2.42217E-01-1.80233E-03-4.80615E-03-1.08399E-12 4.14131E-14
 -1       134 1.99973E+01 1.05500E-01-4.60753E-03-3.65635E-03-1.28042E-12 3.13554E-14
 -1       135 1.99977E+01 1.44492E-02-4.89181E-03 2.72316E-05-1.10574E-12-4.84996E-15
 -1       136 1.99977E+01-1.07686E-02 4.38235E-04 9.10535E-03-4.01301E-13 1.68020E-14
 -1       137-1.41957E+00-2.02514E+01-3.15498E+00-3.97221E+00 4.72400E-13 6.40911E-14
 -1       138-1.79862E+00-9.10784E+00-2.39071E+00-3.34274E+00 9.89264E-13 5.52058E-13
 -1       139 3.75979E+00 3.76321E+00-1.08744E+00 4.16597E+00 1.68476E-12 1.24606E-12
 -1       140 1.72751E+01 1.05945E+01 4.54770E-01 1.34548E+01 9.51961E-13 1.30401E-12
 -1       141 3.83341E+01 9.40350E+00 2.04733E+00 1.83363E+01 4.08784E-13 5.57110E-13
 -1       142 5.84504E+01 4.21499E+00 3.26732E+00 1.36177E+01 5.10009E-15-2.53686E-13
 -1       143 6.77879E+01 1.00720E+00 3.78655E+00 1.02311E+00 3.10307E-14-1.07066E-12
 -1       144 6.12834E+01 3.25952E+00 3.43290E+00-1.21452E+01 2.85705E-13-1.23285E-12
 -1       145 4.24467E+01 8.53969E+00 2.30638E+00-1.82419E+01 8.39995E-13-1.64063E-12
 -1       146 2.16719E+01 1.07964E+01 7.95755E-01-1.50763E+01 9.13547E-13-1.26832E-12
 -1       147 5.93472E+00 6.04723E+00-7.53114E-01-6.14977E+00 1.34959E-12-1.00492E-12
 -1       148-1.08491E+00-5.20823E+00-2.08969E+00 1.89490E+00 1.39100E-12-7.28417E-13
 -1       149-1.77836E+00-1.73920E+01-2.96613E+00 4.46691E+00 5.17864E-13-2.93252E-13
 -1       150-8.31423E-01-2.41468E+01-3.33455E+00 1.33604E+00-1.18450E-12 2.32495E-13
 -1       151-1.15342E+00-2.14417E+01-3.14451E+00-2.90489E+00-1.76262E-12-2.87126E-13
 -1       152-1.67921E+00-1.07282E+01-2.42223E+00-3.44089E+00-2.20002E-12-9.65589E-13
 -1       153 2.44653E+00 2.29946E+00-1.17370E+00 2.85206E+00-2.21528E-12-1.45933E-12
 -1       154 1.58026E+01 1.02937E+01 4.06247E-01 1.26151E+01-1.66694E-12-1.91935E-12
 -1       155 3.72416E+01 9.66917E+00 1.97180E+00 1.83733E+01-8.18484E-13-1.55531E-12
 -1       156 5.62463E+01 4.25056E+00 3.02633E+00 1.41170E+01-3.72043E-13-1.29452E-12
 -1       157 6.54135E+01 9.89040E-01 3.46928E+00 1.98026E+00-1.32228E-13-6.29156E-13
 -1       158 5.99853E+01 2.99087E+00 3.19734E+00-1.11747E+01 1.30975E-13-2.68119E-14
 -1       159 4.34923E+01 8.11400E+00 2.32938E+00-1.80524E+01-1.58901E-13 2.79221E-13
 -1       160 2.39792E+01 1.12785E+01 1.08268E+00-1.61841E+01-5.21805E-13 8.02858E-13
 -1       161 5.38351E-01-5.26834E-01-1.49778E+00-5.51035E-01-1.75021E-12 1.12454E-12
 -1       162-1.81121E+00-1.17449E+01-2.52518E+00 3.73573E+00-1.44568E-12 6.71560E-13
 -1       163-1.01909E+00-2.07091E+01-3.04629E+00 3.52005E+00-3.21049E-13 1.50626E-13
 -1       164 2.09990E+01 3.69242E+00-5.73133E-02-3.61045E+00-3.06907E-13-1.63890E-13
 -1       165 1.99842E+01 4.20670E+00-4.56768E-02-2.80998E+00-2.51342E-13-4.38274E-13
 -1       166 1.95088E+01 4.47692E+00-3.15575E-02-2.19488E+00-1.67718E-13-5.70327E-13
 -1       167 1.92722E+01 4.61627E+00-2.37367E-02-1.67583E+00-1.05601E-13-6.25311E-13
 -1       168 1.91460E+01 4.69907E+00-1.94714E-02-1.21929E+00-3.99895E-14-6.32565E-13
 -1       169 1.90749E+01 4.75111E+00-1.73839E-02-7.92091E-01-3.12245E-15-6.16581E-13
 -1       170 1.90392E+01 4.77962E+00-1.63900E-02-3.86892E-01 6.32464E-14-5.88213E-13
 -1       171 1.90289E+01 4.78837E+00-1.61024E-02 8.21356E-03 1.01696E-13-5.70172E-13
 -1       172 1.90410E+01 4.77832E+00-1.64364E-02 4.03677E-01 1.49353E-13-5.40150E-13
 -1       173 1.90786E+01 4.74812E+00-1.74910E-02 8.09982E-01 1.86305E-13-5.00763E-13
 -1       174 1.91505E+01 4.69472E+00-1.96602E-02 1.23164E+00 2.30602E-13-4.45655E-13
 -1       175 1.92821E+01 4.60638E+00-2.39806E-02 1.69862E+00 2.80610E-13-3.57681E-13
 -1       176 1.95236E+01 4.45940E+00-3.28177E-02 2.22723E+00 3.13015E-13-2.01702E-13
 -1       177 2.00065E+01 4.18269E+00-4.71698E-02 2.84750E+00 3.38113E-13 4.49085E-14
 -1       178 2.11204E+01 3.46222E+00-5.97640E-02 3.53704E+00 3.05148E-13 4.74336E-13
 -1       179 2.23985E+01 1.14332E+00-3.36293E-01 3.01500E+00 2.12587E-13 1.02474E-12
 -1       180 2.19520E+01 8.58081E-01 6.60693E-04-1.95951E+00-2.77917E-13 2.15012E-13
 -1       181 2.04278E+01 1.90268E-01-9.99284E-03-7.64925E-01-2.33447E-13 9.70118E-14
 -1       182 1.96527E+01 1.01874E-01 1.35538E-02-2.86002E-01-1.83532E-13-1.89874E-14
 -1       183 1.93141E+01 4.75343E-02 1.00285E-02-6.74759E-02-1.16436E-13-1.21395E-13
 -1       184 1.91871E+01 2.32294E-02 5.22039E-03 4.12895E-02-9.35189E-14-1.59892E-13
 -1       185 1.91787E+01 1.06097E-02 2.52243E-03 9.63840E-02-8.19900E-14-2.02142E-13
 -1       186 1.92360E+01 3.78342E-03 1.25623E-03 1.22569E-01-6.36583E-14-2.65465E-13
 -1       187 1.93290E+01 3.08487E-04 6.68635E-04 1.33067E-01-7.84358E-14-2.78407E-13
 -1       188 1.94411E+01-1.00990E-03 3.91050E-04 1.35830E-01-8.48046E-14-3.13729E-13
 -1       189 1.95637E+01-8.37209E-04 2.73719E-04 1.36086E-01-5.26357E-14-3.29330E-13
 -1       190 1.96938E+01 4.14587E-04 2.52393E-04 1.37479E-01-5.52970E-15-4.64934E-13
 -1       191 1.98318E+01 2.46127E-03 2.92420E-04 1.42636E-01-4.96890E-14-5.35334E-13
 -1       192 1.99809E+01 5.07150E-03 3.68424E-04 1.53434E-01-2.81995E-14-4.78067E-13
 -1       193 2.01462E+01 8.00561E-03 4.56280E-04 1.71076E-01-4.22842E-14-4.68860E-13
 -1       194 2.03332E+01 1.09500E-02 5.28478E-04 1.96001E-01-5.05753E-14-4.15752E-13
 -1       195 2.05478E+01 1.34381E-02 5.50749E-04 2.27604E-01 4.60141E-14-4.64041E-13
 -1       196 2.07941E+01 1.47530E-02 4.80334E-04 2.63742E-01 4.30827E-14-4.16689E-13
 -1       197 2.10735E+01 1.38233E-02 2.67933E-04 3.00003E-01-6.00224E-14-4.89815E-13
 -1       198 2.13816E+01 9.14791E-03-1.33096E-04 3.28771E-01-8.77469E-14-4.85560E-13
 -1       199 2.17059E+01-1.15424E-03-7.46001E-04 3.38294E-01 5.49720E-14-4.41293E-13
 -1       200 2.20222E+01-1.89787E-02-1.53609E-03 3.12304E-01 1.80771E-13-4.42312E-13
 -1       201 2.22919E+01-4.52596E-02-2.36983E-03 2.31284E-01-7.55662E-14-3.45242E-13
 -1       202 2.24624E+01-7.80888E-02-2.99155E-03 7.71710E-02-2.12118E-14-1.61882E-13
 -1       203 2.24718E+01-1.10068E-01-3.06555E-03-1.56568E-01 4.57165E-14-1.79611E-13
 -1       204 2.22642E+01-1.26328E-01-2.31117E-03-4.49396E-01 4.86421E-14-3.00259E-13
 -1       205 2.18160E+01-1.06944E-01-8.05439E-04-7.38506E-01 6.38660E-14-2.60045E-13
 -1       206 2.11687E+01-3.77304E-02 9.68115E-04-9.19246E-01 2.24911E-14-3.32817E-13
 -1       207 2.04520E+01 7.22877E-02 2.25750E-03-8.79629E-01-1.24215E-14-3.18382E-13
 -1       208 1.98671E+01 1.81545E-01 2.96359E-03-5.68941E-01-5.85395E-14-3.07822E-13
 -1       209 1.96120E+01 2.33773E-01 3.24932E-03-5.78889E-02-6.35629E-14-1.90561E-13
 -1       210 1.97813E+01 1.98464E-01 3.27792E-03 4.74184E-01-2.15951E-14-2.03910E-13
 -1       211 2.03108E+01 9.65181E-02 2.67622E-03 8.35683E-01-1.30585E-13-4.07474E-13
 -1       212 2.10159E+01-1.77622E-02 1.38317E-03 9.29787E-01-7.50705E-14-4.40514E-13
 -1       213 2.16884E+01-9.72258E-02-4.17556E-04 7.85399E-01 3.43003E-14-3.46532E-13
 -1       214 2.21805E+01-1.26121E-01-2.04606E-03 5.08396E-01 1.07450E-13-3.69239E-13
 -1       215 2.24337E+01-1.15482E-01-2.98950E-03 2.09198E-01 2.80379E-14-3.30120E-13
 -1       216 2.24612E+01-8.52328E-02-3.06169E-03-3.98969E-02 1.80880E-14-4.94444E-13
 -1       217 2.23149E+01-5.16733E-02-2.51433E-03-2.10638E-01 2.38775E-13-3.67377E-13
 -1       218 2.20573E+01-2.36182E-02-1.68483E-03-3.05261E-01-1.09416E-13-2.26586E-13
 -1       219 2.17441E+01-3.84345E-03-8.49241E-04-3.40271E-01-1.70073E-13-3.46794E-13
 -1       220 2.14177E+01 8.24483E-03-1.62275E-04-3.35098E-01-3.51989E-14-2.18831E-13
 -1       221 2.11062E+01 1.45365E-02 3.28435E-04-3.06356E-01 2.53491E-13-2.00556E-13
 -1       222 2.08260E+01 1.70826E-02 6.39079E-04-2.65974E-01-4.71565E-14-3.36377E-14
 -1       223 2.05853E+01 1.76571E-02 8.09489E-04-2.21245E-01 2.56690E-13 2.96702E-13
 -1       224 2.03871E+01 1.76462E-02 8.59335E-04-1.75613E-01 3.89095E-13 3.08517E-13
 -1       225 2.02318E+01 1.81215E-02 7.83960E-04-1.29614E-01 2.18721E-13 3.81576E-13
 -1       226 2.01186E+01 1.96082E-02 6.82421E-04-8.21309E-02-9.07733E-14 4.42967E-13
 -1       227 2.00430E+01 2.08213E-02 5.23067E-04-3.34630E-02-2.16143E-13 3.80377E-13
 -1       228 2.09425E+01 2.77031E-01-5.13209E-02 1.16560E+00 2.35388E-13 8.78805E-13
 -1       229 1.98476E+01 1.26850E-01 8.31437E-03 4.43873E-01 1.79052E-13 6.96333E-13
 -1       230 1.93415E+01 5.82237E-02 1.27566E-02 1.50488E-01 8.33322E-14 5.42170E-13
 -1       231 1.91330E+01 2.80071E-02 7.67187E-03 1.03975E-02 9.86594E-14 4.46276E-13
 -1       232 1.90862E+01 1.35897E-02 3.87805E-03-6.01560E-02 5.36641E-14 4.32420E-13
 -1       233 1.91277E+01 5.97166E-03 1.98137E-03-9.49269E-02 1.36485E-15 3.83763E-13
 -1       234 1.92167E+01 1.88483E-03 1.10824E-03-1.10299E-01 9.40933E-14 3.32971E-13
 -1       235 1.93305E+01-8.47649E-05 6.83945E-04-1.15443E-01 1.19206E-13 2.06049E-13
 -1       236 1.94569E+01-6.36390E-04 4.65144E-04-1.16137E-01 1.58795E-13 1.37911E-13
 -1       237 1.95909E+01-1.50921E-04 3.58919E-04-1.16380E-01-2.14959E-14 1.22214E-13
 -1       238 1.97323E+01 1.15971E-03 3.25860E-04-1.19183E-01-2.19224E-14 9.76628E-14
 -1       239 1.98844E+01 3.18759E-03 3.44237E-04-1.27006E-01 9.47750E-14 5.05994E-14
 -1       240 2.00539E+01 5.89257E-03 3.97828E-04-1.42032E-01 4.64636E-14-3.62065E-14
 -1       241 2.02498E+01 9.27408E-03 4.70355E-04-1.66330E-01 6.06328E-14-1.24688E-14
 -1       242 2.04838E+01 1.33356E-02 5.40540E-04-2.01908E-01-8.45393E-14 9.97061E-14
 -1       243 2.07692E+01 1.80236E-02 5.76297E-04-2.50616E-01-8.88708E-14 6.02648E-14
 -1       244 2.11210E+01 2.31136E-02 5.28432E-04-3.13774E-01 9.13620E-14 4.40935E-14
 -1       245 2.15537E+01 2.79981E-02 3.27760E-04-3.91306E-01 4.45534E-14 6.26648E-14
 -1       246 2.20793E+01 3.13168E-02-1.03001E-04-4.80052E-01-1.61757E-13 1.03554E-13
 -1       247 2.27015E+01 3.03724E-02-7.98883E-04-5.70735E-01-1.32790E-13 1.17929E-13
 -1       248 2.34069E+01 2.03943E-02-1.63200E-03-6.43205E-01 5.38276E-14 2.21763E-13
 -1       249 2.41525E+01-5.85432E-03-2.11901E-03-6.60363E-01 7.11139E-14 1.78459E-13
 -1       250 2.48491E+01-5.65599E-02-1.29994E-03-5.64068E-01-5.81245E-14 4.20558E-14
 -1       251 2.53496E+01-1.34211E-01 1.85017E-03-2.82667E-01-2.10464E-13 3.49096E-14
 -1       252 2.54579E+01-2.20200E-01 6.99110E-03 2.31903E-01-1.41723E-13 3.71137E-13
 -1       253 2.49889E+01-2.55865E-01 1.08472E-02 9.20135E-01-6.85563E-15 5.19590E-13
 -1       254 2.39084E+01-1.61322E-01 5.56583E-03 1.52290E+00 9.70617E-14 7.49904E-13
 -1       255 2.24907E+01 9.99203E-02-1.33574E-02 1.61285E+00 2.16035E-13 4.95125E-13
 -1       256 2.13748E+01 3.83918E-01-2.96940E-02 8.96189E-01 2.46442E-13 1.10936E-14
 -1       257 2.12020E+01 4.58761E-01-2.95256E-02-3.40538E-01 2.78638E-13-2.81108E-13
 -1       258 2.20866E+01 2.58261E-01-1.21474E-02-1.36983E+00-6.02235E-14-5.93393E-13
 -1       259 2.35014E+01-3.84834E-02 5.97766E-03-1.65237E+00-1.99543E-13-4.70568E-13
 -1       260 2.47442E+01-2.21889E-01 1.17102E-02-1.23868E+00-9.13557E-14-3.60866E-13
 -1       261 2.54088E+01-2.45263E-01 7.79135E-03-5.45263E-01 7.40553E-15-9.88962E-14
 -1       262 2.54562E+01-1.78416E-01 1.11268E-03 6.85422E-02 1.20789E-13 4.88227E-14
 -1       263 2.50489E+01-9.50065E-02-2.85681E-03 4.58569E-01 1.03956E-13 8.63398E-14
 -1       264 2.43897E+01-3.10689E-02-3.63359E-03 6.34886E-01-1.67563E-13 1.44325E-14
 -1       265 2.36426E+01 6.99496E-03-2.71089E-03 6.64369E-01 6.13602E-14-8.96605E-14
 -1       266 2.29132E+01 2.50061E-02-1.38243E-03 6.13139E-01 1.97117E-13 1.89924E-13
 -1       267 2.22577E+01 3.06720E-02-2.94062E-04 5.27742E-01-2.50511E-14 2.76307E-14
 -1       268 2.16980E+01 2.99210E-02 3.96913E-04 4.35277E-01-2.07449E-13-2.09802E-13
 -1       269 2.12363E+01 2.64674E-02 7.53751E-04 3.49049E-01-2.41828E-14-1.43430E-13
 -1       270 2.08653E+01 2.24091E-02 8.86003E-04 2.73972E-01 4.80256E-13-3.76393E-13
 -1       271 2.05739E+01 1.88928E-02 8.69946E-04 2.10239E-01 3.94987E-13-7.61791E-13
 -1       272 2.03515E+01 1.65320E-02 7.08429E-04 1.55459E-01 1.17906E-13-6.86413E-13
 -1       273 2.01899E+01 1.57068E-02 3.74846E-04 1.06031E-01-1.06194E-13-8.88818E-13
 -1       274 2.00830E+01 1.67669E-02 3.62727E-04 5.80396E-02 5.25486E-15-8.37099E-13
 -1       275 2.00228E+01 1.37725E-02 1.07437E-03 1.29034E-02-8.44358E-14-7.35256E-13
 -1       276 2.00221E+01 4.79114E-02 5.62191E-04 3.82117E-02-2.25962E-13-1.29002E-14
 -1       277 2.00180E+01 1.22423E-01 1.59138E-04 8.46346E-02-4.10358E-13 7.82273E-13
 -1       278 2.00086E+01 2.24233E-01 4.52205E-05 1.16201E-01-7.08924E-14 4.61779E-13
 -1       279 1.99991E+01 3.39040E-01-8.26482E-05 1.25271E-01 7.60917E-14 2.74507E-13
 -1       280 1.99910E+01 4.47825E-01-3.16038E-04 1.13019E-01-8.64993E-14-1.05464E-12
 -1       281 1.99849E+01 5.38008E-01-5.24058E-04 8.29392E-02-1.01907E-13-4.39286E-15
 -1       282 1.99815E+01 5.94497E-01-6.65012E-04 4.09413E-02-2.92107E-13 9.84049E-14
 -1       283 1.99809E+01 6.09840E-01-7.03343E-04-6.15076E-03-2.58581E-13-7.87515E-14
 -1       284 1.99829E+01 5.82581E-01-6.35667E-04-5.14769E-02-2.62892E-13-3.90229E-14
 -1       285 1.99873E+01 5.17172E-01-4.75065E-04-8.87909E-02-5.79613E-13-4.54470E-13
 -1       286 1.99933E+01 4.24969E-01-2.47973E-04-1.12612E-01-3.18438E-13-3.57464E-15
 -1       287 2.00008E+01 3.15867E-01-3.12008E-05-1.19960E-01-1.83477E-13 2.61640E-13
 -1       288 2.00087E+01 2.06640E-01 1.01146E-04-1.08297E-01-1.24913E-13-9.31885E-14
 -1       289 2.00168E+01 1.13278E-01 4.78043E-04-7.77236E-02-3.75434E-13 1.03997E-14
 -1       290 2.00330E+01 6.33565E-02 5.28776E-04-6.18583E-02-3.28969E-13 4.14095E-13
 -1       291-9.03008E-01-1.04551E+01-9.38993E-01 9.02481E-01 8.62782E-14-1.77636E-15
 -1       292 2.40003E+00-8.76810E+00-8.37526E-01 3.07229E+00 8.16014E-14 3.03840E-13
 -1       293 1.11728E+01-5.56232E+00-3.64595E-01 6.09297E+00-1.54932E-13 4.54442E-13
 -1       294 1.95348E+01-9.21959E-01-1.23583E-01 7.06500E+00 4.92439E-13 1.71835E-13
 -1       295 3.07762E+01 2.59145E+00 3.85187E-01 7.41623E+00 4.59494E-13 1.00253E-13
 -1       296 4.00044E+01 4.90678E+00 6.81635E-01 4.76437E+00 3.90223E-13-2.11720E-13
 -1       297 4.36988E+01 7.07271E+00 7.09331E-01 1.25097E+00 3.79335E-13-5.32990E-13
 -1       298 4.71786E+01 6.66072E+00 1.06458E+00-1.66954E+00 6.84452E-14-7.24310E-13
 -1       299 4.13434E+01 5.35874E+00 7.38413E-01-4.16358E+00 4.55469E-13-6.30856E-13
 -1       300 3.29992E+01 2.77571E+00 4.09723E-01-6.64612E+00 2.73268E-13-6.54976E-13
 -1       301 2.27898E+01-8.31753E-01-9.70329E-03-6.93820E+00 4.03649E-13-3.83776E-13
 -1       302 1.16979E+01-3.98731E+00-4.52315E-01-5.86972E+00 3.31402E-13-3.55369E-13
 -1       303 4.34173E+00-7.73778E+00-7.27439E-01-3.97287E+00 1.37640E-13-4.46785E-13
 -1       304-2.89711E-01-1.04322E+01-9.53347E-01-1.48814E+00-2.98872E-13-8.02400E-13
 -1       305-9.37700E-01-9.29857E+00-7.16698E-01 9.25600E-01-6.21246E-13-3.33900E-13
 -1       306 1.75462E+00-8.72746E+00-7.71699E-01 3.21436E+00-9.92512E-13-4.84043E-13
 -1       307 8.99739E+00-5.47859E+00-4.08654E-01 5.93303E+00-8.58119E-13-5.24743E-13
 -1       308 1.92151E+01-2.24851E+00-8.84581E-02 7.01072E+00-7.69940E-13-7.06629E-13
 -1       309 2.98213E+01 1.45410E+00 2.11819E-01 6.07537E+00-7.79710E-13-5.08066E-13
 -1       310 3.95294E+01 5.34127E+00 7.64724E-01 6.09929E+00-4.69607E-13-8.51541E-13
 -1       311 4.48092E+01 6.60654E+00 9.14837E-01 2.52373E+00-4.44880E-13-7.64236E-13
 -1       312 4.37826E+01 7.13520E+00 7.39569E-01-1.08358E+00-3.39145E-13-4.04718E-13
 -1       313 4.11399E+01 5.76134E+00 7.68411E-01-4.88411E+00-1.94386E-13-9.61731E-14
 -1       314 3.33920E+01 3.89308E+00 5.11747E-01-7.35490E+00-3.27335E-13 4.60743E-14
 -1       315 2.35411E+01 6.68930E-01 9.73615E-02-7.48979E+00-6.00991E-13 1.06526E-13
 -1       316 1.42914E+01-2.84225E+00-2.75060E-01-6.69926E+00-5.12673E-13 2.81622E-13
 -1       317 7.23934E+00-5.48137E+00-5.78463E-01-4.96646E+00-4.51972E-13 4.95735E-13
 -1       318 1.52471E+00-9.07506E+00-8.77006E-01-2.98345E+00-9.81437E-14 7.07934E-13
 -1       319-7.97257E-01-1.15284E+01-1.10328E+00-1.11048E+00-2.77556E-14 3.11695E-13
 -1       320 2.01422E+01 3.01555E+00-1.78418E-02-2.10994E+00-2.55659E-13-3.75922E-13
 -1       321 2.07456E+01 2.20791E+00-1.77922E-02-2.36358E+00-3.08658E-13-2.20473E-13
 -1       322 1.95912E+01 3.69464E+00-1.51372E-02-1.31619E+00-8.38479E-14-4.87139E-13
 -1       323 1.94708E+01 3.85266E+00-1.35869E-02-9.22661E-01-3.08738E-14-5.03783E-13
 -1       324 1.94036E+01 3.94455E+00-1.26839E-02-5.43200E-01 3.56034E-14-4.58072E-13
 -1       325 1.93740E+01 3.98641E+00-1.22843E-02-1.73074E-01 9.74980E-14-4.58760E-13
 -1       326 1.93754E+01 3.98475E+00-1.23065E-02 1.94062E-01 1.60180E-13-4.45379E-13
 -1       327 1.94079E+01 3.93925E+00-1.27550E-02 5.64618E-01 2.04385E-13-4.14434E-13
 -1       328 1.94768E+01 3.84491E+00-1.37664E-02 9.38341E-01 2.59837E-13-3.56980E-13
 -1       329 1.96006E+01 3.68130E+00-1.56571E-02 1.33245E+00 3.03935E-13-2.98675E-13
 -1       330 1.98116E+01 3.41120E+00-1.88399E-02 1.73813E+00 3.48765E-13-1.86369E-13
 -1       331 2.01761E+01 2.95540E+00-2.29068E-02 2.12706E+00 3.78727E-13-1.94896E-14
 -1       332 2.07383E+01 2.12918E+00-3.04361E-02 2.32259E+00 3.61496E-13 2.41369E-13
 -1       333 2.10797E+01 1.18759E+00-2.49092E-02 1.92261E+00 3.19449E-13 4.81420E-13
 -1       334 2.03766E+01 4.89481E-01 8.35294E-03 9.27768E-01 2.62632E-13 3.82379E-13
 -1       335 8.46379E+00-5.38236E+00-5.85693E-02-6.62207E+00 2.03781E-13 5.16941E-13
 -1       336 2.04467E+01 6.76369E-01 1.23676E-02-1.02517E+00-2.49742E-13-1.61309E-13
 -1       337 2.00273E+01 3.38118E-01 7.12497E-03-4.56352E-01-2.18879E-13-1.68845E-13
 -1       338 1.97756E+01 1.78965E-01 4.15570E-03-1.45011E-01-1.26702E-13-1.97119E-13
 -1       339 1.96447E+01 9.44949E-02 1.94550E-03 3.01393E-02-1.09521E-13-2.19047E-13
 -1       340 1.95964E+01 4.74633E-02 8.66613E-04 1.27315E-01-1.00442E-13-2.20626E-13
 -1       341 1.96019E+01 2.12858E-02 3.81564E-04 1.79263E-01-7.31254E-14-2.36597E-13
 -1       342 1.96417E+01 7.92276E-03 1.66071E-04 2.05714E-01-7.36526E-14-2.45301E-13
 -1       343 1.97036E+01 3.05355E-03 8.46409E-05 2.19392E-01-8.84755E-14-2.60551E-13
 -1       344 1.97807E+01 4.12006E-03 8.17684E-05 2.28966E-01-1.09208E-13-2.77079E-13
 -1       345 1.98698E+01 9.45630E-03 1.30961E-04 2.40557E-01-8.24323E-14-3.33519E-13
 -1       346 1.99706E+01 1.78352E-02 2.14760E-04 2.58532E-01-2.35690E-14-3.53418E-13
 -1       347 2.00844E+01 2.81695E-02 3.17687E-04 2.85853E-01 1.25421E-14-2.71057E-13
 -1       348 2.02140E+01 3.92497E-02 4.22322E-04 3.24143E-01-3.18611E-14-2.91767E-13
 -1       349 2.03628E+01 4.94639E-02 5.05884E-04 3.73440E-01-4.21904E-15-3.09592E-13
 -1       350 2.05339E+01 5.64754E-02 5.36883E-04 4.31667E-01 5.59797E-14-2.37562E-13
 -1       351 2.07300E+01 5.68683E-02 4.72595E-04 4.93758E-01-5.30013E-14-2.94440E-13
 -1       352 2.09518E+01 4.58474E-02 2.59337E-04 5.50487E-01-5.91162E-14-2.29614E-13
 -1       353 2.11974E+01 1.72179E-02-1.60816E-04 5.87138E-01 2.74326E-14-3.18681E-13
 -1       354 2.14606E+01-3.58769E-02-8.31395E-04 5.82502E-01 1.03036E-13-3.32623E-13
 -1       355 2.17291E+01-1.18640E-01-1.74367E-03 5.09226E-01 9.66977E-14-3.72556E-13
 -1       356 2.19824E+01-2.29696E-01-2.78030E-03 3.37426E-01 5.91659E-14-2.89732E-13
 -1       357 2.21891E+01-3.53060E-01-3.65283E-03 4.43488E-02 2.01597E-14-2.04984E-13
 -1       358 2.23053E+01-4.49160E-01-3.89514E-03-3.67274E-01 2.28097E-14-1.83055E-13
 -1       359 2.22796E+01-4.53081E-01-2.95597E-03-8.43304E-01 9.72740E-14-1.86086E-13
 -1       360 2.20724E+01-2.95754E-01-9.26338E-04-1.25716E+00 1.83123E-14-2.22968E-13
 -1       361 2.16965E+01 4.26428E-02 1.51718E-03-1.42405E+00 5.22098E-14-3.13924E-13
 -1       362 2.12563E+01 4.72234E-01 3.04030E-03-1.18134E+00 6.71884E-14-1.70256E-13
 -1       363 2.09380E+01 7.95673E-01 4.53922E-03-5.19701E-01-3.43614E-14-1.23848E-13
 -1       364 2.09043E+01 8.30308E-01 5.39673E-03 3.45697E-01-5.99004E-14-2.92548E-13
 -1       365 2.11732E+01 5.53864E-01 4.25997E-03 1.07256E+00-1.35127E-13-3.19661E-13
 -1       366 2.16028E+01 1.28466E-01 2.37351E-03 1.40734E+00-9.87746E-14-6.28950E-14
 -1       367 2.20024E+01-2.41042E-01-2.94843E-04 1.31346E+00-3.62197E-14-8.12263E-15
 -1       368 2.22458E+01-4.36602E-01-2.55330E-03 9.33262E-01-2.31167E-14 3.53004E-14
 -1       369 2.23043E+01-4.60587E-01-3.83413E-03 4.56513E-01 2.45925E-14-9.72903E-14
 -1       370 2.22109E+01-3.77293E-01-3.78619E-03 2.46059E-02 9.60066E-14 4.85789E-14
 -1       371 2.20168E+01-2.55131E-01-2.99024E-03-2.94528E-01 5.66639E-14 2.36147E-13
 -1       372 2.17684E+01-1.39093E-01-1.94690E-03-4.89611E-01 4.19044E-14-1.59301E-13
 -1       373 2.15000E+01-4.92472E-02-9.81927E-04-5.79667E-01-1.02113E-13 7.65252E-14
 -1       374 2.12345E+01 1.09543E-02-2.40218E-04-5.93720E-01-2.80629E-14 2.31300E-13
 -1       375 2.09865E+01 4.61360E-02 2.57994E-04-5.59421E-01 8.56250E-14 3.05663E-13
 -1       376 2.07640E+01 6.34285E-02 5.53357E-04-4.98375E-01 1.99832E-13-1.72524E-17
 -1       377 2.05708E+01 6.97290E-02 7.04607E-04-4.25262E-01 3.49151E-13 2.26215E-13
 -1       378 2.04079E+01 7.07736E-02 7.72704E-04-3.48584E-01 2.36815E-13 1.67662E-13
 -1       379 2.02744E+01 7.05705E-02 7.74362E-04-2.72158E-01 1.76298E-13 5.05159E-14
 -1       380 2.01682E+01 7.21487E-02 8.95396E-04-1.96683E-01 1.13955E-13 7.01214E-14
 -1       381 2.00934E+01 6.95037E-02 6.72964E-04-1.27261E-01 5.34982E-14 3.24690E-13
 -1       382 1.98758E+01 2.29356E-01 1.08420E-02 3.98600E-01 1.75368E-13 3.09307E-13
 -1       383 1.95894E+01 1.16530E-01 6.22230E-03 1.18284E-01 1.11226E-13 2.21226E-13
 -1       384 1.94586E+01 5.96472E-02 2.85425E-03-3.31607E-02 8.45350E-14 2.13111E-13
 -1       385 1.94251E+01 2.89329E-02 1.24911E-03-1.14217E-01 3.61360E-14 1.27068E-13
 -1       386 1.94510E+01 1.20968E-02 5.61826E-04-1.55745E-01 9.91954E-14 6.52324E-14
 -1       387 1.95125E+01 3.56557E-03 2.63166E-04-1.75429E-01 1.73608E-13 7.68693E-14
 -1       388 1.95958E+01 5.31589E-04 1.44427E-04-1.84416E-01 1.78335E-13 9.18146E-14
 -1       389 1.96935E+01 1.45193E-03 1.30085E-04-1.90336E-01 6.32783E-15 8.55356E-14
 -1       390 1.98030E+01 5.45048E-03 1.90231E-04-1.98816E-01 2.09482E-14 3.05846E-14
 -1       391 1.99252E+01 1.20492E-02 3.10115E-04-2.14323E-01 9.91299E-14-2.43432E-14
 -1       392 2.00636E+01 2.10169E-02 4.80601E-04-2.40672E-01 1.39999E-13-1.92801E-14
 -1       393 2.02242E+01 3.22560E-02 6.94019E-04-2.81310E-01-1.46396E-14-7.90463E-14
 -1       394 2.04145E+01 4.56697E-02 9.39424E-04-3.39417E-01-7.60782E-14-7.17462E-14
 -1       395 2.06436E+01 6.09505E-02 1.19564E-03-4.17749E-01-4.00837E-14-7.25211E-14
 -1       396 2.09213E+01 7.72065E-02 1.42050E-03-5.18073E-01 7.66811E-14-1.28509E-13
 -1       397 2.12573E+01 9.23041E-02 1.53592E-03-6.39922E-01 6.21776E-14-6.08197E-14
 -1       398 2.16597E+01 1.01770E-01 1.41234E-03-7.78228E-01-1.29257E-13-9.70792E-14
 -1       399 2.21327E+01 9.71499E-02 8.64789E-04-9.19270E-01-1.00047E-13-1.74468E-13
 -1       400 2.26735E+01 6.40946E-02-3.11098E-04-1.03451E+00-6.62335E-14-1.08846E-13
 -1       401 2.32673E+01-1.83780E-02-2.22066E-03-1.07289E+00 1.59449E-13-8.75584E-14
 -1       402 2.38810E+01-1.73172E-01-4.64753E-03-9.55428E-01 1.77310E-15-1.36466E-14
 -1       403 2.44537E+01-4.06532E-01-6.86583E-03-5.83130E-01-3.04497E-13-8.31091E-14
 -1       404 2.48841E+01-6.66784E-01-8.09148E-03 1.20064E-01-2.18027E-13 7.84133E-15
 -1       405 2.50237E+01-7.93299E-01-7.61412E-03 1.10180E+00-8.62227E-14 1.11607E-13
 -1       406 2.47319E+01-5.43412E-01-4.68729E-03 2.03183E+00-1.02019E-14 3.43160E-13
 -1       407 2.39807E+01 2.28943E-01-1.46160E-02 2.32127E+00 2.82397E-13 4.57616E-13
 -1       408 2.31885E+01 1.13137E+00-1.60611E-02 1.42484E+00 5.18880E-13 4.18092E-13
 -1       409 2.29329E+01 1.45179E+00-1.38180E-02-3.34420E-01 4.40363E-13 2.89757E-13
 -1       410 2.34883E+01 8.49983E-01-8.75132E-03-1.88273E+00 1.33992E-13 9.70569E-14
 -1       411 2.43470E+01-8.12287E-02-5.51421E-03-2.34139E+00-1.67212E-13-2.89799E-13
 -1       412 2.49397E+01-6.83912E-01-7.32072E-03-1.74274E+00-2.70011E-13-2.56816E-13
 -1       413 2.50431E+01-7.82285E-01-8.64678E-03-7.22355E-01-1.64871E-13 1.27235E-13
 -1       414 2.47490E+01-5.82481E-01-9.64037E-03 1.82253E-01 2.95996E-14 3.48113E-13
 -1       415 2.42308E+01-3.18662E-01-7.69147E-03 7.62086E-01 1.47130E-13 4.28221E-13
 -1       416 2.36218E+01-1.10212E-01-4.52426E-03 1.02985E+00 4.62318E-14 3.32567E-13
 -1       417 2.30047E+01 1.76031E-02-1.70336E-03 1.07913E+00-1.30404E-14 2.63772E-14
 -1       418 2.24266E+01 8.05233E-02 2.31043E-04 1.00424E+00 4.21507E-14 9.88514E-14
 -1       419 2.19112E+01 1.02204E-01 1.28323E-03 8.73520E-01 1.43078E-13 1.55420E-13
 -1       420 2.14679E+01 1.01681E-01 1.70071E-03 7.28311E-01-1.61057E-13-5.74909E-14
 -1       421 2.10969E+01 9.12871E-02 1.74838E-03 5.90046E-01 2.64348E-14-1.99237E-13
 -1       422 2.07934E+01 7.81790E-02 1.62102E-03 4.67544E-01 5.32808E-13-2.66983E-13
 -1       423 2.05503E+01 6.63065E-02 1.43546E-03 3.62250E-01 4.74463E-13-3.34015E-14
 -1       424 2.03600E+01 5.77542E-02 1.23715E-03 2.71526E-01 1.91733E-13-3.76182E-13
 -1       425 2.02156E+01 5.32060E-02 9.86074E-04 1.91019E-01-2.55975E-14-4.48456E-13
 -1       426 2.01102E+01 5.18443E-02 7.50996E-04 1.16816E-01-1.40879E-13-2.45111E-13
 -1       427 2.00605E+01 5.32947E-02 4.92687E-04 7.65522E-02-1.44589E-14-1.22855E-13
 -1       428 2.00125E+01 2.92417E-01 1.70595E-04 2.18036E-01-3.16209E-13 4.60208E-13
 -1       429 2.00473E+01 1.91382E-01 5.45286E-04 1.90561E-01-2.86846E-13 9.01760E-13
 -1       430 2.00616E+01 1.16305E-01 7.13510E-04 1.37647E-01-2.62357E-13 2.79228E-13
 -1       431 1.99790E+01 3.89064E-01-1.68898E-04 2.10617E-01-3.70877E-13-5.58249E-13
 -1       432 1.99510E+01 4.72956E-01-4.30532E-04 1.71017E-01 1.05054E-13-3.65634E-13
 -1       433 1.99324E+01 5.31958E-01-6.12272E-04 1.06863E-01-1.28040E-13-2.65816E-14
 -1       434 1.99244E+01 5.59184E-01-6.99924E-04 2.87292E-02-5.87748E-13-1.30801E-13
 -1       435 1.99273E+01 5.51911E-01-6.82053E-04-5.18947E-02-3.40512E-13 3.23812E-14
 -1       436 1.99401E+01 5.11792E-01-5.62417E-04-1.23957E-01-4.02325E-13-4.04516E-13
 -1       437 1.99606E+01 4.45776E-01-3.57995E-04-1.77257E-01 6.04051E-14 3.84664E-14
 -1       438 1.99873E+01 3.59764E-01-1.21142E-04-2.06490E-01 2.00392E-13 4.17177E-13
 -1       439 2.00166E+01 2.65173E-01 1.32817E-04-2.06116E-01 1.42674E-13-1.26555E-13
 -1       440 2.00465E+01 1.71049E-01 5.03395E-04-1.76555E-01 8.45368E-14-3.86024E-13
 -1       441 9.92361E+00-5.35805E+00-1.13898E-02 6.55555E+00-2.48732E-13 3.51136E-13
 -1       442 6.27644E-01-4.95478E+00-1.68944E-01-6.64857E-01-8.06594E-14 1.65395E-13
 -1       443 3.95784E+00-4.73237E+00-3.54410E-02 4.31975E+00-1.32810E-13-2.98372E-15
 -1       444 2.04713E+01-5.38136E+00-2.70559E-02 6.18765E+00-6.73628E-14-5.32074E-14
 -1       445 1.37967E+01-5.55642E+00-7.99743E-02-7.13435E+00 9.27869E-14 1.78233E-13
 -1       446 2.78695E+01-3.08144E+00-2.37120E-03 3.98119E+00 2.57724E-13-7.04853E-14
 -1       447 2.24833E+00-5.17861E+00-1.18317E-01-3.40242E+00-1.05832E-13 4.88540E-13
 -1       448 1.97902E+01 3.44125E+00-2.06758E-02-1.72536E+00-1.73412E-13-4.59234E-13
 -1       449 3.56253E+01 5.51830E+00 3.70252E-02-4.78327E-01 5.25968E-13-2.15647E-13
 -1       450 3.46379E+01 7.75987E+00-7.35906E-02 1.34902E-01 2.44138E-13-1.14213E-13
 -1       451 3.47427E+01 6.39393E+00-1.41716E-02 9.74868E-01 1.45425E-13-2.50466E-13
 -1       452 3.36303E+01 1.69799E+00-5.37155E-03-1.00589E-01 1.87850E-13-2.42625E-13
 -1       453 2.97004E+01-2.65974E+00 2.21205E-03-2.62304E+00 3.85525E-14-2.94723E-13
 -1       454 2.12140E+01-5.28691E+00-5.46620E-02-6.05373E+00 2.37338E-13-2.37310E-13
 -1       455 1.26849E+01-5.83826E+00-7.82668E-02-6.79834E+00 1.09440E-13-3.80213E-13
 -1       456 5.30594E+00-4.82837E+00-3.48159E-02-5.08945E+00-2.72157E-13-8.40258E-13
 -1       457 1.94763E+00-3.85655E+00 2.33369E-02-1.57852E+00-1.02206E-13-5.97453E-13
 -1       458 2.82262E+00-4.57023E+00-5.72071E-02 3.80816E+00-2.40495E-13-2.70631E-13
 -1       459 8.66582E+00-5.10689E+00-3.01483E-02 6.70358E+00-1.57069E-13-1.50102E-13
 -1       460 1.78258E+01-5.37562E+00-1.46870E-02 6.99462E+00-1.90348E-13-2.43385E-13
 -1       461 2.67197E+01-3.57490E+00 2.01173E-03 4.04791E+00-3.36196E-13 8.29753E-14
 -1       462 3.23876E+01 2.07394E+00 2.95237E-02 1.39501E+00-4.07938E-13-3.49748E-13
 -1       463 3.48409E+01 5.81867E+00 4.71989E-02 7.68537E-03-4.37414E-13-4.75051E-13
 -1       464 3.48096E+01 8.03370E+00-2.41995E-02-1.76475E-01-4.71456E-13-3.25628E-13
 -1       465 3.52858E+01 6.63862E+00 2.72948E-02 4.32431E-02-2.02532E-13-3.95364E-13
 -1       466 3.26288E+01 2.60768E+00-2.93718E-02-3.78375E-01-1.44808E-13-5.49741E-13
 -1       467 3.00363E+01-1.02715E+00 2.18878E-02-2.65473E+00-1.67311E-13-4.07785E-13
 -1       468 2.28441E+01-4.29445E+00-7.21946E-03-5.89876E+00-3.20577E-14-2.37102E-13
 -1       469 3.29399E+01 6.72398E-01 9.08590E-03 7.45506E-01 4.82527E-13-3.67761E-13
 -1       470 1.67963E+01-5.51331E+00 4.71272E-02 6.69003E+00-4.31558E-13 2.49953E-13
 -1       471 3.11449E+01 7.55346E+00-1.26648E-01 6.50704E-01-2.98914E-13-3.64681E-13
 -1       472 2.91461E+01-2.14410E+00-7.90990E-02 7.11123E-01-2.92281E-13-2.23883E-13
 -1       473 3.77960E+00-1.85013E+00 1.45997E-01 1.27600E+00-3.07601E-14-4.64073E-13
 -1       474 3.14542E+01 6.53185E+00-1.36251E-01-1.32130E+00 3.20174E-13-2.04003E-15
 -1       475 2.03658E+01 8.32862E-01 3.91551E-03 9.70511E-01 2.58078E-13 9.88924E-14
 -1       476 1.97440E+01 3.11149E+00-5.34747E-03-6.32035E-01 8.74912E-15-4.27598E-13
 -1       477 1.98382E+01 2.93662E+00-5.70453E-03-9.47891E-01-5.91645E-14-4.52977E-13
 -1       478 1.96780E+01 3.23557E+00-5.02141E-03 8.67455E-03 1.23101E-13-3.96477E-13
 -1       479 1.96961E+01 3.20211E+00-5.10306E-03 3.29265E-01 1.80034E-13-4.16459E-13
 -1       480 1.97487E+01 3.10418E+00-5.42483E-03 6.43856E-01 2.13853E-13-3.38981E-13
 -1       481 1.98452E+01 2.92460E+00-5.96527E-03 9.59132E-01 2.83266E-13-3.02089E-13
 -1       482 1.99970E+01 2.63779E+00-6.53043E-03 1.25458E+00 2.98629E-13-2.16879E-13
 -1       483 2.02351E+01 2.18933E+00-5.42725E-03 1.50024E+00 3.24634E-13-9.12781E-14
 -1       484 2.03413E+01 9.73721E-01 2.42426E-03-9.39991E-01-2.10429E-13-2.48556E-13
 -1       485 1.41149E+01-4.62445E+00 1.01058E-01-7.06437E+00 3.01897E-13 1.20411E-13
 -1       486 2.01059E+01 4.57451E-01 5.21125E-03 4.61360E-01 1.77091E-13 4.55776E-14
 -1       487 2.03905E+01 1.77411E+00-4.99276E-03-1.54795E+00-2.41210E-13-3.01836E-13
 -1       488 2.01701E+01 5.48430E-01 2.04368E-03-4.62829E-01-1.62784E-13-1.96069E-13
 -1       489 2.00261E+01 3.11003E-01 1.12011E-03-1.57105E-01-1.31241E-13-2.15786E-13
 -1       490 1.99303E+01 1.72860E-01 4.86731E-04 3.11915E-02-1.20745E-13-2.32166E-13
 -1       491 1.98785E+01 9.17815E-02 2.01444E-04 1.43776E-01-1.11738E-13-2.32043E-13
 -1       492 1.98611E+01 4.58643E-02 7.65681E-05 2.09229E-01-1.04128E-13-2.75459E-13
 -1       493 1.98688E+01 2.30280E-02 2.76844E-05 2.47250E-01-1.09074E-13-2.82119E-13
 -1       494 1.98947E+01 1.61171E-02 1.77311E-05 2.71676E-01-1.01240E-13-2.54370E-13
 -1       495 1.99346E+01 2.05604E-02 3.29570E-05 2.92423E-01-1.01435E-13-2.00838E-13
 -1       496 1.99859E+01 3.31625E-02 6.56825E-05 3.16666E-01-5.76015E-14-1.38490E-13
 -1       497 2.00481E+01 5.13749E-02 1.09781E-04 3.49508E-01 9.05258E-15-1.36977E-13
 -1       498 2.01217E+01 7.27377E-02 1.58831E-04 3.94284E-01-6.41387E-14-2.82435E-13
 -1       499 2.02082E+01 9.43482E-02 2.04754E-04 4.52533E-01-8.67505E-15-1.97200E-13
 -1       500 2.03100E+01 1.12283E-01 2.36307E-04 5.23656E-01 6.11866E-14-1.22876E-13
 -1       501 2.04305E+01 1.20955E-01 2.37525E-04 6.04232E-01-3.17941E-14-1.67780E-13
 -1       502 2.05735E+01 1.12487E-01 1.86584E-04 6.86985E-01-1.03203E-13-2.02691E-13
 -1       503 2.07443E+01 7.63205E-02 5.59687E-05 7.59436E-01-7.14116E-14-1.97778E-13
 -1       504 2.09493E+01-3.36370E-04-1.84758E-04 8.02401E-01-5.89936E-15-1.78592E-13
 -1       505 2.11954E+01-1.30168E-01-5.60668E-04 7.88831E-01 6.91991E-14-3.11348E-13
 -1       506 2.14882E+01-3.19732E-01-1.06503E-03 6.84105E-01 6.25569E-14-3.27042E-13
 -1       507 2.18259E+01-5.57837E-01-1.61859E-03 4.50096E-01 6.70154E-14-3.61492E-13
 -1       508 2.21883E+01-7.97907E-01-2.01448E-03 5.71304E-02 5.61901E-14-2.90821E-13
 -1       509 2.25220E+01-9.40795E-01-1.92006E-03-4.90235E-01 2.99194E-14-2.16058E-13
 -1       510 2.27344E+01-8.39330E-01-7.73993E-04-1.11134E+00-7.19975E-15-2.81568E-13
 -1       511 2.27224E+01-3.64598E-01-1.36436E-04-1.61008E+00-2.86731E-14-3.05656E-13
 -1       512 2.24604E+01 4.55054E-01-1.42268E-03-1.70214E+00 1.26426E-13-3.48114E-13
 -1       513 2.20903E+01 1.31999E+00-3.91645E-03-1.16884E+00 1.14072E-13-3.05938E-13
 -1       514 2.18941E+01 1.74640E+00-6.37875E-04-1.22278E-01-1.25650E-13-1.22504E-13
 -1       515 2.20294E+01 1.45493E+00-1.29972E-03 9.83370E-01-1.13566E-13 3.89004E-14
 -1       516 2.23830E+01 6.45416E-01-2.77137E-04 1.64017E+00 6.45149E-14 8.97395E-14
 -1       517 2.26853E+01-2.21036E-01 1.83466E-04 1.66758E+00 1.02434E-14 1.00058E-13
 -1       518 2.27499E+01-7.76535E-01-2.27942E-04 1.22553E+00-1.39013E-14 2.47774E-13
 -1       519 2.25745E+01-9.46331E-01-1.86231E-03 6.08951E-01-3.92079E-14 1.87422E-13
 -1       520 2.22562E+01-8.40393E-01-2.09760E-03 3.61071E-02 1.52861E-13 3.18089E-13
 -1       521 2.18932E+01-6.09851E-01-1.74118E-03-3.90978E-01 1.93146E-13 2.44220E-13
 -1       522 2.15474E+01-3.65126E-01-1.17965E-03-6.55546E-01-2.31725E-13-3.35689E-14
 -1       523 2.12449E+01-1.62370E-01-6.47467E-04-7.82561E-01-2.31537E-14 1.21468E-13
 -1       524 2.09902E+01-1.81899E-02-2.40442E-04-8.09357E-01 7.94532E-14 2.74465E-13
 -1       525 2.07791E+01 7.19395E-02 3.54716E-05-7.71153E-01 1.84505E-13 4.30172E-13
 -1       526 2.06047E+01 1.20656E-01 2.01523E-04-6.95733E-01-2.10865E-13 5.34456E-13
 -1       527 2.04609E+01 1.41697E-01 2.90825E-04-6.02616E-01 1.04786E-13 1.78351E-13
 -1       528 2.03423E+01 1.46929E-01 3.13729E-04-5.04126E-01 1.85904E-13-8.24487E-14
 -1       529 2.02446E+01 1.46139E-01 4.08542E-04-4.06584E-01 7.39370E-14-1.43514E-13
 -1       530 2.01646E+01 1.43588E-01 3.50216E-04-3.12733E-01-2.02087E-14-1.27593E-13
 -1       531 1.01271E+01-2.72381E+00 1.76622E-01 5.60263E+00-1.16400E-13 1.66075E-13
 -1       532 1.98127E+01 1.36190E-01 1.01613E-03-3.14903E-02 9.75382E-14-2.29757E-14
 -1       533 1.97623E+01 7.05432E-02 4.16563E-04-1.38205E-01 1.12126E-13-5.64362E-14
 -1       534 1.97545E+01 3.37962E-02 1.65356E-04-1.98278E-01 1.37394E-13-9.29085E-14
 -1       535 1.97763E+01 1.56663E-02 6.37191E-05-2.31755E-01 1.21714E-13-5.24658E-14
 -1       536 1.98188E+01 1.04519E-02 3.77290E-05-2.52440E-01 7.85859E-14 2.92987E-14
 -1       537 1.98767E+01 1.48245E-02 6.14121E-05-2.70316E-01 1.07524E-13-1.34261E-15
 -1       538 1.99475E+01 2.68318E-02 1.24050E-04-2.92983E-01 1.34057E-13-9.41636E-14
 -1       539 2.00311E+01 4.53568E-02 2.18967E-04-3.26567E-01 8.98107E-14-8.96543E-14
 -1       540 2.01290E+01 6.97734E-02 3.42072E-04-3.76259E-01 7.50262E-14-4.80259E-14
 -1       541 2.02438E+01 9.96314E-02 4.89265E-04-4.46599E-01 6.38084E-15-5.54896E-14
 -1       542 2.03790E+01 1.34245E-01 6.53288E-04-5.41482E-01-4.76616E-14-9.82109E-14
 -1       543 2.05387E+01 1.72035E-01 8.18779E-04-6.63791E-01 1.95858E-14-1.40265E-13
 -1       544 2.07275E+01 2.09416E-01 9.54584E-04-8.14480E-01 1.07937E-13-1.07768E-13
 -1       545 2.09504E+01 2.38974E-01 1.00257E-03-9.90789E-01-5.52129E-14-1.19042E-13
 -1       546 2.12141E+01 2.46660E-01 8.65750E-04-1.18318E+00-1.58072E-13-1.24842E-13
 -1       547 2.15290E+01 2.08117E-01 4.00927E-04-1.37046E+00-8.74726E-14-5.85195E-14
 -1       548 2.19131E+01 8.54571E-02-5.64334E-04-1.51283E+00-7.68131E-15-1.38266E-13
 -1       549 2.23969E+01-1.70673E-01-2.14775E-03-1.54311E+00 2.92471E-14 5.85667E-14
 -1       550 2.30227E+01-6.01795E-01-4.23434E-03-1.35953E+00-8.11249E-14 7.28155E-14
 -1       551 2.38232E+01-1.18456E+00-6.69703E-03-8.33364E-01-3.02333E-13-7.49315E-14
 -1       552 2.47718E+01-1.72730E+00-9.35727E-03 1.49919E-01-2.60662E-13 1.47451E-17
 -1       553 2.56467E+01-1.75683E+00-9.27200E-03 1.54323E+00-6.31502E-14-3.20568E-14
 -1       554 2.58068E+01-6.58513E-01-5.51788E-02 2.75395E+00 5.61062E-14-6.04222E-14
 -1       555 2.57041E+01 1.49521E+00-4.49638E-02 2.69290E+00 2.79322E-13 5.31068E-14
 -1       556 2.49578E+01 3.28857E+00-1.24184E-01 8.04675E-01 4.11764E-13 3.83560E-13
 -1       557 2.50668E+01 2.80616E+00-1.11050E-01-1.72378E+00 3.71311E-13 5.17855E-13
 -1       558 2.58986E+01 6.38272E-01-3.39219E-02-2.89902E+00 7.50337E-14 4.50844E-13
 -1       559 2.59414E+01-1.19559E+00-2.12862E-02-2.29142E+00-2.47791E-13 4.30955E-13
 -1       560 2.53162E+01-1.83644E+00-1.03630E-02-9.34608E-01-2.98279E-13 4.13840E-13
 -1       561 2.43881E+01-1.54735E+00-7.74913E-03 2.96243E-01-8.83532E-14 3.62297E-13
 -1       562 2.34873E+01-9.51902E-01-5.91873E-03 1.09243E+00 6.09548E-14 1.97797E-13
 -1       563 2.27533E+01-4.15365E-01-3.50971E-03 1.47117E+00 2.13820E-13 2.95650E-13
 -1       564 2.21861E+01-5.29729E-02-1.50636E-03 1.55790E+00 5.51764E-14 3.82888E-13
 -1       565 2.17445E+01 1.47054E-01-4.93494E-05 1.47357E+00 2.99961E-13 2.48892E-13
 -1       566 2.13900E+01 2.33549E-01 7.79052E-04 1.30587E+00 9.45409E-14-1.01838E-14
 -1       567 2.10977E+01 2.52913E-01 1.12943E-03 1.10980E+00 1.89949E-13 1.47842E-14
 -1       568 2.08534E+01 2.38164E-01 1.18886E-03 9.16121E-01 1.17554E-14-2.60658E-13
 -1       569 2.06493E+01 2.09791E-01 1.10686E-03 7.39672E-01 1.97323E-13-3.63362E-13
 -1       570 2.04799E+01 1.79688E-01 9.70201E-04 5.85448E-01 2.65225E-13-2.52758E-14
 -1       571 2.03411E+01 1.54314E-01 8.75579E-04 4.52714E-01 1.67793E-13 5.47361E-13
 -1       572 2.02288E+01 1.37146E-01 9.44274E-04 3.38156E-01 1.31734E-13 7.35695E-13
 -1       573 2.01375E+01 1.27025E-01 8.23092E-04 2.36227E-01-9.27642E-14 4.89611E-13
 -1       574 1.99209E+01 4.44611E-01-2.19432E-04 2.66152E-01-1.07207E-14-2.14976E-14
 -1       575 1.98724E+01 5.12079E-01-2.40086E-04 1.90631E-01 5.49344E-14-2.75121E-13
 -1       576 2.00556E+01 2.54677E-01 6.16467E-05 2.99639E-01-2.65156E-13 3.93735E-13
 -1       577 1.99850E+01 3.55911E-01-8.54676E-05 3.04831E-01-2.81207E-13 2.76405E-14
 -1       578 1.98450E+01 5.50354E-01-2.94726E-04 9.05037E-02-1.14295E-13-3.30428E-13
 -1       579 1.98403E+01 5.56234E-01-3.16062E-04-1.96720E-02-1.60172E-13 6.43835E-14
 -1       580 1.98574E+01 5.30268E-01-2.85034E-04-1.24947E-01-1.49213E-13-1.55623E-14
 -1       581 1.98924E+01 4.77548E-01-2.16849E-04-2.10622E-01 1.50213E-13 1.29262E-13
 -1       582 1.99420E+01 4.02795E-01-9.93792E-05-2.69174E-01 1.90422E-13 2.02520E-13
 -1       583 2.00008E+01 3.13721E-01 9.17771E-05-2.92116E-01-2.73441E-14-1.31923E-14
 -1       584 2.00600E+01 2.20344E-01 1.91689E-04-2.77226E-01-1.43407E-13-2.37950E-13
 -1       585 2.09891E+01-5.47347E+00 3.89222E-02-6.03854E+00 1.84984E-13-2.88623E-13
 -1       586 1.99226E+01 2.50639E-01 2.41149E-03 1.52326E-01 1.32118E-13-3.23361E-14
 -1       587 8.10960E+00-2.76487E+00 1.38592E-01-5.56365E+00 9.24885E-14 3.27793E-13
 -1       588 3.05200E+01 4.35824E+00-1.32134E-01 1.57329E+00 6.76958E-14-7.26877E-13
 -1       589 1.20906E+01-4.23320E+00 1.16668E-01-6.54112E+00-1.23387E-13-5.84609E-13
 -1       590 5.39049E+00-1.99293E+00 1.70168E-01-3.54265E+00-1.07969E-14 4.07882E-13
 -1       591 1.96930E+01 3.20666E+00-5.10749E-03-3.11906E-01 7.52125E-14-4.10292E-13
 -1       592 4.78799E+00-1.63140E+00 1.72101E-01 2.11014E+00-2.37865E-13-1.80550E-14
 -1       593 2.95347E+01-3.04727E+00-9.42644E-02 2.52166E-01 1.46372E-13-6.52561E-13
 -1       594 3.02973E+01 6.08395E+00-1.64392E-01 1.29595E+00 2.22170E-13-1.93855E-13
 -1       595 8.04848E+00-2.68749E+00 1.43718E-01 5.58237E+00 3.49790E-14-2.67009E-14
 -1       596 2.98851E+01 2.66425E+00-1.47320E-01 2.61580E+00 2.18173E-13-1.23228E-13
 -1       597 2.60938E+01-5.08867E+00-3.23405E-02-3.18758E+00 1.58512E-13-1.85331E-13
 -1       598 1.92780E+01-5.66230E+00 5.61365E-02-6.18381E+00 6.51146E-14-3.00342E-13
 -1       599 6.30027E+00-2.02274E+00 1.66295E-01-3.67032E+00-1.46730E-13-6.62775E-13
 -1       600 1.55339E+01-4.81308E+00 1.01171E-01 7.07443E+00 1.03584E-13-1.18787E-13
 -1       601 2.33570E+01-5.28200E+00 3.92492E-02 4.82138E+00-5.16046E-14 2.88953E-14
 -1       602 3.03399E+01 2.83009E+00-1.29835E-01-1.51678E+00-3.47208E-13-5.70356E-13
 -1       603 2.90276E+01 6.02385E+00-1.96368E-01-1.42465E+00-5.89986E-13-3.56423E-13
 -1       604 2.95077E+01-6.74803E-01-1.00643E-01 5.03168E-01-7.12833E-14-7.75047E-13
 -1       605 3.05824E+01 2.03213E+00-1.43949E-01-2.45567E+00 2.92592E-13-1.92284E-13
 -1       606 2.05760E+01 1.30598E+00-8.85280E-04 1.54814E+00 3.18972E-13 1.51962E-13
 -1       607 3.01314E+01-8.89963E-01-1.13078E-01 1.51574E+00 2.28848E-13-2.85563E-13
 -1       608 2.68722E+01-4.10776E+00-2.58320E-02-2.89796E+00 1.35655E-15-4.71873E-13
 -1       609 2.59775E+01-5.15324E+00-8.28700E-03 3.28395E+00-2.10852E-13-2.08583E-13
 -1       610 1.99836E+01 2.67165E+00-6.04667E-03-1.25271E+00-1.21099E-13-4.17545E-13
 -1       611 2.83748E+01-3.48993E+00-1.35139E-02 4.76510E-01 6.39861E-14-2.08927E-13
 -1       612 2.72660E+01 6.38856E+00-1.63701E-01-5.24211E-01-4.30607E-13-4.06514E-13
 -1       613 1.50828E+01-3.74630E+00 1.08318E-01 6.07358E+00-2.79915E-13 1.38493E-13
 -1       614 2.26965E+01-5.60028E+00 5.56263E-02 4.78238E+00-5.52357E-13-3.41950E-13
 -1       615 2.01179E+01 1.42511E-01 4.29979E-04-2.49788E-01 1.43237E-13 7.84387E-15
 -1       616 2.61777E+01-4.40772E+00-2.50589E-02 2.22175E+00-9.70769E-14-1.60424E-13
 -1       617 6.44711E+00-5.63097E-01 1.72652E-01-1.13270E+00-1.23079E-14-4.60840E-13
 -1       618 2.82074E+01 5.69508E+00-2.25148E-01-1.37432E-01 2.87340E-13-5.31693E-15
 -1       619 1.99715E+01 2.46180E+00-1.57896E-03 3.91466E-01 1.76348E-13-3.49517E-13
 -1       620 1.99399E+01 2.53806E+00-1.50113E-03 1.34630E-01 1.30292E-13-3.66383E-13
 -1       621 2.01283E+01 2.05385E+00-1.57059E-03 8.46068E-01 2.53393E-13-2.42620E-13
 -1       622 2.02429E+01 1.68040E+00-2.36460E-03 9.88291E-01 2.76975E-13-1.43628E-13
 -1       623 7.07276E+00-1.61967E-01 1.62810E-01-7.88780E-01-1.72755E-13-7.44960E-14
 -1       624 2.00847E+01 2.24474E-01 2.37076E-04-3.45050E-01 5.18505E-14-1.15275E-13
 -1       625 2.02956E+01 1.12645E+00 2.92357E-04-7.60478E-01-1.43173E-13-2.80687E-13
 -1       626 1.99895E+01 1.12848E-01 1.00071E-04-1.52863E-01 1.37786E-13-1.43629E-13
 -1       627 2.02438E+01 6.83513E-01 5.38837E-04-3.84500E-01-1.46512E-13-2.80906E-13
 -1       628 2.01742E+01 4.07345E-01 2.23769E-04-1.23886E-01-1.28272E-13-2.54041E-13
 -1       629 2.01124E+01 2.35308E-01 8.87710E-05 4.75061E-02-1.04857E-13-2.35712E-13
 -1       630 2.00667E+01 1.30866E-01 2.46140E-05 1.56197E-01-1.27093E-13-2.01709E-13
 -1       631 2.00378E+01 7.17451E-02 5.20195E-06 2.23895E-01-9.28908E-14-1.69256E-13
 -1       632 2.00232E+01 4.41757E-02 2.96720E-07 2.67471E-01-8.63357E-14-1.21204E-13
 -1       633 2.00203E+01 3.91866E-02 3.38469E-06 2.99743E-01-5.77170E-14-1.01526E-13
 -1       634 2.00268E+01 5.05759E-02 1.22383E-05 3.30330E-01-4.79091E-14-1.31052E-13
 -1       635 2.00413E+01 7.36789E-02 2.54747E-05 3.66371E-01-6.68181E-14-1.93429E-13
 -1       636 2.00631E+01 1.04466E-01 4.15313E-05 4.12999E-01-6.15507E-14-1.85286E-13
 -1       637 2.00924E+01 1.38752E-01 5.85162E-05 4.73534E-01 3.56017E-15-8.79108E-14
 -1       638 2.01306E+01 1.71385E-01 7.38252E-05 5.49420E-01 7.16426E-14-9.40655E-14
 -1       639 2.01803E+01 1.95363E-01 8.36465E-05 6.39887E-01-2.52495E-15-1.53239E-13
 -1       640 2.02466E+01 2.00883E-01 8.23680E-05 7.41294E-01-1.27406E-13-1.38703E-13
 -1       641 2.03376E+01 1.74477E-01 6.19847E-05 8.46136E-01-6.14720E-14-4.35096E-14
 -1       642 2.04659E+01 9.86877E-02 1.07993E-05 9.41633E-01-4.67115E-14-8.79736E-15
 -1       643 2.06503E+01-4.68056E-02-9.07464E-05 1.00783E+00-2.53321E-14-4.58128E-14
 -1       644 2.09153E+01-2.80754E-01-2.76267E-04 1.01518E+00 4.80825E-14-7.25465E-14
 -1       645 2.12880E+01-6.09536E-01-5.57189E-04 9.22397E-01 2.97932E-14-1.87842E-13
 -1       646 2.17872E+01-1.00669E+00-8.99741E-04 6.76770E-01 8.16108E-14-1.65008E-13
 -1       647 2.23984E+01-1.38012E+00-1.26627E-03 2.24303E-01 1.69938E-14-2.25013E-13
 -1       648 2.30394E+01-1.54048E+00-1.57079E-03-4.53286E-01-1.93268E-14-2.52975E-13
 -1       649 2.35378E+01-1.21329E+00-8.25227E-04-1.25828E+00 5.72613E-14-1.41993E-13
 -1       650 2.36767E+01-1.91837E-01-6.82899E-03-1.88340E+00 1.59767E-13 4.03295E-14
 -1       651 2.33884E+01 1.34214E+00-5.30623E-03-1.85089E+00 1.30571E-13 1.64165E-13
 -1       652 2.29861E+01 2.63413E+00-2.14733E-02-9.06961E-01 5.43112E-14 1.25139E-13
 -1       653 2.29542E+01 2.77871E+00-2.24290E-02 6.01688E-01-6.06507E-14 1.88607E-13
 -1       654 2.33123E+01 1.69069E+00-1.63322E-02 1.72255E+00 4.29583E-14 1.40568E-13
 -1       655 2.36502E+01 1.09845E-01-7.63384E-03 1.94815E+00-7.77267E-14 1.49186E-13
 -1       656 2.36009E+01-1.06691E+00-4.61913E-04 1.40374E+00-6.21222E-14-3.60121E-14
 -1       657 2.31574E+01-1.52381E+00-2.07129E-03 6.06825E-01 5.41781E-15 5.71459E-14
 -1       658 2.25302E+01-1.43995E+00-1.54155E-03-1.10856E-01 9.47858E-15 6.33596E-14
 -1       659 2.19035E+01-1.09075E+00-1.02742E-03-6.10602E-01-4.63248E-14-8.85702E-14
 -1       660 2.13788E+01-6.86862E-01-6.07497E-04-8.94346E-01-8.55472E-15-2.13762E-13
 -1       661 2.09818E+01-3.38315E-01-2.92074E-04-1.01273E+00 1.31859E-13 1.27948E-14
 -1       662 2.06981E+01-8.18232E-02-1.07613E-04-1.01986E+00 1.92706E-14 9.41576E-15
 -1       663 2.05009E+01 8.49781E-02 4.28375E-06-9.59087E-01-4.55415E-14-4.89464E-14
 -1       664 2.03645E+01 1.80192E-01 6.34735E-05-8.61404E-01 6.73367E-14-5.37311E-13
 -1       665 2.02690E+01 2.25158E-01 9.41442E-05-7.47540E-01-4.88729E-14-1.57597E-13
 -1       666 2.02001E+01 2.38953E-01 1.34082E-04-6.30342E-01 1.01027E-13 9.01505E-15
 -1       667 2.01476E+01 2.37272E-01 1.46492E-04-5.17834E-01 8.58647E-14-6.32564E-14
 -1       668 2.01143E+01 2.30478E-01 9.20150E-05-4.27604E-01 3.76227E-14 8.62409E-14
 -1       669 2.73035E+01 1.37372E+00-1.13998E-01 2.18336E+00-3.67657E-14-5.56166E-13
 -1       670 2.00368E+01 2.06556E-01 2.24185E-04-4.21035E-02 9.88345E-14-1.56545E-13
 -1       671 1.99623E+01 3.56627E-02 1.91954E-05-2.62399E-01 7.24989E-14-7.11825E-14
 -1       672 1.99729E+01 3.18220E-02 1.86212E-05-2.93122E-01 1.15610E-13-1.31365E-13
 -1       673 1.99949E+01 4.37791E-02 3.35118E-05-3.22789E-01 9.58609E-14-5.93355E-14
 -1       674 2.00262E+01 6.85907E-02 6.09952E-05-3.59570E-01 1.10120E-13 1.88774E-14
 -1       675 2.00655E+01 1.04471E-01 9.90802E-05-4.10102E-01 3.44538E-14 5.96025E-14
 -1       676 2.01121E+01 1.50236E-01 1.47094E-04-4.79940E-01 3.15995E-14 8.68374E-14
 -1       677 2.01653E+01 2.04734E-01 2.04221E-04-5.73768E-01-3.11551E-15 7.03948E-14
 -1       678 2.02251E+01 2.66048E-01 2.68050E-04-6.95358E-01 5.80137E-14 2.83805E-14
 -1       679 2.02912E+01 3.30233E-01 3.33129E-04-8.47212E-01 5.91905E-14-4.50095E-14
 -1       680 2.03647E+01 3.89291E-01 3.87636E-04-1.02979E+00 4.86057E-14-2.24407E-14
 -1       681 2.04494E+01 4.28021E-01 4.08055E-04-1.24020E+00-2.74462E-14-7.86459E-14
 -1       682 2.05562E+01 4.19491E-01 3.56229E-04-1.47005E+00-9.23861E-14-1.83456E-13
 -1       683 2.07102E+01 3.19550E-01 1.74265E-04-1.70212E+00-1.08295E-13-9.80134E-14
 -1       684 2.09624E+01 6.28380E-02-1.92715E-04-1.90447E+00-7.64183E-14 4.42632E-14
 -1       685 2.14042E+01-4.31685E-01-6.48289E-04-2.01888E+00 9.41116E-15 1.26038E-13
 -1       686 2.21739E+01-1.22409E+00-6.06199E-04-1.93753E+00-1.85785E-13 1.39862E-13
 -1       687 2.34186E+01-2.23656E+00 1.97537E-03-1.47365E+00-2.62478E-13 4.91274E-14
 -1       688 2.51577E+01-3.06869E+00-4.64336E-03-3.94866E-01-7.16564E-14-7.69437E-14
 -1       689 2.63200E+01-3.03462E+00-1.41407E-02-5.91661E-01-3.02414E-13-1.46177E-13
 -1       690 2.44381E+01-2.82367E+00-5.20294E-05 9.10145E-01-2.07694E-13 1.01172E-13
 -1       691 2.28674E+01-1.83465E+00 1.44945E-04 1.72325E+00 2.02395E-13 1.26497E-13
 -1       692 2.18252E+01-8.83692E-01-5.45687E-05 2.00972E+00 7.14375E-14 1.48284E-14
 -1       693 2.12002E+01-2.08223E-01-5.03579E-04 1.99802E+00 1.51244E-13 2.74069E-14
 -1       694 2.08460E+01 1.86326E-01-1.28339E-04 1.83988E+00 2.31859E-13-9.71398E-14
 -1       695 2.06407E+01 3.75679E-01 2.02222E-04 1.61937E+00 2.25632E-13 2.63007E-13
 -1       696 2.05106E+01 4.37168E-01 3.76815E-04 1.38229E+00 1.83099E-13 2.20887E-13
 -1       697 2.04161E+01 4.28573E-01 4.24775E-04 1.15319E+00 3.74648E-13 2.10090E-14
 -1       698 2.03391E+01 3.87410E-01 3.99654E-04 9.44223E-01 2.30078E-13-2.15228E-13
 -1       699 2.02721E+01 3.36130E-01 3.38085E-04 7.60349E-01-1.10268E-13-9.17527E-14
 -1       700 2.02119E+01 2.88219E-01 3.10950E-04 6.01596E-01-7.86592E-14 2.51550E-13
 -1       701 2.01576E+01 2.50688E-01 3.86046E-04 4.65483E-01 8.65567E-14 3.56820E-13
 -1       702 2.00996E+01 2.50388E-01 2.52185E-04 3.80101E-01-2.20205E-13 5.22454E-13
 -1       703 1.16065E+01-1.94730E+00 1.36214E-01-5.03361E+00-2.18957E-13-6.46469E-13
 -1       704 1.97294E+01 5.89201E-01-1.11316E-04 3.90428E-02 2.37430E-13-3.17507E-13
 -1       705 1.98172E+01 5.16525E-01-3.55058E-05 2.92109E-01-1.05778E-13-2.44992E-13
 -1       706 1.97413E+01 5.73810E-01-1.07522E-04-9.90549E-02 1.10172E-13-1.07301E-13
 -1       707 1.97547E+01 5.70020E-01-7.64233E-05 1.75599E-01 4.95978E-14-1.51960E-13
 -1       708 1.97856E+01 5.28338E-01-8.64316E-05-2.19482E-01 2.02172E-13 9.81246E-14
 -1       709 1.98570E+01 4.57487E-01-6.45019E-05-3.12664E-01 2.26600E-13 1.58889E-13
 -1       710 1.99470E+01 3.69170E-01-1.21662E-04-3.66626E-01 2.30201E-13 1.18508E-13
 -1       711 1.90329E+01-4.68417E+00 7.14961E-02-5.97232E+00 4.34389E-13-4.96698E-13
 -1       712 2.01117E+01 3.62832E-01 4.84302E-04 1.36604E-01 1.32410E-13-1.15353E-13
 -1       713 1.33183E+01-2.73435E+00 1.19571E-01-6.02415E+00 2.85074E-13-4.28615E-14
 -1       714 2.34338E+01-5.29726E+00 2.22688E-02-3.91684E+00 1.93977E-14-2.62569E-13
 -1       715 2.00838E+01-4.47647E+00 6.60954E-02 5.32600E+00 1.04031E-13 4.89600E-14
 -1       716 2.76873E+01-1.99768E+00-5.65589E-02-1.92101E+00-1.70274E-13-2.23922E-13
 -1       717 8.91471E+00-1.13604E+00 1.45636E-01-4.13015E+00 1.73851E-13 2.44922E-13
 -1       718 1.99664E+01 6.00970E-02 4.13418E-05-2.20213E-01 9.75337E-14-9.00418E-14
 -1       719 2.00341E+01 2.30529E+00-1.64641E-03 6.33748E-01 2.16682E-13-2.69196E-13
 -1       720 2.00288E+01 2.31536E+00-1.62839E-03-6.25620E-01-2.68944E-14-3.76014E-13
 -1       721 9.29484E+00-6.53803E-01 1.55358E-01 3.29248E+00-1.87026E-13 2.65961E-13
 -1       722 2.02080E+01 6.22669E-01 1.08475E-03 4.14304E-01 1.94615E-13-7.71912E-14
 -1       723 2.79269E+01-4.00424E-01-8.82140E-02-1.50732E+00-8.56017E-14-4.19467E-13
 -1       724 8.43067E+00-3.09303E-01 1.60250E-01 2.86841E+00 2.93359E-14-1.82437E-13
 -1       725 1.73780E+01-4.12601E+00 9.21481E-02-5.84605E+00-1.21705E-13-3.74076E-13
 -1       726 1.42816E+01-2.83276E+00 1.20708E-01 6.05951E+00 6.91634E-14-6.26929E-14
 -1       727 2.73253E+01 5.30813E+00-1.57524E-01 1.55923E+00-1.74236E-14-6.75942E-13
 -1       728 2.72090E+01 3.19866E+00-1.13838E-01-2.15759E+00-4.36533E-13-2.51573E-13
 -1       729 2.42811E+01-5.01267E+00 1.06491E-02-3.62265E+00 2.71259E-13-4.28772E-13
 -1       730 2.72240E+01-3.06293E+00-4.63830E-02-4.57054E-01 1.68008E-14-6.99399E-13
 -1       731 2.71761E+01-4.34817E+00-7.62504E-03 1.02810E+00-2.44790E-13-7.81266E-13
 -1       732 2.03145E+01 1.00167E+00 2.73728E-03 7.98433E-01 2.42936E-13-4.79498E-14
 -1       733 2.01246E+01 2.07249E+00-1.82535E-03-8.49958E-01-9.75477E-14-3.85625E-13
 -1       734 1.99391E+01 2.53957E+00-1.49391E-03-1.25904E-01 9.59010E-14-3.86190E-13
 -1       735 1.01663E+01-4.90406E-01 1.27726E-01-3.27388E+00-3.39884E-14-5.41289E-13
 -1       736 1.99887E+01 3.60541E-01-8.92701E-05 3.88954E-01-2.05928E-13 1.48442E-13
 -1       737 2.59828E+01 4.27839E+00-9.64146E-02-1.75331E+00-3.79408E-13-4.44404E-13
 -1       738 2.67090E+01-2.81787E+00-3.45981E-02-2.65341E-01 4.69345E-14-2.40911E-13
 -1       739 2.30493E+01-4.66442E+00 1.69204E-02 3.67486E+00 6.46323E-14-6.28359E-14
 -1       740 1.99682E+01 2.46764E+00-1.55750E-03-3.81571E-01 3.50050E-14-3.52884E-13
 -1       741 1.98973E+01 4.45990E-01-9.93119E-05 3.58066E-01 4.27100E-15-3.24742E-14
 -1       742 1.25152E+01-1.54307E+00 1.07446E-01 4.65583E+00-3.02362E-14 1.26926E-13
 -1       743 2.66659E+01-1.08993E+00-1.99962E-02 1.59434E+00-7.19416E-14-4.83393E-13
 -1       744 2.02656E+01 1.69281E+00-1.92068E-03-1.12622E+00-1.53579E-13-3.17974E-13
 -1       745 2.02708E+01 1.31787E+00-3.17530E-04 6.23380E-01 2.15812E-13-1.84372E-13
 -1       746 2.02709E+01 7.16054E-01-2.00440E-04 3.18096E-01 1.90275E-13-1.57931E-13
 -1       747 2.02960E+01 7.50161E-01 7.36577E-05-2.77134E-01-9.63463E-14-2.52005E-13
 -1       748 2.02698E+01 4.60913E-01 4.64523E-05-7.20423E-02-9.60352E-14-1.92591E-13
 -1       749 2.02299E+01 2.73813E-01-1.61401E-06 6.94362E-02-1.06057E-13-1.58869E-13
 -1       750 2.01884E+01 1.59062E-01-3.35454E-06 1.63258E-01-1.10431E-13-1.27829E-13
 -1       751 2.01501E+01 9.58254E-02-4.20540E-06 2.25270E-01-6.54618E-14-1.47678E-13
 -1       752 2.01165E+01 7.01222E-02-2.43985E-06 2.69049E-01-4.35461E-14-1.44414E-13
 -1       753 2.00875E+01 7.20226E-02-3.85768E-07 3.05447E-01-6.71596E-14-1.02254E-13
 -1       754 2.00621E+01 9.41874E-02 2.71621E-06 3.42932E-01-4.70095E-14-9.08694E-14
 -1       755 2.00396E+01 1.30707E-01 6.80406E-06 3.87998E-01-5.48352E-14-7.80103E-14
 -1       756 2.00192E+01 1.76100E-01 1.17089E-05 4.45474E-01 1.97950E-14-6.51147E-14
 -1       757 2.00011E+01 2.24338E-01 1.72377E-05 5.18690E-01-1.48996E-14-1.27380E-13
 -1       758 1.99869E+01 2.67806E-01 2.31159E-05 6.09473E-01-6.96675E-14-1.99933E-13
 -1       759 1.99802E+01 2.96148E-01 2.89135E-05 7.17954E-01-8.26498E-14-2.69009E-13
 -1       760 1.99884E+01 2.95052E-01 3.41562E-05 8.42151E-01-8.58399E-14-2.35186E-13
 -1       761 2.00248E+01 2.45189E-01 3.82479E-05 9.77179E-01-3.14053E-14-2.07752E-13
 -1       762 2.01107E+01 1.21821E-01 3.71640E-05 1.11381E+00-3.40314E-14-1.52333E-13
 -1       763 2.02787E+01-1.03754E-01 8.12532E-06 1.23576E+00 3.18181E-14 8.86666E-15
 -1       764 2.05745E+01-4.58384E-01-1.16209E-04 1.31428E+00 7.20300E-14 1.53149E-14
 -1       765 2.10537E+01-9.51334E-01-3.16767E-04 1.30024E+00 1.02025E-13 5.58640E-14
 -1       766 2.17679E+01-1.54399E+00-5.58373E-04 1.11392E+00-3.36233E-14 4.30799E-14
 -1       767 2.27265E+01-2.08911E+00-6.40515E-04 6.41064E-01-1.46626E-14 1.08966E-14
 -1       768 2.38196E+01-2.24715E+00-3.56360E-03-2.27167E-01 1.01154E-13 6.18117E-14
 -1       769 2.47036E+01-1.55915E+00-1.73809E-02-1.33680E+00 1.69496E-13 1.76870E-13
 -1       770 2.49838E+01 3.98833E-01-2.12710E-02-2.14752E+00 8.13377E-14 1.04122E-13
 -1       771 2.45955E+01 3.44579E+00-6.58438E-02 1.63730E+00-1.52742E-14-5.05022E-13
 -1       772 2.47953E+01-1.22492E+00-2.57740E-02 1.55571E+00-1.59387E-13-5.31892E-13
 -1       773 2.40322E+01-2.16656E+00-4.13906E-03 4.60337E-01 5.34945E-15-4.07330E-13
 -1       774 2.29490E+01-2.16130E+00-1.87920E-03-4.91241E-01-1.50915E-14-6.11858E-13
 -1       775 2.19550E+01-1.66331E+00-9.59977E-04-1.03935E+00-1.16344E-14-4.62998E-13
 -1       776 2.11926E+01-1.06584E+00-3.85235E-04-1.27739E+00-3.01781E-14-2.61190E-13
 -1       777 2.06703E+01-5.46404E-01-5.86714E-05-1.32144E+00 7.38211E-14-2.56364E-13
 -1       778 2.03424E+01-1.61061E-01 1.28752E-05-1.25755E+00-3.71730E-15-2.82411E-13
 -1       779 2.01527E+01 9.34867E-02 4.71600E-05-1.14027E+00 4.59638E-14-2.76063E-13
 -1       780 2.00528E+01 2.42852E-01 5.11411E-05-1.00120E+00-2.34133E-13-1.01487E-13
 -1       781 2.00075E+01 3.16742E-01 3.58618E-05-8.57993E-01-4.72742E-14-2.43134E-13
 -1       782 1.99931E+01 3.41699E-01 1.04212E-04-7.20593E-01 1.61933E-13-2.91905E-13
 -1       783 1.99912E+01 3.40975E-01 4.57908E-04-5.94388E-01 4.91680E-14-2.03766E-13
 -1       784 2.01805E+01 2.56333E-01 3.93963E-05-6.30942E-02 8.47148E-14-1.43169E-13
 -1       785 2.00632E+01 6.46506E-02 4.17277E-06-3.10135E-01 6.22813E-14-7.18218E-14
 -1       786 2.00810E+01 6.19073E-02-5.06586E-06-2.73355E-01 9.65970E-14-1.68422E-13
 -1       787 2.00398E+01 1.30661E-01 2.04812E-05-3.95188E-01 1.08376E-14 6.24359E-14
 -1       788 2.00295E+01 1.87816E-01 3.18010E-05-4.57235E-01 4.10969E-14-1.41758E-15
 -1       789 2.00161E+01 2.58354E-01 4.65934E-05-5.39374E-01 3.67864E-14 1.86068E-15
 -1       790 1.99962E+01 3.40094E-01 6.50277E-05-6.45714E-01 5.43482E-14-1.09918E-13
 -1       791 1.99660E+01 4.29379E-01 8.76325E-05-7.79508E-01 7.33711E-14-7.11495E-14
 -1       792 1.99217E+01 5.19309E-01 1.14426E-04-9.43165E-01 6.62388E-14-5.87475E-14
 -1       793 1.98612E+01 5.97004E-01 1.43801E-04-1.13832E+00-2.89340E-14-1.72970E-14
 -1       794 1.97875E+01 6.39540E-01 1.68218E-04-1.36610E+00-2.93070E-14 5.52718E-14
 -1       795 1.97141E+01 6.08348E-01 1.90494E-04-1.62766E+00-1.48833E-13 1.56462E-13
 -1       796 1.96770E+01 4.42346E-01 2.40979E-04-1.92464E+00-1.41984E-13 1.45453E-13
 -1       797 1.97529E+01 5.14945E-02 5.74200E-04-2.25619E+00-1.20603E-13 1.96435E-13
 -1       798 2.00855E+01-6.79338E-01 1.64299E-03-2.60530E+00-4.82542E-14 1.29918E-13
 -1       799 2.09310E+01-1.85412E+00 7.18592E-03-2.88002E+00-3.57533E-14-2.04020E-13
 -1       800 2.26423E+01-3.35456E+00 2.51367E-02-2.85088E+00-1.05724E-13-3.05019E-13
 -1       801 1.99169E+01-3.50764E-01 1.51847E-03 2.47557E+00 7.54263E-14-1.00241E-13
 -1       802 1.97057E+01 2.36371E-01 1.62494E-04 2.13149E+00 2.15113E-13 4.97075E-14
 -1       803 1.96874E+01 5.30749E-01 6.10785E-05 1.81126E+00 5.37164E-14 1.63632E-14
 -1       804 1.97461E+01 6.39813E-01 1.37045E-04 1.52558E+00 1.36948E-13-2.06776E-13
 -1       805 1.98238E+01 6.42726E-01 1.56947E-04 1.27298E+00 3.44059E-13-1.89067E-13
 -1       806 1.98943E+01 5.92544E-01 1.65607E-04 1.05092E+00 2.22493E-13-6.55808E-14
 -1       807 1.99490E+01 5.21176E-01 1.31860E-04 8.57125E-01-1.17368E-13 3.88203E-13
 -1       808 1.99871E+01 4.48391E-01 1.06990E-04 6.90788E-01-7.06639E-14 2.58334E-13
 -1       809 2.00093E+01 3.85823E-01 5.81892E-05 5.47314E-01-1.75692E-14-3.45644E-14
 -1       810 1.99953E+01 3.70870E-01-1.32658E-04 4.63979E-01-2.53927E-13 7.48741E-14
 -1       811 1.96400E+01 5.99002E-01-3.56919E-05-2.07433E-01 1.59902E-13 3.79037E-13
 -1       812 1.27421E+01-7.53870E-01 6.56052E-02 4.14169E+00-1.18855E-14-5.99312E-14
 -1       813 9.77586E+00 5.88244E-01 1.07378E-01-9.18507E-02-2.77950E-14-3.34191E-13
 -1       814 1.95950E+01 6.39456E-01-6.80474E-05-4.62878E-02 7.24978E-14-4.03802E-13
 -1       815 2.08373E+01-3.94394E+00 4.78665E-02-4.23882E+00-2.16712E-13-1.78907E-13
 -1       816 2.02281E+01 4.35461E-01 1.06072E-04 9.06085E-02 1.06742E-13-1.54256E-13
 -1       817 2.46835E+01 4.61031E+00-1.02741E-01 4.72271E-01-1.00107E-13-6.09797E-13
 -1       818 1.97293E+01 5.27881E-01-3.25664E-05-3.38693E-01 2.35584E-13 6.46946E-14
 -1       819 1.98482E+01 4.37146E-01 4.51549E-05-4.27203E-01 1.59449E-13 4.78386E-14
 -1       820 2.05199E+01-1.35162E+00 4.77453E-03 2.81019E+00 7.12004E-14-2.78394E-13
 -1       821 2.02829E+01 9.54511E-01 2.67272E-04 5.48053E-01 2.13481E-13-1.28011E-13
 -1       822 2.18867E+01-2.79646E+00 2.05198E-02 2.94536E+00-9.83393E-14-4.61215E-13
 -1       823 1.78883E+01-2.82980E+00 5.59389E-02 4.91761E+00-3.55098E-15-3.99368E-14
 -1       824 2.00502E+01 8.87911E-02 1.12546E-05-3.48207E-01 4.34846E-14-3.78083E-14
 -1       825 1.99858E+01 3.32511E-01-1.86126E-04-4.53527E-01 1.29773E-13-2.92627E-13
 -1       826 1.74377E+01-3.17854E+00 6.23710E-02-5.39180E+00 6.35117E-14-3.55486E-13
 -1       827 9.99346E+00 4.92001E-01 1.06306E-01 9.17429E-01 9.38231E-14 2.61346E-13
 -1       828 2.02907E+01 1.17836E+00 6.40396E-05-5.60279E-01-1.37743E-13-3.21197E-13
 -1       829 2.01484E+01 1.90913E+00-2.88831E-04 1.95886E-01 1.32616E-13-3.35808E-13
 -1       830 2.19461E+01-4.35345E+00 3.04525E-02-4.09216E+00 1.25670E-13-4.60194E-14
 -1       831 1.59087E+01-2.28603E+00 7.37377E-02-4.90871E+00-1.82424E-13-5.08517E-13
 -1       832 2.51695E+01-3.93257E+00-1.03531E-02-1.30281E+00-4.70214E-14-4.87013E-13
 -1       833 2.03747E+01-3.76995E+00 4.84629E-02 4.41997E+00-4.62347E-13-6.50448E-13
 -1       834 2.60584E+01 4.57792E-01-8.85581E-02-2.20310E+00-4.66207E-14 9.46361E-14
 -1       835 2.01366E+01 1.94828E+00-2.76657E-04 3.07028E-03 9.20606E-14-3.21578E-13
 -1       836 2.01387E+01 1.47266E-01 7.39264E-05-1.63156E-01 1.18169E-13-1.47407E-13
 -1       837 2.02293E+01 1.59734E+00 2.01008E-04 5.28464E-01 2.10692E-13-2.42016E-13
 -1       838 2.50885E+01 5.56021E-01-3.95992E-02 2.17061E+00-7.17230E-14-5.80689E-13
 -1       839 2.43976E+01 4.36617E+00-7.71740E-02-1.88779E-01-1.33869E-13-4.94854E-13
 -1       840 2.01058E+01 8.67061E-02 3.34128E-05-2.28283E-01 7.68937E-14-1.63579E-13
 -1       841 1.38944E+01-9.43704E-01 7.37983E-02-4.07853E+00-1.04017E-13-5.00756E-13
 -1       842 1.29303E+01-8.30795E-01 6.84157E-02-4.24421E+00 1.74883E-13 2.12351E-13
 -1       843 2.42158E+01-4.25631E+00 1.19343E-02 2.36500E+00-5.99956E-13-4.42788E-13
 -1       844 1.96647E+01 6.06710E-01 3.55952E-05 2.85557E-01-2.05201E-14 2.81732E-14
 -1       845 1.20841E+01 5.52378E-01 5.51876E-02 1.98980E+00-3.75361E-14-2.37284E-13
 -1       846 1.96021E+01 6.42870E-01-8.80799E-05 1.25109E-01 6.87955E-14-2.79734E-13
 -1       847 1.97629E+01 5.42884E-01 1.60442E-04 3.91658E-01-1.22931E-13-2.77914E-13
 -1       848 2.47727E+01-3.85289E+00-3.77926E-03 1.39345E+00 1.96676E-13-8.87692E-14
 -1       849 2.04773E+01-3.56946E+00 2.66251E-02 4.16441E+00-1.00744E-15-5.30808E-14
 -1       850 2.01824E+01 1.79250E+00-8.45034E-05 3.77163E-01 1.81976E-13-2.76685E-13
 -1       851 1.14830E+01 5.44952E-02 8.24005E-02 2.64970E+00 3.88504E-14 2.53728E-13
 -1       852 1.76512E+01-2.25282E+00 4.40892E-02 4.51051E+00-4.03790E-13-2.93365E-13
 -1       853 1.01547E+01 4.40297E-01 1.02266E-01-1.64571E+00-9.29075E-14-2.08958E-13
 -1       854 2.02223E+01 1.61075E+00-5.39557E-05-5.23374E-01-7.61137E-14-3.35962E-13
 -1       855 2.01806E+01 1.79859E+00 7.55655E-05-3.73370E-01-1.40588E-14-3.13784E-13
 -1       856 2.03354E+01 4.71550E-01-3.75217E-04-2.18659E-02-6.63544E-14-1.45717E-13
 -1       857 2.03035E+01 2.88315E-01-1.74939E-05 8.65001E-02-8.88816E-14-1.27365E-13
 -1       858 2.02606E+01 1.75507E-01-9.15666E-06 1.59968E-01-1.11353E-13-7.23770E-14
 -1       859 2.02113E+01 1.17326E-01-2.49437E-06 2.11485E-01-8.23458E-14-1.28395E-13
 -1       860 2.01588E+01 1.00151E-01-2.85894E-06 2.51354E-01-2.38631E-14-1.82368E-13
 -1       861 2.01043E+01 1.13731E-01-3.01606E-06 2.88133E-01-5.68632E-14-1.48970E-13
 -1       862 2.00475E+01 1.50063E-01-2.95777E-06 3.28795E-01-7.95880E-14-1.72084E-13
 -1       863 1.99875E+01 2.02321E-01-2.54978E-06 3.78969E-01-6.07086E-15-1.81763E-13
 -1       864 1.99236E+01 2.63792E-01-1.87004E-06 4.43189E-01-3.24922E-14-1.73875E-13
 -1       865 1.98556E+01 3.26800E-01-6.79914E-07 5.25118E-01-9.28168E-14-1.50266E-13
 -1       866 1.97848E+01 3.81507E-01 1.17610E-06 6.27738E-01-9.75187E-14-1.99790E-13
 -1       867 1.97157E+01 4.14575E-01 4.77085E-06 7.53464E-01-2.24111E-14-2.50201E-13
 -1       868 1.96572E+01 4.07746E-01 1.28031E-05 9.04157E-01-1.58396E-14-1.43368E-13
 -1       869 1.96260E+01 3.36487E-01 3.28416E-05 1.08079E+00 4.29751E-14-4.09203E-14
 -1       870 1.96505E+01 1.69120E-01 7.27674E-05 1.28225E+00 8.16969E-14-1.05237E-14
 -1       871 1.97758E+01-1.32714E-01 9.63150E-05 1.50203E+00 9.32587E-14-1.10824E-13
 -1       872 2.00734E+01-6.10275E-01 1.23576E-04 1.71785E+00 1.49471E-13-5.79077E-14
 -1       873 2.06354E+01-1.28473E+00 1.03704E-04 1.87593E+00 6.58863E-14-8.90130E-16
 -1       874 2.15813E+01-2.12025E+00 4.02215E-03 1.86642E+00-5.46643E-14-4.79174E-14
 -1       875 2.29775E+01-2.92154E+00 8.07582E-03 1.49180E+00 6.33994E-14-4.48782E-14
 -1       876 2.33131E+01-3.02629E+00 3.13028E-03-1.32251E+00-1.33641E-13-5.72381E-13
 -1       877 2.18500E+01-2.29821E+00 4.50505E-03-1.81406E+00 4.68620E-14-5.05176E-13
 -1       878 2.08154E+01-1.44704E+00 4.45975E-04-1.88711E+00 1.20178E-13-2.60788E-13
 -1       879 2.01853E+01-7.32791E-01 5.15785E-04-1.75677E+00 3.65434E-14-1.42103E-13
 -1       880 1.98419E+01-2.13109E-01 1.61171E-04-1.54845E+00 1.34111E-13 1.39549E-13
 -1       881 1.96873E+01 1.26417E-01 1.11569E-04-1.32705E+00-8.78535E-15 1.11314E-13
 -1       882 1.96453E+01 3.26062E-01 6.89682E-05-1.11904E+00-1.57202E-13-1.10641E-14
 -1       883 1.96658E+01 4.25978E-01 1.94431E-05-9.32530E-01-9.25430E-14-1.09679E-13
 -1       884 1.97173E+01 4.60192E-01 4.62014E-05-7.69081E-01 6.08291E-14 2.06974E-13
 -1       885 1.97783E+01 4.54667E-01-6.93672E-04-6.27615E-01 1.00916E-13 2.02938E-13
 -1       886 2.03040E+01 9.99000E-01 2.17670E-04 3.94811E-01 2.16080E-13-2.08046E-13
 -1       887 1.99322E+01 2.89443E-01 8.66186E-06-4.58927E-01 4.52810E-14-1.39685E-13
 -1       888 1.99955E+01 2.09432E-01 6.66226E-06-3.93992E-01 5.72361E-14-9.13238E-14
 -1       889 1.97547E+01 4.93132E-01 1.71628E-05-6.46303E-01 5.24621E-14-9.26746E-14
 -1       890 1.96267E+01 6.07969E-01 2.53799E-05-7.74353E-01 1.91291E-14-2.73667E-14
 -1       891 1.94622E+01 7.20225E-01 3.63978E-05-9.28956E-01 2.13486E-14 3.85991E-14
 -1       892 1.92542E+01 8.13646E-01 4.71693E-05-1.11454E+00-2.78385E-14-4.84749E-14
 -1       893 1.89995E+01 8.61064E-01 4.15158E-05-1.33975E+00-1.24843E-13-3.80121E-14
 -1       894 1.87036E+01 8.19000E-01 9.93199E-05-1.62180E+00-5.76335E-14-9.64441E-14
 -1       895 1.83914E+01 6.20452E-01 5.94044E-04-1.99326E+00-4.85154E-14-3.16794E-13
 -1       896 1.81273E+01 1.60953E-01 2.46857E-03-2.50980E+00-2.83943E-14-5.48068E-13
 -1       897 1.80642E+01-7.07679E-01 1.40194E-02-3.22558E+00-1.08390E-14-4.15082E-13
 -1       898 1.94548E+01 6.88082E-01-4.71997E-05-1.71222E-01 2.54396E-13 3.76498E-14
 -1       899 1.88316E+01 8.56846E-01-1.20486E-04 1.50805E+00 1.35616E-13-1.27308E-14
 -1       900 1.85204E+01 7.23657E-01-2.17637E-04 1.84157E+00 1.07421E-13 7.88123E-14
 -1       901 1.62557E+01-9.92059E-01 1.85198E-02 3.75488E+00 7.56312E-14 3.29597E-16
 -1       902 1.82199E+01 3.78829E-01-3.48666E-04 2.29528E+00 1.65496E-13-6.00046E-14
 -1       903 1.91140E+01 8.64432E-01 2.33450E-05 1.24717E+00 2.12155E-13 1.25966E-13
 -1       904 1.93511E+01 8.05185E-01 1.01422E-04 1.03429E+00 2.62949E-13 1.65124E-13
 -1       905 1.95413E+01 7.15916E-01 1.58730E-04 8.53392E-01-1.85927E-13 1.46924E-13
 -1       906 1.96864E+01 6.19440E-01-1.91538E-04 6.96740E-01-5.39551E-15-6.04407E-15
 -1       907 1.97986E+01 5.31804E-01 2.31534E-04 5.63927E-01-8.21544E-14 1.08914E-13
 -1       908 1.97029E+01 5.18027E-01 2.63097E-04-4.75039E-01 1.89037E-13-2.78058E-13
 -1       909 2.00445E+01-2.98081E+00 2.13916E-02-3.89556E+00-1.04376E-13-9.41872E-14
 -1       910 1.98540E+01 3.85142E-01 1.16798E-05-5.42016E-01 6.42831E-14-1.52566E-13
 -1       911 2.01432E+01 9.32190E-02-5.77490E-06-2.64344E-01 1.71661E-15-1.56208E-13
 -1       912 2.01485E+01 1.91124E+00-7.03169E-05-1.91743E-01 4.52932E-14-3.34246E-13
 -1       913 1.95537E+01 6.15847E-01-7.69942E-05-3.47607E-01 2.18109E-13 3.54864E-13
 -1       914 1.90518E+01-2.37695E+00 2.15082E-02-4.00361E+00-7.53833E-14-1.80248E-13
 -1       915 1.80692E+01-3.33738E-01 5.11764E-03 2.93043E+00-1.41713E-13-2.99309E-14
 -1       916 2.03214E+01 1.07674E+00-5.67447E-04-3.02289E-01-3.56567E-14-2.58651E-13
 -1       917 2.03439E+01 7.31944E-01 3.91708E-04-1.47948E-01-4.64907E-14-1.87408E-13
 -1       918 1.19283E+01 9.06009E-01 5.54407E-02-2.40314E-01 2.24610E-13 6.63948E-14
 -1       919 2.29972E+01-3.61587E+00 1.14026E-02-2.34706E+00-9.18857E-14-4.36025E-13
 -1       920 1.65011E+01-1.32528E+00 3.69976E-02-4.09074E+00-7.49982E-14 6.71819E-14
 -1       921 1.98783E+01 4.61287E-01 1.97018E-05 4.46882E-01-8.93442E-14 4.19976E-13
 -1       922 1.77648E+01-1.10987E+00 1.93449E-02 3.62809E+00-2.55261E-13-1.41775E-13
 -1       923 1.18710E+01 5.00908E-01 6.31330E-02-1.94459E+00 5.48814E-14-6.19872E-13
 -1       924 1.29107E+01 2.95993E-01 3.97717E-02-2.63276E+00 1.43579E-14 1.71429E-13
 -1       925 1.23978E+01 8.29779E-01 3.39812E-02 1.27468E+00-9.62995E-14 7.00568E-14
 -1       926 1.72269E+01-1.38238E+00 4.44692E-02-3.91327E+00-8.68151E-14-3.23005E-13
 -1       927 2.03070E+01 6.28515E-01-1.92895E-04 1.62440E-01 1.37660E-13-1.90484E-13
 -1       928 2.01883E+01 1.10765E-01-4.89267E-05-2.21859E-01 7.45224E-14-1.99176E-13
 -1       929 2.00975E+01 1.07669E-01 2.56787E-06-3.02236E-01 1.66487E-14-3.04010E-14
 -1       930 2.00492E+01 1.47793E-01 4.59765E-06-3.43386E-01-1.09521E-14-4.47059E-14
 -1       931 1.94240E+01 7.21398E-01-2.74399E-05 3.23073E-02 3.19214E-13-5.28979E-13
 -1       932 2.02797E+01 3.85795E-01-1.16694E-04-2.06484E-03 9.49273E-14-2.04536E-13
 -1       933 1.94420E+01-2.24317E+00 1.08024E-02 3.55386E+00 1.50452E-13 7.71977E-14
 -1       934 2.02416E+01 2.30389E-01-3.85697E-05-1.14033E-01 1.25689E-13-2.22323E-13
 -1       935 1.49791E+01 2.21603E-01 2.16367E-02 2.63932E+00 6.30468E-14 1.93560E-14
 -1       936 1.24749E+01 9.91640E-01 3.60707E-02 1.74622E-01 8.07330E-14-3.02573E-13
 -1       937 1.95851E+01 6.50070E-01-3.85644E-04 4.17089E-01 9.40706E-14-4.24199E-14
 -1       938 1.97523E+01 4.78740E-01-2.81103E-04-5.48782E-01 8.30870E-14-9.87371E-15
 -1       939 2.02915E+01 1.36692E+00-2.62513E-04 1.90404E-01 1.41455E-13-2.72660E-13
 -1       940 2.02818E+01 1.43623E+00-3.04080E-05 6.68520E-02 1.01497E-13-2.97765E-13
 -1       941 1.39135E+01-3.97812E-01 5.27398E-02 3.49441E+00-2.90204E-13-3.00787E-13
 -1       942 1.94704E+01 7.08819E-01-2.89331E-05 2.37933E-01 1.71675E-13 1.48194E-13
 -1       943 2.22279E+01-3.41534E+00 7.80348E-03 2.71212E+00 1.26900E-13 1.33421E-14
 -1       944 2.03763E+01 4.54718E-01 3.53572E-04 1.64537E-02-4.98936E-14-1.21854E-13
 -1       945 2.03441E+01 2.83142E-01 9.80111E-06 8.95776E-02-1.09429E-13-1.07085E-13
 -1       946 2.02939E+01 1.82163E-01-1.43725E-05 1.41187E-01-9.37490E-14-1.45869E-13
 -1       947 2.02312E+01 1.36836E-01-3.79860E-06 1.79885E-01-5.63670E-14-1.31607E-13
 -1       948 2.01594E+01 1.33765E-01-6.43581E-06 2.12826E-01-3.96316E-14-1.95753E-13
 -1       949 2.00799E+01 1.62817E-01-1.03301E-05 2.46403E-01-4.39541E-14-1.12981E-13
 -1       950 1.99923E+01 2.15810E-01-1.35316E-05 2.86039E-01-6.16830E-14-1.47342E-13
 -1       951 1.98951E+01 2.85375E-01-1.90458E-05 3.36549E-01 1.17528E-14-1.69192E-13
 -1       952 1.97869E+01 3.64001E-01-2.41746E-05 4.02318E-01-2.47814E-14-1.16887E-13
 -1       953 1.96665E+01 4.42903E-01-3.12048E-05 4.87755E-01-9.35405E-14-1.35893E-13
 -1       954 1.95342E+01 5.10745E-01-4.00975E-05 5.97730E-01-6.21773E-14-1.74974E-14
 -1       955 1.93931E+01 5.52264E-01-5.01094E-05 7.38123E-01 1.69092E-14-6.51604E-14
 -1       956 1.92511E+01 5.46735E-01-5.72661E-05 9.16486E-01 9.87833E-14-4.38779E-14
 -1       957 1.91239E+01 4.66218E-01-4.33515E-05 1.14262E+00 5.32911E-14-1.49418E-14
 -1       958 1.90407E+01 2.73642E-01 6.57870E-05 1.42816E+00 4.09227E-14-2.39100E-14
 -1       959 1.90488E+01-7.74349E-02-3.42641E-05 1.78537E+00 9.11731E-14-6.67513E-14
 -1       960 1.92530E+01-6.63212E-01-3.33429E-03 2.21854E+00 8.54345E-14-2.36625E-13
 -1       961 1.97856E+01-1.51899E+00 3.10347E-03 2.66182E+00 1.93122E-14-2.38791E-13
 -1       962 2.07259E+01-2.45938E+00-6.42765E-03 2.86574E+00 3.16945E-15-7.38129E-14
 -1       963 2.02802E+01 1.43753E+00-5.29681E-04-6.35794E-02 5.37591E-14-3.05983E-13
 -1       964 1.55838E+01 7.56327E-02 1.68634E-02-2.72359E+00-1.91961E-13 2.79374E-13
 -1       965 1.99754E+01-1.73603E+00 6.01228E-03-2.75924E+00 1.27126E-13-1.62251E-13
 -1       966 1.93529E+01-8.14455E-01 5.81978E-04-2.30948E+00-5.97390E-15-3.89281E-13
 -1       967 1.91006E+01-1.76803E-01 5.71052E-04-1.86888E+00 9.96313E-14-2.65896E-13
 -1       968 1.90589E+01 2.21122E-01 3.13763E-04-1.49797E+00 3.66312E-14-2.08193E-13
 -1       969 1.91260E+01 4.49562E-01 1.21212E-04-1.19779E+00-2.43737E-13-3.83744E-13
 -1       970 1.92439E+01 5.61979E-01 2.29655E-05-9.57705E-01-2.95868E-15-1.25926E-13
 -1       971 1.93814E+01 5.96296E-01 1.41690E-04-7.66046E-01-5.22634E-14-8.12458E-14
 -1       972 1.95188E+01 5.83337E-01 3.82328E-04-6.11983E-01-5.74092E-14-4.54341E-13
 -1       973 1.99061E+01 2.97939E-01 4.73973E-06-3.50765E-01 1.10850E-13-1.74174E-13
 -1       974 1.92440E+01 7.81123E-01-2.18133E-05-6.65345E-01 1.33491E-14 1.92146E-14
 -1       975 1.94695E+01 6.46785E-01-1.28720E-05-5.63790E-01 1.11841E-14 8.45896E-14
 -1       976 1.85952E+01 1.01608E+00-9.77773E-05-9.31925E-01-8.88752E-14-1.31506E-14
 -1       977 1.81373E+01 1.07452E+00-2.50600E-04-1.11860E+00-1.44655E-14-1.06488E-13
 -1       978 1.75611E+01 1.04629E+00-5.55229E-04-1.37609E+00 2.40920E-14-2.42957E-13
 -1       979 1.68412E+01 8.76627E-01 5.03923E-04-1.76529E+00 1.00773E-13-3.29189E-13
 -1       980 1.59693E+01 4.75373E-01 1.31348E-02-2.39236E+00-1.01088E-13-3.15057E-13
 -1       981 1.83409E+01 1.07281E+00-4.43396E-05 1.04137E+00 1.71230E-13 4.80111E-14
 -1       982 1.71502E+01 9.63913E-01-1.74246E-03 1.60890E+00 1.87543E-14 8.69159E-14
 -1       983 1.78118E+01 1.07849E+00-6.90928E-04 1.26911E+00 1.18889E-13 1.12721E-13
 -1       984 1.90877E+01 8.99187E-01 3.40300E-04 7.26749E-01-1.46096E-14 5.16481E-13
 -1       985 1.93500E+01 7.83734E-01 6.64970E-04 6.09936E-01 3.40788E-15 3.49352E-13
 -1       986 2.03208E+01 1.21147E+00-8.59231E-05-2.00447E-01 5.17687E-15-2.59778E-13
 -1       987 2.03236E+01 1.10966E+00 6.83238E-05 2.91416E-01 1.78973E-13-2.06602E-13
 -1       988 2.02166E+01 1.53529E-01-3.61439E-05-1.77301E-01 9.18418E-14-2.22627E-13
 -1       989 1.62994E+01 6.81455E-01 7.68531E-03 2.15261E+00-2.26427E-13-2.48881E-13
 -1       990 1.45734E+01 3.34915E-02 3.05428E-02-2.98715E+00-5.39967E-14-4.64711E-13
 -1       991 1.89580E+01 9.09729E-01-4.24942E-05-7.85837E-01 1.09090E-14 1.40440E-14
 -1       992 2.12748E+01-2.72445E+00 2.27225E-03-2.73310E+00 2.31759E-15-1.48915E-13
 -1       993 1.88548E+01-1.68333E+00 5.08814E-03-3.35301E+00 4.09769E-14-1.10748E-13
 -1       994 1.38927E+01 9.92835E-01-2.28764E-03-1.06419E+00-1.82771E-13 3.12137E-13
 -1       995 1.87559E+01 1.00415E+00 5.05407E-06 8.67898E-01 2.17958E-13 6.45812E-14
 -1       996 1.75575E+01-4.44935E-01 8.07771E-04-2.76593E+00-2.16920E-13-4.38679E-13
 -1       997 1.97903E+01 3.99502E-01-3.12766E-06-4.07936E-01 3.63073E-14-1.18686E-13
 -1       998 2.02242E+01 1.32770E-01-1.56420E-05-1.97601E-01-2.01066E-14-1.85992E-13
 -1       999 2.00026E+01 2.16291E-01 5.34106E-06-3.04765E-01 5.98432E-14-1.56242E-13
 -1      1000 1.92334E+01 7.90399E-01 2.72090E-05-1.06581E-01 5.31219E-13-4.57817E-13
 -1      1001 2.03563E+01 6.29295E-01 2.63184E-04 8.58075E-02 1.21442E-13-2.04003E-13
 -1      1002 1.44521E+01 8.76099E-01 7.32085E-03 1.43752E+00 8.73503E-14-1.68000E-13
 -1      1003 2.03787E+01 8.39996E-01 1.07706E-06-1.01651E-01 1.34559E-14-2.23625E-13
 -1      1004 1.52705E+01 3.39017E-01 2.60126E-02 2.65915E+00-2.06661E-13-4.85249E-13
 -1      1005 1.70864E+01-3.91637E-01 8.59070E-03 2.89118E+00 1.47777E-13 1.60609E-13
 -1      1006 2.03424E+01 3.91115E-01-6.24473E-05-3.36855E-02 1.16977E-13-1.94643E-13
 -1      1007 2.01588E+01 1.27986E-01-2.72983E-05-2.33066E-01-2.72480E-14-1.64624E-13
 -1      1008 1.93265E+01 7.19803E-01 3.36553E-04-3.38401E-01 3.19939E-13 1.02103E-13
 -1      1009 1.38045E+01 1.18036E+00 1.44887E-02-1.15758E-02-1.13353E-13-1.84837E-13
 -1      1010 2.03693E+01 1.01174E+00 4.83753E-05 7.24523E-02 1.10614E-13-2.74342E-13
 -1      1011 1.38310E+01 9.30455E-01 2.16561E-02-1.34335E+00 5.63380E-14-6.23256E-13
 -1      1012 1.91366E+01 8.65605E-01-5.15182E-04 3.61595E-01 1.50465E-13 1.96826E-13
 -1      1013 1.95190E+01 6.08376E-01-4.66150E-04-4.74822E-01 1.79915E-13-4.13378E-15
 -1      1014 1.96478E+01 5.17314E-01-7.77357E-06-4.78462E-01-3.18568E-14-3.64285E-14
 -1      1015 1.91477E+01 8.44193E-01-6.35336E-05 1.09409E-01 2.02270E-13 3.08799E-14
 -1      1016 2.03566E+01 2.63572E-01 1.51809E-05 7.30578E-02-1.20180E-13-2.08661E-13
 -1      1017 2.02955E+01 1.82150E-01-7.38912E-06 1.03815E-01-7.20906E-14-1.79980E-13
 -1      1018 2.02181E+01 1.55344E-01-6.22975E-06 1.28695E-01-8.45755E-15-1.37241E-13
 -1      1019 2.01276E+01 1.70260E-01-8.26634E-06 1.52442E-01-5.93653E-15-1.39132E-13
 -1      1020 2.00248E+01 2.16917E-01-4.01831E-05 1.79202E-01-4.49397E-14-1.51227E-13
 -1      1021 1.99081E+01 2.87914E-01-6.18897E-05 2.13226E-01 1.60904E-14-9.52903E-14
 -1      1022 1.97753E+01 3.75453E-01-6.83465E-05 2.58318E-01-2.23944E-14-2.19210E-13
 -1      1023 1.96232E+01 4.71945E-01-8.33370E-05 3.18941E-01-3.07022E-14-1.80284E-13
 -1      1024 1.94486E+01 5.68238E-01-1.04144E-04 4.00455E-01-4.32324E-14-1.17917E-13
 -1      1025 1.92490E+01 6.52594E-01-1.33287E-04 5.09838E-01-6.42571E-14-7.58940E-14
 -1      1026 1.90234E+01 7.09444E-01-1.78485E-04 6.56727E-01 4.73760E-14-3.72677E-14
 -1      1027 1.87735E+01 7.17932E-01-2.50153E-04 8.54857E-01 4.52145E-14-1.45573E-13
 -1      1028 1.85054E+01 6.50196E-01-4.10969E-04 1.12410E+00 5.63953E-14-1.37798E-13
 -1      1029 1.82374E+01 4.65250E-01-8.84942E-04 1.49390E+00 1.10686E-13-9.59918E-14
 -1      1030 1.80332E+01 1.13755E-01 5.81137E-04 1.99950E+00 2.97531E-14 4.35675E-14
 -1      1031 1.91789E+01 7.80399E-01-1.12203E-04-3.92850E-01 1.81872E-14 2.99878E-14
 -1      1032 2.03694E+01 1.04091E+00-7.14662E-07 1.35447E-04 7.21152E-14-2.62698E-13
 -1      1033 1.57179E+01 8.67921E-01 6.13566E-03-1.50068E+00-1.57908E-13 1.03909E-13
 -1      1034 1.94272E+01 6.38412E-01-7.94519E-05-3.44463E-01-7.97965E-14-4.60421E-14
 -1      1035 1.80013E+01 8.55894E-03 1.94184E-04-2.12635E+00 2.65316E-14-6.77425E-13
 -1      1036 1.82112E+01 4.11941E-01-9.25033E-04-1.58575E+00 1.31528E-13-8.19752E-13
 -1      1037 1.84756E+01 6.31399E-01-4.00878E-04-1.19117E+00-5.00196E-14-5.64276E-13
 -1      1038 1.87413E+01 7.31649E-01-7.05512E-04-9.05509E-01 1.40920E-13-2.36838E-13
 -1      1039 1.89904E+01 7.53181E-01-4.65258E-04-6.89813E-01-7.62845E-14-1.79538E-13
 -1      1040 1.92207E+01 7.20842E-01 1.80760E-04-5.31368E-01-9.20194E-14-2.33586E-13
 -1      1041 2.00857E+01 1.57960E-01-1.74210E-05-2.67035E-01 1.69730E-14-1.51079E-13
 -1      1042 1.73026E+01 1.23203E+00-8.30825E-04-6.48983E-01 1.11877E-13-2.10966E-13
 -1      1043 1.79631E+01 1.16812E+00-4.68028E-04-5.65235E-01-4.98510E-15-8.93115E-14
 -1      1044 1.54464E+01 1.16651E+00 3.55721E-03-9.51909E-01 5.98672E-15-3.99052E-13
 -1      1045 1.88672E+01 9.23522E-01-1.67961E-04-4.44992E-01 4.76415E-14 9.23398E-14
 -1      1046 2.02818E+01 1.81426E-01-1.01642E-05-1.53505E-01 4.76530E-14-2.15178E-13
 -1      1047 2.03661E+01 9.21915E-01-3.16147E-04 1.33288E-01 1.46048E-13-1.98155E-13
 -1      1048 1.75942E+01 1.22638E+00-2.70358E-04 6.16978E-01 1.16051E-13 2.12698E-13
 -1      1049 1.56870E+01 1.24650E+00 1.67784E-02 9.27668E-01-3.18543E-13-3.57822E-13
 -1      1050 1.84716E+01 1.05733E+00-2.63592E-04-5.01018E-01 1.72935E-14 3.40941E-15
 -1      1051 2.03794E+01 9.64931E-01 3.01552E-04-6.26117E-02 3.10718E-14-2.85990E-13
 -1      1052 1.68085E+01 1.24751E+00-1.79062E-04 7.18898E-01-1.54766E-13-9.29491E-14
 -1      1053 2.04085E+01 5.48244E-01-1.06616E-04 1.18137E-04 4.67970E-15-2.53102E-13
 -1      1054 1.65079E+01 1.23916E+00 2.81511E-04-7.58147E-01 1.81737E-13-3.12317E-13
 -1      1055 2.04032E+01 6.74411E-01-1.81816E-04 3.48580E-02 1.32248E-13-2.14704E-13
 -1      1056 2.03917E+01 3.80611E-01-1.08265E-04 3.96774E-02-5.87947E-14-2.16756E-13
 -1      1057 1.61130E+01 3.86526E-01 9.37249E-03 2.16488E+00 8.39179E-14 1.02725E-13
 -1      1058 2.04112E+01 7.23805E-01 3.19466E-05 1.49292E-02 9.46428E-14-2.49876E-13
 -1      1059 1.96269E+01 5.05277E-01-5.73946E-05-3.00813E-01-6.57041E-14-1.04319E-14
 -1      1060 1.99253E+01 2.87310E-01-4.56289E-06-2.30345E-01 9.33098E-14-2.39457E-14
 -1      1061 1.46188E+01 1.19746E+00 6.09089E-03 1.11882E-01 1.37662E-13-3.73830E-13
 -1      1062 1.87481E+01 1.00659E+00-9.50623E-04 3.61228E-01 5.33212E-15 2.33551E-13
 -1      1063 2.03169E+01 2.63331E-01 5.48995E-05-1.05122E-01 1.01532E-13-2.20569E-13
 -1      1064 1.81894E+01 1.14893E+00-4.39011E-04 5.33963E-01 1.84702E-13 3.10900E-13
 -1      1065 2.02961E+01 1.84476E-01-1.42456E-05-1.23718E-01 2.53286E-14-1.49656E-13
 -1      1066 1.90308E+01 8.41635E-01-7.28342E-05-2.88596E-01 1.31007E-13-2.37344E-13
 -1      1067 1.88611E+01 9.40650E-01 9.13808E-04-4.30019E-02 5.21669E-15 2.93708E-14
 -1      1068 2.02237E+01 1.53585E-01 2.86747E-05-1.53105E-01-7.45470E-14-1.14341E-13
 -1      1069 1.68839E+01 4.02166E-01-1.79097E-03-1.97723E+00-7.62383E-14 2.21772E-13
 -1      1070 1.97899E+01 3.86715E-01-3.96351E-05-2.62722E-01 5.31121E-14-2.51574E-14
 -1      1071 2.03449E+01 2.34237E-01-8.55156E-06 3.51306E-02-6.00875E-14-1.45001E-13
 -1      1072 2.02714E+01 1.78240E-01-4.65668E-05 4.68048E-02 2.81989E-14-1.10021E-13
 -1      1073 2.01805E+01 1.73347E-01-3.70255E-05 5.81273E-02-4.48302E-14-1.34642E-13
 -1      1074 2.00741E+01 2.08225E-01 1.69578E-04 7.13577E-02-6.47766E-14-1.59353E-13
 -1      1075 1.99501E+01 2.74545E-01 1.42726E-04 8.82897E-02-2.97051E-14-1.93804E-13
 -1      1076 1.98075E+01 3.63107E-01 1.02726E-04 1.11397E-01-3.32718E-14-2.20289E-13
 -1      1077 1.96416E+01 4.68376E-01 1.30957E-04 1.44596E-01 3.19704E-14-1.10989E-13
 -1      1078 1.94470E+01 5.82881E-01 1.72630E-04 1.92120E-01 1.66024E-14-5.21665E-14
 -1      1079 1.92171E+01 6.97950E-01 2.37048E-04 2.59991E-01-2.90966E-14-2.05082E-14
 -1      1080 1.89446E+01 8.02649E-01 3.31403E-04 3.56735E-01-7.60316E-15-8.85026E-14
 -1      1081 1.86204E+01 8.82939E-01 4.45604E-04 4.94635E-01-1.79338E-15-1.09064E-13
 -1      1082 1.82337E+01 9.20317E-01 3.73625E-04 6.91963E-01 1.09076E-13-5.45720E-14
 -1      1083 1.77678E+01 8.88786E-01-8.82651E-04 9.73408E-01 1.85710E-13-6.65784E-14
 -1      1084 1.72381E+01 7.62753E-01 4.46733E-04 1.36738E+00 2.04771E-13 4.24281E-15
 -1      1085 1.74464E+01 7.08232E-01-5.53077E-04-1.39330E+00-6.39421E-14-1.56613E-13
 -1      1086 2.00395E+01 2.11702E-01-9.51738E-05-2.02580E-01 3.65526E-14-5.27133E-14
 -1      1087 1.79555E+01 8.47967E-01 1.76639E-03-9.99843E-01 1.19316E-13-3.80630E-13
 -1      1088 1.83600E+01 9.06839E-01-5.42398E-04-7.20779E-01 2.07994E-13-5.21068E-13
 -1      1089 1.87151E+01 8.87510E-01 5.55989E-04-5.21988E-01-3.28840E-14-5.48842E-13
 -1      1090 1.70261E+01 1.25604E+00 2.87083E-03-4.84649E-02-2.94440E-13 2.32307E-13
 -1      1091 1.74683E+01 1.21695E+00 1.26588E-03 5.79247E-03 1.55270E-13-1.51697E-13
 -1      1092 1.57915E+01 1.05077E+00-1.12428E-03 1.01177E+00 2.50475E-13-1.28751E-13
 -1      1093 1.80774E+01 1.12410E+00-5.60729E-04-6.99944E-02 5.90464E-14-1.33785E-14
 -1      1094 2.03838E+01 3.95763E-01 5.15825E-04-4.07707E-02 1.07627E-13-2.16280E-13
 -1      1095 1.89236E+01 8.72121E-01-2.52632E-04-1.34433E-01-1.42870E-14-1.09993E-13
 -1      1096 1.85498E+01 1.00664E+00-3.87749E-04-1.13157E-01 7.54567E-14-5.63644E-14
 -1      1097 2.04211E+01 6.12060E-01 1.39220E-04-1.57276E-03 5.26078E-14-2.30347E-13
 -1      1098 2.03537E+01 2.70643E-01-2.42326E-04-8.37956E-02 4.63897E-14-2.06832E-13
 -1      1099 1.98327E+01 3.54262E-01-6.87418E-05-1.20349E-01 7.62280E-14-4.41677E-14
 -1      1100 1.92235E+01 7.31430E-01-1.70584E-04-1.40909E-01-4.14232E-14-1.47159E-13
 -1      1101 2.04105E+01 4.30377E-01-2.12678E-04 1.10000E-02-2.07434E-14-1.70219E-13
 -1      1102 2.04112E+01 4.33126E-01-1.33830E-04-1.77687E-02 8.85844E-14-1.93729E-13
 -1      1103 1.94668E+01 5.93609E-01-1.18621E-04-1.38164E-01-1.25277E-14-8.98258E-14
 -1      1104 1.99729E+01 2.63766E-01-5.62371E-05-1.09000E-01-2.50839E-14-1.52997E-13
 -1      1105 1.84498E+01 1.06692E+00-9.02154E-04-1.94225E-02 1.12728E-13 1.51868E-13
 -1      1106 1.59310E+01 1.25744E+00 7.30082E-03-3.46577E-03 2.56970E-13-2.26918E-13
 -1      1107 1.77616E+01 1.19846E+00 2.96864E-03 4.85695E-02 1.32912E-13 3.97170E-13
 -1      1108 1.62976E+01 1.23656E+00-5.36999E-03-2.71014E-01-3.81220E-13 2.02115E-13
 -1      1109 2.02825E+01 1.81946E-01-3.16784E-05-7.32416E-02-6.45910E-14-9.18439E-14
 -1      1110 1.67581E+01 1.27437E+00-2.07841E-03 1.46567E-02 2.06671E-13-2.15142E-13
 -1      1111 1.68071E+01 1.04228E+00 6.06475E-04-8.66740E-01-3.46127E-13 1.31749E-13
 -1      1112 1.96666E+01 4.65901E-01-8.47081E-05-1.30371E-01 6.20052E-15 2.88474E-14
 -1      1113 2.03525E+01 2.45942E-01 3.15155E-04-5.50970E-02-1.78899E-14-1.30216E-13
 -1      1114 2.03841E+01 3.14726E-01 1.48340E-04 2.14017E-02-6.76650E-14-1.41892E-13
 -1      1115 2.01387E+01 1.65309E-01 2.91806E-05-1.77738E-01-5.27263E-14-7.89932E-14
 -1      1116 2.02288E+01 1.74370E-01 7.83881E-05-2.76871E-02-6.11492E-14-1.70989E-13
 -1      1117 2.01266E+01 1.92152E-01-4.63640E-05-2.97326E-02-4.64059E-14-2.08386E-13
 -1      1118 1.75260E+01 1.09385E+00-8.96984E-04-5.72712E-01-6.15105E-14-1.11643E-13
 -1      1119 2.03198E+01 2.08059E-01-3.29823E-05-1.35882E-02-3.53500E-14-6.24121E-14
 -1      1120 2.03746E+01 2.82057E-01 1.50457E-04-1.26773E-02-2.98198E-14-8.72202E-14
 -1      1121 2.79402E+01 9.07914E+00 2.32345E+00-6.69551E+00-4.75175E-14 8.95978E-13
 -1      1122 2.05338E+01 6.22297E+00 2.09350E-01-3.90480E+00-2.10665E-14-1.27509E-13
 -1      1123 1.94282E+01 5.85106E+00 7.53595E-02-2.88979E+00-1.24345E-14-5.08862E-13
 -1      1124 1.90255E+01 5.72579E+00 6.04274E-02-2.23687E+00-7.32400E-15-6.65237E-13
 -1      1125 1.88441E+01 5.67055E+00 5.76946E-02-1.70310E+00-3.28904E-15-7.22039E-13
 -1      1126 1.87545E+01 5.64307E+00 5.57549E-02-1.23538E+00-9.33281E-16-7.29674E-13
 -1      1127 1.87083E+01 5.62869E+00 5.39912E-02-8.05103E-01 2.33754E-16-7.15769E-13
 -1      1128 1.86859E+01 5.62159E+00 5.27198E-02-3.93220E-01 1.71954E-15-6.80428E-13
 -1      1129 1.86796E+01 5.61957E+00 5.23145E-02 8.43102E-03 2.85666E-15-6.55572E-13
 -1      1130 1.86870E+01 5.62194E+00 5.28326E-02 4.10500E-01 5.01183E-15-6.26769E-13
 -1      1131 1.87105E+01 5.62942E+00 5.42327E-02 8.23738E-01 5.30348E-15-5.86490E-13
 -1      1132 1.87584E+01 5.64447E+00 5.64462E-02 1.25663E+00 8.66321E-15-5.22422E-13
 -1      1133 1.88497E+01 5.67251E+00 5.86364E-02 1.72891E+00 1.10675E-14-4.25082E-13
 -1      1134 1.90310E+01 5.72747E+00 6.05260E-02 2.27031E+00 1.29619E-14-2.59268E-13
 -1      1135 1.94244E+01 5.84810E+00 6.91903E-02 2.93038E+00 1.62648E-14 3.48298E-14
 -1      1136 2.04399E+01 6.17787E+00 1.52933E-01 3.87943E+00 1.64868E-14 5.54015E-13
 -1      1137 2.51954E+01 7.98732E+00 1.42890E+00 5.84461E+00 2.88103E-14 1.56630E-12
 -1      1138 2.87859E+01 3.61384E+00 1.27043E+00-4.21510E+00-1.81993E-13 1.52955E-12
 -1      1139 2.02022E+01-1.77625E-01-6.16051E-01-1.10180E-01-6.42958E-14 1.09301E-12
 -1      1140 1.88063E+01-9.64017E-02-2.36362E-01 6.23350E-02-2.02824E-14 5.41164E-13
 -1      1141 1.84709E+01-4.81766E-02-5.97007E-02 4.03259E-02-1.29545E-14 1.70586E-13
 -1      1142 1.84151E+01-2.47968E-02-1.53658E-02 2.65714E-02-1.76231E-14-7.98805E-14
 -1      1143 1.84972E+01-1.33641E-02-5.25987E-03 1.87988E-02-1.05612E-14-1.91666E-13
 -1      1144 1.86466E+01-7.08874E-03-1.94031E-03 1.38202E-02-9.86624E-16-3.18443E-13
 -1      1145 1.88250E+01-3.54444E-03-1.58942E-04 1.03716E-02-1.06432E-14-4.22599E-13
 -1      1146 1.90119E+01-1.60701E-03 8.14631E-04 7.84252E-03-1.29070E-14-5.58715E-13
 -1      1147 1.91970E+01-6.91002E-04 1.10803E-03 5.94098E-03-1.46336E-14-7.01525E-13
 -1      1148 1.93765E+01-4.65246E-04 8.38514E-04 4.52564E-03-8.04373E-15-8.63890E-13
 -1      1149 1.95518E+01-7.25858E-04 1.25199E-04 3.52903E-03 1.19515E-14-7.93379E-13
 -1      1150 1.97274E+01-1.33334E-03-9.29623E-04 2.92458E-03-2.71878E-14-8.06927E-13
 -1      1151 1.99104E+01-2.17657E-03-2.23478E-03 2.71218E-03-9.42389E-15-8.99111E-13
 -1      1152 2.01098E+01-3.14619E-03-3.69019E-03 2.91016E-03-5.60766E-15-9.36364E-13
 -1      1153 2.03355E+01-4.10943E-03-5.15764E-03 3.54704E-03-1.78351E-14-1.00019E-12
 -1      1154 2.05977E+01-4.88263E-03-6.42160E-03 4.64744E-03 7.19775E-15-9.16088E-13
 -1      1155 2.09048E+01-5.20095E-03-7.13897E-03 6.20573E-03-2.50505E-16-8.82810E-13
 -1      1156 2.12615E+01-4.68977E-03-6.78166E-03 8.13855E-03 9.88093E-15-8.99439E-13
 -1      1157 2.16646E+01-2.85207E-03-4.59183E-03 1.02061E-02-3.46666E-14-1.01228E-12
 -1      1158 2.20985E+01 8.96626E-04 3.98564E-04 1.18968E-02 2.01519E-15-1.07454E-12
 -1      1159 2.25280E+01 7.08808E-03 9.17801E-03 1.22901E-02-2.41148E-15-5.25385E-13
 -1      1160 2.28923E+01 1.58750E-02 2.22338E-02 9.96521E-03 3.36818E-15-3.67586E-13
 -1      1161 2.31018E+01 2.64548E-02 3.85542E-02 3.12428E-03-2.97644E-14-7.38200E-13
 -1      1162 2.30445E+01 3.63163E-02 5.42864E-02-9.78874E-03 6.92584E-14-7.29151E-13
 -1      1163 2.26128E+01 4.07888E-02 6.18835E-02-2.87030E-02-1.55739E-14-5.64691E-13
 -1      1164 2.17543E+01 3.38642E-02 5.16162E-02-5.00374E-02 2.47367E-14-4.38122E-13
 -1      1165 2.05391E+01 1.15656E-02 1.71603E-02-6.57243E-02 2.31759E-14-4.31793E-13
 -1      1166 1.92047E+01-2.30676E-02-3.62504E-02-6.55365E-02-6.14114E-15-3.71703E-13
 -1      1167 1.81209E+01-5.70490E-02-8.83393E-02-4.34822E-02-8.44897E-15-4.02081E-13
 -1      1168 1.76499E+01-7.32372E-02-1.13001E-01-4.41124E-03-4.36361E-14-5.87610E-13
 -1      1169 1.79634E+01-6.22494E-02-9.62403E-02 3.64693E-02 6.14257E-14-4.92422E-13
 -1      1170 1.89452E+01-3.05915E-02-4.77120E-02 6.27908E-02-1.94944E-14-6.21045E-13
 -1      1171 2.02580E+01 5.24605E-03 7.46289E-03 6.72422E-02 2.04905E-14-7.15442E-13
 -1      1172 2.15192E+01 3.06618E-02 4.67083E-02 5.39653E-02-4.49987E-15-9.36431E-13
 -1      1173 2.24575E+01 4.05589E-02 6.16594E-02 3.29565E-02 1.85993E-14-8.86805E-13
 -1      1174 2.29706E+01 3.79118E-02 5.69143E-02 1.30742E-02 2.65499E-15-8.16278E-13
 -1      1175 2.30912E+01 2.86875E-02 4.21015E-02-1.20281E-03-5.19463E-15-6.51485E-13
 -1      1176 2.29209E+01 1.79438E-02 2.54429E-02-9.24038E-03-6.91829E-15-1.43060E-13
 -1      1177 2.25736E+01 8.61590E-03 1.15060E-02-1.23998E-02-2.04165E-14 4.95524E-14
 -1      1178 2.21453E+01 1.78187E-03 1.75793E-03-1.25005E-02-6.96306E-14-2.35310E-13
 -1      1179 2.17034E+01-2.59064E-03-4.10641E-03-1.10578E-02-2.84874E-17-6.68448E-13
 -1      1180 2.12890E+01-5.01759E-03-7.07330E-03-9.07869E-03 5.58587E-14-4.98353E-13
 -1      1181 2.09232E+01-6.12552E-03-8.20853E-03-7.11970E-03-2.37808E-14-2.35301E-13
 -1      1182 2.06147E+01-6.48086E-03-8.43413E-03-5.40537E-03-8.65356E-15-3.90309E-13
 -1      1183 2.03653E+01-6.52711E-03-8.48964E-03-3.91951E-03 8.29334E-14 1.43776E-13
 -1      1184 2.01751E+01-6.56204E-03-8.86625E-03-2.41897E-03 2.28847E-14 4.78639E-13
 -1      1185 2.00464E+01-6.53076E-03-9.28034E-03-3.35778E-04 1.17223E-14 8.51438E-13
 -1      1186 1.99868E+01-6.78278E-03-6.64736E-03 3.48303E-03-1.51865E-14 3.87274E-13
 -1      1187 1.99904E+01 3.39807E-03 7.41826E-03 3.30331E-03 4.97043E-14 1.86758E-13
 -1      1188 2.77664E+01 5.25392E-01 3.76971E-01 1.96575E+00-2.55143E-14 2.37588E-12
 -1      1189 2.00595E+01-6.62114E-02-5.73418E-01 1.29572E-01 9.09342E-15 1.97362E-12
 -1      1190 1.88806E+01-4.06174E-02-1.93193E-01 1.95350E-02 1.23608E-14 1.55299E-12
 -1      1191 1.84995E+01-2.14924E-02-5.05875E-02 1.62639E-03 1.75771E-15 1.26954E-12
 -1      1192 1.84271E+01-1.25382E-02-1.35004E-02-3.83796E-03-2.09099E-15 1.15582E-12
 -1      1193 1.85026E+01-7.63655E-03-4.85843E-03-5.19877E-03 6.62957E-15 9.58185E-13
 -1      1194 1.86484E+01-4.70118E-03-2.29416E-03-5.26143E-03-2.71446E-15 8.98127E-13
 -1      1195 1.88246E+01-2.92733E-03-9.39613E-04-4.82459E-03-5.77218E-15 9.24594E-13
 -1      1196 1.90097E+01-1.92552E-03-1.45202E-04-4.13550E-03-1.27079E-14 7.74419E-13
 -1      1197 1.91933E+01-1.48478E-03 1.18311E-04-3.30386E-03 2.63739E-14 5.03344E-13
 -1      1198 1.93718E+01-1.48420E-03-1.21158E-04-2.39372E-03 9.08827E-15 2.57782E-13
 -1      1199 1.95467E+01-1.85672E-03-8.21924E-04-1.44687E-03-1.15390E-14 3.07046E-13
 -1      1200 1.97234E+01-2.57115E-03-1.96123E-03-4.93655E-04 2.02128E-15 3.91826E-13
 -1      1201 1.99105E+01-3.62013E-03-3.54627E-03 4.37733E-04 1.54175E-14 2.13121E-13
 -1      1202 2.01198E+01-5.00865E-03-5.61065E-03 1.30998E-03-5.49907E-16 8.82198E-14
 -1      1203 2.03663E+01-6.73682E-03-8.20055E-03 2.06043E-03-6.99560E-15-6.88447E-14
 -1      1204 2.06679E+01-8.76915E-03-1.13440E-02 2.57603E-03-2.71782E-14 6.14534E-14
 -1      1205 2.10456E+01-1.09774E-02-1.49851E-02 2.65465E-03-2.70660E-15 3.12386E-13
 -1      1206 2.15225E+01-1.30390E-02-1.88502E-02 1.94944E-03 3.02367E-14 1.03450E-13
 -1      1207 2.21222E+01-1.42704E-02-2.21931E-02-9.86612E-05 1.61789E-14 1.33275E-13
 -1      1208 2.28629E+01-1.33924E-02-2.33627E-02-4.30606E-03-3.81192E-14 3.95003E-13
 -1      1209 2.37474E+01-8.30343E-03-1.92059E-02-1.16604E-02 9.50661E-15 4.79401E-13
 -1      1210 2.47438E+01 3.84494E-03-4.62854E-03-2.28463E-02 2.58576E-14 2.10353E-13
 -1      1211 2.57543E+01 2.55589E-02 2.65971E-02-3.69475E-02 2.61314E-15 1.82222E-13
 -1      1212 2.65774E+01 5.58034E-02 7.75558E-02-4.90042E-02-2.28160E-15 5.01831E-13
 -1      1213 2.68854E+01 8.44181E-02 1.38358E-01-4.74700E-02 3.20056E-14 7.41459E-13
 -1      1214 2.62778E+01 8.91422E-02 1.75213E-01-1.64105E-02-1.88911E-14 1.05063E-12
 -1      1215 2.44946E+01 4.64600E-02 1.36682E-01 5.13219E-02-1.22558E-14 6.92002E-13
 -1      1216 2.17791E+01-4.12595E-02-6.58638E-03 1.30620E-01-7.63809E-14 6.58112E-13
 -1      1217 1.91148E+01-1.15525E-01-1.89806E-01 1.65230E-01 1.13711E-14 2.41598E-13
 -1      1218 1.78486E+01-1.20815E-01-2.82597E-01 1.10971E-01-1.04361E-14-2.50022E-13
 -1      1219 1.87038E+01-6.02535E-02-2.17878E-01-4.27561E-03-2.37674E-14-5.75151E-13
 -1      1220 2.11759E+01 1.01983E-02-5.56765E-02-1.04609E-01 2.72542E-14-3.77282E-13
 -1      1221 2.39697E+01 4.76160E-02 8.39588E-02-1.37762E-01-6.36301E-14 1.53072E-13
 -1      1222 2.59783E+01 5.13912E-02 1.37686E-01-1.10664E-01 4.15622E-14 3.86066E-13
 -1      1223 2.68140E+01 3.81744E-02 1.20381E-01-6.14235E-02 4.20749E-14-7.65221E-14
 -1      1224 2.66633E+01 2.20280E-02 7.49859E-02-1.87047E-02 3.35821E-14-3.52692E-13
 -1      1225 2.59172E+01 9.17964E-03 3.30036E-02 7.67135E-03 1.40278E-14-3.30361E-13
 -1      1226 2.49240E+01 9.06346E-04 5.33992E-03 1.96970E-02-5.19952E-14-2.52368E-14
 -1      1227 2.39106E+01-3.58535E-03-8.96165E-03 2.26609E-02 1.52710E-14-3.72188E-13
 -1      1228 2.29938E+01-5.54377E-03-1.44001E-02 2.10773E-02 3.68724E-14-6.57592E-13
 -1      1229 2.22175E+01-6.02653E-03-1.50602E-02 1.77915E-02-4.05348E-14-2.63272E-13
 -1      1230 2.15862E+01-5.77616E-03-1.36224E-02 1.42935E-02-5.73649E-14 5.24285E-14
 -1      1231 2.10860E+01-5.27873E-03-1.16042E-02 1.12429E-02-8.13921E-15 1.20706E-13
 -1      1232 2.06974E+01-4.85013E-03-9.83363E-03 8.85601E-03 5.48490E-14-5.14200E-13
 -1      1233 2.04024E+01-4.68512E-03-8.80271E-03 7.11132E-03 3.99884E-14-1.32423E-12
 -1      1234 2.01876E+01-4.90137E-03-8.78628E-03 5.80558E-03 2.33390E-14-1.39110E-12
 -1      1235 2.00472E+01-5.18354E-03-9.18927E-03 4.25990E-03-2.56402E-14-1.15531E-12
 -1      1236 1.99838E+01-3.30907E-03-5.95819E-03 7.45804E-04 1.60508E-13-1.44005E-12
 -1      1237 1.99907E+01 3.25490E-03 8.53057E-03-3.33858E-03 5.77112E-14-9.23896E-13
 -1      1238 2.00029E+01-9.77954E-03 7.84051E-03-3.32183E-03-1.05396E-12-1.30219E-13
 -1      1239 1.99946E+01-1.37638E-02-6.94362E-03-3.35973E-03-1.77193E-12 1.26545E-14
 -1      1240 1.99946E+01 5.32611E-02-8.51730E-03 1.89506E-03-6.55068E-13 1.77060E-13
 -1      1241 1.99971E+01 1.82103E-01-4.73571E-03 4.56047E-03 2.07332E-13 5.45879E-14
 -1      1242 2.00002E+01 3.41402E-01 9.54210E-06 5.39328E-03 7.61249E-13 1.58099E-13
 -1      1243 2.00030E+01 4.98166E-01 4.11312E-03 4.90862E-03 4.08536E-14-3.07997E-13
 -1      1244 2.00052E+01 6.27015E-01 7.04719E-03 3.65539E-03-8.95145E-13 5.02778E-14
 -1      1245 2.00064E+01 7.09298E-01 8.71915E-03 1.80878E-03-3.87564E-13 8.44320E-14
 -1      1246 2.00066E+01 7.32482E-01 9.02866E-03-2.27055E-04-6.61203E-13-1.31289E-14
 -1      1247 2.00059E+01 6.94503E-01 8.05592E-03-2.16390E-03-7.75295E-13 1.24593E-14
 -1      1248 2.00043E+01 6.01918E-01 5.94642E-03-3.74152E-03-7.43002E-13-2.52282E-13
 -1      1249 2.00022E+01 4.70103E-01 2.96588E-03-4.73656E-03-1.78869E-12-1.35009E-14
 -1      1250 1.99996E+01 3.18114E-01-6.99376E-04-4.90576E-03-1.35553E-12 1.01203E-13
 -1      1251 1.99970E+01 1.68510E-01-4.77691E-03-4.10162E-03-1.12056E-12 7.81656E-14
 -1      1252 1.99950E+01 4.79401E-02-8.34536E-03-2.06789E-03-1.32539E-12-2.75699E-14
 -1      1253 1.99939E+01-8.55853E-03-5.56723E-03 5.41474E-03-5.87336E-13-8.94627E-14
 -1      1254 2.00029E+01-9.97620E-03 6.97738E-03 3.48835E-03-9.57684E-14 3.93690E-14
 -1      1255-1.10850E+00-2.39853E+01-3.69709E+00-2.33444E+00 4.76674E-13 2.93550E-14
 -1      1256-1.86061E+00-1.59550E+01-3.18321E+00-4.40896E+00 6.65135E-13 3.11862E-13
 -1      1257 3.29309E-01-2.88554E+00-1.95314E+00-1.76181E-01 1.45839E-12 1.02962E-12
 -1      1258 9.93388E+00 7.68482E+00-3.45146E-01 8.74744E+00 1.43507E-12 1.34870E-12
 -1      1259 2.81258E+01 1.08296E+01 1.58002E+00 1.66214E+01 7.52731E-13 1.05160E-12
 -1      1260 5.01743E+01 7.45993E+00 3.34310E+00 1.69822E+01 9.84213E-14 9.23706E-14
 -1      1261 6.56918E+01 2.94686E+00 4.30947E+00 7.78427E+00 1.70627E-14-6.25167E-13
 -1      1262 6.75094E+01 2.11697E+00 4.43968E+00-5.96127E+00 1.62280E-13-1.19837E-12
 -1      1263 5.35638E+01 6.44037E+00 3.47974E+00-1.60659E+01 5.40124E-13-1.49902E-12
 -1      1264 3.26203E+01 1.05198E+01 1.95125E+00-1.74643E+01 9.73555E-13-1.58074E-12
 -1      1265 1.34807E+01 9.14163E+00 1.41038E-01-1.07626E+01 1.08336E-12-1.09024E-12
 -1      1266 1.81914E+00 4.57575E-01-1.56342E+00-1.62280E+00 1.47571E-12-9.45910E-13
 -1      1267-1.84875E+00-1.21713E+01-2.86972E+00 3.85118E+00 1.13021E-12-5.63827E-13
 -1      1268-1.35150E+00-2.25623E+01-3.65541E+00 3.38724E+00-4.67737E-13 1.41831E-14
 -1      1269-1.06050E+00-2.46107E+01-3.73004E+00-9.28748E-01-1.48470E-12-1.19904E-14
 -1      1270-1.63546E+00-1.75870E+01-3.25276E+00-3.89435E+00-2.03326E-12-6.44984E-13
 -1      1271-2.11987E-01-4.55978E+00-2.03365E+00-9.94226E-01-2.27818E-12-1.25111E-12
 -1      1272 8.54258E+00 6.97295E+00-3.39376E-01 7.62383E+00-2.06368E-12-1.84497E-12
 -1      1273 2.67432E+01 1.08961E+01 1.48590E+00 1.61973E+01-1.22502E-12-1.80855E-12
 -1      1274 4.82708E+01 7.39659E+00 3.03758E+00 1.72287E+01-5.55000E-13-1.38356E-12
 -1      1275 6.32908E+01 2.76485E+00 3.96996E+00 8.54877E+00-2.43236E-13-1.01008E-12
 -1      1276 6.51880E+01 2.20165E+00 4.06732E+00-4.88653E+00 7.60156E-15-2.10332E-13
 -1      1277 5.35843E+01 6.02642E+00 3.41680E+00-1.54741E+01-3.14748E-14 1.21014E-13
 -1      1278 3.43954E+01 1.04257E+01 2.09676E+00-1.79004E+01-3.08420E-13 5.00266E-13
 -1      1279 1.58123E+01 1.03196E+01 5.08746E-01-1.23948E+01-9.67892E-13 1.04938E-12
 -1      1280 3.86441E+00 3.83322E+00-9.93109E-01-4.03471E+00-1.60916E-12 1.19305E-12
 -1      1281-1.25998E+00-6.66183E+00-2.32959E+00 2.25790E+00-1.76770E-12 9.43245E-13
 -1      1282-1.67688E+00-1.73428E+01-3.15977E+00 4.05607E+00-8.39440E-13 4.04204E-13
 -1      1283-9.45084E-01-2.42334E+01-3.68932E+00 2.09683E+00 1.98175E-14 9.74776E-14
 -1      1284 2.22454E+01 1.83710E+00-7.25506E-01-2.79048E+00-7.01106E-14 6.39044E-13
 -1      1285 2.03474E+01 4.68814E+00-4.85699E-02-3.30789E+00-1.50518E-13-3.12500E-13
 -1      1286 2.08510E+01 4.80765E+00-1.13469E-01-4.16133E+00-2.05752E-13-1.09114E-13
 -1      1287 1.95269E+01 4.99233E+00-1.95177E-02-2.65599E+00-1.34427E-13-5.82416E-13
 -1      1288 1.98214E+01 5.08824E+00 2.37634E-04-3.04679E+00-1.56701E-13-4.74371E-13
 -1      1289 2.05153E+01 3.95146E+00-2.58914E-02-3.07551E+00-2.56749E-13-2.77903E-13
 -1      1290 1.91852E+01 5.08438E+00-3.57341E-03-2.07163E+00-8.73433E-14-6.94854E-13
 -1      1291 1.93316E+01 5.13880E+00 1.06246E-02-2.36483E+00-1.07025E-13-6.44942E-13
 -1      1292 1.97508E+01 4.36548E+00-2.42158E-02-2.49033E+00-2.01708E-13-4.96388E-13
 -1      1293 1.90147E+01 5.13234E+00 3.32855E-03-1.56580E+00-5.50567E-14-7.31675E-13
 -1      1294 1.90900E+01 5.16158E+00 1.26132E-02-1.81587E+00-6.37788E-14-7.20177E-13
 -1      1295 1.93949E+01 4.55623E+00-1.95286E-02-1.93181E+00-1.28520E-13-5.94490E-13
 -1      1296 1.89250E+01 5.16313E+00 6.64940E-03-1.11773E+00-1.39949E-14-7.32029E-13
 -1      1297 1.89657E+01 5.17894E+00 1.27821E-02-1.33936E+00-2.90835E-14-7.29920E-13
 -1      1298 1.92127E+01 4.66318E+00-1.60088E-02-1.44531E+00-7.57671E-14-6.22748E-13
 -1      1299 1.88760E+01 5.18376E+00 8.25073E-03-6.94174E-01 2.66020E-15-7.07335E-13
 -1      1300 1.88979E+01 5.19230E+00 1.20944E-02-9.04507E-01-3.54144E-15-7.25895E-13
 -1      1301 1.91132E+01 4.72962E+00-1.38892E-02-1.00441E+00-1.82135E-14-6.24934E-13
 -1      1302 1.88534E+01 5.19617E+00 9.33657E-03-2.89324E-01 4.40021E-14-6.83634E-13
 -1      1303 1.88627E+01 5.19984E+00 1.11297E-02-4.91509E-01 2.93411E-14-6.92184E-13
 -1      1304 1.90595E+01 4.76943E+00-1.28343E-02-5.88815E-01 2.49177E-14-5.94528E-13
 -1      1305 1.88500E+01 5.20123E+00 1.02723E-02 1.08194E-01 6.30325E-14-6.53326E-13
 -1      1306 1.88496E+01 5.20109E+00 1.01985E-02-9.15316E-02 5.47401E-14-6.73449E-13
 -1      1307 1.90364E+01 4.78787E+00-1.23945E-02-1.89136E-01 7.98892E-14-5.77233E-13
 -1      1308 1.88645E+01 5.19947E+00 1.12191E-02 5.08776E-01 9.10127E-14-6.23153E-13
 -1      1309 1.88544E+01 5.19552E+00 9.27037E-03 3.06161E-01 8.29131E-14-6.39601E-13
 -1      1310 1.90373E+01 4.78722E+00-1.24152E-02 2.05704E-01 1.17365E-13-5.50934E-13
 -1      1311 1.89012E+01 5.19114E+00 1.21612E-02 9.23282E-01 1.09654E-13-5.80203E-13
 -1      1312 1.88785E+01 5.18243E+00 8.18117E-03 7.11981E-01 1.04496E-13-6.09011E-13
 -1      1313 1.90622E+01 4.76733E+00-1.29042E-02 6.06104E-01 1.64864E-13-5.15522E-13
 -1      1314 1.89701E+01 5.17717E+00 1.29675E-02 1.35683E+00 1.36938E-13-5.11256E-13
 -1      1315 1.89285E+01 5.16091E+00 6.50300E-03 1.13378E+00 1.30484E-13-5.51221E-13
 -1      1316 1.91175E+01 4.72608E+00-1.39326E-02 1.01954E+00 1.95666E-13-4.68958E-13
 -1      1317 1.90985E+01 5.15744E+00 1.28810E-02 1.84187E+00 1.70407E-13-4.06286E-13
 -1      1318 1.90213E+01 5.12778E+00 3.20871E-03 1.58891E+00 1.57556E-13-4.69460E-13
 -1      1319 1.92197E+01 4.65660E+00-1.60882E-02 1.46289E+00 2.41470E-13-3.96492E-13
 -1      1320 1.93417E+01 5.13277E+00 1.01951E-02 2.39921E+00 1.94230E-13-2.17840E-13
 -1      1321 1.91945E+01 5.07651E+00-4.29990E-03 2.10187E+00 1.77466E-13-3.29986E-13
 -1      1322 1.94077E+01 4.54294E+00-1.99407E-02 1.95886E+00 2.78434E-13-2.76407E-13
 -1      1323 1.98466E+01 5.09729E+00 6.00889E-03 3.08516E+00 2.13524E-13 9.72972E-14
 -1      1324 1.95381E+01 4.98330E+00-2.04611E-02 2.69798E+00 1.90230E-13-8.87970E-14
 -1      1325 1.97710E+01 4.34578E+00-2.45313E-02 2.52887E+00 3.06581E-13-7.02771E-14
 -1      1326 2.10870E+01 4.90394E+00 8.18010E-03 4.05417E+00 1.70919E-13 6.43444E-13
 -1      1327 2.03218E+01 4.73170E+00-4.79146E-02 3.41733E+00 1.73056E-13 3.11348E-13
 -1      1328 2.05535E+01 3.91451E+00-2.24224E-02 3.17907E+00 3.12365E-13 2.68396E-13
 -1      1329 2.71779E+01 3.20309E+00 9.28270E-01 4.58079E+00 7.26641E-14 1.62786E-12
 -1      1330 2.20007E+01 3.52020E+00-1.81885E-01 3.88491E+00 7.98805E-14 9.51877E-13
 -1      1331 2.20939E+01 2.56065E+00-3.26584E-02 3.45690E+00 2.73350E-13 7.64833E-13
 -1      1332 2.14037E+01 3.59648E-01-7.63199E-01 1.18453E+00 1.36363E-13 1.58307E-12
 -1      1333 2.19782E+01 1.31447E-01-4.00732E-01-1.28612E+00-1.80189E-13 7.12624E-13
 -1      1334 2.06550E+01 3.06698E-01-1.64788E-01-8.06221E-01-1.60975E-13 4.86049E-13
 -1      1335 2.00573E+01 1.53487E-01-7.35183E-02-4.02630E-01-1.24969E-13 4.09785E-13
 -1      1336 1.95868E+01 9.12582E-02-1.49315E-02-3.30446E-01-1.10120E-13 2.21427E-13
 -1      1337 2.09525E+01 3.69198E-01-1.04218E-01-1.27471E+00-2.75321E-13 1.54671E-13
 -1      1338 1.92295E+01 6.45896E-02 3.03571E-03-1.35649E-01-9.45060E-14 1.53946E-13
 -1      1339 1.90747E+01 4.14050E-02 1.32231E-02-1.17795E-01-9.69450E-14 4.51722E-15
 -1      1340 1.99018E+01 1.33935E-01-3.52231E-02-5.04617E-01-2.12212E-13 5.22048E-14
 -1      1341 1.89149E+01 3.16749E-02 1.32666E-02-2.79366E-02-6.69573E-14-5.06296E-14
 -1      1342 1.88954E+01 1.96140E-02 1.11000E-02-1.84787E-02-6.07899E-14-1.38453E-13
 -1      1343 1.94252E+01 5.56739E-02-8.58507E-03-1.70011E-01-1.59102E-13-7.35696E-14
 -1      1344 1.88405E+01 1.62912E-02 8.83180E-03 2.57623E-02-4.83572E-14-1.50843E-13
 -1      1345 1.88837E+01 9.47620E-03 6.50937E-03 3.05512E-02-4.52971E-14-2.13978E-13
 -1      1346 1.92180E+01 2.47506E-02-3.60877E-03-1.00696E-02-1.02803E-13-1.39506E-13
 -1      1347 1.88861E+01 8.32669E-03 4.75247E-03 5.27234E-02-4.60756E-14-2.39099E-13
 -1      1348 1.89587E+01 4.12751E-03 3.74390E-03 5.48760E-02-3.23642E-14-2.93345E-13
 -1      1349 1.91647E+01 1.08339E-02-2.36449E-03 7.05657E-02-9.73648E-14-1.80661E-13
 -1      1350 1.89923E+01 3.91745E-03 2.54326E-03 6.52295E-02-3.21441E-14-3.11140E-13
 -1      1351 1.90773E+01 1.25430E-03 2.34521E-03 6.58997E-02-4.15404E-14-3.66622E-13
 -1      1352 1.91972E+01 3.79623E-03-1.54035E-03 1.10502E-01-6.72541E-14-2.43926E-13
 -1      1353 1.91276E+01 1.51991E-03 1.45217E-03 6.98737E-02-4.19481E-14-3.68892E-13
 -1      1354 1.92163E+01-1.47953E-04 1.61023E-03 6.97814E-02-5.55066E-14-4.15686E-13
 -1      1355 1.92770E+01 2.28219E-04-8.72648E-04 1.28419E-01-7.61262E-14-2.66480E-13
 -1      1356 1.92752E+01 3.89815E-04 8.84646E-04 7.06424E-02-6.08972E-14-4.51233E-13
 -1      1357 1.93634E+01-5.89472E-04 1.18284E-03 7.02771E-02-5.61840E-14-5.32501E-13
 -1      1358 1.93821E+01-1.29655E-03-4.39503E-04 1.34767E-01-8.34087E-14-3.09017E-13
 -1      1359 1.94269E+01 1.21811E-04 5.61243E-04 7.01706E-02-5.63009E-14-5.48256E-13
 -1      1360 1.95136E+01-3.64452E-04 9.15641E-04 6.98825E-02-1.85413E-14-5.89934E-13
 -1      1361 1.95006E+01-1.48134E-03-2.46116E-04 1.36076E-01-7.66770E-14-3.40656E-13
 -1      1362 1.95803E+01 4.72025E-04 3.61405E-04 7.03048E-02 2.52361E-14-6.30907E-13
 -1      1363 1.96667E+01 3.38595E-04 7.43729E-04 7.03537E-02-6.74833E-15-6.26878E-13
 -1      1364 1.96272E+01-7.23560E-04-2.52111E-04 1.36754E-01-1.30097E-14-3.92775E-13
 -1      1365 1.97371E+01 1.27870E-03 2.26058E-04 7.23835E-02-3.22675E-14-6.32852E-13
 -1      1366 1.98259E+01 1.38377E-03 6.30375E-04 7.29640E-02-5.34561E-14-6.87782E-13
 -1      1367 1.97608E+01 7.24437E-04-4.11309E-04 1.39923E-01-2.55839E-14-5.32795E-13
 -1      1368 1.99017E+01 2.41828E-03 1.18414E-04 7.73726E-02-9.70231E-15-6.73437E-13
 -1      1369 1.99966E+01 2.65373E-03 5.47582E-04 7.86266E-02-1.19025E-14-6.71665E-13
 -1      1370 1.99035E+01 2.67649E-03-6.83423E-04 1.47829E-01-3.75021E-14-5.09500E-13
 -1      1371 2.00804E+01 3.77313E-03 1.01905E-05 8.59089E-02-1.61014E-14-6.65939E-13
 -1      1372 2.01860E+01 4.02019E-03 4.69209E-04 8.79225E-02-3.12607E-14-7.07772E-13
 -1      1373 2.00596E+01 4.95971E-03-1.03200E-03 1.62013E-01-3.45441E-14-4.79493E-13
 -1      1374 2.02809E+01 5.19987E-03-1.22567E-04 9.82571E-02-5.12426E-14-6.80546E-13
 -1      1375 2.04018E+01 5.31182E-03 3.68704E-04 1.01043E-01-2.58588E-14-6.84192E-13
 -1      1376 2.02346E+01 7.36416E-03-1.41777E-03 1.83306E-01-5.75711E-14-4.53091E-13
 -1      1377 2.05108E+01 6.49253E-03-2.98922E-04 1.14174E-01 1.80454E-14-6.83445E-13
 -1      1378 2.06514E+01 6.27627E-03 2.20118E-04 1.17634E-01 1.28435E-14-6.44988E-13
 -1      1379 2.04343E+01 9.58383E-03-1.78988E-03 2.11639E-01 7.38125E-15-4.49526E-13
 -1      1380 2.07768E+01 7.33747E-03-5.27795E-04 1.32664E-01 4.59658E-15-6.27807E-13
 -1      1381 2.09400E+01 6.53638E-03 3.76393E-06 1.36525E-01 1.62571E-14-6.29464E-13
 -1      1382 2.06642E+01 1.11435E-02-2.07507E-03 2.45668E-01 4.15297E-14-4.54001E-13
 -1      1383 2.10825E+01 7.26281E-03-7.96235E-04 1.51604E-01-1.48442E-14-6.70525E-13
 -1      1384 2.12683E+01 5.54861E-03-2.80886E-04 1.55326E-01-1.76298E-14-7.07735E-13
 -1      1385 2.09273E+01 1.13136E-02-2.16456E-03 2.82151E-01-2.29365E-14-4.49194E-13
 -1      1386 2.14260E+01 5.59560E-03-1.04944E-03 1.67256E-01-4.34241E-14-7.48099E-13
 -1      1387 2.16294E+01 2.58763E-03-5.93129E-04 1.69918E-01-6.64784E-14-7.66788E-13
 -1      1388 2.12228E+01 9.03277E-03-1.90015E-03 3.15118E-01-6.92266E-14-5.20368E-13
 -1      1389 2.17958E+01 1.46409E-03-1.16440E-03 1.73763E-01 1.00603E-14-7.80990E-13
 -1      1390 2.20040E+01-3.18931E-03-8.22747E-04 1.73944E-01 1.65890E-14-6.97489E-13
 -1      1391 2.15427E+01 2.89601E-03-1.06566E-03 3.34921E-01-2.90993E-14-4.34192E-13
 -1      1392 2.21666E+01-6.07712E-03-9.29442E-04 1.62865E-01 1.16775E-13-6.07982E-13
 -1      1393 2.23562E+01-1.25015E-02-7.71683E-04 1.58604E-01 9.97633E-14-4.04278E-13
 -1      1394 2.18695E+01-8.66975E-03 6.00913E-04 3.27541E-01 1.31670E-13-4.75797E-13
 -1      1395 2.24950E+01-1.76699E-02-6.31622E-05 1.24409E-01-2.23866E-14-3.79833E-13
 -1      1396 2.26299E+01-2.53962E-02-1.83512E-04 1.13402E-01-4.93082E-14-4.31804E-13
 -1      1397 2.21719E+01-2.68324E-02 3.34317E-03 2.74961E-01 5.01847E-14-4.11360E-13
 -1      1398 2.27172E+01-3.28729E-02 1.67089E-03 4.85404E-02-4.13944E-14-3.97282E-13
 -1      1399 2.27499E+01-4.03058E-02 1.12263E-03 2.88240E-02-1.96375E-14-4.79450E-13
 -1      1400 2.24039E+01-5.11356E-02 7.22276E-03 1.58054E-01-3.95608E-14-2.55959E-13
 -1      1401 2.27528E+01-4.89651E-02 4.20185E-03-6.93347E-02 5.86232E-14-4.50529E-13
 -1      1402 2.26326E+01-5.29157E-02 2.98746E-03-9.79433E-02 4.62512E-14-4.15288E-13
 -1      1403 2.25061E+01-7.75843E-02 1.18174E-02-3.61248E-02-3.67935E-15-1.09438E-13
 -1      1404 2.25212E+01-5.98130E-02 6.80234E-03-2.20570E-01 3.36614E-14-5.06636E-13
 -1      1405 2.22125E+01-5.57337E-02 4.59159E-03-2.54339E-01 1.74583E-14-3.62675E-13
 -1      1406 2.24154E+01-9.67793E-02 1.58274E-02-3.01460E-01 4.08857E-14-3.17746E-13
 -1      1407 2.19733E+01-5.63146E-02 7.90359E-03-3.74876E-01 3.59860E-14-3.80553E-13
 -1      1408 2.14827E+01-4.01506E-02 4.46894E-03-4.04464E-01 6.25420E-14-3.20140E-13
 -1      1409 2.20858E+01-9.43039E-02 1.68634E-02-5.96911E-01 5.64757E-14-2.40887E-13
 -1      1410 2.11372E+01-3.04104E-02 5.74547E-03-4.79072E-01 4.83077E-14-3.82406E-13
 -1      1411 2.05383E+01-2.25263E-03 1.27033E-03-4.90685E-01-2.36050E-14-3.57409E-13
 -1      1412 2.15204E+01-5.67037E-02 1.20267E-02-8.38080E-01 4.53652E-14-3.11837E-13
 -1      1413 2.01552E+01 1.71166E-02-1.69048E-04-4.72976E-01 1.33192E-14-3.55153E-13
 -1      1414 1.95898E+01 4.97355E-02-4.65863E-03-4.54705E-01 1.73039E-15-3.69652E-13
 -1      1415 2.08042E+01 1.70622E-02 4.27025E-05-9.13790E-01 1.41499E-14-3.61164E-13
 -1      1416 1.92767E+01 7.06217E-02-7.45308E-03-3.24229E-01-6.40286E-14-3.53613E-13
 -1      1417 1.89141E+01 9.40617E-02-1.04791E-02-2.75582E-01-5.76579E-14-4.56430E-13
 -1      1418 2.01121E+01 1.05265E-01-1.60914E-02-7.38496E-01-6.85754E-14-3.11123E-13
 -1      1419 1.87774E+01 1.04352E-01-1.20542E-02-6.21317E-02-8.83217E-14-3.50470E-13
 -1      1420 1.87407E+01 1.06786E-01-1.23446E-02 1.16127E-03-5.17884E-14-3.86668E-13
 -1      1421 1.96616E+01 1.69445E-01-2.84282E-02-3.20206E-01-3.15269E-14-2.51466E-13
 -1      1422 1.88314E+01 9.98006E-02-1.11709E-02 2.23283E-01-2.77434E-14-3.78069E-13
 -1      1423 1.91333E+01 7.99277E-02-8.58361E-03 2.76655E-01 3.57570E-14-3.17014E-13
 -1      1424 1.96155E+01 1.76181E-01-2.95961E-02 2.12752E-01-3.39919E-14-2.08236E-13
 -1      1425 1.94169E+01 6.02539E-02-5.81874E-03 4.28206E-01 1.89185E-14-4.86410E-13
 -1      1426 1.99529E+01 2.83236E-02-1.52212E-03 4.53161E-01-8.14184E-14-5.16337E-13
 -1      1427 1.99908E+01 1.21735E-01-1.89373E-02 6.68185E-01-7.62159E-14-3.57815E-13
 -1      1428 2.03301E+01 7.72854E-03 3.27571E-04 4.93577E-01-8.38787E-14-5.03063E-13
 -1      1429 2.09340E+01-2.22324E-02 4.87326E-03 4.87311E-01 1.81951E-15-6.30510E-13
 -1      1430 2.06489E+01 3.49461E-02-2.95484E-03 8.97617E-01-1.21151E-13-3.80147E-13
 -1      1431 2.12931E+01-3.42676E-02 4.13476E-03 4.28004E-01-6.19296E-15-5.58366E-13
 -1      1432 2.18125E+01-5.31027E-02 7.79493E-03 4.00839E-01-5.33124E-15-6.66814E-13
 -1      1433 2.13745E+01-4.43327E-02 1.02299E-02 8.68082E-01-2.66475E-14-4.38349E-13
 -1      1434 2.20751E+01-5.43958E-02 4.78335E-03 2.85494E-01 7.97661E-14-6.35034E-13
 -1      1435 2.24213E+01-6.06697E-02 7.22527E-03 2.51576E-01 5.72858E-14-5.70547E-13
 -1      1436 2.19780E+01-8.99507E-02 1.64862E-02 6.51042E-01 5.44382E-14-3.62022E-13
 -1      1437 2.25570E+01-5.46788E-02 3.39782E-03 1.26371E-01 4.68488E-14-5.52863E-13
 -1      1438 2.27113E+01-5.19507E-02 4.77491E-03 9.61850E-02 9.65721E-15-4.95061E-13
 -1      1439 2.23553E+01-9.87297E-02 1.64001E-02 3.57983E-01 8.86600E-14-3.77436E-13
 -1      1440 2.27278E+01-4.33609E-02 1.49944E-03-8.37339E-03 1.00055E-14-5.65361E-13
 -1      1441 2.27197E+01-3.62870E-02 2.15222E-03-3.00312E-02 3.62505E-14-4.95284E-13
 -1      1442 2.24887E+01-8.26700E-02 1.27625E-02 8.13133E-02 5.80872E-15-4.16116E-13
 -1      1443 2.26450E+01-2.84347E-02 6.07875E-05-1.01864E-01 1.10826E-13-3.03740E-13
 -1      1444 2.25239E+01-2.05330E-02 2.45435E-04-1.14551E-01 1.10184E-13-1.64311E-13
 -1      1445 2.24173E+01-5.67120E-02 8.13734E-03-1.29157E-01 1.25575E-13-4.86712E-13
 -1      1446 2.23913E+01-1.48677E-02-6.51405E-04-1.54467E-01-4.45663E-14-1.47340E-13
 -1      1447 2.22066E+01-8.02523E-03-7.67037E-04-1.59910E-01-1.16615E-13-2.25501E-13
 -1      1448 2.22031E+01-3.14130E-02 4.03724E-03-2.61311E-01 7.32895E-14-2.25453E-13
 -1      1449 2.20454E+01-4.68857E-03-7.72449E-04-1.74792E-01-9.57631E-14-2.95639E-13
 -1      1450 2.18360E+01 4.51971E-04-1.08292E-03-1.75282E-01-1.50265E-13-4.83501E-13
 -1      1451 2.19076E+01-1.17310E-02 1.02933E-03-3.25232E-01-1.34756E-13-2.71001E-13
 -1      1452 2.16683E+01 1.93217E-03-5.58587E-04-1.73283E-01-6.75472E-14-4.63374E-13
 -1      1453 2.14608E+01 5.42659E-03-9.87354E-04-1.70840E-01 8.78307E-15-5.01971E-13
 -1      1454 2.15805E+01 1.36011E-03-8.83501E-04-3.39285E-01-1.70356E-13-2.26289E-13
 -1      1455 2.13011E+01 5.67083E-03-2.27059E-04-1.58944E-01 1.63250E-13-4.55356E-13
 -1      1456 2.11110E+01 7.86598E-03-7.12133E-04-1.55044E-01 1.67645E-13-2.89361E-13
 -1      1457 2.12570E+01 8.87853E-03-1.93258E-03-3.21654E-01 1.42255E-13-2.32305E-13
 -1      1458 2.09677E+01 7.42585E-03 8.62405E-05-1.38263E-01 2.60478E-14-1.88878E-13
 -1      1459 2.08026E+01 8.73233E-03-4.07989E-04-1.33834E-01 1.40932E-14-2.31572E-13
 -1      1460 2.09587E+01 1.24674E-02-2.39494E-03-2.86639E-01 1.30439E-13-1.33032E-13
 -1      1461 2.06797E+01 8.03684E-03 3.05673E-04-1.15227E-01 8.46725E-14-1.85455E-13
 -1      1462 2.05427E+01 8.82378E-03-1.76624E-04-1.10738E-01 1.76906E-13-6.82635E-14
 -1      1463 2.06971E+01 1.37257E-02-2.51552E-03-2.43826E-01 3.70886E-14 1.46985E-13
 -1      1464 2.04417E+01 8.18508E-03 3.66059E-04-9.17411E-02 3.07745E-13 1.51983E-14
 -1      1465 2.03334E+01 8.74571E-03-1.04220E-04-8.73125E-02 2.52397E-13 3.98270E-13
 -1      1466 2.04773E+01 1.39672E-02-2.49610E-03-1.98542E-01 3.87408E-13 2.76205E-13
 -1      1467 2.02546E+01 8.40636E-03 1.86778E-04-6.81221E-02 1.44122E-13 4.01358E-13
 -1      1468 2.01756E+01 8.90310E-03-2.48445E-04-6.35813E-02 1.44789E-13 5.50402E-13
 -1      1469 2.03006E+01 1.42667E-02-2.47633E-03-1.52750E-01 2.74625E-13 2.91081E-13
 -1      1470 2.01184E+01 8.94410E-03-2.52984E-04-4.37533E-02-2.61826E-14 5.34074E-13
 -1      1471 2.00702E+01 9.23774E-03-3.68476E-04-3.87367E-02-4.36389E-14 5.36609E-13
 -1      1472 2.01667E+01 1.52776E-02-2.46359E-03-1.06065E-01 1.16938E-14 4.10060E-13
 -1      1473 2.00331E+01 1.04070E-02-2.69252E-04-1.81225E-02-1.04122E-13 4.59718E-13
 -1      1474 2.00165E+01 8.25196E-03 8.13423E-04-1.26312E-02-1.50861E-13 2.63903E-13
 -1      1475 2.00736E+01 1.68728E-02-2.19602E-03-5.82117E-02-1.07991E-13 4.71323E-13
 -1      1476 1.99965E+01-3.35069E-05 2.37328E-03 4.16538E-03-2.71734E-13 1.87745E-13
 -1      1477 2.00144E+01 9.08217E-03-2.89876E-04-1.01749E-02-2.95162E-13 2.28048E-13
 -1      1478 2.02351E+01 7.54946E-02-1.52083E-01 4.84396E-01 1.37248E-13 1.28802E-12
 -1      1479 2.15060E+01 2.16037E-01-2.29259E-01 7.21362E-01 1.16324E-13 1.48584E-12
 -1      1480 2.17074E+01 8.81614E-01-8.53841E-02 2.06538E+00 2.24515E-13 1.00785E-12
 -1      1481 1.93058E+01 3.24066E-02-2.13357E-02 1.86502E-01 1.02602E-13 1.01103E-12
 -1      1482 1.97273E+01 1.13596E-01-6.26975E-02 2.38499E-01 9.78523E-14 1.18067E-12
 -1      1483 2.02819E+01 1.87718E-01-5.51596E-02 7.87005E-01 2.07320E-13 8.01512E-13
 -1      1484 1.89234E+01 1.51826E-02 5.66129E-03 5.38416E-02 3.77181E-14 8.58421E-13
 -1      1485 1.90626E+01 5.16610E-02 9.81918E-04 8.01568E-02 4.82513E-14 9.29527E-13
 -1      1486 1.95366E+01 7.18872E-02-1.21579E-02 2.99651E-01 1.37562E-13 6.34274E-13
 -1      1487 1.88131E+01 7.24775E-03 6.97164E-03-9.06015E-03 5.78274E-14 7.39039E-13
 -1      1488 1.88279E+01 2.59776E-02 1.11114E-02 5.38126E-03 3.64622E-14 8.08246E-13
 -1      1489 1.92018E+01 3.12226E-02-2.46151E-03 8.35715E-02 8.07939E-14 4.98426E-13
 -1      1490 1.88409E+01 3.42660E-03 4.76011E-03-4.00215E-02 2.79295E-14 6.38522E-13
 -1      1491 1.87966E+01 1.40452E-02 8.55869E-03-3.17948E-02 4.58459E-14 6.98103E-13
 -1      1492 1.90870E+01 1.35861E-02-1.63891E-03-2.24917E-02 8.57786E-14 4.56703E-13
 -1      1493 1.89396E+01 1.39797E-03 3.24895E-03-5.46298E-02 8.11113E-15 6.29790E-13
 -1      1494 1.88672E+01 7.69267E-03 5.41742E-03-4.99433E-02-4.22589E-15 6.29132E-13
 -1      1495 1.90923E+01 5.08321E-03-1.69216E-03-7.58176E-02 1.41341E-14 4.10358E-13
 -1      1496 1.90726E+01 3.27289E-04 2.43790E-03-6.04082E-02 4.99112E-14 5.67117E-13
 -1      1497 1.89885E+01 4.10913E-03 3.50054E-03-5.78256E-02 3.86817E-14 6.07612E-13
 -1      1498 1.91624E+01 7.36069E-04-1.48978E-03-1.01364E-01 4.84966E-14 3.76043E-13
 -1      1499 1.92204E+01-1.40374E-04 1.93221E-03-6.16281E-02 7.19016E-14 4.14886E-13
 -1      1500 1.91330E+01 2.12537E-03 2.42486E-03-6.02463E-02 3.99947E-14 4.97554E-13
 -1      1501 1.92669E+01-1.36315E-03-1.19164E-03-1.11933E-01 9.03745E-14 2.87199E-13
 -1      1502 1.93732E+01-1.83956E-04 1.53227E-03-6.10253E-02 9.32463E-14 2.26697E-13
 -1      1503 1.92863E+01 1.19171E-03 1.78010E-03-6.02179E-02 9.89587E-14 3.75541E-13
 -1      1504 1.93888E+01-2.07255E-03-9.60955E-04-1.15034E-01 1.53603E-13 1.73230E-13
 -1      1505 1.95279E+01 9.63156E-05 1.16747E-03-6.05224E-02-1.72185E-15 2.01066E-13
 -1      1506 1.94423E+01 1.01939E-03 1.36240E-03-5.98180E-02 1.19500E-15 2.16516E-13
 -1      1507 1.95200E+01-1.83396E-03-8.53717E-04-1.15582E-01 7.30299E-14 1.23162E-13
 -1      1508 1.96860E+01 6.44707E-04 8.14102E-04-6.15862E-02-1.29219E-14 2.25443E-13
 -1      1509 1.96003E+01 1.44939E-03 1.08380E-03-6.05991E-02-1.23933E-14 2.07033E-13
 -1      1510 1.96579E+01-8.92707E-04-8.80248E-04-1.17095E-01-2.80082E-14 1.24251E-13
 -1      1511 1.98529E+01 1.43448E-03 4.59679E-04-6.54360E-02 6.76562E-14 1.66208E-13
 -1      1512 1.97636E+01 2.39940E-03 9.03049E-04-6.38206E-02 3.48991E-14 2.06200E-13
 -1      1513 1.98043E+01 6.16669E-04-1.04311E-03-1.22315E-01 2.81659E-14 6.35179E-14
 -1      1514 2.00369E+01 2.45786E-03 9.14495E-05-7.31748E-02 1.80126E-14 4.94051E-14
 -1      1515 1.99391E+01 3.83743E-03 7.95670E-04-7.05934E-02 3.02550E-14 1.08407E-13
 -1      1516 1.99642E+01 2.62948E-03-1.34986E-03-1.33564E-01 9.08116E-14 3.58120E-14
 -1      1517 2.02493E+01 3.71644E-03-3.07003E-04-8.58690E-02 2.69880E-14-3.15191E-14
 -1      1518 2.01365E+01 5.76367E-03 7.41977E-04-8.19686E-02 5.65060E-14 7.92428E-14
 -1      1519 2.01454E+01 5.12475E-03-1.81559E-03-1.52963E-01 3.83359E-14-3.64934E-14
 -1      1520 2.05041E+01 5.20697E-03-7.56564E-04-1.04575E-01-7.58508E-14 3.86707E-14
 -1      1521 2.03683E+01 8.19055E-03 7.20786E-04-9.89752E-02-2.01035E-14-1.55934E-14
 -1      1522 2.03583E+01 8.10025E-03-2.46162E-03-1.82551E-01 1.08325E-14 1.70688E-14
 -1      1523 2.08177E+01 6.89586E-03-1.28033E-03-1.30287E-01-7.40187E-14 1.45428E-13
 -1      1524 2.06496E+01 1.11099E-02 7.04020E-04-1.22585E-01-8.10385E-14 1.22090E-14
 -1      1525 2.06153E+01 1.15355E-02-3.31050E-03-2.24259E-01-9.21860E-14 1.03792E-13
 -1      1526 2.12086E+01 8.67173E-03-1.89377E-03-1.63731E-01 6.70928E-14 1.43214E-13
 -1      1527 2.09975E+01 1.44313E-02 6.51784E-04-1.53551E-01 1.80069E-14 1.53379E-13
 -1      1528 2.09307E+01 1.53249E-02-4.37342E-03-2.79692E-01-9.94539E-15 3.44091E-14
 -1      1529 2.16959E+01 1.02598E-02-2.57597E-03-2.04906E-01-6.53839E-15 1.61104E-14
 -1      1530 2.14307E+01 1.78664E-02 5.11081E-04-1.92020E-01 6.34844E-14 1.06337E-13
 -1      1531 2.13195E+01 1.91527E-02-5.62130E-03-3.49535E-01 1.05796E-13 6.32389E-14
 -1      1532 2.22956E+01 1.10778E-02-3.19982E-03-2.52143E-01-7.64248E-14 1.84162E-13
 -1      1533 2.19666E+01 2.07221E-02 2.28342E-04-2.36743E-01-7.70289E-14 7.64944E-14
 -1      1534 2.17955E+01 2.22668E-02-6.92392E-03-4.32308E-01-8.45053E-14 9.39895E-14
 -1      1535 2.30143E+01 1.00221E-02-3.38846E-03-3.00423E-01-7.80691E-14 3.11480E-13
 -1      1536 2.26172E+01 2.15668E-02-2.02193E-04-2.83651E-01-6.58557E-14 2.37303E-13
 -1      1537 2.23674E+01 2.31016E-02-7.93394E-03-5.22068E-01-1.39640E-13 1.57652E-13
 -1      1538 2.38373E+01 5.23400E-03-2.28257E-03-3.38694E-01 7.66781E-14 2.74933E-13
 -1      1539 2.33802E+01 1.77870E-02-6.21133E-04-3.23546E-01 2.05739E-14 3.58959E-13
 -1      1540 2.30327E+01 1.87408E-02-7.89891E-03-6.04574E-01-4.27687E-14 1.43809E-13
 -1      1541 2.47092E+01-5.91549E-03 1.67629E-03-3.46406E-01 1.94805E-14 1.57485E-13
 -1      1542 2.42248E+01 5.26629E-03-5.03790E-04-3.39013E-01 5.02833E-14 2.83280E-13
 -1      1543 2.37661E+01 4.41479E-03-5.44825E-03-6.51883E-01 6.30474E-14 2.38202E-13
 -1      1544 2.55097E+01-2.59641E-02 1.04966E-02-2.91147E-01-1.57296E-14 2.11289E-13
 -1      1545 2.50706E+01-2.10386E-02 1.21092E-03-3.01914E-01-1.26284E-14 1.22916E-13
 -1      1546 2.45055E+01-2.61865E-02 1.39444E-03-6.17049E-01 1.66082E-14 9.28407E-14
 -1      1547 2.60325E+01-5.44579E-02 2.49566E-02-1.32963E-01-7.91398E-14 3.97068E-13
 -1      1548 2.57646E+01-6.39815E-02 5.82951E-03-1.75732E-01-1.21138E-13 1.90521E-13
 -1      1549 2.51356E+01-7.78738E-02 1.43354E-02-4.35096E-01-1.51271E-13-5.96398E-15
 -1      1550 2.59991E+01-8.20619E-02 4.06701E-02 1.54070E-01-1.10176E-13 6.36883E-13
 -1      1551 2.60733E+01-1.16595E-01 1.34242E-02 6.86274E-02-1.20234E-14 5.52294E-13
 -1      1552 2.54817E+01-1.45388E-01 3.21973E-02-4.39366E-02-1.22367E-13 2.17939E-13
 -1      1553 2.51533E+01-8.59056E-02 4.41735E-02 5.34170E-01 2.80696E-14 8.03635E-13
 -1      1554 2.57242E+01-1.52108E-01 2.00066E-02 4.14248E-01-5.87447E-14 7.36515E-13
 -1      1555 2.53388E+01-1.98811E-01 4.73164E-02 5.56490E-01-1.11723E-13 4.54890E-13
 -1      1556 2.34749E+01-3.87210E-02 1.74684E-02 8.58229E-01 1.89796E-14 6.35131E-13
 -1      1557 2.45451E+01-1.26416E-01 1.59777E-02 7.48725E-01 9.74776E-14 7.77239E-13
 -1      1558 2.45694E+01-1.77217E-01 4.56840E-02 1.21315E+00 7.60208E-14 6.21347E-13
 -1      1559 2.14080E+01 5.94023E-02-4.53589E-02 8.88040E-01 1.05149E-13 5.02612E-13
 -1      1560 2.26894E+01-1.06546E-02-8.84578E-03 8.62799E-01 1.58823E-14 5.28161E-13
 -1      1561 2.32692E+01-3.04848E-02 1.21215E-02 1.58127E+00 7.96897E-14 6.94368E-13
 -1      1562 1.98739E+01 1.47503E-01-1.00536E-01 4.70095E-01 1.10162E-13 5.19446E-14
 -1      1563 2.07972E+01 1.49733E-01-4.54031E-02 5.76456E-01 1.35746E-13 2.32453E-13
 -1      1564 2.19076E+01 2.19078E-01-3.55263E-02 1.28305E+00 2.63352E-13 2.31624E-13
 -1      1565 1.97238E+01 1.49955E-01-1.02123E-01-2.22559E-01 1.58335E-13-3.63230E-13
 -1      1566 1.97867E+01 2.38958E-01-6.28088E-02-3.49381E-02 1.71640E-13-9.25059E-14
 -1      1567 2.11842E+01 3.93097E-01-6.48427E-02 2.96465E-01 2.52326E-13-1.17879E-13
 -1      1568 2.10540E+01 6.57047E-02-4.41512E-02-7.82926E-01-5.43159E-14-5.08815E-13
 -1      1569 2.02188E+01 1.89510E-01-4.40889E-02-6.26273E-01-1.10467E-14-5.75623E-13
 -1      1570 2.15232E+01 3.42561E-01-5.62167E-02-8.59514E-01 1.49873E-13-4.89300E-13
 -1      1571 2.31145E+01-3.28899E-02 2.67612E-02-9.19746E-01-1.35046E-13-2.72449E-13
 -1      1572 2.18405E+01 5.14738E-02-3.13558E-03-8.70013E-01-1.24118E-13-4.62436E-13
 -1      1573 2.27092E+01 1.01284E-01-2.61260E-02-1.52604E+00-1.38772E-13-5.25177E-13
 -1      1574 2.49331E+01-8.31761E-02 6.29133E-02-6.75072E-01-5.19688E-14 1.39333E-14
 -1      1575 2.38051E+01-6.85807E-02 2.92862E-02-7.20842E-01-8.12336E-14-1.76761E-13
 -1      1576 2.40911E+01-1.38680E-01 6.17456E-05-1.45468E+00-1.78139E-13-4.07764E-13
 -1      1577 2.59473E+01-8.09579E-02 5.96689E-02-2.87942E-01 1.13191E-14 8.51229E-14
 -1      1578 2.53046E+01-1.15088E-01 3.72457E-02-3.70907E-01 3.34992E-14 1.18509E-13
 -1      1579 2.50862E+01-2.37866E-01 1.27270E-02-8.92337E-01-2.82031E-14-3.02605E-13
 -1      1580 2.61112E+01-5.42507E-02 3.67260E-02 4.46357E-02 8.63441E-14-5.66183E-14
 -1      1581 2.59816E+01-1.02192E-01 2.73540E-02-2.93765E-02 7.37119E-14 1.13902E-13
 -1      1582 2.54634E+01-2.09568E-01 1.41851E-02-2.35087E-01 1.02916E-13 5.34694E-14
 -1      1583 2.56631E+01-2.61440E-02 1.41333E-02 2.49684E-01 9.24755E-14-1.67547E-13
 -1      1584 2.59006E+01-6.61455E-02 1.23926E-02 2.02014E-01 4.91135E-14-6.18238E-14
 -1      1585 2.52871E+01-1.30312E-01 1.03588E-02 2.66469E-01 6.10016E-14 4.82557E-14
 -1      1586 2.48901E+01-6.26105E-03-2.63840E-04 3.38123E-01-6.71633E-14-5.79918E-14
 -1      1587 2.53195E+01-3.16324E-02 1.28036E-03 3.15125E-01-4.19248E-14-1.85962E-13
 -1      1588 2.47477E+01-5.60812E-02 6.02286E-03 5.48076E-01 3.91701E-14 1.14603E-13
 -1      1589 2.40138E+01 4.80345E-03-6.86406E-03 3.49045E-01 7.38046E-15-5.48450E-14
 -1      1590 2.45018E+01-7.63413E-03-4.19033E-03 3.42771E-01-4.69142E-14-5.74089E-14
 -1      1591 2.40350E+01-6.63877E-03 2.88291E-03 6.49801E-01-9.50739E-14-7.70278E-14
 -1      1592 2.31688E+01 9.57656E-03-8.55328E-03 3.18833E-01 1.16755E-13-2.04909E-13
 -1      1593 2.36363E+01 5.90192E-03-5.60264E-03 3.21790E-01 1.48227E-13-6.94306E-14
 -1      1594 2.32881E+01 1.93005E-02 1.03756E-03 6.38411E-01 1.78969E-13 6.23650E-14
 -1      1595 2.24210E+01 1.06963E-02-7.89460E-03 2.72175E-01-9.92867E-14-3.34278E-13
 -1      1596 2.28310E+01 1.19882E-02-4.98337E-03 2.79223E-01 5.13977E-14-2.78831E-13
 -1      1597 2.25892E+01 2.93374E-02 8.83876E-05 5.70024E-01 1.08982E-13 1.51496E-13
 -1      1598 2.17923E+01 1.00331E-02-6.43889E-03 2.22983E-01-9.10645E-14-1.31100E-13
 -1      1599 2.21336E+01 1.36543E-02-3.71776E-03 2.31164E-01-1.48675E-13-3.54966E-13
 -1      1600 2.19775E+01 3.05375E-02-3.53394E-04 4.81220E-01-1.50585E-13-2.61356E-13
 -1      1601 2.12810E+01 8.70251E-03-4.93413E-03 1.77821E-01-2.42744E-14-3.25443E-14
 -1      1602 2.15560E+01 1.30831E-02-2.48193E-03 1.85676E-01-1.45183E-14-8.75740E-14
 -1      1603 2.14646E+01 2.76694E-02-5.38214E-04 3.92051E-01-1.20959E-13-1.05348E-13
 -1      1604 2.08750E+01 7.31399E-03-3.68150E-03 1.38918E-01 2.13483E-13-2.43055E-13
 -1      1605 2.10916E+01 1.16412E-02-1.51055E-03 1.45891E-01 1.83180E-13-7.83739E-14
 -1      1606 2.10471E+01 2.34852E-02-6.14447E-04 3.11570E-01 1.90039E-13-2.86063E-13
 -1      1607 2.05598E+01 6.19407E-03-2.79775E-03 1.06115E-01 2.69268E-13-8.97855E-13
 -1      1608 2.07266E+01 1.01427E-02-8.43702E-04 1.12186E-01 1.76216E-13-5.88008E-13
 -1      1609 2.07153E+01 1.94448E-02-6.86406E-04 2.42330E-01 4.20404E-13-5.62369E-13
 -1      1610 2.03222E+01 5.50586E-03-2.35695E-03 7.79687E-02 3.64680E-14-1.18805E-12
 -1      1611 2.04468E+01 9.07393E-03-4.82271E-04 8.34480E-02 1.66712E-13-9.82485E-13
 -1      1612 2.04581E+01 1.63026E-02-8.55920E-04 1.83258E-01 3.37154E-13-6.81387E-13
 -1      1613 2.01536E+01 5.33683E-03-2.33850E-03 5.24058E-02-9.98787E-14-1.07860E-12
 -1      1614 2.02405E+01 8.73008E-03-4.37066E-04 5.78369E-02-1.27562E-13-1.28888E-12
 -1      1615 2.02657E+01 1.44461E-02-1.21813E-03 1.31377E-01-5.62141E-14-7.72106E-13
 -1      1616 2.00492E+01 5.64495E-03-2.06907E-03 2.70779E-02 2.16660E-14-1.03696E-12
 -1      1617 2.01000E+01 9.22121E-03-5.41102E-04 3.33601E-02-1.05637E-14-1.04633E-12
 -1      1618 2.01306E+01 1.42177E-02-1.62110E-03 8.30664E-02-7.85344E-14-7.99009E-13
 -1      1619 2.00063E+01 5.18766E-03 1.23025E-03 3.57554E-03 8.85289E-15-9.90722E-13
 -1      1620 2.00206E+01 8.71537E-03 1.75921E-05 9.77176E-03 8.51066E-15-1.01943E-12
 -1      1621 2.00464E+01 1.35822E-02-1.48169E-03 3.58700E-02 2.60051E-14-8.33436E-13
 -1      1622 1.99973E+01-2.29602E-04 2.85408E-03-3.65465E-03-5.56429E-13-5.66088E-13
 -1      1623 2.00094E+01 3.57056E-02-1.32898E-03 2.07959E-02-8.42866E-13 1.09348E-13
 -1      1624 2.00094E+01 1.78709E-02 9.09785E-04 1.46983E-02-8.64381E-13-1.07563E-13
 -1      1625 2.00069E+01 1.21841E-01-1.11356E-03 4.53276E-02-1.71575E-13 5.67378E-13
 -1      1626 2.00088E+01 7.33297E-02-9.25970E-04 4.07692E-02-7.93131E-13 4.57524E-13
 -1      1627 2.00181E+01 7.94560E-02-1.72584E-03 6.15462E-02-3.81210E-13 3.33626E-13
 -1      1628 2.00026E+01 2.42843E-01-5.24406E-04 6.08588E-02 6.26981E-14 1.54191E-13
 -1      1629 2.00051E+01 1.73787E-01-7.54011E-04 5.86053E-02-4.25040E-14 3.12673E-13
 -1      1630 2.00110E+01 1.69081E-01-1.66187E-03 1.01483E-01-2.37259E-13 6.04407E-13
 -1      1631 1.99982E+01 3.77683E-01-8.05039E-05 6.45691E-02 4.36789E-13 3.14860E-14
 -1      1632 2.00007E+01 3.02068E-01-3.32557E-04 6.47999E-02 2.10896E-13 3.20576E-13
 -1      1633 2.00034E+01 2.80595E-01-4.22532E-04 1.21905E-01 1.23340E-13 4.06808E-13
 -1      1634 1.99946E+01 5.01472E-01 1.21818E-04 5.72871E-02-3.85519E-13-5.43285E-13
 -1      1635 1.99966E+01 4.33903E-01-6.65637E-05 5.95328E-02 3.68643E-13-7.64704E-13
 -1      1636 1.99963E+01 3.96109E-01 8.44333E-04 1.20123E-01-1.06282E-13-5.28272E-13
 -1      1637 1.99920E+01 5.98930E-01 1.99886E-04 4.09862E-02-3.57954E-13 1.53570E-13
 -1      1638 1.99935E+01 5.48214E-01 7.98395E-05 4.48114E-02-4.31084E-13-1.83384E-14
 -1      1639 1.99906E+01 4.98792E-01 1.84826E-03 9.87631E-02-5.95783E-14-4.69128E-13
 -1      1640 1.99908E+01 6.53421E-01 1.97407E-04 1.88539E-02-3.86789E-13 1.95758E-14
 -1      1641 1.99915E+01 6.28200E-01 1.29975E-04 2.35291E-02-3.50782E-13 2.36878E-13
 -1      1642 1.99868E+01 5.74313E-01 2.51798E-03 6.23815E-02-2.39135E-13 1.94892E-13
 -1      1643 1.99909E+01 6.57906E-01 1.59020E-04-5.55561E-03-4.38345E-13-6.11265E-14
 -1      1644 1.99907E+01 6.61391E-01 1.45791E-04-7.33625E-04-4.47354E-13 6.72299E-14
 -1      1645 1.99852E+01 6.11193E-01 2.79159E-03 1.74811E-02-3.08764E-13-8.63185E-14
 -1      1646 1.99923E+01 6.12666E-01 9.89168E-05-2.87136E-02-5.32858E-13 1.89460E-14
 -1      1647 1.99913E+01 6.43825E-01 1.44411E-04-2.44139E-02-4.98077E-13-1.83328E-14
 -1      1648 1.99857E+01 6.04907E-01 2.67410E-03-2.90697E-02-2.19810E-13-8.94926E-14
 -1      1649 1.99946E+01 5.24970E-01 1.52106E-05-4.74303E-02-8.95853E-13-4.13355E-13
 -1      1650 1.99931E+01 5.78865E-01 1.34027E-04-4.42389E-02-5.30903E-13-2.21379E-13
 -1      1651 1.99882E+01 5.57074E-01 2.19998E-03-7.06875E-02-4.15300E-13-1.40920E-13
 -1      1652 1.99977E+01 4.10107E-01-9.20463E-05-5.89463E-02-1.01017E-12 1.41557E-13
 -1      1653 1.99957E+01 4.77314E-01 6.52096E-05-5.73378E-02-8.28561E-13-2.94500E-13
 -1      1654 1.99924E+01 4.75739E-01 1.46382E-03-1.01462E-01-4.90060E-13-4.70274E-13
 -1      1655 2.00014E+01 2.81403E-01-3.03625E-04-6.17422E-02-6.23248E-13 1.05461E-13
 -1      1656 1.99991E+01 3.53758E-01-9.34669E-05-6.19594E-02-8.79017E-13 2.79849E-13
 -1      1657 1.99978E+01 3.72073E-01 4.82478E-04-1.17222E-01-3.56174E-13 3.53568E-13
 -1      1658 2.00049E+01 1.60601E-01-7.09975E-04-5.45810E-02-7.33060E-13 3.36851E-14
 -1      1659 2.00028E+01 2.25209E-01-4.27503E-04-5.67799E-02-6.03351E-13 2.11929E-14
 -1      1660 2.00040E+01 2.59632E-01-5.98963E-04-1.15141E-01-1.21761E-13-2.88836E-14
 -1      1661 2.00090E+01 6.89230E-02-2.35575E-04-3.78534E-02-8.27176E-13 3.34464E-14
 -1      1662 2.00061E+01 1.12939E-01-9.73005E-04-4.21285E-02-8.21113E-13-1.51182E-14
 -1      1663 2.00101E+01 1.55475E-01-1.58631E-03-9.39606E-02-2.49798E-13-1.07422E-13
 -1      1664 2.00141E+01 2.72895E-02 1.20917E-03-2.32056E-02-3.72094E-13 2.08966E-13
 -1      1665 2.00135E+01 4.54110E-02-8.52161E-04-3.11418E-02-6.34016E-13 2.17082E-13
 -1      1666 2.00237E+01 8.55772E-02-8.29942E-04-6.98944E-02-3.59033E-13 2.44075E-13
 -1      1667 2.00392E+01 4.21172E-02 6.97860E-04-4.81582E-02-2.72727E-13 3.90884E-13
 -1      1668-6.47620E-01-1.48289E+01-1.72194E+00-1.16435E+00 2.85272E-13 8.08520E-14
 -1      1669-6.64699E-01-1.67916E+01-1.90413E+00 1.00368E-01 2.05336E-13 6.86950E-14
 -1      1670 8.71331E-01-8.68360E+00-1.33235E+00-6.50654E-02 5.10036E-13 3.66568E-13
 -1      1671 3.08967E-01-1.36985E+01-1.82367E+00-5.35525E-01 2.94098E-13 1.77844E-13
 -1      1672 8.07181E+00-1.07091E+00-5.17355E-01 4.88725E+00 7.34302E-13 7.29528E-13
 -1      1673 4.61271E+00-6.64644E+00-1.24527E+00 1.87529E+00 4.62186E-13 5.20306E-13
 -1      1674 1.83524E+01 5.06634E+00 2.66889E-01 9.86706E+00 7.60059E-13 6.76348E-13
 -1      1675 1.14860E+01 1.59722E+00-6.52842E-01 6.04374E+00 1.02229E-12 6.54365E-13
 -1      1676 3.36660E+01 6.19034E+00 1.05632E+00 1.25870E+01 4.57301E-13 3.37508E-13
 -1      1677 2.38626E+01 6.05781E+00 1.61631E-01 1.06975E+01 6.12621E-13 7.20313E-13
 -1      1678 4.77288E+01 4.53034E+00 1.55548E+00 9.15495E+00 2.05069E-13-2.41140E-13
 -1      1679 3.88977E+01 6.20731E+00 9.48824E-01 1.12863E+01 3.77143E-13 1.16351E-13
 -1      1680 5.44273E+01 3.85291E+00 1.78705E+00 1.58448E+00 2.05724E-13-8.16597E-13
 -1      1681 5.03543E+01 4.82731E+00 1.47606E+00 6.84396E+00 2.06418E-13-4.33653E-13
 -1      1682 5.34663E+01 4.28531E+00 1.79401E+00-6.44042E+00 1.52850E-13-9.62896E-13
 -1      1683 5.63013E+01 3.43335E+00 1.95057E+00-7.54481E-01 6.46705E-14-9.05290E-13
 -1      1684 4.16340E+01 5.97070E+00 1.09992E+00-1.09360E+01 6.06515E-13-1.09757E-12
 -1      1685 5.00437E+01 4.38403E+00 1.75623E+00-8.25611E+00 3.75651E-13-9.16378E-13
 -1      1686 2.71805E+01 6.11862E+00 3.03777E-01-1.10179E+01 5.84310E-13-1.00253E-12
 -1      1687 3.67686E+01 5.85169E+00 1.17690E+00-1.21617E+01 5.88529E-13-1.11577E-12
 -1      1688 1.43904E+01 2.34630E+00-5.11305E-01-7.00745E+00 8.36220E-13-6.31606E-13
 -1      1689 2.20229E+01 4.95909E+00 3.89037E-01-1.05043E+01 6.54254E-13-7.70939E-13
 -1      1690 5.03896E+00-4.14636E+00-1.25484E+00-2.29893E+00 8.16458E-13-5.61107E-13
 -1      1691 9.07763E+00 1.10320E+00-4.52190E-01-5.71110E+00 8.25562E-13-6.30274E-13
 -1      1692 1.14219E+00-1.17436E+01-1.67551E+00 1.41361E-01 3.64819E-13-3.90771E-13
 -1      1693 2.32837E+00-6.36532E+00-1.12416E+00-1.09107E+00 7.46292E-13-4.84834E-13
 -1      1694-4.66572E-01-1.64204E+01-1.86330E+00 1.67280E-01-7.13096E-13-2.51077E-13
 -1      1695-4.88098E-01-1.34681E+01-1.64012E+00 1.21332E+00 3.01981E-14-5.49324E-13
 -1      1696-6.17023E-01-1.47422E+01-1.57925E+00-6.09401E-01-1.17706E-12-2.81997E-13
 -1      1697-6.53796E-01-1.59065E+01-1.69274E+00 7.77998E-01-8.46129E-13-7.09988E-14
 -1      1698 6.53761E-01-9.40946E+00-1.28185E+00 5.91171E-02-1.57740E-12-7.06206E-13
 -1      1699 2.30018E-01-1.41229E+01-1.71147E+00 6.35061E-02-1.37534E-12-4.83391E-13
 -1      1700 6.26509E+00-1.66468E+00-5.88394E-01 4.21862E+00-1.50480E-12-9.53904E-13
 -1      1701 3.48979E+00-7.42966E+00-1.30927E+00 1.59612E+00-1.45384E-12-7.87037E-13
 -1      1702 1.74456E+01 3.93016E+00 1.88776E-01 9.29161E+00-1.22924E-12-1.28375E-12
 -1      1703 1.08008E+01 7.54443E-02-6.88269E-01 5.46211E+00-1.44906E-12-1.11045E-12
 -1      1704 3.27287E+01 5.77535E+00 9.67186E-01 1.17527E+01-8.35443E-13-1.05005E-12
 -1      1705 2.29010E+01 5.32203E+00 8.56504E-02 9.70359E+00-1.16496E-12-1.14930E-12
 -1      1706 4.67953E+01 4.97530E+00 1.64581E+00 1.01902E+01-3.95642E-13-1.10512E-12
 -1      1707 3.80566E+01 6.72975E+00 9.97743E-01 1.21711E+01-5.86531E-13-1.17373E-12
 -1      1708 5.38540E+01 3.51659E+00 1.74002E+00 2.63416E+00-3.07060E-13-7.70328E-13
 -1      1709 4.99031E+01 4.73663E+00 1.55080E+00 7.85656E+00-3.96932E-13-1.06226E-12
 -1      1710 5.10955E+01 4.40876E+00 1.49865E+00-5.59639E+00-7.28029E-14-2.26930E-13
 -1      1711 5.34756E+01 3.75520E+00 1.66013E+00-5.01414E-02-2.35534E-13-5.10599E-13
 -1      1712 4.19186E+01 6.07015E+00 1.13099E+00-1.11518E+01-1.39569E-13 1.82077E-14
 -1      1713 4.92729E+01 4.32652E+00 1.60628E+00-8.12286E+00-2.61458E-14-1.01918E-13
 -1      1714 2.84505E+01 6.94441E+00 4.90997E-01-1.18988E+01-4.09006E-13 4.41869E-13
 -1      1715 3.75479E+01 6.24304E+00 1.26334E+00-1.25284E+01-2.78666E-13 1.12799E-13
 -1      1716 1.57794E+01 4.03040E+00-2.65832E-01-8.17766E+00-9.09051E-13 5.85310E-13
 -1      1717 2.34724E+01 6.08106E+00 5.93692E-01-1.13953E+01-5.99631E-13 4.49640E-13
 -1      1718 7.46263E+00-1.52732E+00-8.69581E-01-4.06966E+00-1.05471E-12 6.77458E-13
 -1      1719 1.14950E+01 2.48297E+00-1.87124E-01-7.11652E+00-9.31033E-13 6.62026E-13
 -1      1720 2.54533E+00-7.88244E+00-1.41532E+00-7.95591E-01-9.87543E-13 5.83755E-13
 -1      1721 4.33340E+00-2.73602E+00-8.11179E-01-2.74173E+00-1.13065E-12 7.64722E-13
 -1      1722 1.05688E+01-4.28555E+00-5.34070E-01-5.88370E+00-5.26468E-13 3.74867E-13
 -1      1723 2.98431E-01-1.41214E+01-1.74175E+00 1.99811E-01-2.13163E-13 4.08729E-13
 -1      1724 4.67182E-01-1.01696E+01-1.41361E+00 1.49898E-01-7.22977E-13 6.50070E-13
 -1      1725-5.93152E-01-1.73640E+01-1.98498E+00-3.29289E-01 1.32006E-13 1.50713E-13
 -1      1726-6.15231E-01-1.55415E+01-1.82030E+00 9.94068E-01-1.95621E-13 2.84384E-13
 -1      1727-7.07981E-02-1.09059E+01-1.31214E+00-2.02073E+00-1.11411E-13 4.97491E-13
 -1      1728 2.54307E+01 1.08601E+00 2.79002E-01 7.38866E+00 5.21583E-13 2.24598E-13
 -1      1729 1.49924E+01-3.71265E+00-4.27002E-01 6.28459E+00 1.38556E-13 2.78333E-13
 -1      1730 2.00082E+01 3.42031E-03 3.28927E-04 2.38363E-03-7.20946E-13-4.96843E-13
 -1      1731 2.00214E+01 3.02435E-02 9.01740E-05 2.48509E-02-1.82811E-13-3.51793E-13
 -1      1732 2.96720E-01-1.04477E+01-1.22760E+00 1.86899E+00 1.09412E-13 1.34170E-13
 -1      1733 6.39521E+00-7.30552E+00-7.52071E-01 4.70118E+00 1.13243E-14 4.14335E-13
 -1      1734-1.28453E+00-1.19339E+01-1.35967E+00-1.00175E-01 4.19803E-14 1.67921E-13
 -1      1735 3.64482E+01 4.29461E+00 9.68417E-01 6.31332E+00 4.84932E-13-7.02771E-14
 -1      1736 4.33471E+01 6.60881E+00 1.25147E+00 3.16438E+00 3.66374E-13-4.24660E-13
 -1      1737 4.69648E+01 7.61409E+00 1.49590E+00-1.16999E-01 2.04614E-13-6.34166E-13
 -1      1738 4.55944E+01 6.79977E+00 1.49454E+00-3.06329E+00 2.34923E-13-7.22922E-13
 -1      1739 3.82548E+01 4.61821E+00 1.01922E+00-5.62285E+00 4.22398E-13-6.09290E-13
 -1      1740 2.82738E+01 1.25433E+00 4.01561E-01-6.82331E+00 2.91489E-13-6.27942E-13
 -1      1741 1.73458E+01-2.31728E+00-1.83124E-01-6.58300E+00 3.92020E-13-3.23908E-13
 -1      1742 7.68552E+00-6.35531E+00-7.96468E-01-4.77767E+00 2.65454E-13-3.81417E-13
 -1      1743 1.54680E+00-9.79255E+00-1.16384E+00-2.66634E+00-6.58362E-14-7.60808E-13
 -1      1744-1.15806E+00-1.08637E+01-1.22906E+00-2.62705E-01-4.57162E-13-4.72733E-13
 -1      1745-9.92248E-02-1.00124E+01-1.12297E+00 2.00067E+00-8.64364E-13-4.75731E-13
 -1      1746 4.97946E+00-7.53595E+00-8.16281E-01 4.57354E+00-9.26925E-13-4.87291E-13
 -1      1747 1.40440E+01-4.00424E+00-2.94349E-01 6.53479E+00-8.88400E-13-6.56919E-13
 -1      1748 2.49826E+01-1.53527E-01 2.58219E-01 6.73214E+00-8.13904E-13-5.97078E-13
 -1      1749 3.49569E+01 3.88622E+00 7.11715E-01 6.13750E+00-6.79734E-13-7.17537E-13
 -1      1750 4.34873E+01 6.59173E+00 1.36431E+00 4.47710E+00-4.40759E-13-8.77520E-13
 -1      1751 4.57256E+01 7.50990E+00 1.37779E+00 6.95571E-01-4.64628E-13-5.62536E-13
 -1      1752 4.39226E+01 7.01063E+00 1.28776E+00-3.13592E+00-1.94122E-13-1.76803E-13
 -1      1753 3.82889E+01 5.43037E+00 1.09049E+00-6.32895E+00-2.53034E-13-9.75886E-14
 -1      1754 2.88674E+01 2.63501E+00 5.26451E-01-7.50108E+00-4.69680E-13 1.26121E-13
 -1      1755 1.89750E+01-1.05407E+00-4.98528E-02-7.11017E+00-6.27054E-13 2.11386E-13
 -1      1756 2.28391E+01 1.98403E+00-2.36271E-02-2.72241E+00-2.13385E-13 4.90330E-13
 -1      1757 3.98682E+00-7.94282E+00-9.91202E-01-3.78222E+00-2.65676E-13 6.37330E-13
 -1      1758 1.98237E+01 3.71376E+00-3.53864E-02-2.15311E+00-2.05941E-13-4.33650E-13
 -1      1759 2.00531E+01 3.56233E+00-4.01972E-02-2.44530E+00-2.57501E-13-3.68486E-13
 -1      1760 2.03550E+01 3.18086E+00-4.57263E-02-2.58525E+00-2.68357E-13-2.73059E-13
 -1      1761 2.05714E+01 2.80887E+00-1.42485E-01-2.85346E+00-3.05336E-13-1.54106E-13
 -1      1762 2.04176E+01 2.69286E+00-4.13005E-03-2.22435E+00-2.79103E-13-2.94497E-13
 -1      1763 1.93629E+01 4.19132E+00-2.00953E-02-1.27018E+00-6.72583E-14-5.17836E-13
 -1      1764 1.94349E+01 4.15132E+00-1.69045E-02-1.49458E+00-9.91793E-14-5.10713E-13
 -1      1765 1.92691E+01 4.29824E+00-1.67704E-02-8.59177E-01-1.57676E-14-5.12406E-13
 -1      1766 1.93106E+01 4.27385E+00-1.42459E-02-1.06993E+00-3.94775E-14-5.21617E-13
 -1      1767 1.95358E+01 3.78667E+00-8.94581E-03-1.11870E+00-6.46839E-14-4.98757E-13
 -1      1768 1.92192E+01 4.35951E+00-1.48110E-02-4.66473E-01 4.61326E-14-4.75921E-13
 -1      1769 1.92405E+01 4.34637E+00-1.32948E-02-6.66673E-01 1.63628E-14-4.94091E-13
 -1      1770 1.94409E+01 3.90806E+00-9.09957E-03-7.32337E-01 7.19758E-15-4.85981E-13
 -1      1771 1.92006E+01 4.38550E+00-1.36790E-02-8.36081E-02 1.02206E-13-4.68655E-13
 -1      1772 1.92068E+01 4.38148E+00-1.32208E-02-2.78919E-01 8.05183E-14-4.76438E-13
 -1      1773 1.93920E+01 3.97335E+00-9.08289E-03-3.57845E-01 6.14603E-14-4.58611E-13
 -1      1774 1.92085E+01 4.38007E+00-1.31756E-02 2.97854E-01 1.56798E-13-4.45808E-13
 -1      1775 1.92011E+01 4.38464E+00-1.37664E-02 1.02369E-01 1.29992E-13-4.59369E-13
 -1      1776 1.93778E+01 3.99300E+00-9.07739E-03 1.04786E-02 1.22489E-13-4.54763E-13
 -1      1777 1.92446E+01 4.34228E+00-1.33275E-02 6.86388E-01 2.01967E-13-4.08298E-13
 -1      1778 1.92221E+01 4.35627E+00-1.49350E-02 4.85662E-01 1.77905E-13-4.35487E-13
 -1      1779 1.93948E+01 3.96996E+00-9.12478E-03 3.79040E-01 1.80108E-13-4.33036E-13
 -1      1780 1.93159E+01 4.26788E+00-1.44038E-02 1.08401E+00 2.49488E-13-3.59733E-13
 -1      1781 1.92738E+01 4.29279E+00-1.69932E-02 8.76046E-01 2.19453E-13-3.87173E-13
 -1      1782 1.94462E+01 3.90162E+00-9.13897E-03 7.50858E-01 2.26419E-13-3.88686E-13
 -1      1783 1.94441E+01 4.13943E+00-1.73949E-02 1.51418E+00 2.96384E-13-2.86014E-13
 -1      1784 1.93695E+01 4.18257E+00-2.05159E-02 1.28458E+00 2.65253E-13-3.30742E-13
 -1      1785 1.95435E+01 3.77648E+00-9.20743E-03 1.13452E+00 2.77794E-13-3.25996E-13
 -1      1786 1.96685E+01 3.92163E+00-2.51907E-02 1.97957E+00 3.33017E-13-1.63501E-13
 -1      1787 1.95382E+01 3.99897E+00-2.69027E-02 1.72214E+00 3.09134E-13-2.36974E-13
 -1      1788 1.97131E+01 3.56801E+00-8.67941E-03 1.53444E+00 3.20875E-13-2.40476E-13
 -1      1789 2.00710E+01 3.52229E+00-4.51627E-02 2.47222E+00 3.59490E-13 3.02015E-14
 -1      1790 1.98341E+01 3.68328E+00-3.96796E-02 2.18310E+00 3.42357E-13-8.04773E-14
 -1      1791 2.00043E+01 3.22364E+00-5.26438E-03 1.93419E+00 3.61049E-13-9.99617E-14
 -1      1792 2.09088E+01 2.68102E+00-5.76200E-02 2.85805E+00 3.33403E-13 3.73382E-13
 -1      1793 2.04053E+01 3.09633E+00-5.03525E-02 2.61639E+00 3.43984E-13 1.65715E-13
 -1      1794 2.05109E+01 2.60983E+00 3.20975E-03 2.24461E+00 3.62188E-13 1.12951E-13
 -1      1795 2.17136E+01 1.21274E+00-1.22033E-01 2.33024E+00 2.74780E-13 7.76088E-13
 -1      1796 2.12601E+01 2.26234E+00 1.30048E-04 2.74079E+00 3.04080E-13 5.14255E-13
 -1      1797 2.09248E+01 1.68482E+00-2.29465E-02 2.14063E+00 3.41128E-13 3.63792E-13
 -1      1798 2.09348E+01 7.78594E-01-6.24463E-02 1.52481E+00 2.80789E-13 6.84864E-13
 -1      1799 2.17807E+01 2.45733E+00 9.09223E-02-3.04834E+00-2.78557E-13 8.55982E-14
 -1      1800 2.00843E+01 2.98086E-01-8.89984E-03 6.57511E-01 2.18318E-13 5.45407E-13
 -1      1801 2.06364E+01 4.40491E-01-1.24528E-02 1.03456E+00 2.43340E-13 6.24074E-13
 -1      1802 2.07301E+01 8.45127E-01 2.23180E-03 1.41558E+00 2.90733E-13 4.37980E-13
 -1      1803 4.92661E+00-7.01517E+00-4.56588E-01-4.72843E+00 6.40599E-14 6.71352E-13
 -1      1804 8.13430E+00-5.50685E+00-2.25965E-01-5.89776E+00-7.83817E-14 5.15664E-13
 -1      1805 2.14930E+01 1.74195E+00 7.94234E-02-2.33742E+00-2.91787E-13-8.67362E-15
 -1      1806 2.05064E+01 5.01024E-01 3.24157E-02-9.21848E-01-2.33626E-13-3.43403E-14
 -1      1807 2.00749E+01 3.52613E-01 7.57992E-03-6.29629E-01-2.08012E-13-9.53040E-14
 -1      1808 1.98814E+01 2.58028E-01 2.74272E-02-3.90669E-01-2.00709E-13-1.01778E-13
 -1      1809 1.96911E+01 1.78988E-01 1.04645E-02-2.52354E-01-1.62132E-13-1.50387E-13
 -1      1810 2.01893E+01 4.84686E-01-5.92241E-03-7.21675E-01-2.43359E-13-1.62769E-13
 -1      1811 1.95704E+01 1.34021E-01 1.67066E-02-1.17844E-01-1.17384E-13-1.56914E-13
 -1      1812 1.94937E+01 9.48220E-02 7.11644E-03-4.61226E-02-9.91841E-14-1.77272E-13
 -1      1813 1.98653E+01 2.45602E-01-5.89230E-03-2.93093E-01-1.79030E-13-1.86104E-13
 -1      1814 1.94310E+01 7.05902E-02 8.78739E-03 2.90733E-02-1.14955E-13-1.78527E-13
 -1      1815 1.94191E+01 4.94996E-02 4.34501E-03 6.67463E-02-1.00239E-13-1.94036E-13
 -1      1816 1.96860E+01 1.28207E-01-4.75770E-03-5.32010E-02-1.21715E-13-2.07778E-13
 -1      1817 1.93965E+01 3.57620E-02 4.37918E-03 1.08000E-01-8.93397E-14-2.05533E-13
 -1      1818 1.94207E+01 2.41436E-02 2.77351E-03 1.27051E-01-6.42568E-14-2.44833E-13
 -1      1819 1.96050E+01 6.55630E-02-3.62978E-03 8.11749E-02-1.14900E-13-2.27067E-13
 -1      1820 1.94241E+01 1.63076E-02 2.04943E-03 1.48709E-01-6.79060E-14-2.56906E-13
 -1      1821 1.94683E+01 1.02206E-02 1.92821E-03 1.57458E-01-6.66045E-14-2.57224E-13
 -1      1822 1.95893E+01 3.09623E-02-2.57223E-03 1.54705E-01-8.60133E-14-2.35397E-13
 -1      1823 1.94883E+01 6.06703E-03 8.12460E-04 1.68151E-01-7.58421E-14-2.76683E-13
 -1      1824 1.95433E+01 3.50063E-03 1.49091E-03 1.71622E-01-6.41090E-14-2.68895E-13
 -1      1825 1.96155E+01 1.24511E-02-1.75496E-03 1.93260E-01-8.41950E-14-2.35904E-13
 -1      1826 1.95741E+01 1.82483E-03 1.68018E-04 1.76910E-01-7.96227E-14-2.72129E-13
 -1      1827 1.96352E+01 1.64965E-03 1.31341E-03 1.78403E-01-6.66572E-14-2.80226E-13
 -1      1828 1.96685E+01 4.07790E-03-1.20907E-03 2.12891E-01-7.22799E-14-2.59372E-13
 -1      1829 1.96733E+01 1.72462E-03-1.29023E-04 1.82074E-01-5.86948E-14-3.01926E-13
 -1      1830 1.97387E+01 3.24780E-03 1.32237E-03 1.83885E-01-5.21881E-14-3.49228E-13
 -1      1831 1.97391E+01 2.54997E-03-8.94954E-04 2.24210E-01-1.08450E-13-2.82839E-13
 -1      1832 1.97827E+01 4.58907E-03-2.10215E-04 1.88616E-01-6.25690E-14-3.96375E-13
 -1      1833 1.98525E+01 7.34099E-03 1.47109E-03 1.92389E-01-5.46272E-14-4.57477E-13
 -1      1834 1.98226E+01 5.85793E-03-7.58851E-04 2.34573E-01-9.66884E-14-2.82179E-13
 -1      1835 1.99021E+01 9.58333E-03-1.56329E-04 2.00091E-01-2.66408E-14-4.39087E-13
 -1      1836 1.99779E+01 1.31930E-02 1.71850E-03 2.06991E-01-3.68263E-14-4.06988E-13
 -1      1837 1.99175E+01 1.26308E-02-7.53043E-04 2.49200E-01-4.43032E-14-3.73072E-13
 -1      1838 2.00339E+01 1.60073E-02-2.37119E-05 2.18967E-01-2.92960E-14-3.97341E-13
 -1      1839 2.01178E+01 2.01073E-02 2.01795E-03 2.29733E-01-1.64954E-14-3.89654E-13
 -1      1840 2.00243E+01 2.17720E-02-8.38346E-04 2.71748E-01-1.45409E-14-3.12146E-13
 -1      1841 2.01817E+01 2.31259E-02 1.43632E-04 2.46696E-01-4.47613E-14-3.83362E-13
 -1      1842 2.02766E+01 2.72579E-02 2.30738E-03 2.61595E-01-3.51445E-14-3.45507E-13
 -1      1843 2.01455E+01 3.21882E-02-9.81291E-04 3.04515E-01-7.75893E-15-2.68447E-13
 -1      1844 2.03501E+01 2.99938E-02 3.07529E-04 2.83558E-01-2.09562E-14-3.56614E-13
 -1      1845 2.04585E+01 3.35017E-02 2.49879E-03 3.02232E-01 4.32129E-14-3.64982E-13
 -1      1846 2.02840E+01 4.25260E-02-1.15085E-03 3.48348E-01-1.70578E-14-3.16158E-13
 -1      1847 2.05433E+01 3.52543E-02 4.32115E-04 3.28260E-01 4.55742E-14-3.70212E-13
 -1      1848 2.06672E+01 3.71602E-02 2.46772E-03 3.49447E-01 5.83929E-14-3.49649E-13
 -1      1849 2.04435E+01 5.08773E-02-1.31578E-03 4.02260E-01 3.49333E-14-2.66966E-13
 -1      1850 2.07646E+01 3.69116E-02 4.82941E-04 3.77259E-01-9.40003E-15-3.93208E-13
 -1      1851 2.09043E+01 3.57893E-02 2.04658E-03 3.98389E-01-7.57500E-14-4.09016E-13
 -1      1852 2.06270E+01 5.44472E-02-1.44241E-03 4.62726E-01-1.03375E-14-2.76067E-13
 -1      1853 2.10150E+01 3.21152E-02 4.28969E-04 4.23812E-01-5.49347E-14-3.93361E-13
 -1      1854 2.11678E+01 2.60113E-02 1.02980E-03 4.40499E-01-4.64788E-14-3.70049E-13
 -1      1855 2.08364E+01 4.92305E-02-1.49226E-03 5.22660E-01-6.01478E-14-2.76976E-13
 -1      1856 2.12912E+01 1.70747E-02 2.47018E-04 4.56848E-01-3.20057E-14-3.51411E-13
 -1      1857 2.14503E+01 3.59740E-03-7.93983E-04 4.62397E-01 3.86445E-14-3.45016E-13
 -1      1858 2.10713E+01 2.98507E-02-1.41739E-03 5.70154E-01-1.58674E-14-2.50645E-13
 -1      1859 2.15836E+01-1.26328E-02-7.44139E-05 4.59998E-01 8.60132E-14-3.50325E-13
 -1      1860 2.17362E+01-3.58274E-02-3.56011E-03 4.45231E-01 1.30828E-13-3.86633E-13
 -1      1861 2.13281E+01-1.00876E-02-1.15037E-03 5.87282E-01 5.01411E-14-3.79923E-13
 -1      1862 2.18738E+01-6.08847E-02-5.38861E-04 4.11565E-01 1.22716E-13-3.92528E-13
 -1      1863 2.20005E+01-9.48611E-02-7.17303E-03 3.65567E-01 2.39956E-15-3.42712E-13
 -1      1864 2.15976E+01-7.64883E-02-5.84834E-04 5.49707E-01 1.30975E-13-3.41911E-13
 -1      1865 2.21323E+01-1.28297E-01-1.16432E-03 2.86948E-01-3.56230E-14-2.83254E-13
 -1      1866 2.22071E+01-1.70534E-01-1.10758E-02 1.99684E-01 3.84567E-14-2.14816E-13
 -1      1867 2.18637E+01-1.71173E-01 4.48643E-04 4.28556E-01 4.90369E-14-3.74854E-13
 -1      1868 2.23169E+01-2.07476E-01-2.02014E-03 6.57654E-02-4.11607E-15-1.47363E-13
 -1      1869 2.23110E+01-2.48663E-01-1.40200E-02-6.63985E-02 1.74478E-14-1.64424E-13
 -1      1870 2.21002E+01-2.85454E-01 2.18103E-03 1.96894E-01 5.83539E-14-2.09788E-13
 -1      1871 2.23754E+01-2.77044E-01-3.23038E-03-2.54052E-01 3.23240E-14-2.32046E-13
 -1      1872 2.22648E+01-2.98702E-01-1.40655E-02-4.19840E-01 3.12285E-14-2.35067E-13
 -1      1873 2.22687E+01-3.91744E-01 4.78106E-03-1.56380E-01 2.92249E-14-2.19520E-13
 -1      1874 2.22552E+01-2.98641E-01-4.77331E-03-6.35833E-01 7.83852E-14-2.40123E-13
 -1      1875 2.20337E+01-2.75974E-01-9.34151E-03-8.00490E-01 7.07828E-14-2.32499E-13
 -1      1876 2.23196E+01-4.38544E-01 7.95689E-03-6.04255E-01 7.11280E-14-1.55954E-13
 -1      1877 2.19268E+01-2.26237E-01-6.21980E-03-9.86450E-01 3.94446E-14-2.34375E-13
 -1      1878 2.16198E+01-1.41322E-01 2.02737E-04-1.09134E+00 2.53157E-14-2.30986E-13
 -1      1879 2.22034E+01-3.60513E-01 1.01984E-02-1.05715E+00 6.03077E-14-2.07807E-13
 -1      1880 2.14202E+01-3.56556E-02-6.06164E-03-1.16354E+00 2.73721E-14-2.79682E-13
 -1      1881 2.10909E+01 1.00859E-01 1.11901E-02-1.14454E+00-5.43185E-15-2.57413E-13
 -1      1882 2.19016E+01-1.16475E-01 8.43954E-03-1.35748E+00 3.81672E-15-2.54060E-13
 -1      1883 2.08542E+01 2.34596E-01-2.36281E-03-1.03122E+00 5.89806E-15-2.06149E-13
 -1      1884 2.05920E+01 3.70990E-01 1.77352E-02-8.57584E-01 2.91165E-14-1.87435E-13
 -1      1885 2.14709E+01 2.56382E-01 4.24526E-04-1.32577E+00 7.12097E-14-3.06845E-13
 -1      1886 2.04197E+01 4.71652E-01 6.07123E-03-5.56864E-01-3.84354E-14-1.59465E-13
 -1      1887 2.03067E+01 5.36983E-01 1.62820E-02-2.67810E-01-3.66113E-14-1.40122E-13
 -1      1888 2.10650E+01 6.16992E-01-1.08909E-02-8.68546E-01 1.19384E-14-9.18521E-14
 -1      1889 2.02884E+01 5.47756E-01 1.52572E-02 1.23347E-01-5.29420E-14-2.24634E-13
 -1      1890 2.03632E+01 5.03525E-01 8.43785E-03 4.24666E-01-1.87610E-14-1.97716E-13
 -1      1891 2.08751E+01 7.88165E-01-1.61021E-02-8.89868E-02-2.76237E-14-2.40417E-13
 -1      1892 2.05089E+01 4.17496E-01 1.86381E-02 7.54458E-01-9.37566E-14-2.67043E-13
 -1      1893 2.07453E+01 2.90163E-01-4.63862E-04 9.57229E-01-1.58132E-13-3.37873E-13
 -1      1894 2.10023E+01 6.72874E-01-1.17624E-02 7.24710E-01-9.41816E-14-2.80276E-13
 -1      1895 2.09768E+01 1.57752E-01 1.34121E-02 1.11181E+00-1.81455E-13-2.23253E-13
 -1      1896 2.12988E+01 1.57485E-02-5.44507E-03 1.16180E+00-7.71050E-14-2.15931E-13
 -1      1897 2.13767E+01 3.36698E-01-1.27429E-03 1.26292E+00-1.29771E-13-2.58412E-13
 -1      1898 2.15118E+01-9.95220E-02 2.65188E-03 1.12293E+00-3.17181E-14-2.54716E-13
 -1      1899 2.18284E+01-1.97325E-01-6.33967E-03 1.03827E+00 4.66758E-14-1.69231E-13
 -1      1900 2.18161E+01-4.77733E-02 7.64564E-03 1.37921E+00-5.48928E-14-2.16480E-14
 -1      1901 2.19550E+01-2.58832E-01-7.69177E-03 8.67994E-01 4.13298E-14-2.14207E-13
 -1      1902 2.21959E+01-2.93336E-01-5.09617E-03 7.09909E-01 6.10258E-14-2.00951E-13
 -1      1903 2.21505E+01-3.25161E-01 1.03886E-02 1.13225E+00-4.41730E-14-2.54668E-14
 -1      1904 2.22231E+01-3.01992E-01-1.35240E-02 4.93890E-01 1.01858E-13-2.62301E-13
 -1      1905 2.23550E+01-2.87315E-01-3.55727E-03 3.24381E-01 3.58585E-14-1.90985E-13
 -1      1906 2.23029E+01-4.35534E-01 8.57968E-03 6.95163E-01 3.24228E-14 1.68462E-14
 -1      1907 2.23024E+01-2.62888E-01-1.43314E-02 1.27614E-01 9.15934E-16-1.79111E-13
 -1      1908 2.23264E+01-2.23842E-01-2.25490E-03-1.32129E-02-8.47065E-15-2.01092E-13
 -1      1909 2.22805E+01-4.08847E-01 5.39373E-03 2.36003E-01 4.43057E-14-3.33887E-14
 -1      1910 2.22227E+01-1.87311E-01-1.17935E-02-1.59000E-01 2.16346E-14-1.64963E-13
 -1      1911 2.21603E+01-1.44133E-01-1.31406E-03-2.55602E-01 1.58133E-13-1.00760E-13
 -1      1912 2.21298E+01-3.09623E-01 2.62034E-03-1.40975E-01 9.09307E-14 1.48080E-13
 -1      1913 2.20306E+01-1.09225E-01-7.94315E-03-3.44874E-01 2.11222E-13-3.03281E-13
 -1      1914 2.19106E+01-7.29675E-02-6.15145E-04-3.98506E-01 2.83150E-14-1.26749E-13
 -1      1915 2.19017E+01-1.93609E-01 7.04657E-04-3.97564E-01 3.77957E-14 4.22396E-14
 -1      1916 2.17726E+01-4.57987E-02-4.18301E-03-4.39867E-01-7.90948E-14-5.31380E-14
 -1      1917 2.16222E+01-2.00559E-02-6.77722E-05-4.59684E-01-9.72661E-14-3.09713E-14
 -1      1918 2.16377E+01-9.30738E-02-4.71572E-04-5.38822E-01-3.68349E-14-4.82838E-14
 -1      1919 2.14874E+01-1.70431E-03-1.19531E-03-4.66427E-01-8.75648E-14-3.65287E-14
 -1      1920 2.13279E+01 1.41565E-02 3.63823E-04-4.63264E-01-4.35647E-14 1.40653E-13
 -1      1921 2.13667E+01-1.97648E-02-1.14541E-03-5.89488E-01-4.77125E-14 1.30821E-13
 -1      1922 2.12031E+01 2.50483E-02 8.53045E-04-4.48057E-01 7.57561E-14 9.15461E-14
 -1      1923 2.10492E+01 3.33511E-02 6.96427E-04-4.31260E-01 1.65316E-13 7.07728E-14
 -1      1924 2.11071E+01 2.68181E-02-1.50161E-03-5.78217E-01 2.86694E-14 3.52370E-13
 -1      1925 2.09378E+01 3.88936E-02 2.06662E-03-4.03969E-01 1.91578E-13-1.60755E-13
 -1      1926 2.07983E+01 4.22264E-02 9.50873E-04-3.80317E-01 9.57679E-14-6.28376E-15
 -1      1927 2.08701E+01 5.24246E-02-1.65702E-03-5.29727E-01 9.22837E-14 1.73987E-14
 -1      1928 2.07021E+01 4.44638E-02 2.64404E-03-3.47615E-01 6.43186E-14 1.57931E-13
 -1      1929 2.05816E+01 4.50951E-02 1.16101E-03-3.21322E-01 2.57821E-13 4.53700E-13
 -1      1930 2.06614E+01 6.39336E-02-1.68301E-03-4.62137E-01 3.42467E-13 1.62720E-13
 -1      1931 2.05006E+01 4.57374E-02 2.78443E-03-2.87031E-01 2.95008E-13 4.04754E-13
 -1      1932 2.04010E+01 4.54067E-02 1.33494E-03-2.60149E-01 3.14495E-13 3.02332E-13
 -1      1933 2.04830E+01 6.75547E-02-1.61891E-03-3.86994E-01 2.68165E-13 2.81283E-13
 -1      1934 2.03347E+01 4.56665E-02 2.61587E-03-2.25955E-01 2.42337E-13 2.50862E-13
 -1      1935 2.02565E+01 4.56589E-02 1.47577E-03-1.99023E-01 2.18292E-13 2.61883E-13
 -1      1936 2.03349E+01 6.80103E-02-1.52410E-03-3.10318E-01 1.88212E-13 6.83547E-14
 -1      1937 2.02031E+01 4.62996E-02 2.18283E-03-1.65121E-01 1.23900E-13 2.00123E-13
 -1      1938 2.01461E+01 4.69361E-02 1.51258E-03-1.37731E-01 1.17955E-14 3.34362E-13
 -1      1939 2.02153E+01 6.89740E-02-1.26943E-03-2.34460E-01 1.57319E-13 3.71967E-14
 -1      1940 2.01085E+01 4.64303E-02 1.76119E-03-1.05886E-01-6.79025E-15 4.50229E-13
 -1      1941 2.00703E+01 4.61941E-02 1.60541E-03-7.92540E-02-1.02843E-13 3.94202E-13
 -1      1942 2.00614E+01 6.27388E-02-1.01545E-03-9.43496E-02-1.63585E-13 3.89873E-13
 -1      1943 2.01251E+01 6.84997E-02-1.51975E-03-1.61500E-01 1.30888E-13 2.65994E-13
 -1      1944 1.96023E+01 1.42559E-01 7.92345E-03 2.59346E-01 1.36219E-13 4.20381E-13
 -1      1945 1.98741E+01 2.04387E-01 1.64406E-02 4.32599E-01 1.75401E-13 4.96566E-13
 -1      1946 2.00887E+01 3.51195E-01-1.44944E-03 6.55107E-01 2.21847E-13 3.48223E-13
 -1      1947 1.93617E+01 7.27376E-02 7.01042E-03 5.51389E-02 1.15159E-13 3.28097E-13
 -1      1948 1.94760E+01 1.02460E-01 1.42578E-02 1.44139E-01 9.26845E-14 3.74483E-13
 -1      1949 1.96974E+01 1.66152E-01-1.93116E-03 2.55118E-01 1.37728E-13 2.75720E-13
 -1      1950 1.92747E+01 3.75509E-02 4.52042E-03-5.24033E-02 5.80013E-14 3.38712E-13
 -1      1951 1.93032E+01 5.31304E-02 8.43351E-03-4.32174E-03 8.60887E-14 3.34981E-13
 -1      1952 1.94999E+01 8.21984E-02-2.87209E-03 4.10430E-02 1.00338E-13 2.23827E-13
 -1      1953 1.92792E+01 1.84232E-02 3.00285E-03-1.08256E-01 1.65113E-14 2.55451E-13
 -1      1954 1.92609E+01 2.69692E-02 4.49056E-03-8.21854E-02 2.77284E-14 3.06689E-13
 -1      1955 1.94258E+01 3.99387E-02-2.93786E-03-7.42761E-02 5.51620E-14 1.77104E-13
 -1      1956 1.93366E+01 7.90383E-03 2.20396E-03-1.35442E-01 1.04780E-13 2.15334E-13
 -1      1957 1.92931E+01 1.25124E-02 2.34963E-03-1.21774E-01 4.76121E-14 2.34423E-13
 -1      1958 1.94274E+01 1.74334E-02-2.44851E-03-1.35112E-01 6.93599E-14 9.48694E-14
 -1      1959 1.94241E+01 2.60931E-03 1.76191E-03-1.47090E-01 1.40087E-13 1.52653E-13
 -1      1960 1.93673E+01 4.79904E-03 1.23533E-03-1.40275E-01 1.24719E-13 2.17924E-13
 -1      1961 1.94745E+01 5.64954E-03-1.88311E-03-1.65457E-01 1.35191E-13 7.18007E-14
 -1      1962 1.95289E+01 8.19134E-04 1.51537E-03-1.51504E-01 1.64619E-13 1.10865E-13
 -1      1963 1.94652E+01 1.41955E-03 6.69297E-04-1.47964E-01 1.63894E-13 1.50992E-13
 -1      1964 1.95491E+01 4.45385E-04-1.43572E-03-1.79619E-01 1.85320E-13 9.45883E-14
 -1      1965 1.96447E+01 1.58132E-03 1.40958E-03-1.54412E-01-1.97276E-14 9.11785E-14
 -1      1966 1.95768E+01 1.08090E-03 4.22213E-04-1.51625E-01 7.42800E-14 1.19367E-13
 -1      1967 1.96408E+01-2.98616E-04-1.14135E-03-1.86931E-01 9.62339E-14 9.32551E-14
 -1      1968 1.97702E+01 4.35554E-03 1.42856E-03-1.60083E-01-8.77597E-15 6.85117E-14
 -1      1969 1.96984E+01 3.05064E-03 3.84322E-04-1.56118E-01-2.12767E-14 9.11568E-14
 -1      1970 1.97448E+01 2.25528E-03-9.85128E-04-1.93993E-01 2.47079E-15 4.95721E-14
 -1      1971 1.99076E+01 8.85036E-03 1.56881E-03-1.71955E-01 9.97877E-14 3.72094E-14
 -1      1972 1.98302E+01 6.91980E-03 4.97289E-04-1.65207E-01 4.09372E-14 5.06826E-14
 -1      1973 1.98605E+01 7.46337E-03-9.46046E-04-2.05835E-01 5.54960E-14-1.78216E-17
 -1      1974 2.00621E+01 1.49292E-02 1.83056E-03-1.93014E-01 1.12099E-13-9.91468E-15
 -1      1975 1.99757E+01 1.24803E-02 7.25577E-04-1.82040E-01 1.22951E-13 2.81155E-14
 -1      1976 1.99902E+01 1.49931E-02-1.00780E-03-2.26584E-01 1.25478E-13-3.37358E-14
 -1      1977 2.02410E+01 2.25362E-02 2.21244E-03-2.26014E-01 5.23680E-15-4.34351E-14
 -1      1978 2.01412E+01 1.96423E-02 1.04358E-03-2.09436E-01 1.30742E-14-4.44358E-14
 -1      1979 2.01387E+01 2.46939E-02-1.15961E-03-2.59860E-01 5.74293E-14-2.52104E-14
 -1      1980 2.04541E+01 3.16050E-02 2.70315E-03-2.73549E-01-1.13954E-13 2.37764E-14
 -1      1981 2.03351E+01 2.83514E-02 1.42697E-03-2.50014E-01-1.94499E-14-4.41174E-14
 -1      1982 2.03127E+01 3.64788E-02-1.39519E-03-3.08975E-01-2.18972E-14-1.01779E-13
 -1      1983 2.07126E+01 4.19088E-02 3.26690E-03-3.37908E-01-6.13604E-14-1.58581E-15
 -1      1984 2.05676E+01 3.84660E-02 1.84333E-03-3.06155E-01-9.55230E-14 2.05536E-14
 -1      1985 2.05208E+01 5.01577E-02-1.71222E-03-3.76905E-01-8.41894E-14-6.87336E-14
 -1      1986 2.10286E+01 5.27952E-02 3.81880E-03-4.20598E-01 6.84906E-14-4.65433E-14
 -1      1987 2.08504E+01 4.95450E-02 2.23991E-03-3.79680E-01-6.52408E-15-4.27125E-14
 -1      1988 2.07724E+01 6.51543E-02-2.11209E-03-4.65941E-01 4.08601E-14-1.02131E-13
 -1      1989 2.14142E+01 6.27181E-02 4.18805E-03-5.21251E-01 5.92965E-14 4.03341E-14
 -1      1990 2.11958E+01 6.04706E-02 2.52756E-03-4.71066E-01 9.31069E-14 1.27536E-14
 -1      1991 2.10774E+01 8.00066E-02-2.59997E-03-5.76811E-01 7.67192E-14-8.22616E-14
 -1      1992 2.18788E+01 6.84630E-02 4.07373E-03-6.35545E-01-1.59977E-13-7.07811E-15
 -1      1993 2.16149E+01 6.88060E-02 2.56426E-03-5.77870E-01-5.41628E-14 4.77873E-15
 -1      1994 2.14451E+01 9.15123E-02-3.18203E-03-7.06901E-01-3.81960E-14-6.88697E-14
 -1      1995 2.24256E+01 6.40091E-02 3.01830E-03-7.51587E-01-1.24271E-13-4.60370E-14
 -1      1996 2.21154E+01 6.97919E-02 2.14956E-03-6.91926E-01-1.38526E-13-5.34585E-14
 -1      1997 2.18823E+01 9.33977E-02-3.85190E-03-8.47101E-01-1.10975E-13-1.57512E-13
 -1      1998 2.30449E+01 3.92680E-02 4.67219E-04-8.44355E-01 3.88307E-15 2.51812E-14
 -1      1999 2.26970E+01 5.50474E-02 1.05549E-03-7.94846E-01-9.84657E-14-5.02285E-14
 -1      2000 2.23904E+01 7.45857E-02-4.54857E-03-9.76738E-01-1.10624E-13-1.30286E-13
 -1      2001 2.37062E+01-2.01479E-02-3.95391E-03-8.68769E-01 1.08136E-13 3.80425E-14
 -1      2002 2.33444E+01 1.16250E-02-8.70741E-04-8.51914E-01 8.20046E-14 7.64935E-14
 -1      2003 2.29616E+01 1.79153E-02-5.05481E-03-1.05664E+00 7.67396E-14-9.99543E-14
 -1      2004 2.43474E+01-1.28944E-01-9.79751E-03-7.55078E-01-5.31936E-14 5.52856E-15
 -1      2005 2.40176E+01-7.64040E-02-3.52407E-03-8.06412E-01 4.90558E-14 2.72126E-14
 -1      2006 2.35732E+01-9.78627E-02-4.81557E-03-1.02234E+00 8.24653E-14-9.96130E-14
 -1      2007 2.48670E+01-2.88062E-01-1.49247E-02-4.17357E-01-2.77767E-13-4.05002E-14
 -1      2008 2.46401E+01-2.18972E-01-6.40251E-03-5.81316E-01-2.01632E-13-2.41543E-14
 -1      2009 2.41791E+01-2.86517E-01-2.77368E-03-7.84506E-01-1.59450E-13-1.99693E-14
 -1      2010 2.51251E+01-4.55465E-01-1.52560E-02 2.04907E-01-1.78413E-13 1.90593E-13
 -1      2011 2.50881E+01-3.97171E-01-8.86723E-03-1.03515E-01-1.92141E-13 5.34436E-14
 -1      2012 2.46984E+01-5.24994E-01 2.22579E-03-2.52776E-01-2.46973E-13-3.77671E-14
 -1      2013 2.49671E+01-5.14646E-01-7.39386E-03 1.04826E+00-8.57994E-15 2.89734E-13
 -1      2014 2.51935E+01-5.26550E-01-1.04974E-02 6.27704E-01-1.15538E-13 2.26702E-13
 -1      2015 2.50014E+01-7.05637E-01 1.02531E-02 5.92071E-01-1.57442E-13 7.33268E-14
 -1      2016 2.43133E+01-3.10392E-01 5.22860E-03 1.80966E+00 5.98410E-14 5.72379E-13
 -1      2017 2.48039E+01-4.53037E-01-1.03306E-02 1.43055E+00-2.38871E-14 4.28085E-13
 -1      2018 2.49302E+01-6.36653E-01 1.58966E-02 1.56951E+00-5.58026E-14 2.35981E-13
 -1      2019 2.32684E+01 2.11783E-01 7.04438E-04 1.97163E+00 2.88073E-13 5.24965E-13
 -1      2020 2.39113E+01-4.98518E-02-1.31230E-02 1.89431E+00 1.32001E-13 6.57082E-13
 -1      2021 2.44039E+01-1.34697E-01 8.55912E-03 2.22186E+00 9.97301E-14 4.22381E-13
 -1      2022 2.23121E+01 7.73291E-01-1.85604E-02 1.13287E+00 3.64837E-13 1.87505E-13
 -1      2023 2.28402E+01 5.66593E-01-9.53879E-03 1.53549E+00 3.77400E-13 4.29715E-13
 -1      2024 2.35881E+01 6.79953E-01-1.61959E-02 1.93142E+00 4.14193E-13 3.95394E-13
 -1      2025 2.20712E+01 9.09134E-01-3.91183E-02-3.76365E-01 3.31429E-13-6.93993E-14
 -1      2026 2.22026E+01 9.36744E-01-1.32293E-04 3.23638E-01 3.58436E-13 1.04659E-13
 -1      2027 2.30354E+01 1.25440E+00-3.29499E-02 5.74355E-01 4.78069E-13 3.96946E-13
 -1      2028 2.27626E+01 4.97065E-01-3.34922E-02-1.65127E+00 2.64667E-14-3.05696E-13
 -1      2029 2.24037E+01 7.45278E-01 6.64804E-03-1.08330E+00 1.68084E-13-1.56892E-13
 -1      2030 2.31897E+01 1.12368E+00-2.45170E-02-1.15598E+00 2.81532E-13 1.39362E-13
 -1      2031 2.39172E+01-9.29119E-02-5.56135E-03-2.00481E+00-1.62326E-13-4.63612E-13
 -1      2032 2.32578E+01 1.70105E-01 6.28980E-04-1.85046E+00-1.66245E-13-4.51153E-13
 -1      2033 2.39113E+01 4.00575E-01-2.98911E-03-2.16695E+00-2.09260E-14-1.13279E-13
 -1      2034 2.48621E+01-4.51495E-01 1.66661E-02-1.48782E+00-1.79657E-13-3.42200E-13
 -1      2035 2.42355E+01-3.35894E-01-1.10068E-02-1.69985E+00-2.00161E-13-4.13454E-13
 -1      2036 2.46529E+01-3.62971E-01 3.01979E-03-2.06621E+00-2.19689E-13-3.25925E-13
 -1      2037 2.52585E+01-4.94533E-01 2.16324E-02-6.25684E-01-9.28146E-14-1.44372E-15
 -1      2038 2.48894E+01-5.20129E-01-1.74718E-02-9.80540E-01-1.20142E-13-1.49590E-13
 -1      2039 2.49981E+01-7.20366E-01-1.72854E-03-1.22738E+00-2.19616E-13-7.47302E-14
 -1      2040 2.51299E+01-3.60624E-01 1.38617E-02 1.35282E-01 9.15656E-14 1.64791E-13
 -1      2041 2.50672E+01-4.45418E-01-1.71358E-02-1.80477E-01-4.80171E-15 1.00214E-13
 -1      2042 2.48990E+01-6.80231E-01-8.08180E-03-2.53727E-01-8.59694E-14 1.90463E-13
 -1      2043 2.46547E+01-1.93269E-01 4.71082E-03 6.18977E-01 9.33836E-14 2.42285E-13
 -1      2044 2.48310E+01-2.75934E-01-1.31132E-02 4.14878E-01 6.63879E-14 1.79331E-13
 -1      2045 2.44935E+01-4.53091E-01-9.23198E-03 4.86894E-01 9.35137E-14 4.18002E-13
 -1      2046 2.40094E+01-6.35086E-02-1.12045E-03 8.38287E-01-1.02384E-13 1.65900E-13
 -1      2047 2.43250E+01-1.20347E-01-7.72063E-03 7.42009E-01 9.23142E-14 1.62837E-13
 -1      2048 2.39307E+01-2.17637E-01-6.60369E-03 9.05243E-01 1.40959E-13 4.05789E-13
 -1      2049 2.33204E+01 1.50842E-02-3.53115E-03 8.74823E-01 9.72493E-14-4.40585E-14
 -1      2050 2.36899E+01-1.56631E-02-2.87904E-03 8.54152E-01-1.33839E-13 1.52534E-14
 -1      2051 2.33166E+01-4.90144E-02-3.52177E-03 1.05898E+00-4.97428E-14 2.14484E-13
 -1      2052 2.26635E+01 5.32322E-02-3.82096E-03 8.09533E-01 3.59042E-14 2.00180E-13
 -1      2053 2.30299E+01 4.09570E-02 6.04344E-04 8.31798E-01 9.10345E-14-3.67922E-14
 -1      2054 2.27165E+01 4.68506E-02-1.40012E-03 1.04308E+00 8.70710E-14-7.40293E-16
 -1      2055 2.20775E+01 6.59298E-02-3.19238E-03 7.00022E-01 7.77173E-14 2.47463E-13
 -1      2056 2.24096E+01 6.44086E-02 2.67063E-03 7.41624E-01 1.30612E-13 2.43970E-13
 -1      2057 2.21672E+01 8.93827E-02-3.41306E-04 9.38642E-01 1.89783E-14 2.02797E-13
 -1      2058 2.15766E+01 6.50464E-02-2.33694E-03 5.80392E-01-1.96481E-13-1.00348E-13
 -1      2059 2.18616E+01 6.87701E-02 3.61344E-03 6.27155E-01-8.04049E-14-2.25176E-14
 -1      2060 2.16858E+01 1.00032E-01 1.88727E-06 7.99981E-01 4.46390E-14 2.29829E-15
 -1      2061 2.11614E+01 5.82211E-02-1.54482E-03 4.67804E-01 1.97507E-14-1.12702E-13
 -1      2062 2.13972E+01 6.38502E-02 3.81970E-03 5.12461E-01-1.07685E-13-4.53397E-14
 -1      2063 2.12774E+01 9.46024E-02-1.00583E-05 6.58073E-01-1.13993E-13-8.86538E-14
 -1      2064 2.08254E+01 4.98848E-02-8.91007E-04 3.68928E-01 5.15753E-13-3.86712E-13
 -1      2065 2.10152E+01 5.55756E-02 3.61998E-03 4.08568E-01 2.47165E-13-2.86910E-13
 -1      2066 2.09396E+01 8.29000E-02-1.41941E-04 5.27785E-01 3.26820E-13-2.82205E-13
 -1      2067 2.05593E+01 4.24950E-02-3.68246E-04 2.84432E-01 4.03677E-13-4.05458E-13
 -1      2068 2.07085E+01 4.72855E-02 3.24272E-03 3.18705E-01 5.74223E-13-2.29783E-13
 -1      2069 2.06662E+01 7.04697E-02-2.86284E-04 4.14116E-01 5.38820E-13-1.08434E-13
 -1      2070 2.03542E+01 3.73472E-02 1.46657E-05 2.11679E-01 1.25704E-13-5.17484E-13
 -1      2071 2.04679E+01 4.08076E-02 2.81068E-03 2.41722E-01 2.57129E-13-5.20693E-13
 -1      2072 2.04497E+01 6.03197E-02-4.12948E-04 3.16407E-01 2.55409E-13-1.56898E-13
 -1      2073 2.02022E+01 3.49096E-02 2.13901E-04 1.46700E-01-1.40085E-14-6.52523E-13
 -1      2074 2.02849E+01 3.69225E-02 2.32872E-03 1.74301E-01 8.33535E-15-5.45827E-13
 -1      2075 2.02826E+01 5.37075E-02-5.84437E-04 2.31077E-01 8.48731E-14-4.54608E-13
 -1      2076 2.00976E+01 3.49243E-02 7.34618E-04 8.60201E-02-1.13259E-13-5.19289E-13
 -1      2077 2.01516E+01 3.54277E-02 1.69589E-03 1.12667E-01-7.31329E-14-5.25131E-13
 -1      2078 2.01581E+01 5.10637E-02-6.51834E-04 1.53935E-01-8.22316E-14-3.33215E-13
 -1      2079 2.00420E+01 3.38100E-02 1.27083E-03 4.33029E-02-8.52470E-14-3.61306E-13
 -1      2080 2.00739E+01 3.65678E-02 1.16260E-03 6.78620E-02-2.36603E-14-5.15366E-13
 -1      2081 2.00824E+01 5.18037E-02-5.87637E-04 9.65696E-02-6.10323E-14-2.16102E-13
 -1      2082 2.00410E+01 4.96383E-02 2.27077E-05 5.68879E-02-9.24705E-14-6.42037E-15
 -1      2083 2.00023E+01 3.14410E-01-8.43851E-04 1.71082E-01-4.39355E-14 4.42623E-13
 -1      2084 2.00141E+01 2.59809E-01 1.05434E-03 1.66357E-01-1.58561E-13 6.49883E-13
 -1      2085 2.00253E+01 2.07560E-01-2.63306E-04 1.53778E-01-2.28698E-13 6.53307E-13
 -1      2086 2.00358E+01 1.58513E-01 1.32942E-03 1.35859E-01-4.11761E-13 8.21756E-13
 -1      2087 2.00296E+01 2.41262E-01 2.52677E-05 2.06330E-01-3.35905E-13 6.26840E-13
 -1      2088 2.00387E+01 1.20099E-01 2.15700E-04 1.11326E-01-3.92900E-13 6.17127E-13
 -1      2089 2.00438E+01 8.17495E-02 1.14516E-03 8.58049E-02-2.29093E-13 1.28438E-13
 -1      2090 2.00625E+01 8.41408E-02 7.64443E-04 1.06648E-01-1.41821E-13 1.32772E-14
 -1      2091 2.00517E+01 1.52602E-01-5.75089E-04 1.63837E-01-2.56249E-13 6.80508E-13
 -1      2092 1.99814E+01 4.15926E-01-1.39991E-03 1.60493E-01-2.86879E-13-8.95411E-13
 -1      2093 1.99918E+01 3.64045E-01 2.18211E-04 1.67983E-01-1.54635E-13-1.85945E-13
 -1      2094 1.99964E+01 3.42410E-01 6.19185E-04 2.15937E-01-2.58318E-13-8.91294E-14
 -1      2095 1.99648E+01 5.02011E-01-1.82356E-03 1.25095E-01-4.35816E-14-3.06367E-13
 -1      2096 1.99727E+01 4.58947E-01-6.48224E-04 1.42950E-01 7.65989E-17-5.86715E-13
 -1      2097 1.99667E+01 4.34933E-01 1.21248E-03 1.92200E-01-1.38443E-13-4.41573E-13
 -1      2098 1.99545E+01 5.59313E-01-2.00939E-03 7.17490E-02-2.63478E-13 4.16231E-14
 -1      2099 1.99590E+01 5.32198E-01-1.40487E-03 9.65114E-02-9.43406E-14 2.55053E-14
 -1      2100 1.99442E+01 5.08183E-01 1.71234E-03 1.39854E-01 2.96854E-14-1.81759E-13
 -1      2101 1.99512E+01 5.80688E-01-1.93826E-03 9.15969E-03-4.85577E-13-1.43046E-13
 -1      2102 1.99520E+01 5.73190E-01-1.91218E-03 3.68834E-02-4.09532E-13-2.98756E-14
 -1      2103 1.99314E+01 5.52349E-01 1.98403E-03 6.81806E-02-3.55585E-13-1.38955E-13
 -1      2104 1.99548E+01 5.64010E-01-1.61872E-03-5.35137E-02-2.22524E-13-9.99381E-14
 -1      2105 1.99521E+01 5.76899E-01-2.11610E-03-2.68390E-02-2.74236E-13 3.98130E-15
 -1      2106 1.99290E+01 5.62475E-01 1.99815E-03-1.17376E-02-5.37793E-13-2.45006E-14
 -1      2107 1.99645E+01 5.12233E-01-1.09898E-03-1.07656E-01-4.88279E-13-3.47595E-13
 -1      2108 1.99588E+01 5.43447E-01-2.00630E-03-8.57014E-02-3.06777E-13-1.81719E-13
 -1      2109 1.99364E+01 5.38059E-01 1.76898E-03-8.85725E-02-3.38157E-13-2.74323E-13
 -1      2110 1.99788E+01 4.34375E-01-4.00207E-04-1.45529E-01-1.06384E-13-1.62239E-14
 -1      2111 1.99708E+01 4.78422E-01-1.65742E-03-1.31430E-01-3.26562E-13-2.86591E-13
 -1      2112 1.99525E+01 4.83470E-01 1.38167E-03-1.51609E-01-2.22573E-13-1.89533E-13
 -1      2113 1.99968E+01 3.38166E-01 3.51824E-04-1.63034E-01-4.50472E-14 3.38392E-13
 -1      2114 1.99871E+01 3.90333E-01-1.13771E-03-1.58503E-01-2.78534E-14 2.86747E-13
 -1      2115 1.99751E+01 4.05565E-01 8.23939E-04-1.93185E-01 2.33056E-13 2.31689E-13
 -1      2116 2.00160E+01 2.37376E-01 1.01555E-03-1.56426E-01 5.22378E-14-1.25906E-13
 -1      2117 2.00059E+01 2.89686E-01-5.51933E-04-1.62712E-01 1.57536E-14 3.55433E-14
 -1      2118 2.00020E+01 3.12988E-01 1.40310E-04-2.07666E-01 8.76111E-14 2.12684E-13
 -1      2119 2.00336E+01 1.41098E-01 4.23343E-04-1.25728E-01-8.79937E-14-2.08370E-13
 -1      2120 2.00250E+01 1.89148E-01-7.26480E-05-1.42719E-01 3.21511E-14-2.23859E-13
 -1      2121 2.00305E+01 2.17363E-01-1.98869E-04-1.92524E-01 1.12402E-13-2.36039E-13
 -1      2122 1.03978E+01-5.51634E+00-1.96633E-01 6.28359E+00-2.21323E-13 4.29080E-13
 -1      2123 6.13490E+00-6.98919E+00-4.56184E-01 4.76902E+00-1.55598E-13 3.36731E-13
 -1      2124-7.04888E-02-7.45184E+00-4.56377E-01 2.83130E-01-1.31978E-14 6.16174E-15
 -1      2125 8.42319E-02-8.07477E+00-5.46350E-01-1.15588E+00-3.56937E-14 2.36422E-13
 -1      2126 3.45460E+00-6.64165E+00-3.25563E-01 3.93342E+00-5.25135E-14 1.47965E-13
 -1      2127 1.50322E+00-7.26397E+00-4.27000E-01 2.46991E+00-5.52614E-14-7.12763E-14
 -1      2128 6.87126E+00-5.28249E+00-1.00799E-01 5.46764E+00-1.85074E-13 1.25899E-13
 -1      2129 2.01348E+01-3.16618E+00 1.71224E-02 6.68347E+00 2.07390E-13 6.86118E-14
 -1      2130 1.57667E+01-5.13069E+00-1.64147E-01 6.20646E+00-1.29452E-13 2.17576E-13
 -1      2131 1.05563E+01-5.63775E+00-3.82274E-01-5.98552E+00-1.36668E-13 3.97668E-13
 -1      2132 1.39836E+01-4.22472E+00-1.46089E-01-6.90817E+00-2.11609E-13 2.72393E-13
 -1      2133 1.11799E+01-5.58881E+00-9.35672E-02-6.83712E+00 1.54432E-13 4.07063E-13
 -1      2134 2.90438E+01-2.80387E-01 1.63965E-01 5.63215E+00 3.68039E-13 3.81917E-14
 -1      2135 2.36801E+01-2.20457E+00-1.91879E-01 5.49669E+00 3.39395E-13 1.00364E-13
 -1      2136 8.48680E-01-8.11811E+00-5.47727E-01-2.14556E+00-5.99520E-14 3.33789E-13
 -1      2137 1.96759E+00-6.94031E+00-3.91972E-01-3.34789E+00-1.41609E-13 5.24303E-13
 -1      2138 1.26501E+00-5.38050E+00-3.06656E-01-1.97505E+00-2.87548E-14 3.07920E-13
 -1      2139 1.95225E+01 4.01679E+00-2.70139E-02-1.70256E+00-1.35064E-13-4.96343E-13
 -1      2140 1.96480E+01 3.94651E+00-2.46046E-02-1.95418E+00-1.78503E-13-4.66453E-13
 -1      2141 1.99718E+01 3.24772E+00-1.37393E-02-1.91811E+00-2.12658E-13-4.20103E-13
 -1      2142 1.97026E+01 3.58752E+00-7.05233E-03-1.51982E+00-1.22049E-13-4.71727E-13
 -1      2143 3.92407E+01 6.27209E+00 2.84646E-01 6.03661E-01 4.68570E-13-3.41616E-13
 -1      2144 3.78282E+01 5.04404E+00 2.91478E-01 1.77199E+00 4.50640E-13-2.53908E-13
 -1      2145 4.05363E+01 7.19498E+00 3.91714E-01-3.49733E-01 1.71307E-13-4.28879E-13
 -1      2146 3.86187E+01 7.28586E+00 1.12270E-01 4.19960E-01 3.03813E-13-2.80373E-13
 -1      2147 3.75965E+01 5.57419E+00 1.16040E-01-1.16195E+00 2.44527E-13-4.51306E-13
 -1      2148 4.02121E+01 6.40797E+00 3.26547E-01-5.54557E-01 1.08136E-13-4.61187E-13
 -1      2149 3.53752E+01 7.56415E+00 2.67750E-01 5.34274E-01 1.98674E-13-1.96398E-13
 -1      2150 3.31887E+01 1.87290E+00 2.22963E-02-3.10522E+00 2.06911E-13-4.05898E-13
 -1      2151 3.68569E+01 3.50564E+00 2.35141E-01-2.22349E+00 3.26766E-13-4.19109E-13
 -1      2152 2.61891E+01-1.91245E+00-1.27511E-01-4.70591E+00 1.78357E-13-3.78919E-13
 -1      2153 3.09999E+01 1.45811E-02 1.65976E-01-4.63007E+00 1.42997E-13-5.12257E-13
 -1      2154 1.65094E+01-4.73426E+00-3.23843E-01-5.96262E+00 2.76001E-13-2.98650E-13
 -1      2155 2.18081E+01-3.03563E+00-2.74852E-02-6.49098E+00 3.64375E-13-2.92544E-13
 -1      2156 8.40896E+00-6.57222E+00-4.15281E-01-5.34632E+00 1.18350E-13-3.86316E-13
 -1      2157 1.23982E+01-4.91717E+00-1.73545E-01-6.41428E+00 2.51132E-13-4.08618E-13
 -1      2158 2.54481E+00-7.24511E+00-4.27740E-01-3.22286E+00-2.75890E-13-8.56371E-13
 -1      2159 5.04868E+00-6.09978E+00-2.41490E-01-4.74933E+00-7.22755E-14-6.83953E-13
 -1      2160 4.98289E-01-6.28036E+00-2.69816E-01-2.15677E-01-3.25254E-13-4.23273E-13
 -1      2161 9.35272E-01-6.99205E+00-3.85580E-01-1.80213E+00-1.91097E-13-6.75682E-13
 -1      2162 3.36722E+00-4.68735E+00-1.47798E-01-3.32496E+00-1.91458E-13-7.57894E-13
 -1      2163 2.41104E+00-6.64020E+00-3.64845E-01 3.72805E+00-6.02740E-13-3.14415E-13
 -1      2164 9.19546E-01-6.69519E+00-3.55307E-01 2.26239E+00-4.78201E-13-3.87523E-13
 -1      2165 8.88582E+00-5.25137E+00-1.55671E-01 6.41435E+00-5.10703E-13-3.44211E-13
 -1      2166 5.25081E+00-6.73110E+00-3.97898E-01 4.89539E+00-5.12701E-13-2.58293E-13
 -1      2167 1.83544E+01-3.79262E+00-4.69778E-02 7.03494E+00-4.73399E-13-5.03098E-13
 -1      2168 1.34001E+01-5.38248E+00-2.55371E-01 6.35066E+00-5.60385E-13-3.79141E-13
 -1      2169 2.78265E+01-1.18695E+00 1.40372E-02 4.95918E+00-5.49782E-13-1.55820E-13
 -1      2170 2.30272E+01-3.03382E+00-1.42652E-01 5.34305E+00-5.13201E-13-2.68174E-13
 -1      2171 3.58201E+01 3.77540E+00 4.34449E-01 3.84943E+00-4.77278E-13-5.47284E-13
 -1      2172 3.12464E+01 1.66991E+00 8.43938E-02 3.76849E+00-5.80834E-13-4.27103E-13
 -1      2173 3.91918E+01 6.13171E+00 3.10511E-01 1.50838E+00-4.34375E-13-5.65603E-13
 -1      2174 3.70440E+01 5.18340E+00 2.26504E-01 2.69824E+00-4.62158E-13-6.46427E-13
 -1      2175 3.88964E+01 7.43648E+00 1.99254E-01-3.37437E-01-4.76841E-13-3.60864E-13
 -1      2176 3.96897E+01 7.25264E+00 3.78594E-01 7.44716E-01-4.85834E-13-5.13922E-13
 -1      2177 3.81071E+01 6.03460E+00 3.05703E-01-2.07632E+00-1.83686E-13-1.61038E-13
 -1      2178 3.91274E+01 6.89024E+00 2.99570E-01-7.39386E-01-2.17659E-13-3.62016E-13
 -1      2179 3.29417E+01 2.75829E+00 4.16090E-02-3.50944E+00-1.99396E-13-2.40474E-13
 -1      2180 3.62876E+01 4.13675E+00 2.49718E-01-2.64018E+00-1.91264E-13-3.25406E-13
 -1      2181 2.68550E+01-4.53441E-01-7.69757E-02-4.98735E+00-3.23075E-13-1.14353E-13
 -1      2182 3.14525E+01 1.34465E+00 2.22160E-01-4.88167E+00-2.30510E-13-2.10609E-13
 -1      2183 3.17759E+01 9.93842E-01 1.77712E-01-1.51957E+00-1.54515E-13-5.10259E-13
 -1      2184 1.85239E+01-3.64775E+00-2.17795E-01-6.22539E+00-2.17160E-13 2.66454E-15
 -1      2185 2.31223E+01-1.84403E+00 6.29449E-02-6.67879E+00-2.82552E-13-2.93099E-14
 -1      2186 3.58737E+01 2.68580E+00 2.13415E-01 2.86622E+00 4.27144E-13-2.13218E-13
 -1      2187 3.19378E+01 1.18317E+00 4.69251E-02 3.78990E+00 4.73774E-13-1.81966E-13
 -1      2188 2.42257E+01-4.32747E+00-1.25839E-02 5.13374E+00 1.04916E-13-5.20695E-14
 -1      2189 5.02237E+00-5.59240E+00-2.09591E-01-5.08687E+00 1.49880E-15 5.36016E-13
 -1      2190 2.07213E+01 1.10848E+00-2.07110E-02-1.61631E+00-2.72712E-13-7.00828E-14
 -1      2191 2.06157E+01 1.33034E+00-1.86388E-02-1.67787E+00-2.82279E-13-1.76956E-13
 -1      2192 1.98721E+00-5.20606E+00-2.09935E-01 1.86112E+00-1.14186E-13 8.51541E-14
 -1      2193 1.83345E+01-5.73589E+00-1.23465E-01 6.32502E+00-2.50078E-13 8.47308E-14
 -1      2194 1.43791E+01-5.62278E+00-1.08276E-01 6.44998E+00-3.02480E-13 4.57884E-13
 -1      2195 1.36666E+01-5.31558E+00 1.20215E-01 6.77698E+00-3.33844E-13 3.84623E-13
 -1      2196 2.00430E+01 1.15513E-01 7.24768E-04-1.19276E-01-1.07873E-13-7.54010E-14
 -1      2197 1.83911E+01-4.94637E+00-8.55322E-03-6.64413E+00-1.83742E-14-1.07470E-13
 -1      2198 3.48848E+01 3.39432E+00 2.48909E-01 9.78572E-02 5.47895E-13-2.82774E-13
 -1      2199 2.67722E+01-2.63645E+00 8.47647E-02-4.37579E+00-1.15602E-13-2.18048E-13
 -1      2200 3.44691E+01 4.96488E+00 2.21756E-01-1.69639E-01-1.68032E-13-4.52527E-13
 -1      2201 3.67757E+01 7.41133E+00 2.21366E-01-1.03037E-01-3.38007E-13-4.17000E-13
 -1      2202 3.29826E+01 7.87097E+00-2.94557E-02 2.45083E-01-3.51108E-13-2.30413E-13
 -1      2203 3.32498E+01 7.20184E+00-1.63401E-02 4.10499E-01-2.56684E-13-4.71567E-13
 -1      2204 3.56291E+01 7.37660E+00 3.09701E-01-5.84277E-02-4.82892E-13-4.24827E-13
 -1      2205 3.42388E+01 4.18883E+00 2.68373E-01 6.99452E-01-4.09978E-13-4.40814E-13
 -1      2206 2.95789E+01-6.03251E-01 4.79466E-02 3.09051E+00-4.85334E-13-2.24654E-13
 -1      2207 2.82935E+01-2.55748E+00 1.29514E-01 2.39726E+00-3.62183E-13-3.10862E-14
 -1      2208 3.03634E+01-4.25709E-01-2.19989E-01 9.66479E-01-3.40179E-13-2.22600E-13
 -1      2209 2.26504E+01-4.45066E+00 8.17600E-02 5.62955E+00-2.40363E-13-1.21125E-13
 -1      2210 1.32448E+01-5.39503E+00-2.47587E-02 6.93644E+00-2.32814E-13-2.29046E-13
 -1      2211 1.68180E+00-5.09238E+00-1.62540E-01 1.12062E+00-3.09856E-13-4.16667E-13
 -1      2212 2.84109E+00-2.85507E+00 6.35499E-02-7.67707E-02-1.00898E-13-5.18419E-13
 -1      2213 3.09526E+00-3.27204E+00-2.72659E-02 2.50607E+00-1.30090E-13-3.77531E-13
 -1      2214 8.78512E+00-5.66301E+00-1.50042E-01-5.94954E+00-8.89289E-14-5.58054E-13
 -1      2215 1.70275E+01-5.62260E+00-5.50910E-02-6.49864E+00 1.59484E-13-3.71342E-13
 -1      2216 2.58341E+01-3.88980E+00 9.19513E-02-4.53544E+00 1.30895E-13-2.58127E-13
 -1      2217 3.49640E+01 4.38116E+00 2.52892E-01 4.16767E-01 1.87295E-13-2.96096E-13
 -1      2218 3.09594E+01-1.02712E+00 1.91216E-01 2.47143E+00 3.84165E-13-2.36200E-13
 -1      2219 3.31685E+01 7.17467E+00-5.72301E-02-5.92112E-01 2.72726E-13 2.60694E-14
 -1      2220 3.68724E+01 6.83919E+00 1.80087E-01-1.97349E-01 3.48110E-13-1.28009E-13
 -1      2221 3.35232E+01 6.29039E+00-3.05585E-03-9.91930E-01 3.67484E-13-8.77354E-14
 -1      2222 3.20801E+01-3.15232E-01 1.56420E-01-1.33936E+00 1.28751E-13-2.66065E-13
 -1      2223 5.62079E+00-5.04226E+00-1.13411E-01 5.30629E+00-1.80633E-13-1.56430E-13
 -1      2224 2.01380E+01 5.07308E-01 3.82924E-03 6.77791E-01 2.16103E-13 2.08428E-13
 -1      2225 2.04047E+01 6.99823E-01 2.04705E-02 9.68922E-01 2.56951E-13 2.40680E-13
 -1      2226 1.95715E+01 3.52231E+00-1.11358E-02-5.90306E-01 2.33062E-14-4.45904E-13
 -1      2227 1.96062E+01 3.47595E+00-1.04404E-02-7.74462E-01-9.62533E-15-4.72507E-13
 -1      2228 1.96518E+01 3.38698E+00-1.27110E-02-9.38693E-01-4.20733E-14-4.82246E-13
 -1      2229 1.97117E+01 3.30576E+00-1.24765E-02-1.12806E+00-7.40489E-14-4.71932E-13
 -1      2230 1.97969E+01 3.04025E+00 3.72082E-04-7.90133E-01-2.22222E-14-4.46717E-13
 -1      2231 1.95256E+01 3.60578E+00-9.64405E-03 9.91692E-02 1.43390E-13-4.24809E-13
 -1      2232 1.95248E+01 3.60662E+00-9.65489E-03-7.99891E-02 1.08507E-13-4.30911E-13
 -1      2233 1.95511E+01 3.56587E+00-9.73798E-03 4.44586E-01 1.93847E-13-4.13781E-13
 -1      2234 1.95341E+01 3.58871E+00-1.01770E-02 2.64024E-01 1.70511E-13-4.34591E-13
 -1      2235 1.96914E+01 3.23028E+00-8.18979E-04 1.68954E-01 1.48872E-13-4.07710E-13
 -1      2236 1.96115E+01 3.46828E+00-1.06128E-02 7.88121E-01 2.42629E-13-3.50522E-13
 -1      2237 1.95760E+01 3.51576E+00-1.12576E-02 6.06854E-01 2.07080E-13-3.81855E-13
 -1      2238 1.97275E+01 3.16594E+00-4.39704E-04 4.86551E-01 1.92318E-13-3.81625E-13
 -1      2239 1.97196E+01 3.29302E+00-1.29494E-02 1.14143E+00 2.98158E-13-3.05691E-13
 -1      2240 1.96584E+01 3.37696E+00-1.29260E-02 9.52150E-01 2.69917E-13-3.29571E-13
 -1      2241 1.98029E+01 3.03080E+00 3.01734E-04 8.01688E-01 2.46222E-13-3.21793E-13
 -1      2242 1.98949E+01 3.00587E+00-1.81633E-02 1.48880E+00 3.27274E-13-2.02346E-13
 -1      2243 1.97975E+01 3.14781E+00-1.52170E-02 1.29825E+00 2.97695E-13-2.68406E-13
 -1      2244 1.99293E+01 2.80386E+00 1.97048E-03 1.10798E+00 2.87733E-13-2.66147E-13
 -1      2245 2.01676E+01 2.54469E+00-2.85113E-02 1.79362E+00 3.58123E-13-5.56950E-14
 -1      2246 2.00194E+01 2.78482E+00-1.71463E-02 1.61909E+00 3.34131E-13-1.36955E-13
 -1      2247 2.01199E+01 2.45162E+00 5.90645E-03 1.37422E+00 3.06504E-13-1.46000E-13
 -1      2248 2.03946E+01 8.56020E-01 1.30691E-02-9.98967E-01-2.24497E-13-2.02573E-13
 -1      2249 2.01832E+01 6.28437E-01-4.71963E-03-6.89620E-01-2.12310E-13-2.14901E-13
 -1      2250 1.14188E+01-4.88721E+00 4.49610E-02-6.76556E+00 2.51799E-13 3.53190E-13
 -1      2251 1.39039E+01-5.07087E+00 4.67209E-04-7.18050E+00 2.16216E-13 1.42955E-13
 -1      2252 1.98626E+01 2.70231E-01 4.82677E-03 2.82867E-01 1.37835E-13 1.31191E-13
 -1      2253 2.00216E+01 3.69690E-01 2.00636E-02 4.40657E-01 1.67789E-13 1.89689E-13
 -1      2254 2.02056E+01 6.38806E-01-1.23691E-03 7.03792E-01 2.18436E-13 8.67197E-14
 -1      2255 2.05405E+01 1.95547E+00-1.36942E-02-1.89791E+00-2.65177E-13-2.69411E-13
 -1      2256 2.04031E+01 1.21581E+00-7.13647E-03-1.28662E+00-2.44817E-13-2.35754E-13
 -1      2257 2.03796E+01 1.38156E+00 7.58938E-03-1.23436E+00-2.25086E-13-2.61295E-13
 -1      2258 2.02855E+01 2.38536E+00-5.08201E-03-1.84223E+00-2.50943E-13-3.33530E-13
 -1      2259 2.01192E+01 4.72300E-01 1.62419E-02-4.72175E-01-1.97461E-13-1.75415E-13
 -1      2260 1.99793E+01 3.48261E-01 1.65293E-04-2.99197E-01-1.53654E-13-1.98750E-13
 -1      2261 2.02410E+01 7.49569E-01-1.95460E-03-6.90534E-01-1.92169E-13-2.27629E-13
 -1      2262 1.99176E+01 2.64232E-01 1.08977E-02-1.59613E-01-1.38100E-13-1.97003E-13
 -1      2263 1.98413E+01 1.93999E-01 9.15548E-04-6.02278E-02-1.11111E-13-2.19546E-13
 -1      2264 2.00800E+01 4.22165E-01-3.74893E-03-3.03426E-01-1.51291E-13-2.00153E-13
 -1      2265 1.97991E+01 1.45850E-01 6.41623E-03 2.49376E-02-1.03938E-13-2.21239E-13
 -1      2266 1.97679E+01 1.05251E-01 1.01632E-03 8.15184E-02-1.13328E-13-2.15107E-13
 -1      2267 1.99633E+01 2.36212E-01-3.75427E-03-5.89484E-02-1.22712E-13-2.26094E-13
 -1      2268 1.97452E+01 7.71517E-02 3.60988E-03 1.31781E-01-1.06624E-13-2.31420E-13
 -1      2269 1.97436E+01 5.39299E-02 1.03154E-03 1.63093E-01-7.47007E-14-2.33837E-13
 -1      2270 1.98933E+01 1.28225E-01-3.09748E-03 8.99971E-02-1.31762E-13-2.40372E-13
 -1      2271 1.97365E+01 3.80330E-02 1.89427E-03 1.91801E-01-8.85174E-14-2.51067E-13
 -1      2272 1.97540E+01 2.57807E-02 1.05270E-03 2.08603E-01-9.09780E-14-2.53521E-13
 -1      2273 1.98618E+01 6.59365E-02-2.34863E-03 1.78016E-01-9.49964E-14-2.44396E-13
 -1      2274 1.97584E+01 1.78710E-02 8.41840E-04 2.24904E-01-9.35888E-14-2.59731E-13
 -1      2275 1.97883E+01 1.29740E-02 1.11345E-03 2.34204E-01-9.03559E-14-2.87065E-13
 -1      2276 1.98592E+01 3.24106E-02-1.72694E-03 2.29065E-01-1.18007E-13-2.76009E-13
 -1      2277 1.98011E+01 1.05813E-02 2.02938E-04 2.44502E-01-1.07937E-13-2.76137E-13
 -1      2278 1.98396E+01 1.08405E-02 1.22789E-03 2.51100E-01-1.29622E-13-2.63085E-13
 -1      2279 1.98776E+01 1.80891E-02-1.28236E-03 2.59800E-01-9.50782E-14-2.88061E-13
 -1      2280 1.98589E+01 1.23891E-02-1.67295E-04 2.59979E-01-1.12725E-13-2.37480E-13
 -1      2281 1.99041E+01 1.63536E-02 1.39893E-03 2.67271E-01-8.32925E-14-2.51883E-13
 -1      2282 1.99114E+01 1.71773E-02-9.98599E-04 2.82034E-01-1.06586E-13-2.23067E-13
 -1      2283 1.99288E+01 2.07371E-02-3.58218E-04 2.78049E-01-7.65105E-14-2.44438E-13
 -1      2284 1.99803E+01 2.73396E-02 1.61792E-03 2.88452E-01-4.46841E-14-2.60538E-13
 -1      2285 1.99575E+01 2.58486E-02-8.43341E-04 3.04273E-01-8.32443E-14-1.77278E-13
 -1      2286 2.00101E+01 3.36671E-02-4.27200E-04 3.03492E-01-2.91954E-15-2.32437E-13
 -1      2287 2.00685E+01 4.19784E-02 1.86443E-03 3.18644E-01 2.41758E-14-1.92072E-13
 -1      2288 2.00144E+01 4.12777E-02-7.85878E-04 3.32638E-01-2.67581E-14-1.39585E-13
 -1      2289 2.01038E+01 4.93795E-02-4.09741E-04 3.39490E-01-1.31524E-14-2.52944E-13
 -1      2290 2.01703E+01 5.83969E-02 2.10348E-03 3.60291E-01-4.28325E-14-2.91039E-13
 -1      2291 2.00822E+01 6.09992E-02-8.01376E-04 3.71342E-01-2.13801E-14-2.11254E-13
 -1      2292 2.02120E+01 6.58330E-02-3.23836E-04 3.87649E-01-3.53417E-14-2.50065E-13
 -1      2293 2.02881E+01 7.42596E-02 2.28047E-03 4.14147E-01-7.44782E-15-2.46505E-13
 -1      2294 2.01620E+01 8.23642E-02-8.72142E-04 4.22832E-01-4.88291E-14-2.59116E-13
 -1      2295 2.03376E+01 8.03166E-02-1.71140E-04 4.47706E-01 2.32845E-14-2.17856E-13
 -1      2296 2.04246E+01 8.63141E-02 2.31475E-03 4.78829E-01 7.62685E-14-1.55294E-13
 -1      2297 2.02559E+01 1.01986E-01-9.89233E-04 4.87598E-01 3.26257E-14-1.51224E-13
 -1      2298 2.04837E+01 8.89694E-02 6.36971E-05 5.16923E-01 2.10261E-14-1.63145E-13
 -1      2299 2.05826E+01 8.98907E-02 2.09361E-03 5.50048E-01-2.33229E-14-1.78570E-13
 -1      2300 2.03667E+01 1.15130E-01-1.15516E-03 5.63670E-01 1.04973E-14-1.67199E-13
 -1      2301 2.06537E+01 8.62838E-02 4.13734E-04 5.89135E-01-5.99947E-14-2.43760E-13
 -1      2302 2.07644E+01 7.84459E-02 1.47002E-03 6.19502E-01-6.84370E-14-1.97888E-13
 -1      2303 2.04981E+01 1.15073E-01-1.38696E-03 6.45752E-01-8.65852E-14-1.96980E-13
 -1      2304 2.08506E+01 6.47436E-02 9.26410E-04 6.53481E-01-8.16074E-14-2.02074E-13
 -1      2305 2.09715E+01 4.33973E-02 2.70665E-04 6.73555E-01-2.50715E-14-2.24475E-13
 -1      2306 2.06547E+01 9.25894E-02-1.71635E-03 7.24033E-01-6.42773E-14-2.19002E-13
 -1      2307 2.10766E+01 1.49689E-02 1.64738E-03 6.93008E-01 1.99220E-14-2.82702E-13
 -1      2308 2.12038E+01-2.51996E-02-1.67385E-03 6.91989E-01 4.44929E-14-2.77061E-13
 -1      2309 2.08421E+01 3.59829E-02-2.17914E-03 7.82750E-01-5.79091E-14-1.98477E-13
 -1      2310 2.13320E+01-7.28826E-02 2.57588E-03 6.83604E-01 9.91225E-14-3.31916E-13
 -1      2311 2.14588E+01-1.36131E-01-4.45293E-03 6.47611E-01 9.82278E-14-3.49027E-13
 -1      2312 2.10670E+01-6.75095E-02-2.77817E-03 7.98830E-01 3.89026E-14-2.25598E-13
 -1      2313 2.16134E+01-2.05220E-01 3.57644E-03 5.94389E-01 6.27094E-14-3.66666E-13
 -1      2314 2.17289E+01-2.91218E-01-7.92176E-03 5.08213E-01 7.59520E-14-3.29001E-13
 -1      2315 2.13359E+01-2.27474E-01-3.39489E-03 7.41387E-01 6.37859E-14-3.62751E-13
 -1      2316 2.19088E+01-3.77160E-01 4.23751E-03 3.91672E-01 8.96321E-14-3.17089E-13
 -1      2317 2.19978E+01-4.74996E-01-1.14294E-02 2.43430E-01 6.85372E-14-2.94426E-13
 -1      2318 2.16514E+01-4.41388E-01-3.64535E-03 5.73782E-01 6.98357E-14-3.24370E-13
 -1      2319 2.21913E+01-5.60130E-01 3.74088E-03 4.99004E-02 3.95634E-14-2.79503E-13
 -1      2320 2.22345E+01-6.40925E-01-1.34704E-02-1.60036E-01 6.45664E-14-2.30107E-13
 -1      2321 2.20039E+01-6.79776E-01-2.72975E-03 2.61373E-01 4.32782E-14-3.16224E-13
 -1      2322 2.24107E+01-6.88652E-01 9.52901E-04-4.26337E-01 3.50635E-14-1.89869E-13
 -1      2323 2.23888E+01-7.02367E-01-1.15492E-02-6.72336E-01 5.92503E-14-1.80690E-13
 -1      2324 2.23586E+01-8.68686E-01 4.23591E-04-2.09945E-01 8.41344E-14-2.34331E-13
 -1      2325 2.24949E+01-6.59803E-01-4.67562E-03-9.69317E-01 6.93308E-14-2.61614E-13
 -1      2326 2.23975E+01-5.48819E-01-3.50103E-03-1.18854E+00 4.85412E-14-2.79050E-13
 -1      2327 2.26429E+01-8.84406E-01 6.23847E-03-8.00072E-01-1.87207E-14-2.51015E-13
 -1      2328 2.23756E+01-3.71551E-01-1.24572E-02-1.41966E+00-9.20921E-16-3.34063E-13
 -1      2329 2.22166E+01-1.12363E-01 9.14012E-03-1.51625E+00 2.39241E-14-2.82114E-13
 -1      2330 2.27543E+01-5.89025E-01 1.23704E-02-1.37241E+00-2.18749E-15-3.19274E-13
 -1      2331 2.20539E+01 1.86611E-01-1.78600E-02-1.54785E+00 1.42193E-13-3.77187E-13
 -1      2332 2.18793E+01 5.29135E-01 1.89115E-02-1.43212E+00 1.14377E-13-3.20206E-13
 -1      2333 2.26173E+01 5.99960E-02 1.10855E-02-1.68290E+00 2.98737E-14-2.37593E-13
 -1      2334 2.16601E+01 8.39383E-01-1.44758E-02-1.16961E+00 6.61884E-14-2.92290E-13
 -1      2335 2.15397E+01 1.10272E+00 1.75737E-02-8.29303E-01 5.17997E-14-2.15211E-13
 -1      2336 2.22836E+01 8.92116E-01-1.19335E-03-1.46967E+00 1.18731E-13-3.80591E-13
 -1      2337 2.14230E+01 1.25551E+00 1.83805E-03-3.29397E-01-7.35193E-14-1.81501E-13
 -1      2338 2.14104E+01 1.28411E+00 5.83174E-03 1.22611E-01-1.06234E-13-2.21621E-13
 -1      2339 2.19800E+01 1.52333E+00-1.26862E-02-6.63383E-01-5.13044E-15-1.89080E-13
 -1      2340 2.14904E+01 1.17995E+00 1.72679E-02 6.49093E-01-1.13808E-13-2.19661E-13
 -1      2341 2.15916E+01 9.53958E-01-1.04124E-02 1.02456E+00-1.03536E-13-1.74142E-13
 -1      2342 2.19454E+01 1.58798E+00-1.37058E-02 4.43214E-01-1.08031E-13-2.53638E-14
 -1      2343 2.18010E+01 6.63496E-01 2.08106E-02 1.34498E+00-5.37855E-14-1.89170E-13
 -1      2344 2.19693E+01 3.22857E-01-1.71943E-02 1.51009E+00 3.57722E-15-3.32594E-14
 -1      2345 2.22097E+01 1.05171E+00-1.97461E-03 1.34363E+00-6.31546E-14 5.89919E-14
 -1      2346 2.21545E+01 8.06380E-03 1.22646E-02 1.53518E+00-3.48950E-14 3.51672E-14
 -1      2347 2.23208E+01-2.78110E-01-1.37336E-02 1.47545E+00-4.11335E-14 4.79916E-14
 -1      2348 2.25576E+01 2.25967E-01 1.02702E-02 1.68382E+00 5.65764E-14 9.12738E-14
 -1      2349 2.23722E+01-4.84117E-01-9.93958E-04 1.27305E+00-4.45937E-14 1.39258E-13
 -1      2350 2.24836E+01-6.25446E-01-6.02183E-03 1.07014E+00-2.86082E-14 1.31316E-13
 -1      2351 2.27451E+01-4.84881E-01 1.34014E-02 1.46117E+00-2.40066E-14 1.76732E-13
 -1      2352 2.23989E+01-6.92931E-01-1.04061E-02 7.76618E-01-3.51377E-14 1.53135E-13
 -1      2353 2.24348E+01-7.00295E-01-3.49446E-05 5.29349E-01-2.15973E-14 3.71305E-14
 -1      2354 2.26793E+01-8.54546E-01 7.63435E-03 9.18551E-01-1.71161E-14 1.39067E-13
 -1      2355 2.22677E+01-6.66378E-01-1.35036E-02 2.51476E-01 4.29027E-14 9.20236E-14
 -1      2356 2.22353E+01-5.94555E-01 3.35511E-03 3.07370E-02 1.65580E-13 1.55402E-13
 -1      2357 2.24207E+01-8.91792E-01 1.36925E-03 3.16684E-01 2.20451E-14 2.72805E-13
 -1      2358 2.20417E+01-5.13274E-01-1.20350E-02-1.79139E-01 1.92210E-13 2.04446E-13
 -1      2359 2.19595E+01-4.15641E-01 4.26415E-03-3.40770E-01 1.17523E-13 2.38189E-13
 -1      2360 2.20724E+01-7.26694E-01-2.33852E-03-1.85208E-01 2.10345E-13 2.74954E-13
 -1      2361 2.17751E+01-3.27545E-01-8.66057E-03-4.72248E-01-1.01822E-13 1.16262E-13
 -1      2362 2.16629E+01-2.37317E-01 3.79693E-03-5.70234E-01-1.54961E-13-3.95569E-14
 -1      2363 2.17148E+01-4.90066E-01-3.62315E-03-5.30281E-01-3.53721E-14 5.65116E-14
 -1      2364 2.15027E+01-1.63555E-01-5.10059E-03-6.34475E-01-2.12137E-14-3.98651E-14
 -1      2365 2.13768E+01-9.46790E-02 2.86349E-03-6.78908E-01-7.09616E-14 4.07982E-14
 -1      2366 2.13900E+01-2.66369E-01-3.54094E-03-7.24387E-01-1.17318E-13 4.81105E-14
 -1      2367 2.12437E+01-4.18351E-02-2.15627E-03-6.93912E-01-5.36421E-14 1.73469E-13
 -1      2368 2.11160E+01 3.89670E-03 1.96212E-03-6.99588E-01 4.20661E-14 1.83450E-13
 -1      2369 2.11118E+01-9.26781E-02-2.97562E-03-7.99566E-01-2.01317E-14 2.55249E-13
 -1      2370 2.10073E+01 3.71902E-02-4.76316E-05-6.82635E-01 9.30710E-14 3.58910E-13
 -1      2371 2.08858E+01 6.36639E-02 1.28483E-03-6.63569E-01 1.14901E-13 4.46056E-13
 -1      2372 2.08794E+01 2.46958E-02-2.38053E-03-7.92440E-01 1.86946E-13 2.57049E-13
 -1      2373 2.07973E+01 8.18983E-02 1.28264E-03-6.28343E-01-6.38719E-14 3.59378E-13
 -1      2374 2.06869E+01 9.46500E-02 8.56575E-04-5.95516E-01-1.50820E-14 2.52182E-13
 -1      2375 2.06871E+01 9.42746E-02-1.91088E-03-7.34591E-01-6.61761E-14 5.16010E-13
 -1      2376 2.06149E+01 1.02801E-01 1.99175E-03-5.51615E-01 1.90038E-13 1.64317E-13
 -1      2377 2.05181E+01 1.07073E-01 6.35303E-04-5.12535E-01 3.40094E-13 7.61964E-14
 -1      2378 2.05283E+01 1.29272E-01-1.57201E-03-6.49642E-01-5.25508E-14 3.96293E-13
 -1      2379 2.04593E+01 1.09471E-01 2.23560E-03-4.65974E-01 2.79976E-13-1.10806E-13
 -1      2380 2.03772E+01 1.09620E-01 5.87653E-04-4.25099E-01 2.17767E-13-1.14887E-13
 -1      2381 2.03974E+01 1.42522E-01-1.32488E-03-5.53427E-01 1.49580E-13 1.78219E-14
 -1      2382 2.03288E+01 1.09857E-01 2.21273E-03-3.78907E-01 1.60576E-13-1.20403E-13
 -1      2383 2.02612E+01 1.08718E-01 6.02258E-04-3.38096E-01 1.32942E-13-1.60478E-13
 -1      2384 2.02895E+01 1.44901E-01-1.06345E-03-4.55318E-01 1.30600E-13-7.48130E-14
 -1      2385 2.02214E+01 1.08545E-01 1.92140E-03-2.93763E-01 5.36122E-14-1.33623E-13
 -1      2386 2.01682E+01 1.08707E-01 9.92132E-04-2.53862E-01 3.14573E-14-1.29250E-13
 -1      2387 2.02004E+01 1.43111E-01-1.11835E-03-3.59210E-01 2.42821E-14-7.95990E-14
 -1      2388 9.95152E+00-4.06681E+00 6.24278E-02 6.11671E+00-1.40998E-13 2.37477E-13
 -1      2389 7.24412E+00-3.62985E+00 1.01504E-01 4.91241E+00-1.19293E-13 1.23901E-13
 -1      2390 1.96246E+01 7.82286E-02 2.32683E-03-7.65792E-02 7.06103E-14 3.77997E-14
 -1      2391 1.96486E+01 1.08821E-01 6.97485E-03-2.80029E-02 1.05929E-13 9.08510E-14
 -1      2392 1.96102E+01 3.91939E-02 1.72148E-03-1.49680E-01 9.54094E-14-2.37933E-14
 -1      2393 1.96017E+01 5.65344E-02 3.77543E-03-1.23528E-01 7.55222E-14 1.27117E-14
 -1      2394 1.97745E+01 9.87430E-02-3.37678E-03-8.73047E-02 1.03426E-13-4.09789E-14
 -1      2395 1.96358E+01 1.79232E-02 1.41101E-03-1.88877E-01 1.52355E-13-2.23554E-14
 -1      2396 1.96075E+01 2.70711E-02 1.95251E-03-1.75371E-01 1.16642E-13-3.10005E-14
 -1      2397 1.97495E+01 4.90249E-02-2.53892E-03-1.69703E-01 1.30692E-13-7.96323E-14
 -1      2398 1.96877E+01 8.28775E-03 1.29292E-03-2.09711E-01 1.50276E-13 3.40385E-14
 -1      2399 1.96472E+01 1.19479E-02 9.00398E-04-2.02607E-01 1.57271E-13 1.39495E-14
 -1      2400 1.97593E+01 2.25750E-02-1.84438E-03-2.15808E-01 1.22532E-13-8.20539E-14
 -1      2401 1.97576E+01 6.87193E-03 1.32919E-03-2.22848E-01 5.05981E-14 5.89162E-14
 -1      2402 1.97090E+01 6.58344E-03 3.03039E-04-2.17841E-01 1.23803E-13 5.11815E-14
 -1      2403 1.97931E+01 1.15112E-02-1.36222E-03-2.42413E-01 1.07281E-13-5.51765E-15
 -1      2404 1.98415E+01 1.16862E-02 1.50728E-03-2.36053E-01 5.40663E-14 1.02682E-14
 -1      2405 1.97863E+01 8.34663E-03-6.90186E-06-2.29959E-01 4.07527E-14 3.68380E-14
 -1      2406 1.98442E+01 1.14056E-02-1.07320E-03-2.61338E-01 8.67546E-14 2.25021E-14
 -1      2407 1.99384E+01 2.15797E-02 1.82231E-03-2.55336E-01 9.74983E-14-7.24003E-14
 -1      2408 1.98763E+01 1.56987E-02-1.27845E-04-2.45632E-01 9.79598E-14-4.21469E-14
 -1      2409 1.99089E+01 1.96887E-02-9.36014E-04-2.81329E-01 1.36224E-13-5.08779E-14
 -1      2410 2.00501E+01 3.59139E-02 2.27078E-03-2.85648E-01 1.11923E-13-6.78252E-14
 -1      2411 1.99794E+01 2.77628E-02-1.24076E-04-2.70194E-01 1.05441E-13-8.28525E-14
 -1      2412 1.99861E+01 3.48782E-02-9.13446E-04-3.09221E-01 1.07698E-13-1.05113E-13
 -1      2413 2.01801E+01 5.43369E-02 2.84693E-03-3.31295E-01 2.38109E-14-7.02442E-14
 -1      2414 2.00980E+01 4.40615E-02-4.09056E-05-3.08177E-01 1.13605E-13-3.52970E-14
 -1      2415 2.00764E+01 5.61442E-02-9.73714E-04-3.50656E-01 9.13982E-14-6.70913E-14
 -1      2416 2.03335E+01 7.65532E-02 3.53503E-03-3.96117E-01-1.34812E-14-4.67965E-14
 -1      2417 2.02363E+01 6.43004E-02 8.78400E-05-3.63600E-01 1.17175E-14-7.35453E-14
 -1      2418 2.01821E+01 8.29855E-02-1.08882E-03-4.10494E-01 3.49123E-14-6.30139E-14
 -1      2419 2.05164E+01 1.01994E-01 4.29607E-03-4.83407E-01-5.21209E-14-1.06418E-13
 -1      2420 2.03997E+01 8.81028E-02 2.35700E-04-4.40022E-01-4.33340E-14-8.61438E-14
 -1      2421 2.03063E+01 1.14870E-01-1.23480E-03-4.92960E-01-1.39928E-14-7.32679E-14
 -1      2422 2.07358E+01 1.29268E-01 5.04611E-03-5.95431E-01 6.64596E-14-1.16312E-13
 -1      2423 2.05948E+01 1.14594E-01 3.82662E-04-5.40281E-01 1.92522E-14-7.18824E-14
 -1      2424 2.04529E+01 1.50703E-01-1.39468E-03-6.01466E-01-2.85360E-14-1.10706E-13
 -1      2425 2.09983E+01 1.55229E-01 5.62371E-03-7.32320E-01 7.96706E-14-1.04777E-13
 -1      2426 2.08286E+01 1.41693E-01 5.18572E-04-6.65747E-01 1.05639E-13-7.61542E-14
 -1      2427 2.06265E+01 1.87944E-01-1.56791E-03-7.37988E-01 7.08561E-14-1.11561E-13
 -1      2428 2.13105E+01 1.73447E-01 5.74688E-03-8.89973E-01-7.54637E-14-9.89184E-14
 -1      2429 2.11085E+01 1.64924E-01 6.54340E-04-8.14793E-01 7.84464E-15-1.11652E-13
 -1      2430 2.08317E+01 2.21129E-01-1.79152E-03-9.01722E-01 1.85812E-14-1.18456E-13
 -1      2431 2.16775E+01 1.71925E-01 4.96865E-03-1.05647E+00-1.19594E-13-1.27883E-13
 -1      2432 2.14417E+01 1.75533E-01 8.46832E-04-9.80045E-01-1.37760E-13-1.15059E-13
 -1      2433 2.10745E+01 2.39533E-01-2.17723E-03-1.08669E+00-1.04628E-13-1.37256E-13
 -1      2434 2.21027E+01 1.30306E-01 2.65788E-03-1.20655E+00-1.33148E-13-9.22493E-14
 -1      2435 2.18357E+01 1.57881E-01 1.23959E-03-1.14388E+00-1.05498E-13-1.01191E-13
 -1      2436 2.13631E+01 2.23881E-01-2.96273E-03-1.27778E+00-1.14915E-13-7.95669E-14
 -1      2437 2.25876E+01 1.81606E-02-1.93025E-03-1.29433E+00 7.65262E-14-1.00722E-13
 -1      2438 2.22982E+01 8.68069E-02 2.10332E-03-1.27174E+00-2.63811E-14-1.15103E-13
 -1      2439 2.17109E+01 1.42806E-01-4.54871E-03-1.44488E+00-4.72736E-14-1.24579E-13
 -1      2440 2.31310E+01-2.00689E-01-9.35600E-03-1.24635E+00 3.55319E-14 3.24766E-14
 -1      2441 2.28371E+01-7.21602E-02 3.79296E-03-1.30398E+00 1.02605E-13-2.50798E-15
 -1      2442 2.21410E+01-4.78225E-02-7.40593E-03-1.53494E+00 6.21259E-15-3.28253E-14
 -1      2443 2.37242E+01-5.46796E-01-1.91921E-02-9.62113E-01-1.96321E-13-2.16199E-14
 -1      2444 2.34571E+01-3.52203E-01 6.38648E-03-1.14981E+00-4.45958E-14 6.43127E-14
 -1      2445 2.26890E+01-3.94169E-01-1.16055E-02-1.46384E+00-1.64784E-14 6.73717E-14
 -1      2446 2.43328E+01-9.73098E-01-2.95475E-02-3.40134E-01-2.65038E-13-7.13988E-14
 -1      2447 2.41425E+01-7.50211E-01 8.53399E-03-6.96097E-01-2.90279E-13-8.37516E-14
 -1      2448 2.33947E+01-9.05082E-01-1.58086E-02-1.11538E+00-2.05059E-13 1.90669E-14
 -1      2449 2.48727E+01-1.27379E+00-3.11980E-02 6.47197E-01-1.84161E-13 4.93954E-14
 -1      2450 2.48189E+01-1.15483E+00 5.42402E-03 1.45944E-01-2.51099E-13-4.94058E-14
 -1      2451 2.42653E+01-1.47182E+00-1.74790E-02-3.68356E-01-2.90952E-13-7.11367E-14
 -1      2452 2.51738E+01-1.05333E+00-6.45805E-03 1.75902E+00-6.58536E-14 1.04113E-13
 -1      2453 2.52797E+01-1.24870E+00-9.53439E-03 1.29134E+00-1.23923E-13 3.12927E-14
 -1      2454 2.51436E+01-1.74575E+00-2.75497E-02 8.37849E-01-1.15859E-13 2.64025E-14
 -1      2455 2.50042E+01-4.67503E-02-1.56238E-03 2.47618E+00 1.63123E-13 1.26860E-13
 -1      2456 2.53118E+01-6.89600E-01-4.37870E-02 2.31453E+00-8.42252E-15 8.85396E-14
 -1      2457 2.58153E+01-1.20274E+00-2.58791E-02 2.21181E+00-2.66419E-14-4.14772E-14
 -1      2458 2.44634E+01 1.50321E+00 3.22614E-03 2.01724E+00 4.24487E-13 2.38524E-13
 -1      2459 2.48060E+01 7.18787E-01-6.41805E-02 2.44967E+00 3.28348E-13 2.30553E-13
 -1      2460 2.58966E+01 3.02913E-01-1.69267E-02 2.73604E+00 1.84887E-13-1.31839E-14
 -1      2461 2.40912E+01 2.30416E+00-3.46015E-02 1.92903E-01 4.21510E-13 4.21082E-13
 -1      2462 2.41483E+01 2.04219E+00-7.79470E-02 1.05419E+00 4.92599E-13 4.19408E-13
 -1      2463 2.53978E+01 2.58906E+00-5.54019E-02 1.86474E+00 3.12125E-13 1.47653E-13
 -1      2464 2.43333E+01 1.60755E+00-8.98514E-02-1.72581E+00 2.85889E-13 3.34887E-13
 -1      2465 2.41715E+01 2.15485E+00-1.73278E-02-9.85308E-01 4.37698E-13 4.53585E-13
 -1      2466 2.53830E+01 3.07861E+00-1.60026E-02-4.38817E-01 4.23633E-13 5.04642E-13
 -1      2467 2.50395E+01 1.30450E-01-5.54129E-02-2.55265E+00-2.11949E-14 1.61705E-13
 -1      2468 2.46900E+01 9.23843E-01 1.14969E-02-2.36183E+00 1.06578E-13 3.80437E-13
 -1      2469 2.55884E+01 1.84156E+00-3.57415E-02-2.43958E+00 1.72598E-13 4.01332E-13
 -1      2470 2.53809E+01-9.92297E-01-2.14579E-02-1.99011E+00-2.69413E-13 1.17336E-13
 -1      2471 2.51003E+01-5.42986E-01-1.33435E-02-2.30936E+00-1.63480E-13 1.26872E-13
 -1      2472 2.59379E+01-2.64692E-01-2.34661E-02-2.64170E+00-6.96804E-14 3.96100E-13
 -1      2473 2.51550E+01-1.27994E+00 3.52324E-03-8.31686E-01-2.44607E-13 2.71016E-13
 -1      2474 2.50814E+01-1.24312E+00-2.82115E-02-1.34240E+00-2.91146E-13 1.02254E-13
 -1      2475 2.56390E+01-1.53490E+00-7.05132E-03-1.61637E+00-2.79105E-13 4.02331E-13
 -1      2476 2.45642E+01-1.00980E+00 1.05053E-02 2.26137E-01-2.25870E-14 3.22258E-13
 -1      2477 2.46751E+01-1.19060E+00-3.01478E-02-2.16311E-01-9.48339E-14 2.88432E-13
 -1      2478 2.48312E+01-1.70471E+00-1.29867E-02-2.99341E-01-1.95698E-13 4.34427E-13
 -1      2479 2.38646E+01-5.86484E-01 8.68754E-03 9.15589E-01 1.19873E-13 3.22163E-13
 -1      2480 2.40925E+01-8.02842E-01-2.37882E-02 6.35111E-01 4.74863E-14 3.98656E-13
 -1      2481 2.39051E+01-1.26489E+00-1.79355E-02 7.16834E-01-3.68481E-14 1.99841E-13
 -1      2482 2.31964E+01-2.30168E-01 5.14363E-03 1.24335E+00 1.48372E-13 3.73979E-13
 -1      2483 2.34806E+01-3.95988E-01-1.38889E-02 1.11501E+00 2.01939E-13 4.09637E-13
 -1      2484 2.30932E+01-6.94185E-01-1.50175E-02 1.29795E+00 1.48345E-13 1.97614E-13
 -1      2485 2.26050E+01 3.07218E-04 2.47324E-03 1.31487E+00-3.07059E-14 2.23040E-13
 -1      2486 2.29026E+01-1.00292E-01-5.42702E-03 1.29332E+00 5.25274E-14 3.73374E-13
 -1      2487 2.24514E+01-2.40965E-01-1.00892E-02 1.52436E+00 1.58151E-13 3.19049E-13
 -1      2488 2.20950E+01 1.21752E-01 1.10541E-03 1.23713E+00 1.94617E-13 1.32944E-13
 -1      2489 2.23794E+01 7.24734E-02 3.57479E-04 1.27699E+00 1.07531E-13 1.12111E-13
 -1      2490 2.19533E+01 4.25111E-02-6.01918E-03 1.52090E+00 1.69745E-13 3.75320E-13
 -1      2491 2.16595E+01 1.69998E-01 5.80405E-04 1.08862E+00 7.02522E-14 3.80959E-14
 -1      2492 2.19164E+01 1.53352E-01 3.68326E-03 1.15664E+00 3.54794E-14 6.43099E-14
 -1      2493 2.15584E+01 1.86713E-01-3.51258E-03 1.39190E+00 1.53407E-13 1.76862E-13
 -1      2494 2.12910E+01 1.76487E-01 4.71306E-04 9.18122E-01 4.57941E-14-3.21928E-14
 -1      2495 2.15139E+01 1.77622E-01 5.19054E-03 9.93805E-01 1.89363E-13 4.84027E-14
 -1      2496 2.12361E+01 2.39963E-01-2.24956E-03 1.20828E+00 1.59592E-13 2.73416E-14
 -1      2497 2.09825E+01 1.62750E-01 5.28759E-04 7.52085E-01-1.88586E-14-3.08889E-13
 -1      2498 2.11703E+01 1.71950E-01 5.53753E-03 8.24583E-01-8.71002E-14-1.94103E-13
 -1      2499 2.09682E+01 2.42397E-01-1.70951E-03 1.01251E+00 1.13654E-13-1.45482E-13
 -1      2500 2.07278E+01 1.41846E-01 6.47892E-04 6.02505E-01 4.03221E-13-2.48531E-13
 -1      2501 2.08821E+01 1.53353E-01 5.23511E-03 6.67192E-01 1.46409E-13-3.07944E-13
 -1      2502 2.07442E+01 2.20959E-01-1.50001E-03 8.27066E-01 5.01673E-14-2.98228E-13
 -1      2503 2.05207E+01 1.21216E-01 7.87569E-04 4.72640E-01 3.88964E-13 4.90734E-16
 -1      2504 2.06447E+01 1.31797E-01 4.61702E-03 5.28634E-01 3.60168E-13-1.05234E-13
 -1      2505 2.05578E+01 1.91923E-01-1.38938E-03 6.61671E-01 2.46835E-13-2.79761E-13
 -1      2506 2.03554E+01 1.04927E-01 9.69077E-04 3.60812E-01 1.97652E-13 6.94266E-14
 -1      2507 2.04525E+01 1.12850E-01 3.89668E-03 4.09315E-01 2.86422E-13 2.91582E-13
 -1      2508 2.04042E+01 1.64411E-01-1.29115E-03 5.18268E-01 2.49151E-13 3.32245E-13
 -1      2509 2.02256E+01 9.44863E-02 1.00345E-03 2.62624E-01 9.63322E-14 1.55034E-13
 -1      2510 2.02996E+01 9.94570E-02 3.17637E-03 3.05921E-01 2.47111E-13 2.33460E-13
 -1      2511 2.02786E+01 1.43204E-01-1.25476E-03 3.94817E-01 1.26696E-13 6.99353E-13
 -1      2512 2.01261E+01 8.94115E-02 1.09245E-03 1.74708E-01-1.77133E-13 1.17318E-14
 -1      2513 2.01808E+01 9.15455E-02 2.48602E-03 2.14266E-01-1.03116E-13 1.61695E-15
 -1      2514 2.01773E+01 1.28807E-01-1.61452E-03 2.86159E-01 3.40612E-14 5.81561E-13
 -1      2515 2.00885E+01 8.48358E-02 1.54720E-03 1.28085E-01-2.03283E-13-6.10639E-14
 -1      2516 1.99314E+01 4.55637E-01-2.08374E-03 2.16864E-01 7.91954E-14-1.55405E-13
 -1      2517 1.99534E+01 4.16568E-01 3.70809E-04 2.38549E-01-2.19832E-13-2.03312E-13
 -1      2518 1.98990E+01 5.18619E-01-2.03944E-03 1.46919E-01-1.21105E-14-1.07068E-13
 -1      2519 1.99137E+01 4.91193E-01-4.01193E-04 1.81576E-01 1.36091E-13-2.81253E-13
 -1      2520 1.98983E+01 4.82870E-01 1.52624E-03 2.29773E-01 7.42727E-14-1.78632E-13
 -1      2521 2.00282E+01 2.71848E-01-1.49025E-03 2.57211E-01-3.58523E-13 3.20996E-13
 -1      2522 2.00554E+01 2.24731E-01 1.74541E-03 2.45126E-01-2.38245E-13 6.41775E-13
 -1      2523 1.99766E+01 3.69963E-01-1.85309E-03 2.56085E-01-3.77453E-13-2.42870E-13
 -1      2524 2.00029E+01 3.24783E-01 1.13040E-03 2.61089E-01-3.52308E-13 1.97205E-13
 -1      2525 2.00223E+01 3.07674E-01 1.25329E-03 3.03801E-01-2.86052E-13 2.03683E-13
 -1      2526 1.99544E+01 4.03820E-01 1.30718E-03 2.87175E-01-1.64357E-13-3.53857E-14
 -1      2527 1.98828E+01 5.51634E-01-1.74719E-03 5.79036E-02-3.60982E-13-1.31120E-13
 -1      2528 1.98890E+01 5.38850E-01-1.13955E-03 9.99699E-02-1.77133E-13-1.72657E-13
 -1      2529 1.98611E+01 5.36549E-01 1.89772E-03 1.41377E-01-4.71410E-14-2.79832E-13
 -1      2530 1.98835E+01 5.51559E-01-1.27017E-03-3.71872E-02-3.28830E-13 2.01081E-13
 -1      2531 1.98810E+01 5.54716E-01-1.70497E-03 6.14661E-03-4.12493E-13 5.11310E-16
 -1      2532 1.98452E+01 5.58914E-01 1.97322E-03 3.55189E-02-1.40991E-13-1.38673E-13
 -1      2533 1.98999E+01 5.19369E-01-6.82303E-04-1.25387E-01-3.29868E-13-3.15019E-13
 -1      2534 1.98896E+01 5.37823E-01-2.00020E-03-8.66918E-02-3.07299E-13-6.29206E-14
 -1      2535 1.98512E+01 5.48534E-01 1.81988E-03-7.28679E-02-1.24048E-13-2.75899E-14
 -1      2536 1.99290E+01 4.60997E-01-1.36002E-05-1.94341E-01 9.72471E-14 1.78596E-13
 -1      2537 1.99125E+01 4.91485E-01-2.04525E-03-1.65658E-01-9.32214E-14-1.71896E-13
 -1      2538 1.98769E+01 5.08223E-01 1.52055E-03-1.68854E-01 1.31819E-15-3.88832E-14
 -1      2539 1.99682E+01 3.81694E-01 6.77379E-04-2.37764E-01 2.22416E-13 3.74204E-13
 -1      2540 1.99470E+01 4.21492E-01-1.86305E-03-2.21892E-01 1.56710E-13 1.60989E-13
 -1      2541 1.99185E+01 4.43227E-01 1.05003E-03-2.41415E-01 1.55073E-13 1.82723E-13
 -1      2542 2.00128E+01 2.90498E-01 1.20343E-03-2.47908E-01 6.94331E-14-7.72022E-14
 -1      2543 1.99901E+01 3.34697E-01-1.35385E-03-2.48404E-01 9.24513E-14 2.51779E-13
 -1      2544 1.99723E+01 3.60042E-01 6.74173E-04-2.82849E-01 8.29375E-14 1.15603E-13
 -1      2545 2.00567E+01 1.96918E-01 1.39029E-03-2.25510E-01-4.58119E-14-2.62238E-13
 -1      2546 2.00344E+01 2.41866E-01-8.53062E-04-2.41409E-01-1.04504E-14-2.32286E-13
 -1      2547 2.00273E+01 2.67033E-01-6.73669E-04-2.85574E-01-8.85746E-14-1.73668E-13
 -1      2548 2.00712E+01 1.20151E-01 1.08953E-03-1.53903E-01 6.30569E-14-8.70353E-14
 -1      2549 1.75295E+01-5.36558E+00 9.57351E-03-6.59031E+00 1.50935E-13-1.67873E-13
 -1      2550 2.16766E+01-4.99329E+00-5.08296E-02-6.04676E+00 3.66929E-14-2.93710E-13
 -1      2551 1.76038E+01-5.10933E+00 8.70247E-02-6.59744E+00 2.80859E-13-1.55265E-13
 -1      2552 1.96998E+01 1.46872E-01 3.42356E-03 5.44761E-02 1.09963E-13 8.24834E-14
 -1      2553 1.97763E+01 2.00905E-01 1.24324E-02 1.42167E-01 1.13593E-13 9.48013E-14
 -1      2554 1.98494E+01 1.86665E-01-4.03987E-03 5.63870E-02 1.12953E-13-2.80622E-14
 -1      2555 5.26064E+00-3.75892E+00 5.92577E-02-4.49928E+00-1.36002E-15 4.75009E-13
 -1      2556 8.17388E+00-4.04279E+00 5.16981E-02-6.16403E+00 1.61093E-13 3.55632E-13
 -1      2557 3.15832E+01 3.56181E+00-7.88979E-02 6.47661E-01-2.37033E-14-6.48509E-13
 -1      2558 3.28361E+01 5.39316E+00-7.60553E-02 5.95369E-01-8.95395E-14-6.44013E-13
 -1      2559 8.71991E+00-4.43376E+00 4.79763E-02-5.77293E+00-1.78302E-13-6.75238E-13
 -1      2560 1.23299E+01-5.11200E+00-1.34756E-03-6.74061E+00 7.27196E-15-4.42341E-13
 -1      2561 3.02912E+00-3.27021E+00 3.65682E-02-2.11175E+00-5.68989E-14 2.81108E-13
 -1      2562 4.06004E+00-3.40428E+00 9.12960E-02-3.57597E+00-1.98175E-14 4.89275E-13
 -1      2563 6.79207E+00-2.54416E+00 9.28215E-02-4.49891E+00 7.82985E-14 4.06897E-13
 -1      2564 1.95319E+01 3.59184E+00-1.01284E-02-2.44802E-01 8.71964E-14-4.39304E-13
 -1      2565 1.95475E+01 3.57091E+00-9.67131E-03-4.25199E-01 5.29369E-14-4.32793E-13
 -1      2566 1.97233E+01 3.17180E+00-5.09295E-04-4.71951E-01 4.13137E-14-4.18276E-13
 -1      2567 1.96899E+01 3.23245E+00-8.43379E-04-1.51621E-01 9.36595E-14-4.08445E-13
 -1      2568 4.27184E+00-3.16203E+00 4.33807E-02 3.26737E+00-1.56652E-13-8.29337E-14
 -1      2569 2.75962E+00-3.16187E+00 4.88249E-02 6.56403E-01-1.82758E-13 1.49880E-14
 -1      2570 7.44418E+00-2.27777E+00 1.60701E-01 3.99384E+00-1.85629E-13 1.05693E-13
 -1      2571 3.08402E+01-1.35552E+00-1.57531E-01 6.10665E-01 2.96406E-13-4.99156E-13
 -1      2572 2.88369E+01-3.04420E+00-3.84497E-02 1.98765E+00 1.83104E-13-3.60267E-13
 -1      2573 3.23863E+01 6.29868E+00-1.04575E-01 1.26370E+00 2.23821E-13-2.22711E-13
 -1      2574 3.23236E+01 6.81351E+00-1.79417E-01 5.43280E-01 2.38087E-13-1.53995E-13
 -1      2575 8.15466E+00-3.93811E+00-9.09854E-03 6.18832E+00-7.14706E-14-5.82590E-14
 -1      2576 5.62044E+00-3.55117E+00 8.82048E-02 4.58806E+00-8.52096E-14-1.25122E-13
 -1      2577 3.18346E+01 2.11136E+00-1.07580E-01 1.43678E+00 2.13773E-13-2.32120E-13
 -1      2578 3.20305E+01 4.27042E+00-2.00870E-01 1.63758E+00 1.90598E-13-2.51493E-13
 -1      2579 2.39489E+01-5.17500E+00-6.96051E-03-4.48099E+00 1.58706E-13-1.89265E-13
 -1      2580 2.75498E+01-3.99081E+00-8.77571E-02-2.86065E+00 7.83679E-14-1.96537E-13
 -1      2581 1.61386E+01-5.64723E+00 1.18551E-02-6.41142E+00 7.07767E-14-3.47614E-13
 -1      2582 1.99766E+01-5.60675E+00-7.70502E-02-6.19249E+00 1.51934E-13-2.63727E-13
 -1      2583 4.14011E+00-2.86523E+00 1.02301E-01-2.53685E+00-1.13562E-13-6.28719E-13
 -1      2584 5.77065E+00-3.39044E+00 7.04750E-02-4.43973E+00-1.72917E-13-7.59337E-13
 -1      2585 1.63508E+01-5.24514E+00-6.08355E-02 7.10935E+00-5.31797E-14-1.63473E-13
 -1      2586 1.22856E+01-4.83425E+00 9.23228E-02 6.79153E+00-5.98133E-14-9.04277E-14
 -1      2587 2.46893E+01-4.58572E+00-7.63502E-02 4.45267E+00-1.86462E-13 1.77636E-14
 -1      2588 2.09536E+01-5.26369E+00 6.93074E-02 5.78454E+00-1.25983E-13-8.38080E-14
 -1      2589 3.22111E+01 4.17992E+00-1.46548E-01-6.62354E-01-3.55577E-13-5.21694E-13
 -1      2590 3.14038E+01 2.41808E+00-6.97779E-02-3.06366E-01-3.56826E-13-4.78229E-13
 -1      2591 3.15617E+01 6.94989E+00-2.08857E-01-6.57905E-01-5.16365E-13-3.74582E-13
 -1      2592 3.17822E+01 5.93846E+00-1.18644E-01-9.21684E-01-5.12146E-13-4.58245E-13
 -1      2593 2.98145E+01-7.86806E-01-2.13656E-02-9.22923E-01-1.43075E-13-6.22391E-13
 -1      2594 3.07981E+01 7.93216E-01-1.53916E-01-1.12703E-01-1.36349E-13-7.04242E-13
 -1      2595 3.28618E+01 3.55237E+00-1.53541E-01-1.18951E+00 4.18110E-13-1.69115E-13
 -1      2596 3.18952E+01 1.39217E+00-6.09155E-02-9.94137E-01 3.92492E-13-3.01925E-13
 -1      2597 2.04783E+01 8.75603E-01-7.19464E-03 1.22703E+00 2.88655E-13 2.66774E-13
 -1      2598 2.08284E+01 1.25717E+00-6.01272E-03 1.72788E+00 3.12517E-13 3.10604E-13
 -1      2599 2.06368E+01 1.71572E+00-1.57880E-02 1.92191E+00 3.39418E-13 2.02983E-13
 -1      2600 2.04406E+01 1.05955E+00-9.29574E-03 1.24065E+00 2.97260E-13 1.26610E-13
 -1      2601 3.00942E+01-1.66781E+00-5.38187E-02-5.35248E-01 1.48482E-13-2.80886E-13
 -1      2602 3.15950E+01 3.10348E-01-1.30493E-01 5.11649E-01 1.98924E-13-2.88769E-13
 -1      2603 3.04841E+01 8.26230E-01-1.85428E-03 2.14735E+00 2.46525E-13-2.44721E-13
 -1      2604 2.50317E+01-4.11711E+00 1.39813E-02-4.25962E+00-5.32074E-14-2.16244E-13
 -1      2605 2.80906E+01-2.70370E+00-1.00277E-01-2.85122E+00-9.98368E-14-4.45033E-13
 -1      2606 2.67716E+01-4.21849E+00-3.04084E-02 3.71792E+00 5.14866E-14-1.67311E-13
 -1      2607 2.33483E+01-5.19033E+00-1.46777E-02 4.75515E+00-1.34476E-13-9.56457E-14
 -1      2608 2.80293E+01-4.10179E+00 2.79774E-02 1.83163E+00-2.56878E-14-4.37761E-13
 -1      2609 4.72349E+00-1.86697E+00 1.38371E-01-7.59817E-01-1.70836E-13 9.69780E-14
 -1      2610 1.99211E+01 2.81888E+00 2.14277E-03-1.09662E+00-8.94953E-14-4.34190E-13
 -1      2611 1.97866E+01 3.16274E+00-1.54714E-02-1.28428E+00-9.23241E-14-4.52478E-13
 -1      2612 1.98805E+01 3.04161E+00-1.70314E-02-1.48127E+00-1.49175E-13-4.38264E-13
 -1      2613 2.04165E+01 2.11624E+00-1.26520E-02 1.87463E+00 3.45540E-13 7.12260E-14
 -1      2614 2.90673E+01-3.31577E+00-5.64463E-02-8.99084E-01 6.83273E-14-3.24962E-13
 -1      2615 2.90796E+01-2.24638E+00-1.23854E-01 1.10705E+00 1.74076E-13-2.37560E-13
 -1      2616 2.76954E+01-4.11191E+00 1.18494E-01-1.32584E+00 1.09367E-13-2.59515E-13
 -1      2617 1.99911E+01 3.43389E-01-3.71216E-03 3.00043E-01 1.60367E-13 8.51793E-15
 -1      2618 2.01135E+01 2.62108E+00-1.19134E-02-1.67775E+00-2.06657E-13-3.82860E-13
 -1      2619 3.12426E+01 4.54011E+00-6.78492E-02-2.04162E+00 3.67678E-13-9.97535E-14
 -1      2620 2.84669E+01-2.34768E+00 3.70616E-04-1.24281E+00-4.34028E-14-7.07656E-13
 -1      2621 3.07407E+01 7.10239E+00-1.20569E-01-3.23110E-01-4.38344E-13-3.38694E-13
 -1      2622 2.82645E+01 6.28814E+00-1.08882E-01-9.14698E-01-4.89719E-13-3.43642E-13
 -1      2623 2.90211E+01 6.96116E+00-1.90536E-01 7.86107E-03-3.98820E-13-3.24908E-13
 -1      2624 2.41526E+01-4.84547E+00 5.55025E-02-4.51552E+00 4.39093E-14-2.35145E-13
 -1      2625 1.28000E+01-4.42879E+00 1.15009E-01 6.30661E+00-2.22378E-13 2.74850E-13
 -1      2626 1.26166E+01-3.22832E+00 1.37710E-01 5.86705E+00-2.01575E-13 1.69698E-13
 -1      2627 1.56609E+01-4.72809E+00-1.84371E-03 6.39600E+00-3.41144E-13 1.77997E-13
 -1      2628 1.10592E+01-3.80059E+00 1.16889E-01-6.38776E+00 1.82021E-13 2.63956E-13
 -1      2629 2.00969E+01 1.21804E-01 3.58197E-04 1.86150E-01-1.61892E-13 2.69062E-13
 -1      2630 8.99936E+00-3.21387E+00 1.22662E-01-5.18892E+00-1.25344E-13-6.87145E-13
 -1      2631 2.00880E+01 1.58739E-01-7.85216E-05 2.13724E-01-1.21757E-13 7.50765E-13
 -1      2632 2.18052E+01-5.64121E+00 2.61878E-02 5.42087E+00-2.59764E-13-2.19866E-13
 -1      2633 1.99103E+01-5.32096E+00 1.48382E-01 5.76735E+00-4.69319E-13-1.10002E-13
 -1      2634 2.40821E+01-5.56803E+00-9.40334E-02 4.01495E+00-3.56215E-13-3.04090E-13
 -1      2635 2.01088E+01 1.07042E-01 1.50067E-03-1.87865E-01 1.15491E-13 8.51581E-14
 -1      2636 2.00776E+01 1.55848E-01-7.36008E-04-2.12982E-01 9.36365E-14-1.33040E-13
 -1      2637 2.00897E+01 1.81565E-01 5.71472E-04-2.64237E-01 3.63036E-14-4.41585E-14
 -1      2638 2.01466E+01 1.08529E-01 1.94487E-03-2.23801E-01 1.15535E-13-1.91230E-14
 -1      2639 3.02438E+01 1.85667E+00-6.76093E-02 1.11331E+00 4.52416E-15-7.70495E-13
 -1      2640 2.99953E+01 4.66941E+00-5.21105E-02-1.48864E+00-4.88554E-13-4.58134E-13
 -1      2641 2.65814E+01-4.06561E+00 1.87446E-02 3.04920E+00-2.46039E-13-3.66374E-15
 -1      2642 2.48554E+01-4.76553E+00 3.92101E-02 3.55779E+00-7.61474E-14-2.93099E-14
 -1      2643 2.73825E+01-3.40584E+00-1.37036E-01 1.41564E+00-2.17411E-13-2.09971E-13
 -1      2644 3.10892E+01 6.04875E+00-8.24053E-02 1.16556E+00-1.21569E-13-5.71335E-13
 -1      2645 1.97106E+01-5.13134E+00 1.09495E-01 6.05414E+00 2.03448E-14-6.83568E-14
 -1      2646 4.47065E+00-2.15597E+00 1.36135E-01-1.34618E+00-5.38319E-14-5.22915E-13
 -1      2647 6.30378E+00-1.33163E+00 1.33560E-01-2.32462E+00-9.08232E-14-4.96936E-13
 -1      2648 4.99869E+00-1.22295E+00 1.12688E-01-2.69914E-03-1.98665E-14-4.92745E-13
 -1      2649 1.57630E+01-4.99398E+00 1.09485E-01-6.41927E+00-4.08840E-14-4.21566E-13
 -1      2650 2.29901E+01-5.49620E+00 6.22325E-02-4.77523E+00 1.33116E-13-2.34153E-13
 -1      2651 3.01075E+01 4.09359E-01-3.07704E-02-3.49452E-01-3.33955E-13-4.12420E-13
 -1      2652 1.18456E+01-3.80764E+00 1.62217E-01 6.39589E+00 5.23193E-14-6.48093E-14
 -1      2653 5.81489E+00-2.31323E+00 1.55704E-01 3.53687E+00-1.22402E-14-2.15494E-13
 -1      2654 3.04046E+01 4.73615E+00-2.09824E-02 2.05625E+00 1.71807E-13-2.10457E-13
 -1      2655 3.15412E+01 6.57942E+00-1.12875E-01-1.17803E-02 2.39031E-13-9.16541E-14
 -1      2656 2.97644E+01 6.01601E+00-2.17905E-01-5.40178E-01 2.69618E-13-6.59889E-14
 -1      2657 2.94389E+01 5.88502E+00-1.44680E-01 4.92850E-01 2.69090E-13-8.39138E-14
 -1      2658 3.05721E+01-5.27655E-01-2.24544E-02-1.07611E+00 2.16036E-13-4.10200E-13
 -1      2659 2.04325E+01 1.80894E+00 1.25081E-02 1.56202E+00 3.22487E-13 2.46660E-14
 -1      2660 2.01379E+01 1.40880E-01-1.22083E-03-2.80626E-01 6.63756E-14-6.98207E-14
 -1      2661 2.00992E+01 1.91983E-01 1.27061E-03 2.71206E-01-1.36384E-13 6.30025E-13
 -1      2662 1.98562E+01 2.77488E+00-6.31825E-03 5.13879E-01 1.94231E-13-3.43057E-13
 -1      2663 1.98319E+01 2.82512E+00-5.76494E-03 3.63494E-01 1.77238E-13-3.85322E-13
 -1      2664 1.98153E+01 2.86329E+00-5.63222E-03 2.28664E-01 1.56070E-13-3.97706E-13
 -1      2665 1.98069E+01 2.88039E+00-5.47187E-03 7.46895E-02 1.30768E-13-3.80977E-13
 -1      2666 1.99613E+01 2.51451E+00 3.76763E-03 2.63242E-01 1.46512E-13-3.67497E-13
 -1      2667 2.00506E+01 2.32993E+00-1.06253E-02 1.04290E+00 2.82537E-13-2.32164E-13
 -1      2668 1.99880E+01 2.47950E+00-6.38583E-03 9.07248E-01 2.71082E-13-2.74151E-13
 -1      2669 2.02201E+01 1.91165E+00-1.16731E-02 1.22497E+00 2.98684E-13-1.17699E-13
 -1      2670 2.01291E+01 2.15060E+00-4.89787E-03 1.13140E+00 2.88704E-13-1.70555E-13
 -1      2671 2.01955E+01 1.89277E+00 6.36352E-03 9.22604E-01 2.65018E-13-1.89144E-13
 -1      2672 5.79109E+00-8.98922E-01 1.27365E-01 6.35028E-01-1.89078E-13 3.79974E-14
 -1      2673 6.13833E+00-1.09784E+00 1.48123E-01-2.18406E+00-9.36681E-14 1.61260E-13
 -1      2674 2.01269E+01 1.85873E-01 1.60818E-03-3.28699E-01 5.67334E-14 1.61396E-14
 -1      2675 2.01026E+01 1.84225E-01 5.87166E-04-2.96307E-01 1.30787E-13 8.20225E-14
 -1      2676 2.00724E+01 2.22964E-01 7.06295E-04-3.10367E-01 4.45861E-15-1.89364E-13
 -1      2677 2.03211E+01 1.06396E+00 6.03278E-03-8.53601E-01-1.74294E-13-2.55486E-13
 -1      2678 2.02281E+01 8.20779E-01-5.34432E-03-6.08756E-01-1.40843E-13-2.36238E-13
 -1      2679 2.03344E+01 1.50161E+00-1.91002E-03 1.26517E+00 2.95110E-13 1.16573E-15
 -1      2680 1.98748E+01 7.05688E-02 5.06874E-04-1.76911E-01 1.38699E-13-1.10629E-13
 -1      2681 1.98826E+01 9.87245E-02 3.09597E-03-1.42172E-01 1.32079E-13-8.22244E-14
 -1      2682 2.02181E+01 6.34870E-01 8.63681E-03-4.29890E-01-1.49408E-13-2.34175E-13
 -1      2683 2.01356E+01 4.84458E-01-3.13253E-03-2.69045E-01-1.40247E-13-2.53134E-13
 -1      2684 2.02660E+01 9.02021E-01 1.36173E-03-5.65838E-01-1.45491E-13-2.75273E-13
 -1      2685 2.01107E+01 3.73796E-01 6.60926E-03-1.46079E-01-1.27418E-13-2.36386E-13
 -1      2686 2.00542E+01 2.81699E-01-1.51138E-03-4.47740E-02-1.19266E-13-2.60059E-13
 -1      2687 2.02006E+01 5.41668E-01-1.63153E-03-2.49595E-01-1.44902E-13-2.60283E-13
 -1      2688 2.00296E+01 2.14325E-01 4.45343E-03 3.51330E-02-1.17203E-13-2.54052E-13
 -1      2689 1.99977E+01 1.58393E-01-4.97915E-04 9.69971E-02-1.14959E-13-2.42139E-13
 -1      2690 2.01348E+01 3.17871E-01-2.15345E-03-3.49442E-02-1.21710E-13-2.39390E-13
 -1      2691 1.99786E+01 1.18076E-01 2.78775E-03 1.46958E-01-1.10461E-13-2.13788E-13
 -1      2692 1.99661E+01 8.54990E-02 1.36767E-04 1.83835E-01-1.05655E-13-2.36459E-13
 -1      2693 2.00823E+01 1.80303E-01-2.01312E-03 1.04023E-01-1.08382E-13-2.16575E-13
 -1      2694 1.99536E+01 6.29428E-02 1.57944E-03 2.14455E-01-1.09100E-13-2.23368E-13
 -1      2695 1.99553E+01 4.61536E-02 5.62250E-04 2.36518E-01-9.85656E-14-2.14748E-13
 -1      2696 2.00464E+01 9.91562E-02-1.66774E-03 1.91390E-01-1.21301E-13-1.83100E-13
 -1      2697 1.99487E+01 3.58180E-02 7.23018E-04 2.55927E-01-8.99164E-14-2.04084E-13
 -1      2698 1.99608E+01 3.01107E-02 8.72956E-04 2.70410E-01-7.77658E-14-1.80964E-13
 -1      2699 2.00260E+01 5.63137E-02-1.31806E-03 2.46402E-01-8.10588E-14-1.50896E-13
 -1      2700 1.99593E+01 2.84694E-02 1.24727E-04 2.84748E-01-5.86889E-14-1.77379E-13
 -1      2701 1.99793E+01 3.07355E-02 1.12771E-03 2.96868E-01-6.83519E-14-1.47901E-13
 -1      2702 2.00183E+01 4.04127E-02-1.03043E-03 2.83858E-01-7.43550E-14-1.02861E-13
 -1      2703 1.99818E+01 3.53802E-02-2.86900E-04 3.10733E-01-7.71456E-14-1.52910E-13
 -1      2704 2.00083E+01 4.34105E-02 1.35755E-03 3.24276E-01-4.58492E-14-1.14554E-13
 -1      2705 2.00208E+01 4.38788E-02-8.17040E-04 3.14939E-01-5.82722E-14-1.04130E-13
 -1      2706 2.00142E+01 5.25335E-02-5.62646E-04 3.41075E-01-5.34535E-14-1.51467E-13
 -1      2707 2.00467E+01 6.45670E-02 1.57434E-03 3.58738E-01-2.92762E-14-1.64810E-13
 -1      2708 2.00318E+01 6.12987E-02-6.72923E-04 3.47998E-01-6.51570E-14-1.74728E-13
 -1      2709 2.00559E+01 7.65953E-02-7.33326E-04 3.80917E-01-4.03894E-14-1.70775E-13
 -1      2710 2.00944E+01 9.09618E-02 1.77483E-03 4.04471E-01-6.75125E-14-2.24344E-13
 -1      2711 2.00503E+01 8.83435E-02-5.90909E-04 3.89155E-01-6.67684E-14-2.02308E-13
 -1      2712 2.01073E+01 1.04239E-01-8.09847E-04 4.33602E-01-3.99085E-14-2.08251E-13
 -1      2713 2.01524E+01 1.19018E-01 1.94193E-03 4.63888E-01 6.19920E-15-1.65015E-13
 -1      2714 2.00760E+01 1.20918E-01-5.68868E-04 4.42636E-01-1.45053E-14-1.24209E-13
 -1      2715 2.01697E+01 1.31477E-01-7.81533E-04 5.00626E-01 3.15375E-14-1.39198E-13
 -1      2716 2.02225E+01 1.44132E-01 2.04396E-03 5.37398E-01 6.27268E-14-1.02292E-13
 -1      2717 2.01097E+01 1.54356E-01-6.15418E-04 5.10830E-01 3.23372E-14-9.21002E-14
 -1      2718 2.02457E+01 1.52935E-01-6.12669E-04 5.81288E-01 2.56654E-14-1.25845E-13
 -1      2719 2.03076E+01 1.59906E-01 2.03260E-03 6.22898E-01-8.60114E-15-1.68574E-13
 -1      2720 2.01534E+01 1.82566E-01-7.56361E-04 5.94097E-01 3.15341E-14-1.32752E-13
 -1      2721 2.03397E+01 1.61058E-01-2.38020E-04 6.72024E-01-7.83261E-14-1.64880E-13
 -1      2722 2.04122E+01 1.57356E-01 1.83973E-03 7.14933E-01-1.29940E-13-1.59514E-13
 -1      2723 2.02108E+01 1.97106E-01-1.04208E-03 6.90264E-01-4.57143E-14-1.66008E-13
 -1      2724 2.04577E+01 1.45371E-01 4.40128E-04 7.65378E-01-9.16676E-14-1.31236E-13
 -1      2725 2.05430E+01 1.24299E-01 1.37239E-03 8.03535E-01-5.05309E-14-1.13802E-13
 -1      2726 2.02884E+01 1.86265E-01-1.55427E-03 7.93810E-01-1.09093E-13-1.04565E-13
 -1      2727 2.06089E+01 9.21085E-02 1.54665E-03 8.48627E-01-7.49937E-14-9.27830E-14
 -1      2728 2.07096E+01 4.54108E-02 5.03401E-04 8.72767E-01-3.68495E-14-1.13440E-13
 -1      2729 2.03962E+01 1.34460E-01-2.40631E-03 8.94663E-01-5.56860E-14 1.25349E-14
 -1      2730 2.08060E+01-1.50474E-02 3.20401E-03 9.02089E-01 3.32308E-15-7.40602E-14
 -1      2731 2.09246E+01-9.59886E-02-9.41573E-04 8.99173E-01 1.11343E-14-1.27827E-13
 -1      2732 2.05494E+01 2.26372E-02-3.72365E-03 9.76547E-01-1.51176E-14-5.21118E-14
 -1      2733 2.10648E+01-1.91731E-01 5.44790E-03 8.97411E-01 3.84483E-14-1.37351E-13
 -1      2734 2.12029E+01-3.12563E-01-3.16502E-03 8.50676E-01 5.62365E-14-1.91082E-13
 -1      2735 2.07696E+01-1.68903E-01-5.57450E-03 1.01484E+00-2.48019E-15-4.97305E-14
 -1      2736 2.14011E+01-4.44843E-01 8.06480E-03 7.96771E-01 5.02977E-14-1.97428E-13
 -1      2737 2.15566E+01-6.01401E-01-6.29163E-03 6.87426E-01 3.17431E-14-2.72411E-13
 -1      2738 2.10828E+01-4.52723E-01-7.78003E-03 9.74229E-01 4.85220E-14-1.42724E-13
 -1      2739 2.18219E+01-7.57208E-01 1.02828E-02 5.55428E-01 6.88828E-14-2.99942E-13
 -1      2740 2.19846E+01-9.24029E-01-9.99102E-03 3.67798E-01 7.51194E-14-2.30700E-13
 -1      2741 2.15136E+01-8.18377E-01-9.61727E-03 8.07695E-01 5.19741E-14-2.50471E-13
 -1      2742 2.23070E+01-1.06370E+00 1.03518E-02 1.33236E-01 4.60483E-14-2.81095E-13
 -1      2743 2.24531E+01-1.17992E+00-1.26976E-02-1.33572E-01 3.47986E-14-2.61955E-13
 -1      2744 2.20682E+01-1.20526E+00-9.44636E-03 4.61204E-01 5.71830E-14-1.39329E-13
 -1      2745 2.27844E+01-1.22671E+00 5.54991E-03-4.73693E-01-2.17061E-14-2.93622E-13
 -1      2746 2.28768E+01-1.19213E+00-1.07662E-02-7.85221E-01-4.80138E-14-2.60496E-13
 -1      2747 2.27035E+01-1.46891E+00-4.92469E-03-1.03464E-01-3.02302E-14-2.70560E-13
 -1      2748 2.31207E+01-1.04284E+00-5.55319E-03-1.17507E+00-7.17438E-15-2.49300E-13
 -1      2749 2.31238E+01-7.53116E-01-7.65582E-04-1.43925E+00 2.33841E-14-2.70601E-13
 -1      2750 2.32944E+01-1.37858E+00 4.20177E-03-8.52210E-01 3.31224E-15-2.04353E-13
 -1      2751 2.31628E+01-3.40346E-01-2.44468E-02-1.72293E+00 3.49101E-14-1.88639E-13
 -1      2752 2.30780E+01 2.11536E-01 1.24191E-02-1.79393E+00 6.86413E-14-1.81568E-13
 -1      2753 2.36415E+01-6.84837E-01 1.35699E-02-1.58842E+00 1.50796E-13-5.93137E-14
 -1      2754 2.28852E+01 8.13023E-01-3.94715E-02-1.75256E+00 1.17263E-13-1.26485E-13
 -1      2755 2.27662E+01 1.43249E+00 1.57374E-02-1.50201E+00 1.32640E-13-7.23809E-14
 -1      2756 2.35811E+01 6.09670E-01 6.46244E-03-1.91812E+00 1.40678E-13 8.36163E-14
 -1      2757 2.25265E+01 1.90967E+00-3.41317E-02-1.01449E+00 1.03736E-13-1.23098E-13
 -1      2758 2.24723E+01 2.22478E+00 2.39292E-03-4.96546E-01-9.84109E-15 5.44009E-15
 -1      2759 2.32184E+01 1.97439E+00-9.17576E-03-1.42003E+00 7.94668E-14 9.51617E-14
 -1      2760 2.24420E+01 2.28380E+00-1.63772E-03 2.31436E-01-8.32424E-14 5.61705E-14
 -1      2761 2.24830E+01 2.06676E+00-2.50899E-02 7.86025E-01-5.45952E-14 1.94246E-13
 -1      2762 2.30154E+01 2.74274E+00-2.00280E-02-1.55884E-01-1.48770E-14 1.64577E-13
 -1      2763 2.26962E+01 1.64492E+00 1.64310E-02 1.33997E+00-5.69839E-14 1.16804E-13
 -1      2764 2.28049E+01 1.06491E+00-3.87142E-02 1.65273E+00 5.66593E-14 1.95710E-13
 -1      2765 2.31721E+01 2.25017E+00-1.41289E-02 1.20224E+00-2.87825E-14 1.06575E-13
 -1      2766 2.30271E+01 4.63600E-01 1.56447E-02 1.79434E+00-2.95250E-15 1.05888E-13
 -1      2767 2.31296E+01-1.31323E-01-2.70693E-02 1.78284E+00-3.22042E-14 8.74361E-14
 -1      2768 2.35273E+01 9.51129E-01 1.11845E-02 1.88581E+00 1.37043E-15 1.51861E-13
 -1      2769 2.31390E+01-6.00437E-01 1.95624E-03 1.54118E+00 1.90729E-14 5.56277E-15
 -1      2770 2.31555E+01-9.46418E-01-8.44687E-03 1.30317E+00-1.17133E-14 1.15318E-13
 -1      2771 2.36699E+01-4.65191E-01 1.57848E-02 1.69880E+00-6.79506E-14 3.30239E-14
 -1      2772 2.29445E+01-1.14615E+00-9.24172E-03 9.19888E-01-1.77931E-14 1.27673E-13
 -1      2773 2.28666E+01-1.22606E+00 3.36697E-03 6.07901E-01-3.45276E-14 1.37401E-13
 -1      2774 2.33903E+01-1.29381E+00 6.43685E-03 1.00536E+00-3.42105E-14-2.92977E-14
 -1      2775 2.25449E+01-1.21054E+00-1.28532E-02 2.50402E-01-2.18960E-14 1.84909E-13
 -1      2776 2.24056E+01-1.11621E+00 9.61689E-03-3.03886E-02 7.38893E-14 2.43622E-13
 -1      2777 2.28327E+01-1.48871E+00-3.35405E-03 2.37799E-01-2.17695E-14 9.02878E-14
 -1      2778 2.20762E+01-9.87650E-01-1.07050E-02-2.87754E-01 9.78024E-14 1.44975E-13
 -1      2779 2.19139E+01-8.24699E-01 1.04557E-02-4.92558E-01 1.22653E-13 4.73604E-14
 -1      2780 2.21938E+01-1.27681E+00-8.82979E-03-3.71665E-01 2.46077E-14-1.25838E-14
 -1      2781 2.16355E+01-6.67240E-01-7.00157E-03-6.43772E-01 5.70689E-14-7.00508E-14
 -1      2782 2.14770E+01-5.04984E-01 8.59660E-03-7.68015E-01-1.27593E-13-1.98616E-13
 -1      2783 2.16168E+01-8.99302E-01-9.65573E-03-7.61130E-01-5.52651E-14-1.65451E-13
 -1      2784 2.12657E+01-3.65291E-01-3.71088E-03-8.35219E-01-7.37740E-14-2.33121E-14
 -1      2785 2.11238E+01-2.35325E-01 6.03309E-03-8.92613E-01 1.35389E-14 6.00263E-14
 -1      2786 2.11605E+01-5.20574E-01-8.08985E-03-9.59494E-01 9.08196E-14-6.77459E-14
 -1      2787 2.09732E+01-1.30692E-01-1.33489E-03-9.02125E-01-1.01540E-14 1.15326E-13
 -1      2788 2.08513E+01-4.03092E-02 3.72671E-03-9.11225E-01 3.23478E-14 2.40074E-13
 -1      2789 2.08257E+01-2.15588E-01-5.94047E-03-1.02005E+00 8.00156E-14-4.23680E-14
 -1      2790 2.07475E+01 2.86963E-02 2.15885E-04-8.85038E-01 6.04874E-14 1.28428E-13
 -1      2791 2.06445E+01 8.41187E-02 2.00948E-03-8.62917E-01 1.44862E-13 9.59302E-14
 -1      2792 2.05899E+01-2.04748E-03-4.04574E-03-9.91636E-01-6.12419E-14 4.60212E-14
 -1      2793 2.05739E+01 1.24139E-01 1.14504E-03-8.17086E-01 1.17113E-13-4.50659E-14
 -1      2794 2.04875E+01 1.53307E-01 8.74803E-04-7.77127E-01-1.00861E-13 2.53833E-14
 -1      2795 2.04264E+01 1.30208E-01-2.65522E-03-9.11327E-01 3.82438E-14-3.40870E-13
 -1      2796 2.04390E+01 1.72781E-01 1.62956E-03-7.22474E-01-1.66797E-13 2.11054E-13
 -1      2797 2.03667E+01 1.84571E-01 2.12896E-04-6.74098E-01-7.99951E-14 5.52216E-14
 -1      2798 2.03125E+01 2.01053E-01-1.73023E-03-8.04856E-01 1.89006E-14-3.65215E-13
 -1      2799 2.03325E+01 1.91250E-01 1.80182E-03-6.17362E-01 5.89366E-14 1.18678E-13
 -1      2800 2.02723E+01 1.93061E-01-1.40262E-04-5.66510E-01 1.48471E-13 5.51033E-14
 -1      2801 2.02315E+01 2.30928E-01-1.12339E-03-6.88927E-01 2.30707E-14-1.01565E-14
 -1      2802 2.02470E+01 1.93093E-01 1.63294E-03-5.11736E-01 1.23070E-13 7.62567E-14
 -1      2803 2.01973E+01 1.91432E-01-1.72646E-04-4.61852E-01 2.16248E-14-2.96696E-14
 -1      2804 2.01720E+01 2.36937E-01-7.55859E-04-5.73780E-01 8.90510E-14-7.91960E-14
 -1      2805 2.01821E+01 1.89975E-01 1.76144E-03-4.17377E-01 5.20268E-16-2.09421E-14
 -1      2806 2.01411E+01 1.86478E-01-2.75878E-05-3.68994E-01 1.21105E-14 6.76691E-15
 -1      2807 2.00958E+01 2.25142E-01-1.71867E-03-3.84987E-01 4.70671E-14 3.16348E-14
 -1      2808 2.01299E+01 2.34559E-01 1.96976E-04-4.72631E-01 5.49673E-14 5.09528E-14
 -1      2809 2.84371E+01 4.61176E-01-9.08752E-02 1.39594E+00-9.78384E-15-6.33410E-13
 -1      2810 2.87338E+01 2.61431E+00-1.94395E-01 1.78791E+00 2.96707E-14-6.48870E-13
 -1      2811 1.99028E+01 1.33439E-01 8.45520E-05-9.18839E-02 1.09053E-13-9.92268E-14
 -1      2812 1.99343E+01 1.82268E-01 5.16492E-03-3.19084E-02 1.02503E-13-8.14251E-14
 -1      2813 2.00044E+01 1.56372E-01-2.43012E-03-9.97635E-02 1.16761E-13-1.68668E-13
 -1      2814 1.98926E+01 2.31803E-02 1.04285E-03-2.58332E-01 7.44330E-14-2.86929E-14
 -1      2815 1.98723E+01 2.79313E-02 7.70922E-04-2.45561E-01 9.86275E-14-5.06134E-14
 -1      2816 1.99268E+01 2.44061E-02 1.29336E-03-2.82589E-01 1.20197E-13-7.67541E-14
 -1      2817 1.98977E+01 2.19443E-02 1.39273E-04-2.71768E-01 8.62661E-14-4.37996E-14
 -1      2818 1.99637E+01 3.23330E-02-1.15924E-03-2.78008E-01 8.91158E-14-9.80822E-14
 -1      2819 1.99734E+01 3.71975E-02 1.58076E-03-3.08796E-01 1.19854E-13-7.23182E-14
 -1      2820 1.99370E+01 2.90133E-02-2.90434E-04-2.95858E-01 1.40568E-13-4.65010E-14
 -1      2821 1.99808E+01 3.66808E-02-9.11946E-04-3.07814E-01 1.20281E-13-1.19151E-13
 -1      2822 2.00311E+01 5.95936E-02 1.92181E-03-3.44076E-01 8.95114E-14-2.72410E-14
 -1      2823 1.99876E+01 4.65777E-02-5.91543E-04-3.25768E-01 1.20907E-13-1.92586E-14
 -1      2824 2.00080E+01 5.52285E-02-7.45792E-04-3.40731E-01 9.37354E-14 2.59845E-15
 -1      2825 2.00999E+01 9.04189E-02 2.32415E-03-3.94321E-01 5.71607E-14 9.65171E-15
 -1      2826 2.00488E+01 7.31016E-02-8.19964E-04-3.67919E-01 7.11074E-14-1.98061E-14
 -1      2827 2.00436E+01 8.56564E-02-6.34546E-04-3.84133E-01 7.73995E-14 4.12158E-15
 -1      2828 2.01809E+01 1.28857E-01 2.78646E-03-4.64554E-01 1.19898E-14-1.79247E-14
 -1      2829 2.01208E+01 1.07629E-01-1.01598E-03-4.27719E-01 5.51670E-14 3.55838E-14
 -1      2830 2.00867E+01 1.26516E-01-5.50109E-04-4.44104E-01 3.42051E-14 1.09324E-13
 -1      2831 2.02755E+01 1.73954E-01 3.29522E-03-5.59033E-01-1.67861E-14-2.11459E-14
 -1      2832 2.02047E+01 1.49345E-01-1.20583E-03-5.09805E-01 2.81835E-14-3.38235E-15
 -1      2833 2.01367E+01 1.76677E-01-4.66678E-04-5.25758E-01 2.56120E-14 4.69200E-14
 -1      2834 2.03855E+01 2.23875E-01 3.81887E-03-6.81050E-01 1.97838E-14-9.18644E-14
 -1      2835 2.03021E+01 1.96979E-01-1.39747E-03-6.18029E-01-3.17422E-15 3.27569E-15
 -1      2836 2.01934E+01 2.34637E-01-3.67217E-04-6.33332E-01 1.23419E-14 7.80464E-14
 -1      2837 2.05131E+01 2.74703E-01 4.30063E-03-8.32298E-01 7.72041E-14-8.66965E-14
 -1      2838 2.04149E+01 2.47871E-01-1.56978E-03-7.55090E-01 3.66055E-14-1.28401E-13
 -1      2839 2.02567E+01 2.97485E-01-2.54808E-04-7.69988E-01 6.38983E-14-2.58742E-14
 -1      2840 2.06613E+01 3.18485E-01 4.64949E-03-1.01161E+00-2.54417E-14-2.88910E-14
 -1      2841 2.05461E+01 2.96444E-01-1.65111E-03-9.21669E-01 6.39444E-14-8.44638E-14
 -1      2842 2.03268E+01 3.59245E-01-1.79053E-04-9.37250E-01 4.81656E-14-5.02198E-14
 -1      2843 2.08356E+01 3.40227E-01 4.73131E-03-1.21279E+00-7.83127E-14-1.30315E-13
 -1      2844 2.07004E+01 3.31774E-01-1.48243E-03-1.11484E+00-4.12628E-14-1.15281E-13
 -1      2845 2.04059E+01 4.08239E-01-2.83955E-04-1.13397E+00 9.98976E-15-2.52774E-14
 -1      2846 2.10469E+01 3.13751E-01 4.35508E-03-1.42123E+00-1.05063E-13-1.36950E-13
 -1      2847 2.08872E+01 3.34013E-01-7.58186E-04-1.32540E+00-1.43617E-13-1.95824E-13
 -1      2848 2.05006E+01 4.23174E-01-8.84157E-04-1.35462E+00-4.42283E-14-1.16379E-13
 -1      2849 2.13173E+01 1.97262E-01 3.22505E-03-1.60879E+00-5.82974E-14-8.74814E-14
 -1      2850 2.11251E+01 2.69922E-01 1.04851E-03-1.53369E+00-6.88475E-14-5.87770E-14
 -1      2851 2.06274E+01 3.68015E-01-2.56792E-03-1.58655E+00-9.87072E-14-1.69618E-13
 -1      2852 2.16882E+01-6.77638E-02 8.19845E-04-1.72657E+00-4.06206E-14 1.96457E-14
 -1      2853 2.14503E+01 8.93819E-02 4.74844E-03-1.70298E+00-3.67777E-14-3.18115E-14
 -1      2854 2.08216E+01 1.87042E-01-6.28390E-03-1.80551E+00-8.66058E-14-2.67795E-15
 -1      2855 2.22260E+01-5.44145E-01-3.82728E-03-1.69534E+00-2.12191E-14 6.05876E-14
 -1      2856 2.19251E+01-2.70896E-01 1.13470E-02-1.76933E+00 1.73182E-14 6.42963E-14
 -1      2857 2.11507E+01-1.94487E-01-1.31695E-02-1.96711E+00-3.19227E-14 8.94684E-14
 -1      2858 2.30135E+01-1.24958E+00-1.18747E-02-1.39600E+00-2.38144E-13 3.64765E-14
 -1      2859 2.26390E+01-8.61049E-01 2.12628E-02-1.62728E+00-1.34645E-13 9.29875E-14
 -1      2860 2.17268E+01-8.49854E-01-2.37341E-02-1.99004E+00-1.00736E-13 1.34557E-13
 -1      2861 2.41171E+01-2.03438E+00-1.69154E-02-6.78402E-01-3.01236E-13 8.91214E-16
 -1      2862 2.36736E+01-1.63646E+00 3.19833E-02-1.12394E+00-2.82105E-13-2.39600E-14
 -1      2863 2.26973E+01-1.77341E+00-3.52590E-02-1.73040E+00-2.18151E-13 1.01813E-13
 -1      2864 2.55293E+01-2.46301E+00 1.66291E-02 5.28970E-01-2.50355E-14-2.61614E-14
 -1      2865 2.50261E+01-2.33707E+00 2.98325E-02-1.27157E-01-1.29793E-13-4.72192E-15
 -1      2866 2.41087E+01-2.71871E+00-5.89535E-02-9.72451E-01-1.63263E-13-2.22183E-14
 -1      2867 2.71537E+01-1.71331E+00-1.00981E-02 1.73665E+00 1.05076E-13-3.85456E-15
 -1      2868 2.67743E+01-2.54662E+00-2.73179E-02 1.11230E+00 9.70057E-15-7.69870E-15
 -1      2869 2.75026E+01 2.03288E+00-1.51868E-01 2.61124E+00 2.27734E-13 3.54855E-14
 -1      2870 2.74190E+01 6.41942E-01-1.50893E-01 2.63872E+00 1.79849E-13-1.28179E-14
 -1      2871 2.74145E+01 3.43636E+00-1.23297E-01 1.80268E+00 2.66981E-13 1.41345E-13
 -1      2872 2.64860E+01 4.26989E+00-1.57005E-01-1.00143E+00 3.36828E-13 3.54026E-13
 -1      2873 2.64101E+01 4.50143E+00-1.80405E-01 2.79600E-01 3.68039E-13 2.33497E-13
 -1      2874 2.79616E+01 1.20192E+00-1.25348E-01-2.73815E+00 1.44079E-13 7.91311E-14
 -1      2875 2.76770E+01 2.84184E+00-1.23554E-01-2.22451E+00 2.78000E-13 1.11043E-13
 -1      2876 2.58368E+01-2.39140E+00 1.52756E-02-7.72659E-01-2.89333E-13 1.93562E-13
 -1      2877 2.61422E+01-2.10335E+00-3.38278E-02-1.42873E+00-2.76841E-13 1.86511E-13
 -1      2878 2.44629E+01-2.10435E+00 3.29687E-02 5.69922E-01-1.64552E-13 2.66363E-13
 -1      2879 2.48810E+01-2.37443E+00-2.72916E-02-1.21090E-03-2.50417E-13 2.78916E-13
 -1      2880 2.52639E+01-3.00044E+00-4.09573E-02 1.92335E-01-2.75020E-13-2.81212E-14
 -1      2881 2.32275E+01-1.32757E+00 2.78236E-02 1.37967E+00 1.21286E-13 6.97341E-14
 -1      2882 2.36414E+01-1.74650E+00-1.82533E-02 1.02365E+00 5.41702E-14 2.28184E-13
 -1      2883 2.35361E+01-2.38134E+00-3.94369E-02 1.35137E+00 2.66482E-14 2.14253E-13
 -1      2884 2.23229E+01-6.06221E-01 1.72163E-02 1.72298E+00 1.38421E-13 4.79694E-14
 -1      2885 2.26707E+01-9.54710E-01-7.82189E-03 1.55950E+00 9.96586E-14 9.44112E-14
 -1      2886 2.22633E+01-1.38968E+00-2.93248E-02 1.88279E+00 1.54748E-13 3.07055E-14
 -1      2887 2.17125E+01-1.06922E-01 8.33848E-03 1.76887E+00 1.39546E-13 1.45835E-13
 -1      2888 2.19878E+01-3.32931E-01-1.60564E-03 1.73889E+00 2.12772E-13 1.49927E-13
 -1      2889 2.14629E+01-5.61969E-01-1.89015E-02 2.01274E+00 8.24498E-14 5.89806E-15
 -1      2890 2.13047E+01 1.77701E-01 3.00046E-03 1.65234E+00 3.20049E-13 7.13184E-14
 -1      2891 2.15234E+01 5.65511E-02 1.90367E-03 1.70083E+00 1.49542E-13 2.13265E-13
 -1      2892 2.09986E+01-1.82880E-02-1.01763E-02 1.92296E+00 1.73862E-13-3.30111E-14
 -1      2893 2.10195E+01 3.08234E-01 2.33563E-04 1.46053E+00 2.20644E-13 1.13521E-13
 -1      2894 2.11978E+01 2.58114E-01 3.75318E-03 1.54758E+00 3.20811E-13 2.29283E-13
 -1      2895 2.07327E+01 2.78092E-01-4.67587E-03 1.73110E+00 2.39051E-13 7.52733E-14
 -1      2896 2.08058E+01 3.44750E-01-9.73535E-04 1.24493E+00 1.49539E-13 8.49210E-14
 -1      2897 2.09546E+01 3.36172E-01 4.56893E-03 1.34516E+00 1.37370E-13 6.45857E-14
 -1      2898 2.05714E+01 4.05309E-01-1.85284E-03 1.50093E+00 1.82361E-13 3.17226E-13
 -1      2899 2.06355E+01 3.31286E-01-1.33263E-03 1.03387E+00 2.11092E-13-1.61969E-13
 -1      2900 2.07610E+01 3.43745E-01 4.73374E-03 1.13279E+00 2.58517E-13-3.26057E-14
 -1      2901 2.04614E+01 4.32287E-01-6.52332E-04 1.26710E+00 2.86759E-13 1.25830E-13
 -1      2902 2.04947E+01 2.95933E-01-1.27630E-03 8.41240E-01 1.39726E-13-3.38535E-13
 -1      2903 2.06002E+01 3.16748E-01 4.49758E-03 9.31684E-01 1.00874E-13-2.77591E-13
 -1      2904 2.03761E+01 4.07393E-01-2.97261E-04 1.04773E+00 2.73809E-13-4.96676E-14
 -1      2905 2.03766E+01 2.55389E-01-1.02786E-03 6.72199E-01 1.03007E-13-4.09106E-14
 -1      2906 2.04645E+01 2.77093E-01 4.02543E-03 7.51592E-01 6.37020E-14-2.21734E-13
 -1      2907 2.03039E+01 3.61018E-01-2.87067E-04 8.51194E-01 5.95317E-14-2.01703E-13
 -1      2908 2.02774E+01 2.19313E-01-6.02145E-04 5.26406E-01 8.24724E-14 3.68107E-13
 -1      2909 2.03494E+01 2.37724E-01 3.43216E-03 5.95023E-01 9.25721E-14 1.89749E-13
 -1      2910 2.02400E+01 3.11266E-01-3.65916E-04 6.79953E-01-9.37663E-14 1.33988E-13
 -1      2911 2.01957E+01 1.92749E-01 4.76524E-04 4.00649E-01 6.62205E-14 5.23234E-13
 -1      2912 2.02524E+01 2.05348E-01 2.88506E-03 4.59645E-01 1.01306E-13 4.53277E-13
 -1      2913 2.01818E+01 2.68207E-01-6.31886E-04 5.32499E-01-2.32590E-14 2.97966E-13
 -1      2914 2.01236E+01 1.88371E-01 1.00352E-03 3.07762E-01-1.08191E-13 5.45539E-13
 -1      2915 2.01679E+01 1.96518E-01 2.59729E-03 3.61304E-01-3.38557E-14 5.79250E-13
 -1      2916 2.01215E+01 2.47289E-01-2.32530E-03 4.21503E-01 1.52607E-14 4.50999E-13
 -1      2917 2.00723E+01 2.48457E-01-2.40881E-03 3.39067E-01-2.72907E-13 4.88643E-13
 -1      2918 8.98437E+00-1.95003E+00 1.54985E-01-4.38151E+00-1.39555E-13-7.11264E-13
 -1      2919 1.16909E+01-3.09389E+00 9.56581E-02-5.81833E+00-1.48048E-13-6.63969E-13
 -1      2920 1.97841E+01 5.70347E-01-1.08948E-03 8.40455E-03 4.57341E-14-1.31343E-13
 -1      2921 1.97869E+01 5.67508E-01-1.06301E-03 6.60050E-02 1.10605E-13-3.42147E-13
 -1      2922 1.98403E+01 5.10892E-01-2.07741E-03 2.39647E-01-9.83304E-14-3.45503E-13
 -1      2923 1.98722E+01 4.79823E-01 2.19236E-04 2.79140E-01-8.15609E-14-1.52238E-13
 -1      2924 1.98005E+01 5.50610E-01-3.87503E-04-1.12803E-01 8.93740E-15 3.17222E-14
 -1      2925 1.97886E+01 5.62134E-01-1.66073E-03-5.78661E-02-5.84697E-16-6.91043E-14
 -1      2926 1.97375E+01 5.86317E-01 1.97276E-03-3.03604E-02 1.52164E-13-2.35656E-13
 -1      2927 1.97970E+01 5.57067E-01-1.72796E-03 1.31425E-01-2.07485E-14-3.58242E-13
 -1      2928 1.98153E+01 5.39678E-01-3.04895E-04 1.83905E-01 2.01617E-14-2.55414E-13
 -1      2929 1.97875E+01 5.48049E-01 1.88609E-03 2.35305E-01-2.96204E-14-1.35635E-13
 -1      2930 1.97443E+01 5.84629E-01 2.07790E-03 1.07823E-01 1.67540E-13-2.46430E-13
 -1      2931 1.98418E+01 5.02506E-01 3.19486E-04-2.15336E-01 1.48037E-13-2.12032E-14
 -1      2932 1.98178E+01 5.26094E-01-2.02038E-03-1.70659E-01 6.67155E-14 1.15193E-13
 -1      2933 1.97654E+01 5.55092E-01 1.68403E-03-1.60307E-01 1.80309E-13 7.08072E-14
 -1      2934 1.99039E+01 4.30610E-01 1.02592E-03-2.90696E-01 1.59307E-13 1.64066E-13
 -1      2935 1.98700E+01 4.64311E-01-2.15362E-03-2.60044E-01 1.84736E-13 1.20943E-13
 -1      2936 1.98225E+01 4.95898E-01 1.17383E-03-2.67577E-01 2.05093E-13 5.84743E-14
 -1      2937 1.99791E+01 3.43768E-01 1.78869E-03-3.29979E-01 7.60904E-14 8.42093E-14
 -1      2938 1.99379E+01 3.83188E-01-2.38524E-03-3.15683E-01 2.20042E-13 1.57400E-13
 -1      2939 1.99024E+01 4.14847E-01 5.66911E-04-3.40684E-01 1.73334E-13 2.22688E-13
 -1      2940 2.00364E+01 2.67258E-01-1.30992E-03-3.19170E-01 1.15657E-14-1.63685E-13
 -1      2941 1.66944E+01-4.56225E+00 1.17676E-01-6.45008E+00 4.13836E-13-3.06720E-13
 -1      2942 1.97578E+01-5.19130E+00-2.66067E-02-6.06528E+00 3.18051E-13-4.27727E-13
 -1      2943 1.99658E+01 2.40949E-01-5.90160E-04 5.03485E-02 1.02635E-13-7.34271E-14
 -1      2944 2.00297E+01 3.22743E-01 8.08632E-03 1.51353E-01 1.32800E-13-5.96115E-14
 -1      2945 2.00633E+01 2.80375E-01-2.79842E-03 4.37532E-02 1.20715E-13-1.45942E-13
 -1      2946 1.08425E+01-2.68762E+00 1.56057E-01-5.76554E+00 1.93290E-13 1.93234E-13
 -1      2947 1.35413E+01-3.74702E+00 5.15593E-02-6.58223E+00 2.81469E-13 3.09475E-14
 -1      2948 2.15558E+01-5.27795E+00 1.26576E-01-4.98470E+00 4.76841E-14-2.77230E-13
 -1      2949 2.43934E+01-5.42595E+00-1.46978E-01-3.70149E+00 1.47826E-13-2.36533E-13
 -1      2950 2.14538E+01-5.00817E+00-2.23777E-02 5.11041E+00 4.65877E-14 4.19413E-14
 -1      2951 1.81085E+01-4.55906E+00 1.40180E-01 6.11665E+00 1.10190E-13-5.85434E-14
 -1      2952 2.68549E+01-6.09532E-01-4.46552E-02-2.39586E+00-1.47590E-14 1.10038E-13
 -1      2953 2.89151E+01-2.07979E-01-1.24015E-01-2.22234E+00 1.63758E-14-2.14412E-13
 -1      2954 2.87172E+01-2.46783E+00-3.33436E-02-9.94456E-01-7.54952E-15-5.00822E-13
 -1      2955 2.68354E+01-1.60296E+00-3.76562E-02-2.09339E+00-1.93089E-13 1.04663E-13
 -1      2956 7.25841E+00-1.56149E+00 1.59727E-01-3.75785E+00 1.04909E-13 3.73979E-13
 -1      2957 8.47753E+00-1.99725E+00 1.05786E-01-4.85406E+00 1.52309E-13 2.77112E-13
 -1      2958 1.11820E+01-1.95153E+00 1.56942E-01-5.14210E+00 2.61680E-13 1.49214E-13
 -1      2959 7.95215E+00-6.65176E-01 1.62103E-01-2.52727E+00-5.04458E-15 6.08680E-14
 -1      2960 1.98737E+01 3.67836E-02 7.97743E-04-2.27047E-01 1.05656E-13-9.38228E-14
 -1      2961 1.98650E+01 5.12095E-02 1.70569E-03-2.06974E-01 1.32614E-13-8.37696E-14
 -1      2962 1.99712E+01 8.39556E-02-1.95098E-03-1.87942E-01 1.24489E-13-1.16526E-13
 -1      2963 1.99593E+01 4.60070E-02-1.50778E-03-2.42052E-01 7.98121E-14-7.24531E-14
 -1      2964 2.01821E+01 2.27660E+00 1.74298E-04-1.42345E+00-1.81542E-13-3.60205E-13
 -1      2965 1.99333E+01 2.60389E+00-7.87892E-03 7.91327E-01 2.54573E-13-2.87404E-13
 -1      2966 1.98903E+01 2.69683E+00-6.20982E-03 6.42543E-01 2.15848E-13-3.04709E-13
 -1      2967 2.00092E+01 2.40031E+00 4.48400E-03 5.13407E-01 1.96977E-13-3.11522E-13
 -1      2968 2.00891E+01 2.20000E+00 5.69530E-03 7.41543E-01 2.36157E-13-2.56122E-13
 -1      2969 1.98853E+01 2.70561E+00-6.13265E-03-6.32514E-01-8.53877E-16-4.01368E-13
 -1      2970 1.99272E+01 2.61515E+00-7.69072E-03-7.81680E-01-4.73918E-14-4.17080E-13
 -1      2971 9.50958E+00-1.74809E+00 1.06732E-01 4.42517E+00-1.35406E-13 1.19516E-13
 -1      2972 7.26692E+00-1.08529E+00 2.04725E-01 2.70979E+00-1.95809E-13 2.07001E-13
 -1      2973 2.00695E+01 4.21804E-01-1.65119E-03 2.80488E-01 1.72984E-13-5.14828E-14
 -1      2974 2.01689E+01 5.59359E-01 1.02653E-02 4.46286E-01 1.89319E-13-2.32036E-14
 -1      2975 2.01493E+01 4.85439E-01-2.66309E-03 2.70272E-01 1.66455E-13-7.97006E-14
 -1      2976 2.89717E+01 1.04367E+00-1.66810E-01-1.44061E+00-2.34993E-13-5.42316E-13
 -1      2977 2.85924E+01-1.07805E+00-4.12710E-02-3.80946E-01-1.85824E-13-4.18610E-13
 -1      2978 7.92908E+00-1.54194E+00 6.29209E-02 4.23843E+00 3.67900E-14-7.93254E-14
 -1      2979 6.32486E+00-9.74964E-01 2.21698E-01 2.00534E+00 3.03611E-14-3.22159E-13
 -1      2980 1.48974E+01-4.09074E+00 1.35137E-01-6.11674E+00-1.43774E-13-4.60534E-13
 -1      2981 1.80516E+01-4.98388E+00-1.44796E-02-6.06532E+00-3.86913E-14-3.70481E-13
 -1      2982 1.46363E+01-3.92479E+00 7.46763E-03 6.59114E+00 8.23508E-14-7.50233E-14
 -1      2983 1.13754E+01-2.66864E+00 1.83217E-01 5.79982E+00 5.45397E-14-5.21250E-14
 -1      2984 1.73980E+01-3.74216E+00 1.24312E-01 5.73066E+00 7.83124E-14 1.15324E-14
 -1      2985 2.88571E+01 4.99825E+00-1.27219E-01 1.65259E+00 3.21410E-14-6.29080E-13
 -1      2986 2.91352E+01 6.29294E+00-1.94624E-01 9.67959E-01-1.53738E-13-5.35981E-13
 -1      2987 2.80122E+01 4.56682E+00-1.82744E-01-1.77081E+00-5.39679E-13-3.31957E-13
 -1      2988 2.88141E+01 3.09364E+00-8.10583E-02-1.93388E+00-4.04121E-13-4.71886E-13
 -1      2989 2.28334E+01-5.10707E+00 8.87939E-02-4.72619E+00 2.52243E-13-3.00371E-13
 -1      2990 2.52540E+01-4.73718E+00-1.13441E-01-3.34558E+00 1.64105E-13-5.24095E-13
 -1      2991 2.72373E+01-3.47320E+00 2.55620E-02-1.54399E+00 6.85563E-14-7.17065E-13
 -1      2992 2.81571E+01-1.94054E+00-1.19061E-01 9.79764E-03-7.49747E-15-7.28181E-13
 -1      2993 2.80269E+01-3.79613E+00-1.33941E-01 6.88581E-01-8.11851E-16-7.40505E-13
 -1      2994 2.68174E+01-4.67364E+00 6.81213E-02 2.06679E+00-2.63845E-13-4.67751E-13
 -1      2995 2.51035E+01-4.98782E+00 3.30447E-02 2.94597E+00-4.50126E-13-5.11417E-13
 -1      2996 2.76211E+01-3.13856E+00-1.06926E-02-4.55357E-01-1.45436E-13-5.54071E-13
 -1      2997 2.03465E+01 9.32328E-01 8.26873E-03 8.87424E-01 2.44861E-13 1.90491E-14
 -1      2998 2.02921E+01 1.56765E+00-5.33968E-04 1.14829E+00 2.85689E-13-5.62831E-14
 -1      2999 2.02813E+01 1.34850E+00 1.77429E-03 9.01902E-01 2.59517E-13-9.12995E-14
 -1      3000 2.02046E+01 7.14363E-01-3.59821E-03 6.24296E-01 2.17445E-13-1.25409E-14
 -1      3001 1.99802E+01 2.49431E+00-6.16638E-03-8.98289E-01-7.42307E-14-4.10187E-13
 -1      3002 2.00331E+01 2.35694E+00-1.16428E-02-1.03824E+00-1.18860E-13-4.00055E-13
 -1      3003 2.00821E+01 2.21379E+00 5.83768E-03-7.35065E-01-6.31929E-14-3.77892E-13
 -1      3004 1.99448E+01 2.55270E+00 3.57429E-03 4.45930E-03 1.13548E-13-3.66040E-13
 -1      3005 1.98062E+01 2.88121E+00-5.53241E-03-6.16456E-02 1.10396E-13-3.92086E-13
 -1      3006 1.98134E+01 2.86646E+00-5.58398E-03-2.15715E-01 8.50901E-14-4.03395E-13
 -1      3007 8.08740E+00-3.76568E-01 1.77522E-01 1.34182E+00-2.07286E-13 1.00864E-13
 -1      3008 2.18072E+01-4.88300E+00 7.89198E-02-4.85588E+00 3.23158E-13-3.58573E-13
 -1      3009 2.62861E+01-4.63471E+00 3.49896E-02-1.81114E+00 6.74391E-14-2.35215E-13
 -1      3010 2.75089E+01 5.94898E+00-1.21832E-01 5.42183E-01-2.26152E-13-5.67598E-13
 -1      3011 2.75117E+01 3.46893E+00-6.41430E-02 2.01531E+00 6.68909E-15-6.43402E-13
 -1      3012 1.88228E+01-4.80437E+00 8.87317E-02 5.61252E+00-4.37594E-13-3.45418E-14
 -1      3013 1.62269E+01-3.73047E+00 1.30981E-01-6.05523E+00 3.78031E-13-3.25948E-13
 -1      3014 2.63277E+01-3.45220E+00-9.42782E-02-4.34878E-02-4.31044E-14-1.16877E-13
 -1      3015 2.78410E+01 4.43137E+00-2.22924E-01-1.42088E+00 3.54078E-13 2.19776E-13
 -1      3016 2.68724E+01-2.55325E+00-7.07275E-02-1.22475E+00-2.41109E-13-1.73792E-13
 -1      3017 8.49154E+00-1.23376E+00 1.79594E-01-3.48296E+00-8.23022E-14-5.94691E-13
 -1      3018 1.08417E+01-1.22510E+00 1.16571E-01-4.07069E+00-1.06956E-13-6.15577E-13
 -1      3019 8.18964E+00-5.58588E-01 1.04529E-01-2.31204E+00-2.85189E-15-4.69930E-13
 -1      3020 2.00266E+01 3.07736E-01 7.34095E-04 3.43852E-01-2.03200E-13 2.65503E-13
 -1      3021 2.00477E+01 3.09424E-01 2.30827E-03 3.86594E-01-2.88828E-13 4.06754E-13
 -1      3022 1.99820E+01 3.54662E-01-2.32342E-03 3.45650E-01-1.70100E-13 1.20406E-13
 -1      3023 2.05434E+01-4.66120E+00 1.28721E-01-5.01087E+00-4.44783E-14-3.19928E-13
 -1      3024 2.59673E+01-4.14365E+00 4.17233E-03-2.05456E+00 1.45106E-13-6.13572E-13
 -1      3025 2.02515E+01 8.11842E-01 9.79819E-04 5.99163E-01 2.22627E-13-6.31510E-14
 -1      3026 1.44759E+01-3.05667E+00 1.37311E-01-5.53641E+00-1.84894E-13-4.70832E-13
 -1      3027 2.00172E+01 2.97755E-01 3.14435E-04-3.60309E-01 1.16350E-13-1.19448E-13
 -1      3028 2.75340E+01 4.94023E+00-1.65683E-01-1.55126E+00-5.17142E-13-3.86198E-13
 -1      3029 2.66917E+01 3.88102E+00-4.36150E-02-1.94560E+00-4.18082E-13-3.27204E-13
 -1      3030 2.65865E+01 5.37719E+00-1.44101E-01-1.14499E+00-4.65822E-13-4.50279E-13
 -1      3031 2.78118E+01-2.54055E+00-5.52471E-02 2.96921E-01-1.15630E-13-3.57755E-13
 -1      3032 2.64397E+01-3.48236E+00-1.50877E-02 1.04710E+00-1.33886E-14-2.90171E-13
 -1      3033 2.72712E+01-1.70353E+00-8.45602E-02-8.88248E-01-1.71876E-14-3.39728E-13
 -1      3034 2.32603E+01-4.95727E+00 5.32982E-02 4.17487E+00 1.29757E-14 7.90340E-15
 -1      3035 2.15578E+01-4.58849E+00 3.07902E-02 4.55046E+00 8.24688E-14-2.88641E-14
 -1      3036 2.45055E+01-4.60220E+00-2.71220E-02 2.94444E+00 9.65894E-15-9.64021E-14
 -1      3037 1.98286E+01 2.83035E+00-5.77898E-03-3.49968E-01 6.19430E-14-3.76697E-13
 -1      3038 1.98524E+01 2.78154E+00-6.19650E-03-5.03106E-01 2.08045E-14-3.86099E-13
 -1      3039 2.00050E+01 2.40793E+00 4.41456E-03-5.04279E-01 6.15796E-15-3.72844E-13
 -1      3040 1.99593E+01 2.51820E+00 3.84814E-03-2.54068E-01 6.70647E-14-3.70936E-13
 -1      3041 7.34601E+00-4.46874E-01 1.67033E-01 9.38573E-01 7.71605E-15-3.89244E-13
 -1      3042 1.99043E+01 4.41819E-01-2.27355E-03 3.10620E-01 6.02160E-15-6.79909E-14
 -1      3043 1.99444E+01 4.00873E-01 3.42764E-04 3.31303E-01-1.08011E-13-5.74004E-14
 -1      3044 1.99456E+01 4.07006E-01 1.86097E-03 3.74937E-01-1.23406E-13 3.01947E-14
 -1      3045 1.98596E+01 4.85105E-01 1.79118E-03 3.26715E-01-3.09728E-14-1.53824E-13
 -1      3046 1.11307E+01-1.56422E+00 1.44871E-01 4.65219E+00 1.75415E-14-1.36724E-13
 -1      3047 1.15358E+01-2.11335E+00 1.93135E-01 5.05366E+00-7.43572E-14 6.67105E-14
 -1      3048 1.08482E+01-1.18592E+00 9.10805E-02 4.03660E+00-5.65936E-14 1.89057E-13
 -1      3049 1.36001E+01-2.61074E+00 7.88027E-02 5.29564E+00-1.78427E-13 9.18154E-14
 -1      3050 2.79650E+01-9.68025E-01-8.01341E-02 1.09782E+00-2.82795E-14-5.63799E-13
 -1      3051 2.69620E+01 1.32815E-01-4.87373E-02 1.89265E+00-8.38288E-14-4.77909E-13
 -1      3052 2.70671E+01-1.94237E+00 2.31218E-02 6.48978E-01-4.10227E-14-5.31623E-13
 -1      3053 2.77608E+01 1.33191E+00-9.25481E-02-1.84843E+00-2.50133E-13-3.15525E-13
 -1      3054 2.03012E+01 1.73272E+00-9.27435E-03-1.32107E+00-2.00239E-13-3.09115E-13
 -1      3055 2.02871E+01 1.33114E+00-6.55719E-03-1.03624E+00-1.88268E-13-2.75046E-13
 -1      3056 2.02797E+01 1.41743E+00 2.14748E-03-9.39159E-01-1.52665E-13-2.92154E-13
 -1      3057 2.02459E+01 1.48905E+00-5.97305E-03 7.96852E-01 2.49675E-13-1.68433E-13
 -1      3058 2.02076E+01 1.67822E+00-6.95932E-04 7.40795E-01 2.29772E-13-2.08158E-13
 -1      3059 2.01934E+01 5.29350E-01-2.58302E-03 2.27919E-01 1.65864E-13-1.39646E-13
 -1      3060 2.02451E+01 6.81617E-01 4.32401E-03 3.71336E-01 1.90086E-13-1.13674E-13
 -1      3061 2.02746E+01 7.27683E-01 4.10995E-03-3.34452E-01-1.15316E-13-2.69198E-13
 -1      3062 2.02342E+01 5.68644E-01-3.23115E-03-2.00067E-01-1.03957E-13-2.60843E-13
 -1      3063 2.02281E+01 4.43934E-01 3.87841E-03-1.01403E-01-1.20899E-13-2.32448E-13
 -1      3064 2.01912E+01 3.40912E-01-1.98732E-03-1.15769E-02-1.08366E-13-2.18069E-13
 -1      3065 2.02800E+01 6.02662E-01-2.41937E-04-1.71597E-01-9.18702E-14-2.17265E-13
 -1      3066 2.01766E+01 2.62289E-01 2.98978E-03 5.55776E-02-1.08844E-13-2.00640E-13
 -1      3067 2.01491E+01 1.97839E-01-9.81574E-04 1.13537E-01-1.25867E-13-1.94833E-13
 -1      3068 2.02454E+01 3.65001E-01-9.14036E-04 1.21775E-03-1.03244E-13-1.76515E-13
 -1      3069 2.01318E+01 1.50293E-01 1.99322E-03 1.57517E-01-1.28243E-13-1.70961E-13
 -1      3070 2.01143E+01 1.12856E-01-2.23441E-04 1.94314E-01-9.28496E-14-1.58830E-13
 -1      3071 2.02047E+01 2.14770E-01-1.02232E-03 1.18050E-01-1.09938E-13-1.46087E-13
 -1      3072 2.00970E+01 8.70588E-02 1.13456E-03 2.22972E-01-7.99361E-14-1.50768E-13
 -1      3073 2.00881E+01 6.89680E-02 3.15806E-04 2.47092E-01-8.98371E-14-1.38351E-13
 -1      3074 2.01654E+01 1.26003E-01-9.67231E-04 1.95307E-01-8.19933E-14-1.27591E-13
 -1      3075 2.00719E+01 5.87930E-02 4.50785E-04 2.67144E-01-7.62895E-14-1.24765E-13
 -1      3076 2.00699E+01 5.47707E-02 7.06546E-04 2.85090E-01-6.28420E-14-1.25158E-13
 -1      3077 2.01302E+01 8.18058E-02-8.23085E-04 2.47682E-01-5.77742E-14-1.51252E-13
 -1      3078 2.00551E+01 5.59892E-02-8.21231E-05 3.01871E-01-7.50466E-14-1.12017E-13
 -1      3079 2.00587E+01 6.22833E-02 1.00276E-03 3.18554E-01-5.31113E-14-1.34942E-13
 -1      3080 2.00995E+01 7.01651E-02-6.53758E-04 2.87365E-01-6.38723E-14-1.26200E-13
 -1      3081 2.00450E+01 7.18105E-02-4.94149E-04 3.36209E-01-5.11182E-14-1.48700E-13
 -1      3082 2.00533E+01 8.55656E-02 1.24135E-03 3.55290E-01-6.05281E-14-1.55659E-13
 -1      3083 2.00729E+01 8.24318E-02-4.89110E-04 3.23994E-01-5.72773E-14-9.24701E-14
 -1      3084 2.00405E+01 1.00920E-01-8.08681E-04 3.76989E-01-6.67877E-14-1.26951E-13
 -1      3085 2.00529E+01 1.19684E-01 1.44453E-03 4.01110E-01-4.44872E-14-1.41596E-13
 -1      3086 2.00495E+01 1.11977E-01-3.44599E-04 3.65034E-01-6.49483E-14-7.15846E-14
 -1      3087 2.00409E+01 1.38540E-01-1.03606E-03 4.29199E-01-1.16440E-14-1.05783E-13
 -1      3088 2.00574E+01 1.59815E-01 1.62433E-03 4.60090E-01 1.45271E-14-6.94796E-14
 -1      3089 2.00285E+01 1.53099E-01-2.34628E-04 4.16136E-01 7.74929E-15-6.61035E-14
 -1      3090 2.00463E+01 1.79573E-01-1.16904E-03 4.96160E-01-6.04725E-15-9.58350E-14
 -1      3091 2.00675E+01 2.00359E-01 1.78578E-03 5.34622E-01 3.39986E-14-9.75823E-14
 -1      3092 2.00096E+01 2.00032E-01-1.80180E-04 4.81375E-01-7.76570E-16-1.41468E-13
 -1      3093 2.00583E+01 2.17686E-01-1.17776E-03 5.79488E-01-2.40570E-15-1.45434E-13
 -1      3094 2.00854E+01 2.33974E-01 1.92921E-03 6.25250E-01-3.55163E-14-1.90044E-13
 -1      3095 1.99935E+01 2.45925E-01-2.18386E-04 5.63334E-01-5.42638E-14-1.46578E-13
 -1      3096 2.00802E+01 2.44296E-01-1.00295E-03 6.78817E-01-5.80394E-14-2.24168E-13
 -1      3097 2.01154E+01 2.50524E-01 2.05074E-03 7.30254E-01-1.02818E-13-1.93513E-13
 -1      3098 1.99827E+01 2.81736E-01-4.12405E-04 6.63004E-01-5.75885E-14-2.52307E-13
 -1      3099 2.01183E+01 2.47505E-01-5.46882E-04 7.91254E-01-1.02365E-13-1.57536E-13
 -1      3100 2.01656E+01 2.36031E-01 2.13839E-03 8.44953E-01-7.53441E-14-1.31297E-13
 -1      3101 1.99826E+01 2.95035E-01-8.63115E-04 7.79482E-01-8.42910E-14-2.41069E-13
 -1      3102 2.01837E+01 2.11162E-01 3.37658E-04 9.10473E-01-4.82192E-14-1.26605E-13
 -1      3103 2.02489E+01 1.71951E-01 2.15539E-03 9.60612E-01-1.81153E-14-1.17719E-13
 -1      3104 2.00029E+01 2.68847E-01-1.72169E-03 9.09374E-01-7.35682E-14-2.15042E-13
 -1      3105 2.02936E+01 1.14539E-01 1.85544E-03 1.02528E+00-3.10900E-14-1.11271E-13
 -1      3106 2.03854E+01 3.54788E-02 1.99373E-03 1.06277E+00-3.58057E-14-9.05305E-14
 -1      3107 2.00604E+01 1.80903E-01-3.19733E-03 1.04570E+00-2.46258E-14-2.16480E-13
 -1      3108 2.04741E+01-6.63354E-02 4.25442E-03 1.11728E+00-3.12233E-14-4.46701E-14
 -1      3109 2.06037E+01-1.97619E-01 1.36913E-03 1.12861E+00 3.30550E-14-5.70781E-14
 -1      3110 2.01812E+01 4.16696E-03-5.54902E-03 1.17585E+00-2.87910E-15-5.20486E-14
 -1      3111 2.07605E+01-3.53631E-01 7.73398E-03 1.15714E+00 5.51713E-14-8.44471E-14
 -1      3112 2.09398E+01-5.44584E-01-2.27062E-04 1.12307E+00 5.07732E-14-1.03455E-13
 -1      3113 2.04038E+01-2.89563E-01-9.02530E-03 1.27765E+00 4.28211E-14-1.05200E-14
 -1      3114 2.11938E+01-7.54915E-01 1.22623E-02 1.09962E+00 4.66106E-14-7.34209E-14
 -1      3115 2.14294E+01-9.97471E-01-3.54254E-03 9.94896E-01 9.44541E-14-4.74463E-14
 -1      3116 2.07789E+01-7.18452E-01-1.34822E-02 1.31253E+00 6.84583E-14 3.93480E-14
 -1      3117 2.18066E+01-1.23874E+00 1.69501E-02 8.79385E-01 1.65950E-14 6.50684E-15
 -1      3118 2.20885E+01-1.48976E+00-9.30739E-03 6.76163E-01 1.41456E-15-6.14578E-14
 -1      3119 2.13622E+01-1.26743E+00-1.79485E-02 1.21679E+00 7.48902E-14 5.70832E-14
 -1      3120 2.25894E+01-1.69086E+00 1.88549E-02 4.16084E-01-4.60743E-15-9.13015E-14
 -1      3121 2.28792E+01-1.84310E+00-1.52017E-02 9.97391E-02 1.78677E-16-5.64722E-14
 -1      3122 2.21903E+01-1.84318E+00-2.00741E-02 8.94077E-01-4.33579E-14-1.73041E-14
 -1      3123 2.34273E+01-1.85812E+00 1.22445E-02-3.32470E-01 7.23128E-14-6.90767E-14
 -1      3124 2.36546E+01-1.73601E+00-1.51709E-02-7.16037E-01 7.92049E-14-2.14551E-14
 -1      3125 2.32002E+01-2.20331E+00-2.33965E-02 2.27444E-01 4.19669E-14 5.58251E-14
 -1      3126 2.41108E+01-1.38832E+00-4.13481E-03-1.27318E+00 9.99997E-14 6.28478E-14
 -1      3127 2.41831E+01-8.03048E-01-3.88792E-03-1.59176E+00 1.82989E-13 1.83686E-13
 -1      3128 2.42526E+01-1.91612E+00-1.65410E-02-7.84742E-01 1.24342E-13 7.83778E-14
 -1      3129 2.42864E+01-6.96089E-03-5.16833E-02-1.98492E+00 1.49107E-13 1.68329E-13
 -1      3130 2.41566E+01 9.82161E-01 2.77017E-03-1.99270E+00 9.00668E-14 1.40311E-13
 -1      3131 2.48811E+01-6.55575E-01-1.34954E-02-1.70498E+00 1.50664E-13 1.34369E-13
 -1      3132 2.45357E+01 2.58163E+00-7.06501E-02-1.80018E+00-8.33222E-14-7.89559E-14
 -1      3133 2.43563E+01 3.47526E+00-4.60754E-02-1.29102E+00-1.28161E-13-1.03889E-13
 -1      3134 2.37801E+01 3.18185E+00-1.47081E-02 1.07241E+00-5.05429E-14-1.77737E-13
 -1      3135 2.38763E+01 2.40907E+00-8.70602E-02 1.63399E+00 4.66988E-14-2.05837E-13
 -1      3136 2.42123E+01-5.07453E-01-1.03820E-02 1.73394E+00-9.26594E-14-1.15257E-13
 -1      3137 2.41806E+01-1.18817E+00-1.39752E-02 1.44556E+00-1.49679E-13-2.35515E-13
 -1      3138 2.37866E+01-1.61099E+00-1.25731E-02 9.01593E-01-8.14333E-14-1.78733E-13
 -1      3139 2.35812E+01-1.81893E+00 8.16449E-03 5.17695E-01 3.19662E-14-2.08127E-13
 -1      3140 2.44195E+01-1.69749E+00-1.13653E-02 1.01146E+00-1.24253E-13-4.31041E-13
 -1      3141 2.30453E+01-1.86843E+00-1.70933E-02 5.21170E-02 1.60306E-14-2.32018E-13
 -1      3142 2.27638E+01-1.75728E+00 1.76591E-02-2.85937E-01-1.41321E-14-2.74026E-13
 -1      3143 2.34185E+01-2.20431E+00-2.40877E-02-3.64037E-02 1.65371E-14-5.88920E-13
 -1      3144 2.22451E+01-1.58065E+00-1.11783E-02-5.82351E-01 4.01532E-14-2.03990E-13
 -1      3145 2.19583E+01-1.33851E+00 1.74374E-02-8.08813E-01-2.47421E-14-3.15597E-13
 -1      3146 2.23962E+01-1.93912E+00-2.00823E-02-7.83105E-01-1.14242E-15-5.01513E-13
 -1      3147 2.15555E+01-1.09857E+00-4.81403E-03-9.50867E-01-1.08197E-13-1.57390E-13
 -1      3148 2.13095E+01-8.48406E-01 1.32016E-02-1.07351E+00 1.62836E-14-2.11551E-13
 -1      3149 2.15237E+01-1.38572E+00-1.86156E-02-1.16910E+00-6.63774E-14-3.55259E-13
 -1      3150 2.10325E+01-6.28767E-01-9.33049E-04-1.11305E+00 7.21449E-14-1.33101E-13
 -1      3151 2.08427E+01-4.24435E-01 8.62794E-03-1.15876E+00 1.39019E-13-1.05607E-13
 -1      3152 2.08940E+01-8.20719E-01-1.41944E-02-1.30548E+00 6.65466E-14-2.53346E-13
 -1      3153 2.06688E+01-2.56096E-01 9.86121E-04-1.13854E+00 1.05197E-13-1.52756E-13
 -1      3154 2.05307E+01-1.10973E-01 4.92718E-03-1.13358E+00 1.40757E-14-2.42497E-13
 -1      3155 2.04815E+01-3.63075E-01-9.69575E-03-1.29258E+00 6.46017E-14-3.22441E-13
 -1      3156 2.04304E+01 3.01441E-03 1.76073E-03-1.08213E+00 1.44884E-14-2.53666E-13
 -1      3157 2.03328E+01 9.47065E-02 2.37013E-03-1.04674E+00-5.48080E-14-2.05494E-13
 -1      3158 2.02325E+01-3.92451E-02-6.08083E-03-1.20030E+00-3.49119E-14-2.76067E-13
 -1      3159 2.02804E+01 1.63250E-01 1.98141E-03-9.81365E-01-1.96121E-13-1.29891E-13
 -1      3160 2.02117E+01 2.13838E-01 7.46344E-04-9.29714E-01-8.76356E-14-3.51761E-13
 -1      3161 2.00943E+01 1.65180E-01-3.55430E-03-1.07119E+00-8.98161E-14-1.93624E-13
 -1      3162 2.01886E+01 2.49073E-01 1.95658E-03-8.60452E-01 3.22483E-14-4.07237E-13
 -1      3163 2.01394E+01 2.71357E-01-2.10299E-04-8.01968E-01 1.45728E-14-3.28620E-13
 -1      3164 2.00258E+01 2.78286E-01-1.93731E-03-9.29541E-01-1.21485E-13-1.31523E-13
 -1      3165 2.01328E+01 2.84771E-01 1.83220E-03-7.34518E-01 1.11038E-13-2.83995E-13
 -1      3166 2.00969E+01 2.89961E-01-5.64531E-04-6.75138E-01 1.20643E-13-1.89971E-13
 -1      3167 1.99982E+01 3.28554E-01-9.40096E-04-7.88849E-01 8.76475E-14-3.08093E-13
 -1      3168 2.00980E+01 2.90317E-01 1.50858E-03-6.11832E-01 5.40368E-14-2.22833E-13
 -1      3169 2.00692E+01 2.87134E-01-1.06351E-03-5.55615E-01 4.02603E-14-2.68936E-13
 -1      3170 1.99920E+01 3.40748E-01-2.87715E-04-6.56547E-01 8.60355E-14-2.53227E-13
 -1      3171 2.00876E+01 1.79530E-01-6.02111E-04-1.08655E-01 1.14038E-13-1.37370E-13
 -1      3172 2.01148E+01 2.39311E-01 3.08865E-03-4.94180E-02 8.48128E-14-1.29826E-13
 -1      3173 2.00308E+01 5.53865E-02 1.15511E-03-3.17229E-01 4.13884E-14-6.05734E-14
 -1      3174 2.00194E+01 4.86188E-02-7.08114E-05-3.00813E-01 8.14266E-14-9.44898E-14
 -1      3175 2.00287E+01 4.70621E-02 8.40574E-04-2.84038E-01 1.00987E-13-1.17250E-13
 -1      3176 2.00240E+01 5.05534E-02 5.22224E-04-2.66629E-01 8.59229E-14-1.10953E-13
 -1      3177 2.00692E+01 6.22352E-02-7.82230E-04-2.91880E-01 8.63911E-14-1.25353E-13
 -1      3178 2.00545E+01 1.20189E-01 1.71162E-03-4.03384E-01 1.31893E-14 6.40506E-14
 -1      3179 2.00330E+01 9.79835E-02-9.68710E-04-3.77166E-01 7.76404E-14 2.71457E-14
 -1      3180 2.00726E+01 1.72200E-01 1.98662E-03-4.69292E-01 3.02090E-14 7.95585E-14
 -1      3181 2.00470E+01 1.43730E-01-1.35306E-03-4.33685E-01 2.34200E-14 5.81258E-14
 -1      3182 2.00340E+01 1.58979E-01-9.16966E-05-4.25467E-01 1.66289E-14 2.34688E-14
 -1      3183 2.00925E+01 2.35162E-01 2.26840E-03-5.57199E-01 2.75680E-15 3.51581E-14
 -1      3184 2.00630E+01 2.01206E-01-1.73858E-03-5.09894E-01 5.14429E-14 4.90915E-14
 -1      3185 2.00229E+01 2.23119E-01 1.79688E-04-4.97371E-01 5.66415E-14-1.59321E-14
 -1      3186 2.01123E+01 3.07005E-01 2.55753E-03-6.71021E-01 5.78397E-14-2.44915E-14
 -1      3187 2.00791E+01 2.68733E-01-2.14227E-03-6.10210E-01 1.33097E-14-8.49113E-15
 -1      3188 2.00072E+01 2.99613E-01 5.01911E-04-5.91459E-01 3.48449E-14-6.12369E-14
 -1      3189 2.01300E+01 3.83893E-01 2.85940E-03-8.13624E-01 6.98719E-14-5.25769E-14
 -1      3190 2.00933E+01 3.43544E-01-2.56084E-03-7.38160E-01 7.00818E-14-2.26936E-14
 -1      3191 1.99833E+01 3.85569E-01 8.80655E-04-7.11414E-01 6.01270E-14-7.04172E-14
 -1      3192 2.01444E+01 4.58344E-01 3.19888E-03-9.86458E-01 5.46764E-14-4.65210E-14
 -1      3193 2.01037E+01 4.20281E-01-2.95873E-03-8.96183E-01 6.78606E-14-2.62668E-14
 -1      3194 1.99473E+01 4.75708E-01 1.28867E-03-8.60067E-01 8.55765E-14-5.65735E-14
 -1      3195 2.01566E+01 5.16305E-01 3.64329E-03-1.18897E+00-6.00084E-14-3.60883E-14
 -1      3196 2.01099E+01 4.88640E-01-3.24432E-03-1.08526E+00 3.25026E-14-2.42509E-14
 -1      3197 1.98962E+01 5.60085E-01 1.62966E-03-1.03943E+00 2.35496E-14-5.41270E-14
 -1      3198 2.01740E+01 5.32876E-01 4.33632E-03-1.41777E+00-3.57712E-14-1.30612E-14
 -1      3199 2.01159E+01 5.29804E-01-3.22942E-03-1.30431E+00-3.90464E-14 1.00855E-14
 -1      3200 1.98297E+01 6.20629E-01 1.67403E-03-1.25087E+00-5.57428E-14 9.00845E-15
 -1      3201 2.02171E+01 4.66709E-01 5.52207E-03-1.66530E+00-1.46748E-13-2.75770E-14
 -1      3202 2.01348E+01 5.11491E-01-2.54259E-03-1.54935E+00-8.82045E-14-1.20507E-14
 -1      3203 1.97548E+01 6.26209E-01 9.64856E-04-1.49549E+00-6.95031E-14 1.16107E-13
 -1      3204 2.03308E+01 2.54160E-01 7.44312E-03-1.91726E+00-1.09083E-13 7.89939E-14
 -1      3205 2.01988E+01 3.82082E-01-4.62750E-04-1.81175E+00-1.23998E-13 3.20471E-14
 -1      3206 1.96940E+01 5.26269E-01-1.31484E-03-1.77461E+00-1.33400E-13 1.32656E-13
 -1      3207 2.06015E+01-1.92052E-01 1.01354E-02-2.14550E+00-5.62598E-14 1.72533E-13
 -1      3208 2.03747E+01 6.61861E-02 4.45400E-03-2.07360E+00-9.75221E-14 1.29500E-13
 -1      3209 1.96988E+01 2.43771E-01-6.51757E-03-2.08884E+00-1.42648E-13 1.53183E-13
 -1      3210 2.11708E+01-9.67430E-01 1.15346E-02-2.28978E+00-1.20629E-13 1.58159E-13
 -1      3211 2.07857E+01-5.30010E-01 1.49553E-02-2.29431E+00-3.70870E-14 1.92376E-13
 -1      3212 1.98732E+01-3.26586E-01-1.64056E-02-2.42936E+00-8.65399E-14 1.70201E-13
 -1      3213 2.22391E+01-2.08697E+00 1.11938E-02-2.20740E+00-1.39394E-13-8.13037E-14
 -1      3214 2.16331E+01-1.47963E+00 3.57842E-02-2.37022E+00-9.88853E-14-1.05374E-14
 -1      3215 2.04099E+01-1.30400E+00-3.25433E-02-2.75137E+00-1.11144E-14-3.66270E-14
 -1      3216 2.41285E+01-3.23131E+00 4.16713E-02-1.58256E+00-1.23970E-13-1.91550E-13
 -1      3217 2.31779E+01-2.72052E+00 6.61719E-02-2.09025E+00-1.66371E-13-1.40108E-13
 -1      3218 2.16102E+01-2.66602E+00-4.15846E-02-2.88742E+00-7.97990E-14-3.22189E-13
 -1      3219 2.78869E+01-8.16008E-01-7.25229E-02 2.33827E+00 1.67769E-13-1.03674E-13
 -1      3220 2.73312E+01 4.51548E+00-2.38120E-01 9.67143E-01 2.64511E-13 1.28115E-13
 -1      3221 2.05875E+01-2.62096E-01 9.86745E-03 2.22461E+00 1.15307E-13-6.12661E-15
 -1      3222 2.09055E+01-6.22957E-01 1.31891E-02 2.25529E+00 5.90569E-14 3.47669E-14
 -1      3223 2.02874E+01 2.16747E-01 1.97876E-03 1.98129E+00 2.20944E-13-2.94512E-14
 -1      3224 2.04704E+01 1.37314E-02 8.85240E-03 2.07021E+00 1.78208E-13 5.21238E-14
 -1      3225 1.97794E+01-6.57817E-02-1.19265E-02 2.30307E+00 1.25679E-13-3.57544E-14
 -1      3226 2.01667E+01 4.52846E-01-1.52469E-03 1.71468E+00 7.10419E-14 9.86834E-14
 -1      3227 2.02749E+01 3.60619E-01 6.47923E-03 1.82711E+00 9.55028E-14-1.08230E-13
 -1      3228 1.96875E+01 3.82486E-01-4.25341E-03 1.96974E+00 1.36771E-13 2.20887E-14
 -1      3229 2.01270E+01 5.35582E-01-2.84445E-03 1.45470E+00 2.15705E-13 3.31037E-14
 -1      3230 2.01969E+01 5.10610E-01 4.89959E-03 1.57250E+00 1.54562E-13-3.88947E-15
 -1      3231 1.97180E+01 5.86883E-01-3.09514E-04 1.66701E+00 9.48673E-14-7.32230E-14
 -1      3232 2.01173E+01 5.31835E-01-3.11883E-03 1.21419E+00 3.73411E-13-6.20828E-14
 -1      3233 2.01688E+01 5.43265E-01 3.95010E-03 1.32728E+00 3.16565E-13 5.91504E-15
 -1      3234 1.97897E+01 6.43602E-01 1.30757E-03 1.39798E+00 2.73236E-13-1.66364E-13
 -1      3235 2.01140E+01 4.86000E-01-2.91124E-03 9.98558E-01 2.67489E-13-5.82194E-15
 -1      3236 2.01563E+01 5.14080E-01 3.34669E-03 1.10186E+00 3.29895E-13 4.96353E-15
 -1      3237 1.98641E+01 6.19754E-01 1.67832E-03 1.16079E+00 2.82904E-13-1.71621E-13
 -1      3238 2.01084E+01 4.24799E-01-2.54314E-03 8.09504E-01-1.52662E-13 1.48265E-13
 -1      3239 2.01453E+01 4.57827E-01 2.89226E-03 9.00818E-01 9.20216E-14 7.02243E-14
 -1      3240 1.99259E+01 5.58552E-01 1.55056E-03 9.52960E-01 3.43605E-14 1.24365E-13
 -1      3241 2.00979E+01 3.65203E-01-1.99530E-03 6.46564E-01-1.24138E-13 1.71540E-13
 -1      3242 2.01309E+01 3.95539E-01 2.46124E-03 7.25806E-01-1.65919E-13 3.82922E-14
 -1      3243 1.99713E+01 4.85911E-01 1.27161E-03 7.72853E-01-1.28692E-13 3.97042E-13
 -1      3244 2.00848E+01 3.16791E-01-5.57134E-04 5.07042E-01 1.07442E-14 1.31096E-13
 -1      3245 2.01125E+01 3.39584E-01 2.09320E-03 5.74322E-01-8.19943E-14 1.35943E-13
 -1      3246 2.00000E+01 4.17726E-01 7.29929E-04 6.17927E-01-1.91865E-14 1.15866E-13
 -1      3247 2.00513E+01 3.10465E-01 5.54935E-04 4.22318E-01-2.16004E-13 3.55098E-13
 -1      3248 2.00798E+01 3.14047E-01 2.09407E-03 4.67247E-01-5.97881E-14 2.16506E-13
 -1      3249 2.00001E+01 3.78372E-01-3.87579E-04 5.04793E-01-1.52844E-13-8.51890E-14
 -1      3250 1.99873E+01 3.62405E-01-2.30604E-03 4.25316E-01-2.63471E-13 1.58166E-13
 -1      3251 1.97158E+01 5.63417E-01 5.04962E-04-2.13666E-01 2.22490E-13 3.31912E-13
 -1      3252 1.96871E+01 5.83296E-01-1.97378E-03-1.51742E-01 1.06909E-13 1.62668E-13
 -1      3253 1.31941E+01-1.86626E+00 1.20488E-02 5.13118E+00 5.03209E-14-6.80012E-14
 -1      3254 1.06828E+01-5.17409E-01 1.34176E-01 3.55280E+00-1.96822E-14-1.10842E-13
 -1      3255 8.92477E+00 9.75956E-02 7.12275E-02 1.24004E+00 2.63951E-14-2.66578E-13
 -1      3256 8.28954E+00 1.17751E-01 2.08020E-01-5.86820E-01-5.21805E-15-4.43923E-13
 -1      3257 1.96689E+01 6.05207E-01-3.97871E-04-7.35497E-02 9.04632E-14-2.67326E-13
 -1      3258 1.96607E+01 6.11744E-01-1.38228E-03-2.36763E-03 1.31932E-13-3.92810E-13
 -1      3259 1.96193E+01 6.23287E-01 1.85687E-03-1.27802E-01 4.19580E-14 1.05775E-14
 -1      3260 1.93012E+01-3.98841E+00 1.13228E-01-4.98893E+00-1.86379E-13-2.50636E-13
 -1      3261 2.19815E+01-4.63587E+00 1.97330E-02-4.10188E+00-1.28259E-13-2.44315E-13
 -1      3262 2.01350E+01 3.13296E-01-1.53098E-03 2.39164E-02 9.80219E-14-1.43306E-13
 -1      3263 2.01772E+01 4.09950E-01 4.31583E-03 1.17839E-01 1.29561E-13-1.36234E-13
 -1      3264 2.02459E+01 5.72906E-01-5.03389E-04 2.01270E-01 1.55143E-13-1.59760E-13
 -1      3265 2.02001E+01 3.43775E-01-7.75796E-04 1.17603E-02 9.03472E-14-1.46882E-13
 -1      3266 2.45646E+01-4.06764E+00 4.87624E-02-1.93448E+00-4.58487E-14-1.94286E-13
 -1      3267 2.68993E+01-3.60763E+00 5.15675E-02 1.25186E-01-2.49760E-13-5.35690E-13
 -1      3268 2.59039E+01 5.03276E+00-1.27647E-01 9.79552E-01-8.07687E-14-5.95704E-13
 -1      3269 2.59449E+01 5.46890E+00-1.50759E-01-5.15935E-02-2.59320E-13-5.69367E-13
 -1      3270 1.97975E+01 4.93624E-01 1.18056E-03-3.25160E-01 3.02195E-13 9.62250E-14
 -1      3271 1.97522E+01 5.25009E-01-2.27898E-03-2.77586E-01 2.05320E-13 1.20674E-13
 -1      3272 1.96858E+01 5.66449E-01 1.34562E-03-2.74860E-01 2.44148E-13 2.31944E-13
 -1      3273 1.99057E+01 4.04462E-01 2.29310E-03-3.94987E-01 2.05400E-13 1.32978E-13
 -1      3274 1.98480E+01 4.44077E-01-2.10474E-03-3.68552E-01 1.94885E-13 1.49271E-13
 -1      3275 1.97890E+01 4.83079E-01 2.67045E-04-3.85523E-01 1.88904E-13 2.04248E-14
 -1      3276 2.12324E+01-1.08008E+00 2.35250E-02 2.37884E+00 7.37435E-14-6.19934E-14
 -1      3277 2.17575E+01-1.62253E+00 1.41403E-02 2.28284E+00 1.22168E-13-5.42322E-14
 -1      3278 2.01420E+01-8.62453E-01-2.21025E-02 2.64262E+00 8.12911E-14-1.44442E-13
 -1      3279 2.59935E+01 2.65570E+00-6.30486E-02 1.97375E+00-4.41591E-14-5.14332E-13
 -1      3280 2.58274E+01 4.17881E+00-1.69735E-01 1.54412E+00-4.28824E-14-5.82007E-13
 -1      3281 2.02924E+01 9.78283E-01-8.27591E-05 6.72070E-01 2.31690E-13-8.78845E-14
 -1      3282 2.02715E+01 1.31400E+00 2.83021E-03 7.66343E-01 2.48434E-13-1.39343E-13
 -1      3283 2.02776E+01 1.13814E+00 3.58089E-04 5.88104E-01 2.13491E-13-1.61856E-13
 -1      3284 2.02375E+01 7.85016E-01-3.43168E-03 4.79145E-01 2.05918E-13-1.07554E-13
 -1      3285 2.24566E+01-2.22248E+00 4.95277E-02 2.26359E+00 4.96868E-14-1.02192E-13
 -1      3286 2.32112E+01-2.87195E+00 3.05700E-03 1.94493E+00-1.45516E-13-1.44278E-13
 -1      3287 2.10664E+01-2.09002E+00-2.17184E-02 2.89652E+00 2.58777E-14-3.98775E-13
 -1      3288 1.87601E+01-3.72473E+00-9.19309E-03 5.12277E+00 3.23699E-14 2.47337E-14
 -1      3289 1.63682E+01-2.74372E+00 1.62844E-01 5.41862E+00 6.28594E-14-6.51562E-14
 -1      3290 2.00400E+01 8.06542E-02 1.43825E-03-3.54642E-01 7.99894E-14 8.07331E-16
 -1      3291 2.00232E+01 6.55530E-02-5.55320E-04-3.35018E-01 6.70654E-14-3.22150E-14
 -1      3292 2.00546E+01 7.59470E-02-5.53939E-04-3.28944E-01 4.68980E-14-6.27839E-14
 -1      3293 2.00436E+01 1.09210E-01-3.28268E-04-3.71184E-01 2.72915E-14 6.07300E-15
 -1      3294 2.00434E+01 2.78907E-01 1.15307E-03-3.99292E-01 4.04155E-14-2.79267E-13
 -1      3295 1.99608E+01 3.48211E-01-2.45812E-03-4.10159E-01 1.98505E-13-1.33079E-13
 -1      3296 1.99124E+01 3.85053E-01-1.08136E-03-4.42256E-01 1.95350E-13-5.43609E-14
 -1      3297 2.00531E+01 2.81614E-01 7.01891E-04-4.42047E-01 7.85598E-14-1.74108E-13
 -1      3298 1.54756E+01-2.91112E+00 1.17017E-01-5.66521E+00 1.69482E-13-2.51188E-13
 -1      3299 1.80242E+01-4.02964E+00-1.36628E-02-5.71177E+00 2.34313E-13-4.44693E-13
 -1      3300 9.52726E+00-1.05013E-01 1.01397E-01 2.07173E+00-8.22328E-14 2.85660E-13
 -1      3301 8.57799E+00 2.03749E-01 1.45043E-01 1.15541E-01-9.63535E-14 1.26288E-14
 -1      3302 2.02905E+01 1.15612E+00 1.02539E-05-6.63345E-01-1.43094E-13-3.13742E-13
 -1      3303 2.02602E+01 9.20611E-01-5.09297E-03-4.70784E-01-1.36501E-13-3.06394E-13
 -1      3304 2.02921E+01 9.64523E-01 1.52412E-03-4.13830E-01-1.21516E-13-2.81923E-13
 -1      3305 2.00555E+01 2.17686E+00-4.27681E-03 2.89494E-01 1.57747E-13-3.43419E-13
 -1      3306 2.00422E+01 2.21631E+00-3.37887E-03 1.68799E-01 1.26439E-13-3.51693E-13
 -1      3307 2.06695E+01-4.40474E+00 1.09274E-01-4.94167E+00 2.79866E-13-1.73756E-13
 -1      3308 2.28507E+01-4.80002E+00-6.87394E-02-3.91378E+00 1.66700E-13-2.10797E-13
 -1      3309 1.38361E+01-2.09966E+00 1.16211E-01-4.96076E+00-2.41696E-13-5.35835E-13
 -1      3310 1.64372E+01-3.25742E+00 2.50209E-02-5.40994E+00-1.56056E-13-4.27811E-13
 -1      3311 2.01443E+01 2.18475E+00-3.68982E-04-1.20662E+00-1.33194E-13-3.72567E-13
 -1      3312 2.48671E+01-4.29634E+00 7.52069E-02-2.39032E+00 7.62307E-14-4.38212E-13
 -1      3313 2.59435E+01-3.71123E+00-1.29589E-01-1.00334E+00-4.12847E-14-5.40561E-13
 -1      3314 2.12279E+01-4.72331E+00-7.76775E-03 4.64873E+00-5.66533E-13-4.47135E-13
 -1      3315 1.78322E+01-3.72236E+00 8.14643E-02 5.26058E+00-3.87960E-13-2.17472E-13
 -1      3316 2.65400E+01 1.65571E+00-1.67321E-01-2.12374E+00-2.26277E-13 1.23304E-14
 -1      3317 2.71459E+01 1.60847E-01-2.30697E-02-1.90615E+00-6.62387E-14-1.05291E-13
 -1      3318 2.02065E+01 1.90474E+00 4.89448E-03-9.98250E-01-1.22380E-13-3.64941E-13
 -1      3319 2.00351E+01 2.23557E+00-3.70670E-03 6.52316E-02 1.17757E-13-3.33817E-13
 -1      3320 2.00349E+01 2.23631E+00-3.64580E-03-5.76254E-02 8.78720E-14-3.47631E-13
 -1      3321 2.01484E+01 1.94355E+00 5.15648E-03 9.97106E-02 1.14388E-13-3.26403E-13
 -1      3322 2.00548E+01 1.00629E-01 2.66874E-05-1.92654E-01 9.66838E-14-1.05780E-13
 -1      3323 2.00688E+01 1.35277E-01 2.04619E-03-1.55740E-01 1.25592E-13-1.29893E-13
 -1      3324 2.01554E+01 1.99685E-01-9.59429E-04-1.14300E-01 1.06588E-13-1.47441E-13
 -1      3325 2.02706E+01 8.42172E-01 2.72358E-04 4.30138E-01 1.94478E-13-1.31499E-13
 -1      3326 2.02594E+01 1.47526E+00 6.37537E-03 5.80099E-01 2.12942E-13-2.12747E-13
 -1      3327 2.01673E+01 1.81322E+00-6.62297E-03 6.80288E-01 2.29995E-13-2.45440E-13
 -1      3328 2.01330E+01 1.94257E+00-2.73603E-03 5.85312E-01 2.05053E-13-2.51727E-13
 -1      3329 2.49560E+01 2.09879E+00-1.65454E-02 2.02328E+00-4.46101E-14-4.90191E-13
 -1      3330 2.42223E+01 1.27941E+00 4.40147E-04 1.97772E+00-1.07483E-14-1.57110E-13
 -1      3331 2.43112E+01 2.32949E-01-5.86533E-02 2.02788E+00-6.25533E-14-1.44624E-13
 -1      3332 2.61128E+01 8.05784E-01-1.20835E-01 2.14112E+00-1.03459E-13-5.69794E-13
 -1      3333 2.36275E+01 3.50411E+00-5.04358E-02-5.47859E-01-1.92485E-14-1.06102E-13
 -1      3334 2.36538E+01 3.56228E+00-4.02984E-02 2.07871E-01-5.27148E-14-1.37713E-13
 -1      3335 2.28604E+01-4.36680E+00-3.81011E-02-3.30877E+00-9.82617E-14-2.50230E-13
 -1      3336 2.00655E+01 2.85828E-01 9.27784E-04-4.85097E-01 1.33799E-13-2.02884E-13
 -1      3337 2.00899E+01 7.26830E-02-9.84099E-04-2.51391E-01 8.47195E-14-1.81529E-13
 -1      3338 2.00359E+01 5.99068E-02 4.73554E-04-2.46290E-01 6.97600E-14-1.21381E-13
 -1      3339 2.00394E+01 7.66672E-02 1.21057E-03-2.22581E-01 7.77670E-14-1.08557E-13
 -1      3340 1.99879E+01 3.38913E-01 9.84280E-04-5.22395E-01 8.31799E-14-1.74184E-13
 -1      3341 1.28980E+01-1.44390E+00 1.20115E-01-4.53509E+00-2.07015E-13-5.70169E-13
 -1      3342 1.48919E+01-1.58266E+00 8.18388E-02-4.42858E+00-1.48718E-13-5.47742E-13
 -1      3343 1.19629E+01-7.79666E-01 5.63006E-02-3.72370E+00-8.49841E-14-5.08801E-13
 -1      3344 9.85642E+00 5.99883E-02 1.19713E-01-1.62587E+00-4.34947E-14-4.66821E-13
 -1      3345 1.10930E+01-9.20445E-01 1.39970E-01-4.15777E+00 1.81372E-13 2.88894E-13
 -1      3346 1.29232E+01-1.82138E+00 2.41363E-02-5.11848E+00 2.25112E-13 4.78367E-14
 -1      3347 2.44563E+01-3.41722E+00 6.75226E-02 1.57792E+00-3.81715E-13-2.65146E-13
 -1      3348 2.53941E+01-3.72441E+00-4.37909E-03 9.15453E-01-3.86361E-13-3.76338E-13
 -1      3349 1.53081E+01-1.83628E+00 7.35515E-02 4.70563E+00 3.25850E-14-5.66422E-14
 -1      3350 1.97059E+01 5.84898E-01-1.92324E-03 2.28852E-01 3.37514E-14-1.05738E-14
 -1      3351 1.97438E+01 5.60820E-01 1.95009E-04 2.89322E-01-1.51736E-14-2.05799E-14
 -1      3352 2.53950E+01 4.68472E+00-8.34785E-02-6.17657E-01-3.22770E-13-6.13089E-13
 -1      3353 1.23844E+01-6.47454E-02 6.95807E-02 2.95033E+00-4.18610E-14-2.01728E-13
 -1      3354 1.04860E+01 1.57396E-01 1.33952E-01 2.40535E+00-5.53724E-15-2.22086E-13
 -1      3355 1.08349E+01 5.51857E-01 5.02971E-02 1.02853E+00-2.23970E-14-2.69916E-13
 -1      3356 1.51808E+01-1.97509E+00 1.07471E-01-4.88206E+00 1.36210E-13-1.42122E-13
 -1      3357 1.84471E+01-3.16125E+00 8.67786E-02-4.69864E+00-2.03448E-13-3.06657E-13
 -1      3358 1.96641E+01 6.13488E-01-1.28458E-03 8.06677E-02 1.89575E-13-2.94574E-13
 -1      3359 1.96794E+01 6.04737E-01-5.53611E-04 1.51267E-01 1.03722E-13-1.01232E-13
 -1      3360 1.96353E+01 6.29411E-01 2.10012E-03 2.06353E-01 4.52929E-14-9.50025E-14
 -1      3361 1.96006E+01 6.45828E-01 2.09465E-03 3.93151E-02 1.14416E-13-4.89444E-13
 -1      3362 1.98121E+01-3.79367E+00 7.74173E-02-4.78206E+00 1.54515E-13-2.02229E-13
 -1      3363 1.97171E+01 5.77772E-01 1.93842E-03 3.41132E-01-9.19004E-14-9.90785E-14
 -1      3364 1.97863E+01 5.25341E-01-2.22088E-03 3.40516E-01-7.52812E-14-2.87783E-13
 -1      3365 1.98336E+01 4.94175E-01 4.66334E-04 3.74591E-01-6.65238E-14-1.76683E-13
 -1      3366 2.54531E+01-4.45516E+00-7.46315E-02 1.74161E+00-4.61849E-13-6.03771E-13
 -1      3367 2.65425E+01-1.12245E+00-4.63854E-02-1.27946E+00-6.22766E-15-6.21656E-14
 -1      3368 2.54870E+01-4.14208E+00-5.06179E-04 1.85632E+00 3.53259E-14-2.51334E-13
 -1      3369 2.39475E+01-4.22643E+00 1.14112E-02 2.58462E+00 1.27533E-13-1.33598E-13
 -1      3370 2.56683E+01-3.36860E+00-3.88299E-02 5.55068E-01 1.11615E-13-1.79908E-13
 -1      3371 2.16808E+01-4.10815E+00 1.60633E-02 3.91007E+00-2.83107E-15-7.13526E-14
 -1      3372 2.03523E+01-3.94687E+00 8.26899E-02 4.67064E+00 4.22579E-14-3.03733E-14
 -1      3373 1.92309E+01-3.25448E+00 3.53485E-02 4.54729E+00 1.03667E-14-4.31981E-14
 -1      3374 2.49977E+01-3.09330E-01 9.49888E-03 1.87494E+00-7.57762E-14-6.41454E-13
 -1      3375 2.47199E+01 4.04567E+00-4.35938E-02 1.08456E+00-6.45248E-14-5.51406E-13
 -1      3376 2.36006E+01-4.74781E+00 9.23575E-02 3.41967E+00-6.60277E-13-3.40384E-13
 -1      3377 2.24078E+01-4.09138E+00 4.43040E-02 3.46961E+00-5.39485E-13-5.57500E-13
 -1      3378 2.00999E+01 2.03834E+00-5.71288E-03 4.99003E-01 1.99789E-13-2.71002E-13
 -1      3379 2.00749E+01 2.12015E+00-3.31322E-03 3.87358E-01 1.78300E-13-3.10629E-13
 -1      3380 2.01714E+01 1.86801E+00 5.91686E-03 2.87408E-01 1.59082E-13-3.14130E-13
 -1      3381 2.02155E+01 1.71174E+00 7.04602E-03 4.55014E-01 1.94835E-13-2.54222E-13
 -1      3382 1.05708E+01-2.48702E-01 1.66473E-01 2.91482E+00-9.96356E-14 2.79651E-13
 -1      3383 1.07307E+01 2.38118E-01 8.61065E-02 1.84741E+00 1.00727E-13 2.80970E-13
 -1      3384 1.19131E+01-7.15155E-01 9.45327E-02 3.59359E+00 7.06032E-15 2.40669E-13
 -1      3385 1.65441E+01-2.94018E+00 9.91810E-02 5.23686E+00-3.36384E-13-1.29008E-13
 -1      3386 1.51050E+01-1.94469E+00 4.52193E-02 4.66613E+00-2.27283E-13-3.37369E-14
 -1      3387 1.89248E+01-2.98314E+00 3.00302E-02 4.41994E+00-4.37209E-13-5.30360E-13
 -1      3388 1.01341E+01 4.67523E-01 1.33092E-01-3.60116E-01-8.34350E-14 7.14706E-15
 -1      3389 8.71513E+00 1.48410E-01 1.33760E-01-1.19470E+00-1.48991E-13-1.72473E-13
 -1      3390 2.61213E+01-2.60519E+00 1.61628E-03 2.15329E-01-6.33525E-14-4.74953E-13
 -1      3391 9.36455E+00-3.55204E-01 7.47202E-02-2.85657E+00 1.38466E-14-6.37684E-14
 -1      3392 2.01292E+01 1.95253E+00-2.62378E-03-5.78827E-01-5.34159E-14-3.50673E-13
 -1      3393 2.01622E+01 1.82368E+00-7.31289E-03-6.77516E-01-8.30317E-14-3.57755E-13
 -1      3394 2.36941E+01-4.17191E+00 3.87991E-02-2.77171E+00-2.25861E-14-2.90329E-13
 -1      3395 2.02229E+01 1.60395E+00-1.01139E-03-8.24322E-01-1.20093E-13-3.55250E-13
 -1      3396 2.00725E+01 2.12560E+00-3.38957E-03-3.80313E-01 1.57145E-14-3.39172E-13
 -1      3397 2.00964E+01 2.04743E+00-5.33833E-03-4.93392E-01-2.32357E-14-3.46265E-13
 -1      3398 2.02088E+01 1.72085E+00 6.02550E-03-4.50606E-01-5.25181E-14-3.24800E-13
 -1      3399 2.27928E+01-3.56986E+00-4.91380E-02 2.67738E+00-3.65744E-13-3.79426E-13
 -1      3400 2.57482E+01-1.69396E-01-4.32692E-02 1.77855E+00-7.45029E-14-6.33601E-13
 -1      3401 2.02210E+01 1.61908E+00 1.72879E-03-7.11755E-01-1.17779E-13-3.50913E-13
 -1      3402 2.02576E+01 1.40385E+00 1.56904E-03-5.45476E-01-1.05565E-13-3.33885E-13
 -1      3403 2.54757E+01 2.20953E+00-6.95698E-02-2.05907E+00-1.00545E-13-1.64715E-13
 -1      3404 2.03062E+01 4.72853E-01 2.10078E-03-4.90612E-02-7.54740E-14-1.68199E-13
 -1      3405 2.02810E+01 3.68716E-01-1.83306E-03 2.42925E-02-7.99882E-14-1.42335E-13
 -1      3406 2.02702E+01 2.86563E-01 1.88749E-03 7.61495E-02-9.25768E-14-1.30145E-13
 -1      3407 2.02461E+01 2.20174E-01-1.00663E-03 1.25177E-01-9.86996E-14-1.21787E-13
 -1      3408 2.03165E+01 3.80386E-01 4.91191E-06 3.45089E-02-7.92025E-14-1.26903E-13
 -1      3409 2.02273E+01 1.71046E-01 1.24193E-03 1.60117E-01-1.14254E-13-8.61094E-14
 -1      3410 2.02060E+01 1.33729E-01-3.15443E-04 1.93066E-01-7.68981E-14-9.70907E-14
 -1      3411 2.02797E+01 2.30934E-01-3.31482E-04 1.24389E-01-9.38773E-14-9.91251E-14
 -1      3412 2.01827E+01 1.08797E-01 6.42634E-04 2.17269E-01-7.08686E-14-1.36760E-13
 -1      3413 2.01648E+01 9.30545E-02 1.97668E-04 2.40774E-01-5.80564E-14-1.39493E-13
 -1      3414 2.02337E+01 1.45555E-01-3.99623E-04 1.86429E-01-9.58988E-14-8.49478E-14
 -1      3415 2.01389E+01 8.60559E-02 1.10534E-04 2.59460E-01-3.53098E-14-1.73814E-13
 -1      3416 2.01242E+01 8.64001E-02 5.71181E-04 2.78906E-01-4.93400E-14-1.50712E-13
 -1      3417 2.01832E+01 1.08044E-01-3.58421E-04 2.31722E-01-5.17457E-14-1.75784E-13
 -1      3418 2.00964E+01 9.27270E-02-3.47947E-04 2.96379E-01-6.62116E-14-1.32761E-13
 -1      3419 2.00843E+01 1.05025E-01 8.49275E-04 3.15999E-01-4.89839E-14-1.22982E-13
 -1      3420 2.01302E+01 1.06453E-01-2.45755E-04 2.69718E-01-4.53967E-14-1.55379E-13
 -1      3421 2.00547E+01 1.21111E-01-7.39762E-04 3.35746E-01-6.02563E-14-1.24752E-13
 -1      3422 2.00446E+01 1.42022E-01 1.06824E-03 3.58802E-01-7.26495E-14-1.13321E-13
 -1      3423 2.00752E+01 1.31648E-01-9.03501E-05 3.08177E-01-7.16709E-14-1.80846E-13
 -1      3424 2.00129E+01 1.64812E-01-1.07263E-03 3.83619E-01-3.40660E-14-1.31577E-13
 -1      3425 2.00044E+01 1.91276E-01 1.25779E-03 4.12555E-01 9.57291E-15-1.08879E-13
 -1      3426 2.00174E+01 1.76192E-01 7.87908E-05 3.53384E-01-4.47947E-14-1.64488E-13
 -1      3427 1.99704E+01 2.17721E-01-1.34587E-03 4.44675E-01-2.07964E-14-1.30537E-13
 -1      3428 1.99634E+01 2.46446E-01 1.44588E-03 4.81205E-01-1.84904E-14-1.58388E-13
 -1      3429 1.99561E+01 2.33296E-01 2.33999E-04 4.10413E-01-1.73522E-14-1.91465E-13
 -1      3430 1.99271E+01 2.72994E-01-1.54562E-03 5.22393E-01-7.45064E-14-1.39140E-13
 -1      3431 1.99223E+01 2.99914E-01 1.66324E-03 5.67524E-01-1.10358E-13-1.82715E-13
 -1      3432 1.98906E+01 2.95737E-01 3.36996E-04 4.83353E-01-4.09674E-14-1.57770E-13
 -1      3433 1.98845E+01 3.21937E-01-1.63796E-03 6.19138E-01-9.01489E-14-2.05441E-13
 -1      3434 1.98839E+01 3.41603E-01 1.94790E-03 6.73114E-01-7.35595E-14-2.69326E-13
 -1      3435 1.98214E+01 3.54705E-01 3.29174E-04 5.75519E-01-1.16202E-13-1.62854E-13
 -1      3436 1.98469E+01 3.52782E-01-1.55972E-03 7.36118E-01-6.74487E-14-2.67434E-13
 -1      3437 1.98541E+01 3.57706E-01 2.34910E-03 7.98265E-01-7.96671E-14-2.68564E-13
 -1      3438 1.97512E+01 3.98531E-01 1.20978E-04 6.89604E-01-4.38619E-14-2.68570E-13
 -1      3439 1.98228E+01 3.49390E-01-1.20242E-03 8.73153E-01-7.16040E-14-2.12008E-13
 -1      3440 1.98443E+01 3.29411E-01 2.92332E-03 9.41583E-01-4.12970E-14-1.90236E-13
 -1      3441 1.96862E+01 4.11281E-01-4.26106E-04 8.27747E-01-3.20232E-14-1.94361E-13
 -1      3442 1.98275E+01 2.90115E-01-3.82329E-04 1.02810E+00 8.18746E-15-1.52392E-13
 -1      3443 1.98738E+01 2.31961E-01 3.70877E-03 1.09912E+00 2.47749E-14-1.11294E-13
 -1      3444 1.96388E+01 3.71345E-01-1.52275E-03 9.91384E-01 1.98707E-16-1.41312E-13
 -1      3445 1.98864E+01 1.47284E-01 1.20565E-03 1.19547E+00 4.40783E-14-4.75827E-14
 -1      3446 1.99734E+01 3.47786E-02 4.64881E-03 1.26238E+00 7.94498E-14 1.71156E-15
 -1      3447 1.96304E+01 2.50275E-01-3.48353E-03 1.18051E+00 8.86486E-14 1.59951E-14
 -1      3448 2.00393E+01-1.11564E-01 4.04367E-03 1.36335E+00 8.41154E-14-4.71413E-14
 -1      3449 2.01887E+01-2.95947E-01 5.28513E-03 1.41409E+00 1.00837E-13-4.30510E-14
 -1      3450 1.96964E+01 1.26225E-02-6.77192E-03 1.39146E+00 6.92976E-14-7.83447E-14
 -1      3451 2.03452E+01-5.18416E-01 8.79682E-03 1.50573E+00 9.98025E-14-6.40384E-15
 -1      3452 2.05824E+01-7.86545E-01 4.90045E-03 1.51845E+00 1.21812E-13-3.35459E-14
 -1      3453 1.98926E+01-3.82406E-01-1.21246E-02 1.61090E+00 1.00706E-13-7.95733E-14
 -1      3454 2.08803E+01-1.08816E+00 1.61213E-02 1.57029E+00 9.99984E-14 3.41113E-14
 -1      3455 2.12266E+01-1.43264E+00 2.08703E-03 1.50759E+00 2.45550E-14-4.56915E-15
 -1      3456 2.03015E+01-9.67220E-01-1.96453E-02 1.80030E+00 1.18046E-13-2.58606E-14
 -1      3457 2.17239E+01-1.78297E+00 2.57760E-02 1.46037E+00-6.52677E-14-1.86332E-14
 -1      3458 2.21826E+01-2.14332E+00-3.59389E-03 1.26588E+00-3.75381E-14-5.32714E-14
 -1      3459 2.10282E+01-1.73075E+00-2.60751E-02 1.88166E+00 1.54082E-14-2.02395E-14
 -1      3460 2.29288E+01-2.44038E+00 3.69312E-02 1.02558E+00 3.12311E-14-3.58216E-14
 -1      3461 2.34822E+01-2.62778E+00 2.68237E-03 6.17270E-01 7.65074E-14 2.05270E-14
 -1      3462 2.21735E+01-2.56566E+00-3.06117E-02 1.70166E+00-1.44815E-14-6.91044E-14
 -1      3463 2.43635E+01-2.94499E+00 1.77351E-02 4.84101E-01 1.51985E-13 9.54393E-14
 -1      3464 2.49175E+01-2.66179E+00-1.20358E-02-8.11582E-02 1.79204E-13 7.71891E-14
 -1      3465 2.37699E+01-2.64115E+00 2.10924E-05-4.11979E-01-5.55476E-14-4.50985E-13
 -1      3466 2.32181E+01-2.52846E+00 3.64810E-02-8.66856E-01-7.83192E-14-6.19955E-13
 -1      3467 2.24282E+01-2.27255E+00-6.55246E-03-1.16249E+00 4.10809E-14-5.81279E-13
 -1      3468 2.19569E+01-1.92688E+00 2.79091E-02-1.39331E+00 4.61363E-14-4.99513E-13
 -1      3469 2.24798E+01-2.71186E+00-3.15077E-02-1.59283E+00-1.61850E-15-6.13967E-13
 -1      3470 2.14103E+01-1.57783E+00 4.07697E-04-1.47689E+00 1.98999E-14-4.15665E-13
 -1      3471 2.10427E+01-1.22279E+00 1.79586E-02-1.56238E+00 3.00187E-14-3.00252E-13
 -1      3472 2.12503E+01-1.90645E+00-2.76133E-02-1.86338E+00 6.09911E-14-3.91146E-13
 -1      3473 2.07093E+01-9.07602E-01 4.60320E-03-1.52701E+00 3.18340E-14-2.89663E-13
 -1      3474 2.04518E+01-6.21303E-01 1.02997E-02-1.52725E+00 5.09426E-14-2.17149E-13
 -1      3475 2.04425E+01-1.11062E+00-2.05136E-02-1.82627E+00 7.16980E-14-1.75205E-13
 -1      3476 2.02708E+01-3.81252E-01 5.32848E-03-1.44143E+00 7.51040E-14-7.29511E-14
 -1      3477 2.01060E+01-1.78804E-01 4.96167E-03-1.39662E+00 8.90946E-14-3.46602E-14
 -1      3478 1.99780E+01-4.85369E-01-1.32380E-02-1.65390E+00 7.44482E-14-3.70732E-15
 -1      3479 2.00245E+01-1.58522E-02 4.73693E-03-1.29612E+00-9.98469E-15-7.57543E-15
 -1      3480 1.99270E+01 1.12802E-01 1.80549E-03-1.23059E+00 3.24138E-14 3.99657E-14
 -1      3481 1.97452E+01-4.99019E-02-7.66300E-03-1.43735E+00 8.03972E-14 5.41808E-14
 -1      3482 1.99049E+01 2.12149E-01 3.78199E-03-1.13175E+00 1.24256E-14-1.10012E-13
 -1      3483 1.98520E+01 2.84486E-01 3.02101E-05-1.05891E+00-1.82866E-13-7.54002E-14
 -1      3484 1.96569E+01 2.23182E-01-4.00858E-03-1.22218E+00-8.37201E-14 6.97842E-14
 -1      3485 1.98628E+01 3.36947E-01 2.91421E-03-9.67936E-01-1.58365E-13-8.90497E-14
 -1      3486 1.98372E+01 3.69969E-01-9.23506E-04-8.95079E-01-6.66244E-14-7.00224E-14
 -1      3487 1.96519E+01 3.74889E-01-1.84184E-03-1.02482E+00-1.74604E-13-1.44166E-13
 -1      3488 1.98643E+01 3.90891E-01 2.24322E-03-8.14013E-01-2.89595E-14 1.08947E-14
 -1      3489 1.98548E+01 3.99117E-01-1.16796E-03-7.45088E-01 1.01441E-13 1.18216E-15
 -1      3490 1.96909E+01 4.43029E-01-5.58558E-04-8.49805E-01 2.73687E-14 4.35192E-14
 -1      3491 1.98875E+01 4.00180E-01 1.60792E-03-6.73657E-01 9.88100E-14 8.54385E-16
 -1      3492 1.98893E+01 3.98091E-01 6.19660E-04-6.11467E-01 6.47057E-14 9.45205E-14
 -1      3493 1.97484E+01 4.58905E-01 6.40492E-05-6.97454E-01 9.39927E-14 1.94391E-13
 -1      3494 2.02815E+01 8.56619E-01-2.33423E-03 3.55043E-01 1.99660E-13-1.78155E-13
 -1      3495 2.02937E+01 9.84912E-01 1.49925E-03 4.74048E-01 2.04880E-13-1.60001E-13
 -1      3496 2.02831E+01 1.15615E+00-1.67964E-03 5.05857E-01 2.13049E-13-1.94789E-13
 -1      3497 1.99112E+01 3.89277E-01-3.25785E-04-5.10858E-01 1.36721E-13-3.10519E-14
 -1      3498 1.99746E+01 2.76464E-01 1.41782E-03-4.99208E-01 2.25890E-14-8.61782E-14
 -1      3499 1.99792E+01 2.35863E-01-1.76352E-03-4.58636E-01 5.34098E-14-7.25415E-14
 -1      3500 2.00133E+01 2.00865E-01 1.29833E-03-4.25888E-01 4.32388E-14-3.26698E-14
 -1      3501 2.00168E+01 1.68048E-01-1.29797E-03-3.94790E-01 2.83526E-14-1.28465E-14
 -1      3502 1.99652E+01 2.49974E-01 6.31418E-04-4.25776E-01 4.93893E-14-9.47047E-14
 -1      3503 1.98597E+01 4.64106E-01 1.59715E-03-7.12261E-01 5.36856E-14-7.89522E-14
 -1      3504 1.98720E+01 4.12450E-01-2.80372E-03-6.47400E-01 5.51414E-14-1.11844E-13
 -1      3505 1.97728E+01 5.66544E-01 1.73372E-03-8.57622E-01 3.12601E-14-3.06325E-15
 -1      3506 1.97918E+01 5.13813E-01-3.40939E-03-7.78846E-01 4.30451E-14-4.85924E-14
 -1      3507 1.96973E+01 5.53115E-01 2.36561E-03-7.09306E-01 3.12860E-14-7.40412E-14
 -1      3508 1.96598E+01 6.61710E-01 2.04120E-03-1.03197E+00 1.58294E-17 2.87671E-14
 -1      3509 1.96863E+01 6.14127E-01-4.08210E-03-9.38566E-01 2.90504E-14-9.79330E-15
 -1      3510 1.95535E+01 6.67643E-01 3.14129E-03-8.50516E-01-1.04802E-15 1.05378E-14
 -1      3511 1.95188E+01 7.30349E-01 2.75546E-03-1.23825E+00-5.12141E-14-3.07806E-14
 -1      3512 1.95511E+01 6.98724E-01-4.81194E-03-1.12953E+00-2.96971E-14-5.36388E-14
 -1      3513 1.93700E+01 7.71582E-01 3.92529E-03-1.02038E+00 1.95698E-14 7.96672E-16
 -1      3514 1.93561E+01 7.40173E-01 4.31492E-03-1.48170E+00-1.51096E-13 1.05858E-13
 -1      3515 1.93863E+01 7.42418E-01-5.55380E-03-1.35648E+00-7.40006E-14 1.73275E-14
 -1      3516 1.91409E+01 8.43082E-01 4.51854E-03-1.22531E+00-9.03896E-14-2.73441E-14
 -1      3517 1.91939E+01 6.39736E-01 7.52333E-03-1.77229E+00-1.27566E-13 3.16022E-14
 -1      3518 1.92028E+01 7.04085E-01-6.09693E-03-1.62822E+00-1.28275E-13 3.51082E-14
 -1      3519 1.88667E+01 8.46495E-01 4.56276E-03-1.47795E+00-7.96233E-14-9.91154E-14
 -1      3520 1.90862E+01 3.50774E-01 1.37299E-02-2.12715E+00-8.93038E-14-6.93028E-14
 -1      3521 1.90328E+01 5.19994E-01-5.70093E-03-1.96094E+00-9.77500E-14-7.07116E-14
 -1      3522 1.85601E+01 7.26151E-01 3.58356E-03-1.80267E+00-5.22002E-14-1.38377E-13
 -1      3523 1.91404E+01-2.41550E-01 2.30816E-02-2.56650E+00-3.70997E-14-2.25186E-13
 -1      3524 1.89531E+01 9.51217E-02-1.97702E-03-2.37900E+00-6.09374E-14-1.73151E-13
 -1      3525 1.82614E+01 3.95857E-01 9.30524E-04-2.24231E+00-3.52941E-14-4.52984E-13
 -1      3526 1.95316E+01-1.28400E+00 2.78688E-02-3.08356E+00-8.29978E-15-2.50484E-13
 -1      3527 1.91231E+01-6.88006E-01 1.45942E-02-2.89326E+00-2.48022E-15-1.94406E-13
 -1      3528 1.80844E+01-2.77086E-01 6.32449E-04-2.85909E+00-1.03069E-14-5.50642E-13
 -1      3529 1.95503E+01 6.43311E-01 4.74452E-04-1.89540E-01 1.62858E-13 1.98133E-13
 -1      3530 1.95215E+01 6.60736E-01-2.03692E-03-1.07289E-01 1.44611E-13-1.79222E-13
 -1      3531 1.92823E+01 7.39688E-01-5.94889E-03 1.52036E+00 1.32661E-13-5.18669E-14
 -1      3532 1.92609E+01 7.01002E-01 5.78298E-03 1.65816E+00 1.25078E-13 4.39025E-14
 -1      3533 1.91000E+01 6.16785E-01-6.29943E-03 1.82923E+00 1.15815E-13 5.15066E-14
 -1      3534 1.91218E+01 4.92508E-01 1.04482E-02 1.98727E+00 1.73480E-13 2.53215E-14
 -1      3535 1.86899E+01 7.96825E-01 3.73753E-03 1.67107E+00 9.51513E-14 1.34940E-14
 -1      3536 1.15218E+01-1.49295E-01 1.12152E-01-3.01693E+00 4.64698E-14 1.43011E-14
 -1      3537 1.68840E+01-1.97480E+00-2.01622E-02 4.37691E+00 2.37206E-14-5.67948E-14
 -1      3538 1.46593E+01-8.47282E-01 6.81224E-02 3.95814E+00 1.17614E-14-5.49491E-14
 -1      3539 1.89707E+01 2.94896E-01-4.69596E-03 2.21243E+00 1.58374E-13-4.43437E-14
 -1      3540 1.90933E+01 2.91756E-02 1.78296E-02 2.39244E+00 7.66759E-14-1.09972E-13
 -1      3541 1.83796E+01 5.56085E-01 1.29067E-03 2.06036E+00 1.00724E-13-1.86620E-15
 -1      3542 1.94621E+01 7.46323E-01-5.20242E-03 1.26347E+00 2.85533E-13-2.10574E-14
 -1      3543 1.94287E+01 7.56469E-01 3.46722E-03 1.38436E+00 1.56730E-13-7.91243E-14
 -1      3544 1.89878E+01 8.66887E-01 4.57180E-03 1.37539E+00 1.72454E-13 3.76098E-14
 -1      3545 1.96165E+01 6.93013E-01-4.38501E-03 1.04528E+00 1.92404E-13 2.74035E-15
 -1      3546 1.95853E+01 7.26891E-01 2.28994E-03 1.15171E+00 2.91434E-13-5.19059E-14
 -1      3547 1.92461E+01 8.40062E-01 4.45930E-03 1.13916E+00 2.82925E-13 1.99682E-13
 -1      3548 1.97400E+01 6.13864E-01-3.57622E-03 8.57434E-01-9.25848E-14 1.92685E-13
 -1      3549 1.97159E+01 6.56785E-01 1.79575E-03 9.50496E-01 3.58708E-14 5.05814E-14
 -1      3550 1.94569E+01 7.65005E-01 3.82976E-03 9.42519E-01 2.81584E-14 2.13164E-13
 -1      3551 1.98331E+01 5.28929E-01-3.48169E-03 6.96887E-01-3.41694E-14 6.34832E-14
 -1      3552 1.98174E+01 5.71689E-01 1.16638E-03 7.76237E-01-6.92781E-14 1.31419E-13
 -1      3553 1.96236E+01 6.71129E-01 3.24822E-03 7.73961E-01-8.69711E-14-1.15860E-14
 -1      3554 1.99029E+01 4.56208E-01-1.74127E-03 5.56943E-01 3.37161E-15 6.57014E-14
 -1      3555 1.98924E+01 4.92577E-01 1.29078E-03 6.26116E-01 3.67606E-14 2.26343E-13
 -1      3556 1.97490E+01 5.80219E-01 3.04151E-03 6.29630E-01-7.67521E-14 6.26816E-14
 -1      3557 1.97782E+01 4.77598E-01 1.10448E-04-4.50521E-01 1.17365E-13-1.26473E-13
 -1      3558 1.97100E+01 5.20401E-01-2.12825E-03-4.05981E-01 1.97938E-13-1.05104E-13
 -1      3559 1.88786E+01-3.00788E+00 7.43672E-02-4.56709E+00-9.02230E-14-1.33877E-13
 -1      3560 2.07732E+01-3.74523E+00-4.72169E-02-4.03100E+00 1.08039E-14-6.31301E-14
 -1      3561 1.99251E+01 3.65379E-01 1.50996E-03-5.93621E-01 5.15642E-14-1.32257E-13
 -1      3562 1.99326E+01 3.18270E-01-2.25971E-03-5.41639E-01 3.05244E-14-6.14281E-14
 -1      3563 1.98959E+01 3.38366E-01 1.10231E-03-4.99648E-01 4.74503E-14-1.53085E-13
 -1      3564 1.98089E+01 4.40880E-01 1.67868E-03-5.93229E-01 7.91866E-14-1.27872E-13
 -1      3565 2.01044E+01 7.92456E-02 6.42486E-04-2.87824E-01 5.89486E-14-9.94144E-14
 -1      3566 2.01136E+01 7.86732E-02 1.74601E-04-2.67972E-01 5.70609E-14-1.59768E-13
 -1      3567 2.00400E+01 2.21890E+00-3.57558E-03-1.61274E-01 6.87195E-14-3.59440E-13
 -1      3568 2.00521E+01 2.18086E+00-4.68023E-03-2.80476E-01 3.87954E-14-3.40716E-13
 -1      3569 2.01738E+01 1.87157E+00 6.98736E-03-2.83868E-01 2.55793E-14-3.25005E-13
 -1      3570 2.56022E+01-1.22933E+00-7.45861E-02 1.52947E+00-1.10801E-13-5.75217E-13
 -1      3571 1.96463E+01 5.72919E-01 1.27936E-03-3.42858E-01 2.08819E-13 1.85755E-13
 -1      3572 1.95913E+01 6.04373E-01-2.48103E-03-2.75879E-01 2.73210E-13 3.28213E-13
 -1      3573 1.95052E+01 6.55189E-01 1.52090E-03-2.61040E-01 2.56048E-13 2.61330E-13
 -1      3574 1.96290E+01 5.69188E-01 1.31572E-03-4.14510E-01 1.87429E-13 4.33979E-14
 -1      3575 1.76063E+01-2.30345E+00 7.66287E-02-4.45414E+00-1.12403E-13-3.20750E-13
 -1      3576 1.98112E+01-3.24694E+00-1.61359E-02-4.15841E+00-1.34268E-13-1.67484E-13
 -1      3577 1.90182E+01-3.49164E-01 1.47626E-03 2.68563E+00-6.25422E-14-7.47130E-14
 -1      3578 1.93391E+01-8.11472E-01 3.19415E-02 2.87668E+00-9.67655E-14-2.13126E-13
 -1      3579 1.81355E+01 2.96982E-02-1.43832E-03 2.60675E+00 3.37731E-14 3.38113E-14
 -1      3580 2.02723E+01 1.33939E+00-3.73869E-04-4.12426E-01-5.96237E-14-2.97028E-13
 -1      3581 2.03040E+01 1.12984E+00-4.77369E-04-4.28086E-01-8.76845E-14-2.91688E-13
 -1      3582 2.03052E+01 9.16785E-01-1.63914E-03-2.89912E-01-7.51009E-14-2.59691E-13
 -1      3583 2.03203E+01 7.42915E-01 1.25285E-04-2.13971E-01-7.36126E-14-2.16438E-13
 -1      3584 2.03046E+01 5.91408E-01-2.49293E-03-1.09076E-01-6.35798E-14-1.82237E-13
 -1      3585 2.03386E+01 5.99462E-01-3.65436E-04-8.22963E-02-6.31987E-14-1.80219E-13
 -1      3586 2.03327E+01 9.05373E-01 9.92171E-04-2.24459E-01-3.92698E-14-2.16222E-13
 -1      3587 1.09705E+01 6.82854E-01 6.97780E-02 3.42745E-01 1.57548E-13 2.02838E-13
 -1      3588 1.10018E+01 6.39181E-01 5.36223E-02-9.13560E-01 7.60746E-14-6.79456E-14
 -1      3589 2.51943E+01-2.49484E+00-6.08210E-03 2.80379E-01-1.01108E-13-4.63928E-13
 -1      3590 2.13241E+01-3.20425E+00 9.74586E-02 3.60680E+00-2.83775E-13-5.99344E-13
 -1      3591 2.26083E+01-3.90395E+00 6.41879E-02-3.14795E+00-2.23597E-14-2.19877E-13
 -1      3592 2.39558E+01-3.84249E+00-2.54768E-02-1.89643E+00-6.40768E-14-5.17542E-13
 -1      3593 1.48333E+01-1.04580E+00 8.36732E-02-4.16262E+00 1.07556E-13 1.44829E-13
 -1      3594 1.67755E+01-2.28065E+00-7.08390E-03-4.75756E+00-9.29118E-15-1.10446E-13
 -1      3595 1.83127E+01-2.16660E+00 5.02483E-02-4.03946E+00-1.54115E-13 9.33281E-15
 -1      3596 1.98837E+01 4.50080E-01-2.21885E-03 4.01233E-01-7.82646E-14 2.33239E-13
 -1      3597 1.99368E+01 4.09895E-01 1.09217E-04 4.17176E-01-2.12009E-13 1.65267E-13
 -1      3598 1.99368E+01 4.17293E-01 3.80670E-04 4.55650E-01-2.24977E-13 1.90262E-13
 -1      3599 1.98183E+01 5.04686E-01 2.25025E-04 4.20867E-01-9.14170E-14 6.35791E-14
 -1      3600 2.37880E+01 3.55015E+00-8.25126E-02 5.23520E-01-6.43964E-14-2.02769E-13
 -1      3601 1.98133E+01-2.59376E+00 1.47341E-02 3.75804E+00-2.48239E-13-5.48728E-13
 -1      3602 1.91819E+01-1.26120E+00 7.32187E-03 3.21310E+00-6.57028E-14-3.10237E-13
 -1      3603 1.98298E+01-1.98210E+00 3.29141E-02 3.37718E+00-1.09515E-13-3.67860E-13
 -1      3604 1.76971E+01-1.65382E+00 4.28086E-02 4.04657E+00-3.14616E-13-1.83860E-13
 -1      3605 1.79279E+01-7.19627E-01 1.12819E-02 3.25509E+00-2.15476E-13-1.64630E-13
 -1      3606 1.06843E+01 4.58722E-01 2.41328E-02-1.06874E+00 5.68989E-15-4.69125E-13
 -1      3607 1.11096E+01 7.92073E-02 1.40569E-01-2.57863E+00-3.39312E-15-5.43426E-13
 -1      3608 1.28194E+01-1.91672E-01 8.41135E-02-3.01687E+00-2.24473E-14-4.97984E-13
 -1      3609 1.16038E+01 3.89943E-01 9.02648E-02-2.13560E+00-4.23446E-15-2.15800E-15
 -1      3610 1.27731E+01-3.67222E-01-1.55931E-02-3.44407E+00 5.20486E-14 1.89515E-13
 -1      3611 1.23903E+01 6.66977E-01 7.78869E-02-1.43889E+00 1.40610E-13 9.55035E-14
 -1      3612 2.46448E+01-2.94714E+00 3.67092E-03-2.96461E-01-1.29619E-14-4.09988E-13
 -1      3613 2.01183E+01 1.14879E-01-1.05978E-03-1.96546E-01 1.01803E-13-1.39055E-13
 -1      3614 2.02693E+01 1.28905E+00-2.07212E-03 4.65755E-01 2.13904E-13-2.28259E-13
 -1      3615 2.01484E+01 1.94680E+00 5.90889E-03-9.46112E-02 5.83370E-14-3.33732E-13
 -1      3616 1.12992E+01 6.67722E-01 7.90903E-02 1.07041E+00 3.39289E-14 2.46601E-13
 -1      3617 1.22490E+01 8.33338E-01 5.87102E-02 5.59128E-01 7.29191E-15 1.86150E-13
 -1      3618 1.19381E+01 4.59060E-01 5.93151E-02 1.93229E+00-2.12330E-15 1.89772E-13
 -1      3619 2.37187E+01-3.39599E+00-1.94915E-02 1.47638E+00 1.64993E-13-6.35603E-15
 -1      3620 2.57777E+01-2.07197E+00 1.11387E-02-8.81165E-01 9.37566E-14 5.29715E-14
 -1      3621 2.17205E+01-3.56468E+00 5.04583E-02-3.49900E+00-1.32108E-13-2.51767E-13
 -1      3622 1.55135E+01-1.21135E+00 2.20588E-02-4.00662E+00-7.95978E-14-4.18873E-13
 -1      3623 1.66176E+01-1.85168E+00 5.12745E-02-4.38863E+00-1.19956E-13-4.57228E-13
 -1      3624 1.81366E+01-1.87053E+00 3.70342E-02-3.95616E+00-7.73964E-14-2.92669E-13
 -1      3625 2.02912E+01 6.75769E-01 1.72599E-03 2.39314E-01 1.62794E-13-1.87074E-13
 -1      3626 2.03039E+01 8.10488E-01-1.29990E-04 2.74059E-01 1.87219E-13-2.02404E-13
 -1      3627 2.02617E+01 5.31281E-01-2.19387E-03 1.25389E-01 1.10373E-13-1.87586E-13
 -1      3628 2.01356E+01 8.56151E-02 2.55722E-04-2.48303E-01 7.38265E-14-1.89710E-13
 -1      3629 2.01490E+01 1.01138E-01 6.22474E-04-2.23787E-01 7.53878E-14-1.85046E-13
 -1      3630 2.01634E+01 1.01088E-01-5.00287E-04-2.43576E-01 2.61628E-14-1.79369E-13
 -1      3631 2.00810E+01 8.60510E-02-3.52522E-04-3.05694E-01 5.77127E-14-4.72890E-14
 -1      3632 2.01187E+01 9.98640E-02-3.11434E-04-2.83308E-01 1.99074E-14-1.02442E-13
 -1      3633 2.00750E+01 9.93686E-02 9.27823E-04-3.25745E-01 1.14253E-14-2.52888E-14
 -1      3634 2.00225E+01 1.78701E-01 2.44942E-04-3.68178E-01 2.61791E-14-1.16232E-13
 -1      3635 2.00456E+01 1.41004E-01 1.14022E-03-3.69711E-01-1.16394E-14 1.29641E-14
 -1      3636 2.00496E+01 1.17168E-01-8.36712E-04-3.45660E-01 1.41710E-14-2.41315E-14
 -1      3637 1.94406E+01 7.09330E-01 2.13203E-03-7.02095E-02 2.85412E-13-3.78764E-13
 -1      3638 1.95096E+01 6.79057E-01-4.56698E-04-7.66756E-03 2.00927E-13-4.89738E-13
 -1      3639 1.95119E+01 6.79427E-01-1.38100E-03 7.97417E-02 1.47607E-13-4.44195E-13
 -1      3640 2.00850E+01-2.05866E+00 4.63175E-02-3.40424E+00-6.58857E-14-1.95633E-13
 -1      3641 1.84395E+01-1.52405E+00-6.78294E-03-3.59324E+00-5.25448E-14-2.78319E-13
 -1      3642 2.08780E+01-2.91146E+00 3.02494E-02-3.49054E+00-7.49054E-14-2.57537E-13
 -1      3643 2.02270E+01 3.19544E-01-1.51036E-03-3.37633E-02 8.68144E-14-2.00938E-13
 -1      3644 2.02559E+01 4.14504E-01 1.52422E-03 4.49326E-02 9.57976E-14-1.98696E-13
 -1      3645 2.02909E+01 5.09197E-01 6.35907E-04 7.82344E-02 1.06195E-13-1.84874E-13
 -1      3646 1.47046E+01-4.94399E-01 5.96975E-02-3.44882E+00-1.89709E-14 1.10852E-13
 -1      3647 1.88121E+01-2.43587E+00 7.98439E-02 4.11632E+00 4.49614E-14 7.64588E-14
 -1      3648 1.77821E+01-1.68538E+00-1.78929E-02 3.74837E+00 1.17533E-13 8.36154E-14
 -1      3649 2.40530E+01-3.47452E+00-2.55499E-02-1.33906E+00-8.88673E-14-5.23559E-13
 -1      3650 1.99416E+01 4.24992E-01 5.26336E-04 4.97176E-01-3.93471E-14 2.57677E-13
 -1      3651 2.16084E+01-3.35472E+00 2.92169E-02-3.16951E+00-2.06207E-14-2.42690E-13
 -1      3652 2.01892E+01 1.87818E-01-6.21829E-04-1.39536E-01 1.31144E-13-2.01924E-13
 -1      3653 2.02129E+01 2.46266E-01 1.16136E-03-8.74091E-02 1.07975E-13-2.00102E-13
 -1      3654 2.02579E+01 3.07941E-01-9.21823E-05-5.92179E-02 1.09783E-13-2.22755E-13
 -1      3655 1.39665E+01-2.15210E-01 5.53775E-02 3.35127E+00-9.44383E-15-5.54765E-14
 -1      3656 1.35048E+01 3.50695E-01 1.06560E-02 2.35116E+00-1.02947E-14-9.57429E-14
 -1      3657 1.56357E+01-3.62063E-01 3.57391E-02 3.13721E+00 6.69549E-14 1.62266E-14
 -1      3658 1.21636E+01 7.38039E-01 1.51361E-02 1.03224E+00 2.23623E-14-2.65905E-13
 -1      3659 1.13289E+01 8.44789E-01 1.27712E-01 5.74558E-02 3.39125E-14-2.80283E-13
 -1      3660 1.20973E+01 7.52183E-01 3.74992E-02-8.29294E-01 1.00351E-13-4.92537E-13
 -1      3661 2.60762E+01 2.33986E+00-1.03973E-01-2.03780E+00-1.74936E-13-1.26600E-13
 -1      3662 1.96200E+01 6.24172E-01-2.55299E-03 3.48930E-01-6.53406E-14-8.94316E-14
 -1      3663 1.96800E+01 5.98829E-01 2.12832E-03 4.03900E-01-1.43857E-14-2.38085E-13
 -1      3664 1.98426E+01 4.96945E-01 1.39356E-03 5.04214E-01-5.60104E-14 2.53349E-13
 -1      3665 2.02528E+01 1.42689E+00-2.91787E-03-3.46813E-01-2.70305E-14-2.84827E-13
 -1      3666 1.98679E+01 4.09655E-01-6.54288E-04-5.75163E-01 6.84830E-14 6.39962E-14
 -1      3667 1.98028E+01 4.60748E-01 1.44231E-03-4.86449E-01 1.05635E-13 4.62978E-14
 -1      3668 1.98911E+01-2.92731E+00-9.81900E-03 3.85694E+00 9.20800E-14 5.99867E-14
 -1      3669 2.02313E+01 1.56889E+00-4.53636E-03 2.80038E-01 1.65709E-13-2.74601E-13
 -1      3670 2.02197E+01 1.62990E+00-2.28577E-03 1.96367E-01 1.34496E-13-3.08797E-13
 -1      3671 2.02927E+01 1.41546E+00 5.11737E-03 1.28941E-01 1.17540E-13-2.95182E-13
 -1      3672 2.02108E+01 1.66460E+00-3.39877E-03 1.27589E-01 1.17791E-13-3.15452E-13
 -1      3673 2.02065E+01 1.68475E+00-2.80777E-03 3.83757E-02 9.68080E-14-3.11626E-13
 -1      3674 1.33042E+01-9.14249E-01 1.07912E-01 4.05349E+00-1.87454E-13-2.48551E-14
 -1      3675 1.25947E+01-2.14065E-01 2.56265E-02 3.05858E+00-1.10592E-13-2.91225E-14
 -1      3676 1.30532E+01 2.68250E-01 5.21375E-02 2.35513E+00-1.12961E-13-1.65180E-13
 -1      3677 1.57434E+01-1.29869E+00 7.03565E-02 4.03877E+00-4.07646E-13-1.62592E-13
 -1      3678 1.95330E+01 6.73266E-01-1.37056E-03 1.79994E-01 3.99128E-14-1.07509E-13
 -1      3679 1.95688E+01 6.56183E-01-1.55197E-04 2.61990E-01 7.19001E-14 3.27632E-14
 -1      3680 1.95328E+01 6.82750E-01 2.19404E-03 3.29399E-01 9.00724E-14 1.57033E-13
 -1      3681 1.94486E+01 7.20382E-01 2.45215E-03 1.35134E-01 2.35088E-13-1.47223E-13
 -1      3682 2.34634E+01-3.66290E+00 1.04945E-02 2.07938E+00 1.75721E-13-5.74339E-14
 -1      3683 2.26643E+01-4.02583E+00 1.58502E-02 3.17337E+00 6.86031E-14-2.84973E-14
 -1      3684 2.13778E+01-3.47506E+00 1.60992E-02 3.44028E+00 2.83263E-14 6.27276E-15
 -1      3685 2.26204E+01-3.10276E+00 2.92112E-02 2.06804E+00 1.22622E-13 7.21298E-15
 -1      3686 2.03566E+01 4.65864E-01 6.06325E-04-4.63541E-03-5.09514E-14-1.28275E-13
 -1      3687 2.03389E+01 3.68255E-01-1.27482E-03 5.19972E-02-7.59098E-14-1.30113E-13
 -1      3688 2.03253E+01 2.88719E-01 7.83255E-04 8.67717E-02-9.58837E-14-1.24494E-13
 -1      3689 2.03023E+01 2.26818E-01-7.59979E-04 1.24943E-01-1.10177E-13-1.15878E-13
 -1      3690 2.03594E+01 3.67717E-01 2.45434E-04 5.45130E-02-8.57023E-14-9.63641E-14
 -1      3691 2.02788E+01 1.81089E-01 5.71726E-04 1.49637E-01-1.01030E-13-1.18097E-13
 -1      3692 2.02529E+01 1.48498E-01-2.83133E-04 1.76600E-01-8.41956E-14-1.25020E-13
 -1      3693 2.03180E+01 2.31620E-01 4.36254E-05 1.16150E-01-1.03325E-13-1.35722E-13
 -1      3694 2.02223E+01 1.28298E-01 1.93269E-04 1.95027E-01-7.77622E-14-1.16696E-13
 -1      3695 2.01955E+01 1.18205E-01 1.29201E-04 2.15931E-01-4.22141E-14-1.40230E-13
 -1      3696 2.02614E+01 1.59109E-01 2.28043E-05 1.60954E-01-8.44774E-14-1.35121E-13
 -1      3697 2.01596E+01 1.17170E-01-2.19286E-04 2.31719E-01-2.90795E-14-1.67814E-13
 -1      3698 2.01325E+01 1.24221E-01 4.30465E-04 2.50772E-01-4.45105E-14-1.43999E-13
 -1      3699 2.01945E+01 1.35032E-01 3.80334E-05 1.96458E-01-4.01745E-14-1.68009E-13
 -1      3700 2.00920E+01 1.37608E-01-6.11607E-04 2.67195E-01-6.54596E-14-1.21598E-13
 -1      3701 2.00643E+01 1.57510E-01 6.52109E-04 2.87812E-01-7.49673E-14-1.36320E-13
 -1      3702 2.01194E+01 1.48232E-01 1.49710E-04 2.29474E-01-5.57612E-14-1.65665E-13
 -1      3703 2.00191E+01 1.81490E-01-9.87287E-04 3.07647E-01-6.08798E-14-1.48057E-13
 -1      3704 1.99904E+01 2.10612E-01 8.29872E-04 3.32610E-01-2.61366E-14-1.49544E-13
 -1      3705 2.00366E+01 1.89544E-01 3.38631E-04 2.65864E-01-4.27092E-14-1.20898E-13
 -1      3706 1.99400E+01 2.41706E-01-1.34694E-03 3.58284E-01-3.58403E-15-1.99128E-13
 -1      3707 1.99097E+01 2.76537E-01 9.99605E-04 3.89847E-01-1.28561E-14-1.92905E-13
 -1      3708 1.99450E+01 2.51140E-01 5.60275E-04 3.10750E-01-4.17756E-14-1.73284E-13
 -1      3709 1.98534E+01 3.11120E-01-1.69108E-03 4.23557E-01-2.63734E-14-1.51939E-13
 -1      3710 1.98215E+01 3.47752E-01 1.20639E-03 4.63581E-01-2.78534E-14-1.20696E-13
 -1      3711 1.98432E+01 3.25583E-01 7.93332E-04 3.68712E-01 8.74415E-15-1.42762E-13
 -1      3712 1.97587E+01 3.81484E-01-2.01347E-03 5.07479E-01-9.17308E-14-1.24068E-13
 -1      3713 1.97260E+01 4.15014E-01 1.50473E-03 5.57545E-01-1.09337E-13-1.08207E-13
 -1      3714 1.97297E+01 4.04671E-01 9.88172E-04 4.44128E-01-5.57664E-14-1.39070E-13
 -1      3715 1.96569E+01 4.42207E-01-2.29451E-03 6.13936E-01-7.35926E-14-9.43829E-14
 -1      3716 1.96257E+01 4.66077E-01 1.97112E-03 6.75448E-01-2.24065E-14-9.56272E-14
 -1      3717 1.96039E+01 4.78297E-01 1.08437E-03 5.41616E-01-8.46523E-14-9.23435E-14
 -1      3718 1.95518E+01 4.79008E-01-2.49349E-03 7.47006E-01 5.70304E-15-1.17353E-13
 -1      3719 1.95268E+01 4.84289E-01 2.71303E-03 8.21257E-01 2.25863E-14-6.49216E-14
 -1      3720 1.94674E+01 5.33078E-01 9.90550E-04 6.66525E-01-3.46720E-14-2.65660E-14
 -1      3721 1.94523E+01 4.72476E-01-2.52435E-03 9.11268E-01 5.76102E-14-8.27862E-14
 -1      3722 1.94420E+01 4.47118E-01 3.87631E-03 9.99395E-01 5.27598E-14-2.79412E-15
 -1      3723 1.93251E+01 5.50889E-01 5.63020E-04 8.25533E-01 7.08302E-14-1.09881E-13
 -1      3724 1.93750E+01 3.96625E-01-2.19915E-03 1.11188E+00 5.16142E-14 4.30107E-14
 -1      3725 1.93939E+01 3.24723E-01 5.62029E-03 1.21444E+00 8.13377E-14 1.52201E-14
 -1      3726 1.91883E+01 5.07183E-01-4.29757E-04 1.02728E+00 6.64785E-14-2.10124E-14
 -1      3727 1.93494E+01 2.17716E-01-1.12408E-03 1.35369E+00 2.65345E-14-2.70713E-14
 -1      3728 1.94204E+01 7.91983E-02 8.13363E-03 1.46926E+00 4.63204E-14-5.32380E-14
 -1      3729 1.90780E+01 3.68996E-01-2.38100E-03 1.28257E+00 4.54229E-14-3.32072E-14
 -1      3730 1.94247E+01-1.05738E-01 1.47813E-03 1.63871E+00 9.20815E-14-7.87628E-14
 -1      3731 1.95833E+01-3.35762E-01 1.12507E-02 1.76008E+00 1.29736E-13-5.52894E-14
 -1      3732 1.90315E+01 9.36707E-02-5.93092E-03 1.60281E+00 7.29518E-14-1.72778E-14
 -1      3733 1.96854E+01-6.22936E-01 7.30598E-03 1.95645E+00 1.59300E-13-1.23684E-13
 -1      3734 1.99782E+01-9.68345E-01 1.41122E-02 2.06364E+00 9.17613E-14-7.33484E-14
 -1      3735 1.91099E+01-3.75805E-01-1.35346E-02 1.99817E+00 8.49373E-14-1.72325E-13
 -1      3736 2.02582E+01-1.37471E+00 1.79182E-02 2.23761E+00 4.00292E-14-8.61750E-14
 -1      3737 2.07138E+01-1.82475E+00 1.21197E-02 2.27419E+00-1.25212E-14-9.59207E-14
 -1      3738 1.94585E+01-1.14009E+00-3.12593E-02 2.45480E+00 6.05653E-14-2.36299E-13
 -1      3739 2.12414E+01-2.24237E+00 3.16650E-02 2.34408E+00-3.71933E-14-9.06458E-14
 -1      3740 2.19006E+01-2.72941E+00 6.24794E-03 2.20555E+00 1.32862E-14-2.94226E-14
 -1      3741 2.13908E+01-2.97326E+00-2.73326E-02 2.82247E+00 8.49720E-14-4.77656E-15
 -1      3742 2.01683E+01-1.97528E+00-2.38334E-02 2.75058E+00-3.05615E-15-1.75006E-13
 -1      3743 2.52706E+01-6.28542E-01-6.22820E-02-1.72228E+00 8.54247E-14 8.51897E-14
 -1      3744 2.02065E+01 1.68458E+00-2.93094E-03-3.32565E-02 7.39587E-14-3.07724E-13
 -1      3745 2.02107E+01 1.66357E+00-4.20779E-03-1.24706E-01 4.58730E-14-3.18575E-13
 -1      3746 2.02870E+01 1.45117E+00 5.08306E-03 2.04543E-03 8.00878E-14-2.91408E-13
 -1      3747 2.55324E+01 4.58039E-01-2.82858E-02-2.18335E+00 1.31874E-14 6.03649E-14
 -1      3748 1.43549E+01 2.20284E-01 5.66898E-02-2.70296E+00-9.59319E-14 1.76843E-13
 -1      3749 1.59048E+01-6.33813E-01-7.31711E-03-3.38368E+00-2.13034E-13 1.56482E-13
 -1      3750 1.97613E+01 4.64821E-01-2.21351E-03-5.88514E-01 9.09359E-14 1.92536E-13
 -1      3751 2.09456E+01-2.04246E+00 6.85774E-03-2.30129E+00 6.90793E-14-2.12950E-13
 -1      3752 2.04479E+01-1.55571E+00 2.03175E-02-2.28511E+00 1.45582E-13-1.48735E-13
 -1      3753 2.01229E+01-1.13075E+00 1.41384E-02-2.11049E+00 6.17206E-14-1.54483E-13
 -1      3754 1.97988E+01-7.62540E-01 8.67464E-03-2.01819E+00 2.94693E-14-1.42324E-13
 -1      3755 1.96030E+01-1.29452E+00-1.91554E-02-2.53505E+00 4.44610E-15-3.24154E-13
 -1      3756 1.96665E+01-4.47288E-01 1.20553E-02-1.82195E+00 3.55501E-14-8.62460E-14
 -1      3757 1.94855E+01-1.94143E-01 2.58753E-03-1.70248E+00 9.71343E-14-4.02162E-14
 -1      3758 1.91881E+01-5.03097E-01-1.27116E-02-2.08576E+00 9.28318E-14-3.36745E-13
 -1      3759 1.94641E+01 1.21960E-02 8.64760E-03-1.52807E+00 7.38196E-14-5.40116E-14
 -1      3760 1.93785E+01 1.70453E-01-5.46018E-04-1.41021E+00 1.13307E-14-1.30112E-13
 -1      3761 1.90635E+01 1.74671E-02-6.31820E-03-1.67996E+00 2.88719E-14-2.71288E-13
 -1      3762 1.94143E+01 2.94982E-01 6.03000E-03-1.26475E+00-1.50047E-13-1.19071E-13
 -1      3763 1.93866E+01 3.83349E-01-1.86022E-03-1.15819E+00-2.32234E-13-1.59347E-13
 -1      3764 1.90871E+01 3.34192E-01-2.51297E-03-1.34484E+00-6.81876E-14-3.66168E-13
 -1      3765 1.94486E+01 4.49264E-01 4.07901E-03-1.03940E+00-1.22147E-13-7.17932E-16
 -1      3766 1.94535E+01 4.89193E-01-2.39632E-03-9.45829E-01-1.00779E-13-1.40410E-13
 -1      3767 1.91853E+01 5.06100E-01-5.36077E-04-1.07561E+00-1.35745E-13-2.52101E-13
 -1      3768 1.95253E+01 5.15236E-01 2.83045E-03-8.49361E-01-7.41036E-14-1.51442E-14
 -1      3769 1.95468E+01 5.24109E-01-2.33049E-03-7.68466E-01 4.02014E-15 1.43678E-14
 -1      3770 1.93156E+01 5.80425E-01 6.95715E-04-8.59875E-01 2.26489E-15-5.72997E-14
 -1      3771 1.96183E+01 5.23889E-01 1.67132E-03-6.89630E-01 9.31168E-14-1.00349E-13
 -1      3772 1.96508E+01 5.16274E-01-9.61722E-04-6.21239E-01 1.34213E-13-7.61670E-14
 -1      3773 1.94526E+01 5.91082E-01 8.14097E-04-6.87350E-01-6.55703E-14-3.78041E-13
 -1      3774 1.99188E+01 2.95164E-01 7.03438E-04-4.04528E-01 8.63698E-14-1.74119E-13
 -1      3775 1.99491E+01 2.51571E-01-1.50977E-03-3.73029E-01 1.06192E-13-1.23868E-13
 -1      3776 1.93485E+01 7.51861E-01 2.76943E-04-7.94439E-01-1.14915E-14-4.25820E-17
 -1      3777 1.94285E+01 6.89365E-01-4.00097E-03-7.22962E-01 1.46897E-14-2.59656E-14
 -1      3778 1.95448E+01 6.28611E-01 3.65605E-04-6.67161E-01 2.94928E-14-9.10424E-15
 -1      3779 1.96069E+01 5.65724E-01-3.19993E-03-6.07349E-01 1.65077E-14-1.84454E-14
 -1      3780 1.93680E+01 7.18263E-01 3.90589E-03-6.13890E-01 2.38766E-14 5.09004E-14
 -1      3781 1.87901E+01 9.41706E-01 1.07400E-03-1.13137E+00-1.10444E-13-6.07334E-14
 -1      3782 1.89133E+01 9.05953E-01-6.56701E-03-1.02863E+00-6.08265E-14-7.89185E-15
 -1      3783 1.84128E+01 9.53616E-01 2.83342E-03-1.36513E+00-3.38097E-14-1.35525E-13
 -1      3784 1.85539E+01 9.55023E-01-8.79082E-03-1.23618E+00-4.70267E-14-9.13502E-14
 -1      3785 1.83927E+01 1.05534E+00 8.49620E-03-1.02323E+00-3.96184E-14-5.08753E-14
 -1      3786 1.79710E+01 8.48855E-01 7.22690E-03-1.67936E+00 6.92372E-15-2.19383E-13
 -1      3787 1.81153E+01 9.13684E-01-1.19664E-02-1.50811E+00 1.69386E-14-1.13777E-13
 -1      3788 1.78841E+01 1.07338E+00 1.05956E-02-1.24381E+00-1.56487E-14-1.61034E-13
 -1      3789 1.74845E+01 5.46670E-01 1.56673E-02-2.13228E+00 2.18753E-14-4.29883E-13
 -1      3790 1.75978E+01 7.18079E-01-1.60009E-02-1.89128E+00 4.10832E-14-3.34707E-13
 -1      3791 1.72486E+01 9.80329E-01 1.48332E-02-1.56209E+00 9.61083E-14-3.21606E-13
 -1      3792 1.69928E+01-1.08508E-01 1.94624E-02-2.82836E+00-7.96581E-14-4.30360E-13
 -1      3793 1.70216E+01 2.74177E-01-1.75347E-02-2.46179E+00-6.95027E-14-4.49457E-13
 -1      3794 1.64706E+01 7.03726E-01 2.69672E-02-2.05878E+00 8.25208E-15-2.98860E-13
 -1      3795 1.87142E+01 9.57756E-01-7.76043E-03 1.15075E+00 1.34447E-13 1.04862E-13
 -1      3796 1.85786E+01 9.69669E-01 1.87213E-03 1.26982E+00 1.05197E-13 2.57922E-14
 -1      3797 1.78175E+01 8.18591E-01-1.50614E-02 1.73340E+00 4.71386E-14 1.11076E-13
 -1      3798 1.76797E+01 6.89226E-01 7.89240E-03 1.94486E+00 8.88749E-14 6.79323E-14
 -1      3799 1.83057E+01 9.51092E-01-1.07898E-02 1.39682E+00 1.40445E-13 3.89455E-14
 -1      3800 1.81600E+01 9.12315E-01 4.88516E-03 1.55015E+00 1.42613E-13 6.38624E-14
 -1      3801 1.81079E+01 1.08728E+00 9.84773E-03 1.15233E+00 1.26074E-13 1.66520E-13
 -1      3802 2.31464E+01-3.23525E+00 3.20865E-02-1.80763E+00-1.46556E-13-5.58319E-13
 -1      3803 1.93075E+01 8.00544E-01-4.72622E-03 7.94363E-01-1.24269E-13 4.02375E-13
 -1      3804 1.92150E+01 8.53338E-01 3.79650E-04 8.76910E-01 1.26916E-13 3.08690E-13
 -1      3805 1.95087E+01 6.98550E-01-3.79787E-03 6.53735E-01 4.48219E-14 2.48271E-13
 -1      3806 1.94404E+01 7.52185E-01 6.68826E-04 7.28673E-01-1.58649E-13 2.96644E-13
 -1      3807 1.92327E+01 8.45262E-01 4.81501E-03 6.66556E-01 2.72330E-15 5.52971E-13
 -1      3808 2.02482E+01 1.49112E+00-3.47134E-03-2.82760E-01-9.16923E-15-2.82862E-13
 -1      3809 2.03263E+01 1.15854E+00 4.47105E-03-2.52493E-01-1.78772E-14-2.53332E-13
 -1      3810 2.02356E+01 1.55101E+00-2.47055E-03-2.02862E-01 3.33669E-14-3.02927E-13
 -1      3811 2.03205E+01 1.06710E+00 4.85857E-03 3.46112E-01 1.98060E-13-2.15268E-13
 -1      3812 2.02685E+01 1.34352E+00-3.99602E-03 4.04546E-01 2.01425E-13-2.24549E-13
 -1      3813 2.01617E+01 1.18961E-01-9.02818E-05-2.03430E-01 8.77704E-14-2.00371E-13
 -1      3814 2.01797E+01 1.53185E-01 9.16756E-04-1.68641E-01 1.01086E-13-1.89797E-13
 -1      3815 2.02260E+01 1.91895E-01-6.03108E-04-1.46529E-01 1.04464E-13-2.03395E-13
 -1      3816 2.01998E+01 1.31620E-01-6.43173E-04-2.00476E-01 1.02604E-13-2.17853E-13
 -1      3817 1.97726E+01 5.34582E-01-2.03767E-03 4.76223E-01-1.35009E-13-4.17595E-14
 -1      3818 2.02541E+01 1.44390E+00-1.74210E-03 3.40351E-01 1.77629E-13-2.31676E-13
 -1      3819 1.72656E+01 4.84236E-01-1.55743E-02 2.20662E+00 3.30878E-14-7.06924E-14
 -1      3820 1.71524E+01 1.88396E-01 6.95582E-03 2.51956E+00-1.28805E-13-1.28171E-13
 -1      3821 1.68372E+01 8.35744E-01 3.07147E-02 1.86684E+00-7.93293E-14 8.66061E-16
 -1      3822 1.31448E+01 2.04249E-01 4.67645E-03-2.49560E+00 3.05988E-14-5.04194E-13
 -1      3823 1.42692E+01-4.05764E-01 7.77450E-02-3.51066E+00-4.65981E-14-4.69340E-13
 -1      3824 1.58476E+01-6.57999E-01 4.15162E-02-3.47885E+00-1.06902E-13-3.85341E-13
 -1      3825 1.91000E+01 8.63307E-01 4.16287E-04-9.46577E-01 8.57956E-15-3.02970E-14
 -1      3826 1.92012E+01 8.08384E-01-5.06440E-03-8.61526E-01 5.53212E-14 1.79703E-14
 -1      3827 1.87968E+01 9.70611E-01 6.69618E-03-8.57670E-01-4.96420E-14-2.97613E-16
 -1      3828 2.45916E+01 4.47098E+00-9.18801E-02 1.17521E-01-1.52572E-13-5.57476E-13
 -1      3829 2.08352E+01-2.87197E+00 8.95976E-03 3.18842E+00 1.52053E-13 4.90558E-14
 -1      3830 2.03111E+01 1.25553E+00 4.07965E-03 2.43686E-01 1.63682E-13-2.25011E-13
 -1      3831 2.20156E+01-3.26042E+00-4.46940E-02-2.58407E+00-3.97642E-14-2.76277E-13
 -1      3832 2.23145E+01-2.92466E+00-2.38569E-03-2.05314E+00-6.26200E-14-3.99891E-13
 -1      3833 2.16454E+01-2.43952E+00 4.33697E-02-2.24027E+00 1.38904E-14-3.12900E-13
 -1      3834 2.07558E+01-2.76668E+00 5.44472E-02-3.26204E+00 1.10829E-14-1.67045E-13
 -1      3835 1.96826E+01 5.92998E-01-1.27698E-03 4.94150E-01-2.06521E-14-1.49778E-14
 -1      3836 1.77393E+01-1.50532E+00 2.35330E-02-3.70098E+00-1.33643E-14 2.31030E-14
 -1      3837 1.93284E+01-2.37590E+00-2.88765E-02-3.63978E+00-2.74980E-14-1.10356E-13
 -1      3838 1.96262E+01 6.35923E-01-4.71563E-04 5.53996E-01 9.83521E-14 1.08205E-13
 -1      3839 1.29579E+01 9.75196E-01 3.85157E-02-6.77843E-01 5.70152E-14 1.71672E-13
 -1      3840 1.33540E+01 6.11299E-01-9.83326E-03-1.82144E+00-3.86653E-14 2.66894E-13
 -1      3841 1.90430E+01 8.94228E-01-6.86967E-03 9.58730E-01 3.02104E-13 1.53976E-13
 -1      3842 1.89302E+01 9.33525E-01 3.28703E-04 1.05450E+00 2.83157E-13 1.05556E-13
 -1      3843 1.85764E+01 1.04707E+00 8.91137E-03 9.52907E-01 2.33775E-13-3.49961E-14
 -1      3844 1.89416E+01 9.62882E-01 8.02700E-03 7.94848E-01 4.82590E-14 3.18517E-13
 -1      3845 1.94715E+01 7.13852E-01-3.10778E-04 5.12186E-01 1.06739E-13 1.48816E-13
 -1      3846 1.65634E+01-2.05189E-01-6.92189E-03-2.75976E+00-2.39006E-13 3.86149E-14
 -1      3847 1.71110E+01-8.69592E-01 2.53415E-02-3.35205E+00-2.13305E-13-2.05490E-13
 -1      3848 1.81303E+01-1.05308E+00-1.17220E-02-3.05277E+00-1.17306E-13-3.41973E-13
 -1      3849 2.52159E+01 4.42436E+00-9.11483E-02-9.16301E-01-2.91531E-13-5.19786E-13
 -1      3850 1.48212E+01 5.53745E-01 5.21092E-02-1.95712E+00-1.52158E-13 1.78946E-13
 -1      3851 1.91162E+01 8.51237E-01 5.16256E-03-7.24773E-01 8.45182E-15 8.04586E-15
 -1      3852 1.96446E+01 5.30765E-01 1.36666E-03-5.78559E-01 8.41153E-14-2.13811E-13
 -1      3853 2.05111E+01-2.28058E+00-4.01136E-02-2.76566E+00 8.71837E-14-1.57449E-13
 -1      3854 1.98585E+01 3.41659E-01-2.00579E-03-4.34539E-01 5.65327E-14-1.35432E-13
 -1      3855 1.98518E+01 3.50098E-01 1.39738E-03-3.78832E-01 7.80011E-14-1.60310E-13
 -1      3856 1.98210E+01 3.93825E-01 6.35612E-04-4.74258E-01 4.11414E-14-1.62271E-13
 -1      3857 2.01843E+01 1.12512E-01 1.17903E-04-2.31345E-01-1.38522E-14-1.78397E-13
 -1      3858 2.02076E+01 1.23216E-01 3.16817E-04-2.08978E-01 2.99617E-14-1.96831E-13
 -1      3859 2.00726E+01 1.27459E-01-6.24126E-05-3.22538E-01 5.83547E-15-1.39261E-14
 -1      3860 1.99992E+01 2.14130E-01 6.98546E-04-3.49362E-01 5.03519E-14-1.32631E-13
 -1      3861 2.00251E+01 1.80642E-01-1.05767E-03-3.24310E-01 7.25223E-15-1.16002E-13
 -1      3862 1.99564E+01 2.57889E-01 8.79699E-04-3.27371E-01 8.02945E-14-1.45583E-13
 -1      3863 1.93463E+01 7.38814E-01 4.32620E-04-1.39548E-01 4.10114E-13-2.18853E-13
 -1      3864 1.93245E+01 7.51732E-01-2.56555E-03-3.62921E-02 4.37712E-13-5.51688E-13
 -1      3865 1.63242E+01-4.14613E-01-4.60331E-03-3.18011E+00-9.59111E-14-4.09086E-13
 -1      3866 1.53842E+01 2.95840E-01 5.73151E-02-2.67276E+00-1.05425E-13-4.14918E-13
 -1      3867 2.03165E+01 5.00574E-01-2.64591E-03 4.14829E-02 1.05747E-13-1.87536E-13
 -1      3868 2.03347E+01 6.34748E-01 2.09238E-03 1.25085E-01 1.27791E-13-1.84024E-13
 -1      3869 2.03187E+01 8.59842E-01-2.19598E-03 2.31098E-01 1.61912E-13-2.01947E-13
 -1      3870 1.46589E+01 5.39832E-01 4.27736E-03 2.01198E+00 6.06902E-14-3.71404E-14
 -1      3871 1.34079E+01 7.39472E-01 6.24325E-02 1.71582E+00 1.36297E-14-2.10779E-13
 -1      3872 1.34163E+01 9.09911E-01-3.61220E-03 8.55247E-01 6.49021E-14-3.11640E-13
 -1      3873 1.57825E+01-8.16146E-01-9.84620E-03 3.61264E+00-3.34998E-13-1.99448E-13
 -1      3874 1.75209E+01 1.03972E+00 1.23925E-02 1.43195E+00 6.56902E-14 5.68417E-14
 -1      3875 2.03481E+01 1.02655E+00 1.89238E-04-1.51762E-01 1.03346E-14-2.32128E-13
 -1      3876 2.03430E+01 9.60606E-01-1.95153E-03-1.93292E-01-1.14519E-14-2.38263E-13
 -1      3877 2.03635E+01 7.95672E-01 2.40878E-03-1.27134E-01-1.36520E-14-2.05140E-13
 -1      3878 2.03053E+01 1.34160E+00 4.41604E-03-1.34970E-01 2.68942E-14-2.99964E-13
 -1      3879 1.58526E+01 5.82343E-01 5.39372E-02 2.39587E+00-2.24112E-13-3.77166E-13
 -1      3880 1.66091E+01-6.21965E-02-2.53845E-02 2.83209E+00-1.34684E-13-2.29245E-13
 -1      3881 1.64988E+01-3.43604E-01 3.75543E-02 3.14663E+00-2.36949E-13-2.54876E-13
 -1      3882 1.97258E+01 4.96749E-01-9.82244E-04-5.09800E-01 1.32898E-13-2.20339E-13
 -1      3883 1.67530E+01-5.96029E-01 6.53886E-02 3.29945E+00 1.43160E-13 1.08753E-13
 -1      3884 1.59803E+01-1.38819E-01-1.28318E-02 2.78235E+00 1.34540E-13 8.43848E-14
 -1      3885 2.03140E+01 3.93748E-01 1.79696E-03-1.63888E-02 1.10824E-13-1.90417E-13
 -1      3886 2.03475E+01 5.09482E-01 1.32905E-05 2.33019E-02 1.28815E-13-2.05938E-13
 -1      3887 2.02917E+01 3.07452E-01-9.92036E-04-7.36671E-02 1.10196E-13-2.11684E-13
 -1      3888 2.01517E+01 1.11109E-01-1.44181E-04-2.48244E-01-1.60126E-14-1.53088E-13
 -1      3889 2.01904E+01 1.29952E-01-7.99465E-05-2.15588E-01-1.67812E-14-1.55260E-13
 -1      3890 2.01288E+01 1.18202E-01 4.19815E-04-2.67956E-01-8.01710E-15-1.08899E-13
 -1      3891 1.93860E+01 7.00076E-01-2.58992E-03-2.52149E-01 2.89372E-13 1.74915E-13
 -1      3892 1.92809E+01 7.58003E-01 1.85000E-03-2.23370E-01 4.16693E-13-1.61403E-13
 -1      3893 1.94470E+01 6.67354E-01 1.25254E-03-3.41890E-01 2.33780E-13 2.66751E-13
 -1      3894 1.81022E+01-1.32966E+00-1.47620E-02 3.26769E+00 1.68179E-13 9.38763E-14
 -1      3895 1.31388E+01 1.00944E+00 3.00068E-02 5.76147E-01-7.21827E-14-5.93310E-14
 -1      3896 1.29729E+01 1.00877E+00 3.12526E-02-2.02984E-01 9.67507E-14-2.56808E-14
 -1      3897 1.37903E+01 1.04935E+00-3.16895E-02-5.53185E-01-1.57146E-13 1.38851E-13
 -1      3898 2.03252E+01 1.18192E+00-3.31627E-03 1.27163E-01 1.22530E-13-2.76432E-13
 -1      3899 2.03240E+01 1.21740E+00-2.03629E-03 7.30467E-02 1.06504E-13-2.88756E-13
 -1      3900 1.30033E+01 7.70007E-01 8.82002E-02-1.62615E+00 6.92016E-14-6.38635E-13
 -1      3901 1.41344E+01 5.03471E-01 2.23121E-02-2.12696E+00 3.25777E-14-5.30211E-13
 -1      3902 1.30628E+01 9.12680E-01-5.19291E-03-6.33424E-01 9.76736E-14-4.81774E-13
 -1      3903 2.01167E+01-2.21129E+00 2.26142E-02-3.07305E+00 7.70608E-15-1.62085E-13
 -1      3904 2.03609E+01 6.51619E-01-9.30570E-04-6.71085E-02-2.40948E-14-1.83542E-13
 -1      3905 2.03789E+01 6.37605E-01-4.91687E-04-4.37155E-02-1.37211E-14-1.68359E-13
 -1      3906 1.93739E+01 7.56428E-01-1.32910E-04 3.92227E-01 1.90713E-13 1.32632E-13
 -1      3907 1.92398E+01 8.24400E-01-4.38489E-04 4.87015E-01 9.79513E-14 1.49389E-13
 -1      3908 1.93124E+01 7.82730E-01-4.72351E-04 3.00519E-01 2.21529E-13 2.38124E-13
 -1      3909 1.96397E+01 5.43744E-01 5.93759E-04-5.13568E-01 1.77275E-13-1.81700E-13
 -1      3910 1.96172E+01 5.65307E-01 1.91750E-03-4.76224E-01 2.42139E-13-1.73710E-13
 -1      3911 1.95300E+01 6.09261E-01-2.91464E-03-4.09923E-01 1.44954E-13 2.08135E-13
 -1      3912 1.95145E+01 5.96618E-01-7.31527E-04-5.41796E-01 1.91295E-14-1.98679E-13
 -1      3913 1.96992E+01 5.06620E-01 5.11847E-04-5.61137E-01 2.12580E-14-5.72196E-14
 -1      3914 1.97471E+01 4.47736E-01-2.55529E-03-5.11887E-01 2.85131E-14-1.06129E-13
 -1      3915 1.97246E+01 4.60557E-01 2.05859E-03-4.42617E-01-7.56497E-15-9.49809E-14
 -1      3916 1.95667E+01 5.85159E-01 2.88436E-03-5.20502E-01-2.04939E-14 3.22901E-14
 -1      3917 1.92887E+01 7.80808E-01-3.95310E-04 7.10023E-02 3.15183E-13-2.60030E-13
 -1      3918 1.93051E+01 7.73766E-01-2.92049E-03 1.75665E-01 2.63895E-13 5.12391E-14
 -1      3919 1.91350E+01 8.54280E-01-1.47630E-03 2.36533E-01 1.46243E-13 2.24731E-13
 -1      3920 1.91953E+01 8.19130E-01 2.29658E-03-1.85590E-04 3.42083E-13-2.79664E-13
 -1      3921 2.03508E+01 2.74141E-01-7.47970E-05 8.06089E-02-1.19407E-13-1.57581E-13
 -1      3922 2.03252E+01 2.21368E-01-4.54705E-04 1.07166E-01-1.18579E-13-1.76208E-13
 -1      3923 2.02953E+01 1.83237E-01 9.12179E-05 1.22029E-01-8.49414E-14-1.68919E-13
 -1      3924 2.02634E+01 1.58834E-01-2.31359E-04 1.41988E-01-5.84955E-14-1.76334E-13
 -1      3925 2.03259E+01 2.21980E-01 3.30561E-04 8.89572E-02-9.65163E-14-1.93445E-13
 -1      3926 2.02249E+01 1.46471E-01-1.65008E-04 1.54004E-01-3.12629E-14-1.79107E-13
 -1      3927 2.01889E+01 1.44563E-01 5.40527E-05 1.70899E-01-3.27159E-14-1.87969E-13
 -1      3928 2.02566E+01 1.68710E-01 3.29890E-04 1.16441E-01-4.52297E-14-1.66202E-13
 -1      3929 2.01433E+01 1.51631E-01-4.81178E-04 1.82590E-01-2.83480E-14-1.78435E-13
 -1      3930 2.01039E+01 1.67032E-01 2.48325E-04 1.99486E-01-1.02890E-14-1.44077E-13
 -1      3931 2.01730E+01 1.62906E-01 3.71934E-04 1.40511E-01-1.30990E-14-1.19292E-13
 -1      3932 2.00515E+01 1.88821E-01-8.36787E-04 2.13085E-01-3.57953E-14-1.24990E-13
 -1      3933 2.00085E+01 2.17365E-01 3.90103E-04 2.32548E-01-7.33184E-14-1.37835E-13
 -1      3934 2.00770E+01 1.94011E-01 5.33064E-04 1.65660E-01-2.09100E-14-1.53569E-13
 -1      3935 1.99487E+01 2.50068E-01-1.22486E-03 2.50217E-01-3.99703E-14-1.50972E-13
 -1      3936 1.99014E+01 2.87989E-01 5.00617E-04 2.74615E-01 2.51416E-14-1.18011E-13
 -1      3937 1.99681E+01 2.53140E-01 7.24054E-04 1.95784E-01-3.09000E-14-1.28391E-13
 -1      3938 1.98330E+01 3.27863E-01-1.63855E-03 2.98383E-01 2.45564E-14-1.64155E-13
 -1      3939 1.97806E+01 3.71455E-01 6.32541E-04 3.29848E-01-1.87170E-14-1.60353E-13
 -1      3940 1.98446E+01 3.32856E-01 1.06630E-03 2.35182E-01 2.07333E-14-1.36955E-13
 -1      3941 1.97021E+01 4.14584E-01-2.10266E-03 3.61961E-01-5.08564E-14-1.45163E-13
 -1      3942 1.96442E+01 4.59635E-01 8.34946E-04 4.02687E-01-5.86019E-14-1.50111E-13
 -1      3943 1.97034E+01 4.25386E-01 1.44304E-03 2.87831E-01-3.77024E-14-2.21950E-13
 -1      3944 1.95538E+01 5.01218E-01-2.62837E-03 4.45827E-01-4.78007E-14-1.37230E-13
 -1      3945 1.94907E+01 5.42399E-01 1.17969E-03 4.98287E-01-3.24746E-14-1.00144E-13
 -1      3946 1.95414E+01 5.22332E-01 1.82744E-03 3.58639E-01-3.45052E-14-1.45399E-13
 -1      3947 1.93871E+01 5.76154E-01-3.23482E-03 5.55885E-01-5.63544E-14-7.43625E-14
 -1      3948 1.93206E+01 6.06405E-01 1.77082E-03 6.23136E-01-3.40762E-14-8.51540E-14
 -1      3949 1.93557E+01 6.13220E-01 2.18296E-03 4.53734E-01-4.94752E-14-1.23644E-13
 -1      3950 1.92030E+01 6.23889E-01-3.94163E-03 6.99853E-01 2.14782E-14-4.49737E-14
 -1      3951 1.91376E+01 6.33720E-01 2.76196E-03 7.85924E-01 7.23573E-14-6.94931E-14
 -1      3952 1.91443E+01 6.84363E-01 2.45537E-03 5.81364E-01-2.68148E-14-1.98333E-14
 -1      3953 1.90067E+01 6.23558E-01-4.75116E-03 8.88290E-01 7.00740E-14-7.91942E-14
 -1      3954 1.89508E+01 6.00242E-01 4.40258E-03 9.98561E-01 3.57522E-14-9.53617E-14
 -1      3955 1.89075E+01 7.17490E-01 2.55141E-03 7.53140E-01 6.15818E-14-1.40376E-13
 -1      3956 1.88098E+01 5.47210E-01-5.58036E-03 1.13587E+00 2.07512E-14-1.28769E-13
 -1      3957 1.87788E+01 4.73640E-01 7.04117E-03 1.27717E+00 6.14808E-14-1.04691E-13
 -1      3958 1.86487E+01 6.88085E-01 2.29318E-03 9.85683E-01 2.71267E-14-1.61705E-13
 -1      3959 1.86365E+01 3.56849E-01-6.14684E-03 1.46219E+00 9.06272E-14-6.39027E-14
 -1      3960 1.86538E+01 2.09322E-01 9.92477E-03 1.64209E+00 9.13662E-14-6.50834E-14
 -1      3961 1.83783E+01 5.62336E-01 1.20122E-03 1.30359E+00 1.06638E-13-1.11724E-13
 -1      3962 1.85331E+01 6.18824E-03-4.58551E-03 1.88553E+00 4.17215E-14-5.07842E-14
 -1      3963 1.86605E+01-2.51633E-01 1.45107E-02 2.10828E+00 2.63066E-14-1.34687E-13
 -1      3964 1.81322E+01 2.91186E-01 1.23534E-03 1.73910E+00 6.96577E-14-1.56753E-14
 -1      3965 1.92053E+01 7.79664E-01-1.25998E-03-5.25856E-01 4.41096E-14 7.27533E-14
 -1      3966 1.93176E+01 7.09816E-01-3.29379E-03-4.81390E-01 2.39309E-14 6.64257E-14
 -1      3967 2.03230E+01 1.23277E+00-2.30584E-03 3.08026E-02 8.78983E-14-2.77711E-13
 -1      3968 2.03200E+01 1.23030E+00-3.96630E-03-2.71532E-02 6.36754E-14-2.85247E-13
 -1      3969 2.03740E+01 1.04129E+00 4.90637E-03 3.67269E-02 9.53530E-14-2.67614E-13
 -1      3970 1.48581E+01 9.43821E-01 2.02132E-02-1.32300E+00-1.98820E-13 1.16055E-13
 -1      3971 1.55868E+01 4.28759E-01-2.05432E-02-2.10723E+00-1.40444E-13 1.78637E-13
 -1      3972 1.94440E+01 6.42094E-01-7.65074E-04-4.51833E-01-2.73708E-14 4.16633E-14
 -1      3973 1.95326E+01 5.74802E-01-2.59617E-03-4.13701E-01-5.71672E-14-2.26352E-14
 -1      3974 1.93145E+01 7.13753E-01 3.93658E-03-3.68516E-01-2.87887E-14-3.99631E-14
 -1      3975 1.94929E+01-1.67139E+00 3.91273E-02-3.05122E+00 7.43472E-14-1.74913E-13
 -1      3976 1.86995E+01-3.85977E-01 1.54227E-02-2.22401E+00 4.25862E-14-5.53196E-13
 -1      3977 1.85586E+01-1.01392E-01-5.32982E-03-1.99780E+00 1.18254E-13-5.55416E-13
 -1      3978 1.86699E+01 1.32428E-01 1.09867E-02-1.73037E+00 7.57901E-14-5.75074E-13
 -1      3979 1.86362E+01 3.01237E-01-6.08036E-03-1.54662E+00 5.73119E-14-4.22324E-13
 -1      3980 1.81141E+01 2.22709E-01 3.79766E-03-1.84498E+00 4.74231E-14-8.24559E-13
 -1      3981 1.87731E+01 4.37844E-01 7.14013E-03-1.34599E+00-4.84629E-14-3.77705E-13
 -1      3982 1.87980E+01 5.28284E-01-5.40825E-03-1.19949E+00-1.93490E-13-4.62602E-13
 -1      3983 1.83543E+01 5.31233E-01 3.56391E-03-1.38177E+00 3.43327E-14-6.94703E-13
 -1      3984 1.89358E+01 5.97665E-01 4.06542E-03-1.05189E+00-4.42099E-14-2.83786E-13
 -1      3985 1.89879E+01 6.37144E-01-5.02723E-03-9.36019E-01 6.55593E-14-1.14060E-13
 -1      3986 1.86198E+01 6.86002E-01 2.77665E-03-1.04360E+00 5.24927E-14-4.10422E-13
 -1      3987 1.91190E+01 6.61544E-01 2.64268E-03-8.23768E-01 2.27192E-14-1.69323E-13
 -1      3988 1.91812E+01 6.65350E-01-4.62997E-03-7.33002E-01-2.05844E-14-1.76085E-13
 -1      3989 1.88793E+01 7.48991E-01 4.12314E-03-7.93508E-01 3.47382E-14-1.10106E-13
 -1      3990 1.93011E+01 6.64216E-01 2.51618E-03-6.46152E-01-7.66004E-14-2.26175E-13
 -1      3991 1.93663E+01 6.48802E-01-1.73571E-03-5.73573E-01-1.55010E-13-4.27374E-13
 -1      3992 1.91135E+01 7.43803E-01 3.32560E-03-6.07959E-01-1.18048E-13-1.74764E-13
 -1      3993 2.00679E+01 1.53819E-01 6.08269E-04-3.05372E-01-9.94745E-15-8.91170E-14
 -1      3994 2.00915E+01 1.32345E-01-6.07740E-04-2.84492E-01 1.08064E-14-1.00976E-13
 -1      3995 2.01218E+01 1.42885E-01 1.02307E-04-2.49994E-01-1.78581E-14-1.76258E-13
 -1      3996 2.00448E+01 1.87386E-01 4.42974E-04-2.85584E-01 4.45838E-14-1.51802E-13
 -1      3997 1.48161E+01 6.44785E-01-2.04494E-02-1.92232E+00-3.73156E-14-4.28336E-13
 -1      3998 1.74085E+01 1.14257E+00-2.93282E-03-1.00472E+00 3.68623E-14-2.09917E-13
 -1      3999 1.76951E+01 1.13981E+00-1.17887E-02-8.95778E-01 4.06387E-14-1.64484E-13
 -1      4000 1.80347E+01 1.12074E+00-2.70169E-03-8.34091E-01-1.36718E-14-1.15365E-13
 -1      4001 1.82625E+01 1.08199E+00-8.06927E-03-7.56464E-01-3.58187E-14-6.92978E-14
 -1      4002 1.76729E+01 1.21607E+00 1.27243E-02-6.06410E-01 3.85048E-14-1.63735E-13
 -1      4003 1.56383E+01 8.43344E-01 3.91595E-03-1.65538E+00-3.58559E-14-3.18823E-13
 -1      4004 1.60710E+01 9.83585E-01-2.66312E-02-1.38542E+00 4.03740E-14-3.67345E-13
 -1      4005 1.47543E+01 1.09641E+00 4.95657E-02-1.12738E+00 8.62873E-15-4.75247E-13
 -1      4006 2.03421E+01 8.60921E-01 6.04257E-04 1.85152E-01 1.48785E-13-2.11541E-13
 -1      4007 1.90947E+01 8.79353E-01-4.21969E-03 5.36095E-01 8.90036E-14 2.55124E-13
 -1      4008 1.89039E+01 9.15045E-01-1.81577E-03-6.10971E-01 4.85614E-15 5.44602E-14
 -1      4009 1.90467E+01 8.47473E-01-4.25768E-03-5.59332E-01 5.42945E-14 7.03178E-14
 -1      4010 1.90388E+01 8.57865E-01 5.29017E-03-4.18842E-01 4.35966E-14 7.87195E-14
 -1      4011 1.47298E+01-8.59842E-03 6.88953E-02 3.04371E+00-2.04340E-13-4.52721E-13
 -1      4012 2.02514E+01 1.56369E-01-1.11991E-04-1.76097E-01 1.37169E-14-1.95803E-13
 -1      4013 2.02357E+01 1.44816E-01-1.60677E-04-1.87666E-01 6.38015E-14-2.27581E-13
 -1      4014 1.76859E+01-9.93361E-01 5.39404E-02-3.53002E+00-6.76520E-14-3.09964E-13
 -1      4015 2.03307E+01 1.14362E+00 2.31515E-04 1.67371E-01 1.43172E-13-2.35422E-13
 -1      4016 2.03734E+01 9.78459E-01 4.22673E-03 1.04124E-01 1.29434E-13-2.38807E-13
 -1      4017 1.79467E+01 1.13696E+00-9.90996E-03 8.38532E-01 1.85488E-13 1.70617E-13
 -1      4018 1.76834E+01 1.15236E+00-3.32745E-03 9.33738E-01 6.91145E-14 1.90556E-13
 -1      4019 1.63631E+01 1.04726E+00-3.05434E-02 1.27724E+00-1.22633E-13-1.67117E-13
 -1      4020 1.58540E+01 9.14450E-01-3.79822E-02 1.53860E+00-3.01862E-13-3.27197E-13
 -1      4021 1.85217E+01 1.03517E+00-2.32691E-03-7.10475E-01-6.52197E-14-1.12118E-14
 -1      4022 1.87027E+01 9.76823E-01-5.71935E-03-6.49116E-01-1.07474E-14 4.28151E-16
 -1      4023 1.86909E+01 9.98376E-01 7.09576E-03-4.72923E-01 3.69895E-14 1.45713E-14
 -1      4024 2.03411E+01 1.01399E+00-1.62588E-03 2.08594E-01 1.60868E-13-2.03959E-13
 -1      4025 2.03308E+01 1.20081E+00 1.70424E-04-6.84703E-02 4.49612E-14-2.96055E-13
 -1      4026 2.03434E+01 1.08340E+00-3.88127E-03-1.27606E-01 1.82849E-14-2.78405E-13
 -1      4027 2.03811E+01 9.15388E-01 3.91369E-03-8.14452E-02 1.19191E-14-2.71894E-13
 -1      4028 2.03812E+01 1.01655E+00 5.44764E-03-3.25763E-02 5.52791E-14-2.60467E-13
 -1      4029 1.72788E+01 1.14478E+00-1.51862E-02 1.00788E+00-4.60387E-14 1.41861E-14
 -1      4030 1.69472E+01 1.11838E+00-2.81084E-03 1.15158E+00-6.07875E-14-8.42100E-16
 -1      4031 1.72559E+01 1.25318E+00 1.66107E-02 6.67875E-01-5.02730E-14 5.98653E-14
 -1      4032 2.03904E+01 6.83161E-01-2.95795E-03-4.71436E-02 5.28736E-15-2.47709E-13
 -1      4033 2.03936E+01 5.09056E-01 2.08055E-03 8.21271E-03-2.71454E-14-1.96323E-13
 -1      4034 2.03946E+01 7.46125E-01-1.17991E-03-3.30665E-02 1.98877E-14-2.74210E-13
 -1      4035 1.66330E+01 1.06865E+00-2.90559E-03-1.25274E+00 1.10771E-13-3.35009E-13
 -1      4036 1.69927E+01 1.11926E+00-1.79860E-02-1.08483E+00 9.52884E-14-3.38307E-13
 -1      4037 1.69606E+01 1.25463E+00 1.80795E-02-6.98994E-01 1.86208E-13-2.62504E-13
 -1      4038 1.60593E+01 1.23192E+00 2.94179E-02-8.46220E-01 7.69937E-14-3.69564E-13
 -1      4039 1.37296E+01 5.29942E-01-1.22922E-02 1.99814E+00-1.31062E-13-3.59435E-13
 -1      4040 2.03804E+01 7.97410E-01-1.58683E-03 7.92557E-02 1.42455E-13-1.99631E-13
 -1      4041 2.03841E+01 8.38535E-01-1.39860E-03 5.67996E-02 1.18873E-13-2.47540E-13
 -1      4042 2.03838E+01 4.16711E-01-7.64632E-04 2.91097E-02-5.24429E-14-1.59991E-13
 -1      4043 2.03680E+01 3.31988E-01-2.73989E-04 6.48180E-02-8.88242E-14-1.55390E-13
 -1      4044 2.03735E+01 3.22187E-01 2.83963E-04 5.60103E-02-9.01330E-14-2.20767E-13
 -1      4045 2.03983E+01 4.66419E-01 1.02806E-04 1.85209E-02-2.62859E-14-2.18891E-13
 -1      4046 1.65934E+01 3.48033E-03 1.18706E-02 2.49955E+00 1.15430E-13 1.19782E-13
 -1      4047 1.56099E+01 3.25878E-01 4.45393E-02 2.39949E+00 1.05397E-13 3.61447E-14
 -1      4048 1.52156E+01 5.88974E-01-1.54548E-02 1.83095E+00 7.98112E-14 9.93563E-15
 -1      4049 2.01072E+01-2.34374E+00 8.47050E-03 3.20457E+00 8.26117E-14-1.18527E-14
 -1      4050 1.96711E+01-1.81886E+00 3.72888E-02 3.08799E+00 7.33580E-14-1.41507E-13
 -1      4051 1.84284E+01-9.92708E-01 1.75905E-03 2.85318E+00 8.98604E-14-7.02082E-14
 -1      4052 1.82524E+01-5.33429E-01 7.98611E-03 2.54475E+00 7.69142E-14-5.66326E-14
 -1      4053 2.03596E+01 7.71822E-01-1.77115E-03 1.10272E-01 1.30933E-13-1.94464E-13
 -1      4054 1.76079E+01-1.49040E-01 7.18635E-04 2.41423E+00 6.33374E-14 1.26750E-13
 -1      4055 2.03822E+01 6.64048E-01 2.02252E-03 6.40116E-02 1.27273E-13-1.99747E-13
 -1      4056 1.87591E+01-1.08419E+00 1.77039E-02-2.81520E+00-9.62789E-14-3.70958E-13
 -1      4057 2.04108E+01 7.09519E-01 3.62029E-03 2.46291E-02 1.10198E-13-2.46958E-13
 -1      4058 2.03882E+01 8.60505E-01-2.43980E-03 3.97589E-02 1.02959E-13-2.66581E-13
 -1      4059 2.03874E+01 8.73362E-01-3.05814E-03 8.36864E-03 8.44360E-14-2.58122E-13
 -1      4060 1.63380E+01 1.25386E+00 2.46667E-02 7.91664E-01-2.05197E-13-2.62864E-13
 -1      4061 1.47547E+01 1.14072E+00 5.65948E-03 2.18924E-02-2.89340E-13 4.31868E-14
 -1      4062 1.55456E+01 1.12644E+00 1.58933E-02-2.92809E-01-2.31565E-13-2.29901E-14
 -1      4063 1.84877E+01-6.49249E-01 1.16681E-03-2.55169E+00-1.39598E-13-4.79306E-13
 -1      4064 1.95352E+01 5.74976E-01 2.88643E-03-3.22434E-01-8.14377E-14-1.81470E-14
 -1      4065 1.96345E+01 5.11302E-01-3.65372E-04-3.88089E-01-5.30341E-14-1.77280E-14
 -1      4066 1.97050E+01 4.49908E-01-2.04194E-03-3.55955E-01-6.77473E-15-2.99092E-14
 -1      4067 1.78024E+01-2.17666E-01 4.00098E-03-2.42803E+00-4.54799E-14-4.76647E-13
 -1      4068 1.92683E+01 7.17931E-01-1.93788E-03-4.35176E-01 1.60969E-13-1.43043E-13
 -1      4069 1.94130E+01 6.55388E-01 4.73715E-04-4.79614E-01 4.76196E-14-1.62207E-13
 -1      4070 1.99147E+01 2.93152E-01 1.23629E-04-2.90024E-01 8.10783E-14-9.82843E-14
 -1      4071 1.99624E+01 2.50492E-01-1.13542E-03-2.68173E-01 8.00617E-14-8.92049E-14
 -1      4072 1.36818E+01 1.13479E+00 5.72865E-02 1.54096E-01 9.15218E-14-3.44091E-13
 -1      4073 1.41734E+01 1.06495E+00 4.38357E-04-5.68542E-01 1.01502E-13-5.45727E-13
 -1      4074 1.49764E+01 1.14675E+00-1.86034E-02-4.52960E-01 6.61864E-14-3.99640E-13
 -1      4075 1.44844E+01 1.03089E+00-2.83966E-03 7.36454E-01 1.32080E-13-2.69990E-13
 -1      4076 1.82473E+01 1.12347E+00 9.61980E-03-5.32684E-01-4.84839E-15-2.60789E-14
 -1      4077 1.89629E+01 9.47702E-01 8.00130E-03 3.61486E-01 5.05489E-14 1.85315E-13
 -1      4078 1.89009E+01 9.48438E-01-4.99441E-03 5.52181E-01-7.44023E-15 2.56815E-13
 -1      4079 2.02819E+01 2.51051E-01 1.19102E-03-1.08005E-01 1.12767E-13-2.04166E-13
 -1      4080 2.03264E+01 3.27250E-01-2.90354E-04-7.12477E-02 1.01829E-13-1.96956E-13
 -1      4081 2.02675E+01 2.06054E-01-3.63874E-04-1.40887E-01 1.00449E-13-2.23985E-13
 -1      4082 1.82513E+01 1.10892E+00-2.65973E-03 7.82741E-01 2.77834E-13 6.87825E-14
 -1      4083 1.79298E+01 1.20216E+00 1.28188E-02 5.75006E-01 2.19212E-13 2.86372E-13
 -1      4084 1.84531E+01 1.06726E+00-8.79500E-03 7.10190E-01 1.63881E-13 9.18348E-14
 -1      4085 2.02512E+01 1.70542E-01 7.56013E-04-1.64431E-01 7.30268E-14-2.32436E-13
 -1      4086 1.43243E+01 7.94255E-01 3.25742E-03 1.34356E+00-1.62620E-13-3.50549E-13
 -1      4087 2.03761E+01 5.30703E-01-9.12821E-04 4.30784E-03 1.28612E-13-1.91231E-13
 -1      4088 1.70734E+01 2.15234E-01-1.63171E-02 2.09409E+00 5.94385E-14 1.15645E-13
 -1      4089 2.02602E+01 1.57551E-01-3.27228E-04-1.60772E-01-1.57222E-15-1.78270E-13
 -1      4090 2.02900E+01 1.84474E-01 3.60076E-04-1.38044E-01 3.47870E-14-1.70805E-13
 -1      4091 1.91851E+01 7.81043E-01 1.24078E-03-3.12729E-01 2.63801E-13-1.47556E-13
 -1      4092 1.91271E+01 8.12272E-01-3.06258E-03-1.97521E-01 3.97838E-13-2.95591E-13
 -1      4093 1.91203E+01 7.77967E-01-1.69619E-03-4.13913E-01-2.89482E-17-2.01546E-13
 -1      4094 1.90588E+01 8.65092E-01 2.09009E-03-7.36611E-02 2.84614E-13-2.41901E-13
 -1      4095 1.90131E+01 8.95403E-01 3.15714E-03 3.62734E-02 5.71005E-14 4.28527E-14
 -1      4096 1.89364E+01 8.84486E-01-3.99827E-03-1.70862E-01 1.36132E-13-1.43425E-13
 -1      4097 2.01913E+01 1.39927E-01-9.41344E-05-1.93364E-01-4.19856E-14-1.53100E-13
 -1      4098 2.02246E+01 1.43684E-01 3.56823E-05-1.74801E-01-4.19883E-14-1.71598E-13
 -1      4099 2.02596E+01 1.68336E-01 2.80230E-04-1.38617E-01-1.89089E-14-1.49510E-13
 -1      4100 1.63228E+01 2.45761E-01 2.28831E-02-2.31537E+00-1.00669E-13 3.55398E-13
 -1      4101 1.72037E+01-1.10982E-02 9.64434E-04-2.35270E+00-9.01299E-14-7.24594E-14
 -1      4102 1.73962E+01 1.67425E-01-2.42668E-02-2.07023E+00-2.92147E-14-2.59688E-13
 -1      4103 1.62923E+01 5.90541E-01-1.80472E-02-1.77404E+00-1.48168E-13 2.19891E-13
 -1      4104 1.97883E+01 3.93465E-01-7.03242E-05-3.34360E-01 3.87137E-14-5.65493E-14
 -1      4105 1.98456E+01 3.40392E-01-1.56856E-03-3.07782E-01 6.92538E-14-8.86131E-14
 -1      4106 1.97140E+01 4.48166E-01 2.05793E-03-2.81533E-01-9.09003E-15-2.59148E-14
 -1      4107 1.98611E+01 3.38413E-01 1.40679E-03-2.46286E-01 8.32278E-14-3.00566E-14
 -1      4108 1.87376E+01 1.00592E+00-2.44772E-03 6.05521E-01 5.04549E-14 1.50934E-13
 -1      4109 2.03511E+01 2.49276E-01-1.52583E-04 5.43187E-02-8.07461E-14-1.71029E-13
 -1      4110 2.03200E+01 2.07615E-01-3.45603E-04 6.94108E-02-6.48051E-14-1.51369E-13
 -1      4111 2.02836E+01 1.80555E-01-1.91224E-04 7.52410E-02-2.45569E-14-1.35746E-13
 -1      4112 2.02446E+01 1.66636E-01-2.58240E-04 8.77876E-02 2.00284E-14-1.05067E-13
 -1      4113 2.03084E+01 2.05876E-01 4.76851E-04 4.12072E-02-1.21384E-14-1.29597E-13
 -1      4114 2.01991E+01 1.64238E-01-3.81536E-04 9.34232E-02-1.15993E-14-1.23695E-13
 -1      4115 2.01539E+01 1.72003E-01-6.43469E-05 1.05191E-01-2.68252E-14-1.29411E-13
 -1      4116 2.02262E+01 1.76356E-01 5.07858E-04 5.25229E-02-1.05636E-14-1.33775E-13
 -1      4117 2.01001E+01 1.88324E-01-6.11681E-04 1.11731E-01-5.02169E-14-1.43303E-13
 -1      4118 2.00492E+01 2.12744E-01 3.58526E-05 1.24616E-01-6.04978E-14-1.50337E-13
 -1      4119 2.01286E+01 1.91281E-01 8.23330E-04 6.44836E-02-4.73209E-14-1.51591E-13
 -1      4120 1.99861E+01 2.43761E-01-1.09604E-03 1.33553E-01-1.74556E-14-1.61994E-13
 -1      4121 1.99293E+01 2.81558E-01 2.42981E-04 1.49805E-01-2.18827E-15-1.40744E-13
 -1      4122 2.00143E+01 2.42788E-01 1.30562E-03 7.91978E-02-5.35532E-14-1.56641E-13
 -1      4123 1.98561E+01 3.22502E-01-1.61168E-03 1.62460E-01-1.78278E-14-1.48255E-13
 -1      4124 1.97917E+01 3.69697E-01 2.53471E-04 1.83395E-01-4.45399E-14-2.44045E-13
 -1      4125 1.98841E+01 3.20627E-01 2.18450E-03 9.92866E-02-2.97999E-14-2.01489E-13
 -1      4126 1.97062E+01 4.17794E-01-2.16766E-03 2.01886E-01-2.75297E-14-1.78385E-13
 -1      4127 1.96328E+01 4.70733E-01 3.22403E-04 2.29627E-01-6.75523E-15-1.57155E-13
 -1      4128 1.97328E+01 4.18830E-01 3.19775E-03 1.27439E-01 1.53170E-14-1.73915E-13
 -1      4129 1.95322E+01 5.21898E-01-2.87618E-03 2.56215E-01-1.36033E-15-1.29050E-13
 -1      4130 1.94485E+01 5.76455E-01 4.97491E-04 2.93328E-01-2.73133E-14-8.57956E-14
 -1      4131 1.95560E+01 5.30102E-01 4.39253E-03 1.67701E-01 8.58943E-15-7.38787E-14
 -1      4132 1.93292E+01 6.25782E-01-3.78377E-03 3.31096E-01-6.47548E-14-3.91834E-14
 -1      4133 1.92344E+01 6.76780E-01 8.59040E-04 3.80955E-01-5.71720E-14-1.96294E-14
 -1      4134 1.93478E+01 6.46495E-01 5.80892E-03 2.25210E-01-2.62133E-15-4.92949E-14
 -1      4135 1.90922E+01 7.17909E-01-4.98036E-03 4.34212E-01-4.57393E-14-4.30173E-14
 -1      4136 1.89863E+01 7.58633E-01 1.52279E-03 5.01508E-01 2.30586E-14-4.64959E-14
 -1      4137 1.91015E+01 7.58288E-01 7.52470E-03 3.07187E-01-1.27324E-14-3.81639E-14
 -1      4138 1.88161E+01 7.83161E-01-6.61849E-03 5.76413E-01 2.84546E-14-4.98508E-14
 -1      4139 1.87011E+01 8.04844E-01 2.67152E-03 6.67878E-01 1.91769E-14-1.00398E-13
 -1      4140 1.88093E+01 8.53137E-01 9.66830E-03 4.23956E-01-4.42495E-15-1.19823E-13
 -1      4141 1.84963E+01 8.01471E-01-8.96573E-03 7.73459E-01 4.99349E-14-8.28713E-14
 -1      4142 1.83766E+01 7.92394E-01 4.35916E-03 8.98914E-01 6.48325E-14-6.55706E-14
 -1      4143 1.84618E+01 9.15156E-01 1.23823E-02 5.90560E-01 4.89164E-14-1.04180E-13
 -1      4144 1.81291E+01 7.47503E-01-1.20903E-02 1.04751E+00 1.36408E-13-6.28627E-14
 -1      4145 1.80150E+01 6.91977E-01 7.42510E-03 1.22197E+00 1.69263E-13-1.04656E-13
 -1      4146 1.80480E+01 9.21900E-01 1.55097E-02 8.28756E-01 1.35976E-13-6.38682E-14
 -1      4147 1.77080E+01 5.84321E-01-1.83197E-02 1.43794E+00 1.43472E-13-2.75223E-14
 -1      4148 1.76401E+01 4.61368E-01 1.25849E-02 1.68394E+00 1.12321E-13 3.95977E-14
 -1      4149 1.75391E+01 8.43944E-01 1.49678E-02 1.16332E+00 2.18935E-13-4.02534E-14
 -1      4150 1.94231E+01 6.64441E-01 6.03645E-04-4.09162E-01 2.19953E-13 1.08242E-13
 -1      4151 1.85030E+01 1.08794E+00 9.20489E-03 4.43530E-01 3.36147E-14 2.97341E-13
 -1      4152 1.77081E+01 3.83449E-01 6.53075E-03-1.75664E+00-2.25586E-14-4.46391E-13
 -1      4153 1.77979E+01 5.30072E-01-1.83155E-02-1.50002E+00 8.85306E-14-5.48072E-13
 -1      4154 1.72088E+01 5.94711E-01 2.12015E-02-1.66731E+00-5.20341E-14 5.76752E-15
 -1      4155 1.99847E+01 2.50391E-01 1.00835E-03-2.16345E-01 5.50978E-14-4.12610E-14
 -1      4156 2.00208E+01 2.14456E-01 2.13600E-04-2.53553E-01 6.63350E-14-9.44803E-14
 -1      4157 2.00618E+01 1.83937E-01-8.66374E-04-2.35061E-01 4.90899E-14-7.47754E-14
 -1      4158 1.80685E+01 6.49477E-01 4.07858E-03-1.28777E+00 1.49697E-13-6.02939E-13
 -1      4159 1.81901E+01 7.26014E-01-1.01228E-02-1.09889E+00 8.36534E-14-4.89343E-13
 -1      4160 1.77323E+01 7.96510E-01 1.26239E-02-1.18706E+00 2.41235E-14-2.88475E-13
 -1      4161 1.84115E+01 7.72666E-01 5.35584E-04-9.54776E-01 1.13105E-13-4.79401E-13
 -1      4162 1.85328E+01 8.04214E-01-9.68813E-03-8.19940E-01 1.47177E-13-4.61452E-13
 -1      4163 1.81741E+01 8.70504E-01 1.31856E-03-8.62132E-01 1.80522E-13-3.71460E-13
 -1      4164 1.87249E+01 8.15156E-01 6.15510E-04-7.07590E-01 1.12407E-13-4.21371E-13
 -1      4165 1.88407E+01 8.08731E-01-7.24155E-03-6.07260E-01-1.24817E-14-2.76773E-13
 -1      4166 1.85590E+01 9.14612E-01 1.07644E-02-6.15398E-01 8.50966E-14-6.46942E-13
 -1      4167 1.90035E+01 8.03668E-01 4.97593E-04-4.83462E-01-8.03754E-14-2.18724E-13
 -1      4168 1.89866E+01 9.02530E-01-2.24993E-03 1.64270E-01 1.93619E-14 2.13182E-13
 -1      4169 1.87899E+01 9.66742E-01-4.98482E-03 1.50577E-01 1.20039E-14 2.35269E-13
 -1      4170 1.72835E+01 1.22973E+00-9.17212E-03 2.97101E-01-7.79613E-14 1.91697E-13
 -1      4171 1.68792E+01 1.23630E+00-1.09030E-02 3.24423E-01-2.45106E-13 6.40966E-14
 -1      4172 1.49494E+01 9.41772E-01 6.83889E-03 1.20994E+00-2.32104E-13-3.24198E-13
 -1      4173 1.88917E+01 8.73769E-01 7.11328E-03-3.99280E-01-9.37981E-15-3.05023E-13
 -1      4174 1.73683E+01 1.21481E+00-7.38874E-03-3.13576E-01 1.41105E-13-1.94827E-13
 -1      4175 1.77034E+01 1.18221E+00-7.24339E-03-2.96429E-01 7.44666E-14-7.42987E-14
 -1      4176 1.59273E+01 7.37684E-01 9.20976E-03 1.56011E+00 1.44608E-13 6.94236E-15
 -1      4177 1.52069E+01 9.99221E-01 3.53843E-02 1.21671E+00 1.65505E-13-1.26262E-13
 -1      4178 1.80056E+01 1.13588E+00-7.65141E-03-3.11578E-01 2.07265E-14-6.80201E-14
 -1      4179 1.82668E+01 1.08448E+00-5.27708E-03-2.96136E-01 6.57803E-14 1.26694E-14
 -1      4180 1.78275E+01 1.18614E+00 1.71215E-02-3.45437E-02 8.52969E-14-9.26099E-14
 -1      4181 2.03645E+01 3.95600E-01 3.49106E-04-3.51941E-02 1.10754E-13-1.99618E-13
 -1      4182 2.03934E+01 5.28236E-01-5.78861E-04-2.64667E-03 1.21636E-13-2.21184E-13
 -1      4183 1.88886E+01 8.92044E-01-3.81353E-03-2.86328E-01 3.94000E-14 7.66363E-15
 -1      4184 1.90475E+01 8.22614E-01-2.95013E-03-2.69051E-01 2.36446E-14-1.95043E-14
 -1      4185 1.85009E+01 1.02417E+00-5.40193E-03-3.02642E-01 4.91384E-14-2.68354E-14
 -1      4186 1.87033E+01 9.60488E-01-3.85322E-03-2.86609E-01 4.76069E-14 2.61426E-14
 -1      4187 1.83530E+01 1.07869E+00 1.24707E-02-9.24949E-02 7.42268E-14 1.70649E-14
 -1      4188 1.67314E+01 5.77621E-01 9.33858E-03 1.75184E+00 1.21668E-13 6.14808E-14
 -1      4189 2.03962E+01 8.17134E-01-9.53375E-04-3.62058E-03 6.51840E-14-2.52214E-13
 -1      4190 2.03959E+01 7.76036E-01-3.66916E-03-2.76783E-02 4.67783E-14-2.55205E-13
 -1      4191 2.04189E+01 5.90649E-01 3.55535E-03-7.11493E-04 3.01831E-14-2.38754E-13
 -1      4192 2.03239E+01 2.28111E-01 3.41722E-04-1.04486E-01 3.51301E-14-1.73525E-13
 -1      4193 2.03174E+01 2.24830E-01-6.72515E-04-1.18567E-01 4.98661E-14-1.99414E-13
 -1      4194 1.98097E+01 3.69432E-01-6.92669E-04-1.90774E-01 8.66229E-14-1.65270E-14
 -1      4195 1.98780E+01 3.19323E-01-1.00659E-03-1.76349E-01 9.83862E-14-1.18325E-14
 -1      4196 1.91964E+01 7.51792E-01-2.65502E-03-2.64351E-01-2.38093E-14-6.94203E-14
 -1      4197 1.93226E+01 6.81905E-01-2.32155E-03-2.46555E-01-6.05376E-14-8.72271E-14
 -1      4198 1.90952E+01 8.09436E-01 7.15077E-03-1.38097E-01-3.07468E-14-1.23742E-13
 -1      4199 2.02975E+01 2.21607E-01-2.71275E-04-1.30528E-01 7.99939E-14-2.35385E-13
 -1      4200 2.04138E+01 5.23779E-01 3.80215E-05 1.79500E-03 1.97578E-14-2.08380E-13
 -1      4201 2.04076E+01 4.88385E-01-1.66387E-03 6.42639E-03-3.48654E-15-2.11684E-13
 -1      4202 2.04028E+01 4.09836E-01 1.13932E-03 2.61144E-02-3.62823E-14-1.90887E-13
 -1      4203 2.04054E+01 5.47622E-01-1.53433E-03 2.51731E-03 1.13703E-13-2.15049E-13
 -1      4204 2.04106E+01 5.75762E-01-3.29314E-04 7.52939E-05 9.56756E-14-2.10105E-13
 -1      4205 2.03990E+01 4.21981E-01 2.39808E-03-2.87664E-02 1.02929E-13-2.17918E-13
 -1      4206 1.51724E+01 1.09522E+00-1.39231E-02 5.98723E-01 2.06304E-13-2.48795E-13
 -1      4207 1.94437E+01 6.13206E-01-1.79341E-03-2.39492E-01-5.32463E-14-8.95813E-14
 -1      4208 1.95448E+01 5.46942E-01-1.83096E-03-2.22192E-01-3.70030E-14-7.77632E-14
 -1      4209 1.93611E+01 6.68196E-01 5.37266E-03-1.39845E-01-2.36843E-14-1.18745E-13
 -1      4210 1.99480E+01 2.75035E-01-3.97962E-04-1.69529E-01 3.97978E-14-6.77343E-14
 -1      4211 2.00052E+01 2.36228E-01-9.82369E-04-1.55915E-01 8.96012E-16-1.01542E-13
 -1      4212 1.99072E+01 3.10496E-01 1.60486E-03-1.15404E-01 2.59850E-14-9.98597E-14
 -1      4213 1.86844E+01 1.01486E+00 1.21146E-02-3.21850E-02 1.59346E-14 9.60247E-14
 -1      4214 1.85814E+01 1.02866E+00-7.36557E-03 1.72987E-01 4.04680E-14 2.73228E-13
 -1      4215 1.53456E+01 1.24439E+00 2.82514E-02 6.14686E-02 1.91703E-13-2.83978E-13
 -1      4216 1.56517E+01 1.20249E+00-6.44897E-03-4.53830E-01 1.53057E-13-3.42399E-13
 -1      4217 1.61709E+01 1.23294E+00-1.31314E-02-3.92189E-01 2.36622E-13-2.63665E-13
 -1      4218 1.76503E+01 1.20655E+00-5.80940E-03 3.20095E-01 1.52592E-13 3.20012E-13
 -1      4219 1.74394E+01 1.23827E+00 1.63092E-02-2.90330E-04-4.85773E-14 3.46067E-13
 -1      4220 1.79451E+01 1.16645E+00-8.39265E-03 2.93995E-01 1.75482E-13 4.15817E-13
 -1      4221 1.59412E+01 1.24583E+00-2.78422E-03 2.76584E-01-3.23824E-13-5.42517E-14
 -1      4222 1.60031E+01 1.07676E+00 9.96818E-03-8.46928E-01-2.23727E-13 1.52566E-13
 -1      4223 2.03500E+01 3.26684E-01-1.01042E-03-7.36895E-02 9.86090E-14-2.04299E-13
 -1      4224 1.49515E+01 1.24252E+00 7.13972E-02 5.26212E-01-2.66886E-13-3.70486E-13
 -1      4225 2.04190E+01 6.73337E-01 2.15630E-03 6.47187E-03 7.25807E-14-2.33287E-13
 -1      4226 1.64940E+01 8.76612E-01-1.75423E-02 1.19003E+00 2.28142E-13-5.95706E-14
 -1      4227 1.87694E+01 9.13751E-01-3.35042E-03-2.79582E-01-5.33064E-14-2.73463E-13
 -1      4228 2.02529E+01 1.67093E-01-4.52418E-04-1.12707E-01-7.12261E-14-7.27640E-14
 -1      4229 2.02892E+01 1.83820E-01-2.09205E-04-9.80762E-02-9.05382E-15-1.10472E-13
 -1      4230 1.66303E+01 1.23274E+00-8.88542E-03-3.62220E-01 1.89614E-13-2.44030E-13
 -1      4231 1.70149E+01 1.22602E+00-1.46820E-02-3.37795E-01 1.65992E-13-2.39079E-13
 -1      4232 1.71824E+01 1.26910E+00 2.33266E-02 1.54061E-02 1.82254E-13-2.18297E-13
 -1      4233 1.64024E+01 1.26546E+00 1.37527E-02-1.52166E-02 2.23504E-13-1.80760E-13
 -1      4234 1.65281E+01 1.23657E+00-8.29888E-03 2.48764E-01-2.90129E-13 3.19098E-14
 -1      4235 1.65359E+01 1.10818E+00-1.74517E-02-5.94847E-01-3.68728E-13 2.30772E-13
 -1      4236 1.63554E+01 9.69252E-01 2.27150E-02-1.14335E+00-2.25177E-13 1.24234E-13
 -1      4237 1.68065E+01 7.43280E-01-1.35160E-03-1.40556E+00-2.08580E-13 1.61890E-13
 -1      4238 1.96445E+01 4.83796E-01-1.15455E-03-2.14358E-01-4.59041E-14-1.75502E-14
 -1      4239 1.97267E+01 4.24309E-01-1.40952E-03-1.98337E-01 2.61039E-14 1.60699E-14
 -1      4240 1.97573E+01 4.12723E-01 2.71835E-03-1.25644E-01 5.32040E-14 1.09179E-14
 -1      4241 1.95781E+01 5.33789E-01 3.92536E-03-1.34529E-01-2.00249E-15-4.81549E-14
 -1      4242 2.03372E+01 2.70651E-01 8.35848E-04-9.33530E-02 7.31078E-14-2.16984E-13
 -1      4243 1.87659E+01 9.49512E-01 9.41589E-03-1.24413E-01 1.99743E-14-1.13765E-13
 -1      4244 2.03175E+01 2.13931E-01 5.57403E-04-6.43222E-02-3.94503E-14-1.17586E-13
 -1      4245 2.03239E+01 2.14409E-01-4.95645E-04-8.95455E-02-8.42825E-16-1.36645E-13
 -1      4246 2.03535E+01 2.59595E-01 2.70742E-04-6.90017E-02 4.82870E-15-1.70744E-13
 -1      4247 1.83095E+01 1.10172E+00-3.08417E-03 2.40648E-01 1.11141E-13 3.24033E-13
 -1      4248 2.03877E+01 3.45771E-01-9.07071E-04 3.11648E-02-6.74248E-14-1.80258E-13
 -1      4249 2.03706E+01 2.90548E-01 8.36538E-05 4.77425E-02-9.02508E-14-1.68042E-13
 -1      4250 2.03638E+01 2.75640E-01 4.39372E-04 2.83635E-02-6.40536E-14-1.44384E-13
 -1      4251 2.03965E+01 3.68767E-01-7.97577E-04 1.55916E-02-4.24591E-14-1.52097E-13
 -1      4252 2.01119E+01 1.61790E-01 2.08912E-04-2.22537E-01 4.55433E-17-1.23864E-13
 -1      4253 2.01487E+01 1.46553E-01-2.62305E-04-2.05012E-01-2.66082E-14-1.22648E-13
 -1      4254 2.01812E+01 1.58715E-01 1.69190E-04-1.65980E-01-6.68792E-14-8.87884E-14
 -1      4255 2.00895E+01 1.89197E-01 4.87915E-04-1.90689E-01-5.58104E-15-8.60299E-14
 -1      4256 1.67215E+01 1.27771E+00 2.28828E-02-1.52596E-01-3.81555E-13 1.93047E-13
 -1      4257 2.02497E+01 1.76408E-01-9.72966E-05 9.79148E-03-2.55620E-14-1.39731E-13
 -1      4258 2.02042E+01 1.73586E-01-2.11908E-04 1.55257E-02-5.40058E-14-1.64565E-13
 -1      4259 2.01525E+01 1.81843E-01-6.66167E-04 1.39503E-02-5.03859E-14-1.52364E-13
 -1      4260 2.00991E+01 1.99356E-01-4.79707E-04 2.12666E-02-3.60337E-14-1.93310E-13
 -1      4261 2.01782E+01 1.83380E-01 5.44911E-04-2.95036E-02-3.94329E-14-2.05734E-13
 -1      4262 2.00218E+01 2.35743E-01-5.53764E-04-1.72206E-02-3.69376E-14-1.73722E-13
 -1      4263 1.99583E+01 2.70752E-01-5.74405E-04-1.05626E-02-3.55181E-14-1.66270E-13
 -1      4264 1.98866E+01 3.12643E-01-1.69153E-03-1.36288E-02-5.30256E-16-1.39349E-13
 -1      4265 1.98138E+01 3.60144E-01-1.09264E-03-4.61264E-03 1.60522E-14-1.26834E-13
 -1      4266 1.97289E+01 4.12044E-01-2.55348E-03-6.26320E-03 4.32803E-15-9.47023E-14
 -1      4267 1.96443E+01 4.68536E-01-1.64856E-03 6.79847E-03 5.14244E-14-6.12255E-14
 -1      4268 1.95423E+01 5.27533E-01-3.56917E-03 7.54788E-03 1.73740E-14-8.49206E-14
 -1      4269 1.94431E+01 5.89723E-01-2.25604E-03 2.65519E-02 5.11616E-15-4.27738E-14
 -1      4270 1.93188E+01 6.52360E-01-4.84182E-03 3.14494E-02 5.11616E-15-1.07490E-13
 -1      4271 1.92015E+01 7.16422E-01-2.93755E-03 5.91381E-02-2.81122E-14-1.06069E-13
 -1      4272 1.90483E+01 7.78451E-01-6.47749E-03 7.07076E-02-3.71242E-14-8.73927E-14
 -1      4273 1.89089E+01 8.39620E-01-3.73395E-03 1.10987E-01-2.85673E-14-9.75889E-14
 -1      4274 1.87181E+01 8.95630E-01-8.66191E-03 1.32680E-01 3.47501E-14-1.00826E-13
 -1      4275 1.85515E+01 9.47927E-01-4.72536E-03 1.91151E-01 6.59579E-14-9.62408E-14
 -1      4276 1.83104E+01 9.91077E-01-1.17012E-02 2.27565E-01 2.88585E-14-6.26646E-14
 -1      4277 1.81104E+01 1.02708E+00-6.05163E-03 3.12454E-01 1.03586E-13-5.19636E-14
 -1      4278 1.78001E+01 1.05029E+00-1.56206E-02 3.70228E-01 1.56539E-13-8.71219E-14
 -1      4279 1.75543E+01 1.05640E+00-9.06140E-03 4.95759E-01 1.72239E-13-1.08190E-13
 -1      4280 1.71989E+01 1.06776E+00-1.69466E-02 5.42843E-01 1.97815E-13-1.33177E-13
 -1      4281 1.69191E+01 1.05138E+00 4.13042E-04 7.04165E-01 2.40723E-13-1.29035E-13
 -1      4282 1.70793E+01 8.44716E-01-2.07038E-02-1.15274E+00-2.38133E-13-2.44188E-14
 -1      4283 1.85555E+01 9.62388E-01-7.79937E-03-2.84943E-01-1.20331E-14-2.97730E-13
 -1      4284 1.74603E+01 9.06457E-01-3.43978E-03-9.73527E-01-1.15271E-13-1.05422E-13
 -1      4285 1.77306E+01 9.60407E-01-3.22725E-03-7.93846E-01-9.09646E-16-3.02236E-13
 -1      4286 1.72135E+01 1.09250E+00 1.94200E-02-7.14110E-01-2.18493E-13 3.75199E-14
 -1      4287 1.79516E+01 9.94832E-01-3.38219E-03-6.49336E-01 1.13331E-13-3.61549E-13
 -1      4288 1.83851E+01 9.96418E-01-8.69162E-04-3.59879E-01 1.61915E-13-2.81138E-13
 -1      4289 1.58490E+01 1.14406E+00 4.18148E-04 5.02208E-01 2.54235E-13-1.60757E-13
 -1      4290 2.03676E+01 3.31303E-01-4.27273E-04-6.43831E-02 7.85749E-14-2.13468E-13
 -1      4291 2.02270E+01 1.67270E-01 1.38755E-04-9.04773E-02-7.76284E-14-1.07152E-13
 -1      4292 2.02558E+01 1.77753E-01-1.20145E-04-5.17637E-02-6.60618E-14-1.12473E-13
 -1      4293 1.69021E+01 1.14677E+00-4.02798E-04-4.50285E-01-3.25986E-13 2.06075E-13
 -1      4294 1.80157E+01 1.09559E+00 2.88116E-03-2.76578E-01 8.46642E-14-1.57306E-14
 -1      4295 2.04161E+01 5.24621E-01-6.37119E-04-6.92498E-03 6.93364E-14-1.97830E-13
 -1      4296 2.03824E+01 3.49855E-01-7.50694E-04-4.84046E-02 6.42104E-14-2.21510E-13
 -1      4297 2.00520E+01 2.27178E-01 8.69410E-04-6.80907E-02-4.12382E-14-2.02055E-13
 -1      4298 1.72508E+01 1.14947E+00-1.23144E-02-3.33385E-01-1.59182E-13 1.12381E-13
 -1      4299 2.04127E+01 4.41384E-01 1.86509E-03-2.37670E-03 2.59455E-14-1.72834E-13
 -1      4300 2.02951E+01 1.91994E-01-5.69662E-04 1.64196E-02 2.48357E-15-7.78346E-14
 -1      4301 2.02743E+01 1.89726E-01 3.18235E-04-2.03035E-02-5.09303E-14-1.24577E-13
 -1      4302 2.03014E+01 1.95576E-01 1.93735E-04-4.33822E-02-6.53759E-14-1.13415E-13
 -1      4303 2.03325E+01 2.21839E-01 4.88108E-05 1.06422E-02-4.39211E-14-9.48525E-14
 -1      4304 2.01837E+01 1.69382E-01-3.83065E-04-1.01687E-01-6.66163E-14-1.31837E-13
 -1      4305 2.03356E+01 2.25969E-01-6.32555E-04-3.46689E-02-1.67912E-14-1.00327E-13
 -1      4306 1.76471E+01 1.14199E+00 1.11634E-03-2.56461E-01 3.14581E-14 9.11256E-14
 -1      4307 1.62793E+01 1.17764E+00 1.21809E-03 4.86481E-01 2.49532E-13-1.51285E-13
 -1      4308 1.81297E+01 1.13294E+00 3.20282E-03 1.63668E-02 1.37902E-13 2.57586E-13
 -1      4309 2.03589E+01 2.58454E-01-4.62586E-04 1.07152E-02-4.98680E-14-1.19651E-13
 -1      4310 2.03457E+01 2.46690E-01 2.60969E-04-1.29999E-02-2.81204E-14-6.79307E-14
 -1      4311 2.03638E+01 2.66377E-01 9.50616E-04-3.39011E-02-1.39647E-14-1.11433E-13
 -1      4312 2.03810E+01 3.01960E-01 1.55176E-03 4.92551E-03-4.29293E-14-1.13312E-13
 -1      4313 2.00826E+01 2.02249E-01-1.61479E-04-1.15284E-01-1.09452E-14-1.52546E-13
 -1      4314 2.03809E+01 3.34346E-01-2.99100E-04-3.67085E-02 2.52927E-14-1.61381E-13
 -1      4315 2.01327E+01 1.80526E-01-2.08818E-04-1.04078E-01-5.04131E-14-1.50937E-13
 -1      4316 2.03920E+01 3.53476E-01-9.66315E-04-1.81850E-02 2.17391E-14-1.33407E-13
 -1      4317 2.03924E+01 3.51281E-01-1.06887E-03 9.26280E-04-3.33897E-14-1.13920E-13
 -3
    1PSTEP                         3           1           1          
  100CL  101 1.000000000        4317                     0    1           1
 -4  TOSTRAIN    6    1
 -5  EXX         1    4    1    1
 -5  EYY         1    4    2    2
 -5  EZZ         1    4    3    3
 -5  EXY         1    4    1    2
 -5  EYZ         1    4    2    3
 -5  EZX         1    4    3    1
 -1         1 2.78496E-05 2.66915E-05-2.45602E-05-5.05163E-05-8.17471E-18 7.07442E-18
 -1         2 3.67988E-05-1.11474E-04 1.99867E-05-9.35716E-07 2.10537E-18-5.94776E-20
 -1         3 9.52059E-05-2.86042E-05-2.84923E-05-2.24021E-08-2.72280E-18-3.40529E-18
 -1         4 9.52083E-05-2.86008E-05-2.84993E-05 2.02609E-08 1.94607E-18 2.80068E-19
 -1         5 1.43221E-04-2.14611E-05-4.24892E-05 3.85105E-05-1.93971E-19 1.44821E-17
 -1         6 1.45287E-04 2.57289E-10-4.41477E-05-5.34962E-05-9.74935E-19 1.10440E-17
 -1         7 9.05328E-05-5.09275E-07-3.90377E-05-2.92504E-05-1.35314E-19 3.15917E-19
 -1         8 8.50816E-05 8.65920E-08-3.63206E-05-2.02809E-05-1.25176E-19-2.54841E-18
 -1         9 8.28012E-05 7.56761E-08-3.53445E-05-1.56517E-05-1.00863E-19-3.91740E-18
 -1        10 8.17817E-05 3.91094E-08-3.48853E-05-1.20888E-05-4.44428E-20-4.47394E-18
 -1        11 8.12826E-05 1.86858E-08-3.46650E-05-9.02231E-06-3.40104E-20-4.60985E-18
 -1        12 8.10277E-05 8.49373E-09-3.45565E-05-6.28981E-06 5.88953E-21-4.57863E-18
 -1        13 8.08956E-05 3.93564E-09-3.45030E-05-3.68857E-06-6.46276E-21-4.37008E-18
 -1        14 8.08410E-05 2.09204E-09-3.44814E-05-1.18481E-06 4.44616E-20-4.24308E-18
 -1        15 8.08432E-05 2.07687E-09-3.44822E-05 1.28944E-06 6.12521E-20-4.02401E-18
 -1        16 8.09022E-05 3.85964E-09-3.45053E-05 3.79844E-06 6.85526E-20-3.86179E-18
 -1        17 8.10395E-05 7.74262E-09-3.45604E-05 6.41187E-06 9.43284E-20-3.53167E-18
 -1        18 8.13002E-05 1.75356E-08-3.46701E-05 9.16382E-06 1.08685E-19-3.07337E-18
 -1        19 8.18070E-05 3.76575E-08-3.48935E-05 1.22687E-05 1.51579E-19-2.33967E-18
 -1        20 8.28210E-05 8.11878E-08-3.53567E-05 1.58827E-05 1.74436E-19-1.01289E-18
 -1        21 8.50462E-05 1.69580E-07-3.63589E-05 2.04920E-05 2.02547E-19 1.27168E-18
 -1        22 9.15699E-05-9.81000E-08-3.87092E-05 2.79983E-05 1.49290E-20 5.53157E-18
 -1        23 1.12850E-04-3.80846E-05-3.53597E-05-4.40367E-06-6.94144E-19 7.75522E-18
 -1        24 9.26818E-05-2.76603E-05-2.89621E-05 3.90074E-07-1.81685E-19 4.75694E-18
 -1        25 8.89910E-05-2.68137E-05-2.68909E-05 3.74802E-07-4.01348E-21 2.09455E-18
 -1        26 8.78842E-05-2.64492E-05-2.63524E-05 2.02886E-07-8.61327E-20 1.37828E-19
 -1        27 8.79112E-05-2.64279E-05-2.63447E-05 1.38363E-07-8.66393E-20-9.21347E-19
 -1        28 8.84531E-05-2.65670E-05-2.65168E-05 9.90929E-08-4.91738E-20-1.60445E-18
 -1        29 8.92294E-05-2.67864E-05-2.67561E-05 7.32030E-08 1.60532E-20-2.25846E-18
 -1        30 9.00965E-05-2.70392E-05-2.70193E-05 5.48018E-08-4.32349E-20-3.03652E-18
 -1        31 9.09799E-05-2.73003E-05-2.72862E-05 4.11410E-08-1.53404E-19-3.70044E-18
 -1        32 9.18464E-05-2.75581E-05-2.75479E-05 3.09003E-08-1.68566E-19-4.84664E-18
 -1        33 9.26899E-05-2.78102E-05-2.78030E-05 2.34328E-08 2.13739E-19-5.18890E-18
 -1        34 9.35241E-05-2.80603E-05-2.80555E-05 1.84404E-08-7.29815E-20-4.73177E-18
 -1        35 9.43767E-05-2.83164E-05-2.83138E-05 1.58370E-08-1.70191E-19-5.39217E-18
 -1        36 9.52860E-05-2.85898E-05-2.85895E-05 1.56842E-08-5.87822E-20-5.50532E-18
 -1        37 9.62970E-05-2.88937E-05-2.88958E-05 1.81491E-08-1.66006E-19-5.94023E-18
 -1        38 9.74574E-05-2.92422E-05-2.92469E-05 2.34453E-08-1.73742E-20-5.94515E-18
 -1        39 9.88114E-05-2.96482E-05-2.96558E-05 3.17228E-08-4.78920E-20-5.32883E-18
 -1        40 1.00390E-04-3.01209E-05-3.01310E-05 4.28579E-08 8.28324E-20-5.39278E-18
 -1        41 1.02199E-04-3.06611E-05-3.06727E-05 5.60763E-08-8.09086E-21-5.88608E-18
 -1        42 1.04192E-04-3.12553E-05-3.12656E-05 6.93413E-08-1.74349E-19-6.79984E-18
 -1        43 1.06250E-04-3.18676E-05-3.18715E-05 7.84898E-08 3.31567E-20-5.20815E-18
 -1        44 1.08148E-04-3.24306E-05-3.24199E-05 7.63026E-08-3.29979E-20-2.23428E-18
 -1        45 1.09527E-04-3.28388E-05-3.28027E-05 5.21715E-08-2.17362E-19-3.26907E-18
 -1        46 1.09908E-04-3.29501E-05-3.28796E-05-6.15668E-09 2.74376E-19-5.06790E-18
 -1        47 1.08765E-04-3.26087E-05-3.25042E-05-1.06543E-07 2.22617E-19-4.06690E-18
 -1        48 1.05705E-04-3.16977E-05-3.15800E-05-2.40910E-07-3.50898E-20-3.02368E-18
 -1        49 1.00753E-04-3.02235E-05-3.01378E-05-3.72793E-07 4.12850E-19-2.48402E-18
 -1        50 9.46331E-05-2.83989E-05-2.84014E-05-4.37676E-07-1.66204E-19-2.32601E-18
 -1        51 8.88022E-05-2.66577E-05-2.67796E-05-3.72224E-07-1.62878E-19-2.20546E-18
 -1        52 8.50414E-05-2.55332E-05-2.57473E-05-1.65572E-07-3.58967E-19-3.28178E-18
 -1        53 8.46598E-05-2.54191E-05-2.56428E-05 1.10998E-07-1.41507E-19-3.52779E-18
 -1        54 8.77942E-05-2.63566E-05-2.65009E-05 3.40098E-07 7.11205E-19-3.00218E-18
 -1        55 9.33315E-05-2.80105E-05-2.80358E-05 4.36122E-07-5.88168E-19-3.99678E-18
 -1        56 9.95169E-05-2.98551E-05-2.97827E-05 3.93608E-07 3.01298E-19-5.03057E-18
 -1        57 1.04775E-04-3.14209E-05-3.13051E-05 2.69305E-07 2.93575E-19-6.16490E-18
 -1        58 1.08223E-04-3.24471E-05-3.23372E-05 1.31194E-07 4.97748E-20-5.02474E-18
 -1        59 1.09712E-04-3.28910E-05-3.28127E-05 2.21874E-08-2.84568E-19-4.49254E-18
 -1        60 1.09573E-04-3.28518E-05-3.28089E-05-4.47262E-08 7.84994E-21-2.62984E-18
 -1        61 1.08327E-04-3.24833E-05-3.24678E-05-7.52418E-08 4.58610E-20-8.10405E-20
 -1        62 1.06472E-04-3.19332E-05-3.19344E-05-8.13773E-08-3.46340E-19-5.14612E-19
 -1        63 1.04396E-04-3.13163E-05-3.13252E-05-7.43198E-08-3.53783E-19-3.52995E-18
 -1        64 1.02357E-04-3.07087E-05-3.07196E-05-6.19590E-08 2.40275E-19-4.16499E-18
 -1        65 1.00500E-04-3.01547E-05-3.01646E-05-4.89106E-08 9.24697E-20-1.68924E-18
 -1        66 9.88956E-05-2.96752E-05-2.96831E-05-3.73424E-08-6.79818E-20-2.79323E-18
 -1        67 9.75682E-05-2.92778E-05-2.92843E-05-2.77271E-08 6.07165E-19-1.74665E-18
 -1        68 9.65217E-05-2.89638E-05-2.89709E-05-1.92391E-08 1.95567E-19 2.63740E-18
 -1        69 9.57603E-05-2.87343E-05-2.87448E-05-9.43118E-09 4.57641E-19 4.37060E-18
 -1        70 9.53014E-05-2.85941E-05-2.86080E-05 8.13528E-09-1.28443E-19 4.18789E-18
 -1        71 9.51647E-05-2.85474E-05-2.85491E-05 3.05942E-08-6.51602E-19 1.45748E-18
 -1        72 1.02060E-04-3.05514E-05-3.41131E-05-1.92515E-06 1.51645E-19 1.34864E-17
 -1        73 9.24364E-05-2.74759E-05-2.88699E-05-3.32250E-07 9.59232E-20 1.06916E-17
 -1        74 8.89764E-05-2.66626E-05-2.69333E-05-1.24951E-07 8.06509E-20 8.34501E-18
 -1        75 8.79106E-05-2.63989E-05-2.63952E-05-9.42096E-08-5.57578E-20 7.40291E-18
 -1        76 8.79405E-05-2.64062E-05-2.63697E-05-7.47591E-08 7.64298E-20 6.40891E-18
 -1        77 8.84793E-05-2.65589E-05-2.65317E-05-6.00729E-08-3.76847E-20 5.52125E-18
 -1        78 8.92500E-05-2.67842E-05-2.67653E-05-4.85617E-08-4.50192E-20 5.61021E-18
 -1        79 9.01097E-05-2.70390E-05-2.70245E-05-3.88234E-08-4.65662E-20 5.14887E-18
 -1        80 9.09848E-05-2.72999E-05-2.72880E-05-3.02081E-08 1.20650E-19 4.08878E-18
 -1        81 9.18429E-05-2.75566E-05-2.75468E-05-2.24699E-08 6.94233E-20 1.99627E-18
 -1        82 9.26797E-05-2.78074E-05-2.77997E-05-1.55337E-08 5.12256E-20 1.64673E-18
 -1        83 9.35120E-05-2.80571E-05-2.80520E-05-9.40473E-09-1.23330E-19 2.48406E-18
 -1        84 9.43736E-05-2.83159E-05-2.83136E-05-4.15660E-09 1.98156E-19 1.77864E-18
 -1        85 9.53135E-05-2.85983E-05-2.85995E-05 3.86428E-11 1.31152E-19 1.06847E-18
 -1        86 9.63953E-05-2.89234E-05-2.89289E-05 2.84646E-09-2.46313E-20-3.48887E-19
 -1        87 9.76977E-05-2.93145E-05-2.93256E-05 3.66235E-09-3.39151E-19-2.90453E-19
 -1        88 9.93137E-05-2.97992E-05-2.98176E-05 1.44797E-09-2.14972E-19 1.63870E-18
 -1        89 1.01349E-04-3.04090E-05-3.04367E-05-5.49569E-09 3.14973E-19 1.47078E-18
 -1        90 1.03917E-04-3.11768E-05-3.12160E-05-1.97872E-08-4.42087E-20 9.38486E-20
 -1        91 1.07117E-04-3.21320E-05-3.21838E-05-4.51028E-08-5.33995E-20 1.59939E-18
 -1        92 1.11002E-04-3.32896E-05-3.33511E-05-8.57334E-08-3.05928E-19 3.20169E-18
 -1        93 1.15504E-04-3.46301E-05-3.46882E-05-1.44454E-07 3.27885E-19 2.23770E-18
 -1        94 1.20318E-04-3.60652E-05-3.60878E-05-2.16649E-07-2.58941E-20 6.58740E-19
 -1        95 1.24734E-04-3.73904E-05-3.73181E-05-2.78451E-07 2.35573E-20 2.04275E-18
 -1        96 1.27485E-04-3.82397E-05-3.79943E-05-2.70904E-07 4.10240E-19 4.43242E-18
 -1        97 1.26805E-04-3.80916E-05-3.76307E-05-9.89688E-08-3.36252E-19 5.57157E-18
 -1        98 1.21035E-04-3.64298E-05-3.58535E-05 3.08660E-07 2.84659E-19 6.15891E-18
 -1        99 1.10034E-04-3.31519E-05-3.27768E-05 8.56951E-07-5.50185E-19 3.48305E-18
 -1       100 9.67322E-05-2.90588E-05-2.93073E-05 1.19298E-06 1.88614E-20 3.27421E-18
 -1       101 8.70328E-05-2.59813E-05-2.68719E-05 8.98177E-07-5.10337E-20 2.16496E-19
 -1       102 8.62716E-05-2.56590E-05-2.66996E-05 5.33614E-08-9.88845E-20-3.36533E-18
 -1       103 9.49013E-05-2.83068E-05-2.88811E-05-7.72094E-07-1.51841E-19-3.08701E-18
 -1       104 1.08108E-04-3.24052E-05-3.23150E-05-1.07161E-06-1.10922E-19-7.30725E-19
 -1       105 1.19769E-04-3.59973E-05-3.55132E-05-8.51219E-07 1.00569E-19 2.51807E-18
 -1       106 1.26372E-04-3.79977E-05-3.74759E-05-4.42070E-07 8.63461E-20 1.11767E-18
 -1       107 1.27698E-04-3.83706E-05-3.80114E-05-1.02612E-07 1.85135E-19-1.25542E-18
 -1       108 1.25304E-04-3.76207E-05-3.74485E-05 9.10633E-08 2.34140E-19-2.85424E-18
 -1       109 1.21005E-04-3.63100E-05-3.62687E-05 1.66601E-07-1.91935E-19-6.76303E-19
 -1       110 1.16156E-04-3.48456E-05-3.48724E-05 1.74286E-07 1.23545E-19-1.02065E-18
 -1       111 1.11543E-04-3.34590E-05-3.35106E-05 1.52251E-07 4.24130E-19-3.34327E-18
 -1       112 1.07520E-04-3.22530E-05-3.23067E-05 1.22056E-07-4.96802E-19-3.38871E-18
 -1       113 1.04188E-04-3.12551E-05-3.13013E-05 9.35941E-08-1.36017E-19-2.69300E-19
 -1       114 1.01515E-04-3.04546E-05-3.04912E-05 7.03810E-08-3.69481E-19 1.08548E-18
 -1       115 9.94173E-05-2.98265E-05-2.98544E-05 5.29609E-08-2.98174E-20-1.19340E-18
 -1       116 9.78047E-05-2.93433E-05-2.93651E-05 4.05564E-08 6.84932E-19-6.21653E-18
 -1       117 9.66026E-05-2.89826E-05-2.90021E-05 3.16341E-08-1.26797E-19-9.92945E-18
 -1       118 9.57651E-05-2.87303E-05-2.87519E-05 2.35805E-08-1.68596E-19-7.68006E-18
 -1       119 9.52821E-05-2.85831E-05-2.86065E-05 8.25422E-09 2.14443E-19-7.83881E-18
 -1       120 9.51561E-05-2.85383E-05-2.85466E-05-2.62013E-08 1.82468E-18-7.93200E-18
 -1       121 9.52569E-05-2.86370E-05-2.85501E-05-3.82242E-08-9.39404E-18-5.50647E-19
 -1       122 9.52135E-05-2.84960E-05-2.86147E-05-4.70161E-10-8.95799E-18 1.04177E-18
 -1       123 9.50705E-05-2.80177E-05-2.87534E-05 2.32409E-08 3.16228E-19 1.66389E-18
 -1       124 9.48640E-05-2.73263E-05-2.89505E-05 3.35213E-08 1.66240E-18 1.04928E-18
 -1       125 9.46384E-05-2.65688E-05-2.91684E-05 3.38019E-08 5.82928E-18-1.92654E-18
 -1       126 9.44379E-05-2.58928E-05-2.93645E-05 2.79555E-08-5.32193E-18-4.28142E-19
 -1       127 9.42873E-05-2.53860E-05-2.95122E-05 1.75233E-08-3.28522E-18 1.73064E-18
 -1       128 9.42126E-05-2.51347E-05-2.95859E-05 4.93229E-09-3.41687E-18 5.39102E-19
 -1       129 9.42231E-05-2.51702E-05-2.95760E-05-7.86974E-09-4.42072E-18-3.57981E-19
 -1       130 9.43155E-05-2.54817E-05-2.94853E-05-1.91664E-08-3.75012E-18-3.92441E-19
 -1       131 9.44752E-05-2.60198E-05-2.93286E-05-2.77241E-08-8.31266E-18-2.14560E-18
 -1       132 9.46747E-05-2.66914E-05-2.91334E-05-3.13811E-08-1.05370E-17 1.58297E-18
 -1       133 9.48898E-05-2.74140E-05-2.89246E-05-2.97524E-08-6.71041E-18 2.56367E-19
 -1       134 9.50813E-05-2.80587E-05-2.87403E-05-2.26345E-08-7.92644E-18 1.94105E-19
 -1       135 9.52133E-05-2.84923E-05-2.86120E-05 1.68576E-10-6.84506E-18-3.00233E-20
 -1       136 9.52419E-05-2.86200E-05-2.85507E-05 5.63665E-08-2.48424E-18 1.04013E-19
 -1       137 2.66779E-05-8.99003E-05 1.59348E-05-2.45899E-05 2.92396E-18 3.96703E-19
 -1       138 7.86165E-06-3.73859E-05 4.19633E-06-2.06932E-05 6.12659E-18 3.41735E-18
 -1       139 1.40813E-05 1.41024E-05-1.59255E-05 2.57893E-05 1.04316E-17 7.71393E-18
 -1       140 6.64778E-05 2.51217E-05-3.76482E-05 8.32919E-05 5.89408E-18 8.06926E-18
 -1       141 1.66185E-04-1.29092E-05-5.84474E-05 1.13511E-04 2.52903E-18 3.44742E-18
 -1       142 2.67646E-04-6.80968E-05-7.39633E-05 8.43003E-05 3.17108E-20-1.57082E-18
 -1       143 3.15951E-04-9.74530E-05-8.02475E-05 6.33352E-06 1.91985E-19-6.62818E-18
 -1       144 2.82265E-04-7.69304E-05-7.58571E-05-7.51848E-05 1.76850E-18-7.63283E-18
 -1       145 1.86633E-04-2.32678E-05-6.18549E-05-1.12926E-04 5.19994E-18-1.01568E-17
 -1       146 8.66393E-05 1.93148E-05-4.25940E-05-9.33294E-05 5.65606E-18-7.85242E-18
 -1       147 2.06975E-05 2.13940E-05-2.07033E-05-3.80700E-05 8.35513E-18-6.22146E-18
 -1       148 5.25935E-06-2.02660E-05-9.60698E-07 1.17303E-05 8.61009E-18-4.50791E-18
 -1       149 2.06146E-05-7.60411E-05 1.32618E-05 2.76523E-05 3.20623E-18-1.81567E-18
 -1       150 3.52999E-05-1.09033E-04 1.98044E-05 8.27070E-06-7.33239E-18 1.43927E-18
 -1       151 2.96307E-05-9.59635E-05 1.73049E-05-1.79826E-05-1.09115E-17-1.77746E-18
 -1       152 1.07901E-05-4.52274E-05 6.19040E-06-2.13008E-05-1.36199E-17-5.97794E-18
 -1       153 1.00419E-05 9.13148E-06-1.23690E-05 1.76556E-05-1.37147E-17-9.03361E-18
 -1       154 5.99651E-05 2.58619E-05-3.53460E-05 7.80937E-05-1.03194E-17-1.18830E-17
 -1       155 1.60711E-04-9.97545E-06-5.76258E-05 1.13739E-04-5.06632E-18-9.62907E-18
 -1       156 2.57444E-04-6.44345E-05-7.20131E-05 8.73910E-05-2.30314E-18-8.01399E-18
 -1       157 3.05124E-04-9.36942E-05-7.83404E-05 1.22588E-05-8.18419E-19-3.89450E-18
 -1       158 2.76804E-04-7.60187E-05-7.47406E-05-6.91769E-05 8.10690E-19-1.67077E-19
 -1       159 1.92187E-04-2.68214E-05-6.26309E-05-1.11753E-04-9.83405E-19 1.73134E-18
 -1       160 9.65278E-05 1.79047E-05-4.52126E-05-1.00187E-04-3.23058E-18 4.96954E-18
 -1       161 5.45588E-06-1.13813E-06-7.14872E-06-3.41117E-06-1.08331E-17 6.95943E-18
 -1       162 1.17610E-05-4.97332E-05 7.34120E-06 2.31260E-05-8.94890E-18 4.15713E-18
 -1       163 2.90835E-05-9.28071E-05 1.65341E-05 2.17908E-05-1.98756E-18 9.32424E-19
 -1       164 9.48024E-05-1.23338E-05-3.55464E-05-2.23504E-05-1.89982E-18-1.01453E-18
 -1       165 8.92186E-05-8.45170E-06-3.47759E-05-1.73951E-05-1.55593E-18-2.71318E-18
 -1       166 8.65483E-05-6.50590E-06-3.44155E-05-1.35873E-05-1.03825E-18-3.53063E-18
 -1       167 8.52118E-05-5.51564E-06-3.42395E-05-1.03742E-05-6.53721E-19-3.87100E-18
 -1       168 8.44865E-05-4.94714E-06-3.41572E-05-7.54798E-06-2.47554E-19-3.91588E-18
 -1       169 8.40703E-05-4.60068E-06-3.41199E-05-4.90342E-06-1.93291E-20-3.81694E-18
 -1       170 8.38584E-05-4.41536E-06-3.41050E-05-2.39504E-06 3.91525E-19-3.64132E-18
 -1       171 8.37962E-05-4.35937E-06-3.41013E-05 5.08459E-08 6.29544E-19-3.52964E-18
 -1       172 8.38686E-05-4.42402E-06-3.41058E-05 2.49895E-06 9.24564E-19-3.34378E-18
 -1       173 8.40925E-05-4.62009E-06-3.41215E-05 5.01417E-06 1.15332E-18-3.09998E-18
 -1       174 8.45144E-05-4.97404E-06-3.41583E-05 7.62445E-06 1.42754E-18-2.75882E-18
 -1       175 8.52734E-05-5.57652E-06-3.42406E-05 1.05153E-05 1.73711E-18-2.21421E-18
 -1       176 8.66460E-05-6.60880E-06-3.44178E-05 1.37876E-05 1.93772E-18-1.24863E-18
 -1       177 8.93613E-05-8.59580E-06-3.47807E-05 1.76274E-05 2.09306E-18 2.78012E-19
 -1       178 9.57127E-05-1.35998E-05-3.54026E-05 2.18960E-05 1.88906E-18 2.93656E-18
 -1       179 1.05507E-04-2.60730E-05-3.52325E-05 1.86643E-05 1.31601E-18 6.34380E-18
 -1       180 1.03307E-04-2.72748E-05-3.25827E-05-1.21303E-05-1.72046E-18 1.33103E-18
 -1       181 9.70178E-05-2.82623E-05-2.95020E-05-4.73525E-06-1.44513E-18 6.00543E-19
 -1       182 9.34192E-05-2.76095E-05-2.81562E-05-1.77049E-06-1.13614E-18-1.17526E-19
 -1       183 9.18899E-05-2.73796E-05-2.76118E-05-4.17708E-07-7.20795E-19-7.51507E-19
 -1       184 9.13265E-05-2.73070E-05-2.74185E-05 2.55602E-07-5.78926E-19-9.89803E-19
 -1       185 9.13085E-05-2.73513E-05-2.74013E-05 5.96663E-07-5.07556E-19-1.25136E-18
 -1       186 9.15928E-05-2.74638E-05-2.74794E-05 7.58758E-07-3.94076E-19-1.64336E-18
 -1       187 9.20416E-05-2.76124E-05-2.76101E-05 8.23747E-07-4.85555E-19-1.72347E-18
 -1       188 9.25776E-05-2.77784E-05-2.77697E-05 8.40855E-07-5.24981E-19-1.94213E-18
 -1       189 9.31614E-05-2.79526E-05-2.79457E-05 8.42435E-07-3.25840E-19-2.03871E-18
 -1       190 9.37789E-05-2.81323E-05-2.81333E-05 8.51057E-07-3.42314E-20-2.87816E-18
 -1       191 9.44331E-05-2.83198E-05-2.83332E-05 8.82982E-07-3.07598E-19-3.31397E-18
 -1       192 9.51396E-05-2.85206E-05-2.85497E-05 9.49827E-07-1.74568E-19-2.95946E-18
 -1       193 9.59221E-05-2.87428E-05-2.87895E-05 1.05904E-06-2.61759E-19-2.90247E-18
 -1       194 9.68085E-05-2.89961E-05-2.90606E-05 1.21334E-06-3.13085E-19-2.57370E-18
 -1       195 9.78265E-05-2.92908E-05-2.93705E-05 1.40898E-06 2.84849E-19-2.87263E-18
 -1       196 9.89979E-05-2.96363E-05-2.97247E-05 1.63269E-06 2.66702E-19-2.57951E-18
 -1       197 1.00330E-04-3.00395E-05-3.01235E-05 1.85716E-06-3.71567E-19-3.03219E-18
 -1       198 1.01804E-04-3.05014E-05-3.05589E-05 2.03525E-06-5.43195E-19-3.00585E-18
 -1       199 1.03364E-04-3.10129E-05-3.10104E-05 2.09420E-06 3.40303E-19-2.73181E-18
 -1       200 1.04897E-04-3.15485E-05-3.14405E-05 1.93331E-06 1.11906E-18-2.73812E-18
 -1       201 1.06220E-04-3.20578E-05-3.17923E-05 1.43176E-06-4.67788E-19-2.13721E-18
 -1       202 1.07079E-04-3.24567E-05-3.19918E-05 4.77726E-07-1.31305E-19-1.00212E-18
 -1       203 1.07170E-04-3.26223E-05-3.19599E-05-9.69233E-07 2.83013E-19-1.11188E-18
 -1       204 1.06204E-04-3.24043E-05-3.16366E-05-2.78198E-06 3.01119E-19-1.85874E-18
 -1       205 1.04039E-04-3.16738E-05-3.10167E-05-4.57171E-06 3.95356E-19-1.60981E-18
 -1       206 1.00856E-04-3.04220E-05-3.01824E-05-5.69057E-06 1.39227E-19-2.06031E-18
 -1       207 9.72842E-05-2.88762E-05-2.93097E-05-5.44532E-06-7.68914E-20-1.97094E-18
 -1       208 9.43418E-05-2.75213E-05-2.86269E-05-3.52202E-06-3.62375E-19-1.90557E-18
 -1       209 9.30517E-05-2.69085E-05-2.83356E-05-3.58360E-07-3.93487E-19-1.17967E-18
 -1       210 9.39083E-05-2.73186E-05-2.85269E-05 2.93543E-06-1.33676E-19-1.26230E-18
 -1       211 9.65764E-05-2.85597E-05-2.91406E-05 5.17328E-06-8.08392E-19-2.52245E-18
 -1       212 1.00099E-04-3.01093E-05-2.99908E-05 5.75582E-06-4.64722E-19-2.72699E-18
 -1       213 1.03417E-04-3.14458E-05-3.08465E-05 4.86199E-06 2.12337E-19-2.14519E-18
 -1       214 1.05805E-04-3.22841E-05-3.15160E-05 3.14721E-06 6.65162E-19-2.28577E-18
 -1       215 1.06996E-04-3.25938E-05-3.18974E-05 1.29504E-06 1.73569E-19-2.04360E-18
 -1       216 1.07084E-04-3.24889E-05-3.19802E-05-2.46981E-07 1.11975E-19-3.06085E-18
 -1       217 1.06339E-04-3.21209E-05-3.18166E-05-1.30395E-06 1.47813E-18-2.27424E-18
 -1       218 1.05071E-04-3.16204E-05-3.14847E-05-1.88971E-06-6.77336E-19-1.40268E-18
 -1       219 1.03550E-04-3.10801E-05-3.10616E-05-2.10644E-06-1.05283E-18-2.14682E-18
 -1       220 1.01978E-04-3.05573E-05-3.06093E-05-2.07441E-06-2.17898E-19-1.35467E-18
 -1       221 1.00485E-04-3.00830E-05-3.01710E-05-1.89649E-06 1.56923E-18-1.24154E-18
 -1       222 9.91463E-05-2.96710E-05-2.97728E-05-1.64650E-06-2.91920E-19-2.08234E-19
 -1       223 9.79989E-05-2.93247E-05-2.94289E-05-1.36961E-06 1.58903E-18 1.83673E-18
 -1       224 9.70549E-05-2.90416E-05-2.91455E-05-1.08713E-06 2.40868E-18 1.90987E-18
 -1       225 9.63147E-05-2.88173E-05-2.89247E-05-8.02371E-07 1.35399E-18 2.36213E-18
 -1       226 9.57739E-05-2.86485E-05-2.87656E-05-5.08430E-07-5.61930E-19 2.74218E-18
 -1       227 9.54123E-05-2.85345E-05-2.86601E-05-2.07152E-07-1.33803E-18 2.35471E-18
 -1       228 9.94037E-05-2.85253E-05-3.05580E-05 7.21564E-06 1.45715E-18 5.44023E-18
 -1       229 9.43194E-05-2.77616E-05-2.84954E-05 2.74778E-06 1.10841E-18 4.31064E-18
 -1       230 9.20007E-05-2.73716E-05-2.76531E-05 9.31590E-07 5.15873E-19 3.35629E-18
 -1       231 9.10586E-05-2.72105E-05-2.73364E-05 6.43655E-08 6.10749E-19 2.76265E-18
 -1       232 9.08616E-05-2.72068E-05-2.72669E-05-3.72394E-07 3.32206E-19 2.67689E-18
 -1       233 9.10729E-05-2.72997E-05-2.73244E-05-5.87643E-07 8.44800E-21 2.37568E-18
 -1       234 9.15040E-05-2.74451E-05-2.74499E-05-6.82806E-07 5.82482E-19 2.06125E-18
 -1       235 9.20492E-05-2.76164E-05-2.76116E-05-7.14649E-07 7.37941E-19 1.27554E-18
 -1       236 9.26524E-05-2.77993E-05-2.77925E-05-7.18940E-07 9.83016E-19 8.53732E-19
 -1       237 9.32899E-05-2.79883E-05-2.79851E-05-7.20449E-07-1.33070E-19 7.56562E-19
 -1       238 9.39610E-05-2.81839E-05-2.81891E-05-7.37802E-07-1.35710E-19 6.04579E-19
 -1       239 9.46826E-05-2.83916E-05-2.84092E-05-7.86230E-07 5.86702E-19 3.13235E-19
 -1       240 9.54857E-05-2.86209E-05-2.86549E-05-8.79247E-07 2.87632E-19-2.24135E-19
 -1       241 9.64139E-05-2.88849E-05-2.89394E-05-1.02966E-06 3.75347E-19-7.71878E-20
 -1       242 9.75221E-05-2.91998E-05-2.92790E-05-1.24990E-06-5.23338E-19 6.17229E-19
 -1       243 9.88745E-05-2.95853E-05-2.96933E-05-1.55143E-06-5.50154E-19 3.73068E-19
 -1       244 1.00542E-04-3.00635E-05-3.02033E-05-1.94241E-06 5.65573E-19 2.72962E-19
 -1       245 1.02596E-04-3.06582E-05-3.08295E-05-2.42237E-06 2.75804E-19 3.87926E-19
 -1       246 1.05095E-04-3.13926E-05-3.15871E-05-2.97175E-06-1.00135E-18 6.41049E-19
 -1       247 1.08060E-04-3.22849E-05-3.24779E-05-3.53312E-06-8.22036E-19 7.30038E-19
 -1       248 1.11435E-04-3.33390E-05-3.34753E-05-3.98174E-06 3.33219E-19 1.37282E-18
 -1       249 1.15023E-04-3.45284E-05-3.45053E-05-4.08796E-06 4.40230E-19 1.10474E-18
 -1       250 1.18412E-04-3.57662E-05-3.54241E-05-3.49185E-06-3.59812E-19 2.60350E-19
 -1       251 1.20901E-04-3.68554E-05-3.60131E-05-1.74985E-06-1.30289E-18 2.16106E-19
 -1       252 1.21532E-04-3.74269E-05-3.60205E-05 1.43559E-06-8.77321E-19 2.29751E-18
 -1       253 1.19345E-04-3.69324E-05-3.52813E-05 5.69607E-06-4.24509E-20 3.21650E-18
 -1       254 1.14072E-04-3.49311E-05-3.38979E-05 9.42750E-06 6.00861E-19 4.64227E-18
 -1       255 1.06975E-04-3.16347E-05-3.23360E-05 9.98432E-06 1.33738E-18 3.06507E-18
 -1       256 1.01279E-04-2.86649E-05-3.12253E-05 5.54784E-06 1.52557E-18 6.86825E-20
 -1       257 1.00349E-04-2.80618E-05-3.10845E-05-2.10809E-06 1.72492E-18-1.74020E-18
 -1       258 1.04822E-04-3.03051E-05-3.19790E-05-8.47988E-06-3.72804E-19-3.67341E-18
 -1       259 1.11958E-04-3.37653E-05-3.34900E-05-1.02290E-05-1.23527E-18-2.91301E-18
 -1       260 1.18130E-04-3.64222E-05-3.49761E-05-7.66804E-06-5.65524E-19-2.23394E-18
 -1       261 1.21333E-04-3.74773E-05-3.59108E-05-3.37543E-06 4.58390E-20-6.12206E-19
 -1       262 1.21473E-04-3.72172E-05-3.61059E-05 4.24309E-07 7.47761E-19 3.02235E-19
 -1       263 1.19420E-04-3.62325E-05-3.56620E-05 2.83876E-06 6.43540E-19 5.34478E-19
 -1       264 1.16191E-04-3.49852E-05-3.48154E-05 3.93025E-06-1.03729E-18 8.93520E-20
 -1       265 1.12578E-04-3.37380E-05-3.37980E-05 4.11276E-06 3.79849E-19-5.55043E-19
 -1       266 1.09077E-04-3.26121E-05-3.27755E-05 3.79562E-06 1.22025E-18 1.17572E-18
 -1       267 1.05946E-04-3.16502E-05-3.18419E-05 3.26698E-06-1.55079E-19 1.71051E-19
 -1       268 1.03280E-04-3.08552E-05-3.10380E-05 2.69457E-06-1.28421E-18-1.29877E-18
 -1       269 1.01087E-04-3.02127E-05-3.03719E-05 2.16078E-06-1.49702E-19-8.87903E-19
 -1       270 9.93252E-05-2.97021E-05-2.98353E-05 1.69602E-06 2.97301E-18-2.33005E-18
 -1       271 9.79426E-05-2.93025E-05-2.94141E-05 1.30148E-06 2.44516E-18-4.71585E-18
 -1       272 9.68875E-05-2.89959E-05-2.90939E-05 9.62363E-07 7.29891E-19-4.24922E-18
 -1       273 9.61195E-05-2.87685E-05-2.88634E-05 6.56381E-07-6.57390E-19-5.50221E-18
 -1       274 9.56086E-05-2.86106E-05-2.87122E-05 3.59293E-07 3.25305E-20-5.18204E-18
 -1       275 9.53254E-05-2.85399E-05-2.86185E-05 7.98781E-08-5.22698E-19-4.55158E-18
 -1       276 9.52743E-05-2.83757E-05-2.86688E-05 2.36549E-07-1.39881E-18-7.98582E-20
 -1       277 9.51487E-05-2.80144E-05-2.87713E-05 5.23928E-07-2.54031E-18 4.84264E-18
 -1       278 9.49587E-05-2.75160E-05-2.89038E-05 7.19342E-07-4.38858E-19 2.85863E-18
 -1       279 9.47497E-05-2.69556E-05-2.90549E-05 7.75485E-07 4.71042E-19 1.69933E-18
 -1       280 9.45560E-05-2.64256E-05-2.91999E-05 6.99641E-07-5.35471E-19-6.52874E-18
 -1       281 9.43985E-05-2.59872E-05-2.93210E-05 5.13433E-07-6.30851E-19-2.71929E-20
 -1       282 9.43017E-05-2.57131E-05-2.93975E-05 2.53446E-07-1.80828E-18 6.09175E-19
 -1       283 9.42768E-05-2.56391E-05-2.94187E-05-3.80761E-08-1.60074E-18-4.87510E-19
 -1       284 9.43253E-05-2.57719E-05-2.93823E-05-3.18667E-07-1.62743E-18-2.41570E-19
 -1       285 9.44393E-05-2.60898E-05-2.92943E-05-5.49658E-07-3.58808E-18-2.81339E-18
 -1       286 9.45996E-05-2.65379E-05-2.91702E-05-6.97120E-07-1.97129E-18-2.21287E-20
 -1       287 9.47906E-05-2.70684E-05-2.90239E-05-7.42608E-07-1.13581E-18 1.61968E-18
 -1       288 9.49843E-05-2.76000E-05-2.88786E-05-6.70412E-07-7.73272E-19-5.76882E-19
 -1       289 9.51558E-05-2.80567E-05-2.87550E-05-4.81146E-07-2.32412E-18 6.43786E-20
 -1       290 9.53038E-05-2.83176E-05-2.87065E-05-3.82932E-07-2.03647E-18 2.56345E-18
 -1       291 1.19772E-05-4.71546E-05 1.17544E-05 5.58679E-06 5.34001E-19-1.10114E-20
 -1       292 2.51510E-05-4.39850E-05 5.10902E-06 1.90189E-05 5.05043E-19 1.88084E-18
 -1       293 6.16708E-05-4.19275E-05-9.75113E-06 3.77184E-05-9.59053E-19 2.81331E-18
 -1       294 9.45165E-05-3.21206E-05-2.71783E-05 4.37357E-05 3.04762E-18 1.06303E-18
 -1       295 1.42301E-04-3.21760E-05-4.58338E-05 4.59100E-05 2.84444E-18 6.20452E-19
 -1       296 1.82514E-04-3.47574E-05-6.09130E-05 2.94937E-05 2.41569E-18-1.30994E-18
 -1       297 1.96972E-04-2.97606E-05-6.91529E-05 7.74412E-06 2.34861E-18-3.29941E-18
 -1       298 2.13624E-04-3.72011E-05-7.18438E-05-1.03352E-05 4.23622E-19-4.48387E-18
 -1       299 1.88163E-04-3.45991E-05-6.32012E-05-2.57745E-05 2.81951E-18-3.90525E-18
 -1       300 1.52589E-04-3.45094E-05-4.91560E-05-4.11426E-05 1.69174E-18-4.05517E-18
 -1       301 1.09725E-04-3.65037E-05-3.14148E-05-4.29508E-05 2.49875E-18-2.37593E-18
 -1       302 6.20464E-05-3.50522E-05-1.31689E-05-3.63364E-05 2.05278E-18-2.19943E-18
 -1       303 3.27681E-05-4.20098E-05 1.38750E-06-2.45939E-05 8.51903E-19-2.76577E-18
 -1       304 1.48856E-05-4.79016E-05 1.07773E-05-9.21228E-06-1.84981E-18-4.96721E-18
 -1       305 9.84228E-06-4.19155E-05 1.12104E-05 5.72991E-06-3.84587E-18-2.06676E-18
 -1       306 2.19256E-05-4.29635E-05 6.28643E-06 1.98984E-05-6.14374E-18-2.99643E-18
 -1       307 5.12551E-05-3.83581E-05-6.97284E-06 3.67283E-05-5.31174E-18-3.24816E-18
 -1       308 9.48390E-05-3.80310E-05-2.46592E-05 4.33997E-05-4.76647E-18-4.37418E-18
 -1       309 1.39626E-04-3.59801E-05-4.36704E-05 3.76095E-05-4.82671E-18-3.14503E-18
 -1       310 1.79512E-04-3.21284E-05-6.04594E-05 3.77575E-05-2.90710E-18-5.27151E-18
 -1       311 2.02632E-04-3.38603E-05-6.90947E-05 1.56231E-05-2.75423E-18-4.73078E-18
 -1       312 1.97239E-04-2.96260E-05-6.92180E-05-6.70786E-06-2.09990E-18-2.50552E-18
 -1       313 1.86576E-04-3.24340E-05-6.33426E-05-3.02349E-05-1.20342E-18-5.95464E-19
 -1       314 1.52717E-04-2.98955E-05-5.08276E-05-4.55303E-05-2.02647E-18 2.85662E-19
 -1       315 1.11006E-04-3.05838E-05-3.41221E-05-4.63653E-05-3.72123E-18 6.58780E-19
 -1       316 7.25077E-05-3.35579E-05-1.76658E-05-4.14716E-05-3.17362E-18 1.74351E-18
 -1       317 4.31300E-05-3.56173E-05-5.26598E-06-3.07447E-05-2.79796E-18 3.06896E-18
 -1       318 2.14778E-05-4.41399E-05 6.60999E-06-1.84690E-05-6.07746E-19 4.38239E-18
 -1       319 1.42488E-05-5.21821E-05 1.23544E-05-6.87438E-06-1.72054E-19 1.92965E-18
 -1       320 9.16330E-05-1.43894E-05-3.31675E-05-1.30616E-05-1.58264E-18-2.32714E-18
 -1       321 9.56598E-05-1.90973E-05-3.28755E-05-1.46317E-05-1.91074E-18-1.36486E-18
 -1       322 8.80351E-05-1.03723E-05-3.33376E-05-8.14784E-06-5.19058E-19-3.01562E-18
 -1       323 8.72335E-05-9.44996E-06-3.33839E-05-5.71171E-06-1.91124E-19-3.11866E-18
 -1       324 8.67813E-05-8.91776E-06-3.34149E-05-3.36267E-06 2.20401E-19-2.83569E-18
 -1       325 8.65800E-05-8.67672E-06-3.34306E-05-1.07141E-06 6.03559E-19-2.83995E-18
 -1       326 8.65890E-05-8.68657E-06-3.34303E-05 1.20133E-06 9.91589E-19-2.75710E-18
 -1       327 8.68093E-05-8.94900E-06-3.34138E-05 3.49525E-06 1.26524E-18-2.56554E-18
 -1       328 8.72737E-05-9.49526E-06-3.33823E-05 5.80877E-06 1.60851E-18-2.20988E-18
 -1       329 8.80997E-05-1.04485E-05-3.33345E-05 8.24849E-06 1.88151E-18-1.84895E-18
 -1       330 8.94948E-05-1.20316E-05-3.32652E-05 1.07599E-05 2.15902E-18-1.15373E-18
 -1       331 9.18872E-05-1.47169E-05-3.31540E-05 1.31675E-05 2.34450E-18-1.20656E-19
 -1       332 9.57555E-05-1.94437E-05-3.28127E-05 1.43779E-05 2.23783E-18 1.49420E-18
 -1       333 9.87184E-05-2.44230E-05-3.19290E-05 1.19019E-05 1.97753E-18 2.98022E-18
 -1       334 9.63202E-05-2.67905E-05-2.97689E-05 5.74333E-06 1.62581E-18 2.36712E-18
 -1       335 4.80765E-05-3.76377E-05-4.68095E-06-4.09938E-05 1.26166E-18 3.20014E-18
 -1       336 9.63814E-05-2.60065E-05-3.01169E-05-6.34628E-06-1.54603E-18-9.98582E-19
 -1       337 9.48747E-05-2.70105E-05-2.90595E-05-2.82504E-06-1.35496E-18-1.04524E-18
 -1       338 9.39081E-05-2.74046E-05-2.84868E-05-8.97686E-07-7.84344E-19-1.22026E-18
 -1       339 9.34084E-05-2.76167E-05-2.81896E-05 1.86576E-07-6.77989E-19-1.35601E-18
 -1       340 9.32473E-05-2.77701E-05-2.80586E-05 7.88139E-07-6.21783E-19-1.36578E-18
 -1       341 9.33115E-05-2.79019E-05-2.80313E-05 1.10972E-06-4.52681E-19-1.46465E-18
 -1       342 9.35203E-05-2.80221E-05-2.80701E-05 1.27347E-06-4.55945E-19-1.51853E-18
 -1       343 9.38221E-05-2.81336E-05-2.81519E-05 1.35814E-06-5.47706E-19-1.61294E-18
 -1       344 9.41877E-05-2.82386E-05-2.82636E-05 1.41741E-06-6.76051E-19-1.71525E-18
 -1       345 9.46045E-05-2.83406E-05-2.83983E-05 1.48917E-06-5.10295E-19-2.06464E-18
 -1       346 9.50722E-05-2.84448E-05-2.85538E-05 1.60043E-06-1.45903E-19-2.18783E-18
 -1       347 9.55993E-05-2.85583E-05-2.87307E-05 1.76957E-06 7.76417E-20-1.67797E-18
 -1       348 9.62006E-05-2.86909E-05-2.89312E-05 2.00660E-06-1.97235E-19-1.80618E-18
 -1       349 9.68942E-05-2.88549E-05-2.91579E-05 2.31177E-06-2.61180E-20-1.91652E-18
 -1       350 9.76992E-05-2.90660E-05-2.94123E-05 2.67222E-06 3.46541E-19-1.47062E-18
 -1       351 9.86324E-05-2.93442E-05-2.96933E-05 3.05660E-06-3.28104E-19-1.82272E-18
 -1       352 9.97048E-05-2.97132E-05-2.99955E-05 3.40778E-06-3.65958E-19-1.42142E-18
 -1       353 1.00916E-04-3.01998E-05-3.03074E-05 3.63467E-06 1.69821E-19-1.97279E-18
 -1       354 1.02246E-04-3.08276E-05-3.06106E-05 3.60597E-06 6.37842E-19-2.05910E-18
 -1       355 1.03644E-04-3.16040E-05-3.08803E-05 3.15235E-06 5.98604E-19-2.30630E-18
 -1       356 1.05010E-04-3.24933E-05-3.10886E-05 2.08883E-06 3.66263E-19-1.79358E-18
 -1       357 1.06172E-04-3.33748E-05-3.12118E-05 2.74540E-07 1.24800E-19-1.26895E-18
 -1       358 1.06863E-04-3.39980E-05-3.12416E-05-2.27360E-06 1.41205E-19-1.13320E-18
 -1       359 1.06745E-04-3.39813E-05-3.11948E-05-5.22046E-06 6.02173E-19-1.15196E-18
 -1       360 1.05531E-04-3.29391E-05-3.11140E-05-7.78240E-06 1.13363E-19-1.38028E-18
 -1       361 1.03254E-04-3.07942E-05-3.10488E-05-8.81552E-06 3.23204E-19-1.94334E-18
 -1       362 1.00541E-04-2.81217E-05-3.10263E-05-7.31308E-06 4.15923E-19-1.05397E-18
 -1       363 9.85618E-05-2.61291E-05-3.10265E-05-3.21719E-06-2.12713E-19-7.66675E-19
 -1       364 9.83505E-05-2.59172E-05-3.10238E-05 2.14003E-06-3.70810E-19-1.81101E-18
 -1       365 1.00027E-04-2.76160E-05-3.10183E-05 6.63965E-06-8.36496E-19-1.97886E-18
 -1       366 1.02683E-04-3.02528E-05-3.10333E-05 8.71212E-06-6.11462E-19-3.89351E-19
 -1       367 1.05118E-04-3.25794E-05-3.10891E-05 8.13095E-06-2.24217E-19-5.02827E-20
 -1       368 1.06560E-04-3.38551E-05-3.11681E-05 5.77734E-06-1.43101E-19 2.18526E-19
 -1       369 1.06875E-04-3.40511E-05-3.12236E-05 2.82603E-06 1.52240E-19-6.02274E-19
 -1       370 1.06311E-04-3.35211E-05-3.12089E-05 1.52322E-07 5.94328E-19 3.00726E-19
 -1       371 1.05211E-04-3.26633E-05-3.11024E-05-1.82327E-06 3.50776E-19 1.46187E-18
 -1       372 1.03861E-04-3.17573E-05-3.09083E-05-3.03092E-06 2.59410E-19-9.86152E-19
 -1       373 1.02452E-04-3.09473E-05-3.06485E-05-3.58841E-06-6.32128E-19 4.73727E-19
 -1       374 1.01102E-04-3.02826E-05-3.03519E-05-3.67541E-06-1.73723E-19 1.43186E-18
 -1       375 9.98695E-05-2.97614E-05-3.00454E-05-3.46308E-06 5.30060E-19 1.89220E-18
 -1       376 9.87848E-05-2.93616E-05-2.97508E-05-3.08518E-06 1.23706E-18-1.06655E-22
 -1       377 9.78557E-05-2.90559E-05-2.94831E-05-2.63257E-06 2.16141E-18 1.40038E-18
 -1       378 9.70782E-05-2.88182E-05-2.92515E-05-2.15790E-06 1.46600E-18 1.03791E-18
 -1       379 9.64427E-05-2.86284E-05-2.90605E-05-1.68478E-06 1.09137E-18 3.12717E-19
 -1       380 9.59347E-05-2.84694E-05-2.89105E-05-1.21756E-06 7.05437E-19 4.34085E-19
 -1       381 9.55828E-05-2.83749E-05-2.88010E-05-7.87807E-07 3.31179E-19 2.00999E-18
 -1       382 9.43037E-05-2.73174E-05-2.86701E-05 2.46752E-06 1.08561E-18 1.91475E-18
 -1       383 9.31076E-05-2.74389E-05-2.81217E-05 7.32237E-07 6.88542E-19 1.36949E-18
 -1       384 9.25705E-05-2.75180E-05-2.78696E-05-2.05280E-07 5.23315E-19 1.31926E-18
 -1       385 9.24572E-05-2.76141E-05-2.77855E-05-7.07059E-07 2.23699E-19 7.86611E-19
 -1       386 9.26055E-05-2.77303E-05-2.78017E-05-9.64133E-07 6.14067E-19 4.03819E-19
 -1       387 9.29114E-05-2.78585E-05-2.78789E-05-1.08599E-06 1.07472E-18 4.75857E-19
 -1       388 9.33126E-05-2.79917E-05-2.79941E-05-1.14162E-06 1.10398E-18 5.68376E-19
 -1       389 9.37765E-05-2.81269E-05-2.81351E-05-1.17827E-06 3.91723E-20 5.29506E-19
 -1       390 9.42920E-05-2.82643E-05-2.82969E-05-1.23077E-06 1.29679E-19 1.89334E-19
 -1       391 9.48641E-05-2.84076E-05-2.84803E-05-1.32676E-06 6.13661E-19-1.50696E-19
 -1       392 9.55103E-05-2.85629E-05-2.86900E-05-1.48987E-06 8.66663E-19-1.19353E-19
 -1       393 9.62585E-05-2.87391E-05-2.89345E-05-1.74144E-06-9.06263E-20-4.89335E-19
 -1       394 9.71454E-05-2.89475E-05-2.92244E-05-2.10115E-06-4.70959E-19-4.44143E-19
 -1       395 9.82142E-05-2.92024E-05-2.95723E-05-2.58607E-06-2.48137E-19-4.48940E-19
 -1       396 9.95129E-05-2.95220E-05-2.99911E-05-3.20712E-06 4.74693E-19-7.95531E-19
 -1       397 1.01091E-04-2.99302E-05-3.04921E-05-3.96142E-06 3.84909E-19-3.76503E-19
 -1       398 1.02994E-04-3.04598E-05-3.10810E-05-4.81760E-06-8.00162E-19-6.00967E-19
 -1       399 1.05254E-04-3.11568E-05-3.17529E-05-5.69072E-06-6.19342E-19-1.08004E-18
 -1       400 1.07878E-04-3.20851E-05-3.24838E-05-6.40411E-06-4.10017E-19-6.73804E-19
 -1       401 1.10826E-04-3.33234E-05-3.32233E-05-6.64172E-06 9.87067E-19-5.42030E-19
 -1       402 1.13973E-04-3.49336E-05-3.38904E-05-5.91455E-06 1.09767E-20-8.44766E-20
 -1       403 1.17037E-04-3.68600E-05-3.43858E-05-3.60986E-06-1.88498E-18-5.14488E-19
 -1       404 1.19460E-04-3.87123E-05-3.46347E-05 7.43256E-07-1.34970E-18 4.85439E-20
 -1       405 1.20305E-04-3.95149E-05-3.46511E-05 6.82064E-06-5.33763E-19 6.90904E-19
 -1       406 1.18554E-04-3.79122E-05-3.45772E-05 1.25780E-05-6.31569E-20 2.12433E-18
 -1       407 1.13888E-04-3.31471E-05-3.46549E-05 1.43698E-05 1.74818E-18 2.83286E-18
 -1       408 1.08828E-04-2.77159E-05-3.48191E-05 8.82041E-06 3.21213E-18 2.58819E-18
 -1       409 1.07150E-04-2.58282E-05-3.49010E-05-2.07022E-06 2.72612E-18 1.79371E-18
 -1       410 1.10647E-04-2.94947E-05-3.48106E-05-1.16550E-05 8.29497E-19 6.00824E-19
 -1       411 1.16062E-04-3.51604E-05-3.46917E-05-1.44943E-05-1.03512E-18-1.79400E-18
 -1       412 1.19748E-04-3.88745E-05-3.46860E-05-1.07884E-05-1.67149E-18-1.58982E-18
 -1       413 1.20383E-04-3.94887E-05-3.46995E-05-4.47172E-06-1.02063E-18 7.87649E-19
 -1       414 1.18698E-04-3.81157E-05-3.45695E-05 1.12823E-06 1.83244E-19 2.15499E-18
 -1       415 1.15851E-04-3.61219E-05-3.41968E-05 4.71768E-06 9.10799E-19 2.65089E-18
 -1       416 1.12649E-04-3.42638E-05-3.36095E-05 6.37527E-06 2.86194E-19 2.05875E-18
 -1       417 1.09524E-04-3.27776E-05-3.28971E-05 6.68033E-06-8.07265E-20 1.63289E-19
 -1       418 1.06678E-04-3.16548E-05-3.21519E-05 6.21673E-06 2.60932E-19 6.11937E-19
 -1       419 1.04191E-04-3.08169E-05-3.14416E-05 5.40750E-06 8.85721E-19 9.62126E-19
 -1       420 1.02080E-04-3.01867E-05-3.08056E-05 4.50859E-06-9.97021E-19-3.55896E-19
 -1       421 1.00329E-04-2.97062E-05-3.02605E-05 3.65267E-06 1.63644E-19-1.23337E-18
 -1       422 9.89022E-05-2.93349E-05-2.98088E-05 2.89432E-06 3.29834E-18-1.65275E-18
 -1       423 9.77617E-05-2.90438E-05-2.94454E-05 2.24250E-06 2.93715E-18-2.06771E-19
 -1       424 9.68681E-05-2.88125E-05-2.91623E-05 1.68087E-06 1.18692E-18-2.32874E-18
 -1       425 9.61871E-05-2.86274E-05-2.89507E-05 1.18250E-06-1.58461E-19-2.77616E-18
 -1       426 9.56875E-05-2.84830E-05-2.87993E-05 7.23149E-07-8.72107E-19-1.51735E-18
 -1       427 9.54492E-05-2.84047E-05-2.87316E-05 4.73894E-07-8.95077E-20-7.60534E-19
 -1       428 9.48796E-05-2.71971E-05-2.90062E-05 1.34974E-06-1.95748E-18 2.84890E-18
 -1       429 9.51891E-05-2.77284E-05-2.89098E-05 1.17966E-06-1.77571E-18 5.58232E-18
 -1       430 9.53642E-05-2.81066E-05-2.88221E-05 8.52099E-07-1.62411E-18 1.72855E-18
 -1       431 9.45825E-05-2.66885E-05-2.90980E-05 1.30382E-06-2.29591E-18-3.45583E-18
 -1       432 9.43298E-05-2.62487E-05-2.91792E-05 1.05867E-06 6.50332E-19-2.26345E-18
 -1       433 9.41569E-05-2.59408E-05-2.92377E-05 6.61533E-07-7.92629E-19-1.64553E-19
 -1       434 9.40804E-05-2.57997E-05-2.92656E-05 1.77847E-07-3.63844E-18-8.09720E-19
 -1       435 9.41045E-05-2.58385E-05-2.92593E-05-3.21253E-07-2.10793E-18 2.00455E-19
 -1       436 9.42226E-05-2.60480E-05-2.92197E-05-7.67354E-07-2.49058E-18-2.50415E-18
 -1       437 9.44140E-05-2.63919E-05-2.91536E-05-1.09731E-06 3.73936E-19 2.38125E-19
 -1       438 9.46637E-05-2.68399E-05-2.90678E-05-1.27827E-06 1.24052E-18 2.58252E-18
 -1       439 9.49380E-05-2.73326E-05-2.89733E-05-1.27596E-06 8.83223E-19-7.83435E-19
 -1       440 9.52142E-05-2.78240E-05-2.88797E-05-1.09296E-06 5.23323E-19-2.38967E-18
 -1       441 5.49259E-05-3.96748E-05-6.57647E-06 4.05820E-05-1.53980E-18 2.17391E-18
 -1       442 1.03084E-05-2.42495E-05 5.37712E-06-4.11578E-06-4.99260E-19 1.02438E-18
 -1       443 2.56580E-05-2.81385E-05 9.37703E-07 2.67413E-05-8.22257E-19-1.81053E-20
 -1       444 1.05208E-04-5.48315E-05-2.16858E-05 3.83045E-05-4.16846E-19-3.29284E-19
 -1       445 7.37504E-05-4.60544E-05-1.21526E-05-4.41650E-05 5.74818E-19 1.10332E-18
 -1       446 1.37117E-04-5.44837E-05-3.54228E-05 2.46454E-05 1.59560E-18-4.35693E-19
 -1       447 1.82734E-05-2.77029E-05 3.62270E-06-2.10626E-05-6.54968E-19 3.02380E-18
 -1       448 8.93526E-05-1.18553E-05-3.32863E-05-1.06808E-05-1.07350E-18-2.84288E-18
 -1       449 1.61708E-04-2.46685E-05-5.86002E-05-2.96107E-06 3.25589E-18-1.33503E-18
 -1       450 1.53962E-04-1.24258E-05-6.09186E-05 8.35109E-07 1.51100E-18-7.07061E-19
 -1       451 1.56327E-04-1.91648E-05-5.88340E-05 6.03490E-06 9.00396E-19-1.55071E-18
 -1       452 1.57726E-04-3.99500E-05-5.04946E-05-6.22691E-07 1.16282E-18-1.50200E-18
 -1       453 1.45227E-04-5.50978E-05-3.86190E-05-1.62379E-05 2.38704E-19-1.82430E-18
 -1       454 1.08650E-04-5.54034E-05-2.30133E-05-3.74755E-05 1.46928E-18-1.46918E-18
 -1       455 6.88564E-05-4.58107E-05-1.01536E-05-4.20849E-05 6.77520E-19-2.35377E-18
 -1       456 3.22138E-05-3.05224E-05-8.48041E-07-3.15061E-05-1.68496E-18-5.20152E-18
 -1       457 1.47505E-05-2.11802E-05 2.83815E-06-9.77176E-06-6.32707E-19-3.69825E-18
 -1       458 2.00517E-05-2.57136E-05 2.22416E-06 2.35743E-05-1.48877E-18-1.67501E-18
 -1       459 4.86044E-05-3.66552E-05-5.22775E-06 4.14983E-05-9.72394E-19-9.29195E-19
 -1       460 9.25854E-05-5.10427E-05-1.78560E-05 4.33000E-05-1.17791E-18-1.50653E-18
 -1       461 1.32341E-04-5.51972E-05-3.30544E-05 2.50585E-05-2.08137E-18 5.13355E-19
 -1       462 1.51222E-04-3.64343E-05-4.90902E-05 8.63580E-06-2.52530E-18-2.16512E-18
 -1       463 1.57529E-04-2.21322E-05-5.78604E-05 4.75761E-08-2.70786E-18-2.94079E-18
 -1       464 1.54318E-04-1.14377E-05-6.13200E-05-1.09246E-06-2.91877E-18-2.01579E-18
 -1       465 1.58505E-04-1.88349E-05-5.97621E-05 2.67695E-07-1.25403E-18-2.44755E-18
 -1       466 1.51692E-04-3.41531E-05-5.04777E-05-2.34232E-06-8.96320E-19-3.40338E-18
 -1       467 1.44466E-04-4.78315E-05-4.13374E-05-1.64341E-05-1.03566E-18-2.52469E-18
 -1       468 1.14927E-04-5.30738E-05-2.65339E-05-3.65161E-05-1.98417E-19-1.46770E-18
 -1       469 1.55883E-04-4.38681E-05-4.79743E-05 4.61504E-06 2.98706E-18-2.27651E-18
 -1       470 8.77912E-05-5.03159E-05-1.58941E-05 4.14145E-05-2.67170E-18 1.54732E-18
 -1       471 1.37699E-04-8.34296E-06-5.58865E-05 4.02817E-06-1.85098E-18-2.25748E-18
 -1       472 1.41967E-04-5.17342E-05-3.89509E-05 4.40219E-06-1.80937E-18-1.38606E-18
 -1       473 2.04326E-05-1.44182E-05-2.06115E-06 7.89904E-06-1.90404E-19-2.87261E-18
 -1       474 1.40645E-04-1.36359E-05-5.49146E-05-8.17949E-06 1.98206E-18-1.25731E-20
 -1       475 9.57846E-05-2.51336E-05-3.02651E-05 6.00793E-06 1.59762E-18 6.12193E-19
 -1       476 8.95815E-05-1.33814E-05-3.26761E-05-3.91260E-06 5.41609E-20-2.64703E-18
 -1       477 9.02806E-05-1.43482E-05-3.25626E-05-5.86790E-06-3.66257E-19-2.80415E-18
 -1       478 8.90896E-05-1.26967E-05-3.27575E-05 5.36996E-08 7.62051E-19-2.45438E-18
 -1       479 8.92240E-05-1.28819E-05-3.27361E-05 2.03831E-06 1.11450E-18-2.57808E-18
 -1       480 8.96146E-05-1.34229E-05-3.26728E-05 3.98577E-06 1.32385E-18-2.09845E-18
 -1       481 9.03314E-05-1.44151E-05-3.25567E-05 5.93749E-06 1.75355E-18-1.87007E-18
 -1       482 9.14649E-05-1.59969E-05-3.23665E-05 7.76645E-06 1.84866E-18-1.34259E-18
 -1       483 9.32375E-05-1.84741E-05-3.20607E-05 9.28723E-06 2.00964E-18-5.65057E-19
 -1       484 9.54686E-05-2.44256E-05-3.04384E-05-5.81899E-06-1.30265E-18-1.53868E-18
 -1       485 7.36759E-05-4.23298E-05-1.30766E-05-4.37318E-05 1.86855E-18 7.45468E-19
 -1       486 9.50815E-05-2.65518E-05-2.93514E-05 2.85604E-06 1.09628E-18 2.82146E-19
 -1       487 9.45704E-05-2.06741E-05-3.16875E-05-9.58252E-06-1.49321E-18-1.86851E-18
 -1       488 9.52617E-05-2.62058E-05-2.95882E-05-2.86513E-06-1.00771E-18-1.21376E-18
 -1       489 9.49167E-05-2.71294E-05-2.90477E-05-9.72556E-07-8.12445E-19-1.33582E-18
 -1       490 9.46583E-05-2.76493E-05-2.87164E-05 1.93091E-07-7.47470E-19-1.43722E-18
 -1       491 9.45283E-05-2.79611E-05-2.85281E-05 8.90043E-07-6.91709E-19-1.43646E-18
 -1       492 9.45111E-05-2.81547E-05-2.84382E-05 1.29523E-06-6.44603E-19-1.70522E-18
 -1       493 9.45803E-05-2.82744E-05-2.84167E-05 1.53060E-06-6.75219E-19-1.74645E-18
 -1       494 9.47138E-05-2.83443E-05-2.84440E-05 1.68180E-06-6.26726E-19-1.57467E-18
 -1       495 9.48972E-05-2.83801E-05-2.85072E-05 1.81024E-06-6.27932E-19-1.24329E-18
 -1       496 9.51237E-05-2.83935E-05-2.85984E-05 1.96031E-06-3.56581E-19-8.57318E-19
 -1       497 9.53936E-05-2.83957E-05-2.87130E-05 2.16362E-06 5.60398E-20-8.47950E-19
 -1       498 9.57133E-05-2.83991E-05-2.88484E-05 2.44081E-06-3.97049E-19-1.74841E-18
 -1       499 9.60943E-05-2.84198E-05-2.90026E-05 2.80140E-06-5.37027E-20-1.22076E-18
 -1       500 9.65537E-05-2.84800E-05-2.91736E-05 3.24168E-06 3.78774E-19-7.60660E-19
 -1       501 9.71148E-05-2.86107E-05-2.93580E-05 3.74048E-06-1.96821E-19-1.03864E-18
 -1       502 9.78081E-05-2.88553E-05-2.95505E-05 4.25277E-06-6.38876E-19-1.25475E-18
 -1       503 9.86735E-05-2.92714E-05-2.97435E-05 4.70127E-06-4.42072E-19-1.22434E-18
 -1       504 9.97593E-05-2.99289E-05-2.99280E-05 4.96724E-06-3.65198E-20-1.10557E-18
 -1       505 1.01117E-04-3.08982E-05-3.00959E-05 4.88324E-06 4.28375E-19-1.92739E-18
 -1       506 1.02783E-04-3.22184E-05-3.02457E-05 4.23493E-06 3.87257E-19-2.02455E-18
 -1       507 1.04732E-04-3.38339E-05-3.03906E-05 2.78631E-06 4.14858E-19-2.23781E-18
 -1       508 1.06801E-04-3.54942E-05-3.05673E-05 3.53664E-07 3.47842E-19-1.80032E-18
 -1       509 1.08595E-04-3.66516E-05-3.08395E-05-3.03479E-06 1.85217E-19-1.33750E-18
 -1       510 1.09459E-04-3.64735E-05-3.12824E-05-6.87971E-06-4.45718E-20-1.74304E-18
 -1       511 1.08723E-04-3.41965E-05-3.19403E-05-9.96716E-06-1.77501E-19-1.89215E-18
 -1       512 1.06306E-04-2.99173E-05-3.27431E-05-1.05370E-05 7.82632E-19-2.15499E-18
 -1       513 1.03312E-04-2.52664E-05-3.34620E-05-7.23569E-06 7.06161E-19-1.89390E-18
 -1       514 1.01764E-04-2.29602E-05-3.37752E-05-7.56959E-07-7.77837E-19-7.58357E-19
 -1       515 1.02825E-04-2.45404E-05-3.35552E-05 6.08753E-06-7.03026E-19 2.40811E-19
 -1       516 1.05664E-04-2.89020E-05-3.28991E-05 1.01535E-05 3.99377E-19 5.55528E-19
 -1       517 1.08341E-04-3.34604E-05-3.20910E-05 1.03231E-05 6.34146E-20 6.19407E-19
 -1       518 1.09443E-04-3.61974E-05-3.13917E-05 7.58661E-06-8.60549E-20 1.53384E-18
 -1       519 1.08852E-04-3.67530E-05-3.09063E-05 3.76970E-06-2.42717E-19 1.16023E-18
 -1       520 1.07185E-04-3.57934E-05-3.06039E-05 2.23520E-07 9.46285E-19 1.96912E-18
 -1       521 1.05127E-04-3.41776E-05-3.04131E-05-2.42034E-06 1.19566E-18 1.51184E-18
 -1       522 1.03130E-04-3.25191E-05-3.02661E-05-4.05814E-06-1.43449E-18-2.07808E-19
 -1       523 1.01399E-04-3.11221E-05-3.01210E-05-4.84442E-06-1.43332E-19 7.51945E-19
 -1       524 9.99798E-05-3.00723E-05-2.99612E-05-5.01031E-06 4.91853E-19 1.69907E-18
 -1       525 9.88452E-05-2.93419E-05-2.97870E-05-4.77381E-06 1.14218E-18 2.66297E-18
 -1       526 9.79451E-05-2.88610E-05-2.96067E-05-4.30692E-06-1.30535E-18 3.30854E-18
 -1       527 9.72298E-05-2.85555E-05-2.94308E-05-3.73048E-06 6.48674E-19 1.10408E-18
 -1       528 9.66577E-05-2.83612E-05-2.92688E-05-3.12078E-06 1.15084E-18-5.10397E-19
 -1       529 9.61934E-05-2.82255E-05-2.91277E-05-2.51695E-06 4.57705E-19-8.88423E-19
 -1       530 9.58164E-05-2.81234E-05-2.90101E-05-1.93596E-06-1.25102E-19-7.89860E-19
 -1       531 5.18633E-05-2.76902E-05-9.73511E-06 3.46829E-05-7.20507E-19 1.02814E-18
 -1       532 9.41501E-05-2.76568E-05-2.84936E-05-1.94940E-07 6.03807E-19-1.42231E-19
 -1       533 9.40047E-05-2.78965E-05-2.83306E-05-8.55552E-07 6.94111E-19-3.49367E-19
 -1       534 9.40206E-05-2.80601E-05-2.82682E-05-1.22744E-06 8.50536E-19-5.75148E-19
 -1       535 9.41505E-05-2.81774E-05-2.82740E-05-1.43467E-06 7.53469E-19-3.24789E-19
 -1       536 9.43602E-05-2.82628E-05-2.83273E-05-1.56272E-06 4.86484E-19 1.81373E-19
 -1       537 9.46295E-05-2.83247E-05-2.84161E-05-1.67338E-06 6.65624E-19-8.31139E-21
 -1       538 9.49496E-05-2.83688E-05-2.85342E-05-1.81371E-06 8.29878E-19-5.82918E-19
 -1       539 9.53213E-05-2.84002E-05-2.86797E-05-2.02161E-06 5.55971E-19-5.55003E-19
 -1       540 9.57523E-05-2.84240E-05-2.88538E-05-2.32922E-06 4.64447E-19-2.97304E-19
 -1       541 9.62560E-05-2.84460E-05-2.90597E-05-2.76466E-06 3.95005E-20-3.43507E-19
 -1       542 9.68501E-05-2.84745E-05-2.93015E-05-3.35203E-06-2.95048E-19-6.07972E-19
 -1       543 9.75565E-05-2.85230E-05-2.95829E-05-4.10918E-06 1.21245E-19-8.68305E-19
 -1       544 9.84017E-05-2.86148E-05-2.99053E-05-5.04202E-06 6.68179E-19-6.67136E-19
 -1       545 9.94209E-05-2.87926E-05-3.02657E-05-6.13346E-06-3.41794E-19-7.36929E-19
 -1       546 1.00666E-04-2.91325E-05-3.06541E-05-7.32442E-06-9.78540E-19-7.72830E-19
 -1       547 1.02221E-04-2.97652E-05-3.10511E-05-8.48379E-06-5.41497E-19-3.62264E-19
 -1       548 1.04227E-04-3.08967E-05-3.14292E-05-9.36513E-06-4.75511E-20-8.55932E-19
 -1       549 1.06899E-04-3.28052E-05-3.17619E-05-9.55260E-06 1.81053E-19 3.62555E-19
 -1       550 1.10498E-04-3.57492E-05-3.20501E-05-8.41615E-06-5.02198E-19 4.50760E-19
 -1       551 1.15146E-04-3.96643E-05-3.23728E-05-5.15892E-06-1.87159E-18-4.63861E-19
 -1       552 1.20442E-04-4.36002E-05-3.29653E-05 9.28072E-07-1.61362E-18 8.93355E-23
 -1       553 1.24650E-04-4.49907E-05-3.41725E-05 9.55334E-06-3.90931E-19-1.98457E-19
 -1       554 1.23909E-04-3.99237E-05-3.61888E-05 1.70483E-05 3.47383E-19-3.74058E-19
 -1       555 1.20329E-04-2.95359E-05-3.90703E-05 1.66703E-05 1.72907E-18 3.28715E-19
 -1       556 1.14326E-04-1.98168E-05-4.09434E-05 4.98132E-06 2.54909E-18 2.37442E-18
 -1       557 1.15516E-04-2.22885E-05-4.03474E-05-1.06710E-05 2.29857E-18 3.20580E-18
 -1       558 1.22463E-04-3.39101E-05-3.80713E-05-1.79463E-05 4.64525E-19 2.79093E-18
 -1       559 1.25269E-04-4.27220E-05-3.54525E-05-1.41850E-05-1.53394E-18 2.66782E-18
 -1       560 1.23192E-04-4.48961E-05-3.35918E-05-5.78567E-06-1.84649E-18 2.56187E-18
 -1       561 1.18355E-04-4.21974E-05-3.26665E-05 1.83388E-06-5.46945E-19 2.24279E-18
 -1       562 1.13213E-04-3.80777E-05-3.22216E-05 6.76269E-06 3.77340E-19 1.22446E-18
 -1       563 1.08947E-04-3.44776E-05-3.19280E-05 9.10724E-06 1.32365E-18 1.83022E-18
 -1       564 1.05726E-04-3.19446E-05-3.16260E-05 9.64413E-06 3.41567E-19 2.37026E-18
 -1       565 1.03335E-04-3.03633E-05-3.12739E-05 9.12211E-06 1.85690E-18 1.54076E-18
 -1       566 1.01523E-04-2.94462E-05-3.08871E-05 8.08395E-06 5.85254E-19-6.30425E-20
 -1       567 1.00102E-04-2.89368E-05-3.04955E-05 6.87017E-06 1.17588E-18 9.15213E-20
 -1       568 9.89600E-05-2.86582E-05-3.01252E-05 5.67123E-06 7.27718E-20-1.61360E-18
 -1       569 9.80286E-05-2.85015E-05-2.97934E-05 4.57892E-06 1.22152E-18-2.24938E-18
 -1       570 9.72653E-05-2.84027E-05-2.95091E-05 3.62420E-06 1.64187E-18-1.56469E-19
 -1       571 9.66406E-05-2.83251E-05-2.92750E-05 2.80251E-06 1.03872E-18 3.38843E-18
 -1       572 9.61302E-05-2.82465E-05-2.90897E-05 2.09335E-06 8.15498E-19 4.55430E-18
 -1       573 9.57104E-05-2.81642E-05-2.89454E-05 1.46236E-06-5.74255E-19 3.03092E-18
 -1       574 9.42268E-05-2.63410E-05-2.90947E-05 1.64761E-06-6.63661E-20-1.33081E-19
 -1       575 9.38994E-05-2.59504E-05-2.91219E-05 1.18010E-06 3.40070E-19-1.70313E-18
 -1       576 9.51387E-05-2.74381E-05-2.90143E-05 1.85491E-06-1.64144E-18 2.43741E-18
 -1       577 9.46583E-05-2.68550E-05-2.90588E-05 1.88705E-06-1.74080E-18 1.71108E-19
 -1       578 9.37143E-05-2.57289E-05-2.91377E-05 5.60261E-07-7.07543E-19-2.04551E-18
 -1       579 9.36837E-05-2.56942E-05-2.91395E-05-1.21779E-07-9.91544E-19 3.98565E-19
 -1       580 9.38021E-05-2.58423E-05-2.91267E-05-7.73480E-07-9.23699E-19-9.63381E-20
 -1       581 9.40438E-05-2.61434E-05-2.91010E-05-1.30385E-06 9.29892E-19 8.00192E-19
 -1       582 9.43865E-05-2.65703E-05-2.90644E-05-1.66632E-06 1.17881E-18 1.25370E-18
 -1       583 9.47937E-05-2.70788E-05-2.90203E-05-1.80834E-06-1.69273E-19-8.16665E-20
 -1       584 9.52086E-05-2.76081E-05-2.89710E-05-1.71616E-06-8.87756E-19-1.47302E-18
 -1       585 1.07712E-04-5.61042E-05-2.19798E-05-3.73814E-05 1.14498E-18-1.78674E-18
 -1       586 9.45079E-05-2.72707E-05-2.88074E-05 9.42973E-07 8.17873E-19-2.00177E-19
 -1       587 4.23690E-05-2.49492E-05-6.97537E-06-3.44417E-05 5.72488E-19 2.02912E-18
 -1       588 1.39296E-04-2.26577E-05-5.04553E-05 9.73938E-06 4.19070E-19-4.49992E-18
 -1       589 6.34552E-05-3.75971E-05-1.06693E-05-4.04927E-05-7.64024E-19-3.61916E-18
 -1       590 2.82729E-05-1.74339E-05-4.04334E-06-2.19307E-05-6.67038E-20 2.52501E-18
 -1       591 8.92028E-05-1.28558E-05-3.27382E-05-1.93084E-06 4.65601E-19-2.53991E-18
 -1       592 2.48846E-05-1.48544E-05-3.68989E-06 1.30627E-05-1.47254E-18-1.12020E-19
 -1       593 1.45129E-04-5.65685E-05-3.82880E-05 1.56102E-06 9.06133E-19-4.03971E-18
 -1       594 1.35816E-04-1.40758E-05-5.27560E-05 8.02255E-06 1.37590E-18-1.20001E-18
 -1       595 4.19601E-05-2.45007E-05-6.97420E-06 3.45575E-05 2.16787E-19-1.65224E-19
 -1       596 1.38714E-04-2.97957E-05-4.72006E-05 1.61931E-05 1.35070E-18-7.62753E-19
 -1       597 1.31572E-04-6.14624E-05-3.01613E-05-1.97326E-05 9.81235E-19-1.14733E-18
 -1       598 9.98087E-05-5.45835E-05-1.91836E-05-3.82808E-05 4.03135E-19-1.85926E-18
 -1       599 3.26533E-05-1.88700E-05-5.31888E-06-2.27211E-05-9.08310E-19-4.10282E-18
 -1       600 8.07023E-05-4.52552E-05-1.48337E-05 4.37941E-05 6.41204E-19-7.35357E-19
 -1       601 1.18713E-04-5.85756E-05-2.56345E-05 2.98466E-05-3.19570E-19 1.78883E-19
 -1       602 1.40618E-04-2.96806E-05-4.80040E-05-9.38959E-06-2.14945E-18-3.53080E-18
 -1       603 1.29902E-04-1.25025E-05-5.10086E-05-8.81927E-06-3.65241E-18-2.20639E-18
 -1       604 1.41621E-04-4.52235E-05-4.16692E-05 3.11485E-06-4.41264E-19-4.79786E-18
 -1       605 1.42933E-04-3.38067E-05-4.72776E-05-1.52018E-05 1.81112E-18-1.19029E-18
 -1       606 9.61168E-05-2.31741E-05-3.12643E-05 9.58374E-06 1.97458E-18 9.40719E-19
 -1       607 1.44916E-04-4.71212E-05-4.23120E-05 9.38314E-06 1.41656E-18-1.76781E-18
 -1       608 1.33868E-04-5.79128E-05-3.26437E-05-1.79397E-05 8.36445E-21-2.92115E-18
 -1       609 1.31076E-04-6.16382E-05-2.97885E-05 2.03292E-05-1.30515E-18-1.29114E-18
 -1       610 9.13521E-05-1.58172E-05-3.23935E-05-7.75489E-06-7.49662E-19-2.58481E-18
 -1       611 1.40123E-04-5.71348E-05-3.56142E-05 2.94982E-06 3.96120E-19-1.29337E-18
 -1       612 1.20946E-04-8.29589E-06-4.88575E-05-3.24511E-06-2.66524E-18-2.51653E-18
 -1       613 7.70200E-05-3.95411E-05-1.56792E-05 3.75984E-05-1.73271E-18 8.57462E-19
 -1       614 1.16000E-04-5.91711E-05-2.41583E-05 2.96052E-05-3.41931E-18-2.11686E-18
 -1       615 9.55951E-05-2.80618E-05-2.89413E-05-1.54631E-06 8.86708E-19 4.85573E-20
 -1       616 1.30988E-04-5.83501E-05-3.12193E-05 1.37537E-05-6.00970E-19-9.93040E-19
 -1       617 3.12583E-05-1.21382E-05-7.58358E-06-7.01197E-06-7.61866E-20-2.85265E-18
 -1       618 1.26507E-04-1.28553E-05-4.95043E-05-8.50771E-07 1.77888E-18-3.29317E-20
 -1       619 9.15876E-05-1.68056E-05-3.20550E-05 2.42336E-06 1.09168E-18-2.16368E-18
 -1       620 9.13284E-05-1.63975E-05-3.21186E-05 8.33423E-07 8.06571E-19-2.26809E-18
 -1       621 9.29173E-05-1.89723E-05-3.16963E-05 5.23756E-06 1.56863E-18-1.50193E-18
 -1       622 9.39974E-05-2.09131E-05-3.13302E-05 6.11799E-06 1.71461E-18-8.89123E-19
 -1       623 3.36786E-05-1.11078E-05-9.09727E-06-4.88292E-06-1.06944E-18-4.61209E-19
 -1       624 9.53205E-05-2.76239E-05-2.90120E-05-2.13603E-06 3.20979E-19-7.13606E-19
 -1       625 9.50359E-05-2.36300E-05-3.06015E-05-4.70772E-06-8.86310E-19-1.73758E-18
 -1       626 9.50268E-05-2.80192E-05-2.87172E-05-9.46294E-07 8.52960E-19-8.89131E-19
 -1       627 9.54221E-05-2.56657E-05-2.98937E-05-2.38024E-06-9.06980E-19-1.73894E-18
 -1       628 9.54856E-05-2.68809E-05-2.94012E-05-7.66914E-07-7.94065E-19-1.57264E-18
 -1       629 9.54369E-05-2.76116E-05-2.90677E-05 2.94085E-07-6.49117E-19-1.45917E-18
 -1       630 9.53688E-05-2.80436E-05-2.88536E-05 9.66931E-07-7.86765E-19-1.24868E-18
 -1       631 9.53155E-05-2.82838E-05-2.87279E-05 1.38602E-06-5.75038E-19-1.04777E-18
 -1       632 9.52855E-05-2.83942E-05-2.86677E-05 1.65578E-06-5.34459E-19-7.50312E-19
 -1       633 9.52788E-05-2.84138E-05-2.86564E-05 1.85555E-06-3.57296E-19-6.28494E-19
 -1       634 9.52936E-05-2.83689E-05-2.86820E-05 2.04490E-06-2.96580E-19-8.11275E-19
 -1       635 9.53296E-05-2.82797E-05-2.87356E-05 2.26801E-06-4.13636E-19-1.19742E-18
 -1       636 9.53894E-05-2.81642E-05-2.88106E-05 2.55666E-06-3.81028E-19-1.14701E-18
 -1       637 9.54799E-05-2.80428E-05-2.89014E-05 2.93140E-06 2.20391E-20-5.44210E-19
 -1       638 9.56149E-05-2.79419E-05-2.90024E-05 3.40117E-06 4.43502E-19-5.82310E-19
 -1       639 9.58174E-05-2.78988E-05-2.91077E-05 3.96120E-06-1.56307E-20-9.48620E-19
 -1       640 9.61252E-05-2.79672E-05-2.92103E-05 4.58896E-06-7.88702E-19-8.58637E-19
 -1       641 9.65962E-05-2.82229E-05-2.93026E-05 5.23798E-06-3.80541E-19-2.69345E-19
 -1       642 9.73159E-05-2.87671E-05-2.93780E-05 5.82916E-06-2.89166E-19-5.44597E-20
 -1       643 9.84019E-05-2.97232E-05-2.94340E-05 6.23893E-06-1.56818E-19-2.83603E-19
 -1       644 9.99981E-05-3.12155E-05-2.94792E-05 6.28447E-06 2.97654E-19-4.49097E-19
 -1       645 1.02243E-04-3.33132E-05-2.95433E-05 5.71008E-06 1.84435E-19-1.16283E-18
 -1       646 1.05188E-04-3.59170E-05-2.96907E-05 4.18953E-06 5.05209E-19-1.02148E-18
 -1       647 1.08633E-04-3.85680E-05-3.00322E-05 1.38854E-06 1.05202E-19-1.39294E-18
 -1       648 1.11915E-04-4.02469E-05-3.07203E-05-2.80606E-06-1.19642E-19-1.56604E-18
 -1       649 1.13819E-04-3.94018E-05-3.18961E-05-7.78938E-06 3.54474E-19-8.79005E-19
 -1       650 1.13030E-04-3.47276E-05-3.35823E-05-1.16591E-05 9.89033E-19 2.49659E-19
 -1       651 1.09464E-04-2.70133E-05-3.53546E-05-1.14579E-05 8.08282E-19 1.01626E-18
 -1       652 1.05725E-04-2.02631E-05-3.67025E-05-5.61452E-06 3.36203E-19 7.74691E-19
 -1       653 1.05368E-04-1.95277E-05-3.68681E-05 3.72473E-06-3.75451E-19 1.16757E-18
 -1       654 1.08619E-04-2.52290E-05-3.57963E-05 1.06634E-05 2.65932E-19 8.70182E-19
 -1       655 1.12474E-04-3.32521E-05-3.39793E-05 1.20600E-05-4.81168E-19 9.23533E-19
 -1       656 1.13910E-04-3.87954E-05-3.21936E-05 8.68985E-06-3.84570E-19-2.22932E-19
 -1       657 1.12453E-04-4.03352E-05-3.09150E-05 3.75654E-06 3.35391E-20 3.53759E-19
 -1       658 1.09346E-04-3.90407E-05-3.01363E-05-6.86253E-07 5.86763E-20 3.92227E-19
 -1       659 1.05862E-04-3.64832E-05-2.97373E-05-3.77992E-06-2.86772E-19-5.48292E-19
 -1       660 1.02786E-04-3.38111E-05-2.95629E-05-5.53643E-06-5.29562E-20-1.32329E-18
 -1       661 1.00397E-04-3.15847E-05-2.94922E-05-6.26931E-06 8.16273E-19 7.92061E-20
 -1       662 9.86795E-05-2.99582E-05-2.94524E-05-6.31344E-06 1.19295E-19 5.82878E-20
 -1       663 9.75019E-05-2.88823E-05-2.94084E-05-5.93720E-06-2.81924E-19-3.03001E-19
 -1       664 9.67164E-05-2.82342E-05-2.93493E-05-5.33250E-06 4.16846E-19-3.32621E-18
 -1       665 9.61970E-05-2.78836E-05-2.92769E-05-4.62763E-06-3.02546E-19-9.75601E-19
 -1       666 9.58493E-05-2.77196E-05-2.91980E-05-3.90212E-06 6.25406E-19 5.58075E-20
 -1       667 9.56016E-05-2.76526E-05-2.91205E-05-3.20564E-06 5.31543E-19-3.91587E-19
 -1       668 9.54529E-05-2.76373E-05-2.90635E-05-2.64707E-06 2.32902E-19 5.33872E-19
 -1       669 1.28217E-04-3.23006E-05-4.15103E-05 1.35160E-05-2.27561E-19-3.44288E-18
 -1       670 9.51179E-05-2.76407E-05-2.89180E-05-2.60641E-07 6.11833E-19-9.69085E-19
 -1       671 9.50075E-05-2.83477E-05-2.85684E-05-1.62437E-06 4.48803E-19-4.40654E-19
 -1       672 9.50635E-05-2.83812E-05-2.85781E-05-1.81457E-06 7.15680E-19-8.13209E-19
 -1       673 9.51513E-05-2.83557E-05-2.86265E-05-1.99822E-06 5.93425E-19-3.67315E-19
 -1       674 9.52650E-05-2.82824E-05-2.87066E-05-2.22591E-06 6.81695E-19 1.16860E-19
 -1       675 9.54008E-05-2.81677E-05-2.88138E-05-2.53873E-06 2.13286E-19 3.68968E-19
 -1       676 9.55569E-05-2.80163E-05-2.89454E-05-2.97106E-06 1.95616E-19 5.37565E-19
 -1       677 9.57327E-05-2.78330E-05-2.90991E-05-3.55190E-06-1.92865E-20 4.35778E-19
 -1       678 9.59294E-05-2.76264E-05-2.92717E-05-4.30460E-06 3.59133E-19 1.75689E-19
 -1       679 9.61525E-05-2.74153E-05-2.94576E-05-5.24465E-06 3.66417E-19-2.78630E-19
 -1       680 9.64179E-05-2.72392E-05-2.96467E-05-6.37491E-06 3.00892E-19-1.38918E-19
 -1       681 9.67661E-05-2.71758E-05-2.98230E-05-7.67742E-06-1.69905E-19-4.86855E-19
 -1       682 9.72871E-05-2.73690E-05-2.99636E-05-9.10029E-06-5.71914E-19-1.13568E-18
 -1       683 9.81635E-05-2.80647E-05-3.00417E-05-1.05369E-05-6.70397E-19-6.06750E-19
 -1       684 9.97316E-05-2.96468E-05-3.00370E-05-1.17896E-05-4.73066E-19 2.74010E-19
 -1       685 1.02542E-04-3.26322E-05-2.99638E-05-1.24978E-05 5.82604E-20 7.80235E-19
 -1       686 1.07340E-04-3.75051E-05-2.99312E-05-1.19942E-05-1.15009E-18 8.65812E-19
 -1       687 1.14709E-04-4.41082E-05-3.02507E-05-9.12258E-06-1.62486E-18 3.04120E-19
 -1       688 1.24189E-04-5.05457E-05-3.15778E-05-2.44441E-06-4.43597E-19-4.76324E-19
 -1       689 1.29689E-04-5.20304E-05-3.33322E-05-3.66266E-06-1.87209E-18-9.04912E-19
 -1       690 1.20406E-04-4.83576E-05-3.08781E-05 5.63423E-06-1.28572E-18 6.26297E-19
 -1       691 1.11513E-04-4.14043E-05-3.00461E-05 1.06678E-05 1.25292E-18 7.83084E-19
 -1       692 1.05192E-04-3.53869E-05-2.99168E-05 1.24411E-05 4.42230E-19 9.17914E-20
 -1       693 1.01251E-04-3.12768E-05-2.99909E-05 1.23687E-05 9.36273E-19 1.69662E-19
 -1       694 9.90004E-05-2.88925E-05-3.00467E-05 1.13897E-05 1.43532E-18-6.01341E-19
 -1       695 9.77522E-05-2.76981E-05-3.00225E-05 1.00247E-05 1.39677E-18 1.62814E-18
 -1       696 9.70443E-05-2.72196E-05-2.99235E-05 8.55703E-06 1.13347E-18 1.36740E-18
 -1       697 9.66068E-05-2.71257E-05-2.97761E-05 7.13877E-06 2.31925E-18 1.30056E-19
 -1       698 9.62989E-05-2.72116E-05-2.96074E-05 5.84519E-06 1.42429E-18-1.33236E-18
 -1       699 9.60529E-05-2.73599E-05-2.94387E-05 4.70692E-06-6.82615E-19-5.67993E-19
 -1       700 9.58352E-05-2.75022E-05-2.92845E-05 3.72417E-06-4.86938E-19 1.55722E-18
 -1       701 9.56301E-05-2.76034E-05-2.91529E-05 2.88156E-06 5.35827E-19 2.20889E-18
 -1       702 9.53541E-05-2.75217E-05-2.90702E-05 2.35301E-06-1.36317E-18 3.23424E-18
 -1       703 5.78562E-05-2.60481E-05-1.31502E-05-3.11604E-05-1.35544E-18-4.00191E-18
 -1       704 9.31080E-05-2.53790E-05-2.90271E-05 2.41694E-07 1.46980E-18-1.96552E-18
 -1       705 9.36299E-05-2.58506E-05-2.90484E-05 1.80829E-06-6.54813E-19-1.51662E-18
 -1       706 9.31867E-05-2.54693E-05-2.90221E-05-6.13197E-07 6.82017E-19-6.64242E-19
 -1       707 9.32558E-05-2.55065E-05-2.90357E-05 1.08704E-06 3.07034E-19-9.40705E-19
 -1       708 9.34626E-05-2.57491E-05-2.90203E-05-1.35870E-06 1.25154E-18 6.07438E-19
 -1       709 9.39039E-05-2.61886E-05-2.90211E-05-1.93554E-06 1.40276E-18 9.83599E-19
 -1       710 9.44585E-05-2.67376E-05-2.90237E-05-2.26959E-06 1.42505E-18 7.33624E-19
 -1       711 9.72223E-05-4.95976E-05-2.01577E-05-3.69715E-05 2.68896E-18-3.07477E-18
 -1       712 9.52511E-05-2.70040E-05-2.92471E-05 8.45641E-07 8.19684E-19-7.14090E-19
 -1       713 6.71559E-05-3.22177E-05-1.45505E-05-3.72924E-05 1.76477E-18-2.65307E-19
 -1       714 1.19125E-04-5.87337E-05-2.58033E-05-2.42471E-05 1.20093E-19-1.62540E-18
 -1       715 1.01938E-04-5.01021E-05-2.19814E-05 3.29705E-05 6.44063E-19 3.03066E-19
 -1       716 1.34779E-04-4.89853E-05-3.69688E-05-1.18920E-05-1.05409E-18-1.38623E-18
 -1       717 4.38658E-05-1.83530E-05-1.04189E-05-2.55676E-05 1.07620E-18 1.51614E-18
 -1       718 9.49920E-05-2.82372E-05-2.86090E-05-1.36322E-06 6.03780E-19-5.57401E-19
 -1       719 9.21097E-05-1.76403E-05-3.19213E-05 3.92320E-06 1.34136E-18-1.66645E-18
 -1       720 9.20701E-05-1.75848E-05-3.19280E-05-3.87288E-06-1.66489E-19-2.32771E-18
 -1       721 4.49732E-05-1.66136E-05-1.16045E-05 2.03820E-05-1.15783E-18 1.64647E-18
 -1       722 9.53376E-05-2.59051E-05-2.97530E-05 2.56474E-06 1.20476E-18-4.77850E-19
 -1       723 1.33683E-04-4.16763E-05-3.97436E-05-9.33103E-06-5.29951E-19-2.59661E-18
 -1       724 4.03590E-05-1.37456E-05-1.08389E-05 1.77568E-05 1.81622E-19-1.12952E-18
 -1       725 8.85152E-05-4.46051E-05-1.84927E-05-3.61898E-05-7.53356E-19-2.31563E-18
 -1       726 7.18819E-05-3.40640E-05-1.57807E-05 3.75113E-05 4.28175E-19-3.88073E-19
 -1       727 1.22762E-04-1.35343E-05-4.73693E-05 9.65239E-06-1.07838E-19-4.18437E-18
 -1       728 1.25160E-04-2.34756E-05-4.39816E-05-1.33565E-05-2.70219E-18-1.55731E-18
 -1       729 1.22770E-04-5.85724E-05-2.74756E-05-2.24259E-05 1.67915E-18-2.65423E-18
 -1       730 1.34080E-04-5.34106E-05-3.47367E-05-2.82938E-06 1.03987E-19-4.32960E-18
 -1       731 1.35632E-04-5.95176E-05-3.26476E-05 6.36441E-06-1.51538E-18-4.83644E-18
 -1       732 9.53007E-05-2.42547E-05-3.04386E-05 4.94268E-06 1.50389E-18-2.96833E-19
 -1       733 9.28735E-05-1.88779E-05-3.17189E-05-5.26165E-06-6.03867E-19-2.38720E-18
 -1       734 9.13221E-05-1.63891E-05-3.21194E-05-7.79404E-07 5.93673E-19-2.39070E-18
 -1       735 4.89289E-05-1.70410E-05-1.32144E-05-2.02669E-05-2.10402E-19-3.35081E-18
 -1       736 9.46691E-05-2.68382E-05-2.90707E-05 2.40781E-06-1.27479E-18 9.18925E-19
 -1       737 1.17754E-04-1.66073E-05-4.36894E-05-1.08538E-05-2.34877E-18-2.75108E-18
 -1       738 1.31260E-04-5.15246E-05-3.42949E-05-1.64259E-06 2.90538E-19-1.49132E-18
 -1       739 1.16398E-04-5.51632E-05-2.61835E-05 2.27491E-05 4.00117E-19-3.88985E-19
 -1       740 9.15635E-05-1.67731E-05-3.20585E-05-2.36210E-06 2.16698E-19-2.18452E-18
 -1       741 9.41122E-05-2.63008E-05-2.90623E-05 2.21660E-06 2.64396E-20-2.01031E-19
 -1       742 6.16473E-05-2.53804E-05-1.51629E-05 2.88218E-05-1.87141E-19 7.85676E-19
 -1       743 1.28566E-04-4.32556E-05-3.66322E-05 9.86972E-06-4.45361E-19-2.99244E-18
 -1       744 9.40875E-05-2.08872E-05-3.13784E-05-6.97186E-06-9.50731E-19-1.96841E-18
 -1       745 9.46456E-05-2.26823E-05-3.08425E-05 3.85902E-06 1.33598E-18-1.14135E-18
 -1       746 9.55057E-05-2.55484E-05-2.99824E-05 1.96917E-06 1.17789E-18-9.77666E-19
 -1       747 9.55758E-05-2.54222E-05-3.00656E-05-1.71559E-06-5.96429E-19-1.56003E-18
 -1       748 9.58642E-05-2.67620E-05-2.96150E-05-4.45976E-07-5.94504E-19-1.19223E-18
 -1       749 9.59416E-05-2.75959E-05-2.92910E-05 4.29843E-07-6.56543E-19-9.83473E-19
 -1       750 9.59080E-05-2.80831E-05-2.90678E-05 1.01065E-06-6.83619E-19-7.91319E-19
 -1       751 9.58161E-05-2.83296E-05-2.89228E-05 1.39453E-06-4.05240E-19-9.14195E-19
 -1       752 9.56928E-05-2.84040E-05-2.88381E-05 1.66554E-06-2.69571E-19-8.93994E-19
 -1       753 9.55517E-05-2.83534E-05-2.87993E-05 1.89086E-06-4.15750E-19-6.33001E-19
 -1       754 9.53992E-05-2.82116E-05-2.87947E-05 2.12291E-06-2.91011E-19-5.62525E-19
 -1       755 9.52397E-05-2.80055E-05-2.88146E-05 2.40189E-06-3.39456E-19-4.82921E-19
 -1       756 9.50779E-05-2.77603E-05-2.88504E-05 2.75769E-06 1.22540E-19-4.03091E-19
 -1       757 9.49230E-05-2.75048E-05-2.88934E-05 3.21094E-06-9.22357E-20-7.88541E-19
 -1       758 9.47929E-05-2.72774E-05-2.89351E-05 3.77293E-06-4.31275E-19-1.23768E-18
 -1       759 9.47205E-05-2.71329E-05-2.89660E-05 4.44448E-06-5.11642E-19-1.66529E-18
 -1       760 9.47615E-05-2.71499E-05-2.89762E-05 5.21332E-06-5.31390E-19-1.45592E-18
 -1       761 9.50060E-05-2.74394E-05-2.89570E-05 6.04920E-06-1.94414E-19-1.28609E-18
 -1       762 9.55913E-05-2.81496E-05-2.89035E-05 6.89504E-06-2.10670E-19-9.43015E-19
 -1       763 9.67134E-05-2.94636E-05-2.88213E-05 7.64992E-06 1.96969E-19 5.48889E-20
 -1       764 9.86287E-05-3.15747E-05-2.87378E-05 8.13602E-06 4.45901E-19 9.48067E-20
 -1       765 1.01615E-04-3.46064E-05-2.87191E-05 8.04911E-06 6.31582E-19 3.45825E-19
 -1       766 1.05863E-04-3.84486E-05-2.88940E-05 6.89568E-06-2.08145E-19 2.66684E-19
 -1       767 1.11207E-04-4.24136E-05-2.94850E-05 3.96849E-06-9.07686E-20 6.74558E-20
 -1       768 1.16642E-04-4.47236E-05-3.08348E-05-1.40627E-06 6.26194E-19 3.82650E-19
 -1       769 1.19889E-04-4.26906E-05-3.31463E-05-8.27545E-06 1.04926E-18 1.09491E-18
 -1       770 1.18431E-04-3.37615E-05-3.63622E-05-1.32942E-05 5.03528E-19 6.44549E-19
 -1       771 1.12293E-04-1.86338E-05-4.03725E-05 1.01357E-05-9.46030E-20-3.12632E-18
 -1       772 1.19859E-04-4.12179E-05-3.37947E-05 9.63058E-06-9.86671E-19-3.29267E-18
 -1       773 1.17540E-04-4.46428E-05-3.12564E-05 2.84971E-06 3.31187E-20-2.52157E-18
 -1       774 1.12371E-04-4.30735E-05-2.97057E-05-3.04102E-06-9.34276E-20-3.78769E-18
 -1       775 1.06925E-04-3.92834E-05-2.89927E-05-6.43405E-06-7.20239E-20-2.86618E-18
 -1       776 1.02440E-04-3.53500E-05-2.87543E-05-7.90765E-06-1.86818E-19-1.61689E-18
 -1       777 9.92105E-05-3.21308E-05-2.87487E-05-8.18035E-06 4.56987E-19-1.58702E-18
 -1       778 9.70988E-05-2.98276E-05-2.88305E-05-7.78485E-06-2.30117E-20-1.74826E-18
 -1       779 9.58316E-05-2.83445E-05-2.89229E-05-7.05881E-06 2.84538E-19-1.70896E-18
 -1       780 9.51426E-05-2.74905E-05-2.89936E-05-6.19789E-06-1.44939E-18-6.28254E-19
 -1       781 9.48211E-05-2.70738E-05-2.90344E-05-5.31139E-06-2.92649E-19-1.50512E-18
 -1       782 9.47169E-05-2.69346E-05-2.90492E-05-4.46081E-06 1.00244E-18-1.80703E-18
 -1       783 9.47086E-05-2.69359E-05-2.90438E-05-3.67954E-06 3.04373E-19-1.26141E-18
 -1       784 9.57313E-05-2.76087E-05-2.91953E-05-3.90583E-07 5.24425E-19-8.86286E-19
 -1       785 9.54465E-05-2.83538E-05-2.87540E-05-1.91988E-06 3.85551E-19-4.44611E-19
 -1       786 9.55356E-05-2.83924E-05-2.87757E-05-1.69220E-06 5.97982E-19-1.04261E-18
 -1       787 9.52411E-05-2.80062E-05-2.88149E-05-2.44640E-06 6.70901E-20 3.86508E-19
 -1       788 9.51100E-05-2.77192E-05-2.88817E-05-2.83050E-06 2.54409E-19-8.77546E-21
 -1       789 9.49455E-05-2.73642E-05-2.89632E-05-3.33898E-06 2.27726E-19 1.15184E-20
 -1       790 9.47341E-05-2.69466E-05-2.90515E-05-3.99727E-06 3.36441E-19-6.80446E-19
 -1       791 9.44625E-05-2.64783E-05-2.91358E-05-4.82553E-06 4.54202E-19-4.40449E-19
 -1       792 9.41230E-05-2.59868E-05-2.92008E-05-5.83864E-06 4.10050E-19-3.63675E-19
 -1       793 9.37242E-05-2.55305E-05-2.92254E-05-7.04673E-06-1.79115E-19-1.07077E-19
 -1       794 9.33122E-05-2.52226E-05-2.91806E-05-8.45678E-06-1.81424E-19 3.42159E-19
 -1       795 9.30075E-05-2.52664E-05-2.90312E-05-1.00760E-05-9.21345E-19 9.68571E-19
 -1       796 9.30676E-05-2.60039E-05-2.87407E-05-1.19144E-05-8.78949E-19 9.00421E-19
 -1       797 9.39873E-05-2.79741E-05-2.82893E-05-1.39669E-05-7.46589E-19 1.21602E-18
 -1       798 9.66135E-05-3.19309E-05-2.77153E-05-1.61280E-05-2.98717E-19 8.04254E-19
 -1       799 1.02310E-04-3.87409E-05-2.72185E-05-1.78287E-05-2.21333E-19-1.26298E-18
 -1       800 1.12577E-04-4.83561E-05-2.74342E-05-1.76483E-05-6.54479E-19-1.88820E-18
 -1       801 9.53413E-05-3.01252E-05-2.79444E-05 1.53250E-05 4.66925E-19-6.20544E-19
 -1       802 9.34990E-05-2.70257E-05-2.84880E-05 1.31949E-05 1.33165E-18 3.07714E-19
 -1       803 9.29914E-05-2.55976E-05-2.88828E-05 1.12125E-05 3.32530E-19 1.01296E-19
 -1       804 9.31150E-05-2.51622E-05-2.91221E-05 9.44407E-06 8.47776E-19-1.28004E-18
 -1       805 9.34805E-05-2.52593E-05-2.92371E-05 7.88036E-06 2.12989E-18-1.17041E-18
 -1       806 9.38879E-05-2.55990E-05-2.92661E-05 6.50569E-06 1.37734E-18-4.05976E-19
 -1       807 9.42507E-05-2.60170E-05-2.92425E-05 5.30601E-06-7.26564E-19 2.40316E-18
 -1       808 9.45361E-05-2.64180E-05-2.91931E-05 4.27631E-06-4.37443E-19 1.59921E-18
 -1       809 9.47313E-05-2.67476E-05-2.91357E-05 3.38813E-06-1.08762E-19-2.13970E-19
 -1       810 9.46859E-05-2.67984E-05-2.90951E-05 2.87225E-06-1.57193E-18 4.63506E-19
 -1       811 9.26683E-05-2.52047E-05-2.89131E-05-1.28411E-06 9.89870E-19 2.34642E-18
 -1       812 6.16599E-05-2.18866E-05-1.68136E-05 2.56390E-05-7.35860E-20-3.71080E-19
 -1       813 4.55580E-05-1.13178E-05-1.42945E-05-5.68600E-07-1.72072E-19-2.06883E-18
 -1       814 9.23960E-05-2.49477E-05-2.89067E-05-2.86544E-07 4.48796E-19-2.49973E-18
 -1       815 1.04791E-04-4.86166E-05-2.39054E-05-2.62403E-05-1.34154E-18-1.10751E-18
 -1       816 9.57018E-05-2.68237E-05-2.95188E-05 5.60910E-07 6.60785E-19-9.54916E-19
 -1       817 1.11101E-04-1.31615E-05-4.23375E-05 2.92358E-06-6.19750E-19-3.77491E-18
 -1       818 9.31948E-05-2.56709E-05-2.89389E-05-2.09667E-06 1.45838E-18 4.00490E-19
 -1       819 9.38906E-05-2.62730E-05-2.89788E-05-2.64459E-06 9.87064E-19 2.96144E-19
 -1       820 9.96378E-05-3.57572E-05-2.73605E-05 1.73964E-05 4.40762E-19-1.72339E-18
 -1       821 9.52213E-05-2.44307E-05-3.03379E-05 3.39271E-06 1.32155E-18-7.92447E-19
 -1       822 1.08188E-04-4.46125E-05-2.71740E-05 1.82332E-05-6.08759E-19-2.85514E-18
 -1       823 8.91451E-05-3.91099E-05-2.12458E-05 3.04424E-05-2.19964E-20-2.47241E-19
 -1       824 9.53503E-05-2.82203E-05-2.87699E-05-2.15557E-06 2.69191E-19-2.34052E-19
 -1       825 9.46956E-05-2.69675E-05-2.90270E-05-2.80755E-06 8.03359E-19-1.81150E-18
 -1       826 8.74885E-05-4.01361E-05-2.00733E-05-3.33778E-05 3.93169E-19-2.20058E-18
 -1       827 4.67332E-05-1.20854E-05-1.44730E-05 5.67932E-06 5.80808E-19 1.61794E-18
 -1       828 9.49390E-05-2.33756E-05-3.06698E-05-3.46840E-06-8.52697E-19-1.98836E-18
 -1       829 9.32178E-05-1.96919E-05-3.15121E-05 1.21263E-06 8.20957E-19-2.07881E-18
 -1       830 1.10681E-04-5.21258E-05-2.49873E-05-2.53324E-05 7.77947E-19-2.84886E-19
 -1       831 7.89161E-05-3.37179E-05-1.91098E-05-3.03873E-05-1.12929E-18-3.14793E-18
 -1       832 1.25487E-04-5.46681E-05-3.03877E-05-8.06498E-06-2.91091E-19-3.01484E-18
 -1       833 1.02339E-04-4.71280E-05-2.34903E-05 2.73617E-05-2.86214E-18-4.02657E-18
 -1       834 1.23560E-04-3.49198E-05-3.83020E-05-1.36382E-05-2.88607E-19 5.85829E-19
 -1       835 9.31055E-05-1.94886E-05-3.15511E-05 1.90065E-08 5.69899E-19-1.99072E-18
 -1       836 9.56883E-05-2.80685E-05-2.89797E-05-1.01001E-06 7.31520E-19-9.12521E-19
 -1       837 9.40476E-05-2.12928E-05-3.11799E-05 3.27144E-06 1.30428E-18-1.49819E-18
 -1       838 1.18731E-04-3.31364E-05-3.68235E-05 1.34371E-05-4.43988E-19-3.59474E-18
 -1       839 1.10052E-04-1.39522E-05-4.14586E-05-1.16863E-06-8.28742E-19-3.06339E-18
 -1       840 9.56178E-05-2.83097E-05-2.88462E-05-1.41318E-06 4.76008E-19-1.01263E-18
 -1       841 6.74066E-05-2.44484E-05-1.81496E-05-2.52480E-05-6.43891E-19-3.09996E-18
 -1       842 6.26621E-05-2.25258E-05-1.69593E-05-2.62737E-05 1.08260E-18 1.31454E-18
 -1       843 1.21377E-04-5.48792E-05-2.84568E-05 1.46405E-05-3.71399E-18-2.74107E-18
 -1       844 9.27747E-05-2.52034E-05-2.89590E-05 1.76774E-06-1.27029E-19 1.74406E-19
 -1       845 5.66756E-05-1.47115E-05-1.77894E-05 1.23178E-05-2.32381E-19-1.46893E-18
 -1       846 9.24253E-05-2.49416E-05-2.89219E-05 7.74487E-07 4.25877E-19-1.73169E-18
 -1       847 9.33332E-05-2.56478E-05-2.90075E-05 2.42455E-06-7.60999E-19-1.72042E-18
 -1       848 1.23475E-04-5.37313E-05-2.99035E-05 8.62613E-06 1.21752E-18-5.49525E-19
 -1       849 1.02572E-04-4.62888E-05-2.40273E-05 2.57797E-05-6.24356E-21-3.28593E-19
 -1       850 9.35462E-05-2.02962E-05-3.13931E-05 2.33482E-06 1.12652E-18-1.71281E-18
 -1       851 5.44856E-05-1.62626E-05-1.60898E-05 1.64029E-05 2.40481E-19 1.57072E-18
 -1       852 8.72085E-05-3.60066E-05-2.17877E-05 2.79222E-05-2.49966E-18-1.81606E-18
 -1       853 4.75807E-05-1.25562E-05-1.46487E-05-1.01877E-05-5.75142E-19-1.29347E-18
 -1       854 9.39959E-05-2.12187E-05-3.11904E-05-3.23994E-06-4.71180E-19-2.07977E-18
 -1       855 9.35288E-05-2.02649E-05-3.13986E-05-2.31134E-06-8.70308E-20-1.94247E-18
 -1       856 9.61622E-05-2.68046E-05-2.97260E-05-1.35361E-07-4.10765E-19-9.02057E-19
 -1       857 9.62716E-05-2.76321E-05-2.94170E-05 5.35477E-07-5.50219E-19-7.88450E-19
 -1       858 9.62284E-05-2.81080E-05-2.91945E-05 9.90277E-07-6.89327E-19-4.48048E-19
 -1       859 9.60767E-05-2.83146E-05-2.90409E-05 1.30919E-06-5.09760E-19-7.94823E-19
 -1       860 9.58514E-05-2.83214E-05-2.89414E-05 1.55600E-06-1.47724E-19-1.12895E-18
 -1       861 9.55723E-05-2.81789E-05-2.88829E-05 1.78368E-06-3.52010E-19-9.22193E-19
 -1       862 9.52498E-05-2.79247E-05-2.88536E-05 2.03540E-06-4.92687E-19-1.06528E-18
 -1       863 9.48897E-05-2.75902E-05-2.88427E-05 2.34600E-06-3.75816E-20-1.12520E-18
 -1       864 9.44975E-05-2.72062E-05-2.88392E-05 2.74355E-06-2.01142E-19-1.07637E-18
 -1       865 9.40835E-05-2.68089E-05-2.88320E-05 3.25073E-06-5.74580E-19-9.30221E-19
 -1       866 9.36685E-05-2.64473E-05-2.88090E-05 3.88600E-06-6.03687E-19-1.23679E-18
 -1       867 9.32918E-05-2.61911E-05-2.87575E-05 4.66430E-06-1.38735E-19-1.54886E-18
 -1       868 9.30231E-05-2.61400E-05-2.86641E-05 5.59716E-06-9.80549E-20-8.87519E-19
 -1       869 9.29766E-05-2.64349E-05-2.85177E-05 6.69063E-06 2.66037E-19-2.53316E-19
 -1       870 9.33320E-05-2.72669E-05-2.83134E-05 7.93773E-06 5.05743E-19-6.51469E-20
 -1       871 9.43601E-05-2.88833E-05-2.80611E-05 9.29828E-06 5.77316E-19-6.86051E-19
 -1       872 9.64595E-05-3.15826E-05-2.78039E-05 1.06343E-05 9.25296E-19-3.58477E-19
 -1       873 1.00099E-04-3.55971E-05-2.76434E-05 1.16129E-05 4.07870E-19-5.51192E-21
 -1       874 1.05791E-04-4.09327E-05-2.77824E-05 1.15540E-05-3.38397E-19-2.96627E-19
 -1       875 1.13579E-04-4.67487E-05-2.86129E-05 9.23496E-06 3.92481E-19-2.77820E-19
 -1       876 1.15333E-04-4.77198E-05-2.89662E-05-8.18698E-06-8.27300E-19-3.54332E-18
 -1       877 1.07324E-04-4.21646E-05-2.79097E-05-1.12299E-05 2.90099E-19-3.12728E-18
 -1       878 1.01188E-04-3.66276E-05-2.76670E-05-1.16821E-05 7.43956E-19-1.61440E-18
 -1       879 9.71667E-05-3.23264E-05-2.77869E-05-1.08752E-05 2.26219E-19-8.79687E-19
 -1       880 9.47893E-05-2.93606E-05-2.80403E-05-9.58563E-06 8.30211E-19 8.63873E-19
 -1       881 9.35684E-05-2.75229E-05-2.83048E-05-8.21505E-06-5.43857E-20 6.89086E-19
 -1       882 9.30833E-05-2.65122E-05-2.85302E-05-6.92741E-06-9.73157E-19-6.84920E-20
 -1       883 9.30383E-05-2.60656E-05-2.87025E-05-5.77281E-06-5.72886E-19-6.78968E-19
 -1       884 9.32342E-05-2.59762E-05-2.88247E-05-4.76098E-06 3.76561E-19 1.28127E-18
 -1       885 9.35339E-05-2.60887E-05-2.89076E-05-3.88524E-06 6.24716E-19 1.25629E-18
 -1       886 9.52582E-05-2.42489E-05-3.04318E-05 2.44407E-06 1.33764E-18-1.28790E-18
 -1       887 9.45015E-05-2.70962E-05-2.88880E-05-2.84097E-06 2.80311E-19-8.64719E-19
 -1       888 9.49173E-05-2.75677E-05-2.88641E-05-2.43900E-06 3.54319E-19-5.65338E-19
 -1       889 9.33653E-05-2.58727E-05-2.89253E-05-4.00092E-06 3.24766E-19-5.73700E-19
 -1       890 9.25918E-05-2.51431E-05-2.89065E-05-4.79361E-06 1.18418E-19-1.69413E-19
 -1       891 9.16482E-05-2.43735E-05-2.88319E-05-5.75068E-06 1.32158E-19 2.38947E-19
 -1       892 9.05244E-05-2.36316E-05-2.86682E-05-6.89952E-06-1.72333E-19-3.00082E-19
 -1       893 8.92434E-05-2.30418E-05-2.83720E-05-8.29372E-06-7.72838E-19-2.35313E-19
 -1       894 8.78947E-05-2.28196E-05-2.78890E-05-1.00397E-05-3.56779E-19-5.97035E-19
 -1       895 8.66907E-05-2.33197E-05-2.71569E-05-1.23392E-05-3.00333E-19-1.96111E-18
 -1       896 8.60868E-05-2.51332E-05-2.61143E-05-1.55369E-05-1.75773E-19-3.39280E-18
 -1       897 8.70109E-05-2.91959E-05-2.47283E-05-1.99679E-05-6.71009E-20-2.56956E-18
 -1       898 9.16592E-05-2.45160E-05-2.87758E-05-1.05995E-06 1.57483E-18 2.33070E-19
 -1       899 8.84502E-05-2.28218E-05-2.81269E-05 9.33557E-06 8.39529E-19-7.88096E-20
 -1       900 8.71590E-05-2.30114E-05-2.74926E-05 1.14002E-05 6.64985E-19 4.87886E-19
 -1       901 7.87990E-05-2.79730E-05-2.17171E-05 2.32445E-05 4.68192E-19 2.03817E-21
 -1       902 8.62210E-05-2.42240E-05-2.65713E-05 1.42089E-05 1.02450E-18-3.71458E-19
 -1       903 8.97841E-05-2.31894E-05-2.85405E-05 7.72060E-06 1.31334E-18 7.79786E-19
 -1       904 9.09978E-05-2.38104E-05-2.87942E-05 6.40274E-06 1.62778E-18 1.02219E-18
 -1       905 9.20307E-05-2.45072E-05-2.89381E-05 5.28290E-06-1.15098E-18 9.09532E-19
 -1       906 9.28599E-05-2.51734E-05-2.90092E-05 4.31315E-06-3.34007E-20-3.74156E-20
 -1       907 9.35189E-05-2.57516E-05-2.90423E-05 3.49097E-06-5.08575E-19 6.74227E-19
 -1       908 9.30831E-05-2.56806E-05-2.88858E-05-2.94072E-06 1.17023E-18-1.72131E-18
 -1       909 9.96780E-05-4.28600E-05-2.42749E-05-2.41154E-05-6.46127E-19-5.83083E-19
 -1       910 9.39928E-05-2.65289E-05-2.89130E-05-3.35534E-06 3.97943E-19-9.44455E-19
 -1       911 9.57869E-05-2.83321E-05-2.89092E-05-1.63642E-06 1.06265E-20-9.67000E-19
 -1       912 9.32151E-05-1.96824E-05-3.15143E-05-1.18698E-06 2.80386E-19-2.06914E-18
 -1       913 9.22331E-05-2.50011E-05-2.88140E-05-2.15185E-06 1.35020E-18 2.19678E-18
 -1       914 9.40875E-05-3.85663E-05-2.37187E-05-2.47843E-05-4.66656E-19-1.11581E-18
 -1       915 8.65135E-05-2.74097E-05-2.53121E-05 1.81407E-05-8.77265E-19-1.85286E-19
 -1       916 9.52311E-05-2.39024E-05-3.05714E-05-1.87131E-06-2.20732E-19-1.60117E-18
 -1       917 9.58294E-05-2.55778E-05-3.01065E-05-9.15870E-07-2.87799E-19-1.16014E-18
 -1       918 5.54281E-05-1.28053E-05-1.80708E-05-1.48766E-06 1.39044E-18 4.11023E-19
 -1       919 1.14660E-04-5.00878E-05-2.76333E-05-1.45294E-05-5.68819E-19-2.69921E-18
 -1       920 8.04170E-05-2.99367E-05-2.15035E-05-2.53236E-05-4.64273E-19 4.15890E-19
 -1       921 9.39996E-05-2.62010E-05-2.90565E-05 2.76641E-06-5.53083E-19 2.59985E-18
 -1       922 8.61523E-05-3.06910E-05-2.37007E-05 2.24596E-05-1.58018E-18-8.77650E-19
 -1       923 5.57229E-05-1.46635E-05-1.73736E-05-1.20379E-05 3.39759E-19-3.83736E-18
 -1       924 6.09997E-05-1.70911E-05-1.86773E-05-1.62981E-05 8.88855E-20 1.06120E-18
 -1       925 5.78034E-05-1.38084E-05-1.87348E-05 7.89091E-06-5.96136E-19 4.33707E-19
 -1       926 8.39441E-05-3.12561E-05-2.24232E-05-2.42250E-05-5.37446E-19-1.99954E-18
 -1       927 9.58023E-05-2.60168E-05-2.99088E-05 1.00558E-06 8.52179E-19-1.17918E-18
 -1       928 9.59764E-05-2.83128E-05-2.89988E-05-1.37341E-06 4.61329E-19-1.23300E-18
 -1       929 9.55484E-05-2.81980E-05-2.88645E-05-1.87099E-06 1.03064E-19-1.88197E-19
 -1       930 9.52613E-05-2.79380E-05-2.88528E-05-2.12572E-06-6.77986E-20-2.76751E-19
 -1       931 9.14646E-05-2.43133E-05-2.87792E-05 1.99997E-07 1.97609E-18-3.27463E-18
 -1       932 9.60189E-05-2.71337E-05-2.95227E-05-1.27824E-08 5.87645E-19-1.26617E-18
 -1       933 9.57701E-05-3.84715E-05-2.45183E-05 2.20001E-05 9.31360E-19 4.77888E-19
 -1       934 9.60595E-05-2.78194E-05-2.92459E-05-7.05920E-07 7.78074E-19-1.37628E-18
 -1       935 7.09818E-05-2.03744E-05-2.16123E-05 1.63387E-05 3.90290E-19 1.19815E-19
 -1       936 5.79363E-05-1.31508E-05-1.90662E-05 1.08099E-06 4.99773E-19-1.87307E-18
 -1       937 9.23343E-05-2.48826E-05-2.89092E-05 2.58198E-06 5.82342E-19-2.62599E-19
 -1       938 9.33753E-05-2.59375E-05-2.89029E-05-3.39722E-06 5.14348E-19-6.11230E-20
 -1       939 9.46741E-05-2.24784E-05-3.09419E-05 1.17869E-06 8.75674E-19-1.68789E-18
 -1       940 9.45284E-05-2.21348E-05-3.10259E-05 4.13845E-07 6.28315E-19-1.84331E-18
 -1       941 6.67476E-05-2.18461E-05-1.90569E-05 2.16320E-05-1.79648E-18-1.86202E-18
 -1       942 9.17037E-05-2.44395E-05-2.88276E-05 1.47292E-06 1.06275E-18 9.17390E-19
 -1       943 1.10715E-04-4.80288E-05-2.68379E-05 1.67893E-05 7.85560E-19 8.25956E-20
 -1       944 9.63800E-05-2.69442E-05-2.97569E-05 1.01856E-07-3.08865E-19-7.54332E-19
 -1       945 9.64722E-05-2.77147E-05-2.94674E-05 5.54528E-07-6.77420E-19-6.62905E-19
 -1       946 9.63773E-05-2.81238E-05-2.92515E-05 8.74016E-07-5.80351E-19-9.02998E-19
 -1       947 9.61434E-05-2.82500E-05-2.90971E-05 1.11357E-06-3.48939E-19-8.14708E-19
 -1       948 9.58061E-05-2.81622E-05-2.89903E-05 1.31749E-06-2.45338E-19-1.21181E-18
 -1       949 9.53861E-05-2.79103E-05-2.89183E-05 1.52535E-06-2.72097E-19-6.99407E-19
 -1       950 9.48930E-05-2.75327E-05-2.88688E-05 1.77072E-06-3.81847E-19-9.12117E-19
 -1       951 9.43311E-05-2.70627E-05-2.88294E-05 2.08340E-06 7.27555E-20-1.04738E-18
 -1       952 9.37036E-05-2.65337E-05-2.87872E-05 2.49054E-06-1.53409E-19-7.23587E-19
 -1       953 9.30175E-05-2.59859E-05-2.87279E-05 3.01944E-06-5.79060E-19-8.41244E-19
 -1       954 9.22905E-05-2.54739E-05-2.86359E-05 3.70023E-06-3.84907E-19-1.08317E-19
 -1       955 9.15593E-05-2.50746E-05-2.84936E-05 4.56934E-06 1.04676E-19-4.03374E-19
 -1       956 9.08909E-05-2.48980E-05-2.82829E-05 5.67348E-06 6.11516E-19-2.71625E-19
 -1       957 9.04004E-05-2.50998E-05-2.79862E-05 7.07335E-06 3.29897E-19-9.24968E-20
 -1       958 9.02789E-05-2.58980E-05-2.75916E-05 8.84100E-06 2.53331E-19-1.48014E-19
 -1       959 9.08191E-05-2.75812E-05-2.71021E-05 1.10523E-05 5.64406E-19-4.13221E-19
 -1       960 9.26331E-05-3.06577E-05-2.65727E-05 1.37338E-05 5.28879E-19-1.46482E-18
 -1       961 9.63828E-05-3.55029E-05-2.60804E-05 1.64779E-05 1.19549E-19-1.47823E-18
 -1       962 1.02217E-04-4.13105E-05-2.61256E-05 1.77403E-05 1.96182E-20-4.56944E-19
 -1       963 9.45197E-05-2.21256E-05-3.10279E-05-3.93586E-07 3.32794E-19-1.89418E-18
 -1       964 7.40766E-05-2.19266E-05-2.22904E-05-1.68603E-05-1.18833E-18 1.72946E-18
 -1       965 9.75922E-05-3.68116E-05-2.60276E-05-1.70810E-05 7.86974E-19-1.00441E-18
 -1       966 9.33194E-05-3.15262E-05-2.64807E-05-1.42968E-05-3.69812E-20-2.40983E-18
 -1       967 9.12068E-05-2.81293E-05-2.70312E-05-1.15692E-05 6.16766E-19-1.64602E-18
 -1       968 9.04404E-05-2.61745E-05-2.75414E-05-9.27316E-06 2.26764E-19-1.28881E-18
 -1       969 9.04339E-05-2.51823E-05-2.79645E-05-7.41487E-06-1.50885E-18-2.37556E-18
 -1       970 9.08349E-05-2.48153E-05-2.82940E-05-5.92865E-06-1.83157E-20-7.79539E-19
 -1       971 9.14402E-05-2.48484E-05-2.85388E-05-4.74219E-06-3.23536E-19-5.02950E-19
 -1       972 9.21129E-05-2.51068E-05-2.87156E-05-3.78846E-06-3.55390E-19-2.81259E-18
 -1       973 9.43655E-05-2.70186E-05-2.88629E-05-2.17140E-06 6.86212E-19-1.07822E-18
 -1       974 9.05224E-05-2.37718E-05-2.86075E-05-4.11880E-06 8.26376E-20 1.18948E-19
 -1       975 9.17878E-05-2.47336E-05-2.87376E-05-3.49013E-06 6.92344E-20 5.23650E-19
 -1       976 8.70973E-05-2.17260E-05-2.80166E-05-5.76906E-06-5.50180E-19-8.14088E-20
 -1       977 8.48333E-05-2.07933E-05-2.74466E-05-6.92464E-06-8.95495E-20-6.59213E-19
 -1       978 8.21305E-05-2.01042E-05-2.65847E-05-8.51867E-06 1.49142E-19-1.50402E-18
 -1       979 7.89431E-05-1.98851E-05-2.53088E-05-1.09280E-05 6.23832E-19-2.03783E-18
 -1       980 7.53464E-05-2.05684E-05-2.34298E-05-1.48099E-05-6.25786E-19-1.95035E-18
 -1       981 8.58050E-05-2.10926E-05-2.77341E-05 6.44655E-06 1.05999E-18 2.97212E-19
 -1       982 8.02933E-05-1.99078E-05-2.58857E-05 9.95988E-06 1.16099E-19 5.38051E-19
 -1       983 8.32782E-05-2.03087E-05-2.69894E-05 7.85640E-06 7.35980E-19 6.97797E-19
 -1       984 8.96086E-05-2.29867E-05-2.85510E-05 4.49892E-06-9.04400E-20 3.19726E-18
 -1       985 9.10223E-05-2.39118E-05-2.87593E-05 3.77579E-06 2.10964E-20 2.16265E-18
 -1       986 9.50352E-05-2.32607E-05-3.07608E-05-1.24086E-06 3.20474E-20-1.60815E-18
 -1       987 9.51937E-05-2.37497E-05-3.06186E-05 1.80401E-06 1.10793E-18-1.27896E-18
 -1       988 9.60503E-05-2.81497E-05-2.91004E-05-1.09758E-06 5.68545E-19-1.37817E-18
 -1       989 7.66317E-05-2.00508E-05-2.42218E-05 1.33257E-05-1.40169E-18-1.54070E-18
 -1       990 6.93056E-05-2.07033E-05-2.07215E-05-1.84919E-05-3.34257E-19-2.87675E-18
 -1       991 8.89765E-05-2.27507E-05-2.83826E-05-4.86471E-06 6.75325E-20 8.69386E-20
 -1       992 1.05197E-04-4.33693E-05-2.64896E-05-1.69192E-05 1.43491E-20-9.21856E-19
 -1       993 9.21824E-05-3.49586E-05-2.45065E-05-2.07567E-05 2.53664E-19-6.85571E-19
 -1       994 6.47405E-05-1.51156E-05-2.12759E-05-6.58787E-06-1.13144E-18 1.93227E-18
 -1       995 8.78793E-05-2.20125E-05-2.82286E-05 5.37270E-06 1.34927E-18 3.99787E-19
 -1       996 8.42414E-05-2.72020E-05-2.44426E-05-1.71224E-05-1.34284E-18-2.71563E-18
 -1       997 9.36688E-05-2.63695E-05-2.88426E-05-2.52532E-06 2.24760E-19-7.34724E-19
 -1       998 9.61160E-05-2.82594E-05-2.90814E-05-1.22325E-06-1.24470E-19-1.15138E-18
 -1       999 9.49417E-05-2.75453E-05-2.88842E-05-1.88664E-06 3.70458E-19-9.67215E-19
 -1      1000 9.04585E-05-2.37125E-05-2.86053E-05-6.59784E-07 3.28850E-18-2.83411E-18
 -1      1001 9.60354E-05-2.60842E-05-2.99782E-05 5.31189E-07 7.51786E-19-1.26288E-18
 -1      1002 6.75573E-05-1.64844E-05-2.18625E-05 8.89895E-06 5.40740E-19-1.04000E-18
 -1      1003 9.58413E-05-2.51124E-05-3.03124E-05-6.29270E-07 8.32983E-20-1.38435E-18
 -1      1004 7.21952E-05-2.02378E-05-2.21754E-05 1.64614E-05-1.27932E-18-3.00393E-18
 -1      1005 8.19108E-05-2.62863E-05-2.38087E-05 1.78978E-05 9.14812E-19 9.94245E-19
 -1      1006 9.63100E-05-2.71981E-05-2.96196E-05-2.08529E-07 7.24144E-19-1.20493E-18
 -1      1007 9.58116E-05-2.81888E-05-2.89813E-05-1.44279E-06-1.68678E-19-1.01910E-18
 -1      1008 9.10023E-05-2.41822E-05-2.86360E-05-2.09486E-06 1.98057E-18 6.32067E-19
 -1      1009 6.40288E-05-1.41207E-05-2.13380E-05-7.16596E-08-7.01699E-19-1.14425E-18
 -1      1010 9.55512E-05-2.42812E-05-3.05441E-05 4.48514E-07 6.84756E-19-1.69831E-18
 -1      1011 6.45016E-05-1.53587E-05-2.09846E-05-8.31598E-06 3.48753E-19-3.85825E-18
 -1      1012 8.98910E-05-2.32154E-05-2.85771E-05 2.23845E-06 9.31448E-19 1.21844E-18
 -1      1013 9.20794E-05-2.49867E-05-2.87557E-05-2.93937E-06 1.11376E-18-2.55899E-20
 -1      1014 9.28220E-05-2.56049E-05-2.88074E-05-2.96191E-06-1.97209E-19-2.25510E-19
 -1      1015 8.99734E-05-2.33337E-05-2.85601E-05 6.77291E-07 1.25215E-18 1.91161E-19
 -1      1016 9.65596E-05-2.78258E-05-2.94573E-05 4.52263E-07-7.43973E-19-1.29171E-18
 -1      1017 9.63848E-05-2.81261E-05-2.92538E-05 6.42667E-07-4.46275E-19-1.11416E-18
 -1      1018 9.60548E-05-2.81433E-05-2.91050E-05 7.96681E-07-5.23562E-20-8.49588E-19
 -1      1019 9.56026E-05-2.79430E-05-2.89970E-05 9.43691E-07-3.67499E-20-8.61291E-19
 -1      1020 9.50464E-05-2.75739E-05-2.89169E-05 1.10935E-06-2.78198E-19-9.36166E-19
 -1      1021 9.43892E-05-2.70690E-05-2.88517E-05 1.31997E-06 9.96075E-20-5.89893E-19
 -1      1022 9.36319E-05-2.64625E-05-2.87871E-05 1.59911E-06-1.38632E-19-1.35701E-18
 -1      1023 9.27698E-05-2.57857E-05-2.87078E-05 1.97440E-06-1.90061E-19-1.11605E-18
 -1      1024 9.18009E-05-2.50777E-05-2.85960E-05 2.47901E-06-2.67629E-19-7.29960E-19
 -1      1025 9.07300E-05-2.43909E-05-2.84315E-05 3.15614E-06-3.97782E-19-4.69820E-19
 -1      1026 8.95744E-05-2.37977E-05-2.81906E-05 4.06546E-06 2.93281E-19-2.30705E-19
 -1      1027 8.83721E-05-2.34001E-05-2.78460E-05 5.29197E-06 2.79899E-19-9.01164E-19
 -1      1028 8.71928E-05-2.33396E-05-2.73671E-05 6.95870E-06 3.49114E-19-8.53034E-19
 -1      1029 8.61815E-05-2.38367E-05-2.67223E-05 9.24793E-06 6.85200E-19-5.94235E-19
 -1      1030 8.57091E-05-2.52209E-05-2.59215E-05 1.23779E-05 1.84187E-19 2.69703E-19
 -1      1031 9.02136E-05-2.36821E-05-2.85139E-05-2.43193E-06 1.12587E-19 1.85639E-19
 -1      1032 9.55103E-05-2.41425E-05-3.05862E-05 8.38484E-10 4.46428E-19-1.62623E-18
 -1      1033 7.35985E-05-1.83300E-05-2.36648E-05-9.28995E-06-9.77526E-19 6.43249E-19
 -1      1034 9.15984E-05-2.47129E-05-2.86655E-05-2.13239E-06-4.93979E-19-2.85022E-19
 -1      1035 8.57082E-05-2.56757E-05-2.57275E-05-1.31631E-05 1.64244E-19-4.19359E-18
 -1      1036 8.61328E-05-2.40530E-05-2.66089E-05-9.81656E-06 8.14222E-19-5.07465E-18
 -1      1037 8.70777E-05-2.33865E-05-2.72976E-05-7.37388E-06-3.09646E-19-3.49313E-18
 -1      1038 8.81999E-05-2.32882E-05-2.78218E-05-5.60553E-06 8.72363E-19-1.46614E-18
 -1      1039 8.93549E-05-2.35418E-05-2.82073E-05-4.27027E-06-4.72238E-19-1.11142E-18
 -1      1040 9.04971E-05-2.40258E-05-2.84870E-05-3.28942E-06-5.69644E-19-1.44601E-18
 -1      1041 9.54204E-05-2.79416E-05-2.89195E-05-1.65307E-06 1.05071E-19-9.35252E-19
 -1      1042 8.06346E-05-1.88500E-05-2.64820E-05-4.01752E-06 6.92574E-19-1.30598E-18
 -1      1043 8.38707E-05-2.00985E-05-2.73326E-05-3.49908E-06-3.08610E-20-5.52881E-19
 -1      1044 7.18830E-05-1.65166E-05-2.37159E-05-5.89277E-06 3.70653E-20-2.47032E-18
 -1      1045 8.85245E-05-2.25551E-05-2.82732E-05-2.75471E-06 2.94923E-19 5.71627E-19
 -1      1046 9.63210E-05-2.81101E-05-2.92333E-05-9.50270E-07 2.94995E-19-1.33206E-18
 -1      1047 9.56649E-05-2.47039E-05-3.04130E-05 8.25116E-07 9.04105E-19-1.22667E-18
 -1      1048 8.20302E-05-1.92942E-05-2.68878E-05 3.81939E-06 7.18410E-19 1.31670E-18
 -1      1049 7.28952E-05-1.64982E-05-2.41108E-05 5.74271E-06-1.97194E-18-2.21509E-18
 -1      1050 8.64499E-05-2.13527E-05-2.78997E-05-3.10154E-06 1.07056E-19 2.11049E-20
 -1      1051 9.56659E-05-2.45190E-05-3.04905E-05-3.87596E-07 1.92349E-19-1.77041E-18
 -1      1052 7.82585E-05-1.80713E-05-2.57951E-05 4.45032E-06-9.58076E-19-5.75400E-19
 -1      1053 9.64004E-05-2.65442E-05-2.99387E-05 7.31323E-10 2.89695E-20-1.56682E-18
 -1      1054 7.68384E-05-1.76823E-05-2.53516E-05-4.69329E-06 1.12504E-18-1.93339E-18
 -1      1055 9.61951E-05-2.59357E-05-3.01118E-05 2.15788E-07 8.18677E-19-1.32912E-18
 -1      1056 9.65597E-05-2.73184E-05-2.96752E-05 2.45622E-07-3.63967E-19-1.34182E-18
 -1      1057 7.61632E-05-2.11914E-05-2.35262E-05 1.34017E-05 5.19492E-19 6.35922E-19
 -1      1058 9.61623E-05-2.57122E-05-3.01927E-05 9.24190E-08 5.85884E-19-1.54685E-18
 -1      1059 9.27398E-05-2.56323E-05-2.87606E-05-1.86217E-06-4.06740E-19-6.45783E-20
 -1      1060 9.44718E-05-2.70965E-05-2.88751E-05-1.42595E-06 5.77632E-19-1.48235E-19
 -1      1061 6.78940E-05-1.51905E-05-2.25657E-05 6.92603E-07 8.52200E-19-2.31419E-18
 -1      1062 8.78400E-05-2.19884E-05-2.82255E-05 2.23617E-06 3.30082E-20 1.44579E-18
 -1      1063 9.63710E-05-2.77703E-05-2.94001E-05-6.50754E-07 6.28533E-19-1.36543E-18
 -1      1064 8.49754E-05-2.05131E-05-2.76283E-05 3.30548E-06 1.14339E-18 1.92462E-18
 -1      1065 9.63846E-05-2.81159E-05-2.92580E-05-7.65873E-07 1.56796E-19-9.26443E-19
 -1      1066 8.94204E-05-2.31789E-05-2.83895E-05-1.78655E-06 8.10998E-19-1.46927E-18
 -1      1067 8.84696E-05-2.24664E-05-2.82838E-05-2.66202E-07 3.22942E-20 1.81819E-19
 -1      1068 9.60841E-05-2.81597E-05-2.91103E-05-9.47791E-07-4.61481E-19-7.07826E-19
 -1      1069 7.98277E-05-2.22023E-05-2.47030E-05-1.22400E-05-4.71949E-19 1.37288E-18
 -1      1070 9.36851E-05-2.64297E-05-2.88239E-05-1.62637E-06 3.28789E-19-1.55736E-19
 -1      1071 9.65460E-05-2.79488E-05-2.93989E-05 2.17475E-07-3.71970E-19-8.97627E-19
 -1      1072 9.62757E-05-2.81103E-05-2.92139E-05 2.89744E-07 1.74565E-19-6.81085E-19
 -1      1073 9.58502E-05-2.80038E-05-2.90771E-05 3.59835E-07-2.77521E-19-8.33498E-19
 -1      1074 9.52932E-05-2.76860E-05-2.89739E-05 4.41738E-07-4.00998E-19-9.86473E-19
 -1      1075 9.46081E-05-2.71930E-05-2.88917E-05 5.46555E-07-1.83888E-19-1.19974E-18
 -1      1076 9.38024E-05-2.65675E-05-2.88146E-05 6.89601E-07-2.05968E-19-1.36369E-18
 -1      1077 9.28621E-05-2.58292E-05-2.87279E-05 8.95119E-07 1.97911E-19-6.87076E-19
 -1      1078 9.17717E-05-2.50060E-05-2.86133E-05 1.18931E-06 1.02777E-19-3.22935E-19
 -1      1079 9.05127E-05-2.41298E-05-2.84490E-05 1.60947E-06-1.80121E-19-1.26955E-19
 -1      1080 8.90651E-05-2.32420E-05-2.82087E-05 2.20836E-06-4.70663E-20-5.47874E-19
 -1      1081 8.74068E-05-2.23968E-05-2.78598E-05 3.06203E-06-1.11004E-20-6.75161E-19
 -1      1082 8.55118E-05-2.16662E-05-2.73611E-05 4.28358E-06 6.75234E-19-3.37825E-19
 -1      1083 8.33404E-05-2.11491E-05-2.66565E-05 6.02586E-06 1.14964E-18-4.12150E-19
 -1      1084 8.09961E-05-2.09944E-05-2.57134E-05 8.46474E-06 1.26763E-18 2.62638E-20
 -1      1085 8.20670E-05-2.15501E-05-2.59378E-05-8.62516E-06-3.95833E-19-9.69504E-19
 -1      1086 9.51239E-05-2.76196E-05-2.89307E-05-1.25407E-06 2.26278E-19-3.26320E-19
 -1      1087 8.42886E-05-2.16153E-05-2.68537E-05-6.18950E-06 7.38628E-19-2.35628E-18
 -1      1088 8.61340E-05-2.19096E-05-2.75267E-05-4.46197E-06 1.28758E-18-3.22566E-18
 -1      1089 8.78509E-05-2.25104E-05-2.80011E-05-3.23136E-06-2.03567E-19-3.39759E-18
 -1      1090 7.92784E-05-1.83460E-05-2.61037E-05-3.00021E-07-1.82273E-18 1.43809E-18
 -1      1091 8.14421E-05-1.91615E-05-2.66872E-05 3.58582E-08 9.61192E-19-9.39078E-19
 -1      1092 7.36984E-05-1.75541E-05-2.40658E-05 6.26335E-06 1.55056E-18-7.97027E-19
 -1      1093 8.44779E-05-2.04712E-05-2.74334E-05-4.33299E-07 3.65524E-19-8.28188E-20
 -1      1094 9.64995E-05-2.72358E-05-2.96826E-05-2.52390E-07 6.66263E-19-1.33887E-18
 -1      1095 8.88670E-05-2.28804E-05-2.82809E-05-8.32206E-07-8.84440E-20-6.80910E-19
 -1      1096 8.68950E-05-2.17057E-05-2.79397E-05-7.00494E-07 4.67114E-19-3.48923E-19
 -1      1097 9.63686E-05-2.62586E-05-3.00467E-05-9.73616E-09 3.25668E-19-1.42596E-18
 -1      1098 9.65360E-05-2.77876E-05-2.94645E-05-5.18735E-07 2.87175E-19-1.28039E-18
 -1      1099 9.39355E-05-2.66454E-05-2.88389E-05-7.45018E-07 4.71888E-19-2.73419E-19
 -1      1100 9.04957E-05-2.39789E-05-2.85078E-05-8.72294E-07-2.56430E-19-9.10982E-19
 -1      1101 9.65785E-05-2.71082E-05-2.97737E-05 6.80955E-08-1.28412E-19-1.05374E-18
 -1      1102 9.65778E-05-2.70962E-05-2.97783E-05-1.09997E-07 5.48380E-19-1.19928E-18
 -1      1103 9.18512E-05-2.49828E-05-2.86583E-05-8.55301E-07-7.75521E-20-5.56064E-19
 -1      1104 9.47324E-05-2.72766E-05-2.89098E-05-6.74761E-07-1.55281E-19-9.47123E-19
 -1      1105 8.63334E-05-2.12750E-05-2.78854E-05-1.20234E-07 6.97837E-19 9.40137E-19
 -1      1106 7.40550E-05-1.67812E-05-2.45201E-05-2.14548E-08 1.59077E-18-1.40473E-18
 -1      1107 8.28628E-05-1.96710E-05-2.70717E-05 3.00669E-07 8.22790E-19 2.45867E-18
 -1      1108 7.58489E-05-1.73863E-05-2.50744E-05-1.67770E-06-2.35993E-18 1.25120E-18
 -1      1109 9.63235E-05-2.81086E-05-2.92351E-05-4.53400E-07-3.99849E-19-5.68558E-19
 -1      1110 7.79828E-05-1.78687E-05-2.57705E-05 9.07320E-08 1.27939E-18-1.33183E-18
 -1      1111 7.85440E-05-1.90478E-05-2.54962E-05-5.36553E-06-2.14269E-18 8.15591E-19
 -1      1112 9.29848E-05-2.58764E-05-2.87611E-05-8.07061E-07 3.83843E-20 1.78579E-19
 -1      1113 9.65647E-05-2.79042E-05-2.94248E-05-3.41076E-07-1.10747E-19-8.06098E-19
 -1      1114 9.66171E-05-2.76216E-05-2.95690E-05 1.32487E-07-4.18879E-19-8.78379E-19
 -1      1115 9.56622E-05-2.79824E-05-2.90055E-05-1.10028E-06-3.26401E-19-4.89006E-19
 -1      1116 9.60784E-05-2.80681E-05-2.91470E-05-1.71396E-07-3.78543E-19-1.05850E-18
 -1      1117 9.55663E-05-2.78371E-05-2.90269E-05-1.84059E-07-2.87275E-19-1.29001E-18
 -1      1118 8.18958E-05-1.98270E-05-2.66041E-05-3.54536E-06-3.80779E-19-6.91123E-19
 -1      1119 9.64637E-05-2.80375E-05-2.93256E-05-8.41173E-08-2.18833E-19-3.86361E-19
 -1      1120 9.66188E-05-2.77637E-05-2.95088E-05-7.84783E-08-1.84599E-19-5.39935E-19
 -1      1121 1.16759E-04 2.57289E-10-4.18207E-05-4.14484E-05-2.94767E-19 5.54637E-18
 -1      1122 8.85912E-05 7.18391E-11-3.72271E-05-2.41726E-05-1.30549E-19-7.89276E-19
 -1      1123 8.40487E-05 4.14307E-11-3.57543E-05-1.78891E-05-7.70271E-20-3.15012E-18
 -1      1124 8.23316E-05 3.20303E-11-3.50712E-05-1.38473E-05-4.53957E-20-4.11814E-18
 -1      1125 8.15507E-05 2.73428E-11-3.47462E-05-1.05430E-05-2.03685E-20-4.46977E-18
 -1      1126 8.11659E-05 2.46237E-11-3.45881E-05-7.64758E-06-5.75718E-21-4.51705E-18
 -1      1127 8.09690E-05 2.29635E-11-3.45100E-05-4.98397E-06 1.44922E-21-4.43095E-18
 -1      1128 8.08742E-05 2.20643E-11-3.44739E-05-2.43422E-06 1.06392E-20-4.21218E-18
 -1      1129 8.08477E-05 2.17926E-11-3.44639E-05 5.21920E-08 1.76884E-20-4.05831E-18
 -1      1130 8.08787E-05 2.21094E-11-3.44754E-05 2.54119E-06 3.10292E-20-3.87999E-18
 -1      1131 8.09780E-05 2.30640E-11-3.45130E-05 5.09933E-06 3.28291E-20-3.63065E-18
 -1      1132 8.11817E-05 2.47844E-11-3.45925E-05 7.77911E-06 5.36278E-20-3.23403E-18
 -1      1133 8.15732E-05 2.76568E-11-3.47525E-05 1.07027E-05 6.84641E-20-2.63148E-18
 -1      1134 8.23553E-05 3.25046E-11-3.50810E-05 1.40543E-05 8.01770E-20-1.60500E-18
 -1      1135 8.40440E-05 4.19025E-11-3.57741E-05 1.81405E-05 1.00797E-19 2.15596E-19
 -1      1136 8.82890E-05 6.66638E-11-3.72972E-05 2.40155E-05 1.01962E-19 3.42964E-18
 -1      1137 1.06526E-04 1.63728E-10-4.05996E-05 3.61809E-05 1.78512E-19 9.69620E-18
 -1      1138 1.30098E-04-2.57288E-05-4.02357E-05-2.60935E-05-1.12687E-18 9.46813E-18
 -1      1139 9.73350E-05-2.88261E-05-3.15402E-05-6.82069E-07-3.97920E-19 6.76610E-18
 -1      1140 9.00291E-05-2.69875E-05-2.78539E-05 3.85883E-07-1.25546E-19 3.35009E-18
 -1      1141 8.81109E-05-2.65312E-05-2.66025E-05 2.49636E-07-8.02001E-20 1.05606E-18
 -1      1142 8.77483E-05-2.64034E-05-2.63450E-05 1.64490E-07-1.09092E-19-4.94535E-19
 -1      1143 8.81087E-05-2.64807E-05-2.64306E-05 1.16373E-07-6.53812E-20-1.18651E-18
 -1      1144 8.88061E-05-2.66690E-05-2.66371E-05 8.55534E-08-6.10790E-21-1.97134E-18
 -1      1145 8.96484E-05-2.69096E-05-2.68886E-05 6.42054E-08-6.58866E-20-2.61610E-18
 -1      1146 9.05342E-05-2.71687E-05-2.71538E-05 4.85489E-08-7.99007E-20-3.45872E-18
 -1      1147 9.14135E-05-2.74291E-05-2.74180E-05 3.67775E-08-9.05889E-20-4.34278E-18
 -1      1148 9.22687E-05-2.76842E-05-2.76761E-05 2.80159E-08-4.97945E-20-5.34789E-18
 -1      1149 9.31048E-05-2.79348E-05-2.79295E-05 2.18464E-08 7.39855E-20-4.91139E-18
 -1      1150 9.39432E-05-2.81870E-05-2.81845E-05 1.81045E-08-1.68306E-19-4.99526E-18
 -1      1151 9.48177E-05-2.84506E-05-2.84510E-05 1.67897E-08-5.83382E-20-5.56592E-18
 -1      1152 9.57706E-05-2.87380E-05-2.87413E-05 1.80153E-08-3.47141E-20-5.79655E-18
 -1      1153 9.68491E-05-2.90630E-05-2.90694E-05 2.19579E-08-1.10408E-19-6.19164E-18
 -1      1154 9.81005E-05-2.94394E-05-2.94489E-05 2.87699E-08 4.45565E-20-5.67102E-18
 -1      1155 9.95645E-05-2.98786E-05-2.98906E-05 3.84164E-08-1.54931E-21-5.46501E-18
 -1      1156 1.01262E-04-3.03862E-05-3.03992E-05 5.03815E-08 6.11679E-20-5.56795E-18
 -1      1157 1.03176E-04-3.09565E-05-3.09673E-05 6.31807E-08-2.14602E-19-6.26652E-18
 -1      1158 1.05229E-04-3.15655E-05-3.15686E-05 7.36471E-08 1.24751E-20-6.65190E-18
 -1      1159 1.07253E-04-3.21622E-05-3.21492E-05 7.60815E-08-1.49285E-20-3.25239E-18
 -1      1160 1.08957E-04-3.26595E-05-3.26202E-05 6.16894E-08 2.08516E-20-2.27553E-18
 -1      1161 1.09916E-04-3.29317E-05-3.28568E-05 1.93408E-08-1.84256E-19-4.56981E-18
 -1      1162 1.09607E-04-3.28254E-05-3.27142E-05-6.05969E-08 4.28738E-19-4.51381E-18
 -1      1163 1.07533E-04-3.21982E-05-3.20676E-05-1.77685E-07-9.64129E-20-3.49573E-18
 -1      1164 1.03470E-04-3.09900E-05-3.08801E-05-3.09756E-07 1.53129E-19-2.71209E-18
 -1      1165 9.77644E-05-2.93111E-05-2.92764E-05-4.06865E-07 1.43471E-19-2.67297E-18
 -1      1166 9.15359E-05-2.74934E-05-2.75750E-05-4.05702E-07-3.80205E-20-2.30102E-18
 -1      1167 8.64978E-05-2.60325E-05-2.62262E-05-2.69175E-07-5.22977E-20-2.48906E-18
 -1      1168 8.43133E-05-2.54015E-05-2.56476E-05-2.73077E-08-2.70131E-19-3.63756E-18
 -1      1169 8.57663E-05-2.58209E-05-2.60313E-05 2.25762E-07 3.80252E-19-3.04831E-18
 -1      1170 9.03270E-05-2.71421E-05-2.72480E-05 3.88705E-07-1.20684E-19-3.84463E-18
 -1      1171 9.64486E-05-2.89257E-05-2.89120E-05 4.16262E-07 1.26846E-19-4.42903E-18
 -1      1172 1.02362E-04-3.06624E-05-3.05631E-05 3.34071E-07-2.78545E-20-5.79683E-18
 -1      1173 1.06795E-04-3.19772E-05-3.18465E-05 2.04017E-07 1.15144E-19-5.48973E-18
 -1      1174 1.09248E-04-3.27160E-05-3.25983E-05 8.09357E-08 1.64344E-20-5.05313E-18
 -1      1175 1.09857E-04-3.29110E-05-3.28280E-05-7.44599E-09-3.21509E-20-4.03300E-18
 -1      1176 1.09085E-04-3.26950E-05-3.26486E-05-5.72023E-08-4.28331E-20-8.85626E-19
 -1      1177 1.07465E-04-3.22235E-05-3.22056E-05-7.67607E-08-1.26388E-19 3.06758E-19
 -1      1178 1.05449E-04-3.16302E-05-3.16304E-05-7.73838E-08-4.31046E-19-1.45668E-18
 -1      1179 1.03359E-04-3.10113E-05-3.10207E-05-6.84528E-08-1.76189E-22-4.13803E-18
 -1      1180 1.01393E-04-3.04266E-05-3.04393E-05-5.62014E-08 3.45793E-19-3.08503E-18
 -1      1181 9.96550E-05-2.99078E-05-2.99207E-05-4.40743E-08-1.47214E-19-1.45663E-18
 -1      1182 9.81868E-05-2.94684E-05-2.94805E-05-3.34618E-08-5.35707E-20-2.41621E-18
 -1      1183 9.69992E-05-2.91123E-05-2.91244E-05-2.42637E-08 5.13397E-19 8.90036E-19
 -1      1184 9.60941E-05-2.88402E-05-2.88545E-05-1.49746E-08 1.41667E-19 2.96301E-18
 -1      1185 9.54816E-05-2.86555E-05-2.86726E-05-2.07863E-09 7.25669E-20 5.27081E-18
 -1      1186 9.51945E-05-2.85754E-05-2.85746E-05 2.15616E-08-9.40124E-20 2.39741E-18
 -1      1187 9.51768E-05-2.85521E-05-2.85272E-05 2.04491E-08 3.07694E-19 1.15612E-18
 -1      1188 1.30932E-04-3.77030E-05-3.86218E-05 1.21690E-05-1.57945E-19 1.47075E-17
 -1      1189 9.64351E-05-2.81525E-05-3.12924E-05 8.02114E-07 5.62748E-20 1.22178E-17
 -1      1190 9.02417E-05-2.68897E-05-2.78343E-05 1.20931E-07 7.65109E-20 9.61374E-18
 -1      1191 8.81956E-05-2.64579E-05-2.66380E-05 1.00681E-08 1.08791E-20 7.85912E-18
 -1      1192 8.77853E-05-2.63649E-05-2.63708E-05-2.37588E-08-1.29421E-20 7.15510E-18
 -1      1193 8.81255E-05-2.64617E-05-2.64445E-05-3.21828E-08 4.10389E-20 5.93164E-18
 -1      1194 8.88119E-05-2.66597E-05-2.66448E-05-3.25707E-08-1.68033E-20 5.55984E-18
 -1      1195 8.96463E-05-2.69048E-05-2.68925E-05-2.98665E-08-3.57325E-20 5.72368E-18
 -1      1196 9.05256E-05-2.71657E-05-2.71547E-05-2.56007E-08-7.86679E-20 4.79403E-18
 -1      1197 9.13989E-05-2.74263E-05-2.74164E-05-2.04525E-08 1.63267E-19 3.11593E-18
 -1      1198 9.22492E-05-2.76810E-05-2.76725E-05-1.48182E-08 5.62609E-20 1.59580E-18
 -1      1199 9.30835E-05-2.79316E-05-2.79252E-05-8.95683E-09-7.14319E-20 1.90077E-18
 -1      1200 9.39273E-05-2.81857E-05-2.81819E-05-3.05596E-09 1.25128E-20 2.42559E-18
 -1      1201 9.48220E-05-2.84557E-05-2.84552E-05 2.70978E-09 9.54418E-20 1.31932E-18
 -1      1202 9.58240E-05-2.87585E-05-2.87622E-05 8.10938E-09-3.40426E-21 5.46121E-19
 -1      1203 9.70039E-05-2.91151E-05-2.91242E-05 1.27550E-08-4.33058E-20-4.26180E-19
 -1      1204 9.84473E-05-2.95511E-05-2.95671E-05 1.59469E-08-1.68248E-19 3.80427E-19
 -1      1205 1.00254E-04-3.00959E-05-3.01208E-05 1.64336E-08-1.67570E-20 1.93380E-18
 -1      1206 1.02534E-04-3.07816E-05-3.08176E-05 1.20680E-08 1.87183E-19 6.40397E-19
 -1      1207 1.05396E-04-3.16394E-05-3.16884E-05-6.10760E-10 1.00152E-19 8.25050E-19
 -1      1208 1.08923E-04-3.26917E-05-3.27534E-05-2.66566E-08-2.35976E-19 2.44525E-18
 -1      1209 1.13122E-04-3.39370E-05-3.40045E-05-7.21835E-08 5.88489E-20 2.96771E-18
 -1      1210 1.17829E-04-3.53233E-05-3.53758E-05-1.41429E-07 1.60071E-19 1.30223E-18
 -1      1211 1.22565E-04-3.67081E-05-3.67017E-05-2.28723E-07 1.61797E-20 1.12801E-18
 -1      1212 1.26369E-04-3.78128E-05-3.76782E-05-3.03359E-07-1.41216E-20 3.10655E-18
 -1      1213 1.27707E-04-3.82033E-05-3.78694E-05-2.93862E-07 1.98120E-19 4.59001E-18
 -1      1214 1.24755E-04-3.73655E-05-3.68327E-05-1.01589E-07-1.16943E-19 6.50384E-18
 -1      1215 1.16379E-04-3.49663E-05-3.44078E-05 3.17707E-07-7.58624E-20 4.28387E-18
 -1      1216 1.03779E-04-3.13001E-05-3.10855E-05 8.08597E-07-4.72832E-19 4.07391E-18
 -1      1217 9.14591E-05-2.75859E-05-2.80457E-05 1.02285E-06 7.04030E-20 1.49554E-18
 -1      1218 8.55697E-05-2.56696E-05-2.66711E-05 6.86965E-07-6.46127E-20-1.54779E-18
 -1      1219 8.94631E-05-2.66954E-05-2.76712E-05-2.64681E-08-1.47139E-19-3.56040E-18
 -1      1220 1.00902E-04-3.01232E-05-3.05310E-05-6.47578E-07 1.68710E-19-2.33569E-18
 -1      1221 1.13953E-04-3.41356E-05-3.39106E-05-8.52813E-07-3.93893E-19 9.47406E-19
 -1      1222 1.23436E-04-3.70638E-05-3.65296E-05-6.85063E-07 2.57273E-19 2.39001E-18
 -1      1223 1.27459E-04-3.82959E-05-3.77870E-05-3.80241E-07 2.60469E-19-4.73730E-19
 -1      1224 1.26829E-04-3.80926E-05-3.77648E-05-1.15791E-07 2.07897E-19-2.18331E-18
 -1      1225 1.23355E-04-3.70279E-05-3.68805E-05 4.74893E-08 8.68424E-20-2.04511E-18
 -1      1226 1.18677E-04-3.56091E-05-3.55816E-05 1.21934E-07-3.21875E-19-1.56278E-19
 -1      1227 1.13878E-04-3.41623E-05-3.41956E-05 1.40282E-07 9.45343E-20-2.30406E-18
 -1      1228 1.09523E-04-3.28540E-05-3.29089E-05 1.30479E-07 2.28258E-19-4.07081E-18
 -1      1229 1.05828E-04-3.17465E-05-3.18025E-05 1.10138E-07-2.50930E-19-1.62978E-18
 -1      1230 1.02819E-04-3.08455E-05-3.08941E-05 8.84833E-08-3.55117E-19 3.24546E-19
 -1      1231 1.00434E-04-3.01314E-05-3.01706E-05 6.95988E-08-5.03861E-20 7.47229E-19
 -1      1232 9.85800E-05-2.95768E-05-2.96076E-05 5.48229E-08 3.39542E-19-3.18315E-18
 -1      1233 9.71734E-05-2.91560E-05-2.91815E-05 4.40225E-08 2.47547E-19-8.19764E-18
 -1      1234 9.61511E-05-2.88503E-05-2.88743E-05 3.59393E-08 1.44481E-19-8.61160E-18
 -1      1235 9.54835E-05-2.86504E-05-2.86752E-05 2.63708E-08-1.58725E-19-7.15190E-18
 -1      1236 9.51742E-05-2.85555E-05-2.85719E-05 4.61688E-09 9.93622E-19-8.91461E-18
 -1      1237 9.51770E-05-2.85548E-05-2.85222E-05-2.06674E-08 3.57261E-19-5.71935E-18
 -1      1238 9.52547E-05-2.86333E-05-2.85243E-05-2.05637E-08-6.52451E-18-8.06116E-19
 -1      1239 9.52421E-05-2.86194E-05-2.85772E-05-2.07983E-08-1.09691E-17 7.83373E-20
 -1      1240 9.51485E-05-2.82979E-05-2.86804E-05 1.17313E-08-4.05518E-18 1.09608E-18
 -1      1241 9.49710E-05-2.76934E-05-2.88500E-05 2.82315E-08 1.28349E-18 3.37925E-19
 -1      1242 9.47516E-05-2.69461E-05-2.90595E-05 3.33870E-08 4.71249E-18 9.78705E-19
 -1      1243 9.45351E-05-2.62094E-05-2.92679E-05 3.03867E-08 2.52896E-19-1.90665E-18
 -1      1244 9.43569E-05-2.56031E-05-2.94410E-05 2.26286E-08-5.54138E-18 3.11243E-19
 -1      1245 9.42428E-05-2.52154E-05-2.95523E-05 1.11972E-08-2.39920E-18 5.22674E-19
 -1      1246 9.42103E-05-2.51058E-05-2.95843E-05-1.40558E-09-4.09316E-18-8.12738E-20
 -1      1247 9.42625E-05-2.52842E-05-2.95336E-05-1.33955E-08-4.79945E-18 7.71292E-20
 -1      1248 9.43903E-05-2.57198E-05-2.94092E-05-2.31618E-08-4.59953E-18-1.56175E-18
 -1      1249 9.45729E-05-2.63403E-05-2.92321E-05-2.93216E-08-1.10728E-17-8.35775E-20
 -1      1250 9.47829E-05-2.70551E-05-2.90287E-05-3.03690E-08-8.39138E-18 6.26494E-19
 -1      1251 9.49897E-05-2.77578E-05-2.88306E-05-2.53910E-08-6.93683E-18 4.83882E-19
 -1      1252 9.51579E-05-2.83241E-05-2.86726E-05-1.28012E-08-8.20477E-18-1.70671E-19
 -1      1253 9.52291E-05-2.85955E-05-2.85769E-05 3.35198E-08-3.63589E-18-5.53816E-19
 -1      1254 9.52563E-05-2.86331E-05-2.85281E-05 2.15946E-08-5.92854E-19 2.43712E-19
 -1      1255 3.42677E-05-1.07351E-04 1.82431E-05-1.44513E-05 2.94979E-18 1.81715E-19
 -1      1256 1.84803E-05-6.87707E-05 1.02927E-05-2.72936E-05 4.11912E-18 1.93081E-18
 -1      1257 8.48053E-06-1.14209E-05-5.64892E-06-1.09065E-06 9.03107E-18 6.37223E-18
 -1      1258 3.68189E-05 2.28962E-05-2.68131E-05 5.41508E-05 8.88538E-18 8.34666E-18
 -1      1259 1.16204E-04 9.13272E-06-4.81267E-05 1.02895E-04 4.65868E-18 6.50521E-18
 -1      1260 2.23492E-04-4.09299E-05-6.64150E-05 1.05128E-04 6.08170E-19 5.69206E-19
 -1      1261 3.02452E-04-8.59691E-05-7.75339E-05 4.81883E-05 1.05614E-19-3.87052E-18
 -1      1262 3.12107E-04-9.27036E-05-7.83249E-05-3.69031E-05 1.00453E-18-7.41916E-18
 -1      1263 2.40894E-04-5.08223E-05-6.91500E-05-9.94553E-05 3.34324E-18-9.28009E-18
 -1      1264 1.37519E-04 7.06511E-07-5.23371E-05-1.08112E-04 6.02749E-18-9.78662E-18
 -1      1265 5.09327E-05 2.40720E-05-3.16460E-05-6.66254E-05 6.70511E-18-6.75085E-18
 -1      1266 1.02423E-05 1.81362E-06-1.06973E-05-1.00459E-05 9.13440E-18-5.85808E-18
 -1      1267 1.26837E-05-5.12181E-05 6.36336E-06 2.38406E-05 6.99480E-18-3.48935E-18
 -1      1268 3.10182E-05-1.00287E-04 1.67559E-05 2.09686E-05-2.89516E-18 8.75620E-20
 -1      1269 3.54368E-05-1.10350E-04 1.89111E-05-5.74939E-06-9.19115E-18-7.42213E-20
 -1      1270 2.19832E-05-7.67645E-05 1.19713E-05-2.41079E-05-1.25886E-17-3.99249E-18
 -1      1271 8.40972E-06-1.85052E-05-2.86722E-06-6.15473E-06-1.41014E-17-7.74527E-18
 -1      1272 3.12024E-05 2.14856E-05-2.37811E-05 4.71951E-05-1.27766E-17-1.14239E-17
 -1      1273 1.09660E-04 1.15589E-05-4.66946E-05 1.00269E-04-7.58264E-18-1.11961E-17
 -1      1274 2.14955E-04-3.80758E-05-6.50602E-05 1.06654E-04-3.43514E-18-8.56604E-18
 -1      1275 2.91764E-04-8.29209E-05-7.54607E-05 5.29209E-05-1.50587E-18-6.25364E-18
 -1      1276 3.01464E-04-8.84522E-05-7.69028E-05-3.02499E-05 4.70633E-20-1.30231E-18
 -1      1277 2.41673E-04-5.27329E-05-6.88876E-05-9.57923E-05-1.94182E-19 7.48777E-19
 -1      1278 1.45898E-04-2.48536E-06-5.40457E-05-1.10812E-04-1.90921E-18 3.09675E-18
 -1      1279 5.98275E-05 2.58251E-05-3.49086E-05-7.67299E-05-5.99106E-18 6.49505E-18
 -1      1280 1.43446E-05 1.41516E-05-1.57257E-05-2.49768E-05-9.95772E-18 7.38443E-18
 -1      1281 6.84496E-06-2.65950E-05 2.23586E-07 1.39774E-05-1.09403E-17 5.83902E-18
 -1      1282 2.13043E-05-7.56753E-05 1.21245E-05 2.51090E-05-5.19824E-18 2.50192E-18
 -1      1283 3.53892E-05-1.08776E-04 1.84011E-05 1.29804E-05 1.22820E-19 6.03458E-19
 -1      1284 1.04343E-04-2.19947E-05-3.78584E-05-1.72744E-05-4.34316E-19 3.95628E-18
 -1      1285 9.02643E-05-6.67381E-06-3.59963E-05-2.04774E-05-9.31736E-19-1.93462E-18
 -1      1286 9.25846E-05-6.73150E-06-3.71956E-05-2.57606E-05-1.27351E-18-6.75456E-19
 -1      1287 8.58813E-05-4.09470E-06-3.51204E-05-1.64418E-05-8.32210E-19-3.60540E-18
 -1      1288 8.71184E-05-4.08692E-06-3.55841E-05-1.88611E-05-9.69959E-19-2.93656E-18
 -1      1289 9.20842E-05-1.04542E-05-3.50759E-05-1.90389E-05-1.58938E-18-1.72043E-18
 -1      1290 8.40996E-05-3.19094E-06-3.46878E-05-1.28244E-05-5.40711E-19-4.30151E-18
 -1      1291 8.46990E-05-3.16131E-06-3.49071E-05-1.46394E-05-6.62592E-19-3.99254E-18
 -1      1292 8.78498E-05-7.39288E-06-3.45672E-05-1.54163E-05-1.24866E-18-3.07293E-18
 -1      1293 8.32096E-05-2.72891E-06-3.44800E-05-9.69308E-06-3.40831E-19-4.52943E-18
 -1      1294 8.35131E-05-2.71048E-06-3.45851E-05-1.12411E-05-3.94823E-19-4.45825E-18
 -1      1295 8.58757E-05-5.98280E-06-3.43089E-05-1.19588E-05-7.95589E-19-3.68020E-18
 -1      1296 8.27338E-05-2.45892E-06-3.43800E-05-6.91928E-06-8.66356E-20-4.53160E-18
 -1      1297 8.28961E-05-2.45050E-06-3.44315E-05-8.29128E-06-1.80034E-19-4.51858E-18
 -1      1298 8.48501E-05-5.21818E-06-3.41846E-05-8.94719E-06-4.69035E-19-3.85509E-18
 -1      1299 8.24686E-05-2.29298E-06-3.43318E-05-4.29727E-06 1.64675E-20-4.37872E-18
 -1      1300 8.25552E-05-2.28906E-06-3.43570E-05-5.59933E-06-2.19236E-20-4.49363E-18
 -1      1301 8.42783E-05-4.76267E-06-3.41273E-05-6.21776E-06-1.12751E-19-3.86866E-18
 -1      1302 8.23417E-05-2.20310E-06-3.43121E-05-1.79105E-06 2.72393E-19-4.23203E-18
 -1      1303 8.23784E-05-2.20154E-06-3.43221E-05-3.04268E-06 1.81636E-19-4.28493E-18
 -1      1304 8.39645E-05-4.49800E-06-3.41025E-05-3.64504E-06 1.54251E-19-3.68042E-18
 -1      1305 8.23168E-05-2.17547E-06-3.43099E-05 6.69771E-07 3.90203E-19-4.04441E-18
 -1      1306 8.23154E-05-2.17551E-06-3.43096E-05-5.66624E-07 3.38869E-19-4.16896E-18
 -1      1307 8.38274E-05-4.37777E-06-3.40937E-05-1.17084E-06 4.94552E-19-3.57337E-18
 -1      1308 8.23872E-05-2.20596E-06-3.43237E-05 3.14957E-06 5.63413E-19-3.85763E-18
 -1      1309 8.23476E-05-2.20758E-06-3.43129E-05 1.89529E-06 5.13271E-19-3.95943E-18
 -1      1310 8.38325E-05-4.38209E-06-3.40941E-05 1.27341E-06 7.26548E-19-3.41055E-18
 -1      1311 8.25726E-05-2.29944E-06-3.43598E-05 5.71556E-06 6.78821E-19-3.59175E-18
 -1      1312 8.24826E-05-2.30280E-06-3.43339E-05 4.40750E-06 6.46880E-19-3.77008E-18
 -1      1313 8.39804E-05-4.51172E-06-3.41037E-05 3.75207E-06 1.02059E-18-3.19132E-18
 -1      1314 8.29195E-05-2.46555E-06-3.44344E-05 8.39945E-06 8.47715E-19-3.16491E-18
 -1      1315 8.27538E-05-2.47426E-06-3.43825E-05 7.01863E-06 8.07758E-19-3.41231E-18
 -1      1316 8.43042E-05-4.78572E-06-3.41287E-05 6.31141E-06 1.21127E-18-2.90310E-18
 -1      1317 8.35592E-05-2.74276E-06-3.45901E-05 1.14021E-05 1.05490E-18-2.51511E-18
 -1      1318 8.32478E-05-2.75995E-06-3.44835E-05 9.83609E-06 9.75345E-19-2.90620E-18
 -1      1319 8.48931E-05-5.25942E-06-3.41856E-05 9.05597E-06 1.49481E-18-2.45446E-18
 -1      1320 8.47561E-05-3.20378E-06-3.49149E-05 1.48522E-05 1.20236E-18-1.34853E-18
 -1      1321 8.41564E-05-3.24069E-06-3.46934E-05 1.30116E-05 1.09860E-18-2.04281E-18
 -1      1322 8.59560E-05-6.06368E-06-3.43101E-05 1.21263E-05 1.72363E-18-1.71109E-18
 -1      1323 8.72173E-05-4.08809E-06-3.56055E-05 1.90986E-05 1.32185E-18 6.02293E-19
 -1      1324 8.59488E-05-4.15235E-06-3.51280E-05 1.67018E-05 1.17761E-18-5.49698E-19
 -1      1325 8.79743E-05-7.51504E-06-3.45693E-05 1.56549E-05 1.89787E-18-4.35057E-19
 -1      1326 9.33968E-05-6.78384E-06-3.70909E-05 2.50973E-05 1.05794E-18 3.98333E-18
 -1      1327 9.00792E-05-6.43072E-06-3.60188E-05 2.11549E-05 1.07134E-18 1.92737E-18
 -1      1328 9.23137E-05-1.06896E-05-3.50611E-05 1.96800E-05 1.93372E-18 1.66161E-18
 -1      1329 1.23517E-04-2.48989E-05-3.89812E-05 2.83573E-05 4.49774E-19 1.00772E-17
 -1      1330 9.99964E-05-1.44069E-05-3.73246E-05 2.40494E-05 4.94561E-19 5.89249E-18
 -1      1331 1.01598E-04-1.93225E-05-3.53764E-05 2.13999E-05 1.69210E-18 4.73513E-18
 -1      1332 1.02499E-04-2.77739E-05-3.47248E-05 7.33283E-06 8.44174E-19 9.80017E-18
 -1      1333 1.05043E-04-3.01990E-05-3.34934E-05-7.96172E-06-1.11544E-18 4.41156E-18
 -1      1334 9.81544E-05-2.78113E-05-3.07300E-05-4.99089E-06-9.96481E-19 3.00877E-18
 -1      1335 9.53968E-05-2.78174E-05-2.92227E-05-2.49247E-06-7.73632E-19 2.53677E-18
 -1      1336 9.31616E-05-2.75253E-05-2.81827E-05-2.04562E-06-6.81729E-19 1.37076E-18
 -1      1337 9.93954E-05-2.80252E-05-3.09559E-05-7.89106E-06-1.70423E-18 9.57438E-19
 -1      1338 9.14726E-05-2.71675E-05-2.75486E-05-8.39734E-07-5.85035E-19 9.53044E-19
 -1      1339 9.07541E-05-2.70713E-05-2.72458E-05-7.29209E-07-6.00129E-19 2.79256E-20
 -1      1340 9.46296E-05-2.77431E-05-2.87903E-05-3.12382E-06-1.31370E-18 3.23196E-19
 -1      1341 9.00066E-05-2.68894E-05-2.70033E-05-1.72941E-07-4.14500E-19-3.13429E-19
 -1      1342 8.99344E-05-2.69159E-05-2.69686E-05-1.14392E-07-3.76321E-19-8.57105E-19
 -1      1343 9.24338E-05-2.74729E-05-2.78707E-05-1.05245E-06-9.84907E-19-4.55439E-19
 -1      1344 8.96809E-05-2.68501E-05-2.68963E-05 1.59481E-07-2.99352E-19-9.33774E-19
 -1      1345 8.98997E-05-2.69409E-05-2.69593E-05 1.89127E-07-2.80414E-19-1.32463E-18
 -1      1346 9.14840E-05-2.73312E-05-2.75068E-05-6.23354E-08-6.36403E-19-8.63603E-19
 -1      1347 8.99151E-05-2.69473E-05-2.69694E-05 3.26383E-07-2.85232E-19-1.48014E-18
 -1      1348 9.02683E-05-2.70695E-05-2.70719E-05 3.39708E-07-2.00348E-19-1.81596E-18
 -1      1349 9.12482E-05-2.73231E-05-2.74048E-05 4.36835E-07-6.02737E-19-1.11837E-18
 -1      1350 9.04303E-05-2.71168E-05-2.71253E-05 4.03802E-07-1.98987E-19-1.92611E-18
 -1      1351 9.08393E-05-2.72507E-05-2.72440E-05 4.07950E-07-2.57155E-19-2.26956E-18
 -1      1352 9.14122E-05-2.74044E-05-2.74374E-05 6.84058E-07-4.16335E-19-1.51002E-18
 -1      1353 9.10797E-05-2.73200E-05-2.73204E-05 4.32551E-07-2.59678E-19-2.28362E-18
 -1      1354 9.15039E-05-2.74548E-05-2.74439E-05 4.31980E-07-3.43612E-19-2.57329E-18
 -1      1355 9.17962E-05-2.75363E-05-2.75431E-05 7.94973E-07-4.71257E-19-1.64964E-18
 -1      1356 9.17847E-05-2.75354E-05-2.75323E-05 4.37310E-07-3.76982E-19-2.79335E-18
 -1      1357 9.22057E-05-2.76665E-05-2.76555E-05 4.35048E-07-3.47806E-19-3.29644E-18
 -1      1358 9.22981E-05-2.76942E-05-2.76889E-05 8.34271E-07-5.16340E-19-1.91297E-18
 -1      1359 9.25079E-05-2.77529E-05-2.77502E-05 4.34389E-07-3.48529E-19-3.39397E-18
 -1      1360 9.29211E-05-2.78796E-05-2.78717E-05 4.32606E-07-1.14779E-19-3.65198E-18
 -1      1361 9.28625E-05-2.78647E-05-2.78571E-05 8.42375E-07-4.74667E-19-2.10882E-18
 -1      1362 9.32384E-05-2.79701E-05-2.79708E-05 4.35220E-07 1.56223E-19-3.90561E-18
 -1      1363 9.36496E-05-2.80948E-05-2.80923E-05 4.35523E-07-4.17754E-20-3.88067E-18
 -1      1364 9.34642E-05-2.80419E-05-2.80390E-05 8.46572E-07-8.05362E-20-2.43147E-18
 -1      1365 9.39841E-05-2.81901E-05-2.81966E-05 4.48088E-07-1.99751E-19-3.91766E-18
 -1      1366 9.44062E-05-2.83170E-05-2.83217E-05 4.51682E-07-3.30919E-19-4.25770E-18
 -1      1367 9.40986E-05-2.82257E-05-2.82327E-05 8.66189E-07-1.58377E-19-3.29825E-18
 -1      1368 9.47663E-05-2.84196E-05-2.84339E-05 4.78973E-07-6.00616E-20-4.16889E-18
 -1      1369 9.52174E-05-2.85547E-05-2.85678E-05 4.86736E-07-7.36819E-20-4.15793E-18
 -1      1370 9.47759E-05-2.84199E-05-2.84407E-05 9.15131E-07-2.32156E-19-3.15405E-18
 -1      1371 9.56157E-05-2.86684E-05-2.86917E-05 5.31817E-07-9.96744E-20-4.12248E-18
 -1      1372 9.61174E-05-2.88187E-05-2.88406E-05 5.44282E-07-1.93518E-19-4.38145E-18
 -1      1373 9.55165E-05-2.86315E-05-2.86686E-05 1.00294E-06-2.13844E-19-2.96829E-18
 -1      1374 9.65684E-05-2.89477E-05-2.89807E-05 6.08258E-07-3.17215E-19-4.21290E-18
 -1      1375 9.71434E-05-2.91207E-05-2.91513E-05 6.25504E-07-1.60078E-19-4.23547E-18
 -1      1376 9.63466E-05-2.88694E-05-2.89238E-05 1.13475E-06-3.56391E-19-2.80485E-18
 -1      1377 9.76616E-05-2.92698E-05-2.93118E-05 7.06794E-07 1.11709E-19-4.23086E-18
 -1      1378 9.83307E-05-2.94724E-05-2.95099E-05 7.28209E-07 7.95061E-20-3.99278E-18
 -1      1379 9.72952E-05-2.91437E-05-2.92141E-05 1.31015E-06 4.56926E-20-2.78278E-18
 -1      1380 9.89274E-05-2.96454E-05-2.96941E-05 8.21255E-07 2.84558E-20-3.88642E-18
 -1      1381 9.97049E-05-2.98832E-05-2.99236E-05 8.45152E-07 1.00640E-19-3.89668E-18
 -1      1382 9.83879E-05-2.94642E-05-2.95460E-05 1.52080E-06 2.57087E-19-2.81049E-18
 -1      1383 1.00384E-04-3.00822E-05-3.01321E-05 9.38499E-07-9.18923E-20-4.15087E-18
 -1      1384 1.01270E-04-3.03565E-05-3.03926E-05 9.61541E-07-1.09137E-19-4.38122E-18
 -1      1385 9.96408E-05-2.98392E-05-2.99226E-05 1.74665E-06-1.41988E-19-2.78072E-18
 -1      1386 1.02022E-04-3.05804E-05-3.06216E-05 1.03540E-06-2.68816E-19-4.63109E-18
 -1      1387 1.02994E-04-3.08859E-05-3.09056E-05 1.05188E-06-4.11533E-19-4.74680E-18
 -1      1388 1.01051E-04-3.02725E-05-3.03402E-05 1.95073E-06-4.28546E-19-3.22133E-18
 -1      1389 1.03789E-04-3.11282E-05-3.11444E-05 1.07568E-06 6.22778E-20-4.83470E-18
 -1      1390 1.04787E-04-3.14483E-05-3.14336E-05 1.07679E-06 1.02694E-19-4.31780E-18
 -1      1391 1.02582E-04-3.07600E-05-3.07846E-05 2.07332E-06-1.80138E-19-2.68785E-18
 -1      1392 1.05565E-04-3.16942E-05-3.16623E-05 1.00821E-06 7.22892E-19-3.76370E-18
 -1      1393 1.06477E-04-3.19959E-05-3.19233E-05 9.81836E-07 6.17580E-19-2.50268E-18
 -1      1394 1.04152E-04-3.12842E-05-3.12269E-05 2.02763E-06 8.15099E-19-2.94541E-18
 -1      1395 1.07145E-04-3.22198E-05-3.21108E-05 7.70149E-07-1.38587E-19-2.35134E-18
 -1      1396 1.07798E-04-3.24491E-05-3.22931E-05 7.02012E-07-3.05238E-19-2.67308E-18
 -1      1397 1.05614E-04-3.18067E-05-3.16199E-05 1.70214E-06 3.10666E-19-2.54652E-18
 -1      1398 1.08222E-04-3.26121E-05-3.23982E-05 3.00488E-07-2.56251E-19-2.45937E-18
 -1      1399 1.08389E-04-3.26933E-05-3.24369E-05 1.78434E-07-1.21562E-19-2.96803E-18
 -1      1400 1.06748E-04-3.22594E-05-3.18981E-05 9.78430E-07-2.44895E-19-1.58451E-18
 -1      1401 1.08411E-04-3.27432E-05-3.24141E-05-4.29215E-07 3.62901E-19-2.78899E-18
 -1      1402 1.07846E-04-3.25886E-05-3.22425E-05-6.06316E-07 2.86320E-19-2.57083E-18
 -1      1403 1.07266E-04-3.25379E-05-3.19845E-05-2.23630E-07-2.27772E-20-6.77474E-19
 -1      1404 1.07319E-04-3.24676E-05-3.20552E-05-1.36543E-06 2.08383E-19-3.13631E-18
 -1      1405 1.05847E-04-3.20041E-05-3.16307E-05-1.57448E-06 1.08069E-19-2.24514E-18
 -1      1406 1.06856E-04-3.25055E-05-3.18084E-05-1.86618E-06 2.53117E-19-1.96700E-18
 -1      1407 1.04704E-04-3.16699E-05-3.12723E-05-2.32066E-06 2.22766E-19-2.35581E-18
 -1      1408 1.02350E-04-3.08872E-05-3.06110E-05-2.50383E-06 3.87157E-19-1.98179E-18
 -1      1409 1.05281E-04-3.20243E-05-3.13361E-05-3.69516E-06 3.49606E-19-1.49120E-18
 -1      1410 1.00689E-04-3.03490E-05-3.01252E-05-2.96568E-06 2.99049E-19-2.36722E-18
 -1      1411 9.78030E-05-2.93530E-05-2.93312E-05-3.03757E-06-1.46127E-19-2.21258E-18
 -1      1412 1.02542E-04-3.10306E-05-3.06051E-05-5.18811E-06 2.80828E-19-1.93044E-18
 -1      1413 9.59530E-05-2.87114E-05-2.88184E-05-2.92795E-06 8.24534E-20-2.19858E-18
 -1      1414 9.32206E-05-2.77420E-05-2.80787E-05-2.81484E-06 1.07136E-20-2.28831E-18
 -1      1415 9.90433E-05-2.96391E-05-2.97445E-05-5.65680E-06 8.75902E-20-2.23578E-18
 -1      1416 9.17034E-05-2.71911E-05-2.76745E-05-2.00713E-06-3.96365E-19-2.18900E-18
 -1      1417 8.99478E-05-2.65573E-05-2.72044E-05-1.70599E-06-3.56919E-19-2.82552E-18
 -1      1418 9.56443E-05-2.82073E-05-2.89585E-05-4.57164E-06-4.24509E-19-1.92601E-18
 -1      1419 8.92844E-05-2.63107E-05-2.70313E-05-3.84625E-07-5.46760E-19-2.16957E-18
 -1      1420 8.91063E-05-2.62462E-05-2.69837E-05 7.18881E-09-3.20615E-19-2.39366E-18
 -1      1421 9.34253E-05-2.72405E-05-2.84655E-05-1.98223E-06-1.95175E-19-1.55669E-18
 -1      1422 8.95467E-05-2.64108E-05-2.70978E-05 1.38223E-06-1.71736E-19-2.34043E-18
 -1      1423 9.10089E-05-2.69404E-05-2.74883E-05 1.71263E-06 2.21360E-19-1.96247E-18
 -1      1424 9.31977E-05-2.71409E-05-2.84148E-05 1.31704E-06-2.10422E-19-1.28908E-18
 -1      1425 9.23838E-05-2.74432E-05-2.78523E-05 2.65080E-06 1.17109E-19-3.01115E-18
 -1      1426 9.49757E-05-2.83672E-05-2.85519E-05 2.80528E-06-5.04024E-19-3.19638E-18
 -1      1427 9.50475E-05-2.79516E-05-2.88224E-05 4.13638E-06-4.71811E-19-2.21504E-18
 -1      1428 9.67985E-05-2.90067E-05-2.90525E-05 3.05547E-06-5.19251E-19-3.11422E-18
 -1      1429 9.97104E-05-3.00185E-05-2.98507E-05 3.01669E-06 1.12629E-20-3.90321E-18
 -1      1430 9.82823E-05-2.93278E-05-2.95624E-05 5.55667E-06-7.49985E-19-2.35328E-18
 -1      1431 1.01439E-04-3.05878E-05-3.03501E-05 2.64955E-06-3.83349E-20-3.45653E-18
 -1      1432 1.03934E-04-3.14247E-05-3.10477E-05 2.48139E-06-3.29979E-20-4.12791E-18
 -1      1433 1.01832E-04-3.07607E-05-3.04230E-05 5.37384E-06-1.64963E-19-2.71359E-18
 -1      1434 1.05190E-04-3.18017E-05-3.14354E-05 1.76735E-06 4.93794E-19-3.93116E-18
 -1      1435 1.06844E-04-3.23296E-05-3.19093E-05 1.55738E-06 3.54635E-19-3.53197E-18
 -1      1436 1.04762E-04-3.18491E-05-3.11902E-05 4.03026E-06 3.37000E-19-2.24108E-18
 -1      1437 1.07487E-04-3.24894E-05-3.21299E-05 7.82296E-07 2.90019E-19-3.42248E-18
 -1      1438 1.08216E-04-3.26989E-05-3.23478E-05 5.95431E-07 5.97754E-20-3.06467E-18
 -1      1439 1.06571E-04-3.24297E-05-3.17170E-05 2.21609E-06 5.48844E-19-2.33652E-18
 -1      1440 1.08287E-04-3.26768E-05-3.23991E-05-5.18353E-08 6.19426E-20-3.49985E-18
 -1      1441 1.08238E-04-3.26325E-05-3.23946E-05-1.85908E-07 2.24407E-19-3.06604E-18
 -1      1442 1.07189E-04-3.25386E-05-3.19479E-05 5.03368E-07 3.59724E-20-2.57596E-18
 -1      1443 1.07874E-04-3.24855E-05-3.23090E-05-6.30589E-07 6.86065E-19-1.88030E-18
 -1      1444 1.07286E-04-3.22752E-05-3.21465E-05-7.09127E-07 6.82093E-19-1.01717E-18
 -1      1445 1.06819E-04-3.23065E-05-3.19050E-05-7.99543E-07 7.77368E-19-3.01298E-18
 -1      1446 1.06647E-04-3.20574E-05-3.19694E-05-9.56222E-07-2.75885E-19-9.12096E-19
 -1      1447 1.05758E-04-3.17608E-05-3.17159E-05-9.89921E-07-7.21902E-19-1.39595E-18
 -1      1448 1.05768E-04-3.18741E-05-3.16546E-05-1.61764E-06 4.53695E-19-1.39567E-18
 -1      1449 1.04986E-04-3.15146E-05-3.14904E-05-1.08205E-06-5.92819E-19-1.83015E-18
 -1      1450 1.03982E-04-3.11906E-05-3.12001E-05-1.08508E-06-9.30213E-19-2.99310E-18
 -1      1451 1.04337E-04-3.13539E-05-3.12749E-05-2.01334E-06-8.34203E-19-1.67763E-18
 -1      1452 1.03181E-04-3.09448E-05-3.09602E-05-1.07270E-06-4.18149E-19-2.86850E-18
 -1      1453 1.02188E-04-3.06310E-05-3.06707E-05-1.05758E-06 5.43712E-20-3.10744E-18
 -1      1454 1.02764E-04-3.08216E-05-3.08355E-05-2.10034E-06-1.05459E-18-1.40083E-18
 -1      1455 1.01426E-04-3.04028E-05-3.04394E-05-9.83940E-07 1.01060E-18-2.81886E-18
 -1      1456 1.00518E-04-3.01200E-05-3.01732E-05-9.59795E-07 1.03780E-18-1.79127E-18
 -1      1457 1.01214E-04-3.03222E-05-3.03891E-05-1.99119E-06 8.80622E-19-1.43808E-18
 -1      1458 9.98353E-05-2.99186E-05-2.99640E-05-8.55916E-07 1.61249E-19-1.16924E-18
 -1      1459 9.90481E-05-2.96758E-05-2.97324E-05-8.28494E-07 8.72460E-20-1.43354E-18
 -1      1460 9.97889E-05-2.98782E-05-2.99702E-05-1.77443E-06 8.07479E-19-8.23532E-19
 -1      1461 9.84629E-05-2.95046E-05-2.95525E-05-7.13308E-07 5.24163E-19-1.14806E-18
 -1      1462 9.78099E-05-2.93044E-05-2.93601E-05-6.85520E-07 1.09513E-18-4.22587E-19
 -1      1463 9.85417E-05-2.94984E-05-2.95989E-05-1.50940E-06 2.29595E-19 9.09904E-19
 -1      1464 9.73293E-05-2.91640E-05-2.92124E-05-5.67921E-07 1.90509E-18 9.40868E-20
 -1      1465 9.68136E-05-2.90060E-05-2.90608E-05-5.40506E-07 1.56245E-18 2.46548E-18
 -1      1466 9.74946E-05-2.91832E-05-2.92851E-05-1.22907E-06 2.39824E-18 1.70984E-18
 -1      1467 9.64380E-05-2.88953E-05-2.89462E-05-4.21708E-07 8.92182E-19 2.48460E-18
 -1      1468 9.60619E-05-2.87795E-05-2.88362E-05-3.93599E-07 8.96311E-19 3.40725E-18
 -1      1469 9.66525E-05-2.89293E-05-2.90330E-05-9.45597E-07 1.70006E-18 1.80193E-18
 -1      1470 9.57897E-05-2.86977E-05-2.87546E-05-2.70854E-07-1.62082E-19 3.30617E-18
 -1      1471 9.55597E-05-2.86272E-05-2.86867E-05-2.39799E-07-2.70146E-19 3.32187E-18
 -1      1472 9.60134E-05-2.87332E-05-2.88431E-05-6.56596E-07 7.23907E-20 2.53846E-18
 -1      1473 9.53812E-05-2.85688E-05-2.86349E-05-1.12187E-07-6.44565E-19 2.84587E-18
 -1      1474 9.53037E-05-2.85569E-05-2.86029E-05-7.81930E-08-9.33903E-19 1.63369E-18
 -1      1475 9.55678E-05-2.85931E-05-2.87112E-05-3.60358E-07-6.68515E-19 2.91771E-18
 -1      1476 9.52180E-05-2.85699E-05-2.85550E-05 2.57857E-08-1.68216E-18 1.16224E-18
 -1      1477 9.52939E-05-2.85483E-05-2.86063E-05-6.29872E-08-1.82719E-18 1.41172E-18
 -1      1478 9.64670E-05-2.83305E-05-2.97393E-05 2.99864E-06 8.49653E-19 7.97352E-18
 -1      1479 1.02429E-04-2.93667E-05-3.21233E-05 4.46557E-06 7.20137E-19 9.19814E-18
 -1      1480 1.02231E-04-2.66905E-05-3.26767E-05 1.27857E-05 1.38982E-18 6.23903E-18
 -1      1481 9.19168E-05-2.73950E-05-2.77277E-05 1.15454E-06 6.35142E-19 6.25875E-18
 -1      1482 9.38667E-05-2.75513E-05-2.86427E-05 1.47642E-06 6.05734E-19 7.30888E-18
 -1      1483 9.63911E-05-2.80014E-05-2.95050E-05 4.87193E-06 1.28333E-18 4.96174E-18
 -1      1484 9.00815E-05-2.69692E-05-2.70281E-05 3.33305E-07 2.33490E-19 5.31405E-18
 -1      1485 9.06991E-05-2.69877E-05-2.73014E-05 4.96209E-07 2.98711E-19 5.75427E-18
 -1      1486 9.29463E-05-2.75498E-05-2.80701E-05 1.85498E-06 8.51586E-19 3.92643E-18
 -1      1487 8.95659E-05-2.68513E-05-2.68530E-05-5.60866E-08 3.57977E-19 4.57501E-18
 -1      1488 8.96038E-05-2.67892E-05-2.68812E-05 3.33126E-08 2.25718E-19 5.00342E-18
 -1      1489 9.13960E-05-2.72789E-05-2.74875E-05 5.17347E-07 5.00153E-19 3.08548E-18
 -1      1490 8.97070E-05-2.69061E-05-2.68979E-05-2.47752E-07 1.72896E-19 3.95277E-18
 -1      1491 8.94754E-05-2.67977E-05-2.68316E-05-1.96825E-07 2.83806E-19 4.32160E-18
 -1      1492 9.08736E-05-2.72002E-05-2.72944E-05-1.39234E-07 5.31010E-19 2.82721E-18
 -1      1493 9.01818E-05-2.70545E-05-2.70430E-05-3.38185E-07 5.02132E-20 3.89873E-18
 -1      1494 8.98252E-05-2.69243E-05-2.69384E-05-3.09173E-07-2.61608E-20 3.89465E-18
 -1      1495 9.09107E-05-2.72480E-05-2.72900E-05-4.69347E-07 8.74959E-20 2.54030E-18
 -1      1496 9.08180E-05-2.72485E-05-2.72354E-05-3.73956E-07 3.08974E-19 3.51073E-18
 -1      1497 9.04105E-05-2.71118E-05-2.71156E-05-3.57968E-07 2.39458E-19 3.76140E-18
 -1      1498 9.12507E-05-2.73692E-05-2.73830E-05-6.27494E-07 3.00217E-19 2.32789E-18
 -1      1499 9.15230E-05-2.74611E-05-2.74483E-05-3.81507E-07 4.45105E-19 2.56834E-18
 -1      1500 9.11028E-05-2.73261E-05-2.73243E-05-3.72953E-07 2.47587E-19 3.08010E-18
 -1      1501 9.17506E-05-2.75289E-05-2.75278E-05-6.92919E-07 5.59461E-19 1.77790E-18
 -1      1502 9.22513E-05-2.76790E-05-2.76684E-05-3.77776E-07 5.77239E-19 1.40336E-18
 -1      1503 9.18353E-05-2.75487E-05-2.75451E-05-3.72777E-07 6.12602E-19 2.32477E-18
 -1      1504 9.23320E-05-2.77068E-05-2.76999E-05-7.12115E-07 9.50875E-19 1.07237E-18
 -1      1505 9.29881E-05-2.78982E-05-2.78916E-05-3.74662E-07-1.06589E-20 1.24470E-18
 -1      1506 9.25790E-05-2.77718E-05-2.77697E-05-3.70302E-07 7.39761E-21 1.34034E-18
 -1      1507 9.29561E-05-2.78932E-05-2.78871E-05-7.15506E-07 4.52090E-19 7.62431E-19
 -1      1508 9.37410E-05-2.81210E-05-2.81200E-05-3.81248E-07-7.99925E-20 1.39561E-18
 -1      1509 9.33309E-05-2.79950E-05-2.79973E-05-3.75137E-07-7.67208E-20 1.28163E-18
 -1      1510 9.36116E-05-2.80857E-05-2.80856E-05-7.24875E-07-1.73384E-19 7.69171E-19
 -1      1511 9.45351E-05-2.83552E-05-2.83612E-05-4.05080E-07 4.18823E-19 1.02891E-18
 -1      1512 9.41076E-05-2.82236E-05-2.82328E-05-3.95080E-07 2.16042E-19 1.27648E-18
 -1      1513 9.43067E-05-2.82874E-05-2.82977E-05-7.57189E-07 1.74361E-19 3.93207E-19
 -1      1514 9.54103E-05-2.86126E-05-2.86273E-05-4.52987E-07 1.11506E-19 3.05839E-19
 -1      1515 9.49415E-05-2.84673E-05-2.84861E-05-4.37007E-07 1.87294E-19 6.71095E-19
 -1      1516 9.50656E-05-2.85058E-05-2.85304E-05-8.26822E-07 5.62167E-19 2.21694E-19
 -1      1517 9.64204E-05-2.89095E-05-2.89344E-05-5.31570E-07 1.67067E-19-1.95119E-19
 -1      1518 9.58789E-05-2.87401E-05-2.87712E-05-5.07425E-07 3.49799E-19 4.90551E-19
 -1      1519 9.59257E-05-2.87521E-05-2.87951E-05-9.46916E-07 2.37318E-19-2.25911E-19
 -1      1520 9.76320E-05-2.92656E-05-2.93025E-05-6.47371E-07-4.69552E-19 2.39393E-19
 -1      1521 9.69793E-05-2.90596E-05-2.91059E-05-6.12704E-07-1.24450E-19-9.65287E-20
 -1      1522 9.69361E-05-2.90412E-05-2.91066E-05-1.13008E-06 6.70595E-20 1.05664E-19
 -1      1523 9.91237E-05-2.97049E-05-2.97555E-05-8.06537E-07-4.58213E-19 9.00257E-19
 -1      1524 9.83144E-05-2.94475E-05-2.95119E-05-7.58860E-07-5.01668E-19 7.55795E-20
 -1      1525 9.81564E-05-2.93908E-05-2.94827E-05-1.38827E-06-5.70675E-19 6.42524E-19
 -1      1526 1.00984E-04-3.02540E-05-3.03195E-05-1.01358E-06 4.15337E-19 8.86569E-19
 -1      1527 9.99666E-05-2.99287E-05-3.00140E-05-9.50555E-07 1.11469E-19 9.49484E-19
 -1      1528 9.96545E-05-2.98218E-05-2.99438E-05-1.73143E-06-6.15654E-20 2.13009E-19
 -1      1529 1.03303E-04-3.09416E-05-3.10211E-05-1.26847E-06-4.04773E-20 9.97315E-20
 -1      1530 1.02025E-04-3.05309E-05-3.06383E-05-1.18869E-06 3.93000E-19 6.58284E-19
 -1      1531 1.01502E-04-3.03572E-05-3.05106E-05-2.16379E-06 6.54925E-19 3.91481E-19
 -1      1532 1.06158E-04-3.17935E-05-3.18819E-05-1.56089E-06-4.73106E-19 1.14004E-18
 -1      1533 1.04573E-04-3.12825E-05-3.14094E-05-1.46555E-06-4.76848E-19 4.73538E-19
 -1      1534 1.03766E-04-3.10204E-05-3.12011E-05-2.67619E-06-5.23135E-19 5.81839E-19
 -1      1535 1.09582E-04-3.28250E-05-3.29080E-05-1.85976E-06-4.83285E-19 1.92822E-18
 -1      1536 1.07670E-04-3.22073E-05-3.23420E-05-1.75594E-06-4.07678E-19 1.46902E-18
 -1      1537 1.06490E-04-3.18321E-05-3.20242E-05-3.23185E-06-8.64442E-19 9.75941E-19
 -1      1538 1.13507E-04-3.40250E-05-3.40716E-05-2.09668E-06 4.74674E-19 1.70197E-18
 -1      1539 1.11310E-04-3.33148E-05-3.34287E-05-2.00290E-06 1.27363E-19 2.22211E-18
 -1      1540 1.09664E-04-3.28033E-05-3.29682E-05-3.74260E-06-2.64759E-19 8.90238E-19
 -1      1541 1.17669E-04-3.53294E-05-3.52824E-05-2.14442E-06 1.20595E-19 9.74908E-19
 -1      1542 1.15350E-04-3.45811E-05-3.46168E-05-2.09865E-06 3.11278E-19 1.75368E-18
 -1      1543 1.13173E-04-3.39228E-05-3.39838E-05-4.03546E-06 3.90294E-19 1.47458E-18
 -1      1544 1.21497E-04-3.65810E-05-3.63553E-05-1.80234E-06-9.73757E-20 1.30798E-18
 -1      1545 1.19412E-04-3.59170E-05-3.57793E-05-1.86899E-06-7.81686E-20 7.60874E-19
 -1      1546 1.16728E-04-3.51346E-05-3.49639E-05-3.81983E-06 1.02819E-19 5.74732E-19
 -1      1547 1.24007E-04-3.74843E-05-3.69927E-05-8.23107E-07-4.89916E-19 2.45804E-18
 -1      1548 1.22772E-04-3.71196E-05-3.66875E-05-1.08786E-06-7.49909E-19 1.17943E-18
 -1      1549 1.19784E-04-3.62993E-05-3.57285E-05-2.69345E-06-9.36448E-19-3.69121E-20
 -1      1550 1.23864E-04-3.75905E-05-3.68307E-05 9.53769E-07-6.82047E-19 3.94259E-18
 -1      1551 1.24306E-04-3.78220E-05-3.70171E-05 4.24836E-07-7.44198E-20 3.41897E-18
 -1      1552 1.21503E-04-3.71408E-05-3.60415E-05-2.71989E-07-7.57539E-19 1.34915E-18
 -1      1553 1.19837E-04-3.64054E-05-3.56002E-05 3.30677E-06 1.73767E-19 4.97478E-18
 -1      1554 1.22685E-04-3.75018E-05-3.64363E-05 2.56439E-06-3.63655E-19 4.55937E-18
 -1      1555 1.20877E-04-3.72126E-05-3.56889E-05 3.44494E-06-6.91602E-19 2.81600E-18
 -1      1556 1.11815E-04-3.37449E-05-3.33970E-05 5.31285E-06 1.17493E-19 3.93172E-18
 -1      1557 1.17039E-04-3.56893E-05-3.48078E-05 4.63496E-06 6.03458E-19 4.81146E-18
 -1      1558 1.17185E-04-3.60083E-05-3.46285E-05 7.50996E-06 4.70580E-19 3.84643E-18
 -1      1559 1.01923E-04-3.02352E-05-3.08837E-05 5.49739E-06 6.50932E-19 3.11147E-18
 -1      1560 1.08073E-04-3.24516E-05-3.24404E-05 5.34114E-06 9.83220E-20 3.26944E-18
 -1      1561 1.10832E-04-3.34042E-05-3.31404E-05 9.78882E-06 4.93331E-19 4.29845E-18
 -1      1562 9.45706E-05-2.75453E-05-2.90808E-05 2.91011E-06 6.81967E-19 3.21555E-19
 -1      1563 9.88851E-05-2.89324E-05-3.01404E-05 3.56854E-06 8.40336E-19 1.43906E-18
 -1      1564 1.04060E-04-3.02026E-05-3.17787E-05 7.94269E-06 1.63027E-18 1.43387E-18
 -1      1565 9.38547E-05-2.73170E-05-2.88774E-05-1.37775E-06 9.80176E-19-2.24855E-18
 -1      1566 9.39706E-05-2.70390E-05-2.89071E-05-2.16284E-07 1.06255E-18-5.72674E-19
 -1      1567 1.00408E-04-2.82987E-05-3.11335E-05 1.83526E-06 1.56198E-18-7.29709E-19
 -1      1568 1.00226E-04-2.97012E-05-3.03813E-05-4.84669E-06-3.36239E-19-3.14969E-18
 -1      1569 9.60723E-05-2.79186E-05-2.93647E-05-3.87693E-06-6.83714E-20-3.56336E-18
 -1      1570 1.02082E-04-2.90358E-05-3.15045E-05-5.32080E-06 9.27819E-19-3.02902E-18
 -1      1571 1.10078E-04-3.32155E-05-3.28463E-05-5.69367E-06-8.35994E-19-1.68665E-18
 -1      1572 1.03933E-04-3.09511E-05-3.12892E-05-5.38580E-06-7.68358E-19-2.86276E-18
 -1      1573 1.08031E-04-3.19220E-05-3.27108E-05-9.44691E-06-8.59077E-19-3.25112E-18
 -1      1574 1.18758E-04-3.61047E-05-3.52003E-05-4.17901E-06-3.21714E-19 8.61856E-20
 -1      1575 1.13414E-04-3.43758E-05-3.37699E-05-4.46236E-06-5.02873E-19-1.09426E-18
 -1      1576 1.14917E-04-3.50763E-05-3.42174E-05-9.00519E-06-1.10278E-18-2.52432E-18
 -1      1577 1.23589E-04-3.75383E-05-3.66678E-05-1.78250E-06 7.00589E-20 5.27013E-19
 -1      1578 1.20609E-04-3.67507E-05-3.58077E-05-2.29609E-06 2.07364E-19 7.33689E-19
 -1      1579 1.19780E-04-3.69883E-05-3.54371E-05-5.52399E-06-1.74608E-19-1.87327E-18
 -1      1580 1.24364E-04-3.76125E-05-3.70493E-05 2.76316E-07 5.34524E-19-3.50500E-19
 -1      1581 1.23829E-04-3.76423E-05-3.68403E-05-1.81854E-07 4.56326E-19 7.05128E-19
 -1      1582 1.21533E-04-3.73944E-05-3.60093E-05-1.45530E-06 6.37075E-19 3.31001E-19
 -1      1583 1.22222E-04-3.68063E-05-3.65570E-05 1.54566E-06 5.72475E-19-1.03719E-18
 -1      1584 1.23413E-04-3.73335E-05-3.68473E-05 1.25057E-06 3.04045E-19-3.82727E-19
 -1      1585 1.20586E-04-3.67598E-05-3.58890E-05 1.64957E-06 3.77644E-19 2.98725E-19
 -1      1586 1.18534E-04-3.55867E-05-3.55496E-05 2.09314E-06-4.15774E-19-3.58957E-19
 -1      1587 1.20612E-04-3.63232E-05-3.61195E-05 1.95077E-06-2.59536E-19-1.15120E-18
 -1      1588 1.17917E-04-3.56294E-05-3.52450E-05 3.39285E-06 2.42476E-19 7.09456E-19
 -1      1589 1.14354E-04-3.42727E-05-3.43449E-05 2.16075E-06 4.56885E-20-3.39554E-19
 -1      1590 1.16692E-04-3.50329E-05-3.50116E-05 2.12192E-06-2.90422E-19-3.55410E-19
 -1      1591 1.14458E-04-3.43715E-05-3.43125E-05 4.02258E-06-5.88552E-19-4.76846E-19
 -1      1592 1.10326E-04-3.30405E-05-3.31527E-05 1.97373E-06 7.22769E-19-1.26848E-18
 -1      1593 1.12553E-04-3.37300E-05-3.38012E-05 1.99203E-06 9.17591E-19-4.29803E-19
 -1      1594 1.10866E-04-3.31782E-05-3.32913E-05 3.95207E-06 1.10790E-18 3.86075E-19
 -1      1595 1.06763E-04-3.19678E-05-3.20829E-05 1.68490E-06-6.14632E-19-2.06934E-18
 -1      1596 1.08709E-04-3.25515E-05-3.26565E-05 1.72852E-06 3.18178E-19-1.72607E-18
 -1      1597 1.07526E-04-3.21307E-05-3.23118E-05 3.52872E-06 6.74649E-19 9.37824E-19
 -1      1598 1.03768E-04-3.10748E-05-3.11768E-05 1.38037E-06-5.63734E-19-8.11557E-19
 -1      1599 1.05384E-04-3.15491E-05-3.16567E-05 1.43102E-06-9.20372E-19-2.19742E-18
 -1      1600 1.04612E-04-3.12505E-05-3.14417E-05 2.97898E-06-9.32199E-19-1.61792E-18
 -1      1601 1.01333E-04-3.03529E-05-3.04373E-05 1.10080E-06-1.50269E-19-2.01461E-19
 -1      1602 1.02632E-04-3.07284E-05-3.08248E-05 1.14942E-06-8.98781E-20-5.42141E-19
 -1      1603 1.02173E-04-3.05311E-05-3.07057E-05 2.42698E-06-7.48794E-19-6.52153E-19
 -1      1604 9.93997E-05-2.97814E-05-2.98494E-05 8.59967E-07 1.32156E-18-1.50462E-18
 -1      1605 1.00421E-04-3.00732E-05-3.01546E-05 9.03133E-07 1.13397E-18-4.85161E-19
 -1      1606 1.00192E-04-2.99546E-05-3.01038E-05 1.92877E-06 1.17643E-18-1.77087E-18
 -1      1607 9.78988E-05-2.93376E-05-2.93933E-05 6.56901E-07 1.66690E-18-5.55815E-18
 -1      1608 9.86848E-05-2.95599E-05-2.96279E-05 6.94483E-07 1.09086E-18-3.64005E-18
 -1      1609 9.86177E-05-2.94998E-05-2.96244E-05 1.50014E-06 2.60250E-18-3.48133E-18
 -1      1610 9.67681E-05-2.90022E-05-2.90509E-05 4.82663E-07 2.25754E-19-7.35460E-18
 -1      1611 9.73535E-05-2.91658E-05-2.92250E-05 5.16583E-07 1.03202E-18-6.08205E-18
 -1      1612 9.73976E-05-2.91471E-05-2.92533E-05 1.13445E-06 2.08714E-18-4.21811E-18
 -1      1613 9.59650E-05-2.87620E-05-2.88096E-05 3.24417E-07-6.18298E-19-6.67707E-18
 -1      1614 9.63716E-05-2.88728E-05-2.89296E-05 3.58038E-07-7.89666E-19-7.97878E-18
 -1      1615 9.64846E-05-2.88805E-05-2.89775E-05 8.13288E-07-3.47992E-19-4.77970E-18
 -1      1616 9.54673E-05-2.86119E-05-2.86596E-05 1.67625E-07 1.34123E-19-6.41927E-18
 -1      1617 9.57019E-05-2.86696E-05-2.87300E-05 2.06515E-07-6.53952E-20-6.47729E-18
 -1      1618 9.58422E-05-2.86880E-05-2.87861E-05 5.14221E-07-4.86165E-19-4.94625E-18
 -1      1619 9.52589E-05-2.85575E-05-2.85820E-05 2.21343E-08 5.48035E-20-6.13304E-18
 -1      1620 9.53238E-05-2.85594E-05-2.86133E-05 6.04919E-08 5.26852E-20-6.31073E-18
 -1      1621 9.54418E-05-2.85709E-05-2.86642E-05 2.22052E-07 1.60985E-19-5.15936E-18
 -1      1622 9.52216E-05-2.85728E-05-2.85537E-05-2.26240E-08-3.44456E-18-3.50436E-18
 -1      1623 9.52335E-05-2.84129E-05-2.86421E-05 1.28737E-07-5.21774E-18 6.76914E-19
 -1      1624 9.52562E-05-2.85011E-05-2.86061E-05 9.09895E-08-5.35093E-18-6.65865E-19
 -1      1625 9.50985E-05-2.79995E-05-2.87606E-05 2.80599E-07-1.06213E-18 3.51234E-18
 -1      1626 9.51765E-05-2.82335E-05-2.86931E-05 2.52380E-07-4.90986E-18 2.83229E-18
 -1      1627 9.52135E-05-2.82165E-05-2.87191E-05 3.81000E-07-2.35987E-18 2.06531E-18
 -1      1628 9.49042E-05-2.74180E-05-2.89245E-05 3.76745E-07 3.88130E-19 9.54516E-19
 -1      1629 9.50154E-05-2.77501E-05-2.88306E-05 3.62795E-07-2.63116E-19 1.93559E-18
 -1      1630 9.50513E-05-2.77796E-05-2.88366E-05 6.28226E-07-1.46874E-18 3.74157E-18
 -1      1631 9.46900E-05-2.67702E-05-2.91088E-05 3.99714E-07 2.70393E-18 1.94913E-19
 -1      1632 9.48104E-05-2.71336E-05-2.90056E-05 4.01143E-07 1.30555E-18 1.98452E-18
 -1      1633 9.48542E-05-2.72396E-05-2.89792E-05 7.54650E-07 7.63533E-19 2.51833E-18
 -1      1634 9.44958E-05-2.61759E-05-2.92795E-05 3.54634E-07-2.38655E-18-3.36320E-18
 -1      1635 9.46024E-05-2.65003E-05-2.91868E-05 3.68536E-07 2.28207E-18-4.73388E-18
 -1      1636 9.46533E-05-2.66811E-05-2.91280E-05 7.43621E-07-6.57938E-19-3.27026E-18
 -1      1637 9.43443E-05-2.57083E-05-2.94147E-05 2.53724E-07-2.21591E-18 9.50670E-19
 -1      1638 9.44239E-05-2.59517E-05-2.93449E-05 2.77404E-07-2.66862E-18-1.13524E-19
 -1      1639 9.44782E-05-2.61855E-05-2.92618E-05 6.11391E-07-3.68818E-19-2.90413E-18
 -1      1640 9.42606E-05-2.54471E-05-2.94908E-05 1.16715E-07-2.39441E-18 1.21184E-19
 -1      1641 9.42998E-05-2.55680E-05-2.94560E-05 1.45656E-07-2.17150E-18 1.46639E-18
 -1      1642 9.43512E-05-2.58214E-05-2.93610E-05 3.86171E-07-1.48036E-18 1.20647E-18
 -1      1643 9.42548E-05-2.54258E-05-2.94976E-05-3.43919E-08-2.71357E-18-3.78401E-19
 -1      1644 9.42490E-05-2.54089E-05-2.95024E-05-4.54149E-09-2.76933E-18 4.16185E-19
 -1      1645 9.42904E-05-2.56438E-05-2.94101E-05 1.08217E-07-1.91140E-18-5.34350E-19
 -1      1646 9.43259E-05-2.56431E-05-2.94351E-05-1.77751E-07-3.29865E-18 1.17285E-19
 -1      1647 9.42768E-05-2.54934E-05-2.94781E-05-1.51134E-07-3.08333E-18-1.13488E-19
 -1      1648 9.43021E-05-2.56743E-05-2.94024E-05-1.79955E-07-1.36073E-18-5.54003E-19
 -1      1649 9.44624E-05-2.60639E-05-2.93136E-05-2.93616E-07-5.54575E-18-2.55886E-18
 -1      1650 9.43780E-05-2.58052E-05-2.93879E-05-2.73860E-07-3.28654E-18-1.37044E-18
 -1      1651 9.43830E-05-2.59050E-05-2.93399E-05-4.37590E-07-2.57090E-18-8.72361E-19
 -1      1652 9.46414E-05-2.66151E-05-2.91545E-05-3.64906E-07-6.25345E-18 8.76302E-19
 -1      1653 9.45358E-05-2.62925E-05-2.92469E-05-3.54948E-07-5.12919E-18-1.82310E-18
 -1      1654 9.45204E-05-2.62973E-05-2.92333E-05-6.28095E-07-3.03371E-18-2.91122E-18
 -1      1655 9.48430E-05-2.72329E-05-2.89768E-05-3.82214E-07-3.85820E-18 6.52853E-19
 -1      1656 9.47287E-05-2.68855E-05-2.90760E-05-3.83558E-07-5.44154E-18 1.73240E-18
 -1      1657 9.46952E-05-2.67971E-05-2.90975E-05-7.25658E-07-2.20488E-18 2.18875E-18
 -1      1658 9.50331E-05-2.78127E-05-2.88113E-05-3.37882E-07-4.53799E-18 2.08527E-19
 -1      1659 9.49305E-05-2.75025E-05-2.88993E-05-3.51494E-07-3.73503E-18 1.31194E-19
 -1      1660 9.48873E-05-2.73400E-05-2.89510E-05-7.12778E-07-7.53763E-19-1.78804E-19
 -1      1661 9.51827E-05-2.82557E-05-2.86838E-05-2.34331E-07-5.12061E-18 2.07049E-19
 -1      1662 9.51071E-05-2.80409E-05-2.87461E-05-2.60795E-07-5.08308E-18-9.35889E-20
 -1      1663 9.50666E-05-2.78433E-05-2.88156E-05-5.81661E-07-1.54637E-18-6.64993E-19
 -1      1664 9.52644E-05-2.84633E-05-2.86248E-05-1.43654E-07-2.30344E-18 1.29360E-18
 -1      1665 9.52388E-05-2.83733E-05-2.86597E-05-1.92783E-07-3.92486E-18 1.34384E-18
 -1      1666 9.52299E-05-2.81966E-05-2.87315E-05-4.32680E-07-2.22258E-18 1.51094E-18
 -1      1667 9.53638E-05-2.84279E-05-2.86843E-05-2.98122E-07-1.68831E-18 2.41976E-18
 -1      1668 2.05601E-05-6.72286E-05 1.39096E-05-7.20787E-06 1.76522E-18 5.00596E-19
 -1      1669 2.35430E-05-7.62903E-05 1.58703E-05 6.21328E-07 1.27129E-18 4.25211E-19
 -1      1670 1.84577E-05-4.06919E-05 4.81584E-06-4.02786E-07 3.15859E-18 2.26973E-18
 -1      1671 2.36458E-05-6.30671E-05 1.04438E-05-3.31515E-06 1.82027E-18 1.10096E-18
 -1      1672 4.07061E-05-1.58917E-05-1.24649E-05 3.02544E-05 4.54603E-18 4.51553E-18
 -1      1673 3.32391E-05-3.64604E-05-3.02451E-06 1.16090E-05 2.86212E-18 3.22042E-18
 -1      1674 7.97735E-05-2.47356E-06-3.21845E-05 6.10818E-05 4.70442E-18 4.18604E-18
 -1      1675 5.33461E-05-7.87013E-06-2.17991E-05 3.74136E-05 6.32903E-18 4.05221E-18
 -1      1676 1.49962E-04-2.01256E-05-5.19075E-05 7.79193E-05 2.82951E-18 2.08963E-18
 -1      1677 1.04746E-04-5.47354E-06-4.19737E-05 6.62225E-05 3.79301E-18 4.45793E-18
 -1      1678 2.18586E-04-4.88330E-05-6.72488E-05 5.66735E-05 1.26960E-18-1.49247E-18
 -1      1679 1.75004E-04-2.73649E-05-5.99175E-05 6.98677E-05 2.33358E-18 7.19131E-19
 -1      1680 2.51121E-04-6.19590E-05-7.47477E-05 9.80867E-06 1.27351E-18-5.05573E-18
 -1      1681 2.30778E-04-5.10562E-05-7.18021E-05 4.23674E-05 1.27838E-18-2.68509E-18
 -1      1682 2.45917E-04-5.85370E-05-7.39594E-05-3.98693E-05 9.46136E-19-5.96057E-18
 -1      1683 2.60410E-04-6.68677E-05-7.60468E-05-4.67059E-06 4.00223E-19-5.60418E-18
 -1      1684 1.88156E-04-3.26165E-05-6.27690E-05-6.76988E-05 3.75479E-18-6.79490E-18
 -1      1685 2.29531E-04-5.31235E-05-6.93909E-05-5.11092E-05 2.32537E-18-5.67343E-18
 -1      1686 1.20256E-04-1.01270E-05-4.61236E-05-6.82061E-05 3.61768E-18-6.20706E-18
 -1      1687 1.65048E-04-2.63427E-05-5.52818E-05-7.52868E-05 3.64351E-18-6.90755E-18
 -1      1688 6.59042E-05-8.65440E-06-2.63443E-05-4.33794E-05 5.17707E-18-3.90990E-18
 -1      1689 9.72308E-05-8.40236E-06-3.66931E-05-6.50267E-05 4.05136E-18-4.77134E-18
 -1      1690 3.17111E-05-2.51504E-05-7.25059E-06-1.42314E-05 5.05340E-18-3.47284E-18
 -1      1691 4.22968E-05-7.06872E-06-1.66973E-05-3.53544E-05 5.11100E-18-3.90143E-18
 -1      1692 2.46091E-05-5.51599E-05 7.16623E-06 8.75094E-07 2.25819E-18-2.41913E-18
 -1      1693 2.17867E-05-3.20313E-05 4.13925E-07-6.75425E-06 4.61887E-18-3.00083E-18
 -1      1694 2.38977E-05-7.48638E-05 1.52513E-05 1.03554E-06-4.41410E-18-1.55431E-18
 -1      1695 1.92589E-05-6.10936E-05 1.21274E-05 7.51100E-06 1.88041E-19-3.40084E-18
 -1      1696 2.03782E-05-6.70634E-05 1.44215E-05-3.77248E-06-7.28618E-18-1.74552E-18
 -1      1697 2.20285E-05-7.23932E-05 1.55969E-05 4.81618E-06-5.23787E-18-4.39187E-19
 -1      1698 1.83865E-05-4.39097E-05 6.40412E-06 3.65963E-07-9.76629E-18-4.37196E-18
 -1      1699 2.37158E-05-6.51354E-05 1.16971E-05 3.93133E-07-8.51438E-18-2.99236E-18
 -1      1700 3.30524E-05-1.60366E-05-9.37388E-06 2.61152E-05-9.31567E-18-5.90424E-18
 -1      1701 2.91022E-05-3.84944E-05-6.06243E-07 9.88076E-06-9.00057E-18-4.87213E-18
 -1      1702 7.71903E-05-6.47699E-06-2.96379E-05 5.75195E-05-7.60974E-18-7.94686E-18
 -1      1703 5.23079E-05-1.40872E-05-1.88150E-05 3.38131E-05-8.96923E-18-6.87367E-18
 -1      1704 1.46219E-04-2.06353E-05-5.04002E-05 7.27548E-05-5.17114E-18-6.50013E-18
 -1      1705 1.01327E-04-7.49509E-06-3.99108E-05 6.00698E-05-7.21079E-18-7.11508E-18
 -1      1706 2.13376E-04-4.55096E-05-6.61208E-05 6.30823E-05-2.44925E-18-6.84149E-18
 -1      1707 1.70183E-04-2.37455E-05-5.92294E-05 7.53449E-05-3.63059E-18-7.26754E-18
 -1      1708 2.48938E-04-6.26744E-05-7.36722E-05 1.63067E-05-1.90053E-18-4.76837E-18
 -1      1709 2.28652E-04-5.09503E-05-7.06721E-05 4.86359E-05-2.45714E-18-6.57594E-18
 -1      1710 2.34873E-04-5.41404E-05-7.21554E-05-3.46443E-05-4.50622E-19-1.40523E-18
 -1      1711 2.46910E-04-6.08835E-05-7.38530E-05-3.10399E-07-1.45838E-18-3.16078E-18
 -1      1712 1.89325E-04-3.25940E-05-6.31698E-05-6.90351E-05-8.63762E-19 1.14349E-19
 -1      1713 2.26158E-04-5.20821E-05-6.89217E-05-5.02844E-05-1.62207E-19-6.30193E-19
 -1      1714 1.24857E-04-8.27638E-06-4.82260E-05-7.36590E-05-2.53220E-18 2.73338E-18
 -1      1715 1.68076E-04-2.57158E-05-5.65426E-05-7.75570E-05-1.72498E-18 7.01343E-19
 -1      1716 6.97622E-05-2.96987E-06-2.95656E-05-5.06236E-05-5.62853E-18 3.62361E-18
 -1      1717 1.02238E-04-5.42270E-06-3.93921E-05-7.05420E-05-3.71339E-18 2.78250E-18
 -1      1718 3.89605E-05-1.66916E-05-1.26199E-05-2.51931E-05-6.52724E-18 4.19281E-18
 -1      1719 5.14583E-05-4.33042E-06-2.08596E-05-4.40546E-05-5.76237E-18 4.09710E-18
 -1      1720 2.54031E-05-3.91497E-05 8.84824E-07-4.92508E-06-6.11134E-18 3.61323E-18
 -1      1721 2.57027E-05-1.80604E-05-6.14473E-06-1.69726E-05-6.99819E-18 4.73322E-18
 -1      1722 5.72127E-05-3.47427E-05-1.15192E-05-3.64229E-05-3.25854E-18 2.32087E-18
 -1      1723 2.40827E-05-6.51828E-05 1.14531E-05 1.23693E-06-1.32095E-18 2.53014E-18
 -1      1724 1.87722E-05-4.70748E-05 7.12917E-06 9.27941E-07-4.47572E-18 4.02388E-18
 -1      1725 2.48168E-05-7.90024E-05 1.62007E-05-2.03846E-06 8.17387E-19 9.33430E-19
 -1      1726 2.18730E-05-7.05280E-05 1.44130E-05 6.15375E-06-1.21083E-18 1.76056E-18
 -1      1727 1.71172E-05-4.99572E-05 9.43271E-06-1.25093E-05-6.89485E-19 3.08024E-18
 -1      1728 1.19149E-04-3.15567E-05-3.65525E-05 4.57393E-05 3.22847E-18 1.38998E-18
 -1      1729 7.73060E-05-3.84869E-05-1.81472E-05 3.89046E-05 8.57197E-19 1.72244E-18
 -1      1730 9.52716E-05-2.85673E-05-2.85864E-05 1.47558E-08-4.46300E-18-3.07570E-18
 -1      1731 9.52968E-05-2.84581E-05-2.86448E-05 1.53839E-07-1.13169E-18-2.17777E-18
 -1      1732 1.80920E-05-4.84212E-05 8.65571E-06 1.15700E-05 6.76779E-19 8.30728E-19
 -1      1733 4.19642E-05-4.28498E-05-2.28085E-06 2.91025E-05 7.11508E-20 2.56487E-18
 -1      1734 1.28740E-05-5.30509E-05 1.24089E-05-6.20134E-07 2.59933E-19 1.03973E-18
 -1      1735 1.66044E-04-3.30018E-05-5.35926E-05 3.90824E-05 3.00188E-18-4.33681E-19
 -1      1736 1.95186E-04-3.22416E-05-6.54062E-05 1.95890E-05 2.26793E-18-2.62877E-18
 -1      1737 2.10627E-04-3.29719E-05-7.08465E-05-7.24278E-07 1.26631E-18-3.92579E-18
 -1      1738 2.05267E-04-3.48901E-05-6.77320E-05-1.89633E-05 1.45436E-18-4.47572E-18
 -1      1739 1.74112E-04-3.41142E-05-5.63937E-05-3.48081E-05 2.61490E-18-3.77268E-18
 -1      1740 1.32271E-04-3.49917E-05-4.02708E-05-4.22395E-05 1.80460E-18-3.88619E-18
 -1      1741 8.61711E-05-3.55528E-05-2.23413E-05-4.07519E-05 2.42760E-18-2.00535E-18
 -1      1742 4.68145E-05-4.01049E-05-5.69301E-06-2.95760E-05 1.64324E-18-2.36110E-18
 -1      1743 2.30177E-05-4.71783E-05 6.23757E-06-1.65059E-05-4.06999E-19-4.70993E-18
 -1      1744 1.17608E-05-4.83217E-05 1.13213E-05-1.62627E-06-2.83004E-18-2.92650E-18
 -1      1745 1.54351E-05-4.59320E-05 9.09764E-06 1.23851E-05-5.35071E-18-2.94429E-18
 -1      1746 3.56435E-05-4.18329E-05-2.34925E-07 2.83124E-05-5.73780E-18-3.01655E-18
 -1      1747 7.30171E-05-3.87102E-05-1.57442E-05 4.04535E-05-5.49894E-18-4.06682E-18
 -1      1748 1.18815E-04-3.67895E-05-3.42406E-05 4.16752E-05-5.03900E-18-3.69645E-18
 -1      1749 1.59893E-04-3.24494E-05-5.21011E-05 3.79941E-05-4.20764E-18-4.44099E-18
 -1      1750 1.95716E-04-3.26845E-05-6.50447E-05 2.77154E-05-2.72829E-18-5.43202E-18
 -1      1751 2.05044E-04-3.15291E-05-6.94898E-05 4.30592E-06-2.87610E-18-3.48236E-18
 -1      1752 1.97300E-04-3.12023E-05-6.66296E-05-1.94128E-05-1.20152E-18-1.09437E-18
 -1      1753 1.73013E-04-3.03974E-05-5.72634E-05-3.91792E-05-1.56632E-18-6.03934E-19
 -1      1754 1.32947E-04-2.94435E-05-4.24965E-05-4.64352E-05-2.90744E-18 7.80117E-19
 -1      1755 9.19342E-05-3.20553E-05-2.58387E-05-4.40153E-05-3.88280E-18 1.30782E-18
 -1      1756 1.05957E-04-2.31457E-05-3.55741E-05-1.68530E-05-1.32088E-18 3.03555E-18
 -1      1757 3.17478E-05-4.21024E-05 9.31419E-07-2.34138E-05-1.64494E-18 3.94537E-18
 -1      1758 8.91439E-05-1.05845E-05-3.37935E-05-1.33288E-05-1.27487E-18-2.68449E-18
 -1      1759 9.04593E-05-1.16264E-05-3.39277E-05-1.51376E-05-1.59405E-18-2.28111E-18
 -1      1760 9.24500E-05-1.38663E-05-3.38405E-05-1.60039E-05-1.66126E-18-1.69036E-18
 -1      1761 9.41499E-05-1.58086E-05-3.40789E-05-1.76643E-05-1.89017E-18-9.54077E-19
 -1      1762 9.33857E-05-1.63390E-05-3.30346E-05-1.37698E-05-1.72778E-18-1.82311E-18
 -1      1763 8.62452E-05-7.67386E-06-3.37445E-05-7.86299E-06-4.16363E-19-3.20565E-18
 -1      1764 8.66409E-05-7.97185E-06-3.37751E-05-9.25214E-06-6.13967E-19-3.16156E-18
 -1      1765 8.56411E-05-7.03546E-06-3.37474E-05-5.31871E-06-9.76090E-20-3.17205E-18
 -1      1766 8.58700E-05-7.21450E-06-3.37599E-05-6.62336E-06-2.44386E-19-3.22907E-18
 -1      1767 8.76309E-05-9.86374E-06-3.33604E-05-6.92529E-06-4.00424E-19-3.08753E-18
 -1      1768 8.53135E-05-6.67533E-06-3.37545E-05-2.88769E-06 2.85582E-19-2.94619E-18
 -1      1769 8.54312E-05-6.77038E-06-3.37588E-05-4.12703E-06 1.01293E-19-3.05868E-18
 -1      1770 8.70059E-05-9.14993E-06-3.33990E-05-4.53351E-06 4.45565E-20-3.00846E-18
 -1      1771 8.51859E-05-6.52652E-06-3.37596E-05-5.17574E-07 6.32706E-19-2.90121E-18
 -1      1772 8.52204E-05-6.55513E-06-3.37604E-05-1.72664E-06 4.98447E-19-2.94938E-18
 -1      1773 8.66798E-05-8.76923E-06-3.34224E-05-2.21523E-06 3.80469E-19-2.83902E-18
 -1      1774 8.52305E-05-6.56437E-06-3.37607E-05 1.84386E-06 9.70654E-19-2.75977E-18
 -1      1775 8.51897E-05-6.53123E-06-3.37595E-05 6.33714E-07 8.04714E-19-2.84370E-18
 -1      1776 8.65837E-05-8.65525E-06-3.34300E-05 6.48674E-08 7.58265E-19-2.81519E-18
 -1      1777 8.54567E-05-6.79574E-06-3.37590E-05 4.24907E-06 1.25027E-18-2.52757E-18
 -1      1778 8.53318E-05-6.69465E-06-3.37545E-05 3.00648E-06 1.10132E-18-2.69589E-18
 -1      1779 8.66978E-05-8.78924E-06-3.34217E-05 2.34644E-06 1.11495E-18-2.68069E-18
 -1      1780 8.59043E-05-7.25040E-06-3.37597E-05 6.71054E-06 1.54445E-18-2.22692E-18
 -1      1781 8.56717E-05-7.06783E-06-3.37475E-05 5.42314E-06 1.35852E-18-2.39679E-18
 -1      1782 8.70405E-05-9.18814E-06-3.33976E-05 4.64817E-06 1.40164E-18-2.40616E-18
 -1      1783 8.67025E-05-8.04093E-06-3.37736E-05 9.37348E-06 1.83475E-18-1.77055E-18
 -1      1784 8.62900E-05-7.72445E-06-3.37435E-05 7.95215E-06 1.64204E-18-2.04746E-18
 -1      1785 8.76823E-05-9.92281E-06-3.33580E-05 7.02324E-06 1.71967E-18-2.01807E-18
 -1      1786 8.80930E-05-9.38741E-06-3.38201E-05 1.22545E-05 2.06154E-18-1.01220E-18
 -1      1787 8.73649E-05-8.83065E-06-3.37527E-05 1.06609E-05 1.91368E-18-1.46698E-18
 -1      1788 8.87872E-05-1.11587E-05-3.33001E-05 9.49891E-06 1.98637E-18-1.48867E-18
 -1      1789 9.06087E-05-1.18355E-05-3.39197E-05 1.53042E-05 2.22542E-18 1.86956E-19
 -1      1790 8.92431E-05-1.07383E-05-3.37853E-05 1.35144E-05 2.11936E-18-4.98188E-19
 -1      1791 9.06608E-05-1.32194E-05-3.32078E-05 1.19736E-05 2.23506E-18-6.18837E-19
 -1      1792 9.58179E-05-1.70206E-05-3.39741E-05 1.76927E-05 2.06392E-18 2.31155E-18
 -1      1793 9.28167E-05-1.43341E-05-3.38135E-05 1.61967E-05 2.12942E-18 1.02581E-18
 -1      1794 9.39381E-05-1.68781E-05-3.30144E-05 1.38952E-05 2.24211E-18 6.99252E-19
 -1      1795 1.01840E-04-2.50701E-05-3.33330E-05 1.44253E-05 1.70105E-18 4.80437E-18
 -1      1796 9.80062E-05-1.95986E-05-3.36028E-05 1.69668E-05 1.88241E-18 3.18352E-18
 -1      1797 9.72678E-05-2.18368E-05-3.24087E-05 1.32515E-05 2.11175E-18 2.25202E-18
 -1      1798 9.86666E-05-2.61101E-05-3.13166E-05 9.43928E-06 1.73822E-18 4.23962E-18
 -1      1799 1.00077E-04-1.95435E-05-3.41927E-05-1.88707E-05-1.72436E-18 5.29819E-19
 -1      1800 9.52266E-05-2.72597E-05-2.91601E-05 4.07030E-06 1.35147E-18 3.37635E-18
 -1      1801 9.76570E-05-2.73652E-05-3.01691E-05 6.40444E-06 1.50637E-18 3.86331E-18
 -1      1802 9.75041E-05-2.55931E-05-3.08111E-05 8.76313E-06 1.79973E-18 2.71131E-18
 -1      1803 3.41340E-05-3.97913E-05 8.09439E-07-2.92712E-05 3.96411E-19 4.15597E-18
 -1      1804 4.69245E-05-3.75207E-05-4.82952E-06-3.65100E-05-4.84926E-19 3.19210E-18
 -1      1805 9.97455E-05-2.25227E-05-3.28145E-05-1.44697E-05-1.80627E-18-5.37337E-20
 -1      1806 9.68873E-05-2.69553E-05-2.98562E-05-5.70668E-06-1.44626E-18-2.12585E-19
 -1      1807 9.50803E-05-2.70102E-05-2.91461E-05-3.89770E-06-1.28770E-18-5.89972E-19
 -1      1808 9.42657E-05-2.72125E-05-2.86400E-05-2.41843E-06-1.24248E-18-6.30060E-19
 -1      1809 9.34966E-05-2.72928E-05-2.83360E-05-1.56219E-06-1.00369E-18-9.30969E-19
 -1      1810 9.54557E-05-2.65254E-05-2.95625E-05-4.46751E-06-1.50649E-18-1.00762E-18
 -1      1811 9.29769E-05-2.73433E-05-2.80696E-05-7.29512E-07-7.26672E-19-9.71371E-19
 -1      1812 9.26815E-05-2.74068E-05-2.79497E-05-2.85521E-07-6.14000E-19-1.09740E-18
 -1      1813 9.42541E-05-2.72010E-05-2.87579E-05-1.81439E-06-1.10828E-18-1.15207E-18
 -1      1814 9.24152E-05-2.74350E-05-2.78176E-05 1.79978E-07-7.11628E-19-1.10517E-18
 -1      1815 9.23952E-05-2.75121E-05-2.77916E-05 4.13192E-07-6.20524E-19-1.20118E-18
 -1      1816 9.35665E-05-2.75056E-05-2.83287E-05-3.29340E-07-7.53476E-19-1.28624E-18
 -1      1817 9.23068E-05-2.75452E-05-2.77395E-05 6.68570E-07-5.53056E-19-1.27235E-18
 -1      1818 9.24412E-05-2.76329E-05-2.77652E-05 7.86505E-07-3.97780E-19-1.51563E-18
 -1      1819 9.32687E-05-2.76898E-05-2.81181E-05 5.02511E-07-7.11288E-19-1.40566E-18
 -1      1820 9.24697E-05-2.76740E-05-2.77623E-05 9.20580E-07-4.20370E-19-1.59037E-18
 -1      1821 9.26888E-05-2.77659E-05-2.78173E-05 9.74741E-07-4.12313E-19-1.59234E-18
 -1      1822 9.32417E-05-2.78336E-05-2.80412E-05 9.57700E-07-5.32463E-19-1.45722E-18
 -1      1823 9.27917E-05-2.78127E-05-2.78453E-05 1.04094E-06-4.69499E-19-1.71280E-18
 -1      1824 9.30562E-05-2.79045E-05-2.79169E-05 1.06242E-06-3.96866E-19-1.66459E-18
 -1      1825 9.33918E-05-2.79603E-05-2.80483E-05 1.19637E-06-5.21207E-19-1.46036E-18
 -1      1826 9.32070E-05-2.79545E-05-2.79648E-05 1.09516E-06-4.92903E-19-1.68461E-18
 -1      1827 9.34966E-05-2.80443E-05-2.80463E-05 1.10440E-06-4.12640E-19-1.73473E-18
 -1      1828 9.36552E-05-2.80767E-05-2.81094E-05 1.31789E-06-4.47447E-19-1.60564E-18
 -1      1829 9.36801E-05-2.80963E-05-2.81078E-05 1.12712E-06-3.63348E-19-1.86907E-18
 -1      1830 9.39873E-05-2.81846E-05-2.81965E-05 1.13834E-06-3.23069E-19-2.16189E-18
 -1      1831 9.39933E-05-2.81853E-05-2.82066E-05 1.38797E-06-6.71359E-19-1.75091E-18
 -1      1832 9.41969E-05-2.82388E-05-2.82685E-05 1.16762E-06-3.87332E-19-2.45375E-18
 -1      1833 9.45231E-05-2.83279E-05-2.83642E-05 1.19098E-06-3.38168E-19-2.83200E-18
 -1      1834 9.43861E-05-2.82890E-05-2.83300E-05 1.45212E-06-5.98547E-19-1.74682E-18
 -1      1835 9.47586E-05-2.83858E-05-2.84461E-05 1.23866E-06-1.64919E-19-2.71816E-18
 -1      1836 9.51113E-05-2.84794E-05-2.85505E-05 1.28137E-06-2.27971E-19-2.51945E-18
 -1      1837 9.48281E-05-2.83923E-05-2.84752E-05 1.54267E-06-2.74258E-19-2.30949E-18
 -1      1838 9.53768E-05-2.85436E-05-2.86429E-05 1.35551E-06-1.81356E-19-2.45973E-18
 -1      1839 9.57676E-05-2.86469E-05-2.87589E-05 1.42216E-06-1.02115E-19-2.41214E-18
 -1      1840 9.53241E-05-2.85013E-05-2.86413E-05 1.68225E-06-9.00152E-20-1.93233E-18
 -1      1841 9.60703E-05-2.87211E-05-2.88634E-05 1.52717E-06-2.77094E-19-2.37319E-18
 -1      1842 9.65131E-05-2.88401E-05-2.89945E-05 1.61940E-06-2.17560E-19-2.13885E-18
 -1      1843 9.58862E-05-2.86246E-05-2.88299E-05 1.88509E-06-4.80317E-20-1.66181E-18
 -1      1844 9.68618E-05-2.89291E-05-2.91129E-05 1.75536E-06-1.29729E-19-2.20761E-18
 -1      1845 9.73701E-05-2.90705E-05-2.92624E-05 1.87096E-06 2.67509E-19-2.25942E-18
 -1      1846 9.65315E-05-2.87730E-05-2.90434E-05 2.15644E-06-1.05596E-19-1.95717E-18
 -1      1847 9.77740E-05-2.91802E-05-2.93958E-05 2.03209E-06 2.82125E-19-2.29179E-18
 -1      1848 9.83587E-05-2.93512E-05-2.95659E-05 2.16324E-06 3.61479E-19-2.16450E-18
 -1      1849 9.72792E-05-2.89608E-05-2.92839E-05 2.49018E-06 2.16254E-19-1.65265E-18
 -1      1850 9.88257E-05-2.94887E-05-2.97142E-05 2.33542E-06-5.81917E-20-2.43415E-18
 -1      1851 9.94903E-05-2.96958E-05-2.99047E-05 2.46622E-06-4.68927E-19-2.53200E-18
 -1      1852 9.81480E-05-2.92058E-05-2.95518E-05 2.86449E-06-6.39944E-20-1.70898E-18
 -1      1853 1.00025E-04-2.98692E-05-3.00653E-05 2.62360E-06-3.40073E-19-2.43509E-18
 -1      1854 1.00761E-04-3.01174E-05-3.02720E-05 2.72690E-06-2.87726E-19-2.29078E-18
 -1      1855 9.91526E-05-2.95297E-05-2.98437E-05 3.23551E-06-3.72344E-19-1.71461E-18
 -1      1856 1.01362E-04-3.03351E-05-3.04392E-05 2.82811E-06-1.98131E-19-2.17540E-18
 -1      1857 1.02140E-04-3.06250E-05-3.06522E-05 2.86246E-06 2.39228E-19-2.13581E-18
 -1      1858 1.00299E-04-2.99578E-05-3.01513E-05 3.52952E-06-9.82264E-20-1.55161E-18
 -1      1859 1.02797E-04-3.08938E-05-3.08160E-05 2.84761E-06 5.32462E-19-2.16868E-18
 -1      1860 1.03562E-04-3.12173E-05-3.10175E-05 2.75619E-06 8.09889E-19-2.39344E-18
 -1      1861 1.01578E-04-3.05151E-05-3.04598E-05 3.63556E-06 3.10397E-19-2.35190E-18
 -1      1862 1.04249E-04-3.15374E-05-3.11639E-05 2.54778E-06 7.59668E-19-2.42994E-18
 -1      1863 1.04910E-04-3.18707E-05-3.13279E-05 2.26304E-06 1.48562E-20-2.12155E-18
 -1      1864 1.02956E-04-3.12172E-05-3.07473E-05 3.40295E-06 8.10800E-19-2.11659E-18
 -1      1865 1.05577E-04-3.22268E-05-3.14398E-05 1.77634E-06-2.20526E-19-1.75348E-18
 -1      1866 1.06008E-04-3.25207E-05-3.15336E-05 1.23614E-06 2.38073E-19-1.32981E-18
 -1      1867 1.04357E-04-3.20497E-05-3.09872E-05 2.65296E-06 3.03562E-19-2.32053E-18
 -1      1868 1.06570E-04-3.28664E-05-3.15946E-05 4.07119E-07-2.54772E-20-9.12248E-19
 -1      1869 1.06618E-04-3.30370E-05-3.15844E-05-4.11038E-07 1.08017E-19-1.01787E-18
 -1      1870 1.05644E-04-3.29342E-05-3.11536E-05 1.21887E-06 3.61236E-19-1.29869E-18
 -1      1871 1.06950E-04-3.32795E-05-3.15845E-05-1.57270E-06 2.00098E-19-1.43648E-18
 -1      1872 1.06470E-04-3.32092E-05-3.14472E-05-2.59901E-06 1.93322E-19-1.45518E-18
 -1      1873 1.06594E-04-3.36848E-05-3.12301E-05-9.68068E-07 1.80918E-19-1.35894E-18
 -1      1874 1.06411E-04-3.32084E-05-3.13892E-05-3.93611E-06 4.85234E-19-1.48647E-18
 -1      1875 1.05330E-04-3.27775E-05-3.11269E-05-4.95541E-06 4.38181E-19-1.43928E-18
 -1      1876 1.06899E-04-3.39848E-05-3.12208E-05-3.74063E-06 4.40315E-19-9.65431E-19
 -1      1877 1.04745E-04-3.23924E-05-3.10304E-05-6.10659E-06 2.44180E-19-1.45089E-18
 -1      1878 1.03153E-04-3.15586E-05-3.06825E-05-6.75594E-06 1.56713E-19-1.42992E-18
 -1      1879 1.06231E-04-3.34505E-05-3.11556E-05-6.54424E-06 3.73333E-19-1.28643E-18
 -1      1880 1.02060E-04-3.07614E-05-3.05782E-05-7.20287E-06 1.69447E-19-1.73136E-18
 -1      1881 1.00273E-04-2.96656E-05-3.02207E-05-7.08523E-06-3.36249E-20-1.59349E-18
 -1      1882 1.04448E-04-3.18547E-05-3.10814E-05-8.40344E-06 2.36292E-20-1.57275E-18
 -1      1883 9.89740E-05-2.86712E-05-3.01381E-05-6.38372E-06 3.65151E-20-1.27616E-18
 -1      1884 9.75018E-05-2.76759E-05-2.98627E-05-5.30885E-06 1.80246E-19-1.16032E-18
 -1      1885 1.01876E-04-2.94525E-05-3.10370E-05-8.20713E-06 4.40819E-19-1.89951E-18
 -1      1886 9.65543E-05-2.69337E-05-2.98159E-05-3.44725E-06-2.37930E-19-9.87174E-19
 -1      1887 9.59081E-05-2.64757E-05-2.96991E-05-1.65787E-06-2.26647E-19-8.67420E-19
 -1      1888 9.94436E-05-2.71392E-05-3.10261E-05-5.37671E-06 7.39036E-20-5.68607E-19
 -1      1889 9.58070E-05-2.63968E-05-2.96932E-05 7.63575E-07-3.27736E-19-1.39059E-18
 -1      1890 9.62361E-05-2.67046E-05-2.97694E-05 2.62888E-06-1.16130E-19-1.22395E-18
 -1      1891 9.83023E-05-2.60454E-05-3.10242E-05-5.50871E-07-1.71008E-19-1.48830E-18
 -1      1892 9.70383E-05-2.73370E-05-2.98061E-05 4.67045E-06-5.80403E-19-1.65312E-18
 -1      1893 9.83734E-05-2.82538E-05-3.00529E-05 5.92570E-06-9.78912E-19-2.09160E-18
 -1      1894 9.90664E-05-2.67823E-05-3.10205E-05 4.48630E-06-5.83030E-19-1.73504E-18
 -1      1895 9.96451E-05-2.92349E-05-3.01284E-05 6.88265E-06-1.12329E-18-1.38204E-18
 -1      1896 1.01408E-04-3.03442E-05-3.04754E-05 7.19206E-06-4.77317E-19-1.33670E-18
 -1      1897 1.01315E-04-2.89331E-05-3.10253E-05 7.81807E-06-8.03341E-19-1.59970E-18
 -1      1898 1.02576E-04-3.12089E-05-3.05764E-05 6.95150E-06-1.96350E-19-1.57680E-18
 -1      1899 1.04236E-04-3.21140E-05-3.09317E-05 6.42739E-06 2.88937E-19-1.04762E-18
 -1      1900 1.03944E-04-3.14043E-05-3.10612E-05 8.53796E-06-3.39810E-19-1.34012E-19
 -1      1901 1.04929E-04-3.25859E-05-3.10312E-05 5.37329E-06 2.55854E-19-1.32604E-18
 -1      1902 1.06121E-04-3.30980E-05-3.13137E-05 4.39468E-06 3.77767E-19-1.24398E-18
 -1      1903 1.05928E-04-3.32067E-05-3.11295E-05 7.00917E-06-2.73453E-19-1.57651E-19
 -1      1904 1.06275E-04-3.31660E-05-3.13802E-05 3.05741E-06 6.30543E-19-1.62377E-18
 -1      1905 1.06868E-04-3.32988E-05-3.15422E-05 2.00808E-06 2.21982E-19-1.18228E-18
 -1      1906 1.06814E-04-3.39474E-05-3.11982E-05 4.30339E-06 2.00714E-19 1.04284E-19
 -1      1907 1.06598E-04-3.30919E-05-3.15532E-05 7.89993E-07 5.67115E-21-1.10878E-18
 -1      1908 1.06639E-04-3.29575E-05-3.15858E-05-8.17938E-08-5.24366E-20-1.24486E-18
 -1      1909 1.06674E-04-3.37839E-05-3.12195E-05 1.46097E-06 2.74277E-19-2.06692E-19
 -1      1910 1.06107E-04-3.26219E-05-3.15353E-05-9.84286E-07 1.33927E-19-1.02120E-18
 -1      1911 1.05733E-04-3.23420E-05-3.14579E-05-1.58230E-06 9.78922E-19-6.23754E-19
 -1      1912 1.05818E-04-3.30921E-05-3.11591E-05-8.72705E-07 5.62910E-19 9.16684E-19
 -1      1913 1.05075E-04-3.19810E-05-3.13541E-05-2.13494E-06 1.30757E-18-1.87746E-18
 -1      1914 1.04441E-04-3.16474E-05-3.11995E-05-2.46694E-06 1.75285E-19-7.84634E-19
 -1      1915 1.04570E-04-3.22112E-05-3.10083E-05-2.46111E-06 2.33975E-19 2.61483E-19
 -1      1916 1.03751E-04-3.13158E-05-3.10582E-05-2.72299E-06-4.89635E-19-3.28952E-19
 -1      1917 1.02992E-04-3.09843E-05-3.08605E-05-2.84566E-06-6.02122E-19-1.91727E-19
 -1      1918 1.03171E-04-3.13536E-05-3.07803E-05-3.33557E-06-2.28025E-19-2.98899E-19
 -1      1919 1.02325E-04-3.07027E-05-3.06996E-05-2.88741E-06-5.42067E-19-2.26130E-19
 -1      1920 1.01541E-04-3.04016E-05-3.04870E-05-2.86783E-06-2.69686E-19 8.70710E-19
 -1      1921 1.01776E-04-3.06163E-05-3.05010E-05-3.64921E-06-2.95363E-19 8.09845E-19
 -1      1922 1.00930E-04-3.01720E-05-3.03218E-05-2.77368E-06 4.68967E-19 5.66713E-19
 -1      1923 1.00185E-04-2.99124E-05-3.01145E-05-2.66971E-06 1.02338E-18 4.38117E-19
 -1      1924 1.00474E-04-3.00232E-05-3.01985E-05-3.57944E-06 1.77477E-19 2.18134E-18
 -1      1925 9.96454E-05-2.97289E-05-2.99569E-05-2.50076E-06 1.18596E-18-9.95151E-19
 -1      1926 9.89779E-05-2.95122E-05-2.97677E-05-2.35434E-06 5.92849E-19-3.88994E-20
 -1      1927 9.93090E-05-2.95625E-05-2.98972E-05-3.27926E-06 5.71280E-19 1.07706E-19
 -1      1928 9.85140E-05-2.93664E-05-2.96253E-05-2.15190E-06 3.98163E-19 9.77668E-19
 -1      1929 9.79415E-05-2.91892E-05-2.94612E-05-1.98914E-06 1.59603E-18 2.80862E-18
 -1      1930 9.82986E-05-2.92094E-05-2.96156E-05-2.86085E-06 2.12003E-18 1.00732E-18
 -1      1931 9.75526E-05-2.90728E-05-2.93387E-05-1.77686E-06 1.82624E-18 2.50562E-18
 -1      1932 9.70811E-05-2.89300E-05-2.92029E-05-1.61045E-06 1.94687E-18 1.87158E-18
 -1      1933 9.74441E-05-2.89375E-05-2.93657E-05-2.39567E-06 1.66007E-18 1.74127E-18
 -1      1934 9.67628E-05-2.88358E-05-2.91023E-05-1.39877E-06 1.50018E-18 1.55295E-18
 -1      1935 9.63921E-05-2.87225E-05-2.89960E-05-1.23205E-06 1.35133E-18 1.62118E-18
 -1      1936 9.67379E-05-2.87238E-05-2.91543E-05-1.92102E-06 1.16512E-18 4.23149E-19
 -1      1937 9.61361E-05-2.86443E-05-2.89174E-05-1.02218E-06 7.66996E-19 1.23886E-18
 -1      1938 9.58645E-05-2.85588E-05-2.88400E-05-8.52621E-07 7.30185E-20 2.06986E-18
 -1      1939 9.61668E-05-2.85488E-05-2.89836E-05-1.45142E-06 9.73881E-19 2.30265E-19
 -1      1940 9.56857E-05-2.85078E-05-2.87843E-05-6.55483E-07-4.20361E-20 2.78713E-18
 -1      1941 9.55047E-05-2.84542E-05-2.87302E-05-4.90620E-07-6.36645E-19 2.44030E-18
 -1      1942 9.54422E-05-2.83589E-05-2.87536E-05-5.84069E-07-1.01267E-18 2.41350E-18
 -1      1943 9.57381E-05-2.84218E-05-2.88552E-05-9.99759E-07 8.10262E-19 1.64663E-18
 -1      1944 9.31291E-05-2.73357E-05-2.81691E-05 1.60547E-06 8.43274E-19 2.60236E-18
 -1      1945 9.43233E-05-2.74418E-05-2.86053E-05 2.67799E-06 1.08582E-18 3.07398E-18
 -1      1946 9.51607E-05-2.70237E-05-2.92067E-05 4.05542E-06 1.37334E-18 2.15567E-18
 -1      1947 9.20846E-05-2.73232E-05-2.77301E-05 3.41336E-07 7.12894E-19 2.03106E-18
 -1      1948 9.25760E-05-2.73553E-05-2.79013E-05 8.92286E-07 5.73766E-19 2.31824E-18
 -1      1949 9.35623E-05-2.73451E-05-2.83856E-05 1.57930E-06 8.52598E-19 1.70684E-18
 -1      1950 9.17241E-05-2.73629E-05-2.75674E-05-3.24401E-07 3.59058E-19 2.09679E-18
 -1      1951 9.18323E-05-2.73351E-05-2.76118E-05-2.67536E-08 5.32933E-19 2.07369E-18
 -1      1952 9.27435E-05-2.74615E-05-2.79882E-05 2.54076E-07 6.21138E-19 1.38560E-18
 -1      1953 9.17749E-05-2.74582E-05-2.75537E-05-6.70154E-07 1.02215E-19 1.58136E-18
 -1      1954 9.16737E-05-2.73936E-05-2.75327E-05-5.08767E-07 1.71652E-19 1.89855E-18
 -1      1955 9.24510E-05-2.75568E-05-2.78222E-05-4.59804E-07 3.41478E-19 1.09636E-18
 -1      1956 9.20646E-05-2.75892E-05-2.76245E-05-8.38449E-07 6.48636E-19 1.33302E-18
 -1      1957 9.18506E-05-2.75053E-05-2.75682E-05-7.53841E-07 2.94742E-19 1.45119E-18
 -1      1958 9.24899E-05-2.76669E-05-2.77900E-05-8.36405E-07 4.29370E-19 5.87287E-19
 -1      1959 9.24897E-05-2.77389E-05-2.77441E-05-9.10558E-07 8.67207E-19 9.44993E-19
 -1      1960 9.22167E-05-2.76465E-05-2.76686E-05-8.68366E-07 7.72070E-19 1.34905E-18
 -1      1961 9.27306E-05-2.77912E-05-2.78378E-05-1.02426E-06 8.36895E-19 4.44481E-19
 -1      1962 9.29914E-05-2.78967E-05-2.78924E-05-9.37885E-07 1.01907E-18 6.86309E-19
 -1      1963 9.26883E-05-2.78016E-05-2.78062E-05-9.15971E-07 1.01458E-18 9.34713E-19
 -1      1964 9.30923E-05-2.79231E-05-2.79348E-05-1.11192E-06 1.14722E-18 5.85546E-19
 -1      1965 9.35420E-05-2.80584E-05-2.80594E-05-9.55886E-07-1.22123E-19 5.64439E-19
 -1      1966 9.32208E-05-2.79623E-05-2.79664E-05-9.38633E-07 4.59828E-19 7.38937E-19
 -1      1967 9.35295E-05-2.80580E-05-2.80632E-05-1.15719E-06 5.95734E-19 5.77294E-19
 -1      1968 9.41356E-05-2.82245E-05-2.82426E-05-9.90992E-07-5.43274E-20 4.24121E-19
 -1      1969 9.37970E-05-2.81266E-05-2.81431E-05-9.66444E-07-1.31713E-19 5.64304E-19
 -1      1970 9.40210E-05-2.81947E-05-2.82148E-05-1.20091E-06 1.52953E-20 3.06875E-19
 -1      1971 9.47833E-05-2.83996E-05-2.84446E-05-1.06448E-06 6.17733E-19 2.30344E-19
 -1      1972 9.44188E-05-2.82966E-05-2.83363E-05-1.02271E-06 2.53421E-19 3.13749E-19
 -1      1973 9.45644E-05-2.83352E-05-2.83873E-05-1.27422E-06 3.43547E-19-1.10325E-22
 -1      1974 9.55097E-05-2.85916E-05-2.86727E-05-1.19485E-06 6.93946E-19-6.13765E-20
 -1      1975 9.51037E-05-2.84784E-05-2.85511E-05-1.12692E-06 7.61125E-19 1.74049E-19
 -1      1976 9.51713E-05-2.84845E-05-2.85836E-05-1.40266E-06 7.76768E-19-2.08841E-19
 -1      1977 9.63505E-05-2.88116E-05-2.89374E-05-1.39914E-06 3.24180E-20-2.68884E-19
 -1      1978 9.58812E-05-2.86812E-05-2.87963E-05-1.29651E-06 8.09355E-20-2.75079E-19
 -1      1979 9.58648E-05-2.86503E-05-2.88103E-05-1.60866E-06 3.55514E-19-1.56065E-19
 -1      1980 9.73516E-05-2.90735E-05-2.92525E-05-1.69340E-06-7.05426E-19 1.47187E-19
 -1      1981 9.67914E-05-2.89172E-05-2.90839E-05-1.54771E-06-1.20403E-19-2.73108E-19
 -1      1982 9.66772E-05-2.88425E-05-2.90770E-05-1.91270E-06-1.35554E-19-6.30062E-19
 -1      1983 9.85668E-05-2.93945E-05-2.96337E-05-2.09181E-06-3.79849E-19-9.81677E-21
 -1      1984 9.78836E-05-2.92018E-05-2.94285E-05-1.89525E-06-5.91335E-19 1.27237E-19
 -1      1985 9.76489E-05-2.90741E-05-2.93952E-05-2.33322E-06-5.21173E-19-4.25494E-19
 -1      1986 1.00055E-04-2.97949E-05-3.00981E-05-2.60370E-06 4.23988E-19-2.88123E-19
 -1      1987 9.92139E-05-2.95536E-05-2.98465E-05-2.35040E-06-4.03863E-20-2.64411E-19
 -1      1988 9.88259E-05-2.93615E-05-2.97779E-05-2.88440E-06 2.52945E-19-6.32239E-19
 -1      1989 1.01877E-04-3.02991E-05-3.06614E-05-3.22679E-06 3.67073E-19 2.49685E-19
 -1      1990 1.00842E-04-2.99953E-05-3.03540E-05-2.91612E-06 5.76373E-19 7.89511E-20
 -1      1991 1.00258E-04-2.97258E-05-3.02372E-05-3.57073E-06 4.74931E-19-5.09238E-19
 -1      1992 1.04081E-04-3.09353E-05-3.13339E-05-3.93433E-06-9.90337E-19-4.38141E-20
 -1      1993 1.02826E-04-3.05544E-05-3.09645E-05-3.57729E-06-3.35293E-19 2.95816E-20
 -1      1994 1.01993E-04-3.01955E-05-3.07817E-05-4.37606E-06-2.36451E-19-4.26337E-19
 -1      1995 1.06693E-04-3.17360E-05-3.21136E-05-4.65268E-06-7.69296E-19-2.84990E-19
 -1      1996 1.05209E-04-3.12642E-05-3.16829E-05-4.28335E-06-8.57543E-19-3.30933E-19
 -1      1997 1.04073E-04-3.08101E-05-3.14121E-05-5.24396E-06-6.86992E-19-9.75076E-19
 -1      1998 1.09681E-04-3.27350E-05-3.29752E-05-5.22696E-06 2.40379E-20 1.55887E-19
 -1      1999 1.08001E-04-3.21637E-05-3.24979E-05-4.92047E-06-6.09554E-19-3.10934E-19
 -1      2000 1.06521E-04-3.16246E-05-3.21144E-05-6.04647E-06-6.84815E-19-8.06534E-19
 -1      2001 1.12921E-04-3.39563E-05-3.38560E-05-5.37809E-06 6.69416E-19 2.35495E-19
 -1      2002 1.11148E-04-3.32925E-05-3.33698E-05-5.27375E-06 5.07647E-19 4.73534E-19
 -1      2003 1.09323E-04-3.27097E-05-3.28519E-05-6.54111E-06 4.75055E-19-6.18771E-19
 -1      2004 1.16138E-04-3.53821E-05-3.46445E-05-4.67429E-06-3.29291E-19 3.42254E-20
 -1      2005 1.14484E-04-3.46696E-05-3.42185E-05-4.99207E-06 3.03681E-19 1.68454E-19
 -1      2006 1.12400E-04-3.41351E-05-3.35591E-05-6.32876E-06 5.10496E-19-6.16653E-19
 -1      2007 1.18847E-04-3.68747E-05-3.51838E-05-2.58364E-06-1.71952E-18-2.50715E-19
 -1      2008 1.17656E-04-3.62337E-05-3.49178E-05-3.59862E-06-1.24820E-18-1.49521E-19
 -1      2009 1.15552E-04-3.59020E-05-3.41455E-05-4.85647E-06-9.87071E-19-1.23620E-19
 -1      2010 1.20316E-04-3.80401E-05-3.53150E-05 1.26847E-06-1.10445E-18 1.17986E-18
 -1      2011 1.20047E-04-3.77188E-05-3.53150E-05-6.40806E-07-1.18947E-18 3.30839E-19
 -1      2012 1.18358E-04-3.77866E-05-3.45228E-05-1.56481E-06-1.52889E-18-2.33801E-19
 -1      2013 1.19637E-04-3.81075E-05-3.49673E-05 6.48923E-06-5.30984E-20 1.79359E-18
 -1      2014 1.20736E-04-3.84831E-05-3.52885E-05 3.88579E-06-7.15213E-19 1.40340E-18
 -1      2015 1.20048E-04-3.90912E-05-3.46595E-05 3.66520E-06-9.74657E-19 4.53930E-19
 -1      2016 1.16213E-04-3.62187E-05-3.42649E-05 1.12027E-05 3.70451E-19 3.54332E-18
 -1      2017 1.18776E-04-3.75766E-05-3.48361E-05 8.85580E-06-1.47900E-19 2.65004E-18
 -1      2018 1.19602E-04-3.86690E-05-3.46294E-05 9.71602E-06-3.45457E-19 1.46082E-18
 -1      2019 1.10498E-04-3.22330E-05-3.35397E-05 1.22054E-05 1.78334E-18 3.24983E-18
 -1      2020 1.13953E-04-3.43776E-05-3.41503E-05 1.17267E-05 8.17149E-19 4.06766E-18
 -1      2021 1.16389E-04-3.55164E-05-3.46295E-05 1.37544E-05 6.17393E-19 2.61472E-18
 -1      2022 1.05170E-04-2.81655E-05-3.30675E-05 7.01299E-06 2.25853E-18 1.16073E-18
 -1      2023 1.07967E-04-2.99171E-05-3.34836E-05 9.50540E-06 2.33636E-18 2.66013E-18
 -1      2024 1.11376E-04-3.04362E-05-3.47457E-05 1.19564E-05 2.56405E-18 2.44767E-18
 -1      2025 1.03858E-04-2.71452E-05-3.30153E-05-2.32988E-06 2.05170E-18-4.29618E-19
 -1      2026 1.04389E-04-2.72571E-05-3.30568E-05 2.00348E-06 2.21888E-18 6.47896E-19
 -1      2027 1.07947E-04-2.68873E-05-3.48566E-05 3.55553E-06 2.95948E-18 2.45729E-18
 -1      2028 1.07731E-04-3.01032E-05-3.33876E-05-1.02222E-05 1.63835E-19-1.89238E-18
 -1      2029 1.05610E-04-2.84658E-05-3.30383E-05-6.70615E-06 1.04053E-18-9.71229E-19
 -1      2030 1.08857E-04-2.77423E-05-3.48502E-05-7.15605E-06 1.74285E-18 8.62716E-19
 -1      2031 1.14032E-04-3.46019E-05-3.40612E-05-1.24108E-05-1.00487E-18-2.86999E-18
 -1      2032 1.10508E-04-3.24163E-05-3.34655E-05-1.14552E-05-1.02916E-18-2.79285E-18
 -1      2033 1.13295E-04-3.22472E-05-3.47455E-05-1.34144E-05-1.29543E-19-7.01264E-19
 -1      2034 1.19012E-04-3.76911E-05-3.47930E-05-9.21033E-06-1.11216E-18-2.11839E-18
 -1      2035 1.15903E-04-3.62059E-05-3.41947E-05-1.05229E-05-1.23909E-18-2.55950E-18
 -1      2036 1.17909E-04-3.69512E-05-3.46855E-05-1.27908E-05-1.35998E-18-2.01763E-18
 -1      2037 1.20954E-04-3.84694E-05-3.52740E-05-3.87328E-06-5.74566E-19-8.93851E-21
 -1      2038 1.19289E-04-3.80081E-05-3.48964E-05-6.07001E-06-7.43721E-19-9.26019E-19
 -1      2039 1.20070E-04-3.91394E-05-3.46906E-05-7.59810E-06-1.35953E-18-4.62606E-19
 -1      2040 1.20162E-04-3.76370E-05-3.53187E-05 8.37457E-07 5.66850E-19 1.02014E-18
 -1      2041 1.20029E-04-3.79069E-05-3.52556E-05-1.11724E-06-2.97388E-20 6.20372E-19
 -1      2042 1.19550E-04-3.87977E-05-3.46367E-05-1.57069E-06-5.32188E-19 1.17906E-18
 -1      2043 1.17673E-04-3.61480E-05-3.49224E-05 3.83176E-06 5.78087E-19 1.49988E-18
 -1      2044 1.18656E-04-3.67681E-05-3.51412E-05 2.56829E-06 4.10996E-19 1.11016E-18
 -1      2045 1.17296E-04-3.71351E-05-3.43874E-05 3.01411E-06 5.78907E-19 2.58763E-18
 -1      2046 1.14423E-04-3.45999E-05-3.42137E-05 5.18940E-06-6.33809E-19 1.02700E-18
 -1      2047 1.16016E-04-3.53121E-05-3.46149E-05 4.59339E-06 5.71463E-19 1.00804E-18
 -1      2048 1.14276E-04-3.52137E-05-3.39073E-05 5.60389E-06 8.72596E-19 2.51203E-18
 -1      2049 1.11033E-04-3.32379E-05-3.33532E-05 5.41557E-06 6.02019E-19-2.72738E-19
 -1      2050 1.12835E-04-3.39131E-05-3.38340E-05 5.28761E-06-8.28524E-19 9.44177E-20
 -1      2051 1.11106E-04-3.35378E-05-3.32562E-05 6.55557E-06-3.07931E-19 1.32776E-18
 -1      2052 1.07851E-04-3.21175E-05-3.24707E-05 5.01139E-06 2.22263E-19 1.23921E-18
 -1      2053 1.09607E-04-3.27057E-05-3.29555E-05 5.14922E-06 5.63547E-19-2.27756E-19
 -1      2054 1.08109E-04-3.22271E-05-3.25258E-05 6.45719E-06 5.39009E-19-4.57927E-21
 -1      2055 1.05041E-04-3.12207E-05-3.16486E-05 4.33347E-06 4.81106E-19 1.53192E-18
 -1      2056 1.06617E-04-3.17108E-05-3.20930E-05 4.59100E-06 8.08551E-19 1.51029E-18
 -1      2057 1.05431E-04-3.12412E-05-3.17967E-05 5.81064E-06 1.17484E-19 1.25541E-18
 -1      2058 1.02656E-04-3.05106E-05-3.09278E-05 3.59290E-06-1.21631E-18-6.21200E-19
 -1      2059 1.04000E-04-3.09086E-05-3.13119E-05 3.88239E-06-4.97751E-19-1.39393E-19
 -1      2060 1.03123E-04-3.05034E-05-3.11226E-05 4.95227E-06 2.76338E-19 1.42275E-20
 -1      2061 1.00688E-04-2.99512E-05-3.03211E-05 2.89593E-06 1.22269E-19-6.97681E-19
 -1      2062 1.01795E-04-3.02688E-05-3.06405E-05 3.17238E-06-6.66625E-19-2.80674E-19
 -1      2063 1.01186E-04-2.99458E-05-3.05315E-05 4.07378E-06-7.05671E-19-5.48809E-19
 -1      2064 9.90985E-05-2.95117E-05-2.98261E-05 2.28384E-06 3.19276E-18-2.39393E-18
 -1      2065 9.99878E-05-2.97622E-05-3.00839E-05 2.52923E-06 1.53007E-18-1.77611E-18
 -1      2066 9.95943E-05-2.95188E-05-3.00329E-05 3.26724E-06 2.02317E-18-1.74698E-18
 -1      2067 9.78415E-05-2.91676E-05-2.94330E-05 1.76077E-06 2.49895E-18-2.50998E-18
 -1      2068 9.85396E-05-2.93630E-05-2.96356E-05 1.97293E-06 3.55471E-18-1.42247E-18
 -1      2069 9.83104E-05-2.91872E-05-2.96252E-05 2.56358E-06 3.33555E-18-6.71258E-19
 -1      2070 9.68714E-05-2.88996E-05-2.91307E-05 1.31039E-06 7.78169E-19-3.20347E-18
 -1      2071 9.74039E-05-2.90496E-05-2.92848E-05 1.49638E-06 1.59175E-18-3.22334E-18
 -1      2072 9.72940E-05-2.89260E-05-2.93020E-05 1.95871E-06 1.58110E-18-9.71272E-19
 -1      2073 9.61507E-05-2.86943E-05-2.89091E-05 9.08145E-07-8.67208E-20-4.03943E-18
 -1      2074 9.65386E-05-2.88059E-05-2.90201E-05 1.07901E-06 5.15995E-20-3.37893E-18
 -1      2075 9.65080E-05-2.87186E-05-2.90547E-05 1.43048E-06 5.25406E-19-2.81424E-18
 -1      2076 9.56517E-05-2.85455E-05-2.87572E-05 5.32505E-07-7.01129E-19-3.21465E-18
 -1      2077 9.59069E-05-2.86217E-05-2.88305E-05 6.97465E-07-4.52728E-19-3.25081E-18
 -1      2078 9.59191E-05-2.85532E-05-2.88734E-05 9.52931E-07-5.09054E-19-2.06276E-18
 -1      2079 9.53879E-05-2.84722E-05-2.86737E-05 2.68066E-07-5.27720E-19-2.23665E-18
 -1      2080 9.55360E-05-2.85045E-05-2.87237E-05 4.20098E-07-1.46469E-19-3.19036E-18
 -1      2081 9.55572E-05-2.84416E-05-2.87659E-05 5.97812E-07-3.77819E-19-1.33777E-18
 -1      2082 9.53624E-05-2.83937E-05-2.87008E-05 3.52163E-07-5.72437E-19-3.97452E-20
 -1      2083 9.48010E-05-2.70763E-05-2.90279E-05 1.05908E-06-2.71982E-19 2.74004E-18
 -1      2084 9.49328E-05-2.73560E-05-2.89578E-05 1.02983E-06-9.81566E-19 4.02308E-18
 -1      2085 9.50624E-05-2.76188E-05-2.89053E-05 9.51959E-07-1.41575E-18 4.04428E-18
 -1      2086 9.51803E-05-2.78697E-05-2.88427E-05 8.41033E-07-2.54900E-18 5.08706E-18
 -1      2087 9.50343E-05-2.74649E-05-2.89582E-05 1.27728E-06-2.07941E-18 3.88044E-18
 -1      2088 9.52505E-05-2.80551E-05-2.87973E-05 6.89162E-07-2.43224E-18 3.82031E-18
 -1      2089 9.53283E-05-2.82464E-05-2.87453E-05 5.31173E-07-1.41820E-18 7.95094E-19
 -1      2090 9.54143E-05-2.82611E-05-2.87772E-05 6.60203E-07-8.77940E-19 8.21928E-20
 -1      2091 9.52671E-05-2.79178E-05-2.88660E-05 1.01423E-06-1.58630E-18 4.21267E-18
 -1      2092 9.45575E-05-2.65623E-05-2.91457E-05 9.93528E-07-1.77592E-18-5.54302E-18
 -1      2093 9.46789E-05-2.68265E-05-2.90788E-05 1.03990E-06-9.57266E-19-1.15109E-18
 -1      2094 9.47308E-05-2.69366E-05-2.90525E-05 1.33675E-06-1.59911E-18-5.51753E-19
 -1      2095 9.43557E-05-2.61280E-05-2.92469E-05 7.74399E-07-2.69790E-19-1.89656E-18
 -1      2096 9.44534E-05-2.63460E-05-2.91912E-05 8.84928E-07 4.73974E-22-3.63205E-18
 -1      2097 9.44565E-05-2.64545E-05-2.91394E-05 1.18981E-06-8.57031E-19-2.73355E-18
 -1      2098 9.42252E-05-2.58401E-05-2.93150E-05 4.44160E-07-1.63105E-18 2.57668E-19
 -1      2099 9.42844E-05-2.59765E-05-2.92798E-05 5.97451E-07-5.84012E-19 1.57890E-19
 -1      2100 9.42442E-05-2.60743E-05-2.92096E-05 8.65762E-07 1.83766E-19-1.12517E-18
 -1      2101 9.41789E-05-2.57338E-05-2.93405E-05 5.67029E-08-3.00595E-18-8.85521E-19
 -1      2102 9.41934E-05-2.57706E-05-2.93308E-05 2.28326E-07-2.53520E-18-1.84942E-19
 -1      2103 9.41197E-05-2.58461E-05-2.92531E-05 4.22071E-07-2.20124E-18-8.60199E-19
 -1      2104 9.42194E-05-2.58188E-05-2.93203E-05-3.31275E-07-1.37753E-18-6.18664E-19
 -1      2105 9.41888E-05-2.57528E-05-2.93372E-05-1.66146E-07-1.69765E-18 2.46458E-20
 -1      2106 9.40934E-05-2.57944E-05-2.92640E-05-7.26616E-08-3.32919E-18-1.51671E-19
 -1      2107 9.43386E-05-2.60799E-05-2.92576E-05-6.66441E-07-3.02268E-18-2.15178E-18
 -1      2108 9.42682E-05-2.59218E-05-2.92984E-05-5.30532E-07-1.89910E-18-1.12493E-18
 -1      2109 9.41642E-05-2.59210E-05-2.92408E-05-5.48306E-07-2.09335E-18-1.69819E-18
 -1      2110 9.45171E-05-2.64721E-05-2.91636E-05-9.00893E-07-6.58568E-19-1.00433E-19
 -1      2111 9.44180E-05-2.62491E-05-2.92211E-05-8.13617E-07-2.02157E-18-1.77414E-18
 -1      2112 9.43193E-05-2.62033E-05-2.91877E-05-9.38530E-07-1.37783E-18-1.17330E-18
 -1      2113 9.47391E-05-2.69570E-05-2.90482E-05-1.00926E-06-2.78864E-19 2.09481E-18
 -1      2114 9.46208E-05-2.66927E-05-2.91161E-05-9.81208E-07-1.72427E-19 1.77510E-18
 -1      2115 9.45390E-05-2.66058E-05-2.91113E-05-1.19591E-06 1.44273E-18 1.43427E-18
 -1      2116 9.49735E-05-2.74653E-05-2.89285E-05-9.68349E-07 3.23377E-19-7.79419E-19
 -1      2117 9.48530E-05-2.71996E-05-2.89963E-05-1.00727E-06 9.75217E-20 2.20030E-19
 -1      2118 9.48002E-05-2.70841E-05-2.90207E-05-1.28555E-06 5.42355E-19 1.31661E-18
 -1      2119 9.51959E-05-2.79481E-05-2.88190E-05-7.78316E-07-5.44723E-19-1.28991E-18
 -1      2120 9.50870E-05-2.77063E-05-2.88777E-05-8.83501E-07 1.99030E-19-1.38579E-18
 -1      2121 9.50730E-05-2.75796E-05-2.89264E-05-1.19181E-06 6.95822E-19-1.46120E-18
 -1      2122 5.76746E-05-4.08414E-05-7.90984E-06 3.88984E-05-1.37050E-18 2.65624E-18
 -1      2123 3.98501E-05-4.13943E-05-9.51896E-07 2.95225E-05-9.62653E-19 2.08465E-18
 -1      2124 1.09618E-05-3.47323E-05 8.57297E-06 1.75271E-06-8.18446E-20 3.81165E-20
 -1      2125 1.27170E-05-3.77911E-05 8.81338E-06-7.15544E-06-2.20970E-19 1.46367E-18
 -1      2126 2.64037E-05-3.60970E-05 3.00262E-06 2.43498E-05-3.25684E-19 9.15854E-19
 -1      2127 1.81453E-05-3.61278E-05 6.19630E-06 1.52899E-05-3.41778E-19-4.41304E-19
 -1      2128 4.04107E-05-3.48268E-05-2.74967E-06 3.38473E-05-1.14646E-18 7.79694E-19
 -1      2129 1.00378E-04-4.38655E-05-2.41593E-05 4.13739E-05 1.28410E-18 4.23940E-19
 -1      2130 8.26437E-05-4.67213E-05-1.59760E-05 3.84209E-05-8.00446E-19 1.34721E-18
 -1      2131 5.88680E-05-4.13807E-05-8.84680E-06-3.70532E-05-8.45762E-19 2.46201E-18
 -1      2132 7.28328E-05-3.98856E-05-1.46370E-05-4.27649E-05-1.30994E-18 1.68623E-18
 -1      2133 6.13552E-05-4.24510E-05-8.43281E-06-4.23250E-05 9.56300E-19 2.51992E-18
 -1      2134 1.38470E-04-4.30606E-05-4.03099E-05 3.48657E-05 2.27788E-18 2.36322E-19
 -1      2135 1.16186E-04-4.40525E-05-3.15930E-05 3.40272E-05 2.10064E-18 6.21722E-19
 -1      2136 1.64211E-05-3.90876E-05 7.77668E-06-1.32821E-05-3.71000E-19 2.06655E-18
 -1      2137 1.98442E-05-3.53000E-05 5.23735E-06-2.07250E-05-8.76256E-19 3.24541E-18
 -1      2138 1.41484E-05-2.69905E-05 4.41900E-06-1.22265E-05-1.77983E-19 1.90625E-18
 -1      2139 8.72646E-05-8.72311E-06-3.37562E-05-1.05397E-05-8.36114E-19-3.07259E-18
 -1      2140 8.79591E-05-9.24049E-06-3.38236E-05-1.20973E-05-1.10502E-18-2.88759E-18
 -1      2141 9.04841E-05-1.30463E-05-3.32362E-05-1.18740E-05-1.31645E-18-2.60066E-18
 -1      2142 8.87070E-05-1.10531E-05-3.33052E-05-9.40838E-06-7.55538E-19-2.92021E-18
 -1      2143 1.77494E-04-2.65977E-05-6.36628E-05 3.73695E-06 2.90024E-18-2.11483E-18
 -1      2144 1.72512E-04-3.04374E-05-5.98580E-05 1.09694E-05 2.78970E-18-1.57167E-18
 -1      2145 1.82192E-04-2.42068E-05-6.63223E-05-2.16501E-06 1.06091E-18-2.65481E-18
 -1      2146 1.73330E-04-2.06353E-05-6.50433E-05 2.59976E-06 1.88084E-18-1.73568E-18
 -1      2147 1.70902E-04-2.73313E-05-6.11198E-05-7.19303E-06 1.51365E-18-2.79479E-18
 -1      2148 1.81865E-04-2.73982E-05-6.50451E-05-3.43297E-06 6.69580E-19-2.85535E-18
 -1      2149 1.57265E-04-1.48987E-05-6.00669E-05 3.30741E-06 1.22989E-18-1.21581E-18
 -1      2150 1.55334E-04-3.85257E-05-4.99818E-05-1.92228E-05 1.28074E-18-2.51399E-18
 -1      2151 1.70165E-04-3.62951E-05-5.65411E-05-1.37645E-05 2.02271E-18-2.59489E-18
 -1      2152 1.27624E-04-4.63377E-05-3.52881E-05-2.91318E-05 1.10411E-18-2.34543E-18
 -1      2153 1.47361E-04-4.44533E-05-4.35161E-05-2.86624E-05 8.84938E-19-3.17129E-18
 -1      2154 8.58421E-05-4.56664E-05-1.83638E-05-3.69114E-05 1.70847E-18-1.84928E-18
 -1      2155 1.08224E-04-4.55706E-05-2.69488E-05-4.01823E-05 2.25607E-18-1.81138E-18
 -1      2156 5.00248E-05-4.27158E-05-4.60144E-06-3.30963E-05 7.33107E-19-2.39160E-18
 -1      2157 6.63116E-05-4.08789E-05-1.15136E-05-3.97075E-05 1.55388E-18-2.52966E-18
 -1      2158 2.30794E-05-3.75249E-05 4.67786E-06-1.99510E-05-1.70804E-18-5.30158E-18
 -1      2159 3.31003E-05-3.59140E-05 3.51624E-07-2.94006E-05-4.47233E-19-4.23411E-18
 -1      2160 1.17302E-05-3.02329E-05 6.97527E-06-1.33514E-06-2.01346E-18-2.61987E-18
 -1      2161 1.49931E-05-3.40807E-05 6.81644E-06-1.11561E-05-1.18267E-18-4.18223E-18
 -1      2162 2.29417E-05-2.69199E-05 1.18210E-06-2.05831E-05-1.18542E-18-4.69172E-18
 -1      2163 2.14883E-05-3.45432E-05 4.30431E-06 2.30784E-05-3.73118E-18-1.94563E-18
 -1      2164 1.44509E-05-3.26879E-05 6.55898E-06 1.40053E-05-2.96027E-18-2.39880E-18
 -1      2165 5.00378E-05-3.74782E-05-5.93336E-06 3.97079E-05-3.16113E-18-2.13071E-18
 -1      2166 3.51881E-05-3.89856E-05 2.19945E-07 3.03048E-05-3.17341E-18-1.59877E-18
 -1      2167 9.28872E-05-4.42136E-05-2.10263E-05 4.35496E-05-2.93031E-18-3.11433E-18
 -1      2168 7.18640E-05-4.44090E-05-1.26698E-05 3.93136E-05-3.46860E-18-2.34702E-18
 -1      2169 1.34183E-04-4.54243E-05-3.79897E-05 3.06997E-05-3.40338E-18-9.64347E-19
 -1      2170 1.14191E-04-4.71390E-05-2.92413E-05 3.30760E-05-3.17680E-18-1.65976E-18
 -1      2171 1.64558E-04-3.38141E-05-5.44962E-05 2.38298E-05-2.95445E-18-3.38728E-18
 -1      2172 1.46286E-04-3.68064E-05-4.66215E-05 2.33287E-05-3.59550E-18-2.64274E-18
 -1      2173 1.77424E-04-2.72332E-05-6.32692E-05 9.33760E-06-2.68848E-18-3.50142E-18
 -1      2174 1.68671E-04-2.85607E-05-5.92462E-05 1.67034E-05-2.86085E-18-4.00181E-18
 -1      2175 1.74313E-04-2.04391E-05-6.52409E-05-2.08890E-06-2.95276E-18-2.23389E-18
 -1      2176 1.78097E-04-2.27041E-05-6.52577E-05 4.61015E-06-3.00781E-18-3.18146E-18
 -1      2177 1.72405E-04-2.61392E-05-6.16038E-05-1.28534E-05-1.13757E-18-9.97381E-19
 -1      2178 1.76050E-04-2.35136E-05-6.43130E-05-4.57715E-06-1.34805E-18-2.24104E-18
 -1      2179 1.52865E-04-3.39843E-05-5.08018E-05-2.17251E-05-1.23444E-18-1.48866E-18
 -1      2180 1.66532E-04-3.24973E-05-5.65599E-05-1.63440E-05-1.18394E-18-2.01509E-18
 -1      2181 1.28639E-04-4.04135E-05-3.80830E-05-3.08741E-05-2.00006E-18-7.08543E-19
 -1      2182 1.47536E-04-3.88465E-05-4.57952E-05-3.02199E-05-1.42672E-18-1.30316E-18
 -1      2183 1.49640E-04-4.09154E-05-4.59677E-05-9.40688E-06-9.56591E-19-3.15943E-18
 -1      2184 9.37311E-05-4.35218E-05-2.22887E-05-3.85381E-05-1.34466E-18 1.69407E-20
 -1      2185 1.12651E-04-4.19029E-05-3.00978E-05-4.13449E-05-1.74997E-18-1.80842E-19
 -1      2186 1.66686E-04-3.87635E-05-5.40688E-05 1.77433E-05 2.64428E-18-1.31925E-18
 -1      2187 1.50328E-04-4.00583E-05-4.70923E-05 2.34613E-05 2.93285E-18-1.12613E-18
 -1      2188 1.21560E-04-5.51971E-05-2.84859E-05 3.17803E-05 6.49251E-19-3.22084E-19
 -1      2189 3.22046E-05-3.35059E-05-1.83725E-07-3.14902E-05 9.52912E-21 3.31783E-18
 -1      2190 9.71187E-05-2.42937E-05-3.12840E-05-1.00057E-05-1.68819E-18-4.33866E-19
 -1      2191 9.62962E-05-2.30894E-05-3.14402E-05-1.03868E-05-1.74744E-18-1.09547E-18
 -1      2192 1.72000E-05-2.73297E-05 3.59866E-06 1.15212E-05-7.06955E-19 5.27702E-19
 -1      2193 9.56777E-05-5.33295E-05-1.85859E-05 3.91549E-05-1.54795E-18 5.24631E-19
 -1      2194 7.66593E-05-4.71621E-05-1.30247E-05 3.99284E-05-1.87279E-18 2.83444E-18
 -1      2195 7.25011E-05-4.50078E-05-1.13576E-05 4.19527E-05-2.06676E-18 2.38101E-18
 -1      2196 9.52768E-05-2.80838E-05-2.87944E-05-7.38377E-07-6.67784E-19-4.66768E-19
 -1      2197 9.46550E-05-4.98149E-05-1.92475E-05-4.11303E-05-1.13926E-19-6.65133E-19
 -1      2198 1.60914E-04-3.40277E-05-5.34992E-05 6.05783E-07 3.39131E-18-1.75082E-18
 -1      2199 1.31132E-04-5.09216E-05-3.40760E-05-2.70882E-05-7.15531E-19-1.34975E-18
 -1      2200 1.56729E-04-2.59161E-05-5.52783E-05-1.05015E-06-1.03973E-18-2.80177E-18
 -1      2201 1.64218E-04-1.75609E-05-6.20702E-05-6.37848E-07-2.09302E-18-2.58154E-18
 -1      2202 1.45858E-04-9.59510E-06-5.85025E-05 1.51718E-06-2.17433E-18-1.42638E-18
 -1      2203 1.48067E-04-1.31819E-05-5.78658E-05 2.54119E-06-1.58903E-18-2.91898E-18
 -1      2204 1.58682E-04-1.62144E-05-5.99619E-05-3.61695E-07-2.98960E-18-2.63004E-18
 -1      2205 1.56674E-04-2.93491E-05-5.36186E-05 4.32994E-06-2.53792E-18-2.72914E-18
 -1      2206 1.41645E-04-4.51966E-05-4.11654E-05 1.91317E-05-3.00432E-18-1.39040E-18
 -1      2207 1.38199E-04-5.27828E-05-3.61490E-05 1.48402E-05-2.24204E-18-1.92912E-19
 -1      2208 1.45510E-04-4.50892E-05-4.38157E-05 5.98296E-06-2.10588E-18-1.37812E-18
 -1      2209 1.14101E-04-5.36682E-05-2.56103E-05 3.48496E-05-1.48781E-18-7.50048E-19
 -1      2210 7.08131E-05-4.45764E-05-1.13319E-05 4.29398E-05-1.44080E-18-1.41788E-18
 -1      2211 1.55156E-05-2.64198E-05 4.09826E-06 6.93716E-06-1.91821E-18-2.57879E-18
 -1      2212 1.75169E-05-1.77450E-05 3.22584E-07-4.75247E-07-6.24647E-19-3.20856E-18
 -1      2213 1.94526E-05-1.99640E-05 1.22709E-07 1.55138E-05-8.05211E-19-2.33654E-18
 -1      2214 5.01383E-05-3.93026E-05-5.17464E-06-3.68305E-05-5.50571E-19-3.45484E-18
 -1      2215 8.91945E-05-5.10206E-05-1.65551E-05-4.02297E-05 9.86793E-19-2.29895E-18
 -1      2216 1.28445E-04-5.55600E-05-3.09111E-05-2.80765E-05 8.10187E-19-1.59772E-18
 -1      2217 1.59875E-04-2.94472E-05-5.50031E-05 2.57999E-06 1.15916E-18-1.83383E-18
 -1      2218 1.48620E-04-4.93920E-05-4.18499E-05 1.52993E-05 2.37804E-18-1.46156E-18
 -1      2219 1.47778E-04-1.31368E-05-5.79057E-05-3.66546E-06 1.68814E-18 1.61466E-19
 -1      2220 1.65556E-04-2.03646E-05-6.15876E-05-1.22168E-06 2.15443E-18-7.92293E-19
 -1      2221 1.50652E-04-1.79316E-05-5.68911E-05-6.14052E-06 2.27471E-18-5.43160E-19
 -1      2222 1.52989E-04-4.75532E-05-4.46335E-05-8.29128E-06 7.96952E-19-1.64663E-18
 -1      2223 3.41309E-05-3.18785E-05-1.36652E-06 3.28485E-05-1.11830E-18-9.68794E-19
 -1      2224 9.51651E-05-2.63583E-05-2.94751E-05 4.19585E-06 1.33780E-18 1.29027E-18
 -1      2225 9.61360E-05-2.58463E-05-3.00518E-05 5.99809E-06 1.59066E-18 1.48992E-18
 -1      2226 8.81817E-05-1.11705E-05-3.30442E-05-3.65427E-06 1.44276E-19-2.76037E-18
 -1      2227 8.84121E-05-1.14418E-05-3.30242E-05-4.79429E-06-5.95855E-20-2.92505E-18
 -1      2228 8.87594E-05-1.19273E-05-3.29730E-05-5.81096E-06-2.60454E-19-2.98534E-18
 -1      2229 8.91605E-05-1.24000E-05-3.29415E-05-6.98322E-06-4.58398E-19-2.92147E-18
 -1      2230 8.99271E-05-1.38044E-05-3.26227E-05-4.89130E-06-1.37567E-19-2.76539E-18
 -1      2231 8.78416E-05-1.07095E-05-3.30907E-05 6.13905E-07 8.87655E-19-2.62976E-18
 -1      2232 8.78369E-05-1.07044E-05-3.30909E-05-4.95171E-07 6.71711E-19-2.66754E-18
 -1      2233 8.80203E-05-1.09359E-05-3.30706E-05 2.75220E-06 1.20000E-18-2.56150E-18
 -1      2234 8.79071E-05-1.08022E-05-3.30810E-05 1.63443E-06 1.05555E-18-2.69032E-18
 -1      2235 8.91551E-05-1.27472E-05-3.27492E-05 1.04590E-06 9.21588E-19-2.52392E-18
 -1      2236 8.84485E-05-1.14857E-05-3.30216E-05 4.87885E-06 1.50199E-18-2.16990E-18
 -1      2237 8.82127E-05-1.12080E-05-3.30419E-05 3.75672E-06 1.28192E-18-2.36386E-18
 -1      2238 8.94182E-05-1.31056E-05-3.27070E-05 3.01198E-06 1.19054E-18-2.36244E-18
 -1      2239 8.92172E-05-1.24714E-05-3.29369E-05 7.06598E-06 1.84574E-18-1.89238E-18
 -1      2240 8.88056E-05-1.19842E-05-3.29692E-05 5.89426E-06 1.67092E-18-2.04021E-18
 -1      2241 8.99693E-05-1.38579E-05-3.26181E-05 4.96283E-06 1.52423E-18-1.99206E-18
 -1      2242 9.04696E-05-1.40817E-05-3.28019E-05 9.21640E-06 2.02598E-18-1.25262E-18
 -1      2243 8.97987E-05-1.32709E-05-3.28515E-05 8.03681E-06 1.84287E-18-1.66157E-18
 -1      2244 9.08933E-05-1.51216E-05-3.24666E-05 6.85894E-06 1.78120E-18-1.64758E-18
 -1      2245 9.24416E-05-1.66526E-05-3.25819E-05 1.11034E-05 2.21695E-18-3.44769E-19
 -1      2246 9.13768E-05-1.53137E-05-3.26592E-05 1.00229E-05 2.06843E-18-8.47814E-19
 -1      2247 9.22982E-05-1.70768E-05-3.22169E-05 8.50709E-06 1.89741E-18-9.03814E-19
 -1      2248 9.58756E-05-2.50775E-05-3.02958E-05-6.18408E-06-1.38974E-18-1.25403E-18
 -1      2249 9.52196E-05-2.58339E-05-2.97534E-05-4.26908E-06-1.31430E-18-1.33035E-18
 -1      2250 6.12927E-05-3.96492E-05-9.11673E-06-4.18821E-05 1.55875E-18 2.18651E-18
 -1      2251 7.34525E-05-4.40104E-05-1.26164E-05-4.44507E-05 1.33831E-18 8.84991E-19
 -1      2252 9.41911E-05-2.70953E-05-2.87383E-05 1.75108E-06 8.53267E-19 8.12133E-19
 -1      2253 9.47842E-05-2.68705E-05-2.90349E-05 2.72788E-06 1.03869E-18 1.17427E-18
 -1      2254 9.53063E-05-2.58214E-05-2.97836E-05 4.35681E-06 1.35222E-18 5.36840E-19
 -1      2255 9.50378E-05-2.00122E-05-3.22023E-05-1.17490E-05-1.64158E-18-1.66778E-18
 -1      2256 9.54312E-05-2.33476E-05-3.09182E-05-7.96481E-06-1.51555E-18-1.45943E-18
 -1      2257 9.50610E-05-2.25457E-05-3.10512E-05-7.64127E-06-1.39339E-18-1.61754E-18
 -1      2258 9.31971E-05-1.76131E-05-3.24111E-05-1.14043E-05-1.55345E-18-2.06472E-18
 -1      2259 9.51080E-05-2.65159E-05-2.93392E-05-2.92299E-06-1.22237E-18-1.08590E-18
 -1      2260 9.46419E-05-2.68837E-05-2.90386E-05-1.85217E-06-9.51192E-19-1.23036E-18
 -1      2261 9.53176E-05-2.53435E-05-2.99958E-05-4.27474E-06-1.18962E-18-1.40913E-18
 -1      2262 9.44525E-05-2.72110E-05-2.87793E-05-9.88079E-07-8.54902E-19-1.21954E-18
 -1      2263 9.42037E-05-2.74221E-05-2.86174E-05-3.72839E-07-6.87833E-19-1.35909E-18
 -1      2264 9.50213E-05-2.66700E-05-2.93066E-05-1.87835E-06-9.36563E-19-1.23904E-18
 -1      2265 9.40640E-05-2.75991E-05-2.84623E-05 1.54376E-07-6.43427E-19-1.36957E-18
 -1      2266 9.39809E-05-2.77401E-05-2.83853E-05 5.04638E-07-7.01554E-19-1.33162E-18
 -1      2267 9.47310E-05-2.73887E-05-2.88743E-05-3.64918E-07-7.59644E-19-1.39963E-18
 -1      2268 9.39095E-05-2.78452E-05-2.83005E-05 8.15785E-07-6.60052E-19-1.43260E-18
 -1      2269 9.39387E-05-2.79498E-05-2.82773E-05 1.00962E-06-4.62433E-19-1.44756E-18
 -1      2270 9.45511E-05-2.78039E-05-2.86169E-05 5.57125E-07-8.15670E-19-1.48802E-18
 -1      2271 9.39263E-05-2.80166E-05-2.82403E-05 1.18734E-06-5.47965E-19-1.55423E-18
 -1      2272 9.40282E-05-2.80987E-05-2.82518E-05 1.29135E-06-5.63197E-19-1.56941E-18
 -1      2273 9.44893E-05-2.80567E-05-2.84794E-05 1.10200E-06-5.88073E-19-1.51293E-18
 -1      2274 9.40609E-05-2.81424E-05-2.82478E-05 1.39226E-06-5.79359E-19-1.60786E-18
 -1      2275 9.42099E-05-2.82088E-05-2.82822E-05 1.44983E-06-5.59346E-19-1.77707E-18
 -1      2276 9.45240E-05-2.82135E-05-2.84249E-05 1.41802E-06-7.30517E-19-1.70863E-18
 -1      2277 9.42758E-05-2.82373E-05-2.83015E-05 1.51358E-06-6.68184E-19-1.70942E-18
 -1      2278 9.44572E-05-2.82925E-05-2.83520E-05 1.55443E-06-8.02420E-19-1.62862E-18
 -1      2279 9.46312E-05-2.83086E-05-2.84285E-05 1.60829E-06-5.88579E-19-1.78323E-18
 -1      2280 9.45487E-05-2.83106E-05-2.83884E-05 1.60940E-06-6.97824E-19-1.47011E-18
 -1      2281 9.47561E-05-2.83586E-05-2.84511E-05 1.65454E-06-5.15620E-19-1.55928E-18
 -1      2282 9.47932E-05-2.83617E-05-2.84742E-05 1.74592E-06-6.59820E-19-1.38089E-18
 -1      2283 9.48698E-05-2.83704E-05-2.85010E-05 1.72126E-06-4.73636E-19-1.51319E-18
 -1      2284 9.51029E-05-2.84154E-05-2.85746E-05 1.78565E-06-2.76616E-19-1.61285E-18
 -1      2285 9.50000E-05-2.83864E-05-2.85517E-05 1.88359E-06-5.15322E-19-1.09743E-18
 -1      2286 9.52387E-05-2.84249E-05-2.86360E-05 1.87876E-06-1.80735E-20-1.43890E-18
 -1      2287 9.55017E-05-2.84721E-05-2.87204E-05 1.97256E-06 1.49660E-19-1.18902E-18
 -1      2288 9.52489E-05-2.83943E-05-2.86547E-05 2.05919E-06-1.65645E-19-8.64098E-19
 -1      2289 9.56625E-05-2.84840E-05-2.87922E-05 2.10161E-06-8.14194E-20-1.56584E-18
 -1      2290 9.59627E-05-2.85397E-05-2.88882E-05 2.23038E-06-2.65154E-19-1.80167E-18
 -1      2291 9.55435E-05-2.83972E-05-2.87798E-05 2.29879E-06-1.32353E-19-1.30777E-18
 -1      2292 9.61542E-05-2.85604E-05-2.89699E-05 2.39973E-06-2.18782E-19-1.54802E-18
 -1      2293 9.65007E-05-2.86327E-05-2.90782E-05 2.56377E-06-4.61058E-20-1.52598E-18
 -1      2294 9.58931E-05-2.84094E-05-2.89247E-05 2.61753E-06-3.02275E-19-1.60405E-18
 -1      2295 9.67312E-05-2.86710E-05-2.91693E-05 2.77151E-06 1.44142E-19-1.34863E-18
 -1      2296 9.71335E-05-2.87703E-05-2.92903E-05 2.96418E-06 4.72139E-19-9.61346E-19
 -1      2297 9.63124E-05-2.84499E-05-2.90874E-05 3.01847E-06 2.01968E-19-9.36148E-19
 -1      2298 9.74143E-05-2.88389E-05-2.93892E-05 3.20000E-06 1.30162E-19-1.00994E-18
 -1      2299 9.78811E-05-2.89787E-05-2.95222E-05 3.40506E-06-1.44380E-19-1.10544E-18
 -1      2300 9.68215E-05-2.85454E-05-2.92653E-05 3.48939E-06 6.49830E-20-1.03504E-18
 -1      2301 9.82272E-05-2.90950E-05-2.96266E-05 3.64702E-06-3.71396E-19-1.50899E-18
 -1      2302 9.87641E-05-2.92920E-05-2.97685E-05 3.83501E-06-4.23657E-19-1.22502E-18
 -1      2303 9.74476E-05-2.87331E-05-2.94540E-05 3.99751E-06-5.36003E-19-1.21940E-18
 -1      2304 9.91948E-05-2.94796E-05-2.98747E-05 4.04536E-06-5.05189E-19-1.25093E-18
 -1      2305 9.98020E-05-2.97530E-05-3.00200E-05 4.16963E-06-1.55204E-19-1.38961E-18
 -1      2306 9.82257E-05-2.90633E-05-2.96471E-05 4.48211E-06-3.97907E-19-1.35573E-18
 -1      2307 1.00341E-04-3.00405E-05-3.01229E-05 4.29005E-06 1.23327E-19-1.75006E-18
 -1      2308 1.01009E-04-3.04088E-05-3.02632E-05 4.28374E-06 2.75432E-19-1.71514E-18
 -1      2309 9.91996E-05-2.95999E-05-2.98361E-05 4.84560E-06-3.58485E-19-1.22867E-18
 -1      2310 1.01682E-04-3.08251E-05-3.03580E-05 4.23183E-06 6.13616E-19-2.05472E-18
 -1      2311 1.02385E-04-3.12973E-05-3.04821E-05 4.00902E-06 6.08075E-19-2.16064E-18
 -1      2312 1.00419E-04-3.04132E-05-3.00125E-05 4.94514E-06 2.40825E-19-1.39656E-18
 -1      2313 1.03209E-04-3.18586E-05-3.05661E-05 3.67955E-06 3.88199E-19-2.26984E-18
 -1      2314 1.03898E-04-3.24167E-05-3.06629E-05 3.14608E-06 4.70178E-19-2.03667E-18
 -1      2315 1.01929E-04-3.15582E-05-3.01710E-05 4.58954E-06 3.94865E-19-2.24560E-18
 -1      2316 1.04860E-04-3.31004E-05-3.07393E-05 2.42463E-06 5.54864E-19-1.96294E-18
 -1      2317 1.05446E-04-3.36709E-05-3.08013E-05 1.50695E-06 4.24277E-19-1.82264E-18
 -1      2318 1.03738E-04-3.30272E-05-3.03173E-05 3.55198E-06 4.32317E-19-2.00801E-18
 -1      2319 1.06468E-04-3.43745E-05-3.08838E-05 3.08907E-07 2.44918E-19-1.73026E-18
 -1      2320 1.06814E-04-3.47964E-05-3.09121E-05-9.90700E-07 3.99702E-19-1.42447E-18
 -1      2321 1.05755E-04-3.46673E-05-3.04760E-05 1.61802E-06 2.67911E-19-1.95758E-18
 -1      2322 1.07700E-04-3.52960E-05-3.10270E-05-2.63923E-06 2.17062E-19-1.17538E-18
 -1      2323 1.07633E-04-3.53122E-05-3.10357E-05-4.16208E-06 3.66792E-19-1.11856E-18
 -1      2324 1.07710E-04-3.60780E-05-3.06978E-05-1.29966E-06 5.20833E-19-1.45062E-18
 -1      2325 1.08068E-04-3.52708E-05-3.12153E-05-6.00054E-06 4.29194E-19-1.61952E-18
 -1      2326 1.07444E-04-3.46048E-05-3.12290E-05-7.35760E-06 3.00493E-19-1.72745E-18
 -1      2327 1.09078E-04-3.65673E-05-3.10538E-05-4.95283E-06-1.15890E-19-1.55390E-18
 -1      2328 1.07099E-04-3.37167E-05-3.14937E-05-8.78834E-06-5.69927E-21-2.06801E-18
 -1      2329 1.05941E-04-3.22860E-05-3.15339E-05-9.38630E-06 1.48102E-19-1.74641E-18
 -1      2330 1.09177E-04-3.53286E-05-3.16057E-05-8.49585E-06-1.35434E-20-1.97646E-18
 -1      2331 1.04777E-04-3.05914E-05-3.18572E-05-9.58196E-06 8.80245E-19-2.33496E-18
 -1      2332 1.03404E-04-2.87635E-05-3.19221E-05-8.86548E-06 7.08047E-19-1.98223E-18
 -1      2333 1.07600E-04-3.20406E-05-3.23433E-05-1.04179E-05 1.84929E-19-1.47081E-18
 -1      2334 1.01965E-04-2.69252E-05-3.22110E-05-7.24047E-06 4.09732E-19-1.80941E-18
 -1      2335 1.00969E-04-2.55450E-05-3.22626E-05-5.13378E-06 3.20668E-19-1.33226E-18
 -1      2336 1.04839E-04-2.75838E-05-3.31138E-05-9.09795E-06 7.34990E-19-2.35604E-18
 -1      2337 1.00218E-04-2.46283E-05-3.23891E-05-2.03912E-06-4.55121E-19-1.12358E-18
 -1      2338 1.00111E-04-2.44798E-05-3.23929E-05 7.59020E-07-6.57645E-19-1.37194E-18
 -1      2339 1.02509E-04-2.41280E-05-3.36366E-05-4.10666E-06-3.17670E-20-1.17049E-18
 -1      2340 1.00625E-04-2.51064E-05-3.23039E-05 4.01819E-06-7.04526E-19-1.35980E-18
 -1      2341 1.01469E-04-2.62876E-05-3.22575E-05 6.34251E-06-6.40933E-19-1.07802E-18
 -1      2342 1.02253E-04-2.37691E-05-3.36843E-05 2.74370E-06-6.68766E-19-1.57015E-19
 -1      2343 1.02837E-04-2.80145E-05-3.19930E-05 8.32606E-06-3.32953E-19-1.17105E-18
 -1      2344 1.04179E-04-2.98227E-05-3.19278E-05 9.34818E-06 2.21420E-20-2.05895E-19
 -1      2345 1.04261E-04-2.67172E-05-3.32400E-05 8.31768E-06-3.90949E-19 3.65187E-19
 -1      2346 1.05468E-04-3.16284E-05-3.16024E-05 9.50349E-06-2.16014E-19 2.17701E-19
 -1      2347 1.06706E-04-3.31916E-05-3.15549E-05 9.13375E-06-2.54636E-19 2.97090E-19
 -1      2348 1.07080E-04-3.11638E-05-3.24990E-05 1.04237E-05 3.50235E-19 5.65030E-19
 -1      2349 1.07227E-04-3.42642E-05-3.12734E-05 7.88082E-06-2.76055E-19 8.62076E-19
 -1      2350 1.07967E-04-3.50891E-05-3.12546E-05 6.62466E-06-1.77099E-19 8.12910E-19
 -1      2351 1.08984E-04-3.48211E-05-3.17365E-05 9.04536E-06-1.48613E-19 1.09405E-18
 -1      2352 1.07666E-04-3.52832E-05-3.10581E-05 4.80764E-06-2.17519E-19 9.47976E-19
 -1      2353 1.07833E-04-3.53845E-05-3.10495E-05 3.27692E-06-1.33696E-19 2.29854E-19
 -1      2354 1.09207E-04-3.64792E-05-3.11419E-05 5.68627E-06-1.05955E-19 8.60892E-19
 -1      2355 1.07008E-04-3.49650E-05-3.09234E-05 1.55676E-06 2.65586E-19 5.69669E-19
 -1      2356 1.06727E-04-3.46008E-05-3.08994E-05 1.90277E-07 1.02502E-18 9.62014E-19
 -1      2357 1.08037E-04-3.62782E-05-3.07491E-05 1.96043E-06 1.36469E-19 1.68879E-18
 -1      2358 1.05711E-04-3.39152E-05-3.08123E-05-1.10896E-06 1.18987E-18 1.26562E-18
 -1      2359 1.05157E-04-3.33561E-05-3.07567E-05-2.10953E-06 7.27522E-19 1.47450E-18
 -1      2360 1.06148E-04-3.49892E-05-3.05051E-05-1.14653E-06 1.30214E-18 1.70210E-18
 -1      2361 1.04171E-04-3.26546E-05-3.06806E-05-2.92344E-06-6.30323E-19 7.19716E-19
 -1      2362 1.03490E-04-3.20825E-05-3.05899E-05-3.53002E-06-9.59281E-19-2.44876E-19
 -1      2363 1.04109E-04-3.33497E-05-3.03383E-05-3.28269E-06-2.18971E-19 3.49833E-19
 -1      2364 1.02635E-04-3.14896E-05-3.05087E-05-3.92770E-06-1.31322E-19-2.46784E-19
 -1      2365 1.01926E-04-3.09933E-05-3.03894E-05-4.20277E-06-4.39285E-19 2.52560E-19
 -1      2366 1.02243E-04-3.18206E-05-3.01935E-05-4.48430E-06-7.26257E-19 2.97827E-19
 -1      2367 1.01223E-04-3.05442E-05-3.02986E-05-4.29565E-06-3.32070E-19 1.07385E-18
 -1      2368 1.00544E-04-3.01500E-05-3.01620E-05-4.33079E-06 2.60409E-19 1.13564E-18
 -1      2369 1.00669E-04-3.05968E-05-3.00415E-05-4.94969E-06-1.24624E-19 1.58011E-18
 -1      2370 9.99815E-05-2.98332E-05-3.00637E-05-4.22583E-06 5.76154E-19 2.22182E-18
 -1      2371 9.93635E-05-2.95356E-05-2.99217E-05-4.10781E-06 7.11293E-19 2.76130E-18
 -1      2372 9.93941E-05-2.97068E-05-2.98744E-05-4.90558E-06 1.15729E-18 1.59126E-18
 -1      2373 9.89161E-05-2.93223E-05-2.98214E-05-3.88975E-06-3.95397E-19 2.22472E-18
 -1      2374 9.83728E-05-2.91033E-05-2.96839E-05-3.68653E-06-9.33647E-20 1.56113E-18
 -1      2375 9.83780E-05-2.91013E-05-2.96968E-05-4.54747E-06-4.09662E-19 3.19435E-18
 -1      2376 9.80164E-05-2.89631E-05-2.95872E-05-3.41476E-06 1.17643E-18 1.01720E-18
 -1      2377 9.75515E-05-2.88026E-05-2.94615E-05-3.17283E-06 2.10534E-18 4.71692E-19
 -1      2378 9.75713E-05-2.87083E-05-2.95183E-05-4.02160E-06-3.25315E-19 2.45324E-18
 -1      2379 9.72658E-05-2.87095E-05-2.93733E-05-2.88460E-06 1.73319E-18-6.85941E-19
 -1      2380 9.68768E-05-2.85891E-05-2.92641E-05-2.63157E-06 1.34808E-18-7.11203E-19
 -1      2381 9.69286E-05-2.84585E-05-2.93490E-05-3.42598E-06 9.25969E-19 1.10326E-19
 -1      2382 9.66438E-05-2.85212E-05-2.91876E-05-2.34562E-06 9.94042E-19-7.45349E-19
 -1      2383 9.63256E-05-2.84277E-05-2.90970E-05-2.09297E-06 8.22974E-19-9.93433E-19
 -1      2384 9.64111E-05-2.82935E-05-2.91970E-05-2.81864E-06 8.08477E-19-4.63128E-19
 -1      2385 9.61345E-05-2.83736E-05-2.90336E-05-1.81853E-06 3.31886E-19-8.27193E-19
 -1      2386 9.58822E-05-2.82954E-05-2.89622E-05-1.57153E-06 1.94736E-19-8.00117E-19
 -1      2387 9.59895E-05-2.81746E-05-2.90675E-05-2.22368E-06 1.50318E-19-4.92756E-19
 -1      2388 5.31087E-05-3.36714E-05-8.10946E-06 3.78653E-05-8.73079E-19 1.47024E-18
 -1      2389 3.95363E-05-2.77787E-05-4.67989E-06 3.04101E-05-7.38401E-19 7.67200E-19
 -1      2390 9.33356E-05-2.76660E-05-2.81359E-05-4.74062E-07 4.37110E-19 2.33999E-19
 -1      2391 9.33994E-05-2.75612E-05-2.81917E-05-1.73352E-07 6.55751E-19 5.62412E-19
 -1      2392 9.33233E-05-2.78303E-05-2.80623E-05-9.26589E-07 5.90629E-19-1.47291E-19
 -1      2393 9.32551E-05-2.77385E-05-2.80652E-05-7.64699E-07 4.67519E-19 7.86918E-20
 -1      2394 9.40282E-05-2.77743E-05-2.84065E-05-5.40458E-07 6.40256E-19-2.53680E-19
 -1      2395 9.34761E-05-2.79678E-05-2.80700E-05-1.16924E-06 9.43148E-19-1.38391E-19
 -1      2396 9.33277E-05-2.78846E-05-2.80401E-05-1.08563E-06 7.22071E-19-1.91908E-19
 -1      2397 9.39787E-05-2.79765E-05-2.82957E-05-1.05054E-06 8.09043E-19-4.92962E-19
 -1      2398 9.37372E-05-2.80877E-05-2.81310E-05-1.29821E-06 9.30280E-19 2.10714E-19
 -1      2399 9.35399E-05-2.80119E-05-2.80803E-05-1.25424E-06 9.73584E-19 8.63539E-20
 -1      2400 9.40621E-05-2.81174E-05-2.82685E-05-1.33596E-06 7.58533E-19-5.07952E-19
 -1      2401 9.40721E-05-2.81943E-05-2.82286E-05-1.37953E-06 3.13226E-19 3.64719E-19
 -1      2402 9.38426E-05-2.81248E-05-2.81637E-05-1.34854E-06 7.66401E-19 3.16838E-19
 -1      2403 9.42384E-05-2.82191E-05-2.82988E-05-1.50065E-06 6.64119E-19-3.41570E-20
 -1      2404 9.44643E-05-2.82914E-05-2.83544E-05-1.46128E-06 3.34696E-19 6.35651E-20
 -1      2405 9.42084E-05-2.82263E-05-2.82780E-05-1.42356E-06 2.52279E-19 2.28045E-19
 -1      2406 9.44815E-05-2.82930E-05-2.83703E-05-1.61781E-06 5.37052E-19 1.39298E-19
 -1      2407 9.49113E-05-2.83833E-05-2.85056E-05-1.58065E-06 6.03561E-19-4.48192E-19
 -1      2408 9.46270E-05-2.83198E-05-2.84178E-05-1.52058E-06 6.06418E-19-2.60909E-19
 -1      2409 9.47775E-05-2.83462E-05-2.84739E-05-1.74156E-06 8.43290E-19-3.14958E-19
 -1      2410 9.54220E-05-2.84752E-05-2.86835E-05-1.76830E-06 6.92857E-19-4.19871E-19
 -1      2411 9.51007E-05-2.84097E-05-2.85823E-05-1.67263E-06 6.52732E-19-5.12896E-19
 -1      2412 9.51232E-05-2.83841E-05-2.86057E-05-1.91422E-06 6.66702E-19-6.50699E-19
 -1      2413 9.60139E-05-2.85740E-05-2.88928E-05-2.05087E-06 1.47401E-19-4.34845E-19
 -1      2414 9.56420E-05-2.85016E-05-2.87746E-05-1.90776E-06 7.03267E-19-2.18506E-19
 -1      2415 9.55230E-05-2.84118E-05-2.87654E-05-2.17073E-06 5.65798E-19-4.15327E-19
 -1      2416 9.67117E-05-2.86883E-05-2.91403E-05-2.45215E-06-8.34543E-20-2.89693E-19
 -1      2417 9.62713E-05-2.86029E-05-2.90004E-05-2.25086E-06 7.25367E-20-4.55281E-19
 -1      2418 9.59880E-05-2.84348E-05-2.89552E-05-2.54116E-06 2.16124E-19-3.90086E-19
 -1      2419 9.75454E-05-2.88296E-05-2.94344E-05-2.99252E-06-3.22652E-19-6.58780E-19
 -1      2420 9.70153E-05-2.87232E-05-2.92672E-05-2.72395E-06-2.68258E-19-5.33271E-19
 -1      2421 9.65342E-05-2.84602E-05-2.91789E-05-3.05165E-06-8.66224E-20-4.53563E-19
 -1      2422 9.85498E-05-2.90141E-05-2.97831E-05-3.68600E-06 4.11416E-19-7.20028E-19
 -1      2423 9.79062E-05-2.88760E-05-2.95830E-05-3.34460E-06 1.19180E-19-4.44986E-19
 -1      2424 9.71817E-05-2.84989E-05-2.94404E-05-3.72336E-06-1.76652E-19-6.85320E-19
 -1      2425 9.97623E-05-2.92665E-05-3.01926E-05-4.53341E-06 4.93198E-19-6.48619E-19
 -1      2426 9.89806E-05-2.90811E-05-2.99551E-05-4.12129E-06 6.53952E-19-4.71431E-19
 -1      2427 9.79550E-05-2.85692E-05-2.97423E-05-4.56850E-06 4.38632E-19-6.90616E-19
 -1      2428 1.01223E-04-2.96259E-05-3.06640E-05-5.50936E-06-4.67159E-19-6.12351E-19
 -1      2429 1.00280E-04-2.93705E-05-3.03874E-05-5.04395E-06 4.85605E-20-6.91181E-19
 -1      2430 9.88853E-05-2.87040E-05-3.00840E-05-5.58209E-06 1.15027E-19-7.33297E-19
 -1      2431 1.02974E-04-3.01563E-05-3.11898E-05-6.54004E-06-7.40349E-19-7.91658E-19
 -1      2432 1.01851E-04-2.97963E-05-3.08777E-05-6.06695E-06-8.52798E-19-7.12272E-19
 -1      2433 1.00016E-04-2.89627E-05-3.04590E-05-6.72711E-06-6.47695E-19-8.49682E-19
 -1      2434 1.05061E-04-3.09586E-05-3.17488E-05-7.46913E-06-8.24251E-19-5.71068E-19
 -1      2435 1.03752E-04-3.04438E-05-3.14135E-05-7.08113E-06-6.53081E-19-6.26424E-19
 -1      2436 1.01413E-04-2.94484E-05-3.08527E-05-7.91009E-06-7.11378E-19-4.92558E-19
 -1      2437 1.07537E-04-3.21788E-05-3.23031E-05-8.01255E-06 4.73734E-19-6.23520E-19
 -1      2438 1.06055E-04-3.14441E-05-3.19685E-05-7.87270E-06-1.63312E-19-7.12540E-19
 -1      2439 1.03188E-04-3.03290E-05-3.12412E-05-8.94451E-06-2.92646E-19-7.71202E-19
 -1      2440 1.10448E-04-3.39866E-05-3.28022E-05-7.71552E-06 2.19956E-19 2.01048E-19
 -1      2441 1.08846E-04-3.29735E-05-3.25033E-05-8.07226E-06 6.35169E-19-1.55262E-20
 -1      2442 1.05512E-04-3.18471E-05-3.15969E-05-9.50201E-06 3.84577E-20-2.03204E-19
 -1      2443 1.13781E-04-3.64681E-05-3.32019E-05-5.95594E-06-1.21532E-18-1.33844E-19
 -1      2444 1.12195E-04-3.51965E-05-3.29766E-05-7.11787E-06-2.76067E-19 3.98122E-19
 -1      2445 1.08623E-04-3.42733E-05-3.19050E-05-9.06187E-06-1.02006E-19 4.17061E-19
 -1      2446 1.17303E-04-3.93527E-05-3.35117E-05-2.10559E-06-1.64073E-18-4.41994E-19
 -1      2447 1.16024E-04-3.80739E-05-3.33769E-05-4.30917E-06-1.79696E-18-5.18470E-19
 -1      2448 1.12719E-04-3.77084E-05-3.22034E-05-6.90475E-06-1.26941E-18 1.18032E-19
 -1      2449 1.20305E-04-4.15535E-05-3.38612E-05 4.00646E-06-1.14005E-18 3.05779E-19
 -1      2450 1.19827E-04-4.09624E-05-3.37799E-05 9.03461E-07-1.55443E-18-3.05838E-19
 -1      2451 1.17677E-04-4.16484E-05-3.26454E-05-2.28030E-06-1.80113E-18-4.40366E-19
 -1      2452 1.21389E-04-4.09692E-05-3.44886E-05 1.08892E-05-4.07661E-19 6.44496E-19
 -1      2453 1.22177E-04-4.20464E-05-3.43754E-05 7.99403E-06-7.67134E-19 1.93726E-19
 -1      2454 1.22265E-04-4.41931E-05-3.35567E-05 5.18668E-06-7.17225E-19 1.63424E-19
 -1      2455 1.19136E-04-3.59406E-05-3.56609E-05 1.53288E-05 1.00986E-18 7.85345E-19
 -1      2456 1.21580E-04-3.93810E-05-3.53831E-05 1.43281E-05-5.21190E-20 5.48092E-19
 -1      2457 1.24685E-04-4.25694E-05-3.52841E-05 1.36922E-05-1.64893E-19-2.56783E-19
 -1      2458 1.14340E-04-2.77941E-05-3.70798E-05 1.24877E-05 2.62776E-18 1.47660E-18
 -1      2459 1.17189E-04-3.19227E-05-3.67696E-05 1.51646E-05 2.03261E-18 1.42724E-18
 -1      2460 1.22909E-04-3.55285E-05-3.75085E-05 1.69374E-05 1.14457E-18-8.16328E-20
 -1      2461 1.11478E-04-2.33944E-05-3.78725E-05 1.19416E-06 2.60939E-18 2.60668E-18
 -1      2462 1.12186E-04-2.46614E-05-3.77861E-05 6.52593E-06 3.04948E-18 2.59634E-18
 -1      2463 1.17323E-04-2.38746E-05-4.02451E-05 1.15436E-05 1.93224E-18 9.14081E-19
 -1      2464 1.13705E-04-2.69785E-05-3.74862E-05-1.06836E-05 1.76985E-18 2.07309E-18
 -1      2465 1.12049E-04-2.42447E-05-3.76915E-05-6.09952E-06 2.70955E-18 2.80789E-18
 -1      2466 1.16496E-04-2.15785E-05-4.07356E-05-2.71648E-06 2.62241E-18 3.12396E-18
 -1      2467 1.19129E-04-3.50704E-05-3.62209E-05-1.58021E-05-1.31184E-19 1.00102E-18
 -1      2468 1.16235E-04-3.08886E-05-3.65364E-05-1.46208E-05 6.59812E-19 2.35507E-18
 -1      2469 1.19270E-04-2.77345E-05-3.93559E-05-1.51022E-05 1.06859E-18 2.48445E-18
 -1      2470 1.22310E-04-4.09530E-05-3.49431E-05-1.23197E-05-1.66779E-18 7.26364E-19
 -1      2471 1.20320E-04-3.84242E-05-3.51455E-05-1.42961E-05-1.01202E-18 7.85372E-19
 -1      2472 1.23925E-04-3.82811E-05-3.67878E-05-1.63534E-05-4.31325E-19 2.45205E-18
 -1      2473 1.21609E-04-4.20357E-05-3.40904E-05-5.14853E-06-1.51424E-18 1.67772E-18
 -1      2474 1.21252E-04-4.17099E-05-3.41891E-05-8.31009E-06-1.80234E-18 6.33003E-19
 -1      2475 1.24293E-04-4.39261E-05-3.44679E-05-1.00061E-05-1.72779E-18 2.49061E-18
 -1      2476 1.18400E-04-3.99152E-05-3.35991E-05 1.39990E-06-1.39820E-19 1.99493E-18
 -1      2477 1.19244E-04-4.08765E-05-3.36928E-05-1.33907E-06-5.87067E-19 1.78554E-18
 -1      2478 1.20697E-04-4.35722E-05-3.30996E-05-1.85306E-06-1.21146E-18 2.68931E-18
 -1      2479 1.14466E-04-3.68974E-05-3.32130E-05 5.66793E-06 7.42077E-19 1.99434E-18
 -1      2480 1.15907E-04-3.82069E-05-3.33842E-05 3.93164E-06 2.93980E-19 2.46787E-18
 -1      2481 1.15666E-04-4.01478E-05-3.24286E-05 4.43755E-06-2.28107E-19 1.23711E-18
 -1      2482 1.10780E-04-3.42411E-05-3.27844E-05 7.69691E-06 9.18493E-19 2.31511E-18
 -1      2483 1.12398E-04-3.54095E-05-3.30441E-05 6.90247E-06 1.25010E-18 2.53585E-18
 -1      2484 1.10981E-04-3.62744E-05-3.20701E-05 8.03494E-06 9.18329E-19 1.22333E-18
 -1      2485 1.07639E-04-3.22950E-05-3.22816E-05 8.13970E-06-1.90085E-19 1.38072E-18
 -1      2486 1.09211E-04-3.31878E-05-3.26005E-05 8.00629E-06 3.25170E-19 2.31136E-18
 -1      2487 1.07270E-04-3.32065E-05-3.17773E-05 9.43649E-06 9.79033E-19 1.97507E-18
 -1      2488 1.05039E-04-3.09861E-05-3.17329E-05 7.65840E-06 1.20477E-18 8.22990E-19
 -1      2489 1.06465E-04-3.16260E-05-3.20724E-05 7.90516E-06 6.65671E-19 6.94024E-19
 -1      2490 1.04488E-04-3.11509E-05-3.14513E-05 9.41508E-06 1.05080E-18 2.32341E-18
 -1      2491 1.02897E-04-3.01335E-05-3.11823E-05 6.73909E-06 4.34895E-19 2.35833E-19
 -1      2492 1.04140E-04-3.05842E-05-3.15107E-05 7.16013E-06 2.19635E-19 3.98109E-19
 -1      2493 1.02397E-04-2.99036E-05-3.10812E-05 8.61651E-06 9.49659E-19 1.09486E-18
 -1      2494 1.01133E-04-2.95759E-05-3.06656E-05 5.68361E-06 2.83488E-19-1.99289E-19
 -1      2495 1.02186E-04-2.98958E-05-3.09632E-05 6.15213E-06 1.17225E-18 2.99637E-19
 -1      2496 1.00785E-04-2.91914E-05-3.06908E-05 7.47982E-06 9.87947E-19 1.69258E-19
 -1      2497 9.96834E-05-2.92008E-05-3.02050E-05 4.65577E-06-1.16742E-19-1.91217E-18
 -1      2498 1.00557E-04-2.94324E-05-3.04625E-05 5.10456E-06-5.39191E-19-1.20159E-18
 -1      2499 9.95046E-05-2.87978E-05-3.03090E-05 6.26791E-06 7.03575E-19-9.00602E-19
 -1      2500 9.85003E-05-2.89366E-05-2.98107E-05 3.72979E-06 2.49613E-18-1.53852E-18
 -1      2501 9.92121E-05-2.91088E-05-3.00257E-05 4.13024E-06 9.06345E-19-1.90632E-18
 -1      2502 9.84683E-05-2.85802E-05-2.99574E-05 5.11994E-06 3.10560E-19-1.84617E-18
 -1      2503 9.75436E-05-2.87393E-05-2.94848E-05 2.92587E-06 2.40787E-18 3.03800E-21
 -1      2504 9.81132E-05-2.88714E-05-2.96587E-05 3.27250E-06 2.22961E-18-6.51447E-19
 -1      2505 9.76221E-05-2.84524E-05-2.96491E-05 4.09606E-06 1.52802E-18-1.73185E-18
 -1      2506 9.67791E-05-2.85808E-05-2.92244E-05 2.23360E-06 1.22356E-18 4.29784E-19
 -1      2507 9.72263E-05-2.86861E-05-2.93606E-05 2.53385E-06 1.77308E-18 1.80503E-18
 -1      2508 9.69297E-05-2.83641E-05-2.93899E-05 3.20832E-06 1.54237E-18 2.05675E-18
 -1      2509 9.61758E-05-2.84452E-05-2.90239E-05 1.62577E-06 5.96343E-19 9.59732E-19
 -1      2510 9.65182E-05-2.85304E-05-2.91264E-05 1.89380E-06 1.52973E-18 1.44523E-18
 -1      2511 9.63621E-05-2.82858E-05-2.91800E-05 2.44410E-06 7.84310E-19 4.32933E-18
 -1      2512 9.57091E-05-2.83273E-05-2.88740E-05 1.08153E-06-1.09654E-18 7.26257E-20
 -1      2513 9.59649E-05-2.83974E-05-2.89487E-05 1.32641E-06-6.38338E-19 1.00097E-20
 -1      2514 9.59005E-05-2.82090E-05-2.90164E-05 1.77146E-06 2.10855E-19 3.60014E-18
 -1      2515 9.55363E-05-2.82961E-05-2.88117E-05 7.92909E-07-1.25842E-18-3.78015E-19
 -1      2516 9.42633E-05-2.63007E-05-2.91342E-05 1.34249E-06 4.90257E-19-9.62032E-19
 -1      2517 9.44205E-05-2.65217E-05-2.90982E-05 1.47673E-06-1.36086E-18-1.25860E-18
 -1      2518 9.40190E-05-2.59546E-05-2.91777E-05 9.09501E-07-7.49697E-20-6.62804E-19
 -1      2519 9.41261E-05-2.61086E-05-2.91518E-05 1.12404E-06 8.42470E-19-1.74109E-18
 -1      2520 9.40616E-05-2.61289E-05-2.91086E-05 1.42241E-06 4.59783E-19-1.10582E-18
 -1      2521 9.49861E-05-2.73150E-05-2.90071E-05 1.59226E-06-2.21943E-18 1.98712E-18
 -1      2522 9.51783E-05-2.75829E-05-2.89633E-05 1.51745E-06-1.47485E-18 3.97289E-18
 -1      2523 9.46007E-05-2.67736E-05-2.90753E-05 1.58529E-06-2.33661E-18-1.50348E-18
 -1      2524 9.47864E-05-2.70306E-05-2.90342E-05 1.61627E-06-2.18095E-18 1.22079E-18
 -1      2525 9.49028E-05-2.71399E-05-2.90368E-05 1.88067E-06-1.77080E-18 1.26090E-18
 -1      2526 9.44423E-05-2.65852E-05-2.90770E-05 1.77775E-06-1.01745E-18-2.19054E-19
 -1      2527 9.38942E-05-2.57746E-05-2.92003E-05 3.58451E-07-2.23465E-18-8.11693E-19
 -1      2528 9.39412E-05-2.58452E-05-2.91880E-05 6.18861E-07-1.09654E-18-1.06883E-18
 -1      2529 9.38074E-05-2.58207E-05-2.91305E-05 8.75193E-07-2.91825E-19-1.73229E-18
 -1      2530 9.38970E-05-2.57767E-05-2.91989E-05-2.30206E-07-2.03562E-18 1.24479E-18
 -1      2531 9.38814E-05-2.57575E-05-2.92020E-05 3.80505E-08-2.55353E-18 3.16562E-21
 -1      2532 9.36997E-05-2.56916E-05-2.91393E-05 2.19879E-07-8.72804E-19-8.58453E-19
 -1      2533 9.40205E-05-2.59543E-05-2.91736E-05-7.76207E-07-2.04204E-18-1.95011E-18
 -1      2534 9.39470E-05-2.58498E-05-2.91916E-05-5.36663E-07-1.90233E-18-3.89508E-19
 -1      2535 9.37433E-05-2.57494E-05-2.91338E-05-4.51087E-07-7.67919E-19-1.70795E-19
 -1      2536 9.42413E-05-2.62747E-05-2.91286E-05-1.20306E-06 6.02006E-19 1.10559E-18
 -1      2537 9.41224E-05-2.61032E-05-2.91584E-05-1.02550E-06-5.77085E-19-1.06412E-18
 -1      2538 9.39239E-05-2.59777E-05-2.91144E-05-1.04529E-06 8.16019E-21-2.40706E-19
 -1      2539 9.45403E-05-2.67093E-05-2.90680E-05-1.47187E-06 1.37686E-18 2.31650E-18
 -1      2540 9.43862E-05-2.64859E-05-2.91067E-05-1.37362E-06 9.70108E-19 9.96601E-19
 -1      2541 9.42152E-05-2.63459E-05-2.90831E-05-1.49447E-06 9.59978E-19 1.13114E-18
 -1      2542 9.48825E-05-2.72082E-05-2.89990E-05-1.53467E-06 4.29824E-19-4.77918E-19
 -1      2543 9.47150E-05-2.69616E-05-2.90419E-05-1.53774E-06 5.72318E-19 1.55863E-18
 -1      2544 9.45908E-05-2.68183E-05-2.90430E-05-1.75097E-06 5.13423E-19 7.15636E-19
 -1      2545 9.52246E-05-2.77167E-05-2.89271E-05-1.39601E-06-2.83598E-19-1.62338E-18
 -1      2546 9.50577E-05-2.74676E-05-2.89702E-05-1.49443E-06-6.46932E-20-1.43796E-18
 -1      2547 9.49876E-05-2.73379E-05-2.89951E-05-1.76784E-06-5.48319E-19-1.07509E-18
 -1      2548 9.54040E-05-2.81026E-05-2.88396E-05-9.52730E-07 3.90352E-19-5.38789E-19
 -1      2549 9.11252E-05-5.06062E-05-1.73314E-05-4.07971E-05 9.34701E-19-1.03920E-18
 -1      2550 1.10428E-04-5.46715E-05-2.40753E-05-3.74323E-05 2.27005E-19-1.81816E-18
 -1      2551 9.10022E-05-4.96027E-05-1.74348E-05-4.08413E-05 1.73854E-18-9.61157E-19
 -1      2552 9.35940E-05-2.74481E-05-2.83361E-05 3.37233E-07 6.80723E-19 5.10611E-19
 -1      2553 9.38683E-05-2.73130E-05-2.84797E-05 8.80079E-07 7.03195E-19 5.86868E-19
 -1      2554 9.42598E-05-2.74616E-05-2.86421E-05 3.49063E-07 6.99235E-19-1.73719E-19
 -1      2555 3.03359E-05-2.54995E-05-1.86313E-06-2.78527E-05-8.25857E-21 2.94005E-18
 -1      2556 4.46248E-05-3.10022E-05-5.65537E-06-3.81583E-05 9.98017E-19 2.20165E-18
 -1      2557 1.45420E-04-2.80451E-05-5.05828E-05 4.00933E-06-1.46748E-19-4.01451E-18
 -1      2558 1.48767E-04-2.11184E-05-5.49755E-05 3.68562E-06-5.54171E-19-3.98656E-18
 -1      2559 4.77888E-05-3.36387E-05-5.89461E-06-3.57372E-05-1.10390E-18-4.18011E-18
 -1      2560 6.60184E-05-4.19550E-05-1.03176E-05-4.17276E-05 4.46810E-20-2.73825E-18
 -1      2561 1.90439E-05-1.99520E-05 5.18551E-07-1.30727E-05-3.52207E-19 1.74023E-18
 -1      2562 2.40664E-05-2.21413E-05-5.02070E-07-2.21369E-05-1.22608E-19 3.02899E-18
 -1      2563 3.58451E-05-2.19506E-05-5.62642E-06-2.78504E-05 4.84820E-19 2.51929E-18
 -1      2564 8.78923E-05-1.07843E-05-3.30821E-05-1.51544E-06 5.39787E-19-2.71953E-18
 -1      2565 8.79958E-05-1.09068E-05-3.30723E-05-2.63218E-06 3.27705E-19-2.67919E-18
 -1      2566 8.93901E-05-1.30716E-05-3.27097E-05-2.92160E-06 2.55751E-19-2.58933E-18
 -1      2567 8.91447E-05-1.27346E-05-3.27502E-05-9.38604E-07 5.79797E-19-2.52846E-18
 -1      2568 2.47973E-05-2.12219E-05-1.37888E-06 2.02266E-05-9.69641E-19-5.13725E-19
 -1      2569 1.75883E-05-1.90686E-05 8.07136E-07 4.06345E-06-1.13136E-18 9.27501E-20
 -1      2570 3.84729E-05-2.17106E-05-6.61534E-06 2.47238E-05-1.14900E-18 6.53909E-19
 -1      2571 1.49019E-04-5.02872E-05-4.28711E-05 3.78031E-06 1.83496E-18-3.08976E-18
 -1      2572 1.41722E-04-5.56368E-05-3.70298E-05 1.23045E-05 1.13344E-18-2.22939E-18
 -1      2573 1.45372E-04-1.61230E-05-5.57622E-05 7.82291E-06 1.38617E-18-1.37876E-18
 -1      2574 1.44445E-04-1.34750E-05-5.67645E-05 3.36316E-06 1.47384E-18-9.53336E-19
 -1      2575 4.44706E-05-3.03894E-05-6.06698E-06 3.83087E-05-4.41728E-19-3.60413E-19
 -1      2576 3.17111E-05-2.50655E-05-2.53609E-06 2.84022E-05-5.27278E-19-7.75035E-19
 -1      2577 1.48731E-04-3.52702E-05-4.90065E-05 8.89437E-06 1.32349E-18-1.43720E-18
 -1      2578 1.46712E-04-2.51355E-05-5.28150E-05 1.01374E-05 1.18013E-18-1.55685E-18
 -1      2579 1.21445E-04-5.88456E-05-2.68530E-05-2.77394E-05 9.82558E-19-1.17145E-18
 -1      2580 1.37016E-04-5.82354E-05-3.40736E-05-1.77088E-05 4.85138E-19-1.21719E-18
 -1      2581 8.49010E-05-4.99637E-05-1.49312E-05-3.96898E-05 4.38340E-19-2.15191E-18
 -1      2582 1.03247E-04-5.51268E-05-2.08953E-05-3.83345E-05 9.40630E-19-1.63255E-18
 -1      2583 2.36618E-05-1.97046E-05-1.33410E-06-1.57043E-05-7.03037E-19-3.89212E-18
 -1      2584 3.22221E-05-2.44894E-05-3.06470E-06-2.74840E-05-1.07065E-18-4.70040E-18
 -1      2585 8.54408E-05-4.82482E-05-1.61549E-05 4.40103E-05-3.29072E-19-1.01199E-18
 -1      2586 6.52770E-05-4.07029E-05-1.02051E-05 4.20428E-05-3.70153E-19-5.59889E-19
 -1      2587 1.24228E-04-5.69980E-05-2.90829E-05 2.75641E-05-1.15472E-18 1.09797E-19
 -1      2588 1.07200E-04-5.50980E-05-2.20842E-05 3.58090E-05-7.79694E-19-5.18808E-19
 -1      2589 1.47624E-04-2.59022E-05-5.26851E-05-4.10029E-06-2.20080E-18-3.22974E-18
 -1      2590 1.46187E-04-3.32483E-05-4.86493E-05-1.89655E-06-2.20906E-18-2.96038E-18
 -1      2591 1.40664E-04-1.16950E-05-5.60111E-05-4.07275E-06-3.19649E-18-2.31886E-18
 -1      2592 1.43030E-04-1.69553E-05-5.44516E-05-5.70567E-06-3.17044E-18-2.83650E-18
 -1      2593 1.43128E-04-4.63083E-05-4.15699E-05-5.71333E-06-8.85692E-19-3.85336E-18
 -1      2594 1.45745E-04-4.00003E-05-4.58635E-05-6.97683E-07-8.44068E-19-4.35989E-18
 -1      2595 1.51629E-04-2.98101E-05-5.27514E-05-7.36365E-06 2.58769E-18-1.04693E-18
 -1      2596 1.49980E-04-3.88482E-05-4.78434E-05-6.15418E-06 2.42950E-18-1.86940E-18
 -1      2597 9.62751E-05-2.50749E-05-3.05398E-05 7.59591E-06 1.78690E-18 1.65146E-18
 -1      2598 9.73956E-05-2.37598E-05-3.15795E-05 1.06964E-05 1.93457E-18 1.92276E-18
 -1      2599 9.58421E-05-2.12885E-05-3.20074E-05 1.18975E-05 2.10114E-18 1.25655E-18
 -1      2600 9.58359E-05-2.41421E-05-3.07588E-05 7.68019E-06 1.84018E-18 7.83774E-19
 -1      2601 1.45765E-04-5.08568E-05-4.08654E-05-3.31344E-06 9.19110E-19-1.73875E-18
 -1      2602 1.50196E-04-4.34715E-05-4.62005E-05 3.16735E-06 1.23137E-18-1.78745E-18
 -1      2603 1.43985E-04-3.96116E-05-4.47379E-05 1.32931E-05 1.52625E-18-1.51502E-18
 -1      2604 1.25060E-04-5.53849E-05-2.98115E-05-2.63691E-05-3.29496E-19-1.33831E-18
 -1      2605 1.37770E-04-5.28609E-05-3.67445E-05-1.76504E-05-6.18016E-19-2.75519E-18
 -1      2606 1.33554E-04-5.82897E-05-3.23635E-05 2.30157E-05 3.18908E-19-1.03592E-18
 -1      2607 1.18618E-04-5.80497E-05-2.60099E-05 2.94367E-05-8.32633E-19-5.92076E-19
 -1      2608 1.39292E-04-5.96141E-05-3.40489E-05 1.13387E-05-1.58925E-19-2.71008E-18
 -1      2609 2.49622E-05-1.58358E-05-3.42183E-06-4.70363E-06-1.05747E-18 6.00335E-19
 -1      2610 9.08326E-05-1.50386E-05-3.24755E-05-6.78858E-06-5.54018E-19-2.68785E-18
 -1      2611 8.97259E-05-1.31838E-05-3.28585E-05-7.95033E-06-5.71531E-19-2.80106E-18
 -1      2612 9.03483E-05-1.38925E-05-3.28270E-05-9.16978E-06-9.23463E-19-2.71307E-18
 -1      2613 9.42164E-05-1.90711E-05-3.22499E-05 1.16049E-05 2.13906E-18 4.40907E-19
 -1      2614 1.43233E-04-5.72335E-05-3.70568E-05-5.56576E-06 4.22987E-19-2.01170E-18
 -1      2615 1.41860E-04-5.20624E-05-3.89229E-05 6.85316E-06 1.07758E-18-1.47066E-18
 -1      2616 1.37588E-04-5.93147E-05-3.31265E-05-8.20758E-06 6.76991E-19-1.60650E-18
 -1      2617 9.47105E-05-2.69182E-05-2.90670E-05 1.85741E-06 9.92747E-19 5.27295E-20
 -1      2618 9.20510E-05-1.62351E-05-3.25346E-05-1.03861E-05-1.27930E-18-2.37009E-18
 -1      2619 1.42385E-04-2.29157E-05-5.14412E-05-1.26386E-05 2.27598E-18-6.17487E-19
 -1      2620 1.38910E-04-5.18469E-05-3.73114E-05-7.69361E-06-2.68668E-19-4.38064E-18
 -1      2621 1.36410E-04-9.92215E-06-5.46357E-05-2.00021E-06-2.71347E-18-2.09672E-18
 -1      2622 1.25765E-04-1.02787E-05-4.98793E-05-5.66242E-06-3.03132E-18-2.12735E-18
 -1      2623 1.28524E-04-8.03821E-06-5.23106E-05 4.86638E-08-2.46889E-18-2.01132E-18
 -1      2624 1.21855E-04-5.76567E-05-2.73174E-05-2.79532E-05 2.72003E-19-1.45573E-18
 -1      2625 6.71147E-05-3.95394E-05-1.14111E-05 3.90409E-05-1.37664E-18 1.70148E-18
 -1      2626 6.44941E-05-3.35934E-05-1.27560E-05 3.63199E-05-1.24779E-18 1.05064E-18
 -1      2627 8.13327E-05-4.48848E-05-1.56271E-05 3.95943E-05-2.11165E-18 1.10199E-18
 -1      2628 5.79251E-05-3.40638E-05-9.81277E-06-3.95433E-05 1.12655E-18 1.63393E-18
 -1      2629 9.55250E-05-2.81303E-05-2.88821E-05 1.15236E-06-1.00219E-18 1.66562E-18
 -1      2630 4.72701E-05-2.83356E-05-7.68088E-06-3.21219E-05-7.75670E-19-4.25380E-18
 -1      2631 9.54303E-05-2.79411E-05-2.89242E-05 1.32305E-06-7.53736E-19 4.64759E-18
 -1      2632 1.11856E-04-5.80506E-05-2.29667E-05 3.35578E-05-1.60809E-18-1.36092E-18
 -1      2633 1.02200E-04-5.39931E-05-2.01353E-05 3.57026E-05-2.90553E-18-6.80988E-19
 -1      2634 1.22765E-04-6.07831E-05-2.68964E-05 2.48545E-05-2.20525E-18-1.88242E-18
 -1      2635 9.56011E-05-2.82193E-05-2.88726E-05-1.16297E-06 7.14944E-19 5.27169E-19
 -1      2636 9.53862E-05-2.79392E-05-2.89085E-05-1.31846E-06 5.79654E-19-8.23581E-19
 -1      2637 9.54050E-05-2.78358E-05-2.89562E-05-1.63575E-06 2.24736E-19-2.73362E-19
 -1      2638 9.57783E-05-2.82668E-05-2.89266E-05-1.38543E-06 7.15217E-19-1.18381E-19
 -1      2639 1.41462E-04-3.42676E-05-4.61798E-05 6.89191E-06 2.79521E-20-4.77007E-18
 -1      2640 1.36238E-04-2.05407E-05-4.97691E-05-9.21540E-06-3.02454E-18-2.83608E-18
 -1      2641 1.32359E-04-5.73603E-05-3.20762E-05 1.88760E-05-1.52318E-18-2.26581E-20
 -1      2642 1.25111E-04-5.82567E-05-2.85131E-05 2.20244E-05-4.71586E-19-1.81477E-19
 -1      2643 1.35454E-04-5.51404E-05-3.49049E-05 8.76349E-06-1.34588E-18-1.29998E-18
 -1      2644 1.39520E-04-1.54918E-05-5.34465E-05 7.21536E-06-7.53012E-19-3.53679E-18
 -1      2645 1.01034E-04-5.27493E-05-2.03060E-05 3.74780E-05 1.26208E-19-4.23186E-19
 -1      2646 2.41743E-05-1.68476E-05-2.65843E-06-8.33351E-06-3.33255E-19-3.23609E-18
 -1      2647 3.17295E-05-1.55373E-05-6.46706E-06-1.43905E-05-5.62271E-19-3.07642E-18
 -1      2648 2.53894E-05-1.31255E-05-4.85731E-06-1.67089E-08-1.22975E-19-3.05017E-18
 -1      2649 8.20399E-05-4.64559E-05-1.48630E-05-3.97383E-05-2.53051E-19-2.60971E-18
 -1      2650 1.17239E-04-5.91043E-05-2.46949E-05-2.95609E-05 8.24375E-19-1.44959E-18
 -1      2651 1.42828E-04-4.10175E-05-4.37421E-05-2.16327E-06-2.06750E-18-2.55317E-18
 -1      2652 6.16152E-05-3.52856E-05-1.07103E-05 3.95936E-05 3.23567E-19-4.01176E-19
 -1      2653 3.07721E-05-1.95448E-05-4.26092E-06 2.18949E-05-7.57036E-20-1.33429E-18
 -1      2654 1.38048E-04-2.08521E-05-5.03010E-05 1.27292E-05 1.06366E-18-1.30252E-18
 -1      2655 1.40958E-04-1.35670E-05-5.49956E-05-7.29255E-08 1.47998E-18-5.67400E-19
 -1      2656 1.33452E-04-1.35615E-05-5.21525E-05-3.34396E-06 1.66908E-18-4.08508E-19
 -1      2657 1.31985E-04-1.38249E-05-5.11517E-05 3.05098E-06 1.66611E-18-5.19483E-19
 -1      2658 1.46367E-04-4.61549E-05-4.30275E-05-6.66165E-06 1.33736E-18-2.53919E-18
 -1      2659 9.46955E-05-2.05931E-05-3.17139E-05 9.66966E-06 1.99634E-18 1.52691E-19
 -1      2660 9.56952E-05-2.80958E-05-2.89755E-05-1.73721E-06 4.10896E-19-4.32223E-19
 -1      2661 9.54346E-05-2.78008E-05-2.89814E-05 1.67889E-06-8.44284E-19 3.90016E-18
 -1      2662 9.05984E-05-1.51433E-05-3.23602E-05 3.18116E-06 1.20238E-18-2.12369E-18
 -1      2663 9.04101E-05-1.48702E-05-3.23947E-05 2.25020E-06 1.09719E-18-2.38533E-18
 -1      2664 9.02763E-05-1.46648E-05-3.24249E-05 1.41554E-06 9.66149E-19-2.46198E-18
 -1      2665 9.02115E-05-1.45716E-05-3.24365E-05 4.62363E-07 8.09515E-19-2.35842E-18
 -1      2666 9.14561E-05-1.65476E-05-3.20903E-05 1.62959E-06 9.06979E-19-2.27498E-18
 -1      2667 9.21659E-05-1.75337E-05-3.20228E-05 6.45605E-06 1.74904E-18-1.43721E-18
 -1      2668 9.16477E-05-1.67379E-05-3.21268E-05 5.61630E-06 1.67813E-18-1.69713E-18
 -1      2669 9.35718E-05-1.97660E-05-3.16723E-05 7.58313E-06 1.84900E-18-7.28612E-19
 -1      2670 9.27876E-05-1.85079E-05-3.18515E-05 7.00390E-06 1.78721E-18-1.05582E-18
 -1      2671 9.34559E-05-1.98466E-05-3.15243E-05 5.71136E-06 1.64059E-18-1.17089E-18
 -1      2672 2.86789E-05-1.27355E-05-6.38232E-06 3.93113E-06-1.17047E-18 2.35052E-19
 -1      2673 3.05869E-05-1.42085E-05-6.49535E-06-1.35204E-05-5.79688E-19 9.98440E-19
 -1      2674 9.55744E-05-2.78698E-05-2.90105E-05-2.03480E-06 3.51207E-19 9.99120E-20
 -1      2675 9.54624E-05-2.78415E-05-2.89783E-05-1.83428E-06 8.09636E-19 5.07758E-19
 -1      2676 9.52634E-05-2.76142E-05-2.89900E-05-1.92132E-06 2.76010E-20-1.17225E-18
 -1      2677 9.52385E-05-2.39723E-05-3.05213E-05-5.28420E-06-1.07896E-18-1.58158E-18
 -1      2678 9.51595E-05-2.49812E-05-3.00953E-05-3.76849E-06-8.71888E-19-1.46243E-18
 -1      2679 9.46879E-05-2.18959E-05-3.12033E-05 7.83199E-06 1.82686E-18 7.21632E-21
 -1      2680 9.45401E-05-2.80572E-05-2.84909E-05-1.09516E-06 8.58613E-19-6.84849E-19
 -1      2681 9.45336E-05-2.79380E-05-2.85300E-05-8.80111E-07 8.17630E-19-5.09008E-19
 -1      2682 9.53573E-05-2.58721E-05-2.97488E-05-2.66122E-06-9.24906E-19-1.44965E-18
 -1      2683 9.51961E-05-2.64537E-05-2.94721E-05-1.66552E-06-8.68193E-19-1.56702E-18
 -1      2684 9.52141E-05-2.46580E-05-3.02335E-05-3.50281E-06-9.00661E-19-1.70407E-18
 -1      2685 9.52216E-05-2.69590E-05-2.92320E-05-9.04300E-07-7.88779E-19-1.46334E-18
 -1      2686 9.50959E-05-2.73053E-05-2.90585E-05-2.77172E-07-7.38313E-19-1.60989E-18
 -1      2687 9.54220E-05-2.62763E-05-2.96396E-05-1.54511E-06-8.97015E-19-1.61127E-18
 -1      2688 9.50663E-05-2.75994E-05-2.88986E-05 2.17490E-07-7.25540E-19-1.57271E-18
 -1      2689 9.50015E-05-2.78132E-05-2.87968E-05 6.00458E-07-7.11652E-19-1.49896E-18
 -1      2690 9.54290E-05-2.72473E-05-2.92284E-05-2.16321E-07-7.53444E-19-1.48194E-18
 -1      2691 9.49637E-05-2.79826E-05-2.86963E-05 9.09741E-07-6.83806E-19-1.32345E-18
 -1      2692 9.49541E-05-2.81160E-05-2.86444E-05 1.13803E-06-6.54053E-19-1.46379E-18
 -1      2693 9.53751E-05-2.78275E-05-2.89561E-05 6.43950E-07-6.70937E-19-1.34070E-18
 -1      2694 9.49249E-05-2.82077E-05-2.85875E-05 1.32758E-06-6.75383E-19-1.38275E-18
 -1      2695 9.49583E-05-2.82885E-05-2.85708E-05 1.46416E-06-6.10168E-19-1.32939E-18
 -1      2696 9.53200E-05-2.81632E-05-2.87874E-05 1.18480E-06-7.50913E-19-1.13348E-18
 -1      2697 9.49418E-05-2.83287E-05-2.85459E-05 1.58431E-06-5.56625E-19-1.26338E-18
 -1      2698 9.50074E-05-2.83734E-05-2.85544E-05 1.67396E-06-4.81407E-19-1.12026E-18
 -1      2699 9.52833E-05-2.83385E-05-2.86953E-05 1.52535E-06-5.01793E-19-9.34121E-19
 -1      2700 9.50033E-05-2.83778E-05-2.85533E-05 1.76273E-06-3.63312E-19-1.09806E-18
 -1      2701 9.50939E-05-2.83971E-05-2.85804E-05 1.83776E-06-4.23131E-19-9.15578E-19
 -1      2702 9.52688E-05-2.84036E-05-2.86602E-05 1.75722E-06-4.60293E-19-6.36756E-19
 -1      2703 9.51011E-05-2.83765E-05-2.85973E-05 1.92358E-06-4.77568E-19-9.46585E-19
 -1      2704 9.52134E-05-2.83784E-05-2.86388E-05 2.00742E-06-2.83828E-19-7.09146E-19
 -1      2705 9.52758E-05-2.83911E-05-2.86678E-05 1.94962E-06-3.60733E-19-6.44612E-19
 -1      2706 9.52316E-05-2.83408E-05-2.86695E-05 2.11141E-06-3.30903E-19-9.37655E-19
 -1      2707 9.53658E-05-2.83329E-05-2.87228E-05 2.22076E-06-1.81234E-19-1.02025E-18
 -1      2708 9.53031E-05-2.83241E-05-2.87077E-05 2.15427E-06-4.03353E-19-1.08165E-18
 -1      2709 9.53961E-05-2.82856E-05-2.87643E-05 2.35806E-06-2.50030E-19-1.05718E-18
 -1      2710 9.55553E-05-2.82757E-05-2.88278E-05 2.50387E-06-4.17935E-19-1.38879E-18
 -1      2711 9.53523E-05-2.82218E-05-2.87723E-05 2.40906E-06-4.13328E-19-1.25238E-18
 -1      2712 9.56012E-05-2.82271E-05-2.88774E-05 2.68421E-06-2.47053E-19-1.28917E-18
 -1      2713 9.57912E-05-2.82252E-05-2.89500E-05 2.87169E-06 3.83760E-20-1.02152E-18
 -1      2714 9.54280E-05-2.81034E-05-2.88554E-05 2.74012E-06-8.97947E-20-7.68913E-19
 -1      2715 9.58593E-05-2.81866E-05-2.90054E-05 3.09911E-06 1.95232E-19-8.61699E-19
 -1      2716 9.60889E-05-2.82059E-05-2.90855E-05 3.32675E-06 3.88309E-19-6.33236E-19
 -1      2717 9.55408E-05-2.79922E-05-2.89516E-05 3.16228E-06 2.00183E-19-5.70144E-19
 -1      2718 9.61907E-05-2.81934E-05-2.91439E-05 3.59845E-06 1.58881E-19-7.79042E-19
 -1      2719 9.64716E-05-2.82523E-05-2.92296E-05 3.85603E-06-5.32453E-20-1.04355E-18
 -1      2720 9.57088E-05-2.79201E-05-2.90550E-05 3.67774E-06 1.95211E-19-8.21799E-19
 -1      2721 9.66258E-05-2.82894E-05-2.92879E-05 4.16015E-06-4.84876E-19-1.02069E-18
 -1      2722 9.69737E-05-2.84136E-05-2.93764E-05 4.42578E-06-8.04389E-19-9.87471E-19
 -1      2723 9.59620E-05-2.79325E-05-2.91592E-05 4.27306E-06-2.82994E-19-1.02767E-18
 -1      2724 9.72093E-05-2.85337E-05-2.94309E-05 4.73805E-06-5.67466E-19-8.12412E-19
 -1      2725 9.76445E-05-2.87573E-05-2.95182E-05 4.97427E-06-3.12811E-19-7.04489E-19
 -1      2726 9.63475E-05-2.80942E-05-2.92569E-05 4.91406E-06-6.75340E-19-6.47309E-19
 -1      2727 9.80040E-05-2.90050E-05-2.95656E-05 5.25340E-06-4.64247E-19-5.74371E-19
 -1      2728 9.85514E-05-2.93696E-05-2.96476E-05 5.40284E-06-2.28116E-19-7.02249E-19
 -1      2729 9.69359E-05-2.84936E-05-2.93409E-05 5.53839E-06-3.44723E-19 7.75966E-20
 -1      2730 9.90933E-05-2.97992E-05-2.96862E-05 5.58436E-06 2.05713E-20-4.58468E-19
 -1      2731 9.97793E-05-3.03480E-05-2.97596E-05 5.56631E-06 6.89269E-20-7.91310E-19
 -1      2732 9.78274E-05-2.92432E-05-2.94064E-05 6.04529E-06-9.35851E-20-3.22597E-19
 -1      2733 1.00575E-04-3.10134E-05-2.97928E-05 5.55540E-06 2.38013E-19-8.50267E-19
 -1      2734 1.01417E-04-3.17737E-05-2.98584E-05 5.26609E-06 3.48131E-19-1.18289E-18
 -1      2735 9.91520E-05-3.04672E-05-2.94561E-05 6.28236E-06-1.53539E-20-3.07856E-19
 -1      2736 1.02534E-04-3.27028E-05-2.98991E-05 4.93239E-06 3.11367E-19-1.22218E-18
 -1      2737 1.03519E-04-3.36500E-05-2.99660E-05 4.25550E-06 1.96504E-19-1.68635E-18
 -1      2738 1.01052E-04-3.22630E-05-2.95086E-05 6.03094E-06 3.00374E-19-8.83527E-19
 -1      2739 1.04981E-04-3.47945E-05-3.00434E-05 3.43837E-06 4.26417E-19-1.85678E-18
 -1      2740 1.06023E-04-3.57924E-05-3.01340E-05 2.27684E-06 4.65024E-19-1.42815E-18
 -1      2741 1.03629E-04-3.46170E-05-2.96104E-05 5.00002E-06 3.21745E-19-1.55054E-18
 -1      2742 1.07729E-04-3.69472E-05-3.02983E-05 8.24792E-07 2.85061E-19-1.74011E-18
 -1      2743 1.08623E-04-3.76763E-05-3.04507E-05-8.26876E-07 2.15419E-19-1.62163E-18
 -1      2744 1.06822E-04-3.72519E-05-2.98492E-05 2.85508E-06 3.53989E-19-8.62512E-19
 -1      2745 1.10242E-04-3.83986E-05-3.07703E-05-2.93239E-06-1.34370E-19-1.81766E-18
 -1      2746 1.10655E-04-3.83425E-05-3.10293E-05-4.86089E-06-2.97229E-19-1.61260E-18
 -1      2747 1.10217E-04-3.94213E-05-3.03585E-05-6.40491E-07-1.87136E-19-1.67490E-18
 -1      2748 1.11596E-04-3.79875E-05-3.15663E-05-7.27421E-06-4.44146E-20-1.54329E-18
 -1      2749 1.11190E-04-3.66192E-05-3.19618E-05-8.90965E-06 1.44760E-19-1.67515E-18
 -1      2750 1.12889E-04-3.98484E-05-3.12883E-05-5.27559E-06 2.05025E-20-1.26504E-18
 -1      2751 1.10820E-04-3.46754E-05-3.27199E-05-1.06658E-05 2.16112E-19-1.16776E-18
 -1      2752 1.09575E-04-3.19790E-05-3.32117E-05-1.11053E-05 4.24916E-19-1.12399E-18
 -1      2753 1.13537E-04-3.70541E-05-3.27306E-05-9.83305E-06 9.33497E-19-3.67182E-19
 -1      2754 1.07872E-04-2.87652E-05-3.40426E-05-1.08492E-05 7.25917E-19-7.83001E-19
 -1      2755 1.06342E-04-2.57242E-05-3.44946E-05-9.29814E-06 8.21066E-19-4.48067E-19
 -1      2756 1.11411E-04-3.07933E-05-3.45275E-05-1.18741E-05 8.70856E-19 5.17623E-19
 -1      2757 1.04590E-04-2.30383E-05-3.50714E-05-6.28015E-06 6.42170E-19-7.62025E-19
 -1      2758 1.03829E-04-2.15125E-05-3.52701E-05-3.07386E-06-6.09334E-20 3.36894E-20
 -1      2759 1.07757E-04-2.37542E-05-3.60334E-05-8.79069E-06 4.91938E-19 5.89105E-19
 -1      2760 1.03606E-04-2.11824E-05-3.53304E-05 1.43270E-06-5.15307E-19 3.47723E-19
 -1      2761 1.04145E-04-2.22410E-05-3.51906E-05 4.86587E-06-3.37973E-19 1.20247E-18
 -1      2762 1.05707E-04-1.97898E-05-3.68927E-05-9.64995E-07-9.21148E-20 1.01881E-18
 -1      2763 1.05704E-04-2.46137E-05-3.46949E-05 8.29505E-06-3.52763E-19 7.23072E-19
 -1      2764 1.07129E-04-2.74521E-05-3.42841E-05 1.02312E-05 3.50748E-19 1.21153E-18
 -1      2765 1.07149E-04-2.23677E-05-3.63848E-05 7.44243E-06-1.78181E-19 6.59749E-19
 -1      2766 1.08968E-04-3.07106E-05-3.34836E-05 1.11078E-05-1.82774E-20 6.55492E-19
 -1      2767 1.10367E-04-3.36289E-05-3.29835E-05 1.10366E-05-1.99353E-19 5.41273E-19
 -1      2768 1.10660E-04-2.90972E-05-3.49159E-05 1.16740E-05 8.48356E-21 9.40101E-19
 -1      2769 1.11041E-04-3.59177E-05-3.21886E-05 9.54065E-06 1.18072E-19 3.44405E-20
 -1      2770 1.11628E-04-3.75739E-05-3.17674E-05 8.06724E-06-7.25140E-20 7.13873E-19
 -1      2771 1.13356E-04-3.60519E-05-3.30745E-05 1.05164E-05-4.20645E-19 2.04429E-19
 -1      2772 1.10910E-04-3.82225E-05-3.11845E-05 5.69455E-06-1.10148E-19 7.90358E-19
 -1      2773 1.10635E-04-3.85097E-05-3.08990E-05 3.76320E-06-2.13742E-19 8.50575E-19
 -1      2774 1.13221E-04-3.95849E-05-3.15357E-05 6.22364E-06-2.11781E-19-1.81367E-19
 -1      2775 1.09104E-04-3.79531E-05-3.05388E-05 1.55011E-06-1.35548E-19 1.14468E-18
 -1      2776 1.08274E-04-3.73371E-05-3.03677E-05-1.88120E-07 4.57411E-19 1.50814E-18
 -1      2777 1.10859E-04-3.97025E-05-3.05074E-05 1.47209E-06-1.34764E-19 5.58924E-19
 -1      2778 1.06551E-04-3.62253E-05-3.01775E-05-1.78133E-06 6.05445E-19 8.97467E-19
 -1      2779 1.05515E-04-3.52477E-05-3.00776E-05-3.04917E-06 7.59281E-19 2.93183E-19
 -1      2780 1.07521E-04-3.77728E-05-2.99234E-05-2.30078E-06 1.52335E-19-7.78997E-20
 -1      2781 1.03990E-04-3.40752E-05-2.99880E-05-3.98526E-06 3.53282E-19-4.33648E-19
 -1      2782 1.02980E-04-3.30984E-05-2.99191E-05-4.75438E-06-7.89864E-19-1.22953E-18
 -1      2783 1.04236E-04-3.51498E-05-2.96425E-05-4.71175E-06-3.42115E-19-1.02422E-18
 -1      2784 1.01792E-04-3.21138E-05-2.98754E-05-5.17041E-06-4.56697E-19-1.44314E-19
 -1      2785 1.00917E-04-3.13060E-05-2.98119E-05-5.52570E-06 8.38125E-20 3.71591E-19
 -1      2786 1.01519E-04-3.26966E-05-2.95241E-05-5.93972E-06 5.62216E-19-4.19379E-19
 -1      2787 1.00061E-04-3.05822E-05-2.97814E-05-5.58459E-06-6.28579E-20 7.13926E-19
 -1      2788 9.93440E-05-2.99848E-05-2.97122E-05-5.64092E-06 2.00248E-19 1.48617E-18
 -1      2789 9.94865E-05-3.07691E-05-2.94713E-05-6.31459E-06 4.95335E-19-2.62278E-19
 -1      2790 9.87564E-05-2.95030E-05-2.96793E-05-5.47881E-06 3.74446E-19 7.95033E-19
 -1      2791 9.81843E-05-2.90945E-05-2.96028E-05-5.34187E-06 8.96762E-19 5.93854E-19
 -1      2792 9.80559E-05-2.94181E-05-2.94305E-05-6.13870E-06-3.79117E-19 2.84893E-19
 -1      2793 9.77918E-05-2.88017E-05-2.95631E-05-5.05815E-06 7.24988E-19-2.78979E-19
 -1      2794 9.73390E-05-2.85390E-05-2.94826E-05-4.81079E-06-6.24378E-19 1.57135E-19
 -1      2795 9.70864E-05-2.85568E-05-2.93792E-05-5.64155E-06 2.36747E-19-2.11015E-18
 -1      2796 9.70792E-05-2.83781E-05-2.94376E-05-4.47246E-06-1.03255E-18 1.30653E-18
 -1      2797 9.67203E-05-2.82167E-05-2.93579E-05-4.17299E-06-4.95208E-19 3.41848E-19
 -1      2798 9.64416E-05-2.80580E-05-2.93134E-05-4.98244E-06 1.17004E-19-2.26086E-18
 -1      2799 9.65458E-05-2.81383E-05-2.93111E-05-3.82176E-06 3.64845E-19 7.34672E-19
 -1      2800 9.62592E-05-2.80409E-05-2.92369E-05-3.50697E-06 9.19108E-19 3.41116E-19
 -1      2801 9.60124E-05-2.78009E-05-2.92375E-05-4.26479E-06 1.42819E-19-6.28739E-20
 -1      2802 9.61362E-05-2.80072E-05-2.91924E-05-3.16789E-06 7.61864E-19 4.72065E-19
 -1      2803 9.59043E-05-2.79414E-05-2.91276E-05-2.85908E-06 1.33868E-19-1.83669E-19
 -1      2804 9.57196E-05-2.76877E-05-2.91592E-05-3.55197E-06 5.51268E-19-4.90261E-19
 -1      2805 9.58312E-05-2.79294E-05-2.90945E-05-2.58376E-06 3.22073E-21-1.29642E-19
 -1      2806 9.56439E-05-2.78850E-05-2.90396E-05-2.28425E-06 7.49699E-20 4.18904E-20
 -1      2807 9.53752E-05-2.76338E-05-2.90381E-05-2.38325E-06 2.91367E-19 1.95835E-19
 -1      2808 9.55211E-05-2.76403E-05-2.90911E-05-2.92581E-06 3.40274E-19 3.15422E-19
 -1      2809 1.34886E-04-3.82986E-05-4.17160E-05 8.64155E-06-6.05629E-20-3.92113E-18
 -1      2810 1.33371E-04-2.83215E-05-4.57087E-05 1.10680E-05 1.83700E-19-4.01695E-18
 -1      2811 9.45844E-05-2.77972E-05-2.86228E-05-5.68805E-07 6.75087E-19-6.14261E-19
 -1      2812 9.46574E-05-2.76170E-05-2.87133E-05-1.97528E-07 6.34540E-19-5.04060E-19
 -1      2813 9.50393E-05-2.78297E-05-2.88127E-05-6.17584E-07 7.22808E-19-1.04413E-18
 -1      2814 9.46922E-05-2.83091E-05-2.84462E-05-1.59920E-06 4.60776E-19-1.77623E-19
 -1      2815 9.45888E-05-2.82570E-05-2.84252E-05-1.52014E-06 6.10551E-19-3.13321E-19
 -1      2816 9.48528E-05-2.83525E-05-2.84956E-05-1.74936E-06 7.44075E-19-4.75145E-19
 -1      2817 9.47195E-05-2.83210E-05-2.84560E-05-1.68237E-06 5.34029E-19-2.71140E-19
 -1      2818 9.50207E-05-2.83639E-05-2.85713E-05-1.72100E-06 5.51669E-19-6.07176E-19
 -1      2819 9.50558E-05-2.83585E-05-2.85790E-05-1.91159E-06 7.41952E-19-4.47684E-19
 -1      2820 9.48968E-05-2.83428E-05-2.85242E-05-1.83150E-06 8.70186E-19-2.87863E-19
 -1      2821 9.50956E-05-2.83680E-05-2.86008E-05-1.90552E-06 7.44594E-19-7.37599E-19
 -1      2822 9.52981E-05-2.83348E-05-2.86918E-05-2.12999E-06 5.54118E-19-1.68635E-19
 -1      2823 9.51133E-05-2.83310E-05-2.86230E-05-2.01666E-06 7.48475E-19-1.19220E-19
 -1      2824 9.51983E-05-2.83188E-05-2.86653E-05-2.10929E-06 5.80267E-19 1.60856E-20
 -1      2825 9.55815E-05-2.82870E-05-2.88323E-05-2.44104E-06 3.53852E-19 5.97488E-20
 -1      2826 9.53671E-05-2.82918E-05-2.87494E-05-2.27760E-06 4.40189E-19-1.22609E-19
 -1      2827 9.53242E-05-2.82249E-05-2.87591E-05-2.37797E-06 4.79140E-19 2.55145E-20
 -1      2828 9.59116E-05-2.82203E-05-2.90007E-05-2.87581E-06 7.42233E-20-1.10962E-19
 -1      2829 9.56610E-05-2.82300E-05-2.89026E-05-2.64778E-06 3.41510E-19 2.20281E-19
 -1      2830 9.54709E-05-2.80920E-05-2.88786E-05-2.74922E-06 2.11746E-19 6.76768E-19
 -1      2831 9.62968E-05-2.81414E-05-2.91978E-05-3.46068E-06-1.03915E-19-1.30903E-19
 -1      2832 9.60012E-05-2.81510E-05-2.90830E-05-3.15593E-06 1.74470E-19-2.09382E-20
 -1      2833 9.56374E-05-2.79248E-05-2.90214E-05-3.25470E-06 1.58551E-19 2.90457E-19
 -1      2834 9.67485E-05-2.80615E-05-2.94238E-05-4.21602E-06 1.22471E-19-5.68685E-19
 -1      2835 9.63971E-05-2.80630E-05-2.92910E-05-3.82589E-06-1.96509E-20 2.02779E-20
 -1      2836 9.58246E-05-2.77299E-05-2.91847E-05-3.92063E-06 7.64025E-20 4.83144E-19
 -1      2837 9.72828E-05-2.80025E-05-2.96764E-05-5.15232E-06 4.77930E-19-5.36693E-19
 -1      2838 9.68620E-05-2.79816E-05-2.95257E-05-4.67437E-06 2.26605E-19-7.94863E-19
 -1      2839 9.60356E-05-2.75211E-05-2.93643E-05-4.76659E-06 3.95561E-19-1.60174E-19
 -1      2840 9.79257E-05-2.80062E-05-2.99490E-05-6.26234E-06-1.57495E-19-1.78849E-19
 -1      2841 9.74175E-05-2.79376E-05-2.97829E-05-5.70557E-06 3.95846E-19-5.22871E-19
 -1      2842 9.62811E-05-2.73273E-05-2.95523E-05-5.80202E-06 2.98168E-19-3.10884E-19
 -1      2843 9.87245E-05-2.81518E-05-3.02287E-05-7.50777E-06-4.84792E-19-8.06709E-19
 -1      2844 9.81016E-05-2.79900E-05-3.00531E-05-6.90138E-06-2.55436E-19-7.13643E-19
 -1      2845 9.65880E-05-2.72069E-05-2.97358E-05-7.01982E-06 6.18411E-20-1.56479E-19
 -1      2846 9.97689E-05-2.85792E-05-3.04945E-05-8.79809E-06-6.50394E-19-8.47788E-19
 -1      2847 9.89867E-05-2.82472E-05-3.03196E-05-8.20489E-06-8.89055E-19-1.21225E-18
 -1      2848 9.70187E-05-2.72702E-05-2.98953E-05-8.38572E-06-2.73795E-19-7.20442E-19
 -1      2849 1.01225E-04-2.95186E-05-3.07197E-05-9.95915E-06-3.60888E-19-5.41553E-19
 -1      2850 1.00209E-04-2.88949E-05-3.05594E-05-9.49430E-06-4.26199E-19-3.63857E-19
 -1      2851 9.77035E-05-2.77116E-05-3.00056E-05-9.82153E-06-6.11045E-19-1.05002E-18
 -1      2852 1.03373E-04-3.13069E-05-3.08824E-05-1.06883E-05-2.51461E-19 1.21616E-19
 -1      2853 1.02010E-04-3.02245E-05-3.07484E-05-1.05422E-05-2.27671E-19-1.96928E-19
 -1      2854 9.88921E-05-2.88454E-05-3.00422E-05-1.11770E-05-5.36131E-19-1.65784E-20
 -1      2855 1.06621E-04-3.43372E-05-3.09923E-05-1.04950E-05-1.31360E-19 3.75064E-19
 -1      2856 1.04776E-04-3.26278E-05-3.08806E-05-1.09530E-05 1.07209E-19 3.98024E-19
 -1      2857 1.01014E-04-3.11225E-05-3.00001E-05-1.21773E-05-1.97617E-19 5.53851E-19
 -1      2858 1.11390E-04-3.88098E-05-3.11478E-05-8.64187E-06-1.47422E-18 2.25814E-19
 -1      2859 1.09005E-04-3.64721E-05-3.10101E-05-1.00736E-05-8.33515E-19 5.75637E-19
 -1      2860 1.04709E-04-3.50513E-05-2.99372E-05-1.23193E-05-6.23598E-19 8.32976E-19
 -1      2861 1.17774E-04-4.41164E-05-3.16274E-05-4.19963E-06-1.86479E-18 5.51895E-21
 -1      2862 1.15024E-04-4.16578E-05-3.13294E-05-6.95774E-06-1.74637E-18-1.48322E-19
 -1      2863 1.10666E-04-4.08192E-05-3.00592E-05-1.07120E-05-1.35046E-18 6.30272E-19
 -1      2864 1.25063E-04-4.82229E-05-3.28727E-05 3.27458E-06-1.54954E-19-1.61962E-19
 -1      2865 1.22468E-04-4.69232E-05-3.22709E-05-7.87165E-07-8.03484E-19-2.92359E-20
 -1      2866 1.18772E-04-4.73031E-05-3.08379E-05-6.01993E-06-1.01069E-18-1.37537E-19
 -1      2867 1.31765E-04-4.69353E-05-3.63915E-05 1.07507E-05 6.50521E-19-2.39022E-20
 -1      2868 1.31174E-04-5.03367E-05-3.47411E-05 6.88569E-06 6.00467E-20-4.76456E-20
 -1      2869 1.28278E-04-2.93921E-05-4.29167E-05 1.61648E-05 1.40978E-18 2.19673E-19
 -1      2870 1.29865E-04-3.58975E-05-4.08055E-05 1.63349E-05 1.11337E-18-7.94093E-20
 -1      2871 1.25812E-04-2.26239E-05-4.46598E-05 1.11595E-05 1.65267E-18 8.75064E-19
 -1      2872 1.20248E-04-1.72801E-05-4.46847E-05-6.19930E-06 2.08497E-18 2.19159E-18
 -1      2873 1.19589E-04-1.60356E-05-4.50184E-05 1.73086E-06 2.27852E-18 1.44544E-18
 -1      2874 1.31613E-04-3.40427E-05-4.22591E-05-1.69504E-05 8.91873E-19 4.89903E-19
 -1      2875 1.27912E-04-2.58296E-05-4.41868E-05-1.37708E-05 1.72064E-18 6.87526E-19
 -1      2876 1.26427E-04-4.83192E-05-3.34208E-05-4.78313E-06-1.79111E-18 1.19823E-18
 -1      2877 1.27540E-04-4.73137E-05-3.45024E-05-8.84454E-06-1.71377E-18 1.15457E-18
 -1      2878 1.19449E-04-4.50149E-05-3.17838E-05 3.52809E-06-1.01866E-18 1.64892E-18
 -1      2879 1.21912E-04-4.68121E-05-3.22822E-05-7.49603E-09-1.55020E-18 1.72662E-18
 -1      2880 1.24649E-04-5.03205E-05-3.19999E-05 1.19065E-06-1.70251E-18-1.74089E-19
 -1      2881 1.12464E-04-3.95436E-05-3.11531E-05 8.54080E-06 7.50812E-19 4.31686E-19
 -1      2882 1.15099E-04-4.20640E-05-3.13654E-05 6.33690E-06 3.35332E-19 1.41256E-18
 -1      2883 1.15535E-04-4.49063E-05-3.04088E-05 8.36563E-06 1.64965E-19 1.32633E-18
 -1      2884 1.07141E-04-3.48012E-05-3.09418E-05 1.06661E-05 8.56892E-19 2.96955E-19
 -1      2885 1.09331E-04-3.69218E-05-3.10601E-05 9.65402E-06 6.16934E-19 5.84447E-19
 -1      2886 1.08043E-04-3.83803E-05-2.99591E-05 1.16554E-05 9.57966E-19 1.90079E-19
 -1      2887 1.03534E-04-3.15389E-05-3.08254E-05 1.09502E-05 8.63855E-19 9.02787E-19
 -1      2888 1.05182E-04-3.29942E-05-3.09432E-05 1.07645E-05 1.31716E-18 9.28124E-19
 -1      2889 1.03034E-04-3.33104E-05-2.99485E-05 1.24598E-05 5.10401E-19 3.65101E-20
 -1      2890 1.01193E-04-2.95934E-05-3.06749E-05 1.02288E-05 1.98126E-18 4.41495E-19
 -1      2891 1.02409E-04-3.04811E-05-3.08194E-05 1.05289E-05 9.25735E-19 1.32021E-18
 -1      2892 1.00034E-04-3.00705E-05-3.00203E-05 1.19040E-05 1.07629E-18-2.04354E-19
 -1      2893 9.96522E-05-2.85604E-05-3.04671E-05 9.04137E-06 1.36589E-18 7.02750E-19
 -1      2894 1.00568E-04-2.90588E-05-3.06334E-05 9.58028E-06 1.98597E-18 1.41937E-18
 -1      2895 9.83364E-05-2.82872E-05-3.00376E-05 1.07163E-05 1.47984E-18 4.65978E-19
 -1      2896 9.85840E-05-2.80795E-05-3.02197E-05 7.70669E-06 9.25717E-19 5.25701E-19
 -1      2897 9.92969E-05-2.83408E-05-3.03936E-05 8.32721E-06 8.50386E-19 3.99816E-19
 -1      2898 9.73826E-05-2.74550E-05-2.99755E-05 9.29145E-06 1.12890E-18 1.96378E-18
 -1      2899 9.77930E-05-2.78999E-05-2.99589E-05 6.40015E-06 1.30676E-18-1.00266E-18
 -1      2900 9.83638E-05-2.80284E-05-3.01270E-05 7.01253E-06 1.60034E-18-2.01845E-19
 -1      2901 9.68187E-05-2.71712E-05-2.98513E-05 7.84398E-06 1.77518E-18 7.78951E-19
 -1      2902 9.71731E-05-2.78672E-05-2.97070E-05 5.20768E-06 8.64970E-19-2.09569E-18
 -1      2903 9.76374E-05-2.79270E-05-2.98600E-05 5.76757E-06 6.24461E-19-1.71842E-18
 -1      2904 9.64477E-05-2.71684E-05-2.96922E-05 6.48598E-06 1.69501E-18-3.07466E-19
 -1      2905 9.66681E-05-2.78918E-05-2.94792E-05 4.16123E-06 6.37662E-19-2.53256E-19
 -1      2906 9.70484E-05-2.79212E-05-2.96117E-05 4.65271E-06 3.94346E-19-1.37264E-18
 -1      2907 9.61699E-05-2.72860E-05-2.95227E-05 5.26930E-06 3.68530E-19-1.24864E-18
 -1      2908 9.62466E-05-2.79225E-05-2.92839E-05 3.25871E-06 5.10545E-19 2.27875E-18
 -1      2909 9.65573E-05-2.79434E-05-2.93938E-05 3.68348E-06 5.73066E-19 1.17464E-18
 -1      2910 9.59369E-05-2.74316E-05-2.93607E-05 4.20923E-06-5.80458E-19 8.29447E-19
 -1      2911 9.58940E-05-2.79338E-05-2.91241E-05 2.48021E-06 4.09937E-19 3.23907E-18
 -1      2912 9.61426E-05-2.79583E-05-2.92117E-05 2.84542E-06 6.27135E-19 2.80600E-18
 -1      2913 9.57215E-05-2.75531E-05-2.92173E-05 3.29642E-06-1.43984E-19 1.84455E-18
 -1      2914 9.55560E-05-2.78524E-05-2.90123E-05 1.90519E-06-6.69754E-19 3.37714E-18
 -1      2915 9.57531E-05-2.78792E-05-2.90797E-05 2.23664E-06-2.09583E-19 3.58583E-18
 -1      2916 9.54669E-05-2.75642E-05-2.91094E-05 2.60930E-06 9.44706E-20 2.79190E-18
 -1      2917 9.52308E-05-2.74881E-05-2.90411E-05 2.09899E-06-1.68942E-18 3.02494E-18
 -1      2918 4.53471E-05-2.23421E-05-9.31104E-06-2.71236E-05-8.63974E-19-4.40288E-18
 -1      2919 5.99541E-05-3.15708E-05-1.18259E-05-3.60183E-05-9.16701E-19-4.11033E-18
 -1      2920 9.33966E-05-2.55455E-05-2.90829E-05 5.20282E-08 2.83116E-19-8.13077E-19
 -1      2921 9.34140E-05-2.55630E-05-2.90827E-05 4.08602E-07 6.84698E-19-2.11805E-18
 -1      2922 9.37507E-05-2.59075E-05-2.90830E-05 1.48353E-06-6.08712E-19-2.13883E-18
 -1      2923 9.39436E-05-2.61043E-05-2.90732E-05 1.72801E-06-5.04901E-19-9.42428E-19
 -1      2924 9.35020E-05-2.56639E-05-2.90748E-05-6.98307E-07 5.53267E-20 1.96375E-19
 -1      2925 9.34305E-05-2.55902E-05-2.90803E-05-3.58219E-07-3.61954E-21-4.27789E-19
 -1      2926 9.31477E-05-2.54073E-05-2.90246E-05-1.87946E-07 9.41970E-19-1.45882E-18
 -1      2927 9.34782E-05-2.56263E-05-2.90855E-05 8.13584E-07-1.28443E-19-2.21769E-18
 -1      2928 9.35879E-05-2.57372E-05-2.90800E-05 1.13846E-06 1.24810E-19-1.58114E-18
 -1      2929 9.34406E-05-2.56608E-05-2.90418E-05 1.45665E-06-1.83364E-19-8.39646E-19
 -1      2930 9.31823E-05-2.54252E-05-2.90314E-05 6.67474E-07 1.03715E-18-1.52552E-18
 -1      2931 9.37666E-05-2.59530E-05-2.90618E-05-1.33304E-06 9.16416E-19-1.31258E-19
 -1      2932 9.36218E-05-2.58031E-05-2.90723E-05-1.05646E-06 4.13001E-19 7.13099E-19
 -1      2933 9.33256E-05-2.55954E-05-2.90213E-05-9.92377E-07 1.11620E-18 4.38330E-19
 -1      2934 9.41640E-05-2.63851E-05-2.90445E-05-1.79955E-06 9.86183E-19 1.01564E-18
 -1      2935 9.39586E-05-2.61716E-05-2.90592E-05-1.60980E-06 1.14360E-18 7.48694E-19
 -1      2936 9.36828E-05-2.59581E-05-2.90207E-05-1.65643E-06 1.26962E-18 3.61984E-19
 -1      2937 9.46450E-05-2.69072E-05-2.90242E-05-2.04273E-06 4.71036E-19 5.21295E-19
 -1      2938 9.43982E-05-2.66546E-05-2.90414E-05-1.95423E-06 1.36216E-18 9.74381E-19
 -1      2939 9.41800E-05-2.64574E-05-2.90220E-05-2.10899E-06 1.07302E-18 1.37855E-18
 -1      2940 9.50317E-05-2.73490E-05-2.90115E-05-1.97582E-06 7.15972E-20-1.01329E-18
 -1      2941 8.58464E-05-4.57422E-05-1.67712E-05-3.99290E-05 2.56175E-18-1.89873E-18
 -1      2942 1.01539E-04-5.29079E-05-2.09360E-05-3.75470E-05 1.96861E-18-2.64780E-18
 -1      2943 9.47317E-05-2.73743E-05-2.88696E-05 3.11681E-07 6.35362E-19-4.54549E-19
 -1      2944 9.49067E-05-2.70885E-05-2.90364E-05 9.36947E-07 8.22094E-19-3.69023E-19
 -1      2945 9.51432E-05-2.73228E-05-2.90758E-05 2.70853E-07 7.47285E-19-9.03451E-19
 -1      2946 5.52473E-05-2.85103E-05-1.09067E-05-3.56914E-05 1.19643E-18 1.19643E-18
 -1      2947 6.97618E-05-3.72614E-05-1.37464E-05-4.07471E-05 1.74245E-18 1.91641E-19
 -1      2948 1.10006E-04-5.61080E-05-2.26514E-05-3.08576E-05 2.95191E-19-1.71614E-18
 -1      2949 1.24120E-04-6.04756E-05-2.77962E-05-2.29140E-05 9.14901E-19-1.46420E-18
 -1      2950 1.09348E-04-5.44648E-05-2.36004E-05 3.16359E-05 2.88415E-19 2.59622E-19
 -1      2951 9.25438E-05-4.77794E-05-1.86889E-05 3.78650E-05 6.82179E-19-3.62371E-19
 -1      2952 1.28815E-04-4.12029E-05-3.77060E-05-1.48315E-05-9.13472E-20 6.81180E-19
 -1      2953 1.38165E-04-4.21205E-05-4.16007E-05-1.37574E-05 1.01326E-19-1.32719E-18
 -1      2954 1.40322E-04-5.27286E-05-3.76579E-05-6.15615E-06-4.67192E-20-3.10014E-18
 -1      2955 1.30132E-04-4.59157E-05-3.62257E-05-1.29591E-05-1.19538E-18 6.47874E-19
 -1      2956 3.65664E-05-1.80330E-05-7.37785E-06-2.32629E-05 6.49463E-19 2.31515E-18
 -1      2957 4.30713E-05-2.17726E-05-8.75381E-06-3.00489E-05 9.42748E-19 1.71545E-18
 -1      2958 5.58115E-05-2.54915E-05-1.24391E-05-3.18321E-05 1.61990E-18 9.23584E-19
 -1      2959 3.85860E-05-1.47593E-05-9.63804E-06-1.56450E-05-3.11814E-20 3.76506E-19
 -1      2960 9.45828E-05-2.82169E-05-2.84397E-05-1.40553E-06 6.54059E-19-5.80808E-19
 -1      2961 9.45195E-05-2.81371E-05-2.84436E-05-1.28127E-06 8.20946E-19-5.18574E-19
 -1      2962 9.49840E-05-2.81278E-05-2.86596E-05-1.16345E-06 7.70647E-19-7.21351E-19
 -1      2963 9.49805E-05-2.82920E-05-2.85861E-05-1.49842E-06 4.94075E-19-4.48519E-19
 -1      2964 9.28529E-05-1.79910E-05-3.20831E-05-8.81180E-06-1.12383E-18-2.22984E-18
 -1      2965 9.12118E-05-1.60654E-05-3.22335E-05 4.89869E-06 1.57593E-18-1.77917E-18
 -1      2966 9.08719E-05-1.55638E-05-3.22969E-05 3.97764E-06 1.33620E-18-1.88629E-18
 -1      2967 9.18466E-05-1.71610E-05-3.19923E-05 3.17823E-06 1.21938E-18-1.92847E-18
 -1      2968 9.25113E-05-1.82306E-05-3.18144E-05 4.59050E-06 1.46192E-18-1.58552E-18
 -1      2969 9.08353E-05-1.55149E-05-3.23019E-05-3.91556E-06-5.28610E-21-2.48466E-18
 -1      2970 9.11664E-05-1.60033E-05-3.22399E-05-4.83897E-06-2.93378E-19-2.58192E-18
 -1      2971 4.76285E-05-2.20618E-05-1.05796E-05 2.73939E-05-8.38192E-19 7.40095E-19
 -1      2972 3.58623E-05-1.58418E-05-7.85602E-06 1.67749E-05-1.21216E-18 1.28114E-18
 -1      2973 9.49688E-05-2.66598E-05-2.92812E-05 1.73636E-06 1.07085E-18-3.18704E-19
 -1      2974 9.52284E-05-2.61637E-05-2.95629E-05 2.76272E-06 1.17198E-18-1.43642E-19
 -1      2975 9.52593E-05-2.64693E-05-2.94909E-05 1.67311E-06 1.03043E-18-4.93385E-19
 -1      2976 1.36708E-04-3.61799E-05-4.36734E-05-8.91808E-06-1.45467E-18-3.35700E-18
 -1      2977 1.37753E-04-4.59209E-05-3.95027E-05-2.35824E-06-1.15038E-18-2.59118E-18
 -1      2978 3.98704E-05-1.87597E-05-8.82487E-06 2.62379E-05 2.27852E-19-4.91279E-19
 -1      2979 3.11945E-05-1.39949E-05-6.58701E-06 1.24140E-05 1.88015E-19-1.99413E-18
 -1      2980 7.65908E-05-4.09548E-05-1.47946E-05-3.78655E-05-8.90020E-19-2.85069E-18
 -1      2981 9.31004E-05-4.95000E-05-1.87371E-05-3.75472E-05-2.39499E-19-2.29339E-18
 -1      2982 7.52929E-05-3.96091E-05-1.52666E-05 4.08023E-05 5.09702E-19-4.64386E-19
 -1      2983 5.77191E-05-2.92201E-05-1.15658E-05 3.59037E-05 3.37754E-19-3.22720E-19
 -1      2984 8.80159E-05-4.28516E-05-1.89163E-05 3.54755E-05 4.84820E-19 7.13625E-20
 -1      2985 1.30456E-04-1.72415E-05-4.89706E-05 1.02303E-05 1.99053E-19-3.89423E-18
 -1      2986 1.30027E-04-1.13773E-05-5.15384E-05 5.99213E-06-9.52065E-19-3.31793E-18
 -1      2987 1.27128E-04-1.80096E-05-4.74117E-05-1.09621E-05-3.34091E-18-2.05490E-18
 -1      2988 1.32906E-04-2.63156E-05-4.59685E-05-1.19716E-05-2.50150E-18-2.92120E-18
 -1      2989 1.15899E-04-5.70653E-05-2.49004E-05-2.92573E-05 1.56151E-18-1.85940E-18
 -1      2990 1.27186E-04-5.84730E-05-2.98499E-05-2.07107E-05 1.01596E-18-3.24435E-18
 -1      2991 1.34627E-04-5.54860E-05-3.38270E-05-9.55803E-06 4.24350E-19-4.43898E-18
 -1      2992 1.37024E-04-4.92950E-05-3.80192E-05 6.06520E-08-4.64280E-20-4.50759E-18
 -1      2993 1.39076E-04-5.79239E-05-3.52531E-05 4.26264E-06-5.01602E-21-4.58393E-18
 -1      2994 1.34281E-04-6.06633E-05-3.13096E-05 1.27944E-05-1.63329E-18-2.89579E-18
 -1      2995 1.26619E-04-5.96609E-05-2.85794E-05 1.82369E-05-2.78653E-18-3.16600E-18
 -1      2996 1.36028E-04-5.43889E-05-3.50259E-05-2.81888E-06-9.00317E-19-3.43001E-18
 -1      2997 9.55446E-05-2.46386E-05-3.03590E-05 5.49357E-06 1.51581E-18 1.17920E-19
 -1      2998 9.43901E-05-2.15229E-05-3.12307E-05 7.10849E-06 1.76855E-18-3.48415E-19
 -1      2999 9.46486E-05-2.25544E-05-3.08912E-05 5.58320E-06 1.60653E-18-5.65188E-19
 -1      3000 9.51970E-05-2.54569E-05-2.99014E-05 3.86469E-06 1.34609E-18-7.76359E-20
 -1      3001 9.15894E-05-1.66567E-05-3.21358E-05-5.56084E-06-4.59524E-19-2.53925E-18
 -1      3002 9.20453E-05-1.73785E-05-3.20412E-05-6.42719E-06-7.35799E-19-2.47654E-18
 -1      3003 9.24581E-05-1.81552E-05-3.18235E-05-4.55040E-06-3.91194E-19-2.33933E-18
 -1      3004 9.13235E-05-1.63420E-05-3.21223E-05 2.76052E-08 7.02913E-19-2.26596E-18
 -1      3005 9.02071E-05-1.45666E-05-3.24369E-05-3.81615E-07 6.83405E-19-2.42720E-18
 -1      3006 9.02624E-05-1.46470E-05-3.24263E-05-1.33538E-06 5.26748E-19-2.49721E-18
 -1      3007 3.87958E-05-1.36002E-05-1.01701E-05 8.30652E-06-1.28320E-18 6.24899E-19
 -1      3008 1.10707E-04-5.45182E-05-2.38016E-05-3.00602E-05 2.00037E-18-2.21968E-18
 -1      3009 1.31743E-04-5.96716E-05-3.07639E-05-1.12118E-05 4.17534E-19-1.45605E-18
 -1      3010 1.22670E-04-1.07960E-05-4.83772E-05 3.35637E-06-1.39962E-18-3.51365E-18
 -1      3011 1.26144E-04-2.26921E-05-4.45635E-05 1.24757E-05 4.13987E-20-3.98296E-18
 -1      3012 9.63692E-05-4.98945E-05-1.96038E-05 3.47442E-05-2.70881E-18-2.13743E-19
 -1      3013 8.24129E-05-4.11325E-05-1.72283E-05-3.74847E-05 2.34014E-18-2.01779E-18
 -1      3014 1.30437E-04-5.39154E-05-3.31283E-05-2.69210E-07-2.66835E-19-7.23505E-19
 -1      3015 1.26564E-04-1.83526E-05-4.71648E-05-8.79592E-06 2.19191E-18 1.36061E-18
 -1      3016 1.31712E-04-5.04465E-05-3.50785E-05-7.58176E-06-1.49260E-18-1.07584E-18
 -1      3017 4.19418E-05-1.82624E-05-9.51304E-06-2.15612E-05-5.09543E-19-3.68163E-18
 -1      3018 5.32109E-05-2.14885E-05-1.31830E-05-2.51995E-05-6.62168E-19-3.81080E-18
 -1      3019 3.96469E-05-1.45088E-05-1.04037E-05-1.43126E-05-1.76553E-20-2.90903E-18
 -1      3020 9.49240E-05-2.71450E-05-2.90455E-05 2.12861E-06-1.25790E-18 1.64359E-18
 -1      3021 9.50198E-05-2.71694E-05-2.90706E-05 2.39320E-06-1.78798E-18 2.51800E-18
 -1      3022 9.46490E-05-2.68535E-05-2.90634E-05 2.13974E-06-1.05300E-18 7.45370E-19
 -1      3023 1.04301E-04-5.17278E-05-2.20759E-05-3.10197E-05-2.75286E-19-1.98044E-18
 -1      3024 1.29567E-04-5.68338E-05-3.11568E-05-1.27187E-05 8.98252E-19-3.79831E-18
 -1      3025 9.52747E-05-2.50663E-05-3.00859E-05 3.70911E-06 1.37817E-18-3.90934E-19
 -1      3026 7.31034E-05-3.54316E-05-1.56593E-05-3.42730E-05-1.14455E-18-2.91464E-18
 -1      3027 9.48942E-05-2.71786E-05-2.90199E-05-2.23048E-06 7.20261E-19-7.39439E-19
 -1      3028 1.24294E-04-1.55727E-05-4.71807E-05-9.60306E-06-3.20136E-18-2.39075E-18
 -1      3029 1.21621E-04-1.95876E-05-4.38829E-05-1.20442E-05-2.58822E-18-2.02552E-18
 -1      3030 1.19127E-04-1.21692E-05-4.63486E-05-7.08804E-06-2.88362E-18-2.78745E-18
 -1      3031 1.36145E-04-5.17500E-05-3.63648E-05 1.83808E-06-7.15816E-19-2.21489E-18
 -1      3032 1.30900E-04-5.43322E-05-3.28681E-05 6.48203E-06-8.28967E-20-1.79624E-18
 -1      3033 1.32417E-04-4.69500E-05-3.69279E-05-5.49868E-06-1.06382E-19-2.10297E-18
 -1      3034 1.17769E-04-5.69111E-05-2.58933E-05 2.58445E-05 8.02564E-20 4.89426E-20
 -1      3035 1.09167E-04-5.26908E-05-2.40953E-05 2.81695E-05 5.10549E-19-1.78711E-19
 -1      3036 1.23306E-04-5.68844E-05-2.85625E-05 1.82275E-05 5.97688E-20-5.96788E-19
 -1      3037 9.03870E-05-1.48405E-05-3.23975E-05-2.16647E-06 3.83456E-19-2.33193E-18
 -1      3038 9.05705E-05-1.51063E-05-3.23637E-05-3.11447E-06 1.28790E-19-2.39014E-18
 -1      3039 9.18155E-05-1.71185E-05-3.19974E-05-3.12173E-06 3.81206E-20-2.30808E-18
 -1      3040 9.14414E-05-1.65274E-05-3.20924E-05-1.57280E-06 4.15162E-19-2.29627E-18
 -1      3041 3.53808E-05-1.28609E-05-9.06052E-06 5.81022E-06 4.77515E-20-2.40981E-18
 -1      3042 9.41543E-05-2.63275E-05-2.90767E-05 1.92289E-06 3.72764E-20-4.20896E-19
 -1      3043 9.44003E-05-2.65836E-05-2.90631E-05 2.05092E-06-6.68640E-19-3.55336E-19
 -1      3044 9.43949E-05-2.65582E-05-2.90663E-05 2.32104E-06-7.63943E-19 1.86920E-19
 -1      3045 9.38738E-05-2.60633E-05-2.90553E-05 2.02252E-06-1.91737E-19-9.52242E-19
 -1      3046 5.50308E-05-2.35566E-05-1.29765E-05 2.87992E-05 1.08738E-19-8.46504E-19
 -1      3047 5.76754E-05-2.68191E-05-1.25409E-05 3.12846E-05-4.60362E-19 4.13034E-19
 -1      3048 5.32223E-05-2.12748E-05-1.33696E-05 2.49885E-05-3.50513E-19 1.17039E-18
 -1      3049 6.83796E-05-3.19735E-05-1.53239E-05 3.27825E-05-1.10448E-18 5.68465E-19
 -1      3050 1.34664E-04-4.44452E-05-3.89487E-05 6.79600E-06-1.75071E-19-3.49020E-18
 -1      3051 1.28270E-04-3.78151E-05-3.89390E-05 1.17164E-05-5.18914E-19-2.95853E-18
 -1      3052 1.31633E-04-4.79497E-05-3.57823E-05 4.01748E-06-2.53898E-19-3.29104E-18
 -1      3053 1.30424E-04-3.31836E-05-4.20017E-05-1.14427E-05-1.54827E-18-1.95321E-18
 -1      3054 9.42102E-05-2.07374E-05-3.15212E-05-8.17808E-06-1.23958E-18-1.91357E-18
 -1      3055 9.47131E-05-2.26335E-05-3.09145E-05-6.41483E-06-1.16547E-18-1.70266E-18
 -1      3056 9.45418E-05-2.22243E-05-3.09856E-05-5.81384E-06-9.45072E-19-1.80857E-18
 -1      3057 9.42905E-05-2.18235E-05-3.10784E-05 4.93289E-06 1.54561E-18-1.04268E-18
 -1      3058 9.38303E-05-2.08755E-05-3.12688E-05 4.58587E-06 1.42240E-18-1.28860E-18
 -1      3059 9.54063E-05-2.63233E-05-2.96162E-05 1.41093E-06 1.02678E-18-8.64475E-19
 -1      3060 9.54253E-05-2.56820E-05-2.98747E-05 2.29875E-06 1.17672E-18-7.03697E-19
 -1      3061 9.55004E-05-2.55045E-05-2.99837E-05-2.07041E-06-7.13860E-19-1.66646E-18
 -1      3062 9.55454E-05-2.61935E-05-2.97337E-05-1.23851E-06-6.43546E-19-1.61474E-18
 -1      3063 9.56843E-05-2.67888E-05-2.95129E-05-6.27730E-07-7.48421E-19-1.43896E-18
 -1      3064 9.56645E-05-2.72184E-05-2.93411E-05-7.16668E-08-6.70838E-19-1.34995E-18
 -1      3065 9.57110E-05-2.61013E-05-2.98336E-05-1.06227E-06-5.68720E-19-1.34498E-18
 -1      3066 9.57001E-05-2.75790E-05-2.91842E-05 3.44052E-07-6.73796E-19-1.24206E-18
 -1      3067 9.56671E-05-2.78410E-05-2.90718E-05 7.02848E-07-7.79176E-19-1.20611E-18
 -1      3068 9.58865E-05-2.71826E-05-2.94478E-05 7.53846E-09-6.39133E-19-1.09271E-18
 -1      3069 9.56483E-05-2.80469E-05-2.89650E-05 9.75104E-07-7.93883E-19-1.05833E-18
 -1      3070 9.56216E-05-2.81970E-05-2.88970E-05 1.20290E-06-5.74783E-19-9.83231E-19
 -1      3071 9.59076E-05-2.78397E-05-2.91756E-05 7.30788E-07-6.80569E-19-9.04350E-19
 -1      3072 9.55741E-05-2.82971E-05-2.88290E-05 1.38030E-06-4.94842E-19-9.33328E-19
 -1      3073 9.55585E-05-2.83693E-05-2.87943E-05 1.52962E-06-5.56135E-19-8.56456E-19
 -1      3074 9.58472E-05-2.82064E-05-2.89924E-05 1.20904E-06-5.07578E-19-7.89851E-19
 -1      3075 9.54959E-05-2.83948E-05-2.87560E-05 1.65375E-06-4.72268E-19-7.72357E-19
 -1      3076 9.54917E-05-2.84115E-05-2.87462E-05 1.76484E-06-3.89022E-19-7.74788E-19
 -1      3077 9.57423E-05-2.83667E-05-2.88782E-05 1.53327E-06-3.57650E-19-9.36320E-19
 -1      3078 9.54205E-05-2.83834E-05-2.87305E-05 1.86872E-06-4.64574E-19-6.93437E-19
 -1      3079 9.54271E-05-2.83601E-05-2.87395E-05 1.97200E-06-3.28784E-19-8.35357E-19
 -1      3080 9.56127E-05-2.83786E-05-2.88170E-05 1.77893E-06-3.95400E-19-7.81237E-19
 -1      3081 9.53506E-05-2.82931E-05-2.87407E-05 2.08129E-06-3.16446E-19-9.20522E-19
 -1      3082 9.53678E-05-2.82419E-05-2.87639E-05 2.19941E-06-3.74698E-19-9.63601E-19
 -1      3083 9.54683E-05-2.82824E-05-2.87957E-05 2.00568E-06-3.54574E-19-5.72434E-19
 -1      3084 9.52880E-05-2.81476E-05-2.87773E-05 2.33374E-06-4.13447E-19-7.85889E-19
 -1      3085 9.53171E-05-2.80792E-05-2.88111E-05 2.48306E-06-2.75397E-19-8.76548E-19
 -1      3086 9.53145E-05-2.81085E-05-2.88038E-05 2.25974E-06-4.02061E-19-4.43143E-19
 -1      3087 9.52364E-05-2.79686E-05-2.88327E-05 2.65695E-06-7.20819E-20-6.54847E-19
 -1      3088 9.52810E-05-2.78948E-05-2.88740E-05 2.84818E-06 8.99300E-20-4.30112E-19
 -1      3089 9.51555E-05-2.78828E-05-2.88320E-05 2.57608E-06 4.79716E-20-4.09212E-19
 -1      3090 9.52039E-05-2.77808E-05-2.88997E-05 3.07147E-06-3.74354E-20-5.93264E-19
 -1      3091 9.52709E-05-2.77164E-05-2.89456E-05 3.30957E-06 2.10467E-19-6.04081E-19
 -1      3092 9.49983E-05-2.76324E-05-2.88718E-05 2.97994E-06-4.80729E-21-8.75752E-19
 -1      3093 9.52065E-05-2.76164E-05-2.89713E-05 3.58731E-06-1.48924E-20-9.00308E-19
 -1      3094 9.53077E-05-2.75820E-05-2.90185E-05 3.87059E-06-2.19863E-19-1.17646E-18
 -1      3095 9.48563E-05-2.73908E-05-2.89145E-05 3.48731E-06-3.35919E-19-9.07389E-19
 -1      3096 9.52724E-05-2.75212E-05-2.90397E-05 4.20220E-06-3.59291E-19-1.38771E-18
 -1      3097 9.54270E-05-2.75463E-05-2.90845E-05 4.52062E-06-6.36491E-19-1.19794E-18
 -1      3098 9.47540E-05-2.72046E-05-2.89512E-05 4.10431E-06-3.56500E-19-1.56190E-18
 -1      3099 9.54488E-05-2.75611E-05-2.90967E-05 4.89824E-06-6.33691E-19-9.75223E-19
 -1      3100 9.56864E-05-2.76871E-05-2.91350E-05 5.23066E-06-4.66416E-19-8.12788E-19
 -1      3101 9.47349E-05-2.71404E-05-2.89721E-05 4.82537E-06-5.21801E-19-1.49233E-18
 -1      3102 9.58105E-05-2.78287E-05-2.91339E-05 5.63626E-06-2.98500E-19-7.83742E-19
 -1      3103 9.61745E-05-2.81112E-05-2.91623E-05 5.94665E-06-1.12143E-19-7.28739E-19
 -1      3104 9.48703E-05-2.72929E-05-2.89679E-05 5.62946E-06-4.55422E-19-1.33121E-18
 -1      3105 9.64698E-05-2.84481E-05-2.91456E-05 6.34696E-06-1.92462E-19-6.88823E-19
 -1      3106 9.70199E-05-2.89559E-05-2.91632E-05 6.57902E-06-2.21654E-19-5.60427E-19
 -1      3107 9.52717E-05-2.77917E-05-2.89313E-05 6.47339E-06-1.52446E-19-1.34011E-18
 -1      3108 9.75842E-05-2.95706E-05-2.91336E-05 6.91651E-06-1.93287E-19-2.76530E-19
 -1      3109 9.83934E-05-3.03769E-05-2.91451E-05 6.98666E-06 2.04626E-19-3.53340E-19
 -1      3110 9.61029E-05-2.88025E-05-2.88626E-05 7.27908E-06-1.78231E-20-3.22206E-19
 -1      3111 9.93537E-05-3.13529E-05-2.91158E-05 7.16324E-06 3.41537E-19-5.22768E-19
 -1      3112 1.00492E-04-3.25069E-05-2.91371E-05 6.95236E-06 3.14310E-19-6.40434E-19
 -1      3113 9.75874E-05-3.05142E-05-2.87776E-05 7.90927E-06 2.65082E-19-6.51235E-20
 -1      3114 1.01984E-04-3.38892E-05-2.91400E-05 6.80717E-06 2.88544E-19-4.54508E-19
 -1      3115 1.03475E-04-3.53582E-05-2.92053E-05 6.15888E-06 5.84717E-19-2.93715E-19
 -1      3116 9.99928E-05-3.30861E-05-2.87220E-05 8.12521E-06 4.23790E-19 2.43584E-19
 -1      3117 1.05586E-04-3.70753E-05-2.93019E-05 5.44381E-06 1.02731E-19 4.02796E-20
 -1      3118 1.07325E-04-3.86357E-05-2.94710E-05 4.18577E-06 8.75571E-21-3.80452E-19
 -1      3119 1.03561E-04-3.65272E-05-2.87923E-05 7.53254E-06 4.63606E-19 3.53374E-19
 -1      3120 1.09957E-04-4.03492E-05-2.97653E-05 2.57576E-06-2.85212E-20-5.65196E-19
 -1      3121 1.11603E-04-4.14395E-05-3.01240E-05 6.17433E-07 1.10677E-21-3.49590E-19
 -1      3122 1.08330E-04-4.04488E-05-2.91629E-05 5.53476E-06-2.68408E-19-1.07121E-19
 -1      3123 1.14196E-04-4.23332E-05-3.07548E-05-2.05815E-06 4.47649E-19-4.27623E-19
 -1      3124 1.15143E-04-4.20374E-05-3.13845E-05-4.43261E-06 4.90320E-19-1.32815E-19
 -1      3125 1.13658E-04-4.36017E-05-3.01070E-05 1.40799E-06 2.59796E-19 3.45576E-19
 -1      3126 1.16802E-04-4.10491E-05-3.24803E-05-7.88159E-06 6.19041E-19 3.89057E-19
 -1      3127 1.16311E-04-3.83658E-05-3.34187E-05-9.85378E-06 1.13278E-18 1.13710E-18
 -1      3128 1.18249E-04-4.37473E-05-3.19880E-05-4.85792E-06 7.69728E-19 4.85198E-19
 -1      3129 1.15733E-04-3.46542E-05-3.49310E-05-1.22876E-05 9.23061E-19 1.04204E-18
 -1      3130 1.13625E-04-2.98365E-05-3.58994E-05-1.23358E-05 5.57546E-19 8.68593E-19
 -1      3131 1.19437E-04-3.86470E-05-3.46722E-05-1.05546E-05 9.32676E-19 8.31806E-19
 -1      3132 1.13250E-04-2.26566E-05-3.90755E-05-1.11440E-05-5.15817E-19-4.88774E-19
 -1      3133 1.11083E-04-1.81800E-05-3.99787E-05-7.99204E-06-7.93379E-19-6.43097E-19
 -1      3134 1.08714E-04-1.87989E-05-3.85872E-05 6.63876E-06-3.12846E-19-1.10027E-18
 -1      3135 1.10379E-04-2.25128E-05-3.79650E-05 1.01152E-05 2.89116E-19-1.27423E-18
 -1      3136 1.16036E-04-3.69905E-05-3.39134E-05 1.07339E-05-5.73607E-19-7.13491E-19
 -1      3137 1.16863E-04-4.01817E-05-3.29129E-05 8.94871E-06-9.26581E-19-1.45796E-18
 -1      3138 1.15589E-04-4.16342E-05-3.17393E-05 5.58129E-06-5.04110E-19-1.10644E-18
 -1      3139 1.14878E-04-4.23606E-05-3.10500E-05 3.20478E-06 1.97886E-19-1.28840E-18
 -1      3140 1.18725E-04-4.29521E-05-3.25142E-05 6.26144E-06-7.69185E-19-2.66835E-18
 -1      3141 1.12433E-04-4.17947E-05-3.03341E-05 3.22629E-07 9.92369E-20-1.43630E-18
 -1      3142 1.10884E-04-4.09130E-05-2.99252E-05-1.77008E-06-8.74859E-20-1.69636E-18
 -1      3143 1.14700E-04-4.39173E-05-3.04207E-05-2.25356E-07 1.02372E-19-3.64569E-18
 -1      3144 1.08203E-04-3.92896E-05-2.95739E-05-3.60503E-06 2.48567E-19-1.26280E-18
 -1      3145 1.06451E-04-3.77678E-05-2.93738E-05-5.00694E-06-1.53164E-19-1.95369E-18
 -1      3146 1.09448E-04-4.11999E-05-2.93201E-05-4.84780E-06-7.07653E-21-3.10461E-18
 -1      3147 1.04221E-04-3.60179E-05-2.92471E-05-5.88632E-06-6.69795E-19-9.74317E-19
 -1      3148 1.02667E-04-3.45010E-05-2.91673E-05-6.64552E-06 1.00805E-19-1.30960E-18
 -1      3149 1.04500E-04-3.73202E-05-2.88572E-05-7.23726E-06-4.10910E-19-2.19922E-18
 -1      3150 1.01054E-04-3.30393E-05-2.91527E-05-6.89028E-06 4.46612E-19-8.23960E-19
 -1      3151 9.98452E-05-3.18088E-05-2.91279E-05-7.17327E-06 8.60592E-19-6.53759E-19
 -1      3152 1.00688E-04-3.37364E-05-2.87437E-05-8.08155E-06 4.11955E-19-1.56833E-18
 -1      3153 9.87873E-05-3.07478E-05-2.91563E-05-7.04813E-06 6.51221E-19-9.45632E-19
 -1      3154 9.79169E-05-2.98651E-05-2.91476E-05-7.01743E-06 8.71352E-20-1.50117E-18
 -1      3155 9.80637E-05-3.09744E-05-2.87868E-05-8.00171E-06 3.99916E-19-1.99606E-18
 -1      3156 9.72806E-05-2.91744E-05-2.91822E-05-6.69893E-06 8.96900E-20-1.57031E-18
 -1      3157 9.66840E-05-2.85992E-05-2.91708E-05-6.47980E-06-3.39288E-19-1.27210E-18
 -1      3158 9.64102E-05-2.90818E-05-2.88765E-05-7.43042E-06-2.16121E-19-1.70899E-18
 -1      3159 9.63373E-05-2.81975E-05-2.91958E-05-6.07512E-06-1.21408E-18-8.04088E-19
 -1      3160 9.59396E-05-2.78566E-05-2.91758E-05-5.75537E-06-5.42506E-19-2.17757E-18
 -1      3161 9.54564E-05-2.79145E-05-2.89591E-05-6.63120E-06-5.56004E-19-1.19862E-18
 -1      3162 9.57775E-05-2.76576E-05-2.91873E-05-5.32661E-06 1.99633E-19-2.52099E-18
 -1      3163 9.55148E-05-2.74782E-05-2.91593E-05-4.96457E-06 9.02126E-20-2.03431E-18
 -1      3164 9.49661E-05-2.72803E-05-2.90150E-05-5.75430E-06-7.52048E-19-8.14189E-19
 -1      3165 9.54612E-05-2.74078E-05-2.91593E-05-4.54702E-06 6.87380E-19-1.75806E-18
 -1      3166 9.52859E-05-2.73282E-05-2.91267E-05-4.17943E-06 7.46839E-19-1.17601E-18
 -1      3167 9.47613E-05-2.70029E-05-2.90426E-05-4.88335E-06 5.42580E-19-1.90724E-18
 -1      3168 9.52879E-05-2.73311E-05-2.91190E-05-3.78753E-06 3.34514E-19-1.37944E-18
 -1      3169 9.51588E-05-2.73014E-05-2.90855E-05-3.43952E-06 2.49231E-19-1.66484E-18
 -1      3170 9.47138E-05-2.69370E-05-2.90482E-05-4.06434E-06 5.32601E-19-1.56760E-18
 -1      3171 9.53997E-05-2.78408E-05-2.89559E-05-6.72627E-07 7.05950E-19-8.50385E-19
 -1      3172 9.54384E-05-2.76002E-05-2.90626E-05-3.05921E-07 5.25031E-19-8.03684E-19
 -1      3173 9.53040E-05-2.83533E-05-2.86891E-05-1.96380E-06 2.56214E-19-3.74978E-19
 -1      3174 9.52612E-05-2.83675E-05-2.86689E-05-1.86217E-06 5.04069E-19-5.84937E-19
 -1      3175 9.53064E-05-2.83895E-05-2.86757E-05-1.75833E-06 6.25158E-19-7.25835E-19
 -1      3176 9.52794E-05-2.83657E-05-2.86754E-05-1.65056E-06 5.31904E-19-6.86853E-19
 -1      3177 9.54800E-05-2.83729E-05-2.87630E-05-1.80688E-06 5.34802E-19-7.75993E-19
 -1      3178 9.53235E-05-2.80794E-05-2.88128E-05-2.49714E-06 8.16481E-20 3.96504E-19
 -1      3179 9.52569E-05-2.81507E-05-2.87632E-05-2.33484E-06 4.80631E-19 1.68045E-19
 -1      3180 9.53349E-05-2.78580E-05-2.89117E-05-2.90514E-06 1.87008E-19 4.92505E-19
 -1      3181 9.52583E-05-2.79522E-05-2.88503E-05-2.68471E-06 1.44981E-19 3.59826E-19
 -1      3182 9.51728E-05-2.78628E-05-2.88475E-05-2.63384E-06 1.02941E-19 1.45283E-19
 -1      3183 9.53393E-05-2.75870E-05-2.90287E-05-3.44933E-06 1.70658E-20 2.17645E-19
 -1      3184 9.52531E-05-2.77008E-05-2.89571E-05-3.15649E-06 3.18456E-19 3.03900E-19
 -1      3185 9.50281E-05-2.75419E-05-2.89220E-05-3.07896E-06 3.50638E-19-9.86272E-20
 -1      3186 9.53305E-05-2.72735E-05-2.91582E-05-4.15394E-06 3.58055E-19-1.51614E-19
 -1      3187 9.52341E-05-2.74017E-05-2.90786E-05-3.77749E-06 8.23937E-20-5.25640E-20
 -1      3188 9.48437E-05-2.71557E-05-2.90074E-05-3.66141E-06 2.15706E-19-3.79086E-19
 -1      3189 9.53046E-05-2.69331E-05-2.92919E-05-5.03672E-06 4.32541E-19-3.25476E-19
 -1      3190 9.51953E-05-2.70651E-05-2.92077E-05-4.56956E-06 4.33840E-19-1.40484E-19
 -1      3191 9.46065E-05-2.67128E-05-2.90942E-05-4.40399E-06 3.72214E-19-4.35916E-19
 -1      3192 9.52662E-05-2.65996E-05-2.94172E-05-6.10664E-06 3.38473E-19-2.87987E-19
 -1      3193 9.51356E-05-2.67140E-05-2.93340E-05-5.54780E-06 4.20089E-19-1.62604E-19
 -1      3194 9.43059E-05-2.62328E-05-2.91696E-05-5.32422E-06 5.29760E-19-3.50217E-19
 -1      3195 9.52409E-05-2.63417E-05-2.95153E-05-7.36032E-06-3.71481E-19-2.23404E-19
 -1      3196 9.50682E-05-2.63970E-05-2.94420E-05-6.71826E-06 2.01207E-19-1.50125E-19
 -1      3197 9.39414E-05-2.57584E-05-2.92155E-05-6.43458E-06 1.45783E-19-3.35072E-19
 -1      3198 9.52992E-05-2.62887E-05-2.95606E-05-8.77669E-06-2.21441E-19-8.08544E-20
 -1      3199 9.50377E-05-2.62095E-05-2.95092E-05-8.07432E-06-2.41716E-19 6.24337E-20
 -1      3200 9.35381E-05-2.53752E-05-2.92068E-05-7.74349E-06-3.45075E-19 5.57664E-20
 -1      3201 9.55971E-05-2.66670E-05-2.95220E-05-1.03090E-05-9.08442E-19-1.70714E-19
 -1      3202 9.51528E-05-2.63247E-05-2.95068E-05-9.59121E-06-5.46028E-19-7.45995E-20
 -1      3203 9.31747E-05-2.52406E-05-2.91112E-05-9.25778E-06-4.30258E-19 7.18760E-19
 -1      3204 9.64398E-05-2.78444E-05-2.93717E-05-1.18687E-05-6.75276E-19 4.89010E-19
 -1      3205 9.56395E-05-2.70353E-05-2.94034E-05-1.12156E-05-7.67606E-19 1.98386E-19
 -1      3206 9.30308E-05-2.56263E-05-2.88923E-05-1.09857E-05-8.25812E-19 8.21203E-19
 -1      3207 9.83625E-05-3.03598E-05-2.91081E-05-1.32817E-05-3.48276E-19 1.06806E-18
 -1      3208 9.69215E-05-2.87979E-05-2.91801E-05-1.28365E-05-6.03708E-19 8.01668E-19
 -1      3209 9.34650E-05-2.69711E-05-2.85205E-05-1.29309E-05-8.83056E-19 9.48273E-19
 -1      3210 1.02179E-04-3.48673E-05-2.88071E-05-1.41748E-05-7.46752E-19 9.79072E-19
 -1      3211 9.97151E-05-3.22390E-05-2.88654E-05-1.42028E-05-2.29583E-19 1.19090E-18
 -1      3212 9.51242E-05-2.99220E-05-2.80018E-05-1.50389E-05-5.35724E-19 1.05362E-18
 -1      3213 1.08866E-04-4.17240E-05-2.87354E-05-1.36648E-05-8.62921E-19-5.03311E-19
 -1      3214 1.05077E-04-3.80013E-05-2.86202E-05-1.46728E-05-6.12150E-19-6.52364E-20
 -1      3215 9.90994E-05-3.53200E-05-2.74491E-05-1.70323E-05-6.88115E-20-2.26734E-19
 -1      3216 1.19454E-04-4.99160E-05-2.96547E-05-9.79680E-06-7.67438E-19-1.18577E-18
 -1      3217 1.14163E-04-4.61606E-05-2.89097E-05-1.29397E-05-1.02991E-18-8.67335E-19
 -1      3218 1.06774E-04-4.35076E-05-2.72612E-05-1.78745E-05-4.93979E-19-1.99450E-18
 -1      3219 1.34064E-04-4.36206E-05-3.90180E-05 1.44750E-05 1.03857E-18-6.41786E-19
 -1      3220 1.24038E-04-1.72022E-05-4.66292E-05 5.98707E-06 1.63753E-18 7.93134E-19
 -1      3221 9.83960E-05-3.06729E-05-2.89893E-05 1.37714E-05 7.13802E-19-3.79262E-20
 -1      3222 1.00421E-04-3.28503E-05-2.89123E-05 1.39613E-05 3.65592E-19 2.15224E-19
 -1      3223 9.62941E-05-2.79527E-05-2.92822E-05 1.22651E-05 1.36775E-18-1.82316E-19
 -1      3224 9.74460E-05-2.91907E-05-2.92209E-05 1.28156E-05 1.10319E-18 3.22673E-19
 -1      3225 9.42985E-05-2.85525E-05-2.82191E-05 1.42571E-05 7.78012E-19-2.21337E-19
 -1      3226 9.53870E-05-2.66509E-05-2.94637E-05 1.06147E-05 4.39783E-19 6.10897E-19
 -1      3227 9.60227E-05-2.72561E-05-2.94484E-05 1.13107E-05 5.91208E-19-6.69994E-19
 -1      3228 9.32095E-05-2.62975E-05-2.86916E-05 1.21936E-05 8.46679E-19 1.36740E-19
 -1      3229 9.50818E-05-2.61984E-05-2.95315E-05 9.00530E-06 1.33531E-18 2.04928E-19
 -1      3230 9.54395E-05-2.64283E-05-2.95589E-05 9.73451E-06 9.56814E-19-2.40773E-20
 -1      3231 9.30572E-05-2.53734E-05-2.90084E-05 1.03196E-05 5.87273E-19-4.53285E-19
 -1      3232 9.50415E-05-2.62020E-05-2.95137E-05 7.51641E-06 2.31159E-18-3.84322E-19
 -1      3233 9.52601E-05-2.62312E-05-2.95698E-05 8.21651E-06 1.95969E-18 3.66172E-20
 -1      3234 9.33153E-05-2.52081E-05-2.91842E-05 8.65414E-06 1.69146E-18-1.02987E-18
 -1      3235 9.50909E-05-2.64159E-05-2.94425E-05 6.18155E-06 1.65588E-18-3.60410E-20
 -1      3236 9.52433E-05-2.63515E-05-2.95132E-05 6.82106E-06 2.04221E-18 3.07270E-20
 -1      3237 9.37031E-05-2.54284E-05-2.92546E-05 7.18582E-06 1.75131E-18-1.06241E-18
 -1      3238 9.51510E-05-2.66998E-05-2.93452E-05 5.01122E-06-9.45052E-19 9.17828E-19
 -1      3239 9.52717E-05-2.66030E-05-2.94192E-05 5.57649E-06 5.69657E-19 4.34722E-19
 -1      3240 9.40850E-05-2.58080E-05-2.92561E-05 5.89928E-06 2.12708E-19 7.69882E-19
 -1      3241 9.51856E-05-2.69694E-05-2.92426E-05 4.00254E-06-7.68475E-19 1.06191E-18
 -1      3242 9.52927E-05-2.68784E-05-2.93117E-05 4.49309E-06-1.02712E-18 2.37046E-19
 -1      3243 9.44055E-05-2.62184E-05-2.92185E-05 4.78433E-06-7.96665E-19 2.45788E-18
 -1      3244 9.51899E-05-2.71832E-05-2.91477E-05 3.13883E-06 6.65115E-20 8.11545E-19
 -1      3245 9.52858E-05-2.71181E-05-2.92073E-05 3.55533E-06-5.07584E-19 8.41555E-19
 -1      3246 9.46401E-05-2.65832E-05-2.91647E-05 3.82526E-06-1.18774E-19 7.17267E-19
 -1      3247 9.50380E-05-2.71671E-05-2.90856E-05 2.61435E-06-1.33717E-18 2.19823E-18
 -1      3248 9.51665E-05-2.71930E-05-2.91241E-05 2.89248E-06-3.70116E-19 1.34028E-18
 -1      3249 9.46985E-05-2.67692E-05-2.91139E-05 3.12491E-06-9.46176E-19-5.27361E-19
 -1      3250 9.46633E-05-2.68243E-05-2.90820E-05 2.63291E-06-1.63101E-18 9.79125E-19
 -1      3251 9.30792E-05-2.54832E-05-2.89679E-05-1.32269E-06 1.37732E-18 2.05469E-18
 -1      3252 9.29176E-05-2.53440E-05-2.89671E-05-9.39356E-07 6.61819E-19 1.00699E-18
 -1      3253 6.54779E-05-2.77528E-05-1.61253E-05 3.17645E-05 3.11496E-19-4.21187E-19
 -1      3254 5.14178E-05-1.79166E-05-1.38830E-05 2.19936E-05-1.21867E-19-6.86308E-19
 -1      3255 4.22577E-05-1.23867E-05-1.25499E-05 7.67644E-06 1.63383E-19-1.65055E-18
 -1      3256 3.90086E-05-1.15786E-05-1.10198E-05-3.63269E-06-3.23196E-20-2.74820E-18
 -1      3257 9.27972E-05-2.52159E-05-2.89648E-05-4.55308E-07 5.60011E-19-1.65488E-18
 -1      3258 9.27504E-05-2.51717E-05-2.89672E-05-1.46568E-08 8.16725E-19-2.43168E-18
 -1      3259 9.25322E-05-2.50622E-05-2.89091E-05-7.91157E-07 2.59740E-19 6.54796E-20
 -1      3260 9.74464E-05-4.67273E-05-2.13362E-05-3.08839E-05-1.15376E-18-1.55158E-18
 -1      3261 1.11268E-04-5.35060E-05-2.46856E-05-2.53926E-05-7.94014E-19-1.51242E-18
 -1      3262 9.54354E-05-2.72701E-05-2.92191E-05 1.48054E-07 6.06802E-19-8.87135E-19
 -1      3263 9.54903E-05-2.68787E-05-2.93897E-05 7.29482E-07 8.02043E-19-8.43351E-19
 -1      3264 9.55914E-05-2.61939E-05-2.97436E-05 1.24596E-06 9.60411E-19-9.88990E-19
 -1      3265 9.57010E-05-2.72192E-05-2.93521E-05 7.28020E-08 5.59292E-19-9.09267E-19
 -1      3266 1.22715E-04-5.45316E-05-2.90491E-05-1.19753E-05-2.83835E-19-1.20272E-18
 -1      3267 1.33172E-04-5.56804E-05-3.30282E-05 7.74963E-07-1.54614E-18-3.31613E-18
 -1      3268 1.16345E-04-1.28577E-05-4.48031E-05 6.06389E-06-5.00067E-19-3.68766E-18
 -1      3269 1.15950E-04-1.08064E-05-4.55948E-05-3.19388E-07-1.60502E-18-3.52466E-18
 -1      3270 9.35671E-05-2.59333E-05-2.89817E-05-2.01290E-06 1.87073E-18 5.95679E-19
 -1      3271 9.33115E-05-2.57142E-05-2.89784E-05-1.71839E-06 1.27103E-18 7.47027E-19
 -1      3272 9.29308E-05-2.54271E-05-2.89254E-05-1.70151E-06 1.51139E-18 1.43584E-18
 -1      3273 9.42082E-05-2.65140E-05-2.90037E-05-2.44516E-06 1.27152E-18 8.23200E-19
 -1      3274 9.38827E-05-2.62366E-05-2.89986E-05-2.28151E-06 1.20643E-18 9.24060E-19
 -1      3275 9.35429E-05-2.59700E-05-2.89589E-05-2.38657E-06 1.16941E-18 1.26439E-19
 -1      3276 1.02616E-04-3.55088E-05-2.86770E-05 1.47261E-05 4.56509E-19-3.83774E-19
 -1      3277 1.05905E-04-3.88286E-05-2.86969E-05 1.41319E-05 7.56281E-19-3.35717E-19
 -1      3278 9.71781E-05-3.28497E-05-2.76475E-05 1.63591E-05 5.03230E-19-8.94169E-19
 -1      3279 1.20075E-04-2.43973E-05-4.12276E-05 1.22185E-05-2.73433E-19-3.18397E-18
 -1      3280 1.17260E-04-1.67547E-05-4.36743E-05 9.55886E-06-2.65439E-19-3.60293E-18
 -1      3281 9.52329E-05-2.43305E-05-3.03870E-05 4.16043E-06 1.43427E-18-5.44047E-19
 -1      3282 9.46499E-05-2.27062E-05-3.08230E-05 4.74403E-06 1.53793E-18-8.62599E-19
 -1      3283 9.49334E-05-2.35487E-05-3.05921E-05 3.64064E-06 1.32161E-18-1.00197E-18
 -1      3284 9.52525E-05-2.51676E-05-3.00485E-05 2.96614E-06 1.27473E-18-6.65810E-19
 -1      3285 1.10041E-04-4.27349E-05-2.86701E-05 1.40127E-05 3.07584E-19-6.32611E-19
 -1      3286 1.14628E-04-4.68391E-05-2.90415E-05 1.20401E-05-9.00793E-19-8.93146E-19
 -1      3287 1.03333E-04-4.00163E-05-2.72126E-05 1.79308E-05 1.60182E-19-2.46861E-18
 -1      3288 9.46681E-05-4.45238E-05-2.15229E-05 3.17124E-05 2.00376E-19 1.53075E-19
 -1      3289 8.16306E-05-3.66811E-05-1.86880E-05 3.35439E-05 3.89132E-19-4.03347E-19
 -1      3290 9.53114E-05-2.82466E-05-2.87370E-05-2.19540E-06 4.95172E-19 4.99777E-21
 -1      3291 9.52557E-05-2.82916E-05-2.87008E-05-2.07392E-06 4.15167E-19-1.99427E-19
 -1      3292 9.53903E-05-2.82870E-05-2.87605E-05-2.03632E-06 2.90321E-19-3.88662E-19
 -1      3293 9.52903E-05-2.81132E-05-2.87913E-05-2.29781E-06 1.68947E-19 3.75946E-20
 -1      3294 9.50448E-05-2.73070E-05-2.90264E-05-2.47181E-06 2.50191E-19-1.72879E-18
 -1      3295 9.45573E-05-2.68537E-05-2.90245E-05-2.53908E-06 1.22884E-18-8.23824E-19
 -1      3296 9.42724E-05-2.66112E-05-2.90015E-05-2.73777E-06 1.20931E-18-3.36520E-19
 -1      3297 9.50876E-05-2.73073E-05-2.90462E-05-2.73648E-06 4.86323E-19-1.07781E-18
 -1      3298 7.76848E-05-3.61376E-05-1.73920E-05-3.50704E-05 1.04916E-18-1.55499E-18
 -1      3299 9.16056E-05-4.49181E-05-2.00573E-05-3.53586E-05 1.45039E-18-2.75286E-18
 -1      3300 4.53731E-05-1.42553E-05-1.29775E-05 1.28250E-05-5.09093E-19 1.76839E-18
 -1      3301 4.03493E-05-1.14912E-05-1.18547E-05 7.15253E-07-5.96481E-19 7.81388E-20
 -1      3302 9.49698E-05-2.34811E-05-3.06380E-05-4.10642E-06-8.85823E-19-1.94221E-18
 -1      3303 9.51695E-05-2.45521E-05-3.02826E-05-2.91438E-06-8.45005E-19-1.89672E-18
 -1      3304 9.52491E-05-2.43980E-05-3.03594E-05-2.56181E-06-7.52245E-19-1.74524E-18
 -1      3305 9.23987E-05-1.82786E-05-3.17809E-05 1.79210E-06 9.76528E-19-2.12593E-18
 -1      3306 9.22778E-05-1.80731E-05-3.18140E-05 1.04495E-06 7.82716E-19-2.17715E-18
 -1      3307 1.04563E-04-5.06589E-05-2.27150E-05-3.05913E-05 1.73250E-18-1.07561E-18
 -1      3308 1.15768E-04-5.54029E-05-2.61140E-05-2.42281E-05 1.03174E-18-1.30493E-18
 -1      3309 6.87196E-05-2.99302E-05-1.62129E-05-3.07094E-05-1.49618E-18-3.31698E-18
 -1      3310 8.28901E-05-3.90290E-05-1.87091E-05-3.34901E-05-9.65988E-19-2.64841E-18
 -1      3311 9.28046E-05-1.83734E-05-3.19004E-05-7.46956E-06-8.24532E-19-2.30636E-18
 -1      3312 1.24445E-04-5.60906E-05-2.90287E-05-1.47972E-05 4.71877E-19-2.71276E-18
 -1      3313 1.29027E-04-5.45496E-05-3.23775E-05-6.21117E-06-2.55605E-19-3.34630E-18
 -1      3314 1.07844E-04-5.28065E-05-2.36150E-05 2.87779E-05-3.50698E-18-2.76797E-18
 -1      3315 9.01165E-05-4.33165E-05-1.97690E-05 3.25655E-05-2.40166E-18-1.34615E-18
 -1      3316 1.24255E-04-2.97909E-05-4.10764E-05-1.31470E-05-1.40078E-18 7.63388E-20
 -1      3317 1.29069E-04-3.79809E-05-3.91194E-05-1.18000E-05-4.10017E-19-6.51792E-19
 -1      3318 9.34934E-05-1.98032E-05-3.15642E-05-6.17964E-06-7.57592E-19-2.25916E-18
 -1      3319 9.22169E-05-1.79707E-05-3.18329E-05 4.03815E-07 7.28969E-19-2.06649E-18
 -1      3320 9.22149E-05-1.79670E-05-3.18334E-05-3.56729E-07 5.43969E-19-2.15200E-18
 -1      3321 9.31609E-05-1.95358E-05-3.15354E-05 6.17256E-07 7.08116E-19-2.02059E-18
 -1      3322 9.53552E-05-2.81705E-05-2.87933E-05-1.19262E-06 5.98519E-19-6.54831E-19
 -1      3323 9.53695E-05-2.80284E-05-2.88532E-05-9.64106E-07 7.77475E-19-8.04099E-19
 -1      3324 9.56944E-05-2.78412E-05-2.90833E-05-7.07571E-07 6.59833E-19-9.12730E-19
 -1      3325 9.53231E-05-2.49480E-05-3.01598E-05 2.66276E-06 1.20391E-18-8.14040E-19
 -1      3326 9.43566E-05-2.19260E-05-3.10191E-05 3.59109E-06 1.31821E-18-1.31701E-18
 -1      3327 9.34541E-05-2.01667E-05-3.14324E-05 4.21131E-06 1.42378E-18-1.51939E-18
 -1      3328 9.31001E-05-1.95072E-05-3.15495E-05 3.62336E-06 1.26938E-18-1.55831E-18
 -1      3329 1.15863E-04-2.56336E-05-3.87285E-05 1.25251E-05-2.76239E-19-3.03455E-18
 -1      3330 1.13516E-04-2.85115E-05-3.64290E-05 1.22430E-05-6.65186E-20-9.72596E-19
 -1      3331 1.15519E-04-3.35372E-05-3.53424E-05 1.25535E-05-3.87240E-19-8.95287E-19
 -1      3332 1.23368E-04-3.32943E-05-3.90305E-05 1.32545E-05-6.40489E-19-3.52731E-18
 -1      3333 1.07578E-04-1.69953E-05-3.89997E-05-3.39151E-06-1.19167E-19-6.56824E-19
 -1      3334 1.07606E-04-1.67704E-05-3.90720E-05 1.28682E-06-3.26372E-19-8.52506E-19
 -1      3335 1.15152E-04-5.33976E-05-2.66009E-05-2.04828E-05-6.08302E-19-1.54904E-18
 -1      3336 9.51405E-05-2.73053E-05-2.90689E-05-3.00298E-06 8.28280E-19-1.25595E-18
 -1      3337 9.55639E-05-2.83524E-05-2.88084E-05-1.55623E-06 5.24454E-19-1.12375E-18
 -1      3338 9.53228E-05-2.83381E-05-2.87060E-05-1.52465E-06 4.31848E-19-7.51408E-19
 -1      3339 9.53146E-05-2.82644E-05-2.87315E-05-1.37788E-06 4.81415E-19-6.72022E-19
 -1      3340 9.46950E-05-2.69417E-05-2.90337E-05-3.23387E-06 5.14923E-19-1.07828E-18
 -1      3341 6.33102E-05-2.54730E-05-1.57910E-05-2.80743E-05-1.28151E-18-3.52937E-18
 -1      3342 7.30581E-05-2.89276E-05-1.86236E-05-2.74150E-05-9.20619E-19-3.39073E-18
 -1      3343 5.79995E-05-2.08830E-05-1.57079E-05-2.30515E-05-5.26113E-19-3.14980E-18
 -1      3344 4.66786E-05-1.39660E-05-1.35962E-05-1.00649E-05-2.69270E-19-2.88986E-18
 -1      3345 5.39388E-05-2.04302E-05-1.38657E-05-2.57386E-05 1.12280E-18 1.78830E-18
 -1      3346 6.41063E-05-2.71694E-05-1.57447E-05-3.16858E-05 1.39353E-18 2.96250E-19
 -1      3347 1.21244E-04-5.13065E-05-2.97343E-05 9.76808E-06-2.36300E-18-1.64137E-18
 -1      3348 1.26251E-04-5.40062E-05-3.09775E-05 5.66709E-06-2.39177E-18-2.32970E-18
 -1      3349 7.54137E-05-3.07179E-05-1.88952E-05 2.91301E-05 2.01647E-19-3.50725E-19
 -1      3350 9.30048E-05-2.53633E-05-2.89960E-05 1.41670E-06 2.08937E-19-6.54570E-20
 -1      3351 9.32164E-05-2.55351E-05-2.90056E-05 1.79104E-06-9.39317E-20-1.27399E-19
 -1      3352 1.14356E-04-1.38512E-05-4.33686E-05-3.82359E-06-1.99804E-18-3.79531E-18
 -1      3353 5.89662E-05-1.80997E-05-1.72681E-05 1.82639E-05-2.59156E-19-1.24884E-18
 -1      3354 4.95172E-05-1.44219E-05-1.45670E-05 1.48903E-05-3.43181E-20-1.37495E-18
 -1      3355 5.07343E-05-1.29223E-05-1.60272E-05 6.36711E-06-1.38662E-19-1.67093E-18
 -1      3356 7.49575E-05-3.12456E-05-1.83535E-05-3.02223E-05 8.43168E-19-8.79697E-19
 -1      3357 9.22357E-05-4.15306E-05-2.14238E-05-2.90868E-05-1.25943E-18-1.89847E-18
 -1      3358 9.27640E-05-2.51684E-05-2.89741E-05 4.99371E-07 1.17356E-18-1.82355E-18
 -1      3359 9.28481E-05-2.52329E-05-2.89799E-05 9.36413E-07 6.42086E-19-6.26673E-19
 -1      3360 9.25994E-05-2.50563E-05-2.89396E-05 1.27742E-06 2.80384E-19-5.88111E-19
 -1      3361 9.24106E-05-2.49285E-05-2.89135E-05 2.43379E-07 7.08288E-19-3.02989E-18
 -1      3362 9.96524E-05-4.64787E-05-2.25148E-05-2.96032E-05 9.56512E-19-1.25189E-18
 -1      3363 9.30630E-05-2.54188E-05-2.89835E-05 2.11177E-06-5.68907E-19-6.13343E-19
 -1      3364 9.34732E-05-2.57613E-05-2.90272E-05 2.10795E-06-4.66027E-19-1.78151E-18
 -1      3365 9.37389E-05-2.59811E-05-2.90374E-05 2.31889E-06-4.11814E-19-1.09375E-18
 -1      3366 1.27677E-04-5.74701E-05-3.03525E-05 1.07814E-05-2.85905E-18-3.73765E-18
 -1      3367 1.28062E-04-4.31966E-05-3.65352E-05-7.92046E-06-3.85532E-20-3.84871E-19
 -1      3368 1.27285E-04-5.61335E-05-3.04952E-05 1.14915E-05 2.18614E-19-1.55589E-18
 -1      3369 1.20057E-04-5.43529E-05-2.81186E-05 1.60000E-05 7.89488E-19-8.27037E-19
 -1      3370 1.27098E-04-5.26545E-05-3.20417E-05 3.43614E-06 6.90957E-19-1.11369E-18
 -1      3371 1.09088E-04-5.05581E-05-2.50273E-05 2.42052E-05-1.75759E-20-4.41701E-19
 -1      3372 1.02436E-04-4.79874E-05-2.30425E-05 2.89135E-05 2.61601E-19-1.88041E-19
 -1      3373 9.61744E-05-4.30207E-05-2.26551E-05 2.81499E-05 6.41892E-20-2.67424E-19
 -1      3374 1.19465E-04-3.71975E-05-3.52238E-05 1.16068E-05-4.69097E-19-3.97090E-18
 -1      3375 1.11996E-04-1.59867E-05-4.13012E-05 6.71392E-06-3.99482E-19-3.41348E-18
 -1      3376 1.19034E-04-5.64557E-05-2.64927E-05 2.11694E-05-4.08741E-18-2.10721E-18
 -1      3377 1.12485E-04-5.15572E-05-2.59554E-05 2.14785E-05-3.33967E-18-3.45120E-18
 -1      3378 9.28098E-05-1.89995E-05-3.16532E-05 3.08907E-06 1.23679E-18-1.67763E-18
 -1      3379 9.25705E-05-1.85777E-05-3.17229E-05 2.39793E-06 1.10376E-18-1.92294E-18
 -1      3380 9.33773E-05-1.99295E-05-3.14567E-05 1.77919E-06 9.84795E-19-1.94462E-18
 -1      3381 9.38087E-05-2.07382E-05-3.12910E-05 2.81675E-06 1.20612E-18-1.57375E-18
 -1      3382 5.04546E-05-1.65233E-05-1.39531E-05 1.80441E-05-6.16825E-19 1.73123E-18
 -1      3383 5.06352E-05-1.43186E-05-1.52597E-05 1.14363E-05 6.23549E-19 1.73928E-18
 -1      3384 5.76155E-05-2.05592E-05-1.55469E-05 2.22460E-05 4.37016E-20 1.48983E-18
 -1      3385 8.28398E-05-3.77769E-05-1.89618E-05 3.24186E-05-2.08232E-18-7.98593E-19
 -1      3386 7.46421E-05-3.09036E-05-1.85851E-05 2.88856E-05-1.40697E-18-2.08952E-19
 -1      3387 9.43370E-05-4.12838E-05-2.26308E-05 2.73615E-05-2.70652E-18-3.28321E-18
 -1      3388 4.73998E-05-1.24412E-05-1.45115E-05-2.22929E-06-5.16518E-19 4.43634E-20
 -1      3389 4.10975E-05-1.19346E-05-1.20253E-05-7.39574E-06-9.22320E-19-1.06769E-18
 -1      3390 1.28106E-04-4.97241E-05-3.35867E-05 1.33299E-06-3.92198E-19-2.94016E-18
 -1      3391 4.49938E-05-1.51761E-05-1.25147E-05-1.76836E-05 8.57621E-20-3.94929E-19
 -1      3392 9.30680E-05-1.94546E-05-3.15579E-05-3.58321E-06-3.30670E-19-2.17083E-18
 -1      3393 9.34158E-05-2.01085E-05-3.14433E-05-4.19415E-06-5.14006E-19-2.21468E-18
 -1      3394 1.18734E-04-5.37704E-05-2.77041E-05-1.71582E-05-1.39813E-19-1.79728E-18
 -1      3395 9.40094E-05-2.12505E-05-3.11860E-05-5.10295E-06-7.43436E-19-2.19917E-18
 -1      3396 9.25516E-05-1.85483E-05-3.17277E-05-2.35432E-06 9.72806E-20-2.09963E-18
 -1      3397 9.27801E-05-1.89519E-05-3.16595E-05-3.05433E-06-1.43840E-19-2.14355E-18
 -1      3398 9.37655E-05-2.06838E-05-3.12994E-05-2.78946E-06-3.25112E-19-2.01067E-18
 -1      3399 1.13707E-04-4.94903E-05-2.76953E-05 1.65743E-05-2.26412E-18-2.34885E-18
 -1      3400 1.22914E-04-3.75280E-05-3.67472E-05 1.10101E-05-4.61209E-19-3.92225E-18
 -1      3401 9.39751E-05-2.11797E-05-3.11919E-05-4.40610E-06-7.29109E-19-2.17232E-18
 -1      3402 9.44572E-05-2.22567E-05-3.09375E-05-3.37675E-06-6.53498E-19-2.06691E-18
 -1      3403 1.18256E-04-2.57728E-05-3.98816E-05-1.27466E-05-6.22410E-19-1.01962E-18
 -1      3404 9.60177E-05-2.67602E-05-2.96744E-05-3.03712E-07-4.67220E-19-1.04123E-18
 -1      3405 9.60521E-05-2.72145E-05-2.95083E-05 1.50382E-07-4.95166E-19-8.81124E-19
 -1      3406 9.61125E-05-2.75955E-05-2.93577E-05 4.71402E-07-5.73094E-19-8.05659E-19
 -1      3407 9.60969E-05-2.78731E-05-2.92423E-05 7.74904E-07-6.10997E-19-7.53917E-19
 -1      3408 9.62017E-05-2.72122E-05-2.95669E-05 2.13627E-07-4.90301E-19-7.85588E-19
 -1      3409 9.60742E-05-2.80834E-05-2.91345E-05 9.91201E-07-7.07284E-19-5.33059E-19
 -1      3410 9.60285E-05-2.82285E-05-2.90583E-05 1.19517E-06-4.76036E-19-6.01038E-19
 -1      3411 9.62406E-05-2.78709E-05-2.93025E-05 7.70029E-07-5.81145E-19-6.13632E-19
 -1      3412 9.59518E-05-2.83153E-05-2.89848E-05 1.34500E-06-4.38711E-19-8.46612E-19
 -1      3413 9.58899E-05-2.83641E-05-2.89389E-05 1.49050E-06-3.59397E-19-8.63526E-19
 -1      3414 9.61435E-05-2.82116E-05-2.91151E-05 1.15408E-06-5.93659E-19-5.25867E-19
 -1      3415 9.57765E-05-2.83603E-05-2.88923E-05 1.60618E-06-2.18585E-19-1.07599E-18
 -1      3416 9.57054E-05-2.83383E-05-2.88696E-05 1.72656E-06-3.05438E-19-9.32981E-19
 -1      3417 9.59565E-05-2.83181E-05-2.89892E-05 1.43447E-06-3.20331E-19-1.08819E-18
 -1      3418 9.55653E-05-2.82671E-05-2.88433E-05 1.83473E-06-4.09881E-19-8.21856E-19
 -1      3419 9.54883E-05-2.81930E-05-2.88379E-05 1.95619E-06-3.03234E-19-7.61320E-19
 -1      3420 9.57064E-05-2.82502E-05-2.89107E-05 1.66969E-06-2.81027E-19-9.61870E-19
 -1      3421 9.53267E-05-2.80718E-05-2.88261E-05 2.07843E-06-3.73015E-19-7.72275E-19
 -1      3422 9.52461E-05-2.79604E-05-2.88329E-05 2.22115E-06-4.49735E-19-7.01514E-19
 -1      3423 9.54080E-05-2.80518E-05-2.88673E-05 1.90776E-06-4.43677E-19-1.11952E-18
 -1      3424 9.50658E-05-2.78036E-05-2.88305E-05 2.37479E-06-2.10885E-19-8.14526E-19
 -1      3425 9.49840E-05-2.76687E-05-2.88450E-05 2.55391E-06 5.92607E-20-6.74010E-19
 -1      3426 9.50692E-05-2.77574E-05-2.88476E-05 2.18762E-06-2.77301E-19-1.01826E-18
 -1      3427 9.47880E-05-2.74904E-05-2.88466E-05 2.75275E-06-1.28739E-19-8.08085E-19
 -1      3428 9.47098E-05-2.73477E-05-2.88643E-05 2.97889E-06-1.14464E-19-9.80498E-19
 -1      3429 9.46953E-05-2.73981E-05-2.88409E-05 2.54065E-06-1.07418E-19-1.18526E-18
 -1      3430 9.45031E-05-2.71651E-05-2.88646E-05 3.23386E-06-4.61230E-19-8.61340E-19
 -1      3431 9.44375E-05-2.70347E-05-2.88810E-05 3.51324E-06-6.83171E-19-1.13109E-18
 -1      3432 9.42941E-05-2.70073E-05-2.88360E-05 2.99219E-06-2.53608E-19-9.76672E-19
 -1      3433 9.42307E-05-2.68711E-05-2.88742E-05 3.83276E-06-5.58065E-19-1.27178E-18
 -1      3434 9.41944E-05-2.67817E-05-2.88843E-05 4.16689E-06-4.55368E-19-1.66726E-18
 -1      3435 9.38805E-05-2.66277E-05-2.88215E-05 3.56274E-06-7.19347E-19-1.00815E-18
 -1      3436 9.40075E-05-2.66706E-05-2.88642E-05 4.55692E-06-4.17540E-19-1.65555E-18
 -1      3437 9.40289E-05-2.66630E-05-2.88628E-05 4.94164E-06-4.93178E-19-1.66254E-18
 -1      3438 9.34838E-05-2.63184E-05-2.87847E-05 4.26898E-06-2.71526E-19-1.66257E-18
 -1      3439 9.38971E-05-2.66529E-05-2.88232E-05 5.40523E-06-4.43263E-19-1.31243E-18
 -1      3440 9.40217E-05-2.67845E-05-2.88056E-05 5.82885E-06-2.55648E-19-1.17765E-18
 -1      3441 9.31570E-05-2.61641E-05-2.87128E-05 5.12415E-06-1.98239E-19-1.20319E-18
 -1      3442 9.40028E-05-2.69430E-05-2.87413E-05 6.36442E-06 5.06842E-20-9.43377E-19
 -1      3443 9.43003E-05-2.72918E-05-2.87048E-05 6.80405E-06 1.53369E-19-6.88965E-19
 -1      3444 9.29898E-05-2.62849E-05-2.85932E-05 6.13714E-06 1.23033E-21-8.74786E-19
 -1      3445 9.44849E-05-2.77095E-05-2.86138E-05 7.40055E-06 2.72866E-19-2.94560E-19
 -1      3446 9.50550E-05-2.83744E-05-2.85609E-05 7.81470E-06 4.91832E-19 1.05953E-20
 -1      3447 9.31256E-05-2.68467E-05-2.84176E-05 7.30792E-06 5.48777E-19 9.90168E-20
 -1      3448 9.55789E-05-2.91646E-05-2.84490E-05 8.43978E-06 5.20714E-19-2.91827E-19
 -1      3449 9.65520E-05-3.02579E-05-2.83931E-05 8.75388E-06 6.24231E-19-2.66506E-19
 -1      3450 9.37840E-05-2.80679E-05-2.81880E-05 8.61379E-06 4.28985E-19-4.84991E-19
 -1      3451 9.76101E-05-3.15458E-05-2.82821E-05 9.32116E-06 6.17826E-19-3.96426E-20
 -1      3452 9.91279E-05-3.31558E-05-2.82564E-05 9.39990E-06 7.54074E-19-2.07666E-19
 -1      3453 9.52905E-05-3.02217E-05-2.79295E-05 9.97226E-06 6.23421E-19-4.92596E-19
 -1      3454 1.00961E-04-3.50337E-05-2.81977E-05 9.72086E-06 6.19039E-19 2.11164E-19
 -1      3455 1.03123E-04-3.71488E-05-2.82671E-05 9.33267E-06 1.52008E-19-2.82887E-20
 -1      3456 9.80838E-05-3.35799E-05-2.77140E-05 1.11447E-05 7.30758E-19-1.60091E-19
 -1      3457 1.05957E-04-3.95613E-05-2.83643E-05 9.04039E-06-4.04038E-19-1.15350E-19
 -1      3458 1.08698E-04-4.18906E-05-2.86447E-05 7.83639E-06-2.32378E-19-3.29770E-19
 -1      3459 1.02644E-04-3.82447E-05-2.76920E-05 1.16484E-05 9.53880E-20-1.25295E-19
 -1      3460 1.12618E-04-4.44291E-05-2.90934E-05 6.34882E-06 1.93342E-19-2.21747E-19
 -1      3461 1.15570E-04-4.60631E-05-2.97792E-05 3.82119E-06 4.73624E-19 1.27081E-19
 -1      3462 1.09297E-04-4.38501E-05-2.81569E-05 1.05341E-05-8.96399E-20-4.27785E-19
 -1      3463 1.20199E-04-4.88541E-05-3.05135E-05 2.99682E-06 9.40868E-19 5.90832E-19
 -1      3464 1.22474E-04-4.82544E-05-3.18512E-05-5.02408E-07 1.10936E-18 4.77832E-19
 -1      3465 1.16963E-04-4.65340E-05-3.01839E-05-2.55034E-06-3.43862E-19-2.79181E-18
 -1      3466 1.14122E-04-4.52611E-05-2.93829E-05-5.36625E-06-4.84832E-19-3.83782E-18
 -1      3467 1.10057E-04-4.28526E-05-2.88250E-05-7.19636E-06 2.54308E-19-3.59839E-18
 -1      3468 1.07270E-04-4.05825E-05-2.84814E-05-8.62524E-06 2.85604E-19-3.09222E-18
 -1      3469 1.10966E-04-4.49826E-05-2.83900E-05-9.86039E-06-1.00188E-20-3.80075E-18
 -1      3470 1.04207E-04-3.81003E-05-2.83302E-05-9.14264E-06 1.23187E-19-2.57316E-18
 -1      3471 1.01924E-04-3.59095E-05-2.82286E-05-9.67186E-06 1.85831E-19-1.85870E-18
 -1      3472 1.03955E-04-3.93965E-05-2.77656E-05-1.15352E-05 3.77562E-19-2.42138E-18
 -1      3473 9.99058E-05-3.39132E-05-2.82662E-05-9.45289E-06 1.97068E-19-1.79315E-18
 -1      3474 9.82626E-05-3.21902E-05-2.82803E-05-9.45437E-06 3.15358E-19-1.34425E-18
 -1      3475 9.89611E-05-3.44629E-05-2.77146E-05-1.13055E-05 4.43843E-19-1.08460E-18
 -1      3476 9.70647E-05-3.07814E-05-2.83883E-05-8.92312E-06 4.64931E-19-4.51602E-19
 -1      3477 9.59914E-05-2.95814E-05-2.84438E-05-8.64571E-06 5.51538E-19-2.14564E-19
 -1      3478 9.58455E-05-3.08323E-05-2.79096E-05-1.02384E-05 4.60870E-19-2.29510E-20
 -1      3479 9.53706E-05-2.86887E-05-2.85612E-05-8.02362E-06-6.18098E-20-4.68961E-20
 -1      3480 9.47269E-05-2.79326E-05-2.86197E-05-7.61792E-06 2.00657E-19 2.47406E-19
 -1      3481 9.41072E-05-2.84342E-05-2.81727E-05-8.89785E-06 4.97697E-19 3.35404E-19
 -1      3482 9.44768E-05-2.74308E-05-2.87206E-05-7.00604E-06 7.69206E-20-6.81028E-19
 -1      3483 9.41268E-05-2.70053E-05-2.87662E-05-6.55518E-06-1.13203E-18-4.66763E-19
 -1      3484 9.32912E-05-2.70128E-05-2.84192E-05-7.56587E-06-5.18267E-19 4.31998E-19
 -1      3485 9.40993E-05-2.67751E-05-2.88429E-05-5.99199E-06-9.80354E-19-5.51260E-19
 -1      3486 9.39357E-05-2.65758E-05-2.88718E-05-5.54097E-06-4.12437E-19-4.33472E-19
 -1      3487 9.30474E-05-2.62863E-05-2.86184E-05-6.34412E-06-1.08088E-18-8.92455E-19
 -1      3488 9.40304E-05-2.65194E-05-2.89253E-05-5.03913E-06-1.79273E-19 6.74436E-20
 -1      3489 9.39780E-05-2.64617E-05-2.89397E-05-4.61245E-06 6.27971E-19 7.31786E-21
 -1      3490 9.31342E-05-2.60194E-05-2.87655E-05-5.26070E-06 1.69425E-19 2.69404E-19
 -1      3491 9.41283E-05-2.65074E-05-2.89747E-05-4.17026E-06 6.11681E-19 5.28889E-21
 -1      3492 9.41412E-05-2.65184E-05-2.89790E-05-3.78527E-06 4.00559E-19 5.85127E-19
 -1      3493 9.33843E-05-2.60268E-05-2.88673E-05-4.31757E-06 5.81860E-19 1.20337E-18
 -1      3494 9.53583E-05-2.48911E-05-3.02085E-05 2.19789E-06 1.23599E-18-1.10287E-18
 -1      3495 9.52274E-05-2.43030E-05-3.03908E-05 2.93458E-06 1.26830E-18-9.90480E-19
 -1      3496 9.49369E-05-2.34680E-05-3.06355E-05 3.13150E-06 1.31888E-18-1.20584E-18
 -1      3497 9.42597E-05-2.65904E-05-2.90023E-05-3.16245E-06 8.46368E-19-1.92226E-19
 -1      3498 9.47203E-05-2.72207E-05-2.89234E-05-3.09034E-06 1.39837E-19-5.33484E-19
 -1      3499 9.48045E-05-2.74160E-05-2.88870E-05-2.83917E-06 3.30632E-19-4.49066E-19
 -1      3500 9.50127E-05-2.76358E-05-2.88712E-05-2.63645E-06 2.67669E-19-2.02242E-19
 -1      3501 9.50798E-05-2.77933E-05-2.88417E-05-2.44394E-06 1.75516E-19-7.95261E-20
 -1      3502 9.47143E-05-2.73322E-05-2.88758E-05-2.63575E-06 3.05743E-19-5.86267E-19
 -1      3503 9.39047E-05-2.61633E-05-2.90264E-05-4.40923E-06 3.32340E-19-4.88752E-19
 -1      3504 9.40433E-05-2.64205E-05-2.89911E-05-4.00772E-06 3.41352E-19-6.92368E-19
 -1      3505 9.33446E-05-2.55516E-05-2.90480E-05-5.30909E-06 1.93515E-19-1.89634E-20
 -1      3506 9.35176E-05-2.58224E-05-2.90243E-05-4.82143E-06 2.66470E-19-3.00810E-19
 -1      3507 9.30032E-05-2.55085E-05-2.89179E-05-4.39094E-06 1.93676E-19-4.58350E-19
 -1      3508 9.26698E-05-2.49373E-05-2.90210E-05-6.38841E-06 9.80209E-23 1.78082E-19
 -1      3509 9.28727E-05-2.51930E-05-2.90200E-05-5.81017E-06 1.79836E-19-6.06254E-20
 -1      3510 9.21538E-05-2.47589E-05-2.88724E-05-5.26510E-06-6.48716E-21 6.52333E-20
 -1      3511 9.18996E-05-2.44101E-05-2.89143E-05-7.66539E-06-3.17040E-19-1.90546E-19
 -1      3512 9.21091E-05-2.45960E-05-2.89512E-05-6.99235E-06-1.83839E-19-3.32050E-19
 -1      3513 9.11300E-05-2.40028E-05-2.87549E-05-6.31666E-06 1.21146E-19 4.93165E-21
 -1      3514 9.11083E-05-2.41331E-05-2.86884E-05-9.17241E-06-9.35356E-19 6.55313E-19
 -1      3515 9.12633E-05-2.41515E-05-2.87818E-05-8.39728E-06-4.58099E-19 1.07266E-19
 -1      3516 8.99365E-05-2.33360E-05-2.85271E-05-7.58522E-06-5.59555E-19-1.69273E-19
 -1      3517 9.04750E-05-2.43843E-05-2.82980E-05-1.09713E-05-7.89695E-19 1.95633E-19
 -1      3518 9.04448E-05-2.40711E-05-2.84674E-05-1.00795E-05-7.94081E-19 2.17335E-19
 -1      3519 8.86254E-05-2.29280E-05-2.81399E-05-9.14922E-06-4.92906E-19-6.13571E-19
 -1      3520 9.03661E-05-2.56153E-05-2.77018E-05-1.31680E-05-5.52833E-19-4.29018E-19
 -1      3521 8.98979E-05-2.47055E-05-2.79598E-05-1.21391E-05-6.05119E-19-4.37739E-19
 -1      3522 8.73391E-05-2.30617E-05-2.75348E-05-1.11594E-05-3.23144E-19-8.56619E-19
 -1      3523 9.14567E-05-2.85266E-05-2.68884E-05-1.58878E-05-2.29663E-19-1.39400E-18
 -1      3524 9.01199E-05-2.66201E-05-2.72212E-05-1.47271E-05-3.77232E-19-1.07189E-18
 -1      3525 8.63922E-05-2.42040E-05-2.66488E-05-1.38809E-05-2.18488E-19-2.80419E-18
 -1      3526 9.48023E-05-3.40564E-05-2.59353E-05-1.90887E-05-5.13778E-20-1.55062E-18
 -1      3527 9.20242E-05-3.06157E-05-2.62663E-05-1.79106E-05-1.53525E-20-1.20347E-18
 -1      3528 8.65113E-05-2.71553E-05-2.54361E-05-1.76991E-05-6.37988E-20-3.40873E-18
 -1      3529 9.21772E-05-2.48664E-05-2.88458E-05-1.17334E-06 1.00817E-18 1.22654E-18
 -1      3530 9.20186E-05-2.47386E-05-2.88415E-05-6.64172E-07 8.95211E-19-1.10947E-18
 -1      3531 9.07721E-05-2.40153E-05-2.86311E-05 9.41178E-06 8.21233E-19-3.21081E-19
 -1      3532 9.07089E-05-2.41857E-05-2.84895E-05 1.02648E-05 7.74289E-19 2.71778E-19
 -1      3533 9.00802E-05-2.43396E-05-2.81968E-05 1.13238E-05 7.16952E-19 3.18850E-19
 -1      3534 9.03378E-05-2.49865E-05-2.79707E-05 1.23022E-05 1.07393E-18 1.56752E-19
 -1      3535 8.78558E-05-2.29108E-05-2.78204E-05 1.03447E-05 5.89032E-19 8.35353E-20
 -1      3536 5.49188E-05-1.73309E-05-1.57124E-05-1.86762E-05 2.87700E-19 8.85679E-20
 -1      3537 8.32501E-05-3.34950E-05-2.13949E-05 2.70952E-05 1.46828E-19-3.51625E-19
 -1      3538 7.09193E-05-2.50739E-05-1.94071E-05 2.45027E-05 7.28051E-20-3.40269E-19
 -1      3539 8.99219E-05-2.56900E-05-2.75446E-05 1.36960E-05 9.80408E-19-2.74509E-19
 -1      3540 9.08535E-05-2.71627E-05-2.72330E-05 1.48103E-05 4.74661E-19-6.80783E-19
 -1      3541 8.67258E-05-2.36104E-05-2.70449E-05 1.27546E-05 6.23532E-19-1.15527E-20
 -1      3542 9.16180E-05-2.42417E-05-2.88940E-05 7.82147E-06 1.76759E-18-1.30356E-19
 -1      3543 9.14319E-05-2.41580E-05-2.88194E-05 8.56982E-06 9.70232E-19-4.89817E-19
 -1      3544 8.91731E-05-2.30039E-05-2.83420E-05 8.51434E-06 1.06757E-18 2.32823E-19
 -1      3545 9.24282E-05-2.47173E-05-2.90345E-05 6.47075E-06 1.19107E-18 1.69641E-20
 -1      3546 9.22218E-05-2.45209E-05-2.90066E-05 7.12963E-06 1.80411E-18-3.21322E-19
 -1      3547 9.04415E-05-2.35005E-05-2.86733E-05 7.05192E-06 1.75144E-18 1.23612E-18
 -1      3548 9.31280E-05-2.52717E-05-2.90939E-05 5.30793E-06-5.73144E-19 1.19281E-18
 -1      3549 9.29443E-05-2.50406E-05-2.90953E-05 5.88402E-06 2.22057E-19 3.13123E-19
 -1      3550 9.15537E-05-2.41582E-05-2.88702E-05 5.83464E-06 1.74314E-19 1.31959E-18
 -1      3551 9.36927E-05-2.58093E-05-2.91052E-05 4.31406E-06-2.11525E-19 3.92991E-19
 -1      3552 9.35503E-05-2.55899E-05-2.91217E-05 4.80528E-06-4.28864E-19 8.13545E-19
 -1      3553 9.24823E-05-2.48425E-05-2.89770E-05 4.79119E-06-5.38393E-19-7.17232E-20
 -1      3554 9.41266E-05-2.62578E-05-2.90928E-05 3.44774E-06 2.08718E-20 4.06723E-19
 -1      3555 9.40203E-05-2.60740E-05-2.91153E-05 3.87595E-06 2.27566E-19 1.40117E-18
 -1      3556 9.32096E-05-2.54543E-05-2.90273E-05 3.89771E-06-4.75132E-19 3.88029E-19
 -1      3557 9.34992E-05-2.59804E-05-2.89363E-05-2.78894E-06 7.26548E-19-7.82928E-19
 -1      3558 9.31165E-05-2.56759E-05-2.89106E-05-2.51322E-06 1.22533E-18-6.50643E-19
 -1      3559 9.40887E-05-4.13989E-05-2.23183E-05-2.82725E-05-5.58539E-19-8.28742E-19
 -1      3560 1.04338E-04-4.74429E-05-2.45505E-05-2.49538E-05 6.68891E-20-3.90866E-19
 -1      3561 9.43575E-05-2.67267E-05-2.89793E-05-3.67480E-06 3.19207E-19-8.18734E-19
 -1      3562 9.44655E-05-2.69563E-05-2.89405E-05-3.35300E-06 1.88960E-19-3.80269E-19
 -1      3563 9.42573E-05-2.68130E-05-2.89008E-05-3.09306E-06 2.93740E-19-9.47669E-19
 -1      3564 9.36957E-05-2.62014E-05-2.89202E-05-3.67237E-06 4.90203E-19-7.91588E-19
 -1      3565 9.56211E-05-2.83441E-05-2.88307E-05-1.78177E-06 3.64920E-19-6.15422E-19
 -1      3566 9.56664E-05-2.83593E-05-2.88453E-05-1.65888E-06 3.53234E-19-9.89038E-19
 -1      3567 9.22639E-05-1.80573E-05-3.18155E-05-9.98360E-07 4.25407E-19-2.22511E-18
 -1      3568 9.23775E-05-1.82542E-05-3.17837E-05-1.73628E-06 2.40162E-19-2.10920E-18
 -1      3569 9.33821E-05-1.99175E-05-3.14601E-05-1.75728E-06 1.58348E-19-2.01193E-18
 -1      3570 1.23778E-04-4.23220E-05-3.51736E-05 9.46817E-06-6.85905E-19-3.56086E-18
 -1      3571 9.27334E-05-2.53397E-05-2.88785E-05-2.12246E-06 1.29269E-18 1.14991E-18
 -1      3572 9.24319E-05-2.51060E-05-2.88627E-05-1.70782E-06 1.69130E-18 2.03179E-18
 -1      3573 9.19439E-05-2.47468E-05-2.87933E-05-1.61596E-06 1.58506E-18 1.61776E-18
 -1      3574 9.26562E-05-2.53328E-05-2.88482E-05-2.56602E-06 1.16028E-18 2.68654E-19
 -1      3575 8.70208E-05-3.62302E-05-2.14964E-05-2.75733E-05-6.95838E-19-1.98555E-18
 -1      3576 9.90007E-05-4.37403E-05-2.37401E-05-2.57425E-05-8.31151E-19-1.03685E-18
 -1      3577 9.10598E-05-2.88337E-05-2.66631E-05 1.66253E-05-3.87167E-19-4.62512E-19
 -1      3578 9.32048E-05-3.15371E-05-2.63160E-05 1.78080E-05-5.99024E-19-1.31935E-18
 -1      3579 8.63194E-05-2.57644E-05-2.59572E-05 1.61370E-05 2.09072E-19 2.09306E-19
 -1      3580 9.46220E-05-2.25819E-05-3.08756E-05-2.55311E-06-3.69099E-19-1.83874E-18
 -1      3581 9.50722E-05-2.36248E-05-3.06220E-05-2.65006E-06-5.42809E-19-1.80569E-18
 -1      3582 9.53839E-05-2.46394E-05-3.03249E-05-1.79469E-06-4.64911E-19-1.60761E-18
 -1      3583 9.57020E-05-2.54915E-05-3.00898E-05-1.32458E-06-4.55697E-19-1.33986E-18
 -1      3584 9.58470E-05-2.61867E-05-2.98632E-05-6.75233E-07-3.93589E-19-1.12814E-18
 -1      3585 9.59946E-05-2.62000E-05-2.99133E-05-5.09453E-07-3.91230E-19-1.11564E-18
 -1      3586 9.55274E-05-2.47368E-05-3.03353E-05-1.38951E-06-2.43099E-19-1.33852E-18
 -1      3587 5.11651E-05-1.25201E-05-1.63153E-05 2.12175E-06 9.75296E-19 1.25573E-18
 -1      3588 5.13998E-05-1.27498E-05-1.63746E-05-5.65537E-06 4.70924E-19-4.20552E-19
 -1      3589 1.23545E-04-4.78633E-05-3.24567E-05 1.73568E-06-6.25878E-19-2.87192E-18
 -1      3590 1.05982E-04-4.58606E-05-2.54215E-05 2.23278E-05-1.75672E-18-3.71024E-18
 -1      3591 1.13144E-04-5.09795E-05-2.64148E-05-1.94873E-05-1.38404E-19-1.36115E-18
 -1      3592 1.19601E-04-5.24838E-05-2.88547E-05-1.17398E-05-3.96669E-19-3.20383E-18
 -1      3593 7.20093E-05-2.62900E-05-1.92980E-05-2.57686E-05 6.65794E-19 8.96558E-19
 -1      3594 8.31514E-05-3.48151E-05-2.07406E-05-2.94516E-05-5.74924E-20-6.83661E-19
 -1      3595 9.02269E-05-3.65500E-05-2.28266E-05-2.50062E-05-9.54024E-19 5.77769E-20
 -1      3596 9.40443E-05-2.62588E-05-2.90588E-05 2.48382E-06-4.84495E-19 1.44386E-18
 -1      3597 9.43515E-05-2.65295E-05-2.90662E-05 2.58252E-06-1.31243E-18 1.02308E-18
 -1      3598 9.43406E-05-2.64946E-05-2.90755E-05 2.82069E-06-1.39272E-18 1.17781E-18
 -1      3599 9.36514E-05-2.59089E-05-2.90317E-05 2.60537E-06-5.65914E-19 3.93585E-19
 -1      3600 1.08322E-04-1.69594E-05-3.94474E-05 3.24084E-06-3.98661E-19-1.25523E-18
 -1      3601 9.80333E-05-4.06770E-05-2.45292E-05 2.32641E-05-1.53670E-18-3.39687E-18
 -1      3602 9.31336E-05-3.34189E-05-2.55661E-05 1.98906E-05-4.06731E-19-1.92051E-18
 -1      3603 9.72120E-05-3.78138E-05-2.53399E-05 2.09063E-05-6.77951E-19-2.27722E-18
 -1      3604 8.65735E-05-3.32181E-05-2.27152E-05 2.50502E-05-1.94765E-18-1.13819E-18
 -1      3605 8.63830E-05-2.90543E-05-2.45296E-05 2.01505E-05-1.33389E-18-1.01914E-18
 -1      3606 5.01878E-05-1.31134E-05-1.58037E-05-6.61602E-06 3.52445E-20-2.90421E-18
 -1      3607 5.25891E-05-1.56946E-05-1.53147E-05-1.59629E-05-2.09905E-20-3.36404E-18
 -1      3608 6.11983E-05-1.93463E-05-1.76390E-05-1.86759E-05-1.38940E-19-3.08283E-18
 -1      3609 5.45701E-05-1.48489E-05-1.67041E-05-1.32204E-05-2.62051E-20-1.34466E-20
 -1      3610 6.13713E-05-1.99737E-05-1.77970E-05-2.13204E-05 3.22217E-19 1.17309E-18
 -1      3611 5.79371E-05-1.46356E-05-1.82823E-05-8.90742E-06 8.70445E-19 5.91203E-19
 -1      3612 1.21561E-04-4.92462E-05-3.09792E-05-1.83523E-06-8.02365E-20-2.53802E-18
 -1      3613 9.56388E-05-2.81919E-05-2.89096E-05-1.21672E-06 6.30211E-19-8.60814E-19
 -1      3614 9.46818E-05-2.28148E-05-3.08075E-05 2.88324E-06 1.32417E-18-1.41303E-18
 -1      3615 9.31551E-05-1.95214E-05-3.15364E-05-5.85688E-07 3.61134E-19-2.06596E-18
 -1      3616 5.27387E-05-1.30750E-05-1.67189E-05 6.62636E-06 2.10039E-19 1.52657E-18
 -1      3617 5.70540E-05-1.36141E-05-1.84094E-05 3.46127E-06 4.51376E-20 1.15239E-18
 -1      3618 5.61077E-05-1.49532E-05-1.74278E-05 1.19618E-05-1.31422E-20 1.17473E-18
 -1      3619 1.17825E-04-5.00273E-05-2.91252E-05 9.13949E-06 1.02139E-18-3.93606E-20
 -1      3620 1.25695E-04-4.67077E-05-3.38123E-05-5.45483E-06 5.80403E-19 3.27934E-19
 -1      3621 1.08451E-04-4.80761E-05-2.56967E-05-2.16605E-05-8.17824E-19-1.55854E-18
 -1      3622 7.55728E-05-2.79620E-05-2.03266E-05-2.48029E-05-4.92748E-19-2.59306E-18
 -1      3623 8.17034E-05-3.26302E-05-2.08500E-05-2.71677E-05-7.42583E-19-2.83039E-18
 -1      3624 8.89840E-05-3.48696E-05-2.30609E-05-2.44905E-05-4.79129E-19-1.81175E-18
 -1      3625 9.56570E-05-2.57720E-05-2.99446E-05 1.48147E-06 1.00777E-18-1.15808E-18
 -1      3626 9.55276E-05-2.51459E-05-3.01640E-05 1.69656E-06 1.15898E-18-1.25298E-18
 -1      3627 9.57284E-05-2.64122E-05-2.97147E-05 7.76218E-07 6.83261E-19-1.16125E-18
 -1      3628 9.57611E-05-2.83578E-05-2.88862E-05-1.53711E-06 4.57021E-19-1.17439E-18
 -1      3629 9.58025E-05-2.83036E-05-2.89259E-05-1.38535E-06 4.66686E-19-1.14552E-18
 -1      3630 9.58723E-05-2.83227E-05-2.89516E-05-1.50785E-06 1.61960E-19-1.11038E-18
 -1      3631 9.55013E-05-2.82768E-05-2.88117E-05-1.89239E-06 3.57269E-19-2.92742E-19
 -1      3632 9.56613E-05-2.82651E-05-2.88852E-05-1.75381E-06 1.23236E-19-6.34164E-19
 -1      3633 9.54521E-05-2.82068E-05-2.88162E-05-2.01652E-06 7.07282E-20-1.56550E-19
 -1      3634 9.50898E-05-2.77530E-05-2.88577E-05-2.27920E-06 1.62061E-19-7.19532E-19
 -1      3635 9.52522E-05-2.79668E-05-2.88326E-05-2.28869E-06-7.20534E-20 8.02540E-20
 -1      3636 9.53081E-05-2.80832E-05-2.88137E-05-2.13980E-06 8.77252E-20-1.49385E-19
 -1      3637 9.15579E-05-2.43976E-05-2.87754E-05-4.34630E-07 1.76684E-18-2.34473E-18
 -1      3638 9.19332E-05-2.46365E-05-2.88430E-05-4.74659E-08 1.24383E-18-3.03171E-18
 -1      3639 9.19450E-05-2.46367E-05-2.88513E-05 4.93639E-07 9.13760E-19-2.74978E-18
 -1      3640 9.85176E-05-3.85622E-05-2.55314E-05-2.10739E-05-4.07883E-19-1.21105E-18
 -1      3641 8.99943E-05-3.35899E-05-2.41973E-05-2.22439E-05-3.25281E-19-1.72294E-18
 -1      3642 1.03535E-04-4.37330E-05-2.55224E-05-2.16081E-05-4.63698E-19-1.59425E-18
 -1      3643 9.58647E-05-2.73719E-05-2.93594E-05-2.09011E-07 5.37423E-19-1.24390E-18
 -1      3644 9.58623E-05-2.69653E-05-2.95219E-05 2.78154E-07 5.93033E-19-1.23002E-18
 -1      3645 9.58952E-05-2.65632E-05-2.97115E-05 4.84308E-07 6.57396E-19-1.14446E-18
 -1      3646 7.06427E-05-2.34461E-05-2.00159E-05-2.13498E-05-1.17446E-19 6.86176E-19
 -1      3647 9.29470E-05-3.85878E-05-2.30144E-05 2.54820E-05 2.78323E-19 4.73303E-19
 -1      3648 8.71099E-05-3.34031E-05-2.30805E-05 2.32042E-05 7.27562E-19 5.17643E-19
 -1      3649 1.19538E-04-5.08703E-05-2.95195E-05-8.28940E-06-5.50128E-19-3.24108E-18
 -1      3650 9.43519E-05-2.64649E-05-2.90926E-05 3.07776E-06-2.43577E-19 1.59514E-18
 -1      3651 1.07648E-04-4.68858E-05-2.59376E-05-1.96208E-05-1.27631E-19-1.50239E-18
 -1      3652 9.58716E-05-2.79464E-05-2.91130E-05-8.63794E-07 8.11843E-19-1.25001E-18
 -1      3653 9.58984E-05-2.77045E-05-2.92218E-05-5.41104E-07 6.68416E-19-1.23873E-18
 -1      3654 9.60264E-05-2.74733E-05-2.93802E-05-3.66587E-07 6.79608E-19-1.37896E-18
 -1      3655 6.67356E-05-2.10561E-05-1.93810E-05 2.07459E-05-5.84585E-20-3.43472E-19
 -1      3656 6.37922E-05-1.76378E-05-1.97428E-05 1.45548E-05-6.37260E-20-5.92764E-19
 -1      3657 7.49220E-05-2.41119E-05-2.16493E-05 1.94208E-05 4.14485E-19 1.00440E-19
 -1      3658 5.68460E-05-1.38838E-05-1.83589E-05 6.39008E-06 1.38437E-19-1.64605E-18
 -1      3659 5.25580E-05-1.23438E-05-1.67829E-05 3.55679E-07 2.09945E-19-1.73515E-18
 -1      3660 5.64780E-05-1.37536E-05-1.81778E-05-5.13373E-06 6.21223E-19-3.04908E-18
 -1      3661 1.20978E-04-2.59610E-05-4.10895E-05-1.26149E-05-1.08293E-18-7.83717E-19
 -1      3662 9.25405E-05-2.50527E-05-2.89324E-05 2.16004E-06-4.04490E-19-5.53624E-19
 -1      3663 9.28558E-05-2.52658E-05-2.89596E-05 2.50033E-06-8.90543E-20-1.47386E-18
 -1      3664 9.37769E-05-2.59822E-05-2.90499E-05 3.12132E-06-3.46731E-19 1.56835E-18
 -1      3665 9.44078E-05-2.21337E-05-3.09849E-05-2.14694E-06-1.67332E-19-1.76321E-18
 -1      3666 9.40246E-05-2.64310E-05-2.89710E-05-3.56053E-06 4.23942E-19 3.96167E-19
 -1      3667 9.36388E-05-2.60977E-05-2.89411E-05-3.01135E-06 6.53933E-19 2.86605E-19
 -1      3668 9.89154E-05-4.23414E-05-2.42807E-05 2.38763E-05 5.70010E-19 3.71318E-19
 -1      3669 9.41048E-05-2.14245E-05-3.11647E-05 1.73357E-06 1.02582E-18-1.69991E-18
 -1      3670 9.39590E-05-2.11206E-05-3.12245E-05 1.21561E-06 8.32596E-19-1.91160E-18
 -1      3671 9.46026E-05-2.22566E-05-3.09873E-05 7.98203E-07 7.27626E-19-1.82732E-18
 -1      3672 9.38687E-05-2.09410E-05-3.12668E-05 7.89837E-07 7.29179E-19-1.95280E-18
 -1      3673 9.38188E-05-2.08398E-05-3.12866E-05 2.37564E-07 5.99288E-19-1.92912E-18
 -1      3674 6.45052E-05-2.35137E-05-1.71861E-05 2.50930E-05-1.16041E-18-1.53948E-19
 -1      3675 6.02438E-05-1.90483E-05-1.75645E-05 1.89341E-05-6.84628E-19-1.80259E-19
 -1      3676 6.17002E-05-1.74445E-05-1.87823E-05 1.45794E-05-6.99279E-19-1.02253E-18
 -1      3677 7.67231E-05-2.87753E-05-2.03002E-05 2.50019E-05-2.52355E-18-1.00649E-18
 -1      3678 9.20547E-05-2.46964E-05-2.88727E-05 1.11425E-06 2.47079E-19-6.65535E-19
 -1      3679 9.22477E-05-2.48306E-05-2.88936E-05 1.62184E-06 4.45096E-19 2.02820E-19
 -1      3680 9.20348E-05-2.46559E-05-2.88689E-05 2.03914E-06 5.57591E-19 9.72108E-19
 -1      3681 9.15796E-05-2.43568E-05-2.88011E-05 8.36541E-07 1.45531E-18-9.11379E-19
 -1      3682 1.16948E-04-5.09765E-05-2.82365E-05 1.28723E-05 1.08780E-18-3.55542E-19
 -1      3683 1.13654E-04-5.15708E-05-2.65509E-05 1.96447E-05 4.24668E-19-1.76412E-19
 -1      3684 1.06741E-04-4.71107E-05-2.54987E-05 2.12970E-05 1.75333E-19 3.88312E-20
 -1      3685 1.12107E-04-4.71317E-05-2.77433E-05 1.28022E-05 7.59082E-19 4.46479E-20
 -1      3686 9.62699E-05-2.68633E-05-2.97435E-05-2.86954E-08-3.15413E-19-7.94081E-19
 -1      3687 9.63274E-05-2.73001E-05-2.95877E-05 3.21887E-07-4.69918E-19-8.05459E-19
 -1      3688 9.63735E-05-2.76624E-05-2.94448E-05 5.37158E-07-5.93566E-19-7.70678E-19
 -1      3689 9.63547E-05-2.79221E-05-2.93309E-05 7.73454E-07-6.82045E-19-7.17342E-19
 -1      3690 9.64237E-05-2.73341E-05-2.96089E-05 3.37461E-07-5.30538E-19-5.96540E-19
 -1      3691 9.63061E-05-2.81082E-05-2.92257E-05 9.26323E-07-6.25424E-19-7.31075E-19
 -1      3692 9.62305E-05-2.82251E-05-2.91462E-05 1.09324E-06-5.21211E-19-7.73933E-19
 -1      3693 9.64214E-05-2.79228E-05-2.93564E-05 7.19026E-07-6.39631E-19-8.40181E-19
 -1      3694 9.61130E-05-2.82783E-05-2.90713E-05 1.20731E-06-4.81385E-19-7.22402E-19
 -1      3695 9.60001E-05-2.82881E-05-2.90190E-05 1.33672E-06-2.61326E-19-8.68091E-19
 -1      3696 9.62556E-05-2.81873E-05-2.91721E-05 9.96384E-07-5.22956E-19-8.36462E-19
 -1      3697 9.58310E-05-2.82412E-05-2.89679E-05 1.43445E-06-1.80016E-19-1.03885E-18
 -1      3698 9.56908E-05-2.81698E-05-2.89361E-05 1.55240E-06-2.75541E-19-8.91422E-19
 -1      3699 9.59713E-05-2.82063E-05-2.90420E-05 1.21617E-06-2.48700E-19-1.04006E-18
 -1      3700 9.54804E-05-2.80467E-05-2.89023E-05 1.65406E-06-4.05226E-19-7.52753E-19
 -1      3701 9.53183E-05-2.79141E-05-2.88852E-05 1.78169E-06-4.64083E-19-8.43887E-19
 -1      3702 9.55948E-05-2.80364E-05-2.89531E-05 1.42055E-06-3.45188E-19-1.02555E-18
 -1      3703 9.50713E-05-2.77331E-05-2.88627E-05 1.90448E-06-3.76875E-19-9.16540E-19
 -1      3704 9.48902E-05-2.75559E-05-2.88546E-05 2.05901E-06-1.61798E-19-9.25751E-19
 -1      3705 9.51410E-05-2.77216E-05-2.88928E-05 1.64583E-06-2.64390E-19-7.48418E-19
 -1      3706 9.46089E-05-2.73328E-05-2.88374E-05 2.21795E-06-2.21869E-20-1.23269E-18
 -1      3707 9.44118E-05-2.71271E-05-2.88328E-05 2.41334E-06-7.95854E-20-1.19418E-18
 -1      3708 9.46167E-05-2.72978E-05-2.88490E-05 1.92369E-06-2.58611E-19-1.07271E-18
 -1      3709 9.40979E-05-2.68780E-05-2.88145E-05 2.62202E-06-1.63264E-19-9.40576E-19
 -1      3710 9.38898E-05-2.66623E-05-2.88075E-05 2.86978E-06-1.72426E-19-7.47165E-19
 -1      3711 9.40252E-05-2.67982E-05-2.88088E-05 2.28250E-06 5.41305E-20-8.83768E-19
 -1      3712 9.35469E-05-2.64072E-05-2.87813E-05 3.14154E-06-5.67857E-19-7.68037E-19
 -1      3713 9.33385E-05-2.62059E-05-2.87658E-05 3.45147E-06-6.76849E-19-6.69855E-19
 -1      3714 9.33714E-05-2.62597E-05-2.87587E-05 2.74936E-06-3.45221E-19-8.60908E-19
 -1      3715 9.29758E-05-2.59723E-05-2.87239E-05 3.80056E-06-4.55573E-19-5.84275E-19
 -1      3716 9.27869E-05-2.58201E-05-2.86931E-05 4.18134E-06-1.38707E-19-5.91978E-19
 -1      3717 9.26672E-05-2.57295E-05-2.86837E-05 3.35286E-06-5.24038E-19-5.71650E-19
 -1      3718 9.24232E-05-2.56466E-05-2.86274E-05 4.62432E-06 3.53044E-20-7.26470E-19
 -1      3719 9.22889E-05-2.55931E-05-2.85743E-05 5.08397E-06 1.39820E-19-4.01896E-19
 -1      3720 9.19387E-05-2.52734E-05-2.85673E-05 4.12611E-06-2.14636E-19-1.64456E-19
 -1      3721 9.19586E-05-2.55355E-05-2.84760E-05 5.64118E-06 3.56635E-19-5.12486E-19
 -1      3722 9.19367E-05-2.56507E-05-2.83946E-05 6.18673E-06 3.26608E-19-1.72970E-20
 -1      3723 9.12364E-05-2.49848E-05-2.83916E-05 5.11044E-06 4.38473E-19-6.80215E-19
 -1      3724 9.16983E-05-2.57867E-05-2.82556E-05 6.88305E-06 3.19516E-19 2.66256E-19
 -1      3725 9.18799E-05-2.61673E-05-2.81427E-05 7.51799E-06 5.03519E-19 9.42199E-20
 -1      3726 9.06488E-05-2.49960E-05-2.81384E-05 6.35937E-06 4.11534E-19-1.30077E-19
 -1      3727 9.18305E-05-2.66036E-05-2.79584E-05 8.38000E-06 1.64261E-19-1.67584E-19
 -1      3728 9.23532E-05-2.73779E-05-2.78178E-05 9.09541E-06 2.86746E-19-3.29569E-19
 -1      3729 9.03240E-05-2.54938E-05-2.77928E-05 7.93972E-06 2.81189E-19-2.05569E-19
 -1      3730 9.26477E-05-2.82553E-05-2.75915E-05 1.01444E-05 5.70029E-19-4.87580E-19
 -1      3731 9.37175E-05-2.95911E-05-2.74429E-05 1.08957E-05 8.03127E-19-3.42267E-19
 -1      3732 9.05008E-05-2.67333E-05-2.73499E-05 9.92218E-06 4.51606E-19-1.06957E-19
 -1      3733 9.46196E-05-3.10988E-05-2.71973E-05 1.21113E-05 9.86140E-19-7.65666E-19
 -1      3734 9.64973E-05-3.31716E-05-2.70897E-05 1.27749E-05 5.68046E-19-4.54064E-19
 -1      3735 9.15555E-05-2.90700E-05-2.68274E-05 1.23696E-05 5.25803E-19-1.06677E-18
 -1      3736 9.84061E-05-3.55122E-05-2.68912E-05 1.38518E-05 2.47804E-19-5.33469E-19
 -1      3737 1.01226E-04-3.82977E-05-2.69266E-05 1.40783E-05-7.75068E-20-5.93797E-19
 -1      3738 9.43328E-05-3.31822E-05-2.63180E-05 1.51964E-05 3.74923E-19-1.46281E-18
 -1      3739 1.04307E-04-4.10680E-05-2.69906E-05 1.45110E-05-2.30247E-19-5.61139E-19
 -1      3740 1.08179E-04-4.42926E-05-2.73576E-05 1.36534E-05 8.22548E-20-1.82145E-19
 -1      3741 1.06148E-04-4.46777E-05-2.64409E-05 1.74724E-05 5.26007E-19-2.95701E-20
 -1      3742 9.88954E-05-3.81839E-05-2.61035E-05 1.70274E-05-1.89209E-20-1.08337E-18
 -1      3743 1.21323E-04-3.90050E-05-3.54996E-05-1.06617E-05 5.28826E-19 5.27357E-19
 -1      3744 9.38193E-05-2.08405E-05-3.12870E-05-2.05874E-07 4.57840E-19-1.90496E-18
 -1      3745 9.38710E-05-2.09447E-05-3.12690E-05-7.71991E-07 2.83976E-19-1.97213E-18
 -1      3746 9.45243E-05-2.20783E-05-3.10303E-05 1.26622E-08 4.95781E-19-1.80395E-18
 -1      3747 1.20969E-04-3.42533E-05-3.72639E-05-1.35160E-05 8.16593E-20 3.73674E-19
 -1      3748 6.79611E-05-1.95391E-05-2.05518E-05-1.67326E-05-5.93866E-19 1.09478E-18
 -1      3749 7.66533E-05-2.57289E-05-2.18506E-05-2.09466E-05-1.31878E-18 9.68662E-19
 -1      3750 9.34404E-05-2.60138E-05-2.89049E-05-3.64318E-06 5.62936E-19 1.19189E-18
 -1      3751 1.02649E-04-3.96581E-05-2.69718E-05-1.42461E-05 4.27639E-19-1.31826E-18
 -1      3752 9.95643E-05-3.66484E-05-2.68921E-05-1.41459E-05 9.01217E-19-9.20738E-19
 -1      3753 9.74185E-05-3.41517E-05-2.70643E-05-1.30649E-05 3.82081E-19-9.56323E-19
 -1      3754 9.53569E-05-3.19275E-05-2.71533E-05-1.24935E-05 1.82427E-19-8.81054E-19
 -1      3755 9.52241E-05-3.41413E-05-2.62461E-05-1.56931E-05 2.75269E-20-2.00666E-18
 -1      3756 9.42719E-05-3.02422E-05-2.73986E-05-1.12787E-05 2.20072E-19-5.33905E-19
 -1      3757 9.30619E-05-2.87647E-05-2.75468E-05-1.05392E-05 6.01307E-19-2.48958E-19
 -1      3758 9.21090E-05-2.97892E-05-2.67535E-05-1.29118E-05 5.74674E-19-2.08461E-18
 -1      3759 9.26563E-05-2.77601E-05-2.77821E-05-9.45950E-06 4.56978E-19-3.34357E-19
 -1      3760 9.20360E-05-2.68711E-05-2.79297E-05-8.72986E-06 7.01425E-20-8.05457E-19
 -1      3761 9.07627E-05-2.71414E-05-2.72886E-05-1.03997E-05 1.78731E-19-1.67940E-18
 -1      3762 9.20189E-05-2.63386E-05-2.81273E-05-7.82941E-06-9.28863E-19-7.37108E-19
 -1      3763 9.17720E-05-2.58670E-05-2.82516E-05-7.16976E-06-1.43764E-18-9.86435E-19
 -1      3764 9.04170E-05-2.56723E-05-2.77566E-05-8.32521E-06-4.22114E-19-2.26675E-18
 -1      3765 9.19649E-05-2.56502E-05-2.84061E-05-6.43441E-06-7.56147E-19-4.44454E-21
 -1      3766 9.19405E-05-2.54579E-05-2.85010E-05-5.85513E-06-6.23868E-19-8.69207E-19
 -1      3767 9.06361E-05-2.49967E-05-2.81331E-05-6.65856E-06-8.40326E-19-1.56063E-18
 -1      3768 9.22376E-05-2.54438E-05-2.86159E-05-5.25795E-06-4.58737E-19-9.37497E-20
 -1      3769 9.23345E-05-2.54249E-05-2.86838E-05-4.75717E-06 2.48865E-20 8.89438E-20
 -1      3770 9.11490E-05-2.48308E-05-2.84196E-05-5.32303E-06 1.40202E-20-3.54713E-19
 -1      3771 9.26698E-05-2.55339E-05-2.87666E-05-4.26914E-06 5.76437E-19-6.21206E-19
 -1      3772 9.28391E-05-2.56128E-05-2.88147E-05-3.84576E-06 8.30842E-19-4.71510E-19
 -1      3773 9.17860E-05-2.49760E-05-2.86300E-05-4.25503E-06-4.05911E-19-2.34025E-18
 -1      3774 9.44285E-05-2.70508E-05-2.88737E-05-2.50422E-06 5.34671E-19-1.07788E-18
 -1      3775 9.46383E-05-2.72986E-05-2.88652E-05-2.30923E-06 6.57379E-19-7.66804E-19
 -1      3776 9.10611E-05-2.40608E-05-2.87134E-05-4.91796E-06-7.11373E-20-2.63043E-22
 -1      3777 9.15377E-05-2.44666E-05-2.87589E-05-4.47548E-06 9.09367E-20-1.60739E-19
 -1      3778 9.21720E-05-2.49283E-05-2.88174E-05-4.13004E-06 1.82574E-19-5.63593E-20
 -1      3779 9.25625E-05-2.53113E-05-2.88333E-05-3.75978E-06 1.02191E-19-1.14185E-19
 -1      3780 9.11968E-05-2.42538E-05-2.86760E-05-3.80027E-06 1.47807E-19 3.15098E-19
 -1      3781 8.81297E-05-2.23602E-05-2.81832E-05-7.00370E-06-6.83700E-19-3.75969E-19
 -1      3782 8.87787E-05-2.26956E-05-2.83446E-05-6.36772E-06-3.76545E-19-4.88541E-20
 -1      3783 8.63135E-05-2.17670E-05-2.76528E-05-8.45083E-06-2.09297E-19-8.38965E-19
 -1      3784 8.70003E-05-2.19453E-05-2.79118E-05-7.65252E-06-2.91118E-19-5.65501E-19
 -1      3785 8.60647E-05-2.12620E-05-2.77425E-05-6.33427E-06-2.45257E-19-3.14944E-19
 -1      3786 8.43531E-05-2.16410E-05-2.68511E-05-1.03961E-05 4.28612E-20-1.35809E-18
 -1      3787 8.49750E-05-2.15110E-05-2.72412E-05-9.33591E-06 1.04857E-19-7.04336E-19
 -1      3788 8.36138E-05-2.04525E-05-2.70316E-05-7.69976E-06-9.68740E-20-9.96878E-19
 -1      3789 8.24561E-05-2.23970E-05-2.56842E-05-1.31998E-05 1.35418E-19-2.66118E-18
 -1      3790 8.27960E-05-2.16974E-05-2.62417E-05-1.17079E-05 2.54326E-19-2.07200E-18
 -1      3791 8.07143E-05-1.99938E-05-2.59706E-05-9.67011E-06 5.94957E-19-1.99090E-18
 -1      3792 8.10453E-05-2.48199E-05-2.40277E-05-1.75089E-05-4.93120E-19-2.66413E-18
 -1      3793 8.06887E-05-2.29859E-05-2.47918E-05-1.52397E-05-4.30253E-19-2.78235E-18
 -1      3794 7.73877E-05-2.02169E-05-2.44064E-05-1.27448E-05 5.10842E-20-1.85009E-18
 -1      3795 8.77581E-05-2.21627E-05-2.81397E-05 7.12367E-06 8.32291E-19 6.49147E-19
 -1      3796 8.70814E-05-2.19260E-05-2.79171E-05 7.86077E-06 6.51223E-19 1.59666E-19
 -1      3797 8.36974E-05-2.15340E-05-2.66947E-05 1.07306E-05 2.91809E-19 6.87618E-19
 -1      3798 8.31930E-05-2.19859E-05-2.62037E-05 1.20396E-05 5.50179E-19 4.20534E-19
 -1      3799 8.58268E-05-2.16066E-05-2.75611E-05 8.64698E-06 8.69422E-19 2.41091E-19
 -1      3800 8.51659E-05-2.16055E-05-2.72229E-05 9.59618E-06 8.82842E-19 3.95341E-19
 -1      3801 8.46608E-05-2.07050E-05-2.73748E-05 7.13345E-06 7.80459E-19 1.03084E-18
 -1      3802 1.14797E-04-4.85182E-05-2.82918E-05-1.11901E-05-9.07258E-19-3.45627E-18
 -1      3803 9.08038E-05-2.37633E-05-2.87484E-05 4.91749E-06-7.69286E-19 2.49089E-18
 -1      3804 9.02803E-05-2.33870E-05-2.86672E-05 5.42849E-06 7.85670E-19 1.91094E-18
 -1      3805 9.19058E-05-2.45377E-05-2.88855E-05 4.04693E-06 2.77468E-19 1.53692E-18
 -1      3806 9.14976E-05-2.41911E-05-2.88433E-05 4.51083E-06-9.82111E-19 1.83636E-18
 -1      3807 9.03698E-05-2.34571E-05-2.86599E-05 4.12630E-06 1.68583E-20 3.42315E-18
 -1      3808 9.42950E-05-2.18205E-05-3.10728E-05-1.75042E-06-5.67618E-20-1.75105E-18
 -1      3809 9.51304E-05-2.35271E-05-3.06713E-05-1.56305E-06-1.10668E-19-1.56824E-18
 -1      3810 9.41479E-05-2.15187E-05-3.11355E-05-1.25581E-06 2.06557E-19-1.87526E-18
 -1      3811 9.52330E-05-2.39548E-05-3.05306E-05 2.14260E-06 1.22609E-18-1.33261E-18
 -1      3812 9.46030E-05-2.25516E-05-3.08933E-05 2.50433E-06 1.24692E-18-1.39007E-18
 -1      3813 9.58383E-05-2.82358E-05-2.89728E-05-1.25933E-06 5.43341E-19-1.24039E-18
 -1      3814 9.58737E-05-2.81000E-05-2.90426E-05-1.04397E-06 6.25771E-19-1.17494E-18
 -1      3815 9.60409E-05-2.79796E-05-2.91713E-05-9.07082E-07 6.46683E-19-1.25911E-18
 -1      3816 9.60026E-05-2.82292E-05-2.90480E-05-1.24104E-06 6.35167E-19-1.34861E-18
 -1      3817 9.33944E-05-2.56980E-05-2.90199E-05 2.94805E-06-8.35772E-19-2.58511E-19
 -1      3818 9.43878E-05-2.20562E-05-3.10054E-05 2.10694E-06 1.09961E-18-1.43419E-18
 -1      3819 8.15474E-05-2.23369E-05-2.54310E-05 1.36600E-05 2.04830E-19-4.37619E-19
 -1      3820 8.13988E-05-2.36162E-05-2.47394E-05 1.55973E-05-7.97364E-19-7.93439E-19
 -1      3821 7.89393E-05-2.01173E-05-2.51008E-05 1.15566E-05-4.91089E-19 5.36344E-21
 -1      3822 6.22957E-05-1.78123E-05-1.90478E-05-1.54490E-05 1.89444E-19-3.12121E-18
 -1      3823 6.84173E-05-2.24279E-05-1.94347E-05-2.17326E-05-2.88415E-19-2.90553E-18
 -1      3824 7.63456E-05-2.58321E-05-2.15018E-05-2.15357E-05-6.61771E-19-2.38542E-18
 -1      3825 8.97186E-05-2.31754E-05-2.85171E-05-5.85976E-06 5.31116E-20-1.87553E-19
 -1      3826 9.02867E-05-2.35736E-05-2.86092E-05-5.33326E-06 3.42464E-19 1.11245E-19
 -1      3827 8.81126E-05-2.22402E-05-2.82073E-05-5.30939E-06-3.07308E-19-1.84337E-21
 -1      3828 1.10847E-04-1.37092E-05-4.19555E-05 7.27511E-07-9.44442E-19-3.45102E-18
 -1      3829 1.03305E-04-4.34534E-05-2.56191E-05 1.97378E-05 9.41269E-19 3.03683E-19
 -1      3830 9.49203E-05-2.30430E-05-3.07901E-05 1.50854E-06 1.01327E-18-1.39293E-18
 -1      3831 1.09558E-04-4.69129E-05-2.70060E-05-1.59966E-05-2.46156E-19-1.71030E-18
 -1      3832 1.10441E-04-4.58014E-05-2.77112E-05-1.27099E-05-3.87643E-19-2.47552E-18
 -1      3833 1.06496E-04-4.26007E-05-2.72304E-05-1.38684E-05 8.59838E-20-1.93700E-18
 -1      3834 1.02712E-04-4.29036E-05-2.54395E-05-2.01936E-05 6.86097E-20-1.03409E-18
 -1      3835 9.28812E-05-2.52923E-05-2.89712E-05 3.05903E-06-1.27846E-19-9.27199E-20
 -1      3836 8.65895E-05-3.25436E-05-2.30793E-05-2.29109E-05-8.27313E-20 1.43036E-19
 -1      3837 9.54753E-05-3.88845E-05-2.43553E-05-2.25320E-05-1.70214E-19-6.83172E-19
 -1      3838 9.25505E-05-2.50086E-05-2.89482E-05 3.42950E-06 6.08846E-19 6.69840E-19
 -1      3839 6.02563E-05-1.39226E-05-1.97211E-05-4.19617E-06 3.52958E-19 1.06274E-18
 -1      3840 6.27315E-05-1.61522E-05-1.99973E-05-1.12756E-05-2.39346E-19 1.65224E-18
 -1      3841 8.94133E-05-2.29363E-05-2.85145E-05 5.93500E-06 1.87017E-18 9.53183E-19
 -1      3842 8.88096E-05-2.25982E-05-2.83751E-05 6.52787E-06 1.75287E-18 6.53439E-19
 -1      3843 8.69507E-05-2.15644E-05-2.79912E-05 5.89895E-06 1.44718E-18-2.16643E-19
 -1      3844 8.88111E-05-2.24857E-05-2.83968E-05 4.92049E-06 2.98746E-19 1.97177E-18
 -1      3845 9.17022E-05-2.44167E-05-2.88377E-05 3.17067E-06 6.60768E-19 9.21245E-19
 -1      3846 7.91764E-05-2.46292E-05-2.34018E-05-1.70842E-05-1.47956E-18 2.39049E-19
 -1      3847 8.26868E-05-2.86213E-05-2.30813E-05-2.07508E-05-1.32046E-18-1.27208E-18
 -1      3848 8.78558E-05-3.08983E-05-2.44518E-05-1.88981E-05-7.26182E-19-2.11697E-18
 -1      3849 1.13886E-04-1.48242E-05-4.27773E-05-5.67234E-06-1.80476E-18-3.21772E-18
 -1      3850 6.97117E-05-1.86107E-05-2.17161E-05-1.21155E-05-9.41927E-19 1.10775E-18
 -1      3851 8.98062E-05-2.32628E-05-2.85004E-05-4.48669E-06 5.23212E-20 4.98079E-20
 -1      3852 9.27855E-05-2.55382E-05-2.88154E-05-3.58156E-06 5.20714E-19-1.32359E-18
 -1      3853 1.00987E-04-4.01042E-05-2.62346E-05-1.71207E-05 5.39712E-19-9.74690E-19
 -1      3854 9.40792E-05-2.67395E-05-2.88670E-05-2.69000E-06 3.49964E-19-8.38389E-19
 -1      3855 9.40301E-05-2.66945E-05-2.88532E-05-2.34515E-06 4.82864E-19-9.92397E-19
 -1      3856 9.38224E-05-2.64413E-05-2.88754E-05-2.93588E-06 2.54685E-19-1.00453E-18
 -1      3857 9.59548E-05-2.82991E-05-2.89949E-05-1.43214E-06-8.57521E-20-1.10436E-18
 -1      3858 9.60501E-05-2.82817E-05-2.90425E-05-1.29367E-06 1.85477E-19-1.21848E-18
 -1      3859 9.54017E-05-2.80681E-05-2.88575E-05-1.99666E-06 3.61244E-20-8.62092E-20
 -1      3860 9.49273E-05-2.75516E-05-2.88728E-05-2.16272E-06 3.11703E-19-8.21048E-19
 -1      3861 9.51009E-05-2.77455E-05-2.88703E-05-2.00763E-06 4.48947E-20-7.18110E-19
 -1      3862 9.46606E-05-2.72823E-05-2.88733E-05-2.02659E-06 4.97061E-19-9.01227E-19
 -1      3863 9.10693E-05-2.41201E-05-2.86910E-05-8.63870E-07 2.53880E-18-1.35481E-18
 -1      3864 9.09510E-05-2.40230E-05-2.86925E-05-2.24665E-07 2.70965E-18-3.41521E-18
 -1      3865 7.83331E-05-2.52880E-05-2.27499E-05-1.96864E-05-5.93730E-19-2.53242E-18
 -1      3866 7.27537E-05-2.06506E-05-2.21271E-05-1.65456E-05-6.52626E-19-2.56853E-18
 -1      3867 9.60340E-05-2.66361E-05-2.97513E-05 2.56799E-07 6.54625E-19-1.16094E-18
 -1      3868 9.59223E-05-2.60300E-05-2.99464E-05 7.74337E-07 7.91090E-19-1.13920E-18
 -1      3869 9.55304E-05-2.49290E-05-3.02655E-05 1.43061E-06 1.00231E-18-1.25015E-18
 -1      3870 6.90269E-05-1.83767E-05-2.16921E-05 1.24551E-05 3.75703E-19-2.29923E-19
 -1      3871 6.27016E-05-1.57220E-05-1.99132E-05 1.06217E-05 8.43724E-20-1.30483E-18
 -1      3872 6.25923E-05-1.48280E-05-2.04832E-05 5.29439E-06 4.01772E-19-1.92922E-18
 -1      3873 7.63346E-05-2.64187E-05-2.14273E-05 2.23640E-05-2.07380E-18-1.23468E-18
 -1      3874 8.19300E-05-2.00966E-05-2.64562E-05 8.86448E-06 4.06654E-19 3.51878E-19
 -1      3875 9.54290E-05-2.41807E-05-3.05343E-05-9.39482E-07 6.39763E-20-1.43698E-18
 -1      3876 9.55020E-05-2.44843E-05-3.04430E-05-1.19657E-06-7.08922E-20-1.47496E-18
 -1      3877 9.58287E-05-2.53052E-05-3.02159E-05-7.87020E-07-8.45126E-20-1.26991E-18
 -1      3878 9.47690E-05-2.26253E-05-3.09031E-05-8.35526E-07 1.66488E-19-1.85692E-18
 -1      3879 7.45798E-05-1.99506E-05-2.32217E-05 1.48316E-05-1.38735E-18-2.33485E-18
 -1      3880 7.92162E-05-2.39872E-05-2.37594E-05 1.75320E-05-8.33752E-19-1.41914E-18
 -1      3881 7.90028E-05-2.52595E-05-2.29000E-05 1.94791E-05-1.46682E-18-1.57780E-18
 -1      3882 9.32242E-05-2.58129E-05-2.88940E-05-3.15591E-06 8.22703E-19-1.36400E-18
 -1      3883 8.05341E-05-2.68644E-05-2.27700E-05 2.04252E-05 8.86233E-19 6.73219E-19
 -1      3884 7.63135E-05-2.34718E-05-2.26918E-05 1.72241E-05 8.32865E-19 5.22381E-19
 -1      3885 9.61681E-05-2.71475E-05-2.95739E-05-1.01455E-07 6.86054E-19-1.17877E-18
 -1      3886 9.61651E-05-2.66418E-05-2.97957E-05 1.44250E-07 7.97428E-19-1.27485E-18
 -1      3887 9.61895E-05-2.75227E-05-2.94321E-05-4.56035E-07 6.82166E-19-1.31042E-18
 -1      3888 9.58019E-05-2.82588E-05-2.89475E-05-1.53675E-06-9.91261E-20-9.47689E-19
 -1      3889 9.59594E-05-2.82245E-05-2.90295E-05-1.33459E-06-1.03884E-19-9.61136E-19
 -1      3890 9.56817E-05-2.81931E-05-2.89222E-05-1.65878E-06-4.96298E-20-6.74135E-19
 -1      3891 9.13178E-05-2.43569E-05-2.87067E-05-1.56092E-06 1.79135E-18 1.08281E-18
 -1      3892 9.07283E-05-2.39372E-05-2.86182E-05-1.38277E-06 2.57953E-18-9.99160E-19
 -1      3893 9.16495E-05-2.46053E-05-2.87288E-05-2.11646E-06 1.44721E-18 1.65131E-18
 -1      3894 8.81215E-05-3.21709E-05-2.40311E-05 2.02286E-05 1.04111E-18 5.81131E-19
 -1      3895 6.10808E-05-1.40057E-05-2.00689E-05 3.56663E-06-4.46836E-19-3.67268E-19
 -1      3896 6.02900E-05-1.37737E-05-1.98250E-05-1.25657E-06 5.98932E-19-1.58977E-19
 -1      3897 6.42143E-05-1.46583E-05-2.13504E-05-3.42448E-06-9.72806E-19 8.59540E-19
 -1      3898 9.51027E-05-2.34030E-05-3.07402E-05 7.87199E-07 7.58520E-19-1.71125E-18
 -1      3899 9.50445E-05-2.32342E-05-3.07831E-05 4.52194E-07 6.59308E-19-1.78754E-18
 -1      3900 6.06943E-05-1.50354E-05-1.92561E-05-1.00666E-05 4.28387E-19-3.95347E-18
 -1      3901 6.65553E-05-1.78263E-05-2.08049E-05-1.31669E-05 2.01680E-19-3.28223E-18
 -1      3902 6.09073E-05-1.43076E-05-1.99897E-05-3.92119E-06 6.04636E-19-2.98242E-18
 -1      3903 9.89206E-05-3.93004E-05-2.54715E-05-1.90236E-05 4.76985E-20-1.00338E-18
 -1      3904 9.60273E-05-2.59828E-05-3.00224E-05-4.15433E-07-1.49159E-19-1.13621E-18
 -1      3905 9.61323E-05-2.60758E-05-3.00259E-05-2.70620E-07-8.49404E-20-1.04222E-18
 -1      3906 9.11762E-05-2.40748E-05-2.87582E-05 2.42807E-06 1.18061E-18 8.21054E-19
 -1      3907 9.04408E-05-2.35590E-05-2.86652E-05 3.01485E-06 6.06365E-19 9.24787E-19
 -1      3908 9.08464E-05-2.38612E-05-2.87096E-05 1.86035E-06 1.37137E-18 1.47410E-18
 -1      3909 9.27447E-05-2.54683E-05-2.88307E-05-3.17923E-06 1.09742E-18-1.12481E-18
 -1      3910 9.26049E-05-2.53354E-05-2.88230E-05-2.94805E-06 1.49895E-18-1.07535E-18
 -1      3911 9.21336E-05-2.49945E-05-2.87842E-05-2.53762E-06 8.97333E-19 1.28845E-18
 -1      3912 9.20750E-05-2.50358E-05-2.87337E-05-3.35398E-06 1.18421E-19-1.22992E-18
 -1      3913 9.30811E-05-2.57299E-05-2.88630E-05-3.47371E-06 1.31597E-19-3.54217E-19
 -1      3914 9.33978E-05-2.60744E-05-2.88619E-05-3.16882E-06 1.76509E-19-6.56990E-19
 -1      3915 9.32658E-05-2.59878E-05-2.88261E-05-2.74001E-06-4.68305E-20-5.87977E-19
 -1      3916 9.23348E-05-2.51701E-05-2.87747E-05-3.22215E-06-1.26867E-19 1.99891E-19
 -1      3917 9.07360E-05-2.38366E-05-2.86726E-05 4.39538E-07 1.95113E-18-1.60971E-18
 -1      3918 9.08278E-05-2.38899E-05-2.86980E-05 1.08745E-06 1.63364E-18 3.17194E-19
 -1      3919 8.99008E-05-2.32656E-05-2.85632E-05 1.46425E-06 9.05317E-19 1.39119E-18
 -1      3920 9.02325E-05-2.35245E-05-2.85810E-05-1.14889E-09 2.11766E-18-1.73125E-18
 -1      3921 9.65169E-05-2.77670E-05-2.94645E-05 4.99007E-07-7.39187E-19-9.75503E-19
 -1      3922 9.64709E-05-2.79812E-05-2.93544E-05 6.63407E-07-7.34063E-19-1.09081E-18
 -1      3923 9.63825E-05-2.81209E-05-2.92547E-05 7.55419E-07-5.25828E-19-1.04569E-18
 -1      3924 9.62656E-05-2.81910E-05-2.91757E-05 8.78976E-07-3.62115E-19-1.09159E-18
 -1      3925 9.64723E-05-2.79804E-05-2.93525E-05 5.50688E-07-5.97481E-19-1.19752E-18
 -1      3926 9.61002E-05-2.81950E-05-2.91028E-05 9.53356E-07-1.93533E-19-1.10876E-18
 -1      3927 9.59312E-05-2.81530E-05-2.90476E-05 1.05795E-06-2.02527E-19-1.16362E-18
 -1      3928 9.62184E-05-2.81350E-05-2.91774E-05 7.20825E-07-2.79993E-19-1.02887E-18
 -1      3929 9.57047E-05-2.80534E-05-2.89951E-05 1.13032E-06-1.75487E-19-1.10460E-18
 -1      3930 9.54939E-05-2.79248E-05-2.89573E-05 1.23491E-06-6.36938E-20-8.91905E-19
 -1      3931 9.58288E-05-2.80434E-05-2.90496E-05 8.69828E-07-8.10888E-20-7.38474E-19
 -1      3932 9.52150E-05-2.77447E-05-2.89188E-05 1.31910E-06-2.21590E-19-7.73745E-19
 -1      3933 9.49675E-05-2.75491E-05-2.88922E-05 1.43958E-06-4.53876E-19-8.53264E-19
 -1      3934 9.53271E-05-2.77584E-05-2.89561E-05 1.02552E-06-1.29443E-19-9.50666E-19
 -1      3935 9.46382E-05-2.73056E-05-2.88612E-05 1.54896E-06-2.47435E-19-9.34587E-19
 -1      3936 9.43563E-05-2.70599E-05-2.88395E-05 1.70000E-06 1.55638E-19-7.30546E-19
 -1      3937 9.47236E-05-2.73215E-05-2.88841E-05 1.21200E-06-1.91286E-19-7.94801E-19
 -1      3938 9.39769E-05-2.67693E-05-2.88090E-05 1.84713E-06 1.52016E-19-1.01620E-18
 -1      3939 9.36619E-05-2.64901E-05-2.87857E-05 2.04191E-06-1.15867E-19-9.92662E-19
 -1      3940 9.40209E-05-2.67659E-05-2.88198E-05 1.45589E-06 1.28349E-19-8.47814E-19
 -1      3941 9.32302E-05-2.61686E-05-2.87481E-05 2.24071E-06-3.14825E-19-8.98630E-19
 -1      3942 9.28858E-05-2.58755E-05-2.87157E-05 2.49282E-06-3.62773E-19-9.29257E-19
 -1      3943 9.32160E-05-2.61241E-05-2.87486E-05 1.78181E-06-2.33396E-19-1.37398E-18
 -1      3944 9.24010E-05-2.55435E-05-2.86625E-05 2.75988E-06-2.95909E-19-8.49516E-19
 -1      3945 9.20361E-05-2.52626E-05-2.86130E-05 3.08463E-06-2.01033E-19-6.19940E-19
 -1      3946 9.23056E-05-2.54316E-05-2.86538E-05 2.22015E-06-2.13604E-19-9.00088E-19
 -1      3947 9.15009E-05-2.49476E-05-2.85343E-05 3.44119E-06-3.48861E-19-4.60339E-19
 -1      3948 9.11339E-05-2.47157E-05-2.84587E-05 3.85751E-06-2.10948E-19-5.27144E-19
 -1      3949 9.12909E-05-2.47340E-05-2.85166E-05 2.80883E-06-3.06275E-19-7.65414E-19
 -1      3950 9.05574E-05-2.44564E-05-2.83430E-05 4.33242E-06 1.32960E-19-2.78408E-19
 -1      3951 9.02219E-05-2.43256E-05-2.82315E-05 4.86524E-06 4.47927E-19-4.30196E-19
 -1      3952 9.01824E-05-2.40937E-05-2.83150E-05 3.59892E-06-1.65996E-19-1.22778E-19
 -1      3953 8.96242E-05-2.41764E-05-2.80659E-05 5.49894E-06 4.33792E-19-4.90250E-19
 -1      3954 8.93781E-05-2.42206E-05-2.79091E-05 6.18157E-06 2.21323E-19-5.90335E-19
 -1      3955 8.90069E-05-2.35977E-05-2.80235E-05 4.66230E-06 3.81222E-19-8.68992E-19
 -1      3956 8.87967E-05-2.42574E-05-2.76794E-05 7.03156E-06 1.28460E-19-7.97141E-19
 -1      3957 8.87363E-05-2.45815E-05-2.74700E-05 7.90627E-06 3.80596E-19-6.48087E-19
 -1      3958 8.78171E-05-2.33677E-05-2.76131E-05 6.10185E-06 1.67926E-19-1.00103E-18
 -1      3959 8.82444E-05-2.49156E-05-2.71627E-05 9.05168E-06 5.61025E-19-3.95588E-19
 -1      3960 8.85142E-05-2.56656E-05-2.69000E-05 1.01653E-05 5.65600E-19-4.02896E-19
 -1      3961 8.67108E-05-2.35787E-05-2.70524E-05 8.06981E-06 6.60139E-19-6.91627E-19
 -1      3962 8.82508E-05-2.64399E-05-2.65066E-05 1.16724E-05 2.58276E-19-3.14379E-19
 -1      3963 8.91985E-05-2.78769E-05-2.62294E-05 1.30513E-05 1.62852E-19-8.33777E-19
 -1      3964 8.59261E-05-2.45183E-05-2.63132E-05 1.07659E-05 4.31215E-19-9.70366E-20
 -1      3965 9.03416E-05-2.37216E-05-2.85559E-05-3.25530E-06 2.73060E-19 4.50378E-19
 -1      3966 9.09792E-05-2.42118E-05-2.86263E-05-2.98003E-06 1.48143E-19 4.11207E-19
 -1      3967 9.50183E-05-2.31592E-05-3.08049E-05 1.90683E-07 5.44132E-19-1.71916E-18
 -1      3968 9.50101E-05-2.31643E-05-3.08051E-05-1.68091E-07 3.94181E-19-1.76581E-18
 -1      3969 9.55246E-05-2.41542E-05-3.05700E-05 2.27357E-07 5.90280E-19-1.65666E-18
 -1      3970 6.93758E-05-1.67604E-05-2.24780E-05-8.18997E-06-1.23080E-18 7.18430E-19
 -1      3971 7.36397E-05-2.01958E-05-2.29772E-05-1.30448E-05-8.69416E-19 1.10585E-18
 -1      3972 9.16741E-05-2.47184E-05-2.86980E-05-2.79706E-06-1.69438E-19 2.57916E-19
 -1      3973 9.21949E-05-2.51628E-05-2.87372E-05-2.56101E-06-3.53893E-19-1.40122E-19
 -1      3974 9.09484E-05-2.41989E-05-2.85930E-05-2.28129E-06-1.78216E-19-2.47391E-19
 -1      3975 9.51550E-05-3.58618E-05-2.52729E-05-1.88885E-05 4.60247E-19-1.08279E-18
 -1      3976 8.95748E-05-2.85736E-05-2.60888E-05-1.37677E-05 2.63628E-19-3.42455E-18
 -1      3977 8.85270E-05-2.69876E-05-2.63929E-05-1.23673E-05 7.32051E-19-3.43829E-18
 -1      3978 8.86992E-05-2.60563E-05-2.68081E-05-1.07118E-05 4.69178E-19-3.55998E-18
 -1      3979 8.83224E-05-2.51801E-05-2.70825E-05-9.57432E-06 3.54788E-19-2.61439E-18
 -1      3980 8.59342E-05-2.48223E-05-2.61774E-05-1.14213E-05 2.93572E-19-5.10441E-18
 -1      3981 8.87601E-05-2.47440E-05-2.74102E-05-8.33232E-06-3.00008E-19-2.33817E-18
 -1      3982 8.87675E-05-2.43310E-05-2.76348E-05-7.42540E-06-1.19780E-18-2.86373E-18
 -1      3983 8.66376E-05-2.36959E-05-2.69624E-05-8.55383E-06 2.12535E-19-4.30055E-18
 -1      3984 8.93107E-05-2.42109E-05-2.78855E-05-6.51173E-06-2.73681E-19-1.75677E-18
 -1      3985 8.95155E-05-2.40844E-05-2.80597E-05-5.79440E-06 4.05843E-19-7.06085E-19
 -1      3986 8.76817E-05-2.33370E-05-2.75665E-05-6.46035E-06 3.24955E-19-2.54071E-18
 -1      3987 9.00942E-05-2.41665E-05-2.82454E-05-5.09951E-06 1.40643E-19-1.04819E-18
 -1      3988 9.03953E-05-2.42268E-05-2.83743E-05-4.53763E-06-1.27427E-19-1.09005E-18
 -1      3989 8.88256E-05-2.34097E-05-2.80208E-05-4.91219E-06 2.15046E-19-6.81612E-19
 -1      3990 9.09578E-05-2.44137E-05-2.85100E-05-3.99999E-06-4.74193E-19-1.40013E-18
 -1      3991 9.12963E-05-2.45742E-05-2.86013E-05-3.55069E-06-9.59588E-19-2.64565E-18
 -1      3992 8.99495E-05-2.37679E-05-2.83518E-05-3.76355E-06-7.30770E-19-1.08187E-18
 -1      3993 9.53408E-05-2.79368E-05-2.88853E-05-1.89040E-06-6.15794E-20-5.51676E-19
 -1      3994 9.54854E-05-2.80710E-05-2.88940E-05-1.76114E-06 6.68965E-20-6.25087E-19
 -1      3995 9.56139E-05-2.80652E-05-2.89491E-05-1.54758E-06-1.10550E-19-1.09112E-18
 -1      3996 9.51832E-05-2.77438E-05-2.89010E-05-1.76790E-06 2.75995E-19-9.39725E-19
 -1      3997 6.96609E-05-1.80662E-05-2.21843E-05-1.19001E-05-2.31008E-19-2.65161E-18
 -1      3998 8.12697E-05-1.94243E-05-2.65155E-05-6.21973E-06 2.28194E-19-1.29948E-18
 -1      3999 8.26509E-05-1.98342E-05-2.69631E-05-5.54530E-06 2.51571E-19-1.01823E-18
 -1      4000 8.42822E-05-2.04231E-05-2.73777E-05-5.16342E-06-8.46359E-20-7.14168E-19
 -1      4001 8.54301E-05-2.09255E-05-2.76734E-05-4.68287E-06-2.21735E-19-4.28986E-19
 -1      4002 8.24015E-05-1.94745E-05-2.69237E-05-3.75396E-06 2.38363E-19-1.01360E-18
 -1      4003 7.32578E-05-1.83301E-05-2.35266E-05-1.02476E-05-2.21964E-19-1.97367E-18
 -1      4004 7.51614E-05-1.82368E-05-2.44905E-05-8.57639E-06 2.49933E-19-2.27404E-18
 -1      4005 6.86216E-05-1.59274E-05-2.24079E-05-6.97904E-06 5.34202E-20-2.94200E-18
 -1      4006 9.56366E-05-2.49614E-05-3.02872E-05 1.14618E-06 9.21053E-19-1.30954E-18
 -1      4007 8.96768E-05-2.30847E-05-2.85544E-05 3.31868E-06 5.50974E-19 1.57934E-18
 -1      4008 8.87142E-05-2.26457E-05-2.83215E-05-3.78220E-06 3.00618E-20 3.37135E-19
 -1      4009 8.94939E-05-2.31679E-05-2.84405E-05-3.46253E-06 3.36109E-19 4.35300E-19
 -1      4010 8.94277E-05-2.31207E-05-2.83986E-05-2.59283E-06 2.69883E-19 4.87311E-19
 -1      4011 7.00558E-05-2.11820E-05-2.07022E-05 1.88420E-05-1.26494E-18-2.80255E-18
 -1      4012 9.62122E-05-2.81859E-05-2.91545E-05-1.09013E-06 8.49141E-20-1.21212E-18
 -1      4013 9.61538E-05-2.82183E-05-2.91158E-05-1.16174E-06 3.94962E-19-1.40884E-18
 -1      4014 8.55604E-05-3.00729E-05-2.35896E-05-2.18525E-05-4.18805E-19-1.91883E-18
 -1      4015 9.51787E-05-2.35984E-05-3.06765E-05 1.03611E-06 8.86304E-19-1.45737E-18
 -1      4016 9.56124E-05-2.44516E-05-3.04825E-05 6.44577E-07 8.01257E-19-1.47833E-18
 -1      4017 8.38503E-05-2.02099E-05-2.73095E-05 5.19091E-06 1.14826E-18 1.05620E-18
 -1      4018 8.25652E-05-1.97698E-05-2.69241E-05 5.78028E-06 4.27852E-19 1.17963E-18
 -1      4019 7.64669E-05-1.83452E-05-2.50173E-05 7.90673E-06-7.59156E-19-1.03454E-18
 -1      4020 7.42432E-05-1.82398E-05-2.41358E-05 9.52465E-06-1.86868E-18-2.02551E-18
 -1      4021 8.67232E-05-2.15269E-05-2.79495E-05-4.39818E-06-4.03741E-19-6.94065E-20
 -1      4022 8.76730E-05-2.20584E-05-2.81408E-05-4.01833E-06-6.65316E-20 2.65039E-21
 -1      4023 8.75680E-05-2.19573E-05-2.80938E-05-2.92762E-06 2.28983E-19 9.02032E-20
 -1      4024 9.54163E-05-2.42279E-05-3.05151E-05 1.29129E-06 9.95848E-19-1.26260E-18
 -1      4025 9.50975E-05-2.33261E-05-3.07586E-05-4.23864E-07 2.78331E-19-1.83272E-18
 -1      4026 9.53313E-05-2.38974E-05-3.06282E-05-7.89940E-07 1.13192E-19-1.72346E-18
 -1      4027 9.57397E-05-2.47625E-05-3.04050E-05-5.04184E-07 7.37849E-20-1.68316E-18
 -1      4028 9.55934E-05-2.42831E-05-3.05423E-05-2.01663E-07 3.42204E-19-1.61241E-18
 -1      4029 8.06662E-05-1.92110E-05-2.63917E-05 6.23923E-06-2.85002E-19 8.78185E-20
 -1      4030 7.91073E-05-1.88807E-05-2.58214E-05 7.12884E-06-3.76301E-19-5.21786E-21
 -1      4031 8.03568E-05-1.87074E-05-2.63624E-05 4.13447E-06-3.11213E-19 3.70597E-19
 -1      4032 9.61255E-05-2.58718E-05-3.01192E-05-2.91842E-07 3.27313E-20-1.53343E-18
 -1      4033 9.63821E-05-2.67126E-05-2.98510E-05 5.08406E-08-1.68043E-19-1.21533E-18
 -1      4034 9.60531E-05-2.55805E-05-3.02067E-05-2.04697E-07 1.23114E-19-1.69749E-18
 -1      4035 7.76821E-05-1.86684E-05-2.53019E-05-7.75503E-06 6.85723E-19-2.07387E-18
 -1      4036 7.93444E-05-1.89198E-05-2.59599E-05-6.71563E-06 5.89881E-19-2.09429E-18
 -1      4037 7.89465E-05-1.82808E-05-2.59357E-05-4.32710E-06 1.15271E-18-1.62503E-18
 -1      4038 7.46708E-05-1.71176E-05-2.45616E-05-5.23850E-06 4.76631E-19-2.28778E-18
 -1      4039 6.46394E-05-1.70726E-05-2.04293E-05 1.23694E-05-8.11325E-19-2.22510E-18
 -1      4040 9.59124E-05-2.53153E-05-3.02615E-05 4.90631E-07 8.81867E-19-1.23581E-18
 -1      4041 9.58713E-05-2.51252E-05-3.03247E-05 3.51617E-07 7.35878E-19-1.53239E-18
 -1      4042 9.64715E-05-2.71343E-05-2.97186E-05 1.80203E-07-3.24646E-19-9.90421E-19
 -1      4043 9.65168E-05-2.75159E-05-2.95728E-05 4.01254E-07-5.49864E-19-9.61941E-19
 -1      4044 9.65562E-05-2.75712E-05-2.95640E-05 3.46731E-07-5.57966E-19-1.36665E-18
 -1      4045 9.64685E-05-2.69196E-05-2.98063E-05 1.14653E-07-1.62723E-19-1.35504E-18
 -1      4046 7.89944E-05-2.37053E-05-2.36533E-05 1.54734E-05 7.14565E-19 7.41518E-19
 -1      4047 7.38037E-05-2.08117E-05-2.25533E-05 1.48540E-05 6.52459E-19 2.23756E-19
 -1      4048 7.16357E-05-1.89098E-05-2.26515E-05 1.13345E-05 4.94068E-19 6.15025E-20
 -1      4049 9.90846E-05-3.98973E-05-2.53360E-05 1.98378E-05 5.11406E-19-7.33709E-20
 -1      4050 9.62168E-05-3.68160E-05-2.53256E-05 1.91161E-05 4.54114E-19-8.75998E-19
 -1      4051 8.91701E-05-3.10560E-05-2.48998E-05 1.76625E-05 5.56269E-19-4.34625E-19
 -1      4052 8.76670E-05-2.86264E-05-2.52748E-05 1.57532E-05 4.76133E-19-3.50584E-19
 -1      4053 9.58506E-05-2.54073E-05-3.01962E-05 6.82637E-07 8.10534E-19-1.20382E-18
 -1      4054 8.40590E-05-2.58649E-05-2.49378E-05 1.49452E-05 3.92089E-19 7.84644E-19
 -1      4055 9.61066E-05-2.59582E-05-3.00565E-05 3.96262E-07 7.87877E-19-1.23653E-18
 -1      4056 9.08527E-05-3.19868E-05-2.51656E-05-1.74274E-05-5.96013E-19-2.29641E-18
 -1      4057 9.61754E-05-2.57848E-05-3.01546E-05 1.52466E-07 6.82177E-19-1.52879E-18
 -1      4058 9.58608E-05-2.50249E-05-3.03669E-05 2.46127E-07 6.37367E-19-1.65026E-18
 -1      4059 9.58396E-05-2.49616E-05-3.03871E-05 5.18059E-08 5.22699E-19-1.59790E-18
 -1      4060 7.59735E-05-1.74045E-05-2.50138E-05 4.90078E-06-1.27027E-18-1.62726E-18
 -1      4061 6.86228E-05-1.56542E-05-2.26808E-05 1.35524E-07-1.79116E-18 2.67338E-19
 -1      4062 7.23949E-05-1.68668E-05-2.37416E-05-1.81263E-06-1.43350E-18-1.42322E-19
 -1      4063 8.89627E-05-2.95044E-05-2.54780E-05-1.57962E-05-8.64176E-19-2.96713E-18
 -1      4064 9.21993E-05-2.51736E-05-2.87151E-05-1.99602E-06-5.04138E-19-1.12339E-19
 -1      4065 9.27675E-05-2.56139E-05-2.87814E-05-2.40245E-06-3.28306E-19-1.09745E-19
 -1      4066 9.31937E-05-2.60047E-05-2.88025E-05-2.20353E-06-4.19387E-20-1.85152E-19
 -1      4067 8.50785E-05-2.64742E-05-2.51020E-05-1.50307E-05-2.81542E-19-2.95067E-18
 -1      4068 9.07309E-05-2.41046E-05-2.85610E-05-2.69394E-06 9.96472E-19-8.85502E-19
 -1      4069 9.15059E-05-2.46126E-05-2.86669E-05-2.96904E-06 2.94788E-19-1.00414E-18
 -1      4070 9.44130E-05-2.70538E-05-2.88678E-05-1.79538E-06 5.01913E-19-6.08427E-19
 -1      4071 9.47028E-05-2.73233E-05-2.88810E-05-1.66012E-06 4.95620E-19-5.52221E-19
 -1      4072 6.34487E-05-1.42235E-05-2.08938E-05 9.53929E-07 5.66566E-19-2.13010E-18
 -1      4073 6.59705E-05-1.51772E-05-2.17670E-05-3.51955E-06 6.28346E-19-3.37831E-18
 -1      4074 6.97044E-05-1.59075E-05-2.31216E-05-2.80404E-06 4.09727E-19-2.47396E-18
 -1      4075 6.75046E-05-1.57789E-05-2.21782E-05 4.55900E-06 8.17643E-19-1.67137E-18
 -1      4076 8.52734E-05-2.07315E-05-2.76268E-05-3.29757E-06-3.00128E-20-1.61441E-19
 -1      4077 8.89344E-05-2.25885E-05-2.84057E-05 2.23777E-06 3.12922E-19 1.14719E-18
 -1      4078 8.86566E-05-2.24778E-05-2.83800E-05 3.41826E-06-4.60587E-20 1.58981E-18
 -1      4079 9.62200E-05-2.77803E-05-2.93271E-05-6.68601E-07 6.98080E-19-1.26388E-18
 -1      4080 9.63252E-05-2.74789E-05-2.95066E-05-4.41057E-07 6.30368E-19-1.21925E-18
 -1      4081 9.62183E-05-2.79719E-05-2.92497E-05-8.72161E-07 6.21825E-19-1.38657E-18
 -1      4082 8.53308E-05-2.07890E-05-2.76702E-05 4.84554E-06 1.71992E-18 4.25797E-19
 -1      4083 8.36445E-05-1.99078E-05-2.72704E-05 3.55956E-06 1.35703E-18 1.77278E-18
 -1      4084 8.63596E-05-2.12668E-05-2.79281E-05 4.39642E-06 1.01450E-18 5.68500E-19
 -1      4085 9.61898E-05-2.81193E-05-2.91704E-05-1.01790E-06 4.52071E-19-1.43889E-18
 -1      4086 6.70715E-05-1.66857E-05-2.15824E-05 8.31729E-06-1.00668E-18-2.17010E-18
 -1      4087 9.62721E-05-2.65802E-05-2.98712E-05 2.66676E-08 7.96168E-19-1.18381E-18
 -1      4088 8.10176E-05-2.33423E-05-2.47757E-05 1.29634E-05 3.67954E-19 7.15897E-19
 -1      4089 9.62527E-05-2.81925E-05-2.91698E-05-9.95255E-07-9.73287E-21-1.10358E-18
 -1      4090 9.63552E-05-2.81079E-05-2.92476E-05-8.54558E-07 2.15348E-19-1.05737E-18
 -1      4091 9.02400E-05-2.36898E-05-2.85171E-05-1.93594E-06 1.63305E-18-9.13441E-19
 -1      4092 8.99256E-05-2.34521E-05-2.84994E-05-1.22275E-06 2.46281E-18-1.82985E-18
 -1      4093 8.99400E-05-2.36077E-05-2.84341E-05-2.56232E-06-1.79085E-22-1.24766E-18
 -1      4094 8.95174E-05-2.31104E-05-2.84528E-05-4.55997E-07 1.76190E-18-1.49748E-18
 -1      4095 8.92550E-05-2.29023E-05-2.84257E-05 2.24550E-07 3.53480E-19 2.65279E-19
 -1      4096 8.89154E-05-2.28344E-05-2.83346E-05-1.05772E-06 8.42724E-19-8.87870E-19
 -1      4097 9.59491E-05-2.81782E-05-2.90450E-05-1.19702E-06-2.59911E-19-9.47760E-19
 -1      4098 9.61022E-05-2.82081E-05-2.90973E-05-1.08210E-06-2.59928E-19-1.06228E-18
 -1      4099 9.62335E-05-2.81411E-05-2.91815E-05-8.58106E-07-1.17055E-19-9.25540E-19
 -1      4100 7.73439E-05-2.21807E-05-2.35604E-05-1.43333E-05-6.23189E-19 2.20009E-18
 -1      4101 8.19367E-05-2.46309E-05-2.45562E-05-1.45643E-05-5.57943E-19-4.48558E-19
 -1      4102 8.26343E-05-2.40197E-05-2.52064E-05-1.28157E-05-1.80852E-19-1.60759E-18
 -1      4103 7.67644E-05-2.04368E-05-2.42042E-05-1.09821E-05-9.17233E-19 1.36123E-18
 -1      4104 9.36680E-05-2.63952E-05-2.88314E-05-2.06985E-06 2.39656E-19-3.50067E-19
 -1      4105 9.40186E-05-2.67276E-05-2.88445E-05-1.90532E-06 4.28714E-19-5.48557E-19
 -1      4106 9.32330E-05-2.60317E-05-2.87933E-05-1.74282E-06-5.62716E-20-1.60425E-19
 -1      4107 9.40913E-05-2.67635E-05-2.88498E-05-1.52463E-06 5.15220E-19-1.86064E-19
 -1      4108 8.77932E-05-2.19744E-05-2.82167E-05 3.74846E-06 3.12339E-19 9.34356E-19
 -1      4109 9.65542E-05-2.78858E-05-2.94299E-05 3.36259E-07-4.99857E-19-1.05875E-18
 -1      4110 9.64658E-05-2.80394E-05-2.93268E-05 4.29686E-07-4.01175E-19-9.37044E-19
 -1      4111 9.63311E-05-2.81166E-05-2.92355E-05 4.65778E-07-1.52019E-19-8.40333E-19
 -1      4112 9.61650E-05-2.81269E-05-2.91601E-05 5.43447E-07 1.23986E-19-6.50412E-19
 -1      4113 9.64119E-05-2.80323E-05-2.93039E-05 2.55092E-07-7.51424E-20-8.02270E-19
 -1      4114 9.59519E-05-2.80732E-05-2.90922E-05 5.78334E-07-7.18053E-20-7.65731E-19
 -1      4115 9.57253E-05-2.79721E-05-2.90373E-05 6.51184E-07-1.66061E-19-8.01114E-19
 -1      4116 9.60625E-05-2.80555E-05-2.91441E-05 3.25142E-07-6.53937E-20-8.28132E-19
 -1      4117 9.54468E-05-2.78168E-05-2.89864E-05 6.91666E-07-3.10867E-19-8.87116E-19
 -1      4118 9.51682E-05-2.76286E-05-2.89454E-05 7.71432E-07-3.74510E-19-9.30660E-19
 -1      4119 9.55759E-05-2.78454E-05-2.90244E-05 3.99184E-07-2.92939E-19-9.38420E-19
 -1      4120 9.48253E-05-2.73893E-05-2.89050E-05 8.26756E-07-1.08059E-19-1.00282E-18
 -1      4121 9.44986E-05-2.71300E-05-2.88714E-05 9.27361E-07-1.35464E-20-8.71274E-19
 -1      4122 9.49577E-05-2.74377E-05-2.89325E-05 4.90272E-07-3.31520E-19-9.69681E-19
 -1      4123 9.40943E-05-2.68278E-05-2.88342E-05 1.00571E-06-1.10363E-19-9.17770E-19
 -1      4124 9.37176E-05-2.65137E-05-2.88008E-05 1.13530E-06-2.75723E-19-1.51076E-18
 -1      4125 9.42252E-05-2.68822E-05-2.88535E-05 6.14631E-07-1.84476E-19-1.24731E-18
 -1      4126 9.32455E-05-2.61592E-05-2.87590E-05 1.24977E-06-1.70422E-19-1.10429E-18
 -1      4127 9.28168E-05-2.58058E-05-2.87179E-05 1.42150E-06-4.18183E-20-9.72864E-19
 -1      4128 9.33628E-05-2.61999E-05-2.87728E-05 7.88908E-07 9.48193E-20-1.07662E-18
 -1      4129 9.22692E-05-2.54139E-05-2.86625E-05 1.58609E-06-8.42127E-21-7.98882E-19
 -1      4130 9.17879E-05-2.50393E-05-2.86048E-05 1.81584E-06-1.69083E-19-5.31116E-19
 -1      4131 9.23602E-05-2.54191E-05-2.86735E-05 1.03815E-06 5.31728E-20-4.57344E-19
 -1      4132 9.11554E-05-2.46279E-05-2.85252E-05 2.04964E-06-4.00863E-19-2.42564E-19
 -1      4133 9.06244E-05-2.42562E-05-2.84405E-05 2.35829E-06-3.53922E-19-1.21515E-19
 -1      4134 9.12006E-05-2.45695E-05-2.85357E-05 1.39415E-06-1.62270E-20-3.05159E-19
 -1      4135 8.98966E-05-2.38488E-05-2.83238E-05 2.68798E-06-2.83148E-19-2.66297E-19
 -1      4136 8.93252E-05-2.35130E-05-2.81999E-05 3.10457E-06 1.42744E-19-2.87832E-19
 -1      4137 8.98657E-05-2.36878E-05-2.83353E-05 1.90164E-06-7.88196E-20-2.36253E-19
 -1      4138 8.84909E-05-2.31413E-05-2.80304E-05 3.56827E-06 1.76148E-19-3.08600E-19
 -1      4139 8.78993E-05-2.28871E-05-2.78529E-05 4.13448E-06 1.18714E-19-6.21508E-19
 -1      4140 8.83356E-05-2.28217E-05-2.80432E-05 2.62449E-06-2.73921E-20-7.41764E-19
 -1      4141 8.69454E-05-2.25939E-05-2.76109E-05 4.78808E-06 3.09120E-19-5.13012E-19
 -1      4142 8.63693E-05-2.24852E-05-2.73635E-05 5.56470E-06 4.01343E-19-4.05914E-19
 -1      4143 8.65881E-05-2.20338E-05-2.76224E-05 3.65585E-06 3.02816E-19-6.44927E-19
 -1      4144 8.52783E-05-2.23219E-05-2.70241E-05 6.48459E-06 8.44428E-19-3.89150E-19
 -1      4145 8.47866E-05-2.24512E-05-2.66889E-05 7.56460E-06 1.04782E-18-6.47870E-19
 -1      4146 8.46037E-05-2.14150E-05-2.70260E-05 5.13040E-06 8.41756E-19-3.95374E-19
 -1      4147 8.35150E-05-2.24884E-05-2.62191E-05 8.90156E-06 8.88162E-19-1.70374E-19
 -1      4148 8.33232E-05-2.30211E-05-2.57992E-05 1.04244E-05 6.95319E-19 2.45130E-19
 -1      4149 8.22927E-05-2.10585E-05-2.61903E-05 7.20152E-06 1.35531E-18-2.49187E-19
 -1      4150 9.15409E-05-2.45841E-05-2.86936E-05-2.53291E-06 1.36161E-18 6.70072E-19
 -1      4151 8.65420E-05-2.12653E-05-2.79432E-05 2.74566E-06 2.08092E-19 1.84068E-18
 -1      4152 8.37670E-05-2.34806E-05-2.58139E-05-1.08745E-05-1.39647E-19-2.76337E-18
 -1      4153 8.40209E-05-2.28753E-05-2.62700E-05-9.28582E-06 5.48046E-19-3.39282E-18
 -1      4154 8.10669E-05-2.17823E-05-2.53326E-05-1.03215E-05-3.22116E-19 3.57044E-20
 -1      4155 9.48060E-05-2.73586E-05-2.89024E-05-1.33928E-06 3.41081E-19-2.55425E-19
 -1      4156 9.50306E-05-2.75803E-05-2.89065E-05-1.56962E-06 4.10645E-19-5.84878E-19
 -1      4157 9.52706E-05-2.77825E-05-2.89265E-05-1.45514E-06 3.03890E-19-4.62895E-19
 -1      4158 8.51069E-05-2.27252E-05-2.67206E-05-7.97190E-06 9.26696E-19-3.73248E-18
 -1      4159 8.55970E-05-2.25142E-05-2.70713E-05-6.80267E-06 5.17855E-19-3.02926E-18
 -1      4160 8.32834E-05-2.15569E-05-2.64095E-05-7.34847E-06 1.49338E-19-1.78580E-18
 -1      4161 8.65693E-05-2.26236E-05-2.74034E-05-5.91052E-06 7.00174E-19-2.96772E-18
 -1      4162 8.71164E-05-2.26320E-05-2.76705E-05-5.07582E-06 9.11098E-19-2.85660E-18
 -1      4163 8.52977E-05-2.18196E-05-2.72002E-05-5.33701E-06 1.11752E-18-2.29951E-18
 -1      4164 8.80008E-05-2.28690E-05-2.79114E-05-4.38032E-06 6.95851E-19-2.60848E-18
 -1      4165 8.85727E-05-2.30539E-05-2.81051E-05-3.75923E-06-7.72674E-20-1.71336E-18
 -1      4166 8.70541E-05-2.21729E-05-2.77682E-05-3.80961E-06 5.26789E-19-4.00488E-18
 -1      4167 8.93441E-05-2.33216E-05-2.82936E-05-2.99286E-06-4.97562E-19-1.35400E-18
 -1      4168 8.91263E-05-2.28227E-05-2.84238E-05 1.01691E-06 1.19859E-19 1.31970E-18
 -1      4169 8.81017E-05-2.22320E-05-2.82475E-05 9.32140E-07 7.43098E-20 1.45643E-18
 -1      4170 8.05588E-05-1.88218E-05-2.64912E-05 1.83920E-06-4.82618E-19 1.18670E-18
 -1      4171 7.86264E-05-1.82104E-05-2.59312E-05 2.00833E-06-1.51733E-18 3.96790E-19
 -1      4172 6.98327E-05-1.68815E-05-2.26692E-05 7.49009E-06-1.43683E-18-2.00697E-18
 -1      4173 8.87021E-05-2.28375E-05-2.82025E-05-2.47174E-06-5.80656E-20-1.88824E-18
 -1      4174 8.09812E-05-1.90165E-05-2.65825E-05-1.94118E-06 8.73509E-19-1.20607E-18
 -1      4175 8.26232E-05-1.96506E-05-2.70139E-05-1.83504E-06 4.60983E-19-4.59943E-19
 -1      4176 7.47773E-05-1.92537E-05-2.37633E-05 9.65783E-06 8.95191E-19 4.29737E-20
 -1      4177 7.09359E-05-1.70165E-05-2.29831E-05 7.53198E-06 1.02455E-18-7.81616E-19
 -1      4178 8.41294E-05-2.03025E-05-2.73815E-05-1.92882E-06 1.28308E-19-4.21078E-19
 -1      4179 8.54428E-05-2.09236E-05-2.76698E-05-1.83322E-06 4.07212E-19 7.84290E-20
 -1      4180 8.31738E-05-1.98440E-05-2.70808E-05-2.13842E-07 5.28028E-19-5.73299E-19
 -1      4181 9.64083E-05-2.72089E-05-2.96556E-05-2.17868E-07 6.85623E-19-1.23573E-18
 -1      4182 9.63578E-05-2.66172E-05-2.98908E-05-1.63841E-08 7.52982E-19-1.36923E-18
 -1      4183 8.86767E-05-2.27304E-05-2.82762E-05-1.77250E-06 2.43905E-19 4.74413E-20
 -1      4184 8.95316E-05-2.32894E-05-2.84000E-05-1.66555E-06 1.46371E-19-1.20741E-19
 -1      4185 8.66440E-05-2.15451E-05-2.79186E-05-1.87350E-06 3.04192E-19-1.66125E-19
 -1      4186 8.76965E-05-2.21397E-05-2.81094E-05-1.77425E-06 2.94710E-19 1.61835E-19
 -1      4187 8.58364E-05-2.10998E-05-2.77002E-05-5.72588E-07 4.59501E-19 1.05639E-19
 -1      4188 7.88347E-05-2.11647E-05-2.46827E-05 1.08447E-05 7.53181E-19 3.80592E-19
 -1      4189 9.59587E-05-2.52449E-05-3.03093E-05-2.24131E-08 4.03519E-19-1.56132E-18
 -1      4190 9.60198E-05-2.54363E-05-3.02631E-05-1.71342E-07 2.89580E-19-1.57984E-18
 -1      4191 9.63838E-05-2.63623E-05-2.99967E-05-4.40448E-09 1.86848E-19-1.47800E-18
 -1      4192 9.64541E-05-2.79484E-05-2.93584E-05-6.46820E-07 2.17472E-19-1.07421E-18
 -1      4193 9.64291E-05-2.79532E-05-2.93492E-05-7.33987E-07 3.08695E-19-1.23447E-18
 -1      4194 9.38052E-05-2.65394E-05-2.88307E-05-1.18098E-06 5.36237E-19-1.02310E-19
 -1      4195 9.42022E-05-2.68751E-05-2.88581E-05-1.09169E-06 6.09058E-19-7.32490E-20
 -1      4196 9.03414E-05-2.38397E-05-2.85101E-05-1.63646E-06-1.47391E-19-4.29745E-19
 -1      4197 9.10414E-05-2.43532E-05-2.85889E-05-1.52629E-06-3.74757E-19-5.39977E-19
 -1      4198 8.97630E-05-2.34346E-05-2.84012E-05-8.54884E-07-1.90337E-19-7.66018E-19
 -1      4199 9.63384E-05-2.79407E-05-2.93143E-05-8.08033E-07 4.95200E-19-1.45715E-18
 -1      4200 9.64602E-05-2.66684E-05-2.99106E-05 1.11119E-08 1.22310E-19-1.28997E-18
 -1      4201 9.64836E-05-2.68257E-05-2.98593E-05 3.97824E-08-2.15834E-20-1.31043E-18
 -1      4202 9.65693E-05-2.71969E-05-2.97270E-05 1.61661E-07-2.24605E-19-1.18168E-18
 -1      4203 9.63885E-05-2.65407E-05-2.99402E-05 1.55833E-08 7.03878E-19-1.33126E-18
 -1      4204 9.63712E-05-2.64158E-05-2.99821E-05 4.66105E-10 5.92277E-19-1.30065E-18
 -1      4205 9.65318E-05-2.71354E-05-2.97328E-05-1.78078E-07 6.37177E-19-1.34902E-18
 -1      4206 7.07048E-05-1.64396E-05-2.33058E-05 3.70638E-06 1.27712E-18-1.54016E-18
 -1      4207 9.17155E-05-2.48541E-05-2.86612E-05-1.48257E-06-3.29620E-19-5.54550E-19
 -1      4208 9.22917E-05-2.53140E-05-2.87112E-05-1.37548E-06-2.29066E-19-4.81391E-19
 -1      4209 9.12334E-05-2.44845E-05-2.85877E-05-8.65705E-07-1.46617E-19-7.35090E-19
 -1      4210 9.45981E-05-2.71869E-05-2.88919E-05-1.04947E-06 2.46367E-19-4.19308E-19
 -1      4211 9.49270E-05-2.74526E-05-2.89211E-05-9.65186E-07 5.54676E-21-6.28594E-19
 -1      4212 9.43505E-05-2.69626E-05-2.88748E-05-7.14404E-07 1.60860E-19-6.18179E-19
 -1      4213 8.75064E-05-2.18767E-05-2.80842E-05-1.99241E-07 9.86438E-20 5.94438E-19
 -1      4214 8.70238E-05-2.16359E-05-2.80494E-05 1.07087E-06 2.50516E-19 1.69141E-18
 -1      4215 7.12564E-05-1.60370E-05-2.35655E-05 3.80520E-07 1.18673E-18-1.75796E-18
 -1      4216 7.28231E-05-1.66242E-05-2.41081E-05-2.80942E-06 9.47499E-19-2.11961E-18
 -1      4217 7.52617E-05-1.72114E-05-2.49251E-05-2.42783E-06 1.46480E-18-1.63221E-18
 -1      4218 8.23338E-05-1.94610E-05-2.69661E-05 1.98154E-06 9.44618E-19 1.98102E-18
 -1      4219 8.12525E-05-1.90402E-05-2.66047E-05-1.79728E-09-3.00718E-19 2.14232E-18
 -1      4220 8.37987E-05-2.00694E-05-2.73423E-05 1.81997E-06 1.08632E-18 2.57411E-18
 -1      4221 7.41347E-05-1.68366E-05-2.45661E-05 1.71219E-06-2.00463E-18-3.35842E-19
 -1      4222 7.46528E-05-1.77484E-05-2.43523E-05-5.24289E-06-1.38498E-18 9.44462E-19
 -1      4223 9.64397E-05-2.75144E-05-2.95430E-05-4.56173E-07 6.10437E-19-1.26471E-18
 -1      4224 6.93205E-05-1.55445E-05-2.27943E-05 3.25750E-06-1.65216E-18-2.29348E-18
 -1      4225 9.62684E-05-2.59667E-05-3.01217E-05 4.00639E-08 4.49309E-19-1.44416E-18
 -1      4226 7.73155E-05-1.93634E-05-2.48987E-05 7.36688E-06 1.41231E-18-3.68774E-19
 -1      4227 8.80777E-05-2.24575E-05-2.81348E-05-1.73074E-06-3.29992E-19-1.69287E-18
 -1      4228 9.62044E-05-2.81364E-05-2.91736E-05-6.97712E-07-4.40924E-19-4.50444E-19
 -1      4229 9.63528E-05-2.81089E-05-2.92481E-05-6.07138E-07-5.60475E-20-6.83874E-19
 -1      4230 7.74435E-05-1.78747E-05-2.55609E-05-2.24231E-06 1.17380E-18-1.51066E-18
 -1      4231 7.92929E-05-1.84478E-05-2.61284E-05-2.09111E-06 1.02757E-18-1.48001E-18
 -1      4232 7.99748E-05-1.85363E-05-2.62483E-05 9.53711E-08 1.12823E-18-1.35136E-18
 -1      4233 7.62790E-05-1.74256E-05-2.51742E-05-9.41978E-08 1.38359E-18-1.11899E-18
 -1      4234 7.69505E-05-1.77113E-05-2.54176E-05 1.53996E-06-1.79603E-18 1.97531E-19
 -1      4235 7.71842E-05-1.83207E-05-2.52889E-05-3.68239E-06-2.28260E-18 1.42859E-18
 -1      4236 7.64656E-05-1.87818E-05-2.46413E-05-7.07786E-06-1.39395E-18 7.69070E-19
 -1      4237 7.89711E-05-2.04680E-05-2.50776E-05-8.70108E-06-1.29121E-18 1.00217E-18
 -1      4238 9.28555E-05-2.57581E-05-2.87601E-05-1.32698E-06-2.84168E-19-1.08644E-19
 -1      4239 9.33326E-05-2.61585E-05-2.87939E-05-1.22780E-06 1.61596E-19 9.94805E-20
 -1      4240 9.34890E-05-2.62633E-05-2.88014E-05-7.77798E-07 3.29358E-19 6.75869E-20
 -1      4241 9.24607E-05-2.54324E-05-2.87125E-05-8.32802E-07-1.23962E-20-2.98102E-19
 -1      4242 9.64558E-05-2.77655E-05-2.94357E-05-5.77900E-07 4.52572E-19-1.34324E-18
 -1      4243 8.79913E-05-2.23003E-05-2.81200E-05-7.70178E-07 1.23650E-19-7.04262E-19
 -1      4244 9.64436E-05-2.80071E-05-2.93280E-05-3.98185E-07-2.44216E-19-7.27911E-19
 -1      4245 9.64747E-05-2.80124E-05-2.93427E-05-5.54329E-07-5.21744E-21-8.45895E-19
 -1      4246 9.65503E-05-2.78407E-05-2.94460E-05-4.27153E-07 2.98919E-20-1.05699E-18
 -1      4247 8.56189E-05-2.09058E-05-2.77451E-05 1.48973E-06 6.88014E-19 2.00592E-18
 -1      4248 9.65917E-05-2.74775E-05-2.96236E-05 1.92925E-07-4.17392E-19-1.11588E-18
 -1      4249 9.65878E-05-2.77175E-05-2.95156E-05 2.95549E-07-5.58695E-19-1.04026E-18
 -1      4250 9.65763E-05-2.77793E-05-2.94829E-05 1.75584E-07-3.96522E-19-8.93807E-19
 -1      4251 9.66006E-05-2.73807E-05-2.96685E-05 9.65197E-08-2.62842E-19-9.41552E-19
 -1      4252 9.55396E-05-2.79612E-05-2.89614E-05-1.37761E-06 2.81913E-22-7.66779E-19
 -1      4253 9.57374E-05-2.80857E-05-2.89945E-05-1.26912E-06-1.64717E-19-7.59247E-19
 -1      4254 9.58740E-05-2.80747E-05-2.90562E-05-1.02750E-06-4.14014E-19-5.49642E-19
 -1      4255 9.53933E-05-2.77990E-05-2.89672E-05-1.18046E-06-3.45491E-20-5.32566E-19
 -1      4256 7.77683E-05-1.78362E-05-2.56042E-05-9.44640E-07-2.36201E-18 1.19505E-18
 -1      4257 9.61752E-05-2.80880E-05-2.91806E-05 6.06139E-08-1.58241E-19-8.64999E-19
 -1      4258 9.59630E-05-2.80363E-05-2.91122E-05 9.61116E-08-3.34322E-19-1.01873E-18
 -1      4259 9.57057E-05-2.79225E-05-2.90523E-05 8.63589E-08-3.11913E-19-9.43204E-19
 -1      4260 9.54260E-05-2.77630E-05-2.90001E-05 1.31650E-07-2.23066E-19-1.19668E-18
 -1      4261 9.58242E-05-2.79536E-05-2.90854E-05-1.82641E-07-2.44108E-19-1.27359E-18
 -1      4262 9.50061E-05-2.74792E-05-2.89420E-05-1.06604E-07-2.28661E-19-1.07542E-18
 -1      4263 9.46536E-05-2.72218E-05-2.89014E-05-6.53878E-08-2.19874E-19-1.02929E-18
 -1      4264 9.42541E-05-2.69183E-05-2.88642E-05-8.43689E-08-3.28246E-21-8.62634E-19
 -1      4265 9.38386E-05-2.65889E-05-2.88252E-05-2.85544E-08 9.93709E-20-7.85161E-19
 -1      4266 9.33623E-05-2.62184E-05-2.87850E-05-3.87722E-08 2.67925E-20-5.86252E-19
 -1      4267 9.28775E-05-2.58299E-05-2.87405E-05 4.20858E-08 3.18341E-19-3.79016E-19
 -1      4268 9.23101E-05-2.54004E-05-2.86882E-05 4.67250E-08 1.07553E-19-5.25699E-19
 -1      4269 9.17467E-05-2.49644E-05-2.86290E-05 1.64369E-07 3.16720E-20-2.64790E-19
 -1      4270 9.10692E-05-2.44849E-05-2.85533E-05 1.94687E-07 3.16715E-20-6.65413E-19
 -1      4271 9.04162E-05-2.40149E-05-2.84681E-05 3.66093E-07-1.74028E-19-6.56614E-19
 -1      4272 8.96036E-05-2.34958E-05-2.83548E-05 4.37714E-07-2.29817E-19-5.41002E-19
 -1      4273 8.88482E-05-2.30092E-05-2.82299E-05 6.87061E-07-1.76845E-19-6.04122E-19
 -1      4274 8.78665E-05-2.24628E-05-2.80608E-05 8.21350E-07 2.15121E-19-6.24162E-19
 -1      4275 8.69931E-05-2.19815E-05-2.78788E-05 1.18331E-06 4.08313E-19-5.95776E-19
 -1      4276 8.57934E-05-2.14216E-05-2.76293E-05 1.40874E-06 1.78648E-19-3.87923E-19
 -1      4277 8.47815E-05-2.09725E-05-2.73681E-05 1.93424E-06 6.41245E-19-3.21677E-19
 -1      4278 8.32843E-05-2.04050E-05-2.70035E-05 2.29189E-06 9.69052E-19-5.39324E-19
 -1      4279 8.20956E-05-2.00341E-05-2.66298E-05 3.06898E-06 1.06624E-18-6.69752E-19
 -1      4280 8.03982E-05-1.94610E-05-2.61759E-05 3.36046E-06 1.22457E-18-8.24429E-19
 -1      4281 7.90644E-05-1.91641E-05-2.56701E-05 4.35911E-06 1.49020E-18-7.98792E-19
 -1      4282 8.01526E-05-2.03469E-05-2.57043E-05-7.13602E-06-1.47416E-18-1.51164E-19
 -1      4283 8.69959E-05-2.19139E-05-2.79198E-05-1.76394E-06-7.44901E-20-1.84309E-18
 -1      4284 8.18541E-05-2.06219E-05-2.62546E-05-6.02660E-06-7.13585E-19-6.52609E-19
 -1      4285 8.30640E-05-2.07514E-05-2.67168E-05-4.91429E-06-5.62979E-21-1.87098E-18
 -1      4286 8.03808E-05-1.94161E-05-2.60590E-05-4.42068E-06-1.35257E-18 2.32267E-19
 -1      4287 8.40675E-05-2.09030E-05-2.70824E-05-4.01970E-06 7.01573E-19-2.23816E-18
 -1      4288 8.61260E-05-2.15184E-05-2.76920E-05-2.22782E-06 1.00233E-18-1.74038E-18
 -1      4289 7.38367E-05-1.71942E-05-2.42739E-05 3.10891E-06 1.57384E-18-9.95158E-19
 -1      4290 9.65157E-05-2.75183E-05-2.95718E-05-3.98562E-07 4.86416E-19-1.32147E-18
 -1      4291 9.60797E-05-2.80993E-05-2.91339E-05-5.60098E-07-4.80557E-19-6.63322E-19
 -1      4292 9.62023E-05-2.80902E-05-2.91913E-05-3.20442E-07-4.08954E-19-6.96263E-19
 -1      4293 7.88488E-05-1.86846E-05-2.57861E-05-2.78748E-06-2.01801E-18 1.27570E-18
 -1      4294 8.42199E-05-2.05238E-05-2.72882E-05-1.71215E-06 5.24112E-19-9.73803E-20
 -1      4295 9.64710E-05-2.66668E-05-2.99183E-05-4.28689E-08 4.29225E-19-1.22466E-18
 -1      4296 9.65602E-05-2.74506E-05-2.96210E-05-2.99648E-07 3.97493E-19-1.37126E-18
 -1      4297 9.51600E-05-2.75652E-05-2.89661E-05-4.21514E-07-2.55284E-19-1.25081E-18
 -1      4298 8.05222E-05-1.91528E-05-2.63448E-05-2.06381E-06-9.85414E-19 6.95690E-19
 -1      4299 9.65699E-05-2.70618E-05-2.97826E-05-1.47129E-08 1.60615E-19-1.06993E-18
 -1      4300 9.63697E-05-2.80779E-05-2.92699E-05 1.01645E-07 1.53744E-20-4.81833E-19
 -1      4301 9.62728E-05-2.80603E-05-2.92328E-05-1.25688E-07-3.15283E-19-7.71192E-19
 -1      4302 9.63937E-05-2.80710E-05-2.92805E-05-2.68556E-07-4.04708E-19-7.02094E-19
 -1      4303 9.65045E-05-2.79901E-05-2.93631E-05 6.58805E-08-2.71892E-19-5.87182E-19
 -1      4304 9.58713E-05-2.80267E-05-2.90776E-05-6.29494E-07-4.12387E-19-8.16133E-19
 -1      4305 9.65144E-05-2.79740E-05-2.93767E-05-2.14617E-07-1.03945E-19-6.21074E-19
 -1      4306 8.24007E-05-1.97737E-05-2.68362E-05-1.58762E-06 1.94741E-19 5.64112E-19
 -1      4307 7.58364E-05-1.76501E-05-2.49327E-05 3.01155E-06 1.54472E-18-9.36531E-19
 -1      4308 8.47086E-05-2.05091E-05-2.75027E-05 1.01319E-07 8.53681E-19 1.59458E-18
 -1      4309 9.65784E-05-2.78527E-05-2.94555E-05 6.63319E-08-3.08706E-19-7.40697E-19
 -1      4310 9.65315E-05-2.78909E-05-2.94164E-05-8.04757E-08-1.74079E-19-4.20524E-19
 -1      4311 9.65885E-05-2.78240E-05-2.94671E-05-2.09864E-07-8.64484E-20-6.89823E-19
 -1      4312 9.66187E-05-2.76800E-05-2.95397E-05 3.04913E-08-2.65753E-19-7.01455E-19
 -1      4313 9.53429E-05-2.77262E-05-2.89792E-05-7.13665E-07-6.77558E-20-9.44330E-19
 -1      4314 9.65745E-05-2.75230E-05-2.95946E-05-2.27243E-07 1.56574E-19-9.99028E-19
 -1      4315 9.56122E-05-2.79010E-05-2.90198E-05-6.44292E-07-3.12081E-19-9.34372E-19
 -1      4316 9.66011E-05-2.74468E-05-2.96410E-05-1.12574E-07 1.34576E-19-8.25853E-19
 -1      4317 9.66065E-05-2.74577E-05-2.96389E-05 5.73411E-09-2.06698E-19-7.05221E-19
 -3
    1PSTEP                         4           1           1          
  100CL  101 1.000000000        4317                     0    1           1
 -4  ERROR       1    1
 -5  STR(%)      1    1    0    0
 -1         1 3.16330E+01
 -1         2 2.43801E+01
 -1         3 2.90954E-02
 -1         4 2.96558E-02
 -1         5 1.40462E+01
 -1         6 1.31501E+01
 -1         7 1.31501E+01
 -1         8 3.65650E+00
 -1         9 1.81536E+00
 -1        10 1.28692E+00
 -1        11 1.04200E+00
 -1        12 8.96071E-01
 -1        13 8.06267E-01
 -1        14 7.52896E-01
 -1        15 7.54886E-01
 -1        16 8.10590E-01
 -1        17 8.97654E-01
 -1        18 1.04860E+00
 -1        19 1.30290E+00
 -1        20 1.82722E+00
 -1        21 3.49818E+00
 -1        22 8.64227E+00
 -1        23 1.31501E+01
 -1        24 4.32903E+00
 -1        25 3.35515E+00
 -1        26 2.12737E+00
 -1        27 1.38074E+00
 -1        28 1.03659E+00
 -1        29 8.03752E-01
 -1        30 6.31617E-01
 -1        31 5.00676E-01
 -1        32 4.01116E-01
 -1        33 3.26759E-01
 -1        34 2.72689E-01
 -1        35 2.34359E-01
 -1        36 2.48647E-01
 -1        37 2.83931E-01
 -1        38 3.26697E-01
 -1        39 3.72341E-01
 -1        40 4.13048E-01
 -1        41 5.08550E-01
 -1        42 6.39231E-01
 -1        43 7.75757E-01
 -1        44 8.72973E-01
 -1        45 8.78278E-01
 -1        46 9.23070E-01
 -1        47 9.23070E-01
 -1        48 1.11725E+00
 -1        49 1.37466E+00
 -1        50 2.33883E+00
 -1        51 2.97605E+00
 -1        52 2.97605E+00
 -1        53 3.03106E+00
 -1        54 3.03106E+00
 -1        55 2.50915E+00
 -1        56 1.56831E+00
 -1        57 1.18202E+00
 -1        58 9.30841E-01
 -1        59 9.30841E-01
 -1        60 8.79002E-01
 -1        61 8.79002E-01
 -1        62 7.92261E-01
 -1        63 6.55646E-01
 -1        64 5.15230E-01
 -1        65 4.24392E-01
 -1        66 3.81592E-01
 -1        67 3.27823E-01
 -1        68 2.69092E-01
 -1        69 2.07403E-01
 -1        70 1.88043E-01
 -1        71 1.18197E-01
 -1        72 1.40462E+01
 -1        73 3.40413E+00
 -1        74 2.42479E+00
 -1        75 1.67956E+00
 -1        76 1.16093E+00
 -1        77 9.26784E-01
 -1        78 7.59287E-01
 -1        79 6.25447E-01
 -1        80 5.18473E-01
 -1        81 4.35093E-01
 -1        82 3.73462E-01
 -1        83 3.32107E-01
 -1        84 3.09557E-01
 -1        85 3.13905E-01
 -1        86 3.35912E-01
 -1        87 4.00098E-01
 -1        88 4.92404E-01
 -1        89 6.00716E-01
 -1        90 7.16841E-01
 -1        91 8.24120E-01
 -1        92 8.93625E-01
 -1        93 9.69887E-01
 -1        94 1.30294E+00
 -1        95 1.58523E+00
 -1        96 1.69848E+00
 -1        97 2.10293E+00
 -1        98 2.10293E+00
 -1        99 2.75355E+00
 -1       100 4.13301E+00
 -1       101 4.78376E+00
 -1       102 5.42227E+00
 -1       103 5.42227E+00
 -1       104 4.06589E+00
 -1       105 2.18537E+00
 -1       106 1.61555E+00
 -1       107 1.88845E+00
 -1       108 1.90657E+00
 -1       109 1.90657E+00
 -1       110 1.69604E+00
 -1       111 1.42181E+00
 -1       112 1.16839E+00
 -1       113 9.18026E-01
 -1       114 6.93652E-01
 -1       115 5.13143E-01
 -1       116 4.09369E-01
 -1       117 3.17327E-01
 -1       118 2.32996E-01
 -1       119 1.50424E-01
 -1       120 1.00631E-01
 -1       121 4.28554E-02
 -1       122 4.28554E-02
 -1       123 3.88516E-02
 -1       124 2.14744E-02
 -1       125 1.91842E-02
 -1       126 3.22899E-02
 -1       127 3.94758E-02
 -1       128 4.05945E-02
 -1       129 4.05945E-02
 -1       130 3.65766E-02
 -1       131 2.71313E-02
 -1       132 1.42215E-02
 -1       133 2.15768E-02
 -1       134 3.54569E-02
 -1       135 5.20188E-02
 -1       136 5.60756E-02
 -1       137 2.48569E+01
 -1       138 4.68443E+01
 -1       139 4.68443E+01
 -1       140 2.01755E+01
 -1       141 1.30400E+01
 -1       142 1.35198E+01
 -1       143 1.35198E+01
 -1       144 1.27958E+01
 -1       145 1.27958E+01
 -1       146 1.63647E+01
 -1       147 4.39559E+01
 -1       148 4.39559E+01
 -1       149 2.46002E+01
 -1       150 2.58119E+01
 -1       151 2.58119E+01
 -1       152 4.89867E+01
 -1       153 4.89867E+01
 -1       154 2.29388E+01
 -1       155 1.19855E+01
 -1       156 1.24008E+01
 -1       157 1.28378E+01
 -1       158 1.28378E+01
 -1       159 1.25324E+01
 -1       160 1.37798E+01
 -1       161 3.16330E+01
 -1       162 2.77512E+01
 -1       163 2.39967E+01
 -1       164 6.06995E+00
 -1       165 2.29017E+00
 -1       166 1.50347E+00
 -1       167 1.15359E+00
 -1       168 9.70173E-01
 -1       169 8.61826E-01
 -1       170 7.94404E-01
 -1       171 7.54886E-01
 -1       172 7.97854E-01
 -1       173 8.65002E-01
 -1       174 9.77942E-01
 -1       175 1.16849E+00
 -1       176 1.52264E+00
 -1       177 2.25533E+00
 -1       178 3.92618E+00
 -1       179 1.40462E+01
 -1       180 4.32903E+00
 -1       181 3.35515E+00
 -1       182 2.12737E+00
 -1       183 1.46159E+00
 -1       184 1.04152E+00
 -1       185 8.03752E-01
 -1       186 6.31617E-01
 -1       187 5.01400E-01
 -1       188 4.07812E-01
 -1       189 3.32493E-01
 -1       190 2.72692E-01
 -1       191 2.34359E-01
 -1       192 2.23060E-01
 -1       193 2.48647E-01
 -1       194 2.83931E-01
 -1       195 3.26697E-01
 -1       196 3.72341E-01
 -1       197 4.54745E-01
 -1       198 5.33891E-01
 -1       199 6.39231E-01
 -1       200 7.75757E-01
 -1       201 8.72973E-01
 -1       202 8.78278E-01
 -1       203 9.23070E-01
 -1       204 9.09932E-01
 -1       205 1.11725E+00
 -1       206 1.53873E+00
 -1       207 2.33883E+00
 -1       208 2.97605E+00
 -1       209 2.95915E+00
 -1       210 3.03106E+00
 -1       211 2.50915E+00
 -1       212 1.66970E+00
 -1       213 1.18202E+00
 -1       214 8.74445E-01
 -1       215 9.30841E-01
 -1       216 8.59377E-01
 -1       217 8.79002E-01
 -1       218 7.92261E-01
 -1       219 6.55646E-01
 -1       220 5.39905E-01
 -1       221 4.54810E-01
 -1       222 3.81592E-01
 -1       223 3.27823E-01
 -1       224 2.69092E-01
 -1       225 2.07403E-01
 -1       226 1.88043E-01
 -1       227 1.18197E-01
 -1       228 3.40413E+00
 -1       229 2.42479E+00
 -1       230 1.67956E+00
 -1       231 1.16093E+00
 -1       232 9.26784E-01
 -1       233 7.59287E-01
 -1       234 6.25447E-01
 -1       235 5.18473E-01
 -1       236 4.35093E-01
 -1       237 3.73462E-01
 -1       238 3.32107E-01
 -1       239 3.09557E-01
 -1       240 3.04170E-01
 -1       241 3.13905E-01
 -1       242 3.52431E-01
 -1       243 4.28170E-01
 -1       244 5.16606E-01
 -1       245 6.09490E-01
 -1       246 7.16841E-01
 -1       247 8.24120E-01
 -1       248 8.93625E-01
 -1       249 1.11541E+00
 -1       250 1.30294E+00
 -1       251 1.58523E+00
 -1       252 1.69848E+00
 -1       253 2.10293E+00
 -1       254 2.06686E+00
 -1       255 2.75355E+00
 -1       256 4.13301E+00
 -1       257 4.78376E+00
 -1       258 5.42227E+00
 -1       259 4.06589E+00
 -1       260 2.18537E+00
 -1       261 1.34489E+00
 -1       262 1.61555E+00
 -1       263 1.88845E+00
 -1       264 1.90657E+00
 -1       265 1.69604E+00
 -1       266 1.42181E+00
 -1       267 1.17202E+00
 -1       268 9.46890E-01
 -1       269 7.34256E-01
 -1       270 5.47774E-01
 -1       271 4.09369E-01
 -1       272 3.17327E-01
 -1       273 2.32996E-01
 -1       274 1.55648E-01
 -1       275 1.00631E-01
 -1       276 6.10029E-02
 -1       277 6.18494E-02
 -1       278 6.18494E-02
 -1       279 3.41593E-02
 -1       280 5.92935E-02
 -1       281 7.44939E-02
 -1       282 7.86374E-02
 -1       283 7.86374E-02
 -1       284 7.75244E-02
 -1       285 6.72616E-02
 -1       286 4.91807E-02
 -1       287 2.93209E-02
 -1       288 5.79953E-02
 -1       289 5.79953E-02
 -1       290 7.13549E-02
 -1       291 2.84285E+01
 -1       292 2.87978E+01
 -1       293 4.68443E+01
 -1       294 2.05094E+01
 -1       295 1.16018E+01
 -1       296 1.30400E+01
 -1       297 1.35198E+01
 -1       298 1.22308E+01
 -1       299 1.27958E+01
 -1       300 1.13173E+01
 -1       301 1.75952E+01
 -1       302 4.39559E+01
 -1       303 3.73780E+01
 -1       304 2.95650E+01
 -1       305 3.29626E+01
 -1       306 3.07693E+01
 -1       307 4.89867E+01
 -1       308 2.48894E+01
 -1       309 1.19512E+01
 -1       310 1.19855E+01
 -1       311 1.24008E+01
 -1       312 1.28378E+01
 -1       313 1.25324E+01
 -1       314 1.12171E+01
 -1       315 1.37798E+01
 -1       316 3.16330E+01
 -1       317 3.33299E+01
 -1       318 3.33299E+01
 -1       319 2.84285E+01
 -1       320 1.03868E+00
 -1       321 2.47199E+00
 -1       322 7.88309E-01
 -1       323 6.91264E-01
 -1       324 6.29364E-01
 -1       325 5.85774E-01
 -1       326 5.89037E-01
 -1       327 6.32197E-01
 -1       328 6.98336E-01
 -1       329 7.93002E-01
 -1       330 9.27772E-01
 -1       331 1.15214E+00
 -1       332 1.32080E+00
 -1       333 2.20329E+00
 -1       334 1.91654E+00
 -1       335 3.33299E+01
 -1       336 1.74017E+00
 -1       337 1.27965E+00
 -1       338 9.20387E-01
 -1       339 6.70034E-01
 -1       340 5.62791E-01
 -1       341 4.70670E-01
 -1       342 3.90524E-01
 -1       343 3.22677E-01
 -1       344 2.66411E-01
 -1       345 2.20066E-01
 -1       346 1.81234E-01
 -1       347 2.01822E-01
 -1       348 2.28898E-01
 -1       349 2.61215E-01
 -1       350 3.25869E-01
 -1       351 4.04529E-01
 -1       352 4.73983E-01
 -1       353 5.41451E-01
 -1       354 6.13755E-01
 -1       355 6.60906E-01
 -1       356 6.36882E-01
 -1       357 4.99544E-01
 -1       358 4.49015E-01
 -1       359 6.34212E-01
 -1       360 1.10982E+00
 -1       361 1.45279E+00
 -1       362 1.86197E+00
 -1       363 1.94644E+00
 -1       364 1.92207E+00
 -1       365 1.90838E+00
 -1       366 1.55816E+00
 -1       367 1.19777E+00
 -1       368 7.26099E-01
 -1       369 4.42317E-01
 -1       370 4.82183E-01
 -1       371 6.14221E-01
 -1       372 6.55294E-01
 -1       373 6.16309E-01
 -1       374 5.41009E-01
 -1       375 4.73869E-01
 -1       376 4.06658E-01
 -1       377 3.29179E-01
 -1       378 2.52210E-01
 -1       379 2.03416E-01
 -1       380 1.53490E-01
 -1       381 1.02637E-01
 -1       382 1.13986E+00
 -1       383 9.01764E-01
 -1       384 7.14796E-01
 -1       385 5.55739E-01
 -1       386 4.59319E-01
 -1       387 3.96312E-01
 -1       388 3.38899E-01
 -1       389 2.98802E-01
 -1       390 2.68444E-01
 -1       391 2.48396E-01
 -1       392 2.38392E-01
 -1       393 2.42003E-01
 -1       394 2.90815E-01
 -1       395 4.16321E-01
 -1       396 5.67650E-01
 -1       397 7.43942E-01
 -1       398 9.37053E-01
 -1       399 1.12684E+00
 -1       400 1.27755E+00
 -1       401 1.41391E+00
 -1       402 1.43157E+00
 -1       403 1.40527E+00
 -1       404 1.14950E+00
 -1       405 1.07814E+00
 -1       406 1.68633E+00
 -1       407 2.49430E+00
 -1       408 2.99229E+00
 -1       409 3.18967E+00
 -1       410 2.93801E+00
 -1       411 2.59293E+00
 -1       412 1.52054E+00
 -1       413 1.19563E+00
 -1       414 1.28935E+00
 -1       415 1.43223E+00
 -1       416 1.43631E+00
 -1       417 1.37013E+00
 -1       418 1.22521E+00
 -1       419 1.06916E+00
 -1       420 8.83341E-01
 -1       421 6.99141E-01
 -1       422 5.32926E-01
 -1       423 3.91111E-01
 -1       424 2.98155E-01
 -1       425 2.25001E-01
 -1       426 1.55648E-01
 -1       427 8.87991E-02
 -1       428 6.59285E-02
 -1       429 1.20621E-01
 -1       430 1.20621E-01
 -1       431 8.17388E-02
 -1       432 1.05194E-01
 -1       433 1.13247E-01
 -1       434 1.13247E-01
 -1       435 1.11221E-01
 -1       436 1.08087E-01
 -1       437 9.18168E-02
 -1       438 6.41993E-02
 -1       439 6.60332E-02
 -1       440 9.48399E-02
 -1       441 2.87978E+01
 -1       442 3.14304E+01
 -1       443 3.14304E+01
 -1       444 1.59295E+01
 -1       445 1.80506E+01
 -1       446 9.67743E+00
 -1       447 2.62279E+01
 -1       448 9.14578E-01
 -1       449 8.72062E+00
 -1       450 1.16959E+01
 -1       451 1.14173E+01
 -1       452 8.23224E+00
 -1       453 8.79731E+00
 -1       454 1.49647E+01
 -1       455 2.58995E+01
 -1       456 2.70575E+01
 -1       457 3.29626E+01
 -1       458 2.98344E+01
 -1       459 3.07693E+01
 -1       460 1.73874E+01
 -1       461 1.03996E+01
 -1       462 8.19272E+00
 -1       463 9.91481E+00
 -1       464 1.02788E+01
 -1       465 9.24811E+00
 -1       466 8.85104E+00
 -1       467 7.35814E+00
 -1       468 1.23616E+01
 -1       469 7.48229E+00
 -1       470 1.51754E+01
 -1       471 9.45775E+00
 -1       472 3.79849E+00
 -1       473 3.29626E+01
 -1       474 9.18280E+00
 -1       475 1.05715E+00
 -1       476 4.83598E-01
 -1       477 5.07025E-01
 -1       478 4.29800E-01
 -1       479 4.55254E-01
 -1       480 4.84504E-01
 -1       481 5.08286E-01
 -1       482 5.08286E-01
 -1       483 5.98987E-01
 -1       484 8.02050E-01
 -1       485 1.36143E+01
 -1       486 9.01764E-01
 -1       487 8.76024E-01
 -1       488 7.10760E-01
 -1       489 5.96819E-01
 -1       490 4.83105E-01
 -1       491 3.88287E-01
 -1       492 3.41421E-01
 -1       493 2.91794E-01
 -1       494 2.43348E-01
 -1       495 1.97558E-01
 -1       496 1.54311E-01
 -1       497 1.43046E-01
 -1       498 1.62725E-01
 -1       499 2.02891E-01
 -1       500 2.78595E-01
 -1       501 3.57084E-01
 -1       502 4.33165E-01
 -1       503 4.99050E-01
 -1       504 5.54232E-01
 -1       505 6.17382E-01
 -1       506 6.62769E-01
 -1       507 6.56215E-01
 -1       508 7.54717E-01
 -1       509 8.54235E-01
 -1       510 1.04824E+00
 -1       511 1.23247E+00
 -1       512 1.45024E+00
 -1       513 1.92929E+00
 -1       514 1.61671E+00
 -1       515 1.83892E+00
 -1       516 1.48082E+00
 -1       517 1.28428E+00
 -1       518 1.11052E+00
 -1       519 8.53071E-01
 -1       520 7.82085E-01
 -1       521 6.39943E-01
 -1       522 6.60429E-01
 -1       523 6.23020E-01
 -1       524 5.53889E-01
 -1       525 5.01023E-01
 -1       526 4.39031E-01
 -1       527 3.65774E-01
 -1       528 2.90746E-01
 -1       529 2.20918E-01
 -1       530 1.45889E-01
 -1       531 1.93751E+01
 -1       532 5.55739E-01
 -1       533 4.59319E-01
 -1       534 3.96312E-01
 -1       535 3.35933E-01
 -1       536 2.81125E-01
 -1       537 2.32691E-01
 -1       538 1.89912E-01
 -1       539 1.71591E-01
 -1       540 2.00620E-01
 -1       541 2.46802E-01
 -1       542 3.59320E-01
 -1       543 4.94174E-01
 -1       544 6.52980E-01
 -1       545 8.33444E-01
 -1       546 1.02630E+00
 -1       547 1.21143E+00
 -1       548 1.35423E+00
 -1       549 1.51559E+00
 -1       550 1.75182E+00
 -1       551 1.92715E+00
 -1       552 2.00735E+00
 -1       553 2.54510E+00
 -1       554 4.99551E+00
 -1       555 4.00635E+00
 -1       556 6.78470E+00
 -1       557 6.93112E+00
 -1       558 3.87111E+00
 -1       559 2.04439E+00
 -1       560 2.39657E+00
 -1       561 1.94022E+00
 -1       562 1.85720E+00
 -1       563 1.65903E+00
 -1       564 1.41758E+00
 -1       565 1.30020E+00
 -1       566 1.13441E+00
 -1       567 9.41778E-01
 -1       568 7.51188E-01
 -1       569 5.78575E-01
 -1       570 4.30915E-01
 -1       571 3.09968E-01
 -1       572 2.12309E-01
 -1       573 1.43285E-01
 -1       574 1.34646E-01
 -1       575 1.52761E-01
 -1       576 1.25398E-01
 -1       577 1.17074E-01
 -1       578 1.52761E-01
 -1       579 1.49032E-01
 -1       580 1.49032E-01
 -1       581 1.39014E-01
 -1       582 1.11616E-01
 -1       583 1.26697E-01
 -1       584 1.17672E-01
 -1       585 1.10928E+01
 -1       586 7.14796E-01
 -1       587 2.48798E+01
 -1       588 5.84198E+00
 -1       589 1.90102E+01
 -1       590 2.92649E+01
 -1       591 4.55088E-01
 -1       592 3.14304E+01
 -1       593 4.59219E+00
 -1       594 7.03715E+00
 -1       595 2.23678E+01
 -1       596 6.45048E+00
 -1       597 8.69637E+00
 -1       598 1.16707E+01
 -1       599 2.70575E+01
 -1       600 1.46743E+01
 -1       601 1.04722E+01
 -1       602 5.73908E+00
 -1       603 8.03423E+00
 -1       604 3.84682E+00
 -1       605 6.93112E+00
 -1       606 1.32891E+00
 -1       607 4.99551E+00
 -1       608 7.10232E+00
 -1       609 7.86987E+00
 -1       610 7.13605E-01
 -1       611 6.38354E+00
 -1       612 8.31109E+00
 -1       613 1.11360E+01
 -1       614 9.60596E+00
 -1       615 1.01170E-01
 -1       616 4.74220E+00
 -1       617 2.07829E+01
 -1       618 7.22701E+00
 -1       619 3.57223E-01
 -1       620 3.41826E-01
 -1       621 3.60694E-01
 -1       622 3.36631E-01
 -1       623 1.40864E+01
 -1       624 1.95451E-01
 -1       625 4.03271E-01
 -1       626 3.27045E-01
 -1       627 4.02018E-01
 -1       628 3.86891E-01
 -1       629 3.42912E-01
 -1       630 2.88185E-01
 -1       631 2.39827E-01
 -1       632 2.05709E-01
 -1       633 1.67341E-01
 -1       634 1.26500E-01
 -1       635 8.41817E-02
 -1       636 9.81673E-02
 -1       637 1.52709E-01
 -1       638 2.23686E-01
 -1       639 3.01781E-01
 -1       640 3.85641E-01
 -1       641 4.71818E-01
 -1       642 5.53708E-01
 -1       643 6.33319E-01
 -1       644 7.54448E-01
 -1       645 8.70982E-01
 -1       646 9.48151E-01
 -1       647 1.17266E+00
 -1       648 1.36009E+00
 -1       649 1.60096E+00
 -1       650 1.60858E+00
 -1       651 2.63621E+00
 -1       652 3.93492E+00
 -1       653 2.70480E+00
 -1       654 2.32441E+00
 -1       655 1.67888E+00
 -1       656 1.66561E+00
 -1       657 1.36386E+00
 -1       658 1.22788E+00
 -1       659 9.36245E-01
 -1       660 8.73100E-01
 -1       661 7.62874E-01
 -1       662 6.38628E-01
 -1       663 5.54574E-01
 -1       664 4.76298E-01
 -1       665 3.93165E-01
 -1       666 3.13031E-01
 -1       667 2.40019E-01
 -1       668 2.00818E-01
 -1       669 3.64596E+00
 -1       670 3.99615E-01
 -1       671 2.44020E-01
 -1       672 2.02092E-01
 -1       673 1.59187E-01
 -1       674 1.14957E-01
 -1       675 1.30456E-01
 -1       676 1.83271E-01
 -1       677 2.77877E-01
 -1       678 3.91452E-01
 -1       679 5.28004E-01
 -1       680 6.91291E-01
 -1       681 8.84140E-01
 -1       682 1.10720E+00
 -1       683 1.35629E+00
 -1       684 1.61672E+00
 -1       685 1.85873E+00
 -1       686 2.40560E+00
 -1       687 3.02455E+00
 -1       688 3.94291E+00
 -1       689 3.61012E+00
 -1       690 3.42516E+00
 -1       691 2.73852E+00
 -1       692 2.19453E+00
 -1       693 1.76342E+00
 -1       694 1.50955E+00
 -1       695 1.25029E+00
 -1       696 1.01003E+00
 -1       697 7.98646E-01
 -1       698 6.18477E-01
 -1       699 4.68242E-01
 -1       700 3.45603E-01
 -1       701 2.44389E-01
 -1       702 1.78080E-01
 -1       703 1.53133E+01
 -1       704 1.98755E-01
 -1       705 1.97188E-01
 -1       706 1.90764E-01
 -1       707 1.98755E-01
 -1       708 1.90764E-01
 -1       709 1.67234E-01
 -1       710 1.95451E-01
 -1       711 8.71019E+00
 -1       712 4.69837E-01
 -1       713 1.21064E+01
 -1       714 7.65824E+00
 -1       715 8.45986E+00
 -1       716 3.61029E+00
 -1       717 1.23386E+01
 -1       718 2.83539E-01
 -1       719 3.60694E-01
 -1       720 3.60979E-01
 -1       721 1.49962E+01
 -1       722 5.21500E-01
 -1       723 2.44409E+00
 -1       724 1.76981E+01
 -1       725 9.86022E+00
 -1       726 1.37910E+01
 -1       727 5.50143E+00
 -1       728 4.46375E+00
 -1       729 6.67055E+00
 -1       730 4.43838E+00
 -1       731 6.29364E+00
 -1       732 5.44265E-01
 -1       733 4.13962E-01
 -1       734 3.41124E-01
 -1       735 1.34829E+01
 -1       736 1.52074E-01
 -1       737 4.43059E+00
 -1       738 3.30591E+00
 -1       739 4.76285E+00
 -1       740 3.56405E-01
 -1       741 1.70149E-01
 -1       742 9.05525E+00
 -1       743 2.77023E+00
 -1       744 4.22042E-01
 -1       745 2.38542E-01
 -1       746 2.99634E-01
 -1       747 2.35488E-01
 -1       748 2.54295E-01
 -1       749 2.42609E-01
 -1       750 2.14056E-01
 -1       751 1.76179E-01
 -1       752 1.47339E-01
 -1       753 1.12379E-01
 -1       754 7.27453E-02
 -1       755 7.36058E-02
 -1       756 1.12534E-01
 -1       757 1.71828E-01
 -1       758 2.40476E-01
 -1       759 3.23516E-01
 -1       760 4.23931E-01
 -1       761 5.34868E-01
 -1       762 6.59050E-01
 -1       763 7.92252E-01
 -1       764 9.72250E-01
 -1       765 1.22198E+00
 -1       766 1.46046E+00
 -1       767 1.69905E+00
 -1       768 1.93646E+00
 -1       769 2.41579E+00
 -1       770 2.63621E+00
 -1       771 3.64596E+00
 -1       772 2.26791E+00
 -1       773 1.91673E+00
 -1       774 1.80405E+00
 -1       775 1.49388E+00
 -1       776 1.26146E+00
 -1       777 1.01483E+00
 -1       778 8.10339E-01
 -1       779 6.79649E-01
 -1       780 5.51581E-01
 -1       781 4.40387E-01
 -1       782 3.40508E-01
 -1       783 3.19341E-01
 -1       784 2.82854E-01
 -1       785 1.26502E-01
 -1       786 1.66545E-01
 -1       787 6.76347E-02
 -1       788 1.17008E-01
 -1       789 1.93379E-01
 -1       790 2.93475E-01
 -1       791 4.17691E-01
 -1       792 5.68469E-01
 -1       793 7.47801E-01
 -1       794 9.53063E-01
 -1       795 1.22057E+00
 -1       796 1.60153E+00
 -1       797 2.15362E+00
 -1       798 2.87424E+00
 -1       799 3.65940E+00
 -1       800 4.30630E+00
 -1       801 2.60135E+00
 -1       802 1.92234E+00
 -1       803 1.42344E+00
 -1       804 1.09756E+00
 -1       805 8.63230E-01
 -1       806 6.67531E-01
 -1       807 5.00938E-01
 -1       808 3.63206E-01
 -1       809 2.53621E-01
 -1       810 2.04223E-01
 -1       811 2.45883E-01
 -1       812 1.11896E+01
 -1       813 1.00381E+01
 -1       814 2.45883E-01
 -1       815 6.68482E+00
 -1       816 3.06385E-01
 -1       817 4.52321E+00
 -1       818 2.33367E-01
 -1       819 2.52180E-01
 -1       820 4.19046E+00
 -1       821 2.69249E-01
 -1       822 5.64722E+00
 -1       823 8.52780E+00
 -1       824 8.41231E-02
 -1       825 2.00818E-01
 -1       826 7.47274E+00
 -1       827 9.37834E+00
 -1       828 2.65331E-01
 -1       829 2.86879E-01
 -1       830 5.81703E+00
 -1       831 8.60932E+00
 -1       832 4.27963E+00
 -1       833 8.19574E+00
 -1       834 2.44409E+00
 -1       835 2.80209E-01
 -1       836 2.44267E-01
 -1       837 2.80290E-01
 -1       838 2.56688E+00
 -1       839 3.93492E+00
 -1       840 2.00047E-01
 -1       841 8.35395E+00
 -1       842 8.58307E+00
 -1       843 4.93987E+00
 -1       844 2.57518E-01
 -1       845 7.60409E+00
 -1       846 2.57518E-01
 -1       847 2.34306E-01
 -1       848 3.84744E+00
 -1       849 4.11725E+00
 -1       850 2.86879E-01
 -1       851 5.79117E+00
 -1       852 8.40676E+00
 -1       853 9.37834E+00
 -1       854 2.80595E-01
 -1       855 2.88632E-01
 -1       856 1.70588E-01
 -1       857 1.73008E-01
 -1       858 1.58458E-01
 -1       859 1.32598E-01
 -1       860 1.12741E-01
 -1       861 9.94004E-02
 -1       862 1.06037E-01
 -1       863 1.13713E-01
 -1       864 1.71828E-01
 -1       865 2.40476E-01
 -1       866 3.17147E-01
 -1       867 3.99911E-01
 -1       868 5.03147E-01
 -1       869 6.27513E-01
 -1       870 8.19187E-01
 -1       871 1.07772E+00
 -1       872 1.35219E+00
 -1       873 1.66042E+00
 -1       874 2.32090E+00
 -1       875 2.90029E+00
 -1       876 2.62003E+00
 -1       877 2.39619E+00
 -1       878 1.77860E+00
 -1       879 1.40407E+00
 -1       880 1.12594E+00
 -1       881 8.62279E-01
 -1       882 6.47792E-01
 -1       883 5.21510E-01
 -1       884 4.10920E-01
 -1       885 3.29277E-01
 -1       886 1.54366E-01
 -1       887 1.83963E-01
 -1       888 1.13020E-01
 -1       889 3.90507E-01
 -1       890 5.33385E-01
 -1       891 7.12645E-01
 -1       892 9.38072E-01
 -1       893 1.22057E+00
 -1       894 1.57100E+00
 -1       895 2.05630E+00
 -1       896 3.09563E+00
 -1       897 5.03514E+00
 -1       898 3.02178E-01
 -1       899 1.42182E+00
 -1       900 1.83261E+00
 -1       901 6.18094E+00
 -1       902 2.55615E+00
 -1       903 1.09756E+00
 -1       904 8.38299E-01
 -1       905 6.32798E-01
 -1       906 4.67557E-01
 -1       907 3.42366E-01
 -1       908 2.48737E-01
 -1       909 4.80023E+00
 -1       910 2.76116E-01
 -1       911 1.26498E-01
 -1       912 2.88632E-01
 -1       913 3.02178E-01
 -1       914 5.40216E+00
 -1       915 3.99011E+00
 -1       916 2.18343E-01
 -1       917 1.42337E-01
 -1       918 6.69388E+00
 -1       919 3.80148E+00
 -1       920 6.60403E+00
 -1       921 2.33503E-01
 -1       922 5.80154E+00
 -1       923 6.48496E+00
 -1       924 6.69388E+00
 -1       925 5.79618E+00
 -1       926 5.31689E+00
 -1       927 1.52308E-01
 -1       928 1.49162E-01
 -1       929 9.54285E-02
 -1       930 1.01208E-01
 -1       931 4.14751E-01
 -1       932 1.63996E-01
 -1       933 4.57238E+00
 -1       934 1.58534E-01
 -1       935 5.53034E+00
 -1       936 6.06853E+00
 -1       937 5.61226E-01
 -1       938 3.19341E-01
 -1       939 2.19213E-01
 -1       940 2.16198E-01
 -1       941 6.28235E+00
 -1       942 5.61226E-01
 -1       943 3.45133E+00
 -1       944 1.18304E-01
 -1       945 1.26198E-01
 -1       946 1.18717E-01
 -1       947 1.02871E-01
 -1       948 1.13105E-01
 -1       949 1.24379E-01
 -1       950 1.37336E-01
 -1       951 1.59952E-01
 -1       952 2.24948E-01
 -1       953 3.02588E-01
 -1       954 3.94816E-01
 -1       955 5.03147E-01
 -1       956 6.27513E-01
 -1       957 7.95980E-01
 -1       958 1.04164E+00
 -1       959 1.48676E+00
 -1       960 2.80701E+00
 -1       961 3.79900E+00
 -1       962 2.90449E+00
 -1       963 2.51137E-01
 -1       964 5.04218E+00
 -1       965 3.33577E+00
 -1       966 2.71425E+00
 -1       967 1.59524E+00
 -1       968 1.09591E+00
 -1       969 8.24034E-01
 -1       970 6.46556E-01
 -1       971 5.21510E-01
 -1       972 4.09563E-01
 -1       973 1.59489E-01
 -1       974 6.02834E-01
 -1       975 4.49121E-01
 -1       976 1.08438E+00
 -1       977 1.47840E+00
 -1       978 2.05630E+00
 -1       979 2.87182E+00
 -1       980 4.30517E+00
 -1       981 1.30509E+00
 -1       982 2.64076E+00
 -1       983 1.81661E+00
 -1       984 7.22775E-01
 -1       985 5.30901E-01
 -1       986 2.51137E-01
 -1       987 2.19213E-01
 -1       988 1.60578E-01
 -1       989 5.33593E+00
 -1       990 5.41281E+00
 -1       991 8.06127E-01
 -1       992 2.97299E+00
 -1       993 3.90744E+00
 -1       994 5.04218E+00
 -1       995 9.56611E-01
 -1       996 3.33577E+00
 -1       997 2.35279E-01
 -1       998 1.14400E-01
 -1       999 1.34594E-01
 -1      1000 4.83603E-01
 -1      1001 1.31297E-01
 -1      1002 4.73052E+00
 -1      1003 1.07163E-01
 -1      1004 5.50720E+00
 -1      1005 3.79900E+00
 -1      1006 1.52729E-01
 -1      1007 1.05996E-01
 -1      1008 3.97557E-01
 -1      1009 5.33593E+00
 -1      1010 1.48122E-01
 -1      1011 4.57076E+00
 -1      1012 5.61226E-01
 -1      1013 3.15987E-01
 -1      1014 3.29745E-01
 -1      1015 4.83603E-01
 -1      1016 9.51611E-02
 -1      1017 1.02151E-01
 -1      1018 1.14748E-01
 -1      1019 1.29433E-01
 -1      1020 1.47559E-01
 -1      1021 1.69560E-01
 -1      1022 2.04258E-01
 -1      1023 2.60998E-01
 -1      1024 3.48743E-01
 -1      1025 4.61198E-01
 -1      1026 6.06634E-01
 -1      1027 7.95980E-01
 -1      1028 1.04164E+00
 -1      1029 1.40666E+00
 -1      1030 2.49768E+00
 -1      1031 4.47438E-01
 -1      1032 1.71392E-01
 -1      1033 3.48579E+00
 -1      1034 3.37806E-01
 -1      1035 2.07266E+00
 -1      1036 1.38536E+00
 -1      1037 1.08158E+00
 -1      1038 8.24034E-01
 -1      1039 6.32756E-01
 -1      1040 4.89583E-01
 -1      1041 1.20380E-01
 -1      1042 1.43945E+00
 -1      1043 1.09655E+00
 -1      1044 3.23692E+00
 -1      1045 5.92092E-01
 -1      1046 1.32485E-01
 -1      1047 1.42741E-01
 -1      1048 1.34067E+00
 -1      1049 4.60452E+00
 -1      1050 7.93613E-01
 -1      1051 1.71392E-01
 -1      1052 2.03149E+00
 -1      1053 9.18704E-02
 -1      1054 1.98629E+00
 -1      1055 1.11973E-01
 -1      1056 8.21631E-02
 -1      1057 3.15091E+00
 -1      1058 1.14068E-01
 -1      1059 2.51897E-01
 -1      1060 1.57555E-01
 -1      1061 3.97507E+00
 -1      1062 7.73764E-01
 -1      1063 1.47353E-01
 -1      1064 9.94671E-01
 -1      1065 1.02862E-01
 -1      1066 4.42103E-01
 -1      1067 5.55554E-01
 -1      1068 1.12803E-01
 -1      1069 2.36557E+00
 -1      1070 1.95072E-01
 -1      1071 9.96137E-02
 -1      1072 1.16633E-01
 -1      1073 1.29433E-01
 -1      1074 1.79285E-01
 -1      1075 1.69560E-01
 -1      1076 2.10646E-01
 -1      1077 2.77132E-01
 -1      1078 3.68471E-01
 -1      1079 4.96361E-01
 -1      1080 6.79720E-01
 -1      1081 9.50257E-01
 -1      1082 1.36467E+00
 -1      1083 1.87797E+00
 -1      1084 2.49768E+00
 -1      1085 1.45985E+00
 -1      1086 1.79215E-01
 -1      1087 1.09686E+00
 -1      1088 1.23693E+00
 -1      1089 5.58250E-01
 -1      1090 1.16642E+00
 -1      1091 1.36467E+00
 -1      1092 2.58522E+00
 -1      1093 9.50257E-01
 -1      1094 1.10033E-01
 -1      1095 4.97418E-01
 -1      1096 6.79720E-01
 -1      1097 1.14068E-01
 -1      1098 1.07890E-01
 -1      1099 1.95791E-01
 -1      1100 3.87368E-01
 -1      1101 6.57733E-02
 -1      1102 9.27086E-02
 -1      1103 3.05220E-01
 -1      1104 1.79285E-01
 -1      1105 1.23693E+00
 -1      1106 2.22117E+00
 -1      1107 1.16762E+00
 -1      1108 1.69571E+00
 -1      1109 1.20654E-01
 -1      1110 2.15558E+00
 -1      1111 1.60122E+00
 -1      1112 2.43101E-01
 -1      1113 9.68793E-02
 -1      1114 6.36982E-02
 -1      1115 1.25399E-01
 -1      1116 1.27312E-01
 -1      1117 1.79285E-01
 -1      1118 1.23693E+00
 -1      1119 1.20654E-01
 -1      1120 8.23713E-02
 -1      1121 1.31501E+01
 -1      1122 8.40331E+00
 -1      1123 2.73593E+00
 -1      1124 1.55114E+00
 -1      1125 1.16446E+00
 -1      1126 9.69034E-01
 -1      1127 8.51169E-01
 -1      1128 7.79581E-01
 -1      1129 7.53891E-01
 -1      1130 7.82738E-01
 -1      1131 8.54122E-01
 -1      1132 9.73128E-01
 -1      1133 1.17575E+00
 -1      1134 1.56506E+00
 -1      1135 2.66270E+00
 -1      1136 6.07022E+00
 -1      1137 1.13442E+01
 -1      1138 1.31501E+01
 -1      1139 8.73958E+00
 -1      1140 3.84209E+00
 -1      1141 2.74126E+00
 -1      1142 1.75406E+00
 -1      1143 1.20867E+00
 -1      1144 9.20172E-01
 -1      1145 7.17685E-01
 -1      1146 5.66146E-01
 -1      1147 4.50896E-01
 -1      1148 3.63938E-01
 -1      1149 2.99724E-01
 -1      1150 2.53524E-01
 -1      1151 2.41503E-01
 -1      1152 2.66289E-01
 -1      1153 3.05314E-01
 -1      1154 3.49519E-01
 -1      1155 3.92695E-01
 -1      1156 4.60799E-01
 -1      1157 5.73890E-01
 -1      1158 7.07494E-01
 -1      1159 8.24365E-01
 -1      1160 8.75625E-01
 -1      1161 9.00674E-01
 -1      1162 9.23070E-01
 -1      1163 1.02016E+00
 -1      1164 1.24596E+00
 -1      1165 1.85675E+00
 -1      1166 2.65744E+00
 -1      1167 2.97605E+00
 -1      1168 3.00356E+00
 -1      1169 3.03106E+00
 -1      1170 2.77011E+00
 -1      1171 2.03873E+00
 -1      1172 1.37516E+00
 -1      1173 1.05643E+00
 -1      1174 9.30841E-01
 -1      1175 9.04921E-01
 -1      1176 8.79002E-01
 -1      1177 8.35632E-01
 -1      1178 7.23954E-01
 -1      1179 5.85438E-01
 -1      1180 4.69811E-01
 -1      1181 4.02992E-01
 -1      1182 3.54707E-01
 -1      1183 2.98458E-01
 -1      1184 2.38247E-01
 -1      1185 1.97723E-01
 -1      1186 1.53120E-01
 -1      1187 7.39264E-02
 -1      1188 1.40462E+01
 -1      1189 8.72516E+00
 -1      1190 2.91446E+00
 -1      1191 2.05218E+00
 -1      1192 1.42024E+00
 -1      1193 1.04385E+00
 -1      1194 8.43036E-01
 -1      1195 6.92367E-01
 -1      1196 5.71960E-01
 -1      1197 4.76783E-01
 -1      1198 4.04278E-01
 -1      1199 3.52785E-01
 -1      1200 3.20832E-01
 -1      1201 3.11731E-01
 -1      1202 3.24909E-01
 -1      1203 3.68005E-01
 -1      1204 4.46251E-01
 -1      1205 5.46560E-01
 -1      1206 6.58778E-01
 -1      1207 7.70480E-01
 -1      1208 8.58872E-01
 -1      1209 9.31756E-01
 -1      1210 1.13641E+00
 -1      1211 1.44409E+00
 -1      1212 1.64186E+00
 -1      1213 1.90070E+00
 -1      1214 2.10293E+00
 -1      1215 2.42824E+00
 -1      1216 3.44328E+00
 -1      1217 4.45839E+00
 -1      1218 5.10302E+00
 -1      1219 5.42227E+00
 -1      1220 4.74408E+00
 -1      1221 3.12563E+00
 -1      1222 1.90046E+00
 -1      1223 1.75200E+00
 -1      1224 1.89751E+00
 -1      1225 1.90657E+00
 -1      1226 1.80130E+00
 -1      1227 1.55892E+00
 -1      1228 1.29510E+00
 -1      1229 1.04321E+00
 -1      1230 8.05839E-01
 -1      1231 6.03397E-01
 -1      1232 4.61256E-01
 -1      1233 3.63348E-01
 -1      1234 2.75162E-01
 -1      1235 1.91710E-01
 -1      1236 1.25528E-01
 -1      1237 6.48631E-02
 -1      1238 3.59754E-02
 -1      1239 4.28554E-02
 -1      1240 4.08535E-02
 -1      1241 3.01630E-02
 -1      1242 2.03293E-02
 -1      1243 2.57370E-02
 -1      1244 3.58828E-02
 -1      1245 4.00352E-02
 -1      1246 4.05945E-02
 -1      1247 3.85856E-02
 -1      1248 3.18540E-02
 -1      1249 2.06764E-02
 -1      1250 1.78991E-02
 -1      1251 2.85168E-02
 -1      1252 4.37378E-02
 -1      1253 5.40472E-02
 -1      1254 4.28657E-02
 -1      1255 2.46185E+01
 -1      1256 3.58506E+01
 -1      1257 4.68443E+01
 -1      1258 3.35099E+01
 -1      1259 1.66078E+01
 -1      1260 1.32799E+01
 -1      1261 1.35198E+01
 -1      1262 1.31578E+01
 -1      1263 1.27958E+01
 -1      1264 1.45803E+01
 -1      1265 3.01603E+01
 -1      1266 4.39559E+01
 -1      1267 3.42781E+01
 -1      1268 2.52061E+01
 -1      1269 2.58119E+01
 -1      1270 3.73993E+01
 -1      1271 4.89867E+01
 -1      1272 3.59627E+01
 -1      1273 1.74621E+01
 -1      1274 1.21931E+01
 -1      1275 1.26193E+01
 -1      1276 1.28378E+01
 -1      1277 1.26851E+01
 -1      1278 1.31561E+01
 -1      1279 2.27064E+01
 -1      1280 3.16330E+01
 -1      1281 2.96921E+01
 -1      1282 2.58740E+01
 -1      1283 2.41884E+01
 -1      1284 1.31501E+01
 -1      1285 4.86322E+00
 -1      1286 9.61004E+00
 -1      1287 2.05276E+00
 -1      1288 2.97333E+00
 -1      1289 4.18006E+00
 -1      1290 1.39519E+00
 -1      1291 1.65941E+00
 -1      1292 1.89682E+00
 -1      1293 1.09780E+00
 -1      1294 1.22026E+00
 -1      1295 1.32853E+00
 -1      1296 9.33122E-01
 -1      1297 1.00609E+00
 -1      1298 1.06188E+00
 -1      1299 8.34046E-01
 -1      1300 8.78948E-01
 -1      1301 9.15999E-01
 -1      1302 7.73650E-01
 -1      1303 8.00336E-01
 -1      1304 8.28115E-01
 -1      1305 7.54886E-01
 -1      1306 7.53891E-01
 -1      1307 7.74645E-01
 -1      1308 8.04222E-01
 -1      1309 7.76370E-01
 -1      1310 7.76370E-01
 -1      1311 8.81328E-01
 -1      1312 8.37796E-01
 -1      1313 8.31428E-01
 -1      1314 1.01327E+00
 -1      1315 9.37798E-01
 -1      1316 9.21472E-01
 -1      1317 1.23569E+00
 -1      1318 1.10855E+00
 -1      1319 1.07321E+00
 -1      1320 1.67493E+00
 -1      1321 1.41277E+00
 -1      1322 1.34557E+00
 -1      1323 2.87676E+00
 -1      1324 2.04128E+00
 -1      1325 1.88899E+00
 -1      1326 6.28422E+00
 -1      1327 3.71218E+00
 -1      1328 3.09076E+00
 -1      1329 1.40462E+01
 -1      1330 1.13442E+01
 -1      1331 8.98618E+00
 -1      1332 1.40462E+01
 -1      1333 8.73958E+00
 -1      1334 4.32903E+00
 -1      1335 3.84209E+00
 -1      1336 3.35515E+00
 -1      1337 3.84209E+00
 -1      1338 2.74126E+00
 -1      1339 2.12737E+00
 -1      1340 2.74126E+00
 -1      1341 1.79448E+00
 -1      1342 1.42117E+00
 -1      1343 1.79448E+00
 -1      1344 1.21113E+00
 -1      1345 1.03906E+00
 -1      1346 1.25156E+00
 -1      1347 9.20172E-01
 -1      1348 8.03752E-01
 -1      1349 9.22637E-01
 -1      1350 7.17685E-01
 -1      1351 6.31617E-01
 -1      1352 7.17685E-01
 -1      1353 5.66509E-01
 -1      1354 5.01038E-01
 -1      1355 5.66509E-01
 -1      1356 4.54244E-01
 -1      1357 4.04464E-01
 -1      1358 4.54606E-01
 -1      1359 3.66805E-01
 -1      1360 3.29626E-01
 -1      1361 3.70153E-01
 -1      1362 2.99726E-01
 -1      1363 2.72690E-01
 -1      1364 3.02592E-01
 -1      1365 2.53524E-01
 -1      1366 2.34359E-01
 -1      1367 2.53525E-01
 -1      1368 2.28710E-01
 -1      1369 2.35854E-01
 -1      1370 2.28710E-01
 -1      1371 2.48647E-01
 -1      1372 2.66289E-01
 -1      1373 2.35854E-01
 -1      1374 2.83931E-01
 -1      1375 3.05314E-01
 -1      1376 2.66289E-01
 -1      1377 3.26697E-01
 -1      1378 3.49519E-01
 -1      1379 3.05314E-01
 -1      1380 3.72341E-01
 -1      1381 3.92695E-01
 -1      1382 3.49519E-01
 -1      1383 4.33896E-01
 -1      1384 4.81647E-01
 -1      1385 4.13543E-01
 -1      1386 5.21221E-01
 -1      1387 5.86561E-01
 -1      1388 4.94318E-01
 -1      1389 6.39231E-01
 -1      1390 7.07494E-01
 -1      1391 5.86561E-01
 -1      1392 7.75757E-01
 -1      1393 8.24365E-01
 -1      1394 7.07494E-01
 -1      1395 8.72973E-01
 -1      1396 8.75625E-01
 -1      1397 8.24365E-01
 -1      1398 8.78278E-01
 -1      1399 9.00674E-01
 -1      1400 8.75625E-01
 -1      1401 9.23070E-01
 -1      1402 9.23070E-01
 -1      1403 9.00674E-01
 -1      1404 9.16501E-01
 -1      1405 1.01359E+00
 -1      1406 9.16501E-01
 -1      1407 1.11725E+00
 -1      1408 1.24596E+00
 -1      1409 1.01359E+00
 -1      1410 1.45670E+00
 -1      1411 1.93878E+00
 -1      1412 1.32799E+00
 -1      1413 2.33883E+00
 -1      1414 2.65744E+00
 -1      1415 1.93878E+00
 -1      1416 2.97605E+00
 -1      1417 2.97605E+00
 -1      1418 2.65744E+00
 -1      1419 2.96760E+00
 -1      1420 2.99511E+00
 -1      1421 2.96760E+00
 -1      1422 3.03106E+00
 -1      1423 3.03106E+00
 -1      1424 2.99511E+00
 -1      1425 2.77011E+00
 -1      1426 2.50915E+00
 -1      1427 2.77011E+00
 -1      1428 2.08943E+00
 -1      1429 1.61900E+00
 -1      1430 2.08943E+00
 -1      1431 1.37516E+00
 -1      1432 1.18202E+00
 -1      1433 1.42586E+00
 -1      1434 1.02823E+00
 -1      1435 9.02643E-01
 -1      1436 1.02823E+00
 -1      1437 9.30841E-01
 -1      1438 9.30841E-01
 -1      1439 9.02643E-01
 -1      1440 8.95109E-01
 -1      1441 8.69189E-01
 -1      1442 8.95109E-01
 -1      1443 8.79002E-01
 -1      1444 8.79002E-01
 -1      1445 8.69189E-01
 -1      1446 8.35632E-01
 -1      1447 7.92261E-01
 -1      1448 8.35632E-01
 -1      1449 7.23954E-01
 -1      1450 6.55646E-01
 -1      1451 7.23954E-01
 -1      1452 5.97776E-01
 -1      1453 5.27567E-01
 -1      1454 5.97776E-01
 -1      1455 4.85020E-01
 -1      1456 4.39601E-01
 -1      1457 4.97358E-01
 -1      1458 4.02992E-01
 -1      1459 3.81592E-01
 -1      1460 4.18201E-01
 -1      1461 3.54707E-01
 -1      1462 3.27823E-01
 -1      1463 3.54707E-01
 -1      1464 2.98458E-01
 -1      1465 2.69092E-01
 -1      1466 2.98458E-01
 -1      1467 2.38247E-01
 -1      1468 2.07403E-01
 -1      1469 2.38247E-01
 -1      1470 1.97723E-01
 -1      1471 1.88043E-01
 -1      1472 1.97723E-01
 -1      1473 1.53120E-01
 -1      1474 1.18197E-01
 -1      1475 1.53120E-01
 -1      1476 8.71363E-02
 -1      1477 8.71363E-02
 -1      1478 3.40413E+00
 -1      1479 8.72516E+00
 -1      1480 8.72516E+00
 -1      1481 2.42479E+00
 -1      1482 2.91446E+00
 -1      1483 2.91446E+00
 -1      1484 1.67956E+00
 -1      1485 2.05218E+00
 -1      1486 2.05218E+00
 -1      1487 1.16093E+00
 -1      1488 1.42024E+00
 -1      1489 1.42024E+00
 -1      1490 9.26784E-01
 -1      1491 1.04385E+00
 -1      1492 1.04385E+00
 -1      1493 7.59287E-01
 -1      1494 8.43036E-01
 -1      1495 8.43036E-01
 -1      1496 6.25447E-01
 -1      1497 6.92367E-01
 -1      1498 6.92367E-01
 -1      1499 5.18473E-01
 -1      1500 5.71960E-01
 -1      1501 5.71960E-01
 -1      1502 4.35093E-01
 -1      1503 4.76783E-01
 -1      1504 4.76783E-01
 -1      1505 3.73462E-01
 -1      1506 4.04278E-01
 -1      1507 4.04278E-01
 -1      1508 3.32107E-01
 -1      1509 3.52785E-01
 -1      1510 3.52785E-01
 -1      1511 3.09557E-01
 -1      1512 3.20832E-01
 -1      1513 3.20832E-01
 -1      1514 3.09038E-01
 -1      1515 3.06864E-01
 -1      1516 3.06864E-01
 -1      1517 3.24909E-01
 -1      1518 3.13905E-01
 -1      1519 3.09038E-01
 -1      1520 3.76264E-01
 -1      1521 3.44171E-01
 -1      1522 3.33168E-01
 -1      1523 4.60287E-01
 -1      1524 4.14134E-01
 -1      1525 3.90300E-01
 -1      1526 5.58661E-01
 -1      1527 5.04505E-01
 -1      1528 4.72388E-01
 -1      1529 6.63165E-01
 -1      1530 6.05103E-01
 -1      1531 5.63048E-01
 -1      1532 7.70480E-01
 -1      1533 7.16841E-01
 -1      1534 6.63165E-01
 -1      1535 8.58872E-01
 -1      1536 8.24120E-01
 -1      1537 7.70480E-01
 -1      1538 9.31756E-01
 -1      1539 8.93625E-01
 -1      1540 8.58872E-01
 -1      1541 1.20917E+00
 -1      1542 1.04265E+00
 -1      1543 1.00452E+00
 -1      1544 1.44409E+00
 -1      1545 1.30294E+00
 -1      1546 1.20917E+00
 -1      1547 1.64186E+00
 -1      1548 1.58523E+00
 -1      1549 1.44409E+00
 -1      1550 1.90070E+00
 -1      1551 1.69848E+00
 -1      1552 1.64186E+00
 -1      1553 2.10293E+00
 -1      1554 2.10293E+00
 -1      1555 1.90070E+00
 -1      1556 2.41020E+00
 -1      1557 2.08489E+00
 -1      1558 2.08489E+00
 -1      1559 3.44328E+00
 -1      1560 2.75355E+00
 -1      1561 2.41020E+00
 -1      1562 4.45839E+00
 -1      1563 4.13301E+00
 -1      1564 3.44328E+00
 -1      1565 5.10302E+00
 -1      1566 4.78376E+00
 -1      1567 4.45839E+00
 -1      1568 5.42227E+00
 -1      1569 5.42227E+00
 -1      1570 5.10302E+00
 -1      1571 4.06589E+00
 -1      1572 4.74408E+00
 -1      1573 4.74408E+00
 -1      1574 2.18537E+00
 -1      1575 3.12563E+00
 -1      1576 3.12563E+00
 -1      1577 1.48022E+00
 -1      1578 1.76513E+00
 -1      1579 1.76513E+00
 -1      1580 1.75200E+00
 -1      1581 1.61555E+00
 -1      1582 1.48022E+00
 -1      1583 1.89751E+00
 -1      1584 1.88845E+00
 -1      1585 1.75200E+00
 -1      1586 1.90657E+00
 -1      1587 1.90657E+00
 -1      1588 1.89751E+00
 -1      1589 1.69604E+00
 -1      1590 1.80130E+00
 -1      1591 1.80130E+00
 -1      1592 1.42181E+00
 -1      1593 1.55892E+00
 -1      1594 1.55892E+00
 -1      1595 1.17021E+00
 -1      1596 1.29692E+00
 -1      1597 1.29692E+00
 -1      1598 9.32458E-01
 -1      1599 1.05764E+00
 -1      1600 1.05946E+00
 -1      1601 7.13954E-01
 -1      1602 8.26141E-01
 -1      1603 8.40573E-01
 -1      1604 5.30459E-01
 -1      1605 6.20713E-01
 -1      1606 6.41015E-01
 -1      1607 4.09369E-01
 -1      1608 4.61256E-01
 -1      1609 4.78572E-01
 -1      1610 3.17327E-01
 -1      1611 3.63348E-01
 -1      1612 3.63348E-01
 -1      1613 2.32996E-01
 -1      1614 2.75162E-01
 -1      1615 2.75162E-01
 -1      1616 1.53036E-01
 -1      1617 1.94322E-01
 -1      1618 1.94322E-01
 -1      1619 1.00631E-01
 -1      1620 1.25528E-01
 -1      1621 1.28139E-01
 -1      1622 7.17431E-02
 -1      1623 5.19292E-02
 -1      1624 5.19292E-02
 -1      1625 5.03505E-02
 -1      1626 5.23524E-02
 -1      1627 6.14262E-02
 -1      1628 4.16619E-02
 -1      1629 5.03505E-02
 -1      1630 6.18494E-02
 -1      1631 2.66718E-02
 -1      1632 2.78169E-02
 -1      1633 4.80044E-02
 -1      1634 4.57917E-02
 -1      1635 3.92388E-02
 -1      1636 4.67264E-02
 -1      1637 5.69848E-02
 -1      1638 5.33919E-02
 -1      1639 6.68937E-02
 -1      1640 5.96160E-02
 -1      1641 5.90566E-02
 -1      1642 7.65657E-02
 -1      1643 5.96160E-02
 -1      1644 5.96160E-02
 -1      1645 7.86374E-02
 -1      1646 5.70505E-02
 -1      1647 5.90595E-02
 -1      1648 7.80809E-02
 -1      1649 4.71965E-02
 -1      1650 5.19191E-02
 -1      1651 7.23930E-02
 -1      1652 3.17011E-02
 -1      1653 3.81560E-02
 -1      1654 5.82212E-02
 -1      1655 2.54488E-02
 -1      1656 2.17712E-02
 -1      1657 3.92508E-02
 -1      1658 4.67261E-02
 -1      1659 3.97860E-02
 -1      1660 4.36581E-02
 -1      1661 5.50070E-02
 -1      1662 4.67261E-02
 -1      1663 5.79953E-02
 -1      1664 6.37152E-02
 -1      1665 6.16868E-02
 -1      1666 6.46751E-02
 -1      1667 9.47759E-02
 -1      1668 2.66427E+01
 -1      1669 2.64043E+01
 -1      1670 3.78211E+01
 -1      1671 2.68274E+01
 -1      1672 4.68443E+01
 -1      1673 4.68443E+01
 -1      1674 2.03424E+01
 -1      1675 3.36769E+01
 -1      1676 1.23209E+01
 -1      1677 1.58886E+01
 -1      1678 1.32799E+01
 -1      1679 1.30400E+01
 -1      1680 1.35198E+01
 -1      1681 1.35198E+01
 -1      1682 1.25133E+01
 -1      1683 1.28753E+01
 -1      1684 1.27958E+01
 -1      1685 1.27958E+01
 -1      1686 1.38410E+01
 -1      1687 1.20566E+01
 -1      1688 3.07756E+01
 -1      1689 1.69799E+01
 -1      1690 4.39559E+01
 -1      1691 4.39559E+01
 -1      1692 3.09891E+01
 -1      1693 4.06670E+01
 -1      1694 2.76884E+01
 -1      1695 2.70826E+01
 -1      1696 2.93873E+01
 -1      1697 2.93873E+01
 -1      1698 3.98780E+01
 -1      1699 2.82906E+01
 -1      1700 4.89867E+01
 -1      1701 4.89867E+01
 -1      1702 2.39141E+01
 -1      1703 3.69380E+01
 -1      1704 1.19683E+01
 -1      1705 1.74450E+01
 -1      1706 1.21931E+01
 -1      1707 1.19855E+01
 -1      1708 1.26193E+01
 -1      1709 1.24008E+01
 -1      1710 1.28378E+01
 -1      1711 1.28378E+01
 -1      1712 1.25324E+01
 -1      1713 1.26851E+01
 -1      1714 1.24984E+01
 -1      1715 1.18748E+01
 -1      1716 2.27064E+01
 -1      1717 1.37798E+01
 -1      1718 3.16330E+01
 -1      1719 3.16330E+01
 -1      1720 3.05405E+01
 -1      1721 3.24814E+01
 -1      1722 3.24814E+01
 -1      1723 2.86633E+01
 -1      1724 3.05405E+01
 -1      1725 2.64043E+01
 -1      1726 2.62126E+01
 -1      1727 3.08792E+01
 -1      1728 1.60556E+01
 -1      1729 3.36769E+01
 -1      1730 7.17431E-02
 -1      1731 8.08169E-02
 -1      1732 2.86132E+01
 -1      1733 3.78211E+01
 -1      1734 2.84285E+01
 -1      1735 1.23209E+01
 -1      1736 1.32799E+01
 -1      1737 1.28753E+01
 -1      1738 1.25133E+01
 -1      1739 1.20566E+01
 -1      1740 1.44563E+01
 -1      1741 3.07756E+01
 -1      1742 4.06670E+01
 -1      1743 3.34715E+01
 -1      1744 3.12638E+01
 -1      1745 3.18659E+01
 -1      1746 3.98780E+01
 -1      1747 3.69380E+01
 -1      1748 1.84203E+01
 -1      1749 1.19683E+01
 -1      1750 1.21931E+01
 -1      1751 1.26193E+01
 -1      1752 1.26851E+01
 -1      1753 1.18748E+01
 -1      1754 1.24984E+01
 -1      1755 2.27064E+01
 -1      1756 9.61004E+00
 -1      1757 3.33299E+01
 -1      1758 1.27107E+00
 -1      1759 1.66442E+00
 -1      1760 2.38108E+00
 -1      1761 4.27097E+00
 -1      1762 1.75533E+00
 -1      1763 8.79241E-01
 -1      1764 9.70952E-01
 -1      1765 7.76545E-01
 -1      1766 8.30718E-01
 -1      1767 7.39787E-01
 -1      1768 7.11884E-01
 -1      1769 7.45595E-01
 -1      1770 6.60314E-01
 -1      1771 6.70330E-01
 -1      1772 6.90089E-01
 -1      1773 6.07569E-01
 -1      1774 6.93445E-01
 -1      1775 6.71961E-01
 -1      1776 5.87406E-01
 -1      1777 7.48600E-01
 -1      1778 7.15026E-01
 -1      1779 6.10617E-01
 -1      1780 8.38139E-01
 -1      1781 7.81669E-01
 -1      1782 6.65266E-01
 -1      1783 9.80745E-01
 -1      1784 8.85472E-01
 -1      1785 7.45669E-01
 -1      1786 1.22521E+00
 -1      1787 1.04813E+00
 -1      1788 8.60387E-01
 -1      1789 1.70374E+00
 -1      1790 1.33739E+00
 -1      1791 1.03996E+00
 -1      1792 2.62349E+00
 -1      1793 1.78807E+00
 -1      1794 1.23647E+00
 -1      1795 8.12474E+00
 -1      1796 3.06473E+00
 -1      1797 1.76205E+00
 -1      1798 2.80371E+00
 -1      1799 5.19949E+00
 -1      1800 2.17066E+00
 -1      1801 2.66034E+00
 -1      1802 2.05992E+00
 -1      1803 3.33299E+01
 -1      1804 3.33299E+01
 -1      1805 3.40051E+00
 -1      1806 2.54766E+00
 -1      1807 1.93377E+00
 -1      1808 1.70351E+00
 -1      1809 1.37062E+00
 -1      1810 1.50991E+00
 -1      1811 1.19099E+00
 -1      1812 9.80954E-01
 -1      1813 1.10002E+00
 -1      1814 8.55778E-01
 -1      1815 7.36893E-01
 -1      1816 7.95211E-01
 -1      1817 6.83272E-01
 -1      1818 5.97204E-01
 -1      1819 6.16412E-01
 -1      1820 5.51143E-01
 -1      1821 4.86035E-01
 -1      1822 5.16730E-01
 -1      1823 4.45962E-01
 -1      1824 3.99168E-01
 -1      1825 4.30597E-01
 -1      1826 3.65244E-01
 -1      1827 3.27585E-01
 -1      1828 3.56600E-01
 -1      1829 2.99452E-01
 -1      1830 2.69551E-01
 -1      1831 2.94544E-01
 -1      1832 2.46379E-01
 -1      1833 2.27213E-01
 -1      1834 2.43239E-01
 -1      1835 2.07796E-01
 -1      1836 2.02147E-01
 -1      1837 2.00650E-01
 -1      1838 2.12441E-01
 -1      1839 2.25235E-01
 -1      1840 1.91528E-01
 -1      1841 2.38773E-01
 -1      1842 2.56415E-01
 -1      1843 2.15360E-01
 -1      1844 2.72573E-01
 -1      1845 2.93956E-01
 -1      1846 2.45056E-01
 -1      1847 3.26283E-01
 -1      1848 3.49105E-01
 -1      1849 2.93542E-01
 -1      1850 3.88435E-01
 -1      1851 4.29637E-01
 -1      1852 3.65199E-01
 -1      1853 4.64364E-01
 -1      1854 5.03937E-01
 -1      1855 4.39256E-01
 -1      1856 5.37671E-01
 -1      1857 5.90341E-01
 -1      1858 5.07717E-01
 -1      1859 6.26493E-01
 -1      1860 6.94756E-01
 -1      1861 5.77603E-01
 -1      1862 7.18331E-01
 -1      1863 7.66939E-01
 -1      1864 6.37331E-01
 -1      1865 7.54927E-01
 -1      1866 7.57580E-01
 -1      1867 6.48894E-01
 -1      1868 6.88911E-01
 -1      1869 7.11307E-01
 -1      1870 5.68213E-01
 -1      1871 6.86042E-01
 -1      1872 6.79473E-01
 -1      1873 4.74279E-01
 -1      1874 7.72072E-01
 -1      1875 8.75731E-01
 -1      1876 5.41614E-01
 -1      1877 1.11354E+00
 -1      1878 1.32428E+00
 -1      1879 8.72019E-01
 -1      1880 1.49576E+00
 -1      1881 1.89581E+00
 -1      1882 1.28131E+00
 -1      1883 2.10040E+00
 -1      1884 2.41901E+00
 -1      1885 1.65738E+00
 -1      1886 2.46125E+00
 -1      1887 2.45280E+00
 -1      1888 1.90421E+00
 -1      1889 2.44061E+00
 -1      1890 2.47657E+00
 -1      1891 1.93426E+00
 -1      1892 2.46972E+00
 -1      1893 2.20877E+00
 -1      1894 1.91522E+00
 -1      1895 2.03366E+00
 -1      1896 1.61393E+00
 -1      1897 1.73327E+00
 -1      1898 1.43374E+00
 -1      1899 1.18990E+00
 -1      1900 1.37797E+00
 -1      1901 9.54060E-01
 -1      1902 8.00272E-01
 -1      1903 9.61936E-01
 -1      1904 6.58381E-01
 -1      1905 6.86579E-01
 -1      1906 5.84208E-01
 -1      1907 7.06512E-01
 -1      1908 6.70780E-01
 -1      1909 4.62250E-01
 -1      1910 7.36799E-01
 -1      1911 7.46611E-01
 -1      1912 5.48202E-01
 -1      1913 7.67148E-01
 -1      1914 7.23778E-01
 -1      1915 6.34758E-01
 -1      1916 7.04285E-01
 -1      1917 6.35978E-01
 -1      1918 6.35801E-01
 -1      1919 5.98328E-01
 -1      1920 5.40457E-01
 -1      1921 5.78659E-01
 -1      1922 5.06887E-01
 -1      1923 4.64340E-01
 -1      1924 5.07439E-01
 -1      1925 4.30734E-01
 -1      1926 3.94125E-01
 -1      1927 4.40264E-01
 -1      1928 3.55385E-01
 -1      1929 3.28501E-01
 -1      1930 3.67919E-01
 -1      1931 2.90017E-01
 -1      1932 2.60651E-01
 -1      1933 2.90695E-01
 -1      1934 2.36254E-01
 -1      1935 2.05410E-01
 -1      1936 2.27813E-01
 -1      1937 1.80446E-01
 -1      1938 1.70766E-01
 -1      1939 1.78453E-01
 -1      1940 1.45340E-01
 -1      1941 1.10417E-01
 -1      1942 8.69959E-02
 -1      1943 1.28063E-01
 -1      1944 1.40971E+00
 -1      1945 1.78233E+00
 -1      1946 1.52820E+00
 -1      1947 1.03134E+00
 -1      1948 1.29066E+00
 -1      1949 1.02081E+00
 -1      1950 8.20790E-01
 -1      1951 9.37861E-01
 -1      1952 8.08280E-01
 -1      1953 6.57513E-01
 -1      1954 7.41262E-01
 -1      1955 6.35267E-01
 -1      1956 5.42383E-01
 -1      1957 6.09303E-01
 -1      1958 5.07529E-01
 -1      1959 4.57392E-01
 -1      1960 5.10879E-01
 -1      1961 4.27815E-01
 -1      1962 3.86996E-01
 -1      1963 4.28686E-01
 -1      1964 3.67606E-01
 -1      1965 3.36132E-01
 -1      1966 3.66948E-01
 -1      1967 3.18851E-01
 -1      1968 3.00276E-01
 -1      1969 3.20953E-01
 -1      1970 2.83623E-01
 -1      1971 2.78977E-01
 -1      1972 2.90252E-01
 -1      1973 2.58420E-01
 -1      1974 2.71281E-01
 -1      1975 2.73974E-01
 -1      1976 2.43394E-01
 -1      1977 2.77954E-01
 -1      1978 2.73087E-01
 -1      1979 2.40198E-01
 -1      1980 3.21623E-01
 -1      1981 3.02360E-01
 -1      1982 2.66409E-01
 -1      1983 4.22246E-01
 -1      1984 3.84376E-01
 -1      1985 3.53568E-01
 -1      1986 5.42128E-01
 -1      1987 4.97910E-01
 -1      1988 4.91985E-01
 -1      1989 6.76716E-01
 -1      1990 6.30274E-01
 -1      1991 6.55796E-01
 -1      1992 8.26947E-01
 -1      1993 7.73272E-01
 -1      1994 8.40498E-01
 -1      1995 9.75478E-01
 -1      1996 9.21838E-01
 -1      1997 1.03194E+00
 -1      1998 1.08559E+00
 -1      1999 1.05084E+00
 -1      2000 1.20219E+00
 -1      2001 1.26466E+00
 -1      2002 1.15377E+00
 -1      2003 1.34573E+00
 -1      2004 1.36726E+00
 -1      2005 1.27349E+00
 -1      2006 1.42274E+00
 -1      2007 1.49525E+00
 -1      2008 1.35410E+00
 -1      2009 1.41842E+00
 -1      2010 1.42399E+00
 -1      2011 1.36737E+00
 -1      2012 1.27739E+00
 -1      2013 1.59053E+00
 -1      2014 1.38831E+00
 -1      2015 1.11382E+00
 -1      2016 1.87660E+00
 -1      2017 1.89463E+00
 -1      2018 1.38224E+00
 -1      2019 2.62392E+00
 -1      2020 2.28058E+00
 -1      2021 2.09032E+00
 -1      2022 3.56265E+00
 -1      2023 2.87292E+00
 -1      2024 2.74330E+00
 -1      2025 3.98672E+00
 -1      2026 3.66134E+00
 -1      2027 3.09098E+00
 -1      2028 4.18014E+00
 -1      2029 3.86089E+00
 -1      2030 3.06384E+00
 -1      2031 3.32941E+00
 -1      2032 4.00760E+00
 -1      2033 2.76547E+00
 -1      2034 1.85296E+00
 -1      2035 2.79322E+00
 -1      2036 2.05674E+00
 -1      2037 1.27026E+00
 -1      2038 1.69050E+00
 -1      2039 1.35809E+00
 -1      2040 1.45245E+00
 -1      2041 1.31712E+00
 -1      2042 1.24249E+00
 -1      2043 1.66034E+00
 -1      2044 1.52389E+00
 -1      2045 1.36079E+00
 -1      2046 1.67144E+00
 -1      2047 1.66238E+00
 -1      2048 1.43427E+00
 -1      2049 1.53308E+00
 -1      2050 1.63835E+00
 -1      2051 1.40322E+00
 -1      2052 1.32351E+00
 -1      2053 1.46062E+00
 -1      2054 1.29767E+00
 -1      2055 1.12059E+00
 -1      2056 1.24548E+00
 -1      2057 1.14718E+00
 -1      2058 9.15115E-01
 -1      2059 1.02768E+00
 -1      2060 9.76248E-01
 -1      2061 7.16699E-01
 -1      2062 8.23016E-01
 -1      2063 7.91241E-01
 -1      2064 5.40350E-01
 -1      2065 6.33591E-01
 -1      2066 6.16034E-01
 -1      2067 4.00240E-01
 -1      2068 4.69443E-01
 -1      2069 4.62019E-01
 -1      2070 3.07741E-01
 -1      2071 3.53762E-01
 -1      2072 3.44633E-01
 -1      2073 2.28999E-01
 -1      2074 2.71164E-01
 -1      2075 2.61578E-01
 -1      2076 1.55648E-01
 -1      2077 1.94322E-01
 -1      2078 1.90325E-01
 -1      2079 9.47149E-02
 -1      2080 1.22224E-01
 -1      2081 1.22224E-01
 -1      2082 7.49010E-02
 -1      2083 5.00439E-02
 -1      2084 6.38890E-02
 -1      2085 9.12354E-02
 -1      2086 9.12354E-02
 -1      2087 9.32750E-02
 -1      2088 9.12354E-02
 -1      2089 9.08122E-02
 -1      2090 1.04710E-01
 -1      2091 1.20621E-01
 -1      2092 7.05161E-02
 -1      2093 5.79491E-02
 -1      2094 7.38337E-02
 -1      2095 8.98439E-02
 -1      2096 8.22437E-02
 -1      2097 9.34663E-02
 -1      2098 9.59421E-02
 -1      2099 9.38703E-02
 -1      2100 1.09220E-01
 -1      2101 9.59421E-02
 -1      2102 9.59421E-02
 -1      2103 1.13247E-01
 -1      2104 9.43726E-02
 -1      2105 9.49291E-02
 -1      2106 1.12234E-01
 -1      2107 8.76743E-02
 -1      2108 9.28057E-02
 -1      2109 1.09654E-01
 -1      2110 7.04987E-02
 -1      2111 7.95392E-02
 -1      2112 9.99518E-02
 -1      2113 4.67601E-02
 -1      2114 5.66900E-02
 -1      2115 7.80080E-02
 -1      2116 6.20142E-02
 -1      2117 4.76770E-02
 -1      2118 6.51162E-02
 -1      2119 7.64176E-02
 -1      2120 7.64176E-02
 -1      2121 8.04365E-02
 -1      2122 3.78211E+01
 -1      2123 2.87978E+01
 -1      2124 2.99295E+01
 -1      2125 2.99295E+01
 -1      2126 3.01141E+01
 -1      2127 2.99295E+01
 -1      2128 3.01141E+01
 -1      2129 1.82195E+01
 -1      2130 3.13869E+01
 -1      2131 2.56902E+01
 -1      2132 2.48418E+01
 -1      2133 2.56902E+01
 -1      2134 1.06396E+01
 -1      2135 1.50934E+01
 -1      2136 2.73282E+01
 -1      2137 2.97789E+01
 -1      2138 2.88291E+01
 -1      2139 1.03409E+00
 -1      2140 1.20902E+00
 -1      2141 9.76628E-01
 -1      2142 8.51444E-01
 -1      2143 1.11202E+01
 -1      2144 1.08803E+01
 -1      2145 1.19633E+01
 -1      2146 1.26078E+01
 -1      2147 1.21066E+01
 -1      2148 1.18241E+01
 -1      2149 1.15566E+01
 -1      2150 9.77479E+00
 -1      2151 1.05140E+01
 -1      2152 1.31963E+01
 -1      2153 1.00573E+01
 -1      2154 2.94603E+01
 -1      2155 1.62799E+01
 -1      2156 3.16387E+01
 -1      2157 3.49277E+01
 -1      2158 2.83112E+01
 -1      2159 3.22177E+01
 -1      2160 3.29626E+01
 -1      2161 3.12638E+01
 -1      2162 3.00100E+01
 -1      2163 3.03018E+01
 -1      2164 3.13985E+01
 -1      2165 3.98780E+01
 -1      2166 3.07693E+01
 -1      2167 2.11384E+01
 -1      2168 3.31870E+01
 -1      2169 1.11754E+01
 -1      2170 1.76445E+01
 -1      2171 1.00891E+01
 -1      2172 1.00720E+01
 -1      2173 1.11578E+01
 -1      2174 1.09501E+01
 -1      2175 1.15583E+01
 -1      2176 1.13398E+01
 -1      2177 1.08903E+01
 -1      2178 1.10430E+01
 -1      2179 1.00341E+01
 -1      2180 1.06917E+01
 -1      2181 1.05690E+01
 -1      2182 9.28760E+00
 -1      2183 8.10459E+00
 -1      2184 2.19973E+01
 -1      2185 1.30707E+01
 -1      2186 1.02612E+01
 -1      2187 9.54206E+00
 -1      2188 1.28035E+01
 -1      2189 2.97789E+01
 -1      2190 2.91357E+00
 -1      2191 2.10608E+00
 -1      2192 3.14304E+01
 -1      2193 1.55525E+01
 -1      2194 3.10099E+01
 -1      2195 2.19866E+01
 -1      2196 8.30974E-02
 -1      2197 1.52061E+01
 -1      2198 8.10145E+00
 -1      2199 9.85987E+00
 -1      2200 9.04957E+00
 -1      2201 1.11478E+01
 -1      2202 9.86827E+00
 -1      2203 9.35293E+00
 -1      2204 1.00968E+01
 -1      2205 9.05377E+00
 -1      2206 7.87485E+00
 -1      2207 7.09906E+00
 -1      2208 5.99561E+00
 -1      2209 1.38935E+01
 -1      2210 2.40783E+01
 -1      2211 3.29626E+01
 -1      2212 3.29626E+01
 -1      2213 3.13985E+01
 -1      2214 2.64785E+01
 -1      2215 2.04321E+01
 -1      2216 1.18810E+01
 -1      2217 9.82479E+00
 -1      2218 8.57986E+00
 -1      2219 1.04393E+01
 -1      2220 1.13513E+01
 -1      2221 8.95171E+00
 -1      2222 8.51477E+00
 -1      2223 3.03018E+01
 -1      2224 1.09851E+00
 -1      2225 1.48685E+00
 -1      2226 5.56481E-01
 -1      2227 5.87431E-01
 -1      2228 5.99144E-01
 -1      2229 6.47667E-01
 -1      2230 4.95311E-01
 -1      2231 5.09419E-01
 -1      2232 5.07787E-01
 -1      2233 5.43725E-01
 -1      2234 5.22145E-01
 -1      2235 4.42527E-01
 -1      2236 5.91420E-01
 -1      2237 5.58350E-01
 -1      2238 4.69879E-01
 -1      2239 6.50644E-01
 -1      2240 6.03311E-01
 -1      2241 4.96395E-01
 -1      2242 7.18029E-01
 -1      2243 6.50644E-01
 -1      2244 5.08286E-01
 -1      2245 8.75563E-01
 -1      2246 7.63380E-01
 -1      2247 5.53636E-01
 -1      2248 1.27111E+00
 -1      2249 1.04085E+00
 -1      2250 2.34721E+01
 -1      2251 1.58325E+01
 -1      2252 9.01764E-01
 -1      2253 1.02081E+00
 -1      2254 9.79459E-01
 -1      2255 1.67401E+00
 -1      2256 1.30810E+00
 -1      2257 8.39037E-01
 -1      2258 9.57351E-01
 -1      2259 9.95205E-01
 -1      2260 8.15573E-01
 -1      2261 7.56405E-01
 -1      2262 7.58603E-01
 -1      2263 6.33427E-01
 -1      2264 6.53789E-01
 -1      2265 5.76570E-01
 -1      2266 5.22948E-01
 -1      2267 5.39962E-01
 -1      2268 4.75539E-01
 -1      2269 4.29478E-01
 -1      2270 4.35696E-01
 -1      2271 4.06045E-01
 -1      2272 3.65973E-01
 -1      2273 3.64854E-01
 -1      2274 3.41159E-01
 -1      2275 3.07235E-01
 -1      2276 3.16607E-01
 -1      2277 2.83012E-01
 -1      2278 2.54879E-01
 -1      2279 2.67571E-01
 -1      2280 2.31984E-01
 -1      2281 2.08812E-01
 -1      2282 2.20453E-01
 -1      2283 1.87189E-01
 -1      2284 1.67773E-01
 -1      2285 1.75935E-01
 -1      2286 1.62140E-01
 -1      2287 1.72434E-01
 -1      2288 1.48679E-01
 -1      2289 1.82274E-01
 -1      2290 1.95812E-01
 -1      2291 1.52885E-01
 -1      2292 2.15895E-01
 -1      2293 2.32053E-01
 -1      2294 1.82808E-01
 -1      2295 2.69905E-01
 -1      2296 3.02232E-01
 -1      2297 2.40743E-01
 -1      2298 3.41476E-01
 -1      2299 3.80806E-01
 -1      2300 3.17840E-01
 -1      2301 4.18847E-01
 -1      2302 4.53574E-01
 -1      2303 3.95125E-01
 -1      2304 4.86516E-01
 -1      2305 5.20250E-01
 -1      2306 4.66107E-01
 -1      2307 5.47841E-01
 -1      2308 5.83994E-01
 -1      2309 5.26641E-01
 -1      2310 6.15568E-01
 -1      2311 6.39144E-01
 -1      2312 5.85807E-01
 -1      2313 6.61837E-01
 -1      2314 6.49825E-01
 -1      2315 6.40075E-01
 -1      2316 6.46548E-01
 -1      2317 5.77879E-01
 -1      2318 6.59492E-01
 -1      2319 6.27131E-01
 -1      2320 6.01866E-01
 -1      2321 7.05466E-01
 -1      2322 6.51625E-01
 -1      2323 7.44223E-01
 -1      2324 8.04476E-01
 -1      2325 8.41228E-01
 -1      2326 1.07903E+00
 -1      2327 9.51239E-01
 -1      2328 1.17115E+00
 -1      2329 1.34263E+00
 -1      2330 1.14036E+00
 -1      2331 1.45151E+00
 -1      2332 1.65611E+00
 -1      2333 1.34136E+00
 -1      2334 1.89563E+00
 -1      2335 1.93786E+00
 -1      2336 1.68976E+00
 -1      2337 1.78158E+00
 -1      2338 1.76939E+00
 -1      2339 1.77300E+00
 -1      2340 1.88050E+00
 -1      2341 1.87365E+00
 -1      2342 1.72782E+00
 -1      2343 1.69460E+00
 -1      2344 1.51949E+00
 -1      2345 1.65987E+00
 -1      2346 1.42122E+00
 -1      2347 1.24103E+00
 -1      2348 1.38255E+00
 -1      2349 1.15415E+00
 -1      2350 9.18312E-01
 -1      2351 1.19740E+00
 -1      2352 7.89585E-01
 -1      2353 6.47694E-01
 -1      2354 9.81798E-01
 -1      2355 6.12201E-01
 -1      2356 6.32134E-01
 -1      2357 8.17578E-01
 -1      2358 5.61063E-01
 -1      2359 6.27082E-01
 -1      2360 7.11014E-01
 -1      2361 6.37325E-01
 -1      2362 6.57861E-01
 -1      2363 6.50186E-01
 -1      2364 6.39157E-01
 -1      2365 6.19664E-01
 -1      2366 6.41724E-01
 -1      2367 5.85099E-01
 -1      2368 5.47449E-01
 -1      2369 5.88454E-01
 -1      2370 5.21016E-01
 -1      2371 4.87446E-01
 -1      2372 5.27456E-01
 -1      2373 4.56450E-01
 -1      2374 4.22845E-01
 -1      2375 4.70027E-01
 -1      2376 3.86216E-01
 -1      2377 3.47476E-01
 -1      2378 4.02402E-01
 -1      2379 3.09963E-01
 -1      2380 2.71478E-01
 -1      2381 3.28260E-01
 -1      2382 2.36564E-01
 -1      2383 2.12167E-01
 -1      2384 2.55832E-01
 -1      2385 1.74653E-01
 -1      2386 1.49689E-01
 -1      2387 1.83404E-01
 -1      2388 2.40865E+01
 -1      2389 2.54027E+01
 -1      2390 5.55739E-01
 -1      2391 6.35267E-01
 -1      2392 4.59319E-01
 -1      2393 5.07529E-01
 -1      2394 5.07529E-01
 -1      2395 3.96312E-01
 -1      2396 4.27815E-01
 -1      2397 4.27815E-01
 -1      2398 3.37416E-01
 -1      2399 3.66122E-01
 -1      2400 3.66122E-01
 -1      2401 2.89964E-01
 -1      2402 3.10012E-01
 -1      2403 3.08529E-01
 -1      2404 2.50568E-01
 -1      2405 2.65747E-01
 -1      2406 2.56908E-01
 -1      2407 2.19154E-01
 -1      2408 2.29178E-01
 -1      2409 2.11302E-01
 -1      2410 2.04992E-01
 -1      2411 2.09994E-01
 -1      2412 1.80751E-01
 -1      2413 2.21312E-01
 -1      2414 2.19506E-01
 -1      2415 1.86106E-01
 -1      2416 2.68809E-01
 -1      2417 2.44403E-01
 -1      2418 2.23711E-01
 -1      2419 3.87821E-01
 -1      2420 3.25067E-01
 -1      2421 3.03061E-01
 -1      2422 5.30912E-01
 -1      2423 4.55247E-01
 -1      2424 4.26747E-01
 -1      2425 6.98461E-01
 -1      2426 6.10315E-01
 -1      2427 5.73577E-01
 -1      2428 8.85248E-01
 -1      2429 7.88693E-01
 -1      2430 7.43212E-01
 -1      2431 1.07657E+00
 -1      2432 9.81679E-01
 -1      2433 9.29874E-01
 -1      2434 1.24449E+00
 -1      2435 1.16913E+00
 -1      2436 1.11887E+00
 -1      2437 1.38407E+00
 -1      2438 1.31589E+00
 -1      2439 1.28283E+00
 -1      2440 1.47358E+00
 -1      2441 1.46475E+00
 -1      2442 1.43491E+00
 -1      2443 1.57855E+00
 -1      2444 1.59170E+00
 -1      2445 1.63370E+00
 -1      2446 1.53833E+00
 -1      2447 1.66621E+00
 -1      2448 1.83949E+00
 -1      2449 1.54274E+00
 -1      2450 1.57842E+00
 -1      2451 1.96725E+00
 -1      2452 2.11571E+00
 -1      2453 1.81162E+00
 -1      2454 2.27622E+00
 -1      2455 3.74491E+00
 -1      2456 3.34092E+00
 -1      2457 3.77030E+00
 -1      2458 3.49932E+00
 -1      2459 3.25033E+00
 -1      2460 4.50093E+00
 -1      2461 4.98718E+00
 -1      2462 4.88849E+00
 -1      2463 5.39553E+00
 -1      2464 4.93457E+00
 -1      2465 5.06040E+00
 -1      2466 6.85791E+00
 -1      2467 3.23202E+00
 -1      2468 3.40456E+00
 -1      2469 5.40112E+00
 -1      2470 1.78246E+00
 -1      2471 2.31866E+00
 -1      2472 2.95775E+00
 -1      2473 1.79610E+00
 -1      2474 1.95855E+00
 -1      2475 2.22048E+00
 -1      2476 1.61478E+00
 -1      2477 1.56792E+00
 -1      2478 2.16839E+00
 -1      2479 1.64472E+00
 -1      2480 1.57328E+00
 -1      2481 1.89871E+00
 -1      2482 1.54767E+00
 -1      2483 1.54563E+00
 -1      2484 1.75812E+00
 -1      2485 1.39385E+00
 -1      2486 1.42694E+00
 -1      2487 1.53830E+00
 -1      2488 1.26270E+00
 -1      2489 1.33516E+00
 -1      2490 1.35889E+00
 -1      2491 1.10178E+00
 -1      2492 1.17981E+00
 -1      2493 1.21730E+00
 -1      2494 9.12559E-01
 -1      2495 1.00547E+00
 -1      2496 1.03809E+00
 -1      2497 7.25165E-01
 -1      2498 8.17264E-01
 -1      2499 8.46483E-01
 -1      2500 5.55751E-01
 -1      2501 6.38858E-01
 -1      2502 6.64881E-01
 -1      2503 4.11013E-01
 -1      2504 4.81921E-01
 -1      2505 5.04745E-01
 -1      2506 3.04062E-01
 -1      2507 3.50540E-01
 -1      2508 3.70441E-01
 -1      2509 2.18655E-01
 -1      2510 2.55232E-01
 -1      2511 2.61139E-01
 -1      2512 1.49466E-01
 -1      2513 1.84143E-01
 -1      2514 1.77797E-01
 -1      2515 1.38135E-01
 -1      2516 1.19920E-01
 -1      2517 1.08192E-01
 -1      2518 1.33004E-01
 -1      2519 1.28977E-01
 -1      2520 1.43703E-01
 -1      2521 9.56632E-02
 -1      2522 1.23010E-01
 -1      2523 9.94064E-02
 -1      2524 9.15013E-02
 -1      2525 1.21236E-01
 -1      2526 1.25860E-01
 -1      2527 1.33004E-01
 -1      2528 1.33004E-01
 -1      2529 1.52761E-01
 -1      2530 1.30126E-01
 -1      2531 1.31139E-01
 -1      2532 1.50896E-01
 -1      2533 1.28559E-01
 -1      2534 1.30126E-01
 -1      2535 1.49032E-01
 -1      2536 1.15416E-01
 -1      2537 1.23551E-01
 -1      2538 1.44023E-01
 -1      2539 8.79075E-02
 -1      2540 1.01716E-01
 -1      2541 1.25315E-01
 -1      2542 9.63651E-02
 -1      2543 9.54482E-02
 -1      2544 1.19156E-01
 -1      2545 1.06256E-01
 -1      2546 9.18524E-02
 -1      2547 1.22184E-01
 -1      2548 9.87384E-02
 -1      2549 1.45717E+01
 -1      2550 1.17272E+01
 -1      2551 1.23535E+01
 -1      2552 7.14796E-01
 -1      2553 8.08280E-01
 -1      2554 6.35267E-01
 -1      2555 2.55538E+01
 -1      2556 2.91048E+01
 -1      2557 7.34651E+00
 -1      2558 7.54504E+00
 -1      2559 2.30338E+01
 -1      2560 2.24548E+01
 -1      2561 3.03477E+01
 -1      2562 2.77464E+01
 -1      2563 2.70724E+01
 -1      2564 5.20431E-01
 -1      2565 5.42226E-01
 -1      2566 4.69343E-01
 -1      2567 4.42444E-01
 -1      2568 3.14304E+01
 -1      2569 3.14304E+01
 -1      2570 2.54027E+01
 -1      2571 6.03724E+00
 -1      2572 7.13481E+00
 -1      2573 9.22725E+00
 -1      2574 9.36652E+00
 -1      2575 2.65685E+01
 -1      2576 2.61011E+01
 -1      2577 7.34136E+00
 -1      2578 8.93391E+00
 -1      2579 1.18305E+01
 -1      2580 8.74684E+00
 -1      2581 1.87851E+01
 -1      2582 1.33177E+01
 -1      2583 3.00100E+01
 -1      2584 2.70575E+01
 -1      2585 1.60309E+01
 -1      2586 2.27218E+01
 -1      2587 1.04359E+01
 -1      2588 1.39298E+01
 -1      2589 7.82694E+00
 -1      2590 6.96590E+00
 -1      2591 9.15651E+00
 -1      2592 8.97452E+00
 -1      2593 5.60248E+00
 -1      2594 6.34893E+00
 -1      2595 7.82587E+00
 -1      2596 7.20671E+00
 -1      2597 1.62272E+00
 -1      2598 1.76610E+00
 -1      2599 1.32486E+00
 -1      2600 1.19303E+00
 -1      2601 6.89641E+00
 -1      2602 6.61387E+00
 -1      2603 5.72300E+00
 -1      2604 9.73196E+00
 -1      2605 7.23023E+00
 -1      2606 8.77365E+00
 -1      2607 1.18997E+01
 -1      2608 6.23103E+00
 -1      2609 3.03477E+01
 -1      2610 6.10315E-01
 -1      2611 7.50957E-01
 -1      2612 8.14091E-01
 -1      2613 1.24052E+00
 -1      2614 7.59043E+00
 -1      2615 5.68953E+00
 -1      2616 7.53996E+00
 -1      2617 8.08280E-01
 -1      2618 8.95301E-01
 -1      2619 8.05696E+00
 -1      2620 5.47457E+00
 -1      2621 9.29494E+00
 -1      2622 8.17266E+00
 -1      2623 8.88442E+00
 -1      2624 9.09754E+00
 -1      2625 1.99669E+01
 -1      2626 1.52555E+01
 -1      2627 1.31557E+01
 -1      2628 1.92471E+01
 -1      2629 1.31953E-01
 -1      2630 2.30338E+01
 -1      2631 1.31953E-01
 -1      2632 1.27677E+01
 -1      2633 1.23907E+01
 -1      2634 8.73791E+00
 -1      2635 1.01904E-01
 -1      2636 9.80052E-02
 -1      2637 1.09421E-01
 -1      2638 1.27330E-01
 -1      2639 4.84440E+00
 -1      2640 6.88665E+00
 -1      2641 7.57092E+00
 -1      2642 7.60718E+00
 -1      2643 4.27035E+00
 -1      2644 7.64986E+00
 -1      2645 1.25732E+01
 -1      2646 2.68727E+01
 -1      2647 2.39202E+01
 -1      2648 2.68727E+01
 -1      2649 1.53405E+01
 -1      2650 1.01836E+01
 -1      2651 4.76878E+00
 -1      2652 1.85211E+01
 -1      2653 2.76652E+01
 -1      2654 6.74381E+00
 -1      2655 9.46145E+00
 -1      2656 8.20490E+00
 -1      2657 7.13208E+00
 -1      2658 5.76166E+00
 -1      2659 9.63947E-01
 -1      2660 1.23530E-01
 -1      2661 1.34341E-01
 -1      2662 4.20863E-01
 -1      2663 4.06238E-01
 -1      2664 3.98540E-01
 -1      2665 3.85813E-01
 -1      2666 3.49524E-01
 -1      2667 4.34490E-01
 -1      2668 4.34490E-01
 -1      2669 4.67809E-01
 -1      2670 4.22458E-01
 -1      2671 3.48662E-01
 -1      2672 2.27584E+01
 -1      2673 2.16757E+01
 -1      2674 1.70670E-01
 -1      2675 1.48311E-01
 -1      2676 1.56561E-01
 -1      2677 6.02660E-01
 -1      2678 5.57015E-01
 -1      2679 8.28071E-01
 -1      2680 3.61678E-01
 -1      2681 3.93182E-01
 -1      2682 5.56389E-01
 -1      2683 4.99419E-01
 -1      2684 4.02644E-01
 -1      2685 4.91855E-01
 -1      2686 4.34998E-01
 -1      2687 3.94455E-01
 -1      2688 4.13009E-01
 -1      2689 3.65600E-01
 -1      2690 3.64902E-01
 -1      2691 3.38236E-01
 -1      2692 3.14803E-01
 -1      2693 3.15549E-01
 -1      2694 2.90624E-01
 -1      2695 2.65810E-01
 -1      2696 2.64006E-01
 -1      2697 2.48751E-01
 -1      2698 2.24528E-01
 -1      2699 2.22768E-01
 -1      2700 2.05344E-01
 -1      2701 1.82449E-01
 -1      2702 1.86525E-01
 -1      2703 1.62029E-01
 -1      2704 1.40406E-01
 -1      2705 1.46921E-01
 -1      2706 1.19247E-01
 -1      2707 1.13614E-01
 -1      2708 1.05341E-01
 -1      2709 1.20607E-01
 -1      2710 1.30446E-01
 -1      2711 9.11745E-02
 -1      2712 1.57717E-01
 -1      2713 1.77800E-01
 -1      2714 1.25438E-01
 -1      2715 2.13288E-01
 -1      2716 2.51140E-01
 -1      2717 1.88197E-01
 -1      2718 2.90188E-01
 -1      2719 3.29432E-01
 -1      2720 2.62733E-01
 -1      2721 3.71363E-01
 -1      2722 4.09403E-01
 -1      2723 3.43711E-01
 -1      2724 4.52492E-01
 -1      2725 4.85434E-01
 -1      2726 4.28729E-01
 -1      2727 5.26379E-01
 -1      2728 5.53970E-01
 -1      2729 5.12763E-01
 -1      2730 5.93775E-01
 -1      2731 6.25350E-01
 -1      2732 5.93514E-01
 -1      2733 6.85915E-01
 -1      2734 7.08609E-01
 -1      2735 6.93884E-01
 -1      2736 7.66875E-01
 -1      2737 7.63598E-01
 -1      2738 8.12715E-01
 -1      2739 8.02183E-01
 -1      2740 8.51434E-01
 -1      2741 9.09566E-01
 -1      2742 9.63687E-01
 -1      2743 1.01345E+00
 -1      2744 1.06040E+00
 -1      2745 1.10716E+00
 -1      2746 1.20417E+00
 -1      2747 1.26637E+00
 -1      2748 1.32460E+00
 -1      2749 1.41671E+00
 -1      2750 1.48053E+00
 -1      2751 1.42052E+00
 -1      2752 1.52941E+00
 -1      2753 1.60477E+00
 -1      2754 2.04323E+00
 -1      2755 2.28275E+00
 -1      2756 2.12240E+00
 -1      2757 2.93210E+00
 -1      2758 2.77582E+00
 -1      2759 3.28557E+00
 -1      2760 2.16075E+00
 -1      2761 2.27186E+00
 -1      2762 3.31986E+00
 -1      2763 2.08167E+00
 -1      2764 1.90262E+00
 -1      2765 2.51460E+00
 -1      2766 1.57985E+00
 -1      2767 1.48158E+00
 -1      2768 2.00165E+00
 -1      2769 1.47494E+00
 -1      2770 1.38807E+00
 -1      2771 1.67224E+00
 -1      2772 1.23719E+00
 -1      2773 1.10847E+00
 -1      2774 1.51473E+00
 -1      2775 1.04048E+00
 -1      2776 1.00498E+00
 -1      2777 1.29587E+00
 -1      2778 8.59165E-01
 -1      2779 7.88094E-01
 -1      2780 1.08206E+00
 -1      2781 7.56521E-01
 -1      2782 7.66764E-01
 -1      2783 9.04672E-01
 -1      2784 7.11651E-01
 -1      2785 6.92947E-01
 -1      2786 8.17987E-01
 -1      2787 6.30824E-01
 -1      2788 5.96258E-01
 -1      2789 7.00751E-01
 -1      2790 5.54231E-01
 -1      2791 5.27799E-01
 -1      2792 5.96601E-01
 -1      2793 4.88660E-01
 -1      2794 4.57664E-01
 -1      2795 5.15436E-01
 -1      2796 4.16098E-01
 -1      2797 3.79470E-01
 -1      2798 4.34732E-01
 -1      2799 3.39403E-01
 -1      2800 3.01889E-01
 -1      2801 3.53098E-01
 -1      2802 2.65383E-01
 -1      2803 2.30469E-01
 -1      2804 2.76525E-01
 -1      2805 2.10868E-01
 -1      2806 1.73353E-01
 -1      2807 1.98134E-01
 -1      2808 2.20418E-01
 -1      2809 3.74639E+00
 -1      2810 4.74397E+00
 -1      2811 4.29467E-01
 -1      2812 4.77677E-01
 -1      2813 3.63330E-01
 -1      2814 2.62573E-01
 -1      2815 2.89977E-01
 -1      2816 2.17392E-01
 -1      2817 2.41609E-01
 -1      2818 2.23056E-01
 -1      2819 1.74549E-01
 -1      2820 1.95939E-01
 -1      2821 1.80640E-01
 -1      2822 1.43274E-01
 -1      2823 1.52434E-01
 -1      2824 1.37072E-01
 -1      2825 1.65538E-01
 -1      2826 1.51024E-01
 -1      2827 1.22707E-01
 -1      2828 2.15036E-01
 -1      2829 1.91946E-01
 -1      2830 1.56864E-01
 -1      2831 3.18599E-01
 -1      2832 2.62340E-01
 -1      2833 2.30574E-01
 -1      2834 4.42813E-01
 -1      2835 3.75386E-01
 -1      2836 3.34665E-01
 -1      2837 5.90492E-01
 -1      2838 5.11089E-01
 -1      2839 4.59728E-01
 -1      2840 7.62367E-01
 -1      2841 6.72136E-01
 -1      2842 6.09648E-01
 -1      2843 9.55222E-01
 -1      2844 8.58792E-01
 -1      2845 7.87716E-01
 -1      2846 1.15932E+00
 -1      2847 1.06675E+00
 -1      2848 9.95670E-01
 -1      2849 1.35526E+00
 -1      2850 1.28386E+00
 -1      2851 1.23175E+00
 -1      2852 1.56615E+00
 -1      2853 1.48547E+00
 -1      2854 1.48650E+00
 -1      2855 1.80528E+00
 -1      2856 1.68716E+00
 -1      2857 1.73773E+00
 -1      2858 2.16638E+00
 -1      2859 2.07871E+00
 -1      2860 2.13217E+00
 -1      2861 2.51595E+00
 -1      2862 2.47585E+00
 -1      2863 2.71508E+00
 -1      2864 3.24400E+00
 -1      2865 2.97513E+00
 -1      2866 3.48373E+00
 -1      2867 5.68953E+00
 -1      2868 4.46432E+00
 -1      2869 5.22842E+00
 -1      2870 5.72300E+00
 -1      2871 6.61759E+00
 -1      2872 7.07907E+00
 -1      2873 7.00585E+00
 -1      2874 5.40112E+00
 -1      2875 6.93112E+00
 -1      2876 3.00335E+00
 -1      2877 2.82726E+00
 -1      2878 2.68269E+00
 -1      2879 2.91087E+00
 -1      2880 3.51764E+00
 -1      2881 2.29786E+00
 -1      2882 2.33937E+00
 -1      2883 3.08184E+00
 -1      2884 1.92678E+00
 -1      2885 2.02587E+00
 -1      2886 2.46653E+00
 -1      2887 1.59050E+00
 -1      2888 1.71123E+00
 -1      2889 1.97898E+00
 -1      2890 1.40487E+00
 -1      2891 1.46356E+00
 -1      2892 1.63649E+00
 -1      2893 1.19235E+00
 -1      2894 1.27524E+00
 -1      2895 1.37992E+00
 -1      2896 9.75904E-01
 -1      2897 1.07222E+00
 -1      2898 1.13016E+00
 -1      2899 7.74917E-01
 -1      2900 8.70212E-01
 -1      2901 9.04338E-01
 -1      2902 5.98526E-01
 -1      2903 6.84833E-01
 -1      2904 7.08562E-01
 -1      2905 4.49579E-01
 -1      2906 5.23409E-01
 -1      2907 5.43360E-01
 -1      2908 3.27786E-01
 -1      2909 3.88259E-01
 -1      2910 4.06923E-01
 -1      2911 2.28349E-01
 -1      2912 2.77179E-01
 -1      2913 2.94996E-01
 -1      2914 1.60682E-01
 -1      2915 1.95195E-01
 -1      2916 2.11235E-01
 -1      2917 1.51739E-01
 -1      2918 2.11854E+01
 -1      2919 1.71618E+01
 -1      2920 1.73893E-01
 -1      2921 1.75758E-01
 -1      2922 1.74974E-01
 -1      2923 1.65917E-01
 -1      2924 1.69898E-01
 -1      2925 1.69898E-01
 -1      2926 1.94760E-01
 -1      2927 1.75758E-01
 -1      2928 1.75758E-01
 -1      2929 1.97971E-01
 -1      2930 1.98755E-01
 -1      2931 1.64889E-01
 -1      2932 1.69898E-01
 -1      2933 1.90764E-01
 -1      2934 1.39425E-01
 -1      2935 1.53124E-01
 -1      2936 1.78999E-01
 -1      2937 1.61074E-01
 -1      2938 1.53533E-01
 -1      2939 1.81342E-01
 -1      2940 1.61074E-01
 -1      2941 1.11623E+01
 -1      2942 9.90147E+00
 -1      2943 5.12788E-01
 -1      2944 5.92316E-01
 -1      2945 4.34726E-01
 -1      2946 1.84931E+01
 -1      2947 1.28603E+01
 -1      2948 9.66449E+00
 -1      2949 8.17731E+00
 -1      2950 9.46601E+00
 -1      2951 1.15671E+01
 -1      2952 3.74070E+00
 -1      2953 5.27071E+00
 -1      2954 4.10124E+00
 -1      2955 2.82734E+00
 -1      2956 2.08018E+01
 -1      2957 1.86092E+01
 -1      2958 1.22225E+01
 -1      2959 1.32125E+01
 -1      2960 3.09736E-01
 -1      2961 3.39925E-01
 -1      2962 3.05292E-01
 -1      2963 2.63779E-01
 -1      2964 7.94814E-01
 -1      2965 4.34490E-01
 -1      2966 4.22599E-01
 -1      2967 3.58959E-01
 -1      2968 3.60694E-01
 -1      2969 4.22288E-01
 -1      2970 4.34002E-01
 -1      2971 1.71856E+01
 -1      2972 2.32133E+01
 -1      2973 6.18148E-01
 -1      2974 7.11632E-01
 -1      2975 4.95669E-01
 -1      2976 4.09158E+00
 -1      2977 3.12129E+00
 -1      2978 2.00330E+01
 -1      2979 2.53303E+01
 -1      2980 1.44352E+01
 -1      2981 1.07655E+01
 -1      2982 1.42327E+01
 -1      2983 1.80794E+01
 -1      2984 1.11254E+01
 -1      2985 5.67170E+00
 -1      2986 7.47959E+00
 -1      2987 6.24899E+00
 -1      2988 5.10141E+00
 -1      2989 8.88165E+00
 -1      2990 6.88644E+00
 -1      2991 5.77035E+00
 -1      2992 4.14260E+00
 -1      2993 5.44292E+00
 -1      2994 7.08175E+00
 -1      2995 7.94980E+00
 -1      2996 4.95197E+00
 -1      2997 8.00710E-01
 -1      2998 5.71626E-01
 -1      2999 4.40448E-01
 -1      3000 7.23014E-01
 -1      3001 4.60493E-01
 -1      3002 5.63783E-01
 -1      3003 3.87470E-01
 -1      3004 3.41475E-01
 -1      3005 3.85462E-01
 -1      3006 3.98106E-01
 -1      3007 1.45413E+01
 -1      3008 7.69037E+00
 -1      3009 7.02089E+00
 -1      3010 6.90626E+00
 -1      3011 4.57369E+00
 -1      3012 1.03710E+01
 -1      3013 1.04083E+01
 -1      3014 5.16322E+00
 -1      3015 8.05696E+00
 -1      3016 3.61021E+00
 -1      3017 2.02702E+01
 -1      3018 1.43981E+01
 -1      3019 1.71329E+01
 -1      3020 1.38736E-01
 -1      3021 1.65077E-01
 -1      3022 1.34574E-01
 -1      3023 8.75923E+00
 -1      3024 5.55446E+00
 -1      3025 5.32883E-01
 -1      3026 1.25868E+01
 -1      3027 1.95451E-01
 -1      3028 6.23241E+00
 -1      3029 4.44717E+00
 -1      3030 6.37084E+00
 -1      3031 3.55220E+00
 -1      3032 4.02406E+00
 -1      3033 2.87500E+00
 -1      3034 7.61750E+00
 -1      3035 6.61135E+00
 -1      3036 4.75252E+00
 -1      3037 4.05746E-01
 -1      3038 4.20001E-01
 -1      3039 3.58692E-01
 -1      3040 3.48764E-01
 -1      3041 1.92405E+01
 -1      3042 1.52397E-01
 -1      3043 1.43611E-01
 -1      3044 1.61112E-01
 -1      3045 1.83668E-01
 -1      3046 1.57446E+01
 -1      3047 1.42152E+01
 -1      3048 1.20257E+01
 -1      3049 1.00956E+01
 -1      3050 3.30853E+00
 -1      3051 3.20810E+00
 -1      3052 3.60430E+00
 -1      3053 3.45392E+00
 -1      3054 6.49033E-01
 -1      3055 6.12046E-01
 -1      3056 4.12657E-01
 -1      3057 2.87586E-01
 -1      3058 2.99618E-01
 -1      3059 3.84735E-01
 -1      3060 4.10567E-01
 -1      3061 3.18753E-01
 -1      3062 3.11189E-01
 -1      3063 3.20593E-01
 -1      3064 2.98604E-01
 -1      3065 2.44891E-01
 -1      3066 2.92761E-01
 -1      3067 2.65397E-01
 -1      3068 2.48452E-01
 -1      3069 2.51120E-01
 -1      3070 2.26941E-01
 -1      3071 2.28333E-01
 -1      3072 2.08003E-01
 -1      3073 1.90944E-01
 -1      3074 1.95117E-01
 -1      3075 1.76524E-01
 -1      3076 1.57340E-01
 -1      3077 1.61759E-01
 -1      3078 1.39860E-01
 -1      3079 1.19440E-01
 -1      3080 1.29859E-01
 -1      3081 9.96229E-02
 -1      3082 7.84635E-02
 -1      3083 9.25621E-02
 -1      3084 7.88937E-02
 -1      3085 8.58865E-02
 -1      3086 7.31755E-02
 -1      3087 1.05351E-01
 -1      3088 1.32622E-01
 -1      3089 9.30701E-02
 -1      3090 1.62268E-01
 -1      3091 1.97757E-01
 -1      3092 1.42181E-01
 -1      3093 2.32081E-01
 -1      3094 2.71128E-01
 -1      3095 2.06152E-01
 -1      3096 3.12648E-01
 -1      3097 3.54579E-01
 -1      3098 2.81996E-01
 -1      3099 4.04786E-01
 -1      3100 4.47874E-01
 -1      3101 3.73724E-01
 -1      3102 5.03343E-01
 -1      3103 5.44288E-01
 -1      3104 4.79400E-01
 -1      3105 6.06379E-01
 -1      3106 6.46184E-01
 -1      3107 5.96959E-01
 -1      3108 7.12785E-01
 -1      3109 7.73350E-01
 -1      3110 7.25651E-01
 -1      3111 8.63349E-01
 -1      3112 9.21616E-01
 -1      3113 8.82251E-01
 -1      3114 1.04648E+00
 -1      3115 1.08506E+00
 -1      3116 1.09711E+00
 -1      3117 1.20431E+00
 -1      3118 1.31656E+00
 -1      3119 1.34122E+00
 -1      3120 1.43585E+00
 -1      3121 1.52957E+00
 -1      3122 1.57976E+00
 -1      3123 1.64828E+00
 -1      3124 1.76871E+00
 -1      3125 1.81776E+00
 -1      3126 2.00837E+00
 -1      3127 2.01218E+00
 -1      3128 2.17613E+00
 -1      3129 2.12240E+00
 -1      3130 2.63621E+00
 -1      3131 2.52600E+00
 -1      3132 3.53340E+00
 -1      3133 4.18276E+00
 -1      3134 3.17538E+00
 -1      3135 2.98519E+00
 -1      3136 1.97339E+00
 -1      3137 1.96676E+00
 -1      3138 1.79117E+00
 -1      3139 1.64030E+00
 -1      3140 2.09232E+00
 -1      3141 1.58396E+00
 -1      3142 1.51597E+00
 -1      3143 1.86039E+00
 -1      3144 1.36088E+00
 -1      3145 1.21506E+00
 -1      3146 1.64896E+00
 -1      3147 1.09885E+00
 -1      3148 1.06728E+00
 -1      3149 1.37767E+00
 -1      3150 9.43963E-01
 -1      3151 8.88850E-01
 -1      3152 1.13814E+00
 -1      3153 7.86606E-01
 -1      3154 7.24483E-01
 -1      3155 9.12583E-01
 -1      3156 6.59138E-01
 -1      3157 6.17112E-01
 -1      3158 7.44994E-01
 -1      3159 5.53078E-01
 -1      3160 5.13939E-01
 -1      3161 6.15615E-01
 -1      3162 4.58343E-01
 -1      3163 4.16776E-01
 -1      3164 4.95984E-01
 -1      3165 3.66837E-01
 -1      3166 3.26770E-01
 -1      3167 3.90448E-01
 -1      3168 3.16186E-01
 -1      3169 2.79680E-01
 -1      3170 3.29924E-01
 -1      3171 3.04950E-01
 -1      3172 3.41235E-01
 -1      3173 1.42844E-01
 -1      3174 1.64297E-01
 -1      3175 1.84319E-01
 -1      3176 2.05283E-01
 -1      3177 1.46524E-01
 -1      3178 9.90455E-02
 -1      3179 9.12958E-02
 -1      3180 1.50140E-01
 -1      3181 1.23732E-01
 -1      3182 9.23215E-02
 -1      3183 2.35628E-01
 -1      3184 1.88325E-01
 -1      3185 1.55194E-01
 -1      3186 3.42463E-01
 -1      3187 2.85676E-01
 -1      3188 2.43427E-01
 -1      3189 4.72848E-01
 -1      3190 4.04572E-01
 -1      3191 3.55583E-01
 -1      3192 6.29880E-01
 -1      3193 5.48236E-01
 -1      3194 4.93080E-01
 -1      3195 8.15970E-01
 -1      3196 7.19546E-01
 -1      3197 6.58135E-01
 -1      3198 1.03013E+00
 -1      3199 9.18601E-01
 -1      3200 8.50432E-01
 -1      3201 1.28843E+00
 -1      3202 1.16388E+00
 -1      3203 1.08682E+00
 -1      3204 1.60912E+00
 -1      3205 1.47891E+00
 -1      3206 1.41105E+00
 -1      3207 2.00618E+00
 -1      3208 1.88517E+00
 -1      3209 1.87758E+00
 -1      3210 2.63992E+00
 -1      3211 2.36649E+00
 -1      3212 2.51393E+00
 -1      3213 3.34198E+00
 -1      3214 3.03250E+00
 -1      3215 3.26682E+00
 -1      3216 4.12460E+00
 -1      3217 3.66543E+00
 -1      3218 3.98285E+00
 -1      3219 4.99551E+00
 -1      3220 6.91092E+00
 -1      3221 2.18239E+00
 -1      3222 2.39794E+00
 -1      3223 1.71594E+00
 -1      3224 1.84288E+00
 -1      3225 2.26184E+00
 -1      3226 1.33686E+00
 -1      3227 1.46649E+00
 -1      3228 1.67289E+00
 -1      3229 1.05379E+00
 -1      3230 1.17392E+00
 -1      3231 1.26050E+00
 -1      3232 8.30938E-01
 -1      3233 9.36630E-01
 -1      3234 9.80394E-01
 -1      3235 6.43004E-01
 -1      3236 7.33089E-01
 -1      3237 7.65381E-01
 -1      3238 4.84590E-01
 -1      3239 5.59708E-01
 -1      3240 5.84235E-01
 -1      3241 3.54405E-01
 -1      3242 4.15724E-01
 -1      3243 4.32072E-01
 -1      3244 2.49005E-01
 -1      3245 2.99612E-01
 -1      3246 3.08413E-01
 -1      3247 1.91152E-01
 -1      3248 2.24306E-01
 -1      3249 2.28922E-01
 -1      3250 1.78149E-01
 -1      3251 2.18324E-01
 -1      3252 2.18324E-01
 -1      3253 1.24903E+01
 -1      3254 1.44438E+01
 -1      3255 1.38681E+01
 -1      3256 1.54105E+01
 -1      3257 2.18324E-01
 -1      3258 2.22319E-01
 -1      3259 2.45883E-01
 -1      3260 8.27252E+00
 -1      3261 7.17153E+00
 -1      3262 3.53000E-01
 -1      3263 3.88111E-01
 -1      3264 3.03009E-01
 -1      3265 2.94620E-01
 -1      3266 5.80057E+00
 -1      3267 4.95188E+00
 -1      3268 5.01232E+00
 -1      3269 6.41715E+00
 -1      3270 2.00300E-01
 -1      3271 2.12066E-01
 -1      3272 2.39625E-01
 -1      3273 2.23816E-01
 -1      3274 2.09707E-01
 -1      3275 2.42773E-01
 -1      3276 3.19249E+00
 -1      3277 3.46449E+00
 -1      3278 3.39590E+00
 -1      3279 3.64596E+00
 -1      3280 4.57369E+00
 -1      3281 4.06757E-01
 -1      3282 3.02940E-01
 -1      3283 2.53895E-01
 -1      3284 3.95375E-01
 -1      3285 4.19287E+00
 -1      3286 4.53619E+00
 -1      3287 4.91884E+00
 -1      3288 8.49383E+00
 -1      3289 1.11594E+01
 -1      3290 9.95400E-02
 -1      3291 1.21655E-01
 -1      3292 1.05312E-01
 -1      3293 7.58789E-02
 -1      3294 1.98134E-01
 -1      3295 1.98134E-01
 -1      3296 2.26499E-01
 -1      3297 2.00818E-01
 -1      3298 9.78955E+00
 -1      3299 8.09146E+00
 -1      3300 1.21873E+01
 -1      3301 1.17324E+01
 -1      3302 3.34301E-01
 -1      3303 3.33675E-01
 -1      3304 2.50409E-01
 -1      3305 3.22051E-01
 -1      3306 3.14352E-01
 -1      3307 7.26361E+00
 -1      3308 6.24379E+00
 -1      3309 1.19613E+01
 -1      3310 9.23477E+00
 -1      3311 5.67824E-01
 -1      3312 5.47509E+00
 -1      3313 4.35900E+00
 -1      3314 8.90085E+00
 -1      3315 9.66587E+00
 -1      3316 3.45392E+00
 -1      3317 2.44409E+00
 -1      3318 4.18002E-01
 -1      3319 3.11017E-01
 -1      3320 3.10667E-01
 -1      3321 2.83544E-01
 -1      3322 2.63903E-01
 -1      3323 2.85656E-01
 -1      3324 2.63561E-01
 -1      3325 2.84442E-01
 -1      3326 2.59416E-01
 -1      3327 3.20492E-01
 -1      3328 3.20492E-01
 -1      3329 3.10642E+00
 -1      3330 2.44565E+00
 -1      3331 2.12288E+00
 -1      3332 3.10642E+00
 -1      3333 3.93492E+00
 -1      3334 3.31986E+00
 -1      3335 5.98227E+00
 -1      3336 2.20418E-01
 -1      3337 1.83296E-01
 -1      3338 2.22034E-01
 -1      3339 2.41793E-01
 -1      3340 2.60079E-01
 -1      3341 1.18336E+01
 -1      3342 8.48163E+00
 -1      3343 1.09184E+01
 -1      3344 1.17605E+01
 -1      3345 1.04609E+01
 -1      3346 1.03447E+01
 -1      3347 4.18252E+00
 -1      3348 4.27500E+00
 -1      3349 9.85868E+00
 -1      3350 2.28136E-01
 -1      3351 2.27353E-01
 -1      3352 4.47690E+00
 -1      3353 9.39683E+00
 -1      3354 1.26511E+01
 -1      3355 8.82108E+00
 -1      3356 8.02791E+00
 -1      3357 7.64707E+00
 -1      3358 2.28136E-01
 -1      3359 2.28136E-01
 -1      3360 2.57518E-01
 -1      3361 2.51700E-01
 -1      3362 6.64489E+00
 -1      3363 2.45912E-01
 -1      3364 2.15747E-01
 -1      3365 2.02227E-01
 -1      3366 5.61676E+00
 -1      3367 2.87500E+00
 -1      3368 4.29482E+00
 -1      3369 4.30514E+00
 -1      3370 3.57668E+00
 -1      3371 4.44005E+00
 -1      3372 6.28855E+00
 -1      3373 6.32252E+00
 -1      3374 2.41739E+00
 -1      3375 4.08459E+00
 -1      3376 7.27291E+00
 -1      3377 6.56781E+00
 -1      3378 3.23787E-01
 -1      3379 3.22051E-01
 -1      3380 2.86879E-01
 -1      3381 2.83585E-01
 -1      3382 1.03937E+01
 -1      3383 7.58476E+00
 -1      3384 7.42321E+00
 -1      3385 9.77138E+00
 -1      3386 8.73100E+00
 -1      3387 8.30125E+00
 -1      3388 9.37834E+00
 -1      3389 1.17324E+01
 -1      3390 3.52493E+00
 -1      3391 1.08585E+01
 -1      3392 3.20787E-01
 -1      3393 3.47278E-01
 -1      3394 5.04833E+00
 -1      3395 4.08616E-01
 -1      3396 3.22518E-01
 -1      3397 3.24805E-01
 -1      3398 2.84613E-01
 -1      3399 5.29355E+00
 -1      3400 2.66856E+00
 -1      3401 3.39646E-01
 -1      3402 2.72963E-01
 -1      3403 3.53340E+00
 -1      3404 2.12441E-01
 -1      3405 2.06599E-01
 -1      3406 2.07809E-01
 -1      3407 1.93532E-01
 -1      3408 1.71798E-01
 -1      3409 1.86257E-01
 -1      3410 1.67318E-01
 -1      3411 1.65733E-01
 -1      3412 1.54388E-01
 -1      3413 1.39968E-01
 -1      3414 1.45528E-01
 -1      3415 1.30040E-01
 -1      3416 1.12560E-01
 -1      3417 1.22670E-01
 -1      3418 1.05890E-01
 -1      3419 8.60729E-02
 -1      3420 1.06071E-01
 -1      3421 8.93911E-02
 -1      3422 8.98213E-02
 -1      3423 1.02719E-01
 -1      3424 9.36592E-02
 -1      3425 1.13124E-01
 -1      3426 1.09875E-01
 -1      3427 1.42181E-01
 -1      3428 1.71828E-01
 -1      3429 1.42770E-01
 -1      3430 2.06152E-01
 -1      3431 2.40476E-01
 -1      3432 2.06152E-01
 -1      3433 2.78811E-01
 -1      3434 3.20332E-01
 -1      3435 2.78811E-01
 -1      3436 3.61713E-01
 -1      3437 4.11921E-01
 -1      3438 3.58529E-01
 -1      3439 4.63539E-01
 -1      3440 5.19008E-01
 -1      3441 4.51529E-01
 -1      3442 5.81191E-01
 -1      3443 6.43281E-01
 -1      3444 5.65330E-01
 -1      3445 7.39118E-01
 -1      3446 8.05720E-01
 -1      3447 7.23350E-01
 -1      3448 9.34988E-01
 -1      3449 1.02499E+00
 -1      3450 9.48456E-01
 -1      3451 1.16222E+00
 -1      3452 1.28709E+00
 -1      3453 1.21496E+00
 -1      3454 1.44120E+00
 -1      3455 1.56044E+00
 -1      3456 1.50631E+00
 -1      3457 1.89068E+00
 -1      3458 2.00997E+00
 -1      3459 1.99066E+00
 -1      3460 2.29967E+00
 -1      3461 2.41838E+00
 -1      3462 2.61059E+00
 -1      3463 2.89195E+00
 -1      3464 3.13162E+00
 -1      3465 2.26838E+00
 -1      3466 2.21204E+00
 -1      3467 2.10012E+00
 -1      3468 1.94504E+00
 -1      3469 2.50811E+00
 -1      3470 1.63624E+00
 -1      3471 1.52003E+00
 -1      3472 2.08739E+00
 -1      3473 1.33277E+00
 -1      3474 1.20945E+00
 -1      3475 1.59134E+00
 -1      3476 1.07038E+00
 -1      3477 9.68138E-01
 -1      3478 1.26501E+00
 -1      3479 8.36309E-01
 -1      3480 7.70964E-01
 -1      3481 9.94108E-01
 -1      3482 6.63720E-01
 -1      3483 5.99686E-01
 -1      3484 7.55035E-01
 -1      3485 5.36546E-01
 -1      3486 4.80949E-01
 -1      3487 5.84651E-01
 -1      3488 4.25654E-01
 -1      3489 3.75714E-01
 -1      3490 4.66215E-01
 -1      3491 3.34893E-01
 -1      3492 3.24309E-01
 -1      3493 3.70099E-01
 -1      3494 2.27000E-01
 -1      3495 2.11807E-01
 -1      3496 1.96454E-01
 -1      3497 2.85761E-01
 -1      3498 1.88671E-01
 -1      3499 1.50485E-01
 -1      3500 1.15014E-01
 -1      3501 9.03273E-02
 -1      3502 1.48491E-01
 -1      3503 4.04099E-01
 -1      3504 3.41991E-01
 -1      3505 5.50927E-01
 -1      3506 4.75538E-01
 -1      3507 4.61946E-01
 -1      3508 7.30223E-01
 -1      3509 6.40557E-01
 -1      3510 6.23015E-01
 -1      3511 9.45567E-01
 -1      3512 8.42936E-01
 -1      3513 8.25358E-01
 -1      3514 1.22057E+00
 -1      3515 1.08682E+00
 -1      3516 1.07932E+00
 -1      3517 1.58627E+00
 -1      3518 1.39579E+00
 -1      3519 1.39579E+00
 -1      3520 2.10496E+00
 -1      3521 1.82892E+00
 -1      3522 1.81365E+00
 -1      3523 2.98494E+00
 -1      3524 2.62463E+00
 -1      3525 2.57597E+00
 -1      3526 4.34727E+00
 -1      3527 3.95469E+00
 -1      3528 4.06539E+00
 -1      3529 2.74031E-01
 -1      3530 2.74031E-01
 -1      3531 1.25969E+00
 -1      3532 1.42263E+00
 -1      3533 1.62802E+00
 -1      3534 1.87747E+00
 -1      3535 1.62721E+00
 -1      3536 8.98071E+00
 -1      3537 7.35437E+00
 -1      3538 8.68525E+00
 -1      3539 2.23925E+00
 -1      3540 2.57875E+00
 -1      3541 2.19438E+00
 -1      3542 9.80394E-01
 -1      3543 1.09756E+00
 -1      3544 1.25969E+00
 -1      3545 7.52915E-01
 -1      3546 8.50764E-01
 -1      3547 9.67928E-01
 -1      3548 5.66868E-01
 -1      3549 6.50164E-01
 -1      3550 7.35548E-01
 -1      3551 4.15381E-01
 -1      3552 4.84247E-01
 -1      3553 5.50177E-01
 -1      3554 2.97994E-01
 -1      3555 3.52786E-01
 -1      3556 4.04962E-01
 -1      3557 2.50459E-01
 -1      3558 2.41052E-01
 -1      3559 6.13649E+00
 -1      3560 5.30863E+00
 -1      3561 2.84795E-01
 -1      3562 2.34747E-01
 -1      3563 2.30039E-01
 -1      3564 3.33311E-01
 -1      3565 1.26500E-01
 -1      3566 1.46522E-01
 -1      3567 3.14878E-01
 -1      3568 3.22518E-01
 -1      3569 2.88632E-01
 -1      3570 2.51907E+00
 -1      3571 2.67772E-01
 -1      3572 2.74031E-01
 -1      3573 3.02178E-01
 -1      3574 2.75458E-01
 -1      3575 7.00574E+00
 -1      3576 6.04349E+00
 -1      3577 3.29573E+00
 -1      3578 4.09028E+00
 -1      3579 3.27313E+00
 -1      3580 2.49469E-01
 -1      3581 2.41837E-01
 -1      3582 2.26915E-01
 -1      3583 1.88912E-01
 -1      3584 1.98316E-01
 -1      3585 1.56462E-01
 -1      3586 1.80340E-01
 -1      3587 8.03611E+00
 -1      3588 8.03611E+00
 -1      3589 3.27377E+00
 -1      3590 6.92148E+00
 -1      3591 4.80926E+00
 -1      3592 4.04056E+00
 -1      3593 7.59355E+00
 -1      3594 7.03839E+00
 -1      3595 5.70213E+00
 -1      3596 2.01826E-01
 -1      3597 1.92789E-01
 -1      3598 2.18863E-01
 -1      3599 2.33905E-01
 -1      3600 3.61401E+00
 -1      3601 7.02699E+00
 -1      3602 4.99600E+00
 -1      3603 5.72438E+00
 -1      3604 7.10415E+00
 -1      3605 4.89583E+00
 -1      3606 8.26152E+00
 -1      3607 9.98393E+00
 -1      3608 7.41945E+00
 -1      3609 8.03611E+00
 -1      3610 7.63848E+00
 -1      3611 6.69388E+00
 -1      3612 3.09818E+00
 -1      3613 2.22157E-01
 -1      3614 2.17328E-01
 -1      3615 2.84420E-01
 -1      3616 7.58726E+00
 -1      3617 6.24503E+00
 -1      3618 5.79367E+00
 -1      3619 3.37387E+00
 -1      3620 2.86085E+00
 -1      3621 5.49556E+00
 -1      3622 6.83542E+00
 -1      3623 6.96310E+00
 -1      3624 5.35952E+00
 -1      3625 2.25971E-01
 -1      3626 1.53337E-01
 -1      3627 2.29346E-01
 -1      3628 1.57854E-01
 -1      3629 1.74605E-01
 -1      3630 1.37830E-01
 -1      3631 1.10965E-01
 -1      3632 1.10963E-01
 -1      3633 8.97758E-02
 -1      3634 1.07114E-01
 -1      3635 8.44214E-02
 -1      3636 9.26656E-02
 -1      3637 3.58465E-01
 -1      3638 3.30317E-01
 -1      3639 3.36134E-01
 -1      3640 4.53078E+00
 -1      3641 5.21865E+00
 -1      3642 4.85423E+00
 -1      3643 2.23425E-01
 -1      3644 2.35190E-01
 -1      3645 1.58152E-01
 -1      3646 6.64896E+00
 -1      3647 6.55009E+00
 -1      3648 5.37666E+00
 -1      3649 3.44983E+00
 -1      3650 2.43562E-01
 -1      3651 4.30085E+00
 -1      3652 2.01400E-01
 -1      3653 2.20694E-01
 -1      3654 1.61265E-01
 -1      3655 8.35995E+00
 -1      3656 6.56721E+00
 -1      3657 5.85564E+00
 -1      3658 6.83631E+00
 -1      3659 8.05330E+00
 -1      3660 6.27674E+00
 -1      3661 3.43734E+00
 -1      3662 4.09372E-01
 -1      3663 3.97766E-01
 -1      3664 2.87935E-01
 -1      3665 2.53487E-01
 -1      3666 3.19341E-01
 -1      3667 2.85761E-01
 -1      3668 4.34481E+00
 -1      3669 2.53046E-01
 -1      3670 2.53046E-01
 -1      3671 2.17706E-01
 -1      3672 2.51539E-01
 -1      3673 2.48204E-01
 -1      3674 7.66880E+00
 -1      3675 6.03676E+00
 -1      3676 6.03926E+00
 -1      3677 7.34456E+00
 -1      3678 4.09372E-01
 -1      3679 4.09372E-01
 -1      3680 5.61226E-01
 -1      3681 4.87989E-01
 -1      3682 3.64939E+00
 -1      3683 4.10709E+00
 -1      3684 3.78429E+00
 -1      3685 3.17581E+00
 -1      3686 1.44446E-01
 -1      3687 1.45656E-01
 -1      3688 1.49603E-01
 -1      3689 1.42328E-01
 -1      3690 1.22251E-01
 -1      3691 1.38587E-01
 -1      3692 1.25657E-01
 -1      3693 1.22458E-01
 -1      3694 1.17734E-01
 -1      3695 1.07806E-01
 -1      3696 1.10794E-01
 -1      3697 1.12923E-01
 -1      3698 1.06253E-01
 -1      3699 1.07988E-01
 -1      3700 1.11889E-01
 -1      3701 1.15208E-01
 -1      3702 1.18742E-01
 -1      3703 1.21686E-01
 -1      3704 1.25524E-01
 -1      3705 1.30857E-01
 -1      3706 1.36833E-01
 -1      3707 1.65890E-01
 -1      3708 1.48644E-01
 -1      3709 1.98388E-01
 -1      3710 2.32712E-01
 -1      3711 1.92450E-01
 -1      3712 2.71532E-01
 -1      3713 3.09868E-01
 -1      3714 2.63768E-01
 -1      3715 3.55982E-01
 -1      3716 3.97363E-01
 -1      3717 3.48702E-01
 -1      3718 4.51529E-01
 -1      3719 5.03147E-01
 -1      3720 4.48982E-01
 -1      3721 5.65330E-01
 -1      3722 6.27513E-01
 -1      3723 5.65330E-01
 -1      3724 7.11746E-01
 -1      3725 8.07584E-01
 -1      3726 7.11746E-01
 -1      3727 9.30415E-01
 -1      3728 1.05968E+00
 -1      3729 9.18812E-01
 -1      3730 1.28224E+00
 -1      3731 1.41948E+00
 -1      3732 1.26420E+00
 -1      3733 2.07960E+00
 -1      3734 2.23372E+00
 -1      3735 2.14689E+00
 -1      3736 2.72971E+00
 -1      3737 3.05995E+00
 -1      3738 3.30301E+00
 -1      3739 2.61269E+00
 -1      3740 2.90239E+00
 -1      3741 3.17791E+00
 -1      3742 3.35174E+00
 -1      3743 2.42994E+00
 -1      3744 2.65673E-01
 -1      3745 2.69884E-01
 -1      3746 2.33668E-01
 -1      3747 2.54015E+00
 -1      3748 5.86803E+00
 -1      3749 5.82311E+00
 -1      3750 3.24309E-01
 -1      3751 2.86598E+00
 -1      3752 2.55718E+00
 -1      3753 2.24642E+00
 -1      3754 2.05916E+00
 -1      3755 3.02501E+00
 -1      3756 1.49966E+00
 -1      3757 1.36059E+00
 -1      3758 2.15475E+00
 -1      3759 1.11092E+00
 -1      3760 9.79094E-01
 -1      3761 1.34558E+00
 -1      3762 8.43156E-01
 -1      3763 7.35913E-01
 -1      3764 9.59972E-01
 -1      3765 6.47174E-01
 -1      3766 5.84033E-01
 -1      3767 7.35295E-01
 -1      3768 5.21510E-01
 -1      3769 4.66215E-01
 -1      3770 5.84033E-01
 -1      3771 4.10242E-01
 -1      3772 3.69420E-01
 -1      3773 4.65537E-01
 -1      3774 1.71726E-01
 -1      3775 1.36254E-01
 -1      3776 6.57740E-01
 -1      3777 5.68110E-01
 -1      3778 4.91253E-01
 -1      3779 4.19814E-01
 -1      3780 5.25977E-01
 -1      3781 1.15247E+00
 -1      3782 1.01123E+00
 -1      3783 1.52470E+00
 -1      3784 1.34948E+00
 -1      3785 1.28139E+00
 -1      3786 2.05630E+00
 -1      3787 1.81365E+00
 -1      3788 1.76735E+00
 -1      3789 2.98373E+00
 -1      3790 2.46406E+00
 -1      3791 2.46406E+00
 -1      3792 4.67016E+00
 -1      3793 3.70040E+00
 -1      3794 3.58850E+00
 -1      3795 1.20133E+00
 -1      3796 1.36345E+00
 -1      3797 2.23668E+00
 -1      3798 2.59846E+00
 -1      3799 1.61921E+00
 -1      3800 1.82461E+00
 -1      3801 1.56085E+00
 -1      3802 3.21076E+00
 -1      3803 6.77786E-01
 -1      3804 7.80537E-01
 -1      3805 4.99229E-01
 -1      3806 5.81849E-01
 -1      3807 6.26838E-01
 -1      3808 2.69884E-01
 -1      3809 2.34740E-01
 -1      3810 2.69884E-01
 -1      3811 1.86789E-01
 -1      3812 2.49752E-01
 -1      3813 1.80312E-01
 -1      3814 2.02422E-01
 -1      3815 1.59556E-01
 -1      3816 1.54870E-01
 -1      3817 2.88336E-01
 -1      3818 2.53046E-01
 -1      3819 3.94604E+00
 -1      3820 4.66302E+00
 -1      3821 3.98835E+00
 -1      3822 5.94888E+00
 -1      3823 6.88338E+00
 -1      3824 5.36485E+00
 -1      3825 8.72100E-01
 -1      3826 7.59386E-01
 -1      3827 9.45255E-01
 -1      3828 4.22907E+00
 -1      3829 4.01186E+00
 -1      3830 2.19213E-01
 -1      3831 3.38724E+00
 -1      3832 2.79651E+00
 -1      3833 2.68459E+00
 -1      3834 3.88661E+00
 -1      3835 4.51796E-01
 -1      3836 5.25574E+00
 -1      3837 4.35383E+00
 -1      3838 5.14392E-01
 -1      3839 5.86803E+00
 -1      3840 5.86803E+00
 -1      3841 8.97455E-01
 -1      3842 1.02708E+00
 -1      3843 1.13085E+00
 -1      3844 8.39693E-01
 -1      3845 5.46064E-01
 -1      3846 4.18898E+00
 -1      3847 4.96990E+00
 -1      3848 3.62161E+00
 -1      3849 4.18276E+00
 -1      3850 5.04218E+00
 -1      3851 7.04481E-01
 -1      3852 3.64452E-01
 -1      3853 3.15438E+00
 -1      3854 2.09621E-01
 -1      3855 1.97384E-01
 -1      3856 2.55697E-01
 -1      3857 1.20449E-01
 -1      3858 1.31781E-01
 -1      3859 9.83183E-02
 -1      3860 1.23807E-01
 -1      3861 1.17901E-01
 -1      3862 1.47041E-01
 -1      3863 3.92891E-01
 -1      3864 4.49177E-01
 -1      3865 5.22397E+00
 -1      3866 4.85899E+00
 -1      3867 1.47647E-01
 -1      3868 1.41803E-01
 -1      3869 1.85761E-01
 -1      3870 5.13043E+00
 -1      3871 6.16731E+00
 -1      3872 5.39953E+00
 -1      3873 6.04195E+00
 -1      3874 2.22869E+00
 -1      3875 1.79150E-01
 -1      3876 1.62753E-01
 -1      3877 1.24750E-01
 -1      3878 2.51137E-01
 -1      3879 5.42156E+00
 -1      3880 4.74865E+00
 -1      3881 5.65437E+00
 -1      3882 2.84039E-01
 -1      3883 4.98997E+00
 -1      3884 4.66467E+00
 -1      3885 1.58362E-01
 -1      3886 1.42013E-01
 -1      3887 1.55631E-01
 -1      3888 1.16247E-01
 -1      3889 1.10198E-01
 -1      3890 1.00712E-01
 -1      3891 3.49868E-01
 -1      3892 4.40580E-01
 -1      3893 3.49868E-01
 -1      3894 4.18569E+00
 -1      3895 5.56605E+00
 -1      3896 6.01490E+00
 -1      3897 5.18906E+00
 -1      3898 1.83668E-01
 -1      3899 1.82160E-01
 -1      3900 5.52786E+00
 -1      3901 4.99179E+00
 -1      3902 5.31965E+00
 -1      3903 3.44022E+00
 -1      3904 1.38875E-01
 -1      3905 1.12733E-01
 -1      3906 5.61226E-01
 -1      3907 5.46064E-01
 -1      3908 5.61226E-01
 -1      3909 3.17664E-01
 -1      3910 2.82362E-01
 -1      3911 3.09083E-01
 -1      3912 3.62775E-01
 -1      3913 3.60126E-01
 -1      3914 3.02930E-01
 -1      3915 2.82512E-01
 -1      3916 3.89433E-01
 -1      3917 4.49177E-01
 -1      3918 5.22415E-01
 -1      3919 5.22415E-01
 -1      3920 4.83603E-01
 -1      3921 1.10680E-01
 -1      3922 1.06939E-01
 -1      3923 1.10434E-01
 -1      3924 1.02511E-01
 -1      3925 9.86559E-02
 -1      3926 1.08809E-01
 -1      3927 1.13927E-01
 -1      3928 1.08449E-01
 -1      3929 1.21269E-01
 -1      3930 1.26906E-01
 -1      3931 1.22091E-01
 -1      3932 1.35969E-01
 -1      3933 1.42448E-01
 -1      3934 1.38496E-01
 -1      3935 1.53448E-01
 -1      3936 1.64756E-01
 -1      3937 1.58560E-01
 -1      3938 1.82105E-01
 -1      3939 2.14603E-01
 -1      3940 1.86909E-01
 -1      3941 2.42973E-01
 -1      3942 2.81793E-01
 -1      3943 2.32628E-01
 -1      3944 3.25666E-01
 -1      3945 3.71780E-01
 -1      3946 3.04870E-01
 -1      3947 4.28007E-01
 -1      3948 4.82172E-01
 -1      3949 4.04971E-01
 -1      3950 5.54890E-01
 -1      3951 6.17073E-01
 -1      3952 5.33916E-01
 -1      3953 7.11746E-01
 -1      3954 7.95980E-01
 -1      3955 7.01307E-01
 -1      3956 9.18812E-01
 -1      3957 1.04164E+00
 -1      3958 9.18812E-01
 -1      3959 1.22415E+00
 -1      3960 1.44671E+00
 -1      3961 1.22415E+00
 -1      3962 1.99222E+00
 -1      3963 2.65235E+00
 -1      3964 1.95217E+00
 -1      3965 5.25136E-01
 -1      3966 4.48279E-01
 -1      3967 1.93795E-01
 -1      3968 2.11265E-01
 -1      3969 1.59757E-01
 -1      3970 4.26399E+00
 -1      3971 4.26399E+00
 -1      3972 3.93463E-01
 -1      3973 3.33776E-01
 -1      3974 3.92622E-01
 -1      3975 3.62161E+00
 -1      3976 2.39346E+00
 -1      3977 1.83395E+00
 -1      3978 1.49030E+00
 -1      3979 1.24063E+00
 -1      3980 1.72901E+00
 -1      3981 1.08875E+00
 -1      3982 9.52809E-01
 -1      3983 1.23347E+00
 -1      3984 8.24034E-01
 -1      3985 7.35295E-01
 -1      3986 9.52809E-01
 -1      3987 6.39656E-01
 -1      3988 5.77133E-01
 -1      3989 7.28395E-01
 -1      3990 5.05547E-01
 -1      3991 4.49573E-01
 -1      3992 5.61169E-01
 -1      3993 1.10794E-01
 -1      3994 1.07904E-01
 -1      3995 1.13188E-01
 -1      3996 1.27487E-01
 -1      3997 4.43797E+00
 -1      3998 1.74788E+00
 -1      3999 1.45893E+00
 -1      4000 1.28748E+00
 -1      4001 1.09047E+00
 -1      4002 1.26800E+00
 -1      4003 3.77105E+00
 -1      4004 3.05437E+00
 -1      4005 3.90384E+00
 -1      4006 1.75255E-01
 -1      4007 6.42001E-01
 -1      4008 6.99110E-01
 -1      4009 5.97463E-01
 -1      4010 5.19765E-01
 -1      4011 5.89478E+00
 -1      4012 1.23442E-01
 -1      4013 1.40823E-01
 -1      4014 5.17601E+00
 -1      4015 1.80977E-01
 -1      4016 1.45431E-01
 -1      4017 1.32288E+00
 -1      4018 1.57864E+00
 -1      4019 3.62264E+00
 -1      4020 4.97022E+00
 -1      4021 9.38998E-01
 -1      4022 7.99870E-01
 -1      4023 6.92853E-01
 -1      4024 1.80977E-01
 -1      4025 2.11265E-01
 -1      4026 2.11265E-01
 -1      4027 1.39278E-01
 -1      4028 1.71392E-01
 -1      4029 1.92405E+00
 -1      4030 2.33612E+00
 -1      4031 1.68608E+00
 -1      4032 9.95166E-02
 -1      4033 1.05087E-01
 -1      4034 1.31631E-01
 -1      4035 2.42905E+00
 -1      4036 2.02129E+00
 -1      4037 1.71287E+00
 -1      4038 2.61161E+00
 -1      4039 5.65169E+00
 -1      4040 1.27357E-01
 -1      4041 1.30047E-01
 -1      4042 1.00233E-01
 -1      4043 1.04181E-01
 -1      4044 8.86621E-02
 -1      4045 8.70167E-02
 -1      4046 3.47496E+00
 -1      4047 4.34062E+00
 -1      4048 3.94072E+00
 -1      4049 3.73843E+00
 -1      4050 4.18569E+00
 -1      4051 3.79900E+00
 -1      4052 3.30301E+00
 -1      4053 1.37019E-01
 -1      4054 3.14834E+00
 -1      4055 1.21635E-01
 -1      4056 3.33577E+00
 -1      4057 1.13021E-01
 -1      4058 1.31095E-01
 -1      4059 1.42730E-01
 -1      4060 3.31800E+00
 -1      4061 4.82335E+00
 -1      4062 4.04516E+00
 -1      4063 3.02501E+00
 -1      4064 2.94852E-01
 -1      4065 2.90821E-01
 -1      4066 2.43588E-01
 -1      4067 2.70422E+00
 -1      4068 4.43570E-01
 -1      4069 4.03560E-01
 -1      4070 1.58522E-01
 -1      4071 1.46074E-01
 -1      4072 5.02180E+00
 -1      4073 4.27292E+00
 -1      4074 3.60600E+00
 -1      4075 4.35280E+00
 -1      4076 9.45084E-01
 -1      4077 6.67495E-01
 -1      4078 7.48270E-01
 -1      4079 1.52943E-01
 -1      4080 1.50041E-01
 -1      4081 1.53965E-01
 -1      4082 1.14988E+00
 -1      4083 1.16767E+00
 -1      4084 9.75641E-01
 -1      4085 1.46531E-01
 -1      4086 5.42156E+00
 -1      4087 1.32351E-01
 -1      4088 2.82430E+00
 -1      4089 1.08631E-01
 -1      4090 1.17673E-01
 -1      4091 4.19830E-01
 -1      4092 4.62853E-01
 -1      4093 4.65843E-01
 -1      4094 5.19578E-01
 -1      4095 5.19578E-01
 -1      4096 4.98828E-01
 -1      4097 1.09399E-01
 -1      4098 1.13601E-01
 -1      4099 1.07832E-01
 -1      4100 3.70388E+00
 -1      4101 2.85067E+00
 -1      4102 2.21912E+00
 -1      4103 2.92568E+00
 -1      4104 2.15176E-01
 -1      4105 1.77280E-01
 -1      4106 2.23485E-01
 -1      4107 1.76314E-01
 -1      4108 8.65187E-01
 -1      4109 9.73874E-02
 -1      4110 1.00882E-01
 -1      4111 1.09392E-01
 -1      4112 1.15690E-01
 -1      4113 1.08123E-01
 -1      4114 1.22091E-01
 -1      4115 1.29433E-01
 -1      4116 1.23033E-01
 -1      4117 1.54359E-01
 -1      4118 1.63422E-01
 -1      4119 1.54359E-01
 -1      4120 1.58560E-01
 -1      4121 1.69560E-01
 -1      4122 1.74423E-01
 -1      4123 1.90103E-01
 -1      4124 2.07452E-01
 -1      4125 1.90103E-01
 -1      4126 2.40695E-01
 -1      4127 2.69065E-01
 -1      4128 2.43889E-01
 -1      4129 3.14734E-01
 -1      4130 3.58607E-01
 -1      4131 3.22801E-01
 -1      4132 4.22552E-01
 -1      4133 4.78780E-01
 -1      4134 4.32416E-01
 -1      4135 5.70459E-01
 -1      4136 6.43177E-01
 -1      4137 5.88041E-01
 -1      4138 7.78445E-01
 -1      4139 8.73118E-01
 -1      4140 8.14989E-01
 -1      4141 1.08032E+00
 -1      4142 1.20316E+00
 -1      4143 1.15746E+00
 -1      4144 1.45980E+00
 -1      4145 1.64231E+00
 -1      4146 1.62132E+00
 -1      4147 1.95217E+00
 -1      4148 2.49768E+00
 -1      4149 2.18782E+00
 -1      4150 3.56772E-01
 -1      4151 8.84218E-01
 -1      4152 1.76626E+00
 -1      4153 1.42261E+00
 -1      4154 1.91271E+00
 -1      4155 1.68385E-01
 -1      4156 1.56904E-01
 -1      4157 1.49797E-01
 -1      4158 1.24111E+00
 -1      4159 1.08922E+00
 -1      4160 1.27836E+00
 -1      4161 1.15926E+00
 -1      4162 1.03048E+00
 -1      4163 1.16690E+00
 -1      4164 6.91142E-01
 -1      4165 5.95503E-01
 -1      4166 8.97592E-01
 -1      4167 5.37429E-01
 -1      4168 5.58390E-01
 -1      4169 6.64659E-01
 -1      4170 1.25354E+00
 -1      4171 1.59895E+00
 -1      4172 5.33593E+00
 -1      4173 5.00176E-01
 -1      4174 1.40206E+00
 -1      4175 1.23061E+00
 -1      4176 2.86806E+00
 -1      4177 3.65787E+00
 -1      4178 1.02341E+00
 -1      4179 8.71935E-01
 -1      4180 1.15746E+00
 -1      4181 1.31381E-01
 -1      4182 1.11003E-01
 -1      4183 5.44755E-01
 -1      4184 4.72428E-01
 -1      4185 7.36667E-01
 -1      4186 6.35906E-01
 -1      4187 8.14989E-01
 -1      4188 2.82430E+00
 -1      4189 1.42730E-01
 -1      4190 1.42730E-01
 -1      4191 1.02969E-01
 -1      4192 1.05376E-01
 -1      4193 1.20187E-01
 -1      4194 1.95432E-01
 -1      4195 1.76673E-01
 -1      4196 4.17403E-01
 -1      4197 3.62587E-01
 -1      4198 4.42393E-01
 -1      4199 1.39919E-01
 -1      4200 8.99208E-02
 -1      4201 7.88218E-02
 -1      4202 7.39682E-02
 -1      4203 1.02341E-01
 -1      4204 1.03388E-01
 -1      4205 1.01371E-01
 -1      4206 3.28014E+00
 -1      4207 3.21513E-01
 -1      4208 2.78558E-01
 -1      4209 3.46294E-01
 -1      4210 1.68420E-01
 -1      4211 1.79250E-01
 -1      4212 1.87538E-01
 -1      4213 8.96244E-01
 -1      4214 1.00535E+00
 -1      4215 3.09812E+00
 -1      4216 2.72905E+00
 -1      4217 2.10373E+00
 -1      4218 1.25414E+00
 -1      4219 1.16702E+00
 -1      4220 1.08114E+00
 -1      4221 3.15012E+00
 -1      4222 2.59075E+00
 -1      4223 1.28693E-01
 -1      4224 4.97022E+00
 -1      4225 1.14068E-01
 -1      4226 2.54145E+00
 -1      4227 5.56902E-01
 -1      4228 1.16728E-01
 -1      4229 1.11758E-01
 -1      4230 2.07093E+00
 -1      4231 1.79752E+00
 -1      4232 1.76012E+00
 -1      4233 2.18837E+00
 -1      4234 1.86360E+00
 -1      4235 1.64847E+00
 -1      4236 2.54351E+00
 -1      4237 1.98340E+00
 -1      4238 2.47499E-01
 -1      4239 2.19087E-01
 -1      4240 2.19446E-01
 -1      4241 2.74160E-01
 -1      4242 1.27622E-01
 -1      4243 5.88569E-01
 -1      4244 1.08767E-01
 -1      4245 9.98704E-02
 -1      4246 1.02385E-01
 -1      4247 1.11580E+00
 -1      4248 7.29306E-02
 -1      4249 7.94297E-02
 -1      4250 8.16559E-02
 -1      4251 6.47357E-02
 -1      4252 1.22889E-01
 -1      4253 1.15697E-01
 -1      4254 1.19101E-01
 -1      4255 1.52307E-01
 -1      4256 1.43106E+00
 -1      4257 1.21972E-01
 -1      4258 1.28373E-01
 -1      4259 1.54359E-01
 -1      4260 1.79285E-01
 -1      4261 1.53299E-01
 -1      4262 1.79285E-01
 -1      4263 1.74423E-01
 -1      4264 1.82675E-01
 -1      4265 2.03218E-01
 -1      4266 2.26873E-01
 -1      4267 2.60117E-01
 -1      4268 2.91176E-01
 -1      4269 3.36845E-01
 -1      4270 3.77919E-01
 -1      4271 4.41865E-01
 -1      4272 4.96890E-01
 -1      4273 5.88569E-01
 -1      4274 6.79720E-01
 -1      4275 8.14989E-01
 -1      4276 9.50257E-01
 -1      4277 1.15746E+00
 -1      4278 1.36467E+00
 -1      4279 1.62132E+00
 -1      4280 2.01677E+00
 -1      4281 2.32663E+00
 -1      4282 1.53054E+00
 -1      4283 8.97592E-01
 -1      4284 1.34839E+00
 -1      4285 1.16690E+00
 -1      4286 1.41908E+00
 -1      4287 1.23693E+00
 -1      4288 1.23693E+00
 -1      4289 2.40319E+00
 -1      4290 1.08962E-01
 -1      4291 1.20057E-01
 -1      4292 1.23983E-01
 -1      4293 1.38382E+00
 -1      4294 1.23693E+00
 -1      4295 1.03388E-01
 -1      4296 1.00299E-01
 -1      4297 1.79285E-01
 -1      4298 1.20167E+00
 -1      4299 7.92409E-02
 -1      4300 1.18643E-01
 -1      4301 1.23983E-01
 -1      4302 1.20654E-01
 -1      4303 1.10134E-01
 -1      4304 1.26355E-01
 -1      4305 1.08767E-01
 -1      4306 1.20228E+00
 -1      4307 2.37040E+00
 -1      4308 1.20228E+00
 -1      4309 9.09925E-02
 -1      4310 1.01513E-01
 -1      4311 8.96253E-02
 -1      4312 7.30347E-02
 -1      4313 1.79250E-01
 -1      4314 9.47939E-02
 -1      4315 1.52342E-01
 -1      4316 8.75399E-02
 -1      4317 7.40723E-02
 -3
 9999
