    1C
    1UUSER                                                              
    1UDATE              27.october.2022                                 
    1UTIME              00:47:12                                        
    1UHOST                                                              
    1UPGM               CalculiX                                        
    1UVERSION           Version 2.17                             
    1UCOMPILETIME       Thu Jul 23 21:43:50 CEST 2020                    
    1UDIR                                                               
    1UDBN                                                               
    1UMAT    1SOLIDMATERIAL                                             
    2C                          4312                                     1
 -1         1 7.09091E+01 3.00818E+01 0.00000E+00
 -1         2 8.40395E+01 2.67029E+01 0.00000E+00
 -1         3 1.50000E+02 0.00000E+00 0.00000E+00
 -1         4 1.50000E+02 5.00000E+01 0.00000E+00
 -1         5 0.00000E+00 0.00000E+00 0.00000E+00
 -1         6 0.00000E+00 5.00000E+01 0.00000E+00
 -1         7 0.00000E+00 4.70500E+01 0.00000E+00
 -1         8 0.00000E+00 4.41000E+01 0.00000E+00
 -1         9 0.00000E+00 4.11500E+01 0.00000E+00
 -1        10 0.00000E+00 3.82000E+01 0.00000E+00
 -1        11 0.00000E+00 3.52500E+01 0.00000E+00
 -1        12 0.00000E+00 3.23500E+01 0.00000E+00
 -1        13 0.00000E+00 2.94000E+01 0.00000E+00
 -1        14 0.00000E+00 2.64500E+01 0.00000E+00
 -1        15 0.00000E+00 2.35000E+01 0.00000E+00
 -1        16 0.00000E+00 2.05500E+01 0.00000E+00
 -1        17 0.00000E+00 1.76000E+01 0.00000E+00
 -1        18 0.00000E+00 1.47000E+01 0.00000E+00
 -1        19 0.00000E+00 1.17500E+01 0.00000E+00
 -1        20 0.00000E+00 8.80000E+00 0.00000E+00
 -1        21 0.00000E+00 5.85000E+00 0.00000E+00
 -1        22 0.00000E+00 2.90000E+00 0.00000E+00
 -1        23 3.15000E+00 5.00000E+01 0.00000E+00
 -1        24 6.15000E+00 5.00000E+01 0.00000E+00
 -1        25 9.15000E+00 5.00000E+01 0.00000E+00
 -1        26 1.21500E+01 5.00000E+01 0.00000E+00
 -1        27 1.51500E+01 5.00000E+01 0.00000E+00
 -1        28 1.81500E+01 5.00000E+01 0.00000E+00
 -1        29 2.11500E+01 5.00000E+01 0.00000E+00
 -1        30 2.41500E+01 5.00000E+01 0.00000E+00
 -1        31 2.71500E+01 5.00000E+01 0.00000E+00
 -1        32 3.01500E+01 5.00000E+01 0.00000E+00
 -1        33 3.31500E+01 5.00000E+01 0.00000E+00
 -1        34 3.61500E+01 5.00000E+01 0.00000E+00
 -1        35 3.91500E+01 5.00000E+01 0.00000E+00
 -1        36 4.21500E+01 5.00000E+01 0.00000E+00
 -1        37 4.51500E+01 5.00000E+01 0.00000E+00
 -1        38 4.81500E+01 5.00000E+01 0.00000E+00
 -1        39 5.11500E+01 5.00000E+01 0.00000E+00
 -1        40 5.41500E+01 5.00000E+01 0.00000E+00
 -1        41 5.71500E+01 5.00000E+01 0.00000E+00
 -1        42 6.01500E+01 5.00000E+01 0.00000E+00
 -1        43 6.31500E+01 5.00000E+01 0.00000E+00
 -1        44 6.61500E+01 5.00000E+01 0.00000E+00
 -1        45 6.91500E+01 5.00000E+01 0.00000E+00
 -1        46 7.21500E+01 5.00000E+01 0.00000E+00
 -1        47 7.51500E+01 5.00000E+01 0.00000E+00
 -1        48 7.81500E+01 5.00000E+01 0.00000E+00
 -1        49 8.11500E+01 5.00000E+01 0.00000E+00
 -1        50 8.41500E+01 5.00000E+01 0.00000E+00
 -1        51 8.71500E+01 5.00000E+01 0.00000E+00
 -1        52 9.01500E+01 5.00000E+01 0.00000E+00
 -1        53 9.31500E+01 5.00000E+01 0.00000E+00
 -1        54 9.61500E+01 5.00000E+01 0.00000E+00
 -1        55 9.91500E+01 5.00000E+01 0.00000E+00
 -1        56 1.02150E+02 5.00000E+01 0.00000E+00
 -1        57 1.05150E+02 5.00000E+01 0.00000E+00
 -1        58 1.08150E+02 5.00000E+01 0.00000E+00
 -1        59 1.11150E+02 5.00000E+01 0.00000E+00
 -1        60 1.14150E+02 5.00000E+01 0.00000E+00
 -1        61 1.17150E+02 5.00000E+01 0.00000E+00
 -1        62 1.20150E+02 5.00000E+01 0.00000E+00
 -1        63 1.23150E+02 5.00000E+01 0.00000E+00
 -1        64 1.26150E+02 5.00000E+01 0.00000E+00
 -1        65 1.29150E+02 5.00000E+01 0.00000E+00
 -1        66 1.32150E+02 5.00000E+01 0.00000E+00
 -1        67 1.35150E+02 5.00000E+01 0.00000E+00
 -1        68 1.38150E+02 5.00000E+01 0.00000E+00
 -1        69 1.41150E+02 5.00000E+01 0.00000E+00
 -1        70 1.44150E+02 5.00000E+01 0.00000E+00
 -1        71 1.47150E+02 5.00000E+01 0.00000E+00
 -1        72 3.15000E+00 0.00000E+00 0.00000E+00
 -1        73 6.15000E+00 0.00000E+00 0.00000E+00
 -1        74 9.15000E+00 0.00000E+00 0.00000E+00
 -1        75 1.21500E+01 0.00000E+00 0.00000E+00
 -1        76 1.51500E+01 0.00000E+00 0.00000E+00
 -1        77 1.81500E+01 0.00000E+00 0.00000E+00
 -1        78 2.11500E+01 0.00000E+00 0.00000E+00
 -1        79 2.41500E+01 0.00000E+00 0.00000E+00
 -1        80 2.71500E+01 0.00000E+00 0.00000E+00
 -1        81 3.01500E+01 0.00000E+00 0.00000E+00
 -1        82 3.31500E+01 0.00000E+00 0.00000E+00
 -1        83 3.61500E+01 0.00000E+00 0.00000E+00
 -1        84 3.91500E+01 0.00000E+00 0.00000E+00
 -1        85 4.21500E+01 0.00000E+00 0.00000E+00
 -1        86 4.51500E+01 0.00000E+00 0.00000E+00
 -1        87 4.81500E+01 0.00000E+00 0.00000E+00
 -1        88 5.11500E+01 0.00000E+00 0.00000E+00
 -1        89 5.41500E+01 0.00000E+00 0.00000E+00
 -1        90 5.71500E+01 0.00000E+00 0.00000E+00
 -1        91 6.01500E+01 0.00000E+00 0.00000E+00
 -1        92 6.31500E+01 0.00000E+00 0.00000E+00
 -1        93 6.61500E+01 0.00000E+00 0.00000E+00
 -1        94 6.91500E+01 0.00000E+00 0.00000E+00
 -1        95 7.21500E+01 0.00000E+00 0.00000E+00
 -1        96 7.51500E+01 0.00000E+00 0.00000E+00
 -1        97 7.81500E+01 0.00000E+00 0.00000E+00
 -1        98 8.11500E+01 0.00000E+00 0.00000E+00
 -1        99 8.41500E+01 0.00000E+00 0.00000E+00
 -1       100 8.71500E+01 0.00000E+00 0.00000E+00
 -1       101 9.01500E+01 0.00000E+00 0.00000E+00
 -1       102 9.31500E+01 0.00000E+00 0.00000E+00
 -1       103 9.61500E+01 0.00000E+00 0.00000E+00
 -1       104 9.91500E+01 0.00000E+00 0.00000E+00
 -1       105 1.02150E+02 0.00000E+00 0.00000E+00
 -1       106 1.05150E+02 0.00000E+00 0.00000E+00
 -1       107 1.08150E+02 0.00000E+00 0.00000E+00
 -1       108 1.11150E+02 0.00000E+00 0.00000E+00
 -1       109 1.14150E+02 0.00000E+00 0.00000E+00
 -1       110 1.17150E+02 0.00000E+00 0.00000E+00
 -1       111 1.20150E+02 0.00000E+00 0.00000E+00
 -1       112 1.23150E+02 0.00000E+00 0.00000E+00
 -1       113 1.26150E+02 0.00000E+00 0.00000E+00
 -1       114 1.29150E+02 0.00000E+00 0.00000E+00
 -1       115 1.32150E+02 0.00000E+00 0.00000E+00
 -1       116 1.35150E+02 0.00000E+00 0.00000E+00
 -1       117 1.38150E+02 0.00000E+00 0.00000E+00
 -1       118 1.41150E+02 0.00000E+00 0.00000E+00
 -1       119 1.44150E+02 0.00000E+00 0.00000E+00
 -1       120 1.47150E+02 0.00000E+00 0.00000E+00
 -1       121 1.50000E+02 2.95000E+00 0.00000E+00
 -1       122 1.50000E+02 5.90000E+00 0.00000E+00
 -1       123 1.50000E+02 8.85000E+00 0.00000E+00
 -1       124 1.50000E+02 1.18000E+01 0.00000E+00
 -1       125 1.50000E+02 1.47500E+01 0.00000E+00
 -1       126 1.50000E+02 1.76500E+01 0.00000E+00
 -1       127 1.50000E+02 2.06000E+01 0.00000E+00
 -1       128 1.50000E+02 2.35500E+01 0.00000E+00
 -1       129 1.50000E+02 2.65000E+01 0.00000E+00
 -1       130 1.50000E+02 2.94500E+01 0.00000E+00
 -1       131 1.50000E+02 3.24000E+01 0.00000E+00
 -1       132 1.50000E+02 3.53000E+01 0.00000E+00
 -1       133 1.50000E+02 3.82500E+01 0.00000E+00
 -1       134 1.50000E+02 4.12000E+01 0.00000E+00
 -1       135 1.50000E+02 4.41500E+01 0.00000E+00
 -1       136 1.50000E+02 4.71000E+01 0.00000E+00
 -1       137 8.38876E+01 2.52521E+01 0.00000E+00
 -1       138 8.34058E+01 2.37925E+01 0.00000E+00
 -1       139 8.26480E+01 2.25142E+01 0.00000E+00
 -1       140 8.16641E+01 2.14480E+01 0.00000E+00
 -1       141 8.03860E+01 2.05546E+01 0.00000E+00
 -1       142 7.89700E+01 1.99743E+01 0.00000E+00
 -1       143 7.75052E+01 1.97184E+01 0.00000E+00
 -1       144 7.59996E+01 1.97805E+01 0.00000E+00
 -1       145 7.45542E+01 2.01589E+01 0.00000E+00
 -1       146 7.32244E+01 2.08339E+01 0.00000E+00
 -1       147 7.21026E+01 2.17403E+01 0.00000E+00
 -1       148 7.12005E+01 2.28420E+01 0.00000E+00
 -1       149 7.04911E+01 2.42293E+01 0.00000E+00
 -1       150 7.01081E+01 2.57258E+01 0.00000E+00
 -1       151 7.00590E+01 2.72242E+01 0.00000E+00
 -1       152 7.03468E+01 2.87539E+01 0.00000E+00
 -1       153 7.17034E+01 3.12334E+01 0.00000E+00
 -1       154 7.27097E+01 3.22031E+01 0.00000E+00
 -1       155 7.39814E+01 3.29995E+01 0.00000E+00
 -1       156 7.52958E+01 3.34822E+01 0.00000E+00
 -1       157 7.67859E+01 3.36983E+01 0.00000E+00
 -1       158 7.81511E+01 3.36141E+01 0.00000E+00
 -1       159 7.95350E+01 3.32430E+01 0.00000E+00
 -1       160 8.08443E+01 3.25786E+01 0.00000E+00
 -1       161 8.19292E+01 3.17120E+01 0.00000E+00
 -1       162 8.28021E+01 3.06769E+01 0.00000E+00
 -1       163 8.34896E+01 2.94226E+01 0.00000E+00
 -1       164 8.39033E+01 2.80770E+01 0.00000E+00
 -1       165 2.59800E+00 4.55750E+01 0.00000E+00
 -1       166 2.59800E+00 4.26250E+01 0.00000E+00
 -1       167 2.59800E+00 3.96750E+01 0.00000E+00
 -1       168 2.59800E+00 3.67250E+01 0.00000E+00
 -1       169 2.59800E+00 3.38250E+01 0.00000E+00
 -1       170 2.59800E+00 3.08750E+01 0.00000E+00
 -1       171 2.59800E+00 2.79250E+01 0.00000E+00
 -1       172 2.59800E+00 2.49750E+01 0.00000E+00
 -1       173 2.59800E+00 2.20250E+01 0.00000E+00
 -1       174 2.59800E+00 1.90750E+01 0.00000E+00
 -1       175 2.59800E+00 1.61750E+01 0.00000E+00
 -1       176 2.59800E+00 1.32250E+01 0.00000E+00
 -1       177 2.59800E+00 1.02750E+01 0.00000E+00
 -1       178 2.59800E+00 7.32500E+00 0.00000E+00
 -1       179 2.59800E+00 4.37500E+00 0.00000E+00
 -1       180 2.87400E+00 2.18750E+00 0.00000E+00
 -1       181 4.65000E+00 4.74020E+01 0.00000E+00
 -1       182 7.65000E+00 4.74020E+01 0.00000E+00
 -1       183 1.06500E+01 4.74020E+01 0.00000E+00
 -1       184 1.36500E+01 4.74020E+01 0.00000E+00
 -1       185 1.66500E+01 4.74020E+01 0.00000E+00
 -1       186 1.96500E+01 4.74020E+01 0.00000E+00
 -1       187 2.26500E+01 4.74020E+01 0.00000E+00
 -1       188 2.56500E+01 4.74020E+01 0.00000E+00
 -1       189 2.86500E+01 4.74020E+01 0.00000E+00
 -1       190 3.16500E+01 4.74020E+01 0.00000E+00
 -1       191 3.46500E+01 4.74020E+01 0.00000E+00
 -1       192 3.76500E+01 4.74020E+01 0.00000E+00
 -1       193 4.06500E+01 4.74020E+01 0.00000E+00
 -1       194 4.36500E+01 4.74020E+01 0.00000E+00
 -1       195 4.66500E+01 4.74020E+01 0.00000E+00
 -1       196 4.96500E+01 4.74020E+01 0.00000E+00
 -1       197 5.26500E+01 4.74020E+01 0.00000E+00
 -1       198 5.56500E+01 4.74020E+01 0.00000E+00
 -1       199 5.86500E+01 4.74020E+01 0.00000E+00
 -1       200 6.16500E+01 4.74020E+01 0.00000E+00
 -1       201 6.46500E+01 4.74020E+01 0.00000E+00
 -1       202 6.76500E+01 4.74020E+01 0.00000E+00
 -1       203 7.06500E+01 4.74020E+01 0.00000E+00
 -1       204 7.36500E+01 4.74020E+01 0.00000E+00
 -1       205 7.66500E+01 4.74020E+01 0.00000E+00
 -1       206 7.96500E+01 4.74020E+01 0.00000E+00
 -1       207 8.26500E+01 4.74020E+01 0.00000E+00
 -1       208 8.56500E+01 4.74020E+01 0.00000E+00
 -1       209 8.86500E+01 4.74020E+01 0.00000E+00
 -1       210 9.16500E+01 4.74020E+01 0.00000E+00
 -1       211 9.46500E+01 4.74020E+01 0.00000E+00
 -1       212 9.76500E+01 4.74020E+01 0.00000E+00
 -1       213 1.00650E+02 4.74020E+01 0.00000E+00
 -1       214 1.03650E+02 4.74020E+01 0.00000E+00
 -1       215 1.06650E+02 4.74020E+01 0.00000E+00
 -1       216 1.09650E+02 4.74020E+01 0.00000E+00
 -1       217 1.12650E+02 4.74020E+01 0.00000E+00
 -1       218 1.15650E+02 4.74020E+01 0.00000E+00
 -1       219 1.18650E+02 4.74020E+01 0.00000E+00
 -1       220 1.21650E+02 4.74020E+01 0.00000E+00
 -1       221 1.24650E+02 4.74020E+01 0.00000E+00
 -1       222 1.27650E+02 4.74020E+01 0.00000E+00
 -1       223 1.30650E+02 4.74020E+01 0.00000E+00
 -1       224 1.33650E+02 4.74020E+01 0.00000E+00
 -1       225 1.36650E+02 4.74020E+01 0.00000E+00
 -1       226 1.39650E+02 4.74020E+01 0.00000E+00
 -1       227 1.42650E+02 4.74020E+01 0.00000E+00
 -1       228 1.45650E+02 4.74020E+01 0.00000E+00
 -1       229 5.87400E+00 2.18750E+00 0.00000E+00
 -1       230 8.87400E+00 2.18750E+00 0.00000E+00
 -1       231 1.18740E+01 2.18750E+00 0.00000E+00
 -1       232 1.48740E+01 2.18750E+00 0.00000E+00
 -1       233 1.78740E+01 2.18750E+00 0.00000E+00
 -1       234 2.08740E+01 2.18750E+00 0.00000E+00
 -1       235 2.38740E+01 2.18750E+00 0.00000E+00
 -1       236 2.68740E+01 2.18750E+00 0.00000E+00
 -1       237 2.98740E+01 2.18750E+00 0.00000E+00
 -1       238 3.28740E+01 2.18750E+00 0.00000E+00
 -1       239 3.58740E+01 2.18750E+00 0.00000E+00
 -1       240 3.88740E+01 2.18750E+00 0.00000E+00
 -1       241 4.18740E+01 2.18750E+00 0.00000E+00
 -1       242 4.48740E+01 2.18750E+00 0.00000E+00
 -1       243 4.78740E+01 2.18750E+00 0.00000E+00
 -1       244 5.08740E+01 2.18750E+00 0.00000E+00
 -1       245 5.38740E+01 2.18750E+00 0.00000E+00
 -1       246 5.68740E+01 2.18750E+00 0.00000E+00
 -1       247 5.98740E+01 2.18750E+00 0.00000E+00
 -1       248 6.28740E+01 2.18750E+00 0.00000E+00
 -1       249 6.58740E+01 2.18750E+00 0.00000E+00
 -1       250 6.88740E+01 2.18750E+00 0.00000E+00
 -1       251 7.18740E+01 2.18750E+00 0.00000E+00
 -1       252 7.48740E+01 2.18750E+00 0.00000E+00
 -1       253 7.78740E+01 2.18750E+00 0.00000E+00
 -1       254 8.08740E+01 2.18750E+00 0.00000E+00
 -1       255 8.38740E+01 2.18750E+00 0.00000E+00
 -1       256 8.68740E+01 2.18750E+00 0.00000E+00
 -1       257 8.98740E+01 2.18750E+00 0.00000E+00
 -1       258 9.28740E+01 2.18750E+00 0.00000E+00
 -1       259 9.58740E+01 2.18750E+00 0.00000E+00
 -1       260 9.88740E+01 2.18750E+00 0.00000E+00
 -1       261 1.01874E+02 2.18750E+00 0.00000E+00
 -1       262 1.04874E+02 2.18750E+00 0.00000E+00
 -1       263 1.07874E+02 2.18750E+00 0.00000E+00
 -1       264 1.10874E+02 2.18750E+00 0.00000E+00
 -1       265 1.13874E+02 2.18750E+00 0.00000E+00
 -1       266 1.16874E+02 2.18750E+00 0.00000E+00
 -1       267 1.19874E+02 2.18750E+00 0.00000E+00
 -1       268 1.22874E+02 2.18750E+00 0.00000E+00
 -1       269 1.25874E+02 2.18750E+00 0.00000E+00
 -1       270 1.28874E+02 2.18750E+00 0.00000E+00
 -1       271 1.31874E+02 2.18750E+00 0.00000E+00
 -1       272 1.34874E+02 2.18750E+00 0.00000E+00
 -1       273 1.37874E+02 2.18750E+00 0.00000E+00
 -1       274 1.40874E+02 2.18750E+00 0.00000E+00
 -1       275 1.43874E+02 2.18750E+00 0.00000E+00
 -1       276 1.46874E+02 2.18750E+00 0.00000E+00
 -1       277 1.47402E+02 4.42500E+00 0.00000E+00
 -1       278 1.47402E+02 7.37500E+00 0.00000E+00
 -1       279 1.47402E+02 1.03250E+01 0.00000E+00
 -1       280 1.47402E+02 1.32750E+01 0.00000E+00
 -1       281 1.47402E+02 1.61750E+01 0.00000E+00
 -1       282 1.47402E+02 1.91250E+01 0.00000E+00
 -1       283 1.47402E+02 2.20750E+01 0.00000E+00
 -1       284 1.47402E+02 2.50250E+01 0.00000E+00
 -1       285 1.47402E+02 2.79750E+01 0.00000E+00
 -1       286 1.47402E+02 3.09250E+01 0.00000E+00
 -1       287 1.47402E+02 3.38250E+01 0.00000E+00
 -1       288 1.47402E+02 3.67750E+01 0.00000E+00
 -1       289 1.47402E+02 3.97250E+01 0.00000E+00
 -1       290 1.47402E+02 4.26750E+01 0.00000E+00
 -1       291 1.46526E+02 4.50385E+01 0.00000E+00
 -1       292 8.51693E+01 2.58511E+01 0.00000E+00
 -1       293 8.48776E+01 2.41160E+01 0.00000E+00
 -1       294 8.41419E+01 2.24923E+01 0.00000E+00
 -1       295 8.30470E+01 2.11589E+01 0.00000E+00
 -1       296 8.18157E+01 1.98703E+01 0.00000E+00
 -1       297 8.01695E+01 1.90651E+01 0.00000E+00
 -1       298 7.84607E+01 1.85695E+01 0.00000E+00
 -1       299 7.66954E+01 1.83707E+01 0.00000E+00
 -1       300 7.49486E+01 1.87158E+01 0.00000E+00
 -1       301 7.33026E+01 1.93406E+01 0.00000E+00
 -1       302 7.19015E+01 2.03441E+01 0.00000E+00
 -1       303 7.07135E+01 2.15231E+01 0.00000E+00
 -1       304 6.97664E+01 2.29837E+01 0.00000E+00
 -1       305 6.89627E+01 2.46354E+01 0.00000E+00
 -1       306 6.87880E+01 2.64326E+01 0.00000E+00
 -1       307 6.88467E+01 2.82442E+01 0.00000E+00
 -1       308 6.95115E+01 2.98906E+01 0.00000E+00
 -1       309 7.03083E+01 3.13460E+01 0.00000E+00
 -1       310 7.13653E+01 3.25913E+01 0.00000E+00
 -1       311 7.26131E+01 3.37708E+01 0.00000E+00
 -1       312 7.42206E+01 3.43789E+01 0.00000E+00
 -1       313 7.58428E+01 3.49559E+01 0.00000E+00
 -1       314 7.75431E+01 3.48663E+01 0.00000E+00
 -1       315 7.91787E+01 3.46805E+01 0.00000E+00
 -1       316 8.08141E+01 3.41414E+01 0.00000E+00
 -1       317 8.21434E+01 3.30926E+01 0.00000E+00
 -1       318 8.32924E+01 3.19761E+01 0.00000E+00
 -1       319 8.42090E+01 3.06325E+01 0.00000E+00
 -1       320 8.48553E+01 2.91062E+01 0.00000E+00
 -1       321 8.51779E+01 2.75095E+01 0.00000E+00
 -1       322 5.19600E+00 4.11500E+01 0.00000E+00
 -1       323 5.19600E+00 4.41000E+01 0.00000E+00
 -1       324 5.19600E+00 3.52750E+01 0.00000E+00
 -1       325 5.19600E+00 3.23250E+01 0.00000E+00
 -1       326 5.19600E+00 2.93750E+01 0.00000E+00
 -1       327 5.19600E+00 2.64250E+01 0.00000E+00
 -1       328 5.19600E+00 2.34750E+01 0.00000E+00
 -1       329 5.19600E+00 2.05250E+01 0.00000E+00
 -1       330 5.19600E+00 1.76250E+01 0.00000E+00
 -1       331 5.19600E+00 1.46750E+01 0.00000E+00
 -1       332 5.19600E+00 1.17250E+01 0.00000E+00
 -1       333 5.19600E+00 8.77500E+00 0.00000E+00
 -1       334 5.19600E+00 5.82500E+00 0.00000E+00
 -1       335 5.53500E+00 4.00625E+00 0.00000E+00
 -1       336 8.53500E+00 4.00625E+00 0.00000E+00
 -1       337 9.15000E+00 4.48040E+01 0.00000E+00
 -1       338 1.21500E+01 4.48040E+01 0.00000E+00
 -1       339 1.51500E+01 4.48040E+01 0.00000E+00
 -1       340 1.81500E+01 4.48040E+01 0.00000E+00
 -1       341 2.11500E+01 4.48040E+01 0.00000E+00
 -1       342 2.41500E+01 4.48040E+01 0.00000E+00
 -1       343 2.71500E+01 4.48040E+01 0.00000E+00
 -1       344 3.01500E+01 4.48040E+01 0.00000E+00
 -1       345 3.31500E+01 4.48040E+01 0.00000E+00
 -1       346 3.61500E+01 4.48040E+01 0.00000E+00
 -1       347 3.91500E+01 4.48040E+01 0.00000E+00
 -1       348 4.21500E+01 4.48040E+01 0.00000E+00
 -1       349 4.51500E+01 4.48040E+01 0.00000E+00
 -1       350 4.81500E+01 4.48040E+01 0.00000E+00
 -1       351 5.11500E+01 4.48040E+01 0.00000E+00
 -1       352 5.41500E+01 4.48040E+01 0.00000E+00
 -1       353 5.71500E+01 4.48040E+01 0.00000E+00
 -1       354 6.01500E+01 4.48040E+01 0.00000E+00
 -1       355 6.31500E+01 4.48040E+01 0.00000E+00
 -1       356 6.61500E+01 4.48040E+01 0.00000E+00
 -1       357 6.91500E+01 4.48040E+01 0.00000E+00
 -1       358 7.21500E+01 4.48040E+01 0.00000E+00
 -1       359 7.51500E+01 4.48040E+01 0.00000E+00
 -1       360 7.81500E+01 4.48040E+01 0.00000E+00
 -1       361 8.11500E+01 4.48040E+01 0.00000E+00
 -1       362 8.41500E+01 4.48040E+01 0.00000E+00
 -1       363 8.71500E+01 4.48040E+01 0.00000E+00
 -1       364 9.01500E+01 4.48040E+01 0.00000E+00
 -1       365 9.31500E+01 4.48040E+01 0.00000E+00
 -1       366 9.61500E+01 4.48040E+01 0.00000E+00
 -1       367 9.91500E+01 4.48040E+01 0.00000E+00
 -1       368 1.02150E+02 4.48040E+01 0.00000E+00
 -1       369 1.05150E+02 4.48040E+01 0.00000E+00
 -1       370 1.08150E+02 4.48040E+01 0.00000E+00
 -1       371 1.11150E+02 4.48040E+01 0.00000E+00
 -1       372 1.14150E+02 4.48040E+01 0.00000E+00
 -1       373 1.17150E+02 4.48040E+01 0.00000E+00
 -1       374 1.20150E+02 4.48040E+01 0.00000E+00
 -1       375 1.23150E+02 4.48040E+01 0.00000E+00
 -1       376 1.26150E+02 4.48040E+01 0.00000E+00
 -1       377 1.29150E+02 4.48040E+01 0.00000E+00
 -1       378 1.32150E+02 4.48040E+01 0.00000E+00
 -1       379 1.35150E+02 4.48040E+01 0.00000E+00
 -1       380 1.38150E+02 4.48040E+01 0.00000E+00
 -1       381 1.41150E+02 4.48040E+01 0.00000E+00
 -1       382 1.43838E+02 4.49212E+01 0.00000E+00
 -1       383 1.15350E+01 4.00625E+00 0.00000E+00
 -1       384 1.45350E+01 4.00625E+00 0.00000E+00
 -1       385 1.75350E+01 4.00625E+00 0.00000E+00
 -1       386 2.05350E+01 4.00625E+00 0.00000E+00
 -1       387 2.35350E+01 4.00625E+00 0.00000E+00
 -1       388 2.65350E+01 4.00625E+00 0.00000E+00
 -1       389 2.95350E+01 4.00625E+00 0.00000E+00
 -1       390 3.25350E+01 4.00625E+00 0.00000E+00
 -1       391 3.55350E+01 4.00625E+00 0.00000E+00
 -1       392 3.85350E+01 4.00625E+00 0.00000E+00
 -1       393 4.15350E+01 4.00625E+00 0.00000E+00
 -1       394 4.45350E+01 4.00625E+00 0.00000E+00
 -1       395 4.75350E+01 4.00625E+00 0.00000E+00
 -1       396 5.05350E+01 4.00625E+00 0.00000E+00
 -1       397 5.35350E+01 4.00625E+00 0.00000E+00
 -1       398 5.65350E+01 4.00625E+00 0.00000E+00
 -1       399 5.95350E+01 4.00625E+00 0.00000E+00
 -1       400 6.25350E+01 4.00625E+00 0.00000E+00
 -1       401 6.55350E+01 4.00625E+00 0.00000E+00
 -1       402 6.85350E+01 4.00625E+00 0.00000E+00
 -1       403 7.15350E+01 4.00625E+00 0.00000E+00
 -1       404 7.45350E+01 4.00625E+00 0.00000E+00
 -1       405 7.75350E+01 4.00625E+00 0.00000E+00
 -1       406 8.05350E+01 4.00625E+00 0.00000E+00
 -1       407 8.35350E+01 4.00625E+00 0.00000E+00
 -1       408 8.65350E+01 4.00625E+00 0.00000E+00
 -1       409 8.95350E+01 4.00625E+00 0.00000E+00
 -1       410 9.25350E+01 4.00625E+00 0.00000E+00
 -1       411 9.55350E+01 4.00625E+00 0.00000E+00
 -1       412 9.85350E+01 4.00625E+00 0.00000E+00
 -1       413 1.01535E+02 4.00625E+00 0.00000E+00
 -1       414 1.04535E+02 4.00625E+00 0.00000E+00
 -1       415 1.07535E+02 4.00625E+00 0.00000E+00
 -1       416 1.10535E+02 4.00625E+00 0.00000E+00
 -1       417 1.13535E+02 4.00625E+00 0.00000E+00
 -1       418 1.16535E+02 4.00625E+00 0.00000E+00
 -1       419 1.19535E+02 4.00625E+00 0.00000E+00
 -1       420 1.22535E+02 4.00625E+00 0.00000E+00
 -1       421 1.25535E+02 4.00625E+00 0.00000E+00
 -1       422 1.28535E+02 4.00625E+00 0.00000E+00
 -1       423 1.31535E+02 4.00625E+00 0.00000E+00
 -1       424 1.34535E+02 4.00625E+00 0.00000E+00
 -1       425 1.37535E+02 4.00625E+00 0.00000E+00
 -1       426 1.40535E+02 4.00625E+00 0.00000E+00
 -1       427 1.43535E+02 4.00625E+00 0.00000E+00
 -1       428 1.45469E+02 4.21562E+00 0.00000E+00
 -1       429 1.44804E+02 1.18000E+01 0.00000E+00
 -1       430 1.44804E+02 8.85000E+00 0.00000E+00
 -1       431 1.45136E+02 6.53281E+00 0.00000E+00
 -1       432 1.44804E+02 1.47000E+01 0.00000E+00
 -1       433 1.44804E+02 1.76500E+01 0.00000E+00
 -1       434 1.44804E+02 2.06000E+01 0.00000E+00
 -1       435 1.44804E+02 2.35500E+01 0.00000E+00
 -1       436 1.44804E+02 2.65000E+01 0.00000E+00
 -1       437 1.44804E+02 2.94500E+01 0.00000E+00
 -1       438 1.44804E+02 3.23500E+01 0.00000E+00
 -1       439 1.44804E+02 3.53000E+01 0.00000E+00
 -1       440 1.44804E+02 3.82500E+01 0.00000E+00
 -1       441 1.44804E+02 4.12000E+01 0.00000E+00
 -1       442 8.59957E+01 2.26309E+01 0.00000E+00
 -1       443 8.65536E+01 2.66732E+01 0.00000E+00
 -1       444 8.65496E+01 2.47270E+01 0.00000E+00
 -1       445 8.47257E+01 2.08967E+01 0.00000E+00
 -1       446 8.34944E+01 1.96082E+01 0.00000E+00
 -1       447 5.19600E+00 3.82125E+01 0.00000E+00
 -1       448 7.97228E+01 1.74115E+01 0.00000E+00
 -1       449 7.77513E+01 1.69323E+01 0.00000E+00
 -1       450 7.55707E+01 1.72716E+01 0.00000E+00
 -1       451 7.36061E+01 1.76597E+01 0.00000E+00
 -1       452 7.17010E+01 1.85842E+01 0.00000E+00
 -1       453 7.03355E+01 1.99541E+01 0.00000E+00
 -1       454 6.91524E+01 2.15482E+01 0.00000E+00
 -1       455 6.78977E+01 2.30958E+01 0.00000E+00
 -1       456 6.73351E+01 2.53843E+01 0.00000E+00
 -1       457 6.72706E+01 2.73885E+01 0.00000E+00
 -1       458 6.79772E+01 2.95527E+01 0.00000E+00
 -1       459 6.87729E+01 3.12408E+01 0.00000E+00
 -1       460 6.97847E+01 3.28617E+01 0.00000E+00
 -1       461 7.10412E+01 3.41839E+01 0.00000E+00
 -1       462 7.28693E+01 3.55223E+01 0.00000E+00
 -1       463 7.44915E+01 3.60993E+01 0.00000E+00
 -1       464 7.67656E+01 3.62891E+01 0.00000E+00
 -1       465 7.85072E+01 3.60613E+01 0.00000E+00
 -1       466 8.04547E+01 3.58011E+01 0.00000E+00
 -1       467 8.24373E+01 3.48319E+01 0.00000E+00
 -1       468 8.35863E+01 3.37154E+01 0.00000E+00
 -1       469 8.50291E+01 3.21764E+01 0.00000E+00
 -1       470 8.58029E+01 3.04074E+01 0.00000E+00
 -1       471 8.62871E+01 2.85646E+01 0.00000E+00
 -1       472 8.15989E+01 1.82281E+01 0.00000E+00
 -1       473 1.00350E+01 6.60425E+00 0.00000E+00
 -1       474 7.79400E+00 3.08500E+01 0.00000E+00
 -1       475 7.79400E+00 3.38000E+01 0.00000E+00
 -1       476 7.79400E+00 2.49500E+01 0.00000E+00
 -1       477 7.79400E+00 2.20000E+01 0.00000E+00
 -1       478 7.79400E+00 1.91000E+01 0.00000E+00
 -1       479 7.79400E+00 1.61500E+01 0.00000E+00
 -1       480 7.79400E+00 1.32000E+01 0.00000E+00
 -1       481 7.79400E+00 1.02500E+01 0.00000E+00
 -1       482 1.30350E+01 6.60425E+00 0.00000E+00
 -1       483 1.06500E+01 4.22060E+01 0.00000E+00
 -1       484 8.36548E+01 1.73961E+01 0.00000E+00
 -1       485 1.36500E+01 4.22060E+01 0.00000E+00
 -1       486 1.66500E+01 4.22060E+01 0.00000E+00
 -1       487 1.96500E+01 4.22060E+01 0.00000E+00
 -1       488 2.26500E+01 4.22060E+01 0.00000E+00
 -1       489 2.56500E+01 4.22060E+01 0.00000E+00
 -1       490 2.86500E+01 4.22060E+01 0.00000E+00
 -1       491 3.16500E+01 4.22060E+01 0.00000E+00
 -1       492 3.46500E+01 4.22060E+01 0.00000E+00
 -1       493 3.76500E+01 4.22060E+01 0.00000E+00
 -1       494 4.06500E+01 4.22060E+01 0.00000E+00
 -1       495 4.36500E+01 4.22060E+01 0.00000E+00
 -1       496 4.66500E+01 4.22060E+01 0.00000E+00
 -1       497 4.96500E+01 4.22060E+01 0.00000E+00
 -1       498 5.26500E+01 4.22060E+01 0.00000E+00
 -1       499 5.56500E+01 4.22060E+01 0.00000E+00
 -1       500 5.86500E+01 4.22060E+01 0.00000E+00
 -1       501 6.16500E+01 4.22060E+01 0.00000E+00
 -1       502 6.46500E+01 4.22060E+01 0.00000E+00
 -1       503 6.76500E+01 4.22060E+01 0.00000E+00
 -1       504 7.06500E+01 4.22060E+01 0.00000E+00
 -1       505 7.36500E+01 4.22060E+01 0.00000E+00
 -1       506 7.66500E+01 4.22060E+01 0.00000E+00
 -1       507 7.96500E+01 4.22060E+01 0.00000E+00
 -1       508 8.26500E+01 4.22060E+01 0.00000E+00
 -1       509 8.56500E+01 4.22060E+01 0.00000E+00
 -1       510 8.86500E+01 4.22060E+01 0.00000E+00
 -1       511 9.16500E+01 4.22060E+01 0.00000E+00
 -1       512 9.46500E+01 4.22060E+01 0.00000E+00
 -1       513 9.76500E+01 4.22060E+01 0.00000E+00
 -1       514 1.00650E+02 4.22060E+01 0.00000E+00
 -1       515 1.03650E+02 4.22060E+01 0.00000E+00
 -1       516 1.06650E+02 4.22060E+01 0.00000E+00
 -1       517 1.09650E+02 4.22060E+01 0.00000E+00
 -1       518 1.12650E+02 4.22060E+01 0.00000E+00
 -1       519 1.15650E+02 4.22060E+01 0.00000E+00
 -1       520 1.18650E+02 4.22060E+01 0.00000E+00
 -1       521 1.21650E+02 4.22060E+01 0.00000E+00
 -1       522 1.24650E+02 4.22060E+01 0.00000E+00
 -1       523 1.27650E+02 4.22060E+01 0.00000E+00
 -1       524 1.30650E+02 4.22060E+01 0.00000E+00
 -1       525 1.33650E+02 4.22060E+01 0.00000E+00
 -1       526 1.36650E+02 4.22060E+01 0.00000E+00
 -1       527 1.39650E+02 4.22060E+01 0.00000E+00
 -1       528 1.90350E+01 6.60425E+00 0.00000E+00
 -1       529 2.20350E+01 6.60425E+00 0.00000E+00
 -1       530 2.50350E+01 6.60425E+00 0.00000E+00
 -1       531 2.80350E+01 6.60425E+00 0.00000E+00
 -1       532 3.10350E+01 6.60425E+00 0.00000E+00
 -1       533 3.40350E+01 6.60425E+00 0.00000E+00
 -1       534 3.70350E+01 6.60425E+00 0.00000E+00
 -1       535 4.00350E+01 6.60425E+00 0.00000E+00
 -1       536 4.30350E+01 6.60425E+00 0.00000E+00
 -1       537 4.60350E+01 6.60425E+00 0.00000E+00
 -1       538 4.90350E+01 6.60425E+00 0.00000E+00
 -1       539 5.20350E+01 6.60425E+00 0.00000E+00
 -1       540 5.50350E+01 6.60425E+00 0.00000E+00
 -1       541 5.80350E+01 6.60425E+00 0.00000E+00
 -1       542 6.10350E+01 6.60425E+00 0.00000E+00
 -1       543 6.40350E+01 6.60425E+00 0.00000E+00
 -1       544 6.70350E+01 6.60425E+00 0.00000E+00
 -1       545 7.00350E+01 6.60425E+00 0.00000E+00
 -1       546 7.30350E+01 6.60425E+00 0.00000E+00
 -1       547 7.60350E+01 6.60425E+00 0.00000E+00
 -1       548 7.90350E+01 6.60425E+00 0.00000E+00
 -1       549 8.20350E+01 6.60425E+00 0.00000E+00
 -1       550 8.50350E+01 6.60425E+00 0.00000E+00
 -1       551 8.80350E+01 6.60425E+00 0.00000E+00
 -1       552 9.10350E+01 6.60425E+00 0.00000E+00
 -1       553 9.40350E+01 6.60425E+00 0.00000E+00
 -1       554 9.70350E+01 6.60425E+00 0.00000E+00
 -1       555 1.00035E+02 6.60425E+00 0.00000E+00
 -1       556 1.03035E+02 6.60425E+00 0.00000E+00
 -1       557 1.06035E+02 6.60425E+00 0.00000E+00
 -1       558 1.09035E+02 6.60425E+00 0.00000E+00
 -1       559 1.12035E+02 6.60425E+00 0.00000E+00
 -1       560 1.15035E+02 6.60425E+00 0.00000E+00
 -1       561 1.18035E+02 6.60425E+00 0.00000E+00
 -1       562 1.21035E+02 6.60425E+00 0.00000E+00
 -1       563 1.24035E+02 6.60425E+00 0.00000E+00
 -1       564 1.27035E+02 6.60425E+00 0.00000E+00
 -1       565 1.30035E+02 6.60425E+00 0.00000E+00
 -1       566 1.33035E+02 6.60425E+00 0.00000E+00
 -1       567 1.36035E+02 6.60425E+00 0.00000E+00
 -1       568 1.39035E+02 6.60425E+00 0.00000E+00
 -1       569 1.42035E+02 6.60425E+00 0.00000E+00
 -1       570 1.42206E+02 1.61750E+01 0.00000E+00
 -1       571 1.42206E+02 1.91250E+01 0.00000E+00
 -1       572 1.42206E+02 1.03250E+01 0.00000E+00
 -1       573 1.42206E+02 1.32500E+01 0.00000E+00
 -1       574 1.42206E+02 2.20750E+01 0.00000E+00
 -1       575 1.42206E+02 2.50250E+01 0.00000E+00
 -1       576 1.42206E+02 2.79750E+01 0.00000E+00
 -1       577 1.42206E+02 3.08750E+01 0.00000E+00
 -1       578 1.42206E+02 3.38250E+01 0.00000E+00
 -1       579 1.42206E+02 3.67750E+01 0.00000E+00
 -1       580 1.42206E+02 3.97250E+01 0.00000E+00
 -1       581 8.81829E+01 2.56967E+01 0.00000E+00
 -1       582 8.67445E+01 2.07505E+01 0.00000E+00
 -1       583 1.60350E+01 6.60425E+00 0.00000E+00
 -1       584 8.79528E+01 2.78348E+01 0.00000E+00
 -1       585 8.52895E+01 1.91254E+01 0.00000E+00
 -1       586 7.92300E+00 4.16780E+01 0.00000E+00
 -1       587 8.77038E+01 2.99219E+01 0.00000E+00
 -1       588 8.23464E+01 3.71584E+01 0.00000E+00
 -1       589 7.10411E+01 3.61017E+01 0.00000E+00
 -1       590 7.79400E+00 2.79000E+01 0.00000E+00
 -1       591 7.63972E+01 1.54072E+01 0.00000E+00
 -1       592 7.78372E+01 3.77097E+01 0.00000E+00
 -1       593 7.91223E+01 1.55867E+01 0.00000E+00
 -1       594 7.42885E+01 1.59475E+01 0.00000E+00
 -1       595 7.19048E+01 1.65789E+01 0.00000E+00
 -1       596 6.95662E+01 1.78217E+01 0.00000E+00
 -1       597 6.85012E+01 1.98289E+01 0.00000E+00
 -1       598 6.72465E+01 2.13765E+01 0.00000E+00
 -1       599 6.60322E+01 2.38506E+01 0.00000E+00
 -1       600 6.57561E+01 2.63366E+01 0.00000E+00
 -1       601 6.56749E+01 2.91069E+01 0.00000E+00
 -1       602 6.70510E+01 3.10209E+01 0.00000E+00
 -1       603 6.78239E+01 3.29594E+01 0.00000E+00
 -1       604 6.91697E+01 3.47043E+01 0.00000E+00
 -1       605 7.29933E+01 3.77425E+01 0.00000E+00
 -1       606 8.68339E+01 3.19121E+01 0.00000E+00
 -1       607 7.54859E+01 3.79034E+01 0.00000E+00
 -1       608 7.97847E+01 3.74495E+01 0.00000E+00
 -1       609 8.43238E+01 3.56239E+01 0.00000E+00
 -1       610 8.57666E+01 3.40849E+01 0.00000E+00
 -1       611 8.14122E+01 1.60935E+01 0.00000E+00
 -1       612 7.61550E+00 6.21462E+00 0.00000E+00
 -1       613 8.79308E+01 2.32407E+01 0.00000E+00
 -1       614 7.79400E+00 3.67375E+01 0.00000E+00
 -1       615 7.85850E+00 3.92077E+01 0.00000E+00
 -1       616 6.53811E+01 2.21313E+01 0.00000E+00
 -1       617 1.41678E+02 4.22645E+01 0.00000E+00
 -1       618 1.03920E+01 2.05500E+01 0.00000E+00
 -1       619 1.03920E+01 2.35000E+01 0.00000E+00
 -1       620 1.03920E+01 1.46750E+01 0.00000E+00
 -1       621 1.03920E+01 1.17250E+01 0.00000E+00
 -1       622 1.15350E+01 9.20225E+00 0.00000E+00
 -1       623 6.68734E+01 3.50840E+01 0.00000E+00
 -1       624 8.58403E+01 1.69675E+01 0.00000E+00
 -1       625 1.51500E+01 3.96080E+01 0.00000E+00
 -1       626 1.81500E+01 3.96080E+01 0.00000E+00
 -1       627 2.11500E+01 3.96080E+01 0.00000E+00
 -1       628 2.41500E+01 3.96080E+01 0.00000E+00
 -1       629 2.71500E+01 3.96080E+01 0.00000E+00
 -1       630 3.01500E+01 3.96080E+01 0.00000E+00
 -1       631 3.31500E+01 3.96080E+01 0.00000E+00
 -1       632 3.61500E+01 3.96080E+01 0.00000E+00
 -1       633 3.91500E+01 3.96080E+01 0.00000E+00
 -1       634 4.21500E+01 3.96080E+01 0.00000E+00
 -1       635 4.51500E+01 3.96080E+01 0.00000E+00
 -1       636 4.81500E+01 3.96080E+01 0.00000E+00
 -1       637 5.11500E+01 3.96080E+01 0.00000E+00
 -1       638 5.41500E+01 3.96080E+01 0.00000E+00
 -1       639 5.71500E+01 3.96080E+01 0.00000E+00
 -1       640 6.01500E+01 3.96080E+01 0.00000E+00
 -1       641 6.31500E+01 3.96080E+01 0.00000E+00
 -1       642 6.61500E+01 3.96080E+01 0.00000E+00
 -1       643 6.91500E+01 3.96080E+01 0.00000E+00
 -1       644 7.81500E+01 3.98206E+01 0.00000E+00
 -1       645 8.41500E+01 3.96080E+01 0.00000E+00
 -1       646 8.71500E+01 3.96080E+01 0.00000E+00
 -1       647 9.01500E+01 3.96080E+01 0.00000E+00
 -1       648 9.31500E+01 3.96080E+01 0.00000E+00
 -1       649 9.61500E+01 3.96080E+01 0.00000E+00
 -1       650 9.91500E+01 3.96080E+01 0.00000E+00
 -1       651 1.02150E+02 3.96080E+01 0.00000E+00
 -1       652 1.05150E+02 3.96080E+01 0.00000E+00
 -1       653 1.08150E+02 3.96080E+01 0.00000E+00
 -1       654 1.11150E+02 3.96080E+01 0.00000E+00
 -1       655 1.14150E+02 3.96080E+01 0.00000E+00
 -1       656 1.17150E+02 3.96080E+01 0.00000E+00
 -1       657 1.20150E+02 3.96080E+01 0.00000E+00
 -1       658 1.23150E+02 3.96080E+01 0.00000E+00
 -1       659 1.26150E+02 3.96080E+01 0.00000E+00
 -1       660 1.29150E+02 3.96080E+01 0.00000E+00
 -1       661 1.32150E+02 3.96080E+01 0.00000E+00
 -1       662 1.35150E+02 3.96080E+01 0.00000E+00
 -1       663 1.38150E+02 3.96080E+01 0.00000E+00
 -1       664 2.35350E+01 9.20225E+00 0.00000E+00
 -1       665 1.40178E+02 3.96665E+01 0.00000E+00
 -1       666 2.05350E+01 9.20225E+00 0.00000E+00
 -1       667 2.95350E+01 9.20225E+00 0.00000E+00
 -1       668 3.25350E+01 9.20225E+00 0.00000E+00
 -1       669 3.55350E+01 9.20225E+00 0.00000E+00
 -1       670 3.85350E+01 9.20225E+00 0.00000E+00
 -1       671 4.15350E+01 9.20225E+00 0.00000E+00
 -1       672 4.45350E+01 9.20225E+00 0.00000E+00
 -1       673 4.75350E+01 9.20225E+00 0.00000E+00
 -1       674 5.05350E+01 9.20225E+00 0.00000E+00
 -1       675 5.35350E+01 9.20225E+00 0.00000E+00
 -1       676 5.65350E+01 9.20225E+00 0.00000E+00
 -1       677 5.95350E+01 9.20225E+00 0.00000E+00
 -1       678 6.25350E+01 9.20225E+00 0.00000E+00
 -1       679 6.55350E+01 9.20225E+00 0.00000E+00
 -1       680 6.85350E+01 9.20225E+00 0.00000E+00
 -1       681 7.15350E+01 9.20225E+00 0.00000E+00
 -1       682 7.45350E+01 9.20225E+00 0.00000E+00
 -1       683 7.75350E+01 9.20225E+00 0.00000E+00
 -1       684 8.05350E+01 9.20225E+00 0.00000E+00
 -1       685 8.35350E+01 9.20225E+00 0.00000E+00
 -1       686 8.65350E+01 9.20225E+00 0.00000E+00
 -1       687 8.95350E+01 9.20225E+00 0.00000E+00
 -1       688 9.25350E+01 9.20225E+00 0.00000E+00
 -1       689 9.55350E+01 9.20225E+00 0.00000E+00
 -1       690 9.85350E+01 9.20225E+00 0.00000E+00
 -1       691 1.01535E+02 9.20225E+00 0.00000E+00
 -1       692 1.04535E+02 9.20225E+00 0.00000E+00
 -1       693 1.07535E+02 9.20225E+00 0.00000E+00
 -1       694 1.10535E+02 9.20225E+00 0.00000E+00
 -1       695 1.13535E+02 9.20225E+00 0.00000E+00
 -1       696 1.16535E+02 9.20225E+00 0.00000E+00
 -1       697 1.19535E+02 9.20225E+00 0.00000E+00
 -1       698 1.22535E+02 9.20225E+00 0.00000E+00
 -1       699 1.25535E+02 9.20225E+00 0.00000E+00
 -1       700 1.28535E+02 9.20225E+00 0.00000E+00
 -1       701 1.31535E+02 9.20225E+00 0.00000E+00
 -1       702 1.34535E+02 9.20225E+00 0.00000E+00
 -1       703 1.37535E+02 9.20225E+00 0.00000E+00
 -1       704 1.39870E+02 9.76363E+00 0.00000E+00
 -1       705 8.72948E+01 1.87939E+01 0.00000E+00
 -1       706 1.39608E+02 2.35500E+01 0.00000E+00
 -1       707 8.46948E+01 3.81433E+01 0.00000E+00
 -1       708 1.39608E+02 1.76500E+01 0.00000E+00
 -1       709 1.39608E+02 2.65000E+01 0.00000E+00
 -1       710 1.39608E+02 2.06000E+01 0.00000E+00
 -1       711 1.39608E+02 2.94000E+01 0.00000E+00
 -1       712 1.39608E+02 3.23500E+01 0.00000E+00
 -1       713 1.39608E+02 3.53000E+01 0.00000E+00
 -1       714 8.81405E+01 3.39024E+01 0.00000E+00
 -1       715 9.00964E+01 2.42594E+01 0.00000E+00
 -1       716 1.05855E+01 3.97357E+01 0.00000E+00
 -1       717 7.67955E+01 3.94323E+01 0.00000E+00
 -1       718 6.75186E+01 1.80214E+01 0.00000E+00
 -1       719 8.93649E+01 2.90616E+01 0.00000E+00
 -1       720 1.75350E+01 9.20225E+00 0.00000E+00
 -1       721 2.65350E+01 9.20225E+00 0.00000E+00
 -1       722 1.28678E+01 3.96719E+01 0.00000E+00
 -1       723 6.55330E+01 3.27494E+01 0.00000E+00
 -1       724 8.95951E+01 2.69235E+01 0.00000E+00
 -1       725 1.45350E+01 9.20225E+00 0.00000E+00
 -1       726 1.03920E+01 1.76125E+01 0.00000E+00
 -1       727 1.03920E+01 3.23250E+01 0.00000E+00
 -1       728 8.87636E+01 3.15704E+01 0.00000E+00
 -1       729 7.26575E+01 1.46053E+01 0.00000E+00
 -1       730 6.98520E+01 1.55378E+01 0.00000E+00
 -1       731 6.62639E+01 1.95691E+01 0.00000E+00
 -1       732 6.36661E+01 2.76617E+01 0.00000E+00
 -1       733 6.41569E+01 3.08355E+01 0.00000E+00
 -1       734 8.36475E+01 1.48270E+01 0.00000E+00
 -1       735 8.12591E+01 3.90081E+01 0.00000E+00
 -1       736 6.39422E+01 2.51756E+01 0.00000E+00
 -1       737 6.88786E+01 3.70458E+01 0.00000E+00
 -1       738 8.06379E+01 1.41655E+01 0.00000E+00
 -1       739 8.61376E+01 3.66043E+01 0.00000E+00
 -1       740 7.47662E+01 1.40650E+01 0.00000E+00
 -1       741 8.90373E+01 2.11859E+01 0.00000E+00
 -1       742 7.78835E+01 1.36184E+01 0.00000E+00
 -1       743 1.03920E+01 3.52625E+01 0.00000E+00
 -1       744 1.03920E+01 2.64500E+01 0.00000E+00
 -1       745 1.39870E+02 1.26886E+01 0.00000E+00
 -1       746 6.78045E+01 1.57375E+01 0.00000E+00
 -1       747 6.32911E+01 2.34563E+01 0.00000E+00
 -1       748 1.03920E+01 2.93875E+01 0.00000E+00
 -1       749 1.39739E+02 1.51693E+01 0.00000E+00
 -1       750 1.38879E+02 3.74540E+01 0.00000E+00
 -1       751 8.61760E+01 1.44301E+01 0.00000E+00
 -1       752 1.29900E+01 1.32000E+01 0.00000E+00
 -1       753 1.04888E+01 3.74991E+01 0.00000E+00
 -1       754 9.05947E+01 3.33089E+01 0.00000E+00
 -1       755 1.96500E+01 3.70100E+01 0.00000E+00
 -1       756 2.26500E+01 3.70100E+01 0.00000E+00
 -1       757 2.56500E+01 3.70100E+01 0.00000E+00
 -1       758 2.86500E+01 3.70100E+01 0.00000E+00
 -1       759 3.16500E+01 3.70100E+01 0.00000E+00
 -1       760 3.46500E+01 3.70100E+01 0.00000E+00
 -1       761 3.76500E+01 3.70100E+01 0.00000E+00
 -1       762 4.06500E+01 3.70100E+01 0.00000E+00
 -1       763 4.36500E+01 3.70100E+01 0.00000E+00
 -1       764 4.66500E+01 3.70100E+01 0.00000E+00
 -1       765 4.96500E+01 3.70100E+01 0.00000E+00
 -1       766 5.26500E+01 3.70100E+01 0.00000E+00
 -1       767 5.56500E+01 3.70100E+01 0.00000E+00
 -1       768 5.86500E+01 3.70100E+01 0.00000E+00
 -1       769 6.16500E+01 3.70100E+01 0.00000E+00
 -1       770 6.46500E+01 3.70100E+01 0.00000E+00
 -1       771 8.86500E+01 3.70100E+01 0.00000E+00
 -1       772 9.16500E+01 3.70100E+01 0.00000E+00
 -1       773 9.46500E+01 3.70100E+01 0.00000E+00
 -1       774 9.76500E+01 3.70100E+01 0.00000E+00
 -1       775 1.00650E+02 3.70100E+01 0.00000E+00
 -1       776 1.03650E+02 3.70100E+01 0.00000E+00
 -1       777 1.06650E+02 3.70100E+01 0.00000E+00
 -1       778 1.09650E+02 3.70100E+01 0.00000E+00
 -1       779 1.12650E+02 3.70100E+01 0.00000E+00
 -1       780 1.15650E+02 3.70100E+01 0.00000E+00
 -1       781 1.18650E+02 3.70100E+01 0.00000E+00
 -1       782 1.21650E+02 3.70100E+01 0.00000E+00
 -1       783 1.24650E+02 3.70100E+01 0.00000E+00
 -1       784 1.27650E+02 3.70100E+01 0.00000E+00
 -1       785 1.30650E+02 3.70100E+01 0.00000E+00
 -1       786 1.33650E+02 3.70100E+01 0.00000E+00
 -1       787 1.36264E+02 3.72320E+01 0.00000E+00
 -1       788 2.20350E+01 1.18003E+01 0.00000E+00
 -1       789 3.40350E+01 1.18003E+01 0.00000E+00
 -1       790 3.10350E+01 1.18003E+01 0.00000E+00
 -1       791 4.00350E+01 1.18003E+01 0.00000E+00
 -1       792 4.30350E+01 1.18003E+01 0.00000E+00
 -1       793 4.60350E+01 1.18003E+01 0.00000E+00
 -1       794 4.90350E+01 1.18003E+01 0.00000E+00
 -1       795 5.20350E+01 1.18003E+01 0.00000E+00
 -1       796 5.50350E+01 1.18003E+01 0.00000E+00
 -1       797 5.80350E+01 1.18003E+01 0.00000E+00
 -1       798 6.10350E+01 1.18003E+01 0.00000E+00
 -1       799 6.40350E+01 1.18003E+01 0.00000E+00
 -1       800 6.70350E+01 1.18003E+01 0.00000E+00
 -1       801 7.00350E+01 1.18003E+01 0.00000E+00
 -1       802 7.60350E+01 1.15876E+01 0.00000E+00
 -1       803 7.90350E+01 1.14201E+01 0.00000E+00
 -1       804 8.20350E+01 1.15876E+01 0.00000E+00
 -1       805 8.50350E+01 1.15876E+01 0.00000E+00
 -1       806 8.80350E+01 1.15876E+01 0.00000E+00
 -1       807 9.10350E+01 1.15876E+01 0.00000E+00
 -1       808 9.40350E+01 1.15876E+01 0.00000E+00
 -1       809 9.70350E+01 1.15876E+01 0.00000E+00
 -1       810 1.00035E+02 1.15876E+01 0.00000E+00
 -1       811 1.03035E+02 1.15876E+01 0.00000E+00
 -1       812 1.06035E+02 1.15876E+01 0.00000E+00
 -1       813 1.09035E+02 1.15876E+01 0.00000E+00
 -1       814 1.12035E+02 1.15876E+01 0.00000E+00
 -1       815 1.15035E+02 1.15876E+01 0.00000E+00
 -1       816 1.18035E+02 1.15876E+01 0.00000E+00
 -1       817 1.21035E+02 1.15876E+01 0.00000E+00
 -1       818 1.24035E+02 1.15876E+01 0.00000E+00
 -1       819 1.27035E+02 1.15876E+01 0.00000E+00
 -1       820 1.30035E+02 1.15876E+01 0.00000E+00
 -1       821 1.33035E+02 1.15876E+01 0.00000E+00
 -1       822 1.36035E+02 1.15876E+01 0.00000E+00
 -1       823 1.37953E+02 1.21381E+01 0.00000E+00
 -1       824 1.37010E+02 2.79500E+01 0.00000E+00
 -1       825 7.06609E+01 1.32850E+01 0.00000E+00
 -1       826 1.37010E+02 2.50000E+01 0.00000E+00
 -1       827 6.15999E+01 2.61739E+01 0.00000E+00
 -1       828 1.29900E+01 2.20250E+01 0.00000E+00
 -1       829 9.16637E+01 2.20001E+01 0.00000E+00
 -1       830 1.90350E+01 1.18003E+01 0.00000E+00
 -1       831 6.40425E+01 2.02369E+01 0.00000E+00
 -1       832 1.37010E+02 3.09000E+01 0.00000E+00
 -1       833 1.37010E+02 3.38500E+01 0.00000E+00
 -1       834 3.70350E+01 1.18003E+01 0.00000E+00
 -1       835 1.37625E+01 1.12011E+01 0.00000E+00
 -1       836 6.42798E+01 3.50210E+01 0.00000E+00
 -1       837 1.66500E+01 3.70100E+01 0.00000E+00
 -1       838 9.11853E+01 2.81761E+01 0.00000E+00
 -1       839 8.83025E+01 1.64991E+01 0.00000E+00
 -1       840 6.52987E+01 1.75041E+01 0.00000E+00
 -1       841 6.29037E+01 3.31070E+01 0.00000E+00
 -1       842 9.16866E+01 2.55119E+01 0.00000E+00
 -1       843 9.11960E+01 3.08001E+01 0.00000E+00
 -1       844 9.00450E+01 1.88911E+01 0.00000E+00
 -1       845 7.32446E+01 1.25114E+01 0.00000E+00
 -1       846 6.20509E+01 2.95362E+01 0.00000E+00
 -1       847 1.29900E+01 2.49750E+01 0.00000E+00
 -1       848 1.29900E+01 1.61375E+01 0.00000E+00
 -1       849 1.27710E+01 3.74352E+01 0.00000E+00
 -1       850 1.29900E+01 3.37938E+01 0.00000E+00
 -1       851 2.50350E+01 1.18003E+01 0.00000E+00
 -1       852 2.80350E+01 1.18003E+01 0.00000E+00
 -1       853 1.37010E+02 1.91250E+01 0.00000E+00
 -1       854 1.37010E+02 2.20625E+01 0.00000E+00
 -1       855 6.09488E+01 2.44545E+01 0.00000E+00
 -1       856 9.32539E+01 2.32527E+01 0.00000E+00
 -1       857 1.29900E+01 3.08563E+01 0.00000E+00
 -1       858 1.37141E+02 1.66443E+01 0.00000E+00
 -1       859 1.29900E+01 1.90812E+01 0.00000E+00
 -1       860 1.63988E+01 1.15007E+01 0.00000E+00
 -1       861 1.36637E+02 3.55410E+01 0.00000E+00
 -1       862 6.07977E+01 3.18078E+01 0.00000E+00
 -1       863 6.26555E+01 1.79442E+01 0.00000E+00
 -1       864 1.37547E+02 1.43912E+01 0.00000E+00
 -1       865 6.52737E+01 1.48081E+01 0.00000E+00
 -1       866 2.41500E+01 3.44120E+01 0.00000E+00
 -1       867 2.71500E+01 3.44120E+01 0.00000E+00
 -1       868 3.01500E+01 3.44120E+01 0.00000E+00
 -1       869 3.31500E+01 3.44120E+01 0.00000E+00
 -1       870 3.61500E+01 3.44120E+01 0.00000E+00
 -1       871 3.91500E+01 3.44120E+01 0.00000E+00
 -1       872 4.21500E+01 3.44120E+01 0.00000E+00
 -1       873 4.51500E+01 3.44120E+01 0.00000E+00
 -1       874 4.81500E+01 3.44120E+01 0.00000E+00
 -1       875 5.11500E+01 3.44120E+01 0.00000E+00
 -1       876 5.41500E+01 3.44120E+01 0.00000E+00
 -1       877 5.71500E+01 3.44120E+01 0.00000E+00
 -1       878 1.34412E+02 2.94250E+01 0.00000E+00
 -1       879 9.31500E+01 3.44120E+01 0.00000E+00
 -1       880 9.61500E+01 3.44120E+01 0.00000E+00
 -1       881 9.91500E+01 3.44120E+01 0.00000E+00
 -1       882 1.02150E+02 3.44120E+01 0.00000E+00
 -1       883 1.05150E+02 3.44120E+01 0.00000E+00
 -1       884 1.08150E+02 3.44120E+01 0.00000E+00
 -1       885 1.11150E+02 3.44120E+01 0.00000E+00
 -1       886 1.14150E+02 3.44120E+01 0.00000E+00
 -1       887 1.17150E+02 3.44120E+01 0.00000E+00
 -1       888 1.20150E+02 3.44120E+01 0.00000E+00
 -1       889 1.23150E+02 3.44120E+01 0.00000E+00
 -1       890 1.26150E+02 3.44120E+01 0.00000E+00
 -1       891 1.29150E+02 3.44120E+01 0.00000E+00
 -1       892 1.32150E+02 3.44120E+01 0.00000E+00
 -1       893 9.34085E+01 2.94790E+01 0.00000E+00
 -1       894 4.45350E+01 1.43982E+01 0.00000E+00
 -1       895 4.15350E+01 1.43982E+01 0.00000E+00
 -1       896 5.05350E+01 1.43982E+01 0.00000E+00
 -1       897 5.35350E+01 1.43982E+01 0.00000E+00
 -1       898 5.65350E+01 1.43982E+01 0.00000E+00
 -1       899 5.95350E+01 1.43982E+01 0.00000E+00
 -1       900 9.25350E+01 1.41856E+01 0.00000E+00
 -1       901 9.55350E+01 1.41856E+01 0.00000E+00
 -1       902 9.85350E+01 1.41856E+01 0.00000E+00
 -1       903 1.01535E+02 1.41856E+01 0.00000E+00
 -1       904 1.04535E+02 1.41856E+01 0.00000E+00
 -1       905 1.07535E+02 1.41856E+01 0.00000E+00
 -1       906 1.10535E+02 1.41856E+01 0.00000E+00
 -1       907 1.13535E+02 1.41856E+01 0.00000E+00
 -1       908 1.16535E+02 1.41856E+01 0.00000E+00
 -1       909 1.19535E+02 1.41856E+01 0.00000E+00
 -1       910 1.22535E+02 1.41856E+01 0.00000E+00
 -1       911 1.25535E+02 1.41856E+01 0.00000E+00
 -1       912 1.28535E+02 1.41856E+01 0.00000E+00
 -1       913 1.31535E+02 1.41856E+01 0.00000E+00
 -1       914 1.34535E+02 1.41856E+01 0.00000E+00
 -1       915 1.34412E+02 3.23750E+01 0.00000E+00
 -1       916 3.25350E+01 1.43982E+01 0.00000E+00
 -1       917 9.31587E+01 1.92458E+01 0.00000E+00
 -1       918 6.12239E+01 3.44089E+01 0.00000E+00
 -1       919 1.44274E+01 3.46401E+01 0.00000E+00
 -1       920 1.34412E+02 2.64750E+01 0.00000E+00
 -1       921 9.39098E+01 2.68148E+01 0.00000E+00
 -1       922 1.29900E+01 2.79188E+01 0.00000E+00
 -1       923 4.75350E+01 1.43982E+01 0.00000E+00
 -1       924 1.81500E+01 3.44120E+01 0.00000E+00
 -1       925 5.96273E+01 2.81499E+01 0.00000E+00
 -1       926 2.11500E+01 3.44120E+01 0.00000E+00
 -1       927 9.32150E+01 3.26105E+01 0.00000E+00
 -1       928 9.12736E+01 1.61654E+01 0.00000E+00
 -1       929 8.96543E+01 1.38765E+01 0.00000E+00
 -1       930 2.05350E+01 1.43982E+01 0.00000E+00
 -1       931 6.16702E+01 2.13806E+01 0.00000E+00
 -1       932 1.55880E+01 1.46687E+01 0.00000E+00
 -1       933 2.95350E+01 1.43982E+01 0.00000E+00
 -1       934 5.83741E+01 3.04215E+01 0.00000E+00
 -1       935 5.89761E+01 2.64306E+01 0.00000E+00
 -1       936 1.75351E+01 1.43983E+01 0.00000E+00
 -1       937 1.34394E+02 3.49765E+01 0.00000E+00
 -1       938 1.59934E+01 1.30847E+01 0.00000E+00
 -1       939 1.34412E+02 2.05938E+01 0.00000E+00
 -1       940 3.85350E+01 1.43982E+01 0.00000E+00
 -1       941 6.31668E+01 1.46522E+01 0.00000E+00
 -1       942 1.34543E+02 1.81131E+01 0.00000E+00
 -1       943 3.55350E+01 1.43982E+01 0.00000E+00
 -1       944 2.35350E+01 1.43982E+01 0.00000E+00
 -1       945 1.34412E+02 2.35375E+01 0.00000E+00
 -1       946 9.47489E+01 2.04984E+01 0.00000E+00
 -1       947 1.55880E+01 2.35000E+01 0.00000E+00
 -1       948 1.55880E+01 2.05562E+01 0.00000E+00
 -1       949 1.44274E+01 3.17026E+01 0.00000E+00
 -1       950 5.98698E+01 1.90050E+01 0.00000E+00
 -1       951 2.86500E+01 3.18140E+01 0.00000E+00
 -1       952 3.16500E+01 3.18140E+01 0.00000E+00
 -1       953 3.46500E+01 3.18140E+01 0.00000E+00
 -1       954 3.76500E+01 3.18140E+01 0.00000E+00
 -1       955 4.06500E+01 3.18140E+01 0.00000E+00
 -1       956 4.36500E+01 3.18140E+01 0.00000E+00
 -1       957 4.66500E+01 3.18140E+01 0.00000E+00
 -1       958 4.96500E+01 3.18140E+01 0.00000E+00
 -1       959 5.26500E+01 3.18140E+01 0.00000E+00
 -1       960 5.56500E+01 3.18140E+01 0.00000E+00
 -1       961 4.30350E+01 1.69963E+01 0.00000E+00
 -1       962 1.90351E+01 1.69963E+01 0.00000E+00
 -1       963 1.96500E+01 3.18140E+01 0.00000E+00
 -1       964 9.76500E+01 3.18140E+01 0.00000E+00
 -1       965 1.00650E+02 3.18140E+01 0.00000E+00
 -1       966 1.03650E+02 3.18140E+01 0.00000E+00
 -1       967 1.06650E+02 3.18140E+01 0.00000E+00
 -1       968 1.09650E+02 3.18140E+01 0.00000E+00
 -1       969 1.12650E+02 3.18140E+01 0.00000E+00
 -1       970 1.15650E+02 3.18140E+01 0.00000E+00
 -1       971 1.18650E+02 3.18140E+01 0.00000E+00
 -1       972 1.21650E+02 3.18140E+01 0.00000E+00
 -1       973 1.24650E+02 3.18140E+01 0.00000E+00
 -1       974 1.27650E+02 3.18140E+01 0.00000E+00
 -1       975 1.30650E+02 3.18140E+01 0.00000E+00
 -1       976 5.50350E+01 1.69963E+01 0.00000E+00
 -1       977 5.20350E+01 1.69963E+01 0.00000E+00
 -1       978 1.55880E+01 1.76125E+01 0.00000E+00
 -1       979 9.42736E+01 1.61654E+01 0.00000E+00
 -1       980 1.03035E+02 1.67836E+01 0.00000E+00
 -1       981 1.06035E+02 1.67836E+01 0.00000E+00
 -1       982 1.09035E+02 1.67836E+01 0.00000E+00
 -1       983 1.12035E+02 1.67836E+01 0.00000E+00
 -1       984 1.15035E+02 1.67836E+01 0.00000E+00
 -1       985 1.18035E+02 1.67836E+01 0.00000E+00
 -1       986 1.21035E+02 1.67836E+01 0.00000E+00
 -1       987 1.24035E+02 1.67836E+01 0.00000E+00
 -1       988 1.27035E+02 1.67836E+01 0.00000E+00
 -1       989 1.30035E+02 1.67836E+01 0.00000E+00
 -1       990 9.53581E+01 3.11712E+01 0.00000E+00
 -1       991 9.57630E+01 2.46321E+01 0.00000E+00
 -1       992 1.55880E+01 2.64438E+01 0.00000E+00
 -1       993 1.31814E+02 2.79500E+01 0.00000E+00
 -1       994 1.00035E+02 1.67836E+01 0.00000E+00
 -1       995 2.65350E+01 1.43982E+01 0.00000E+00
 -1       996 9.70350E+01 1.67836E+01 0.00000E+00
 -1       997 2.26500E+01 3.18140E+01 0.00000E+00
 -1       998 9.58594E+01 2.85070E+01 0.00000E+00
 -1       999 2.56500E+01 3.18140E+01 0.00000E+00
 -1      1000 5.89872E+01 2.23725E+01 0.00000E+00
 -1      1001 1.55880E+01 2.93813E+01 0.00000E+00
 -1      1002 5.70145E+01 2.43486E+01 0.00000E+00
 -1      1003 3.40350E+01 1.69963E+01 0.00000E+00
 -1      1004 9.72580E+01 2.18779E+01 0.00000E+00
 -1      1005 4.60350E+01 1.69963E+01 0.00000E+00
 -1      1006 3.10350E+01 1.69963E+01 0.00000E+00
 -1      1007 4.00350E+01 1.69963E+01 0.00000E+00
 -1      1008 2.20351E+01 1.69963E+01 0.00000E+00
 -1      1009 5.77229E+01 2.87021E+01 0.00000E+00
 -1      1010 1.31883E+02 1.92161E+01 0.00000E+00
 -1      1011 1.81860E+01 2.49719E+01 0.00000E+00
 -1      1012 1.31814E+02 2.50125E+01 0.00000E+00
 -1      1013 9.57658E+01 1.90216E+01 0.00000E+00
 -1      1014 4.90350E+01 1.69963E+01 0.00000E+00
 -1      1015 1.31849E+02 2.21143E+01 0.00000E+00
 -1      1016 9.77126E+01 2.63243E+01 0.00000E+00
 -1      1017 1.81860E+01 2.20281E+01 0.00000E+00
 -1      1018 5.80350E+01 1.69963E+01 0.00000E+00
 -1      1019 3.70350E+01 1.69963E+01 0.00000E+00
 -1      1020 3.31500E+01 2.92160E+01 0.00000E+00
 -1      1021 3.61500E+01 2.92160E+01 0.00000E+00
 -1      1022 3.91500E+01 2.92160E+01 0.00000E+00
 -1      1023 4.21500E+01 2.92160E+01 0.00000E+00
 -1      1024 4.51500E+01 2.92160E+01 0.00000E+00
 -1      1025 4.81500E+01 2.92160E+01 0.00000E+00
 -1      1026 5.11500E+01 2.92160E+01 0.00000E+00
 -1      1027 5.41500E+01 2.92160E+01 0.00000E+00
 -1      1028 2.50351E+01 1.69963E+01 0.00000E+00
 -1      1029 1.02150E+02 2.92160E+01 0.00000E+00
 -1      1030 1.05150E+02 2.92160E+01 0.00000E+00
 -1      1031 1.08150E+02 2.92160E+01 0.00000E+00
 -1      1032 1.11150E+02 2.92160E+01 0.00000E+00
 -1      1033 1.14150E+02 2.92160E+01 0.00000E+00
 -1      1034 1.17150E+02 2.92160E+01 0.00000E+00
 -1      1035 1.20150E+02 2.92160E+01 0.00000E+00
 -1      1036 1.23150E+02 2.92160E+01 0.00000E+00
 -1      1037 1.26150E+02 2.92160E+01 0.00000E+00
 -1      1038 1.28982E+02 2.85830E+01 0.00000E+00
 -1      1039 5.05350E+01 1.95942E+01 0.00000E+00
 -1      1040 1.10535E+02 1.93816E+01 0.00000E+00
 -1      1041 5.69154E+01 2.00301E+01 0.00000E+00
 -1      1042 1.07535E+02 1.93816E+01 0.00000E+00
 -1      1043 1.04535E+02 1.93816E+01 0.00000E+00
 -1      1044 1.13535E+02 1.93816E+01 0.00000E+00
 -1      1045 1.16535E+02 1.93816E+01 0.00000E+00
 -1      1046 1.19535E+02 1.93816E+01 0.00000E+00
 -1      1047 1.22535E+02 1.93816E+01 0.00000E+00
 -1      1048 1.25535E+02 1.93816E+01 0.00000E+00
 -1      1049 1.28535E+02 1.93816E+01 0.00000E+00
 -1      1050 9.81513E+01 2.91498E+01 0.00000E+00
 -1      1051 1.01535E+02 1.93816E+01 0.00000E+00
 -1      1052 2.80350E+01 1.69963E+01 0.00000E+00
 -1      1053 9.86504E+01 1.92016E+01 0.00000E+00
 -1      1054 2.11500E+01 2.92160E+01 0.00000E+00
 -1      1055 1.86105E+01 1.95122E+01 0.00000E+00
 -1      1056 5.35350E+01 1.95942E+01 0.00000E+00
 -1      1057 3.01500E+01 2.92160E+01 0.00000E+00
 -1      1058 1.81860E+01 2.79094E+01 0.00000E+00
 -1      1059 9.92077E+01 2.35700E+01 0.00000E+00
 -1      1060 3.25350E+01 1.95942E+01 0.00000E+00
 -1      1061 4.15350E+01 1.95942E+01 0.00000E+00
 -1      1062 1.28982E+02 2.56455E+01 0.00000E+00
 -1      1063 2.16105E+01 1.95122E+01 0.00000E+00
 -1      1064 3.55350E+01 1.95942E+01 0.00000E+00
 -1      1065 2.71500E+01 2.92160E+01 0.00000E+00
 -1      1066 4.45350E+01 1.95942E+01 0.00000E+00
 -1      1067 5.49428E+01 2.20061E+01 0.00000E+00
 -1      1068 2.41500E+01 2.92160E+01 0.00000E+00
 -1      1069 5.57614E+01 2.66201E+01 0.00000E+00
 -1      1070 4.75350E+01 1.95942E+01 0.00000E+00
 -1      1071 2.11500E+01 2.62785E+01 0.00000E+00
 -1      1072 2.11500E+01 2.33347E+01 0.00000E+00
 -1      1073 3.76500E+01 2.66180E+01 0.00000E+00
 -1      1074 4.06500E+01 2.66180E+01 0.00000E+00
 -1      1075 4.36500E+01 2.66180E+01 0.00000E+00
 -1      1076 4.66500E+01 2.66180E+01 0.00000E+00
 -1      1077 4.96500E+01 2.66180E+01 0.00000E+00
 -1      1078 5.26500E+01 2.66180E+01 0.00000E+00
 -1      1079 3.85350E+01 1.95942E+01 0.00000E+00
 -1      1080 1.01711E+02 2.63905E+01 0.00000E+00
 -1      1081 1.04711E+02 2.63905E+01 0.00000E+00
 -1      1082 1.07711E+02 2.63905E+01 0.00000E+00
 -1      1083 1.10711E+02 2.63905E+01 0.00000E+00
 -1      1084 1.13711E+02 2.63905E+01 0.00000E+00
 -1      1085 1.16711E+02 2.63905E+01 0.00000E+00
 -1      1086 1.19711E+02 2.63905E+01 0.00000E+00
 -1      1087 1.22711E+02 2.63905E+01 0.00000E+00
 -1      1088 1.25711E+02 2.63905E+01 0.00000E+00
 -1      1089 1.15035E+02 2.19796E+01 0.00000E+00
 -1      1090 3.16500E+01 2.66180E+01 0.00000E+00
 -1      1091 5.20350E+01 2.21922E+01 0.00000E+00
 -1      1092 1.12035E+02 2.19796E+01 0.00000E+00
 -1      1093 1.06035E+02 2.19796E+01 0.00000E+00
 -1      1094 1.18035E+02 2.19796E+01 0.00000E+00
 -1      1095 1.21035E+02 2.19796E+01 0.00000E+00
 -1      1096 1.24035E+02 2.19796E+01 0.00000E+00
 -1      1097 1.27035E+02 2.19796E+01 0.00000E+00
 -1      1098 3.46500E+01 2.66180E+01 0.00000E+00
 -1      1099 1.03035E+02 2.19796E+01 0.00000E+00
 -1      1100 2.46105E+01 1.95122E+01 0.00000E+00
 -1      1101 1.09035E+02 2.19796E+01 0.00000E+00
 -1      1102 2.13803E+01 2.14235E+01 0.00000E+00
 -1      1103 2.95350E+01 1.95943E+01 0.00000E+00
 -1      1104 4.90350E+01 2.21922E+01 0.00000E+00
 -1      1105 4.30350E+01 2.21922E+01 0.00000E+00
 -1      1106 2.86500E+01 2.66180E+01 0.00000E+00
 -1      1107 4.00350E+01 2.21922E+01 0.00000E+00
 -1      1108 2.70728E+01 1.95532E+01 0.00000E+00
 -1      1109 3.40350E+01 2.21922E+01 0.00000E+00
 -1      1110 2.37480E+01 2.48066E+01 0.00000E+00
 -1      1111 3.10350E+01 2.21923E+01 0.00000E+00
 -1      1112 4.60350E+01 2.21922E+01 0.00000E+00
 -1      1113 3.70350E+01 2.21922E+01 0.00000E+00
 -1      1114 2.43803E+01 2.14235E+01 0.00000E+00
 -1      1115 2.61990E+01 2.57123E+01 0.00000E+00
 -1      1116 2.58740E+01 2.28225E+01 0.00000E+00
 -1      1117 2.68425E+01 2.14645E+01 0.00000E+00
 -1      1118 2.89388E+01 2.18284E+01 0.00000E+00
 -1      1119 2.83250E+01 2.37282E+01 0.00000E+00
 -1      1120 0.00000E+00 4.85250E+01 0.00000E+00
 -1      1121 0.00000E+00 4.55750E+01 0.00000E+00
 -1      1122 0.00000E+00 4.26250E+01 0.00000E+00
 -1      1123 0.00000E+00 3.96750E+01 0.00000E+00
 -1      1124 0.00000E+00 3.67250E+01 0.00000E+00
 -1      1125 0.00000E+00 3.38000E+01 0.00000E+00
 -1      1126 0.00000E+00 3.08750E+01 0.00000E+00
 -1      1127 0.00000E+00 2.79250E+01 0.00000E+00
 -1      1128 0.00000E+00 2.49750E+01 0.00000E+00
 -1      1129 0.00000E+00 2.20250E+01 0.00000E+00
 -1      1130 0.00000E+00 1.90750E+01 0.00000E+00
 -1      1131 0.00000E+00 1.61500E+01 0.00000E+00
 -1      1132 0.00000E+00 1.32250E+01 0.00000E+00
 -1      1133 0.00000E+00 1.02750E+01 0.00000E+00
 -1      1134 0.00000E+00 7.32500E+00 0.00000E+00
 -1      1135 0.00000E+00 4.37500E+00 0.00000E+00
 -1      1136 0.00000E+00 1.45000E+00 0.00000E+00
 -1      1137 1.57500E+00 5.00000E+01 0.00000E+00
 -1      1138 4.65000E+00 5.00000E+01 0.00000E+00
 -1      1139 7.65000E+00 5.00000E+01 0.00000E+00
 -1      1140 1.06500E+01 5.00000E+01 0.00000E+00
 -1      1141 1.36500E+01 5.00000E+01 0.00000E+00
 -1      1142 1.66500E+01 5.00000E+01 0.00000E+00
 -1      1143 1.96500E+01 5.00000E+01 0.00000E+00
 -1      1144 2.26500E+01 5.00000E+01 0.00000E+00
 -1      1145 2.56500E+01 5.00000E+01 0.00000E+00
 -1      1146 2.86500E+01 5.00000E+01 0.00000E+00
 -1      1147 3.16500E+01 5.00000E+01 0.00000E+00
 -1      1148 3.46500E+01 5.00000E+01 0.00000E+00
 -1      1149 3.76500E+01 5.00000E+01 0.00000E+00
 -1      1150 4.06500E+01 5.00000E+01 0.00000E+00
 -1      1151 4.36500E+01 5.00000E+01 0.00000E+00
 -1      1152 4.66500E+01 5.00000E+01 0.00000E+00
 -1      1153 4.96500E+01 5.00000E+01 0.00000E+00
 -1      1154 5.26500E+01 5.00000E+01 0.00000E+00
 -1      1155 5.56500E+01 5.00000E+01 0.00000E+00
 -1      1156 5.86500E+01 5.00000E+01 0.00000E+00
 -1      1157 6.16500E+01 5.00000E+01 0.00000E+00
 -1      1158 6.46500E+01 5.00000E+01 0.00000E+00
 -1      1159 6.76500E+01 5.00000E+01 0.00000E+00
 -1      1160 7.06500E+01 5.00000E+01 0.00000E+00
 -1      1161 7.36500E+01 5.00000E+01 0.00000E+00
 -1      1162 7.66500E+01 5.00000E+01 0.00000E+00
 -1      1163 7.96500E+01 5.00000E+01 0.00000E+00
 -1      1164 8.26500E+01 5.00000E+01 0.00000E+00
 -1      1165 8.56500E+01 5.00000E+01 0.00000E+00
 -1      1166 8.86500E+01 5.00000E+01 0.00000E+00
 -1      1167 9.16500E+01 5.00000E+01 0.00000E+00
 -1      1168 9.46500E+01 5.00000E+01 0.00000E+00
 -1      1169 9.76500E+01 5.00000E+01 0.00000E+00
 -1      1170 1.00650E+02 5.00000E+01 0.00000E+00
 -1      1171 1.03650E+02 5.00000E+01 0.00000E+00
 -1      1172 1.06650E+02 5.00000E+01 0.00000E+00
 -1      1173 1.09650E+02 5.00000E+01 0.00000E+00
 -1      1174 1.12650E+02 5.00000E+01 0.00000E+00
 -1      1175 1.15650E+02 5.00000E+01 0.00000E+00
 -1      1176 1.18650E+02 5.00000E+01 0.00000E+00
 -1      1177 1.21650E+02 5.00000E+01 0.00000E+00
 -1      1178 1.24650E+02 5.00000E+01 0.00000E+00
 -1      1179 1.27650E+02 5.00000E+01 0.00000E+00
 -1      1180 1.30650E+02 5.00000E+01 0.00000E+00
 -1      1181 1.33650E+02 5.00000E+01 0.00000E+00
 -1      1182 1.36650E+02 5.00000E+01 0.00000E+00
 -1      1183 1.39650E+02 5.00000E+01 0.00000E+00
 -1      1184 1.42650E+02 5.00000E+01 0.00000E+00
 -1      1185 1.45650E+02 5.00000E+01 0.00000E+00
 -1      1186 1.48575E+02 5.00000E+01 0.00000E+00
 -1      1187 1.57500E+00 0.00000E+00 0.00000E+00
 -1      1188 4.65000E+00 0.00000E+00 0.00000E+00
 -1      1189 7.65000E+00 0.00000E+00 0.00000E+00
 -1      1190 1.06500E+01 0.00000E+00 0.00000E+00
 -1      1191 1.36500E+01 0.00000E+00 0.00000E+00
 -1      1192 1.66500E+01 0.00000E+00 0.00000E+00
 -1      1193 1.96500E+01 0.00000E+00 0.00000E+00
 -1      1194 2.26500E+01 0.00000E+00 0.00000E+00
 -1      1195 2.56500E+01 0.00000E+00 0.00000E+00
 -1      1196 2.86500E+01 0.00000E+00 0.00000E+00
 -1      1197 3.16500E+01 0.00000E+00 0.00000E+00
 -1      1198 3.46500E+01 0.00000E+00 0.00000E+00
 -1      1199 3.76500E+01 0.00000E+00 0.00000E+00
 -1      1200 4.06500E+01 0.00000E+00 0.00000E+00
 -1      1201 4.36500E+01 0.00000E+00 0.00000E+00
 -1      1202 4.66500E+01 0.00000E+00 0.00000E+00
 -1      1203 4.96500E+01 0.00000E+00 0.00000E+00
 -1      1204 5.26500E+01 0.00000E+00 0.00000E+00
 -1      1205 5.56500E+01 0.00000E+00 0.00000E+00
 -1      1206 5.86500E+01 0.00000E+00 0.00000E+00
 -1      1207 6.16500E+01 0.00000E+00 0.00000E+00
 -1      1208 6.46500E+01 0.00000E+00 0.00000E+00
 -1      1209 6.76500E+01 0.00000E+00 0.00000E+00
 -1      1210 7.06500E+01 0.00000E+00 0.00000E+00
 -1      1211 7.36500E+01 0.00000E+00 0.00000E+00
 -1      1212 7.66500E+01 0.00000E+00 0.00000E+00
 -1      1213 7.96500E+01 0.00000E+00 0.00000E+00
 -1      1214 8.26500E+01 0.00000E+00 0.00000E+00
 -1      1215 8.56500E+01 0.00000E+00 0.00000E+00
 -1      1216 8.86500E+01 0.00000E+00 0.00000E+00
 -1      1217 9.16500E+01 0.00000E+00 0.00000E+00
 -1      1218 9.46500E+01 0.00000E+00 0.00000E+00
 -1      1219 9.76500E+01 0.00000E+00 0.00000E+00
 -1      1220 1.00650E+02 0.00000E+00 0.00000E+00
 -1      1221 1.03650E+02 0.00000E+00 0.00000E+00
 -1      1222 1.06650E+02 0.00000E+00 0.00000E+00
 -1      1223 1.09650E+02 0.00000E+00 0.00000E+00
 -1      1224 1.12650E+02 0.00000E+00 0.00000E+00
 -1      1225 1.15650E+02 0.00000E+00 0.00000E+00
 -1      1226 1.18650E+02 0.00000E+00 0.00000E+00
 -1      1227 1.21650E+02 0.00000E+00 0.00000E+00
 -1      1228 1.24650E+02 0.00000E+00 0.00000E+00
 -1      1229 1.27650E+02 0.00000E+00 0.00000E+00
 -1      1230 1.30650E+02 0.00000E+00 0.00000E+00
 -1      1231 1.33650E+02 0.00000E+00 0.00000E+00
 -1      1232 1.36650E+02 0.00000E+00 0.00000E+00
 -1      1233 1.39650E+02 0.00000E+00 0.00000E+00
 -1      1234 1.42650E+02 0.00000E+00 0.00000E+00
 -1      1235 1.45650E+02 0.00000E+00 0.00000E+00
 -1      1236 1.48575E+02 0.00000E+00 0.00000E+00
 -1      1237 1.50000E+02 1.47500E+00 0.00000E+00
 -1      1238 1.50000E+02 4.42500E+00 0.00000E+00
 -1      1239 1.50000E+02 7.37500E+00 0.00000E+00
 -1      1240 1.50000E+02 1.03250E+01 0.00000E+00
 -1      1241 1.50000E+02 1.32750E+01 0.00000E+00
 -1      1242 1.50000E+02 1.62000E+01 0.00000E+00
 -1      1243 1.50000E+02 1.91250E+01 0.00000E+00
 -1      1244 1.50000E+02 2.20750E+01 0.00000E+00
 -1      1245 1.50000E+02 2.50250E+01 0.00000E+00
 -1      1246 1.50000E+02 2.79750E+01 0.00000E+00
 -1      1247 1.50000E+02 3.09250E+01 0.00000E+00
 -1      1248 1.50000E+02 3.38500E+01 0.00000E+00
 -1      1249 1.50000E+02 3.67750E+01 0.00000E+00
 -1      1250 1.50000E+02 3.97250E+01 0.00000E+00
 -1      1251 1.50000E+02 4.26750E+01 0.00000E+00
 -1      1252 1.50000E+02 4.56250E+01 0.00000E+00
 -1      1253 1.50000E+02 4.85500E+01 0.00000E+00
 -1      1254 8.40014E+01 2.59735E+01 0.00000E+00
 -1      1255 8.36869E+01 2.45090E+01 0.00000E+00
 -1      1256 8.30609E+01 2.31331E+01 0.00000E+00
 -1      1257 8.21838E+01 2.19555E+01 0.00000E+00
 -1      1258 8.10500E+01 2.09656E+01 0.00000E+00
 -1      1259 7.96939E+01 2.02256E+01 0.00000E+00
 -1      1260 7.82444E+01 1.98073E+01 0.00000E+00
 -1      1261 7.67507E+01 1.97088E+01 0.00000E+00
 -1      1262 7.52667E+01 1.99311E+01 0.00000E+00
 -1      1263 7.38713E+01 2.04609E+01 0.00000E+00
 -1      1264 7.26401E+01 2.12581E+01 0.00000E+00
 -1      1265 7.16235E+01 2.22682E+01 0.00000E+00
 -1      1266 7.08071E+01 2.35159E+01 0.00000E+00
 -1      1267 7.02582E+01 2.49670E+01 0.00000E+00
 -1      1268 7.00433E+01 2.64737E+01 0.00000E+00
 -1      1269 7.01602E+01 2.79971E+01 0.00000E+00
 -1      1270 7.05936E+01 2.94324E+01 0.00000E+00
 -1      1271 7.12774E+01 3.06775E+01 0.00000E+00
 -1      1272 7.21823E+01 3.17434E+01 0.00000E+00
 -1      1273 7.33241E+01 3.26355E+01 0.00000E+00
 -1      1274 7.46265E+01 3.32738E+01 0.00000E+00
 -1      1275 7.60350E+01 3.36304E+01 0.00000E+00
 -1      1276 7.74706E+01 3.36896E+01 0.00000E+00
 -1      1277 7.88525E+01 3.34640E+01 0.00000E+00
 -1      1278 8.02071E+01 3.29452E+01 0.00000E+00
 -1      1279 8.14083E+01 3.21722E+01 0.00000E+00
 -1      1280 8.23907E+01 3.12156E+01 0.00000E+00
 -1      1281 8.31779E+01 3.00674E+01 0.00000E+00
 -1      1282 8.37304E+01 2.87602E+01 0.00000E+00
 -1      1283 8.40054E+01 2.73933E+01 0.00000E+00
 -1      1284 1.57500E+00 4.85250E+01 0.00000E+00
 -1      1285 1.29900E+00 4.48375E+01 0.00000E+00
 -1      1286 1.29900E+00 4.63125E+01 0.00000E+00
 -1      1287 1.29900E+00 4.18875E+01 0.00000E+00
 -1      1288 1.29900E+00 4.33625E+01 0.00000E+00
 -1      1289 2.59800E+00 4.41000E+01 0.00000E+00
 -1      1290 1.29900E+00 3.89375E+01 0.00000E+00
 -1      1291 1.29900E+00 4.04125E+01 0.00000E+00
 -1      1292 2.59800E+00 4.11500E+01 0.00000E+00
 -1      1293 1.29900E+00 3.59875E+01 0.00000E+00
 -1      1294 1.29900E+00 3.74625E+01 0.00000E+00
 -1      1295 2.59800E+00 3.82000E+01 0.00000E+00
 -1      1296 1.29900E+00 3.30875E+01 0.00000E+00
 -1      1297 1.29900E+00 3.45375E+01 0.00000E+00
 -1      1298 2.59800E+00 3.52750E+01 0.00000E+00
 -1      1299 1.29900E+00 3.01375E+01 0.00000E+00
 -1      1300 1.29900E+00 3.16125E+01 0.00000E+00
 -1      1301 2.59800E+00 3.23500E+01 0.00000E+00
 -1      1302 1.29900E+00 2.71875E+01 0.00000E+00
 -1      1303 1.29900E+00 2.86625E+01 0.00000E+00
 -1      1304 2.59800E+00 2.94000E+01 0.00000E+00
 -1      1305 1.29900E+00 2.42375E+01 0.00000E+00
 -1      1306 1.29900E+00 2.57125E+01 0.00000E+00
 -1      1307 2.59800E+00 2.64500E+01 0.00000E+00
 -1      1308 1.29900E+00 2.12875E+01 0.00000E+00
 -1      1309 1.29900E+00 2.27625E+01 0.00000E+00
 -1      1310 2.59800E+00 2.35000E+01 0.00000E+00
 -1      1311 1.29900E+00 1.83375E+01 0.00000E+00
 -1      1312 1.29900E+00 1.98125E+01 0.00000E+00
 -1      1313 2.59800E+00 2.05500E+01 0.00000E+00
 -1      1314 1.29900E+00 1.54375E+01 0.00000E+00
 -1      1315 1.29900E+00 1.68875E+01 0.00000E+00
 -1      1316 2.59800E+00 1.76250E+01 0.00000E+00
 -1      1317 1.29900E+00 1.24875E+01 0.00000E+00
 -1      1318 1.29900E+00 1.39625E+01 0.00000E+00
 -1      1319 2.59800E+00 1.47000E+01 0.00000E+00
 -1      1320 1.29900E+00 9.53750E+00 0.00000E+00
 -1      1321 1.29900E+00 1.10125E+01 0.00000E+00
 -1      1322 2.59800E+00 1.17500E+01 0.00000E+00
 -1      1323 1.29900E+00 6.58750E+00 0.00000E+00
 -1      1324 1.29900E+00 8.06250E+00 0.00000E+00
 -1      1325 2.59800E+00 8.80000E+00 0.00000E+00
 -1      1326 1.29900E+00 3.63750E+00 0.00000E+00
 -1      1327 1.29900E+00 5.11250E+00 0.00000E+00
 -1      1328 2.59800E+00 5.85000E+00 0.00000E+00
 -1      1329 1.43700E+00 1.09375E+00 0.00000E+00
 -1      1330 1.43700E+00 2.54375E+00 0.00000E+00
 -1      1331 2.73600E+00 3.28125E+00 0.00000E+00
 -1      1332 3.01200E+00 1.09375E+00 0.00000E+00
 -1      1333 3.90000E+00 4.87010E+01 0.00000E+00
 -1      1334 5.40000E+00 4.87010E+01 0.00000E+00
 -1      1335 6.90000E+00 4.87010E+01 0.00000E+00
 -1      1336 8.40000E+00 4.87010E+01 0.00000E+00
 -1      1337 6.15000E+00 4.74020E+01 0.00000E+00
 -1      1338 9.90000E+00 4.87010E+01 0.00000E+00
 -1      1339 1.14000E+01 4.87010E+01 0.00000E+00
 -1      1340 9.15000E+00 4.74020E+01 0.00000E+00
 -1      1341 1.29000E+01 4.87010E+01 0.00000E+00
 -1      1342 1.44000E+01 4.87010E+01 0.00000E+00
 -1      1343 1.21500E+01 4.74020E+01 0.00000E+00
 -1      1344 1.59000E+01 4.87010E+01 0.00000E+00
 -1      1345 1.74000E+01 4.87010E+01 0.00000E+00
 -1      1346 1.51500E+01 4.74020E+01 0.00000E+00
 -1      1347 1.89000E+01 4.87010E+01 0.00000E+00
 -1      1348 2.04000E+01 4.87010E+01 0.00000E+00
 -1      1349 1.81500E+01 4.74020E+01 0.00000E+00
 -1      1350 2.19000E+01 4.87010E+01 0.00000E+00
 -1      1351 2.34000E+01 4.87010E+01 0.00000E+00
 -1      1352 2.11500E+01 4.74020E+01 0.00000E+00
 -1      1353 2.49000E+01 4.87010E+01 0.00000E+00
 -1      1354 2.64000E+01 4.87010E+01 0.00000E+00
 -1      1355 2.41500E+01 4.74020E+01 0.00000E+00
 -1      1356 2.79000E+01 4.87010E+01 0.00000E+00
 -1      1357 2.94000E+01 4.87010E+01 0.00000E+00
 -1      1358 2.71500E+01 4.74020E+01 0.00000E+00
 -1      1359 3.09000E+01 4.87010E+01 0.00000E+00
 -1      1360 3.24000E+01 4.87010E+01 0.00000E+00
 -1      1361 3.01500E+01 4.74020E+01 0.00000E+00
 -1      1362 3.39000E+01 4.87010E+01 0.00000E+00
 -1      1363 3.54000E+01 4.87010E+01 0.00000E+00
 -1      1364 3.31500E+01 4.74020E+01 0.00000E+00
 -1      1365 3.69000E+01 4.87010E+01 0.00000E+00
 -1      1366 3.84000E+01 4.87010E+01 0.00000E+00
 -1      1367 3.61500E+01 4.74020E+01 0.00000E+00
 -1      1368 3.99000E+01 4.87010E+01 0.00000E+00
 -1      1369 4.14000E+01 4.87010E+01 0.00000E+00
 -1      1370 3.91500E+01 4.74020E+01 0.00000E+00
 -1      1371 4.29000E+01 4.87010E+01 0.00000E+00
 -1      1372 4.44000E+01 4.87010E+01 0.00000E+00
 -1      1373 4.21500E+01 4.74020E+01 0.00000E+00
 -1      1374 4.59000E+01 4.87010E+01 0.00000E+00
 -1      1375 4.74000E+01 4.87010E+01 0.00000E+00
 -1      1376 4.51500E+01 4.74020E+01 0.00000E+00
 -1      1377 4.89000E+01 4.87010E+01 0.00000E+00
 -1      1378 5.04000E+01 4.87010E+01 0.00000E+00
 -1      1379 4.81500E+01 4.74020E+01 0.00000E+00
 -1      1380 5.19000E+01 4.87010E+01 0.00000E+00
 -1      1381 5.34000E+01 4.87010E+01 0.00000E+00
 -1      1382 5.11500E+01 4.74020E+01 0.00000E+00
 -1      1383 5.49000E+01 4.87010E+01 0.00000E+00
 -1      1384 5.64000E+01 4.87010E+01 0.00000E+00
 -1      1385 5.41500E+01 4.74020E+01 0.00000E+00
 -1      1386 5.79000E+01 4.87010E+01 0.00000E+00
 -1      1387 5.94000E+01 4.87010E+01 0.00000E+00
 -1      1388 5.71500E+01 4.74020E+01 0.00000E+00
 -1      1389 6.09000E+01 4.87010E+01 0.00000E+00
 -1      1390 6.24000E+01 4.87010E+01 0.00000E+00
 -1      1391 6.01500E+01 4.74020E+01 0.00000E+00
 -1      1392 6.39000E+01 4.87010E+01 0.00000E+00
 -1      1393 6.54000E+01 4.87010E+01 0.00000E+00
 -1      1394 6.31500E+01 4.74020E+01 0.00000E+00
 -1      1395 6.69000E+01 4.87010E+01 0.00000E+00
 -1      1396 6.84000E+01 4.87010E+01 0.00000E+00
 -1      1397 6.61500E+01 4.74020E+01 0.00000E+00
 -1      1398 6.99000E+01 4.87010E+01 0.00000E+00
 -1      1399 7.14000E+01 4.87010E+01 0.00000E+00
 -1      1400 6.91500E+01 4.74020E+01 0.00000E+00
 -1      1401 7.29000E+01 4.87010E+01 0.00000E+00
 -1      1402 7.44000E+01 4.87010E+01 0.00000E+00
 -1      1403 7.21500E+01 4.74020E+01 0.00000E+00
 -1      1404 7.59000E+01 4.87010E+01 0.00000E+00
 -1      1405 7.74000E+01 4.87010E+01 0.00000E+00
 -1      1406 7.51500E+01 4.74020E+01 0.00000E+00
 -1      1407 7.89000E+01 4.87010E+01 0.00000E+00
 -1      1408 8.04000E+01 4.87010E+01 0.00000E+00
 -1      1409 7.81500E+01 4.74020E+01 0.00000E+00
 -1      1410 8.19000E+01 4.87010E+01 0.00000E+00
 -1      1411 8.34000E+01 4.87010E+01 0.00000E+00
 -1      1412 8.11500E+01 4.74020E+01 0.00000E+00
 -1      1413 8.49000E+01 4.87010E+01 0.00000E+00
 -1      1414 8.64000E+01 4.87010E+01 0.00000E+00
 -1      1415 8.41500E+01 4.74020E+01 0.00000E+00
 -1      1416 8.79000E+01 4.87010E+01 0.00000E+00
 -1      1417 8.94000E+01 4.87010E+01 0.00000E+00
 -1      1418 8.71500E+01 4.74020E+01 0.00000E+00
 -1      1419 9.09000E+01 4.87010E+01 0.00000E+00
 -1      1420 9.24000E+01 4.87010E+01 0.00000E+00
 -1      1421 9.01500E+01 4.74020E+01 0.00000E+00
 -1      1422 9.39000E+01 4.87010E+01 0.00000E+00
 -1      1423 9.54000E+01 4.87010E+01 0.00000E+00
 -1      1424 9.31500E+01 4.74020E+01 0.00000E+00
 -1      1425 9.69000E+01 4.87010E+01 0.00000E+00
 -1      1426 9.84000E+01 4.87010E+01 0.00000E+00
 -1      1427 9.61500E+01 4.74020E+01 0.00000E+00
 -1      1428 9.99000E+01 4.87010E+01 0.00000E+00
 -1      1429 1.01400E+02 4.87010E+01 0.00000E+00
 -1      1430 9.91500E+01 4.74020E+01 0.00000E+00
 -1      1431 1.02900E+02 4.87010E+01 0.00000E+00
 -1      1432 1.04400E+02 4.87010E+01 0.00000E+00
 -1      1433 1.02150E+02 4.74020E+01 0.00000E+00
 -1      1434 1.05900E+02 4.87010E+01 0.00000E+00
 -1      1435 1.07400E+02 4.87010E+01 0.00000E+00
 -1      1436 1.05150E+02 4.74020E+01 0.00000E+00
 -1      1437 1.08900E+02 4.87010E+01 0.00000E+00
 -1      1438 1.10400E+02 4.87010E+01 0.00000E+00
 -1      1439 1.08150E+02 4.74020E+01 0.00000E+00
 -1      1440 1.11900E+02 4.87010E+01 0.00000E+00
 -1      1441 1.13400E+02 4.87010E+01 0.00000E+00
 -1      1442 1.11150E+02 4.74020E+01 0.00000E+00
 -1      1443 1.14900E+02 4.87010E+01 0.00000E+00
 -1      1444 1.16400E+02 4.87010E+01 0.00000E+00
 -1      1445 1.14150E+02 4.74020E+01 0.00000E+00
 -1      1446 1.17900E+02 4.87010E+01 0.00000E+00
 -1      1447 1.19400E+02 4.87010E+01 0.00000E+00
 -1      1448 1.17150E+02 4.74020E+01 0.00000E+00
 -1      1449 1.20900E+02 4.87010E+01 0.00000E+00
 -1      1450 1.22400E+02 4.87010E+01 0.00000E+00
 -1      1451 1.20150E+02 4.74020E+01 0.00000E+00
 -1      1452 1.23900E+02 4.87010E+01 0.00000E+00
 -1      1453 1.25400E+02 4.87010E+01 0.00000E+00
 -1      1454 1.23150E+02 4.74020E+01 0.00000E+00
 -1      1455 1.26900E+02 4.87010E+01 0.00000E+00
 -1      1456 1.28400E+02 4.87010E+01 0.00000E+00
 -1      1457 1.26150E+02 4.74020E+01 0.00000E+00
 -1      1458 1.29900E+02 4.87010E+01 0.00000E+00
 -1      1459 1.31400E+02 4.87010E+01 0.00000E+00
 -1      1460 1.29150E+02 4.74020E+01 0.00000E+00
 -1      1461 1.32900E+02 4.87010E+01 0.00000E+00
 -1      1462 1.34400E+02 4.87010E+01 0.00000E+00
 -1      1463 1.32150E+02 4.74020E+01 0.00000E+00
 -1      1464 1.35900E+02 4.87010E+01 0.00000E+00
 -1      1465 1.37400E+02 4.87010E+01 0.00000E+00
 -1      1466 1.35150E+02 4.74020E+01 0.00000E+00
 -1      1467 1.38900E+02 4.87010E+01 0.00000E+00
 -1      1468 1.40400E+02 4.87010E+01 0.00000E+00
 -1      1469 1.38150E+02 4.74020E+01 0.00000E+00
 -1      1470 1.41900E+02 4.87010E+01 0.00000E+00
 -1      1471 1.43400E+02 4.87010E+01 0.00000E+00
 -1      1472 1.41150E+02 4.74020E+01 0.00000E+00
 -1      1473 1.44900E+02 4.87010E+01 0.00000E+00
 -1      1474 1.46400E+02 4.87010E+01 0.00000E+00
 -1      1475 1.44150E+02 4.74020E+01 0.00000E+00
 -1      1476 1.48575E+02 4.85500E+01 0.00000E+00
 -1      1477 1.47825E+02 4.72510E+01 0.00000E+00
 -1      1478 6.01200E+00 1.09375E+00 0.00000E+00
 -1      1479 4.51200E+00 1.09375E+00 0.00000E+00
 -1      1480 4.37400E+00 2.18750E+00 0.00000E+00
 -1      1481 9.01200E+00 1.09375E+00 0.00000E+00
 -1      1482 7.51200E+00 1.09375E+00 0.00000E+00
 -1      1483 7.37400E+00 2.18750E+00 0.00000E+00
 -1      1484 1.20120E+01 1.09375E+00 0.00000E+00
 -1      1485 1.05120E+01 1.09375E+00 0.00000E+00
 -1      1486 1.03740E+01 2.18750E+00 0.00000E+00
 -1      1487 1.50120E+01 1.09375E+00 0.00000E+00
 -1      1488 1.35120E+01 1.09375E+00 0.00000E+00
 -1      1489 1.33740E+01 2.18750E+00 0.00000E+00
 -1      1490 1.80120E+01 1.09375E+00 0.00000E+00
 -1      1491 1.65120E+01 1.09375E+00 0.00000E+00
 -1      1492 1.63740E+01 2.18750E+00 0.00000E+00
 -1      1493 2.10120E+01 1.09375E+00 0.00000E+00
 -1      1494 1.95120E+01 1.09375E+00 0.00000E+00
 -1      1495 1.93740E+01 2.18750E+00 0.00000E+00
 -1      1496 2.40120E+01 1.09375E+00 0.00000E+00
 -1      1497 2.25120E+01 1.09375E+00 0.00000E+00
 -1      1498 2.23740E+01 2.18750E+00 0.00000E+00
 -1      1499 2.70120E+01 1.09375E+00 0.00000E+00
 -1      1500 2.55120E+01 1.09375E+00 0.00000E+00
 -1      1501 2.53740E+01 2.18750E+00 0.00000E+00
 -1      1502 3.00120E+01 1.09375E+00 0.00000E+00
 -1      1503 2.85120E+01 1.09375E+00 0.00000E+00
 -1      1504 2.83740E+01 2.18750E+00 0.00000E+00
 -1      1505 3.30120E+01 1.09375E+00 0.00000E+00
 -1      1506 3.15120E+01 1.09375E+00 0.00000E+00
 -1      1507 3.13740E+01 2.18750E+00 0.00000E+00
 -1      1508 3.60120E+01 1.09375E+00 0.00000E+00
 -1      1509 3.45120E+01 1.09375E+00 0.00000E+00
 -1      1510 3.43740E+01 2.18750E+00 0.00000E+00
 -1      1511 3.90120E+01 1.09375E+00 0.00000E+00
 -1      1512 3.75120E+01 1.09375E+00 0.00000E+00
 -1      1513 3.73740E+01 2.18750E+00 0.00000E+00
 -1      1514 4.20120E+01 1.09375E+00 0.00000E+00
 -1      1515 4.05120E+01 1.09375E+00 0.00000E+00
 -1      1516 4.03740E+01 2.18750E+00 0.00000E+00
 -1      1517 4.50120E+01 1.09375E+00 0.00000E+00
 -1      1518 4.35120E+01 1.09375E+00 0.00000E+00
 -1      1519 4.33740E+01 2.18750E+00 0.00000E+00
 -1      1520 4.80120E+01 1.09375E+00 0.00000E+00
 -1      1521 4.65120E+01 1.09375E+00 0.00000E+00
 -1      1522 4.63740E+01 2.18750E+00 0.00000E+00
 -1      1523 5.10120E+01 1.09375E+00 0.00000E+00
 -1      1524 4.95120E+01 1.09375E+00 0.00000E+00
 -1      1525 4.93740E+01 2.18750E+00 0.00000E+00
 -1      1526 5.40120E+01 1.09375E+00 0.00000E+00
 -1      1527 5.25120E+01 1.09375E+00 0.00000E+00
 -1      1528 5.23740E+01 2.18750E+00 0.00000E+00
 -1      1529 5.70120E+01 1.09375E+00 0.00000E+00
 -1      1530 5.55120E+01 1.09375E+00 0.00000E+00
 -1      1531 5.53740E+01 2.18750E+00 0.00000E+00
 -1      1532 6.00120E+01 1.09375E+00 0.00000E+00
 -1      1533 5.85120E+01 1.09375E+00 0.00000E+00
 -1      1534 5.83740E+01 2.18750E+00 0.00000E+00
 -1      1535 6.30120E+01 1.09375E+00 0.00000E+00
 -1      1536 6.15120E+01 1.09375E+00 0.00000E+00
 -1      1537 6.13740E+01 2.18750E+00 0.00000E+00
 -1      1538 6.60120E+01 1.09375E+00 0.00000E+00
 -1      1539 6.45120E+01 1.09375E+00 0.00000E+00
 -1      1540 6.43740E+01 2.18750E+00 0.00000E+00
 -1      1541 6.90120E+01 1.09375E+00 0.00000E+00
 -1      1542 6.75120E+01 1.09375E+00 0.00000E+00
 -1      1543 6.73740E+01 2.18750E+00 0.00000E+00
 -1      1544 7.20120E+01 1.09375E+00 0.00000E+00
 -1      1545 7.05120E+01 1.09375E+00 0.00000E+00
 -1      1546 7.03740E+01 2.18750E+00 0.00000E+00
 -1      1547 7.50120E+01 1.09375E+00 0.00000E+00
 -1      1548 7.35120E+01 1.09375E+00 0.00000E+00
 -1      1549 7.33740E+01 2.18750E+00 0.00000E+00
 -1      1550 7.80120E+01 1.09375E+00 0.00000E+00
 -1      1551 7.65120E+01 1.09375E+00 0.00000E+00
 -1      1552 7.63740E+01 2.18750E+00 0.00000E+00
 -1      1553 8.10120E+01 1.09375E+00 0.00000E+00
 -1      1554 7.95120E+01 1.09375E+00 0.00000E+00
 -1      1555 7.93740E+01 2.18750E+00 0.00000E+00
 -1      1556 8.40120E+01 1.09375E+00 0.00000E+00
 -1      1557 8.25120E+01 1.09375E+00 0.00000E+00
 -1      1558 8.23740E+01 2.18750E+00 0.00000E+00
 -1      1559 8.70120E+01 1.09375E+00 0.00000E+00
 -1      1560 8.55120E+01 1.09375E+00 0.00000E+00
 -1      1561 8.53740E+01 2.18750E+00 0.00000E+00
 -1      1562 9.00120E+01 1.09375E+00 0.00000E+00
 -1      1563 8.85120E+01 1.09375E+00 0.00000E+00
 -1      1564 8.83740E+01 2.18750E+00 0.00000E+00
 -1      1565 9.30120E+01 1.09375E+00 0.00000E+00
 -1      1566 9.15120E+01 1.09375E+00 0.00000E+00
 -1      1567 9.13740E+01 2.18750E+00 0.00000E+00
 -1      1568 9.60120E+01 1.09375E+00 0.00000E+00
 -1      1569 9.45120E+01 1.09375E+00 0.00000E+00
 -1      1570 9.43740E+01 2.18750E+00 0.00000E+00
 -1      1571 9.90120E+01 1.09375E+00 0.00000E+00
 -1      1572 9.75120E+01 1.09375E+00 0.00000E+00
 -1      1573 9.73740E+01 2.18750E+00 0.00000E+00
 -1      1574 1.02012E+02 1.09375E+00 0.00000E+00
 -1      1575 1.00512E+02 1.09375E+00 0.00000E+00
 -1      1576 1.00374E+02 2.18750E+00 0.00000E+00
 -1      1577 1.05012E+02 1.09375E+00 0.00000E+00
 -1      1578 1.03512E+02 1.09375E+00 0.00000E+00
 -1      1579 1.03374E+02 2.18750E+00 0.00000E+00
 -1      1580 1.08012E+02 1.09375E+00 0.00000E+00
 -1      1581 1.06512E+02 1.09375E+00 0.00000E+00
 -1      1582 1.06374E+02 2.18750E+00 0.00000E+00
 -1      1583 1.11012E+02 1.09375E+00 0.00000E+00
 -1      1584 1.09512E+02 1.09375E+00 0.00000E+00
 -1      1585 1.09374E+02 2.18750E+00 0.00000E+00
 -1      1586 1.14012E+02 1.09375E+00 0.00000E+00
 -1      1587 1.12512E+02 1.09375E+00 0.00000E+00
 -1      1588 1.12374E+02 2.18750E+00 0.00000E+00
 -1      1589 1.17012E+02 1.09375E+00 0.00000E+00
 -1      1590 1.15512E+02 1.09375E+00 0.00000E+00
 -1      1591 1.15374E+02 2.18750E+00 0.00000E+00
 -1      1592 1.20012E+02 1.09375E+00 0.00000E+00
 -1      1593 1.18512E+02 1.09375E+00 0.00000E+00
 -1      1594 1.18374E+02 2.18750E+00 0.00000E+00
 -1      1595 1.23012E+02 1.09375E+00 0.00000E+00
 -1      1596 1.21512E+02 1.09375E+00 0.00000E+00
 -1      1597 1.21374E+02 2.18750E+00 0.00000E+00
 -1      1598 1.26012E+02 1.09375E+00 0.00000E+00
 -1      1599 1.24512E+02 1.09375E+00 0.00000E+00
 -1      1600 1.24374E+02 2.18750E+00 0.00000E+00
 -1      1601 1.29012E+02 1.09375E+00 0.00000E+00
 -1      1602 1.27512E+02 1.09375E+00 0.00000E+00
 -1      1603 1.27374E+02 2.18750E+00 0.00000E+00
 -1      1604 1.32012E+02 1.09375E+00 0.00000E+00
 -1      1605 1.30512E+02 1.09375E+00 0.00000E+00
 -1      1606 1.30374E+02 2.18750E+00 0.00000E+00
 -1      1607 1.35012E+02 1.09375E+00 0.00000E+00
 -1      1608 1.33512E+02 1.09375E+00 0.00000E+00
 -1      1609 1.33374E+02 2.18750E+00 0.00000E+00
 -1      1610 1.38012E+02 1.09375E+00 0.00000E+00
 -1      1611 1.36512E+02 1.09375E+00 0.00000E+00
 -1      1612 1.36374E+02 2.18750E+00 0.00000E+00
 -1      1613 1.41012E+02 1.09375E+00 0.00000E+00
 -1      1614 1.39512E+02 1.09375E+00 0.00000E+00
 -1      1615 1.39374E+02 2.18750E+00 0.00000E+00
 -1      1616 1.44012E+02 1.09375E+00 0.00000E+00
 -1      1617 1.42512E+02 1.09375E+00 0.00000E+00
 -1      1618 1.42374E+02 2.18750E+00 0.00000E+00
 -1      1619 1.47012E+02 1.09375E+00 0.00000E+00
 -1      1620 1.45512E+02 1.09375E+00 0.00000E+00
 -1      1621 1.45374E+02 2.18750E+00 0.00000E+00
 -1      1622 1.48575E+02 1.47500E+00 0.00000E+00
 -1      1623 1.48701E+02 5.16250E+00 0.00000E+00
 -1      1624 1.48701E+02 3.68750E+00 0.00000E+00
 -1      1625 1.48701E+02 8.11250E+00 0.00000E+00
 -1      1626 1.48701E+02 6.63750E+00 0.00000E+00
 -1      1627 1.47402E+02 5.90000E+00 0.00000E+00
 -1      1628 1.48701E+02 1.10625E+01 0.00000E+00
 -1      1629 1.48701E+02 9.58750E+00 0.00000E+00
 -1      1630 1.47402E+02 8.85000E+00 0.00000E+00
 -1      1631 1.48701E+02 1.40125E+01 0.00000E+00
 -1      1632 1.48701E+02 1.25375E+01 0.00000E+00
 -1      1633 1.47402E+02 1.18000E+01 0.00000E+00
 -1      1634 1.48701E+02 1.69125E+01 0.00000E+00
 -1      1635 1.48701E+02 1.54625E+01 0.00000E+00
 -1      1636 1.47402E+02 1.47250E+01 0.00000E+00
 -1      1637 1.48701E+02 1.98625E+01 0.00000E+00
 -1      1638 1.48701E+02 1.83875E+01 0.00000E+00
 -1      1639 1.47402E+02 1.76500E+01 0.00000E+00
 -1      1640 1.48701E+02 2.28125E+01 0.00000E+00
 -1      1641 1.48701E+02 2.13375E+01 0.00000E+00
 -1      1642 1.47402E+02 2.06000E+01 0.00000E+00
 -1      1643 1.48701E+02 2.57625E+01 0.00000E+00
 -1      1644 1.48701E+02 2.42875E+01 0.00000E+00
 -1      1645 1.47402E+02 2.35500E+01 0.00000E+00
 -1      1646 1.48701E+02 2.87125E+01 0.00000E+00
 -1      1647 1.48701E+02 2.72375E+01 0.00000E+00
 -1      1648 1.47402E+02 2.65000E+01 0.00000E+00
 -1      1649 1.48701E+02 3.16625E+01 0.00000E+00
 -1      1650 1.48701E+02 3.01875E+01 0.00000E+00
 -1      1651 1.47402E+02 2.94500E+01 0.00000E+00
 -1      1652 1.48701E+02 3.45625E+01 0.00000E+00
 -1      1653 1.48701E+02 3.31125E+01 0.00000E+00
 -1      1654 1.47402E+02 3.23750E+01 0.00000E+00
 -1      1655 1.48701E+02 3.75125E+01 0.00000E+00
 -1      1656 1.48701E+02 3.60375E+01 0.00000E+00
 -1      1657 1.47402E+02 3.53000E+01 0.00000E+00
 -1      1658 1.48701E+02 4.04625E+01 0.00000E+00
 -1      1659 1.48701E+02 3.89875E+01 0.00000E+00
 -1      1660 1.47402E+02 3.82500E+01 0.00000E+00
 -1      1661 1.48701E+02 4.34125E+01 0.00000E+00
 -1      1662 1.48701E+02 4.19375E+01 0.00000E+00
 -1      1663 1.47402E+02 4.12000E+01 0.00000E+00
 -1      1664 1.48263E+02 4.60692E+01 0.00000E+00
 -1      1665 1.48263E+02 4.45942E+01 0.00000E+00
 -1      1666 1.46964E+02 4.38568E+01 0.00000E+00
 -1      1667 1.46088E+02 4.62202E+01 0.00000E+00
 -1      1668 8.45285E+01 2.55516E+01 0.00000E+00
 -1      1669 8.46044E+01 2.62770E+01 0.00000E+00
 -1      1670 8.41417E+01 2.39542E+01 0.00000E+00
 -1      1671 8.43826E+01 2.46841E+01 0.00000E+00
 -1      1672 8.33949E+01 2.25032E+01 0.00000E+00
 -1      1673 8.37739E+01 2.31424E+01 0.00000E+00
 -1      1674 8.23556E+01 2.13034E+01 0.00000E+00
 -1      1675 8.28475E+01 2.18365E+01 0.00000E+00
 -1      1676 8.11009E+01 2.02124E+01 0.00000E+00
 -1      1677 8.17399E+01 2.06592E+01 0.00000E+00
 -1      1678 7.95697E+01 1.95197E+01 0.00000E+00
 -1      1679 8.02778E+01 1.98098E+01 0.00000E+00
 -1      1680 7.79829E+01 1.91439E+01 0.00000E+00
 -1      1681 7.87153E+01 1.92719E+01 0.00000E+00
 -1      1682 7.63475E+01 1.90756E+01 0.00000E+00
 -1      1683 7.71003E+01 1.90445E+01 0.00000E+00
 -1      1684 7.47514E+01 1.94374E+01 0.00000E+00
 -1      1685 7.54741E+01 1.92482E+01 0.00000E+00
 -1      1686 7.32635E+01 2.00873E+01 0.00000E+00
 -1      1687 7.39284E+01 1.97498E+01 0.00000E+00
 -1      1688 7.20021E+01 2.10422E+01 0.00000E+00
 -1      1689 7.25630E+01 2.05890E+01 0.00000E+00
 -1      1690 7.09570E+01 2.21826E+01 0.00000E+00
 -1      1691 7.14081E+01 2.16317E+01 0.00000E+00
 -1      1692 7.01288E+01 2.36065E+01 0.00000E+00
 -1      1693 7.04835E+01 2.29129E+01 0.00000E+00
 -1      1694 6.95354E+01 2.51806E+01 0.00000E+00
 -1      1695 6.97269E+01 2.44324E+01 0.00000E+00
 -1      1696 6.94235E+01 2.68284E+01 0.00000E+00
 -1      1697 6.94481E+01 2.60792E+01 0.00000E+00
 -1      1698 6.95967E+01 2.84991E+01 0.00000E+00
 -1      1699 6.94529E+01 2.77342E+01 0.00000E+00
 -1      1700 7.02103E+01 2.99862E+01 0.00000E+00
 -1      1701 6.99291E+01 2.93223E+01 0.00000E+00
 -1      1702 7.10058E+01 3.12897E+01 0.00000E+00
 -1      1703 7.06087E+01 3.07139E+01 0.00000E+00
 -1      1704 7.20375E+01 3.23972E+01 0.00000E+00
 -1      1705 7.15344E+01 3.19123E+01 0.00000E+00
 -1      1706 7.32972E+01 3.33852E+01 0.00000E+00
 -1      1707 7.26614E+01 3.29870E+01 0.00000E+00
 -1      1708 7.47582E+01 3.39306E+01 0.00000E+00
 -1      1709 7.41010E+01 3.36892E+01 0.00000E+00
 -1      1710 7.63144E+01 3.43271E+01 0.00000E+00
 -1      1711 7.55693E+01 3.42190E+01 0.00000E+00
 -1      1712 7.78471E+01 3.42402E+01 0.00000E+00
 -1      1713 7.71645E+01 3.42823E+01 0.00000E+00
 -1      1714 7.93568E+01 3.39617E+01 0.00000E+00
 -1      1715 7.86649E+01 3.41473E+01 0.00000E+00
 -1      1716 8.08292E+01 3.33600E+01 0.00000E+00
 -1      1717 8.01745E+01 3.36922E+01 0.00000E+00
 -1      1718 8.20363E+01 3.24023E+01 0.00000E+00
 -1      1719 8.14939E+01 3.28356E+01 0.00000E+00
 -1      1720 8.30473E+01 3.13265E+01 0.00000E+00
 -1      1721 8.26108E+01 3.18440E+01 0.00000E+00
 -1      1722 8.38493E+01 3.00276E+01 0.00000E+00
 -1      1723 8.35055E+01 3.06547E+01 0.00000E+00
 -1      1724 8.43793E+01 2.85916E+01 0.00000E+00
 -1      1725 8.41724E+01 2.92644E+01 0.00000E+00
 -1      1726 8.46087E+01 2.71062E+01 0.00000E+00
 -1      1727 8.45406E+01 2.77933E+01 0.00000E+00
 -1      1728 8.24314E+01 2.05146E+01 0.00000E+00
 -1      1729 8.35945E+01 2.18256E+01 0.00000E+00
 -1      1730 1.48437E+02 2.56875E+00 0.00000E+00
 -1      1731 1.47138E+02 3.30625E+00 0.00000E+00
 -1      1732 8.50235E+01 2.49836E+01 0.00000E+00
 -1      1733 8.45097E+01 2.33042E+01 0.00000E+00
 -1      1734 8.51736E+01 2.66803E+01 0.00000E+00
 -1      1735 8.09926E+01 1.94677E+01 0.00000E+00
 -1      1736 7.93151E+01 1.88173E+01 0.00000E+00
 -1      1737 7.75780E+01 1.84701E+01 0.00000E+00
 -1      1738 7.58220E+01 1.85432E+01 0.00000E+00
 -1      1739 7.41256E+01 1.90282E+01 0.00000E+00
 -1      1740 7.26021E+01 1.98424E+01 0.00000E+00
 -1      1741 7.13075E+01 2.09336E+01 0.00000E+00
 -1      1742 7.02400E+01 2.22534E+01 0.00000E+00
 -1      1743 6.93646E+01 2.38095E+01 0.00000E+00
 -1      1744 6.88754E+01 2.55340E+01 0.00000E+00
 -1      1745 6.88174E+01 2.73384E+01 0.00000E+00
 -1      1746 6.91791E+01 2.90674E+01 0.00000E+00
 -1      1747 6.99099E+01 3.06183E+01 0.00000E+00
 -1      1748 7.08368E+01 3.19687E+01 0.00000E+00
 -1      1749 7.19892E+01 3.31811E+01 0.00000E+00
 -1      1750 7.34168E+01 3.40749E+01 0.00000E+00
 -1      1751 7.50317E+01 3.46674E+01 0.00000E+00
 -1      1752 7.66930E+01 3.49111E+01 0.00000E+00
 -1      1753 7.83609E+01 3.47734E+01 0.00000E+00
 -1      1754 7.99964E+01 3.44109E+01 0.00000E+00
 -1      1755 8.14788E+01 3.36170E+01 0.00000E+00
 -1      1756 8.27179E+01 3.25343E+01 0.00000E+00
 -1      1757 8.37507E+01 3.13043E+01 0.00000E+00
 -1      1758 8.45322E+01 2.98693E+01 0.00000E+00
 -1      1759 8.50166E+01 2.83078E+01 0.00000E+00
 -1      1760 2.87400E+00 4.77875E+01 0.00000E+00
 -1      1761 3.89700E+00 4.04125E+01 0.00000E+00
 -1      1762 3.89700E+00 4.18875E+01 0.00000E+00
 -1      1763 3.89700E+00 4.33625E+01 0.00000E+00
 -1      1764 3.89700E+00 4.48375E+01 0.00000E+00
 -1      1765 5.19600E+00 4.26250E+01 0.00000E+00
 -1      1766 3.89700E+00 3.45500E+01 0.00000E+00
 -1      1767 3.89700E+00 3.60000E+01 0.00000E+00
 -1      1768 3.89700E+00 3.16000E+01 0.00000E+00
 -1      1769 3.89700E+00 3.30750E+01 0.00000E+00
 -1      1770 5.19600E+00 3.38000E+01 0.00000E+00
 -1      1771 3.89700E+00 2.86500E+01 0.00000E+00
 -1      1772 3.89700E+00 3.01250E+01 0.00000E+00
 -1      1773 5.19600E+00 3.08500E+01 0.00000E+00
 -1      1774 3.89700E+00 2.57000E+01 0.00000E+00
 -1      1775 3.89700E+00 2.71750E+01 0.00000E+00
 -1      1776 5.19600E+00 2.79000E+01 0.00000E+00
 -1      1777 3.89700E+00 2.27500E+01 0.00000E+00
 -1      1778 3.89700E+00 2.42250E+01 0.00000E+00
 -1      1779 5.19600E+00 2.49500E+01 0.00000E+00
 -1      1780 3.89700E+00 1.98000E+01 0.00000E+00
 -1      1781 3.89700E+00 2.12750E+01 0.00000E+00
 -1      1782 5.19600E+00 2.20000E+01 0.00000E+00
 -1      1783 3.89700E+00 1.69000E+01 0.00000E+00
 -1      1784 3.89700E+00 1.83500E+01 0.00000E+00
 -1      1785 5.19600E+00 1.90750E+01 0.00000E+00
 -1      1786 3.89700E+00 1.39500E+01 0.00000E+00
 -1      1787 3.89700E+00 1.54250E+01 0.00000E+00
 -1      1788 5.19600E+00 1.61500E+01 0.00000E+00
 -1      1789 3.89700E+00 1.10000E+01 0.00000E+00
 -1      1790 3.89700E+00 1.24750E+01 0.00000E+00
 -1      1791 5.19600E+00 1.32000E+01 0.00000E+00
 -1      1792 3.89700E+00 8.05000E+00 0.00000E+00
 -1      1793 3.89700E+00 9.52500E+00 0.00000E+00
 -1      1794 5.19600E+00 1.02500E+01 0.00000E+00
 -1      1795 3.89700E+00 5.10000E+00 0.00000E+00
 -1      1796 3.89700E+00 6.57500E+00 0.00000E+00
 -1      1797 5.19600E+00 7.30000E+00 0.00000E+00
 -1      1798 4.20450E+00 3.09687E+00 0.00000E+00
 -1      1799 4.06650E+00 4.19063E+00 0.00000E+00
 -1      1800 5.36550E+00 4.91563E+00 0.00000E+00
 -1      1801 5.70450E+00 3.09687E+00 0.00000E+00
 -1      1802 3.62400E+00 4.64885E+01 0.00000E+00
 -1      1803 8.70450E+00 3.09687E+00 0.00000E+00
 -1      1804 7.20450E+00 3.09687E+00 0.00000E+00
 -1      1805 7.03500E+00 4.00625E+00 0.00000E+00
 -1      1806 4.92300E+00 4.57510E+01 0.00000E+00
 -1      1807 8.40000E+00 4.61030E+01 0.00000E+00
 -1      1808 9.90000E+00 4.61030E+01 0.00000E+00
 -1      1809 1.14000E+01 4.61030E+01 0.00000E+00
 -1      1810 1.29000E+01 4.61030E+01 0.00000E+00
 -1      1811 1.06500E+01 4.48040E+01 0.00000E+00
 -1      1812 1.44000E+01 4.61030E+01 0.00000E+00
 -1      1813 1.59000E+01 4.61030E+01 0.00000E+00
 -1      1814 1.36500E+01 4.48040E+01 0.00000E+00
 -1      1815 1.74000E+01 4.61030E+01 0.00000E+00
 -1      1816 1.89000E+01 4.61030E+01 0.00000E+00
 -1      1817 1.66500E+01 4.48040E+01 0.00000E+00
 -1      1818 2.04000E+01 4.61030E+01 0.00000E+00
 -1      1819 2.19000E+01 4.61030E+01 0.00000E+00
 -1      1820 1.96500E+01 4.48040E+01 0.00000E+00
 -1      1821 2.34000E+01 4.61030E+01 0.00000E+00
 -1      1822 2.49000E+01 4.61030E+01 0.00000E+00
 -1      1823 2.26500E+01 4.48040E+01 0.00000E+00
 -1      1824 2.64000E+01 4.61030E+01 0.00000E+00
 -1      1825 2.79000E+01 4.61030E+01 0.00000E+00
 -1      1826 2.56500E+01 4.48040E+01 0.00000E+00
 -1      1827 2.94000E+01 4.61030E+01 0.00000E+00
 -1      1828 3.09000E+01 4.61030E+01 0.00000E+00
 -1      1829 2.86500E+01 4.48040E+01 0.00000E+00
 -1      1830 3.24000E+01 4.61030E+01 0.00000E+00
 -1      1831 3.39000E+01 4.61030E+01 0.00000E+00
 -1      1832 3.16500E+01 4.48040E+01 0.00000E+00
 -1      1833 3.54000E+01 4.61030E+01 0.00000E+00
 -1      1834 3.69000E+01 4.61030E+01 0.00000E+00
 -1      1835 3.46500E+01 4.48040E+01 0.00000E+00
 -1      1836 3.84000E+01 4.61030E+01 0.00000E+00
 -1      1837 3.99000E+01 4.61030E+01 0.00000E+00
 -1      1838 3.76500E+01 4.48040E+01 0.00000E+00
 -1      1839 4.14000E+01 4.61030E+01 0.00000E+00
 -1      1840 4.29000E+01 4.61030E+01 0.00000E+00
 -1      1841 4.06500E+01 4.48040E+01 0.00000E+00
 -1      1842 4.44000E+01 4.61030E+01 0.00000E+00
 -1      1843 4.59000E+01 4.61030E+01 0.00000E+00
 -1      1844 4.36500E+01 4.48040E+01 0.00000E+00
 -1      1845 4.74000E+01 4.61030E+01 0.00000E+00
 -1      1846 4.89000E+01 4.61030E+01 0.00000E+00
 -1      1847 4.66500E+01 4.48040E+01 0.00000E+00
 -1      1848 5.04000E+01 4.61030E+01 0.00000E+00
 -1      1849 5.19000E+01 4.61030E+01 0.00000E+00
 -1      1850 4.96500E+01 4.48040E+01 0.00000E+00
 -1      1851 5.34000E+01 4.61030E+01 0.00000E+00
 -1      1852 5.49000E+01 4.61030E+01 0.00000E+00
 -1      1853 5.26500E+01 4.48040E+01 0.00000E+00
 -1      1854 5.64000E+01 4.61030E+01 0.00000E+00
 -1      1855 5.79000E+01 4.61030E+01 0.00000E+00
 -1      1856 5.56500E+01 4.48040E+01 0.00000E+00
 -1      1857 5.94000E+01 4.61030E+01 0.00000E+00
 -1      1858 6.09000E+01 4.61030E+01 0.00000E+00
 -1      1859 5.86500E+01 4.48040E+01 0.00000E+00
 -1      1860 6.24000E+01 4.61030E+01 0.00000E+00
 -1      1861 6.39000E+01 4.61030E+01 0.00000E+00
 -1      1862 6.16500E+01 4.48040E+01 0.00000E+00
 -1      1863 6.54000E+01 4.61030E+01 0.00000E+00
 -1      1864 6.69000E+01 4.61030E+01 0.00000E+00
 -1      1865 6.46500E+01 4.48040E+01 0.00000E+00
 -1      1866 6.84000E+01 4.61030E+01 0.00000E+00
 -1      1867 6.99000E+01 4.61030E+01 0.00000E+00
 -1      1868 6.76500E+01 4.48040E+01 0.00000E+00
 -1      1869 7.14000E+01 4.61030E+01 0.00000E+00
 -1      1870 7.29000E+01 4.61030E+01 0.00000E+00
 -1      1871 7.06500E+01 4.48040E+01 0.00000E+00
 -1      1872 7.44000E+01 4.61030E+01 0.00000E+00
 -1      1873 7.59000E+01 4.61030E+01 0.00000E+00
 -1      1874 7.36500E+01 4.48040E+01 0.00000E+00
 -1      1875 7.74000E+01 4.61030E+01 0.00000E+00
 -1      1876 7.89000E+01 4.61030E+01 0.00000E+00
 -1      1877 7.66500E+01 4.48040E+01 0.00000E+00
 -1      1878 8.04000E+01 4.61030E+01 0.00000E+00
 -1      1879 8.19000E+01 4.61030E+01 0.00000E+00
 -1      1880 7.96500E+01 4.48040E+01 0.00000E+00
 -1      1881 8.34000E+01 4.61030E+01 0.00000E+00
 -1      1882 8.49000E+01 4.61030E+01 0.00000E+00
 -1      1883 8.26500E+01 4.48040E+01 0.00000E+00
 -1      1884 8.64000E+01 4.61030E+01 0.00000E+00
 -1      1885 8.79000E+01 4.61030E+01 0.00000E+00
 -1      1886 8.56500E+01 4.48040E+01 0.00000E+00
 -1      1887 8.94000E+01 4.61030E+01 0.00000E+00
 -1      1888 9.09000E+01 4.61030E+01 0.00000E+00
 -1      1889 8.86500E+01 4.48040E+01 0.00000E+00
 -1      1890 9.24000E+01 4.61030E+01 0.00000E+00
 -1      1891 9.39000E+01 4.61030E+01 0.00000E+00
 -1      1892 9.16500E+01 4.48040E+01 0.00000E+00
 -1      1893 9.54000E+01 4.61030E+01 0.00000E+00
 -1      1894 9.69000E+01 4.61030E+01 0.00000E+00
 -1      1895 9.46500E+01 4.48040E+01 0.00000E+00
 -1      1896 9.84000E+01 4.61030E+01 0.00000E+00
 -1      1897 9.99000E+01 4.61030E+01 0.00000E+00
 -1      1898 9.76500E+01 4.48040E+01 0.00000E+00
 -1      1899 1.01400E+02 4.61030E+01 0.00000E+00
 -1      1900 1.02900E+02 4.61030E+01 0.00000E+00
 -1      1901 1.00650E+02 4.48040E+01 0.00000E+00
 -1      1902 1.04400E+02 4.61030E+01 0.00000E+00
 -1      1903 1.05900E+02 4.61030E+01 0.00000E+00
 -1      1904 1.03650E+02 4.48040E+01 0.00000E+00
 -1      1905 1.07400E+02 4.61030E+01 0.00000E+00
 -1      1906 1.08900E+02 4.61030E+01 0.00000E+00
 -1      1907 1.06650E+02 4.48040E+01 0.00000E+00
 -1      1908 1.10400E+02 4.61030E+01 0.00000E+00
 -1      1909 1.11900E+02 4.61030E+01 0.00000E+00
 -1      1910 1.09650E+02 4.48040E+01 0.00000E+00
 -1      1911 1.13400E+02 4.61030E+01 0.00000E+00
 -1      1912 1.14900E+02 4.61030E+01 0.00000E+00
 -1      1913 1.12650E+02 4.48040E+01 0.00000E+00
 -1      1914 1.16400E+02 4.61030E+01 0.00000E+00
 -1      1915 1.17900E+02 4.61030E+01 0.00000E+00
 -1      1916 1.15650E+02 4.48040E+01 0.00000E+00
 -1      1917 1.19400E+02 4.61030E+01 0.00000E+00
 -1      1918 1.20900E+02 4.61030E+01 0.00000E+00
 -1      1919 1.18650E+02 4.48040E+01 0.00000E+00
 -1      1920 1.22400E+02 4.61030E+01 0.00000E+00
 -1      1921 1.23900E+02 4.61030E+01 0.00000E+00
 -1      1922 1.21650E+02 4.48040E+01 0.00000E+00
 -1      1923 1.25400E+02 4.61030E+01 0.00000E+00
 -1      1924 1.26900E+02 4.61030E+01 0.00000E+00
 -1      1925 1.24650E+02 4.48040E+01 0.00000E+00
 -1      1926 1.28400E+02 4.61030E+01 0.00000E+00
 -1      1927 1.29900E+02 4.61030E+01 0.00000E+00
 -1      1928 1.27650E+02 4.48040E+01 0.00000E+00
 -1      1929 1.31400E+02 4.61030E+01 0.00000E+00
 -1      1930 1.32900E+02 4.61030E+01 0.00000E+00
 -1      1931 1.30650E+02 4.48040E+01 0.00000E+00
 -1      1932 1.34400E+02 4.61030E+01 0.00000E+00
 -1      1933 1.35900E+02 4.61030E+01 0.00000E+00
 -1      1934 1.33650E+02 4.48040E+01 0.00000E+00
 -1      1935 1.37400E+02 4.61030E+01 0.00000E+00
 -1      1936 1.38900E+02 4.61030E+01 0.00000E+00
 -1      1937 1.36650E+02 4.48040E+01 0.00000E+00
 -1      1938 1.40400E+02 4.61030E+01 0.00000E+00
 -1      1939 1.41900E+02 4.61030E+01 0.00000E+00
 -1      1940 1.39650E+02 4.48040E+01 0.00000E+00
 -1      1941 1.43244E+02 4.61616E+01 0.00000E+00
 -1      1942 1.44744E+02 4.61616E+01 0.00000E+00
 -1      1943 1.45182E+02 4.49799E+01 0.00000E+00
 -1      1944 1.42494E+02 4.48626E+01 0.00000E+00
 -1      1945 1.17045E+01 3.09687E+00 0.00000E+00
 -1      1946 1.02045E+01 3.09687E+00 0.00000E+00
 -1      1947 1.00350E+01 4.00625E+00 0.00000E+00
 -1      1948 1.47045E+01 3.09687E+00 0.00000E+00
 -1      1949 1.32045E+01 3.09687E+00 0.00000E+00
 -1      1950 1.30350E+01 4.00625E+00 0.00000E+00
 -1      1951 1.77045E+01 3.09687E+00 0.00000E+00
 -1      1952 1.62045E+01 3.09687E+00 0.00000E+00
 -1      1953 1.60350E+01 4.00625E+00 0.00000E+00
 -1      1954 2.07045E+01 3.09687E+00 0.00000E+00
 -1      1955 1.92045E+01 3.09687E+00 0.00000E+00
 -1      1956 1.90350E+01 4.00625E+00 0.00000E+00
 -1      1957 2.37045E+01 3.09687E+00 0.00000E+00
 -1      1958 2.22045E+01 3.09687E+00 0.00000E+00
 -1      1959 2.20350E+01 4.00625E+00 0.00000E+00
 -1      1960 2.67045E+01 3.09687E+00 0.00000E+00
 -1      1961 2.52045E+01 3.09687E+00 0.00000E+00
 -1      1962 2.50350E+01 4.00625E+00 0.00000E+00
 -1      1963 2.97045E+01 3.09687E+00 0.00000E+00
 -1      1964 2.82045E+01 3.09687E+00 0.00000E+00
 -1      1965 2.80350E+01 4.00625E+00 0.00000E+00
 -1      1966 3.27045E+01 3.09687E+00 0.00000E+00
 -1      1967 3.12045E+01 3.09687E+00 0.00000E+00
 -1      1968 3.10350E+01 4.00625E+00 0.00000E+00
 -1      1969 3.57045E+01 3.09687E+00 0.00000E+00
 -1      1970 3.42045E+01 3.09687E+00 0.00000E+00
 -1      1971 3.40350E+01 4.00625E+00 0.00000E+00
 -1      1972 3.87045E+01 3.09687E+00 0.00000E+00
 -1      1973 3.72045E+01 3.09687E+00 0.00000E+00
 -1      1974 3.70350E+01 4.00625E+00 0.00000E+00
 -1      1975 4.17045E+01 3.09687E+00 0.00000E+00
 -1      1976 4.02045E+01 3.09687E+00 0.00000E+00
 -1      1977 4.00350E+01 4.00625E+00 0.00000E+00
 -1      1978 4.47045E+01 3.09687E+00 0.00000E+00
 -1      1979 4.32045E+01 3.09687E+00 0.00000E+00
 -1      1980 4.30350E+01 4.00625E+00 0.00000E+00
 -1      1981 4.77045E+01 3.09687E+00 0.00000E+00
 -1      1982 4.62045E+01 3.09687E+00 0.00000E+00
 -1      1983 4.60350E+01 4.00625E+00 0.00000E+00
 -1      1984 5.07045E+01 3.09687E+00 0.00000E+00
 -1      1985 4.92045E+01 3.09687E+00 0.00000E+00
 -1      1986 4.90350E+01 4.00625E+00 0.00000E+00
 -1      1987 5.37045E+01 3.09687E+00 0.00000E+00
 -1      1988 5.22045E+01 3.09687E+00 0.00000E+00
 -1      1989 5.20350E+01 4.00625E+00 0.00000E+00
 -1      1990 5.67045E+01 3.09687E+00 0.00000E+00
 -1      1991 5.52045E+01 3.09687E+00 0.00000E+00
 -1      1992 5.50350E+01 4.00625E+00 0.00000E+00
 -1      1993 5.97045E+01 3.09687E+00 0.00000E+00
 -1      1994 5.82045E+01 3.09687E+00 0.00000E+00
 -1      1995 5.80350E+01 4.00625E+00 0.00000E+00
 -1      1996 6.27045E+01 3.09687E+00 0.00000E+00
 -1      1997 6.12045E+01 3.09687E+00 0.00000E+00
 -1      1998 6.10350E+01 4.00625E+00 0.00000E+00
 -1      1999 6.57045E+01 3.09687E+00 0.00000E+00
 -1      2000 6.42045E+01 3.09687E+00 0.00000E+00
 -1      2001 6.40350E+01 4.00625E+00 0.00000E+00
 -1      2002 6.87045E+01 3.09687E+00 0.00000E+00
 -1      2003 6.72045E+01 3.09687E+00 0.00000E+00
 -1      2004 6.70350E+01 4.00625E+00 0.00000E+00
 -1      2005 7.17045E+01 3.09687E+00 0.00000E+00
 -1      2006 7.02045E+01 3.09687E+00 0.00000E+00
 -1      2007 7.00350E+01 4.00625E+00 0.00000E+00
 -1      2008 7.47045E+01 3.09687E+00 0.00000E+00
 -1      2009 7.32045E+01 3.09687E+00 0.00000E+00
 -1      2010 7.30350E+01 4.00625E+00 0.00000E+00
 -1      2011 7.77045E+01 3.09687E+00 0.00000E+00
 -1      2012 7.62045E+01 3.09687E+00 0.00000E+00
 -1      2013 7.60350E+01 4.00625E+00 0.00000E+00
 -1      2014 8.07045E+01 3.09687E+00 0.00000E+00
 -1      2015 7.92045E+01 3.09687E+00 0.00000E+00
 -1      2016 7.90350E+01 4.00625E+00 0.00000E+00
 -1      2017 8.37045E+01 3.09687E+00 0.00000E+00
 -1      2018 8.22045E+01 3.09687E+00 0.00000E+00
 -1      2019 8.20350E+01 4.00625E+00 0.00000E+00
 -1      2020 8.67045E+01 3.09687E+00 0.00000E+00
 -1      2021 8.52045E+01 3.09687E+00 0.00000E+00
 -1      2022 8.50350E+01 4.00625E+00 0.00000E+00
 -1      2023 8.97045E+01 3.09687E+00 0.00000E+00
 -1      2024 8.82045E+01 3.09687E+00 0.00000E+00
 -1      2025 8.80350E+01 4.00625E+00 0.00000E+00
 -1      2026 9.27045E+01 3.09687E+00 0.00000E+00
 -1      2027 9.12045E+01 3.09687E+00 0.00000E+00
 -1      2028 9.10350E+01 4.00625E+00 0.00000E+00
 -1      2029 9.57045E+01 3.09687E+00 0.00000E+00
 -1      2030 9.42045E+01 3.09687E+00 0.00000E+00
 -1      2031 9.40350E+01 4.00625E+00 0.00000E+00
 -1      2032 9.87045E+01 3.09687E+00 0.00000E+00
 -1      2033 9.72045E+01 3.09687E+00 0.00000E+00
 -1      2034 9.70350E+01 4.00625E+00 0.00000E+00
 -1      2035 1.01704E+02 3.09687E+00 0.00000E+00
 -1      2036 1.00204E+02 3.09687E+00 0.00000E+00
 -1      2037 1.00035E+02 4.00625E+00 0.00000E+00
 -1      2038 1.04704E+02 3.09687E+00 0.00000E+00
 -1      2039 1.03204E+02 3.09687E+00 0.00000E+00
 -1      2040 1.03035E+02 4.00625E+00 0.00000E+00
 -1      2041 1.07704E+02 3.09687E+00 0.00000E+00
 -1      2042 1.06204E+02 3.09687E+00 0.00000E+00
 -1      2043 1.06035E+02 4.00625E+00 0.00000E+00
 -1      2044 1.10704E+02 3.09687E+00 0.00000E+00
 -1      2045 1.09204E+02 3.09687E+00 0.00000E+00
 -1      2046 1.09035E+02 4.00625E+00 0.00000E+00
 -1      2047 1.13704E+02 3.09687E+00 0.00000E+00
 -1      2048 1.12204E+02 3.09687E+00 0.00000E+00
 -1      2049 1.12035E+02 4.00625E+00 0.00000E+00
 -1      2050 1.16704E+02 3.09687E+00 0.00000E+00
 -1      2051 1.15204E+02 3.09687E+00 0.00000E+00
 -1      2052 1.15035E+02 4.00625E+00 0.00000E+00
 -1      2053 1.19704E+02 3.09687E+00 0.00000E+00
 -1      2054 1.18204E+02 3.09687E+00 0.00000E+00
 -1      2055 1.18035E+02 4.00625E+00 0.00000E+00
 -1      2056 1.22704E+02 3.09687E+00 0.00000E+00
 -1      2057 1.21204E+02 3.09687E+00 0.00000E+00
 -1      2058 1.21035E+02 4.00625E+00 0.00000E+00
 -1      2059 1.25704E+02 3.09687E+00 0.00000E+00
 -1      2060 1.24204E+02 3.09687E+00 0.00000E+00
 -1      2061 1.24035E+02 4.00625E+00 0.00000E+00
 -1      2062 1.28704E+02 3.09687E+00 0.00000E+00
 -1      2063 1.27204E+02 3.09687E+00 0.00000E+00
 -1      2064 1.27035E+02 4.00625E+00 0.00000E+00
 -1      2065 1.31704E+02 3.09687E+00 0.00000E+00
 -1      2066 1.30204E+02 3.09687E+00 0.00000E+00
 -1      2067 1.30035E+02 4.00625E+00 0.00000E+00
 -1      2068 1.34704E+02 3.09687E+00 0.00000E+00
 -1      2069 1.33204E+02 3.09687E+00 0.00000E+00
 -1      2070 1.33035E+02 4.00625E+00 0.00000E+00
 -1      2071 1.37704E+02 3.09687E+00 0.00000E+00
 -1      2072 1.36204E+02 3.09687E+00 0.00000E+00
 -1      2073 1.36035E+02 4.00625E+00 0.00000E+00
 -1      2074 1.40704E+02 3.09687E+00 0.00000E+00
 -1      2075 1.39204E+02 3.09687E+00 0.00000E+00
 -1      2076 1.39035E+02 4.00625E+00 0.00000E+00
 -1      2077 1.43704E+02 3.09687E+00 0.00000E+00
 -1      2078 1.42204E+02 3.09687E+00 0.00000E+00
 -1      2079 1.42035E+02 4.00625E+00 0.00000E+00
 -1      2080 1.46171E+02 3.20156E+00 0.00000E+00
 -1      2081 1.44671E+02 3.20156E+00 0.00000E+00
 -1      2082 1.44502E+02 4.11094E+00 0.00000E+00
 -1      2083 1.46435E+02 4.32031E+00 0.00000E+00
 -1      2084 1.46103E+02 1.25375E+01 0.00000E+00
 -1      2085 1.46103E+02 1.10625E+01 0.00000E+00
 -1      2086 1.46103E+02 9.58750E+00 0.00000E+00
 -1      2087 1.46103E+02 8.11250E+00 0.00000E+00
 -1      2088 1.44804E+02 1.03250E+01 0.00000E+00
 -1      2089 1.46269E+02 6.95391E+00 0.00000E+00
 -1      2090 1.46269E+02 5.47891E+00 0.00000E+00
 -1      2091 1.45302E+02 5.37422E+00 0.00000E+00
 -1      2092 1.44970E+02 7.69141E+00 0.00000E+00
 -1      2093 1.46103E+02 1.54375E+01 0.00000E+00
 -1      2094 1.46103E+02 1.39875E+01 0.00000E+00
 -1      2095 1.44804E+02 1.32500E+01 0.00000E+00
 -1      2096 1.46103E+02 1.83875E+01 0.00000E+00
 -1      2097 1.46103E+02 1.69125E+01 0.00000E+00
 -1      2098 1.44804E+02 1.61750E+01 0.00000E+00
 -1      2099 1.46103E+02 2.13375E+01 0.00000E+00
 -1      2100 1.46103E+02 1.98625E+01 0.00000E+00
 -1      2101 1.44804E+02 1.91250E+01 0.00000E+00
 -1      2102 1.46103E+02 2.42875E+01 0.00000E+00
 -1      2103 1.46103E+02 2.28125E+01 0.00000E+00
 -1      2104 1.44804E+02 2.20750E+01 0.00000E+00
 -1      2105 1.46103E+02 2.72375E+01 0.00000E+00
 -1      2106 1.46103E+02 2.57625E+01 0.00000E+00
 -1      2107 1.44804E+02 2.50250E+01 0.00000E+00
 -1      2108 1.46103E+02 3.01875E+01 0.00000E+00
 -1      2109 1.46103E+02 2.87125E+01 0.00000E+00
 -1      2110 1.44804E+02 2.79750E+01 0.00000E+00
 -1      2111 1.46103E+02 3.30875E+01 0.00000E+00
 -1      2112 1.46103E+02 3.16375E+01 0.00000E+00
 -1      2113 1.44804E+02 3.09000E+01 0.00000E+00
 -1      2114 1.46103E+02 3.60375E+01 0.00000E+00
 -1      2115 1.46103E+02 3.45625E+01 0.00000E+00
 -1      2116 1.44804E+02 3.38250E+01 0.00000E+00
 -1      2117 1.46103E+02 3.89875E+01 0.00000E+00
 -1      2118 1.46103E+02 3.75125E+01 0.00000E+00
 -1      2119 1.44804E+02 3.67750E+01 0.00000E+00
 -1      2120 1.46103E+02 4.19375E+01 0.00000E+00
 -1      2121 1.46103E+02 4.04625E+01 0.00000E+00
 -1      2122 1.44804E+02 3.97250E+01 0.00000E+00
 -1      2123 8.50688E+01 2.25616E+01 0.00000E+00
 -1      2124 8.54366E+01 2.33735E+01 0.00000E+00
 -1      2125 8.58615E+01 2.62622E+01 0.00000E+00
 -1      2126 8.58658E+01 2.70914E+01 0.00000E+00
 -1      2127 8.57136E+01 2.44215E+01 0.00000E+00
 -1      2128 8.58595E+01 2.52890E+01 0.00000E+00
 -1      2129 8.38864E+01 2.10278E+01 0.00000E+00
 -1      2130 8.44338E+01 2.16945E+01 0.00000E+00
 -1      2131 8.26551E+01 1.97392E+01 0.00000E+00
 -1      2132 8.32707E+01 2.03835E+01 0.00000E+00
 -1      2133 8.41101E+01 2.02524E+01 0.00000E+00
 -1      2134 3.89700E+00 3.74688E+01 0.00000E+00
 -1      2135 3.89700E+00 3.89437E+01 0.00000E+00
 -1      2136 5.19600E+00 3.96813E+01 0.00000E+00
 -1      2137 5.19600E+00 3.67438E+01 0.00000E+00
 -1      2138 7.90917E+01 1.79905E+01 0.00000E+00
 -1      2139 7.99461E+01 1.82383E+01 0.00000E+00
 -1      2140 7.72233E+01 1.76515E+01 0.00000E+00
 -1      2141 7.81060E+01 1.77509E+01 0.00000E+00
 -1      2142 7.52597E+01 1.79937E+01 0.00000E+00
 -1      2143 7.61331E+01 1.78212E+01 0.00000E+00
 -1      2144 7.34544E+01 1.85002E+01 0.00000E+00
 -1      2145 7.42774E+01 1.81878E+01 0.00000E+00
 -1      2146 7.18012E+01 1.94642E+01 0.00000E+00
 -1      2147 7.25018E+01 1.89624E+01 0.00000E+00
 -1      2148 7.05245E+01 2.07386E+01 0.00000E+00
 -1      2149 7.11185E+01 2.01491E+01 0.00000E+00
 -1      2150 6.94594E+01 2.22659E+01 0.00000E+00
 -1      2151 6.99330E+01 2.15356E+01 0.00000E+00
 -1      2152 6.84302E+01 2.38656E+01 0.00000E+00
 -1      2153 6.88320E+01 2.30397E+01 0.00000E+00
 -1      2154 6.80616E+01 2.59084E+01 0.00000E+00
 -1      2155 6.81489E+01 2.50098E+01 0.00000E+00
 -1      2156 6.80587E+01 2.78164E+01 0.00000E+00
 -1      2157 6.80293E+01 2.69105E+01 0.00000E+00
 -1      2158 6.87443E+01 2.97217E+01 0.00000E+00
 -1      2159 6.84119E+01 2.88985E+01 0.00000E+00
 -1      2160 6.95406E+01 3.12934E+01 0.00000E+00
 -1      2161 6.91422E+01 3.05657E+01 0.00000E+00
 -1      2162 7.05750E+01 3.27265E+01 0.00000E+00
 -1      2163 7.00465E+01 3.21039E+01 0.00000E+00
 -1      2164 7.18271E+01 3.39773E+01 0.00000E+00
 -1      2165 7.12033E+01 3.33876E+01 0.00000E+00
 -1      2166 7.35450E+01 3.49506E+01 0.00000E+00
 -1      2167 7.27412E+01 3.46466E+01 0.00000E+00
 -1      2168 7.51672E+01 3.55276E+01 0.00000E+00
 -1      2169 7.43561E+01 3.52391E+01 0.00000E+00
 -1      2170 7.36804E+01 3.58108E+01 0.00000E+00
 -1      2171 7.71544E+01 3.55777E+01 0.00000E+00
 -1      2172 7.63042E+01 3.56225E+01 0.00000E+00
 -1      2173 7.88430E+01 3.53709E+01 0.00000E+00
 -1      2174 7.80252E+01 3.54638E+01 0.00000E+00
 -1      2175 8.06344E+01 3.49712E+01 0.00000E+00
 -1      2176 7.98167E+01 3.52408E+01 0.00000E+00
 -1      2177 8.22904E+01 3.39622E+01 0.00000E+00
 -1      2178 8.16257E+01 3.44866E+01 0.00000E+00
 -1      2179 8.34394E+01 3.28457E+01 0.00000E+00
 -1      2180 8.28649E+01 3.34040E+01 0.00000E+00
 -1      2181 8.30118E+01 3.42737E+01 0.00000E+00
 -1      2182 8.46191E+01 3.14045E+01 0.00000E+00
 -1      2183 8.41608E+01 3.20762E+01 0.00000E+00
 -1      2184 8.53291E+01 2.97568E+01 0.00000E+00
 -1      2185 8.50059E+01 3.05200E+01 0.00000E+00
 -1      2186 8.57325E+01 2.80370E+01 0.00000E+00
 -1      2187 8.55712E+01 2.88354E+01 0.00000E+00
 -1      2188 8.08842E+01 1.86466E+01 0.00000E+00
 -1      2189 8.17073E+01 1.90492E+01 0.00000E+00
 -1      2190 6.42300E+00 4.57510E+01 0.00000E+00
 -1      2191 8.25467E+01 1.89181E+01 0.00000E+00
 -1      2192 8.06609E+01 1.78198E+01 0.00000E+00
 -1      2193 7.17300E+00 4.44520E+01 0.00000E+00
 -1      2194 8.62726E+01 2.36789E+01 0.00000E+00
 -1      2195 8.65516E+01 2.57001E+01 0.00000E+00
 -1      2196 1.45665E+02 4.31193E+01 0.00000E+00
 -1      2197 8.53607E+01 2.17638E+01 0.00000E+00
 -1      2198 8.64204E+01 2.76189E+01 0.00000E+00
 -1      2199 8.60450E+01 2.94860E+01 0.00000E+00
 -1      2200 8.43077E+01 3.29459E+01 0.00000E+00
 -1      2201 8.14460E+01 3.53165E+01 0.00000E+00
 -1      2202 7.94810E+01 3.59312E+01 0.00000E+00
 -1      2203 7.56286E+01 3.61942E+01 0.00000E+00
 -1      2204 7.19553E+01 3.48531E+01 0.00000E+00
 -1      2205 7.04130E+01 3.35228E+01 0.00000E+00
 -1      2206 6.92788E+01 3.20512E+01 0.00000E+00
 -1      2207 6.83751E+01 3.03968E+01 0.00000E+00
 -1      2208 6.76239E+01 2.84706E+01 0.00000E+00
 -1      2209 6.73029E+01 2.63864E+01 0.00000E+00
 -1      2210 6.76164E+01 2.42400E+01 0.00000E+00
 -1      2211 6.85250E+01 2.23220E+01 0.00000E+00
 -1      2212 6.97439E+01 2.07511E+01 0.00000E+00
 -1      2213 7.10182E+01 1.92692E+01 0.00000E+00
 -1      2214 7.26536E+01 1.81220E+01 0.00000E+00
 -1      2215 7.45884E+01 1.74657E+01 0.00000E+00
 -1      2216 7.87370E+01 1.71719E+01 0.00000E+00
 -1      2217 7.66610E+01 1.71020E+01 0.00000E+00
 -1      2218 7.76364E+01 3.61752E+01 0.00000E+00
 -1      2219 8.54160E+01 3.12919E+01 0.00000E+00
 -1      2220 1.07850E+01 5.30525E+00 0.00000E+00
 -1      2221 9.28500E+00 5.30525E+00 0.00000E+00
 -1      2222 6.49500E+00 3.01125E+01 0.00000E+00
 -1      2223 6.49500E+00 3.15875E+01 0.00000E+00
 -1      2224 6.49500E+00 3.30625E+01 0.00000E+00
 -1      2225 6.49500E+00 3.45375E+01 0.00000E+00
 -1      2226 7.79400E+00 3.23250E+01 0.00000E+00
 -1      2227 6.49500E+00 2.42125E+01 0.00000E+00
 -1      2228 6.49500E+00 2.56875E+01 0.00000E+00
 -1      2229 6.49500E+00 2.12625E+01 0.00000E+00
 -1      2230 6.49500E+00 2.27375E+01 0.00000E+00
 -1      2231 7.79400E+00 2.34750E+01 0.00000E+00
 -1      2232 6.49500E+00 1.83625E+01 0.00000E+00
 -1      2233 6.49500E+00 1.98125E+01 0.00000E+00
 -1      2234 7.79400E+00 2.05500E+01 0.00000E+00
 -1      2235 6.49500E+00 1.54125E+01 0.00000E+00
 -1      2236 6.49500E+00 1.68875E+01 0.00000E+00
 -1      2237 7.79400E+00 1.76250E+01 0.00000E+00
 -1      2238 6.49500E+00 1.24625E+01 0.00000E+00
 -1      2239 6.49500E+00 1.39375E+01 0.00000E+00
 -1      2240 7.79400E+00 1.46750E+01 0.00000E+00
 -1      2241 6.49500E+00 9.51250E+00 0.00000E+00
 -1      2242 6.49500E+00 1.09875E+01 0.00000E+00
 -1      2243 7.79400E+00 1.17250E+01 0.00000E+00
 -1      2244 1.37850E+01 5.30525E+00 0.00000E+00
 -1      2245 1.22850E+01 5.30525E+00 0.00000E+00
 -1      2246 1.15350E+01 6.60425E+00 0.00000E+00
 -1      2247 9.90000E+00 4.35050E+01 0.00000E+00
 -1      2248 1.14000E+01 4.35050E+01 0.00000E+00
 -1      2249 8.26269E+01 1.78121E+01 0.00000E+00
 -1      2250 8.35746E+01 1.85021E+01 0.00000E+00
 -1      2251 1.29000E+01 4.35050E+01 0.00000E+00
 -1      2252 1.44000E+01 4.35050E+01 0.00000E+00
 -1      2253 1.21500E+01 4.22060E+01 0.00000E+00
 -1      2254 1.59000E+01 4.35050E+01 0.00000E+00
 -1      2255 1.74000E+01 4.35050E+01 0.00000E+00
 -1      2256 1.51500E+01 4.22060E+01 0.00000E+00
 -1      2257 1.89000E+01 4.35050E+01 0.00000E+00
 -1      2258 2.04000E+01 4.35050E+01 0.00000E+00
 -1      2259 1.81500E+01 4.22060E+01 0.00000E+00
 -1      2260 2.19000E+01 4.35050E+01 0.00000E+00
 -1      2261 2.34000E+01 4.35050E+01 0.00000E+00
 -1      2262 2.11500E+01 4.22060E+01 0.00000E+00
 -1      2263 2.49000E+01 4.35050E+01 0.00000E+00
 -1      2264 2.64000E+01 4.35050E+01 0.00000E+00
 -1      2265 2.41500E+01 4.22060E+01 0.00000E+00
 -1      2266 2.79000E+01 4.35050E+01 0.00000E+00
 -1      2267 2.94000E+01 4.35050E+01 0.00000E+00
 -1      2268 2.71500E+01 4.22060E+01 0.00000E+00
 -1      2269 3.09000E+01 4.35050E+01 0.00000E+00
 -1      2270 3.24000E+01 4.35050E+01 0.00000E+00
 -1      2271 3.01500E+01 4.22060E+01 0.00000E+00
 -1      2272 3.39000E+01 4.35050E+01 0.00000E+00
 -1      2273 3.54000E+01 4.35050E+01 0.00000E+00
 -1      2274 3.31500E+01 4.22060E+01 0.00000E+00
 -1      2275 3.69000E+01 4.35050E+01 0.00000E+00
 -1      2276 3.84000E+01 4.35050E+01 0.00000E+00
 -1      2277 3.61500E+01 4.22060E+01 0.00000E+00
 -1      2278 3.99000E+01 4.35050E+01 0.00000E+00
 -1      2279 4.14000E+01 4.35050E+01 0.00000E+00
 -1      2280 3.91500E+01 4.22060E+01 0.00000E+00
 -1      2281 4.29000E+01 4.35050E+01 0.00000E+00
 -1      2282 4.44000E+01 4.35050E+01 0.00000E+00
 -1      2283 4.21500E+01 4.22060E+01 0.00000E+00
 -1      2284 4.59000E+01 4.35050E+01 0.00000E+00
 -1      2285 4.74000E+01 4.35050E+01 0.00000E+00
 -1      2286 4.51500E+01 4.22060E+01 0.00000E+00
 -1      2287 4.89000E+01 4.35050E+01 0.00000E+00
 -1      2288 5.04000E+01 4.35050E+01 0.00000E+00
 -1      2289 4.81500E+01 4.22060E+01 0.00000E+00
 -1      2290 5.19000E+01 4.35050E+01 0.00000E+00
 -1      2291 5.34000E+01 4.35050E+01 0.00000E+00
 -1      2292 5.11500E+01 4.22060E+01 0.00000E+00
 -1      2293 5.49000E+01 4.35050E+01 0.00000E+00
 -1      2294 5.64000E+01 4.35050E+01 0.00000E+00
 -1      2295 5.41500E+01 4.22060E+01 0.00000E+00
 -1      2296 5.79000E+01 4.35050E+01 0.00000E+00
 -1      2297 5.94000E+01 4.35050E+01 0.00000E+00
 -1      2298 5.71500E+01 4.22060E+01 0.00000E+00
 -1      2299 6.09000E+01 4.35050E+01 0.00000E+00
 -1      2300 6.24000E+01 4.35050E+01 0.00000E+00
 -1      2301 6.01500E+01 4.22060E+01 0.00000E+00
 -1      2302 6.39000E+01 4.35050E+01 0.00000E+00
 -1      2303 6.54000E+01 4.35050E+01 0.00000E+00
 -1      2304 6.31500E+01 4.22060E+01 0.00000E+00
 -1      2305 6.69000E+01 4.35050E+01 0.00000E+00
 -1      2306 6.84000E+01 4.35050E+01 0.00000E+00
 -1      2307 6.61500E+01 4.22060E+01 0.00000E+00
 -1      2308 6.99000E+01 4.35050E+01 0.00000E+00
 -1      2309 7.14000E+01 4.35050E+01 0.00000E+00
 -1      2310 6.91500E+01 4.22060E+01 0.00000E+00
 -1      2311 7.29000E+01 4.35050E+01 0.00000E+00
 -1      2312 7.44000E+01 4.35050E+01 0.00000E+00
 -1      2313 7.21500E+01 4.22060E+01 0.00000E+00
 -1      2314 7.59000E+01 4.35050E+01 0.00000E+00
 -1      2315 7.74000E+01 4.35050E+01 0.00000E+00
 -1      2316 7.51500E+01 4.22060E+01 0.00000E+00
 -1      2317 7.89000E+01 4.35050E+01 0.00000E+00
 -1      2318 8.04000E+01 4.35050E+01 0.00000E+00
 -1      2319 7.81500E+01 4.22060E+01 0.00000E+00
 -1      2320 8.19000E+01 4.35050E+01 0.00000E+00
 -1      2321 8.34000E+01 4.35050E+01 0.00000E+00
 -1      2322 8.11500E+01 4.22060E+01 0.00000E+00
 -1      2323 8.49000E+01 4.35050E+01 0.00000E+00
 -1      2324 8.64000E+01 4.35050E+01 0.00000E+00
 -1      2325 8.41500E+01 4.22060E+01 0.00000E+00
 -1      2326 8.79000E+01 4.35050E+01 0.00000E+00
 -1      2327 8.94000E+01 4.35050E+01 0.00000E+00
 -1      2328 8.71500E+01 4.22060E+01 0.00000E+00
 -1      2329 9.09000E+01 4.35050E+01 0.00000E+00
 -1      2330 9.24000E+01 4.35050E+01 0.00000E+00
 -1      2331 9.01500E+01 4.22060E+01 0.00000E+00
 -1      2332 9.39000E+01 4.35050E+01 0.00000E+00
 -1      2333 9.54000E+01 4.35050E+01 0.00000E+00
 -1      2334 9.31500E+01 4.22060E+01 0.00000E+00
 -1      2335 9.69000E+01 4.35050E+01 0.00000E+00
 -1      2336 9.84000E+01 4.35050E+01 0.00000E+00
 -1      2337 9.61500E+01 4.22060E+01 0.00000E+00
 -1      2338 9.99000E+01 4.35050E+01 0.00000E+00
 -1      2339 1.01400E+02 4.35050E+01 0.00000E+00
 -1      2340 9.91500E+01 4.22060E+01 0.00000E+00
 -1      2341 1.02900E+02 4.35050E+01 0.00000E+00
 -1      2342 1.04400E+02 4.35050E+01 0.00000E+00
 -1      2343 1.02150E+02 4.22060E+01 0.00000E+00
 -1      2344 1.05900E+02 4.35050E+01 0.00000E+00
 -1      2345 1.07400E+02 4.35050E+01 0.00000E+00
 -1      2346 1.05150E+02 4.22060E+01 0.00000E+00
 -1      2347 1.08900E+02 4.35050E+01 0.00000E+00
 -1      2348 1.10400E+02 4.35050E+01 0.00000E+00
 -1      2349 1.08150E+02 4.22060E+01 0.00000E+00
 -1      2350 1.11900E+02 4.35050E+01 0.00000E+00
 -1      2351 1.13400E+02 4.35050E+01 0.00000E+00
 -1      2352 1.11150E+02 4.22060E+01 0.00000E+00
 -1      2353 1.14900E+02 4.35050E+01 0.00000E+00
 -1      2354 1.16400E+02 4.35050E+01 0.00000E+00
 -1      2355 1.14150E+02 4.22060E+01 0.00000E+00
 -1      2356 1.17900E+02 4.35050E+01 0.00000E+00
 -1      2357 1.19400E+02 4.35050E+01 0.00000E+00
 -1      2358 1.17150E+02 4.22060E+01 0.00000E+00
 -1      2359 1.20900E+02 4.35050E+01 0.00000E+00
 -1      2360 1.22400E+02 4.35050E+01 0.00000E+00
 -1      2361 1.20150E+02 4.22060E+01 0.00000E+00
 -1      2362 1.23900E+02 4.35050E+01 0.00000E+00
 -1      2363 1.25400E+02 4.35050E+01 0.00000E+00
 -1      2364 1.23150E+02 4.22060E+01 0.00000E+00
 -1      2365 1.26900E+02 4.35050E+01 0.00000E+00
 -1      2366 1.28400E+02 4.35050E+01 0.00000E+00
 -1      2367 1.26150E+02 4.22060E+01 0.00000E+00
 -1      2368 1.29900E+02 4.35050E+01 0.00000E+00
 -1      2369 1.31400E+02 4.35050E+01 0.00000E+00
 -1      2370 1.29150E+02 4.22060E+01 0.00000E+00
 -1      2371 1.32900E+02 4.35050E+01 0.00000E+00
 -1      2372 1.34400E+02 4.35050E+01 0.00000E+00
 -1      2373 1.32150E+02 4.22060E+01 0.00000E+00
 -1      2374 1.35900E+02 4.35050E+01 0.00000E+00
 -1      2375 1.37400E+02 4.35050E+01 0.00000E+00
 -1      2376 1.35150E+02 4.22060E+01 0.00000E+00
 -1      2377 1.38900E+02 4.35050E+01 0.00000E+00
 -1      2378 1.40400E+02 4.35050E+01 0.00000E+00
 -1      2379 1.38150E+02 4.22060E+01 0.00000E+00
 -1      2380 1.97850E+01 5.30525E+00 0.00000E+00
 -1      2381 1.82850E+01 5.30525E+00 0.00000E+00
 -1      2382 2.27850E+01 5.30525E+00 0.00000E+00
 -1      2383 2.12850E+01 5.30525E+00 0.00000E+00
 -1      2384 2.05350E+01 6.60425E+00 0.00000E+00
 -1      2385 2.57850E+01 5.30525E+00 0.00000E+00
 -1      2386 2.42850E+01 5.30525E+00 0.00000E+00
 -1      2387 2.35350E+01 6.60425E+00 0.00000E+00
 -1      2388 2.87850E+01 5.30525E+00 0.00000E+00
 -1      2389 2.72850E+01 5.30525E+00 0.00000E+00
 -1      2390 2.65350E+01 6.60425E+00 0.00000E+00
 -1      2391 3.17850E+01 5.30525E+00 0.00000E+00
 -1      2392 3.02850E+01 5.30525E+00 0.00000E+00
 -1      2393 2.95350E+01 6.60425E+00 0.00000E+00
 -1      2394 3.47850E+01 5.30525E+00 0.00000E+00
 -1      2395 3.32850E+01 5.30525E+00 0.00000E+00
 -1      2396 3.25350E+01 6.60425E+00 0.00000E+00
 -1      2397 3.77850E+01 5.30525E+00 0.00000E+00
 -1      2398 3.62850E+01 5.30525E+00 0.00000E+00
 -1      2399 3.55350E+01 6.60425E+00 0.00000E+00
 -1      2400 4.07850E+01 5.30525E+00 0.00000E+00
 -1      2401 3.92850E+01 5.30525E+00 0.00000E+00
 -1      2402 3.85350E+01 6.60425E+00 0.00000E+00
 -1      2403 4.37850E+01 5.30525E+00 0.00000E+00
 -1      2404 4.22850E+01 5.30525E+00 0.00000E+00
 -1      2405 4.15350E+01 6.60425E+00 0.00000E+00
 -1      2406 4.67850E+01 5.30525E+00 0.00000E+00
 -1      2407 4.52850E+01 5.30525E+00 0.00000E+00
 -1      2408 4.45350E+01 6.60425E+00 0.00000E+00
 -1      2409 4.97850E+01 5.30525E+00 0.00000E+00
 -1      2410 4.82850E+01 5.30525E+00 0.00000E+00
 -1      2411 4.75350E+01 6.60425E+00 0.00000E+00
 -1      2412 5.27850E+01 5.30525E+00 0.00000E+00
 -1      2413 5.12850E+01 5.30525E+00 0.00000E+00
 -1      2414 5.05350E+01 6.60425E+00 0.00000E+00
 -1      2415 5.57850E+01 5.30525E+00 0.00000E+00
 -1      2416 5.42850E+01 5.30525E+00 0.00000E+00
 -1      2417 5.35350E+01 6.60425E+00 0.00000E+00
 -1      2418 5.87850E+01 5.30525E+00 0.00000E+00
 -1      2419 5.72850E+01 5.30525E+00 0.00000E+00
 -1      2420 5.65350E+01 6.60425E+00 0.00000E+00
 -1      2421 6.17850E+01 5.30525E+00 0.00000E+00
 -1      2422 6.02850E+01 5.30525E+00 0.00000E+00
 -1      2423 5.95350E+01 6.60425E+00 0.00000E+00
 -1      2424 6.47850E+01 5.30525E+00 0.00000E+00
 -1      2425 6.32850E+01 5.30525E+00 0.00000E+00
 -1      2426 6.25350E+01 6.60425E+00 0.00000E+00
 -1      2427 6.77850E+01 5.30525E+00 0.00000E+00
 -1      2428 6.62850E+01 5.30525E+00 0.00000E+00
 -1      2429 6.55350E+01 6.60425E+00 0.00000E+00
 -1      2430 7.07850E+01 5.30525E+00 0.00000E+00
 -1      2431 6.92850E+01 5.30525E+00 0.00000E+00
 -1      2432 6.85350E+01 6.60425E+00 0.00000E+00
 -1      2433 7.37850E+01 5.30525E+00 0.00000E+00
 -1      2434 7.22850E+01 5.30525E+00 0.00000E+00
 -1      2435 7.15350E+01 6.60425E+00 0.00000E+00
 -1      2436 7.67850E+01 5.30525E+00 0.00000E+00
 -1      2437 7.52850E+01 5.30525E+00 0.00000E+00
 -1      2438 7.45350E+01 6.60425E+00 0.00000E+00
 -1      2439 7.97850E+01 5.30525E+00 0.00000E+00
 -1      2440 7.82850E+01 5.30525E+00 0.00000E+00
 -1      2441 7.75350E+01 6.60425E+00 0.00000E+00
 -1      2442 8.27850E+01 5.30525E+00 0.00000E+00
 -1      2443 8.12850E+01 5.30525E+00 0.00000E+00
 -1      2444 8.05350E+01 6.60425E+00 0.00000E+00
 -1      2445 8.57850E+01 5.30525E+00 0.00000E+00
 -1      2446 8.42850E+01 5.30525E+00 0.00000E+00
 -1      2447 8.35350E+01 6.60425E+00 0.00000E+00
 -1      2448 8.87850E+01 5.30525E+00 0.00000E+00
 -1      2449 8.72850E+01 5.30525E+00 0.00000E+00
 -1      2450 8.65350E+01 6.60425E+00 0.00000E+00
 -1      2451 9.17850E+01 5.30525E+00 0.00000E+00
 -1      2452 9.02850E+01 5.30525E+00 0.00000E+00
 -1      2453 8.95350E+01 6.60425E+00 0.00000E+00
 -1      2454 9.47850E+01 5.30525E+00 0.00000E+00
 -1      2455 9.32850E+01 5.30525E+00 0.00000E+00
 -1      2456 9.25350E+01 6.60425E+00 0.00000E+00
 -1      2457 9.77850E+01 5.30525E+00 0.00000E+00
 -1      2458 9.62850E+01 5.30525E+00 0.00000E+00
 -1      2459 9.55350E+01 6.60425E+00 0.00000E+00
 -1      2460 1.00785E+02 5.30525E+00 0.00000E+00
 -1      2461 9.92850E+01 5.30525E+00 0.00000E+00
 -1      2462 9.85350E+01 6.60425E+00 0.00000E+00
 -1      2463 1.03785E+02 5.30525E+00 0.00000E+00
 -1      2464 1.02285E+02 5.30525E+00 0.00000E+00
 -1      2465 1.01535E+02 6.60425E+00 0.00000E+00
 -1      2466 1.06785E+02 5.30525E+00 0.00000E+00
 -1      2467 1.05285E+02 5.30525E+00 0.00000E+00
 -1      2468 1.04535E+02 6.60425E+00 0.00000E+00
 -1      2469 1.09785E+02 5.30525E+00 0.00000E+00
 -1      2470 1.08285E+02 5.30525E+00 0.00000E+00
 -1      2471 1.07535E+02 6.60425E+00 0.00000E+00
 -1      2472 1.12785E+02 5.30525E+00 0.00000E+00
 -1      2473 1.11285E+02 5.30525E+00 0.00000E+00
 -1      2474 1.10535E+02 6.60425E+00 0.00000E+00
 -1      2475 1.15785E+02 5.30525E+00 0.00000E+00
 -1      2476 1.14285E+02 5.30525E+00 0.00000E+00
 -1      2477 1.13535E+02 6.60425E+00 0.00000E+00
 -1      2478 1.18785E+02 5.30525E+00 0.00000E+00
 -1      2479 1.17285E+02 5.30525E+00 0.00000E+00
 -1      2480 1.16535E+02 6.60425E+00 0.00000E+00
 -1      2481 1.21785E+02 5.30525E+00 0.00000E+00
 -1      2482 1.20285E+02 5.30525E+00 0.00000E+00
 -1      2483 1.19535E+02 6.60425E+00 0.00000E+00
 -1      2484 1.24785E+02 5.30525E+00 0.00000E+00
 -1      2485 1.23285E+02 5.30525E+00 0.00000E+00
 -1      2486 1.22535E+02 6.60425E+00 0.00000E+00
 -1      2487 1.27785E+02 5.30525E+00 0.00000E+00
 -1      2488 1.26285E+02 5.30525E+00 0.00000E+00
 -1      2489 1.25535E+02 6.60425E+00 0.00000E+00
 -1      2490 1.30785E+02 5.30525E+00 0.00000E+00
 -1      2491 1.29285E+02 5.30525E+00 0.00000E+00
 -1      2492 1.28535E+02 6.60425E+00 0.00000E+00
 -1      2493 1.33785E+02 5.30525E+00 0.00000E+00
 -1      2494 1.32285E+02 5.30525E+00 0.00000E+00
 -1      2495 1.31535E+02 6.60425E+00 0.00000E+00
 -1      2496 1.36785E+02 5.30525E+00 0.00000E+00
 -1      2497 1.35285E+02 5.30525E+00 0.00000E+00
 -1      2498 1.34535E+02 6.60425E+00 0.00000E+00
 -1      2499 1.39785E+02 5.30525E+00 0.00000E+00
 -1      2500 1.38285E+02 5.30525E+00 0.00000E+00
 -1      2501 1.37535E+02 6.60425E+00 0.00000E+00
 -1      2502 1.42785E+02 5.30525E+00 0.00000E+00
 -1      2503 1.41285E+02 5.30525E+00 0.00000E+00
 -1      2504 1.40535E+02 6.60425E+00 0.00000E+00
 -1      2505 1.44336E+02 5.26953E+00 0.00000E+00
 -1      2506 1.43505E+02 1.69125E+01 0.00000E+00
 -1      2507 1.43505E+02 1.54375E+01 0.00000E+00
 -1      2508 1.43505E+02 1.98625E+01 0.00000E+00
 -1      2509 1.43505E+02 1.83875E+01 0.00000E+00
 -1      2510 1.42206E+02 1.76500E+01 0.00000E+00
 -1      2511 1.43505E+02 1.10625E+01 0.00000E+00
 -1      2512 1.43505E+02 9.58750E+00 0.00000E+00
 -1      2513 1.43505E+02 1.39750E+01 0.00000E+00
 -1      2514 1.43505E+02 1.25250E+01 0.00000E+00
 -1      2515 1.42206E+02 1.17875E+01 0.00000E+00
 -1      2516 1.42206E+02 1.47125E+01 0.00000E+00
 -1      2517 1.43505E+02 2.28125E+01 0.00000E+00
 -1      2518 1.43505E+02 2.13375E+01 0.00000E+00
 -1      2519 1.42206E+02 2.06000E+01 0.00000E+00
 -1      2520 1.43505E+02 2.57625E+01 0.00000E+00
 -1      2521 1.43505E+02 2.42875E+01 0.00000E+00
 -1      2522 1.42206E+02 2.35500E+01 0.00000E+00
 -1      2523 1.43505E+02 2.87125E+01 0.00000E+00
 -1      2524 1.43505E+02 2.72375E+01 0.00000E+00
 -1      2525 1.42206E+02 2.65000E+01 0.00000E+00
 -1      2526 1.43505E+02 3.16125E+01 0.00000E+00
 -1      2527 1.43505E+02 3.01625E+01 0.00000E+00
 -1      2528 1.42206E+02 2.94250E+01 0.00000E+00
 -1      2529 1.43505E+02 3.45625E+01 0.00000E+00
 -1      2530 1.43505E+02 3.30875E+01 0.00000E+00
 -1      2531 1.42206E+02 3.23500E+01 0.00000E+00
 -1      2532 1.43505E+02 3.75125E+01 0.00000E+00
 -1      2533 1.43505E+02 3.60375E+01 0.00000E+00
 -1      2534 1.42206E+02 3.53000E+01 0.00000E+00
 -1      2535 1.43505E+02 4.04625E+01 0.00000E+00
 -1      2536 1.43505E+02 3.89875E+01 0.00000E+00
 -1      2537 1.42206E+02 3.82500E+01 0.00000E+00
 -1      2538 8.73662E+01 2.52118E+01 0.00000E+00
 -1      2539 8.73682E+01 2.61849E+01 0.00000E+00
 -1      2540 8.57351E+01 2.08236E+01 0.00000E+00
 -1      2541 8.63701E+01 2.16907E+01 0.00000E+00
 -1      2542 1.67850E+01 5.30525E+00 0.00000E+00
 -1      2543 1.52850E+01 5.30525E+00 0.00000E+00
 -1      2544 1.75350E+01 6.60425E+00 0.00000E+00
 -1      2545 1.44321E+02 4.30606E+01 0.00000E+00
 -1      2546 8.72532E+01 2.72540E+01 0.00000E+00
 -1      2547 8.71199E+01 2.81997E+01 0.00000E+00
 -1      2548 8.43919E+01 1.93668E+01 0.00000E+00
 -1      2549 8.50076E+01 2.00111E+01 0.00000E+00
 -1      2550 6.55950E+00 4.28890E+01 0.00000E+00
 -1      2551 8.53650E+00 4.32410E+01 0.00000E+00
 -1      2552 9.28650E+00 4.19420E+01 0.00000E+00
 -1      2553 6.55950E+00 4.14140E+01 0.00000E+00
 -1      2554 8.69955E+01 2.92432E+01 0.00000E+00
 -1      2555 8.67534E+01 3.01646E+01 0.00000E+00
 -1      2556 8.23918E+01 3.59952E+01 0.00000E+00
 -1      2557 8.14005E+01 3.64798E+01 0.00000E+00
 -1      2558 7.19552E+01 3.58120E+01 0.00000E+00
 -1      2559 7.10411E+01 3.51428E+01 0.00000E+00
 -1      2560 6.49500E+00 2.71625E+01 0.00000E+00
 -1      2561 6.49500E+00 2.86375E+01 0.00000E+00
 -1      2562 7.79400E+00 2.93750E+01 0.00000E+00
 -1      2563 7.79400E+00 2.64250E+01 0.00000E+00
 -1      2564 7.59840E+01 1.63394E+01 0.00000E+00
 -1      2565 7.70742E+01 1.61698E+01 0.00000E+00
 -1      2566 7.81722E+01 3.68855E+01 0.00000E+00
 -1      2567 7.73014E+01 3.69994E+01 0.00000E+00
 -1      2568 7.84368E+01 1.62595E+01 0.00000E+00
 -1      2569 7.94225E+01 1.64991E+01 0.00000E+00
 -1      2570 7.39473E+01 1.68036E+01 0.00000E+00
 -1      2571 7.49296E+01 1.66096E+01 0.00000E+00
 -1      2572 7.18029E+01 1.75816E+01 0.00000E+00
 -1      2573 7.27555E+01 1.71193E+01 0.00000E+00
 -1      2574 6.99508E+01 1.88879E+01 0.00000E+00
 -1      2575 7.06336E+01 1.82030E+01 0.00000E+00
 -1      2576 6.88268E+01 2.06885E+01 0.00000E+00
 -1      2577 6.94184E+01 1.98915E+01 0.00000E+00
 -1      2578 6.75721E+01 2.22361E+01 0.00000E+00
 -1      2579 6.81995E+01 2.14623E+01 0.00000E+00
 -1      2580 6.78739E+01 2.06027E+01 0.00000E+00
 -1      2581 6.66837E+01 2.46174E+01 0.00000E+00
 -1      2582 6.69650E+01 2.34732E+01 0.00000E+00
 -1      2583 6.65134E+01 2.68626E+01 0.00000E+00
 -1      2584 6.65456E+01 2.58604E+01 0.00000E+00
 -1      2585 6.68260E+01 2.93298E+01 0.00000E+00
 -1      2586 6.64728E+01 2.82477E+01 0.00000E+00
 -1      2587 6.79120E+01 3.11308E+01 0.00000E+00
 -1      2588 6.75141E+01 3.02868E+01 0.00000E+00
 -1      2589 6.88043E+01 3.29106E+01 0.00000E+00
 -1      2590 6.82984E+01 3.21001E+01 0.00000E+00
 -1      2591 7.01055E+01 3.44441E+01 0.00000E+00
 -1      2592 6.94772E+01 3.37830E+01 0.00000E+00
 -1      2593 7.37424E+01 3.69209E+01 0.00000E+00
 -1      2594 7.29313E+01 3.66324E+01 0.00000E+00
 -1      2595 8.63184E+01 3.11598E+01 0.00000E+00
 -1      2596 8.59315E+01 3.20442E+01 0.00000E+00
 -1      2597 7.61258E+01 3.70963E+01 0.00000E+00
 -1      2598 7.49887E+01 3.70014E+01 0.00000E+00
 -1      2599 8.01197E+01 3.66253E+01 0.00000E+00
 -1      2600 7.91460E+01 3.67554E+01 0.00000E+00
 -1      2601 7.88109E+01 3.75796E+01 0.00000E+00
 -1      2602 8.39551E+01 3.46697E+01 0.00000E+00
 -1      2603 8.33806E+01 3.52279E+01 0.00000E+00
 -1      2604 8.53979E+01 3.31306E+01 0.00000E+00
 -1      2605 8.46765E+01 3.39001E+01 0.00000E+00
 -1      2606 8.50452E+01 3.48544E+01 0.00000E+00
 -1      2607 8.05675E+01 1.67525E+01 0.00000E+00
 -1      2608 8.15056E+01 1.71608E+01 0.00000E+00
 -1      2609 8.07525E+00 5.11044E+00 0.00000E+00
 -1      2610 6.57525E+00 5.11044E+00 0.00000E+00
 -1      2611 6.40575E+00 6.01981E+00 0.00000E+00
 -1      2612 8.82525E+00 6.40944E+00 0.00000E+00
 -1      2613 8.69632E+01 2.29358E+01 0.00000E+00
 -1      2614 8.72402E+01 2.39838E+01 0.00000E+00
 -1      2615 7.77598E+01 1.54970E+01 0.00000E+00
 -1      2616 7.79400E+00 3.52687E+01 0.00000E+00
 -1      2617 6.49500E+00 3.60062E+01 0.00000E+00
 -1      2618 6.49500E+00 3.74750E+01 0.00000E+00
 -1      2619 1.45350E+01 6.60425E+00 0.00000E+00
 -1      2620 6.40575E+00 7.49481E+00 0.00000E+00
 -1      2621 8.73376E+01 2.19956E+01 0.00000E+00
 -1      2622 6.52725E+00 3.87101E+01 0.00000E+00
 -1      2623 6.52725E+00 4.01789E+01 0.00000E+00
 -1      2624 7.89075E+00 4.04429E+01 0.00000E+00
 -1      2625 7.82625E+00 3.79726E+01 0.00000E+00
 -1      2626 8.78283E+01 2.88783E+01 0.00000E+00
 -1      2627 8.44722E+01 1.82608E+01 0.00000E+00
 -1      2628 8.63002E+01 3.29985E+01 0.00000E+00
 -1      2629 8.10655E+01 3.73040E+01 0.00000E+00
 -1      2630 7.66616E+01 3.78065E+01 0.00000E+00
 -1      2631 1.43586E+02 6.56853E+00 0.00000E+00
 -1      2632 8.60170E+01 1.99380E+01 0.00000E+00
 -1      2633 1.43419E+02 7.72713E+00 0.00000E+00
 -1      2634 8.72688E+01 3.09170E+01 0.00000E+00
 -1      2635 8.80678E+01 2.67657E+01 0.00000E+00
 -1      2636 8.80568E+01 2.44687E+01 0.00000E+00
 -1      2637 7.42396E+01 3.78230E+01 0.00000E+00
 -1      2638 7.01054E+01 3.54030E+01 0.00000E+00
 -1      2639 7.70475E+00 8.23231E+00 0.00000E+00
 -1      2640 6.84968E+01 3.38319E+01 0.00000E+00
 -1      2641 1.42120E+02 8.46463E+00 0.00000E+00
 -1      2642 8.33351E+01 3.63912E+01 0.00000E+00
 -1      2643 6.74375E+01 3.19902E+01 0.00000E+00
 -1      2644 6.63630E+01 3.00639E+01 0.00000E+00
 -1      2645 6.57155E+01 2.77218E+01 0.00000E+00
 -1      2646 6.66394E+01 2.26135E+01 0.00000E+00
 -1      2647 6.63138E+01 2.17539E+01 0.00000E+00
 -1      2648 6.57066E+01 2.29910E+01 0.00000E+00
 -1      2649 6.90337E+01 1.88253E+01 0.00000E+00
 -1      2650 7.07355E+01 1.72003E+01 0.00000E+00
 -1      2651 7.30967E+01 1.62632E+01 0.00000E+00
 -1      2652 7.20172E+01 3.69221E+01 0.00000E+00
 -1      2653 8.25335E+01 1.67448E+01 0.00000E+00
 -1      2654 8.02673E+01 1.58401E+01 0.00000E+00
 -1      2655 7.53429E+01 1.56774E+01 0.00000E+00
 -1      2656 6.58942E+01 2.50936E+01 0.00000E+00
 -1      2657 1.42758E+02 4.35929E+01 0.00000E+00
 -1      2658 1.43241E+02 4.17323E+01 0.00000E+00
 -1      2659 1.41942E+02 4.09948E+01 0.00000E+00
 -1      2660 1.41414E+02 4.35342E+01 0.00000E+00
 -1      2661 1.40664E+02 4.22352E+01 0.00000E+00
 -1      2662 9.09300E+00 1.98250E+01 0.00000E+00
 -1      2663 9.09300E+00 2.12750E+01 0.00000E+00
 -1      2664 9.09300E+00 2.27500E+01 0.00000E+00
 -1      2665 9.09300E+00 2.42250E+01 0.00000E+00
 -1      2666 1.03920E+01 2.20250E+01 0.00000E+00
 -1      2667 9.09300E+00 1.39375E+01 0.00000E+00
 -1      2668 9.09300E+00 1.54125E+01 0.00000E+00
 -1      2669 9.09300E+00 1.09875E+01 0.00000E+00
 -1      2670 9.09300E+00 1.24625E+01 0.00000E+00
 -1      2671 1.03920E+01 1.32000E+01 0.00000E+00
 -1      2672 1.22850E+01 7.90325E+00 0.00000E+00
 -1      2673 1.07850E+01 7.90325E+00 0.00000E+00
 -1      2674 6.80215E+01 3.48942E+01 0.00000E+00
 -1      2675 6.73486E+01 3.40217E+01 0.00000E+00
 -1      2676 8.91450E+00 8.42712E+00 0.00000E+00
 -1      2677 8.47476E+01 1.71818E+01 0.00000E+00
 -1      2678 8.55649E+01 1.80464E+01 0.00000E+00
 -1      2679 1.44000E+01 4.09070E+01 0.00000E+00
 -1      2680 1.59000E+01 4.09070E+01 0.00000E+00
 -1      2681 1.74000E+01 4.09070E+01 0.00000E+00
 -1      2682 1.89000E+01 4.09070E+01 0.00000E+00
 -1      2683 1.66500E+01 3.96080E+01 0.00000E+00
 -1      2684 2.04000E+01 4.09070E+01 0.00000E+00
 -1      2685 2.19000E+01 4.09070E+01 0.00000E+00
 -1      2686 1.96500E+01 3.96080E+01 0.00000E+00
 -1      2687 2.34000E+01 4.09070E+01 0.00000E+00
 -1      2688 2.49000E+01 4.09070E+01 0.00000E+00
 -1      2689 2.26500E+01 3.96080E+01 0.00000E+00
 -1      2690 2.64000E+01 4.09070E+01 0.00000E+00
 -1      2691 2.79000E+01 4.09070E+01 0.00000E+00
 -1      2692 2.56500E+01 3.96080E+01 0.00000E+00
 -1      2693 2.94000E+01 4.09070E+01 0.00000E+00
 -1      2694 3.09000E+01 4.09070E+01 0.00000E+00
 -1      2695 2.86500E+01 3.96080E+01 0.00000E+00
 -1      2696 3.24000E+01 4.09070E+01 0.00000E+00
 -1      2697 3.39000E+01 4.09070E+01 0.00000E+00
 -1      2698 3.16500E+01 3.96080E+01 0.00000E+00
 -1      2699 3.54000E+01 4.09070E+01 0.00000E+00
 -1      2700 3.69000E+01 4.09070E+01 0.00000E+00
 -1      2701 3.46500E+01 3.96080E+01 0.00000E+00
 -1      2702 3.84000E+01 4.09070E+01 0.00000E+00
 -1      2703 3.99000E+01 4.09070E+01 0.00000E+00
 -1      2704 3.76500E+01 3.96080E+01 0.00000E+00
 -1      2705 4.14000E+01 4.09070E+01 0.00000E+00
 -1      2706 4.29000E+01 4.09070E+01 0.00000E+00
 -1      2707 4.06500E+01 3.96080E+01 0.00000E+00
 -1      2708 4.44000E+01 4.09070E+01 0.00000E+00
 -1      2709 4.59000E+01 4.09070E+01 0.00000E+00
 -1      2710 4.36500E+01 3.96080E+01 0.00000E+00
 -1      2711 4.74000E+01 4.09070E+01 0.00000E+00
 -1      2712 4.89000E+01 4.09070E+01 0.00000E+00
 -1      2713 4.66500E+01 3.96080E+01 0.00000E+00
 -1      2714 5.04000E+01 4.09070E+01 0.00000E+00
 -1      2715 5.19000E+01 4.09070E+01 0.00000E+00
 -1      2716 4.96500E+01 3.96080E+01 0.00000E+00
 -1      2717 5.34000E+01 4.09070E+01 0.00000E+00
 -1      2718 5.49000E+01 4.09070E+01 0.00000E+00
 -1      2719 5.26500E+01 3.96080E+01 0.00000E+00
 -1      2720 5.64000E+01 4.09070E+01 0.00000E+00
 -1      2721 5.79000E+01 4.09070E+01 0.00000E+00
 -1      2722 5.56500E+01 3.96080E+01 0.00000E+00
 -1      2723 5.94000E+01 4.09070E+01 0.00000E+00
 -1      2724 6.09000E+01 4.09070E+01 0.00000E+00
 -1      2725 5.86500E+01 3.96080E+01 0.00000E+00
 -1      2726 6.24000E+01 4.09070E+01 0.00000E+00
 -1      2727 6.39000E+01 4.09070E+01 0.00000E+00
 -1      2728 6.16500E+01 3.96080E+01 0.00000E+00
 -1      2729 6.54000E+01 4.09070E+01 0.00000E+00
 -1      2730 6.69000E+01 4.09070E+01 0.00000E+00
 -1      2731 6.46500E+01 3.96080E+01 0.00000E+00
 -1      2732 6.84000E+01 4.09070E+01 0.00000E+00
 -1      2733 6.99000E+01 4.09070E+01 0.00000E+00
 -1      2734 6.76500E+01 3.96080E+01 0.00000E+00
 -1      2735 7.18217E+01 3.99743E+01 0.00000E+00
 -1      2736 7.33217E+01 3.99743E+01 0.00000E+00
 -1      2737 7.74000E+01 4.10133E+01 0.00000E+00
 -1      2738 7.89000E+01 4.10133E+01 0.00000E+00
 -1      2739 8.34000E+01 4.09070E+01 0.00000E+00
 -1      2740 8.49000E+01 4.09070E+01 0.00000E+00
 -1      2741 8.64000E+01 4.09070E+01 0.00000E+00
 -1      2742 8.79000E+01 4.09070E+01 0.00000E+00
 -1      2743 8.56500E+01 3.96080E+01 0.00000E+00
 -1      2744 8.94000E+01 4.09070E+01 0.00000E+00
 -1      2745 9.09000E+01 4.09070E+01 0.00000E+00
 -1      2746 8.86500E+01 3.96080E+01 0.00000E+00
 -1      2747 9.24000E+01 4.09070E+01 0.00000E+00
 -1      2748 9.39000E+01 4.09070E+01 0.00000E+00
 -1      2749 9.16500E+01 3.96080E+01 0.00000E+00
 -1      2750 9.54000E+01 4.09070E+01 0.00000E+00
 -1      2751 9.69000E+01 4.09070E+01 0.00000E+00
 -1      2752 9.46500E+01 3.96080E+01 0.00000E+00
 -1      2753 9.84000E+01 4.09070E+01 0.00000E+00
 -1      2754 9.99000E+01 4.09070E+01 0.00000E+00
 -1      2755 9.76500E+01 3.96080E+01 0.00000E+00
 -1      2756 1.01400E+02 4.09070E+01 0.00000E+00
 -1      2757 1.02900E+02 4.09070E+01 0.00000E+00
 -1      2758 1.00650E+02 3.96080E+01 0.00000E+00
 -1      2759 1.04400E+02 4.09070E+01 0.00000E+00
 -1      2760 1.05900E+02 4.09070E+01 0.00000E+00
 -1      2761 1.03650E+02 3.96080E+01 0.00000E+00
 -1      2762 1.07400E+02 4.09070E+01 0.00000E+00
 -1      2763 1.08900E+02 4.09070E+01 0.00000E+00
 -1      2764 1.06650E+02 3.96080E+01 0.00000E+00
 -1      2765 1.10400E+02 4.09070E+01 0.00000E+00
 -1      2766 1.11900E+02 4.09070E+01 0.00000E+00
 -1      2767 1.09650E+02 3.96080E+01 0.00000E+00
 -1      2768 1.13400E+02 4.09070E+01 0.00000E+00
 -1      2769 1.14900E+02 4.09070E+01 0.00000E+00
 -1      2770 1.12650E+02 3.96080E+01 0.00000E+00
 -1      2771 1.16400E+02 4.09070E+01 0.00000E+00
 -1      2772 1.17900E+02 4.09070E+01 0.00000E+00
 -1      2773 1.15650E+02 3.96080E+01 0.00000E+00
 -1      2774 1.19400E+02 4.09070E+01 0.00000E+00
 -1      2775 1.20900E+02 4.09070E+01 0.00000E+00
 -1      2776 1.18650E+02 3.96080E+01 0.00000E+00
 -1      2777 1.22400E+02 4.09070E+01 0.00000E+00
 -1      2778 1.23900E+02 4.09070E+01 0.00000E+00
 -1      2779 1.21650E+02 3.96080E+01 0.00000E+00
 -1      2780 1.25400E+02 4.09070E+01 0.00000E+00
 -1      2781 1.26900E+02 4.09070E+01 0.00000E+00
 -1      2782 1.24650E+02 3.96080E+01 0.00000E+00
 -1      2783 1.28400E+02 4.09070E+01 0.00000E+00
 -1      2784 1.29900E+02 4.09070E+01 0.00000E+00
 -1      2785 1.27650E+02 3.96080E+01 0.00000E+00
 -1      2786 1.31400E+02 4.09070E+01 0.00000E+00
 -1      2787 1.32900E+02 4.09070E+01 0.00000E+00
 -1      2788 1.30650E+02 3.96080E+01 0.00000E+00
 -1      2789 1.34400E+02 4.09070E+01 0.00000E+00
 -1      2790 1.35900E+02 4.09070E+01 0.00000E+00
 -1      2791 1.33650E+02 3.96080E+01 0.00000E+00
 -1      2792 1.37400E+02 4.09070E+01 0.00000E+00
 -1      2793 1.38900E+02 4.09070E+01 0.00000E+00
 -1      2794 1.36650E+02 3.96080E+01 0.00000E+00
 -1      2795 2.42850E+01 7.90325E+00 0.00000E+00
 -1      2796 2.27850E+01 7.90325E+00 0.00000E+00
 -1      2797 1.39914E+02 4.09362E+01 0.00000E+00
 -1      2798 1.40928E+02 4.09655E+01 0.00000E+00
 -1      2799 1.39164E+02 3.96372E+01 0.00000E+00
 -1      2800 2.12850E+01 7.90325E+00 0.00000E+00
 -1      2801 1.97850E+01 7.90325E+00 0.00000E+00
 -1      2802 2.20350E+01 9.20225E+00 0.00000E+00
 -1      2803 3.02850E+01 7.90325E+00 0.00000E+00
 -1      2804 2.87850E+01 7.90325E+00 0.00000E+00
 -1      2805 3.32850E+01 7.90325E+00 0.00000E+00
 -1      2806 3.17850E+01 7.90325E+00 0.00000E+00
 -1      2807 3.10350E+01 9.20225E+00 0.00000E+00
 -1      2808 3.62850E+01 7.90325E+00 0.00000E+00
 -1      2809 3.47850E+01 7.90325E+00 0.00000E+00
 -1      2810 3.40350E+01 9.20225E+00 0.00000E+00
 -1      2811 3.92850E+01 7.90325E+00 0.00000E+00
 -1      2812 3.77850E+01 7.90325E+00 0.00000E+00
 -1      2813 3.70350E+01 9.20225E+00 0.00000E+00
 -1      2814 4.22850E+01 7.90325E+00 0.00000E+00
 -1      2815 4.07850E+01 7.90325E+00 0.00000E+00
 -1      2816 4.00350E+01 9.20225E+00 0.00000E+00
 -1      2817 4.52850E+01 7.90325E+00 0.00000E+00
 -1      2818 4.37850E+01 7.90325E+00 0.00000E+00
 -1      2819 4.30350E+01 9.20225E+00 0.00000E+00
 -1      2820 4.82850E+01 7.90325E+00 0.00000E+00
 -1      2821 4.67850E+01 7.90325E+00 0.00000E+00
 -1      2822 4.60350E+01 9.20225E+00 0.00000E+00
 -1      2823 5.12850E+01 7.90325E+00 0.00000E+00
 -1      2824 4.97850E+01 7.90325E+00 0.00000E+00
 -1      2825 4.90350E+01 9.20225E+00 0.00000E+00
 -1      2826 5.42850E+01 7.90325E+00 0.00000E+00
 -1      2827 5.27850E+01 7.90325E+00 0.00000E+00
 -1      2828 5.20350E+01 9.20225E+00 0.00000E+00
 -1      2829 5.72850E+01 7.90325E+00 0.00000E+00
 -1      2830 5.57850E+01 7.90325E+00 0.00000E+00
 -1      2831 5.50350E+01 9.20225E+00 0.00000E+00
 -1      2832 6.02850E+01 7.90325E+00 0.00000E+00
 -1      2833 5.87850E+01 7.90325E+00 0.00000E+00
 -1      2834 5.80350E+01 9.20225E+00 0.00000E+00
 -1      2835 6.32850E+01 7.90325E+00 0.00000E+00
 -1      2836 6.17850E+01 7.90325E+00 0.00000E+00
 -1      2837 6.10350E+01 9.20225E+00 0.00000E+00
 -1      2838 6.62850E+01 7.90325E+00 0.00000E+00
 -1      2839 6.47850E+01 7.90325E+00 0.00000E+00
 -1      2840 6.40350E+01 9.20225E+00 0.00000E+00
 -1      2841 6.92850E+01 7.90325E+00 0.00000E+00
 -1      2842 6.77850E+01 7.90325E+00 0.00000E+00
 -1      2843 6.70350E+01 9.20225E+00 0.00000E+00
 -1      2844 7.22850E+01 7.90325E+00 0.00000E+00
 -1      2845 7.07850E+01 7.90325E+00 0.00000E+00
 -1      2846 7.00350E+01 9.20225E+00 0.00000E+00
 -1      2847 7.52850E+01 7.90325E+00 0.00000E+00
 -1      2848 7.37850E+01 7.90325E+00 0.00000E+00
 -1      2849 7.30350E+01 9.20225E+00 0.00000E+00
 -1      2850 7.82850E+01 7.90325E+00 0.00000E+00
 -1      2851 7.67850E+01 7.90325E+00 0.00000E+00
 -1      2852 7.60350E+01 9.20225E+00 0.00000E+00
 -1      2853 8.12850E+01 7.90325E+00 0.00000E+00
 -1      2854 7.97850E+01 7.90325E+00 0.00000E+00
 -1      2855 7.90350E+01 9.20225E+00 0.00000E+00
 -1      2856 8.42850E+01 7.90325E+00 0.00000E+00
 -1      2857 8.27850E+01 7.90325E+00 0.00000E+00
 -1      2858 8.20350E+01 9.20225E+00 0.00000E+00
 -1      2859 8.72850E+01 7.90325E+00 0.00000E+00
 -1      2860 8.57850E+01 7.90325E+00 0.00000E+00
 -1      2861 8.50350E+01 9.20225E+00 0.00000E+00
 -1      2862 9.02850E+01 7.90325E+00 0.00000E+00
 -1      2863 8.87850E+01 7.90325E+00 0.00000E+00
 -1      2864 8.80350E+01 9.20225E+00 0.00000E+00
 -1      2865 9.32850E+01 7.90325E+00 0.00000E+00
 -1      2866 9.17850E+01 7.90325E+00 0.00000E+00
 -1      2867 9.10350E+01 9.20225E+00 0.00000E+00
 -1      2868 9.62850E+01 7.90325E+00 0.00000E+00
 -1      2869 9.47850E+01 7.90325E+00 0.00000E+00
 -1      2870 9.40350E+01 9.20225E+00 0.00000E+00
 -1      2871 9.92850E+01 7.90325E+00 0.00000E+00
 -1      2872 9.77850E+01 7.90325E+00 0.00000E+00
 -1      2873 9.70350E+01 9.20225E+00 0.00000E+00
 -1      2874 1.02285E+02 7.90325E+00 0.00000E+00
 -1      2875 1.00785E+02 7.90325E+00 0.00000E+00
 -1      2876 1.00035E+02 9.20225E+00 0.00000E+00
 -1      2877 1.05285E+02 7.90325E+00 0.00000E+00
 -1      2878 1.03785E+02 7.90325E+00 0.00000E+00
 -1      2879 1.03035E+02 9.20225E+00 0.00000E+00
 -1      2880 1.08285E+02 7.90325E+00 0.00000E+00
 -1      2881 1.06785E+02 7.90325E+00 0.00000E+00
 -1      2882 1.06035E+02 9.20225E+00 0.00000E+00
 -1      2883 1.11285E+02 7.90325E+00 0.00000E+00
 -1      2884 1.09785E+02 7.90325E+00 0.00000E+00
 -1      2885 1.09035E+02 9.20225E+00 0.00000E+00
 -1      2886 1.14285E+02 7.90325E+00 0.00000E+00
 -1      2887 1.12785E+02 7.90325E+00 0.00000E+00
 -1      2888 1.12035E+02 9.20225E+00 0.00000E+00
 -1      2889 1.17285E+02 7.90325E+00 0.00000E+00
 -1      2890 1.15785E+02 7.90325E+00 0.00000E+00
 -1      2891 1.15035E+02 9.20225E+00 0.00000E+00
 -1      2892 1.20285E+02 7.90325E+00 0.00000E+00
 -1      2893 1.18785E+02 7.90325E+00 0.00000E+00
 -1      2894 1.18035E+02 9.20225E+00 0.00000E+00
 -1      2895 1.23285E+02 7.90325E+00 0.00000E+00
 -1      2896 1.21785E+02 7.90325E+00 0.00000E+00
 -1      2897 1.21035E+02 9.20225E+00 0.00000E+00
 -1      2898 1.26285E+02 7.90325E+00 0.00000E+00
 -1      2899 1.24785E+02 7.90325E+00 0.00000E+00
 -1      2900 1.24035E+02 9.20225E+00 0.00000E+00
 -1      2901 1.29285E+02 7.90325E+00 0.00000E+00
 -1      2902 1.27785E+02 7.90325E+00 0.00000E+00
 -1      2903 1.27035E+02 9.20225E+00 0.00000E+00
 -1      2904 1.32285E+02 7.90325E+00 0.00000E+00
 -1      2905 1.30785E+02 7.90325E+00 0.00000E+00
 -1      2906 1.30035E+02 9.20225E+00 0.00000E+00
 -1      2907 1.35285E+02 7.90325E+00 0.00000E+00
 -1      2908 1.33785E+02 7.90325E+00 0.00000E+00
 -1      2909 1.33035E+02 9.20225E+00 0.00000E+00
 -1      2910 1.38285E+02 7.90325E+00 0.00000E+00
 -1      2911 1.36785E+02 7.90325E+00 0.00000E+00
 -1      2912 1.36035E+02 9.20225E+00 0.00000E+00
 -1      2913 1.40953E+02 8.18394E+00 0.00000E+00
 -1      2914 1.39453E+02 8.18394E+00 0.00000E+00
 -1      2915 1.38703E+02 9.48294E+00 0.00000E+00
 -1      2916 1.41038E+02 1.00443E+01 0.00000E+00
 -1      2917 8.62921E+01 1.89597E+01 0.00000E+00
 -1      2918 8.70196E+01 1.97722E+01 0.00000E+00
 -1      2919 1.40907E+02 2.42875E+01 0.00000E+00
 -1      2920 1.40907E+02 2.28125E+01 0.00000E+00
 -1      2921 8.45093E+01 3.68836E+01 0.00000E+00
 -1      2922 8.35206E+01 3.76509E+01 0.00000E+00
 -1      2923 1.40907E+02 1.83875E+01 0.00000E+00
 -1      2924 1.40907E+02 1.69125E+01 0.00000E+00
 -1      2925 1.40907E+02 2.72375E+01 0.00000E+00
 -1      2926 1.40907E+02 2.57625E+01 0.00000E+00
 -1      2927 1.39608E+02 2.50250E+01 0.00000E+00
 -1      2928 1.40907E+02 2.13375E+01 0.00000E+00
 -1      2929 1.40907E+02 1.98625E+01 0.00000E+00
 -1      2930 1.39608E+02 1.91250E+01 0.00000E+00
 -1      2931 1.39608E+02 2.20750E+01 0.00000E+00
 -1      2932 1.40907E+02 3.01375E+01 0.00000E+00
 -1      2933 1.40907E+02 2.86875E+01 0.00000E+00
 -1      2934 1.39608E+02 2.79500E+01 0.00000E+00
 -1      2935 1.40907E+02 3.30875E+01 0.00000E+00
 -1      2936 1.40907E+02 3.16125E+01 0.00000E+00
 -1      2937 1.39608E+02 3.08750E+01 0.00000E+00
 -1      2938 1.40907E+02 3.60375E+01 0.00000E+00
 -1      2939 1.40907E+02 3.45625E+01 0.00000E+00
 -1      2940 1.39608E+02 3.38250E+01 0.00000E+00
 -1      2941 8.74872E+01 3.29072E+01 0.00000E+00
 -1      2942 8.69536E+01 3.39936E+01 0.00000E+00
 -1      2943 8.90136E+01 2.37500E+01 0.00000E+00
 -1      2944 8.91396E+01 2.49780E+01 0.00000E+00
 -1      2945 9.25425E+00 4.07069E+01 0.00000E+00
 -1      2946 1.06178E+01 4.09709E+01 0.00000E+00
 -1      2947 9.22200E+00 3.94717E+01 0.00000E+00
 -1      2948 7.73164E+01 3.85710E+01 0.00000E+00
 -1      2949 7.61407E+01 3.86679E+01 0.00000E+00
 -1      2950 6.80099E+01 1.89251E+01 0.00000E+00
 -1      2951 6.85424E+01 1.79216E+01 0.00000E+00
 -1      2952 8.86589E+01 2.84482E+01 0.00000E+00
 -1      2953 8.85344E+01 2.94917E+01 0.00000E+00
 -1      2954 1.82850E+01 7.90325E+00 0.00000E+00
 -1      2955 1.67850E+01 7.90325E+00 0.00000E+00
 -1      2956 1.90350E+01 9.20225E+00 0.00000E+00
 -1      2957 2.72850E+01 7.90325E+00 0.00000E+00
 -1      2958 2.57850E+01 7.90325E+00 0.00000E+00
 -1      2959 2.50350E+01 9.20225E+00 0.00000E+00
 -1      2960 2.80350E+01 9.20225E+00 0.00000E+00
 -1      2961 1.17589E+01 4.09389E+01 0.00000E+00
 -1      2962 1.32589E+01 4.09389E+01 0.00000E+00
 -1      2963 1.40089E+01 3.96399E+01 0.00000E+00
 -1      2964 1.17266E+01 3.97038E+01 0.00000E+00
 -1      2965 6.66784E+01 3.28544E+01 0.00000E+00
 -1      2966 6.62920E+01 3.18852E+01 0.00000E+00
 -1      2967 8.88890E+01 2.63101E+01 0.00000E+00
 -1      2968 8.87739E+01 2.73792E+01 0.00000E+00
 -1      2969 8.94800E+01 2.79926E+01 0.00000E+00
 -1      2970 1.52850E+01 7.90325E+00 0.00000E+00
 -1      2971 1.37850E+01 7.90325E+00 0.00000E+00
 -1      2972 1.30350E+01 9.20225E+00 0.00000E+00
 -1      2973 1.60350E+01 9.20225E+00 0.00000E+00
 -1      2974 9.09300E+00 1.68813E+01 0.00000E+00
 -1      2975 9.09300E+00 1.83563E+01 0.00000E+00
 -1      2976 1.03920E+01 1.90812E+01 0.00000E+00
 -1      2977 1.03920E+01 1.61437E+01 0.00000E+00
 -1      2978 9.09300E+00 3.15875E+01 0.00000E+00
 -1      2979 9.09300E+00 3.30625E+01 0.00000E+00
 -1      2980 8.82337E+01 3.07461E+01 0.00000E+00
 -1      2981 8.77987E+01 3.17412E+01 0.00000E+00
 -1      2982 7.22811E+01 1.55921E+01 0.00000E+00
 -1      2983 7.34730E+01 1.52764E+01 0.00000E+00
 -1      2984 6.97091E+01 1.66798E+01 0.00000E+00
 -1      2985 7.08784E+01 1.60584E+01 0.00000E+00
 -1      2986 6.67552E+01 2.04728E+01 0.00000E+00
 -1      2987 6.73826E+01 1.96990E+01 0.00000E+00
 -1      2988 6.68913E+01 1.87953E+01 0.00000E+00
 -1      2989 1.41192E+02 3.96958E+01 0.00000E+00
 -1      2990 6.46705E+01 2.83843E+01 0.00000E+00
 -1      2991 6.47111E+01 2.69991E+01 0.00000E+00
 -1      2992 6.56039E+01 3.09282E+01 0.00000E+00
 -1      2993 6.49159E+01 2.99712E+01 0.00000E+00
 -1      2994 6.48449E+01 3.17925E+01 0.00000E+00
 -1      2995 8.25298E+01 1.54603E+01 0.00000E+00
 -1      2996 8.36511E+01 1.61116E+01 0.00000E+00
 -1      2997 8.18028E+01 3.80833E+01 0.00000E+00
 -1      2998 8.05219E+01 3.82288E+01 0.00000E+00
 -1      2999 6.48492E+01 2.57561E+01 0.00000E+00
 -1      3000 6.49872E+01 2.45131E+01 0.00000E+00
 -1      3001 6.38042E+01 2.64187E+01 0.00000E+00
 -1      3002 6.99599E+01 3.65737E+01 0.00000E+00
 -1      3003 6.90242E+01 3.58750E+01 0.00000E+00
 -1      3004 7.89673E+01 3.86350E+01 0.00000E+00
 -1      3005 7.79936E+01 3.87651E+01 0.00000E+00
 -1      3006 7.98801E+01 1.48761E+01 0.00000E+00
 -1      3007 8.10250E+01 1.51295E+01 0.00000E+00
 -1      3008 8.59521E+01 3.53446E+01 0.00000E+00
 -1      3009 8.52307E+01 3.61141E+01 0.00000E+00
 -1      3010 8.54162E+01 3.73738E+01 0.00000E+00
 -1      3011 7.45274E+01 1.50063E+01 0.00000E+00
 -1      3012 7.55817E+01 1.47361E+01 0.00000E+00
 -1      3013 7.37118E+01 1.43352E+01 0.00000E+00
 -1      3014 8.78909E+01 2.09682E+01 0.00000E+00
 -1      3015 8.84840E+01 2.22133E+01 0.00000E+00
 -1      3016 7.71404E+01 1.45128E+01 0.00000E+00
 -1      3017 7.85029E+01 1.46025E+01 0.00000E+00
 -1      3018 7.45679E+01 4.00547E+01 0.00000E+00
 -1      3019 7.10717E+01 3.86753E+01 0.00000E+00
 -1      3020 9.09300E+00 3.45313E+01 0.00000E+00
 -1      3021 9.09300E+00 3.60000E+01 0.00000E+00
 -1      3022 1.03920E+01 3.37938E+01 0.00000E+00
 -1      3023 1.03920E+01 2.49750E+01 0.00000E+00
 -1      3024 9.09300E+00 2.57000E+01 0.00000E+00
 -1      3025 9.09300E+00 2.71750E+01 0.00000E+00
 -1      3026 6.62032E+01 3.39167E+01 0.00000E+00
 -1      3027 9.66450E+00 9.72612E+00 0.00000E+00
 -1      3028 8.47439E+01 1.58972E+01 0.00000E+00
 -1      3029 7.97046E+01 3.94144E+01 0.00000E+00
 -1      3030 8.04546E+01 4.06071E+01 0.00000E+00
 -1      3031 8.19546E+01 4.06071E+01 0.00000E+00
 -1      3032 6.78760E+01 3.60649E+01 0.00000E+00
 -1      3033 8.65676E+01 1.78807E+01 0.00000E+00
 -1      3034 1.41038E+02 1.15068E+01 0.00000E+00
 -1      3035 1.39870E+02 1.12261E+01 0.00000E+00
 -1      3036 1.41038E+02 1.29693E+01 0.00000E+00
 -1      3037 7.63248E+01 1.38417E+01 0.00000E+00
 -1      3038 8.29770E+01 3.85757E+01 0.00000E+00
 -1      3039 8.95668E+01 2.27226E+01 0.00000E+00
 -1      3040 8.71391E+01 3.52533E+01 0.00000E+00
 -1      3041 7.92607E+01 1.38919E+01 0.00000E+00
 -1      3042 8.84520E+01 3.27364E+01 0.00000E+00
 -1      3043 1.41192E+02 3.82207E+01 0.00000E+00
 -1      3044 6.58225E+01 2.08502E+01 0.00000E+00
 -1      3045 8.98457E+01 2.55915E+01 0.00000E+00
 -1      3046 7.74728E+01 3.96265E+01 0.00000E+00
 -1      3047 6.76616E+01 1.68795E+01 0.00000E+00
 -1      3048 6.86853E+01 1.67796E+01 0.00000E+00
 -1      3049 6.88282E+01 1.56377E+01 0.00000E+00
 -1      3050 6.46617E+01 2.36535E+01 0.00000E+00
 -1      3051 6.43361E+01 2.27938E+01 0.00000E+00
 -1      3052 6.36167E+01 2.43160E+01 0.00000E+00
 -1      3053 8.90643E+01 3.03160E+01 0.00000E+00
 -1      3054 9.09300E+00 2.86437E+01 0.00000E+00
 -1      3055 9.09300E+00 3.01187E+01 0.00000E+00
 -1      3056 1.03920E+01 3.08563E+01 0.00000E+00
 -1      3057 1.03920E+01 2.79188E+01 0.00000E+00
 -1      3058 1.40973E+02 1.56722E+01 0.00000E+00
 -1      3059 1.40973E+02 1.42097E+01 0.00000E+00
 -1      3060 1.39805E+02 1.39290E+01 0.00000E+00
 -1      3061 1.39674E+02 1.64097E+01 0.00000E+00
 -1      3062 7.12547E+01 1.50715E+01 0.00000E+00
 -1      3063 1.39529E+02 3.85602E+01 0.00000E+00
 -1      3064 1.40542E+02 3.71145E+01 0.00000E+00
 -1      3065 1.39243E+02 3.63770E+01 0.00000E+00
 -1      3066 1.38514E+02 3.85310E+01 0.00000E+00
 -1      3067 1.09635E+01 1.04636E+01 0.00000E+00
 -1      3068 6.39115E+01 2.92486E+01 0.00000E+00
 -1      3069 8.21427E+01 1.44963E+01 0.00000E+00
 -1      3070 8.81660E+01 1.99899E+01 0.00000E+00
 -1      3071 8.49117E+01 1.46285E+01 0.00000E+00
 -1      3072 8.60082E+01 1.56988E+01 0.00000E+00
 -1      3073 1.16910E+01 1.24625E+01 0.00000E+00
 -1      3074 1.16910E+01 1.39375E+01 0.00000E+00
 -1      3075 9.14137E+00 3.71183E+01 0.00000E+00
 -1      3076 9.17362E+00 3.83534E+01 0.00000E+00
 -1      3077 1.05371E+01 3.86174E+01 0.00000E+00
 -1      3078 1.04404E+01 3.63808E+01 0.00000E+00
 -1      3079 8.96791E+01 3.24396E+01 0.00000E+00
 -1      3080 8.93676E+01 3.36056E+01 0.00000E+00
 -1      3081 1.89000E+01 3.83090E+01 0.00000E+00
 -1      3082 2.04000E+01 3.83090E+01 0.00000E+00
 -1      3083 2.19000E+01 3.83090E+01 0.00000E+00
 -1      3084 2.34000E+01 3.83090E+01 0.00000E+00
 -1      3085 2.11500E+01 3.70100E+01 0.00000E+00
 -1      3086 2.49000E+01 3.83090E+01 0.00000E+00
 -1      3087 2.64000E+01 3.83090E+01 0.00000E+00
 -1      3088 2.41500E+01 3.70100E+01 0.00000E+00
 -1      3089 2.79000E+01 3.83090E+01 0.00000E+00
 -1      3090 2.94000E+01 3.83090E+01 0.00000E+00
 -1      3091 2.71500E+01 3.70100E+01 0.00000E+00
 -1      3092 3.09000E+01 3.83090E+01 0.00000E+00
 -1      3093 3.24000E+01 3.83090E+01 0.00000E+00
 -1      3094 3.01500E+01 3.70100E+01 0.00000E+00
 -1      3095 3.39000E+01 3.83090E+01 0.00000E+00
 -1      3096 3.54000E+01 3.83090E+01 0.00000E+00
 -1      3097 3.31500E+01 3.70100E+01 0.00000E+00
 -1      3098 3.69000E+01 3.83090E+01 0.00000E+00
 -1      3099 3.84000E+01 3.83090E+01 0.00000E+00
 -1      3100 3.61500E+01 3.70100E+01 0.00000E+00
 -1      3101 3.99000E+01 3.83090E+01 0.00000E+00
 -1      3102 4.14000E+01 3.83090E+01 0.00000E+00
 -1      3103 3.91500E+01 3.70100E+01 0.00000E+00
 -1      3104 4.29000E+01 3.83090E+01 0.00000E+00
 -1      3105 4.44000E+01 3.83090E+01 0.00000E+00
 -1      3106 4.21500E+01 3.70100E+01 0.00000E+00
 -1      3107 4.59000E+01 3.83090E+01 0.00000E+00
 -1      3108 4.74000E+01 3.83090E+01 0.00000E+00
 -1      3109 4.51500E+01 3.70100E+01 0.00000E+00
 -1      3110 4.89000E+01 3.83090E+01 0.00000E+00
 -1      3111 5.04000E+01 3.83090E+01 0.00000E+00
 -1      3112 4.81500E+01 3.70100E+01 0.00000E+00
 -1      3113 5.19000E+01 3.83090E+01 0.00000E+00
 -1      3114 5.34000E+01 3.83090E+01 0.00000E+00
 -1      3115 5.11500E+01 3.70100E+01 0.00000E+00
 -1      3116 5.49000E+01 3.83090E+01 0.00000E+00
 -1      3117 5.64000E+01 3.83090E+01 0.00000E+00
 -1      3118 5.41500E+01 3.70100E+01 0.00000E+00
 -1      3119 5.79000E+01 3.83090E+01 0.00000E+00
 -1      3120 5.94000E+01 3.83090E+01 0.00000E+00
 -1      3121 5.71500E+01 3.70100E+01 0.00000E+00
 -1      3122 6.09000E+01 3.83090E+01 0.00000E+00
 -1      3123 6.24000E+01 3.83090E+01 0.00000E+00
 -1      3124 6.01500E+01 3.70100E+01 0.00000E+00
 -1      3125 6.39000E+01 3.83090E+01 0.00000E+00
 -1      3126 6.54000E+01 3.83090E+01 0.00000E+00
 -1      3127 6.31500E+01 3.70100E+01 0.00000E+00
 -1      3128 6.75143E+01 3.83269E+01 0.00000E+00
 -1      3129 6.90143E+01 3.83269E+01 0.00000E+00
 -1      3130 8.79000E+01 3.83090E+01 0.00000E+00
 -1      3131 8.94000E+01 3.83090E+01 0.00000E+00
 -1      3132 9.09000E+01 3.83090E+01 0.00000E+00
 -1      3133 9.24000E+01 3.83090E+01 0.00000E+00
 -1      3134 9.01500E+01 3.70100E+01 0.00000E+00
 -1      3135 9.39000E+01 3.83090E+01 0.00000E+00
 -1      3136 9.54000E+01 3.83090E+01 0.00000E+00
 -1      3137 9.31500E+01 3.70100E+01 0.00000E+00
 -1      3138 9.69000E+01 3.83090E+01 0.00000E+00
 -1      3139 9.84000E+01 3.83090E+01 0.00000E+00
 -1      3140 9.61500E+01 3.70100E+01 0.00000E+00
 -1      3141 9.99000E+01 3.83090E+01 0.00000E+00
 -1      3142 1.01400E+02 3.83090E+01 0.00000E+00
 -1      3143 9.91500E+01 3.70100E+01 0.00000E+00
 -1      3144 1.02900E+02 3.83090E+01 0.00000E+00
 -1      3145 1.04400E+02 3.83090E+01 0.00000E+00
 -1      3146 1.02150E+02 3.70100E+01 0.00000E+00
 -1      3147 1.05900E+02 3.83090E+01 0.00000E+00
 -1      3148 1.07400E+02 3.83090E+01 0.00000E+00
 -1      3149 1.05150E+02 3.70100E+01 0.00000E+00
 -1      3150 1.08900E+02 3.83090E+01 0.00000E+00
 -1      3151 1.10400E+02 3.83090E+01 0.00000E+00
 -1      3152 1.08150E+02 3.70100E+01 0.00000E+00
 -1      3153 1.11900E+02 3.83090E+01 0.00000E+00
 -1      3154 1.13400E+02 3.83090E+01 0.00000E+00
 -1      3155 1.11150E+02 3.70100E+01 0.00000E+00
 -1      3156 1.14900E+02 3.83090E+01 0.00000E+00
 -1      3157 1.16400E+02 3.83090E+01 0.00000E+00
 -1      3158 1.14150E+02 3.70100E+01 0.00000E+00
 -1      3159 1.17900E+02 3.83090E+01 0.00000E+00
 -1      3160 1.19400E+02 3.83090E+01 0.00000E+00
 -1      3161 1.17150E+02 3.70100E+01 0.00000E+00
 -1      3162 1.20900E+02 3.83090E+01 0.00000E+00
 -1      3163 1.22400E+02 3.83090E+01 0.00000E+00
 -1      3164 1.20150E+02 3.70100E+01 0.00000E+00
 -1      3165 1.23900E+02 3.83090E+01 0.00000E+00
 -1      3166 1.25400E+02 3.83090E+01 0.00000E+00
 -1      3167 1.23150E+02 3.70100E+01 0.00000E+00
 -1      3168 1.26900E+02 3.83090E+01 0.00000E+00
 -1      3169 1.28400E+02 3.83090E+01 0.00000E+00
 -1      3170 1.26150E+02 3.70100E+01 0.00000E+00
 -1      3171 1.29900E+02 3.83090E+01 0.00000E+00
 -1      3172 1.31400E+02 3.83090E+01 0.00000E+00
 -1      3173 1.29150E+02 3.70100E+01 0.00000E+00
 -1      3174 1.32900E+02 3.83090E+01 0.00000E+00
 -1      3175 1.34400E+02 3.83090E+01 0.00000E+00
 -1      3176 1.32150E+02 3.70100E+01 0.00000E+00
 -1      3177 1.35707E+02 3.84200E+01 0.00000E+00
 -1      3178 1.37207E+02 3.84200E+01 0.00000E+00
 -1      3179 1.37572E+02 3.73430E+01 0.00000E+00
 -1      3180 1.34957E+02 3.71210E+01 0.00000E+00
 -1      3181 2.27850E+01 1.05013E+01 0.00000E+00
 -1      3182 2.12850E+01 1.05013E+01 0.00000E+00
 -1      3183 3.47850E+01 1.05013E+01 0.00000E+00
 -1      3184 3.32850E+01 1.05013E+01 0.00000E+00
 -1      3185 3.17850E+01 1.05013E+01 0.00000E+00
 -1      3186 3.02850E+01 1.05013E+01 0.00000E+00
 -1      3187 3.25350E+01 1.18003E+01 0.00000E+00
 -1      3188 4.07850E+01 1.05013E+01 0.00000E+00
 -1      3189 3.92850E+01 1.05013E+01 0.00000E+00
 -1      3190 4.37850E+01 1.05013E+01 0.00000E+00
 -1      3191 4.22850E+01 1.05013E+01 0.00000E+00
 -1      3192 4.15350E+01 1.18003E+01 0.00000E+00
 -1      3193 4.67850E+01 1.05013E+01 0.00000E+00
 -1      3194 4.52850E+01 1.05013E+01 0.00000E+00
 -1      3195 4.45350E+01 1.18003E+01 0.00000E+00
 -1      3196 4.97850E+01 1.05013E+01 0.00000E+00
 -1      3197 4.82850E+01 1.05013E+01 0.00000E+00
 -1      3198 4.75350E+01 1.18003E+01 0.00000E+00
 -1      3199 5.27850E+01 1.05013E+01 0.00000E+00
 -1      3200 5.12850E+01 1.05013E+01 0.00000E+00
 -1      3201 5.05350E+01 1.18003E+01 0.00000E+00
 -1      3202 5.57850E+01 1.05013E+01 0.00000E+00
 -1      3203 5.42850E+01 1.05013E+01 0.00000E+00
 -1      3204 5.35350E+01 1.18003E+01 0.00000E+00
 -1      3205 5.87850E+01 1.05013E+01 0.00000E+00
 -1      3206 5.72850E+01 1.05013E+01 0.00000E+00
 -1      3207 5.65350E+01 1.18003E+01 0.00000E+00
 -1      3208 6.17850E+01 1.05013E+01 0.00000E+00
 -1      3209 6.02850E+01 1.05013E+01 0.00000E+00
 -1      3210 5.95350E+01 1.18003E+01 0.00000E+00
 -1      3211 6.47850E+01 1.05013E+01 0.00000E+00
 -1      3212 6.32850E+01 1.05013E+01 0.00000E+00
 -1      3213 6.25350E+01 1.18003E+01 0.00000E+00
 -1      3214 6.77850E+01 1.05013E+01 0.00000E+00
 -1      3215 6.62850E+01 1.05013E+01 0.00000E+00
 -1      3216 6.55350E+01 1.18003E+01 0.00000E+00
 -1      3217 7.07850E+01 1.05013E+01 0.00000E+00
 -1      3218 6.92850E+01 1.05013E+01 0.00000E+00
 -1      3219 6.85350E+01 1.18003E+01 0.00000E+00
 -1      3220 7.67850E+01 1.03949E+01 0.00000E+00
 -1      3221 7.52850E+01 1.03949E+01 0.00000E+00
 -1      3222 7.97850E+01 1.03112E+01 0.00000E+00
 -1      3223 7.82850E+01 1.03112E+01 0.00000E+00
 -1      3224 8.27850E+01 1.03949E+01 0.00000E+00
 -1      3225 8.12850E+01 1.03949E+01 0.00000E+00
 -1      3226 8.57850E+01 1.03949E+01 0.00000E+00
 -1      3227 8.42850E+01 1.03949E+01 0.00000E+00
 -1      3228 8.35350E+01 1.15876E+01 0.00000E+00
 -1      3229 8.87850E+01 1.03949E+01 0.00000E+00
 -1      3230 8.72850E+01 1.03949E+01 0.00000E+00
 -1      3231 8.65350E+01 1.15876E+01 0.00000E+00
 -1      3232 9.17850E+01 1.03949E+01 0.00000E+00
 -1      3233 9.02850E+01 1.03949E+01 0.00000E+00
 -1      3234 8.95350E+01 1.15876E+01 0.00000E+00
 -1      3235 9.47850E+01 1.03949E+01 0.00000E+00
 -1      3236 9.32850E+01 1.03949E+01 0.00000E+00
 -1      3237 9.25350E+01 1.15876E+01 0.00000E+00
 -1      3238 9.77850E+01 1.03949E+01 0.00000E+00
 -1      3239 9.62850E+01 1.03949E+01 0.00000E+00
 -1      3240 9.55350E+01 1.15876E+01 0.00000E+00
 -1      3241 1.00785E+02 1.03949E+01 0.00000E+00
 -1      3242 9.92850E+01 1.03949E+01 0.00000E+00
 -1      3243 9.85350E+01 1.15876E+01 0.00000E+00
 -1      3244 1.03785E+02 1.03949E+01 0.00000E+00
 -1      3245 1.02285E+02 1.03949E+01 0.00000E+00
 -1      3246 1.01535E+02 1.15876E+01 0.00000E+00
 -1      3247 1.06785E+02 1.03949E+01 0.00000E+00
 -1      3248 1.05285E+02 1.03949E+01 0.00000E+00
 -1      3249 1.04535E+02 1.15876E+01 0.00000E+00
 -1      3250 1.09785E+02 1.03949E+01 0.00000E+00
 -1      3251 1.08285E+02 1.03949E+01 0.00000E+00
 -1      3252 1.07535E+02 1.15876E+01 0.00000E+00
 -1      3253 1.12785E+02 1.03949E+01 0.00000E+00
 -1      3254 1.11285E+02 1.03949E+01 0.00000E+00
 -1      3255 1.10535E+02 1.15876E+01 0.00000E+00
 -1      3256 1.15785E+02 1.03949E+01 0.00000E+00
 -1      3257 1.14285E+02 1.03949E+01 0.00000E+00
 -1      3258 1.13535E+02 1.15876E+01 0.00000E+00
 -1      3259 1.18785E+02 1.03949E+01 0.00000E+00
 -1      3260 1.17285E+02 1.03949E+01 0.00000E+00
 -1      3261 1.16535E+02 1.15876E+01 0.00000E+00
 -1      3262 1.21785E+02 1.03949E+01 0.00000E+00
 -1      3263 1.20285E+02 1.03949E+01 0.00000E+00
 -1      3264 1.19535E+02 1.15876E+01 0.00000E+00
 -1      3265 1.24785E+02 1.03949E+01 0.00000E+00
 -1      3266 1.23285E+02 1.03949E+01 0.00000E+00
 -1      3267 1.22535E+02 1.15876E+01 0.00000E+00
 -1      3268 1.27785E+02 1.03949E+01 0.00000E+00
 -1      3269 1.26285E+02 1.03949E+01 0.00000E+00
 -1      3270 1.25535E+02 1.15876E+01 0.00000E+00
 -1      3271 1.30785E+02 1.03949E+01 0.00000E+00
 -1      3272 1.29285E+02 1.03949E+01 0.00000E+00
 -1      3273 1.28535E+02 1.15876E+01 0.00000E+00
 -1      3274 1.33785E+02 1.03949E+01 0.00000E+00
 -1      3275 1.32285E+02 1.03949E+01 0.00000E+00
 -1      3276 1.31535E+02 1.15876E+01 0.00000E+00
 -1      3277 1.36785E+02 1.03949E+01 0.00000E+00
 -1      3278 1.35285E+02 1.03949E+01 0.00000E+00
 -1      3279 1.34535E+02 1.15876E+01 0.00000E+00
 -1      3280 1.38912E+02 1.09509E+01 0.00000E+00
 -1      3281 1.37744E+02 1.06702E+01 0.00000E+00
 -1      3282 1.36994E+02 1.18629E+01 0.00000E+00
 -1      3283 1.38912E+02 1.24134E+01 0.00000E+00
 -1      3284 1.38309E+02 2.86750E+01 0.00000E+00
 -1      3285 1.38309E+02 2.72250E+01 0.00000E+00
 -1      3286 7.02564E+01 1.44114E+01 0.00000E+00
 -1      3287 7.16592E+01 1.39451E+01 0.00000E+00
 -1      3288 1.38309E+02 2.57500E+01 0.00000E+00
 -1      3289 1.38309E+02 2.42750E+01 0.00000E+00
 -1      3290 1.37010E+02 2.64750E+01 0.00000E+00
 -1      3291 7.54006E+01 1.28263E+01 0.00000E+00
 -1      3292 7.69592E+01 1.26030E+01 0.00000E+00
 -1      3293 7.84592E+01 1.25192E+01 0.00000E+00
 -1      3294 7.98364E+01 1.27928E+01 0.00000E+00
 -1      3295 6.26330E+01 2.69178E+01 0.00000E+00
 -1      3296 6.27711E+01 2.56748E+01 0.00000E+00
 -1      3297 1.16910E+01 2.12875E+01 0.00000E+00
 -1      3298 1.16910E+01 2.27625E+01 0.00000E+00
 -1      3299 9.03505E+01 2.15930E+01 0.00000E+00
 -1      3300 9.08800E+01 2.31297E+01 0.00000E+00
 -1      3301 1.97850E+01 1.05013E+01 0.00000E+00
 -1      3302 1.82850E+01 1.05013E+01 0.00000E+00
 -1      3303 2.05350E+01 1.18003E+01 0.00000E+00
 -1      3304 6.47118E+01 2.11841E+01 0.00000E+00
 -1      3305 6.51532E+01 1.99030E+01 0.00000E+00
 -1      3306 6.65117E+01 3.73460E+01 0.00000E+00
 -1      3307 1.38309E+02 3.16250E+01 0.00000E+00
 -1      3308 1.38309E+02 3.01500E+01 0.00000E+00
 -1      3309 1.37010E+02 2.94250E+01 0.00000E+00
 -1      3310 1.38309E+02 3.45750E+01 0.00000E+00
 -1      3311 1.38309E+02 3.31000E+01 0.00000E+00
 -1      3312 1.37010E+02 3.23750E+01 0.00000E+00
 -1      3313 3.77850E+01 1.05013E+01 0.00000E+00
 -1      3314 3.62850E+01 1.05013E+01 0.00000E+00
 -1      3315 3.55350E+01 1.18003E+01 0.00000E+00
 -1      3316 3.85350E+01 1.18003E+01 0.00000E+00
 -1      3317 1.26488E+01 1.02017E+01 0.00000E+00
 -1      3318 1.20772E+01 1.14631E+01 0.00000E+00
 -1      3319 1.33763E+01 1.22006E+01 0.00000E+00
 -1      3320 1.41488E+01 1.02017E+01 0.00000E+00
 -1      3321 6.55766E+01 3.50525E+01 0.00000E+00
 -1      3322 6.49064E+01 3.38852E+01 0.00000E+00
 -1      3323 7.67228E+01 4.08192E+01 0.00000E+00
 -1      3324 1.59000E+01 3.83090E+01 0.00000E+00
 -1      3325 1.74000E+01 3.83090E+01 0.00000E+00
 -1      3326 1.81500E+01 3.70100E+01 0.00000E+00
 -1      3327 9.03902E+01 2.75498E+01 0.00000E+00
 -1      3328 9.02751E+01 2.86189E+01 0.00000E+00
 -1      3329 8.83952E+01 3.54562E+01 0.00000E+00
 -1      3330 8.73938E+01 3.68071E+01 0.00000E+00
 -1      3331 8.70714E+01 1.67333E+01 0.00000E+00
 -1      3332 8.77986E+01 1.76465E+01 0.00000E+00
 -1      3333 6.57813E+01 1.85366E+01 0.00000E+00
 -1      3334 6.64087E+01 1.77627E+01 0.00000E+00
 -1      3335 6.42183E+01 3.29282E+01 0.00000E+00
 -1      3336 6.35303E+01 3.19713E+01 0.00000E+00
 -1      3337 6.35917E+01 3.40640E+01 0.00000E+00
 -1      3338 9.08915E+01 2.48856E+01 0.00000E+00
 -1      3339 9.06408E+01 2.62177E+01 0.00000E+00
 -1      3340 9.14359E+01 2.68440E+01 0.00000E+00
 -1      3341 8.13364E+01 1.28766E+01 0.00000E+00
 -1      3342 8.28412E+01 1.32073E+01 0.00000E+00
 -1      3343 9.02805E+01 2.99309E+01 0.00000E+00
 -1      3344 8.99798E+01 3.11852E+01 0.00000E+00
 -1      3345 9.08954E+01 3.20545E+01 0.00000E+00
 -1      3346 7.00955E+01 3.78549E+01 0.00000E+00
 -1      3347 8.86699E+01 1.88425E+01 0.00000E+00
 -1      3348 8.95411E+01 2.00385E+01 0.00000E+00
 -1      3349 8.91737E+01 1.76951E+01 0.00000E+00
 -1      3350 7.29510E+01 1.35583E+01 0.00000E+00
 -1      3351 7.40054E+01 1.32882E+01 0.00000E+00
 -1      3352 6.31039E+01 3.01859E+01 0.00000E+00
 -1      3353 6.28585E+01 2.85990E+01 0.00000E+00
 -1      3354 7.52228E+01 4.08192E+01 0.00000E+00
 -1      3355 1.16910E+01 2.42375E+01 0.00000E+00
 -1      3356 1.16910E+01 2.57125E+01 0.00000E+00
 -1      3357 1.29900E+01 2.35000E+01 0.00000E+00
 -1      3358 1.29900E+01 1.46687E+01 0.00000E+00
 -1      3359 1.16910E+01 1.54063E+01 0.00000E+00
 -1      3360 1.16910E+01 1.68750E+01 0.00000E+00
 -1      3361 1.16299E+01 3.74672E+01 0.00000E+00
 -1      3362 1.16783E+01 3.85855E+01 0.00000E+00
 -1      3363 1.28194E+01 3.85536E+01 0.00000E+00
 -1      3364 9.11907E+01 2.94881E+01 0.00000E+00
 -1      3365 9.08543E+01 2.04456E+01 0.00000E+00
 -1      3366 8.96223E+01 3.51594E+01 0.00000E+00
 -1      3367 1.16910E+01 3.30594E+01 0.00000E+00
 -1      3368 1.16910E+01 3.45281E+01 0.00000E+00
 -1      3369 8.27046E+01 3.93081E+01 0.00000E+00
 -1      3370 2.57850E+01 1.05013E+01 0.00000E+00
 -1      3371 2.42850E+01 1.05013E+01 0.00000E+00
 -1      3372 2.35350E+01 1.18003E+01 0.00000E+00
 -1      3373 1.39605E+01 3.85216E+01 0.00000E+00
 -1      3374 6.46706E+01 1.88705E+01 0.00000E+00
 -1      3375 2.95350E+01 1.18003E+01 0.00000E+00
 -1      3376 2.87850E+01 1.05013E+01 0.00000E+00
 -1      3377 2.72850E+01 1.05013E+01 0.00000E+00
 -1      3378 7.46398E+01 1.20495E+01 0.00000E+00
 -1      3379 7.38898E+01 1.08568E+01 0.00000E+00
 -1      3380 7.23898E+01 1.08568E+01 0.00000E+00
 -1      3381 7.16398E+01 1.21558E+01 0.00000E+00
 -1      3382 7.75350E+01 1.15039E+01 0.00000E+00
 -1      3383 8.05350E+01 1.15039E+01 0.00000E+00
 -1      3384 1.38309E+02 1.98625E+01 0.00000E+00
 -1      3385 1.38309E+02 1.83875E+01 0.00000E+00
 -1      3386 1.38309E+02 2.28062E+01 0.00000E+00
 -1      3387 1.38309E+02 2.13312E+01 0.00000E+00
 -1      3388 1.37010E+02 2.05938E+01 0.00000E+00
 -1      3389 1.37010E+02 2.35313E+01 0.00000E+00
 -1      3390 6.12743E+01 2.53142E+01 0.00000E+00
 -1      3391 6.24455E+01 2.48151E+01 0.00000E+00
 -1      3392 6.21199E+01 2.39554E+01 0.00000E+00
 -1      3393 8.66438E+01 3.81061E+01 0.00000E+00
 -1      3394 6.18254E+01 2.78550E+01 0.00000E+00
 -1      3395 9.24588E+01 2.26264E+01 0.00000E+00
 -1      3396 9.16751E+01 2.37560E+01 0.00000E+00
 -1      3397 9.24702E+01 2.43823E+01 0.00000E+00
 -1      3398 6.36668E+01 2.18466E+01 0.00000E+00
 -1      3399 6.57617E+01 3.60470E+01 0.00000E+00
 -1      3400 6.65516E+01 1.66208E+01 0.00000E+00
 -1      3401 1.16910E+01 3.15906E+01 0.00000E+00
 -1      3402 1.29900E+01 3.23250E+01 0.00000E+00
 -1      3403 1.16910E+01 3.01219E+01 0.00000E+00
 -1      3404 8.59224E+01 3.88756E+01 0.00000E+00
 -1      3405 8.72392E+01 1.54646E+01 0.00000E+00
 -1      3406 1.37076E+02 1.78847E+01 0.00000E+00
 -1      3407 1.38375E+02 1.71472E+01 0.00000E+00
 -1      3408 1.38440E+02 1.59068E+01 0.00000E+00
 -1      3409 8.44224E+01 3.88756E+01 0.00000E+00
 -1      3410 1.16910E+01 1.83469E+01 0.00000E+00
 -1      3411 1.16910E+01 1.98156E+01 0.00000E+00
 -1      3412 1.29900E+01 2.05531E+01 0.00000E+00
 -1      3413 1.29900E+01 1.76094E+01 0.00000E+00
 -1      3414 1.47105E+01 3.72226E+01 0.00000E+00
 -1      3415 6.44649E+01 3.60155E+01 0.00000E+00
 -1      3416 8.43412E+01 1.32073E+01 0.00000E+00
 -1      3417 1.69669E+01 1.03515E+01 0.00000E+00
 -1      3418 1.54669E+01 1.03515E+01 0.00000E+00
 -1      3419 1.50806E+01 1.13509E+01 0.00000E+00
 -1      3420 1.77169E+01 1.16505E+01 0.00000E+00
 -1      3421 1.37758E+02 3.64975E+01 0.00000E+00
 -1      3422 1.38123E+02 3.54205E+01 0.00000E+00
 -1      3423 1.36824E+02 3.46955E+01 0.00000E+00
 -1      3424 1.36451E+02 3.63865E+01 0.00000E+00
 -1      3425 6.18507E+01 3.24574E+01 0.00000E+00
 -1      3426 6.24773E+01 3.13216E+01 0.00000E+00
 -1      3427 6.14243E+01 3.06720E+01 0.00000E+00
 -1      3428 8.56055E+01 1.30089E+01 0.00000E+00
 -1      3429 1.15815E+01 3.63489E+01 0.00000E+00
 -1      3430 6.33490E+01 1.90905E+01 0.00000E+00
 -1      3431 6.39771E+01 1.77241E+01 0.00000E+00
 -1      3432 1.38643E+02 1.47803E+01 0.00000E+00
 -1      3433 1.38709E+02 1.35399E+01 0.00000E+00
 -1      3434 1.37750E+02 1.32647E+01 0.00000E+00
 -1      3435 1.37344E+02 1.55178E+01 0.00000E+00
 -1      3436 6.52862E+01 1.61561E+01 0.00000E+00
 -1      3437 6.65391E+01 1.52728E+01 0.00000E+00
 -1      3438 2.34000E+01 3.57110E+01 0.00000E+00
 -1      3439 2.49000E+01 3.57110E+01 0.00000E+00
 -1      3440 2.64000E+01 3.57110E+01 0.00000E+00
 -1      3441 2.79000E+01 3.57110E+01 0.00000E+00
 -1      3442 2.56500E+01 3.44120E+01 0.00000E+00
 -1      3443 2.94000E+01 3.57110E+01 0.00000E+00
 -1      3444 3.09000E+01 3.57110E+01 0.00000E+00
 -1      3445 2.86500E+01 3.44120E+01 0.00000E+00
 -1      3446 3.24000E+01 3.57110E+01 0.00000E+00
 -1      3447 3.39000E+01 3.57110E+01 0.00000E+00
 -1      3448 3.16500E+01 3.44120E+01 0.00000E+00
 -1      3449 3.54000E+01 3.57110E+01 0.00000E+00
 -1      3450 3.69000E+01 3.57110E+01 0.00000E+00
 -1      3451 3.46500E+01 3.44120E+01 0.00000E+00
 -1      3452 3.84000E+01 3.57110E+01 0.00000E+00
 -1      3453 3.99000E+01 3.57110E+01 0.00000E+00
 -1      3454 3.76500E+01 3.44120E+01 0.00000E+00
 -1      3455 4.14000E+01 3.57110E+01 0.00000E+00
 -1      3456 4.29000E+01 3.57110E+01 0.00000E+00
 -1      3457 4.06500E+01 3.44120E+01 0.00000E+00
 -1      3458 4.44000E+01 3.57110E+01 0.00000E+00
 -1      3459 4.59000E+01 3.57110E+01 0.00000E+00
 -1      3460 4.36500E+01 3.44120E+01 0.00000E+00
 -1      3461 4.74000E+01 3.57110E+01 0.00000E+00
 -1      3462 4.89000E+01 3.57110E+01 0.00000E+00
 -1      3463 4.66500E+01 3.44120E+01 0.00000E+00
 -1      3464 5.04000E+01 3.57110E+01 0.00000E+00
 -1      3465 5.19000E+01 3.57110E+01 0.00000E+00
 -1      3466 4.96500E+01 3.44120E+01 0.00000E+00
 -1      3467 5.34000E+01 3.57110E+01 0.00000E+00
 -1      3468 5.49000E+01 3.57110E+01 0.00000E+00
 -1      3469 5.26500E+01 3.44120E+01 0.00000E+00
 -1      3470 5.64000E+01 3.57110E+01 0.00000E+00
 -1      3471 5.79000E+01 3.57110E+01 0.00000E+00
 -1      3472 5.56500E+01 3.44120E+01 0.00000E+00
 -1      3473 6.29649E+01 3.60155E+01 0.00000E+00
 -1      3474 1.35711E+02 3.01625E+01 0.00000E+00
 -1      3475 1.35711E+02 2.86875E+01 0.00000E+00
 -1      3476 9.24000E+01 3.57110E+01 0.00000E+00
 -1      3477 9.39000E+01 3.57110E+01 0.00000E+00
 -1      3478 9.54000E+01 3.57110E+01 0.00000E+00
 -1      3479 9.69000E+01 3.57110E+01 0.00000E+00
 -1      3480 9.46500E+01 3.44120E+01 0.00000E+00
 -1      3481 9.84000E+01 3.57110E+01 0.00000E+00
 -1      3482 9.99000E+01 3.57110E+01 0.00000E+00
 -1      3483 9.76500E+01 3.44120E+01 0.00000E+00
 -1      3484 1.01400E+02 3.57110E+01 0.00000E+00
 -1      3485 1.02900E+02 3.57110E+01 0.00000E+00
 -1      3486 1.00650E+02 3.44120E+01 0.00000E+00
 -1      3487 1.04400E+02 3.57110E+01 0.00000E+00
 -1      3488 1.05900E+02 3.57110E+01 0.00000E+00
 -1      3489 1.03650E+02 3.44120E+01 0.00000E+00
 -1      3490 1.07400E+02 3.57110E+01 0.00000E+00
 -1      3491 1.08900E+02 3.57110E+01 0.00000E+00
 -1      3492 1.06650E+02 3.44120E+01 0.00000E+00
 -1      3493 1.10400E+02 3.57110E+01 0.00000E+00
 -1      3494 1.11900E+02 3.57110E+01 0.00000E+00
 -1      3495 1.09650E+02 3.44120E+01 0.00000E+00
 -1      3496 1.13400E+02 3.57110E+01 0.00000E+00
 -1      3497 1.14900E+02 3.57110E+01 0.00000E+00
 -1      3498 1.12650E+02 3.44120E+01 0.00000E+00
 -1      3499 1.16400E+02 3.57110E+01 0.00000E+00
 -1      3500 1.17900E+02 3.57110E+01 0.00000E+00
 -1      3501 1.15650E+02 3.44120E+01 0.00000E+00
 -1      3502 1.19400E+02 3.57110E+01 0.00000E+00
 -1      3503 1.20900E+02 3.57110E+01 0.00000E+00
 -1      3504 1.18650E+02 3.44120E+01 0.00000E+00
 -1      3505 1.22400E+02 3.57110E+01 0.00000E+00
 -1      3506 1.23900E+02 3.57110E+01 0.00000E+00
 -1      3507 1.21650E+02 3.44120E+01 0.00000E+00
 -1      3508 1.25400E+02 3.57110E+01 0.00000E+00
 -1      3509 1.26900E+02 3.57110E+01 0.00000E+00
 -1      3510 1.24650E+02 3.44120E+01 0.00000E+00
 -1      3511 1.28400E+02 3.57110E+01 0.00000E+00
 -1      3512 1.29900E+02 3.57110E+01 0.00000E+00
 -1      3513 1.27650E+02 3.44120E+01 0.00000E+00
 -1      3514 1.31400E+02 3.57110E+01 0.00000E+00
 -1      3515 1.32900E+02 3.57110E+01 0.00000E+00
 -1      3516 1.30650E+02 3.44120E+01 0.00000E+00
 -1      3517 9.22969E+01 2.88276E+01 0.00000E+00
 -1      3518 9.23022E+01 3.01396E+01 0.00000E+00
 -1      3519 4.52850E+01 1.30992E+01 0.00000E+00
 -1      3520 4.37850E+01 1.30992E+01 0.00000E+00
 -1      3521 4.22850E+01 1.30992E+01 0.00000E+00
 -1      3522 4.07850E+01 1.30992E+01 0.00000E+00
 -1      3523 4.30350E+01 1.43982E+01 0.00000E+00
 -1      3524 5.12850E+01 1.30992E+01 0.00000E+00
 -1      3525 4.97850E+01 1.30992E+01 0.00000E+00
 -1      3526 5.42850E+01 1.30992E+01 0.00000E+00
 -1      3527 5.27850E+01 1.30992E+01 0.00000E+00
 -1      3528 5.20350E+01 1.43982E+01 0.00000E+00
 -1      3529 5.72850E+01 1.30992E+01 0.00000E+00
 -1      3530 5.57850E+01 1.30992E+01 0.00000E+00
 -1      3531 5.50350E+01 1.43982E+01 0.00000E+00
 -1      3532 6.02850E+01 1.30992E+01 0.00000E+00
 -1      3533 5.87850E+01 1.30992E+01 0.00000E+00
 -1      3534 5.80350E+01 1.43982E+01 0.00000E+00
 -1      3535 6.61543E+01 1.33042E+01 0.00000E+00
 -1      3536 6.46543E+01 1.33042E+01 0.00000E+00
 -1      3537 6.89197E+01 1.37689E+01 0.00000E+00
 -1      3538 6.74197E+01 1.37689E+01 0.00000E+00
 -1      3539 9.32850E+01 1.28866E+01 0.00000E+00
 -1      3540 9.17850E+01 1.28866E+01 0.00000E+00
 -1      3541 9.62850E+01 1.28866E+01 0.00000E+00
 -1      3542 9.47850E+01 1.28866E+01 0.00000E+00
 -1      3543 9.40350E+01 1.41856E+01 0.00000E+00
 -1      3544 9.92850E+01 1.28866E+01 0.00000E+00
 -1      3545 9.77850E+01 1.28866E+01 0.00000E+00
 -1      3546 9.70350E+01 1.41856E+01 0.00000E+00
 -1      3547 1.02285E+02 1.28866E+01 0.00000E+00
 -1      3548 1.00785E+02 1.28866E+01 0.00000E+00
 -1      3549 1.00035E+02 1.41856E+01 0.00000E+00
 -1      3550 1.05285E+02 1.28866E+01 0.00000E+00
 -1      3551 1.03785E+02 1.28866E+01 0.00000E+00
 -1      3552 1.03035E+02 1.41856E+01 0.00000E+00
 -1      3553 1.08285E+02 1.28866E+01 0.00000E+00
 -1      3554 1.06785E+02 1.28866E+01 0.00000E+00
 -1      3555 1.06035E+02 1.41856E+01 0.00000E+00
 -1      3556 1.11285E+02 1.28866E+01 0.00000E+00
 -1      3557 1.09785E+02 1.28866E+01 0.00000E+00
 -1      3558 1.09035E+02 1.41856E+01 0.00000E+00
 -1      3559 1.14285E+02 1.28866E+01 0.00000E+00
 -1      3560 1.12785E+02 1.28866E+01 0.00000E+00
 -1      3561 1.12035E+02 1.41856E+01 0.00000E+00
 -1      3562 1.17285E+02 1.28866E+01 0.00000E+00
 -1      3563 1.15785E+02 1.28866E+01 0.00000E+00
 -1      3564 1.15035E+02 1.41856E+01 0.00000E+00
 -1      3565 1.20285E+02 1.28866E+01 0.00000E+00
 -1      3566 1.18785E+02 1.28866E+01 0.00000E+00
 -1      3567 1.18035E+02 1.41856E+01 0.00000E+00
 -1      3568 1.23285E+02 1.28866E+01 0.00000E+00
 -1      3569 1.21785E+02 1.28866E+01 0.00000E+00
 -1      3570 1.21035E+02 1.41856E+01 0.00000E+00
 -1      3571 1.26285E+02 1.28866E+01 0.00000E+00
 -1      3572 1.24785E+02 1.28866E+01 0.00000E+00
 -1      3573 1.24035E+02 1.41856E+01 0.00000E+00
 -1      3574 1.29285E+02 1.28866E+01 0.00000E+00
 -1      3575 1.27785E+02 1.28866E+01 0.00000E+00
 -1      3576 1.27035E+02 1.41856E+01 0.00000E+00
 -1      3577 1.32285E+02 1.28866E+01 0.00000E+00
 -1      3578 1.30785E+02 1.28866E+01 0.00000E+00
 -1      3579 1.30035E+02 1.41856E+01 0.00000E+00
 -1      3580 1.35285E+02 1.28866E+01 0.00000E+00
 -1      3581 1.33785E+02 1.28866E+01 0.00000E+00
 -1      3582 1.33035E+02 1.41856E+01 0.00000E+00
 -1      3583 1.35711E+02 3.31125E+01 0.00000E+00
 -1      3584 1.35711E+02 3.16375E+01 0.00000E+00
 -1      3585 1.34412E+02 3.09000E+01 0.00000E+00
 -1      3586 3.32850E+01 1.30992E+01 0.00000E+00
 -1      3587 3.17850E+01 1.30992E+01 0.00000E+00
 -1      3588 7.19527E+01 1.28982E+01 0.00000E+00
 -1      3589 9.16019E+01 1.90685E+01 0.00000E+00
 -1      3590 9.24112E+01 2.06230E+01 0.00000E+00
 -1      3591 6.27518E+01 3.47150E+01 0.00000E+00
 -1      3592 6.20638E+01 3.37580E+01 0.00000E+00
 -1      3593 6.10108E+01 3.31084E+01 0.00000E+00
 -1      3594 6.14369E+01 3.57094E+01 0.00000E+00
 -1      3595 9.11223E+01 3.51594E+01 0.00000E+00
 -1      3596 1.35992E+01 3.60377E+01 0.00000E+00
 -1      3597 1.55387E+01 3.58251E+01 0.00000E+00
 -1      3598 1.35711E+02 2.72125E+01 0.00000E+00
 -1      3599 1.35711E+02 2.57375E+01 0.00000E+00
 -1      3600 1.34412E+02 2.79500E+01 0.00000E+00
 -1      3601 9.27982E+01 2.61634E+01 0.00000E+00
 -1      3602 9.25475E+01 2.74955E+01 0.00000E+00
 -1      3603 9.36591E+01 2.81469E+01 0.00000E+00
 -1      3604 8.71055E+01 1.30089E+01 0.00000E+00
 -1      3605 1.16910E+01 2.71844E+01 0.00000E+00
 -1      3606 1.16910E+01 2.86531E+01 0.00000E+00
 -1      3607 1.29900E+01 2.93875E+01 0.00000E+00
 -1      3608 4.82850E+01 1.30992E+01 0.00000E+00
 -1      3609 4.67850E+01 1.30992E+01 0.00000E+00
 -1      3610 4.60350E+01 1.43982E+01 0.00000E+00
 -1      3611 4.90350E+01 1.43982E+01 0.00000E+00
 -1      3612 1.74000E+01 3.57110E+01 0.00000E+00
 -1      3613 1.89000E+01 3.57110E+01 0.00000E+00
 -1      3614 6.08391E+01 2.88431E+01 0.00000E+00
 -1      3615 6.06136E+01 2.71619E+01 0.00000E+00
 -1      3616 2.04000E+01 3.57110E+01 0.00000E+00
 -1      3617 2.19000E+01 3.57110E+01 0.00000E+00
 -1      3618 2.26500E+01 3.44120E+01 0.00000E+00
 -1      3619 9.22055E+01 3.17053E+01 0.00000E+00
 -1      3620 9.19049E+01 3.29597E+01 0.00000E+00
 -1      3621 8.97881E+01 1.63323E+01 0.00000E+00
 -1      3622 9.06593E+01 1.75283E+01 0.00000E+00
 -1      3623 8.79152E+01 1.41533E+01 0.00000E+00
 -1      3624 8.89784E+01 1.51878E+01 0.00000E+00
 -1      3625 9.04640E+01 1.50210E+01 0.00000E+00
 -1      3626 8.88447E+01 1.27321E+01 0.00000E+00
 -1      3627 2.12850E+01 1.30992E+01 0.00000E+00
 -1      3628 1.97850E+01 1.30992E+01 0.00000E+00
 -1      3629 6.24806E+01 2.24185E+01 0.00000E+00
 -1      3630 6.28563E+01 2.08087E+01 0.00000E+00
 -1      3631 1.42890E+01 1.39344E+01 0.00000E+00
 -1      3632 1.42890E+01 1.54031E+01 0.00000E+00
 -1      3633 6.21628E+01 1.96624E+01 0.00000E+00
 -1      3634 9.31825E+01 3.35113E+01 0.00000E+00
 -1      3635 9.18723E+01 3.38604E+01 0.00000E+00
 -1      3636 5.99369E+01 3.57094E+01 0.00000E+00
 -1      3637 3.10350E+01 1.43982E+01 0.00000E+00
 -1      3638 3.02850E+01 1.30992E+01 0.00000E+00
 -1      3639 2.87850E+01 1.30992E+01 0.00000E+00
 -1      3640 1.62887E+01 3.45261E+01 0.00000E+00
 -1      3641 5.95859E+01 3.11146E+01 0.00000E+00
 -1      3642 6.02125E+01 2.99788E+01 0.00000E+00
 -1      3643 5.90007E+01 2.92857E+01 0.00000E+00
 -1      3644 2.65350E+01 1.18003E+01 0.00000E+00
 -1      3645 1.29900E+01 2.64469E+01 0.00000E+00
 -1      3646 6.02880E+01 2.63022E+01 0.00000E+00
 -1      3647 5.99624E+01 2.54426E+01 0.00000E+00
 -1      3648 5.93017E+01 2.72902E+01 0.00000E+00
 -1      3649 1.90350E+01 1.43983E+01 0.00000E+00
 -1      3650 1.82850E+01 1.30993E+01 0.00000E+00
 -1      3651 1.34022E+02 3.59933E+01 0.00000E+00
 -1      3652 1.35329E+02 3.61043E+01 0.00000E+00
 -1      3653 1.35515E+02 3.52588E+01 0.00000E+00
 -1      3654 1.33272E+02 3.46942E+01 0.00000E+00
 -1      3655 1.96500E+01 3.44120E+01 0.00000E+00
 -1      3656 1.48779E+01 1.21429E+01 0.00000E+00
 -1      3657 1.44917E+01 1.31424E+01 0.00000E+00
 -1      3658 1.57907E+01 1.38767E+01 0.00000E+00
 -1      3659 1.61961E+01 1.22927E+01 0.00000E+00
 -1      3660 1.35711E+02 2.13281E+01 0.00000E+00
 -1      3661 1.35711E+02 1.98594E+01 0.00000E+00
 -1      3662 4.00350E+01 1.43982E+01 0.00000E+00
 -1      3663 3.92850E+01 1.30992E+01 0.00000E+00
 -1      3664 3.77850E+01 1.30992E+01 0.00000E+00
 -1      3665 6.42203E+01 1.47301E+01 0.00000E+00
 -1      3666 6.36009E+01 1.32262E+01 0.00000E+00
 -1      3667 6.21009E+01 1.32262E+01 0.00000E+00
 -1      3668 6.42327E+01 1.60781E+01 0.00000E+00
 -1      3669 6.13509E+01 1.45252E+01 0.00000E+00
 -1      3670 9.10947E+01 1.40311E+01 0.00000E+00
 -1      3671 9.03447E+01 1.27321E+01 0.00000E+00
 -1      3672 7.03479E+01 1.25426E+01 0.00000E+00
 -1      3673 9.35818E+01 2.50337E+01 0.00000E+00
 -1      3674 1.34478E+02 1.93534E+01 0.00000E+00
 -1      3675 1.35777E+02 1.86190E+01 0.00000E+00
 -1      3676 1.35842E+02 1.73787E+01 0.00000E+00
 -1      3677 1.36791E+02 1.29894E+01 0.00000E+00
 -1      3678 3.47850E+01 1.30992E+01 0.00000E+00
 -1      3679 3.40350E+01 1.43982E+01 0.00000E+00
 -1      3680 3.62850E+01 1.30992E+01 0.00000E+00
 -1      3681 6.92327E+01 1.45113E+01 0.00000E+00
 -1      3682 9.22162E+01 1.77056E+01 0.00000E+00
 -1      3683 2.27850E+01 1.30992E+01 0.00000E+00
 -1      3684 2.20350E+01 1.43982E+01 0.00000E+00
 -1      3685 2.42850E+01 1.30992E+01 0.00000E+00
 -1      3686 1.34412E+02 2.50063E+01 0.00000E+00
 -1      3687 1.35711E+02 2.42687E+01 0.00000E+00
 -1      3688 1.35711E+02 2.28000E+01 0.00000E+00
 -1      3689 1.35702E+02 3.44132E+01 0.00000E+00
 -1      3690 6.29111E+01 1.62982E+01 0.00000E+00
 -1      3691 5.91869E+01 3.44104E+01 0.00000E+00
 -1      3692 9.32063E+01 2.12493E+01 0.00000E+00
 -1      3693 9.40014E+01 2.18755E+01 0.00000E+00
 -1      3694 9.39538E+01 1.98721E+01 0.00000E+00
 -1      3695 1.36041E+02 1.42884E+01 0.00000E+00
 -1      3696 1.28805E+01 3.56145E+01 0.00000E+00
 -1      3697 1.42890E+01 2.27625E+01 0.00000E+00
 -1      3698 1.42890E+01 2.42375E+01 0.00000E+00
 -1      3699 1.69669E+01 1.29495E+01 0.00000E+00
 -1      3700 1.42890E+01 1.98188E+01 0.00000E+00
 -1      3701 1.42890E+01 2.12906E+01 0.00000E+00
 -1      3702 1.55880E+01 2.20281E+01 0.00000E+00
 -1      3703 1.34403E+02 3.36758E+01 0.00000E+00
 -1      3704 9.33118E+01 3.10448E+01 0.00000E+00
 -1      3705 6.13095E+01 2.29176E+01 0.00000E+00
 -1      3706 1.37087E+01 3.42169E+01 0.00000E+00
 -1      3707 1.37087E+01 3.27482E+01 0.00000E+00
 -1      3708 1.44274E+01 3.31713E+01 0.00000E+00
 -1      3709 1.37087E+01 3.12794E+01 0.00000E+00
 -1      3710 6.07700E+01 2.01928E+01 0.00000E+00
 -1      3711 6.12626E+01 1.84746E+01 0.00000E+00
 -1      3712 9.46825E+01 3.35113E+01 0.00000E+00
 -1      3713 2.79000E+01 3.31130E+01 0.00000E+00
 -1      3714 2.94000E+01 3.31130E+01 0.00000E+00
 -1      3715 3.09000E+01 3.31130E+01 0.00000E+00
 -1      3716 3.24000E+01 3.31130E+01 0.00000E+00
 -1      3717 3.01500E+01 3.18140E+01 0.00000E+00
 -1      3718 3.39000E+01 3.31130E+01 0.00000E+00
 -1      3719 3.54000E+01 3.31130E+01 0.00000E+00
 -1      3720 3.31500E+01 3.18140E+01 0.00000E+00
 -1      3721 3.69000E+01 3.31130E+01 0.00000E+00
 -1      3722 3.84000E+01 3.31130E+01 0.00000E+00
 -1      3723 3.61500E+01 3.18140E+01 0.00000E+00
 -1      3724 3.99000E+01 3.31130E+01 0.00000E+00
 -1      3725 4.14000E+01 3.31130E+01 0.00000E+00
 -1      3726 3.91500E+01 3.18140E+01 0.00000E+00
 -1      3727 4.29000E+01 3.31130E+01 0.00000E+00
 -1      3728 4.44000E+01 3.31130E+01 0.00000E+00
 -1      3729 4.21500E+01 3.18140E+01 0.00000E+00
 -1      3730 4.59000E+01 3.31130E+01 0.00000E+00
 -1      3731 4.74000E+01 3.31130E+01 0.00000E+00
 -1      3732 4.51500E+01 3.18140E+01 0.00000E+00
 -1      3733 4.89000E+01 3.31130E+01 0.00000E+00
 -1      3734 5.04000E+01 3.31130E+01 0.00000E+00
 -1      3735 4.81500E+01 3.18140E+01 0.00000E+00
 -1      3736 5.19000E+01 3.31130E+01 0.00000E+00
 -1      3737 5.34000E+01 3.31130E+01 0.00000E+00
 -1      3738 5.11500E+01 3.18140E+01 0.00000E+00
 -1      3739 5.49000E+01 3.31130E+01 0.00000E+00
 -1      3740 5.64000E+01 3.31130E+01 0.00000E+00
 -1      3741 5.41500E+01 3.18140E+01 0.00000E+00
 -1      3742 4.37850E+01 1.56973E+01 0.00000E+00
 -1      3743 4.22850E+01 1.56973E+01 0.00000E+00
 -1      3744 1.33281E+02 3.33935E+01 0.00000E+00
 -1      3745 1.97850E+01 1.56973E+01 0.00000E+00
 -1      3746 1.82851E+01 1.56973E+01 0.00000E+00
 -1      3747 1.62887E+01 3.30573E+01 0.00000E+00
 -1      3748 1.89000E+01 3.31130E+01 0.00000E+00
 -1      3749 2.04000E+01 3.31130E+01 0.00000E+00
 -1      3750 9.69000E+01 3.31130E+01 0.00000E+00
 -1      3751 9.84000E+01 3.31130E+01 0.00000E+00
 -1      3752 9.99000E+01 3.31130E+01 0.00000E+00
 -1      3753 1.01400E+02 3.31130E+01 0.00000E+00
 -1      3754 9.91500E+01 3.18140E+01 0.00000E+00
 -1      3755 1.02900E+02 3.31130E+01 0.00000E+00
 -1      3756 1.04400E+02 3.31130E+01 0.00000E+00
 -1      3757 1.02150E+02 3.18140E+01 0.00000E+00
 -1      3758 1.05900E+02 3.31130E+01 0.00000E+00
 -1      3759 1.07400E+02 3.31130E+01 0.00000E+00
 -1      3760 1.05150E+02 3.18140E+01 0.00000E+00
 -1      3761 1.08900E+02 3.31130E+01 0.00000E+00
 -1      3762 1.10400E+02 3.31130E+01 0.00000E+00
 -1      3763 1.08150E+02 3.18140E+01 0.00000E+00
 -1      3764 1.11900E+02 3.31130E+01 0.00000E+00
 -1      3765 1.13400E+02 3.31130E+01 0.00000E+00
 -1      3766 1.11150E+02 3.18140E+01 0.00000E+00
 -1      3767 1.14900E+02 3.31130E+01 0.00000E+00
 -1      3768 1.16400E+02 3.31130E+01 0.00000E+00
 -1      3769 1.14150E+02 3.18140E+01 0.00000E+00
 -1      3770 1.17900E+02 3.31130E+01 0.00000E+00
 -1      3771 1.19400E+02 3.31130E+01 0.00000E+00
 -1      3772 1.17150E+02 3.18140E+01 0.00000E+00
 -1      3773 1.20900E+02 3.31130E+01 0.00000E+00
 -1      3774 1.22400E+02 3.31130E+01 0.00000E+00
 -1      3775 1.20150E+02 3.18140E+01 0.00000E+00
 -1      3776 1.23900E+02 3.31130E+01 0.00000E+00
 -1      3777 1.25400E+02 3.31130E+01 0.00000E+00
 -1      3778 1.23150E+02 3.18140E+01 0.00000E+00
 -1      3779 1.26900E+02 3.31130E+01 0.00000E+00
 -1      3780 1.28400E+02 3.31130E+01 0.00000E+00
 -1      3781 1.26150E+02 3.18140E+01 0.00000E+00
 -1      3782 1.29900E+02 3.31130E+01 0.00000E+00
 -1      3783 1.31400E+02 3.31130E+01 0.00000E+00
 -1      3784 1.29150E+02 3.18140E+01 0.00000E+00
 -1      3785 5.57850E+01 1.56973E+01 0.00000E+00
 -1      3786 5.42850E+01 1.56973E+01 0.00000E+00
 -1      3787 5.27850E+01 1.56973E+01 0.00000E+00
 -1      3788 5.12850E+01 1.56973E+01 0.00000E+00
 -1      3789 5.35350E+01 1.69963E+01 0.00000E+00
 -1      3790 9.19043E+01 1.51755E+01 0.00000E+00
 -1      3791 1.55880E+01 1.61406E+01 0.00000E+00
 -1      3792 1.42890E+01 1.68750E+01 0.00000E+00
 -1      3793 1.42890E+01 1.83469E+01 0.00000E+00
 -1      3794 9.49043E+01 1.51755E+01 0.00000E+00
 -1      3795 9.34043E+01 1.51755E+01 0.00000E+00
 -1      3796 9.27736E+01 1.61654E+01 0.00000E+00
 -1      3797 1.03785E+02 1.54846E+01 0.00000E+00
 -1      3798 1.02285E+02 1.54846E+01 0.00000E+00
 -1      3799 1.06785E+02 1.54846E+01 0.00000E+00
 -1      3800 1.05285E+02 1.54846E+01 0.00000E+00
 -1      3801 1.04535E+02 1.67836E+01 0.00000E+00
 -1      3802 1.09785E+02 1.54846E+01 0.00000E+00
 -1      3803 1.08285E+02 1.54846E+01 0.00000E+00
 -1      3804 1.07535E+02 1.67836E+01 0.00000E+00
 -1      3805 1.12785E+02 1.54846E+01 0.00000E+00
 -1      3806 1.11285E+02 1.54846E+01 0.00000E+00
 -1      3807 1.10535E+02 1.67836E+01 0.00000E+00
 -1      3808 1.15785E+02 1.54846E+01 0.00000E+00
 -1      3809 1.14285E+02 1.54846E+01 0.00000E+00
 -1      3810 1.13535E+02 1.67836E+01 0.00000E+00
 -1      3811 1.18785E+02 1.54846E+01 0.00000E+00
 -1      3812 1.17285E+02 1.54846E+01 0.00000E+00
 -1      3813 1.16535E+02 1.67836E+01 0.00000E+00
 -1      3814 1.21785E+02 1.54846E+01 0.00000E+00
 -1      3815 1.20285E+02 1.54846E+01 0.00000E+00
 -1      3816 1.19535E+02 1.67836E+01 0.00000E+00
 -1      3817 1.24785E+02 1.54846E+01 0.00000E+00
 -1      3818 1.23285E+02 1.54846E+01 0.00000E+00
 -1      3819 1.22535E+02 1.67836E+01 0.00000E+00
 -1      3820 1.27785E+02 1.54846E+01 0.00000E+00
 -1      3821 1.26285E+02 1.54846E+01 0.00000E+00
 -1      3822 1.25535E+02 1.67836E+01 0.00000E+00
 -1      3823 1.30785E+02 1.54846E+01 0.00000E+00
 -1      3824 1.29285E+02 1.54846E+01 0.00000E+00
 -1      3825 1.28535E+02 1.67836E+01 0.00000E+00
 -1      3826 9.43833E+01 3.03251E+01 0.00000E+00
 -1      3827 9.42866E+01 3.18908E+01 0.00000E+00
 -1      3828 6.10952E+01 1.61712E+01 0.00000E+00
 -1      3829 9.45084E+01 2.39424E+01 0.00000E+00
 -1      3830 9.48364E+01 2.57235E+01 0.00000E+00
 -1      3831 5.89739E+01 3.31099E+01 0.00000E+00
 -1      3832 1.42890E+01 2.57094E+01 0.00000E+00
 -1      3833 1.42890E+01 2.71812E+01 0.00000E+00
 -1      3834 1.55880E+01 2.49719E+01 0.00000E+00
 -1      3835 1.33113E+02 2.86875E+01 0.00000E+00
 -1      3836 1.33113E+02 2.72125E+01 0.00000E+00
 -1      3837 1.00785E+02 1.54846E+01 0.00000E+00
 -1      3838 9.92850E+01 1.54846E+01 0.00000E+00
 -1      3839 1.01535E+02 1.67836E+01 0.00000E+00
 -1      3840 2.72850E+01 1.30992E+01 0.00000E+00
 -1      3841 2.57850E+01 1.30992E+01 0.00000E+00
 -1      3842 2.80350E+01 1.43982E+01 0.00000E+00
 -1      3843 9.77850E+01 1.54846E+01 0.00000E+00
 -1      3844 9.62850E+01 1.54846E+01 0.00000E+00
 -1      3845 9.85350E+01 1.67836E+01 0.00000E+00
 -1      3846 2.19000E+01 3.31130E+01 0.00000E+00
 -1      3847 2.34000E+01 3.31130E+01 0.00000E+00
 -1      3848 2.11500E+01 3.18140E+01 0.00000E+00
 -1      3849 9.48846E+01 2.76609E+01 0.00000E+00
 -1      3850 9.46339E+01 2.89930E+01 0.00000E+00
 -1      3851 9.56088E+01 2.98391E+01 0.00000E+00
 -1      3852 2.49000E+01 3.31130E+01 0.00000E+00
 -1      3853 2.64000E+01 3.31130E+01 0.00000E+00
 -1      3854 2.71500E+01 3.18140E+01 0.00000E+00
 -1      3855 2.41500E+01 3.18140E+01 0.00000E+00
 -1      3856 5.99680E+01 2.34135E+01 0.00000E+00
 -1      3857 6.03287E+01 2.18766E+01 0.00000E+00
 -1      3858 1.35838E+02 1.54150E+01 0.00000E+00
 -1      3859 1.42890E+01 2.86500E+01 0.00000E+00
 -1      3860 1.42890E+01 3.01187E+01 0.00000E+00
 -1      3861 1.55880E+01 2.79125E+01 0.00000E+00
 -1      3862 9.37162E+01 1.77056E+01 0.00000E+00
 -1      3863 1.34412E+02 2.20656E+01 0.00000E+00
 -1      3864 9.57541E+01 3.27916E+01 0.00000E+00
 -1      3865 1.32531E+02 3.20945E+01 0.00000E+00
 -1      3866 5.97024E+01 1.67016E+01 0.00000E+00
 -1      3867 5.77621E+01 3.24167E+01 0.00000E+00
 -1      3868 1.34539E+02 1.61494E+01 0.00000E+00
 -1      3869 5.89817E+01 2.44016E+01 0.00000E+00
 -1      3870 5.80009E+01 2.33606E+01 0.00000E+00
 -1      3871 5.79953E+01 2.53896E+01 0.00000E+00
 -1      3872 3.47850E+01 1.56973E+01 0.00000E+00
 -1      3873 3.32850E+01 1.56973E+01 0.00000E+00
 -1      3874 9.60035E+01 2.11882E+01 0.00000E+00
 -1      3875 9.52559E+01 2.25653E+01 0.00000E+00
 -1      3876 9.65105E+01 2.32550E+01 0.00000E+00
 -1      3877 5.70121E+01 3.11177E+01 0.00000E+00
 -1      3878 4.52850E+01 1.56973E+01 0.00000E+00
 -1      3879 4.45350E+01 1.69963E+01 0.00000E+00
 -1      3880 4.67850E+01 1.56973E+01 0.00000E+00
 -1      3881 3.17850E+01 1.56973E+01 0.00000E+00
 -1      3882 3.02850E+01 1.56973E+01 0.00000E+00
 -1      3883 3.25350E+01 1.69963E+01 0.00000E+00
 -1      3884 1.33039E+02 1.61494E+01 0.00000E+00
 -1      3885 4.15350E+01 1.69963E+01 0.00000E+00
 -1      3886 4.07850E+01 1.56973E+01 0.00000E+00
 -1      3887 3.92850E+01 1.56973E+01 0.00000E+00
 -1      3888 2.12850E+01 1.56973E+01 0.00000E+00
 -1      3889 2.05351E+01 1.69963E+01 0.00000E+00
 -1      3890 2.27850E+01 1.56973E+01 0.00000E+00
 -1      3891 5.86751E+01 2.84260E+01 0.00000E+00
 -1      3892 5.83495E+01 2.75664E+01 0.00000E+00
 -1      3893 5.80485E+01 2.95618E+01 0.00000E+00
 -1      3894 1.70387E+01 3.17583E+01 0.00000E+00
 -1      3895 2.50350E+01 1.43982E+01 0.00000E+00
 -1      3896 3.70350E+01 1.43982E+01 0.00000E+00
 -1      3897 9.56543E+01 1.64745E+01 0.00000E+00
 -1      3898 1.33148E+02 1.99049E+01 0.00000E+00
 -1      3899 1.33213E+02 1.86646E+01 0.00000E+00
 -1      3900 1.32531E+02 3.06195E+01 0.00000E+00
 -1      3901 1.50077E+01 3.05419E+01 0.00000E+00
 -1      3902 1.68870E+01 2.42359E+01 0.00000E+00
 -1      3903 1.68870E+01 2.57078E+01 0.00000E+00
 -1      3904 1.33113E+02 2.57437E+01 0.00000E+00
 -1      3905 1.33113E+02 2.42750E+01 0.00000E+00
 -1      3906 1.31814E+02 2.64813E+01 0.00000E+00
 -1      3907 1.31232E+02 2.98820E+01 0.00000E+00
 -1      3908 5.94285E+01 2.06888E+01 0.00000E+00
 -1      3909 9.44623E+01 1.91337E+01 0.00000E+00
 -1      3910 9.52574E+01 1.97600E+01 0.00000E+00
 -1      3911 9.65119E+01 2.04498E+01 0.00000E+00
 -1      3912 9.50197E+01 1.75935E+01 0.00000E+00
 -1      3913 4.97850E+01 1.56973E+01 0.00000E+00
 -1      3914 4.82850E+01 1.56973E+01 0.00000E+00
 -1      3915 4.75350E+01 1.69963E+01 0.00000E+00
 -1      3916 1.33130E+02 2.28259E+01 0.00000E+00
 -1      3917 1.33130E+02 2.13540E+01 0.00000E+00
 -1      3918 1.31866E+02 2.06652E+01 0.00000E+00
 -1      3919 1.31831E+02 2.35634E+01 0.00000E+00
 -1      3920 9.65041E+01 3.14926E+01 0.00000E+00
 -1      3921 9.67378E+01 2.54782E+01 0.00000E+00
 -1      3922 9.58112E+01 2.65695E+01 0.00000E+00
 -1      3923 9.67860E+01 2.74156E+01 0.00000E+00
 -1      3924 1.55880E+01 1.90844E+01 0.00000E+00
 -1      3925 1.68870E+01 2.12922E+01 0.00000E+00
 -1      3926 1.68870E+01 2.27641E+01 0.00000E+00
 -1      3927 1.81860E+01 2.35000E+01 0.00000E+00
 -1      3928 5.87850E+01 1.56973E+01 0.00000E+00
 -1      3929 5.72850E+01 1.56973E+01 0.00000E+00
 -1      3930 5.65350E+01 1.69963E+01 0.00000E+00
 -1      3931 5.05350E+01 1.69963E+01 0.00000E+00
 -1      3932 3.62850E+01 1.56973E+01 0.00000E+00
 -1      3933 3.55350E+01 1.69963E+01 0.00000E+00
 -1      3934 3.77850E+01 1.56973E+01 0.00000E+00
 -1      3935 3.24000E+01 3.05150E+01 0.00000E+00
 -1      3936 3.39000E+01 3.05150E+01 0.00000E+00
 -1      3937 3.54000E+01 3.05150E+01 0.00000E+00
 -1      3938 3.69000E+01 3.05150E+01 0.00000E+00
 -1      3939 3.46500E+01 2.92160E+01 0.00000E+00
 -1      3940 3.84000E+01 3.05150E+01 0.00000E+00
 -1      3941 3.99000E+01 3.05150E+01 0.00000E+00
 -1      3942 3.76500E+01 2.92160E+01 0.00000E+00
 -1      3943 4.14000E+01 3.05150E+01 0.00000E+00
 -1      3944 4.29000E+01 3.05150E+01 0.00000E+00
 -1      3945 4.06500E+01 2.92160E+01 0.00000E+00
 -1      3946 4.44000E+01 3.05150E+01 0.00000E+00
 -1      3947 4.59000E+01 3.05150E+01 0.00000E+00
 -1      3948 4.36500E+01 2.92160E+01 0.00000E+00
 -1      3949 4.74000E+01 3.05150E+01 0.00000E+00
 -1      3950 4.89000E+01 3.05150E+01 0.00000E+00
 -1      3951 4.66500E+01 2.92160E+01 0.00000E+00
 -1      3952 5.04000E+01 3.05150E+01 0.00000E+00
 -1      3953 5.19000E+01 3.05150E+01 0.00000E+00
 -1      3954 4.96500E+01 2.92160E+01 0.00000E+00
 -1      3955 5.34000E+01 3.05150E+01 0.00000E+00
 -1      3956 5.49000E+01 3.05150E+01 0.00000E+00
 -1      3957 5.26500E+01 2.92160E+01 0.00000E+00
 -1      3958 2.57850E+01 1.56973E+01 0.00000E+00
 -1      3959 2.42850E+01 1.56973E+01 0.00000E+00
 -1      3960 2.35351E+01 1.69963E+01 0.00000E+00
 -1      3961 5.89524E+01 1.80006E+01 0.00000E+00
 -1      3962 1.01400E+02 3.05150E+01 0.00000E+00
 -1      3963 1.02900E+02 3.05150E+01 0.00000E+00
 -1      3964 1.04400E+02 3.05150E+01 0.00000E+00
 -1      3965 1.05900E+02 3.05150E+01 0.00000E+00
 -1      3966 1.03650E+02 2.92160E+01 0.00000E+00
 -1      3967 1.07400E+02 3.05150E+01 0.00000E+00
 -1      3968 1.08900E+02 3.05150E+01 0.00000E+00
 -1      3969 1.06650E+02 2.92160E+01 0.00000E+00
 -1      3970 1.10400E+02 3.05150E+01 0.00000E+00
 -1      3971 1.11900E+02 3.05150E+01 0.00000E+00
 -1      3972 1.09650E+02 2.92160E+01 0.00000E+00
 -1      3973 1.13400E+02 3.05150E+01 0.00000E+00
 -1      3974 1.14900E+02 3.05150E+01 0.00000E+00
 -1      3975 1.12650E+02 2.92160E+01 0.00000E+00
 -1      3976 1.16400E+02 3.05150E+01 0.00000E+00
 -1      3977 1.17900E+02 3.05150E+01 0.00000E+00
 -1      3978 1.15650E+02 2.92160E+01 0.00000E+00
 -1      3979 1.19400E+02 3.05150E+01 0.00000E+00
 -1      3980 1.20900E+02 3.05150E+01 0.00000E+00
 -1      3981 1.18650E+02 2.92160E+01 0.00000E+00
 -1      3982 1.22400E+02 3.05150E+01 0.00000E+00
 -1      3983 1.23900E+02 3.05150E+01 0.00000E+00
 -1      3984 1.21650E+02 2.92160E+01 0.00000E+00
 -1      3985 1.25400E+02 3.05150E+01 0.00000E+00
 -1      3986 1.26900E+02 3.05150E+01 0.00000E+00
 -1      3987 1.24650E+02 2.92160E+01 0.00000E+00
 -1      3988 1.28316E+02 3.01985E+01 0.00000E+00
 -1      3989 1.29816E+02 3.01985E+01 0.00000E+00
 -1      3990 1.30398E+02 2.82665E+01 0.00000E+00
 -1      3991 1.27566E+02 2.88995E+01 0.00000E+00
 -1      3992 5.12850E+01 1.82952E+01 0.00000E+00
 -1      3993 4.97850E+01 1.82952E+01 0.00000E+00
 -1      3994 1.11285E+02 1.80826E+01 0.00000E+00
 -1      3995 1.09785E+02 1.80826E+01 0.00000E+00
 -1      3996 1.73115E+01 1.58325E+01 0.00000E+00
 -1      3997 1.73115E+01 1.73044E+01 0.00000E+00
 -1      3998 5.79513E+01 2.12013E+01 0.00000E+00
 -1      3999 5.83926E+01 1.95175E+01 0.00000E+00
 -1      4000 1.08285E+02 1.80826E+01 0.00000E+00
 -1      4001 1.06785E+02 1.80826E+01 0.00000E+00
 -1      4002 1.09035E+02 1.93816E+01 0.00000E+00
 -1      4003 1.05285E+02 1.80826E+01 0.00000E+00
 -1      4004 1.03785E+02 1.80826E+01 0.00000E+00
 -1      4005 1.06035E+02 1.93816E+01 0.00000E+00
 -1      4006 1.14285E+02 1.80826E+01 0.00000E+00
 -1      4007 1.12785E+02 1.80826E+01 0.00000E+00
 -1      4008 1.12035E+02 1.93816E+01 0.00000E+00
 -1      4009 1.17285E+02 1.80826E+01 0.00000E+00
 -1      4010 1.15785E+02 1.80826E+01 0.00000E+00
 -1      4011 1.15035E+02 1.93816E+01 0.00000E+00
 -1      4012 1.20285E+02 1.80826E+01 0.00000E+00
 -1      4013 1.18785E+02 1.80826E+01 0.00000E+00
 -1      4014 1.18035E+02 1.93816E+01 0.00000E+00
 -1      4015 1.23285E+02 1.80826E+01 0.00000E+00
 -1      4016 1.21785E+02 1.80826E+01 0.00000E+00
 -1      4017 1.21035E+02 1.93816E+01 0.00000E+00
 -1      4018 1.26285E+02 1.80826E+01 0.00000E+00
 -1      4019 1.24785E+02 1.80826E+01 0.00000E+00
 -1      4020 1.24035E+02 1.93816E+01 0.00000E+00
 -1      4021 1.29285E+02 1.80826E+01 0.00000E+00
 -1      4022 1.27785E+02 1.80826E+01 0.00000E+00
 -1      4023 1.27035E+02 1.93816E+01 0.00000E+00
 -1      4024 1.32289E+02 1.74484E+01 0.00000E+00
 -1      4025 9.64004E+01 1.79026E+01 0.00000E+00
 -1      4026 5.62621E+01 2.98187E+01 0.00000E+00
 -1      4027 9.67547E+01 3.01605E+01 0.00000E+00
 -1      4028 9.79007E+01 3.04819E+01 0.00000E+00
 -1      4029 9.70054E+01 2.88284E+01 0.00000E+00
 -1      4030 1.67642E+01 1.37415E+01 0.00000E+00
 -1      4031 1.65615E+01 1.45335E+01 0.00000E+00
 -1      4032 1.02285E+02 1.80826E+01 0.00000E+00
 -1      4033 1.00785E+02 1.80826E+01 0.00000E+00
 -1      4034 1.03035E+02 1.93816E+01 0.00000E+00
 -1      4035 5.74752E+01 1.85132E+01 0.00000E+00
 -1      4036 2.87850E+01 1.56973E+01 0.00000E+00
 -1      4037 2.72850E+01 1.56973E+01 0.00000E+00
 -1      4038 2.65350E+01 1.69963E+01 0.00000E+00
 -1      4039 2.95350E+01 1.69963E+01 0.00000E+00
 -1      4040 9.93427E+01 1.79926E+01 0.00000E+00
 -1      4041 9.78427E+01 1.79926E+01 0.00000E+00
 -1      4042 9.72081E+01 1.91116E+01 0.00000E+00
 -1      4043 1.00093E+02 1.92916E+01 0.00000E+00
 -1      4044 2.04000E+01 3.05150E+01 0.00000E+00
 -1      4045 2.19000E+01 3.05150E+01 0.00000E+00
 -1      4046 1.70993E+01 1.85623E+01 0.00000E+00
 -1      4047 1.70993E+01 2.00342E+01 0.00000E+00
 -1      4048 1.83983E+01 2.07702E+01 0.00000E+00
 -1      4049 1.88228E+01 1.82542E+01 0.00000E+00
 -1      4050 5.42850E+01 1.82952E+01 0.00000E+00
 -1      4051 5.27850E+01 1.82952E+01 0.00000E+00
 -1      4052 5.20350E+01 1.95942E+01 0.00000E+00
 -1      4053 9.94007E+01 3.04819E+01 0.00000E+00
 -1      4054 5.59752E+01 1.85132E+01 0.00000E+00
 -1      4055 2.94000E+01 3.05150E+01 0.00000E+00
 -1      4056 3.09000E+01 3.05150E+01 0.00000E+00
 -1      4057 3.16500E+01 2.92160E+01 0.00000E+00
 -1      4058 1.68870E+01 2.71766E+01 0.00000E+00
 -1      4059 1.68870E+01 2.86453E+01 0.00000E+00
 -1      4060 1.81860E+01 2.64406E+01 0.00000E+00
 -1      4061 9.82328E+01 2.27240E+01 0.00000E+00
 -1      4062 9.74853E+01 2.41011E+01 0.00000E+00
 -1      4063 9.84601E+01 2.49471E+01 0.00000E+00
 -1      4064 5.52252E+01 1.98122E+01 0.00000E+00
 -1      4065 3.32850E+01 1.82952E+01 0.00000E+00
 -1      4066 3.17850E+01 1.82952E+01 0.00000E+00
 -1      4067 4.22850E+01 1.82952E+01 0.00000E+00
 -1      4068 4.07850E+01 1.82952E+01 0.00000E+00
 -1      4069 1.00151E+02 2.91829E+01 0.00000E+00
 -1      4070 1.28982E+02 2.71143E+01 0.00000E+00
 -1      4071 1.30398E+02 2.67978E+01 0.00000E+00
 -1      4072 1.30398E+02 2.53290E+01 0.00000E+00
 -1      4073 2.18228E+01 1.82542E+01 0.00000E+00
 -1      4074 2.03228E+01 1.82542E+01 0.00000E+00
 -1      4075 2.01105E+01 1.95122E+01 0.00000E+00
 -1      4076 3.62850E+01 1.82952E+01 0.00000E+00
 -1      4077 3.47850E+01 1.82952E+01 0.00000E+00
 -1      4078 3.40350E+01 1.95942E+01 0.00000E+00
 -1      4079 1.30959E+02 1.79999E+01 0.00000E+00
 -1      4080 1.30209E+02 1.92989E+01 0.00000E+00
 -1      4081 2.64000E+01 3.05150E+01 0.00000E+00
 -1      4082 2.79000E+01 3.05150E+01 0.00000E+00
 -1      4083 2.86500E+01 2.92160E+01 0.00000E+00
 -1      4084 3.85350E+01 1.69963E+01 0.00000E+00
 -1      4085 1.76190E+01 3.05976E+01 0.00000E+00
 -1      4086 9.79320E+01 2.77370E+01 0.00000E+00
 -1      4087 1.89180E+01 2.98617E+01 0.00000E+00
 -1      4088 4.37850E+01 1.82952E+01 0.00000E+00
 -1      4089 4.30350E+01 1.95942E+01 0.00000E+00
 -1      4090 4.52850E+01 1.82952E+01 0.00000E+00
 -1      4091 5.59786E+01 2.31773E+01 0.00000E+00
 -1      4092 5.69650E+01 2.21893E+01 0.00000E+00
 -1      4093 5.59291E+01 2.10181E+01 0.00000E+00
 -1      4094 2.26500E+01 2.92160E+01 0.00000E+00
 -1      4095 2.34000E+01 3.05150E+01 0.00000E+00
 -1      4096 2.49000E+01 3.05150E+01 0.00000E+00
 -1      4097 1.96680E+01 2.85627E+01 0.00000E+00
 -1      4098 1.30192E+02 2.07480E+01 0.00000E+00
 -1      4099 5.73687E+01 2.65254E+01 0.00000E+00
 -1      4100 5.63880E+01 2.54844E+01 0.00000E+00
 -1      4101 5.67422E+01 2.76611E+01 0.00000E+00
 -1      4102 4.82850E+01 1.82952E+01 0.00000E+00
 -1      4103 4.67850E+01 1.82952E+01 0.00000E+00
 -1      4104 4.60350E+01 1.95942E+01 0.00000E+00
 -1      4105 1.96680E+01 2.56252E+01 0.00000E+00
 -1      4106 1.96680E+01 2.70939E+01 0.00000E+00
 -1      4107 2.11500E+01 2.77472E+01 0.00000E+00
 -1      4108 1.96680E+01 2.26814E+01 0.00000E+00
 -1      4109 1.96680E+01 2.41533E+01 0.00000E+00
 -1      4110 2.11500E+01 2.48066E+01 0.00000E+00
 -1      4111 4.90350E+01 1.95942E+01 0.00000E+00
 -1      4112 3.69000E+01 2.79170E+01 0.00000E+00
 -1      4113 3.84000E+01 2.79170E+01 0.00000E+00
 -1      4114 3.99000E+01 2.79170E+01 0.00000E+00
 -1      4115 4.14000E+01 2.79170E+01 0.00000E+00
 -1      4116 3.91500E+01 2.66180E+01 0.00000E+00
 -1      4117 4.29000E+01 2.79170E+01 0.00000E+00
 -1      4118 4.44000E+01 2.79170E+01 0.00000E+00
 -1      4119 4.21500E+01 2.66180E+01 0.00000E+00
 -1      4120 4.59000E+01 2.79170E+01 0.00000E+00
 -1      4121 4.74000E+01 2.79170E+01 0.00000E+00
 -1      4122 4.51500E+01 2.66180E+01 0.00000E+00
 -1      4123 4.89000E+01 2.79170E+01 0.00000E+00
 -1      4124 5.04000E+01 2.79170E+01 0.00000E+00
 -1      4125 4.81500E+01 2.66180E+01 0.00000E+00
 -1      4126 5.19000E+01 2.79170E+01 0.00000E+00
 -1      4127 5.34000E+01 2.79170E+01 0.00000E+00
 -1      4128 5.11500E+01 2.66180E+01 0.00000E+00
 -1      4129 4.00350E+01 1.95942E+01 0.00000E+00
 -1      4130 3.92850E+01 1.82952E+01 0.00000E+00
 -1      4131 3.77850E+01 1.82952E+01 0.00000E+00
 -1      4132 9.99313E+01 2.77701E+01 0.00000E+00
 -1      4133 1.01931E+02 2.78032E+01 0.00000E+00
 -1      4134 9.97120E+01 2.63574E+01 0.00000E+00
 -1      4135 1.03431E+02 2.78032E+01 0.00000E+00
 -1      4136 1.04931E+02 2.78032E+01 0.00000E+00
 -1      4137 1.03211E+02 2.63905E+01 0.00000E+00
 -1      4138 1.06431E+02 2.78032E+01 0.00000E+00
 -1      4139 1.07931E+02 2.78032E+01 0.00000E+00
 -1      4140 1.06211E+02 2.63905E+01 0.00000E+00
 -1      4141 1.09431E+02 2.78032E+01 0.00000E+00
 -1      4142 1.10931E+02 2.78032E+01 0.00000E+00
 -1      4143 1.09211E+02 2.63905E+01 0.00000E+00
 -1      4144 1.12431E+02 2.78032E+01 0.00000E+00
 -1      4145 1.13931E+02 2.78032E+01 0.00000E+00
 -1      4146 1.12211E+02 2.63905E+01 0.00000E+00
 -1      4147 1.15431E+02 2.78032E+01 0.00000E+00
 -1      4148 1.16931E+02 2.78032E+01 0.00000E+00
 -1      4149 1.15211E+02 2.63905E+01 0.00000E+00
 -1      4150 1.18431E+02 2.78032E+01 0.00000E+00
 -1      4151 1.19931E+02 2.78032E+01 0.00000E+00
 -1      4152 1.18211E+02 2.63905E+01 0.00000E+00
 -1      4153 1.21431E+02 2.78032E+01 0.00000E+00
 -1      4154 1.22931E+02 2.78032E+01 0.00000E+00
 -1      4155 1.21211E+02 2.63905E+01 0.00000E+00
 -1      4156 1.24431E+02 2.78032E+01 0.00000E+00
 -1      4157 1.25931E+02 2.78032E+01 0.00000E+00
 -1      4158 1.24211E+02 2.63905E+01 0.00000E+00
 -1      4159 1.27347E+02 2.74867E+01 0.00000E+00
 -1      4160 1.15785E+02 2.06806E+01 0.00000E+00
 -1      4161 1.14285E+02 2.06806E+01 0.00000E+00
 -1      4162 3.09000E+01 2.79170E+01 0.00000E+00
 -1      4163 3.24000E+01 2.79170E+01 0.00000E+00
 -1      4164 5.27850E+01 2.08932E+01 0.00000E+00
 -1      4165 5.12850E+01 2.08932E+01 0.00000E+00
 -1      4166 1.12785E+02 2.06806E+01 0.00000E+00
 -1      4167 1.11285E+02 2.06806E+01 0.00000E+00
 -1      4168 1.13535E+02 2.19796E+01 0.00000E+00
 -1      4169 1.06785E+02 2.06806E+01 0.00000E+00
 -1      4170 1.05285E+02 2.06806E+01 0.00000E+00
 -1      4171 1.18785E+02 2.06806E+01 0.00000E+00
 -1      4172 1.17285E+02 2.06806E+01 0.00000E+00
 -1      4173 1.16535E+02 2.19796E+01 0.00000E+00
 -1      4174 1.21785E+02 2.06806E+01 0.00000E+00
 -1      4175 1.20285E+02 2.06806E+01 0.00000E+00
 -1      4176 1.19535E+02 2.19796E+01 0.00000E+00
 -1      4177 1.24785E+02 2.06806E+01 0.00000E+00
 -1      4178 1.23285E+02 2.06806E+01 0.00000E+00
 -1      4179 1.22535E+02 2.19796E+01 0.00000E+00
 -1      4180 1.27785E+02 2.06806E+01 0.00000E+00
 -1      4181 1.26285E+02 2.06806E+01 0.00000E+00
 -1      4182 1.25535E+02 2.19796E+01 0.00000E+00
 -1      4183 3.39000E+01 2.79170E+01 0.00000E+00
 -1      4184 3.54000E+01 2.79170E+01 0.00000E+00
 -1      4185 3.31500E+01 2.66180E+01 0.00000E+00
 -1      4186 1.03785E+02 2.06806E+01 0.00000E+00
 -1      4187 1.02285E+02 2.06806E+01 0.00000E+00
 -1      4188 1.04535E+02 2.19796E+01 0.00000E+00
 -1      4189 2.26500E+01 2.77472E+01 0.00000E+00
 -1      4190 2.48228E+01 1.82542E+01 0.00000E+00
 -1      4191 2.33228E+01 1.82542E+01 0.00000E+00
 -1      4192 2.31105E+01 1.95122E+01 0.00000E+00
 -1      4193 1.09785E+02 2.06806E+01 0.00000E+00
 -1      4194 1.08285E+02 2.06806E+01 0.00000E+00
 -1      4195 1.07535E+02 2.19796E+01 0.00000E+00
 -1      4196 1.10535E+02 2.19796E+01 0.00000E+00
 -1      4197 5.42389E+01 2.08002E+01 0.00000E+00
 -1      4198 1.99954E+01 2.04678E+01 0.00000E+00
 -1      4199 1.97831E+01 2.17258E+01 0.00000E+00
 -1      4200 2.12651E+01 2.23791E+01 0.00000E+00
 -1      4201 2.14954E+01 2.04678E+01 0.00000E+00
 -1      4202 3.10350E+01 1.95943E+01 0.00000E+00
 -1      4203 3.02850E+01 1.82953E+01 0.00000E+00
 -1      4204 2.87850E+01 1.82953E+01 0.00000E+00
 -1      4205 1.29442E+02 2.20470E+01 0.00000E+00
 -1      4206 4.97850E+01 2.08932E+01 0.00000E+00
 -1      4207 4.82850E+01 2.08932E+01 0.00000E+00
 -1      4208 5.05350E+01 2.21922E+01 0.00000E+00
 -1      4209 9.79542E+01 2.05398E+01 0.00000E+00
 -1      4210 4.37850E+01 2.08932E+01 0.00000E+00
 -1      4211 4.22850E+01 2.08932E+01 0.00000E+00
 -1      4212 5.48323E+01 2.54833E+01 0.00000E+00
 -1      4213 5.37964E+01 2.43121E+01 0.00000E+00
 -1      4214 2.79000E+01 2.79170E+01 0.00000E+00
 -1      4215 2.94000E+01 2.79170E+01 0.00000E+00
 -1      4216 3.01500E+01 2.66180E+01 0.00000E+00
 -1      4217 4.07850E+01 2.08932E+01 0.00000E+00
 -1      4218 3.92850E+01 2.08932E+01 0.00000E+00
 -1      4219 4.15350E+01 2.21922E+01 0.00000E+00
 -1      4220 1.00459E+02 2.49802E+01 0.00000E+00
 -1      4221 5.59365E+01 2.89591E+01 0.00000E+00
 -1      4222 1.27347E+02 2.60180E+01 0.00000E+00
 -1      4223 1.01121E+02 2.27748E+01 0.00000E+00
 -1      4224 1.00371E+02 2.14758E+01 0.00000E+00
 -1      4225 2.75539E+01 1.82747E+01 0.00000E+00
 -1      4226 2.60539E+01 1.82747E+01 0.00000E+00
 -1      4227 2.58417E+01 1.95327E+01 0.00000E+00
 -1      4228 2.83039E+01 1.95737E+01 0.00000E+00
 -1      4229 3.70350E+01 1.95942E+01 0.00000E+00
 -1      4230 5.34889E+01 2.20992E+01 0.00000E+00
 -1      4231 3.61500E+01 2.66180E+01 0.00000E+00
 -1      4232 2.56500E+01 2.92160E+01 0.00000E+00
 -1      4233 1.30415E+02 2.38799E+01 0.00000E+00
 -1      4234 3.47850E+01 2.08932E+01 0.00000E+00
 -1      4235 3.32850E+01 2.08932E+01 0.00000E+00
 -1      4236 5.49557E+01 2.79181E+01 0.00000E+00
 -1      4237 2.24490E+01 2.40707E+01 0.00000E+00
 -1      4238 2.24490E+01 2.55426E+01 0.00000E+00
 -1      4239 2.39490E+01 2.70113E+01 0.00000E+00
 -1      4240 3.17850E+01 2.08933E+01 0.00000E+00
 -1      4241 3.02850E+01 2.08933E+01 0.00000E+00
 -1      4242 3.25350E+01 2.21923E+01 0.00000E+00
 -1      4243 4.67850E+01 2.08932E+01 0.00000E+00
 -1      4244 4.52850E+01 2.08932E+01 0.00000E+00
 -1      4245 4.45350E+01 2.21922E+01 0.00000E+00
 -1      4246 1.28008E+02 2.38126E+01 0.00000E+00
 -1      4247 4.75350E+01 2.21922E+01 0.00000E+00
 -1      4248 5.23425E+01 2.44051E+01 0.00000E+00
 -1      4249 5.42057E+01 2.66191E+01 0.00000E+00
 -1      4250 4.18425E+01 2.44051E+01 0.00000E+00
 -1      4251 4.33425E+01 2.44051E+01 0.00000E+00
 -1      4252 4.48425E+01 2.44051E+01 0.00000E+00
 -1      4253 4.63425E+01 2.44051E+01 0.00000E+00
 -1      4254 4.78425E+01 2.44051E+01 0.00000E+00
 -1      4255 4.93425E+01 2.44051E+01 0.00000E+00
 -1      4256 5.08425E+01 2.44051E+01 0.00000E+00
 -1      4257 9.89290E+01 2.13858E+01 0.00000E+00
 -1      4258 1.02373E+02 2.41850E+01 0.00000E+00
 -1      4259 1.03873E+02 2.41850E+01 0.00000E+00
 -1      4260 1.05373E+02 2.41850E+01 0.00000E+00
 -1      4261 1.06873E+02 2.41850E+01 0.00000E+00
 -1      4262 1.08373E+02 2.41850E+01 0.00000E+00
 -1      4263 1.09873E+02 2.41850E+01 0.00000E+00
 -1      4264 1.11373E+02 2.41850E+01 0.00000E+00
 -1      4265 1.12873E+02 2.41850E+01 0.00000E+00
 -1      4266 1.14373E+02 2.41850E+01 0.00000E+00
 -1      4267 1.15873E+02 2.41850E+01 0.00000E+00
 -1      4268 1.17373E+02 2.41850E+01 0.00000E+00
 -1      4269 1.18873E+02 2.41850E+01 0.00000E+00
 -1      4270 1.20373E+02 2.41850E+01 0.00000E+00
 -1      4271 1.21873E+02 2.41850E+01 0.00000E+00
 -1      4272 1.23373E+02 2.41850E+01 0.00000E+00
 -1      4273 1.24873E+02 2.41850E+01 0.00000E+00
 -1      4274 1.26373E+02 2.41850E+01 0.00000E+00
 -1      4275 3.28425E+01 2.44051E+01 0.00000E+00
 -1      4276 3.43425E+01 2.44051E+01 0.00000E+00
 -1      4277 3.77850E+01 2.08932E+01 0.00000E+00
 -1      4278 3.62850E+01 2.08932E+01 0.00000E+00
 -1      4279 3.55350E+01 2.21922E+01 0.00000E+00
 -1      4280 3.85350E+01 2.21922E+01 0.00000E+00
 -1      4281 2.44954E+01 2.04678E+01 0.00000E+00
 -1      4282 2.29954E+01 2.04678E+01 0.00000E+00
 -1      4283 2.28803E+01 2.14235E+01 0.00000E+00
 -1      4284 3.58425E+01 2.44051E+01 0.00000E+00
 -1      4285 3.73425E+01 2.44051E+01 0.00000E+00
 -1      4286 2.51745E+01 2.74642E+01 0.00000E+00
 -1      4287 2.66745E+01 2.74642E+01 0.00000E+00
 -1      4288 2.74245E+01 2.61652E+01 0.00000E+00
 -1      4289 2.49735E+01 2.52595E+01 0.00000E+00
 -1      4290 3.88425E+01 2.44051E+01 0.00000E+00
 -1      4291 4.03425E+01 2.44051E+01 0.00000E+00
 -1      4292 3.13425E+01 2.44051E+01 0.00000E+00
 -1      4293 2.98425E+01 2.44051E+01 0.00000E+00
 -1      4294 2.48110E+01 2.38146E+01 0.00000E+00
 -1      4295 2.60365E+01 2.42674E+01 0.00000E+00
 -1      4296 2.69576E+01 2.05089E+01 0.00000E+00
 -1      4297 2.57265E+01 2.04883E+01 0.00000E+00
 -1      4298 2.56114E+01 2.14440E+01 0.00000E+00
 -1      4299 2.27651E+01 2.23791E+01 0.00000E+00
 -1      4300 2.40641E+01 2.31150E+01 0.00000E+00
 -1      4301 2.92369E+01 2.07113E+01 0.00000E+00
 -1      4302 2.80058E+01 2.06908E+01 0.00000E+00
 -1      4303 2.78906E+01 2.16464E+01 0.00000E+00
 -1      4304 2.99869E+01 2.20103E+01 0.00000E+00
 -1      4305 2.51271E+01 2.21230E+01 0.00000E+00
 -1      4306 2.63583E+01 2.21435E+01 0.00000E+00
 -1      4307 2.72620E+01 2.47203E+01 0.00000E+00
 -1      4308 2.84875E+01 2.51731E+01 0.00000E+00
 -1      4309 2.96800E+01 2.29602E+01 0.00000E+00
 -1      4310 2.86319E+01 2.27783E+01 0.00000E+00
 -1      4311 2.70995E+01 2.32754E+01 0.00000E+00
 -1      4312 2.75838E+01 2.25964E+01 0.00000E+00
 -3
    3C                          2074                                     1
 -1       165    8    0    1
 -2         6         7        23      1120      1284      1137
 -1       166    8    0    1
 -2         7         8       165      1121      1285      1286
 -1       167    8    0    1
 -2         8         9       166      1122      1287      1288
 -1       168    8    0    1
 -2         8       166       165      1288      1289      1285
 -1       169    8    0    1
 -2         9        10       167      1123      1290      1291
 -1       170    8    0    1
 -2         9       167       166      1291      1292      1287
 -1       171    8    0    1
 -2        10        11       168      1124      1293      1294
 -1       172    8    0    1
 -2        10       168       167      1294      1295      1290
 -1       173    8    0    1
 -2        11        12       169      1125      1296      1297
 -1       174    8    0    1
 -2        11       169       168      1297      1298      1293
 -1       175    8    0    1
 -2        12        13       170      1126      1299      1300
 -1       176    8    0    1
 -2        12       170       169      1300      1301      1296
 -1       177    8    0    1
 -2        13        14       171      1127      1302      1303
 -1       178    8    0    1
 -2        13       171       170      1303      1304      1299
 -1       179    8    0    1
 -2        14        15       172      1128      1305      1306
 -1       180    8    0    1
 -2        14       172       171      1306      1307      1302
 -1       181    8    0    1
 -2        15        16       173      1129      1308      1309
 -1       182    8    0    1
 -2        15       173       172      1309      1310      1305
 -1       183    8    0    1
 -2        16        17       174      1130      1311      1312
 -1       184    8    0    1
 -2        16       174       173      1312      1313      1308
 -1       185    8    0    1
 -2        17        18       175      1131      1314      1315
 -1       186    8    0    1
 -2        17       175       174      1315      1316      1311
 -1       187    8    0    1
 -2        18        19       176      1132      1317      1318
 -1       188    8    0    1
 -2        18       176       175      1318      1319      1314
 -1       189    8    0    1
 -2        19        20       177      1133      1320      1321
 -1       190    8    0    1
 -2        19       177       176      1321      1322      1317
 -1       191    8    0    1
 -2        20        21       178      1134      1323      1324
 -1       192    8    0    1
 -2        20       178       177      1324      1325      1320
 -1       193    8    0    1
 -2        21        22       179      1135      1326      1327
 -1       194    8    0    1
 -2        21       179       178      1327      1328      1323
 -1       195    8    0    1
 -2        22         5       180      1136      1329      1330
 -1       196    8    0    1
 -2       179        22       180      1326      1330      1331
 -1       197    8    0    1
 -2         5        72       180      1187      1332      1329
 -1       198    8    0    1
 -2        24        23       181      1138      1333      1334
 -1       199    8    0    1
 -2        25        24       182      1139      1335      1336
 -1       200    8    0    1
 -2        24       181       182      1334      1337      1335
 -1       201    8    0    1
 -2        26        25       183      1140      1338      1339
 -1       202    8    0    1
 -2        25       182       183      1336      1340      1338
 -1       203    8    0    1
 -2        27        26       184      1141      1341      1342
 -1       204    8    0    1
 -2        26       183       184      1339      1343      1341
 -1       205    8    0    1
 -2        28        27       185      1142      1344      1345
 -1       206    8    0    1
 -2        27       184       185      1342      1346      1344
 -1       207    8    0    1
 -2        29        28       186      1143      1347      1348
 -1       208    8    0    1
 -2        28       185       186      1345      1349      1347
 -1       209    8    0    1
 -2        30        29       187      1144      1350      1351
 -1       210    8    0    1
 -2        29       186       187      1348      1352      1350
 -1       211    8    0    1
 -2        31        30       188      1145      1353      1354
 -1       212    8    0    1
 -2        30       187       188      1351      1355      1353
 -1       213    8    0    1
 -2        32        31       189      1146      1356      1357
 -1       214    8    0    1
 -2        31       188       189      1354      1358      1356
 -1       215    8    0    1
 -2        33        32       190      1147      1359      1360
 -1       216    8    0    1
 -2        32       189       190      1357      1361      1359
 -1       217    8    0    1
 -2        34        33       191      1148      1362      1363
 -1       218    8    0    1
 -2        33       190       191      1360      1364      1362
 -1       219    8    0    1
 -2        35        34       192      1149      1365      1366
 -1       220    8    0    1
 -2        34       191       192      1363      1367      1365
 -1       221    8    0    1
 -2        36        35       193      1150      1368      1369
 -1       222    8    0    1
 -2        35       192       193      1366      1370      1368
 -1       223    8    0    1
 -2        37        36       194      1151      1371      1372
 -1       224    8    0    1
 -2        36       193       194      1369      1373      1371
 -1       225    8    0    1
 -2        38        37       195      1152      1374      1375
 -1       226    8    0    1
 -2        37       194       195      1372      1376      1374
 -1       227    8    0    1
 -2        39        38       196      1153      1377      1378
 -1       228    8    0    1
 -2        38       195       196      1375      1379      1377
 -1       229    8    0    1
 -2        40        39       197      1154      1380      1381
 -1       230    8    0    1
 -2        39       196       197      1378      1382      1380
 -1       231    8    0    1
 -2        41        40       198      1155      1383      1384
 -1       232    8    0    1
 -2        40       197       198      1381      1385      1383
 -1       233    8    0    1
 -2        42        41       199      1156      1386      1387
 -1       234    8    0    1
 -2        41       198       199      1384      1388      1386
 -1       235    8    0    1
 -2        43        42       200      1157      1389      1390
 -1       236    8    0    1
 -2        42       199       200      1387      1391      1389
 -1       237    8    0    1
 -2        44        43       201      1158      1392      1393
 -1       238    8    0    1
 -2        43       200       201      1390      1394      1392
 -1       239    8    0    1
 -2        45        44       202      1159      1395      1396
 -1       240    8    0    1
 -2        44       201       202      1393      1397      1395
 -1       241    8    0    1
 -2        46        45       203      1160      1398      1399
 -1       242    8    0    1
 -2        45       202       203      1396      1400      1398
 -1       243    8    0    1
 -2        47        46       204      1161      1401      1402
 -1       244    8    0    1
 -2        46       203       204      1399      1403      1401
 -1       245    8    0    1
 -2        48        47       205      1162      1404      1405
 -1       246    8    0    1
 -2        47       204       205      1402      1406      1404
 -1       247    8    0    1
 -2        49        48       206      1163      1407      1408
 -1       248    8    0    1
 -2        48       205       206      1405      1409      1407
 -1       249    8    0    1
 -2        50        49       207      1164      1410      1411
 -1       250    8    0    1
 -2        49       206       207      1408      1412      1410
 -1       251    8    0    1
 -2        51        50       208      1165      1413      1414
 -1       252    8    0    1
 -2        50       207       208      1411      1415      1413
 -1       253    8    0    1
 -2        52        51       209      1166      1416      1417
 -1       254    8    0    1
 -2        51       208       209      1414      1418      1416
 -1       255    8    0    1
 -2        53        52       210      1167      1419      1420
 -1       256    8    0    1
 -2        52       209       210      1417      1421      1419
 -1       257    8    0    1
 -2        54        53       211      1168      1422      1423
 -1       258    8    0    1
 -2        53       210       211      1420      1424      1422
 -1       259    8    0    1
 -2        55        54       212      1169      1425      1426
 -1       260    8    0    1
 -2        54       211       212      1423      1427      1425
 -1       261    8    0    1
 -2        56        55       213      1170      1428      1429
 -1       262    8    0    1
 -2        55       212       213      1426      1430      1428
 -1       263    8    0    1
 -2        57        56       214      1171      1431      1432
 -1       264    8    0    1
 -2        56       213       214      1429      1433      1431
 -1       265    8    0    1
 -2        58        57       215      1172      1434      1435
 -1       266    8    0    1
 -2        57       214       215      1432      1436      1434
 -1       267    8    0    1
 -2        59        58       216      1173      1437      1438
 -1       268    8    0    1
 -2        58       215       216      1435      1439      1437
 -1       269    8    0    1
 -2        60        59       217      1174      1440      1441
 -1       270    8    0    1
 -2        59       216       217      1438      1442      1440
 -1       271    8    0    1
 -2        61        60       218      1175      1443      1444
 -1       272    8    0    1
 -2        60       217       218      1441      1445      1443
 -1       273    8    0    1
 -2        62        61       219      1176      1446      1447
 -1       274    8    0    1
 -2        61       218       219      1444      1448      1446
 -1       275    8    0    1
 -2        63        62       220      1177      1449      1450
 -1       276    8    0    1
 -2        62       219       220      1447      1451      1449
 -1       277    8    0    1
 -2        64        63       221      1178      1452      1453
 -1       278    8    0    1
 -2        63       220       221      1450      1454      1452
 -1       279    8    0    1
 -2        65        64       222      1179      1455      1456
 -1       280    8    0    1
 -2        64       221       222      1453      1457      1455
 -1       281    8    0    1
 -2        66        65       223      1180      1458      1459
 -1       282    8    0    1
 -2        65       222       223      1456      1460      1458
 -1       283    8    0    1
 -2        67        66       224      1181      1461      1462
 -1       284    8    0    1
 -2        66       223       224      1459      1463      1461
 -1       285    8    0    1
 -2        68        67       225      1182      1464      1465
 -1       286    8    0    1
 -2        67       224       225      1462      1466      1464
 -1       287    8    0    1
 -2        69        68       226      1183      1467      1468
 -1       288    8    0    1
 -2        68       225       226      1465      1469      1467
 -1       289    8    0    1
 -2        70        69       227      1184      1470      1471
 -1       290    8    0    1
 -2        69       226       227      1468      1472      1470
 -1       291    8    0    1
 -2        71        70       228      1185      1473      1474
 -1       292    8    0    1
 -2        70       227       228      1471      1475      1473
 -1       293    8    0    1
 -2         4        71       136      1186      1476      1253
 -1       294    8    0    1
 -2       136        71       228      1476      1474      1477
 -1       295    8    0    1
 -2        72        73       229      1188      1478      1479
 -1       296    8    0    1
 -2        72       229       180      1479      1480      1332
 -1       297    8    0    1
 -2        73        74       230      1189      1481      1482
 -1       298    8    0    1
 -2        73       230       229      1482      1483      1478
 -1       299    8    0    1
 -2        74        75       231      1190      1484      1485
 -1       300    8    0    1
 -2        74       231       230      1485      1486      1481
 -1       301    8    0    1
 -2        75        76       232      1191      1487      1488
 -1       302    8    0    1
 -2        75       232       231      1488      1489      1484
 -1       303    8    0    1
 -2        76        77       233      1192      1490      1491
 -1       304    8    0    1
 -2        76       233       232      1491      1492      1487
 -1       305    8    0    1
 -2        77        78       234      1193      1493      1494
 -1       306    8    0    1
 -2        77       234       233      1494      1495      1490
 -1       307    8    0    1
 -2        78        79       235      1194      1496      1497
 -1       308    8    0    1
 -2        78       235       234      1497      1498      1493
 -1       309    8    0    1
 -2        79        80       236      1195      1499      1500
 -1       310    8    0    1
 -2        79       236       235      1500      1501      1496
 -1       311    8    0    1
 -2        80        81       237      1196      1502      1503
 -1       312    8    0    1
 -2        80       237       236      1503      1504      1499
 -1       313    8    0    1
 -2        81        82       238      1197      1505      1506
 -1       314    8    0    1
 -2        81       238       237      1506      1507      1502
 -1       315    8    0    1
 -2        82        83       239      1198      1508      1509
 -1       316    8    0    1
 -2        82       239       238      1509      1510      1505
 -1       317    8    0    1
 -2        83        84       240      1199      1511      1512
 -1       318    8    0    1
 -2        83       240       239      1512      1513      1508
 -1       319    8    0    1
 -2        84        85       241      1200      1514      1515
 -1       320    8    0    1
 -2        84       241       240      1515      1516      1511
 -1       321    8    0    1
 -2        85        86       242      1201      1517      1518
 -1       322    8    0    1
 -2        85       242       241      1518      1519      1514
 -1       323    8    0    1
 -2        86        87       243      1202      1520      1521
 -1       324    8    0    1
 -2        86       243       242      1521      1522      1517
 -1       325    8    0    1
 -2        87        88       244      1203      1523      1524
 -1       326    8    0    1
 -2        87       244       243      1524      1525      1520
 -1       327    8    0    1
 -2        88        89       245      1204      1526      1527
 -1       328    8    0    1
 -2        88       245       244      1527      1528      1523
 -1       329    8    0    1
 -2        89        90       246      1205      1529      1530
 -1       330    8    0    1
 -2        89       246       245      1530      1531      1526
 -1       331    8    0    1
 -2        90        91       247      1206      1532      1533
 -1       332    8    0    1
 -2        90       247       246      1533      1534      1529
 -1       333    8    0    1
 -2        91        92       248      1207      1535      1536
 -1       334    8    0    1
 -2        91       248       247      1536      1537      1532
 -1       335    8    0    1
 -2        92        93       249      1208      1538      1539
 -1       336    8    0    1
 -2        92       249       248      1539      1540      1535
 -1       337    8    0    1
 -2        93        94       250      1209      1541      1542
 -1       338    8    0    1
 -2        93       250       249      1542      1543      1538
 -1       339    8    0    1
 -2        94        95       251      1210      1544      1545
 -1       340    8    0    1
 -2        94       251       250      1545      1546      1541
 -1       341    8    0    1
 -2        95        96       252      1211      1547      1548
 -1       342    8    0    1
 -2        95       252       251      1548      1549      1544
 -1       343    8    0    1
 -2        96        97       253      1212      1550      1551
 -1       344    8    0    1
 -2        96       253       252      1551      1552      1547
 -1       345    8    0    1
 -2        97        98       254      1213      1553      1554
 -1       346    8    0    1
 -2        97       254       253      1554      1555      1550
 -1       347    8    0    1
 -2        98        99       255      1214      1556      1557
 -1       348    8    0    1
 -2        98       255       254      1557      1558      1553
 -1       349    8    0    1
 -2        99       100       256      1215      1559      1560
 -1       350    8    0    1
 -2        99       256       255      1560      1561      1556
 -1       351    8    0    1
 -2       100       101       257      1216      1562      1563
 -1       352    8    0    1
 -2       100       257       256      1563      1564      1559
 -1       353    8    0    1
 -2       101       102       258      1217      1565      1566
 -1       354    8    0    1
 -2       101       258       257      1566      1567      1562
 -1       355    8    0    1
 -2       102       103       259      1218      1568      1569
 -1       356    8    0    1
 -2       102       259       258      1569      1570      1565
 -1       357    8    0    1
 -2       103       104       260      1219      1571      1572
 -1       358    8    0    1
 -2       103       260       259      1572      1573      1568
 -1       359    8    0    1
 -2       104       105       261      1220      1574      1575
 -1       360    8    0    1
 -2       104       261       260      1575      1576      1571
 -1       361    8    0    1
 -2       105       106       262      1221      1577      1578
 -1       362    8    0    1
 -2       105       262       261      1578      1579      1574
 -1       363    8    0    1
 -2       106       107       263      1222      1580      1581
 -1       364    8    0    1
 -2       106       263       262      1581      1582      1577
 -1       365    8    0    1
 -2       107       108       264      1223      1583      1584
 -1       366    8    0    1
 -2       107       264       263      1584      1585      1580
 -1       367    8    0    1
 -2       108       109       265      1224      1586      1587
 -1       368    8    0    1
 -2       108       265       264      1587      1588      1583
 -1       369    8    0    1
 -2       109       110       266      1225      1589      1590
 -1       370    8    0    1
 -2       109       266       265      1590      1591      1586
 -1       371    8    0    1
 -2       110       111       267      1226      1592      1593
 -1       372    8    0    1
 -2       110       267       266      1593      1594      1589
 -1       373    8    0    1
 -2       111       112       268      1227      1595      1596
 -1       374    8    0    1
 -2       111       268       267      1596      1597      1592
 -1       375    8    0    1
 -2       112       113       269      1228      1598      1599
 -1       376    8    0    1
 -2       112       269       268      1599      1600      1595
 -1       377    8    0    1
 -2       113       114       270      1229      1601      1602
 -1       378    8    0    1
 -2       113       270       269      1602      1603      1598
 -1       379    8    0    1
 -2       114       115       271      1230      1604      1605
 -1       380    8    0    1
 -2       114       271       270      1605      1606      1601
 -1       381    8    0    1
 -2       115       116       272      1231      1607      1608
 -1       382    8    0    1
 -2       115       272       271      1608      1609      1604
 -1       383    8    0    1
 -2       116       117       273      1232      1610      1611
 -1       384    8    0    1
 -2       116       273       272      1611      1612      1607
 -1       385    8    0    1
 -2       117       118       274      1233      1613      1614
 -1       386    8    0    1
 -2       117       274       273      1614      1615      1610
 -1       387    8    0    1
 -2       118       119       275      1234      1616      1617
 -1       388    8    0    1
 -2       118       275       274      1617      1618      1613
 -1       389    8    0    1
 -2       119       120       276      1235      1619      1620
 -1       390    8    0    1
 -2       119       276       275      1620      1621      1616
 -1       391    8    0    1
 -2       120         3       121      1236      1237      1622
 -1       392    8    0    1
 -2       121       122       277      1238      1623      1624
 -1       393    8    0    1
 -2       122       123       278      1239      1625      1626
 -1       394    8    0    1
 -2       122       278       277      1626      1627      1623
 -1       395    8    0    1
 -2       123       124       279      1240      1628      1629
 -1       396    8    0    1
 -2       123       279       278      1629      1630      1625
 -1       397    8    0    1
 -2       124       125       280      1241      1631      1632
 -1       398    8    0    1
 -2       124       280       279      1632      1633      1628
 -1       399    8    0    1
 -2       125       126       281      1242      1634      1635
 -1       400    8    0    1
 -2       125       281       280      1635      1636      1631
 -1       401    8    0    1
 -2       126       127       282      1243      1637      1638
 -1       402    8    0    1
 -2       126       282       281      1638      1639      1634
 -1       403    8    0    1
 -2       127       128       283      1244      1640      1641
 -1       404    8    0    1
 -2       127       283       282      1641      1642      1637
 -1       405    8    0    1
 -2       128       129       284      1245      1643      1644
 -1       406    8    0    1
 -2       128       284       283      1644      1645      1640
 -1       407    8    0    1
 -2       129       130       285      1246      1646      1647
 -1       408    8    0    1
 -2       129       285       284      1647      1648      1643
 -1       409    8    0    1
 -2       130       131       286      1247      1649      1650
 -1       410    8    0    1
 -2       130       286       285      1650      1651      1646
 -1       411    8    0    1
 -2       131       132       287      1248      1652      1653
 -1       412    8    0    1
 -2       131       287       286      1653      1654      1649
 -1       413    8    0    1
 -2       132       133       288      1249      1655      1656
 -1       414    8    0    1
 -2       132       288       287      1656      1657      1652
 -1       415    8    0    1
 -2       133       134       289      1250      1658      1659
 -1       416    8    0    1
 -2       133       289       288      1659      1660      1655
 -1       417    8    0    1
 -2       134       135       290      1251      1661      1662
 -1       418    8    0    1
 -2       134       290       289      1662      1663      1658
 -1       419    8    0    1
 -2       135       136       291      1252      1664      1665
 -1       420    8    0    1
 -2       290       135       291      1661      1665      1666
 -1       421    8    0    1
 -2       136       228       291      1477      1667      1664
 -1       422    8    0    1
 -2         2       137       292      1254      1668      1669
 -1       423    8    0    1
 -2       137       138       293      1255      1670      1671
 -1       424    8    0    1
 -2       138       139       294      1256      1672      1673
 -1       425    8    0    1
 -2       139       140       295      1257      1674      1675
 -1       426    8    0    1
 -2       140       141       296      1258      1676      1677
 -1       427    8    0    1
 -2       141       142       297      1259      1678      1679
 -1       428    8    0    1
 -2       142       143       298      1260      1680      1681
 -1       429    8    0    1
 -2       143       144       299      1261      1682      1683
 -1       430    8    0    1
 -2       144       145       300      1262      1684      1685
 -1       431    8    0    1
 -2       145       146       301      1263      1686      1687
 -1       432    8    0    1
 -2       146       147       302      1264      1688      1689
 -1       433    8    0    1
 -2       147       148       303      1265      1690      1691
 -1       434    8    0    1
 -2       148       149       304      1266      1692      1693
 -1       435    8    0    1
 -2       149       150       305      1267      1694      1695
 -1       436    8    0    1
 -2       150       151       306      1268      1696      1697
 -1       437    8    0    1
 -2       151       152       307      1269      1698      1699
 -1       438    8    0    1
 -2       152         1       308      1270      1700      1701
 -1       439    8    0    1
 -2         1       153       309      1271      1702      1703
 -1       440    8    0    1
 -2       153       154       310      1272      1704      1705
 -1       441    8    0    1
 -2       154       155       311      1273      1706      1707
 -1       442    8    0    1
 -2       155       156       312      1274      1708      1709
 -1       443    8    0    1
 -2       156       157       313      1275      1710      1711
 -1       444    8    0    1
 -2       157       158       314      1276      1712      1713
 -1       445    8    0    1
 -2       158       159       315      1277      1714      1715
 -1       446    8    0    1
 -2       159       160       316      1278      1716      1717
 -1       447    8    0    1
 -2       160       161       317      1279      1718      1719
 -1       448    8    0    1
 -2       161       162       318      1280      1720      1721
 -1       449    8    0    1
 -2       162       163       319      1281      1722      1723
 -1       450    8    0    1
 -2       163       164       320      1282      1724      1725
 -1       451    8    0    1
 -2       164         2       321      1283      1726      1727
 -1       452    8    0    1
 -2       295       140       296      1674      1677      1728
 -1       453    8    0    1
 -2       294       139       295      1672      1675      1729
 -1       454    8    0    1
 -2       120       121       276      1622      1730      1619
 -1       455    8    0    1
 -2       121       277       276      1624      1731      1730
 -1       456    8    0    1
 -2       292       137       293      1668      1671      1732
 -1       457    8    0    1
 -2       293       138       294      1670      1673      1733
 -1       458    8    0    1
 -2         2       292       321      1669      1734      1726
 -1       459    8    0    1
 -2       141       297       296      1679      1735      1676
 -1       460    8    0    1
 -2       142       298       297      1681      1736      1678
 -1       461    8    0    1
 -2       143       299       298      1683      1737      1680
 -1       462    8    0    1
 -2       144       300       299      1685      1738      1682
 -1       463    8    0    1
 -2       145       301       300      1687      1739      1684
 -1       464    8    0    1
 -2       146       302       301      1689      1740      1686
 -1       465    8    0    1
 -2       147       303       302      1691      1741      1688
 -1       466    8    0    1
 -2       148       304       303      1693      1742      1690
 -1       467    8    0    1
 -2       149       305       304      1695      1743      1692
 -1       468    8    0    1
 -2       150       306       305      1697      1744      1694
 -1       469    8    0    1
 -2       151       307       306      1699      1745      1696
 -1       470    8    0    1
 -2       152       308       307      1701      1746      1698
 -1       471    8    0    1
 -2         1       309       308      1703      1747      1700
 -1       472    8    0    1
 -2       153       310       309      1705      1748      1702
 -1       473    8    0    1
 -2       154       311       310      1707      1749      1704
 -1       474    8    0    1
 -2       155       312       311      1709      1750      1706
 -1       475    8    0    1
 -2       156       313       312      1711      1751      1708
 -1       476    8    0    1
 -2       157       314       313      1713      1752      1710
 -1       477    8    0    1
 -2       158       315       314      1715      1753      1712
 -1       478    8    0    1
 -2       159       316       315      1717      1754      1714
 -1       479    8    0    1
 -2       160       317       316      1719      1755      1716
 -1       480    8    0    1
 -2       161       318       317      1721      1756      1718
 -1       481    8    0    1
 -2       162       319       318      1723      1757      1720
 -1       482    8    0    1
 -2       163       320       319      1725      1758      1722
 -1       483    8    0    1
 -2       164       321       320      1727      1759      1724
 -1       484    8    0    1
 -2        23         7       165      1284      1286      1760
 -1       485    8    0    1
 -2       166       167       322      1292      1761      1762
 -1       486    8    0    1
 -2       165       166       323      1289      1763      1764
 -1       487    8    0    1
 -2       166       322       323      1762      1765      1763
 -1       488    8    0    1
 -2       168       169       324      1298      1766      1767
 -1       489    8    0    1
 -2       169       170       325      1301      1768      1769
 -1       490    8    0    1
 -2       169       325       324      1769      1770      1766
 -1       491    8    0    1
 -2       170       171       326      1304      1771      1772
 -1       492    8    0    1
 -2       170       326       325      1772      1773      1768
 -1       493    8    0    1
 -2       171       172       327      1307      1774      1775
 -1       494    8    0    1
 -2       171       327       326      1775      1776      1771
 -1       495    8    0    1
 -2       172       173       328      1310      1777      1778
 -1       496    8    0    1
 -2       172       328       327      1778      1779      1774
 -1       497    8    0    1
 -2       173       174       329      1313      1780      1781
 -1       498    8    0    1
 -2       173       329       328      1781      1782      1777
 -1       499    8    0    1
 -2       174       175       330      1316      1783      1784
 -1       500    8    0    1
 -2       174       330       329      1784      1785      1780
 -1       501    8    0    1
 -2       175       176       331      1319      1786      1787
 -1       502    8    0    1
 -2       175       331       330      1787      1788      1783
 -1       503    8    0    1
 -2       176       177       332      1322      1789      1790
 -1       504    8    0    1
 -2       176       332       331      1790      1791      1786
 -1       505    8    0    1
 -2       177       178       333      1325      1792      1793
 -1       506    8    0    1
 -2       177       333       332      1793      1794      1789
 -1       507    8    0    1
 -2       178       179       334      1328      1795      1796
 -1       508    8    0    1
 -2       178       334       333      1796      1797      1792
 -1       509    8    0    1
 -2       179       180       335      1331      1798      1799
 -1       510    8    0    1
 -2       334       179       335      1795      1799      1800
 -1       511    8    0    1
 -2       180       229       335      1480      1801      1798
 -1       512    8    0    1
 -2       181        23       165      1333      1760      1802
 -1       513    8    0    1
 -2       229       230       336      1483      1803      1804
 -1       514    8    0    1
 -2       229       336       335      1804      1805      1801
 -1       515    8    0    1
 -2       181       165       323      1802      1764      1806
 -1       516    8    0    1
 -2       183       182       337      1340      1807      1808
 -1       517    8    0    1
 -2       184       183       338      1343      1809      1810
 -1       518    8    0    1
 -2       183       337       338      1808      1811      1809
 -1       519    8    0    1
 -2       185       184       339      1346      1812      1813
 -1       520    8    0    1
 -2       184       338       339      1810      1814      1812
 -1       521    8    0    1
 -2       186       185       340      1349      1815      1816
 -1       522    8    0    1
 -2       185       339       340      1813      1817      1815
 -1       523    8    0    1
 -2       187       186       341      1352      1818      1819
 -1       524    8    0    1
 -2       186       340       341      1816      1820      1818
 -1       525    8    0    1
 -2       188       187       342      1355      1821      1822
 -1       526    8    0    1
 -2       187       341       342      1819      1823      1821
 -1       527    8    0    1
 -2       189       188       343      1358      1824      1825
 -1       528    8    0    1
 -2       188       342       343      1822      1826      1824
 -1       529    8    0    1
 -2       190       189       344      1361      1827      1828
 -1       530    8    0    1
 -2       189       343       344      1825      1829      1827
 -1       531    8    0    1
 -2       191       190       345      1364      1830      1831
 -1       532    8    0    1
 -2       190       344       345      1828      1832      1830
 -1       533    8    0    1
 -2       192       191       346      1367      1833      1834
 -1       534    8    0    1
 -2       191       345       346      1831      1835      1833
 -1       535    8    0    1
 -2       193       192       347      1370      1836      1837
 -1       536    8    0    1
 -2       192       346       347      1834      1838      1836
 -1       537    8    0    1
 -2       194       193       348      1373      1839      1840
 -1       538    8    0    1
 -2       193       347       348      1837      1841      1839
 -1       539    8    0    1
 -2       195       194       349      1376      1842      1843
 -1       540    8    0    1
 -2       194       348       349      1840      1844      1842
 -1       541    8    0    1
 -2       196       195       350      1379      1845      1846
 -1       542    8    0    1
 -2       195       349       350      1843      1847      1845
 -1       543    8    0    1
 -2       197       196       351      1382      1848      1849
 -1       544    8    0    1
 -2       196       350       351      1846      1850      1848
 -1       545    8    0    1
 -2       198       197       352      1385      1851      1852
 -1       546    8    0    1
 -2       197       351       352      1849      1853      1851
 -1       547    8    0    1
 -2       199       198       353      1388      1854      1855
 -1       548    8    0    1
 -2       198       352       353      1852      1856      1854
 -1       549    8    0    1
 -2       200       199       354      1391      1857      1858
 -1       550    8    0    1
 -2       199       353       354      1855      1859      1857
 -1       551    8    0    1
 -2       201       200       355      1394      1860      1861
 -1       552    8    0    1
 -2       200       354       355      1858      1862      1860
 -1       553    8    0    1
 -2       202       201       356      1397      1863      1864
 -1       554    8    0    1
 -2       201       355       356      1861      1865      1863
 -1       555    8    0    1
 -2       203       202       357      1400      1866      1867
 -1       556    8    0    1
 -2       202       356       357      1864      1868      1866
 -1       557    8    0    1
 -2       204       203       358      1403      1869      1870
 -1       558    8    0    1
 -2       203       357       358      1867      1871      1869
 -1       559    8    0    1
 -2       205       204       359      1406      1872      1873
 -1       560    8    0    1
 -2       204       358       359      1870      1874      1872
 -1       561    8    0    1
 -2       206       205       360      1409      1875      1876
 -1       562    8    0    1
 -2       205       359       360      1873      1877      1875
 -1       563    8    0    1
 -2       207       206       361      1412      1878      1879
 -1       564    8    0    1
 -2       206       360       361      1876      1880      1878
 -1       565    8    0    1
 -2       208       207       362      1415      1881      1882
 -1       566    8    0    1
 -2       207       361       362      1879      1883      1881
 -1       567    8    0    1
 -2       209       208       363      1418      1884      1885
 -1       568    8    0    1
 -2       208       362       363      1882      1886      1884
 -1       569    8    0    1
 -2       210       209       364      1421      1887      1888
 -1       570    8    0    1
 -2       209       363       364      1885      1889      1887
 -1       571    8    0    1
 -2       211       210       365      1424      1890      1891
 -1       572    8    0    1
 -2       210       364       365      1888      1892      1890
 -1       573    8    0    1
 -2       212       211       366      1427      1893      1894
 -1       574    8    0    1
 -2       211       365       366      1891      1895      1893
 -1       575    8    0    1
 -2       213       212       367      1430      1896      1897
 -1       576    8    0    1
 -2       212       366       367      1894      1898      1896
 -1       577    8    0    1
 -2       214       213       368      1433      1899      1900
 -1       578    8    0    1
 -2       213       367       368      1897      1901      1899
 -1       579    8    0    1
 -2       215       214       369      1436      1902      1903
 -1       580    8    0    1
 -2       214       368       369      1900      1904      1902
 -1       581    8    0    1
 -2       216       215       370      1439      1905      1906
 -1       582    8    0    1
 -2       215       369       370      1903      1907      1905
 -1       583    8    0    1
 -2       217       216       371      1442      1908      1909
 -1       584    8    0    1
 -2       216       370       371      1906      1910      1908
 -1       585    8    0    1
 -2       218       217       372      1445      1911      1912
 -1       586    8    0    1
 -2       217       371       372      1909      1913      1911
 -1       587    8    0    1
 -2       219       218       373      1448      1914      1915
 -1       588    8    0    1
 -2       218       372       373      1912      1916      1914
 -1       589    8    0    1
 -2       220       219       374      1451      1917      1918
 -1       590    8    0    1
 -2       219       373       374      1915      1919      1917
 -1       591    8    0    1
 -2       221       220       375      1454      1920      1921
 -1       592    8    0    1
 -2       220       374       375      1918      1922      1920
 -1       593    8    0    1
 -2       222       221       376      1457      1923      1924
 -1       594    8    0    1
 -2       221       375       376      1921      1925      1923
 -1       595    8    0    1
 -2       223       222       377      1460      1926      1927
 -1       596    8    0    1
 -2       222       376       377      1924      1928      1926
 -1       597    8    0    1
 -2       224       223       378      1463      1929      1930
 -1       598    8    0    1
 -2       223       377       378      1927      1931      1929
 -1       599    8    0    1
 -2       225       224       379      1466      1932      1933
 -1       600    8    0    1
 -2       224       378       379      1930      1934      1932
 -1       601    8    0    1
 -2       226       225       380      1469      1935      1936
 -1       602    8    0    1
 -2       225       379       380      1933      1937      1935
 -1       603    8    0    1
 -2       227       226       381      1472      1938      1939
 -1       604    8    0    1
 -2       226       380       381      1936      1940      1938
 -1       605    8    0    1
 -2       228       227       382      1475      1941      1942
 -1       606    8    0    1
 -2       291       228       382      1667      1942      1943
 -1       607    8    0    1
 -2       227       381       382      1939      1944      1941
 -1       608    8    0    1
 -2       230       231       383      1486      1945      1946
 -1       609    8    0    1
 -2       230       383       336      1946      1947      1803
 -1       610    8    0    1
 -2       231       232       384      1489      1948      1949
 -1       611    8    0    1
 -2       231       384       383      1949      1950      1945
 -1       612    8    0    1
 -2       232       233       385      1492      1951      1952
 -1       613    8    0    1
 -2       232       385       384      1952      1953      1948
 -1       614    8    0    1
 -2       233       234       386      1495      1954      1955
 -1       615    8    0    1
 -2       233       386       385      1955      1956      1951
 -1       616    8    0    1
 -2       234       235       387      1498      1957      1958
 -1       617    8    0    1
 -2       234       387       386      1958      1959      1954
 -1       618    8    0    1
 -2       235       236       388      1501      1960      1961
 -1       619    8    0    1
 -2       235       388       387      1961      1962      1957
 -1       620    8    0    1
 -2       236       237       389      1504      1963      1964
 -1       621    8    0    1
 -2       236       389       388      1964      1965      1960
 -1       622    8    0    1
 -2       237       238       390      1507      1966      1967
 -1       623    8    0    1
 -2       237       390       389      1967      1968      1963
 -1       624    8    0    1
 -2       238       239       391      1510      1969      1970
 -1       625    8    0    1
 -2       238       391       390      1970      1971      1966
 -1       626    8    0    1
 -2       239       240       392      1513      1972      1973
 -1       627    8    0    1
 -2       239       392       391      1973      1974      1969
 -1       628    8    0    1
 -2       240       241       393      1516      1975      1976
 -1       629    8    0    1
 -2       240       393       392      1976      1977      1972
 -1       630    8    0    1
 -2       241       242       394      1519      1978      1979
 -1       631    8    0    1
 -2       241       394       393      1979      1980      1975
 -1       632    8    0    1
 -2       242       243       395      1522      1981      1982
 -1       633    8    0    1
 -2       242       395       394      1982      1983      1978
 -1       634    8    0    1
 -2       243       244       396      1525      1984      1985
 -1       635    8    0    1
 -2       243       396       395      1985      1986      1981
 -1       636    8    0    1
 -2       244       245       397      1528      1987      1988
 -1       637    8    0    1
 -2       244       397       396      1988      1989      1984
 -1       638    8    0    1
 -2       245       246       398      1531      1990      1991
 -1       639    8    0    1
 -2       245       398       397      1991      1992      1987
 -1       640    8    0    1
 -2       246       247       399      1534      1993      1994
 -1       641    8    0    1
 -2       246       399       398      1994      1995      1990
 -1       642    8    0    1
 -2       247       248       400      1537      1996      1997
 -1       643    8    0    1
 -2       247       400       399      1997      1998      1993
 -1       644    8    0    1
 -2       248       249       401      1540      1999      2000
 -1       645    8    0    1
 -2       248       401       400      2000      2001      1996
 -1       646    8    0    1
 -2       249       250       402      1543      2002      2003
 -1       647    8    0    1
 -2       249       402       401      2003      2004      1999
 -1       648    8    0    1
 -2       250       251       403      1546      2005      2006
 -1       649    8    0    1
 -2       250       403       402      2006      2007      2002
 -1       650    8    0    1
 -2       251       252       404      1549      2008      2009
 -1       651    8    0    1
 -2       251       404       403      2009      2010      2005
 -1       652    8    0    1
 -2       252       253       405      1552      2011      2012
 -1       653    8    0    1
 -2       252       405       404      2012      2013      2008
 -1       654    8    0    1
 -2       253       254       406      1555      2014      2015
 -1       655    8    0    1
 -2       253       406       405      2015      2016      2011
 -1       656    8    0    1
 -2       254       255       407      1558      2017      2018
 -1       657    8    0    1
 -2       254       407       406      2018      2019      2014
 -1       658    8    0    1
 -2       255       256       408      1561      2020      2021
 -1       659    8    0    1
 -2       255       408       407      2021      2022      2017
 -1       660    8    0    1
 -2       256       257       409      1564      2023      2024
 -1       661    8    0    1
 -2       256       409       408      2024      2025      2020
 -1       662    8    0    1
 -2       257       258       410      1567      2026      2027
 -1       663    8    0    1
 -2       257       410       409      2027      2028      2023
 -1       664    8    0    1
 -2       258       259       411      1570      2029      2030
 -1       665    8    0    1
 -2       258       411       410      2030      2031      2026
 -1       666    8    0    1
 -2       259       260       412      1573      2032      2033
 -1       667    8    0    1
 -2       259       412       411      2033      2034      2029
 -1       668    8    0    1
 -2       260       261       413      1576      2035      2036
 -1       669    8    0    1
 -2       260       413       412      2036      2037      2032
 -1       670    8    0    1
 -2       261       262       414      1579      2038      2039
 -1       671    8    0    1
 -2       261       414       413      2039      2040      2035
 -1       672    8    0    1
 -2       262       263       415      1582      2041      2042
 -1       673    8    0    1
 -2       262       415       414      2042      2043      2038
 -1       674    8    0    1
 -2       263       264       416      1585      2044      2045
 -1       675    8    0    1
 -2       263       416       415      2045      2046      2041
 -1       676    8    0    1
 -2       264       265       417      1588      2047      2048
 -1       677    8    0    1
 -2       264       417       416      2048      2049      2044
 -1       678    8    0    1
 -2       265       266       418      1591      2050      2051
 -1       679    8    0    1
 -2       265       418       417      2051      2052      2047
 -1       680    8    0    1
 -2       266       267       419      1594      2053      2054
 -1       681    8    0    1
 -2       266       419       418      2054      2055      2050
 -1       682    8    0    1
 -2       267       268       420      1597      2056      2057
 -1       683    8    0    1
 -2       267       420       419      2057      2058      2053
 -1       684    8    0    1
 -2       268       269       421      1600      2059      2060
 -1       685    8    0    1
 -2       268       421       420      2060      2061      2056
 -1       686    8    0    1
 -2       269       270       422      1603      2062      2063
 -1       687    8    0    1
 -2       269       422       421      2063      2064      2059
 -1       688    8    0    1
 -2       270       271       423      1606      2065      2066
 -1       689    8    0    1
 -2       270       423       422      2066      2067      2062
 -1       690    8    0    1
 -2       271       272       424      1609      2068      2069
 -1       691    8    0    1
 -2       271       424       423      2069      2070      2065
 -1       692    8    0    1
 -2       272       273       425      1612      2071      2072
 -1       693    8    0    1
 -2       272       425       424      2072      2073      2068
 -1       694    8    0    1
 -2       273       274       426      1615      2074      2075
 -1       695    8    0    1
 -2       273       426       425      2075      2076      2071
 -1       696    8    0    1
 -2       274       275       427      1618      2077      2078
 -1       697    8    0    1
 -2       274       427       426      2078      2079      2074
 -1       698    8    0    1
 -2       275       276       428      1621      2080      2081
 -1       699    8    0    1
 -2       427       275       428      2077      2081      2082
 -1       700    8    0    1
 -2       276       277       428      1731      2083      2080
 -1       701    8    0    1
 -2       279       280       429      1633      2084      2085
 -1       702    8    0    1
 -2       278       279       430      1630      2086      2087
 -1       703    8    0    1
 -2       279       429       430      2085      2088      2086
 -1       704    8    0    1
 -2       277       278       431      1627      2089      2090
 -1       705    8    0    1
 -2       428       277       431      2083      2090      2091
 -1       706    8    0    1
 -2       278       430       431      2087      2092      2089
 -1       707    8    0    1
 -2       280       281       432      1636      2093      2094
 -1       708    8    0    1
 -2       280       432       429      2094      2095      2084
 -1       709    8    0    1
 -2       281       282       433      1639      2096      2097
 -1       710    8    0    1
 -2       281       433       432      2097      2098      2093
 -1       711    8    0    1
 -2       282       283       434      1642      2099      2100
 -1       712    8    0    1
 -2       282       434       433      2100      2101      2096
 -1       713    8    0    1
 -2       283       284       435      1645      2102      2103
 -1       714    8    0    1
 -2       283       435       434      2103      2104      2099
 -1       715    8    0    1
 -2       284       285       436      1648      2105      2106
 -1       716    8    0    1
 -2       284       436       435      2106      2107      2102
 -1       717    8    0    1
 -2       285       286       437      1651      2108      2109
 -1       718    8    0    1
 -2       285       437       436      2109      2110      2105
 -1       719    8    0    1
 -2       286       287       438      1654      2111      2112
 -1       720    8    0    1
 -2       286       438       437      2112      2113      2108
 -1       721    8    0    1
 -2       287       288       439      1657      2114      2115
 -1       722    8    0    1
 -2       287       439       438      2115      2116      2111
 -1       723    8    0    1
 -2       288       289       440      1660      2117      2118
 -1       724    8    0    1
 -2       288       440       439      2118      2119      2114
 -1       725    8    0    1
 -2       289       290       441      1663      2120      2121
 -1       726    8    0    1
 -2       289       441       440      2121      2122      2117
 -1       727    8    0    1
 -2       293       294       442      1733      2123      2124
 -1       728    8    0    1
 -2       321       292       443      1734      2125      2126
 -1       729    8    0    1
 -2       292       293       444      1732      2127      2128
 -1       730    8    0    1
 -2       294       295       445      1729      2129      2130
 -1       731    8    0    1
 -2       295       296       446      1728      2131      2132
 -1       732    8    0    1
 -2       295       446       445      2132      2133      2129
 -1       733    8    0    1
 -2       167       168       447      1295      2134      2135
 -1       734    8    0    1
 -2       322       167       447      1761      2135      2136
 -1       735    8    0    1
 -2       168       324       447      1767      2137      2134
 -1       736    8    0    1
 -2       297       298       448      1736      2138      2139
 -1       737    8    0    1
 -2       298       299       449      1737      2140      2141
 -1       738    8    0    1
 -2       299       300       450      1738      2142      2143
 -1       739    8    0    1
 -2       300       301       451      1739      2144      2145
 -1       740    8    0    1
 -2       301       302       452      1740      2146      2147
 -1       741    8    0    1
 -2       302       303       453      1741      2148      2149
 -1       742    8    0    1
 -2       303       304       454      1742      2150      2151
 -1       743    8    0    1
 -2       304       305       455      1743      2152      2153
 -1       744    8    0    1
 -2       305       306       456      1744      2154      2155
 -1       745    8    0    1
 -2       306       307       457      1745      2156      2157
 -1       746    8    0    1
 -2       307       308       458      1746      2158      2159
 -1       747    8    0    1
 -2       308       309       459      1747      2160      2161
 -1       748    8    0    1
 -2       309       310       460      1748      2162      2163
 -1       749    8    0    1
 -2       310       311       461      1749      2164      2165
 -1       750    8    0    1
 -2       311       312       462      1750      2166      2167
 -1       751    8    0    1
 -2       312       313       463      1751      2168      2169
 -1       752    8    0    1
 -2       312       463       462      2169      2170      2166
 -1       753    8    0    1
 -2       313       314       464      1752      2171      2172
 -1       754    8    0    1
 -2       314       315       465      1753      2173      2174
 -1       755    8    0    1
 -2       315       316       466      1754      2175      2176
 -1       756    8    0    1
 -2       316       317       467      1755      2177      2178
 -1       757    8    0    1
 -2       317       318       468      1756      2179      2180
 -1       758    8    0    1
 -2       317       468       467      2180      2181      2177
 -1       759    8    0    1
 -2       318       319       469      1757      2182      2183
 -1       760    8    0    1
 -2       319       320       470      1758      2184      2185
 -1       761    8    0    1
 -2       320       321       471      1759      2186      2187
 -1       762    8    0    1
 -2       296       297       472      1735      2188      2189
 -1       763    8    0    1
 -2       181       323       182      1806      2190      1337
 -1       764    8    0    1
 -2       446       296       472      2131      2189      2191
 -1       765    8    0    1
 -2       297       448       472      2139      2192      2188
 -1       766    8    0    1
 -2       337       182       323      1807      2190      2193
 -1       767    8    0    1
 -2       444       293       442      2127      2124      2194
 -1       768    8    0    1
 -2       443       292       444      2125      2128      2195
 -1       769    8    0    1
 -2       441       290       291      2120      1666      2196
 -1       770    8    0    1
 -2       442       294       445      2123      2130      2197
 -1       771    8    0    1
 -2       321       443       471      2126      2198      2186
 -1       772    8    0    1
 -2       470       320       471      2184      2187      2199
 -1       773    8    0    1
 -2       468       318       469      2179      2183      2200
 -1       774    8    0    1
 -2       466       316       467      2175      2178      2201
 -1       775    8    0    1
 -2       465       315       466      2173      2176      2202
 -1       776    8    0    1
 -2       463       313       464      2168      2172      2203
 -1       777    8    0    1
 -2       461       311       462      2164      2167      2204
 -1       778    8    0    1
 -2       460       310       461      2162      2165      2205
 -1       779    8    0    1
 -2       459       309       460      2160      2163      2206
 -1       780    8    0    1
 -2       458       308       459      2158      2161      2207
 -1       781    8    0    1
 -2       457       307       458      2156      2159      2208
 -1       782    8    0    1
 -2       456       306       457      2154      2157      2209
 -1       783    8    0    1
 -2       455       305       456      2152      2155      2210
 -1       784    8    0    1
 -2       454       304       455      2150      2153      2211
 -1       785    8    0    1
 -2       453       303       454      2148      2151      2212
 -1       786    8    0    1
 -2       452       302       453      2146      2149      2213
 -1       787    8    0    1
 -2       451       301       452      2144      2147      2214
 -1       788    8    0    1
 -2       450       300       451      2142      2145      2215
 -1       789    8    0    1
 -2       448       298       449      2138      2141      2216
 -1       790    8    0    1
 -2       449       299       450      2140      2143      2217
 -1       791    8    0    1
 -2       464       314       465      2171      2174      2218
 -1       792    8    0    1
 -2       469       319       470      2182      2185      2219
 -1       793    8    0    1
 -2       336       383       473      1947      2220      2221
 -1       794    8    0    1
 -2       325       326       474      1773      2222      2223
 -1       795    8    0    1
 -2       324       325       475      1770      2224      2225
 -1       796    8    0    1
 -2       325       474       475      2223      2226      2224
 -1       797    8    0    1
 -2       327       328       476      1779      2227      2228
 -1       798    8    0    1
 -2       328       329       477      1782      2229      2230
 -1       799    8    0    1
 -2       328       477       476      2230      2231      2227
 -1       800    8    0    1
 -2       329       330       478      1785      2232      2233
 -1       801    8    0    1
 -2       329       478       477      2233      2234      2229
 -1       802    8    0    1
 -2       330       331       479      1788      2235      2236
 -1       803    8    0    1
 -2       330       479       478      2236      2237      2232
 -1       804    8    0    1
 -2       331       332       480      1791      2238      2239
 -1       805    8    0    1
 -2       331       480       479      2239      2240      2235
 -1       806    8    0    1
 -2       332       333       481      1794      2241      2242
 -1       807    8    0    1
 -2       332       481       480      2242      2243      2238
 -1       808    8    0    1
 -2       383       384       482      1950      2244      2245
 -1       809    8    0    1
 -2       383       482       473      2245      2246      2220
 -1       810    8    0    1
 -2       338       337       483      1811      2247      2248
 -1       811    8    0    1
 -2       446       472       484      2191      2249      2250
 -1       812    8    0    1
 -2       339       338       485      1814      2251      2252
 -1       813    8    0    1
 -2       338       483       485      2248      2253      2251
 -1       814    8    0    1
 -2       340       339       486      1817      2254      2255
 -1       815    8    0    1
 -2       339       485       486      2252      2256      2254
 -1       816    8    0    1
 -2       341       340       487      1820      2257      2258
 -1       817    8    0    1
 -2       340       486       487      2255      2259      2257
 -1       818    8    0    1
 -2       342       341       488      1823      2260      2261
 -1       819    8    0    1
 -2       341       487       488      2258      2262      2260
 -1       820    8    0    1
 -2       343       342       489      1826      2263      2264
 -1       821    8    0    1
 -2       342       488       489      2261      2265      2263
 -1       822    8    0    1
 -2       344       343       490      1829      2266      2267
 -1       823    8    0    1
 -2       343       489       490      2264      2268      2266
 -1       824    8    0    1
 -2       345       344       491      1832      2269      2270
 -1       825    8    0    1
 -2       344       490       491      2267      2271      2269
 -1       826    8    0    1
 -2       346       345       492      1835      2272      2273
 -1       827    8    0    1
 -2       345       491       492      2270      2274      2272
 -1       828    8    0    1
 -2       347       346       493      1838      2275      2276
 -1       829    8    0    1
 -2       346       492       493      2273      2277      2275
 -1       830    8    0    1
 -2       348       347       494      1841      2278      2279
 -1       831    8    0    1
 -2       347       493       494      2276      2280      2278
 -1       832    8    0    1
 -2       349       348       495      1844      2281      2282
 -1       833    8    0    1
 -2       348       494       495      2279      2283      2281
 -1       834    8    0    1
 -2       350       349       496      1847      2284      2285
 -1       835    8    0    1
 -2       349       495       496      2282      2286      2284
 -1       836    8    0    1
 -2       351       350       497      1850      2287      2288
 -1       837    8    0    1
 -2       350       496       497      2285      2289      2287
 -1       838    8    0    1
 -2       352       351       498      1853      2290      2291
 -1       839    8    0    1
 -2       351       497       498      2288      2292      2290
 -1       840    8    0    1
 -2       353       352       499      1856      2293      2294
 -1       841    8    0    1
 -2       352       498       499      2291      2295      2293
 -1       842    8    0    1
 -2       354       353       500      1859      2296      2297
 -1       843    8    0    1
 -2       353       499       500      2294      2298      2296
 -1       844    8    0    1
 -2       355       354       501      1862      2299      2300
 -1       845    8    0    1
 -2       354       500       501      2297      2301      2299
 -1       846    8    0    1
 -2       356       355       502      1865      2302      2303
 -1       847    8    0    1
 -2       355       501       502      2300      2304      2302
 -1       848    8    0    1
 -2       357       356       503      1868      2305      2306
 -1       849    8    0    1
 -2       356       502       503      2303      2307      2305
 -1       850    8    0    1
 -2       358       357       504      1871      2308      2309
 -1       851    8    0    1
 -2       357       503       504      2306      2310      2308
 -1       852    8    0    1
 -2       359       358       505      1874      2311      2312
 -1       853    8    0    1
 -2       358       504       505      2309      2313      2311
 -1       854    8    0    1
 -2       360       359       506      1877      2314      2315
 -1       855    8    0    1
 -2       359       505       506      2312      2316      2314
 -1       856    8    0    1
 -2       361       360       507      1880      2317      2318
 -1       857    8    0    1
 -2       360       506       507      2315      2319      2317
 -1       858    8    0    1
 -2       362       361       508      1883      2320      2321
 -1       859    8    0    1
 -2       361       507       508      2318      2322      2320
 -1       860    8    0    1
 -2       363       362       509      1886      2323      2324
 -1       861    8    0    1
 -2       362       508       509      2321      2325      2323
 -1       862    8    0    1
 -2       364       363       510      1889      2326      2327
 -1       863    8    0    1
 -2       363       509       510      2324      2328      2326
 -1       864    8    0    1
 -2       365       364       511      1892      2329      2330
 -1       865    8    0    1
 -2       364       510       511      2327      2331      2329
 -1       866    8    0    1
 -2       366       365       512      1895      2332      2333
 -1       867    8    0    1
 -2       365       511       512      2330      2334      2332
 -1       868    8    0    1
 -2       367       366       513      1898      2335      2336
 -1       869    8    0    1
 -2       366       512       513      2333      2337      2335
 -1       870    8    0    1
 -2       368       367       514      1901      2338      2339
 -1       871    8    0    1
 -2       367       513       514      2336      2340      2338
 -1       872    8    0    1
 -2       369       368       515      1904      2341      2342
 -1       873    8    0    1
 -2       368       514       515      2339      2343      2341
 -1       874    8    0    1
 -2       370       369       516      1907      2344      2345
 -1       875    8    0    1
 -2       369       515       516      2342      2346      2344
 -1       876    8    0    1
 -2       371       370       517      1910      2347      2348
 -1       877    8    0    1
 -2       370       516       517      2345      2349      2347
 -1       878    8    0    1
 -2       372       371       518      1913      2350      2351
 -1       879    8    0    1
 -2       371       517       518      2348      2352      2350
 -1       880    8    0    1
 -2       373       372       519      1916      2353      2354
 -1       881    8    0    1
 -2       372       518       519      2351      2355      2353
 -1       882    8    0    1
 -2       374       373       520      1919      2356      2357
 -1       883    8    0    1
 -2       373       519       520      2354      2358      2356
 -1       884    8    0    1
 -2       375       374       521      1922      2359      2360
 -1       885    8    0    1
 -2       374       520       521      2357      2361      2359
 -1       886    8    0    1
 -2       376       375       522      1925      2362      2363
 -1       887    8    0    1
 -2       375       521       522      2360      2364      2362
 -1       888    8    0    1
 -2       377       376       523      1928      2365      2366
 -1       889    8    0    1
 -2       376       522       523      2363      2367      2365
 -1       890    8    0    1
 -2       378       377       524      1931      2368      2369
 -1       891    8    0    1
 -2       377       523       524      2366      2370      2368
 -1       892    8    0    1
 -2       379       378       525      1934      2371      2372
 -1       893    8    0    1
 -2       378       524       525      2369      2373      2371
 -1       894    8    0    1
 -2       380       379       526      1937      2374      2375
 -1       895    8    0    1
 -2       379       525       526      2372      2376      2374
 -1       896    8    0    1
 -2       381       380       527      1940      2377      2378
 -1       897    8    0    1
 -2       380       526       527      2375      2379      2377
 -1       898    8    0    1
 -2       385       386       528      1956      2380      2381
 -1       899    8    0    1
 -2       386       387       529      1959      2382      2383
 -1       900    8    0    1
 -2       386       529       528      2383      2384      2380
 -1       901    8    0    1
 -2       387       388       530      1962      2385      2386
 -1       902    8    0    1
 -2       387       530       529      2386      2387      2382
 -1       903    8    0    1
 -2       388       389       531      1965      2388      2389
 -1       904    8    0    1
 -2       388       531       530      2389      2390      2385
 -1       905    8    0    1
 -2       389       390       532      1968      2391      2392
 -1       906    8    0    1
 -2       389       532       531      2392      2393      2388
 -1       907    8    0    1
 -2       390       391       533      1971      2394      2395
 -1       908    8    0    1
 -2       390       533       532      2395      2396      2391
 -1       909    8    0    1
 -2       391       392       534      1974      2397      2398
 -1       910    8    0    1
 -2       391       534       533      2398      2399      2394
 -1       911    8    0    1
 -2       392       393       535      1977      2400      2401
 -1       912    8    0    1
 -2       392       535       534      2401      2402      2397
 -1       913    8    0    1
 -2       393       394       536      1980      2403      2404
 -1       914    8    0    1
 -2       393       536       535      2404      2405      2400
 -1       915    8    0    1
 -2       394       395       537      1983      2406      2407
 -1       916    8    0    1
 -2       394       537       536      2407      2408      2403
 -1       917    8    0    1
 -2       395       396       538      1986      2409      2410
 -1       918    8    0    1
 -2       395       538       537      2410      2411      2406
 -1       919    8    0    1
 -2       396       397       539      1989      2412      2413
 -1       920    8    0    1
 -2       396       539       538      2413      2414      2409
 -1       921    8    0    1
 -2       397       398       540      1992      2415      2416
 -1       922    8    0    1
 -2       397       540       539      2416      2417      2412
 -1       923    8    0    1
 -2       398       399       541      1995      2418      2419
 -1       924    8    0    1
 -2       398       541       540      2419      2420      2415
 -1       925    8    0    1
 -2       399       400       542      1998      2421      2422
 -1       926    8    0    1
 -2       399       542       541      2422      2423      2418
 -1       927    8    0    1
 -2       400       401       543      2001      2424      2425
 -1       928    8    0    1
 -2       400       543       542      2425      2426      2421
 -1       929    8    0    1
 -2       401       402       544      2004      2427      2428
 -1       930    8    0    1
 -2       401       544       543      2428      2429      2424
 -1       931    8    0    1
 -2       402       403       545      2007      2430      2431
 -1       932    8    0    1
 -2       402       545       544      2431      2432      2427
 -1       933    8    0    1
 -2       403       404       546      2010      2433      2434
 -1       934    8    0    1
 -2       403       546       545      2434      2435      2430
 -1       935    8    0    1
 -2       404       405       547      2013      2436      2437
 -1       936    8    0    1
 -2       404       547       546      2437      2438      2433
 -1       937    8    0    1
 -2       405       406       548      2016      2439      2440
 -1       938    8    0    1
 -2       405       548       547      2440      2441      2436
 -1       939    8    0    1
 -2       406       407       549      2019      2442      2443
 -1       940    8    0    1
 -2       406       549       548      2443      2444      2439
 -1       941    8    0    1
 -2       407       408       550      2022      2445      2446
 -1       942    8    0    1
 -2       407       550       549      2446      2447      2442
 -1       943    8    0    1
 -2       408       409       551      2025      2448      2449
 -1       944    8    0    1
 -2       408       551       550      2449      2450      2445
 -1       945    8    0    1
 -2       409       410       552      2028      2451      2452
 -1       946    8    0    1
 -2       409       552       551      2452      2453      2448
 -1       947    8    0    1
 -2       410       411       553      2031      2454      2455
 -1       948    8    0    1
 -2       410       553       552      2455      2456      2451
 -1       949    8    0    1
 -2       411       412       554      2034      2457      2458
 -1       950    8    0    1
 -2       411       554       553      2458      2459      2454
 -1       951    8    0    1
 -2       412       413       555      2037      2460      2461
 -1       952    8    0    1
 -2       412       555       554      2461      2462      2457
 -1       953    8    0    1
 -2       413       414       556      2040      2463      2464
 -1       954    8    0    1
 -2       413       556       555      2464      2465      2460
 -1       955    8    0    1
 -2       414       415       557      2043      2466      2467
 -1       956    8    0    1
 -2       414       557       556      2467      2468      2463
 -1       957    8    0    1
 -2       415       416       558      2046      2469      2470
 -1       958    8    0    1
 -2       415       558       557      2470      2471      2466
 -1       959    8    0    1
 -2       416       417       559      2049      2472      2473
 -1       960    8    0    1
 -2       416       559       558      2473      2474      2469
 -1       961    8    0    1
 -2       417       418       560      2052      2475      2476
 -1       962    8    0    1
 -2       417       560       559      2476      2477      2472
 -1       963    8    0    1
 -2       418       419       561      2055      2478      2479
 -1       964    8    0    1
 -2       418       561       560      2479      2480      2475
 -1       965    8    0    1
 -2       419       420       562      2058      2481      2482
 -1       966    8    0    1
 -2       419       562       561      2482      2483      2478
 -1       967    8    0    1
 -2       420       421       563      2061      2484      2485
 -1       968    8    0    1
 -2       420       563       562      2485      2486      2481
 -1       969    8    0    1
 -2       421       422       564      2064      2487      2488
 -1       970    8    0    1
 -2       421       564       563      2488      2489      2484
 -1       971    8    0    1
 -2       422       423       565      2067      2490      2491
 -1       972    8    0    1
 -2       422       565       564      2491      2492      2487
 -1       973    8    0    1
 -2       423       424       566      2070      2493      2494
 -1       974    8    0    1
 -2       423       566       565      2494      2495      2490
 -1       975    8    0    1
 -2       424       425       567      2073      2496      2497
 -1       976    8    0    1
 -2       424       567       566      2497      2498      2493
 -1       977    8    0    1
 -2       425       426       568      2076      2499      2500
 -1       978    8    0    1
 -2       425       568       567      2500      2501      2496
 -1       979    8    0    1
 -2       426       427       569      2079      2502      2503
 -1       980    8    0    1
 -2       426       569       568      2503      2504      2499
 -1       981    8    0    1
 -2       427       428       431      2082      2091      2505
 -1       982    8    0    1
 -2       432       433       570      2098      2506      2507
 -1       983    8    0    1
 -2       433       434       571      2101      2508      2509
 -1       984    8    0    1
 -2       433       571       570      2509      2510      2506
 -1       985    8    0    1
 -2       430       429       572      2088      2511      2512
 -1       986    8    0    1
 -2       429       432       573      2095      2513      2514
 -1       987    8    0    1
 -2       572       429       573      2511      2514      2515
 -1       988    8    0    1
 -2       432       570       573      2507      2516      2513
 -1       989    8    0    1
 -2       434       435       574      2104      2517      2518
 -1       990    8    0    1
 -2       434       574       571      2518      2519      2508
 -1       991    8    0    1
 -2       435       436       575      2107      2520      2521
 -1       992    8    0    1
 -2       435       575       574      2521      2522      2517
 -1       993    8    0    1
 -2       436       437       576      2110      2523      2524
 -1       994    8    0    1
 -2       436       576       575      2524      2525      2520
 -1       995    8    0    1
 -2       437       438       577      2113      2526      2527
 -1       996    8    0    1
 -2       437       577       576      2527      2528      2523
 -1       997    8    0    1
 -2       438       439       578      2116      2529      2530
 -1       998    8    0    1
 -2       438       578       577      2530      2531      2526
 -1       999    8    0    1
 -2       439       440       579      2119      2532      2533
 -1      1000    8    0    1
 -2       439       579       578      2533      2534      2529
 -1      1001    8    0    1
 -2       440       441       580      2122      2535      2536
 -1      1002    8    0    1
 -2       440       580       579      2536      2537      2532
 -1      1003    8    0    1
 -2       443       444       581      2195      2538      2539
 -1      1004    8    0    1
 -2       442       445       582      2197      2540      2541
 -1      1005    8    0    1
 -2       384       385       583      1953      2542      2543
 -1      1006    8    0    1
 -2       385       528       583      2381      2544      2542
 -1      1007    8    0    1
 -2       441       291       382      2196      1943      2545
 -1      1008    8    0    1
 -2       471       443       584      2198      2546      2547
 -1      1009    8    0    1
 -2       445       446       585      2133      2548      2549
 -1      1010    8    0    1
 -2       337       323       586      2193      2550      2551
 -1      1011    8    0    1
 -2       483       337       586      2247      2551      2552
 -1      1012    8    0    1
 -2       323       322       586      1765      2553      2550
 -1      1013    8    0    1
 -2       470       471       587      2199      2554      2555
 -1      1014    8    0    1
 -2       466       467       588      2201      2556      2557
 -1      1015    8    0    1
 -2       461       462       589      2204      2558      2559
 -1      1016    8    0    1
 -2       326       327       590      1776      2560      2561
 -1      1017    8    0    1
 -2       474       326       590      2222      2561      2562
 -1      1018    8    0    1
 -2       327       476       590      2228      2563      2560
 -1      1019    8    0    1
 -2       449       450       591      2217      2564      2565
 -1      1020    8    0    1
 -2       464       465       592      2218      2566      2567
 -1      1021    8    0    1
 -2       448       449       593      2216      2568      2569
 -1      1022    8    0    1
 -2       450       451       594      2215      2570      2571
 -1      1023    8    0    1
 -2       451       452       595      2214      2572      2573
 -1      1024    8    0    1
 -2       452       453       596      2213      2574      2575
 -1      1025    8    0    1
 -2       453       454       597      2212      2576      2577
 -1      1026    8    0    1
 -2       454       455       598      2211      2578      2579
 -1      1027    8    0    1
 -2       454       598       597      2579      2580      2576
 -1      1028    8    0    1
 -2       455       456       599      2210      2581      2582
 -1      1029    8    0    1
 -2       456       457       600      2209      2583      2584
 -1      1030    8    0    1
 -2       457       458       601      2208      2585      2586
 -1      1031    8    0    1
 -2       458       459       602      2207      2587      2588
 -1      1032    8    0    1
 -2       459       460       603      2206      2589      2590
 -1      1033    8    0    1
 -2       460       461       604      2205      2591      2592
 -1      1034    8    0    1
 -2       462       463       605      2170      2593      2594
 -1      1035    8    0    1
 -2       469       470       606      2219      2595      2596
 -1      1036    8    0    1
 -2       463       464       607      2203      2597      2598
 -1      1037    8    0    1
 -2       465       466       608      2202      2599      2600
 -1      1038    8    0    1
 -2       465       608       592      2600      2601      2566
 -1      1039    8    0    1
 -2       467       468       609      2181      2602      2603
 -1      1040    8    0    1
 -2       468       469       610      2200      2604      2605
 -1      1041    8    0    1
 -2       468       610       609      2605      2606      2602
 -1      1042    8    0    1
 -2       472       448       611      2192      2607      2608
 -1      1043    8    0    1
 -2       335       336       612      1805      2609      2610
 -1      1044    8    0    1
 -2       334       335       612      1800      2610      2611
 -1      1045    8    0    1
 -2       336       473       612      2221      2612      2609
 -1      1046    8    0    1
 -2       444       442       613      2194      2613      2614
 -1      1047    8    0    1
 -2       449       591       593      2565      2615      2568
 -1      1048    8    0    1
 -2       324       475       614      2225      2616      2617
 -1      1049    8    0    1
 -2       324       614       447      2617      2618      2137
 -1      1050    8    0    1
 -2       482       384       583      2244      2543      2619
 -1      1051    8    0    1
 -2       333       334       612      1797      2611      2620
 -1      1052    8    0    1
 -2       613       442       582      2613      2541      2621
 -1      1053    8    0    1
 -2       322       447       615      2136      2622      2623
 -1      1054    8    0    1
 -2       586       322       615      2553      2623      2624
 -1      1055    8    0    1
 -2       447       614       615      2618      2625      2622
 -1      1056    8    0    1
 -2       587       471       584      2554      2547      2626
 -1      1057    8    0    1
 -2       446       484       585      2250      2627      2548
 -1      1058    8    0    1
 -2       610       469       606      2604      2596      2628
 -1      1059    8    0    1
 -2       608       466       588      2599      2557      2629
 -1      1060    8    0    1
 -2       607       464       592      2597      2567      2630
 -1      1061    8    0    1
 -2       427       431       569      2505      2631      2502
 -1      1062    8    0    1
 -2       582       445       585      2540      2549      2632
 -1      1063    8    0    1
 -2       431       430       569      2092      2633      2631
 -1      1064    8    0    1
 -2       606       470       587      2595      2555      2634
 -1      1065    8    0    1
 -2       443       581       584      2539      2635      2546
 -1      1066    8    0    1
 -2       581       444       613      2538      2614      2636
 -1      1067    8    0    1
 -2       605       463       607      2593      2598      2637
 -1      1068    8    0    1
 -2       604       461       589      2591      2559      2638
 -1      1069    8    0    1
 -2       333       612       481      2620      2639      2241
 -1      1070    8    0    1
 -2       603       460       604      2589      2592      2640
 -1      1071    8    0    1
 -2       569       430       572      2633      2512      2641
 -1      1072    8    0    1
 -2       588       467       609      2556      2603      2642
 -1      1073    8    0    1
 -2       602       459       603      2587      2590      2643
 -1      1074    8    0    1
 -2       601       458       602      2585      2588      2644
 -1      1075    8    0    1
 -2       600       457       601      2583      2586      2645
 -1      1076    8    0    1
 -2       598       455       616      2578      2646      2647
 -1      1077    8    0    1
 -2       455       599       616      2582      2648      2646
 -1      1078    8    0    1
 -2       596       453       597      2574      2577      2649
 -1      1079    8    0    1
 -2       595       452       596      2572      2575      2650
 -1      1080    8    0    1
 -2       594       451       595      2570      2573      2651
 -1      1081    8    0    1
 -2       589       462       605      2558      2594      2652
 -1      1082    8    0    1
 -2       484       472       611      2249      2608      2653
 -1      1083    8    0    1
 -2       448       593       611      2569      2654      2607
 -1      1084    8    0    1
 -2       450       594       591      2571      2655      2564
 -1      1085    8    0    1
 -2       599       456       600      2581      2584      2656
 -1      1086    8    0    1
 -2       441       382       617      2545      2657      2658
 -1      1087    8    0    1
 -2       580       441       617      2535      2658      2659
 -1      1088    8    0    1
 -2       382       381       617      1944      2660      2657
 -1      1089    8    0    1
 -2       617       381       527      2660      2378      2661
 -1      1090    8    0    1
 -2       477       478       618      2234      2662      2663
 -1      1091    8    0    1
 -2       476       477       619      2231      2664      2665
 -1      1092    8    0    1
 -2       477       618       619      2663      2666      2664
 -1      1093    8    0    1
 -2       479       480       620      2240      2667      2668
 -1      1094    8    0    1
 -2       480       481       621      2243      2669      2670
 -1      1095    8    0    1
 -2       480       621       620      2670      2671      2667
 -1      1096    8    0    1
 -2       473       482       622      2246      2672      2673
 -1      1097    8    0    1
 -2       603       604       623      2640      2674      2675
 -1      1098    8    0    1
 -2       612       473       481      2612      2676      2639
 -1      1099    8    0    1
 -2       585       484       624      2627      2677      2678
 -1      1100    8    0    1
 -2       486       485       625      2256      2679      2680
 -1      1101    8    0    1
 -2       487       486       626      2259      2681      2682
 -1      1102    8    0    1
 -2       486       625       626      2680      2683      2681
 -1      1103    8    0    1
 -2       488       487       627      2262      2684      2685
 -1      1104    8    0    1
 -2       487       626       627      2682      2686      2684
 -1      1105    8    0    1
 -2       489       488       628      2265      2687      2688
 -1      1106    8    0    1
 -2       488       627       628      2685      2689      2687
 -1      1107    8    0    1
 -2       490       489       629      2268      2690      2691
 -1      1108    8    0    1
 -2       489       628       629      2688      2692      2690
 -1      1109    8    0    1
 -2       491       490       630      2271      2693      2694
 -1      1110    8    0    1
 -2       490       629       630      2691      2695      2693
 -1      1111    8    0    1
 -2       492       491       631      2274      2696      2697
 -1      1112    8    0    1
 -2       491       630       631      2694      2698      2696
 -1      1113    8    0    1
 -2       493       492       632      2277      2699      2700
 -1      1114    8    0    1
 -2       492       631       632      2697      2701      2699
 -1      1115    8    0    1
 -2       494       493       633      2280      2702      2703
 -1      1116    8    0    1
 -2       493       632       633      2700      2704      2702
 -1      1117    8    0    1
 -2       495       494       634      2283      2705      2706
 -1      1118    8    0    1
 -2       494       633       634      2703      2707      2705
 -1      1119    8    0    1
 -2       496       495       635      2286      2708      2709
 -1      1120    8    0    1
 -2       495       634       635      2706      2710      2708
 -1      1121    8    0    1
 -2       497       496       636      2289      2711      2712
 -1      1122    8    0    1
 -2       496       635       636      2709      2713      2711
 -1      1123    8    0    1
 -2       498       497       637      2292      2714      2715
 -1      1124    8    0    1
 -2       497       636       637      2712      2716      2714
 -1      1125    8    0    1
 -2       499       498       638      2295      2717      2718
 -1      1126    8    0    1
 -2       498       637       638      2715      2719      2717
 -1      1127    8    0    1
 -2       500       499       639      2298      2720      2721
 -1      1128    8    0    1
 -2       499       638       639      2718      2722      2720
 -1      1129    8    0    1
 -2       501       500       640      2301      2723      2724
 -1      1130    8    0    1
 -2       500       639       640      2721      2725      2723
 -1      1131    8    0    1
 -2       502       501       641      2304      2726      2727
 -1      1132    8    0    1
 -2       501       640       641      2724      2728      2726
 -1      1133    8    0    1
 -2       503       502       642      2307      2729      2730
 -1      1134    8    0    1
 -2       502       641       642      2727      2731      2729
 -1      1135    8    0    1
 -2       504       503       643      2310      2732      2733
 -1      1136    8    0    1
 -2       503       642       643      2730      2734      2732
 -1      1137    8    0    1
 -2       505       504       605      2313      2735      2736
 -1      1138    8    0    1
 -2       507       506       644      2319      2737      2738
 -1      1139    8    0    1
 -2       509       508       645      2325      2739      2740
 -1      1140    8    0    1
 -2       510       509       646      2328      2741      2742
 -1      1141    8    0    1
 -2       509       645       646      2740      2743      2741
 -1      1142    8    0    1
 -2       511       510       647      2331      2744      2745
 -1      1143    8    0    1
 -2       510       646       647      2742      2746      2744
 -1      1144    8    0    1
 -2       512       511       648      2334      2747      2748
 -1      1145    8    0    1
 -2       511       647       648      2745      2749      2747
 -1      1146    8    0    1
 -2       513       512       649      2337      2750      2751
 -1      1147    8    0    1
 -2       512       648       649      2748      2752      2750
 -1      1148    8    0    1
 -2       514       513       650      2340      2753      2754
 -1      1149    8    0    1
 -2       513       649       650      2751      2755      2753
 -1      1150    8    0    1
 -2       515       514       651      2343      2756      2757
 -1      1151    8    0    1
 -2       514       650       651      2754      2758      2756
 -1      1152    8    0    1
 -2       516       515       652      2346      2759      2760
 -1      1153    8    0    1
 -2       515       651       652      2757      2761      2759
 -1      1154    8    0    1
 -2       517       516       653      2349      2762      2763
 -1      1155    8    0    1
 -2       516       652       653      2760      2764      2762
 -1      1156    8    0    1
 -2       518       517       654      2352      2765      2766
 -1      1157    8    0    1
 -2       517       653       654      2763      2767      2765
 -1      1158    8    0    1
 -2       519       518       655      2355      2768      2769
 -1      1159    8    0    1
 -2       518       654       655      2766      2770      2768
 -1      1160    8    0    1
 -2       520       519       656      2358      2771      2772
 -1      1161    8    0    1
 -2       519       655       656      2769      2773      2771
 -1      1162    8    0    1
 -2       521       520       657      2361      2774      2775
 -1      1163    8    0    1
 -2       520       656       657      2772      2776      2774
 -1      1164    8    0    1
 -2       522       521       658      2364      2777      2778
 -1      1165    8    0    1
 -2       521       657       658      2775      2779      2777
 -1      1166    8    0    1
 -2       523       522       659      2367      2780      2781
 -1      1167    8    0    1
 -2       522       658       659      2778      2782      2780
 -1      1168    8    0    1
 -2       524       523       660      2370      2783      2784
 -1      1169    8    0    1
 -2       523       659       660      2781      2785      2783
 -1      1170    8    0    1
 -2       525       524       661      2373      2786      2787
 -1      1171    8    0    1
 -2       524       660       661      2784      2788      2786
 -1      1172    8    0    1
 -2       526       525       662      2376      2789      2790
 -1      1173    8    0    1
 -2       525       661       662      2787      2791      2789
 -1      1174    8    0    1
 -2       527       526       663      2379      2792      2793
 -1      1175    8    0    1
 -2       526       662       663      2790      2794      2792
 -1      1176    8    0    1
 -2       529       530       664      2387      2795      2796
 -1      1177    8    0    1
 -2       617       527       665      2661      2797      2798
 -1      1178    8    0    1
 -2       527       663       665      2793      2799      2797
 -1      1179    8    0    1
 -2       528       529       666      2384      2800      2801
 -1      1180    8    0    1
 -2       529       664       666      2796      2802      2800
 -1      1181    8    0    1
 -2       531       532       667      2393      2803      2804
 -1      1182    8    0    1
 -2       532       533       668      2396      2805      2806
 -1      1183    8    0    1
 -2       532       668       667      2806      2807      2803
 -1      1184    8    0    1
 -2       533       534       669      2399      2808      2809
 -1      1185    8    0    1
 -2       533       669       668      2809      2810      2805
 -1      1186    8    0    1
 -2       534       535       670      2402      2811      2812
 -1      1187    8    0    1
 -2       534       670       669      2812      2813      2808
 -1      1188    8    0    1
 -2       535       536       671      2405      2814      2815
 -1      1189    8    0    1
 -2       535       671       670      2815      2816      2811
 -1      1190    8    0    1
 -2       536       537       672      2408      2817      2818
 -1      1191    8    0    1
 -2       536       672       671      2818      2819      2814
 -1      1192    8    0    1
 -2       537       538       673      2411      2820      2821
 -1      1193    8    0    1
 -2       537       673       672      2821      2822      2817
 -1      1194    8    0    1
 -2       538       539       674      2414      2823      2824
 -1      1195    8    0    1
 -2       538       674       673      2824      2825      2820
 -1      1196    8    0    1
 -2       539       540       675      2417      2826      2827
 -1      1197    8    0    1
 -2       539       675       674      2827      2828      2823
 -1      1198    8    0    1
 -2       540       541       676      2420      2829      2830
 -1      1199    8    0    1
 -2       540       676       675      2830      2831      2826
 -1      1200    8    0    1
 -2       541       542       677      2423      2832      2833
 -1      1201    8    0    1
 -2       541       677       676      2833      2834      2829
 -1      1202    8    0    1
 -2       542       543       678      2426      2835      2836
 -1      1203    8    0    1
 -2       542       678       677      2836      2837      2832
 -1      1204    8    0    1
 -2       543       544       679      2429      2838      2839
 -1      1205    8    0    1
 -2       543       679       678      2839      2840      2835
 -1      1206    8    0    1
 -2       544       545       680      2432      2841      2842
 -1      1207    8    0    1
 -2       544       680       679      2842      2843      2838
 -1      1208    8    0    1
 -2       545       546       681      2435      2844      2845
 -1      1209    8    0    1
 -2       545       681       680      2845      2846      2841
 -1      1210    8    0    1
 -2       546       547       682      2438      2847      2848
 -1      1211    8    0    1
 -2       546       682       681      2848      2849      2844
 -1      1212    8    0    1
 -2       547       548       683      2441      2850      2851
 -1      1213    8    0    1
 -2       547       683       682      2851      2852      2847
 -1      1214    8    0    1
 -2       548       549       684      2444      2853      2854
 -1      1215    8    0    1
 -2       548       684       683      2854      2855      2850
 -1      1216    8    0    1
 -2       549       550       685      2447      2856      2857
 -1      1217    8    0    1
 -2       549       685       684      2857      2858      2853
 -1      1218    8    0    1
 -2       550       551       686      2450      2859      2860
 -1      1219    8    0    1
 -2       550       686       685      2860      2861      2856
 -1      1220    8    0    1
 -2       551       552       687      2453      2862      2863
 -1      1221    8    0    1
 -2       551       687       686      2863      2864      2859
 -1      1222    8    0    1
 -2       552       553       688      2456      2865      2866
 -1      1223    8    0    1
 -2       552       688       687      2866      2867      2862
 -1      1224    8    0    1
 -2       553       554       689      2459      2868      2869
 -1      1225    8    0    1
 -2       553       689       688      2869      2870      2865
 -1      1226    8    0    1
 -2       554       555       690      2462      2871      2872
 -1      1227    8    0    1
 -2       554       690       689      2872      2873      2868
 -1      1228    8    0    1
 -2       555       556       691      2465      2874      2875
 -1      1229    8    0    1
 -2       555       691       690      2875      2876      2871
 -1      1230    8    0    1
 -2       556       557       692      2468      2877      2878
 -1      1231    8    0    1
 -2       556       692       691      2878      2879      2874
 -1      1232    8    0    1
 -2       557       558       693      2471      2880      2881
 -1      1233    8    0    1
 -2       557       693       692      2881      2882      2877
 -1      1234    8    0    1
 -2       558       559       694      2474      2883      2884
 -1      1235    8    0    1
 -2       558       694       693      2884      2885      2880
 -1      1236    8    0    1
 -2       559       560       695      2477      2886      2887
 -1      1237    8    0    1
 -2       559       695       694      2887      2888      2883
 -1      1238    8    0    1
 -2       560       561       696      2480      2889      2890
 -1      1239    8    0    1
 -2       560       696       695      2890      2891      2886
 -1      1240    8    0    1
 -2       561       562       697      2483      2892      2893
 -1      1241    8    0    1
 -2       561       697       696      2893      2894      2889
 -1      1242    8    0    1
 -2       562       563       698      2486      2895      2896
 -1      1243    8    0    1
 -2       562       698       697      2896      2897      2892
 -1      1244    8    0    1
 -2       563       564       699      2489      2898      2899
 -1      1245    8    0    1
 -2       563       699       698      2899      2900      2895
 -1      1246    8    0    1
 -2       564       565       700      2492      2901      2902
 -1      1247    8    0    1
 -2       564       700       699      2902      2903      2898
 -1      1248    8    0    1
 -2       565       566       701      2495      2904      2905
 -1      1249    8    0    1
 -2       565       701       700      2905      2906      2901
 -1      1250    8    0    1
 -2       566       567       702      2498      2907      2908
 -1      1251    8    0    1
 -2       566       702       701      2908      2909      2904
 -1      1252    8    0    1
 -2       567       568       703      2501      2910      2911
 -1      1253    8    0    1
 -2       567       703       702      2911      2912      2907
 -1      1254    8    0    1
 -2       568       569       704      2504      2913      2914
 -1      1255    8    0    1
 -2       703       568       704      2910      2914      2915
 -1      1256    8    0    1
 -2       569       572       704      2641      2916      2913
 -1      1257    8    0    1
 -2       582       585       705      2632      2917      2918
 -1      1258    8    0    1
 -2       574       575       706      2522      2919      2920
 -1      1259    8    0    1
 -2       588       609       707      2642      2921      2922
 -1      1260    8    0    1
 -2       570       571       708      2510      2923      2924
 -1      1261    8    0    1
 -2       575       576       709      2525      2925      2926
 -1      1262    8    0    1
 -2       575       709       706      2926      2927      2919
 -1      1263    8    0    1
 -2       571       574       710      2519      2928      2929
 -1      1264    8    0    1
 -2       708       571       710      2923      2929      2930
 -1      1265    8    0    1
 -2       574       706       710      2920      2931      2928
 -1      1266    8    0    1
 -2       576       577       711      2528      2932      2933
 -1      1267    8    0    1
 -2       576       711       709      2933      2934      2925
 -1      1268    8    0    1
 -2       577       578       712      2531      2935      2936
 -1      1269    8    0    1
 -2       577       712       711      2936      2937      2932
 -1      1270    8    0    1
 -2       578       579       713      2534      2938      2939
 -1      1271    8    0    1
 -2       578       713       712      2939      2940      2935
 -1      1272    8    0    1
 -2       610       606       714      2628      2941      2942
 -1      1273    8    0    1
 -2       581       613       715      2636      2943      2944
 -1      1274    8    0    1
 -2       483       586       716      2552      2945      2946
 -1      1275    8    0    1
 -2       586       615       716      2624      2947      2945
 -1      1276    8    0    1
 -2       607       592       717      2630      2948      2949
 -1      1277    8    0    1
 -2       596       597       718      2649      2950      2951
 -1      1278    8    0    1
 -2       587       584       719      2626      2952      2953
 -1      1279    8    0    1
 -2       583       528       720      2544      2954      2955
 -1      1280    8    0    1
 -2       528       666       720      2801      2956      2954
 -1      1281    8    0    1
 -2       530       531       721      2390      2957      2958
 -1      1282    8    0    1
 -2       664       530       721      2795      2958      2959
 -1      1283    8    0    1
 -2       531       667       721      2804      2960      2957
 -1      1284    8    0    1
 -2       485       483       722      2253      2961      2962
 -1      1285    8    0    1
 -2       625       485       722      2679      2962      2963
 -1      1286    8    0    1
 -2       483       716       722      2946      2964      2961
 -1      1287    8    0    1
 -2       602       603       723      2643      2965      2966
 -1      1288    8    0    1
 -2       584       581       724      2635      2967      2968
 -1      1289    8    0    1
 -2       584       724       719      2968      2969      2952
 -1      1290    8    0    1
 -2       482       583       725      2619      2970      2971
 -1      1291    8    0    1
 -2       622       482       725      2672      2971      2972
 -1      1292    8    0    1
 -2       583       720       725      2955      2973      2970
 -1      1293    8    0    1
 -2       478       479       726      2237      2974      2975
 -1      1294    8    0    1
 -2       618       478       726      2662      2975      2976
 -1      1295    8    0    1
 -2       479       620       726      2668      2977      2974
 -1      1296    8    0    1
 -2       475       474       727      2226      2978      2979
 -1      1297    8    0    1
 -2       606       587       728      2634      2980      2981
 -1      1298    8    0    1
 -2       594       595       729      2651      2982      2983
 -1      1299    8    0    1
 -2       595       596       730      2650      2984      2985
 -1      1300    8    0    1
 -2       597       598       731      2580      2986      2987
 -1      1301    8    0    1
 -2       597       731       718      2987      2988      2950
 -1      1302    8    0    1
 -2       580       617       665      2659      2798      2989
 -1      1303    8    0    1
 -2       600       601       732      2645      2990      2991
 -1      1304    8    0    1
 -2       601       602       733      2644      2992      2993
 -1      1305    8    0    1
 -2       602       723       733      2966      2994      2992
 -1      1306    8    0    1
 -2       484       611       734      2653      2995      2996
 -1      1307    8    0    1
 -2       608       588       735      2629      2997      2998
 -1      1308    8    0    1
 -2       599       600       736      2656      2999      3000
 -1      1309    8    0    1
 -2       600       732       736      2991      3001      2999
 -1      1310    8    0    1
 -2       604       589       737      2638      3002      3003
 -1      1311    8    0    1
 -2       592       608       644      2601      3004      3005
 -1      1312    8    0    1
 -2       611       593       738      2654      3006      3007
 -1      1313    8    0    1
 -2       609       610       739      2606      3008      3009
 -1      1314    8    0    1
 -2       609       739       707      3009      3010      2921
 -1      1315    8    0    1
 -2       591       594       740      2655      3011      3012
 -1      1316    8    0    1
 -2       594       729       740      2983      3013      3011
 -1      1317    8    0    1
 -2       613       582       741      2621      3014      3015
 -1      1318    8    0    1
 -2       593       591       742      2615      3016      3017
 -1      1319    8    0    1
 -2       505       605       607      2736      2637      3018
 -1      1320    8    0    1
 -2       605       504       643      2735      2733      3019
 -1      1321    8    0    1
 -2       614       475       743      2616      3020      3021
 -1      1322    8    0    1
 -2       475       727       743      2979      3022      3020
 -1      1323    8    0    1
 -2       476       619       744      2665      3023      3024
 -1      1324    8    0    1
 -2       476       744       590      3024      3025      2563
 -1      1325    8    0    1
 -2       603       623       723      2675      3026      2965
 -1      1326    8    0    1
 -2       481       473       622      2676      2673      3027
 -1      1327    8    0    1
 -2       624       484       734      2677      2996      3028
 -1      1328    8    0    1
 -2       507       644       735      2738      3029      3030
 -1      1329    8    0    1
 -2       508       507       735      2322      3030      3031
 -1      1330    8    0    1
 -2       604       737       623      3003      3032      2674
 -1      1331    8    0    1
 -2       705       585       624      2917      2678      3033
 -1      1332    8    0    1
 -2       704       572       745      2916      3034      3035
 -1      1333    8    0    1
 -2       572       573       745      2515      3036      3034
 -1      1334    8    0    1
 -2       742       591       740      3016      3012      3037
 -1      1335    8    0    1
 -2       588       707       735      2922      3038      2997
 -1      1336    8    0    1
 -2       715       613       741      2943      3015      3039
 -1      1337    8    0    1
 -2       739       610       714      3008      2942      3040
 -1      1338    8    0    1
 -2       738       593       742      3006      3017      3041
 -1      1339    8    0    1
 -2       644       608       735      3004      2998      3029
 -1      1340    8    0    1
 -2       714       606       728      2941      2981      3042
 -1      1341    8    0    1
 -2       579       580       665      2537      2989      3043
 -1      1342    8    0    1
 -2       731       598       616      2986      2647      3044
 -1      1343    8    0    1
 -2       581       715       724      2944      3045      2967
 -1      1344    8    0    1
 -2       717       592       644      2948      3005      3046
 -1      1345    8    0    1
 -2       596       718       746      2951      3047      3048
 -1      1346    8    0    1
 -2       596       746       730      3048      3049      2984
 -1      1347    8    0    1
 -2       616       599       747      2648      3050      3051
 -1      1348    8    0    1
 -2       599       736       747      3000      3052      3050
 -1      1349    8    0    1
 -2       587       719       728      2953      3053      2980
 -1      1350    8    0    1
 -2       474       590       748      2562      3054      3055
 -1      1351    8    0    1
 -2       727       474       748      2978      3055      3056
 -1      1352    8    0    1
 -2       590       744       748      3025      3057      3054
 -1      1353    8    0    1
 -2       573       570       749      2516      3058      3059
 -1      1354    8    0    1
 -2       745       573       749      3036      3059      3060
 -1      1355    8    0    1
 -2       570       708       749      2924      3061      3058
 -1      1356    8    0    1
 -2       729       595       730      2982      2985      3062
 -1      1357    8    0    1
 -2       579       665       750      3043      3063      3064
 -1      1358    8    0    1
 -2       713       579       750      2938      3064      3065
 -1      1359    8    0    1
 -2       665       663       750      2799      3066      3063
 -1      1360    8    0    1
 -2       481       622       621      3027      3067      2669
 -1      1361    8    0    1
 -2       732       601       733      2990      2993      3068
 -1      1362    8    0    1
 -2       734       611       738      2995      3007      3069
 -1      1363    8    0    1
 -2       582       705       741      2918      3070      3014
 -1      1364    8    0    1
 -2       624       734       751      3028      3071      3072
 -1      1365    8    0    1
 -2       620       621       752      2671      3073      3074
 -1      1366    8    0    1
 -2       615       614       753      2625      3075      3076
 -1      1367    8    0    1
 -2       716       615       753      2947      3076      3077
 -1      1368    8    0    1
 -2       614       743       753      3021      3078      3075
 -1      1369    8    0    1
 -2       714       728       754      3042      3079      3080
 -1      1370    8    0    1
 -2       627       626       755      2686      3081      3082
 -1      1371    8    0    1
 -2       628       627       756      2689      3083      3084
 -1      1372    8    0    1
 -2       627       755       756      3082      3085      3083
 -1      1373    8    0    1
 -2       629       628       757      2692      3086      3087
 -1      1374    8    0    1
 -2       628       756       757      3084      3088      3086
 -1      1375    8    0    1
 -2       630       629       758      2695      3089      3090
 -1      1376    8    0    1
 -2       629       757       758      3087      3091      3089
 -1      1377    8    0    1
 -2       631       630       759      2698      3092      3093
 -1      1378    8    0    1
 -2       630       758       759      3090      3094      3092
 -1      1379    8    0    1
 -2       632       631       760      2701      3095      3096
 -1      1380    8    0    1
 -2       631       759       760      3093      3097      3095
 -1      1381    8    0    1
 -2       633       632       761      2704      3098      3099
 -1      1382    8    0    1
 -2       632       760       761      3096      3100      3098
 -1      1383    8    0    1
 -2       634       633       762      2707      3101      3102
 -1      1384    8    0    1
 -2       633       761       762      3099      3103      3101
 -1      1385    8    0    1
 -2       635       634       763      2710      3104      3105
 -1      1386    8    0    1
 -2       634       762       763      3102      3106      3104
 -1      1387    8    0    1
 -2       636       635       764      2713      3107      3108
 -1      1388    8    0    1
 -2       635       763       764      3105      3109      3107
 -1      1389    8    0    1
 -2       637       636       765      2716      3110      3111
 -1      1390    8    0    1
 -2       636       764       765      3108      3112      3110
 -1      1391    8    0    1
 -2       638       637       766      2719      3113      3114
 -1      1392    8    0    1
 -2       637       765       766      3111      3115      3113
 -1      1393    8    0    1
 -2       639       638       767      2722      3116      3117
 -1      1394    8    0    1
 -2       638       766       767      3114      3118      3116
 -1      1395    8    0    1
 -2       640       639       768      2725      3119      3120
 -1      1396    8    0    1
 -2       639       767       768      3117      3121      3119
 -1      1397    8    0    1
 -2       641       640       769      2728      3122      3123
 -1      1398    8    0    1
 -2       640       768       769      3120      3124      3122
 -1      1399    8    0    1
 -2       642       641       770      2731      3125      3126
 -1      1400    8    0    1
 -2       641       769       770      3123      3127      3125
 -1      1401    8    0    1
 -2       643       642       737      2734      3128      3129
 -1      1402    8    0    1
 -2       647       646       771      2746      3130      3131
 -1      1403    8    0    1
 -2       648       647       772      2749      3132      3133
 -1      1404    8    0    1
 -2       647       771       772      3131      3134      3132
 -1      1405    8    0    1
 -2       649       648       773      2752      3135      3136
 -1      1406    8    0    1
 -2       648       772       773      3133      3137      3135
 -1      1407    8    0    1
 -2       650       649       774      2755      3138      3139
 -1      1408    8    0    1
 -2       649       773       774      3136      3140      3138
 -1      1409    8    0    1
 -2       651       650       775      2758      3141      3142
 -1      1410    8    0    1
 -2       650       774       775      3139      3143      3141
 -1      1411    8    0    1
 -2       652       651       776      2761      3144      3145
 -1      1412    8    0    1
 -2       651       775       776      3142      3146      3144
 -1      1413    8    0    1
 -2       653       652       777      2764      3147      3148
 -1      1414    8    0    1
 -2       652       776       777      3145      3149      3147
 -1      1415    8    0    1
 -2       654       653       778      2767      3150      3151
 -1      1416    8    0    1
 -2       653       777       778      3148      3152      3150
 -1      1417    8    0    1
 -2       655       654       779      2770      3153      3154
 -1      1418    8    0    1
 -2       654       778       779      3151      3155      3153
 -1      1419    8    0    1
 -2       656       655       780      2773      3156      3157
 -1      1420    8    0    1
 -2       655       779       780      3154      3158      3156
 -1      1421    8    0    1
 -2       657       656       781      2776      3159      3160
 -1      1422    8    0    1
 -2       656       780       781      3157      3161      3159
 -1      1423    8    0    1
 -2       658       657       782      2779      3162      3163
 -1      1424    8    0    1
 -2       657       781       782      3160      3164      3162
 -1      1425    8    0    1
 -2       659       658       783      2782      3165      3166
 -1      1426    8    0    1
 -2       658       782       783      3163      3167      3165
 -1      1427    8    0    1
 -2       660       659       784      2785      3168      3169
 -1      1428    8    0    1
 -2       659       783       784      3166      3170      3168
 -1      1429    8    0    1
 -2       661       660       785      2788      3171      3172
 -1      1430    8    0    1
 -2       660       784       785      3169      3173      3171
 -1      1431    8    0    1
 -2       662       661       786      2791      3174      3175
 -1      1432    8    0    1
 -2       661       785       786      3172      3176      3174
 -1      1433    8    0    1
 -2       663       662       787      2794      3177      3178
 -1      1434    8    0    1
 -2       750       663       787      3066      3178      3179
 -1      1435    8    0    1
 -2       662       786       787      3175      3180      3177
 -1      1436    8    0    1
 -2       666       664       788      2802      3181      3182
 -1      1437    8    0    1
 -2       668       669       789      2810      3183      3184
 -1      1438    8    0    1
 -2       667       668       790      2807      3185      3186
 -1      1439    8    0    1
 -2       668       789       790      3184      3187      3185
 -1      1440    8    0    1
 -2       670       671       791      2816      3188      3189
 -1      1441    8    0    1
 -2       671       672       792      2819      3190      3191
 -1      1442    8    0    1
 -2       671       792       791      3191      3192      3188
 -1      1443    8    0    1
 -2       672       673       793      2822      3193      3194
 -1      1444    8    0    1
 -2       672       793       792      3194      3195      3190
 -1      1445    8    0    1
 -2       673       674       794      2825      3196      3197
 -1      1446    8    0    1
 -2       673       794       793      3197      3198      3193
 -1      1447    8    0    1
 -2       674       675       795      2828      3199      3200
 -1      1448    8    0    1
 -2       674       795       794      3200      3201      3196
 -1      1449    8    0    1
 -2       675       676       796      2831      3202      3203
 -1      1450    8    0    1
 -2       675       796       795      3203      3204      3199
 -1      1451    8    0    1
 -2       676       677       797      2834      3205      3206
 -1      1452    8    0    1
 -2       676       797       796      3206      3207      3202
 -1      1453    8    0    1
 -2       677       678       798      2837      3208      3209
 -1      1454    8    0    1
 -2       677       798       797      3209      3210      3205
 -1      1455    8    0    1
 -2       678       679       799      2840      3211      3212
 -1      1456    8    0    1
 -2       678       799       798      3212      3213      3208
 -1      1457    8    0    1
 -2       679       680       800      2843      3214      3215
 -1      1458    8    0    1
 -2       679       800       799      3215      3216      3211
 -1      1459    8    0    1
 -2       680       681       801      2846      3217      3218
 -1      1460    8    0    1
 -2       680       801       800      3218      3219      3214
 -1      1461    8    0    1
 -2       682       683       802      2852      3220      3221
 -1      1462    8    0    1
 -2       683       684       803      2855      3222      3223
 -1      1463    8    0    1
 -2       684       685       804      2858      3224      3225
 -1      1464    8    0    1
 -2       685       686       805      2861      3226      3227
 -1      1465    8    0    1
 -2       685       805       804      3227      3228      3224
 -1      1466    8    0    1
 -2       686       687       806      2864      3229      3230
 -1      1467    8    0    1
 -2       686       806       805      3230      3231      3226
 -1      1468    8    0    1
 -2       687       688       807      2867      3232      3233
 -1      1469    8    0    1
 -2       687       807       806      3233      3234      3229
 -1      1470    8    0    1
 -2       688       689       808      2870      3235      3236
 -1      1471    8    0    1
 -2       688       808       807      3236      3237      3232
 -1      1472    8    0    1
 -2       689       690       809      2873      3238      3239
 -1      1473    8    0    1
 -2       689       809       808      3239      3240      3235
 -1      1474    8    0    1
 -2       690       691       810      2876      3241      3242
 -1      1475    8    0    1
 -2       690       810       809      3242      3243      3238
 -1      1476    8    0    1
 -2       691       692       811      2879      3244      3245
 -1      1477    8    0    1
 -2       691       811       810      3245      3246      3241
 -1      1478    8    0    1
 -2       692       693       812      2882      3247      3248
 -1      1479    8    0    1
 -2       692       812       811      3248      3249      3244
 -1      1480    8    0    1
 -2       693       694       813      2885      3250      3251
 -1      1481    8    0    1
 -2       693       813       812      3251      3252      3247
 -1      1482    8    0    1
 -2       694       695       814      2888      3253      3254
 -1      1483    8    0    1
 -2       694       814       813      3254      3255      3250
 -1      1484    8    0    1
 -2       695       696       815      2891      3256      3257
 -1      1485    8    0    1
 -2       695       815       814      3257      3258      3253
 -1      1486    8    0    1
 -2       696       697       816      2894      3259      3260
 -1      1487    8    0    1
 -2       696       816       815      3260      3261      3256
 -1      1488    8    0    1
 -2       697       698       817      2897      3262      3263
 -1      1489    8    0    1
 -2       697       817       816      3263      3264      3259
 -1      1490    8    0    1
 -2       698       699       818      2900      3265      3266
 -1      1491    8    0    1
 -2       698       818       817      3266      3267      3262
 -1      1492    8    0    1
 -2       699       700       819      2903      3268      3269
 -1      1493    8    0    1
 -2       699       819       818      3269      3270      3265
 -1      1494    8    0    1
 -2       700       701       820      2906      3271      3272
 -1      1495    8    0    1
 -2       700       820       819      3272      3273      3268
 -1      1496    8    0    1
 -2       701       702       821      2909      3274      3275
 -1      1497    8    0    1
 -2       701       821       820      3275      3276      3271
 -1      1498    8    0    1
 -2       702       703       822      2912      3277      3278
 -1      1499    8    0    1
 -2       702       822       821      3278      3279      3274
 -1      1500    8    0    1
 -2       703       704       823      2915      3280      3281
 -1      1501    8    0    1
 -2       822       703       823      3277      3281      3282
 -1      1502    8    0    1
 -2       704       745       823      3035      3283      3280
 -1      1503    8    0    1
 -2       709       711       824      2934      3284      3285
 -1      1504    8    0    1
 -2       729       730       825      3062      3286      3287
 -1      1505    8    0    1
 -2       706       709       826      2927      3288      3289
 -1      1506    8    0    1
 -2       709       824       826      3285      3290      3288
 -1      1507    8    0    1
 -2       742       740       802      3037      3291      3292
 -1      1508    8    0    1
 -2       738       742       803      3041      3293      3294
 -1      1509    8    0    1
 -2       736       732       827      3001      3295      3296
 -1      1510    8    0    1
 -2       619       618       828      2666      3297      3298
 -1      1511    8    0    1
 -2       715       741       829      3039      3299      3300
 -1      1512    8    0    1
 -2       720       666       830      2956      3301      3302
 -1      1513    8    0    1
 -2       666       788       830      3182      3303      3301
 -1      1514    8    0    1
 -2       731       616       831      3044      3304      3305
 -1      1515    8    0    1
 -2       623       737       642      3032      3128      3306
 -1      1516    8    0    1
 -2       711       712       832      2937      3307      3308
 -1      1517    8    0    1
 -2       711       832       824      3308      3309      3284
 -1      1518    8    0    1
 -2       712       713       833      2940      3310      3311
 -1      1519    8    0    1
 -2       712       833       832      3311      3312      3307
 -1      1520    8    0    1
 -2       669       670       834      2813      3313      3314
 -1      1521    8    0    1
 -2       789       669       834      3183      3314      3315
 -1      1522    8    0    1
 -2       670       791       834      3189      3316      3313
 -1      1523    8    0    1
 -2       621       622       835      3067      3317      3318
 -1      1524    8    0    1
 -2       752       621       835      3073      3318      3319
 -1      1525    8    0    1
 -2       622       725       835      2972      3320      3317
 -1      1526    8    0    1
 -2       723       623       836      3026      3321      3322
 -1      1527    8    0    1
 -2       644       506       717      2737      3323      3046
 -1      1528    8    0    1
 -2       626       625       837      2683      3324      3325
 -1      1529    8    0    1
 -2       626       837       755      3325      3326      3081
 -1      1530    8    0    1
 -2       719       724       838      2969      3327      3328
 -1      1531    8    0    1
 -2       739       714       771      3040      3329      3330
 -1      1532    8    0    1
 -2       705       624       839      3033      3331      3332
 -1      1533    8    0    1
 -2       718       731       840      2988      3333      3334
 -1      1534    8    0    1
 -2       733       723       841      2994      3335      3336
 -1      1535    8    0    1
 -2       723       836       841      3322      3337      3335
 -1      1536    8    0    1
 -2       724       715       842      3045      3338      3339
 -1      1537    8    0    1
 -2       724       842       838      3339      3340      3327
 -1      1538    8    0    1
 -2       734       738       804      3069      3341      3342
 -1      1539    8    0    1
 -2       728       719       843      3053      3343      3344
 -1      1540    8    0    1
 -2       728       843       754      3344      3345      3079
 -1      1541    8    0    1
 -2       737       589       643      3002      3346      3129
 -1      1542    8    0    1
 -2       741       705       844      3070      3347      3348
 -1      1543    8    0    1
 -2       705       839       844      3332      3349      3347
 -1      1544    8    0    1
 -2       740       729       845      3013      3350      3351
 -1      1545    8    0    1
 -2       732       733       846      3068      3352      3353
 -1      1546    8    0    1
 -2       605       643       589      3019      3346      2652
 -1      1547    8    0    1
 -2       717       506       505      3323      2316      3354
 -1      1548    8    0    1
 -2       744       619       847      3023      3355      3356
 -1      1549    8    0    1
 -2       619       828       847      3298      3357      3355
 -1      1550    8    0    1
 -2       620       752       848      3074      3358      3359
 -1      1551    8    0    1
 -2       620       848       726      3359      3360      2977
 -1      1552    8    0    1
 -2       716       753       849      3077      3361      3362
 -1      1553    8    0    1
 -2       716       849       722      3362      3363      2964
 -1      1554    8    0    1
 -2       719       838       843      3328      3364      3343
 -1      1555    8    0    1
 -2       741       844       829      3348      3365      3299
 -1      1556    8    0    1
 -2       714       754       771      3080      3366      3329
 -1      1557    8    0    1
 -2       743       727       850      3022      3367      3368
 -1      1558    8    0    1
 -2       508       735       645      3031      3369      2739
 -1      1559    8    0    1
 -2       664       721       851      2959      3370      3371
 -1      1560    8    0    1
 -2       664       851       788      3371      3372      3181
 -1      1561    8    0    1
 -2       625       722       849      2963      3363      3373
 -1      1562    8    0    1
 -2       731       831       840      3305      3374      3333
 -1      1563    8    0    1
 -2       667       790       852      3186      3375      3376
 -1      1564    8    0    1
 -2       667       852       721      3376      3377      2960
 -1      1565    8    0    1
 -2       682       802       845      3221      3378      3379
 -1      1566    8    0    1
 -2       801       681       845      3217      3380      3381
 -1      1567    8    0    1
 -2       802       683       803      3220      3223      3382
 -1      1568    8    0    1
 -2       681       682       845      2849      3379      3380
 -1      1569    8    0    1
 -2       684       804       803      3225      3383      3222
 -1      1570    8    0    1
 -2       708       710       853      2930      3384      3385
 -1      1571    8    0    1
 -2       802       740       845      3291      3351      3378
 -1      1572    8    0    1
 -2       710       706       854      2931      3386      3387
 -1      1573    8    0    1
 -2       853       710       854      3384      3387      3388
 -1      1574    8    0    1
 -2       706       826       854      3289      3389      3386
 -1      1575    8    0    1
 -2       738       803       804      3294      3383      3341
 -1      1576    8    0    1
 -2       736       827       855      3296      3390      3391
 -1      1577    8    0    1
 -2       736       855       747      3391      3392      3052
 -1      1578    8    0    1
 -2       771       646       739      3130      3393      3330
 -1      1579    8    0    1
 -2       827       732       846      3295      3353      3394
 -1      1580    8    0    1
 -2       803       742       802      3293      3292      3382
 -1      1581    8    0    1
 -2       715       829       856      3300      3395      3396
 -1      1582    8    0    1
 -2       715       856       842      3396      3397      3338
 -1      1583    8    0    1
 -2       607       717       505      2949      3354      3018
 -1      1584    8    0    1
 -2       831       616       747      3304      3051      3398
 -1      1585    8    0    1
 -2       623       642       770      3306      3126      3399
 -1      1586    8    0    1
 -2       746       718       840      3047      3334      3400
 -1      1587    8    0    1
 -2       850       727       857      3367      3401      3402
 -1      1588    8    0    1
 -2       727       748       857      3056      3403      3401
 -1      1589    8    0    1
 -2       739       646       707      3393      3404      3010
 -1      1590    8    0    1
 -2       839       624       751      3331      3072      3405
 -1      1591    8    0    1
 -2       708       853       858      3385      3406      3407
 -1      1592    8    0    1
 -2       708       858       749      3407      3408      3061
 -1      1593    8    0    1
 -2       646       645       707      2743      3409      3404
 -1      1594    8    0    1
 -2       618       726       859      2976      3410      3411
 -1      1595    8    0    1
 -2       828       618       859      3297      3411      3412
 -1      1596    8    0    1
 -2       726       848       859      3360      3413      3410
 -1      1597    8    0    1
 -2       837       625       849      3324      3373      3414
 -1      1598    8    0    1
 -2       623       770       836      3399      3415      3321
 -1      1599    8    0    1
 -2       734       804       805      3342      3228      3416
 -1      1600    8    0    1
 -2       725       720       860      2973      3417      3418
 -1      1601    8    0    1
 -2       835       725       860      3320      3418      3419
 -1      1602    8    0    1
 -2       720       830       860      3302      3420      3417
 -1      1603    8    0    1
 -2       713       750       861      3065      3421      3422
 -1      1604    8    0    1
 -2       833       713       861      3310      3422      3423
 -1      1605    8    0    1
 -2       750       787       861      3179      3424      3421
 -1      1606    8    0    1
 -2       733       841       862      3336      3425      3426
 -1      1607    8    0    1
 -2       733       862       846      3426      3427      3352
 -1      1608    8    0    1
 -2       734       805       751      3416      3428      3071
 -1      1609    8    0    1
 -2       849       753       743      3361      3078      3429
 -1      1610    8    0    1
 -2       840       831       863      3374      3430      3431
 -1      1611    8    0    1
 -2       745       749       864      3060      3432      3433
 -1      1612    8    0    1
 -2       823       745       864      3283      3433      3434
 -1      1613    8    0    1
 -2       749       858       864      3408      3435      3432
 -1      1614    8    0    1
 -2       746       840       865      3400      3436      3437
 -1      1615    8    0    1
 -2       757       756       866      3088      3438      3439
 -1      1616    8    0    1
 -2       758       757       867      3091      3440      3441
 -1      1617    8    0    1
 -2       757       866       867      3439      3442      3440
 -1      1618    8    0    1
 -2       759       758       868      3094      3443      3444
 -1      1619    8    0    1
 -2       758       867       868      3441      3445      3443
 -1      1620    8    0    1
 -2       760       759       869      3097      3446      3447
 -1      1621    8    0    1
 -2       759       868       869      3444      3448      3446
 -1      1622    8    0    1
 -2       761       760       870      3100      3449      3450
 -1      1623    8    0    1
 -2       760       869       870      3447      3451      3449
 -1      1624    8    0    1
 -2       762       761       871      3103      3452      3453
 -1      1625    8    0    1
 -2       761       870       871      3450      3454      3452
 -1      1626    8    0    1
 -2       763       762       872      3106      3455      3456
 -1      1627    8    0    1
 -2       762       871       872      3453      3457      3455
 -1      1628    8    0    1
 -2       764       763       873      3109      3458      3459
 -1      1629    8    0    1
 -2       763       872       873      3456      3460      3458
 -1      1630    8    0    1
 -2       765       764       874      3112      3461      3462
 -1      1631    8    0    1
 -2       764       873       874      3459      3463      3461
 -1      1632    8    0    1
 -2       766       765       875      3115      3464      3465
 -1      1633    8    0    1
 -2       765       874       875      3462      3466      3464
 -1      1634    8    0    1
 -2       767       766       876      3118      3467      3468
 -1      1635    8    0    1
 -2       766       875       876      3465      3469      3467
 -1      1636    8    0    1
 -2       768       767       877      3121      3470      3471
 -1      1637    8    0    1
 -2       767       876       877      3468      3472      3470
 -1      1638    8    0    1
 -2       770       769       836      3127      3473      3415
 -1      1639    8    0    1
 -2       824       832       878      3309      3474      3475
 -1      1640    8    0    1
 -2       645       735       707      3369      3038      3409
 -1      1641    8    0    1
 -2       773       772       879      3137      3476      3477
 -1      1642    8    0    1
 -2       774       773       880      3140      3478      3479
 -1      1643    8    0    1
 -2       773       879       880      3477      3480      3478
 -1      1644    8    0    1
 -2       775       774       881      3143      3481      3482
 -1      1645    8    0    1
 -2       774       880       881      3479      3483      3481
 -1      1646    8    0    1
 -2       776       775       882      3146      3484      3485
 -1      1647    8    0    1
 -2       775       881       882      3482      3486      3484
 -1      1648    8    0    1
 -2       777       776       883      3149      3487      3488
 -1      1649    8    0    1
 -2       776       882       883      3485      3489      3487
 -1      1650    8    0    1
 -2       778       777       884      3152      3490      3491
 -1      1651    8    0    1
 -2       777       883       884      3488      3492      3490
 -1      1652    8    0    1
 -2       779       778       885      3155      3493      3494
 -1      1653    8    0    1
 -2       778       884       885      3491      3495      3493
 -1      1654    8    0    1
 -2       780       779       886      3158      3496      3497
 -1      1655    8    0    1
 -2       779       885       886      3494      3498      3496
 -1      1656    8    0    1
 -2       781       780       887      3161      3499      3500
 -1      1657    8    0    1
 -2       780       886       887      3497      3501      3499
 -1      1658    8    0    1
 -2       782       781       888      3164      3502      3503
 -1      1659    8    0    1
 -2       781       887       888      3500      3504      3502
 -1      1660    8    0    1
 -2       783       782       889      3167      3505      3506
 -1      1661    8    0    1
 -2       782       888       889      3503      3507      3505
 -1      1662    8    0    1
 -2       784       783       890      3170      3508      3509
 -1      1663    8    0    1
 -2       783       889       890      3506      3510      3508
 -1      1664    8    0    1
 -2       785       784       891      3173      3511      3512
 -1      1665    8    0    1
 -2       784       890       891      3509      3513      3511
 -1      1666    8    0    1
 -2       786       785       892      3176      3514      3515
 -1      1667    8    0    1
 -2       785       891       892      3512      3516      3514
 -1      1668    8    0    1
 -2       843       838       893      3364      3517      3518
 -1      1669    8    0    1
 -2       792       793       894      3195      3519      3520
 -1      1670    8    0    1
 -2       791       792       895      3192      3521      3522
 -1      1671    8    0    1
 -2       792       894       895      3520      3523      3521
 -1      1672    8    0    1
 -2       794       795       896      3201      3524      3525
 -1      1673    8    0    1
 -2       795       796       897      3204      3526      3527
 -1      1674    8    0    1
 -2       795       897       896      3527      3528      3524
 -1      1675    8    0    1
 -2       796       797       898      3207      3529      3530
 -1      1676    8    0    1
 -2       796       898       897      3530      3531      3526
 -1      1677    8    0    1
 -2       797       798       899      3210      3532      3533
 -1      1678    8    0    1
 -2       797       899       898      3533      3534      3529
 -1      1679    8    0    1
 -2       799       800       865      3216      3535      3536
 -1      1680    8    0    1
 -2       800       801       746      3219      3537      3538
 -1      1681    8    0    1
 -2       807       808       900      3237      3539      3540
 -1      1682    8    0    1
 -2       808       809       901      3240      3541      3542
 -1      1683    8    0    1
 -2       808       901       900      3542      3543      3539
 -1      1684    8    0    1
 -2       809       810       902      3243      3544      3545
 -1      1685    8    0    1
 -2       809       902       901      3545      3546      3541
 -1      1686    8    0    1
 -2       810       811       903      3246      3547      3548
 -1      1687    8    0    1
 -2       810       903       902      3548      3549      3544
 -1      1688    8    0    1
 -2       811       812       904      3249      3550      3551
 -1      1689    8    0    1
 -2       811       904       903      3551      3552      3547
 -1      1690    8    0    1
 -2       812       813       905      3252      3553      3554
 -1      1691    8    0    1
 -2       812       905       904      3554      3555      3550
 -1      1692    8    0    1
 -2       813       814       906      3255      3556      3557
 -1      1693    8    0    1
 -2       813       906       905      3557      3558      3553
 -1      1694    8    0    1
 -2       814       815       907      3258      3559      3560
 -1      1695    8    0    1
 -2       814       907       906      3560      3561      3556
 -1      1696    8    0    1
 -2       815       816       908      3261      3562      3563
 -1      1697    8    0    1
 -2       815       908       907      3563      3564      3559
 -1      1698    8    0    1
 -2       816       817       909      3264      3565      3566
 -1      1699    8    0    1
 -2       816       909       908      3566      3567      3562
 -1      1700    8    0    1
 -2       817       818       910      3267      3568      3569
 -1      1701    8    0    1
 -2       817       910       909      3569      3570      3565
 -1      1702    8    0    1
 -2       818       819       911      3270      3571      3572
 -1      1703    8    0    1
 -2       818       911       910      3572      3573      3568
 -1      1704    8    0    1
 -2       819       820       912      3273      3574      3575
 -1      1705    8    0    1
 -2       819       912       911      3575      3576      3571
 -1      1706    8    0    1
 -2       820       821       913      3276      3577      3578
 -1      1707    8    0    1
 -2       820       913       912      3578      3579      3574
 -1      1708    8    0    1
 -2       821       822       914      3279      3580      3581
 -1      1709    8    0    1
 -2       821       914       913      3581      3582      3577
 -1      1710    8    0    1
 -2       832       833       915      3312      3583      3584
 -1      1711    8    0    1
 -2       832       915       878      3584      3585      3474
 -1      1712    8    0    1
 -2       790       789       916      3187      3586      3587
 -1      1713    8    0    1
 -2       729       825       845      3287      3588      3350
 -1      1714    8    0    1
 -2       829       844       917      3365      3589      3590
 -1      1715    8    0    1
 -2       841       836       918      3337      3591      3592
 -1      1716    8    0    1
 -2       862       841       918      3425      3592      3593
 -1      1717    8    0    1
 -2       836       769       918      3473      3594      3591
 -1      1718    8    0    1
 -2       771       754       772      3366      3595      3134
 -1      1719    8    0    1
 -2       837       849       919      3414      3596      3597
 -1      1720    8    0    1
 -2       826       824       920      3290      3598      3599
 -1      1721    8    0    1
 -2       824       878       920      3475      3600      3598
 -1      1722    8    0    1
 -2       838       842       921      3340      3601      3602
 -1      1723    8    0    1
 -2       838       921       893      3602      3603      3517
 -1      1724    8    0    1
 -2       805       806       751      3231      3604      3428
 -1      1725    8    0    1
 -2       748       744       922      3057      3605      3606
 -1      1726    8    0    1
 -2       748       922       857      3606      3607      3403
 -1      1727    8    0    1
 -2       793       794       923      3198      3608      3609
 -1      1728    8    0    1
 -2       894       793       923      3519      3609      3610
 -1      1729    8    0    1
 -2       794       896       923      3525      3611      3608
 -1      1730    8    0    1
 -2       755       837       924      3326      3612      3613
 -1      1731    8    0    1
 -2       827       846       925      3394      3614      3615
 -1      1732    8    0    1
 -2       756       755       926      3085      3616      3617
 -1      1733    8    0    1
 -2       756       926       866      3617      3618      3438
 -1      1734    8    0    1
 -2       754       843       927      3345      3619      3620
 -1      1735    8    0    1
 -2       844       839       928      3349      3621      3622
 -1      1736    8    0    1
 -2       839       751       929      3405      3623      3624
 -1      1737    8    0    1
 -2       928       839       929      3621      3624      3625
 -1      1738    8    0    1
 -2       751       806       929      3604      3626      3623
 -1      1739    8    0    1
 -2       830       788       930      3303      3627      3628
 -1      1740    8    0    1
 -2       831       747       931      3398      3629      3630
 -1      1741    8    0    1
 -2       800       746       865      3538      3437      3535
 -1      1742    8    0    1
 -2       848       752       932      3358      3631      3632
 -1      1743    8    0    1
 -2       863       831       931      3430      3630      3633
 -1      1744    8    0    1
 -2       754       927       879      3620      3634      3635
 -1      1745    8    0    1
 -2       772       754       879      3595      3635      3476
 -1      1746    8    0    1
 -2       769       768       918      3124      3636      3594
 -1      1747    8    0    1
 -2       790       916       933      3587      3637      3638
 -1      1748    8    0    1
 -2       790       933       852      3638      3639      3375
 -1      1749    8    0    1
 -2       924       837       919      3612      3597      3640
 -1      1750    8    0    1
 -2       846       862       934      3427      3641      3642
 -1      1751    8    0    1
 -2       846       934       925      3642      3643      3614
 -1      1752    8    0    1
 -2       851       721       852      3370      3377      3644
 -1      1753    8    0    1
 -2       744       847       922      3356      3645      3605
 -1      1754    8    0    1
 -2       855       827       935      3390      3646      3647
 -1      1755    8    0    1
 -2       827       925       935      3615      3648      3646
 -1      1756    8    0    1
 -2       830       930       936      3628      3649      3650
 -1      1757    8    0    1
 -2       787       786       937      3180      3651      3652
 -1      1758    8    0    1
 -2       861       787       937      3424      3652      3653
 -1      1759    8    0    1
 -2       786       892       937      3515      3654      3651
 -1      1760    8    0    1
 -2       755       924       926      3613      3655      3616
 -1      1761    8    0    1
 -2       752       835       938      3319      3656      3657
 -1      1762    8    0    1
 -2       932       752       938      3631      3657      3658
 -1      1763    8    0    1
 -2       835       860       938      3419      3659      3656
 -1      1764    8    0    1
 -2       853       854       939      3388      3660      3661
 -1      1765    8    0    1
 -2       791       895       940      3522      3662      3663
 -1      1766    8    0    1
 -2       791       940       834      3663      3664      3316
 -1      1767    8    0    1
 -2       799       865       941      3536      3665      3666
 -1      1768    8    0    1
 -2       798       799       941      3213      3666      3667
 -1      1769    8    0    1
 -2       865       840       941      3436      3668      3665
 -1      1770    8    0    1
 -2       899       798       941      3532      3667      3669
 -1      1771    8    0    1
 -2       807       900       929      3540      3670      3671
 -1      1772    8    0    1
 -2       801       845       825      3381      3588      3672
 -1      1773    8    0    1
 -2       842       856       921      3397      3673      3601
 -1      1774    8    0    1
 -2       853       939       942      3661      3674      3675
 -1      1775    8    0    1
 -2       853       942       858      3675      3676      3406
 -1      1776    8    0    1
 -2       822       823       864      3282      3434      3677
 -1      1777    8    0    1
 -2       916       789       943      3586      3678      3679
 -1      1778    8    0    1
 -2       789       834       943      3315      3680      3678
 -1      1779    8    0    1
 -2       825       730       746      3286      3049      3681
 -1      1780    8    0    1
 -2       917       844       928      3589      3622      3682
 -1      1781    8    0    1
 -2       930       788       944      3627      3683      3684
 -1      1782    8    0    1
 -2       788       851       944      3372      3685      3683
 -1      1783    8    0    1
 -2       826       920       945      3599      3686      3687
 -1      1784    8    0    1
 -2       826       945       854      3687      3688      3389
 -1      1785    8    0    1
 -2       833       861       937      3423      3653      3689
 -1      1786    8    0    1
 -2       806       807       929      3234      3671      3626
 -1      1787    8    0    1
 -2       941       840       863      3668      3431      3690
 -1      1788    8    0    1
 -2       918       768       877      3636      3471      3691
 -1      1789    8    0    1
 -2       856       829       946      3395      3692      3693
 -1      1790    8    0    1
 -2       829       917       946      3590      3694      3692
 -1      1791    8    0    1
 -2       822       864       914      3677      3695      3580
 -1      1792    8    0    1
 -2       743       850       849      3368      3696      3429
 -1      1793    8    0    1
 -2       847       828       947      3357      3697      3698
 -1      1794    8    0    1
 -2       830       936       860      3650      3699      3420
 -1      1795    8    0    1
 -2       828       859       948      3412      3700      3701
 -1      1796    8    0    1
 -2       828       948       947      3701      3702      3697
 -1      1797    8    0    1
 -2       833       937       915      3689      3703      3583
 -1      1798    8    0    1
 -2       927       843       893      3619      3518      3704
 -1      1799    8    0    1
 -2       747       855       931      3392      3705      3629
 -1      1800    8    0    1
 -2       849       850       919      3696      3706      3596
 -1      1801    8    0    1
 -2       919       850       949      3706      3707      3708
 -1      1802    8    0    1
 -2       850       857       949      3402      3709      3707
 -1      1803    8    0    1
 -2       863       931       950      3633      3710      3711
 -1      1804    8    0    1
 -2       879       927       880      3634      3712      3480
 -1      1805    8    0    1
 -2       868       867       951      3445      3713      3714
 -1      1806    8    0    1
 -2       869       868       952      3448      3715      3716
 -1      1807    8    0    1
 -2       868       951       952      3714      3717      3715
 -1      1808    8    0    1
 -2       870       869       953      3451      3718      3719
 -1      1809    8    0    1
 -2       869       952       953      3716      3720      3718
 -1      1810    8    0    1
 -2       871       870       954      3454      3721      3722
 -1      1811    8    0    1
 -2       870       953       954      3719      3723      3721
 -1      1812    8    0    1
 -2       872       871       955      3457      3724      3725
 -1      1813    8    0    1
 -2       871       954       955      3722      3726      3724
 -1      1814    8    0    1
 -2       873       872       956      3460      3727      3728
 -1      1815    8    0    1
 -2       872       955       956      3725      3729      3727
 -1      1816    8    0    1
 -2       874       873       957      3463      3730      3731
 -1      1817    8    0    1
 -2       873       956       957      3728      3732      3730
 -1      1818    8    0    1
 -2       875       874       958      3466      3733      3734
 -1      1819    8    0    1
 -2       874       957       958      3731      3735      3733
 -1      1820    8    0    1
 -2       876       875       959      3469      3736      3737
 -1      1821    8    0    1
 -2       875       958       959      3734      3738      3736
 -1      1822    8    0    1
 -2       877       876       960      3472      3739      3740
 -1      1823    8    0    1
 -2       876       959       960      3737      3741      3739
 -1      1824    8    0    1
 -2       895       894       961      3523      3742      3743
 -1      1825    8    0    1
 -2       937       892       915      3654      3744      3703
 -1      1826    8    0    1
 -2       936       930       962      3649      3745      3746
 -1      1827    8    0    1
 -2       924       919       949      3640      3708      3747
 -1      1828    8    0    1
 -2       926       924       963      3655      3748      3749
 -1      1829    8    0    1
 -2       881       880       964      3483      3750      3751
 -1      1830    8    0    1
 -2       882       881       965      3486      3752      3753
 -1      1831    8    0    1
 -2       881       964       965      3751      3754      3752
 -1      1832    8    0    1
 -2       883       882       966      3489      3755      3756
 -1      1833    8    0    1
 -2       882       965       966      3753      3757      3755
 -1      1834    8    0    1
 -2       884       883       967      3492      3758      3759
 -1      1835    8    0    1
 -2       883       966       967      3756      3760      3758
 -1      1836    8    0    1
 -2       885       884       968      3495      3761      3762
 -1      1837    8    0    1
 -2       884       967       968      3759      3763      3761
 -1      1838    8    0    1
 -2       886       885       969      3498      3764      3765
 -1      1839    8    0    1
 -2       885       968       969      3762      3766      3764
 -1      1840    8    0    1
 -2       887       886       970      3501      3767      3768
 -1      1841    8    0    1
 -2       886       969       970      3765      3769      3767
 -1      1842    8    0    1
 -2       888       887       971      3504      3770      3771
 -1      1843    8    0    1
 -2       887       970       971      3768      3772      3770
 -1      1844    8    0    1
 -2       889       888       972      3507      3773      3774
 -1      1845    8    0    1
 -2       888       971       972      3771      3775      3773
 -1      1846    8    0    1
 -2       890       889       973      3510      3776      3777
 -1      1847    8    0    1
 -2       889       972       973      3774      3778      3776
 -1      1848    8    0    1
 -2       891       890       974      3513      3779      3780
 -1      1849    8    0    1
 -2       890       973       974      3777      3781      3779
 -1      1850    8    0    1
 -2       892       891       975      3516      3782      3783
 -1      1851    8    0    1
 -2       891       974       975      3780      3784      3782
 -1      1852    8    0    1
 -2       897       898       976      3531      3785      3786
 -1      1853    8    0    1
 -2       896       897       977      3528      3787      3788
 -1      1854    8    0    1
 -2       897       976       977      3786      3789      3787
 -1      1855    8    0    1
 -2       929       900       928      3670      3790      3625
 -1      1856    8    0    1
 -2       848       932       978      3632      3791      3792
 -1      1857    8    0    1
 -2       848       978       859      3792      3793      3413
 -1      1858    8    0    1
 -2       900       901       979      3543      3794      3795
 -1      1859    8    0    1
 -2       900       979       928      3795      3796      3790
 -1      1860    8    0    1
 -2       903       904       980      3552      3797      3798
 -1      1861    8    0    1
 -2       904       905       981      3555      3799      3800
 -1      1862    8    0    1
 -2       904       981       980      3800      3801      3797
 -1      1863    8    0    1
 -2       905       906       982      3558      3802      3803
 -1      1864    8    0    1
 -2       905       982       981      3803      3804      3799
 -1      1865    8    0    1
 -2       906       907       983      3561      3805      3806
 -1      1866    8    0    1
 -2       906       983       982      3806      3807      3802
 -1      1867    8    0    1
 -2       907       908       984      3564      3808      3809
 -1      1868    8    0    1
 -2       907       984       983      3809      3810      3805
 -1      1869    8    0    1
 -2       908       909       985      3567      3811      3812
 -1      1870    8    0    1
 -2       908       985       984      3812      3813      3808
 -1      1871    8    0    1
 -2       909       910       986      3570      3814      3815
 -1      1872    8    0    1
 -2       909       986       985      3815      3816      3811
 -1      1873    8    0    1
 -2       910       911       987      3573      3817      3818
 -1      1874    8    0    1
 -2       910       987       986      3818      3819      3814
 -1      1875    8    0    1
 -2       911       912       988      3576      3820      3821
 -1      1876    8    0    1
 -2       911       988       987      3821      3822      3817
 -1      1877    8    0    1
 -2       912       913       989      3579      3823      3824
 -1      1878    8    0    1
 -2       912       989       988      3824      3825      3820
 -1      1879    8    0    1
 -2       927       893       990      3704      3826      3827
 -1      1880    8    0    1
 -2       899       941       863      3669      3690      3828
 -1      1881    8    0    1
 -2       921       856       991      3673      3829      3830
 -1      1882    8    0    1
 -2       862       918       877      3593      3691      3831
 -1      1883    8    0    1
 -2       922       847       992      3645      3832      3833
 -1      1884    8    0    1
 -2       847       947       992      3698      3834      3832
 -1      1885    8    0    1
 -2       920       878       993      3600      3835      3836
 -1      1886    8    0    1
 -2       902       903       994      3549      3837      3838
 -1      1887    8    0    1
 -2       903       980       994      3798      3839      3837
 -1      1888    8    0    1
 -2       851       852       995      3644      3840      3841
 -1      1889    8    0    1
 -2       852       933       995      3639      3842      3840
 -1      1890    8    0    1
 -2       901       902       996      3546      3843      3844
 -1      1891    8    0    1
 -2       902       994       996      3838      3845      3843
 -1      1892    8    0    1
 -2       866       926       997      3618      3846      3847
 -1      1893    8    0    1
 -2       926       963       997      3749      3848      3846
 -1      1894    8    0    1
 -2       893       921       998      3603      3849      3850
 -1      1895    8    0    1
 -2       893       998       990      3850      3851      3826
 -1      1896    8    0    1
 -2       867       866       999      3442      3852      3853
 -1      1897    8    0    1
 -2       951       867       999      3713      3853      3854
 -1      1898    8    0    1
 -2       866       997       999      3847      3855      3852
 -1      1899    8    0    1
 -2       931       855      1000      3705      3856      3857
 -1      1900    8    0    1
 -2       864       858       914      3435      3858      3695
 -1      1901    8    0    1
 -2       857       922      1001      3607      3859      3860
 -1      1902    8    0    1
 -2       922       992      1001      3833      3861      3859
 -1      1903    8    0    1
 -2       917       928       979      3682      3796      3862
 -1      1904    8    0    1
 -2       939       854       945      3660      3688      3863
 -1      1905    8    0    1
 -2       880       927       990      3712      3827      3864
 -1      1906    8    0    1
 -2       915       892       975      3744      3783      3865
 -1      1907    8    0    1
 -2       899       863       950      3828      3711      3866
 -1      1908    8    0    1
 -2       862       877       934      3831      3867      3641
 -1      1909    8    0    1
 -2       914       858       942      3858      3676      3868
 -1      1910    8    0    1
 -2      1000       855      1002      3856      3869      3870
 -1      1911    8    0    1
 -2       855       935      1002      3647      3871      3869
 -1      1912    8    0    1
 -2       916       943      1003      3679      3872      3873
 -1      1913    8    0    1
 -2       856       946      1004      3693      3874      3875
 -1      1914    8    0    1
 -2       856      1004       991      3875      3876      3829
 -1      1915    8    0    1
 -2       877       960       934      3740      3877      3867
 -1      1916    8    0    1
 -2       961       894      1005      3742      3878      3879
 -1      1917    8    0    1
 -2       894       923      1005      3610      3880      3878
 -1      1918    8    0    1
 -2       933       916      1006      3637      3881      3882
 -1      1919    8    0    1
 -2       916      1003      1006      3873      3883      3881
 -1      1920    8    0    1
 -2       914       942       913      3868      3884      3582
 -1      1921    8    0    1
 -2       895       961      1007      3743      3885      3886
 -1      1922    8    0    1
 -2       895      1007       940      3886      3887      3662
 -1      1923    8    0    1
 -2       962       930      1008      3745      3888      3889
 -1      1924    8    0    1
 -2       930       944      1008      3684      3890      3888
 -1      1925    8    0    1
 -2       935       925      1009      3648      3891      3892
 -1      1926    8    0    1
 -2       925       934      1009      3643      3893      3891
 -1      1927    8    0    1
 -2       924       949       963      3747      3894      3748
 -1      1928    8    0    1
 -2       851       995       944      3841      3895      3685
 -1      1929    8    0    1
 -2       834       940       943      3664      3896      3680
 -1      1930    8    0    1
 -2       979       901       996      3794      3844      3897
 -1      1931    8    0    1
 -2       801       825       746      3672      3681      3537
 -1      1932    8    0    1
 -2       942       939      1010      3674      3898      3899
 -1      1933    8    0    1
 -2       915       975       878      3865      3900      3585
 -1      1934    8    0    1
 -2       949       857      1001      3709      3860      3901
 -1      1935    8    0    1
 -2       992       947      1011      3834      3902      3903
 -1      1936    8    0    1
 -2       945       920      1012      3686      3904      3905
 -1      1937    8    0    1
 -2       920       993      1012      3836      3906      3904
 -1      1938    8    0    1
 -2       993       878       975      3835      3900      3907
 -1      1939    8    0    1
 -2       931      1000       950      3857      3908      3710
 -1      1940    8    0    1
 -2       946       917      1013      3694      3909      3910
 -1      1941    8    0    1
 -2      1004       946      1013      3874      3910      3911
 -1      1942    8    0    1
 -2       917       979      1013      3862      3912      3909
 -1      1943    8    0    1
 -2       923       896      1014      3611      3913      3914
 -1      1944    8    0    1
 -2       923      1014      1005      3914      3915      3880
 -1      1945    8    0    1
 -2       939       945      1015      3863      3916      3917
 -1      1946    8    0    1
 -2      1010       939      1015      3898      3917      3918
 -1      1947    8    0    1
 -2       945      1012      1015      3905      3919      3916
 -1      1948    8    0    1
 -2       880       990       964      3864      3920      3750
 -1      1949    8    0    1
 -2       921       991      1016      3830      3921      3922
 -1      1950    8    0    1
 -2       921      1016       998      3922      3923      3849
 -1      1951    8    0    1
 -2       948       859       978      3700      3793      3924
 -1      1952    8    0    1
 -2       947       948      1017      3702      3925      3926
 -1      1953    8    0    1
 -2       947      1017      1011      3926      3927      3902
 -1      1954    8    0    1
 -2       898       899      1018      3534      3928      3929
 -1      1955    8    0    1
 -2       898      1018       976      3929      3930      3785
 -1      1956    8    0    1
 -2      1014       896       977      3913      3788      3931
 -1      1957    8    0    1
 -2      1003       943      1019      3872      3932      3933
 -1      1958    8    0    1
 -2       943       940      1019      3896      3934      3932
 -1      1959    8    0    1
 -2       953       952      1020      3720      3935      3936
 -1      1960    8    0    1
 -2       954       953      1021      3723      3937      3938
 -1      1961    8    0    1
 -2       953      1020      1021      3936      3939      3937
 -1      1962    8    0    1
 -2       955       954      1022      3726      3940      3941
 -1      1963    8    0    1
 -2       954      1021      1022      3938      3942      3940
 -1      1964    8    0    1
 -2       956       955      1023      3729      3943      3944
 -1      1965    8    0    1
 -2       955      1022      1023      3941      3945      3943
 -1      1966    8    0    1
 -2       957       956      1024      3732      3946      3947
 -1      1967    8    0    1
 -2       956      1023      1024      3944      3948      3946
 -1      1968    8    0    1
 -2       958       957      1025      3735      3949      3950
 -1      1969    8    0    1
 -2       957      1024      1025      3947      3951      3949
 -1      1970    8    0    1
 -2       959       958      1026      3738      3952      3953
 -1      1971    8    0    1
 -2       958      1025      1026      3950      3954      3952
 -1      1972    8    0    1
 -2       960       959      1027      3741      3955      3956
 -1      1973    8    0    1
 -2       959      1026      1027      3953      3957      3955
 -1      1974    8    0    1
 -2       944       995      1028      3895      3958      3959
 -1      1975    8    0    1
 -2       944      1028      1008      3959      3960      3890
 -1      1976    8    0    1
 -2       899       950      1018      3866      3961      3928
 -1      1977    8    0    1
 -2       966       965      1029      3757      3962      3963
 -1      1978    8    0    1
 -2       967       966      1030      3760      3964      3965
 -1      1979    8    0    1
 -2       966      1029      1030      3963      3966      3964
 -1      1980    8    0    1
 -2       968       967      1031      3763      3967      3968
 -1      1981    8    0    1
 -2       967      1030      1031      3965      3969      3967
 -1      1982    8    0    1
 -2       969       968      1032      3766      3970      3971
 -1      1983    8    0    1
 -2       968      1031      1032      3968      3972      3970
 -1      1984    8    0    1
 -2       970       969      1033      3769      3973      3974
 -1      1985    8    0    1
 -2       969      1032      1033      3971      3975      3973
 -1      1986    8    0    1
 -2       971       970      1034      3772      3976      3977
 -1      1987    8    0    1
 -2       970      1033      1034      3974      3978      3976
 -1      1988    8    0    1
 -2       972       971      1035      3775      3979      3980
 -1      1989    8    0    1
 -2       971      1034      1035      3977      3981      3979
 -1      1990    8    0    1
 -2       973       972      1036      3778      3982      3983
 -1      1991    8    0    1
 -2       972      1035      1036      3980      3984      3982
 -1      1992    8    0    1
 -2       974       973      1037      3781      3985      3986
 -1      1993    8    0    1
 -2       973      1036      1037      3983      3987      3985
 -1      1994    8    0    1
 -2       975       974      1038      3784      3988      3989
 -1      1995    8    0    1
 -2       993       975      1038      3907      3989      3990
 -1      1996    8    0    1
 -2       974      1037      1038      3986      3991      3988
 -1      1997    8    0    1
 -2      1014       977      1039      3931      3992      3993
 -1      1998    8    0    1
 -2       982       983      1040      3807      3994      3995
 -1      1999    8    0    1
 -2       978       932       962      3791      3996      3997
 -1      2000    8    0    1
 -2       950      1000      1041      3908      3998      3999
 -1      2001    8    0    1
 -2       981       982      1042      3804      4000      4001
 -1      2002    8    0    1
 -2       982      1040      1042      3995      4002      4000
 -1      2003    8    0    1
 -2       980       981      1043      3801      4003      4004
 -1      2004    8    0    1
 -2       981      1042      1043      4001      4005      4003
 -1      2005    8    0    1
 -2       983       984      1044      3810      4006      4007
 -1      2006    8    0    1
 -2       983      1044      1040      4007      4008      3994
 -1      2007    8    0    1
 -2       984       985      1045      3813      4009      4010
 -1      2008    8    0    1
 -2       984      1045      1044      4010      4011      4006
 -1      2009    8    0    1
 -2       985       986      1046      3816      4012      4013
 -1      2010    8    0    1
 -2       985      1046      1045      4013      4014      4009
 -1      2011    8    0    1
 -2       986       987      1047      3819      4015      4016
 -1      2012    8    0    1
 -2       986      1047      1046      4016      4017      4012
 -1      2013    8    0    1
 -2       987       988      1048      3822      4018      4019
 -1      2014    8    0    1
 -2       987      1048      1047      4019      4020      4015
 -1      2015    8    0    1
 -2       988       989      1049      3825      4021      4022
 -1      2016    8    0    1
 -2       988      1049      1048      4022      4023      4018
 -1      2017    8    0    1
 -2       989       913       942      3823      3884      4024
 -1      2018    8    0    1
 -2       979       996      1013      3897      4025      3912
 -1      2019    8    0    1
 -2       934       960      1027      3877      3956      4026
 -1      2020    8    0    1
 -2       964       990      1050      3920      4027      4028
 -1      2021    8    0    1
 -2       990       998      1050      3851      4029      4027
 -1      2022    8    0    1
 -2       932       938       936      3658      4030      4031
 -1      2023    8    0    1
 -2       994       980      1051      3839      4032      4033
 -1      2024    8    0    1
 -2       980      1043      1051      4004      4034      4032
 -1      2025    8    0    1
 -2      1018       950      1041      3961      3999      4035
 -1      2026    8    0    1
 -2       932       936       962      4031      3746      3996
 -1      2027    8    0    1
 -2       860       936       938      3699      4030      3659
 -1      2028    8    0    1
 -2       995       933      1052      3842      4036      4037
 -1      2029    8    0    1
 -2      1028       995      1052      3958      4037      4038
 -1      2030    8    0    1
 -2       933      1006      1052      3882      4039      4036
 -1      2031    8    0    1
 -2       996       994      1053      3845      4040      4041
 -1      2032    8    0    1
 -2      1013       996      1053      4025      4041      4042
 -1      2033    8    0    1
 -2       994      1051      1053      4033      4043      4040
 -1      2034    8    0    1
 -2       997       963      1054      3848      4044      4045
 -1      2035    8    0    1
 -2       948       978      1055      3924      4046      4047
 -1      2036    8    0    1
 -2      1017       948      1055      3925      4047      4048
 -1      2037    8    0    1
 -2       978       962      1055      3997      4049      4046
 -1      2038    8    0    1
 -2       977       976      1056      3789      4050      4051
 -1      2039    8    0    1
 -2       977      1056      1039      4051      4052      3992
 -1      2040    8    0    1
 -2       965       964      1050      3754      4028      4053
 -1      2041    8    0    1
 -2       976      1018      1041      3930      4035      4054
 -1      2042    8    0    1
 -2       952       951      1057      3717      4055      4056
 -1      2043    8    0    1
 -2       952      1057      1020      4056      4057      3935
 -1      2044    8    0    1
 -2      1001       992      1058      3861      4058      4059
 -1      2045    8    0    1
 -2       992      1011      1058      3903      4060      4058
 -1      2046    8    0    1
 -2       991      1004      1059      3876      4061      4062
 -1      2047    8    0    1
 -2       991      1059      1016      4062      4063      3921
 -1      2048    8    0    1
 -2       976      1041      1056      4054      4064      4050
 -1      2049    8    0    1
 -2      1006      1003      1060      3883      4065      4066
 -1      2050    8    0    1
 -2      1007       961      1061      3885      4067      4068
 -1      2051    8    0    1
 -2      1029       965      1050      3962      4053      4069
 -1      2052    8    0    1
 -2       993      1038      1062      3990      4070      4071
 -1      2053    8    0    1
 -2       993      1062      1012      4071      4072      3906
 -1      2054    8    0    1
 -2       962      1008      1063      3889      4073      4074
 -1      2055    8    0    1
 -2       962      1063      1055      4074      4075      4049
 -1      2056    8    0    1
 -2      1003      1019      1064      3933      4076      4077
 -1      2057    8    0    1
 -2      1003      1064      1060      4077      4078      4065
 -1      2058    8    0    1
 -2       989       942      1010      4024      3899      4079
 -1      2059    8    0    1
 -2      1049       989      1010      4021      4079      4080
 -1      2060    8    0    1
 -2       951       999      1065      3854      4081      4082
 -1      2061    8    0    1
 -2       951      1065      1057      4082      4083      4055
 -1      2062    8    0    1
 -2       940      1007      1019      3887      4084      3934
 -1      2063    8    0    1
 -2       949      1001       963      3901      4085      3894
 -1      2064    8    0    1
 -2      1050       998      1016      4029      3923      4086
 -1      2065    8    0    1
 -2       963      1001      1058      4085      4059      4087
 -1      2066    8    0    1
 -2      1061       961      1066      4067      4088      4089
 -1      2067    8    0    1
 -2       961      1005      1066      3879      4090      4088
 -1      2068    8    0    1
 -2      1000      1002      1067      3870      4091      4092
 -1      2069    8    0    1
 -2      1000      1067      1041      4092      4093      3998
 -1      2070    8    0    1
 -2       997      1054      1068      4045      4094      4095
 -1      2071    8    0    1
 -2       997      1068       999      4095      4096      3855
 -1      2072    8    0    1
 -2      1054       963      1058      4044      4087      4097
 -1      2073    8    0    1
 -2      1049      1010      1015      4080      3918      4098
 -1      2074    8    0    1
 -2      1002       935      1069      3871      4099      4100
 -1      2075    8    0    1
 -2       935      1009      1069      3892      4101      4099
 -1      2076    8    0    1
 -2      1005      1014      1070      3915      4102      4103
 -1      2077    8    0    1
 -2      1005      1070      1066      4103      4104      4090
 -1      2078    8    0    1
 -2      1058      1011      1071      4060      4105      4106
 -1      2079    8    0    1
 -2      1058      1071      1054      4106      4107      4097
 -1      2080    8    0    1
 -2      1011      1017      1072      3927      4108      4109
 -1      2081    8    0    1
 -2      1011      1072      1071      4109      4110      4105
 -1      2082    8    0    1
 -2      1070      1014      1039      4102      3993      4111
 -1      2083    8    0    1
 -2      1022      1021      1073      3942      4112      4113
 -1      2084    8    0    1
 -2      1023      1022      1074      3945      4114      4115
 -1      2085    8    0    1
 -2      1022      1073      1074      4113      4116      4114
 -1      2086    8    0    1
 -2      1024      1023      1075      3948      4117      4118
 -1      2087    8    0    1
 -2      1023      1074      1075      4115      4119      4117
 -1      2088    8    0    1
 -2      1025      1024      1076      3951      4120      4121
 -1      2089    8    0    1
 -2      1024      1075      1076      4118      4122      4120
 -1      2090    8    0    1
 -2      1026      1025      1077      3954      4123      4124
 -1      2091    8    0    1
 -2      1025      1076      1077      4121      4125      4123
 -1      2092    8    0    1
 -2      1027      1026      1078      3957      4126      4127
 -1      2093    8    0    1
 -2      1026      1077      1078      4124      4128      4126
 -1      2094    8    0    1
 -2      1007      1061      1079      4068      4129      4130
 -1      2095    8    0    1
 -2      1007      1079      1019      4130      4131      4084
 -1      2096    8    0    1
 -2      1029      1050      1080      4069      4132      4133
 -1      2097    8    0    1
 -2      1050      1016      1080      4086      4134      4132
 -1      2098    8    0    1
 -2      1030      1029      1081      3966      4135      4136
 -1      2099    8    0    1
 -2      1029      1080      1081      4133      4137      4135
 -1      2100    8    0    1
 -2      1031      1030      1082      3969      4138      4139
 -1      2101    8    0    1
 -2      1030      1081      1082      4136      4140      4138
 -1      2102    8    0    1
 -2      1032      1031      1083      3972      4141      4142
 -1      2103    8    0    1
 -2      1031      1082      1083      4139      4143      4141
 -1      2104    8    0    1
 -2      1033      1032      1084      3975      4144      4145
 -1      2105    8    0    1
 -2      1032      1083      1084      4142      4146      4144
 -1      2106    8    0    1
 -2      1034      1033      1085      3978      4147      4148
 -1      2107    8    0    1
 -2      1033      1084      1085      4145      4149      4147
 -1      2108    8    0    1
 -2      1035      1034      1086      3981      4150      4151
 -1      2109    8    0    1
 -2      1034      1085      1086      4148      4152      4150
 -1      2110    8    0    1
 -2      1036      1035      1087      3984      4153      4154
 -1      2111    8    0    1
 -2      1035      1086      1087      4151      4155      4153
 -1      2112    8    0    1
 -2      1037      1036      1088      3987      4156      4157
 -1      2113    8    0    1
 -2      1036      1087      1088      4154      4158      4156
 -1      2114    8    0    1
 -2      1038      1037      1088      3991      4157      4159
 -1      2115    8    0    1
 -2      1044      1045      1089      4011      4160      4161
 -1      2116    8    0    1
 -2      1020      1057      1090      4057      4162      4163
 -1      2117    8    0    1
 -2      1039      1056      1091      4052      4164      4165
 -1      2118    8    0    1
 -2      1040      1044      1092      4008      4166      4167
 -1      2119    8    0    1
 -2      1044      1089      1092      4161      4168      4166
 -1      2120    8    0    1
 -2      1043      1042      1093      4005      4169      4170
 -1      2121    8    0    1
 -2      1045      1046      1094      4014      4171      4172
 -1      2122    8    0    1
 -2      1045      1094      1089      4172      4173      4160
 -1      2123    8    0    1
 -2      1046      1047      1095      4017      4174      4175
 -1      2124    8    0    1
 -2      1046      1095      1094      4175      4176      4171
 -1      2125    8    0    1
 -2      1047      1048      1096      4020      4177      4178
 -1      2126    8    0    1
 -2      1047      1096      1095      4178      4179      4174
 -1      2127    8    0    1
 -2      1048      1049      1097      4023      4180      4181
 -1      2128    8    0    1
 -2      1048      1097      1096      4181      4182      4177
 -1      2129    8    0    1
 -2      1021      1020      1098      3939      4183      4184
 -1      2130    8    0    1
 -2      1020      1090      1098      4163      4185      4183
 -1      2131    8    0    1
 -2      1051      1043      1099      4034      4186      4187
 -1      2132    8    0    1
 -2      1043      1093      1099      4170      4188      4186
 -1      2133    8    0    1
 -2      1054      1071      1068      4107      4189      4094
 -1      2134    8    0    1
 -2      1008      1028      1100      3960      4190      4191
 -1      2135    8    0    1
 -2      1008      1100      1063      4191      4192      4073
 -1      2136    8    0    1
 -2      1042      1040      1101      4002      4193      4194
 -1      2137    8    0    1
 -2      1093      1042      1101      4169      4194      4195
 -1      2138    8    0    1
 -2      1040      1092      1101      4167      4196      4193
 -1      2139    8    0    1
 -2      1056      1041      1067      4064      4093      4197
 -1      2140    8    0    1
 -2      1017      1055      1102      4048      4198      4199
 -1      2141    8    0    1
 -2      1072      1017      1102      4108      4199      4200
 -1      2142    8    0    1
 -2      1055      1063      1102      4075      4201      4198
 -1      2143    8    0    1
 -2      1006      1060      1103      4066      4202      4203
 -1      2144    8    0    1
 -2      1006      1103      1052      4203      4204      4039
 -1      2145    8    0    1
 -2      1049      1015      1097      4098      4205      4180
 -1      2146    8    0    1
 -2      1070      1039      1104      4111      4206      4207
 -1      2147    8    0    1
 -2      1039      1091      1104      4165      4208      4206
 -1      2148    8    0    1
 -2      1004      1013      1053      3911      4042      4209
 -1      2149    8    0    1
 -2      1061      1066      1105      4089      4210      4211
 -1      2150    8    0    1
 -2      1067      1002      1078      4091      4212      4213
 -1      2151    8    0    1
 -2      1057      1065      1106      4083      4214      4215
 -1      2152    8    0    1
 -2      1057      1106      1090      4215      4216      4162
 -1      2153    8    0    1
 -2      1079      1061      1107      4129      4217      4218
 -1      2154    8    0    1
 -2      1061      1105      1107      4211      4219      4217
 -1      2155    8    0    1
 -2      1080      1016      1059      4134      4063      4220
 -1      2156    8    0    1
 -2      1009       934      1027      3893      4026      4221
 -1      2157    8    0    1
 -2      1062      1038      1088      4070      4159      4222
 -1      2158    8    0    1
 -2      1051      1099      1059      4187      4223      4224
 -1      2159    8    0    1
 -2      1028      1052      1108      4038      4225      4226
 -1      2160    8    0    1
 -2      1100      1028      1108      4190      4226      4227
 -1      2161    8    0    1
 -2      1052      1103      1108      4204      4228      4225
 -1      2162    8    0    1
 -2      1064      1019      1079      4076      4131      4229
 -1      2163    8    0    1
 -2      1056      1067      1091      4197      4230      4164
 -1      2164    8    0    1
 -2      1021      1098      1073      4184      4231      4112
 -1      2165    8    0    1
 -2      1065       999      1068      4081      4096      4232
 -1      2166    8    0    1
 -2      1015      1012      1062      3919      4072      4233
 -1      2167    8    0    1
 -2      1060      1064      1109      4078      4234      4235
 -1      2168    8    0    1
 -2      1069      1009      1027      4101      4221      4236
 -1      2169    8    0    1
 -2      1071      1072      1110      4110      4237      4238
 -1      2170    8    0    1
 -2      1068      1071      1110      4189      4238      4239
 -1      2171    8    0    1
 -2      1103      1060      1111      4202      4240      4241
 -1      2172    8    0    1
 -2      1060      1109      1111      4235      4242      4240
 -1      2173    8    0    1
 -2      1066      1070      1112      4104      4243      4244
 -1      2174    8    0    1
 -2      1066      1112      1105      4244      4245      4210
 -1      2175    8    0    1
 -2      1015      1062      1097      4233      4246      4205
 -1      2176    8    0    1
 -2      1112      1070      1104      4243      4207      4247
 -1      2177    8    0    1
 -2      1067      1078      1091      4213      4248      4230
 -1      2178    8    0    1
 -2      1027      1078      1069      4127      4249      4236
 -1      2179    8    0    1
 -2      1075      1074      1105      4119      4250      4251
 -1      2180    8    0    1
 -2      1076      1075      1112      4122      4252      4253
 -1      2181    8    0    1
 -2      1077      1076      1104      4125      4254      4255
 -1      2182    8    0    1
 -2      1078      1077      1091      4128      4256      4248
 -1      2183    8    0    1
 -2      1053      1051      1059      4043      4224      4257
 -1      2184    8    0    1
 -2      1081      1080      1099      4137      4258      4259
 -1      2185    8    0    1
 -2      1082      1081      1093      4140      4260      4261
 -1      2186    8    0    1
 -2      1059      1099      1080      4223      4258      4220
 -1      2187    8    0    1
 -2      1083      1082      1101      4143      4262      4263
 -1      2188    8    0    1
 -2      1084      1083      1092      4146      4264      4265
 -1      2189    8    0    1
 -2      1085      1084      1089      4149      4266      4267
 -1      2190    8    0    1
 -2      1086      1085      1094      4152      4268      4269
 -1      2191    8    0    1
 -2      1087      1086      1095      4155      4270      4271
 -1      2192    8    0    1
 -2      1088      1087      1096      4158      4272      4273
 -1      2193    8    0    1
 -2      1094      1095      1086      4176      4270      4269
 -1      2194    8    0    1
 -2      1004      1053      1059      4209      4257      4061
 -1      2195    8    0    1
 -2      1089      1094      1085      4173      4268      4267
 -1      2196    8    0    1
 -2      1096      1097      1088      4182      4274      4273
 -1      2197    8    0    1
 -2      1098      1090      1109      4185      4275      4276
 -1      2198    8    0    1
 -2      1096      1087      1095      4272      4271      4179
 -1      2199    8    0    1
 -2      1064      1079      1113      4229      4277      4278
 -1      2200    8    0    1
 -2      1109      1064      1113      4234      4278      4279
 -1      2201    8    0    1
 -2      1079      1107      1113      4218      4280      4277
 -1      2202    8    0    1
 -2      1099      1093      1081      4188      4260      4259
 -1      2203    8    0    1
 -2      1112      1104      1076      4247      4254      4253
 -1      2204    8    0    1
 -2      1063      1100      1114      4192      4281      4282
 -1      2205    8    0    1
 -2      1063      1114      1102      4282      4283      4201
 -1      2206    8    0    1
 -2      1092      1089      1084      4168      4266      4265
 -1      2207    8    0    1
 -2      1062      1088      1097      4222      4274      4246
 -1      2208    8    0    1
 -2      1073      1098      1113      4231      4284      4285
 -1      2209    8    0    1
 -2      1075      1105      1112      4251      4245      4252
 -1      2210    8    0    1
 -2      1104      1091      1077      4208      4256      4255
 -1      2211    8    0    1
 -2      1065      1068      1115      4232      4286      4287
 -1      2212    8    0    1
 -2      1106      1065      1115      4214      4287      4288
 -1      2213    8    0    1
 -2      1068      1110      1115      4239      4289      4286
 -1      2214    8    0    1
 -2      1074      1073      1107      4116      4290      4291
 -1      2215    8    0    1
 -2      1105      1074      1107      4250      4291      4219
 -1      2216    8    0    1
 -2      1082      1093      1101      4261      4195      4262
 -1      2217    8    0    1
 -2      1092      1083      1101      4264      4263      4196
 -1      2218    8    0    1
 -2      1098      1109      1113      4276      4279      4284
 -1      2219    8    0    1
 -2      1109      1090      1111      4275      4292      4242
 -1      2220    8    0    1
 -2      1090      1106      1111      4216      4293      4292
 -1      2221    8    0    1
 -2      1002      1069      1078      4100      4249      4212
 -1      2222    8    0    1
 -2      1115      1110      1116      4289      4294      4295
 -1      2223    8    0    1
 -2      1100      1108      1117      4227      4296      4297
 -1      2224    8    0    1
 -2      1100      1117      1114      4297      4298      4281
 -1      2225    8    0    1
 -2      1107      1073      1113      4290      4285      4280
 -1      2226    8    0    1
 -2      1110      1072      1114      4237      4299      4300
 -1      2227    8    0    1
 -2      1108      1103      1118      4228      4301      4302
 -1      2228    8    0    1
 -2      1117      1108      1118      4296      4302      4303
 -1      2229    8    0    1
 -2      1103      1111      1118      4241      4304      4301
 -1      2230    8    0    1
 -2      1110      1114      1116      4300      4305      4294
 -1      2231    8    0    1
 -2      1072      1102      1114      4200      4283      4299
 -1      2232    8    0    1
 -2      1116      1114      1117      4305      4298      4306
 -1      2233    8    0    1
 -2      1106      1115      1119      4288      4307      4308
 -1      2234    8    0    1
 -2      1118      1111      1119      4304      4309      4310
 -1      2235    8    0    1
 -2      1115      1116      1119      4295      4311      4307
 -1      2236    8    0    1
 -2      1116      1117      1119      4306      4312      4311
 -1      2237    8    0    1
 -2      1118      1119      1117      4310      4312      4303
 -1      2238    8    0    1
 -2      1111      1106      1119      4293      4308      4309
 -3
    1PSTEP                         1           1           1          
  100CL  101 1.000000000        4312                     0    1           1
 -4  DISP        4    1
 -5  D1          1    2    1    0
 -5  D2          1    2    2    0
 -5  D3          1    2    3    0
 -5  ALL         1    2    0    0    1ALL
 -1         1 5.85275E-03-5.03558E-04-3.69619E-14
 -1         2 9.95572E-03-1.56896E-04-5.14548E-14
 -1         3 1.49965E-02 1.34788E-04-1.46671E-13
 -1         4 1.53927E-02-1.28590E-03-1.52886E-13
 -1         5 0.00000E+00 0.00000E+00 0.00000E+00
 -1         6 0.00000E+00 0.00000E+00 0.00000E+00
 -1         7 0.00000E+00 0.00000E+00 0.00000E+00
 -1         8 0.00000E+00 0.00000E+00 0.00000E+00
 -1         9 0.00000E+00 0.00000E+00 0.00000E+00
 -1        10 0.00000E+00 0.00000E+00 0.00000E+00
 -1        11 0.00000E+00 0.00000E+00 0.00000E+00
 -1        12 0.00000E+00 0.00000E+00 0.00000E+00
 -1        13 0.00000E+00 0.00000E+00 0.00000E+00
 -1        14 0.00000E+00 0.00000E+00 0.00000E+00
 -1        15 0.00000E+00 0.00000E+00 0.00000E+00
 -1        16 0.00000E+00 0.00000E+00 0.00000E+00
 -1        17 0.00000E+00 0.00000E+00 0.00000E+00
 -1        18 0.00000E+00 0.00000E+00 0.00000E+00
 -1        19 0.00000E+00 0.00000E+00 0.00000E+00
 -1        20 0.00000E+00 0.00000E+00 0.00000E+00
 -1        21 0.00000E+00 0.00000E+00 0.00000E+00
 -1        22 0.00000E+00 0.00000E+00 0.00000E+00
 -1        23 4.09907E-04-2.59492E-04 3.78963E-17
 -1        24 7.00946E-04-3.98296E-04-8.90028E-17
 -1        25 9.70333E-04-4.93834E-04-3.76665E-16
 -1        26 1.23440E-03-5.60282E-04-8.21761E-16
 -1        27 1.49783E-03-6.06702E-04-1.42145E-15
 -1        28 1.76286E-03-6.38391E-04-2.17298E-15
 -1        29 2.03067E-03-6.58975E-04-3.07366E-15
 -1        30 2.30194E-03-6.71090E-04-4.12028E-15
 -1        31 2.57713E-03-6.76743E-04-5.31080E-15
 -1        32 2.85668E-03-6.77535E-04-6.64471E-15
 -1        33 3.14109E-03-6.74821E-04-8.11565E-15
 -1        34 3.43104E-03-6.69873E-04-9.71420E-15
 -1        35 3.72738E-03-6.64037E-04-1.14454E-14
 -1        36 4.03126E-03-6.58913E-04-1.33050E-14
 -1        37 4.34400E-03-6.56566E-04-1.52873E-14
 -1        38 4.66704E-03-6.59751E-04-1.73929E-14
 -1        39 5.00166E-03-6.72122E-04-1.96167E-14
 -1        40 5.34841E-03-6.98313E-04-2.19588E-14
 -1        41 5.70637E-03-7.43682E-04-2.44241E-14
 -1        42 6.07196E-03-8.13347E-04-2.70104E-14
 -1        43 6.43789E-03-9.10057E-04-2.97171E-14
 -1        44 6.79309E-03-1.03077E-03-3.25457E-14
 -1        45 7.12507E-03-1.16297E-03-3.55134E-14
 -1        46 7.42544E-03-1.28362E-03-3.86205E-14
 -1        47 7.69646E-03-1.36464E-03-4.18568E-14
 -1        48 7.95351E-03-1.38478E-03-4.52343E-14
 -1        49 8.21902E-03-1.34122E-03-4.87409E-14
 -1        50 8.51113E-03-1.25129E-03-5.23855E-14
 -1        51 8.83558E-03-1.14263E-03-5.61590E-14
 -1        52 9.18618E-03-1.04037E-03-6.00461E-14
 -1        53 9.55088E-03-9.59835E-04-6.40303E-14
 -1        54 9.91797E-03-9.06202E-04-6.81094E-14
 -1        55 1.02792E-02-8.77859E-04-7.22704E-14
 -1        56 1.06302E-02-8.70067E-04-7.64994E-14
 -1        57 1.09696E-02-8.77452E-04-8.08114E-14
 -1        58 1.12977E-02-8.95241E-04-8.51976E-14
 -1        59 1.16161E-02-9.19673E-04-8.96521E-14
 -1        60 1.19262E-02-9.47998E-04-9.41787E-14
 -1        61 1.22297E-02-9.78309E-04-9.87582E-14
 -1        62 1.25281E-02-1.00935E-03-1.03412E-13
 -1        63 1.28226E-02-1.04032E-03-1.08147E-13
 -1        64 1.31141E-02-1.07076E-03-1.12948E-13
 -1        65 1.34035E-02-1.10044E-03-1.17809E-13
 -1        66 1.36914E-02-1.12925E-03-1.22731E-13
 -1        67 1.39782E-02-1.15719E-03-1.27701E-13
 -1        68 1.42644E-02-1.18431E-03-1.32700E-13
 -1        69 1.45501E-02-1.21071E-03-1.37742E-13
 -1        70 1.48357E-02-1.23651E-03-1.42836E-13
 -1        71 1.51213E-02-1.26190E-03-1.47983E-13
 -1        72 4.12347E-04 2.60190E-04 7.61076E-17
 -1        73 7.00792E-04 4.00992E-04 1.38405E-17
 -1        74 9.70910E-04 4.95611E-04-1.84501E-16
 -1        75 1.23529E-03 5.62023E-04-5.22765E-16
 -1        76 1.49888E-03 6.08534E-04-1.00319E-15
 -1        77 1.76402E-03 6.40385E-04-1.62558E-15
 -1        78 2.03190E-03 6.61196E-04-2.38826E-15
 -1        79 2.30322E-03 6.73621E-04-3.29172E-15
 -1        80 2.57842E-03 6.79696E-04-4.33794E-15
 -1        81 2.85790E-03 6.81061E-04-5.52444E-15
 -1        82 3.14208E-03 6.79127E-04-6.84513E-15
 -1        83 3.43149E-03 6.75220E-04-8.29587E-15
 -1        84 3.72676E-03 6.70732E-04-9.87363E-15
 -1        85 4.02865E-03 6.67260E-04-1.15785E-14
 -1        86 4.33793E-03 6.66748E-04-1.34161E-14
 -1        87 4.65522E-03 6.71601E-04-1.53872E-14
 -1        88 4.98070E-03 6.84705E-04-1.74896E-14
 -1        89 5.31370E-03 7.09280E-04-1.97171E-14
 -1        90 5.65215E-03 7.48411E-04-2.20706E-14
 -1        91 5.99204E-03 8.04086E-04-2.45495E-14
 -1        92 6.32731E-03 8.75703E-04-2.71549E-14
 -1        93 6.65051E-03 9.58287E-04-2.98889E-14
 -1        94 6.95480E-03 1.04128E-03-3.27609E-14
 -1        95 7.23704E-03 1.10931E-03-3.57670E-14
 -1        96 7.50058E-03 1.14599E-03-3.89038E-14
 -1        97 7.75560E-03 1.13988E-03-4.21681E-14
 -1        98 8.01570E-03 1.08949E-03-4.55598E-14
 -1        99 8.29244E-03 1.00400E-03-4.90650E-14
 -1       100 8.59114E-03 8.99083E-04-5.26947E-14
 -1       101 8.91018E-03 7.90846E-04-5.64425E-14
 -1       102 9.24341E-03 6.91285E-04-6.02886E-14
 -1       103 9.58331E-03 6.06779E-04-6.42328E-14
 -1       104 9.92341E-03 5.38922E-04-6.82559E-14
 -1       105 1.02593E-02 4.86263E-04-7.23484E-14
 -1       106 1.05884E-02 4.45945E-04-7.65284E-14
 -1       107 1.09101E-02 4.14812E-04-8.07973E-14
 -1       108 1.12245E-02 3.90011E-04-8.51420E-14
 -1       109 1.15323E-02 3.69226E-04-8.95594E-14
 -1       110 1.18345E-02 3.50717E-04-9.40524E-14
 -1       111 1.21323E-02 3.33246E-04-9.86265E-14
 -1       112 1.24264E-02 3.15984E-04-1.03287E-13
 -1       113 1.27178E-02 2.98413E-04-1.07989E-13
 -1       114 1.30072E-02 2.80233E-04-1.12722E-13
 -1       115 1.32951E-02 2.61303E-04-1.17495E-13
 -1       116 1.35820E-02 2.41581E-04-1.22305E-13
 -1       117 1.38682E-02 2.21093E-04-1.27149E-13
 -1       118 1.41539E-02 1.99911E-04-1.32045E-13
 -1       119 1.44395E-02 1.78149E-04-1.36988E-13
 -1       120 1.47251E-02 1.55981E-04-1.41950E-13
 -1       121 1.50185E-02 5.04646E-05-1.47092E-13
 -1       122 1.50405E-02-3.39345E-05-1.47525E-13
 -1       123 1.50629E-02-1.18305E-04-1.47923E-13
 -1       124 1.50858E-02-2.02489E-04-1.48293E-13
 -1       125 1.51090E-02-2.86372E-04-1.48647E-13
 -1       126 1.51320E-02-3.68498E-04-1.49006E-13
 -1       127 1.51555E-02-4.51730E-04-1.49381E-13
 -1       128 1.51789E-02-5.34748E-04-1.49763E-13
 -1       129 1.52023E-02-6.17692E-04-1.50159E-13
 -1       130 1.52255E-02-7.00717E-04-1.50563E-13
 -1       131 1.52488E-02-7.83963E-04-1.50980E-13
 -1       132 1.52717E-02-8.66107E-04-1.51384E-13
 -1       133 1.52953E-02-9.50010E-04-1.51763E-13
 -1       134 1.53192E-02-1.03421E-03-1.52091E-13
 -1       135 1.53436E-02-1.11860E-03-1.52380E-13
 -1       136 1.53683E-02-1.20300E-03-1.52642E-13
 -1       137 9.89988E-03 1.14821E-05-5.11742E-14
 -1       138 9.74255E-03 1.82260E-04-5.05125E-14
 -1       139 9.50121E-03 3.35384E-04-4.95499E-14
 -1       140 9.19026E-03 4.66988E-04-4.83339E-14
 -1       141 8.78883E-03 5.81411E-04-4.67964E-14
 -1       142 8.34426E-03 6.59466E-04-4.51438E-14
 -1       143 7.88492E-03 6.97647E-04-4.34819E-14
 -1       144 7.41519E-03 6.95856E-04-4.18223E-14
 -1       145 6.96448E-03 6.54072E-04-4.02768E-14
 -1       146 6.55228E-03 5.75647E-04-3.89008E-14
 -1       147 6.20592E-03 4.70027E-04-3.77806E-14
 -1       148 5.92900E-03 3.42328E-04-3.69135E-14
 -1       149 5.71276E-03 1.82058E-04-3.62622E-14
 -1       150 5.59729E-03 1.08704E-05-3.59455E-14
 -1       151 5.58470E-03-1.62994E-04-3.59643E-14
 -1       152 5.67618E-03-3.42235E-04-3.63239E-14
 -1       153 6.10249E-03-6.48050E-04-3.78345E-14
 -1       154 6.42021E-03-7.74723E-04-3.89349E-14
 -1       155 6.82209E-03-8.84326E-04-4.03245E-14
 -1       156 7.24098E-03-9.54416E-04-4.17661E-14
 -1       157 7.71362E-03-9.90030E-04-4.34189E-14
 -1       158 8.14847E-03-9.83615E-04-4.49495E-14
 -1       159 8.58562E-03-9.38177E-04-4.65129E-14
 -1       160 8.99481E-03-8.54601E-04-4.80054E-14
 -1       161 9.33092E-03-7.47356E-04-4.92424E-14
 -1       162 9.59721E-03-6.21811E-04-5.02226E-14
 -1       163 9.80293E-03-4.73031E-04-5.09693E-14
 -1       164 9.92239E-03-3.15984E-04-5.13818E-14
 -1       165 2.40110E-04-1.24737E-04-3.28445E-17
 -1       166 2.25252E-04-9.38181E-05-5.42372E-17
 -1       167 2.19661E-04-7.19664E-05-6.55366E-17
 -1       168 2.16916E-04-5.43231E-05-7.11372E-17
 -1       169 2.15439E-04-3.92880E-05-7.34513E-17
 -1       170 2.14594E-04-2.54140E-05-7.42611E-17
 -1       171 2.14161E-04-1.23781E-05-7.40510E-17
 -1       172 2.14031E-04 2.72046E-07-7.32751E-17
 -1       173 2.14178E-04 1.29347E-05-7.15946E-17
 -1       174 2.14631E-04 2.60104E-05-6.89519E-17
 -1       175 2.15482E-04 3.97151E-05-6.50182E-17
 -1       176 2.17014E-04 5.51285E-05-5.86553E-17
 -1       177 2.19801E-04 7.29957E-05-4.86028E-17
 -1       178 2.25424E-04 9.52133E-05-3.25057E-17
 -1       179 2.39042E-04 1.26809E-04-6.20028E-18
 -1       180 2.97004E-04 1.84538E-04 2.25209E-17
 -1       181 4.67660E-04-2.61814E-04-8.84573E-17
 -1       182 7.65354E-04-3.78721E-04-3.25816E-16
 -1       183 1.04899E-03-4.59478E-04-7.12690E-16
 -1       184 1.32647E-03-5.15610E-04-1.24930E-15
 -1       185 1.60158E-03-5.54038E-04-1.93462E-15
 -1       186 1.87654E-03-5.79343E-04-2.76747E-15
 -1       187 2.15272E-03-5.94733E-04-3.74493E-15
 -1       188 2.43102E-03-6.02566E-04-4.86440E-15
 -1       189 2.71210E-03-6.04647E-04-6.12449E-15
 -1       190 2.99653E-03-6.02429E-04-7.52315E-15
 -1       191 3.28492E-03-5.97179E-04-9.05295E-15
 -1       192 3.57792E-03-5.90142E-04-1.07127E-14
 -1       193 3.87632E-03-5.82717E-04-1.25031E-14
 -1       194 4.18101E-03-5.76666E-04-1.44180E-14
 -1       195 4.49293E-03-5.74347E-04-1.64555E-14
 -1       196 4.81299E-03-5.78970E-04-1.86142E-14
 -1       197 5.14182E-03-5.94810E-04-2.08893E-14
 -1       198 5.47939E-03-6.27216E-04-2.32853E-14
 -1       199 5.82458E-03-6.82126E-04-2.58039E-14
 -1       200 6.17451E-03-7.64600E-04-2.84401E-14
 -1       201 6.52423E-03-8.75890E-04-3.11991E-14
 -1       202 6.86702E-03-1.00916E-03-3.40869E-14
 -1       203 7.19630E-03-1.14582E-03-3.71120E-14
 -1       204 7.50922E-03-1.25679E-03-4.02741E-14
 -1       205 7.80990E-03-1.31241E-03-4.35691E-14
 -1       206 8.10901E-03-1.29764E-03-4.70053E-14
 -1       207 8.41813E-03-1.22159E-03-5.05764E-14
 -1       208 8.74336E-03-1.11162E-03-5.42812E-14
 -1       209 9.08343E-03-9.98264E-04-5.81028E-14
 -1       210 9.43236E-03-9.03212E-04-6.20315E-14
 -1       211 9.78326E-03-8.36078E-04-6.60525E-14
 -1       212 1.01307E-02-7.97269E-04-7.01598E-14
 -1       213 1.04713E-02-7.82373E-04-7.43460E-14
 -1       214 1.08037E-02-7.85519E-04-7.86036E-14
 -1       215 1.11277E-02-8.01195E-04-8.29415E-14
 -1       216 1.14439E-02-8.24949E-04-8.73544E-14
 -1       217 1.17533E-02-8.53486E-04-9.18348E-14
 -1       218 1.20571E-02-8.84509E-04-9.63800E-14
 -1       219 1.23562E-02-9.16497E-04-1.00987E-13
 -1       220 1.26517E-02-9.48492E-04-1.05666E-13
 -1       221 1.29443E-02-9.79931E-04-1.10421E-13
 -1       222 1.32348E-02-1.01052E-03-1.15239E-13
 -1       223 1.35237E-02-1.04013E-03-1.20118E-13
 -1       224 1.38114E-02-1.06876E-03-1.25049E-13
 -1       225 1.40983E-02-1.09646E-03-1.30021E-13
 -1       226 1.43847E-02-1.12331E-03-1.35032E-13
 -1       227 1.46707E-02-1.14945E-03-1.40090E-13
 -1       228 1.49565E-02-1.17503E-03-1.45202E-13
 -1       229 6.03244E-04 3.28630E-04-6.41712E-17
 -1       230 8.91940E-04 4.28407E-04-2.79545E-16
 -1       231 1.17070E-03 4.97862E-04-6.29786E-16
 -1       232 1.44525E-03 5.46120E-04-1.11791E-15
 -1       233 1.71875E-03 5.78910E-04-1.74543E-15
 -1       234 1.99299E-03 6.00130E-04-2.51236E-15
 -1       235 2.26907E-03 6.12593E-04-3.41886E-15
 -1       236 2.54773E-03 6.18427E-04-4.46493E-15
 -1       237 2.82952E-03 6.19314E-04-5.64790E-15
 -1       238 3.11494E-03 6.16672E-04-6.96488E-15
 -1       239 3.40451E-03 6.11815E-04-8.41242E-15
 -1       240 3.69878E-03 6.06100E-04-9.98844E-15
 -1       241 3.99833E-03 6.01087E-04-1.16916E-14
 -1       242 4.30374E-03 5.98691E-04-1.35239E-14
 -1       243 4.61544E-03 6.01314E-04-1.54864E-14
 -1       244 4.93357E-03 6.11910E-04-1.75799E-14
 -1       245 5.25766E-03 6.33876E-04-1.98014E-14
 -1       246 5.58639E-03 6.70641E-04-2.21473E-14
 -1       247 5.91723E-03 7.24740E-04-2.46176E-14
 -1       248 6.24638E-03 7.96273E-04-2.72149E-14
 -1       249 6.56915E-03 8.80931E-04-2.99397E-14
 -1       250 6.88111E-03 9.68390E-04-3.27997E-14
 -1       251 7.17986E-03 1.04266E-03-3.57885E-14
 -1       252 7.46693E-03 1.08576E-03-3.89106E-14
 -1       253 7.74813E-03 1.08433E-03-4.21671E-14
 -1       254 8.03171E-03 1.03563E-03-4.55500E-14
 -1       255 8.32492E-03 9.48882E-04-4.90513E-14
 -1       256 8.63127E-03 8.40877E-04-5.26723E-14
 -1       257 8.94996E-03 7.29093E-04-5.64091E-14
 -1       258 9.27724E-03 6.26542E-04-6.02470E-14
 -1       259 9.60838E-03 5.40059E-04-6.41822E-14
 -1       260 9.93918E-03 4.71261E-04-6.82031E-14
 -1       261 1.02666E-02 4.18494E-04-7.22998E-14
 -1       262 1.05889E-02 3.78632E-04-7.64795E-14
 -1       263 1.09055E-02 3.48276E-04-8.07385E-14
 -1       264 1.12162E-02 3.24388E-04-8.50767E-14
 -1       265 1.15217E-02 3.04530E-04-8.94881E-14
 -1       266 1.18226E-02 2.86885E-04-9.39763E-14
 -1       267 1.21197E-02 2.70177E-04-9.85426E-14
 -1       268 1.24137E-02 2.53564E-04-1.03187E-13
 -1       269 1.27053E-02 2.36527E-04-1.07885E-13
 -1       270 1.29950E-02 2.18777E-04-1.12616E-13
 -1       271 1.32833E-02 2.00182E-04-1.17385E-13
 -1       272 1.35707E-02 1.80717E-04-1.22189E-13
 -1       273 1.38573E-02 1.60418E-04-1.27029E-13
 -1       274 1.41434E-02 1.39367E-04-1.31916E-13
 -1       275 1.44293E-02 1.17683E-04-1.36848E-13
 -1       276 1.47151E-02 9.55391E-05-1.41807E-13
 -1       277 1.47820E-02 2.76957E-05-1.43001E-13
 -1       278 1.48043E-02-5.65018E-05-1.43414E-13
 -1       279 1.48269E-02-1.40533E-04-1.43810E-13
 -1       280 1.48500E-02-2.24324E-04-1.44192E-13
 -1       281 1.48730E-02-3.06425E-04-1.44558E-13
 -1       282 1.48966E-02-3.89676E-04-1.44929E-13
 -1       283 1.49201E-02-4.72718E-04-1.45307E-13
 -1       284 1.49436E-02-5.55647E-04-1.45686E-13
 -1       285 1.49668E-02-6.38577E-04-1.46067E-13
 -1       286 1.49900E-02-7.21624E-04-1.46446E-13
 -1       287 1.50128E-02-8.03470E-04-1.46810E-13
 -1       288 1.50362E-02-8.86993E-04-1.47162E-13
 -1       289 1.50598E-02-9.70795E-04-1.47487E-13
 -1       290 1.50839E-02-1.05483E-03-1.47783E-13
 -1       291 1.50201E-02-1.11493E-03-1.46502E-13
 -1       292 9.96038E-03-1.17533E-04-5.28648E-14
 -1       293 9.81401E-03-1.69519E-05-5.23954E-14
 -1       294 9.54803E-03 1.16465E-04-5.13886E-14
 -1       295 9.21745E-03 2.83264E-04-4.99768E-14
 -1       296 8.81941E-03 4.56932E-04-4.84285E-14
 -1       297 8.42239E-03 6.30382E-04-4.64520E-14
 -1       298 8.03659E-03 7.44517E-04-4.44679E-14
 -1       299 7.66358E-03 7.81525E-04-4.24882E-14
 -1       300 7.28754E-03 7.25816E-04-4.06156E-14
 -1       301 6.90687E-03 6.02652E-04-3.89159E-14
 -1       302 6.52435E-03 4.45977E-04-3.75305E-14
 -1       303 6.17602E-03 2.86090E-04-3.63979E-14
 -1       304 5.86650E-03 1.38209E-04-3.55351E-14
 -1       305 5.64256E-03 7.27834E-06-3.48372E-14
 -1       306 5.55140E-03-8.54075E-05-3.47502E-14
 -1       307 5.60569E-03-1.76685E-04-3.48922E-14
 -1       308 5.79313E-03-2.99243E-04-3.56091E-14
 -1       309 6.06894E-03-4.39416E-04-3.64638E-14
 -1       310 6.40291E-03-6.03306E-04-3.75858E-14
 -1       311 6.79477E-03-7.77812E-04-3.89256E-14
 -1       312 7.16483E-03-9.39458E-04-4.06483E-14
 -1       313 7.54805E-03-1.04757E-03-4.24319E-14
 -1       314 7.90924E-03-1.06536E-03-4.43213E-14
 -1       315 8.26378E-03-1.01059E-03-4.61825E-14
 -1       316 8.63248E-03-8.82120E-04-4.80719E-14
 -1       317 9.01528E-03-7.23021E-04-4.96023E-14
 -1       318 9.35138E-03-5.64284E-04-5.09334E-14
 -1       319 9.64541E-03-4.20700E-04-5.19780E-14
 -1       320 9.86398E-03-3.01173E-04-5.26835E-14
 -1       321 9.97274E-03-2.06233E-04-5.29830E-14
 -1       322 4.55450E-04-1.62820E-04-2.22841E-16
 -1       323 4.74022E-04-2.11036E-04-1.88404E-16
 -1       324 4.40810E-04-9.23812E-05-2.52734E-16
 -1       325 4.37802E-04-6.36200E-05-2.57342E-16
 -1       326 4.36117E-04-3.70789E-05-2.58342E-16
 -1       327 4.35364E-04-1.17378E-05-2.56759E-16
 -1       328 4.35393E-04 1.32398E-05-2.53009E-16
 -1       329 4.36210E-04 3.86403E-05-2.46429E-16
 -1       330 4.37935E-04 6.48427E-05-2.36522E-16
 -1       331 4.41031E-04 9.37768E-05-2.22319E-16
 -1       332 4.46384E-04 1.26484E-04-2.01323E-16
 -1       333 4.56044E-04 1.65376E-04-1.70240E-16
 -1       334 4.75639E-04 2.15090E-04-1.23945E-16
 -1       335 5.31337E-04 2.67812E-04-1.01857E-16
 -1       336 8.23612E-04 3.69535E-04-3.26606E-16
 -1       337 8.62801E-04-3.53031E-04-5.88691E-16
 -1       338 1.14930E-03-4.19379E-04-1.06768E-15
 -1       339 1.43251E-03-4.65550E-04-1.69159E-15
 -1       340 1.71405E-03-4.96585E-04-2.45917E-15
 -1       341 1.99520E-03-5.16164E-04-3.37023E-15
 -1       342 2.27690E-03-5.27012E-04-4.42127E-15
 -1       343 2.55988E-03-5.31184E-04-5.61111E-15
 -1       344 2.84470E-03-5.30285E-04-6.93833E-15
 -1       345 3.13187E-03-5.25637E-04-8.39880E-15
 -1       346 3.42188E-03-5.18445E-04-9.98952E-15
 -1       347 3.71529E-03-5.09961E-04-1.17096E-14
 -1       348 4.01267E-03-5.01677E-04-1.35572E-14
 -1       349 4.31471E-03-4.95538E-04-1.55279E-14
 -1       350 4.62217E-03-4.94194E-04-1.76218E-14
 -1       351 4.93591E-03-5.01257E-04-1.98310E-14
 -1       352 5.25681E-03-5.21482E-04-2.21577E-14
 -1       353 5.58570E-03-5.60705E-04-2.46074E-14
 -1       354 5.92302E-03-6.25192E-04-2.71759E-14
 -1       355 6.26810E-03-7.19827E-04-2.98634E-14
 -1       356 6.61805E-03-8.44492E-04-3.26759E-14
 -1       357 6.96694E-03-9.88631E-04-3.56191E-14
 -1       358 7.30736E-03-1.12680E-03-3.87012E-14
 -1       359 7.63582E-03-1.22254E-03-4.19192E-14
 -1       360 7.95738E-03-1.24459E-03-4.52766E-14
 -1       361 8.28324E-03-1.18891E-03-4.87775E-14
 -1       362 8.62070E-03-1.08112E-03-5.24137E-14
 -1       363 8.96824E-03-9.58576E-04-5.61758E-14
 -1       364 9.31882E-03-8.50344E-04-6.00450E-14
 -1       365 9.66587E-03-7.70550E-04-6.40089E-14
 -1       366 1.00058E-02-7.21454E-04-6.80627E-14
 -1       367 1.03375E-02-6.99035E-04-7.21991E-14
 -1       368 1.06612E-02-6.97164E-04-7.64126E-14
 -1       369 1.09778E-02-7.09840E-04-8.07006E-14
 -1       370 1.12883E-02-7.32088E-04-8.50635E-14
 -1       371 1.15935E-02-7.60152E-04-8.95002E-14
 -1       372 1.18944E-02-7.91366E-04-9.40081E-14
 -1       373 1.21918E-02-8.23932E-04-9.85736E-14
 -1       374 1.24862E-02-8.56700E-04-1.03206E-13
 -1       375 1.27784E-02-8.88980E-04-1.07912E-13
 -1       376 1.30688E-02-9.20395E-04-1.12686E-13
 -1       377 1.33578E-02-9.50777E-04-1.17522E-13
 -1       378 1.36457E-02-9.80091E-04-1.22415E-13
 -1       379 1.39329E-02-1.00838E-03-1.27354E-13
 -1       380 1.42196E-02-1.03573E-03-1.32332E-13
 -1       381 1.45058E-02-1.06227E-03-1.37353E-13
 -1       382 1.47630E-02-1.08881E-03-1.41906E-13
 -1       383 1.10911E-03 4.41584E-04-6.82119E-16
 -1       384 1.39018E-03 4.91832E-04-1.17261E-15
 -1       385 1.66922E-03 5.25985E-04-1.80043E-15
 -1       386 1.94792E-03 5.48074E-04-2.56578E-15
 -1       387 2.22742E-03 5.61034E-04-3.46911E-15
 -1       388 2.50851E-03 5.67072E-04-4.51037E-15
 -1       389 2.79182E-03 5.67920E-04-5.68747E-15
 -1       390 3.07784E-03 5.65014E-04-6.99812E-15
 -1       391 3.36705E-03 5.59658E-04-8.43866E-15
 -1       392 3.65996E-03 5.53180E-04-1.00073E-14
 -1       393 3.95706E-03 5.47087E-04-1.17034E-14
 -1       394 4.25888E-03 5.43230E-04-1.35275E-14
 -1       395 4.56586E-03 5.43948E-04-1.54801E-14
 -1       396 4.87832E-03 5.52155E-04-1.75633E-14
 -1       397 5.19626E-03 5.71291E-04-1.97736E-14
 -1       398 5.51917E-03 6.04986E-04-2.21081E-14
 -1       399 5.84574E-03 6.56243E-04-2.45685E-14
 -1       400 6.17364E-03 7.25982E-04-2.71547E-14
 -1       401 6.49943E-03 8.10960E-04-2.98669E-14
 -1       402 6.81911E-03 9.01746E-04-3.27095E-14
 -1       403 7.12955E-03 9.82277E-04-3.56810E-14
 -1       404 7.43055E-03 1.03300E-03-3.87867E-14
 -1       405 7.72602E-03 1.03800E-03-4.20288E-14
 -1       406 8.02269E-03 9.92558E-04-4.54005E-14
 -1       407 8.32667E-03 9.05678E-04-4.88951E-14
 -1       408 8.64051E-03 7.95398E-04-5.25047E-14
 -1       409 8.96285E-03 6.80731E-04-5.62320E-14
 -1       410 9.29009E-03 5.75690E-04-6.00617E-14
 -1       411 9.61833E-03 4.87480E-04-6.39882E-14
 -1       412 9.94454E-03 4.17706E-04-6.80021E-14
 -1       413 1.02668E-02 3.64559E-04-7.20967E-14
 -1       414 1.05842E-02 3.24739E-04-7.62716E-14
 -1       415 1.08964E-02 2.94693E-04-8.05241E-14
 -1       416 1.12037E-02 2.71266E-04-8.48560E-14
 -1       417 1.15067E-02 2.51936E-04-8.92601E-14
 -1       418 1.18057E-02 2.34825E-04-9.37374E-14
 -1       419 1.21016E-02 2.18623E-04-9.82967E-14
 -1       420 1.23949E-02 2.02466E-04-1.02932E-13
 -1       421 1.26861E-02 1.85824E-04-1.07622E-13
 -1       422 1.29756E-02 1.68408E-04-1.12350E-13
 -1       423 1.32640E-02 1.50090E-04-1.17112E-13
 -1       424 1.35514E-02 1.30847E-04-1.21911E-13
 -1       425 1.38382E-02 1.10724E-04-1.26745E-13
 -1       426 1.41245E-02 8.98069E-05-1.31627E-13
 -1       427 1.44105E-02 6.82151E-05-1.36551E-13
 -1       428 1.45963E-02 4.80356E-05-1.39772E-13
 -1       429 1.45911E-02-1.62890E-04-1.39724E-13
 -1       430 1.45681E-02-7.91381E-05-1.39324E-13
 -1       431 1.45820E-02-1.56170E-05-1.39551E-13
 -1       432 1.46141E-02-2.44928E-04-1.40102E-13
 -1       433 1.46377E-02-3.28085E-04-1.40475E-13
 -1       434 1.46614E-02-4.10991E-04-1.40844E-13
 -1       435 1.46849E-02-4.93731E-04-1.41212E-13
 -1       436 1.47083E-02-5.76412E-04-1.41579E-13
 -1       437 1.47314E-02-6.59151E-04-1.41936E-13
 -1       438 1.47541E-02-7.40650E-04-1.42279E-13
 -1       439 1.47773E-02-8.23803E-04-1.42610E-13
 -1       440 1.48006E-02-9.07256E-04-1.42921E-13
 -1       441 1.48244E-02-9.91012E-04-1.43217E-13
 -1       442 9.67495E-03-2.49943E-05-5.37263E-14
 -1       443 9.99932E-03-1.68663E-04-5.46983E-14
 -1       444 9.91675E-03-1.16738E-04-5.45684E-14
 -1       445 9.32677E-03 1.32813E-04-5.20210E-14
 -1       446 8.99122E-03 3.01155E-04-5.04257E-14
 -1       447 4.46012E-04-1.24650E-04-2.42478E-16
 -1       448 8.17467E-03 7.10505E-04-4.58205E-14
 -1       449 7.84081E-03 8.04734E-04-4.35539E-14
 -1       450 7.48795E-03 7.88142E-04-4.11877E-14
 -1       451 7.15145E-03 6.78957E-04-3.91317E-14
 -1       452 6.77195E-03 4.95675E-04-3.72356E-14
 -1       453 6.40689E-03 3.14964E-04-3.59540E-14
 -1       454 6.04734E-03 1.49036E-04-3.48852E-14
 -1       455 5.76257E-03 2.10581E-05-3.37697E-14
 -1       456 5.56002E-03-6.18900E-05-3.33533E-14
 -1       457 5.54010E-03-1.09886E-04-3.33848E-14
 -1       458 5.69783E-03-1.89391E-04-3.41424E-14
 -1       459 5.95055E-03-2.98134E-04-3.49767E-14
 -1       460 6.28883E-03-4.53058E-04-3.60320E-14
 -1       461 6.64350E-03-6.35674E-04-3.73402E-14
 -1       462 7.07884E-03-8.67575E-04-3.92722E-14
 -1       463 7.38149E-03-1.01044E-03-4.10140E-14
 -1       464 7.76025E-03-1.10195E-03-4.35132E-14
 -1       465 8.05227E-03-1.07764E-03-4.54750E-14
 -1       466 8.38464E-03-9.66458E-04-4.77335E-14
 -1       467 8.78360E-03-7.66457E-04-5.00625E-14
 -1       468 9.08661E-03-6.10694E-04-5.14081E-14
 -1       469 9.46612E-03-4.23053E-04-5.31131E-14
 -1       470 9.75501E-03-3.02672E-04-5.39810E-14
 -1       471 9.94167E-03-2.23405E-04-5.44797E-14
 -1       472 8.54095E-03 5.38372E-04-4.80620E-14
 -1       473 9.31207E-04 3.41051E-04-5.90226E-16
 -1       474 6.66043E-04-7.33686E-05-5.49829E-16
 -1       475 6.70156E-04-1.13430E-04-5.44425E-16
 -1       476 6.63194E-04 1.08786E-06-5.43734E-16
 -1       477 6.63960E-04 3.78194E-05-5.33370E-16
 -1       478 6.66220E-04 7.50420E-05-5.17910E-16
 -1       479 6.70459E-04 1.15261E-04-4.95348E-16
 -1       480 6.77555E-04 1.59382E-04-4.63852E-16
 -1       481 6.89392E-04 2.09447E-04-4.19491E-16
 -1       482 1.21734E-03 3.99004E-04-1.03963E-15
 -1       483 9.76556E-04-3.23233E-04-8.79949E-16
 -1       484 8.75292E-03 4.04367E-04-5.04558E-14
 -1       485 1.26274E-03-3.75445E-04-1.44461E-15
 -1       486 1.54825E-03-4.11895E-04-2.15081E-15
 -1       487 1.83314E-03-4.35880E-04-2.99725E-15
 -1       488 2.11781E-03-4.50194E-04-3.98203E-15
 -1       489 2.40270E-03-4.57039E-04-5.10419E-15
 -1       490 2.68821E-03-4.58144E-04-6.36160E-15
 -1       491 2.97467E-03-4.54901E-04-7.75258E-15
 -1       492 3.26240E-03-4.48506E-04-9.27520E-15
 -1       493 3.55171E-03-4.40105E-04-1.09265E-14
 -1       494 3.84293E-03-4.30954E-04-1.27053E-14
 -1       495 4.13649E-03-4.22601E-04-1.46092E-14
 -1       496 4.43297E-03-4.17096E-04-1.66355E-14
 -1       497 4.73322E-03-4.17219E-04-1.87816E-14
 -1       498 5.03852E-03-4.26725E-04-2.10434E-14
 -1       499 5.35082E-03-4.50548E-04-2.34239E-14
 -1       500 5.67278E-03-4.94837E-04-2.59233E-14
 -1       501 6.00738E-03-5.66516E-04-2.85421E-14
 -1       502 6.35653E-03-6.71616E-04-3.12809E-14
 -1       503 6.71817E-03-8.10715E-04-3.41459E-14
 -1       504 7.08336E-03-9.70053E-04-3.71431E-14
 -1       505 7.44002E-03-1.11180E-03-4.02808E-14
 -1       506 7.78422E-03-1.18552E-03-4.35582E-14
 -1       507 8.12644E-03-1.15980E-03-4.69854E-14
 -1       508 8.47943E-03-1.05354E-03-5.05552E-14
 -1       509 8.84375E-03-9.17399E-04-5.42549E-14
 -1       510 9.20749E-03-7.94041E-04-5.80698E-14
 -1       511 9.56050E-03-7.02777E-04-6.19796E-14
 -1       512 9.89903E-03-6.45808E-04-6.59807E-14
 -1       513 1.02243E-02-6.17906E-04-7.00650E-14
 -1       514 1.05392E-02-6.12124E-04-7.42309E-14
 -1       515 1.08467E-02-6.22064E-04-7.84712E-14
 -1       516 1.11488E-02-6.42536E-04-8.27858E-14
 -1       517 1.14471E-02-6.69601E-04-8.71763E-14
 -1       518 1.17425E-02-7.00414E-04-9.16401E-14
 -1       519 1.20357E-02-7.33006E-04-9.61658E-14
 -1       520 1.23271E-02-7.66082E-04-1.00757E-13
 -1       521 1.26172E-02-7.98831E-04-1.05414E-13
 -1       522 1.29062E-02-8.30792E-04-1.10145E-13
 -1       523 1.31943E-02-8.61737E-04-1.14939E-13
 -1       524 1.34817E-02-8.91591E-04-1.19792E-13
 -1       525 1.37687E-02-9.20378E-04-1.24699E-13
 -1       526 1.40552E-02-9.48175E-04-1.29645E-13
 -1       527 1.43414E-02-9.75090E-04-1.34630E-13
 -1       528 1.78553E-03 4.66561E-04-2.34051E-15
 -1       529 2.06883E-03 4.83246E-04-3.19422E-15
 -1       530 2.35250E-03 4.92019E-04-4.18306E-15
 -1       531 2.63708E-03 4.94782E-04-5.30602E-15
 -1       532 2.92301E-03 4.93064E-04-6.56370E-15
 -1       533 3.21071E-03 4.88181E-04-7.95182E-15
 -1       534 3.50055E-03 4.81380E-04-9.46748E-15
 -1       535 3.79297E-03 4.73995E-04-1.11101E-14
 -1       536 4.08842E-03 4.67600E-04-1.28801E-14
 -1       537 4.38747E-03 4.64173E-04-1.47774E-14
 -1       538 4.69075E-03 4.66226E-04-1.68031E-14
 -1       539 4.99899E-03 4.76885E-04-1.89563E-14
 -1       540 5.31295E-03 4.99814E-04-2.12332E-14
 -1       541 5.63318E-03 5.38834E-04-2.36361E-14
 -1       542 5.95960E-03 5.97001E-04-2.61629E-14
 -1       543 6.29078E-03 6.74854E-04-2.88148E-14
 -1       544 6.62327E-03 7.67785E-04-3.15903E-14
 -1       545 6.95193E-03 8.63218E-04-3.44951E-14
 -1       546 7.27228E-03 9.40238E-04-3.75313E-14
 -1       547 7.58425E-03 9.75252E-04-4.07054E-14
 -1       548 7.89356E-03 9.53477E-04-4.40173E-14
 -1       549 8.20797E-03 8.78093E-04-4.74575E-14
 -1       550 8.53144E-03 7.68134E-04-5.10165E-14
 -1       551 8.86209E-03 6.47323E-04-5.46920E-14
 -1       552 9.19486E-03 5.34073E-04-5.84781E-14
 -1       553 9.52501E-03 4.38080E-04-6.23603E-14
 -1       554 9.84985E-03 3.61915E-04-6.63354E-14
 -1       555 1.01685E-02 3.03951E-04-7.03981E-14
 -1       556 1.04812E-02 2.60758E-04-7.45393E-14
 -1       557 1.07886E-02 2.28554E-04-7.87587E-14
 -1       558 1.10917E-02 2.03930E-04-8.30549E-14
 -1       559 1.13910E-02 1.84117E-04-8.74249E-14
 -1       560 1.16873E-02 1.67026E-04-9.18671E-14
 -1       561 1.19811E-02 1.51167E-04-9.63896E-14
 -1       562 1.22730E-02 1.35540E-04-1.00987E-13
 -1       563 1.25633E-02 1.19516E-04-1.05654E-13
 -1       564 1.28523E-02 1.02735E-04-1.10359E-13
 -1       565 1.31404E-02 8.50271E-05-1.15101E-13
 -1       566 1.34278E-02 6.63450E-05-1.19882E-13
 -1       567 1.37146E-02 4.67197E-05-1.24695E-13
 -1       568 1.40010E-02 2.62280E-05-1.29552E-13
 -1       569 1.42871E-02 4.97724E-06-1.34457E-13
 -1       570 1.43789E-02-2.67053E-04-1.36027E-13
 -1       571 1.44027E-02-3.49753E-04-1.36398E-13
 -1       572 1.43322E-02-1.01997E-04-1.35253E-13
 -1       573 1.43554E-02-1.84714E-04-1.35644E-13
 -1       574 1.44264E-02-4.32195E-04-1.36755E-13
 -1       575 1.44499E-02-5.14497E-04-1.37111E-13
 -1       576 1.44731E-02-5.96796E-04-1.37456E-13
 -1       577 1.44957E-02-6.77832E-04-1.37786E-13
 -1       578 1.45187E-02-7.60519E-04-1.38102E-13
 -1       579 1.45417E-02-8.43549E-04-1.38405E-13
 -1       580 1.45650E-02-9.26968E-04-1.38688E-13
 -1       581 1.00106E-02-1.60547E-04-5.67313E-14
 -1       582 9.49797E-03 2.79997E-05-5.45349E-14
 -1       583 1.50195E-03 4.39530E-04-1.62251E-15
 -1       584 1.00135E-02-1.93654E-04-5.65760E-14
 -1       585 9.14868E-03 1.91183E-04-5.25910E-14
 -1       586 7.12871E-04-2.48422E-04-4.96981E-16
 -1       587 9.89441E-03-2.41305E-04-5.63849E-14
 -1       588 8.57867E-03-8.80983E-04-5.00576E-14
 -1       589 6.86142E-03-7.34997E-04-3.74162E-14
 -1       590 6.63853E-04-3.56060E-05-5.49230E-16
 -1       591 7.63663E-03 8.28735E-04-4.19461E-14
 -1       592 7.92218E-03-1.11888E-03-4.47788E-14
 -1       593 8.00609E-03 7.78261E-04-4.49948E-14
 -1       594 7.33947E-03 7.61398E-04-3.97269E-14
 -1       595 6.97408E-03 5.98614E-04-3.73109E-14
 -1       596 6.55469E-03 3.77884E-04-3.50696E-14
 -1       597 6.21202E-03 2.01739E-04-3.41667E-14
 -1       598 5.91221E-03 7.25710E-05-3.30685E-14
 -1       599 5.60815E-03-3.49563E-05-3.20749E-14
 -1       600 5.50012E-03-8.25330E-05-3.19421E-14
 -1       601 5.57562E-03-1.28087E-04-3.19861E-14
 -1       602 5.80851E-03-2.10774E-04-3.33380E-14
 -1       603 6.10064E-03-3.30784E-04-3.41431E-14
 -1       604 6.46309E-03-5.10752E-04-3.55045E-14
 -1       605 7.24815E-03-9.55873E-04-3.94825E-14
 -1       606 9.65187E-03-3.30838E-04-5.53854E-14
 -1       607 7.59777E-03-1.09394E-03-4.21616E-14
 -1       608 8.20056E-03-1.05163E-03-4.70156E-14
 -1       609 8.96851E-03-6.63117E-04-5.24170E-14
 -1       610 9.30495E-03-4.86951E-04-5.41482E-14
 -1       611 8.34347E-03 6.31601E-04-4.76788E-14
 -1       612 7.03607E-04 2.87569E-04-3.12599E-16
 -1       613 9.84697E-03-1.03559E-04-5.62332E-14
 -1       614 6.77045E-04-1.57103E-04-5.31503E-16
 -1       615 6.92229E-04-1.99630E-04-5.20176E-16
 -1       616 5.70145E-03 1.11900E-05-3.13839E-14
 -1       617 1.45352E-02-9.94513E-04-1.38029E-13
 -1       618 8.99554E-04 7.20657E-05-9.07274E-16
 -1       619 8.97300E-04 2.44646E-05-9.28074E-16
 -1       620 9.12184E-04 1.74110E-04-8.36855E-16
 -1       621 9.24704E-04 2.32039E-04-7.81405E-16
 -1       622 1.04936E-03 3.07949E-04-8.90232E-16
 -1       623 6.22087E-03-4.04972E-04-3.33051E-14
 -1       624 9.00858E-03 2.82626E-04-5.30913E-14
 -1       625 1.38405E-03-3.27918E-04-1.84491E-15
 -1       626 1.67044E-03-3.55327E-04-2.62853E-15
 -1       627 1.95690E-03-3.72815E-04-3.54860E-15
 -1       628 2.24326E-03-3.82427E-04-4.60451E-15
 -1       629 2.52951E-03-3.85885E-04-5.79355E-15
 -1       630 2.81571E-03-3.84596E-04-7.11674E-15
 -1       631 3.10193E-03-3.79744E-04-8.57034E-15
 -1       632 3.38822E-03-3.72389E-04-1.01529E-14
 -1       633 3.67467E-03-3.63598E-04-1.18638E-14
 -1       634 3.96142E-03-3.54580E-04-1.37003E-14
 -1       635 4.24875E-03-3.46839E-04-1.56594E-14
 -1       636 4.53720E-03-3.42342E-04-1.77406E-14
 -1       637 4.82785E-03-3.43717E-04-1.99387E-14
 -1       638 5.12269E-03-3.54497E-04-2.22545E-14
 -1       639 5.42503E-03-3.79472E-04-2.46871E-14
 -1       640 5.73991E-03-4.25207E-04-2.72360E-14
 -1       641 6.07377E-03-5.00619E-04-2.99040E-14
 -1       642 6.43130E-03-6.15877E-04-3.26920E-14
 -1       643 6.81240E-03-7.76010E-04-3.56054E-14
 -1       644 7.95493E-03-1.14336E-03-4.52026E-14
 -1       645 8.72254E-03-8.79047E-04-5.23389E-14
 -1       646 9.10771E-03-7.31180E-04-5.60957E-14
 -1       647 9.47220E-03-6.27257E-04-5.99544E-14
 -1       648 9.81202E-03-5.65489E-04-6.39078E-14
 -1       649 1.01312E-02-5.35934E-04-6.79440E-14
 -1       650 1.04362E-02-5.29090E-04-7.20597E-14
 -1       651 1.07327E-02-5.37851E-04-7.62508E-14
 -1       652 1.10243E-02-5.57072E-04-8.05193E-14
 -1       653 1.13133E-02-5.83011E-04-8.48649E-14
 -1       654 1.16010E-02-6.12958E-04-8.92806E-14
 -1       655 1.18881E-02-6.44989E-04-9.37660E-14
 -1       656 1.21747E-02-6.77780E-04-9.83147E-14
 -1       657 1.24612E-02-7.10469E-04-1.02934E-13
 -1       658 1.27475E-02-7.42527E-04-1.07621E-13
 -1       659 1.30338E-02-7.73672E-04-1.12369E-13
 -1       660 1.33199E-02-8.03784E-04-1.17183E-13
 -1       661 1.36059E-02-8.32854E-04-1.22050E-13
 -1       662 1.38919E-02-8.60937E-04-1.26966E-13
 -1       663 1.41777E-02-8.88125E-04-1.31918E-13
 -1       664 2.19307E-03 4.16180E-04-3.84580E-15
 -1       665 1.43714E-02-9.07707E-04-1.35293E-13
 -1       666 1.90730E-03 4.04429E-04-2.90689E-15
 -1       667 2.76512E-03 4.21353E-04-6.12049E-15
 -1       668 3.05185E-03 4.17662E-04-7.45599E-15
 -1       669 3.33939E-03 4.11396E-04-8.91997E-15
 -1       670 3.62800E-03 4.03717E-04-1.05100E-14
 -1       671 3.91807E-03 3.95914E-04-1.22266E-14
 -1       672 4.21011E-03 3.89549E-04-1.40712E-14
 -1       673 4.50489E-03 3.86602E-04-1.60423E-14
 -1       674 4.80348E-03 3.89613E-04-1.81394E-14
 -1       675 5.10743E-03 4.01791E-04-2.03611E-14
 -1       676 5.41865E-03 4.27024E-04-2.27050E-14
 -1       677 5.73921E-03 4.69651E-04-2.51729E-14
 -1       678 6.07038E-03 5.33608E-04-2.77650E-14
 -1       679 6.41112E-03 6.20257E-04-3.04777E-14
 -1       680 6.75643E-03 7.24270E-04-3.33165E-14
 -1       681 7.09788E-03 8.28305E-04-3.62825E-14
 -1       682 7.42869E-03 9.01849E-04-3.93844E-14
 -1       683 7.75110E-03 9.14154E-04-4.26304E-14
 -1       684 8.07540E-03 8.54931E-04-4.60134E-14
 -1       685 8.41009E-03 7.43303E-04-4.95233E-14
 -1       686 8.75383E-03 6.12280E-04-5.31514E-14
 -1       687 9.09854E-03 4.88451E-04-5.68912E-14
 -1       688 9.43656E-03 3.84771E-04-6.07338E-14
 -1       689 9.76432E-03 3.03734E-04-6.46698E-14
 -1       690 1.00818E-02 2.42750E-04-6.86984E-14
 -1       691 1.03906E-02 1.97603E-04-7.28083E-14
 -1       692 1.06929E-02 1.64093E-04-7.69973E-14
 -1       693 1.09905E-02 1.38622E-04-8.12574E-14
 -1       694 1.12848E-02 1.18329E-04-8.55905E-14
 -1       695 1.15768E-02 1.01056E-04-8.99994E-14
 -1       696 1.18671E-02 8.52484E-05-9.44826E-14
 -1       697 1.21562E-02 6.98401E-05-9.90486E-14
 -1       698 1.24444E-02 5.41427E-05-1.03682E-13
 -1       699 1.27320E-02 3.77479E-05-1.08365E-13
 -1       700 1.30190E-02 2.04470E-05-1.13090E-13
 -1       701 1.33057E-02 2.16666E-06-1.17849E-13
 -1       702 1.35920E-02-1.70778E-05-1.22644E-13
 -1       703 1.38782E-02-3.72227E-05-1.27481E-13
 -1       704 1.41053E-02-6.93790E-05-1.31354E-13
 -1       705 9.34614E-03 1.08739E-04-5.50663E-14
 -1       706 1.41918E-02-4.53060E-04-1.32676E-13
 -1       707 8.85262E-03-7.77516E-04-5.29709E-14
 -1       708 1.41441E-02-2.89139E-04-1.31966E-13
 -1       709 1.42152E-02-5.34793E-04-1.33016E-13
 -1       710 1.41681E-02-3.71231E-04-1.32330E-13
 -1       711 1.42378E-02-6.15222E-04-1.33336E-13
 -1       712 1.42605E-02-6.97288E-04-1.33645E-13
 -1       713 1.42831E-02-7.79745E-04-1.33939E-13
 -1       714 9.58057E-03-3.93536E-04-5.71578E-14
 -1       715 1.00224E-02-1.48548E-04-5.91038E-14
 -1       716 9.50911E-04-2.64915E-04-9.15273E-16
 -1       717 7.78718E-03-1.14221E-03-4.36608E-14
 -1       718 6.27686E-03 2.60834E-04-3.31127E-14
 -1       719 1.00200E-02-2.15642E-04-5.84811E-14
 -1       720 1.62141E-03 3.84103E-04-2.10129E-15
 -1       721 2.47893E-03 4.21296E-04-4.91663E-15
 -1       722 1.16701E-03-3.00555E-04-1.33944E-15
 -1       723 5.86544E-03-2.43179E-04-3.19841E-14
 -1       724 1.00739E-02-1.84428E-04-5.86425E-14
 -1       725 1.33534E-03 3.52844E-04-1.42951E-15
 -1       726 9.04280E-04 1.21412E-04-8.77624E-16
 -1       727 9.03922E-04-1.19025E-04-9.42629E-16
 -1       728 9.82935E-03-2.83849E-04-5.78450E-14
 -1       729 7.15865E-03 7.13274E-04-3.79287E-14
 -1       730 6.74946E-03 5.15881E-04-3.51846E-14
 -1       731 6.00127E-03 1.34975E-04-3.20404E-14
 -1       732 5.43962E-03-9.24380E-05-3.01057E-14
 -1       733 5.60875E-03-1.55868E-04-3.06645E-14
 -1       734 8.58190E-03 5.29073E-04-5.02268E-14
 -1       735 8.35989E-03-1.01618E-03-4.88114E-14
 -1       736 5.45877E-03-6.03387E-05-3.02417E-14
 -1       737 6.63468E-03-6.27433E-04-3.52890E-14
 -1       738 8.16585E-03 7.33690E-04-4.66143E-14
 -1       739 9.13257E-03-6.16114E-04-5.47228E-14
 -1       740 7.43738E-03 8.13209E-04-4.00850E-14
 -1       741 9.73789E-03-5.26799E-05-5.74879E-14
 -1       742 7.81674E-03 8.39793E-04-4.34371E-14
 -1       743 9.11601E-04-1.71521E-04-9.29314E-16
 -1       744 8.97240E-04-2.24776E-05-9.40840E-16
 -1       745 1.41286E-02-1.52005E-04-1.31752E-13
 -1       746 6.47102E-03 4.00784E-04-3.32166E-14
 -1       747 5.48966E-03-2.76635E-05-2.95709E-14
 -1       748 8.99354E-04-6.98147E-05-9.45980E-16
 -1       749 1.41363E-02-2.20753E-04-1.31864E-13
 -1       750 1.42304E-02-8.33871E-04-1.32935E-13
 -1       751 8.89015E-03 4.00286E-04-5.32682E-14
 -1       752 1.16192E-03 2.37308E-04-1.25510E-15
 -1       753 9.29418E-04-2.16201E-04-9.27196E-16
 -1       754 9.85527E-03-3.34720E-04-6.03095E-14
 -1       755 1.79703E-03-2.96192E-04-3.12374E-15
 -1       756 2.08400E-03-3.07998E-04-4.11379E-15
 -1       757 2.37075E-03-3.13659E-04-5.23658E-15
 -1       758 2.65695E-03-3.14487E-04-6.49123E-15
 -1       759 2.94234E-03-3.11598E-04-7.87682E-15
 -1       760 3.22672E-03-3.05967E-04-9.39188E-15
 -1       761 3.50990E-03-2.98508E-04-1.10338E-14
 -1       762 3.79172E-03-2.90169E-04-1.28025E-14
 -1       763 4.07210E-03-2.82031E-04-1.46946E-14
 -1       764 4.35111E-03-2.75410E-04-1.67098E-14
 -1       765 4.62922E-03-2.71962E-04-1.88444E-14
 -1       766 4.90759E-03-2.73836E-04-2.10951E-14
 -1       767 5.18858E-03-2.83942E-04-2.34649E-14
 -1       768 5.47670E-03-3.06695E-04-2.59478E-14
 -1       769 5.77933E-03-3.48989E-04-2.85452E-14
 -1       770 6.10731E-03-4.24005E-04-3.12597E-14
 -1       771 9.41774E-03-5.41301E-04-5.79352E-14
 -1       772 9.75459E-03-4.77514E-04-6.18404E-14
 -1       773 1.00620E-02-4.51184E-04-6.58310E-14
 -1       774 1.03527E-02-4.47131E-04-6.98994E-14
 -1       775 1.06348E-02-4.57082E-04-7.40438E-14
 -1       776 1.09131E-02-4.76156E-04-7.82613E-14
 -1       777 1.11907E-02-5.01201E-04-8.25632E-14
 -1       778 1.14688E-02-5.29999E-04-8.69371E-14
 -1       779 1.17480E-02-5.60926E-04-9.13767E-14
 -1       780 1.20285E-02-5.92803E-04-9.58839E-14
 -1       781 1.23101E-02-6.24806E-04-1.00463E-13
 -1       782 1.25928E-02-6.56398E-04-1.05107E-13
 -1       783 1.28762E-02-6.87257E-04-1.09818E-13
 -1       784 1.31603E-02-7.17223E-04-1.14588E-13
 -1       785 1.34449E-02-7.46249E-04-1.19416E-13
 -1       786 1.37298E-02-7.74361E-04-1.24292E-13
 -1       787 1.39800E-02-8.04380E-04-1.28601E-13
 -1       788 2.03295E-03 3.40254E-04-3.49984E-15
 -1       789 3.17842E-03 3.42721E-04-8.36636E-15
 -1       790 2.89247E-03 3.47758E-04-6.95523E-15
 -1       791 3.74992E-03 3.27600E-04-1.15692E-14
 -1       792 4.03600E-03 3.19695E-04-1.33605E-14
 -1       793 4.32303E-03 3.13362E-04-1.52781E-14
 -1       794 4.61206E-03 3.10423E-04-1.73211E-14
 -1       795 4.90475E-03 3.13266E-04-1.94884E-14
 -1       796 5.20362E-03 3.25080E-04-2.17767E-14
 -1       797 5.51210E-03 3.50153E-04-2.41862E-14
 -1       798 5.83420E-03 3.94073E-04-2.67175E-14
 -1       799 6.17313E-03 4.63349E-04-2.93693E-14
 -1       800 6.52824E-03 5.62644E-04-3.21426E-14
 -1       801 6.89188E-03 6.85406E-04-3.50421E-14
 -1       802 7.59479E-03 8.73596E-04-4.12257E-14
 -1       803 7.93069E-03 8.48408E-04-4.45297E-14
 -1       804 8.27951E-03 7.34544E-04-4.80014E-14
 -1       805 8.63887E-03 5.87635E-04-5.15832E-14
 -1       806 8.99970E-03 4.47338E-04-5.52797E-14
 -1       807 9.34932E-03 3.33777E-04-5.90818E-14
 -1       808 9.68265E-03 2.48401E-04-6.29807E-14
 -1       809 1.00004E-02 1.86049E-04-6.69715E-14
 -1       810 1.03059E-02 1.40607E-04-7.10497E-14
 -1       811 1.06031E-02 1.06991E-04-7.52054E-14
 -1       812 1.08949E-02 8.13438E-05-7.94322E-14
 -1       813 1.11835E-02 6.08135E-05-8.37320E-14
 -1       814 1.14704E-02 4.33127E-05-8.81041E-14
 -1       815 1.17563E-02 2.73435E-05-9.25512E-14
 -1       816 1.20418E-02 1.18652E-05-9.70797E-14
 -1       817 1.23272E-02-3.81120E-06-1.01681E-13
 -1       818 1.26126E-02-2.01088E-05-1.06341E-13
 -1       819 1.28980E-02-3.72568E-05-1.11045E-13
 -1       820 1.31835E-02-5.53486E-05-1.15786E-13
 -1       821 1.34690E-02-7.43851E-05-1.20562E-13
 -1       822 1.37546E-02-9.43158E-05-1.25380E-13
 -1       823 1.39417E-02-1.22984E-04-1.28555E-13
 -1       824 1.39806E-02-5.53730E-04-1.28928E-13
 -1       825 6.93707E-03 6.57928E-04-3.57980E-14
 -1       826 1.39575E-02-4.72680E-04-1.28607E-13
 -1       827 5.33318E-03-6.54792E-05-2.82153E-14
 -1       828 1.13723E-03 5.70908E-05-1.40334E-15
 -1       829 9.99216E-03-1.06844E-04-6.09621E-14
 -1       830 1.74609E-03 3.25972E-04-2.61034E-15
 -1       831 5.73897E-03 7.12853E-05-3.00514E-14
 -1       832 1.40031E-02-6.34997E-04-1.29234E-13
 -1       833 1.40254E-02-7.16689E-04-1.29520E-13
 -1       834 3.46418E-03 3.35662E-04-9.90469E-15
 -1       835 1.24681E-03 2.93290E-04-1.34766E-15
 -1       836 5.93060E-03-3.17191E-04-3.08862E-14
 -1       837 1.51039E-03-2.76701E-04-2.26730E-15
 -1       838 1.01290E-02-2.07458E-04-6.08022E-14
 -1       839 9.27720E-03 1.93461E-04-5.61266E-14
 -1       840 6.05725E-03 2.17845E-04-3.10033E-14
 -1       841 5.66732E-03-2.14932E-04-2.95996E-14
 -1       842 1.01434E-02-1.74580E-04-6.12739E-14
 -1       843 1.00417E-02-2.56303E-04-6.09706E-14
 -1       844 9.64159E-03 2.42600E-05-5.85778E-14
 -1       845 7.26839E-03 7.94521E-04-3.83557E-14
 -1       846 5.41393E-03-1.16198E-04-2.87416E-14
 -1       847 1.13572E-03 1.16421E-06-1.42777E-15
 -1       848 1.14970E-03 1.73897E-04-1.31959E-15
 -1       849 1.14397E-03-2.47225E-04-1.35433E-15
 -1       850 1.14914E-03-1.70934E-04-1.43276E-15
 -1       851 2.31972E-03 3.47691E-04-4.52147E-15
 -1       852 2.60624E-03 3.49775E-04-5.67286E-15
 -1       853 1.39099E-02-3.11003E-04-1.27926E-13
 -1       854 1.39339E-02-3.91961E-04-1.28275E-13
 -1       855 5.32047E-03-3.72710E-05-2.75683E-14
 -1       856 1.01601E-02-1.42949E-04-6.31607E-14
 -1       857 1.14139E-03-1.11529E-04-1.44301E-15
 -1       858 1.39018E-02-2.43238E-04-1.27828E-13
 -1       859 1.14174E-03 1.14203E-04-1.36773E-15
 -1       860 1.49615E-03 3.14020E-04-1.92607E-15
 -1       861 1.40027E-02-7.60469E-04-1.29064E-13
 -1       862 5.42794E-03-1.61190E-04-2.77132E-14
 -1       863 5.75119E-03 1.53896E-04-2.86536E-14
 -1       864 1.39216E-02-1.83334E-04-1.28196E-13
 -1       865 6.20593E-03 3.55925E-04-3.07680E-14
 -1       866 2.21371E-03-2.41942E-04-4.69224E-15
 -1       867 2.49994E-03-2.44578E-04-5.87926E-15
 -1       868 2.78502E-03-2.43668E-04-7.19659E-15
 -1       869 3.06846E-03-2.40066E-04-8.64335E-15
 -1       870 3.34980E-03-2.34550E-04-1.02177E-14
 -1       871 3.62862E-03-2.27869E-04-1.19178E-14
 -1       872 3.90449E-03-2.20812E-04-1.37430E-14
 -1       873 4.17704E-03-2.14252E-04-1.56916E-14
 -1       874 4.44601E-03-2.09190E-04-1.77612E-14
 -1       875 4.71145E-03-2.06784E-04-1.99479E-14
 -1       876 4.97401E-03-2.08423E-04-2.22524E-14
 -1       877 5.23569E-03-2.16143E-04-2.46727E-14
 -1       878 1.37464E-02-5.72498E-04-1.24855E-13
 -1       879 1.00240E-02-3.64675E-04-6.37247E-14
 -1       880 1.02903E-02-3.67237E-04-6.77497E-14
 -1       881 1.05517E-02-3.80536E-04-7.18473E-14
 -1       882 1.08130E-02-4.00503E-04-7.60181E-14
 -1       883 1.10767E-02-4.24893E-04-8.02721E-14
 -1       884 1.13436E-02-4.52299E-04-8.46032E-14
 -1       885 1.16138E-02-4.81610E-04-8.90002E-14
 -1       886 1.18871E-02-5.11938E-04-9.34633E-14
 -1       887 1.21630E-02-5.42596E-04-9.79993E-14
 -1       888 1.24412E-02-5.73092E-04-1.02607E-13
 -1       889 1.27213E-02-6.03101E-04-1.07279E-13
 -1       890 1.30028E-02-6.32433E-04-1.12007E-13
 -1       891 1.32854E-02-6.61005E-04-1.16799E-13
 -1       892 1.35690E-02-6.88802E-04-1.21637E-13
 -1       893 1.02265E-02-2.39458E-04-6.38148E-14
 -1       894 4.14767E-03 2.45942E-04-1.45106E-14
 -1       895 3.86711E-03 2.53806E-04-1.26466E-14
 -1       896 4.70938E-03 2.35583E-04-1.86152E-14
 -1       897 4.99393E-03 2.36613E-04-2.08491E-14
 -1       898 5.28507E-03 2.45521E-04-2.32024E-14
 -1       899 5.58802E-03 2.67335E-04-2.56748E-14
 -1       900 9.62602E-03 1.77361E-04-6.13166E-14
 -1       901 9.94148E-03 1.17205E-04-6.52724E-14
 -1       902 1.02408E-02 7.50031E-05-6.93165E-14
 -1       903 1.05299E-02 4.39300E-05-7.34372E-14
 -1       904 1.08134E-02 1.97894E-05-7.76316E-14
 -1       905 1.10942E-02-9.01726E-08-8.18990E-14
 -1       906 1.13741E-02-1.74992E-05-8.62390E-14
 -1       907 1.16541E-02-3.36764E-05-9.06524E-14
 -1       908 1.19347E-02-4.94817E-05-9.51423E-14
 -1       909 1.22161E-02-6.54949E-05-9.97085E-14
 -1       910 1.24983E-02-8.20832E-05-1.04341E-13
 -1       911 1.27813E-02-9.94533E-05-1.09026E-13
 -1       912 1.30650E-02-1.17695E-04-1.13749E-13
 -1       913 1.33492E-02-1.36822E-04-1.18512E-13
 -1       914 1.36338E-02-1.56774E-04-1.23310E-13
 -1       915 1.37683E-02-6.53193E-04-1.25135E-13
 -1       916 3.01924E-03 2.74858E-04-7.80875E-15
 -1       917 9.95363E-03-3.45047E-05-6.26681E-14
 -1       918 5.59693E-03-2.43027E-04-2.81373E-14
 -1       919 1.28757E-03-2.01930E-04-1.74416E-15
 -1       920 1.37238E-02-4.92218E-04-1.24557E-13
 -1       921 1.02796E-02-2.01860E-04-6.43094E-14
 -1       922 1.13707E-03-5.46108E-05-1.44063E-15
 -1       923 4.42801E-03 2.39376E-04-1.65006E-14
 -1       924 1.64038E-03-2.22044E-04-2.71064E-15
 -1       925 5.23364E-03-8.74534E-05-2.65973E-14
 -1       926 1.92692E-03-2.34792E-04-3.63588E-15
 -1       927 1.01084E-02-3.08901E-04-6.37268E-14
 -1       928 9.59069E-03 1.20240E-04-5.98935E-14
 -1       929 9.28674E-03 2.76400E-04-5.75714E-14
 -1       930 1.87448E-03 2.65408E-04-3.14815E-15
 -1       931 5.47957E-03 2.75348E-05-2.80214E-14
 -1       932 1.40104E-03 2.29165E-04-1.83997E-15
 -1       933 2.73423E-03 2.78245E-04-6.45006E-15
 -1       934 5.20039E-03-1.24804E-04-2.56124E-14
 -1       935 5.18082E-03-5.99360E-05-2.59797E-14
 -1       936 1.58780E-03 2.49783E-04-2.30787E-15
 -1       937 1.37856E-02-7.24723E-04-1.25337E-13
 -1       938 1.44777E-03 2.70753E-04-1.88666E-15
 -1       939 1.36764E-02-3.32252E-04-1.23908E-13
 -1       940 3.58568E-03 2.61842E-04-1.09071E-14
 -1       941 5.96951E-03 3.10579E-04-2.88474E-14
 -1       942 1.36680E-02-2.65306E-04-1.23822E-13
 -1       943 3.30308E-03 2.69129E-04-9.29492E-15
 -1       944 2.16150E-03 2.74545E-04-4.11913E-15
 -1       945 1.37005E-02-4.12406E-04-1.24242E-13
 -1       946 1.01504E-02-8.50506E-05-6.48942E-14
 -1       947 1.37870E-03 3.27317E-05-2.00422E-15
 -1       948 1.38231E-03 9.60755E-05-1.96471E-15
 -1       949 1.27790E-03-1.37617E-04-1.75933E-15
 -1       950 5.43805E-03 1.00836E-04-2.63173E-14
 -1       951 2.63088E-03-1.75791E-04-6.53050E-15
 -1       952 2.91413E-03-1.74113E-04-7.90821E-15
 -1       953 3.19487E-03-1.70730E-04-9.41452E-15
 -1       954 3.47244E-03-1.66229E-04-1.10468E-14
 -1       955 3.74618E-03-1.61189E-04-1.28036E-14
 -1       956 4.01538E-03-1.56218E-04-1.46848E-14
 -1       957 4.27927E-03-1.51950E-04-1.66898E-14
 -1       958 4.53704E-03-1.49031E-04-1.88124E-14
 -1       959 4.78780E-03-1.48083E-04-2.10526E-14
 -1       960 5.03088E-03-1.49854E-04-2.34089E-14
 -1       961 3.98070E-03 1.83033E-04-1.37405E-14
 -1       962 1.71935E-03 1.93097E-04-2.79421E-15
 -1       963 1.77335E-03-1.64050E-04-3.17199E-15
 -1       964 1.04801E-02-3.10817E-04-6.96572E-14
 -1       965 1.07201E-02-3.31481E-04-7.37849E-14
 -1       966 1.09678E-02-3.54880E-04-7.79871E-14
 -1       967 1.12223E-02-3.80427E-04-8.22743E-14
 -1       968 1.14829E-02-4.07545E-04-8.66322E-14
 -1       969 1.17485E-02-4.35683E-04-9.10547E-14
 -1       970 1.20184E-02-4.64339E-04-9.55442E-14
 -1       971 1.22919E-02-4.93104E-04-1.00109E-13
 -1       972 1.25682E-02-5.21672E-04-1.04746E-13
 -1       973 1.28468E-02-5.49842E-04-1.09440E-13
 -1       974 1.31273E-02-5.77500E-04-1.14192E-13
 -1       975 1.34091E-02-6.04598E-04-1.18993E-13
 -1       976 5.06943E-03 1.60127E-04-2.22192E-14
 -1       977 4.79697E-03 1.62592E-04-1.99193E-14
 -1       978 1.38961E-03 1.61191E-04-1.91081E-15
 -1       979 9.90059E-03 6.29826E-05-6.38200E-14
 -1       980 1.07414E-02-3.95070E-05-7.58268E-14
 -1       981 1.10122E-02-5.79185E-05-8.00595E-14
 -1       982 1.12836E-02-7.49263E-05-8.43678E-14
 -1       983 1.15565E-02-9.13424E-05-8.87489E-14
 -1       984 1.18313E-02-1.07715E-04-9.32045E-14
 -1       985 1.21080E-02-1.24418E-04-9.77348E-14
 -1       986 1.23865E-02-1.41697E-04-1.02337E-13
 -1       987 1.26666E-02-1.59691E-04-1.06998E-13
 -1       988 1.29480E-02-1.78459E-04-1.11707E-13
 -1       989 1.32306E-02-1.97997E-04-1.16453E-13
 -1       990 1.03196E-02-2.83324E-04-6.65187E-14
 -1       991 1.03655E-02-1.77156E-04-6.66209E-14
 -1       992 1.37860E-03-3.00017E-05-2.02955E-15
 -1       993 1.34905E-02-5.10759E-04-1.20513E-13
 -1       994 1.04694E-02-1.83950E-05-7.16647E-14
 -1       995 2.44822E-03 2.78457E-04-5.21999E-15
 -1       996 1.01930E-02 7.74364E-06-6.75777E-14
 -1       997 2.05965E-03-1.71479E-04-4.16217E-15
 -1       998 1.03980E-02-2.37368E-04-6.70333E-14
 -1       999 2.34580E-03-1.75141E-04-5.28178E-15
 -1      1000 5.24398E-03 1.10889E-05-2.57876E-14
 -1      1001 1.38197E-03-9.31328E-05-2.04056E-15
 -1      1002 5.06434E-03-1.94811E-05-2.42614E-14
 -1      1003 3.14581E-03 2.03407E-04-8.68279E-15
 -1      1004 1.03994E-02-1.30784E-04-6.83947E-14
 -1      1005 4.25424E-03 1.75287E-04-1.56768E-14
 -1      1006 2.86299E-03 2.07408E-04-7.24902E-15
 -1      1007 3.70483E-03 1.90686E-04-1.19293E-14
 -1      1008 2.00587E-03 2.02744E-04-3.71411E-15
 -1      1009 5.11788E-03-9.25781E-05-2.50193E-14
 -1      1010 1.34262E-02-2.76547E-04-1.19692E-13
 -1      1011 1.62337E-03 1.45406E-06-2.70762E-15
 -1      1012 1.34678E-02-4.31975E-04-1.20221E-13
 -1      1013 1.01709E-02-4.99895E-05-6.61087E-14
 -1      1014 4.52596E-03 1.68156E-04-1.77377E-14
 -1      1015 1.34475E-02-3.54471E-04-1.19966E-13
 -1      1016 1.05217E-02-2.13391E-04-6.93878E-14
 -1      1017 1.62548E-03 6.97380E-05-2.66645E-15
 -1      1018 5.34763E-03 1.63538E-04-2.46354E-14
 -1      1019 3.42650E-03 1.97655E-04-1.02430E-14
 -1      1020 3.04507E-03-1.06329E-04-8.62604E-15
 -1      1021 3.32281E-03-1.04065E-04-1.01900E-14
 -1      1022 3.59644E-03-1.01414E-04-1.18782E-14
 -1      1023 3.86507E-03-9.88002E-05-1.36910E-14
 -1      1024 4.12771E-03-9.66661E-05-1.56284E-14
 -1      1025 4.38315E-03-9.54501E-05-1.76872E-14
 -1      1026 4.62977E-03-9.55379E-05-1.98639E-14
 -1      1027 4.86538E-03-9.72265E-05-2.21560E-14
 -1      1028 2.29249E-03 2.07789E-04-4.76353E-15
 -1      1029 1.08577E-02-2.91747E-04-7.57113E-14
 -1      1030 1.11002E-02-3.14589E-04-7.99503E-14
 -1      1031 1.13515E-02-3.38825E-04-8.42667E-14
 -1      1032 1.16099E-02-3.64143E-04-8.86487E-14
 -1      1033 1.18741E-02-3.90195E-04-9.30986E-14
 -1      1034 1.21430E-02-4.16645E-04-9.76197E-14
 -1      1035 1.24157E-02-4.43219E-04-1.02216E-13
 -1      1036 1.26915E-02-4.69714E-04-1.06877E-13
 -1      1037 1.29697E-02-4.96001E-04-1.11595E-13
 -1      1038 1.32296E-02-5.03804E-04-1.16035E-13
 -1      1039 4.61845E-03 1.00756E-04-1.89876E-14
 -1      1040 1.14621E-02-1.45179E-04-8.68375E-14
 -1      1041 5.14961E-03 7.38401E-05-2.39350E-14
 -1      1042 1.11972E-02-1.28393E-04-8.24891E-14
 -1      1043 1.09359E-02-1.11889E-04-7.82172E-14
 -1      1044 1.17304E-02-1.62400E-04-9.12600E-14
 -1      1045 1.20020E-02-1.80167E-04-9.57556E-14
 -1      1046 1.22765E-02-1.98553E-04-1.00328E-13
 -1      1047 1.25533E-02-2.17595E-04-1.04964E-13
 -1      1048 1.28323E-02-2.37297E-04-1.09652E-13
 -1      1049 1.31129E-02-2.57641E-04-1.14385E-13
 -1      1050 1.05534E-02-2.62751E-04-7.01838E-14
 -1      1051 1.06779E-02-9.54297E-05-7.40174E-14
 -1      1052 2.57839E-03 2.09088E-04-5.94231E-15
 -1      1053 1.04261E-02-7.42552E-05-7.00265E-14
 -1      1054 1.90929E-03-1.03191E-04-3.64916E-15
 -1      1055 1.67080E-03 1.30230E-04-2.73731E-15
 -1      1056 4.87565E-03 9.29504E-05-2.12357E-14
 -1      1057 2.76400E-03-1.07795E-04-7.18971E-15
 -1      1058 1.62526E-03-6.66795E-05-2.73140E-15
 -1      1059 1.05903E-02-1.73355E-04-7.12042E-14
 -1      1060 2.99296E-03 1.37873E-04-8.06876E-15
 -1      1061 3.82300E-03 1.22839E-04-1.29683E-14
 -1      1062 1.32074E-02-4.26321E-04-1.15759E-13
 -1      1063 1.95663E-03 1.37552E-04-3.65091E-15
 -1      1064 3.27292E-03 1.34040E-04-9.57691E-15
 -1      1065 2.48040E-03-1.08061E-04-5.88092E-15
 -1      1066 4.09232E-03 1.15964E-04-1.48498E-14
 -1      1067 4.94451E-03 3.35141E-05-2.24769E-14
 -1      1068 2.19518E-03-1.06673E-04-4.70066E-15
 -1      1069 4.96410E-03-5.45254E-05-2.33473E-14
 -1      1070 4.35748E-03 1.08529E-04-1.68574E-14
 -1      1071 1.90526E-03-3.06009E-05-3.62733E-15
 -1      1072 1.90566E-03 4.17639E-05-3.58519E-15
 -1      1073 3.45389E-03-4.01935E-05-1.09672E-14
 -1      1074 3.72406E-03-4.00516E-05-1.27111E-14
 -1      1075 3.98842E-03-4.04449E-05-1.45785E-14
 -1      1076 4.24579E-03-4.17000E-05-1.65712E-14
 -1      1077 4.49460E-03-4.41678E-05-1.86841E-14
 -1      1078 4.73250E-03-4.81819E-05-2.09125E-14
 -1      1079 3.54975E-03 1.28941E-04-1.12099E-14
 -1      1080 1.08170E-02-2.37527E-04-7.48949E-14
 -1      1081 1.10543E-02-2.56969E-04-7.91141E-14
 -1      1082 1.13019E-02-2.77896E-04-8.34116E-14
 -1      1083 1.15573E-02-3.00048E-04-8.77767E-14
 -1      1084 1.18191E-02-3.23094E-04-9.22117E-14
 -1      1085 1.20859E-02-3.46752E-04-9.67185E-14
 -1      1086 1.23570E-02-3.70795E-04-1.01298E-13
 -1      1087 1.26314E-02-3.95052E-04-1.05943E-13
 -1      1088 1.29086E-02-4.19403E-04-1.10648E-13
 -1      1089 1.18964E-02-2.32509E-04-9.37729E-14
 -1      1090 2.89998E-03-4.09541E-05-7.85461E-15
 -1      1091 4.70883E-03 3.86097E-05-2.02483E-14
 -1      1092 1.16300E-02-2.13271E-04-8.93113E-14
 -1      1093 1.11120E-02-1.77287E-04-8.06064E-14
 -1      1094 1.21668E-02-2.52426E-04-9.83107E-14
 -1      1095 1.24405E-02-2.72941E-04-1.02916E-13
 -1      1096 1.27169E-02-2.93984E-04-1.07583E-13
 -1      1097 1.29956E-02-3.15495E-04-1.12299E-13
 -1      1098 3.17891E-03-4.05798E-05-9.34865E-15
 -1      1099 1.08621E-02-1.60794E-04-7.63681E-14
 -1      1100 2.24282E-03 1.41529E-04-4.69405E-15
 -1      1101 1.13683E-02-1.94818E-04-8.49217E-14
 -1      1102 1.93021E-03 8.93035E-05-3.62222E-15
 -1      1103 2.71040E-03 1.40135E-04-6.68784E-15
 -1      1104 4.46031E-03 4.65108E-05-1.80526E-14
 -1      1105 3.94216E-03 5.87754E-05-1.40225E-14
 -1      1106 2.61798E-03-4.10839E-05-6.48820E-15
 -1      1107 3.67434E-03 6.34423E-05-1.21933E-14
 -1      1108 2.47709E-03 1.41622E-04-5.64783E-15
 -1      1109 3.12491E-03 7.01328E-05-8.90863E-15
 -1      1110 2.15224E-03 5.68799E-06-4.50413E-15
 -1      1111 2.84471E-03 7.20869E-05-7.45439E-15
 -1      1112 4.20443E-03 5.31723E-05-1.59751E-14
 -1      1113 3.40169E-03 6.72296E-05-1.04892E-14
 -1      1114 2.21607E-03 9.20581E-05-4.66371E-15
 -1      1115 2.38531E-03-1.75952E-05-5.45317E-15
 -1      1116 2.35584E-03 5.66327E-05-5.26649E-15
 -1      1117 2.45015E-03 9.18251E-05-5.61531E-15
 -1      1118 2.64796E-03 8.22462E-05-6.50342E-15
 -1      1119 2.58717E-03 3.32896E-05-6.29130E-15
 -1      1120 0.00000E+00 0.00000E+00 0.00000E+00
 -1      1121 0.00000E+00 0.00000E+00 0.00000E+00
 -1      1122 0.00000E+00 0.00000E+00 0.00000E+00
 -1      1123 0.00000E+00 0.00000E+00 0.00000E+00
 -1      1124 0.00000E+00 0.00000E+00 0.00000E+00
 -1      1125 0.00000E+00 0.00000E+00 0.00000E+00
 -1      1126 0.00000E+00 0.00000E+00 0.00000E+00
 -1      1127 0.00000E+00 0.00000E+00 0.00000E+00
 -1      1128 0.00000E+00 0.00000E+00 0.00000E+00
 -1      1129 0.00000E+00 0.00000E+00 0.00000E+00
 -1      1130 0.00000E+00 0.00000E+00 0.00000E+00
 -1      1131 0.00000E+00 0.00000E+00 0.00000E+00
 -1      1132 0.00000E+00 0.00000E+00 0.00000E+00
 -1      1133 0.00000E+00 0.00000E+00 0.00000E+00
 -1      1134 0.00000E+00 0.00000E+00 0.00000E+00
 -1      1135 0.00000E+00 0.00000E+00 0.00000E+00
 -1      1136 0.00000E+00 0.00000E+00 0.00000E+00
 -1      1137 2.10910E-04-1.47797E-04 1.60191E-17
 -1      1138 5.49713E-04-3.35720E-04-4.75152E-17
 -1      1139 8.30730E-04-4.55558E-04-2.51399E-16
 -1      1140 1.09976E-03-5.35175E-04-6.18917E-16
 -1      1141 1.36493E-03-5.89868E-04-1.14251E-15
 -1      1142 1.62990E-03-6.27437E-04-1.81842E-15
 -1      1143 1.89671E-03-6.52438E-04-2.64445E-15
 -1      1144 2.16648E-03-6.67907E-04-3.61782E-15
 -1      1145 2.43986E-03-6.76082E-04-4.73598E-15
 -1      1146 2.71735E-03-6.78699E-04-5.99771E-15
 -1      1147 2.99944E-03-6.77180E-04-7.39973E-15
 -1      1148 3.28672E-03-6.72781E-04-8.93438E-15
 -1      1149 3.57997E-03-6.66749E-04-1.05992E-14
 -1      1150 3.88018E-03-6.60492E-04-1.23946E-14
 -1      1151 4.18856E-03-6.55775E-04-1.43146E-14
 -1      1152 4.50647E-03-6.54954E-04-1.63578E-14
 -1      1153 4.83524E-03-6.61224E-04-1.85236E-14
 -1      1154 5.17575E-03-6.78822E-04-2.08051E-14
 -1      1155 5.52781E-03-7.13033E-04-2.32077E-14
 -1      1156 5.88923E-03-7.69677E-04-2.57344E-14
 -1      1157 6.25475E-03-8.53584E-04-2.83836E-14
 -1      1158 6.61539E-03-9.65595E-04-3.11514E-14
 -1      1159 6.95939E-03-1.09835E-03-3.40499E-14
 -1      1160 7.27599E-03-1.23310E-03-3.70871E-14
 -1      1161 7.56166E-03-1.34157E-03-4.02588E-14
 -1      1162 7.82509E-03-1.39578E-03-4.35658E-14
 -1      1163 8.08567E-03-1.38188E-03-4.70085E-14
 -1      1164 8.36430E-03-1.30824E-03-5.05819E-14
 -1      1165 8.67294E-03-1.20049E-03-5.42927E-14
 -1      1166 9.01092E-03-1.08804E-03-5.81199E-14
 -1      1167 9.36874E-03-9.92570E-04-6.20522E-14
 -1      1168 9.73447E-03-9.24182E-04-6.60830E-14
 -1      1169 1.00983E-02-8.83740E-04-7.01994E-14
 -1      1170 1.04541E-02-8.67110E-04-7.43940E-14
 -1      1171 1.07991E-02-8.68563E-04-7.86656E-14
 -1      1172 1.11328E-02-8.82664E-04-8.30161E-14
 -1      1173 1.14561E-02-9.05005E-04-8.74355E-14
 -1      1174 1.17704E-02-9.32314E-04-9.19268E-14
 -1      1175 1.20773E-02-9.62299E-04-9.64777E-14
 -1      1176 1.23784E-02-9.93430E-04-1.01091E-13
 -1      1177 1.26749E-02-1.02473E-03-1.05789E-13
 -1      1178 1.29680E-02-1.05563E-03-1.10557E-13
 -1      1179 1.32585E-02-1.08579E-03-1.15389E-13
 -1      1180 1.35472E-02-1.11508E-03-1.20281E-13
 -1      1181 1.38346E-02-1.14347E-03-1.25224E-13
 -1      1182 1.41212E-02-1.17099E-03-1.30205E-13
 -1      1183 1.44072E-02-1.19773E-03-1.35224E-13
 -1      1184 1.46929E-02-1.22378E-03-1.40296E-13
 -1      1185 1.49785E-02-1.24931E-03-1.45416E-13
 -1      1186 1.52570E-02-1.27394E-03-1.50442E-13
 -1      1187 2.27612E-04 1.60132E-04 3.87873E-17
 -1      1188 5.51893E-04 3.40329E-04 2.93277E-17
 -1      1189 8.31689E-04 4.57718E-04-1.01888E-16
 -1      1190 1.10071E-03 5.36874E-04-3.71543E-16
 -1      1191 1.36590E-03 5.91594E-04-7.82333E-16
 -1      1192 1.63096E-03 6.29305E-04-1.33403E-15
 -1      1193 1.89786E-03 6.54499E-04-2.02740E-15
 -1      1194 2.16769E-03 6.70231E-04-2.85969E-15
 -1      1195 2.44110E-03 6.78765E-04-3.83424E-15
 -1      1196 2.71856E-03 6.81872E-04-4.94991E-15
 -1      1197 3.00048E-03 6.81022E-04-6.20376E-15
 -1      1198 3.28735E-03 6.77535E-04-7.58943E-15
 -1      1199 3.57976E-03 6.72719E-04-9.10407E-15
 -1      1200 3.87839E-03 6.68024E-04-1.07454E-14
 -1      1201 4.18399E-03 6.65189E-04-1.25156E-14
 -1      1202 4.49723E-03 6.66385E-04-1.44214E-14
 -1      1203 4.81852E-03 6.74308E-04-1.64589E-14
 -1      1204 5.14758E-03 6.92156E-04-1.86237E-14
 -1      1205 5.48307E-03 7.23355E-04-2.09132E-14
 -1      1206 5.82200E-03 7.70860E-04-2.33305E-14
 -1      1207 6.15942E-03 8.35862E-04-2.58714E-14
 -1      1208 6.48866E-03 9.15952E-04-2.85423E-14
 -1      1209 6.80256E-03 1.00329E-03-3.13421E-14
 -1      1210 7.09601E-03 1.08411E-03-3.42812E-14
 -1      1211 7.36895E-03 1.14096E-03-3.73545E-14
 -1      1212 7.62813E-03 1.15828E-03-4.05543E-14
 -1      1213 7.88556E-03 1.12874E-03-4.38817E-14
 -1      1214 8.15398E-03 1.05670E-03-4.73279E-14
 -1      1215 8.44186E-03 9.56177E-04-5.08967E-14
 -1      1216 8.75089E-03 8.44731E-04-5.45850E-14
 -1      1217 9.07707E-03 7.37452E-04-5.83795E-14
 -1      1218 9.41353E-03 6.43742E-04-6.22768E-14
 -1      1219 9.75332E-03 5.67251E-04-6.62603E-14
 -1      1220 1.00911E-02 5.07536E-04-7.03130E-14
 -1      1221 1.04234E-02 4.61983E-04-7.44462E-14
 -1      1222 1.07487E-02 4.27275E-04-7.86714E-14
 -1      1223 1.10667E-02 4.00231E-04-8.29803E-14
 -1      1224 1.13778E-02 3.78197E-04-8.73625E-14
 -1      1225 1.16829E-02 3.59132E-04-9.18160E-14
 -1      1226 1.19829E-02 3.41562E-04-9.63528E-14
 -1      1227 1.22790E-02 3.24484E-04-1.00969E-13
 -1      1228 1.25718E-02 3.07254E-04-1.05647E-13
 -1      1229 1.28623E-02 2.89490E-04-1.10362E-13
 -1      1230 1.31510E-02 2.70992E-04-1.15112E-13
 -1      1231 1.34384E-02 2.51686E-04-1.19903E-13
 -1      1232 1.37250E-02 2.31575E-04-1.24732E-13
 -1      1233 1.40110E-02 2.10713E-04-1.29600E-13
 -1      1234 1.42967E-02 1.89194E-04-1.34524E-13
 -1      1235 1.45823E-02 1.67164E-04-1.39472E-13
 -1      1236 1.48608E-02 1.45421E-04-1.44314E-13
 -1      1237 1.50075E-02 9.26633E-05-1.46878E-13
 -1      1238 1.50294E-02 8.30224E-06-1.47311E-13
 -1      1239 1.50516E-02-7.60892E-05-1.47731E-13
 -1      1240 1.50742E-02-1.60370E-04-1.48108E-13
 -1      1241 1.50973E-02-2.44405E-04-1.48465E-13
 -1      1242 1.51204E-02-3.27410E-04-1.48819E-13
 -1      1243 1.51437E-02-4.10096E-04-1.49191E-13
 -1      1244 1.51672E-02-4.93230E-04-1.49571E-13
 -1      1245 1.51906E-02-5.76220E-04-1.49959E-13
 -1      1246 1.52139E-02-6.59215E-04-1.50356E-13
 -1      1247 1.52371E-02-7.42358E-04-1.50762E-13
 -1      1248 1.52602E-02-8.25060E-04-1.51177E-13
 -1      1249 1.52834E-02-9.08085E-04-1.51579E-13
 -1      1250 1.53071E-02-9.92139E-04-1.51931E-13
 -1      1251 1.53312E-02-1.07644E-03-1.52233E-13
 -1      1252 1.53558E-02-1.16083E-03-1.52512E-13
 -1      1253 1.53804E-02-1.24448E-03-1.52769E-13
 -1      1254 9.97843E-03-8.56024E-05-5.13533E-14
 -1      1255 9.85619E-03 6.37741E-05-5.08901E-14
 -1      1256 9.63000E-03 2.18741E-04-5.00881E-14
 -1      1257 9.32830E-03 3.70349E-04-4.90049E-14
 -1      1258 8.95683E-03 5.15976E-04-4.76296E-14
 -1      1259 8.53297E-03 6.39910E-04-4.60324E-14
 -1      1260 8.09590E-03 7.18257E-04-4.43722E-14
 -1      1261 7.65457E-03 7.41678E-04-4.27051E-14
 -1      1262 7.21548E-03 7.08673E-04-4.10893E-14
 -1      1263 6.79378E-03 6.24762E-04-3.96075E-14
 -1      1264 6.40888E-03 5.06578E-04-3.83414E-14
 -1      1265 6.07811E-03 3.71301E-04-3.73344E-14
 -1      1266 5.80291E-03 2.23174E-04-3.65595E-14
 -1      1267 5.61323E-03 6.91778E-05-3.60690E-14
 -1      1268 5.53832E-03-8.01077E-05-3.59188E-14
 -1      1269 5.58298E-03-2.31264E-04-3.61076E-14
 -1      1270 5.73821E-03-3.84811E-04-3.66240E-14
 -1      1271 5.97781E-03-5.36008E-04-3.73964E-14
 -1      1272 6.28462E-03-6.84743E-04-3.83992E-14
 -1      1273 6.65633E-03-8.27108E-04-3.96568E-14
 -1      1274 7.06467E-03-9.43271E-04-4.10863E-14
 -1      1275 7.49335E-03-1.01477E-03-4.26435E-14
 -1      1276 7.92398E-03-1.03314E-03-4.42458E-14
 -1      1277 8.33998E-03-9.94823E-04-4.57938E-14
 -1      1278 8.75431E-03-9.05799E-04-4.73200E-14
 -1      1279 9.13226E-03-7.84353E-04-4.86838E-14
 -1      1280 9.45133E-03-6.49415E-04-4.97866E-14
 -1      1281 9.71360E-03-5.06664E-04-5.06444E-14
 -1      1282 9.89981E-03-3.62728E-04-5.12177E-14
 -1      1283 9.98958E-03-2.24811E-04-5.14568E-14
 -1      1284 1.66235E-04-1.09939E-04-6.70850E-18
 -1      1285 1.12445E-04-5.66905E-05-3.28649E-17
 -1      1286 1.17439E-04-6.73006E-05-2.56007E-17
 -1      1287 1.08437E-04-4.31707E-05-4.46149E-17
 -1      1288 1.10247E-04-4.92973E-05-4.11048E-17
 -1      1289 2.26211E-04-1.06931E-04-9.67786E-17
 -1      1290 1.06935E-04-3.32704E-05-5.09033E-17
 -1      1291 1.07750E-04-3.80009E-05-4.91957E-17
 -1      1292 2.19188E-04-8.17317E-05-1.17731E-16
 -1      1293 1.06189E-04-2.50041E-05-5.41559E-17
 -1      1294 1.06609E-04-2.90240E-05-5.33970E-17
 -1      1295 2.16078E-04-6.25258E-05-1.29386E-16
 -1      1296 1.05792E-04-1.77923E-05-5.56467E-17
 -1      1297 1.06019E-04-2.13283E-05-5.53892E-17
 -1      1298 2.14451E-04-4.64788E-05-1.35241E-16
 -1      1299 1.05572E-04-1.10267E-05-5.64463E-17
 -1      1300 1.05696E-04-1.43617E-05-5.64327E-17
 -1      1301 2.13535E-04-3.21731E-05-1.38290E-16
 -1      1302 1.05469E-04-4.59263E-06-5.64327E-17
 -1      1303 1.05524E-04-7.78350E-06-5.64734E-17
 -1      1304 2.13027E-04-1.88097E-05-1.39225E-16
 -1      1305 1.05457E-04 1.70968E-06-5.57144E-17
 -1      1306 1.05455E-04-1.43700E-06-5.59584E-17
 -1      1307 2.12802E-04-6.02805E-06-1.38588E-16
 -1      1308 1.05531E-04 8.06594E-06-5.43050E-17
 -1      1309 1.05473E-04 4.86856E-06-5.46709E-17
 -1      1310 2.12809E-04 6.57564E-06-1.36244E-16
 -1      1311 1.05710E-04 1.46694E-05-5.24618E-17
 -1      1312 1.05582E-04 1.13196E-05-5.30717E-17
 -1      1313 2.13049E-04 1.93834E-05-1.32598E-16
 -1      1314 1.06038E-04 2.16204E-05-4.94396E-17
 -1      1315 1.05806E-04 1.80613E-05-5.03476E-17
 -1      1316 2.13570E-04 3.26876E-05-1.27272E-16
 -1      1317 1.06641E-04 2.94597E-05-4.47369E-17
 -1      1318 1.06215E-04 2.53955E-05-4.63632E-17
 -1      1319 2.14507E-04 4.70870E-05-1.19127E-16
 -1      1320 1.07783E-04 3.85710E-05-3.77438E-17
 -1      1321 1.06960E-04 3.37724E-05-4.04001E-17
 -1      1322 2.16169E-04 6.34490E-05-1.07187E-16
 -1      1323 1.10233E-04 5.00359E-05-2.69289E-17
 -1      1324 1.08447E-04 4.38377E-05-3.15503E-17
 -1      1325 2.19291E-04 8.29644E-05-8.96364E-17
 -1      1326 1.16757E-04 6.73373E-05-1.00966E-17
 -1      1327 1.12093E-04 5.74882E-05-1.82417E-17
 -1      1328 2.26204E-04 1.08748E-04-6.37917E-17
 -1      1329 1.57110E-04 1.09470E-04 1.61817E-17
 -1      1330 1.35374E-04 8.57608E-05 1.49078E-19
 -1      1331 2.55610E-04 1.51343E-04-3.29326E-17
 -1      1332 3.34106E-04 2.19766E-04 1.09640E-17
 -1      1333 4.20369E-04-2.60407E-04-6.39815E-17
 -1      1334 5.73096E-04-3.34717E-04-1.32381E-16
 -1      1335 7.19976E-04-3.94479E-04-2.43661E-16
 -1      1336 8.62895E-04-4.42836E-04-3.94311E-16
 -1      1337 6.10920E-04-3.28469E-04-2.29648E-16
 -1      1338 1.00274E-03-4.82859E-04-5.82366E-16
 -1      1339 1.14047E-03-5.15682E-04-8.09276E-16
 -1      1340 9.03830E-04-4.27259E-04-5.41261E-16
 -1      1341 1.27695E-03-5.43154E-04-1.07417E-15
 -1      1342 1.41267E-03-5.65750E-04-1.37723E-15
 -1      1343 1.18621E-03-4.94304E-04-1.00301E-15
 -1      1344 1.54811E-03-5.84512E-04-1.71742E-15
 -1      1345 1.68353E-03-5.99771E-04-2.09479E-15
 -1      1346 1.46346E-03-5.40135E-04-1.61439E-15
 -1      1347 1.81921E-03-6.12130E-04-2.50925E-15
 -1      1348 1.95529E-03-6.21884E-04-2.96069E-15
 -1      1349 1.73897E-03-5.70820E-04-2.37325E-15
 -1      1350 2.09193E-03-6.29410E-04-3.44805E-15
 -1      1351 2.22921E-03-6.34965E-04-3.97151E-15
 -1      1352 2.01480E-03-5.90230E-04-3.27795E-15
 -1      1353 2.36724E-03-6.38801E-04-4.53089E-15
 -1      1354 2.50608E-03-6.41143E-04-5.12561E-15
 -1      1355 2.29220E-03-6.01087E-04-4.32613E-15
 -1      1356 2.64582E-03-6.42167E-04-5.75625E-15
 -1      1357 2.78652E-03-6.42073E-04-6.42196E-15
 -1      1358 2.57201E-03-6.05411E-04-5.51574E-15
 -1      1359 2.92825E-03-6.40993E-04-7.12085E-15
 -1      1360 3.07109E-03-6.39116E-04-7.85395E-15
 -1      1361 2.85488E-03-6.04779E-04-6.84446E-15
 -1      1362 3.21512E-03-6.36551E-04-8.61996E-15
 -1      1363 3.36043E-03-6.33494E-04-9.41871E-15
 -1      1364 3.14140E-03-6.00496E-04-8.30774E-15
 -1      1365 3.50713E-03-6.30054E-04-1.02503E-14
 -1      1366 3.65532E-03-6.26454E-04-1.11142E-14
 -1      1367 3.43221E-03-5.93764E-04-9.90256E-15
 -1      1368 3.80513E-03-6.22829E-04-1.20105E-14
 -1      1369 3.95668E-03-6.19447E-04-1.29379E-14
 -1      1370 3.72802E-03-5.85842E-04-1.16280E-14
 -1      1371 4.11011E-03-6.16505E-04-1.38963E-14
 -1      1372 4.26555E-03-6.14341E-04-1.48859E-14
 -1      1373 4.02967E-03-5.78247E-04-1.34802E-14
 -1      1374 4.42316E-03-6.13254E-04-1.59060E-14
 -1      1375 4.58304E-03-6.13672E-04-1.69567E-14
 -1      1376 4.33806E-03-5.72977E-04-1.54559E-14
 -1      1377 4.74533E-03-6.16047E-04-1.80363E-14
 -1      1378 4.91009E-03-6.20907E-04-1.91463E-14
 -1      1379 4.65407E-03-5.72776E-04-1.75527E-14
 -1      1380 5.07737E-03-6.28901E-04-2.02867E-14
 -1      1381 5.24712E-03-6.40645E-04-2.14556E-14
 -1      1382 4.97841E-03-5.81410E-04-1.97692E-14
 -1      1383 5.41925E-03-6.56989E-04-2.26560E-14
 -1      1384 5.59351E-03-6.78569E-04-2.38865E-14
 -1      1385 5.31134E-03-6.03849E-04-2.21055E-14
 -1      1386 5.76958E-03-7.06333E-04-2.51468E-14
 -1      1387 5.94690E-03-7.40769E-04-2.64383E-14
 -1      1388 5.65229E-03-6.46127E-04-2.45625E-14
 -1      1389 6.12486E-03-7.82621E-04-2.77596E-14
 -1      1390 6.30255E-03-8.31888E-04-2.91125E-14
 -1      1391 5.99933E-03-7.14465E-04-2.71403E-14
 -1      1392 6.47906E-03-8.88545E-04-3.04945E-14
 -1      1393 6.65325E-03-9.51629E-04-3.19065E-14
 -1      1394 6.34876E-03-8.13039E-04-2.98384E-14
 -1      1395 6.82407E-03-1.01964E-03-3.33547E-14
 -1      1396 6.99047E-03-1.09017E-03-3.48374E-14
 -1      1397 6.69499E-03-9.40025E-04-3.26634E-14
 -1      1398 7.15173E-03-1.15993E-03-3.63530E-14
 -1      1399 7.30750E-03-1.22528E-03-3.79015E-14
 -1      1400 7.03140E-03-1.08274E-03-3.56208E-14
 -1      1401 7.45791E-03-1.28188E-03-3.94839E-14
 -1      1402 7.60379E-03-1.32601E-03-4.11016E-14
 -1      1403 7.35292E-03-1.21552E-03-3.87140E-14
 -1      1404 7.74634E-03-1.35427E-03-4.27532E-14
 -1      1405 7.88751E-03-1.36480E-03-4.44385E-14
 -1      1406 7.65976E-03-1.30540E-03-4.19421E-14
 -1      1407 8.02904E-03-1.35715E-03-4.61573E-14
 -1      1408 8.17308E-03-1.33244E-03-4.79099E-14
 -1      1409 7.95934E-03-1.32667E-03-4.53081E-14
 -1      1410 8.32102E-03-1.29346E-03-4.96957E-14
 -1      1411 8.47403E-03-1.24362E-03-5.15169E-14
 -1      1412 8.26337E-03-1.27592E-03-4.88115E-14
 -1      1413 8.63253E-03-1.18726E-03-5.33691E-14
 -1      1414 8.79643E-03-1.12819E-03-5.52519E-14
 -1      1415 8.58090E-03-1.17418E-03-5.24489E-14
 -1      1416 8.96520E-03-1.07009E-03-5.71642E-14
 -1      1417 9.13790E-03-1.01574E-03-5.91013E-14
 -1      1418 8.91398E-03-1.05420E-03-5.62104E-14
 -1      1419 9.31353E-03-9.67102E-04-6.10663E-14
 -1      1420 9.49092E-03-9.25477E-04-6.30563E-14
 -1      1421 9.25857E-03-9.44447E-04-6.00841E-14
 -1      1422 9.66911E-03-8.91206E-04-6.50687E-14
 -1      1423 9.84714E-03-8.64491E-04-6.71023E-14
 -1      1424 9.60818E-03-8.60953E-04-6.40568E-14
 -1      1425 1.00243E-02-8.44720E-04-6.91579E-14
 -1      1426 1.01999E-02-8.31498E-04-7.12328E-14
 -1      1427 9.95684E-03-8.07904E-04-6.81192E-14
 -1      1428 1.03737E-02-8.23886E-04-7.33276E-14
 -1      1429 1.05453E-02-8.21276E-04-7.54410E-14
 -1      1430 1.03004E-02-7.82234E-04-7.22642E-14
 -1      1431 1.07145E-02-8.22775E-04-7.75742E-14
 -1      1432 1.08814E-02-8.27767E-04-7.97293E-14
 -1      1433 1.06366E-02-7.77987E-04-7.64876E-14
 -1      1434 1.10459E-02-8.35552E-04-8.18995E-14
 -1      1435 1.12081E-02-8.45599E-04-8.40869E-14
 -1      1436 1.09647E-02-7.88996E-04-8.07855E-14
 -1      1437 1.13681E-02-8.57415E-04-8.62949E-14
 -1      1438 1.15261E-02-8.70579E-04-8.85214E-14
 -1      1439 1.12848E-02-8.10067E-04-8.51583E-14
 -1      1440 1.16823E-02-8.84773E-04-9.07640E-14
 -1      1441 1.18367E-02-8.99679E-04-9.30251E-14
 -1      1442 1.15977E-02-8.37270E-04-8.96041E-14
 -1      1443 1.19895E-02-9.15107E-04-9.52983E-14
 -1      1444 1.21410E-02-9.30825E-04-9.75835E-14
 -1      1445 1.19044E-02-8.67829E-04-9.41182E-14
 -1      1446 1.22912E-02-9.46732E-04-9.98907E-14
 -1      1447 1.24403E-02-9.62665E-04-1.02218E-13
 -1      1448 1.22060E-02-8.99882E-04-9.86929E-14
 -1      1449 1.25885E-02-9.78578E-04-1.04561E-13
 -1      1450 1.27357E-02-9.94361E-04-1.06924E-13
 -1      1451 1.25034E-02-9.32243E-04-1.03337E-13
 -1      1452 1.28823E-02-1.01000E-03-1.09305E-13
 -1      1453 1.30282E-02-1.02543E-03-1.11699E-13
 -1      1454 1.27976E-02-9.64197E-04-1.08055E-13
 -1      1455 1.31736E-02-1.04066E-03-1.14111E-13
 -1      1456 1.33184E-02-1.05564E-03-1.16540E-13
 -1      1457 1.30893E-02-9.95354E-04-1.12840E-13
 -1      1458 1.34629E-02-1.07039E-03-1.18984E-13
 -1      1459 1.36071E-02-1.08488E-03-1.21438E-13
 -1      1460 1.33790E-02-1.02553E-03-1.17688E-13
 -1      1461 1.37509E-02-1.09915E-03-1.23904E-13
 -1      1462 1.38945E-02-1.11317E-03-1.26383E-13
 -1      1463 1.36674E-02-1.05469E-03-1.22591E-13
 -1      1464 1.40379E-02-1.12698E-03-1.28873E-13
 -1      1465 1.41812E-02-1.14057E-03-1.31368E-13
 -1      1466 1.39548E-02-1.08285E-03-1.27541E-13
 -1      1467 1.43243E-02-1.15396E-03-1.33877E-13
 -1      1468 1.44673E-02-1.16717E-03-1.36400E-13
 -1      1469 1.42414E-02-1.11011E-03-1.32533E-13
 -1      1470 1.46103E-02-1.18021E-03-1.38930E-13
 -1      1471 1.47532E-02-1.19309E-03-1.41475E-13
 -1      1472 1.45276E-02-1.13657E-03-1.37567E-13
 -1      1473 1.48960E-02-1.20586E-03-1.44031E-13
 -1      1474 1.50389E-02-1.21852E-03-1.46598E-13
 -1      1475 1.48136E-02-1.16238E-03-1.42649E-13
 -1      1476 1.52447E-02-1.23250E-03-1.50318E-13
 -1      1477 1.51623E-02-1.18909E-03-1.48921E-13
 -1      1478 6.41325E-04 3.69572E-04-6.23145E-17
 -1      1479 4.91556E-04 3.02028E-04-8.49743E-18
 -1      1480 4.43897E-04 2.64367E-04-4.09015E-17
 -1      1481 9.26391E-04 4.67692E-04-2.71200E-16
 -1      1482 7.85756E-04 4.23173E-04-1.49850E-16
 -1      1483 7.43260E-04 3.87537E-04-1.90277E-16
 -1      1484 1.20104E-03 5.34827E-04-6.16599E-16
 -1      1485 1.06446E-03 5.04350E-04-4.26349E-16
 -1      1486 1.02905E-03 4.70914E-04-4.74081E-16
 -1      1487 1.47172E-03 5.81210E-04-1.10171E-15
 -1      1488 1.33655E-03 5.60228E-04-8.41680E-16
 -1      1489 1.30702E-03 5.28187E-04-8.94182E-16
 -1      1490 1.74187E-03 6.12670E-04-1.72647E-15
 -1      1491 1.60668E-03 5.98566E-04-1.39630E-15
 -1      1492 1.58172E-03 5.67338E-04-1.45218E-15
 -1      1493 2.01341E-03 6.32993E-04-2.49155E-15
 -1      1494 1.87737E-03 6.24050E-04-2.09136E-15
 -1      1495 1.85593E-03 5.93246E-04-2.14940E-15
 -1      1496 2.28741E-03 6.44871E-04-3.39582E-15
 -1      1497 2.15004E-03 6.39851E-04-2.92629E-15
 -1      1498 2.13129E-03 6.09216E-04-2.98570E-15
 -1      1499 2.56456E-03 6.50343E-04-4.44118E-15
 -1      1500 2.42555E-03 6.48295E-04-3.90084E-15
 -1      1501 2.40878E-03 6.17652E-04-3.96157E-15
 -1      1502 2.84539E-03 6.51034E-04-5.62494E-15
 -1      1503 2.70449E-03 6.51187E-04-5.01622E-15
 -1      1504 2.68910E-03 6.20401E-04-5.07562E-15
 -1      1505 3.13040E-03 6.48324E-04-6.94350E-15
 -1      1506 2.98734E-03 6.50010E-04-6.26761E-15
 -1      1507 2.97280E-03 6.18962E-04-6.32606E-15
 -1      1508 3.42010E-03 6.43501E-04-8.39190E-15
 -1      1509 3.27463E-03 6.46078E-04-7.65113E-15
 -1      1510 3.26037E-03 6.14654E-04-7.70758E-15
 -1      1511 3.71509E-03 6.37910E-04-9.96886E-15
 -1      1512 3.56690E-03 6.40691E-04-9.16454E-15
 -1      1513 3.55237E-03 6.08765E-04-9.21953E-15
 -1      1514 4.01601E-03 6.33107E-04-1.16732E-14
 -1      1515 3.86477E-03 6.35279E-04-1.08052E-14
 -1      1516 3.84934E-03 6.02712E-04-1.08591E-14
 -1      1517 4.32347E-03 6.31013E-04-1.35082E-14
 -1      1518 4.16888E-03 6.31565E-04-1.25739E-14
 -1      1519 4.15186E-03 5.98198E-04-1.26266E-14
 -1      1520 4.63791E-03 6.34054E-04-1.54763E-14
 -1      1521 4.47979E-03 6.31711E-04-1.44760E-14
 -1      1522 4.46039E-03 5.97375E-04-1.45254E-14
 -1      1523 4.95937E-03 6.45224E-04-1.75735E-14
 -1      1524 4.79777E-03 6.38428E-04-1.65087E-14
 -1      1525 4.77521E-03 6.02960E-04-1.65537E-14
 -1      1526 5.28719E-03 6.67981E-04-1.97966E-14
 -1      1527 5.12255E-03 6.54974E-04-1.86697E-14
 -1      1528 5.09612E-03 6.18251E-04-1.87109E-14
 -1      1529 5.61956E-03 7.05814E-04-2.21463E-14
 -1      1530 5.45295E-03 6.84902E-04-2.09556E-14
 -1      1531 5.42223E-03 6.46906E-04-2.09935E-14
 -1      1532 5.95330E-03 7.61285E-04-2.46219E-14
 -1      1533 5.78651E-03 7.31390E-04-2.33688E-14
 -1      1534 5.75163E-03 6.92293E-04-2.34024E-14
 -1      1535 6.28373E-03 8.34417E-04-2.72225E-14
 -1      1536 6.11928E-03 7.95950E-04-2.59059E-14
 -1      1537 6.08127E-03 7.56219E-04-2.59360E-14
 -1      1538 6.60530E-03 9.20642E-04-2.99540E-14
 -1      1539 6.44601E-03 8.76546E-04-2.85720E-14
 -1      1540 6.40701E-03 8.37012E-04-2.85972E-14
 -1      1541 6.91302E-03 1.00920E-03-3.28165E-14
 -1      1542 6.76118E-03 9.65609E-04-3.13691E-14
 -1      1543 6.72436E-03 9.27413E-04-3.13888E-14
 -1      1544 7.20458E-03 1.08364E-03-3.58161E-14
 -1      1545 7.06084E-03 1.04929E-03-3.43001E-14
 -1      1546 7.02990E-03 1.01359E-03-3.43137E-14
 -1      1547 7.48233E-03 1.12575E-03-3.89478E-14
 -1      1548 7.34484E-03 1.10959E-03-3.73652E-14
 -1      1549 7.32309E-03 1.07707E-03-3.73708E-14
 -1      1550 7.75350E-03 1.12233E-03-4.22038E-14
 -1      1551 7.61811E-03 1.12995E-03-4.05585E-14
 -1      1552 7.60748E-03 1.10041E-03-4.05588E-14
 -1      1553 8.02791E-03 1.07112E-03-4.55894E-14
 -1      1554 7.88964E-03 1.10216E-03-4.38822E-14
 -1      1555 7.89012E-03 1.07447E-03-4.38767E-14
 -1      1556 8.31410E-03 9.81941E-04-4.90927E-14
 -1      1557 8.16910E-03 1.03021E-03-4.73254E-14
 -1      1558 8.17880E-03 1.00287E-03-4.73183E-14
 -1      1559 8.61628E-03 8.72035E-04-5.27190E-14
 -1      1560 8.46310E-03 9.28413E-04-5.08916E-14
 -1      1561 8.47882E-03 9.00160E-04-5.08803E-14
 -1      1562 8.93367E-03 7.59110E-04-5.64541E-14
 -1      1563 8.77327E-03 8.15051E-04-5.45723E-14
 -1      1564 8.79143E-03 7.85258E-04-5.45574E-14
 -1      1565 9.26199E-03 6.56152E-04-6.02973E-14
 -1      1566 9.09681E-03 7.05897E-04-5.83642E-14
 -1      1567 9.11427E-03 6.74536E-04-5.83430E-14
 -1      1568 9.59573E-03 5.69796E-04-6.42350E-14
 -1      1569 9.42855E-03 6.10770E-04-6.22544E-14
 -1      1570 9.44317E-03 5.78184E-04-6.22306E-14
 -1      1571 9.92985E-03 5.01399E-04-6.82523E-14
 -1      1572 9.76303E-03 5.33451E-04-6.62342E-14
 -1      1573 9.77377E-03 5.00111E-04-6.62063E-14
 -1      1574 1.02607E-02 4.49097E-04-7.23472E-14
 -1      1575 1.00959E-02 4.73439E-04-7.02906E-14
 -1      1576 1.01026E-02 4.39787E-04-7.02626E-14
 -1      1577 1.05861E-02 4.09628E-04-7.65255E-14
 -1      1578 1.04242E-02 4.27982E-04-7.44257E-14
 -1      1579 1.04272E-02 3.94359E-04-7.43998E-14
 -1      1580 1.09052E-02 3.79539E-04-8.07886E-14
 -1      1581 1.07465E-02 3.93612E-04-7.86472E-14
 -1      1582 1.07465E-02 3.60244E-04-7.86194E-14
 -1      1583 1.12180E-02 3.55784E-04-8.51323E-14
 -1      1584 1.10624E-02 3.67032E-04-8.29499E-14
 -1      1585 1.10601E-02 3.34043E-04-8.29185E-14
 -1      1586 1.15250E-02 3.35947E-04-8.95436E-14
 -1      1587 1.13722E-02 3.45497E-04-8.73303E-14
 -1      1588 1.13683E-02 3.12936E-04-8.72937E-14
 -1      1589 1.18269E-02 3.18242E-04-9.40391E-14
 -1      1590 1.16765E-02 3.26914E-04-9.17818E-14
 -1      1591 1.16716E-02 2.94779E-04-9.17433E-14
 -1      1592 1.21246E-02 3.01423E-04-9.86112E-14
 -1      1593 1.19762E-02 3.09779E-04-9.63142E-14
 -1      1594 1.19707E-02 2.78039E-04-9.62731E-14
 -1      1595 1.24190E-02 2.84674E-04-1.03254E-13
 -1      1596 1.22722E-02 2.93076E-04-1.00924E-13
 -1      1597 1.22663E-02 2.61682E-04-1.00877E-13
 -1      1598 1.27107E-02 2.67492E-04-1.07946E-13
 -1      1599 1.25652E-02 2.76158E-04-1.05596E-13
 -1      1600 1.25592E-02 2.45057E-04-1.05544E-13
 -1      1601 1.30005E-02 2.49601E-04-1.12680E-13
 -1      1602 1.28558E-02 2.58645E-04-1.10308E-13
 -1      1603 1.28499E-02 2.27785E-04-1.10255E-13
 -1      1604 1.32888E-02 2.30878E-04-1.17448E-13
 -1      1605 1.31448E-02 2.40347E-04-1.15060E-13
 -1      1606 1.31390E-02 2.09679E-04-1.15004E-13
 -1      1607 1.35760E-02 2.11298E-04-1.22257E-13
 -1      1608 1.34325E-02 2.21193E-04-1.19847E-13
 -1      1609 1.34269E-02 1.90677E-04-1.19791E-13
 -1      1610 1.38625E-02 1.90899E-04-1.27102E-13
 -1      1611 1.37193E-02 2.01196E-04-1.24675E-13
 -1      1612 1.37139E-02 1.70795E-04-1.24614E-13
 -1      1613 1.41486E-02 1.69762E-04-1.31993E-13
 -1      1614 1.40056E-02 1.80416E-04-1.29541E-13
 -1      1615 1.40003E-02 1.50099E-04-1.29479E-13
 -1      1616 1.44344E-02 1.48004E-04-1.36927E-13
 -1      1617 1.42915E-02 1.58951E-04-1.34454E-13
 -1      1618 1.42863E-02 1.28692E-04-1.34388E-13
 -1      1619 1.47201E-02 1.25807E-04-1.41881E-13
 -1      1620 1.45772E-02 1.36946E-04-1.39403E-13
 -1      1621 1.45722E-02 1.06720E-04-1.39330E-13
 -1      1622 1.48717E-02 1.03275E-04-1.44522E-13
 -1      1623 1.49112E-02-3.04624E-06-1.45262E-13
 -1      1624 1.49002E-02 3.91040E-05-1.45049E-13
 -1      1625 1.49335E-02-8.72899E-05-1.45671E-13
 -1      1626 1.49223E-02-4.51828E-05-1.45470E-13
 -1      1627 1.47930E-02-1.43737E-05-1.43213E-13
 -1      1628 1.49563E-02-1.71368E-04-1.46049E-13
 -1      1629 1.49448E-02-1.29356E-04-1.45863E-13
 -1      1630 1.48155E-02-9.84898E-05-1.43615E-13
 -1      1631 1.49794E-02-2.55198E-04-1.46419E-13
 -1      1632 1.49678E-02-2.13318E-04-1.46236E-13
 -1      1633 1.48384E-02-1.82400E-04-1.44001E-13
 -1      1634 1.50025E-02-3.37328E-04-1.46781E-13
 -1      1635 1.49909E-02-2.96298E-04-1.46598E-13
 -1      1636 1.48615E-02-2.65344E-04-1.44373E-13
 -1      1637 1.50260E-02-4.20608E-04-1.47155E-13
 -1      1638 1.50142E-02-3.78999E-04-1.46967E-13
 -1      1639 1.48848E-02-3.48025E-04-1.44742E-13
 -1      1640 1.50495E-02-5.03690E-04-1.47532E-13
 -1      1641 1.50378E-02-4.62168E-04-1.47342E-13
 -1      1642 1.49083E-02-4.31180E-04-1.45113E-13
 -1      1643 1.50729E-02-5.86680E-04-1.47917E-13
 -1      1644 1.50612E-02-5.45189E-04-1.47724E-13
 -1      1645 1.49318E-02-5.14177E-04-1.45489E-13
 -1      1646 1.50962E-02-6.69705E-04-1.48305E-13
 -1      1647 1.50846E-02-6.28181E-04-1.48111E-13
 -1      1648 1.49552E-02-5.97118E-04-1.45868E-13
 -1      1649 1.51193E-02-7.52882E-04-1.48697E-13
 -1      1650 1.51078E-02-7.11268E-04-1.48501E-13
 -1      1651 1.49784E-02-6.80118E-04-1.46245E-13
 -1      1652 1.51422E-02-8.34887E-04-1.49085E-13
 -1      1653 1.51307E-02-7.93852E-04-1.48894E-13
 -1      1654 1.50014E-02-7.62573E-04-1.46621E-13
 -1      1655 1.51656E-02-9.18589E-04-1.49457E-13
 -1      1656 1.51539E-02-8.76702E-04-1.49275E-13
 -1      1657 1.50244E-02-8.45260E-04-1.46987E-13
 -1      1658 1.51894E-02-1.00257E-03-1.49784E-13
 -1      1659 1.51774E-02-9.60546E-04-1.49628E-13
 -1      1660 1.50479E-02-9.28923E-04-1.47330E-13
 -1      1661 1.52136E-02-1.08675E-03-1.50078E-13
 -1      1662 1.52014E-02-1.04464E-03-1.49934E-13
 -1      1663 1.50717E-02-1.01284E-03-1.47641E-13
 -1      1664 1.51941E-02-1.15899E-03-1.49569E-13
 -1      1665 1.51817E-02-1.11685E-03-1.49436E-13
 -1      1666 1.50519E-02-1.08493E-03-1.47144E-13
 -1      1667 1.49882E-02-1.14504E-03-1.45856E-13
 -1      1668 9.96997E-03-8.95635E-05-5.20167E-14
 -1      1669 1.00059E-02-1.34794E-04-5.21581E-14
 -1      1670 9.79189E-03 2.34331E-05-5.14570E-14
 -1      1671 9.89115E-03-3.32449E-05-5.17869E-14
 -1      1672 9.50594E-03 1.67028E-04-5.04861E-14
 -1      1673 9.64796E-03 9.75082E-05-5.09705E-14
 -1      1674 9.16228E-03 3.38000E-04-4.91852E-14
 -1      1675 9.32804E-03 2.59083E-04-4.97982E-14
 -1      1676 8.75304E-03 5.15424E-04-4.76503E-14
 -1      1677 8.94217E-03 4.29198E-04-4.84232E-14
 -1      1678 8.34965E-03 6.76326E-04-4.58441E-14
 -1      1679 8.53572E-03 6.08693E-04-4.66712E-14
 -1      1680 7.95964E-03 7.71407E-04-4.40312E-14
 -1      1681 8.13586E-03 7.36889E-04-4.48613E-14
 -1      1682 7.57655E-03 7.86468E-04-4.22148E-14
 -1      1683 7.75099E-03 7.91227E-04-4.30416E-14
 -1      1684 7.18922E-03 7.14088E-04-4.05000E-14
 -1      1685 7.36653E-03 7.56489E-04-4.12719E-14
 -1      1686 6.79893E-03 5.79161E-04-3.89513E-14
 -1      1687 6.97863E-03 6.47738E-04-3.96383E-14
 -1      1688 6.41673E-03 4.19716E-04-3.76855E-14
 -1      1689 6.58755E-03 4.95479E-04-3.82447E-14
 -1      1690 6.07431E-03 2.61236E-04-3.66768E-14
 -1      1691 6.22721E-03 3.33063E-04-3.71072E-14
 -1      1692 5.77455E-03 1.14514E-04-3.59145E-14
 -1      1693 5.90557E-03 1.80856E-04-3.62364E-14
 -1      1694 5.57906E-03-1.15925E-05-3.54029E-14
 -1      1695 5.65473E-03 3.86634E-05-3.55586E-14
 -1      1696 5.52044E-03-1.08416E-04-3.53637E-14
 -1      1697 5.52934E-03-6.47201E-05-3.53545E-14
 -1      1698 5.60906E-03-2.10305E-04-3.56170E-14
 -1      1699 5.54957E-03-1.61454E-04-3.54369E-14
 -1      1700 5.81876E-03-3.40798E-04-3.63022E-14
 -1      1701 5.70934E-03-2.80794E-04-3.59838E-14
 -1      1702 6.11179E-03-4.89333E-04-3.71769E-14
 -1      1703 5.96805E-03-4.17541E-04-3.67423E-14
 -1      1704 6.45801E-03-6.58540E-04-3.83000E-14
 -1      1705 6.29288E-03-5.78402E-04-3.77518E-14
 -1      1706 6.85982E-03-8.34620E-04-3.96717E-14
 -1      1707 6.67529E-03-7.50192E-04-3.89816E-14
 -1      1708 7.23385E-03-9.82115E-04-4.12600E-14
 -1      1709 7.06077E-03-9.21950E-04-4.05413E-14
 -1      1710 7.62694E-03-1.07162E-03-4.29840E-14
 -1      1711 7.44844E-03-1.03976E-03-4.21570E-14
 -1      1712 7.99207E-03-1.07207E-03-4.46943E-14
 -1      1713 7.82764E-03-1.08039E-03-4.39290E-14
 -1      1714 8.36007E-03-9.98117E-04-4.63978E-14
 -1      1715 8.18759E-03-1.04284E-03-4.56163E-14
 -1      1716 8.74116E-03-8.56976E-04-4.80791E-14
 -1      1717 8.56348E-03-9.28783E-04-4.73312E-14
 -1      1718 9.12040E-03-6.96937E-04-4.94565E-14
 -1      1719 8.95480E-03-7.72899E-04-4.88357E-14
 -1      1720 9.44980E-03-5.39673E-04-5.06002E-14
 -1      1721 9.30309E-03-6.10627E-04-5.01108E-14
 -1      1722 9.73414E-03-3.97330E-04-5.14835E-14
 -1      1723 9.60978E-03-4.61096E-04-5.11100E-14
 -1      1724 9.93000E-03-2.80660E-04-5.20362E-14
 -1      1725 9.85235E-03-3.31052E-04-5.18277E-14
 -1      1726 1.00120E-02-1.85104E-04-5.22187E-14
 -1      1727 9.98879E-03-2.27217E-04-5.21818E-14
 -1      1728 8.98559E-03 3.44595E-04-4.92372E-14
 -1      1729 9.37401E-03 1.57442E-04-5.07050E-14
 -1      1730 1.48667E-02 7.30478E-05-1.44451E-13
 -1      1731 1.47485E-02 6.16605E-05-1.42407E-13
 -1      1732 9.93096E-03-9.31457E-05-5.26285E-14
 -1      1733 9.70104E-03 6.71740E-06-5.18991E-14
 -1      1734 1.00183E-02-1.62765E-04-5.29222E-14
 -1      1735 8.58192E-03 5.47047E-04-4.74783E-14
 -1      1736 8.19826E-03 7.17623E-04-4.55055E-14
 -1      1737 7.83970E-03 8.07164E-04-4.35284E-14
 -1      1738 7.49560E-03 7.94475E-04-4.16003E-14
 -1      1739 7.13426E-03 6.85060E-04-3.98074E-14
 -1      1740 6.75644E-03 5.16481E-04-3.82554E-14
 -1      1741 6.37637E-03 3.34165E-04-3.69869E-14
 -1      1742 6.02110E-03 1.68197E-04-3.59825E-14
 -1      1743 5.72522E-03 3.14324E-05-3.51982E-14
 -1      1744 5.54786E-03-5.67960E-05-3.48033E-14
 -1      1745 5.52623E-03-1.22379E-04-3.48293E-14
 -1      1746 5.66236E-03-2.01646E-04-3.52621E-14
 -1      1747 5.92038E-03-3.23852E-04-3.60573E-14
 -1      1748 6.25266E-03-4.81553E-04-3.70568E-14
 -1      1749 6.63635E-03-6.70218E-04-3.82974E-14
 -1      1750 7.01846E-03-8.67586E-04-3.98321E-14
 -1      1751 7.38907E-03-1.02644E-03-4.15901E-14
 -1      1752 7.73053E-03-1.10255E-03-4.34289E-14
 -1      1753 8.06792E-03-1.07928E-03-4.52994E-14
 -1      1754 8.41155E-03-9.66757E-04-4.71647E-14
 -1      1755 8.78130E-03-7.93833E-04-4.88692E-14
 -1      1756 9.15550E-03-6.11554E-04-5.02929E-14
 -1      1757 9.49455E-03-4.47418E-04-5.14701E-14
 -1      1758 9.77843E-03-3.18571E-04-5.23356E-14
 -1      1759 9.96233E-03-2.28706E-04-5.28341E-14
 -1      1760 2.84589E-04-1.75412E-04-5.78693E-17
 -1      1761 3.32341E-04-1.15528E-04-1.86808E-16
 -1      1762 3.36336E-04-1.31740E-04-1.75519E-16
 -1      1763 3.42140E-04-1.50759E-04-1.61614E-16
 -1      1764 3.51502E-04-1.72782E-04-1.41963E-16
 -1      1765 4.58337E-04-1.86205E-04-2.54788E-16
 -1      1766 3.24893E-04-6.42889E-05-2.08411E-16
 -1      1767 3.26035E-04-7.55008E-05-2.05416E-16
 -1      1768 3.23384E-04-4.30444E-05-2.12002E-16
 -1      1769 3.24049E-04-5.33951E-05-2.10579E-16
 -1      1770 4.36896E-04-7.78274E-05-3.09499E-16
 -1      1771 3.22570E-04-2.32696E-05-2.12504E-16
 -1      1772 3.22916E-04-3.30010E-05-2.12531E-16
 -1      1773 4.34846E-04-5.02519E-05-3.13077E-16
 -1      1774 3.22258E-04-4.23643E-06-2.10782E-16
 -1      1775 3.22361E-04-1.36832E-05-2.11962E-16
 -1      1776 4.33773E-04-2.43651E-05-3.12887E-16
 -1      1777 3.22384E-04 1.46685E-05-2.07015E-16
 -1      1778 3.22265E-04 5.21144E-06-2.09305E-16
 -1      1779 4.33453E-04 7.49506E-07-3.09851E-16
 -1      1780 3.22974E-04 3.40406E-05-2.00957E-16
 -1      1781 3.22609E-04 2.42761E-05-2.04250E-16
 -1      1782 4.33828E-04 2.58938E-05-3.03644E-16
 -1      1783 3.24128E-04 5.41828E-05-1.91863E-16
 -1      1784 3.23454E-04 4.39567E-05-1.96891E-16
 -1      1785 4.34953E-04 5.16481E-05-2.93805E-16
 -1      1786 3.26183E-04 7.66370E-05-1.78771E-16
 -1      1787 3.24992E-04 6.51407E-05-1.86225E-16
 -1      1788 4.37059E-04 7.91340E-05-2.79995E-16
 -1      1789 3.29803E-04 1.02388E-04-1.59649E-16
 -1      1790 3.27701E-04 8.90680E-05-1.70423E-16
 -1      1791 4.40712E-04 1.09843E-04-2.60114E-16
 -1      1792 3.36657E-04 1.33845E-04-1.31473E-16
 -1      1793 3.32583E-04 1.17338E-04-1.47357E-16
 -1      1794 4.47082E-04 1.45488E-04-2.31369E-16
 -1      1795 3.52032E-04 1.76362E-04-8.97448E-17
 -1      1796 3.42738E-04 1.53507E-04-1.12893E-16
 -1      1797 4.59340E-04 1.89584E-04-1.89586E-16
 -1      1798 4.06997E-04 2.32273E-04-5.96176E-17
 -1      1799 3.77646E-04 2.01338E-04-7.91332E-17
 -1      1800 4.95466E-04 2.42029E-04-1.51599E-16
 -1      1801 5.57633E-04 3.00320E-04-1.20062E-16
 -1      1802 3.39506E-04-1.89798E-04-1.02701E-16
 -1      1803 8.52373E-04 4.03088E-04-3.42106E-16
 -1      1804 7.06084E-04 3.56322E-04-2.14686E-16
 -1      1805 6.72659E-04 3.25880E-04-2.34798E-16
 -1      1806 4.58453E-04-2.34996E-04-1.84287E-16
 -1      1807 8.06376E-04-3.70318E-04-4.95779E-16
 -1      1808 9.51614E-04-4.10426E-04-6.94215E-16
 -1      1809 1.09449E-03-4.43906E-04-9.28931E-16
 -1      1810 1.23628E-03-4.71462E-04-1.20104E-15
 -1      1811 1.00359E-03-3.92472E-04-8.52861E-16
 -1      1812 1.37689E-03-4.94450E-04-1.50967E-15
 -1      1813 1.51690E-03-5.13165E-04-1.85499E-15
 -1      1814 1.28958E-03-4.47727E-04-1.40347E-15
 -1      1815 1.65650E-03-5.28497E-04-2.23649E-15
 -1      1816 1.79593E-03-5.40686E-04-2.65422E-15
 -1      1817 1.57264E-03-4.85319E-04-2.09888E-15
 -1      1818 1.93541E-03-5.50310E-04-3.10749E-15
 -1      1819 2.07504E-03-5.57575E-04-3.59677E-15
 -1      1820 1.85439E-03-5.09735E-04-2.93746E-15
 -1      1821 2.21498E-03-5.62872E-04-4.12196E-15
 -1      1822 2.35530E-03-5.66380E-04-4.68169E-15
 -1      1823 2.13608E-03-5.24198E-04-3.91806E-15
 -1      1824 2.49612E-03-5.68374E-04-5.27626E-15
 -1      1825 2.63750E-03-5.69012E-04-5.90606E-15
 -1      1826 2.41860E-03-5.31069E-04-5.03845E-15
 -1      1827 2.77952E-03-5.68496E-04-6.56999E-15
 -1      1828 2.92226E-03-5.66971E-04-7.26676E-15
 -1      1829 2.70263E-03-5.32139E-04-6.29627E-15
 -1      1830 3.06578E-03-5.64597E-04-7.99778E-15
 -1      1831 3.21016E-03-5.61517E-04-8.76109E-15
 -1      1832 2.98874E-03-5.28828E-04-7.68979E-15
 -1      1833 3.35545E-03-5.57878E-04-9.55719E-15
 -1      1834 3.50178E-03-5.53836E-04-1.03866E-14
 -1      1835 3.27743E-03-5.22354E-04-9.21470E-15
 -1      1836 3.64917E-03-5.49554E-04-1.12478E-14
 -1      1837 3.79778E-03-5.45215E-04-1.21410E-14
 -1      1838 3.56923E-03-5.13893E-04-1.08698E-14
 -1      1839 3.94762E-03-5.41034E-04-1.30656E-14
 -1      1840 4.09887E-03-5.37242E-04-1.40213E-14
 -1      1841 3.86469E-03-5.04760E-04-1.26532E-14
 -1      1842 4.25154E-03-5.34144E-04-1.50083E-14
 -1      1843 4.40583E-03-5.32045E-04-1.60253E-14
 -1      1844 4.16443E-03-4.96617E-04-1.45622E-14
 -1      1845 4.56173E-03-5.31387E-04-1.70718E-14
 -1      1846 4.71943E-03-5.32571E-04-1.81481E-14
 -1      1847 4.46914E-03-4.91716E-04-1.65932E-14
 -1      1848 4.87894E-03-5.36216E-04-1.92552E-14
 -1      1849 5.04035E-03-5.42850E-04-2.03916E-14
 -1      1850 4.77962E-03-4.93173E-04-1.87436E-14
 -1      1851 5.20376E-03-5.53275E-04-2.15577E-14
 -1      1852 5.36902E-03-5.68155E-04-2.27539E-14
 -1      1853 5.09670E-03-5.05233E-04-2.10124E-14
 -1      1854 5.53640E-03-5.88409E-04-2.39812E-14
 -1      1855 5.70535E-03-6.14785E-04-2.52375E-14
 -1      1856 5.42127E-03-5.33404E-04-2.34015E-14
 -1      1857 5.87638E-03-6.48107E-04-2.65238E-14
 -1      1858 6.04835E-03-6.89020E-04-2.78403E-14
 -1      1859 5.75410E-03-5.84192E-04-2.59111E-14
 -1      1860 6.22201E-03-7.37834E-04-2.91874E-14
 -1      1861 6.39554E-03-7.94609E-04-3.05651E-14
 -1      1862 6.09536E-03-6.63982E-04-2.85392E-14
 -1      1863 6.56974E-03-8.58516E-04-3.19742E-14
 -1      1864 6.74239E-03-9.28340E-04-3.34170E-14
 -1      1865 6.44362E-03-7.76269E-04-3.12901E-14
 -1      1866 6.91395E-03-1.00157E-03-3.48932E-14
 -1      1867 7.08259E-03-1.07489E-03-3.64025E-14
 -1      1868 6.79453E-03-9.16768E-04-3.41684E-14
 -1      1869 7.24805E-03-1.14423E-03-3.79455E-14
 -1      1870 7.41048E-03-1.20483E-03-3.95220E-14
 -1      1871 7.14053E-03-1.06718E-03-3.71811E-14
 -1      1872 7.56886E-03-1.25240E-03-4.11347E-14
 -1      1873 7.72596E-03-1.28278E-03-4.27811E-14
 -1      1874 7.47463E-03-1.19349E-03-4.03302E-14
 -1      1875 7.88037E-03-1.29379E-03-4.44627E-14
 -1      1876 8.03678E-03-1.28483E-03-4.61782E-14
 -1      1877 7.79698E-03-1.25729E-03-4.36187E-14
 -1      1878 8.19369E-03-1.25724E-03-4.79302E-14
 -1      1879 8.35452E-03-1.21449E-03-4.97147E-14
 -1      1880 8.11777E-03-1.23749E-03-4.70497E-14
 -1      1881 8.51815E-03-1.16058E-03-5.15307E-14
 -1      1882 8.68538E-03-1.10035E-03-5.33806E-14
 -1      1883 8.44846E-03-1.14704E-03-5.06160E-14
 -1      1884 8.85574E-03-1.03813E-03-5.52598E-14
 -1      1885 9.02777E-03-9.77724E-04-5.71676E-14
 -1      1886 8.79203E-03-1.02220E-03-5.43121E-14
 -1      1887 9.20175E-03-9.22086E-04-5.91036E-14
 -1      1888 9.37549E-03-8.72929E-04-6.10636E-14
 -1      1889 9.14267E-03-8.99800E-04-5.81258E-14
 -1      1890 9.54972E-03-8.31474E-04-6.30471E-14
 -1      1891 9.72250E-03-7.97915E-04-6.50542E-14
 -1      1892 9.49245E-03-8.02322E-04-6.20412E-14
 -1      1893 9.89460E-03-7.72174E-04-6.70836E-14
 -1      1894 1.00647E-02-7.53695E-04-6.91327E-14
 -1      1895 9.83615E-03-7.37135E-04-6.60505E-14
 -1      1896 1.02335E-02-7.41739E-04-7.12023E-14
 -1      1897 1.04001E-02-7.35562E-04-7.32919E-14
 -1      1898 1.01717E-02-7.02193E-04-7.01442E-14
 -1      1899 1.05651E-02-7.34242E-04-7.54000E-14
 -1      1900 1.07281E-02-7.37092E-04-7.75290E-14
 -1      1901 1.04991E-02-6.91510E-04-7.43178E-14
 -1      1902 1.08892E-02-7.43274E-04-7.96770E-14
 -1      1903 1.10486E-02-7.52237E-04-8.18407E-14
 -1      1904 1.08190E-02-6.98479E-04-7.85678E-14
 -1      1905 1.12063E-02-7.63326E-04-8.40240E-14
 -1      1906 1.13625E-02-7.76125E-04-8.62276E-14
 -1      1907 1.11324E-02-7.17346E-04-8.28947E-14
 -1      1908 1.15171E-02-7.90170E-04-8.84467E-14
 -1      1909 1.16704E-02-8.05160E-04-9.06851E-14
 -1      1910 1.14402E-02-7.43646E-04-8.72933E-14
 -1      1911 1.18223E-02-8.20791E-04-9.29403E-14
 -1      1912 1.19733E-02-8.36850E-04-9.52091E-14
 -1      1913 1.17433E-02-7.74161E-04-9.17631E-14
 -1      1914 1.21231E-02-8.53152E-04-9.74941E-14
 -1      1915 1.22720E-02-8.69551E-04-9.97961E-14
 -1      1916 1.20425E-02-8.06692E-04-9.62991E-14
 -1      1917 1.24201E-02-8.85944E-04-1.02117E-13
 -1      1918 1.25674E-02-9.02234E-04-1.04454E-13
 -1      1919 1.23385E-02-8.39809E-04-1.00899E-13
 -1      1920 1.27141E-02-9.18373E-04-1.06810E-13
 -1      1921 1.28602E-02-9.34300E-04-1.09183E-13
 -1      1922 1.26319E-02-8.72637E-04-1.05569E-13
 -1      1923 1.30058E-02-9.50000E-04-1.11573E-13
 -1      1924 1.31509E-02-9.65435E-04-1.13978E-13
 -1      1925 1.29232E-02-9.04680E-04-1.10309E-13
 -1      1926 1.32957E-02-9.80615E-04-1.16399E-13
 -1      1927 1.34401E-02-9.95516E-04-1.18834E-13
 -1      1928 1.32130E-02-9.35697E-04-1.15113E-13
 -1      1929 1.35842E-02-1.01016E-03-1.21284E-13
 -1      1930 1.37281E-02-1.02453E-03-1.23743E-13
 -1      1931 1.35015E-02-9.65609E-04-1.19977E-13
 -1      1932 1.38718E-02-1.03866E-03-1.26213E-13
 -1      1933 1.40153E-02-1.05254E-03-1.28695E-13
 -1      1934 1.37892E-02-9.94436E-04-1.24891E-13
 -1      1935 1.41587E-02-1.06620E-03-1.31189E-13
 -1      1936 1.43019E-02-1.07964E-03-1.33693E-13
 -1      1937 1.40761E-02-1.02226E-03-1.29847E-13
 -1      1938 1.44451E-02-1.09289E-03-1.36209E-13
 -1      1939 1.45881E-02-1.10596E-03-1.38735E-13
 -1      1940 1.43626E-02-1.04919E-03-1.34851E-13
 -1      1941 1.47167E-02-1.11921E-03-1.41012E-13
 -1      1942 1.48597E-02-1.13200E-03-1.43560E-13
 -1      1943 1.48915E-02-1.10197E-03-1.44204E-13
 -1      1944 1.46343E-02-1.07568E-03-1.39637E-13
 -1      1945 1.13740E-03 4.73757E-04-6.95638E-16
 -1      1946 9.95605E-04 4.41714E-04-5.01769E-16
 -1      1947 9.63645E-04 4.12400E-04-5.25228E-16
 -1      1948 1.41682E-03 5.22401E-04-1.18586E-15
 -1      1949 1.27746E-03 5.00443E-04-9.23537E-16
 -1      1950 1.24830E-03 4.72458E-04-9.48501E-16
 -1      1951 1.69397E-03 5.55215E-04-1.81334E-15
 -1      1952 1.55549E-03 5.40545E-04-1.48228E-15
 -1      1953 1.52912E-03 5.13532E-04-1.50781E-15
 -1      1954 1.97095E-03 5.76281E-04-2.57917E-15
 -1      1955 1.83238E-03 5.67047E-04-2.17889E-15
 -1      1956 1.80841E-03 5.40672E-04-2.20440E-15
 -1      1957 2.24907E-03 5.88481E-04-3.48410E-15
 -1      1958 2.10981E-03 5.83362E-04-3.01430E-15
 -1      1959 2.08776E-03 5.57379E-04-3.03849E-15
 -1      1960 2.52918E-03 5.93965E-04-4.52657E-15
 -1      1961 2.38883E-03 5.91962E-04-3.98828E-15
 -1      1962 2.36822E-03 5.66191E-04-4.01056E-15
 -1      1963 2.81191E-03 5.94414E-04-5.70606E-15
 -1      1964 2.67018E-03 5.94734E-04-5.09904E-15
 -1      1965 2.65054E-03 5.69036E-04-5.11906E-15
 -1      1966 3.09781E-03 5.91230E-04-7.01908E-15
 -1      1967 2.95443E-03 5.93198E-04-6.34616E-15
 -1      1968 2.93530E-03 5.67456E-04-6.36250E-15
 -1      1969 3.38737E-03 5.85696E-04-8.46260E-15
 -1      1970 3.24209E-03 5.88677E-04-7.72474E-15
 -1      1971 3.22299E-03 5.62777E-04-7.73791E-15
 -1      1972 3.68112E-03 5.79130E-04-1.00346E-14
 -1      1973 3.53368E-03 5.82453E-04-9.23240E-15
 -1      1974 3.51412E-03 5.56272E-04-9.24238E-15
 -1      1975 3.97958E-03 5.73048E-04-1.17344E-14
 -1      1976 3.82971E-03 5.75922E-04-1.08682E-14
 -1      1977 3.80917E-03 5.49319E-04-1.08739E-14
 -1      1978 4.28326E-03 5.69333E-04-1.35635E-14
 -1      1979 4.13072E-03 5.70764E-04-1.26330E-14
 -1      1980 4.10864E-03 5.43566E-04-1.26347E-14
 -1      1981 4.59255E-03 5.70377E-04-1.55220E-14
 -1      1982 4.43717E-03 5.69101E-04-1.45267E-14
 -1      1983 4.41300E-03 5.41095E-04-1.45246E-14
 -1      1984 4.90761E-03 5.79185E-04-1.76096E-14
 -1      1985 4.74936E-03 5.73627E-04-1.65492E-14
 -1      1986 4.72261E-03 5.44565E-04-1.65418E-14
 -1      1987 5.22816E-03 5.99307E-04-1.98246E-14
 -1      1988 5.06725E-03 5.87640E-04-1.87019E-14
 -1      1989 5.03761E-03 5.57257E-04-1.86892E-14
 -1      1990 5.55325E-03 6.34476E-04-2.21644E-14
 -1      1991 5.39027E-03 6.14854E-04-2.09787E-14
 -1      1992 5.35779E-03 5.82922E-04-2.09609E-14
 -1      1993 5.88102E-03 6.87719E-04-2.46308E-14
 -1      1994 5.71704E-03 6.58793E-04-2.33821E-14
 -1      1995 5.68228E-03 6.25237E-04-2.33588E-14
 -1      1996 6.20858E-03 7.59779E-04-2.72223E-14
 -1      1997 6.04517E-03 7.21577E-04-2.59108E-14
 -1      1998 6.00939E-03 6.86645E-04-2.58824E-14
 -1      1999 6.53214E-03 8.46950E-04-2.99414E-14
 -1      2000 6.37126E-03 8.02001E-04-2.85653E-14
 -1      2001 6.33636E-03 7.66466E-04-2.85310E-14
 -1      2002 6.84776E-03 9.39070E-04-3.27909E-14
 -1      2003 6.69127E-03 8.93297E-04-3.13498E-14
 -1      2004 6.65947E-03 8.58529E-04-3.13073E-14
 -1      2005 7.15286E-03 1.01943E-03-3.57738E-14
 -1      2006 7.00170E-03 9.81851E-04-3.42665E-14
 -1      2007 6.97493E-03 9.49523E-04-3.42160E-14
 -1      2008 7.44804E-03 1.06839E-03-3.88903E-14
 -1      2009 7.30138E-03 1.04880E-03-3.73143E-14
 -1      2010 7.28071E-03 1.02018E-03-3.72556E-14
 -1      2011 7.73782E-03 1.07061E-03-4.21343E-14
 -1      2012 7.59296E-03 1.07568E-03-4.04963E-14
 -1      2013 7.57851E-03 1.05086E-03-4.04295E-14
 -1      2014 8.02925E-03 1.02221E-03-4.55111E-14
 -1      2015 7.88263E-03 1.05226E-03-4.38070E-14
 -1      2016 7.87397E-03 1.03003E-03-4.37350E-14
 -1      2017 8.32860E-03 9.32792E-04-4.90069E-14
 -1      2018 8.17749E-03 9.81566E-04-4.72440E-14
 -1      2019 8.17400E-03 9.60113E-04-4.71667E-14
 -1      2020 8.63867E-03 8.20604E-04-5.26247E-14
 -1      2021 8.48221E-03 8.78377E-04-5.08010E-14
 -1      2022 8.48311E-03 8.56247E-04-5.07189E-14
 -1      2023 8.95848E-03 7.04684E-04-5.63497E-14
 -1      2024 8.79757E-03 7.62230E-04-5.44740E-14
 -1      2025 8.80163E-03 7.38766E-04-5.43865E-14
 -1      2026 9.28465E-03 5.99011E-04-6.01839E-14
 -1      2027 9.12111E-03 6.50113E-04-5.82535E-14
 -1      2028 9.12673E-03 6.25321E-04-5.81632E-14
 -1      2029 9.61322E-03 5.10688E-04-6.41114E-14
 -1      2030 9.44898E-03 5.52585E-04-6.21359E-14
 -1      2031 9.45451E-03 5.26784E-04-6.20403E-14
 -1      2032 9.94081E-03 4.41159E-04-6.81250E-14
 -1      2033 9.77741E-03 4.73694E-04-6.61087E-14
 -1      2034 9.78157E-03 4.47254E-04-6.60080E-14
 -1      2035 1.02651E-02 3.88440E-04-7.22224E-14
 -1      2036 1.01035E-02 4.12908E-04-7.01644E-14
 -1      2037 1.01056E-02 3.86142E-04-7.00627E-14
 -1      2038 1.05846E-02 3.49083E-04-7.63988E-14
 -1      2039 1.04255E-02 3.67312E-04-7.43001E-14
 -1      2040 1.04251E-02 3.40450E-04-7.41980E-14
 -1      2041 1.08990E-02 3.19444E-04-8.06542E-14
 -1      2042 1.07425E-02 3.33240E-04-7.85166E-14
 -1      2043 1.07398E-02 3.06445E-04-7.84121E-14
 -1      2044 1.12081E-02 2.96322E-04-8.49866E-14
 -1      2045 1.10542E-02 3.07218E-04-8.28094E-14
 -1      2046 1.10495E-02 2.80591E-04-8.27015E-14
 -1      2047 1.15126E-02 2.77187E-04-8.93935E-14
 -1      2048 1.13609E-02 2.86365E-04-8.71820E-14
 -1      2049 1.13546E-02 2.59964E-04-8.70680E-14
 -1      2050 1.18128E-02 2.60176E-04-9.38829E-14
 -1      2051 1.16632E-02 2.68491E-04-9.16285E-14
 -1      2052 1.16557E-02 2.42338E-04-9.15113E-14
 -1      2053 1.21095E-02 2.43999E-04-9.84443E-14
 -1      2054 1.19616E-02 2.52031E-04-9.61525E-14
 -1      2055 1.19532E-02 2.26128E-04-9.60330E-14
 -1      2056 1.24034E-02 2.27814E-04-1.03077E-13
 -1      2057 1.22568E-02 2.35936E-04-1.00753E-13
 -1      2058 1.22479E-02 2.10266E-04-1.00626E-13
 -1      2059 1.26950E-02 2.11112E-04-1.07762E-13
 -1      2060 1.25494E-02 2.19543E-04-1.05414E-13
 -1      2061 1.25402E-02 1.94081E-04-1.05285E-13
 -1      2062 1.29848E-02 1.93618E-04-1.12492E-13
 -1      2063 1.28401E-02 2.02470E-04-1.10123E-13
 -1      2064 1.28306E-02 1.77189E-04-1.09989E-13
 -1      2065 1.32733E-02 1.75215E-04-1.17257E-13
 -1      2066 1.31292E-02 1.84530E-04-1.14871E-13
 -1      2067 1.31196E-02 1.59402E-04-1.14736E-13
 -1      2068 1.35608E-02 1.55887E-04-1.22060E-13
 -1      2069 1.34171E-02 1.65663E-04-1.19654E-13
 -1      2070 1.34075E-02 1.40661E-04-1.19517E-13
 -1      2071 1.38475E-02 1.35682E-04-1.26900E-13
 -1      2072 1.37042E-02 1.45888E-04-1.24474E-13
 -1      2073 1.36947E-02 1.20988E-04-1.24334E-13
 -1      2074 1.41338E-02 1.14687E-04-1.31785E-13
 -1      2075 1.39907E-02 1.25276E-04-1.29337E-13
 -1      2076 1.39812E-02 1.00456E-04-1.29193E-13
 -1      2077 1.44198E-02 9.30258E-05-1.36708E-13
 -1      2078 1.42769E-02 1.03931E-04-1.34242E-13
 -1      2079 1.42674E-02 7.91715E-05-1.34095E-13
 -1      2080 1.46556E-02 7.18435E-05-1.40792E-13
 -1      2081 1.45127E-02 8.29401E-05-1.38315E-13
 -1      2082 1.45033E-02 5.82164E-05-1.38167E-13
 -1      2083 1.46891E-02 3.79331E-05-1.41387E-13
 -1      2084 1.47205E-02-1.93477E-04-1.41959E-13
 -1      2085 1.47089E-02-1.51633E-04-1.41765E-13
 -1      2086 1.46974E-02-1.09717E-04-1.41567E-13
 -1      2087 1.46861E-02-6.77453E-05-1.41370E-13
 -1      2088 1.45795E-02-1.20995E-04-1.39527E-13
 -1      2089 1.46931E-02-3.59701E-05-1.41486E-13
 -1      2090 1.46819E-02 6.09550E-06-1.41277E-13
 -1      2091 1.45890E-02 1.62558E-05-1.39665E-13
 -1      2092 1.45750E-02-4.73393E-05-1.39441E-13
 -1      2093 1.47435E-02-2.75548E-04-1.42329E-13
 -1      2094 1.47320E-02-2.34547E-04-1.42144E-13
 -1      2095 1.46025E-02-2.03894E-04-1.39915E-13
 -1      2096 1.47671E-02-3.58771E-04-1.42703E-13
 -1      2097 1.47553E-02-3.17190E-04-1.42517E-13
 -1      2098 1.46259E-02-2.86495E-04-1.40289E-13
 -1      2099 1.47907E-02-4.41777E-04-1.43073E-13
 -1      2100 1.47789E-02-4.00295E-04-1.42890E-13
 -1      2101 1.46495E-02-3.69530E-04-1.40663E-13
 -1      2102 1.48142E-02-5.24651E-04-1.43445E-13
 -1      2103 1.48025E-02-4.83222E-04-1.43259E-13
 -1      2104 1.46731E-02-4.52357E-04-1.41030E-13
 -1      2105 1.48375E-02-6.07497E-04-1.43817E-13
 -1      2106 1.48259E-02-5.66068E-04-1.43633E-13
 -1      2107 1.46966E-02-5.35071E-04-1.41397E-13
 -1      2108 1.48607E-02-6.90426E-04-1.44185E-13
 -1      2109 1.48491E-02-6.48943E-04-1.44003E-13
 -1      2110 1.47198E-02-6.17785E-04-1.41761E-13
 -1      2111 1.48834E-02-7.72124E-04-1.44542E-13
 -1      2112 1.48720E-02-7.31248E-04-1.44363E-13
 -1      2113 1.47427E-02-6.99909E-04-1.42115E-13
 -1      2114 1.49066E-02-8.55475E-04-1.44885E-13
 -1      2115 1.48950E-02-8.13766E-04-1.44715E-13
 -1      2116 1.47656E-02-7.82237E-04-1.42453E-13
 -1      2117 1.49301E-02-9.39103E-04-1.45206E-13
 -1      2118 1.49183E-02-8.97256E-04-1.45048E-13
 -1      2119 1.47888E-02-8.65544E-04-1.42777E-13
 -1      2120 1.49540E-02-1.02300E-03-1.45501E-13
 -1      2121 1.49420E-02-9.81024E-04-1.45357E-13
 -1      2122 1.48123E-02-9.49154E-04-1.43082E-13
 -1      2123 9.60994E-03-9.40632E-06-5.25688E-14
 -1      2124 9.75429E-03-6.19220E-05-5.30727E-14
 -1      2125 1.00179E-02-1.57997E-04-5.37840E-14
 -1      2126 1.00244E-02-1.74406E-04-5.38436E-14
 -1      2127 9.89036E-03-1.08668E-04-5.34827E-14
 -1      2128 9.97114E-03-1.33866E-04-5.37202E-14
 -1      2129 9.24412E-03 1.60454E-04-5.10230E-14
 -1      2130 9.41837E-03 7.72467E-05-5.17304E-14
 -1      2131 8.86597E-03 3.54271E-04-4.94590E-14
 -1      2132 9.05900E-03 2.54219E-04-5.02386E-14
 -1      2133 9.13740E-03 1.82889E-04-5.12493E-14
 -1      2134 3.27513E-04-8.77492E-05-2.00998E-16
 -1      2135 3.29576E-04-1.00897E-04-1.94790E-16
 -1      2136 4.46646E-04-1.43292E-04-2.83790E-16
 -1      2137 4.40442E-04-1.08237E-04-3.00554E-16
 -1      2138 8.08504E-03 7.59252E-04-4.51921E-14
 -1      2139 8.24439E-03 6.88387E-04-4.61829E-14
 -1      2140 7.76246E-03 8.33457E-04-4.30734E-14
 -1      2141 7.90774E-03 8.11699E-04-4.40635E-14
 -1      2142 7.42735E-03 7.88495E-04-4.09532E-14
 -1      2143 7.57838E-03 8.23732E-04-4.18884E-14
 -1      2144 7.08795E-03 6.48204E-04-3.90697E-14
 -1      2145 7.24997E-03 7.25925E-04-3.99176E-14
 -1      2146 6.70767E-03 4.48663E-04-3.74197E-14
 -1      2147 6.88344E-03 5.43795E-04-3.81094E-14
 -1      2148 6.32973E-03 2.58600E-04-3.62030E-14
 -1      2149 6.50506E-03 3.47915E-04-3.67670E-14
 -1      2150 5.96522E-03 9.65448E-05-3.52321E-14
 -1      2151 6.13069E-03 1.67423E-04-3.56593E-14
 -1      2152 5.68331E-03-2.02523E-05-3.43222E-14
 -1      2153 5.80911E-03 2.51479E-05-3.46666E-14
 -1      2154 5.51964E-03-7.96947E-05-3.40649E-14
 -1      2155 5.57032E-03-6.09201E-05-3.41081E-14
 -1      2156 5.53786E-03-1.18265E-04-3.41510E-14
 -1      2157 5.50812E-03-1.01794E-04-3.40804E-14
 -1      2158 5.72933E-03-1.96375E-04-3.48914E-14
 -1      2159 5.62381E-03-1.56980E-04-3.45336E-14
 -1      2160 6.01846E-03-3.15152E-04-3.57439E-14
 -1      2161 5.86869E-03-2.53256E-04-3.53172E-14
 -1      2162 6.37874E-03-4.85387E-04-3.68432E-14
 -1      2163 6.20596E-03-3.98989E-04-3.62837E-14
 -1      2164 6.76154E-03-6.88686E-04-3.81750E-14
 -1      2165 6.57452E-03-5.86903E-04-3.75094E-14
 -1      2166 7.16264E-03-9.15812E-04-4.00083E-14
 -1      2167 6.99712E-03-8.18070E-04-3.91501E-14
 -1      2168 7.48184E-03-1.06241E-03-4.17754E-14
 -1      2169 7.32677E-03-9.96366E-04-4.08856E-14
 -1      2170 7.26417E-03-9.57298E-04-4.01881E-14
 -1      2171 7.82126E-03-1.12606E-03-4.39729E-14
 -1      2172 7.67905E-03-1.11377E-03-4.30269E-14
 -1      2173 8.11777E-03-1.07585E-03-4.58776E-14
 -1      2174 7.97505E-03-1.11198E-03-4.49495E-14
 -1      2175 8.45016E-03-9.31515E-04-4.79428E-14
 -1      2176 8.29168E-03-1.01154E-03-4.69982E-14
 -1      2177 8.83939E-03-7.21998E-04-4.98669E-14
 -1      2178 8.66468E-03-8.17840E-04-4.90962E-14
 -1      2179 9.17714E-03-5.46265E-04-5.11982E-14
 -1      2180 9.00785E-03-6.34937E-04-5.05318E-14
 -1      2181 8.89912E-03-6.68987E-04-5.07615E-14
 -1      2182 9.54183E-03-3.72070E-04-5.25631E-14
 -1      2183 9.38598E-03-4.41456E-04-5.20400E-14
 -1      2184 9.82525E-03-2.63326E-04-5.33415E-14
 -1      2185 9.70420E-03-3.08180E-04-5.29869E-14
 -1      2186 9.99193E-03-1.99771E-04-5.37362E-14
 -1      2187 9.92996E-03-2.23589E-04-5.35854E-14
 -1      2188 8.44100E-03 5.91095E-04-4.72974E-14
 -1      2189 8.62242E-03 4.86902E-04-4.82887E-14
 -1      2190 6.07255E-04-2.95585E-04-3.00012E-16
 -1      2191 8.72952E-03 4.08149E-04-4.92748E-14
 -1      2192 8.32080E-03 6.40822E-04-4.69779E-14
 -1      2193 6.63308E-04-2.89444E-04-4.04014E-16
 -1      2194 9.82708E-03-1.04698E-04-5.41553E-14
 -1      2195 1.00029E-02-1.54603E-04-5.46380E-14
 -1      2196 1.49220E-02-1.05298E-03-1.44863E-13
 -1      2197 9.50669E-03 1.02573E-05-5.28877E-14
 -1      2198 1.00167E-02-1.83257E-04-5.45947E-14
 -1      2199 9.88034E-03-2.29974E-04-5.42389E-14
 -1      2200 9.26124E-03-4.78736E-04-5.22804E-14
 -1      2201 8.54566E-03-8.72623E-04-4.89246E-14
 -1      2202 8.19281E-03-1.05257E-03-4.66395E-14
 -1      2203 7.58651E-03-1.09825E-03-4.23049E-14
 -1      2204 6.90094E-03-7.47101E-04-3.83461E-14
 -1      2205 6.49376E-03-5.14515E-04-3.67236E-14
 -1      2206 6.12440E-03-3.33115E-04-3.55333E-14
 -1      2207 5.80337E-03-2.03293E-04-3.45804E-14
 -1      2208 5.57260E-03-1.24497E-04-3.37809E-14
 -1      2209 5.50302E-03-8.96982E-05-3.33873E-14
 -1      2210 5.62022E-03-5.00212E-05-3.35807E-14
 -1      2211 5.89262E-03 4.09225E-05-3.43458E-14
 -1      2212 6.24221E-03 1.93764E-04-3.54419E-14
 -1      2213 6.62495E-03 3.85359E-04-3.66232E-14
 -1      2214 6.99998E-03 5.93600E-04-3.82164E-14
 -1      2215 7.34617E-03 7.63742E-04-4.01985E-14
 -1      2216 7.98584E-03 7.93703E-04-4.47272E-14
 -1      2217 7.67274E-03 8.40122E-04-4.24110E-14
 -1      2218 7.89727E-03-1.13093E-03-4.45383E-14
 -1      2219 9.61864E-03-3.20587E-04-5.35612E-14
 -1      2220 1.01629E-03 3.94269E-04-6.77328E-16
 -1      2221 8.71763E-04 3.59029E-04-4.92214E-16
 -1      2222 5.48079E-04-5.40649E-05-4.45106E-16
 -1      2223 5.49166E-04-7.04777E-05-4.44035E-16
 -1      2224 5.50636E-04-8.75338E-05-4.41596E-16
 -1      2225 5.52543E-04-1.05285E-04-4.37652E-16
 -1      2226 6.65625E-04-9.33694E-05-6.00350E-16
 -1      2227 5.46600E-04 8.65791E-06-4.38262E-16
 -1      2228 5.46581E-04-6.80543E-06-4.41474E-16
 -1      2229 5.47402E-04 3.99454E-05-4.28436E-16
 -1      2230 5.46871E-04 2.42256E-05-4.33979E-16
 -1      2231 6.61431E-04 1.94451E-05-5.91148E-16
 -1      2232 5.49320E-04 7.19435E-05-4.14138E-16
 -1      2233 5.48209E-04 5.57483E-05-4.22066E-16
 -1      2234 6.62846E-04 5.64146E-05-5.77134E-16
 -1      2235 5.52802E-04 1.06925E-04-3.93687E-16
 -1      2236 5.50837E-04 8.90751E-05-4.04800E-16
 -1      2237 6.65854E-04 9.51206E-05-5.56765E-16
 -1      2238 5.58700E-04 1.45938E-04-3.64712E-16
 -1      2239 5.55387E-04 1.25852E-04-3.80514E-16
 -1      2240 6.71079E-04 1.37304E-04-5.28156E-16
 -1      2241 5.68891E-04 1.91377E-04-3.23580E-16
 -1      2242 5.63147E-04 1.67720E-04-3.46010E-16
 -1      2243 6.79756E-04 1.84467E-04-4.88148E-16
 -1      2244 1.30206E-03 4.48509E-04-1.14737E-15
 -1      2245 1.15955E-03 4.23989E-04-8.95361E-16
 -1      2246 1.07191E-03 3.75202E-04-8.37722E-16
 -1      2247 9.15201E-04-3.41547E-04-7.74527E-16
 -1      2248 1.05940E-03-3.73668E-04-1.01766E-15
 -1      2249 8.61382E-03 4.61162E-04-4.92899E-14
 -1      2250 8.82469E-03 3.34092E-04-5.04780E-14
 -1      2251 1.20281E-03-4.00700E-04-1.29633E-15
 -1      2252 1.34584E-03-4.23071E-04-1.61106E-15
 -1      2253 1.11746E-03-3.53905E-04-1.18873E-15
 -1      2254 1.48832E-03-4.41600E-04-1.96112E-15
 -1      2255 1.63050E-03-4.56573E-04-2.34701E-15
 -1      2256 1.40417E-03-3.97667E-04-1.82340E-15
 -1      2257 1.77241E-03-4.68633E-04-2.76798E-15
 -1      2258 1.91421E-03-4.77986E-04-3.22405E-15
 -1      2259 1.68995E-03-4.27190E-04-2.59867E-15
 -1      2260 2.05599E-03-4.85101E-04-3.71492E-15
 -1      2261 2.19783E-03-4.90155E-04-4.24129E-15
 -1      2262 1.97511E-03-4.45681E-04-3.51338E-15
 -1      2263 2.33983E-03-4.93486E-04-4.80131E-15
 -1      2264 2.48204E-03-4.95243E-04-5.39590E-15
 -1      2265 2.26016E-03-4.55664E-04-4.56563E-15
 -1      2266 2.62454E-03-4.95676E-04-6.02498E-15
 -1      2267 2.76738E-03-4.94915E-04-6.68747E-15
 -1      2268 2.54555E-03-4.59099E-04-5.75507E-15
 -1      2269 2.91060E-03-4.93153E-04-7.38309E-15
 -1      2270 3.05429E-03-4.90510E-04-8.11226E-15
 -1      2271 2.83168E-03-4.57521E-04-7.07922E-15
 -1      2272 3.19847E-03-4.87154E-04-8.87394E-15
 -1      2273 3.34322E-03-4.83205E-04-9.66802E-15
 -1      2274 3.11889E-03-4.52191E-04-8.53530E-15
 -1      2275 3.48854E-03-4.78830E-04-1.04945E-14
 -1      2276 3.63457E-03-4.74167E-04-1.13533E-14
 -1      2277 3.40748E-03-4.44239E-04-1.01215E-14
 -1      2278 3.78127E-03-4.69411E-04-1.22434E-14
 -1      2279 3.92881E-03-4.64735E-04-1.31655E-14
 -1      2280 3.69778E-03-4.34820E-04-1.18364E-14
 -1      2281 4.07715E-03-4.60397E-04-1.41178E-14
 -1      2282 4.22648E-03-4.56629E-04-1.51019E-14
 -1      2283 3.99015E-03-4.25287E-04-1.36767E-14
 -1      2284 4.37678E-03-4.53784E-04-1.61171E-14
 -1      2285 4.52825E-03-4.52187E-04-1.71607E-14
 -1      2286 4.28509E-03-4.17392E-04-1.56408E-14
 -1      2287 4.68092E-03-4.52317E-04-1.82339E-14
 -1      2288 4.83498E-03-4.54637E-04-1.93374E-14
 -1      2289 4.58327E-03-4.13513E-04-1.77273E-14
 -1      2290 4.99058E-03-4.59762E-04-2.04705E-14
 -1      2291 5.14785E-03-4.68346E-04-2.16328E-14
 -1      2292 4.88575E-03-4.16913E-04-1.99305E-14
 -1      2293 5.30713E-03-4.81112E-04-2.28251E-14
 -1      2294 5.46842E-03-4.98959E-04-2.40482E-14
 -1      2295 5.19418E-03-4.31985E-04-2.22524E-14
 -1      2296 5.63234E-03-5.22606E-04-2.53010E-14
 -1      2297 5.79855E-03-5.53171E-04-2.65822E-14
 -1      2298 5.51099E-03-4.64456E-04-2.46935E-14
 -1      2299 5.96802E-03-5.91143E-04-2.78936E-14
 -1      2300 6.13980E-03-6.37645E-04-2.92362E-14
 -1      2301 5.83938E-03-5.21291E-04-2.72525E-14
 -1      2302 6.31504E-03-6.92588E-04-3.06084E-14
 -1      2303 6.49182E-03-7.56230E-04-3.20117E-14
 -1      2304 6.18237E-03-6.09919E-04-2.99308E-14
 -1      2305 6.67100E-03-8.27293E-04-3.34494E-14
 -1      2306 6.84987E-03-9.04059E-04-3.49193E-14
 -1      2307 6.54037E-03-7.35181E-04-3.27341E-14
 -1      2308 7.02840E-03-9.83617E-04-3.64221E-14
 -1      2309 7.20406E-03-1.06015E-03-3.79579E-14
 -1      2310 6.90742E-03-8.92497E-04-3.56662E-14
 -1      2311 7.37589E-03-1.12916E-03-3.95294E-14
 -1      2312 7.54482E-03-1.18365E-03-4.11367E-14
 -1      2313 7.27010E-03-1.05578E-03-3.87324E-14
 -1      2314 7.70868E-03-1.21963E-03-4.27794E-14
 -1      2315 7.87306E-03-1.23144E-03-4.44572E-14
 -1      2316 7.61635E-03-1.17572E-03-4.19414E-14
 -1      2317 8.03602E-03-1.21903E-03-4.61706E-14
 -1      2318 8.20321E-03-1.18567E-03-4.79212E-14
 -1      2319 7.95238E-03-1.20084E-03-4.52943E-14
 -1      2320 8.37272E-03-1.13457E-03-4.97042E-14
 -1      2321 8.54690E-03-1.07302E-03-5.15199E-14
 -1      2322 8.29487E-03-1.12507E-03-4.87918E-14
 -1      2323 8.72431E-03-1.00552E-03-5.33669E-14
 -1      2324 8.90297E-03-9.38696E-04-5.52445E-14
 -1      2325 8.65414E-03-9.90555E-04-5.24237E-14
 -1      2326 9.08265E-03-8.75836E-04-5.71511E-14
 -1      2327 9.26045E-03-8.19616E-04-5.90836E-14
 -1      2328 9.02165E-03-8.51303E-04-5.61774E-14
 -1      2329 9.43713E-03-7.71704E-04-6.10395E-14
 -1      2330 9.61047E-03-7.32203E-04-6.30181E-14
 -1      2331 9.38309E-03-7.39678E-04-6.00385E-14
 -1      2332 9.78163E-03-7.01467E-04-6.50197E-14
 -1      2333 9.94944E-03-6.78467E-04-6.70437E-14
 -1      2334 9.73034E-03-6.64761E-04-6.39930E-14
 -1      2335 1.01149E-02-6.62829E-04-6.90885E-14
 -1      2336 1.02777E-02-6.53397E-04-7.11524E-14
 -1      2337 1.00625E-02-6.23241E-04-6.80348E-14
 -1      2338 1.04383E-02-6.49485E-04-7.32372E-14
 -1      2339 1.05969E-02-6.50134E-04-7.53402E-14
 -1      2340 1.03824E-02-6.07912E-04-7.21593E-14
 -1      2341 1.07538E-02-6.54612E-04-7.74636E-14
 -1      2342 1.09090E-02-6.62214E-04-7.96062E-14
 -1      2343 1.06932E-02-6.11575E-04-7.63618E-14
 -1      2344 1.10629E-02-6.72301E-04-8.17659E-14
 -1      2345 1.12156E-02-6.84378E-04-8.39430E-14
 -1      2346 1.09977E-02-6.28207E-04-8.06396E-14
 -1      2347 1.13671E-02-6.97949E-04-8.61427E-14
 -1      2348 1.15177E-02-7.12675E-04-8.83578E-14
 -1      2349 1.12977E-02-6.53158E-04-8.49926E-14
 -1      2350 1.16673E-02-7.28203E-04-9.05890E-14
 -1      2351 1.18162E-02-7.44305E-04-9.28388E-14
 -1      2352 1.15944E-02-6.83027E-04-8.94191E-14
 -1      2353 1.19644E-02-7.60746E-04-9.51039E-14
 -1      2354 1.21119E-02-7.77375E-04-9.73845E-14
 -1      2355 1.18887E-02-7.15432E-04-9.39104E-14
 -1      2356 1.22588E-02-7.94049E-04-9.96851E-14
 -1      2357 1.24052E-02-8.10671E-04-1.02002E-13
 -1      2358 1.21810E-02-7.48777E-04-9.84716E-14
 -1      2359 1.25511E-02-8.27162E-04-1.04332E-13
 -1      2360 1.26966E-02-8.43462E-04-1.06681E-13
 -1      2361 1.24718E-02-7.82049E-04-1.03099E-13
 -1      2362 1.28418E-02-8.59535E-04-1.09049E-13
 -1      2363 1.29866E-02-8.75346E-04-1.11433E-13
 -1      2364 1.27614E-02-8.14648E-04-1.07792E-13
 -1      2365 1.31311E-02-8.90888E-04-1.13832E-13
 -1      2366 1.32753E-02-9.06144E-04-1.16246E-13
 -1      2367 1.30500E-02-8.46258E-04-1.12554E-13
 -1      2368 1.34194E-02-9.21122E-04-1.18673E-13
 -1      2369 1.35632E-02-9.35816E-04-1.21117E-13
 -1      2370 1.33378E-02-8.76754E-04-1.17374E-13
 -1      2371 1.37069E-02-9.50245E-04-1.23572E-13
 -1      2372 1.38504E-02-9.64407E-04-1.26034E-13
 -1      2373 1.36250E-02-9.06127E-04-1.22251E-13
 -1      2374 1.39938E-02-9.78328E-04-1.28509E-13
 -1      2375 1.41371E-02-9.92010E-04-1.30997E-13
 -1      2376 1.39118E-02-9.34441E-04-1.27176E-13
 -1      2377 1.42803E-02-1.00548E-03-1.33492E-13
 -1      2378 1.44234E-02-1.01874E-03-1.36001E-13
 -1      2379 1.41982E-02-9.61799E-04-1.32140E-13
 -1      2380 1.86701E-03 5.09580E-04-2.49381E-15
 -1      2381 1.72615E-03 4.98975E-04-2.10616E-15
 -1      2382 2.14884E-03 5.23919E-04-3.37204E-15
 -1      2383 2.00788E-03 5.17833E-04-2.91562E-15
 -1      2384 1.92687E-03 4.77825E-04-2.78950E-15
 -1      2385 2.43149E-03 5.30860E-04-4.38579E-15
 -1      2386 2.29003E-03 5.28207E-04-3.86191E-15
 -1      2387 2.21061E-03 4.89893E-04-3.71049E-15
 -1      2388 2.71559E-03 5.32213E-04-5.53541E-15
 -1      2389 2.57333E-03 5.32146E-04-4.94408E-15
 -1      2390 2.49491E-03 4.95078E-04-4.76618E-15
 -1      2391 3.00166E-03 5.29445E-04-6.81828E-15
 -1      2392 2.85835E-03 5.31266E-04-6.15983E-15
 -1      2393 2.78029E-03 4.95067E-04-5.95562E-15
 -1      2394 3.29017E-03 5.23844E-04-8.23201E-15
 -1      2395 3.14558E-03 5.26924E-04-7.50899E-15
 -1      2396 3.06720E-03 4.91248E-04-7.27779E-15
 -1      2397 3.58157E-03 5.16677E-04-9.77307E-15
 -1      2398 3.43547E-03 5.20377E-04-8.98664E-15
 -1      2399 3.35603E-03 4.84867E-04-8.72916E-15
 -1      2400 3.87630E-03 5.09347E-04-1.14427E-14
 -1      2401 3.72847E-03 5.12939E-04-1.05921E-14
 -1      2402 3.64719E-03 4.77180E-04-1.03079E-14
 -1      2403 4.17486E-03 5.03564E-04-1.32402E-14
 -1      2404 4.02506E-03 5.06147E-04-1.23251E-14
 -1      2405 3.94111E-03 4.69607E-04-1.20149E-14
 -1      2406 4.47773E-03 5.01505E-04-1.51665E-14
 -1      2407 4.32572E-03 5.01922E-04-1.41876E-14
 -1      2408 4.23830E-03 4.63903E-04-1.38490E-14
 -1      2409 4.78539E-03 5.05950E-04-1.72191E-14
 -1      2410 4.63094E-03 5.02730E-04-1.61766E-14
 -1      2411 4.53934E-03 4.62316E-04-1.58109E-14
 -1      2412 5.09824E-03 5.20313E-04-1.94007E-14
 -1      2413 4.94118E-03 5.11671E-04-1.82942E-14
 -1      2414 4.84493E-03 4.67712E-04-1.78996E-14
 -1      2415 5.41646E-03 5.48459E-04-2.17071E-14
 -1      2416 5.25676E-03 5.32426E-04-2.05390E-14
 -1      2417 5.15583E-03 4.83608E-04-2.01160E-14
 -1      2418 5.73979E-03 5.94103E-04-2.41385E-14
 -1      2419 5.57766E-03 5.68894E-04-2.29063E-14
 -1      2420 5.47281E-03 5.13980E-04-2.24559E-14
 -1      2421 6.06714E-03 6.59553E-04-2.66941E-14
 -1      2422 5.90325E-03 6.24298E-04-2.54002E-14
 -1      2423 5.79625E-03 5.62656E-04-2.49196E-14
 -1      2424 6.39612E-03 7.43642E-04-2.93763E-14
 -1      2425 6.23183E-03 6.99526E-04-2.80200E-14
 -1      2426 6.12558E-03 6.31975E-04-2.75086E-14
 -1      2427 6.72287E-03 8.39100E-04-3.21840E-14
 -1      2428 6.56021E-03 7.90713E-04-3.07639E-14
 -1      2429 6.45845E-03 7.20483E-04-3.02221E-14
 -1      2430 7.04291E-03 9.30702E-04-3.51253E-14
 -1      2431 6.88397E-03 8.86665E-04-3.36384E-14
 -1      2432 6.79018E-03 8.19766E-04-3.30632E-14
 -1      2433 7.35367E-03 9.96932E-04-3.81993E-14
 -1      2434 7.19924E-03 9.68445E-04-3.66455E-14
 -1      2435 7.11510E-03 9.12172E-04-3.60361E-14
 -1      2436 7.65714E-03 1.01728E-03-4.14042E-14
 -1      2437 7.50560E-03 1.01385E-03-3.97852E-14
 -1      2438 7.43016E-03 9.73284E-04-3.91411E-14
 -1      2439 7.95989E-03 9.82007E-04-4.47444E-14
 -1      2440 7.80771E-03 1.00652E-03-4.30575E-14
 -1      2441 7.73850E-03 9.81454E-04-4.23817E-14
 -1      2442 8.26899E-03 8.98096E-04-4.82097E-14
 -1      2443 8.11308E-03 9.45057E-04-4.64618E-14
 -1      2444 8.04833E-03 9.29949E-04-4.57559E-14
 -1      2445 8.58746E-03 7.84956E-04-5.17951E-14
 -1      2446 8.42704E-03 8.43725E-04-4.99874E-14
 -1      2447 8.36671E-03 8.31520E-04-4.92563E-14
 -1      2448 8.91345E-03 6.64549E-04-5.54929E-14
 -1      2449 8.74988E-03 7.24444E-04-5.36309E-14
 -1      2450 8.69455E-03 7.10113E-04-5.28731E-14
 -1      2451 9.24260E-03 5.53442E-04-5.92982E-14
 -1      2452 9.07809E-03 6.07146E-04-5.73819E-14
 -1      2453 9.02745E-03 5.88601E-04-5.66026E-14
 -1      2454 9.57085E-03 4.60155E-04-6.31999E-14
 -1      2455 9.40721E-03 5.04343E-04-6.12378E-14
 -1      2456 9.35980E-03 4.81516E-04-6.04354E-14
 -1      2457 9.89554E-03 3.86681E-04-6.71929E-14
 -1      2458 9.73387E-03 4.21000E-04-6.51858E-14
 -1      2459 9.68769E-03 3.94595E-04-6.43631E-14
 -1      2460 1.02154E-02 3.31130E-04-7.12728E-14
 -1      2461 1.00562E-02 3.56857E-04-6.92221E-14
 -1      2462 1.00095E-02 3.27715E-04-6.83828E-14
 -1      2463 1.05302E-02 2.89941E-04-7.54299E-14
 -1      2464 1.03735E-02 3.08965E-04-7.33415E-14
 -1      2465 1.03250E-02 2.77846E-04-7.24846E-14
 -1      2466 1.08400E-02 2.59287E-04-7.96642E-14
 -1      2467 1.06857E-02 2.73506E-04-7.75369E-14
 -1      2468 1.06349E-02 2.41044E-04-7.66633E-14
 -1      2469 1.11453E-02 2.35767E-04-8.39760E-14
 -1      2470 1.09932E-02 2.46808E-04-8.18118E-14
 -1      2471 1.09399E-02 2.13517E-04-8.09197E-14
 -1      2472 1.14467E-02 2.16667E-04-8.83611E-14
 -1      2473 1.12965E-02 2.25798E-04-8.61591E-14
 -1      2474 1.12410E-02 1.92079E-04-8.52525E-14
 -1      2475 1.17447E-02 1.99969E-04-9.28275E-14
 -1      2476 1.15961E-02 2.08115E-04-9.05841E-14
 -1      2477 1.15388E-02 1.74264E-04-8.96584E-14
 -1      2478 1.20399E-02 1.84262E-04-9.73655E-14
 -1      2479 1.18926E-02 1.92059E-04-9.50871E-14
 -1      2480 1.18338E-02 1.58280E-04-9.41413E-14
 -1      2481 1.23328E-02 1.68617E-04-1.01977E-13
 -1      2482 1.21866E-02 1.76476E-04-9.96624E-14
 -1      2483 1.21267E-02 1.42899E-04-9.87001E-14
 -1      2484 1.26237E-02 1.52464E-04-1.06646E-13
 -1      2485 1.24784E-02 1.60631E-04-1.04306E-13
 -1      2486 1.24178E-02 1.27328E-04-1.03327E-13
 -1      2487 1.29133E-02 1.35492E-04-1.11362E-13
 -1      2488 1.27687E-02 1.44096E-04-1.08999E-13
 -1      2489 1.27075E-02 1.11097E-04-1.08010E-13
 -1      2490 1.32017E-02 1.17561E-04-1.16115E-13
 -1      2491 1.30576E-02 1.26653E-04-1.13734E-13
 -1      2492 1.29962E-02 9.39599E-05-1.12732E-13
 -1      2493 1.34892E-02 9.86491E-05-1.20905E-13
 -1      2494 1.33455E-02 1.08230E-04-1.18506E-13
 -1      2495 1.32839E-02 7.58262E-05-1.17494E-13
 -1      2496 1.37761E-02 7.88000E-05-1.25732E-13
 -1      2497 1.36327E-02 8.88402E-05-1.23314E-13
 -1      2498 1.35710E-02 5.67007E-05-1.22293E-13
 -1      2499 1.40625E-02 5.81005E-05-1.30603E-13
 -1      2500 1.39194E-02 6.85530E-05-1.28161E-13
 -1      2501 1.38577E-02 3.66474E-05-1.27131E-13
 -1      2502 1.43486E-02 3.66671E-05-1.35510E-13
 -1      2503 1.42056E-02 4.74704E-05-1.33052E-13
 -1      2504 1.41439E-02 1.57623E-05-1.32010E-13
 -1      2505 1.44961E-02 2.63707E-05-1.38058E-13
 -1      2506 1.45083E-02-2.97457E-04-1.38251E-13
 -1      2507 1.44964E-02-2.55944E-04-1.38064E-13
 -1      2508 1.45320E-02-3.80277E-04-1.38622E-13
 -1      2509 1.45201E-02-3.38898E-04-1.38437E-13
 -1      2510 1.43907E-02-3.08414E-04-1.36217E-13
 -1      2511 1.44616E-02-1.32325E-04-1.37490E-13
 -1      2512 1.44500E-02-9.04830E-05-1.37289E-13
 -1      2513 1.44847E-02-2.14702E-04-1.37874E-13
 -1      2514 1.44731E-02-1.73734E-04-1.37684E-13
 -1      2515 1.43436E-02-1.43356E-04-1.35453E-13
 -1      2516 1.43670E-02-2.25892E-04-1.35839E-13
 -1      2517 1.45556E-02-4.62892E-04-1.38984E-13
 -1      2518 1.45438E-02-4.21602E-04-1.38805E-13
 -1      2519 1.44145E-02-3.90982E-04-1.36583E-13
 -1      2520 1.45790E-02-5.45412E-04-1.39347E-13
 -1      2521 1.45674E-02-5.04154E-04-1.39167E-13
 -1      2522 1.44382E-02-4.73349E-04-1.36942E-13
 -1      2523 1.46022E-02-6.27963E-04-1.39699E-13
 -1      2524 1.45906E-02-5.86674E-04-1.39522E-13
 -1      2525 1.44615E-02-5.55643E-04-1.37294E-13
 -1      2526 1.46248E-02-7.09260E-04-1.40034E-13
 -1      2527 1.46135E-02-6.68586E-04-1.39867E-13
 -1      2528 1.44844E-02-6.37306E-04-1.37631E-13
 -1      2529 1.46478E-02-7.92206E-04-1.40361E-13
 -1      2530 1.46363E-02-7.50696E-04-1.40200E-13
 -1      2531 1.45071E-02-7.19164E-04-1.37956E-13
 -1      2532 1.46710E-02-8.75470E-04-1.40669E-13
 -1      2533 1.46594E-02-8.33796E-04-1.40517E-13
 -1      2534 1.45301E-02-8.02024E-04-1.38269E-13
 -1      2535 1.46946E-02-9.59078E-04-1.40958E-13
 -1      2536 1.46827E-02-9.17233E-04-1.40815E-13
 -1      2537 1.45532E-02-8.85259E-04-1.38563E-13
 -1      2538 9.99282E-03-1.58780E-04-5.56549E-14
 -1      2539 1.00338E-02-1.67471E-04-5.57228E-14
 -1      2540 9.40202E-03 3.82249E-05-5.32954E-14
 -1      2541 9.58167E-03-3.40845E-05-5.41509E-14
 -1      2542 1.58514E-03 4.85494E-04-1.75272E-15
 -1      2543 1.44383E-03 4.68924E-04-1.43314E-15
 -1      2544 1.64304E-03 4.56719E-04-2.00419E-15
 -1      2545 1.47935E-02-1.03994E-03-1.42576E-13
 -1      2546 1.00377E-02-1.78770E-04-5.56444E-14
 -1      2547 1.00060E-02-1.87792E-04-5.55349E-14
 -1      2548 9.04289E-03 2.14508E-04-5.15371E-14
 -1      2549 9.20957E-03 1.28423E-04-5.23365E-14
 -1      2550 5.88547E-04-2.35402E-04-3.71976E-16
 -1      2551 7.81318E-04-3.01011E-04-5.90768E-16
 -1      2552 8.41072E-04-2.89283E-04-7.20236E-16
 -1      2553 5.79189E-04-2.07597E-04-3.93809E-16
 -1      2554 9.93701E-03-2.08202E-04-5.54424E-14
 -1      2555 9.84047E-03-2.33653E-04-5.51910E-14
 -1      2556 8.63048E-03-8.20782E-04-5.00950E-14
 -1      2557 8.45083E-03-9.29025E-04-4.89254E-14
 -1      2558 7.00127E-03-7.98454E-04-3.83838E-14
 -1      2559 6.79869E-03-6.72409E-04-3.74250E-14
 -1      2560 5.46813E-04-2.23558E-05-4.43547E-16
 -1      2561 5.47303E-04-3.80405E-05-4.44821E-16
 -1      2562 6.62704E-04-5.44651E-05-6.03020E-16
 -1      2563 6.61380E-04-1.72516E-05-5.99713E-16
 -1      2564 7.58305E-03 8.39780E-04-4.16154E-14
 -1      2565 7.72889E-03 8.50028E-04-4.27947E-14
 -1      2566 7.96678E-03-1.13006E-03-4.51746E-14
 -1      2567 7.84581E-03-1.14449E-03-4.41939E-14
 -1      2568 7.91656E-03 8.20995E-04-4.43196E-14
 -1      2569 8.05747E-03 7.68778E-04-4.54536E-14
 -1      2570 7.28425E-03 7.39592E-04-3.94756E-14
 -1      2571 7.42958E-03 8.00862E-04-4.05022E-14
 -1      2572 6.92104E-03 5.44318E-04-3.73132E-14
 -1      2573 7.09361E-03 6.44803E-04-3.82581E-14
 -1      2574 6.52492E-03 3.20647E-04-3.55451E-14
 -1      2575 6.69541E-03 4.17197E-04-3.61796E-14
 -1      2576 6.15216E-03 1.37862E-04-3.45545E-14
 -1      2577 6.33139E-03 2.22080E-04-3.50832E-14
 -1      2578 5.83484E-03 1.25374E-05-3.34448E-14
 -1      2579 5.98637E-03 6.69404E-05-3.39970E-14
 -1      2580 6.06460E-03 1.02151E-04-3.36436E-14
 -1      2581 5.56088E-03-6.60482E-05-3.27348E-14
 -1      2582 5.66561E-03-4.09237E-05-3.29403E-14
 -1      2583 5.48967E-03-9.09590E-05-3.26814E-14
 -1      2584 5.50012E-03-8.43521E-05-3.26652E-14
 -1      2585 5.61663E-03-1.26696E-04-3.30805E-14
 -1      2586 5.53047E-03-1.06919E-04-3.27070E-14
 -1      2587 5.87453E-03-2.11761E-04-3.41794E-14
 -1      2588 5.74203E-03-1.68116E-04-3.37640E-14
 -1      2589 6.20913E-03-3.49826E-04-3.51158E-14
 -1      2590 6.03909E-03-2.75115E-04-3.45910E-14
 -1      2591 6.58318E-03-5.45377E-04-3.64583E-14
 -1      2592 6.41049E-03-4.49858E-04-3.58084E-14
 -1      2593 7.34000E-03-9.98694E-04-4.02959E-14
 -1      2594 7.20763E-03-9.21098E-04-3.94286E-14
 -1      2595 9.70314E-03-2.79937E-04-5.46996E-14
 -1      2596 9.55659E-03-3.34159E-04-5.42643E-14
 -1      2597 7.68114E-03-1.13058E-03-4.28859E-14
 -1      2598 7.52203E-03-1.08051E-03-4.16372E-14
 -1      2599 8.25461E-03-1.02813E-03-4.74148E-14
 -1      2600 8.11029E-03-1.09096E-03-4.62875E-14
 -1      2601 8.04665E-03-1.11728E-03-4.59319E-14
 -1      2602 8.98538E-03-6.12841E-04-5.19420E-14
 -1      2603 8.84342E-03-6.96098E-04-5.12632E-14
 -1      2604 9.36102E-03-4.19143E-04-5.36538E-14
 -1      2605 9.17270E-03-5.12132E-04-5.27959E-14
 -1      2606 9.11676E-03-5.51385E-04-5.33042E-14
 -1      2607 8.23274E-03 6.85261E-04-4.67888E-14
 -1      2608 8.39395E-03 5.90506E-04-4.79144E-14
 -1      2609 7.57452E-04 3.30655E-04-3.60538E-16
 -1      2610 6.11071E-04 2.82226E-04-2.34554E-16
 -1      2611 5.84560E-04 2.55565E-04-2.45938E-16
 -1      2612 8.13641E-04 3.18844E-04-4.79394E-16
 -1      2613 9.77532E-03-1.01686E-04-5.49884E-14
 -1      2614 9.89886E-03-1.34122E-04-5.54111E-14
 -1      2615 7.81471E-03 8.44826E-04-4.35002E-14
 -1      2616 6.70686E-04-1.35256E-04-5.90131E-16
 -1      2617 5.55046E-04-1.24005E-04-4.31838E-16
 -1      2618 5.58249E-04-1.43842E-04-4.23693E-16
 -1      2619 1.35833E-03 4.23757E-04-1.35391E-15
 -1      2620 5.72322E-04 2.25382E-04-2.79304E-16
 -1      2621 9.69294E-03-7.33674E-05-5.53996E-14
 -1      2622 5.64714E-04-1.62508E-04-4.18461E-16
 -1      2623 5.70062E-04-1.85509E-04-4.04855E-16
 -1      2624 6.98229E-04-2.24455E-04-5.57741E-16
 -1      2625 6.81217E-04-1.78584E-04-5.76362E-16
 -1      2626 9.98831E-03-1.98050E-04-5.64931E-14
 -1      2627 8.92468E-03 2.79120E-04-5.15503E-14
 -1      2628 9.47561E-03-3.74102E-04-5.47867E-14
 -1      2629 8.36560E-03-9.83932E-04-4.85594E-14
 -1      2630 7.76156E-03-1.14659E-03-4.35046E-14
 -1      2631 1.44345E-02-5.17983E-06-1.37005E-13
 -1      2632 9.31681E-03 7.68345E-05-5.35844E-14
 -1      2633 1.44275E-02-3.69626E-05-1.36893E-13
 -1      2634 9.79326E-03-2.52676E-04-5.59009E-14
 -1      2635 1.00530E-02-1.76160E-04-5.66651E-14
 -1      2636 9.96567E-03-1.51848E-04-5.64956E-14
 -1      2637 7.44168E-03-1.05289E-03-4.08558E-14
 -1      2638 6.68823E-03-6.07518E-04-3.64932E-14
 -1      2639 6.89758E-04 2.47983E-04-4.11631E-16
 -1      2640 6.29409E-03-3.89646E-04-3.48550E-14
 -1      2641 1.43094E-02-4.85154E-05-1.34863E-13
 -1      2642 8.74248E-03-7.68291E-04-5.12602E-14
 -1      2643 5.94824E-03-2.35537E-04-3.37687E-14
 -1      2644 5.66248E-03-1.38858E-04-3.26846E-14
 -1      2645 5.49173E-03-9.65366E-05-3.19899E-14
 -1      2646 5.73144E-03-1.85574E-05-3.25949E-14
 -1      2647 5.79730E-03 1.02420E-05-3.22488E-14
 -1      2648 5.64181E-03-3.39884E-05-3.17564E-14
 -1      2649 6.40819E-03 2.66293E-04-3.46488E-14
 -1      2650 6.79316E-03 4.82583E-04-3.62163E-14
 -1      2651 7.18415E-03 6.98643E-04-3.85498E-14
 -1      2652 7.08948E-03-8.55183E-04-3.84863E-14
 -1      2653 8.51593E-03 5.22182E-04-4.90949E-14
 -1      2654 8.15143E-03 7.29500E-04-4.63691E-14
 -1      2655 7.50419E-03 8.28212E-04-4.08730E-14
 -1      2656 5.51340E-03-7.31745E-05-3.20334E-14
 -1      2657 1.46489E-02-1.04174E-03-1.39976E-13
 -1      2658 1.46797E-02-9.92911E-04-1.40629E-13
 -1      2659 1.45500E-02-9.60774E-04-1.38375E-13
 -1      2660 1.45203E-02-1.02844E-03-1.37709E-13
 -1      2661 1.44382E-02-9.84909E-04-1.36337E-13
 -1      2662 7.80286E-04 7.53930E-05-7.48560E-16
 -1      2663 7.78939E-04 5.40425E-05-7.59199E-16
 -1      2664 7.78029E-04 3.26824E-05-7.68049E-16
 -1      2665 7.77574E-04 1.15899E-05-7.75232E-16
 -1      2666 8.96235E-04 4.82860E-05-9.67800E-16
 -1      2667 7.92027E-04 1.69610E-04-6.82153E-16
 -1      2668 7.87941E-04 1.44504E-04-7.03010E-16
 -1      2669 8.03918E-04 2.24375E-04-6.29650E-16
 -1      2670 7.97310E-04 1.96169E-04-6.58138E-16
 -1      2671 9.15357E-04 2.03374E-04-8.55476E-16
 -1      2672 1.13028E-03 3.55261E-04-1.00679E-15
 -1      2673 9.86547E-04 3.27452E-04-7.75855E-16
 -1      2674 6.35568E-03-4.30153E-04-3.44331E-14
 -1      2675 6.17994E-03-3.41928E-04-3.37591E-14
 -1      2676 8.03388E-04 2.74205E-04-5.48227E-16
 -1      2677 8.86044E-03 3.26828E-04-5.17997E-14
 -1      2678 9.04969E-03 2.18231E-04-5.28763E-14
 -1      2679 1.32098E-03-3.54135E-04-1.68566E-15
 -1      2680 1.46439E-03-3.71491E-04-2.04075E-15
 -1      2681 1.60765E-03-3.85759E-04-2.43012E-15
 -1      2682 1.75086E-03-3.97150E-04-2.85411E-15
 -1      2683 1.52594E-03-3.44596E-04-2.26285E-15
 -1      2684 1.89395E-03-4.06119E-04-3.31301E-15
 -1      2685 2.03699E-03-4.12844E-04-3.80560E-15
 -1      2686 1.81287E-03-3.66575E-04-3.11388E-15
 -1      2687 2.17999E-03-4.17685E-04-4.33221E-15
 -1      2688 2.32299E-03-4.20788E-04-4.89296E-15
 -1      2689 2.09963E-03-3.79629E-04-4.10095E-15
 -1      2690 2.46602E-03-4.22431E-04-5.48757E-15
 -1      2691 2.60910E-03-4.22736E-04-6.11601E-15
 -1      2692 2.38620E-03-3.85688E-04-5.22266E-15
 -1      2693 2.75227E-03-4.21923E-04-6.77771E-15
 -1      2694 2.89556E-03-4.20094E-04-7.47200E-15
 -1      2695 2.67262E-03-3.86315E-04-6.47820E-15
 -1      2696 3.03897E-03-4.17434E-04-8.19895E-15
 -1      2697 3.18256E-03-4.14039E-04-8.95884E-15
 -1      2698 2.95897E-03-3.82790E-04-7.86574E-15
 -1      2699 3.32631E-03-4.10079E-04-9.75084E-15
 -1      2700 3.47030E-03-4.05654E-04-1.05755E-14
 -1      2701 3.24531E-03-3.76206E-04-9.38327E-15
 -1      2702 3.61450E-03-4.00945E-04-1.14317E-14
 -1      2703 3.75900E-03-3.96072E-04-1.23193E-14
 -1      2704 3.53171E-03-3.67593E-04-1.10294E-14
 -1      2705 3.90377E-03-3.91251E-04-1.32387E-14
 -1      2706 4.04893E-03-3.86640E-04-1.41882E-14
 -1      2707 3.81829E-03-3.58051E-04-1.28025E-14
 -1      2708 4.19445E-03-3.82516E-04-1.51687E-14
 -1      2709 4.34052E-03-3.79104E-04-1.61806E-14
 -1      2710 4.10521E-03-3.48895E-04-1.47000E-14
 -1      2711 4.48712E-03-3.76759E-04-1.72222E-14
 -1      2712 4.63450E-03-3.75818E-04-1.82926E-14
 -1      2713 4.39288E-03-3.41816E-04-1.67190E-14
 -1      2714 4.78275E-03-3.76720E-04-1.93934E-14
 -1      2715 4.93216E-03-3.79984E-04-2.05236E-14
 -1      2716 4.68208E-03-3.39071E-04-1.88588E-14
 -1      2717 5.08301E-03-3.86116E-04-2.16825E-14
 -1      2718 5.23567E-03-3.95918E-04-2.28718E-14
 -1      2719 4.97435E-03-3.43699E-04-2.11157E-14
 -1      2720 5.39067E-03-4.09904E-04-2.40901E-14
 -1      2721 5.54842E-03-4.29337E-04-2.53379E-14
 -1      2722 5.27243E-03-3.59808E-04-2.34905E-14
 -1      2723 5.70986E-03-4.54640E-04-2.66148E-14
 -1      2724 5.87511E-03-4.87596E-04-2.79217E-14
 -1      2725 5.58080E-03-3.93126E-04-2.59815E-14
 -1      2726 6.04561E-03-5.28424E-04-2.92582E-14
 -1      2727 6.22056E-03-5.79308E-04-3.06245E-14
 -1      2728 5.90587E-03-4.51610E-04-2.85901E-14
 -1      2729 6.40187E-03-6.39963E-04-3.20225E-14
 -1      2730 6.58656E-03-7.11605E-04-3.34536E-14
 -1      2731 6.25459E-03-5.46203E-04-3.13176E-14
 -1      2732 6.77632E-03-7.92028E-04-3.49160E-14
 -1      2733 6.96612E-03-8.80176E-04-3.64092E-14
 -1      2734 6.63002E-03-6.86896E-04-3.41696E-14
 -1      2735 7.18611E-03-9.63765E-04-3.83625E-14
 -1      2736 7.37606E-03-1.05151E-03-3.99338E-14
 -1      2737 7.86420E-03-1.18603E-03-4.44217E-14
 -1      2738 8.03752E-03-1.16845E-03-4.61341E-14
 -1      2739 8.58252E-03-9.75940E-04-5.14807E-14
 -1      2740 8.77164E-03-8.98208E-04-5.33261E-14
 -1      2741 8.96229E-03-8.24484E-04-5.52051E-14
 -1      2742 9.14905E-03-7.59247E-04-5.71101E-14
 -1      2743 8.90546E-03-7.98118E-04-5.42333E-14
 -1      2744 9.33305E-03-7.04648E-04-5.90396E-14
 -1      2745 9.51078E-03-6.60012E-04-6.09924E-14
 -1      2746 9.28691E-03-6.67273E-04-5.80415E-14
 -1      2747 9.68406E-03-6.25949E-04-6.29684E-14
 -1      2748 9.85173E-03-6.00231E-04-6.49663E-14
 -1      2749 9.64268E-03-5.84589E-04-6.19455E-14
 -1      2750 1.00153E-02-5.82784E-04-6.69854E-14
 -1      2751 1.01749E-02-5.71664E-04-6.90243E-14
 -1      2752 9.97325E-03-5.40932E-04-6.59382E-14
 -1      2753 1.03314E-02-5.66485E-04-7.10847E-14
 -1      2754 1.04853E-02-5.65866E-04-7.31639E-14
 -1      2755 1.02853E-02-5.24819E-04-7.00126E-14
 -1      2756 1.06372E-02-5.69305E-04-7.52626E-14
 -1      2757 1.07875E-02-5.75904E-04-7.73809E-14
 -1      2758 1.05856E-02-5.27590E-04-7.41671E-14
 -1      2759 1.09365E-02-5.85156E-04-7.95177E-14
 -1      2760 1.10845E-02-5.96488E-04-8.16725E-14
 -1      2761 1.08791E-02-5.43072E-04-7.83968E-14
 -1      2762 1.12317E-02-6.09455E-04-8.38464E-14
 -1      2763 1.13783E-02-6.23695E-04-8.60405E-14
 -1      2764 1.11690E-02-5.66850E-04-8.27049E-14
 -1      2765 1.15244E-02-6.38852E-04-8.82512E-14
 -1      2766 1.16701E-02-6.54697E-04-9.04778E-14
 -1      2767 1.14571E-02-5.95736E-04-8.70846E-14
 -1      2768 1.18153E-02-6.70972E-04-9.27209E-14
 -1      2769 1.19604E-02-6.87531E-04-9.49802E-14
 -1      2770 1.17443E-02-6.27449E-04-9.15338E-14
 -1      2771 1.21051E-02-7.04198E-04-9.72600E-14
 -1      2772 1.22497E-02-7.20883E-04-9.95581E-14
 -1      2773 1.20311E-02-6.60401E-04-9.60519E-14
 -1      2774 1.23940E-02-7.37478E-04-1.01867E-13
 -1      2775 1.25382E-02-7.53928E-04-1.04193E-13
 -1      2776 1.23177E-02-6.93534E-04-1.00638E-13
 -1      2777 1.26821E-02-7.70172E-04-1.06538E-13
 -1      2778 1.28260E-02-7.86182E-04-1.08898E-13
 -1      2779 1.26041E-02-7.26185E-04-1.05286E-13
 -1      2780 1.29697E-02-8.01931E-04-1.11279E-13
 -1      2781 1.31134E-02-8.17407E-04-1.13672E-13
 -1      2782 1.28904E-02-7.57975E-04-1.10006E-13
 -1      2783 1.32569E-02-8.32603E-04-1.16079E-13
 -1      2784 1.34003E-02-8.47518E-04-1.18500E-13
 -1      2785 1.31766E-02-7.88727E-04-1.14786E-13
 -1      2786 1.35436E-02-8.62161E-04-1.20938E-13
 -1      2787 1.36869E-02-8.76535E-04-1.23386E-13
 -1      2788 1.34627E-02-8.18393E-04-1.19626E-13
 -1      2789 1.38301E-02-8.90657E-04-1.25843E-13
 -1      2790 1.39732E-02-9.04533E-04-1.28312E-13
 -1      2791 1.37487E-02-8.47010E-04-1.24514E-13
 -1      2792 1.41163E-02-9.18184E-04-1.30791E-13
 -1      2793 1.42593E-02-9.31620E-04-1.33280E-13
 -1      2794 1.40347E-02-8.74663E-04-1.29444E-13
 -1      2795 2.27299E-03 4.55353E-04-4.05395E-15
 -1      2796 2.13041E-03 4.51316E-04-3.55580E-15
 -1      2797 1.43562E-02-9.41421E-04-1.34974E-13
 -1      2798 1.44531E-02-9.51135E-04-1.36672E-13
 -1      2799 1.42744E-02-8.98002E-04-1.33614E-13
 -1      2800 1.98787E-03 4.45426E-04-3.09132E-15
 -1      2801 1.84530E-03 4.37520E-04-2.65997E-15
 -1      2802 2.04977E-03 4.12565E-04-3.39887E-15
 -1      2803 2.84465E-03 4.57705E-04-6.38073E-15
 -1      2804 2.70144E-03 4.58840E-04-5.74966E-15
 -1      2805 3.13193E-03 4.52994E-04-7.74115E-15
 -1      2806 2.98813E-03 4.55718E-04-7.04422E-15
 -1      2807 2.90862E-03 4.20280E-04-6.81008E-15
 -1      2808 3.42062E-03 4.45989E-04-9.23006E-15
 -1      2809 3.27607E-03 4.49711E-04-8.46986E-15
 -1      2810 3.19583E-03 4.14821E-04-8.20826E-15
 -1      2811 3.71107E-03 4.37923E-04-1.08465E-14
 -1      2812 3.56559E-03 4.42013E-04-1.00225E-14
 -1      2813 3.48393E-03 4.07331E-04-9.73551E-15
 -1      2814 4.00373E-03 4.30219E-04-1.25900E-14
 -1      2815 3.85709E-03 4.33933E-04-1.17026E-14
 -1      2816 3.77325E-03 3.99006E-04-1.13886E-14
 -1      2817 4.29914E-03 4.24646E-04-1.44617E-14
 -1      2818 4.15105E-03 4.27044E-04-1.35095E-14
 -1      2819 4.06422E-03 3.91245E-04-1.31696E-14
 -1      2820 4.59804E-03 4.23482E-04-1.64592E-14
 -1      2821 4.44810E-03 4.23351E-04-1.54446E-14
 -1      2822 4.35748E-03 3.85802E-04-1.50771E-14
 -1      2823 4.90140E-03 4.29635E-04-1.85834E-14
 -1      2824 4.74910E-03 4.25430E-04-1.75056E-14
 -1      2825 4.65395E-03 3.84938E-04-1.71110E-14
 -1      2826 5.21048E-03 4.46693E-04-2.08337E-14
 -1      2827 5.05518E-03 4.36531E-04-1.96925E-14
 -1      2828 4.95498E-03 3.91565E-04-1.92704E-14
 -1      2829 5.52670E-03 4.78771E-04-2.32063E-14
 -1      2830 5.36770E-03 4.60544E-04-2.20048E-14
 -1      2831 5.26240E-03 4.09331E-04-2.15538E-14
 -1      2832 5.85121E-03 5.29949E-04-2.57029E-14
 -1      2833 5.68803E-03 5.01684E-04-2.44394E-14
 -1      2834 5.57840E-03 4.42574E-04-2.39594E-14
 -1      2835 6.18396E-03 6.02893E-04-2.83239E-14
 -1      2836 6.01685E-03 5.63588E-04-2.69973E-14
 -1      2837 5.90494E-03 4.95877E-04-2.64877E-14
 -1      2838 6.52246E-03 6.96208E-04-3.10683E-14
 -1      2839 6.35303E-03 6.47328E-04-2.96808E-14
 -1      2840 6.24244E-03 5.72632E-04-2.91395E-14
 -1      2841 6.86076E-03 8.00549E-04-3.39412E-14
 -1      2842 6.69231E-03 7.48195E-04-3.24886E-14
 -1      2843 6.58784E-03 6.72011E-04-3.19161E-14
 -1      2844 7.19127E-03 8.94978E-04-3.69461E-14
 -1      2845 7.02733E-03 8.50973E-04-3.54270E-14
 -1      2846 6.93329E-03 7.83018E-04-3.48200E-14
 -1      2847 7.51014E-03 9.50838E-04-4.00853E-14
 -1      2848 7.35156E-03 9.29777E-04-3.84992E-14
 -1      2849 7.26890E-03 8.80123E-04-3.78569E-14
 -1      2850 7.82284E-03 9.44648E-04-4.33607E-14
 -1      2851 7.66607E-03 9.56310E-04-4.17052E-14
 -1      2852 7.59153E-03 9.28454E-04-4.10299E-14
 -1      2853 8.13995E-03 8.74097E-04-4.67709E-14
 -1      2854 7.97977E-03 9.16301E-04-4.50491E-14
 -1      2855 7.90986E-03 9.03771E-04-4.43423E-14
 -1      2856 8.46827E-03 7.59876E-04-5.03040E-14
 -1      2857 8.30252E-03 8.20332E-04-4.85221E-14
 -1      2858 8.23655E-03 8.11487E-04-4.77875E-14
 -1      2859 8.80566E-03 6.31047E-04-5.39545E-14
 -1      2860 8.63641E-03 6.95429E-04-5.21149E-14
 -1      2861 8.57639E-03 6.81960E-04-5.13552E-14
 -1      2862 9.14472E-03 5.10444E-04-5.77133E-14
 -1      2863 8.97569E-03 5.68737E-04-5.58210E-14
 -1      2864 8.92295E-03 5.48430E-04-5.50383E-14
 -1      2865 9.47899E-03 4.09328E-04-6.15752E-14
 -1      2866 9.31296E-03 4.57218E-04-5.96336E-14
 -1      2867 9.26647E-03 4.31612E-04-5.88298E-14
 -1      2868 9.80528E-03 3.30067E-04-6.55304E-14
 -1      2869 9.64336E-03 3.67115E-04-6.35414E-14
 -1      2870 9.60063E-03 3.38367E-04-6.27196E-14
 -1      2871 1.01233E-02 2.70403E-04-6.95729E-14
 -1      2872 9.96536E-03 2.98070E-04-6.75398E-14
 -1      2873 9.92370E-03 2.67642E-04-6.66997E-14
 -1      2874 1.04340E-02 2.26364E-04-7.36986E-14
 -1      2875 1.02795E-02 2.46720E-04-7.16262E-14
 -1      2876 1.02368E-02 2.15363E-04-7.07670E-14
 -1      2877 1.07389E-02 1.93834E-04-7.78987E-14
 -1      2878 1.05871E-02 2.08910E-04-7.57899E-14
 -1      2879 1.05422E-02 1.76964E-04-7.49158E-14
 -1      2880 1.10392E-02 1.69200E-04-8.21757E-14
 -1      2881 1.08895E-02 1.80725E-04-8.00267E-14
 -1      2882 1.08419E-02 1.48374E-04-7.91373E-14
 -1      2883 1.13362E-02 1.49575E-04-8.65287E-14
 -1      2884 1.11881E-02 1.58907E-04-8.43454E-14
 -1      2885 1.11377E-02 1.26283E-04-8.34343E-14
 -1      2886 1.16305E-02 1.32789E-04-9.09561E-14
 -1      2887 1.14836E-02 1.40931E-04-8.87316E-14
 -1      2888 1.14307E-02 1.08154E-04-8.78081E-14
 -1      2889 1.19228E-02 1.17296E-04-9.54588E-14
 -1      2890 1.17769E-02 1.24951E-04-9.31988E-14
 -1      2891 1.17217E-02 9.21309E-05-9.22542E-14
 -1      2892 1.22135E-02 1.02055E-04-1.00036E-13
 -1      2893 1.20683E-02 1.09690E-04-9.77382E-14
 -1      2894 1.20114E-02 7.69144E-05-9.67767E-14
 -1      2895 1.25030E-02 8.64112E-05-1.04678E-13
 -1      2896 1.23584E-02 9.43115E-05-1.02350E-13
 -1      2897 1.23001E-02 6.16468E-05-1.01371E-13
 -1      2898 1.27914E-02 6.99865E-05-1.09371E-13
 -1      2899 1.26473E-02 7.83113E-05-1.07019E-13
 -1      2900 1.25880E-02 4.58003E-05-1.06028E-13
 -1      2901 1.30792E-02 5.25999E-05-1.14102E-13
 -1      2902 1.29354E-02 6.14197E-05-1.11731E-13
 -1      2903 1.28753E-02 2.90856E-05-1.10730E-13
 -1      2904 1.33663E-02 3.42005E-05-1.18872E-13
 -1      2905 1.32228E-02 4.35276E-05-1.16482E-13
 -1      2906 1.31622E-02 1.13782E-05-1.15471E-13
 -1      2907 1.36530E-02 1.48186E-05-1.23682E-13
 -1      2908 1.35097E-02 2.46300E-05-1.21273E-13
 -1      2909 1.34487E-02-7.33711E-06-1.20250E-13
 -1      2910 1.39393E-02-5.46736E-06-1.28530E-13
 -1      2911 1.37962E-02 4.78388E-06-1.26100E-13
 -1      2912 1.37350E-02-2.70094E-05-1.25069E-13
 -1      2913 1.41959E-02-3.21653E-05-1.32912E-13
 -1      2914 1.40529E-02-2.15630E-05-1.30467E-13
 -1      2915 1.39916E-02-5.31928E-05-1.29426E-13
 -1      2916 1.42186E-02-8.55817E-05-1.33308E-13
 -1      2917 9.23477E-03 1.22133E-04-5.38522E-14
 -1      2918 9.40916E-03 4.25279E-05-5.48266E-14
 -1      2919 1.43208E-02-4.83703E-04-1.34899E-13
 -1      2920 1.43090E-02-4.42676E-04-1.34724E-13
 -1      2921 8.87658E-03-7.12580E-04-5.27255E-14
 -1      2922 8.69509E-03-8.24281E-04-5.15366E-14
 -1      2923 1.42733E-02-3.19342E-04-1.34185E-13
 -1      2924 1.42614E-02-2.78088E-04-1.33999E-13
 -1      2925 1.43441E-02-5.65742E-04-1.35239E-13
 -1      2926 1.43325E-02-5.24717E-04-1.35070E-13
 -1      2927 1.42035E-02-4.93926E-04-1.32857E-13
 -1      2928 1.42972E-02-4.01621E-04-1.34545E-13
 -1      2929 1.42853E-02-3.60514E-04-1.34365E-13
 -1      2930 1.41560E-02-3.30216E-04-1.32154E-13
 -1      2931 1.41800E-02-4.12163E-04-1.32512E-13
 -1      2932 1.43666E-02-6.46500E-04-1.35562E-13
 -1      2933 1.43554E-02-6.06097E-04-1.35402E-13
 -1      2934 1.42265E-02-5.74989E-04-1.33184E-13
 -1      2935 1.43894E-02-7.28907E-04-1.35878E-13
 -1      2936 1.43781E-02-6.87663E-04-1.35722E-13
 -1      2937 1.42491E-02-6.56222E-04-1.33499E-13
 -1      2938 1.44123E-02-8.11685E-04-1.36179E-13
 -1      2939 1.44008E-02-7.70244E-04-1.36030E-13
 -1      2940 1.42717E-02-7.38477E-04-1.33804E-13
 -1      2941 9.60550E-03-3.34244E-04-5.62928E-14
 -1      2942 9.43824E-03-4.08681E-04-5.56664E-14
 -1      2943 9.95573E-03-1.47154E-04-5.76768E-14
 -1      2944 1.00349E-02-1.64903E-04-5.79285E-14
 -1      2945 8.28468E-04-2.61069E-04-7.37772E-16
 -1      2946 9.60150E-04-2.95308E-04-9.45113E-16
 -1      2947 8.17961E-04-2.34560E-04-7.51406E-16
 -1      2948 7.84766E-03-1.15778E-03-4.42648E-14
 -1      2949 7.70443E-03-1.14569E-03-4.29549E-14
 -1      2950 6.26839E-03 2.06680E-04-3.36726E-14
 -1      2951 6.43134E-03 2.97289E-04-3.41171E-14
 -1      2952 1.00376E-02-1.93130E-04-5.75397E-14
 -1      2953 9.97836E-03-2.07115E-04-5.74441E-14
 -1      2954 1.70267E-03 4.27196E-04-2.26253E-15
 -1      2955 1.55986E-03 4.14255E-04-1.89863E-15
 -1      2956 1.76358E-03 3.97091E-04-2.52802E-15
 -1      2957 2.55845E-03 4.58927E-04-5.15091E-15
 -1      2958 2.41565E-03 4.57844E-04-4.58581E-15
 -1      2959 2.33584E-03 4.20473E-04-4.40365E-15
 -1      2960 2.62204E-03 4.22569E-04-5.54086E-15
 -1      2961 1.06874E-03-3.15478E-04-1.14526E-15
 -1      2962 1.21217E-03-3.39366E-04-1.43857E-15
 -1      2963 1.27367E-03-3.16841E-04-1.62676E-15
 -1      2964 1.05647E-03-2.85449E-04-1.16304E-15
 -1      2965 5.98169E-03-2.53384E-04-3.30870E-14
 -1      2966 5.84010E-03-1.98817E-04-3.26898E-14
 -1      2967 1.00686E-02-1.77187E-04-5.76980E-14
 -1      2968 1.00680E-02-1.82509E-04-5.76205E-14
 -1      2969 1.00783E-02-1.91388E-04-5.85782E-14
 -1      2970 1.41691E-03 3.98182E-04-1.56800E-15
 -1      2971 1.27364E-03 3.78720E-04-1.27056E-15
 -1      2972 1.19033E-03 3.34260E-04-1.18442E-15
 -1      2973 1.47709E-03 3.71877E-04-1.78952E-15
 -1      2974 7.84691E-04 1.20616E-04-7.20561E-16
 -1      2975 7.82195E-04 9.76068E-05-7.35685E-16
 -1      2976 8.99582E-04 9.67997E-05-9.41521E-16
 -1      2977 9.05621E-04 1.47903E-04-9.04902E-16
 -1      2978 7.81941E-04-9.55698E-05-7.85450E-16
 -1      2979 7.84363E-04-1.18495E-04-7.81601E-16
 -1      2980 9.87100E-03-2.38685E-04-5.71294E-14
 -1      2981 9.74817E-03-2.76250E-04-5.66283E-14
 -1      2982 7.09894E-03 6.66148E-04-3.76610E-14
 -1      2983 7.26753E-03 7.51179E-04-3.88673E-14
 -1      2984 6.68544E-03 4.40362E-04-3.51639E-14
 -1      2985 6.88504E-03 5.52562E-04-3.62780E-14
 -1      2986 5.96621E-03 7.61875E-05-3.25855E-14
 -1      2987 6.11538E-03 1.36309E-04-3.31269E-14
 -1      2988 6.14613E-03 1.74306E-04-3.26076E-14
 -1      2989 1.44681E-02-9.17428E-04-1.37000E-13
 -1      2990 5.48194E-03-9.69138E-05-3.10668E-14
 -1      2991 5.44793E-03-8.69745E-05-3.10441E-14
 -1      2992 5.69761E-03-1.52932E-04-3.20177E-14
 -1      2993 5.57912E-03-1.24316E-04-3.13522E-14
 -1      2994 5.72014E-03-1.74336E-04-3.13520E-14
 -1      2995 8.44139E-03 5.81509E-04-4.89838E-14
 -1      2996 8.63126E-03 4.64977E-04-5.03784E-14
 -1      2997 8.43931E-03-9.60418E-04-4.94686E-14
 -1      2998 8.26233E-03-1.04820E-03-4.79495E-14
 -1      2999 5.45893E-03-7.67261E-05-3.11125E-14
 -1      3000 5.50862E-03-6.51119E-05-3.11784E-14
 -1      3001 5.41681E-03-7.83598E-05-3.02024E-14
 -1      3002 6.77022E-03-6.68300E-04-3.63859E-14
 -1      3003 6.58114E-03-5.53881E-04-3.54381E-14
 -1      3004 8.05341E-03-1.12629E-03-4.61483E-14
 -1      3005 7.93221E-03-1.15454E-03-4.50378E-14
 -1      3006 8.07238E-03 7.74002E-04-4.58442E-14
 -1      3007 8.22621E-03 6.97713E-04-4.71878E-14
 -1      3008 9.19187E-03-5.31890E-04-5.44631E-14
 -1      3009 9.02999E-03-6.21635E-04-5.35927E-14
 -1      3010 8.97362E-03-6.87941E-04-5.38724E-14
 -1      3011 7.40966E-03 8.08006E-04-3.99523E-14
 -1      3012 7.54156E-03 8.46044E-04-4.10550E-14
 -1      3013 7.31538E-03 7.84352E-04-3.90404E-14
 -1      3014 9.62336E-03-4.36974E-05-5.60251E-14
 -1      3015 9.79807E-03-1.01804E-04-5.68790E-14
 -1      3016 7.73194E-03 8.61149E-04-4.27344E-14
 -1      3017 7.89523E-03 8.34954E-04-4.42589E-14
 -1      3018 7.52828E-03-1.11644E-03-4.12704E-14
 -1      3019 7.04384E-03-8.62344E-04-3.75639E-14
 -1      3020 7.87512E-04-1.42279E-04-7.75530E-16
 -1      3021 7.91468E-04-1.67142E-04-7.66639E-16
 -1      3022 9.05170E-04-1.45405E-04-9.87098E-16
 -1      3023 8.95124E-04 9.93686E-07-9.85431E-16
 -1      3024 7.77546E-04-9.44808E-06-7.80585E-16
 -1      3025 7.77944E-04-3.05231E-05-7.84420E-16
 -1      3026 6.04233E-03-2.96115E-04-3.26743E-14
 -1      3027 8.65331E-04 2.62093E-04-6.75255E-16
 -1      3028 8.76979E-03 4.01382E-04-5.16838E-14
 -1      3029 8.14102E-03-1.11292E-03-4.70276E-14
 -1      3030 8.22105E-03-1.10966E-03-4.79376E-14
 -1      3031 8.40554E-03-1.04161E-03-4.97231E-14
 -1      3032 6.44221E-03-4.96437E-04-3.43249E-14
 -1      3033 9.16402E-03 1.75859E-04-5.41048E-14
 -1      3034 1.42302E-02-1.26980E-04-1.33507E-13
 -1      3035 1.41168E-02-1.10712E-04-1.31564E-13
 -1      3036 1.42419E-02-1.68266E-04-1.33700E-13
 -1      3037 7.63307E-03 8.63969E-04-4.17849E-14
 -1      3038 8.58528E-03-9.04653E-04-5.09043E-14
 -1      3039 9.90978E-03-1.25221E-04-5.83138E-14
 -1      3040 9.34992E-03-4.78438E-04-5.59606E-14
 -1      3041 7.97842E-03 8.16530E-04-4.50530E-14
 -1      3042 9.71106E-03-3.12362E-04-5.75207E-14
 -1      3043 1.44564E-02-8.75699E-04-1.36864E-13
 -1      3044 5.84256E-03 4.47061E-05-3.17432E-14
 -1      3045 1.00819E-02-1.73137E-04-5.88904E-14
 -1      3046 7.87026E-03-1.16737E-03-4.44714E-14
 -1      3047 6.39518E-03 3.18372E-04-3.32014E-14
 -1      3048 6.53923E-03 3.74922E-04-3.41746E-14
 -1      3049 6.62608E-03 4.50271E-04-3.42281E-14
 -1      3050 5.53972E-03-4.90631E-05-3.08400E-14
 -1      3051 5.57675E-03-2.85828E-05-3.05003E-14
 -1      3052 5.45564E-03-5.44045E-05-2.99346E-14
 -1      3053 9.95090E-03-2.26936E-04-5.81795E-14
 -1      3054 7.78788E-04-5.17566E-05-7.86345E-16
 -1      3055 7.80096E-04-7.34228E-05-7.86738E-16
 -1      3056 8.99310E-04-9.44777E-05-9.95731E-16
 -1      3057 8.96111E-04-4.61676E-05-9.94593E-16
 -1      3058 1.42575E-02-2.43806E-04-1.33947E-13
 -1      3059 1.42457E-02-2.02721E-04-1.33755E-13
 -1      3060 1.41324E-02-1.86399E-04-1.31816E-13
 -1      3061 1.41401E-02-2.54971E-04-1.31921E-13
 -1      3062 6.97688E-03 6.21743E-04-3.65800E-14
 -1      3063 1.43007E-02-8.70784E-04-1.34126E-13
 -1      3064 1.43860E-02-8.38860E-04-1.35676E-13
 -1      3065 1.42567E-02-8.06820E-04-1.33450E-13
 -1      3066 1.42039E-02-8.61010E-04-1.32438E-13
 -1      3067 9.83530E-04 2.70461E-04-8.79735E-16
 -1      3068 5.48841E-03-1.08202E-04-3.04159E-14
 -1      3069 8.35346E-03 6.44621E-04-4.84408E-14
 -1      3070 9.54975E-03-1.86525E-06-5.62956E-14
 -1      3071 8.72245E-03 4.58449E-04-5.17714E-14
 -1      3072 8.92548E-03 3.34469E-04-5.32161E-14
 -1      3073 1.04083E-03 2.37755E-04-1.04764E-15
 -1      3074 1.03408E-03 2.06406E-04-1.08081E-15
 -1      3075 7.99761E-04-1.87845E-04-7.65067E-16
 -1      3076 8.07767E-04-2.11524E-04-7.57681E-16
 -1      3077 9.37086E-04-2.41353E-04-9.69534E-16
 -1      3078 9.17795E-04-1.94357E-04-9.77679E-16
 -1      3079 9.84091E-03-2.90014E-04-5.90928E-14
 -1      3080 9.72372E-03-3.40452E-04-5.87456E-14
 -1      3081 1.73228E-03-3.27352E-04-2.91665E-15
 -1      3082 1.87589E-03-3.35479E-04-3.37725E-15
 -1      3083 2.01946E-03-3.41672E-04-3.87136E-15
 -1      3084 2.16299E-03-3.46075E-04-4.39889E-15
 -1      3085 1.93971E-03-3.03933E-04-3.64414E-15
 -1      3086 2.30642E-03-3.48956E-04-4.96005E-15
 -1      3087 2.44978E-03-3.50433E-04-5.55425E-15
 -1      3088 2.22690E-03-3.12287E-04-4.70003E-15
 -1      3089 2.59301E-03-3.50729E-04-6.18205E-15
 -1      3090 2.73613E-03-3.49937E-04-6.84258E-15
 -1      3091 2.51362E-03-3.15149E-04-5.88848E-15
 -1      3092 2.87911E-03-3.48248E-04-7.53502E-15
 -1      3093 3.02198E-03-3.45739E-04-8.26052E-15
 -1      3094 2.79959E-03-3.13734E-04-7.20769E-15
 -1      3095 3.16468E-03-3.42582E-04-9.01881E-15
 -1      3096 3.30725E-03-3.38847E-04-9.80898E-15
 -1      3097 3.08459E-03-3.09074E-04-8.65708E-15
 -1      3098 3.44963E-03-3.34706E-04-1.06306E-14
 -1      3099 3.59189E-03-3.30232E-04-1.14842E-14
 -1      3100 3.36842E-03-3.02091E-04-1.02352E-14
 -1      3101 3.73394E-03-3.25615E-04-1.23694E-14
 -1      3102 3.87588E-03-3.20944E-04-1.32857E-14
 -1      3103 3.65090E-03-2.93688E-04-1.19395E-14
 -1      3104 4.01763E-03-3.16443E-04-1.42331E-14
 -1      3105 4.15931E-03-3.12236E-04-1.52109E-14
 -1      3106 3.93189E-03-2.84849E-04-1.37695E-14
 -1      3107 4.30087E-03-3.08593E-04-1.62197E-14
 -1      3108 4.44251E-03-3.05702E-04-1.72583E-14
 -1      3109 4.21137E-03-2.76735E-04-1.57225E-14
 -1      3110 4.58421E-03-3.03879E-04-1.83258E-14
 -1      3111 4.72630E-03-3.03425E-04-1.94236E-14
 -1      3112 4.48957E-03-2.70785E-04-1.77971E-14
 -1      3113 4.86885E-03-3.04685E-04-2.05521E-14
 -1      3114 5.01238E-03-3.08181E-04-2.17086E-14
 -1      3115 4.76727E-03-2.68824E-04-1.99897E-14
 -1      3116 5.15715E-03-3.14244E-04-2.28929E-14
 -1      3117 5.30396E-03-3.23780E-04-2.41079E-14
 -1      3118 5.04628E-03-2.73260E-04-2.22999E-14
 -1      3119 5.45335E-03-3.37080E-04-2.53517E-14
 -1      3120 5.60646E-03-3.55828E-04-2.66239E-14
 -1      3121 5.33006E-03-2.87409E-04-2.47247E-14
 -1      3122 5.76435E-03-3.80202E-04-2.79258E-14
 -1      3123 5.92819E-03-4.13151E-04-2.92563E-14
 -1      3124 5.62507E-03-3.16868E-04-2.72651E-14
 -1      3125 6.09971E-03-4.54476E-04-3.06172E-14
 -1      3126 6.27934E-03-5.09279E-04-3.20078E-14
 -1      3127 5.94162E-03-3.71472E-04-2.99216E-14
 -1      3128 6.55097E-03-6.09624E-04-3.40219E-14
 -1      3129 6.74932E-03-6.98650E-04-3.54881E-14
 -1      3130 9.25017E-03-6.26097E-04-5.70423E-14
 -1      3131 9.43398E-03-5.76010E-04-5.89711E-14
 -1      3132 9.61000E-03-5.40362E-04-6.09238E-14
 -1      3133 9.77734E-03-5.14158E-04-6.28973E-14
 -1      3134 9.58650E-03-4.92499E-04-5.99025E-14
 -1      3135 9.93827E-03-4.97676E-04-6.48913E-14
 -1      3136 1.00936E-02-4.87294E-04-6.69069E-14
 -1      3137 9.91068E-03-4.52331E-04-6.38477E-14
 -1      3138 1.02447E-02-4.83004E-04-6.89429E-14
 -1      3139 1.03928E-02-4.82830E-04-7.09985E-14
 -1      3140 1.02100E-02-4.40579E-04-6.78756E-14
 -1      3141 1.05384E-02-4.86549E-04-7.30733E-14
 -1      3142 1.06825E-02-4.93073E-04-7.51665E-14
 -1      3143 1.04958E-02-4.45937E-04-7.19829E-14
 -1      3144 1.08254E-02-5.02096E-04-7.72792E-14
 -1      3145 1.09677E-02-5.13017E-04-7.94117E-14
 -1      3146 1.07753E-02-4.62124E-04-7.61640E-14
 -1      3147 1.11094E-02-5.25506E-04-8.15620E-14
 -1      3148 1.12510E-02-5.39221E-04-8.37323E-14
 -1      3149 1.10527E-02-4.85402E-04-8.04240E-14
 -1      3150 1.13924E-02-5.53857E-04-8.59232E-14
 -1      3151 1.15339E-02-5.69215E-04-8.81289E-14
 -1      3152 1.13301E-02-5.13244E-04-8.47618E-14
 -1      3153 1.16754E-02-5.85043E-04-9.03499E-14
 -1      3154 1.18171E-02-6.01222E-04-9.25877E-14
 -1      3155 1.16084E-02-5.43810E-04-8.91695E-14
 -1      3156 1.19588E-02-6.17562E-04-9.48441E-14
 -1      3157 1.21007E-02-6.33992E-04-9.71198E-14
 -1      3158 1.18881E-02-5.75746E-04-9.36411E-14
 -1      3159 1.22427E-02-6.50380E-04-9.94094E-14
 -1      3160 1.23849E-02-6.66688E-04-1.01716E-13
 -1      3161 1.21691E-02-6.08085E-04-9.81829E-14
 -1      3162 1.25271E-02-6.82829E-04-1.04039E-13
 -1      3163 1.26695E-02-6.98787E-04-1.06379E-13
 -1      3164 1.24512E-02-6.40172E-04-1.02794E-13
 -1      3165 1.28119E-02-7.14512E-04-1.08736E-13
 -1      3166 1.29544E-02-7.29999E-04-1.11109E-13
 -1      3167 1.27342E-02-6.71602E-04-1.07471E-13
 -1      3168 1.30970E-02-7.45226E-04-1.13497E-13
 -1      3169 1.32396E-02-7.60196E-04-1.15898E-13
 -1      3170 1.30180E-02-7.02155E-04-1.12209E-13
 -1      3171 1.33823E-02-7.74904E-04-1.18315E-13
 -1      3172 1.35250E-02-7.89359E-04-1.20745E-13
 -1      3173 1.33024E-02-7.31742E-04-1.17010E-13
 -1      3174 1.36678E-02-8.03568E-04-1.23188E-13
 -1      3175 1.38105E-02-8.17540E-04-1.25638E-13
 -1      3176 1.35872E-02-7.60367E-04-1.21862E-13
 -1      3177 1.39358E-02-8.32649E-04-1.27793E-13
 -1      3178 1.40786E-02-8.46218E-04-1.30265E-13
 -1      3179 1.41051E-02-8.19205E-04-1.30775E-13
 -1      3180 1.38547E-02-7.89430E-04-1.26453E-13
 -1      3181 2.11249E-03 3.79270E-04-3.71316E-15
 -1      3182 1.96910E-03 3.73822E-04-3.24025E-15
 -1      3183 3.25898E-03 3.76851E-04-8.68072E-15
 -1      3184 3.11557E-03 3.80174E-04-7.94608E-15
 -1      3185 2.97224E-03 3.82897E-04-7.24343E-15
 -1      3186 2.82894E-03 3.84930E-04-6.57397E-15
 -1      3187 3.03548E-03 3.45685E-04-7.68277E-15
 -1      3188 3.83386E-03 3.60548E-04-1.19355E-14
 -1      3189 3.68986E-03 3.64796E-04-1.10745E-14
 -1      3190 4.12273E-03 3.52778E-04-1.37532E-14
 -1      3191 3.97811E-03 3.56485E-04-1.28284E-14
 -1      3192 3.89293E-03 3.22620E-04-1.24866E-14
 -1      3193 4.41344E-03 3.47407E-04-1.56964E-14
 -1      3194 4.26779E-03 3.49670E-04-1.47086E-14
 -1      3195 4.17932E-03 3.14846E-04-1.43400E-14
 -1      3196 4.70714E-03 3.46634E-04-1.77658E-14
 -1      3197 4.55982E-03 3.46274E-04-1.67156E-14
 -1      3198 4.46710E-03 3.09431E-04-1.63195E-14
 -1      3199 5.00555E-03 3.53322E-04-1.99602E-14
 -1      3200 4.85563E-03 3.48803E-04-1.88477E-14
 -1      3201 4.75765E-03 3.08455E-04-1.84243E-14
 -1      3202 5.31114E-03 3.71166E-04-2.22758E-14
 -1      3203 5.15730E-03 3.60513E-04-2.11024E-14
 -1      3204 5.05312E-03 3.14693E-04-2.06520E-14
 -1      3205 5.62698E-03 4.04819E-04-2.47142E-14
 -1      3206 5.46767E-03 3.85582E-04-2.34802E-14
 -1      3207 5.35667E-03 3.31906E-04-2.30008E-14
 -1      3208 5.95599E-03 4.59664E-04-2.72741E-14
 -1      3209 5.78986E-03 4.29123E-04-2.59792E-14
 -1      3210 5.67235E-03 3.65252E-04-2.54712E-14
 -1      3211 6.29934E-03 5.40196E-04-2.99569E-14
 -1      3212 6.12627E-03 4.96376E-04-2.85999E-14
 -1      3213 6.00435E-03 4.21231E-04-2.80624E-14
 -1      3214 6.65329E-03 6.46849E-04-3.27635E-14
 -1      3215 6.47593E-03 5.90716E-04-3.13447E-14
 -1      3216 6.35444E-03 5.06505E-04-3.07744E-14
 -1      3217 7.00820E-03 7.67053E-04-3.56991E-14
 -1      3218 6.83210E-03 7.07250E-04-3.42146E-14
 -1      3219 6.71837E-03 6.23093E-04-3.36115E-14
 -1      3220 7.67599E-03 9.09098E-04-4.19674E-14
 -1      3221 7.51350E-03 9.00532E-04-4.03463E-14
 -1      3222 7.99946E-03 8.63008E-04-4.53081E-14
 -1      3223 7.83580E-03 8.97061E-04-4.36169E-14
 -1      3224 8.33768E-03 7.44556E-04-4.87969E-14
 -1      3225 8.16635E-03 8.08495E-04-4.70404E-14
 -1      3226 8.68962E-03 6.01137E-04-5.24003E-14
 -1      3227 8.51276E-03 6.73090E-04-5.05837E-14
 -1      3228 8.44899E-03 6.67937E-04-4.98122E-14
 -1      3229 9.04400E-03 4.66598E-04-5.61157E-14
 -1      3230 8.86775E-03 5.31262E-04-5.42445E-14
 -1      3231 8.81286E-03 5.14856E-04-5.34499E-14
 -1      3232 9.38936E-03 3.56681E-04-5.99372E-14
 -1      3233 9.21851E-03 4.08322E-04-5.80132E-14
 -1      3234 9.17201E-03 3.83915E-04-5.71988E-14
 -1      3235 9.72102E-03 2.73003E-04-6.38538E-14
 -1      3236 9.55716E-03 3.11914E-04-6.18837E-14
 -1      3237 9.51594E-03 2.83745E-04-6.10485E-14
 -1      3238 1.00393E-02 2.11283E-04-6.78603E-14
 -1      3239 9.88176E-03 2.39848E-04-6.58464E-14
 -1      3240 9.84249E-03 2.10720E-04-6.49924E-14
 -1      3241 1.03468E-02 1.66168E-04-7.19510E-14
 -1      3242 1.01942E-02 1.87032E-04-6.98938E-14
 -1      3243 1.01543E-02 1.58011E-04-6.90251E-14
 -1      3244 1.06467E-02 1.32929E-04-7.61205E-14
 -1      3245 1.04975E-02 1.48359E-04-7.40263E-14
 -1      3246 1.04555E-02 1.19623E-04-7.31369E-14
 -1      3247 1.09415E-02 1.07762E-04-8.03624E-14
 -1      3248 1.07946E-02 1.19551E-04-7.82333E-14
 -1      3249 1.07497E-02 9.09842E-05-7.73278E-14
 -1      3250 1.12330E-02 8.77556E-05-8.46812E-14
 -1      3251 1.10876E-02 9.72663E-05-8.25122E-14
 -1      3252 1.10396E-02 6.87208E-05-8.15913E-14
 -1      3253 1.15225E-02 7.07524E-05-8.90747E-14
 -1      3254 1.13780E-02 7.89852E-05-8.68695E-14
 -1      3255 1.13271E-02 5.03730E-05-8.59302E-14
 -1      3256 1.18108E-02 5.52043E-05-9.35395E-14
 -1      3257 1.16668E-02 6.28686E-05-9.12963E-14
 -1      3258 1.16133E-02 3.41646E-05-9.03423E-14
 -1      3259 1.20982E-02 4.00484E-05-9.80831E-14
 -1      3260 1.19545E-02 4.76241E-05-9.58032E-14
 -1      3261 1.18989E-02 1.88447E-05-9.48280E-14
 -1      3262 1.23851E-02 2.45947E-05-1.02695E-13
 -1      3263 1.22417E-02 3.23871E-05-1.00380E-13
 -1      3264 1.21843E-02 3.56802E-06-9.93897E-14
 -1      3265 1.26717E-02 8.43150E-06-1.07363E-13
 -1      3266 1.25284E-02 1.66171E-05-1.05023E-13
 -1      3267 1.24697E-02-1.22024E-05-1.04018E-13
 -1      3268 1.29580E-02-8.65385E-06-1.12074E-13
 -1      3269 1.28149E-02 1.05742E-08-1.09713E-13
 -1      3270 1.27551E-02-2.87751E-05-1.08698E-13
 -1      3271 1.32442E-02-2.67377E-05-1.16825E-13
 -1      3272 1.31011E-02-1.75703E-05-1.14446E-13
 -1      3273 1.30406E-02-4.62955E-05-1.13420E-13
 -1      3274 1.35302E-02-4.58053E-05-1.21614E-13
 -1      3275 1.33872E-02-3.61512E-05-1.19213E-13
 -1      3276 1.33261E-02-6.47994E-05-1.18179E-13
 -1      3277 1.38162E-02-6.57914E-05-1.26443E-13
 -1      3278 1.36732E-02-5.56888E-05-1.24025E-13
 -1      3279 1.36117E-02-8.42468E-05-1.22978E-13
 -1      3280 1.40233E-02-9.61796E-05-1.29965E-13
 -1      3281 1.39098E-02-8.01321E-05-1.28031E-13
 -1      3282 1.38481E-02-1.08582E-04-1.26976E-13
 -1      3283 1.40351E-02-1.37423E-04-1.30162E-13
 -1      3284 1.41090E-02-5.84408E-04-1.31136E-13
 -1      3285 1.40978E-02-5.44354E-04-1.30980E-13
 -1      3286 6.86745E-03 5.90684E-04-3.55295E-14
 -1      3287 7.06339E-03 6.90244E-04-3.68970E-14
 -1      3288 1.40862E-02-5.03648E-04-1.30815E-13
 -1      3289 1.40746E-02-4.62949E-04-1.30652E-13
 -1      3290 1.39690E-02-5.13188E-04-1.28781E-13
 -1      3291 7.52785E-03 8.63759E-04-4.06990E-14
 -1      3292 7.70175E-03 8.78707E-04-4.23698E-14
 -1      3293 7.87053E-03 8.60850E-04-4.40259E-14
 -1      3294 8.02973E-03 8.12321E-04-4.56091E-14
 -1      3295 5.36844E-03-7.72871E-05-2.91832E-14
 -1      3296 5.38025E-03-6.73120E-05-2.92497E-14
 -1      3297 1.01605E-03 6.61463E-05-1.18994E-15
 -1      3298 1.01477E-03 3.99602E-05-1.20315E-15
 -1      3299 9.87733E-03-9.96799E-05-5.92351E-14
 -1      3300 1.00174E-02-1.40603E-04-6.00493E-14
 -1      3301 1.82569E-03 3.66404E-04-2.80001E-15
 -1      3302 1.68221E-03 3.56855E-04-2.39317E-15
 -1      3303 1.88871E-03 3.35224E-04-3.07934E-15
 -1      3304 5.71979E-03 2.15250E-05-3.07471E-14
 -1      3305 5.86529E-03 7.89368E-05-3.10700E-14
 -1      3306 6.35972E-03-5.02244E-04-3.30440E-14
 -1      3307 1.41317E-02-6.66101E-04-1.31442E-13
 -1      3308 1.41204E-02-6.25211E-04-1.31290E-13
 -1      3309 1.39918E-02-5.94316E-04-1.29092E-13
 -1      3310 1.41541E-02-7.48212E-04-1.31733E-13
 -1      3311 1.41429E-02-7.07094E-04-1.31589E-13
 -1      3312 1.40142E-02-6.75774E-04-1.29385E-13
 -1      3313 3.54609E-03 3.69021E-04-1.02446E-14
 -1      3314 3.40246E-03 3.73101E-04-9.44653E-15
 -1      3315 3.32138E-03 3.39202E-04-9.15716E-15
 -1      3316 3.60711E-03 3.31159E-04-1.07588E-14
 -1      3317 1.14567E-03 3.03831E-04-1.14981E-15
 -1      3318 1.08297E-03 2.65606E-04-1.08793E-15
 -1      3319 1.20201E-03 2.66116E-04-1.34517E-15
 -1      3320 1.28893E-03 3.24421E-04-1.43142E-15
 -1      3321 6.07688E-03-3.37579E-04-3.21184E-14
 -1      3322 5.90585E-03-2.60953E-04-3.14688E-14
 -1      3323 7.78722E-03-1.18092E-03-4.36576E-14
 -1      3324 1.44524E-03-3.04204E-04-2.09731E-15
 -1      3325 1.58874E-03-3.16975E-04-2.49009E-15
 -1      3326 1.65246E-03-2.88648E-04-2.72213E-15
 -1      3327 1.01202E-02-1.92273E-04-5.97344E-14
 -1      3328 1.00934E-02-2.01389E-04-5.96521E-14
 -1      3329 9.48350E-03-4.50334E-04-5.75742E-14
 -1      3330 9.26750E-03-5.60491E-04-5.63469E-14
 -1      3331 9.13303E-03 2.20663E-04-5.46311E-14
 -1      3332 9.29511E-03 1.35551E-04-5.56262E-14
 -1      3333 6.04080E-03 1.58627E-04-3.15559E-14
 -1      3334 6.17510E-03 2.19365E-04-3.20848E-14
 -1      3335 5.76333E-03-2.08157E-04-3.08143E-14
 -1      3336 5.63373E-03-1.69198E-04-3.01644E-14
 -1      3337 5.79278E-03-2.47096E-04-3.02735E-14
 -1      3338 1.01024E-02-1.69894E-04-6.01999E-14
 -1      3339 1.01262E-02-1.81204E-04-5.99705E-14
 -1      3340 1.01646E-02-1.90294E-04-6.10539E-14
 -1      3341 8.20926E-03 7.42592E-04-4.73471E-14
 -1      3342 8.40240E-03 6.46401E-04-4.91463E-14
 -1      3343 1.00413E-02-2.22120E-04-5.97385E-14
 -1      3344 9.94954E-03-2.49227E-04-5.94170E-14
 -1      3345 9.96194E-03-2.77049E-04-6.06584E-14
 -1      3346 6.87284E-03-7.48751E-04-3.65557E-14
 -1      3347 9.49418E-03 4.24834E-05-5.68380E-14
 -1      3348 9.68619E-03-3.27241E-05-5.80573E-14
 -1      3349 9.45784E-03 8.94081E-05-5.73746E-14
 -1      3350 7.23312E-03 7.67529E-04-3.81847E-14
 -1      3351 7.36250E-03 8.18783E-04-3.92591E-14
 -1      3352 5.49326E-03-1.21246E-04-2.97259E-14
 -1      3353 5.41092E-03-9.66718E-05-2.94500E-14
 -1      3354 7.61219E-03-1.15146E-03-4.19982E-14
 -1      3355 1.01411E-03 1.40089E-05-1.21364E-15
 -1      3356 1.01408E-03-1.18345E-05-1.22173E-15
 -1      3357 1.13439E-03 2.91546E-05-1.46439E-15
 -1      3358 1.15329E-03 2.05997E-04-1.33369E-15
 -1      3359 1.02856E-03 1.76491E-04-1.10953E-15
 -1      3360 1.02418E-03 1.47708E-04-1.13454E-15
 -1      3361 1.03419E-03-2.33746E-04-1.17765E-15
 -1      3362 1.04478E-03-2.59105E-04-1.17181E-15
 -1      3363 1.15299E-03-2.74921E-04-1.39442E-15
 -1      3364 1.01083E-02-2.20005E-04-6.09023E-14
 -1      3365 9.83271E-03-6.38668E-05-5.97893E-14
 -1      3366 9.63993E-03-4.11859E-04-5.91454E-14
 -1      3367 1.02373E-03-1.45004E-04-1.22473E-15
 -1      3368 1.02800E-03-1.73689E-04-1.21646E-15
 -1      3369 8.52716E-03-9.52357E-04-5.05946E-14
 -1      3370 2.39913E-03 3.85312E-04-4.75904E-15
 -1      3371 2.25582E-03 3.83056E-04-4.21932E-15
 -1      3372 2.17586E-03 3.45658E-04-4.03398E-15
 -1      3373 1.26147E-03-2.88701E-04-1.63689E-15
 -1      3374 5.89613E-03 1.23050E-04-3.05605E-14
 -1      3375 2.74929E-03 3.49625E-04-6.33617E-15
 -1      3376 2.68567E-03 3.86091E-04-5.93625E-15
 -1      3377 2.54240E-03 3.86287E-04-5.33098E-15
 -1      3378 7.44189E-03 8.58714E-04-3.98170E-14
 -1      3379 7.36099E-03 8.63521E-04-3.89142E-14
 -1      3380 7.19082E-03 8.17685E-04-3.73593E-14
 -1      3381 7.09055E-03 7.49450E-04-3.67178E-14
 -1      3382 7.76166E-03 8.87741E-04-4.29009E-14
 -1      3383 8.09561E-03 8.11458E-04-4.62863E-14
 -1      3384 1.40389E-02-3.41013E-04-1.30130E-13
 -1      3385 1.40268E-02-3.00107E-04-1.29950E-13
 -1      3386 1.40628E-02-4.22411E-04-1.30482E-13
 -1      3387 1.40509E-02-3.81657E-04-1.30306E-13
 -1      3388 1.39219E-02-3.51527E-04-1.28112E-13
 -1      3389 1.39457E-02-4.32337E-04-1.28453E-13
 -1      3390 5.31112E-03-5.49399E-05-2.79230E-14
 -1      3391 5.38145E-03-5.52934E-05-2.89204E-14
 -1      3392 5.39041E-03-4.11900E-05-2.85919E-14
 -1      3393 9.09820E-03-6.66565E-04-5.54406E-14
 -1      3394 5.34262E-03-8.53054E-05-2.85123E-14
 -1      3395 1.00890E-02-1.35298E-04-6.20742E-14
 -1      3396 1.00966E-02-1.55292E-04-6.11372E-14
 -1      3397 1.01657E-02-1.65989E-04-6.22321E-14
 -1      3398 5.59382E-03 1.26214E-07-2.98452E-14
 -1      3399 6.17605E-03-3.98070E-04-3.23125E-14
 -1      3400 6.27116E-03 2.91540E-04-3.21344E-14
 -1      3401 1.02032E-03-1.17238E-04-1.22972E-15
 -1      3402 1.14297E-03-1.41419E-04-1.48747E-15
 -1      3403 1.01774E-03-9.02259E-05-1.23138E-15
 -1      3404 8.96790E-03-7.45553E-04-5.45550E-14
 -1      3405 9.07107E-03 2.85643E-04-5.47205E-14
 -1      3406 1.39058E-02-2.77174E-04-1.27890E-13
 -1      3407 1.40228E-02-2.66104E-04-1.29904E-13
 -1      3408 1.40189E-02-2.32004E-04-1.29852E-13
 -1      3409 8.76850E-03-8.28173E-04-5.26851E-14
 -1      3410 1.02067E-03 1.19793E-04-1.15617E-15
 -1      3411 1.01802E-03 9.27139E-05-1.17462E-15
 -1      3412 1.13734E-03 8.57408E-05-1.43391E-15
 -1      3413 1.14343E-03 1.44252E-04-1.39117E-15
 -1      3414 1.32513E-03-2.65613E-04-1.82738E-15
 -1      3415 6.02351E-03-3.56253E-04-3.11080E-14
 -1      3416 8.59142E-03 5.58804E-04-5.09422E-14
 -1      3417 1.55725E-03 3.50367E-04-2.05661E-15
 -1      3418 1.41377E-03 3.35888E-04-1.71200E-15
 -1      3419 1.36980E-03 3.06333E-04-1.66574E-15
 -1      3420 1.61990E-03 3.22312E-04-2.29664E-15
 -1      3421 1.41164E-02-7.97146E-04-1.31005E-13
 -1      3422 1.41428E-02-7.70208E-04-1.31507E-13
 -1      3423 1.40140E-02-7.38564E-04-1.29299E-13
 -1      3424 1.39912E-02-7.82409E-04-1.28841E-13
 -1      3425 5.53615E-03-1.73704E-04-2.86816E-14
 -1      3426 5.51587E-03-1.44939E-04-2.92040E-14
 -1      3427 5.41139E-03-1.28518E-04-2.82584E-14
 -1      3428 8.74545E-03 4.96338E-04-5.24585E-14
 -1      3429 1.02456E-03-2.09401E-04-1.18095E-15
 -1      3430 5.74953E-03 9.89234E-05-2.93843E-14
 -1      3431 5.90211E-03 1.68435E-04-2.98506E-14
 -1      3432 1.40289E-02-2.01968E-04-1.30036E-13
 -1      3433 1.40249E-02-1.67663E-04-1.29983E-13
 -1      3434 1.39315E-02-1.53192E-04-1.28388E-13
 -1      3435 1.39116E-02-2.13337E-04-1.28026E-13
 -1      3436 6.14484E-03 2.77232E-04-3.09244E-14
 -1      3437 6.34740E-03 3.66780E-04-3.20171E-14
 -1      3438 2.14789E-03-2.75823E-04-4.44299E-15
 -1      3439 2.29138E-03-2.78316E-04-5.00378E-15
 -1      3440 2.43469E-03-2.79651E-04-5.59778E-15
 -1      3441 2.57779E-03-2.79908E-04-6.22473E-15
 -1      3442 2.35635E-03-2.44251E-04-5.31061E-15
 -1      3443 2.72059E-03-2.79270E-04-6.88319E-15
 -1      3444 2.86309E-03-2.77799E-04-7.57421E-15
 -1      3445 2.64223E-03-2.44812E-04-6.56204E-15
 -1      3446 3.00521E-03-2.75662E-04-8.29825E-15
 -1      3447 3.14695E-03-2.72905E-04-9.05439E-15
 -1      3448 2.92663E-03-2.42240E-04-7.94292E-15
 -1      3449 3.28822E-03-2.69693E-04-9.84267E-15
 -1      3450 3.42904E-03-2.66062E-04-1.06621E-14
 -1      3451 3.20911E-03-2.37342E-04-9.45301E-15
 -1      3452 3.56930E-03-2.62185E-04-1.15127E-14
 -1      3453 3.70904E-03-2.58098E-04-1.23953E-14
 -1      3454 3.48919E-03-2.30863E-04-1.10898E-14
 -1      3455 3.84816E-03-2.53993E-04-1.33088E-14
 -1      3456 3.98669E-03-2.49914E-04-1.42534E-14
 -1      3457 3.76645E-03-2.23552E-04-1.28514E-14
 -1      3458 4.12454E-03-2.46080E-04-1.52287E-14
 -1      3459 4.26182E-03-2.42554E-04-1.62345E-14
 -1      3460 4.04047E-03-2.16214E-04-1.47380E-14
 -1      3461 4.39841E-03-2.39582E-04-1.72698E-14
 -1      3462 4.53452E-03-2.37267E-04-1.83348E-14
 -1      3463 4.31089E-03-2.09749E-04-1.67459E-14
 -1      3464 4.67005E-03-2.35872E-04-1.94299E-14
 -1      3465 4.80541E-03-2.35575E-04-2.05554E-14
 -1      3466 4.57759E-03-2.05181E-04-1.88741E-14
 -1      3467 4.94052E-03-2.36616E-04-2.17090E-14
 -1      3468 5.07613E-03-2.39429E-04-2.28904E-14
 -1      3469 4.84086E-03-2.03646E-04-2.11194E-14
 -1      3470 5.21229E-03-2.44203E-04-2.41009E-14
 -1      3471 5.35016E-03-2.51569E-04-2.53411E-14
 -1      3472 5.10200E-03-2.06579E-04-2.34808E-14
 -1      3473 5.86117E-03-3.20849E-04-2.97418E-14
 -1      3474 1.38746E-02-6.03655E-04-1.27047E-13
 -1      3475 1.38634E-02-5.63220E-04-1.26901E-13
 -1      3476 9.89375E-03-4.06354E-04-6.28056E-14
 -1      3477 1.00406E-02-3.99473E-04-6.47969E-14
 -1      3478 1.01822E-02-3.98525E-04-6.68102E-14
 -1      3479 1.03211E-02-4.00857E-04-6.88432E-14
 -1      3480 1.01617E-02-3.56313E-04-6.57468E-14
 -1      3481 1.04577E-02-4.06336E-04-7.08942E-14
 -1      3482 1.05934E-02-4.13936E-04-7.29644E-14
 -1      3483 1.04242E-02-3.67569E-04-6.98079E-14
 -1      3484 1.07283E-02-4.23495E-04-7.50539E-14
 -1      3485 1.08633E-02-4.34507E-04-7.71622E-14
 -1      3486 1.06845E-02-3.86141E-04-7.39448E-14
 -1      3487 1.09983E-02-4.46756E-04-7.92893E-14
 -1      3488 1.11338E-02-4.60022E-04-8.14362E-14
 -1      3489 1.09462E-02-4.09562E-04-7.81565E-14
 -1      3490 1.12697E-02-4.74059E-04-8.36021E-14
 -1      3491 1.14061E-02-4.88759E-04-8.57894E-14
 -1      3492 1.12109E-02-4.36323E-04-8.24484E-14
 -1      3493 1.15431E-02-5.03892E-04-8.79903E-14
 -1      3494 1.16807E-02-5.19398E-04-9.02062E-14
 -1      3495 1.14791E-02-4.65323E-04-8.68119E-14
 -1      3496 1.18188E-02-5.35088E-04-9.24404E-14
 -1      3497 1.19574E-02-5.50929E-04-9.46925E-14
 -1      3498 1.17505E-02-4.95631E-04-9.12425E-14
 -1      3499 1.20966E-02-5.66773E-04-9.69629E-14
 -1      3500 1.22362E-02-5.82608E-04-9.92494E-14
 -1      3501 1.20250E-02-5.26495E-04-9.57427E-14
 -1      3502 1.23762E-02-5.98329E-04-1.01552E-13
 -1      3503 1.25166E-02-6.13932E-04-1.03873E-13
 -1      3504 1.23020E-02-5.57350E-04-1.00314E-13
 -1      3505 1.26573E-02-6.29350E-04-1.06210E-13
 -1      3506 1.27984E-02-6.44588E-04-1.08561E-13
 -1      3507 1.25810E-02-5.87805E-04-1.04951E-13
 -1      3508 1.29396E-02-6.59603E-04-1.10929E-13
 -1      3509 1.30812E-02-6.74409E-04-1.13311E-13
 -1      3510 1.28618E-02-6.17618E-04-1.09651E-13
 -1      3511 1.32229E-02-6.88983E-04-1.15708E-13
 -1      3512 1.33649E-02-7.03339E-04-1.18118E-13
 -1      3513 1.31439E-02-6.46668E-04-1.14409E-13
 -1      3514 1.35069E-02-7.17470E-04-1.20540E-13
 -1      3515 1.36491E-02-7.31395E-04-1.22976E-13
 -1      3516 1.34270E-02-6.74918E-04-1.19223E-13
 -1      3517 1.01877E-02-2.16847E-04-6.23179E-14
 -1      3518 1.01494E-02-2.36956E-04-6.24035E-14
 -1      3519 4.23415E-03 2.77546E-04-1.49307E-14
 -1      3520 4.09235E-03 2.81269E-04-1.39706E-14
 -1      3521 3.95066E-03 2.85330E-04-1.30411E-14
 -1      3522 3.80893E-03 2.89587E-04-1.21431E-14
 -1      3523 4.00710E-03 2.48735E-04-1.35997E-14
 -1      3524 4.80539E-03 2.70461E-04-1.90865E-14
 -1      3525 4.66151E-03 2.70525E-04-1.80010E-14
 -1      3526 5.09725E-03 2.75704E-04-2.13469E-14
 -1      3527 4.95047E-03 2.71973E-04-2.02016E-14
 -1      3528 4.85032E-03 2.32524E-04-1.97508E-14
 -1      3529 5.39797E-03 2.91476E-04-2.37283E-14
 -1      3530 5.24620E-03 2.81829E-04-2.25219E-14
 -1      3531 5.13777E-03 2.36105E-04-2.20444E-14
 -1      3532 5.71273E-03 3.23564E-04-2.62297E-14
 -1      3533 5.55332E-03 3.04868E-04-2.49638E-14
 -1      3534 5.43470E-03 2.49570E-04-2.44567E-14
 -1      3535 6.38205E-03 4.55460E-04-3.14888E-14
 -1      3536 6.20106E-03 4.05946E-04-3.01056E-14
 -1      3537 6.71380E-03 5.50447E-04-3.41631E-14
 -1      3538 6.52338E-03 4.80949E-04-3.27212E-14
 -1      3539 9.64980E-03 2.08774E-04-6.21782E-14
 -1      3540 9.48348E-03 2.48668E-04-6.02259E-14
 -1      3541 9.96825E-03 1.47920E-04-6.61485E-14
 -1      3542 9.81134E-03 1.75939E-04-6.41512E-14
 -1      3543 9.78521E-03 1.38907E-04-6.33111E-14
 -1      3544 1.02717E-02 1.04488E-04-7.02034E-14
 -1      3545 1.01215E-02 1.24576E-04-6.81665E-14
 -1      3546 1.00930E-02 8.99409E-05-6.73066E-14
 -1      3547 1.05654E-02 7.25845E-05-7.43396E-14
 -1      3548 1.04195E-02 8.74630E-05-7.22626E-14
 -1      3549 1.03869E-02 5.49498E-05-7.13861E-14
 -1      3550 1.08533E-02 4.81242E-05-7.85507E-14
 -1      3551 1.07099E-02 5.96532E-05-7.64364E-14
 -1      3552 1.06728E-02 2.85569E-05-7.55438E-14
 -1      3553 1.11381E-02 2.83327E-05-8.28354E-14
 -1      3554 1.09960E-02 3.77928E-05-8.06838E-14
 -1      3555 1.09546E-02 7.44422E-06-7.97750E-14
 -1      3556 1.14215E-02 1.12606E-05-8.71936E-14
 -1      3557 1.12799E-02 1.95541E-05-8.50042E-14
 -1      3558 1.12346E-02-1.05221E-05-8.40792E-14
 -1      3559 1.17045E-02-4.47024E-06-9.16219E-14
 -1      3560 1.15630E-02 3.29133E-06-8.93982E-14
 -1      3561 1.15143E-02-2.67980E-05-8.84542E-14
 -1      3562 1.19876E-02-1.98158E-05-9.61328E-14
 -1      3563 1.18460E-02-1.21504E-05-9.38680E-14
 -1      3564 1.17944E-02-4.23961E-05-9.29068E-14
 -1      3565 1.22711E-02-3.54119E-05-1.00711E-13
 -1      3566 1.21293E-02-2.75580E-05-9.84149E-14
 -1      3567 1.20753E-02-5.80107E-05-9.74368E-14
 -1      3568 1.25549E-02-5.16518E-05-1.05353E-13
 -1      3569 1.24129E-02-4.34383E-05-1.03025E-13
 -1      3570 1.23570E-02-7.40955E-05-1.02033E-13
 -1      3571 1.28392E-02-6.87493E-05-1.10042E-13
 -1      3572 1.26970E-02-6.00883E-05-1.07692E-13
 -1      3573 1.26396E-02-9.09210E-05-1.06686E-13
 -1      3574 1.31239E-02-8.67901E-05-1.14776E-13
 -1      3575 1.29815E-02-7.76518E-05-1.12406E-13
 -1      3576 1.29229E-02-1.08621E-04-1.11389E-13
 -1      3577 1.34088E-02-1.05777E-04-1.19545E-13
 -1      3578 1.32663E-02-9.61696E-05-1.17155E-13
 -1      3579 1.32069E-02-1.27235E-04-1.16132E-13
 -1      3580 1.36940E-02-1.25647E-04-1.24356E-13
 -1      3581 1.35514E-02-1.15604E-04-1.21946E-13
 -1      3582 1.34913E-02-1.46727E-04-1.20915E-13
 -1      3583 1.38966E-02-6.84877E-04-1.27330E-13
 -1      3584 1.38856E-02-6.44196E-04-1.27192E-13
 -1      3585 1.37573E-02-6.12750E-04-1.25006E-13
 -1      3586 3.09844E-03 3.08743E-04-8.12624E-15
 -1      3587 2.95578E-03 3.11346E-04-7.41766E-15
 -1      3588 7.11868E-03 7.39540E-04-3.71034E-14
 -1      3589 9.80343E-03-2.11220E-05-6.06342E-14
 -1      3590 9.97356E-03-8.22547E-05-6.18358E-14
 -1      3591 5.75703E-03-2.61570E-04-2.95300E-14
 -1      3592 5.63133E-03-2.17119E-04-2.88993E-14
 -1      3593 5.50365E-03-1.89488E-04-2.79599E-14
 -1      3594 5.68671E-03-2.84063E-04-2.83769E-14
 -1      3595 9.79525E-03-3.92544E-04-6.11007E-14
 -1      3596 1.21350E-03-2.26430E-04-1.59169E-15
 -1      3597 1.39671E-03-2.39747E-04-2.04411E-15
 -1      3598 1.38520E-02-5.22866E-04-1.26746E-13
 -1      3599 1.38405E-02-4.82554E-04-1.26588E-13
 -1      3600 1.37351E-02-5.32308E-04-1.24714E-13
 -1      3601 1.02253E-02-1.89869E-04-6.28000E-14
 -1      3602 1.02180E-02-2.01879E-04-6.25620E-14
 -1      3603 1.02731E-02-2.16361E-04-6.40787E-14
 -1      3604 8.93239E-03 4.20147E-04-5.43067E-14
 -1      3605 1.01467E-03-3.77159E-05-1.22725E-15
 -1      3606 1.01587E-03-6.37605E-05-1.23037E-15
 -1      3607 1.13709E-03-8.31571E-05-1.49133E-15
 -1      3608 4.51854E-03 2.71952E-04-1.69466E-14
 -1      3609 4.37614E-03 2.74364E-04-1.59231E-14
 -1      3610 4.28729E-03 2.40896E-04-1.55261E-14
 -1      3611 4.56779E-03 2.34933E-04-1.75776E-14
 -1      3612 1.57366E-03-2.50815E-04-2.53011E-15
 -1      3613 1.71710E-03-2.59636E-04-2.95871E-15
 -1      3614 5.31037E-03-9.57596E-05-2.76902E-14
 -1      3615 5.26951E-03-7.48500E-05-2.74330E-14
 -1      3616 1.86066E-03-2.66650E-04-3.42039E-15
 -1      3617 2.00430E-03-2.71970E-04-3.91516E-15
 -1      3618 2.06954E-03-2.39647E-04-4.18932E-15
 -1      3619 1.00786E-02-2.71064E-04-6.23627E-14
 -1      3620 9.99100E-03-3.05986E-04-6.20298E-14
 -1      3621 9.43230E-03 1.41618E-04-5.80271E-14
 -1      3622 9.60753E-03 6.07164E-05-5.92642E-14
 -1      3623 9.08371E-03 3.25436E-04-5.54355E-14
 -1      3624 9.26886E-03 2.27227E-04-5.68805E-14
 -1      3625 9.43414E-03 1.87531E-04-5.87573E-14
 -1      3626 9.13436E-03 3.57207E-04-5.64536E-14
 -1      3627 1.95260E-03 3.03568E-04-3.36597E-15
 -1      3628 1.80891E-03 2.97035E-04-2.91740E-15
 -1      3629 5.47822E-03-1.21001E-05-2.88250E-14
 -1      3630 5.59794E-03 3.22792E-05-2.90602E-14
 -1      3631 1.27951E-03 2.35760E-04-1.57709E-15
 -1      3632 1.27304E-03 2.02219E-04-1.61419E-15
 -1      3633 5.60593E-03 7.27717E-05-2.83739E-14
 -1      3634 1.00719E-02-3.25902E-04-6.37468E-14
 -1      3635 9.94006E-03-3.36680E-04-6.20288E-14
 -1      3636 5.54111E-03-2.66603E-04-2.70701E-14
 -1      3637 2.87660E-03 2.77085E-04-7.15232E-15
 -1      3638 2.81294E-03 3.13252E-04-6.74156E-15
 -1      3639 2.66991E-03 3.14395E-04-6.09800E-15
 -1      3640 1.46211E-03-2.14324E-04-2.24667E-15
 -1      3641 5.30304E-03-1.34739E-04-2.66848E-14
 -1      3642 5.30485E-03-1.13283E-04-2.71878E-14
 -1      3643 5.20700E-03-1.01034E-04-2.61354E-14
 -1      3644 2.46275E-03 3.50001E-04-5.11994E-15
 -1      3645 1.13432E-03-2.67492E-05-1.48330E-15
 -1      3646 5.24862E-03-6.31299E-05-2.71179E-14
 -1      3647 5.23564E-03-5.11306E-05-2.68014E-14
 -1      3648 5.19463E-03-7.24564E-05-2.63190E-14
 -1      3649 1.72993E-03 2.59422E-04-2.75414E-15
 -1      3650 1.66532E-03 2.88576E-04-2.50125E-15
 -1      3651 1.37576E-02-7.49498E-04-1.24827E-13
 -1      3652 1.38826E-02-7.64454E-04-1.26974E-13
 -1      3653 1.38940E-02-7.42608E-04-1.27205E-13
 -1      3654 1.36771E-02-7.06744E-04-1.23492E-13
 -1      3655 1.78247E-03-2.29969E-04-3.19971E-15
 -1      3656 1.34539E-03 2.84562E-04-1.64891E-15
 -1      3657 1.30284E-03 2.56383E-04-1.59759E-15
 -1      3658 1.42269E-03 2.50807E-04-1.90714E-15
 -1      3659 1.47035E-03 2.93495E-04-1.94971E-15
 -1      3660 1.38051E-02-3.61996E-04-1.26095E-13
 -1      3661 1.37930E-02-3.21708E-04-1.25922E-13
 -1      3662 3.72627E-03 2.57196E-04-1.17983E-14
 -1      3663 3.66716E-03 2.93857E-04-1.12767E-14
 -1      3664 3.52522E-03 2.98044E-04-1.04412E-14
 -1      3665 6.09174E-03 3.23856E-04-2.98344E-14
 -1      3666 6.07946E-03 3.81522E-04-2.91440E-14
 -1      3667 5.90850E-03 3.48058E-04-2.78128E-14
 -1      3668 6.02611E-03 2.54979E-04-2.99554E-14
 -1      3669 5.77715E-03 2.78249E-04-2.72724E-14
 -1      3670 9.45588E-03 2.16346E-04-5.94629E-14
 -1      3671 9.31139E-03 3.00905E-04-5.83567E-14
 -1      3672 6.92782E-03 6.75518E-04-3.54578E-14
 -1      3673 1.02467E-02-1.78197E-04-6.37527E-14
 -1      3674 1.36722E-02-2.98855E-04-1.23872E-13
 -1      3675 1.37888E-02-2.88075E-04-1.25876E-13
 -1      3676 1.37847E-02-2.54329E-04-1.25831E-13
 -1      3677 1.38380E-02-1.38814E-04-1.26800E-13
 -1      3678 3.24088E-03 3.05601E-04-8.86631E-15
 -1      3679 3.16110E-03 2.72178E-04-8.57418E-15
 -1      3680 3.38315E-03 3.01982E-04-9.63772E-15
 -1      3681 6.72782E-03 5.30878E-04-3.45317E-14
 -1      3682 9.77756E-03 2.61769E-05-6.13019E-14
 -1      3683 2.09625E-03 3.08439E-04-3.84684E-15
 -1      3684 2.01719E-03 2.71496E-04-3.65872E-15
 -1      3685 2.23986E-03 3.11771E-04-4.36057E-15
 -1      3686 1.37122E-02-4.52312E-04-1.24406E-13
 -1      3687 1.38289E-02-4.42430E-04-1.26428E-13
 -1      3688 1.38171E-02-4.02281E-04-1.26263E-13
 -1      3689 1.39054E-02-7.20798E-04-1.27434E-13
 -1      3690 5.86631E-03 2.21125E-04-2.87873E-14
 -1      3691 5.41147E-03-2.18549E-04-2.64117E-14
 -1      3692 1.00715E-02-1.04925E-04-6.29379E-14
 -1      3693 1.01615E-02-1.22693E-04-6.40453E-14
 -1      3694 1.00590E-02-6.94153E-05-6.37989E-14
 -1      3695 1.37776E-02-1.69956E-04-1.25757E-13
 -1      3696 1.14371E-03-2.09372E-04-1.44351E-15
 -1      3697 1.25590E-03 4.61022E-05-1.73741E-15
 -1      3698 1.25507E-03 1.61683E-05-1.75177E-15
 -1      3699 1.54010E-03 2.83241E-04-2.15809E-15
 -1      3700 1.26001E-03 1.06739E-04-1.69904E-15
 -1      3701 1.25755E-03 7.62229E-05-1.71994E-15
 -1      3702 1.37853E-03 6.44927E-05-2.03185E-15
 -1      3703 1.37769E-02-6.88861E-04-1.25246E-13
 -1      3704 1.01837E-02-2.62107E-04-6.37925E-14
 -1      3705 5.37961E-03-1.68851E-05-2.78303E-14
 -1      3706 1.21637E-03-1.87134E-04-1.63200E-15
 -1      3707 1.21155E-03-1.55603E-04-1.64018E-15
 -1      3708 1.28057E-03-1.70070E-04-1.80039E-15
 -1      3709 1.20771E-03-1.24878E-04-1.64495E-15
 -1      3710 5.45889E-03 5.44295E-05-2.71993E-14
 -1      3711 5.58767E-03 1.13592E-04-2.75061E-14
 -1      3712 1.01988E-02-3.29903E-04-6.57487E-14
 -1      3713 2.56464E-03-2.10415E-04-6.24484E-15
 -1      3714 2.70704E-03-2.09923E-04-6.90164E-15
 -1      3715 2.84897E-03-2.08818E-04-7.59139E-15
 -1      3716 2.99037E-03-2.07129E-04-8.31323E-15
 -1      3717 2.77224E-03-1.75326E-04-7.24354E-15
 -1      3718 3.13115E-03-2.05006E-04-9.06693E-15
 -1      3719 3.27127E-03-2.02461E-04-9.85288E-15
 -1      3720 3.05435E-03-1.72553E-04-8.68459E-15
 -1      3721 3.41063E-03-1.99650E-04-1.06699E-14
 -1      3722 3.54918E-03-1.96576E-04-1.15178E-14
 -1      3723 3.33355E-03-1.68344E-04-1.02531E-14
 -1      3724 3.68682E-03-1.93407E-04-1.23977E-14
 -1      3725 3.82352E-03-1.90137E-04-1.33083E-14
 -1      3726 3.60916E-03-1.63271E-04-1.19469E-14
 -1      3727 3.95916E-03-1.86957E-04-1.42501E-14
 -1      3728 4.09372E-03-1.83848E-04-1.52228E-14
 -1      3729 3.88048E-03-1.57912E-04-1.37655E-14
 -1      3730 4.22705E-03-1.81029E-04-1.62254E-14
 -1      3731 4.35921E-03-1.78464E-04-1.72579E-14
 -1      3732 4.14674E-03-1.52869E-04-1.57072E-14
 -1      3733 4.48998E-03-1.76396E-04-1.83201E-14
 -1      3734 4.61952E-03-1.74776E-04-1.94127E-14
 -1      3735 4.40712E-03-1.48745E-04-1.77699E-14
 -1      3736 4.74755E-03-1.73870E-04-2.05346E-14
 -1      3737 4.87444E-03-1.73580E-04-2.16848E-14
 -1      3738 4.66071E-03-1.46118E-04-1.99516E-14
 -1      3739 4.99971E-03-1.74184E-04-2.28642E-14
 -1      3740 5.12419E-03-1.75715E-04-2.40716E-14
 -1      3741 4.90656E-03-1.45336E-04-2.22498E-14
 -1      3742 4.06249E-03 2.12951E-04-1.41627E-14
 -1      3743 3.92377E-03 2.17129E-04-1.32288E-14
 -1      3744 1.36686E-02-6.71072E-04-1.23395E-13
 -1      3745 1.79536E-03 2.29604E-04-3.01384E-15
 -1      3746 1.65195E-03 2.22676E-04-2.58993E-15
 -1      3747 1.45641E-03-1.79681E-04-2.25683E-15
 -1      3748 1.70529E-03-1.94155E-04-2.98250E-15
 -1      3749 1.84861E-03-1.99664E-04-3.44484E-15
 -1      3750 1.03950E-02-3.30889E-04-6.87221E-14
 -1      3751 1.05186E-02-3.40310E-04-7.07692E-14
 -1      3752 1.06429E-02-3.50673E-04-7.28365E-14
 -1      3753 1.07687E-02-3.62062E-04-7.49231E-14
 -1      3754 1.06032E-02-3.17109E-04-7.17305E-14
 -1      3755 1.08955E-02-3.74119E-04-7.70286E-14
 -1      3756 1.10238E-02-3.86907E-04-7.91513E-14
 -1      3757 1.08459E-02-3.40443E-04-7.58982E-14
 -1      3758 1.11533E-02-4.00190E-04-8.12935E-14
 -1      3759 1.12840E-02-4.14032E-04-8.34563E-14
 -1      3760 1.10962E-02-3.65683E-04-8.01430E-14
 -1      3761 1.14159E-02-4.28201E-04-8.56354E-14
 -1      3762 1.15490E-02-4.42741E-04-8.78319E-14
 -1      3763 1.13533E-02-3.92546E-04-8.44618E-14
 -1      3764 1.16830E-02-4.57453E-04-9.00458E-14
 -1      3765 1.18181E-02-4.72367E-04-9.22759E-14
 -1      3766 1.16160E-02-4.20575E-04-8.88501E-14
 -1      3767 1.19541E-02-4.87323E-04-9.45246E-14
 -1      3768 1.20908E-02-5.02344E-04-9.67913E-14
 -1      3769 1.18836E-02-4.49282E-04-9.33086E-14
 -1      3770 1.22283E-02-5.17307E-04-9.90747E-14
 -1      3771 1.23665E-02-5.32234E-04-1.01376E-13
 -1      3772 1.21551E-02-4.78231E-04-9.78360E-14
 -1      3773 1.25053E-02-5.47036E-04-1.03693E-13
 -1      3774 1.26446E-02-5.61733E-04-1.06025E-13
 -1      3775 1.24299E-02-5.07076E-04-1.02435E-13
 -1      3776 1.27844E-02-5.76265E-04-1.08376E-13
 -1      3777 1.29246E-02-5.90652E-04-1.10739E-13
 -1      3778 1.27073E-02-5.35576E-04-1.07101E-13
 -1      3779 1.30652E-02-6.04857E-04-1.13116E-13
 -1      3780 1.32062E-02-6.18898E-04-1.15506E-13
 -1      3781 1.29868E-02-5.63582E-04-1.11824E-13
 -1      3782 1.33474E-02-6.32759E-04-1.17908E-13
 -1      3783 1.34889E-02-6.46455E-04-1.20325E-13
 -1      3784 1.32680E-02-5.91024E-04-1.16600E-13
 -1      3785 5.17401E-03 1.96365E-04-2.27437E-14
 -1      3786 5.03225E-03 1.94752E-04-2.15660E-14
 -1      3787 4.89229E-03 1.94954E-04-2.04181E-14
 -1      3788 4.75325E-03 1.96266E-04-1.92991E-14
 -1      3789 4.93118E-03 1.57641E-04-2.10877E-14
 -1      3790 9.60339E-03 1.41819E-04-6.06332E-14
 -1      3791 1.39323E-03 1.95561E-04-1.92178E-15
 -1      3792 1.26767E-03 1.69595E-04-1.64658E-15
 -1      3793 1.26338E-03 1.37813E-04-1.67478E-15
 -1      3794 9.91905E-03 8.47989E-05-6.45704E-14
 -1      3795 9.76417E-03 1.10640E-04-6.25904E-14
 -1      3796 9.74761E-03 8.06446E-05-6.18700E-14
 -1      3797 1.07772E-02-1.25502E-05-7.67475E-14
 -1      3798 1.06386E-02-2.06401E-06-7.46498E-14
 -1      3799 1.10531E-02-3.11765E-05-8.09999E-14
 -1      3800 1.09153E-02-2.21592E-05-7.88646E-14
 -1      3801 1.08780E-02-5.10476E-05-7.79533E-14
 -1      3802 1.13287E-02-4.79611E-05-8.53228E-14
 -1      3803 1.11909E-02-3.97291E-05-8.31517E-14
 -1      3804 1.11487E-02-6.80643E-05-8.22233E-14
 -1      3805 1.16051E-02-6.39047E-05-8.97189E-14
 -1      3806 1.14668E-02-5.59964E-05-8.75128E-14
 -1      3807 1.14205E-02-8.42835E-05-8.65672E-14
 -1      3808 1.18828E-02-7.96971E-05-9.41923E-14
 -1      3809 1.17438E-02-7.17949E-05-9.19452E-14
 -1      3810 1.16941E-02-1.00316E-04-9.09843E-14
 -1      3811 1.21618E-02-9.58080E-05-9.87414E-14
 -1      3812 1.20221E-02-8.76990E-05-9.64588E-14
 -1      3813 1.19697E-02-1.16586E-04-9.54779E-14
 -1      3814 1.24421E-02-1.12537E-04-1.03353E-13
 -1      3815 1.23018E-02-1.04089E-04-1.01039E-13
 -1      3816 1.22472E-02-1.33380E-04-1.00044E-13
 -1      3817 1.27237E-02-1.30053E-04-1.08018E-13
 -1      3818 1.25828E-02-1.21196E-04-1.05679E-13
 -1      3819 1.25264E-02-1.50874E-04-1.04671E-13
 -1      3820 1.30062E-02-1.48426E-04-1.12738E-13
 -1      3821 1.28648E-02-1.39136E-04-1.10374E-13
 -1      3822 1.28072E-02-1.69155E-04-1.09354E-13
 -1      3823 1.32896E-02-1.67654E-04-1.17488E-13
 -1      3824 1.31478E-02-1.57937E-04-1.15108E-13
 -1      3825 1.30891E-02-1.88242E-04-1.14082E-13
 -1      3826 1.02790E-02-2.54482E-04-6.51778E-14
 -1      3827 1.02248E-02-2.86195E-04-6.51364E-14
 -1      3828 5.68015E-03 2.04180E-04-2.71874E-14
 -1      3829 1.02740E-02-1.64957E-04-6.48973E-14
 -1      3830 1.03343E-02-1.91363E-04-6.54766E-14
 -1      3831 5.33538E-03-1.80876E-04-2.62089E-14
 -1      3832 1.25503E-03-1.36219E-05-1.76287E-15
 -1      3833 1.25577E-03-4.34740E-05-1.77062E-15
 -1      3834 1.37670E-03 1.36667E-06-2.06458E-15
 -1      3835 1.36183E-02-5.41492E-04-1.22688E-13
 -1      3836 1.36071E-02-5.01608E-04-1.22540E-13
 -1      3837 1.04992E-02 9.40469E-06-7.25713E-14
 -1      3838 1.03582E-02 2.24379E-05-7.05101E-14
 -1      3839 1.06072E-02-3.23086E-05-7.37560E-14
 -1      3840 2.52671E-03 3.14601E-04-5.48652E-15
 -1      3841 2.38334E-03 3.13792E-04-4.90718E-15
 -1      3842 2.59094E-03 2.79219E-04-5.85839E-15
 -1      3843 1.02155E-02 3.71145E-05-6.84667E-14
 -1      3844 1.00699E-02 5.45589E-05-6.64473E-14
 -1      3845 1.03336E-02-1.02781E-05-6.96309E-14
 -1      3846 1.99203E-03-2.03933E-04-3.93927E-15
 -1      3847 2.13546E-03-2.07012E-04-4.46670E-15
 -1      3848 1.91543E-03-1.68781E-04-3.69332E-15
 -1      3849 1.03488E-02-2.17511E-04-6.56817E-14
 -1      3850 1.03219E-02-2.33939E-04-6.54334E-14
 -1      3851 1.03721E-02-2.54528E-04-6.67934E-14
 -1      3852 2.27876E-03-2.09061E-04-5.02679E-15
 -1      3853 2.42186E-03-2.10143E-04-5.61975E-15
 -1      3854 2.48788E-03-1.76068E-04-5.93075E-15
 -1      3855 2.20200E-03-1.74126E-04-4.74714E-15
 -1      3856 5.27497E-03-1.91732E-05-2.67041E-14
 -1      3857 5.35183E-03 1.02434E-05-2.69253E-14
 -1      3858 1.37678E-02-1.99904E-04-1.25578E-13
 -1      3859 1.25732E-03-7.34911E-05-1.77514E-15
 -1      3860 1.25968E-03-1.03873E-04-1.77683E-15
 -1      3861 1.37833E-03-6.16506E-05-2.08290E-15
 -1      3862 9.92377E-03 5.83697E-06-6.32699E-14
 -1      3863 1.36885E-02-3.72379E-04-1.24082E-13
 -1      3864 1.03108E-02-3.16474E-04-6.71535E-14
 -1      3865 1.35884E-02-6.28889E-04-1.22064E-13
 -1      3866 5.51707E-03 1.73921E-04-2.60381E-14
 -1      3867 5.21156E-03-1.61556E-04-2.51788E-14
 -1      3868 1.36508E-02-2.11225E-04-1.23576E-13
 -1      3869 5.18889E-03-3.12674E-05-2.59216E-14
 -1      3870 5.14296E-03-8.69264E-06-2.50505E-14
 -1      3871 5.11348E-03-4.15916E-05-2.51459E-14
 -1      3872 3.22362E-03 2.36078E-04-9.02696E-15
 -1      3873 3.08219E-03 2.38909E-04-8.28153E-15
 -1      3874 1.02836E-02-1.14484E-04-6.66560E-14
 -1      3875 1.02799E-02-1.41970E-04-6.57789E-14
 -1      3876 1.03903E-02-1.58665E-04-6.75247E-14
 -1      3877 5.11323E-03-1.32322E-04-2.45326E-14
 -1      3878 4.20082E-03 2.08893E-04-1.51284E-14
 -1      3879 4.11692E-03 1.78033E-04-1.47294E-14
 -1      3880 4.33894E-03 2.05042E-04-1.61250E-14
 -1      3881 2.94036E-03 2.41198E-04-7.56791E-15
 -1      3882 2.79811E-03 2.42915E-04-6.88589E-15
 -1      3883 3.00422E-03 2.05688E-04-7.98844E-15
 -1      3884 1.35088E-02-2.00930E-04-1.21170E-13
 -1      3885 3.84245E-03 1.86183E-04-1.28566E-14
 -1      3886 3.78467E-03 2.21281E-04-1.23251E-14
 -1      3887 3.64510E-03 2.25359E-04-1.14532E-14
 -1      3888 1.93890E-03 2.35029E-04-3.46993E-15
 -1      3889 1.86150E-03 1.99151E-04-3.28059E-15
 -1      3890 2.08250E-03 2.39053E-04-3.95802E-15
 -1      3891 5.16884E-03-8.71447E-05-2.58336E-14
 -1      3892 5.13740E-03-7.43507E-05-2.55311E-14
 -1      3893 5.14919E-03-1.04658E-04-2.53468E-14
 -1      3894 1.52336E-03-1.53211E-04-2.46103E-15
 -1      3895 2.30436E-03 2.77698E-04-4.69352E-15
 -1      3896 3.44433E-03 2.65290E-04-1.01232E-14
 -1      3897 1.00504E-02 2.74652E-05-6.57109E-14
 -1      3898 1.35513E-02-3.04301E-04-1.21802E-13
 -1      3899 1.35469E-02-2.70993E-04-1.21759E-13
 -1      3900 1.35777E-02-5.88827E-04-1.21930E-13
 -1      3901 1.32808E-03-1.16254E-04-1.94500E-15
 -1      3902 1.49925E-03 1.78773E-05-2.38840E-15
 -1      3903 1.49920E-03-1.50416E-05-2.40301E-15
 -1      3904 1.35957E-02-4.61958E-04-1.22389E-13
 -1      3905 1.35841E-02-4.22314E-04-1.22235E-13
 -1      3906 1.34793E-02-4.71333E-04-1.20376E-13
 -1      3907 1.34501E-02-5.57674E-04-1.19767E-13
 -1      3908 5.32906E-03 4.43355E-05-2.60881E-14
 -1      3909 1.00656E-02-5.02493E-05-6.44000E-14
 -1      3910 1.01638E-02-7.39349E-05-6.55184E-14
 -1      3911 1.02957E-02-9.85718E-05-6.72686E-14
 -1      3912 1.00412E-02-3.94974E-06-6.49842E-14
 -1      3913 4.61496E-03 1.98575E-04-1.82115E-14
 -1      3914 4.47688E-03 2.01546E-04-1.71529E-14
 -1      3915 4.38919E-03 1.70012E-04-1.67279E-14
 -1      3916 1.35740E-02-3.83316E-04-1.22104E-13
 -1      3917 1.35618E-02-3.43487E-04-1.21940E-13
 -1      3918 1.34370E-02-3.15617E-04-1.19835E-13
 -1      3919 1.34578E-02-3.93258E-04-1.20101E-13
 -1      3920 1.04037E-02-2.91725E-04-6.80983E-14
 -1      3921 1.04526E-02-1.96249E-04-6.80154E-14
 -1      3922 1.04043E-02-2.07502E-04-6.68491E-14
 -1      3923 1.04702E-02-2.24507E-04-6.82262E-14
 -1      3924 1.38393E-03 1.28841E-04-1.98482E-15
 -1      3925 1.50216E-03 8.40939E-05-2.34788E-15
 -1      3926 1.50024E-03 5.08708E-05-2.37012E-15
 -1      3927 1.62260E-03 3.56462E-05-2.73384E-15
 -1      3928 5.46498E-03 2.06694E-04-2.51871E-14
 -1      3929 5.31781E-03 1.99868E-04-2.39506E-14
 -1      3930 5.20571E-03 1.56158E-04-2.34452E-14
 -1      3931 4.66006E-03 1.62866E-04-1.88478E-14
 -1      3932 3.36457E-03 2.32840E-04-9.80443E-15
 -1      3933 3.28602E-03 2.00534E-04-9.48503E-15
 -1      3934 3.50508E-03 2.29222E-04-1.06132E-14
 -1      3935 2.97875E-03-1.39980E-04-8.30634E-15
 -1      3936 3.11879E-03-1.38548E-04-9.05745E-15
 -1      3937 3.25797E-03-1.36901E-04-9.84007E-15
 -1      3938 3.39622E-03-1.35020E-04-1.06544E-14
 -1      3939 3.18376E-03-1.05175E-04-9.43126E-15
 -1      3940 3.53343E-03-1.33054E-04-1.14996E-14
 -1      3941 3.66951E-03-1.30967E-04-1.23764E-14
 -1      3942 3.45944E-03-1.02535E-04-1.10562E-14
 -1      3943 3.80433E-03-1.28931E-04-1.32838E-14
 -1      3944 3.93782E-03-1.26889E-04-1.42225E-14
 -1      3945 3.73046E-03-9.96968E-05-1.28058E-14
 -1      3946 4.06981E-03-1.25041E-04-1.51926E-14
 -1      3947 4.20021E-03-1.23293E-04-1.61925E-14
 -1      3948 3.99587E-03-9.70859E-05-1.46801E-14
 -1      3949 4.32881E-03-1.21886E-04-1.72222E-14
 -1      3950 4.45554E-03-1.20660E-04-1.82818E-14
 -1      3951 4.25455E-03-9.51331E-05-1.66772E-14
 -1      3952 4.58007E-03-1.19907E-04-1.93702E-14
 -1      3953 4.70239E-03-1.19384E-04-2.04895E-14
 -1      3954 4.50501E-03-9.42198E-05-1.87933E-14
 -1      3955 4.82201E-03-1.19480E-04-2.16382E-14
 -1      3956 4.93892E-03-1.19533E-04-2.28143E-14
 -1      3957 4.74530E-03-9.46564E-05-2.10277E-14
 -1      3958 2.36942E-03 2.43492E-04-5.03216E-15
 -1      3959 2.22602E-03 2.41842E-04-4.47865E-15
 -1      3960 2.14843E-03 2.06281E-04-4.26419E-15
 -1      3961 5.39368E-03 1.25588E-04-2.55051E-14
 -1      3962 1.07959E-02-3.08834E-04-7.47700E-14
 -1      3963 1.09163E-02-3.20750E-04-7.68722E-14
 -1      3964 1.10389E-02-3.32883E-04-7.89930E-14
 -1      3965 1.11637E-02-3.45521E-04-8.11316E-14
 -1      3966 1.09806E-02-3.01793E-04-7.78418E-14
 -1      3967 1.12904E-02-3.58371E-04-8.32876E-14
 -1      3968 1.14189E-02-3.71606E-04-8.54627E-14
 -1      3969 1.12268E-02-3.25668E-04-8.21172E-14
 -1      3970 1.15489E-02-3.84996E-04-8.76563E-14
 -1      3971 1.16803E-02-3.98647E-04-8.98665E-14
 -1      3972 1.14813E-02-3.50703E-04-8.64637E-14
 -1      3973 1.18131E-02-4.12377E-04-9.20951E-14
 -1      3974 1.19470E-02-4.26253E-04-9.43403E-14
 -1      3975 1.17423E-02-3.76598E-04-9.08813E-14
 -1      3976 1.20819E-02-4.40134E-04-9.66019E-14
 -1      3977 1.22178E-02-4.54068E-04-9.88818E-14
 -1      3978 1.20086E-02-4.03017E-04-9.53681E-14
 -1      3979 1.23546E-02-4.67948E-04-1.01181E-13
 -1      3980 1.24921E-02-4.81812E-04-1.03495E-13
 -1      3981 1.22793E-02-4.29660E-04-9.99264E-14
 -1      3982 1.26304E-02-4.95581E-04-1.05825E-13
 -1      3983 1.27692E-02-5.09287E-04-1.08174E-13
 -1      3984 1.25534E-02-4.56294E-04-1.04553E-13
 -1      3985 1.29086E-02-5.22878E-04-1.10533E-13
 -1      3986 1.30485E-02-5.36373E-04-1.12905E-13
 -1      3987 1.28304E-02-4.82756E-04-1.09241E-13
 -1      3988 1.31787E-02-5.40631E-04-1.15131E-13
 -1      3989 1.33193E-02-5.53829E-04-1.17527E-13
 -1      3990 1.33599E-02-5.07326E-04-1.18281E-13
 -1      3991 1.30995E-02-4.99920E-04-1.13822E-13
 -1      3992 4.70340E-03 1.28186E-04-1.94873E-14
 -1      3993 4.57109E-03 1.32048E-04-1.83955E-14
 -1      3994 1.15098E-02-1.19662E-04-8.78134E-14
 -1      3995 1.13751E-02-1.11545E-04-8.56224E-14
 -1      3996 1.55845E-03 2.13937E-04-2.33648E-15
 -1      3997 1.55270E-03 1.78407E-04-2.37606E-15
 -1      3998 5.19461E-03 3.67375E-05-2.48870E-14
 -1      3999 5.28695E-03 7.89770E-05-2.51451E-14
 -1      4000 1.12411E-02-1.03437E-04-8.34484E-14
 -1      4001 1.11077E-02-9.53481E-05-8.12941E-14
 -1      4002 1.13303E-02-1.37754E-04-8.46750E-14
 -1      4003 1.09749E-02-8.71887E-05-7.91570E-14
 -1      4004 1.08425E-02-7.89167E-05-7.70390E-14
 -1      4005 1.10676E-02-1.21554E-04-8.03613E-14
 -1      4006 1.17812E-02-1.36164E-04-9.22508E-14
 -1      4007 1.16451E-02-1.27877E-04-9.00232E-14
 -1      4008 1.15966E-02-1.54449E-04-8.90595E-14
 -1      4009 1.20551E-02-1.53163E-04-9.67660E-14
 -1      4010 1.19178E-02-1.44604E-04-9.44979E-14
 -1      4011 1.18664E-02-1.71723E-04-9.35182E-14
 -1      4012 1.23315E-02-1.70803E-04-1.01347E-13
 -1      4013 1.21930E-02-1.61907E-04-9.90480E-14
 -1      4014 1.21392E-02-1.89641E-04-9.80495E-14
 -1      4015 1.26099E-02-1.89164E-04-1.05990E-13
 -1      4016 1.24705E-02-1.79899E-04-1.03663E-13
 -1      4017 1.24148E-02-2.08240E-04-1.02650E-13
 -1      4018 1.28900E-02-2.08270E-04-1.10688E-13
 -1      4019 1.27498E-02-1.98630E-04-1.08332E-13
 -1      4020 1.26926E-02-2.27531E-04-1.07311E-13
 -1      4021 1.31716E-02-2.28105E-04-1.15427E-13
 -1      4022 1.30307E-02-2.18106E-04-1.13053E-13
 -1      4023 1.29724E-02-2.47493E-04-1.12019E-13
 -1      4024 1.34492E-02-2.31379E-04-1.20133E-13
 -1      4025 1.01822E-02-2.67044E-05-6.68618E-14
 -1      4026 5.02748E-03-1.07257E-04-2.38875E-14
 -1      4027 1.04473E-02-2.67758E-04-6.83613E-14
 -1      4028 1.05266E-02-2.82011E-04-6.99398E-14
 -1      4029 1.04807E-02-2.47408E-04-6.86183E-14
 -1      4030 1.51630E-03 2.61807E-04-2.13501E-15
 -1      4031 1.49290E-03 2.40749E-04-2.11025E-15
 -1      4032 1.07105E-02-7.04699E-05-7.49400E-14
 -1      4033 1.05785E-02-6.16505E-05-7.28589E-14
 -1      4034 1.08086E-02-1.05765E-04-7.61242E-14
 -1      4035 5.24192E-03 1.09981E-04-2.43196E-14
 -1      4036 2.65552E-03 2.43918E-04-6.23599E-15
 -1      4037 2.51259E-03 2.44160E-04-5.61802E-15
 -1      4038 2.43495E-03 2.09221E-04-5.37722E-15
 -1      4039 2.72039E-03 2.08787E-04-6.61909E-15
 -1      4040 1.04486E-02-5.03340E-05-7.08649E-14
 -1      4041 1.03152E-02-4.01372E-05-6.88191E-14
 -1      4042 1.03023E-02-6.74917E-05-6.80752E-14
 -1      4043 1.05547E-02-8.81688E-05-7.20296E-14
 -1      4044 1.83984E-03-1.34365E-04-3.45177E-15
 -1      4045 1.98299E-03-1.37368E-04-3.94541E-15
 -1      4046 1.52845E-03 1.47670E-04-2.35058E-15
 -1      4047 1.52469E-03 1.13483E-04-2.38088E-15
 -1      4048 1.64644E-03 1.00037E-04-2.74795E-15
 -1      4049 1.69343E-03 1.61885E-04-2.81121E-15
 -1      4050 4.96712E-03 1.21280E-04-2.17598E-14
 -1      4051 4.83518E-03 1.24544E-04-2.06087E-14
 -1      4052 4.74510E-03 9.45795E-05-2.01298E-14
 -1      4053 1.06402E-02-2.93210E-04-7.19967E-14
 -1      4054 5.10973E-03 1.12056E-04-2.31070E-14
 -1      4055 2.69652E-03-1.41802E-04-6.89948E-15
 -1      4056 2.83797E-03-1.41063E-04-7.58656E-15
 -1      4057 2.90427E-03-1.07203E-04-7.93160E-15
 -1      4058 1.50008E-03-4.79523E-05-2.41339E-15
 -1      4059 1.50189E-03-8.10797E-05-2.41986E-15
 -1      4060 1.62249E-03-3.26531E-05-2.76599E-15
 -1      4061 1.05024E-02-1.55272E-04-6.98140E-14
 -1      4062 1.04801E-02-1.77324E-04-6.89149E-14
 -1      4063 1.05643E-02-1.95395E-04-7.03140E-14
 -1      4064 5.01075E-03 7.97560E-05-2.25986E-14
 -1      4065 3.06833E-03 1.70617E-04-8.41441E-15
 -1      4066 2.92728E-03 1.72509E-04-7.69506E-15
 -1      4067 3.89990E-03 1.52000E-04-1.33912E-14
 -1      4068 3.76323E-03 1.55758E-04-1.24830E-14
 -1      4069 1.07070E-02-2.75141E-04-7.29489E-14
 -1      4070 1.32187E-02-4.64993E-04-1.15912E-13
 -1      4071 1.33489E-02-4.68251E-04-1.18139E-13
 -1      4072 1.33375E-02-4.29219E-04-1.17994E-13
 -1      4073 1.97989E-03 1.70397E-04-3.72705E-15
 -1      4074 1.83656E-03 1.66690E-04-3.25277E-15
 -1      4075 1.81246E-03 1.34741E-04-3.22126E-15
 -1      4076 3.34849E-03 1.65616E-04-9.94792E-15
 -1      4077 3.20874E-03 1.68323E-04-9.16514E-15
 -1      4078 3.13273E-03 1.36067E-04-8.84514E-15
 -1      4079 1.33285E-02-2.37244E-04-1.18078E-13
 -1      4080 1.32693E-02-2.67082E-04-1.17040E-13
 -1      4081 2.41205E-03-1.41852E-04-5.62117E-15
 -1      4082 2.55452E-03-1.42073E-04-6.24426E-15
 -1      4083 2.62178E-03-1.08215E-04-6.55950E-15
 -1      4084 3.56549E-03 1.93861E-04-1.11080E-14
 -1      4085 1.57529E-03-1.28346E-04-2.62206E-15
 -1      4086 1.05485E-02-2.36528E-04-6.98047E-14
 -1      4087 1.69699E-03-1.14735E-04-2.99526E-15
 -1      4088 4.03570E-03 1.48129E-04-1.43306E-14
 -1      4089 3.95716E-03 1.18798E-04-1.39303E-14
 -1      4090 4.17072E-03 1.44120E-04-1.53006E-14
 -1      4091 4.99947E-03 3.74442E-06-2.33944E-14
 -1      4092 5.09244E-03 1.87420E-05-2.41375E-14
 -1      4093 5.03945E-03 4.87841E-05-2.32335E-14
 -1      4094 2.05126E-03-1.05458E-04-4.20074E-15
 -1      4095 2.12616E-03-1.39577E-04-4.47162E-15
 -1      4096 2.26923E-03-1.41033E-04-5.03025E-15
 -1      4097 1.76576E-03-8.49410E-05-3.21791E-15
 -1      4098 1.32803E-02-3.05760E-04-1.17176E-13
 -1      4099 5.06819E-03-5.67713E-05-2.46787E-14
 -1      4100 5.00419E-03-3.78029E-05-2.38346E-14
 -1      4101 5.03141E-03-7.23201E-05-2.42095E-14
 -1      4102 4.43837E-03 1.36029E-04-1.73337E-14
 -1      4103 4.30488E-03 1.40090E-04-1.63017E-14
 -1      4104 4.22408E-03 1.11271E-04-1.58751E-14
 -1      4105 1.76284E-03-1.41856E-05-3.19502E-15
 -1      4106 1.76377E-03-4.94925E-05-3.20880E-15
 -1      4107 1.90564E-03-6.69799E-05-3.68355E-15
 -1      4108 1.76412E-03 5.65663E-05-3.15356E-15
 -1      4109 1.76296E-03 2.11465E-05-3.17655E-15
 -1      4110 1.90381E-03 5.58844E-06-3.65189E-15
 -1      4111 4.48667E-03 1.03147E-04-1.79425E-14
 -1      4112 3.38709E-03-7.16663E-05-1.06162E-14
 -1      4113 3.52353E-03-7.08516E-05-1.14580E-14
 -1      4114 3.65868E-03-7.01119E-05-1.23314E-14
 -1      4115 3.79246E-03-6.93873E-05-1.32355E-14
 -1      4116 3.58869E-03-3.99828E-05-1.18604E-14
 -1      4117 3.92468E-03-6.88453E-05-1.41717E-14
 -1      4118 4.05525E-03-6.83920E-05-1.51384E-14
 -1      4119 3.85578E-03-4.00360E-05-1.36659E-14
 -1      4120 4.18394E-03-6.82423E-05-1.61349E-14
 -1      4121 4.31061E-03-6.82414E-05-1.71618E-14
 -1      4122 4.11634E-03-4.07908E-05-1.55952E-14
 -1      4123 4.43495E-03-6.86775E-05-1.82185E-14
 -1      4124 4.55678E-03-6.92682E-05-1.93047E-14
 -1      4125 4.36896E-03-4.25960E-05-1.76462E-14
 -1      4126 4.67561E-03-7.04074E-05-2.04210E-14
 -1      4127 4.79124E-03-7.17202E-05-2.15665E-14
 -1      4128 4.61162E-03-4.57669E-05-1.98169E-14
 -1      4129 3.68607E-03 1.25570E-04-1.21097E-14
 -1      4130 3.62578E-03 1.59287E-04-1.16065E-14
 -1      4131 3.48751E-03 1.62611E-04-1.07618E-14
 -1      4132 1.06927E-02-2.49349E-04-7.25474E-14
 -1      4133 1.08441E-02-2.63464E-04-7.53265E-14
 -1      4134 1.06708E-02-2.25008E-04-7.21412E-14
 -1      4135 1.09616E-02-2.73897E-04-7.74314E-14
 -1      4136 1.10820E-02-2.84893E-04-7.95548E-14
 -1      4137 1.09374E-02-2.46951E-04-7.70136E-14
 -1      4138 1.12049E-02-2.96051E-04-8.16983E-14
 -1      4139 1.13301E-02-3.07646E-04-8.38569E-14
 -1      4140 1.11792E-02-2.67126E-04-8.12701E-14
 -1      4141 1.14572E-02-3.19418E-04-8.60355E-14
 -1      4142 1.15860E-02-3.31508E-04-8.82311E-14
 -1      4143 1.14303E-02-2.88707E-04-8.56018E-14
 -1      4144 1.17164E-02-3.43728E-04-9.04435E-14
 -1      4145 1.18483E-02-3.56161E-04-9.26757E-14
 -1      4146 1.16885E-02-3.11357E-04-9.00006E-14
 -1      4147 1.19814E-02-3.68669E-04-9.49242E-14
 -1      4148 1.21156E-02-3.81305E-04-9.71910E-14
 -1      4149 1.19526E-02-3.34761E-04-9.44735E-14
 -1      4150 1.22509E-02-3.93965E-04-9.94740E-14
 -1      4151 1.23871E-02-4.06690E-04-1.01775E-13
 -1      4152 1.22214E-02-3.58657E-04-9.90177E-14
 -1      4153 1.25241E-02-4.19402E-04-1.04092E-13
 -1      4154 1.26619E-02-4.32132E-04-1.06424E-13
 -1      4155 1.24941E-02-3.82846E-04-1.03628E-13
 -1      4156 1.28004E-02-4.44823E-04-1.08773E-13
 -1      4157 1.29395E-02-4.57500E-04-1.11135E-13
 -1      4158 1.27698E-02-4.07178E-04-1.08301E-13
 -1      4159 1.30689E-02-4.61188E-04-1.13347E-13
 -1      4160 1.19498E-02-2.07131E-04-9.47842E-14
 -1      4161 1.18150E-02-1.97908E-04-9.25354E-14
 -1      4162 2.83092E-03-7.42453E-05-7.56083E-15
 -1      4163 2.97132E-03-7.37561E-05-8.27784E-15
 -1      4164 4.78590E-03 6.25676E-05-2.07743E-14
 -1      4165 4.66097E-03 6.72733E-05-1.96497E-14
 -1      4166 1.16811E-02-1.88836E-04-9.03052E-14
 -1      4167 1.15482E-02-1.79976E-04-8.80934E-14
 -1      4168 1.17634E-02-2.23130E-04-9.15514E-14
 -1      4169 1.11563E-02-1.54500E-04-8.15672E-14
 -1      4170 1.10280E-02-1.46458E-04-7.94282E-14
 -1      4171 1.22220E-02-2.26119E-04-9.93348E-14
 -1      4172 1.20855E-02-2.16552E-04-9.70518E-14
 -1      4173 1.20316E-02-2.42616E-04-9.60500E-14
 -1      4174 1.24971E-02-2.45765E-04-1.03952E-13
 -1      4175 1.23592E-02-2.35871E-04-1.01635E-13
 -1      4176 1.23036E-02-2.62768E-04-1.00619E-13
 -1      4177 1.27747E-02-2.66029E-04-1.08627E-13
 -1      4178 1.26356E-02-2.55829E-04-1.06284E-13
 -1      4179 1.25786E-02-2.83504E-04-1.05252E-13
 -1      4180 1.30543E-02-2.86860E-04-1.13350E-13
 -1      4181 1.29142E-02-2.76383E-04-1.10982E-13
 -1      4182 1.28561E-02-3.04751E-04-1.09943E-13
 -1      4183 3.11088E-03-7.31549E-05-9.02629E-15
 -1      4184 3.24951E-03-7.24214E-05-9.80561E-15
 -1      4185 3.03919E-03-4.07614E-05-8.62481E-15
 -1      4186 1.09013E-02-1.38611E-04-7.73086E-14
 -1      4187 1.07757E-02-1.31113E-04-7.52081E-14
 -1      4188 1.09885E-02-1.69997E-04-7.84935E-14
 -1      4189 2.04860E-03-6.82935E-05-4.19154E-15
 -1      4190 2.26650E-03 1.74869E-04-4.77218E-15
 -1      4191 2.12323E-03 1.73091E-04-4.23361E-15
 -1      4192 2.09884E-03 1.40257E-04-4.19842E-15
 -1      4193 1.14164E-02-1.71274E-04-8.58986E-14
 -1      4194 1.12857E-02-1.62801E-04-8.37238E-14
 -1      4195 1.12410E-02-1.86638E-04-8.27722E-14
 -1      4196 1.14996E-02-2.04421E-04-8.71249E-14
 -1      4197 4.90693E-03 5.98059E-05-2.18868E-14
 -1      4198 1.79908E-03 1.10928E-04-3.20871E-15
 -1      4199 1.77642E-03 7.98299E-05-3.17088E-15
 -1      4200 1.91661E-03 6.56363E-05-3.64793E-15
 -1      4201 1.94213E-03 1.13635E-04-3.68064E-15
 -1      4202 2.85139E-03 1.39291E-04-7.40127E-15
 -1      4203 2.78568E-03 1.73885E-04-7.00744E-15
 -1      4204 2.64357E-03 1.74736E-04-6.35207E-15
 -1      4205 1.32211E-02-3.34880E-04-1.16125E-13
 -1      4206 4.53472E-03 7.16342E-05-1.85540E-14
 -1      4207 4.40677E-03 7.57791E-05-1.74883E-14
 -1      4208 4.58290E-03 4.16182E-05-1.91690E-14
 -1      4209 1.04163E-02-1.07330E-04-6.92303E-14
 -1      4210 4.01465E-03 8.66529E-05-1.44737E-14
 -1      4211 3.88126E-03 8.98426E-05-1.35297E-14
 -1      4212 4.89257E-03-3.33501E-05-2.25925E-14
 -1      4213 4.82288E-03-9.64128E-06-2.17308E-14
 -1      4214 2.54807E-03-7.46255E-05-6.22413E-15
 -1      4215 2.68981E-03-7.45309E-05-6.87648E-15
 -1      4216 2.75862E-03-4.10720E-05-7.19497E-15
 -1      4217 3.74670E-03 9.27638E-05-1.26174E-14
 -1      4218 3.61095E-03 9.54890E-05-1.17364E-14
 -1      4219 3.80783E-03 6.09336E-05-1.31293E-14
 -1      4220 1.07116E-02-2.05986E-04-7.30628E-14
 -1      4221 4.98929E-03-9.23156E-05-2.36001E-14
 -1      4222 1.30578E-02-4.22969E-04-1.13208E-13
 -1      4223 1.07266E-02-1.68794E-04-7.37873E-14
 -1      4224 1.06379E-02-1.38800E-04-7.26301E-14
 -1      4225 2.52669E-03 1.75500E-04-5.83691E-15
 -1      4226 2.38386E-03 1.75172E-04-5.23914E-15
 -1      4227 2.35929E-03 1.42052E-04-5.20096E-15
 -1      4228 2.59324E-03 1.41231E-04-6.19699E-15
 -1      4229 3.41113E-03 1.31402E-04-1.04149E-14
 -1      4230 4.82392E-03 3.44007E-05-2.13810E-14
 -1      4231 3.31618E-03-4.03165E-05-1.01802E-14
 -1      4232 2.33714E-03-1.07787E-04-5.31598E-15
 -1      4233 1.33275E-02-3.90841E-04-1.17873E-13
 -1      4234 3.19761E-03 1.02079E-04-9.28061E-15
 -1      4235 3.05801E-03 1.03739E-04-8.52478E-15
 -1      4236 4.90696E-03-7.40261E-05-2.27831E-14
 -1      4237 2.02779E-03 2.41241E-05-4.07500E-15
 -1      4238 2.02759E-03-1.27949E-05-4.09786E-15
 -1      4239 2.17144E-03-5.03872E-05-4.64993E-15
 -1      4240 2.91765E-03 1.05051E-04-7.80022E-15
 -1      4241 2.77658E-03 1.06050E-04-7.10776E-15
 -1      4242 2.98452E-03 7.12362E-05-8.20418E-15
 -1      4243 4.27749E-03 7.96254E-05-1.64526E-14
 -1      4244 4.14670E-03 8.32762E-05-1.54476E-14
 -1      4245 4.07261E-03 5.56380E-05-1.50196E-14
 -1      4246 1.31019E-02-3.70657E-04-1.14037E-13
 -1      4247 4.33128E-03 4.92704E-05-1.70337E-14
 -1      4248 4.70979E-03-7.03448E-06-2.06216E-14
 -1      4249 4.84541E-03-5.08043E-05-2.21465E-14
 -1      4250 3.82882E-03 9.81244E-06-1.34046E-14
 -1      4251 3.96060E-03 8.39144E-06-1.43448E-14
 -1      4252 4.09072E-03 6.59364E-06-1.53158E-14
 -1      4253 4.21900E-03 4.66079E-06-1.63168E-14
 -1      4254 4.34530E-03 2.22425E-06-1.73481E-14
 -1      4255 4.46934E-03-3.71459E-07-1.84096E-14
 -1      4256 4.59100E-03-3.64881E-06-1.95005E-14
 -1      4257 1.05201E-02-1.30603E-04-7.06404E-14
 -1      4258 1.08483E-02-2.01681E-04-7.56553E-14
 -1      4259 1.09678E-02-2.10142E-04-7.77615E-14
 -1      4260 1.10897E-02-2.18825E-04-7.98873E-14
 -1      4261 1.12138E-02-2.28143E-04-8.20298E-14
 -1      4262 1.13399E-02-2.37636E-04-8.41921E-14
 -1      4263 1.14678E-02-2.47582E-04-8.63703E-14
 -1      4264 1.15972E-02-2.57668E-04-8.85685E-14
 -1      4265 1.17281E-02-2.68090E-04-9.07835E-14
 -1      4266 1.18603E-02-2.78620E-04-9.30158E-14
 -1      4267 1.19937E-02-2.89401E-04-9.52692E-14
 -1      4268 1.21282E-02-3.00265E-04-9.75389E-14
 -1      4269 1.22637E-02-3.11315E-04-9.98262E-14
 -1      4270 1.24000E-02-3.22428E-04-1.02128E-13
 -1      4271 1.25372E-02-3.33681E-04-1.04446E-13
 -1      4272 1.26751E-02-3.44982E-04-1.06781E-13
 -1      4273 1.28136E-02-3.56387E-04-1.09128E-13
 -1      4274 1.29527E-02-3.67828E-04-1.11488E-13
 -1      4275 3.01009E-03 1.49693E-05-8.42105E-15
 -1      4276 3.14933E-03 1.44911E-05-9.17388E-15
 -1      4277 3.47416E-03 9.79346E-05-1.08863E-14
 -1      4278 3.33634E-03 1.00160E-04-1.00679E-14
 -1      4279 3.26306E-03 6.87222E-05-9.72054E-15
 -1      4280 3.53773E-03 6.52802E-05-1.13625E-14
 -1      4281 2.22835E-03 1.16969E-04-4.72156E-15
 -1      4282 2.08526E-03 1.15627E-04-4.18491E-15
 -1      4283 2.07216E-03 9.11515E-05-4.16918E-15
 -1      4284 3.28759E-03 1.38286E-05-9.95756E-15
 -1      4285 3.42478E-03 1.31057E-05-1.07721E-14
 -1      4286 2.28865E-03-6.24442E-05-5.11548E-15
 -1      4287 2.43120E-03-6.27971E-05-5.70968E-15
 -1      4288 2.50095E-03-2.93786E-05-6.00008E-15
 -1      4289 2.26790E-03-5.88454E-06-5.00900E-15
 -1      4290 3.56079E-03 1.21566E-05-1.16188E-14
 -1      4291 3.69551E-03 1.11285E-05-1.24961E-14
 -1      4292 2.87000E-03 1.53971E-05-7.70015E-15
 -1      4293 2.72913E-03 1.56735E-05-7.01114E-15
 -1      4294 2.25289E-03 3.10697E-05-4.92149E-15
 -1      4295 2.36915E-03 1.95464E-05-5.40312E-15
 -1      4296 2.46264E-03 1.16849E-04-5.67352E-15
 -1      4297 2.34559E-03 1.17104E-04-5.18693E-15
 -1      4298 2.33238E-03 9.22733E-05-5.17006E-15
 -1      4299 2.05959E-03 6.68424E-05-4.15108E-15
 -1      4300 2.18243E-03 4.87868E-05-4.62933E-15
 -1      4301 2.67814E-03 1.11242E-04-6.63688E-15
 -1      4302 2.56163E-03 1.12092E-04-6.11020E-15
 -1      4303 2.54844E-03 8.72434E-05-6.09205E-15
 -1      4304 2.74580E-03 7.72748E-05-7.01044E-15
 -1      4305 2.28502E-03 7.45900E-05-5.00279E-15
 -1      4306 2.40207E-03 7.43270E-05-5.48159E-15
 -1      4307 2.48525E-03 7.83800E-06-5.90681E-15
 -1      4308 2.60116E-03-3.91051E-06-6.43269E-15
 -1      4309 2.71524E-03 5.28725E-05-6.90143E-15
 -1      4310 2.61657E-03 5.78151E-05-6.43833E-15
 -1      4311 2.47082E-03 4.51146E-05-5.80888E-15
 -1      4312 2.51763E-03 6.26569E-05-5.99100E-15
 -3
    1PSTEP                         2           1           1          
  100CL  101 1.000000000        4312                     0    1           1
 -4  STRESS      6    1
 -5  SXX         1    4    1    1
 -5  SYY         1    4    2    2
 -5  SZZ         1    4    3    3
 -5  SXY         1    4    1    2
 -5  SYZ         1    4    2    3
 -5  SZX         1    4    3    1
 -1         1-7.73944E-01-4.11794E+00-1.93615E+00-1.42830E+00-2.99877E-12-1.61621E-12
 -1         2-6.43328E-01-2.43714E+01-3.34214E+00-1.10977E-02-5.90234E-13 2.12538E-14
 -1         3 1.99999E+01 7.29201E-05 3.00140E-03 3.08677E-05-5.05263E-13-4.10405E-13
 -1         4 1.99998E+01 1.47757E-05 2.99593E-03 2.46143E-05 3.67191E-13-1.05625E-13
 -1         5 3.26471E+01 6.11995E+00 2.72750E+00 6.20457E+00-4.68861E-14 3.37247E-12
 -1         6 3.56182E+01 1.22156E+01 5.10038E+00-8.61678E+00-1.95566E-13 2.95747E-12
 -1         7 2.07784E+01 6.08760E+00-1.26764E-01-4.70818E+00-2.83107E-14 4.76862E-13
 -1         8 1.96588E+01 5.93060E+00 5.19841E-02-3.25676E+00-3.47118E-14-2.69583E-13
 -1         9 1.91427E+01 5.77322E+00 4.99616E-02-2.50624E+00-2.79030E-14-6.64343E-13
 -1        10 1.89126E+01 5.69686E+00 5.17611E-02-1.92926E+00-2.02408E-14-8.39916E-13
 -1        11 1.87960E+01 5.65759E+00 5.04320E-02-1.43494E+00-1.32455E-14-9.10207E-13
 -1        12 1.87344E+01 5.63647E+00 4.83502E-02-9.97569E-01-6.20706E-15-9.30078E-13
 -1        13 1.87011E+01 5.62511E+00 4.66286E-02-5.83718E-01-5.56304E-16-9.24856E-13
 -1        14 1.86868E+01 5.62021E+00 4.57123E-02-1.87132E-01 3.89660E-15-9.22032E-13
 -1        15 1.86872E+01 5.62034E+00 4.57519E-02 2.04139E-01 8.31122E-15-8.97240E-13
 -1        16 1.87024E+01 5.62552E+00 4.67609E-02 6.01550E-01 1.50466E-14-8.68777E-13
 -1        17 1.87367E+01 5.63708E+00 4.86237E-02 1.01736E+00 1.63287E-14-8.12370E-13
 -1        18 1.87994E+01 5.65848E+00 5.08214E-02 1.45788E+00 2.16225E-14-7.20969E-13
 -1        19 1.89171E+01 5.69820E+00 5.20218E-02 1.95803E+00 3.26813E-14-5.49522E-13
 -1        20 1.91478E+01 5.77566E+00 4.97340E-02 2.54303E+00 4.02092E-14-2.64756E-13
 -1        21 1.96544E+01 5.94518E+00 4.71530E-02 3.29075E+00 4.71359E-14 2.51039E-13
 -1        22 2.11583E+01 6.36808E+00 1.40115E-01 4.50635E+00 5.93969E-15 1.24339E-12
 -1        23 2.29489E+01-1.37575E+00-9.37149E-01-7.07466E-01-1.27696E-13 2.28559E-12
 -1        24 1.93099E+01-9.94633E-02-3.09119E-01 6.30670E-02-3.64500E-14 1.68906E-12
 -1        25 1.86385E+01-5.66208E-02-6.87467E-02 6.03531E-02-1.46194E-14 1.11575E-12
 -1        26 1.84560E+01-2.27026E-02-6.88454E-03 3.25430E-02-4.71964E-15 6.69426E-13
 -1        27 1.84947E+01-1.27488E-02 7.66176E-04 2.21512E-02-1.06421E-14 3.91707E-13
 -1        28 1.86487E+01-7.58309E-03 5.13210E-04 1.59305E-02-1.37293E-14 2.09079E-13
 -1        29 1.88667E+01-4.91251E-03-1.08829E-04 1.19730E-02-6.41739E-16 1.76525E-14
 -1        30 1.91247E+01-3.63728E-03-6.20156E-04 9.35999E-03 3.69943E-15-1.20521E-13
 -1        31 1.94139E+01-3.23036E-03-1.33430E-03 7.70147E-03-1.39160E-15-2.84370E-13
 -1        32 1.97353E+01-3.39585E-03-2.38598E-03 6.85957E-03-3.84181E-14-4.55740E-13
 -1        33 2.00971E+01-3.93443E-03-3.77616E-03 6.82846E-03 4.91115E-14-4.70604E-13
 -1        34 2.05125E+01-4.66469E-03-5.43176E-03 7.68334E-03-9.56169E-15-4.52963E-13
 -1        35 2.09977E+01-5.36341E-03-7.18556E-03 9.54888E-03 1.41641E-14-5.35038E-13
 -1        36 2.15694E+01-5.70354E-03-8.68516E-03 1.25518E-02 1.30930E-14-4.33254E-13
 -1        37 2.22394E+01-5.18706E-03-9.22882E-03 1.67137E-02-3.33983E-14-5.06171E-13
 -1        38 2.30069E+01-3.09341E-03-7.53580E-03 2.17184E-02-2.18808E-15-6.05667E-13
 -1        39 2.38444E+01 1.48229E-03-1.55644E-03 2.64653E-02-5.22941E-14-5.50802E-13
 -1        40 2.46787E+01 9.35158E-03 1.13482E-02 2.83626E-02-2.13176E-15-5.60687E-13
 -1        41 2.53672E+01 2.04688E-02 3.30696E-02 2.25926E-02 8.83712E-15-7.87023E-13
 -1        42 2.56859E+01 3.26093E-02 6.13954E-02 2.29174E-03-1.31947E-14-8.73542E-13
 -1        43 2.53584E+01 3.99716E-02 8.47404E-02-3.81072E-02-1.82953E-14-7.28128E-13
 -1        44 2.41703E+01 3.41664E-02 8.12882E-02-9.42766E-02 7.15161E-15-6.23133E-13
 -1        45 2.21805E+01 9.55450E-03 2.97858E-02-1.41843E-01 3.48293E-14-6.26492E-13
 -1        46 1.99130E+01-2.80498E-02-6.18554E-02-1.41442E-01-3.64845E-14-7.13055E-13
 -1        47 1.82724E+01-5.90864E-02-1.44372E-01-7.05935E-02 6.72153E-14-7.90996E-13
 -1        48 1.80619E+01-6.33665E-02-1.56057E-01 4.27231E-02-2.71588E-14-6.90871E-13
 -1        49 1.93935E+01-3.77321E-02-8.72105E-02 1.29818E-01-5.62892E-14-6.26672E-13
 -1        50 2.15975E+01 3.66413E-04 8.33579E-03 1.47878E-01 4.30894E-14-7.81007E-13
 -1        51 2.37346E+01 2.94880E-02 7.27564E-02 1.08704E-01-4.06459E-14-5.91589E-13
 -1        52 2.51590E+01 3.98362E-02 8.70802E-02 5.16314E-02-5.11800E-14-6.02931E-13
 -1        53 2.57060E+01 3.49641E-02 6.81896E-02 6.17104E-03 2.64079E-14-7.98291E-13
 -1        54 2.55428E+01 2.32712E-02 3.95293E-02-1.89369E-02 1.56496E-14-6.67193E-13
 -1        55 2.49464E+01 1.14514E-02 1.55049E-02-2.76515E-02 1.61557E-15-7.21983E-13
 -1        56 2.41617E+01 2.56561E-03 2.59257E-04-2.69945E-02-3.12117E-14-1.06191E-12
 -1        57 2.33538E+01-2.91356E-03-7.43041E-03-2.24101E-02 3.54673E-14-9.45302E-13
 -1        58 2.26140E+01-5.66803E-03-1.02013E-02-1.69913E-02 1.14004E-16-8.42426E-13
 -1        59 2.19814E+01-6.60979E-03-1.03007E-02-1.21222E-02-1.26699E-14-8.00533E-13
 -1        60 2.14645E+01-6.49825E-03-9.18727E-03-8.23783E-03 4.55472E-14-4.39100E-13
 -1        61 2.10556E+01-5.85715E-03-7.67229E-03-5.33871E-03-8.21237E-14-3.54628E-13
 -1        62 2.07405E+01-5.00908E-03-6.15480E-03-3.26792E-03-2.94412E-14-1.00259E-12
 -1        63 2.05028E+01-4.13574E-03-4.80502E-03-1.83872E-03-4.19532E-14-1.09207E-12
 -1        64 2.03274E+01-3.33014E-03-3.67820E-03-8.83469E-04-7.22773E-14-9.86248E-13
 -1        65 2.02009E+01-2.63337E-03-2.77815E-03-2.65938E-04-2.65239E-14-8.81581E-13
 -1        66 2.01122E+01-2.05772E-03-2.09087E-03 1.21610E-04-2.51163E-14-4.83083E-13
 -1        67 2.00525E+01-1.59932E-03-1.60121E-03 3.67592E-04 3.31707E-14-2.22513E-13
 -1        68 2.00150E+01-1.24142E-03-1.29129E-03 5.55504E-04-4.48568E-14 5.74237E-15
 -1        69 1.99951E+01-9.45187E-04-1.09338E-03 7.77941E-04 3.07556E-14-5.72916E-13
 -1        70 1.99894E+01-5.89317E-04-7.28106E-04 1.16088E-03 7.19446E-14-6.83265E-13
 -1        71 1.99948E+01 9.88245E-05 7.26392E-04 1.50004E-03-8.56529E-14-5.43743E-13
 -1        72 2.09682E+01-4.03690E-01-9.78979E-01-3.10661E-01 3.82611E-14 3.11386E-12
 -1        73 1.92757E+01-6.59360E-02-2.90514E-01-5.35503E-02 2.51331E-14 2.45214E-12
 -1        74 1.86491E+01-2.08193E-02-6.43059E-02-1.98399E-02 1.25368E-14 1.97494E-12
 -1        75 1.84664E+01-1.03987E-02-9.79547E-03-1.47079E-02 7.23044E-15 1.61003E-12
 -1        76 1.85053E+01-5.91594E-03-2.05318E-04-1.14422E-02 5.42210E-16 1.39289E-12
 -1        77 1.86586E+01-3.63537E-03 4.15553E-04-9.00526E-03 5.47078E-15 1.17723E-12
 -1        78 1.88753E+01-2.47900E-03 1.80893E-05-7.14534E-03-1.31213E-14 1.11838E-12
 -1        79 1.91309E+01-1.96952E-03-4.34169E-04-5.67464E-03 3.60841E-14 9.83869E-13
 -1        80 1.94155E+01-1.85078E-03-1.05526E-03-4.54109E-03-1.09266E-14 7.44856E-13
 -1        81 1.97284E+01-1.95475E-03-1.90703E-03-3.78412E-03 2.03447E-14 6.28437E-13
 -1        82 2.00744E+01-2.13813E-03-2.92381E-03-3.50038E-03 2.12860E-14 4.94127E-13
 -1        83 2.04615E+01-2.24516E-03-3.94387E-03-3.83074E-03 1.87145E-14 4.25014E-13
 -1        84 2.08982E+01-2.08031E-03-4.69281E-03-4.94944E-03 5.88968E-15 4.80063E-13
 -1        85 2.13896E+01-1.39081E-03-4.72663E-03-7.03387E-03 1.20528E-14 4.11053E-13
 -1        86 2.19321E+01 1.28454E-04-3.36227E-03-1.01850E-02 1.03147E-15 1.95921E-13
 -1        87 2.25064E+01 2.77780E-03 3.49562E-04-1.42549E-02 1.66887E-14 6.69326E-14
 -1        88 2.30681E+01 6.69503E-03 7.48401E-03-1.85364E-02-1.03925E-14 2.09747E-13
 -1        89 2.35378E+01 1.15527E-02 1.87134E-02-2.13269E-02 2.81273E-14 2.51619E-13
 -1        90 2.37969E+01 1.61511E-02 3.31673E-02-1.95775E-02-3.71254E-14 1.38353E-13
 -1        91 2.36986E+01 1.81761E-02 4.68266E-02-9.22161E-03 2.90586E-14 2.44584E-13
 -1        92 2.31096E+01 1.47139E-02 5.15712E-02 1.28452E-02-3.35910E-14 1.95616E-13
 -1        93 2.19895E+01 4.13848E-03 3.74168E-02 4.46071E-02 1.53328E-15 3.14391E-13
 -1        94 2.04867E+01-1.13072E-02-4.19883E-05 7.49130E-02 1.34449E-14 4.27887E-14
 -1        95 1.89809E+01-2.50011E-02-5.03332E-02 8.55290E-02-4.95697E-15-9.53786E-14
 -1        96 1.79809E+01-2.97490E-02-8.86567E-02 6.32776E-02 5.39800E-14 1.00623E-13
 -1        97 1.78803E+01-2.31709E-02-9.17131E-02 1.37205E-02-6.23340E-14 2.33936E-14
 -1        98 1.87218E+01-9.41911E-03-5.76634E-02-3.92034E-02 1.35124E-14 2.29223E-13
 -1        99 2.01701E+01 4.61799E-03-7.43873E-03-7.11415E-02-5.78448E-15-1.48284E-13
 -1       100 2.17179E+01 1.38119E-02 3.31552E-02-7.41592E-02 4.78319E-14-5.45432E-14
 -1       101 2.29458E+01 1.67607E-02 5.10312E-02-5.67199E-02-9.95183E-14-2.82845E-13
 -1       102 2.36582E+01 1.49215E-02 4.86373E-02-3.26149E-02 5.04437E-14-2.77493E-13
 -1       103 2.38653E+01 1.07170E-02 3.55645E-02-1.16858E-02-2.98088E-14 6.86907E-15
 -1       104 2.36904E+01 6.16750E-03 2.05328E-02 2.33006E-03-5.95849E-14 6.95435E-13
 -1       105 2.32835E+01 2.39809E-03 8.30216E-03 9.74977E-03 9.45748E-14 4.90193E-13
 -1       106 2.27725E+01-2.31154E-04 1.95446E-04 1.24448E-02-6.73235E-14 1.50839E-13
 -1       107 2.22465E+01-1.79995E-03-4.28670E-03 1.23379E-02 9.53250E-14-2.05855E-13
 -1       108 2.17587E+01-2.55892E-03-6.21176E-03 1.08556E-02-3.30872E-14-2.37736E-13
 -1       109 2.13351E+01-2.77409E-03-6.57689E-03 8.88742E-03 3.00039E-15 1.83909E-13
 -1       110 2.09839E+01-2.66323E-03-6.11003E-03 6.91851E-03 5.78531E-14-4.65340E-13
 -1       111 2.07030E+01-2.38244E-03-5.27602E-03 5.17580E-03-7.06641E-14-4.89891E-13
 -1       112 2.04848E+01-2.03414E-03-4.34474E-03 3.73860E-03-4.51641E-14-3.19198E-13
 -1       113 2.03200E+01-1.68081E-03-3.45997E-03 2.60957E-03 9.89162E-15 1.45027E-14
 -1       114 2.01988E+01-1.35784E-03-2.69173E-03 1.75610E-03-9.83734E-14-9.54259E-14
 -1       115 2.01125E+01-1.08254E-03-2.07177E-03 1.13089E-03 1.24213E-13-2.60502E-13
 -1       116 2.00536E+01-8.58264E-04-1.61350E-03 6.77725E-04 2.30530E-15-5.02529E-13
 -1       117 2.00163E+01-6.78049E-04-1.31680E-03 3.30565E-04-1.87854E-14-7.60483E-13
 -1       118 1.99961E+01-5.17150E-04-1.12674E-03 5.34608E-07 9.70772E-14-1.32361E-12
 -1       119 1.99902E+01-2.37636E-04-7.18910E-04-5.33032E-04-5.43213E-14-1.21920E-12
 -1       120 1.99951E+01 3.91143E-04 6.95599E-04-1.34264E-03 2.49165E-13-9.09659E-13
 -1       121 1.99999E+01-4.73271E-03 4.69607E-04-1.68793E-03-1.05546E-12 5.58417E-15
 -1       122 1.99994E+01-8.66647E-03-9.32450E-04-7.38536E-04-2.77466E-13 3.01101E-13
 -1       123 1.99993E+01-8.37192E-04-1.03225E-03 5.58889E-05 1.02917E-12 7.17591E-14
 -1       124 1.99995E+01 1.71512E-02-6.20931E-04 5.60347E-04 1.22226E-12-3.35065E-14
 -1       125 1.99998E+01 4.08294E-02-8.58155E-05 7.64798E-04 1.40968E-12-2.18038E-13
 -1       126 2.00001E+01 6.44033E-02 3.91533E-04 7.33467E-04 2.89028E-13-2.02048E-13
 -1       127 2.00004E+01 8.36070E-02 7.49773E-04 5.13749E-04 3.05976E-14 4.85441E-14
 -1       128 2.00005E+01 9.41358E-02 9.40854E-04 1.75980E-04-5.96971E-13 1.71612E-13
 -1       129 2.00005E+01 9.38886E-02 9.39354E-04-2.01958E-04-1.16746E-12-3.21111E-14
 -1       130 2.00004E+01 8.28793E-02 7.43685E-04-5.38265E-04-1.87271E-12-1.36244E-13
 -1       131 2.00001E+01 6.32590E-02 3.73737E-04-7.58372E-04-2.56817E-12-8.63128E-14
 -1       132 1.99998E+01 3.94109E-02-1.12327E-04-7.75911E-04-2.39960E-12 1.63900E-13
 -1       133 1.99995E+01 1.56995E-02-6.49209E-04-5.47766E-04-1.43361E-12 1.27844E-13
 -1       134 1.99993E+01-2.10638E-03-1.10297E-03-7.89589E-05-7.07331E-13-3.18158E-14
 -1       135 1.99995E+01-9.23976E-03-8.53145E-04 1.07867E-03-2.22476E-13 2.00384E-14
 -1       136 1.99996E+01-4.93401E-03 4.96578E-04 2.54595E-03 1.06236E-13 3.72187E-14
 -1       137-1.37871E+00-1.96326E+01-3.05867E+00-3.76950E+00 1.93698E-12 7.45848E-13
 -1       138-1.44338E+00-7.95975E+00-2.23044E+00-2.78020E+00 4.29362E-12 2.11142E-12
 -1       139 3.28101E+00 3.89174E+00-1.02666E+00 3.85218E+00 4.32188E-12 3.12250E-12
 -1       140 1.55634E+01 1.04388E+01 3.96440E-01 1.26342E+01 2.71538E-12 3.11967E-12
 -1       141 3.51153E+01 9.93172E+00 1.84024E+00 1.81045E+01 1.60263E-12 2.79560E-12
 -1       142 5.44823E+01 4.87992E+00 2.95753E+00 1.49430E+01 4.99767E-13 1.66633E-12
 -1       143 6.49820E+01 1.15705E+00 3.49112E+00 4.05313E+00 6.10935E-14-2.82552E-14
 -1       144 6.23362E+01 2.15583E+00 3.35659E+00-8.85625E+00 4.14927E-13-1.95613E-12
 -1       145 4.77037E+01 6.96252E+00 2.57916E+00-1.72584E+01 1.27509E-12-3.48216E-12
 -1       146 2.78762E+01 1.09065E+01 1.36190E+00-1.70777E+01 2.24165E-12-3.49515E-12
 -1       147 1.10135E+01 9.34558E+00-2.67103E-02-1.01512E+01 2.78716E-12-2.79310E-12
 -1       148 1.26199E+00 1.07825E+00-1.35552E+00-1.54756E+00 2.79632E-12-1.82016E-12
 -1       149-1.74433E+00-1.20426E+01-2.54107E+00 3.70862E+00 2.28823E-12-8.70401E-13
 -1       150-1.10416E+00-2.20870E+01-3.21330E+00 2.81178E+00 1.20517E-12-2.55789E-13
 -1       151-8.84047E-01-2.37904E+01-3.33594E+00-1.66619E+00-4.00485E-13-7.01106E-14
 -1       152-1.72574E+00-1.61867E+01-2.87022E+00-4.19471E+00-2.11814E-12-8.07410E-13
 -1       153 5.76088E+00 6.16179E+00-7.16904E-01 6.11209E+00-2.82740E-12-2.50960E-12
 -1       154 1.97375E+01 1.07622E+01 6.96255E-01 1.43795E+01-2.19036E-12-2.67131E-12
 -1       155 3.95885E+01 9.10779E+00 2.11843E+00 1.83246E+01-1.07336E-12-1.94544E-12
 -1       156 5.73532E+01 4.17360E+00 3.17548E+00 1.38690E+01-2.59293E-13-9.32587E-13
 -1       157 6.65498E+01 9.90536E-01 3.65982E+00 2.53120E+00-3.23248E-14 1.78260E-14
 -1       158 6.27763E+01 2.32909E+00 3.44502E+00-9.76272E+00-3.90563E-13 1.70042E-12
 -1       159 4.78744E+01 7.07207E+00 2.61330E+00-1.73623E+01-8.82211E-13 2.65860E-12
 -1       160 2.80259E+01 1.06799E+01 1.32753E+00-1.69099E+01-1.38756E-12 2.20196E-12
 -1       161 1.13173E+01 9.15363E+00-8.60674E-02-1.02055E+01-2.40319E-12 2.35489E-12
 -1       162 1.60247E+00 1.49160E+00-1.36679E+00-1.91593E+00-3.28254E-12 2.35167E-12
 -1       163-1.78311E+00-1.03438E+01-2.45085E+00 3.63677E+00-2.93698E-12 1.35161E-12
 -1       164-1.29084E+00-2.05646E+01-3.12697E+00 3.72525E+00-1.85144E-12 3.01890E-13
 -1       165 2.09896E+01 3.68557E+00-5.70138E-02-3.58766E+00-4.42913E-13 8.95395E-14
 -1       166 1.99896E+01 4.20539E+00-4.56175E-02-2.78388E+00-4.01854E-13-3.67498E-13
 -1       167 1.95230E+01 4.47994E+00-3.11041E-02-2.16985E+00-3.19876E-13-6.10701E-13
 -1       168 1.92864E+01 4.62521E+00-2.32694E-02-1.64918E+00-2.34559E-13-7.28162E-13
 -1       169 1.91570E+01 4.71272E+00-1.92919E-02-1.19669E+00-1.40468E-13-7.70333E-13
 -1       170 1.90822E+01 4.76834E+00-1.71696E-02-7.75429E-01-6.74639E-14-7.68103E-13
 -1       171 1.90435E+01 4.79913E+00-1.61341E-02-3.78022E-01 2.52306E-14-7.62414E-13
 -1       172 1.90320E+01 4.80865E+00-1.58345E-02 8.24871E-03 8.30168E-14-7.59014E-13
 -1       173 1.90450E+01 4.79779E+00-1.61758E-02 3.94859E-01 1.48835E-13-7.39616E-13
 -1       174 1.90855E+01 4.76527E+00-1.72517E-02 7.93336E-01 2.16630E-13-6.98333E-13
 -1       175 1.91609E+01 4.70828E+00-1.94489E-02 1.20914E+00 2.80137E-13-6.29385E-13
 -1       176 1.92952E+01 4.61526E+00-2.37861E-02 1.67260E+00 3.53347E-13-5.03748E-13
 -1       177 1.95361E+01 4.46291E+00-3.26107E-02 2.20033E+00 4.27483E-13-3.14396E-13
 -1       178 2.00125E+01 4.18085E+00-4.68777E-02 2.82206E+00 4.66629E-13 4.10852E-14
 -1       179 2.11101E+01 3.45646E+00-5.94338E-02 3.51470E+00 4.37147E-13 6.64795E-13
 -1       180 2.23688E+01 1.14059E+00-3.35412E-01 2.99845E+00 3.11694E-13 1.44501E-12
 -1       181 2.19315E+01 8.56059E-01 7.34776E-04-1.94354E+00-3.87745E-13 6.58421E-13
 -1       182 2.04231E+01 1.90654E-01-9.76302E-03-7.49215E-01-3.38611E-13 4.62260E-13
 -1       183 1.96669E+01 1.03341E-01 1.37696E-02-2.67788E-01-2.65410E-13 2.91591E-13
 -1       184 1.93523E+01 5.02041E-02 1.02355E-02-4.35153E-02-1.86434E-13 1.39835E-13
 -1       185 1.92574E+01 2.72253E-02 5.48869E-03 7.42083E-02-1.25167E-13 3.71940E-14
 -1       186 1.92923E+01 1.61436E-02 2.86333E-03 1.41997E-01-1.30691E-13-2.11760E-14
 -1       187 1.94081E+01 1.11556E-02 1.69993E-03 1.85260E-01-8.79081E-14-7.07435E-14
 -1       188 1.95793E+01 9.87641E-03 1.22309E-03 2.18030E-01-9.03678E-14-1.20232E-13
 -1       189 1.97944E+01 1.11398E-02 1.06003E-03 2.49162E-01-8.25428E-14-1.27387E-13
 -1       190 2.00508E+01 1.42405E-02 1.04927E-03 2.84733E-01-5.11289E-14-1.16813E-13
 -1       191 2.03513E+01 1.86025E-02 1.10296E-03 3.28937E-01-4.56090E-14-2.93274E-13
 -1       192 2.07023E+01 2.35395E-02 1.14416E-03 3.84179E-01-3.27395E-14-3.02020E-13
 -1       193 2.11116E+01 2.79802E-02 1.08037E-03 4.50499E-01-1.27144E-15-3.03108E-13
 -1       194 2.15848E+01 3.00936E-02 7.93835E-04 5.24201E-01-5.47653E-14-3.27772E-13
 -1       195 2.21217E+01 2.67948E-02 1.51832E-04 5.95467E-01-5.78292E-14-2.32147E-13
 -1       196 2.27097E+01 1.32722E-02-9.42969E-04 6.44904E-01 4.56336E-14-2.50514E-13
 -1       197 2.33162E+01-1.69524E-02-2.44799E-03 6.39745E-01-7.37030E-15-2.28803E-13
 -1       198 2.38792E+01-7.01052E-02-4.00554E-03 5.32511E-01-8.56665E-14-2.84149E-13
 -1       199 2.43011E+01-1.46283E-01-4.88646E-03 2.68851E-01-7.38515E-14-2.05043E-13
 -1       200 2.44543E+01-2.27720E-01-4.19364E-03-1.84550E-01 6.61970E-14-3.04167E-13
 -1       201 2.42113E+01-2.66181E-01-2.04063E-03-7.83459E-01 2.16840E-16-3.20954E-13
 -1       202 2.35178E+01-1.90640E-01 5.98342E-04-1.34233E+00-3.55107E-14-4.23940E-13
 -1       203 2.24972E+01 3.41687E-02 8.61586E-04-1.54363E+00 3.38893E-14-3.75167E-13
 -1       204 2.15116E+01 3.22669E-01-1.48554E-03-1.12310E+00-5.99546E-14-2.33043E-13
 -1       205 2.10299E+01 4.87367E-01-3.31454E-03-1.43570E-01-9.20748E-14-3.12393E-13
 -1       206 2.13250E+01 3.86237E-01-2.04197E-03 9.12743E-01-8.66798E-14-5.90800E-13
 -1       207 2.22276E+01 1.09266E-01 3.17029E-04 1.50388E+00-6.94199E-14-6.35421E-13
 -1       208 2.32874E+01-1.45946E-01 1.01361E-03 1.44698E+00 9.36755E-14-6.77665E-13
 -1       209 2.40928E+01-2.59317E-01-1.30598E-03 9.49086E-01 8.54009E-14-3.95935E-13
 -1       210 2.44611E+01-2.43236E-01-3.82066E-03 3.39201E-01-5.92200E-14-2.65519E-13
 -1       211 2.44115E+01-1.66680E-01-4.87133E-03-1.57172E-01 7.27625E-14-1.96106E-13
 -1       212 2.40620E+01-8.58847E-02-4.23421E-03-4.63991E-01-5.24548E-14-2.43499E-13
 -1       213 2.35459E+01-2.57469E-02-2.72645E-03-6.00628E-01-1.96150E-13-2.61234E-13
 -1       214 2.29710E+01 1.04886E-02-1.13513E-03-6.19690E-01 4.39123E-14-1.83234E-13
 -1       215 2.24094E+01 2.82728E-02 1.00179E-04-5.71736E-01 2.85689E-14-3.57009E-13
 -1       216 2.19016E+01 3.43097E-02 8.69696E-04-4.93382E-01 2.10283E-14-3.54699E-13
 -1       217 2.14656E+01 3.38438E-02 1.24187E-03-4.07201E-01 2.91109E-14-4.64600E-13
 -1       218 2.11049E+01 3.02878E-02 1.33946E-03-3.25363E-01 3.11567E-14-3.42587E-13
 -1       219 2.08149E+01 2.56241E-02 1.27513E-03-2.53412E-01-3.06599E-13-2.57075E-13
 -1       220 2.05872E+01 2.09006E-02 1.13086E-03-1.93073E-01-1.44759E-13-3.58553E-13
 -1       221 2.04121E+01 1.66145E-02 9.58789E-04-1.44065E-01-4.85654E-14-5.61008E-13
 -1       222 2.02802E+01 1.29619E-02 7.88566E-04-1.05163E-01 1.58000E-13-6.67818E-13
 -1       223 2.01830E+01 9.98700E-03 6.34603E-04-7.47903E-02 2.05267E-13-3.28743E-13
 -1       224 2.01132E+01 7.66426E-03 5.00644E-04-5.13086E-02 3.74613E-13-8.36625E-14
 -1       225 2.00648E+01 5.94017E-03 3.82083E-04-3.31708E-02 2.26518E-13 9.32751E-14
 -1       226 2.00329E+01 4.72699E-03 2.71754E-04-1.90053E-02-2.23690E-13 2.54041E-13
 -1       227 2.00137E+01 3.81017E-03 1.95005E-04-7.83180E-03 2.37665E-14 3.22230E-13
 -1       228 2.00034E+01 2.61113E-03 1.54350E-04 4.98487E-04 6.10683E-14 2.46799E-13
 -1       229 2.09265E+01 2.76572E-01-5.10571E-02 1.15216E+00 3.25205E-13 1.24183E-12
 -1       230 1.98490E+01 1.27378E-01 8.43776E-03 4.30109E-01 2.37400E-13 1.00287E-12
 -1       231 1.93638E+01 5.95425E-02 1.28513E-02 1.33504E-01 1.92743E-13 8.14842E-13
 -1       232 1.91826E+01 3.02046E-02 7.78202E-03-1.23452E-02 1.31898E-13 6.76982E-13
 -1       233 1.91723E+01 1.67110E-02 4.02710E-03-9.14145E-02 9.57307E-14 5.70794E-13
 -1       234 1.92631E+01 1.01505E-02 2.16332E-03-1.37735E-01 3.82465E-14 4.65508E-13
 -1       235 1.94178E+01 7.25173E-03 1.31198E-03-1.68074E-01 1.12275E-13 4.02649E-13
 -1       236 1.96176E+01 6.56513E-03 8.95949E-04-1.91888E-01 1.19796E-13 3.40445E-13
 -1       237 1.98545E+01 7.29223E-03 6.59237E-04-2.15012E-01 7.57249E-14 2.04357E-13
 -1       238 2.01269E+01 8.84845E-03 4.91897E-04-2.41000E-01 6.25944E-14 2.06135E-13
 -1       239 2.04367E+01 1.06527E-02 3.32813E-04-2.71506E-01 4.97591E-14 1.74069E-13
 -1       240 2.07866E+01 1.19742E-02 1.36715E-04-3.06092E-01 3.10526E-15 1.04577E-13
 -1       241 2.11773E+01 1.17848E-02-1.28562E-04-3.41599E-01 8.51540E-14 1.00823E-14
 -1       242 2.16034E+01 8.62510E-03-4.67372E-04-3.71122E-01 5.30052E-14-2.34873E-14
 -1       243 2.20495E+01 5.60169E-04-8.27190E-04-3.82774E-01 4.94947E-14 2.77942E-14
 -1       244 2.24840E+01-1.45737E-02-1.06312E-03-3.58837E-01-1.09961E-13 1.95653E-14
 -1       245 2.28552E+01-3.82639E-02-9.30731E-04-2.76643E-01 6.25043E-14 6.96823E-14
 -1       246 2.30899E+01-6.93110E-02-1.77935E-04-1.13698E-01-3.56408E-14-1.97577E-14
 -1       247 2.31015E+01-1.00699E-01 1.21469E-03 1.39932E-01-5.36099E-14 1.38794E-14
 -1       248 2.28135E+01-1.16909E-01 2.72903E-03 4.61204E-01-1.61426E-13 1.88064E-13
 -1       249 2.22025E+01-9.62278E-02 3.11588E-03 7.73112E-01-3.46077E-14 2.07455E-13
 -1       250 2.13496E+01-2.40308E-02 1.00887E-03 9.45667E-01 1.21021E-13 1.68519E-13
 -1       251 2.04671E+01 8.59523E-02-3.18386E-03 8.47475E-01 2.35619E-15 1.04123E-13
 -1       252 1.98504E+01 1.83410E-01-6.66028E-03 4.42712E-01-4.18953E-14 1.06810E-13
 -1       253 1.97430E+01 2.10380E-01-6.29706E-03-1.42071E-01-3.03889E-14 1.99979E-13
 -1       254 2.01919E+01 1.49396E-01-2.16361E-03-6.68070E-01 1.15665E-13 1.06882E-13
 -1       255 2.10161E+01 4.03885E-02 2.56860E-03-9.34891E-01 9.49088E-14 7.34560E-14
 -1       256 2.19206E+01-5.68482E-02 4.74180E-03-8.95288E-01-4.92872E-14 9.32761E-15
 -1       257 2.26496E+01-1.07037E-01 3.84127E-03-6.42271E-01 2.15999E-14 6.10016E-15
 -1       258 2.30732E+01-1.10512E-01 1.51958E-03-3.16092E-01 3.09999E-14-9.56614E-14
 -1       259 2.31826E+01-8.65555E-02-5.40791E-04-2.44526E-02-2.50124E-13-5.59319E-14
 -1       260 2.30417E+01-5.46004E-02-1.60755E-03 1.82687E-01-1.79788E-13-7.79641E-14
 -1       261 2.27382E+01-2.63145E-02-1.75068E-03 3.00337E-01 2.58871E-13-2.51422E-14
 -1       262 2.23531E+01-5.95914E-03-1.36122E-03 3.46103E-01 7.99011E-15-9.07655E-14
 -1       263 2.19476E+01 6.54444E-03-8.01485E-04 3.43332E-01 2.32762E-13-1.67032E-13
 -1       264 2.15617E+01 1.29701E-02-2.91015E-04 3.12555E-01-1.47507E-13-1.81605E-13
 -1       265 2.12174E+01 1.53144E-02 8.30733E-05 2.68783E-01-1.26948E-14-2.57581E-13
 -1       266 2.09242E+01 1.52104E-02 3.13784E-04 2.21714E-01 1.99248E-13-3.38748E-13
 -1       267 2.06834E+01 1.38116E-02 4.28683E-04 1.76952E-01-9.05225E-14-1.77584E-14
 -1       268 2.04914E+01 1.18604E-02 4.63019E-04 1.37286E-01-1.97216E-14 1.46649E-13
 -1       269 2.03422E+01 9.80065E-03 4.47626E-04 1.03737E-01-4.94228E-14 5.76606E-16
 -1       270 2.02292E+01 7.87905E-03 4.04976E-04 7.62799E-02-1.87227E-14-3.60405E-14
 -1       271 2.01459E+01 6.22359E-03 3.48624E-04 5.43211E-02 1.66568E-13-7.00044E-14
 -1       272 2.00866E+01 4.89255E-03 2.83890E-04 3.69858E-02 7.83695E-14-2.06835E-13
 -1       273 2.00462E+01 3.88995E-03 2.07689E-04 2.33065E-02 2.14382E-13-2.86002E-13
 -1       274 2.00207E+01 3.19062E-03 1.23570E-04 1.24017E-02 2.07197E-13-3.03845E-13
 -1       275 2.00068E+01 2.68357E-03 1.35105E-04 3.65697E-03-1.37543E-13-2.54141E-13
 -1       276 2.00010E+01 1.03634E-03 3.09522E-04-2.24059E-03-2.95188E-14-3.21408E-13
 -1       277 2.00027E+01 3.64480E-03 1.24076E-04 6.16103E-04 6.29204E-14 5.01999E-13
 -1       278 2.00033E+01 1.25535E-02 3.03815E-05 8.24646E-03 2.80876E-16 5.46008E-13
 -1       279 2.00023E+01 2.70221E-02 8.54981E-06 1.53451E-02 8.07343E-14 1.47226E-13
 -1       280 2.00007E+01 4.52619E-02-3.84605E-06 1.92180E-02 3.70061E-13 1.02449E-14
 -1       281 1.99990E+01 6.40641E-02-4.25173E-05 1.91207E-02 1.96047E-13-7.91266E-13
 -1       282 1.99976E+01 8.08003E-02-8.22235E-05 1.52051E-02 4.08513E-14-3.29510E-13
 -1       283 1.99966E+01 9.21484E-02-1.12696E-04 8.32024E-03-9.94812E-14-2.56218E-13
 -1       284 1.99963E+01 9.60978E-02-1.23559E-04-1.69084E-04-3.15799E-13-3.93668E-13
 -1       285 1.99967E+01 9.19327E-02-1.12358E-04-8.64922E-03-5.28255E-13-3.87414E-13
 -1       286 1.99976E+01 8.03712E-02-8.20972E-05-1.54979E-02-5.02910E-13-3.56375E-13
 -1       287 1.99991E+01 6.37833E-02-4.00686E-05-1.92913E-02-4.44266E-13 1.29630E-13
 -1       288 2.00008E+01 4.45434E-02-4.99571E-06-1.92632E-02-3.54756E-13 3.39331E-13
 -1       289 2.00024E+01 2.62699E-02 4.64466E-06-1.51303E-02-4.61650E-13 4.74281E-13
 -1       290 2.00033E+01 1.23856E-02 9.94625E-05-8.07152E-03-3.85968E-13 2.97924E-13
 -1       291 2.00052E+01 7.29664E-03 8.65632E-05-3.61782E-03-2.08301E-13 2.89654E-13
 -1       292-8.55781E-01-1.07248E+01-9.85150E-01 1.15467E+00 5.05637E-13 1.32963E-12
 -1       293 2.80859E+00-8.17425E+00-7.45278E-01 3.64411E+00 1.02876E-12 1.62596E-12
 -1       294 9.73552E+00-4.83865E+00-4.61187E-01 5.75219E+00 1.48229E-12 1.12092E-12
 -1       295 1.83724E+01-7.57374E-01-1.04063E-01 7.22210E+00 1.83384E-12 1.14134E-12
 -1       296 2.90770E+01 2.02083E+00 2.77156E-01 6.95866E+00 1.23636E-12 9.13020E-13
 -1       297 3.83325E+01 4.93628E+00 6.63685E-01 5.78163E+00 1.04897E-12 5.86919E-13
 -1       298 4.42621E+01 6.45640E+00 8.88773E-01 2.86834E+00 9.02278E-13 1.50768E-13
 -1       299 4.49381E+01 6.98337E+00 8.57244E-01-6.19599E-01 9.60676E-13-4.70204E-13
 -1       300 4.24803E+01 5.99489E+00 8.16482E-01-4.15226E+00 9.71653E-13-9.73860E-13
 -1       301 3.52112E+01 4.11128E+00 5.47119E-01-6.52872E+00 9.81382E-13-1.31270E-12
 -1       302 2.54825E+01 1.67025E+00 2.01441E-01-7.72479E+00 1.13790E-12-1.55470E-12
 -1       303 1.56055E+01-1.82305E+00-2.17428E-01-6.83034E+00 1.18766E-12-1.25475E-12
 -1       304 6.99343E+00-5.92603E+00-6.11501E-01-4.89533E+00 1.01516E-12-1.01417E-12
 -1       305 1.48950E+00-8.68397E+00-7.29244E-01-3.14907E+00 5.05096E-13-7.46889E-13
 -1       306-1.17394E+00-1.03967E+01-8.97138E-01-4.96425E-01 1.58172E-13-8.23508E-13
 -1       307 1.94385E-01-9.38367E+00-8.01374E-01 2.13197E+00-2.88991E-13-8.38718E-13
 -1       308 4.56101E+00-7.46005E+00-7.46341E-01 3.93142E+00-7.03937E-13-8.97700E-13
 -1       309 1.18956E+01-3.74292E+00-4.18420E-01 5.98816E+00-8.98837E-13-8.41813E-13
 -1       310 2.12246E+01-1.01093E-01-1.53959E-02 7.34092E+00-9.55819E-13-7.56784E-13
 -1       311 3.16275E+01 2.38274E+00 3.49666E-01 6.48200E+00-8.60229E-13-2.83662E-13
 -1       312 4.04190E+01 5.18817E+00 7.86119E-01 5.61310E+00-7.27449E-13-2.94681E-13
 -1       313 4.45640E+01 6.73070E+00 8.73744E-01 2.09549E+00-6.01241E-13 1.15324E-13
 -1       314 4.70460E+01 6.59407E+00 1.06736E+00-1.12094E+00-8.66390E-13 7.08940E-13
 -1       315 4.27680E+01 5.87049E+00 8.30637E-01-4.02305E+00-7.37882E-13 9.71390E-13
 -1       316 3.53753E+01 3.62352E+00 4.89618E-01-5.82372E+00-5.28168E-13 1.35175E-12
 -1       317 2.59168E+01 1.34215E+00 1.80558E-01-7.51874E+00-1.09024E-12 1.02646E-12
 -1       318 1.62547E+01-1.97584E+00-2.29068E-01-6.76167E+00-1.25094E-12 6.27498E-13
 -1       319 7.88133E+00-5.65152E+00-5.92426E-01-5.01644E+00-1.35453E-12 9.66546E-13
 -1       320 1.94511E+00-8.96753E+00-8.64210E-01-2.87316E+00-9.58900E-13 1.12044E-12
 -1       321-9.34293E-01-1.08427E+01-9.93203E-01-8.52226E-01-3.27974E-13 8.63115E-13
 -1       322 2.01458E+01 3.00588E+00-2.18990E-02-2.06527E+00-4.29156E-13-3.43306E-13
 -1       323 2.07501E+01 2.20702E+00-1.75157E-02-2.33720E+00-4.74558E-13-8.30776E-14
 -1       324 1.96000E+01 3.71557E+00-1.54730E-02-1.28596E+00-2.35127E-13-5.69003E-13
 -1       325 1.94739E+01 3.88148E+00-1.35464E-02-8.98274E-01-1.32445E-13-5.85895E-13
 -1       326 1.94015E+01 3.97894E+00-1.25154E-02-5.27398E-01-3.12049E-14-5.70513E-13
 -1       327 1.93687E+01 4.02374E+00-1.20748E-02-1.67633E-01 6.82391E-14-5.87161E-13
 -1       328 1.93700E+01 4.02205E+00-1.20922E-02 1.88475E-01 1.47484E-13-5.76860E-13
 -1       329 1.94055E+01 3.97350E+00-1.25589E-02 5.48634E-01 2.23095E-13-5.50045E-13
 -1       330 1.94795E+01 3.87364E+00-1.36045E-02 9.13917E-01 3.08772E-13-5.06259E-13
 -1       331 1.96091E+01 3.70252E+00-1.55342E-02 1.30213E+00 3.89725E-13-4.04224E-13
 -1       332 1.98241E+01 3.42406E+00-1.87453E-02 1.70520E+00 4.58951E-13-2.62956E-13
 -1       333 2.01881E+01 2.96030E+00-2.28102E-02 2.09511E+00 5.05119E-13-5.15039E-14
 -1       334 2.07417E+01 2.12873E+00-3.02887E-02 2.29531E+00 5.07672E-13 3.39040E-13
 -1       335 2.10745E+01 1.18637E+00-2.47005E-02 1.90094E+00 4.32572E-13 6.97793E-13
 -1       336 2.03848E+01 4.91581E-01 8.45846E-03 9.03848E-01 3.53950E-13 5.45473E-13
 -1       337 2.04623E+01 6.80547E-01 1.26837E-02-9.93655E-01-3.83309E-13-1.74495E-14
 -1       338 2.00589E+01 3.47886E-01 7.32081E-03-4.16407E-01-2.97862E-13-5.19545E-14
 -1       339 1.98306E+01 1.93235E-01 4.34080E-03-9.14821E-02-2.07655E-13-8.98115E-14
 -1       340 1.97301E+01 1.14478E-01 2.15362E-03 1.03062E-01-1.46577E-13-1.26961E-13
 -1       341 1.97221E+01 7.42174E-02 1.17323E-03 2.26416E-01-1.17024E-13-1.31641E-13
 -1       342 1.97801E+01 5.60336E-02 7.88834E-04 3.12467E-01-1.11102E-13-1.19290E-13
 -1       343 1.98877E+01 5.20095E-02 6.81263E-04 3.82246E-01-6.87560E-14-9.46009E-14
 -1       344 2.00360E+01 5.77238E-02 7.14214E-04 4.49709E-01-9.96884E-14-1.28950E-13
 -1       345 2.02212E+01 7.01439E-02 8.24030E-04 5.24395E-01-1.07307E-13-1.63000E-13
 -1       346 2.04435E+01 8.64436E-02 9.62599E-04 6.12397E-01-8.53966E-14-1.78551E-13
 -1       347 2.07051E+01 1.03012E-01 1.07173E-03 7.16215E-01-2.57395E-14-2.37687E-13
 -1       348 2.10091E+01 1.14303E-01 1.06683E-03 8.33582E-01 1.94316E-15-2.13347E-13
 -1       349 2.13587E+01 1.11377E-01 8.25051E-04 9.55088E-01-1.51243E-14-1.12873E-13
 -1       350 2.17555E+01 8.03241E-02 1.83568E-04 1.06048E+00-4.05926E-14-7.57122E-14
 -1       351 2.21985E+01 1.57310E-03-1.02112E-03 1.11391E+00-4.73199E-15-2.03704E-13
 -1       352 2.26824E+01-1.47213E-01-2.86713E-03 1.05979E+00-1.04602E-14-2.54431E-13
 -1       353 2.31923E+01-3.78952E-01-5.05670E-03 8.24159E-01 9.09993E-15-1.49208E-13
 -1       354 2.36924E+01-6.69201E-01-6.85357E-03 3.32227E-01-9.32715E-14-8.03671E-14
 -1       355 2.41052E+01-9.11300E-01-7.04667E-03-4.42022E-01-4.90580E-15-9.94411E-14
 -1       356 2.42936E+01-8.90214E-01-6.83668E-03-1.37838E+00 3.17346E-14-1.87528E-14
 -1       357 2.41135E+01-3.74242E-01-5.99605E-03-2.11229E+00 6.55786E-14 6.79324E-14
 -1       358 2.35824E+01 6.02601E-01-8.25851E-03-2.09161E+00-7.71648E-14-6.16902E-14
 -1       359 2.30370E+01 1.53473E+00-8.81467E-03-1.04082E+00-6.03363E-14-2.51101E-13
 -1       360 2.29707E+01 1.65027E+00-8.89323E-03 6.35098E-01-1.94706E-13-3.72347E-13
 -1       361 2.34277E+01 8.81123E-01-9.00583E-03 1.92707E+00-1.22603E-13-4.98649E-13
 -1       362 2.40116E+01-1.52325E-01-5.62625E-03 2.20824E+00 1.43869E-13-2.97707E-13
 -1       363 2.42999E+01-8.07202E-01-6.29205E-03 1.61775E+00 2.05243E-13-3.88483E-13
 -1       364 2.42020E+01-9.37025E-01-7.37005E-03 6.93321E-01 1.16794E-13-4.21661E-13
 -1       365 2.38407E+01-7.37831E-01-7.30726E-03-1.37506E-01 6.72901E-14-2.30990E-13
 -1       366 2.33642E+01-4.43688E-01-5.56265E-03-6.96875E-01-1.42874E-14-2.50363E-13
 -1       367 2.28661E+01-1.89852E-01-3.29660E-03-9.83178E-01-5.47468E-14-1.26209E-13
 -1       368 2.23915E+01-1.78649E-02-1.30054E-03-1.06522E+00-3.29818E-14 4.75960E-14
 -1       369 2.19597E+01 7.91128E-02 9.02476E-05-1.01988E+00-2.73932E-14 2.24453E-13
 -1       370 2.15783E+01 1.22654E-01 8.85859E-04-9.08008E-01-6.15975E-14 1.29142E-13
 -1       371 2.12496E+01 1.33389E-01 1.23562E-03-7.70402E-01 2.09801E-14-9.54593E-16
 -1       372 2.09724E+01 1.26386E-01 1.30308E-03-6.31356E-01-1.59472E-14 1.21781E-13
 -1       373 2.07435E+01 1.11247E-01 1.21620E-03-5.03650E-01-1.04960E-13-8.25284E-14
 -1       374 2.05580E+01 9.35394E-02 1.05968E-03-3.92819E-01-1.80761E-13 1.78482E-13
 -1       375 2.04106E+01 7.62242E-02 8.83859E-04-3.00191E-01-1.66422E-13 1.38512E-13
 -1       376 2.02954E+01 6.07141E-02 7.15671E-04-2.24844E-01-2.93764E-14 2.98706E-13
 -1       377 2.02072E+01 4.75600E-02 5.67884E-04-1.64785E-01 3.16972E-13 3.36296E-13
 -1       378 2.01408E+01 3.68631E-02 4.44624E-04-1.17623E-01 3.88015E-13 5.01935E-13
 -1       379 2.00919E+01 2.84921E-02 3.44053E-04-8.09441E-02 3.18095E-13 1.65454E-13
 -1       380 2.00567E+01 2.21718E-02 2.65662E-04-5.25592E-02 2.09739E-13 4.46562E-13
 -1       381 2.00320E+01 1.74157E-02 2.34581E-04-3.05899E-02-2.48155E-14 9.35273E-13
 -1       382 2.00162E+01 1.26396E-02 1.08288E-04-1.48893E-02-1.71879E-13 8.32950E-13
 -1       383 1.99022E+01 2.33961E-01 1.09194E-02 3.68496E-01 2.81852E-13 4.30862E-13
 -1       384 1.96395E+01 1.24302E-01 6.36729E-03 7.84182E-02 2.09921E-13 3.30132E-13
 -1       385 1.95402E+01 7.05806E-02 3.08279E-03-8.72523E-02 1.53903E-13 2.73624E-13
 -1       386 1.95485E+01 4.34368E-02 1.55017E-03-1.87385E-01 1.01785E-13 1.79640E-13
 -1       387 1.96290E+01 3.05538E-02 9.29474E-04-2.53431E-01 8.51768E-14 1.19313E-13
 -1       388 1.97611E+01 2.62118E-02 6.98324E-04-3.03442E-01 1.57747E-13 1.55411E-13
 -1       389 1.99335E+01 2.72334E-02 6.32182E-04-3.48534E-01 1.33757E-13 1.23833E-13
 -1       390 2.01413E+01 3.13564E-02 6.34863E-04-3.95489E-01 6.42828E-14 1.01065E-13
 -1       391 2.03833E+01 3.64458E-02 6.43888E-04-4.47645E-01 5.85073E-14 7.80104E-14
 -1       392 2.06599E+01 3.99587E-02 5.96910E-04-5.04819E-01 6.13156E-14 3.03576E-14
 -1       393 2.09709E+01 3.84793E-02 4.21788E-04-5.62526E-01 1.73355E-13-1.02075E-13
 -1       394 2.13132E+01 2.73379E-02 3.93386E-05-6.10630E-01 8.84832E-14-7.03322E-14
 -1       395 2.16784E+01 5.49506E-04-6.18934E-04-6.31731E-01-8.93753E-15-2.21447E-14
 -1       396 2.20492E+01-4.83492E-02-1.57023E-03-6.00076E-01-5.37186E-14 1.75984E-14
 -1       397 2.23967E+01-1.23524E-01-2.71043E-03-4.82797E-01 5.10565E-14-8.98362E-14
 -1       398 2.26778E+01-2.20908E-01-3.76042E-03-2.46709E-01 4.23973E-14-3.62847E-14
 -1       399 2.28354E+01-3.19095E-01-4.28713E-03 1.25073E-01-1.11278E-13-6.17733E-14
 -1       400 2.28057E+01-3.71539E-01-3.79516E-03 6.04828E-01-2.09974E-13-4.61269E-14
 -1       401 2.25406E+01-3.12107E-01-1.96977E-03 1.08834E+00-7.95191E-14 6.57885E-14
 -1       402 2.20492E+01-9.26846E-02 3.05917E-04 1.38763E+00 1.16426E-13 6.33053E-14
 -1       403 2.14483E+01 2.51541E-01 1.95255E-03 1.29542E+00-1.05478E-14 1.28939E-13
 -1       404 2.09644E+01 5.68946E-01 3.20450E-03 7.30128E-01-5.16471E-14 6.00503E-14
 -1       405 2.08278E+01 6.72564E-01 4.60576E-03-1.40650E-01-1.08581E-14 8.72247E-14
 -1       406 2.11128E+01 4.92636E-01 5.17416E-03-9.52888E-01 1.29475E-13-4.07907E-14
 -1       407 2.16756E+01 1.47267E-01 4.04835E-03-1.38160E+00 1.35891E-13 1.18194E-13
 -1       408 2.22682E+01-1.71158E-01 1.01090E-03-1.33891E+00 6.40514E-15 7.72845E-14
 -1       409 2.26953E+01-3.42551E-01-2.47816E-03-9.62023E-01 9.15403E-14 1.64381E-13
 -1       410 2.28821E+01-3.61796E-01-4.58197E-03-4.66059E-01-4.60461E-14 2.09520E-13
 -1       411 2.28476E+01-2.88478E-01-4.90397E-03-1.71581E-02-1.30408E-14-7.50875E-15
 -1       412 2.26517E+01-1.85480E-01-3.99744E-03 3.06191E-01-8.03973E-14-4.31877E-13
 -1       413 2.23593E+01-9.19510E-02-2.61030E-03 4.93688E-01-4.80792E-14-4.60770E-13
 -1       414 2.20236E+01-2.31885E-02-1.28253E-03 5.69907E-01 7.02198E-14 7.39904E-14
 -1       415 2.16834E+01 2.00261E-02-2.60626E-04 5.69205E-01 3.28381E-13 2.14536E-13
 -1       416 2.13635E+01 4.29369E-02 4.03832E-04 5.22700E-01-7.81844E-14 1.90846E-13
 -1       417 2.10779E+01 5.18945E-02 7.63707E-04 4.53787E-01-4.76776E-14-2.35533E-13
 -1       418 2.08327E+01 5.22769E-02 9.04329E-04 3.78053E-01 6.75268E-14-1.74985E-13
 -1       419 2.06287E+01 4.79814E-02 9.05968E-04 3.04835E-01-2.39763E-13-1.20401E-13
 -1       420 2.04635E+01 4.15750E-02 8.30530E-04 2.39045E-01-1.36261E-13 1.36898E-13
 -1       421 2.03329E+01 3.46281E-02 7.20383E-04 1.82702E-01 3.77219E-14 2.24355E-13
 -1       422 2.02321E+01 2.80344E-02 6.01993E-04 1.36068E-01 4.87221E-14 7.66466E-14
 -1       423 2.01560E+01 2.22642E-02 4.89545E-04 9.84086E-02 1.84336E-13 8.34276E-14
 -1       424 2.01001E+01 1.75314E-02 3.88830E-04 6.84800E-02 2.35538E-13-3.23054E-14
 -1       425 2.00603E+01 1.38520E-02 3.00628E-04 4.48549E-02 1.95264E-13 1.44346E-14
 -1       426 2.00330E+01 1.10522E-02 2.12897E-04 2.62534E-02-6.79409E-14 2.18420E-13
 -1       427 2.00154E+01 8.57266E-03 1.46067E-04 1.18570E-02-1.26535E-13 8.23200E-13
 -1       428 2.00080E+01 6.91377E-03 7.40532E-05 5.46348E-03-2.01542E-14 7.01844E-13
 -1       429 2.00057E+01 5.02522E-02 5.57091E-05 3.43593E-02-2.91921E-13 4.20826E-13
 -1       430 2.00108E+01 3.11515E-02 9.77050E-05 2.62939E-02-1.22360E-13 2.77142E-13
 -1       431 2.00110E+01 1.72303E-02 1.09353E-04 1.55341E-02 1.94116E-14 3.82971E-13
 -1       432 1.99994E+01 6.97493E-02-1.81548E-06 3.64211E-02-1.75216E-13-6.75560E-13
 -1       433 1.99932E+01 8.77483E-02-5.58506E-05 3.19411E-02 1.04149E-13-2.96541E-13
 -1       434 1.99885E+01 1.01411E-01-9.73141E-05 2.16900E-02 1.23098E-13-6.39526E-13
 -1       435 1.99860E+01 1.08798E-01-1.20179E-04 7.55039E-03-2.81634E-13-5.08927E-13
 -1       436 1.99860E+01 1.08824E-01-1.20009E-04-7.96118E-03-2.05313E-13-5.16665E-13
 -1       437 1.99886E+01 1.01461E-01-9.62653E-05-2.20979E-02-2.74330E-13-3.37901E-13
 -1       438 1.99933E+01 8.80446E-02-5.40773E-05-3.21804E-02-1.59759E-13-9.60479E-14
 -1       439 1.99995E+01 6.99954E-02-5.96247E-06-3.66504E-02 9.36351E-15 5.97483E-13
 -1       440 2.00059E+01 5.00612E-02 4.44237E-05-3.43700E-02 6.57471E-14 9.83947E-14
 -1       441 2.00112E+01 3.05504E-02 8.73887E-05-2.58743E-02-2.99776E-13 1.36986E-13
 -1       442 1.09120E+01-5.22838E+00 8.13915E-03 7.04033E+00-2.77306E-13 7.87488E-13
 -1       443 1.02374E+00-4.53267E+00-8.17548E-02 2.38134E-01 1.01410E-13 1.46028E-12
 -1       444 3.78799E+00-4.38001E+00-1.64217E-02 4.40647E+00 3.69427E-14 1.55755E-12
 -1       445 1.91625E+01-5.19844E+00-6.69420E-03 6.62855E+00 3.11695E-13 5.27495E-14
 -1       446 2.58582E+01-3.36791E+00-2.19109E-02 4.69780E+00 6.25042E-13-1.52073E-13
 -1       447 1.98067E+01 3.44731E+00-1.86137E-02-1.68655E+00-3.37531E-13-4.85170E-13
 -1       448 3.45780E+01 5.35657E+00 3.13436E-02-5.14306E-02 8.39731E-13-2.84883E-13
 -1       449 3.48481E+01 7.89581E+00 9.07868E-03-2.12307E-01 1.07805E-12-2.23238E-13
 -1       450 3.58473E+01 7.20294E+00 7.68538E-02 7.32080E-02 1.00622E-12-2.21864E-13
 -1       451 3.38529E+01 3.80484E+00 2.78484E-02-3.60959E-01 6.41001E-13-1.58540E-13
 -1       452 3.02451E+01-8.54294E-01 2.77814E-03-2.43931E+00 3.15541E-13-1.00475E-13
 -1       453 2.43205E+01-3.83230E+00-5.72726E-03-5.38333E+00 1.92055E-13-5.55209E-13
 -1       454 1.59010E+01-5.39409E+00-6.18111E-02-6.97443E+00 2.49828E-13-5.81066E-13
 -1       455 9.13211E+00-5.05909E+00 2.38095E-02-6.73764E+00-5.03347E-14-7.92026E-13
 -1       456 2.63046E+00-3.99528E+00 2.85166E-03-3.12622E+00-1.33019E-14-8.91620E-13
 -1       457 1.77486E+00-3.83095E+00-6.79400E-03 1.41520E+00 2.37310E-14-8.91953E-13
 -1       458 5.78896E+00-5.31506E+00-8.53825E-02 5.49277E+00 8.33500E-14-7.54147E-13
 -1       459 1.27495E+01-5.73621E+00-8.22807E-02 6.88190E+00-3.71647E-14-4.57804E-13
 -1       460 2.12204E+01-4.97981E+00-2.79397E-02 6.10318E+00-1.64618E-13-2.19338E-13
 -1       461 2.80774E+01-2.71981E+00-1.31004E-02 3.74932E+00-4.13961E-13 1.54460E-13
 -1       462 3.32019E+01 1.75631E+00 3.82816E-02 5.13032E-01-5.82596E-13 3.45418E-13
 -1       463 3.48562E+01 5.44879E+00 2.69814E-02-4.49427E-01-6.24098E-13 3.49706E-13
 -1       464 3.63609E+01 7.94376E+00 8.67468E-02-7.13090E-02-8.99364E-13 3.99555E-13
 -1       465 3.66252E+01 7.07149E+00 1.20955E-01 1.36466E-01-9.14824E-13 3.50844E-13
 -1       466 3.42128E+01 3.56241E+00 2.66056E-02 2.41890E-02-4.75509E-13 3.22992E-13
 -1       467 3.04570E+01-1.35577E+00-1.78502E-02-2.13194E+00-3.11733E-13 5.39888E-13
 -1       468 2.56880E+01-3.87483E+00 1.08038E-02-4.73361E+00-3.94532E-13 4.20053E-13
 -1       469 1.74191E+01-5.63082E+00-2.49851E-02-6.77910E+00-3.59185E-13-1.78527E-13
 -1       470 9.04510E+00-5.52670E+00-6.55793E-02-6.47175E+00-1.44551E-13 5.33032E-13
 -1       471 2.94564E+00-5.10421E+00-1.12778E-01-3.79160E+00-2.16327E-13 1.17384E-12
 -1       472 3.21400E+01 1.10747E+00 4.12436E-02 1.62621E+00 6.62876E-13-3.59740E-13
 -1       473 2.03878E+01 8.43570E-01 4.05345E-03 9.30626E-01 3.76855E-13 1.39800E-13
 -1       474 1.97357E+01 3.16048E+00-5.33594E-03-6.05721E-01-7.07173E-14-4.99831E-13
 -1       475 1.98382E+01 2.97627E+00-5.93784E-03-9.12684E-01-1.67736E-13-4.97908E-13
 -1       476 1.96610E+01 3.29280E+00-4.93698E-03 8.55202E-03 1.04369E-13-5.21278E-13
 -1       477 1.96813E+01 3.25708E+00-5.01870E-03 3.15047E-01 1.84167E-13-5.20840E-13
 -1       478 1.97400E+01 3.15298E+00-5.33995E-03 6.17474E-01 2.57537E-13-4.73782E-13
 -1       479 1.98450E+01 2.96408E+00-5.89642E-03 9.23400E-01 3.57287E-13-3.99354E-13
 -1       480 2.00056E+01 2.66583E+00-6.49135E-03 1.21374E+00 4.00639E-13-2.97644E-13
 -1       481 2.02485E+01 2.20664E+00-5.68128E-03 1.45877E+00 4.37443E-13-1.41670E-13
 -1       482 2.01431E+01 4.73379E-01 5.16425E-03 4.08527E-01 3.00509E-13 9.75355E-14
 -1       483 2.03614E+01 9.92538E-01 2.95035E-03-8.89687E-01-3.29338E-13-2.13380E-13
 -1       484 2.85568E+01-2.79825E+00-6.60107E-02 8.18194E-01 3.16954E-13-7.64042E-13
 -1       485 2.02061E+01 5.76868E-01 2.41006E-03-4.00130E-01-2.46732E-13-1.77391E-13
 -1       486 2.00806E+01 3.47457E-01 1.04061E-03-7.27236E-02-1.77725E-13-1.57661E-13
 -1       487 2.00077E+01 2.22189E-01 5.64095E-04 1.45039E-01-1.49893E-13-1.38643E-13
 -1       488 1.99851E+01 1.56147E-01 3.43595E-04 2.95955E-01-8.66892E-14-1.35020E-13
 -1       489 2.00044E+01 1.27774E-01 2.73428E-04 4.10104E-01-9.17673E-14-1.56189E-13
 -1       490 2.00576E+01 1.24932E-01 2.75293E-04 5.08570E-01-9.25743E-14-1.79442E-13
 -1       491 2.01390E+01 1.39849E-01 3.18366E-04 6.06323E-01-1.31062E-13-1.92094E-13
 -1       492 2.02454E+01 1.66364E-01 3.84203E-04 7.13713E-01-8.54068E-14-1.30340E-13
 -1       493 2.03757E+01 1.97996E-01 4.53494E-04 8.36999E-01-2.58815E-14-7.45273E-14
 -1       494 2.05309E+01 2.26041E-01 4.98252E-04 9.77970E-01-1.65552E-14-7.53554E-14
 -1       495 2.07147E+01 2.37298E-01 4.74465E-04 1.13262E+00 3.05420E-14-6.27010E-14
 -1       496 2.09353E+01 2.11359E-01 3.15532E-04 1.28871E+00-3.82245E-14-9.84432E-14
 -1       497 2.12084E+01 1.18182E-01-7.76408E-05 1.42204E+00-7.46863E-14-5.18716E-14
 -1       498 2.15614E+01-8.15809E-02-7.87024E-04 1.49129E+00-4.64762E-14-1.07877E-13
 -1       499 2.20350E+01-4.27562E-01-1.88382E-03 1.43193E+00 9.45686E-14-5.68187E-14
 -1       500 2.26758E+01-9.28937E-01-2.82353E-03 1.15312E+00-1.53167E-14 2.25433E-16
 -1       501 2.35013E+01-1.50245E+00-3.59411E-03 5.49780E-01 5.56325E-14 2.05424E-13
 -1       502 2.44357E+01-1.87783E+00-3.91244E-03-4.38750E-01 1.11833E-13 3.01260E-13
 -1       503 2.51962E+01-1.54649E+00-1.42086E-02-1.66539E+00 1.01570E-13 3.13390E-13
 -1       504 2.54107E+01-1.22622E-01-9.67542E-03-2.55516E+00-1.45841E-13 2.79459E-13
 -1       505 2.47674E+01 2.09336E+00-8.41603E-02-2.24619E+00-3.50308E-13 1.19436E-14
 -1       506 2.46588E+01 3.33641E+00-7.05799E-02-3.04553E-01-3.80437E-13-3.47773E-13
 -1       507 2.48477E+01 2.63209E+00-6.89801E-02 1.80325E+00-2.68004E-13-5.87130E-13
 -1       508 2.53619E+01 4.47242E-01-3.13358E-02 2.60433E+00 1.58877E-13-5.48772E-13
 -1       509 2.53129E+01-1.27225E+00-1.70216E-02 1.97016E+00 1.05937E-13-4.80966E-13
 -1       510 2.46743E+01-1.87159E+00-6.14678E-03 7.66115E-01 1.47834E-13-3.96713E-13
 -1       511 2.37580E+01-1.62544E+00-4.29639E-03-3.07263E-01 1.31155E-13-2.94352E-13
 -1       512 2.28959E+01-1.06434E+00-3.07216E-03-1.00180E+00 8.61295E-14-1.70443E-13
 -1       513 2.22135E+01-5.25747E-01-2.01990E-03-1.34392E+00-1.76241E-14-1.69257E-13
 -1       514 2.17108E+01-1.34158E-01-9.53368E-04-1.43716E+00 5.54008E-14-1.65614E-13
 -1       515 2.13431E+01 1.04181E-01-1.57665E-04-1.37862E+00 9.70889E-14-4.93458E-14
 -1       516 2.10665E+01 2.25121E-01 3.15119E-04-1.23935E+00-2.36123E-14 5.94508E-14
 -1       517 2.08503E+01 2.69135E-01 5.35069E-04-1.06627E+00-7.83372E-14 1.55481E-13
 -1       518 2.06760E+01 2.68316E-01 5.95462E-04-8.88068E-01-2.11619E-14 7.61243E-14
 -1       519 2.05329E+01 2.44463E-01 5.69160E-04-7.20860E-01-2.44371E-13-4.76758E-15
 -1       520 2.04151E+01 2.11028E-01 5.02377E-04-5.72539E-01-4.44191E-14-1.48926E-14
 -1       521 2.03186E+01 1.75696E-01 4.22213E-04-4.45916E-01 3.76821E-15 2.60738E-13
 -1       522 2.02404E+01 1.42502E-01 3.43289E-04-3.40830E-01 1.72720E-14 5.64523E-13
 -1       523 2.01780E+01 1.13320E-01 2.72532E-04-2.55523E-01 8.70288E-14 8.07158E-13
 -1       524 2.01288E+01 8.88075E-02 2.13501E-04-1.87488E-01 2.85624E-13 5.25558E-13
 -1       525 2.00907E+01 6.89711E-02 1.67102E-04-1.33991E-01 1.00296E-13 4.38665E-13
 -1       526 2.00614E+01 5.33774E-02 1.30381E-04-9.23887E-02 3.79057E-13 2.16177E-13
 -1       527 2.00392E+01 4.13604E-02 1.15057E-04-6.03480E-02 4.09993E-13 1.41206E-13
 -1       528 1.98958E+01 1.69114E-01 1.19579E-03-1.26138E-01 1.78065E-13 1.71338E-14
 -1       529 1.98795E+01 1.12755E-01 6.22825E-04-2.64003E-01 1.19665E-13-1.97008E-14
 -1       530 1.99152E+01 8.60005E-02 4.13982E-04-3.62815E-01 1.20449E-13-2.88082E-14
 -1       531 1.99913E+01 7.78608E-02 3.52726E-04-4.42834E-01 1.70893E-13 2.46441E-14
 -1       532 2.01006E+01 8.12629E-02 3.54778E-04-5.17228E-01 1.14295E-13 3.95201E-14
 -1       533 2.02393E+01 9.04792E-02 3.78305E-04-5.93901E-01 8.31869E-14 3.63678E-14
 -1       534 2.04061E+01 9.96144E-02 3.88019E-04-6.76055E-01 1.63290E-13-9.95336E-15
 -1       535 2.06014E+01 1.01444E-01 3.43051E-04-7.61820E-01 1.54138E-13-1.42462E-13
 -1       536 2.08269E+01 8.64435E-02 1.93266E-04-8.43160E-01 1.23734E-13-1.41142E-13
 -1       537 2.10849E+01 4.22332E-02-1.18353E-04-9.04206E-01 2.41585E-14-3.63011E-14
 -1       538 2.13780E+01-4.57573E-02-6.44870E-04-9.19445E-01-7.49145E-14-2.11049E-14
 -1       539 2.17076E+01-1.90747E-01-1.39912E-03-8.52819E-01 2.15615E-14-9.28121E-14
 -1       540 2.20700E+01-3.95564E-01-2.26172E-03-6.60068E-01-8.90303E-15 1.00867E-13
 -1       541 2.24480E+01-6.35741E-01-2.97082E-03-2.98841E-01-4.61826E-14 2.25692E-13
 -1       542 2.27971E+01-8.37267E-01-3.22677E-03 2.46432E-01-1.69219E-13 1.67026E-13
 -1       543 2.30346E+01-8.65645E-01-2.62278E-03 9.20948E-01-1.44936E-13 1.66325E-13
 -1       544 2.30533E+01-5.59864E-01-6.89733E-04 1.54771E+00-5.22783E-14 1.20460E-13
 -1       545 2.27964E+01 1.34670E-01-2.99938E-04 1.82054E+00 3.88112E-14 2.43937E-13
 -1       546 2.23737E+01 1.00237E+00-2.76923E-03 1.44287E+00 4.51696E-14 2.51496E-13
 -1       547 2.20761E+01 1.56769E+00-2.81901E-03 4.18562E-01 1.18518E-13 6.94273E-14
 -1       548 2.21444E+01 1.44491E+00-2.24906E-03-8.16695E-01 1.25734E-13-1.33200E-13
 -1       549 2.25214E+01 7.25174E-01-4.40679E-04-1.65673E+00 1.80941E-13-2.76375E-13
 -1       550 2.29174E+01-1.26976E-01 2.62566E-04-1.80087E+00 1.25602E-13-4.03580E-13
 -1       551 2.30903E+01-7.00872E-01-1.71367E-03-1.37753E+00-3.43391E-14-4.40897E-13
 -1       552 2.29944E+01-8.79813E-01-3.34482E-03-7.11367E-01-4.21087E-14-4.34117E-13
 -1       553 2.27158E+01-7.73963E-01-3.73185E-03-7.35271E-02 1.29583E-13-3.55867E-13
 -1       554 2.23591E+01-5.44252E-01-3.11405E-03 4.03361E-01 1.71257E-14-3.41275E-13
 -1       555 2.19950E+01-3.06941E-01-2.08769E-03 6.93646E-01-1.20158E-13-2.29332E-13
 -1       556 2.16575E+01-1.17451E-01-1.10399E-03 8.25818E-01-1.79269E-13-7.34034E-14
 -1       557 2.13583E+01 1.11433E-02-3.31923E-04 8.44661E-01-2.00698E-14 7.68711E-14
 -1       558 2.10989E+01 8.63850E-02 1.80002E-04 7.92406E-01 1.83244E-13 3.52664E-13
 -1       559 2.08772E+01 1.22249E-01 4.66922E-04 7.02026E-01 1.43481E-13 2.53568E-13
 -1       560 2.06902E+01 1.32202E-01 5.90124E-04 5.96519E-01 3.54689E-14 2.46141E-13
 -1       561 2.05346E+01 1.26795E-01 6.07797E-04 4.90505E-01-1.31892E-14 3.79753E-13
 -1       562 2.04071E+01 1.13417E-01 5.65376E-04 3.92371E-01-2.68141E-13 1.59999E-13
 -1       563 2.03043E+01 9.68603E-02 4.94448E-04 3.06215E-01-5.34465E-14 1.33349E-13
 -1       564 2.02227E+01 8.00231E-02 4.14800E-04 2.33359E-01 2.56848E-14-1.20917E-13
 -1       565 2.01591E+01 6.45288E-02 3.37709E-04 1.73462E-01 1.52448E-13-1.18460E-14
 -1       566 2.01104E+01 5.12148E-02 2.67309E-04 1.25259E-01 2.11679E-13 9.28264E-14
 -1       567 2.00737E+01 4.03564E-02 2.18004E-04 8.70598E-02 2.86759E-15 2.30222E-13
 -1       568 2.00465E+01 3.18530E-02 2.03482E-04 5.71619E-02-1.42894E-13 5.90898E-13
 -1       569 2.00265E+01 2.48223E-02 1.59392E-04 3.39076E-02-3.05950E-13 5.62654E-13
 -1       570 1.99909E+01 9.83707E-02-3.34090E-05 5.20096E-02-1.69434E-13-1.39574E-13
 -1       571 1.99794E+01 1.16855E-01-3.82789E-05 4.02309E-02 4.13122E-14-4.27805E-13
 -1       572 2.00165E+01 5.22012E-02 3.87088E-06 4.98562E-02-2.11889E-13 7.69636E-14
 -1       573 2.00041E+01 7.60170E-02-9.14940E-06 5.53719E-02-5.30722E-13 1.71413E-13
 -1       574 1.99716E+01 1.29008E-01-5.10341E-05 2.18668E-02 1.34353E-13-6.52527E-13
 -1       575 1.99689E+01 1.33359E-01-5.56424E-05-1.12036E-04-1.12148E-14-4.52985E-13
 -1       576 1.99716E+01 1.29356E-01-4.97240E-05-2.21298E-02-7.88561E-14-4.42490E-13
 -1       577 1.99793E+01 1.17722E-01-3.45900E-05-4.03143E-02 8.66565E-14-3.96741E-13
 -1       578 1.99909E+01 9.93845E-02-2.40128E-05-5.22393E-02 1.11079E-13 1.67771E-13
 -1       579 2.00043E+01 7.67741E-02-1.97273E-05-5.55501E-02 1.91618E-13 2.99052E-13
 -1       580 2.00168E+01 5.27554E-02 4.88365E-05-4.98444E-02-2.15541E-14-2.86360E-13
 -1       581 5.00446E+00-1.47506E+00 1.69627E-01 2.23554E+00 2.19720E-14 1.42827E-12
 -1       582 1.80102E+01-5.14947E+00 9.17604E-02 6.60545E+00-5.95905E-13-1.68724E-13
 -1       583 1.99792E+01 2.75411E-01 2.58505E-03 8.17480E-02 2.34286E-13 4.51256E-14
 -1       584 4.71315E+00-1.78394E+00 1.64698E-01-2.20222E+00 4.26395E-14 1.26996E-12
 -1       585 2.41733E+01-5.25896E+00 9.54981E-03 4.44779E+00-5.61079E-14-4.47510E-13
 -1       586 2.04027E+01 1.76654E+00-5.23822E-03-1.48260E+00-3.98709E-13-2.80183E-13
 -1       587 8.94407E+00-3.01703E+00 1.43682E-01-5.61569E+00 1.65569E-13 6.24945E-13
 -1       588 2.98202E+01-2.55397E-01-1.21059E-01 1.55641E+00-6.51076E-14-1.10197E-13
 -1       589 2.97521E+01-2.17111E+00-9.11138E-02 3.68966E-02-3.44860E-13 3.32831E-13
 -1       590 1.96785E+01 3.26178E+00-5.03189E-03-2.97988E-01 2.26316E-14-5.15795E-13
 -1       591 2.97968E+01 7.19715E+00-1.71276E-01 5.12367E-01 8.98615E-13 2.19390E-14
 -1       592 3.09497E+01 6.88213E+00-1.73552E-01 6.85982E-01-7.89063E-13 1.57072E-13
 -1       593 2.99851E+01 5.93725E+00-1.72863E-01-1.48158E+00 8.00859E-13-3.52607E-13
 -1       594 3.05806E+01 4.96772E+00-1.51714E-01 1.59483E+00 6.22336E-13 3.24407E-13
 -1       595 2.98815E+01 2.45961E-01-1.07360E-01 1.00452E+00 8.47863E-14 2.78423E-13
 -1       596 2.72238E+01-4.17803E+00-4.32299E-02-2.00262E+00-1.84816E-13 2.34875E-13
 -1       597 2.20348E+01-5.48493E+00 2.60664E-02-5.54932E+00-1.99514E-13-1.04618E-13
 -1       598 1.58992E+01-4.88459E+00 9.13752E-02-6.82694E+00-2.33480E-13-3.04163E-13
 -1       599 8.32819E+00-2.38690E+00 1.66305E-01-5.25389E+00-2.76779E-13-6.59042E-13
 -1       600 4.77670E+00-1.21966E+00 1.76600E-01-8.82639E-01-3.24801E-14-8.60409E-13
 -1       601 7.57429E+00-1.75467E+00 1.82913E-01 4.26525E+00 2.38764E-13-6.39669E-13
 -1       602 1.22521E+01-4.36240E+00 1.08922E-01 6.68561E+00 2.46511E-13-4.49571E-13
 -1       603 1.95301E+01-5.57364E+00 6.34184E-02 6.17216E+00 2.86479E-13-5.47192E-14
 -1       604 2.57817E+01-5.17284E+00-1.75853E-02 3.43066E+00 1.05319E-13 3.08649E-13
 -1       605 2.97297E+01 2.14261E+00-1.49109E-01-2.34490E+00-5.68809E-13 7.33580E-14
 -1       606 1.55236E+01-4.96244E+00 8.60105E-02-6.75565E+00 1.19918E-13-1.57343E-13
 -1       607 3.02470E+01 6.20196E+00-1.67134E-01-1.36283E+00-8.66598E-13 1.68650E-13
 -1       608 3.09803E+01 4.76260E+00-1.37586E-01 1.85464E+00-5.57554E-13-1.11570E-13
 -1       609 2.78114E+01-4.20260E+00-4.91456E-02-1.57898E+00 1.72501E-13 6.54615E-14
 -1       610 2.32401E+01-5.53472E+00 4.60871E-02-4.72817E+00 5.70030E-14-4.68809E-14
 -1       611 2.99096E+01 1.91539E+00-1.31676E-01-1.67350E+00 4.47760E-13-4.74856E-13
 -1       612 2.05878E+01 1.31000E+00-9.57502E-04 1.51551E+00 4.51120E-13 2.21093E-13
 -1       613 9.89222E+00-2.94584E+00 1.43700E-01 6.03723E+00-5.44328E-13 7.43856E-13
 -1       614 1.99949E+01 2.68435E+00-6.49713E-03-1.20182E+00-2.92817E-13-4.58521E-13
 -1       615 2.01818E+01 2.30047E+00-5.73750E-03-1.39333E+00-3.56014E-13-3.79912E-13
 -1       616 1.35236E+01-3.04817E+00 1.13779E-01-6.07393E+00-3.82212E-13-4.46830E-13
 -1       617 2.00272E+01 3.42391E-02 1.07555E-04-4.25847E-02-8.25216E-15 2.40923E-13
 -1       618 1.99466E+01 2.53534E+00-1.56374E-03 3.64358E-01 2.08997E-13-4.35614E-13
 -1       619 1.99091E+01 2.61715E+00-1.49546E-03 1.25178E-01 1.22347E-13-4.53730E-13
 -1       620 2.01273E+01 2.10338E+00-1.60257E-03 7.95670E-01 3.33369E-13-3.18375E-13
 -1       621 2.02550E+01 1.71518E+00-2.24836E-03 9.35214E-01 3.68989E-13-2.03468E-13
 -1       622 2.03421E+01 1.06663E+00 2.89136E-03 7.72324E-01 3.58058E-13-7.60633E-14
 -1       623 2.33462E+01-5.06994E+00 2.84631E-02 3.76916E+00 3.16438E-13 1.51951E-13
 -1       624 2.60053E+01-4.35282E+00-1.85647E-02 1.77726E+00-1.52973E-13-7.91978E-13
 -1       625 2.02712E+01 7.31564E-01-4.54037E-04-3.02799E-01-1.71319E-13-2.40781E-13
 -1       626 2.02094E+01 4.76929E-01 2.40605E-04-1.23400E-02-1.45166E-13-2.09859E-13
 -1       627 2.01567E+01 3.26938E-01 8.77517E-05 1.96470E-01-1.05781E-13-1.79805E-13
 -1       628 2.01223E+01 2.47931E-01 7.35250E-05 3.52406E-01-9.90574E-14-2.11701E-13
 -1       629 2.01058E+01 2.18033E-01 7.37091E-05 4.78687E-01-1.01719E-13-1.71676E-13
 -1       630 2.01045E+01 2.22885E-01 8.69203E-05 5.93516E-01-1.01794E-13-1.53121E-13
 -1       631 2.01150E+01 2.51915E-01 1.09174E-04 7.10497E-01-4.94839E-14-8.82938E-14
 -1       632 2.01348E+01 2.95591E-01 1.37263E-04 8.39295E-01-9.10084E-15-7.63134E-14
 -1       633 2.01626E+01 3.42994E-01 1.66695E-04 9.85882E-01-3.02701E-14-9.71265E-14
 -1       634 2.02000E+01 3.79137E-01 1.88958E-04 1.15237E+00-4.99698E-15-1.14166E-13
 -1       635 2.02542E+01 3.81714E-01 1.87842E-04 1.33635E+00 1.40202E-14-7.99733E-14
 -1       636 2.03422E+01 3.17343E-01 1.35644E-04 1.52952E+00-3.79538E-14-5.39507E-14
 -1       637 2.04989E+01 1.38445E-01-4.15011E-05 1.71483E+00-9.43681E-14-4.19532E-16
 -1       638 2.07862E+01-2.15612E-01-2.93460E-04 1.86060E+00 8.13045E-14 2.22256E-14
 -1       639 2.13017E+01-8.04642E-01-8.30274E-04 1.90590E+00 9.87030E-14 6.38199E-14
 -1       640 2.21730E+01-1.63638E+00 3.76478E-04 1.74281E+00 1.44802E-13 1.50023E-13
 -1       641 2.34950E+01-2.54413E+00 2.53205E-03 1.17285E+00 1.21986E-13 2.06155E-13
 -1       642 2.52365E+01-3.04625E+00-1.29631E-02-2.93874E-02 1.45330E-13 1.71579E-13
 -1       643 2.65947E+01-2.08698E+00-4.61709E-02-1.67702E+00 4.58730E-14 1.90200E-13
 -1       644 2.69992E+01 5.11438E+00-1.45900E-01 1.07766E+00-5.21458E-13-3.23784E-13
 -1       645 2.69471E+01-1.31661E+00-2.86289E-02 1.98965E+00 2.53228E-13-6.76565E-13
 -1       646 2.56285E+01-2.96886E+00-1.42864E-02 3.93054E-01 2.46775E-13-5.67366E-13
 -1       647 2.39159E+01-2.73435E+00 8.88064E-04-9.17479E-01 1.95047E-13-4.00056E-13
 -1       648 2.24783E+01-1.85985E+00 1.39811E-03-1.61589E+00 2.53667E-13-1.09107E-13
 -1       649 2.14968E+01-9.71843E-01-1.16700E-04-1.84985E+00 1.81597E-14-3.23287E-14
 -1       650 2.09070E+01-3.12173E-01-2.61399E-04-1.83169E+00 9.29948E-14 2.05175E-13
 -1       651 2.05753E+01 1.03590E-01-6.00843E-05-1.68971E+00-9.97643E-14-2.78896E-14
 -1       652 2.03955E+01 3.27990E-01 1.25178E-04-1.49349E+00 7.79800E-15-2.06781E-13
 -1       653 2.02970E+01 4.22847E-01 2.08337E-04-1.28070E+00-1.63540E-13-3.51252E-13
 -1       654 2.02388E+01 4.38718E-01 2.22051E-04-1.07208E+00-1.22064E-13-2.83205E-13
 -1       655 2.01991E+01 4.11138E-01 2.06145E-04-8.79037E-01-7.99260E-14-3.69011E-13
 -1       656 2.01678E+01 3.62989E-01 1.78833E-04-7.07357E-01-1.19810E-13-4.50132E-14
 -1       657 2.01406E+01 3.08043E-01 1.48887E-04-5.59246E-01 9.23261E-14 2.45135E-13
 -1       658 2.01162E+01 2.54045E-01 1.20234E-04-4.34588E-01 1.12789E-13 1.01495E-13
 -1       659 2.00943E+01 2.04973E-01 9.45222E-05-3.31843E-01 1.25306E-13 7.11573E-14
 -1       660 2.00749E+01 1.62560E-01 7.19797E-05-2.48690E-01 9.75335E-14 2.18820E-13
 -1       661 2.00581E+01 1.27257E-01 5.37253E-05-1.82475E-01-5.20577E-14 6.19657E-14
 -1       662 2.00437E+01 9.87655E-02 5.96286E-05-1.30461E-01 3.45620E-14 3.87145E-14
 -1       663 2.00313E+01 7.62303E-02 3.61057E-05-9.02280E-02 3.96329E-13-1.20712E-13
 -1       664 2.00709E+01 1.96451E-01 1.54944E-04-3.25651E-01 1.39311E-13-9.13520E-14
 -1       665 2.00238E+01 6.35337E-02 1.44339E-05-6.83439E-02 3.35676E-13-3.44136E-13
 -1       666 2.00980E+01 2.73282E-01 2.42337E-04-1.74048E-01 1.62675E-13-6.95855E-14
 -1       667 2.00994E+01 1.53115E-01 1.27703E-04-5.43132E-01 1.05315E-13 2.49506E-14
 -1       668 2.01476E+01 1.61440E-01 1.38299E-04-6.39812E-01 1.56447E-13 7.24012E-15
 -1       669 2.02161E+01 1.76340E-01 1.50844E-04-7.40173E-01 1.59719E-13-5.23331E-14
 -1       670 2.03057E+01 1.86964E-01 1.54170E-04-8.46896E-01 1.76128E-13-1.77279E-14
 -1       671 2.04203E+01 1.79766E-01 1.32809E-04-9.57289E-01 1.42687E-13 5.58725E-14
 -1       672 2.05678E+01 1.37160E-01 6.62227E-05-1.06215E+00-9.61090E-15 3.99673E-14
 -1       673 2.07620E+01 3.70750E-02-7.43452E-05-1.14397E+00-4.51980E-14 5.78908E-14
 -1       674 2.10235E+01-1.45016E-01-3.32018E-04-1.17459E+00 9.72563E-15-3.57555E-15
 -1       675 2.13792E+01-4.28513E-01-7.18488E-04-1.11261E+00-1.15502E-13 7.99191E-14
 -1       676 2.18548E+01-8.09719E-01-1.04336E-03-9.02543E-01-1.39807E-13 1.67837E-13
 -1       677 2.24547E+01-1.22848E+00-1.08915E-03-4.81895E-01-4.64670E-14 2.15358E-13
 -1       678 2.31236E+01-1.52479E+00-1.50704E-03 1.88661E-01-1.76850E-13 1.46866E-13
 -1       679 2.37121E+01-1.42893E+00-3.76356E-03 1.05619E+00-1.08928E-13 2.41755E-13
 -1       680 2.39911E+01-6.38681E-01-4.50496E-03 1.84866E+00 3.69474E-15 1.45848E-13
 -1       681 2.38058E+01 8.42495E-01-1.10452E-02 2.07006E+00 1.12334E-13 3.64049E-14
 -1       682 2.33670E+01 2.36359E+00-2.84445E-02 1.28702E+00 2.03038E-13 5.09523E-14
 -1       683 2.32340E+01 2.85288E+00-2.54822E-02-2.79541E-01 3.13579E-13-3.89686E-14
 -1       684 2.35240E+01 1.93316E+00-2.10951E-02-1.66469E+00 2.57024E-13-2.19528E-13
 -1       685 2.39182E+01 3.13350E-01-9.88734E-03-2.10158E+00 2.82020E-13-3.01849E-13
 -1       686 2.39496E+01-9.74229E-01-4.24942E-03-1.63601E+00 1.97267E-13-4.28827E-13
 -1       687 2.35486E+01-1.51326E+00-2.73917E-03-7.74743E-01-7.49327E-14-6.14110E-13
 -1       688 2.29131E+01-1.44092E+00-2.11056E-03 3.47241E-02-8.19232E-14-5.01195E-13
 -1       689 2.22597E+01-1.07278E+00-1.52556E-03 6.11866E-01-8.89217E-14-2.84616E-13
 -1       690 2.17050E+01-6.49371E-01-9.41504E-04 9.43591E-01-1.39865E-13-1.65780E-13
 -1       691 2.12784E+01-2.92620E-01-5.32187E-04 1.08310E+00-2.37888E-13-1.22899E-13
 -1       692 2.09649E+01-3.88114E-02-2.04963E-04 1.09212E+00-2.04857E-13-1.91979E-14
 -1       693 2.07369E+01 1.18626E-01 1.07320E-05 1.02159E+00-2.79304E-14-1.87864E-13
 -1       694 2.05690E+01 2.01549E-01 1.31647E-04 9.08628E-01 1.04440E-13-3.38613E-14
 -1       695 2.04424E+01 2.33150E-01 1.87558E-04 7.78465E-01-4.30991E-14 2.72430E-13
 -1       696 2.03446E+01 2.32623E-01 2.02156E-04 6.47281E-01-5.67984E-14 3.54916E-13
 -1       697 2.02676E+01 2.14033E-01 1.92886E-04 5.24681E-01-9.75998E-14 5.46226E-13
 -1       698 2.02063E+01 1.86903E-01 1.71604E-04 4.15690E-01-9.66675E-14 2.39271E-13
 -1       699 2.01573E+01 1.57278E-01 1.46313E-04 3.22273E-01 2.41702E-13 1.06561E-13
 -1       700 2.01182E+01 1.28747E-01 1.20390E-04 2.44434E-01 1.58340E-13 1.37992E-14
 -1       701 2.00872E+01 1.03211E-01 9.05652E-05 1.81079E-01 9.29402E-14 3.25059E-14
 -1       702 2.00626E+01 8.16952E-02 7.88862E-05 1.30465E-01-1.23143E-13 3.45642E-13
 -1       703 2.00433E+01 6.42769E-02 1.00021E-04 9.07835E-02-1.80300E-13 5.13146E-13
 -1       704 2.00282E+01 5.81910E-02 6.00971E-05 6.86415E-02-3.51340E-13 3.26567E-13
 -1       705 2.21905E+01-5.01205E+00 4.50225E-02 4.61619E+00-5.21649E-13-4.05235E-13
 -1       706 1.99467E+01 1.64350E-01-2.00627E-05 1.54205E-02 2.13933E-13-5.79007E-13
 -1       707 2.75151E+01-2.80155E+00-6.27825E-02 9.38545E-01 2.35557E-13-5.24220E-13
 -1       708 1.99722E+01 1.34785E-01-7.81128E-06 6.51331E-02-1.35735E-13-2.31833E-13
 -1       709 1.99466E+01 1.64750E-01-1.77137E-05-1.51663E-02 6.79918E-14-6.90260E-13
 -1       710 1.99557E+01 1.53973E-01-2.08972E-05 4.36163E-02 4.00665E-14-3.19323E-13
 -1       711 1.99553E+01 1.55349E-01-1.41175E-05-4.31139E-02 9.19847E-14-8.48024E-15
 -1       712 1.99717E+01 1.36751E-01-1.81126E-05-6.51307E-02 2.90886E-13-7.87897E-14
 -1       713 1.99934E+01 1.11019E-01-3.11568E-05-7.71721E-02 2.71761E-13 5.47350E-13
 -1       714 2.02087E+01-4.59176E+00 4.95405E-02-5.11455E+00 4.05370E-13-2.49897E-13
 -1       715 9.90517E+00-6.18542E-01 1.45523E-01 3.72074E+00-3.49798E-13 6.92675E-13
 -1       716 2.03089E+01 1.45820E+00 1.80264E-04-9.37292E-01-3.10022E-13-3.20276E-13
 -1       717 2.73710E+01 5.68786E+00-1.72179E-01-2.09307E-01-7.07032E-13-1.28162E-13
 -1       718 2.41409E+01-4.95164E+00 6.11727E-03-3.44095E+00-3.36540E-13 1.92317E-13
 -1       719 8.84483E+00-1.00870E+00 1.47790E-01-3.66235E+00 9.14130E-14 7.44342E-13
 -1       720 2.01558E+01 4.15552E-01 6.29677E-04 3.71895E-02 2.21913E-13-5.82412E-14
 -1       721 2.00728E+01 1.61189E-01 1.28259E-04-4.42586E-01 7.45011E-14-1.04641E-13
 -1       722 2.03013E+01 1.03637E+00 5.14920E-04-5.86993E-01-2.34918E-13-2.87856E-13
 -1       723 1.73119E+01-3.92982E+00 8.68365E-02 5.74697E+00 3.43850E-13 1.30451E-14
 -1       724 7.07481E+00-1.72878E-01 1.57228E-01-1.91286E-01-7.96293E-14 1.52516E-12
 -1       725 2.02404E+01 6.59794E-01 1.20979E-03 3.39247E-01 2.85424E-13-1.04541E-13
 -1       726 2.00201E+01 2.36836E+00-1.62942E-03 5.92791E-01 2.70847E-13-3.62011E-13
 -1       727 2.00151E+01 2.37943E+00-1.63936E-03-5.84046E-01-9.17787E-14-4.05250E-13
 -1       728 1.42122E+01-3.05120E+00 1.19301E-01-5.86213E+00 2.90989E-13-6.32515E-14
 -1       729 2.80014E+01 2.09415E+00-1.11571E-01 2.24477E+00 2.29095E-13 5.22828E-13
 -1       730 2.74378E+01-2.13908E+00-6.59932E-02 7.35627E-01-1.21561E-13 3.80342E-13
 -1       731 2.01962E+01-4.73245E+00 7.75416E-02-5.42111E+00-3.32213E-13 5.69978E-14
 -1       732 8.57224E+00 1.27395E-01 1.33947E-01 1.34429E+00 1.30632E-13-4.94035E-13
 -1       733 1.28408E+01-1.70135E+00 1.27299E-01 4.95966E+00 2.68671E-13-4.66197E-13
 -1       734 2.75023E+01-1.15342E+00-7.33853E-02-1.56680E+00 9.61262E-14-3.38583E-13
 -1       735 2.81910E+01 1.96832E+00-1.18947E-01 2.66256E+00-1.25549E-13-5.30763E-13
 -1       736 8.83471E+00-1.96021E-01 1.52523E-01-2.41458E+00-1.74496E-13-5.57658E-13
 -1       737 2.71866E+01-3.78216E+00-1.02023E-02 4.71348E-01 3.57674E-14 1.57001E-13
 -1       738 2.74886E+01 3.30324E+00-1.19785E-01-2.26564E+00 5.10071E-13-3.63303E-13
 -1       739 2.61487E+01-4.51300E+00 1.69496E-03-1.57989E+00 2.87465E-13-6.73558E-14
 -1       740 2.73110E+01 4.94992E+00-1.47206E-01 1.69871E+00 4.66904E-13 2.71550E-13
 -1       741 1.57208E+01-3.30239E+00 9.25665E-02 5.95753E+00-6.06733E-13 1.55119E-14
 -1       742 2.66603E+01 5.74958E+00-1.50399E-01-6.95069E-01 7.14567E-13-1.47165E-13
 -1       743 2.01233E+01 2.11873E+00-1.10526E-03-7.89848E-01-1.94408E-13-3.60773E-13
 -1       744 1.99083E+01 2.61895E+00-1.50066E-03-1.16495E-01 4.18613E-14-4.67496E-13
 -1       745 2.00088E+01 8.72513E-02-8.68072E-06 7.59682E-02-2.92789E-13-4.58093E-14
 -1       746 2.60732E+01-3.81633E+00-1.49365E-02-7.00612E-01-1.40887E-13 2.28142E-13
 -1       747 1.17973E+01-8.18341E-01 8.87563E-02-4.08446E+00-2.01613E-13-5.07067E-13
 -1       748 1.99435E+01 2.54175E+00-1.57236E-03-3.55081E-01-2.88875E-14-4.26087E-13
 -1       749 1.99903E+01 1.12185E-01-1.94257E-05 7.46128E-02-1.51614E-13 1.88429E-13
 -1       750 2.00107E+01 9.54372E-02-1.25996E-05-8.65565E-02 6.84073E-14 7.45004E-14
 -1       751 2.58719E+01-2.93340E+00-1.44666E-02-2.48019E-01-9.37765E-14-2.65372E-13
 -1       752 2.02759E+01 1.37172E+00-3.46317E-04 5.54216E-01 2.78099E-13-2.36616E-13
 -1       753 2.02189E+01 1.82594E+00 6.02739E-06-8.95483E-01-2.69339E-13-3.76639E-13
 -1       754 1.77519E+01-2.70769E+00 4.30939E-02-4.71869E+00 4.26216E-13-5.23796E-13
 -1       755 2.02660E+01 5.72995E-01 7.31998E-05 5.90177E-02-8.28026E-14-2.27951E-13
 -1       756 2.02180E+01 4.18208E-01 9.01041E-06 2.41238E-01-1.02003E-13-1.95642E-13
 -1       757 2.01641E+01 3.40448E-01 9.47064E-06 3.85941E-01-1.04160E-13-2.06916E-13
 -1       758 2.01075E+01 3.18782E-01 1.39259E-05 5.10086E-01-6.51504E-14-1.69371E-13
 -1       759 2.00479E+01 3.37836E-01 2.10589E-05 6.27972E-01-2.34946E-14-1.19383E-13
 -1       760 1.99829E+01 3.84881E-01 3.02720E-05 7.50951E-01-2.79645E-14-6.78726E-14
 -1       761 1.99098E+01 4.47268E-01 4.33341E-05 8.87613E-01-1.92824E-14-9.55411E-14
 -1       762 1.98270E+01 5.09857E-01 6.06325E-05 1.04423E+00-1.68280E-14-6.14905E-14
 -1       763 1.97362E+01 5.51962E-01 8.14262E-05 1.22545E+00 3.55455E-14-1.26312E-13
 -1       764 1.96464E+01 5.43518E-01 9.83388E-05 1.43517E+00-4.55601E-14-1.51701E-13
 -1       765 1.95804E+01 4.40529E-01 1.03394E-04 1.67739E+00-2.07716E-14-1.34890E-13
 -1       766 1.95862E+01 1.80449E-01 6.32158E-05 1.95526E+00 1.17007E-14-4.07247E-14
 -1       767 1.97496E+01-3.16735E-01 1.61876E-05 2.26727E+00 9.25833E-14 5.80710E-15
 -1       768 2.02445E+01-1.15150E+00-1.47259E-03 2.56272E+00 8.62670E-14-5.43119E-14
 -1       769 2.12873E+01-2.35362E+00 3.85003E-03 2.74334E+00 1.66579E-13-1.02886E-13
 -1       770 2.31824E+01-3.68197E+00 9.22132E-03 2.50972E+00 2.01797E-13-2.09479E-14
 -1       771 2.39012E+01-4.02741E+00 2.22674E-02-2.32342E+00 4.21576E-13-8.98815E-14
 -1       772 2.16723E+01-2.68213E+00 3.84871E-03-2.72748E+00 4.18673E-13 2.14313E-13
 -1       773 2.04391E+01-1.38890E+00 4.67700E-03-2.59932E+00 7.38428E-14 2.05434E-13
 -1       774 1.98339E+01-4.58697E-01 7.91530E-04-2.29996E+00 1.44598E-13 7.57108E-14
 -1       775 1.96005E+01 1.24576E-01 1.06855E-04-1.97265E+00-8.04803E-14-7.41632E-14
 -1       776 1.95590E+01 4.46577E-01 8.17541E-05-1.67005E+00-1.34457E-13 8.65634E-14
 -1       777 1.96061E+01 5.91418E-01 1.19836E-04-1.40134E+00-1.08768E-13-2.16822E-13
 -1       778 1.96838E+01 6.26200E-01 1.02332E-04-1.16466E+00-5.10684E-14-6.55827E-14
 -1       779 1.97638E+01 5.97740E-01 7.86438E-05-9.56938E-01-5.45273E-14 1.21431E-13
 -1       780 1.98335E+01 5.36884E-01 5.94420E-05-7.76106E-01 4.11936E-14 1.71165E-13
 -1       781 1.98892E+01 4.62989E-01 4.50839E-05-6.20615E-01 1.55765E-13 2.35004E-13
 -1       782 1.99310E+01 3.87568E-01 3.46272E-05-4.88902E-01 2.03440E-13 2.53604E-13
 -1       783 1.99609E+01 3.17014E-01 2.56354E-05-3.79112E-01 8.65928E-14 2.93644E-13
 -1       784 1.99814E+01 2.54476E-01 1.59322E-05-2.89080E-01 8.65083E-14 2.21136E-13
 -1       785 1.99945E+01 2.01160E-01 7.13152E-06-2.16409E-01 1.78092E-13 6.06326E-15
 -1       786 2.00025E+01 1.57026E-01 1.31216E-05-1.58858E-01-3.36213E-14 1.80879E-13
 -1       787 2.00091E+01 1.22574E-01 1.40143E-05-1.18832E-01-2.77825E-14 1.67277E-13
 -1       788 2.01982E+01 3.67355E-01 2.35316E-05-2.23470E-01 1.61971E-13-1.52051E-13
 -1       789 2.00883E+01 2.61851E-01 4.37691E-05-7.14388E-01 1.12012E-13-6.02414E-14
 -1       790 2.01022E+01 2.45583E-01 3.61361E-05-6.03566E-01 1.07548E-13-1.56120E-13
 -1       791 2.00952E+01 2.92442E-01 6.04627E-05-9.60181E-01 7.53367E-14 4.49609E-14
 -1       792 2.01286E+01 2.70290E-01 6.43089E-05-1.09691E+00 4.89142E-14 1.16982E-13
 -1       793 2.02011E+01 1.90256E-01 5.71870E-05-1.23595E+00-1.77997E-14 1.20947E-13
 -1       794 2.03400E+01 1.99684E-02 1.37626E-05-1.36370E+00-2.10812E-14 4.22740E-14
 -1       795 2.05876E+01-2.76136E-01-1.53525E-04-1.45538E+00-9.58699E-14 1.24686E-13
 -1       796 2.10023E+01-7.25766E-01-3.73677E-04-1.46793E+00-1.30927E-13 8.46271E-14
 -1       797 2.16494E+01-1.32012E+00 1.75040E-05-1.32665E+00-1.61745E-13 1.44113E-13
 -1       798 2.25694E+01-1.96318E+00-8.78876E-04-9.21401E-01-1.67822E-13 1.21867E-13
 -1       799 2.37169E+01-2.35150E+00 1.14479E-03-1.32389E-01-1.20442E-13 8.58606E-14
 -1       800 2.48276E+01-1.98563E+00-6.25274E-03 1.04498E+00 3.25712E-14 1.08890E-13
 -1       801 2.53694E+01-3.69689E-01-4.54232E-02 2.12758E+00 1.03275E-13 9.36638E-14
 -1       802 2.46728E+01 4.22777E+00-7.91111E-02 6.84072E-01 3.76862E-13-3.44441E-14
 -1       803 2.46311E+01 3.68975E+00-7.64542E-02-1.32620E+00 4.72740E-13-3.40151E-13
 -1       804 2.51699E+01 1.39410E+00-5.43246E-02-2.32867E+00 3.14254E-13-5.90021E-13
 -1       805 2.51600E+01-9.92341E-01-1.83659E-02-1.84113E+00 1.35064E-13-4.37940E-13
 -1       806 2.44063E+01-2.16956E+00-8.55283E-03-6.79486E-01 3.04252E-14-1.26232E-13
 -1       807 2.33217E+01-2.20374E+00-1.97114E-03 3.50648E-01-9.59743E-14-2.43178E-13
 -1       808 2.22763E+01-1.69761E+00-1.32890E-03 9.96356E-01-2.51354E-13-3.33998E-14
 -1       809 2.14630E+01-1.06537E+00-4.13939E-04 1.30365E+00-3.07015E-13 2.82045E-13
 -1       810 2.09027E+01-5.19203E-01-2.88891E-04 1.38583E+00-2.54281E-13 2.37958E-13
 -1       811 2.05462E+01-1.21586E-01-1.13007E-04 1.33752E+00-1.72572E-13 5.69479E-14
 -1       812 2.03319E+01 1.33024E-01 1.24051E-05 1.22065E+00 2.51495E-15-1.33246E-13
 -1       813 2.02081E+01 2.74863E-01 6.69107E-05 1.07254E+00 9.06883E-15-2.34734E-13
 -1       814 2.01383E+01 3.36977E-01 8.56690E-05 9.15466E-01-1.67869E-13-1.22451E-13
 -1       815 2.00991E+01 3.47394E-01 8.70072E-05 7.62733E-01-1.92158E-13 2.21290E-13
 -1       816 2.00763E+01 3.27215E-01 8.03816E-05 6.21997E-01-1.48671E-13 1.96964E-13
 -1       817 2.00621E+01 2.91170E-01 7.03104E-05 4.97227E-01 1.05458E-13 3.61928E-14
 -1       818 2.00520E+01 2.48946E-01 5.97101E-05 3.89914E-01 1.52094E-13-1.92681E-13
 -1       819 2.00440E+01 2.06561E-01 5.23368E-05 2.99926E-01 9.67618E-14 2.82758E-14
 -1       820 2.00369E+01 1.67494E-01 3.85193E-05 2.25995E-01 4.75721E-14 2.83658E-13
 -1       821 2.00305E+01 1.33443E-01 3.10702E-05 1.66705E-01-1.81613E-13 3.25400E-13
 -1       822 2.00241E+01 1.05180E-01 3.66823E-05 1.19733E-01-6.01511E-14 1.60367E-13
 -1       823 2.00149E+01 9.60736E-02-6.72802E-05 9.60118E-02-9.27833E-14 2.85557E-14
 -1       824 1.99207E+01 2.01567E-01-4.19188E-06-3.90308E-02-1.33240E-14-2.27935E-13
 -1       825 2.65658E+01-2.75285E-01-4.79221E-02 2.06755E+00 6.51432E-14 3.27014E-13
 -1       826 1.99141E+01 2.07066E-01-7.95727E-06 9.83504E-04-2.56570E-14-7.00944E-13
 -1       827 1.10685E+01 7.11023E-01 7.30852E-02-6.52547E-01-5.92941E-14-3.31329E-13
 -1       828 2.01022E+01 2.01161E+00-3.33960E-04 1.71643E-01 1.15685E-13-3.84433E-13
 -1       829 1.44924E+01-1.20064E+00 5.04186E-02 4.33822E+00-4.76020E-13 3.00610E-14
 -1       830 2.02445E+01 5.23340E-01-5.57548E-05-3.04656E-02 1.90857E-13-1.50480E-13
 -1       831 1.74997E+01-3.09437E+00 5.91839E-02-5.22146E+00-3.68941E-13-1.68783E-13
 -1       832 1.99398E+01 1.83991E-01-1.27484E-05-7.37973E-02-8.35346E-14-1.34124E-14
 -1       833 1.99692E+01 1.55793E-01-1.45729E-05-9.79129E-02 1.85733E-13 3.25151E-13
 -1       834 2.00846E+01 2.82855E-01 5.27294E-05-8.32250E-01 1.26631E-13 8.21370E-15
 -1       835 2.02996E+01 1.00058E+00 2.44487E-04 4.72271E-01 2.91359E-13-1.37950E-13
 -1       836 2.06838E+01-3.60337E+00 2.35734E-02 3.99890E+00 2.48296E-13 1.53159E-14
 -1       837 2.02994E+01 8.28278E-01 1.17723E-05-1.78094E-01-1.33849E-13-2.57503E-13
 -1       838 1.00324E+01 2.71835E-01 1.00203E-01-1.77634E+00 1.02777E-13 9.68683E-13
 -1       839 2.37523E+01-4.18726E+00 6.94615E-03 2.47535E+00-3.44308E-13-4.03967E-13
 -1       840 2.25321E+01-4.28642E+00 2.91331E-02-3.50069E+00-2.16424E-13 1.13290E-13
 -1       841 1.72096E+01-2.18021E+00 4.88868E-02 4.47982E+00 2.47395E-13-5.88401E-14
 -1       842 1.03875E+01 4.52453E-01 7.69024E-02 1.57178E+00-3.53084E-13 1.02907E-12
 -1       843 1.33649E+01-9.29846E-01 8.39411E-02-4.13564E+00 3.00917E-13-1.71425E-14
 -1       844 1.96915E+01-3.49497E+00 3.93674E-02 4.54840E+00-5.21864E-13-3.20128E-13
 -1       845 2.57561E+01 2.66709E+00-7.52568E-02 2.21666E+00 1.37522E-13 1.76174E-13
 -1       846 1.21862E+01 1.53886E-02 6.92511E-02 2.84259E+00 1.11914E-13-4.47285E-13
 -1       847 2.00861E+01 2.05489E+00-3.12491E-04 2.75488E-03 8.01201E-14-3.87234E-13
 -1       848 2.02113E+01 1.67318E+00-2.04566E-04 4.66990E-01 2.59903E-13-3.02954E-13
 -1       849 2.02866E+01 1.34295E+00-4.91245E-05-5.94626E-01-1.88423E-13-3.06358E-13
 -1       850 2.02056E+01 1.69118E+00-3.31756E-04-4.64035E-01-1.08181E-13-3.01126E-13
 -1       851 2.01573E+01 2.83086E-01 2.33762E-05-3.71064E-01 1.26994E-13-1.62734E-13
 -1       852 2.01252E+01 2.48017E-01 3.02031E-05-4.92769E-01 3.21979E-14-1.80906E-13
 -1       853 1.99409E+01 1.81022E-01-8.57188E-06 7.44942E-02-1.00186E-13-3.01833E-13
 -1       854 1.99212E+01 1.99937E-01-6.40682E-06 4.05987E-02-1.14693E-13-3.88128E-13
 -1       855 1.26074E+01 4.01548E-01 4.26676E-02-2.16270E+00-1.30898E-13-4.56122E-13
 -1       856 1.37051E+01 3.99114E-02 4.29633E-02 2.96469E+00-5.01931E-13 2.66618E-13
 -1       857 2.01409E+01 1.89429E+00-1.13110E-03-3.23853E-01-5.65999E-14-3.62242E-13
 -1       858 1.99655E+01 1.56003E-01 4.51930E-05 9.32527E-02-3.00188E-13 1.19260E-13
 -1       859 2.01465E+01 1.88531E+00-3.50532E-04 3.30945E-01 2.00556E-13-3.36824E-13
 -1       860 2.02730E+01 7.19089E-01 2.26451E-04 1.87932E-01 2.15264E-13-1.51072E-13
 -1       861 1.99880E+01 1.40978E-01 1.88830E-04-1.10490E-01 4.67990E-14 1.49484E-13
 -1       862 1.55820E+01-6.16888E-01 1.71780E-02 3.47133E+00 2.24901E-13-2.32658E-13
 -1       863 2.01842E+01-2.93910E+00 2.01508E-02-3.74843E+00-1.99940E-13-1.44089E-14
 -1       864 1.99914E+01 1.26141E-01-4.85547E-06 9.94097E-02-1.26592E-13 2.07069E-13
 -1       865 2.40431E+01-3.47103E+00-1.13997E-02-1.30550E+00-1.95903E-13 6.81304E-14
 -1       866 2.02167E+01 4.92136E-01-6.32078E-06 2.61911E-01-7.48148E-14-2.16529E-13
 -1       867 2.01342E+01 4.27612E-01-3.30108E-06 3.84331E-01-5.64530E-14-1.31593E-13
 -1       868 2.00325E+01 4.22229E-01-2.95347E-06 4.94092E-01-4.97348E-14-1.03839E-13
 -1       869 1.99111E+01 4.60296E-01-2.97811E-06 6.01924E-01-3.20766E-14-1.63574E-13
 -1       870 1.97675E+01 5.27506E-01-6.93104E-07 7.16797E-01-3.13331E-15-1.77989E-13
 -1       871 1.95977E+01 6.08893E-01 3.38165E-06 8.46263E-01 1.84882E-14-1.78475E-13
 -1       872 1.93979E+01 6.86552E-01 9.20924E-06 9.97585E-01 2.46483E-15-1.47743E-13
 -1       873 1.91662E+01 7.36712E-01 1.37223E-05 1.17971E+00 2.91340E-14-1.24789E-13
 -1       874 1.89062E+01 7.26021E-01 5.41330E-06 1.40629E+00-2.09410E-14-1.37563E-13
 -1       875 1.86331E+01 6.06812E-01 6.41311E-05 1.69997E+00 5.74184E-14-6.46767E-14
 -1       876 1.83828E+01 3.08622E-01-7.57180E-04 2.09994E+00 4.81113E-14-5.89497E-14
 -1       877 1.82805E+01-2.62630E-01 3.31475E-03 2.66144E+00 4.41320E-14-9.02009E-14
 -1       878 1.98927E+01 2.42099E-01-1.51393E-05-7.42468E-02 4.61173E-14-2.67877E-13
 -1       879 1.86063E+01-1.59064E+00 1.73015E-02-3.55645E+00 1.93056E-13-3.30668E-13
 -1       880 1.82524E+01-4.43564E-01-1.69873E-04-2.78119E+00 3.10190E-16-4.87445E-13
 -1       881 1.83073E+01 2.42676E-01-9.78234E-04-2.17533E+00-4.05767E-14-3.91740E-13
 -1       882 1.85273E+01 6.14011E-01-2.36931E-04-1.73015E+00 4.60344E-14-2.06758E-13
 -1       883 1.87862E+01 7.81344E-01 2.65743E-05-1.39961E+00-1.74430E-13-1.22744E-13
 -1       884 1.90349E+01 8.23600E-01 4.30256E-05-1.14284E+00 8.76567E-15 3.19432E-14
 -1       885 1.92540E+01 7.91391E-01 3.04993E-05-9.34556E-01-4.25443E-14 2.32488E-13
 -1       886 1.94370E+01 7.18664E-01 1.89791E-05-7.60708E-01 3.40121E-14 1.87061E-13
 -1       887 1.95845E+01 6.27631E-01 1.18703E-05-6.13658E-01 3.86325E-14 2.77299E-13
 -1       888 1.97002E+01 5.32265E-01 8.10598E-06-4.89178E-01 1.68096E-13 2.28741E-13
 -1       889 1.97890E+01 4.40916E-01 8.87027E-06-3.84600E-01 1.51239E-13 5.98607E-14
 -1       890 1.98557E+01 3.58201E-01 2.36857E-06-2.97784E-01 3.30105E-13 2.62117E-13
 -1       891 1.99048E+01 2.86079E-01 8.32503E-07-2.26848E-01 2.44596E-14 4.93061E-13
 -1       892 1.99401E+01 2.25088E-01-4.23146E-05-1.69588E-01 1.94266E-13 3.69085E-13
 -1       893 1.31477E+01 4.12792E-01 3.94473E-02-2.29818E+00 2.95754E-13 3.83960E-13
 -1       894 1.97301E+01 3.78227E-01 5.80407E-05-1.18150E+00 5.60108E-14 5.67280E-14
 -1       895 1.97858E+01 4.15149E-01 3.76833E-05-1.01302E+00 5.06494E-14 1.10638E-13
 -1       896 1.97792E+01 2.33373E-02 7.38262E-05-1.58123E+00-1.41050E-13-1.29162E-14
 -1       897 1.99866E+01-3.86040E-01-1.66430E-04-1.79588E+00-1.56686E-13 1.15460E-13
 -1       898 2.04259E+01-1.00871E+00-1.44151E-03-1.98409E+00-2.00143E-13 1.50180E-13
 -1       899 2.12979E+01-1.88614E+00-2.99190E-03-2.04724E+00-1.11790E-13 1.48134E-13
 -1       900 2.21346E+01-2.43459E+00 2.51791E-03 1.78596E+00-2.76710E-13 1.51498E-13
 -1       901 2.10065E+01-1.51657E+00 3.30325E-03 1.94536E+00-4.64122E-13 1.75391E-13
 -1       902 2.03159E+01-7.43560E-01 8.94992E-05 1.84206E+00-2.15492E-13-8.59911E-14
 -1       903 1.99430E+01-1.88470E-01-2.74476E-05 1.64605E+00-9.20282E-14-1.06933E-13
 -1       904 1.97703E+01 1.67634E-01 2.97995E-05 1.42654E+00-2.29236E-14-8.81443E-14
 -1       905 1.97146E+01 3.70270E-01 3.90807E-05 1.21227E+00 5.49923E-14 1.30234E-13
 -1       906 1.97218E+01 4.64210E-01 3.32245E-05 1.01429E+00-7.80042E-14 2.97361E-13
 -1       907 1.97583E+01 4.86462E-01 2.52031E-05 8.36543E-01-1.97770E-13 1.09294E-13
 -1       908 1.98049E+01 4.64908E-01 1.90779E-05 6.80071E-01-1.19683E-13-3.60043E-13
 -1       909 1.98511E+01 4.19326E-01 1.46521E-05 5.44711E-01 1.73058E-14-1.89012E-13
 -1       910 1.98920E+01 3.63090E-01 1.17470E-05 4.29605E-01 2.76088E-13-1.38082E-15
 -1       911 1.99256E+01 3.04801E-01 1.15922E-05 3.33379E-01-3.12438E-15-1.34709E-13
 -1       912 1.99520E+01 2.49579E-01 4.16196E-05 2.54421E-01 7.10459E-14-6.34801E-14
 -1       913 1.99704E+01 2.00846E-01-3.56058E-05 1.90443E-01-2.27926E-13-1.69791E-13
 -1       914 1.99847E+01 1.58926E-01 1.41053E-04 1.39642E-01-2.18010E-13 9.43039E-16
 -1       915 1.99283E+01 2.13257E-01 2.06500E-05-1.14729E-01-2.77433E-14 3.23413E-13
 -1       916 2.00178E+01 3.49866E-01 1.05381E-05-6.18129E-01 5.99844E-14-1.10503E-13
 -1       917 1.80959E+01-1.71164E+00 1.06323E-02 3.73400E+00-3.47922E-13-1.27987E-13
 -1       918 1.86213E+01-1.71036E+00 3.15056E-02 3.65402E+00 1.89926E-13-2.97288E-14
 -1       919 2.02696E+01 1.35392E+00 3.02684E-04-3.64820E-01-1.25473E-13-2.74446E-13
 -1       920 1.98749E+01 2.56073E-01-2.95203E-05-2.46097E-02-1.18856E-13-4.81945E-13
 -1       921 1.23869E+01 9.78431E-01 4.63223E-02 6.61562E-03-8.67466E-14 7.02839E-13
 -1       922 2.01010E+01 2.01586E+00-2.46198E-04-1.65712E-01 2.17900E-15-3.92401E-13
 -1       923 1.97149E+01 2.61755E-01 8.56314E-05-1.37189E+00-1.37892E-14 1.14457E-15
 -1       924 2.03061E+01 8.73431E-01-2.93830E-04-7.06309E-02-9.90736E-14-2.48976E-13
 -1       925 1.31498E+01 8.42075E-01 2.62222E-02 1.08371E+00 5.14033E-14-3.10097E-13
 -1       926 2.02765E+01 6.35071E-01 8.92401E-05 1.15276E-01-6.05385E-14-2.45574E-13
 -1       927 1.64350E+01-9.03722E-01 2.52953E-02-3.61984E+00 2.06115E-13-4.99927E-13
 -1       928 2.17726E+01-3.06371E+00 1.00225E-02 2.75035E+00-3.48276E-13-7.39211E-14
 -1       929 2.37412E+01-3.07038E+00 7.62674E-04 1.00098E+00-1.28232E-13-1.72549E-14
 -1       930 2.02772E+01 5.97561E-01 5.08621E-05-9.62866E-02 1.86991E-13-2.07430E-13
 -1       931 1.55201E+01-1.20893E+00 3.47180E-02-4.13550E+00-2.29099E-13-2.35098E-13
 -1       932 2.02961E+01 1.10951E+00 2.91549E-05 2.68035E-01 2.32197E-13-3.03940E-13
 -1       933 2.00934E+01 3.40796E-01 4.93149E-06-5.06331E-01 5.37453E-14-1.38773E-13
 -1       934 1.51843E+01 4.94003E-01 4.31435E-03 2.15397E+00 4.21559E-14-1.93846E-13
 -1       935 1.34259E+01 9.66248E-01 2.09857E-02-2.47310E-01-4.18684E-14-2.91986E-13
 -1       936 2.03006E+01 8.53415E-01-3.68446E-04 1.13527E-01 2.06309E-13-2.56468E-13
 -1       937 1.99689E+01 1.78838E-01 3.17547E-05-1.38244E-01-8.72237E-14 1.98208E-13
 -1       938 2.02978E+01 9.13269E-01 1.64457E-04 2.36744E-01 2.31426E-13-1.98567E-13
 -1       939 1.98949E+01 2.37850E-01-2.71217E-05 7.72531E-02-1.32049E-13-1.27988E-13
 -1       940 1.98595E+01 4.06193E-01 2.54151E-05-8.65377E-01 7.31743E-14 3.12019E-14
 -1       941 2.28257E+01-3.00655E+00 1.80594E-03-1.78855E+00-7.61974E-14 6.37849E-14
 -1       942 1.99240E+01 2.11629E-01-6.89698E-05 1.08812E-01-3.73686E-13 1.50856E-13
 -1       943 1.99389E+01 3.77520E-01 1.74699E-05-7.35426E-01 7.47992E-14-6.53589E-14
 -1       944 2.02268E+01 4.45121E-01-4.69251E-05-2.58238E-01 1.48928E-13-1.66812E-13
 -1       945 1.98753E+01 2.54833E-01-3.60424E-05 2.83430E-02-2.77119E-13-5.09170E-13
 -1       946 1.68364E+01-6.34460E-01 1.43339E-02 3.18807E+00-3.68885E-13-6.86896E-14
 -1       947 2.02081E+01 1.57246E+00-6.70769E-05 5.04843E-02 6.27013E-14-3.82445E-13
 -1       948 2.02298E+01 1.49218E+00-2.22019E-04 1.44834E-01 1.24984E-13-3.01752E-13
 -1       949 2.02279E+01 1.56445E+00-2.21648E-04-2.77727E-01-8.14589E-14-3.13267E-13
 -1       950 1.82236E+01-1.38773E+00 1.07068E-02-3.40590E+00-2.00556E-13-1.58314E-13
 -1       951 2.00538E+01 5.04428E-01-2.19756E-05 3.37395E-01-1.39687E-14-1.64160E-13
 -1       952 1.99043E+01 5.20364E-01-2.60418E-05 4.22178E-01-4.68688E-14-9.19797E-14
 -1       953 1.97211E+01 5.79538E-01-4.04012E-05 5.07422E-01-2.08636E-14-5.13797E-14
 -1       954 1.95001E+01 6.66527E-01-5.46970E-05 5.99424E-01-2.44775E-15-3.29555E-14
 -1       955 1.92343E+01 7.65425E-01-7.70907E-05 7.04310E-01 1.37299E-14-5.69945E-14
 -1       956 1.89145E+01 8.57875E-01-1.16445E-04 8.29839E-01-1.14796E-14-6.91636E-14
 -1       957 1.85291E+01 9.21001E-01-1.91977E-04 9.88380E-01 2.49887E-14-9.45499E-14
 -1       958 1.80649E+01 9.24717E-01-3.17363E-04 1.20169E+00 2.59113E-14-1.16702E-13
 -1       959 1.75068E+01 8.26831E-01-5.20591E-04 1.51012E+00 7.84542E-14-1.70696E-13
 -1       960 1.68755E+01 5.63778E-01 5.48974E-03 1.95748E+00 2.01466E-15-1.50862E-13
 -1       961 1.93875E+01 5.57473E-01-5.43101E-06-9.96872E-01 7.15858E-14-1.09716E-13
 -1       962 2.03031E+01 8.72234E-01 4.21594E-04 1.29571E-02 1.41850E-13-2.08648E-13
 -1       963 2.02987E+01 8.76538E-01-1.27599E-04 8.19374E-03-6.89991E-14-2.30542E-13
 -1       964 1.66537E+01 5.10674E-01 1.04631E-02-2.10061E+00 1.23821E-13-1.62029E-13
 -1       965 1.72984E+01 8.51805E-01-1.65786E-04-1.57048E+00 1.12164E-13-5.14135E-14
 -1       966 1.78631E+01 9.91016E-01-9.42588E-05-1.21691E+00-5.27159E-14 1.97171E-14
 -1       967 1.83284E+01 1.01931E+00-7.84961E-05-9.72321E-01-1.08144E-13 1.27523E-13
 -1       968 1.87069E+01 9.76303E-01-6.41008E-05-7.89853E-01 8.73169E-14-1.48877E-13
 -1       969 1.90116E+01 8.91785E-01-4.92220E-05-6.45212E-01-3.66409E-15 7.39241E-15
 -1       970 1.92546E+01 7.86583E-01-3.75319E-05-5.25532E-01 1.95118E-13 4.68677E-14
 -1       971 1.94462E+01 6.74820E-01-2.88902E-05-4.24396E-01 9.74235E-14 2.85826E-13
 -1       972 1.95956E+01 5.65720E-01-2.08640E-05-3.38587E-01 1.69284E-13 2.22087E-13
 -1       973 1.97105E+01 4.64886E-01-1.05487E-05-2.66277E-01 3.55855E-13 2.47483E-13
 -1       974 1.97975E+01 3.75451E-01-4.33859E-05-2.06178E-01 2.81093E-13 3.20505E-13
 -1       975 1.98622E+01 2.98750E-01-1.82675E-05-1.56621E-01 1.99240E-13 2.24241E-13
 -1       976 1.90847E+01-4.01093E-01-2.28399E-03-2.17962E+00-2.16090E-13 1.27216E-14
 -1       977 1.90093E+01 9.62656E-02-1.78014E-04-1.77832E+00-1.99274E-13 5.35739E-14
 -1       978 2.02659E+01 1.33568E+00-2.13063E-05 2.21381E-01 1.90912E-13-2.43678E-13
 -1       979 2.03818E+01-1.85397E+00 4.56926E-03 2.64094E+00-3.41414E-13-8.47846E-15
 -1       980 1.90389E+01 2.56263E-01 1.09043E-04 1.60725E+00-1.59673E-13-5.34998E-14
 -1       981 1.91041E+01 4.99443E-01-6.48269E-06 1.30127E+00-1.39677E-13-1.78574E-14
 -1       982 1.92212E+01 6.12788E-01-3.29296E-05 1.05258E+00-1.33996E-13 1.23167E-13
 -1       983 1.93538E+01 6.40328E-01-3.21305E-05 8.49390E-01 9.23217E-14 1.33058E-13
 -1       984 1.94827E+01 6.14491E-01-2.79963E-05 6.81793E-01-6.37744E-14-5.08962E-14
 -1       985 1.95983E+01 5.58278E-01-2.33425E-05 5.42865E-01-7.22803E-14 9.15567E-14
 -1       986 1.96969E+01 4.87606E-01-1.90710E-05 4.27788E-01 5.37844E-14 1.20262E-13
 -1       987 1.97777E+01 4.13079E-01-1.39383E-05 3.33007E-01 2.79215E-13 8.32129E-14
 -1       988 1.98420E+01 3.41452E-01 6.87926E-06 2.55561E-01 4.56660E-14 8.57786E-14
 -1       989 1.98911E+01 2.76368E-01-9.09146E-05 1.93021E-01-1.76002E-13 2.59305E-13
 -1       990 1.54943E+01 2.80459E-01 8.78228E-03-2.50477E+00 8.91706E-14-2.78506E-14
 -1       991 1.42058E+01 8.49734E-01 3.71531E-03 1.38706E+00-4.99941E-13 5.63620E-14
 -1       992 2.02072E+01 1.57502E+00 2.62653E-05-4.87437E-02 2.75807E-14-3.44331E-13
 -1       993 1.98305E+01 3.10512E-01 6.12821E-05-6.45428E-02-1.28378E-14-8.58640E-14
 -1       994 1.90865E+01-1.73733E-01 4.60307E-05 1.98054E+00-1.42910E-13-1.50897E-14
 -1       995 2.01639E+01 3.66690E-01-1.06763E-05-3.90371E-01 8.84638E-14-1.45785E-13
 -1       996 1.93563E+01-8.61750E-01 1.65902E-03 2.41700E+00-2.38520E-13-1.07541E-13
 -1       997 2.02534E+01 6.66870E-01-1.29337E-04 1.39263E-01-5.20063E-14-2.06257E-13
 -1       998 1.41968E+01 9.75507E-01 1.30174E-02-1.07724E+00 1.03642E-13 3.52552E-13
 -1       999 2.01713E+01 5.47149E-01-4.05541E-05 2.45689E-01-1.68700E-14-2.04626E-13
 -1      1000 1.52878E+01 7.01990E-02 1.20630E-02-2.67562E+00-9.51034E-14-2.70554E-13
 -1      1001 2.02311E+01 1.49833E+00 1.28072E-03-1.44443E-01-2.53553E-14-3.28653E-13
 -1      1002 1.50407E+01 8.71545E-01-1.97087E-03-1.27091E+00-7.77442E-15-3.27296E-13
 -1      1003 1.98649E+01 4.61179E-01-6.33884E-07-5.80044E-01 4.41086E-14-1.10481E-13
 -1      1004 1.62375E+01 3.76198E-01-5.57640E-03 2.16961E+00-4.00154E-13 2.57117E-13
 -1      1005 1.92222E+01 5.14906E-01 4.56650E-07-1.20010E+00 1.81143E-14 1.44258E-14
 -1      1006 1.99965E+01 4.35116E-01-2.21147E-05-4.75303E-01 6.58307E-14-1.07555E-13
 -1      1007 1.95563E+01 5.44016E-01-5.45390E-06-8.32391E-01 3.20953E-14-1.56501E-13
 -1      1008 2.02698E+01 6.42391E-01 7.25084E-05-1.38854E-01 1.45780E-13-1.31627E-13
 -1      1009 1.46531E+01 9.18881E-01 2.34442E-02 1.13119E+00 7.94220E-14-2.40582E-13
 -1      1010 1.98720E+01 2.75590E-01 2.28816E-04 1.24659E-01-1.97495E-13 2.18729E-13
 -1      1011 2.02641E+01 1.21332E+00 4.21527E-05-3.32942E-04 1.57160E-14-3.13994E-13
 -1      1012 1.98201E+01 3.17487E-01 3.07814E-04 3.40286E-03-1.60812E-13-1.92178E-13
 -1      1013 1.80266E+01-7.68074E-01 8.50492E-03 2.93626E+00-2.84818E-13-1.52673E-13
 -1      1014 1.90825E+01 3.77966E-01 7.50259E-06-1.45524E+00-3.76701E-14 6.12339E-14
 -1      1015 1.98334E+01 3.04862E-01-1.22830E-04 6.96031E-02-2.11484E-13-3.83578E-13
 -1      1016 1.49686E+01 1.15600E+00 1.19588E-03 2.30872E-01-2.09871E-13 1.03842E-13
 -1      1017 2.02714E+01 1.17543E+00-3.19138E-04 3.07281E-02 5.83263E-14-3.02719E-13
 -1      1018 1.94798E+01-1.17227E+00 1.18448E-02-2.63327E+00-2.06228E-13-1.94866E-14
 -1      1019 1.97173E+01 5.04082E-01-2.84626E-06-6.96328E-01 1.01922E-15-9.95434E-14
 -1      1020 1.97485E+01 6.04808E-01-1.29834E-04 2.90119E-01 5.21954E-14-1.30896E-13
 -1      1021 1.95093E+01 6.83389E-01-1.44932E-04 3.41038E-01-1.23154E-14-3.69120E-14
 -1      1022 1.92190E+01 7.86156E-01-1.85192E-04 3.94607E-01-4.75168E-15-1.24313E-14
 -1      1023 1.88663E+01 8.97398E-01-2.57603E-04 4.54300E-01-1.79117E-14-5.20857E-14
 -1      1024 1.84336E+01 1.00033E+00-3.82547E-04 5.25477E-01-4.80243E-14-1.47622E-13
 -1      1025 1.78942E+01 1.07649E+00-5.91422E-04 6.18607E-01-4.23332E-14-2.16439E-13
 -1      1026 1.72079E+01 1.10375E+00-7.06825E-04 7.54489E-01-2.12353E-14-3.70505E-13
 -1      1027 1.63101E+01 1.07625E+00 1.38576E-03 9.58993E-01 4.90973E-14-4.54786E-13
 -1      1028 2.02031E+01 5.07202E-01 1.20684E-04-2.64848E-01 1.17848E-13-1.33134E-13
 -1      1029 1.69301E+01 1.17755E+00-1.63600E-03-7.61758E-01 1.30800E-13 6.66303E-14
 -1      1030 1.76326E+01 1.18257E+00-6.33174E-04-6.06347E-01-1.84395E-13 8.11327E-14
 -1      1031 1.81783E+01 1.12673E+00-4.34039E-04-4.97652E-01-1.34061E-13 1.00061E-13
 -1      1032 1.86025E+01 1.03431E+00-3.32969E-04-4.15060E-01 6.27345E-14-1.27471E-13
 -1      1033 1.89353E+01 9.21250E-01-2.48532E-04-3.46484E-01 1.29451E-13-1.17025E-14
 -1      1034 1.91972E+01 7.99640E-01-1.85711E-04-2.86932E-01 3.76709E-13-9.03137E-14
 -1      1035 1.94026E+01 6.78579E-01-1.41423E-04-2.34537E-01 1.51664E-13 1.12065E-14
 -1      1036 1.95626E+01 5.64302E-01-1.22922E-04-1.88744E-01 1.62814E-13 1.20540E-13
 -1      1037 1.96869E+01 4.60559E-01 9.28895E-05-1.50073E-01 2.99555E-13-1.55656E-13
 -1      1038 1.97658E+01 3.81264E-01-4.51373E-05-1.01277E-01-1.12953E-14-8.68172E-14
 -1      1039 1.82802E+01 5.64290E-01-2.25119E-04-1.43430E+00-1.18304E-13 1.12174E-13
 -1      1040 1.88986E+01 8.08111E-01-1.45345E-04 7.82590E-01-3.38258E-14 9.36271E-15
 -1      1041 1.73938E+01-1.82932E-01 2.51212E-03-2.54287E+00-1.24468E-13-8.78022E-14
 -1      1042 1.86400E+01 7.89628E-01-1.69884E-04 1.00182E+00-2.66066E-13 1.96130E-14
 -1      1043 1.83564E+01 6.83710E-01-3.62056E-04 1.29606E+00-2.09906E-13-2.81429E-13
 -1      1044 1.91259E+01 7.71074E-01-1.15257E-04 6.13970E-01 9.03854E-14 2.19228E-13
 -1      1045 1.93198E+01 7.01374E-01-9.33723E-05 4.81536E-01 1.91388E-15 2.18982E-13
 -1      1046 1.94812E+01 6.15456E-01-7.72175E-05 3.76093E-01 1.33754E-13-2.65079E-14
 -1      1047 1.96127E+01 5.24731E-01-6.65069E-05 2.91588E-01 2.25040E-13-1.40265E-13
 -1      1048 1.97177E+01 4.36653E-01-2.76144E-05 2.23965E-01-2.77879E-15-1.95925E-13
 -1      1049 1.97998E+01 3.55668E-01-7.41536E-05 1.69147E-01-9.98724E-14 1.41991E-13
 -1      1050 1.55467E+01 1.08037E+00 6.75678E-03-1.09135E+00 7.04417E-15 1.48883E-13
 -1      1051 1.80732E+01 4.39044E-01-1.14407E-03 1.70800E+00-1.20525E-13-2.31814E-13
 -1      1052 2.01102E+01 4.44470E-01 1.53003E-05-3.73461E-01 5.64567E-14-1.20976E-13
 -1      1053 1.79426E+01-1.14918E-02 6.05091E-03 2.25830E+00-1.93998E-13-1.77065E-13
 -1      1054 2.02718E+01 8.57268E-01 4.79996E-04 4.22565E-02-4.10902E-14-2.88575E-13
 -1      1055 2.02904E+01 1.04101E+00-6.28354E-05 3.29965E-02 1.14507E-13-2.05806E-13
 -1      1056 1.79633E+01 2.88138E-01 2.37613E-04-1.87373E+00-1.41628E-13 2.89041E-15
 -1      1057 1.99438E+01 5.65540E-01-1.21955E-04 2.38771E-01-1.20595E-15-2.07919E-13
 -1      1058 2.02700E+01 1.17937E+00-5.93645E-04-3.14202E-02-3.74966E-14-3.03016E-13
 -1      1059 1.61104E+01 9.37941E-01 8.52576E-04 1.26258E+00-9.01181E-14 1.17805E-13
 -1      1060 1.98535E+01 5.27240E-01-6.36810E-05-3.93165E-01 7.76227E-14-7.96679E-14
 -1      1061 1.91947E+01 6.93544E-01-8.15015E-05-7.21783E-01 2.79377E-14-8.47329E-14
 -1      1062 1.97433E+01 3.94385E-01 7.33959E-05-1.36324E-02 1.28392E-13-2.28022E-13
 -1      1063 2.02730E+01 7.72468E-01-7.80967E-05-8.31912E-02 1.09187E-13-1.64843E-13
 -1      1064 1.96638E+01 5.74735E-01-6.01340E-05-4.82905E-01 1.81882E-14-1.03700E-13
 -1      1065 2.00970E+01 5.83887E-01-1.46152E-05 1.83913E-01 1.33261E-14-2.64590E-13
 -1      1066 1.89147E+01 7.21113E-01-1.02685E-04-8.93152E-01-8.81431E-15-4.40899E-14
 -1      1067 1.67087E+01 6.00027E-01 4.18121E-03-1.71416E+00-5.73609E-14-1.35018E-13
 -1      1068 2.02090E+01 6.73362E-01-1.54416E-04 1.19447E-01-2.84668E-14-2.75726E-13
 -1      1069 1.53369E+01 1.12818E+00 1.40110E-02-2.83843E-02 1.05720E-13-2.21788E-13
 -1      1070 1.86070E+01 6.90654E-01-1.31645E-04-1.12149E+00-3.69088E-14 1.00004E-14
 -1      1071 2.02643E+01 9.07818E-01 2.32556E-04 9.84441E-03-4.94718E-14-2.71058E-13
 -1      1072 2.02673E+01 8.99572E-01 3.01177E-04-1.94744E-02-9.42983E-15-2.34597E-13
 -1      1073 1.93063E+01 7.61392E-01 1.34013E-04 1.07561E-01-2.96230E-15-1.92014E-13
 -1      1074 1.89623E+01 8.71090E-01 1.23790E-04 1.07636E-01-1.63585E-14-1.77884E-13
 -1      1075 1.85423E+01 9.82998E-01 9.61839E-05 9.99291E-02-9.33000E-14-1.45326E-13
 -1      1076 1.80208E+01 1.08201E+00 4.28553E-05 8.18881E-02-6.90474E-14-2.17824E-13
 -1      1077 1.73554E+01 1.15433E+00-1.24422E-05 4.99670E-02-7.45902E-14-2.51873E-13
 -1      1078 1.64710E+01 1.19211E+00-2.89077E-03 2.03623E-02 1.67210E-14-1.93637E-13
 -1      1079 1.94444E+01 6.36890E-01-6.66663E-05-5.89233E-01 2.36295E-14-1.15168E-13
 -1      1080 1.65265E+01 1.26402E+00 2.58881E-03 9.30390E-02-6.81341E-15 7.20815E-14
 -1      1081 1.73210E+01 1.24420E+00 7.94598E-04 2.98151E-02-1.09166E-13 1.01331E-13
 -1      1082 1.79393E+01 1.17802E+00 1.89920E-04-1.64368E-02-2.13726E-13 2.18330E-13
 -1      1083 1.84129E+01 1.08458E+00 1.40341E-04-4.23250E-02-2.12858E-13 1.42342E-13
 -1      1084 1.87833E+01 9.71462E-01 1.19747E-04-5.48628E-02 6.31896E-14-6.84902E-14
 -1      1085 1.90753E+01 8.48801E-01 1.01036E-04-5.84007E-02 1.93105E-13-1.43155E-13
 -1      1086 1.93056E+01 7.25172E-01 8.06213E-05-5.61612E-02 3.70556E-13-6.72463E-14
 -1      1087 1.94862E+01 6.07099E-01 6.07806E-05-5.05783E-02 2.46158E-13-2.07206E-13
 -1      1088 1.96273E+01 4.98673E-01-3.62209E-05-4.39584E-02 2.07708E-13-3.79974E-13
 -1      1089 1.90307E+01 8.41683E-01 1.87816E-06 3.52211E-01-2.57212E-14 1.29121E-13
 -1      1090 1.98224E+01 6.10566E-01 1.37499E-04 9.12363E-02 7.96247E-14-2.23766E-13
 -1      1091 1.72956E+01 8.28330E-01 7.33558E-04-1.21369E+00-7.61008E-14-5.78138E-14
 -1      1092 1.87499E+01 9.28176E-01 1.28424E-05 4.63214E-01-1.64354E-13 7.81417E-14
 -1      1093 1.79866E+01 9.91295E-01-2.73400E-04 8.21052E-01-3.02333E-13-1.66127E-13
 -1      1094 1.92588E+01 7.39825E-01-6.81230E-06 2.68516E-01 1.28170E-13 2.63042E-13
 -1      1095 1.94423E+01 6.33454E-01-1.41832E-05 2.04505E-01 3.58252E-13 1.53623E-13
 -1      1096 1.95882E+01 5.30210E-01 2.89018E-06 1.55240E-01 2.81872E-13 3.23010E-13
 -1      1097 1.97041E+01 4.33789E-01 9.82599E-06 1.16584E-01 9.95269E-15 8.98333E-14
 -1      1098 1.95899E+01 6.69324E-01 1.36859E-04 1.01656E-01 5.22046E-14-2.15453E-13
 -1      1099 1.74816E+01 9.23289E-01-1.05243E-03 1.11780E+00-5.89139E-14 1.56638E-13
 -1      1100 2.02069E+01 6.09168E-01 7.67936E-05-1.79912E-01 1.02192E-13-8.98541E-14
 -1      1101 1.84063E+01 9.84617E-01-2.65010E-06 6.13332E-01-2.87640E-13-1.63647E-13
 -1      1102 2.02704E+01 8.49621E-01 1.33022E-03-4.81788E-02 6.09404E-14-1.65431E-13
 -1      1103 2.00131E+01 5.13863E-01-1.05963E-04-3.12355E-01 5.27129E-14-7.23180E-14
 -1      1104 1.78927E+01 9.03140E-01 7.01602E-06-8.95528E-01-1.33514E-13-1.02606E-16
 -1      1105 1.87941E+01 8.49029E-01-1.45021E-04-5.18741E-01-6.91786E-15-1.47466E-13
 -1      1106 2.00094E+01 5.99841E-01 1.39756E-04 7.64979E-02 6.16648E-14-2.32384E-13
 -1      1107 1.91406E+01 7.70535E-01-1.28799E-04-4.05746E-01 1.03660E-14-1.98185E-13
 -1      1108 2.01220E+01 5.39236E-01-1.04139E-05-2.48362E-01 5.40201E-14-1.09632E-13
 -1      1109 1.96821E+01 6.15197E-01-8.06484E-05-2.55663E-01 5.89305E-14-1.11612E-13
 -1      1110 2.02107E+01 7.41940E-01-2.16484E-04-9.94720E-03 1.59211E-14-2.09142E-13
 -1      1111 1.98889E+01 5.74664E-01-3.71407E-05-2.00426E-01 4.32892E-14-1.15867E-13
 -1      1112 1.83836E+01 9.01084E-01-1.36829E-04-6.74691E-01-1.12610E-13-8.02052E-14
 -1      1113 1.94342E+01 6.86311E-01-1.07775E-04-3.21326E-01 5.22393E-15-1.53799E-13
 -1      1114 2.02047E+01 6.64652E-01-5.85536E-04-1.15238E-01 6.27785E-14-1.44905E-13
 -1      1115 2.01261E+01 6.45460E-01 1.09947E-04 2.23862E-02 6.01263E-14-1.62582E-13
 -1      1116 2.01457E+01 6.36995E-01-2.17436E-04-9.35512E-02 9.31713E-14-1.71377E-13
 -1      1117 2.01160E+01 5.88367E-01 1.12774E-05-1.65121E-01 5.35679E-14-1.18777E-13
 -1      1118 2.00150E+01 5.67496E-01 3.33766E-04-1.86751E-01 3.85962E-14-1.52342E-13
 -1      1119 2.00310E+01 5.96561E-01-2.55180E-05-7.99707E-02 2.61095E-14-1.14635E-13
 -1      1120 2.78788E+01 9.05832E+00 2.31540E+00-6.67531E+00-5.50116E-14 1.68540E-12
 -1      1121 2.05190E+01 6.21876E+00 2.10146E-01-3.88682E+00-2.91156E-14 1.82063E-13
 -1      1122 1.94309E+01 5.85217E+00 7.63514E-02-2.86892E+00-1.87211E-14-4.47553E-13
 -1      1123 1.90375E+01 5.72963E+00 6.12655E-02-2.21404E+00-1.29341E-14-7.36242E-13
 -1      1124 1.88598E+01 5.67542E+00 5.82368E-02-1.67983E+00-8.56433E-15-8.56596E-13
 -1      1125 1.87694E+01 5.64745E+00 5.54574E-02-1.21475E+00-4.98560E-15-9.02477E-13
 -1      1126 1.87216E+01 5.63244E+00 5.32243E-02-7.89692E-01-2.35359E-15-9.11768E-13
 -1      1127 1.86976E+01 5.62478E+00 5.16744E-02-3.84967E-01 5.03937E-16-9.06956E-13
 -1      1128 1.86905E+01 5.62252E+00 5.11694E-02 8.48400E-03 1.61991E-15-8.92819E-13
 -1      1129 1.86984E+01 5.62507E+00 5.17849E-02 4.02341E-01 5.85816E-15-8.65387E-13
 -1      1130 1.87234E+01 5.63305E+00 5.34704E-02 8.08404E-01 7.03127E-15-8.25710E-13
 -1      1131 1.87728E+01 5.64867E+00 5.61229E-02 1.23607E+00 1.03554E-14-7.48969E-13
 -1      1132 1.88642E+01 5.67691E+00 5.88406E-02 1.70561E+00 1.37546E-14-6.19174E-13
 -1      1133 1.90425E+01 5.73113E+00 6.12961E-02 2.24692E+00 1.77566E-14-3.86101E-13
 -1      1134 1.94274E+01 5.84938E+00 7.04522E-02 2.90922E+00 2.31343E-14 1.29671E-14
 -1      1135 2.04256E+01 6.17393E+00 1.54061E-01 3.86155E+00 2.54796E-14 7.53515E-13
 -1      1136 2.51422E+01 7.96975E+00 1.42350E+00 5.82676E+00 4.82947E-14 2.22888E-12
 -1      1137 2.87061E+01 3.60032E+00 1.26161E+00-4.20138E+00-2.23349E-13 2.63678E-12
 -1      1138 2.01607E+01-1.77708E-01-6.15644E-01-1.09010E-01-7.21853E-14 2.12722E-12
 -1      1139 1.87848E+01-9.66924E-02-2.36135E-01 6.22921E-02-2.68743E-14 1.39478E-12
 -1      1140 1.84683E+01-4.88388E-02-6.01877E-02 4.01509E-02-1.96414E-14 8.93979E-13
 -1      1141 1.84360E+01-2.59094E-02-1.65016E-02 2.63934E-02-1.22927E-14 5.26797E-13
 -1      1142 1.85503E+01-1.49627E-02-7.05102E-03 1.87071E-02-8.17423E-15 3.08000E-13
 -1      1143 1.87450E+01-9.27143E-03-4.47149E-03 1.39185E-02-1.51831E-14 1.13539E-13
 -1      1144 1.89870E+01-6.40554E-03-3.56153E-03 1.07815E-02-4.51928E-15-4.65981E-14
 -1      1145 1.92618E+01-5.26558E-03-3.63319E-03 8.73145E-03-6.99760E-15-1.89199E-13
 -1      1146 1.95666E+01-5.26163E-03-4.58632E-03 7.54067E-03-7.03490E-15-3.73092E-13
 -1      1147 1.99064E+01-6.03423E-03-6.29507E-03 7.15382E-03-6.31884E-15-5.24629E-13
 -1      1148 2.02924E+01-7.30147E-03-8.57492E-03 7.61103E-03 1.77199E-14-4.13510E-13
 -1      1149 2.07398E+01-8.75857E-03-1.11435E-02 9.00963E-03-3.62156E-15-5.22105E-13
 -1      1150 2.12658E+01-9.97975E-03-1.35085E-02 1.14639E-02 1.11139E-14-5.01293E-13
 -1      1151 2.18858E+01-1.03018E-02-1.47721E-02 1.50260E-02 7.58508E-16-4.60324E-13
 -1      1152 2.26073E+01-8.69294E-03-1.33537E-02 1.95159E-02-3.09867E-14-5.89959E-13
 -1      1153 2.34193E+01-3.65851E-03-6.71664E-03 2.41883E-02-1.20652E-14-5.62266E-13
 -1      1154 2.42750E+01 6.64321E-03 8.58787E-03 2.71780E-02-2.27575E-14-5.54043E-13
 -1      1155 2.50698E+01 2.37332E-02 3.57878E-02 2.48228E-02 1.04710E-14-6.77056E-13
 -1      1156 2.56190E+01 4.70134E-02 7.45001E-02 1.14193E-02 3.57787E-16-8.43013E-13
 -1      1157 2.56599E+01 7.07100E-02 1.14479E-01-1.90577E-02-2.32253E-14-8.59660E-13
 -1      1158 2.49180E+01 8.04675E-02 1.30480E-01-6.72240E-02 5.14259E-15-5.34794E-13
 -1      1159 2.32781E+01 5.67929E-02 8.90530E-02-1.18986E-01 3.40808E-14-6.70630E-13
 -1      1160 2.10192E+01-9.96618E-03-2.22261E-02-1.42631E-01-4.42853E-15-6.51423E-13
 -1      1161 1.89062E+01-9.42267E-02-1.59613E-01-1.06996E-01-6.54945E-15-7.48970E-13
 -1      1162 1.78940E+01-1.42093E-01-2.35176E-01-1.40535E-02 4.11685E-14-8.12239E-13
 -1      1163 1.85074E+01-1.12642E-01-1.89115E-01 8.70898E-02 6.07066E-15-5.67671E-13
 -1      1164 2.04257E+01-3.21380E-02-5.88513E-02 1.39901E-01-4.37827E-14-7.81736E-13
 -1      1165 2.27418E+01 4.32902E-02 6.60538E-02 1.29213E-01 8.16187E-16-6.95763E-13
 -1      1166 2.45944E+01 7.79237E-02 1.25953E-01 8.11611E-02-1.21968E-14-6.13232E-13
 -1      1167 2.55778E+01 7.48416E-02 1.21578E-01 3.00553E-02-3.61213E-14-6.71387E-13
 -1      1168 2.57284E+01 5.29164E-02 8.46553E-02-5.28053E-03 9.65981E-15-7.61124E-13
 -1      1169 2.53010E+01 2.85052E-02 4.39124E-02-2.25104E-02 3.36181E-14-7.19973E-13
 -1      1170 2.45731E+01 9.41517E-03 1.31901E-02-2.69553E-02 1.32273E-16-7.78020E-13
 -1      1171 2.37533E+01-2.73599E-03-5.22384E-03-2.46892E-02-3.02598E-15-1.10553E-12
 -1      1172 2.29673E+01-9.15096E-03-1.40513E-02-1.99152E-02 1.97798E-14-8.27508E-13
 -1      1173 2.22765E+01-1.16768E-02-1.68547E-02-1.48796E-02-5.24060E-15-8.79630E-13
 -1      1174 2.17015E+01-1.18993E-02-1.64194E-02-1.05276E-02 2.84258E-14-7.55319E-13
 -1      1175 2.12406E+01-1.09269E-02-1.45191E-02-7.11239E-03-2.16353E-14-2.60818E-13
 -1      1176 2.08814E+01-9.44876E-03-1.21485E-02-4.58195E-03-4.27634E-14-7.72896E-13
 -1      1177 2.06079E+01-7.85704E-03-9.81019E-03-2.78039E-03-2.70201E-14-1.16963E-12
 -1      1178 2.04042E+01-6.35573E-03-7.72761E-03-1.53898E-03-3.59512E-14-8.99979E-13
 -1      1179 2.02556E+01-5.03832E-03-5.97930E-03-7.09463E-04-1.62947E-14-1.03273E-12
 -1      1180 2.01499E+01-3.93733E-03-4.57586E-03-1.70868E-04-1.64264E-14-6.10504E-13
 -1      1181 2.00772E+01-3.05294E-03-3.50129E-03 1.75116E-04-3.79403E-14-4.80988E-13
 -1      1182 2.00298E+01-2.36692E-03-2.72902E-03 4.14501E-04 1.20203E-14 5.45028E-14
 -1      1183 2.00019E+01-1.84351E-03-2.19644E-03 6.34272E-04 1.57583E-14-2.78313E-13
 -1      1184 1.99898E+01-1.38330E-03-1.69775E-03 9.23678E-04 6.02954E-14-5.35207E-13
 -1      1185 1.99907E+01-1.03170E-03-5.28698E-04 1.43316E-03-2.15325E-14-8.33326E-13
 -1      1186 1.99977E+01 8.15700E-04 2.00361E-03 7.08811E-04 9.13566E-14-3.06017E-13
 -1      1187 2.76909E+01 5.23777E-01 3.71637E-01 1.96071E+00-4.23064E-14 3.42282E-12
 -1      1188 2.00202E+01-6.64244E-02-5.72959E-01 1.29140E-01 2.03552E-14 2.81131E-12
 -1      1189 1.88606E+01-4.10374E-02-1.93126E-01 1.96973E-02 1.33877E-14 2.23221E-12
 -1      1190 1.84989E+01-2.21810E-02-5.11549E-02 2.10155E-03 1.25325E-14 1.81056E-12
 -1      1191 1.84508E+01-1.35688E-02-1.46400E-02-3.12539E-03 1.23252E-15 1.52364E-12
 -1      1192 1.85593E+01-9.05602E-03-6.58589E-03-4.28507E-03 6.31515E-15 1.29297E-12
 -1      1193 1.87510E+01-6.58551E-03-4.68680E-03-4.18216E-03 3.93197E-15 1.15653E-12
 -1      1194 1.89908E+01-5.34221E-03-4.11716E-03-3.62894E-03-3.90492E-15 1.09448E-12
 -1      1195 1.92625E+01-4.91688E-03-4.22028E-03-2.91209E-03 1.72998E-14 8.69466E-13
 -1      1196 1.95614E+01-5.04869E-03-4.92729E-03-2.20531E-03 6.42997E-15 6.90021E-13
 -1      1197 1.98900E+01-5.51752E-03-6.11417E-03-1.67057E-03 2.51724E-14 5.66782E-13
 -1      1198 2.02552E+01-6.07990E-03-7.54224E-03-1.49177E-03 2.19237E-14 4.26484E-13
 -1      1199 2.06655E+01-6.41242E-03-8.82908E-03-1.89268E-03 9.74058E-15 4.63076E-13
 -1      1200 2.11285E+01-6.05615E-03-9.37297E-03-3.14189E-03-1.00998E-14 4.74020E-13
 -1      1201 2.16459E+01-4.37490E-03-8.25145E-03-5.52696E-03 2.11210E-14 2.92424E-13
 -1      1202 2.22082E+01-5.70822E-04-4.15287E-03-9.26132E-03 2.13715E-14 1.47700E-13
 -1      1203 2.27852E+01 6.15156E-03 4.52462E-03-1.42680E-02 1.11131E-15 8.60423E-14
 -1      1204 2.33173E+01 1.61329E-02 1.91523E-02-1.97890E-02 3.27678E-15 2.88606E-13
 -1      1205 2.37061E+01 2.84085E-02 3.96070E-02-2.38644E-02 6.73420E-15 1.61982E-13
 -1      1206 2.38161E+01 3.96386E-02 6.22179E-02-2.29961E-02-7.45194E-15 2.27923E-13
 -1      1207 2.34983E+01 4.36826E-02 7.78644E-02-1.27654E-02 1.34007E-14 2.13513E-13
 -1      1208 2.26505E+01 3.34777E-02 7.28989E-02 9.58449E-03-3.79323E-14 2.72754E-13
 -1      1209 2.13115E+01 6.44019E-03 3.62660E-02 4.07373E-02 2.61948E-14 2.03199E-13
 -1      1210 1.97431E+01-2.94295E-02-2.80311E-02 6.85635E-02-8.88634E-15-4.17999E-14
 -1      1211 1.84114E+01-5.68008E-02-9.43976E-02 7.63959E-02-8.72826E-15-6.68562E-14
 -1      1212 1.78053E+01-6.07082E-02-1.27716E-01 5.50044E-02 4.99097E-14 1.21167E-13
 -1      1213 1.81705E+01-4.10436E-02-1.09554E-01 1.20393E-02-5.97369E-14 1.07428E-13
 -1      1214 1.93570E+01-1.16356E-02-5.32422E-02-3.18790E-02 3.96831E-14 1.20431E-13
 -1      1215 2.09145E+01 1.24576E-02 8.71620E-03-5.82783E-02-3.15446E-14-7.70634E-14
 -1      1216 2.23506E+01 2.44007E-02 4.97162E-02-6.18364E-02 1.85490E-14-2.15113E-13
 -1      1217 2.33453E+01 2.55763E-02 6.24645E-02-4.90813E-02-3.28830E-14-3.05582E-13
 -1      1218 2.38089E+01 2.06476E-02 5.46360E-02-3.02986E-02 1.69569E-14-2.32836E-13
 -1      1219 2.38169E+01 1.37919E-02 3.79296E-02-1.30980E-02-4.04453E-14 3.73641E-13
 -1      1220 2.35139E+01 7.47353E-03 2.10075E-02-7.81905E-04-3.41812E-14 6.61535E-13
 -1      1221 2.30437E+01 2.66791E-03 7.92381E-03 6.42789E-03 9.48379E-15 3.88776E-13
 -1      1222 2.25165E+01-5.23729E-04-5.58677E-04 9.68613E-03 8.45148E-15-7.54084E-14
 -1      1223 2.20038E+01-2.37900E-03-5.22276E-03 1.03863E-02 9.08779E-14-3.26125E-13
 -1      1224 2.15446E+01-3.26651E-03-7.23805E-03 9.66671E-03-7.77280E-14 6.65770E-14
 -1      1225 2.11553E+01-3.51784E-03-7.63024E-03 8.30267E-03 3.01565E-14-1.41756E-13
 -1      1226 2.08385E+01-3.38808E-03-7.13855E-03 6.76118E-03-6.36535E-15-5.59071E-13
 -1      1227 2.05889E+01-3.05684E-03-6.24017E-03 5.29327E-03 7.54719E-15-4.71317E-13
 -1      1228 2.03978E+01-2.64313E-03-5.22037E-03 4.01468E-03-5.81311E-15-1.98147E-14
 -1      1229 2.02553E+01-2.22256E-03-4.23980E-03 2.96331E-03-6.96493E-14-1.61507E-14
 -1      1230 2.01522E+01-1.84184E-03-3.38564E-03 2.13523E-03 3.27284E-14-1.73542E-13
 -1      1231 2.00801E+01-1.52695E-03-2.70464E-03 1.50337E-03 2.06171E-14-3.92586E-13
 -1      1232 2.00324E+01-1.28354E-03-2.21644E-03 1.02390E-03-1.97615E-15-5.91009E-13
 -1      1233 2.00039E+01-1.09794E-03-1.89756E-03 6.31350E-04 5.49423E-14-9.87581E-13
 -1      1234 1.99910E+01-8.63626E-04-1.54155E-03 1.85681E-04 6.83770E-14-1.42812E-12
 -1      1235 1.99911E+01-1.54006E-04-3.86321E-04-5.50721E-04 5.42874E-14-9.54630E-13
 -1      1236 1.99980E+01 6.60013E-04 1.97950E-03-6.60493E-04-1.29985E-14-7.43216E-13
 -1      1237 2.00004E+01-2.00761E-03 1.79536E-03-7.20586E-04-8.10709E-13-8.35773E-14
 -1      1238 1.99991E+01-8.43171E-03-7.33512E-04-1.15918E-03-9.68717E-13 1.25578E-13
 -1      1239 1.99988E+01-6.71845E-03-1.59474E-03-3.30527E-04 4.51872E-13 1.26542E-13
 -1      1240 1.99991E+01 6.69904E-03-1.26942E-03 2.99101E-04 1.19053E-12-1.37887E-13
 -1      1241 1.99996E+01 2.84853E-02-4.93294E-04 6.45180E-04 1.47206E-12-1.10086E-13
 -1      1242 2.00001E+01 5.31233E-02 3.31444E-04 7.28611E-04 7.62298E-13-2.66591E-13
 -1      1243 2.00006E+01 7.53842E-02 1.02328E-03 6.12006E-04 2.42889E-13-2.61552E-14
 -1      1244 2.00010E+01 9.08443E-02 1.48638E-03 3.38110E-04-2.28872E-13-7.54155E-15
 -1      1245 2.00011E+01 9.61910E-02 1.64653E-03-1.32759E-05-8.52505E-13 1.10896E-13
 -1      1246 2.00010E+01 9.03508E-02 1.48093E-03-3.64316E-04-1.50974E-12-4.38055E-14
 -1      1247 2.00006E+01 7.44320E-02 1.00699E-03-6.34214E-04-2.36427E-12-2.17475E-13
 -1      1248 2.00001E+01 5.18006E-02 3.01192E-04-7.51209E-04-2.56896E-12 8.01293E-14
 -1      1249 1.99995E+01 2.69969E-02-5.36545E-04-6.46607E-04-1.99127E-12 6.58559E-14
 -1      1250 1.99990E+01 5.33191E-03-1.31730E-03-2.85105E-04-1.05490E-12-1.25858E-14
 -1      1251 1.99989E+01-7.85815E-03-1.62822E-03 4.15613E-04-4.37137E-13 4.24510E-14
 -1      1252 1.99990E+01-8.10986E-03-4.51345E-04 1.87337E-03 4.12843E-15-1.83735E-13
 -1      1253 2.00004E+01-2.38759E-03 1.75593E-03 9.14244E-04 2.74235E-13 1.52451E-13
 -1      1254-1.00729E+00-2.36953E+01-3.65390E+00-2.15837E+00 5.32074E-13 2.29247E-13
 -1      1255-1.70478E+00-1.48738E+01-3.00478E+00-3.94480E+00 3.35421E-12 1.46838E-12
 -1      1256 3.38257E-01-2.22061E+00-1.83573E+00-4.87258E-03 4.64784E-12 2.91622E-12
 -1      1257 8.98419E+00 7.72732E+00-2.68376E-01 8.21637E+00 3.49321E-12 3.13549E-12
 -1      1258 2.55636E+01 1.10472E+01 1.42663E+00 1.59443E+01 2.20901E-12 2.96962E-12
 -1      1259 4.61790E+01 7.97894E+00 2.93686E+00 1.74508E+01 1.05538E-12 2.35545E-12
 -1      1260 6.20896E+01 3.25343E+00 3.94716E+00 1.00537E+01 2.59806E-13 8.39662E-13
 -1      1261 6.61596E+01 1.87858E+00 4.17827E+00-2.53495E+00 1.86552E-13-9.97785E-13
 -1      1262 5.70774E+01 4.90910E+00 3.63787E+00-1.38314E+01 8.47739E-13-2.85860E-12
 -1      1263 3.86778E+01 9.66566E+00 2.42450E+00-1.79725E+01 1.82498E-12-3.68860E-12
 -1      1264 1.94233E+01 1.08942E+01 8.85120E-01-1.40072E+01 2.62190E-12-3.29181E-12
 -1      1265 5.66748E+00 5.58639E+00-7.13234E-01-5.68253E+00 2.78755E-12-2.38365E-12
 -1      1266-7.61486E-01-5.96750E+00-2.21620E+00 1.77600E+00 2.60170E-12-1.42664E-12
 -1      1267-1.67234E+00-1.84484E+01-3.31294E+00 3.83543E+00 1.86362E-12-5.74402E-13
 -1      1268-9.69601E-01-2.49508E+01-3.81506E+00 6.80927E-01 4.13308E-13-1.93484E-13
 -1      1269-1.47216E+00-2.15755E+01-3.56945E+00-3.39748E+00-1.21425E-12-4.36443E-13
 -1      1270-1.67712E+00-1.09984E+01-2.75303E+00-3.51632E+00-2.77800E-12-1.31223E-12
 -1      1271 1.94782E+00 1.06971E+00-1.45773E+00 1.94382E+00-2.92966E-12-2.05991E-12
 -1      1272 1.24591E+01 9.11801E+00 1.06174E-01 1.03778E+01-2.66187E-12-2.76201E-12
 -1      1273 3.00632E+01 1.07570E+01 1.74796E+00 1.69714E+01-1.63836E-12-2.40030E-12
 -1      1274 5.00871E+01 7.15395E+00 3.24928E+00 1.70177E+01-6.41376E-13-1.49014E-12
 -1      1275 6.41723E+01 2.89738E+00 4.11327E+00 8.63327E+00-1.27745E-13-5.15143E-13
 -1      1276 6.72519E+01 1.79392E+00 4.32132E+00-3.83625E+00-1.94511E-13 8.49820E-13
 -1      1277 5.72452E+01 5.10322E+00 3.67233E+00-1.43053E+01-6.84147E-13 2.44971E-12
 -1      1278 3.88306E+01 9.66672E+00 2.44080E+00-1.79065E+01-1.15474E-12 2.48490E-12
 -1      1279 1.96541E+01 1.06968E+01 8.47757E-01-1.39614E+01-1.87073E-12 2.25331E-12
 -1      1280 5.97858E+00 5.65923E+00-7.61940E-01-5.89095E+00-2.97273E-12 2.53486E-12
 -1      1281-5.98610E-01-4.76513E+00-2.13365E+00 1.43794E+00-3.31379E-12 1.92668E-12
 -1      1282-1.79259E+00-1.66048E+01-3.16821E+00 4.26731E+00-2.45781E-12 8.14682E-13
 -1      1283-1.03920E+00-2.40680E+01-3.69232E+00 2.09676E+00-1.30318E-12 2.65298E-13
 -1      1284 2.22052E+01 1.83539E+00-7.23706E-01-2.77974E+00-8.32112E-14 1.35436E-12
 -1      1285 2.03406E+01 4.68387E+00-4.79889E-02-3.28766E+00-2.25334E-13-1.16539E-13
 -1      1286 2.08341E+01 4.79992E+00-1.12703E-01-4.14121E+00-2.92488E-13 2.16216E-13
 -1      1287 1.95335E+01 4.99250E+00-1.92665E-02-2.63241E+00-2.18915E-13-5.77149E-13
 -1      1288 1.98226E+01 5.08616E+00 6.73013E-04-3.02419E+00-2.53388E-13-3.80820E-13
 -1      1289 2.05137E+01 3.94769E+00-2.56651E-02-3.05156E+00-3.95451E-13-1.00239E-13
 -1      1290 1.91994E+01 5.08765E+00-3.24358E-03-2.04715E+00-1.73233E-13-7.94524E-13
 -1      1291 1.93425E+01 5.14131E+00 1.10855E-02-2.34088E+00-1.99746E-13-7.00339E-13
 -1      1292 1.97612E+01 4.36774E+00-2.35103E-02-2.46518E+00-3.45743E-13-4.80380E-13
 -1      1293 1.90292E+01 5.13873E+00 3.40087E-03-1.54159E+00-1.24416E-13-8.86097E-13
 -1      1294 1.91052E+01 5.16778E+00 1.32418E-02-1.79083E+00-1.44024E-13-8.46826E-13
 -1      1295 1.94089E+01 4.56224E+00-1.91564E-02-1.90557E+00-2.63287E-13-6.60982E-13
 -1      1296 1.89372E+01 5.17173E+00 6.33455E-03-1.09732E+00-7.20283E-14-9.15559E-13
 -1      1297 1.89792E+01 5.18800E+00 1.30311E-02-1.31680E+00-8.99402E-14-9.00014E-13
 -1      1298 1.92251E+01 4.67476E+00-1.57020E-02-1.42073E+00-1.83188E-13-7.38888E-13
 -1      1299 1.88856E+01 5.19400E+00 7.87230E-03-6.79856E-01-3.05533E-14-9.13573E-13
 -1      1300 1.89089E+01 5.20297E+00 1.20705E-02-8.86940E-01-4.36404E-14-9.18139E-13
 -1      1301 1.91224E+01 4.74530E+00-1.36383E-02-9.84686E-01-9.74869E-14-7.69374E-13
 -1      1302 1.88610E+01 5.20745E+00 8.96804E-03-2.82801E-01 2.03025E-14-9.09231E-13
 -1      1303 1.88712E+01 5.21140E+00 1.09562E-02-4.81011E-01 8.15754E-15-9.09115E-13
 -1      1304 1.90654E+01 4.78800E+00-1.25526E-02-5.75980E-01-2.24067E-14-7.55097E-13
 -1      1305 1.88570E+01 5.21294E+00 9.97456E-03 1.06119E-01 5.38001E-14-8.93608E-13
 -1      1306 1.88567E+01 5.21281E+00 9.90237E-03-8.93709E-02 4.24589E-14-9.07845E-13
 -1      1307 1.90401E+01 4.80793E+00-1.20950E-02-1.84659E-01 5.18046E-14-7.55871E-13
 -1      1308 1.88727E+01 5.21097E+00 1.10489E-02 4.98347E-01 9.34799E-14-8.66026E-13
 -1      1309 1.88618E+01 5.20676E+00 8.90345E-03 2.99715E-01 7.99876E-14-8.83706E-13
 -1      1310 1.90409E+01 4.80726E+00-1.21143E-02 2.01289E-01 1.08865E-13-7.45178E-13
 -1      1311 1.89118E+01 5.20169E+00 1.21560E-02 9.05761E-01 1.29629E-13-8.17700E-13
 -1      1312 1.88877E+01 5.19258E+00 7.81316E-03 6.97712E-01 1.19049E-13-8.47829E-13
 -1      1313 1.90677E+01 4.78584E+00-1.26128E-02 5.93305E-01 1.74704E-13-7.10956E-13
 -1      1314 1.89830E+01 5.18603E+00 1.31460E-02 1.33436E+00 1.70252E-13-7.34303E-13
 -1      1315 1.89402E+01 5.16940E+00 6.20670E-03 1.11345E+00 1.55237E-13-7.85412E-13
 -1      1316 1.91263E+01 4.74168E+00-1.36491E-02 9.99866E-01 2.36853E-13-6.57058E-13
 -1      1317 1.91122E+01 5.16369E+00 1.32512E-02 1.81690E+00 2.17210E-13-5.83471E-13
 -1      1318 1.90348E+01 5.13397E+00 3.05719E-03 1.56486E+00 1.93901E-13-6.73015E-13
 -1      1319 1.92315E+01 4.66813E+00-1.58170E-02 1.43851E+00 2.98585E-13-5.58126E-13
 -1      1320 1.93525E+01 5.13536E+00 1.07384E-02 2.37437E+00 2.66679E-13-3.39801E-13
 -1      1321 1.92073E+01 5.07975E+00-4.23222E-03 2.07674E+00 2.39236E-13-4.87718E-13
 -1      1322 1.94205E+01 4.54951E+00-1.96609E-02 1.93229E+00 3.68525E-13-4.01304E-13
 -1      1323 1.98481E+01 5.09515E+00 6.67785E-03 3.06256E+00 2.95680E-13 9.97258E-14
 -1      1324 1.95452E+01 4.98294E+00-2.00912E-02 2.67424E+00 2.63005E-13-1.61607E-13
 -1      1325 1.97804E+01 4.34700E+00-2.42218E-02 2.50264E+00 4.24336E-13-1.25747E-13
 -1      1326 2.10690E+01 4.89628E+00 8.59763E-03 4.03457E+00 2.46581E-13 8.92245E-13
 -1      1327 2.03151E+01 4.72738E+00-4.72462E-02 3.39672E+00 2.44887E-13 4.12878E-13
 -1      1328 2.05518E+01 3.91098E+00-2.20521E-02 3.15518E+00 4.34972E-13 3.65763E-13
 -1      1329 2.71184E+01 3.19440E+00 9.23374E-01 4.56446E+00 1.12674E-13 2.32830E-12
 -1      1330 2.19718E+01 3.51478E+00-1.81011E-01 3.86835E+00 1.17906E-13 1.33557E-12
 -1      1331 2.20732E+01 2.55612E+00-3.24434E-02 3.43673E+00 3.92995E-13 1.07964E-12
 -1      1332 2.13655E+01 3.58818E-01-7.61854E-01 1.17647E+00 2.04642E-13 2.25020E-12
 -1      1333 2.19429E+01 1.30945E-01-4.00116E-01-1.27660E+00-2.38434E-13 1.44709E-12
 -1      1334 2.06300E+01 3.06008E-01-1.64188E-01-7.98365E-01-2.21809E-13 1.16364E-12
 -1      1335 2.00397E+01 1.53559E-01-7.31881E-02-3.94802E-01-1.78323E-13 1.04241E-12
 -1      1336 1.95788E+01 9.16047E-02-1.46072E-02-3.22620E-01-1.70506E-13 7.84671E-13
 -1      1337 2.09398E+01 3.68609E-01-1.04042E-01-1.25905E+00-3.87017E-13 5.77823E-13
 -1      1338 1.92309E+01 6.51917E-02 3.24752E-03-1.26757E-01-1.43214E-13 6.88873E-13
 -1      1339 1.90870E+01 4.23017E-02 1.34704E-02-1.08531E-01-1.36034E-13 4.84744E-13
 -1      1340 1.99058E+01 1.34510E-01-3.53039E-02-4.87802E-01-3.08000E-13 3.85636E-13
 -1      1341 1.89391E+01 3.28429E-02 1.34175E-02-1.63244E-02-9.77083E-14 3.92998E-13
 -1      1342 1.89339E+01 2.10864E-02 1.13157E-02-6.20740E-03-9.79780E-14 2.57384E-13
 -1      1343 1.94500E+01 5.71455E-02-8.89605E-03-1.49069E-01-2.32557E-13 2.25184E-13
 -1      1344 1.88950E+01 1.80843E-02 8.96376E-03 4.17421E-02-6.87421E-14 2.10738E-13
 -1      1345 1.89579E+01 1.16011E-02 6.75205E-03 4.75187E-02-6.70696E-14 1.16195E-13
 -1      1346 1.92702E+01 2.73105E-02-4.09231E-03 1.82230E-02-1.58374E-13 9.69815E-14
 -1      1347 1.89820E+01 1.08466E-02 4.88288E-03 7.49518E-02-7.31225E-14 7.90062E-14
 -1      1348 1.90821E+01 7.00917E-03 4.02789E-03 7.84742E-02-6.37580E-14-6.17735E-15
 -1      1349 1.92539E+01 1.45134E-02-3.06187E-03 1.09668E-01-1.30979E-13-4.38148E-15
 -1      1350 1.91451E+01 7.30478E-03 2.67242E-03 9.59154E-02-3.96466E-14-2.97401E-14
 -1      1351 1.92683E+01 5.03294E-03 2.68574E-03 9.84140E-02-3.74367E-14-9.70266E-14
 -1      1352 1.93365E+01 8.82653E-03-2.46617E-03 1.64465E-01-1.11353E-13-3.85332E-14
 -1      1353 1.93580E+01 5.94655E-03 1.56611E-03 1.11642E-01-4.51567E-14-1.22099E-13
 -1      1354 1.94986E+01 4.68543E-03 1.99970E-03 1.13929E-01-4.64737E-14-1.94914E-13
 -1      1355 1.94836E+01 6.86970E-03-2.06392E-03 2.02029E-01-9.57574E-14-9.48394E-14
 -1      1356 1.96096E+01 6.04740E-03 9.49422E-04 1.26592E-01-4.84482E-14-2.13711E-13
 -1      1357 1.97677E+01 5.45609E-03 1.60046E-03 1.29257E-01-7.20915E-14-2.77119E-13
 -1      1358 1.96782E+01 7.26922E-03-1.94241E-03 2.33672E-01-7.90010E-14-1.29476E-13
 -1      1359 1.98989E+01 7.19331E-03 5.25176E-04 1.43861E-01-5.11143E-14-2.84029E-13
 -1      1360 2.00778E+01 7.00937E-03 1.32020E-03 1.47352E-01 7.85190E-15-3.00454E-13
 -1      1361 1.99138E+01 9.32229E-03-2.10532E-03 2.66808E-01-8.19423E-14-1.31460E-13
 -1      1362 2.02312E+01 9.08099E-03 1.47881E-04 1.65628E-01 8.35042E-15-3.59369E-13
 -1      1363 2.04370E+01 9.04332E-03 1.06244E-03 1.70267E-01-2.45781E-14-3.74947E-13
 -1      1364 2.01912E+01 1.25571E-02-2.50050E-03 3.06561E-01-4.16793E-14-2.05452E-13
 -1      1365 2.06160E+01 1.13911E-02-2.72612E-04 1.93210E-01-3.16088E-14-3.76598E-13
 -1      1366 2.08562E+01 1.11753E-02 7.47647E-04 1.99164E-01-2.46741E-14-4.12803E-13
 -1      1367 2.05155E+01 1.64967E-02-3.05293E-03 3.56243E-01-3.90664E-14-3.17419E-13
 -1      1368 2.10651E+01 1.36609E-02-8.01474E-04 2.26781E-01 1.49867E-14-4.13803E-13
 -1      1369 2.13470E+01 1.28074E-02 3.03187E-04 2.33975E-01 9.57307E-15-3.49326E-13
 -1      1370 2.08943E+01 2.04473E-02-3.66103E-03 4.17120E-01-1.73971E-14-3.11375E-13
 -1      1371 2.15890E+01 1.51162E-02-1.46647E-03 2.64703E-01-8.21457E-15-3.65825E-13
 -1      1372 2.19174E+01 1.29483E-02-3.13066E-04 2.72626E-01-3.58201E-14-4.15600E-13
 -1      1373 2.13349E+01 2.32219E-02-4.16721E-03 4.87447E-01-3.18172E-14-3.04749E-13
 -1      1374 2.21927E+01 1.44474E-02-2.20304E-03 3.02319E-01-6.73191E-14-3.91513E-13
 -1      1375 2.25657E+01 1.00028E-02-1.04511E-03 3.09705E-01-4.28563E-14-4.36158E-13
 -1      1376 2.18412E+01 2.27658E-02-4.30644E-03 5.60601E-01-7.11492E-14-3.01815E-13
 -1      1377 2.28681E+01 9.56857E-03-2.74553E-03 3.30160E-01 3.30559E-14-4.16762E-13
 -1      1378 2.32707E+01 1.63384E-03-1.62009E-03 3.34514E-01-1.37639E-14-4.00142E-13
 -1      1379 2.24082E+01 1.57336E-02-3.63451E-03 6.22158E-01 6.24609E-15-2.36819E-13
 -1      1380 2.35834E+01-2.45716E-03-2.48460E-03 3.31859E-01-3.35326E-14-3.96815E-13
 -1      1381 2.39779E+01-1.49942E-02-1.40975E-03 3.28919E-01-7.35154E-15-3.98187E-13
 -1      1382 2.30152E+01-2.68705E-03-1.45918E-03 6.46206E-01 6.88533E-15-2.33069E-13
 -1      1383 2.42685E+01-2.48035E-02-3.93993E-04 2.83074E-01-3.92572E-14-4.20757E-13
 -1      1384 2.45854E+01-4.19132E-02 5.44135E-04 2.66669E-01-5.52154E-14-5.05871E-13
 -1      1385 2.36164E+01-3.79020E-02 3.13466E-03 5.92577E-01-3.36567E-14-2.66787E-13
 -1      1386 2.48020E+01-5.86801E-02 4.61218E-03 1.54745E-01-9.39179E-15-4.97465E-13
 -1      1387 2.49369E+01-7.70973E-02 5.00335E-03 1.18084E-01-3.22372E-14-5.35694E-13
 -1      1388 2.41322E+01-9.24403E-02 1.09349E-02 4.09653E-01-8.37299E-14-2.65669E-13
 -1      1389 2.50107E+01-9.84404E-02 1.24817E-02-7.35770E-02 3.41203E-14-6.01168E-13
 -1      1390 2.48409E+01-1.08992E-01 1.10582E-02-1.33301E-01 1.27901E-14-5.81670E-13
 -1      1391 2.44461E+01-1.58300E-01 2.15402E-02 5.15509E-02-2.59168E-14-2.23983E-13
 -1      1392 2.47026E+01-1.25260E-01 1.97892E-02-3.85100E-01 3.37230E-15-4.67893E-13
 -1      1393 2.41425E+01-1.12832E-01 1.47168E-02-4.57940E-01 8.35269E-15-4.60458E-13
 -1      1394 2.44195E+01-2.06265E-01 3.14570E-02-4.79972E-01 2.60382E-14-3.02716E-13
 -1      1395 2.37613E+01-1.07025E-01 1.97028E-02-6.90640E-01 1.35256E-14-5.30589E-13
 -1      1396 2.28532E+01-5.93300E-02 9.35372E-03-7.45745E-01 2.17586E-14-5.32213E-13
 -1      1397 2.39438E+01-1.86219E-01 3.24569E-02-1.07306E+00-1.35326E-14-3.80187E-13
 -1      1398 2.22950E+01-2.00394E-02 5.52012E-03-8.26524E-01 1.30629E-14-5.12840E-13
 -1      1399 2.12824E+01 5.43630E-02-8.15803E-03-8.20689E-01-2.68045E-14-5.25580E-13
 -1      1400 2.30372E+01-5.63267E-02 1.50213E-02-1.47232E+00 1.55852E-14-4.21954E-13
 -1      1401 2.07435E+01 1.11825E-01-1.86333E-02-6.41480E-01-4.93321E-14-5.01071E-13
 -1      1402 2.00208E+01 1.75636E-01-2.98614E-02-5.53958E-01 1.67401E-15-5.04208E-13
 -1      1403 2.19498E+01 1.55265E-01-2.16789E-02-1.37108E+00-3.36814E-14-3.24185E-13
 -1      1404 1.97576E+01 2.10113E-01-3.69567E-02-1.44086E-01 1.01585E-14-5.58630E-13
 -1      1405 1.96655E+01 2.18823E-01-3.85676E-02-9.11156E-03-7.66054E-14-5.59882E-13
 -1      1406 2.11405E+01 3.35973E-01-5.73637E-02-6.55202E-01-4.73302E-14-2.37076E-13
 -1      1407 1.98266E+01 1.97578E-01-3.40551E-02 4.32744E-01-4.76858E-14-6.67456E-13
 -1      1408 2.04120E+01 1.44651E-01-2.48351E-02 5.38519E-01-5.86094E-14-6.85799E-13
 -1      1409 2.10373E+01 3.62684E-01-6.17531E-02 3.98114E-01-9.01640E-14-4.43766E-13
 -1      1410 2.09053E+01 8.84964E-02-1.41425E-02 7.88277E-01-8.12848E-14-6.40162E-13
 -1      1411 2.18857E+01 1.22077E-02-3.62474E-04 8.15120E-01-4.19413E-15-7.17662E-13
 -1      1412 2.16985E+01 2.10859E-01-3.24214E-02 1.24467E+00-8.94510E-14-6.29760E-13
 -1      1413 2.24649E+01-3.46301E-02 5.83228E-03 7.95088E-01 6.53835E-14-6.81705E-13
 -1      1414 2.34344E+01-9.11407E-02 1.74965E-02 7.51704E-01 2.81650E-14-6.40946E-13
 -1      1415 2.27675E+01-6.09506E-03 6.88939E-03 1.50871E+00 1.62010E-14-6.99277E-13
 -1      1416 2.38758E+01-1.04996E-01 1.43900E-02 5.45189E-01-2.25982E-14-4.67321E-13
 -1      1417 2.45409E+01-1.25704E-01 2.07765E-02 4.73403E-01-2.49453E-15-5.24900E-13
 -1      1418 2.37606E+01-1.63431E-01 2.98732E-02 1.21297E+00 8.19362E-14-5.38273E-13
 -1      1419 2.47463E+01-1.13352E-01 1.23949E-02 2.17477E-01-4.83710E-14-4.80154E-13
 -1      1420 2.50177E+01-1.07109E-01 1.45962E-02 1.52971E-01-2.94556E-15-5.35445E-13
 -1      1421 2.43645E+01-2.08972E-01 3.27258E-02 6.42888E-01 1.84817E-14-4.08750E-13
 -1      1422 2.49987E+01-8.57239E-02 6.45564E-03-5.66195E-02 6.05696E-14-4.81404E-13
 -1      1423 2.49388E+01-6.81070E-02 6.44586E-03-9.89372E-02 5.29750E-14-3.95902E-13
 -1      1424 2.45100E+01-1.73076E-01 2.41152E-02 8.22590E-02 1.89328E-14-2.24633E-13
 -1      1425 2.47601E+01-4.95485E-02 1.44089E-03-2.29080E-01-1.68338E-14-4.27346E-13
 -1      1426 2.44896E+01-3.14980E-02 6.57719E-04-2.49617E-01-1.87931E-14-5.13535E-13
 -1      1427 2.42846E+01-1.07747E-01 1.31815E-02-3.20039E-01-9.58608E-15-2.32496E-13
 -1      1428 2.42231E+01-1.97485E-02-1.10424E-03-3.07941E-01-8.42993E-14-5.37950E-13
 -1      1429 2.38549E+01-5.85940E-03-2.08210E-03-3.13062E-01-1.00068E-13-6.92548E-13
 -1      1430 2.38269E+01-4.84153E-02 4.50123E-03-5.39523E-01-1.08864E-13-2.71703E-13
 -1      1431 2.35581E+01-2.81980E-04-1.67984E-03-3.21650E-01 8.91003E-15-6.44580E-13
 -1      1432 2.31720E+01 8.81196E-03-2.70080E-03-3.17906E-01 4.56296E-14-6.12439E-13
 -1      1433 2.32628E+01-7.71613E-03-9.28465E-04-6.14702E-01-9.40177E-14-1.84405E-13
 -1      1434 2.28827E+01 1.02495E-02-1.26076E-03-2.98132E-01 1.85746E-15-6.16731E-13
 -1      1435 2.25246E+01 1.54943E-02-2.29421E-03-2.90285E-01-2.43533E-15-5.81798E-13
 -1      1436 2.26829E+01 1.50464E-02-3.70775E-03-5.98153E-01 3.44462E-14-3.05284E-13
 -1      1437 2.22639E+01 1.46599E-02-5.75565E-04-2.57648E-01 2.98056E-14-6.26679E-13
 -1      1438 2.19548E+01 1.72764E-02-1.58727E-03-2.48598E-01 1.65471E-14-5.62501E-13
 -1      1439 2.21423E+01 2.50301E-02-4.76204E-03-5.33618E-01 3.53383E-14-4.01783E-13
 -1      1440 2.17317E+01 1.54473E-02 1.54451E-05-2.12643E-01 4.54957E-14-6.14062E-13
 -1      1441 2.14771E+01 1.64414E-02-9.28210E-04-2.03925E-01 8.05586E-14-4.86785E-13
 -1      1442 2.16683E+01 2.73406E-02-4.84337E-03-4.50547E-01-1.66100E-14-4.15849E-13
 -1      1443 2.12931E+01 1.43578E-02 4.05012E-04-1.69787E-01 2.93097E-14-3.52979E-13
 -1      1444 2.10905E+01 1.44303E-02-4.31049E-04-1.62094E-01-3.45624E-14-3.53772E-13
 -1      1445 2.12701E+01 2.56631E-02-4.44354E-03-3.66117E-01 5.29054E-14-4.32115E-13
 -1      1446 2.09431E+01 1.24643E-02 6.07158E-04-1.32103E-01-2.09661E-13-3.19341E-13
 -1      1447 2.07860E+01 1.20610E-02-9.96252E-05-1.25655E-01-2.14317E-13-6.04809E-13
 -1      1448 2.09461E+01 2.22744E-02-3.84872E-03-2.89035E-01-1.36021E-13-3.11315E-13
 -1      1449 2.06706E+01 1.03673E-02 6.73919E-04-1.00530E-01-7.68389E-14-6.24556E-13
 -1      1450 2.05516E+01 9.75567E-03 1.00111E-04-9.53037E-02-8.31482E-14-7.98158E-13
 -1      1451 2.06892E+01 1.84371E-02-3.21289E-03-2.22831E-01-2.21467E-13-3.14926E-13
 -1      1452 2.04631E+01 8.37372E-03 6.56878E-04-7.49190E-02-4.75642E-14-8.11459E-13
 -1      1453 2.03749E+01 7.70685E-03 2.06984E-04-7.07851E-02-7.43463E-14-8.12070E-13
 -1      1454 2.04897E+01 1.47834E-02-2.61292E-03-1.68167E-01-7.80420E-14-4.37620E-13
 -1      1455 2.03084E+01 6.62203E-03 5.94608E-04-5.46227E-02-1.57230E-14-9.11428E-13
 -1      1456 2.02445E+01 5.98364E-03 2.52469E-04-5.14105E-02 7.38340E-14-8.71252E-13
 -1      1457 2.03381E+01 1.15888E-02-2.08312E-03-1.24253E-01-2.65924E-14-6.41707E-13
 -1      1458 2.01957E+01 5.16097E-03 5.11094E-04-3.88047E-02 9.60534E-14-5.60273E-13
 -1      1459 2.01506E+01 4.59359E-03 2.57360E-04-3.63385E-02 1.24242E-13-3.81881E-13
 -1      1460 2.02252E+01 8.94292E-03-1.63556E-03-8.96710E-02 2.47877E-13-4.82103E-13
 -1      1461 2.01156E+01 3.99480E-03 4.17093E-04-2.66013E-02 1.26218E-13-3.66555E-13
 -1      1462 2.00851E+01 3.51615E-03 2.31223E-04-2.47142E-02 1.73740E-13-2.41325E-13
 -1      1463 2.01431E+01 6.84683E-03-1.27171E-03-6.28018E-02 2.73827E-13-2.78365E-13
 -1      1464 2.00609E+01 3.10734E-03 3.11489E-04-1.71952E-02 1.67446E-13-8.84050E-14
 -1      1465 2.00416E+01 2.71786E-03 1.75175E-04-1.57338E-02 7.65018E-14 1.86113E-14
 -1      1466 2.00851E+01 5.26569E-03-9.88315E-04-4.20484E-02 3.55480E-13 3.62199E-14
 -1      1467 2.00258E+01 2.46703E-03 1.87516E-04-9.85664E-03-1.41342E-13 1.09163E-13
 -1      1468 2.00152E+01 2.13898E-03 9.88588E-05-8.68549E-03-1.38778E-13-1.10181E-13
 -1      1469 2.00458E+01 4.14901E-03-7.75969E-04-2.59475E-02-5.20644E-14 1.71803E-13
 -1      1470 2.00059E+01 1.97822E-03 6.21842E-05-4.05077E-03-2.94254E-14-1.69196E-13
 -1      1471 2.00023E+01 1.62143E-03 6.85472E-05-3.07768E-03 5.48560E-14-1.88731E-13
 -1      1472 2.00210E+01 3.37520E-03-5.97295E-04-1.33146E-02-1.43702E-13 3.55325E-13
 -1      1473 1.99976E+01 1.65732E-03 1.07885E-04 3.55808E-04 2.93672E-14-2.39479E-13
 -1      1474 1.99991E+01 8.16725E-04 3.94005E-04 1.17227E-03 7.34376E-15-8.50949E-14
 -1      1475 2.00071E+01 2.57537E-03-3.81830E-04-3.65692E-03 1.06818E-13 2.48772E-13
 -1      1476 1.99981E+01-1.05289E-03 9.53249E-04 1.66780E-03 2.39964E-14-5.39951E-14
 -1      1477 2.00008E+01-8.15054E-04 1.49121E-04 2.04680E-03 8.36517E-14 1.53075E-13
 -1      1478 2.02127E+01 7.54282E-02-1.51614E-01 4.77671E-01 1.89949E-13 1.82593E-12
 -1      1479 2.14729E+01 2.15867E-01-2.29028E-01 7.14077E-01 1.64799E-13 2.11069E-12
 -1      1480 2.16835E+01 8.79220E-01-8.54881E-02 2.05052E+00 3.21840E-13 1.41887E-12
 -1      1481 1.93015E+01 3.26801E-02-2.12012E-02 1.79563E-01 1.32288E-13 1.46883E-12
 -1      1482 1.97135E+01 1.13817E-01-6.23994E-02 2.31655E-01 1.28047E-13 1.68254E-12
 -1      1483 2.02741E+01 1.87469E-01-5.51747E-02 7.73605E-01 2.74530E-13 1.14605E-12
 -1      1484 1.89405E+01 1.57394E-02 5.62117E-03 4.52215E-02 9.71688E-14 1.19914E-12
 -1      1485 1.90688E+01 5.23713E-02 1.15203E-03 7.19609E-02 9.98394E-14 1.36411E-12
 -1      1486 1.95477E+01 7.25437E-02-1.23030E-02 2.84438E-01 2.19300E-13 9.26322E-13
 -1      1487 1.88583E+01 8.12394E-03 6.82055E-03-2.06805E-02 6.51389E-14 1.02781E-12
 -1      1488 1.88587E+01 2.71868E-02 1.12257E-02-5.47942E-03 5.93184E-14 1.12324E-12
 -1      1489 1.92366E+01 3.25471E-02-2.75766E-03 6.39431E-02 1.50143E-13 7.59458E-13
 -1      1490 1.89243E+01 4.64060E-03 4.52833E-03-5.60906E-02 5.26541E-14 8.61328E-13
 -1      1491 1.88602E+01 1.58171E-02 8.67158E-03-4.67216E-02 5.32981E-14 9.54752E-13
 -1      1492 1.91533E+01 1.56397E-02-2.07648E-03-4.91934E-02 1.18348E-13 6.32425E-13
 -1      1493 1.90751E+01 2.99730E-03 2.92656E-03-7.67399E-02 2.37813E-14 7.74795E-13
 -1      1494 1.89755E+01 1.01177E-02 5.55302E-03-7.04600E-02 2.56308E-14 7.98986E-13
 -1      1495 1.92009E+01 7.90729E-03-2.30288E-03-1.12453E-01 6.82327E-14 5.27674E-13
 -1      1496 1.92788E+01 2.35402E-03 2.00648E-03-9.03618E-02 6.69378E-14 6.84819E-13
 -1      1497 1.91574E+01 7.29060E-03 3.65756E-03-8.56483E-02 3.20990E-14 7.36178E-13
 -1      1498 1.93278E+01 4.42751E-03-2.32012E-03-1.51142E-01 6.27176E-14 4.56142E-13
 -1      1499 1.95205E+01 2.33775E-03 1.37605E-03-1.01387E-01 4.94605E-14 5.37657E-13
 -1      1500 1.93830E+01 6.15305E-03 2.59657E-03-9.72542E-02 7.69544E-14 6.34181E-13
 -1      1501 1.95072E+01 3.27133E-03-2.28826E-03-1.78397E-01 1.20858E-13 3.82931E-13
 -1      1502 1.97954E+01 2.72428E-03 8.37195E-04-1.12593E-01 4.41563E-14 4.12856E-13
 -1      1503 1.96428E+01 6.11130E-03 1.95322E-03-1.08352E-01 3.27123E-14 4.74497E-13
 -1      1504 1.97265E+01 3.53040E-03-2.36456E-03-2.01911E-01 9.94057E-14 2.89415E-13
 -1      1505 2.01049E+01 3.32653E-03 3.30692E-04-1.25679E-01 5.71405E-14 3.54590E-13
 -1      1506 1.99354E+01 6.77481E-03 1.51135E-03-1.20854E-01 4.85446E-14 4.16590E-13
 -1      1507 1.99811E+01 4.64585E-03-2.58897E-03-2.26422E-01 7.67354E-14 2.03171E-13
 -1      1508 2.04538E+01 3.93618E-03-1.38309E-04-1.41406E-01 4.91322E-14 2.89161E-13
 -1      1509 2.02639E+01 7.79035E-03 1.16897E-03-1.35727E-01 4.14472E-14 3.37773E-13
 -1      1510 2.02717E+01 6.15082E-03-2.93236E-03-2.54584E-01 5.29060E-14 1.96826E-13
 -1      1511 2.08474E+01 4.27578E-03-5.20886E-04-1.59462E-01 9.55204E-15 2.89890E-13
 -1      1512 2.06334E+01 8.73622E-03 8.71542E-04-1.52920E-01 5.12502E-15 2.54546E-13
 -1      1513 2.06009E+01 7.52696E-03-3.31801E-03-2.87071E-01 3.49180E-14 1.27782E-13
 -1      1514 2.12882E+01 3.95057E-03-7.10785E-04-1.78096E-01 3.67130E-14 2.20013E-13
 -1      1515 2.10482E+01 9.02679E-03 5.90932E-04-1.71068E-01 3.12917E-14 2.45967E-13
 -1      1516 2.09708E+01 8.08470E-03-3.60931E-03-3.22183E-01 4.16670E-14 7.44125E-14
 -1      1517 2.17713E+01 2.40980E-03-5.13113E-04-1.93544E-01 2.15991E-14 6.95780E-14
 -1      1518 2.15076E+01 7.82140E-03 3.32447E-04-1.86993E-01 4.33405E-14 1.67557E-13
 -1      1519 2.13799E+01 6.84874E-03-3.57901E-03-3.55027E-01 7.73148E-14 8.43249E-15
 -1      1520 2.22785E+01-1.04620E-03 3.86552E-04-1.99333E-01 3.73406E-14 5.86961E-14
 -1      1521 2.20013E+01 3.97294E-03 1.60120E-04-1.95063E-01 2.73883E-14 9.66779E-14
 -1      1522 2.18186E+01 2.47930E-03-2.87598E-03-3.76391E-01 4.76362E-14-2.87530E-15
 -1      1523 2.27714E+01-7.13058E-03 2.40862E-03-1.85791E-01-5.60833E-14 9.71064E-14
 -1      1524 2.25027E+01-3.88235E-03 2.28660E-04-1.86685E-01-4.83173E-14 5.26541E-14
 -1      1525 2.22647E+01-6.66531E-03-1.02113E-03-3.71665E-01-2.10029E-14 4.74941E-14
 -1      1526 2.31839E+01-1.61687E-02 5.92695E-03-1.40527E-01 3.98952E-14 1.76611E-13
 -1      1527 2.29624E+01-1.68978E-02 7.87204E-04-1.50525E-01 1.38106E-14 1.58748E-13
 -1      1528 2.26777E+01-2.20976E-02 2.50115E-03-3.20765E-01-3.27733E-14 3.83062E-14
 -1      1529 2.34210E+01-2.72979E-02 1.08484E-02-5.12881E-02-4.95155E-14 2.85705E-14
 -1      1530 2.33026E+01-3.49948E-02 2.07880E-03-7.46493E-02 1.41341E-14 9.40290E-14
 -1      1531 2.29952E+01-4.40651E-02 7.94520E-03-2.00933E-01 5.11136E-14 5.25643E-14
 -1      1532 2.33686E+01-3.73697E-02 1.59083E-02 8.71010E-02-1.39819E-15 1.30868E-13
 -1      1533 2.34208E+01-5.51667E-02 4.05210E-03 4.78462E-02-5.37279E-14 9.48230E-14
 -1      1534 2.31358E+01-6.94674E-02 1.47327E-02 4.77729E-03-7.94590E-14-3.75309E-14
 -1      1535 2.29264E+01-4.03033E-02 1.80489E-02 2.61352E-01-8.14652E-14 1.95614E-13
 -1      1536 2.32082E+01-6.97745E-02 5.91629E-03 2.09003E-01-3.50570E-14 2.19005E-13
 -1      1537 2.30132E+01-8.93334E-02 2.07977E-02 2.91243E-01-7.50303E-14 1.27274E-13
 -1      1538 2.20680E+01-2.86805E-02 1.29037E-02 4.28289E-01 1.15307E-14 2.52923E-13
 -1      1539 2.25933E+01-6.69822E-02 5.82796E-03 3.74814E-01-3.30742E-14 2.20969E-13
 -1      1540 2.25693E+01-8.81372E-02 2.25066E-02 6.10177E-01-1.37316E-13 2.02637E-13
 -1      1541 2.09106E+01 6.58147E-04-2.29236E-03 5.16209E-01 5.97802E-14 1.20515E-13
 -1      1542 2.16065E+01-3.64958E-02 1.51879E-03 4.82658E-01 5.98675E-14 2.35680E-13
 -1      1543 2.18247E+01-4.96481E-02 1.61032E-02 8.58601E-01 7.24889E-14 1.73703E-13
 -1      1544 1.97447E+01 3.96042E-02-2.38462E-02 4.54450E-01-9.10730E-15-7.61891E-15
 -1      1545 2.04356E+01 1.95828E-02-7.38763E-03 4.62214E-01 6.79274E-15 6.57321E-14
 -1      1546 2.09248E+01 2.87469E-02 1.39287E-03 9.03485E-01 6.62057E-14 1.66409E-13
 -1      1547 1.89600E+01 6.87281E-02-4.06146E-02 2.26756E-01-2.28637E-14 5.53516E-14
 -1      1548 1.94156E+01 7.96778E-02-1.70904E-02 2.81805E-01-3.58082E-14 4.69763E-15
 -1      1549 2.01338E+01 1.21402E-01-1.56271E-02 6.56439E-01-1.04951E-14 8.52755E-14
 -1      1550 1.88628E+01 7.01586E-02-4.09101E-02-9.40595E-02-2.81676E-14 1.13158E-13
 -1      1551 1.89065E+01 1.12246E-01-2.10835E-02-1.06743E-02 5.89095E-14 1.65819E-13
 -1      1552 1.97396E+01 1.79533E-01-2.59669E-02 1.59744E-01-1.89813E-14 1.35821E-13
 -1      1553 1.94954E+01 4.29905E-02-2.32533E-02-3.76424E-01 5.22134E-14 1.32047E-13
 -1      1554 1.91086E+01 9.91743E-02-1.54591E-02-2.99607E-01-3.55965E-14 7.27335E-14
 -1      1555 1.99010E+01 1.65144E-01-2.48183E-02-4.01900E-01-4.20497E-15 1.91205E-13
 -1      1556 2.06083E+01 4.38736E-03 1.80774E-03-5.13330E-01 7.79988E-14-6.08472E-14
 -1      1557 1.99418E+01 5.09888E-02-3.10010E-03-4.71169E-01 8.99489E-14 8.99350E-14
 -1      1558 2.05506E+01 8.51445E-02-1.52522E-02-8.03606E-01 1.39107E-13 6.44120E-14
 -1      1559 2.18122E+01-2.58720E-02 2.08987E-02-4.83423E-01-2.48759E-14-3.23838E-14
 -1      1560 2.10958E+01-3.69189E-03 8.84447E-03-4.82054E-01-7.21055E-14-1.16081E-13
 -1      1561 2.14396E+01-1.33880E-02-4.11012E-03-9.18783E-01-1.19822E-14 6.31231E-14
 -1      1562 2.27774E+01-3.87272E-02 2.76384E-02-3.40975E-01-3.37924E-14-9.83102E-14
 -1      1563 2.22039E+01-4.10728E-02 1.48505E-02-3.67891E-01 5.75226E-14 1.84575E-15
 -1      1564 2.22803E+01-8.32992E-02 3.62171E-03-7.71333E-01 1.13191E-15 3.38653E-14
 -1      1565 2.33419E+01-3.66663E-02 2.41418E-02-1.63374E-01 5.77819E-14-1.89551E-13
 -1      1566 2.30047E+01-5.41660E-02 1.42495E-02-2.00519E-01 1.84748E-15-2.12691E-13
 -1      1567 2.28731E+01-1.07018E-01 6.86356E-03-4.80124E-01 6.09686E-14-1.00483E-13
 -1      1568 2.35033E+01-2.69805E-02 1.60080E-02-7.98133E-03-1.47562E-13-6.75577E-14
 -1      1569 2.34017E+01-4.90471E-02 9.82527E-03-4.19380E-02-8.78325E-14-1.52265E-13
 -1      1570 2.31472E+01-9.47451E-02 6.90895E-03-1.70314E-01-8.25607E-14-7.10451E-14
 -1      1571 2.33514E+01-1.59083E-02 7.85038E-03 1.00099E-01-1.28085E-13 3.35874E-13
 -1      1572 2.34310E+01-3.54756E-02 4.73002E-03 7.54337E-02-1.57286E-13 5.70136E-14
 -1      1573 2.31320E+01-6.60967E-02 5.43919E-03 7.92801E-02-2.48180E-13-8.78911E-14
 -1      1574 2.30024E+01-6.76867E-03 1.85223E-03 1.59836E-01 1.76209E-13 1.56219E-13
 -1      1575 2.31943E+01-2.08816E-02 8.27882E-04 1.45152E-01 1.02690E-13 3.09747E-13
 -1      1576 2.29065E+01-3.63801E-02 3.64794E-03 2.41570E-01 6.27059E-14-1.56030E-14
 -1      1577 2.25593E+01-5.18142E-04-1.67786E-03 1.81666E-01-3.06700E-14 9.04155E-14
 -1      1578 2.28033E+01-8.99616E-03-1.40180E-03 1.75044E-01 3.46734E-14 1.74409E-13
 -1      1579 2.25573E+01-1.30630E-02 2.11312E-03 3.23154E-01 9.61798E-14-9.65374E-14
 -1      1580 2.20970E+01 3.12764E-03-3.28679E-03 1.78466E-01 1.48051E-13-1.63992E-13
 -1      1581 2.23503E+01-8.15322E-04-2.26646E-03 1.77351E-01 9.16033E-14 6.72726E-15
 -1      1582 2.21573E+01 2.21836E-03 9.96729E-04 3.44611E-01 1.69918E-13-5.95500E-14
 -1      1583 2.16622E+01 4.85938E-03-3.68401E-03 1.61194E-01-4.15164E-14-2.40292E-13
 -1      1584 2.18987E+01 4.05570E-03-2.28922E-03 1.63351E-01 3.45439E-14-2.13377E-13
 -1      1585 2.17577E+01 1.06688E-02 2.63687E-04 3.27873E-01 7.91083E-14-2.11689E-13
 -1      1586 2.12793E+01 5.35647E-03-3.43813E-03 1.37679E-01 4.82405E-15 8.85923E-15
 -1      1587 2.14859E+01 6.46675E-03-1.91390E-03 1.41472E-01-9.33057E-14-1.09878E-13
 -1      1588 2.13898E+01 1.42871E-02-1.80005E-04 2.90673E-01-1.44934E-13-1.32627E-13
 -1      1589 2.09575E+01 5.14252E-03-2.91863E-03 1.12869E-01 1.03331E-13-3.78233E-13
 -1      1590 2.11296E+01 7.25429E-03-1.42302E-03 1.17232E-01 1.21104E-13-1.61480E-13
 -1      1591 2.10694E+01 1.48964E-02-4.24149E-04 2.45330E-01 1.78660E-13-4.08116E-13
 -1      1592 2.06965E+01 4.57349E-03-2.33423E-03 8.95565E-02-1.22268E-13-2.93745E-13
 -1      1593 2.08348E+01 7.07526E-03-9.61632E-04 9.38565E-02 6.11013E-15-2.87504E-13
 -1      1594 2.08014E+01 1.38488E-02-5.37447E-04 1.99475E-01 3.87483E-14-1.50773E-13
 -1      1595 2.04911E+01 3.87172E-03-1.78826E-03 6.90818E-02 1.52330E-15-1.48423E-13
 -1      1596 2.05990E+01 6.38877E-03-5.86541E-04 7.29870E-02 7.78923E-15-1.41253E-13
 -1      1597 2.05846E+01 1.20365E-02-5.68373E-04 1.57301E-01-5.78777E-14 6.34821E-14
 -1      1598 2.03337E+01 3.16630E-03-1.32331E-03 5.18888E-02-2.84703E-14-1.35808E-14
 -1      1599 2.04155E+01 5.49176E-03-3.07515E-04 5.52588E-02-7.91613E-14-1.62689E-13
 -1      1600 2.04139E+01 1.00007E-02-5.50404E-04 1.20712E-01-6.42467E-14 4.47935E-15
 -1      1601 2.02162E+01 2.52683E-03-9.50887E-04 3.79039E-02-4.47575E-14-4.81921E-14
 -1      1602 2.02766E+01 4.56514E-03-1.13916E-04 4.07146E-02-1.74443E-14-5.15533E-14
 -1      1603 2.02830E+01 8.04396E-03-5.07012E-04 9.02132E-02-2.62568E-14 2.51362E-14
 -1      1604 2.01310E+01 1.98778E-03-6.69837E-04 2.67769E-02 1.39483E-13-1.53107E-13
 -1      1605 2.01743E+01 3.71418E-03 1.01721E-05 2.90726E-02 6.33026E-14-1.47901E-13
 -1      1606 2.01851E+01 6.32080E-03-4.56041E-04 6.55011E-02 1.21449E-13-7.67648E-14
 -1      1607 2.00716E+01 1.56269E-03-4.76443E-04 1.80239E-02 2.17194E-14-4.00723E-13
 -1      1608 2.01013E+01 2.99742E-03 7.80647E-05 1.98894E-02 7.25379E-14-2.93614E-13
 -1      1609 2.01141E+01 4.90060E-03-4.12472E-04 4.58480E-02 8.22630E-14-7.64879E-14
 -1      1610 2.00324E+01 1.24668E-03-3.66109E-04 1.11217E-02 7.94399E-14-4.90239E-13
 -1      1611 2.00515E+01 2.43951E-03 9.69144E-05 1.26621E-02 1.17127E-13-3.63595E-13
 -1      1612 2.00645E+01 3.80227E-03-3.88680E-04 3.03371E-02 1.35408E-13-2.30572E-13
 -1      1613 2.00094E+01 1.02023E-03-3.10739E-04 5.59364E-03 1.64798E-13-7.27219E-13
 -1      1614 2.00200E+01 2.03449E-03 7.35571E-05 6.91832E-03 1.08185E-13-5.08222E-13
 -1      1615 2.00318E+01 3.00220E-03-3.88612E-04 1.80421E-02 1.70845E-13-2.96363E-13
 -1      1616 1.99992E+01 8.23841E-04-1.64095E-04 1.09701E-03-1.13342E-13-8.00685E-13
 -1      1617 2.00028E+01 1.72181E-03 5.52164E-05 2.32182E-03-1.97642E-14-7.72342E-13
 -1      1618 2.00123E+01 2.46435E-03-3.58022E-04 8.23661E-03 9.06736E-14-2.68040E-13
 -1      1619 1.99983E+01 2.98994E-04 4.82737E-04-1.80874E-03 1.97997E-14-5.92741E-13
 -1      1620 1.99968E+01 1.05006E-03 2.01792E-04-9.41948E-04-4.03588E-14-7.32248E-13
 -1      1621 2.00027E+01 1.53055E-03-1.86096E-04 7.11103E-04-6.54120E-14-3.27944E-13
 -1      1622 1.99984E+01-1.10688E-03 8.85348E-04-1.46684E-03-3.35607E-13-4.37105E-13
 -1      1623 2.00012E+01-1.57473E-03-1.72515E-04 2.43899E-04-1.60312E-13 4.56312E-13
 -1      1624 2.00009E+01-8.26438E-04 2.84799E-04-4.76305E-04-5.16843E-13 2.11035E-13
 -1      1625 2.00013E+01 6.75498E-03-2.52826E-04 4.43812E-03 4.10747E-13 3.30065E-13
 -1      1626 2.00014E+01 2.72321E-03-1.34755E-04 3.53601E-03-5.67519E-14 4.53782E-13
 -1      1627 2.00027E+01 7.12250E-03-2.81934E-04 4.31505E-03-2.38123E-15 5.88406E-13
 -1      1628 2.00008E+01 2.25041E-02-1.80140E-04 8.06946E-03 5.80474E-13-5.06023E-14
 -1      1629 2.00011E+01 1.39622E-02-1.66463E-04 7.42015E-03 5.59819E-13 1.26013E-13
 -1      1630 2.00023E+01 1.88110E-02-3.93095E-04 1.19111E-02 5.87853E-14 3.19897E-13
 -1      1631 2.00000E+01 4.29274E-02-9.07293E-05 9.94072E-03 8.67805E-13-1.48434E-13
 -1      1632 2.00004E+01 3.17916E-02-1.02525E-04 9.71851E-03 8.27373E-13 1.10859E-13
 -1      1633 2.00012E+01 3.56206E-02-2.07424E-04 1.74700E-02 2.40903E-13 1.01283E-13
 -1      1634 1.99992E+01 6.36355E-02-3.47733E-05 9.72033E-03 2.40971E-13-4.77899E-13
 -1      1635 1.99996E+01 5.25696E-02-4.12326E-05 9.92230E-03 7.85506E-13-4.55786E-13
 -1      1636 1.99999E+01 5.48264E-02 3.52091E-05 1.93640E-02 2.83674E-13-5.56929E-13
 -1      1637 1.99986E+01 8.12743E-02 7.19686E-07 7.53904E-03-1.65816E-14-1.51435E-13
 -1      1638 1.99989E+01 7.22554E-02-2.19363E-06 8.11151E-03 2.19718E-13-1.95871E-13
 -1      1639 1.99987E+01 7.32785E-02 2.64469E-04 1.73392E-02 2.07777E-13-5.19261E-13
 -1      1640 1.99982E+01 9.20693E-02 1.84452E-05 3.87601E-03-2.80211E-13-1.31405E-13
 -1      1641 1.99984E+01 8.71241E-02 1.78831E-05 4.69115E-03-7.31486E-14-1.41588E-13
 -1      1642 1.99977E+01 8.78587E-02 4.39316E-04 1.18795E-02-1.38810E-13-2.78709E-13
 -1      1643 1.99981E+01 9.39872E-02 2.32267E-05-5.40331E-04-6.63920E-13-2.44674E-13
 -1      1644 1.99981E+01 9.41045E-02 2.48064E-05 3.59593E-04-4.56372E-13-1.62319E-14
 -1      1645 1.99972E+01 9.58035E-02 5.33667E-04 4.11620E-03-1.69350E-13-3.59318E-13
 -1      1646 1.99984E+01 8.66621E-02 1.52064E-05-4.86578E-03-1.18953E-12-2.39797E-13
 -1      1647 1.99982E+01 9.18352E-02 1.96586E-05-4.05268E-03-8.81815E-13-1.98111E-13
 -1      1648 1.99972E+01 9.56954E-02 5.33811E-04-4.45158E-03-4.20235E-13-4.60045E-13
 -1      1649 1.99989E+01 7.14829E-02-8.13401E-06-8.26206E-03-1.46749E-12-2.98641E-13
 -1      1650 1.99986E+01 8.07007E-02 2.19000E-06-7.69845E-03-1.15902E-12-3.06117E-13
 -1      1651 1.99978E+01 8.75369E-02 4.38085E-04-1.21934E-02-5.55211E-13-3.41651E-13
 -1      1652 1.99996E+01 5.17540E-02-4.56002E-05-1.00115E-02-1.32809E-12 1.47085E-13
 -1      1653 1.99992E+01 6.29400E-02-3.69389E-05-9.82039E-03-1.35250E-12 2.75583E-14
 -1      1654 1.99987E+01 7.29073E-02 2.66504E-04-1.75678E-02-5.48392E-13-1.47355E-13
 -1      1655 2.00004E+01 3.07328E-02-1.06076E-04-9.72658E-03-8.75589E-13 2.04818E-13
 -1      1656 2.00000E+01 4.18784E-02-9.91883E-05-9.97261E-03-1.31353E-12 3.17170E-13
 -1      1657 2.00000E+01 5.43143E-02 3.09206E-05-1.94844E-02-4.87023E-13 3.87280E-13
 -1      1658 2.00011E+01 1.29743E-02-2.00289E-04-7.29780E-03-6.35168E-13 2.14715E-13
 -1      1659 2.00008E+01 2.14468E-02-1.86359E-04-7.97404E-03-9.81123E-13 3.49912E-13
 -1      1660 2.00013E+01 3.48715E-02-2.16363E-04-1.74016E-02-4.64674E-13 3.41135E-13
 -1      1661 2.00017E+01 2.17446E-03-6.77104E-05-3.45289E-03-3.46981E-13 2.17170E-13
 -1      1662 2.00012E+01 5.97708E-03-2.81898E-04-4.41543E-03-5.31562E-13 1.58100E-13
 -1      1663 2.00022E+01 1.83004E-02-4.03666E-04-1.16149E-02-4.18939E-13 2.98299E-13
 -1      1664 2.00018E+01 6.74741E-04 2.61637E-04-2.49626E-04-5.91846E-14 1.60431E-14
 -1      1665 2.00020E+01 1.64144E-04-2.50576E-04-1.21093E-03-1.95792E-13 1.89339E-13
 -1      1666 2.00045E+01 9.76586E-03 6.39886E-05-5.88743E-03-3.21363E-13 3.63987E-13
 -1      1667 2.00048E+01 5.46205E-03 3.29669E-04-1.69960E-03-5.44408E-14 1.66845E-13
 -1      1668-6.25276E-01-1.46866E+01-1.70769E+00-9.82431E-01 1.15702E-12 9.94010E-13
 -1      1669-5.99733E-01-1.68189E+01-1.90151E+00 3.11286E-01 1.18239E-14 5.77205E-13
 -1      1670 1.35318E+00-7.88587E+00-1.19062E+00 5.53117E-01 2.58082E-12 1.71396E-12
 -1      1671 5.83115E-01-1.30904E+01-1.72025E+00-8.19448E-02 1.50679E-12 1.24723E-12
 -1      1672 7.02000E+00-4.46021E-01-5.33320E-01 4.59559E+00 2.96052E-12 2.01184E-12
 -1      1673 3.95924E+00-5.84015E+00-1.27939E+00 1.77977E+00 2.75202E-12 1.70264E-12
 -1      1674 1.68332E+01 4.94692E+00 1.85424E-01 9.51884E+00 2.32836E-12 2.10354E-12
 -1      1675 1.05927E+01 1.60797E+00-6.68754E-01 5.89483E+00 2.90978E-12 2.06557E-12
 -1      1676 3.13993E+01 6.03001E+00 9.21626E-01 1.20767E+01 1.44662E-12 1.79812E-12
 -1      1677 2.23765E+01 5.57159E+00 9.73143E-02 1.00354E+01 1.88660E-12 2.03704E-12
 -1      1678 4.52608E+01 5.03206E+00 1.53481E+00 1.03238E+01 8.25368E-13 1.16185E-12
 -1      1679 3.64887E+01 6.58286E+00 8.80899E-01 1.18231E+01 1.23335E-12 1.63802E-12
 -1      1680 5.33681E+01 3.60937E+00 1.76507E+00 3.79282E+00 4.79505E-13 7.08322E-14
 -1      1681 4.87464E+01 4.91067E+00 1.48129E+00 8.47225E+00 6.75460E-13 8.58313E-13
 -1      1682 5.26778E+01 4.01782E+00 1.64065E+00-4.23759E+00 6.74627E-13-1.09962E-12
 -1      1683 5.38182E+01 3.68285E+00 1.71243E+00 1.21638E+00 5.12368E-13-2.80179E-13
 -1      1684 4.46114E+01 5.65008E+00 1.27121E+00-1.03335E+01 1.03412E-12-2.14595E-12
 -1      1685 5.11346E+01 4.00917E+00 1.70359E+00-6.67255E+00 7.53661E-13-1.48592E-12
 -1      1686 3.14186E+01 6.68482E+00 6.20913E-01-1.17944E+01 1.52256E-12-2.39631E-12
 -1      1687 4.04444E+01 5.65318E+00 1.33409E+00-1.16961E+01 1.20048E-12-2.35212E-12
 -1      1688 1.81040E+01 5.13745E+00-1.13258E-01-9.24395E+00 1.94578E-12-2.16205E-12
 -1      1689 2.61728E+01 6.43815E+00 7.22916E-01-1.20230E+01 1.72529E-12-2.42695E-12
 -1      1690 8.27002E+00-2.37877E-01-8.43449E-01-4.58458E+00 1.95532E-12-1.55564E-12
 -1      1691 1.34463E+01 3.79410E+00-2.30549E-02-8.13169E+00 1.98308E-12-1.94145E-12
 -1      1692 2.37926E+00-8.24548E+00-1.46448E+00-7.25584E-01 1.59717E-12-9.29312E-13
 -1      1693 4.62601E+00-2.31721E+00-7.59796E-01-3.06546E+00 1.88782E-12-1.30657E-12
 -1      1694 1.92656E-01-1.44232E+01-1.70398E+00-8.51719E-02 8.35776E-13-5.21555E-13
 -1      1695 5.88631E-01-1.00913E+01-1.30173E+00 1.14311E-02 1.35325E-12-7.45085E-13
 -1      1696-7.30118E-01-1.63202E+01-1.78964E+00-7.35853E-01-8.29892E-14-4.16500E-13
 -1      1697-7.28795E-01-1.55699E+01-1.71740E+00 8.07401E-01 6.44484E-13-5.06234E-13
 -1      1698-1.52202E-01-1.23615E+01-1.49628E+00-7.13406E-01-1.11777E-12-7.81486E-13
 -1      1699-2.75735E-01-1.56141E+01-1.76916E+00 3.81094E-02-3.81362E-13-4.25660E-13
 -1      1700 2.48802E+00-5.61997E+00-1.07659E+00 1.27049E+00-1.86096E-12-1.20048E-12
 -1      1701 1.26646E+00-1.09947E+01-1.63580E+00-4.02130E-02-1.43041E-12-8.85639E-13
 -1      1702 9.17639E+00 1.23802E+00-4.07517E-01 5.78942E+00-1.85607E-12-1.61016E-12
 -1      1703 5.39242E+00-3.56905E+00-1.16143E+00 2.63267E+00-1.88538E-12-1.21592E-12
 -1      1704 2.02122E+01 5.40323E+00 3.31600E-01 1.04424E+01-1.61893E-12-1.66578E-12
 -1      1705 1.33223E+01 2.88013E+00-5.06672E-01 7.07640E+00-1.82965E-12-1.68776E-12
 -1      1706 3.48419E+01 5.81494E+00 1.07857E+00 1.19903E+01-1.00331E-12-1.08225E-12
 -1      1707 2.57514E+01 5.83015E+00 2.63598E-01 1.05894E+01-1.41942E-12-1.42686E-12
 -1      1708 4.77016E+01 4.76477E+00 1.67475E+00 9.79609E+00-5.08628E-13-6.11955E-13
 -1      1709 3.96209E+01 6.36295E+00 1.06356E+00 1.18302E+01-8.36858E-13-1.09113E-12
 -1      1710 5.43241E+01 3.66058E+00 1.84443E+00 2.62936E+00-3.01259E-13 4.44922E-14
 -1      1711 5.02815E+01 4.71392E+00 1.57107E+00 7.44291E+00-3.70232E-13-4.05675E-13
 -1      1712 5.40263E+01 3.92157E+00 1.81697E+00-5.01053E+00-5.88751E-13 1.09884E-12
 -1      1713 5.56677E+01 3.42900E+00 1.91579E+00 2.85246E-01-4.50417E-13 3.99399E-13
 -1      1714 4.48467E+01 5.62211E+00 1.28813E+00-1.03253E+01-7.35564E-13 1.71052E-12
 -1      1715 5.15766E+01 4.10204E+00 1.79809E+00-6.99231E+00-5.87447E-13 1.32583E-12
 -1      1716 3.16375E+01 6.27206E+00 5.71674E-01-1.13282E+01-8.94118E-13 1.76836E-12
 -1      1717 4.05870E+01 5.40651E+00 1.30216E+00-1.13069E+01-6.99385E-13 1.90403E-12
 -1      1718 1.84119E+01 4.90864E+00-1.57913E-01-9.14083E+00-1.68465E-12 1.61138E-12
 -1      1719 2.64224E+01 6.14900E+00 6.80409E-01-1.18253E+01-1.26521E-12 1.59761E-12
 -1      1720 8.76828E+00-1.32738E-01-8.56885E-01-4.70115E+00-2.15872E-12 1.48270E-12
 -1      1721 1.39352E+01 3.63684E+00-4.87684E-02-8.12283E+00-1.85940E-12 1.47649E-12
 -1      1722 2.84374E+00-7.42526E+00-1.44531E+00-9.18795E-01-2.09410E-12 1.22025E-12
 -1      1723 5.24690E+00-1.99808E+00-7.58417E-01-3.34077E+00-2.26219E-12 1.61038E-12
 -1      1724 2.52165E-01-1.39618E+01-1.79631E+00 4.48650E-01-1.35481E-12 6.78756E-13
 -1      1725 7.04751E-01-9.41388E+00-1.36601E+00 2.14531E-01-1.89049E-12 1.19448E-12
 -1      1726-6.20816E-01-1.68366E+01-1.89033E+00-1.63174E-01-4.32931E-13 5.07289E-13
 -1      1727-6.65081E-01-1.51680E+01-1.75246E+00 1.12834E+00-1.07292E-12 5.51531E-13
 -1      1728 2.41483E+01 9.15291E-01 2.72290E-01 7.34052E+00 1.59128E-12 1.13576E-12
 -1      1729 1.38928E+01-2.98195E+00-3.63670E-01 6.39960E+00 1.77536E-12 1.06648E-12
 -1      1730 2.00003E+01-1.50611E-03 3.56175E-04-2.16799E-03-4.73848E-13-1.92564E-13
 -1      1731 2.00017E+01 2.45333E-03 1.66691E-04-9.41461E-04 2.53212E-14 1.06054E-13
 -1      1732 4.98163E-01-1.02182E+01-1.19654E+00 2.32382E+00 7.95586E-13 1.62614E-12
 -1      1733 5.93879E+00-7.02223E+00-8.27868E-01 4.62540E+00 1.30174E-12 1.52823E-12
 -1      1734-1.36728E+00-1.16965E+01-1.36196E+00 1.37969E-01 8.75203E-14 1.07736E-12
 -1      1735 3.43814E+01 3.95370E+00 7.99250E-01 6.47450E+00 1.14661E-12 6.94556E-13
 -1      1736 4.25142E+01 6.35078E+00 1.29313E+00 4.48185E+00 1.01036E-12 5.00933E-13
 -1      1737 4.59672E+01 7.47515E+00 1.46256E+00 1.14165E+00 8.96283E-13-2.32203E-13
 -1      1738 4.50947E+01 7.13895E+00 1.39691E+00-2.46713E+00 1.04411E-12-7.47291E-13
 -1      1739 3.98671E+01 5.66591E+00 1.13630E+00-5.50716E+00 9.68253E-13-1.19271E-12
 -1      1740 3.10248E+01 3.32753E+00 6.82890E-01-7.32292E+00 1.07947E-12-1.55376E-12
 -1      1741 2.06947E+01 7.47050E-02 8.45336E-02-7.34177E+00 1.19604E-12-1.46638E-12
 -1      1742 1.11015E+01-4.09400E+00-5.24001E-01-5.82120E+00 1.13309E-12-1.19249E-12
 -1      1743 3.82056E+00-8.08698E+00-9.80617E-01-3.89306E+00 7.97806E-13-9.25135E-13
 -1      1744-3.63060E-01-1.04170E+01-1.19019E+00-1.77921E+00 3.37674E-13-8.39218E-13
 -1      1745-1.02724E+00-1.07967E+01-1.23749E+00 8.00298E-01-8.22953E-14-8.23952E-13
 -1      1746 1.94942E+00-9.25470E+00-1.10277E+00 2.91171E+00-4.84501E-13-9.80938E-13
 -1      1747 7.93631E+00-5.96748E+00-7.58275E-01 4.88436E+00-8.72302E-13-8.20927E-13
 -1      1748 1.65315E+01-1.91992E+00-2.13544E-01 6.66927E+00-9.41358E-13-9.56790E-13
 -1      1749 2.69658E+01 1.46179E+00 3.96578E-01 7.16485E+00-9.52405E-13-5.43787E-13
 -1      1750 3.66847E+01 4.33743E+00 9.23604E-01 6.13123E+00-8.23966E-13-3.50941E-13
 -1      1751 4.38552E+01 6.60016E+00 1.37717E+00 3.99670E+00-6.59139E-13-1.26399E-13
 -1      1752 4.71486E+01 7.36601E+00 1.54070E+00 5.67992E-01-7.44016E-13 4.37608E-13
 -1      1753 4.61968E+01 6.89517E+00 1.49427E+00-2.70335E+00-8.36053E-13 8.94174E-13
 -1      1754 3.99905E+01 5.35327E+00 1.09051E+00-5.05729E+00-6.24056E-13 1.16385E-12
 -1      1755 3.14149E+01 2.91878E+00 6.65055E-01-6.92906E+00-7.94809E-13 1.27331E-12
 -1      1756 2.11885E+01-1.67605E-01 5.30103E-02-7.19423E+00-1.22025E-12 8.19456E-13
 -1      1757 1.19025E+01-4.00601E+00-5.00160E-01-5.84062E+00-1.32416E-12 8.53595E-13
 -1      1758 4.53810E+00-7.85784E+00-9.72259E-01-3.83550E+00-1.25522E-12 1.12803E-12
 -1      1759 6.49866E-02-1.07003E+01-1.26255E+00-1.77931E+00-6.64580E-13 8.96727E-13
 -1      1760 2.28059E+01 1.97968E+00-2.40222E-02-2.70745E+00-2.91794E-13 1.09593E-12
 -1      1761 1.98326E+01 3.72245E+00-3.49408E-02-2.12621E+00-3.68390E-13-4.13738E-13
 -1      1762 2.00560E+01 3.56180E+00-4.25759E-02-2.41325E+00-4.21755E-13-3.04257E-13
 -1      1763 2.03612E+01 3.18009E+00-4.50545E-02-2.55942E+00-4.23633E-13-1.52274E-13
 -1      1764 2.05698E+01 2.80497E+00-1.42003E-01-2.82890E+00-4.56916E-13 6.17562E-14
 -1      1765 2.04320E+01 2.69332E+00-2.77436E-03-2.19188E+00-4.50172E-13-2.07615E-13
 -1      1766 1.93725E+01 4.20846E+00-2.02782E-02-1.24385E+00-1.87604E-13-6.06799E-13
 -1      1767 1.94460E+01 4.16622E+00-1.68884E-02-1.46646E+00-2.40190E-13-5.84716E-13
 -1      1768 1.92740E+01 4.32096E+00-1.68552E-02-8.38787E-01-9.86559E-14-6.10744E-13
 -1      1769 1.93179E+01 4.29502E+00-1.40840E-02-1.04643E+00-1.40054E-13-6.15638E-13
 -1      1770 1.95418E+01 3.81192E+00-8.98351E-03-1.09107E+00-1.82436E-13-5.77770E-13
 -1      1771 1.92201E+01 4.38620E+00-1.47783E-02-4.54247E-01 3.35018E-17-5.97737E-13
 -1      1772 1.92432E+01 4.37210E+00-1.30871E-02-6.50402E-01-5.11759E-14-5.97914E-13
 -1      1773 1.94416E+01 3.94007E+00-8.83554E-03-7.12136E-01-7.90557E-14-5.81465E-13
 -1      1774 1.91994E+01 4.41412E+00-1.35577E-02-8.09539E-02 7.78187E-14-6.04331E-13
 -1      1775 1.92063E+01 4.40978E+00-1.30358E-02-2.71706E-01 4.25265E-14-6.06650E-13
 -1      1776 1.93885E+01 4.00962E+00-8.72480E-03-3.47167E-01 1.56657E-14-5.79389E-13
 -1      1777 1.92078E+01 4.40834E+00-1.29821E-02 2.90596E-01 1.51924E-13-5.94766E-13
 -1      1778 1.91998E+01 4.41324E+00-1.36442E-02 9.96790E-02 1.15692E-13-6.05160E-13
 -1      1779 1.93726E+01 4.03074E+00-8.69041E-03 1.04077E-02 1.07975E-13-5.88267E-13
 -1      1780 1.92470E+01 4.36791E+00-1.30857E-02 6.70040E-01 2.22528E-13-5.63261E-13
 -1      1781 1.92226E+01 4.38288E+00-1.48876E-02 4.73374E-01 1.88260E-13-5.85828E-13
 -1      1782 1.93910E+01 4.00614E+00-8.75381E-03 3.68198E-01 1.81672E-13-5.65183E-13
 -1      1783 1.93228E+01 4.28901E+00-1.41351E-02 1.06052E+00 2.99268E-13-5.01949E-13
 -1      1784 1.92782E+01 4.31542E+00-1.70163E-02 8.55648E-01 2.60186E-13-5.37457E-13
 -1      1785 1.94466E+01 3.93349E+00-8.81153E-03 7.30558E-01 2.54629E-13-5.28069E-13
 -1      1786 1.94552E+01 4.15449E+00-1.71139E-02 1.48598E+00 3.77000E-13-3.97071E-13
 -1      1787 1.93785E+01 4.19962E+00-2.05886E-02 1.25832E+00 3.32016E-13-4.58984E-13
 -1      1788 1.95492E+01 3.80181E+00-8.94745E-03 1.10702E+00 3.45174E-13-4.55660E-13
 -1      1789 1.96813E+01 3.92984E+00-2.49033E-02 1.94961E+00 4.47555E-13-2.39291E-13
 -1      1790 1.95506E+01 4.00949E+00-2.69797E-02 1.69282E+00 4.05125E-13-3.31728E-13
 -1      1791 1.97237E+01 3.58531E+00-8.50629E-03 1.50268E+00 4.19085E-13-3.35091E-13
 -1      1792 2.00802E+01 3.52387E+00-4.48485E-02 2.44353E+00 4.89277E-13 3.41324E-14
 -1      1793 1.98460E+01 3.68723E+00-3.96709E-02 2.15379E+00 4.64179E-13-1.32623E-13
 -1      1794 2.00165E+01 3.23265E+00-5.19604E-03 1.90157E+00 4.77869E-13-1.51970E-13
 -1      1795 2.09056E+01 2.67819E+00-5.72677E-02 2.83341E+00 4.72210E-13 5.31533E-13
 -1      1796 2.04097E+01 3.09510E+00-5.01897E-02 2.59001E+00 4.74907E-13 2.32064E-13
 -1      1797 2.05184E+01 2.61199E+00 3.19205E-03 2.21496E+00 4.94790E-13 1.45769E-13
 -1      1798 2.16963E+01 1.21075E+00-1.21639E-01 2.31168E+00 3.84484E-13 1.10729E-12
 -1      1799 2.12512E+01 2.25880E+00 1.14737E-04 2.71885E+00 4.25743E-13 7.38146E-13
 -1      1800 2.09243E+01 1.68416E+00-2.26269E-02 2.11594E+00 4.71078E-13 5.22332E-13
 -1      1801 2.09247E+01 7.77810E-01-6.20412E-02 1.50696E+00 3.90368E-13 9.74564E-13
 -1      1802 2.17645E+01 2.45221E+00 9.06597E-02-3.02811E+00-3.95076E-13 4.40786E-13
 -1      1803 2.00895E+01 2.99650E-01-8.58224E-03 6.38403E-01 3.00995E-13 7.81080E-13
 -1      1804 2.06328E+01 4.41218E-01-1.22216E-02 1.01612E+00 3.24026E-13 8.86752E-13
 -1      1805 2.07307E+01 8.45310E-01 2.09864E-03 1.39298E+00 3.86788E-13 6.22707E-13
 -1      1806 2.14848E+01 1.74004E+00 7.93356E-02-2.31540E+00-4.26131E-13 2.82649E-13
 -1      1807 2.05118E+01 5.03267E-01 3.26314E-02-8.98610E-01-3.50563E-13 2.15812E-13
 -1      1808 2.00905E+01 3.56398E-01 8.27490E-03-6.04803E-01-3.16712E-13 1.26983E-13
 -1      1809 1.99048E+01 2.63234E-01 2.75894E-02-3.61935E-01-2.79757E-13 1.13103E-13
 -1      1810 1.97271E+01 1.85916E-01 1.11372E-02-2.19946E-01-2.37427E-13 3.52669E-14
 -1      1811 2.02114E+01 4.90952E-01-6.28366E-03-6.86704E-01-3.51112E-13-2.22027E-14
 -1      1812 1.96176E+01 1.42188E-01 1.69380E-02-7.94377E-02-1.92139E-13 1.96267E-14
 -1      1813 1.95576E+01 1.04906E-01 7.94222E-03-2.27093E-03-1.56650E-13-2.62477E-14
 -1      1814 1.99073E+01 2.56926E-01-6.19984E-03-2.46588E-01-2.52884E-13-8.26084E-14
 -1      1815 1.95098E+01 8.23248E-02 9.10321E-03 8.15000E-02-1.38198E-13-3.80061E-14
 -1      1816 1.95203E+01 6.34623E-02 5.39708E-03 1.26820E-01-1.34374E-13-6.80441E-14
 -1      1817 1.97544E+01 1.44503E-01-5.24848E-03 9.76930E-03-1.85235E-13-1.02208E-13
 -1      1818 1.95173E+01 5.16521E-02 4.80257E-03 1.79699E-01-1.24183E-13-5.79591E-14
 -1      1819 1.95717E+01 4.26814E-02 4.14758E-03 2.08978E-01-1.00698E-13-9.05001E-14
 -1      1820 1.97081E+01 8.79710E-02-4.23396E-03 1.66874E-01-1.35005E-13-1.30520E-13
 -1      1821 1.96009E+01 3.71049E-02 2.58729E-03 2.45813E-01-1.11755E-13-9.57884E-14
 -1      1822 1.96851E+01 3.41633E-02 3.67507E-03 2.67829E-01-9.24556E-14-1.13329E-13
 -1      1823 1.97382E+01 6.04882E-02-3.30080E-03 2.70492E-01-1.25730E-13-1.29305E-13
 -1      1824 1.97385E+01 3.26297E-02 1.45663E-03 2.97847E-01-7.87890E-14-1.05062E-13
 -1      1825 1.98461E+01 3.37297E-02 3.65736E-03 3.18124E-01-5.76206E-14-1.07060E-13
 -1      1826 1.98239E+01 5.03631E-02-2.62565E-03 3.47706E-01-8.37678E-14-9.95757E-14
 -1      1827 1.99193E+01 3.49941E-02 9.05218E-04 3.47456E-01-8.46802E-14-1.23353E-13
 -1      1828 2.00486E+01 3.89345E-02 3.92681E-03 3.69749E-01-6.91214E-14-1.09177E-13
 -1      1829 1.99533E+01 5.16489E-02-2.23136E-03 4.15846E-01-9.84752E-14-1.30024E-13
 -1      1830 2.01399E+01 4.21196E-02 6.74941E-04 4.02600E-01-9.10075E-14-1.39903E-13
 -1      1831 2.02919E+01 4.79606E-02 4.36432E-03 4.29463E-01-7.94186E-14-1.89101E-13
 -1      1832 2.01205E+01 6.07866E-02-2.06577E-03 4.86592E-01-1.02301E-13-1.70501E-13
 -1      1833 2.04014E+01 5.22296E-02 6.13261E-04 4.68533E-01-6.40737E-14-2.21798E-13
 -1      1834 2.05791E+01 5.89329E-02 4.83133E-03 5.01403E-01-2.75639E-14-2.48194E-13
 -1      1835 2.03241E+01 7.49813E-02-2.06269E-03 5.67747E-01-9.61938E-14-1.56949E-13
 -1      1836 2.07081E+01 6.32082E-02 6.11601E-04 5.47805E-01-2.28814E-14-2.72852E-13
 -1      1837 2.09147E+01 6.92657E-02 5.12317E-03 5.86696E-01-2.67360E-14-2.74464E-13
 -1      1838 2.05656E+01 9.11410E-02-2.16373E-03 6.63640E-01-4.48967E-14-2.27798E-13
 -1      1839 2.10650E+01 7.18935E-02 5.84499E-04 6.39404E-01-9.20488E-15-2.97481E-13
 -1      1840 2.13030E+01 7.48587E-02 4.92666E-03 6.82161E-01-3.17598E-14-2.70156E-13
 -1      1841 2.08481E+01 1.04822E-01-2.32568E-03 7.74465E-01-1.90219E-14-2.55608E-13
 -1      1842 2.14764E+01 7.31758E-02 4.71846E-04 7.36900E-01-4.90218E-14-2.29896E-13
 -1      1843 2.17446E+01 6.90896E-02 3.78703E-03 7.77909E-01-1.88892E-14-1.47384E-13
 -1      1844 2.11751E+01 1.08937E-01-2.52662E-03 8.94523E-01-1.25786E-14-1.69203E-13
 -1      1845 2.19427E+01 5.89464E-02 2.59214E-04 8.25403E-01-1.38601E-14-1.30674E-13
 -1      1846 2.22335E+01 4.18364E-02 1.12039E-03 8.53772E-01 2.14283E-14-1.43226E-13
 -1      1847 2.15493E+01 9.22353E-02-2.76991E-03 1.00919E+00-1.82734E-14-1.18967E-13
 -1      1848 2.24569E+01 1.73728E-02 1.33420E-05 8.77470E-01 2.19731E-14-2.37572E-13
 -1      1849 2.27524E+01-2.05613E-02-3.65710E-03 8.75087E-01-9.02859E-15-2.14087E-13
 -1      1850 2.19714E+01 3.81525E-02-3.06614E-03 1.09066E+00-2.03914E-14-1.33144E-13
 -1      1851 2.29995E+01-6.60770E-02-1.24763E-04 8.49139E-01-1.67598E-14-2.45608E-13
 -1      1852 2.32673E+01-1.32084E-01-1.07309E-02 7.90099E-01-4.16845E-14-2.91455E-13
 -1      1853 2.24385E+01-7.41097E-02-3.34817E-03 1.09340E+00-2.53324E-14-2.04175E-13
 -1      1854 2.35319E+01-2.02573E-01-2.09849E-05 6.79999E-01-1.98530E-14-2.28578E-13
 -1      1855 2.37228E+01-2.96439E-01-1.91414E-02 5.34935E-01-1.91592E-14-1.79829E-13
 -1      1856 2.29408E+01-2.62054E-01-3.22378E-03 9.52408E-01-3.56052E-16-2.29108E-13
 -1      1857 2.39867E+01-3.84483E-01-3.27939E-05 3.05969E-01-9.24417E-14-1.26118E-13
 -1      1858 2.40406E+01-4.85104E-01-2.57819E-02 5.66843E-02-1.10380E-14-1.31890E-13
 -1      1859 2.34537E+01-5.19646E-01-1.66296E-03 5.92071E-01-4.13784E-14-1.13078E-13
 -1      1860 2.42611E+01-5.57852E-01-1.52952E-03-3.01910E-01 2.41526E-14-1.94396E-13
 -1      1861 2.41244E+01-6.08116E-01-2.52618E-02-6.32843E-01-1.35447E-14-2.39156E-13
 -1      1862 2.39219E+01-7.80967E-01 2.90784E-03-4.13557E-02-5.82312E-14-7.29042E-14
 -1      1863 2.42242E+01-5.99291E-01-7.52984E-03-1.06176E+00 1.47824E-14-1.78559E-13
 -1      1864 2.38875E+01-5.13898E-01-1.25697E-02-1.37617E+00-2.69949E-14-2.24676E-13
 -1      1865 2.42373E+01-8.83286E-01 1.05925E-02-9.07286E-01 1.27615E-14-8.13750E-14
 -1      1866 2.37830E+01-3.50574E-01-1.66870E-02-1.70329E+00-1.70020E-14-1.68643E-13
 -1      1867 2.33192E+01-8.38367E-02 9.43006E-03-1.82656E+00 6.99406E-14-1.46407E-13
 -1      1868 2.42489E+01-6.08209E-01 1.49275E-02-1.76753E+00 5.33870E-14 6.21660E-14
 -1      1869 2.30192E+01 2.21685E-01-2.24601E-02-1.80519E+00-2.31482E-14-2.08812E-13
 -1      1870 2.25950E+01 5.68062E-01 2.37654E-02-1.58238E+00-7.48481E-14-1.87435E-13
 -1      1871 2.38721E+01 1.32918E-01 4.86302E-03-2.15565E+00-1.42039E-14-1.27580E-14
 -1      1872 2.22899E+01 8.58797E-01-1.16890E-02-1.09705E+00-4.63379E-14-2.17736E-13
 -1      1873 2.20847E+01 1.05766E+00 1.61420E-02-5.52513E-01-8.18998E-14-2.67021E-13
 -1      1874 2.32947E+01 1.05032E+00-2.12902E-02-1.62421E+00-4.63640E-14-1.65398E-13
 -1      1875 2.20476E+01 1.09590E+00 1.22610E-02 2.10036E-01-1.49478E-13-3.22136E-13
 -1      1876 2.21706E+01 9.72941E-01-5.94286E-03 7.95635E-01-1.54505E-13-3.78621E-13
 -1      1877 2.29550E+01 1.56594E+00-3.57193E-02-2.06131E-01-1.25018E-13-3.37217E-13
 -1      1878 2.24280E+01 7.32569E-01 2.42434E-02 1.38801E+00-1.18894E-13-4.86068E-13
 -1      1879 2.28145E+01 3.99171E-01-2.13795E-02 1.70790E+00-8.16326E-14-5.25904E-13
 -1      1880 2.31665E+01 1.24378E+00-2.87420E-02 1.32794E+00-1.79076E-13-4.57431E-13
 -1      1881 2.31433E+01 7.50887E-02 1.47945E-02 1.84877E+00-1.68342E-14-4.70521E-13
 -1      1882 2.36189E+01-2.28689E-01-1.84409E-02 1.80494E+00 9.35335E-14-4.87691E-13
 -1      1883 2.37356E+01 3.78301E-01 2.65980E-04 2.12531E+00 1.22697E-14-4.05916E-13
 -1      1884 2.37825E+01-4.34890E-01-7.28726E-03 1.54481E+00 1.39515E-13-4.67425E-13
 -1      1885 2.41663E+01-5.65592E-01-9.46763E-03 1.26257E+00 1.94274E-13-3.47897E-13
 -1      1886 2.41993E+01-4.57119E-01 1.43874E-02 1.94356E+00 1.73151E-13-3.41536E-13
 -1      1887 2.41160E+01-6.08381E-01-2.33145E-02 8.41036E-01 1.30684E-13-3.41219E-13
 -1      1888 2.43108E+01-5.84562E-01-2.61412E-03 5.03077E-01 1.33487E-14-2.84336E-13
 -1      1889 2.42916E+01-8.52666E-01 1.21793E-02 1.15775E+00 1.62000E-13-3.86404E-13
 -1      1890 2.41171E+01-5.25161E-01-2.66977E-02 1.19069E-01-2.89699E-14-1.31078E-13
 -1      1891 2.41145E+01-4.30054E-01-6.22335E-05-1.53870E-01 4.44384E-14-1.90297E-13
 -1      1892 2.40478E+01-8.26476E-01 4.25207E-03 2.65822E-01 1.28001E-13-2.96143E-13
 -1      1893 2.38616E+01-3.40969E-01-2.11821E-02-4.14120E-01 1.04318E-14-1.93547E-13
 -1      1894 2.37084E+01-2.41372E-01 3.64607E-04-5.82616E-01-2.31161E-14-1.97817E-13
 -1      1895 2.36159E+01-5.85520E-01-1.12859E-03-4.31645E-01-8.68229E-16-2.64570E-13
 -1      1896 2.34483E+01-1.64270E-01-1.27219E-02-7.16429E-01-8.65558E-14-1.57548E-13
 -1      1897 2.32059E+01-8.96884E-02 3.38104E-04-7.91422E-01-1.40568E-13-1.00363E-13
 -1      1898 2.31195E+01-3.15325E-01-3.22690E-03-8.51584E-01-4.11823E-14-2.07106E-13
 -1      1899 2.29622E+01-3.72415E-02-5.10764E-03-8.30481E-01-1.19569E-13-5.66500E-14
 -1      1900 2.26842E+01 8.19444E-03 5.01064E-04-8.40396E-01 1.43646E-15 1.63758E-14
 -1      1901 2.26271E+01-1.05006E-01-3.58575E-03-1.03178E+00-2.45619E-14-6.24114E-14
 -1      1902 2.24656E+01 3.80697E-02 2.82775E-04-8.20586E-01 5.63866E-15 6.52733E-15
 -1      1903 2.21892E+01 6.06235E-02 8.25605E-04-7.92913E-01 6.46799E-14-1.77866E-14
 -1      1904 2.21697E+01 2.77162E-02-3.37839E-03-1.04680E+00-5.36278E-14 1.02626E-13
 -1      1905 2.19982E+01 7.44353E-02 3.44448E-03-7.42561E-01-3.54014E-15-1.05877E-13
 -1      1906 2.17454E+01 8.20978E-02 1.14516E-03-6.97481E-01-3.53294E-14-8.86227E-14
 -1      1907 2.17605E+01 9.69418E-02-3.09121E-03-9.65882E-01-2.90425E-15 2.32197E-13
 -1      1908 2.15820E+01 8.60303E-02 4.90258E-03-6.35450E-01-3.07237E-14-1.53997E-13
 -1      1909 2.13632E+01 8.52382E-02 1.35591E-03-5.85616E-01-6.05961E-14-2.11332E-13
 -1      1910 2.14041E+01 1.23643E-01-2.83322E-03-8.39719E-01-2.53965E-14 1.01308E-14
 -1      1911 2.12261E+01 8.37883E-02 5.25004E-03-5.23033E-01 2.16153E-14-1.30246E-13
 -1      1912 2.10440E+01 7.88564E-02 1.43451E-03-4.75414E-01 5.55120E-14-4.47232E-14
 -1      1913 2.11009E+01 1.25510E-01-2.59178E-03-7.00609E-01 7.75931E-15 2.73591E-14
 -1      1914 2.09311E+01 7.48826E-02 4.96534E-03-4.18066E-01-3.99455E-14-1.04339E-13
 -1      1915 2.07839E+01 6.83965E-02 1.40308E-03-3.75931E-01-1.90394E-13-1.03941E-13
 -1      1916 2.08483E+01 1.14725E-01-2.34235E-03-5.66860E-01-6.12208E-14 3.80936E-14
 -1      1917 2.06927E+01 6.35584E-02 4.37672E-03-3.26282E-01-1.68518E-13-1.82614E-14
 -1      1918 2.05767E+01 5.69324E-02 1.29812E-03-2.90730E-01-1.41339E-13-4.43826E-14
 -1      1919 2.06420E+01 9.87436E-02-2.07733E-03-4.47460E-01-1.44906E-13 8.42664E-15
 -1      1920 2.05042E+01 5.21190E-02 3.68596E-03-2.49333E-01-1.46560E-13-1.23245E-13
 -1      1921 2.04148E+01 4.60513E-02 1.15426E-03-2.20287E-01-3.65036E-14-9.21758E-14
 -1      1922 2.04767E+01 8.17381E-02-1.80315E-03-3.45733E-01-1.91999E-13 9.53043E-14
 -1      1923 2.03582E+01 4.16945E-02 3.00536E-03-1.86689E-01-8.38055E-14-1.42274E-13
 -1      1924 2.02906E+01 3.64768E-02 9.98282E-04-1.63506E-01 6.35112E-14-7.44534E-14
 -1      1925 2.03465E+01 6.58339E-02-1.53171E-03-2.61815E-01-8.19440E-14 2.28576E-13
 -1      1926 2.02473E+01 3.27539E-02 2.38999E-03-1.36781E-01 2.99573E-13-1.23740E-13
 -1      1927 2.01974E+01 2.84630E-02 8.48329E-04-1.18588E-01 2.75120E-13 4.37827E-15
 -1      1928 2.02459E+01 5.19760E-02-1.27431E-03-1.94209E-01 1.35125E-13 3.05456E-13
 -1      1929 2.01648E+01 2.54178E-02 1.86035E-03-9.76402E-02 2.64597E-13 1.53306E-13
 -1      1930 2.01288E+01 2.20234E-02 7.13600E-04-8.35160E-02 4.11993E-13 3.28353E-13
 -1      1931 2.01696E+01 4.04720E-02-1.03875E-03-1.40705E-01 3.73911E-13 4.59867E-13
 -1      1932 2.01048E+01 1.96298E-02 1.41622E-03-6.72458E-02 3.50812E-13 2.37419E-13
 -1      1933 2.00797E+01 1.70474E-02 5.93375E-04-5.63144E-02 2.60708E-13 1.94649E-13
 -1      1934 2.01129E+01 3.12995E-02-8.29761E-04-9.88859E-02 3.52015E-13 3.93332E-13
 -1      1935 2.00625E+01 1.52376E-02 1.04451E-03-4.37197E-02 1.68640E-13 2.00416E-13
 -1      1936 2.00458E+01 1.33551E-02 4.90009E-04-3.52206E-02 7.37279E-15 2.87569E-13
 -1      1937 2.00716E+01 2.42653E-02-6.44032E-04-6.64359E-02 2.60291E-13 1.02954E-13
 -1      1938 2.00336E+01 1.19168E-02 7.10156E-04-2.54213E-02-4.44876E-14 4.80298E-13
 -1      1939 2.00235E+01 1.04654E-02 3.84714E-04-1.88302E-02 1.04396E-14 6.28389E-13
 -1      1940 2.00422E+01 1.90767E-02-4.59562E-04-4.13414E-02 1.12319E-13 7.15896E-13
 -1      1941 2.00157E+01 9.07002E-03 5.02838E-04-1.17322E-02-5.78349E-14 5.52706E-13
 -1      1942 2.00102E+01 7.42042E-03 3.12288E-04-7.08783E-03-3.52027E-14 4.32250E-13
 -1      1943 2.00101E+01 9.13678E-03-3.12202E-04-9.03066E-03-1.48222E-13 4.95822E-13
 -1      1944 2.00224E+01 1.42370E-02-4.91102E-04-2.24680E-02-1.13185E-13 9.53294E-13
 -1      1945 1.96271E+01 1.45902E-01 8.22607E-03 2.35549E-01 2.50749E-13 6.22892E-13
 -1      1946 1.98882E+01 2.07130E-01 1.66758E-02 4.10956E-01 2.54298E-13 7.15849E-13
 -1      1947 2.01049E+01 3.54108E-01-1.73272E-03 6.28187E-01 3.22497E-13 5.01241E-13
 -1      1948 1.94121E+01 7.81199E-02 7.39299E-03 2.34103E-02 1.78385E-13 5.02381E-13
 -1      1949 1.95125E+01 1.07125E-01 1.45314E-02 1.16130E-01 1.95980E-13 5.76983E-13
 -1      1950 1.97343E+01 1.71932E-01-2.23159E-03 2.20426E-01 2.45876E-13 3.91936E-13
 -1      1951 1.93594E+01 4.50506E-02 5.02989E-03-9.56731E-02 1.16131E-13 4.29596E-13
 -1      1952 1.93693E+01 5.98913E-02 8.81170E-03-4.22015E-02 1.41220E-13 4.80658E-13
 -1      1953 1.95643E+01 9.09868E-02-3.19402E-03-5.65205E-03 1.84492E-13 3.08295E-13
 -1      1954 1.94097E+01 2.83307E-02 3.65847E-03-1.67039E-01 7.81137E-14 3.20640E-13
 -1      1955 1.93664E+01 3.60812E-02 4.99210E-03-1.33675E-01 9.48920E-14 3.89363E-13
 -1      1956 1.95264E+01 5.19272E-02-3.32531E-03-1.37560E-01 1.25299E-13 2.36790E-13
 -1      1957 1.95276E+01 2.04757E-02 3.01779E-03-2.14197E-01 1.15309E-13 2.64697E-13
 -1      1958 1.94508E+01 2.42690E-02 2.97466E-03-1.91068E-01 5.46022E-14 2.99535E-13
 -1      1959 1.95757E+01 3.29838E-02-2.94140E-03-2.20123E-01 9.10997E-14 1.55245E-13
 -1      1960 1.96937E+01 1.79934E-02 2.74133E-03-2.50598E-01 1.35781E-13 2.49002E-13
 -1      1961 1.95934E+01 1.94105E-02 1.97970E-03-2.31946E-01 1.45860E-13 2.90424E-13
 -1      1962 1.96849E+01 2.50501E-02-2.49675E-03-2.77816E-01 1.30558E-13 1.50765E-13
 -1      1963 1.98986E+01 1.88988E-02 2.63967E-03-2.84540E-01 9.21175E-14 1.45021E-13
 -1      1964 1.97792E+01 1.89062E-02 1.51579E-03-2.66726E-01 1.23416E-13 2.31213E-13
 -1      1965 1.98386E+01 2.37349E-02-2.18020E-03-3.25129E-01 1.44141E-13 1.49694E-13
 -1      1966 2.01390E+01 2.17321E-02 2.61296E-03-3.21070E-01 4.44089E-14 1.51059E-13
 -1      1967 2.00016E+01 2.10613E-02 1.32563E-03-3.01817E-01 7.40978E-14 1.40936E-13
 -1      1968 2.00295E+01 2.64002E-02-2.02033E-03-3.70982E-01 1.09577E-13 1.19752E-13
 -1      1969 2.04151E+01 2.50681E-02 2.57204E-03-3.62572E-01 3.22398E-14 1.25003E-13
 -1      1970 2.02590E+01 2.44201E-02 1.25761E-03-3.40757E-01 4.62465E-14 1.39687E-13
 -1      1971 2.02546E+01 3.09350E-02-1.99013E-03-4.20446E-01 6.04935E-14 1.02085E-13
 -1      1972 2.07284E+01 2.71710E-02 2.40316E-03-4.08608E-01 3.29504E-14 8.57261E-14
 -1      1973 2.05526E+01 2.73629E-02 1.19254E-03-3.84387E-01 4.58475E-14 1.01187E-13
 -1      1974 2.05139E+01 3.51002E-02-2.04799E-03-4.75140E-01 5.45189E-14 5.67013E-14
 -1      1975 2.10788E+01 2.56880E-02 1.95547E-03-4.55182E-01 1.47281E-13-4.82557E-14
 -1      1976 2.08833E+01 2.77744E-02 1.01343E-03-4.30390E-01 8.81029E-14 1.78459E-14
 -1      1977 2.08079E+01 3.60410E-02-2.14327E-03-5.32812E-01 1.23916E-13-3.72518E-14
 -1      1978 2.14617E+01 1.74080E-02 1.04911E-03-4.93534E-01 5.83847E-14-4.18749E-14
 -1      1979 2.12499E+01 2.27548E-02 5.98336E-04-4.72325E-01 8.71367E-14-2.48718E-14
 -1      1980 2.11355E+01 2.98790E-02-2.20763E-03-5.86266E-01 1.35206E-13-8.56240E-14
 -1      1981 2.18647E+01-1.73539E-03-4.80885E-04-5.08714E-01 9.84721E-15-1.22667E-14
 -1      1982 2.16449E+01 8.47803E-03-1.68204E-04-4.98327E-01 3.59589E-14-3.53636E-14
 -1      1983 2.14912E+01 1.15035E-02-2.13739E-03-6.21881E-01 5.61382E-14-5.36416E-14
 -1      1984 2.22631E+01-3.59949E-02-2.67893E-03-4.78636E-01-1.02465E-13 2.64493E-14
 -1      1985 2.20515E+01-1.94938E-02-1.36079E-03-4.89956E-01-2.92844E-14 2.14698E-14
 -1      1986 2.18629E+01-2.50385E-02-1.76829E-03-6.18207E-01-5.63269E-14-5.94837E-15
 -1      1987 2.26165E+01-8.77515E-02-5.28904E-03-3.75264E-01 4.96547E-14-2.12191E-14
 -1      1988 2.24390E+01-6.48303E-02-2.95171E-03-4.22331E-01-4.37371E-14-2.79694E-14
 -1      1989 2.22280E+01-8.47678E-02-8.49882E-04-5.45928E-01 1.17675E-14-1.87990E-14
 -1      1990 2.28680E+01-1.53294E-01-7.56830E-03-1.70837E-01 1.46155E-14 3.70732E-15
 -1      1991 2.27597E+01-1.27148E-01-4.74679E-03-2.67805E-01 8.04773E-14 1.85294E-14
 -1      1992 2.25505E+01-1.67503E-01 9.40233E-04-3.71646E-01 5.16497E-14-5.19786E-14
 -1      1993 2.29480E+01-2.16699E-01-8.28433E-03 1.47190E-01-1.04375E-13-6.14411E-14
 -1      1994 2.29486E+01-1.96395E-01-6.35769E-03-6.44530E-03-9.36681E-14-2.65887E-14
 -1      1995 2.27795E+01-2.60558E-01 3.83396E-03-6.92819E-02-3.85586E-14-5.33696E-14
 -1      1996 2.27901E+01-2.45315E-01-6.17327E-03 5.51400E-01-2.04222E-13 7.13648E-14
 -1      1997 2.29323E+01-2.46741E-01-7.21005E-03 3.54184E-01-1.28107E-13 1.05731E-15
 -1      1998 2.28524E+01-3.30768E-01 7.58094E-03 3.57577E-01-1.41709E-13-5.70403E-14
 -1      1999 2.23607E+01-1.95631E-01-1.24147E-03 9.48075E-01-7.34204E-14 1.39999E-13
 -1      2000 2.26515E+01-2.36369E-01-6.58737E-03 7.53363E-01-1.69352E-13 1.17775E-13
 -1      2001 2.27091E+01-3.23845E-01 1.09626E-02 8.45014E-01-1.95963E-13 1.82241E-14
 -1      2002 2.17023E+01-4.09081E-02 3.61804E-03 1.17592E+00 1.16013E-13 9.79286E-14
 -1      2003 2.21027E+01-1.25295E-01-4.08352E-03 1.06247E+00 2.99864E-14 7.56513E-14
 -1      2004 2.23245E+01-1.86227E-01 1.11960E-02 1.24696E+00 5.70325E-14 5.74809E-14
 -1      2005 2.09710E+01 1.87016E-01 4.21168E-03 1.06715E+00 5.13131E-15 1.46251E-13
 -1      2006 2.13869E+01 8.48355E-02 3.42269E-04 1.11458E+00 6.50543E-14 1.12462E-13
 -1      2007 2.17590E+01 8.49673E-02 5.32464E-03 1.36077E+00 4.39173E-14 1.09863E-13
 -1      2008 2.04198E+01 3.83650E-01-4.23182E-04 5.69758E-01-3.40908E-14 1.00373E-13
 -1      2009 2.07211E+01 3.16748E-01 6.31501E-03 7.98595E-01-1.51771E-14 7.52402E-14
 -1      2010 2.11899E+01 3.98168E-01-5.14496E-03 1.03286E+00-2.10561E-14 9.06688E-14
 -1      2011 2.02879E+01 4.32544E-01-5.79595E-03-1.62478E-01-3.83495E-14 1.48721E-13
 -1      2012 2.03604E+01 4.44899E-01 1.17124E-02 1.71218E-01-4.38712E-15 1.42595E-13
 -1      2013 2.08605E+01 5.96484E-01-1.21237E-02 3.02518E-01-2.84998E-14 8.48735E-14
 -1      2014 2.06466E+01 3.01833E-01-6.36542E-03-8.27365E-01 1.69343E-13 4.42216E-14
 -1      2015 2.04565E+01 3.88771E-01 1.31497E-02-5.28264E-01 4.66502E-14 9.40012E-14
 -1      2016 2.09348E+01 5.61447E-01-9.94728E-03-5.56563E-01 5.15681E-14-3.43332E-14
 -1      2017 2.13413E+01 7.59973E-02-1.33362E-03-1.16691E+00 9.44815E-14 1.78132E-13
 -1      2018 2.09587E+01 1.86062E-01 9.02102E-03-1.01369E+00 1.57886E-13 1.39031E-13
 -1      2019 2.13742E+01 3.13349E-01-1.72214E-03-1.18603E+00 1.42249E-13 2.59445E-14
 -1      2020 2.20978E+01-1.22939E-01 4.79847E-03-1.11812E+00-9.40350E-15 6.36175E-14
 -1      2021 2.16570E+01-4.33330E-02 1.47319E-03-1.13344E+00 2.74973E-14 1.25651E-13
 -1      2022 2.19696E+01-5.59047E-03 4.52108E-03-1.37565E+00 6.83318E-14 8.68663E-14
 -1      2023 2.26833E+01-2.24648E-01 7.84129E-03-7.98116E-01 2.85813E-14 5.71583E-14
 -1      2024 2.23123E+01-1.96726E-01-5.60573E-03-9.29235E-01 3.67033E-14 1.58032E-13
 -1      2025 2.24905E+01-2.46108E-01 5.03496E-03-1.15651E+00 2.54224E-14 1.54967E-13
 -1      2026 2.29911E+01-2.30901E-01 7.23897E-03-3.84680E-01-3.75758E-14 9.80074E-14
 -1      2027 2.27630E+01-2.44354E-01-9.51598E-03-5.56106E-01 2.39652E-15 2.16229E-14
 -1      2028 2.28014E+01-3.43146E-01 2.33800E-03-7.12224E-01 3.31879E-14 1.09801E-13
 -1      2029 2.30264E+01-1.81119E-01 4.65918E-03-1.41700E-02-1.63213E-13-1.61459E-15
 -1      2030 2.29542E+01-2.14141E-01-9.96424E-03-1.69006E-01-5.32742E-14 4.41175E-14
 -1      2031 2.28775E+01-3.19528E-01-1.89515E-04-2.36205E-01-1.31188E-14 1.40289E-13
 -1      2032 2.28538E+01-1.14718E-01 1.91095E-03 2.49989E-01-1.14218E-13-3.15638E-13
 -1      2033 2.29103E+01-1.49692E-01-8.14910E-03 1.38348E-01-1.94483E-13-2.13292E-13
 -1      2034 2.27603E+01-2.34215E-01-1.34158E-03 1.50195E-01-6.32758E-14-2.36412E-13
 -1      2035 2.25517E+01-5.55247E-02-5.51408E-05 4.00915E-01 1.01212E-13-1.37484E-13
 -1      2036 2.26945E+01-8.34502E-02-5.43720E-03 3.35787E-01-7.77672E-14-3.71429E-13
 -1      2037 2.25133E+01-1.37782E-01-1.42012E-03 4.04334E-01-6.24995E-14-5.30309E-13
 -1      2038 2.21883E+01-1.24821E-02-1.08606E-03 4.60249E-01-2.23533E-14-1.48284E-14
 -1      2039 2.23764E+01-3.10485E-02-2.78664E-03 4.33110E-01 1.28380E-13 5.76752E-14
 -1      2040 2.21961E+01-5.77248E-02-1.07003E-03 5.34600E-01 1.77558E-14-8.74613E-14
 -1      2041 2.18136E+01 1.43164E-02-1.40832E-03 4.57142E-01 2.53147E-13 4.20122E-14
 -1      2042 2.20152E+01 3.97163E-03-6.74263E-04 4.56205E-01 1.69669E-13 1.16847E-14
 -1      2043 2.18554E+01-2.38052E-03-7.07614E-04 5.71032E-01 1.80729E-13 1.32054E-13
 -1      2044 2.14599E+01 2.83482E-02-1.32280E-03 4.17515E-01-1.66924E-13-3.14458E-14
 -1      2045 2.16538E+01 2.39890E-02 7.71748E-04 4.32168E-01 7.24414E-14-6.22759E-14
 -1      2046 2.15229E+01 3.02989E-02-4.81884E-04 5.46512E-01 1.62001E-13 2.05227E-13
 -1      2047 2.11449E+01 3.36672E-02-1.06091E-03 3.60550E-01-8.01891E-14-3.21152E-13
 -1      2048 2.13189E+01 3.31378E-02 1.61492E-03 3.82857E-01-1.76676E-13-2.65586E-13
 -1      2049 2.12185E+01 4.60242E-02-3.90902E-04 4.88249E-01-6.57533E-14-1.37419E-14
 -1      2050 2.08759E+01 3.36628E-02-7.61306E-04 2.98816E-01 1.46671E-13-1.54959E-13
 -1      2051 2.10249E+01 3.52995E-02 1.99601E-03 3.23515E-01 5.60973E-14-2.65931E-13
 -1      2052 2.09520E+01 5.06148E-02-3.81580E-04 4.15636E-01 1.49555E-15-2.26113E-13
 -1      2053 2.06540E+01 3.07756E-02-4.91484E-04 2.39701E-01-2.02392E-13-2.11657E-14
 -1      2054 2.07767E+01 3.34408E-02 2.06333E-03 2.63653E-01-3.79696E-14-1.24877E-13
 -1      2055 2.07270E+01 4.86763E-02-4.03234E-04 3.41040E-01-4.09325E-14-1.09078E-13
 -1      2056 2.04758E+01 2.66074E-02-2.75425E-04 1.86983E-01-1.42026E-13 1.88767E-13
 -1      2057 2.05740E+01 2.95881E-02 1.94113E-03 2.08540E-01-1.08249E-13 1.23177E-13
 -1      2058 2.05423E+01 4.34124E-02-4.23769E-04 2.71516E-01-2.24102E-13 1.97826E-14
 -1      2059 2.03363E+01 2.21352E-02-1.14506E-04 1.42125E-01 2.11535E-14 1.95950E-13
 -1      2060 2.04128E+01 2.50198E-02 1.72094E-03 1.60611E-01-1.49184E-14 2.81234E-13
 -1      2061 2.03946E+01 3.68659E-02-4.28713E-04 2.10483E-01-3.63872E-14 1.41971E-13
 -1      2062 2.02298E+01 1.79150E-02-2.52611E-07 1.05204E-01-1.32491E-14 1.32167E-14
 -1      2063 2.02878E+01 2.04878E-02 1.46417E-03 1.20531E-01 1.01494E-14 7.10300E-14
 -1      2064 2.02792E+01 3.02464E-02-4.15372E-04 1.59053E-01 3.52943E-14 8.38961E-14
 -1      2065 2.01504E+01 1.42394E-02 7.77395E-05 7.55287E-02 1.64245E-13-4.52929E-14
 -1      2066 2.01933E+01 1.64038E-02 1.20795E-03 8.79454E-02 8.77226E-14 4.44669E-15
 -1      2067 2.01912E+01 2.42196E-02-3.86907E-04 1.16974E-01 1.35169E-13 1.43506E-13
 -1      2068 2.00930E+01 1.12393E-02 1.26915E-04 5.20220E-02 2.16336E-13-9.52289E-14
 -1      2069 2.01236E+01 1.29712E-02 9.71575E-04 6.19567E-02 1.66767E-13 1.78294E-14
 -1      2070 2.01256E+01 1.91134E-02-3.50269E-04 8.32493E-02 1.67836E-13-2.31191E-14
 -1      2071 2.00531E+01 8.91912E-03 1.47188E-04 3.34752E-02 2.16129E-13-2.14326E-13
 -1      2072 2.00740E+01 1.02537E-02 7.60906E-04 4.14287E-02 1.17236E-13-1.00799E-13
 -1      2073 2.00781E+01 1.50418E-02-3.11178E-04 5.65370E-02 1.92451E-13 1.86474E-14
 -1      2074 2.00269E+01 7.15325E-03 1.30716E-04 1.88193E-02 3.35719E-14-1.36868E-13
 -1      2075 2.00402E+01 8.17268E-03 5.68223E-04 2.52394E-02 9.66491E-14-1.45303E-13
 -1      2076 2.00450E+01 1.19008E-02-2.80833E-04 3.54758E-02 8.67836E-14 3.89980E-14
 -1      2077 2.00113E+01 5.63749E-03 1.91400E-04 7.49603E-03-1.48022E-13 2.62661E-13
 -1      2078 2.00185E+01 6.45361E-03 3.79902E-04 1.25073E-02 2.33622E-14 1.60629E-13
 -1      2079 2.00229E+01 9.43685E-03-2.29605E-04 1.89499E-02-9.67119E-14 5.59057E-13
 -1      2080 2.00045E+01 3.76951E-03 2.50616E-04 1.44775E-03-2.30306E-14 2.42120E-13
 -1      2081 2.00078E+01 5.27867E-03 2.40711E-04 4.72575E-03-1.15124E-13 2.62529E-13
 -1      2082 2.00110E+01 7.74310E-03-1.31083E-04 8.61693E-03-6.50078E-14 7.75756E-13
 -1      2083 2.00054E+01 5.11504E-03 5.57559E-05 2.92288E-03 3.65880E-14 5.67649E-13
 -1      2084 2.00026E+01 4.76136E-02-1.53329E-04 2.67514E-02 7.40841E-14 2.24662E-13
 -1      2085 2.00046E+01 3.90148E-02 2.81974E-04 2.46419E-02-1.00402E-13 3.36880E-13
 -1      2086 2.00062E+01 2.91749E-02-2.58948E-05 2.09398E-02-5.10365E-14 1.61873E-13
 -1      2087 2.00075E+01 2.21378E-02 2.78368E-04 1.69136E-02-5.10474E-14 4.52654E-13
 -1      2088 2.00080E+01 4.04169E-02-6.52042E-05 3.06168E-02-2.01698E-13 2.79377E-13
 -1      2089 2.00071E+01 1.50463E-02 7.19409E-05 1.19792E-02-1.16242E-14 4.80023E-13
 -1      2090 2.00069E+01 1.01955E-02 1.99804E-04 7.72891E-03 3.91767E-14 4.66747E-13
 -1      2091 2.00098E+01 1.18229E-02 1.08518E-04 1.04341E-02 5.68117E-14 5.21794E-13
 -1      2092 2.00104E+01 2.37442E-02-1.91600E-04 2.07435E-02-4.13378E-14 4.29889E-13
 -1      2093 1.99985E+01 6.64966E-02-2.77518E-04 2.75676E-02-2.65606E-14-8.60208E-13
 -1      2094 2.00006E+01 5.76568E-02 1.66169E-04 2.77463E-02 6.65100E-14-2.81639E-13
 -1      2095 2.00025E+01 6.01547E-02 6.95425E-05 3.57043E-02-2.45246E-13-6.07185E-14
 -1      2096 1.99947E+01 8.36314E-02-3.76065E-04 2.32322E-02 9.34218E-14-3.96793E-13
 -1      2097 1.99966E+01 7.57684E-02 3.10304E-07 2.56335E-02 1.10642E-13-4.26771E-13
 -1      2098 1.99966E+01 7.93835E-02 2.08890E-04 3.44870E-02 2.04180E-14-5.58486E-13
 -1      2099 1.99920E+01 9.60067E-02-4.21012E-04 1.45817E-02-4.75019E-14-3.98858E-13
 -1      2100 1.99933E+01 9.06720E-02-1.71030E-04 1.87074E-02 1.04694E-13-4.59686E-13
 -1      2101 1.99914E+01 9.56548E-02 3.39866E-04 2.70486E-02 1.30962E-13-5.84050E-13
 -1      2102 1.99908E+01 1.01668E-01-4.01256E-04 3.25288E-03-3.61160E-13-4.79701E-13
 -1      2103 1.99912E+01 9.98144E-02-3.11183E-04 8.31512E-03-1.57252E-13-3.55801E-13
 -1      2104 1.99879E+01 1.06489E-01 4.31840E-04 1.47471E-02-1.00484E-13-5.70125E-13
 -1      2105 1.99912E+01 9.97168E-02-3.15568E-04-8.68612E-03-3.01917E-13-5.14452E-13
 -1      2106 1.99908E+01 1.01683E-01-3.97095E-04-3.62780E-03-2.81642E-13-4.24601E-13
 -1      2107 1.99867E+01 1.10309E-01 4.65318E-04-2.05838E-04-3.32445E-13-4.96460E-13
 -1      2108 1.99933E+01 9.04777E-02-1.77329E-04-1.90560E-02-4.17007E-13-2.83463E-13
 -1      2109 1.99920E+01 9.59296E-02-4.15503E-04-1.49508E-02-4.07248E-13-2.61493E-13
 -1      2110 1.99879E+01 1.06540E-01 4.34477E-04-1.51583E-02-2.24083E-13-4.58009E-13
 -1      2111 1.99966E+01 7.57655E-02-2.61407E-06-2.58337E-02-3.33394E-13-1.45919E-15
 -1      2112 1.99947E+01 8.35607E-02-3.74744E-04-2.34979E-02-3.93165E-13-1.25757E-13
 -1      2113 1.99914E+01 9.58357E-02 3.53782E-04-2.73694E-02-2.77391E-13-2.82595E-13
 -1      2114 2.00008E+01 5.74233E-02 1.68833E-04-2.78799E-02-1.55159E-13 4.57413E-13
 -1      2115 1.99985E+01 6.64678E-02-2.82914E-04-2.77589E-02-2.42508E-13 3.84371E-13
 -1      2116 1.99966E+01 7.96734E-02 2.13307E-04-3.47245E-02-7.10142E-14 2.05491E-13
 -1      2117 2.00048E+01 3.85306E-02 2.82771E-04-2.45580E-02-1.52064E-13 2.72506E-13
 -1      2118 2.00027E+01 4.71559E-02-1.60631E-04-2.67759E-02-8.84686E-14 1.61781E-13
 -1      2119 2.00027E+01 6.01674E-02 4.97950E-05-3.58209E-02 6.71676E-14 3.48413E-13
 -1      2120 2.00073E+01 2.10234E-02 1.43793E-05-1.64731E-02-3.10694E-13 3.02110E-13
 -1      2121 2.00065E+01 2.86106E-02-5.11251E-06-2.06731E-02-3.66181E-13 3.26820E-13
 -1      2122 2.00084E+01 4.02504E-02-2.96760E-05-3.04023E-02-2.30461E-13 9.33369E-14
 -1      2123 1.05646E+01-4.99290E+00-1.08755E-01 6.55395E+00 5.81646E-13 9.78537E-13
 -1      2124 6.90338E+00-6.42537E+00-3.40097E-01 5.36326E+00 3.34177E-13 1.18441E-12
 -1      2125 2.04831E-01-7.30265E+00-4.17262E-01 9.08088E-01 3.05464E-13 1.36841E-12
 -1      2126 1.54123E-01-7.39553E+00-4.31829E-01-5.23652E-01-9.10383E-14 1.16984E-12
 -1      2127 3.47551E+00-6.06572E+00-2.52954E-01 4.24085E+00 5.31075E-13 1.52789E-12
 -1      2128 1.49048E+00-7.18582E+00-4.27092E-01 2.65202E+00 2.56906E-13 1.52667E-12
 -1      2129 1.89076E+01-3.02052E+00 2.23138E-02 6.92278E+00 1.07758E-12 5.76761E-13
 -1      2130 1.44156E+01-4.95093E+00-2.84599E-01 6.22694E+00 8.39828E-13 5.23581E-13
 -1      2131 2.71385E+01-6.36352E-01 1.05257E-01 5.85514E+00 9.72944E-13 3.89577E-13
 -1      2132 2.21501E+01-2.31284E+00-1.68740E-01 5.90934E+00 1.15380E-12 5.65770E-13
 -1      2133 2.26740E+01-4.26880E+00 4.79156E-02 5.67694E+00 5.24358E-13 3.62488E-14
 -1      2134 1.95397E+01 4.02766E+00-2.57356E-02-1.67150E+00-2.83829E-13-5.46535E-13
 -1      2135 1.96658E+01 3.95124E+00-2.40439E-02-1.92613E+00-3.34755E-13-4.85528E-13
 -1      2136 1.99862E+01 3.26301E+00-7.77611E-03-1.87638E+00-3.77636E-13-4.11778E-13
 -1      2137 1.97100E+01 3.60253E+00-9.04118E-03-1.48512E+00-2.81337E-13-5.30843E-13
 -1      2138 3.88317E+01 5.83973E+00 3.10727E-01 1.57697E+00 9.10216E-13-6.27276E-15
 -1      2139 3.62390E+01 4.78962E+00 1.55681E-01 2.52062E+00 9.25066E-13 1.53433E-13
 -1      2140 3.93990E+01 7.29100E+00 2.70460E-01-8.67967E-02 9.73777E-13-3.27523E-13
 -1      2141 3.91382E+01 6.94233E+00 2.75329E-01 9.28181E-01 9.85378E-13-8.17679E-14
 -1      2142 3.88936E+01 6.33746E+00 2.91450E-01-1.72419E+00 9.65672E-13-5.56499E-13
 -1      2143 3.99064E+01 6.96972E+00 3.11166E-01-5.28324E-01 9.88432E-13-3.90507E-13
 -1      2144 3.43503E+01 3.60304E+00 1.01508E-01-3.14153E+00 7.59059E-13-6.22502E-13
 -1      2145 3.76667E+01 4.87922E+00 3.22319E-01-2.38702E+00 7.99250E-13-5.08149E-13
 -1      2146 2.79126E+01-7.54711E-03-5.61584E-02-4.90155E+00 6.38184E-13-8.18123E-13
 -1      2147 3.23049E+01 1.58461E+00 2.01534E-01-4.44954E+00 6.64899E-13-6.94778E-13
 -1      2148 1.99093E+01-2.98031E+00-2.25818E-01-6.09772E+00 6.56697E-13-9.20986E-13
 -1      2149 2.47379E+01-1.10917E+00 9.70121E-02-6.49023E+00 6.54587E-13-1.06437E-12
 -1      2150 1.13983E+01-5.50680E+00-3.59220E-01-5.97626E+00 6.27942E-13-8.32751E-13
 -1      2151 1.58389E+01-3.52930E+00-5.03149E-02-6.93266E+00 7.12319E-13-8.74023E-13
 -1      2152 5.29736E+00-6.46763E+00-2.85339E-01-4.90903E+00 2.24154E-13-7.62862E-13
 -1      2153 8.39462E+00-5.47896E+00-1.59843E-01-6.05260E+00 4.82614E-13-9.34378E-13
 -1      2154 8.05652E-01-6.83548E+00-3.59741E-01-1.63603E+00 4.70596E-14-8.40994E-13
 -1      2155 2.18121E+00-6.05816E+00-2.43632E-01-3.35074E+00 2.60625E-13-7.25697E-13
 -1      2156 1.13392E+00-6.34670E+00-2.89591E-01 2.00343E+00-1.34032E-13-8.10796E-13
 -1      2157 4.14790E-01-6.78299E+00-3.54614E-01 2.55389E-01 1.01294E-13-8.23175E-13
 -1      2158 5.45401E+00-6.32469E+00-3.04953E-01 4.89129E+00-2.87825E-13-8.40938E-13
 -1      2159 2.95803E+00-7.05242E+00-4.00621E-01 3.67497E+00-7.91589E-14-8.31002E-13
 -1      2160 1.24820E+01-4.67861E+00-1.49816E-01 6.50107E+00-4.69402E-13-5.55042E-13
 -1      2161 8.59737E+00-6.43431E+00-4.34154E-01 5.39767E+00-3.47833E-13-6.11016E-13
 -1      2162 2.12270E+01-2.58110E+00 2.05384E-02 6.68378E+00-5.77371E-13-4.08340E-13
 -1      2163 1.65216E+01-4.43508E+00-3.12447E-01 6.05662E+00-4.78728E-13-5.60330E-13
 -1      2164 2.94916E+01-1.56458E-01 1.19091E-01 5.13881E+00-6.76792E-13-4.18554E-14
 -1      2165 2.46782E+01-1.70260E+00-1.34947E-01 5.44531E+00-6.71241E-13-2.40252E-13
 -1      2166 3.63448E+01 3.42643E+00 3.28715E-01 3.06863E+00-6.58834E-13 6.74460E-14
 -1      2167 3.22812E+01 1.78676E+00 2.20136E-02 3.29763E+00-6.80768E-13 5.54001E-14
 -1      2168 3.91343E+01 6.01785E+00 2.94549E-01 1.03124E+00-6.44151E-13 2.51132E-13
 -1      2169 3.74149E+01 4.92677E+00 2.19209E-01 2.18489E+00-6.49925E-13 2.80331E-14
 -1      2170 3.44951E+01 3.93624E+00 2.73696E-01-1.41503E-02-5.93831E-13 3.04257E-13
 -1      2171 4.13408E+01 7.11959E+00 4.53194E-01-2.55160E-01-8.78519E-13 5.73083E-13
 -1      2172 3.99969E+01 7.10821E+00 2.79513E-01 7.12033E-01-7.90645E-13 3.02036E-13
 -1      2173 3.93389E+01 6.18152E+00 2.74465E-01-1.68952E+00-8.07465E-13 6.59417E-13
 -1      2174 4.13782E+01 6.74126E+00 4.61371E-01-7.43023E-01-9.02445E-13 5.54390E-13
 -1      2175 3.45994E+01 3.28931E+00 7.77244E-02-2.62799E+00-4.79450E-13 8.63531E-13
 -1      2176 3.81010E+01 4.72193E+00 3.66546E-01-2.13405E+00-6.42264E-13 6.91114E-13
 -1      2177 2.82300E+01-4.21115E-01-6.98839E-02-4.68053E+00-6.46844E-13 8.39995E-13
 -1      2178 3.24753E+01 1.11073E+00 1.64471E-01-4.01109E+00-4.62991E-13 9.37139E-13
 -1      2179 2.09750E+01-3.04534E+00-2.15287E-01-5.78841E+00-7.92588E-13 4.74121E-13
 -1      2180 2.57740E+01-1.27688E+00 1.22632E-01-6.07215E+00-7.70606E-13 6.86395E-13
 -1      2181 2.84427E+01-2.44874E+00 1.43604E-01-3.48994E+00-3.94268E-13 5.88252E-13
 -1      2182 1.26983E+01-5.58892E+00-3.42292E-01-5.97155E+00-7.80376E-13 3.90660E-13
 -1      2183 1.70104E+01-3.84263E+00-3.83531E-02-6.81142E+00-8.09575E-13 2.50966E-13
 -1      2184 5.44340E+00-7.01617E+00-4.58044E-01-4.62144E+00-5.43343E-13 9.17710E-13
 -1      2185 8.68510E+00-5.52316E+00-2.18200E-01-5.86696E+00-7.68829E-13 6.52201E-13
 -1      2186 1.01527E+00-7.67228E+00-4.89973E-01-2.17500E+00-2.65121E-13 9.53793E-13
 -1      2187 2.65395E+00-6.84875E+00-3.66379E-01-3.52879E+00-5.85310E-13 1.11994E-12
 -1      2188 3.48281E+01 3.03086E+00 2.90754E-01 3.78676E+00 8.51142E-13 1.18239E-13
 -1      2189 3.05095E+01 1.30407E+00 1.08555E-02 4.11365E+00 9.26093E-13 2.55462E-13
 -1      2190 2.07211E+01 1.10887E+00-2.01991E-02-1.59415E+00-4.05318E-13 1.78611E-13
 -1      2191 2.94706E+01-1.04511E+00 1.49863E-01 3.24637E+00 6.78527E-13-2.46636E-13
 -1      2192 3.39218E+01 3.53377E+00 2.56914E-01 7.81758E-01 7.17287E-13-3.03035E-13
 -1      2193 2.06234E+01 1.33151E+00-1.90450E-02-1.64851E+00-4.32557E-13-3.02570E-14
 -1      2194 7.22153E+00-5.06195E+00-8.57970E-02 5.81015E+00-1.05138E-13 1.16090E-12
 -1      2195 2.16368E+00-4.76781E+00-1.80741E-01 2.35201E+00 9.38555E-14 1.59245E-12
 -1      2196 2.00088E+01 1.80907E-02 1.15593E-04-1.47089E-02-2.08093E-13 3.70773E-13
 -1      2197 1.50123E+01-5.47634E+00-4.72756E-02 6.83180E+00 1.40998E-14 4.43510E-13
 -1      2198 1.71422E+00-5.18852E+00-2.40494E-01-1.77605E+00-7.79377E-14 1.27448E-12
 -1      2199 5.80563E+00-5.59114E+00-1.95001E-01-5.16738E+00-1.86740E-13 9.46632E-13
 -1      2200 2.16654E+01-4.88235E+00 6.47828E-03-5.78724E+00-4.32654E-13 1.88627E-13
 -1      2201 3.28816E+01 1.27025E+00 1.83896E-01-1.06898E+00-3.65541E-13 4.17832E-13
 -1      2202 3.59341E+01 5.64402E+00 2.91161E-01 7.30939E-02-7.16704E-13 3.57325E-13
 -1      2203 3.63201E+01 7.03258E+00 2.92898E-01-2.49294E-01-7.52454E-13 3.71647E-13
 -1      2204 3.11950E+01-3.62132E-01 1.62756E-01 2.25218E+00-5.12680E-13 2.19103E-13
 -1      2205 2.49033E+01-3.78228E+00 7.73121E-02 4.96660E+00-2.87992E-13-4.87388E-14
 -1      2206 1.70438E+01-5.45503E+00-5.57027E-02 6.57170E+00-1.23845E-13-4.06730E-13
 -1      2207 9.12840E+00-5.80085E+00-1.79010E-01 6.19516E+00-1.89848E-14-6.18922E-13
 -1      2208 3.49560E+00-4.93635E+00-1.71381E-01 3.45655E+00 7.06935E-14-8.50375E-13
 -1      2209 2.01018E+00-4.22723E+00-1.24222E-01-8.55433E-01 1.54043E-15-9.59843E-13
 -1      2210 5.59929E+00-4.80192E+00-8.59970E-02-5.00811E+00 5.10703E-15-8.09464E-13
 -1      2211 1.22941E+01-5.62187E+00-1.46618E-01-6.80179E+00 1.20126E-13-7.21471E-13
 -1      2212 2.02400E+01-4.63131E+00 1.79210E-03-6.29197E+00 2.49412E-13-5.88002E-13
 -1      2213 2.77160E+01-2.21945E+00 1.44496E-01-3.98797E+00 2.56184E-13-3.33955E-13
 -1      2214 3.25590E+01 1.68787E+00 2.03354E-01-1.41045E+00 5.11868E-13-1.95288E-13
 -1      2215 3.54082E+01 5.85869E+00 2.93428E-01-1.42529E-01 8.24174E-13-1.89515E-13
 -1      2216 3.53529E+01 6.99282E+00 2.81274E-01-1.30940E-01 9.81548E-13-2.38920E-13
 -1      2217 3.59991E+01 7.93443E+00 2.90181E-01-6.35420E-02 1.07347E-12-2.37706E-13
 -1      2218 3.71201E+01 7.91631E+00 3.84809E-01 4.57898E-02-9.28702E-13 3.99389E-13
 -1      2219 1.32158E+01-5.71118E+00-7.82898E-02-6.71591E+00-2.35867E-13 1.70260E-13
 -1      2220 2.01622E+01 5.15853E-01 4.26448E-03 6.41692E-01 3.30352E-13 2.85528E-13
 -1      2221 2.04201E+01 7.06650E-01 2.08449E-02 9.37265E-01 3.63324E-13 3.42449E-13
 -1      2222 1.95659E+01 3.56363E+00-1.12796E-02-5.69439E-01-5.09153E-14-5.38201E-13
 -1      2223 1.96039E+01 3.51484E+00-1.03376E-02-7.49038E-01-1.02292E-13-5.50028E-13
 -1      2224 1.96529E+01 3.42093E+00-1.30142E-02-9.09009E-01-1.47109E-13-5.48475E-13
 -1      2225 1.97163E+01 3.33641E+00-1.26316E-02-1.09502E+00-2.07632E-13-5.38398E-13
 -1      2226 1.97931E+01 3.08498E+00 4.88911E-04-7.59111E-01-1.14475E-13-5.01496E-13
 -1      2227 1.95143E+01 3.65279E+00-9.59852E-03 9.61856E-02 1.29064E-13-5.52162E-13
 -1      2228 1.95136E+01 3.65365E+00-9.61143E-03-7.71987E-02 8.64738E-14-5.61785E-13
 -1      2229 1.95426E+01 3.61031E+00-9.61491E-03 4.29395E-01 2.06440E-13-5.31298E-13
 -1      2230 1.95237E+01 3.63451E+00-1.02094E-02 2.54281E-01 1.60138E-13-5.50891E-13
 -1      2231 1.96758E+01 3.28698E+00-4.75899E-04 1.61745E-01 1.43165E-13-5.22237E-13
 -1      2232 1.96088E+01 3.50697E+00-1.04290E-02 7.62672E-01 2.86361E-13-4.99260E-13
 -1      2233 1.95700E+01 3.55690E+00-1.13554E-02 5.85840E-01 2.39174E-13-5.18580E-13
 -1      2234 1.97160E+01 3.21838E+00-1.20404E-04 4.66134E-01 2.19914E-13-4.99004E-13
 -1      2235 1.97242E+01 3.32341E+00-1.27111E-02 1.10839E+00 3.77437E-13-4.05278E-13
 -1      2236 1.96591E+01 3.41067E+00-1.30749E-02 9.22257E-01 3.29863E-13-4.60470E-13
 -1      2237 1.97986E+01 3.07542E+00 5.62243E-04 7.70488E-01 2.99916E-13-4.35894E-13
 -1      2238 1.99059E+01 3.02651E+00-1.78943E-02 1.45195E+00 4.37147E-13-2.85101E-13
 -1      2239 1.98054E+01 3.17212E+00-1.53945E-02 1.26283E+00 3.94080E-13-3.60332E-13
 -1      2240 1.99337E+01 2.83800E+00 2.14177E-03 1.06945E+00 3.75291E-13-3.54560E-13
 -1      2241 2.01815E+01 2.55584E+00-2.81735E-02 1.75720E+00 4.80815E-13-1.05525E-13
 -1      2242 2.00324E+01 2.79938E+00-1.72502E-02 1.58223E+00 4.41647E-13-2.02985E-13
 -1      2243 2.01314E+01 2.47409E+00 5.92716E-03 1.33309E+00 4.13053E-13-2.10275E-13
 -1      2244 1.99069E+01 2.83647E-01 5.46249E-03 2.36090E-01 2.56900E-13 2.11310E-13
 -1      2245 2.00541E+01 3.80199E-01 2.02707E-02 3.99767E-01 2.85764E-13 2.67524E-13
 -1      2246 2.02324E+01 6.49805E-01-2.63466E-03 6.56619E-01 3.42402E-13 1.29458E-13
 -1      2247 2.04131E+01 8.65245E-01 1.25967E-02-9.61007E-01-3.46018E-13-1.20647E-13
 -1      2248 2.02132E+01 6.44214E-01-3.18769E-03-6.46088E-01-3.11228E-13-1.28176E-13
 -1      2249 2.99606E+01-1.07586E+00-1.24905E-01 1.27049E+00 5.07443E-13-5.90306E-13
 -1      2250 2.74028E+01-3.02878E+00-2.69207E-02 2.63674E+00 4.52777E-13-5.51198E-13
 -1      2251 2.01523E+01 4.88937E-01 1.55804E-02-4.20451E-01-2.68868E-13-1.03008E-13
 -1      2252 2.00268E+01 3.69177E-01 9.90009E-04-2.40302E-01-2.25542E-13-1.31773E-13
 -1      2253 2.02702E+01 7.71703E-01-1.73027E-03-6.34753E-01-2.98691E-13-1.82307E-13
 -1      2254 1.99725E+01 2.88898E-01 1.07304E-02-9.09916E-02-1.93615E-13-1.05057E-13
 -1      2255 1.99125E+01 2.23544E-01 1.74150E-03 1.89573E-02-1.57443E-13-1.36188E-13
 -1      2256 2.01250E+01 4.51348E-01-4.45630E-03-2.30214E-01-2.12725E-13-1.83323E-13
 -1      2257 1.98811E+01 1.79867E-01 6.37850E-03 1.17994E-01-1.36995E-13-1.29466E-13
 -1      2258 1.98709E+01 1.44807E-01 2.11148E-03 1.88685E-01-1.19890E-13-1.35271E-13
 -1      2259 2.00278E+01 2.78655E-01-4.20510E-03 3.98456E-02-1.72354E-13-1.43249E-13
 -1      2260 1.98620E+01 1.21959E-01 3.59563E-03 2.57004E-01-1.03762E-13-1.50491E-13
 -1      2261 1.98878E+01 1.05280E-01 2.41731E-03 3.06616E-01-9.80020E-14-1.31023E-13
 -1      2262 1.99836E+01 1.84392E-01-3.55872E-03 2.22601E-01-1.22645E-13-1.38525E-13
 -1      2263 1.98980E+01 9.55087E-02 1.88185E-03 3.58332E-01-9.90892E-14-1.21116E-13
 -1      2264 1.99508E+01 9.08596E-02 2.75776E-03 3.98277E-01-6.66946E-14-1.15338E-13
 -1      2265 1.99849E+01 1.38294E-01-2.84560E-03 3.54076E-01-9.80669E-14-1.31371E-13
 -1      2266 1.99767E+01 8.99236E-02 8.10237E-04 4.43223E-01-8.09000E-14-1.41795E-13
 -1      2267 2.00513E+01 9.35985E-02 3.15560E-03 4.81122E-01-9.20609E-14-1.50286E-13
 -1      2268 2.00232E+01 1.23419E-01-2.26945E-03 4.59638E-01-8.92275E-14-1.93128E-13
 -1      2269 2.00905E+01 9.88019E-02 1.39903E-04 5.26280E-01-1.25749E-13-1.43548E-13
 -1      2270 2.01847E+01 1.08215E-01 3.60140E-03 5.67331E-01-1.21919E-13-1.86552E-13
 -1      2271 2.00918E+01 1.29912E-01-1.85837E-03 5.57223E-01-1.14374E-13-1.62841E-13
 -1      2272 2.02357E+01 1.17402E-01-2.64618E-04 6.17545E-01-8.14737E-14-1.64747E-13
 -1      2273 2.03491E+01 1.30200E-01 4.04704E-03 6.65054E-01-9.22882E-14-1.38140E-13
 -1      2274 2.01865E+01 1.50886E-01-1.58879E-03 6.59446E-01-1.01278E-13-2.03306E-13
 -1      2275 2.04117E+01 1.41061E-01-4.70814E-04 7.23256E-01-5.83333E-14-1.35918E-13
 -1      2276 2.05451E+01 1.54372E-01 4.39535E-03 7.78596E-01-5.60424E-16-1.25402E-13
 -1      2277 2.03053E+01 1.80090E-01-1.43702E-03 7.74609E-01-6.24378E-14-1.00392E-13
 -1      2278 2.06200E+01 1.63747E-01-4.87328E-04 8.45594E-01-2.49728E-14-1.37378E-13
 -1      2279 2.07746E+01 1.73340E-01 4.48345E-03 9.07641E-01-4.11585E-15-1.06017E-13
 -1      2280 2.04483E+01 2.09977E-01-1.40862E-03 9.06774E-01-3.43184E-14-6.24267E-14
 -1      2281 2.08643E+01 1.76372E-01-2.54567E-04 9.81412E-01 1.61159E-14-1.02250E-13
 -1      2282 2.10408E+01 1.75614E-01 4.06169E-03 1.04541E+00 2.22804E-15-7.77347E-14
 -1      2283 2.06176E+01 2.29597E-01-1.56899E-03 1.05491E+00 1.37924E-14-7.47402E-14
 -1      2284 2.11504E+01 1.64741E-01 3.75508E-04 1.11981E+00-3.81548E-14-9.87677E-14
 -1      2285 2.13485E+01 1.43463E-01 2.77344E-03 1.17564E+00-4.51710E-14-9.36300E-14
 -1      2286 2.08192E+01 2.22069E-01-2.08094E-03 1.21104E+00-2.10081E-14-8.93529E-14
 -1      2287 2.14872E+01 1.07525E-01 1.64788E-03 1.23840E+00-8.03099E-14-4.13123E-14
 -1      2288 2.17052E+01 5.14210E-02 1.60438E-04 1.26833E+00-3.76106E-14-9.94448E-14
 -1      2289 2.10642E+01 1.61958E-01-3.23991E-03 1.35714E+00-4.70912E-14-7.15825E-14
 -1      2290 2.18884E+01-2.40905E-02 3.88066E-03 1.29831E+00-2.78027E-14-1.28709E-13
 -1      2291 2.21214E+01-1.31846E-01-4.28747E-03 1.27523E+00-1.67774E-14-1.44753E-13
 -1      2292 2.13732E+01 1.41585E-02-5.44562E-03 1.46070E+00-7.20085E-14-1.05523E-13
 -1      2293 2.23719E+01-2.61077E-01 7.20775E-03 1.23931E+00 6.78715E-14-1.62098E-13
 -1      2294 2.26102E+01-4.32011E-01-1.07770E-02 1.12718E+00 5.21016E-14-1.31710E-13
 -1      2295 2.17793E+01-2.61395E-01-8.99037E-03 1.46916E+00 3.11528E-14-8.12787E-14
 -1      2296 2.29520E+01-6.16687E-01 1.12229E-02 9.79381E-01-2.87264E-14-8.41033E-14
 -1      2297 2.31759E+01-8.38047E-01-1.85119E-02 7.41351E-01-6.90229E-14-5.08614E-14
 -1      2298 2.23269E+01-6.89501E-01-1.32511E-02 1.30490E+00 3.66443E-14-4.49109E-14
 -1      2299 2.36153E+01-1.04412E+00 1.33231E-02 4.31016E-01-3.36758E-14 3.53476E-14
 -1      2300 2.37894E+01-1.24516E+00-2.44672E-02 5.12765E-02 2.84711E-14 7.01919E-14
 -1      2301 2.30530E+01-1.23160E+00-1.57027E-02 8.69316E-01 9.39331E-15 7.93669E-14
 -1      2302 2.42745E+01-1.36774E+00 7.88526E-03-4.43874E-01 4.20679E-14 1.25916E-13
 -1      2303 2.43461E+01-1.38881E+00-2.26898E-02-9.14505E-01 5.80499E-14 1.43655E-13
 -1      2304 2.39367E+01-1.70616E+00-1.24127E-02 7.65774E-02 7.29282E-14 2.61085E-13
 -1      2305 2.47181E+01-1.24806E+00-1.61559E-02-1.50536E+00 8.48824E-14 1.57155E-13
 -1      2306 2.46500E+01-8.90241E-01-7.77763E-03-1.89554E+00 8.54416E-14 1.66277E-13
 -1      2307 2.48160E+01-1.71219E+00-1.79774E-03-1.04867E+00 1.17730E-13 3.19238E-13
 -1      2308 2.46948E+01-3.33701E-01-5.13455E-02-2.28618E+00-3.72220E-14 1.19937E-13
 -1      2309 2.45199E+01 4.25558E-01 1.69135E-02-2.30436E+00-1.17486E-13 1.13460E-13
 -1      2310 2.53337E+01-8.00151E-01-6.82549E-03-2.15811E+00-3.72306E-14 3.11719E-13
 -1      2311 2.42239E+01 1.17551E+00-8.40459E-02-2.08280E+00-1.75301E-13-3.78881E-14
 -1      2312 2.40262E+01 1.93090E+00-1.08945E-02-1.58707E+00-1.66825E-13-8.83720E-14
 -1      2313 2.52531E+01 9.98124E-01-9.01023E-03-2.48588E+00-2.42233E-13 9.67837E-14
 -1      2314 2.38603E+01 2.42265E+00-3.35726E-02-6.48655E-01-2.18468E-13-3.04648E-13
 -1      2315 2.38117E+01 2.49591E+00-3.65795E-02 1.81555E-01-2.73198E-13-3.70503E-13
 -1      2316 2.48985E+01 2.83233E+00-2.83599E-02-1.25443E+00-3.46327E-13-1.36191E-13
 -1      2317 2.39557E+01 2.22392E+00-2.29835E-03 1.18640E+00-2.26062E-13-5.07541E-13
 -1      2318 2.40955E+01 1.59707E+00-7.39039E-02 1.82511E+00-1.73674E-13-5.34519E-13
 -1      2319 2.48147E+01 3.04659E+00-5.30930E-02 7.78691E-01-3.59011E-13-4.93294E-13
 -1      2320 2.44143E+01 8.31925E-01 1.38029E-02 2.25814E+00 1.65874E-14-5.15289E-13
 -1      2321 2.46260E+01 2.24583E-02-5.54265E-02 2.36302E+00 2.03232E-13-4.08765E-13
 -1      2322 2.51626E+01 1.59571E+00-2.47310E-02 2.30807E+00-4.13489E-14-5.60663E-13
 -1      2323 2.46613E+01-6.21931E-01-3.26213E-03 2.09274E+00 1.45223E-13-4.33748E-13
 -1      2324 2.47745E+01-1.09008E+00-2.31669E-02 1.77028E+00 1.46948E-13-4.92339E-13
 -1      2325 2.53888E+01-4.02869E-01-5.93977E-03 2.33458E+00 1.12989E-13-5.17232E-13
 -1      2326 2.44710E+01-1.32924E+00-2.00610E-02 1.19915E+00 2.10560E-13-4.76068E-13
 -1      2327 2.44372E+01-1.38876E+00 3.40377E-03 7.29575E-01 1.76632E-13-4.32732E-13
 -1      2328 2.50091E+01-1.56587E+00 1.45676E-03 1.37280E+00 1.47038E-13-4.55070E-13
 -1      2329 2.39645E+01-1.31513E+00-2.56383E-02 1.96428E-01 1.19880E-13-4.28571E-13
 -1      2330 2.38163E+01-1.14093E+00 1.28068E-02-2.12862E-01 1.54556E-13-2.85060E-13
 -1      2331 2.41917E+01-1.76373E+00-1.08188E-02 2.10428E-01 1.22501E-13-3.00590E-13
 -1      2332 2.33587E+01-9.41781E-01-2.06606E-02-5.68257E-01 7.83418E-14-3.48540E-13
 -1      2333 2.31492E+01-7.13981E-01 1.23928E-02-8.39301E-01 3.84809E-14-2.59973E-13
 -1      2334 2.32905E+01-1.36209E+00-1.60552E-02-6.73770E-01 1.06673E-13-2.27974E-13
 -1      2335 2.27846E+01-5.16718E-01-1.27043E-02-1.01959E+00-3.71318E-14-2.62980E-13
 -1      2336 2.25548E+01-3.28123E-01 8.63568E-03-1.15607E+00-3.91310E-15-1.71505E-13
 -1      2337 2.25232E+01-8.07764E-01-1.43333E-02-1.18684E+00 1.58948E-14-1.27723E-13
 -1      2338 2.22875E+01-1.82377E-01-5.72494E-03-1.20982E+00 3.18031E-14-1.71350E-13
 -1      2339 2.20612E+01-5.72058E-02 5.06425E-03-1.24618E+00 1.44126E-14-5.04191E-14
 -1      2340 2.19405E+01-3.37885E-01-1.01141E-02-1.39927E+00 3.78024E-14-2.12161E-13
 -1      2341 2.18687E+01 3.24890E-02-7.89903E-04-1.22224E+00 6.03528E-14-3.81490E-14
 -1      2342 2.16578E+01 1.02091E-01 2.59971E-03-1.19586E+00 5.63249E-14 7.86232E-14
 -1      2343 2.15132E+01-1.98623E-02-6.31959E-03-1.41279E+00 6.65031E-14-1.51941E-13
 -1      2344 2.15161E+01 1.48254E-01 2.22888E-03-1.13065E+00-9.87600E-14 1.44956E-13
 -1      2345 2.13266E+01 1.78773E-01 1.16177E-03-1.07120E+00-6.10883E-14 7.53777E-14
 -1      2346 2.11958E+01 1.61380E-01-3.79502E-03-1.31133E+00 2.59778E-14 5.75249E-14
 -1      2347 2.12184E+01 1.96280E-01 3.79100E-03-9.88748E-01-7.84756E-14 1.37899E-13
 -1      2348 2.10530E+01 2.02807E-01 4.27703E-04-9.16357E-01-1.70376E-14 1.33596E-13
 -1      2349 2.09519E+01 2.44580E-01-2.38369E-03-1.15355E+00-1.30926E-14 7.78619E-14
 -1      2350 2.09674E+01 2.03588E-01 4.36826E-03-8.31199E-01 6.12915E-14 7.16050E-14
 -1      2351 2.08266E+01 1.97073E-01 1.06464E-04-7.58039E-01-4.76433E-14 1.01050E-13
 -1      2352 2.07577E+01 2.66477E-01-1.68672E-03-9.76982E-01-6.96225E-14 1.00930E-13
 -1      2353 2.07574E+01 1.89236E-01 4.34184E-03-6.78205E-01-1.71162E-13 4.76263E-14
 -1      2354 2.06403E+01 1.76701E-01-7.31094E-07-6.10803E-01-1.91848E-13-8.78778E-14
 -1      2355 2.05995E+01 2.54295E-01-1.36360E-03-8.03789E-01-9.92478E-14 6.01941E-14
 -1      2356 2.05838E+01 1.65235E-01 3.98379E-03-5.40152E-01-2.12697E-14-1.59886E-13
 -1      2357 2.04884E+01 1.50806E-01-1.13621E-05-4.81418E-01-8.64258E-14 5.18885E-14
 -1      2358 2.04693E+01 2.25788E-01-1.20241E-03-6.45813E-01-1.82220E-13-5.79751E-14
 -1      2359 2.04425E+01 1.38548E-01 3.47338E-03-4.21272E-01-1.61891E-13 1.78117E-13
 -1      2360 2.03662E+01 1.24459E-01 1.30648E-05-3.71972E-01-1.33636E-13 1.48082E-13
 -1      2361 2.03625E+01 1.91567E-01-1.09388E-03-5.08296E-01-7.92112E-14 2.07920E-13
 -1      2362 2.03292E+01 1.12894E-01 2.92074E-03-3.22199E-01-1.11708E-13 3.76072E-13
 -1      2363 2.02693E+01 1.00235E-01 4.41764E-05-2.81924E-01 1.31578E-14 4.09737E-13
 -1      2364 2.02756E+01 1.57495E-01-9.91478E-04-3.92490E-01 5.95990E-14 4.10160E-13
 -1      2365 2.02398E+01 9.00519E-02 2.38797E-03-2.41631E-01 5.75663E-14 5.54167E-13
 -1      2366 2.01938E+01 7.92592E-02 7.12775E-05-2.09397E-01 2.00754E-13 5.72788E-13
 -1      2367 2.02058E+01 1.26517E-01-8.81007E-04-2.97389E-01 3.61449E-14 6.34407E-13
 -1      2368 2.01706E+01 7.07057E-02 1.90637E-03-1.77344E-01 2.88030E-13 4.24971E-13
 -1      2369 2.01358E+01 6.18653E-02 9.22024E-05-1.51942E-01 3.24308E-13 4.17976E-13
 -1      2370 2.01505E+01 9.98821E-02-7.62055E-04-2.20832E-01 1.90080E-13 6.52765E-13
 -1      2371 2.01178E+01 5.49532E-02 1.48839E-03-1.26787E-01 2.27329E-13 2.98405E-13
 -1      2372 2.00921E+01 4.79590E-02 1.04114E-04-1.06978E-01 2.63638E-13 2.63928E-13
 -1      2373 2.01073E+01 7.79144E-02-6.37370E-04-1.60184E-01 1.42647E-13 4.81278E-13
 -1      2374 2.00783E+01 4.25472E-02 1.13279E-03-8.74330E-02 3.66915E-13 1.69006E-13
 -1      2375 2.00597E+01 3.71972E-02 1.18764E-04-7.21053E-02 3.27633E-13 3.35210E-13
 -1      2376 2.00741E+01 6.03945E-02-5.14923E-04-1.12727E-01 2.44410E-13 3.51290E-13
 -1      2377 2.00491E+01 3.29217E-02 7.99059E-04-5.69924E-02 3.47026E-13 4.83494E-13
 -1      2378 2.00362E+01 2.90810E-02 2.24932E-04-4.52817E-02 1.43403E-13 6.12975E-13
 -1      2379 2.00487E+01 4.68718E-02-3.81332E-04-7.59668E-02 4.64178E-13 1.08234E-13
 -1      2380 1.97294E+01 1.03017E-01 3.32463E-03-1.61400E-01 1.33375E-13 8.60672E-14
 -1      2381 1.97319E+01 1.30279E-01 7.17144E-03-1.02191E-01 1.71987E-13 1.28934E-13
 -1      2382 1.97596E+01 7.07536E-02 2.92504E-03-2.62526E-01 8.50793E-14 3.19134E-14
 -1      2383 1.97232E+01 8.44463E-02 4.03386E-03-2.22781E-01 1.04823E-13 6.36416E-14
 -1      2384 1.98729E+01 1.35542E-01-3.84257E-03-1.97241E-01 1.51674E-13 4.39286E-15
 -1      2385 1.98424E+01 5.66587E-02 2.82959E-03-3.36467E-01 1.29697E-13 4.92775E-14
 -1      2386 1.97783E+01 6.19685E-02 2.26550E-03-3.06213E-01 1.01127E-13 3.66023E-14
 -1      2387 1.98862E+01 9.53418E-02-3.09516E-03-3.14548E-01 1.21208E-13-3.02272E-14
 -1      2388 1.99661E+01 5.40222E-02 2.89269E-03-3.98816E-01 1.53816E-13 7.28954E-14
 -1      2389 1.98806E+01 5.40121E-02 1.26858E-03-3.71850E-01 1.63199E-13 8.47149E-14
 -1      2390 1.99446E+01 7.87385E-02-2.48372E-03-4.03300E-01 1.43972E-13 8.16532E-15
 -1      2391 2.01244E+01 5.82943E-02 3.02062E-03-4.59453E-01 9.16534E-14 5.56125E-14
 -1      2392 2.00205E+01 5.51740E-02 7.20675E-04-4.31967E-01 1.34608E-13 5.94821E-14
 -1      2393 2.00388E+01 7.68577E-02-2.07454E-03-4.80082E-01 1.50036E-13 2.40476E-14
 -1      2394 2.03146E+01 6.55247E-02 3.11359E-03-5.23897E-01 6.27173E-14 5.23890E-14
 -1      2395 2.01933E+01 6.13385E-02 4.51349E-04-4.93993E-01 7.48176E-14 4.96938E-14
 -1      2396 2.01637E+01 8.34110E-02-1.84240E-03-5.55390E-01 1.00559E-13 4.76763E-14
 -1      2397 2.05359E+01 7.13745E-02 3.03722E-03-5.93533E-01 1.08361E-13-4.03199E-15
 -1      2398 2.03975E+01 6.84775E-02 3.61719E-04-5.61250E-01 1.13352E-13 2.68587E-14
 -1      2399 2.03169E+01 9.26832E-02-1.74733E-03-6.34776E-01 1.23783E-13 2.14532E-14
 -1      2400 2.07883E+01 7.03199E-02 2.60871E-03-6.65031E-01 1.44490E-13-1.15759E-13
 -1      2401 2.06333E+01 7.17805E-02 3.92910E-04-6.32743E-01 1.13464E-13-8.84901E-14
 -1      2402 2.04982E+01 9.81990E-02-1.75968E-03-7.18943E-01 1.67320E-13-9.67030E-14
 -1      2403 2.10707E+01 5.50025E-02 1.59492E-03-7.29116E-01 1.06440E-13-9.85280E-14
 -1      2404 2.09012E+01 6.49169E-02 5.14699E-04-7.02216E-01 1.34636E-13-1.05456E-13
 -1      2405 2.07089E+01 9.16543E-02-1.86908E-03-8.03002E-01 1.36580E-13-1.29356E-13
 -1      2406 2.13799E+01 1.59993E-02-2.65632E-04-7.68936E-01 1.60946E-14-3.86347E-14
 -1      2407 2.12009E+01 3.95275E-02 7.19511E-04-7.56641E-01 8.42132E-14-5.50685E-14
 -1      2408 2.09510E+01 6.21500E-02-2.08315E-03-8.75085E-01 7.88753E-14-7.95134E-14
 -1      2409 2.17085E+01-5.72402E-02-3.18980E-03-7.58652E-01-6.36940E-14-2.08550E-14
 -1      2410 2.15292E+01-1.45831E-02 1.00669E-03-7.74517E-01-6.25572E-14-1.11131E-16
 -1      2411 2.12271E+01-3.75375E-03-2.40825E-03-9.14584E-01-2.89495E-14-3.96228E-14
 -1      2412 2.20429E+01-1.72857E-01-7.17648E-03-6.63682E-01 3.92928E-14-8.91531E-14
 -1      2413 2.18780E+01-1.07495E-01 1.34081E-03-7.24908E-01 1.37355E-14-2.84427E-14
 -1      2414 2.15394E+01-1.19916E-01-2.78686E-03-8.90727E-01-2.60721E-14-7.28505E-14
 -1      2415 2.23601E+01-3.28486E-01-1.17004E-02-4.45426E-01 1.41514E-14 1.60072E-14
 -1      2416 2.22308E+01-2.43700E-01 1.57070E-03-5.69344E-01 4.02738E-14 8.93708E-15
 -1      2417 2.18869E+01-2.94268E-01-2.95139E-03-7.63168E-01 9.57838E-15 1.40151E-14
 -1      2418 2.26242E+01-4.97603E-01-1.53437E-02-7.48699E-02-7.81103E-14 5.46882E-14
 -1      2419 2.25572E+01-4.11256E-01 1.25019E-03-2.70487E-01-2.66458E-14 7.55255E-14
 -1      2420 2.22603E+01-5.15631E-01-2.23563E-03-4.87940E-01-3.34370E-14 1.69318E-13
 -1      2421 2.27837E+01-6.14771E-01-1.56260E-02 4.40457E-01-1.65425E-13 1.55362E-14
 -1      2422 2.28058E+01-5.66339E-01-4.90811E-04 1.86971E-01-1.16526E-13 4.51109E-14
 -1      2423 2.26299E+01-7.33937E-01 3.37553E-04-3.45356E-02-9.52977E-14 1.95607E-13
 -1      2424 2.27767E+01-5.75449E-01-9.44731E-03 1.01872E+00-1.50169E-13 6.16234E-14
 -1      2425 2.29040E+01-6.22540E-01-4.46522E-03 7.60645E-01-2.08417E-13 5.75924E-14
 -1      2426 2.29329E+01-8.44285E-01 5.32761E-03 5.79855E-01-1.72957E-13 1.68186E-13
 -1      2427 2.25561E+01-2.79848E-01 3.47971E-03 1.47411E+00 5.56827E-14 6.40087E-14
 -1      2428 2.27767E+01-4.66786E-01-1.00267E-02 1.31003E+00-9.67802E-15 6.29843E-14
 -1      2429 2.30716E+01-6.99579E-01 1.15883E-02 1.24235E+00-7.70098E-14 1.33301E-13
 -1      2430 2.21483E+01 2.62235E-01 1.65234E-02 1.54982E+00 8.83928E-15 1.80587E-13
 -1      2431 2.24058E+01-3.66404E-02-1.47737E-02 1.59168E+00 7.86197E-14 1.68745E-13
 -1      2432 2.29537E+01-1.95679E-01 1.34852E-02 1.70952E+00-1.43677E-14 1.67935E-13
 -1      2433 2.17077E+01 8.40059E-01 1.92620E-02 1.06504E+00-2.60104E-14 1.58961E-13
 -1      2434 2.19100E+01 5.64417E-01-1.30338E-02 1.36046E+00-2.03769E-14 1.79212E-13
 -1      2435 2.25955E+01 5.75875E-01 2.29725E-03 1.66896E+00 3.17749E-14 2.41243E-13
 -1      2436 2.14821E+01 1.12220E+00 9.32715E-03 1.17672E-01 1.83499E-14 7.60993E-14
 -1      2437 2.15428E+01 1.03764E+00-1.13462E-04 5.76763E-01 1.40929E-14 8.96297E-14
 -1      2438 2.22073E+01 1.27249E+00-1.48063E-02 9.56757E-01 7.44283E-14 1.69102E-13
 -1      2439 2.16338E+01 9.16249E-01-5.96418E-03-8.90244E-01 7.79507E-14-5.34134E-14
 -1      2440 2.15234E+01 1.08171E+00 1.56123E-02-4.67661E-01 5.74107E-14-5.18150E-14
 -1      2441 2.20814E+01 1.48687E+00-2.05656E-02-2.05493E-01 1.24069E-13-6.52773E-14
 -1      2442 2.20797E+01 3.64696E-01-1.39821E-02-1.50872E+00 1.52258E-13-1.21693E-13
 -1      2443 2.18480E+01 6.66887E-01 2.11138E-02-1.29499E+00 1.18389E-13-1.37979E-13
 -1      2444 2.23235E+01 1.07842E+00-8.73255E-03-1.26915E+00 1.38858E-13-1.88112E-13
 -1      2445 2.25632E+01-2.01237E-01-1.22350E-02-1.55528E+00 4.27095E-14-1.99690E-13
 -1      2446 2.23046E+01 6.61536E-02 1.28048E-02-1.58870E+00 1.41807E-13-1.82227E-13
 -1      2447 2.27379E+01 3.10429E-01 8.03224E-03-1.76329E+00 1.95033E-13-3.46188E-13
 -1      2448 2.28656E+01-5.40358E-01-6.48648E-03-1.15998E+00 1.24137E-14-1.42508E-13
 -1      2449 2.26650E+01-4.05532E-01-1.76842E-03-1.36150E+00-2.78787E-14-1.54225E-13
 -1      2450 2.30333E+01-3.98182E-01 1.34321E-02-1.60848E+00 1.19850E-14-4.29299E-13
 -1      2451 2.29193E+01-6.13612E-01-1.35377E-03-5.85379E-01-9.05448E-14-8.21656E-14
 -1      2452 2.28193E+01-6.07200E-01-1.24705E-02-8.42057E-01 1.04465E-14-1.16473E-13
 -1      2453 2.30656E+01-7.79464E-01 8.81412E-03-1.04744E+00-3.02171E-14-4.26833E-13
 -1      2454 2.27713E+01-5.12156E-01 1.36171E-03-4.59013E-02 9.32084E-14-2.17445E-13
 -1      2455 2.27732E+01-5.79596E-01-1.58278E-02-2.75063E-01 2.66467E-14-2.21312E-14
 -1      2456 2.28670E+01-8.22000E-01 2.34181E-03-3.86448E-01 4.26098E-14-3.83439E-13
 -1      2457 2.25015E+01-3.44460E-01 2.13471E-03 3.52867E-01-6.31439E-15-4.33803E-13
 -1      2458 2.25835E+01-4.33206E-01-1.38824E-02 1.88883E-01 5.87542E-14-2.39273E-13
 -1      2459 2.25408E+01-6.58072E-01-1.78607E-03 1.73586E-01 7.99859E-14-3.79506E-13
 -1      2460 2.21775E+01-1.82836E-01 1.96828E-03 5.91724E-01-6.34423E-14-3.88300E-13
 -1      2461 2.23109E+01-2.61786E-01-9.69672E-03 4.97061E-01-6.55413E-14-3.57721E-13
 -1      2462 2.21758E+01-4.26401E-01-3.28224E-03 5.56412E-01-6.55964E-14-3.09274E-13
 -1      2463 2.18435E+01-5.88078E-02 1.55331E-03 6.96248E-01-2.61569E-14-5.57577E-14
 -1      2464 2.20025E+01-1.16426E-01-5.38114E-03 6.58238E-01-1.14767E-13-2.58374E-13
 -1      2465 2.18228E+01-2.13826E-01-3.30763E-03 7.65683E-01-1.49303E-13-1.11861E-13
 -1      2466 2.15252E+01 2.25749E-02 1.20429E-03 7.05599E-01 1.62000E-13 1.61359E-13
 -1      2467 2.16901E+01-1.35693E-02-1.89831E-03 7.06912E-01 8.25439E-14 5.54793E-14
 -1      2468 2.15035E+01-5.51909E-02-2.82354E-03 8.39175E-01-7.66407E-14-2.09757E-14
 -1      2469 2.12362E+01 6.82961E-02 9.76166E-04 6.56373E-01 4.24200E-14 3.41159E-13
 -1      2470 2.13936E+01 4.91653E-02 5.13247E-04 6.81284E-01 2.45137E-13 3.64008E-13
 -1      2471 2.12235E+01 4.64867E-02-2.31394E-03 8.20824E-01 7.05931E-14 1.76326E-13
 -1      2472 2.09826E+01 8.84854E-02 8.38115E-04 5.76798E-01 9.03920E-14 7.58480E-14
 -1      2473 2.11247E+01 8.11110E-02 1.95936E-03 6.13393E-01 5.13369E-14 2.80109E-13
 -1      2474 2.09826E+01 1.01915E-01-1.92908E-03 7.48320E-01 1.63153E-13 2.70317E-13
 -1      2475 2.07662E+01 9.23186E-02 7.48140E-04 4.86219E-01 1.83190E-14-2.11306E-14
 -1      2476 2.08892E+01 9.22425E-02 2.66809E-03 5.26475E-01 1.35775E-14 3.18114E-14
 -1      2477 2.07782E+01 1.24811E-01-1.66234E-03 6.49594E-01 1.12042E-13 2.41577E-13
 -1      2478 2.05859E+01 8.67510E-02 6.77143E-04 3.96651E-01-1.37419E-13 9.81633E-14
 -1      2479 2.06890E+01 9.07089E-02 2.87270E-03 4.35696E-01 3.09239E-14 6.05022E-15
 -1      2480 2.06070E+01 1.27173E-01-1.46784E-03 5.43360E-01 7.89153E-15 3.01195E-13
 -1      2481 2.04390E+01 7.65421E-02 6.11019E-04 3.14757E-01-2.06010E-13 1.14157E-13
 -1      2482 2.05230E+01 8.23523E-02 2.76584E-03 3.49983E-01-2.62784E-13 1.34940E-14
 -1      2483 2.04658E+01 1.17951E-01-1.30645E-03 4.41031E-01-1.96721E-13 3.36096E-13
 -1      2484 2.03217E+01 6.47142E-02 5.45807E-04 2.43593E-01-7.78384E-14 1.00062E-13
 -1      2485 2.03884E+01 7.10192E-02 2.48918E-03 2.73892E-01-8.20359E-14 1.26866E-14
 -1      2486 2.03511E+01 1.03208E-01-1.15600E-03 3.48777E-01-1.34863E-13 7.33926E-14
 -1      2487 2.02300E+01 5.30578E-02 4.82204E-04 1.83944E-01 3.97637E-14-2.12331E-14
 -1      2488 2.02817E+01 5.90717E-02 2.13832E-03 2.09135E-01 5.65357E-16 2.36852E-14
 -1      2489 2.02594E+01 8.67618E-02-1.00812E-03 2.69252E-01-4.00731E-14 5.99023E-14
 -1      2490 2.01596E+01 4.25552E-02 4.22995E-04 1.35266E-01 2.04191E-13 1.22718E-13
 -1      2491 2.01989E+01 4.78580E-02 1.77272E-03 1.55698E-01 1.52143E-13 1.27841E-13
 -1      2492 2.01874E+01 7.08498E-02-8.62971E-04 2.02908E-01 8.04364E-14-1.16999E-13
 -1      2493 2.01068E+01 3.36858E-02 3.67387E-04 9.62952E-02 1.89956E-13 6.36739E-14
 -1      2494 2.01358E+01 3.80890E-02 1.42466E-03 1.12597E-01 1.84202E-13 8.75320E-14
 -1      2495 2.01318E+01 5.66938E-02-7.20762E-04 1.48921E-01 1.97513E-13-5.09230E-14
 -1      2496 2.00682E+01 2.65904E-02 3.28604E-04 6.54732E-02 9.36891E-14 1.91745E-13
 -1      2497 2.00889E+01 3.00622E-02 1.11318E-03 7.83675E-02 9.35093E-14 1.94818E-13
 -1      2498 2.00896E+01 4.48326E-02-5.86933E-04 1.05781E-01 9.80834E-14 2.13013E-13
 -1      2499 2.00405E+01 2.09875E-02 2.57857E-04 4.11981E-02-7.07342E-14 4.58664E-13
 -1      2500 2.00548E+01 2.37335E-02 8.32134E-04 5.13691E-02 9.20852E-14 3.76304E-13
 -1      2501 2.00580E+01 3.53748E-02-4.75161E-04 7.18200E-02-7.43137E-14 3.59356E-13
 -1      2502 2.00212E+01 1.63768E-02 1.88898E-04 2.25070E-02-2.69818E-13 6.93373E-13
 -1      2503 2.00308E+01 1.86902E-02 6.23079E-04 3.03716E-02-2.37936E-13 5.30949E-13
 -1      2504 2.00348E+01 2.74324E-02-4.74878E-04 4.51331E-02-2.00976E-13 6.38728E-13
 -1      2505 2.00139E+01 1.34219E-02 3.66986E-04 1.39033E-02-1.28676E-14 5.75872E-13
 -1      2506 1.99910E+01 9.23826E-02-4.84934E-04 4.16181E-02 5.96609E-14-2.05551E-13
 -1      2507 1.99959E+01 8.41048E-02 1.98553E-04 4.42243E-02-1.31651E-13-4.12471E-13
 -1      2508 1.99831E+01 1.08337E-01-4.98801E-04 3.05481E-02 1.07671E-13-5.05216E-13
 -1      2509 1.99869E+01 1.02105E-01 3.61847E-05 3.62097E-02 3.24114E-14-3.10894E-13
 -1      2510 1.99855E+01 1.08599E-01 3.30257E-04 4.64608E-02-4.59037E-14-3.18558E-13
 -1      2511 2.00100E+01 5.09921E-02-2.83692E-04 4.18397E-02-3.09728E-13 2.38073E-13
 -1      2512 2.00142E+01 4.21389E-02 3.57440E-04 3.80719E-02-1.85907E-13 1.61451E-13
 -1      2513 2.00006E+01 7.24103E-02-4.04618E-04 4.55728E-02-3.91368E-13-2.83795E-13
 -1      2514 2.00057E+01 6.33827E-02 3.24065E-04 4.47950E-02-4.67831E-13 1.79936E-13
 -1      2515 2.00108E+01 6.45958E-02 2.57355E-04 5.29771E-02-3.35376E-13 5.81568E-14
 -1      2516 1.99979E+01 8.79440E-02 2.78438E-04 5.40691E-02-4.09256E-13-2.36988E-14
 -1      2517 1.99782E+01 1.18126E-01-4.41802E-04 1.42946E-02-7.02679E-14-5.95169E-13
 -1      2518 1.99803E+01 1.14767E-01-1.46420E-04 2.20378E-02 1.36142E-13-6.41238E-13
 -1      2519 1.99761E+01 1.24194E-01 4.58989E-04 3.12915E-02 1.42907E-13-5.76909E-13
 -1      2520 1.99773E+01 1.20435E-01-3.22273E-04-4.39882E-03-1.61793E-13-3.66809E-13
 -1      2521 1.99773E+01 1.20430E-01-3.14046E-04 4.07889E-03-1.92713E-13-4.31111E-13
 -1      2522 1.99709E+01 1.32619E-01 5.23860E-04 1.09619E-02-6.71460E-17-5.61071E-13
 -1      2523 1.99803E+01 1.14949E-01-1.59966E-04-2.23747E-02-1.21445E-13-4.51617E-13
 -1      2524 1.99782E+01 1.18320E-01-4.33749E-04-1.46310E-02-1.10658E-13-5.53007E-13
 -1      2525 1.99709E+01 1.32810E-01 5.27239E-04-1.12045E-02-2.32468E-14-4.11964E-13
 -1      2526 1.99868E+01 1.02675E-01 3.08036E-05-3.63829E-02-6.37834E-14-2.04889E-13
 -1      2527 1.99831E+01 1.08779E-01-4.96964E-04-3.07914E-02-6.86418E-14-3.64504E-13
 -1      2528 1.99761E+01 1.24822E-01 4.81032E-04-3.14539E-02-7.92994E-15-4.34941E-13
 -1      2529 1.99960E+01 8.47417E-02 2.00988E-04-4.44439E-02 4.96913E-14 3.73514E-13
 -1      2530 1.99910E+01 9.29986E-02-4.91768E-04-4.18477E-02 5.40467E-15-4.68237E-14
 -1      2531 1.99855E+01 1.09569E-01 3.63240E-04-4.66479E-02 1.00780E-13-9.46099E-14
 -1      2532 2.00061E+01 6.34970E-02 2.86462E-04-4.48261E-02 1.27851E-13 2.20155E-13
 -1      2533 2.00010E+01 7.28581E-02-3.85315E-04-4.58747E-02 7.43354E-14 5.62429E-13
 -1      2534 1.99978E+01 8.87535E-02 2.09261E-04-5.43001E-02 7.53697E-14 3.17487E-13
 -1      2535 2.00146E+01 4.18260E-02 3.18761E-04-3.76848E-02-2.21109E-13-1.80966E-13
 -1      2536 2.00106E+01 5.10844E-02-2.24280E-04-4.20217E-02-2.98126E-14-9.26837E-14
 -1      2537 2.00103E+01 6.47627E-02-8.41393E-05-5.30456E-02 1.38483E-13-8.11178E-14
 -1      2538 4.28266E+00-2.89835E+00 4.85644E-02 3.35658E+00 2.95597E-14 1.45595E-12
 -1      2539 3.13626E+00-2.88672E+00 8.02748E-02 1.15305E+00 3.60163E-14 1.48931E-12
 -1      2540 1.84553E+01-5.29005E+00-2.61998E-03 6.68249E+00-1.54765E-13-6.98712E-14
 -1      2541 1.46255E+01-5.06321E+00 8.28740E-02 6.75468E+00-4.50195E-13 2.73934E-13
 -1      2542 1.97702E+01 1.65608E-01 4.23106E-03-8.61365E-03 1.86635E-13 1.53194E-13
 -1      2543 1.98304E+01 2.16707E-01 1.25608E-02 8.71076E-02 2.08459E-13 1.86701E-13
 -1      2544 1.99178E+01 2.14821E-01-4.39235E-03-2.59615E-02 2.12668E-13 2.03047E-14
 -1      2545 2.00144E+01 2.21095E-02 3.61854E-04-2.08388E-02-1.60265E-13 5.48743E-13
 -1      2546 2.85923E+00-3.04883E+00 5.07859E-02-9.34466E-01 7.54986E-14 1.34270E-12
 -1      2547 3.83467E+00-3.36853E+00 3.94738E-02-3.08163E+00-9.09273E-14 1.16634E-12
 -1      2548 2.47904E+01-4.43907E+00-7.03260E-02 4.64571E+00 2.65288E-13-3.53217E-13
 -1      2549 2.17423E+01-5.13566E+00 5.78015E-03 5.43721E+00 1.39833E-13-2.47982E-13
 -1      2550 2.05501E+01 1.96054E+00-1.36593E-02-1.86878E+00-4.27616E-13-1.94806E-13
 -1      2551 2.04211E+01 1.22610E+00-5.35357E-03-1.25109E+00-3.94055E-13-1.58115E-13
 -1      2552 2.03876E+01 1.38705E+00 2.62946E-03-1.18569E+00-3.59553E-13-2.34838E-13
 -1      2553 2.02967E+01 2.37403E+00-7.83943E-03-1.79166E+00-4.06415E-13-3.05906E-13
 -1      2554 6.06134E+00-3.89489E+00 4.91513E-02-4.67455E+00 1.71807E-14 9.48408E-13
 -1      2555 8.90225E+00-4.26739E+00 2.72838E-02-6.11247E+00-1.32117E-14 5.36710E-13
 -1      2556 3.02499E+01-7.49057E-01-6.54318E-02-1.13936E-01-1.88724E-13 1.39277E-13
 -1      2557 3.16653E+01 1.41843E+00-1.49648E-01 7.34373E-01-2.74752E-13 5.48728E-14
 -1      2558 3.10797E+01-2.83608E-01-1.36916E-01 3.81821E-01-4.97914E-13 3.26517E-13
 -1      2559 2.90514E+01-2.33851E+00-3.19981E-02 1.79434E+00-3.79308E-13 2.60625E-13
 -1      2560 1.95217E+01 3.63773E+00-1.01691E-02-2.35278E-01 4.97607E-14-5.59792E-13
 -1      2561 1.95393E+01 3.61550E+00-9.57043E-03-4.10245E-01-9.14072E-15-5.49537E-13
 -1      2562 1.97122E+01 3.22447E+00-2.12719E-04-4.51738E-01-2.86258E-14-5.00700E-13
 -1      2563 1.96744E+01 3.28924E+00-4.99229E-04-1.44672E-01 6.30741E-14-5.26649E-13
 -1      2564 3.26456E+01 7.12920E+00-9.48444E-02 4.67782E-01 9.54903E-13-4.93910E-14
 -1      2565 3.21113E+01 7.51689E+00-1.40597E-01 3.16320E-02 1.01291E-12-1.61836E-13
 -1      2566 3.36092E+01 6.93253E+00-7.53857E-02 6.05052E-01-8.81906E-13 2.83579E-13
 -1      2567 3.33514E+01 7.35608E+00-1.28683E-01 1.96580E-01-8.72802E-13 3.06154E-13
 -1      2568 3.21476E+01 6.81210E+00-1.61517E-01-7.20181E-01 9.46743E-13-3.14040E-13
 -1      2569 3.21658E+01 5.61160E+00-1.03618E-01-9.25638E-01 8.13738E-13-3.18190E-13
 -1      2570 3.21237E+01 4.42832E+00-9.20713E-02 7.59400E-01 6.10206E-13 2.67009E-14
 -1      2571 3.29075E+01 5.96713E+00-1.20704E-01 7.15992E-01 7.99361E-13 2.22877E-14
 -1      2572 3.00795E+01-2.30497E-01-5.57194E-02-5.70443E-01 2.37844E-13 8.91509E-14
 -1      2573 3.15625E+01 1.85185E+00-1.29901E-01 2.15460E-01 3.76033E-13 8.10463E-15
 -1      2574 2.59725E+01-4.01514E+00-1.42737E-02-3.52821E+00-6.06182E-14-1.30285E-13
 -1      2575 2.83669E+01-2.73234E+00-1.20853E-01-2.28913E+00 5.48034E-14 9.13714E-14
 -1      2576 1.91042E+01-5.36639E+00-7.97861E-03-6.19197E+00-4.27436E-15-3.68927E-13
 -1      2577 2.29382E+01-4.77630E+00-5.28271E-02-5.48539E+00-1.72085E-15-3.29126E-13
 -1      2578 1.25946E+01-4.80610E+00 7.91908E-02-6.82125E+00-1.22152E-13-5.46896E-13
 -1      2579 1.59112E+01-5.22342E+00 2.06072E-02-7.01289E+00 2.98095E-14-4.35811E-13
 -1      2580 1.90487E+01-5.30787E+00 7.23049E-02-6.20951E+00-2.22766E-13-1.90215E-13
 -1      2581 5.55237E+00-3.14577E+00 9.62680E-02-4.15281E+00-1.43136E-13-7.64722E-13
 -1      2582 8.58719E+00-3.78191E+00 5.54585E-02-5.99250E+00-1.61426E-13-6.68826E-13
 -1      2583 3.29600E+00-2.46815E+00 8.44163E-02 3.47107E-01-1.65215E-14-8.72413E-13
 -1      2584 3.69834E+00-2.59911E+00 7.30029E-02-2.09192E+00-2.24681E-14-9.10605E-13
 -1      2585 6.76306E+00-3.49157E+00 7.16639E-02 5.00236E+00 1.56597E-13-6.57918E-13
 -1      2586 4.71827E+00-2.60685E+00 1.19375E-01 2.86958E+00 1.25511E-13-7.89480E-13
 -1      2587 1.24408E+01-5.08637E+00 2.38825E-03 6.84667E+00 9.86433E-14-4.64212E-13
 -1      2588 9.04816E+00-4.66948E+00 2.91601E-02 6.04467E+00 1.60649E-13-5.57110E-13
 -1      2589 2.01646E+01-5.39306E+00-3.40451E-02 6.19042E+00 3.15858E-14-1.25081E-13
 -1      2590 1.63135E+01-5.56518E+00 1.24189E-02 6.48315E+00 1.35447E-13-2.87230E-13
 -1      2591 2.66304E+01-4.11122E+00-9.79982E-02 3.66250E+00-1.26288E-13 2.12996E-13
 -1      2592 2.36429E+01-5.03012E+00-1.25406E-02 4.66242E+00 9.32587E-15 5.72875E-14
 -1      2593 3.20096E+01 3.62746E+00-1.60607E-01-1.21222E+00-6.03462E-13 1.71863E-13
 -1      2594 3.15236E+01 1.95875E+00-7.93858E-02-1.10297E+00-5.51087E-13 1.65756E-13
 -1      2595 1.24229E+01-5.13217E+00 4.22818E-02-6.52974E+00-1.07692E-14 2.12552E-13
 -1      2596 1.62144E+01-5.35335E+00-3.24390E-02-6.81790E+00-1.23679E-13-2.78555E-13
 -1      2597 3.30969E+01 7.00384E+00-1.11878E-01-5.89217E-01-8.34610E-13 3.20730E-13
 -1      2598 3.24279E+01 5.88463E+00-1.18984E-01-1.04346E+00-7.33025E-13 2.92322E-13
 -1      2599 3.24666E+01 4.16458E+00-1.00697E-01 1.03206E+00-5.10592E-13 6.12010E-14
 -1      2600 3.35220E+01 5.75959E+00-9.51136E-02 8.46680E-01-7.35079E-13 1.02890E-13
 -1      2601 3.12348E+01 6.10663E+00-1.53213E-02 1.33636E+00-6.98774E-13 5.11258E-14
 -1      2602 2.68054E+01-4.05654E+00-2.82410E-02-2.98808E+00-7.51899E-14 2.24681E-13
 -1      2603 2.87858E+01-2.95489E+00-1.31846E-01-1.92162E+00-9.15240E-14 2.17881E-13
 -1      2604 2.04873E+01-5.50823E+00 2.95480E-02-5.65827E+00-1.99230E-13-1.44329E-13
 -1      2605 2.41651E+01-4.89700E+00-4.66015E-02-4.75332E+00-1.15241E-13 1.38098E-13
 -1      2606 2.57957E+01-4.82440E+00 9.35623E-02-3.13238E+00 1.49672E-13 5.18474E-14
 -1      2607 3.18673E+01 3.45149E+00-1.58613E-01-7.82373E-01 5.97494E-13-3.90105E-13
 -1      2608 3.10090E+01 1.52520E+00-6.67047E-02-2.65134E-01 5.17322E-13-4.59799E-13
 -1      2609 2.04890E+01 8.79006E-01-6.85325E-03 1.19864E+00 4.02353E-13 3.79678E-13
 -1      2610 2.08321E+01 1.25854E+00-5.88573E-03 1.70107E+00 4.29500E-13 4.47328E-13
 -1      2611 2.06440E+01 1.71760E+00-1.57918E-02 1.89213E+00 4.80568E-13 2.81067E-13
 -1      2612 2.04571E+01 1.06603E+00-9.55665E-03 1.20484E+00 4.21063E-13 1.84203E-13
 -1      2613 1.01951E+01-4.13599E+00 1.60539E-02 6.59842E+00-4.06980E-13 7.35856E-13
 -1      2614 7.02970E+00-3.54115E+00 1.06147E-01 5.14434E+00-3.25545E-13 1.09759E-12
 -1      2615 3.01698E+01 6.78617E+00-8.88834E-02-5.14639E-01 8.84570E-13-3.09357E-13
 -1      2616 1.99242E+01 2.85378E+00 1.72255E-03-1.05853E+00-2.29896E-13-4.77007E-13
 -1      2617 1.97967E+01 3.18960E+00-1.48536E-02-1.24958E+00-2.56185E-13-5.19420E-13
 -1      2618 1.98938E+01 3.04829E+00-1.71465E-02-1.43774E+00-3.13279E-13-4.82766E-13
 -1      2619 2.00363E+01 3.64008E-01-4.01665E-03 2.38610E-01 2.68802E-13 7.85066E-14
 -1      2620 2.04281E+01 2.12083E+00-1.26671E-02 1.84203E+00 4.70813E-13 8.38791E-14
 -1      2621 1.39903E+01-4.15186E+00 1.37726E-01 6.45371E+00-5.59747E-13 3.49887E-13
 -1      2622 2.00013E+01 2.85714E+00-1.51567E-02-1.54841E+00-3.39780E-13-4.36618E-13
 -1      2623 2.01447E+01 2.62535E+00-2.22789E-02-1.71507E+00-3.88332E-13-3.80000E-13
 -1      2624 2.02995E+01 2.06906E+00 4.27450E-03-1.44506E+00-3.78927E-13-3.28012E-13
 -1      2625 2.01007E+01 2.52185E+00 4.28939E-03-1.30007E+00-3.27973E-13-4.17744E-13
 -1      2626 6.77464E+00-2.47668E+00 1.39456E-01-3.97591E+00 1.01363E-13 9.43551E-13
 -1      2627 2.66566E+01-4.04592E+00 3.31953E-02 2.69254E+00 1.38722E-13-6.13870E-13
 -1      2628 1.95472E+01-5.33121E+00 8.95004E-02-5.90423E+00 3.56104E-14-1.06671E-13
 -1      2629 3.06373E+01 2.28265E+00-5.26672E-02 1.81930E+00-2.72449E-13-1.14520E-13
 -1      2630 3.09456E+01 6.78238E+00-6.54791E-02-3.55428E-01-8.45324E-13 1.70468E-13
 -1      2631 2.00179E+01 2.12306E-02 1.22836E-05 2.44724E-02-1.60157E-13 4.08470E-13
 -1      2632 2.12025E+01-5.26449E+00 8.20548E-02 5.51939E+00-2.99455E-13-2.82357E-13
 -1      2633 2.00182E+01 2.82602E-02 4.62674E-05 3.02956E-02-1.66723E-13 3.96825E-13
 -1      2634 1.22412E+01-4.05538E+00 1.31927E-01-6.23989E+00 1.14964E-13 2.38143E-13
 -1      2635 4.74927E+00-1.68601E+00 1.53614E-01 4.16539E-02 5.13999E-14 1.44312E-12
 -1      2636 7.41694E+00-2.24174E+00 1.69784E-01 4.22875E+00-2.55559E-13 1.03609E-12
 -1      2637 3.02531E+01 4.37194E+00-6.47444E-02-1.95817E+00-7.28306E-13 9.75608E-14
 -1      2638 2.81284E+01-3.64166E+00 4.84652E-02 1.74083E+00-1.16615E-13 2.80082E-13
 -1      2639 2.04460E+01 1.81948E+00 1.24812E-02 1.52433E+00 4.43467E-13 3.29207E-14
 -1      2640 2.28573E+01-5.42702E+00 7.41253E-02 4.87131E+00 2.02616E-13 1.39638E-13
 -1      2641 2.00222E+01 3.87491E-02 2.58758E-04 4.24167E-02-2.19406E-13 3.25839E-13
 -1      2642 2.91819E+01-2.24506E+00-1.34113E-02-4.11188E-02 1.39585E-14-1.32672E-14
 -1      2643 1.59846E+01-5.04184E+00 9.56360E-02 6.54160E+00 2.40447E-13-2.69680E-13
 -1      2644 9.86354E+00-3.22208E+00 1.26836E-01 5.44439E+00 2.55018E-13-5.53835E-13
 -1      2645 5.98316E+00-1.49964E+00 1.73166E-01 1.79129E+00 1.14797E-13-7.69496E-13
 -1      2646 1.16493E+01-3.92649E+00 1.26874E-01-6.36411E+00-2.34229E-13-5.98063E-13
 -1      2647 1.44461E+01-4.12999E+00-8.25431E-03-6.44335E+00-3.40991E-13-4.08534E-13
 -1      2648 1.09965E+01-2.64540E+00 1.51563E-01-5.75805E+00-2.96652E-13-5.40179E-13
 -1      2649 2.49132E+01-4.76529E+00 5.68468E-02-3.87252E+00-1.79162E-13 1.60288E-14
 -1      2650 2.87909E+01-2.05199E+00-2.90079E-02-4.93574E-01-1.06339E-14 2.58515E-13
 -1      2651 3.04858E+01 2.74080E+00-4.47140E-02 1.37518E+00 3.24990E-13 3.03979E-13
 -1      2652 3.01994E+01 1.21974E-01-1.61062E-02-1.11817E+00-4.31849E-13 1.71529E-13
 -1      2653 2.95739E+01-4.23090E-01-1.55606E-02-4.66236E-01 3.54154E-13-5.73736E-13
 -1      2654 3.02065E+01 4.04608E+00-5.86774E-02-1.62085E+00 6.31495E-13-3.66374E-13
 -1      2655 3.04376E+01 6.22783E+00-6.91919E-02 1.05443E+00 7.66637E-13 2.14689E-13
 -1      2656 6.42691E+00-1.87953E+00 1.65803E-01-3.17553E+00-1.65340E-13-7.70772E-13
 -1      2657 2.00224E+01 2.33702E-02 3.34838E-04-2.85961E-02-1.08067E-13 6.78202E-13
 -1      2658 2.00181E+01 3.22147E-02-2.78410E-04-3.39446E-02-1.34125E-13 4.89656E-14
 -1      2659 2.00224E+01 4.38920E-02 2.63988E-04-4.64942E-02 1.98844E-14-3.62163E-14
 -1      2660 2.00307E+01 2.66152E-02 6.59946E-04-3.69309E-02-7.32665E-14 6.90197E-13
 -1      2661 2.00320E+01 3.69365E-02-4.82556E-04-5.12089E-02 1.44647E-13 1.58211E-13
 -1      2662 1.98398E+01 2.83587E+00-6.21643E-03 4.87076E-01 2.33108E-13-4.50917E-13
 -1      2663 1.98117E+01 2.88888E+00-5.96797E-03 3.43099E-01 1.95707E-13-4.80277E-13
 -1      2664 1.97926E+01 2.93007E+00-5.66121E-03 2.16687E-01 1.59210E-13-4.90761E-13
 -1      2665 1.97828E+01 2.94817E+00-5.60500E-03 7.00851E-02 1.17078E-13-4.84452E-13
 -1      2666 1.99337E+01 2.59151E+00 4.08016E-03 2.44926E-01 1.62596E-13-4.47368E-13
 -1      2667 2.00551E+01 2.36870E+00-1.04437E-02 9.97271E-01 3.71523E-13-3.14686E-13
 -1      2668 1.99867E+01 2.52354E+00-6.67408E-03 8.64386E-01 3.45094E-13-3.60850E-13
 -1      2669 2.02330E+01 1.93755E+00-1.17561E-02 1.17798E+00 3.99921E-13-1.80732E-13
 -1      2670 2.01388E+01 2.18145E+00-5.15687E-03 1.08423E+00 3.77557E-13-2.45999E-13
 -1      2671 2.02010E+01 1.93534E+00 6.48025E-03 8.70494E-01 3.51087E-13-2.59258E-13
 -1      2672 2.02410E+01 7.52819E-01-2.83910E-03 5.85027E-01 3.30876E-13 4.65193E-15
 -1      2673 2.03740E+01 9.72091E-01 9.17708E-03 8.56543E-01 3.56837E-13 3.38582E-14
 -1      2674 2.41819E+01-5.28122E+00-1.08815E-01 3.72323E+00 1.90778E-13 2.80269E-13
 -1      2675 2.15868E+01-5.19011E+00 9.73966E-02 4.90012E+00 3.13388E-13 9.72677E-14
 -1      2676 2.03531E+01 1.51615E+00-1.61042E-03 1.22423E+00 4.07946E-13-2.70010E-15
 -1      2677 2.69628E+01-3.76775E+00-1.51917E-01 1.39868E+00 8.42243E-14-7.86662E-13
 -1      2678 2.52668E+01-4.64330E+00 6.27163E-02 2.98601E+00-1.23172E-13-6.04780E-13
 -1      2679 2.02486E+01 6.71034E-01 6.97369E-03-3.59220E-01-2.02289E-13-2.18287E-13
 -1      2680 2.01768E+01 5.31046E-01-2.28280E-03-1.85198E-01-1.71414E-13-2.09027E-13
 -1      2681 2.01557E+01 4.26016E-01 6.28147E-03-4.80769E-02-1.57884E-13-1.81960E-13
 -1      2682 2.01114E+01 3.42529E-01-7.59884E-04 6.84644E-02-1.45606E-13-1.87525E-13
 -1      2683 2.02305E+01 6.02952E-01-1.71512E-03-1.51746E-01-1.65606E-13-2.10435E-13
 -1      2684 2.00905E+01 2.83760E-01 4.03976E-03 1.66432E-01-1.36646E-13-1.62614E-13
 -1      2685 2.00743E+01 2.37943E-01 4.53546E-04 2.48064E-01-8.69628E-14-1.52497E-13
 -1      2686 2.01738E+01 3.98284E-01-2.34383E-03 9.49333E-02-1.34502E-13-1.94311E-13
 -1      2687 2.00597E+01 2.07599E-01 2.30954E-03 3.21055E-01-7.80439E-14-1.57021E-13
 -1      2688 2.00668E+01 1.86769E-01 1.30476E-03 3.82917E-01-9.36439E-14-1.85363E-13
 -1      2689 2.01317E+01 2.84449E-01-2.14963E-03 2.76176E-01-9.32946E-14-1.94748E-13
 -1      2690 2.00592E+01 1.75663E-01 9.85494E-04 4.42194E-01-1.09345E-13-1.72113E-13
 -1      2691 2.00851E+01 1.72229E-01 1.94111E-03 4.95143E-01-1.02001E-13-1.80314E-13
 -1      2692 2.01078E+01 2.30610E-01-1.76056E-03 4.16381E-01-1.09422E-13-1.79476E-13
 -1      2693 2.00836E+01 1.74597E-01-4.27507E-06 5.49532E-01-9.18631E-14-1.73809E-13
 -1      2694 2.01250E+01 1.83431E-01 2.45843E-03 6.01314E-01-1.05404E-13-1.67366E-13
 -1      2695 2.01003E+01 2.18647E-01-1.34723E-03 5.36269E-01-9.50507E-14-1.73726E-13
 -1      2696 2.01285E+01 1.95094E-01-7.40798E-04 6.57403E-01-8.09347E-14-1.58680E-13
 -1      2697 2.01835E+01 2.12090E-01 2.89976E-03 7.13387E-01-6.43749E-14-1.22065E-13
 -1      2698 2.01062E+01 2.36065E-01-9.69167E-04 6.51688E-01-8.44039E-14-1.08443E-13
 -1      2699 2.01908E+01 2.29253E-01-1.26692E-03 7.75851E-01-5.71113E-14-1.08007E-13
 -1      2700 2.02584E+01 2.50198E-01 3.27154E-03 8.39298E-01-3.56987E-14-9.78168E-14
 -1      2701 2.01225E+01 2.72825E-01-6.51205E-04 7.74252E-01-2.08662E-14-8.94845E-14
 -1      2702 2.02693E+01 2.68412E-01-1.57569E-03 9.10998E-01-4.21005E-14-8.32286E-14
 -1      2703 2.03498E+01 2.87867E-01 3.55530E-03 9.82919E-01-1.47304E-14-9.02369E-14
 -1      2704 2.01471E+01 3.18701E-01-4.28997E-04 9.11778E-01-2.99345E-14-8.81730E-14
 -1      2705 2.03657E+01 3.00890E-01-1.59139E-03 1.06475E+00-5.98072E-15-1.14833E-13
 -1      2706 2.04605E+01 3.10859E-01 3.71347E-03 1.14334E+00 2.37209E-14-8.98903E-14
 -1      2707 2.01802E+01 3.60691E-01-3.92535E-04 1.06832E+00-2.63216E-14-1.14767E-13
 -1      2708 2.04855E+01 3.09258E-01-1.13935E-03 1.23376E+00 2.57016E-14-1.17321E-13
 -1      2709 2.05982E+01 2.97591E-01 3.68701E-03 1.31334E+00-8.47293E-15-1.08197E-13
 -1      2710 2.02254E+01 3.80001E-01-7.37810E-04 1.24378E+00 1.38351E-14-9.37691E-14
 -1      2711 2.06422E+01 2.67191E-01 9.66813E-05 1.40747E+00-4.50225E-14-9.33404E-14
 -1      2712 2.07800E+01 2.15985E-01 3.35884E-03 1.47693E+00-5.41789E-14-5.30330E-14
 -1      2713 2.02942E+01 3.48466E-01-1.83203E-03 1.43286E+00-1.32227E-14-6.74026E-14
 -1      2714 2.08619E+01 1.36780E-01 2.59872E-03 1.56473E+00-8.36008E-14-4.37165E-14
 -1      2715 2.10373E+01 2.19569E-02 2.49134E-03 1.60532E+00-6.98831E-14-4.13602E-14
 -1      2716 2.04107E+01 2.25023E-01-4.28538E-03 1.62304E+00-8.00236E-14-5.12428E-14
 -1      2717 2.11905E+01-1.30548E-01 7.10686E-03 1.66823E+00 4.61797E-14-4.17591E-14
 -1      2718 2.14214E+01-3.35936E-01 4.00046E-04 1.65106E+00 1.04428E-13-2.02401E-14
 -1      2719 2.06209E+01-4.53796E-02-8.90930E-03 1.79026E+00 3.03701E-15 3.78618E-14
 -1      2720 2.16979E+01-5.83049E-01 1.41732E-02 1.65467E+00 7.88032E-14 9.48807E-15
 -1      2721 2.20034E+01-8.93016E-01-3.74336E-03 1.53817E+00 5.42791E-14 5.43447E-14
 -1      2722 2.10020E+01-5.24933E-01-1.66436E-02 1.88948E+00 8.56817E-14 2.37445E-14
 -1      2723 2.24678E+01-1.22923E+00 2.40557E-02 1.42368E+00 6.33350E-14 1.10097E-13
 -1      2724 2.28511E+01-1.61195E+00-1.11446E-02 1.15820E+00 9.87470E-14 1.82518E-13
 -1      2725 2.16656E+01-1.24767E+00-2.65059E-02 1.83714E+00 1.18100E-13 1.17716E-13
 -1      2726 2.35450E+01-1.95474E+00 3.11518E-02 8.31449E-01 9.21839E-14 2.34788E-13
 -1      2727 2.39740E+01-2.25533E+00-1.71732E-02 3.81674E-01 1.36012E-13 2.44918E-13
 -1      2728 2.27356E+01-2.13340E+00-3.25757E-02 1.48278E+00 1.30688E-13 1.65441E-13
 -1      2729 2.48214E+01-2.40022E+00 1.63305E-02-2.19143E-01 1.43583E-13 2.55755E-13
 -1      2730 2.52274E+01-2.27330E+00-1.03505E-02-8.07703E-01 1.05933E-13 2.53839E-13
 -1      2731 2.41951E+01-2.83348E+00-4.46120E-02 6.18742E-01 1.44848E-13 2.08080E-13
 -1      2732 2.59287E+01-1.86435E+00-4.52523E-02-1.60629E+00 7.38749E-14 2.97828E-13
 -1      2733 2.60608E+01-1.02543E+00-4.66320E-03-2.05029E+00-7.66331E-14 2.99278E-13
 -1      2734 2.59284E+01-2.60123E+00-2.12314E-02-8.43683E-01 1.01998E-13 1.96308E-13
 -1      2735 2.72341E+01 7.59347E-01-1.10912E-01-2.48408E+00-3.50872E-13 2.08410E-13
 -1      2736 2.70402E+01 2.39088E+00-1.01977E-01-2.36898E+00-5.44398E-13 1.08684E-13
 -1      2737 2.57323E+01 4.27142E+00-9.58623E-02 3.17906E-01-4.71678E-13-3.36272E-13
 -1      2738 2.57752E+01 3.74459E+00-1.66378E-01 1.39080E+00-4.01054E-13-4.05350E-13
 -1      2739 2.61431E+01-3.66458E-01-3.90147E-02 2.26758E+00 2.06342E-13-6.29605E-13
 -1      2740 2.61043E+01-1.39638E+00-4.81061E-02 1.97038E+00 2.14044E-13-5.86710E-13
 -1      2741 2.54954E+01-2.08851E+00-2.02862E-02 1.18155E+00 1.93771E-13-4.93112E-13
 -1      2742 2.51695E+01-2.37514E+00 9.48883E-03 5.90090E-01 1.51333E-13-4.76055E-13
 -1      2743 2.63351E+01-2.21185E+00 9.16194E-04 1.21018E+00 2.83612E-13-6.10522E-13
 -1      2744 2.42989E+01-2.34519E+00-2.23387E-02-8.82654E-02 1.08251E-13-3.58228E-13
 -1      2745 2.38844E+01-2.10944E+00 3.10532E-02-5.82698E-01 1.64870E-13-3.45237E-13
 -1      2746 2.46684E+01-2.89574E+00-3.71706E-02-2.95683E-01 1.77313E-13-4.49136E-13
 -1      2747 2.31309E+01-1.78826E+00-1.35364E-02-9.75387E-01 2.04293E-13-2.35961E-13
 -1      2748 2.27329E+01-1.40229E+00 2.68965E-02-1.28250E+00 1.78978E-13-8.68394E-14
 -1      2749 2.30918E+01-2.34595E+00-3.49165E-02-1.29440E+00 2.31641E-13-3.31183E-13
 -1      2750 2.22121E+01-1.04873E+00-5.04635E-03-1.43572E+00 3.60996E-14-9.34823E-14
 -1      2751 2.18888E+01-7.10843E-01 1.69530E-02-1.58018E+00 1.30812E-14-9.47644E-14
 -1      2752 2.19065E+01-1.44517E+00-2.79309E-02-1.74851E+00 1.07493E-13-8.92671E-14
 -1      2753 2.15723E+01-4.36032E-01-3.23145E-04-1.59340E+00 4.03332E-14-1.46567E-14
 -1      2754 2.13287E+01-2.01525E-01 8.97603E-03-1.62521E+00 6.31465E-14-1.55140E-14
 -1      2755 2.11533E+01-6.59050E-01-1.85241E-02-1.84805E+00 8.62794E-14 8.07013E-14
 -1      2756 2.11509E+01-2.36960E-02 1.98353E-03-1.56619E+00 1.87724E-14-2.89636E-14
 -1      2757 2.09694E+01 1.14774E-01 3.85680E-03-1.52954E+00 6.50519E-15-7.12046E-14
 -1      2758 2.07152E+01-1.12678E-01-1.04854E-02-1.76406E+00 4.58937E-15 1.49779E-13
 -1      2759 2.08743E+01 2.13012E-01 3.03364E-03-1.43741E+00 2.60299E-15-9.77776E-14
 -1      2760 2.07356E+01 2.80921E-01 9.27094E-04-1.36429E+00 2.45064E-14-3.00801E-14
 -1      2761 2.04732E+01 2.12124E-01-5.21470E-03-1.59292E+00-3.38354E-14-1.51337E-13
 -1      2762 2.06854E+01 3.24179E-01 3.44354E-03-1.26087E+00-1.60462E-17-8.88126E-14
 -1      2763 2.05753E+01 3.46627E-01-5.79481E-04-1.17256E+00-6.60606E-14-1.08929E-13
 -1      2764 2.03413E+01 3.74065E-01-2.24873E-03-1.38729E+00-6.30844E-14-2.57256E-13
 -1      2765 2.05475E+01 3.56054E-01 3.50685E-03-1.06996E+00-1.06863E-13-1.56971E-13
 -1      2766 2.04577E+01 3.52169E-01-1.23222E-03-9.79665E-01-1.18108E-13-1.14183E-13
 -1      2767 2.02662E+01 4.30358E-01-8.15270E-04-1.17596E+00-1.50148E-13-3.86476E-13
 -1      2768 2.04403E+01 3.42895E-01 3.36828E-03-8.84438E-01-7.20124E-14-1.63917E-13
 -1      2769 2.03658E+01 3.25527E-01-1.40752E-03-7.99719E-01-1.31838E-13-1.78181E-13
 -1      2770 2.02184E+01 4.24766E-01-2.35432E-04-9.74775E-01-1.11654E-13-2.42825E-13
 -1      2771 2.03531E+01 3.07328E-01 3.10355E-03-7.15096E-01-2.17046E-13-1.18193E-13
 -1      2772 2.02912E+01 2.84431E-01-1.34051E-03-6.39760E-01-1.27432E-13-6.69571E-14
 -1      2773 2.01830E+01 3.86883E-01-7.38277E-05-7.92245E-01-8.42705E-14-2.34655E-13
 -1      2774 2.02805E+01 2.63170E-01 2.76492E-03-5.66927E-01 2.26795E-14 9.67364E-14
 -1      2775 2.02294E+01 2.39337E-01-1.16794E-03-5.02390E-01 6.83676E-14 2.70839E-13
 -1      2776 2.01536E+01 3.35235E-01-8.61776E-05-6.32307E-01 2.58930E-14 8.82328E-14
 -1      2777 2.02198E+01 2.18289E-01 2.39323E-03-4.41273E-01 9.69097E-14 2.11513E-13
 -1      2778 2.01782E+01 1.95967E-01-9.64501E-04-3.87509E-01 1.16534E-13 2.78636E-13
 -1      2779 2.01275E+01 2.80671E-01-1.48531E-04-4.95960E-01 3.14937E-14 3.02098E-13
 -1      2780 2.01696E+01 1.76802E-01 2.01922E-03-3.37292E-01 5.10400E-14 3.68236E-13
 -1      2781 2.01361E+01 1.57143E-01-7.67873E-04-2.93482E-01 5.96190E-14 4.06417E-13
 -1      2782 2.01042E+01 2.29081E-01-2.06305E-04-3.82341E-01 1.78764E-13 7.58152E-14
 -1      2783 2.01284E+01 1.40588E-01 1.66340E-03-2.52963E-01 3.54419E-14 5.84987E-13
 -1      2784 2.01019E+01 1.24002E-01-5.94236E-04-2.17900E-01 2.17329E-13 3.93991E-13
 -1      2785 2.00835E+01 1.83325E-01-2.39627E-04-2.89498E-01 9.77315E-14 8.66414E-14
 -1      2786 2.00951E+01 1.10252E-01 1.33958E-03-1.85720E-01 1.64702E-13 3.58359E-13
 -1      2787 2.00745E+01 9.67408E-02-4.47374E-04-1.58068E-01-1.32271E-14 3.35933E-13
 -1      2788 2.00655E+01 1.44489E-01-2.45237E-04-2.14928E-01 9.77235E-14 1.10255E-13
 -1      2789 2.00685E+01 8.57316E-02 1.06793E-03-1.32847E-01 6.10813E-14 2.95690E-13
 -1      2790 2.00526E+01 7.50021E-02-3.10504E-04-1.11256E-01 1.91837E-13 1.15315E-13
 -1      2791 2.00499E+01 1.12672E-01-2.20590E-04-1.55936E-01-6.48950E-14 4.14191E-14
 -1      2792 2.00473E+01 6.62411E-02 7.77684E-04-9.18257E-02 3.64471E-13 1.60269E-13
 -1      2793 2.00354E+01 5.83134E-02-7.23285E-05-7.52446E-02 4.33168E-13-1.48624E-14
 -1      2794 2.00365E+01 8.70003E-02-3.03148E-04-1.09800E-01 2.19476E-13-1.50974E-14
 -1      2795 1.99970E+01 1.39962E-01 1.59310E-03-3.46132E-01 1.23962E-13-5.82232E-14
 -1      2796 1.99823E+01 1.60935E-01 2.91380E-03-2.91218E-01 1.37787E-13-3.59915E-14
 -1      2797 2.00326E+01 5.33970E-02 5.87786E-04-6.47696E-02 3.86481E-13-8.88576E-14
 -1      2798 2.00260E+01 4.86513E-02 6.72389E-05-5.56100E-02 2.37937E-13 4.47136E-15
 -1      2799 2.00268E+01 6.92776E-02-3.70284E-04-7.89535E-02 3.35794E-13-3.04353E-13
 -1      2800 1.99931E+01 1.89319E-01 1.00586E-03-2.21256E-01 1.48275E-13-3.67247E-14
 -1      2801 2.00067E+01 2.31438E-01 4.98931E-03-1.45012E-01 1.65707E-13-6.11673E-15
 -1      2802 2.00746E+01 2.31146E-01-2.79566E-03-2.51805E-01 1.59196E-13-8.49852E-14
 -1      2803 2.01035E+01 1.18655E-01 2.37130E-03-5.31696E-01 1.05651E-13 5.52246E-14
 -1      2804 2.00487E+01 1.17128E-01 5.60470E-04-4.91119E-01 1.45099E-13 3.22804E-14
 -1      2805 2.01968E+01 1.27988E-01 2.61364E-03-6.18259E-01 1.26716E-13 3.87878E-14
 -1      2806 2.01265E+01 1.21835E-01-2.40261E-05-5.77097E-01 1.27184E-13 5.92664E-14
 -1      2807 2.01184E+01 1.55329E-01-1.56129E-03-5.91441E-01 1.28396E-13 2.72933E-14
 -1      2808 2.03143E+01 1.40026E-01 2.72353E-03-7.09400E-01 1.54749E-13-2.10158E-14
 -1      2809 2.02296E+01 1.33412E-01-3.20628E-04-6.65848E-01 1.28549E-13 6.88821E-16
 -1      2810 2.01775E+01 1.67194E-01-1.38931E-03-6.89747E-01 1.61906E-13-3.42775E-14
 -1      2811 2.04565E+01 1.45617E-01 2.62465E-03-8.05491E-01 1.72458E-13-6.72112E-14
 -1      2812 2.03577E+01 1.43527E-01-3.38346E-04-7.60336E-01 1.71818E-13 5.09023E-15
 -1      2813 2.02568E+01 1.80062E-01-1.37557E-03-7.93289E-01 1.67944E-13-4.10403E-14
 -1      2814 2.06262E+01 1.33035E-01 2.20114E-03-9.01149E-01 1.38294E-13-6.81326E-14
 -1      2815 2.05130E+01 1.41934E-01-3.43972E-05-8.58270E-01 1.65403E-13-4.06498E-14
 -1      2816 2.03588E+01 1.81715E-01-1.56994E-03-9.02095E-01 1.62951E-13 2.37270E-14
 -1      2817 2.08284E+01 8.70563E-02 1.29543E-03-9.83850E-01-1.51386E-14 2.16864E-15
 -1      2818 2.07004E+01 1.15303E-01 6.86147E-04-9.50972E-01 5.41473E-14-6.45394E-14
 -1      2819 2.04890E+01 1.56512E-01-2.06792E-03-1.01028E+00 6.73725E-14 4.33062E-14
 -1      2820 2.10713E+01-1.08867E-02-2.94462E-04-1.03213E+00-5.22417E-14 1.82774E-14
 -1      2821 2.09282E+01 4.66886E-02 1.95579E-03-1.02166E+00-2.00747E-14 3.30910E-14
 -1      2822 2.06579E+01 8.44826E-02-3.01115E-03-1.10459E+00-2.44666E-14 4.09203E-14
 -1      2823 2.13658E+01-1.79780E-01-2.79649E-03-1.01394E+00 6.46835E-15-5.34874E-14
 -1      2824 2.12082E+01-8.32533E-02 3.88500E-03-1.04338E+00-2.14643E-14 1.01695E-14
 -1      2825 2.08824E+01-5.78698E-02-4.54931E-03-1.16230E+00-1.64485E-14 3.30785E-14
 -1      2826 2.17232E+01-4.30369E-01-6.33277E-03-8.86456E-01-7.71927E-14 6.83923E-14
 -1      2827 2.15541E+01-2.91014E-01 6.43188E-03-9.77402E-01-4.52826E-14-1.75217E-14
 -1      2828 2.11861E+01-2.92683E-01-6.69447E-03-1.14877E+00-5.73247E-14 3.99802E-14
 -1      2829 2.21472E+01-7.46885E-01-1.06019E-02-6.00507E-01-8.63250E-14 2.18759E-13
 -1      2830 2.19762E+01-5.77439E-01 9.17426E-03-7.74245E-01-8.95567E-14 1.72836E-13
 -1      2831 2.15960E+01-6.27784E-01-8.94435E-03-1.01559E+00-1.22309E-13 1.34081E-13
 -1      2832 2.26176E+01-1.05768E+00-1.43058E-02-1.16413E-01-8.97242E-14 2.12948E-13
 -1      2833 2.24654E+01-9.03928E-01 1.06680E-02-3.82757E-01-3.47687E-14 2.58827E-13
 -1      2834 2.21305E+01-1.03031E+00-9.77628E-03-7.03338E-01-9.95616E-14 1.89644E-13
 -1      2835 2.30674E+01-1.20759E+00-1.46812E-02 5.57880E-01-1.56414E-13 1.86721E-13
 -1      2836 2.29676E+01-1.16063E+00 7.82369E-03 2.21798E-01-1.99549E-13 1.59430E-13
 -1      2837 2.27703E+01-1.38669E+00-6.59903E-03-1.58697E-01-8.85187E-14 1.58248E-13
 -1      2838 2.33733E+01-9.69689E-01-6.80010E-03 1.30673E+00-9.45877E-14 2.34780E-13
 -1      2839 2.33642E+01-1.15307E+00-2.75262E-03 9.81563E-01-7.97946E-14 2.38663E-13
 -1      2840 2.34176E+01-1.48100E+00 2.61159E-04 6.14024E-01-1.42532E-13 1.78676E-13
 -1      2841 2.33977E+01-1.74848E-01 9.71482E-03 1.83776E+00 1.48874E-14 2.24940E-13
 -1      2842 2.34896E+01-6.51804E-01-1.93082E-02 1.67695E+00-6.05375E-14 1.74943E-13
 -1      2843 2.38771E+01-1.02588E+00 9.07457E-03 1.46266E+00-4.80688E-14 1.98775E-13
 -1      2844 2.31131E+01 1.02916E+00 1.83958E-02 1.74759E+00 9.68739E-14 1.68855E-13
 -1      2845 2.32567E+01 3.92910E-01-3.78116E-02 1.91659E+00 6.92215E-14 1.84239E-13
 -1      2846 2.39461E+01 1.32810E-01 1.17171E-02 2.00438E+00 5.52366E-14 1.07593E-13
 -1      2847 2.27509E+01 2.01591E+00 5.77405E-03 8.31199E-01 2.05998E-13 6.67357E-14
 -1      2848 2.28448E+01 1.58834E+00-3.97022E-02 1.34456E+00 1.56077E-13 1.47693E-13
 -1      2849 2.36213E+01 1.61288E+00-1.07428E-02 1.73852E+00 1.32831E-13 4.90545E-14
 -1      2850 2.26777E+01 2.10655E+00-2.08104E-02-5.52275E-01 2.12256E-13-1.43355E-13
 -1      2851 2.26550E+01 2.20141E+00-1.08628E-02 7.91743E-02 2.47982E-13-8.77678E-15
 -1      2852 2.33155E+01 2.60901E+00-3.36926E-02 5.22210E-01 2.75641E-13 1.98010E-14
 -1      2853 2.29844E+01 1.22540E+00-3.87566E-02-1.64007E+00 2.16835E-13-2.88389E-13
 -1      2854 2.28570E+01 1.76381E+00 1.34556E-02-1.22276E+00 2.27700E-13-2.34048E-13
 -1      2855 2.33877E+01 2.39673E+00-2.95271E-02-1.00705E+00 2.84141E-13-1.06269E-13
 -1      2856 2.33740E+01 6.59441E-03-3.20186E-02-1.92431E+00 2.37718E-13-3.25667E-13
 -1      2857 2.32369E+01 6.18389E-01 1.81111E-02-1.87542E+00 2.75311E-13-2.98241E-13
 -1      2858 2.37623E+01 1.14430E+00-9.21061E-04-1.94123E+00 2.55853E-13-2.72320E-13
 -1      2859 2.34947E+01-8.75188E-01-1.44269E-02-1.49120E+00 4.76130E-14-4.69685E-13
 -1      2860 2.34347E+01-4.91639E-01 4.38948E-03-1.72409E+00 1.44080E-13-3.84002E-13
 -1      2861 2.39789E+01-3.09401E-01 1.36103E-02-1.90053E+00 2.58122E-13-3.57972E-13
 -1      2862 2.32682E+01-1.19148E+00 8.66602E-04-7.42108E-01-2.28152E-14-5.53768E-13
 -1      2863 2.33111E+01-1.09728E+00-1.00979E-02-1.08298E+00-1.29646E-14-5.48862E-13
 -1      2864 2.37720E+01-1.23678E+00 9.47046E-03-1.20960E+00 5.83983E-14-5.96366E-13
 -1      2865 2.28250E+01-1.08267E+00 8.55992E-03-2.59412E-02 2.63077E-14-4.13998E-13
 -1      2866 2.29452E+01-1.17814E+00-1.51736E-02-3.42335E-01-1.04101E-14-5.06479E-13
 -1      2867 2.32255E+01-1.48184E+00-1.48382E-03-3.60420E-01-6.95658E-14-5.50610E-13
 -1      2868 2.23242E+01-7.80692E-01 9.98871E-03 4.99489E-01-6.60993E-14-2.33357E-13
 -1      2869 2.24826E+01-9.48763E-01-1.34101E-02 2.67484E-01 5.19806E-14-3.32733E-13
 -1      2870 2.25668E+01-1.26643E+00-7.79661E-03 3.35287E-01-6.34102E-14-4.06710E-13
 -1      2871 2.18634E+01-4.55096E-01 8.31311E-03 8.11788E-01-1.18506E-13-1.96721E-13
 -1      2872 2.20300E+01-6.19358E-01-9.18064E-03 6.72967E-01-3.99255E-14-1.58827E-13
 -1      2873 2.19606E+01-8.70057E-01-8.99073E-03 7.87585E-01-1.14799E-13-2.24150E-13
 -1      2874 2.14781E+01-1.88654E-01 5.77725E-03 9.49565E-01-1.81016E-13-6.11258E-14
 -1      2875 2.16365E+01-3.16200E-01-5.10437E-03 8.88400E-01-1.64117E-13-1.24179E-13
 -1      2876 2.14738E+01-4.77827E-01-7.59833E-03 1.02022E+00-2.12138E-13-1.20549E-13
 -1      2877 2.11686E+01-3.44651E-03 3.55019E-03 9.65125E-01-1.40643E-13 8.43410E-14
 -1      2878 2.13121E+01-8.85343E-02-1.99016E-03 9.59368E-01-2.00976E-13-5.70858E-14
 -1      2879 2.11088E+01-1.70409E-01-5.54906E-03 1.09197E+00-2.01680E-13-1.51849E-13
 -1      2880 2.09225E+01 1.08351E-01 1.93139E-03 9.04859E-01 7.44438E-14 2.94327E-14
 -1      2881 2.10492E+01 5.92943E-02 1.30269E-04 9.33866E-01-8.73939E-14-3.47068E-14
 -1      2882 2.08422E+01 3.67298E-02-3.76688E-03 1.05936E+00-1.32251E-13 3.88007E-15
 -1      2883 2.07262E+01 1.64622E-01 8.84068E-04 8.03891E-01 1.11586E-13 9.50638E-14
 -1      2884 2.08361E+01 1.41833E-01 1.43282E-03 8.51560E-01 1.88255E-13 1.58102E-13
 -1      2885 2.06469E+01 1.57841E-01-2.51271E-03 9.66332E-01 6.15046E-14-1.48364E-13
 -1      2886 2.05685E+01 1.83413E-01 2.68898E-04 6.86476E-01 5.20948E-14 3.02562E-13
 -1      2887 2.06623E+01 1.77849E-01 2.13065E-03 7.41513E-01 4.01745E-14 2.60386E-13
 -1      2888 2.05013E+01 2.15634E-01-1.72120E-03 8.43923E-01-2.09548E-15 7.30207E-14
 -1      2889 2.04412E+01 1.79283E-01-5.62553E-05 5.68127E-01 5.94658E-16 3.84325E-13
 -1      2890 2.05201E+01 1.83934E-01 2.40723E-03 6.23291E-01 2.04196E-14 3.20206E-13
 -1      2891 2.03901E+01 2.31471E-01-1.24995E-03 7.12726E-01 3.33088E-14 3.86295E-13
 -1      2892 2.03386E+01 1.62695E-01-2.02213E-04 4.57917E-01-2.17321E-13 3.66477E-13
 -1      2893 2.04039E+01 1.72648E-01 2.40762E-03 5.09007E-01-5.32476E-14 4.62385E-13
 -1      2894 2.03032E+01 2.22098E-01-9.71987E-04 5.85539E-01-1.14090E-13 3.95732E-13
 -1      2895 2.02563E+01 1.40606E-01-2.45085E-04 3.60451E-01-2.69237E-14 2.95183E-13
 -1      2896 2.03094E+01 1.52656E-01 2.24074E-03 4.05388E-01-1.74615E-13 2.28114E-13
 -1      2897 2.02344E+01 1.99375E-01-7.98896E-04 4.69604E-01-1.33984E-13 4.15413E-13
 -1      2898 2.01909E+01 1.17349E-01-2.32954E-04 2.77397E-01 1.51433E-13 2.84890E-14
 -1      2899 2.02332E+01 1.29539E-01 1.98475E-03 3.15487E-01 1.58441E-13 2.01803E-13
 -1      2900 2.01795E+01 1.71121E-01-6.77263E-04 3.68361E-01 9.37805E-14 1.78011E-13
 -1      2901 2.01394E+01 9.54268E-02-1.98146E-04 2.08596E-01 7.10593E-14-5.21281E-14
 -1      2902 2.01726E+01 1.06659E-01 1.69240E-03 2.39994E-01 7.70188E-14-2.85103E-14
 -1      2903 2.01357E+01 1.42167E-01-5.78262E-04 2.82758E-01 2.08276E-13 6.56364E-14
 -1      2904 2.00994E+01 7.61667E-02-1.56496E-04 1.52883E-01 1.85225E-13-5.54895E-14
 -1      2905 2.01250E+01 8.58653E-02 1.39547E-03 1.78204E-01 1.36173E-13-9.22729E-14
 -1      2906 2.01010E+01 1.15249E-01-4.95019E-04 2.12210E-01 1.62793E-13-1.18931E-14
 -1      2907 2.00687E+01 6.01854E-02-8.48473E-05 1.08532E-01-1.15900E-14 1.69634E-13
 -1      2908 2.00880E+01 6.81286E-02 1.11538E-03 1.28627E-01 1.20828E-13 1.25270E-13
 -1      2909 2.00734E+01 9.18379E-02-4.13896E-04 1.55299E-01-2.66960E-14 8.71680E-14
 -1      2910 2.00457E+01 4.75676E-02 1.72707E-04 7.37934E-02-2.32555E-13 4.60757E-13
 -1      2911 2.00596E+01 5.35447E-02 8.56294E-04 8.93216E-02-1.01787E-13 3.87183E-13
 -1      2912 2.00515E+01 7.25175E-02-3.50747E-04 1.10158E-01-1.61096E-13 5.11151E-13
 -1      2913 2.00283E+01 4.10318E-02 2.27873E-04 5.10373E-02-2.55792E-13 4.15944E-13
 -1      2914 2.00384E+01 4.59869E-02 6.54780E-04 6.34599E-02-2.13743E-13 4.17988E-13
 -1      2915 2.00340E+01 6.03390E-02-6.52468E-04 7.93556E-02-2.34682E-13 3.91730E-13
 -1      2916 2.00212E+01 5.41698E-02-5.72411E-04 5.90143E-02-2.71077E-13 2.23214E-13
 -1      2917 2.29197E+01-5.26232E+00-6.42944E-02 4.59801E+00-2.54491E-13-3.57447E-13
 -1      2918 2.02676E+01-4.94398E+00 1.21036E-01 5.48891E+00-5.23109E-13-2.96438E-13
 -1      2919 1.99574E+01 1.48066E-01-3.85683E-04 7.24334E-03 1.58745E-13-6.29781E-13
 -1      2920 1.99593E+01 1.46128E-01-1.74328E-04 1.89541E-02 2.27935E-13-5.69484E-13
 -1      2921 2.77700E+01-3.25402E+00 1.15316E-02-1.88709E-01 2.06423E-13-2.12219E-13
 -1      2922 2.84371E+01-1.82671E+00-2.07773E-01 1.14492E+00 7.76774E-14-2.60181E-13
 -1      2923 1.99746E+01 1.24939E-01-5.78370E-04 5.22460E-02-7.28140E-14-4.10697E-13
 -1      2924 1.99824E+01 1.16449E-01 1.54927E-04 5.85471E-02-2.08287E-13-1.29428E-13
 -1      2925 1.99592E+01 1.46471E-01-1.98174E-04-1.89628E-02-1.16301E-14-4.75409E-13
 -1      2926 1.99574E+01 1.48283E-01-3.69828E-04-7.22583E-03 8.18840E-14-5.71876E-13
 -1      2927 1.99474E+01 1.66141E-01 6.43340E-04 1.29696E-04 9.09545E-14-6.96837E-13
 -1      2928 1.99627E+01 1.40579E-01-5.32319E-04 3.22807E-02 9.19318E-14-4.74633E-13
 -1      2929 1.99681E+01 1.35133E-01 3.38757E-05 4.21023E-02 6.83931E-14-3.59695E-13
 -1      2930 1.99644E+01 1.45659E-01 4.74821E-04 5.47946E-02-6.40197E-14-3.44364E-13
 -1      2931 1.99518E+01 1.60652E-01 5.96645E-04 2.97306E-02 1.56007E-13-4.92041E-13
 -1      2932 1.99678E+01 1.36222E-01 1.97698E-05-4.19126E-02 1.07889E-13-2.82020E-13
 -1      2933 1.99626E+01 1.41420E-01-5.23795E-04-3.21629E-02 3.83627E-15-1.12364E-13
 -1      2934 1.99517E+01 1.61559E-01 6.23782E-04-2.93322E-02 1.02031E-13-2.68538E-13
 -1      2935 1.99822E+01 1.18007E-01 1.95483E-04-5.87471E-02 1.87736E-13 5.23516E-14
 -1      2936 1.99743E+01 1.26287E-01-6.13970E-04-5.22602E-02 2.46922E-13-2.99457E-13
 -1      2937 1.99641E+01 1.47388E-01 5.26466E-04-5.45217E-02 2.04758E-13-8.39030E-14
 -1      2938 1.99995E+01 9.36231E-02 8.44637E-05-6.61641E-02 1.43120E-13 4.84511E-13
 -1      2939 1.99909E+01 1.04423E-01-5.68629E-04-6.44800E-02 1.77353E-13 4.11671E-13
 -1      2940 1.99828E+01 1.25099E-01 3.64718E-04-7.17679E-02 2.56804E-13 2.38936E-13
 -1      2941 1.81294E+01-4.62136E+00 1.45559E-01-5.84500E+00 2.65135E-13-1.79891E-13
 -1      2942 2.13235E+01-5.26223E+00-9.14184E-02-4.99796E+00 1.87905E-13-1.66128E-13
 -1      2943 9.58103E+00-1.82948E+00 5.00854E-02 4.88407E+00-3.86371E-13 6.66606E-13
 -1      2944 7.63262E+00-9.53874E-01 2.05801E-01 2.94698E+00-1.84727E-13 1.01119E-12
 -1      2945 2.03383E+01 1.60063E+00-8.75613E-03-1.19438E+00-3.48483E-13-3.01073E-13
 -1      2946 2.03263E+01 1.23985E+00 1.22644E-03-9.17523E-01-3.20600E-13-2.67683E-13
 -1      2947 2.02569E+01 1.86967E+00-8.66172E-04-1.16955E+00-3.27414E-13-3.38393E-13
 -1      2948 2.91267E+01 6.21598E+00-2.08569E-01 2.64885E-01-7.09349E-13-1.85615E-14
 -1      2949 2.87487E+01 5.98204E+00-1.76536E-01-7.48353E-01-8.46379E-13-5.14692E-15
 -1      2950 2.32859E+01-5.16209E+00 5.91829E-02-4.41552E+00-2.77126E-13 6.27484E-14
 -1      2951 2.54585E+01-4.59096E+00-6.13318E-02-2.74403E+00-2.82080E-13 1.95358E-13
 -1      2952 6.87065E+00-1.36469E+00 1.67028E-01-2.89483E+00 4.33681E-14 1.03842E-12
 -1      2953 8.70882E+00-2.07936E+00 7.77438E-02-4.64598E+00 1.04056E-13 6.75099E-13
 -1      2954 2.00310E+01 2.84215E-01 2.12992E-04-4.72748E-02 1.96893E-13-2.22744E-14
 -1      2955 2.00799E+01 3.60035E-01 7.68746E-03 6.60717E-02 2.46951E-13-3.42150E-15
 -1      2956 2.01158E+01 3.38748E-01-3.11412E-03-7.15714E-02 1.85917E-13-6.59333E-14
 -1      2957 2.00357E+01 1.19919E-01 2.03306E-03-4.44379E-01 1.28460E-13-5.19992E-14
 -1      2958 1.99989E+01 1.27129E-01 1.49610E-03-4.00135E-01 1.08491E-13-5.41246E-14
 -1      2959 2.00640E+01 1.75865E-01-2.30316E-03-3.85149E-01 1.03285E-13-9.24788E-14
 -1      2960 2.00798E+01 1.54791E-01-1.87189E-03-4.93246E-01 9.74572E-14-4.27206E-14
 -1      2961 2.03290E+01 1.01996E+00 2.86948E-03-7.37389E-01-2.87078E-13-2.54993E-13
 -1      2962 2.02504E+01 7.99838E-01-2.94234E-03-4.91558E-01-2.46363E-13-2.40423E-13
 -1      2963 2.02795E+01 8.75924E-01-3.66932E-03-4.41362E-01-2.04397E-13-2.69726E-13
 -1      2964 2.03063E+01 1.25303E+00 2.93509E-03-7.65354E-01-2.67976E-13-2.94429E-13
 -1      2965 1.81303E+01-4.83091E+00-4.70740E-03 6.01421E+00 3.09669E-13-6.05696E-14
 -1      2966 1.49350E+01-4.04746E+00 1.25397E-01 6.14223E+00 2.77278E-13-2.37754E-13
 -1      2967 5.89006E+00-8.66406E-01 1.00429E-01 1.00975E+00-9.75262E-15 1.46050E-12
 -1      2968 5.92489E+00-9.86648E-01 1.54082E-01-1.21769E+00-1.47729E-14 1.45678E-12
 -1      2969 7.99787E+00-5.61869E-01 1.95000E-01-1.95218E+00 3.34663E-14 1.21864E-12
 -1      2970 2.01157E+01 4.54090E-01-7.88395E-04 2.08056E-01 2.72476E-13-2.49745E-14
 -1      2971 2.02046E+01 5.85773E-01 1.03946E-02 3.82469E-01 2.87809E-13-3.41112E-15
 -1      2972 2.02816E+01 8.58816E-01 4.15975E-04 5.47663E-01 3.27271E-13-8.95581E-14
 -1      2973 2.01875E+01 5.31093E-01-2.28175E-03 1.84089E-01 2.62391E-13-8.25231E-14
 -1      2974 1.99266E+01 2.65520E+00-7.69290E-03 7.52925E-01 3.21679E-13-3.81530E-13
 -1      2975 1.98783E+01 2.75231E+00-6.44686E-03 6.09099E-01 2.60580E-13-4.19625E-13
 -1      2976 1.99900E+01 2.46910E+00 4.68952E-03 4.79141E-01 2.34309E-13-4.08547E-13
 -1      2977 2.00816E+01 2.25670E+00 5.81662E-03 6.95679E-01 2.99923E-13-3.29903E-13
 -1      2978 1.98736E+01 2.76142E+00-6.49800E-03-5.98924E-01-7.51766E-14-4.59642E-13
 -1      2979 1.99214E+01 2.66708E+00-7.48440E-03-7.43131E-01-1.34649E-13-4.48725E-13
 -1      2980 1.17338E+01-2.96632E+00 1.73922E-01-5.68182E+00 2.65787E-13 2.40141E-13
 -1      2981 1.46254E+01-4.10289E+00 1.58885E-02-6.33498E+00 1.90847E-13-1.36668E-13
 -1      2982 2.90107E+01 1.39651E+00-4.83053E-02 1.72008E+00 1.45384E-13 3.77087E-13
 -1      2983 2.91145E+01 3.35517E+00-1.98488E-01 1.83809E+00 4.30378E-13 4.57287E-13
 -1      2984 2.73756E+01-2.99877E+00-2.71751E-02-6.24430E-01-7.59115E-14 3.22256E-13
 -1      2985 2.84947E+01-1.19758E+00-1.61188E-01 7.45949E-01-2.46470E-14 3.13888E-13
 -1      2986 1.82720E+01-4.71815E+00 1.47830E-01-6.05964E+00-2.97679E-13-1.06651E-13
 -1      2987 2.08620E+01-5.21163E+00-1.94824E-02-5.52708E+00-2.74683E-13 3.25521E-14
 -1      2988 2.23170E+01-4.91576E+00 6.82287E-02-4.40817E+00-3.39617E-13 1.38421E-13
 -1      2989 2.00200E+01 5.82032E-02-1.16212E-05-5.89845E-02 1.97952E-13-3.02078E-13
 -1      2990 7.85666E+00-8.45805E-01 8.76698E-02 2.78132E+00 1.86282E-13-5.69100E-13
 -1      2991 6.73717E+00-5.00406E-01 1.53127E-01 2.36726E-01 7.06197E-14-6.74794E-13
 -1      2992 1.24415E+01-3.03420E+00 9.14729E-02 5.86629E+00 2.28928E-13-4.74537E-13
 -1      2993 1.03275E+01-1.66698E+00 1.79225E-01 4.59461E+00 2.49190E-13-5.65270E-13
 -1      2994 1.50631E+01-2.86239E+00 1.16699E-01 5.35851E+00 2.94417E-13-2.00659E-13
 -1      2995 2.84427E+01 1.16884E-01-2.04813E-01-1.48186E+00 3.02751E-13-4.02595E-13
 -1      2996 2.81747E+01-1.78603E+00 1.56744E-03-5.02707E-01 2.03906E-13-5.39374E-13
 -1      2997 2.90771E+01 1.15285E+00-3.54314E-02 2.15391E+00-7.42739E-14-3.43905E-13
 -1      2998 2.94102E+01 3.10942E+00-2.28914E-01 2.16354E+00-3.43781E-13-2.98594E-13
 -1      2999 6.83870E+00-6.79051E-01 1.61337E-01-1.66177E+00-1.25656E-13-7.18925E-13
 -1      3000 8.40715E+00-1.32178E+00 1.23258E-01-3.80703E+00-2.33397E-13-6.16396E-13
 -1      3001 8.74809E+00-2.30363E-02 1.84532E-01-5.58789E-01-2.00547E-14-5.20417E-13
 -1      3002 2.81930E+01-3.13933E+00-1.25715E-01 2.35927E-01-1.36783E-13 2.54102E-13
 -1      3003 2.66019E+01-4.35805E+00 1.58501E-02 1.76307E+00 6.51770E-14 2.72643E-13
 -1      3004 2.89823E+01 5.18450E+00-1.06774E-01 1.57029E+00-5.74707E-13-2.34188E-13
 -1      3005 2.88169E+01 5.79366E+00-2.22139E-01 7.92410E-01-6.12538E-13-1.30271E-13
 -1      3006 2.85737E+01 4.42427E+00-2.16994E-01-1.76690E+00 6.42375E-13-3.00399E-13
 -1      3007 2.87357E+01 2.76933E+00-7.62058E-02-2.04167E+00 5.20695E-13-3.99056E-13
 -1      3008 2.49626E+01-4.88992E+00 9.33572E-02-3.02204E+00 1.94511E-13-2.77070E-14
 -1      3009 2.66469E+01-4.46490E+00-1.33142E-01-1.67547E+00 2.20039E-13 4.54151E-14
 -1      3010 2.69343E+01-3.53152E+00 2.26597E-02-2.95749E-01 2.73462E-13-2.87673E-13
 -1      3011 2.89211E+01 4.96477E+00-1.37440E-01 1.71185E+00 5.70238E-13 3.93685E-13
 -1      3012 2.84349E+01 6.03785E+00-1.85130E-01 1.05717E+00 6.74627E-13 2.05495E-13
 -1      3013 2.77590E+01 3.51623E+00-1.08276E-01 1.97572E+00 3.45182E-13 4.13503E-13
 -1      3014 1.65611E+01-4.36795E+00-1.83513E-02 6.34158E+00-5.82825E-13-3.28071E-14
 -1      3015 1.30162E+01-3.02901E+00 1.69129E-01 5.94301E+00-5.71279E-13 4.51500E-13
 -1      3016 2.81466E+01 6.43225E+00-1.85603E-01-2.93361E-02 7.77378E-13-1.87003E-14
 -1      3017 2.83028E+01 5.92850E+00-1.38778E-01-1.16842E+00 7.64971E-13-2.52701E-13
 -1      3018 2.71101E+01 3.82962E+00-2.03605E-01-1.79061E+00-6.45012E-13 8.86999E-14
 -1      3019 2.79458E+01-2.42697E-01-1.25175E-01-2.08726E+00-2.46247E-13 1.20848E-13
 -1      3020 1.99796E+01 2.53744E+00-6.91576E-03-8.56768E-01-1.81121E-13-4.33216E-13
 -1      3021 2.00480E+01 2.38586E+00-9.87352E-03-9.87784E-01-2.54883E-13-4.11360E-13
 -1      3022 2.00766E+01 2.26972E+00 5.84470E-03-6.88799E-01-1.47980E-13-3.77254E-13
 -1      3023 1.99144E+01 2.63266E+00 3.90067E-03 4.35952E-03 8.80672E-14-4.53226E-13
 -1      3024 1.97822E+01 2.94910E+00-5.66120E-03-5.72640E-02 7.77922E-14-4.93615E-13
 -1      3025 1.97909E+01 2.93337E+00-5.60897E-03-2.03940E-01 3.01523E-14-4.95151E-13
 -1      3026 2.04450E+01-4.52754E+00 1.05211E-01 4.92837E+00 3.37771E-13 8.42607E-14
 -1      3027 2.03079E+01 1.61193E+00-1.50822E-03 1.11529E+00 3.95188E-13-8.95950E-14
 -1      3028 2.70119E+01-2.79551E+00-1.50898E-02 9.36754E-02 4.27609E-16-5.84324E-13
 -1      3029 2.77606E+01 3.76379E+00-9.50167E-02 1.97445E+00-3.39534E-13-3.92748E-13
 -1      3030 2.64674E+01 2.60050E+00-5.64397E-02 2.26137E+00-2.11428E-13-5.55552E-13
 -1      3031 2.66379E+01 1.04367E+00-1.04120E-01 2.60441E+00 2.49800E-15-5.79502E-13
 -1      3032 2.55508E+01-4.49146E+00 6.56382E-02 2.08802E+00 1.98553E-13 1.42178E-13
 -1      3033 2.42546E+01-4.70526E+00 4.65412E-02 3.20310E+00-3.45821E-13-5.84865E-13
 -1      3034 2.00136E+01 6.96074E-02 2.21068E-04 6.28302E-02-2.43074E-13-2.30778E-14
 -1      3035 2.00193E+01 7.37219E-02 5.16041E-04 7.28082E-02-4.03386E-13 8.23994E-14
 -1      3036 2.00053E+01 8.06847E-02-5.83579E-04 6.53574E-02-3.82576E-13 2.35531E-13
 -1      3037 2.70698E+01 5.52764E+00-1.26964E-01 5.29897E-01 5.87447E-13 3.66651E-14
 -1      3038 2.80505E+01-4.88187E-01-6.22850E-02 1.88540E+00 7.00690E-14-4.78756E-13
 -1      3039 1.27068E+01-1.93994E+00 1.46171E-01 4.98008E+00-4.80310E-13 4.06647E-13
 -1      3040 2.34763E+01-4.65892E+00 8.79468E-02-3.41861E+00 3.13333E-13-1.20563E-13
 -1      3041 2.72096E+01 4.63176E+00-9.68016E-02-1.54515E+00 6.44110E-13-3.10800E-13
 -1      3042 1.73275E+01-3.83482E+00 1.12875E-01-5.59111E+00 3.29681E-13-1.55265E-13
 -1      3043 2.00137E+01 7.08421E-02 1.66179E-04-6.22238E-02 3.25062E-13-1.18816E-13
 -1      3044 1.69465E+01-3.94897E+00 1.22571E-01-5.89941E+00-3.57867E-13-2.41786E-13
 -1      3045 8.42732E+00-3.27593E-01 1.83596E-01 1.82337E+00-2.54397E-13 1.11092E-12
 -1      3046 2.73295E+01 5.43157E+00-1.03015E-01 4.75356E-01-6.08680E-13-2.29369E-13
 -1      3047 2.51441E+01-4.27727E+00 3.63122E-02-2.12863E+00-1.91694E-13 2.25726E-13
 -1      3048 2.65727E+01-4.03174E+00-3.10602E-02-1.37741E+00-1.27870E-13 2.93932E-13
 -1      3049 2.65689E+01-3.15487E+00-1.28750E-01-4.98926E-02-1.12620E-13 3.54938E-13
 -1      3050 1.03626E+01-1.53910E+00 1.81393E-01-4.58960E+00-2.46608E-13-6.32702E-13
 -1      3051 1.23118E+01-1.99768E+00 2.82677E-03-5.03047E+00-2.98275E-13-4.67890E-13
 -1      3052 1.03558E+01-4.92032E-01 1.27930E-01-3.31321E+00-1.52767E-13-5.43843E-13
 -1      3053 1.14981E+01-2.01916E+00 1.61816E-01-4.86524E+00 2.18048E-13 2.91017E-13
 -1      3054 1.98087E+01 2.89444E+00-5.99636E-03-3.29980E-01 1.30186E-15-4.58742E-13
 -1      3055 1.98362E+01 2.84291E+00-6.16042E-03-4.76538E-01-5.40296E-14-4.60797E-13
 -1      3056 1.99859E+01 2.47762E+00 4.62456E-03-4.70143E-01-6.01636E-14-4.29111E-13
 -1      3057 1.99319E+01 2.59542E+00 4.06310E-03-2.35998E-01 4.82280E-15-4.44898E-13
 -1      3058 1.99894E+01 1.04384E-01-5.90037E-04 6.29368E-02-2.60041E-13-5.63343E-14
 -1      3059 1.99980E+01 9.40304E-02 1.64504E-04 6.49499E-02-4.06432E-13 2.15063E-13
 -1      3060 2.00002E+01 1.00640E-01 4.33278E-04 7.56636E-02-2.50522E-13 1.60552E-13
 -1      3061 1.99818E+01 1.24458E-01 4.20570E-04 7.02736E-02-1.26071E-13 3.71001E-14
 -1      3062 2.79508E+01-7.12462E-02-4.63770E-02 1.59476E+00 3.23561E-14 4.05731E-13
 -1      3063 2.00170E+01 7.91244E-02-1.92933E-04-7.73148E-02 1.12983E-13-2.35603E-13
 -1      3064 2.00067E+01 8.59281E-02-2.01163E-04-7.05405E-02 1.82443E-13 1.74635E-13
 -1      3065 2.00027E+01 1.04185E-01 4.86859E-04-8.20394E-02 2.13348E-13 4.67030E-13
 -1      3066 2.00219E+01 8.71959E-02 6.64950E-04-8.87595E-02 2.07308E-13-1.77618E-13
 -1      3067 2.02994E+01 1.40181E+00 2.39468E-03 8.61310E-01 3.67805E-13-1.40379E-13
 -1      3068 1.05537E+01-7.41595E-01 1.54303E-01 3.26338E+00 2.02373E-13-5.60121E-13
 -1      3069 2.76700E+01 1.08952E+00-4.80830E-02-2.03108E+00 3.14790E-13-3.19217E-13
 -1      3070 1.90548E+01-4.23417E+00 1.02157E-01 5.37615E+00-5.48547E-13-1.99816E-13
 -1      3071 2.65685E+01-2.14316E+00-8.08473E-02-8.61836E-01-3.35530E-14-2.97533E-13
 -1      3072 2.61136E+01-3.49066E+00 5.13278E-02 6.68532E-01-1.12979E-13-5.05165E-13
 -1      3073 2.02539E+01 1.53306E+00-6.56526E-03 7.37144E-01 3.26148E-13-2.16073E-13
 -1      3074 2.02084E+01 1.73172E+00-8.44928E-04 6.81712E-01 3.01366E-13-2.79131E-13
 -1      3075 2.01134E+01 2.23953E+00-5.14738E-03-1.05299E+00-2.79944E-13-4.14889E-13
 -1      3076 2.01881E+01 2.04379E+00-1.01631E-02-1.13463E+00-3.16276E-13-3.76984E-13
 -1      3077 2.02662E+01 1.65620E+00 3.35330E-03-9.16905E-01-2.94259E-13-3.50118E-13
 -1      3078 2.01829E+01 1.98942E+00 6.89418E-03-8.45855E-01-2.31782E-13-3.65091E-13
 -1      3079 1.62155E+01-2.74705E+00 1.59239E-01-5.17155E+00 3.48180E-13-2.68272E-13
 -1      3080 1.85947E+01-3.81083E+00-9.09844E-02-4.99821E+00 4.56316E-13-3.88502E-13
 -1      3081 2.02436E+01 5.34597E-01 3.64093E-03 1.99731E-02-1.25256E-13-2.23595E-13
 -1      3082 2.02117E+01 4.44268E-01-1.45933E-03 1.28402E-01-1.05418E-13-2.11550E-13
 -1      3083 2.01923E+01 3.79077E-01 2.31094E-03 2.16185E-01-1.10727E-13-1.85684E-13
 -1      3084 2.01716E+01 3.29954E-01-2.39608E-04 2.97734E-01-1.13850E-13-2.23057E-13
 -1      3085 2.02379E+01 4.94083E-01-6.27097E-04 1.52066E-01-9.69856E-14-1.99194E-13
 -1      3086 2.01467E+01 2.97983E-01 1.13840E-03 3.67217E-01-1.08638E-13-2.09305E-13
 -1      3087 2.01367E+01 2.78228E-01 6.43299E-04 4.33207E-01-9.08493E-14-2.02711E-13
 -1      3088 2.01874E+01 3.77901E-01-7.27412E-04 3.14824E-01-9.96242E-14-1.92088E-13
 -1      3089 2.01087E+01 2.69939E-01 9.77005E-05 4.93129E-01-7.05675E-14-1.81102E-13
 -1      3090 2.01078E+01 2.71405E-01 1.28815E-03 5.52588E-01-8.40707E-14-1.55003E-13
 -1      3091 2.01331E+01 3.28601E-01-5.26920E-04 4.48572E-01-8.81310E-14-2.07240E-13
 -1      3092 2.00769E+01 2.80075E-01-7.93485E-04 6.10110E-01-7.25862E-14-1.16650E-13
 -1      3093 2.00832E+01 2.96593E-01 1.77617E-03 6.69856E-01-4.24196E-14-9.31891E-14
 -1      3094 2.00763E+01 3.27785E-01-1.95217E-04 5.69043E-01-4.68152E-14-1.35524E-13
 -1      3095 2.00485E+01 3.16715E-01-1.54052E-03 7.30633E-01-4.08172E-14-5.92167E-14
 -1      3096 2.00604E+01 3.42723E-01 2.16789E-03 7.95530E-01-2.80451E-15-4.57892E-14
 -1      3097 2.00153E+01 3.61373E-01 1.94957E-04 6.89060E-01-2.96409E-14-1.06805E-13
 -1      3098 2.00209E+01 3.68747E-01-2.14256E-03 8.63820E-01-1.80655E-14-4.86651E-14
 -1      3099 2.00375E+01 3.98067E-01 2.52437E-03 9.36911E-01-3.10349E-14-9.08912E-14
 -1      3100 1.99477E+01 4.16649E-01 5.90919E-04 8.18581E-01-2.50082E-14-7.76223E-14
 -1      3101 1.99928E+01 4.23156E-01-2.56866E-03 1.01576E+00-2.56879E-14-8.99893E-14
 -1      3102 2.00148E+01 4.47637E-01 2.92894E-03 1.09826E+00-1.18357E-14-9.32744E-14
 -1      3103 1.98710E+01 4.79671E-01 9.16143E-04 9.65010E-01-1.40722E-14-8.74888E-14
 -1      3104 1.99662E+01 4.62183E-01-2.72977E-03 1.18974E+00 1.19219E-14-1.07990E-13
 -1      3105 1.99971E+01 4.70034E-01 3.51065E-03 1.28084E+00 1.50913E-14-7.92354E-14
 -1      3106 1.97850E+01 5.32414E-01 1.02172E-03 1.13377E+00 2.29300E-15-7.02348E-14
 -1      3107 1.99494E+01 4.59850E-01-2.43609E-03 1.38627E+00-1.31861E-14-9.22050E-14
 -1      3108 1.99980E+01 4.33636E-01 4.45842E-03 1.48274E+00-3.07829E-14-9.62854E-14
 -1      3109 1.96942E+01 5.49266E-01 6.23765E-04 1.32909E+00 7.36950E-15-1.68382E-13
 -1      3110 1.99637E+01 3.77986E-01-1.30539E-03 1.60273E+00-3.14183E-14-1.09916E-13
 -1      3111 2.00473E+01 2.92545E-01 5.93175E-03 1.69795E+00-5.06954E-14-1.21970E-13
 -1      3112 1.96130E+01 4.92736E-01-7.90909E-04 1.55484E+00-5.22275E-14-1.34658E-13
 -1      3113 2.00519E+01 1.62752E-01 1.35180E-03 1.83136E+00-3.66371E-14-1.60005E-14
 -1      3114 2.02015E+01-1.53409E-02 8.15265E-03 1.91290E+00 1.78555E-14 7.24599E-16
 -1      3115 1.95743E+01 3.08733E-01-4.11268E-03 1.81476E+00 1.18453E-14-1.35978E-13
 -1      3116 2.02924E+01-2.53843E-01 7.34719E-03 2.05366E+00 7.55124E-14 1.72249E-14
 -1      3117 2.05525E+01-5.66433E-01 8.93854E-03 2.09896E+00 1.10421E-13 2.31137E-14
 -1      3118 1.96417E+01-7.60581E-02-1.06383E-02 2.10852E+00 4.67503E-14 5.48975E-15
 -1      3119 2.08199E+01-9.39954E-01 2.04080E-02 2.21585E+00 9.78471E-14 9.54662E-15
 -1      3120 2.12454E+01-1.40685E+00 1.01347E-02 2.18039E+00 1.31144E-13 3.08907E-14
 -1      3121 1.99330E+01-7.62571E-01-2.50446E-02 2.42157E+00 9.39922E-14-3.04518E-14
 -1      3122 2.18137E+01-1.93262E+00 3.79317E-02 2.20826E+00 1.49801E-13 3.04899E-14
 -1      3123 2.24506E+01-2.49761E+00 5.73603E-03 1.98827E+00 1.38859E-13 5.55918E-14
 -1      3124 2.06438E+01-1.78999E+00-4.32012E-02 2.66429E+00 1.20877E-13-8.78776E-14
 -1      3125 2.34692E+01-3.04272E+00 5.63485E-02 1.78342E+00 1.44733E-13 1.09090E-13
 -1      3126 2.44100E+01-3.38496E+00 2.00956E-02 1.21288E+00 1.78902E-13 8.55704E-14
 -1      3127 2.20647E+01-3.04061E+00-3.30536E-02 2.64068E+00 1.83693E-13-6.68233E-14
 -1      3128 2.61090E+01-3.54135E+00-5.74472E-02 2.60889E-01 9.92921E-14 1.02486E-13
 -1      3129 2.69603E+01-2.77580E+00 8.53201E-03-5.50330E-01 4.34514E-14 1.31079E-13
 -1      3130 2.48403E+01-3.51778E+00-1.36972E-03-9.41297E-01 2.65950E-13-3.95535E-13
 -1      3131 2.39947E+01-3.24932E+00 6.68487E-02-1.51965E+00 2.98235E-13-2.89062E-13
 -1      3132 2.28633E+01-2.77117E+00 5.92900E-03-1.86471E+00 3.12495E-13-1.22646E-13
 -1      3133 2.21538E+01-2.19550E+00 4.23685E-02-2.13080E+00 3.45160E-13 6.21725E-14
 -1      3134 2.25574E+01-3.46379E+00-6.25512E-02-2.57562E+00 4.32182E-13 5.52336E-14
 -1      3135 2.15080E+01-1.64443E+00 1.37844E-02-2.13081E+00 1.40090E-13 7.49458E-14
 -1      3136 2.10208E+01-1.14137E+00 2.36546E-02-2.19894E+00 3.86410E-14 7.72687E-14
 -1      3137 2.09007E+01-2.06543E+00-4.02289E-02-2.67319E+00 2.46989E-13 2.38826E-13
 -1      3138 2.06958E+01-7.21471E-01 1.05584E-02-2.08803E+00 1.08284E-13 1.01295E-13
 -1      3139 2.03986E+01-3.69015E-01 9.74798E-03-2.05327E+00 1.40279E-13 1.41031E-13
 -1      3140 2.00643E+01-9.49533E-01-2.44862E-02-2.45354E+00 1.15933E-13 1.22031E-13
 -1      3141 2.02713E+01-9.28282E-02 8.49964E-03-1.90831E+00-2.57932E-15 8.60078E-14
 -1      3142 2.01000E+01 1.19486E-01 2.68696E-03-1.82617E+00-1.55939E-13-8.52532E-14
 -1      3143 1.96839E+01-1.76857E-01-1.26545E-02-2.13492E+00 4.44740E-14-5.41197E-14
 -1      3144 2.00761E+01 2.77655E-01 6.19749E-03-1.68225E+00-2.16436E-13-4.70405E-14
 -1      3145 1.99810E+01 3.87376E-01-6.22221E-04-1.58051E+00-7.65111E-14-1.02399E-13
 -1      3146 1.95676E+01 2.82815E-01-5.32971E-03-1.81981E+00-1.30889E-13 2.41835E-14
 -1      3147 2.00049E+01 4.62573E-01 4.52302E-03-1.44793E+00-4.70780E-14-2.20573E-13
 -1      3148 1.99512E+01 5.04852E-01-2.06588E-03-1.34140E+00-1.76792E-13-2.83315E-13
 -1      3149 1.95811E+01 5.19490E-01-1.24507E-03-1.53426E+00-9.20548E-14-9.20094E-14
 -1      3150 1.99922E+01 5.27445E-01 3.42305E-03-1.22252E+00-1.09457E-13-2.87616E-13
 -1      3151 1.99592E+01 5.29165E-01-2.57646E-03-1.11934E+00-2.81595E-14-1.43462E-13
 -1      3152 1.96480E+01 6.10477E-01 6.19423E-04-1.28177E+00-1.10934E-13-2.66674E-13
 -1      3153 2.00022E+01 5.21237E-01 2.75494E-03-1.01425E+00-7.61164E-14-6.62581E-14
 -1      3154 1.99789E+01 5.00805E-01-2.60410E-03-9.19045E-01-9.16965E-14-1.25598E-13
 -1      3155 1.97281E+01 6.13876E-01 1.28922E-03-1.05968E+00-1.97199E-14 7.39982E-14
 -1      3156 2.00170E+01 4.77087E-01 2.33388E-03-8.27433E-01-5.07590E-14-1.63822E-13
 -1      3157 1.99982E+01 4.46331E-01-2.39509E-03-7.42672E-01-1.67332E-14-3.21244E-15
 -1      3158 1.98028E+01 5.69015E-01 1.37150E-03-8.65464E-01-4.31527E-14 2.09927E-13
 -1      3159 2.00293E+01 4.16049E-01 2.03074E-03-6.64030E-01 3.98391E-14 1.24986E-13
 -1      3160 2.00128E+01 3.82146E-01-2.08607E-03-5.90688E-01 1.29192E-13 1.95170E-13
 -1      3161 1.98647E+01 5.01284E-01 1.19914E-03-6.97352E-01 1.13956E-13 1.60624E-13
 -1      3162 2.00367E+01 3.50743E-01 1.77594E-03-5.24276E-01 9.07382E-14 3.36886E-13
 -1      3163 2.00219E+01 3.17784E-01-1.75196E-03-4.62320E-01 7.78595E-14 2.79538E-13
 -1      3164 1.99126E+01 4.26262E-01 9.46722E-04-5.53810E-01 2.17331E-13 2.17692E-13
 -1      3165 2.00395E+01 2.88250E-01 1.53890E-03-4.07159E-01 7.36313E-14 2.41488E-13
 -1      3166 2.00263E+01 2.58364E-01-1.43377E-03-3.55895E-01 1.14665E-13 1.75882E-13
 -1      3167 1.99477E+01 3.52962E-01 6.98353E-04-4.33138E-01 8.81622E-14 3.88929E-13
 -1      3168 2.00388E+01 2.32162E-01 1.31086E-03-3.10825E-01 1.04750E-13 7.17276E-14
 -1      3169 2.00272E+01 2.06290E-01-1.15053E-03-2.69183E-01 9.69851E-14 1.19479E-13
 -1      3170 1.99723E+01 2.86169E-01 4.85498E-04-3.33318E-01 1.23995E-13 2.43646E-13
 -1      3171 2.00357E+01 1.83977E-01 1.08977E-03-2.32935E-01 9.81363E-14 9.91594E-14
 -1      3172 2.00256E+01 1.62351E-01-9.09396E-04-1.99661E-01 3.67667E-14 9.50162E-15
 -1      3173 1.99886E+01 2.28086E-01 3.25845E-04-2.52073E-01 1.15695E-13 7.14877E-14
 -1      3174 2.00310E+01 1.43997E-01 8.83909E-04-1.70992E-01-9.23892E-14 2.03126E-13
 -1      3175 2.00227E+01 1.26533E-01-6.10460E-04-1.44784E-01-7.61077E-14 2.04244E-13
 -1      3176 1.99988E+01 1.79376E-01 2.42399E-04-1.87043E-01 1.45171E-13 1.02486E-13
 -1      3177 2.00272E+01 1.12225E-01 7.53413E-04-1.25021E-01 1.93533E-14 1.51290E-13
 -1      3178 2.00200E+01 9.84476E-02-3.51666E-04-1.04391E-01 2.43995E-13-7.34192E-15
 -1      3179 2.00093E+01 1.08176E-01-3.69652E-04-1.02305E-01 3.07966E-14 1.00131E-13
 -1      3180 2.00057E+01 1.39470E-01-8.71794E-05-1.38471E-01-1.07909E-13 1.30484E-13
 -1      3181 2.01368E+01 2.78429E-01-2.08544E-05-2.75860E-01 1.46154E-13-1.23913E-13
 -1      3182 2.01545E+01 3.28092E-01 3.09271E-03-1.95370E-01 1.62294E-13-1.07524E-13
 -1      3183 2.01547E+01 2.20972E-01 2.19416E-03-7.28211E-01 1.30306E-13-6.01133E-14
 -1      3184 2.01192E+01 2.11415E-01-6.05715E-04-6.76266E-01 1.33824E-13-5.11944E-14
 -1      3185 2.01274E+01 2.04830E-01 1.87827E-03-6.22716E-01 1.25701E-13-7.63841E-14
 -1      3186 2.01028E+01 2.00176E-01-7.96886E-05-5.72129E-01 1.04987E-13-9.71800E-14
 -1      3187 2.00924E+01 2.52690E-01-8.25631E-04-6.58806E-01 1.13319E-13-1.13435E-13
 -1      3188 2.02604E+01 2.37579E-01 2.50627E-03-9.59576E-01 8.75217E-14 5.37613E-14
 -1      3189 2.02014E+01 2.39340E-01-7.79507E-04-9.02871E-01 1.20993E-13 7.19798E-15
 -1      3190 2.03514E+01 2.04078E-01 2.47995E-03-1.08050E+00 2.28843E-14 1.12084E-13
 -1      3191 2.02763E+01 2.25861E-01-2.58976E-04-1.02607E+00 9.98028E-14 1.12116E-13
 -1      3192 2.01086E+01 2.80271E-01-1.39356E-03-1.02829E+00 6.14758E-14 5.97176E-14
 -1      3193 2.04856E+01 1.12036E-01 2.25397E-03-1.19134E+00-4.07968E-14 8.39140E-14
 -1      3194 2.03884E+01 1.66958E-01 8.91569E-04-1.14716E+00 2.57895E-15 1.21783E-13
 -1      3195 2.01592E+01 2.28361E-01-2.44248E-03-1.16657E+00 1.55580E-14 1.38106E-13
 -1      3196 2.06874E+01-6.73773E-02 1.63118E-03-1.27139E+00 4.47748E-15 1.79711E-14
 -1      3197 2.05585E+01 3.59031E-02 2.93092E-03-1.25031E+00-2.08357E-14 5.67643E-14
 -1      3198 2.02602E+01 1.01520E-01-4.35547E-03-1.30072E+00-2.60716E-14 7.15357E-14
 -1      3199 2.09909E+01-3.62249E-01 1.88556E-04-1.28771E+00-1.13274E-13 1.21876E-13
 -1      3200 2.08187E+01-1.96693E-01 6.12805E-03-1.30874E+00-4.39846E-14 6.18953E-14
 -1      3201 2.04453E+01-1.34670E-01-7.49959E-03-1.41176E+00-6.96023E-14 8.69173E-14
 -1      3202 2.14373E+01-7.85372E-01-2.68402E-03-1.19090E+00-1.26999E-13 8.96962E-14
 -1      3203 2.12114E+01-5.53729E-01 1.06817E-02-1.27995E+00-1.03912E-13 1.12918E-13
 -1      3204 2.07642E+01-5.12224E-01-1.20577E-02-1.46621E+00-1.02263E-13 1.14620E-13
 -1      3205 2.20588E+01-1.30151E+00-7.45740E-03-9.12021E-01-1.13311E-13 1.47970E-13
 -1      3206 2.17808E+01-1.02959E+00 1.65394E-02-1.09976E+00-1.44178E-13 1.22216E-13
 -1      3207 2.12798E+01-1.04190E+00-1.73693E-02-1.40613E+00-1.60909E-13 8.93766E-14
 -1      3208 2.28479E+01-1.77470E+00-1.35457E-02-3.73725E-01-1.50123E-13 1.64571E-13
 -1      3209 2.25444E+01-1.54932E+00 2.09318E-02-6.85204E-01-1.05215E-13 1.70522E-13
 -1      3210 2.20482E+01-1.66921E+00-2.21763E-02-1.14094E+00-1.54076E-13 1.61088E-13
 -1      3211 2.36929E+01-1.91931E+00-2.20371E-02 4.49542E-01-1.34728E-13 1.38672E-13
 -1      3212 2.34338E+01-1.90075E+00 1.72827E-02 3.48139E-02-1.53230E-13 1.43567E-13
 -1      3213 2.30820E+01-2.17850E+00-1.62438E-02-5.42123E-01-1.49655E-13 1.17549E-13
 -1      3214 2.43593E+01-1.27945E+00-1.48361E-02 1.41599E+00 2.10257E-14 7.92578E-14
 -1      3215 2.42403E+01-1.70313E+00 1.29575E-03 1.02943E+00-5.34937E-14 1.54747E-13
 -1      3216 2.42002E+01-2.23609E+00-2.73625E-02 4.33184E-01-3.90495E-14 9.04971E-14
 -1      3217 2.45629E+01 3.41095E-01-4.74989E-03 2.07567E+00 1.25285E-13-5.30912E-15
 -1      3218 2.46518E+01-5.92633E-01-3.25329E-02 1.94065E+00 6.64538E-14 5.67181E-14
 -1      3219 2.51079E+01-1.20956E+00-2.71308E-02 1.58674E+00 5.72702E-14 1.01859E-13
 -1      3220 2.39314E+01 3.53390E+00-4.98991E-02 2.00076E-01 3.60399E-13-4.50529E-15
 -1      3221 2.39679E+01 3.22684E+00-7.18195E-02 9.70086E-01 2.66537E-13 1.66317E-15
 -1      3222 2.40246E+01 2.67940E+00-8.54339E-02-1.45864E+00 3.13777E-13-1.81099E-13
 -1      3223 2.39580E+01 3.33010E+00-2.38169E-02-7.87422E-01 3.82090E-13-1.39486E-13
 -1      3224 2.44803E+01 6.94844E-01-7.45792E-02-2.15771E+00 2.88943E-13-4.23668E-13
 -1      3225 2.43840E+01 1.80183E+00 4.03119E-03-1.98985E+00 2.96353E-13-3.56684E-13
 -1      3226 2.45130E+01-1.04188E+00-3.00325E-02-1.70646E+00 1.92786E-13-4.00614E-13
 -1      3227 2.45362E+01-2.37240E-01 8.56554E-04-1.97095E+00 2.07135E-13-3.56461E-13
 -1      3228 2.52304E+01 2.38894E-01-5.91246E-03-2.14681E+00 2.33636E-13-5.56589E-13
 -1      3229 2.39784E+01-1.82460E+00 1.66425E-03-7.24016E-01-4.28632E-14-3.56210E-13
 -1      3230 2.41689E+01-1.55073E+00-1.45687E-02-1.15783E+00 1.71504E-13-2.66121E-13
 -1      3231 2.48020E+01-1.58720E+00-2.67883E-03-1.26893E+00 1.13486E-13-2.77533E-13
 -1      3232 2.31419E+01-1.78093E+00 1.73913E-02 1.78166E-01-9.66928E-14-3.63227E-13
 -1      3233 2.34244E+01-1.88235E+00-1.83663E-02-2.07987E-01-9.22527E-14-3.77293E-13
 -1      3234 2.38264E+01-2.20433E+00-1.38839E-02-1.45107E-01-5.94350E-14-1.84016E-13
 -1      3235 2.22966E+01-1.34332E+00 1.83592E-02 7.88888E-01-1.83878E-13-1.62220E-13
 -1      3236 2.25916E+01-1.60051E+00-1.38627E-02 5.24447E-01-1.63538E-13-2.73889E-13
 -1      3237 2.27468E+01-1.97633E+00-1.89962E-02 6.91838E-01-1.81657E-13-2.00834E-13
 -1      3238 2.16075E+01-8.25878E-01 1.41336E-02 1.11144E+00-2.11065E-13 1.39145E-14
 -1      3239 2.18638E+01-1.09293E+00-7.35132E-03 9.65447E-01-1.56572E-13-2.96172E-14
 -1      3240 2.18195E+01-1.40280E+00-1.87466E-02 1.16212E+00-2.57950E-13 8.44120E-14
 -1      3241 2.11065E+01-3.85168E-01 9.02436E-03 1.22613E+00-2.57662E-13-2.88036E-14
 -1      3242 2.13082E+01-5.99329E-01-2.83519E-03 1.16982E+00-2.38679E-13 1.22771E-14
 -1      3243 2.11457E+01-8.07319E-01-1.44286E-02 1.35160E+00-2.77722E-13 2.98784E-13
 -1      3244 2.07653E+01-6.78477E-02 5.05817E-03 1.20954E+00-2.06475E-13-5.78388E-14
 -1      3245 2.09166E+01-2.15649E-01-2.74514E-04 1.21319E+00-2.14383E-13-1.22329E-13
 -1      3246 2.07004E+01-3.29376E-01-9.65142E-03 1.36539E+00-1.70150E-13 7.39778E-14
 -1      3247 2.05397E+01 1.32437E-01 2.35989E-03 1.11792E+00 4.46285E-14-1.60162E-13
 -1      3248 2.06520E+01 4.28850E-02 1.06538E-03 1.15779E+00-1.01612E-13-1.29124E-13
 -1      3249 2.04250E+01 6.63000E-04-5.84958E-03 1.28093E+00-1.52859E-13-3.78570E-14
 -1      3250 2.03910E+01 2.41097E-01 6.69518E-04 9.88661E-01-1.24640E-14-1.70778E-13
 -1      3251 2.04754E+01 1.95319E-01 1.71254E-03 1.04768E+00-1.90793E-15-2.42927E-13
 -1      3252 2.02624E+01 2.01284E-01-3.28691E-03 1.14735E+00 7.67511E-14-2.16181E-13
 -1      3253 2.02911E+01 2.85653E-01-3.01857E-04 8.45795E-01-1.20376E-13 2.99620E-14
 -1      3254 2.03561E+01 2.69636E-01 1.99202E-03 9.12322E-01-3.00728E-14-1.07609E-13
 -1      3255 2.01694E+01 3.04621E-01-1.71862E-03 9.94096E-01-1.13471E-13-1.67005E-13
 -1      3256 2.02218E+01 2.89259E-01-7.96601E-04 7.04262E-01-5.81033E-14 2.94882E-13
 -1      3257 2.02729E+01 2.91757E-01 2.06259E-03 7.70791E-01-6.98830E-14 2.74139E-13
 -1      3258 2.01169E+01 3.41588E-01-8.33808E-04 8.38791E-01-1.83560E-13 1.24224E-13
 -1      3259 2.01715E+01 2.69171E-01-9.92829E-04 5.72834E-01-1.06500E-13 3.20055E-13
 -1      3260 2.02125E+01 2.82029E-01 2.00405E-03 6.34863E-01-1.63406E-13 2.43123E-13
 -1      3261 2.00869E+01 3.37028E-01-3.74645E-04 6.91827E-01-1.56746E-13 2.09212E-13
 -1      3262 2.01335E+01 2.37292E-01-1.01300E-03 4.56090E-01-2.94425E-14 4.22000E-14
 -1      3263 2.01667E+01 2.54986E-01 1.86284E-03 5.11242E-01-1.15945E-15 2.69911E-13
 -1      3264 2.00687E+01 3.09039E-01-1.60091E-04 5.58962E-01-4.81310E-14 1.28140E-13
 -1      3265 2.01040E+01 2.01331E-01-9.37194E-04 3.55809E-01 1.43219E-13-6.02752E-14
 -1      3266 2.01309E+01 2.20341E-01 1.67143E-03 4.03145E-01 4.21624E-14-3.20218E-14
 -1      3267 2.00567E+01 2.69935E-01-7.48352E-05 4.42889E-01 1.62341E-13-8.68792E-14
 -1      3268 2.00805E+01 1.65991E-01-8.12765E-04 2.71958E-01 1.58080E-13 5.99883E-14
 -1      3269 2.01022E+01 1.84205E-01 1.45515E-03 3.11470E-01 1.85300E-13 5.86746E-14
 -1      3270 2.00477E+01 2.27622E-01-4.94194E-05 3.44259E-01 1.42623E-13-1.33596E-13
 -1      3271 2.00616E+01 1.33819E-01-6.93501E-04 2.03362E-01 4.45594E-14 2.80873E-13
 -1      3272 2.00789E+01 1.50164E-01 1.22899E-03 2.35608E-01 1.83581E-13 1.23734E-13
 -1      3273 2.00401E+01 1.86899E-01-3.99877E-05 2.62385E-01 8.49070E-14 1.39052E-13
 -1      3274 2.00462E+01 1.06334E-01-5.43707E-04 1.48410E-01-1.41602E-13 3.76500E-13
 -1      3275 2.00600E+01 1.20091E-01 1.00488E-03 1.74235E-01-8.57646E-15 3.29303E-13
 -1      3276 2.00333E+01 1.50299E-01-4.10260E-05 1.95784E-01-7.14835E-14 4.12523E-13
 -1      3277 2.00340E+01 8.40956E-02-1.00421E-04 1.05243E-01-7.48340E-14 3.62037E-13
 -1      3278 2.00444E+01 9.47140E-02 7.87514E-04 1.25214E-01-1.55225E-13 4.29303E-13
 -1      3279 2.00268E+01 1.19175E-01-7.05428E-05 1.42642E-01-1.80009E-13 1.52855E-13
 -1      3280 2.00225E+01 7.70473E-02 2.10477E-04 8.24244E-02-2.34479E-13 1.97528E-13
 -1      3281 2.00301E+01 8.11699E-02 5.50017E-04 9.40267E-02-5.71340E-14 2.85999E-13
 -1      3282 2.00186E+01 1.00657E-01-2.19487E-04 1.07656E-01-6.43539E-14 1.28875E-13
 -1      3283 2.00107E+01 9.08422E-02-5.86134E-04 8.57137E-02-2.03200E-13-1.19618E-13
 -1      3284 1.99384E+01 1.77972E-01-5.91589E-05-4.13461E-02 2.07422E-14-9.07182E-14
 -1      3285 1.99329E+01 1.82162E-01-5.14990E-04-2.66020E-02 4.28964E-14-4.33705E-13
 -1      3286 2.72068E+01-1.01958E+00 3.72995E-02 1.50922E+00-4.95298E-14 3.79530E-13
 -1      3287 2.70956E+01 6.88178E-01-1.60820E-01 2.05959E+00 1.31464E-13 4.61853E-13
 -1      3288 1.99302E+01 1.85137E-01-3.17441E-04-7.51508E-03-4.74992E-15-7.40737E-13
 -1      3289 1.99303E+01 1.84962E-01-2.81337E-04 8.59676E-03 9.03423E-14-6.92927E-13
 -1      3290 1.99182E+01 2.06126E-01 7.69851E-04-1.91483E-02-2.36792E-14-4.97339E-13
 -1      3291 2.59695E+01 4.65010E+00-9.84175E-02 1.22875E+00 3.97918E-13 7.58976E-14
 -1      3292 2.55918E+01 5.03188E+00-1.12447E-01 6.01587E-03 5.62106E-13-1.17270E-13
 -1      3293 2.55366E+01 4.58253E+00-1.53188E-01-9.70752E-01 6.15064E-13-2.79905E-13
 -1      3294 2.59974E+01 3.68985E+00-7.23832E-02-1.79707E+00 5.23276E-13-3.98768E-13
 -1      3295 9.76757E+00 3.91315E-01 6.85837E-02 2.87078E-01 3.84510E-14-3.72147E-13
 -1      3296 9.96142E+00 2.24693E-01 8.95295E-02-1.52358E+00-1.13950E-13-4.04121E-13
 -1      3297 2.00201E+01 2.26473E+00-4.31188E-03 2.63808E-01 1.71565E-13-4.06447E-13
 -1      3298 2.00033E+01 2.30662E+00-3.66525E-03 1.52197E-01 1.14559E-13-4.21905E-13
 -1      3299 1.48270E+01-2.28247E+00 6.26287E-04 5.17743E+00-5.21833E-13-4.21885E-15
 -1      3300 1.23080E+01-8.81317E-01 1.17242E-01 4.04835E+00-3.56153E-13 4.10123E-13
 -1      3301 2.01726E+01 3.92254E-01-1.12142E-03-1.03688E-01 1.78140E-13-9.87549E-14
 -1      3302 2.02070E+01 4.79811E-01 4.03421E-03 7.90123E-03 2.03702E-13-9.77333E-14
 -1      3303 2.02149E+01 4.42758E-01-1.48830E-03-1.29757E-01 1.83348E-13-1.47832E-13
 -1      3304 1.57556E+01-2.90923E+00 1.87667E-01-5.59643E+00-3.77490E-13-2.90323E-13
 -1      3305 1.85207E+01-4.06417E+00-5.53622E-02-5.35669E+00-3.46619E-13-7.14706E-14
 -1      3306 2.46178E+01-3.96172E+00 3.79519E-02 1.71680E+00 2.17510E-13 1.04637E-13
 -1      3307 1.99568E+01 1.60199E-01 1.89801E-04-6.96010E-02 1.23360E-13-2.55950E-14
 -1      3308 1.99462E+01 1.68523E-01-6.93232E-04-5.78668E-02 1.57787E-14-2.24461E-14
 -1      3309 1.99310E+01 1.94449E-01 7.15089E-04-5.67542E-02-8.32770E-14-8.50442E-14
 -1      3310 1.99820E+01 1.33010E-01 3.42278E-05-8.74592E-02 2.57203E-13 2.65854E-13
 -1      3311 1.99690E+01 1.45161E-01-7.24560E-04-8.11274E-02 2.62810E-13 7.70595E-14
 -1      3312 1.99549E+01 1.71350E-01 5.18133E-04-8.66256E-02 8.78412E-14 1.47036E-13
 -1      3313 2.01977E+01 2.36855E-01 2.40380E-03-8.40428E-01 1.51607E-13-2.43110E-14
 -1      3314 2.01512E+01 2.28942E-01-8.57277E-04-7.85575E-01 1.49672E-13-1.85537E-14
 -1      3315 2.00842E+01 2.71530E-01-7.61512E-04-7.72939E-01 1.11982E-13-1.91173E-14
 -1      3316 2.00876E+01 2.86845E-01-9.04595E-04-8.95800E-01 1.15677E-13 3.19306E-14
 -1      3317 2.03136E+01 1.03212E+00-6.90002E-04 6.20615E-01 3.24944E-13-1.23163E-13
 -1      3318 2.02858E+01 1.35626E+00 3.14200E-03 7.03386E-01 3.36699E-13-1.65760E-13
 -1      3319 2.02908E+01 1.19176E+00 1.90404E-03 5.16840E-01 3.00247E-13-1.77821E-13
 -1      3320 2.02620E+01 8.28430E-01-2.97457E-03 4.03709E-01 2.81121E-13-1.17700E-13
 -1      3321 2.18438E+01-4.38303E+00 3.42932E-03 3.92552E+00 2.99150E-13 6.69430E-14
 -1      3322 1.91628E+01-3.70431E+00 8.69705E-02 4.83444E+00 3.06116E-13 6.98053E-14
 -1      3323 2.59559E+01 4.39674E+00-1.38272E-01-3.52021E-01-5.17697E-13-2.25264E-13
 -1      3324 2.02941E+01 7.94341E-01 5.86431E-03-2.42305E-01-1.53689E-13-2.48667E-13
 -1      3325 2.02524E+01 6.44488E-01-3.54994E-03-9.60461E-02-1.36669E-13-2.42734E-13
 -1      3326 2.02779E+01 7.01823E-01-2.63659E-04-5.76835E-02-1.11246E-13-2.36234E-13
 -1      3327 8.53247E+00 1.70448E-02 1.01039E-01-9.96513E-01-4.72478E-14 1.23072E-12
 -1      3328 9.34474E+00-4.29471E-01 7.17815E-02-2.72531E+00 1.15321E-13 8.57980E-13
 -1      3329 2.23919E+01-4.18607E+00 1.32430E-01-3.62755E+00 4.35162E-13-9.33663E-14
 -1      3330 2.47020E+01-4.44385E+00-1.06248E-01-2.01463E+00 3.46240E-13-1.50630E-13
 -1      3331 2.45992E+01-4.40746E+00-1.00396E-01 2.21294E+00-2.41369E-13-6.04525E-13
 -1      3332 2.31469E+01-4.44275E+00 9.35751E-02 3.41579E+00-4.63872E-13-4.56756E-13
 -1      3333 2.15429E+01-4.34880E+00 1.30206E-01-4.36396E+00-2.69826E-13 7.95568E-14
 -1      3334 2.31386E+01-4.72576E+00-5.35675E-02-3.54850E+00-2.71040E-13 1.02864E-13
 -1      3335 1.71901E+01-3.08643E+00 3.58330E-02 5.13154E+00 2.98928E-13 7.56339E-15
 -1      3336 1.50873E+01-1.95066E+00 7.20220E-02 4.71814E+00 2.53540E-13-1.78857E-13
 -1      3337 1.90022E+01-2.95888E+00 4.36034E-02 4.28484E+00 2.49099E-13-1.11439E-14
 -1      3338 1.00118E+01-1.06895E-01 5.97996E-02 2.55199E+00-3.55570E-13 8.27935E-13
 -1      3339 8.81394E+00 1.74711E-01 1.34081E-01 7.40049E-01-2.64911E-13 1.29852E-12
 -1      3340 1.02455E+01 4.25262E-01 1.44414E-01-5.14504E-02-2.03913E-13 1.12703E-12
 -1      3341 2.61818E+01 2.13885E+00-1.53795E-01-2.24918E+00 3.65798E-13-4.35957E-13
 -1      3342 2.63372E+01 3.47985E-01-4.29276E-02-2.01208E+00 1.97092E-13-4.66165E-13
 -1      3343 1.12579E+01-9.04893E-01 1.49728E-01-3.89563E+00 2.26843E-13 2.68868E-13
 -1      3344 1.35339E+01-2.04278E+00 2.18539E-02-4.98470E+00 2.96416E-13 6.07847E-15
 -1      3345 1.55929E+01-1.78615E+00 9.87421E-02-4.46966E+00 3.18811E-13-2.38587E-13
 -1      3346 2.80932E+01-2.22069E+00-8.09506E-02-1.00426E+00-1.09319E-13 1.93026E-13
 -1      3347 2.06510E+01-4.38490E+00-5.51167E-02 4.64522E+00-5.73680E-13-3.67744E-13
 -1      3348 1.78977E+01-3.30652E+00 1.17306E-01 5.17284E+00-5.78031E-13-2.48322E-13
 -1      3349 2.18497E+01-3.88736E+00 5.01295E-02 3.54927E+00-4.20605E-13-2.97546E-13
 -1      3350 2.68740E+01 2.53239E+00-5.50006E-02 2.25512E+00 1.98244E-13 4.04551E-13
 -1      3351 2.64353E+01 3.71677E+00-1.44824E-01 1.89537E+00 3.00315E-13 2.39940E-13
 -1      3352 1.23434E+01-8.86128E-01 5.15049E-02 3.86317E+00 2.04340E-13-4.96658E-13
 -1      3353 1.04026E+01 7.32774E-02 1.08193E-01 2.14394E+00 1.03622E-13-4.81823E-13
 -1      3354 2.60000E+01 3.87984E+00-1.07834E-01-1.37284E+00-5.43565E-13-6.63428E-14
 -1      3355 1.99944E+01 2.32802E+00-3.85937E-03 6.01608E-02 9.83669E-14-4.20583E-13
 -1      3356 1.99940E+01 2.32892E+00-3.85689E-03-5.30128E-02 5.84160E-14-4.27620E-13
 -1      3357 2.01003E+01 2.04907E+00 5.49394E-03 8.73519E-02 9.32408E-14-3.91178E-13
 -1      3358 2.02521E+01 1.54141E+00 6.08588E-03 5.14045E-01 2.63176E-13-2.80882E-13
 -1      3359 2.01591E+01 1.87546E+00-6.69862E-03 6.24795E-01 2.94087E-13-3.15535E-13
 -1      3360 2.01167E+01 2.01232E+00-2.95558E-03 5.34193E-01 2.61133E-13-3.26156E-13
 -1      3361 2.02473E+01 1.57890E+00-2.86665E-03-7.45839E-01-2.27882E-13-3.37904E-13
 -1      3362 2.02929E+01 1.39973E+00-1.65046E-03-7.61542E-01-2.51659E-13-3.25020E-13
 -1      3363 2.02995E+01 1.20292E+00 5.22170E-03-5.93481E-01-2.01190E-13-2.98817E-13
 -1      3364 1.17256E+01-2.95727E-01 1.26062E-01-3.04214E+00 2.76286E-13 4.25923E-13
 -1      3365 1.70928E+01-2.34890E+00 8.04501E-02 4.58626E+00-5.35058E-13-1.68528E-13
 -1      3366 2.10174E+01-3.46198E+00 7.06850E-02-3.68892E+00 4.50098E-13-1.25655E-13
 -1      3367 2.01123E+01 2.02328E+00-3.31160E-03-5.27328E-01-9.95604E-14-3.48850E-13
 -1      3368 2.01580E+01 1.89379E+00-4.91791E-03-6.20796E-01-1.51761E-13-3.43487E-13
 -1      3369 2.75416E+01 1.07598E-01-1.07280E-01 2.33115E+00 5.42622E-14-5.92318E-13
 -1      3370 2.01175E+01 2.20854E-01 8.31163E-04-4.08050E-01 8.06864E-14-1.25768E-13
 -1      3371 2.01189E+01 2.44572E-01 1.75661E-03-3.45848E-01 1.26005E-13-1.34152E-13
 -1      3372 2.01721E+01 3.23037E-01-1.44384E-03-2.98768E-01 1.41089E-13-1.59554E-13
 -1      3373 2.02796E+01 1.02335E+00-3.29147E-03-4.48623E-01-1.73902E-13-2.79253E-13
 -1      3374 2.00848E+01-3.75073E+00 5.07808E-02-4.43986E+00-3.05679E-13-5.45917E-15
 -1      3375 2.01101E+01 2.45448E-01-1.00973E-03-5.48375E-01 6.96927E-14-1.66771E-13
 -1      3376 2.01148E+01 2.00845E-01 1.43881E-03-5.19079E-01 5.16373E-14-1.01071E-13
 -1      3377 2.01022E+01 2.07097E-01 7.04727E-04-4.65897E-01 3.64039E-14-1.53294E-13
 -1      3378 2.52786E+01 3.51706E+00-6.89416E-02 1.47992E+00 2.41356E-13 3.64153E-14
 -1      3379 2.45280E+01 2.64375E+00-2.67236E-02 1.73627E+00 1.45425E-13 4.49796E-14
 -1      3380 2.46935E+01 1.58797E+00-7.24951E-02 2.10224E+00 1.17266E-13 4.66706E-14
 -1      3381 2.55782E+01 1.09202E+00-4.56318E-02 2.23216E+00 1.04923E-13 1.33723E-13
 -1      3382 2.46979E+01 4.00222E+00-7.00551E-02-3.48586E-01 4.54144E-13-1.79978E-13
 -1      3383 2.49998E+01 2.59952E+00-2.97356E-02-1.91053E+00 3.84519E-13-4.61516E-13
 -1      3384 1.99470E+01 1.66479E-01-6.51609E-04 5.85099E-02-5.89851E-14-2.08198E-13
 -1      3385 1.99574E+01 1.57748E-01 1.60930E-04 6.99070E-02-6.28500E-14-2.53394E-13
 -1      3386 1.99331E+01 1.81150E-01-5.37362E-04 2.75037E-02 1.40491E-15-4.50996E-13
 -1      3387 1.99389E+01 1.76515E-01-3.59084E-05 4.23557E-02 1.02723E-14-3.27240E-13
 -1      3388 1.99315E+01 1.92111E-01 6.34352E-04 5.79407E-02-8.44911E-14-2.44655E-13
 -1      3389 1.99185E+01 2.05273E-01 7.64004E-04 2.09408E-02-1.02397E-13-6.15525E-13
 -1      3390 1.18469E+01 5.03429E-01 4.06861E-02-1.46004E+00-1.13479E-13-3.62176E-13
 -1      3391 1.09122E+01 1.17362E-01 1.11337E-01-2.23147E+00-1.64990E-13-5.10592E-13
 -1      3392 1.20307E+01-2.49422E-01-1.26281E-03-3.07454E+00-1.66641E-13-4.82524E-13
 -1      3393 2.59546E+01-3.54745E+00 5.10509E-02-4.44228E-01 2.94491E-13-3.62318E-13
 -1      3394 1.14822E+01 4.46439E-01 1.02747E-01 1.12306E+00 1.63580E-14-4.22287E-13
 -1      3395 1.40261E+01-5.77820E-01 2.07613E-02 3.54865E+00-4.23596E-13 2.00236E-13
 -1      3396 1.20700E+01-3.26185E-01 9.90379E-02 3.31916E+00-3.75006E-13 4.54942E-13
 -1      3397 1.20176E+01 2.32935E-01 4.13273E-02 2.34243E+00-3.76104E-13 5.61412E-13
 -1      3398 1.46129E+01-1.93394E+00 1.04925E-01-4.79961E+00-2.96693E-13-3.51504E-13
 -1      3399 2.32041E+01-4.37174E+00-8.98794E-03 3.04488E+00 2.60778E-13 4.29899E-14
 -1      3400 2.43019E+01-4.17768E+00 8.74873E-03-2.21106E+00-1.90781E-13 8.93209E-14
 -1      3401 2.00731E+01 2.12714E+00-4.88388E-03-4.50692E-01-7.09815E-14-3.86646E-13
 -1      3402 2.01780E+01 1.80564E+00 3.73458E-03-3.94287E-01-7.88881E-14-3.18006E-13
 -1      3403 2.00420E+01 2.20878E+00-3.84695E-03-3.44691E-01-4.41403E-14-4.06879E-13
 -1      3404 2.63482E+01-3.02121E+00-1.10797E-01 5.48017E-01 2.89341E-13-6.09126E-13
 -1      3405 2.49513E+01-3.65673E+00 2.02162E-03 1.11949E+00-1.66207E-13-3.45127E-13
 -1      3406 1.99543E+01 1.69485E-01 6.10860E-04 8.44977E-02-1.93293E-13-1.55420E-13
 -1      3407 1.99678E+01 1.44116E-01-6.49811E-04 7.87312E-02-1.65590E-13-3.32886E-15
 -1      3408 1.99788E+01 1.33975E-01 1.94853E-04 8.37770E-02-1.46937E-13 1.73566E-13
 -1      3409 2.72764E+01-1.95894E+00-8.61054E-03 1.47149E+00 2.04711E-13-5.83894E-13
 -1      3410 2.00768E+01 2.11640E+00-5.27150E-03 4.56821E-01 2.41389E-13-3.54869E-13
 -1      3411 2.00454E+01 2.20233E+00-3.49364E-03 3.51561E-01 2.02286E-13-3.92648E-13
 -1      3412 2.01309E+01 1.96508E+00 5.71585E-03 2.51932E-01 1.54180E-13-3.58610E-13
 -1      3413 2.01860E+01 1.79716E+00 6.13197E-03 4.00432E-01 2.38504E-13-3.09869E-13
 -1      3414 2.02898E+01 1.07369E+00-1.15070E-03-3.77625E-01-1.66203E-13-2.71406E-13
 -1      3415 2.19027E+01-3.66562E+00 3.33504E-03 3.31152E+00 2.33549E-13-5.03382E-14
 -1      3416 2.62493E+01-1.11212E+00-5.68239E-02-1.70189E+00 5.95600E-14-3.91045E-13
 -1      3417 2.02141E+01 5.59823E-01-2.04261E-03 1.10707E-01 2.13998E-13-1.04425E-13
 -1      3418 2.02603E+01 6.97453E-01 3.52109E-03 2.66610E-01 2.45234E-13-1.30085E-13
 -1      3419 2.02829E+01 8.62930E-01 1.12079E-03 3.28339E-01 2.48251E-13-1.35743E-13
 -1      3420 2.02536E+01 6.18132E-01-1.55224E-03 7.56979E-02 2.06697E-13-1.49093E-13
 -1      3421 1.99994E+01 1.17072E-01-3.00338E-04-9.84577E-02 3.85366E-14 1.75206E-13
 -1      3422 1.99900E+01 1.24954E-01-3.90797E-04-9.33384E-02 2.06769E-13 3.48566E-13
 -1      3423 1.99789E+01 1.49231E-01 4.65726E-04-1.04365E-01 1.11072E-13 2.52787E-13
 -1      3424 1.99991E+01 1.32840E-01 5.81558E-04-1.14907E-01-5.73437E-14 1.34541E-13
 -1      3425 1.62573E+01-1.41276E+00-7.79141E-05 3.94843E+00 2.28820E-13-1.25018E-13
 -1      3426 1.44123E+01-1.13625E+00 9.02936E-02 4.11869E+00 2.63043E-13-2.76563E-13
 -1      3427 1.39073E+01-3.18917E-01 2.90178E-02 3.24269E+00 1.69613E-13-3.16577E-13
 -1      3428 2.54964E+01-1.93534E+00-3.63839E-02-1.03565E+00 8.48280E-15-3.44107E-13
 -1      3429 2.02089E+01 1.72493E+00-2.24778E-03-7.02289E-01-1.83555E-13-3.25764E-13
 -1      3430 1.90971E+01-2.89064E+00 1.31720E-01-4.41311E+00-2.97163E-13-1.05922E-13
 -1      3431 2.10811E+01-3.69467E+00-6.05880E-02-3.66412E+00-2.14705E-13 9.00773E-14
 -1      3432 1.99897E+01 1.18237E-01-6.01006E-04 8.66925E-02-1.13036E-13 2.77409E-13
 -1      3433 2.00010E+01 1.06354E-01 1.14424E-04 8.75356E-02-1.60335E-13 1.21785E-13
 -1      3434 2.00034E+01 1.11281E-01 8.35775E-05 9.79260E-02-1.54111E-13 1.26684E-13
 -1      3435 1.99775E+01 1.41566E-01-1.00614E-04 9.65905E-02-2.29667E-13 1.43638E-13
 -1      3436 2.33895E+01-3.83112E+00 3.52062E-02-2.34235E+00-2.05762E-13 1.39590E-13
 -1      3437 2.48539E+01-3.70405E+00-4.83989E-02-1.11147E+00-1.94348E-13 8.29193E-14
 -1      3438 2.02196E+01 4.59104E-01 9.58988E-04 2.50200E-01-8.26744E-14-2.08757E-13
 -1      3439 2.01903E+01 4.13818E-01-5.49973E-04 3.24104E-01-9.00322E-14-2.00528E-13
 -1      3440 2.01505E+01 3.86098E-01 1.47588E-04 3.84266E-01-8.02674E-14-1.78952E-13
 -1      3441 2.01211E+01 3.72300E-01 1.67609E-04 4.47362E-01-5.96821E-14-1.41429E-13
 -1      3442 2.01752E+01 4.59818E-01 4.78752E-04 3.23942E-01-6.54701E-14-1.77017E-13
 -1      3443 2.00701E+01 3.70803E-01-6.91275E-04 5.01789E-01-5.29269E-14-1.28365E-13
 -1      3444 2.00404E+01 3.80359E-01 6.87902E-04 5.61036E-01-2.75349E-14-1.13149E-13
 -1      3445 2.00839E+01 4.25171E-01 6.29814E-04 4.39523E-01-5.24437E-14-1.01478E-13
 -1      3446 1.99784E+01 3.97818E-01-1.48995E-03 6.15246E-01-2.98000E-14-1.60026E-13
 -1      3447 1.99469E+01 4.23806E-01 1.06691E-03 6.76187E-01-2.80706E-14-1.32065E-13
 -1      3448 1.99737E+01 4.42039E-01 9.76683E-04 5.47904E-01-4.86727E-14-1.49503E-13
 -1      3449 1.98728E+01 4.53615E-01-2.24317E-03 7.34776E-01-2.30276E-14-1.44281E-13
 -1      3450 1.98382E+01 4.89254E-01 1.38011E-03 8.01615E-01 6.21058E-16-1.56458E-13
 -1      3451 1.98429E+01 4.95333E-01 1.45139E-03 6.58920E-01-1.33475E-14-1.59621E-13
 -1      3452 1.97502E+01 5.24322E-01-2.96076E-03 8.68443E-01 1.49979E-14-1.42183E-13
 -1      3453 1.97115E+01 5.61818E-01 1.73997E-03 9.44288E-01 7.44088E-15-1.07834E-13
 -1      3454 1.96882E+01 5.70406E-01 2.01181E-03 7.80804E-01 1.00867E-14-1.77072E-13
 -1      3455 1.96078E+01 5.93302E-01-3.65554E-03 1.02298E+00-2.44028E-14-1.28868E-13
 -1      3456 1.95661E+01 6.22473E-01 2.32804E-03 1.11027E+00 6.47814E-15-1.15063E-13
 -1      3457 1.95054E+01 6.50769E-01 2.58313E-03 9.20894E-01 9.04725E-15-1.87392E-13
 -1      3458 1.94460E+01 6.38184E-01-4.32214E-03 1.20509E+00 5.08527E-14-1.39806E-13
 -1      3459 1.94061E+01 6.44719E-01 3.43487E-03 1.30619E+00 1.20513E-14-1.39398E-13
 -1      3460 1.92916E+01 7.15491E-01 3.03783E-03 1.08719E+00 1.13240E-14-1.12462E-13
 -1      3461 1.92713E+01 6.27135E-01-4.89974E-03 1.42336E+00-4.56649E-14-1.37563E-13
 -1      3462 1.92458E+01 5.90446E-01 5.53272E-03 1.54122E+00-3.98606E-14-1.04616E-13
 -1      3463 1.90468E+01 7.35827E-01 3.13347E-03 1.29082E+00 1.85361E-14-1.39275E-13
 -1      3464 1.91041E+01 5.14454E-01-5.07783E-03 1.69067E+00 7.32953E-15-1.04545E-13
 -1      3465 1.91183E+01 4.05071E-01 9.33787E-03 1.82907E+00 4.00413E-14-9.82648E-14
 -1      3466 1.87792E+01 6.70846E-01 2.44200E-03 1.54970E+00 3.29820E-15-1.10624E-13
 -1      3467 1.89908E+01 2.34136E-01-4.16893E-03 2.02609E+00 2.40605E-14-3.88984E-14
 -1      3468 1.90880E+01 1.00260E-02 1.43359E-02 2.18726E+00 3.91628E-14-1.20505E-14
 -1      3469 1.85123E+01 4.61669E-01 8.38525E-05 1.89341E+00 6.84731E-14-9.12356E-14
 -1      3470 1.90290E+01-2.83351E-01 7.95927E-03 2.44566E+00 6.33195E-14-4.68425E-14
 -1      3471 1.92761E+01-7.03718E-01 1.57385E-02 2.62653E+00 7.30846E-14-7.41325E-14
 -1      3472 1.83205E+01 2.20233E-02 1.03267E-03 2.37105E+00 3.52457E-14-4.40780E-14
 -1      3473 2.10730E+01-2.89160E+00 5.21876E-02 3.31172E+00 2.15630E-13-6.32359E-14
 -1      3474 1.99173E+01 2.12844E-01 1.57003E-04-7.44590E-02-3.72475E-14-5.55404E-14
 -1      3475 1.99056E+01 2.20489E-01-7.31176E-04-5.61699E-02-1.11130E-14-2.10844E-13
 -1      3476 2.02377E+01-2.11508E+00 4.66179E-02-3.14506E+00 3.08306E-13-2.52741E-14
 -1      3477 1.95848E+01-1.47136E+00 2.71081E-02-3.04236E+00 1.63113E-13-1.47717E-15
 -1      3478 1.93778E+01-9.00964E-01 2.33025E-02-2.70776E+00 6.23412E-14-1.21052E-13
 -1      3479 1.90687E+01-4.46056E-01 6.22280E-03-2.52696E+00 9.65992E-14-1.26267E-13
 -1      3480 1.83279E+01-1.02807E+00-2.59155E-02-3.14471E+00 1.02234E-13-4.09848E-13
 -1      3481 1.90959E+01-9.19928E-02 1.63555E-02-2.24452E+00 1.54318E-14-1.52023E-13
 -1      3482 1.89628E+01 1.74687E-01-3.34411E-03-2.07204E+00-5.69786E-14-1.88259E-13
 -1      3483 1.82599E+01-9.82453E-02-4.88293E-03-2.47286E+00-1.19512E-14-4.02060E-13
 -1      3484 1.90744E+01 3.81502E-01 1.01470E-02-1.85375E+00-2.92845E-14-1.16936E-13
 -1      3485 1.90417E+01 5.20971E-01-4.99669E-03-1.70186E+00-2.77841E-14 1.87220E-14
 -1      3486 1.84183E+01 4.30582E-01-1.67239E-03-1.94657E+00 8.66503E-15-2.85412E-13
 -1      3487 1.91757E+01 6.21722E-01 5.99879E-03-1.53437E+00-1.34800E-13 4.21690E-15
 -1      3488 1.91912E+01 6.78429E-01-4.92332E-03-1.40320E+00-1.19008E-13-1.32188E-13
 -1      3489 1.86660E+01 7.02388E-01 2.21007E-03-1.56097E+00-6.88299E-14-1.41557E-13
 -1      3490 1.93203E+01 7.12300E-01 3.55407E-03-1.27069E+00-4.47937E-14-1.05373E-13
 -1      3491 1.93537E+01 7.18338E-01-4.44384E-03-1.15657E+00-3.42845E-14-2.96817E-15
 -1      3492 1.89220E+01 8.07330E-01 3.37415E-03-1.26884E+00-9.66463E-14-6.55390E-14
 -1      3493 1.94675E+01 7.12059E-01 2.23860E-03-1.04804E+00-7.71139E-14 1.53543E-13
 -1      3494 1.95034E+01 6.89062E-01-3.87866E-03-9.48299E-01-6.25632E-14 2.02710E-13
 -1      3495 1.91555E+01 8.11981E-01 3.50102E-03-1.03710E+00 4.00563E-14 1.55355E-13
 -1      3496 1.95988E+01 6.60766E-01 1.56790E-03-8.57455E-01-2.86593E-14 1.97871E-13
 -1      3497 1.96305E+01 6.23066E-01-3.32125E-03-7.70558E-01 2.61099E-14 2.10995E-13
 -1      3498 1.93551E+01 7.58841E-01 3.17666E-03-8.46441E-01-3.65700E-14 2.12065E-13
 -1      3499 1.97077E+01 5.84534E-01 1.23525E-03-6.93837E-01 5.84637E-14 2.57172E-13
 -1      3500 1.97329E+01 5.41237E-01-2.80244E-03-6.18877E-01 1.08331E-13 2.30140E-13
 -1      3501 1.95186E+01 6.76233E-01 2.68854E-03-6.86204E-01 3.44895E-14 2.16606E-13
 -1      3502 1.97938E+01 4.99772E-01 1.05910E-03-5.54177E-01 1.56974E-13 2.66129E-13
 -1      3503 1.98124E+01 4.56391E-01-2.33249E-03-4.90411E-01 2.54757E-13 1.57986E-13
 -1      3504 1.96485E+01 5.82358E-01 2.17783E-03-5.50559E-01 1.41365E-13 2.20648E-13
 -1      3505 1.98595E+01 4.16280E-01 9.44252E-04-4.36305E-01 2.27551E-13 8.37734E-14
 -1      3506 1.98724E+01 3.75941E-01-1.91400E-03-3.82913E-01 1.30125E-13 1.87895E-13
 -1      3507 1.97493E+01 4.88419E-01 1.71038E-03-4.36113E-01 1.88345E-13 1.00296E-13
 -1      3508 1.99081E+01 3.39499E-01 8.43931E-04-3.38214E-01 2.47684E-13 2.41849E-13
 -1      3509 1.99165E+01 3.03750E-01-1.56109E-03-2.94230E-01 2.41498E-13 3.48446E-13
 -1      3510 1.98258E+01 4.00906E-01 1.31183E-03-3.40506E-01 2.14515E-13 1.62385E-13
 -1      3511 1.99431E+01 2.72020E-01 7.37920E-04-2.57859E-01 2.13757E-14 3.74648E-13
 -1      3512 1.99481E+01 2.41555E-01-1.22911E-03-2.22251E-01 1.51370E-13 2.85935E-13
 -1      3513 1.98827E+01 3.23101E-01 9.73312E-04-2.61638E-01 1.38071E-13 3.24016E-13
 -1      3514 1.99673E+01 2.14515E-01 5.19241E-04-1.92944E-01 2.21985E-13 1.80079E-13
 -1      3515 1.99708E+01 1.89626E-01-7.23207E-04-1.64888E-01 1.10591E-13 2.11693E-13
 -1      3516 1.99241E+01 2.56699E-01 7.93901E-04-1.97627E-01 1.55214E-13 5.17009E-13
 -1      3517 1.16981E+01 3.53453E-01 8.30353E-02-2.02542E+00 2.95070E-13 5.68226E-13
 -1      3518 1.30605E+01-3.24928E-01-8.98199E-03-3.19873E+00 3.14819E-13 1.50095E-13
 -1      3519 1.99699E+01 2.86726E-01 3.54662E-03-1.20994E+00 8.26153E-15 6.69008E-14
 -1      3520 1.99305E+01 3.23282E-01-9.42004E-04-1.13868E+00 4.34166E-14 9.55469E-14
 -1      3521 1.99599E+01 3.45271E-01 2.86105E-03-1.05560E+00 4.45413E-14 9.45776E-14
 -1      3522 1.99404E+01 3.52066E-01-1.43044E-03-9.86574E-01 6.60212E-14 8.55222E-14
 -1      3523 1.97565E+01 3.96409E-01-8.96696E-04-1.09636E+00 5.00310E-14 1.02314E-13
 -1      3524 2.01950E+01-1.26056E-01 5.28770E-03-1.52290E+00-1.42130E-13 6.80608E-14
 -1      3525 2.00689E+01 2.64192E-02 2.56413E-03-1.46831E+00-1.23505E-13 2.28473E-15
 -1      3526 2.05125E+01-5.59306E-01 5.71817E-03-1.63989E+00-1.45219E-13 1.44779E-13
 -1      3527 2.03051E+01-3.18952E-01 6.57674E-03-1.61732E+00-1.06790E-13 1.04484E-13
 -1      3528 1.98579E+01-1.89741E-01-9.94303E-03-1.68878E+00-1.44981E-13 2.89343E-14
 -1      3529 2.10656E+01-1.18142E+00 3.54424E-03-1.66715E+00-1.98740E-13 1.29156E-13
 -1      3530 2.07487E+01-8.43360E-01 1.32310E-02-1.70944E+00-1.89894E-13 1.23880E-13
 -1      3531 2.01623E+01-7.12954E-01-1.74970E-02-1.89054E+00-1.79349E-13 1.60552E-13
 -1      3532 2.19341E+01-1.94184E+00-9.23659E-04-1.50322E+00-1.45132E-13 9.63849E-14
 -1      3533 2.15034E+01-1.53475E+00 2.86841E-02-1.65617E+00-1.48418E-13 1.34406E-13
 -1      3534 2.07697E+01-1.45767E+00-2.31063E-02-2.02810E+00-1.58604E-13 1.47679E-13
 -1      3535 2.45929E+01-2.79757E+00-3.52094E-03-1.01643E-01-5.75351E-14 7.33476E-14
 -1      3536 2.40012E+01-2.85436E+00 3.68389E-02-6.72803E-01-1.25687E-13 3.45741E-14
 -1      3537 2.59691E+01-1.95751E+00-1.13613E-02 8.93394E-01-4.75765E-14 2.21753E-13
 -1      3538 2.54894E+01-2.75938E+00 1.12219E-02 2.90963E-01-7.78509E-14 1.48891E-13
 -1      3539 2.22633E+01-2.00724E+00 2.85406E-02 1.35738E+00-2.92799E-13 6.98981E-14
 -1      3540 2.27542E+01-2.36787E+00-1.16175E-02 1.08254E+00-1.94362E-13-1.40808E-14
 -1      3541 2.12792E+01-1.25376E+00 2.07523E-02 1.59891E+00-4.49342E-13 2.06471E-13
 -1      3542 2.16676E+01-1.63564E+00-1.05448E-03 1.48091E+00-3.23187E-13 5.96897E-14
 -1      3543 2.14858E+01-2.00302E+00-2.46623E-02 1.88180E+00-3.45440E-13 1.16415E-13
 -1      3544 2.06364E+01-6.10914E-01 1.12345E-02 1.60104E+00-2.38408E-13 2.18214E-13
 -1      3545 2.09118E+01-9.16517E-01 3.92520E-03 1.58299E+00-3.06816E-13 1.80541E-13
 -1      3546 2.06016E+01-1.15466E+00-2.14268E-02 1.89970E+00-3.53793E-13 1.24835E-14
 -1      3547 2.02597E+01-1.45281E-01 5.40181E-03 1.48516E+00-1.05484E-13 4.50609E-14
 -1      3548 2.04384E+01-3.57427E-01 4.96206E-03 1.52236E+00-1.62742E-13 1.35189E-13
 -1      3549 2.00920E+01-4.78839E-01-1.42490E-02 1.74559E+00-1.53826E-13-1.09121E-13
 -1      3550 2.00587E+01 1.54086E-01 1.99746E-03 1.32061E+00-1.14151E-14-2.98248E-14
 -1      3551 2.01678E+01 2.28507E-02 4.40631E-03 1.38572E+00-7.08555E-14 5.79611E-14
 -1      3552 1.98369E+01-1.69417E-02-7.98695E-03 1.53632E+00-7.29689E-14-8.65949E-14
 -1      3553 1.99644E+01 3.23058E-01 6.60826E-05 1.14146E+00 7.14188E-14-2.31588E-14
 -1      3554 2.00288E+01 2.52880E-01 3.56643E-03 1.21846E+00 2.15074E-14 3.50788E-14
 -1      3555 1.97334E+01 2.66111E-01-3.99152E-03 1.31885E+00 1.33517E-14-4.95604E-14
 -1      3556 1.99306E+01 3.99340E-01-9.52601E-04 9.64981E-01-1.48153E-13 7.19525E-14
 -1      3557 1.99680E+01 3.71394E-01 2.82553E-03 1.04446E+00-1.63231E-14 5.73245E-14
 -1      3558 1.97152E+01 4.16486E-01-1.62817E-03 1.11250E+00 4.56809E-15 2.26820E-13
 -1      3559 1.99281E+01 4.14795E-01-1.42044E-03 8.00217E-01-2.44922E-13 1.35040E-13
 -1      3560 1.99501E+01 4.13879E-01 2.27259E-03 8.76567E-01-1.56034E-13 2.65128E-14
 -1      3561 1.97402E+01 4.75604E-01-3.42088E-04 9.24570E-01-1.58209E-13 2.79324E-13
 -1      3562 1.99395E+01 3.93555E-01-1.56373E-03 6.51774E-01-1.14874E-13-5.60948E-14
 -1      3563 1.99531E+01 4.08455E-01 1.88079E-03 7.21763E-01-2.25264E-13-8.70552E-14
 -1      3564 1.97831E+01 4.76375E-01 2.89630E-04 7.57447E-01-1.77695E-13-1.98283E-13
 -1      3565 1.99553E+01 3.52673E-01-1.52268E-03 5.21704E-01 5.11683E-14 1.11752E-14
 -1      3566 1.99645E+01 3.75610E-01 1.59443E-03 5.83652E-01-7.73782E-14-1.40475E-14
 -1      3567 1.98299E+01 4.42907E-01 5.45349E-04 6.11548E-01-5.25564E-14-3.10738E-13
 -1      3568 1.99708E+01 3.03563E-01-1.38336E-03 4.10414E-01 2.10312E-13-5.85347E-14
 -1      3569 1.99777E+01 3.29409E-01 1.36788E-03 4.63708E-01 2.48079E-13-3.32779E-14
 -1      3570 1.98733E+01 3.91939E-01 5.97545E-04 4.86355E-01 1.86753E-13-1.39265E-13
 -1      3571 1.99837E+01 2.53442E-01-1.20202E-03 3.17195E-01 5.02725E-15-6.38747E-14
 -1      3572 1.99895E+01 2.79016E-01 1.17515E-03 3.61948E-01 9.50827E-14-1.50287E-13
 -1      3573 1.99103E+01 3.34556E-01 5.51018E-04 3.80752E-01 1.27940E-13-3.48740E-15
 -1      3574 1.99935E+01 2.06666E-01-9.95635E-04 2.40665E-01 5.29389E-14 1.31045E-13
 -1      3575 1.99986E+01 2.30046E-01 1.00821E-03 2.77447E-01 9.76845E-14 9.29050E-15
 -1      3576 1.99399E+01 2.77669E-01 4.68936E-04 2.93185E-01 1.00334E-14-1.23197E-13
 -1      3577 1.99997E+01 1.65027E-01-1.04832E-03 1.79241E-01-2.60875E-13 1.06506E-13
 -1      3578 2.00047E+01 1.85457E-01 7.66233E-04 2.08532E-01-1.05091E-13 5.90522E-14
 -1      3579 1.99627E+01 2.25419E-01 4.68095E-04 2.21788E-01-8.10932E-14-1.41116E-13
 -1      3580 2.00044E+01 1.30722E-01-4.42919E-04 1.29781E-01-1.06576E-13 8.21956E-14
 -1      3581 2.00083E+01 1.47637E-01 7.36091E-04 1.53082E-01-2.24354E-13 1.58530E-13
 -1      3582 1.99783E+01 1.81417E-01 7.38920E-04 1.64693E-01-2.19913E-13-6.63414E-14
 -1      3583 1.99501E+01 1.84482E-01 2.97477E-04-1.06440E-01 1.02422E-13 3.70692E-13
 -1      3584 1.99323E+01 1.96989E-01-9.33864E-04-9.39176E-02-6.49550E-14 7.12154E-14
 -1      3585 1.99106E+01 2.29033E-01 4.65789E-04-9.54213E-02-9.54912E-15-5.08591E-14
 -1      3586 2.00545E+01 3.07231E-01 1.52015E-03-6.66739E-01 9.11222E-14-8.90220E-14
 -1      3587 2.00605E+01 2.97491E-01-7.37068E-04-6.10386E-01 9.46526E-14-1.21786E-13
 -1      3588 2.61497E+01 1.17788E+00-7.63652E-02 2.13797E+00 1.13833E-13 2.73625E-13
 -1      3589 1.86845E+01-2.64785E+00-3.62293E-02 4.17492E+00-4.14179E-13-2.39583E-13
 -1      3590 1.64363E+01-1.44677E+00 5.54691E-02 4.05402E+00-4.26104E-13-1.55077E-13
 -1      3591 1.94826E+01-2.67485E+00-4.89880E-03 3.84352E+00 2.20376E-13-5.93969E-15
 -1      3592 1.80247E+01-1.87035E+00 9.69960E-02 4.04260E+00 2.32762E-13-8.26873E-14
 -1      3593 1.71253E+01-1.22303E+00 2.65310E-02 3.62059E+00 2.09758E-13-1.67328E-13
 -1      3594 1.99958E+01-2.07479E+00 1.58278E-02 3.23651E+00 1.76957E-13-6.71026E-14
 -1      3595 1.99863E+01-2.68677E+00 6.65519E-02-3.71806E+00 4.08691E-13-1.11775E-13
 -1      3596 2.02757E+01 1.36101E+00 2.19535E-03-4.76848E-01-1.61231E-13-2.96856E-13
 -1      3597 2.02800E+01 1.07492E+00-5.36524E-03-2.69072E-01-1.30370E-13-2.69282E-13
 -1      3598 1.98980E+01 2.28102E-01-2.11108E-04-3.22584E-02-5.10365E-14-4.32985E-13
 -1      3599 1.98940E+01 2.30546E-01-4.87126E-04-1.13064E-02-7.51480E-14-6.17888E-13
 -1      3600 1.98851E+01 2.51135E-01 9.75730E-04-4.97700E-02-5.74430E-14-3.68416E-13
 -1      3601 1.13472E+01 7.13732E-01 4.91939E-02 7.63237E-01-2.30682E-13 8.61616E-13
 -1      3602 1.11716E+01 6.42254E-01 5.13508E-02-8.43678E-01 6.92736E-14 8.27935E-13
 -1      3603 1.27848E+01 7.21464E-01 6.90626E-02-1.14718E+00 1.81689E-13 5.24910E-13
 -1      3604 2.51256E+01-2.51997E+00 2.31339E-03-4.80045E-01-7.51231E-14-1.86091E-13
 -1      3605 2.00022E+01 2.30946E+00-3.67947E-03-1.44883E-01 2.21423E-14-4.27972E-13
 -1      3606 2.00181E+01 2.27008E+00-4.20022E-03-2.56293E-01-2.12702E-14-4.06598E-13
 -1      3607 2.01290E+01 1.96958E+00 5.24151E-03-2.45355E-01-4.03480E-14-3.79657E-13
 -1      3608 2.00346E+01 1.42853E-01 4.43646E-03-1.37021E+00-3.05314E-14-5.01892E-15
 -1      3609 1.99620E+01 2.26913E-01 2.49543E-04-1.30218E+00-7.02583E-15 2.17477E-14
 -1      3610 1.97174E+01 3.18543E-01-2.36831E-03-1.27578E+00 2.07296E-14 1.70200E-14
 -1      3611 1.97348E+01 1.38688E-01-5.12259E-03-1.47582E+00-7.74275E-14-2.32079E-14
 -1      3612 2.03093E+01 8.65868E-01 4.92725E-03-1.27358E-01-1.12194E-13-2.62117E-13
 -1      3613 2.02819E+01 7.20487E-01-2.88181E-03-6.21086E-03-7.76455E-14-2.46291E-13
 -1      3614 1.26215E+01 4.52009E-01 4.15185E-02 1.89724E+00 7.19897E-14-3.73798E-13
 -1      3615 1.20873E+01 7.83333E-01 4.92156E-02 2.77585E-01-6.93976E-15-3.73451E-13
 -1      3616 2.02746E+01 6.10296E-01 2.01864E-03 8.55672E-02-5.93014E-14-2.42918E-13
 -1      3617 2.02463E+01 5.22202E-01-1.51634E-03 1.78229E-01-7.55439E-14-2.20165E-13
 -1      3618 2.02461E+01 5.63355E-01 6.15166E-04 1.89797E-01-7.44933E-14-2.29155E-13
 -1      3619 1.50759E+01-8.65377E-01 1.03507E-01-3.85557E+00 2.60257E-13-2.06432E-13
 -1      3620 1.68611E+01-1.78714E+00-1.25872E-02-4.11482E+00 3.23232E-13-5.43156E-13
 -1      3621 2.25569E+01-3.70136E+00-5.81405E-02 2.66046E+00-3.49625E-13-2.07863E-13
 -1      3622 2.08935E+01-3.18954E+00 7.05148E-02 3.55637E+00-3.76646E-13-2.06102E-13
 -1      3623 2.46769E+01-3.10590E+00-3.95903E-02 4.28108E-01-9.25922E-14-1.54453E-13
 -1      3624 2.38438E+01-3.49893E+00 5.82436E-02 1.65587E+00-2.74977E-13-2.21296E-13
 -1      3625 2.28013E+01-3.12003E+00-1.43805E-03 1.88928E+00-2.69181E-13-4.88955E-14
 -1      3626 2.40842E+01-2.66805E+00-2.05292E-02 1.85797E-01-3.64231E-14-4.75939E-14
 -1      3627 2.02375E+01 4.77699E-01-1.39301E-03-1.60172E-01 1.73356E-13-1.84216E-13
 -1      3628 2.02653E+01 5.67669E-01 2.57339E-03-6.15268E-02 1.82125E-13-1.92829E-13
 -1      3629 1.38244E+01-9.36217E-01 1.19453E-01-4.09110E+00-2.26145E-13-3.31062E-13
 -1      3630 1.62026E+01-2.26568E+00-6.12590E-02-4.71074E+00-2.91683E-13-2.03844E-13
 -1      3631 2.02787E+01 1.23385E+00-3.58077E-03 4.07220E-01 2.45278E-13-2.80075E-13
 -1      3632 2.02571E+01 1.38569E+00-4.38695E-04 3.73998E-01 2.39121E-13-3.05353E-13
 -1      3633 1.78784E+01-2.12056E+00 3.46931E-02-4.06051E+00-2.22714E-13-1.66433E-13
 -1      3634 1.75032E+01-1.24937E+00 1.69501E-02-3.60236E+00 1.26676E-13-4.27035E-13
 -1      3635 1.81352E+01-2.15519E+00 9.24793E-04-4.08673E+00 2.94303E-13-5.05932E-13
 -1      3636 1.95097E+01-1.39015E+00 2.94081E-02 3.04144E+00 1.22511E-13-1.46836E-14
 -1      3637 2.00547E+01 3.45027E-01-7.25269E-05-5.62195E-01 6.23616E-14-1.24068E-13
 -1      3638 2.00992E+01 2.93582E-01 1.04197E-03-5.55489E-01 7.67090E-14-1.49346E-13
 -1      3639 2.01107E+01 2.95601E-01-7.88711E-05-4.98621E-01 5.08768E-14-1.46734E-13
 -1      3640 2.02878E+01 1.09710E+00-2.78340E-03-2.11525E-01-1.20822E-13-2.53685E-13
 -1      3641 1.52804E+01-5.83273E-02-1.28112E-02 2.78846E+00 1.28978E-13-2.35367E-13
 -1      3642 1.39034E+01 2.73788E-01 6.45243E-02 2.44734E+00 1.04437E-13-2.74659E-13
 -1      3643 1.42087E+01 6.56560E-01 2.25109E-02 1.67582E+00 6.21968E-14-2.30545E-13
 -1      3644 2.01366E+01 2.63800E-01-1.24585E-03-4.32671E-01 8.24416E-14-1.73630E-13
 -1      3645 2.00996E+01 2.05123E+00 5.52731E-03-8.16334E-02 4.92302E-14-3.88921E-13
 -1      3646 1.24080E+01 8.58012E-01 8.10770E-02-4.07949E-01-5.58553E-14-3.23963E-13
 -1      3647 1.29586E+01 6.97487E-01 2.63712E-02-1.12983E+00-6.42169E-14-3.35593E-13
 -1      3648 1.32188E+01 8.55228E-01-4.09968E-03 3.71926E-01-5.90673E-15-2.98709E-13
 -1      3649 2.02874E+01 7.24913E-01 4.39909E-04 4.98362E-03 1.98092E-13-2.30011E-13
 -1      3650 2.02734E+01 6.82612E-01-1.90462E-03 4.20915E-02 1.93664E-13-2.15262E-13
 -1      3651 1.99859E+01 1.68979E-01 3.83034E-04-1.48754E-01-5.02182E-14 6.16568E-14
 -1      3652 1.99891E+01 1.49733E-01-3.40025E-04-1.28805E-01-6.48578E-14 1.06050E-13
 -1      3653 1.99786E+01 1.59052E-01-9.81628E-05-1.23930E-01 5.02657E-15 1.51805E-13
 -1      3654 1.99557E+01 2.02636E-01 5.25533E-04-1.54004E-01 1.12293E-14 2.75978E-13
 -1      3655 2.02889E+01 7.60984E-01 1.60195E-03 2.52567E-02-7.56450E-14-2.48868E-13
 -1      3656 2.02957E+01 9.55400E-01-1.31851E-03 3.53477E-01 2.60626E-13-1.60909E-13
 -1      3657 2.02891E+01 1.13978E+00 1.36913E-03 3.94065E-01 2.50906E-13-1.98632E-13
 -1      3658 2.02990E+01 1.01858E+00 2.70727E-03 2.53031E-01 2.34312E-13-2.48882E-13
 -1      3659 2.02839E+01 8.17132E-01-6.38545E-04 2.13099E-01 2.25371E-13-1.82510E-13
 -1      3660 1.99068E+01 2.17701E-01-7.11900E-04 5.83177E-02-1.43877E-13-2.22710E-13
 -1      3661 1.99186E+01 2.09091E-01 3.67347E-05 7.60584E-02-1.13699E-13-2.24418E-13
 -1      3662 1.98226E+01 4.10830E-01-1.99119E-04-9.38399E-01 6.87953E-14 7.08063E-14
 -1      3663 1.99793E+01 3.51712E-01 2.35252E-03-9.13217E-01 1.10018E-13 4.80669E-14
 -1      3664 1.99716E+01 3.42772E-01-1.47338E-03-8.48869E-01 1.27188E-13 2.13679E-14
 -1      3665 2.33061E+01-3.23978E+00-3.68265E-02-1.53942E+00-1.43148E-13 4.63813E-14
 -1      3666 2.33137E+01-2.70740E+00-1.67016E-03-9.56620E-01-9.16593E-14 3.26349E-14
 -1      3667 2.27388E+01-2.41879E+00 3.21706E-02-1.32013E+00-1.32720E-13 7.01730E-14
 -1      3668 2.28136E+01-3.56331E+00 5.74414E-02-2.54729E+00-1.28475E-13 1.26375E-13
 -1      3669 2.18926E+01-2.46745E+00-4.14500E-02-1.92717E+00-7.79593E-14 1.33863E-13
 -1      3670 2.28486E+01-2.80178E+00-3.15300E-02 1.42100E+00-2.02991E-13 7.82321E-14
 -1      3671 2.35914E+01-2.56104E+00 3.34431E-02 6.50956E-01-1.07364E-13-8.16769E-14
 -1      3672 2.58970E+01-3.52970E-01-8.27841E-02 2.10288E+00 8.41202E-14 2.06890E-13
 -1      3673 1.28373E+01 5.73563E-01 5.41898E-02 1.52863E+00-3.60072E-13 5.82125E-13
 -1      3674 1.99109E+01 2.25887E-01 6.63683E-04 9.36444E-02-2.22645E-13 2.78947E-14
 -1      3675 1.99316E+01 1.94655E-01-8.26802E-04 9.14568E-02-2.49058E-13-1.81553E-13
 -1      3676 1.99469E+01 1.84134E-01 5.83895E-04 1.01614E-01-3.53746E-13 2.98162E-14
 -1      3677 2.00076E+01 1.16609E-01 2.98213E-04 1.09937E-01-7.19187E-14 1.39350E-13
 -1      3678 2.00134E+01 3.18458E-01-1.21663E-03-7.24787E-01 1.01488E-13-3.45764E-14
 -1      3679 1.99781E+01 3.63689E-01 4.41044E-05-6.76394E-01 6.93042E-14-1.04848E-13
 -1      3680 2.00134E+01 3.32206E-01 1.93410E-03-7.84259E-01 9.18540E-14-1.50165E-14
 -1      3681 2.65574E+01-1.96268E+00 1.47134E-02 8.34780E-01-4.00877E-14 2.63872E-13
 -1      3682 2.00212E+01-2.41577E+00 3.88700E-02 3.31972E+00-3.59325E-13-6.20762E-14
 -1      3683 2.02159E+01 4.11387E-01 1.57005E-03-2.38894E-01 1.46769E-13-1.67664E-13
 -1      3684 2.02495E+01 5.20268E-01-1.85647E-04-1.78714E-01 1.68587E-13-1.92715E-13
 -1      3685 2.01928E+01 3.61438E-01-3.72104E-04-3.15176E-01 1.34667E-13-1.66510E-13
 -1      3686 1.98758E+01 2.57425E-01 8.15056E-04 1.82185E-03-2.11334E-13-3.92160E-13
 -1      3687 1.98941E+01 2.29895E-01-5.08406E-04 1.41115E-02-1.58001E-13-4.80748E-13
 -1      3688 1.98986E+01 2.26693E-01-1.64104E-04 3.48733E-02-2.00025E-13-4.96301E-13
 -1      3689 1.99677E+01 1.66443E-01-5.57130E-04-1.17451E-01 1.70260E-14 3.21208E-13
 -1      3690 2.16036E+01-3.03733E+00 7.86959E-03-2.78650E+00-1.24321E-13 8.45847E-14
 -1      3691 1.83252E+01-9.86196E-01-2.57590E-02 3.11984E+00 1.01042E-13-4.41105E-14
 -1      3692 1.58267E+01-9.05595E-01 5.07132E-02 3.73698E+00-4.39810E-13-3.18148E-15
 -1      3693 1.53116E+01-3.39125E-01 1.83248E-02 3.14323E+00-4.83676E-13 1.07331E-13
 -1      3694 1.74576E+01-1.13597E+00 2.32878E-02 3.39191E+00-3.10449E-13-1.00194E-13
 -1      3695 1.99887E+01 1.42551E-01 3.21911E-04 1.19010E-01-2.14180E-13-3.49136E-14
 -1      3696 2.02485E+01 1.53605E+00 3.20749E-03-5.33535E-01-1.49299E-13-3.06514E-13
 -1      3697 2.01510E+01 1.78363E+00-3.53405E-03 1.06960E-01 9.27200E-14-3.85424E-13
 -1      3698 2.01443E+01 1.80594E+00-2.98251E-03 3.04962E-02 7.10859E-14-3.84498E-13
 -1      3699 2.02903E+01 7.93734E-01 1.50980E-03 1.53438E-01 2.12055E-13-2.04661E-13
 -1      3700 2.01826E+01 1.67936E+00-4.30761E-03 2.33238E-01 1.58388E-13-3.17204E-13
 -1      3701 2.01649E+01 1.74505E+00-2.39547E-03 1.61779E-01 1.13041E-13-3.46412E-13
 -1      3702 2.02249E+01 1.54871E+00 5.63472E-03 9.81872E-02 9.50861E-14-3.46797E-13
 -1      3703 1.99479E+01 1.97203E-01 1.85533E-04-1.27100E-01-6.03934E-14 3.35773E-13
 -1      3704 1.47743E+01-2.43946E-01 4.40686E-02-3.05567E+00 2.48628E-13-2.05530E-14
 -1      3705 1.40304E+01-3.36542E-01 7.94788E-02-3.21258E+00-1.80864E-13-3.87173E-13
 -1      3706 2.02370E+01 1.52955E+00 1.07096E-03-4.21162E-01-1.08779E-13-2.78609E-13
 -1      3707 2.02080E+01 1.63120E+00-2.91290E-03-3.66521E-01-9.92467E-14-2.94463E-13
 -1      3708 2.02539E+01 1.47787E+00 5.61601E-03-3.24337E-01-1.12753E-13-2.88299E-13
 -1      3709 2.01768E+01 1.72604E+00-4.69935E-03-3.00814E-01-5.38886E-14-3.24770E-13
 -1      3710 1.70602E+01-1.22198E+00 8.38367E-02-3.74196E+00-2.21340E-13-2.02352E-13
 -1      3711 1.90099E+01-2.22278E+00-4.62979E-02-3.60625E+00-1.89903E-13-1.24158E-13
 -1      3712 1.74627E+01-6.40080E-01 3.74395E-02-3.13528E+00 5.17108E-14-5.58017E-13
 -1      3713 2.00934E+01 4.66644E-01-6.50332E-04 3.60887E-01-3.83000E-14-1.31000E-13
 -1      3714 2.00420E+01 4.62419E-01-2.77550E-04 4.15196E-01-4.20198E-14-1.19381E-13
 -1      3715 1.99667E+01 4.70593E-01-1.31986E-03 4.58712E-01-6.27289E-14-9.07186E-14
 -1      3716 1.99063E+01 4.90243E-01 3.89185E-05 5.11273E-01-4.63100E-14-1.17552E-13
 -1      3717 1.99825E+01 5.13737E-01 1.61003E-03 3.79943E-01-3.38999E-14-1.32811E-13
 -1      3718 1.98132E+01 5.17910E-01-2.04737E-03 5.55864E-01-1.65480E-14-8.80219E-14
 -1      3719 1.97423E+01 5.54000E-01 2.32421E-04 6.10932E-01-8.34738E-15-1.01611E-13
 -1      3720 1.98177E+01 5.51922E-01 2.03071E-03 4.64654E-01-2.51231E-14-6.49923E-14
 -1      3721 1.96294E+01 5.93724E-01-2.83389E-03 6.60022E-01-5.55846E-15-9.37339E-14
 -1      3722 1.95461E+01 6.38667E-01 3.81936E-04 7.21140E-01 1.09916E-14-1.02601E-13
 -1      3723 1.96178E+01 6.25866E-01 2.67138E-03 5.53044E-01-2.86158E-14-5.10001E-14
 -1      3724 1.94100E+01 6.82407E-01-3.75314E-03 7.78032E-01 6.00713E-15-1.14396E-13
 -1      3725 1.93124E+01 7.27599E-01 6.20197E-04 8.48639E-01 2.14249E-14-9.08644E-14
 -1      3726 1.93773E+01 7.19888E-01 3.50443E-03 6.51229E-01 1.54126E-15-4.28425E-14
 -1      3727 1.91482E+01 7.65534E-01-4.91842E-03 9.17434E-01 5.56394E-15-9.19914E-14
 -1      3728 1.90358E+01 8.00165E-01 1.16670E-03 1.00186E+00-8.21907E-15-9.68406E-14
 -1      3729 1.90881E+01 8.16897E-01 4.53386E-03 7.66066E-01 5.19455E-15-6.69654E-14
 -1      3730 1.88374E+01 8.19319E-01-6.51279E-03 1.08891E+00 2.03283E-14-1.21277E-13
 -1      3731 1.87129E+01 8.28939E-01 2.36796E-03 1.19397E+00 2.24186E-14-9.81376E-14
 -1      3732 1.87398E+01 8.96322E-01 5.76978E-03 9.07446E-01 8.11683E-15-9.78236E-14
 -1      3733 1.84728E+01 8.11398E-01-8.78653E-03 1.31021E+00-1.25981E-14-1.13653E-13
 -1      3734 1.83452E+01 7.76121E-01 4.91370E-03 1.44740E+00 3.15867E-14-6.90605E-14
 -1      3735 1.83203E+01 9.31725E-01 7.20932E-03 1.09220E+00 2.04177E-14-7.52506E-14
 -1      3736 1.80549E+01 6.96574E-01-1.18222E-02 1.61191E+00 7.23535E-14-6.81400E-14
 -1      3737 1.79393E+01 5.83901E-01 6.89276E-03 1.80260E+00 8.27854E-14-9.58566E-14
 -1      3738 1.78154E+01 8.87358E-01 8.87668E-03 1.34995E+00 4.41544E-14-1.70856E-13
 -1      3739 1.75887E+01 4.15797E-01-1.65357E-02 2.03584E+00 3.81136E-14-1.04699E-13
 -1      3740 1.75070E+01 1.38746E-01-7.46293E-03 2.33737E+00 3.18981E-14-1.05584E-13
 -1      3741 1.72205E+01 7.03663E-01 1.06368E-02 1.72891E+00 5.56073E-14-1.72635E-13
 -1      3742 1.95611E+01 4.72320E-01 3.40427E-03-1.08944E+00 7.18343E-14-7.99390E-15
 -1      3743 1.95846E+01 4.82169E-01-2.59936E-03-1.00595E+00 5.58102E-14 7.77163E-15
 -1      3744 1.99325E+01 2.18913E-01-4.78813E-04-1.41431E-01 9.98561E-14 3.90383E-13
 -1      3745 2.02887E+01 7.30826E-01-1.75989E-03-3.95722E-02 1.68111E-13-2.15407E-13
 -1      3746 2.03034E+01 8.73122E-01 3.02053E-03 6.19599E-02 1.71139E-13-2.42376E-13
 -1      3747 2.02669E+01 1.19887E+00-4.75459E-03-1.80273E-01-9.87261E-14-2.71615E-13
 -1      3748 2.03073E+01 8.85823E-01 3.80593E-03-2.88084E-02-8.61242E-14-2.29573E-13
 -1      3749 2.02824E+01 7.52302E-01-3.29737E-03 6.22941E-02-7.10028E-14-2.25197E-13
 -1      3750 1.74017E+01 4.95946E-02 6.31367E-03-2.46312E+00 1.90891E-14-3.83550E-13
 -1      3751 1.74463E+01 3.55395E-01-1.44933E-02-2.13933E+00 4.05705E-14-3.57992E-13
 -1      3752 1.77974E+01 5.64510E-01 8.83646E-03-1.87313E+00 7.74544E-14-2.68979E-13
 -1      3753 1.78956E+01 7.10605E-01-1.21907E-02-1.65742E+00 9.18988E-14-1.46210E-13
 -1      3754 1.69921E+01 6.72051E-01 2.36332E-03-1.83516E+00 1.23240E-13-9.27717E-14
 -1      3755 1.81920E+01 8.14222E-01 5.64859E-03-1.46965E+00 5.21756E-15-8.03756E-14
 -1      3756 1.83110E+01 8.70492E-01-9.42364E-03-1.31481E+00-1.00064E-13-6.75200E-14
 -1      3757 1.76120E+01 9.34384E-01 1.07777E-02-1.38628E+00 2.07019E-14-1.21160E-15
 -1      3758 1.85521E+01 9.06294E-01 2.63850E-03-1.18224E+00-1.43783E-13-3.15056E-14
 -1      3759 1.86703E+01 9.10782E-01-7.01033E-03-1.06301E+00-4.28255E-14 3.53274E-15
 -1      3760 1.81219E+01 1.01501E+00 8.25787E-03-1.09125E+00-8.73225E-14 7.55225E-14
 -1      3761 1.88656E+01 9.03003E-01 1.13333E-03-9.62962E-01 4.69517E-14-6.83236E-14
 -1      3762 1.89712E+01 8.76213E-01-5.36380E-03-8.66561E-01 3.85237E-14 2.49846E-14
 -1      3763 1.85383E+01 1.00575E+00 6.69205E-03-8.79151E-01 2.09958E-14 5.65292E-15
 -1      3764 1.91281E+01 8.43263E-01 4.44493E-04-7.87040E-01-2.74284E-14 1.18598E-13
 -1      3765 1.92169E+01 7.99465E-01-4.21412E-03-7.06420E-01 3.51904E-14 1.39332E-13
 -1      3766 1.88755E+01 9.40324E-01 5.39590E-03-7.16332E-01 1.50307E-14-1.21660E-13
 -1      3767 1.93420E+01 7.53771E-01 1.95552E-04-6.40857E-01 1.32702E-13 1.31088E-13
 -1      3768 1.94136E+01 7.02533E-01-3.37868E-03-5.72327E-01 9.20328E-14 1.82281E-13
 -1      3769 1.91459E+01 8.44130E-01 4.32471E-03-5.84532E-01 1.01613E-13 3.71648E-14
 -1      3770 1.95124E+01 6.52244E-01 1.51014E-04-5.17301E-01 1.90630E-14 2.88812E-13
 -1      3771 1.95685E+01 5.99778E-01-2.73951E-03-4.58931E-01 7.94159E-14 2.40314E-13
 -1      3772 1.93603E+01 7.34568E-01 3.44182E-03-4.74297E-01 1.62052E-13 2.00320E-13
 -1      3773 1.96457E+01 5.50026E-01 1.83527E-04-4.12614E-01 1.29547E-13 2.25595E-13
 -1      3774 1.96886E+01 5.00162E-01-2.22468E-03-3.63260E-01 1.80475E-13 1.61813E-13
 -1      3775 1.95285E+01 6.23262E-01 2.71416E-03-3.80912E-01 1.08754E-13 2.09845E-13
 -1      3776 1.97482E+01 4.53984E-01 2.39343E-04-3.24535E-01 2.33619E-13 1.80473E-13
 -1      3777 1.97801E+01 4.08867E-01-1.82618E-03-2.83308E-01 3.49856E-13 2.99901E-13
 -1      3778 1.96589E+01 5.17583E-01 2.11357E-03-3.01908E-01 2.71424E-13 1.87454E-13
 -1      3779 1.98258E+01 3.67972E-01 3.27612E-04-2.51417E-01 3.20888E-13 2.88966E-13
 -1      3780 1.98487E+01 3.28476E-01-1.55596E-03-2.17488E-01 2.30960E-13 4.09200E-13
 -1      3781 1.97587E+01 4.21659E-01 1.62669E-03-2.35679E-01 2.89982E-13 3.14949E-13
 -1      3782 1.98833E+01 2.93177E-01 2.70345E-04-1.91446E-01 1.03590E-13 4.48181E-13
 -1      3783 1.99006E+01 2.60499E-01-7.66967E-04-1.63965E-01 1.74211E-13 3.51547E-13
 -1      3784 1.98332E+01 3.38353E-01 1.19911E-03-1.81261E-01 2.88007E-13 3.53309E-13
 -1      3785 1.97780E+01-6.98282E-01 1.00243E-02-2.09403E+00-1.95647E-13 6.52721E-14
 -1      3786 1.95531E+01-3.87158E-01 3.38808E-03-1.97884E+00-1.82381E-13 8.19804E-14
 -1      3787 1.95155E+01-1.36067E-01 1.00443E-02-1.79360E+00-1.88076E-13 3.87868E-14
 -1      3788 1.94023E+01 5.74101E-02-3.07318E-04-1.67654E+00-1.40728E-13 3.52607E-14
 -1      3789 1.90202E+01-1.57079E-01-1.02422E-02-1.97471E+00-2.00660E-13 2.36642E-14
 -1      3790 2.20191E+01-2.65734E+00 4.69397E-02 2.21967E+00-3.16027E-13 7.10144E-14
 -1      3791 2.02880E+01 1.23643E+00 4.91938E-03 2.46600E-01 2.14245E-13-2.72678E-13
 -1      3792 2.02309E+01 1.49420E+00-4.95690E-03 3.39711E-01 2.37313E-13-2.75036E-13
 -1      3793 2.02070E+01 1.60434E+00-1.62833E-03 2.80511E-01 1.99997E-13-2.90174E-13
 -1      3794 2.07415E+01-1.63419E+00 3.00742E-02 2.26756E+00-3.88357E-13 1.58097E-13
 -1      3795 2.12774E+01-2.16957E+00 6.19515E-03 2.23592E+00-3.00965E-13 1.08845E-13
 -1      3796 2.09466E+01-2.50927E+00-3.75125E-02 2.71246E+00-3.65493E-13-4.93746E-14
 -1      3797 1.94102E+01 2.09607E-01-5.33346E-04 1.51463E+00-9.87644E-14-1.02204E-13
 -1      3798 1.95048E+01 4.18018E-02 8.70982E-03 1.63141E+00-1.28101E-13-9.90785E-14
 -1      3799 1.94100E+01 4.30884E-01-2.01469E-03 1.25674E+00-3.61080E-14 2.71999E-14
 -1      3800 1.94445E+01 3.40030E-01 5.95975E-03 1.36602E+00-8.94380E-14-8.60027E-14
 -1      3801 1.90661E+01 3.76623E-01-2.83388E-03 1.45145E+00-1.29963E-13-2.96538E-14
 -1      3802 1.94697E+01 5.34155E-01-2.53292E-03 1.03442E+00-8.18736E-14 2.02848E-13
 -1      3803 1.94713E+01 4.96502E-01 4.00618E-03 1.13301E+00-3.46903E-14 1.68391E-13
 -1      3804 1.91636E+01 5.57123E-01-3.74502E-04 1.17474E+00-1.46627E-13 1.22068E-14
 -1      3805 1.95533E+01 5.59210E-01-2.59648E-03 8.44320E-01-8.22574E-14 1.26915E-13
 -1      3806 1.95391E+01 5.56044E-01 2.70344E-03 9.31683E-01 2.21764E-14 2.09504E-13
 -1      3807 1.92914E+01 6.28359E-01 8.44199E-04 9.49331E-01 1.17695E-14 1.53286E-13
 -1      3808 1.96408E+01 5.35832E-01-2.45142E-03 6.82336E-01-1.15339E-13-1.74862E-13
 -1      3809 1.96207E+01 5.53468E-01 1.89316E-03 7.58724E-01-1.38377E-13 1.72650E-14
 -1      3810 1.94231E+01 6.29445E-01 1.36550E-03 7.64294E-01 9.53908E-16-3.39355E-14
 -1      3811 1.97218E+01 4.85307E-01-2.21109E-03 5.45089E-01-2.77337E-14 4.97762E-15
 -1      3812 1.97014E+01 5.14095E-01 1.39808E-03 6.10976E-01-8.75736E-14-1.23999E-13
 -1      3813 1.95453E+01 5.88348E-01 1.50358E-03 6.11265E-01-9.60371E-14 3.69880E-14
 -1      3814 1.97919E+01 4.22246E-01-1.93192E-03 4.29827E-01 1.56860E-13 1.28750E-13
 -1      3815 1.97737E+01 4.55646E-01 1.08815E-03 4.85821E-01 4.99879E-14 2.33291E-14
 -1      3816 1.96519E+01 5.24685E-01 1.43807E-03 4.84426E-01-2.43990E-14 1.17243E-13
 -1      3817 1.98495E+01 3.56242E-01-1.64072E-03 3.34139E-01 1.61156E-13-6.69459E-14
 -1      3818 1.98346E+01 3.90018E-01 8.82471E-04 3.80981E-01 2.76711E-13 8.74881E-14
 -1      3819 1.97409E+01 4.51805E-01 1.27469E-03 3.79622E-01 2.12755E-13 1.42819E-13
 -1      3820 1.98953E+01 2.93173E-01-1.31730E-03 2.55703E-01-8.25242E-15-8.00769E-14
 -1      3821 1.98837E+01 3.24823E-01 7.40882E-04 2.94274E-01 2.73681E-15-1.05470E-13
 -1      3822 1.98128E+01 3.78444E-01 1.08693E-03 2.93646E-01 1.49566E-13 5.23635E-14
 -1      3823 1.99292E+01 2.36870E-01-1.12409E-03 1.91737E-01-1.73020E-13 2.38207E-14
 -1      3824 1.99217E+01 2.64706E-01 6.98342E-04 2.23546E-01-3.41108E-14 7.46633E-14
 -1      3825 1.98687E+01 3.09916E-01 7.91973E-04 2.23989E-01-7.52667E-14 9.66531E-14
 -1      3826 1.44324E+01 3.86063E-01 5.82218E-02-2.40581E+00 1.45694E-13 2.09424E-13
 -1      3827 1.58566E+01-3.59709E-01-2.15394E-02-3.07759E+00 1.49670E-13-3.32298E-13
 -1      3828 2.09309E+01-2.33324E+00 5.86369E-02-2.77828E+00-1.31419E-13 1.12636E-13
 -1      3829 1.38563E+01 4.68765E-01 1.59358E-02 2.11884E+00-5.56854E-13 1.63349E-13
 -1      3830 1.32755E+01 9.09648E-01 2.33848E-02 7.48567E-01-3.34322E-13 4.56656E-13
 -1      3831 1.70924E+01-3.87842E-01 4.90637E-02 3.01842E+00 1.24306E-13-1.98883E-13
 -1      3832 2.01438E+01 1.80715E+00-2.96175E-03-2.69334E-02 6.78644E-14-3.60394E-13
 -1      3833 2.01503E+01 1.78741E+00-3.24936E-03-1.02973E-01 2.21946E-14-3.72450E-13
 -1      3834 2.02140E+01 1.58910E+00 5.68556E-03 7.26204E-04 4.23450E-14-3.60707E-13
 -1      3835 1.98621E+01 2.74857E-01-3.07594E-04-6.92188E-02 1.88588E-14-2.18735E-13
 -1      3836 1.98519E+01 2.81807E-01-6.62337E-04-4.40290E-02-1.35201E-14-2.82993E-13
 -1      3837 1.95304E+01-1.78793E-01 2.72211E-03 1.80686E+00-1.48973E-13-1.54545E-13
 -1      3838 1.97246E+01-4.52063E-01 1.14453E-02 1.92093E+00-1.69290E-13-1.06452E-13
 -1      3839 1.90456E+01 3.69484E-02-7.09050E-03 1.79041E+00-1.73214E-13 4.49835E-16
 -1      3840 2.01457E+01 3.06413E-01 4.36718E-04-4.42134E-01 6.77371E-14-1.67821E-13
 -1      3841 2.01631E+01 3.27913E-01 7.13238E-04-3.79254E-01 1.12718E-13-1.58629E-13
 -1      3842 2.01270E+01 3.53088E-01-2.28595E-04-4.48746E-01 7.07774E-14-1.33300E-13
 -1      3843 1.98692E+01-7.85111E-01 1.08108E-02 2.11414E+00-1.99676E-13-1.64795E-13
 -1      3844 2.02022E+01-1.19802E+00 9.13731E-03 2.20406E+00-3.19764E-13 5.19362E-14
 -1      3845 1.91833E+01-5.29540E-01-1.44622E-02 2.19459E+00-2.02072E-13-9.24456E-14
 -1      3846 2.02653E+01 6.54347E-01 4.32512E-04 1.26543E-01-5.46110E-14-2.27028E-13
 -1      3847 2.02332E+01 5.76448E-01-1.49285E-03 1.99861E-01-5.75169E-14-2.24641E-13
 -1      3848 2.02757E+01 7.75928E-01 1.28088E-03 7.54931E-02-6.97065E-14-2.07850E-13
 -1      3849 1.32896E+01 9.53093E-01 1.46388E-02-5.71991E-01 3.31627E-14 4.59334E-13
 -1      3850 1.36334E+01 6.65582E-01 2.78424E-03-1.67230E+00 1.77372E-13 4.15050E-13
 -1      3851 1.48553E+01 6.22404E-01 2.15019E-02-1.81920E+00 9.80767E-14 1.78538E-13
 -1      3852 2.01941E+01 5.21783E-01-3.43077E-05 2.53478E-01-4.29003E-14-2.10689E-13
 -1      3853 2.01515E+01 4.85524E-01-7.65363E-04 3.14524E-01-4.15941E-14-1.79498E-13
 -1      3854 2.01148E+01 5.26678E-01 1.33142E-03 2.91889E-01-1.75638E-14-1.82780E-13
 -1      3855 2.02142E+01 6.08088E-01 1.36980E-03 1.93229E-01-3.46528E-14-2.04013E-13
 -1      3856 1.39690E+01 2.29836E-01 2.87593E-02-2.45303E+00-1.12384E-13-3.85568E-13
 -1      3857 1.52311E+01-6.03095E-01-3.10426E-02-3.39339E+00-1.56268E-13-2.61992E-13
 -1      3858 1.99728E+01 1.56982E-01-5.35043E-04 1.16438E-01-2.98403E-13 3.78894E-14
 -1      3859 2.01617E+01 1.75226E+00-2.26065E-03-1.58700E-01-3.22852E-15-3.60339E-13
 -1      3860 2.01813E+01 1.69546E+00-1.37272E-03-2.26863E-01-4.93360E-14-3.46697E-13
 -1      3861 2.02247E+01 1.55457E+00 6.54065E-03-9.79298E-02 4.47429E-15-3.34841E-13
 -1      3862 1.93578E+01-1.76985E+00 3.28798E-02 3.18295E+00-3.61310E-13-9.20444E-14
 -1      3863 1.98859E+01 2.48205E-01 8.04737E-04 5.32206E-02-2.12921E-13-3.45489E-13
 -1      3864 1.68814E+01-1.29680E-01-9.69176E-03-2.71023E+00-9.08128E-15-3.60174E-13
 -1      3865 1.98984E+01 2.55133E-01 5.06383E-04-1.34766E-01 3.32058E-14 2.80752E-13
 -1      3866 1.98969E+01-1.71444E+00 1.69298E-03-2.76534E+00-1.50084E-13 1.85292E-14
 -1      3867 1.67631E+01 6.51501E-02 9.57280E-04 2.49264E+00 3.58637E-14-1.73410E-13
 -1      3868 1.99523E+01 1.85401E-01-5.26857E-04 1.25824E-01-3.02976E-13 4.96408E-14
 -1      3869 1.39468E+01 6.52867E-01 3.60185E-02-1.70177E+00-5.98128E-14-3.80434E-13
 -1      3870 1.51797E+01 5.10254E-01 2.31813E-02-1.89685E+00-7.19503E-14-3.33887E-13
 -1      3871 1.41886E+01 8.95678E-01-1.37594E-02-8.26690E-01-1.41050E-14-3.20726E-13
 -1      3872 1.99022E+01 4.20902E-01 1.21937E-03-6.57632E-01 5.44792E-14-1.18070E-13
 -1      3873 1.99402E+01 4.04059E-01-1.41617E-03-5.99435E-01 5.94026E-14-1.10427E-13
 -1      3874 1.64315E+01-1.38793E-01-2.21461E-02 2.65587E+00-4.29704E-13 8.60796E-14
 -1      3875 1.51322E+01 2.30930E-01 3.96431E-02 2.51167E+00-5.43908E-13 2.51662E-13
 -1      3876 1.52778E+01 6.00826E-01 4.89449E-03 1.84275E+00-4.74443E-13 7.24351E-14
 -1      3877 1.60804E+01 5.51864E-01 2.07043E-02 2.05543E+00-4.48643E-15-1.70744E-13
 -1      3878 1.94751E+01 4.41990E-01-2.57572E-03-1.19144E+00 5.55528E-14 2.06436E-14
 -1      3879 1.93074E+01 5.37498E-01 3.54721E-04-1.09662E+00 5.33364E-14-2.46381E-14
 -1      3880 1.94734E+01 3.94391E-01 4.96374E-03-1.28712E+00-1.83302E-14 1.29403E-14
 -1      3881 2.00074E+01 3.93110E-01 7.32341E-04-5.46692E-01 5.24795E-14-9.94594E-14
 -1      3882 2.00446E+01 3.87727E-01-8.49017E-04-4.90722E-01 5.50274E-14-1.16934E-13
 -1      3883 1.99325E+01 4.48919E-01 8.61747E-04-5.27398E-01 6.35816E-14-9.79721E-14
 -1      3884 1.99447E+01 2.08300E-01 1.76886E-04 1.49405E-01-2.88705E-13 1.12108E-14
 -1      3885 1.94754E+01 5.52294E-01 9.37119E-04-9.13272E-01 4.68153E-14-1.74318E-13
 -1      3886 1.96722E+01 4.82888E-01 2.40200E-03-9.22612E-01 3.68344E-14-2.74771E-14
 -1      3887 1.97057E+01 4.71672E-01-2.34514E-03-8.49852E-01 1.51679E-14-3.78842E-14
 -1      3888 2.02741E+01 6.23950E-01 6.82548E-04-1.15438E-01 1.57741E-13-1.61564E-13
 -1      3889 2.02854E+01 7.56675E-01 4.06188E-04-6.21814E-02 1.44450E-13-1.65464E-13
 -1      3890 2.02483E+01 5.40824E-01-8.22747E-04-1.98162E-01 1.41545E-13-1.44493E-13
 -1      3891 1.39991E+01 9.09819E-01 5.99794E-02 1.13169E+00 5.60255E-14-2.66474E-13
 -1      3892 1.39803E+01 9.29046E-01 9.98513E-03 4.83861E-01-2.66540E-15-2.68795E-13
 -1      3893 1.48562E+01 6.55186E-01-1.07737E-02 1.62648E+00 5.85220E-14-2.09399E-13
 -1      3894 2.02700E+01 1.19874E+00-6.69338E-04-1.31479E-01-7.28982E-14-2.77922E-13
 -1      3895 2.01930E+01 4.04960E-01-3.29804E-04-3.25226E-01 1.25193E-13-1.52799E-13
 -1      3896 1.98994E+01 3.92042E-01 4.62346E-05-7.99770E-01 7.42107E-14-1.08409E-14
 -1      3897 1.97765E+01-1.38675E+00-2.76194E-02 2.53900E+00-2.51790E-13-4.35424E-14
 -1      3898 1.98816E+01 2.54642E-01-1.01294E-03 1.01106E-01-1.91892E-13 3.15796E-14
 -1      3899 1.98985E+01 2.41698E-01-4.39644E-04 1.16037E-01-2.92613E-13 2.62801E-13
 -1      3900 1.98756E+01 2.70095E-01-4.79371E-04-1.13219E-01 1.38247E-13-1.51551E-13
 -1      3901 2.02369E+01 1.54174E+00 5.76863E-03-2.07470E-01-5.18260E-14-3.28220E-13
 -1      3902 2.02323E+01 1.38564E+00-3.02481E-03 2.10432E-02 3.69621E-14-3.50903E-13
 -1      3903 2.02319E+01 1.38680E+00-2.95300E-03-2.10834E-02 1.30487E-14-3.42165E-13
 -1      3904 1.98472E+01 2.85410E-01-4.09701E-04-1.09846E-02-1.74418E-13-2.65344E-13
 -1      3905 1.98471E+01 2.84738E-01-4.61961E-04 1.58372E-02-1.85547E-13-3.23809E-13
 -1      3906 1.98255E+01 3.15900E-01 8.41182E-04-3.05771E-02-1.03190E-13-1.25727E-13
 -1      3907 1.98445E+01 3.07149E-01 5.00693E-04-1.10684E-01 8.75800E-14-2.23113E-14
 -1      3908 1.67675E+01-6.44399E-01 3.71278E-02-3.10855E+00-1.45230E-13-1.75217E-13
 -1      3909 1.80170E+01-1.26470E+00-1.47761E-02 3.31888E+00-3.20778E-13-8.22554E-14
 -1      3910 1.74065E+01-7.03850E-01 1.01060E-02 3.03364E+00-2.85096E-13-1.57671E-13
 -1      3911 1.70958E+01-1.71420E-01 1.52284E-02 2.56414E+00-2.99996E-13-7.91077E-15
 -1      3912 1.92603E+01-1.30121E+00 2.83024E-02 2.81229E+00-3.19031E-13-9.98432E-14
 -1      3913 1.94404E+01 2.08645E-01 7.27996E-03-1.52116E+00-6.75996E-14 2.50067E-14
 -1      3914 1.94004E+01 3.15510E-01-1.99960E-03-1.41307E+00-3.81617E-14 3.08075E-14
 -1      3915 1.91516E+01 4.46802E-01-1.04061E-03-1.32513E+00-2.33981E-14 2.96148E-14
 -1      3916 1.98534E+01 2.79060E-01-5.32869E-04 4.86312E-02-3.21679E-13-5.41119E-13
 -1      3917 1.98652E+01 2.71092E-01 1.16178E-04 7.36184E-02-2.10181E-13-3.16970E-13
 -1      3918 1.98514E+01 2.91147E-01 5.62349E-05 9.76450E-02-1.48205E-13-1.02122E-13
 -1      3919 1.98246E+01 3.12562E-01 4.02559E-05 3.74926E-02-2.03632E-13-3.04576E-13
 -1      3920 1.61310E+01 4.27259E-01 3.01240E-02-2.28363E+00 1.21951E-13-5.29889E-14
 -1      3921 1.45395E+01 9.95026E-01-1.46346E-02 7.65780E-01-3.58187E-13 1.33352E-13
 -1      3922 1.38412E+01 1.04660E+00 3.47066E-02 1.26429E-01-1.80099E-13 3.13027E-13
 -1      3923 1.45364E+01 1.06387E+00-6.15959E-03-3.86293E-01-5.74367E-14 2.03554E-13
 -1      3924 2.02540E+01 1.43084E+00 5.66965E-03 1.84110E-01 1.59531E-13-2.66836E-13
 -1      3925 2.02458E+01 1.32449E+00-4.12237E-03 8.50403E-02 9.66419E-14-2.98425E-13
 -1      3926 2.02386E+01 1.36774E+00-2.20032E-03 4.46198E-02 5.74644E-14-3.38560E-13
 -1      3927 2.02736E+01 1.21099E+00 5.58347E-03 1.56044E-02 3.17924E-14-3.08930E-13
 -1      3928 2.03573E+01-1.57131E+00-1.33602E-02-2.37716E+00-1.61930E-13 7.43901E-14
 -1      3929 1.99594E+01-1.07139E+00 8.84783E-03-2.27907E+00-1.85342E-13 7.96490E-14
 -1      3930 1.92210E+01-8.19526E-01-2.14303E-02-2.41021E+00-2.09634E-13-2.70795E-14
 -1      3931 1.90378E+01 2.35174E-01-3.98579E-03-1.61321E+00-1.17599E-13 7.88777E-14
 -1      3932 1.98263E+01 4.38260E-01-1.93318E-03-7.16594E-01 4.28722E-14-8.36758E-14
 -1      3933 1.97937E+01 4.83755E-01 1.01781E-03-6.37551E-01 1.31757E-14-1.22230E-13
 -1      3934 1.97889E+01 4.57535E-01 1.73287E-03-7.80694E-01 1.56526E-14-3.23090E-14
 -1      3935 1.98233E+01 5.61233E-01-1.75211E-03 3.57400E-01 7.37138E-15-1.42261E-13
 -1      3936 1.97318E+01 5.91358E-01-7.47251E-04 3.97216E-01 1.10264E-14-1.01185E-13
 -1      3937 1.96108E+01 6.29065E-01-2.40914E-03 4.26162E-01-1.81593E-14-5.62608E-14
 -1      3938 1.95006E+01 6.74221E-01-8.45228E-04 4.68079E-01-1.29746E-15-3.76709E-14
 -1      3939 1.96367E+01 6.47136E-01 2.89069E-03 3.15484E-01 1.98106E-14-7.34000E-14
 -1      3940 1.93534E+01 7.22676E-01-3.25037E-03 4.99798E-01-3.69274E-15-3.41299E-14
 -1      3941 1.92212E+01 7.75086E-01-1.03819E-03 5.46514E-01 1.04842E-14-3.96862E-14
 -1      3942 1.93751E+01 7.38939E-01 3.79914E-03 3.67599E-01-1.24782E-14-2.60394E-14
 -1      3943 1.90418E+01 8.26036E-01-4.40138E-03 5.83199E-01 1.18398E-15-6.65163E-14
 -1      3944 1.88829E+01 8.77162E-01-1.25062E-03 6.38102E-01-1.20641E-14-6.86502E-14
 -1      3945 1.90578E+01 8.47472E-01 5.05946E-03 4.24074E-01-6.51074E-15-1.31324E-15
 -1      3946 1.86623E+01 9.21095E-01-6.11521E-03 6.83071E-01-1.99347E-14-9.22487E-14
 -1      3947 1.84715E+01 9.61064E-01-1.34220E-03 7.51646E-01-1.60988E-14-1.29200E-13
 -1      3948 1.86709E+01 9.56636E-01 6.81979E-03 4.89223E-01-2.05233E-14-1.02174E-13
 -1      3949 1.81952E+01 9.86407E-01-8.80062E-03 8.11068E-01-2.21169E-14-1.30966E-13
 -1      3950 1.79666E+01 1.00313E+00-1.09150E-03 9.03206E-01 4.60092E-15-1.46986E-13
 -1      3951 1.81933E+01 1.04912E+00 9.36399E-03 5.70752E-01-3.87769E-14-1.72233E-13
 -1      3952 1.76129E+01 9.94937E-01-1.29538E-02 9.88737E-01 2.41654E-14-2.54035E-13
 -1      3953 1.73408E+01 9.72406E-01 2.12457E-04 1.12214E+00 2.70081E-14-3.03120E-13
 -1      3954 1.75926E+01 1.10527E+00 1.31917E-02 6.84104E-01-4.37380E-14-2.89634E-13
 -1      3955 1.68747E+01 9.21627E-01-1.50938E-02 1.25804E+00 5.72558E-14-3.50619E-13
 -1      3956 1.65795E+01 8.25330E-01 6.95191E-03 1.46188E+00 7.21667E-15-3.08473E-13
 -1      3957 1.68190E+01 1.10105E+00 1.98624E-02 8.56803E-01 1.48235E-14-4.31334E-13
 -1      3958 2.01836E+01 4.35216E-01-1.82007E-04-3.27546E-01 1.05630E-13-1.36549E-13
 -1      3959 2.02154E+01 4.78512E-01 1.85363E-04-2.60018E-01 1.45192E-13-1.30895E-13
 -1      3960 2.02365E+01 5.72700E-01 2.21821E-04-2.02121E-01 1.35405E-13-1.34260E-13
 -1      3961 1.89247E+01-1.25665E+00 2.95162E-02-2.99286E+00-1.99267E-13-6.59804E-14
 -1      3962 1.71062E+01 1.02655E+00 2.76682E-03-1.15226E+00 1.03830E-13-1.78022E-14
 -1      3963 1.73672E+01 1.06106E+00-1.53202E-02-1.00457E+00 2.08408E-14 7.91585E-14
 -1      3964 1.77341E+01 1.08947E+00-1.15512E-03-9.05233E-01-9.95929E-14 3.50655E-14
 -1      3965 1.79626E+01 1.08628E+00-1.00010E-02-8.00276E-01-1.29506E-13 1.09780E-13
 -1      3966 1.73294E+01 1.20004E+00 1.65136E-02-6.78956E-01-2.10587E-14 1.30139E-13
 -1      3967 1.82429E+01 1.07356E+00-1.47411E-03-7.30047E-01-1.74088E-13 1.26893E-13
 -1      3968 1.84295E+01 1.04199E+00-6.97218E-03-6.51739E-01-4.06471E-14-2.90096E-14
 -1      3969 1.79410E+01 1.16806E+00 1.13170E-02-5.47973E-01-1.42625E-13 9.48334E-14
 -1      3970 1.86464E+01 1.00475E+00-1.54128E-03-5.98639E-01 5.96388E-14-1.14751E-13
 -1      3971 1.87973E+01 9.56502E-01-5.07725E-03-5.36093E-01 1.59199E-14-8.73171E-14
 -1      3972 1.84162E+01 1.09026E+00 8.27474E-03-4.53882E-01-2.65602E-14 2.72822E-14
 -1      3973 1.89671E+01 9.05714E-01-1.35548E-03-4.92932E-01 7.16094E-14-3.90242E-14
 -1      3974 1.90876E+01 8.49107E-01-3.84152E-03-4.40563E-01 1.69392E-13 2.88496E-14
 -1      3975 1.87881E+01 9.85167E-01 6.25796E-03-3.79120E-01 9.46831E-14-1.69675E-13
 -1      3976 1.92210E+01 7.92440E-01-1.09563E-03-4.04040E-01 3.01613E-13 4.77339E-14
 -1      3977 1.93161E+01 7.33491E-01-2.99208E-03-3.59196E-01 2.99094E-13 1.83663E-13
 -1      3978 1.90809E+01 8.66090E-01 4.83064E-03-3.15541E-01 2.53387E-13 1.85777E-14
 -1      3979 1.94206E+01 6.76287E-01-8.36392E-04-3.27847E-01 1.30276E-13 1.85356E-13
 -1      3980 1.94947E+01 6.19128E-01-2.37095E-03-2.89307E-01 1.47483E-13 1.26550E-13
 -1      3981 1.93111E+01 7.43422E-01 3.76176E-03-2.59872E-01 2.40866E-13 1.05735E-14
 -1      3982 1.95762E+01 5.64919E-01-5.98674E-04-2.62463E-01 1.61795E-13 1.79503E-13
 -1      3983 1.96331E+01 5.12090E-01-1.91041E-03-2.29555E-01 2.64297E-13 6.77781E-14
 -1      3984 1.94912E+01 6.24686E-01 2.89525E-03-2.10991E-01 1.71974E-13 8.42980E-14
 -1      3985 1.96961E+01 4.63500E-01-2.43562E-04-2.06900E-01 3.40925E-13 7.95810E-14
 -1      3986 1.97384E+01 4.15881E-01-1.74037E-03-1.78627E-01 2.67383E-13 8.93981E-14
 -1      3987 1.96302E+01 5.14180E-01 1.82894E-03-1.68918E-01 2.32301E-13-6.80071E-14
 -1      3988 1.97795E+01 3.79792E-01 9.68365E-05-1.53385E-01 5.30832E-14 7.18781E-14
 -1      3989 1.98110E+01 3.38858E-01-1.26891E-03-1.30749E-01 9.36213E-14 5.40978E-14
 -1      3990 1.97997E+01 3.46040E-01 4.91888E-04-8.21437E-02-4.74563E-14-1.98833E-14
 -1      3991 1.97279E+01 4.20385E-01 2.41254E-04-1.25669E-01 1.65180E-13-1.26343E-13
 -1      3992 1.86531E+01 3.44830E-01 9.36744E-03-1.60759E+00-1.74388E-13 9.36732E-14
 -1      3993 1.86766E+01 4.57677E-01-6.59200E-03-1.44726E+00-7.44298E-14 1.04630E-13
 -1      3994 1.91204E+01 7.16963E-01-4.28489E-03 8.18712E-01 2.95922E-14 8.56876E-14
 -1      3995 1.90596E+01 7.15610E-01 2.76119E-03 9.16455E-01-8.75457E-14 5.17797E-14
 -1      3996 2.02948E+01 9.86625E-01-2.05811E-03 1.33798E-01 1.83718E-13-2.60341E-13
 -1      3997 2.02858E+01 1.09593E+00-2.81320E-04 1.19075E-01 1.55301E-13-2.19212E-13
 -1      3998 1.64027E+01-5.58962E-02 1.76236E-02-2.62316E+00-1.03587E-13-1.41193E-13
 -1      3999 1.76512E+01-8.07748E-01-3.47661E-02-2.96885E+00-1.43541E-13-1.28932E-13
 -1      4000 1.89246E+01 6.91874E-01-5.14158E-03 1.03009E+00-1.66639E-13 2.28691E-14
 -1      4001 1.88742E+01 6.52700E-01 4.82942E-03 1.15099E+00-1.84758E-13-1.98000E-14
 -1      4002 1.87807E+01 8.03609E-01 3.40324E-03 8.89530E-01-1.25376E-13 7.32782E-15
 -1      4003 1.87260E+01 5.79371E-01-5.97796E-03 1.30116E+00-1.51962E-13-1.10097E-13
 -1      4004 1.87050E+01 4.81837E-01 8.04726E-03 1.45248E+00-1.53442E-13-1.75205E-13
 -1      4005 1.85103E+01 7.42169E-01 3.33295E-03 1.14460E+00-2.50249E-13-1.25535E-13
 -1      4006 1.92990E+01 6.87020E-01-3.55874E-03 6.50313E-01 1.15576E-14 1.16013E-14
 -1      4007 1.92386E+01 7.09118E-01 1.62691E-03 7.30380E-01 8.61780E-14 1.76636E-13
 -1      4008 1.90225E+01 7.93803E-01 3.21950E-03 6.96408E-01 5.33916E-14 8.16158E-14
 -1      4009 1.94545E+01 6.25163E-01-2.95909E-03 5.14295E-01 1.48696E-15 8.00325E-14
 -1      4010 1.93997E+01 6.60339E-01 9.86107E-04 5.80414E-01-3.91275E-15 9.99855E-14
 -1      4011 1.92318E+01 7.39843E-01 2.90038E-03 5.46392E-01-1.09537E-14 2.62880E-13
 -1      4012 1.95852E+01 5.47708E-01-2.45605E-03 4.03697E-01 5.00178E-14-8.88025E-14
 -1      4013 1.95382E+01 5.88689E-01 6.28724E-04 4.58384E-01 2.98144E-14-1.05560E-14
 -1      4014 1.94080E+01 6.61453E-01 2.52337E-03 4.27782E-01 8.35786E-14 8.48687E-14
 -1      4015 1.96920E+01 4.65745E-01-2.03156E-03 3.13734E-01 1.98550E-13 7.46319E-15
 -1      4016 1.96535E+01 5.07644E-01 4.31677E-04 3.58787E-01 1.34661E-13-7.39982E-14
 -1      4017 1.95531E+01 5.72590E-01 2.13448E-03 3.33029E-01 1.45486E-13-8.77856E-14
 -1      4018 1.97772E+01 3.86592E-01-1.60743E-03 2.40988E-01 2.57581E-14 5.75685E-14
 -1      4019 1.97466E+01 4.26137E-01 3.22646E-04 2.77747E-01 9.51827E-14-4.57199E-14
 -1      4020 1.96701E+01 4.82707E-01 1.76358E-03 2.57049E-01 1.42439E-13-2.01961E-13
 -1      4021 1.98439E+01 3.13302E-01-1.44312E-03 1.82991E-01-1.70784E-13 2.50847E-13
 -1      4022 1.98200E+01 3.49364E-01 1.71868E-04 2.12054E-01 6.47088E-15 1.94772E-13
 -1      4023 1.97627E+01 3.98288E-01 1.61026E-03 1.96178E-01-7.80054E-14-5.49829E-14
 -1      4024 1.99080E+01 2.44411E-01 2.83629E-04 1.49121E-01-2.66774E-13 2.87154E-13
 -1      4025 1.87362E+01-8.10233E-01 1.41606E-02 2.66155E+00-3.11053E-13-6.23891E-14
 -1      4026 1.57141E+01 8.34106E-01 1.52341E-03 1.49319E+00 3.62974E-14-3.09647E-13
 -1      4027 1.54387E+01 6.92005E-01-5.17219E-03-1.75575E+00 1.10622E-13 1.16624E-13
 -1      4028 1.60654E+01 7.81714E-01 2.43131E-03-1.62384E+00 1.23289E-13 9.93691E-14
 -1      4029 1.49529E+01 1.07420E+00 4.59651E-02-1.07436E+00 6.64017E-14 1.82265E-13
 -1      4030 2.02961E+01 8.82696E-01-1.87742E-03 1.75180E-01 2.24784E-13-2.38141E-13
 -1      4031 2.02961E+01 9.75855E-01-1.88712E-03 1.89766E-01 2.22664E-13-2.72635E-13
 -1      4032 1.85585E+01 3.32408E-01-5.88056E-03 1.65340E+00-1.70334E-13-1.52656E-13
 -1      4033 1.85997E+01 1.49109E-01 1.37503E-02 1.84101E+00-1.26598E-13-1.40055E-13
 -1      4034 1.82294E+01 5.68578E-01 4.34404E-03 1.49544E+00-1.81556E-13-2.44234E-13
 -1      4035 1.84452E+01-6.82029E-01 1.71808E-02-2.64886E+00-1.64066E-13-5.01643E-14
 -1      4036 2.01020E+01 3.92164E-01 2.84653E-04-4.39921E-01 5.54510E-14-1.25507E-13
 -1      4037 2.01373E+01 4.06625E-01-2.88432E-04-3.81179E-01 7.25719E-14-1.28465E-13
 -1      4038 2.01570E+01 4.74648E-01 3.70017E-04-3.19527E-01 8.38080E-14-1.29339E-13
 -1      4039 2.00543E+01 4.39757E-01 6.30139E-04-4.24494E-01 5.99669E-14-1.17752E-13
 -1      4040 1.85132E+01-1.04406E-01-5.09200E-03 2.10156E+00-1.83937E-13-1.53506E-13
 -1      4041 1.86757E+01-4.15116E-01 2.05322E-02 2.33250E+00-2.56508E-13-1.51335E-13
 -1      4042 1.79393E+01-4.07941E-01-1.38425E-02 2.58894E+00-2.28025E-13-1.63942E-13
 -1      4043 1.79927E+01 2.06218E-01-5.72203E-03 1.97650E+00-1.67019E-13-2.65904E-13
 -1      4044 2.02802E+01 8.70251E-01-1.65411E-03 2.47639E-02-5.01888E-14-2.75701E-13
 -1      4045 2.02585E+01 7.58570E-01-2.13046E-03 9.18706E-02-4.32843E-14-2.47720E-13
 -1      4046 2.02726E+01 1.17824E+00-4.13415E-03 1.23259E-01 1.44947E-13-2.20776E-13
 -1      4047 2.02614E+01 1.25971E+00-1.05624E-03 9.25310E-02 1.15122E-13-2.56207E-13
 -1      4048 2.02867E+01 1.12138E+00 4.77907E-03 3.27678E-02 9.02678E-14-2.57869E-13
 -1      4049 2.03001E+01 9.66476E-01 3.43136E-03 2.37601E-02 1.36587E-13-1.90829E-13
 -1      4050 1.85445E+01-3.59891E-02 1.44059E-02-2.02911E+00-1.92730E-13-2.92778E-15
 -1      4051 1.84835E+01 1.75773E-01-7.20172E-03-1.82592E+00-1.69449E-13 4.18757E-14
 -1      4052 1.81300E+01 4.32392E-01 2.76341E-03-1.64727E+00-1.29227E-13 6.29718E-14
 -1      4053 1.64272E+01 9.43702E-01-8.51721E-03-1.36501E+00 4.85703E-14 1.03938E-13
 -1      4054 1.82751E+01-3.00669E-01 6.74301E-04-2.36908E+00-1.77655E-13-3.40370E-14
 -1      4055 1.99967E+01 5.34598E-01-1.25017E-03 2.88876E-01 8.23018E-16-2.00912E-13
 -1      4056 1.99217E+01 5.41953E-01-7.82894E-04 3.29362E-01-1.41131E-14-1.70638E-13
 -1      4057 1.98517E+01 5.87413E-01 2.24533E-03 2.64452E-01 2.45081E-14-1.90498E-13
 -1      4058 2.02371E+01 1.36916E+00-2.70500E-03-4.43818E-02-2.12834E-15-3.28929E-13
 -1      4059 2.02468E+01 1.32551E+00-4.32384E-03-8.70935E-02-2.59418E-14-3.20925E-13
 -1      4060 2.02738E+01 1.21144E+00 5.49261E-03-1.56204E-02-8.17975E-15-3.12505E-13
 -1      4061 1.60916E+01 6.20010E-01-3.04342E-02 1.70470E+00-2.29388E-13 1.69641E-13
 -1      4062 1.52981E+01 9.30242E-01 3.88512E-02 1.30689E+00-3.15016E-13-2.18237E-14
 -1      4063 1.55041E+01 1.05317E+00-4.01905E-03 7.69679E-01-1.70710E-13 9.48991E-14
 -1      4064 1.76977E+01 5.49809E-02 1.70324E-03-2.19080E+00-1.44714E-13-7.30169E-14
 -1      4065 1.98582E+01 4.95011E-01 3.81000E-04-4.85986E-01 6.25812E-14-9.09311E-14
 -1      4066 1.99231E+01 4.79673E-01-1.53932E-03-4.34936E-01 8.17095E-14-8.51724E-14
 -1      4067 1.92906E+01 6.29534E-01 2.17799E-03-8.58343E-01 3.71563E-14-1.23650E-13
 -1      4068 1.93708E+01 6.13012E-01-3.58236E-03-7.79201E-01 3.26486E-14-1.51655E-13
 -1      4069 1.63317E+01 1.14189E+00 1.95329E-02-9.05821E-01 3.19090E-14 9.31906E-14
 -1      4070 1.97566E+01 3.88414E-01 8.07258E-04-5.69998E-02 6.14123E-14-8.73624E-14
 -1      4071 1.97864E+01 3.50720E-01-7.77659E-04-4.09707E-02 1.59859E-14-8.22091E-14
 -1      4072 1.97838E+01 3.55466E-01 5.52909E-04-4.62689E-03 5.72557E-15-2.23050E-13
 -1      4073 2.02716E+01 7.12348E-01 9.46970E-04-1.11542E-01 1.34462E-13-1.68692E-13
 -1      4074 2.02856E+01 8.19606E-01-1.94145E-03-3.64839E-02 1.27324E-13-1.77937E-13
 -1      4075 2.02816E+01 9.05469E-01 8.43520E-05-2.34494E-02 1.12824E-13-1.82906E-13
 -1      4076 1.96896E+01 5.41036E-01 8.13833E-04-5.88822E-01 3.84100E-15-1.28410E-13
 -1      4077 1.97615E+01 5.15194E-01-2.12292E-03-5.32640E-01 3.13420E-14-1.12128E-13
 -1      4078 1.97632E+01 5.52918E-01 1.80264E-03-4.37510E-01 5.59518E-14-9.38341E-14
 -1      4079 1.98819E+01 2.77383E-01 6.76263E-04 1.58055E-01-1.98693E-13 3.38449E-13
 -1      4080 1.98387E+01 3.16874E-01 1.12122E-03 1.46319E-01-1.08650E-13 1.94704E-13
 -1      4081 2.01325E+01 5.65610E-01-9.06047E-04 2.14937E-01-3.80643E-15-2.33994E-13
 -1      4082 2.00738E+01 5.42539E-01-7.63786E-04 2.59935E-01-7.50100E-15-2.32249E-13
 -1      4083 2.00253E+01 5.75628E-01 2.00851E-03 2.11710E-01 9.79344E-15-2.34834E-13
 -1      4084 1.96401E+01 5.25474E-01 1.08620E-03-7.63386E-01 1.40196E-14-1.05346E-13
 -1      4085 2.02665E+01 1.16733E+00-3.04867E-03-7.45532E-02-4.20681E-14-2.86650E-13
 -1      4086 1.52006E+01 1.10120E+00-6.03891E-03-4.64275E-01-1.26774E-13 9.44561E-14
 -1      4087 2.02877E+01 1.04364E+00 3.57782E-03-1.63872E-02-4.85636E-14-2.76995E-13
 -1      4088 1.91456E+01 6.31526E-01-4.48249E-03-9.47525E-01 2.42356E-14-6.57451E-14
 -1      4089 1.90643E+01 7.11290E-01 3.03636E-03-8.05396E-01-1.14890E-15-3.72005E-14
 -1      4090 1.90691E+01 6.24191E-01 3.52845E-03-1.04584E+00-1.69702E-15-2.23744E-14
 -1      4091 1.58305E+01 6.98905E-01-2.07186E-02-1.49635E+00-3.69080E-14-2.22123E-13
 -1      4092 1.60850E+01 3.40326E-01 1.67503E-02-2.17112E+00-9.69944E-14-2.16972E-13
 -1      4093 1.70884E+01 2.28190E-01 2.04706E-02-2.10024E+00-1.17031E-13-1.14442E-13
 -1      4094 2.02418E+01 7.60248E-01 2.39363E-06 8.29083E-02-2.89746E-14-2.62458E-13
 -1      4095 2.02313E+01 6.71617E-01 2.93960E-05 1.29299E-01-4.34005E-14-2.34610E-13
 -1      4096 2.01880E+01 6.08213E-01-1.11495E-03 1.82288E-01-2.20960E-14-2.46341E-13
 -1      4097 2.02724E+01 1.01768E+00 5.89052E-04 1.46282E-03-4.57643E-14-2.93961E-13
 -1      4098 1.98154E+01 3.30276E-01-3.73558E-04 1.16131E-01-6.09547E-14-9.69720E-14
 -1      4099 1.44754E+01 1.06688E+00 3.99025E-02-1.57543E-01 1.18928E-14-2.77888E-13
 -1      4100 1.51756E+01 9.87110E-01 5.62316E-03-6.47717E-01 3.46442E-14-2.79307E-13
 -1      4101 1.49106E+01 1.02639E+00-2.92272E-03 5.18886E-01 1.06155E-13-2.30708E-13
 -1      4102 1.88480E+01 5.43882E-01 5.80775E-03-1.28828E+00-3.09568E-14 4.35200E-14
 -1      4103 1.89088E+01 5.92432E-01-5.52244E-03-1.16353E+00-9.28227E-15 3.52338E-14
 -1      4104 1.87720E+01 7.10556E-01 3.31965E-03-1.00424E+00-1.84259E-14-2.42753E-14
 -1      4105 2.02616E+01 1.05204E+00-2.51204E-03 1.81694E-03-1.34582E-14-2.77734E-13
 -1      4106 2.02623E+01 1.03607E+00-3.28773E-03-4.57650E-03-4.99044E-14-2.81127E-13
 -1      4107 2.02728E+01 8.92217E-01 4.13402E-03 2.52670E-02-4.55129E-14-2.67611E-13
 -1      4108 2.02650E+01 1.02793E+00-3.60431E-03 1.31475E-03 3.16360E-14-2.74238E-13
 -1      4109 2.02630E+01 1.04850E+00-2.59421E-03-6.07557E-03-2.15274E-15-2.68858E-13
 -1      4110 2.02717E+01 9.19569E-01 5.86381E-03-4.66348E-03-4.30660E-14-2.47465E-13
 -1      4111 1.84552E+01 6.32851E-01 3.24174E-03-1.27327E+00-7.14544E-14 4.50375E-14
 -1      4112 1.94053E+01 7.17530E-01-2.80529E-03 2.26279E-01-2.21536E-14-9.76411E-14
 -1      4113 1.92597E+01 7.69042E-01-2.34618E-03 2.46502E-01-1.84533E-14-1.01634E-13
 -1      4114 1.90876E+01 8.22035E-01-3.69505E-03 2.54287E-01-3.99478E-15-9.22344E-14
 -1      4115 1.89102E+01 8.77897E-01-3.33374E-03 2.74683E-01-2.63142E-14-1.13835E-13
 -1      4116 1.91607E+01 8.27021E-01 9.91706E-03 1.09554E-01-9.64257E-15-1.76782E-13
 -1      4117 1.87003E+01 9.31034E-01-5.04640E-03 2.81908E-01-7.05437E-14-1.07527E-13
 -1      4118 1.84820E+01 9.83164E-01-4.74858E-03 3.04060E-01-8.86455E-14-1.53836E-13
 -1      4119 1.87893E+01 9.42350E-01 1.36535E-02 1.06809E-01-5.67600E-14-1.58248E-13
 -1      4120 1.82216E+01 1.02797E+00-7.20543E-03 3.10935E-01-7.35009E-14-1.88338E-13
 -1      4121 1.79485E+01 1.06797E+00-6.81177E-03 3.38268E-01-4.98194E-14-2.30095E-13
 -1      4122 1.83339E+01 1.05418E+00 1.90704E-02 9.54085E-02-7.55158E-14-1.68259E-13
 -1      4123 1.76159E+01 1.09597E+00-1.06901E-02 3.46158E-01-5.99289E-14-2.61271E-13
 -1      4124 1.72674E+01 1.11488E+00-9.53542E-03 3.86310E-01-5.20510E-14-2.71788E-13
 -1      4125 1.77634E+01 1.14874E+00 2.70205E-02 7.25853E-02-7.62979E-14-2.73204E-13
 -1      4126 1.68256E+01 1.11704E+00-1.58039E-02 4.01915E-01-2.88503E-14-2.60831E-13
 -1      4127 1.63724E+01 1.09785E+00-1.25799E-02 4.71130E-01 1.64562E-14-2.98966E-13
 -1      4128 1.70190E+01 1.21243E+00 3.68324E-02 3.44748E-02-3.51628E-14-2.05715E-13
 -1      4129 1.93274E+01 6.68445E-01 2.62927E-03-6.54105E-01 2.83717E-14-1.19739E-13
 -1      4130 1.94995E+01 5.93084E-01 1.35879E-03-7.09870E-01 4.90857E-14-1.27184E-13
 -1      4131 1.95770E+01 5.66328E-01-2.80779E-03-6.44429E-01 2.20739E-14-9.12711E-14
 -1      4132 1.60111E+01 1.15905E+00-1.04806E-02-4.54220E-01-2.85193E-14 7.63964E-14
 -1      4133 1.66832E+01 1.20190E+00-1.48964E-02-3.61790E-01 8.52552E-14-3.27491E-14
 -1      4134 1.58561E+01 1.25297E+00 3.81301E-02 1.65653E-01-1.03500E-13 1.26026E-13
 -1      4135 1.70916E+01 1.19873E+00-1.31468E-02-3.53742E-01 4.58097E-15 5.04902E-14
 -1      4136 1.74554E+01 1.19644E+00-1.08756E-02-3.02159E-01-2.14699E-13 3.26641E-14
 -1      4137 1.69987E+01 1.29798E+00 3.49602E-02 6.20053E-02-5.39779E-14 8.83942E-14
 -1      4138 1.77658E+01 1.17014E+00-9.65486E-03-2.99873E-01-2.33979E-13 9.44114E-14
 -1      4139 1.80457E+01 1.14069E+00-7.35654E-03-2.65487E-01-1.58786E-13 1.10740E-13
 -1      4140 1.77037E+01 1.23803E+00 2.60239E-02 5.08541E-03-1.50482E-13 1.15897E-13
 -1      4141 1.82825E+01 1.09783E+00-6.69202E-03-2.61338E-01-1.53661E-13 1.19842E-13
 -1      4142 1.84988E+01 1.05111E+00-5.18563E-03-2.34609E-01-7.13895E-14-2.00003E-15
 -1      4143 1.82284E+01 1.15152E+00 1.86758E-02-3.03274E-02-2.20338E-13 2.08999E-13
 -1      4144 1.86836E+01 9.96701E-01-4.90780E-03-2.28248E-01 8.17177E-14-9.82506E-14
 -1      4145 1.88528E+01 9.40345E-01-3.79501E-03-2.04938E-01 1.05157E-13-3.67424E-14
 -1      4146 1.86367E+01 1.04299E+00 1.38485E-02-4.92028E-02-3.48610E-14 2.10501E-14
 -1      4147 1.89984E+01 8.80018E-01-3.71713E-03-1.97096E-01 1.79078E-13-2.15861E-15
 -1      4148 1.91312E+01 8.19851E-01-2.85244E-03-1.75769E-01 3.18083E-13-1.56911E-13
 -1      4149 1.89584E+01 9.21445E-01 1.05386E-02-5.70278E-02 9.24053E-14-5.20154E-14
 -1      4150 1.92461E+01 7.58315E-01-2.86763E-03-1.67225E-01 3.32999E-13-1.51214E-13
 -1      4151 1.93502E+01 6.98693E-01-2.17630E-03-1.47601E-01 2.68937E-13-5.38612E-14
 -1      4152 1.92127E+01 7.95654E-01 8.14752E-03-5.75357E-02 2.89366E-13-4.90123E-14
 -1      4153 1.94405E+01 6.39513E-01-2.21028E-03-1.39014E-01 2.44788E-13-1.04818E-13
 -1      4154 1.95215E+01 5.83428E-01-1.61645E-03-1.21242E-01 1.68679E-13 1.01796E-14
 -1      4155 1.94130E+01 6.72767E-01 6.31964E-03-5.35327E-02 3.59641E-13-2.91092E-14
 -1      4156 1.95921E+01 5.29593E-01-1.37892E-03-1.12748E-01 1.33371E-13-1.05687E-13
 -1      4157 1.96567E+01 4.79055E-01-2.74928E-04-9.77480E-02 2.08381E-13-2.70165E-13
 -1      4158 1.95690E+01 5.57881E-01 4.66451E-03-4.71366E-02 1.65606E-13-3.01429E-13
 -1      4159 1.96984E+01 4.38235E-01-5.68092E-04-7.44881E-02 1.56728E-13-1.68428E-13
 -1      4160 1.91717E+01 7.63145E-01-4.38908E-03 4.19604E-01-1.37474E-14 2.67345E-13
 -1      4161 1.90793E+01 8.06547E-01 2.61505E-04 4.78870E-01 5.30048E-14 2.78926E-13
 -1      4162 1.98809E+01 5.85482E-01-1.72952E-03 1.65159E-01 3.32823E-14-1.98137E-13
 -1      4163 1.97837E+01 6.04898E-01-1.23748E-03 1.88113E-01 7.04948E-14-1.78721E-13
 -1      4164 1.76467E+01 5.73741E-01 1.08962E-02-1.53491E+00-9.73072E-14-1.04339E-14
 -1      4165 1.77811E+01 6.60975E-01-1.66056E-02-1.33396E+00-9.00672E-14 5.90113E-14
 -1      4166 1.89336E+01 8.38549E-01-5.72523E-03 5.41796E-01-2.14302E-14 1.44260E-13
 -1      4167 1.88265E+01 8.69174E-01 8.70427E-04 6.17417E-01-1.08879E-13-1.52595E-14
 -1      4168 1.89177E+01 8.96688E-01 9.93292E-03 4.05611E-01-7.33716E-14 1.49821E-13
 -1      4169 1.83066E+01 8.69722E-01-1.06398E-02 9.15385E-01-3.34851E-13-5.84204E-14
 -1      4170 1.81777E+01 8.42892E-01 3.13948E-03 1.04907E+00-2.62340E-13-1.96715E-13
 -1      4171 1.93671E+01 6.71154E-01-3.42247E-03 3.24574E-01 1.55334E-13 2.52691E-13
 -1      4172 1.92896E+01 7.20371E-01-4.91016E-05 3.71768E-01 3.84852E-14 3.28838E-13
 -1      4173 1.91661E+01 7.99892E-01 7.81040E-03 3.08903E-01 3.87355E-14 2.14716E-13
 -1      4174 1.95251E+01 5.74002E-01-2.69928E-03 2.49878E-01 3.43500E-13 9.78350E-14
 -1      4175 1.94617E+01 6.24099E-01-1.84359E-04 2.87785E-01 2.85556E-13 1.97095E-13
 -1      4176 1.93673E+01 6.93762E-01 6.16811E-03 2.35473E-01 2.34833E-13 2.63686E-13
 -1      4177 1.96509E+01 4.79491E-01-2.08625E-03 1.90877E-01 1.56971E-13 1.37483E-13
 -1      4178 1.96002E+01 5.27172E-01-2.12862E-04 2.21422E-01 3.26459E-13 1.34201E-13
 -1      4179 1.95282E+01 5.87295E-01 4.82562E-03 1.79102E-01 3.37131E-13 1.67913E-13
 -1      4180 1.97503E+01 3.92696E-01-1.29328E-03 1.43682E-01-8.01111E-14 3.87851E-14
 -1      4181 1.97095E+01 4.35280E-01-3.24546E-04 1.68786E-01-3.20526E-14-2.17092E-14
 -1      4182 1.96546E+01 4.86522E-01 3.47626E-03 1.35723E-01 9.70248E-14 3.38034E-13
 -1      4183 1.96669E+01 6.33463E-01-2.19278E-03 1.96954E-01 6.27827E-14-1.55296E-13
 -1      4184 1.95475E+01 6.72782E-01-1.66685E-03 2.18004E-01 1.78633E-14-1.30265E-13
 -1      4185 1.97195E+01 6.44857E-01 5.32609E-03 9.69344E-02 7.17096E-14-2.47528E-13
 -1      4186 1.78998E+01 7.78857E-01-1.54135E-02 1.20749E+00-2.09008E-13-5.36219E-14
 -1      4187 1.77636E+01 6.86889E-01-3.43685E-03 1.40559E+00-1.04671E-13-2.94208E-14
 -1      4188 1.77917E+01 9.84236E-01 2.15848E-02 9.58055E-01-1.69681E-13 6.68159E-14
 -1      4189 2.02351E+01 7.86275E-01-1.41293E-03 5.76840E-02-2.28805E-14-2.76944E-13
 -1      4190 2.02052E+01 5.61431E-01 7.41662E-04-2.23088E-01 1.11825E-13-1.24467E-13
 -1      4191 2.02380E+01 6.22655E-01-1.40948E-03-1.61039E-01 1.36666E-13-1.24736E-13
 -1      4192 2.02406E+01 6.87949E-01-1.34455E-05-1.30686E-01 1.01787E-13-1.30605E-13
 -1      4193 1.86473E+01 8.81348E-01-7.65645E-03 7.01623E-01-9.90384E-14-5.14890E-14
 -1      4194 1.85275E+01 8.89794E-01 1.94861E-03 8.00425E-01-2.52265E-13-5.01836E-14
 -1      4195 1.82430E+01 1.00832E+00 1.66102E-02 7.12423E-01-3.41333E-13-2.51086E-13
 -1      4196 1.86136E+01 9.71689E-01 1.27748E-02 5.35177E-01-2.09635E-13-1.23202E-13
 -1      4197 1.72913E+01 3.96338E-01-2.63425E-02-1.81342E+00-8.87448E-14-5.78606E-14
 -1      4198 2.02762E+01 9.37325E-01-2.99743E-03-1.02692E-02 9.04853E-14-1.82874E-13
 -1      4199 2.02717E+01 1.00491E+00-7.16937E-04-6.85604E-03 5.01294E-14-2.35986E-13
 -1      4200 2.02740E+01 8.83203E-01 4.73049E-03-3.30771E-02 2.80209E-14-2.08850E-13
 -1      4201 2.02725E+01 8.18177E-01 2.64250E-03-6.64127E-02 1.00286E-13-1.54566E-13
 -1      4202 1.99367E+01 5.21274E-01 1.35117E-03-3.52649E-01 5.51875E-14-6.15032E-14
 -1      4203 2.00041E+01 4.74535E-01 9.07249E-05-3.93154E-01 5.71680E-14-8.76875E-14
 -1      4204 2.00605E+01 4.78512E-01-1.10501E-03-3.42891E-01 4.95091E-14-9.09210E-14
 -1      4205 1.97765E+01 3.69234E-01 1.72242E-03 9.20149E-02-2.25491E-14-1.64278E-13
 -1      4206 1.80964E+01 7.40329E-01 4.70088E-03-1.15595E+00-1.20538E-13 6.23936E-14
 -1      4207 1.82446E+01 7.72842E-01-1.15234E-02-1.01497E+00-7.70578E-14 1.60060E-14
 -1      4208 1.76674E+01 8.98173E-01 2.66272E-02-1.04434E+00-1.10136E-13-1.38899E-14
 -1      4209 1.71111E+01 1.80810E-01 1.10643E-02 2.22816E+00-2.44385E-13 8.16209E-14
 -1      4210 1.88572E+01 7.86556E-01 1.17350E-03-7.01210E-01-5.97856E-15-1.02034E-13
 -1      4211 1.89908E+01 7.59558E-01-5.92204E-03-6.24349E-01 9.67898E-15-1.15398E-13
 -1      4212 1.57742E+01 1.06928E+00 9.66051E-03-5.79392E-01 3.08620E-14-2.36521E-13
 -1      4213 1.64677E+01 9.36933E-01-4.04308E-03-8.46033E-01 1.20517E-14-1.94013E-13
 -1      4214 2.00510E+01 5.89446E-01-1.68277E-03 1.29216E-01 4.79830E-14-2.39571E-13
 -1      4215 1.99743E+01 5.80718E-01-1.15685E-03 1.55088E-01 1.82937E-14-2.14604E-13
 -1      4216 1.99235E+01 6.08181E-01 3.37843E-03 8.40085E-02 5.87800E-14-2.27726E-13
 -1      4217 1.91688E+01 7.32538E-01 4.81662E-04-5.60427E-01 3.29913E-14-1.48423E-13
 -1      4218 1.92897E+01 6.95418E-01-4.29690E-03-5.00640E-01 1.22911E-14-1.61536E-13
 -1      4219 1.89951E+01 8.22109E-01 1.00871E-02-4.59246E-01 2.41658E-15-1.81296E-13
 -1      4220 1.62325E+01 1.08642E+00-2.39433E-02 6.29689E-01-8.32693E-14 1.30299E-13
 -1      4221 1.55520E+01 1.02004E+00 2.51444E-02 1.01438E+00 8.10790E-14-3.24542E-13
 -1      4222 1.96916E+01 4.48549E-01 2.16614E-03-2.86985E-02 1.88784E-13-3.10627E-13
 -1      4223 1.68977E+01 9.49166E-01 2.37705E-02 1.18490E+00-4.78139E-14 1.14443E-13
 -1      4224 1.71121E+01 6.68781E-01-2.07909E-03 1.54164E+00-6.51675E-14 5.40529E-14
 -1      4225 2.01159E+01 4.92703E-01 2.02811E-04-3.10935E-01 5.59392E-14-1.21572E-13
 -1      4226 2.01623E+01 5.21874E-01-9.97141E-04-2.57202E-01 8.48382E-14-1.21552E-13
 -1      4227 2.01644E+01 5.74105E-01 3.16467E-04-2.13264E-01 8.06458E-14-9.97965E-14
 -1      4228 2.00689E+01 5.27277E-01 7.95652E-04-2.80059E-01 5.27295E-14-1.11900E-13
 -1      4229 1.95603E+01 6.08348E-01 2.20122E-03-5.35147E-01 1.27046E-14-1.17166E-13
 -1      4230 1.70509E+01 7.60339E-01 2.99542E-02-1.44670E+00-4.82570E-14-1.01595E-13
 -1      4231 1.94669E+01 7.22816E-01 7.26545E-03 1.05747E-01 2.46267E-14-1.98846E-13
 -1      4232 2.01558E+01 6.29695E-01 1.61675E-03 1.52975E-01-1.29913E-14-2.73368E-13
 -1      4233 1.97855E+01 3.48761E-01-1.05439E-03 3.11452E-02-1.18234E-14-2.33753E-13
 -1      4234 1.96724E+01 5.94427E-01-2.12046E-04-3.67830E-01 5.13900E-14-1.05931E-13
 -1      4235 1.97663E+01 5.67417E-01-2.10758E-03-3.26043E-01 7.80818E-14-9.80213E-14
 -1      4236 1.57632E+01 1.08148E+00-1.09522E-02 4.94329E-01 1.02690E-13-3.16844E-13
 -1      4237 2.02367E+01 8.13545E-01-2.52768E-03-1.75181E-02-1.83703E-15-2.14365E-13
 -1      4238 2.02367E+01 8.18087E-01-2.06721E-03 2.53614E-03-2.71042E-14-2.45844E-13
 -1      4239 2.02112E+01 7.19169E-01 2.24582E-03 5.36954E-02-7.76566E-15-2.47169E-13
 -1      4240 1.98700E+01 5.50198E-01-4.24031E-04-2.96010E-01 6.45154E-14-1.10299E-13
 -1      4241 1.99506E+01 5.41987E-01-1.25620E-03-2.57887E-01 6.22471E-14-8.87367E-14
 -1      4242 1.97949E+01 5.99040E-01 3.80393E-03-2.28474E-01 5.65638E-14-1.20793E-13
 -1      4243 1.85008E+01 7.99118E-01 2.40940E-03-8.91477E-01-6.06014E-14-3.40452E-14
 -1      4244 1.86448E+01 7.94408E-01-8.21001E-03-7.89075E-01-1.76810E-14-6.47393E-14
 -1      4245 1.86271E+01 8.92209E-01 1.38380E-02-5.91983E-01-4.01737E-14-1.07068E-13
 -1      4246 1.97174E+01 4.14487E-01-1.32508E-03 5.06473E-02 1.25580E-13-1.67455E-13
 -1      4247 1.81911E+01 9.25984E-01 1.92193E-02-7.77855E-01-1.34502E-13-5.10529E-14
 -1      4248 1.67708E+01 9.83407E-01-2.81295E-02-6.43872E-01-1.50205E-14-1.85015E-13
 -1      4249 1.59702E+01 1.15970E+00 1.60737E-02 2.28486E-02 5.95518E-14-1.84238E-13
 -1      4250 1.88417E+01 8.58105E-01-8.05380E-03-2.02828E-01-8.66798E-15-1.45035E-13
 -1      4251 1.86253E+01 9.08412E-01-1.08056E-02-2.17927E-01-3.46687E-14-1.27067E-13
 -1      4252 1.84109E+01 9.39827E-01-1.10592E-02-2.84803E-01-1.04913E-13-1.05862E-13
 -1      4253 1.81413E+01 9.79752E-01-1.55002E-02-3.09168E-01-1.07420E-13-1.21171E-13
 -1      4254 1.78822E+01 9.90116E-01-1.52775E-02-4.04472E-01-1.07145E-13-1.20386E-13
 -1      4255 1.75382E+01 1.01084E+00-2.20101E-02-4.42540E-01-1.02700E-13-1.41838E-13
 -1      4256 1.72224E+01 9.89290E-01-1.98020E-02-5.79788E-01-8.45066E-14-1.72541E-13
 -1      4257 1.69796E+01 4.75728E-01 8.56049E-03 1.80989E+00-1.34571E-13 1.10582E-13
 -1      4258 1.69385E+01 1.07561E+00-1.52125E-02 6.40063E-01-1.83274E-14 1.46344E-13
 -1      4259 1.73206E+01 1.08081E+00-1.42206E-02 5.69188E-01-1.77976E-14 2.01986E-13
 -1      4260 1.75867E+01 1.09661E+00-1.94121E-02 4.43291E-01-1.56247E-13 3.01575E-14
 -1      4261 1.79021E+01 1.08466E+00-1.12008E-02 3.98683E-01-2.46671E-13 6.47224E-14
 -1      4262 1.81216E+01 1.06737E+00-1.43273E-02 3.10008E-01-3.11981E-13 8.64662E-14
 -1      4263 1.83644E+01 1.03380E+00-8.67160E-03 2.82186E-01-3.01063E-13 3.26540E-14
 -1      4264 1.85431E+01 9.96710E-01-1.05147E-02 2.18576E-01-1.88414E-13 1.36734E-13
 -1      4265 1.87328E+01 9.48855E-01-6.71717E-03 2.01090E-01-5.00177E-14 3.39635E-14
 -1      4266 1.88780E+01 8.99768E-01-7.87408E-03 1.54534E-01-2.89730E-14-7.79699E-14
 -1      4267 1.90275E+01 8.44294E-01-5.27285E-03 1.44089E-01 2.66950E-14-1.26014E-13
 -1      4268 1.91449E+01 7.89490E-01-6.00105E-03 1.09339E-01 1.41184E-13-7.75812E-14
 -1      4269 1.92627E+01 7.31649E-01-4.17081E-03 1.03669E-01 2.57689E-13-2.14906E-14
 -1      4270 1.93569E+01 6.75896E-01-4.61577E-03 7.73215E-02 3.38945E-13-3.39641E-14
 -1      4271 1.94496E+01 6.19573E-01-3.27479E-03 7.47472E-02 2.81439E-13-1.37269E-13
 -1      4272 1.95245E+01 5.66268E-01-3.47511E-03 5.46259E-02 2.42450E-13-1.03965E-13
 -1      4273 1.95969E+01 5.14033E-01-2.41095E-03 5.37388E-02 2.66288E-13-1.08410E-13
 -1      4274 1.96569E+01 4.65347E-01-2.13549E-03 3.81157E-02 1.59460E-13-1.71843E-13
 -1      4275 1.97407E+01 6.11256E-01-3.37280E-03-7.89678E-02 5.76102E-14-1.64428E-13
 -1      4276 1.96214E+01 6.41999E-01-3.60044E-03-7.91909E-02 3.51986E-14-1.76286E-13
 -1      4277 1.94395E+01 6.61501E-01 7.26586E-05-4.53021E-01-1.21127E-15-1.38704E-13
 -1      4278 1.95468E+01 6.24724E-01-3.09249E-03-4.04455E-01 1.44934E-14-1.16011E-13
 -1      4279 1.95725E+01 6.56860E-01 5.42791E-03-2.87692E-01 3.50204E-14-1.32487E-13
 -1      4280 1.93075E+01 7.37216E-01 7.40167E-03-3.61787E-01 1.76047E-15-1.75797E-13
 -1      4281 2.02072E+01 6.43215E-01 1.87678E-03-1.48329E-01 7.99390E-14-1.06560E-13
 -1      4282 2.02383E+01 7.13695E-01-1.87036E-03-1.02179E-01 8.26473E-14-1.26867E-13
 -1      4283 2.02357E+01 7.49322E-01-1.92997E-03-8.17361E-02 6.31386E-14-1.44308E-13
 -1      4284 1.94943E+01 6.76155E-01-4.50003E-03-1.06870E-01 2.30153E-14-1.80338E-13
 -1      4285 1.93489E+01 7.21668E-01-5.28299E-03-1.10558E-01 1.70761E-14-2.05597E-13
 -1      4286 2.01651E+01 6.59050E-01-1.76621E-03 7.56621E-02 1.54178E-14-2.41957E-13
 -1      4287 2.01102E+01 6.16676E-01-2.13780E-04 1.02851E-01 4.37961E-14-2.21686E-13
 -1      4288 2.00714E+01 6.23809E-01 1.90706E-03 4.77875E-02 7.03759E-14-2.00905E-13
 -1      4289 2.01694E+01 6.94131E-01 5.29259E-04 3.29176E-03 3.67572E-14-1.87086E-13
 -1      4290 1.91978E+01 7.64195E-01-5.97017E-03-1.46264E-01 1.09753E-14-1.90249E-13
 -1      4291 1.90211E+01 8.16268E-01-7.56678E-03-1.54741E-01-6.41636E-15-1.73375E-13
 -1      4292 1.98467E+01 5.94644E-01-1.99059E-03-5.64428E-02 5.01344E-14-1.61173E-13
 -1      4293 1.99424E+01 5.87863E-01-1.75993E-03-5.79253E-02 4.45630E-14-1.43157E-13
 -1      4294 2.01762E+01 6.87388E-01-1.29416E-03-4.85713E-02 6.35910E-14-1.90801E-13
 -1      4295 2.01380E+01 6.46093E-01 1.82932E-03-3.62611E-02 8.06660E-14-1.44738E-13
 -1      4296 2.01189E+01 5.65992E-01 5.51731E-04-2.06787E-01 5.70068E-14-1.02659E-13
 -1      4297 2.01603E+01 5.96269E-01-1.16052E-03-1.73630E-01 7.87959E-14-7.72533E-14
 -1      4298 2.01603E+01 6.26825E-01 3.80223E-05-1.40463E-01 5.81362E-14-1.31369E-13
 -1      4299 2.02361E+01 7.77730E-01-8.24247E-04-6.28298E-02 3.27565E-14-1.91129E-13
 -1      4300 2.02096E+01 7.13790E-01 2.60761E-03-6.13590E-02 4.88112E-14-1.92883E-13
 -1      4301 2.00126E+01 5.41305E-01-1.83285E-04-2.49877E-01 5.10206E-14-1.15508E-13
 -1      4302 2.00671E+01 5.51895E-01-9.32593E-04-2.18600E-01 3.89367E-14-1.12508E-13
 -1      4303 2.00662E+01 5.79006E-01 7.66240E-04-1.75244E-01 4.63868E-14-1.50466E-13
 -1      4304 1.99545E+01 5.68704E-01 2.54561E-04-1.93073E-01 4.25554E-14-1.47089E-13
 -1      4305 2.01731E+01 6.50553E-01-1.35750E-03-1.05014E-01 7.14566E-14-1.79614E-13
 -1      4306 2.01299E+01 6.12635E-01-2.39806E-04-1.29333E-01 6.14096E-14-1.60194E-13
 -1      4307 2.00746E+01 6.16807E-01-2.09175E-03-2.70962E-02 4.65244E-14-1.33753E-13
 -1      4308 2.00160E+01 6.00487E-01-5.61263E-04-3.50965E-04 4.55020E-14-1.63667E-13
 -1      4309 1.99622E+01 5.87302E-01 1.39596E-03-1.37505E-01 1.64548E-14-9.32764E-14
 -1      4310 2.00237E+01 5.83241E-01 7.19150E-04-1.32744E-01 3.48995E-14-1.37330E-13
 -1      4311 2.00904E+01 6.16033E-01 3.73839E-04-8.91202E-02 7.28670E-14-1.55355E-13
 -1      4312 2.00744E+01 5.93044E-01 1.12605E-04-1.23902E-01 4.54497E-14-1.40582E-13
 -3
    1PSTEP                         3           1           1          
  100CL  101 1.000000000        4312                     0    1           1
 -4  TOSTRAIN    6    1
 -5  EXX         1    4    1    1
 -5  EYY         1    4    2    2
 -5  EZZ         1    4    3    3
 -5  EXY         1    4    1    2
 -5  EYZ         1    4    2    3
 -5  EZX         1    4    3    1
 -1         1 4.96325E-06-1.57376E-05-2.23138E-06-8.84185E-06-1.85627E-17-1.00060E-17
 -1         2 3.65273E-05-1.10361E-04 1.98204E-05-6.87001E-08-3.65377E-18 1.31872E-19
 -1         3 9.52331E-05-2.85752E-05-2.85571E-05 1.91086E-10-3.12782E-18-2.54060E-18
 -1         4 9.52330E-05-2.85754E-05-2.85569E-05 1.52375E-10 2.27309E-18-6.53868E-19
 -1         5 1.42823E-04-2.13925E-05-4.23934E-05 3.84092E-05-2.90373E-19 2.08768E-17
 -1         6 1.44873E-04 2.56668E-10-4.40465E-05-5.33420E-05-1.21083E-18 1.83078E-17
 -1         7 9.04291E-05-5.13706E-07-3.89836E-05-2.91459E-05-1.75865E-19 2.95172E-18
 -1         8 8.50667E-05 8.27362E-08-3.63087E-05-2.01609E-05-2.15040E-19-1.66884E-18
 -1         9 8.28370E-05 7.34086E-08-3.53563E-05-1.55148E-05-1.72702E-19-4.11261E-18
 -1        10 8.18478E-05 3.59288E-08-3.49099E-05-1.19430E-05-1.25301E-19-5.19947E-18
 -1        11 8.13502E-05 1.75053E-08-3.46935E-05-8.88295E-06-8.20034E-20-5.63462E-18
 -1        12 8.10900E-05 7.88611E-09-3.45852E-05-6.17543E-06-3.84242E-20-5.75763E-18
 -1        13 8.09504E-05 3.79173E-09-3.45297E-05-3.61349E-06-3.44603E-21-5.72531E-18
 -1        14 8.08905E-05 2.21349E-09-3.45066E-05-1.15844E-06 2.41224E-20-5.70782E-18
 -1        15 8.08921E-05 2.20922E-09-3.45072E-05 1.26372E-06 5.14502E-20-5.55435E-18
 -1        16 8.09556E-05 3.73433E-09-3.45315E-05 3.72388E-06 9.31455E-20-5.37815E-18
 -1        17 8.10999E-05 7.09287E-09-3.45881E-05 6.29796E-06 1.01086E-19-5.02895E-18
 -1        18 8.13649E-05 1.62294E-08-3.46978E-05 9.02500E-06 1.33825E-19-4.46314E-18
 -1        19 8.18670E-05 3.55010E-08-3.49170E-05 1.21211E-05 2.02361E-19-3.40180E-18
 -1        20 8.28581E-05 7.80471E-08-3.53681E-05 1.57425E-05 2.48803E-19-1.63897E-18
 -1        21 8.50321E-05 1.65252E-07-3.63464E-05 2.03713E-05 2.91750E-19 1.55402E-18
 -1        22 9.14563E-05-1.02100E-07-3.86561E-05 2.78965E-05 3.70577E-20 7.69707E-18
 -1        23 1.12584E-04-3.79965E-05-3.52813E-05-4.37955E-06-7.90493E-19 1.41485E-17
 -1        24 9.25357E-05-2.76177E-05-2.89155E-05 3.90415E-07-2.25618E-19 1.04561E-17
 -1        25 8.89339E-05-2.67979E-05-2.68729E-05 3.73614E-07-9.05051E-20 6.90700E-18
 -1        26 8.79279E-05-2.64639E-05-2.63660E-05 2.01457E-07-2.92193E-20 4.14402E-18
 -1        27 8.80873E-05-2.64829E-05-2.63992E-05 1.37127E-07-6.58808E-20 2.42483E-18
 -1        28 8.88134E-05-2.66778E-05-2.66277E-05 9.86176E-08-8.49907E-20 1.29427E-18
 -1        29 8.98486E-05-2.69757E-05-2.69459E-05 7.41188E-08-3.97316E-21 1.09287E-19
 -1        30 9.10761E-05-2.73374E-05-2.73188E-05 5.79428E-08 2.29006E-20-7.46097E-19
 -1        31 9.24535E-05-2.77476E-05-2.77358E-05 4.76758E-08-8.61416E-21-1.76039E-18
 -1        32 9.39857E-05-2.82060E-05-2.81998E-05 4.24640E-08-2.37826E-19-2.82124E-18
 -1        33 9.57114E-05-2.87235E-05-2.87225E-05 4.22714E-08 3.04025E-19-2.91327E-18
 -1        34 9.76929E-05-2.93180E-05-2.93227E-05 4.75635E-08-5.91920E-20-2.80405E-18
 -1        35 1.00007E-04-3.00121E-05-3.00233E-05 5.91121E-08 8.76818E-20-3.31214E-18
 -1        36 1.02732E-04-3.08282E-05-3.08466E-05 7.77014E-08 8.10517E-20-2.68204E-18
 -1        37 1.05923E-04-3.17821E-05-3.18071E-05 1.03466E-07-2.06750E-19-3.13344E-18
 -1        38 1.09572E-04-3.28709E-05-3.28984E-05 1.34447E-07-1.35460E-20-3.74935E-18
 -1        39 1.13545E-04-3.40542E-05-3.40730E-05 1.63833E-07-3.23726E-19-3.40972E-18
 -1        40 1.17488E-04-3.52269E-05-3.52146E-05 1.75578E-07-1.31956E-20-3.47090E-18
 -1        41 1.20720E-04-3.61886E-05-3.61106E-05 1.39859E-07 5.47039E-20-4.87204E-18
 -1        42 1.22180E-04-3.66266E-05-3.64484E-05 1.41869E-08-8.16824E-20-5.40763E-18
 -1        43 1.20576E-04-3.61570E-05-3.58799E-05-2.35901E-07-1.13258E-19-4.50747E-18
 -1        44 1.14932E-04-3.44824E-05-3.41907E-05-5.83617E-07 4.42839E-20-3.85752E-18
 -1        45 1.05565E-04-3.16834E-05-3.15582E-05-8.78075E-07 2.15616E-19-3.87825E-18
 -1        46 9.49525E-05-2.84924E-05-2.87017E-05-8.75594E-07-2.25855E-19-4.41421E-18
 -1        47 8.73019E-05-2.61785E-05-2.67065E-05-4.37008E-07 4.16095E-19-4.89671E-18
 -1        48 8.63223E-05-2.58815E-05-2.64552E-05 2.64476E-07-1.68116E-19-4.27681E-18
 -1        49 9.25284E-05-2.77601E-05-2.80664E-05 8.03632E-07-3.48455E-19-3.87954E-18
 -1        50 1.02833E-04-3.08638E-05-3.08144E-05 9.15434E-07 2.66747E-19-4.83492E-18
 -1        51 1.12876E-04-3.38701E-05-3.36022E-05 6.72929E-07-2.51623E-19-3.66231E-18
 -1        52 1.19624E-04-3.58762E-05-3.55837E-05 3.19623E-07-3.16825E-19-3.73244E-18
 -1        53 1.22262E-04-3.66537E-05-3.64481E-05 3.82017E-08 1.63476E-19-4.94180E-18
 -1        54 1.21543E-04-3.64354E-05-3.63347E-05-1.17228E-07 9.68827E-20-4.13024E-18
 -1        55 1.18754E-04-3.56054E-05-3.55803E-05-1.71176E-07 1.00019E-20-4.46942E-18
 -1        56 1.15052E-04-3.45049E-05-3.45192E-05-1.67109E-07-1.93215E-19-6.57371E-18
 -1        57 1.11223E-04-3.33659E-05-3.33938E-05-1.38729E-07 2.19559E-19-5.85186E-18
 -1        58 1.07708E-04-3.23181E-05-3.23461E-05-1.05184E-07 7.05171E-22-5.21502E-18
 -1        59 1.04697E-04-3.14188E-05-3.14416E-05-7.50420E-08-7.84329E-20-4.95568E-18
 -1        60 1.02234E-04-3.06814E-05-3.06980E-05-5.09961E-08 2.81960E-19-2.71823E-18
 -1        61 1.00284E-04-3.00964E-05-3.01077E-05-3.30492E-08-5.08385E-19-2.19532E-18
 -1        62 9.87800E-05-2.96443E-05-2.96514E-05-2.02300E-08-1.82254E-19-6.20653E-18
 -1        63 9.76452E-05-2.93026E-05-2.93067E-05-1.13826E-08-2.59710E-19-6.76041E-18
 -1        64 9.68073E-05-2.90498E-05-2.90520E-05-5.46909E-09-4.47430E-19-6.10534E-18
 -1        65 9.62027E-05-2.88670E-05-2.88679E-05-1.64628E-09-1.64196E-19-5.45740E-18
 -1        66 9.57784E-05-2.87386E-05-2.87388E-05 7.52824E-10-1.55482E-19-2.99051E-18
 -1        67 9.54925E-05-2.86517E-05-2.86517E-05 2.27557E-09 2.05342E-19-1.37746E-18
 -1        68 9.53132E-05-2.85970E-05-2.85973E-05 3.43883E-09-2.77685E-19 3.55491E-20
 -1        69 9.52176E-05-2.85674E-05-2.85683E-05 4.81583E-09 1.90392E-19-3.54662E-18
 -1        70 9.51893E-05-2.85580E-05-2.85589E-05 7.18641E-09 4.45372E-19-4.22973E-18
 -1        71 9.52123E-05-2.85646E-05-2.85607E-05 9.28595E-09-5.30232E-19-3.36603E-18
 -1        72 1.01824E-04-3.04784E-05-3.40397E-05-1.92314E-06 2.36772E-19 1.92762E-17
 -1        73 9.22982E-05-2.74357E-05-2.88259E-05-3.31502E-07 1.55589E-19 1.51798E-17
 -1        74 8.89271E-05-2.66489E-05-2.69181E-05-1.22818E-07 7.76077E-20 1.22258E-17
 -1        75 8.79639E-05-2.64160E-05-2.64123E-05-9.10488E-08 4.47575E-20 9.96685E-18
 -1        76 8.81290E-05-2.64640E-05-2.64286E-05-7.08325E-08 3.35546E-21 8.62266E-18
 -1        77 8.88550E-05-2.66730E-05-2.66480E-05-5.57468E-08 3.38670E-20 7.28758E-18
 -1        78 8.98859E-05-2.69765E-05-2.69611E-05-4.42331E-08-8.12271E-20 6.92331E-18
 -1        79 9.11029E-05-2.73386E-05-2.73291E-05-3.51287E-08 2.23378E-19 6.09060E-18
 -1        80 9.24590E-05-2.77438E-05-2.77388E-05-2.81115E-08-6.76412E-20 4.61101E-18
 -1        81 9.39501E-05-2.81900E-05-2.81897E-05-2.34255E-08 1.25943E-19 3.89033E-18
 -1        82 9.55994E-05-2.86837E-05-2.86885E-05-2.16690E-08 1.31770E-19 3.05889E-18
 -1        83 9.74447E-05-2.92358E-05-2.92463E-05-2.37141E-08 1.15852E-19 2.63104E-18
 -1        84 9.95251E-05-2.98578E-05-2.98740E-05-3.06394E-08 3.64609E-20 2.97182E-18
 -1        85 1.01864E-04-3.05564E-05-3.05771E-05-4.35430E-08 7.46129E-20 2.54461E-18
 -1        86 1.04443E-04-3.13261E-05-3.13477E-05-6.30500E-08 6.38542E-21 1.21285E-18
 -1        87 1.07169E-04-3.21393E-05-3.21543E-05-8.82447E-08 1.03311E-19 4.14358E-19
 -1        88 1.09828E-04-3.29332E-05-3.29283E-05-1.14749E-07-6.43354E-20 1.29844E-18
 -1        89 1.12042E-04-3.35971E-05-3.35528E-05-1.32024E-07 1.74123E-19 1.55765E-18
 -1        90 1.13248E-04-3.39660E-05-3.38607E-05-1.21194E-07-2.29824E-19 8.56473E-19
 -1        91 1.12758E-04-3.38355E-05-3.36582E-05-5.70861E-08 1.79884E-19 1.51409E-18
 -1        92 1.09951E-04-3.30174E-05-3.27892E-05 7.95177E-08-2.07944E-19 1.21095E-18
 -1        93 1.04652E-04-3.14473E-05-3.12412E-05 2.76139E-07 9.48942E-21 1.94619E-18
 -1        94 9.75721E-05-2.93206E-05-2.92508E-05 4.63747E-07 8.32298E-20 2.64777E-19
 -1        95 9.04929E-05-2.71627E-05-2.73196E-05 5.29465E-07-3.06876E-20-5.90461E-19
 -1        96 8.57926E-05-2.57021E-05-2.60667E-05 3.91719E-07 3.34156E-19 6.22907E-19
 -1        97 8.53082E-05-2.55225E-05-2.59468E-05 8.49362E-08-3.85880E-19 1.44796E-19
 -1        98 8.92470E-05-2.67078E-05-2.70065E-05-2.42688E-07 8.36536E-20 1.41907E-18
 -1        99 9.60523E-05-2.87819E-05-2.88565E-05-4.40400E-07-3.58086E-20-9.17813E-19
 -1       100 1.03352E-04-3.10072E-05-3.08875E-05-4.59081E-07 2.96103E-19-3.37569E-19
 -1       101 1.09169E-04-3.27728E-05-3.25606E-05-3.51123E-07-6.16070E-19-1.75100E-18
 -1       102 1.12567E-04-3.37959E-05-3.35872E-05-2.01902E-07 3.12272E-19-1.71782E-18
 -1       103 1.13578E-04-3.40931E-05-3.39393E-05-7.23408E-08-1.84530E-19 4.25229E-20
 -1       104 1.12773E-04-3.38434E-05-3.37544E-05 1.44242E-08-3.68860E-19 4.30507E-18
 -1       105 1.10859E-04-3.32626E-05-3.32260E-05 6.03557E-08 5.85463E-19 3.03453E-18
 -1       106 1.08440E-04-3.25335E-05-3.25308E-05 7.70391E-08-4.16765E-19 9.33771E-19
 -1       107 1.05944E-04-3.17832E-05-3.17986E-05 7.63775E-08 5.90107E-19-1.27434E-18
 -1       108 1.03626E-04-3.10872E-05-3.11098E-05 6.72011E-08-2.04826E-19-1.47171E-18
 -1       109 1.01609E-04-3.04826E-05-3.05061E-05 5.50174E-08 1.85736E-20 1.13849E-18
 -1       110 9.99360E-05-2.99810E-05-3.00023E-05 4.28289E-08 3.58138E-19-2.88067E-18
 -1       111 9.85964E-05-2.95795E-05-2.95974E-05 3.20407E-08-4.37444E-19-3.03265E-18
 -1       112 9.75557E-05-2.92675E-05-2.92818E-05 2.31437E-08-2.79587E-19-1.97599E-18
 -1       113 9.67690E-05-2.90316E-05-2.90426E-05 1.61545E-08 6.12335E-20 8.97776E-20
 -1       114 9.61905E-05-2.88580E-05-2.88663E-05 1.08711E-08-6.08978E-19-5.90732E-19
 -1       115 9.57782E-05-2.87343E-05-2.87404E-05 7.00073E-09 7.68935E-19-1.61263E-18
 -1       116 9.54969E-05-2.86498E-05-2.86545E-05 4.19544E-09 1.42708E-20-3.11089E-18
 -1       117 9.53184E-05-2.85960E-05-2.86000E-05 2.04635E-09-1.16291E-19-4.70775E-18
 -1       118 9.52219E-05-2.85667E-05-2.85705E-05 3.30948E-12 6.00954E-19-8.19375E-18
 -1       119 9.51927E-05-2.85575E-05-2.85605E-05-3.29972E-09-3.36274E-19-7.54742E-18
 -1       120 9.52132E-05-2.85636E-05-2.85617E-05-8.31159E-09 1.54245E-18-5.63122E-18
 -1       121 9.52438E-05-2.85945E-05-2.85623E-05-1.04491E-08-6.53381E-18 3.45687E-20
 -1       122 9.52488E-05-2.86105E-05-2.85626E-05-4.57189E-09-1.71765E-18 1.86396E-18
 -1       123 9.52376E-05-2.85730E-05-2.85742E-05 3.45979E-10 6.37106E-18 4.44223E-19
 -1       124 9.52123E-05-2.84882E-05-2.85982E-05 3.46881E-09 7.56634E-18-2.07421E-19
 -1       125 9.51791E-05-2.83766E-05-2.86299E-05 4.73447E-09 8.72656E-18-1.34976E-18
 -1       126 9.51462E-05-2.82655E-05-2.86618E-05 4.54051E-09 1.78922E-18-1.25077E-18
 -1       127 9.51193E-05-2.81749E-05-2.86878E-05 3.18035E-09 1.89414E-19 3.00511E-19
 -1       128 9.51046E-05-2.81252E-05-2.87021E-05 1.08940E-09-3.69554E-18 1.06236E-18
 -1       129 9.51049E-05-2.81264E-05-2.87018E-05-1.25022E-09-7.22714E-18-1.98783E-19
 -1       130 9.51203E-05-2.81783E-05-2.86868E-05-3.33212E-09-1.15930E-17-8.43415E-19
 -1       131 9.51478E-05-2.82709E-05-2.86602E-05-4.69469E-09-1.58982E-17-5.34317E-19
 -1       132 9.51811E-05-2.83833E-05-2.86280E-05-4.80326E-09-1.48547E-17 1.01462E-18
 -1       133 9.52144E-05-2.84951E-05-2.85963E-05-3.39094E-09-8.87472E-18 7.91417E-19
 -1       134 9.52392E-05-2.85789E-05-2.85726E-05-4.88793E-10-4.37871E-18-1.96955E-19
 -1       135 9.52502E-05-2.86135E-05-2.85616E-05 6.67747E-09-1.37723E-18 1.24047E-19
 -1       136 9.52423E-05-2.85950E-05-2.85614E-05 1.57606E-08 6.57655E-19 2.30401E-19
 -1       137 2.58508E-05-8.71494E-05 1.54510E-05-2.33350E-05 1.19914E-17 4.61720E-18
 -1       138 7.68419E-06-3.26552E-05 2.81188E-06-1.72107E-05 2.65816E-17 1.30712E-17
 -1       139 1.15309E-05 1.53116E-05-1.51357E-05 2.38469E-05 2.67540E-17 1.93301E-17
 -1       140 5.86324E-05 2.69086E-05-3.52581E-05 7.82115E-05 1.68094E-17 1.93136E-17
 -1       141 1.50398E-04-5.49967E-06-5.55898E-05 1.12076E-04 9.92130E-18 1.73074E-17
 -1       142 2.48243E-04-5.88193E-05-7.07197E-05 9.25043E-05 3.09363E-18 1.03152E-17
 -1       143 3.02798E-04-9.23090E-05-7.78600E-05 2.50908E-05 3.78253E-19-1.75018E-19
 -1       144 2.88964E-04-8.35811E-05-7.61478E-05-5.48244E-05 2.56855E-18-1.21092E-17
 -1       145 2.13529E-04-3.86777E-05-6.58128E-05-1.06838E-04 7.89339E-18-2.15587E-17
 -1       146 1.15218E-04 1.01669E-05-4.89186E-05-1.05719E-04 1.38774E-17-2.16353E-17
 -1       147 3.91327E-05 2.88073E-05-2.92116E-05-6.28407E-05 1.72558E-17-1.72905E-17
 -1       148 6.40558E-06 5.26812E-06-9.79804E-06-9.58012E-06 1.73108E-17-1.12662E-17
 -1       149 1.25276E-05-5.12239E-05 7.59534E-06 2.29581E-05 1.41658E-17-5.38776E-18
 -1       150 3.08855E-05-9.90086E-05 1.78288E-05 1.74063E-05 7.46024E-18-1.58345E-18
 -1       151 3.45421E-05-1.07259E-04 1.93638E-05-1.03145E-05-2.47905E-18-4.33999E-19
 -1       152 1.90064E-05-7.05141E-05 1.19215E-05-2.59673E-05-1.31108E-17-4.99808E-18
 -1       153 1.96544E-05 2.21362E-05-2.04462E-05 3.78367E-05-1.75022E-17-1.55367E-17
 -1       154 7.76191E-05 2.20576E-05-4.02556E-05 8.90159E-05-1.35576E-17-1.65362E-17
 -1       155 1.72479E-04-1.62109E-05-5.94784E-05 1.13438E-04-6.64455E-18-1.20448E-17
 -1       156 2.62612E-04-6.65953E-05-7.27741E-05 8.58559E-05-1.60523E-18-5.77253E-18
 -1       157 3.10260E-04-9.55826E-05-7.90585E-05 1.56693E-05-2.00217E-19 1.10538E-19
 -1       158 2.90686E-04-8.35110E-05-7.66028E-05-6.04359E-05-2.41774E-18 1.05254E-17
 -1       159 2.14137E-04-3.84488E-05-6.60507E-05-1.07481E-04-5.46146E-18 1.64600E-17
 -1       160 1.16303E-04 8.92347E-06-4.89724E-05-1.04681E-04-8.58891E-18 1.36309E-17
 -1       161 4.09383E-05 2.75441E-05-2.96540E-05-6.31771E-05-1.48777E-17 1.45770E-17
 -1       162 7.45249E-06 6.76616E-06-1.09286E-05-1.18605E-05-2.03203E-17 1.45588E-17
 -1       163 9.78705E-06-4.32076E-05 5.65345E-06 2.25133E-05-1.81811E-17 8.36720E-18
 -1       164 2.76982E-05-9.16154E-05 1.63317E-05 2.30611E-05-1.14623E-17 1.86893E-18
 -1       165 9.47668E-05-1.23534E-05-3.55217E-05-2.22093E-05-2.74181E-18 5.54357E-19
 -1       166 8.92460E-05-8.46571E-06-3.47815E-05-1.72335E-05-2.48764E-18-2.27502E-18
 -1       167 8.66112E-05-6.51254E-06-3.44380E-05-1.34324E-05-1.98019E-18-3.78052E-18
 -1       168 8.52656E-05-5.49392E-06-3.42702E-05-1.02092E-05-1.45203E-18-4.50768E-18
 -1       169 8.45190E-05-4.89808E-06-3.41915E-05-7.40811E-06-8.69564E-19-4.76868E-18
 -1       170 8.40801E-05-4.52933E-06-3.41539E-05-4.80027E-06-4.17635E-19-4.75492E-18
 -1       171 8.38506E-05-4.32897E-06-3.41378E-05-2.34013E-06 1.56189E-19-4.71971E-18
 -1       172 8.37815E-05-4.26756E-06-3.41334E-05 5.10635E-08 5.13913E-19-4.69865E-18
 -1       173 8.38597E-05-4.33744E-06-3.41382E-05 2.44437E-06 9.21357E-19-4.57855E-18
 -1       174 8.41004E-05-4.54858E-06-3.41547E-05 4.91112E-06 1.34104E-18-4.32300E-18
 -1       175 8.45442E-05-4.92459E-06-3.41915E-05 7.48518E-06 1.73418E-18-3.89619E-18
 -1       176 8.53224E-05-5.55310E-06-3.42710E-05 1.03542E-05 2.18739E-18-3.11845E-18
 -1       177 8.67003E-05-6.61022E-06-3.44397E-05 1.36211E-05 2.64632E-18-1.94630E-18
 -1       178 8.93922E-05-8.61356E-06-3.47852E-05 1.74699E-05 2.88869E-18 2.54348E-19
 -1       179 9.56716E-05-1.36131E-05-3.53782E-05 2.17576E-05 2.70618E-18 4.11534E-18
 -1       180 1.05368E-04-2.60448E-05-3.51820E-05 1.85618E-05 1.92958E-18 8.94551E-18
 -1       181 1.03212E-04-2.72553E-05-3.25502E-05-1.20314E-05-2.40028E-18 4.07584E-18
 -1       182 9.69945E-05-2.82541E-05-2.94947E-05-4.63800E-06-2.09616E-18 2.86159E-18
 -1       183 9.34845E-05-2.76231E-05-2.81776E-05-1.65773E-06-1.64302E-18 1.80509E-18
 -1       184 9.20677E-05-2.74218E-05-2.76692E-05-2.69381E-07-1.15412E-18 8.65631E-19
 -1       185 9.16550E-05-2.73887E-05-2.75233E-05 4.59385E-07-7.74844E-19 2.30246E-19
 -1       186 9.18411E-05-2.74877E-05-2.75699E-05 8.79029E-07-8.09037E-19-1.31089E-19
 -1       187 9.24013E-05-2.76752E-05-2.77337E-05 1.14685E-06-5.44193E-19-4.37936E-19
 -1       188 9.32190E-05-2.79252E-05-2.79787E-05 1.34971E-06-5.59419E-19-7.44292E-19
 -1       189 9.42419E-05-2.82263E-05-2.82887E-05 1.54243E-06-5.10980E-19-7.88582E-19
 -1       190 9.54580E-05-2.85776E-05-2.86593E-05 1.76264E-06-3.16512E-19-7.23130E-19
 -1       191 9.68826E-05-2.89862E-05-2.90945E-05 2.03628E-06-2.82342E-19-1.81551E-18
 -1       192 9.85474E-05-2.94643E-05-2.96030E-05 2.37825E-06-2.02672E-19-1.86965E-18
 -1       193 1.00490E-04-3.00278E-05-3.01943E-05 2.78880E-06-7.87062E-21-1.87638E-18
 -1       194 1.02741E-04-3.06933E-05-3.08747E-05 3.24505E-06-3.39026E-19-2.02907E-18
 -1       195 1.05303E-04-3.14750E-05-3.16400E-05 3.68622E-06-3.57989E-19-1.43710E-18
 -1       196 1.08124E-04-3.23779E-05-3.24659E-05 3.99226E-06 2.82493E-19-1.55080E-18
 -1       197 1.11057E-04-3.33861E-05-3.32964E-05 3.96033E-06-4.56265E-20-1.41640E-18
 -1       198 1.13816E-04-3.44413E-05-3.40321E-05 3.29650E-06-5.30319E-19-1.75902E-18
 -1       199 1.15936E-04-3.54055E-05-3.45302E-05 1.66432E-06-4.57176E-19-1.26931E-18
 -1       200 1.16780E-04-3.60131E-05-3.46294E-05-1.14245E-06 4.09785E-19-1.88295E-18
 -1       201 1.15675E-04-3.58521E-05-3.42170E-05-4.84999E-06 1.33672E-21-1.98686E-18
 -1       202 1.12261E-04-3.45055E-05-3.33216E-05-8.30964E-06-2.19832E-19-2.62441E-18
 -1       203 1.07079E-04-3.19773E-05-3.21835E-05-9.55580E-06 2.09792E-19-2.32244E-18
 -1       204 1.01977E-04-2.91922E-05-3.11989E-05-6.95255E-06-3.71146E-19-1.44266E-18
 -1       205 9.94508E-05-2.77171E-05-3.07547E-05-8.88767E-07-5.69994E-19-1.93387E-18
 -1       206 1.00999E-04-2.86221E-05-3.10258E-05 5.65032E-06-5.36589E-19-3.65731E-18
 -1       207 1.05689E-04-3.12338E-05-3.19083E-05 9.30974E-06-4.29737E-19-3.93359E-18
 -1       208 1.11100E-04-3.39642E-05-3.30545E-05 8.95749E-06 5.79903E-19-4.19507E-18
 -1       209 1.15100E-04-3.56513E-05-3.40541E-05 5.87529E-06 5.28671E-19-2.45103E-18
 -1       210 1.16834E-04-3.60973E-05-3.46152E-05 2.09982E-06-3.66597E-19-1.64369E-18
 -1       211 1.16490E-04-3.56603E-05-3.46586E-05-9.72970E-07 4.50443E-19-1.21399E-18
 -1       212 1.14710E-04-3.47772E-05-3.42717E-05-2.87232E-06-3.24720E-19-1.50738E-18
 -1       213 1.12164E-04-3.37557E-05-3.36132E-05-3.71817E-06-1.21426E-18-1.61716E-18
 -1       214 1.09372E-04-3.27642E-05-3.28361E-05-3.83617E-06 2.71838E-19-1.13430E-18
 -1       215 1.06671E-04-3.18789E-05-3.20533E-05-3.53932E-06 1.76855E-19-2.21005E-18
 -1       216 1.04243E-04-3.11259E-05-3.13329E-05-3.05427E-06 1.30175E-19-2.19576E-18
 -1       217 1.02167E-04-3.05058E-05-3.07076E-05-2.52077E-06 1.80211E-19-2.87609E-18
 -1       218 1.00454E-04-3.00076E-05-3.01868E-05-2.01415E-06 1.92879E-19-2.12077E-18
 -1       219 9.90801E-05-2.96154E-05-2.97661E-05-1.56874E-06-1.89800E-18-1.59142E-18
 -1       220 9.80027E-05-2.93123E-05-2.94347E-05-1.19522E-06-8.96127E-19-2.21961E-18
 -1       221 9.71754E-05-2.90824E-05-2.91793E-05-8.91829E-07-3.00643E-19-3.47290E-18
 -1       222 9.65528E-05-2.89111E-05-2.89865E-05-6.51011E-07 9.78097E-19-4.13411E-18
 -1       223 9.60944E-05-2.87862E-05-2.88441E-05-4.62987E-07 1.27070E-18-2.03508E-18
 -1       224 9.57654E-05-2.86974E-05-2.87417E-05-3.17625E-07 2.31903E-18-5.17911E-19
 -1       225 9.55374E-05-2.86362E-05-2.86706E-05-2.05343E-07 1.40226E-18 5.77418E-19
 -1       226 9.53875E-05-2.85963E-05-2.86239E-05-1.17652E-07-1.38475E-18 1.57264E-18
 -1       227 9.52975E-05-2.85731E-05-2.85955E-05-4.84826E-08 1.47126E-19 1.99476E-18
 -1       228 9.52505E-05-2.85641E-05-2.85793E-05 3.08587E-09 3.78042E-19 1.52780E-18
 -1       229 9.93277E-05-2.85050E-05-3.05332E-05 7.13239E-06 2.01321E-18 7.68753E-18
 -1       230 9.43248E-05-2.77611E-05-2.84974E-05 2.66258E-06 1.46964E-18 6.20826E-18
 -1       231 9.21051E-05-2.73974E-05-2.76864E-05 8.26455E-07 1.19317E-18 5.04426E-18
 -1       232 9.12915E-05-2.72710E-05-2.74098E-05-7.64225E-08 8.16512E-19 4.19084E-18
 -1       233 9.12673E-05-2.73152E-05-2.73938E-05-5.65899E-07 5.92619E-19 3.53348E-18
 -1       234 9.17116E-05-2.74735E-05-2.75230E-05-8.52643E-07 2.36765E-19 2.88171E-18
 -1       235 9.24536E-05-2.77071E-05-2.77439E-05-1.04046E-06 6.95034E-19 2.49259E-18
 -1       236 9.34066E-05-2.79952E-05-2.80303E-05-1.18788E-06 7.41593E-19 2.10752E-18
 -1       237 9.45340E-05-2.83298E-05-2.83709E-05-1.33103E-06 4.68773E-19 1.26507E-18
 -1       238 9.58291E-05-2.87113E-05-2.87630E-05-1.49191E-06 3.87490E-19 1.27607E-18
 -1       239 9.73019E-05-2.91450E-05-2.92089E-05-1.68075E-06 3.08032E-19 1.07757E-18
 -1       240 9.89665E-05-2.96383E-05-2.97116E-05-1.89485E-06 1.92233E-20 6.47382E-19
 -1       241 1.00827E-04-3.01969E-05-3.02707E-05-2.11466E-06 5.27144E-19 6.24133E-20
 -1       242 1.02862E-04-3.08203E-05-3.08766E-05-2.29742E-06 3.28128E-19-1.45398E-19
 -1       243 1.04998E-04-3.14954E-05-3.15040E-05-2.36955E-06 3.06396E-19 1.72057E-19
 -1       244 1.07089E-04-3.21879E-05-3.21043E-05-2.22137E-06-6.80711E-19 1.21114E-19
 -1       245 1.08890E-04-3.28312E-05-3.26001E-05-1.71255E-06 3.86932E-19 4.31365E-19
 -1       246 1.10051E-04-3.33154E-05-3.28874E-05-7.03845E-07-2.20639E-19-1.22310E-19
 -1       247 1.10149E-04-3.34833E-05-3.28525E-05 8.66247E-07-3.31871E-19 8.59172E-20
 -1       248 1.08799E-04-3.31513E-05-3.24107E-05 2.85507E-06-9.99297E-19 1.16421E-18
 -1       249 1.05859E-04-3.21805E-05-3.15655E-05 4.78593E-06-2.14233E-19 1.28424E-18
 -1       250 1.01697E-04-3.06152E-05-3.04602E-05 5.85413E-06 7.49176E-19 1.04320E-18
 -1       251 9.73440E-05-2.88248E-05-2.93766E-05 5.24627E-06 1.45882E-20 6.44579E-19
 -1       252 9.42734E-05-2.74749E-05-2.86515E-05 2.74060E-06-2.59324E-19 6.61207E-19
 -1       253 9.37228E-05-2.71935E-05-2.85348E-05-8.79484E-07-1.88114E-19 1.23796E-18
 -1       254 9.59414E-05-2.81310E-05-2.90692E-05-4.13567E-06 7.16017E-19 6.61665E-19
 -1       255 1.00015E-04-2.98344E-05-3.00685E-05-5.78742E-06 5.87529E-19 4.54718E-19
 -1       256 1.04458E-04-3.15926E-05-3.12113E-05-5.54226E-06-3.05109E-19 5.77240E-20
 -1       257 1.08003E-04-3.28718E-05-3.21854E-05-3.97597E-06 1.33715E-19 3.77658E-20
 -1       258 1.10028E-04-3.34902E-05-3.27967E-05-1.95676E-06 1.91909E-19-5.92191E-19
 -1       259 1.10518E-04-3.35294E-05-3.29970E-05-1.51373E-07-1.54838E-18-3.46245E-19
 -1       260 1.09803E-04-3.31744E-05-3.28464E-05 1.13092E-06-1.11298E-18-4.82628E-19
 -1       261 1.08317E-04-3.26060E-05-3.24539E-05 1.85923E-06 1.60253E-18-1.55641E-19
 -1       262 1.06454E-04-3.19595E-05-3.19310E-05 2.14254E-06 4.94625E-20-5.61876E-19
 -1       263 1.04504E-04-3.13215E-05-3.13669E-05 2.12539E-06 1.44091E-18-1.03401E-18
 -1       264 1.02656E-04-3.07402E-05-3.08223E-05 1.93486E-06-9.13138E-19-1.12422E-18
 -1       265 1.01013E-04-3.02377E-05-3.03320E-05 1.66389E-06-7.85867E-20-1.59455E-18
 -1       266 9.96170E-05-2.98198E-05-2.99120E-05 1.37252E-06 1.23344E-18-2.09701E-18
 -1       267 9.84721E-05-2.94826E-05-2.95654E-05 1.09541E-06-5.60376E-19-1.09934E-19
 -1       268 9.75602E-05-2.92175E-05-2.92881E-05 8.49868E-07-1.22086E-19 9.07824E-19
 -1       269 9.68528E-05-2.90142E-05-2.90721E-05 6.42182E-07-3.05951E-19 3.56927E-21
 -1       270 9.63177E-05-2.88619E-05-2.89082E-05 4.72209E-07-1.15903E-19-2.23108E-19
 -1       271 9.59237E-05-2.87508E-05-2.87871E-05 3.36273E-07 1.03114E-18-4.33360E-19
 -1       272 9.56430E-05-2.86722E-05-2.87008E-05 2.28960E-07 4.85145E-19-1.28041E-18
 -1       273 9.54522E-05-2.86192E-05-2.86420E-05 1.44278E-07 1.32712E-18-1.77049E-18
 -1       274 9.53320E-05-2.85860E-05-2.86050E-05 7.67724E-08 1.28265E-18-1.88094E-18
 -1       275 9.52664E-05-2.85685E-05-2.85843E-05 2.26384E-08-8.51460E-19-1.57325E-18
 -1       276 9.52410E-05-2.85684E-05-2.85729E-05-1.38703E-08-1.82735E-19-1.98967E-18
 -1       277 9.52456E-05-2.85581E-05-2.85799E-05 3.81397E-09 3.89507E-19 3.10761E-18
 -1       278 9.52359E-05-2.85164E-05-2.85939E-05 5.10495E-08 1.73885E-21 3.38005E-18
 -1       279 9.52103E-05-2.84460E-05-2.86132E-05 9.49933E-08 4.99784E-19 9.11401E-19
 -1       280 9.51766E-05-2.83568E-05-2.86371E-05 1.18969E-07 2.29085E-18 6.34210E-20
 -1       281 9.51420E-05-2.82649E-05-2.86618E-05 1.18366E-07 1.21362E-18-4.89831E-18
 -1       282 9.51113E-05-2.81831E-05-2.86838E-05 9.41270E-08 2.52889E-19-2.03983E-18
 -1       283 9.50906E-05-2.81277E-05-2.86988E-05 5.15063E-08-6.15836E-19-1.58611E-18
 -1       284 9.50834E-05-2.81084E-05-2.87040E-05-1.04671E-09-1.95495E-18-2.43699E-18
 -1       285 9.50910E-05-2.81287E-05-2.86985E-05-5.35428E-08-3.27015E-18-2.39828E-18
 -1       286 9.51121E-05-2.81852E-05-2.86832E-05-9.59392E-08-3.11325E-18-2.20613E-18
 -1       287 9.51425E-05-2.82663E-05-2.86614E-05-1.19422E-07-2.75022E-18 8.02471E-19
 -1       288 9.51781E-05-2.83604E-05-2.86362E-05-1.19249E-07-2.19611E-18 2.10062E-18
 -1       289 9.52118E-05-2.84497E-05-2.86123E-05-9.36635E-08-2.85784E-18 2.93602E-18
 -1       290 9.52360E-05-2.85173E-05-2.85934E-05-4.99665E-08-2.38932E-18 1.84429E-18
 -1       291 9.52522E-05-2.85442E-05-2.85888E-05-2.23960E-08-1.28948E-18 1.79309E-18
 -1       292 1.26533E-05-4.84404E-05 1.18524E-05 7.14794E-06 3.13058E-18 8.23094E-18
 -1       293 2.61164E-05-4.18726E-05 4.11630E-06 2.25588E-05 6.36842E-18 1.00655E-17
 -1       294 5.39308E-05-3.62902E-05-9.19166E-06 3.56088E-05 9.17570E-18 6.93921E-18
 -1       295 8.87183E-05-2.97042E-05-2.56599E-05 4.47082E-05 1.13521E-17 7.06595E-18
 -1       296 1.35179E-04-3.23115E-05-4.31056E-05 4.30774E-05 7.65337E-18 5.65162E-18
 -1       297 1.74536E-04-3.22028E-05-5.86522E-05 3.57910E-05 6.49353E-18 3.63356E-18
 -1       298 2.00279E-04-3.37565E-05-6.82227E-05 1.77564E-05 5.58544E-18 9.33430E-19
 -1       299 2.02790E-04-3.21677E-05-7.00914E-05-3.83561E-06 5.94712E-18-2.91080E-18
 -1       300 1.92557E-04-3.33055E-05-6.53623E-05-2.57045E-05 6.01457E-18-6.02897E-18
 -1       301 1.61017E-04-3.15058E-05-5.35696E-05-4.04159E-05 6.07513E-18-8.12580E-18
 -1       302 1.18671E-04-2.87378E-05-3.78304E-05-4.78202E-05 7.04393E-18-9.62335E-18
 -1       303 7.72268E-05-3.06641E-05-2.07246E-05-4.22830E-05 7.35182E-18-7.76793E-18
 -1       304 4.26414E-05-3.73362E-05-4.43676E-06-3.03044E-05 6.28414E-18-6.27847E-18
 -1       305 2.05403E-05-4.24383E-05 6.80522E-06-1.94943E-05 3.12650E-18-4.62364E-18
 -1       306 1.05438E-05-4.65493E-05 1.22574E-05-3.07311E-06 9.79144E-19-5.09744E-18
 -1       307 1.54757E-05-4.38170E-05 9.31148E-06 1.31979E-05-1.78946E-18-5.19221E-18
 -1       308 3.34425E-05-4.09736E-05 5.87489E-07 2.43373E-05-4.35714E-18-5.55713E-18
 -1       309 6.25905E-05-3.42194E-05-1.36392E-05 3.70696E-05-5.56395E-18-5.21095E-18
 -1       310 1.01236E-04-3.07803E-05-3.02498E-05 4.54438E-05-5.91716E-18-4.68409E-18
 -1       311 1.46704E-04-3.43352E-05-4.69209E-05 4.01267E-05-5.32524E-18-1.75590E-18
 -1       312 1.83937E-04-3.41589E-05-6.14096E-05 3.47477E-05-4.50346E-18-1.82451E-18
 -1       313 2.01346E-04-3.28602E-05-6.91175E-05 1.29721E-05-3.72176E-18 7.14049E-19
 -1       314 2.13084E-04-3.73331E-05-7.15460E-05-6.93917E-06-5.36384E-18 4.38869E-18
 -1       315 1.94084E-04-3.43291E-05-6.55282E-05-2.49046E-05-4.56794E-18 6.01372E-18
 -1       316 1.62578E-04-3.39807E-05-5.33810E-05-3.60516E-05-3.26963E-18 8.36805E-18
 -1       317 1.21238E-04-3.08908E-05-3.80816E-05-4.65446E-05-6.74979E-18 6.35444E-18
 -1       318 8.05532E-05-3.23025E-05-2.14892E-05-4.18579E-05-7.74442E-18 3.88513E-18
 -1       319 4.64500E-05-3.73247E-05-6.00652E-06-3.10542E-05-8.38584E-18 5.98344E-18
 -1       320 2.33077E-05-4.42467E-05 5.91675E-06-1.77862E-05-5.93622E-18 6.93604E-18
 -1       321 1.24594E-05-4.88783E-05 1.20947E-05-5.27568E-06-2.03029E-18 5.34298E-18
 -1       322 9.16697E-05-1.44348E-05-3.31782E-05-1.27850E-05-2.65668E-18-2.12522E-18
 -1       323 9.56823E-05-1.91084E-05-3.28793E-05-1.44684E-05-2.93774E-18-5.14321E-19
 -1       324 8.80476E-05-1.02847E-05-3.33817E-05-7.96067E-06-1.45555E-18-3.52240E-18
 -1       325 8.72074E-05-9.31729E-06-3.34294E-05-5.56074E-06-8.19898E-19-3.62697E-18
 -1       326 8.67218E-05-8.75124E-06-3.34602E-05-3.26485E-06-1.93173E-19-3.53174E-18
 -1       327 8.65010E-05-8.49167E-06-3.34753E-05-1.03773E-06 4.22432E-19-3.63479E-18
 -1       328 8.65094E-05-8.50151E-06-3.34747E-05 1.16675E-06 9.12994E-19-3.57104E-18
 -1       329 8.67486E-05-8.78273E-06-3.34584E-05 3.39631E-06 1.38106E-18-3.40504E-18
 -1       330 8.72454E-05-9.36259E-06-3.34265E-05 5.65758E-06 1.91145E-18-3.13398E-18
 -1       331 8.81096E-05-1.03598E-05-3.33763E-05 8.06081E-06 2.41258E-18-2.50233E-18
 -1       332 8.95357E-05-1.19883E-05-3.33009E-05 1.05560E-05 2.84113E-18-1.62784E-18
 -1       333 9.19374E-05-1.47109E-05-3.31778E-05 1.29697E-05 3.12692E-18-3.18842E-19
 -1       334 9.57722E-05-1.94509E-05-3.28163E-05 1.42090E-05 3.14273E-18 2.09882E-18
 -1       335 9.86950E-05-2.44217E-05-3.19188E-05 1.17677E-05 2.67784E-18 4.31968E-18
 -1       336 9.63560E-05-2.67923E-05-2.97831E-05 5.59525E-06 2.19109E-18 3.37674E-18
 -1       337 9.64491E-05-2.60093E-05-3.01436E-05-6.15120E-06-2.37287E-18-1.08017E-19
 -1       338 9.50113E-05-2.70095E-05-2.91177E-05-2.57776E-06-1.84391E-18-3.21622E-19
 -1       339 9.41491E-05-2.74154E-05-2.85848E-05-5.66318E-07-1.28548E-18-5.55975E-19
 -1       340 9.37865E-05-2.76439E-05-2.83392E-05 6.38006E-07-9.07379E-19-7.85949E-19
 -1       341 9.38070E-05-2.78227E-05-2.82748E-05 1.40162E-06-7.24435E-19-8.14922E-19
 -1       342 9.41099E-05-2.79916E-05-2.83336E-05 1.93432E-06-6.87772E-19-7.38464E-19
 -1       343 9.46283E-05-2.81644E-05-2.84821E-05 2.36629E-06-4.25633E-19-5.85624E-19
 -1       344 9.53260E-05-2.83490E-05-2.87019E-05 2.78391E-06-6.17119E-19-7.98259E-19
 -1       345 9.61903E-05-2.85547E-05-2.89838E-05 3.24626E-06-6.64281E-19-1.00905E-18
 -1       346 9.72252E-05-2.87948E-05-2.93239E-05 3.79103E-06-5.28645E-19-1.10532E-18
 -1       347 9.84469E-05-2.90897E-05-2.97207E-05 4.43371E-06-1.59341E-19-1.47140E-18
 -1       348 9.98787E-05-2.94703E-05-3.01713E-05 5.16027E-06 1.20295E-20-1.32072E-18
 -1       349 1.01548E-04-2.99833E-05-3.06677E-05 5.91245E-06-9.36269E-20-6.98741E-19
 -1       350 1.03483E-04-3.06971E-05-3.11932E-05 6.56488E-06-2.51287E-19-4.68696E-19
 -1       351 1.05707E-04-3.17033E-05-3.17193E-05 6.89565E-06-2.92928E-20-1.26102E-18
 -1       352 1.08226E-04-3.31004E-05-3.22068E-05 6.56063E-06-6.47534E-20-1.57505E-18
 -1       353 1.10988E-04-3.49292E-05-3.26146E-05 5.10194E-06 5.63293E-20-9.23670E-19
 -1       354 1.13787E-04-3.70231E-05-3.29229E-05 2.05664E-06-5.77394E-19-4.97511E-19
 -1       355 1.16099E-04-3.87655E-05-3.31677E-05-2.73632E-06-3.03675E-20-6.15588E-19
 -1       356 1.16965E-04-3.89345E-05-3.34660E-05-8.53281E-06 1.96450E-19-1.16089E-19
 -1       357 1.15369E-04-3.62214E-05-3.39417E-05-1.30761E-05 4.05959E-19 4.20527E-19
 -1       358 1.11448E-04-3.08078E-05-3.45893E-05-1.29481E-05-4.77693E-19-3.81896E-19
 -1       359 1.07520E-04-2.55891E-05-3.51444E-05-6.44320E-06-3.73528E-19-1.55444E-18
 -1       360 1.07040E-04-2.49442E-05-3.52152E-05 3.93156E-06-1.20534E-18-2.30500E-18
 -1       361 1.10315E-04-2.92595E-05-3.47698E-05 1.19295E-05-7.58968E-19-3.08687E-18
 -1       362 1.14567E-04-3.50196E-05-3.41115E-05 1.36700E-05 8.90622E-19-1.84295E-18
 -1       363 1.16876E-04-3.85490E-05-3.35910E-05 1.00146E-05 1.27055E-18-2.40490E-18
 -1       364 1.16597E-04-3.90257E-05-3.32707E-05 4.29199E-06 7.23015E-19-2.61028E-18
 -1       365 1.14592E-04-3.75612E-05-3.30389E-05-8.51227E-07 4.16555E-19-1.42994E-18
 -1       366 1.11900E-04-3.54823E-05-3.27701E-05-4.31399E-06-8.84496E-20-1.54987E-18
 -1       367 1.09162E-04-3.35652E-05-3.24103E-05-6.08634E-06-3.38907E-19-7.81297E-19
 -1       368 1.06653E-04-3.20710E-05-3.19685E-05-6.59422E-06-2.04174E-19 2.94641E-19
 -1       369 1.04457E-04-3.09943E-05-3.14835E-05-6.31357E-06-1.69577E-19 1.38947E-18
 -1       370 1.02577E-04-3.02433E-05-3.09971E-05-5.62100E-06-3.81318E-19 7.99450E-19
 -1       371 1.00996E-04-2.97231E-05-3.05412E-05-4.76916E-06 1.29875E-19-5.90922E-21
 -1       372 9.96863E-05-2.93606E-05-3.01350E-05-3.90840E-06-9.87207E-20 7.53882E-19
 -1       373 9.86179E-05-2.91056E-05-2.97867E-05-3.11783E-06-6.49750E-19-5.10890E-19
 -1       374 9.77603E-05-2.89247E-05-2.94972E-05-2.43174E-06-1.11900E-18 1.10489E-18
 -1       375 9.70831E-05-2.87963E-05-2.92627E-05-1.85832E-06-1.03023E-18 8.57457E-19
 -1       376 9.65572E-05-2.87054E-05-2.90768E-05-1.39189E-06-1.81854E-19 1.84913E-18
 -1       377 9.61558E-05-2.86417E-05-2.89326E-05-1.02010E-06 1.96221E-18 2.08183E-18
 -1       378 9.58551E-05-2.85976E-05-2.88231E-05-7.28143E-07 2.40200E-18 3.10722E-18
 -1       379 9.56344E-05-2.85675E-05-2.87417E-05-5.01082E-07 1.96916E-18 1.02424E-18
 -1       380 9.54759E-05-2.85472E-05-2.86828E-05-3.25367E-07 1.29839E-18 2.76443E-18
 -1       381 9.53651E-05-2.85345E-05-2.86409E-05-1.89366E-07-1.53620E-19 5.78978E-18
 -1       382 9.52969E-05-2.85345E-05-2.86121E-05-9.21718E-08-1.06401E-18 5.15636E-18
 -1       383 9.44225E-05-2.73332E-05-2.87139E-05 2.28117E-06 1.74480E-18 2.66723E-18
 -1       384 9.33346E-05-2.74736E-05-2.82036E-05 4.85446E-07 1.29951E-18 2.04367E-18
 -1       385 9.29433E-05-2.75829E-05-2.80007E-05-5.40133E-07 9.52738E-19 1.69386E-18
 -1       386 9.30237E-05-2.77218E-05-2.79811E-05-1.16000E-06 6.30095E-19 1.11206E-18
 -1       387 9.34266E-05-2.78973E-05-2.80807E-05-1.56886E-06 5.27285E-19 7.38604E-19
 -1       388 9.40619E-05-2.81063E-05-2.82642E-05-1.87845E-06 9.76530E-19 9.62066E-19
 -1       389 9.48814E-05-2.83476E-05-2.85123E-05-2.15759E-06 8.28022E-19 7.66586E-19
 -1       390 9.58652E-05-2.86249E-05-2.88150E-05-2.44827E-06 3.97940E-19 6.25641E-19
 -1       391 9.70105E-05-2.89464E-05-2.91680E-05-2.77113E-06 3.62188E-19 4.82922E-19
 -1       392 9.83226E-05-2.93247E-05-2.95684E-05-3.12507E-06 3.79573E-19 1.87928E-19
 -1       393 9.98058E-05-2.97758E-05-3.00114E-05-3.48230E-06 1.07315E-18-6.31892E-19
 -1       394 1.01452E-04-3.03173E-05-3.04863E-05-3.78009E-06 5.47754E-19-4.35390E-19
 -1       395 1.03230E-04-3.09656E-05-3.09728E-05-3.91072E-06-5.53275E-20-1.37086E-19
 -1       396 1.05067E-04-3.17268E-05-3.14372E-05-3.71476E-06-3.32544E-19 1.08943E-19
 -1       397 1.06831E-04-3.25796E-05-3.18317E-05-2.98874E-06 3.16065E-19-5.56130E-19
 -1       398 1.08311E-04-3.34434E-05-3.20992E-05-1.52725E-06 2.62456E-19-2.24619E-19
 -1       399 1.09202E-04-3.41353E-05-3.21865E-05 7.74259E-07-6.88861E-19-3.82407E-19
 -1       400 1.09135E-04-3.43434E-05-3.20669E-05 3.74417E-06-1.29984E-18-2.85549E-19
 -1       401 1.07785E-04-3.36843E-05-3.17644E-05 6.73735E-06-4.92262E-19 4.07261E-19
 -1       402 1.05128E-04-3.19406E-05-3.13649E-05 8.59008E-06 7.20733E-19 3.91892E-19
 -1       403 1.01773E-04-2.94454E-05-3.09905E-05 8.01928E-06-6.52993E-20 7.98204E-19
 -1       404 9.90131E-05-2.72445E-05-3.07467E-05 4.51984E-06-3.19719E-19 3.71738E-19
 -1       405 9.82125E-05-2.65579E-05-3.06928E-05-8.70690E-07-6.72167E-20 5.39965E-19
 -1       406 9.98259E-05-2.78226E-05-3.08402E-05-5.89883E-06 8.01518E-19-2.52508E-19
 -1       407 1.03001E-04-3.02697E-05-3.11563E-05-8.55274E-06 8.41233E-19 7.31671E-19
 -1       408 1.06282E-04-3.26282E-05-3.15624E-05-8.28849E-06 3.96501E-20 4.78421E-19
 -1       409 1.08566E-04-3.40496E-05-3.19443E-05-5.95538E-06 5.66678E-19 1.01760E-18
 -1       410 1.09486E-04-3.44050E-05-3.21937E-05-2.88513E-06-2.85050E-19 1.29703E-18
 -1       411 1.09217E-04-3.40061E-05-3.22507E-05-1.06217E-07-8.07328E-20-4.64822E-20
 -1       412 1.08136E-04-3.32372E-05-3.21137E-05 1.89547E-06-4.97694E-19-2.67352E-18
 -1       413 1.06608E-04-3.23759E-05-3.18229E-05 3.05616E-06-2.97634E-19-2.85239E-18
 -1       414 1.04909E-04-3.15709E-05-3.14353E-05 3.52799E-06 4.34694E-19 4.58036E-19
 -1       415 1.03226E-04-3.08806E-05-3.10062E-05 3.52365E-06 2.03283E-18 1.32808E-18
 -1       416 1.01669E-04-3.03154E-05-3.05787E-05 3.23576E-06-4.83998E-19 1.18143E-18
 -1       417 1.00296E-04-2.98653E-05-3.01818E-05 2.80916E-06-2.95148E-19-1.45806E-18
 -1       418 9.91272E-05-2.95133E-05-2.98313E-05 2.34033E-06 4.18024E-19-1.08324E-18
 -1       419 9.81620E-05-2.92424E-05-2.95338E-05 1.88707E-06-1.48425E-18-7.45338E-19
 -1       420 9.73846E-05-2.90368E-05-2.92890E-05 1.47980E-06-8.43518E-19 8.47461E-19
 -1       421 9.67729E-05-2.88832E-05-2.90931E-05 1.13101E-06 2.33517E-19 1.38886E-18
 -1       422 9.63022E-05-2.87703E-05-2.89401E-05 8.42326E-07 3.01612E-19 4.74479E-19
 -1       423 9.59484E-05-2.86889E-05-2.88237E-05 6.09196E-07 1.14113E-18 5.16457E-19
 -1       424 9.56890E-05-2.86315E-05-2.87376E-05 4.23924E-07 1.45809E-18-1.99986E-19
 -1       425 9.55048E-05-2.85920E-05-2.86759E-05 2.77673E-07 1.20878E-18 8.93573E-20
 -1       426 9.53792E-05-2.85663E-05-2.86334E-05 1.62521E-07-4.20586E-19 1.35213E-18
 -1       427 9.52988E-05-2.85528E-05-2.86049E-05 7.34003E-08-7.83311E-19 5.09600E-18
 -1       428 9.52664E-05-2.85501E-05-2.85924E-05 3.38216E-08-1.24764E-19 4.34475E-18
 -1       429 9.51931E-05-2.83403E-05-2.86510E-05 2.12701E-07-1.80713E-18 2.60511E-18
 -1       430 9.52449E-05-2.84386E-05-2.86309E-05 1.62772E-07-7.57467E-19 1.71564E-18
 -1       431 9.52658E-05-2.85053E-05-2.86113E-05 9.61636E-08 1.20167E-19 2.37077E-18
 -1       432 9.51354E-05-2.82384E-05-2.86702E-05 2.25464E-07-1.08467E-18-4.18204E-18
 -1       433 9.50807E-05-2.81439E-05-2.86874E-05 1.97731E-07 6.44734E-19-1.83573E-18
 -1       434 9.50388E-05-2.80720E-05-2.87004E-05 1.34271E-07 7.62034E-19-3.95897E-18
 -1       435 9.50162E-05-2.80332E-05-2.87074E-05 4.67405E-08-1.74345E-18-3.15050E-18
 -1       436 9.50162E-05-2.80331E-05-2.87075E-05-4.92835E-08-1.27098E-18-3.19840E-18
 -1       437 9.50390E-05-2.80718E-05-2.87005E-05-1.36797E-07-1.69823E-18-2.09177E-18
 -1       438 9.50804E-05-2.81425E-05-2.86879E-05-1.99212E-07-9.88985E-19-5.94582E-19
 -1       439 9.51356E-05-2.82374E-05-2.86707E-05-2.26883E-07 5.79646E-20 3.69870E-18
 -1       440 9.51947E-05-2.83416E-05-2.86512E-05-2.12767E-07 4.07006E-19 6.09110E-19
 -1       441 9.52477E-05-2.84421E-05-2.86307E-05-1.60174E-07-1.85576E-18 8.48011E-19
 -1       442 5.94192E-05-4.04972E-05-8.08066E-06 4.35830E-05-1.71662E-18 4.87499E-18
 -1       443 1.14670E-05-2.29298E-05 4.62345E-06 1.47416E-06 6.27823E-19 9.04017E-18
 -1       444 2.43187E-05-2.62451E-05 7.67546E-07 2.72782E-05 2.28646E-19 9.64220E-18
 -1       445 9.86861E-05-5.21199E-05-1.99806E-05 4.10339E-05 1.92996E-18 3.26531E-19
 -1       446 1.27977E-04-5.29466E-05-3.22333E-05 2.90816E-05 3.86914E-18-9.41901E-19
 -1       447 8.94193E-05-1.18528E-05-3.33086E-05-1.04406E-05-2.08948E-18-3.00345E-18
 -1       448 1.56960E-04-2.39344E-05-5.69001E-05-3.18380E-07 5.19845E-18-1.76352E-18
 -1       449 1.54650E-04-1.21968E-05-6.10194E-05-1.31428E-06 6.67345E-18-1.38199E-18
 -1       450 1.60301E-04-1.70205E-05-6.11343E-05 4.53192E-07 6.22897E-18-1.37352E-18
 -1       451 1.55729E-04-3.02828E-05-5.36642E-05-2.23451E-06 3.96830E-18-9.81499E-19
 -1       452 1.45241E-04-4.72793E-05-4.19737E-05-1.51005E-05 1.95331E-18-6.22252E-19
 -1       453 1.21295E-04-5.29845E-05-2.92962E-05-3.33254E-05 1.18892E-18-3.43715E-18
 -1       454 8.35131E-05-4.83135E-05-1.53042E-05-4.31751E-05 1.54594E-18-3.59716E-18
 -1       455 5.06795E-05-3.71708E-05-5.70522E-06-4.17092E-05-3.11602E-19-4.90300E-18
 -1       456 1.82295E-05-2.27870E-05 1.96332E-06-1.93528E-05-8.22681E-20-5.51937E-18
 -1       457 1.39342E-05-2.07684E-05 2.90492E-06 8.76075E-06 1.46921E-19-5.52160E-18
 -1       458 3.52814E-05-3.34578E-05-1.08358E-06 3.40029E-05 5.16267E-19-4.66863E-18
 -1       459 6.90242E-05-4.54114E-05-1.04108E-05 4.26022E-05-2.29758E-19-2.83405E-18
 -1       460 1.08204E-04-5.39884E-05-2.33340E-05 3.77816E-05-1.01898E-18-1.35774E-18
 -1       461 1.37606E-04-5.30433E-05-3.62875E-05 2.32101E-05-2.56270E-18 9.55877E-19
 -1       462 1.55541E-04-3.91227E-05-4.97580E-05 3.17591E-06-3.60640E-18 2.13833E-18
 -1       463 1.58159E-04-2.38865E-05-5.74500E-05-2.78217E-06-3.86342E-18 2.16459E-18
 -1       464 1.61675E-04-1.42407E-05-6.28793E-05-4.41437E-07-5.56755E-18 2.47347E-18
 -1       465 1.64131E-04-1.88207E-05-6.18478E-05 8.44788E-07-5.66326E-18 2.17185E-18
 -1       466 1.57791E-04-3.19495E-05-5.38378E-05 1.49741E-07-2.94355E-18 1.99995E-18
 -1       467 1.46995E-04-4.99405E-05-4.16581E-05-1.31977E-05-1.92970E-18 3.34250E-18
 -1       468 1.27844E-04-5.51642E-05-3.11102E-05-2.93033E-05-2.44263E-18 2.60018E-18
 -1       469 9.10276E-05-5.16621E-05-1.69593E-05-4.19658E-05-2.22410E-18-1.10519E-18
 -1       470 5.10609E-05-3.91455E-05-5.33857E-06-4.00632E-05-8.94890E-19 3.29967E-18
 -1       471 2.14797E-05-2.83527E-05 2.54663E-06-2.34718E-05-1.33900E-18 7.26670E-18
 -1       472 1.51407E-04-4.06996E-05-4.73000E-05 1.00670E-05 4.10350E-18-2.22685E-18
 -1       473 9.58738E-05-2.51142E-05-3.03112E-05 5.76102E-06 2.33291E-18 8.65430E-19
 -1       474 8.94720E-05-1.31363E-05-3.27342E-05-3.74970E-06-4.37774E-19-3.09419E-18
 -1       475 9.02244E-05-1.41591E-05-3.26204E-05-5.64995E-06-1.03837E-18-3.08229E-18
 -1       476 8.89268E-05-1.24001E-05-3.28146E-05 5.29411E-08 6.46095E-19-3.22696E-18
 -1       477 8.90748E-05-1.25991E-05-3.27930E-05 1.95029E-06 1.14008E-18-3.22424E-18
 -1       478 8.95033E-05-1.31782E-05-3.27297E-05 3.82246E-06 1.59428E-18-2.93293E-18
 -1       479 9.02739E-05-1.42269E-05-3.26124E-05 5.71629E-06 2.21177E-18-2.47219E-18
 -1       480 9.14658E-05-1.58758E-05-3.24187E-05 7.51360E-06 2.48015E-18-1.84256E-18
 -1       481 9.32773E-05-1.84105E-05-3.21058E-05 9.03049E-06 2.70798E-18-8.77013E-19
 -1       482 9.52357E-05-2.65290E-05-2.94275E-05 2.52898E-06 1.86030E-18 6.03794E-19
 -1       483 9.55369E-05-2.43656E-05-3.04916E-05-5.50759E-06-2.03876E-18-1.32093E-18
 -1       484 1.40077E-04-5.40262E-05-3.71123E-05 5.06501E-06 1.96212E-18-4.72973E-18
 -1       485 9.53921E-05-2.61223E-05-2.96785E-05-2.47699E-06-1.52739E-18-1.09813E-18
 -1       486 9.51242E-05-2.70336E-05-2.91780E-05-4.50194E-07-1.10020E-18-9.75996E-19
 -1       487 9.49564E-05-2.75251E-05-2.88971E-05 8.97858E-07-9.27907E-19-8.58268E-19
 -1       488 9.49438E-05-2.78071E-05-2.87716E-05 1.83210E-06-5.36648E-19-8.35839E-19
 -1       489 9.50764E-05-2.79697E-05-2.87590E-05 2.53874E-06-5.68083E-19-9.66884E-19
 -1       490 9.53336E-05-2.80592E-05-2.88309E-05 3.14829E-06-5.73079E-19-1.11083E-18
 -1       491 9.56999E-05-2.81046E-05-2.89683E-05 3.75343E-06-8.11337E-19-1.18916E-18
 -1       492 9.61686E-05-2.81304E-05-2.91579E-05 4.41822E-06-5.28709E-19-8.06867E-19
 -1       493 9.67437E-05-2.81660E-05-2.93888E-05 5.18142E-06-1.60219E-19-4.61359E-19
 -1       494 9.74424E-05-2.82541E-05-2.96503E-05 6.05410E-06-1.02485E-19-4.66486E-19
 -1       495 9.83015E-05-2.84630E-05-2.99291E-05 7.01146E-06 1.89070E-19-3.88149E-19
 -1       496 9.93894E-05-2.89015E-05-3.02080E-05 7.97775E-06-2.36628E-19-6.09411E-19
 -1       497 1.00824E-04-2.97349E-05-3.04670E-05 8.80312E-06-4.62344E-19-3.21110E-19
 -1       498 1.02791E-04-3.11893E-05-3.06891E-05 9.23181E-06-2.87709E-19-6.67813E-19
 -1       499 1.05542E-04-3.35119E-05-3.08767E-05 8.86434E-06 5.85424E-19-3.51734E-19
 -1       500 1.09311E-04-3.68134E-05-3.10803E-05 7.13839E-06-9.48181E-20 1.39494E-21
 -1       501 1.14062E-04-4.07227E-05-3.14440E-05 3.40340E-06 3.44390E-19 1.27168E-18
 -1       502 1.19049E-04-4.38446E-05-3.22442E-05-2.71607E-06 6.92301E-19 1.86495E-18
 -1       503 1.22212E-04-4.33386E-05-3.38530E-05-1.03096E-05 6.28773E-19 1.94004E-18
 -1       504 1.21193E-04-3.68711E-05-3.61720E-05-1.58176E-05-9.02837E-19 1.72999E-18
 -1       505 1.15070E-04-2.52934E-05-3.87733E-05-1.39050E-05-2.16852E-18 7.39433E-20
 -1       506 1.12758E-04-1.92384E-05-4.03293E-05-1.88533E-06-2.35510E-18-2.15288E-18
 -1       507 1.14661E-04-2.28644E-05-3.95854E-05 1.11630E-05-1.65910E-18-3.63462E-18
 -1       508 1.20177E-04-3.40567E-05-3.70194E-05 1.61220E-05 9.83511E-19-3.39717E-18
 -1       509 1.22380E-04-4.21953E-05-3.44249E-05 1.21962E-05 6.55792E-19-2.97740E-18
 -1       510 1.20179E-04-4.41525E-05-3.26046E-05 4.74262E-06 9.15165E-19-2.45584E-18
 -1       511 1.15462E-04-4.16741E-05-3.16385E-05-1.90210E-06 8.11915E-19-1.82218E-18
 -1       512 1.10553E-04-3.77724E-05-3.12026E-05-6.20164E-06 5.33183E-19-1.05513E-18
 -1       513 1.06533E-04-3.42343E-05-3.09922E-05-8.31952E-06-1.09101E-19-1.04778E-18
 -1       514 1.03578E-04-3.16529E-05-3.08283E-05-8.89668E-06 3.42958E-19-1.02523E-18
 -1       515 1.01485E-04-2.99938E-05-3.06397E-05-8.53430E-06 6.01026E-19-3.05474E-19
 -1       516 9.99945E-05-2.90234E-05-3.04151E-05-7.67215E-06-1.46172E-19 3.68029E-19
 -1       517 9.89020E-05-2.85053E-05-3.01681E-05-6.60069E-06-4.84945E-19 9.62501E-19
 -1       518 9.80728E-05-2.82603E-05-2.99176E-05-5.49756E-06-1.31002E-19 4.71245E-19
 -1       519 9.74257E-05-2.81694E-05-2.96793E-05-4.46247E-06-1.51277E-18-2.95137E-20
 -1       520 9.69125E-05-2.81602E-05-2.94635E-05-3.54429E-06-2.74975E-19-9.21925E-20
 -1       521 9.65036E-05-2.81905E-05-2.92755E-05-2.76043E-06 2.33266E-20 1.61409E-18
 -1       522 9.61789E-05-2.82368E-05-2.91168E-05-2.10990E-06 1.06922E-19 3.49467E-18
 -1       523 9.59233E-05-2.82865E-05-2.89863E-05-1.58181E-06 5.38750E-19 4.99669E-18
 -1       524 9.57244E-05-2.83329E-05-2.88813E-05-1.16064E-06 1.76815E-18 3.25346E-18
 -1       525 9.55712E-05-2.83728E-05-2.87987E-05-8.29465E-07 6.20879E-19 2.71555E-18
 -1       526 9.54543E-05-2.84052E-05-2.87348E-05-5.71930E-07 2.34655E-18 1.33824E-18
 -1       527 9.53656E-05-2.84307E-05-2.86860E-05-3.73583E-07 2.53805E-18 8.74130E-19
 -1       528 9.44985E-05-2.76190E-05-2.86584E-05-7.80852E-07 1.10231E-18 1.06067E-19
 -1       529 9.45024E-05-2.78633E-05-2.85574E-05-1.63430E-06 7.40784E-19-1.21957E-19
 -1       530 9.47107E-05-2.80413E-05-2.85711E-05-2.24600E-06 7.45638E-19-1.78336E-19
 -1       531 9.50849E-05-2.81887E-05-2.86685E-05-2.74136E-06 1.05791E-18 1.52559E-19
 -1       532 9.56007E-05-2.83287E-05-2.88296E-05-3.20189E-06 7.07540E-19 2.44648E-19
 -1       533 9.62480E-05-2.84830E-05-2.90408E-05-3.67653E-06 5.14966E-19 2.25134E-19
 -1       534 9.70291E-05-2.86778E-05-2.92920E-05-4.18510E-06 1.01084E-18-6.16163E-20
 -1       535 9.79566E-05-2.89480E-05-2.95739E-05-4.71603E-06 9.54189E-19-8.81905E-19
 -1       536 9.90519E-05-2.93413E-05-2.98753E-05-5.21956E-06 7.65975E-19-8.73734E-19
 -1       537 1.00344E-04-2.99200E-05-3.01822E-05-5.59747E-06 1.49553E-19-2.24721E-19
 -1       538 1.01866E-04-3.07570E-05-3.04777E-05-5.69180E-06-4.63756E-19-1.30649E-19
 -1       539 1.03644E-04-3.19171E-05-3.07450E-05-5.27936E-06 1.33477E-19-5.74552E-19
 -1       540 1.05664E-04-3.34090E-05-3.09742E-05-4.08614E-06-5.51130E-20 6.24415E-19
 -1       541 1.07808E-04-3.50917E-05-3.11746E-05-1.84997E-06-2.85891E-19 1.39714E-18
 -1       542 1.09758E-04-3.65496E-05-3.13865E-05 1.52553E-06-1.04755E-18 1.03397E-18
 -1       543 1.10929E-04-3.70250E-05-3.16825E-05 5.70111E-06-8.97220E-19 1.02963E-18
 -1       544 1.10578E-04-3.55983E-05-3.21367E-05 9.58103E-06-3.23626E-19 7.45708E-19
 -1       545 1.08362E-04-3.19246E-05-3.27601E-05 1.12700E-05 2.40260E-19 1.51009E-18
 -1       546 1.05113E-04-2.71853E-05-3.34075E-05 8.93208E-06 2.79617E-19 1.55688E-18
 -1       547 1.02889E-04-2.40681E-05-3.37903E-05 2.59110E-06 7.33679E-19 4.29787E-19
 -1       548 1.03389E-04-2.47511E-05-3.37097E-05-5.05573E-06 7.78354E-19-8.24568E-19
 -1       549 1.06209E-04-2.87196E-05-3.32115E-05-1.02559E-05 1.12011E-18-1.71089E-18
 -1       550 1.09312E-04-3.33442E-05-3.25565E-05-1.11482E-05 7.77537E-19-2.49835E-18
 -1       551 1.10957E-04-3.63212E-05-3.19930E-05-8.52758E-06-2.12572E-19-2.72936E-18
 -1       552 1.10759E-04-3.70339E-05-3.16082E-05-4.40370E-06-2.60677E-19-2.68739E-18
 -1       553 1.09281E-04-3.61313E-05-3.13632E-05-4.55168E-07 8.02184E-19-2.20299E-18
 -1       554 1.07254E-04-3.45288E-05-3.11789E-05 2.49700E-06 1.06017E-19-2.11265E-18
 -1       555 1.05179E-04-3.28800E-05-3.09928E-05 4.29400E-06-7.43834E-19-1.41967E-18
 -1       556 1.03300E-04-3.14970E-05-3.07767E-05 5.11221E-06-1.10976E-18-4.54402E-19
 -1       557 1.01691E-04-3.04583E-05-3.05293E-05 5.22885E-06-1.24242E-19 4.75868E-19
 -1       558 1.00347E-04-2.97301E-05-3.02638E-05 4.90537E-06 1.13437E-18 2.18316E-18
 -1       559 9.92398E-05-2.92431E-05-2.99969E-05 4.34588E-06 8.88218E-19 1.56971E-18
 -1       560 9.83350E-05-2.89287E-05-2.97435E-05 3.69274E-06 2.19569E-19 1.52373E-18
 -1       561 9.76019E-05-2.87322E-05-2.95134E-05 3.03646E-06-8.16473E-20 2.35085E-18
 -1       562 9.70139E-05-2.86138E-05-2.93124E-05 2.42897E-06-1.65992E-18 9.90468E-19
 -1       563 9.65480E-05-2.85456E-05-2.91421E-05 1.89561E-06-3.30859E-19 8.25492E-19
 -1       564 9.61837E-05-2.85091E-05-2.90019E-05 1.44460E-06 1.59001E-19-7.48532E-19
 -1       565 9.59031E-05-2.84919E-05-2.88893E-05 1.07381E-06 9.43726E-19-7.33326E-20
 -1       566 9.56901E-05-2.84856E-05-2.88010E-05 7.75415E-07 1.31039E-18 5.74640E-19
 -1       567 9.55309E-05-2.84848E-05-2.87333E-05 5.38941E-07 1.77519E-20 1.42519E-18
 -1       568 9.54136E-05-2.84864E-05-2.86824E-05 3.53859E-07-8.84584E-19 3.65794E-18
 -1       569 9.53284E-05-2.84912E-05-2.86439E-05 2.09904E-07-1.89398E-18 3.48310E-18
 -1       570 9.50542E-05-2.80899E-05-2.86991E-05 3.21964E-07-1.04888E-18-8.64031E-19
 -1       571 9.49730E-05-2.79855E-05-2.87091E-05 2.49049E-07 2.55742E-19-2.64832E-18
 -1       572 9.52419E-05-2.83464E-05-2.86695E-05 3.08634E-07-1.31169E-18 4.76441E-19
 -1       573 9.51492E-05-2.82153E-05-2.86860E-05 3.42778E-07-3.28542E-18 1.06113E-18
 -1       574 9.49188E-05-2.79165E-05-2.87155E-05 1.35366E-07 8.31710E-19-4.03945E-18
 -1       575 9.48996E-05-2.78919E-05-2.87178E-05-6.93556E-10-6.94252E-20-2.80420E-18
 -1       576 9.49183E-05-2.79149E-05-2.87160E-05-1.36994E-07-4.88157E-19-2.73923E-18
 -1       577 9.49713E-05-2.79812E-05-2.87102E-05-2.49565E-07 5.36445E-19-2.45601E-18
 -1       578 9.50528E-05-2.80851E-05-2.87005E-05-3.23386E-07 6.87634E-19 1.03858E-18
 -1       579 9.51487E-05-2.82119E-05-2.86873E-05-3.43881E-07 1.18621E-18 1.85127E-18
 -1       580 9.52425E-05-2.83442E-05-2.86705E-05-3.08561E-07-1.33430E-19-1.77270E-18
 -1       581 2.56957E-05-1.44157E-05-4.23424E-06 1.38390E-05 1.35988E-19 8.84154E-18
 -1       582 9.29883E-05-5.03813E-05-1.79356E-05 4.08909E-05-3.68909E-18-1.04450E-18
 -1       583 9.47418E-05-2.72339E-05-2.89228E-05 5.06059E-07 1.45034E-18 2.79350E-19
 -1       584 2.47568E-05-1.54633E-05-3.40031E-06-1.36328E-05 2.63877E-19 7.86163E-18
 -1       585 1.22610E-04-5.95896E-05-2.69750E-05 2.75339E-05-3.47336E-19-2.77017E-18
 -1       586 9.46398E-05-2.07272E-05-3.16953E-05-9.17800E-06-2.46820E-18-1.73446E-18
 -1       587 4.66956E-05-2.73493E-05-7.78300E-06-3.47638E-05 1.02491E-18 3.86882E-18
 -1       588 1.42539E-04-4.36435E-05-4.28119E-05 9.63493E-06-4.03055E-19-6.82285E-19
 -1       589 1.44909E-04-5.27115E-05-3.98354E-05 2.28407E-07-2.13488E-18 2.06057E-18
 -1       590 8.90548E-05-1.25727E-05-3.27958E-05-1.84469E-06 1.40100E-19-3.19302E-18
 -1       591 1.31853E-04-8.05006E-06-5.36641E-05 3.17180E-06 5.56289E-18 1.35830E-19
 -1       592 1.37796E-04-1.11939E-05-5.48720E-05 4.24656E-06-4.88484E-18 9.72434E-19
 -1       593 1.34551E-04-1.43162E-05-5.21408E-05-9.17168E-06 4.95784E-18-2.18288E-18
 -1       594 1.38742E-04-1.98141E-05-5.15058E-05 9.87274E-06 3.85278E-18 2.00832E-18
 -1       595 1.42095E-04-4.13633E-05-4.35505E-05 6.21844E-06 5.24869E-19 1.72361E-18
 -1       596 1.35667E-04-5.87247E-05-3.31283E-05-1.23972E-05-1.14406E-18 1.45393E-18
 -1       597 1.12726E-04-5.76343E-05-2.35186E-05-3.43530E-05-1.23508E-18-6.47583E-19
 -1       598 8.25577E-05-4.61036E-05-1.53000E-05-4.22620E-05-1.44509E-18-1.88280E-18
 -1       599 4.28303E-05-2.35012E-05-7.69564E-06-3.25241E-05-1.71342E-18-4.07963E-18
 -1       600 2.42363E-05-1.28840E-05-4.24053E-06-5.46395E-06-2.01031E-19-5.32625E-18
 -1       601 3.83134E-05-1.94373E-05-7.44273E-06 2.64039E-05 1.47815E-18-3.95998E-18
 -1       602 6.44197E-05-3.84319E-05-1.07523E-05 4.13871E-05 1.52625E-18-2.78282E-18
 -1       603 1.00872E-04-5.45319E-05-1.96358E-05 3.82086E-05 1.77363E-18-3.38750E-19
 -1       604 1.30185E-04-6.14384E-05-2.95250E-05 2.12374E-05 6.51951E-19 1.91069E-18
 -1       605 1.38722E-04-3.20552E-05-4.62420E-05-1.45161E-05-3.52133E-18 4.53957E-19
 -1       606 8.08884E-05-4.59302E-05-1.46779E-05-4.18207E-05 7.42424E-19-9.74008E-19
 -1       607 1.35412E-04-1.34381E-05-5.28658E-05-8.43659E-06-5.36458E-18 1.04410E-18
 -1       608 1.40918E-04-2.13820E-05-5.17165E-05 1.14811E-05-3.45113E-18-6.90544E-19
 -1       609 1.38509E-04-5.96728E-05-3.39609E-05-9.77465E-06 1.06790E-18 4.05358E-19
 -1       610 1.18508E-04-5.96217E-05-2.50739E-05-2.92696E-05 3.52789E-19-2.90241E-19
 -1       611 1.39878E-04-3.34190E-05-4.60913E-05-1.03597E-05 2.77197E-18-2.93942E-18
 -1       612 9.61672E-05-2.31717E-05-3.12872E-05 9.38172E-06 2.79266E-18 1.36867E-18
 -1       613 5.11088E-05-2.83648E-05-9.23912E-06 3.73733E-05-3.36960E-18 4.60468E-18
 -1       614 9.13885E-05-1.57723E-05-3.24299E-05-7.43984E-06-1.81268E-18-2.83846E-18
 -1       615 9.28255E-05-1.78683E-05-3.21448E-05-8.62536E-06-2.20390E-18-2.35183E-18
 -1       616 6.85902E-05-3.39971E-05-1.44231E-05-3.76005E-05-2.36605E-18-2.76604E-18
 -1       617 9.53186E-05-2.84474E-05-2.86587E-05-2.63619E-07-5.10849E-20 1.49143E-18
 -1       618 9.13641E-05-1.64198E-05-3.21245E-05 2.25555E-06 1.29379E-18-2.69666E-18
 -1       619 9.10688E-05-1.59769E-05-3.21875E-05 7.74909E-07 7.57383E-19-2.80881E-18
 -1       620 9.28417E-05-1.87349E-05-3.17657E-05 4.92558E-06 2.06371E-18-1.97089E-18
 -1       621 9.40053E-05-2.07650E-05-3.13967E-05 5.78942E-06 2.28422E-18-1.25956E-18
 -1       622 9.53393E-05-2.39851E-05-3.05701E-05 4.78106E-06 2.21654E-18-4.70871E-19
 -1       623 1.18374E-04-5.75350E-05-2.59734E-05 2.33329E-05 1.95888E-18 9.40636E-19
 -1       624 1.30079E-04-5.78516E-05-3.10204E-05 1.10021E-05-9.46943E-19-4.90272E-18
 -1       625 9.54849E-05-2.54745E-05-3.00061E-05-1.87447E-06-1.06054E-18-1.49055E-18
 -1       626 9.55534E-05-2.65998E-05-2.95507E-05-7.63903E-08-8.98646E-19-1.29913E-18
 -1       627 9.55171E-05-2.72386E-05-2.92619E-05 1.21624E-06-6.54836E-19-1.11308E-18
 -1       628 9.54663E-05-2.75657E-05-2.91000E-05 2.18156E-06-6.13212E-19-1.31053E-18
 -1       629 9.54304E-05-2.76844E-05-2.90337E-05 2.96330E-06-6.29692E-19-1.06276E-18
 -1       630 9.54170E-05-2.76594E-05-2.90386E-05 3.67415E-06-6.30152E-19-9.47889E-19
 -1       631 9.54258E-05-2.75363E-05-2.90951E-05 4.39832E-06-3.06329E-19-5.46581E-19
 -1       632 9.54577E-05-2.73567E-05-2.91857E-05 5.19564E-06-5.63383E-20-4.72416E-19
 -1       633 9.55223E-05-2.71707E-05-2.92930E-05 6.10308E-06-1.87386E-19-6.01259E-19
 -1       634 9.56488E-05-2.70521E-05-2.93979E-05 7.13371E-06-3.09338E-20-7.06744E-19
 -1       635 9.59028E-05-2.71171E-05-2.94789E-05 8.27266E-06 8.67918E-20-4.95073E-19
 -1       636 9.64142E-05-2.75494E-05-2.95130E-05 9.46845E-06-2.34952E-19-3.33981E-19
 -1       637 9.74162E-05-2.86249E-05-2.94822E-05 1.06156E-05-5.84183E-19-2.59662E-21
 -1       638 9.92903E-05-3.07209E-05-2.93879E-05 1.15180E-05 5.03314E-19 1.37586E-19
 -1       639 1.02588E-04-3.42615E-05-2.92855E-05 1.17985E-05 6.11020E-19 3.95077E-19
 -1       640 1.07923E-04-3.94685E-05-2.93362E-05 1.07888E-05 8.96396E-19 9.28713E-19
 -1       641 1.15512E-04-4.56828E-05-2.99177E-05 7.26052E-06 7.55144E-19 1.27620E-18
 -1       642 1.24544E-04-5.05395E-05-3.17620E-05-1.81922E-07 8.99657E-19 1.06214E-18
 -1       643 1.29689E-04-4.78644E-05-3.52309E-05-1.03816E-05 2.83981E-19 1.17743E-18
 -1       644 1.21470E-04-1.40076E-05-4.65713E-05 6.67125E-06-3.22804E-18-2.00432E-18
 -1       645 1.30241E-04-4.47246E-05-3.67514E-05 1.23169E-05 1.56759E-18-4.18826E-18
 -1       646 1.26302E-04-5.07292E-05-3.24390E-05 2.43319E-06 1.52765E-18-3.51227E-18
 -1       647 1.17790E-04-4.71875E-05-3.02551E-05-5.67963E-06 1.20743E-18-2.47654E-18
 -1       648 1.09695E-04-4.09703E-05-2.94483E-05-1.00031E-05 1.57032E-18-6.75429E-19
 -1       649 1.03754E-04-3.53374E-05-2.93219E-05-1.14515E-05 1.12421E-19-2.00130E-19
 -1       650 1.00003E-04-3.13533E-05-2.94224E-05-1.13390E-05 5.75683E-19 1.27013E-18
 -1       651 9.78296E-05-2.88999E-05-2.95415E-05-1.04601E-05-6.17589E-19-1.72650E-19
 -1       652 9.66525E-05-2.75747E-05-2.96043E-05-9.24540E-06 4.82732E-20-1.28007E-18
 -1       653 9.60482E-05-2.69825E-05-2.95988E-05-7.92813E-06-1.01239E-18-2.17442E-18
 -1       654 9.57481E-05-2.68237E-05-2.95382E-05-6.63671E-06-7.55633E-19-1.75317E-18
 -1       655 9.55985E-05-2.68983E-05-2.94422E-05-5.44166E-06-4.94780E-19-2.28435E-18
 -1       656 9.55182E-05-2.70828E-05-2.93288E-05-4.37888E-06-7.41681E-19-2.78653E-19
 -1       657 9.54672E-05-2.73056E-05-2.92116E-05-3.46200E-06 5.71543E-19 1.51750E-18
 -1       658 9.54282E-05-2.75278E-05-2.90997E-05-2.69031E-06 6.98217E-19 6.28302E-19
 -1       659 9.53940E-05-2.77302E-05-2.89985E-05-2.05427E-06 7.75701E-19 4.40498E-19
 -1       660 9.53625E-05-2.79045E-05-2.89103E-05-1.53951E-06 6.03779E-19 1.35460E-18
 -1       661 9.53329E-05-2.80485E-05-2.88360E-05-1.12961E-06-3.22262E-19 3.83597E-19
 -1       662 9.53050E-05-2.81636E-05-2.87747E-05-8.07616E-07 2.13955E-19 2.39661E-19
 -1       663 9.52781E-05-2.82532E-05-2.87249E-05-5.58555E-07 2.45346E-18-7.47262E-19
 -1       664 9.52950E-05-2.77375E-05-2.89527E-05-2.01594E-06 8.62403E-19-5.65513E-19
 -1       665 9.52608E-05-2.83030E-05-2.86962E-05-4.23081E-07 2.07800E-18-2.13036E-18
 -1       666 9.53140E-05-2.74104E-05-2.91007E-05-1.07744E-06 1.00704E-18-4.30768E-19
 -1       667 9.54924E-05-2.79845E-05-2.89315E-05-3.36225E-06 6.51953E-19 1.54456E-19
 -1       668 9.57103E-05-2.80138E-05-2.90123E-05-3.96074E-06 9.68484E-19 4.48199E-20
 -1       669 9.60151E-05-2.80407E-05-2.91314E-05-4.58202E-06 9.88740E-19-3.23967E-19
 -1       670 9.64266E-05-2.81181E-05-2.92745E-05-5.24269E-06 1.09031E-18-1.09744E-19
 -1       671 9.69825E-05-2.83160E-05-2.94280E-05-5.92607E-06 8.83302E-19 3.45878E-19
 -1       672 9.77460E-05-2.87296E-05-2.95782E-05-6.57518E-06-5.94961E-20 2.47417E-19
 -1       673 9.88140E-05-2.94834E-05-2.97134E-05-7.08171E-06-2.79797E-19 3.58372E-19
 -1       674 1.00320E-04-3.07237E-05-2.98281E-05-7.27126E-06 6.02064E-20-2.21345E-20
 -1       675 1.02419E-04-3.25812E-05-2.99330E-05-6.88761E-06-7.15012E-19 4.94737E-19
 -1       676 1.05229E-04-3.50754E-05-3.00693E-05-5.58717E-06-8.65470E-19 1.03899E-18
 -1       677 1.08684E-04-3.79266E-05-3.03284E-05-2.98316E-06-2.87654E-19 1.33317E-18
 -1       678 1.12293E-04-4.02925E-05-3.08627E-05 1.16790E-06-1.09479E-18 9.09171E-19
 -1       679 1.14962E-04-4.06735E-05-3.18511E-05 6.53832E-06-6.74312E-19 1.49657E-18
 -1       680 1.15162E-04-3.73079E-05-3.33821E-05 1.14441E-05 2.28740E-20 9.02866E-19
 -1       681 1.12173E-04-2.99807E-05-3.52645E-05 1.28146E-05 6.95402E-19 2.25357E-19
 -1       682 1.07936E-04-2.20856E-05-3.68935E-05 7.96727E-06 1.25692E-18 3.15421E-19
 -1       683 1.06599E-04-1.95699E-05-3.73883E-05-1.73049E-06 1.94120E-18-2.41230E-19
 -1       684 1.09288E-04-2.43701E-05-3.64678E-05-1.03052E-05 1.59110E-18-1.35898E-18
 -1       685 1.13463E-04-3.26627E-05-3.46637E-05-1.30098E-05 1.74583E-18-1.86860E-18
 -1       686 1.15443E-04-3.88468E-05-3.28421E-05-1.01277E-05 1.22118E-18-2.65465E-18
 -1       687 1.14302E-04-4.08430E-05-3.14922E-05-4.79603E-06-4.63871E-19-3.80163E-18
 -1       688 1.11172E-04-3.95915E-05-3.06846E-05 2.14959E-07-5.07142E-19-3.10264E-18
 -1       689 1.07533E-04-3.69059E-05-3.02743E-05 3.78774E-06-5.50468E-19-1.76191E-18
 -1       690 1.04286E-04-3.40980E-05-3.00839E-05 5.84128E-06-8.65833E-19-1.02626E-18
 -1       691 1.01744E-04-3.17903E-05-2.99822E-05 6.70493E-06-1.47264E-18-7.60803E-19
 -1       692 9.98885E-05-3.01343E-05-2.98954E-05 6.76076E-06-1.26817E-18-1.18844E-19
 -1       693 9.85775E-05-2.90592E-05-2.97935E-05 6.32416E-06-1.72903E-19-1.16297E-18
 -1       694 9.76594E-05-2.84247E-05-2.96715E-05 5.62484E-06 6.46535E-19-2.09618E-19
 -1       695 9.70115E-05-2.80935E-05-2.95356E-05 4.81907E-06-2.66804E-19 1.68647E-18
 -1       696 9.65466E-05-2.79563E-05-2.93951E-05 4.00698E-06-3.51609E-19 2.19710E-18
 -1       697 9.62065E-05-2.79348E-05-2.92586E-05 3.24802E-06-6.04189E-19 3.38140E-18
 -1       698 9.59532E-05-2.79764E-05-2.91323E-05 2.57332E-06-5.98418E-19 1.48120E-18
 -1       699 9.57622E-05-2.80474E-05-2.90201E-05 1.99502E-06 1.49625E-18 6.59664E-19
 -1       700 9.56168E-05-2.81274E-05-2.89236E-05 1.51317E-06 9.80203E-19 8.54235E-20
 -1       701 9.55056E-05-2.82046E-05-2.88430E-05 1.12096E-06 5.75344E-19 2.01227E-19
 -1       702 9.54195E-05-2.82720E-05-2.87772E-05 8.07643E-07-7.62311E-19 2.13969E-18
 -1       703 9.53522E-05-2.83273E-05-2.87246E-05 5.61993E-07-1.11614E-18 3.17662E-18
 -1       704 9.52891E-05-2.83347E-05-2.86945E-05 4.24924E-07-2.17496E-18 2.02161E-18
 -1       705 1.12765E-04-5.56319E-05-2.43263E-05 2.85764E-05-3.22926E-18-2.50860E-18
 -1       706 9.47495E-05-2.77126E-05-2.87302E-05 9.54602E-08 1.32435E-18-3.58433E-18
 -1       707 1.35116E-04-5.25583E-05-3.56040E-05 5.81004E-06 1.45826E-18-3.24513E-18
 -1       708 9.49133E-05-2.78899E-05-2.87244E-05 4.03205E-07-8.40267E-19-1.43516E-18
 -1       709 9.47487E-05-2.77107E-05-2.87307E-05-9.38867E-08 4.20902E-19-4.27304E-18
 -1       710 9.48070E-05-2.77749E-05-2.87282E-05 2.70006E-07 2.48031E-19-1.97676E-18
 -1       711 9.48034E-05-2.77678E-05-2.87296E-05-2.66896E-07 5.69429E-19-5.24968E-20
 -1       712 9.49082E-05-2.78798E-05-2.87265E-05-4.03190E-07 1.80072E-18-4.87746E-19
 -1       713 9.50479E-05-2.80332E-05-2.87207E-05-4.77732E-07 1.68233E-18 3.38836E-18
 -1       714 1.02721E-04-5.08059E-05-2.20740E-05-3.16615E-05 2.50939E-18-1.54696E-18
 -1       715 4.78432E-05-1.73036E-05-1.25736E-05 2.30331E-05-2.16543E-18 4.28797E-18
 -1       716 9.46258E-05-2.20692E-05-3.10950E-05-5.80228E-06-1.91918E-18-1.98266E-18
 -1       717 1.22459E-04-1.17704E-05-4.80469E-05-1.29571E-06-4.37688E-18-7.93379E-19
 -1       718 1.22022E-04-5.80750E-05-2.73841E-05-2.13011E-05-2.08338E-18 1.19053E-18
 -1       719 4.33481E-05-1.76499E-05-1.04907E-05-2.26717E-05 5.65884E-19 4.60802E-18
 -1       720 9.53856E-05-2.68161E-05-2.93847E-05 2.30221E-07 1.37375E-18-3.60540E-19
 -1       721 9.53541E-05-2.79080E-05-2.89050E-05-2.73982E-06 4.61197E-19-6.47780E-19
 -1       722 9.51914E-05-2.40674E-05-3.04799E-05-3.63377E-06-1.45425E-18-1.78197E-18
 -1       723 8.79277E-05-4.35688E-05-1.87038E-05 3.55765E-05 2.12854E-18 8.07196E-20
 -1       724 3.37119E-05-1.11547E-05-9.11119E-06-1.18415E-06-4.92938E-19 9.44145E-18
 -1       725 9.54383E-05-2.57746E-05-2.98516E-05 2.10010E-06 1.76691E-18-6.47158E-19
 -1       726 9.19526E-05-1.73199E-05-3.19912E-05 3.66966E-06 1.67667E-18-2.24102E-18
 -1       727 9.19132E-05-1.72600E-05-3.20000E-05-3.61552E-06-5.68154E-19-2.50869E-18
 -1       728 7.18656E-05-3.50031E-05-1.53762E-05-3.62894E-05 1.80153E-18-3.91567E-19
 -1       729 1.30508E-04-2.98705E-05-4.35250E-05 1.38962E-05 1.41820E-18 3.23662E-18
 -1       730 1.33806E-04-4.92887E-05-3.64553E-05 4.55388E-06-7.52536E-19 2.35446E-18
 -1       731 1.02822E-04-5.14980E-05-2.17218E-05-3.35593E-05-2.05665E-18 3.52842E-19
 -1       732 4.04468E-05-1.18308E-05-1.17902E-05 8.32182E-06 8.08678E-19-3.05821E-18
 -1       733 6.33955E-05-2.66276E-05-1.53074E-05 3.07026E-05 1.66324E-18-2.88597E-18
 -1       734 1.32716E-04-4.46767E-05-3.79908E-05-9.69922E-06 5.95014E-19-2.09596E-18
 -1       735 1.31601E-04-3.07300E-05-4.36512E-05 1.64825E-05-7.77232E-19-3.28572E-18
 -1       736 4.21322E-05-1.37723E-05-1.16147E-05-1.49474E-05-1.08021E-18-3.45208E-18
 -1       737 1.34878E-04-5.68337E-05-3.34835E-05 2.91787E-06 2.21420E-19 9.71957E-19
 -1       738 1.26350E-04-2.33685E-05-4.45587E-05-1.40254E-05 3.15763E-18-2.24893E-18
 -1       739 1.30962E-04-5.88482E-05-3.09001E-05-9.78028E-06 1.77956E-18-4.16978E-19
 -1       740 1.23191E-04-1.52343E-05-4.67880E-05 1.05158E-05 2.89024E-18 1.68102E-18
 -1       741 7.94463E-05-3.83162E-05-1.72998E-05 3.68799E-05-3.75593E-18 9.60588E-20
 -1       742 1.18955E-04-1.04923E-05-4.70160E-05-4.30281E-06 4.42342E-18-9.11017E-19
 -1       743 9.27999E-05-1.86567E-05-3.17795E-05-4.88953E-06-1.20348E-18-2.23336E-18
 -1       744 9.10623E-05-1.59671E-05-3.21889E-05-7.21161E-07 2.59141E-19-2.89402E-18
 -1       745 9.51553E-05-2.81685E-05-2.87087E-05 4.70279E-07-1.81250E-18-2.83581E-19
 -1       746 1.29631E-04-5.53991E-05-3.18667E-05-4.33712E-06-8.72166E-19 1.41232E-18
 -1       747 5.72198E-05-2.08769E-05-1.52615E-05-2.52848E-05-1.24812E-18-3.13900E-18
 -1       748 9.13401E-05-1.63849E-05-3.21292E-05-2.19812E-06-1.78827E-19-2.63768E-18
 -1       749 9.50317E-05-2.80233E-05-2.87179E-05 4.61889E-07-9.38565E-19 1.16647E-18
 -1       750 9.51525E-05-2.81322E-05-2.87230E-05-5.35826E-07 4.23474E-19 4.61193E-19
 -1       751 1.27411E-04-5.09077E-05-3.28381E-05-1.53535E-06-5.80522E-19-1.64278E-18
 -1       752 9.45928E-05-2.24331E-05-3.09268E-05 3.43086E-06 1.72157E-18-1.46477E-18
 -1       753 9.36721E-05-2.01892E-05-3.14927E-05-5.54346E-06-1.66734E-18-2.33158E-18
 -1       754 8.83393E-05-3.83151E-05-2.12865E-05-2.92110E-05 2.63845E-18-3.24259E-18
 -1       755 9.56862E-05-2.62230E-05-2.97697E-05 3.65348E-07-5.12587E-19-1.41112E-18
 -1       756 9.56788E-05-2.68914E-05-2.94803E-05 1.49338E-06-6.31447E-19-1.21112E-18
 -1       757 9.55331E-05-2.71847E-05-2.92922E-05 2.38916E-06-6.44799E-19-1.28091E-18
 -1       758 9.52948E-05-2.72071E-05-2.91804E-05 3.15768E-06-4.03312E-19-1.04849E-18
 -1       759 9.49835E-05-2.70311E-05-2.91224E-05 3.88744E-06-1.45443E-19-7.39035E-19
 -1       760 9.46066E-05-2.67142E-05-2.90966E-05 4.64874E-06-1.73113E-19-4.20163E-19
 -1       761 9.41694E-05-2.63127E-05-2.90813E-05 5.49474E-06-1.19367E-19-5.91445E-19
 -1       762 9.36857E-05-2.58964E-05-2.90523E-05 6.46429E-06-1.04174E-19-3.80656E-19
 -1       763 9.31934E-05-2.55663E-05-2.89827E-05 7.58613E-06 2.20043E-19-7.81929E-19
 -1       764 9.27778E-05-2.54783E-05-2.88423E-05 8.88441E-06-2.82038E-19-9.39101E-19
 -1       765 9.26105E-05-2.58744E-05-2.86008E-05 1.03838E-05-1.28587E-19-8.35034E-19
 -1       766 9.30097E-05-2.71211E-05-2.82377E-05 1.21040E-05 7.24336E-20-2.52105E-19
 -1       767 9.44981E-05-2.97220E-05-2.77611E-05 1.40355E-05 5.73135E-19 3.59497E-20
 -1       768 9.80493E-05-3.44019E-05-2.72827E-05 1.58645E-05 5.34042E-19-3.36215E-19
 -1       769 1.04725E-04-4.16236E-05-2.70297E-05 1.69826E-05 1.03120E-18-6.36915E-19
 -1       770 1.15639E-04-5.06641E-05-2.78138E-05 1.55364E-05 1.24923E-18-1.29680E-19
 -1       771 1.19537E-04-5.33546E-05-2.82851E-05-1.43831E-05 2.60974E-18-5.56395E-19
 -1       772 1.07028E-04-4.37380E-05-2.71105E-05-1.68844E-05 2.59179E-18 1.32670E-18
 -1       773 9.93067E-05-3.58193E-05-2.71924E-05-1.60910E-05 4.57121E-19 1.27173E-18
 -1       774 9.51013E-05-3.05195E-05-2.76751E-05-1.42378E-05 8.95131E-19 4.68690E-19
 -1       775 9.31575E-05-2.74076E-05-2.81781E-05-1.22117E-05-4.98211E-19-4.59104E-19
 -1       776 9.25002E-05-2.58150E-05-2.85791E-05-1.03384E-05-8.32356E-19 5.35869E-19
 -1       777 9.25173E-05-2.51926E-05-2.88530E-05-8.67495E-06-6.73325E-19-1.34223E-18
 -1       778 9.28378E-05-2.51380E-05-2.90138E-05-7.20978E-06-3.16138E-19-4.05988E-19
 -1       779 9.32592E-05-2.53877E-05-2.90875E-05-5.92390E-06-3.37550E-19 7.51714E-19
 -1       780 9.36782E-05-2.57771E-05-2.91003E-05-4.80447E-06 2.55008E-19 1.05959E-18
 -1       781 9.40488E-05-2.62084E-05-2.90743E-05-3.84190E-06 9.64261E-19 1.45479E-18
 -1       782 9.43557E-05-2.66273E-05-2.90263E-05-3.02653E-06 1.25939E-18 1.56993E-18
 -1       783 9.45990E-05-2.70060E-05-2.89683E-05-2.34688E-06 5.36051E-19 1.81780E-18
 -1       784 9.47857E-05-2.73330E-05-2.89082E-05-1.78954E-06 5.35527E-19 1.36893E-18
 -1       785 9.49247E-05-2.76057E-05-2.88510E-05-1.33967E-06 1.10247E-18 3.75345E-20
 -1       786 9.50258E-05-2.78273E-05-2.87993E-05-9.83409E-07-2.08132E-19 1.11973E-18
 -1       787 9.51061E-05-2.80007E-05-2.87594E-05-7.35628E-07-1.71987E-19 1.03553E-18
 -1       788 9.56570E-05-2.71053E-05-2.93792E-05-1.38338E-06 1.00268E-18-9.41269E-19
 -1       789 9.52843E-05-2.74507E-05-2.90714E-05-4.42240E-06 6.93409E-19-3.72923E-19
 -1       790 9.53739E-05-2.75480E-05-2.90681E-05-3.73636E-06 6.65775E-19-9.66460E-19
 -1       791 9.52734E-05-2.73149E-05-2.91249E-05-5.94398E-06 4.66370E-19 2.78330E-19
 -1       792 9.54642E-05-2.74681E-05-2.91409E-05-6.79037E-06 3.02803E-19 7.24177E-19
 -1       793 9.59237E-05-2.79528E-05-2.91302E-05-7.65112E-06-1.10189E-19 7.48721E-19
 -1       794 9.68286E-05-2.89621E-05-2.90856E-05-8.44192E-06-1.30502E-19 2.61696E-19
 -1       795 9.84309E-05-3.07256E-05-2.90171E-05-9.00948E-06-5.93481E-19 7.71864E-19
 -1       796 1.01048E-04-3.34587E-05-2.89682E-05-9.08721E-06-8.10500E-19 5.23882E-19
 -1       797 1.04978E-04-3.72141E-05-2.90418E-05-8.21257E-06-1.00128E-18 8.92130E-19
 -1       798 1.10279E-04-4.15891E-05-2.94416E-05-5.70391E-06-1.03889E-18 7.54421E-19
 -1       799 1.16295E-04-4.50806E-05-3.05166E-05-8.19548E-07-7.45595E-19 5.31518E-19
 -1       800 1.21072E-04-4.49144E-05-3.26611E-05 6.46894E-06 2.01634E-19 6.74089E-19
 -1       801 1.21400E-04-3.79375E-05-3.59301E-05 1.31708E-05 6.39331E-19 5.79821E-19
 -1       802 1.11563E-04-1.50016E-05-4.16633E-05 4.23473E-06 2.33297E-18-2.13217E-19
 -1       803 1.12129E-04-1.75078E-05-4.08224E-05-8.20979E-06 2.92650E-18-2.10568E-18
 -1       804 1.17943E-04-2.92409E-05-3.82073E-05-1.44156E-05 1.94539E-18-3.65250E-18
 -1       805 1.21253E-04-4.06421E-05-3.46127E-05-1.13975E-05 8.36127E-19-2.71105E-18
 -1       806 1.19332E-04-4.51851E-05-3.18075E-05-4.20634E-06 1.88345E-19-7.81434E-19
 -1       807 1.14207E-04-4.38079E-05-3.01779E-05 2.17068E-06-5.94127E-19-1.50539E-18
 -1       808 1.08505E-04-3.99052E-05-2.94045E-05 6.16792E-06-1.55600E-18-2.06757E-19
 -1       809 1.03727E-04-3.57341E-05-2.91415E-05 8.07023E-06-1.90057E-18 1.74599E-18
 -1       810 1.00279E-04-3.23330E-05-2.91207E-05 8.57892E-06-1.57412E-18 1.47307E-18
 -1       811 9.80129E-05-2.99305E-05-2.91786E-05 8.27986E-06-1.06830E-18 3.52535E-19
 -1       812 9.66286E-05-2.84122E-05-2.92356E-05 7.55639E-06 1.55690E-20-8.24856E-19
 -1       813 9.58362E-05-2.75599E-05-2.92610E-05 6.63952E-06 5.61404E-20-1.45311E-18
 -1       814 9.54152E-05-2.71645E-05-2.92500E-05 5.66717E-06-1.03919E-18-7.58029E-19
 -1       815 9.52135E-05-2.70588E-05-2.92088E-05 4.72168E-06-1.18955E-18 1.36989E-18
 -1       816 9.51341E-05-2.71224E-05-2.91476E-05 3.85046E-06-9.20342E-19 1.21930E-18
 -1       817 9.51176E-05-2.72737E-05-2.90757E-05 3.07807E-06 6.52832E-19 2.24051E-19
 -1       818 9.51301E-05-2.74604E-05-2.90011E-05 2.41375E-06 9.41536E-19-1.19279E-18
 -1       819 9.51525E-05-2.76507E-05-2.89291E-05 1.85668E-06 5.99002E-19 1.75040E-19
 -1       820 9.51746E-05-2.78266E-05-2.88633E-05 1.39902E-06 2.94494E-19 1.75598E-18
 -1       821 9.51924E-05-2.79795E-05-2.88054E-05 1.03199E-06-1.12427E-18 2.01438E-18
 -1       822 9.52026E-05-2.81051E-05-2.87560E-05 7.41203E-07-3.72364E-19 9.92748E-19
 -1       823 9.51719E-05-2.81351E-05-2.87303E-05 5.94359E-07-5.74373E-19 1.76773E-19
 -1       824 9.45724E-05-2.74982E-05-2.87461E-05-2.41619E-07-8.24821E-20-1.41103E-18
 -1       825 1.26965E-04-3.91935E-05-3.77860E-05 1.27991E-05 4.03287E-19 2.02432E-18
 -1       826 9.45334E-05-2.74627E-05-2.87446E-05 6.08836E-09-1.58829E-19-4.33918E-18
 -1       827 5.15869E-05-1.25307E-05-1.64798E-05-4.03957E-06-3.67068E-19-2.05112E-18
 -1       828 9.28517E-05-1.91379E-05-3.15928E-05 1.06255E-06 7.16143E-19-2.37982E-18
 -1       829 7.06545E-05-2.64928E-05-1.87481E-05 2.68556E-05-2.94679E-18 1.86109E-19
 -1       830 9.56549E-05-2.64286E-05-2.96686E-05-1.88597E-07 1.18150E-18-9.31542E-19
 -1       831 8.76677E-05-3.98192E-05-2.02971E-05-3.23233E-05-2.28398E-18-1.04487E-18
 -1       832 9.46885E-05-2.76092E-05-2.87483E-05-4.56840E-07-5.17119E-19-8.30293E-20
 -1       833 9.48690E-05-2.77856E-05-2.87501E-05-6.06127E-07 1.14978E-18 2.01284E-18
 -1       834 9.52369E-05-2.73455E-05-2.90961E-05-5.15202E-06 7.83906E-19 5.08468E-20
 -1       835 9.52351E-05-2.42351E-05-3.04277E-05 2.92358E-06 1.80365E-18-8.53976E-19
 -1       836 1.03608E-04-4.67409E-05-2.42884E-05 2.47551E-05 1.53707E-18 9.47750E-20
 -1       837 9.54806E-05-2.50550E-05-3.01824E-05-1.10248E-06-8.28591E-19-1.59407E-18
 -1       838 4.72416E-05-1.31806E-05-1.42431E-05-1.09964E-05 6.36247E-19 5.99665E-18
 -1       839 1.19078E-04-5.38811E-05-2.79170E-05 1.53236E-05-2.13142E-18-2.50074E-18
 -1       840 1.13378E-04-5.26419E-05-2.59266E-05-2.16709E-05-1.33975E-18 7.01304E-19
 -1       841 8.49953E-05-3.50369E-05-2.12378E-05 2.77322E-05 1.53146E-18-3.64224E-19
 -1       842 4.87079E-05-1.27946E-05-1.51194E-05 9.73005E-06-2.18576E-18 6.37048E-18
 -1       843 6.48506E-05-2.36404E-05-1.73646E-05-2.56016E-05 1.86286E-18-1.06025E-19
 -1       844 9.87058E-05-4.48297E-05-2.29505E-05 2.81568E-05-3.23056E-18-1.98176E-18
 -1       845 1.18945E-04-2.39864E-05-4.09629E-05 1.37222E-05 8.51348E-19 1.09061E-18
 -1       846 5.79087E-05-1.74345E-05-1.71011E-05 1.75970E-05 6.92805E-19-2.76888E-18
 -1       847 9.27128E-05-1.89087E-05-3.16314E-05 1.70540E-08 4.95982E-19-2.39716E-18
 -1       848 9.38541E-05-2.09054E-05-3.12645E-05 2.89089E-06 1.60892E-18-1.87543E-18
 -1       849 9.46843E-05-2.25857E-05-3.08995E-05-3.68102E-06-1.16643E-18-1.89650E-18
 -1       850 9.38015E-05-2.08114E-05-3.12827E-05-2.87260E-06-6.69690E-19-1.86412E-18
 -1       851 9.55829E-05-2.74482E-05-2.92005E-05-2.29706E-06 7.86151E-19-1.00740E-18
 -1       852 9.54800E-05-2.75693E-05-2.91045E-05-3.05047E-06 1.99320E-19-1.11990E-18
 -1       853 9.46980E-05-2.76249E-05-2.87456E-05 4.61155E-07-6.20200E-19-1.86849E-18
 -1       854 9.45773E-05-2.75068E-05-2.87445E-05 2.51325E-07-7.10002E-19-2.40270E-18
 -1       855 5.94008E-05-1.61594E-05-1.83811E-05-1.33882E-05-8.10318E-19-2.82361E-18
 -1       856 6.51438E-05-1.94500E-05-1.94311E-05 1.83528E-05-3.10719E-18 1.65050E-18
 -1       857 9.32046E-05-1.97507E-05-3.14842E-05-2.00480E-06-3.50380E-19-2.24245E-18
 -1       858 9.48509E-05-2.77793E-05-2.87448E-05 5.77278E-07-1.85831E-18 7.38278E-19
 -1       859 9.32431E-05-1.98026E-05-3.14757E-05 2.04870E-06 1.24154E-18-2.08510E-18
 -1       860 9.55107E-05-2.55376E-05-2.99877E-05 1.16339E-06 1.33259E-18-9.35207E-19
 -1       861 9.49793E-05-2.78832E-05-2.87548E-05-6.83983E-07 2.89708E-19 9.25377E-19
 -1       862 7.50570E-05-2.52222E-05-2.12970E-05 2.14892E-05 1.39227E-18-1.44026E-18
 -1       863 1.00285E-04-4.28590E-05-2.45398E-05-2.32046E-05-1.23773E-18-8.91974E-20
 -1       864 9.50169E-05-2.79584E-05-2.87393E-05 6.15393E-07-7.83662E-19 1.28186E-18
 -1       865 1.19466E-04-5.08597E-05-2.94429E-05-8.08169E-06-1.21273E-18 4.21769E-19
 -1       866 9.55668E-05-2.65374E-05-2.95840E-05 1.62136E-06-4.63139E-19-1.34042E-18
 -1       867 9.52665E-05-2.67270E-05-2.93741E-05 2.37919E-06-3.49471E-19-8.14626E-19
 -1       868 9.47896E-05-2.66072E-05-2.92210E-05 3.05866E-06-3.07882E-19-6.42811E-19
 -1       869 9.41573E-05-2.62526E-05-2.91020E-05 3.72620E-06-1.98569E-19-1.01260E-18
 -1       870 9.33774E-05-2.57274E-05-2.89929E-05 4.43731E-06-1.93968E-20-1.10184E-18
 -1       871 9.24527E-05-2.50973E-05-2.88666E-05 5.23877E-06 1.14450E-19-1.10485E-18
 -1       872 9.13902E-05-2.44420E-05-2.86920E-05 6.17552E-06 1.52584E-20-9.14603E-19
 -1       873 9.02152E-05-2.38722E-05-2.84327E-05 7.30295E-06 1.80354E-19-7.72505E-19
 -1       874 8.89925E-05-2.35517E-05-2.80461E-05 8.70560E-06-1.29634E-19-8.51582E-19
 -1       875 8.78621E-05-2.37292E-05-2.74853E-05 1.05236E-05 3.55447E-19-4.00380E-19
 -1       876 8.70972E-05-2.47904E-05-2.67056E-05 1.29996E-05 2.97831E-19-3.64927E-19
 -1       877 8.74203E-05-2.73703E-05-2.57240E-05 1.64756E-05 2.73200E-19-5.58389E-19
 -1       878 9.43814E-05-2.72653E-05-2.87641E-05-4.59623E-07 2.85488E-19-1.65828E-18
 -1       879 9.08493E-05-3.41797E-05-2.42258E-05-2.20161E-05 1.19511E-18-2.04699E-18
 -1       880 8.75500E-05-2.81868E-05-2.54420E-05-1.72169E-05 1.91989E-21-3.01752E-18
 -1       881 8.68325E-05-2.49963E-05-2.65047E-05-1.34663E-05-2.51188E-19-2.42505E-18
 -1       882 8.73482E-05-2.35433E-05-2.73458E-05-1.07105E-05 2.84974E-19-1.27993E-18
 -1       883 8.83417E-05-2.31167E-05-2.79535E-05-8.66424E-06-1.07980E-18-7.59841E-19
 -1       884 8.94659E-05-2.32709E-05-2.83691E-05-7.07472E-06 5.42637E-20 1.97743E-19
 -1       885 9.05550E-05-2.37372E-05-2.86361E-05-5.78535E-06-2.63369E-19 1.43921E-18
 -1       886 9.15304E-05-2.43449E-05-2.87937E-05-4.70914E-06 2.10551E-19 1.15800E-18
 -1       887 9.23630E-05-2.49892E-05-2.88744E-05-3.79884E-06 2.39153E-19 1.71661E-18
 -1       888 9.30503E-05-2.56086E-05-2.89036E-05-3.02825E-06 1.04059E-18 1.41602E-18
 -1       889 9.36035E-05-2.61704E-05-2.88999E-05-2.38085E-06 9.36238E-19 3.70566E-19
 -1       890 9.40390E-05-2.66595E-05-2.88769E-05-1.84343E-06 2.04351E-18 1.62263E-18
 -1       891 9.43761E-05-2.70732E-05-2.88441E-05-1.40430E-06 1.51417E-19 3.05228E-18
 -1       892 9.46315E-05-2.74140E-05-2.88077E-05-1.04983E-06 1.20260E-18 2.28481E-18
 -1       893 6.19619E-05-1.68731E-05-1.91843E-05-1.42269E-05 1.83086E-18 2.37690E-18
 -1       894 9.34125E-05-2.63849E-05-2.87259E-05-7.31407E-06 3.46733E-19 3.51173E-19
 -1       895 9.36251E-05-2.62886E-05-2.88584E-05-6.27105E-06 3.13544E-19 6.84903E-19
 -1       896 9.41532E-05-2.81450E-05-2.82890E-05-9.78855E-06-8.73164E-19-7.99574E-20
 -1       897 9.57262E-05-3.03904E-05-2.80016E-05-1.11174E-05-9.69959E-19 7.14755E-19
 -1       898 9.87095E-05-3.39813E-05-2.77458E-05-1.22824E-05-1.23898E-18 9.29684E-19
 -1       899 1.04117E-04-3.94029E-05-2.77454E-05-1.26734E-05-6.92035E-19 9.17027E-19
 -1       900 1.08877E-04-4.32178E-05-2.81309E-05 1.10559E-05-1.71297E-18 9.37847E-19
 -1       901 1.02193E-04-3.72358E-05-2.78270E-05 1.20427E-05-2.87313E-18 1.08576E-18
 -1       902 9.78044E-05-3.25636E-05-2.79600E-05 1.14032E-05-1.33400E-18-5.32324E-19
 -1       903 9.52361E-05-2.93875E-05-2.82209E-05 1.01898E-05-5.69697E-19-6.61966E-19
 -1       904 9.39048E-05-2.74451E-05-2.84826E-05 8.83099E-06-1.41908E-19-5.45655E-19
 -1       905 9.33501E-05-2.64006E-05-2.86925E-05 7.50454E-06 3.40428E-19 8.06211E-19
 -1       906 9.32501E-05-2.59635E-05-2.88370E-05 6.27895E-06-4.82883E-19 1.84081E-18
 -1       907 9.33924E-05-2.59098E-05-2.89210E-05 5.17860E-06-1.22429E-18 6.76581E-19
 -1       908 9.36450E-05-2.60789E-05-2.89568E-05 4.20997E-06-7.40894E-19-2.22884E-18
 -1       909 9.39301E-05-2.63620E-05-2.89577E-05 3.37202E-06 1.07131E-19-1.17007E-18
 -1       910 9.42050E-05-2.66881E-05-2.89357E-05 2.65946E-06 1.70912E-18-8.54794E-21
 -1       911 9.44483E-05-2.70137E-05-2.89005E-05 2.06377E-06-1.93414E-20-8.33911E-19
 -1       912 9.46527E-05-2.73144E-05-2.88591E-05 1.57499E-06 4.39808E-19-3.92972E-19
 -1       913 9.48103E-05-2.75727E-05-2.88163E-05 1.17893E-06-1.41097E-18-1.05109E-18
 -1       914 9.49379E-05-2.77929E-05-2.87759E-05 8.64449E-07-1.34959E-18 5.83785E-21
 -1       915 9.45919E-05-2.74535E-05-2.87735E-05-7.10225E-07-1.71744E-19 2.00208E-18
 -1       916 9.48232E-05-2.69309E-05-2.90967E-05-3.82651E-06 3.71332E-19-6.84069E-19
 -1       917 8.86010E-05-3.40172E-05-2.33555E-05 2.31153E-05-2.15380E-18-7.92293E-19
 -1       918 9.10712E-05-3.47914E-05-2.40084E-05 2.26201E-05 1.17574E-18-1.84031E-19
 -1       919 9.45874E-05-2.25098E-05-3.08893E-05-2.25841E-06-7.76737E-19-1.69895E-18
 -1       920 9.42767E-05-2.71733E-05-2.87587E-05-1.52346E-07-7.35774E-19-2.98347E-18
 -1       921 5.75212E-05-1.31025E-05-1.88727E-05 4.09538E-08-5.37002E-19 4.35092E-18
 -1       922 9.28396E-05-1.91160E-05-3.15967E-05-1.02583E-06 1.34891E-20-2.42915E-18
 -1       923 9.35064E-05-2.69178E-05-2.85377E-05-8.49263E-06-8.53616E-20 7.08553E-21
 -1       924 9.54485E-05-2.48491E-05-3.02579E-05-4.37239E-07-6.13313E-19-1.54128E-18
 -1       925 6.13776E-05-1.48130E-05-1.98635E-05 6.70869E-06 3.18208E-19-1.91967E-18
 -1       926 9.56473E-05-2.59424E-05-2.98732E-05 7.13611E-07-3.74762E-19-1.52022E-18
 -1       927 7.95166E-05-2.78181E-05-2.20670E-05-2.24085E-05 1.27596E-18-3.09479E-18
 -1       928 1.08042E-04-4.57072E-05-2.66793E-05 1.70260E-05-2.15600E-18-4.57613E-19
 -1       929 1.17439E-04-4.85380E-05-2.95261E-05 6.19656E-06-7.93820E-19-1.06827E-19
 -1       930 9.57042E-05-2.61219E-05-2.98208E-05-5.96060E-07 1.15756E-18-1.28409E-18
 -1       931 7.55826E-05-2.79780E-05-2.02792E-05-2.56007E-05-1.41824E-18-1.45539E-18
 -1       932 9.50628E-05-2.37110E-05-3.05792E-05 1.65926E-06 1.43741E-18-1.88153E-18
 -1       933 9.51960E-05-2.70820E-05-2.91917E-05-3.13443E-06 3.32709E-19-8.59073E-19
 -1       934 7.15944E-05-1.93456E-05-2.23771E-05 1.33341E-05 2.60952E-19-1.19999E-18
 -1       935 6.25226E-05-1.46087E-05-2.04603E-05-1.53096E-06-2.59191E-19-1.80751E-18
 -1       936 9.54511E-05-2.49365E-05-3.02218E-05 7.02787E-07 1.27715E-18-1.58766E-18
 -1       937 9.48344E-05-2.76754E-05-2.87823E-05-8.55797E-07-5.39956E-19 1.22700E-18
 -1       938 9.53515E-05-2.46483E-05-3.03008E-05 1.46556E-06 1.43264E-18-1.22922E-18
 -1       939 9.43979E-05-2.72886E-05-2.87612E-05 4.78233E-07-8.17444E-19-7.92309E-19
 -1       940 9.39887E-05-2.64365E-05-2.89509E-05-5.35710E-06 4.52984E-19 1.93154E-19
 -1       941 1.12986E-04-4.69276E-05-2.83044E-05-1.10720E-05-4.71689E-19 3.94861E-19
 -1       942 9.45742E-05-2.74551E-05-2.87656E-05 6.73598E-07-2.31329E-18 9.33869E-19
 -1       943 9.44077E-05-2.66864E-05-2.90233E-05-4.55264E-06 4.63043E-19-4.04603E-19
 -1       944 9.56821E-05-2.67757E-05-2.95315E-05-1.59862E-06 9.21937E-19-1.03265E-18
 -1       945 9.42802E-05-2.71797E-05-2.87575E-05 1.75457E-07-1.71550E-18-3.15201E-18
 -1       946 8.10591E-05-2.70937E-05-2.30773E-05 1.97357E-05-2.28357E-18-4.25216E-19
 -1       947 9.39828E-05-2.13807E-05-3.11154E-05 3.12522E-07 3.88151E-19-2.36752E-18
 -1       948 9.42008E-05-2.17937E-05-3.10324E-05 8.96594E-07 7.73711E-19-1.86799E-18
 -1       949 9.40890E-05-2.14470E-05-3.11330E-05-1.71927E-06-5.04269E-19-1.93927E-18
 -1       950 8.87462E-05-3.26572E-05-2.40003E-05-2.10841E-05-1.24154E-18-9.80044E-19
 -1       951 9.47738E-05-2.62462E-05-2.93690E-05 2.08864E-06-8.64730E-20-1.01623E-18
 -1       952 9.40390E-05-2.59567E-05-2.91782E-05 2.61348E-06-2.90140E-19-5.69398E-19
 -1       953 9.30820E-05-2.54132E-05-2.90011E-05 3.14119E-06-1.29156E-19-3.18065E-19
 -1       954 9.19055E-05-2.46833E-05-2.88097E-05 3.71072E-06-1.51529E-20-2.04010E-19
 -1       955 9.04987E-05-2.38326E-05-2.85715E-05 4.36002E-06 8.49943E-20-3.52823E-19
 -1       956 8.88437E-05-2.29354E-05-2.82468E-05 5.13710E-06-7.10641E-20-4.28155E-19
 -1       957 8.69186E-05-2.20842E-05-2.77868E-05 6.11855E-06 1.54692E-19-5.85308E-19
 -1       958 8.47029E-05-2.14032E-05-2.71296E-05 7.43905E-06 1.60403E-19-7.22440E-19
 -1       959 8.21851E-05-2.10716E-05-2.61933E-05 9.34836E-06 4.85670E-19-1.05669E-18
 -1       960 7.95463E-05-2.14310E-05-2.48871E-05 1.21177E-05 1.24689E-20-9.33907E-19
 -1       961 9.15253E-05-2.50419E-05-2.84929E-05-6.17111E-06 4.43150E-19-6.79194E-19
 -1       962 9.54346E-05-2.48515E-05-3.02484E-05 8.02104E-08 8.78118E-19-1.29163E-18
 -1       963 9.54087E-05-2.48240E-05-3.02510E-05 5.07231E-08-4.27137E-19-1.42716E-18
 -1       964 7.85588E-05-2.13741E-05-2.44707E-05-1.30038E-05 7.66509E-19-1.00303E-18
 -1       965 8.11567E-05-2.06555E-05-2.59296E-05-9.72203E-06 6.94350E-19-3.18274E-19
 -1       966 8.36468E-05-2.07995E-05-2.69349E-05-7.53325E-06-3.26336E-19 1.22058E-19
 -1       967 8.58223E-05-2.13295E-05-2.76400E-05-6.01913E-06-6.69460E-19 7.89426E-19
 -1       968 8.76856E-05-2.20749E-05-2.81191E-05-4.88957E-06 5.40533E-19-9.21618E-19
 -1       969 8.92576E-05-2.29128E-05-2.84337E-05-3.99417E-06-2.26826E-20 4.57624E-20
 -1       970 9.05649E-05-2.37609E-05-2.86304E-05-3.25329E-06 1.20787E-18 2.90133E-19
 -1       971 9.16370E-05-2.45668E-05-2.87445E-05-2.62721E-06 6.03098E-19 1.76940E-18
 -1       972 9.25041E-05-2.52997E-05-2.88020E-05-2.09601E-06 1.04795E-18 1.37483E-18
 -1       973 9.31956E-05-2.59441E-05-2.88221E-05-1.64838E-06 2.20291E-18 1.53204E-18
 -1       974 9.37374E-05-2.64942E-05-2.88187E-05-1.27634E-06 1.74010E-18 1.98408E-18
 -1       975 9.41553E-05-2.69520E-05-2.88015E-05-9.69559E-07 1.23339E-18 1.38816E-18
 -1       976 9.14558E-05-2.91706E-05-2.67017E-05-1.34929E-05-1.33770E-18 7.87538E-20
 -1       977 9.03834E-05-2.66975E-05-2.72946E-05-1.10087E-05-1.23360E-18 3.31647E-19
 -1       978 9.45963E-05-2.25909E-05-3.08595E-05 1.37046E-06 1.18184E-18-1.50848E-18
 -1       979 9.96982E-05-3.79518E-05-2.64466E-05 1.63487E-05-2.11351E-18-5.24813E-20
 -1       980 9.02952E-05-2.59783E-05-2.75640E-05 9.94965E-06-9.88449E-19-3.31189E-19
 -1       981 9.02586E-05-2.49133E-05-2.80051E-05 8.05545E-06-8.64669E-19-1.10546E-19
 -1       982 9.06543E-05-2.45408E-05-2.83345E-05 6.51599E-06-8.29500E-19 7.62462E-19
 -1       983 9.12465E-05-2.45991E-05-2.85633E-05 5.25813E-06 5.71515E-19 8.23692E-19
 -1       984 9.18969E-05-2.49062E-05-2.87104E-05 4.22062E-06-3.94794E-19-3.15072E-19
 -1       985 9.25277E-05-2.53391E-05-2.87952E-05 3.36059E-06-4.47449E-19 5.66780E-19
 -1       986 9.30980E-05-2.58164E-05-2.88350E-05 2.64821E-06 3.32951E-19 7.44478E-19
 -1       987 9.35896E-05-2.62868E-05-2.88441E-05 2.06147E-06 1.72847E-18 5.15128E-19
 -1       988 9.39978E-05-2.67197E-05-2.88334E-05 1.58204E-06 2.82695E-19 5.31010E-19
 -1       989 9.43250E-05-2.70997E-05-2.88111E-05 1.19489E-06-1.08954E-18 1.60522E-18
 -1       990 7.33691E-05-2.08117E-05-2.24935E-05-1.55057E-05 5.52009E-19-1.72424E-19
 -1       991 6.64276E-05-1.62530E-05-2.14903E-05 8.58656E-06-3.09487E-18 3.48898E-19
 -1       992 9.39746E-05-2.13674E-05-3.11173E-05-3.01747E-07 1.70737E-19-2.13157E-18
 -1       993 9.39874E-05-2.68508E-05-2.87726E-05-3.99551E-07-7.94723E-20-5.31539E-19
 -1       994 9.11360E-05-2.80937E-05-2.70180E-05 1.22605E-05-8.84681E-19-9.34137E-20
 -1       995 9.54946E-05-2.70594E-05-2.93294E-05-2.41658E-06 5.47633E-19-9.02481E-19
 -1       996 9.34014E-05-3.17578E-05-2.64128E-05 1.49624E-05-1.47656E-18-6.65733E-19
 -1       997 9.54922E-05-2.57577E-05-2.98867E-05 8.62102E-07-3.21943E-19-1.27683E-18
 -1       998 6.61915E-05-1.56544E-05-2.16127E-05-6.66860E-06 6.41596E-19 2.18247E-18
 -1       999 9.52722E-05-2.62106E-05-2.95980E-05 1.52093E-06-1.04434E-19-1.26673E-18
 -1      1000 7.26817E-05-2.15227E-05-2.18826E-05-1.65634E-05-5.88729E-19-1.67485E-18
 -1      1001 9.41962E-05-2.17685E-05-3.10359E-05-8.94173E-07-1.56962E-19-2.03452E-18
 -1      1002 7.03801E-05-1.73337E-05-2.27411E-05-7.86754E-06-4.81268E-20-2.02612E-18
 -1      1003 9.39358E-05-2.61823E-05-2.90372E-05-3.59075E-06 2.73053E-19-6.83929E-19
 -1      1004 7.67919E-05-2.13970E-05-2.37604E-05 1.34309E-05-2.47715E-18 1.59168E-18
 -1      1005 9.07989E-05-2.50084E-05-2.81959E-05-7.42916E-06 1.12136E-19 8.93025E-20
 -1      1006 9.45997E-05-2.64944E-05-2.91881E-05-2.94235E-06 4.07523E-19-6.65816E-19
 -1      1007 9.23483E-05-2.53471E-05-2.87148E-05-5.15290E-06 1.98685E-19-9.68813E-19
 -1      1008 9.56052E-05-2.58980E-05-2.98743E-05-8.59574E-07 9.02451E-19-8.14832E-19
 -1      1009 6.84306E-05-1.65909E-05-2.21341E-05 7.00258E-06 4.91665E-19-1.48931E-18
 -1      1010 9.42346E-05-2.70766E-05-2.87812E-05 7.71696E-07-1.22259E-18 1.35404E-18
 -1      1011 9.47625E-05-2.31711E-05-3.06819E-05-2.06107E-09 9.72901E-20-1.94377E-18
 -1      1012 9.39274E-05-2.68030E-05-2.87665E-05 2.10653E-08-9.95503E-19-1.18967E-18
 -1      1013 8.69262E-05-2.94220E-05-2.46146E-05 1.81769E-05-1.76316E-18-9.45121E-19
 -1      1014 9.03293E-05-2.54609E-05-2.78007E-05-9.00862E-06-2.33195E-19 3.79067E-19
 -1      1015 9.40095E-05-2.68815E-05-2.87695E-05 4.30876E-07-1.30919E-18-2.37453E-18
 -1      1016 6.96257E-05-1.58806E-05-2.30294E-05 1.42921E-06-1.29920E-18 6.42826E-19
 -1      1017 9.48517E-05-2.33614E-05-3.06398E-05 1.90222E-07 3.61067E-19-1.87398E-18
 -1      1018 9.44185E-05-3.34274E-05-2.60971E-05-1.63012E-05-1.27665E-18-1.20626E-19
 -1      1019 9.31716E-05-2.57671E-05-2.88876E-05-4.31060E-06 6.30942E-21-6.16221E-19
 -1      1020 9.31765E-05-2.53319E-05-2.90767E-05 1.79598E-06 3.23114E-19-8.10306E-19
 -1      1021 9.19254E-05-2.46160E-05-2.88474E-05 2.11119E-06-7.62385E-20-2.28503E-19
 -1      1022 9.03965E-05-2.37119E-05-2.85797E-05 2.44280E-06-2.94155E-20-7.69559E-20
 -1      1023 8.85578E-05-2.26781E-05-2.82351E-05 2.81233E-06-1.10882E-19-3.22436E-19
 -1      1024 8.63504E-05-2.15696E-05-2.77645E-05 3.25295E-06-2.97293E-19-9.13849E-19
 -1      1025 8.36733E-05-2.04361E-05-2.71037E-05 3.82947E-06-2.62063E-19-1.33986E-18
 -1      1026 8.03666E-05-1.93257E-05-2.61629E-05 4.67065E-06-1.31457E-19-2.29360E-18
 -1      1027 7.61275E-05-1.81771E-05-2.48310E-05 5.93663E-06 3.03936E-19-2.81534E-18
 -1      1028 9.54807E-05-2.64466E-05-2.95856E-05-1.63953E-06 7.29533E-19-8.24164E-19
 -1      1029 7.89396E-05-1.85761E-05-2.58758E-05-4.71564E-06 8.09714E-19 4.12475E-19
 -1      1030 8.22762E-05-1.95572E-05-2.68818E-05-3.75358E-06-1.14149E-18 5.02250E-19
 -1      1031 8.49545E-05-2.06031E-05-2.75807E-05-3.08070E-06-8.29901E-19 6.19423E-19
 -1      1032 8.71061E-05-2.16492E-05-2.80541E-05-2.56942E-06 3.88357E-19-7.89108E-19
 -1      1033 8.88525E-05-2.26632E-05-2.83677E-05-2.14490E-06 8.01363E-19-7.24443E-20
 -1      1034 9.02733E-05-2.36165E-05-2.85678E-05-1.77625E-06 2.33201E-18-5.59085E-19
 -1      1035 9.14242E-05-2.44865E-05-2.86881E-05-1.45190E-06 9.38870E-19 6.93736E-20
 -1      1036 9.23491E-05-2.52592E-05-2.87533E-05-1.16841E-06 1.00790E-18 7.46203E-19
 -1      1037 9.30891E-05-2.59312E-05-2.87817E-05-9.29023E-07 1.85439E-18-9.63587E-19
 -1      1038 9.35781E-05-2.64212E-05-2.87817E-05-6.26955E-07-6.99229E-20-5.37440E-19
 -1      1039 8.62428E-05-2.34272E-05-2.69218E-05-8.87897E-06-7.32359E-19 6.94410E-19
 -1      1040 8.88391E-05-2.31496E-05-2.81531E-05 4.84460E-06-2.09398E-19 5.79600E-20
 -1      1041 8.30853E-05-2.57229E-05-2.45750E-05-1.57416E-05-7.70513E-19-5.43537E-19
 -1      1042 8.76341E-05-2.28682E-05-2.77574E-05 6.20176E-06-1.64707E-18 1.21414E-19
 -1      1043 8.64351E-05-2.29671E-05-2.72018E-05 8.02320E-06-1.29942E-18-1.74218E-18
 -1      1044 8.99741E-05-2.36507E-05-2.84247E-05 3.80077E-06 5.59528E-19 1.35712E-18
 -1      1045 9.09971E-05-2.42597E-05-2.86021E-05 2.98094E-06 1.18480E-20 1.35560E-18
 -1      1046 9.18886E-05-2.48995E-05-2.87099E-05 2.32820E-06 8.28002E-19-1.64096E-19
 -1      1047 9.26442E-05-2.55193E-05-2.87680E-05 1.80507E-06 1.39310E-18-8.68310E-19
 -1      1048 9.32700E-05-2.60888E-05-2.87920E-05 1.38645E-06-1.72019E-20-1.21287E-18
 -1      1049 9.37766E-05-2.65916E-05-2.87938E-05 1.04710E-06-6.18258E-19 8.78994E-19
 -1      1050 7.24790E-05-1.70747E-05-2.37208E-05-6.75598E-06 4.36075E-20 9.21653E-19
 -1      1051 8.54374E-05-2.37266E-05-2.64515E-05 1.05733E-05-7.46104E-19-1.43504E-18
 -1      1052 9.51279E-05-2.66124E-05-2.93637E-05-2.31190E-06 3.49494E-19-7.48896E-19
 -1      1053 8.54487E-05-2.56956E-05-2.55870E-05 1.39799E-05-1.20094E-18-1.09612E-18
 -1      1054 9.53068E-05-2.48781E-05-3.01820E-05 2.61588E-07-2.54368E-19-1.78642E-18
 -1      1055 9.51338E-05-2.40290E-05-3.04737E-05 2.04264E-07 7.08854E-19-1.27404E-18
 -1      1056 8.51276E-05-2.42901E-05-2.60724E-05-1.15993E-05-8.76743E-19 1.78923E-20
 -1      1057 9.41626E-05-2.57979E-05-2.92996E-05 1.47811E-06-7.46546E-21-1.28712E-18
 -1      1058 9.48398E-05-2.33402E-05-3.06448E-05-1.94506E-07-2.32122E-19-1.87581E-18
 -1      1059 7.53751E-05-1.85497E-05-2.43507E-05 7.81595E-06-5.57875E-19 7.29262E-19
 -1      1060 9.37872E-05-2.58513E-05-2.91156E-05-2.43388E-06 4.80522E-19-4.93182E-19
 -1      1061 9.04125E-05-2.41182E-05-2.84121E-05-4.46818E-06 1.72948E-19-5.24538E-19
 -1      1062 9.34522E-05-2.63268E-05-2.87678E-05-8.43912E-08 7.94807E-19-1.41157E-18
 -1      1063 9.54348E-05-2.52829E-05-3.00654E-05-5.14993E-07 6.75920E-19-1.02046E-18
 -1      1064 9.28161E-05-2.53542E-05-2.89124E-05-2.98941E-06 1.12594E-19-6.41951E-19
 -1      1065 9.48660E-05-2.59296E-05-2.95442E-05 1.13851E-06 8.24949E-20-1.63794E-18
 -1      1066 8.90399E-05-2.35870E-05-2.80516E-05-5.52904E-06-5.45647E-20-2.72938E-19
 -1      1067 7.87021E-05-2.10183E-05-2.47068E-05-1.06115E-05-3.55089E-19-8.35827E-19
 -1      1068 9.52715E-05-2.56633E-05-2.98327E-05 7.39434E-07-1.76223E-19-1.70688E-18
 -1      1069 7.14011E-05-1.65575E-05-2.34548E-05-1.75713E-07 6.54454E-19-1.37298E-18
 -1      1070 8.76184E-05-2.32924E-05-2.75687E-05-6.94257E-06-2.28483E-19 6.19068E-20
 -1      1071 9.51995E-05-2.46264E-05-3.02448E-05 6.09416E-08-3.06254E-19-1.67798E-18
 -1      1072 9.52255E-05-2.46701E-05-3.02370E-05-1.20556E-07-5.83751E-20-1.45227E-18
 -1      1073 9.08468E-05-2.39549E-05-2.86675E-05 6.65852E-07-1.83371E-20-1.18866E-18
 -1      1074 8.90521E-05-2.29411E-05-2.83328E-05 6.66318E-07-1.01267E-19-1.10119E-18
 -1      1075 8.68921E-05-2.18081E-05-2.78928E-05 6.18609E-07-5.77570E-19-8.99639E-19
 -1      1076 8.42674E-05-2.05916E-05-2.72895E-05 5.06926E-07-4.27433E-19-1.34844E-18
 -1      1077 8.09958E-05-1.92966E-05-2.64426E-05 3.09320E-07-4.61748E-19-1.55921E-18
 -1      1078 7.67343E-05-1.78491E-05-2.52467E-05 1.26052E-07 1.03509E-19-1.19871E-18
 -1      1079 9.16827E-05-2.47448E-05-2.86879E-05-3.64763E-06 1.46278E-19-7.12943E-19
 -1      1080 7.68883E-05-1.75939E-05-2.54027E-05 5.75956E-07-4.21758E-20 4.46217E-19
 -1      1081 8.07025E-05-1.88207E-05-2.65180E-05 1.84570E-07-6.75788E-19 6.27286E-19
 -1      1082 8.37421E-05-2.00182E-05-2.73096E-05-1.01752E-07-1.32307E-18 1.35156E-18
 -1      1083 8.61310E-05-2.11397E-05-2.78529E-05-2.62012E-07-1.31769E-18 8.81163E-19
 -1      1084 8.80565E-05-2.22075E-05-2.82206E-05-3.39627E-07 3.91172E-19-4.23987E-19
 -1      1085 8.96221E-05-2.32087E-05-2.84625E-05-3.61528E-07 1.19541E-18-8.86198E-19
 -1      1086 9.08952E-05-2.41263E-05-2.86149E-05-3.47665E-07 2.29392E-18-4.16287E-19
 -1      1087 9.19242E-05-2.49466E-05-2.87045E-05-3.13104E-07 1.52384E-18-1.28270E-18
 -1      1088 9.27511E-05-2.56643E-05-2.87516E-05-2.72124E-07 1.28581E-18-2.35222E-18
 -1      1089 8.94200E-05-2.31787E-05-2.83891E-05 2.18035E-06-1.59226E-19 7.99324E-19
 -1      1090 9.35200E-05-2.54105E-05-2.91893E-05 5.64796E-07 4.92914E-19-1.38522E-18
 -1      1091 8.11756E-05-2.07646E-05-2.58878E-05-7.51332E-06-4.71098E-19-3.57898E-19
 -1      1092 8.79593E-05-2.23657E-05-2.81115E-05 2.86752E-06-1.01743E-18 4.83734E-19
 -1      1093 8.42348E-05-2.09743E-05-2.71126E-05 5.08270E-06-1.87159E-18-1.02841E-18
 -1      1094 9.06518E-05-2.39896E-05-2.85695E-05 1.66224E-06 7.93431E-19 1.62836E-18
 -1      1095 9.16777E-05-2.47583E-05-2.86798E-05 1.26599E-06 2.21775E-18 9.51000E-19
 -1      1096 9.25199E-05-2.54584E-05-2.87406E-05 9.61010E-07 1.74492E-18 1.99958E-18
 -1      1097 9.32096E-05-2.60831E-05-2.87684E-05 7.21714E-07 6.16120E-20 5.56111E-19
 -1      1098 9.23288E-05-2.47985E-05-2.89411E-05 6.29299E-07 3.23171E-19-1.33376E-18
 -1      1099 8.19284E-05-2.05757E-05-2.62978E-05 6.91971E-06-3.64705E-19 9.69667E-19
 -1      1100 9.53528E-05-2.59663E-05-2.97368E-05-1.11374E-06 6.32618E-19-5.56240E-19
 -1      1101 8.62427E-05-2.16061E-05-2.77014E-05 3.79682E-06-1.78063E-18-1.01306E-18
 -1      1102 9.53100E-05-2.49138E-05-3.01651E-05-2.98250E-07 3.77250E-19-1.02410E-18
 -1      1103 9.45668E-05-2.61431E-05-2.93248E-05-1.93363E-06 3.26318E-19-4.47683E-19
 -1      1104 8.39132E-05-2.12603E-05-2.68512E-05-5.54375E-06-8.26515E-19-6.35688E-22
 -1      1105 8.82831E-05-2.28055E-05-2.80623E-05-3.21125E-06-4.28262E-20-9.12885E-19
 -1      1106 9.44257E-05-2.57286E-05-2.94411E-05 4.73559E-07 3.81734E-19-1.43857E-18
 -1      1107 9.00453E-05-2.36744E-05-2.84451E-05-2.51176E-06 6.41707E-20-1.22686E-18
 -1      1108 9.50485E-05-2.61778E-05-2.95160E-05-1.53748E-06 3.34410E-19-6.78672E-19
 -1      1109 9.28457E-05-2.51877E-05-2.89966E-05-1.58267E-06 3.64808E-19-6.90933E-19
 -1      1110 9.51820E-05-2.53391E-05-2.99334E-05-6.15779E-08 9.85590E-20-1.29469E-18
 -1      1111 9.38882E-05-2.56762E-05-2.92339E-05-1.24073E-06 2.67981E-19-7.17273E-19
 -1      1112 8.62539E-05-2.19712E-05-2.75502E-05-4.17666E-06-6.97108E-19-4.96509E-19
 -1      1113 9.15635E-05-2.44948E-05-2.87441E-05-1.98916E-06 3.23382E-20-9.52089E-19
 -1      1114 9.52640E-05-2.56979E-05-2.98161E-05-7.13377E-07 3.88629E-19-8.97031E-19
 -1      1115 9.49164E-05-2.56781E-05-2.96732E-05 1.38581E-07 3.72211E-19-1.00646E-18
 -1      1116 9.50222E-05-2.57459E-05-2.96906E-05-5.79126E-07 5.76775E-19-1.06091E-18
 -1      1117 9.49499E-05-2.59354E-05-2.95776E-05-1.02218E-06 3.31611E-19-7.35283E-19
 -1      1118 9.44982E-05-2.58909E-05-2.94019E-05-1.15608E-06 2.38929E-19-9.43072E-19
 -1      1119 9.45337E-05-2.57750E-05-2.94681E-05-4.95057E-07 1.61630E-19-7.09644E-19
 -1      1120 1.16508E-04 2.56668E-10-4.17417E-05-4.13233E-05-3.41354E-19 1.04329E-17
 -1      1121 8.85254E-05 7.19326E-11-3.71961E-05-2.40613E-05-1.80418E-19 1.12708E-18
 -1      1122 8.40586E-05 4.15359E-11-3.57550E-05-1.77600E-05-1.15832E-19-2.77055E-18
 -1      1123 8.23819E-05 3.20716E-11-3.50898E-05-1.37060E-05-8.00446E-20-4.55769E-18
 -1      1124 8.16176E-05 2.72536E-11-3.47730E-05-1.03990E-05-5.30190E-20-5.30274E-18
 -1      1125 8.12308E-05 2.43864E-11-3.46171E-05-7.51989E-06-3.08704E-20-5.58676E-18
 -1      1126 8.10279E-05 2.26100E-11-3.45380E-05-4.88857E-06-1.45683E-20-5.64428E-18
 -1      1127 8.09268E-05 2.16330E-11-3.45001E-05-2.38313E-06 3.11682E-21-5.61449E-18
 -1      1128 8.08973E-05 2.13334E-11-3.44893E-05 5.25200E-08 1.00296E-20-5.52699E-18
 -1      1129 8.09303E-05 2.16772E-11-3.45012E-05 2.49068E-06 3.62669E-20-5.35715E-18
 -1      1130 8.10353E-05 2.27100E-11-3.45403E-05 5.00441E-06 4.35296E-20-5.11155E-18
 -1      1131 8.12444E-05 2.45456E-11-3.46205E-05 7.65185E-06 6.40966E-20-4.63647E-18
 -1      1132 8.16354E-05 2.75538E-11-3.47785E-05 1.05585E-05 8.51400E-20-3.83298E-18
 -1      1133 8.24035E-05 3.25329E-11-3.50989E-05 1.39095E-05 1.09929E-19-2.39015E-18
 -1      1134 8.40547E-05 4.20221E-11-3.57743E-05 1.80094E-05 1.43202E-19 8.02696E-20
 -1      1135 8.82250E-05 6.67735E-11-3.72658E-05 2.39048E-05 1.57760E-19 4.66453E-18
 -1      1136 1.06306E-04 1.63511E-10-4.05242E-05 3.60704E-05 2.98791E-19 1.37976E-17
 -1      1137 1.29750E-04-2.56667E-05-4.01444E-05-2.60086E-05-1.38289E-18 1.63227E-17
 -1      1138 9.71369E-05-2.87678E-05-3.14788E-05-6.74826E-07-4.46969E-19 1.31685E-17
 -1      1139 8.99270E-05-2.69586E-05-2.78218E-05 3.85618E-07-1.66336E-19 8.63436E-18
 -1      1140 8.81003E-05-2.65299E-05-2.66002E-05 2.48553E-07-1.21596E-19 5.53414E-18
 -1      1141 8.78511E-05-2.64370E-05-2.63787E-05 1.63388E-07-7.60940E-20 3.26108E-18
 -1      1142 8.83663E-05-2.65616E-05-2.65127E-05 1.15806E-07-5.06036E-20 1.90662E-18
 -1      1143 8.92813E-05-2.68163E-05-2.67865E-05 8.61621E-08-9.39909E-20 7.02879E-19
 -1      1144 9.04284E-05-2.71497E-05-2.71320E-05 6.67425E-08-2.79761E-20-2.88454E-19
 -1      1145 9.17357E-05-2.75368E-05-2.75267E-05 5.40518E-08-4.33186E-20-1.17123E-18
 -1      1146 9.31883E-05-2.79708E-05-2.79666E-05 4.66804E-08-4.35494E-20-2.30961E-18
 -1      1147 9.48101E-05-2.84575E-05-2.84591E-05 4.42855E-08-3.91170E-20-3.24771E-18
 -1      1148 9.66533E-05-2.90117E-05-2.90196E-05 4.71159E-08 1.09695E-19-2.55982E-18
 -1      1149 9.87895E-05-2.96541E-05-2.96689E-05 5.57739E-08-2.24191E-20-3.23208E-18
 -1      1150 1.01299E-04-3.04079E-05-3.04298E-05 7.09668E-08 6.87991E-20-3.10322E-18
 -1      1151 1.04254E-04-3.12933E-05-3.13210E-05 9.30181E-08 4.69673E-21-2.84963E-18
 -1      1152 1.07685E-04-3.23185E-05-3.23473E-05 1.20812E-07-1.91823E-19-3.65213E-18
 -1      1153 1.11535E-04-3.34639E-05-3.34828E-05 1.49737E-07-7.46894E-20-3.48067E-18
 -1      1154 1.15574E-04-3.46593E-05-3.46472E-05 1.68245E-07-1.40880E-19-3.42972E-18
 -1      1155 1.19295E-04-3.57521E-05-3.56774E-05 1.53665E-07 6.48179E-20-4.19130E-18
 -1      1156 1.21821E-04-3.64811E-05-3.63109E-05 7.06908E-08 2.21354E-21-5.21866E-18
 -1      1157 1.21925E-04-3.64838E-05-3.62128E-05-1.17976E-07-1.43790E-19-5.32172E-18
 -1      1158 1.18356E-04-3.54004E-05-3.50908E-05-4.16149E-07 3.18431E-20-3.31047E-18
 -1      1159 1.10640E-04-3.31112E-05-3.29115E-05-7.36581E-07 2.10987E-19-4.15141E-18
 -1      1160 1.00137E-04-3.00431E-05-3.01190E-05-8.82953E-07-2.74136E-20-4.03251E-18
 -1      1161 9.03924E-05-2.72296E-05-2.76344E-05-6.62357E-07-4.05451E-20-4.63645E-18
 -1      1162 8.57487E-05-2.59036E-05-2.64798E-05-8.69979E-08 2.54864E-19-5.02819E-18
 -1      1163 8.85618E-05-2.67054E-05-2.71788E-05 5.39127E-07 3.75672E-20-3.51418E-18
 -1      1164 9.73954E-05-2.92486E-05-2.94139E-05 8.66051E-07-2.71032E-19-4.83942E-18
 -1      1165 1.08138E-04-3.23765E-05-3.22355E-05 7.99888E-07 5.04911E-21-4.30727E-18
 -1      1166 1.16825E-04-3.49438E-05-3.46464E-05 5.02426E-07-7.55117E-20-3.79619E-18
 -1      1167 1.21519E-04-3.63570E-05-3.60677E-05 1.86057E-07-2.23603E-19-4.15618E-18
 -1      1168 1.22319E-04-3.66238E-05-3.64273E-05-3.26890E-08 5.97985E-20-4.71174E-18
 -1      1169 1.20378E-04-3.60713E-05-3.59759E-05-1.39350E-07 2.08107E-19-4.45694E-18
 -1      1170 1.16983E-04-3.50785E-05-3.50551E-05-1.66866E-07 8.18082E-22-4.81634E-18
 -1      1171 1.13122E-04-3.39389E-05-3.39543E-05-1.52838E-07-1.87321E-20-6.84374E-18
 -1      1172 1.09401E-04-3.28339E-05-3.28643E-05-1.23284E-07 1.22447E-19-5.12266E-18
 -1      1173 1.06119E-04-3.18551E-05-3.18871E-05-9.21120E-08-3.24429E-20-5.44530E-18
 -1      1174 1.03381E-04-3.10354E-05-3.10634E-05-6.51706E-08 1.75971E-19-4.67579E-18
 -1      1175 1.01182E-04-3.03750E-05-3.03973E-05-4.40291E-08-1.33932E-19-1.61458E-18
 -1      1176 9.94661E-05-2.98582E-05-2.98749E-05-2.83644E-08-2.64724E-19-4.78459E-18
 -1      1177 9.81583E-05-2.94633E-05-2.94754E-05-1.72119E-08-1.67268E-19-7.24057E-18
 -1      1178 9.71828E-05-2.91680E-05-2.91765E-05-9.52700E-09-2.22554E-19-5.57130E-18
 -1      1179 9.64708E-05-2.89520E-05-2.89578E-05-4.39192E-09-1.00872E-19-6.39308E-18
 -1      1180 9.59641E-05-2.87978E-05-2.88017E-05-1.05775E-09-1.01687E-19-3.77931E-18
 -1      1181 9.56151E-05-2.86912E-05-2.86940E-05 1.08405E-09-2.34868E-19-2.97754E-18
 -1      1182 9.53871E-05-2.86213E-05-2.86235E-05 2.56596E-09 7.44115E-20 3.37399E-19
 -1      1183 9.52530E-05-2.85798E-05-2.85820E-05 3.92644E-09 9.75513E-20-1.72289E-18
 -1      1184 9.51938E-05-2.85610E-05-2.85629E-05 5.71801E-09 3.73257E-19-3.31318E-18
 -1      1185 9.51963E-05-2.85624E-05-2.85593E-05 8.87196E-09-1.33297E-19-5.15868E-18
 -1      1186 9.52231E-05-2.85671E-05-2.85598E-05 4.38788E-09 5.65541E-19-1.89439E-18
 -1      1187 1.30582E-04-3.75952E-05-3.85370E-05 1.21377E-05-2.62051E-19 2.11881E-17
 -1      1188 9.62479E-05-2.80981E-05-3.12338E-05 7.99438E-07 1.25996E-19 1.74034E-17
 -1      1189 9.01471E-05-2.68633E-05-2.78048E-05 1.21936E-07 8.28703E-20 1.38184E-17
 -1      1190 8.81948E-05-2.64595E-05-2.66389E-05 1.30096E-08 7.75829E-20 1.12082E-17
 -1      1191 8.79012E-05-2.64020E-05-2.64086E-05-1.93477E-08 7.62826E-21 9.43206E-18
 -1      1192 8.83998E-05-2.65470E-05-2.65317E-05-2.65266E-08 3.90942E-20 8.00414E-18
 -1      1193 8.93066E-05-2.68118E-05-2.68001E-05-2.58896E-08 2.43410E-20 7.15951E-18
 -1      1194 9.04457E-05-2.71492E-05-2.71416E-05-2.24649E-08-2.41731E-20 6.77538E-18
 -1      1195 9.17392E-05-2.75352E-05-2.75309E-05-1.80272E-08 1.07094E-19 5.38239E-18
 -1      1196 9.31639E-05-2.79619E-05-2.79612E-05-1.36519E-08 3.98043E-20 4.27156E-18
 -1      1197 9.47311E-05-2.84319E-05-2.84356E-05-1.03416E-08 1.55828E-19 3.50864E-18
 -1      1198 9.64727E-05-2.89541E-05-2.89632E-05-9.23479E-09 1.35718E-19 2.64014E-18
 -1      1199 9.84289E-05-2.95401E-05-2.95550E-05-1.17166E-08 6.02994E-20 2.86665E-18
 -1      1200 1.00634E-04-3.01990E-05-3.02195E-05-1.94498E-08-6.25224E-20 2.93440E-18
 -1      1201 1.03094E-04-3.09318E-05-3.09558E-05-3.42145E-08 1.30749E-19 1.81024E-18
 -1      1202 1.05760E-04-3.17227E-05-3.17449E-05-5.73320E-08 1.32300E-19 9.14346E-19
 -1      1203 1.08486E-04-3.25275E-05-3.25376E-05-8.83257E-08 6.88007E-21 5.32651E-19
 -1      1204 1.10984E-04-3.32610E-05-3.32423E-05-1.22504E-07 2.02825E-20 1.78660E-18
 -1      1205 1.12789E-04-3.37872E-05-3.37178E-05-1.47732E-07 4.16866E-20 1.00275E-18
 -1      1206 1.13264E-04-3.39231E-05-3.37833E-05-1.42357E-07-4.61335E-20 1.41096E-18
 -1      1207 1.11723E-04-3.34722E-05-3.32606E-05-7.90239E-08 8.29563E-20 1.32177E-18
 -1      1208 1.07707E-04-3.23025E-05-3.20585E-05 5.93326E-08-2.34817E-19 1.68845E-18
 -1      1209 1.01422E-04-3.04661E-05-3.02815E-05 2.52183E-07 1.62159E-19 1.25774E-18
 -1      1210 9.40970E-05-2.83046E-05-2.82959E-05 4.24441E-07-5.50108E-20-2.58822E-19
 -1      1211 8.78893E-05-2.64376E-05-2.66704E-05 4.72927E-07-5.40381E-20-4.13881E-19
 -1      1212 8.50561E-05-2.55427E-05-2.59575E-05 3.40503E-07 3.08955E-19 7.50107E-19
 -1      1213 8.67414E-05-2.59968E-05-2.64209E-05 7.45291E-08-3.69799E-19 6.65133E-19
 -1      1214 9.22689E-05-2.76322E-05-2.78898E-05-1.97346E-07 2.45659E-19 7.45548E-19
 -1      1215 9.95625E-05-2.98310E-05-2.98541E-05-3.60771E-07-1.95277E-19-4.76985E-19
 -1      1216 1.06325E-04-3.18842E-05-3.17275E-05-3.82797E-07 1.14829E-19-1.33154E-18
 -1      1217 1.11042E-04-3.33179E-05-3.30895E-05-3.03837E-07-2.03572E-19-1.89172E-18
 -1      1218 1.13268E-04-3.39924E-05-3.37820E-05-1.87563E-07 1.04968E-19-1.44139E-18
 -1      1219 1.13340E-04-3.40126E-05-3.38632E-05-8.10831E-08-2.50374E-19 2.31301E-18
 -1      1220 1.11930E-04-3.35858E-05-3.35020E-05-4.84036E-09-2.11599E-19 4.09522E-18
 -1      1221 1.09717E-04-3.29182E-05-3.28857E-05 3.97917E-08 5.87096E-20 2.40671E-18
 -1      1222 1.07223E-04-3.21682E-05-3.21684E-05 5.99618E-08 5.23186E-20-4.66848E-19
 -1      1223 1.04791E-04-3.14378E-05-3.14554E-05 6.42962E-08 5.62577E-19-2.01886E-18
 -1      1224 1.02608E-04-3.07832E-05-3.08078E-05 5.98415E-08-4.81174E-19 4.12134E-19
 -1      1225 1.00756E-04-3.02277E-05-3.02532E-05 5.13975E-08 1.86683E-19-8.77533E-19
 -1      1226 9.92461E-05-2.97753E-05-2.97985E-05 4.18549E-08-3.94048E-20-3.46092E-18
 -1      1227 9.80559E-05-2.94184E-05-2.94381E-05 3.27678E-08 4.67216E-20-2.91768E-18
 -1      1228 9.71436E-05-2.91448E-05-2.91608E-05 2.48528E-08-3.59859E-20-1.22658E-19
 -1      1229 9.64632E-05-2.89407E-05-2.89532E-05 1.83443E-08-4.31163E-19-9.99805E-20
 -1      1230 9.59701E-05-2.87927E-05-2.88023E-05 1.32181E-08 2.02604E-19-1.07430E-18
 -1      1231 9.56255E-05-2.86892E-05-2.86965E-05 9.30658E-09 1.27630E-19-2.43029E-18
 -1      1232 9.53972E-05-2.86206E-05-2.86264E-05 6.33842E-09-1.22335E-20-3.65863E-18
 -1      1233 9.52607E-05-2.85795E-05-2.85844E-05 3.90836E-09 3.40119E-19-6.11360E-18
 -1      1234 9.51985E-05-2.85604E-05-2.85646E-05 1.14945E-09 4.23286E-19-8.84071E-18
 -1      1235 9.51966E-05-2.85589E-05-2.85604E-05-3.40922E-09 3.36065E-19-5.90961E-18
 -1      1236 9.52248E-05-2.85682E-05-2.85601E-05-4.08877E-09-8.04669E-20-4.60086E-18
 -1      1237 9.52402E-05-2.85841E-05-2.85605E-05-4.46077E-09-5.01867E-18-5.17383E-19
 -1      1238 9.52470E-05-2.86093E-05-2.85616E-05-7.17588E-09-5.99682E-18 7.77388E-19
 -1      1239 9.52442E-05-2.85994E-05-2.85677E-05-2.04612E-09 2.79730E-18 7.83358E-19
 -1      1240 9.52258E-05-2.85364E-05-2.85857E-05 1.85158E-09 7.36995E-18-8.53586E-19
 -1      1241 9.51961E-05-2.84345E-05-2.86139E-05 3.99397E-09 9.11276E-18-6.81486E-19
 -1      1242 9.51624E-05-2.83191E-05-2.86459E-05 4.51045E-09 4.71899E-18-1.65033E-18
 -1      1243 9.51319E-05-2.82148E-05-2.86751E-05 3.78861E-09 1.50360E-18-1.61913E-19
 -1      1244 9.51108E-05-2.81423E-05-2.86955E-05 2.09306E-09-1.41682E-18-4.66862E-20
 -1      1245 9.51035E-05-2.81173E-05-2.87025E-05-8.21841E-11-5.27741E-18 6.86499E-19
 -1      1246 9.51115E-05-2.81447E-05-2.86948E-05-2.25529E-09-9.34599E-18-2.71176E-19
 -1      1247 9.51333E-05-2.82193E-05-2.86738E-05-3.92609E-09-1.46360E-17-1.34627E-18
 -1      1248 9.51643E-05-2.83254E-05-2.86442E-05-4.65034E-09-1.59031E-17 4.96039E-19
 -1      1249 9.51981E-05-2.84415E-05-2.86119E-05-4.00281E-09-1.23269E-17 4.07679E-19
 -1      1250 9.52277E-05-2.85428E-05-2.85839E-05-1.76494E-09-6.53034E-18-7.79122E-20
 -1      1251 9.52465E-05-2.86050E-05-2.85664E-05 2.57284E-09-2.70608E-18 2.62792E-19
 -1      1252 9.52457E-05-2.86080E-05-2.85606E-05 1.15971E-08 2.55582E-20-1.13740E-18
 -1      1253 9.52409E-05-2.85859E-05-2.85602E-05 5.65961E-09 1.69764E-18 9.43743E-19
 -1      1254 3.42737E-05-1.06176E-04 1.78899E-05-1.33613E-05 3.29369E-18 1.41918E-18
 -1      1255 1.74229E-05-6.40998E-05 9.37524E-06-2.44202E-05 2.07676E-17 9.09015E-18
 -1      1256 7.40552E-06-8.43506E-06-6.05252E-06-3.01636E-08 2.87703E-17 1.80537E-17
 -1      1257 3.21262E-05 2.43456E-05-2.51516E-05 5.08633E-05 2.16248E-17 1.94115E-17
 -1      1258 1.03911E-04 1.40485E-05-4.55077E-05 9.87031E-05 1.36737E-17 1.83840E-17
 -1      1259 2.04306E-04-3.21706E-05-6.33835E-05 1.08029E-04 6.53317E-18 1.45808E-17
 -1      1260 2.85378E-04-7.88456E-05-7.45511E-05 6.22371E-05 1.60825E-18 5.19739E-18
 -1      1261 3.06393E-04-9.15370E-05-7.73008E-05-1.56926E-05 1.15482E-18-6.17656E-18
 -1      1262 2.59587E-04-6.33595E-05-7.12289E-05-8.56232E-05 5.24843E-18-1.76962E-17
 -1      1263 1.66908E-04-1.26906E-05-5.75169E-05-1.11258E-04 1.12977E-17-2.28343E-17
 -1      1264 7.56644E-05 2.28650E-05-3.90958E-05-8.67113E-05 1.62317E-17-2.03779E-17
 -1      1265 2.00264E-05 1.95244E-05-1.94733E-05-3.51776E-05 1.72574E-17-1.47528E-17
 -1      1266 8.06488E-06-2.41628E-05-9.40492E-07 1.09943E-05 1.61055E-17-8.83117E-18
 -1      1267 2.31241E-05-8.07276E-05 1.29680E-05 2.37432E-05 1.15374E-17-3.55563E-18
 -1      1268 3.64770E-05-1.11978E-04 1.88622E-05 4.21526E-06 2.55867E-18-1.19786E-18
 -1      1269 2.89111E-05-9.55383E-05 1.59279E-05-2.10320E-05-7.51657E-18-2.70177E-18
 -1      1270 1.16587E-05-4.60447E-05 4.99826E-06-2.17677E-05-1.71948E-17-8.12389E-18
 -1      1271 9.82962E-06 4.39375E-06-1.12523E-05 1.20332E-05-1.81333E-17-1.27512E-17
 -1      1272 4.61515E-05 2.54688E-05-3.03188E-05 6.42435E-05-1.64765E-17-1.70982E-17
 -1      1273 1.25294E-04 5.77956E-06-4.99910E-05 1.05061E-04-1.01424E-17-1.48587E-17
 -1      1274 2.23648E-04-4.21284E-05-6.63002E-05 1.05348E-04-3.97004E-18-9.22504E-18
 -1      1275 2.95567E-04-8.37538E-05-7.62269E-05 5.34441E-05-7.90758E-19-3.18866E-18
 -1      1276 3.11511E-04-9.37050E-05-7.80591E-05-2.37482E-05-1.20408E-18 5.26029E-18
 -1      1277 2.60060E-04-6.27240E-05-7.15818E-05-8.85565E-05-4.23495E-18 1.51653E-17
 -1      1278 1.67611E-04-1.29272E-05-5.76591E-05-1.10850E-04-7.14811E-18 1.53855E-17
 -1      1279 7.70986E-05 2.16489E-05-3.93215E-05-8.64277E-05-1.15806E-17 1.39489E-17
 -1      1280 2.14733E-05 1.94964E-05-2.02537E-05-3.64678E-05-1.84043E-17 1.56913E-17
 -1      1281 7.00488E-06-1.87879E-05-2.49775E-06 8.90155E-06-2.05151E-17 1.19279E-17
 -1      1282 1.97110E-05-7.19836E-05 1.11953E-05 2.64167E-05-1.52161E-17 5.04323E-18
 -1      1283 3.47090E-05-1.07850E-04 1.82849E-05 1.29800E-05-8.06714E-18 1.64245E-18
 -1      1284 1.04151E-04-2.19479E-05-3.77899E-05-1.72079E-05-5.15631E-19 8.38351E-18
 -1      1285 9.02373E-05-6.68528E-06-3.59778E-05-2.03522E-05-1.39506E-18-7.21460E-19
 -1      1286 9.25141E-05-6.74524E-06-3.71567E-05-2.56361E-05-1.81096E-18 1.33836E-18
 -1      1287 8.59120E-05-4.10367E-06-3.51289E-05-1.62959E-05-1.35520E-18-3.57284E-18
 -1      1288 8.71263E-05-4.09913E-06-3.55807E-05-1.87212E-05-1.56860E-18-2.35750E-18
 -1      1289 9.20812E-05-1.04701E-05-3.50670E-05-1.88906E-05-2.44798E-18-6.20505E-19
 -1      1290 8.41622E-05-3.19617E-06-3.47112E-05-1.26728E-05-1.07241E-18-4.91846E-18
 -1      1291 8.47468E-05-3.16560E-06-3.49241E-05-1.44911E-05-1.23651E-18-4.33549E-18
 -1      1292 8.78950E-05-7.39796E-06-3.45819E-05-1.52606E-05-2.14031E-18-2.97380E-18
 -1      1293 8.32695E-05-2.71933E-06-3.45095E-05-9.54315E-06-7.70198E-19-5.48537E-18
 -1      1294 8.35756E-05-2.70355E-06-3.46126E-05-1.10861E-05-8.91582E-19-5.24226E-18
 -1      1295 8.59330E-05-5.97464E-06-3.43356E-05-1.17964E-05-1.62987E-18-4.09183E-18
 -1      1296 8.27801E-05-2.43493E-06-3.44112E-05-6.79291E-06-4.45890E-19-5.66775E-18
 -1      1297 8.29472E-05-2.42704E-06-3.44625E-05-8.15160E-06-5.56785E-19-5.57150E-18
 -1      1298 8.48923E-05-5.18122E-06-3.42174E-05-8.79498E-06-1.13401E-18-4.57406E-18
 -1      1299 8.25001E-05-2.25732E-06-3.43619E-05-4.20863E-06-1.89140E-19-5.65547E-18
 -1      1300 8.25921E-05-2.25385E-06-3.43880E-05-5.49058E-06-2.70157E-19-5.68371E-18
 -1      1301 8.42995E-05-4.70153E-06-3.41616E-05-6.09567E-06-6.03489E-19-4.76277E-18
 -1      1302 8.23621E-05-2.15966E-06-3.43407E-05-1.75067E-06 1.25682E-19-5.62859E-18
 -1      1303 8.24024E-05-2.15835E-06-3.43515E-05-2.97769E-06 5.04944E-20-5.62787E-18
 -1      1304 8.39655E-05-4.41837E-06-3.41360E-05-3.56559E-06-1.38709E-19-4.67440E-18
 -1      1305 8.23339E-05-2.12931E-06-3.43381E-05 6.56929E-07 3.33048E-19-5.53185E-18
 -1      1306 8.23328E-05-2.12936E-06-3.43379E-05-5.53248E-07 2.62842E-19-5.62000E-18
 -1      1307 8.38162E-05-4.28801E-06-3.41263E-05-1.14313E-06 3.20695E-19-4.67917E-18
 -1      1308 8.24100E-05-2.16266E-06-3.43526E-05 3.08501E-06 5.78687E-19-5.36111E-18
 -1      1309 8.23672E-05-2.16405E-06-3.43413E-05 1.85538E-06 4.95161E-19-5.47056E-18
 -1      1310 8.38207E-05-4.29224E-06-3.41265E-05 1.24608E-06 6.73924E-19-4.61299E-18
 -1      1311 8.26077E-05-2.26420E-06-3.43899E-05 5.60709E-06 8.02464E-19-5.06196E-18
 -1      1312 8.25125E-05-2.26708E-06-3.43632E-05 4.31917E-06 7.36968E-19-5.24848E-18
 -1      1313 8.39799E-05-4.43191E-06-3.41366E-05 3.67284E-06 1.08150E-18-4.40116E-18
 -1      1314 8.29680E-05-2.44203E-06-3.44646E-05 8.26033E-06 1.05393E-18-4.54568E-18
 -1      1315 8.27978E-05-2.45013E-06-3.44128E-05 6.89281E-06 9.60992E-19-4.86207E-18
 -1      1316 8.43231E-05-4.72432E-06-3.41620E-05 6.18965E-06 1.46624E-18-4.06753E-18
 -1      1317 8.36150E-05-2.73313E-06-3.46168E-05 1.12475E-05 1.34466E-18-3.61195E-18
 -1      1318 8.33035E-05-2.74953E-06-3.45123E-05 9.68723E-06 1.20033E-18-4.16628E-18
 -1      1319 8.49324E-05-5.22180E-06-3.42177E-05 8.90508E-06 1.84838E-18-3.45505E-18
 -1      1320 8.48030E-05-3.20761E-06-3.49315E-05 1.46985E-05 1.65079E-18-2.10350E-18
 -1      1321 8.42124E-05-3.24361E-06-3.47159E-05 1.28560E-05 1.48102E-18-3.01920E-18
 -1      1322 8.60076E-05-6.05124E-06-3.43366E-05 1.19618E-05 2.28135E-18-2.48427E-18
 -1      1323 8.72265E-05-4.10139E-06-3.56014E-05 1.89587E-05 1.83044E-18 6.17381E-19
 -1      1324 8.59824E-05-4.16465E-06-3.51358E-05 1.65548E-05 1.62813E-18-1.00045E-18
 -1      1325 8.80169E-05-7.52308E-06-3.45830E-05 1.54926E-05 2.62685E-18-7.78503E-19
 -1      1326 9.33215E-05-6.79519E-06-3.70523E-05 2.49759E-05 1.52646E-18 5.52361E-18
 -1      1327 9.00527E-05-6.44278E-06-3.60000E-05 2.10273E-05 1.51587E-18 2.55592E-18
 -1      1328 9.23099E-05-1.07044E-05-3.50518E-05 1.95321E-05 2.69269E-18 2.26412E-18
 -1      1329 1.23253E-04-2.48483E-05-3.89070E-05 2.82562E-05 6.97426E-19 1.44131E-17
 -1      1330 9.98652E-05-1.43927E-05-3.72714E-05 2.39469E-05 7.30037E-19 8.26768E-18
 -1      1331 1.01505E-04-1.93148E-05-3.53392E-05 2.12750E-05 2.43288E-18 6.68351E-18
 -1      1332 1.02316E-04-2.77251E-05-3.46626E-05 7.28289E-06 1.26682E-18 1.39299E-17
 -1      1333 1.04874E-04-3.01518E-05-3.34393E-05-7.90278E-06-1.47595E-18 8.95801E-18
 -1      1334 9.80353E-05-2.77796E-05-3.06904E-05-4.94226E-06-1.37304E-18 7.20338E-18
 -1      1335 9.53122E-05-2.77923E-05-2.91960E-05-2.44401E-06-1.10390E-18 6.45299E-18
 -1      1336 9.31224E-05-2.75126E-05-2.81701E-05-1.99717E-06-1.05548E-18 4.85747E-18
 -1      1337 9.93352E-05-2.80100E-05-3.09360E-05-7.79415E-06-2.39589E-18 3.57699E-18
 -1      1338 9.14778E-05-2.71669E-05-2.75503E-05-7.84685E-07-8.86566E-19 4.26449E-18
 -1      1339 9.08109E-05-2.70850E-05-2.72635E-05-6.71856E-07-8.42123E-19 3.00080E-18
 -1      1340 9.46479E-05-2.77459E-05-2.87971E-05-3.01973E-06-1.90664E-18 2.38727E-18
 -1      1341 9.01201E-05-2.69186E-05-2.70389E-05-1.01056E-07-6.04868E-19 2.43281E-18
 -1      1342 9.01153E-05-2.69642E-05-2.70247E-05-3.84267E-08-6.06535E-19 1.59331E-18
 -1      1343 9.25503E-05-2.75009E-05-2.79098E-05-9.22808E-07-1.43964E-18 1.39398E-18
 -1      1344 8.99376E-05-2.69196E-05-2.69760E-05 2.58404E-07-4.25548E-19 1.30456E-18
 -1      1345 9.02497E-05-2.70372E-05-2.70672E-05 2.94163E-07-4.15193E-19 7.19277E-19
 -1      1346 9.17298E-05-2.73930E-05-2.75874E-05 1.12809E-07-9.80408E-19 6.00348E-19
 -1      1347 9.03680E-05-2.70725E-05-2.71094E-05 4.63987E-07-4.52661E-19 4.89082E-19
 -1      1348 9.08515E-05-2.72326E-05-2.72510E-05 4.85793E-07-3.94694E-19-3.82356E-20
 -1      1349 9.16688E-05-2.74321E-05-2.75409E-05 6.78895E-07-8.10824E-19-2.71216E-20
 -1      1350 9.11530E-05-2.73192E-05-2.73479E-05 5.93762E-07-2.45431E-19-1.84117E-19
 -1      1351 9.17427E-05-2.75060E-05-2.75205E-05 6.09229E-07-2.31750E-19-6.00652E-19
 -1      1352 9.20696E-05-2.75780E-05-2.76479E-05 1.01812E-06-6.89326E-19-2.38541E-19
 -1      1353 9.21700E-05-2.76281E-05-2.76553E-05 6.91120E-07-2.79542E-19-7.55851E-19
 -1      1354 9.28412E-05-2.78358E-05-2.78524E-05 7.05273E-07-2.87693E-19-1.20661E-18
 -1      1355 9.27723E-05-2.77981E-05-2.78534E-05 1.25066E-06-5.92783E-19-5.87100E-19
 -1      1356 9.33692E-05-2.79863E-05-2.80179E-05 7.83663E-07-2.99917E-19-1.32297E-18
 -1      1357 9.41217E-05-2.82158E-05-2.82397E-05 8.00163E-07-4.46280E-19-1.71550E-18
 -1      1358 9.36980E-05-2.80743E-05-2.81313E-05 1.44654E-06-4.89052E-19-8.01516E-19
 -1      1359 9.47458E-05-2.83935E-05-2.84348E-05 8.90567E-07-3.16422E-19-1.75827E-18
 -1      1360 9.55969E-05-2.86511E-05-2.86864E-05 9.12178E-07 4.86068E-20-1.85995E-18
 -1      1361 9.48175E-05-2.84009E-05-2.84717E-05 1.65167E-06-5.07260E-19-8.13804E-19
 -1      1362 9.63259E-05-2.88587E-05-2.89140E-05 1.02532E-06 5.16930E-20-2.22467E-18
 -1      1363 9.73046E-05-2.91542E-05-2.92036E-05 1.05403E-06-1.52152E-19-2.32110E-18
 -1      1364 9.61344E-05-2.87813E-05-2.88745E-05 1.89776E-06-2.58014E-19-1.27184E-18
 -1      1365 9.81558E-05-2.93969E-05-2.94691E-05 1.19606E-06-1.95673E-19-2.33132E-18
 -1      1366 9.92982E-05-2.97424E-05-2.98070E-05 1.23292E-06-1.52746E-19-2.55545E-18
 -1      1367 9.76739E-05-2.92250E-05-2.93460E-05 2.20531E-06-2.41841E-19-1.96497E-18
 -1      1368 1.00292E-04-3.00268E-05-3.01163E-05 1.40388E-06 9.27758E-20-2.56164E-18
 -1      1369 1.01633E-04-3.04351E-05-3.05125E-05 1.44842E-06 5.92625E-20-2.16249E-18
 -1      1370 9.94727E-05-2.97464E-05-2.98956E-05 2.58217E-06-1.07696E-19-1.92756E-18
 -1      1371 1.02785E-04-3.07673E-05-3.08699E-05 1.63864E-06-5.08534E-20-2.26463E-18
 -1      1372 1.04350E-04-3.12484E-05-3.13305E-05 1.68768E-06-2.21742E-19-2.57278E-18
 -1      1373 1.01568E-04-3.03619E-05-3.05315E-05 3.01753E-06-1.96963E-19-1.88654E-18
 -1      1374 1.05662E-04-3.16318E-05-3.17349E-05 1.87150E-06-4.16737E-19-2.42365E-18
 -1      1375 1.07443E-04-3.21876E-05-3.22560E-05 1.91722E-06-2.65302E-19-2.70002E-18
 -1      1376 1.03979E-04-3.10871E-05-3.12547E-05 3.47039E-06-4.40449E-19-1.86838E-18
 -1      1377 1.08886E-04-3.26193E-05-3.26955E-05 2.04385E-06 2.04631E-19-2.57994E-18
 -1      1378 1.10813E-04-3.32337E-05-3.32539E-05 2.07080E-06-8.52054E-20-2.47707E-18
 -1      1379 1.06688E-04-3.19316E-05-3.20515E-05 3.85145E-06 3.86657E-20-1.46603E-18
 -1      1380 1.12309E-04-3.36987E-05-3.36989E-05 2.05437E-06-2.07583E-19-2.45645E-18
 -1      1381 1.14204E-04-3.43235E-05-3.42394E-05 2.03617E-06-4.55082E-20-2.46496E-18
 -1      1382 1.09602E-04-3.28895E-05-3.28819E-05 4.00032E-06 4.26213E-20-1.44280E-18
 -1      1383 1.15600E-04-3.47868E-05-3.46357E-05 1.75236E-06-2.43019E-19-2.60469E-18
 -1      1384 1.17133E-04-3.53224E-05-3.50596E-05 1.65081E-06-3.41814E-19-3.13159E-18
 -1      1385 1.12509E-04-3.39227E-05-3.36687E-05 3.66834E-06-2.08347E-19-1.65154E-18
 -1      1386 1.18182E-04-3.57175E-05-3.53256E-05 9.57945E-07-5.81475E-20-3.07955E-18
 -1      1387 1.18850E-04-3.59984E-05-3.54902E-05 7.30999E-07-1.99562E-19-3.31620E-18
 -1      1388 1.15032E-04-3.49304E-05-3.42905E-05 2.53595E-06-5.18338E-19-1.64463E-18
 -1      1389 1.19222E-04-3.62162E-05-3.55296E-05-4.55477E-07 2.11209E-19-3.72151E-18
 -1      1390 1.18430E-04-3.60217E-05-3.52786E-05-8.25195E-07 7.91579E-20-3.60082E-18
 -1      1391 1.16605E-04-3.57075E-05-3.45942E-05 3.19124E-07-1.60447E-19-1.38656E-18
 -1      1392 1.17782E-04-3.59142E-05-3.50163E-05-2.38396E-06 2.08780E-20-2.89648E-18
 -1      1393 1.15104E-04-3.50476E-05-3.42580E-05-2.83487E-06 5.17219E-20-2.85048E-18
 -1      1394 1.16533E-04-3.59122E-05-3.44406E-05-2.97126E-06 1.61174E-19-1.87397E-18
 -1      1395 1.13274E-04-3.44825E-05-3.36980E-05-4.27539E-06 8.37438E-20-3.28463E-18
 -1      1396 1.08896E-04-3.29434E-05-3.25182E-05-4.61652E-06 1.34698E-19-3.29464E-18
 -1      1397 1.14238E-04-3.51386E-05-3.37849E-05-6.64274E-06-8.37636E-20-2.35355E-18
 -1      1398 1.06188E-04-3.19534E-05-3.17952E-05-5.11658E-06 8.08668E-20-3.17468E-18
 -1      1399 1.01279E-04-3.01329E-05-3.05199E-05-5.08046E-06-1.65931E-19-3.25367E-18
 -1      1400 1.09760E-04-3.32000E-05-3.27583E-05-9.11437E-06 9.64790E-20-2.61208E-18
 -1      1401 9.86454E-05-2.90744E-05-2.98820E-05-3.97107E-06-3.05369E-19-3.10183E-18
 -1      1402 9.51291E-05-2.77222E-05-2.89943E-05-3.42927E-06 1.03629E-20-3.12134E-18
 -1      1403 1.04332E-04-3.05865E-05-3.16818E-05-8.48767E-06-2.08489E-19-2.00687E-18
 -1      1404 9.38366E-05-2.71718E-05-2.87013E-05-8.91958E-07 6.28790E-20-3.45817E-18
 -1      1405 9.33877E-05-2.69964E-05-2.85898E-05-5.64049E-08-4.74233E-19-3.46595E-18
 -1      1406 1.00271E-04-2.85188E-05-3.09538E-05-4.05601E-06-2.93007E-19-1.46762E-18
 -1      1407 9.41787E-05-2.73342E-05-2.87681E-05 2.67889E-06-2.95217E-19-4.13185E-18
 -1      1408 9.70289E-05-2.84357E-05-2.94849E-05 3.33369E-06-3.62835E-19-4.24549E-18
 -1      1409 9.97479E-05-2.82380E-05-3.08655E-05 2.46451E-06-5.58142E-19-2.74712E-18
 -1      1410 9.94430E-05-2.94232E-05-3.00585E-05 4.87981E-06-5.03191E-19-3.96300E-18
 -1      1411 1.04201E-04-3.12066E-05-3.12845E-05 5.04598E-06-2.59635E-20-4.44279E-18
 -1      1412 1.03071E-04-2.99475E-05-3.14535E-05 7.70513E-06-5.53735E-19-3.89850E-18
 -1      1413 1.07017E-04-3.22660E-05-3.20155E-05 4.92197E-06 4.04763E-19-4.22013E-18
 -1      1414 1.11698E-04-3.39368E-05-3.32642E-05 4.65340E-06 1.74356E-19-3.96782E-18
 -1      1415 1.08415E-04-3.25638E-05-3.24834E-05 9.33961E-06 1.00299E-19-4.32889E-18
 -1      1416 1.13824E-04-3.46288E-05-3.38898E-05 3.37498E-06-1.39886E-19-2.89294E-18
 -1      1417 1.17012E-04-3.56868E-05-3.47800E-05 2.93059E-06-1.54650E-20-3.24938E-18
 -1      1418 1.13336E-04-3.47646E-05-3.35679E-05 7.50887E-06 5.07227E-19-3.33215E-18
 -1      1419 1.17984E-04-3.59093E-05-3.51308E-05 1.34629E-06-2.99439E-19-2.97240E-18
 -1      1420 1.19264E-04-3.62704E-05-3.55170E-05 9.46962E-07-1.82377E-20-3.31466E-18
 -1      1421 1.16273E-04-3.58483E-05-3.43521E-05 3.97978E-06 1.14442E-19-2.53035E-18
 -1      1422 1.19155E-04-3.61299E-05-3.55592E-05-3.50502E-07 3.74951E-19-2.98012E-18
 -1      1423 1.18844E-04-3.59604E-05-3.54989E-05-6.12468E-07 3.27947E-19-2.45084E-18
 -1      1424 1.16927E-04-3.58730E-05-3.46522E-05 5.09223E-07 1.17208E-19-1.39059E-18
 -1      1425 1.17974E-04-3.56096E-05-3.52940E-05-1.41811E-06-1.04208E-19-2.64546E-18
 -1      1426 1.16661E-04-3.51361E-05-3.49370E-05-1.54525E-06-1.16338E-19-3.17905E-18
 -1      1427 1.15776E-04-3.52242E-05-3.44756E-05-1.98119E-06-5.93452E-20-1.43926E-18
 -1      1428 1.15378E-04-3.46969E-05-3.45815E-05-1.90630E-06-5.21852E-19-3.33018E-18
 -1      1429 1.13606E-04-3.41034E-05-3.40800E-05-1.93800E-06-6.19466E-19-4.28719E-18
 -1      1430 1.13524E-04-3.42754E-05-3.39478E-05-3.33991E-06-6.73924E-19-1.68197E-18
 -1      1431 1.12184E-04-3.36534E-05-3.36621E-05-1.99117E-06 5.51574E-20-3.99024E-18
 -1      1432 1.10334E-04-3.30570E-05-3.31283E-05-1.96799E-06 2.82469E-19-3.79128E-18
 -1      1433 1.10787E-04-3.32679E-05-3.32259E-05-3.80530E-06-5.82013E-19-1.14155E-18
 -1      1434 1.08953E-04-3.26390E-05-3.27103E-05-1.84558E-06 1.14986E-20-3.81784E-18
 -1      1435 1.07241E-04-3.21009E-05-3.22111E-05-1.79700E-06-1.50745E-20-3.60161E-18
 -1      1436 1.07998E-04-3.23272E-05-3.24433E-05-3.70285E-06 2.13240E-19-1.88985E-18
 -1      1437 1.05998E-04-3.17349E-05-3.18293E-05-1.59496E-06 1.84513E-19-3.87944E-18
 -1      1438 1.04524E-04-3.12794E-05-3.13962E-05-1.53894E-06 1.02435E-19-3.48216E-18
 -1      1439 1.05410E-04-3.15058E-05-3.16902E-05-3.30335E-06 2.18761E-19-2.48722E-18
 -1      1440 1.03462E-04-3.09717E-05-3.10672E-05-1.31636E-06 2.81638E-19-3.80134E-18
 -1      1441 1.02250E-04-3.06020E-05-3.07095E-05-1.26239E-06 4.98697E-19-3.01343E-18
 -1      1442 1.03150E-04-3.08176E-05-3.10168E-05-2.78910E-06-1.02828E-19-2.57431E-18
 -1      1443 1.01375E-04-3.03510E-05-3.04373E-05-1.05106E-06 1.81444E-19-2.18510E-18
 -1      1444 1.00411E-04-3.00600E-05-3.01520E-05-1.00344E-06-2.13955E-19-2.19001E-18
 -1      1445 1.01256E-04-3.02573E-05-3.04437E-05-2.26644E-06 3.27509E-19-2.67499E-18
 -1      1446 9.97102E-05-2.98602E-05-2.99336E-05-8.17783E-07-1.29790E-18-1.97687E-18
 -1      1447 9.89640E-05-2.96368E-05-2.97120E-05-7.77863E-07-1.32673E-18-3.74406E-18
 -1      1448 9.97171E-05-2.98115E-05-2.99732E-05-1.78926E-06-8.42033E-19-1.92719E-18
 -1      1449 9.84157E-05-2.94810E-05-2.95410E-05-6.22326E-07-4.75669E-19-3.86630E-18
 -1      1450 9.78508E-05-2.93131E-05-2.93729E-05-5.89976E-07-5.14727E-19-4.94098E-18
 -1      1451 9.84980E-05-2.94635E-05-2.95976E-05-1.37943E-06-1.37099E-18-1.94954E-18
 -1      1452 9.74306E-05-2.91941E-05-2.92419E-05-4.63785E-07-2.94445E-19-5.02332E-18
 -1      1453 9.70120E-05-2.90706E-05-2.91170E-05-4.38194E-07-4.60238E-19-5.02710E-18
 -1      1454 9.75528E-05-2.91969E-05-2.93046E-05-1.04103E-06-4.83120E-19-2.70908E-18
 -1      1455 9.66966E-05-2.89814E-05-2.90187E-05-3.38140E-07-9.73327E-20-5.64217E-18
 -1      1456 9.63934E-05-2.88926E-05-2.89280E-05-3.18256E-07 4.57068E-19-5.39346E-18
 -1      1457 9.68347E-05-2.89963E-05-2.90809E-05-7.69187E-07-1.64620E-19-3.97248E-18
 -1      1458 9.61617E-05-2.88271E-05-2.88559E-05-2.40220E-07 5.94616E-19-3.46836E-18
 -1      1459 9.59481E-05-2.87650E-05-2.87919E-05-2.24953E-07 7.69117E-19-2.36403E-18
 -1      1460 9.63001E-05-2.88483E-05-2.89137E-05-5.55106E-07 1.53448E-18-2.98445E-18
 -1      1461 9.57824E-05-2.87182E-05-2.87403E-05-1.64675E-07 7.81350E-19-2.26915E-18
 -1      1462 9.56377E-05-2.86765E-05-2.86969E-05-1.52993E-07 1.07553E-18-1.49391E-18
 -1      1463 9.59115E-05-2.87414E-05-2.87917E-05-3.88773E-07 1.69512E-18-1.72321E-18
 -1      1464 9.55234E-05-2.86441E-05-2.86614E-05-1.06446E-07 1.03657E-18-5.47268E-19
 -1      1465 9.54319E-05-2.86181E-05-2.86339E-05-9.73998E-08 4.73583E-19 1.15214E-19
 -1      1466 9.56371E-05-2.86665E-05-2.87052E-05-2.60300E-07 2.20059E-18 2.24219E-19
 -1      1467 9.53573E-05-2.85968E-05-2.86110E-05-6.10173E-08-8.74975E-19 6.75772E-19
 -1      1468 9.53074E-05-2.85831E-05-2.85958E-05-5.37673E-08-8.59100E-19-6.82072E-19
 -1      1469 9.54514E-05-2.86160E-05-2.86465E-05-1.60627E-07-3.22303E-19 1.06354E-18
 -1      1470 9.52634E-05-2.85706E-05-2.85824E-05-2.50762E-08-1.82157E-19-1.04741E-18
 -1      1471 9.52465E-05-2.85670E-05-2.85767E-05-1.90523E-08 3.39585E-19-1.16834E-18
 -1      1472 9.53343E-05-2.85845E-05-2.86091E-05-8.24239E-08-8.89586E-19 2.19963E-18
 -1      1473 9.52239E-05-2.85602E-05-2.85698E-05 2.20262E-09 1.81797E-19-1.48249E-18
 -1      1474 9.52321E-05-2.85668E-05-2.85694E-05 7.25689E-09 4.54613E-20-5.26778E-19
 -1      1475 9.52687E-05-2.85687E-05-2.85870E-05-2.26381E-08 6.61255E-19 1.54002E-18
 -1      1476 9.52294E-05-2.85752E-05-2.85627E-05 1.03245E-08 1.48549E-19-3.34255E-19
 -1      1477 9.52428E-05-2.85766E-05-2.85707E-05 1.26707E-08 5.17845E-19 9.47606E-19
 -1      1478 9.63597E-05-2.82995E-05-2.97050E-05 2.95701E-06 1.17589E-18 1.13034E-17
 -1      1479 1.02271E-04-2.93204E-05-3.20745E-05 4.42048E-06 1.02015E-18 1.30661E-17
 -1      1480 1.02121E-04-2.66675E-05-3.26395E-05 1.26937E-05 1.99249E-18 8.78331E-18
 -1      1481 9.18957E-05-2.73877E-05-2.77213E-05 1.11158E-06 8.18922E-19 9.09269E-18
 -1      1482 9.38004E-05-2.75310E-05-2.86219E-05 1.43405E-06 7.92717E-19 1.04157E-17
 -1      1483 9.63543E-05-2.79915E-05-2.94935E-05 4.78898E-06 1.69957E-18 7.09460E-18
 -1      1484 9.01624E-05-2.69910E-05-2.70536E-05 2.79943E-07 6.01526E-19 7.42329E-18
 -1      1485 9.07274E-05-2.69934E-05-2.73105E-05 4.45472E-07 6.18056E-19 8.44452E-18
 -1      1486 9.29984E-05-2.75623E-05-2.80876E-05 1.76081E-06 1.35758E-18 5.73439E-18
 -1      1487 8.97799E-05-2.69114E-05-2.69195E-05-1.28022E-07 4.03241E-19 6.36259E-18
 -1      1488 8.97487E-05-2.68276E-05-2.69264E-05-3.39202E-08 3.67212E-19 6.95337E-18
 -1      1489 9.15605E-05-2.73220E-05-2.75405E-05 3.95838E-07 9.29473E-19 4.70142E-18
 -1      1490 9.01025E-05-2.70191E-05-2.70198E-05-3.47228E-07 3.25952E-19 5.33202E-18
 -1      1491 8.97755E-05-2.68802E-05-2.69244E-05-2.89229E-07 3.29941E-19 5.91040E-18
 -1      1492 9.11870E-05-2.72845E-05-2.73941E-05-3.04530E-07 7.32627E-19 3.91502E-18
 -1      1493 9.08256E-05-2.72401E-05-2.72406E-05-4.75057E-07 1.47217E-19 4.79635E-18
 -1      1494 9.03370E-05-2.70676E-05-2.70958E-05-4.36181E-07 1.58665E-19 4.94609E-18
 -1      1495 9.14247E-05-2.73889E-05-2.74521E-05-6.96139E-07 4.22395E-19 3.26655E-18
 -1      1496 9.17978E-05-2.75329E-05-2.75350E-05-5.59383E-07 4.14376E-19 4.23935E-18
 -1      1497 9.12099E-05-2.73382E-05-2.73607E-05-5.30204E-07 1.98707E-19 4.55729E-18
 -1      1498 9.20339E-05-2.75867E-05-2.76284E-05-9.35639E-07 3.88254E-19 2.82374E-18
 -1      1499 9.29494E-05-2.78773E-05-2.78832E-05-6.27637E-07 3.06183E-19 3.32835E-18
 -1      1500 9.22874E-05-2.76644E-05-2.76864E-05-6.02050E-07 4.76384E-19 3.92588E-18
 -1      1501 9.28900E-05-2.78486E-05-2.78830E-05-1.10436E-06 7.48167E-19 2.37052E-18
 -1      1502 9.42585E-05-2.82673E-05-2.82790E-05-6.97005E-07 2.73348E-19 2.55577E-18
 -1      1503 9.35258E-05-2.80349E-05-2.80606E-05-6.70748E-07 2.02505E-19 2.93736E-18
 -1      1504 9.39339E-05-2.81605E-05-2.81970E-05-1.24993E-06 6.15369E-19 1.79161E-18
 -1      1505 9.57323E-05-2.87059E-05-2.87244E-05-7.78014E-07 3.53726E-19 2.19508E-18
 -1      1506 9.49186E-05-2.84490E-05-2.84816E-05-7.48142E-07 3.00515E-19 2.57889E-18
 -1      1507 9.51453E-05-2.85186E-05-2.85634E-05-1.40166E-06 4.75030E-19 1.25773E-18
 -1      1508 9.73936E-05-2.92008E-05-2.92260E-05-8.75371E-07 3.04152E-19 1.79005E-18
 -1      1509 9.64818E-05-2.89129E-05-2.89539E-05-8.40213E-07 2.56578E-19 2.09099E-18
 -1      1510 9.65273E-05-2.89261E-05-2.89823E-05-1.57600E-06 3.27514E-19 1.21845E-18
 -1      1511 9.92681E-05-2.97609E-05-2.97906E-05-9.87143E-07 5.91327E-20 1.79456E-18
 -1      1512 9.82406E-05-2.94359E-05-2.94846E-05-9.46646E-07 3.17273E-20 1.57576E-18
 -1      1513 9.80933E-05-2.93892E-05-2.94563E-05-1.77711E-06 2.16158E-19 7.91034E-19
 -1      1514 1.01368E-04-3.03919E-05-3.04207E-05-1.10250E-06 2.27271E-19 1.36198E-18
 -1      1515 1.00216E-04-3.00267E-05-3.00789E-05-1.05899E-06 1.93712E-19 1.52266E-18
 -1      1516 9.98544E-05-2.99146E-05-2.99870E-05-1.99447E-06 2.57940E-19 4.60649E-19
 -1      1517 1.03670E-04-3.10896E-05-3.11077E-05-1.19813E-06 1.33709E-19 4.30716E-19
 -1      1518 1.02405E-04-3.06884E-05-3.07347E-05-1.15757E-06 2.68299E-19 1.03726E-18
 -1      1519 1.01804E-04-3.05049E-05-3.05695E-05-2.19779E-06 4.78617E-19 5.22034E-20
 -1      1520 1.06089E-04-3.18320E-05-3.18231E-05-1.23397E-06 2.31156E-19 3.63351E-19
 -1      1521 1.04762E-04-3.14117E-05-3.14353E-05-1.20753E-06 1.69547E-19 5.98488E-19
 -1      1522 1.03899E-04-3.11536E-05-3.11867E-05-2.33004E-06 2.94891E-19-1.78009E-20
 -1      1523 1.08442E-04-3.25679E-05-3.25088E-05-1.15013E-06-3.47183E-19 6.01142E-19
 -1      1524 1.07161E-04-3.21656E-05-3.21401E-05-1.15567E-06-2.99109E-19 3.25975E-19
 -1      1525 1.06034E-04-3.18370E-05-3.18021E-05-2.30078E-06-1.30021E-19 2.94006E-19
 -1      1526 1.10414E-04-3.32053E-05-3.30686E-05-8.69926E-07 2.46968E-19 1.09332E-18
 -1      1527 1.09368E-04-3.28849E-05-3.27755E-05-9.31819E-07 8.54941E-20 9.82737E-19
 -1      1528 1.08017E-04-3.25055E-05-3.23532E-05-1.98569E-06-2.02884E-19 2.37133E-19
 -1      1529 1.11552E-04-3.36041E-05-3.33679E-05-3.17498E-07-3.06523E-19 1.76868E-19
 -1      1530 1.11012E-04-3.34591E-05-3.32296E-05-4.62114E-07 8.74992E-20 5.82090E-19
 -1      1531 1.09553E-04-3.30715E-05-3.27495E-05-1.24387E-06 3.16426E-19 3.25400E-19
 -1      1532 1.11309E-04-3.35843E-05-3.32545E-05 5.39196E-07-8.65893E-21 8.10147E-19
 -1      1533 1.11601E-04-3.37268E-05-3.33602E-05 2.96191E-07-3.32599E-19 5.87000E-19
 -1      1534 1.10249E-04-3.34030E-05-3.28818E-05 2.95737E-08-4.91895E-19-2.32334E-19
 -1      1535 1.09205E-04-3.29697E-05-3.26085E-05 1.61790E-06-5.04309E-19 1.21099E-18
 -1      1536 1.10607E-04-3.34953E-05-3.30268E-05 1.29383E-06-2.17026E-19 1.35576E-18
 -1      1537 1.09684E-04-3.33311E-05-3.26493E-05 1.80293E-06-4.64472E-19 7.87886E-19
 -1      1538 1.05108E-04-3.16808E-05-3.14233E-05 2.65131E-06 7.13824E-20 1.56569E-18
 -1      1539 1.07675E-04-3.26035E-05-3.21527E-05 2.32028E-06-2.04737E-19 1.36785E-18
 -1      1540 1.07566E-04-3.26936E-05-3.20087E-05 3.77728E-06-8.50044E-19 1.25442E-18
 -1      1541 9.95766E-05-2.98659E-05-2.98841E-05 3.19558E-06 3.70069E-19 7.45971E-19
 -1      1542 1.02938E-04-3.10423E-05-3.08070E-05 2.98788E-06 3.70610E-19 1.45891E-18
 -1      1543 1.03975E-04-3.14376E-05-3.10305E-05 5.31515E-06 4.48742E-19 1.07530E-18
 -1      1544 9.39998E-05-2.79840E-05-2.83768E-05 2.81326E-06-5.63839E-20-4.71162E-20
 -1      1545 9.72952E-05-2.90900E-05-2.92569E-05 2.86132E-06 4.20539E-20 4.06946E-19
 -1      1546 9.95987E-05-2.97576E-05-2.99269E-05 5.59301E-06 4.09845E-19 1.03014E-18
 -1      1547 9.02457E-05-2.67005E-05-2.73774E-05 1.40373E-06-1.41534E-19 3.42665E-19
 -1      1548 9.23656E-05-2.73327E-05-2.79317E-05 1.74451E-06-2.21658E-19 2.90903E-20
 -1      1549 9.57242E-05-2.81622E-05-2.90104E-05 4.06367E-06-6.49568E-20 5.27887E-19
 -1      1550 8.97811E-05-2.65543E-05-2.72419E-05-5.82273E-07-1.74376E-19 7.00509E-19
 -1      1551 8.99010E-05-2.64447E-05-2.72701E-05-6.60788E-08 3.64674E-19 1.02651E-18
 -1      1552 9.37786E-05-2.73074E-05-2.85795E-05 9.88893E-07-1.17486E-19 8.40796E-19
 -1      1553 9.28071E-05-2.76127E-05-2.80227E-05-2.33024E-06 3.23229E-19 8.17546E-19
 -1      1554 9.08737E-05-2.68036E-05-2.75133E-05-1.85471E-06-2.20354E-19 4.50251E-19
 -1      1555 9.45660E-05-2.76081E-05-2.87840E-05-2.48795E-06-2.60198E-20 1.18367E-18
 -1      1556 9.81259E-05-2.94221E-05-2.94381E-05-3.17776E-06 4.82847E-19-3.76612E-19
 -1      1557 9.48923E-05-2.82410E-05-2.85758E-05-2.91676E-06 5.56828E-19 5.56712E-19
 -1      1558 9.77604E-05-2.89308E-05-2.95523E-05-4.97470E-06 8.61128E-19 3.98728E-19
 -1      1559 1.03875E-04-3.13134E-05-3.10238E-05-2.99262E-06-1.53993E-19-2.00482E-19
 -1      1560 1.00449E-04-3.01670E-05-3.00894E-05-2.98414E-06-4.46367E-19-7.18549E-19
 -1      1561 1.02118E-04-3.06858E-05-3.06284E-05-5.68770E-06-7.41716E-20 3.90747E-19
 -1      1562 1.08480E-04-3.27630E-05-3.23522E-05-2.11080E-06-2.09191E-19-6.08620E-19
 -1      1563 1.05770E-04-3.19367E-05-3.15905E-05-2.27742E-06 3.56091E-19 1.14614E-20
 -1      1564 1.06210E-04-3.22308E-05-3.16927E-05-4.77492E-06 7.02111E-21 2.09614E-19
 -1      1565 1.11170E-04-3.35547E-05-3.31783E-05-1.01136E-06 3.57693E-19-1.17341E-18
 -1      1566 1.09603E-04-3.31421E-05-3.27186E-05-1.24131E-06 1.14349E-20-1.31671E-18
 -1      1567 1.09063E-04-3.31953E-05-3.24903E-05-2.97220E-06 3.77433E-19-6.22040E-19
 -1      1568 1.11936E-04-3.37275E-05-3.34614E-05-4.94082E-08-9.13475E-19-4.18214E-19
 -1      1569 1.11493E-04-3.36787E-05-3.33142E-05-2.59616E-07-5.43716E-19-9.42615E-19
 -1      1570 1.10350E-04-3.35284E-05-3.28991E-05-1.05432E-06-5.11092E-19-4.39803E-19
 -1      1571 1.11209E-04-3.34462E-05-3.32991E-05 6.19663E-07-7.92912E-19 2.07921E-18
 -1      1572 1.11620E-04-3.36486E-05-3.33997E-05 4.66971E-07-9.73678E-19 3.52945E-19
 -1      1573 1.10239E-04-3.33683E-05-3.29254E-05 4.90782E-07-1.53635E-18-5.44086E-19
 -1      1574 1.09542E-04-3.28955E-05-3.28421E-05 9.89461E-07 1.09082E-18 9.67080E-19
 -1      1575 1.10478E-04-3.32353E-05-3.31009E-05 8.98559E-07 6.35695E-19 1.91747E-18
 -1      1576 1.09125E-04-3.29020E-05-3.26542E-05 1.49544E-06 3.88179E-19-9.65915E-20
 -1      1577 1.07429E-04-3.22277E-05-3.22349E-05 1.12460E-06-1.89863E-19 5.59723E-19
 -1      1578 1.08602E-04-3.26170E-05-3.25700E-05 1.08360E-06 2.14645E-19 1.07969E-18
 -1      1579 1.07431E-04-3.22899E-05-3.21960E-05 2.00047E-06 5.95398E-19-5.97608E-19
 -1      1580 1.05224E-04-3.15476E-05-3.15873E-05 1.10479E-06 9.16508E-19-1.01520E-18
 -1      1581 1.06434E-04-3.19296E-05-3.19386E-05 1.09789E-06 5.67068E-19 4.16370E-20
 -1      1582 1.05506E-04-3.16441E-05-3.16517E-05 2.13330E-06 1.05188E-18-3.68638E-19
 -1      1583 1.03152E-04-3.09177E-05-3.09705E-05 9.97868E-07-2.57006E-19-1.48753E-18
 -1      1584 1.04277E-04-3.12612E-05-3.13005E-05 1.01122E-06 2.13843E-19-1.32091E-18
 -1      1585 1.03592E-04-3.10320E-05-3.10964E-05 2.02969E-06 4.89717E-19-1.31046E-18
 -1      1586 1.01327E-04-3.03686E-05-3.04231E-05 8.52296E-07 2.98629E-20 5.48421E-20
 -1      1587 1.02307E-04-3.06605E-05-3.07124E-05 8.75781E-07-5.77605E-19-6.80207E-19
 -1      1588 1.01836E-04-3.04886E-05-3.05782E-05 1.79940E-06-8.97208E-19-8.21025E-19
 -1      1589 9.97944E-05-2.99106E-05-2.99605E-05 6.98714E-07 6.39665E-19-2.34144E-18
 -1      1590 1.00609E-04-3.01486E-05-3.02023E-05 7.25721E-07 7.49689E-19-9.99638E-19
 -1      1591 1.00310E-04-3.00276E-05-3.01224E-05 1.51871E-06 1.10599E-18-2.52643E-18
 -1      1592 9.85516E-05-2.95413E-05-2.95841E-05 5.54397E-07-7.56895E-19-1.81842E-18
 -1      1593 9.92048E-05-2.97290E-05-2.97787E-05 5.81016E-07 3.78245E-20-1.77979E-18
 -1      1594 9.90354E-05-2.96496E-05-2.97387E-05 1.23485E-06 2.39872E-19-9.33356E-19
 -1      1595 9.75736E-05-2.92520E-05-2.92870E-05 4.27649E-07 9.42986E-21-9.18807E-19
 -1      1596 9.80821E-05-2.93958E-05-2.94390E-05 4.51824E-07 4.82188E-20-8.74419E-19
 -1      1597 9.80054E-05-2.93484E-05-2.94264E-05 9.73766E-07-3.58292E-19 3.92984E-19
 -1      1598 9.68244E-05-2.90311E-05-2.90589E-05 3.21216E-07-1.76244E-19-8.40722E-20
 -1      1599 9.72095E-05-2.91385E-05-2.91744E-05 3.42078E-07-4.90045E-19-1.00712E-18
 -1      1600 9.71956E-05-2.91143E-05-2.91796E-05 7.47267E-07-3.97718E-19 2.77296E-20
 -1      1601 9.62653E-05-2.88669E-05-2.88884E-05 2.34643E-07-2.77071E-19-2.98333E-19
 -1      1602 9.65491E-05-2.89447E-05-2.89737E-05 2.52043E-07-1.07989E-19-3.19140E-19
 -1      1603 9.65749E-05-2.89367E-05-2.89896E-05 5.58462E-07-1.62543E-19 1.55605E-19
 -1      1604 9.58601E-05-2.87482E-05-2.87646E-05 1.65762E-07 8.63466E-19-9.47808E-19
 -1      1605 9.60628E-05-2.88027E-05-2.88257E-05 1.79973E-07 3.91873E-19-9.15577E-19
 -1      1606 9.61113E-05-2.88052E-05-2.88471E-05 4.05483E-07 7.51824E-19-4.75211E-19
 -1      1607 9.55774E-05-2.86656E-05-2.86782E-05 1.11576E-07 1.34454E-19-2.48066E-18
 -1      1608 9.57160E-05-2.87020E-05-2.87200E-05 1.23125E-07 4.49045E-19-1.81761E-18
 -1      1609 9.57751E-05-2.87105E-05-2.87434E-05 2.83821E-07 5.09246E-19-4.73497E-19
 -1      1610 9.53914E-05-2.86113E-05-2.86213E-05 6.88484E-08 4.91771E-19-3.03481E-18
 -1      1611 9.54796E-05-2.86335E-05-2.86480E-05 7.83847E-08 7.25071E-19-2.25083E-18
 -1      1612 9.55403E-05-2.86449E-05-2.86708E-05 1.87801E-07 8.38237E-19-1.42735E-18
 -1      1613 9.52821E-05-2.85796E-05-2.85879E-05 3.46273E-08 1.02018E-18-4.50183E-18
 -1      1614 9.53301E-05-2.85904E-05-2.86025E-05 4.28277E-08 6.69716E-19-3.14613E-18
 -1      1615 9.53857E-05-2.86020E-05-2.86230E-05 1.11689E-07 1.05761E-18-1.83463E-18
 -1      1616 9.52333E-05-2.85661E-05-2.85722E-05 6.79102E-09-7.01640E-19-4.95662E-18
 -1      1617 9.52491E-05-2.85674E-05-2.85777E-05 1.43732E-08-1.22350E-19-4.78117E-18
 -1      1618 9.52936E-05-2.85767E-05-2.85942E-05 5.09886E-08 5.61313E-19-1.65930E-18
 -1      1619 9.52289E-05-2.85683E-05-2.85671E-05-1.11970E-08 1.22569E-19-3.66935E-18
 -1      1620 9.52212E-05-2.85622E-05-2.85674E-05-5.83111E-09-2.49840E-19-4.53297E-18
 -1      1621 9.52489E-05-2.85677E-05-2.85783E-05 4.40206E-09-4.04932E-19-2.03013E-18
 -1      1622 9.52310E-05-2.85757E-05-2.85634E-05-9.08042E-09-2.07757E-18-2.70589E-18
 -1      1623 9.52465E-05-2.85804E-05-2.85718E-05 1.50985E-09-9.92410E-19 2.82479E-18
 -1      1624 9.52432E-05-2.85771E-05-2.85702E-05-2.94855E-09-3.19950E-18 1.30641E-18
 -1      1625 9.52351E-05-2.85408E-05-2.85842E-05 2.74741E-08 2.54272E-18 2.04326E-18
 -1      1626 9.52410E-05-2.85603E-05-2.85779E-05 2.18896E-08-3.51321E-19 2.80913E-18
 -1      1627 9.52412E-05-2.85410E-05-2.85868E-05 2.67122E-08-1.47410E-20 3.64251E-18
 -1      1628 9.52098E-05-2.84651E-05-2.86055E-05 4.99538E-08 3.59341E-18-3.13252E-19
 -1      1629 9.52236E-05-2.85063E-05-2.85937E-05 4.59343E-08 3.46555E-18 7.80083E-19
 -1      1630 9.52226E-05-2.84845E-05-2.86034E-05 7.37354E-08 3.63909E-19 1.98031E-18
 -1      1631 9.51768E-05-2.83668E-05-2.86331E-05 6.15378E-08 5.37212E-18-9.18874E-19
 -1      1632 9.51947E-05-2.84205E-05-2.86179E-05 6.01622E-08 5.12183E-18 6.86268E-19
 -1      1633 9.51933E-05-2.84033E-05-2.86251E-05 1.08148E-07 1.49130E-18 6.26989E-19
 -1      1634 9.51435E-05-2.82672E-05-2.86614E-05 6.01735E-08 1.49173E-18-2.95842E-18
 -1      1635 9.51613E-05-2.83205E-05-2.86462E-05 6.14238E-08 4.86266E-18-2.82153E-18
 -1      1636 9.51593E-05-2.83103E-05-2.86495E-05 1.19873E-07 1.75608E-18-3.44766E-18
 -1      1637 9.51152E-05-2.81824E-05-2.86855E-05 4.66702E-08-1.02648E-19-9.37452E-19
 -1      1638 9.51297E-05-2.82258E-05-2.86731E-05 5.02141E-08 1.36016E-18-1.21254E-18
 -1      1639 9.51268E-05-2.82210E-05-2.86730E-05 1.07338E-07 1.28624E-18-3.21447E-18
 -1      1640 9.50980E-05-2.81305E-05-2.87003E-05 2.39943E-08-1.73464E-18-8.13461E-19
 -1      1641 9.51059E-05-2.81543E-05-2.86935E-05 2.90404E-08-4.52825E-19-8.76497E-19
 -1      1642 9.51012E-05-2.81505E-05-2.86916E-05 7.35397E-08-8.59302E-19-1.72534E-18
 -1      1643 9.50950E-05-2.81213E-05-2.87029E-05-3.34490E-09-4.10998E-18-1.51465E-18
 -1      1644 9.50948E-05-2.81207E-05-2.87031E-05 2.22605E-09-2.82516E-18-1.00483E-19
 -1      1645 9.50873E-05-2.81120E-05-2.87018E-05 2.54812E-08-1.04835E-18-2.22435E-18
 -1      1646 9.51066E-05-2.81565E-05-2.86929E-05-3.01215E-08-7.36374E-18-1.48446E-18
 -1      1647 9.50984E-05-2.81316E-05-2.87000E-05-2.50880E-08-5.45885E-18-1.22640E-18
 -1      1648 9.50875E-05-2.81126E-05-2.87017E-05-2.75574E-08-2.60145E-18-2.84790E-18
 -1      1649 9.51309E-05-2.82295E-05-2.86720E-05-5.11461E-08-9.08446E-18-1.84873E-18
 -1      1650 9.51161E-05-2.81851E-05-2.86847E-05-4.76570E-08-7.17487E-18-1.89501E-18
 -1      1651 9.51018E-05-2.81520E-05-2.86912E-05-7.54827E-08-3.43702E-18-2.11498E-18
 -1      1652 9.51625E-05-2.83244E-05-2.86451E-05-6.19759E-08-8.22150E-18 9.10523E-19
 -1      1653 9.51445E-05-2.82705E-05-2.86604E-05-6.07929E-08-8.37260E-18 1.70599E-19
 -1      1654 9.51275E-05-2.82228E-05-2.86725E-05-1.08753E-07-3.39481E-18-9.12197E-19
 -1      1655 9.51965E-05-2.84256E-05-2.86165E-05-6.02122E-08-5.42031E-18 1.26792E-18
 -1      1656 9.51785E-05-2.83719E-05-2.86317E-05-6.17352E-08-8.13136E-18 1.96343E-18
 -1      1657 9.51603E-05-2.83128E-05-2.86488E-05-1.20618E-07-3.01491E-18 2.39745E-18
 -1      1658 9.52250E-05-2.85109E-05-2.85925E-05-4.51769E-08-3.93199E-18 1.32919E-18
 -1      1659 9.52116E-05-2.84702E-05-2.86041E-05-4.93631E-08-6.07362E-18 2.16612E-18
 -1      1660 9.51948E-05-2.84069E-05-2.86242E-05-1.07724E-07-2.87655E-18 2.11178E-18
 -1      1661 9.52431E-05-2.85634E-05-2.85773E-05-2.13750E-08-2.14798E-18 1.34438E-18
 -1      1662 9.52359E-05-2.85443E-05-2.85831E-05-2.73336E-08-3.29062E-18 9.78713E-19
 -1      1663 9.52230E-05-2.84868E-05-2.86026E-05-7.19019E-08-2.59343E-18 1.84661E-18
 -1      1664 9.52453E-05-2.85712E-05-2.85737E-05-1.54531E-09-3.66381E-19 9.93143E-20
 -1      1665 9.52477E-05-2.85731E-05-2.85757E-05-7.49623E-09-1.21204E-18 1.17210E-18
 -1      1666 9.52454E-05-2.85314E-05-2.85915E-05-3.64460E-08-1.98939E-18 2.25326E-18
 -1      1667 9.52524E-05-2.85527E-05-2.85844E-05-1.05213E-08-3.37015E-19 1.03285E-18
 -1      1668 2.04430E-05-6.66036E-05 1.37423E-05-6.08172E-06 7.16293E-18 6.15306E-18
 -1      1669 2.38876E-05-7.65168E-05 1.58290E-05 1.92701E-06 7.32683E-20 3.57321E-18
 -1      1670 1.94101E-05-3.77840E-05 3.66280E-06 3.42406E-06 1.59784E-17 1.06103E-17
 -1      1671 2.39348E-05-6.07107E-05 9.67587E-06-5.07277E-07 9.32837E-18 7.72108E-18
 -1      1672 3.48276E-05-1.13906E-05-1.19310E-05 2.84489E-05 1.83264E-17 1.24527E-17
 -1      1673 2.90243E-05-3.16386E-05-3.40534E-06 1.10176E-05 1.70372E-17 1.05405E-17
 -1      1674 7.28262E-05-7.55570E-07-3.02315E-05 5.89262E-05 1.44131E-17 1.30231E-17
 -1      1675 4.90995E-05-6.52000E-06-2.06140E-05 3.64918E-05 1.80138E-17 1.27860E-17
 -1      1676 1.39590E-04-1.74584E-05-4.90817E-05 7.47604E-05 8.95483E-18 1.11317E-17
 -1      1677 9.84565E-05-5.57412E-06-3.94625E-05 6.21242E-05 1.16806E-17 1.26089E-17
 -1      1678 2.06146E-04-4.28886E-05-6.45383E-05 6.39095E-05 5.10920E-18 7.19131E-18
 -1      1679 1.63093E-04-2.20382E-05-5.73361E-05 7.31907E-05 7.63515E-18 1.01398E-17
 -1      1680 2.46456E-04-6.15742E-05-7.29913E-05 2.34793E-05 2.96843E-18 4.37916E-19
 -1      1681 2.22994E-04-4.83697E-05-6.95992E-05 5.24472E-05 4.18127E-18 5.31259E-18
 -1      1682 2.42763E-04-5.84653E-05-7.31811E-05-2.62327E-05 4.17630E-18-6.80718E-18
 -1      1683 2.48569E-04-6.17920E-05-7.39899E-05 7.52996E-06 3.17235E-18-1.73441E-18
 -1      1684 2.02548E-04-3.86415E-05-6.57487E-05-6.39692E-05 6.40182E-18-1.32857E-17
 -1      1685 2.35337E-04-5.63919E-05-7.06645E-05-4.13063E-05 4.66525E-18-9.19793E-18
 -1      1686 1.39175E-04-1.39382E-05-5.14767E-05-7.30127E-05 9.42494E-18-1.48349E-17
 -1      1687 1.82611E-04-3.27637E-05-5.95009E-05-7.24047E-05 7.43144E-18-1.45613E-17
 -1      1688 7.90319E-05-1.23696E-06-3.37413E-05-5.72245E-05 1.20465E-17-1.33848E-17
 -1      1689 1.14402E-04-7.76462E-06-4.31447E-05-7.44278E-05 1.06811E-17-1.50247E-17
 -1      1690 4.09258E-05-1.17421E-05-1.54909E-05-2.83808E-05 1.21041E-17-9.62907E-18
 -1      1691 5.86429E-05-1.10894E-06-2.47390E-05-5.03390E-05 1.22786E-17-1.20169E-17
 -1      1692 2.52012E-05-4.05710E-05 1.40663E-06-4.49171E-06 9.88826E-18-5.75284E-18
 -1      1693 2.64244E-05-1.65575E-05-6.91636E-06-1.89767E-05 1.16874E-17-8.08789E-18
 -1      1694 2.39562E-05-6.65227E-05 1.22151E-05-5.27255E-07 5.17368E-18-3.22857E-18
 -1      1695 1.90788E-05-4.70353E-05 7.37661E-06 7.07641E-08 8.37716E-18-4.61231E-18
 -1      1696 2.23944E-05-7.41155E-05 1.58354E-05-4.55528E-06-5.13673E-19-2.57794E-18
 -1      1697 2.12256E-05-7.06476E-05 1.51057E-05 4.99820E-06 3.98995E-18-3.13360E-18
 -1      1698 1.90721E-05-5.65095E-05 1.07517E-05-4.41632E-06-6.92026E-18-4.83772E-18
 -1      1699 2.35202E-05-7.14316E-05 1.42752E-05 2.35915E-07-2.36068E-18-2.63512E-18
 -1      1700 2.14142E-05-2.87781E-05-6.52410E-07 7.86496E-06-1.15188E-17-7.43187E-18
 -1      1701 2.40743E-05-5.18281E-05 6.10795E-06-2.48938E-07-8.85488E-18-5.48221E-18
 -1      1702 4.25107E-05-6.63164E-06-1.68183E-05 3.58393E-05-1.14892E-17-9.96788E-18
 -1      1703 3.24360E-05-2.30397E-05-8.13545E-06 1.62975E-05-1.16696E-17-7.52716E-18
 -1      1704 8.80561E-05-3.61867E-06-3.50145E-05 6.46434E-05-1.00204E-17-1.03118E-17
 -1      1705 6.00491E-05-4.59322E-06-2.55591E-05 4.38063E-05-1.13265E-17-1.04490E-17
 -1      1706 1.56066E-04-2.36248E-05-5.29452E-05 7.42255E-05-6.21129E-18-6.70172E-18
 -1      1707 1.13921E-04-9.40172E-06-4.38613E-05 6.55536E-05-8.78543E-18-8.83371E-18
 -1      1708 2.17951E-04-4.78482E-05-6.69769E-05 6.06424E-05-3.14869E-18-3.78708E-18
 -1      1709 1.78062E-04-2.78209E-05-6.06266E-05 7.32346E-05-5.18024E-18-6.75678E-18
 -1      1710 2.50822E-04-6.28095E-05-7.40523E-05 1.62770E-05-1.86495E-18 2.75286E-19
 -1      1711 2.30457E-04-5.16279E-05-7.10837E-05 4.60752E-05-2.29165E-18-2.51145E-18
 -1      1712 2.49070E-04-6.11020E-05-7.41304E-05-3.10176E-05-3.64478E-18 6.80167E-18
 -1      1713 2.57449E-04-6.59335E-05-7.53010E-05 1.76581E-06-2.78864E-18 2.47246E-18
 -1      1714 2.03684E-04-3.91350E-05-6.59644E-05-6.39184E-05-4.55370E-18 1.05905E-17
 -1      1715 2.37174E-04-5.67160E-05-7.09786E-05-4.32857E-05-3.63674E-18 8.20690E-18
 -1      1716 1.40878E-04-1.61461E-05-5.14342E-05-7.01271E-05-5.53451E-18 1.09471E-17
 -1      1717 1.83687E-04-3.40963E-05-5.95042E-05-6.99954E-05-4.32961E-18 1.17873E-17
 -1      1718 8.08888E-05-2.70260E-06-3.40670E-05-5.65861E-05-1.04295E-17 9.97720E-18
 -1      1719 1.16064E-04-9.43729E-06-4.32905E-05-7.32041E-05-7.83336E-18 9.88911E-18
 -1      1720 4.31674E-05-1.19341E-05-1.64169E-05-2.91024E-05-1.33636E-17 9.17930E-18
 -1      1721 6.12320E-05-2.51940E-06-2.53351E-05-5.02842E-05-1.15103E-17 9.14033E-18
 -1      1722 2.62139E-05-3.73562E-05-3.37412E-07-5.68778E-06-1.29638E-17 7.55384E-18
 -1      1723 2.89231E-05-1.59268E-05-8.25268E-06-2.06810E-05-1.40040E-17 9.96958E-18
 -1      1724 2.37123E-05-6.42788E-05 1.10313E-05 2.77736E-06-8.38774E-18 4.20187E-18
 -1      1725 1.87558E-05-4.38834E-05 5.93681E-06 1.32805E-06-1.17035E-17 7.39449E-18
 -1      1726 2.37964E-05-7.65867E-05 1.59375E-05-1.01012E-06-2.68022E-18 3.14080E-18
 -1      1727 2.10050E-05-6.87748E-05 1.42736E-05 6.98494E-06-6.64201E-18 3.41397E-18
 -1      1728 1.13295E-04-3.05280E-05-3.45084E-05 4.54413E-05 9.85015E-18 7.03037E-18
 -1      1729 7.09357E-05-3.35271E-05-1.73187E-05 3.96166E-05 1.09911E-17 6.60177E-18
 -1      1730 9.52410E-05-2.85795E-05-2.85680E-05-1.34209E-08-2.93335E-18-1.19206E-18
 -1      1731 9.52424E-05-2.85624E-05-2.85766E-05-5.82809E-09 1.56750E-19 6.56524E-19
 -1      1732 1.86790E-05-4.76604E-05 8.18796E-06 1.43856E-05 4.92550E-18 1.00668E-17
 -1      1733 3.94944E-05-4.07405E-05-2.39446E-06 2.86334E-05 8.05782E-18 9.46043E-18
 -1      1734 1.21441E-05-5.17988E-05 1.21770E-05 8.54093E-07 5.42101E-19 6.66954E-18
 -1      1735 1.56931E-04-3.14309E-05-5.09585E-05 4.00802E-05 7.09814E-18 4.30039E-18
 -1      1736 1.91529E-04-3.23401E-05-6.36494E-05 2.77448E-05 6.25470E-18 3.10141E-18
 -1      1737 2.06123E-04-3.21609E-05-6.93817E-05 7.06734E-06 5.54849E-18-1.43741E-18
 -1      1738 2.02543E-04-3.24216E-05-6.79675E-05-1.52727E-05 6.46328E-18-4.62649E-18
 -1      1739 1.80126E-04-3.15958E-05-5.96362E-05-3.40920E-05 5.99387E-18-7.38443E-18
 -1      1740 1.42008E-04-2.94513E-05-4.58229E-05-4.53323E-05 6.68245E-18-9.61806E-18
 -1      1741 9.83189E-05-2.93289E-05-2.92681E-05-4.54490E-05 7.40391E-18-9.07850E-18
 -1      1742 5.94615E-05-3.46059E-05-1.25060E-05-3.60360E-05 7.01428E-18-7.38316E-18
 -1      1743 3.11468E-05-4.25665E-05 1.42529E-06-2.40999E-05 4.93905E-18-5.72690E-18
 -1      1744 1.48529E-05-4.73860E-05 9.73256E-06-1.10141E-05 2.09005E-18-5.19485E-18
 -1      1745 1.23001E-05-4.81774E-05 1.09985E-05 4.95423E-06-5.09596E-19-5.10083E-18
 -1      1746 2.40794E-05-4.52795E-05 5.18481E-06 1.80249E-05-3.00104E-18-6.07238E-18
 -1      1747 4.74002E-05-3.86709E-05-6.42345E-06 3.02365E-05-5.40068E-18-5.08199E-18
 -1      1748 8.17690E-05-3.24538E-05-2.18905E-05 4.12860E-05-5.82843E-18-5.92203E-18
 -1      1749 1.25754E-04-3.21282E-05-3.87224E-05 4.43538E-05-5.89620E-18-3.36611E-18
 -1      1750 1.67173E-04-3.30717E-05-5.42049E-05 3.79552E-05-5.10073E-18-2.17264E-18
 -1      1751 1.97438E-04-3.31883E-05-6.55211E-05 2.47415E-05-4.07995E-18-7.82235E-19
 -1      1752 2.11793E-04-3.44798E-05-7.05413E-05 3.51614E-06-4.60574E-18 2.70913E-18
 -1      1753 2.08000E-04-3.52960E-05-6.87301E-05-1.67350E-05-5.17622E-18 5.53536E-18
 -1      1754 1.81226E-04-3.31954E-05-5.95840E-05-3.13070E-05-3.86326E-18 7.20571E-18
 -1      1755 1.44475E-04-3.19295E-05-4.58811E-05-4.28942E-05-4.92084E-18 7.88164E-18
 -1      1756 1.01061E-04-3.11431E-05-2.97774E-05-4.45357E-05-7.55553E-18 5.07457E-18
 -1      1757 6.31160E-05-3.53653E-05-1.36624E-05-3.61562E-05-8.19758E-18 5.28464E-18
 -1      1758 3.42244E-05-4.25123E-05 1.12687E-07-2.37436E-05-7.77068E-18 6.98307E-18
 -1      1759 1.73992E-05-4.92428E-05 9.18110E-06-1.10147E-05-4.11446E-18 5.55061E-18
 -1      1760 1.05806E-04-2.31185E-05-3.55224E-05-1.67604E-05-1.80628E-18 6.78410E-18
 -1      1761 8.91733E-05-1.05565E-05-3.38165E-05-1.31622E-05-2.28051E-18-2.56122E-18
 -1      1762 9.04773E-05-1.16297E-05-3.39425E-05-1.49392E-05-2.61087E-18-1.88346E-18
 -1      1763 9.24795E-05-1.38798E-05-3.38450E-05-1.58440E-05-2.62249E-18-9.42695E-19
 -1      1764 9.41472E-05-1.58256E-05-3.40687E-05-1.75123E-05-2.82853E-18 3.82329E-19
 -1      1765 9.34514E-05-1.63592E-05-3.30493E-05-1.35688E-05-2.78679E-18-1.28527E-18
 -1      1766 8.62667E-05-7.60568E-06-3.37836E-05-7.70001E-06-1.16136E-18-3.75638E-18
 -1      1767 8.66722E-05-7.91666E-06-3.38121E-05-9.07810E-06-1.48689E-18-3.61968E-18
 -1      1768 8.56320E-05-6.93417E-06-3.37873E-05-5.19249E-06-6.10727E-19-3.78080E-18
 -1      1769 8.58743E-05-7.12436E-06-3.37998E-05-6.47789E-06-8.66999E-19-3.81107E-18
 -1      1770 8.76236E-05-9.75205E-06-3.34053E-05-6.75424E-06-1.12937E-18-3.57669E-18
 -1      1771 8.52794E-05-6.54950E-06-3.37936E-05-2.81200E-06 2.06382E-22-3.70029E-18
 -1      1772 8.54072E-05-6.65207E-06-3.37985E-05-4.02630E-06-3.16801E-19-3.70136E-18
 -1      1773 8.69631E-05-8.99889E-06-3.34445E-05-4.40846E-06-4.89393E-19-3.59953E-18
 -1      1774 8.51390E-05-6.38869E-06-3.37981E-05-5.01143E-07 4.81735E-19-3.74109E-18
 -1      1775 8.51775E-05-6.42000E-06-3.37993E-05-1.68199E-06 2.63260E-19-3.75545E-18
 -1      1776 8.66105E-05-8.59194E-06-3.34674E-05-2.14913E-06 9.69780E-20-3.58669E-18
 -1      1777 8.51868E-05-6.42913E-06-3.37992E-05 1.79893E-06 9.40482E-19-3.68187E-18
 -1      1778 8.51425E-05-6.39338E-06-3.37979E-05 6.17061E-07 7.16187E-19-3.74624E-18
 -1      1779 8.65045E-05-8.46869E-06-3.34747E-05 6.44287E-08 6.68414E-19-3.64165E-18
 -1      1780 8.54312E-05-6.67743E-06-3.37979E-05 4.14787E-06 1.37755E-18-3.48685E-18
 -1      1781 8.52964E-05-6.56881E-06-3.37931E-05 2.93041E-06 1.16542E-18-3.62656E-18
 -1      1782 8.66277E-05-8.61209E-06-3.34662E-05 2.27932E-06 1.12464E-18-3.49878E-18
 -1      1783 8.59062E-05-7.15990E-06-3.37984E-05 6.56512E-06 1.85261E-18-3.10731E-18
 -1      1784 8.56605E-05-6.96640E-06-3.37863E-05 5.29687E-06 1.61067E-18-3.32713E-18
 -1      1785 8.69960E-05-9.03730E-06-3.34420E-05 4.52250E-06 1.57627E-18-3.26900E-18
 -1      1786 8.67333E-05-7.98539E-06-3.38096E-05 9.19893E-06 2.33381E-18-2.45806E-18
 -1      1787 8.63087E-05-7.65601E-06-3.37811E-05 7.78960E-06 2.05534E-18-2.84132E-18
 -1      1788 8.76731E-05-9.81082E-06-3.34012E-05 6.85297E-06 2.13679E-18-2.82075E-18
 -1      1789 8.81419E-05-9.36702E-06-3.38488E-05 1.20690E-05 2.77058E-18-1.48135E-18
 -1      1790 8.74087E-05-8.79805E-06-3.37857E-05 1.04794E-05 2.50791E-18-2.05358E-18
 -1      1791 8.88126E-05-1.10917E-05-3.33391E-05 9.30228E-06 2.59434E-18-2.07441E-18
 -1      1792 9.06501E-05-1.18416E-05-3.39337E-05 1.51266E-05 3.02884E-18 2.11282E-19
 -1      1793 8.92941E-05-1.07366E-05-3.38079E-05 1.33330E-05 2.87349E-18-8.21013E-19
 -1      1794 9.07060E-05-1.31940E-05-3.32378E-05 1.17716E-05 2.95824E-18-9.40802E-19
 -1      1795 9.58063E-05-1.70301E-05-3.39638E-05 1.75401E-05 2.92320E-18 3.29035E-18
 -1      1796 9.28390E-05-1.43464E-05-3.38172E-05 1.60334E-05 2.93989E-18 1.43662E-18
 -1      1797 9.39708E-05-1.68785E-05-3.30283E-05 1.37116E-05 3.06298E-18 9.02381E-19
 -1      1798 1.01760E-04-2.50555E-05-3.33036E-05 1.43104E-05 2.38011E-18 6.85483E-18
 -1      1799 9.79689E-05-1.96028E-05-3.35851E-05 1.68310E-05 2.63558E-18 4.56932E-18
 -1      1800 9.72657E-05-2.18397E-05-3.24055E-05 1.30987E-05 2.91620E-18 3.23347E-18
 -1      1801 9.86190E-05-2.61000E-05-3.12991E-05 9.32881E-06 2.41661E-18 6.03301E-18
 -1      1802 1.00008E-04-1.95445E-05-3.41636E-05-1.87455E-05-2.44569E-18 2.72872E-18
 -1      1803 9.52487E-05-2.72602E-05-2.91683E-05 3.95202E-06 1.86326E-18 4.83523E-18
 -1      1804 9.76384E-05-2.73569E-05-3.01639E-05 6.29027E-06 2.00588E-18 5.48943E-18
 -1      1805 9.75070E-05-2.55930E-05-3.08129E-05 8.62323E-06 2.39440E-18 3.85487E-18
 -1      1806 9.97094E-05-2.25200E-05-3.28005E-05-1.43334E-05-2.63795E-18 1.74971E-18
 -1      1807 9.69097E-05-2.69527E-05-2.98662E-05-5.56282E-06-2.17020E-18 1.33599E-18
 -1      1808 9.51482E-05-2.70154E-05-2.91705E-05-3.74402E-06-1.96060E-18 7.86093E-19
 -1      1809 9.43692E-05-2.72213E-05-2.86801E-05-2.24055E-06-1.73183E-18 7.00165E-19
 -1      1810 9.36571E-05-2.73122E-05-2.83942E-05-1.36157E-06-1.46979E-18 2.18310E-19
 -1      1811 9.55522E-05-2.65265E-05-2.96047E-05-4.25102E-06-2.17354E-18-1.37443E-19
 -1      1812 9.31899E-05-2.73723E-05-2.81476E-05-4.91757E-07-1.18943E-18 1.21493E-19
 -1      1813 9.29702E-05-2.74512E-05-2.80515E-05-1.40581E-08-9.69734E-19-1.62490E-19
 -1      1814 9.44384E-05-2.72067E-05-2.88355E-05-1.52650E-06-1.56547E-18-5.11386E-19
 -1      1815 9.27731E-05-2.74921E-05-2.79454E-05 5.04524E-07-8.55513E-19-2.35273E-19
 -1      1816 9.28554E-05-2.75916E-05-2.79511E-05 7.85074E-07-8.31839E-19-4.21224E-19
 -1      1817 9.38694E-05-2.75249E-05-2.84519E-05 6.04766E-08-1.14669E-18-6.32712E-19
 -1      1818 9.28591E-05-2.76428E-05-2.79328E-05 1.11242E-06-7.68751E-19-3.58795E-19
 -1      1819 9.31317E-05-2.77622E-05-2.80008E-05 1.29367E-06-6.23366E-19-5.60239E-19
 -1      1820 9.37285E-05-2.77295E-05-2.83003E-05 1.03303E-06-8.35745E-19-8.07980E-19
 -1      1821 9.32808E-05-2.78283E-05-2.80419E-05 1.52170E-06-6.91817E-19-5.92976E-19
 -1      1822 9.36846E-05-2.79642E-05-2.81529E-05 1.65799E-06-5.72344E-19-7.01562E-19
 -1      1823 9.39095E-05-2.79046E-05-2.82995E-05 1.67448E-06-7.78329E-19-8.00460E-19
 -1      1824 9.39440E-05-2.80445E-05-2.82375E-05 1.84381E-06-4.87742E-19-6.50386E-19
 -1      1825 9.44519E-05-2.81962E-05-2.83824E-05 1.96934E-06-3.56698E-19-6.62753E-19
 -1      1826 9.43313E-05-2.80763E-05-2.84043E-05 2.15247E-06-5.18563E-19-6.16421E-19
 -1      1827 9.48026E-05-2.82908E-05-2.85018E-05 2.15092E-06-5.24211E-19-7.63614E-19
 -1      1828 9.54081E-05-2.84610E-05-2.86777E-05 2.28892E-06-4.27895E-19-6.75856E-19
 -1      1829 9.49450E-05-2.82556E-05-2.85891E-05 2.57428E-06-6.09609E-19-8.04913E-19
 -1      1830 9.58430E-05-2.85716E-05-2.88282E-05 2.49228E-06-5.63381E-19-8.66065E-19
 -1      1831 9.65532E-05-2.87662E-05-2.90361E-05 2.65858E-06-4.91640E-19-1.17062E-18
 -1      1832 9.57280E-05-2.84511E-05-2.88402E-05 3.01223E-06-6.33292E-19-1.05549E-18
 -1      1833 9.70741E-05-2.88970E-05-2.92166E-05 2.90044E-06-3.96648E-19-1.37303E-18
 -1      1834 9.79044E-05-2.91249E-05-2.94598E-05 3.10392E-06-1.70632E-19-1.53644E-18
 -1      1835 9.66773E-05-2.86744E-05-2.91514E-05 3.51463E-06-5.95485E-19-9.71586E-19
 -1      1836 9.85186E-05-2.92828E-05-2.96703E-05 3.39117E-06-1.41645E-19-1.68909E-18
 -1      1837 9.94876E-05-2.95556E-05-2.99527E-05 3.63193E-06-1.65509E-19-1.69906E-18
 -1      1838 9.78044E-05-2.89424E-05-2.95200E-05 4.10825E-06-2.77933E-19-1.41018E-18
 -1      1839 1.00206E-04-2.97514E-05-3.01928E-05 3.95822E-06-5.69845E-20-1.84155E-18
 -1      1840 1.01329E-04-3.00834E-05-3.05163E-05 4.22290E-06-1.96609E-19-1.67239E-18
 -1      1841 9.91304E-05-2.92806E-05-2.99439E-05 4.79431E-06-1.17756E-19-1.58234E-18
 -1      1842 1.02164E-04-3.03328E-05-3.07829E-05 4.56176E-06-3.03471E-19-1.42317E-18
 -1      1843 1.03441E-04-3.07401E-05-3.11443E-05 4.81563E-06-1.16932E-19-9.12377E-19
 -1      1844 1.00682E-04-2.97278E-05-3.04179E-05 5.53752E-06-7.78683E-20-1.04745E-18
 -1      1845 1.04404E-04-3.10664E-05-3.14297E-05 5.10964E-06-8.58010E-20-8.08935E-19
 -1      1846 1.05813E-04-3.15646E-05-3.18166E-05 5.28526E-06 1.32652E-19-8.86642E-19
 -1      1847 1.02488E-04-3.03416E-05-3.09297E-05 6.24735E-06-1.13121E-19-7.36460E-19
 -1      1848 1.06913E-04-3.19985E-05-3.21060E-05 5.43196E-06 1.36024E-19-1.47068E-18
 -1      1849 1.08379E-04-3.25961E-05-3.24915E-05 5.41720E-06-5.58909E-20-1.32530E-18
 -1      1850 1.04576E-04-3.12017E-05-3.14568E-05 6.75169E-06-1.26232E-19-8.24226E-19
 -1      1851 1.09616E-04-3.31709E-05-3.27626E-05 5.25657E-06-1.03752E-19-1.52043E-18
 -1      1852 1.11001E-04-3.38526E-05-3.31014E-05 4.89109E-06-2.58047E-19-1.80425E-18
 -1      1853 1.06961E-04-3.24031E-05-3.19651E-05 6.76866E-06-1.56821E-19-1.26394E-18
 -1      1854 1.12346E-04-3.45815E-05-3.33277E-05 4.20951E-06-1.22902E-19-1.41501E-18
 -1      1855 1.13417E-04-3.52740E-05-3.35574E-05 3.31150E-06-1.18604E-19-1.11322E-18
 -1      1856 1.09621E-04-3.40158E-05-3.24136E-05 5.89586E-06-2.20361E-21-1.41829E-18
 -1      1857 1.14772E-04-3.60976E-05-3.37177E-05 1.89409E-06-5.72257E-19-7.80736E-19
 -1      1858 1.15209E-04-3.66169E-05-3.37735E-05 3.50903E-07-6.83317E-20-8.16462E-19
 -1      1859 1.12429E-04-3.59775E-05-3.27709E-05 3.66520E-06-2.56148E-19-7.00004E-19
 -1      1860 1.16328E-04-3.73130E-05-3.38691E-05-1.86897E-06 1.49515E-19-1.20341E-18
 -1      1861 1.15783E-04-3.73231E-05-3.37149E-05-3.91760E-06-8.38563E-20-1.48049E-18
 -1      1862 1.15025E-04-3.78972E-05-3.30446E-05-2.56011E-07-3.60479E-19-4.51312E-19
 -1      1863 1.16220E-04-3.74490E-05-3.37857E-05-6.57279E-06 9.15126E-20-1.10536E-18
 -1      1864 1.14502E-04-3.65542E-05-3.34507E-05-8.51915E-06-1.67110E-19-1.39087E-18
 -1      1865 1.16663E-04-3.88460E-05-3.33125E-05-5.61653E-06 7.89991E-20-5.03751E-19
 -1      1866 1.13777E-04-3.56212E-05-3.35543E-05-1.05442E-05-1.05264E-19-1.04398E-18
 -1      1867 1.11150E-04-3.37258E-05-3.31485E-05-1.13073E-05 4.32966E-19-9.06338E-19
 -1      1868 1.16318E-04-3.75588E-05-3.37013E-05-1.09419E-05 3.30487E-19 3.84833E-19
 -1      1869 1.09331E-04-3.17969E-05-3.33083E-05-1.11750E-05-1.43294E-19-1.29265E-18
 -1      1870 1.06750E-04-2.96075E-05-3.29770E-05-9.79567E-06-4.63353E-19-1.16032E-18
 -1      1871 1.13480E-04-3.34770E-05-3.42698E-05-1.33445E-05-8.79458E-20-7.89792E-20
 -1      1872 1.04932E-04-2.77366E-05-3.31253E-05-6.79126E-06-2.86893E-19-1.34788E-18
 -1      1873 1.03631E-04-2.65362E-05-3.29837E-05-3.42032E-06-5.07002E-19-1.65299E-18
 -1      1874 1.09457E-04-2.82462E-05-3.48800E-05-1.00546E-05-2.86999E-19-1.02389E-18
 -1      1875 1.03406E-04-2.62955E-05-3.30038E-05 1.30022E-06-9.25331E-19-1.99418E-18
 -1      1876 1.04193E-04-2.70308E-05-3.30905E-05 4.92536E-06-9.56459E-19-2.34383E-18
 -1      1877 1.07123E-04-2.52849E-05-3.52000E-05-1.27605E-06-7.73963E-19-2.08753E-18
 -1      1878 1.05719E-04-2.85861E-05-3.29710E-05 8.59243E-06-7.36019E-19-3.00899E-18
 -1      1879 1.08101E-04-3.06608E-05-3.32642E-05 1.05727E-05-5.05321E-19-3.25557E-18
 -1      1880 1.08581E-04-2.71312E-05-3.50087E-05 8.22056E-06-1.10857E-18-2.83171E-18
 -1      1881 1.10078E-04-3.27255E-05-3.30987E-05 1.14447E-05-1.04208E-19-2.91272E-18
 -1      1882 1.12824E-04-3.48040E-05-3.35024E-05 1.11734E-05 5.79023E-19-3.01905E-18
 -1      1883 1.12486E-04-3.21069E-05-3.44471E-05 1.31567E-05 7.59484E-20-2.51281E-18
 -1      1884 1.13882E-04-3.60355E-05-3.33884E-05 9.56313E-06 8.63669E-19-2.89358E-18
 -1      1885 1.15899E-04-3.72031E-05-3.37605E-05 7.81590E-06 1.20265E-18-2.15364E-18
 -1      1886 1.15867E-04-3.67678E-05-3.38489E-05 1.20316E-05 1.07189E-18-2.11427E-18
 -1      1887 1.15741E-04-3.73152E-05-3.36933E-05 5.20641E-06 8.09016E-19-2.11231E-18
 -1      1888 1.16604E-04-3.75095E-05-3.39070E-05 3.11428E-06 8.26519E-20-1.76018E-18
 -1      1889 1.16875E-04-3.87801E-05-3.34262E-05 7.16701E-06 1.00285E-18-2.39203E-18
 -1      1890 1.15632E-04-3.69156E-05-3.38298E-05 7.37091E-07-1.79359E-19-8.11438E-19
 -1      1891 1.15446E-04-3.64971E-05-3.38353E-05-9.52530E-07 2.75100E-19-1.17803E-18
 -1      1892 1.15688E-04-3.82957E-05-3.31531E-05 1.64557E-06 7.92386E-19-1.83326E-18
 -1      1893 1.14144E-04-3.56814E-05-3.37018E-05-2.56360E-06 6.45863E-20-1.19815E-18
 -1      1894 1.13241E-04-3.50190E-05-3.35226E-05-3.60667E-06-1.43102E-19-1.22458E-18
 -1      1895 1.13295E-04-3.65236E-05-3.29059E-05-2.67209E-06-5.37006E-21-1.63782E-18
 -1      1896 1.11911E-04-3.42616E-05-3.33235E-05-4.43504E-06-5.35821E-19-9.75299E-19
 -1      1897 1.10632E-04-3.35789E-05-3.30216E-05-4.89928E-06-8.70184E-19-6.21295E-19
 -1      1898 1.10548E-04-3.45248E-05-3.25928E-05-5.27171E-06-2.54937E-19-1.28208E-18
 -1      1899 1.09404E-04-3.29732E-05-3.27743E-05-5.14107E-06-7.40188E-19-3.50688E-19
 -1      1900 1.08007E-04-3.23677E-05-3.24153E-05-5.20245E-06 8.89054E-21 1.01379E-19
 -1      1901 1.07903E-04-3.28193E-05-3.21914E-05-6.38723E-06-1.52049E-19-3.86358E-19
 -1      1902 1.06924E-04-3.19128E-05-3.21467E-05-5.07982E-06 3.49058E-20 4.04094E-20
 -1      1903 1.05575E-04-3.14114E-05-3.17815E-05-4.90851E-06 4.00401E-19-1.10108E-19
 -1      1904 1.05535E-04-3.15342E-05-3.17267E-05-6.48021E-06-3.31982E-19 6.35303E-19
 -1      1905 1.04642E-04-3.10764E-05-3.15159E-05-4.59680E-06-2.19145E-20-6.55426E-19
 -1      1906 1.03431E-04-3.06756E-05-3.11768E-05-4.31774E-06-2.18703E-19-5.48617E-19
 -1      1907 1.03487E-04-3.06204E-05-3.12396E-05-5.97927E-06-1.79788E-20 1.43741E-18
 -1      1908 1.02641E-04-3.04287E-05-3.09310E-05-3.93374E-06-1.90195E-19-9.53312E-19
 -1      1909 1.01606E-04-3.01149E-05-3.06342E-05-3.62524E-06-3.75118E-19-1.30825E-18
 -1      1910 1.01752E-04-2.99845E-05-3.07675E-05-5.19826E-06-1.57216E-19 6.27152E-20
 -1      1911 1.00949E-04-2.99315E-05-3.04177E-05-3.23783E-06 1.33808E-19-8.06285E-19
 -1      1912 1.00095E-04-2.96894E-05-3.01686E-05-2.94304E-06 3.43647E-19-2.76858E-19
 -1      1913 1.00305E-04-2.95428E-05-3.03358E-05-4.33711E-06 4.80327E-20 1.69366E-19
 -1      1914 9.95576E-05-2.95520E-05-2.99848E-05-2.58802E-06-2.47279E-19-6.45911E-19
 -1      1915 9.88715E-05-2.93677E-05-2.97824E-05-2.32719E-06-1.17863E-18-6.43447E-19
 -1      1916 9.91171E-05-2.92336E-05-2.99583E-05-3.50913E-06-3.78986E-19 2.35817E-19
 -1      1917 9.84395E-05-2.92646E-05-2.96309E-05-2.01984E-06-1.04321E-18-1.13046E-19
 -1      1918 9.79011E-05-2.91260E-05-2.94704E-05-1.79975E-06-8.74960E-19-2.74749E-19
 -1      1919 9.81572E-05-2.90154E-05-2.96395E-05-2.76999E-06-8.97034E-19 5.21650E-20
 -1      1920 9.75595E-05-2.90488E-05-2.93487E-05-1.54349E-06-9.07278E-19-7.62946E-19
 -1      1921 9.71458E-05-2.89463E-05-2.92243E-05-1.36368E-06-2.25974E-19-5.70612E-19
 -1      1922 9.73937E-05-2.88606E-05-2.93777E-05-2.14025E-06-1.18856E-18 5.89979E-19
 -1      1923 9.68802E-05-2.88890E-05-2.91285E-05-1.15569E-06-5.18795E-19-8.80746E-19
 -1      1924 9.65686E-05-2.88144E-05-2.90340E-05-1.01218E-06 3.93165E-19-4.60902E-19
 -1      1925 9.67963E-05-2.87508E-05-2.91678E-05-1.62076E-06-5.07272E-19 1.41499E-18
 -1      1926 9.63657E-05-2.87722E-05-2.89602E-05-8.46739E-07 1.85450E-18-7.66012E-19
 -1      1927 9.61360E-05-2.87190E-05-2.88900E-05-7.34116E-07 1.70312E-18 2.71035E-20
 -1      1928 9.63367E-05-2.86734E-05-2.90031E-05-1.20225E-06 8.36491E-19 1.89092E-18
 -1      1929 9.59839E-05-2.86885E-05-2.88343E-05-6.04439E-07 1.63798E-18 9.49036E-19
 -1      1930 9.58189E-05-2.86515E-05-2.87835E-05-5.17004E-07 2.55043E-18 2.03266E-18
 -1      1931 9.59894E-05-2.86195E-05-2.88765E-05-8.71029E-07 2.31469E-18 2.84679E-18
 -1      1932 9.57071E-05-2.86297E-05-2.87425E-05-4.16284E-07 2.17169E-18 1.46974E-18
 -1      1933 9.55925E-05-2.86050E-05-2.87068E-05-3.48613E-07 1.61391E-18 1.20497E-18
 -1      1934 9.57319E-05-2.85824E-05-2.87813E-05-6.12151E-07 2.17914E-18 2.43491E-18
 -1      1935 9.55122E-05-2.85896E-05-2.86774E-05-2.70646E-07 1.04396E-18 1.24067E-18
 -1      1936 9.54366E-05-2.85740E-05-2.86537E-05-2.18032E-07 4.56407E-20 1.78019E-18
 -1      1937 9.55452E-05-2.85572E-05-2.87114E-05-4.11270E-07 1.61133E-18 6.37333E-19
 -1      1938 9.53801E-05-2.85637E-05-2.86331E-05-1.57370E-07-2.75399E-19 2.97327E-18
 -1      1939 9.53346E-05-2.85558E-05-2.86182E-05-1.16568E-07 6.46266E-20 3.89002E-18
 -1      1940 9.54127E-05-2.85403E-05-2.86612E-05-2.55923E-07 6.95307E-19 4.43174E-18
 -1      1941 9.52993E-05-2.85514E-05-2.86044E-05-7.26281E-08-3.58025E-19 3.42151E-18
 -1      1942 9.52756E-05-2.85511E-05-2.85951E-05-4.38770E-08-2.17922E-19 2.67583E-18
 -1      1943 9.52735E-05-2.85419E-05-2.86004E-05-5.59041E-08-9.17563E-19 3.06938E-18
 -1      1944 9.53253E-05-2.85350E-05-2.86262E-05-1.39088E-07-7.00667E-19 5.90134E-18
 -1      1945 9.32421E-05-2.73557E-05-2.82079E-05 1.45816E-06 1.55227E-18 3.85600E-18
 -1      1946 9.43860E-05-2.74492E-05-2.86282E-05 2.54401E-06 1.57424E-18 4.43145E-18
 -1      1947 9.52342E-05-2.70326E-05-2.92354E-05 3.88878E-06 1.99642E-18 3.10292E-18
 -1      1948 9.23165E-05-2.73702E-05-2.78080E-05 1.44921E-07 1.10430E-18 3.10997E-18
 -1      1949 9.27428E-05-2.73856E-05-2.79588E-05 7.18897E-07 1.21321E-18 3.57180E-18
 -1      1950 9.37306E-05-2.73700E-05-2.84481E-05 1.36454E-06 1.52209E-18 2.42627E-18
 -1      1951 9.21162E-05-2.74490E-05-2.76967E-05-5.92262E-07 7.18906E-19 2.65941E-18
 -1      1952 9.21368E-05-2.73979E-05-2.77141E-05-2.61247E-07 8.74219E-19 2.97550E-18
 -1      1953 9.30378E-05-2.75111E-05-2.80941E-05-3.49889E-08 1.14209E-18 1.90850E-18
 -1      1954 9.23813E-05-2.75984E-05-2.77511E-05-1.03405E-06 4.83563E-19 1.98492E-18
 -1      1955 9.21623E-05-2.75016E-05-2.76941E-05-8.27509E-07 5.87427E-19 2.41034E-18
 -1      1956 9.29134E-05-2.76428E-05-2.79849E-05-8.51564E-07 7.75660E-19 1.46584E-18
 -1      1957 9.29550E-05-2.78034E-05-2.79114E-05-1.32598E-06 7.13819E-19 1.63860E-18
 -1      1958 9.25839E-05-2.76755E-05-2.78074E-05-1.18280E-06 3.38012E-19 1.85426E-18
 -1      1959 9.31746E-05-2.78040E-05-2.80264E-05-1.36267E-06 5.63950E-19 9.61044E-19
 -1      1960 9.37500E-05-2.80521E-05-2.81466E-05-1.55132E-06 8.40550E-19 1.54144E-18
 -1      1961 9.32714E-05-2.79010E-05-2.80089E-05-1.43585E-06 9.02945E-19 1.79786E-18
 -1      1962 9.37052E-05-2.79984E-05-2.81689E-05-1.71981E-06 8.08215E-19 9.33307E-19
 -1      1963 9.47245E-05-2.83404E-05-2.84410E-05-1.76144E-06 5.70251E-19 8.97748E-19
 -1      1964 9.41575E-05-2.81681E-05-2.82758E-05-1.65116E-06 7.64004E-19 1.43132E-18
 -1      1965 9.44390E-05-2.82248E-05-2.83852E-05-2.01270E-06 8.92305E-19 9.26680E-19
 -1      1966 9.58652E-05-2.86702E-05-2.87886E-05-1.98758E-06 2.74912E-19 9.35129E-19
 -1      1967 9.52136E-05-2.84753E-05-2.85974E-05-1.86839E-06 4.58702E-19 8.72464E-19
 -1      1968 9.53436E-05-2.84849E-05-2.86609E-05-2.29656E-06 6.78335E-19 7.41325E-19
 -1      1969 9.71754E-05-2.90488E-05-2.91880E-05-2.24450E-06 1.99580E-19 7.73828E-19
 -1      1970 9.64348E-05-2.88270E-05-2.89703E-05-2.10945E-06 2.86291E-19 8.64731E-19
 -1      1971 9.64091E-05-2.87850E-05-2.89888E-05-2.60276E-06 3.74485E-19 6.31954E-19
 -1      1972 9.86644E-05-2.94860E-05-2.96394E-05-2.52948E-06 2.03979E-19 5.30687E-19
 -1      1973 9.78286E-05-2.92322E-05-2.93942E-05-2.37954E-06 2.83817E-19 6.26392E-19
 -1      1974 9.76382E-05-2.91355E-05-2.93655E-05-2.94134E-06 3.37499E-19 3.51009E-19
 -1      1975 1.00336E-04-2.99930E-05-3.01399E-05-2.81779E-06 9.11738E-19-2.98723E-19
 -1      1976 9.94033E-05-2.97025E-05-2.98682E-05-2.66432E-06 5.45400E-19 1.10474E-19
 -1      1977 9.90370E-05-2.95510E-05-2.97873E-05-3.29836E-06 7.67098E-19-2.30607E-19
 -1      1978 1.02172E-04-3.05782E-05-3.06795E-05-3.05521E-06 3.61429E-19-2.59227E-19
 -1      1979 1.01156E-04-3.02494E-05-3.03866E-05-2.92391E-06 5.39417E-19-1.53966E-19
 -1      1980 1.00606E-04-3.00481E-05-3.02467E-05-3.62927E-06 8.36989E-19-5.30054E-19
 -1      1981 1.04121E-04-3.12429E-05-3.12351E-05-3.14918E-06 6.09591E-20-7.59352E-20
 -1      1982 1.03059E-04-3.08806E-05-3.09342E-05-3.08488E-06 2.22603E-19-2.18917E-19
 -1      1983 1.02326E-04-3.06439E-05-3.07284E-05-3.84974E-06 3.47522E-19-3.32068E-19
 -1      1984 1.06070E-04-3.19720E-05-3.17657E-05-2.96298E-06-6.34309E-19 1.63732E-19
 -1      1985 1.05037E-04-3.15930E-05-3.14808E-05-3.03306E-06-1.81285E-19 1.32905E-19
 -1      1986 1.04147E-04-3.13495E-05-3.12054E-05-3.82700E-06-3.48690E-19-3.68244E-20
 -1      1987 1.07831E-04-3.27197E-05-3.22092E-05-2.32306E-06 3.07389E-19-1.31363E-19
 -1      1988 1.06949E-04-3.23602E-05-3.19772E-05-2.61443E-06-2.70753E-19-1.73145E-19
 -1      1989 1.05970E-04-3.21567E-05-3.16372E-05-3.37955E-06 7.28448E-20-1.16376E-19
 -1      1990 1.09125E-04-3.33877E-05-3.24856E-05-1.05756E-06 9.04737E-20 2.29518E-20
 -1      1991 1.08568E-04-3.31125E-05-3.23548E-05-1.65784E-06 4.98191E-19 1.14705E-19
 -1      1992 1.07621E-04-3.30139E-05-3.19712E-05-2.30067E-06 3.19732E-19-3.21773E-19
 -1      1993 1.09597E-04-3.38029E-05-3.25127E-05 9.11177E-07-6.46127E-19-3.80353E-19
 -1      1994 1.09569E-04-3.37099E-05-3.25335E-05-3.98995E-08-5.79867E-19-1.64597E-19
 -1      1995 1.08840E-04-3.37883E-05-3.21516E-05-4.28888E-07-2.38704E-19-3.30384E-19
 -1      1996 1.08883E-04-3.37166E-05-3.22362E-05 3.41343E-06-1.26423E-18 4.41781E-19
 -1      1997 1.09564E-04-3.39251E-05-3.24423E-05 2.19257E-06-7.93048E-19 6.54796E-21
 -1      1998 1.09283E-04-3.42322E-05-3.21377E-05 2.21357E-06-8.77242E-19-3.53108E-19
 -1      1999 1.06761E-04-3.28736E-05-3.16703E-05 5.86904E-06-4.54506E-19 8.66660E-19
 -1      2000 1.08211E-04-3.34754E-05-3.20530E-05 4.66368E-06-1.04836E-18 7.29077E-19
 -1      2001 1.08585E-04-3.39993E-05-3.19267E-05 5.23104E-06-1.21309E-18 1.12821E-19
 -1      2002 1.03397E-04-3.12032E-05-3.09276E-05 7.27949E-06 7.18173E-19 6.06237E-19
 -1      2003 1.05436E-04-3.21661E-05-3.14157E-05 6.57719E-06 1.85629E-19 4.68303E-19
 -1      2004 1.06557E-04-3.27950E-05-3.15728E-05 7.71930E-06 3.53064E-19 3.55840E-19
 -1      2005 9.95885E-05-2.90740E-05-3.02056E-05 6.60618E-06 3.17637E-20 9.05372E-19
 -1      2006 1.01721E-04-3.01492E-05-3.06723E-05 6.89977E-06 4.02711E-19 6.96195E-19
 -1      2007 1.03485E-04-3.06873E-05-3.11803E-05 8.42383E-06 2.71868E-19 6.80101E-19
 -1      2008 9.66898E-05-2.73437E-05-2.97213E-05 3.52707E-06-2.11030E-19 6.21348E-19
 -1      2009 9.82102E-05-2.81022E-05-3.00239E-05 4.94368E-06-9.39545E-20 4.65775E-19
 -1      2010 1.00343E-04-2.83680E-05-3.08646E-05 6.39391E-06-1.30350E-19 5.61278E-19
 -1      2011 9.59994E-05-2.69147E-05-2.96282E-05-1.00582E-06-2.37401E-19 9.20659E-19
 -1      2012 9.63021E-05-2.69845E-05-2.96661E-05 1.05992E-06-2.71448E-20 8.82734E-19
 -1      2013 9.85009E-05-2.69430E-05-3.07106E-05 1.87273E-06-1.76421E-19 5.25409E-19
 -1      2014 9.78951E-05-2.80488E-05-2.99567E-05-5.12178E-06 1.04832E-18 2.73750E-19
 -1      2015 9.68375E-05-2.73910E-05-2.97163E-05-3.27020E-06 2.88799E-19 5.81918E-19
 -1      2016 9.89015E-05-2.72190E-05-3.07562E-05-3.44539E-06 3.19226E-19-2.12536E-19
 -1      2017 1.01519E-04-3.01238E-05-3.06025E-05-7.22370E-06 5.84883E-19 1.10273E-18
 -1      2018 9.95245E-05-2.90678E-05-3.01638E-05-6.27520E-06 9.77383E-19 8.60665E-19
 -1      2019 1.01337E-04-2.90400E-05-3.09904E-05-7.34212E-06 8.80610E-19 1.60612E-19
 -1      2020 1.05396E-04-3.21606E-05-3.13698E-05-6.92171E-06-5.82087E-20 3.93817E-19
 -1      2021 1.03188E-04-3.11470E-05-3.08696E-05-7.01653E-06 1.70221E-19 7.77814E-19
 -1      2022 1.04619E-04-3.14182E-05-3.13556E-05-8.51595E-06 4.23008E-19 5.37753E-19
 -1      2023 1.08326E-04-3.34857E-05-3.20465E-05-4.94072E-06 1.76934E-19 3.53841E-19
 -1      2024 1.06538E-04-3.28035E-05-3.16203E-05-5.75240E-06 2.27217E-19 9.78290E-19
 -1      2025 1.07442E-04-3.33085E-05-3.17538E-05-7.15934E-06 1.57373E-19 9.59311E-19
 -1      2026 1.09801E-04-3.39542E-05-3.24800E-05-2.38135E-06-2.32610E-19 6.06714E-19
 -1      2027 1.08758E-04-3.36686E-05-3.22148E-05-3.44256E-06 1.48165E-20 1.33864E-19
 -1      2028 1.09065E-04-3.42109E-05-3.20721E-05-4.40901E-06 2.05452E-19 6.79729E-19
 -1      2029 1.09902E-04-3.37640E-05-3.26139E-05-8.77192E-08-1.01036E-18-9.99730E-21
 -1      2030 1.09626E-04-3.37972E-05-3.25332E-05-1.04623E-06-3.29800E-19 2.73107E-19
 -1      2031 1.09397E-04-3.42034E-05-3.22265E-05-1.46222E-06-8.12225E-20 8.68457E-19
 -1      2032 1.08989E-04-3.31973E-05-3.24753E-05 1.54755E-06-7.07061E-19-1.95395E-18
 -1      2033 1.09322E-04-3.34302E-05-3.25540E-05 8.56438E-07-1.20394E-18-1.32039E-18
 -1      2034 1.08719E-04-3.36281E-05-3.21865E-05 9.29777E-07-3.91706E-19-1.46350E-18
 -1      2035 1.07468E-04-3.24810E-05-3.21376E-05 2.48186E-06 6.26551E-19-8.51093E-19
 -1      2036 1.08196E-04-3.28103E-05-3.23273E-05 2.07868E-06-4.81416E-19-2.29932E-18
 -1      2037 1.07405E-04-3.28159E-05-3.19718E-05 2.50302E-06-3.86902E-19-3.28287E-18
 -1      2038 1.05678E-04-3.17554E-05-3.16848E-05 2.84916E-06-1.38377E-19-9.17906E-20
 -1      2039 1.06602E-04-3.21101E-05-3.19352E-05 2.68116E-06 7.94735E-19 3.57038E-19
 -1      2040 1.05780E-04-3.19821E-05-3.16314E-05 3.30943E-06 1.09912E-19-5.41426E-19
 -1      2041 1.03856E-04-3.10922E-05-3.11895E-05 2.82993E-06 1.56710E-18 2.60074E-19
 -1      2042 1.04830E-04-3.14304E-05-3.14592E-05 2.82413E-06 1.05034E-18 7.23353E-20
 -1      2043 1.04078E-04-3.12323E-05-3.12219E-05 3.53496E-06 1.11880E-18 8.17476E-19
 -1      2044 1.02152E-04-3.05202E-05-3.07038E-05 2.58462E-06-1.03334E-18-1.94662E-19
 -1      2045 1.03078E-04-3.08208E-05-3.09646E-05 2.67533E-06 4.48449E-19-3.85519E-19
 -1      2046 1.02448E-04-3.06021E-05-3.07926E-05 3.38317E-06 1.00286E-18 1.27045E-18
 -1      2047 1.00643E-04-3.00451E-05-3.02601E-05 2.23198E-06-4.96411E-19-1.98808E-18
 -1      2048 1.01469E-04-3.03001E-05-3.04953E-05 2.37006E-06-1.09371E-18-1.64411E-18
 -1      2049 1.00975E-04-3.00924E-05-3.03797E-05 3.02250E-06-4.07044E-19-8.50697E-20
 -1      2050 9.93623E-05-2.96614E-05-2.98745E-05 1.84982E-06 9.07964E-19-9.59268E-19
 -1      2051 1.00065E-04-2.98703E-05-3.00765E-05 2.00271E-06 3.47268E-19-1.64624E-18
 -1      2052 9.96999E-05-2.96899E-05-3.00056E-05 2.57298E-06 9.25781E-21-1.39975E-18
 -1      2053 9.83089E-05-2.93584E-05-2.95520E-05 1.48386E-06-1.25290E-18-1.31026E-19
 -1      2054 9.88862E-05-2.95248E-05-2.97190E-05 1.63213E-06-2.35050E-19-7.73049E-19
 -1      2055 9.86308E-05-2.93776E-05-2.96814E-05 2.11120E-06-2.53392E-19-6.75247E-19
 -1      2056 9.74661E-05-2.91240E-05-2.92904E-05 1.15751E-06-8.79210E-19 1.16856E-18
 -1      2057 9.79263E-05-2.92533E-05-2.94244E-05 1.29096E-06-6.70110E-19 7.62527E-19
 -1      2058 9.77590E-05-2.91388E-05-2.94102E-05 1.68081E-06-1.38730E-18 1.22464E-19
 -1      2059 9.68081E-05-2.89463E-05-2.90840E-05 8.79820E-07 1.30950E-19 1.21302E-18
 -1      2060 9.71656E-05-2.90444E-05-2.91887E-05 9.94258E-07-9.23506E-20 1.74097E-18
 -1      2061 9.70651E-05-2.89590E-05-2.91898E-05 1.30299E-06-2.25253E-19 8.78868E-19
 -1      2062 9.63066E-05-2.88144E-05-2.89253E-05 6.51263E-07-8.20187E-20 8.18175E-20
 -1      2063 9.65772E-05-2.88871E-05-2.90049E-05 7.46143E-07 6.28285E-20 4.39710E-19
 -1      2064 9.65252E-05-2.88257E-05-2.90155E-05 9.84616E-07 2.18488E-19 5.19357E-19
 -1      2065 9.59338E-05-2.87186E-05-2.88063E-05 4.67559E-07 1.01676E-18-2.80385E-19
 -1      2066 9.61332E-05-2.87711E-05-2.88652E-05 5.44424E-07 5.43045E-19 2.75273E-20
 -1      2067 9.61144E-05-2.87287E-05-2.88810E-05 7.24125E-07 8.36761E-19 8.88369E-19
 -1      2068 9.56648E-05-2.86510E-05-2.87198E-05 3.22041E-07 1.33922E-18-5.89512E-19
 -1      2069 9.58069E-05-2.86877E-05-2.87620E-05 3.83542E-07 1.03237E-18 1.10372E-19
 -1      2070 9.58094E-05-2.86594E-05-2.87798E-05 5.15353E-07 1.03899E-18-1.43118E-19
 -1      2071 9.54780E-05-2.86050E-05-2.86593E-05 2.07228E-07 1.33794E-18-1.32678E-18
 -1      2072 9.55748E-05-2.86294E-05-2.86882E-05 2.56463E-07 7.25748E-19-6.23992E-19
 -1      2073 9.55892E-05-2.86110E-05-2.87060E-05 3.49991E-07 1.19136E-18 1.15436E-19
 -1      2074 9.53557E-05-2.85760E-05-2.86194E-05 1.16501E-07 2.07826E-19-8.47279E-19
 -1      2075 9.54168E-05-2.85907E-05-2.86378E-05 1.56244E-07 5.98305E-19-8.99496E-19
 -1      2076 9.54358E-05-2.85786E-05-2.86541E-05 2.19612E-07 5.37232E-19 2.41416E-19
 -1      2077 9.52835E-05-2.85610E-05-2.85947E-05 4.64040E-08-9.16324E-19 1.62599E-18
 -1      2078 9.53165E-05-2.85677E-05-2.86053E-05 7.74260E-08 1.44623E-19 9.94368E-19
 -1      2079 9.53340E-05-2.85589E-05-2.86187E-05 1.17309E-07-5.98693E-19 3.46083E-18
 -1      2080 9.52536E-05-2.85602E-05-2.85820E-05 8.96227E-09-1.42570E-19 1.49884E-18
 -1      2081 9.52672E-05-2.85577E-05-2.85889E-05 2.92546E-08-7.12675E-19 1.62518E-18
 -1      2082 9.52798E-05-2.85501E-05-2.85989E-05 5.33429E-08-4.02429E-19 4.80230E-18
 -1      2083 9.52563E-05-2.85548E-05-2.85861E-05 1.80940E-08 2.26497E-19 3.51402E-18
 -1      2084 9.51825E-05-2.83481E-05-2.86438E-05 1.65604E-07 4.58616E-19 1.39077E-18
 -1      2085 9.52038E-05-2.83926E-05-2.86324E-05 1.52545E-07-6.21535E-19 2.08545E-18
 -1      2086 9.52260E-05-2.84413E-05-2.86221E-05 1.29627E-07-3.15940E-19 1.00207E-18
 -1      2087 9.52416E-05-2.84771E-05-2.86124E-05 1.04703E-07-3.16008E-19 2.80214E-18
 -1      2088 9.52188E-05-2.83904E-05-2.86410E-05 1.89532E-07-1.24860E-18 1.72947E-18
 -1      2089 9.52505E-05-2.85101E-05-2.86028E-05 7.41571E-08-7.19594E-20 2.97157E-18
 -1      2090 9.52563E-05-2.85331E-05-2.85950E-05 4.78456E-08 2.42522E-19 2.88939E-18
 -1      2091 9.52678E-05-2.85293E-05-2.86018E-05 6.45921E-08 3.51691E-19 3.23015E-18
 -1      2092 9.52538E-05-2.84729E-05-2.86211E-05 1.28412E-07-2.55901E-19 2.66122E-18
 -1      2093 9.51362E-05-2.82522E-05-2.86656E-05 1.70657E-07-1.64423E-19-5.32510E-18
 -1      2094 9.51585E-05-2.82980E-05-2.86539E-05 1.71763E-07 4.11729E-19-1.74348E-18
 -1      2095 9.51642E-05-2.82887E-05-2.86607E-05 2.21026E-07-1.51819E-18-3.75876E-19
 -1      2096 9.50940E-05-2.81651E-05-2.86851E-05 1.43818E-07 5.78325E-19-2.45634E-18
 -1      2097 9.51136E-05-2.82058E-05-2.86748E-05 1.58683E-07 6.84928E-19-2.64191E-18
 -1      2098 9.51081E-05-2.81888E-05-2.86789E-05 2.13491E-07 1.26397E-19-3.45729E-18
 -1      2099 9.50635E-05-2.81022E-05-2.86992E-05 9.02675E-08-2.94059E-19-2.46912E-18
 -1      2100 9.50768E-05-2.81298E-05-2.86922E-05 1.15808E-07 6.48108E-19-2.84567E-18
 -1      2101 9.50599E-05-2.81041E-05-2.86941E-05 1.67444E-07 8.10715E-19-3.61555E-18
 -1      2102 9.50496E-05-2.80736E-05-2.87054E-05 2.01369E-08-2.23575E-18-2.96958E-18
 -1      2103 9.50542E-05-2.80832E-05-2.87030E-05 5.14746E-08-9.73465E-19-2.20258E-18
 -1      2104 9.50277E-05-2.80477E-05-2.87042E-05 9.12915E-08-6.22046E-19-3.52935E-18
 -1      2105 9.50544E-05-2.80836E-05-2.87029E-05-5.37712E-08-1.86901E-18-3.18471E-18
 -1      2106 9.50496E-05-2.80735E-05-2.87054E-05-2.24578E-08-1.74350E-18-2.62848E-18
 -1      2107 9.50164E-05-2.80278E-05-2.87078E-05-1.27424E-09-2.05800E-18-3.07332E-18
 -1      2108 9.50772E-05-2.81308E-05-2.86920E-05-1.17966E-07-2.58147E-18-1.75477E-18
 -1      2109 9.50637E-05-2.81027E-05-2.86991E-05-9.25528E-08-2.52106E-18-1.61876E-18
 -1      2110 9.50278E-05-2.80475E-05-2.87043E-05-9.38372E-08-1.38718E-18-2.83530E-18
 -1      2111 9.51138E-05-2.82058E-05-2.86749E-05-1.59923E-07-2.06387E-18-9.03312E-21
 -1      2112 9.50942E-05-2.81655E-05-2.86851E-05-1.45463E-07-2.43388E-18-7.78498E-19
 -1      2113 9.50599E-05-2.81034E-05-2.86944E-05-1.69429E-07-1.71718E-18-1.74940E-18
 -1      2114 9.51595E-05-2.82993E-05-2.86537E-05-1.72590E-07-9.60507E-19 2.83161E-18
 -1      2115 9.51366E-05-2.82524E-05-2.86656E-05-1.71841E-07-1.50124E-18 2.37944E-18
 -1      2116 9.51080E-05-2.81875E-05-2.86794E-05-2.14961E-07-4.39612E-19 1.27209E-18
 -1      2117 9.52055E-05-2.83952E-05-2.86320E-05-1.52026E-07-9.41348E-19 1.68694E-18
 -1      2118 9.51840E-05-2.83506E-05-2.86435E-05-1.65756E-07-5.47663E-19 1.00150E-18
 -1      2119 9.51650E-05-2.82889E-05-2.86610E-05-2.21749E-07 4.15800E-19 2.15684E-18
 -1      2120 9.52427E-05-2.84817E-05-2.86118E-05-1.01976E-07-1.92334E-18 1.87021E-18
 -1      2121 9.52281E-05-2.84444E-05-2.86216E-05-1.27976E-07-2.26683E-18 2.02317E-18
 -1      2122 9.52205E-05-2.83917E-05-2.86410E-05-1.88205E-07-1.42666E-18 5.77800E-19
 -1      2123 5.75957E-05-3.87126E-05-8.47747E-06 4.05721E-05 3.60031E-18 6.05750E-18
 -1      2124 4.25382E-05-3.99731E-05-2.30238E-06 3.32011E-05 2.06845E-18 7.33192E-18
 -1      2125 1.20038E-05-3.44711E-05 8.15279E-06 5.62150E-06 1.89121E-18 8.47118E-18
 -1      2126 1.19159E-05-3.48201E-05 8.28854E-06-3.24166E-06-5.63489E-19 7.24213E-18
 -1      2127 2.55767E-05-3.34881E-05 2.49576E-06 2.62529E-05 3.28733E-18 9.45818E-18
 -1      2128 1.79731E-05-3.57373E-05 6.10244E-06 1.64173E-05 1.59052E-18 9.45077E-18
 -1      2129 9.43192E-05-4.14261E-05-2.25895E-05 4.28553E-05 6.67081E-18 3.57088E-18
 -1      2130 7.61252E-05-4.37630E-05-1.48763E-05 3.85477E-05 5.19866E-18 3.24138E-18
 -1      2131 1.29990E-04-4.19499E-05-3.73590E-05 3.62461E-05 6.02325E-18 2.41108E-18
 -1      2132 1.09022E-04-4.24154E-05-2.91424E-05 3.65816E-05 7.14218E-18 3.50248E-18
 -1      2133 1.14001E-04-5.27875E-05-2.60650E-05 3.51429E-05 3.24625E-18 2.24252E-19
 -1      2134 8.73290E-05-8.69770E-06-3.37901E-05-1.03474E-05-1.75703E-18-3.38333E-18
 -1      2135 8.80365E-05-9.24423E-06-3.38531E-05-1.19236E-05-2.07229E-18-3.00564E-18
 -1      2136 9.05220E-05-1.30024E-05-3.32502E-05-1.16157E-05-2.33774E-18-2.54909E-18
 -1      2137 8.87234E-05-1.09893E-05-3.33466E-05-9.19360E-06-1.74161E-18-3.28617E-18
 -1      2138 1.76127E-04-2.81095E-05-6.23367E-05 9.76218E-06 5.63467E-18-3.87518E-20
 -1      2139 1.65502E-04-2.91848E-05-5.78710E-05 1.56038E-05 5.72637E-18 9.49524E-19
 -1      2140 1.76812E-04-2.19516E-05-6.54121E-05-5.37313E-07 6.02791E-18-2.02748E-18
 -1      2141 1.76062E-04-2.32464E-05-6.45183E-05 5.74589E-06 6.09948E-18-5.06314E-19
 -1      2142 1.75738E-04-2.58003E-05-6.32279E-05-1.06735E-05 5.97709E-18-3.44531E-18
 -1      2143 1.79629E-04-2.42646E-05-6.54842E-05-3.27057E-06 6.11854E-18-2.41743E-18
 -1      2144 1.58281E-04-3.20596E-05-5.37357E-05-1.94476E-05 4.69892E-18-3.85315E-18
 -1      2145 1.71934E-04-3.10356E-05-5.92450E-05-1.47768E-05 4.94752E-18-3.14546E-18
 -1      2146 1.33008E-04-3.98308E-05-4.01318E-05-3.03429E-05 3.95099E-18-5.06356E-18
 -1      2147 1.51281E-04-3.88920E-05-4.74539E-05-2.75448E-05 4.11605E-18-4.30166E-18
 -1      2148 9.93861E-05-4.23111E-05-2.52595E-05-3.77478E-05 4.06533E-18-5.70180E-18
 -1      2149 1.19245E-04-4.07602E-05-3.32933E-05-4.01776E-05 4.05221E-18-6.58907E-18
 -1      2150 6.26577E-05-4.19930E-05-1.01270E-05-3.69959E-05 3.88703E-18-5.15525E-18
 -1      2151 8.05369E-05-3.93613E-05-1.78247E-05-4.29165E-05 4.40965E-18-5.41085E-18
 -1      2152 3.48726E-05-3.79583E-05 3.13058E-07-3.03892E-05 1.38744E-18-4.72263E-18
 -1      2153 4.80298E-05-3.78543E-05-4.92639E-06-3.74685E-05 2.98749E-18-5.78428E-18
 -1      2154 1.41153E-05-3.31869E-05 6.90098E-06-1.01278E-05 2.91168E-19-5.20544E-18
 -1      2155 1.93893E-05-3.16164E-05 4.37835E-06-2.07427E-05 1.61339E-18-4.49266E-18
 -1      2156 1.48800E-05-3.14286E-05 6.06783E-06 1.24022E-05-8.29669E-19-5.01952E-18
 -1      2157 1.21718E-05-3.23859E-05 7.40878E-06 1.58098E-06 6.27043E-19-5.09575E-18
 -1      2158 3.54424E-05-3.74734E-05-2.08328E-07 3.02794E-05-1.78131E-18-5.20586E-18
 -1      2159 2.47331E-05-3.72364E-05 3.94140E-06 2.27498E-05-4.90432E-19-5.14424E-18
 -1      2160 6.63359E-05-3.98965E-05-1.18611E-05 4.02447E-05-2.90617E-18-3.43599E-18
 -1      2161 5.07520E-05-4.23013E-05-5.15749E-06 3.34142E-05-2.15273E-18-3.78246E-18
 -1      2162 1.04739E-04-4.26446E-05-2.65392E-05 4.13758E-05-3.57406E-18-2.52755E-18
 -1      2163 8.54566E-05-4.42754E-05-1.87543E-05 3.74934E-05-2.96334E-18-3.46860E-18
 -1      2164 1.40489E-04-4.30460E-05-4.13402E-05 3.18117E-05-4.18942E-18-2.59192E-19
 -1      2165 1.20140E-04-4.31694E-05-3.34649E-05 3.37090E-05-4.15512E-18-1.48781E-18
 -1      2166 1.67706E-04-3.60744E-05-5.52507E-05 1.89963E-05-4.07857E-18 4.17587E-19
 -1      2167 1.51136E-04-3.76390E-05-4.85636E-05 2.04139E-05-4.21409E-18 3.44319E-19
 -1      2168 1.77336E-04-2.76705E-05-6.31004E-05 6.38386E-06-3.98741E-18 1.55431E-18
 -1      2169 1.70815E-04-3.03022E-05-5.94442E-05 1.35255E-05-4.02383E-18 1.73218E-19
 -1      2170 1.58248E-04-3.09257E-05-5.35986E-05-8.75970E-08-3.67655E-18 1.88338E-18
 -1      2171 1.86043E-04-2.58029E-05-6.70710E-05-1.57956E-06-5.43922E-18 3.54769E-18
 -1      2172 1.79908E-04-2.36891E-05-6.59620E-05 4.40782E-06-4.89500E-18 1.87004E-18
 -1      2173 1.78105E-04-2.71548E-05-6.37222E-05-1.04590E-05-4.99834E-18 4.08185E-18
 -1      2174 1.86750E-04-2.76696E-05-6.65451E-05-4.59967E-06-5.58661E-18 3.43218E-18
 -1      2175 1.59949E-04-3.38754E-05-5.37567E-05-1.62685E-05-2.96800E-18 5.34647E-18
 -1      2176 1.74164E-04-3.24683E-05-5.94302E-05-1.32108E-05-3.97597E-18 4.27879E-18
 -1      2177 1.35130E-04-4.22340E-05-4.00597E-05-2.89747E-05-4.00477E-18 5.20036E-18
 -1      2178 1.52822E-04-4.13390E-05-4.71968E-05-2.48306E-05-2.86594E-18 5.80175E-18
 -1      2179 1.04539E-04-4.41583E-05-2.66389E-05-3.58330E-05-4.90686E-18 2.93539E-18
 -1      2180 1.24382E-04-4.30756E-05-3.44119E-05-3.75895E-05-4.77091E-18 4.24914E-18
 -1      2181 1.38735E-04-5.24983E-05-3.64504E-05-2.16044E-05-2.44051E-18 3.64139E-18
 -1      2182 6.89412E-05-4.42653E-05-1.17862E-05-3.69667E-05-4.83148E-18 2.41838E-18
 -1      2183 8.65462E-05-4.25440E-05-1.89937E-05-4.21659E-05-5.01189E-18 1.55346E-18
 -1      2184 3.65984E-05-4.05323E-05 6.56529E-08-2.86089E-05-3.36357E-18 5.68147E-18
 -1      2185 4.95596E-05-3.83964E-05-5.55610E-06-3.63193E-05-4.75990E-18 4.03754E-18
 -1      2186 1.64950E-05-3.72851E-05 7.17681E-06-1.34643E-05-1.64113E-18 5.90467E-18
 -1      2187 2.29452E-05-3.58811E-05 4.24791E-06-2.18449E-05-3.62361E-18 6.93296E-18
 -1      2188 1.61103E-04-3.57371E-05-5.26997E-05 2.34419E-05 5.26894E-18 7.31836E-19
 -1      2189 1.43405E-04-3.73906E-05-4.53962E-05 2.54654E-05 5.73314E-18 1.58141E-18
 -1      2190 9.71168E-05-2.42924E-05-3.12819E-05-9.86855E-06-2.50910E-18 1.10568E-18
 -1      2191 1.41615E-04-4.72917E-05-3.98942E-05 2.00966E-05 4.20044E-18-1.52762E-18
 -1      2192 1.56117E-04-3.19993E-05-5.22845E-05 4.83946E-06 4.44036E-18-1.87575E-18
 -1      2193 9.63317E-05-2.30942E-05-3.14548E-05-1.02050E-05-2.67772E-18-1.87300E-19
 -1      2194 4.17422E-05-3.42984E-05-3.49368E-06 3.59676E-05-6.51580E-19 7.18665E-18
 -1      2195 1.73726E-05-2.55366E-05 2.85952E-06 1.45601E-05 5.81065E-19 9.85862E-18
 -1      2196 9.52542E-05-2.84981E-05-2.86093E-05-9.10551E-08-1.28819E-18 2.29526E-18
 -1      2197 7.93782E-05-4.74565E-05-1.38480E-05 4.22921E-05 8.72444E-20 2.74552E-18
 -1      2198 1.59187E-05-2.68126E-05 3.81807E-06-1.09946E-05-4.82174E-19 7.88969E-18
 -1      2199 3.59118E-05-3.46397E-05-1.23499E-06-3.19886E-05-1.15535E-18 5.86020E-18
 -1      2200 1.10134E-04-5.42091E-05-2.39449E-05-3.58258E-05-2.67917E-18 1.16763E-18
 -1      2201 1.54502E-04-4.11876E-05-4.79127E-05-6.61747E-06-2.26295E-18 2.58726E-18
 -1      2202 1.62636E-04-2.48741E-05-5.80108E-05 4.52486E-07-4.43718E-18 2.21224E-18
 -1      2203 1.62488E-04-1.88158E-05-6.05376E-05-1.54325E-06-4.65783E-18 2.30097E-18
 -1      2204 1.48832E-04-4.65212E-05-4.32719E-05 1.39421E-05-3.17351E-18 1.35695E-18
 -1      2205 1.23880E-04-5.36975E-05-2.98048E-05 3.07456E-05-1.78300E-18-3.01967E-19
 -1      2206 8.90333E-05-5.02450E-05-1.68206E-05 4.06820E-05-7.66141E-19-2.51781E-18
 -1      2207 5.20112E-05-4.04079E-05-5.60606E-06 3.83510E-05-1.17738E-19-3.83155E-18
 -1      2208 2.39425E-05-2.82553E-05 1.24210E-06 2.13977E-05 4.37704E-19-5.26431E-18
 -1      2209 1.57886E-05-2.28239E-05 2.57569E-06-5.29554E-06 9.58206E-21-5.94151E-18
 -1      2210 3.36460E-05-3.07424E-05-1.54862E-06-3.10026E-05 3.17637E-20-5.01084E-18
 -1      2211 6.67839E-05-4.41243E-05-1.02299E-05-4.21063E-05 7.43271E-19-4.46625E-18
 -1      2212 1.02995E-04-5.09707E-05-2.22896E-05-3.89503E-05 1.54414E-18-3.64012E-18
 -1      2213 1.34945E-04-5.03696E-05-3.57356E-05-2.46875E-05 1.58607E-18-2.06761E-18
 -1      2214 1.52341E-04-3.87658E-05-4.79557E-05-8.73134E-06 3.16875E-18-1.20872E-18
 -1      2215 1.59822E-04-2.31038E-05-5.75554E-05-8.82320E-07 5.10168E-18-1.17335E-18
 -1      2216 1.57956E-04-1.76069E-05-5.91545E-05-8.10584E-07 6.07534E-18-1.47913E-18
 -1      2217 1.59675E-04-1.40588E-05-6.13803E-05-3.93355E-07 6.64540E-18-1.47161E-18
 -1      2218 1.64904E-04-1.58818E-05-6.25053E-05 2.83461E-07-5.74881E-18 2.47228E-18
 -1      2219 7.12029E-05-4.59639E-05-1.10936E-05-4.15747E-05-1.46028E-18 1.05392E-18
 -1      2220 9.52674E-05-2.63528E-05-2.95197E-05 3.97238E-06 2.04503E-18 1.76756E-18
 -1      2221 9.61992E-05-2.58363E-05-3.00818E-05 5.80212E-06 2.24914E-18 2.11992E-18
 -1      2222 8.80961E-05-1.09655E-05-3.30959E-05-3.52510E-06-3.15191E-19-3.33172E-18
 -1      2223 8.83455E-05-1.12535E-05-3.30760E-05-4.63690E-06-6.33234E-19-3.40493E-18
 -1      2224 8.87169E-05-1.17668E-05-3.30246E-05-5.62720E-06-9.10676E-19-3.39532E-18
 -1      2225 8.91388E-05-1.22604E-05-3.29926E-05-6.77867E-06-1.28534E-18-3.33296E-18
 -1      2226 8.98452E-05-1.35862E-05-3.26807E-05-4.69926E-06-7.08654E-19-3.10450E-18
 -1      2227 8.77206E-05-1.04696E-05-3.31415E-05 5.95435E-07 7.98968E-19-3.41816E-18
 -1      2228 8.77162E-05-1.04645E-05-3.31419E-05-4.77897E-07 5.35314E-19-3.47771E-18
 -1      2229 8.79161E-05-1.07123E-05-3.31214E-05 2.65816E-06 1.27796E-18-3.28898E-18
 -1      2230 8.77923E-05-1.05692E-05-3.31317E-05 1.57412E-06 9.91329E-19-3.41027E-18
 -1      2231 8.89991E-05-1.24553E-05-3.28062E-05 1.00128E-06 8.86260E-19-3.23289E-18
 -1      2232 8.83800E-05-1.12977E-05-3.30721E-05 4.72130E-06 1.77271E-18-3.09066E-18
 -1      2233 8.81256E-05-1.10034E-05-3.30926E-05 3.62663E-06 1.48060E-18-3.21025E-18
 -1      2234 8.92880E-05-1.28399E-05-3.27639E-05 2.88559E-06 1.36138E-18-3.08908E-18
 -1      2235 8.91951E-05-1.23335E-05-3.29857E-05 6.86143E-06 2.33651E-18-2.50886E-18
 -1      2236 8.87612E-05-1.18245E-05-3.30191E-05 5.70921E-06 2.04201E-18-2.85052E-18
 -1      2237 8.98849E-05-1.36397E-05-3.26745E-05 4.76968E-06 1.85662E-18-2.69839E-18
 -1      2238 9.04919E-05-1.39995E-05-3.28458E-05 8.98828E-06 2.70615E-18-1.76492E-18
 -1      2239 8.98020E-05-1.31662E-05-3.28984E-05 7.81750E-06 2.43955E-18-2.23062E-18
 -1      2240 9.08648E-05-1.49654E-05-3.25207E-05 6.62041E-06 2.32323E-18-2.19490E-18
 -1      2241 9.24914E-05-1.66198E-05-3.26161E-05 1.08779E-05 2.97648E-18-6.53254E-19
 -1      2242 9.14180E-05-1.52627E-05-3.26990E-05 9.79478E-06 2.73401E-18-1.25659E-18
 -1      2243 9.23207E-05-1.69861E-05-3.22653E-05 8.25248E-06 2.55700E-18-1.30170E-18
 -1      2244 9.43817E-05-2.70955E-05-2.88176E-05 1.46151E-06 1.59033E-18 1.30811E-18
 -1      2245 9.49235E-05-2.68672E-05-2.90953E-05 2.47475E-06 1.76901E-18 1.65610E-18
 -1      2246 9.54200E-05-2.58053E-05-2.98442E-05 4.06478E-06 2.11964E-18 8.01409E-19
 -1      2247 9.59514E-05-2.50594E-05-3.03377E-05-5.94909E-06-2.14202E-18-7.46863E-19
 -1      2248 9.53374E-05-2.58037E-05-2.98114E-05-3.99959E-06-1.92664E-18-7.93471E-19
 -1      2249 1.44385E-04-4.77456E-05-4.18587E-05 7.86497E-06 3.14135E-18-3.65452E-18
 -1      2250 1.34855E-04-5.35312E-05-3.49482E-05 1.63227E-05 2.80294E-18-3.41227E-18
 -1      2251 9.52426E-05-2.64830E-05-2.94133E-05-2.60279E-06-1.66442E-18-6.37669E-19
 -1      2252 9.48368E-05-2.68531E-05-2.91324E-05-1.48759E-06-1.39621E-18-8.15738E-19
 -1      2253 9.54247E-05-2.52801E-05-3.00681E-05-3.92942E-06-1.84904E-18-1.12857E-18
 -1      2254 9.46792E-05-2.71718E-05-2.88938E-05-5.63281E-07-1.19857E-18-6.50355E-19
 -1      2255 9.44994E-05-2.73844E-05-2.87574E-05 1.17354E-07-9.74644E-19-8.43069E-19
 -1      2256 9.51950E-05-2.65944E-05-2.94160E-05-1.42513E-06-1.31687E-18-1.13485E-18
 -1      2257 9.44057E-05-2.75541E-05-2.86281E-05 7.30440E-07-8.48064E-19-8.01459E-19
 -1      2258 9.44134E-05-2.77004E-05-2.85838E-05 1.16805E-06-7.42180E-19-8.37394E-19
 -1      2259 9.49783E-05-2.72782E-05-2.90292E-05 2.46663E-07-1.06696E-18-8.86781E-19
 -1      2260 9.44016E-05-2.77987E-05-2.85314E-05 1.59098E-06-6.42335E-19-9.31611E-19
 -1      2261 9.45499E-05-2.79133E-05-2.85500E-05 1.89810E-06-6.06679E-19-8.11094E-19
 -1      2262 9.49017E-05-2.76649E-05-2.88284E-05 1.37800E-06-7.59234E-19-8.57537E-19
 -1      2263 9.46135E-05-2.79737E-05-2.85533E-05 2.21824E-06-6.13409E-19-7.49766E-19
 -1      2264 9.48700E-05-2.80724E-05-2.86178E-05 2.46553E-06-4.12872E-19-7.13995E-19
 -1      2265 9.49726E-05-2.78872E-05-2.87609E-05 2.19190E-06-6.07081E-19-8.13247E-19
 -1      2266 9.49977E-05-2.81111E-05-2.86628E-05 2.74376E-06-5.00809E-19-8.77776E-19
 -1      2267 9.53443E-05-2.82035E-05-2.87634E-05 2.97837E-06-5.69902E-19-9.30340E-19
 -1      2268 9.51753E-05-2.80136E-05-2.87916E-05 2.84538E-06-5.52361E-19-1.19555E-18
 -1      2269 9.55276E-05-2.82304E-05-2.88412E-05 3.25793E-06-7.78448E-19-8.88629E-19
 -1      2270 9.59578E-05-2.83251E-05-2.89727E-05 3.51205E-06-7.54739E-19-1.15484E-18
 -1      2271 9.54923E-05-2.80813E-05-2.88970E-05 3.44948E-06-7.08028E-19-1.00806E-18
 -1      2272 9.61931E-05-2.83487E-05-2.90771E-05 3.82289E-06-5.04361E-19-1.01986E-18
 -1      2273 9.67088E-05-2.84560E-05-2.92369E-05 4.11700E-06-5.71306E-19-8.55150E-19
 -1      2274 9.59130E-05-2.81171E-05-2.90610E-05 4.08228E-06-6.26961E-19-1.25856E-18
 -1      2275 9.69976E-05-2.84871E-05-2.93633E-05 4.47730E-06-3.61111E-19-8.41398E-19
 -1      2276 9.76070E-05-2.86213E-05-2.95497E-05 4.81988E-06-3.47002E-21-7.76298E-19
 -1      2277 9.64369E-05-2.81480E-05-2.92717E-05 4.79520E-06-3.86520E-19-6.21474E-19
 -1      2278 9.79574E-05-2.86767E-05-2.96934E-05 5.23463E-06-1.54594E-19-8.50433E-19
 -1      2279 9.86724E-05-2.88589E-05-2.99042E-05 5.61873E-06-2.54780E-20-6.56299E-19
 -1      2280 9.70747E-05-2.82099E-05-2.95185E-05 5.61336E-06-2.12447E-19-3.86451E-19
 -1      2281 9.91023E-05-2.89659E-05-3.00593E-05 6.07541E-06 9.97654E-20-6.32977E-19
 -1      2282 9.99374E-05-2.92278E-05-3.02898E-05 6.47160E-06 1.37916E-20-4.81215E-19
 -1      2283 9.78535E-05-2.83582E-05-2.97892E-05 6.53042E-06 8.53818E-20-4.62677E-19
 -1      2284 1.00480E-04-2.94308E-05-3.04483E-05 6.93218E-06-2.36196E-19-6.11419E-19
 -1      2285 1.01451E-04-2.98187E-05-3.06896E-05 7.27774E-06-2.79630E-19-5.79614E-19
 -1      2286 9.88247E-05-2.86812E-05-3.00688E-05 7.49693E-06-1.30050E-19-5.53137E-19
 -1      2287 1.02164E-04-3.01863E-05-3.08417E-05 7.66627E-06-4.97156E-19-2.55743E-19
 -1      2288 1.03284E-04-3.07627E-05-3.10801E-05 7.85159E-06-2.32827E-19-6.15608E-19
 -1      2289 1.00079E-04-2.93158E-05-3.03385E-05 8.40132E-06-2.91517E-19-4.43130E-19
 -1      2290 1.04260E-04-3.13895E-05-3.12163E-05 8.03718E-06-1.72112E-19-7.96766E-19
 -1      2291 1.05535E-04-3.22238E-05-3.14341E-05 7.89427E-06-1.03861E-19-8.96091E-19
 -1      2292 1.01764E-04-3.04579E-05-3.05792E-05 9.04240E-06-4.45768E-19-6.53235E-19
 -1      2293 1.06896E-04-3.32134E-05-3.15526E-05 7.67190E-06 4.20159E-19-1.00347E-18
 -1      2294 1.08300E-04-3.43420E-05-3.17344E-05 6.97776E-06 3.22531E-19-8.15350E-19
 -1      2295 1.04097E-04-3.23452E-05-3.07827E-05 9.09479E-06 1.92851E-19-5.03154E-19
 -1      2296 1.10160E-04-3.57412E-05-3.18541E-05 6.06283E-06-1.77829E-19-5.20639E-19
 -1      2297 1.11585E-04-3.70727E-05-3.19993E-05 4.58932E-06-4.27285E-19-3.14859E-19
 -1      2298 1.07323E-04-3.51600E-05-3.09737E-05 8.07794E-06 2.26844E-19-2.78020E-19
 -1      2299 1.13927E-04-3.87272E-05-3.21812E-05 2.66819E-06-2.08468E-19 2.18817E-19
 -1      2300 1.15097E-04-3.98792E-05-3.23226E-05 3.17426E-07 1.76249E-19 4.34521E-19
 -1      2301 1.11558E-04-3.87753E-05-3.12483E-05 5.38148E-06 5.81475E-20 4.91321E-19
 -1      2302 1.17535E-04-4.12021E-05-3.26864E-05-2.74779E-06 2.60423E-19 7.79479E-19
 -1      2303 1.17950E-04-4.13611E-05-3.29042E-05-5.66122E-06 3.59360E-19 8.89292E-19
 -1      2304 1.16439E-04-4.23021E-05-3.18170E-05 4.74050E-07 4.51459E-19 1.61624E-18
 -1      2305 1.19511E-04-4.12317E-05-3.36056E-05-9.31889E-06 5.25462E-19 9.72860E-19
 -1      2306 1.18664E-04-3.94424E-05-3.39795E-05-1.17343E-05 5.28932E-19 1.02933E-18
 -1      2307 1.20620E-04-4.36021E-05-3.30139E-05-6.49178E-06 7.28807E-19 1.97623E-18
 -1      2308 1.18144E-04-3.67939E-05-3.50460E-05-1.41526E-05-2.30419E-19 7.42464E-19
 -1      2309 1.16129E-04-3.30261E-05-3.55558E-05-1.42651E-05-7.27323E-19 7.02382E-19
 -1      2310 1.21790E-04-3.99915E-05-3.50804E-05-1.33597E-05-2.30472E-19 1.92971E-18
 -1      2311 1.13792E-04-2.88878E-05-3.66850E-05-1.28935E-05-1.08521E-18-2.34559E-19
 -1      2312 1.11668E-04-2.51128E-05-3.71335E-05-9.82473E-06-1.03267E-18-5.47064E-19
 -1      2313 1.18840E-04-3.13100E-05-3.75447E-05-1.53888E-05-1.49954E-18 5.99143E-19
 -1      2314 1.10208E-04-2.25018E-05-3.77070E-05-4.01548E-06-1.35237E-18-1.88592E-18
 -1      2315 1.09876E-04-2.20792E-05-3.77565E-05 1.12391E-06-1.69123E-18-2.29358E-18
 -1      2316 1.14558E-04-2.20414E-05-3.97505E-05-7.76549E-06-2.14389E-18-8.43089E-19
 -1      2317 1.10901E-04-2.36290E-05-3.74103E-05 7.34435E-06-1.39946E-18-3.14192E-18
 -1      2318 1.12564E-04-2.67115E-05-3.70556E-05 1.12983E-05-1.07515E-18-3.30892E-18
 -1      2319 1.13889E-04-2.08662E-05-4.00547E-05 4.82047E-06-2.22251E-18-3.05373E-18
 -1      2320 1.15050E-04-3.09358E-05-3.60003E-05 1.39790E-05 1.02650E-19-3.18988E-18
 -1      2321 1.17314E-04-3.49939E-05-3.54760E-05 1.46282E-05 1.25811E-18-2.53045E-18
 -1      2322 1.17578E-04-2.83126E-05-3.83439E-05 1.42881E-05-2.56016E-19-3.47077E-18
 -1      2323 1.18328E-04-3.81873E-05-3.43574E-05 1.29551E-05 8.98993E-19-2.68510E-18
 -1      2324 1.19564E-04-4.05499E-05-3.39452E-05 1.09589E-05 9.09672E-19-3.04781E-18
 -1      2325 1.21483E-04-3.81796E-05-3.57224E-05 1.44522E-05 6.99464E-19-3.20192E-18
 -1      2326 1.18456E-04-4.12596E-05-3.31552E-05 7.42329E-06 1.30346E-18-2.94709E-18
 -1      2327 1.18346E-04-4.15282E-05-3.29101E-05 4.51642E-06 1.09343E-18-2.67881E-18
 -1      2328 1.21326E-04-4.31859E-05-3.34834E-05 8.49827E-06 9.10236E-19-2.81710E-18
 -1      2329 1.16032E-04-4.04609E-05-3.24783E-05 1.21598E-06 7.42113E-19-2.65306E-18
 -1      2330 1.15022E-04-3.94746E-05-3.23324E-05-1.31772E-06 9.56772E-19-1.76466E-18
 -1      2331 1.17734E-04-4.29428E-05-3.20914E-05 1.30265E-06 7.58350E-19-1.86080E-18
 -1      2332 1.12607E-04-3.78247E-05-3.21226E-05-3.51778E-06 4.84976E-19-2.15763E-18
 -1      2333 1.11237E-04-3.64879E-05-3.19913E-05-5.19567E-06 2.38215E-19-1.60936E-18
 -1      2334 1.12876E-04-3.97354E-05-3.14028E-05-4.17096E-06 6.60355E-19-1.41126E-18
 -1      2335 1.09254E-04-3.49918E-05-3.18717E-05-6.31174E-06-2.29864E-19-1.62797E-18
 -1      2336 1.07860E-04-3.37960E-05-3.17113E-05-7.15663E-06-2.42232E-20-1.06170E-18
 -1      2337 1.08428E-04-3.60020E-05-3.10903E-05-7.34710E-06 9.83964E-20-7.90665E-19
 -1      2338 1.06400E-04-3.26996E-05-3.16061E-05-7.48934E-06 1.96877E-19-1.06074E-18
 -1      2339 1.05128E-04-3.17957E-05-3.14102E-05-7.71444E-06 8.92209E-20-3.12118E-19
 -1      2340 1.04976E-04-3.29381E-05-3.09090E-05-8.66216E-06 2.34015E-19-1.31338E-18
 -1      2341 1.04091E-04-3.10851E-05-3.12911E-05-7.56622E-06 3.73613E-19-2.36160E-19
 -1      2342 1.02983E-04-3.04573E-05-3.10732E-05-7.40292E-06 3.48678E-19 4.86715E-19
 -1      2343 1.02481E-04-3.08187E-05-3.07349E-05-8.74586E-06 4.11686E-19-9.40590E-19
 -1      2344 1.02243E-04-3.00345E-05-3.09384E-05-6.99927E-06-6.11372E-19 8.97345E-19
 -1      2345 1.01298E-04-2.96170E-05-3.07165E-05-6.63123E-06-3.78165E-19 4.66624E-19
 -1      2346 1.00707E-04-2.95059E-05-3.05284E-05-8.11777E-06 1.60815E-19 3.56106E-19
 -1      2347 1.00754E-04-2.93827E-05-3.05743E-05-6.12082E-06-4.85802E-19 8.53662E-19
 -1      2348 9.99621E-05-2.91106E-05-3.03634E-05-5.67269E-06-1.05473E-19 8.27023E-19
 -1      2349 9.94248E-05-2.87632E-05-3.02920E-05-7.14105E-06-8.10505E-20 4.82002E-19
 -1      2350 9.95476E-05-2.89902E-05-3.02235E-05-5.14552E-06 3.79422E-19 4.43269E-19
 -1      2351 9.88928E-05-2.88141E-05-3.00334E-05-4.69262E-06-2.94936E-19 6.25547E-19
 -1      2352 9.84678E-05-2.83825E-05-3.00425E-05-6.04799E-06-4.30997E-19 6.24804E-19
 -1      2353 9.85683E-05-2.87585E-05-2.99031E-05-4.19841E-06-1.05958E-18 2.94830E-19
 -1      2354 9.80347E-05-2.86447E-05-2.97386E-05-3.78116E-06-1.18763E-18-5.44005E-19
 -1      2355 9.77313E-05-2.82149E-05-2.97976E-05-4.97584E-06-6.14391E-19 3.72630E-19
 -1      2356 9.77766E-05-2.86243E-05-2.96226E-05-3.34380E-06-1.31670E-19-9.89771E-19
 -1      2357 9.73484E-05-2.85510E-05-2.94846E-05-2.98021E-06-5.35018E-19 3.21214E-19
 -1      2358 9.71523E-05-2.81650E-05-2.95702E-05-3.99789E-06-1.12803E-18-3.58894E-19
 -1      2359 9.71422E-05-2.85487E-05-2.93849E-05-2.60787E-06-1.00218E-18 1.10263E-18
 -1      2360 9.68041E-05-2.85019E-05-2.92723E-05-2.30268E-06-8.27268E-19 9.16697E-19
 -1      2361 9.66924E-05-2.81756E-05-2.93682E-05-3.14659E-06-4.90355E-19 1.28712E-18
 -1      2362 9.66400E-05-2.85082E-05-2.91890E-05-1.99457E-06-6.91523E-19 2.32807E-18
 -1      2363 9.63774E-05-2.84789E-05-2.90992E-05-1.74525E-06 8.14529E-20 2.53646E-18
 -1      2364 9.63270E-05-2.82138E-05-2.91949E-05-2.42970E-06 3.68946E-19 2.53909E-18
 -1      2365 9.62480E-05-2.84886E-05-2.90313E-05-1.49581E-06 3.56363E-19 3.43056E-18
 -1      2366 9.60474E-05-2.84709E-05-2.89611E-05-1.29627E-06 1.24277E-18 3.54583E-18
 -1      2367 9.60385E-05-2.82617E-05-2.90503E-05-1.84098E-06 2.23754E-19 3.92728E-18
 -1      2368 9.59466E-05-2.84811E-05-2.89070E-05-1.09784E-06 1.78304E-18 2.63078E-18
 -1      2369 9.57962E-05-2.84710E-05-2.88534E-05-9.40591E-07 2.00762E-18 2.58747E-18
 -1      2370 9.58131E-05-2.83097E-05-2.89327E-05-1.36706E-06 1.17669E-18 4.04093E-18
 -1      2371 9.57185E-05-2.84802E-05-2.88111E-05-7.84871E-07 1.40728E-18 1.84727E-18
 -1      2372 9.56079E-05-2.84747E-05-2.87710E-05-6.62248E-07 1.63205E-18 1.63384E-18
 -1      2373 9.56388E-05-2.83528E-05-2.88391E-05-9.91612E-07 8.83056E-19 2.97934E-18
 -1      2374 9.55485E-05-2.84823E-05-2.87386E-05-5.41252E-07 2.27138E-18 1.04623E-18
 -1      2375 9.54690E-05-2.84797E-05-2.87093E-05-4.46366E-07 2.02821E-18 2.07511E-18
 -1      2376 9.55055E-05-2.83890E-05-2.87660E-05-6.97831E-07 1.51301E-18 2.17465E-18
 -1      2377 9.54235E-05-2.84859E-05-2.86847E-05-3.52810E-07 2.14826E-18 2.99306E-18
 -1      2378 9.53685E-05-2.84850E-05-2.86636E-05-2.80315E-07 8.87733E-19 3.79461E-18
 -1      2379 9.54036E-05-2.84173E-05-2.87098E-05-4.70271E-07 2.87348E-18 6.70021E-19
 -1      2380 9.37978E-05-2.76991E-05-2.83162E-05-9.99144E-07 8.25655E-19 5.32797E-19
 -1      2381 9.37652E-05-2.75783E-05-2.83404E-05-6.32613E-07 1.06468E-18 7.98162E-19
 -1      2382 9.39881E-05-2.78953E-05-2.83151E-05-1.62516E-06 5.26682E-19 1.97560E-19
 -1      2383 9.37934E-05-2.77796E-05-2.82774E-05-1.37912E-06 6.48905E-19 3.93972E-19
 -1      2384 9.44446E-05-2.77389E-05-2.86018E-05-1.22101E-06 9.38933E-19 2.71948E-20
 -1      2385 9.44024E-05-2.80805E-05-2.84137E-05-2.08289E-06 8.02885E-19 3.05052E-19
 -1      2386 9.40905E-05-2.79628E-05-2.83324E-05-1.89560E-06 6.26025E-19 2.26585E-19
 -1      2387 9.45646E-05-2.79505E-05-2.85599E-05-1.94720E-06 7.50337E-19-1.87121E-19
 -1      2388 9.49953E-05-2.82699E-05-2.85864E-05-2.46886E-06 9.52196E-19 4.51257E-19
 -1      2389 9.45905E-05-2.81454E-05-2.84720E-05-2.30193E-06 1.01028E-18 5.24426E-19
 -1      2390 9.48652E-05-2.81138E-05-2.86166E-05-2.49662E-06 8.91253E-19 5.05471E-20
 -1      2391 9.57430E-05-2.84759E-05-2.88181E-05-2.84423E-06 5.67378E-19 3.44268E-19
 -1      2392 9.52557E-05-2.83390E-05-2.86761E-05-2.67408E-06 8.33290E-19 3.68222E-19
 -1      2393 9.53160E-05-2.82579E-05-2.87465E-05-2.97194E-06 9.28791E-19 1.48866E-19
 -1      2394 9.66382E-05-2.87133E-05-2.90996E-05-3.24317E-06 3.88250E-19 3.24313E-19
 -1      2395 9.60701E-05-2.85561E-05-2.89330E-05-3.05805E-06 4.63157E-19 3.07629E-19
 -1      2396 9.59009E-05-2.84054E-05-2.89332E-05-3.43813E-06 6.22505E-19 2.95139E-19
 -1      2397 9.76838E-05-2.90015E-05-2.94245E-05-3.67425E-06 6.70807E-19-2.49598E-20
 -1      2398 9.70324E-05-2.88137E-05-2.92353E-05-3.47440E-06 7.01704E-19 1.66268E-19
 -1      2399 9.66171E-05-2.85803E-05-2.91648E-05-3.92957E-06 7.66277E-19 1.32806E-19
 -1      2400 9.88875E-05-2.93664E-05-2.97856E-05-4.11686E-06 8.94463E-19-7.16601E-19
 -1      2401 9.81505E-05-2.91348E-05-2.95768E-05-3.91698E-06 7.02398E-19-5.47796E-19
 -1      2402 9.74727E-05-2.88130E-05-2.94318E-05-4.45060E-06 1.03579E-18-5.98637E-19
 -1      2403 1.00256E-04-2.98414E-05-3.01720E-05-4.51358E-06 6.58915E-19-6.09935E-19
 -1      2404 9.94362E-05-2.95505E-05-2.99492E-05-4.34705E-06 8.33459E-19-6.52823E-19
 -1      2405 9.84854E-05-2.91450E-05-2.97239E-05-4.97096E-06 8.45493E-19-8.00773E-19
 -1      2406 1.01787E-04-3.04662E-05-3.05669E-05-4.76008E-06 9.96332E-20-2.39167E-19
 -1      2407 1.00899E-04-3.00998E-05-3.03400E-05-4.68397E-06 5.21320E-19-3.40900E-19
 -1      2408 9.96809E-05-2.96311E-05-3.00287E-05-5.41720E-06 4.88275E-19-4.92226E-19
 -1      2409 1.03460E-04-3.12802E-05-3.09456E-05-4.69641E-06-3.94295E-19-1.29102E-19
 -1      2410 1.02539E-04-3.08268E-05-3.07303E-05-4.79463E-06-3.87259E-19-6.89041E-22
 -1      2411 1.01090E-04-3.03389E-05-3.03306E-05-5.66171E-06-1.79211E-19-2.45285E-19
 -1      2412 1.05223E-04-3.23027E-05-3.12771E-05-4.10851E-06 2.43241E-19-5.51899E-19
 -1      2413 1.04332E-04-3.17680E-05-3.10943E-05-4.48752E-06 8.50292E-20-1.76074E-19
 -1      2414 1.02744E-04-3.13376E-05-3.06125E-05-5.51403E-06-1.61399E-19-4.50978E-19
 -1      2415 1.06962E-04-3.34905E-05-3.15294E-05-2.75740E-06 8.75984E-20 9.90921E-20
 -1      2416 1.06207E-04-3.29210E-05-3.14027E-05-3.52451E-06 2.49317E-19 5.53251E-20
 -1      2417 1.04648E-04-3.26641E-05-3.08607E-05-4.72437E-06 5.92940E-20 8.67605E-20
 -1      2418 1.08467E-04-3.46679E-05-3.16825E-05-4.63480E-07-4.83533E-19 3.38546E-19
 -1      2419 1.08001E-04-3.41847E-05-3.16310E-05-1.67444E-06-1.64950E-19 4.67539E-19
 -1      2420 1.06741E-04-3.42526E-05-3.10744E-05-3.02058E-06-2.06987E-19 1.04816E-18
 -1      2421 1.09394E-04-3.54533E-05-3.17443E-05 2.72664E-06-1.02406E-18 9.61771E-20
 -1      2422 1.09409E-04-3.52759E-05-3.17730E-05 1.15744E-06-7.21348E-19 2.79259E-19
 -1      2423 1.08810E-04-3.58239E-05-3.12784E-05-2.13792E-07-5.89939E-19 1.21090E-18
 -1      2424 1.09296E-04-3.52648E-05-3.17610E-05 6.30637E-06-9.29612E-19 3.81479E-19
 -1      2425 1.09962E-04-3.56781E-05-3.18519E-05 4.70875E-06-1.29020E-18 3.56524E-19
 -1      2426 1.10403E-04-3.67894E-05-3.15299E-05 3.58958E-06-1.07068E-18 1.04115E-18
 -1      2427 1.07805E-04-3.35606E-05-3.18066E-05 9.12542E-06 3.44701E-19 3.96246E-19
 -1      2428 1.09142E-04-3.47466E-05-3.19191E-05 8.10974E-06-5.99110E-20 3.89903E-19
 -1      2429 1.10847E-04-3.63073E-05-3.19048E-05 7.69075E-06-4.76727E-19 8.25195E-19
 -1      2430 1.05070E-04-3.04152E-05-3.19363E-05 9.59413E-06 5.47197E-20 1.11793E-18
 -1      2431 1.06768E-04-3.21617E-05-3.20264E-05 9.85324E-06 4.86693E-19 1.04461E-18
 -1      2432 1.09564E-04-3.37420E-05-3.24472E-05 1.05827E-05-8.89401E-20 1.03960E-18
 -1      2433 1.02142E-04-2.70382E-05-3.21194E-05 6.59310E-06-1.61029E-19 9.84041E-19
 -1      2434 1.03546E-04-2.85937E-05-3.21684E-05 8.42191E-06-1.26152E-19 1.10941E-18
 -1      2435 1.06772E-04-2.95403E-05-3.30910E-05 1.03317E-05 1.96707E-19 1.49341E-18
 -1      2436 1.00679E-04-2.53582E-05-3.22474E-05 7.28445E-07 1.13588E-19 4.71091E-19
 -1      2437 1.01103E-04-2.58342E-05-3.22583E-05 3.57044E-06 8.72444E-20 5.54850E-19
 -1      2438 1.03953E-04-2.56441E-05-3.36131E-05 5.92278E-06 4.60746E-19 1.04682E-18
 -1      2439 1.01718E-04-2.65338E-05-3.22428E-05-5.51104E-06 4.82544E-19-3.30651E-19
 -1      2440 1.00925E-04-2.56191E-05-3.22187E-05-2.89504E-06 3.55396E-19-3.20759E-19
 -1      2441 1.03055E-04-2.44351E-05-3.37668E-05-1.27210E-06 7.68047E-19-4.04096E-19
 -1      2442 1.04640E-04-2.97858E-05-3.21300E-05-9.33971E-06 9.42556E-19-7.53340E-19
 -1      2443 1.03055E-04-2.80660E-05-3.20636E-05-8.01658E-06 7.32889E-19-8.54153E-19
 -1      2444 1.04774E-04-2.67430E-05-3.34729E-05-7.85666E-06 8.59596E-19-1.16450E-18
 -1      2445 1.07749E-04-3.31739E-05-3.20039E-05-9.62793E-06 2.64395E-19-1.23618E-18
 -1      2446 1.06100E-04-3.15671E-05-3.18973E-05-9.83479E-06 8.77858E-19-1.12807E-18
 -1      2447 1.07821E-04-3.10160E-05-3.28880E-05-1.09156E-05 1.20735E-18-2.14307E-18
 -1      2448 1.09665E-04-3.52289E-05-3.19240E-05-7.18083E-06 7.68484E-20-8.82196E-19
 -1      2449 1.08511E-04-3.43072E-05-3.18077E-05-8.42831E-06-1.72585E-19-9.54725E-19
 -1      2450 1.10232E-04-3.48200E-05-3.22719E-05-9.95727E-06 7.41956E-20-2.65757E-18
 -1      2451 1.10018E-04-3.56619E-05-3.18717E-05-3.62377E-06-5.60517E-19-5.08644E-19
 -1      2452 1.09549E-04-3.54726E-05-3.17910E-05-5.21273E-06 6.46690E-20-7.21017E-19
 -1      2453 1.10937E-04-3.66752E-05-3.17954E-05-6.48415E-06-1.87057E-19-2.64230E-18
 -1      2454 1.09164E-04-3.49712E-05-3.17923E-05-2.84151E-07 5.77008E-19-1.34609E-18
 -1      2455 1.09294E-04-3.52705E-05-3.17805E-05-1.70277E-06 1.64956E-19-1.37001E-19
 -1      2456 1.10061E-04-3.65848E-05-3.14817E-05-2.39230E-06 2.63768E-19-2.37367E-18
 -1      2457 1.07639E-04-3.37884E-05-3.16428E-05 2.18442E-06-3.90892E-20-2.68545E-18
 -1      2458 1.08179E-04-3.43052E-05-3.17094E-05 1.16928E-06 3.63715E-19-1.48121E-18
 -1      2459 1.08280E-04-3.53323E-05-3.12696E-05 1.07458E-06 4.95154E-19-2.34932E-18
 -1      2460 1.05865E-04-3.25556E-05-3.14116E-05 3.66305E-06-3.92740E-19-2.40376E-18
 -1      2461 1.06630E-04-3.31055E-05-3.15449E-05 3.07704E-06-4.05732E-19-2.21446E-18
 -1      2462 1.06213E-04-3.37055E-05-3.10862E-05 3.44446E-06-4.06071E-19-1.91455E-18
 -1      2463 1.04099E-04-3.14873E-05-3.11136E-05 4.31011E-06-1.61924E-19-3.45168E-19
 -1      2464 1.04948E-04-3.19789E-05-3.12914E-05 4.07480E-06-7.10460E-19-1.59946E-18
 -1      2465 1.04229E-04-3.21890E-05-3.08858E-05 4.73994E-06-9.24257E-19-6.92475E-19
 -1      2466 1.02467E-04-3.06445E-05-3.07768E-05 4.36800E-06 1.00286E-18 9.98890E-19
 -1      2467 1.03308E-04-3.10477E-05-3.09755E-05 4.37612E-06 5.10986E-19 3.43444E-19
 -1      2468 1.02480E-04-3.09780E-05-3.06538E-05 5.19489E-06-4.74443E-19-1.29850E-19
 -1      2469 1.01026E-04-3.00135E-05-3.04303E-05 4.06326E-06 2.62600E-19 2.11194E-18
 -1      2470 1.01803E-04-3.03288E-05-3.06300E-05 4.21748E-06 1.51751E-18 2.25338E-18
 -1      2471 1.01001E-04-3.00947E-05-3.03968E-05 5.08129E-06 4.37005E-19 1.09154E-18
 -1      2472 9.97894E-05-2.95549E-05-3.00975E-05 3.57065E-06 5.59569E-19 4.69535E-19
 -1      2473 1.00475E-04-2.97947E-05-3.02846E-05 3.79720E-06 3.17800E-19 1.73401E-18
 -1      2474 9.97745E-05-2.94871E-05-3.01300E-05 4.63246E-06 1.01000E-18 1.67339E-18
 -1      2475 9.87536E-05-2.92274E-05-2.97943E-05 3.00992E-06 1.13404E-19-1.30808E-19
 -1      2476 9.93370E-05-2.94063E-05-2.99608E-05 3.25913E-06 8.40498E-20 1.96928E-19
 -1      2477 9.87677E-05-2.90864E-05-2.98693E-05 4.02129E-06 6.93592E-19 1.49548E-18
 -1      2478 9.79033E-05-2.89963E-05-2.95292E-05 2.45546E-06-8.50685E-19 6.07678E-19
 -1      2479 9.83854E-05-2.91279E-05-2.96716E-05 2.69717E-06 1.91434E-19 3.74537E-20
 -1      2480 9.79489E-05-2.88309E-05-2.96272E-05 3.36366E-06 4.88525E-20 1.86454E-18
 -1      2481 9.72184E-05-2.88350E-05-2.93050E-05 1.94850E-06-1.27530E-18 7.06685E-19
 -1      2482 9.76069E-05-2.89303E-05-2.94230E-05 2.16656E-06-1.62676E-18 8.35345E-20
 -1      2483 9.72894E-05-2.86733E-05-2.94115E-05 2.73019E-06-1.21780E-18 2.08060E-18
 -1      2484 9.66769E-05-2.87237E-05-2.91209E-05 1.50796E-06-4.81857E-19 6.19430E-19
 -1      2485 9.69828E-05-2.87917E-05-2.92159E-05 1.69552E-06-5.07842E-19 7.85365E-20
 -1      2486 9.67640E-05-2.85798E-05-2.92259E-05 2.15909E-06-8.34866E-19 4.54335E-19
 -1      2487 9.62567E-05-2.86480E-05-2.89734E-05 1.13870E-06 2.46155E-19-1.31443E-19
 -1      2488 9.64922E-05-2.86957E-05-2.90481E-05 1.29465E-06 3.49897E-21 1.46623E-19
 -1      2489 9.63508E-05-2.85274E-05-2.90707E-05 1.66680E-06-2.48072E-19 3.70824E-19
 -1      2490 9.59368E-05-2.85974E-05-2.88582E-05 8.37363E-07 1.26404E-18 7.59682E-19
 -1      2491 9.61141E-05-2.86301E-05-2.89154E-05 9.63847E-07 9.41835E-19 7.91394E-19
 -1      2492 9.60304E-05-2.85005E-05-2.89445E-05 1.25610E-06 4.97940E-19-7.24280E-19
 -1      2493 9.56982E-05-2.85642E-05-2.87704E-05 5.96113E-07 1.17592E-18 3.94172E-19
 -1      2494 9.58285E-05-2.85861E-05-2.88131E-05 6.97027E-07 1.14030E-18 5.41865E-19
 -1      2495 9.57858E-05-2.84887E-05-2.88441E-05 9.21893E-07 1.22270E-18-3.15238E-19
 -1      2496 9.55244E-05-2.85427E-05-2.87053E-05 4.05311E-07 5.79980E-19 1.18700E-18
 -1      2497 9.56171E-05-2.85569E-05-2.87361E-05 4.85132E-07 5.78867E-19 1.20602E-18
 -1      2498 9.56017E-05-2.84851E-05-2.87663E-05 6.54836E-07 6.07183E-19 1.31865E-18
 -1      2499 9.54008E-05-2.85298E-05-2.86581E-05 2.55036E-07-4.37878E-19 2.83935E-18
 -1      2500 9.54641E-05-2.85379E-05-2.86797E-05 3.17999E-07 5.70051E-19 2.32950E-18
 -1      2501 9.54645E-05-2.84852E-05-2.87071E-05 4.44600E-07-4.60037E-19 2.22459E-18
 -1      2502 9.53154E-05-2.85240E-05-2.86242E-05 1.39329E-07-1.67030E-18 4.29231E-18
 -1      2503 9.53571E-05-2.85273E-05-2.86391E-05 1.88015E-07-1.47294E-18 3.28683E-18
 -1      2504 9.53655E-05-2.84899E-05-2.86626E-05 2.79395E-07-1.24413E-18 3.95403E-18
 -1      2505 9.52846E-05-2.85279E-05-2.86087E-05 8.60677E-08-7.96566E-20 3.56492E-18
 -1      2506 9.50640E-05-2.81180E-05-2.86929E-05 2.57636E-07 3.69329E-19-1.27246E-18
 -1      2507 9.50983E-05-2.81654E-05-2.86848E-05 2.73769E-07-8.14983E-19-2.55339E-18
 -1      2508 9.50035E-05-2.80307E-05-2.87044E-05 1.89107E-07 6.66537E-19-3.12753E-18
 -1      2509 9.50297E-05-2.80665E-05-2.86984E-05 2.24155E-07 2.00642E-19-1.92458E-18
 -1      2510 9.50133E-05-2.80340E-05-2.87042E-05 2.87614E-07-2.84166E-19-1.97203E-18
 -1      2511 9.52135E-05-2.83425E-05-2.86600E-05 2.59007E-07-1.91737E-18 1.47379E-18
 -1      2512 9.52450E-05-2.83916E-05-2.86502E-05 2.35683E-07-1.15085E-18 9.99458E-19
 -1      2513 9.51382E-05-2.82269E-05-2.86777E-05 2.82117E-07-2.42276E-18-1.75683E-18
 -1      2514 9.51743E-05-2.82782E-05-2.86686E-05 2.77302E-07-2.89609E-18 1.11389E-18
 -1      2515 9.51967E-05-2.82796E-05-2.86779E-05 3.27954E-07-2.07614E-18 3.60018E-19
 -1      2516 9.51019E-05-2.81500E-05-2.86927E-05 3.34713E-07-2.53349E-18-1.46707E-19
 -1      2517 9.49663E-05-2.79772E-05-2.87112E-05 8.84903E-08-4.34992E-19-3.68438E-18
 -1      2518 9.49806E-05-2.79966E-05-2.87079E-05 1.36424E-07 8.42784E-19-3.96957E-18
 -1      2519 9.49460E-05-2.79465E-05-2.87125E-05 1.93709E-07 8.84661E-19-3.57134E-18
 -1      2520 9.49582E-05-2.79650E-05-2.87125E-05-2.72308E-08-1.00158E-18-2.27072E-18
 -1      2521 9.49582E-05-2.79650E-05-2.87125E-05 2.52502E-08-1.19299E-18-2.66878E-18
 -1      2522 9.49094E-05-2.78991E-05-2.87168E-05 6.78597E-08-4.15678E-22-3.47330E-18
 -1      2523 9.49804E-05-2.79957E-05-2.87083E-05-1.38510E-07-7.51804E-19-2.79572E-18
 -1      2524 9.49661E-05-2.79763E-05-2.87114E-05-9.05725E-08-6.85026E-19-3.42338E-18
 -1      2525 9.49091E-05-2.78982E-05-2.87171E-05-6.93611E-08-1.43909E-19-2.55025E-18
 -1      2526 9.50287E-05-2.80637E-05-2.86992E-05-2.25227E-07-3.94849E-19-1.26836E-18
 -1      2527 9.50027E-05-2.80285E-05-2.87050E-05-1.90613E-07-4.24926E-19-2.25645E-18
 -1      2528 9.49451E-05-2.79435E-05-2.87133E-05-1.94715E-07-4.90901E-20-2.69249E-18
 -1      2529 9.50977E-05-2.81625E-05-2.86858E-05-2.75129E-07 3.07613E-19 2.31223E-18
 -1      2530 9.50632E-05-2.81151E-05-2.86938E-05-2.59057E-07 3.34575E-20-2.89861E-19
 -1      2531 9.50120E-05-2.80295E-05-2.87055E-05-2.88773E-07 6.23876E-19-5.85680E-19
 -1      2532 9.51759E-05-2.82781E-05-2.86694E-05-2.77495E-07 7.91457E-19 1.36287E-18
 -1      2533 9.51391E-05-2.82253E-05-2.86787E-05-2.83986E-07 4.60171E-19 3.48170E-18
 -1      2534 9.51006E-05-2.81460E-05-2.86941E-05-3.36143E-07 4.66575E-19 1.96540E-18
 -1      2535 9.52476E-05-2.83936E-05-2.86506E-05-2.33287E-07-1.36877E-18-1.12027E-18
 -1      2536 9.52160E-05-2.83430E-05-2.86607E-05-2.60134E-07-1.84555E-19-5.73756E-19
 -1      2537 9.51950E-05-2.82777E-05-2.86791E-05-3.28378E-07 8.57274E-19-5.02158E-19
 -1      2538 2.44647E-05-1.99891E-05-1.74633E-06 2.07789E-05 1.83171E-19 9.01307E-18
 -1      2539 1.89438E-05-1.83413E-05 2.57826E-08 7.13792E-06 2.22902E-19 9.21995E-18
 -1      2540 9.54432E-05-5.15517E-05-1.88199E-05 4.13678E-05-9.58206E-19-4.32503E-19
 -1      2541 7.67601E-05-4.51225E-05-1.32658E-05 4.18147E-05-2.78695E-18 1.69571E-18
 -1      2542 9.39014E-05-2.74606E-05-2.84596E-05-5.33226E-08 1.15536E-18 9.48341E-19
 -1      2543 9.41030E-05-2.73151E-05-2.85789E-05 5.39237E-07 1.29046E-18 1.15577E-18
 -1      2544 9.45458E-05-2.74247E-05-2.87817E-05-1.60714E-07 1.31652E-18 1.25697E-19
 -1      2545 9.52746E-05-2.84872E-05-2.86219E-05-1.29002E-07-9.92119E-19 3.39698E-18
 -1      2546 1.78983E-05-1.86754E-05 5.12691E-07-5.78479E-06 4.67324E-19 8.31151E-18
 -1      2547 2.30161E-05-2.15751E-05-4.77938E-07-1.90767E-05-5.62853E-19 7.21969E-18
 -1      2548 1.24492E-04-5.64529E-05-2.94083E-05 2.87591E-05 1.64240E-18-2.18704E-18
 -1      2549 1.10863E-04-5.55242E-05-2.36962E-05 3.36589E-05 8.65668E-19-1.53504E-18
 -1      2550 9.50764E-05-2.00019E-05-3.22231E-05-1.15686E-05-2.64716E-18-1.20595E-18
 -1      2551 9.54993E-05-2.33268E-05-3.09500E-05-7.74485E-06-2.43938E-18-9.78802E-19
 -1      2552 9.50986E-05-2.25239E-05-3.10941E-05-7.33999E-06-2.22581E-18-1.45376E-18
 -1      2553 9.32708E-05-1.76792E-05-3.24241E-05-1.10912E-05-2.51591E-18-1.89373E-18
 -1      2554 3.43574E-05-2.72764E-05-2.86089E-06-2.89377E-05 1.06303E-19 5.87057E-18
 -1      2555 4.84490E-05-3.30774E-05-6.49132E-06-3.78391E-05-8.19504E-20 3.32270E-18
 -1      2556 1.45211E-04-4.66875E-05-4.24556E-05-7.05319E-07-1.16827E-18 8.62491E-19
 -1      2557 1.48975E-04-3.82679E-05-4.79751E-05 4.54612E-06-1.70084E-18 3.39660E-19
 -1      2558 1.48599E-04-4.55545E-05-4.46464E-05 2.36365E-06-3.08230E-18 2.02123E-18
 -1      2559 1.41727E-04-5.25921E-05-3.83137E-05 1.11078E-05-2.34808E-18 1.61381E-18
 -1      2560 8.77783E-05-1.05511E-05-3.31333E-05-1.45648E-06 3.08043E-19-3.46537E-18
 -1      2561 8.78928E-05-1.06829E-05-3.31238E-05-2.53961E-06-5.65854E-20-3.40190E-18
 -1      2562 8.92614E-05-1.28053E-05-3.27676E-05-2.79648E-06-1.77208E-19-3.09957E-18
 -1      2563 8.89893E-05-1.24425E-05-3.28076E-05-8.95587E-07 3.90459E-19-3.26021E-18
 -1      2564 1.45406E-04-1.25525E-05-5.72728E-05 2.89579E-06 5.91187E-18-3.05991E-19
 -1      2565 1.42373E-04-9.87766E-06-5.72812E-05 1.95817E-07 6.27058E-18-1.00185E-18
 -1      2566 1.50248E-04-1.48934E-05-5.82758E-05 3.74556E-06-5.45913E-18 1.75526E-18
 -1      2567 1.48491E-04-1.24321E-05-5.87663E-05 1.21692E-06-5.40280E-18 1.89526E-18
 -1      2568 1.43583E-04-1.32559E-05-5.64259E-05-4.45827E-06 5.86062E-18-1.94415E-18
 -1      2569 1.45302E-04-1.90812E-05-5.44611E-05-5.73014E-06 5.03773E-18-1.96978E-18
 -1      2570 1.46775E-04-2.46723E-05-5.26556E-05 4.70105E-06 3.77756E-18 1.65171E-19
 -1      2571 1.48350E-04-1.84234E-05-5.61100E-05 4.43233E-06 4.94815E-18 1.37855E-19
 -1      2572 1.43645E-04-4.39887E-05-4.29068E-05-3.53131E-06 1.47246E-18 5.51418E-19
 -1      2573 1.47838E-04-3.60855E-05-4.83534E-05 1.33380E-06 2.32786E-18 5.03985E-20
 -1      2574 1.29435E-04-5.62029E-05-3.14356E-05-2.18413E-05-3.75447E-19-8.06799E-19
 -1      2575 1.39157E-04-5.33627E-05-3.71963E-05-1.41708E-05 3.39343E-19 5.65606E-19
 -1      2576 9.86502E-05-5.28346E-05-1.96635E-05-3.83312E-05-2.66815E-20-2.28381E-18
 -1      2577 1.16128E-04-5.54377E-05-2.61972E-05-3.39572E-05-1.07997E-20-2.03754E-18
 -1      2578 6.67268E-05-4.09915E-05-1.07493E-05-4.22268E-05-7.56189E-19-3.38559E-18
 -1      2579 8.32001E-05-4.76331E-05-1.51701E-05-4.34131E-05 1.84018E-19-2.69783E-18
 -1      2580 9.81873E-05-5.25912E-05-1.92854E-05-3.84398E-05-1.37876E-18-1.17742E-18
 -1      2581 3.07963E-05-2.30494E-05-2.97957E-06-2.57078E-05-8.85891E-19-4.73386E-18
 -1      2582 4.62149E-05-3.03557E-05-6.60060E-06-3.70964E-05-9.99499E-19-4.14030E-18
 -1      2583 1.91006E-05-1.65822E-05-7.80668E-07 2.14876E-06-1.02279E-19-5.40068E-18
 -1      2584 2.12199E-05-1.77643E-05-1.22269E-06-1.29500E-05-1.39125E-19-5.63700E-18
 -1      2585 3.70906E-05-2.63904E-05-4.33230E-06 3.09670E-05 9.69429E-19-4.07275E-18
 -1      2586 2.60215E-05-1.93245E-05-2.44787E-06 1.77641E-05 7.76994E-19-4.88696E-18
 -1      2587 6.65046E-05-4.19968E-05-1.04949E-05 4.23842E-05 6.10711E-19-2.87377E-18
 -1      2588 4.97155E-05-3.52032E-05-6.11641E-06 3.74194E-05 9.94628E-19-3.44848E-18
 -1      2589 1.03775E-04-5.44391E-05-2.12643E-05 3.83217E-05 1.95453E-19-7.74294E-19
 -1      2590 8.56157E-05-4.98236E-05-1.52956E-05 4.01338E-05 8.38986E-19-1.77804E-18
 -1      2591 1.32825E-04-5.74807E-05-3.26369E-05 2.26726E-05-7.82023E-19 1.31862E-18
 -1      2592 1.19789E-04-5.77107E-05-2.66494E-05 2.88626E-05 5.78100E-20 3.54695E-19
 -1      2593 1.47474E-04-2.82249E-05-5.16748E-05-7.50420E-06-3.73584E-18 1.06366E-18
 -1      2594 1.47428E-04-3.55929E-05-4.82100E-05-6.82790E-06-3.41164E-18 1.02618E-18
 -1      2595 6.64280E-05-4.22463E-05-1.02140E-05-4.04222E-05-6.69156E-20 1.31576E-18
 -1      2596 8.49055E-05-4.86092E-05-1.56703E-05-4.22061E-05-7.65718E-19-1.72445E-18
 -1      2597 1.47759E-04-1.37698E-05-5.78195E-05-3.64754E-06-5.16690E-18 1.98555E-18
 -1      2598 1.46182E-04-1.81336E-05-5.52988E-05-6.45954E-06-4.53840E-18 1.80969E-18
 -1      2599 1.48797E-04-2.64056E-05-5.28097E-05 6.38896E-06-3.16007E-18 3.79259E-19
 -1      2600 1.51536E-04-2.03260E-05-5.65694E-05 5.24135E-06-4.55068E-18 6.37181E-19
 -1      2601 1.40035E-04-1.55201E-05-5.34179E-05 8.27272E-06-4.32601E-18 3.16579E-19
 -1      2602 1.33480E-04-5.75699E-05-3.26328E-05-1.84976E-05-4.65445E-19 1.39083E-18
 -1      2603 1.41485E-04-5.50052E-05-3.75292E-05-1.18958E-05-5.66506E-19 1.34869E-18
 -1      2604 1.05385E-04-5.55395E-05-2.12580E-05-3.50274E-05-1.23349E-18-8.93355E-19
 -1      2605 1.22134E-04-5.77740E-05-2.77477E-05-2.94253E-05-7.13413E-19 8.54868E-19
 -1      2606 1.29595E-04-5.99579E-05-2.95134E-05-1.93909E-05 9.26442E-19 3.20920E-19
 -1      2607 1.47045E-04-2.88625E-05-5.12107E-05-4.84326E-06 3.69899E-18-2.41447E-18
 -1      2608 1.45578E-04-3.69404E-05-4.67951E-05-1.64131E-06 3.20242E-18-2.84645E-18
 -1      2609 9.63209E-05-2.50745E-05-3.05584E-05 7.42016E-06 2.49074E-18 2.35039E-18
 -1      2610 9.74108E-05-2.37586E-05-3.15860E-05 1.05305E-05 2.65878E-18 2.76919E-18
 -1      2611 9.58738E-05-2.12899E-05-3.20204E-05 1.17132E-05 2.97495E-18 1.73991E-18
 -1      2612 9.59055E-05-2.41344E-05-3.07928E-05 7.45856E-06 2.60658E-18 1.14030E-18
 -1      2613 5.44335E-05-3.42825E-05-8.57936E-06 4.08474E-05-2.51950E-18 4.55534E-18
 -1      2614 3.83819E-05-2.70567E-05-4.47818E-06 3.18459E-05-2.01530E-18 6.79469E-18
 -1      2615 1.34098E-04-1.06576E-05-5.32175E-05-3.18586E-06 5.47628E-18-1.91509E-18
 -1      2616 9.07979E-05-1.48762E-05-3.25318E-05-6.55281E-06-1.42317E-18-2.95290E-18
 -1      2617 8.97347E-05-1.30712E-05-3.29083E-05-7.73550E-06-1.58591E-18-3.21546E-18
 -1      2618 9.04023E-05-1.38796E-05-3.28561E-05-8.90029E-06-1.93935E-18-2.98856E-18
 -1      2619 9.48968E-05-2.68842E-05-2.91624E-05 1.47711E-06 1.66401E-18 4.85992E-19
 -1      2620 9.42651E-05-1.90658E-05-3.22731E-05 1.14030E-05 2.91457E-18 5.19231E-19
 -1      2621 7.23549E-05-3.99537E-05-1.33991E-05 3.99515E-05-3.46500E-18 2.16565E-18
 -1      2622 9.11842E-05-1.49462E-05-3.27271E-05-9.58540E-06-2.10340E-18-2.70286E-18
 -1      2623 9.22085E-05-1.62447E-05-3.26347E-05-1.06171E-05-2.40396E-18-2.35238E-18
 -1      2624 9.37024E-05-1.91527E-05-3.19347E-05-8.94562E-06-2.34574E-18-2.03056E-18
 -1      2625 9.21088E-05-1.67126E-05-3.22975E-05-8.04808E-06-2.03031E-18-2.58603E-18
 -1      2626 3.55991E-05-2.16710E-05-5.47587E-06-2.46128E-05 6.27440E-19 5.84114E-18
 -1      2627 1.32669E-04-5.73946E-05-3.21429E-05 1.66681E-05 8.58680E-19-3.80000E-18
 -1      2628 1.00570E-04-5.34392E-05-1.98824E-05-3.65500E-05 2.20017E-19-6.60322E-19
 -1      2629 1.42706E-04-3.28225E-05-4.72793E-05 1.12623E-05-1.68644E-18-7.08755E-19
 -1      2630 1.37764E-04-1.18174E-05-5.42089E-05-2.20027E-06-5.23276E-18 1.05535E-18
 -1      2631 9.52931E-05-2.84959E-05-2.86273E-05 1.51496E-07-9.91447E-19 2.52862E-18
 -1      2632 1.08368E-04-5.54755E-05-2.23779E-05 3.41677E-05-1.85373E-18-1.74791E-18
 -1      2633 9.52843E-05-2.84629E-05-2.86376E-05 1.87544E-07-1.03210E-18 2.45653E-18
 -1      2634 6.38963E-05-3.69872E-05-1.10658E-05-3.86279E-05 7.11719E-19 1.47468E-18
 -1      2635 2.48047E-05-1.50328E-05-3.64459E-06 2.57858E-07 3.18180E-19 8.93323E-18
 -1      2636 3.82787E-05-2.15131E-05-6.58465E-06 2.61780E-05-1.58194E-18 6.41373E-18
 -1      2637 1.37909E-04-2.23074E-05-4.97726E-05-1.21220E-05-4.50876E-18 6.04040E-19
 -1      2638 1.39078E-04-5.75940E-05-3.47503E-05 1.07766E-05-7.21884E-19 1.73388E-18
 -1      2639 9.47448E-05-2.05622E-05-3.17484E-05 9.43633E-06 2.74527E-18 2.03791E-19
 -1      2640 1.16491E-04-5.86021E-05-2.45474E-05 3.01557E-05 1.25403E-18 8.64397E-19
 -1      2641 9.52881E-05-2.84190E-05-2.86573E-05 2.62580E-07-1.35823E-18 2.01710E-18
 -1      2642 1.42188E-04-5.23600E-05-3.85450E-05-2.54545E-07 8.64040E-20-8.19504E-20
 -1      2643 8.31830E-05-4.69805E-05-1.51771E-05 4.04956E-05 1.48908E-18-1.66940E-18
 -1      2644 5.13910E-05-2.96152E-05-8.88382E-06 3.37034E-05 1.57898E-18-3.42794E-18
 -1      2645 3.03862E-05-1.59359E-05-5.58043E-06 1.10889E-05 7.10714E-19-4.76350E-18
 -1      2646 6.09007E-05-3.55206E-05-1.04284E-05-3.93969E-05-1.44991E-18-3.70238E-18
 -1      2647 7.47025E-05-4.02921E-05-1.47765E-05-3.98874E-05-2.11081E-18-2.52892E-18
 -1      2648 5.59271E-05-2.85230E-05-1.12085E-05-3.56451E-05-1.83647E-18-3.34387E-18
 -1      2649 1.25360E-04-5.83633E-05-2.85120E-05-2.39728E-05-1.10908E-18 9.93146E-20
 -1      2650 1.40072E-04-5.08598E-05-3.83366E-05-3.05546E-06-6.57906E-20 1.60005E-18
 -1      2651 1.41319E-04-3.04358E-05-4.76795E-05 8.51302E-06 2.01202E-18 1.88168E-18
 -1      2652 1.43655E-04-4.25381E-05-4.33929E-05-6.92201E-06-2.67345E-18 1.06218E-18
 -1      2653 1.41455E-04-4.42409E-05-4.17181E-05-2.88622E-06 2.19244E-18-3.55161E-18
 -1      2654 1.38144E-04-2.38013E-05-4.92117E-05-1.00338E-05 3.90948E-18-2.26814E-18
 -1      2655 1.36143E-04-1.37272E-05-5.27087E-05 6.52742E-06 4.74571E-18 1.32910E-18
 -1      2656 3.30525E-05-1.83683E-05-5.70672E-06-1.96581E-05-1.02343E-18-4.77134E-18
 -1      2657 9.53108E-05-2.84926E-05-2.86352E-05-1.77023E-07-6.68985E-19 4.19839E-18
 -1      2658 9.52787E-05-2.84435E-05-2.86446E-05-2.10133E-07-8.30300E-19 3.03120E-19
 -1      2659 9.52816E-05-2.83948E-05-2.86649E-05-2.87822E-07 1.23094E-19-2.24196E-19
 -1      2660 9.53453E-05-2.84895E-05-2.86501E-05-2.28620E-07-4.53554E-19 4.27265E-18
 -1      2661 9.53384E-05-2.84406E-05-2.86722E-05-3.17007E-07 8.95436E-19 9.79400E-19
 -1      2662 9.04330E-05-1.48296E-05-3.24235E-05 3.01523E-06 1.44305E-18-2.79139E-18
 -1      2663 9.02230E-05-1.45374E-05-3.24578E-05 2.12395E-06 1.21152E-18-2.97314E-18
 -1      2664 9.00725E-05-1.43143E-05-3.24878E-05 1.34139E-06 9.85588E-19-3.03804E-18
 -1      2665 9.00001E-05-1.42142E-05-3.24995E-05 4.33860E-07 7.24771E-19-2.99899E-18
 -1      2666 9.12146E-05-1.61421E-05-3.21595E-05 1.51621E-06 1.00655E-18-2.76942E-18
 -1      2667 9.21314E-05-1.73557E-05-3.20837E-05 6.17358E-06 2.29990E-18-1.94806E-18
 -1      2668 9.15791E-05-1.65260E-05-3.21892E-05 5.35096E-06 2.13630E-18-2.23384E-18
 -1      2669 9.35964E-05-1.96610E-05-3.17282E-05 7.29223E-06 2.47570E-18-1.11882E-18
 -1      2670 9.27900E-05-1.83745E-05-3.19106E-05 6.71187E-06 2.33726E-18-1.52284E-18
 -1      2671 9.34214E-05-1.96520E-05-3.15925E-05 5.38877E-06 2.17339E-18-1.60493E-18
 -1      2672 9.53143E-05-2.53268E-05-3.00047E-05 3.62160E-06 2.04828E-18 2.87971E-20
 -1      2673 9.56170E-05-2.44898E-05-3.04507E-05 5.30241E-06 2.20899E-18 2.09596E-19
 -1      2674 1.22852E-04-5.95388E-05-2.75192E-05 2.30485E-05 1.18087E-18 1.73501E-18
 -1      2675 1.10069E-04-5.56922E-05-2.29600E-05 3.03340E-05 1.94013E-18 6.02101E-19
 -1      2676 9.47561E-05-2.18538E-05-3.12495E-05 7.57854E-06 2.52538E-18-1.67124E-20
 -1      2677 1.33994E-04-5.62429E-05-3.38592E-05 8.65852E-06 5.21375E-19-4.86986E-18
 -1      2678 1.26862E-04-5.82960E-05-2.91635E-05 1.84848E-05-7.62436E-19-3.74373E-18
 -1      2679 9.54531E-05-2.57411E-05-2.98519E-05-2.22374E-06-1.25227E-18-1.35130E-18
 -1      2680 9.53247E-05-2.62920E-05-2.95935E-05-1.14646E-06-1.06114E-18-1.29398E-18
 -1      2681 9.53621E-05-2.67742E-05-2.93726E-05-2.97619E-07-9.77376E-19-1.12642E-18
 -1      2682 9.52802E-05-2.70984E-05-2.92235E-05 4.23827E-07-9.01372E-19-1.16087E-18
 -1      2683 9.54770E-05-2.60271E-05-2.97703E-05-9.39381E-07-1.02518E-18-1.30269E-18
 -1      2684 9.52577E-05-2.73552E-05-2.90868E-05 1.03029E-06-8.45901E-19-1.00666E-18
 -1      2685 9.52513E-05-2.75452E-05-2.90153E-05 1.53563E-06-5.38342E-19-9.44029E-19
 -1      2686 9.55002E-05-2.69198E-05-2.93999E-05 5.87682E-07-8.32631E-19-1.20288E-18
 -1      2687 9.52226E-05-2.76715E-05-2.89423E-05 1.98748E-06-4.83129E-19-9.72037E-19
 -1      2688 9.52875E-05-2.77793E-05-2.89274E-05 2.37044E-06-5.79700E-19-1.14749E-18
 -1      2689 9.54618E-05-2.74019E-05-2.91761E-05 1.70966E-06-5.77538E-19-1.20558E-18
 -1      2690 9.52675E-05-2.78209E-05-2.89022E-05 2.73739E-06-6.76897E-19-1.06546E-18
 -1      2691 9.53944E-05-2.78756E-05-2.89298E-05 3.06517E-06-6.31433E-19-1.11623E-18
 -1      2692 9.54244E-05-2.76247E-05-2.90632E-05 2.57760E-06-6.77377E-19-1.11104E-18
 -1      2693 9.53867E-05-2.78594E-05-2.89403E-05 3.40187E-06-5.68677E-19-1.07596E-18
 -1      2694 9.55679E-05-2.78801E-05-2.90004E-05 3.72242E-06-6.52500E-19-1.03607E-18
 -1      2695 9.54053E-05-2.76716E-05-2.90335E-05 3.31976E-06-5.88409E-19-1.07545E-18
 -1      2696 9.55721E-05-2.78248E-05-2.90372E-05 4.06964E-06-5.01024E-19-9.82306E-19
 -1      2697 9.58046E-05-2.78277E-05-2.91227E-05 4.41621E-06-3.98511E-19-7.55638E-19
 -1      2698 9.54080E-05-2.75977E-05-2.90650E-05 4.03426E-06-5.22501E-19-6.71315E-19
 -1      2699 9.58208E-05-2.77504E-05-2.91775E-05 4.80289E-06-3.53546E-19-6.68615E-19
 -1      2700 9.61066E-05-2.77539E-05-2.92824E-05 5.19565E-06-2.20992E-19-6.05532E-19
 -1      2701 9.54326E-05-2.74463E-05-2.91393E-05 4.79299E-06-1.29172E-19-5.53951E-19
 -1      2702 9.61395E-05-2.76758E-05-2.93471E-05 5.63951E-06-2.60622E-19-5.15225E-19
 -1      2703 9.64876E-05-2.77055E-05-2.94655E-05 6.08474E-06-9.11880E-20-5.58609E-19
 -1      2704 9.54841E-05-2.72634E-05-2.92390E-05 5.64434E-06-1.85309E-19-5.45833E-19
 -1      2705 9.65518E-05-2.76587E-05-2.95312E-05 6.59131E-06-3.70235E-20-7.10872E-19
 -1      2706 9.69814E-05-2.77543E-05-2.96556E-05 7.07779E-06 1.46844E-19-5.56464E-19
 -1      2707 9.55813E-05-2.71107E-05-2.93460E-05 6.61342E-06-1.62943E-19-7.10462E-19
 -1      2708 9.71098E-05-2.77907E-05-2.97122E-05 7.63757E-06 1.59105E-19-7.26271E-19
 -1      2709 9.76564E-05-2.80142E-05-2.98336E-05 8.13021E-06-5.24515E-20-6.69791E-19
 -1      2710 9.57699E-05-2.70829E-05-2.94399E-05 7.69958E-06 8.56454E-20-5.80475E-19
 -1      2711 9.79142E-05-2.82166E-05-2.98701E-05 8.71290E-06-2.78711E-19-5.77822E-19
 -1      2712 9.86390E-05-2.86620E-05-2.99783E-05 9.14289E-06-3.35393E-19-3.28300E-19
 -1      2713 9.61438E-05-2.73297E-05-2.94982E-05 8.87009E-06-8.18551E-20-4.17254E-19
 -1      2714 9.91434E-05-2.91551E-05-2.99858E-05 9.68640E-06-5.17529E-19-2.70626E-19
 -1      2715 1.00142E-04-2.99522E-05-3.00727E-05 9.93768E-06-4.32610E-19-2.56038E-19
 -1      2716 9.68786E-05-2.80805E-05-2.95001E-05 1.00474E-05-4.95384E-19-3.17217E-19
 -1      2717 1.01083E-04-3.09039E-05-3.00518E-05 1.03271E-05 2.85875E-19-2.58509E-19
 -1      2718 1.02486E-04-3.22023E-05-3.01202E-05 1.02209E-05 6.46455E-19-1.25295E-19
 -1      2719 9.82723E-05-2.96618E-05-2.94360E-05 1.10825E-05 1.88006E-20 2.34383E-19
 -1      2720 1.04136E-04-3.37937E-05-3.00966E-05 1.02432E-05 4.87828E-19 5.87352E-20
 -1      2721 1.06059E-04-3.56805E-05-3.01755E-05 9.52198E-06 3.36014E-19 3.36418E-19
 -1      2722 1.00783E-04-3.24787E-05-2.93322E-05 1.16968E-05 5.30409E-19 1.46988E-19
 -1      2723 1.08711E-04-3.79846E-05-3.02262E-05 8.81326E-06 3.92074E-19 6.81550E-19
 -1      2724 1.11134E-04-4.03045E-05-3.03947E-05 7.16983E-06 6.11293E-19 1.12987E-18
 -1      2725 1.04990E-04-3.68543E-05-2.92947E-05 1.13728E-05 7.31093E-19 7.28716E-19
 -1      2726 1.14867E-04-4.29885E-05-3.06949E-05 5.14707E-06 5.70660E-19 1.45345E-18
 -1      2727 1.17409E-04-4.49638E-05-3.11085E-05 2.36274E-06 8.41971E-19 1.51617E-18
 -1      2728 1.11359E-04-4.25920E-05-2.95869E-05 9.17910E-06 8.09024E-19 1.02415E-18
 -1      2729 1.21603E-04-4.69121E-05-3.19525E-05-1.35660E-06 8.88845E-19 1.58325E-18
 -1      2730 1.23393E-04-4.68496E-05-3.28409E-05-5.00006E-06 6.55779E-19 1.57138E-18
 -1      2731 1.19327E-04-4.79935E-05-3.07291E-05 3.83031E-06 8.96662E-19 1.28812E-18
 -1      2732 1.26198E-04-4.58542E-05-3.45931E-05-9.94370E-06 4.57345E-19 1.84367E-18
 -1      2733 1.25570E-04-4.21060E-05-3.57870E-05-1.26923E-05-4.74418E-19 1.85266E-18
 -1      2734 1.27215E-04-4.93970E-05-3.34256E-05-5.22280E-06 6.31437E-19 1.21523E-18
 -1      2735 1.28760E-04-3.51314E-05-4.05188E-05-1.53776E-05-2.17211E-18 1.29014E-18
 -1      2736 1.25493E-04-2.70981E-05-4.25300E-05-1.46651E-05-3.37003E-18 6.72756E-19
 -1      2737 1.16570E-04-1.62835E-05-4.33190E-05 1.96799E-06-2.91983E-18-2.08166E-18
 -1      2738 1.17627E-04-1.87526E-05-4.29633E-05 8.60972E-06-2.48265E-18-2.50929E-18
 -1      2739 1.25070E-04-3.90366E-05-3.70096E-05 1.40374E-05 1.27741E-18-3.89757E-18
 -1      2740 1.26370E-04-4.38726E-05-3.55262E-05 1.21976E-05 1.32502E-18-3.63202E-18
 -1      2741 1.24419E-04-4.63383E-05-3.35350E-05 7.31439E-06 1.19952E-18-3.05259E-18
 -1      2742 1.23234E-04-4.72802E-05-3.25183E-05 3.65294E-06 9.36829E-19-2.94701E-18
 -1      2743 1.28564E-04-4.81556E-05-3.44575E-05 7.49160E-06 1.75567E-18-3.77936E-18
 -1      2744 1.19091E-04-4.58484E-05-3.14689E-05-5.46405E-07 6.70135E-19-2.21761E-18
 -1      2745 1.16704E-04-4.42099E-05-3.09592E-05-3.60718E-06 1.02063E-18-2.13719E-18
 -1      2746 1.21659E-04-4.89767E-05-3.12808E-05-1.83042E-06 1.09766E-18-2.78037E-18
 -1      2747 1.12721E-04-4.15403E-05-3.05539E-05-6.03811E-06 1.26467E-18-1.46071E-18
 -1      2748 1.10217E-04-3.91915E-05-3.03442E-05-7.93928E-06 1.10796E-18-5.37578E-19
 -1      2749 1.13362E-04-4.41096E-05-2.98033E-05-8.01298E-06 1.43396E-18-2.05018E-18
 -1      2750 1.07277E-04-3.67183E-05-3.02575E-05-8.88778E-06 2.23474E-19-5.78702E-19
 -1      2751 1.05224E-04-3.46789E-05-3.01735E-05-9.78209E-06 8.09793E-20-5.86638E-19
 -1      2752 1.06421E-04-3.81369E-05-2.93635E-05-1.08241E-05 6.65442E-19-5.52603E-19
 -1      2753 1.03349E-04-3.28934E-05-3.01962E-05-9.86392E-06 2.49682E-19-9.07326E-20
 -1      2754 1.01840E-04-3.14421E-05-3.01390E-05-1.00608E-05 3.90907E-19-9.60388E-20
 -1      2755 1.01698E-04-3.33309E-05-2.93657E-05-1.14403E-05 5.34112E-19 4.99581E-19
 -1      2756 1.00750E-04-3.03313E-05-3.01723E-05-9.69548E-06 1.16210E-19-1.79299E-19
 -1      2757 9.96850E-05-2.94153E-05-3.01019E-05-9.46860E-06 4.02698E-20-4.40791E-19
 -1      2758 9.88196E-05-3.01147E-05-2.94821E-05-1.09204E-05 2.84099E-20 9.27201E-19
 -1      2759 9.90930E-05-2.88105E-05-3.01103E-05-8.89823E-06 1.61133E-20-6.05290E-19
 -1      2760 9.83382E-05-2.82859E-05-3.00192E-05-8.44561E-06 1.51706E-19-1.86210E-19
 -1      2761 9.71957E-05-2.82298E-05-2.95752E-05-9.86094E-06-2.09457E-19-9.36849E-19
 -1      2762 9.80337E-05-2.80117E-05-2.99972E-05-7.80537E-06-9.94685E-23-5.49793E-19
 -1      2763 9.74834E-05-2.77419E-05-2.98913E-05-7.25870E-06-4.08947E-19-6.74322E-19
 -1      2764 9.63321E-05-2.72745E-05-2.96041E-05-8.58801E-06-3.90522E-19-1.59254E-18
 -1      2765 9.73318E-05-2.76632E-05-2.98456E-05-6.62358E-06-6.61535E-19-9.71727E-19
 -1      2766 9.69162E-05-2.75465E-05-2.97342E-05-6.06459E-06-7.31142E-19-7.06845E-19
 -1      2767 9.58921E-05-2.69012E-05-2.95704E-05-7.27974E-06-9.29490E-19-2.39247E-18
 -1      2768 9.68403E-05-2.75725E-05-2.96743E-05-5.47509E-06-4.45791E-19-1.01472E-18
 -1      2769 9.65171E-05-2.75419E-05-2.95658E-05-4.95064E-06-8.16143E-19-1.10303E-18
 -1      2770 9.56715E-05-2.68603E-05-2.94913E-05-6.03432E-06-6.91193E-19-1.50320E-18
 -1      2771 9.64759E-05-2.76168E-05-2.95001E-05-4.42678E-06-1.34362E-18-7.31671E-19
 -1      2772 9.62202E-05-2.76310E-05-2.94001E-05-3.96042E-06-7.88865E-19-4.14496E-19
 -1      2773 9.55570E-05-2.69905E-05-2.93859E-05-4.90438E-06-5.21675E-19-1.45262E-18
 -1      2774 9.61937E-05-2.77228E-05-2.93349E-05-3.50955E-06 1.40397E-19 5.98844E-19
 -1      2775 9.59902E-05-2.77578E-05-2.92466E-05-3.11003E-06 4.23228E-19 1.67662E-18
 -1      2776 9.54906E-05-2.71943E-05-2.92701E-05-3.91428E-06 1.60290E-19 5.46203E-19
 -1      2777 9.59697E-05-2.78494E-05-2.91859E-05-2.73169E-06 5.99917E-19 1.30937E-18
 -1      2778 9.58081E-05-2.78915E-05-2.91106E-05-2.39886E-06 7.21401E-19 1.72489E-18
 -1      2779 9.54447E-05-2.74169E-05-2.91553E-05-3.07023E-06 1.94961E-19 1.87013E-18
 -1      2780 9.57901E-05-2.79746E-05-2.90566E-05-2.08800E-06 3.15962E-19 2.27956E-18
 -1      2781 9.56629E-05-2.80165E-05-2.89940E-05-1.81679E-06 3.69070E-19 2.51592E-18
 -1      2782 9.54075E-05-2.76292E-05-2.90486E-05-2.36687E-06 1.10664E-18 4.69332E-19
 -1      2783 9.56463E-05-2.80878E-05-2.89478E-05-1.56596E-06 2.19402E-19 3.62135E-18
 -1      2784 9.55472E-05-2.81257E-05-2.88970E-05-1.34890E-06 1.34537E-18 2.43899E-18
 -1      2785 9.53744E-05-2.78175E-05-2.89538E-05-1.79213E-06 6.05005E-19 5.36352E-19
 -1      2786 9.55316E-05-2.81842E-05-2.88584E-05-1.14970E-06 1.01959E-18 2.21841E-18
 -1      2787 9.54553E-05-2.82165E-05-2.88182E-05-9.78518E-07-8.18821E-20 2.07959E-18
 -1      2788 9.53439E-05-2.79766E-05-2.88726E-05-1.33050E-06 6.04955E-19 6.82530E-19
 -1      2789 9.54403E-05-2.82626E-05-2.87867E-05-8.22384E-07 3.78123E-19 1.83046E-18
 -1      2790 9.53821E-05-2.82890E-05-2.87553E-05-6.88728E-07 1.18756E-18 7.13855E-19
 -1      2791 9.53152E-05-2.81059E-05-2.88048E-05-9.65320E-07-4.01731E-19 2.56404E-19
 -1      2792 9.53675E-05-2.83247E-05-2.87299E-05-5.68445E-07 2.25625E-18 9.92144E-19
 -1      2793 9.53237E-05-2.83443E-05-2.87057E-05-4.65800E-07 2.68151E-18-9.20052E-20
 -1      2794 9.52878E-05-2.82088E-05-2.87492E-05-6.79715E-07 1.35866E-18-9.34599E-20
 -1      2795 9.50218E-05-2.79030E-05-2.87596E-05-2.14272E-06 7.67384E-19-3.60429E-19
 -1      2796 9.49196E-05-2.77839E-05-2.87621E-05-1.80278E-06 8.52964E-19-2.22805E-19
 -1      2797 9.53160E-05-2.83645E-05-2.86914E-05-4.00955E-07 2.39250E-18-5.50071E-19
 -1      2798 9.52922E-05-2.83770E-05-2.86777E-05-3.44252E-07 1.47294E-18 2.76798E-20
 -1      2799 9.52671E-05-2.82792E-05-2.87104E-05-4.88760E-07 2.07873E-18-1.88409E-18
 -1      2800 9.49334E-05-2.76615E-05-2.88272E-05-1.36968E-06 9.17894E-19-2.27344E-19
 -1      2801 9.49321E-05-2.74860E-05-2.88878E-05-8.97692E-07 1.02580E-18-3.78654E-20
 -1      2802 9.52669E-05-2.75732E-05-2.90215E-05-1.55879E-06 9.85499E-19-5.26099E-19
 -1      2803 9.55580E-05-2.81576E-05-2.88775E-05-3.29145E-06 6.54032E-19 3.41867E-19
 -1      2804 9.53020E-05-2.80841E-05-2.88057E-05-3.04026E-06 8.98229E-19 1.99831E-19
 -1      2805 9.59888E-05-2.82469E-05-2.90230E-05-3.82732E-06 7.84429E-19 2.40115E-19
 -1      2806 9.56667E-05-2.81720E-05-2.89264E-05-3.57251E-06 7.87329E-19 3.66887E-19
 -1      2807 9.55821E-05-2.79986E-05-2.89699E-05-3.66130E-06 7.94830E-19 1.68959E-19
 -1      2808 9.65308E-05-2.83575E-05-2.92075E-05-4.39152E-06 9.57968E-19-1.30098E-19
 -1      2809 9.61413E-05-2.82637E-05-2.90915E-05-4.12192E-06 7.95777E-19 4.26417E-21
 -1      2810 9.58463E-05-2.80268E-05-2.90704E-05-4.26986E-06 1.00228E-18-2.12194E-19
 -1      2811 9.72002E-05-2.85339E-05-2.94191E-05-4.98637E-06 1.06760E-18-4.16069E-19
 -1      2812 9.67367E-05-2.83984E-05-2.92890E-05-4.70684E-06 1.06364E-18 3.15107E-20
 -1      2813 9.62059E-05-2.80789E-05-2.92021E-05-4.91083E-06 1.03965E-18-2.54059E-19
 -1      2814 9.80266E-05-2.88356E-05-2.96455E-05-5.57854E-06 8.56109E-19-4.21774E-19
 -1      2815 9.74780E-05-2.86283E-05-2.95071E-05-5.31310E-06 1.02392E-18-2.51642E-19
 -1      2816 9.66891E-05-2.82164E-05-2.93510E-05-5.58440E-06 1.00874E-18 1.46881E-19
 -1      2817 9.90567E-05-2.93422E-05-2.98731E-05-6.09050E-06-9.37150E-20 1.34247E-20
 -1      2818 9.84076E-05-2.90239E-05-2.97334E-05-5.88697E-06 3.35197E-19-3.99530E-19
 -1      2819 9.73459E-05-2.85217E-05-2.95034E-05-6.25412E-06 4.17068E-19 2.68086E-19
 -1      2820 1.00356E-04-3.01533E-05-3.00878E-05-6.38939E-06-3.23401E-19 1.13146E-19
 -1      2821 9.95886E-05-2.96779E-05-2.99548E-05-6.32457E-06-1.24272E-19 2.04849E-19
 -1      2822 9.82547E-05-2.91047E-05-2.96464E-05-6.83791E-06-1.51460E-19 2.53316E-19
 -1      2823 1.02003E-04-3.13747E-05-3.02791E-05-6.27680E-06 4.00426E-20-3.31113E-19
 -1      2824 1.01105E-04-3.06994E-05-3.01599E-05-6.45902E-06-1.32874E-19 6.29538E-20
 -1      2825 9.95294E-05-3.01011E-05-2.97711E-05-7.19517E-06-1.01824E-19 2.04772E-19
 -1      2826 1.04068E-04-3.30735E-05-3.04485E-05-5.48759E-06-4.77861E-19 4.23382E-19
 -1      2827 1.03045E-04-3.21866E-05-3.03453E-05-6.05058E-06-2.80320E-19-1.08468E-19
 -1      2828 1.01314E-04-3.16500E-05-2.98796E-05-7.11140E-06-3.54867E-19 2.47497E-19
 -1      2829 1.06545E-04-3.51803E-05-3.06224E-05-3.71742E-06-5.34395E-19 1.35422E-18
 -1      2830 1.05460E-04-3.41574E-05-3.05260E-05-4.79295E-06-5.54399E-19 1.06994E-18
 -1      2831 1.03748E-04-3.38281E-05-2.99972E-05-6.28701E-06-7.57150E-19 8.30024E-19
 -1      2832 1.09234E-04-3.73270E-05-3.08680E-05-7.20652E-07-5.55437E-19 1.31825E-18
 -1      2833 1.08254E-04-3.64131E-05-3.07513E-05-2.36944E-06-2.15237E-19 1.60226E-18
 -1      2834 1.06869E-04-3.65073E-05-3.01897E-05-4.35400E-06-6.16334E-19 1.17399E-18
 -1      2835 1.11591E-04-3.86829E-05-3.12983E-05 3.45354E-06-9.68273E-19 1.15589E-18
 -1      2836 1.11017E-04-3.83489E-05-3.11156E-05 1.37303E-06-1.23530E-18 9.86942E-19
 -1      2837 1.10420E-04-3.91228E-05-3.05794E-05-9.82407E-07-5.47971E-19 9.79629E-19
 -1      2838 1.12696E-04-3.79983E-05-3.20376E-05 8.08928E-06-5.85545E-19 1.45340E-18
 -1      2839 1.12909E-04-3.88643E-05-3.17433E-05 6.07634E-06-4.93965E-19 1.47744E-18
 -1      2840 1.13628E-04-4.05064E-05-3.13367E-05 3.80110E-06-8.82342E-19 1.10609E-18
 -1      2841 1.11654E-04-3.42718E-05-3.31293E-05 1.13766E-05 9.21612E-20 1.39248E-18
 -1      2842 1.12814E-04-3.66328E-05-3.27174E-05 1.03811E-05-3.74756E-19 1.08298E-18
 -1      2843 1.15153E-04-3.90083E-05-3.26014E-05 9.05454E-06-2.97569E-19 1.23051E-18
 -1      2844 1.08566E-04-2.81443E-05-3.44014E-05 1.08184E-05 5.99673E-19 1.04529E-18
 -1      2845 1.10239E-04-3.12988E-05-3.39651E-05 1.18646E-05 4.28509E-19 1.14053E-18
 -1      2846 1.13823E-04-3.35930E-05-3.43427E-05 1.24081E-05 3.41950E-19 6.66052E-19
 -1      2847 1.05449E-04-2.29099E-05-3.53536E-05 5.14552E-06 1.27521E-18 4.13124E-19
 -1      2848 1.06573E-04-2.50152E-05-3.50936E-05 8.32349E-06 9.66193E-19 9.14293E-19
 -1      2849 1.10194E-04-2.60490E-05-3.61000E-05 1.07623E-05 8.22297E-19 3.03675E-19
 -1      2850 1.05010E-04-2.23359E-05-3.55052E-05-3.41885E-06 1.31397E-18-8.87434E-19
 -1      2851 1.04752E-04-2.18659E-05-3.55609E-05 4.90127E-07 1.53513E-18-5.43300E-20
 -1      2852 1.07347E-04-2.08358E-05-3.71954E-05 3.23273E-06 1.70636E-18 1.22575E-19
 -1      2853 1.07754E-04-2.69443E-05-3.47700E-05-1.01528E-05 1.34232E-18-1.78527E-18
 -1      2854 1.06304E-04-2.42730E-05-3.51085E-05-7.56946E-06 1.40956E-18-1.44887E-18
 -1      2855 1.07988E-04-2.19558E-05-3.69755E-05-6.23411E-06 1.75897E-18-6.57844E-19
 -1      2856 1.11341E-04-3.33142E-05-3.35532E-05-1.19124E-05 1.47159E-18-2.01603E-18
 -1      2857 1.09742E-04-3.02767E-05-3.39927E-05-1.16097E-05 1.70431E-18-1.84625E-18
 -1      2858 1.11520E-04-2.84957E-05-3.55852E-05-1.20171E-05 1.58387E-18-1.68579E-18
 -1      2859 1.13150E-04-3.77108E-05-3.23823E-05-9.23126E-06 2.94749E-19-2.90757E-18
 -1      2860 1.12290E-04-3.58256E-05-3.27549E-05-1.06729E-05 8.91920E-19-2.37716E-18
 -1      2861 1.14608E-04-3.57483E-05-3.37488E-05-1.17652E-05 1.59790E-18-2.21603E-18
 -1      2862 1.12502E-04-3.89152E-05-3.15340E-05-4.59400E-06-1.41237E-19-3.42809E-18
 -1      2863 1.12587E-04-3.85122E-05-3.17821E-05-6.70417E-06-8.02564E-20-3.39772E-18
 -1      2864 1.14953E-04-3.98629E-05-3.21481E-05-7.48798E-06 3.61512E-19-3.69179E-18
 -1      2865 1.10225E-04-3.77749E-05-3.10197E-05-1.60588E-07 1.62857E-19-2.56284E-18
 -1      2866 1.10968E-04-3.83673E-05-3.11680E-05-2.11922E-06-6.44473E-20-3.13535E-18
 -1      2867 1.12717E-04-4.02336E-05-3.10695E-05-2.23117E-06-4.30647E-19-3.40854E-18
 -1      2868 1.07407E-04-3.56235E-05-3.07288E-05 3.09208E-06-4.09186E-19-1.44459E-18
 -1      2869 1.08434E-04-3.66167E-05-3.08264E-05 1.65585E-06 3.21783E-19-2.05978E-18
 -1      2870 1.09281E-04-3.82577E-05-3.04662E-05 2.07559E-06-3.92538E-19-2.51773E-18
 -1      2871 1.04750E-04-3.34124E-05-3.05437E-05 5.02535E-06-7.33608E-19-1.21779E-18
 -1      2872 1.05803E-04-3.44076E-05-3.06303E-05 4.16598E-06-2.47158E-19-9.83210E-19
 -1      2873 1.05830E-04-3.55025E-05-3.01721E-05 4.87552E-06-7.10660E-19-1.38760E-18
 -1      2874 1.02538E-04-3.15896E-05-3.03860E-05 5.87826E-06-1.12057E-18-3.78398E-19
 -1      2875 1.03490E-04-3.24077E-05-3.04819E-05 5.49962E-06-1.01596E-18-7.68730E-19
 -1      2876 1.02950E-04-3.29414E-05-3.00305E-05 6.31565E-06-1.31324E-18-7.46259E-19
 -1      2877 1.00803E-04-3.02624E-05-3.02190E-05 5.97459E-06-8.70648E-19 5.22111E-19
 -1      2878 1.01616E-04-3.08646E-05-3.03289E-05 5.93894E-06-1.24414E-18-3.53389E-19
 -1      2879 1.00770E-04-3.09590E-05-2.99385E-05 6.75984E-06-1.24849E-18-9.40020E-19
 -1      2880 9.94736E-05-2.93761E-05-3.00349E-05 5.60151E-06 4.60843E-19 1.82202E-19
 -1      2881 1.00149E-04-2.97881E-05-3.01544E-05 5.78107E-06-5.41010E-19-2.14852E-19
 -1      2882 9.92014E-05-2.95943E-05-2.98450E-05 6.55795E-06-8.18695E-19 2.40194E-20
 -1      2883 9.84598E-05-2.88262E-05-2.98398E-05 4.97647E-06 6.90769E-19 5.88491E-19
 -1      2884 9.90148E-05-2.90925E-05-2.99616E-05 5.27156E-06 1.16539E-18 9.78729E-19
 -1      2885 9.80969E-05-2.87404E-05-2.97331E-05 5.98205E-06 3.80743E-19-9.18441E-19
 -1      2886 9.76827E-05-2.85105E-05-2.96443E-05 4.24961E-06 3.22492E-19 1.87300E-18
 -1      2887 9.81349E-05-2.86738E-05-2.97615E-05 4.59032E-06 2.48699E-19 1.61191E-18
 -1      2888 9.73198E-05-2.82583E-05-2.96039E-05 5.22428E-06-1.29714E-20 4.52033E-19
 -1      2889 9.70832E-05-2.83480E-05-2.94582E-05 3.51698E-06 3.68137E-21 2.37916E-18
 -1      2890 9.74487E-05-2.84420E-05-2.95658E-05 3.85847E-06 1.26407E-19 1.98223E-18
 -1      2891 9.67667E-05-2.80247E-05-2.94653E-05 4.41212E-06 2.06197E-19 2.39135E-18
 -1      2892 9.66185E-05-2.82802E-05-2.92886E-05 2.83473E-06-1.34532E-18 2.26866E-18
 -1      2893 9.69112E-05-2.83297E-05-2.93836E-05 3.15100E-06-3.29628E-19 2.86238E-18
 -1      2894 9.63661E-05-2.79456E-05-2.93265E-05 3.62477E-06-7.06273E-19 2.44977E-18
 -1      2895 9.62582E-05-2.82677E-05-2.91396E-05 2.23137E-06-1.66671E-19 1.82732E-18
 -1      2896 9.64899E-05-2.82896E-05-2.92208E-05 2.50954E-06-1.08095E-18 1.41213E-18
 -1      2897 9.60706E-05-2.79557E-05-2.91949E-05 2.90707E-06-8.29423E-19 2.57160E-18
 -1      2898 9.59796E-05-2.82849E-05-2.90128E-05 1.71722E-06 9.37441E-19 1.76361E-19
 -1      2899 9.61608E-05-2.82906E-05-2.90802E-05 1.95302E-06 9.80823E-19 1.24925E-18
 -1      2900 9.58494E-05-2.80121E-05-2.90756E-05 2.28033E-06 5.80546E-19 1.10197E-18
 -1      2901 9.57657E-05-2.83158E-05-2.89078E-05 1.29131E-06 4.39891E-19-3.22698E-19
 -1      2902 9.59052E-05-2.83125E-05-2.89623E-05 1.48568E-06 4.76783E-19-1.76493E-19
 -1      2903 9.56822E-05-2.80875E-05-2.89712E-05 1.75041E-06 1.28933E-18 4.06321E-19
 -1      2904 9.56027E-05-2.83505E-05-2.88229E-05 9.46416E-07 1.14663E-18-3.43506E-19
 -1      2905 9.57086E-05-2.83431E-05-2.88660E-05 1.10316E-06 8.42977E-19-5.71213E-19
 -1      2906 9.55549E-05-2.81661E-05-2.88826E-05 1.31368E-06 1.00777E-18-7.36241E-20
 -1      2907 9.54792E-05-2.83828E-05-2.87559E-05 6.71862E-07-7.17474E-20 1.05011E-18
 -1      2908 9.55583E-05-2.83743E-05-2.87892E-05 7.96261E-07 7.47981E-19 7.75483E-19
 -1      2909 9.54572E-05-2.82384E-05-2.88095E-05 9.61372E-07-1.65261E-19 5.39611E-19
 -1      2910 9.53874E-05-2.84104E-05-2.87038E-05 4.56816E-07-1.43963E-18 2.85230E-18
 -1      2911 9.54444E-05-2.84029E-05-2.87290E-05 5.52943E-07-6.30112E-19 2.39685E-18
 -1      2912 9.53805E-05-2.82992E-05-2.87503E-05 6.81930E-07-9.97263E-19 3.16427E-18
 -1      2913 9.53139E-05-2.84168E-05-2.86694E-05 3.15945E-07-1.58347E-18 2.57489E-18
 -1      2914 9.53543E-05-2.84082E-05-2.86889E-05 3.92847E-07-1.32317E-18 2.58755E-18
 -1      2915 9.53146E-05-2.83317E-05-2.87093E-05 4.91249E-07-1.45280E-18 2.42500E-18
 -1      2916 9.52623E-05-2.83429E-05-2.86818E-05 3.65327E-07-1.67810E-18 1.38180E-18
 -1      2917 1.16751E-04-5.77092E-05-2.55310E-05 2.84639E-05-1.57548E-18-2.21271E-18
 -1      2918 1.03402E-04-5.26693E-05-2.13145E-05 3.39790E-05-3.23842E-18-1.83508E-18
 -1      2919 9.48241E-05-2.78049E-05-2.87239E-05 4.48397E-08 9.82705E-19-3.89865E-18
 -1      2920 9.48356E-05-2.78171E-05-2.87228E-05 1.17335E-07 1.41102E-18-3.52538E-18
 -1      2921 1.36870E-04-5.51832E-05-3.49679E-05-1.16820E-06 1.27791E-18-1.31364E-18
 -1      2922 1.38321E-04-4.90263E-05-3.90043E-05 7.08762E-06 4.80929E-19-1.61063E-18
 -1      2923 9.49395E-05-2.79394E-05-2.87164E-05 3.23428E-07-4.50753E-19-2.54241E-18
 -1      2924 9.49876E-05-2.79920E-05-2.87119E-05 3.62434E-07-1.28940E-18-8.01218E-19
 -1      2925 9.48348E-05-2.78154E-05-2.87233E-05-1.17389E-07-7.19961E-20-2.94301E-18
 -1      2926 9.48237E-05-2.78039E-05-2.87241E-05-4.47313E-08 5.06901E-19-3.54019E-18
 -1      2927 9.47492E-05-2.77060E-05-2.87305E-05 8.02878E-10 5.63052E-19-4.31375E-18
 -1      2928 9.48606E-05-2.78480E-05-2.87216E-05 1.99833E-07 5.69102E-19-2.93820E-18
 -1      2929 9.48931E-05-2.78824E-05-2.87187E-05 2.60633E-07 4.23386E-19-2.22668E-18
 -1      2930 9.48597E-05-2.78276E-05-2.87264E-05 3.39205E-07-3.96313E-19-2.13178E-18
 -1      2931 9.47783E-05-2.77385E-05-2.87293E-05 1.84046E-07 9.65756E-19-3.04597E-18
 -1      2932 9.48903E-05-2.78768E-05-2.87200E-05-2.59459E-07 6.67882E-19-1.74584E-18
 -1      2933 9.48587E-05-2.78438E-05-2.87225E-05-1.99104E-07 2.37483E-20-6.95589E-19
 -1      2934 9.47763E-05-2.77340E-05-2.87302E-05-1.81580E-07 6.31620E-19-1.66238E-18
 -1      2935 9.49847E-05-2.79844E-05-2.87137E-05-3.63673E-07 1.16218E-18 3.24081E-19
 -1      2936 9.49360E-05-2.79324E-05-2.87180E-05-3.23516E-07 1.52857E-18-1.85378E-18
 -1      2937 9.48558E-05-2.78190E-05-2.87282E-05-3.37515E-07 1.26755E-18-5.19399E-19
 -1      2938 9.51020E-05-2.81250E-05-2.87041E-05-4.09587E-07 8.85982E-19 2.99935E-18
 -1      2939 9.50462E-05-2.80603E-05-2.87102E-05-3.99162E-07 1.09790E-18 2.54844E-18
 -1      2940 9.49768E-05-2.79516E-05-2.87238E-05-4.44277E-07 1.58974E-18 1.47913E-18
 -1      2941 9.27244E-05-4.81135E-05-1.86040E-05-3.61833E-05 1.64102E-18-1.11364E-18
 -1      2942 1.09188E-04-5.53898E-05-2.33800E-05-3.09397E-05 1.16308E-18-1.02835E-18
 -1      2943 4.81659E-05-2.24705E-05-1.08351E-05 3.02347E-05-2.39181E-18 4.12653E-18
 -1      2944 3.74145E-05-1.57400E-05-8.56107E-06 1.82432E-05-1.14357E-18 6.25979E-18
 -1      2945 9.45750E-05-2.14202E-05-3.13830E-05-7.39379E-06-2.15727E-18-1.86379E-18
 -1      2946 9.50191E-05-2.31353E-05-3.08030E-05-5.67991E-06-1.98467E-18-1.65708E-18
 -1      2947 9.37915E-05-2.00340E-05-3.16135E-05-7.24008E-06-2.02685E-18-2.09482E-18
 -1      2948 1.30116E-04-1.17117E-05-5.14827E-05 1.63976E-06-4.39123E-18-1.14852E-19
 -1      2949 1.28605E-04-1.23314E-05-5.04560E-05-4.63266E-06-5.23953E-18-3.18431E-20
 -1      2950 1.18175E-04-5.79315E-05-2.56094E-05-2.73342E-05-1.71545E-18 3.88470E-19
 -1      2951 1.27877E-04-5.81433E-05-3.01028E-05-1.69868E-05-1.74621E-18 1.20930E-18
 -1      2952 3.44283E-05-1.65524E-05-7.07028E-06-1.79204E-05 2.68457E-19 6.42856E-18
 -1      2953 4.43300E-05-2.24539E-05-9.10045E-06-2.87608E-05 6.44063E-19 4.17884E-18
 -1      2954 9.49792E-05-2.72625E-05-2.90207E-05-2.92653E-07 1.21886E-18-1.37889E-19
 -1      2955 9.50933E-05-2.69821E-05-2.91633E-05 4.09015E-07 1.52874E-18-2.11793E-20
 -1      2956 9.53099E-05-2.71193E-05-2.92356E-05-4.43061E-07 1.15091E-18-4.08159E-19
 -1      2957 9.52340E-05-2.80543E-05-2.87841E-05-2.75092E-06 7.95229E-19-3.21900E-19
 -1      2958 9.50489E-05-2.79666E-05-2.87443E-05-2.47702E-06 6.71613E-19-3.35057E-19
 -1      2959 9.52947E-05-2.78221E-05-2.89250E-05-2.38425E-06 6.39380E-19-5.72488E-19
 -1      2960 9.53995E-05-2.79456E-05-2.89154E-05-3.05343E-06 6.03307E-19-2.64461E-19
 -1      2961 9.53435E-05-2.41886E-05-3.04848E-05-4.56479E-06-1.77715E-18-1.57853E-18
 -1      2962 9.52918E-05-2.51161E-05-3.00857E-05-3.04298E-06-1.52510E-18-1.48833E-18
 -1      2963 9.53228E-05-2.47944E-05-3.02395E-05-2.73224E-06-1.26532E-18-1.66973E-18
 -1      2964 9.49026E-05-2.30464E-05-3.07851E-05-4.73791E-06-1.65890E-18-1.82266E-18
 -1      2965 9.32426E-05-4.88980E-05-1.90215E-05 3.72308E-05 1.91715E-18-3.75024E-19
 -1      2966 7.67219E-05-4.07884E-05-1.49565E-05 3.80233E-05 1.71651E-18-1.47183E-18
 -1      2967 2.91422E-05-1.26836E-05-6.69842E-06 6.25083E-06-6.03643E-20 9.04102E-18
 -1      2968 2.94032E-05-1.33826E-05-6.32091E-06-7.53807E-06-9.14796E-20 9.01794E-18
 -1      2969 3.86092E-05-1.43797E-05-9.69428E-06-1.20849E-05 2.07205E-19 7.54378E-18
 -1      2970 9.51413E-05-2.65732E-05-2.93891E-05 1.28797E-06 1.68675E-18-1.54604E-19
 -1      2971 9.53606E-05-2.60891E-05-2.96510E-05 2.36766E-06 1.78167E-18-2.11138E-20
 -1      2972 9.53515E-05-2.48847E-05-3.01986E-05 3.39029E-06 2.02596E-18-5.54408E-19
 -1      2973 9.53754E-05-2.63070E-05-2.96088E-05 1.13960E-06 1.62432E-18-5.10857E-19
 -1      2974 9.11064E-05-1.58118E-05-3.22964E-05 4.66097E-06 1.99135E-18-2.36185E-18
 -1      2975 9.07361E-05-1.52822E-05-3.23602E-05 3.77061E-06 1.61312E-18-2.59768E-18
 -1      2976 9.16563E-05-1.68061E-05-3.20620E-05 2.96611E-06 1.45048E-18-2.52910E-18
 -1      2977 9.23945E-05-1.79501E-05-3.18842E-05 4.30658E-06 1.85666E-18-2.04226E-18
 -1      2978 9.07008E-05-1.52320E-05-3.23668E-05-3.70762E-06-4.65379E-19-2.84540E-18
 -1      2979 9.10642E-05-1.57480E-05-3.23049E-05-4.60033E-06-8.33543E-19-2.77782E-18
 -1      2980 5.98644E-05-3.11364E-05-1.16968E-05-3.51732E-05 1.64536E-18 1.48675E-18
 -1      2981 7.54832E-05-4.04537E-05-1.49565E-05-3.92165E-05 1.18172E-18-8.46080E-19
 -1      2982 1.36220E-04-3.47249E-05-4.36690E-05 1.06481E-05 8.99867E-19 2.33442E-18
 -1      2983 1.34131E-04-2.53315E-05-4.73304E-05 1.13786E-05 2.66413E-18 2.83100E-18
 -1      2984 1.34683E-04-5.33491E-05-3.49535E-05-3.86552E-06-4.69944E-19 1.99487E-18
 -1      2985 1.37630E-04-4.61792E-05-3.97634E-05 4.61778E-06-1.52545E-19 1.94309E-18
 -1      2986 9.35385E-05-4.87814E-05-1.86587E-05-3.75121E-05-1.84272E-18-6.60209E-19
 -1      2987 1.06816E-04-5.45923E-05-2.24504E-05-3.42153E-05-1.70042E-18 2.01501E-19
 -1      2988 1.13196E-04-5.53872E-05-2.45340E-05-2.72887E-05-2.10234E-18 8.56893E-19
 -1      2989 9.52503E-05-2.83229E-05-2.86832E-05-3.65142E-07 1.22542E-18-1.87001E-18
 -1      2990 3.84957E-05-1.53767E-05-9.59803E-06 1.72177E-05 1.15313E-18-3.52302E-18
 -1      2991 3.25779E-05-1.22262E-05-8.18049E-06 1.46544E-06 4.37158E-19-4.17757E-18
 -1      2992 6.34492E-05-3.23529E-05-1.30034E-05 3.63151E-05 1.41730E-18-2.93751E-18
 -1      2993 5.13041E-05-2.29477E-05-1.15188E-05 2.84428E-05 1.54261E-18-3.49930E-18
 -1      2994 7.56516E-05-3.53159E-05-1.68739E-05 3.31717E-05 1.82260E-18-1.24212E-18
 -1      2995 1.35567E-04-3.97832E-05-4.17747E-05-9.17343E-06 1.87417E-18-2.49239E-18
 -1      2996 1.36715E-04-4.87568E-05-3.76907E-05-3.11199E-06 1.26232E-18-3.33890E-18
 -1      2997 1.36866E-04-3.59983E-05-4.33543E-05 1.33338E-05-4.59833E-19-2.12912E-18
 -1      2998 1.35934E-04-2.68808E-05-4.75466E-05 1.33933E-05-2.12817E-18-1.84844E-18
 -1      2999 3.33048E-05-1.32336E-05-8.03122E-06-1.02872E-05-7.77854E-19-4.45052E-18
 -1      3000 4.17462E-05-1.84805E-05-9.53501E-06-2.35673E-05-1.44472E-18-3.81588E-18
 -1      3001 4.14268E-05-1.28706E-05-1.15856E-05-3.45917E-06-1.24150E-19-3.22158E-18
 -1      3002 1.38917E-04-5.50453E-05-3.63896E-05 1.46050E-06-8.46755E-19 1.57294E-18
 -1      3003 1.32879E-04-5.87780E-05-3.17014E-05 1.09142E-05 4.03399E-19 1.68792E-18
 -1      3004 1.30757E-04-1.65626E-05-4.93181E-05 9.72086E-06-3.55775E-18-1.44980E-18
 -1      3005 1.29264E-04-1.32608E-05-5.05014E-05 4.90540E-06-3.79217E-18-8.06375E-19
 -1      3006 1.30055E-04-1.94417E-05-4.81733E-05-1.09380E-05 3.97682E-18-1.85955E-18
 -1      3007 1.32989E-04-2.77548E-05-4.53700E-05-1.26389E-05 3.22349E-18-2.47037E-18
 -1      3008 1.25722E-04-5.90796E-05-2.82308E-05-1.87079E-05 1.20400E-18-1.71524E-19
 -1      3009 1.33459E-04-5.91383E-05-3.23226E-05-1.03720E-05 1.36219E-18 2.81321E-19
 -1      3010 1.33271E-04-5.53267E-05-3.33246E-05-1.83083E-06 1.69286E-18-1.78089E-18
 -1      3011 1.30823E-04-1.74777E-05-4.90629E-05 1.05972E-05 3.53001E-18 2.43713E-18
 -1      3012 1.27043E-04-1.16052E-05-5.01284E-05 6.54438E-06 4.17630E-18 1.27208E-18
 -1      3013 1.27317E-04-2.27571E-05-4.51945E-05 1.22306E-05 2.13675E-18 2.55979E-18
 -1      3014 8.51287E-05-4.44323E-05-1.75062E-05 3.92574E-05-3.60815E-18-2.03129E-19
 -1      3015 6.60676E-05-3.32601E-05-1.34621E-05 3.67900E-05-3.53647E-18 2.79479E-18
 -1      3016 1.25108E-04-9.31448E-06-5.02822E-05-1.81604E-07 4.81242E-18-1.15779E-19
 -1      3017 1.26504E-04-1.20034E-05-4.95627E-05-7.23308E-06 4.73555E-18-1.56436E-18
 -1      3018 1.23916E-04-2.02016E-05-4.51692E-05-1.10847E-05-3.99291E-18 5.49142E-19
 -1      3019 1.33601E-04-4.08994E-05-4.01719E-05-1.29211E-05-1.52445E-18 7.48036E-19
 -1      3020 9.15257E-05-1.64493E-05-3.22001E-05-5.30380E-06-1.12122E-18-2.68181E-18
 -1      3021 9.20723E-05-1.72646E-05-3.20953E-05-6.11485E-06-1.57785E-18-2.54651E-18
 -1      3022 9.23521E-05-1.78810E-05-3.18955E-05-4.26399E-06-9.16067E-19-2.33538E-18
 -1      3023 9.10640E-05-1.59182E-05-3.21915E-05 2.69875E-08 5.45178E-19-2.80569E-18
 -1      3024 8.99959E-05-1.42088E-05-3.25002E-05-3.54491E-07 4.81571E-19-3.05571E-18
 -1      3025 9.00599E-05-1.42963E-05-3.24900E-05-1.26249E-06 1.86657E-19-3.06522E-18
 -1      3026 1.03675E-04-5.09171E-05-2.22382E-05 3.05089E-05 2.09079E-18 5.21613E-19
 -1      3027 9.44038E-05-2.13333E-05-3.13213E-05 6.90418E-06 2.44640E-18-5.54641E-19
 -1      3028 1.32643E-04-5.18788E-05-3.46667E-05 5.79895E-07 2.64036E-21-3.61725E-18
 -1      3029 1.26952E-04-2.15994E-05-4.54873E-05 1.22228E-05-2.10191E-18-2.43136E-18
 -1      3030 1.22401E-04-2.53466E-05-4.17943E-05 1.39989E-05-1.30888E-18-3.43917E-18
 -1      3031 1.25505E-04-3.29355E-05-4.00409E-05 1.61225E-05 1.54054E-20-3.58737E-18
 -1      3032 1.27993E-04-5.79828E-05-2.97722E-05 1.29258E-05 1.22915E-18 8.80173E-19
 -1      3033 1.22153E-04-5.71218E-05-2.77059E-05 1.98287E-05-2.14082E-18-3.62062E-18
 -1      3034 9.52032E-05-2.82597E-05-2.86893E-05 3.88949E-07-1.50474E-18-1.42863E-19
 -1      3035 9.52239E-05-2.82487E-05-2.87018E-05 4.50717E-07-2.49715E-18 5.10091E-19
 -1      3036 9.51490E-05-2.81940E-05-2.86971E-05 4.04593E-07-2.36833E-18 1.45805E-18
 -1      3037 1.21188E-04-1.21676E-05-4.71723E-05 3.28032E-06 3.63652E-18 2.27005E-19
 -1      3038 1.34360E-04-4.23078E-05-3.96713E-05 1.16715E-05 4.33734E-19-2.96387E-18
 -1      3039 6.30709E-05-2.75991E-05-1.46851E-05 3.08291E-05-2.97319E-18 2.51728E-18
 -1      3040 1.18322E-04-5.58485E-05-2.64631E-05-2.11628E-05 1.93960E-18-7.46315E-19
 -1      3041 1.23091E-04-1.66766E-05-4.59487E-05-9.56519E-06 3.98741E-18-1.92398E-18
 -1      3042 8.78290E-05-4.31759E-05-1.87378E-05-3.46116E-05 2.04093E-18-9.61118E-19
 -1      3043 9.52020E-05-2.82539E-05-2.86915E-05-3.85195E-07 2.01229E-18-7.35528E-19
 -1      3044 8.61640E-05-4.31890E-05-1.79843E-05-3.65202E-05-2.21552E-18-1.49676E-18
 -1      3045 4.03358E-05-1.38613E-05-1.06968E-05 1.12875E-05-1.57485E-18 6.87695E-18
 -1      3046 1.22528E-04-1.30304E-05-4.72921E-05 2.94268E-06-3.76834E-18-1.41989E-18
 -1      3047 1.25792E-04-5.63399E-05-2.96368E-05-1.31772E-05-1.18669E-18 1.39737E-18
 -1      3048 1.32340E-04-5.71153E-05-3.23492E-05-8.52684E-06-7.91526E-19 1.81953E-18
 -1      3049 1.31209E-04-5.27948E-05-3.40617E-05-3.08859E-07-6.97181E-19 2.19720E-18
 -1      3050 5.12852E-05-2.23919E-05-1.17412E-05-2.84118E-05-1.52667E-18-3.91689E-18
 -1      3051 6.14776E-05-2.71051E-05-1.47211E-05-3.11410E-05-1.84643E-18-2.89664E-18
 -1      3052 4.98337E-05-1.73198E-05-1.34820E-05-2.05104E-05-9.45633E-19-3.36664E-18
 -1      3053 5.74062E-05-2.62721E-05-1.27708E-05-3.01181E-05 1.34996E-18 1.80164E-18
 -1      3054 9.02009E-05-1.45066E-05-3.24616E-05-2.04273E-06 8.05896E-21-2.83984E-18
 -1      3055 9.04058E-05-1.47910E-05-3.24281E-05-2.95000E-06-3.34469E-19-2.85255E-18
 -1      3056 9.16249E-05-1.67597E-05-3.20687E-05-2.91041E-06-3.72441E-19-2.65640E-18
 -1      3057 9.12002E-05-1.61208E-05-3.21625E-05-1.46094E-06 2.98552E-20-2.75413E-18
 -1      3058 9.50394E-05-2.80584E-05-2.87082E-05 3.89609E-07-1.60977E-18-3.48736E-19
 -1      3059 9.50942E-05-2.81211E-05-2.87022E-05 4.02071E-07-2.51600E-18 1.33134E-18
 -1      3060 9.50946E-05-2.80931E-05-2.87134E-05 4.68394E-07-1.55085E-18 9.93892E-19
 -1      3061 9.49731E-05-2.79534E-05-2.87212E-05 4.35027E-07-7.80439E-19 2.29667E-19
 -1      3062 1.33267E-04-4.02028E-05-4.00488E-05 9.87235E-06 2.00270E-19 2.51166E-18
 -1      3063 9.52064E-05-2.82187E-05-2.87097E-05-4.78615E-07 6.99419E-19-1.45849E-18
 -1      3064 9.51474E-05-2.81715E-05-2.87047E-05-4.36679E-07 1.12941E-18 1.08108E-18
 -1      3065 9.51016E-05-2.80799E-05-2.87219E-05-5.07863E-07 1.32073E-18 2.89114E-18
 -1      3066 9.52168E-05-2.81884E-05-2.87241E-05-5.49464E-07 1.28333E-18-1.09954E-18
 -1      3067 9.46580E-05-2.23273E-05-3.09904E-05 5.33192E-06 2.27689E-18-8.69014E-19
 -1      3068 5.10947E-05-1.88286E-05-1.32825E-05 2.02019E-05 1.25276E-18-3.46744E-18
 -1      3069 1.30274E-04-3.42718E-05-4.13141E-05-1.25734E-05 1.94860E-18-1.97602E-18
 -1      3070 9.66402E-05-4.75299E-05-2.06859E-05 3.32809E-05-3.39586E-18-1.23688E-18
 -1      3071 1.29694E-04-4.80451E-05-3.52783E-05-5.33517E-06-2.07708E-19-1.84179E-18
 -1      3072 1.29264E-04-5.40007E-05-3.20741E-05 4.13853E-06-6.99391E-19-3.12725E-18
 -1      3073 9.42662E-05-2.16244E-05-3.11554E-05 4.56327E-06 2.01901E-18-1.33760E-18
 -1      3074 9.37578E-05-2.06217E-05-3.13471E-05 4.22012E-06 1.86560E-18-1.72795E-18
 -1      3075 9.25863E-05-1.80617E-05-3.19573E-05-6.51853E-06-1.73298E-18-2.56836E-18
 -1      3076 9.32286E-05-1.90933E-05-3.18082E-05-7.02392E-06-1.95790E-18-2.33371E-18
 -1      3077 9.41349E-05-2.10698E-05-3.13017E-05-5.67608E-06-1.82160E-18-2.16740E-18
 -1      3078 9.32573E-05-1.93692E-05-3.16420E-05-5.23624E-06-1.43484E-18-2.26009E-18
 -1      3079 8.09134E-05-3.64737E-05-1.84823E-05-3.20144E-05 2.15549E-18-1.66077E-18
 -1      3080 9.41202E-05-4.45807E-05-2.15531E-05-3.09413E-05 2.82475E-18-2.40499E-18
 -1      3081 9.56293E-05-2.63790E-05-2.96658E-05 1.23643E-07-7.75393E-19-1.38416E-18
 -1      3082 9.56137E-05-2.67562E-05-2.95155E-05 7.94870E-07-6.52586E-19-1.30959E-18
 -1      3083 9.56089E-05-2.70443E-05-2.93767E-05 1.33829E-06-6.85451E-19-1.14947E-18
 -1      3084 9.55840E-05-2.72449E-05-2.92890E-05 1.84312E-06-7.04788E-19-1.38083E-18
 -1      3085 9.56659E-05-2.65576E-05-2.96201E-05 9.41362E-07-6.00387E-19-1.23311E-18
 -1      3086 9.55094E-05-2.73637E-05-2.92013E-05 2.27325E-06-6.72521E-19-1.29570E-18
 -1      3087 9.54906E-05-2.74427E-05-2.91611E-05 2.68175E-06-5.62400E-19-1.25488E-18
 -1      3088 9.55915E-05-2.70385E-05-2.93824E-05 1.94891E-06-6.16721E-19-1.18912E-18
 -1      3089 9.53701E-05-2.74415E-05-2.91119E-05 3.05271E-06-4.36847E-19-1.12111E-18
 -1      3090 9.53619E-05-2.74349E-05-2.91070E-05 3.42078E-06-5.20438E-19-9.59539E-19
 -1      3091 9.54032E-05-2.71961E-05-2.92335E-05 2.77687E-06-5.45573E-19-1.28291E-18
 -1      3092 9.52054E-05-2.73465E-05-2.90852E-05 3.77687E-06-4.49343E-19-7.22117E-19
 -1      3093 9.52079E-05-2.72804E-05-2.91055E-05 4.14673E-06-2.62597E-19-5.76885E-19
 -1      3094 9.51333E-05-2.71192E-05-2.91496E-05 3.52265E-06-2.89809E-19-8.38958E-19
 -1      3095 9.50189E-05-2.71304E-05-2.91005E-05 4.52296E-06-2.52678E-19-3.66580E-19
 -1      3096 9.50329E-05-2.70288E-05-2.91370E-05 4.92471E-06-1.73611E-20-2.83457E-19
 -1      3097 9.47945E-05-2.68728E-05-2.91086E-05 4.26561E-06-1.83491E-19-6.61172E-19
 -1      3098 9.48141E-05-2.68424E-05-2.91383E-05 5.34746E-06-1.11834E-19-3.01260E-19
 -1      3099 9.48445E-05-2.67331E-05-2.91817E-05 5.79993E-06-1.92121E-19-5.62660E-19
 -1      3100 9.43928E-05-2.65135E-05-2.90891E-05 5.06740E-06-1.54813E-19-4.80519E-19
 -1      3101 9.46032E-05-2.65425E-05-2.91779E-05 6.28806E-06-1.59020E-19-5.57077E-19
 -1      3102 9.46651E-05-2.64652E-05-2.92182E-05 6.79874E-06-7.32681E-20-5.77412E-19
 -1      3103 9.39372E-05-2.61043E-05-2.90680E-05 5.97387E-06-8.71133E-20-5.41597E-19
 -1      3104 9.44206E-05-2.63183E-05-2.91963E-05 7.36505E-06 7.38019E-20-6.68508E-19
 -1      3105 9.45477E-05-2.63340E-05-2.92220E-05 7.92901E-06 9.34222E-20-4.90505E-19
 -1      3106 9.34520E-05-2.57304E-05-2.90199E-05 7.01858E-06 1.41945E-20-4.34787E-19
 -1      3107 9.43438E-05-2.63059E-05-2.91677E-05 8.58166E-06-8.16280E-20-5.70793E-19
 -1      3108 9.46026E-05-2.65100E-05-2.91668E-05 9.17885E-06-1.90561E-19-5.96053E-19
 -1      3109 9.29961E-05-2.55198E-05-2.89162E-05 8.22768E-06 4.56207E-20-1.04237E-18
 -1      3110 9.45271E-05-2.67178E-05-2.90657E-05 9.92163E-06-1.94494E-19-6.80430E-19
 -1      3111 9.50368E-05-2.72544E-05-2.90286E-05 1.05111E-05-3.13829E-19-7.55054E-19
 -1      3112 9.26925E-05-2.56711E-05-2.87262E-05 9.62521E-06-3.23313E-19-8.33595E-19
 -1      3113 9.52507E-05-2.78725E-05-2.88716E-05 1.13370E-05-2.26801E-19-9.90518E-20
 -1      3114 9.62078E-05-2.89440E-05-2.87985E-05 1.18418E-05 1.10535E-19 4.48539E-21
 -1      3115 9.27757E-05-2.64872E-05-2.84239E-05 1.12342E-05 7.33277E-20-8.41766E-19
 -1      3116 9.69828E-05-3.02085E-05-2.85916E-05 1.27132E-05 4.67458E-19 1.06629E-19
 -1      3117 9.86655E-05-3.20708E-05-2.85090E-05 1.29935E-05 6.83562E-19 1.43086E-19
 -1      3118 9.36558E-05-2.84066E-05-2.80016E-05 1.30528E-05 2.89408E-19 3.39839E-20
 -1      3119 1.00456E-04-3.42478E-05-2.83027E-05 1.37171E-05 6.05721E-19 5.90987E-20
 -1      3120 1.03164E-04-3.70644E-05-2.82925E-05 1.34977E-05 8.11841E-19 1.91231E-19
 -1      3121 9.60442E-05-3.20712E-05-2.75056E-05 1.49906E-05 5.81857E-19-1.88509E-19
 -1      3122 1.06581E-04-4.04195E-05-2.82209E-05 1.36702E-05 9.27341E-19 1.88751E-19
 -1      3123 1.10467E-04-4.39739E-05-2.84769E-05 1.23083E-05 8.59599E-19 3.44134E-19
 -1      3124 1.00923E-04-3.79533E-05-2.71398E-05 1.64932E-05 7.48294E-19-5.44004E-19
 -1      3125 1.16025E-04-4.80971E-05-2.89124E-05 1.10402E-05 8.95950E-19 6.75330E-19
 -1      3126 1.21045E-04-5.10190E-05-2.99401E-05 7.50829E-06 1.10748E-18 5.29713E-19
 -1      3127 1.09461E-04-4.59528E-05-2.73346E-05 1.63471E-05 1.13716E-18-4.13670E-19
 -1      3128 1.29470E-04-5.40801E-05-3.25130E-05 1.61503E-06 6.14655E-19 6.34438E-19
 -1      3129 1.32336E-04-5.17450E-05-3.45087E-05-3.40680E-06 2.68986E-19 8.11431E-19
 -1      3130 1.23315E-04-5.22355E-05-3.04673E-05-5.82707E-06 1.64639E-18-2.44856E-18
 -1      3131 1.18807E-04-4.98465E-05-2.93179E-05-9.40735E-06 1.84622E-18-1.78944E-18
 -1      3132 1.12823E-04-4.58663E-05-2.86748E-05-1.15434E-05 1.93449E-18-7.59243E-19
 -1      3133 1.08570E-04-4.21635E-05-2.83101E-05-1.31907E-05 2.13670E-18 3.84867E-19
 -1      3134 1.12454E-04-4.86297E-05-2.75745E-05-1.59443E-05 2.67541E-18 3.41923E-19
 -1      3135 1.04749E-04-3.85761E-05-2.83109E-05-1.31907E-05 8.67223E-19 4.63944E-19
 -1      3136 1.01696E-04-3.54985E-05-2.82865E-05-1.36125E-05 2.39211E-19 4.78330E-19
 -1      3137 1.02535E-04-3.96360E-05-2.70991E-05-1.65483E-05 1.52897E-18 1.47846E-18
 -1      3138 9.95670E-05-3.30161E-05-2.84845E-05-1.29259E-05 6.70332E-19 6.27063E-19
 -1      3139 9.76495E-05-3.09120E-05-2.85673E-05-1.27107E-05 8.68394E-19 8.73051E-19
 -1      3140 9.69359E-05-3.31499E-05-2.74234E-05-1.51886E-05 7.17684E-19 7.55428E-19
 -1      3141 9.66505E-05-2.94132E-05-2.87859E-05-1.18133E-05-1.59671E-20 5.32428E-19
 -1      3142 9.55400E-05-2.81492E-05-2.88723E-05-1.13049E-05-9.65335E-19-5.27758E-19
 -1      3143 9.40036E-05-2.89440E-05-2.79275E-05-1.32162E-05 2.75314E-19-3.35025E-19
 -1      3144 9.51949E-05-2.73668E-05-2.90473E-05-1.04139E-05-1.33984E-18-2.91203E-19
 -1      3145 9.45951E-05-2.66987E-05-2.91006E-05-9.78409E-06-4.73640E-19-6.33901E-19
 -1      3146 9.27824E-05-2.65993E-05-2.83831E-05-1.12655E-05-8.10266E-19 1.49707E-19
 -1      3147 9.45940E-05-2.63821E-05-2.92177E-05-8.96339E-06-2.91435E-19-1.36545E-18
 -1      3148 9.42873E-05-2.60947E-05-2.92327E-05-8.30391E-06-1.09443E-18-1.75385E-18
 -1      3149 9.25030E-05-2.54975E-05-2.87211E-05-9.49780E-06-5.69863E-19-5.69582E-19
 -1      3150 9.44427E-05-2.60536E-05-2.92975E-05-7.56797E-06-6.77588E-19-1.78048E-18
 -1      3151 9.42917E-05-2.59897E-05-2.92814E-05-6.92923E-06-1.74321E-19-8.88095E-19
 -1      3152 9.26888E-05-2.51624E-05-2.89377E-05-7.93479E-06-6.86731E-19-1.65084E-18
 -1      3153 9.45000E-05-2.60964E-05-2.93061E-05-6.27866E-06-4.71196E-19-4.10169E-19
 -1      3154 9.44259E-05-2.61528E-05-2.92691E-05-5.68933E-06-5.67645E-19-7.77512E-19
 -1      3155 9.30647E-05-2.52617E-05-2.90539E-05-6.55994E-06-1.22076E-19 4.58084E-19
 -1      3156 9.46343E-05-2.63273E-05-2.92662E-05-5.12220E-06-3.14222E-19-1.01414E-18
 -1      3157 9.45954E-05-2.64401E-05-2.92179E-05-4.59749E-06-1.03587E-19-1.98863E-20
 -1      3158 9.34842E-05-2.55821E-05-2.90961E-05-5.35764E-06-2.67136E-19 1.29955E-18
 -1      3159 9.47802E-05-2.66349E-05-2.91979E-05-4.11066E-06 2.46623E-19 7.73726E-19
 -1      3160 9.47562E-05-2.67670E-05-2.91456E-05-3.65664E-06 7.99761E-19 1.20820E-18
 -1      3161 9.38762E-05-2.59929E-05-2.90886E-05-4.31694E-06 7.05440E-19 9.94342E-19
 -1      3162 9.49093E-05-2.69562E-05-2.91165E-05-3.24552E-06 5.61713E-19 2.08548E-18
 -1      3163 9.48910E-05-2.70870E-05-2.90651E-05-2.86198E-06 4.81987E-19 1.73048E-18
 -1      3164 9.42117E-05-2.64181E-05-2.90510E-05-3.42835E-06 1.34538E-18 1.34762E-18
 -1      3165 9.50124E-05-2.72575E-05-2.90324E-05-2.52051E-06 4.55812E-19 1.49492E-18
 -1      3166 9.49964E-05-2.73767E-05-2.89850E-05-2.20316E-06 7.09828E-19 1.08880E-18
 -1      3167 9.44838E-05-2.68169E-05-2.89976E-05-2.68133E-06 5.45766E-19 2.40766E-18
 -1      3168 9.50894E-05-2.75232E-05-2.89523E-05-1.92416E-06 6.48451E-19 4.44028E-19
 -1      3169 9.50745E-05-2.76263E-05-2.89105E-05-1.66637E-06 6.00384E-19 7.39630E-19
 -1      3170 9.46965E-05-2.71698E-05-2.89383E-05-2.06340E-06 7.67591E-19 1.50829E-18
 -1      3171 9.51436E-05-2.77479E-05-2.88800E-05-1.44198E-06 6.07510E-19 6.13844E-19
 -1      3172 9.51295E-05-2.78336E-05-2.88443E-05-1.23600E-06 2.27604E-19 5.88196E-20
 -1      3173 9.48576E-05-2.74695E-05-2.88795E-05-1.56045E-06 7.16208E-19 4.42543E-19
 -1      3174 9.51788E-05-2.79313E-05-2.88172E-05-1.05852E-06-5.71933E-19 1.25745E-18
 -1      3175 9.51663E-05-2.80005E-05-2.87875E-05-8.96279E-07-4.71143E-19 1.26437E-18
 -1      3176 9.49758E-05-2.77159E-05-2.88248E-05-1.15788E-06 8.98675E-19 6.34435E-19
 -1      3177 9.52060E-05-2.80769E-05-2.87670E-05-7.73941E-07 1.19806E-19 9.36559E-19
 -1      3178 9.51934E-05-2.81308E-05-2.87424E-05-6.46230E-07 1.51045E-18-4.54500E-20
 -1      3179 9.51284E-05-2.80691E-05-2.87410E-05-6.33314E-07 1.90646E-19 6.19858E-19
 -1      3180 9.50660E-05-2.79153E-05-2.87792E-05-8.57201E-07-6.68011E-19 8.07760E-19
 -1      3181 9.54916E-05-2.74409E-05-2.91647E-05-1.70770E-06 9.04765E-19-7.67083E-19
 -1      3182 9.55008E-05-2.72343E-05-2.92462E-05-1.20943E-06 1.00468E-18-6.65622E-19
 -1      3183 9.56560E-05-2.77433E-05-2.90977E-05-4.50797E-06 8.06658E-19-3.72130E-19
 -1      3184 9.55045E-05-2.77341E-05-2.90466E-05-4.18641E-06 8.28432E-19-3.16918E-19
 -1      3185 9.55497E-05-2.77808E-05-2.90372E-05-3.85491E-06 7.78148E-19-4.72854E-19
 -1      3186 9.54419E-05-2.77650E-05-2.90047E-05-3.54175E-06 6.49921E-19-6.01590E-19
 -1      3187 9.53185E-05-2.74990E-05-2.90684E-05-4.07833E-06 7.01497E-19-7.02215E-19
 -1      3188 9.61353E-05-2.78157E-05-2.92710E-05-5.94023E-06 5.41801E-19 3.32809E-19
 -1      3189 9.58566E-05-2.77184E-05-2.92048E-05-5.58920E-06 7.49004E-19 4.45588E-20
 -1      3190 9.66162E-05-2.81051E-05-2.93531E-05-6.68879E-06 1.41665E-19 6.93855E-19
 -1      3191 9.62317E-05-2.78903E-05-2.92901E-05-6.35187E-06 6.17827E-19 6.94050E-19
 -1      3192 9.53570E-05-2.73900E-05-2.91336E-05-6.36558E-06 3.80564E-19 3.69680E-19
 -1      3193 9.73874E-05-2.87349E-05-2.94145E-05-7.37498E-06-2.52551E-19 5.19467E-19
 -1      3194 9.68477E-05-2.83325E-05-2.93605E-05-7.10147E-06 1.59651E-20 7.53892E-19
 -1      3195 9.56734E-05-2.77079E-05-2.91367E-05-7.22162E-06 9.63113E-20 8.54945E-19
 -1      3196 9.86053E-05-2.98766E-05-2.94494E-05-7.87053E-06 2.77180E-20 1.11249E-19
 -1      3197 9.78423E-05-2.92025E-05-2.94067E-05-7.74004E-06-1.28983E-19 3.51398E-19
 -1      3198 9.63381E-05-2.84534E-05-2.91088E-05-8.05205E-06-1.61395E-19 4.42840E-19
 -1      3199 1.00474E-04-3.17123E-05-2.94687E-05-7.97151E-06-7.01218E-19 7.54474E-19
 -1      3200 9.94089E-05-3.06864E-05-2.94308E-05-8.10173E-06-2.72286E-19 3.83161E-19
 -1      3201 9.75618E-05-2.98382E-05-2.90509E-05-8.73947E-06-4.30871E-19 5.38059E-19
 -1      3202 1.03208E-04-3.43608E-05-2.95156E-05-7.37226E-06-7.86187E-19 5.55260E-19
 -1      3203 1.01782E-04-3.29540E-05-2.94601E-05-7.92351E-06-6.43263E-19 6.99018E-19
 -1      3204 9.96260E-05-3.20850E-05-2.89888E-05-9.07654E-06-6.33056E-19 7.09553E-19
 -1      3205 1.06912E-04-3.76996E-05-2.96889E-05-5.64584E-06-7.01449E-19 9.16009E-19
 -1      3206 1.05165E-04-3.60419E-05-2.95659E-05-6.80803E-06-8.92530E-19 7.56571E-19
 -1      3207 1.02846E-04-3.53364E-05-2.89940E-05-8.70461E-06-9.96104E-19 5.53284E-19
 -1      3208 1.11354E-04-4.10715E-05-3.01691E-05-2.31353E-06-9.29334E-19 1.01877E-18
 -1      3209 1.09538E-04-3.96139E-05-2.98933E-05-4.24174E-06-6.51328E-19 1.05562E-18
 -1      3210 1.07408E-04-3.94144E-05-2.92185E-05-7.06297E-06-9.53800E-19 9.97209E-19
 -1      3211 1.15596E-04-4.29550E-05-3.12100E-05 2.78288E-06-8.34028E-19 8.58445E-19
 -1      3212 1.14280E-04-4.25528E-05-3.06793E-05 2.15514E-07-9.48566E-19 8.88746E-19
 -1      3213 1.13050E-04-4.33249E-05-2.99395E-05-3.35600E-06-9.26436E-19 7.27686E-19
 -1      3214 1.17846E-04-4.08705E-05-3.30419E-05 8.76567E-06 1.30172E-19 4.90646E-19
 -1      3215 1.17861E-04-4.27410E-05-3.21898E-05 6.37268E-06-3.31150E-19 9.57951E-19
 -1      3216 1.18472E-04-4.51807E-05-3.15076E-05 2.68162E-06-2.41735E-19 5.60233E-19
 -1      3217 1.16486E-04-3.34588E-05-3.55997E-05 1.28494E-05 7.75604E-19-3.28755E-20
 -1      3218 1.18283E-04-3.79925E-05-3.45252E-05 1.20135E-05 4.11373E-19 3.51118E-19
 -1      3219 1.21328E-04-4.15894E-05-3.42696E-05 9.82271E-06 3.54536E-19 6.30566E-19
 -1      3220 1.08982E-04-1.72883E-05-3.94737E-05 1.23856E-06 2.23098E-18-2.78843E-20
 -1      3221 1.09626E-04-1.87714E-05-3.91916E-05 6.00530E-06 1.65005E-18 1.02984E-20
 -1      3222 1.10697E-04-2.14398E-05-3.85554E-05-9.02968E-06 1.94246E-18-1.12107E-18
 -1      3223 1.09363E-04-1.83342E-05-3.90965E-05-4.87452E-06 2.36529E-18-8.63471E-19
 -1      3224 1.15687E-04-3.15566E-05-3.63197E-05-1.33573E-05 1.78870E-18-2.62271E-18
 -1      3225 1.13534E-04-2.62599E-05-3.73891E-05-1.23181E-05 1.83462E-18-2.20803E-18
 -1      3226 1.18260E-04-3.99370E-05-3.36732E-05-1.05638E-05 1.19344E-18-2.48000E-18
 -1      3227 1.17177E-04-3.61827E-05-3.47087E-05-1.22011E-05 1.28228E-18-2.20667E-18
 -1      3228 1.19812E-04-3.48973E-05-3.64128E-05-1.32898E-05 1.44628E-18-3.44553E-18
 -1      3229 1.16787E-04-4.29458E-05-3.16403E-05-4.48201E-06-2.65344E-19-2.20511E-18
 -1      3230 1.17326E-04-4.18907E-05-3.23811E-05-7.16751E-06 1.06169E-18-1.64741E-18
 -1      3231 1.20376E-04-4.29858E-05-3.31768E-05-7.85526E-06 7.02528E-19-1.71806E-18
 -1      3232 1.12719E-04-4.15654E-05-3.04329E-05 1.10293E-06-5.98573E-19-2.24855E-18
 -1      3233 1.14260E-04-4.24007E-05-3.08617E-05-1.28754E-06-5.71090E-19-2.33562E-18
 -1      3234 1.16628E-04-4.45147E-05-3.09548E-05-8.98280E-07-3.67928E-19-1.13914E-18
 -1      3235 1.08067E-04-3.82753E-05-2.98459E-05 4.88359E-06-1.13829E-18-1.00422E-18
 -1      3236 1.09885E-04-3.98753E-05-3.00532E-05 3.24658E-06-1.01237E-18-1.69550E-18
 -1      3237 1.11169E-04-4.18794E-05-2.97626E-05 4.28281E-06-1.12454E-18-1.24326E-18
 -1      3238 1.04052E-04-3.48207E-05-2.96207E-05 6.88037E-06-1.30660E-18 8.61393E-20
 -1      3239 1.05685E-04-3.64279E-05-2.97077E-05 5.97657E-06-9.69256E-19-1.83343E-19
 -1      3240 1.05933E-04-3.78240E-05-2.92561E-05 7.19410E-06-1.59683E-18 5.22550E-19
 -1      3241 1.01045E-04-3.19992E-05-2.95590E-05 7.59033E-06-1.59505E-18-1.78309E-19
 -1      3242 1.02328E-04-3.32902E-05-2.95977E-05 7.24174E-06-1.47753E-18 7.60038E-20
 -1      3243 1.01868E-04-3.40319E-05-2.91236E-05 8.36706E-06-1.71923E-18 1.84962E-18
 -1      3244 9.89721E-05-2.99950E-05-2.95437E-05 7.48764E-06-1.27818E-18-3.58050E-19
 -1      3245 9.99113E-05-3.09074E-05-2.95741E-05 7.51020E-06-1.32713E-18-7.57273E-19
 -1      3246 9.90576E-05-3.11267E-05-2.91474E-05 8.45243E-06-1.05331E-18 4.57957E-19
 -1      3247 9.76154E-05-2.87151E-05-2.95203E-05 6.92044E-06 2.76272E-19-9.91482E-19
 -1      3248 9.82799E-05-2.93001E-05-2.95590E-05 7.16725E-06-6.29028E-19-7.99341E-19
 -1      3249 9.72693E-05-2.91671E-05-2.92074E-05 7.92954E-06-9.46268E-19-2.34353E-19
 -1      3250 9.67544E-05-2.79828E-05-2.94712E-05 6.12028E-06-7.71583E-20-1.05720E-18
 -1      3251 9.72203E-05-2.83229E-05-2.95214E-05 6.48563E-06-1.18111E-20-1.50383E-18
 -1      3252 9.62047E-05-2.79831E-05-2.92495E-05 7.10264E-06 4.75126E-19-1.33827E-18
 -1      3253 9.62168E-05-2.76266E-05-2.93968E-05 5.23587E-06-7.45182E-19 1.85479E-19
 -1      3254 9.65457E-05-2.77990E-05-2.94558E-05 5.64771E-06-1.86165E-19-6.66151E-19
 -1      3255 9.56119E-05-2.73604E-05-2.92567E-05 6.15393E-06-7.02439E-19-1.03384E-18
 -1      3256 9.58820E-05-2.75097E-05-2.93052E-05 4.35972E-06-3.59687E-19 1.82546E-18
 -1      3257 9.61181E-05-2.75750E-05-2.93683E-05 4.77156E-06-4.32609E-19 1.69705E-18
 -1      3258 9.53079E-05-2.71106E-05-2.92304E-05 5.19252E-06-1.13633E-18 7.69003E-19
 -1      3259 9.56715E-05-2.75332E-05-2.92057E-05 3.54611E-06-6.59288E-19 1.98129E-18
 -1      3260 9.58443E-05-2.75349E-05-2.92684E-05 3.93010E-06-1.01156E-18 1.50505E-18
 -1      3261 9.51708E-05-2.70901E-05-2.91788E-05 4.28274E-06-9.70332E-19 1.29512E-18
 -1      3262 9.55365E-05-2.76308E-05-2.91060E-05 2.82342E-06-1.82263E-19 2.61238E-19
 -1      3263 9.56651E-05-2.75981E-05-2.91650E-05 3.16483E-06-7.17745E-21 1.67088E-18
 -1      3264 9.51242E-05-2.71978E-05-2.91119E-05 3.46024E-06-2.97954E-19 7.93248E-19
 -1      3265 9.54471E-05-2.77600E-05-2.90121E-05 2.20263E-06 8.86596E-19-3.73132E-19
 -1      3266 9.55442E-05-2.77115E-05-2.90652E-05 2.49566E-06 2.61005E-19-1.98230E-19
 -1      3267 9.51225E-05-2.73669E-05-2.90384E-05 2.74170E-06 1.00497E-18-5.37823E-19
 -1      3268 9.53856E-05-2.78949E-05-2.89275E-05 1.68355E-06 9.78593E-19 3.71356E-19
 -1      3269 9.54595E-05-2.78423E-05-2.89736E-05 1.92815E-06 1.14709E-18 3.63224E-19
 -1      3270 9.51399E-05-2.75555E-05-2.89649E-05 2.13113E-06 8.82907E-19-8.27020E-19
 -1      3271 9.53412E-05-2.80212E-05-2.88539E-05 1.25891E-06 2.75844E-19 1.73874E-18
 -1      3272 9.53977E-05-2.79709E-05-2.88929E-05 1.45853E-06 1.13645E-18 7.65975E-19
 -1      3273 9.51621E-05-2.77387E-05-2.88959E-05 1.62429E-06 5.25615E-19 8.60795E-19
 -1      3274 9.53068E-05-2.81302E-05-2.87919E-05 9.18726E-07-8.76584E-19 2.33071E-18
 -1      3275 9.53506E-05-2.80867E-05-2.88239E-05 1.07860E-06-5.30924E-20 2.03854E-18
 -1      3276 9.51822E-05-2.79033E-05-2.88340E-05 1.21200E-06-4.42517E-19 2.55372E-18
 -1      3277 9.52802E-05-2.82194E-05-2.87407E-05 6.51507E-07-4.63258E-19 2.24118E-18
 -1      3278 9.53132E-05-2.81850E-05-2.87664E-05 7.75135E-07-9.60917E-19 2.65759E-18
 -1      3279 9.51957E-05-2.80422E-05-2.87803E-05 8.83024E-07-1.11434E-18 9.46246E-19
 -1      3280 9.52350E-05-2.82370E-05-2.87127E-05 5.10246E-07-1.45154E-18 1.22279E-18
 -1      3281 9.52648E-05-2.82287E-05-2.87278E-05 5.82070E-07-3.53687E-19 1.77047E-18
 -1      3282 9.51833E-05-2.81184E-05-2.87429E-05 6.66440E-07-3.98381E-19 7.97797E-19
 -1      3283 9.51600E-05-2.81533E-05-2.87192E-05 5.30609E-07-1.25790E-18-7.40492E-19
 -1      3284 9.46906E-05-2.76359E-05-2.87379E-05-2.55952E-07 1.28404E-19-5.61589E-19
 -1      3285 9.46589E-05-2.76073E-05-2.87382E-05-1.64679E-07 2.65549E-19-2.68484E-18
 -1      3286 1.30959E-04-4.37752E-05-3.72327E-05 9.34280E-06-3.06626E-19 2.34935E-18
 -1      3287 1.28273E-04-3.52012E-05-4.04569E-05 1.27498E-05 8.13787E-19 2.85905E-18
 -1      3288 9.46415E-05-2.75896E-05-2.87377E-05-4.65219E-08-2.94042E-20-4.58551E-18
 -1      3289 9.46422E-05-2.75906E-05-2.87374E-05 5.32180E-08 5.59262E-19-4.28955E-18
 -1      3290 9.45529E-05-2.74741E-05-2.87453E-05-1.18537E-07-1.46585E-19-3.07876E-18
 -1      3291 1.17162E-04-1.48153E-05-4.42109E-05 7.60657E-06 2.46317E-18 4.69839E-19
 -1      3292 1.14838E-04-1.24377E-05-4.42836E-05 3.72411E-08 3.47972E-18-7.25944E-19
 -1      3293 1.15275E-04-1.44404E-05-4.37567E-05-6.00942E-06 3.80762E-18-1.73273E-18
 -1      3294 1.18629E-04-1.94650E-05-4.27550E-05-1.11247E-05 3.23948E-18-2.46852E-18
 -1      3295 4.58552E-05-1.21882E-05-1.41861E-05 1.77715E-06 2.38016E-19-2.30382E-18
 -1      3296 4.69864E-05-1.32885E-05-1.41253E-05-9.43169E-06-7.05406E-19-2.50171E-18
 -1      3297 9.21047E-05-1.78096E-05-3.18560E-05 1.63309E-06 1.06207E-18-2.51610E-18
 -1      3298 9.19639E-05-1.75870E-05-3.18888E-05 9.42174E-07 7.09173E-19-2.61179E-18
 -1      3299 7.38647E-05-3.20513E-05-1.79178E-05 3.20508E-05-3.23032E-18-2.61521E-20
 -1      3300 5.97009E-05-2.19471E-05-1.57655E-05 2.50612E-05-2.20472E-18 2.53888E-18
 -1      3301 9.55014E-05-2.69486E-05-2.93838E-05-6.41875E-07 1.10277E-18-6.11340E-19
 -1      3302 9.55325E-05-2.65881E-05-2.95334E-05 4.89123E-08 1.26101E-18-6.05016E-19
 -1      3303 9.56309E-05-2.67679E-05-2.95180E-05-8.03256E-07 1.13501E-18-9.15150E-19
 -1      3304 7.89146E-05-3.66296E-05-1.74583E-05-3.46445E-05-2.33675E-18-1.79719E-18
 -1      3305 9.40790E-05-4.57323E-05-2.09159E-05-3.31604E-05-2.14585E-18-4.42469E-19
 -1      3306 1.22833E-04-5.40878E-05-2.93279E-05 1.06278E-05 1.34648E-18 6.47716E-19
 -1      3307 9.48032E-05-2.77471E-05-2.87376E-05-4.30863E-07 7.63657E-19-1.58445E-19
 -1      3308 9.47423E-05-2.76911E-05-2.87387E-05-3.58223E-07 9.76780E-20-1.38952E-19
 -1      3309 9.46307E-05-2.75479E-05-2.87472E-05-3.51336E-07-5.15524E-19-5.26464E-19
 -1      3310 9.49624E-05-2.79124E-05-2.87356E-05-5.41414E-07 1.59221E-18 1.64576E-18
 -1      3311 9.48840E-05-2.78348E-05-2.87379E-05-5.02217E-07 1.62692E-18 4.77035E-19
 -1      3312 9.47779E-05-2.76918E-05-2.87493E-05-5.36254E-07 5.43779E-19 9.10224E-19
 -1      3313 9.58378E-05-2.77294E-05-2.91808E-05-5.20265E-06 9.38517E-19-1.50497E-19
 -1      3314 9.56324E-05-2.76960E-05-2.91186E-05-4.86308E-06 9.26541E-19-1.14857E-19
 -1      3315 9.52521E-05-2.73976E-05-2.90832E-05-4.78486E-06 6.93223E-19-1.18345E-19
 -1      3316 9.52467E-05-2.73293E-05-2.91106E-05-5.54543E-06 7.16098E-19 1.97665E-19
 -1      3317 9.52578E-05-2.41035E-05-3.04971E-05 3.84190E-06 2.01155E-18-7.62440E-19
 -1      3318 9.46570E-05-2.25258E-05-3.09022E-05 4.35429E-06 2.08433E-18-1.02613E-18
 -1      3319 9.49177E-05-2.33145E-05-3.06803E-05 3.19949E-06 1.85867E-18-1.10080E-18
 -1      3320 9.53064E-05-2.49965E-05-3.01433E-05 2.49915E-06 1.74027E-18-7.28621E-19
 -1      3321 1.10275E-04-5.20820E-05-2.49277E-05 2.43008E-05 1.85185E-18 4.14384E-19
 -1      3322 9.64189E-05-4.51392E-05-2.16694E-05 2.99275E-05 1.89502E-18 4.32093E-19
 -1      3323 1.17516E-04-1.59455E-05-4.40194E-05-2.17918E-06-3.20475E-18-1.39451E-18
 -1      3324 9.54952E-05-2.52173E-05-3.00984E-05-1.49998E-06-9.51411E-19-1.53937E-18
 -1      3325 9.55244E-05-2.58580E-05-2.98696E-05-5.94571E-07-8.46045E-19-1.50264E-18
 -1      3326 9.55590E-05-2.56260E-05-2.99722E-05-3.57088E-07-6.88663E-19-1.46240E-18
 -1      3327 4.04621E-05-1.22524E-05-1.17325E-05-6.16889E-06-2.92478E-19 7.61864E-18
 -1      3328 4.50098E-05-1.54973E-05-1.23943E-05-1.68710E-05 7.13943E-19 5.31153E-18
 -1      3329 1.12419E-04-5.21112E-05-2.53777E-05-2.24563E-05 2.69391E-18-5.77981E-19
 -1      3330 1.24129E-04-5.62979E-05-2.94461E-05-1.24715E-05 2.14344E-18-9.32497E-19
 -1      3331 1.23579E-04-5.59862E-05-2.93234E-05 1.36991E-05-1.49411E-18-3.74227E-18
 -1      3332 1.16436E-04-5.43566E-05-2.62746E-05 2.11454E-05-2.87155E-18-2.82755E-18
 -1      3333 1.08612E-04-5.16702E-05-2.39430E-05-2.70150E-05-1.67032E-18 4.92512E-19
 -1      3334 1.17011E-04-5.54822E-05-2.65591E-05-2.19669E-05-1.67787E-18 6.36783E-19
 -1      3335 8.62155E-05-3.93057E-05-1.99774E-05 3.17666E-05 1.85045E-18 4.69044E-20
 -1      3336 7.45282E-05-3.09451E-05-1.84237E-05 2.92075E-05 1.56955E-18-1.10728E-18
 -1      3337 9.46513E-05-4.12982E-05-2.27114E-05 2.65252E-05 1.54200E-18-6.90067E-20
 -1      3338 4.77424E-05-1.48970E-05-1.38651E-05 1.57980E-05-2.20115E-18 5.12540E-18
 -1      3339 4.15300E-05-1.19509E-05-1.22024E-05 4.58125E-06-1.63994E-18 8.03824E-18
 -1      3340 4.79744E-05-1.28177E-05-1.45563E-05-3.18502E-07-1.26233E-18 6.97685E-18
 -1      3341 1.21839E-04-2.69978E-05-4.11904E-05-1.39235E-05 2.26454E-18-2.69870E-18
 -1      3342 1.24980E-04-3.59062E-05-3.83262E-05-1.24557E-05 1.22005E-18-2.88581E-18
 -1      3343 5.46879E-05-2.06056E-05-1.40770E-05-2.41158E-05 1.40427E-18 1.66453E-18
 -1      3344 6.73342E-05-2.90929E-05-1.63118E-05-3.08576E-05 1.83499E-18 3.76930E-20
 -1      3345 7.66624E-05-3.09221E-05-1.92537E-05-2.76693E-05 1.97361E-18-1.47696E-18
 -1      3346 1.37065E-04-5.05922E-05-3.73462E-05-6.21682E-06-6.76753E-19 1.19506E-18
 -1      3347 1.04681E-04-5.03032E-05-2.34998E-05 2.87561E-05-3.55129E-18-2.27653E-18
 -1      3348 8.97833E-05-4.14811E-05-2.02860E-05 3.20223E-05-3.57829E-18-1.53723E-18
 -1      3349 1.09528E-04-4.97967E-05-2.54217E-05 2.19717E-05-2.60378E-18-1.84194E-18
 -1      3350 1.24432E-04-2.62539E-05-4.22710E-05 1.39603E-05 1.22724E-18 2.50441E-18
 -1      3351 1.20780E-04-1.98590E-05-4.37641E-05 1.17333E-05 1.85913E-18 1.48530E-18
 -1      3352 5.99706E-05-2.19267E-05-1.61223E-05 2.39149E-05 1.26496E-18-3.07457E-18
 -1      3353 4.92768E-05-1.46664E-05-1.44503E-05 1.32720E-05 6.41469E-19-2.98272E-18
 -1      3354 1.18421E-04-1.85134E-05-4.31990E-05-8.49854E-06-3.36484E-18-4.10652E-19
 -1      3355 9.18913E-05-1.74722E-05-3.19076E-05 3.72424E-07 6.08938E-19-2.60361E-18
 -1      3356 9.18882E-05-1.74673E-05-3.19083E-05-3.28174E-07 3.61623E-19-2.64717E-18
 -1      3357 9.27808E-05-1.89651E-05-3.16159E-05 5.40750E-07 5.77205E-19-2.42158E-18
 -1      3358 9.42280E-05-2.16002E-05-3.11046E-05 3.18219E-06 1.62918E-18-1.73879E-18
 -1      3359 9.33260E-05-1.98584E-05-3.15098E-05 3.86778E-06 1.82054E-18-1.95331E-18
 -1      3360 9.29231E-05-1.91514E-05-3.16269E-05 3.30691E-06 1.61654E-18-2.01906E-18
 -1      3361 9.41644E-05-2.14021E-05-3.11940E-05-4.61710E-06-1.41070E-18-2.09179E-18
 -1      3362 9.46354E-05-2.23221E-05-3.09973E-05-4.71431E-06-1.55789E-18-2.01203E-18
 -1      3363 9.49385E-05-2.32786E-05-3.06929E-05-3.67393E-06-1.24546E-18-1.84982E-18
 -1      3364 5.60788E-05-1.83392E-05-1.57282E-05-1.88323E-05 1.71042E-18 2.63671E-18
 -1      3365 8.46348E-05-3.57184E-05-2.06796E-05 2.83911E-05-3.31224E-18-1.04323E-18
 -1      3366 1.04928E-04-4.66115E-05-2.47426E-05-2.28362E-05 2.78631E-18-7.77854E-19
 -1      3367 9.28871E-05-1.90924E-05-3.16380E-05-3.26441E-06-6.16326E-19-2.15955E-18
 -1      3368 9.32922E-05-1.97721E-05-3.15260E-05-3.84302E-06-9.39474E-19-2.12635E-18
 -1      3369 1.31150E-04-3.86795E-05-4.00097E-05 1.44309E-05 3.35954E-19-3.66681E-18
 -1      3370 9.54810E-05-2.76888E-05-2.90508E-05-2.52603E-06 4.99487E-19-7.78563E-19
 -1      3371 9.54521E-05-2.75791E-05-2.90822E-05-2.14096E-06 7.80028E-19-8.30464E-19
 -1      3372 9.55984E-05-2.72770E-05-2.92857E-05-1.84952E-06 8.73409E-19-9.87718E-19
 -1      3373 9.51123E-05-2.40931E-05-3.04484E-05-2.77719E-06-1.07654E-18-1.72871E-18
 -1      3374 1.00928E-04-4.66257E-05-2.30926E-05-2.74849E-05-1.89238E-18-3.38151E-20
 -1      3375 9.54131E-05-2.75584E-05-2.90841E-05-3.39470E-06 4.31431E-19-1.03239E-18
 -1      3376 9.54959E-05-2.77811E-05-2.90155E-05-3.21334E-06 3.19660E-19-6.25676E-19
 -1      3377 9.54279E-05-2.77323E-05-2.90099E-05-2.88412E-06 2.25357E-19-9.48966E-19
 -1      3378 1.15448E-04-1.92659E-05-4.14649E-05 9.16143E-06 1.49417E-18 2.25443E-19
 -1      3379 1.13061E-04-2.24126E-05-3.89441E-05 1.07484E-05 9.00343E-19 2.78462E-19
 -1      3380 1.15423E-04-2.76111E-05-3.78901E-05 1.30139E-05 7.25934E-19 2.88904E-19
 -1      3381 1.20306E-04-3.12750E-05-3.83176E-05 1.38181E-05 6.49515E-19 8.27816E-19
 -1      3382 1.11992E-04-1.61244E-05-4.13338E-05-2.15792E-06 2.81141E-18-1.11413E-18
 -1      3383 1.15376E-04-2.32929E-05-3.95693E-05-1.18271E-05 2.38043E-18-2.85699E-18
 -1      3384 9.47486E-05-2.77020E-05-2.87366E-05 3.62204E-07-3.65146E-19-1.28884E-18
 -1      3385 9.48097E-05-2.77596E-05-2.87352E-05 4.32758E-07-3.89071E-19-1.56863E-18
 -1      3386 9.46616E-05-2.76125E-05-2.87372E-05 1.70261E-07 8.69705E-21-2.79188E-18
 -1      3387 9.46950E-05-2.76435E-05-2.87365E-05 2.62202E-07 6.35905E-20-2.02577E-18
 -1      3388 9.46368E-05-2.75597E-05-2.87451E-05 3.58681E-07-5.23040E-19-1.51453E-18
 -1      3389 9.45556E-05-2.74786E-05-2.87446E-05 1.29633E-07-6.33888E-19-3.81039E-18
 -1      3390 5.56364E-05-1.45850E-05-1.74495E-05-9.03836E-06-7.02495E-19-2.24207E-18
 -1      3391 5.16361E-05-1.51890E-05-1.52263E-05-1.38138E-05-1.02137E-18-3.16070E-18
 -1      3392 5.76469E-05-1.83726E-05-1.68363E-05-1.90329E-05-1.03157E-18-2.98696E-18
 -1      3393 1.28588E-04-5.40435E-05-3.17671E-05-2.74998E-06 1.82305E-18-2.24297E-18
 -1      3394 5.38925E-05-1.44240E-05-1.65516E-05 6.95230E-06 1.01270E-19-2.61416E-18
 -1      3395 6.75869E-05-2.28185E-05-1.91130E-05 2.19678E-05-2.62224E-18 1.23958E-18
 -1      3396 5.78007E-05-1.89376E-05-1.63053E-05 2.05472E-05-2.32145E-18 2.81633E-18
 -1      3397 5.68348E-05-1.61178E-05-1.73039E-05 1.45008E-05-2.32828E-18 3.47543E-18
 -1      3398 7.21983E-05-3.02348E-05-1.76132E-05-2.97119E-05-1.83674E-18-2.17597E-18
 -1      3399 1.16754E-04-5.39537E-05-2.69462E-05 1.88493E-05 1.61439E-18 2.66117E-19
 -1      3400 1.21679E-04-5.46233E-05-2.87073E-05-1.36875E-05-1.18100E-18 5.52954E-19
 -1      3401 9.25544E-05-1.85396E-05-3.17379E-05-2.79000E-06-4.39409E-19-2.39352E-18
 -1      3402 9.35009E-05-2.02328E-05-3.13874E-05-2.44083E-06-4.88355E-19-1.96861E-18
 -1      3403 9.22883E-05-1.81080E-05-3.18052E-05-2.13380E-06-2.73249E-19-2.51878E-18
 -1      3404 1.29942E-04-5.18687E-05-3.38518E-05 3.39248E-06 1.79114E-18-3.77079E-18
 -1      3405 1.24037E-04-5.30607E-05-3.04112E-05 6.93019E-06-1.02887E-18-2.13647E-18
 -1      3406 9.47777E-05-2.77000E-05-2.87454E-05 5.23081E-07-1.19658E-18-9.62126E-19
 -1      3407 9.48798E-05-2.78382E-05-2.87344E-05 4.87384E-07-1.02508E-18-2.06073E-20
 -1      3408 9.49454E-05-2.79034E-05-2.87316E-05 5.18619E-07-9.09610E-19 1.07445E-18
 -1      3409 1.32698E-04-4.82822E-05-3.62088E-05 9.10921E-06 1.26727E-18-3.61461E-18
 -1      3410 9.25881E-05-1.85956E-05-3.17297E-05 2.82794E-06 1.49431E-18-2.19681E-18
 -1      3411 9.23129E-05-1.81440E-05-3.17991E-05 2.17633E-06 1.25225E-18-2.43068E-18
 -1      3412 9.30461E-05-1.94091E-05-3.15385E-05 1.55958E-06 9.54449E-19-2.21996E-18
 -1      3413 9.35478E-05-2.02881E-05-3.13754E-05 2.47886E-06 1.47645E-18-1.91824E-18
 -1      3414 9.50859E-05-2.38710E-05-3.05247E-05-2.33768E-06-1.02888E-18-1.68014E-18
 -1      3415 1.09530E-04-4.87497E-05-2.60371E-05 2.04999E-05 1.44581E-18-3.11615E-19
 -1      3416 1.26666E-04-4.27135E-05-3.61808E-05-1.05355E-05 3.68671E-19-2.42071E-18
 -1      3417 9.54610E-05-2.62086E-05-2.96868E-05 6.85327E-07 1.32475E-18-6.46438E-19
 -1      3418 9.54763E-05-2.56271E-05-2.99229E-05 1.65044E-06 1.51811E-18-8.05287E-19
 -1      3419 9.53508E-05-2.48680E-05-3.02030E-05 2.03257E-06 1.53679E-18-8.40311E-19
 -1      3420 9.55649E-05-2.59880E-05-2.98242E-05 4.68606E-07 1.27955E-18-9.22955E-19
 -1      3421 9.50682E-05-2.80126E-05-2.87392E-05-6.09500E-07 2.38560E-19 1.08461E-18
 -1      3422 9.50124E-05-2.79615E-05-2.87375E-05-5.77809E-07 1.28000E-18 2.15779E-18
 -1      3423 9.49240E-05-2.78314E-05-2.87523E-05-6.46070E-07 6.87590E-19 1.56487E-18
 -1      3424 9.50434E-05-2.79385E-05-2.87572E-05-7.11329E-07-3.54985E-19 8.32871E-19
 -1      3425 7.94342E-05-2.99521E-05-2.12069E-05 2.44427E-05 1.41653E-18-7.73923E-19
 -1      3426 7.01242E-05-2.61287E-05-1.85358E-05 2.54966E-05 1.62839E-18-1.71207E-18
 -1      3427 6.66394E-05-2.14277E-05-1.92738E-05 2.00738E-05 1.04999E-18-1.95980E-18
 -1      3428 1.24228E-04-4.55873E-05-3.38318E-05-6.41117E-06 5.25160E-20-2.13018E-18
 -1      3429 9.37717E-05-2.06527E-05-3.13447E-05-4.34750E-06-1.13629E-18-2.01664E-18
 -1      3430 9.48798E-05-4.12346E-05-2.25248E-05-2.73193E-05-1.83960E-18-6.55683E-19
 -1      3431 1.05751E-04-4.76230E-05-2.51263E-05-2.26827E-05-1.32913E-18 5.57626E-19
 -1      3432 9.50209E-05-2.79928E-05-2.87285E-05 5.36668E-07-6.99745E-19 1.71729E-18
 -1      3433 9.50907E-05-2.80666E-05-2.87242E-05 5.41887E-07-9.92552E-19 7.53907E-19
 -1      3434 9.50954E-05-2.80466E-05-2.87349E-05 6.06209E-07-9.54022E-19 7.84231E-19
 -1      3435 9.49288E-05-2.78650E-05-2.87420E-05 5.97941E-07-1.42175E-18 8.89187E-19
 -1      3436 1.16801E-04-5.17073E-05-2.77729E-05-1.45003E-05-1.27375E-18 8.64106E-19
 -1      3437 1.23712E-04-5.30748E-05-3.04445E-05-6.88052E-06-1.20312E-18 5.13309E-19
 -1      3438 9.56266E-05-2.67003E-05-2.95364E-05 1.54886E-06-5.11794E-19-1.29230E-18
 -1      3439 9.55541E-05-2.68720E-05-2.94371E-05 2.00636E-06-5.57342E-19-1.24137E-18
 -1      3440 9.54028E-05-2.69480E-05-2.93372E-05 2.37879E-06-4.96893E-19-1.10780E-18
 -1      3441 9.52828E-05-2.69719E-05-2.92755E-05 2.76939E-06-3.69461E-19-8.75511E-19
 -1      3442 9.54146E-05-2.66327E-05-2.94763E-05 2.00536E-06-4.05291E-19-1.09582E-18
 -1      3443 9.50432E-05-2.69049E-05-2.92046E-05 3.10631E-06-3.27643E-19-7.94639E-19
 -1      3444 9.48861E-05-2.68189E-05-2.91692E-05 3.47308E-06-1.70454E-19-7.00445E-19
 -1      3445 9.50294E-05-2.66676E-05-2.92957E-05 2.72086E-06-3.24651E-19-6.28196E-19
 -1      3446 9.45689E-05-2.66440E-05-2.91159E-05 3.80867E-06-1.84477E-19-9.90636E-19
 -1      3447 9.43784E-05-2.64790E-05-2.90960E-05 4.18592E-06-1.73771E-19-8.17543E-19
 -1      3448 9.44799E-05-2.64303E-05-2.91607E-05 3.39179E-06-3.01307E-19-9.25496E-19
 -1      3449 9.39876E-05-2.62264E-05-2.90484E-05 4.54862E-06-1.42552E-19-8.93167E-19
 -1      3450 9.37665E-05-2.60124E-05-2.90326E-05 4.96238E-06 3.84484E-21-9.68548E-19
 -1      3451 9.37803E-05-2.59903E-05-2.90477E-05 4.07903E-06-8.26271E-20-9.88132E-19
 -1      3452 9.33037E-05-2.57135E-05-2.89777E-05 5.37607E-06 9.28445E-20-8.80178E-19
 -1      3453 9.30591E-05-2.54864E-05-2.89536E-05 5.84559E-06 4.60626E-20-6.67542E-19
 -1      3454 9.29355E-05-2.54126E-05-2.89312E-05 4.83355E-06 6.24412E-20-1.09616E-18
 -1      3455 9.25283E-05-2.51807E-05-2.88762E-05 6.33273E-06-1.51065E-19-7.97752E-19
 -1      3456 9.22794E-05-2.49908E-05-2.88298E-05 6.87309E-06 4.01025E-20-7.12295E-19
 -1      3457 9.19497E-05-2.47697E-05-2.87823E-05 5.70077E-06 5.60065E-20-1.16005E-18
 -1      3458 9.16943E-05-2.47348E-05-2.87122E-05 7.46010E-06 3.14802E-19-8.65465E-19
 -1      3459 9.14843E-05-2.46579E-05-2.86277E-05 8.08591E-06 7.46036E-20-8.62942E-19
 -1      3460 9.08381E-05-2.41566E-05-2.85670E-05 6.73021E-06 7.01010E-20-6.96191E-19
 -1      3461 9.08794E-05-2.45371E-05-2.84497E-05 8.81129E-06-2.82687E-19-8.51581E-19
 -1      3462 9.07950E-05-2.46902E-05-2.83111E-05 9.54090E-06-2.46756E-19-6.47624E-19
 -1      3463 8.96432E-05-2.37102E-05-2.82459E-05 7.99078E-06 1.14748E-19-8.62181E-19
 -1      3464 9.02445E-05-2.48346E-05-2.80508E-05 1.04660E-05 4.53733E-20-6.47184E-19
 -1      3465 9.04477E-05-2.53964E-05-2.78461E-05 1.13228E-05 2.47875E-19-6.08306E-19
 -1      3466 8.84628E-05-2.36364E-05-2.77741E-05 9.59336E-06 2.04181E-20-6.84815E-19
 -1      3467 9.01039E-05-2.60088E-05-2.74841E-05 1.25424E-05 1.48946E-19-2.40800E-19
 -1      3468 9.08606E-05-2.72414E-05-2.72147E-05 1.35402E-05 2.42437E-19-7.45978E-20
 -1      3469 8.74940E-05-2.42478E-05-2.71052E-05 1.17211E-05 4.23881E-19-5.64792E-19
 -1      3470 9.10078E-05-2.85450E-05-2.67416E-05 1.51398E-05 3.91977E-19-2.89978E-19
 -1      3471 9.27739E-05-3.09108E-05-2.64571E-05 1.62595E-05 4.52425E-19-4.58915E-19
 -1      3472 8.72077E-05-2.60688E-05-2.61987E-05 1.46779E-05 2.18189E-19-2.72864E-19
 -1      3473 1.04404E-04-4.39484E-05-2.57250E-05 2.05011E-05 1.33484E-18-3.91475E-19
 -1      3474 9.45400E-05-2.74400E-05-2.87566E-05-4.60937E-07-2.30580E-19-3.43821E-19
 -1      3475 9.44745E-05-2.73855E-05-2.87550E-05-3.47718E-07-6.87948E-20-1.30522E-18
 -1      3476 9.93248E-05-3.90494E-05-2.56674E-05-1.94694E-05 1.90856E-18-1.56460E-19
 -1      3477 9.53240E-05-3.50234E-05-2.57472E-05-1.88336E-05 1.00975E-18-9.14655E-21
 -1      3478 9.35292E-05-3.20062E-05-2.62846E-05-1.67623E-05 3.85921E-19-7.49363E-19
 -1      3479 9.14315E-05-2.93739E-05-2.65741E-05-1.56431E-05 5.97995E-19-7.81648E-19
 -1      3480 8.87814E-05-3.10412E-05-2.48374E-05-1.94673E-05 6.32879E-19-2.53715E-18
 -1      3481 9.10408E-05-2.77413E-05-2.70705E-05-1.38946E-05 9.55307E-20-9.41092E-19
 -1      3482 9.00545E-05-2.62532E-05-2.73553E-05-1.28269E-05-3.52726E-19-1.16541E-18
 -1      3483 8.70993E-05-2.65464E-05-2.59685E-05-1.53082E-05-7.39830E-20-2.48894E-18
 -1      3484 9.02710E-05-2.54470E-05-2.77458E-05-1.14756E-05-1.81285E-19-7.23888E-19
 -1      3485 8.99375E-05-2.47144E-05-2.79704E-05-1.05353E-05-1.71997E-19 1.15898E-19
 -1      3486 8.70936E-05-2.42591E-05-2.69350E-05-1.20502E-05 5.36396E-20-1.76684E-18
 -1      3487 9.04161E-05-2.44419E-05-2.82535E-05-9.49846E-06-8.34476E-19 2.61048E-20
 -1      3488 9.04245E-05-2.41784E-05-2.84086E-05-8.68650E-06-7.36718E-19-8.18306E-19
 -1      3489 8.78792E-05-2.33242E-05-2.76586E-05-9.66315E-06-4.26090E-19-8.76305E-19
 -1      3490 9.09786E-05-2.42135E-05-2.86010E-05-7.86617E-06-2.77294E-19-6.52306E-19
 -1      3491 9.11405E-05-2.42211E-05-2.86955E-05-7.15975E-06-2.12237E-19-1.83740E-20
 -1      3492 8.89466E-05-2.31918E-05-2.81687E-05-7.85475E-06-5.98286E-19-4.05718E-19
 -1      3493 9.16817E-05-2.44231E-05-2.88172E-05-6.48788E-06-4.77371E-19 9.50505E-19
 -1      3494 9.18947E-05-2.45753E-05-2.88649E-05-5.87042E-06-3.87296E-19 1.25487E-18
 -1      3495 9.00516E-05-2.35034E-05-2.85083E-05-6.42012E-06 2.47968E-19 9.61720E-19
 -1      3496 9.23813E-05-2.48540E-05-2.89347E-05-5.30806E-06-1.77415E-19 1.22491E-18
 -1      3497 9.25932E-05-2.50718E-05-2.89495E-05-4.77012E-06 1.61633E-19 1.30616E-18
 -1      3498 9.10784E-05-2.40411E-05-2.87190E-05-5.23987E-06-2.26385E-19 1.31278E-18
 -1      3499 9.30094E-05-2.53721E-05-2.89830E-05-4.29518E-06 3.61918E-19 1.59202E-18
 -1      3500 9.31969E-05-2.56085E-05-2.89764E-05-3.83115E-06 6.70620E-19 1.42468E-18
 -1      3501 9.19758E-05-2.46674E-05-2.88369E-05-4.24793E-06 2.13506E-19 1.34089E-18
 -1      3502 9.35408E-05-2.58985E-05-2.89858E-05-3.43062E-06 9.71743E-19 1.64746E-18
 -1      3503 9.36962E-05-2.61268E-05-2.89665E-05-3.03588E-06 1.57707E-18 9.78011E-19
 -1      3504 9.27294E-05-2.52993E-05-2.88909E-05-3.40822E-06 8.75119E-19 1.36592E-18
 -1      3505 9.39730E-05-2.63898E-05-2.89609E-05-2.70093E-06 1.40865E-18 5.18597E-19
 -1      3506 9.40963E-05-2.65963E-05-2.89354E-05-2.37042E-06 8.05537E-19 1.16316E-18
 -1      3507 9.33442E-05-2.58900E-05-2.89029E-05-2.69975E-06 1.16594E-18 6.20883E-19
 -1      3508 9.43144E-05-2.68247E-05-2.89212E-05-2.09371E-06 1.53328E-18 1.49716E-18
 -1      3509 9.44090E-05-2.70035E-05-2.88936E-05-1.82143E-06 1.49499E-18 2.15705E-18
 -1      3510 9.38341E-05-2.64154E-05-2.88891E-05-2.10789E-06 1.32795E-18 1.00524E-18
 -1      3511 9.45775E-05-2.71959E-05-2.88752E-05-1.59627E-06 1.32326E-19 2.31925E-18
 -1      3512 9.46478E-05-2.73453E-05-2.88483E-05-1.37584E-06 9.37055E-19 1.77007E-18
 -1      3513 9.42168E-05-2.68667E-05-2.88609E-05-1.61966E-06 8.54728E-19 2.00581E-18
 -1      3514 9.47752E-05-2.75040E-05-2.88287E-05-1.19441E-06 1.37420E-18 1.11478E-18
 -1      3515 9.48293E-05-2.76257E-05-2.88041E-05-1.02073E-06 6.84614E-19 1.31048E-18
 -1      3516 9.45090E-05-2.72418E-05-2.88260E-05-1.22340E-06 9.60846E-19 3.20053E-18
 -1      3517 5.50814E-05-1.51470E-05-1.68210E-05-1.25383E-05 1.82663E-18 3.51762E-18
 -1      3518 6.26698E-05-2.01923E-05-1.82364E-05-1.98016E-05 1.94890E-18 9.29195E-19
 -1      3519 9.46800E-05-2.71681E-05-2.89211E-05-7.49012E-06 5.11425E-20 4.14147E-19
 -1      3520 9.44467E-05-2.69314E-05-2.89385E-05-7.04896E-06 2.68769E-19 5.91481E-19
 -1      3521 9.45499E-05-2.68741E-05-2.89938E-05-6.53469E-06 2.75732E-19 5.85480E-19
 -1      3522 9.44533E-05-2.68077E-05-2.89960E-05-6.10736E-06 4.08703E-19 5.29423E-19
 -1      3523 9.35135E-05-2.63346E-05-2.87941E-05-6.78702E-06 3.09715E-19 6.33375E-19
 -1      3524 9.63392E-05-2.94578E-05-2.86448E-05-9.42746E-06-8.79852E-19 4.21328E-19
 -1      3525 9.55246E-05-2.85477E-05-2.86953E-05-9.08954E-06-7.64558E-19 1.41433E-20
 -1      3526 9.84696E-05-3.19752E-05-2.84774E-05-1.01517E-05-8.98978E-19 8.96252E-19
 -1      3527 9.71374E-05-3.05355E-05-2.85204E-05-1.00120E-05-6.61082E-19 6.46807E-19
 -1      3528 9.48465E-05-2.92577E-05-2.81447E-05-1.04543E-05-8.97499E-19 1.79117E-19
 -1      3529 1.01995E-04-3.57246E-05-2.83891E-05-1.03205E-05-1.23029E-18 7.99536E-19
 -1      3530 9.99891E-05-3.36759E-05-2.83732E-05-1.05823E-05-1.17554E-18 7.66876E-19
 -1      3531 9.70546E-05-3.21734E-05-2.78682E-05-1.17033E-05-1.11026E-18 9.93894E-19
 -1      3532 1.07223E-04-4.05800E-05-2.85648E-05-9.30566E-06-8.98437E-19 5.96677E-19
 -1      3533 1.04548E-04-3.80684E-05-2.83900E-05-1.02525E-05-9.18781E-19 8.32039E-19
 -1      3534 1.01019E-04-3.65793E-05-2.76987E-05-1.25549E-05-9.81839E-19 9.14197E-19
 -1      3535 1.21110E-04-4.84494E-05-3.11529E-05-6.29219E-07-3.56167E-19 4.54069E-19
 -1      3536 1.18316E-04-4.79322E-05-3.00343E-05-4.16497E-06-7.78066E-19 2.14024E-19
 -1      3537 1.26475E-04-4.64040E-05-3.43564E-05 5.53053E-06-2.94516E-19 1.37275E-18
 -1      3538 1.25304E-04-4.95694E-05-3.24181E-05 1.80120E-06-4.81949E-19 9.21731E-19
 -1      3539 1.08842E-04-4.14038E-05-2.88013E-05 8.40280E-06-1.81256E-18 4.32706E-19
 -1      3540 1.11753E-04-4.37650E-05-2.91786E-05 6.70145E-06-1.20320E-18-8.71650E-20
 -1      3541 1.03091E-04-3.63988E-05-2.85090E-05 9.89801E-06-2.78164E-18 1.27815E-18
 -1      3542 1.05517E-04-3.87410E-05-2.86222E-05 9.16755E-06-2.00068E-18 3.69512E-19
 -1      3543 1.05210E-04-4.01970E-05-2.79500E-05 1.16492E-05-2.13844E-18 7.20660E-19
 -1      3544 9.91252E-05-3.24057E-05-2.85543E-05 9.91122E-06-1.47586E-18 1.35084E-18
 -1      3545 1.00884E-04-3.42439E-05-2.85460E-05 9.79945E-06-1.89933E-18 1.11764E-18
 -1      3546 9.97832E-05-3.48987E-05-2.78834E-05 1.17600E-05-2.19014E-18 7.72802E-20
 -1      3547 9.66748E-05-2.96420E-05-2.87092E-05 9.19385E-06-6.52997E-19 2.78948E-19
 -1      3548 9.78293E-05-3.09069E-05-2.86635E-05 9.42412E-06-1.00745E-18 8.36886E-19
 -1      3549 9.63807E-05-3.09627E-05-2.80867E-05 1.08061E-05-9.52257E-19-6.75513E-19
 -1      3550 9.52945E-05-2.79244E-05-2.88659E-05 8.17523E-06-7.06648E-20-1.84630E-19
 -1      3551 9.59983E-05-2.87086E-05-2.88228E-05 8.57824E-06-4.38629E-19 3.58806E-19
 -1      3552 9.44972E-05-2.84077E-05-2.83523E-05 9.51053E-06-4.51712E-19-5.36064E-19
 -1      3553 9.46071E-05-2.69823E-05-2.89818E-05 7.06615E-06 4.42116E-19-1.43364E-19
 -1      3554 9.50088E-05-2.74135E-05-2.89568E-05 7.54284E-06 1.33141E-19 2.17154E-19
 -1      3555 9.35943E-05-2.69177E-05-2.85898E-05 8.16429E-06 8.26532E-20-3.06803E-19
 -1      3556 9.43387E-05-2.65694E-05-2.90474E-05 5.97369E-06-9.17136E-19 4.45420E-19
 -1      3557 9.45511E-05-2.67612E-05-2.90428E-05 6.46568E-06-1.01047E-19 3.54866E-19
 -1      3558 9.32892E-05-2.61790E-05-2.87673E-05 6.88692E-06 2.82789E-20 1.40413E-18
 -1      3559 9.43051E-05-2.64914E-05-2.90680E-05 4.95372E-06-1.51619E-18 8.35963E-19
 -1      3560 9.44057E-05-2.65325E-05-2.90805E-05 5.42637E-06-9.65927E-19 1.64127E-19
 -1      3561 9.33218E-05-2.59349E-05-2.88813E-05 5.72353E-06-9.79387E-19 1.72915E-18
 -1      3562 9.43899E-05-2.66087E-05-2.90546E-05 4.03479E-06-7.11123E-19-3.47254E-19
 -1      3563 9.44285E-05-2.65621E-05-2.90790E-05 4.46806E-06-1.39449E-18-5.38913E-19
 -1      3564 9.35242E-05-2.59935E-05-2.89407E-05 4.68896E-06-1.10002E-18-1.22746E-18
 -1      3565 9.45237E-05-2.68260E-05-2.90187E-05 3.22960E-06 3.16756E-19 6.91798E-20
 -1      3566 9.45304E-05-2.67344E-05-2.90498E-05 3.61308E-06-4.79008E-19-8.69607E-20
 -1      3567 9.37945E-05-2.62201E-05-2.89585E-05 3.78577E-06-3.25349E-19-1.92362E-18
 -1      3568 9.46673E-05-2.70822E-05-2.89699E-05 2.54066E-06 1.30193E-18-3.62357E-19
 -1      3569 9.46595E-05-2.69729E-05-2.90037E-05 2.87057E-06 1.53572E-18-2.06006E-19
 -1      3570 9.40741E-05-2.65249E-05-2.89475E-05 3.01077E-06 1.15609E-18-8.62118E-19
 -1      3571 9.48003E-05-2.73396E-05-2.89160E-05 1.96359E-06 3.11212E-20-3.95415E-19
 -1      3572 9.47877E-05-2.72294E-05-2.89494E-05 2.24063E-06 5.88607E-19-9.30348E-19
 -1      3573 9.43321E-05-2.68509E-05-2.89186E-05 2.35704E-06 7.92011E-19-2.15887E-20
 -1      3574 9.49133E-05-2.75766E-05-2.88621E-05 1.48983E-06 3.27717E-19 8.11228E-19
 -1      3575 9.49012E-05-2.74754E-05-2.88932E-05 1.71753E-06 6.04714E-19 5.75127E-20
 -1      3576 9.45545E-05-2.71640E-05-2.88800E-05 1.81495E-06 6.21116E-20-7.62647E-19
 -1      3577 9.50024E-05-2.77837E-05-2.88117E-05 1.10959E-06-1.61494E-18 6.59321E-19
 -1      3578 9.49944E-05-2.76961E-05-2.88394E-05 1.29091E-06-6.50563E-19 3.65561E-19
 -1      3579 9.47376E-05-2.74453E-05-2.88379E-05 1.37297E-06-5.02006E-19-8.73573E-19
 -1      3580 9.50729E-05-2.79546E-05-2.87666E-05 8.03408E-07-6.59754E-19 5.08830E-19
 -1      3581 9.50655E-05-2.78813E-05-2.87906E-05 9.47648E-07-1.38886E-18 9.81375E-19
 -1      3582 9.48747E-05-2.76776E-05-2.87961E-05 1.01953E-06-1.36137E-18-4.10685E-19
 -1      3583 9.47363E-05-2.76220E-05-2.87622E-05-6.58913E-07 6.34038E-19 2.29476E-18
 -1      3584 9.46355E-05-2.75353E-05-2.87605E-05-5.81395E-07-4.02103E-19 4.40857E-19
 -1      3585 9.44848E-05-2.73538E-05-2.87688E-05-5.90703E-07-5.91135E-20-3.14842E-19
 -1      3586 9.50567E-05-2.71885E-05-2.90810E-05-4.12743E-06 5.64090E-19-5.51089E-19
 -1      3587 9.51024E-05-2.72402E-05-2.90864E-05-3.77858E-06 5.85945E-19-7.53912E-19
 -1      3588 1.22949E-04-3.16387E-05-3.94031E-05 1.32351E-05 7.04652E-19 1.69385E-18
 -1      3589 9.28082E-05-3.92492E-05-2.30820E-05 2.58447E-05-2.56394E-18-1.48313E-18
 -1      3590 8.02557E-05-3.04490E-05-2.11495E-05 2.50963E-05-2.63779E-18-9.60006E-19
 -1      3591 9.66026E-05-4.05627E-05-2.40344E-05 2.37932E-05 1.36425E-18-3.67665E-20
 -1      3592 8.83652E-05-3.47946E-05-2.26158E-05 2.50257E-05 1.44092E-18-5.11873E-19
 -1      3593 8.32584E-05-3.03266E-05-2.25912E-05 2.24132E-05 1.29853E-18-1.03583E-18
 -1      3594 9.81595E-05-3.84680E-05-2.55261E-05 2.00355E-05 1.09545E-18-4.15410E-19
 -1      3595 9.89160E-05-4.14411E-05-2.43967E-05-2.30166E-05 2.52999E-18-6.91933E-19
 -1      3596 9.46034E-05-2.24874E-05-3.08991E-05-2.95192E-06-9.98096E-19-1.83768E-18
 -1      3597 9.50434E-05-2.38450E-05-3.05325E-05-1.66569E-06-8.07052E-19-1.66698E-18
 -1      3598 9.44268E-05-2.73392E-05-2.87526E-05-1.99695E-07-3.15940E-19-2.68039E-18
 -1      3599 9.44045E-05-2.73214E-05-2.87516E-05-6.99920E-08-4.65202E-19-3.82502E-18
 -1      3600 9.43309E-05-2.72128E-05-2.87614E-05-3.08100E-07-3.55599E-19-2.28067E-18
 -1      3601 5.29444E-05-1.28818E-05-1.69956E-05 4.72480E-06-1.42803E-18 5.33387E-18
 -1      3602 5.22071E-05-1.29744E-05-1.66324E-05-5.22277E-06 4.28837E-19 5.12540E-18
 -1      3603 5.97505E-05-1.49271E-05-1.89657E-05-7.10159E-06 1.12474E-18 3.24946E-18
 -1      3604 1.23242E-04-4.78968E-05-3.22827E-05-2.97171E-06-4.65034E-19-1.15198E-18
 -1      3605 9.19546E-05-1.75719E-05-3.18913E-05-8.96893E-07 1.37071E-19-2.64935E-18
 -1      3606 9.20873E-05-1.77814E-05-3.18603E-05-1.58657E-06-1.31672E-19-2.51703E-18
 -1      3607 9.30312E-05-1.93842E-05-3.15444E-05-1.51887E-06-2.49773E-19-2.35026E-18
 -1      3608 9.51923E-05-2.79469E-05-2.88038E-05-8.48224E-06-1.89004E-19-3.10699E-20
 -1      3609 9.47325E-05-2.74369E-05-2.88401E-05-8.06112E-06-4.34933E-20 1.34628E-19
 -1      3610 9.34409E-05-2.66475E-05-2.86341E-05-7.89772E-06 1.28326E-19 1.05362E-19
 -1      3611 9.37846E-05-2.75249E-05-2.84151E-05-9.13602E-06-4.79313E-19-1.43668E-19
 -1      3612 9.54669E-05-2.48971E-05-3.02268E-05-7.88405E-07-6.94534E-19-1.62263E-18
 -1      3613 9.55553E-05-2.55391E-05-3.00171E-05-3.84482E-08-4.80662E-19-1.52466E-18
 -1      3614 5.93973E-05-1.59376E-05-1.84787E-05 1.17448E-05 4.45655E-19-2.31404E-18
 -1      3615 5.63691E-05-1.36077E-05-1.81522E-05 1.71838E-06-4.29580E-20-2.31187E-18
 -1      3616 9.56710E-05-2.60604E-05-2.98259E-05 5.29702E-07-3.67104E-19-1.50378E-18
 -1      3617 9.56673E-05-2.64345E-05-2.96766E-05 1.10332E-06-4.67653E-19-1.36293E-18
 -1      3618 9.56044E-05-2.62413E-05-2.97249E-05 1.17493E-06-4.61149E-19-1.41858E-18
 -1      3619 7.28784E-05-2.58057E-05-1.98079E-05-2.38678E-05 1.61115E-18-1.27786E-18
 -1      3620 8.28619E-05-3.25795E-05-2.15941E-05-2.54727E-05 2.00096E-18-3.36243E-18
 -1      3621 1.12784E-04-4.97666E-05-2.72133E-05 1.64695E-05-2.16436E-18-1.28679E-18
 -1      3622 1.03948E-04-4.51368E-05-2.49555E-05 2.20157E-05-2.33161E-18-1.27589E-18
 -1      3623 1.22003E-04-4.99861E-05-3.10042E-05 2.65020E-06-5.73190E-19-9.56155E-19
 -1      3624 1.18457E-04-5.08073E-05-2.87867E-05 1.02506E-05-1.70224E-18-1.36993E-18
 -1      3625 1.13037E-04-4.74285E-05-2.81229E-05 1.16956E-05-1.66637E-18-3.02679E-19
 -1      3626 1.18527E-04-4.70817E-05-3.06923E-05 1.15017E-06-2.25476E-19-2.94638E-19
 -1      3627 9.56886E-05-2.66340E-05-2.95998E-05-9.91540E-07 1.07315E-18-1.14038E-18
 -1      3628 9.56869E-05-2.62509E-05-2.97492E-05-3.80880E-07 1.12744E-18-1.19370E-18
 -1      3629 6.69973E-05-2.43780E-05-1.78429E-05-2.53258E-05-1.39996E-18-2.04940E-18
 -1      3630 8.04795E-05-3.38481E-05-2.02016E-05-2.91617E-05-1.80574E-18-1.26187E-18
 -1      3631 9.48079E-05-2.30891E-05-3.07493E-05 2.52089E-06 1.51839E-18-1.73380E-18
 -1      3632 9.44835E-05-2.23396E-05-3.09204E-05 2.31523E-06 1.48027E-18-1.89028E-18
 -1      3633 8.81152E-05-3.56881E-05-2.23460E-05-2.51365E-05-1.37870E-18-1.03030E-18
 -1      3634 8.51091E-05-3.09781E-05-2.31390E-05-2.23003E-05 7.84220E-19-2.64357E-18
 -1      3635 8.94354E-05-3.61715E-05-2.28241E-05-2.52988E-05 1.82190E-18-3.13196E-18
 -1      3636 9.48471E-05-3.45327E-05-2.57450E-05 1.88280E-05 7.58412E-19-9.08906E-20
 -1      3637 9.50058E-05-2.70065E-05-2.91428E-05-3.48025E-06 3.86048E-19-7.68037E-19
 -1      3638 9.52895E-05-2.73166E-05-2.91276E-05-3.43874E-06 4.74865E-19-9.24525E-19
 -1      3639 9.53433E-05-2.73219E-05-2.91523E-05-3.08670E-06 3.14952E-19-9.08354E-19
 -1      3640 9.50451E-05-2.37543E-05-3.05631E-05-1.30944E-06-7.47947E-19-1.57043E-18
 -1      3641 7.28653E-05-2.20885E-05-2.18068E-05 1.72619E-05 7.98426E-19-1.45704E-18
 -1      3642 6.57235E-05-1.86505E-05-1.99459E-05 1.51502E-05 6.46505E-19-1.70030E-18
 -1      3643 6.66902E-05-1.72038E-05-2.11288E-05 1.03741E-05 3.85003E-19-1.42718E-18
 -1      3644 9.55137E-05-2.75087E-05-2.91494E-05-2.67844E-06 5.10353E-19-1.07485E-18
 -1      3645 9.27743E-05-1.89539E-05-3.16178E-05-5.05350E-07 3.04758E-19-2.40760E-18
 -1      3646 5.77443E-05-1.37558E-05-1.85654E-05-2.52540E-06-3.45781E-19-2.00548E-18
 -1      3647 6.06735E-05-1.52286E-05-1.93831E-05-6.99421E-06-3.97540E-19-2.07749E-18
 -1      3648 6.17307E-05-1.48056E-05-2.01252E-05 2.30240E-06-3.65713E-20-1.84913E-18
 -1      3649 9.55704E-05-2.55306E-05-3.00155E-05 3.08510E-08 1.22628E-18-1.42388E-18
 -1      3650 9.55674E-05-2.57087E-05-2.99462E-05 2.60566E-07 1.19887E-18-1.33257E-18
 -1      3651 9.49289E-05-2.77471E-05-2.87908E-05-9.20857E-07-3.10874E-19 3.81685E-19
 -1      3652 9.49728E-05-2.78424E-05-2.87714E-05-7.97365E-07-4.01501E-19 6.56500E-19
 -1      3653 9.49092E-05-2.77834E-05-2.87686E-05-7.67186E-07 3.11169E-20 9.39742E-19
 -1      3654 9.47370E-05-2.75440E-05-2.87952E-05-9.53358E-07 6.95146E-20 1.70844E-18
 -1      3655 9.55244E-05-2.53627E-05-3.00636E-05 1.56351E-07-4.68279E-19-1.54061E-18
 -1      3656 9.52830E-05-2.44424E-05-3.03649E-05 2.18819E-06 1.61340E-18-9.96106E-19
 -1      3657 9.49844E-05-2.35588E-05-3.06061E-05 2.43945E-06 1.55323E-18-1.22963E-18
 -1      3658 9.52029E-05-2.41520E-05-3.04408E-05 1.56638E-06 1.45050E-18-1.54070E-18
 -1      3659 9.54234E-05-2.50849E-05-3.01473E-05 1.31918E-06 1.39515E-18-1.12982E-18
 -1      3660 9.44844E-05-2.74006E-05-2.87527E-05 3.61014E-07-8.90668E-19-1.37868E-18
 -1      3661 9.45518E-05-2.74596E-05-2.87537E-05 4.70838E-07-7.03854E-19-1.38925E-18
 -1      3662 9.38068E-05-2.63614E-05-2.89059E-05-5.80913E-06 4.25876E-19 4.38325E-19
 -1      3663 9.46336E-05-2.68704E-05-2.90331E-05-5.65325E-06 6.81065E-19 2.97557E-19
 -1      3664 9.46154E-05-2.68965E-05-2.90276E-05-5.25490E-06 7.87353E-19 1.32277E-19
 -1      3665 1.15662E-04-4.86694E-05-2.88416E-05-9.52974E-06-8.86152E-19 2.87131E-19
 -1      3666 1.14888E-04-4.61952E-05-2.94455E-05-5.92194E-06-5.67413E-19 2.02024E-19
 -1      3667 1.11690E-04-4.40481E-05-2.88754E-05-8.17221E-06-8.21596E-19 4.34405E-19
 -1      3668 1.13644E-04-4.96410E-05-2.72268E-05-1.57689E-05-7.95308E-19 7.82308E-19
 -1      3669 1.07835E-04-4.29657E-05-2.79476E-05-1.19301E-05-4.82607E-19 8.28689E-19
 -1      3670 1.12851E-04-4.59376E-05-2.87885E-05 8.79669E-06-1.25661E-18 4.84291E-19
 -1      3671 1.15951E-04-4.59453E-05-2.98842E-05 4.02973E-06-6.64636E-19-5.05616E-19
 -1      3672 1.23942E-04-3.85583E-05-3.68857E-05 1.30179E-05 5.20766E-19 1.28071E-18
 -1      3673 6.02334E-05-1.56852E-05-1.89004E-05 9.46292E-06-2.22901E-18 3.60368E-18
 -1      3674 9.44903E-05-2.73695E-05-2.87637E-05 5.79703E-07-1.37828E-18 1.72681E-19
 -1      3675 9.46356E-05-2.75456E-05-2.87558E-05 5.66161E-07-1.54179E-18-1.12390E-18
 -1      3676 9.47213E-05-2.76196E-05-2.87558E-05 6.29039E-07-2.18985E-18 1.84576E-19
 -1      3677 9.51073E-05-2.80274E-05-2.87475E-05 6.80560E-07-4.45211E-19 8.62642E-19
 -1      3678 9.48488E-05-2.70724E-05-2.90513E-05-4.48678E-06 6.28257E-19-2.14044E-19
 -1      3679 9.46143E-05-2.68084E-05-2.90595E-05-4.18720E-06 4.29026E-19-6.49058E-19
 -1      3680 9.48244E-05-2.70113E-05-2.90559E-05-4.85494E-06 5.68620E-19-9.29589E-20
 -1      3681 1.29247E-04-4.73063E-05-3.50653E-05 5.16769E-06-2.48128E-19 1.63340E-18
 -1      3682 9.87346E-05-4.01609E-05-2.49655E-05 2.05507E-05-2.22440E-18-3.84278E-19
 -1      3683 9.56764E-05-2.69232E-05-2.94601E-05-1.47887E-06 9.08570E-19-1.03792E-18
 -1      3684 9.56831E-05-2.64501E-05-2.96720E-05-1.10633E-06 1.04364E-18-1.19300E-18
 -1      3685 9.56404E-05-2.71252E-05-2.93650E-05-1.95109E-06 8.33651E-19-1.03077E-18
 -1      3686 9.42780E-05-2.71694E-05-2.87579E-05 1.12781E-08-1.30826E-18-2.42766E-18
 -1      3687 9.44063E-05-2.73247E-05-2.87511E-05 8.73572E-08-9.78101E-19-2.97606E-18
 -1      3688 9.44315E-05-2.73468E-05-2.87512E-05 2.15883E-07-1.23825E-18-3.07234E-18
 -1      3689 9.48471E-05-2.77318E-05-2.87657E-05-7.27075E-07 1.05399E-19 1.98843E-18
 -1      3690 1.07202E-04-4.53370E-05-2.64858E-05-1.72497E-05-7.69596E-19 5.23609E-19
 -1      3691 8.87086E-05-3.08383E-05-2.48927E-05 1.93133E-05 6.25504E-19-2.73062E-19
 -1      3692 7.65865E-05-2.69944E-05-2.10744E-05 2.31337E-05-2.72264E-18-1.96803E-20
 -1      3693 7.33705E-05-2.35147E-05-2.13020E-05 1.94581E-05-2.99419E-18 6.64444E-19
 -1      3694 8.47208E-05-3.03820E-05-2.32057E-05 2.09975E-05-1.92183E-18-6.20253E-19
 -1      3695 9.49800E-05-2.78769E-05-2.87574E-05 7.36731E-07-1.32588E-18-2.16132E-19
 -1      3696 9.42225E-05-2.16165E-05-3.11055E-05-3.30284E-06-9.24233E-19-1.89747E-18
 -1      3697 9.34141E-05-2.02886E-05-3.13520E-05 6.62131E-07 5.73981E-19-2.38596E-18
 -1      3698 9.33494E-05-2.01735E-05-3.13716E-05 1.88786E-07 4.40056E-19-2.38022E-18
 -1      3699 9.54843E-05-2.52086E-05-3.01128E-05 9.49857E-07 1.31272E-18-1.26695E-18
 -1      3700 9.37145E-05-2.08291E-05-3.12518E-05 1.44386E-06 9.80498E-19-1.96364E-18
 -1      3701 9.35340E-05-2.04939E-05-3.13114E-05 1.00149E-06 6.99780E-19-2.14446E-18
 -1      3702 9.40885E-05-2.15259E-05-3.10783E-05 6.07825E-07 5.88628E-19-2.14684E-18
 -1      3703 9.47079E-05-2.75582E-05-2.87778E-05-7.86812E-07-3.73864E-19 2.07860E-18
 -1      3704 7.06392E-05-2.23307E-05-2.05478E-05-1.89160E-05 1.53914E-18-1.27187E-19
 -1      3705 6.71788E-05-2.17596E-05-1.91842E-05-1.98874E-05-1.11962E-18-2.39676E-18
 -1      3706 9.41802E-05-2.16280E-05-3.10900E-05-2.60719E-06-6.73393E-19-1.72472E-18
 -1      3707 9.39023E-05-2.10967E-05-3.12127E-05-2.26894E-06-6.14384E-19-1.82286E-18
 -1      3708 9.43278E-05-2.19047E-05-3.10186E-05-2.00780E-06-6.97993E-19-1.78471E-18
 -1      3709 9.36209E-05-2.05980E-05-3.13121E-05-1.86218E-06-3.33596E-19-2.01048E-18
 -1      3710 8.28647E-05-3.03103E-05-2.22267E-05-2.31645E-05-1.37020E-18-1.25267E-18
 -1      3711 9.37651E-05-3.76756E-05-2.42021E-05-2.23244E-05-1.17560E-18-7.68590E-19
 -1      3712 8.40168E-05-2.80483E-05-2.38541E-05-1.94089E-05 3.20116E-19-3.45439E-18
 -1      3713 9.50174E-05-2.64819E-05-2.93747E-05 2.23406E-06-2.37095E-19-8.10954E-19
 -1      3714 9.47781E-05-2.64291E-05-2.92934E-05 2.57026E-06-2.60122E-19-7.39024E-19
 -1      3715 9.44093E-05-2.62811E-05-2.92025E-05 2.83965E-06-3.88322E-19-5.61591E-19
 -1      3716 9.40913E-05-2.61031E-05-2.91377E-05 3.16502E-06-2.86681E-19-7.27704E-19
 -1      3717 9.44185E-05-2.61023E-05-2.92726E-05 2.35203E-06-2.09856E-19-8.22165E-19
 -1      3718 9.36115E-05-2.58354E-05-2.90542E-05 3.44106E-06-1.02440E-19-5.44897E-19
 -1      3719 9.32190E-05-2.55655E-05-2.89936E-05 3.78196E-06-5.16744E-20-6.29022E-19
 -1      3720 9.35786E-05-2.56857E-05-2.90898E-05 2.87643E-06-1.55524E-19-4.02333E-19
 -1      3721 9.26293E-05-2.52107E-05-2.89037E-05 4.08585E-06-3.44097E-20-5.80257E-19
 -1      3722 9.21636E-05-2.48822E-05-2.88335E-05 4.46420E-06 6.80433E-20-6.35146E-19
 -1      3723 9.25204E-05-2.50490E-05-2.89069E-05 3.42361E-06-1.77146E-19-3.15715E-19
 -1      3724 9.14590E-05-2.44736E-05-2.87213E-05 4.81639E-06 3.71867E-20-7.08168E-19
 -1      3725 9.09234E-05-2.41252E-05-2.86256E-05 5.25348E-06 1.32631E-19-5.62494E-19
 -1      3726 9.12396E-05-2.42589E-05-2.86936E-05 4.03142E-06 9.54101E-21-2.65216E-19
 -1      3727 9.00953E-05-2.37022E-05-2.84716E-05 5.67936E-06 3.44434E-20-5.69471E-19
 -1      3728 8.95021E-05-2.33854E-05-2.83316E-05 6.20198E-06-5.08797E-20-5.99489E-19
 -1      3729 8.97222E-05-2.33852E-05-2.84141E-05 4.74231E-06 3.21564E-20-4.14548E-19
 -1      3730 8.85408E-05-2.29998E-05-2.81121E-05 6.74089E-06 1.25842E-19-7.50761E-19
 -1      3731 8.79215E-05-2.27888E-05-2.79057E-05 7.39122E-06 1.38782E-19-6.07519E-19
 -1      3732 8.79487E-05-2.25112E-05-2.80242E-05 5.61752E-06 5.02471E-20-6.05575E-19
 -1      3733 8.68191E-05-2.25134E-05-2.75907E-05 8.11082E-06-7.79876E-20-7.03566E-19
 -1      3734 8.62424E-05-2.25187E-05-2.72928E-05 8.96011E-06 1.95537E-19-4.27518E-19
 -1      3735 8.58984E-05-2.17454E-05-2.74686E-05 6.76124E-06 1.26395E-19-4.65837E-19
 -1      3736 8.49975E-05-2.24588E-05-2.68441E-05 9.97849E-06 4.47903E-19-4.21820E-19
 -1      3737 8.45813E-05-2.28569E-05-2.64289E-05 1.11589E-05 5.12481E-19-5.93399E-19
 -1      3738 8.35547E-05-2.12377E-05-2.66759E-05 8.35681E-06 2.73336E-19-1.05768E-18
 -1      3739 8.31851E-05-2.31230E-05-2.57994E-05 1.26028E-05 2.35942E-19-6.48135E-19
 -1      3740 8.31789E-05-2.43386E-05-2.52437E-05 1.44694E-05 1.97461E-19-6.53614E-19
 -1      3741 8.09819E-05-2.12651E-05-2.55553E-05 1.07027E-05 3.44237E-19-1.06869E-18
 -1      3742 9.24687E-05-2.57002E-05-2.86030E-05-6.74418E-06 4.44688E-19-4.94859E-20
 -1      3743 9.25747E-05-2.56782E-05-2.86791E-05-6.22729E-06 3.45492E-19 4.81103E-20
 -1      3744 9.46046E-05-2.74319E-05-2.87900E-05-8.75523E-07 6.18157E-19 2.41666E-18
 -1      3745 9.55714E-05-2.55012E-05-3.00363E-05-2.44971E-07 1.04068E-18-1.33347E-18
 -1      3746 9.54314E-05-2.48515E-05-3.02378E-05 3.83561E-07 1.05943E-18-1.50042E-18
 -1      3747 9.48030E-05-2.32370E-05-3.06880E-05-1.11597E-06-6.11161E-19-1.68143E-18
 -1      3748 9.54303E-05-2.47976E-05-3.02577E-05-1.78338E-07-5.33150E-19-1.42117E-18
 -1      3749 9.55127E-05-2.53877E-05-3.00652E-05 3.85630E-07-4.39541E-19-1.39408E-18
 -1      3750 8.27856E-05-2.46325E-05-2.49004E-05-1.52479E-05 1.18171E-19-2.37435E-18
 -1      3751 8.25904E-05-2.32102E-05-2.55000E-05-1.32434E-05 2.51151E-19-2.21614E-18
 -1      3752 8.39304E-05-2.27493E-05-2.61892E-05-1.15956E-05 4.79479E-19-1.66511E-18
 -1      3753 8.42192E-05-2.21638E-05-2.66383E-05-1.02602E-05 5.68897E-19-9.05108E-19
 -1      3754 7.99512E-05-2.10775E-05-2.52232E-05-1.13605E-05 7.62915E-19-5.74295E-19
 -1      3755 8.54574E-05-2.21194E-05-2.71249E-05-9.09782E-06 3.22989E-20-4.97564E-19
 -1      3756 8.59651E-05-2.19999E-05-2.74470E-05-8.13929E-06-6.19441E-19-4.17981E-19
 -1      3757 8.25166E-05-2.07260E-05-2.64436E-05-8.58171E-06 1.28154E-19-7.49922E-21
 -1      3758 8.70451E-05-2.21911E-05-2.77852E-05-7.31865E-06-8.90084E-19-1.95034E-19
 -1      3759 8.76152E-05-2.23248E-05-2.80064E-05-6.58051E-06-2.65111E-19 2.18692E-20
 -1      3760 8.48331E-05-2.10669E-05-2.72992E-05-6.75538E-06-5.40568E-19 4.67520E-19
 -1      3761 8.85447E-05-2.26525E-05-2.82355E-05-5.96120E-06 2.90653E-19-4.22956E-19
 -1      3762 8.90950E-05-2.29216E-05-2.83790E-05-5.36442E-06 2.38480E-19 1.54667E-19
 -1      3763 8.68314E-05-2.17036E-05-2.78882E-05-5.44237E-06 1.29973E-19 3.49943E-20
 -1      3764 8.98809E-05-2.33110E-05-2.85284E-05-4.87215E-06-1.69795E-19 7.34177E-19
 -1      3765 9.03729E-05-2.36397E-05-2.86149E-05-4.37307E-06 2.17846E-19 8.62529E-19
 -1      3766 8.85325E-05-2.24950E-05-2.82827E-05-4.43444E-06 9.30471E-20-7.53133E-19
 -1      3767 9.10274E-05-2.40423E-05-2.87072E-05-3.96721E-06 8.21486E-19 8.11494E-19
 -1      3768 9.14471E-05-2.43835E-05-2.87535E-05-3.54298E-06 5.69727E-19 1.12840E-18
 -1      3769 8.99587E-05-2.33378E-05-2.85365E-05-3.61853E-06 6.29034E-19 2.30068E-19
 -1      3770 9.19842E-05-2.47692E-05-2.88059E-05-3.20234E-06 1.18009E-19 1.78788E-18
 -1      3771 9.23306E-05-2.50950E-05-2.88249E-05-2.84100E-06 4.91622E-19 1.48766E-18
 -1      3772 9.11378E-05-2.41646E-05-2.86906E-05-2.93612E-06 1.00318E-18 1.24008E-18
 -1      3773 9.27651E-05-2.54464E-05-2.88502E-05-2.55428E-06 8.01957E-19 1.39654E-18
 -1      3774 9.30439E-05-2.57417E-05-2.88517E-05-2.24875E-06 1.11722E-18 1.00170E-18
 -1      3775 9.20988E-05-2.49339E-05-2.87754E-05-2.35803E-06 6.73242E-19 1.29904E-18
 -1      3776 9.33904E-05-2.60503E-05-2.88592E-05-2.00903E-06 1.44621E-18 1.11721E-18
 -1      3777 9.36097E-05-2.63078E-05-2.88501E-05-1.75381E-06 2.16577E-18 1.85653E-18
 -1      3778 9.28712E-05-2.56224E-05-2.88134E-05-1.86896E-06 1.68024E-18 1.16043E-18
 -1      3779 9.38824E-05-2.65708E-05-2.88467E-05-1.55639E-06 1.98645E-18 1.78884E-18
 -1      3780 9.40507E-05-2.67889E-05-2.88320E-05-1.34635E-06 1.42975E-18 2.53314E-18
 -1      3781 9.34843E-05-2.62211E-05-2.88213E-05-1.45896E-06 1.79513E-18 1.94968E-18
 -1      3782 9.42631E-05-2.70090E-05-2.88222E-05-1.18514E-06 6.41268E-19 2.77445E-18
 -1      3783 9.43937E-05-2.71879E-05-2.88052E-05-1.01502E-06 1.07845E-18 2.17624E-18
 -1      3784 9.39587E-05-2.67236E-05-2.88108E-05-1.12209E-06 1.78290E-18 2.18715E-18
 -1      3785 9.51640E-05-3.15937E-05-2.72089E-05-1.29631E-05-1.21115E-18 4.04068E-19
 -1      3786 9.36581E-05-2.97814E-05-2.73637E-05-1.22500E-05-1.12902E-18 5.07498E-19
 -1      3787 9.31108E-05-2.85415E-05-2.76370E-05-1.11032E-05-1.16428E-18 2.40108E-19
 -1      3788 9.23104E-05-2.74438E-05-2.78011E-05-1.03786E-05-8.71176E-19 2.18281E-19
 -1      3789 9.08114E-05-2.79051E-05-2.69961E-05-1.22244E-05-1.24218E-18 1.46491E-19
 -1      3790 1.08582E-04-4.41769E-05-2.74361E-05 1.37408E-05-1.95636E-18 4.39613E-19
 -1      3791 9.48361E-05-2.31021E-05-3.07257E-05 1.52657E-06 1.32628E-18-1.68801E-18
 -1      3792 9.42104E-05-2.17790E-05-3.10595E-05 2.10297E-06 1.46908E-18-1.70261E-18
 -1      3793 9.39343E-05-2.12251E-05-3.11668E-05 1.73650E-06 1.23808E-18-1.79631E-18
 -1      3794 1.01061E-04-3.74556E-05-2.71530E-05 1.40373E-05-2.40412E-18 9.78695E-19
 -1      3795 1.04412E-04-4.07365E-05-2.72674E-05 1.38414E-05-1.86312E-18 6.73807E-19
 -1      3796 1.03384E-04-4.18191E-05-2.65177E-05 1.67914E-05-2.26257E-18-3.05640E-19
 -1      3797 9.21306E-05-2.67299E-05-2.80308E-05 9.37630E-06-6.11399E-19-6.32690E-19
 -1      3798 9.28077E-05-2.76773E-05-2.78822E-05 1.00992E-05-7.93003E-19-6.13343E-19
 -1      3799 9.18158E-05-2.56738E-05-2.83537E-05 7.77984E-06-2.23526E-19 1.68381E-19
 -1      3800 9.20985E-05-2.61671E-05-2.82352E-05 8.45633E-06-5.53664E-19-5.32397E-19
 -1      3801 9.02568E-05-2.54397E-05-2.77888E-05 8.98518E-06-8.04530E-19-1.83571E-19
 -1      3802 9.19535E-05-2.52667E-05-2.85890E-05 6.40357E-06-5.06836E-19 1.25573E-18
 -1      3803 9.20055E-05-2.54576E-05-2.85064E-05 7.01385E-06-2.14749E-19 1.04242E-18
 -1      3804 9.04600E-05-2.47231E-05-2.81743E-05 7.27221E-06-9.07689E-19 7.55660E-20
 -1      3805 9.23159E-05-2.52667E-05-2.87445E-05 5.22674E-06-5.09213E-19 7.85664E-19
 -1      3806 9.22450E-05-2.52690E-05-2.86944E-05 5.76756E-06 1.37283E-19 1.29693E-18
 -1      3807 9.09649E-05-2.45682E-05-2.84528E-05 5.87681E-06 7.28585E-20 9.48916E-19
 -1      3808 9.27656E-05-2.55032E-05-2.88354E-05 4.22399E-06-7.14001E-19-1.08248E-18
 -1      3809 9.26387E-05-2.53968E-05-2.88113E-05 4.69686E-06-8.56621E-19 1.06879E-19
 -1      3810 9.15897E-05-2.47518E-05-2.86400E-05 4.73134E-06 5.90527E-21-2.10077E-19
 -1      3811 9.32234E-05-2.58599E-05-2.88779E-05 3.37436E-06-1.71685E-19 3.08139E-20
 -1      3812 9.30799E-05-2.56988E-05-2.88727E-05 3.78223E-06-5.42122E-19-7.67611E-19
 -1      3813 9.22301E-05-2.51223E-05-2.87552E-05 3.78402E-06-5.94515E-19 2.28973E-19
 -1      3814 9.36465E-05-2.62606E-05-2.88865E-05 2.66083E-06 9.71036E-19 7.97026E-19
 -1      3815 9.35081E-05-2.60800E-05-2.88939E-05 3.00746E-06 3.09449E-19 1.44419E-19
 -1      3816 9.28288E-05-2.55777E-05-2.88168E-05 2.99883E-06-1.51042E-19 7.25790E-19
 -1      3817 9.40149E-05-2.66577E-05-2.88732E-05 2.06848E-06 9.97634E-19-4.14427E-19
 -1      3818 9.38922E-05-2.64792E-05-2.88881E-05 2.35846E-06 1.71298E-18 5.41593E-19
 -1      3819 9.33572E-05-2.60517E-05-2.88407E-05 2.35004E-06 1.31706E-18 8.84115E-19
 -1      3820 9.43226E-05-2.70239E-05-2.88470E-05 1.58292E-06-5.10864E-20-4.95714E-19
 -1      3821 9.42191E-05-2.68595E-05-2.88658E-05 1.82170E-06 1.69422E-20-6.52908E-19
 -1      3822 9.38046E-05-2.65035E-05-2.88395E-05 1.81781E-06 9.25883E-19 3.24155E-19
 -1      3823 9.45640E-05-2.73407E-05-2.88140E-05 1.18694E-06-1.07108E-18 1.47462E-19
 -1      3824 9.44862E-05-2.72001E-05-2.88344E-05 1.38386E-06-2.11162E-19 4.62201E-19
 -1      3825 9.41690E-05-2.69092E-05-2.88228E-05 1.38660E-06-4.65937E-19 5.98329E-19
 -1      3826 6.80909E-05-1.88624E-05-2.08919E-05-1.48931E-05 9.01913E-19 1.29642E-18
 -1      3827 7.60523E-05-2.43344E-05-2.22410E-05-1.90517E-05 9.26521E-19-2.05709E-18
 -1      3828 1.02920E-04-4.10957E-05-2.62888E-05-1.71989E-05-8.13559E-19 6.97274E-19
 -1      3829 6.52902E-05-1.75853E-05-2.03886E-05 1.31167E-05-3.44719E-18 1.01121E-18
 -1      3830 6.18839E-05-1.46668E-05-2.01532E-05 4.63399E-06-2.06961E-18 2.82693E-18
 -1      3831 8.18764E-05-2.63347E-05-2.36300E-05 1.86855E-05 7.69520E-19-1.23118E-18
 -1      3832 9.33455E-05-2.01672E-05-3.13726E-05-1.66731E-07 4.20113E-19-2.23101E-18
 -1      3833 9.34049E-05-2.02700E-05-3.13550E-05-6.37452E-07 1.37395E-19-2.30564E-18
 -1      3834 9.39787E-05-2.13181E-05-3.11202E-05 4.49555E-09 2.62136E-19-2.23295E-18
 -1      3835 9.41890E-05-2.70651E-05-2.87685E-05-4.28497E-07 1.16745E-19-1.35407E-18
 -1      3836 9.41314E-05-2.70170E-05-2.87656E-05-2.72560E-07-8.36961E-20-1.75186E-18
 -1      3837 9.32535E-05-2.87559E-05-2.76322E-05 1.11853E-05-9.22216E-19-9.56711E-19
 -1      3838 9.45560E-05-3.03470E-05-2.74776E-05 1.18914E-05-1.04798E-18-6.58989E-19
 -1      3839 9.06509E-05-2.70220E-05-2.72946E-05 1.10835E-05-1.07227E-18 2.78388E-21
 -1      3840 9.54936E-05-2.73211E-05-2.92152E-05-2.73702E-06 4.19325E-19-1.03889E-18
 -1      3841 9.55452E-05-2.72439E-05-2.92695E-05-2.34776E-06 6.97781E-19-9.81989E-19
 -1      3842 9.53386E-05-2.70711E-05-2.92583E-05-2.77795E-06 4.38146E-19-8.25187E-19
 -1      3843 9.57214E-05-3.21386E-05-2.72115E-05 1.30875E-05-1.23609E-18-1.02016E-18
 -1      3844 9.78995E-05-3.45782E-05-2.71054E-05 1.36442E-05-1.97949E-18 3.21508E-19
 -1      3845 9.21260E-05-2.99056E-05-2.67170E-05 1.35856E-05-1.25092E-18-5.72285E-19
 -1      3846 9.55661E-05-2.58351E-05-2.98832E-05 7.83364E-07-3.38068E-19-1.40541E-18
 -1      3847 9.55274E-05-2.61575E-05-2.97352E-05 1.23724E-06-3.56057E-19-1.39063E-18
 -1      3848 9.54408E-05-2.52723E-05-3.00677E-05 4.67338E-07-4.31516E-19-1.28669E-18
 -1      3849 6.19015E-05-1.44676E-05-2.02770E-05-3.54090E-06 2.05293E-19 2.84352E-18
 -1      3850 6.39660E-05-1.63108E-05-2.04138E-05-1.03523E-05 1.09801E-18 2.56936E-18
 -1      3851 6.98196E-05-1.82887E-05-2.20086E-05-1.12617E-05 6.07142E-19 1.10523E-18
 -1      3852 9.54170E-05-2.63640E-05-2.95943E-05 1.56915E-06-2.65574E-19-1.30427E-18
 -1      3853 9.52671E-05-2.64748E-05-2.94851E-05 1.94705E-06-2.57487E-19-1.11118E-18
 -1      3854 9.50306E-05-2.62294E-05-2.94815E-05 1.80693E-06-1.08728E-19-1.13149E-18
 -1      3855 9.53875E-05-2.59837E-05-2.97396E-05 1.19618E-06-2.14517E-19-1.26294E-18
 -1      3856 6.61498E-05-1.89024E-05-2.01471E-05-1.51854E-05-6.95699E-19-2.38687E-18
 -1      3857 7.34347E-05-2.45862E-05-2.10449E-05-2.10067E-05-9.67365E-19-1.62186E-18
 -1      3858 9.48853E-05-2.77843E-05-2.87594E-05 7.20806E-07-1.84726E-18 2.34554E-19
 -1      3859 9.35083E-05-2.04552E-05-3.13165E-05-9.82430E-07-1.99859E-20-2.23067E-18
 -1      3860 9.36811E-05-2.07548E-05-3.12590E-05-1.40439E-06-3.05413E-19-2.14622E-18
 -1      3861 9.40780E-05-2.14991E-05-3.10821E-05-6.06232E-07 2.76978E-20-2.07282E-18
 -1      3862 9.46615E-05-3.61289E-05-2.49691E-05 1.97040E-05-2.23668E-18-5.69802E-19
 -1      3863 9.43392E-05-2.72277E-05-2.87592E-05 3.29461E-07-1.31808E-18-2.13874E-18
 -1      3864 8.05869E-05-2.47200E-05-2.39772E-05-1.67776E-05-5.62218E-20-2.22966E-18
 -1      3865 9.43889E-05-2.72120E-05-2.87883E-05-8.34269E-07 2.05560E-19 1.73799E-18
 -1      3866 9.71941E-05-3.65906E-05-2.59669E-05-1.71188E-05-9.29089E-19 1.14710E-19
 -1      3867 7.97297E-05-2.36384E-05-2.40357E-05 1.54306E-05 2.22002E-19-1.07349E-18
 -1      3868 9.47466E-05-2.76196E-05-2.87706E-05 7.78912E-07-1.87556E-18 3.07300E-19
 -1      3869 6.54292E-05-1.68666E-05-2.06851E-05-1.05348E-05-3.70266E-19-2.35508E-18
 -1      3870 7.15224E-05-1.92887E-05-2.23039E-05-1.17424E-05-4.45394E-19-2.06692E-18
 -1      3871 6.63046E-05-1.59846E-05-2.16144E-05-5.11760E-06-8.73172E-20-1.98544E-18
 -1      3872 9.41694E-05-2.64292E-05-2.90272E-05-4.07106E-06 3.37252E-19-7.30912E-19
 -1      3873 9.43783E-05-2.65599E-05-2.90700E-05-3.71079E-06 3.67731E-19-6.83596E-19
 -1      3874 7.84750E-05-2.41028E-05-2.33807E-05 1.64411E-05-2.66008E-18 5.32863E-19
 -1      3875 7.16717E-05-2.05744E-05-2.17586E-05 1.55485E-05-3.36705E-18 1.55790E-18
 -1      3876 7.18862E-05-1.89714E-05-2.26605E-05 1.14075E-05-2.93703E-18 4.48405E-19
 -1      3877 7.57554E-05-2.03737E-05-2.36618E-05 1.27241E-05-2.77800E-20-1.05698E-18
 -1      3878 9.21108E-05-2.57132E-05-2.84652E-05-7.37556E-06 3.43898E-19 1.27794E-19
 -1      3879 9.11715E-05-2.50229E-05-2.83481E-05-6.78863E-06 3.30177E-19-1.52522E-19
 -1      3880 9.21600E-05-2.59482E-05-2.83589E-05-7.96791E-06-1.13472E-19 8.01067E-20
 -1      3881 9.47107E-05-2.67111E-05-2.91401E-05-3.38428E-06 3.24874E-19-6.15701E-19
 -1      3882 9.48980E-05-2.67877E-05-2.91931E-05-3.03781E-06 3.40646E-19-7.23877E-19
 -1      3883 9.42740E-05-2.63385E-05-2.91122E-05-3.26484E-06 3.93601E-19-6.06494E-19
 -1      3884 9.46768E-05-2.75007E-05-2.87891E-05 9.24886E-07-1.78722E-18 6.94003E-20
 -1      3885 9.19498E-05-2.51934E-05-2.86066E-05-5.65359E-06 2.89809E-19-1.07911E-18
 -1      3886 9.29837E-05-2.58071E-05-2.87815E-05-5.71141E-06 2.28022E-19-1.70096E-19
 -1      3887 9.31662E-05-2.59016E-05-2.88360E-05-5.26099E-06 9.38965E-20-2.34521E-19
 -1      3888 9.56509E-05-2.59927E-05-2.98511E-05-7.14619E-07 9.76489E-19-1.00016E-18
 -1      3889 9.55155E-05-2.53765E-05-3.00581E-05-3.84933E-07 8.94214E-19-1.02430E-18
 -1      3890 9.56488E-05-2.63496E-05-2.97026E-05-1.22672E-06 8.76231E-19-8.94480E-19
 -1      3891 6.52768E-05-1.57519E-05-2.10128E-05 7.00571E-06 3.46827E-19-1.64957E-18
 -1      3892 6.52316E-05-1.55622E-05-2.12516E-05 2.99533E-06-1.64973E-20-1.66396E-18
 -1      3893 6.98232E-05-1.80878E-05-2.22104E-05 1.00687E-05 3.62277E-19-1.29628E-18
 -1      3894 9.48121E-05-2.32478E-05-3.06728E-05-8.13918E-07-4.51274E-19-1.72047E-18
 -1      3895 9.55792E-05-2.69183E-05-2.94272E-05-2.01331E-06 7.75004E-19-9.45900E-19
 -1      3896 9.41988E-05-2.65609E-05-2.89875E-05-4.95096E-06 4.59400E-19-6.71103E-20
 -1      3897 9.61945E-05-3.48163E-05-2.64027E-05 1.57176E-05-1.55871E-18-2.69555E-19
 -1      3898 9.43118E-05-2.71882E-05-2.87708E-05 6.25896E-07-1.18790E-18 1.95493E-19
 -1      3899 9.44102E-05-2.72749E-05-2.87738E-05 7.18325E-07-1.81141E-18 1.62686E-18
 -1      3900 9.42604E-05-2.71068E-05-2.87818E-05-7.00879E-07 8.55816E-19-9.38170E-19
 -1      3901 9.41555E-05-2.15765E-05-3.10849E-05-1.28434E-06-3.20828E-19-2.03184E-18
 -1      3902 9.43689E-05-2.23006E-05-3.08971E-05 1.30268E-07 2.28813E-19-2.17226E-18
 -1      3903 9.43657E-05-2.22948E-05-3.08980E-05-1.30516E-07 8.07776E-20-2.11816E-18
 -1      3904 9.41031E-05-2.69934E-05-2.87628E-05-6.79998E-08-1.07973E-18-1.64261E-18
 -1      3905 9.41041E-05-2.69965E-05-2.87620E-05 9.80396E-08-1.14862E-18-2.00453E-18
 -1      3906 9.39547E-05-2.68191E-05-2.87694E-05-1.89287E-07-6.38793E-19-7.78308E-19
 -1      3907 9.40583E-05-2.68874E-05-2.87857E-05-6.85187E-07 5.42162E-19-1.38117E-19
 -1      3908 8.07128E-05-2.70752E-05-2.28562E-05-1.92434E-05-8.99036E-19-1.08466E-18
 -1      3909 8.76230E-05-3.17398E-05-2.40022E-05 2.05455E-05-1.98577E-18-5.09206E-19
 -1      3910 8.38793E-05-2.82326E-05-2.38129E-05 1.87797E-05-1.76488E-18-9.76067E-19
 -1      3911 8.16318E-05-2.52607E-05-2.41052E-05 1.58732E-05-1.85712E-18-4.89699E-20
 -1      3912 9.35340E-05-3.37514E-05-2.55210E-05 1.74094E-05-1.97496E-18-6.18076E-19
 -1      3913 9.22647E-05-2.67888E-05-2.80353E-05-9.41668E-06-4.18474E-19 1.54804E-19
 -1      3914 9.19352E-05-2.62096E-05-2.81752E-05-8.74758E-06-2.36239E-19 1.90713E-19
 -1      3915 9.05614E-05-2.52303E-05-2.80027E-05-8.20318E-06-1.44845E-19 1.83330E-19
 -1      3916 9.41423E-05-2.70325E-05-2.87633E-05 3.01050E-07-1.99134E-18-3.34978E-18
 -1      3917 9.42087E-05-2.70881E-05-2.87656E-05 4.55733E-07-1.30112E-18-1.96219E-18
 -1      3918 9.41146E-05-2.69728E-05-2.87748E-05 6.04469E-07-9.17458E-19-6.32184E-19
 -1      3919 9.39564E-05-2.68326E-05-2.87672E-05 2.32097E-07-1.26058E-18-1.88547E-18
 -1      3920 7.61607E-05-2.10527E-05-2.35112E-05-1.41368E-05 7.54938E-19-3.28022E-19
 -1      3921 6.78353E-05-1.60116E-05-2.22619E-05 4.74055E-06-2.21735E-18 8.25500E-19
 -1      3922 6.43658E-05-1.48389E-05-2.11030E-05 7.82656E-07-1.11490E-18 1.93778E-18
 -1      3923 6.77098E-05-1.56914E-05-2.23154E-05-2.39134E-06-3.55559E-19 1.26008E-18
 -1      3924 9.43956E-05-2.21289E-05-3.09514E-05 1.13973E-06 9.87571E-19-1.65184E-18
 -1      3925 9.45225E-05-2.26096E-05-3.08344E-05 5.26440E-07 5.98259E-19-1.84739E-18
 -1      3926 9.44236E-05-2.23961E-05-3.08767E-05 2.76218E-07 3.55732E-19-2.09584E-18
 -1      3927 9.48028E-05-2.32036E-05-3.06656E-05 9.65985E-08 1.96810E-19-1.91243E-18
 -1      3928 9.92032E-05-3.65451E-05-2.69007E-05-1.47158E-05-1.00242E-18 4.60515E-19
 -1      3929 9.65628E-05-3.36280E-05-2.69408E-05-1.41086E-05-1.14736E-18 4.93063E-19
 -1      3930 9.27298E-05-3.13304E-05-2.63898E-05-1.49203E-05-1.29773E-18-1.67633E-19
 -1      3931 9.03261E-05-2.60713E-05-2.75519E-05-9.98656E-06-7.27992E-19 4.88290E-19
 -1      3932 9.37875E-05-2.62335E-05-2.89585E-05-4.43606E-06 2.65400E-19-5.17993E-19
 -1      3933 9.35633E-05-2.59746E-05-2.89630E-05-3.94674E-06 8.15640E-20-7.56665E-19
 -1      3934 9.35769E-05-2.60936E-05-2.89153E-05-4.83287E-06 9.68972E-20-2.00008E-19
 -1      3935 9.35976E-05-2.56440E-05-2.91292E-05 2.21248E-06 4.56326E-20-8.80661E-19
 -1      3936 9.31171E-05-2.53712E-05-2.90366E-05 2.45895E-06 6.82585E-20-6.26384E-19
 -1      3937 9.24895E-05-2.50164E-05-2.89255E-05 2.63815E-06-1.12415E-19-3.48282E-19
 -1      3938 9.18983E-05-2.46463E-05-2.88253E-05 2.89763E-06-8.03192E-21-2.33201E-19
 -1      3939 9.25797E-05-2.49750E-05-2.89632E-05 1.95299E-06 1.22637E-19-4.54381E-19
 -1      3940 9.11313E-05-2.42018E-05-2.86956E-05 3.09399E-06-2.28602E-20-2.11280E-19
 -1      3941 9.04236E-05-2.37664E-05-2.85710E-05 3.38318E-06 6.49020E-20-2.45676E-19
 -1      3942 9.12013E-05-2.41654E-05-2.87163E-05 2.27561E-06-7.72464E-20-1.61196E-19
 -1      3943 8.95014E-05-2.32628E-05-2.84036E-05 3.61028E-06 7.32954E-21-4.11767E-19
 -1      3944 8.86675E-05-2.27969E-05-2.82347E-05 3.95016E-06-7.46828E-20-4.24978E-19
 -1      3945 8.95334E-05-2.31970E-05-2.84120E-05 2.62522E-06-4.03049E-20-8.12994E-21
 -1      3946 8.75608E-05-2.22655E-05-2.80053E-05 4.22853E-06-1.23405E-19-5.71063E-19
 -1      3947 8.65883E-05-2.18094E-05-2.77671E-05 4.65305E-06-9.96591E-20-7.99812E-19
 -1      3948 8.75327E-05-2.21271E-05-2.80069E-05 3.02853E-06-1.27049E-19-6.32505E-19
 -1      3949 8.52473E-05-2.12834E-05-2.74442E-05 5.02090E-06-1.36914E-19-8.10744E-19
 -1      3950 8.41237E-05-2.08882E-05-2.71048E-05 5.59127E-06 2.84790E-20-9.09911E-19
 -1      3951 8.51227E-05-2.10080E-05-2.74446E-05 3.53323E-06-2.40048E-19-1.06621E-18
 -1      3952 8.24683E-05-2.04050E-05-2.66444E-05 6.12075E-06 1.49596E-19-1.57260E-18
 -1      3953 8.11859E-05-2.01424E-05-2.61607E-05 6.94660E-06 1.67193E-19-1.87646E-18
 -1      3954 8.21767E-05-1.98880E-05-2.66485E-05 4.23493E-06-2.70759E-19-1.79298E-18
 -1      3955 7.90607E-05-1.96965E-05-2.54952E-05 7.78788E-06 3.54440E-19-2.17050E-18
 -1      3956 7.77611E-05-1.97648E-05-2.48310E-05 9.04971E-06 4.46727E-20-1.90959E-18
 -1      3957 7.84892E-05-1.88124E-05-2.55055E-05 5.30402E-06 9.17633E-20-2.67016E-18
 -1      3958 9.54908E-05-2.67610E-05-2.94563E-05-2.02766E-06 6.53900E-19-8.45305E-19
 -1      3959 9.55799E-05-2.66007E-05-2.95618E-05-1.60964E-06 8.98809E-19-8.10304E-19
 -1      3960 9.55458E-05-2.61825E-05-2.97264E-05-1.25123E-06 8.38224E-19-8.31135E-19
 -1      3961 9.18708E-05-3.30615E-05-2.50996E-05-1.85272E-05-1.23356E-18-4.08450E-19
 -1      3962 7.99876E-05-1.95530E-05-2.58907E-05-7.13302E-06 6.42756E-19-1.10204E-19
 -1      3963 8.12071E-05-1.97358E-05-2.63991E-05-6.21876E-06 1.29015E-19 4.90029E-19
 -1      3964 8.28936E-05-2.01449E-05-2.68964E-05-5.60382E-06-6.16527E-19 2.17071E-19
 -1      3965 8.39988E-05-2.04739E-05-2.72604E-05-4.95409E-06-8.01704E-19 6.79590E-19
 -1      3966 8.07830E-05-1.90654E-05-2.63920E-05-4.20306E-06-1.30364E-19 8.05624E-19
 -1      3967 8.53393E-05-2.09470E-05-2.76019E-05-4.51934E-06-1.07769E-18 7.85528E-19
 -1      3968 8.62808E-05-2.13560E-05-2.78496E-05-4.03458E-06-2.51625E-19-1.79583E-19
 -1      3969 8.37487E-05-2.00841E-05-2.72448E-05-3.39221E-06-8.82914E-19 5.87065E-19
 -1      3970 8.73594E-05-2.18510E-05-2.80805E-05-3.70586E-06 3.69193E-19-7.10365E-19
 -1      3971 8.81517E-05-2.22912E-05-2.82439E-05-3.31867E-06 9.85515E-20-5.40534E-19
 -1      3972 8.61268E-05-2.11289E-05-2.78270E-05-2.80974E-06-1.64420E-19 1.68890E-19
 -1      3973 8.90275E-05-2.27810E-05-2.83962E-05-3.05148E-06 4.43296E-19-2.41579E-19
 -1      3974 8.96857E-05-2.32191E-05-2.84993E-05-2.72730E-06 1.04862E-18 1.78593E-19
 -1      3975 8.80509E-05-2.21578E-05-2.82178E-05-2.34693E-06 5.86132E-19-1.05037E-18
 -1      3976 9.03980E-05-2.36834E-05-2.85958E-05-2.50120E-06 1.86713E-18 2.95495E-19
 -1      3977 9.09377E-05-2.40973E-05-2.86565E-05-2.22360E-06 1.85154E-18 1.13696E-18
 -1      3978 8.96172E-05-2.31411E-05-2.84727E-05-1.95335E-06 1.56858E-18 1.15005E-19
 -1      3979 9.15143E-05-2.45222E-05-2.87139E-05-2.02953E-06 8.06471E-19 1.14744E-18
 -1      3980 9.19510E-05-2.48980E-05-2.87454E-05-1.79095E-06 9.12989E-19 7.83403E-19
 -1      3981 9.08904E-05-2.40526E-05-2.86315E-05-1.60873E-06 1.49107E-18 6.54556E-20
 -1      3982 9.24139E-05-2.52751E-05-2.87759E-05-1.62477E-06 1.00159E-18 1.11121E-18
 -1      3983 9.27623E-05-2.56061E-05-2.87880E-05-1.42106E-06 1.63612E-18 4.19579E-19
 -1      3984 9.19185E-05-2.48739E-05-2.87231E-05-1.30613E-06 1.06460E-18 5.21845E-19
 -1      3985 9.31291E-05-2.59298E-05-2.88006E-05-1.28081E-06 2.11049E-18 4.92644E-19
 -1      3986 9.34009E-05-2.62149E-05-2.88002E-05-1.10579E-06 1.65523E-18 5.53417E-19
 -1      3987 9.27401E-05-2.55973E-05-2.87690E-05-1.04568E-06 1.43806E-18-4.20996E-19
 -1      3988 9.36456E-05-2.64481E-05-2.87986E-05-9.49524E-07 3.28610E-19 4.44960E-19
 -1      3989 9.38558E-05-2.66860E-05-2.87916E-05-8.09397E-07 5.79560E-19 3.34891E-19
 -1      3990 9.37894E-05-2.66382E-05-2.87773E-05-5.08509E-07-2.93777E-19-1.23087E-19
 -1      3991 9.33416E-05-2.61813E-05-2.87821E-05-7.77952E-07 1.02254E-18-7.82125E-19
 -1      3992 8.83185E-05-2.50187E-05-2.70954E-05-9.95175E-06-1.07954E-18 5.79882E-19
 -1      3993 8.82920E-05-2.44921E-05-2.73661E-05-8.95922E-06-4.60755E-19 6.47709E-19
 -1      3994 9.00314E-05-2.38946E-05-2.83595E-05 5.06822E-06 1.83190E-19 5.30448E-19
 -1      3995 8.97338E-05-2.38243E-05-2.82372E-05 5.67329E-06-5.41950E-19 3.20540E-19
 -1      3996 9.52352E-05-2.42914E-05-3.04118E-05 8.28274E-07 1.13730E-18-1.61163E-18
 -1      3997 9.50340E-05-2.37606E-05-3.05467E-05 7.37130E-07 9.61388E-19-1.35703E-18
 -1      3998 7.81627E-05-2.37238E-05-2.32686E-05-1.62386E-05-6.41249E-19-8.74052E-19
 -1      3999 8.52567E-05-2.90127E-05-2.42276E-05-1.83786E-05-8.88587E-19-7.98170E-19
 -1      4000 8.91362E-05-2.37332E-05-2.80481E-05 6.37677E-06-1.03157E-18 1.41570E-19
 -1      4001 8.89378E-05-2.38620E-05-2.78726E-05 7.12519E-06-1.14374E-18-1.22571E-19
 -1      4002 8.82793E-05-2.30078E-05-2.79614E-05 5.50662E-06-7.76138E-19 4.53630E-20
 -1      4003 8.83523E-05-2.39840E-05-2.76076E-05 8.05480E-06-9.40720E-19-6.81553E-19
 -1      4004 8.83718E-05-2.44385E-05-2.73715E-05 8.99154E-06-9.49879E-19-1.08460E-18
 -1      4005 8.70791E-05-2.29138E-05-2.74876E-05 7.08562E-06-1.54916E-18-7.77120E-19
 -1      4006 9.09237E-05-2.42934E-05-2.85684E-05 4.02575E-06 7.15470E-20 7.18173E-20
 -1      4007 9.05970E-05-2.41093E-05-2.84890E-05 4.52140E-06 5.33483E-19 1.09346E-18
 -1      4008 8.94449E-05-2.33996E-05-2.82937E-05 4.31110E-06 3.30519E-19 5.05240E-19
 -1      4009 9.17515E-05-2.48109E-05-2.86993E-05 3.18373E-06 9.20518E-21 4.95439E-19
 -1      4010 9.14346E-05-2.45708E-05-2.86525E-05 3.59304E-06-2.42217E-20 6.18958E-19
 -1      4011 9.05187E-05-2.39550E-05-2.85170E-05 3.38243E-06-6.78084E-20 1.62736E-18
 -1      4012 9.24839E-05-2.53672E-05-2.87730E-05 2.49908E-06 3.09634E-19-5.49730E-19
 -1      4013 9.21974E-05-2.51094E-05-2.87498E-05 2.83761E-06 1.84565E-19-6.53469E-20
 -1      4014 9.14707E-05-2.45796E-05-2.86587E-05 2.64817E-06 5.17391E-19 5.25377E-19
 -1      4015 9.31090E-05-2.59107E-05-2.88065E-05 1.94216E-06 1.22912E-18 4.62009E-20
 -1      4016 9.28621E-05-2.56596E-05-2.87995E-05 2.22106E-06 8.33618E-19-4.58084E-19
 -1      4017 9.22892E-05-2.52095E-05-2.87409E-05 2.06161E-06 9.00626E-19-5.43435E-19
 -1      4018 9.36272E-05-2.64100E-05-2.88131E-05 1.49183E-06 1.59455E-19 3.56376E-19
 -1      4019 9.34221E-05-2.61806E-05-2.88166E-05 1.71938E-06 5.89226E-19-2.83028E-19
 -1      4020 9.29751E-05-2.58041E-05-2.87813E-05 1.59126E-06 8.81766E-19-1.25023E-18
 -1      4021 9.40495E-05-2.68545E-05-2.88029E-05 1.13280E-06-1.05723E-18 1.55287E-18
 -1      4022 9.38816E-05-2.66509E-05-2.88126E-05 1.31272E-06 4.00578E-20 1.20573E-18
 -1      4023 9.35367E-05-2.63381E-05-2.87937E-05 1.21443E-06-4.82891E-19-3.40370E-19
 -1      4024 9.44504E-05-2.72765E-05-2.87878E-05 9.23129E-07-1.65146E-18 1.77762E-18
 -1      4025 9.03572E-05-3.06445E-05-2.55411E-05 1.64763E-05-1.92556E-18-3.86218E-19
 -1      4026 7.36355E-05-1.84790E-05-2.36331E-05 9.24354E-06 2.24699E-19-1.91686E-18
 -1      4027 7.25362E-05-1.87526E-05-2.30684E-05-1.08689E-05 6.84800E-19 7.21957E-19
 -1      4028 7.53819E-05-1.92317E-05-2.40558E-05-1.00523E-05 7.63220E-19 6.15144E-19
 -1      4029 6.96041E-05-1.63117E-05-2.26770E-05-6.65080E-06 4.11062E-19 1.12830E-18
 -1      4030 9.53896E-05-2.47884E-05-3.02643E-05 1.08445E-06 1.39152E-18-1.47421E-18
 -1      4031 9.52566E-05-2.43448E-05-3.03975E-05 1.17474E-06 1.37840E-18-1.68774E-18
 -1      4032 8.79071E-05-2.49208E-05-2.70149E-05 1.02353E-05-1.05445E-18-9.45012E-19
 -1      4033 8.83374E-05-2.58806E-05-2.67185E-05 1.13968E-05-7.83702E-19-8.67004E-19
 -1      4034 8.59882E-05-2.33407E-05-2.68336E-05 9.25746E-06-1.12392E-18-1.51192E-18
 -1      4035 8.87842E-05-2.96226E-05-2.52942E-05-1.63977E-05-1.01565E-18-3.10542E-19
 -1      4036 9.51630E-05-2.68500E-05-2.92760E-05-2.72332E-06 3.43268E-19-7.76949E-19
 -1      4037 9.53114E-05-2.68308E-05-2.93498E-05-2.35968E-06 4.49255E-19-7.95259E-19
 -1      4038 9.53070E-05-2.65360E-05-2.94720E-05-1.97803E-06 5.18812E-19-8.00668E-19
 -1      4039 9.48677E-05-2.65559E-05-2.92743E-05-2.62782E-06 3.71224E-19-7.28940E-19
 -1      4040 8.83145E-05-2.69373E-05-2.63225E-05 1.30097E-05-1.13866E-18-9.50279E-19
 -1      4041 8.94954E-05-2.86856E-05-2.59887E-05 1.44393E-05-1.58791E-18-9.36834E-19
 -1      4042 8.60276E-05-2.75503E-05-2.51107E-05 1.60268E-05-1.41158E-18-1.01488E-18
 -1      4043 8.53929E-05-2.47136E-05-2.60257E-05 1.22355E-05-1.03392E-18-1.64607E-18
 -1      4044 9.53315E-05-2.48253E-05-3.02228E-05 1.53300E-07-3.10693E-19-1.70672E-18
 -1      4045 9.53886E-05-2.53255E-05-3.00346E-05 5.68723E-07-2.67951E-19-1.53351E-18
 -1      4046 9.48587E-05-2.33443E-05-3.06637E-05 7.63031E-07 8.97293E-19-1.36671E-18
 -1      4047 9.46848E-05-2.29447E-05-3.07495E-05 5.72811E-07 7.12663E-19-1.58604E-18
 -1      4048 9.49947E-05-2.36480E-05-3.05603E-05 2.02848E-07 5.58800E-19-1.59633E-18
 -1      4049 9.52814E-05-2.44027E-05-3.03644E-05 1.47086E-07 8.45540E-19-1.18132E-18
 -1      4050 8.83381E-05-2.66841E-05-2.63722E-05-1.25612E-05-1.19309E-18-1.81268E-20
 -1      4051 8.77759E-05-2.55577E-05-2.66904E-05-1.13033E-05-1.04897E-18 2.59229E-19
 -1      4052 8.57116E-05-2.38449E-05-2.65045E-05-1.01974E-05-7.99976E-19 3.89825E-19
 -1      4053 7.68886E-05-1.89614E-05-2.48561E-05-8.45003E-06 3.00671E-19 6.43427E-19
 -1      4054 8.74529E-05-2.75400E-05-2.56746E-05-1.46657E-05-1.09977E-18-2.10709E-19
 -1      4055 9.44606E-05-2.60193E-05-2.93364E-05 1.78828E-06 5.09492E-21-1.24374E-18
 -1      4056 9.40920E-05-2.58777E-05-2.92375E-05 2.03891E-06-8.73670E-20-1.05633E-18
 -1      4057 9.36895E-05-2.55656E-05-2.91880E-05 1.63708E-06 1.51717E-19-1.17927E-18
 -1      4058 9.44150E-05-2.23864E-05-3.08789E-05-2.74744E-07-1.31750E-20-2.03623E-18
 -1      4059 9.45261E-05-2.26059E-05-3.08382E-05-5.39150E-07-1.60592E-19-1.98668E-18
 -1      4060 9.48036E-05-2.32017E-05-3.06671E-05-9.66976E-08-5.06363E-20-1.93456E-18
 -1      4061 7.57845E-05-1.99921E-05-2.40187E-05 1.05529E-05-1.42002E-18 1.05017E-18
 -1      4062 7.14638E-05-1.74802E-05-2.29984E-05 8.09027E-06-1.95010E-18-1.35118E-19
 -1      4063 7.23304E-05-1.71279E-05-2.36724E-05 4.76468E-06-1.05678E-18 5.87461E-19
 -1      4064 8.41940E-05-2.50231E-05-2.53529E-05-1.35621E-05-8.95851E-19-4.52010E-19
 -1      4065 9.38553E-05-2.60123E-05-2.90743E-05-3.00848E-06 3.87407E-19-5.62907E-19
 -1      4066 9.41886E-05-2.61752E-05-2.91541E-05-2.69246E-06 5.05821E-19-5.27258E-19
 -1      4067 9.09576E-05-2.45633E-05-2.84470E-05-5.31355E-06 2.30015E-19-7.65451E-19
 -1      4068 9.13711E-05-2.47483E-05-2.85653E-05-4.82363E-06 2.02110E-19-9.38817E-19
 -1      4069 7.61106E-05-1.79213E-05-2.48692E-05-5.60747E-06 1.97532E-19 5.76897E-19
 -1      4070 9.35232E-05-2.63753E-05-2.87748E-05-3.52856E-07 3.80171E-19-5.40815E-19
 -1      4071 9.37208E-05-2.65950E-05-2.87710E-05-2.53628E-07 9.89605E-20-5.08914E-19
 -1      4072 9.37002E-05-2.65707E-05-2.87678E-05-2.86426E-08 3.54440E-20-1.38078E-18
 -1      4073 9.55123E-05-2.55686E-05-2.99725E-05-6.90499E-07 8.32386E-19-1.04428E-18
 -1      4074 9.54302E-05-2.50738E-05-3.01596E-05-2.25853E-07 7.88198E-19-1.10152E-18
 -1      4075 9.52856E-05-2.46621E-05-3.02669E-05-1.45163E-07 6.98433E-19-1.13227E-18
 -1      4076 9.29858E-05-2.55528E-05-2.88970E-05-3.64509E-06 2.37773E-20-7.94916E-19
 -1      4077 9.33695E-05-2.57744E-05-2.89768E-05-3.29730E-06 1.94022E-19-6.94124E-19
 -1      4078 9.33182E-05-2.56028E-05-2.90145E-05-2.70839E-06 3.46368E-19-5.80877E-19
 -1      4079 9.42785E-05-2.70828E-05-2.87958E-05 9.78435E-07-1.23001E-18 2.09516E-18
 -1      4080 9.40157E-05-2.68337E-05-2.87883E-05 9.05786E-07-6.72593E-19 1.20531E-18
 -1      4081 9.50621E-05-2.60660E-05-2.95730E-05 1.33056E-06-2.35637E-20-1.44853E-18
 -1      4082 9.48154E-05-2.60922E-05-2.94555E-05 1.60912E-06-4.64350E-20-1.43773E-18
 -1      4083 9.45333E-05-2.58693E-05-2.94203E-05 1.31059E-06 6.06259E-20-1.45373E-18
 -1      4084 9.27722E-05-2.55566E-05-2.88028E-05-4.72572E-06 8.67879E-20-6.52144E-19
 -1      4085 9.48440E-05-2.33891E-05-3.06343E-05-4.61520E-07-2.60422E-19-1.77450E-18
 -1      4086 7.08195E-05-1.64628E-05-2.33171E-05-2.87408E-06-7.84789E-19 5.84724E-19
 -1      4087 9.51121E-05-2.40178E-05-3.04563E-05-1.01444E-07-3.00632E-19-1.71473E-18
 -1      4088 9.02737E-05-2.43372E-05-2.82744E-05-5.86563E-06 1.50030E-19-4.06994E-19
 -1      4089 8.97620E-05-2.38520E-05-2.82364E-05-4.98578E-06-7.11231E-21-2.30289E-19
 -1      4090 8.99085E-05-2.42743E-05-2.81165E-05-6.47427E-06-1.05054E-20-1.38509E-19
 -1      4091 7.44145E-05-1.92573E-05-2.37121E-05-9.26311E-06-2.28477E-19-1.37505E-18
 -1      4092 7.60851E-05-2.13819E-05-2.33850E-05-1.34403E-05-6.00434E-19-1.34316E-18
 -1      4093 8.10180E-05-2.33546E-05-2.46405E-05-1.30015E-05-7.24475E-19-7.08452E-19
 -1      4094 9.53035E-05-2.52966E-05-3.00029E-05 5.13242E-07-1.79366E-19-1.62474E-18
 -1      4095 9.53801E-05-2.57038E-05-2.98612E-05 8.00420E-07-2.68670E-19-1.45234E-18
 -1      4096 9.52662E-05-2.59422E-05-2.97142E-05 1.12845E-06-1.36785E-19-1.52497E-18
 -1      4097 9.50805E-05-2.41153E-05-3.04116E-05 9.05558E-09-2.83303E-19-1.81976E-18
 -1      4098 9.38878E-05-2.67345E-05-2.87813E-05 7.18903E-07-3.77339E-19-6.00303E-19
 -1      4099 6.73495E-05-1.56558E-05-2.20133E-05-9.75264E-07 7.36191E-20-1.72025E-18
 -1      4100 7.08464E-05-1.69869E-05-2.30628E-05-4.00967E-06 2.14461E-19-1.72904E-18
 -1      4101 6.95409E-05-1.64092E-05-2.27811E-05 3.21215E-06 6.57145E-19-1.42819E-18
 -1      4102 8.89672E-05-2.43441E-05-2.76751E-05-7.97505E-06-1.91637E-19 2.69410E-19
 -1      4103 8.92037E-05-2.41836E-05-2.78853E-05-7.20279E-06-5.74618E-20 2.18114E-19
 -1      4104 8.83706E-05-2.34383E-05-2.78164E-05-6.21671E-06-1.14064E-19-1.50276E-19
 -1      4105 9.49845E-05-2.39318E-05-3.04600E-05 1.12477E-08-8.33124E-20-1.71930E-18
 -1      4106 9.50119E-05-2.40078E-05-3.04420E-05-2.83307E-08-3.08932E-19-1.74031E-18
 -1      4107 9.52566E-05-2.47184E-05-3.02160E-05 1.56415E-07-2.81746E-19-1.65664E-18
 -1      4108 9.50369E-05-2.40500E-05-3.04357E-05 8.13895E-09 1.95842E-19-1.69767E-18
 -1      4109 9.49963E-05-2.39506E-05-3.04573E-05-3.76107E-08-1.33260E-20-1.66436E-18
 -1      4110 9.52098E-05-2.45890E-05-3.02453E-05-2.88692E-08-2.66599E-19-1.53193E-18
 -1      4111 8.69734E-05-2.33557E-05-2.72533E-05-7.88217E-06-4.42337E-19 2.78804E-19
 -1      4112 9.13850E-05-2.43010E-05-2.87602E-05 1.40078E-06-1.37141E-19-6.04444E-19
 -1      4113 9.06178E-05-2.38485E-05-2.86237E-05 1.52597E-06-1.14235E-19-6.29165E-19
 -1      4114 8.97244E-05-2.33483E-05-2.84600E-05 1.57416E-06-2.47297E-20-5.70976E-19
 -1      4115 8.87990E-05-2.28293E-05-2.82845E-05 1.70042E-06-1.62896E-19-7.04693E-19
 -1      4116 9.00457E-05-2.34484E-05-2.85066E-05 6.78191E-07-5.96902E-20-1.09436E-18
 -1      4117 8.77263E-05-2.22740E-05-2.80688E-05 1.74514E-06-4.36699E-19-6.65642E-19
 -1      4118 8.66116E-05-2.17143E-05-2.78299E-05 1.88227E-06-5.48757E-19-9.52317E-19
 -1      4119 8.81069E-05-2.23739E-05-2.81230E-05 6.61201E-07-3.51372E-19-9.79627E-19
 -1      4120 8.53111E-05-2.11254E-05-2.75336E-05 1.92483E-06-4.55005E-19-1.16590E-18
 -1      4121 8.39530E-05-2.05454E-05-2.71988E-05 2.09404E-06-3.08402E-19-1.42440E-18
 -1      4122 8.57709E-05-2.11986E-05-2.76064E-05 5.90624E-07-4.67476E-19-1.04160E-18
 -1      4123 8.23346E-05-1.99313E-05-2.67821E-05 2.14288E-06-3.70988E-19-1.61739E-18
 -1      4124 8.06466E-05-1.93451E-05-2.63058E-05 2.39144E-06-3.22218E-19-1.68250E-18
 -1      4125 8.29082E-05-1.99447E-05-2.68887E-05 4.49338E-07-4.72317E-19-1.69126E-18
 -1      4126 7.85486E-05-1.86947E-05-2.57076E-05 2.48804E-06-1.78596E-19-1.61467E-18
 -1      4127 7.64135E-05-1.81433E-05-2.50174E-05 2.91652E-06 1.01871E-19-1.85074E-18
 -1      4128 7.92581E-05-1.85920E-05-2.58695E-05 2.13416E-07-2.17673E-19-1.27347E-18
 -1      4129 9.10768E-05-2.44313E-05-2.85530E-05-4.04922E-06 1.75634E-19-7.41243E-19
 -1      4130 9.20054E-05-2.50341E-05-2.86972E-05-4.39444E-06 3.03864E-19-7.87329E-19
 -1      4131 9.24190E-05-2.52664E-05-2.87896E-05-3.98932E-06 1.36648E-19-5.65012E-19
 -1      4132 7.46027E-05-1.73388E-05-2.45787E-05-2.81184E-06-1.76545E-19 4.72929E-19
 -1      4133 7.77483E-05-1.80886E-05-2.56211E-05-2.23966E-06 5.27771E-19-2.02731E-19
 -1      4134 7.36610E-05-1.67396E-05-2.42600E-05 1.02547E-06-6.40711E-19 7.80165E-19
 -1      4135 7.96949E-05-1.86895E-05-2.61917E-05-2.18983E-06 2.83574E-20 3.12558E-19
 -1      4136 8.14272E-05-1.92234E-05-2.66973E-05-1.87051E-06-1.32909E-18 2.02207E-19
 -1      4137 7.90419E-05-1.81529E-05-2.59716E-05 3.83842E-07-3.34152E-19 5.47199E-19
 -1      4138 8.29413E-05-1.97939E-05-2.70974E-05-1.85635E-06-1.44844E-18 5.84450E-19
 -1      4139 8.43129E-05-2.03372E-05-2.74442E-05-1.64349E-06-9.82960E-19 6.85533E-19
 -1      4140 8.24977E-05-1.94328E-05-2.69358E-05 3.14811E-08-9.31558E-19 7.17454E-19
 -1      4141 8.55007E-05-2.08805E-05-2.77180E-05-1.61781E-06-9.51233E-19 7.41882E-19
 -1      4142 8.65953E-05-2.14141E-05-2.79531E-05-1.45234E-06-4.41935E-19-1.23804E-20
 -1      4143 8.51302E-05-2.05838E-05-2.75967E-05-1.87741E-07-1.36400E-18 1.29380E-18
 -1      4144 8.75525E-05-2.19376E-05-2.81380E-05-1.41296E-06 5.05871E-19-6.08219E-19
 -1      4145 8.84373E-05-2.24493E-05-2.82940E-05-1.26866E-06 6.50971E-19-2.27454E-19
 -1      4146 8.72363E-05-2.16770E-05-2.80479E-05-3.04589E-07-2.15808E-19 1.30311E-19
 -1      4147 8.92167E-05-2.29447E-05-2.84154E-05-1.22012E-06 1.10858E-18-1.33629E-20
 -1      4148 8.99340E-05-2.34222E-05-2.85151E-05-1.08809E-06 1.96909E-18-9.71351E-19
 -1      4149 8.89467E-05-2.27107E-05-2.83496E-05-3.53029E-07 5.72032E-19-3.22000E-19
 -1      4150 9.05691E-05-2.38794E-05-2.85915E-05-1.03520E-06 2.06142E-18-9.36089E-19
 -1      4151 9.11486E-05-2.43129E-05-2.86516E-05-9.13719E-07 1.66485E-18-3.33427E-19
 -1      4152 9.03407E-05-2.36695E-05-2.85445E-05-3.56173E-07 1.79132E-18-3.03410E-19
 -1      4153 9.16632E-05-2.47236E-05-2.86962E-05-8.60564E-07 1.51535E-18-6.48871E-19
 -1      4154 9.21282E-05-2.51073E-05-2.87290E-05-7.50545E-07 1.04420E-18 6.30166E-20
 -1      4155 9.14727E-05-2.45382E-05-2.86638E-05-3.31393E-07 2.22635E-18-1.80200E-19
 -1      4156 9.25412E-05-2.54649E-05-2.87519E-05-6.97964E-07 8.25632E-19-6.54253E-19
 -1      4157 9.29193E-05-2.57994E-05-2.87667E-05-6.05107E-07 1.28997E-18-1.67245E-18
 -1      4158 9.23821E-05-2.53058E-05-2.87305E-05-2.91798E-07 1.02518E-18-1.86599E-18
 -1      4159 9.31769E-05-2.60530E-05-2.87694E-05-4.61117E-07 9.70219E-19-1.04265E-18
 -1      4160 9.02100E-05-2.37479E-05-2.84993E-05 2.59755E-06-8.51027E-20 1.65499E-18
 -1      4161 8.97011E-05-2.34158E-05-2.84071E-05 2.96443E-06 3.28125E-19 1.72669E-18
 -1      4162 9.38369E-05-2.56108E-05-2.92459E-05 1.02241E-06 2.06034E-19-1.22656E-18
 -1      4163 9.33457E-05-2.53802E-05-2.91325E-05 1.16451E-06 4.36396E-19-1.10637E-18
 -1      4164 8.31965E-05-2.24930E-05-2.59773E-05-9.50185E-06-6.02378E-19-6.45921E-20
 -1      4165 8.37515E-05-2.22304E-05-2.64249E-05-8.25783E-06-5.57558E-19 3.65307E-19
 -1      4166 8.89704E-05-2.30468E-05-2.82732E-05 3.35398E-06-1.32664E-19 8.93037E-19
 -1      4167 8.84071E-05-2.27573E-05-2.81325E-05 3.82211E-06-6.74013E-19-9.44640E-20
 -1      4168 8.87892E-05-2.27695E-05-2.82590E-05 2.51092E-06-4.54207E-19 9.27463E-19
 -1      4169 8.59471E-05-2.19956E-05-2.74454E-05 5.66667E-06-2.07289E-18-3.61649E-19
 -1      4170 8.53518E-05-2.19588E-05-2.71573E-05 6.49427E-06-1.62401E-18-1.21776E-18
 -1      4171 9.12704E-05-2.44664E-05-2.86424E-05 2.00927E-06 9.61589E-19 1.56428E-18
 -1      4172 9.08261E-05-2.41261E-05-2.85859E-05 2.30142E-06 2.38241E-19 2.03566E-18
 -1      4173 9.01134E-05-2.35823E-05-2.84857E-05 1.91226E-06 2.39791E-19 1.32920E-18
 -1      4174 9.21604E-05-2.51558E-05-2.87258E-05 1.54686E-06 2.12643E-18 6.05645E-19
 -1      4175 9.17835E-05-2.48303E-05-2.86949E-05 1.78153E-06 1.76772E-18 1.22011E-18
 -1      4176 9.12253E-05-2.43727E-05-2.86293E-05 1.45769E-06 1.45372E-18 1.63234E-18
 -1      4177 9.28938E-05-2.57865E-05-2.87677E-05 1.18162E-06 9.71723E-19 8.51086E-19
 -1      4178 9.25813E-05-2.54896E-05-2.87543E-05 1.37071E-06 2.02094E-18 8.30769E-19
 -1      4179 9.21457E-05-2.51077E-05-2.87135E-05 1.10872E-06 2.08700E-18 1.03946E-18
 -1      4180 9.34899E-05-2.63429E-05-2.87819E-05 8.89458E-07-4.95926E-19 2.40098E-19
 -1      4181 9.32334E-05-2.60832E-05-2.87798E-05 1.04487E-06-1.98421E-19-1.34390E-19
 -1      4182 9.28931E-05-2.57661E-05-2.87564E-05 8.40189E-07 6.00630E-19 2.09259E-18
 -1      4183 9.27502E-05-2.50760E-05-2.90110E-05 1.21924E-06 3.88655E-19-9.61354E-19
 -1      4184 9.21244E-05-2.47188E-05-2.88940E-05 1.34955E-06 1.10582E-19-8.06404E-19
 -1      4185 9.29735E-05-2.51076E-05-2.90666E-05 6.00070E-07 4.43916E-19-1.53232E-18
 -1      4186 8.41464E-05-2.18402E-05-2.67572E-05 7.47494E-06-1.29386E-18-3.31946E-19
 -1      4187 8.36124E-05-2.21008E-05-2.63743E-05 8.70128E-06-6.47967E-19-1.82129E-19
 -1      4188 8.32855E-05-2.07607E-05-2.67200E-05 5.93082E-06-1.05040E-18 4.13620E-19
 -1      4189 9.52365E-05-2.51611E-05-3.00373E-05 3.57091E-07-1.41641E-19-1.71441E-18
 -1      4190 9.54123E-05-2.61922E-05-2.96631E-05-1.38102E-06 6.92252E-19-7.70510E-19
 -1      4191 9.54838E-05-2.59443E-05-2.98076E-05-9.96910E-07 8.46030E-19-7.72173E-19
 -1      4192 9.54011E-05-2.56392E-05-2.98980E-05-8.09009E-07 6.30108E-19-8.08507E-19
 -1      4193 8.75485E-05-2.24312E-05-2.79345E-05 4.34338E-06-6.13095E-19-3.18740E-19
 -1      4194 8.69522E-05-2.22335E-05-2.77297E-05 4.95501E-06-1.56164E-18-3.10660E-19
 -1      4195 8.54071E-05-2.12836E-05-2.74228E-05 4.41024E-06-2.11302E-18-1.55434E-18
 -1      4196 8.72298E-05-2.19820E-05-2.79182E-05 3.31300E-06-1.29774E-18-7.62680E-19
 -1      4197 8.18108E-05-2.27769E-05-2.53934E-05-1.12260E-05-5.49372E-19-3.58183E-19
 -1      4198 9.52186E-05-2.44983E-05-3.03193E-05-6.35710E-08 5.60147E-19-1.13208E-18
 -1      4199 9.50972E-05-2.41732E-05-3.03985E-05-4.24421E-08 3.10324E-19-1.46086E-18
 -1      4200 9.52742E-05-2.47638E-05-3.02020E-05-2.04763E-07 1.73462E-19-1.29288E-18
 -1      4201 9.53630E-05-2.50684E-05-3.01169E-05-4.11126E-07 6.20818E-19-9.56837E-19
 -1      4202 9.41902E-05-2.60007E-05-2.92193E-05-2.18306E-06 3.41637E-19-3.80734E-19
 -1      4203 9.45794E-05-2.63177E-05-2.92547E-05-2.43381E-06 3.53897E-19-5.42827E-19
 -1      4204 9.48443E-05-2.63777E-05-2.93467E-05-2.12266E-06 3.06485E-19-5.62844E-19
 -1      4205 9.36440E-05-2.64964E-05-2.87715E-05 5.69616E-07-1.39590E-19-1.01696E-18
 -1      4206 8.51091E-05-2.23334E-05-2.68873E-05-7.15589E-06-7.46186E-19 3.86245E-19
 -1      4207 8.57916E-05-2.23671E-05-2.72227E-05-6.28318E-06-4.77025E-19 9.90847E-20
 -1      4208 8.28095E-05-2.10002E-05-2.63955E-05-6.46494E-06-6.81790E-19-8.59854E-20
 -1      4209 8.12073E-05-2.35992E-05-2.46500E-05 1.37934E-05-1.51286E-18 5.05273E-19
 -1      4210 8.86708E-05-2.31950E-05-2.80569E-05-4.34082E-06-3.70101E-20-6.31639E-19
 -1      4211 8.93559E-05-2.35044E-05-2.82430E-05-3.86502E-06 5.99179E-20-7.14370E-19
 -1      4212 7.35737E-05-1.74565E-05-2.40161E-05-3.58671E-06 1.91049E-19-1.46417E-18
 -1      4213 7.70849E-05-1.90579E-05-2.48830E-05-5.23735E-06 7.46026E-20-1.20103E-18
 -1      4214 9.46412E-05-2.58350E-05-2.94943E-05 7.99911E-07 2.97038E-19-1.48306E-18
 -1      4215 9.42880E-05-2.57678E-05-2.93699E-05 9.60066E-07 1.13247E-19-1.32850E-18
 -1      4216 9.40004E-05-2.55709E-05-2.93150E-05 5.20053E-07 3.63876E-19-1.40973E-18
 -1      4217 9.02329E-05-2.38964E-05-2.84282E-05-3.46931E-06 2.04232E-19-9.18810E-19
 -1      4218 9.08683E-05-2.42390E-05-2.85706E-05-3.09920E-06 7.60878E-20-9.99985E-19
 -1      4219 8.92640E-05-2.32355E-05-2.82623E-05-2.84295E-06 1.49596E-20-1.12231E-18
 -1      4220 7.57798E-05-1.79816E-05-2.48553E-05 3.89808E-06-5.15476E-19 8.06609E-19
 -1      4221 7.25642E-05-1.73958E-05-2.35547E-05 6.27949E-06 5.01918E-19-2.00907E-18
 -1      4222 9.31259E-05-2.59981E-05-2.87614E-05-1.77657E-07 1.16866E-18-1.92293E-18
 -1      4223 7.90752E-05-1.96536E-05-2.53823E-05 7.33508E-06-2.95987E-19 7.08464E-19
 -1      4224 8.05336E-05-2.12582E-05-2.54111E-05 9.54347E-06-4.03414E-19 3.34614E-19
 -1      4225 9.50859E-05-2.63911E-05-2.94399E-05-1.92484E-06 3.46290E-19-7.52589E-19
 -1      4226 9.52670E-05-2.63168E-05-2.95536E-05-1.59221E-06 5.25189E-19-7.52467E-19
 -1      4227 9.52005E-05-2.60730E-05-2.96250E-05-1.32021E-06 4.99236E-19-6.17788E-19
 -1      4228 9.48116E-05-2.61601E-05-2.94193E-05-1.73370E-06 3.26421E-19-6.92717E-19
 -1      4229 9.22720E-05-2.50495E-05-2.88019E-05-3.31281E-06 7.86478E-20-7.25315E-19
 -1      4230 8.00656E-05-2.07805E-05-2.53019E-05-8.95578E-06-2.98736E-19-6.28922E-19
 -1      4231 9.16567E-05-2.43783E-05-2.88079E-05 6.54627E-07 1.52450E-19-1.23095E-18
 -1      4232 9.50780E-05-2.57977E-05-2.96858E-05 9.46990E-07-8.04224E-20-1.69228E-18
 -1      4233 9.37200E-05-2.66028E-05-2.87683E-05 1.92803E-07-7.31926E-20-1.44705E-18
 -1      4234 9.28291E-05-2.52725E-05-2.89536E-05-2.27704E-06 3.18129E-19-6.55762E-19
 -1      4235 9.33177E-05-2.55326E-05-2.90582E-05-2.01836E-06 4.83363E-19-6.06798E-19
 -1      4236 7.35336E-05-1.73533E-05-2.41160E-05 3.06013E-06 6.35695E-19-1.96142E-18
 -1      4237 9.52065E-05-2.50319E-05-3.00838E-05-1.08446E-07-1.13720E-20-1.32702E-18
 -1      4238 9.51993E-05-2.50109E-05-3.00881E-05 1.56999E-08-1.67788E-19-1.52189E-18
 -1      4239 9.52132E-05-2.54517E-05-2.98898E-05 3.32400E-07-4.80732E-20-1.53009E-18
 -1      4240 9.38336E-05-2.57651E-05-2.91737E-05-1.83244E-06 3.99381E-19-6.82806E-19
 -1      4241 9.42302E-05-2.59181E-05-2.92810E-05-1.59645E-06 3.85339E-19-5.49322E-19
 -1      4242 9.34004E-05-2.54314E-05-2.91161E-05-1.41436E-06 3.50157E-19-7.47767E-19
 -1      4243 8.69540E-05-2.26278E-05-2.75598E-05-5.51867E-06-3.75152E-19-2.10756E-19
 -1      4244 8.76616E-05-2.28408E-05-2.78094E-05-4.88475E-06-1.09453E-19-4.00767E-19
 -1      4245 8.74060E-05-2.23813E-05-2.78188E-05-3.66465E-06-2.48695E-19-6.62802E-19
 -1      4246 9.33020E-05-2.61920E-05-2.87661E-05 3.13531E-07 7.77402E-19-1.03662E-18
 -1      4247 8.52742E-05-2.16054E-05-2.72187E-05-4.81529E-06-8.32628E-19-3.16039E-19
 -1      4248 7.84964E-05-1.92353E-05-2.54972E-05-3.98587E-06-9.29883E-20-1.14533E-18
 -1      4249 7.43687E-05-1.73151E-05-2.43947E-05 1.41444E-07 3.68650E-19-1.14052E-18
 -1      4250 8.85081E-05-2.28190E-05-2.81809E-05-1.25560E-06-5.36609E-20-8.97839E-19
 -1      4251 8.74095E-05-2.22663E-05-2.79567E-05-1.34907E-06-2.14617E-19-7.86604E-19
 -1      4252 8.63441E-05-2.18101E-05-2.76966E-05-1.76307E-06-6.49458E-19-6.55335E-19
 -1      4253 8.50094E-05-2.12284E-05-2.73895E-05-1.91389E-06-6.64980E-19-7.50107E-19
 -1      4254 8.37609E-05-2.08094E-05-2.70333E-05-2.50387E-06-6.63277E-19-7.45245E-19
 -1      4255 8.21025E-05-2.02096E-05-2.66034E-05-2.73953E-06-6.35762E-19-8.78042E-19
 -1      4256 8.06262E-05-1.98642E-05-2.61109E-05-3.58916E-06-5.23135E-19-1.06811E-18
 -1      4257 8.01635E-05-2.20035E-05-2.48954E-05 1.12041E-05-8.33057E-19 6.84558E-19
 -1      4258 7.91449E-05-1.90542E-05-2.58070E-05 3.96230E-06-1.13454E-19 9.05936E-19
 -1      4259 8.09551E-05-1.95766E-05-2.63554E-05 3.52355E-06-1.10175E-19 1.25039E-18
 -1      4260 8.22076E-05-1.98743E-05-2.67829E-05 2.74418E-06-9.67239E-19 1.86690E-19
 -1      4261 8.37144E-05-2.03933E-05-2.71772E-05 2.46804E-06-1.52701E-18 4.00661E-19
 -1      4262 8.47890E-05-2.07848E-05-2.74810E-05 1.91910E-06-1.93131E-18 5.35264E-19
 -1      4263 8.59850E-05-2.12996E-05-2.77530E-05 1.74687E-06-1.86372E-18 2.02145E-19
 -1      4264 8.68916E-05-2.17289E-05-2.79641E-05 1.35309E-06-1.16637E-18 8.46447E-19
 -1      4265 8.78581E-05-2.22332E-05-2.81487E-05 1.24484E-06-3.09635E-19 2.10252E-19
 -1      4266 8.86212E-05-2.26727E-05-2.82915E-05 9.56637E-07-1.79357E-19-4.82670E-19
 -1      4267 8.94084E-05-2.31541E-05-2.84133E-05 8.91981E-07 1.65255E-19-7.80089E-19
 -1      4268 9.00468E-05-2.35818E-05-2.85062E-05 6.76859E-07 8.73998E-19-4.80265E-19
 -1      4269 9.06881E-05-2.40282E-05-2.85833E-05 6.41759E-07 1.59522E-18-1.33038E-19
 -1      4270 9.12169E-05-2.44276E-05-2.86403E-05 4.78657E-07 2.09823E-18-2.10254E-19
 -1      4271 9.17366E-05-2.48301E-05-2.86858E-05 4.62721E-07 1.74224E-18-8.49761E-19
 -1      4272 9.21697E-05-2.51906E-05-2.87176E-05 3.38160E-07 1.50088E-18-6.43591E-19
 -1      4273 9.25876E-05-2.55443E-05-2.87414E-05 3.32669E-07 1.64845E-18-6.71109E-19
 -1      4274 9.29424E-05-2.58622E-05-2.87562E-05 2.35954E-07 9.87134E-19-1.06379E-18
 -1      4275 9.31349E-05-2.52854E-05-2.90903E-05-4.88848E-07 3.56634E-19-1.01789E-18
 -1      4276 9.25233E-05-2.49683E-05-2.89649E-05-4.90229E-07 2.17896E-19-1.09129E-18
 -1      4277 9.16238E-05-2.46208E-05-2.87153E-05-2.80441E-06-7.49860E-21-8.58645E-19
 -1      4278 9.21921E-05-2.49447E-05-2.88312E-05-2.50377E-06 8.97212E-20-7.18162E-19
 -1      4279 9.22564E-05-2.48406E-05-2.88733E-05-1.78095E-06 2.16793E-19-8.20158E-19
 -1      4280 9.08767E-05-2.40821E-05-2.86000E-05-2.23963E-06 1.08981E-20-1.08827E-18
 -1      4281 9.53033E-05-2.58072E-05-2.97774E-05-9.18230E-07 4.94860E-19-6.59657E-19
 -1      4282 9.53559E-05-2.55106E-05-2.99403E-05-6.32538E-07 5.11626E-19-7.85366E-19
 -1      4283 9.52927E-05-2.53372E-05-2.99878E-05-5.05985E-07 3.90858E-19-8.93333E-19
 -1      4284 9.18704E-05-2.46228E-05-2.88363E-05-6.61578E-07 1.42475E-19-1.11638E-18
 -1      4285 9.11143E-05-2.41973E-05-2.86974E-05-6.84408E-07 1.05709E-19-1.27274E-18
 -1      4286 9.50854E-05-2.56664E-05-2.97572E-05 4.68384E-07 9.54436E-20-1.49783E-18
 -1      4287 9.48823E-05-2.57920E-05-2.96109E-05 6.36694E-07 2.71119E-19-1.37234E-18
 -1      4288 9.46840E-05-2.57056E-05-2.95554E-05 2.95828E-07 4.35661E-19-1.24370E-18
 -1      4289 9.50523E-05-2.55088E-05-2.98025E-05 2.03775E-08 2.27544E-19-1.15815E-18
 -1      4290 9.03350E-05-2.37779E-05-2.85456E-05-9.05441E-07 6.79438E-20-1.17773E-18
 -1      4291 8.94216E-05-2.32753E-05-2.83752E-05-9.57922E-07-3.97196E-20-1.07328E-18
 -1      4292 9.36616E-05-2.55180E-05-2.92114E-05-3.49408E-07 3.10356E-19-9.97738E-19
 -1      4293 9.41267E-05-2.56873E-05-2.93374E-05-3.58585E-07 2.75866E-19-8.86209E-19
 -1      4294 9.50969E-05-2.55480E-05-2.98113E-05-3.00680E-07 3.93658E-19-1.18115E-18
 -1      4295 9.49695E-05-2.56945E-05-2.96828E-05-2.24473E-07 4.99361E-19-8.95995E-19
 -1      4296 9.49950E-05-2.60469E-05-2.95472E-05-1.28011E-06 3.52899E-19-6.35509E-19
 -1      4297 9.51514E-05-2.59594E-05-2.96578E-05-1.07485E-06 4.87784E-19-4.78235E-19
 -1      4298 9.51059E-05-2.58156E-05-2.96957E-05-8.69536E-07 3.59891E-19-8.13236E-19
 -1      4299 9.52525E-05-2.52041E-05-3.00237E-05-3.88947E-07 2.02778E-19-1.18318E-18
 -1      4300 9.52128E-05-2.54756E-05-2.98781E-05-3.79841E-07 3.02164E-19-1.19404E-18
 -1      4301 9.45250E-05-2.60115E-05-2.93636E-05-1.54686E-06 3.15842E-19-7.15048E-19
 -1      4302 9.47705E-05-2.60379E-05-2.94601E-05-1.35324E-06 2.41037E-19-6.96479E-19
 -1      4303 9.47253E-05-2.59100E-05-2.94896E-05-1.08485E-06 2.87156E-19-9.31457E-19
 -1      4304 9.42085E-05-2.57986E-05-2.93176E-05-1.19522E-06 2.63438E-19-9.10548E-19
 -1      4305 9.51351E-05-2.57189E-05-2.97546E-05-6.50086E-07 4.42351E-19-1.11190E-18
 -1      4306 9.49818E-05-2.58394E-05-2.96333E-05-8.00630E-07 3.80155E-19-9.91677E-19
 -1      4307 9.47153E-05-2.57379E-05-2.95691E-05-1.67738E-07 2.88008E-19-8.27996E-19
 -1      4308 9.44574E-05-2.57341E-05-2.94549E-05-2.17264E-09 2.81679E-19-1.01318E-18
 -1      4309 9.42169E-05-2.57227E-05-2.93497E-05-8.51219E-07 1.01863E-19-5.77425E-19
 -1      4310 9.45168E-05-2.58290E-05-2.94351E-05-8.21751E-07 2.16045E-19-8.50137E-19
 -1      4311 9.47878E-05-2.57676E-05-2.95788E-05-5.51696E-07 4.51082E-19-9.61720E-19
 -1      4312 9.47448E-05-2.58538E-05-2.95243E-05-7.67009E-07 2.81355E-19-8.70266E-19
 -3
    1PSTEP                         4           1           1          
  100CL  101 1.000000000        4312                     0    1           1
 -4  ERROR       1    1
 -5  STR(%)      1    1    0    0
 -1         1 4.20917E+01
 -1         2 2.38399E+01
 -1         3 5.69664E-03
 -1         4 6.74965E-03
 -1         5 1.40330E+01
 -1         6 1.31370E+01
 -1         7 1.31370E+01
 -1         8 3.62931E+00
 -1         9 1.80007E+00
 -1        10 1.27845E+00
 -1        11 1.03244E+00
 -1        12 8.87532E-01
 -1        13 7.94531E-01
 -1        14 7.38424E-01
 -1        15 7.40268E-01
 -1        16 7.98777E-01
 -1        17 8.88397E-01
 -1        18 1.04136E+00
 -1        19 1.29608E+00
 -1        20 1.80931E+00
 -1        21 3.47142E+00
 -1        22 8.61218E+00
 -1        23 1.31370E+01
 -1        24 4.34512E+00
 -1        25 3.36683E+00
 -1        26 2.13902E+00
 -1        27 1.41459E+00
 -1        28 1.09070E+00
 -1        29 8.68852E-01
 -1        30 7.07785E-01
 -1        31 5.86791E-01
 -1        32 4.94174E-01
 -1        33 4.84470E-01
 -1        34 5.53522E-01
 -1        35 6.32273E-01
 -1        36 7.11311E-01
 -1        37 8.50944E-01
 -1        38 1.06954E+00
 -1        39 1.34716E+00
 -1        40 1.57804E+00
 -1        41 1.65326E+00
 -1        42 1.65326E+00
 -1        43 1.63031E+00
 -1        44 1.89032E+00
 -1        45 2.89439E+00
 -1        46 4.43924E+00
 -1        47 4.60644E+00
 -1        48 4.64527E+00
 -1        49 4.64527E+00
 -1        50 3.38036E+00
 -1        51 2.02785E+00
 -1        52 1.65481E+00
 -1        53 1.65481E+00
 -1        54 1.61386E+00
 -1        55 1.60191E+00
 -1        56 1.39600E+00
 -1        57 1.12192E+00
 -1        58 8.97682E-01
 -1        59 6.91590E-01
 -1        60 5.71770E-01
 -1        61 4.70841E-01
 -1        62 3.75492E-01
 -1        63 2.91469E-01
 -1        64 2.20784E-01
 -1        65 1.63264E-01
 -1        66 1.20435E-01
 -1        67 1.00670E-01
 -1        68 8.15473E-02
 -1        69 6.25719E-02
 -1        70 4.21381E-02
 -1        71 2.23210E-02
 -1        72 1.40330E+01
 -1        73 3.42195E+00
 -1        74 2.44160E+00
 -1        75 1.69771E+00
 -1        76 1.19280E+00
 -1        77 9.94570E-01
 -1        78 8.42945E-01
 -1        79 7.26429E-01
 -1        80 6.36786E-01
 -1        81 5.68391E-01
 -1        82 5.15679E-01
 -1        83 4.89684E-01
 -1        84 5.33103E-01
 -1        85 5.64474E-01
 -1        86 5.72482E-01
 -1        87 5.94417E-01
 -1        88 7.64478E-01
 -1        89 8.93806E-01
 -1        90 9.81036E-01
 -1        91 1.23158E+00
 -1        92 1.24317E+00
 -1        93 1.50881E+00
 -1        94 1.72761E+00
 -1        95 2.62080E+00
 -1        96 2.90734E+00
 -1        97 3.33292E+00
 -1        98 3.33292E+00
 -1        99 2.94452E+00
 -1       100 1.93557E+00
 -1       101 1.24474E+00
 -1       102 9.06887E-01
 -1       103 1.00721E+00
 -1       104 1.06778E+00
 -1       105 1.06778E+00
 -1       106 9.96007E-01
 -1       107 8.57218E-01
 -1       108 7.21471E-01
 -1       109 5.85236E-01
 -1       110 4.54848E-01
 -1       111 3.39753E-01
 -1       112 2.64468E-01
 -1       113 2.05652E-01
 -1       114 1.55391E-01
 -1       115 1.13951E-01
 -1       116 8.05861E-02
 -1       117 5.42862E-02
 -1       118 4.51342E-02
 -1       119 3.28437E-02
 -1       120 1.92064E-02
 -1       121 5.70345E-03
 -1       122 7.32814E-03
 -1       123 7.32814E-03
 -1       124 5.54849E-03
 -1       125 2.21957E-03
 -1       126 4.85514E-03
 -1       127 6.79952E-03
 -1       128 7.42087E-03
 -1       129 7.42087E-03
 -1       130 6.78231E-03
 -1       131 4.79586E-03
 -1       132 2.42018E-03
 -1       133 5.84243E-03
 -1       134 7.28662E-03
 -1       135 7.47810E-03
 -1       136 8.25354E-03
 -1       137 2.47483E+01
 -1       138 4.72650E+01
 -1       139 4.72650E+01
 -1       140 2.02587E+01
 -1       141 1.22123E+01
 -1       142 1.24422E+01
 -1       143 1.24422E+01
 -1       144 1.24934E+01
 -1       145 1.24934E+01
 -1       146 1.23462E+01
 -1       147 2.62514E+01
 -1       148 3.03692E+01
 -1       149 3.03692E+01
 -1       150 2.56129E+01
 -1       151 2.57078E+01
 -1       152 2.57078E+01
 -1       153 4.20917E+01
 -1       154 1.60645E+01
 -1       155 1.20971E+01
 -1       156 1.26974E+01
 -1       157 1.26974E+01
 -1       158 1.24257E+01
 -1       159 1.24257E+01
 -1       160 1.22289E+01
 -1       161 2.49863E+01
 -1       162 3.10335E+01
 -1       163 3.10335E+01
 -1       164 2.45532E+01
 -1       165 6.03216E+00
 -1       166 2.27358E+00
 -1       167 1.49557E+00
 -1       168 1.14904E+00
 -1       169 9.61912E-01
 -1       170 8.52280E-01
 -1       171 7.81832E-01
 -1       172 7.40268E-01
 -1       173 7.85158E-01
 -1       174 8.55112E-01
 -1       175 9.70819E-01
 -1       176 1.16327E+00
 -1       177 1.51733E+00
 -1       178 2.24729E+00
 -1       179 3.90416E+00
 -1       180 1.40330E+01
 -1       181 4.34512E+00
 -1       182 3.36683E+00
 -1       183 2.13902E+00
 -1       184 1.46616E+00
 -1       185 1.09070E+00
 -1       186 8.68852E-01
 -1       187 7.07785E-01
 -1       188 5.86791E-01
 -1       189 4.94174E-01
 -1       190 4.28839E-01
 -1       191 4.84470E-01
 -1       192 5.53522E-01
 -1       193 6.32273E-01
 -1       194 7.77405E-01
 -1       195 9.45013E-01
 -1       196 1.11406E+00
 -1       197 1.34716E+00
 -1       198 1.57804E+00
 -1       199 1.65326E+00
 -1       200 1.63031E+00
 -1       201 1.56469E+00
 -1       202 1.89032E+00
 -1       203 2.89439E+00
 -1       204 4.43924E+00
 -1       205 4.60644E+00
 -1       206 4.64527E+00
 -1       207 3.38036E+00
 -1       208 2.02785E+00
 -1       209 1.45520E+00
 -1       210 1.65481E+00
 -1       211 1.61386E+00
 -1       212 1.60191E+00
 -1       213 1.39600E+00
 -1       214 1.15602E+00
 -1       215 9.92525E-01
 -1       216 8.39905E-01
 -1       217 6.75776E-01
 -1       218 5.21775E-01
 -1       219 3.88468E-01
 -1       220 2.91469E-01
 -1       221 2.27181E-01
 -1       222 1.73588E-01
 -1       223 1.29694E-01
 -1       224 1.00670E-01
 -1       225 8.15473E-02
 -1       226 6.25719E-02
 -1       227 4.21381E-02
 -1       228 2.43819E-02
 -1       229 3.42195E+00
 -1       230 2.44160E+00
 -1       231 1.69771E+00
 -1       232 1.19280E+00
 -1       233 9.94570E-01
 -1       234 8.42945E-01
 -1       235 7.26429E-01
 -1       236 6.36786E-01
 -1       237 5.68391E-01
 -1       238 5.15679E-01
 -1       239 4.71563E-01
 -1       240 4.89684E-01
 -1       241 5.33103E-01
 -1       242 5.64474E-01
 -1       243 5.72482E-01
 -1       244 6.32407E-01
 -1       245 7.64478E-01
 -1       246 8.93806E-01
 -1       247 9.81036E-01
 -1       248 1.23158E+00
 -1       249 1.24317E+00
 -1       250 1.50881E+00
 -1       251 1.87752E+00
 -1       252 2.62080E+00
 -1       253 2.90734E+00
 -1       254 3.33292E+00
 -1       255 2.94452E+00
 -1       256 1.93557E+00
 -1       257 1.24474E+00
 -1       258 7.84689E-01
 -1       259 9.06887E-01
 -1       260 1.00721E+00
 -1       261 1.06778E+00
 -1       262 9.96007E-01
 -1       263 8.57218E-01
 -1       264 7.21471E-01
 -1       265 5.96884E-01
 -1       266 4.78012E-01
 -1       267 3.68192E-01
 -1       268 2.73278E-01
 -1       269 2.05652E-01
 -1       270 1.55391E-01
 -1       271 1.13951E-01
 -1       272 8.29955E-02
 -1       273 5.81317E-02
 -1       274 4.51342E-02
 -1       275 3.28437E-02
 -1       276 1.92064E-02
 -1       277 1.10133E-02
 -1       278 1.30324E-02
 -1       279 1.30324E-02
 -1       280 8.44623E-03
 -1       281 9.74473E-03
 -1       282 1.37180E-02
 -1       283 1.54006E-02
 -1       284 1.54166E-02
 -1       285 1.54166E-02
 -1       286 1.37022E-02
 -1       287 9.85955E-03
 -1       288 8.72681E-03
 -1       289 1.36555E-02
 -1       290 1.36555E-02
 -1       291 1.39305E-02
 -1       292 2.95072E+01
 -1       293 2.88252E+01
 -1       294 4.72650E+01
 -1       295 2.13235E+01
 -1       296 1.14522E+01
 -1       297 1.22123E+01
 -1       298 1.24422E+01
 -1       299 1.24131E+01
 -1       300 1.24934E+01
 -1       301 1.17696E+01
 -1       302 1.23462E+01
 -1       303 2.87800E+01
 -1       304 3.38003E+01
 -1       305 3.38003E+01
 -1       306 3.00819E+01
 -1       307 3.00819E+01
 -1       308 3.69865E+01
 -1       309 4.20917E+01
 -1       310 1.63702E+01
 -1       311 1.09232E+01
 -1       312 1.20971E+01
 -1       313 1.26974E+01
 -1       314 1.18910E+01
 -1       315 1.24257E+01
 -1       316 1.19404E+01
 -1       317 1.22289E+01
 -1       318 2.70781E+01
 -1       319 3.23974E+01
 -1       320 3.23974E+01
 -1       321 2.95072E+01
 -1       322 1.04982E+00
 -1       323 2.44552E+00
 -1       324 7.80637E-01
 -1       325 6.85724E-01
 -1       326 6.20900E-01
 -1       327 5.75075E-01
 -1       328 5.78212E-01
 -1       329 6.23470E-01
 -1       330 6.91836E-01
 -1       331 7.88303E-01
 -1       332 9.24276E-01
 -1       333 1.13976E+00
 -1       334 1.30413E+00
 -1       335 2.19112E+00
 -1       336 1.89833E+00
 -1       337 1.74276E+00
 -1       338 1.27705E+00
 -1       339 9.11433E-01
 -1       340 6.98607E-01
 -1       341 5.97551E-01
 -1       342 5.05246E-01
 -1       343 4.20976E-01
 -1       344 3.42873E-01
 -1       345 3.74105E-01
 -1       346 4.31123E-01
 -1       347 5.17631E-01
 -1       348 6.81545E-01
 -1       349 8.41944E-01
 -1       350 9.76695E-01
 -1       351 1.09831E+00
 -1       352 1.23614E+00
 -1       353 1.25275E+00
 -1       354 1.13216E+00
 -1       355 1.16890E+00
 -1       356 1.20176E+00
 -1       357 1.84932E+00
 -1       358 2.48194E+00
 -1       359 2.76573E+00
 -1       360 2.72081E+00
 -1       361 2.63138E+00
 -1       362 1.97634E+00
 -1       363 1.35038E+00
 -1       364 1.19481E+00
 -1       365 1.09183E+00
 -1       366 1.22021E+00
 -1       367 1.25091E+00
 -1       368 1.13866E+00
 -1       369 1.02372E+00
 -1       370 9.09703E-01
 -1       371 7.65941E-01
 -1       372 6.18551E-01
 -1       373 4.82726E-01
 -1       374 3.65606E-01
 -1       375 2.69189E-01
 -1       376 1.92578E-01
 -1       377 1.33496E-01
 -1       378 9.45419E-02
 -1       379 6.75786E-02
 -1       380 4.90833E-02
 -1       381 3.45557E-02
 -1       382 2.25437E-02
 -1       383 1.14733E+00
 -1       384 8.90408E-01
 -1       385 6.93281E-01
 -1       386 5.51313E-01
 -1       387 5.08405E-01
 -1       388 4.65435E-01
 -1       389 4.25407E-01
 -1       390 3.88978E-01
 -1       391 3.75790E-01
 -1       392 4.15833E-01
 -1       393 5.05219E-01
 -1       394 6.03604E-01
 -1       395 6.95851E-01
 -1       396 7.43410E-01
 -1       397 7.43410E-01
 -1       398 7.06119E-01
 -1       399 5.41275E-01
 -1       400 5.64859E-01
 -1       401 9.07297E-01
 -1       402 1.45948E+00
 -1       403 1.73410E+00
 -1       404 1.73410E+00
 -1       405 1.70152E+00
 -1       406 1.92866E+00
 -1       407 1.91620E+00
 -1       408 1.44641E+00
 -1       409 9.01290E-01
 -1       410 5.85544E-01
 -1       411 6.06468E-01
 -1       412 7.31172E-01
 -1       413 7.72666E-01
 -1       414 7.76941E-01
 -1       415 7.11667E-01
 -1       416 6.37408E-01
 -1       417 5.47810E-01
 -1       418 4.49489E-01
 -1       419 3.54667E-01
 -1       420 2.70115E-01
 -1       421 1.98797E-01
 -1       422 1.51704E-01
 -1       423 1.13918E-01
 -1       424 8.29955E-02
 -1       425 5.81317E-02
 -1       426 3.81896E-02
 -1       427 2.48888E-02
 -1       428 1.33882E-02
 -1       429 1.53638E-02
 -1       430 2.07379E-02
 -1       431 2.07379E-02
 -1       432 1.38032E-02
 -1       433 1.99779E-02
 -1       434 2.31424E-02
 -1       435 2.31424E-02
 -1       436 2.31911E-02
 -1       437 2.31911E-02
 -1       438 2.03069E-02
 -1       439 1.40591E-02
 -1       440 1.63417E-02
 -1       441 2.10013E-02
 -1       442 2.88252E+01
 -1       443 3.11813E+01
 -1       444 3.11813E+01
 -1       445 1.64140E+01
 -1       446 9.17289E+00
 -1       447 9.05343E-01
 -1       448 9.83513E+00
 -1       449 1.04372E+01
 -1       450 9.71109E+00
 -1       451 8.96591E+00
 -1       452 6.74956E+00
 -1       453 1.13667E+01
 -1       454 2.00017E+01
 -1       455 3.38003E+01
 -1       456 3.71187E+01
 -1       457 3.71187E+01
 -1       458 2.83907E+01
 -1       459 2.50624E+01
 -1       460 1.45036E+01
 -1       461 7.63573E+00
 -1       462 7.81850E+00
 -1       463 9.74511E+00
 -1       464 1.05780E+01
 -1       465 1.01619E+01
 -1       466 8.72818E+00
 -1       467 6.20846E+00
 -1       468 1.11729E+01
 -1       469 1.91162E+01
 -1       470 3.23974E+01
 -1       471 3.09022E+01
 -1       472 7.25693E+00
 -1       473 1.05354E+00
 -1       474 4.77808E-01
 -1       475 5.04750E-01
 -1       476 4.18257E-01
 -1       477 4.46203E-01
 -1       478 4.78334E-01
 -1       479 5.04973E-01
 -1       480 5.04973E-01
 -1       481 5.92897E-01
 -1       482 8.90408E-01
 -1       483 7.81999E-01
 -1       484 5.50081E+00
 -1       485 6.94271E-01
 -1       486 5.68222E-01
 -1       487 4.37875E-01
 -1       488 3.84744E-01
 -1       489 3.24965E-01
 -1       490 2.55752E-01
 -1       491 2.44359E-01
 -1       492 2.87590E-01
 -1       493 4.20646E-01
 -1       494 5.75307E-01
 -1       495 7.39957E-01
 -1       496 9.04617E-01
 -1       497 1.05102E+00
 -1       498 1.16097E+00
 -1       499 1.38130E+00
 -1       500 1.58825E+00
 -1       501 1.69600E+00
 -1       502 2.06625E+00
 -1       503 1.87917E+00
 -1       504 3.59121E+00
 -1       505 6.23949E+00
 -1       506 4.44771E+00
 -1       507 4.62482E+00
 -1       508 2.73635E+00
 -1       509 2.03022E+00
 -1       510 2.18373E+00
 -1       511 1.70988E+00
 -1       512 1.64613E+00
 -1       513 1.45873E+00
 -1       514 1.24317E+00
 -1       515 1.10885E+00
 -1       516 9.80122E-01
 -1       517 8.29782E-01
 -1       518 6.79082E-01
 -1       519 5.40413E-01
 -1       520 4.19699E-01
 -1       521 3.18692E-01
 -1       522 2.36723E-01
 -1       523 1.71884E-01
 -1       524 1.21786E-01
 -1       525 8.39868E-02
 -1       526 5.62140E-02
 -1       527 3.63334E-02
 -1       528 5.33257E-01
 -1       529 4.68774E-01
 -1       530 3.97009E-01
 -1       531 3.22369E-01
 -1       532 2.60625E-01
 -1       533 2.97077E-01
 -1       534 3.32426E-01
 -1       535 4.34638E-01
 -1       536 5.37716E-01
 -1       537 6.25497E-01
 -1       538 6.95851E-01
 -1       539 7.48259E-01
 -1       540 7.74800E-01
 -1       541 7.17049E-01
 -1       542 8.46199E-01
 -1       543 9.04791E-01
 -1       544 1.23261E+00
 -1       545 1.51042E+00
 -1       546 1.89978E+00
 -1       547 1.88310E+00
 -1       548 1.94069E+00
 -1       549 1.68382E+00
 -1       550 1.44443E+00
 -1       551 1.13223E+00
 -1       552 8.66322E-01
 -1       553 8.00147E-01
 -1       554 7.60660E-01
 -1       555 7.94750E-01
 -1       556 7.57981E-01
 -1       557 7.00852E-01
 -1       558 6.35157E-01
 -1       559 5.59841E-01
 -1       560 4.71209E-01
 -1       561 3.81839E-01
 -1       562 2.99360E-01
 -1       563 2.27641E-01
 -1       564 1.68001E-01
 -1       565 1.20200E-01
 -1       566 8.31535E-02
 -1       567 5.54439E-02
 -1       568 3.84764E-02
 -1       569 2.76384E-02
 -1       570 2.57085E-02
 -1       571 3.14833E-02
 -1       572 2.05093E-02
 -1       573 2.10408E-02
 -1       574 3.20715E-02
 -1       575 3.21132E-02
 -1       576 3.21132E-02
 -1       577 3.19541E-02
 -1       578 2.69728E-02
 -1       579 2.62695E-02
 -1       580 2.62695E-02
 -1       581 3.11813E+01
 -1       582 1.32992E+01
 -1       583 6.93281E-01
 -1       584 3.09022E+01
 -1       585 7.75756E+00
 -1       586 8.65292E-01
 -1       587 2.24555E+01
 -1       588 4.36641E+00
 -1       589 4.82847E+00
 -1       590 4.46144E-01
 -1       591 8.27780E+00
 -1       592 8.08189E+00
 -1       593 7.04424E+00
 -1       594 6.76829E+00
 -1       595 4.27179E+00
 -1       596 6.60413E+00
 -1       597 9.60003E+00
 -1       598 1.43229E+01
 -1       599 2.32074E+01
 -1       600 3.71187E+01
 -1       601 2.83907E+01
 -1       602 1.79591E+01
 -1       603 1.16454E+01
 -1       604 7.81524E+00
 -1       605 6.23949E+00
 -1       606 1.41710E+01
 -1       607 7.83645E+00
 -1       608 6.86165E+00
 -1       609 5.88662E+00
 -1       610 1.03301E+01
 -1       611 5.48977E+00
 -1       612 1.31379E+00
 -1       613 2.02399E+01
 -1       614 5.04750E-01
 -1       615 4.60553E-01
 -1       616 1.27669E+01
 -1       617 2.22860E-02
 -1       618 3.50672E-01
 -1       619 3.30513E-01
 -1       620 3.59176E-01
 -1       621 3.40433E-01
 -1       622 5.24282E-01
 -1       623 7.67277E+00
 -1       624 5.03485E+00
 -1       625 3.72915E-01
 -1       626 3.42487E-01
 -1       627 2.77497E-01
 -1       628 2.21385E-01
 -1       629 1.70541E-01
 -1       630 1.26059E-01
 -1       631 1.94240E-01
 -1       632 3.12004E-01
 -1       633 4.49473E-01
 -1       634 6.09117E-01
 -1       635 7.93417E-01
 -1       636 1.00349E+00
 -1       637 1.23522E+00
 -1       638 1.47192E+00
 -1       639 1.80363E+00
 -1       640 2.33000E+00
 -1       641 2.84050E+00
 -1       642 3.47004E+00
 -1       643 3.74058E+00
 -1       644 5.76493E+00
 -1       645 2.73635E+00
 -1       646 3.02157E+00
 -1       647 2.92512E+00
 -1       648 2.53421E+00
 -1       649 1.96003E+00
 -1       650 1.54977E+00
 -1       651 1.32410E+00
 -1       652 1.09732E+00
 -1       653 8.91697E-01
 -1       654 7.13612E-01
 -1       655 5.63624E-01
 -1       656 4.39218E-01
 -1       657 3.37457E-01
 -1       658 2.55353E-01
 -1       659 1.90046E-01
 -1       660 1.38876E-01
 -1       661 9.94153E-02
 -1       662 6.95690E-02
 -1       663 4.28608E-02
 -1       664 2.89677E-01
 -1       665 2.62695E-02
 -1       666 3.42446E-01
 -1       667 1.74368E-01
 -1       668 1.85022E-01
 -1       669 2.53261E-01
 -1       670 3.62843E-01
 -1       671 4.75726E-01
 -1       672 5.84890E-01
 -1       673 6.78866E-01
 -1       674 7.81561E-01
 -1       675 9.21546E-01
 -1       676 1.03548E+00
 -1       677 1.09794E+00
 -1       678 1.42904E+00
 -1       679 1.53297E+00
 -1       680 1.89434E+00
 -1       681 2.08909E+00
 -1       682 3.36574E+00
 -1       683 2.49238E+00
 -1       684 2.41625E+00
 -1       685 1.68323E+00
 -1       686 1.58355E+00
 -1       687 1.43201E+00
 -1       688 1.30084E+00
 -1       689 1.01407E+00
 -1       690 9.55286E-01
 -1       691 8.43759E-01
 -1       692 7.57981E-01
 -1       693 6.85662E-01
 -1       694 5.94018E-01
 -1       695 4.93486E-01
 -1       696 3.96120E-01
 -1       697 3.11118E-01
 -1       698 2.40080E-01
 -1       699 1.82341E-01
 -1       700 1.35291E-01
 -1       701 9.79686E-02
 -1       702 6.91132E-02
 -1       703 4.66423E-02
 -1       704 3.06649E-02
 -1       705 8.17937E+00
 -1       706 4.44059E-02
 -1       707 2.95561E+00
 -1       708 4.03272E-02
 -1       709 4.46628E-02
 -1       710 4.44059E-02
 -1       711 4.46628E-02
 -1       712 4.19037E-02
 -1       713 3.20195E-02
 -1       714 8.84958E+00
 -1       715 1.53917E+01
 -1       716 3.37876E-01
 -1       717 5.66085E+00
 -1       718 5.52603E+00
 -1       719 1.59023E+01
 -1       720 4.31168E-01
 -1       721 2.38194E-01
 -1       722 3.75268E-01
 -1       723 9.38542E+00
 -1       724 1.44126E+01
 -1       725 4.97776E-01
 -1       726 3.59176E-01
 -1       727 3.57543E-01
 -1       728 1.18956E+01
 -1       729 3.23726E+00
 -1       730 2.52775E+00
 -1       731 1.00119E+01
 -1       732 1.42737E+01
 -1       733 1.20945E+01
 -1       734 3.15655E+00
 -1       735 4.62482E+00
 -1       736 1.48019E+01
 -1       737 5.09197E+00
 -1       738 4.29091E+00
 -1       739 7.26110E+00
 -1       740 5.21918E+00
 -1       741 1.16424E+01
 -1       742 5.56908E+00
 -1       743 3.57543E-01
 -1       744 3.30043E-01
 -1       745 2.99693E-02
 -1       746 4.01506E+00
 -1       747 1.01187E+01
 -1       748 3.49911E-01
 -1       749 3.22916E-02
 -1       750 3.10477E-02
 -1       751 3.32414E+00
 -1       752 2.43775E-01
 -1       753 3.02647E-01
 -1       754 7.54392E+00
 -1       755 1.98828E-01
 -1       756 1.65355E-01
 -1       757 1.11233E-01
 -1       758 1.22394E-01
 -1       759 1.70117E-01
 -1       760 2.61085E-01
 -1       761 3.82462E-01
 -1       762 5.32017E-01
 -1       763 7.01015E-01
 -1       764 8.99619E-01
 -1       765 1.16513E+00
 -1       766 1.55298E+00
 -1       767 2.08753E+00
 -1       768 2.56785E+00
 -1       769 3.70361E+00
 -1       770 3.60179E+00
 -1       771 7.54392E+00
 -1       772 4.95839E+00
 -1       773 2.88478E+00
 -1       774 2.29202E+00
 -1       775 1.71609E+00
 -1       776 1.27503E+00
 -1       777 9.99482E-01
 -1       778 7.99296E-01
 -1       779 6.39627E-01
 -1       780 5.00358E-01
 -1       781 3.83673E-01
 -1       782 2.88606E-01
 -1       783 2.12831E-01
 -1       784 1.53560E-01
 -1       785 1.08362E-01
 -1       786 7.56427E-02
 -1       787 5.08187E-02
 -1       788 2.11456E-01
 -1       789 1.81527E-01
 -1       790 1.12511E-01
 -1       791 3.96164E-01
 -1       792 5.25756E-01
 -1       793 6.68842E-01
 -1       794 8.19584E-01
 -1       795 9.62780E-01
 -1       796 1.22650E+00
 -1       797 1.53248E+00
 -1       798 1.85787E+00
 -1       799 1.76517E+00
 -1       800 2.05267E+00
 -1       801 1.99790E+00
 -1       802 4.22429E+00
 -1       803 4.29091E+00
 -1       804 2.56280E+00
 -1       805 2.60775E+00
 -1       806 2.53541E+00
 -1       807 1.98830E+00
 -1       808 1.64360E+00
 -1       809 1.41127E+00
 -1       810 1.14886E+00
 -1       811 9.33646E-01
 -1       812 8.02692E-01
 -1       813 6.70530E-01
 -1       814 5.50352E-01
 -1       815 4.40447E-01
 -1       816 3.46071E-01
 -1       817 2.68768E-01
 -1       818 2.05322E-01
 -1       819 1.54113E-01
 -1       820 1.13479E-01
 -1       821 8.21967E-02
 -1       822 5.71095E-02
 -1       823 4.04617E-02
 -1       824 6.09322E-02
 -1       825 2.29711E+00
 -1       826 5.92143E-02
 -1       827 9.36625E+00
 -1       828 2.75990E-01
 -1       829 9.85305E+00
 -1       830 2.55650E-01
 -1       831 1.01187E+01
 -1       832 6.09322E-02
 -1       833 5.18102E-02
 -1       834 2.81466E-01
 -1       835 2.67490E-01
 -1       836 5.82808E+00
 -1       837 1.98293E-01
 -1       838 1.03313E+01
 -1       839 5.10126E+00
 -1       840 6.59871E+00
 -1       841 7.21166E+00
 -1       842 1.03313E+01
 -1       843 9.76888E+00
 -1       844 7.30143E+00
 -1       845 3.36574E+00
 -1       846 9.36625E+00
 -1       847 2.63029E-01
 -1       848 2.75292E-01
 -1       849 2.46232E-01
 -1       850 2.74982E-01
 -1       851 1.51786E-01
 -1       852 1.04395E-01
 -1       853 5.86358E-02
 -1       854 5.92143E-02
 -1       855 7.78172E+00
 -1       856 7.49590E+00
 -1       857 2.75150E-01
 -1       858 5.76556E-02
 -1       859 2.75990E-01
 -1       860 2.44217E-01
 -1       861 4.63215E-02
 -1       862 6.13307E+00
 -1       863 6.59629E+00
 -1       864 4.55045E-02
 -1       865 3.30751E+00
 -1       866 1.14446E-01
 -1       867 1.42615E-01
 -1       868 1.74032E-01
 -1       869 2.43963E-01
 -1       870 3.61536E-01
 -1       871 5.05703E-01
 -1       872 6.82460E-01
 -1       873 8.99619E-01
 -1       874 1.16513E+00
 -1       875 1.48911E+00
 -1       876 2.11013E+00
 -1       877 4.92402E+00
 -1       878 8.14717E-02
 -1       879 4.09174E+00
 -1       880 4.11865E+00
 -1       881 2.31089E+00
 -1       882 1.62574E+00
 -1       883 1.27357E+00
 -1       884 9.99482E-01
 -1       885 7.79787E-01
 -1       886 6.04143E-01
 -1       887 4.64243E-01
 -1       888 3.53164E-01
 -1       889 2.65362E-01
 -1       890 1.96448E-01
 -1       891 1.42843E-01
 -1       892 1.01293E-01
 -1       893 7.13177E+00
 -1       894 6.23612E-01
 -1       895 4.83181E-01
 -1       896 1.05930E+00
 -1       897 1.36812E+00
 -1       898 1.79013E+00
 -1       899 3.97239E+00
 -1       900 2.17575E+00
 -1       901 2.09384E+00
 -1       902 1.58798E+00
 -1       903 1.26750E+00
 -1       904 9.92093E-01
 -1       905 7.69912E-01
 -1       906 6.10772E-01
 -1       907 4.91869E-01
 -1       908 4.00717E-01
 -1       909 3.17901E-01
 -1       910 2.46195E-01
 -1       911 1.86219E-01
 -1       912 1.37333E-01
 -1       913 9.77181E-02
 -1       914 8.25053E-02
 -1       915 7.99567E-02
 -1       916 1.85588E-01
 -1       917 5.96570E+00
 -1       918 4.80906E+00
 -1       919 1.31364E-01
 -1       920 8.14717E-02
 -1       921 7.13177E+00
 -1       922 2.75150E-01
 -1       923 7.94537E-01
 -1       924 1.35510E-01
 -1       925 4.98230E+00
 -1       926 1.13800E-01
 -1       927 6.10706E+00
 -1       928 4.51241E+00
 -1       929 2.70469E+00
 -1       930 1.48341E-01
 -1       931 7.10210E+00
 -1       932 1.67017E-01
 -1       933 1.35967E-01
 -1       934 4.98230E+00
 -1       935 4.80840E+00
 -1       936 1.40323E-01
 -1       937 6.83288E-02
 -1       938 1.14027E-01
 -1       939 7.79389E-02
 -1       940 3.63876E-01
 -1       941 3.69772E+00
 -1       942 8.80962E-02
 -1       943 2.62043E-01
 -1       944 1.23362E-01
 -1       945 7.79389E-02
 -1       946 5.34338E+00
 -1       947 1.97191E-01
 -1       948 1.97191E-01
 -1       949 1.50341E-01
 -1       950 4.62289E+00
 -1       951 1.84353E-01
 -1       952 2.24056E-01
 -1       953 3.08354E-01
 -1       954 4.30766E-01
 -1       955 5.87541E-01
 -1       956 7.94148E-01
 -1       957 1.07668E+00
 -1       958 1.47544E+00
 -1       959 2.01302E+00
 -1       960 3.69400E+00
 -1       961 6.23612E-01
 -1       962 1.03758E-01
 -1       963 1.35510E-01
 -1       964 3.33164E+00
 -1       965 2.57771E+00
 -1       966 1.62574E+00
 -1       967 1.18678E+00
 -1       968 8.85536E-01
 -1       969 6.69125E-01
 -1       970 5.09035E-01
 -1       971 3.87520E-01
 -1       972 2.93689E-01
 -1       973 2.20600E-01
 -1       974 1.63466E-01
 -1       975 1.28504E-01
 -1       976 2.27129E+00
 -1       977 1.37713E+00
 -1       978 1.94780E-01
 -1       979 3.39756E+00
 -1       980 1.23703E+00
 -1       981 9.55452E-01
 -1       982 7.51418E-01
 -1       983 6.10772E-01
 -1       984 4.88075E-01
 -1       985 3.84239E-01
 -1       986 2.98019E-01
 -1       987 2.27518E-01
 -1       988 1.70722E-01
 -1       989 1.26542E-01
 -1       990 4.48166E+00
 -1       991 4.35508E+00
 -1       992 1.94058E-01
 -1       993 1.08792E-01
 -1       994 1.67609E+00
 -1       995 1.19438E-01
 -1       996 2.34275E+00
 -1       997 1.17550E-01
 -1       998 4.72498E+00
 -1       999 1.48039E-01
 -1      1000 4.83626E+00
 -1      1001 1.94058E-01
 -1      1002 4.36726E+00
 -1      1003 2.58690E-01
 -1      1004 4.05965E+00
 -1      1005 7.81958E-01
 -1      1006 1.86284E-01
 -1      1007 4.83181E-01
 -1      1008 1.01154E-01
 -1      1009 3.25293E+00
 -1      1010 1.01379E-01
 -1      1011 1.23518E-01
 -1      1012 1.03857E-01
 -1      1013 2.99616E+00
 -1      1014 1.03247E+00
 -1      1015 1.54860E-01
 -1      1016 4.72498E+00
 -1      1017 1.30199E-01
 -1      1018 2.90205E+00
 -1      1019 3.61882E-01
 -1      1020 2.82648E-01
 -1      1021 3.56903E-01
 -1      1022 4.49897E-01
 -1      1023 5.94613E-01
 -1      1024 8.11943E-01
 -1      1025 1.14126E+00
 -1      1026 1.65409E+00
 -1      1027 2.71617E+00
 -1      1028 1.21608E-01
 -1      1029 2.43013E+00
 -1      1030 1.25263E+00
 -1      1031 8.95363E-01
 -1      1032 6.57666E-01
 -1      1033 4.94625E-01
 -1      1034 3.76270E-01
 -1      1035 2.86914E-01
 -1      1036 2.17955E-01
 -1      1037 1.64642E-01
 -1      1038 1.65771E-01
 -1      1039 1.35282E+00
 -1      1040 7.32813E-01
 -1      1041 3.37714E+00
 -1      1042 9.55452E-01
 -1      1043 1.22572E+00
 -1      1044 5.64085E-01
 -1      1045 4.33860E-01
 -1      1046 3.32363E-01
 -1      1047 2.52779E-01
 -1      1048 1.90245E-01
 -1      1049 1.54860E-01
 -1      1050 2.61985E+00
 -1      1051 2.64001E+00
 -1      1052 1.36228E-01
 -1      1053 3.26034E+00
 -1      1054 9.62332E-02
 -1      1055 1.30199E-01
 -1      1056 2.05866E+00
 -1      1057 2.25046E-01
 -1      1058 1.34113E-01
 -1      1059 3.29117E+00
 -1      1060 2.34972E-01
 -1      1061 5.89989E-01
 -1      1062 1.65771E-01
 -1      1063 1.01116E-01
 -1      1064 3.23930E-01
 -1      1065 1.86452E-01
 -1      1066 7.81773E-01
 -1      1067 2.81955E+00
 -1      1068 1.43600E-01
 -1      1069 3.38172E+00
 -1      1070 1.03247E+00
 -1      1071 9.62332E-02
 -1      1072 9.95379E-02
 -1      1073 4.30948E-01
 -1      1074 5.42928E-01
 -1      1075 6.96828E-01
 -1      1076 9.22404E-01
 -1      1077 1.34316E+00
 -1      1078 2.53531E+00
 -1      1079 4.41248E-01
 -1      1080 2.52298E+00
 -1      1081 1.39092E+00
 -1      1082 9.64684E-01
 -1      1083 6.86171E-01
 -1      1084 4.98253E-01
 -1      1085 3.78916E-01
 -1      1086 2.93141E-01
 -1      1087 2.26128E-01
 -1      1088 1.72415E-01
 -1      1089 4.98253E-01
 -1      1090 2.73835E-01
 -1      1091 1.99628E+00
 -1      1092 6.86171E-01
 -1      1093 1.39092E+00
 -1      1094 3.66839E-01
 -1      1095 2.71914E-01
 -1      1096 2.01242E-01
 -1      1097 1.54860E-01
 -1      1098 3.44609E-01
 -1      1099 2.37265E+00
 -1      1100 1.19357E-01
 -1      1101 9.64684E-01
 -1      1102 9.95379E-02
 -1      1103 1.86284E-01
 -1      1104 1.34316E+00
 -1      1105 6.58479E-01
 -1      1106 2.18435E-01
 -1      1107 4.82728E-01
 -1      1108 1.40818E-01
 -1      1109 2.98655E-01
 -1      1110 1.18369E-01
 -1      1111 2.34972E-01
 -1      1112 9.09025E-01
 -1      1113 3.69692E-01
 -1      1114 1.16502E-01
 -1      1115 1.46692E-01
 -1      1116 1.46692E-01
 -1      1117 1.33030E-01
 -1      1118 1.66151E-01
 -1      1119 1.66151E-01
 -1      1120 1.31370E+01
 -1      1121 8.38317E+00
 -1      1122 2.71469E+00
 -1      1123 1.53926E+00
 -1      1124 1.15544E+00
 -1      1125 9.59984E-01
 -1      1126 8.41031E-01
 -1      1127 7.66477E-01
 -1      1128 7.39346E-01
 -1      1129 7.69522E-01
 -1      1130 8.43587E-01
 -1      1131 9.64878E-01
 -1      1132 1.16872E+00
 -1      1133 1.55269E+00
 -1      1134 2.64037E+00
 -1      1135 6.04180E+00
 -1      1136 1.13226E+01
 -1      1137 1.31370E+01
 -1      1138 8.74108E+00
 -1      1139 3.85597E+00
 -1      1140 2.75293E+00
 -1      1141 1.77681E+00
 -1      1142 1.25265E+00
 -1      1143 9.79776E-01
 -1      1144 7.88319E-01
 -1      1145 6.47288E-01
 -1      1146 5.40482E-01
 -1      1147 4.89322E-01
 -1      1148 5.18996E-01
 -1      1149 5.92897E-01
 -1      1150 6.71792E-01
 -1      1151 7.81128E-01
 -1      1152 9.60241E-01
 -1      1153 1.20835E+00
 -1      1154 1.46260E+00
 -1      1155 1.61565E+00
 -1      1156 1.65326E+00
 -1      1157 1.64179E+00
 -1      1158 1.76032E+00
 -1      1159 2.39235E+00
 -1      1160 3.66681E+00
 -1      1161 4.52284E+00
 -1      1162 4.62585E+00
 -1      1163 4.64527E+00
 -1      1164 4.01281E+00
 -1      1165 2.70410E+00
 -1      1166 1.84133E+00
 -1      1167 1.65481E+00
 -1      1168 1.63434E+00
 -1      1169 1.60788E+00
 -1      1170 1.49896E+00
 -1      1171 1.25896E+00
 -1      1172 1.00980E+00
 -1      1173 7.94636E-01
 -1      1174 6.31680E-01
 -1      1175 5.21306E-01
 -1      1176 4.23167E-01
 -1      1177 3.33481E-01
 -1      1178 2.56127E-01
 -1      1179 1.92024E-01
 -1      1180 1.41850E-01
 -1      1181 1.10552E-01
 -1      1182 9.11088E-02
 -1      1183 7.20596E-02
 -1      1184 5.23550E-02
 -1      1185 3.22295E-02
 -1      1186 1.45353E-02
 -1      1187 1.40330E+01
 -1      1188 8.72750E+00
 -1      1189 2.93177E+00
 -1      1190 2.06966E+00
 -1      1191 1.44526E+00
 -1      1192 1.09368E+00
 -1      1193 9.18757E-01
 -1      1194 7.84687E-01
 -1      1195 6.81608E-01
 -1      1196 6.02588E-01
 -1      1197 5.42035E-01
 -1      1198 5.02682E-01
 -1      1199 5.11394E-01
 -1      1200 5.48789E-01
 -1      1201 5.68478E-01
 -1      1202 5.83450E-01
 -1      1203 6.79448E-01
 -1      1204 8.29142E-01
 -1      1205 9.37421E-01
 -1      1206 1.10631E+00
 -1      1207 1.23737E+00
 -1      1208 1.37599E+00
 -1      1209 1.61821E+00
 -1      1210 2.17420E+00
 -1      1211 2.76407E+00
 -1      1212 3.12013E+00
 -1      1213 3.33292E+00
 -1      1214 3.13872E+00
 -1      1215 2.44005E+00
 -1      1216 1.59016E+00
 -1      1217 1.07581E+00
 -1      1218 9.57049E-01
 -1      1219 1.03750E+00
 -1      1220 1.06778E+00
 -1      1221 1.03189E+00
 -1      1222 9.26612E-01
 -1      1223 7.89344E-01
 -1      1224 6.53353E-01
 -1      1225 5.20042E-01
 -1      1226 3.97300E-01
 -1      1227 3.02111E-01
 -1      1228 2.35060E-01
 -1      1229 1.80521E-01
 -1      1230 1.34671E-01
 -1      1231 9.72685E-02
 -1      1232 6.74361E-02
 -1      1233 4.97102E-02
 -1      1234 3.89889E-02
 -1      1235 2.60250E-02
 -1      1236 1.24515E-02
 -1      1237 5.70005E-03
 -1      1238 6.51580E-03
 -1      1239 7.32814E-03
 -1      1240 6.43831E-03
 -1      1241 3.88403E-03
 -1      1242 3.53735E-03
 -1      1243 5.82733E-03
 -1      1244 7.11019E-03
 -1      1245 7.42087E-03
 -1      1246 7.10159E-03
 -1      1247 5.78908E-03
 -1      1248 3.60802E-03
 -1      1249 4.13131E-03
 -1      1250 6.56452E-03
 -1      1251 7.38236E-03
 -1      1252 7.86582E-03
 -1      1253 7.50160E-03
 -1      1254 2.42941E+01
 -1      1255 3.60067E+01
 -1      1256 4.72650E+01
 -1      1257 3.37619E+01
 -1      1258 1.62355E+01
 -1      1259 1.23273E+01
 -1      1260 1.24422E+01
 -1      1261 1.24678E+01
 -1      1262 1.24934E+01
 -1      1263 1.24198E+01
 -1      1264 1.92988E+01
 -1      1265 2.83103E+01
 -1      1266 3.03692E+01
 -1      1267 2.79910E+01
 -1      1268 2.56603E+01
 -1      1269 2.57078E+01
 -1      1270 3.38997E+01
 -1      1271 4.20917E+01
 -1      1272 2.90781E+01
 -1      1273 1.40808E+01
 -1      1274 1.23972E+01
 -1      1275 1.26974E+01
 -1      1276 1.25615E+01
 -1      1277 1.24257E+01
 -1      1278 1.23273E+01
 -1      1279 1.86076E+01
 -1      1280 2.80099E+01
 -1      1281 3.10335E+01
 -1      1282 2.77934E+01
 -1      1283 2.41965E+01
 -1      1284 1.31370E+01
 -1      1285 4.83073E+00
 -1      1286 9.58460E+00
 -1      1287 2.03682E+00
 -1      1288 2.95144E+00
 -1      1289 4.15287E+00
 -1      1290 1.38701E+00
 -1      1291 1.64782E+00
 -1      1292 1.88457E+00
 -1      1293 1.09074E+00
 -1      1294 1.21375E+00
 -1      1295 1.32231E+00
 -1      1296 9.24722E-01
 -1      1297 9.97174E-01
 -1      1298 1.05548E+00
 -1      1299 8.23405E-01
 -1      1300 8.69906E-01
 -1      1301 9.07096E-01
 -1      1302 7.60128E-01
 -1      1303 7.88182E-01
 -1      1304 8.17056E-01
 -1      1305 7.40268E-01
 -1      1306 7.39346E-01
 -1      1307 7.61050E-01
 -1      1308 7.91967E-01
 -1      1309 7.62713E-01
 -1      1310 7.62713E-01
 -1      1311 8.71754E-01
 -1      1312 8.26945E-01
 -1      1313 8.20135E-01
 -1      1314 1.00609E+00
 -1      1315 9.29608E-01
 -1      1316 9.12966E-01
 -1      1317 1.22967E+00
 -1      1318 1.10231E+00
 -1      1319 1.06704E+00
 -1      1320 1.66332E+00
 -1      1321 1.40670E+00
 -1      1322 1.34030E+00
 -1      1323 2.85936E+00
 -1      1324 2.02830E+00
 -1      1325 1.88231E+00
 -1      1326 6.25817E+00
 -1      1327 3.68779E+00
 -1      1328 3.07573E+00
 -1      1329 1.40330E+01
 -1      1330 1.13226E+01
 -1      1331 8.96860E+00
 -1      1332 1.40330E+01
 -1      1333 8.74108E+00
 -1      1334 4.34512E+00
 -1      1335 3.85597E+00
 -1      1336 3.36683E+00
 -1      1337 3.85597E+00
 -1      1338 2.75293E+00
 -1      1339 2.13902E+00
 -1      1340 2.75293E+00
 -1      1341 1.80259E+00
 -1      1342 1.44038E+00
 -1      1343 1.80259E+00
 -1      1344 1.25265E+00
 -1      1345 1.09070E+00
 -1      1346 1.27843E+00
 -1      1347 9.79776E-01
 -1      1348 8.68852E-01
 -1      1349 9.79776E-01
 -1      1350 7.88319E-01
 -1      1351 7.07785E-01
 -1      1352 7.88319E-01
 -1      1353 6.47288E-01
 -1      1354 5.86791E-01
 -1      1355 6.47288E-01
 -1      1356 5.40482E-01
 -1      1357 4.94174E-01
 -1      1358 5.40482E-01
 -1      1359 4.61506E-01
 -1      1360 4.56654E-01
 -1      1361 4.61506E-01
 -1      1362 4.84470E-01
 -1      1363 5.18996E-01
 -1      1364 4.56654E-01
 -1      1365 5.53522E-01
 -1      1366 5.92897E-01
 -1      1367 5.18996E-01
 -1      1368 6.32273E-01
 -1      1369 6.71792E-01
 -1      1370 5.92897E-01
 -1      1371 7.44358E-01
 -1      1372 8.14175E-01
 -1      1373 7.04839E-01
 -1      1374 8.97979E-01
 -1      1375 1.00727E+00
 -1      1376 8.61209E-01
 -1      1377 1.09180E+00
 -1      1378 1.23061E+00
 -1      1379 1.02953E+00
 -1      1380 1.34716E+00
 -1      1381 1.46260E+00
 -1      1382 1.23061E+00
 -1      1383 1.57804E+00
 -1      1384 1.61565E+00
 -1      1385 1.46260E+00
 -1      1386 1.65326E+00
 -1      1387 1.65326E+00
 -1      1388 1.61565E+00
 -1      1389 1.64179E+00
 -1      1390 1.63031E+00
 -1      1391 1.64179E+00
 -1      1392 1.59750E+00
 -1      1393 1.72750E+00
 -1      1394 1.59750E+00
 -1      1395 1.89032E+00
 -1      1396 2.39235E+00
 -1      1397 1.72750E+00
 -1      1398 2.89439E+00
 -1      1399 3.66681E+00
 -1      1400 2.39235E+00
 -1      1401 4.43924E+00
 -1      1402 4.52284E+00
 -1      1403 3.66681E+00
 -1      1404 4.60644E+00
 -1      1405 4.62585E+00
 -1      1406 4.52284E+00
 -1      1407 4.64527E+00
 -1      1408 4.64527E+00
 -1      1409 4.62585E+00
 -1      1410 4.01281E+00
 -1      1411 3.38036E+00
 -1      1412 4.01281E+00
 -1      1413 2.70410E+00
 -1      1414 2.02785E+00
 -1      1415 2.70410E+00
 -1      1416 1.74152E+00
 -1      1417 1.55500E+00
 -1      1418 1.74152E+00
 -1      1419 1.65481E+00
 -1      1420 1.65481E+00
 -1      1421 1.55500E+00
 -1      1422 1.63434E+00
 -1      1423 1.61386E+00
 -1      1424 1.63434E+00
 -1      1425 1.60788E+00
 -1      1426 1.60191E+00
 -1      1427 1.60788E+00
 -1      1428 1.49896E+00
 -1      1429 1.39600E+00
 -1      1430 1.49896E+00
 -1      1431 1.27601E+00
 -1      1432 1.13897E+00
 -1      1433 1.27601E+00
 -1      1434 1.05722E+00
 -1      1435 9.45103E-01
 -1      1436 1.07427E+00
 -1      1437 8.68793E-01
 -1      1438 7.65747E-01
 -1      1439 9.16215E-01
 -1      1440 6.83683E-01
 -1      1441 6.23773E-01
 -1      1442 7.57840E-01
 -1      1443 5.46773E-01
 -1      1444 4.96308E-01
 -1      1445 5.98776E-01
 -1      1446 4.29655E-01
 -1      1447 3.81980E-01
 -1      1448 4.55122E-01
 -1      1449 3.33481E-01
 -1      1450 2.91469E-01
 -1      1451 3.39969E-01
 -1      1452 2.59325E-01
 -1      1453 2.23982E-01
 -1      1454 2.59325E-01
 -1      1455 1.97186E-01
 -1      1456 1.68426E-01
 -1      1457 2.00385E-01
 -1      1458 1.46479E-01
 -1      1459 1.25065E-01
 -1      1460 1.51641E-01
 -1      1461 1.10552E-01
 -1      1462 1.00670E-01
 -1      1463 1.15182E-01
 -1      1464 9.11088E-02
 -1      1465 8.15473E-02
 -1      1466 9.11088E-02
 -1      1467 7.20596E-02
 -1      1468 6.25719E-02
 -1      1469 7.20596E-02
 -1      1470 5.23550E-02
 -1      1471 4.21381E-02
 -1      1472 5.23550E-02
 -1      1473 3.32600E-02
 -1      1474 2.33514E-02
 -1      1475 3.32600E-02
 -1      1476 1.52873E-02
 -1      1477 1.63177E-02
 -1      1478 3.42195E+00
 -1      1479 8.72750E+00
 -1      1480 8.72750E+00
 -1      1481 2.44160E+00
 -1      1482 2.93177E+00
 -1      1483 2.93177E+00
 -1      1484 1.69771E+00
 -1      1485 2.06966E+00
 -1      1486 2.06966E+00
 -1      1487 1.19280E+00
 -1      1488 1.44526E+00
 -1      1489 1.44526E+00
 -1      1490 9.94570E-01
 -1      1491 1.09368E+00
 -1      1492 1.09368E+00
 -1      1493 8.42945E-01
 -1      1494 9.18757E-01
 -1      1495 9.18757E-01
 -1      1496 7.26429E-01
 -1      1497 7.84687E-01
 -1      1498 7.84687E-01
 -1      1499 6.36786E-01
 -1      1500 6.81608E-01
 -1      1501 6.81608E-01
 -1      1502 5.68391E-01
 -1      1503 6.02588E-01
 -1      1504 6.02588E-01
 -1      1505 5.15679E-01
 -1      1506 5.42035E-01
 -1      1507 5.42035E-01
 -1      1508 4.80624E-01
 -1      1509 4.93621E-01
 -1      1510 4.93621E-01
 -1      1511 5.11394E-01
 -1      1512 4.89684E-01
 -1      1513 4.80624E-01
 -1      1514 5.48789E-01
 -1      1515 5.33103E-01
 -1      1516 5.11394E-01
 -1      1517 5.68478E-01
 -1      1518 5.64474E-01
 -1      1519 5.48789E-01
 -1      1520 5.83450E-01
 -1      1521 5.72482E-01
 -1      1522 5.68478E-01
 -1      1523 6.98443E-01
 -1      1524 6.13412E-01
 -1      1525 6.02445E-01
 -1      1526 8.29142E-01
 -1      1527 7.64478E-01
 -1      1528 6.98443E-01
 -1      1529 9.37421E-01
 -1      1530 8.93806E-01
 -1      1531 8.29142E-01
 -1      1532 1.10631E+00
 -1      1533 9.81036E-01
 -1      1534 9.37421E-01
 -1      1535 1.23737E+00
 -1      1536 1.23158E+00
 -1      1537 1.10631E+00
 -1      1538 1.37599E+00
 -1      1539 1.24317E+00
 -1      1540 1.23737E+00
 -1      1541 1.61821E+00
 -1      1542 1.50881E+00
 -1      1543 1.37599E+00
 -1      1544 2.24916E+00
 -1      1545 1.80256E+00
 -1      1546 1.69317E+00
 -1      1547 2.76407E+00
 -1      1548 2.62080E+00
 -1      1549 2.24916E+00
 -1      1550 3.12013E+00
 -1      1551 2.90734E+00
 -1      1552 2.76407E+00
 -1      1553 3.33292E+00
 -1      1554 3.33292E+00
 -1      1555 3.12013E+00
 -1      1556 2.94452E+00
 -1      1557 3.13872E+00
 -1      1558 3.13872E+00
 -1      1559 1.93557E+00
 -1      1560 2.44005E+00
 -1      1561 2.44005E+00
 -1      1562 1.24474E+00
 -1      1563 1.59016E+00
 -1      1564 1.59016E+00
 -1      1565 8.45788E-01
 -1      1566 1.01472E+00
 -1      1567 1.01472E+00
 -1      1568 9.57049E-01
 -1      1569 9.06887E-01
 -1      1570 8.45788E-01
 -1      1571 1.03750E+00
 -1      1572 1.00721E+00
 -1      1573 9.57049E-01
 -1      1574 1.06778E+00
 -1      1575 1.06778E+00
 -1      1576 1.03750E+00
 -1      1577 9.96007E-01
 -1      1578 1.03189E+00
 -1      1579 1.03189E+00
 -1      1580 8.57218E-01
 -1      1581 9.26612E-01
 -1      1582 9.26612E-01
 -1      1583 7.21471E-01
 -1      1584 7.89344E-01
 -1      1585 7.89344E-01
 -1      1586 5.91060E-01
 -1      1587 6.59177E-01
 -1      1588 6.59177E-01
 -1      1589 4.66430E-01
 -1      1590 5.31624E-01
 -1      1591 5.37448E-01
 -1      1592 3.53972E-01
 -1      1593 4.11520E-01
 -1      1594 4.23102E-01
 -1      1595 2.68873E-01
 -1      1596 3.06515E-01
 -1      1597 3.20735E-01
 -1      1598 2.05652E-01
 -1      1599 2.35060E-01
 -1      1600 2.39465E-01
 -1      1601 1.55391E-01
 -1      1602 1.80521E-01
 -1      1603 1.80521E-01
 -1      1604 1.13951E-01
 -1      1605 1.34671E-01
 -1      1606 1.34671E-01
 -1      1607 8.17908E-02
 -1      1608 9.84732E-02
 -1      1609 9.84732E-02
 -1      1610 5.62090E-02
 -1      1611 6.93589E-02
 -1      1612 7.05636E-02
 -1      1613 4.51342E-02
 -1      1614 4.97102E-02
 -1      1615 5.16330E-02
 -1      1616 3.28437E-02
 -1      1617 3.89889E-02
 -1      1618 3.89889E-02
 -1      1619 1.92064E-02
 -1      1620 2.60250E-02
 -1      1621 2.60250E-02
 -1      1622 1.24549E-02
 -1      1623 9.17070E-03
 -1      1624 8.35835E-03
 -1      1625 1.01803E-02
 -1      1626 1.01803E-02
 -1      1627 1.20228E-02
 -1      1628 9.29044E-03
 -1      1629 1.01803E-02
 -1      1630 1.30324E-02
 -1      1631 5.33290E-03
 -1      1632 6.99736E-03
 -1      1633 1.07393E-02
 -1      1634 7.29993E-03
 -1      1635 5.98215E-03
 -1      1636 9.09548E-03
 -1      1637 1.02588E-02
 -1      1638 9.28657E-03
 -1      1639 1.17314E-02
 -1      1640 1.14108E-02
 -1      1641 1.11001E-02
 -1      1642 1.45593E-02
 -1      1643 1.14187E-02
 -1      1644 1.14187E-02
 -1      1645 1.54086E-02
 -1      1646 1.10994E-02
 -1      1647 1.14187E-02
 -1      1648 1.54166E-02
 -1      1649 9.24905E-03
 -1      1650 1.02423E-02
 -1      1651 1.45594E-02
 -1      1652 6.13987E-03
 -1      1653 7.32771E-03
 -1      1654 1.17809E-02
 -1      1655 7.28462E-03
 -1      1656 5.57349E-03
 -1      1657 9.29318E-03
 -1      1658 1.04710E-02
 -1      1659 9.74894E-03
 -1      1660 1.11911E-02
 -1      1661 1.05668E-02
 -1      1662 1.04710E-02
 -1      1663 1.36555E-02
 -1      1664 1.10920E-02
 -1      1665 1.07043E-02
 -1      1666 1.37930E-02
 -1      1667 1.91562E-02
 -1      1668 2.71278E+01
 -1      1669 2.66735E+01
 -1      1670 3.80451E+01
 -1      1671 2.67867E+01
 -1      1672 4.72650E+01
 -1      1673 4.72650E+01
 -1      1674 2.07911E+01
 -1      1675 3.42942E+01
 -1      1676 1.18322E+01
 -1      1677 1.58554E+01
 -1      1678 1.23273E+01
 -1      1679 1.22123E+01
 -1      1680 1.24422E+01
 -1      1681 1.24422E+01
 -1      1682 1.24532E+01
 -1      1683 1.24277E+01
 -1      1684 1.24934E+01
 -1      1685 1.24934E+01
 -1      1686 1.20579E+01
 -1      1687 1.21315E+01
 -1      1688 1.92988E+01
 -1      1689 1.23462E+01
 -1      1690 2.95746E+01
 -1      1691 2.75157E+01
 -1      1692 3.20847E+01
 -1      1693 3.20847E+01
 -1      1694 2.97066E+01
 -1      1695 3.20847E+01
 -1      1696 2.78948E+01
 -1      1697 2.78474E+01
 -1      1698 2.78948E+01
 -1      1699 2.78948E+01
 -1      1700 3.95391E+01
 -1      1701 3.13471E+01
 -1      1702 4.20917E+01
 -1      1703 4.20917E+01
 -1      1704 1.62173E+01
 -1      1705 2.92310E+01
 -1      1706 1.15101E+01
 -1      1707 1.34938E+01
 -1      1708 1.23972E+01
 -1      1709 1.20971E+01
 -1      1710 1.26974E+01
 -1      1711 1.26974E+01
 -1      1712 1.21584E+01
 -1      1713 1.22942E+01
 -1      1714 1.24257E+01
 -1      1715 1.24257E+01
 -1      1716 1.20846E+01
 -1      1717 1.21830E+01
 -1      1718 1.86076E+01
 -1      1719 1.22289E+01
 -1      1720 2.90558E+01
 -1      1721 2.60322E+01
 -1      1722 3.17155E+01
 -1      1723 3.17155E+01
 -1      1724 2.84753E+01
 -1      1725 3.17155E+01
 -1      1726 2.66735E+01
 -1      1727 2.70302E+01
 -1      1728 1.63878E+01
 -1      1729 3.42942E+01
 -1      1730 1.24549E-02
 -1      1731 1.51098E-02
 -1      1732 2.91662E+01
 -1      1733 3.80451E+01
 -1      1734 2.95072E+01
 -1      1735 1.18322E+01
 -1      1736 1.23273E+01
 -1      1737 1.24277E+01
 -1      1738 1.24532E+01
 -1      1739 1.21315E+01
 -1      1740 1.20579E+01
 -1      1741 2.05631E+01
 -1      1742 3.12901E+01
 -1      1743 3.38003E+01
 -1      1744 3.19411E+01
 -1      1745 3.00819E+01
 -1      1746 3.35342E+01
 -1      1747 3.95391E+01
 -1      1748 2.92310E+01
 -1      1749 1.36467E+01
 -1      1750 1.15101E+01
 -1      1751 1.23972E+01
 -1      1752 1.22942E+01
 -1      1753 1.21584E+01
 -1      1754 1.21830E+01
 -1      1755 1.20846E+01
 -1      1756 1.96535E+01
 -1      1757 2.97377E+01
 -1      1758 3.23974E+01
 -1      1759 3.09523E+01
 -1      1760 9.58460E+00
 -1      1761 1.27270E+00
 -1      1762 1.66170E+00
 -1      1763 2.35955E+00
 -1      1764 4.23884E+00
 -1      1765 1.74767E+00
 -1      1766 8.71274E-01
 -1      1767 9.64838E-01
 -1      1768 7.69002E-01
 -1      1769 8.23818E-01
 -1      1770 7.33180E-01
 -1      1771 7.01366E-01
 -1      1772 7.36590E-01
 -1      1773 6.53312E-01
 -1      1774 6.57671E-01
 -1      1775 6.78454E-01
 -1      1776 5.97987E-01
 -1      1777 6.81685E-01
 -1      1778 6.59240E-01
 -1      1779 5.76643E-01
 -1      1780 7.39291E-01
 -1      1781 7.04314E-01
 -1      1782 6.00841E-01
 -1      1783 8.31328E-01
 -1      1784 7.73474E-01
 -1      1785 6.57653E-01
 -1      1786 9.75785E-01
 -1      1787 8.79561E-01
 -1      1788 7.40070E-01
 -1      1789 1.22080E+00
 -1      1790 1.04377E+00
 -1      1791 8.56290E-01
 -1      1792 1.69353E+00
 -1      1793 1.32854E+00
 -1      1794 1.03202E+00
 -1      1795 2.60415E+00
 -1      1796 1.77571E+00
 -1      1797 1.22194E+00
 -1      1798 8.11208E+00
 -1      1799 3.04764E+00
 -1      1800 1.74763E+00
 -1      1801 2.80654E+00
 -1      1802 5.18864E+00
 -1      1803 2.16997E+00
 -1      1804 2.66014E+00
 -1      1805 2.04473E+00
 -1      1806 3.39532E+00
 -1      1807 2.55480E+00
 -1      1808 1.94089E+00
 -1      1809 1.70803E+00
 -1      1810 1.37160E+00
 -1      1811 1.50990E+00
 -1      1812 1.18880E+00
 -1      1813 1.00107E+00
 -1      1814 1.09424E+00
 -1      1815 8.94654E-01
 -1      1816 7.83729E-01
 -1      1817 8.05020E-01
 -1      1818 7.33201E-01
 -1      1819 6.52668E-01
 -1      1820 6.48079E-01
 -1      1821 6.06516E-01
 -1      1822 5.46018E-01
 -1      1823 5.51399E-01
 -1      1824 5.03883E-01
 -1      1825 4.57575E-01
 -1      1826 4.63111E-01
 -1      1827 4.18524E-01
 -1      1828 3.85856E-01
 -1      1829 3.81925E-01
 -1      1830 4.01472E-01
 -1      1831 4.29288E-01
 -1      1832 3.58489E-01
 -1      1833 4.57796E-01
 -1      1834 4.92322E-01
 -1      1835 4.02614E-01
 -1      1836 5.35577E-01
 -1      1837 5.74952E-01
 -1      1838 4.74377E-01
 -1      1839 6.56909E-01
 -1      1840 7.29475E-01
 -1      1841 5.99588E-01
 -1      1842 8.09675E-01
 -1      1843 8.93479E-01
 -1      1844 7.61744E-01
 -1      1845 9.60854E-01
 -1      1846 1.04538E+00
 -1      1847 9.09320E-01
 -1      1848 1.10618E+00
 -1      1849 1.22274E+00
 -1      1850 1.03750E+00
 -1      1851 1.29165E+00
 -1      1852 1.40709E+00
 -1      1853 1.16723E+00
 -1      1854 1.41539E+00
 -1      1855 1.45301E+00
 -1      1856 1.24445E+00
 -1      1857 1.39271E+00
 -1      1858 1.38124E+00
 -1      1859 1.19245E+00
 -1      1860 1.39961E+00
 -1      1861 1.36680E+00
 -1      1862 1.15053E+00
 -1      1863 1.38323E+00
 -1      1864 1.54604E+00
 -1      1865 1.18533E+00
 -1      1866 1.86982E+00
 -1      1867 2.37186E+00
 -1      1868 1.52554E+00
 -1      1869 2.68816E+00
 -1      1870 3.46059E+00
 -1      1871 2.16563E+00
 -1      1872 3.60248E+00
 -1      1873 3.68608E+00
 -1      1874 2.62383E+00
 -1      1875 3.66363E+00
 -1      1876 3.68304E+00
 -1      1877 2.74327E+00
 -1      1878 3.63832E+00
 -1      1879 3.00587E+00
 -1      1880 2.67610E+00
 -1      1881 2.67835E+00
 -1      1882 2.00209E+00
 -1      1883 2.30386E+00
 -1      1884 1.68911E+00
 -1      1885 1.40279E+00
 -1      1886 1.66336E+00
 -1      1887 1.32500E+00
 -1      1888 1.42481E+00
 -1      1889 1.27259E+00
 -1      1890 1.37332E+00
 -1      1891 1.35285E+00
 -1      1892 1.14332E+00
 -1      1893 1.41704E+00
 -1      1894 1.41106E+00
 -1      1895 1.15602E+00
 -1      1896 1.42641E+00
 -1      1897 1.32345E+00
 -1      1898 1.23556E+00
 -1      1899 1.26733E+00
 -1      1900 1.14734E+00
 -1      1901 1.19479E+00
 -1      1902 1.08987E+00
 -1      1903 1.00812E+00
 -1      1904 1.08119E+00
 -1      1905 9.51114E-01
 -1      1906 8.74804E-01
 -1      1907 9.66713E-01
 -1      1908 8.02923E-01
 -1      1909 7.20858E-01
 -1      1910 8.37822E-01
 -1      1911 6.47163E-01
 -1      1912 5.70163E-01
 -1      1913 6.92246E-01
 -1      1914 5.02251E-01
 -1      1915 4.35597E-01
 -1      1916 5.50638E-01
 -1      1917 3.77037E-01
 -1      1918 3.28538E-01
 -1      1919 4.24166E-01
 -1      1920 2.80329E-01
 -1      1921 2.48185E-01
 -1      1922 3.17398E-01
 -1      1923 2.09880E-01
 -1      1924 1.83083E-01
 -1      1925 2.30884E-01
 -1      1926 1.53542E-01
 -1      1927 1.31595E-01
 -1      1928 1.63037E-01
 -1      1929 1.12118E-01
 -1      1930 9.76060E-02
 -1      1931 1.14019E-01
 -1      1932 8.41244E-02
 -1      1933 7.45630E-02
 -1      1934 8.10602E-02
 -1      1935 6.53153E-02
 -1      1936 5.58276E-02
 -1      1937 5.83309E-02
 -1      1938 4.85638E-02
 -1      1939 3.83469E-02
 -1      1940 4.18195E-02
 -1      1941 3.23409E-02
 -1      1942 2.34628E-02
 -1      1943 1.82371E-02
 -1      1944 2.85497E-02
 -1      1945 1.42252E+00
 -1      1946 1.79447E+00
 -1      1947 1.52283E+00
 -1      1948 1.04160E+00
 -1      1949 1.29406E+00
 -1      1950 1.01887E+00
 -1      1951 8.43925E-01
 -1      1952 9.43040E-01
 -1      1953 7.91844E-01
 -1      1954 6.97129E-01
 -1      1955 7.72941E-01
 -1      1956 6.22297E-01
 -1      1957 6.17417E-01
 -1      1958 6.75675E-01
 -1      1959 5.29859E-01
 -1      1960 5.51110E-01
 -1      1961 5.95932E-01
 -1      1962 4.86920E-01
 -1      1963 4.96899E-01
 -1      1964 5.31096E-01
 -1      1965 4.45421E-01
 -1      1966 4.52328E-01
 -1      1967 4.78684E-01
 -1      1968 4.07192E-01
 -1      1969 4.23676E-01
 -1      1970 4.45734E-01
 -1      1971 3.82384E-01
 -1      1972 4.52758E-01
 -1      1973 4.43698E-01
 -1      1974 3.95811E-01
 -1      1975 5.19161E-01
 -1      1976 4.97451E-01
 -1      1977 4.60526E-01
 -1      1978 5.84039E-01
 -1      1979 5.68354E-01
 -1      1980 5.54412E-01
 -1      1981 6.34166E-01
 -1      1982 6.30162E-01
 -1      1983 6.49727E-01
 -1      1984 6.87909E-01
 -1      1985 6.57946E-01
 -1      1986 7.19630E-01
 -1      1987 7.53944E-01
 -1      1988 6.87909E-01
 -1      1989 7.43410E-01
 -1      1990 7.99962E-01
 -1      1991 7.35299E-01
 -1      1992 7.24765E-01
 -1      1993 7.61156E-01
 -1      1994 7.17541E-01
 -1      1995 6.23697E-01
 -1      1996 8.98218E-01
 -1      1997 7.72948E-01
 -1      1998 5.53067E-01
 -1      1999 1.07524E+00
 -1      2000 1.06944E+00
 -1      2001 7.36078E-01
 -1      2002 1.48415E+00
 -1      2003 1.35133E+00
 -1      2004 1.18339E+00
 -1      2005 1.80581E+00
 -1      2006 1.62146E+00
 -1      2007 1.59679E+00
 -1      2008 2.17745E+00
 -1      2009 1.80581E+00
 -1      2010 1.73410E+00
 -1      2011 2.30443E+00
 -1      2012 2.16116E+00
 -1      2013 1.71781E+00
 -1      2014 2.63079E+00
 -1      2015 2.41800E+00
 -1      2016 1.81509E+00
 -1      2017 2.43036E+00
 -1      2018 2.62456E+00
 -1      2019 1.92243E+00
 -1      2020 1.69099E+00
 -1      2021 2.19547E+00
 -1      2022 1.68130E+00
 -1      2023 1.07302E+00
 -1      2024 1.41843E+00
 -1      2025 1.17385E+00
 -1      2026 6.85117E-01
 -1      2027 9.15143E-01
 -1      2028 7.43417E-01
 -1      2029 7.56677E-01
 -1      2030 6.95579E-01
 -1      2031 5.96006E-01
 -1      2032 8.69192E-01
 -1      2033 8.19030E-01
 -1      2034 6.68820E-01
 -1      2035 9.20225E-01
 -1      2036 8.89939E-01
 -1      2037 7.51919E-01
 -1      2038 8.86474E-01
 -1      2039 9.22362E-01
 -1      2040 7.74804E-01
 -1      2041 7.84443E-01
 -1      2042 8.53837E-01
 -1      2043 7.44304E-01
 -1      2044 6.79439E-01
 -1      2045 7.47313E-01
 -1      2046 6.74538E-01
 -1      2047 5.72347E-01
 -1      2048 6.34641E-01
 -1      2049 5.92609E-01
 -1      2050 4.63750E-01
 -1      2051 5.23186E-01
 -1      2052 4.98650E-01
 -1      2053 3.61429E-01
 -1      2054 4.16339E-01
 -1      2055 4.02078E-01
 -1      2056 2.71697E-01
 -1      2057 3.19153E-01
 -1      2058 3.12391E-01
 -1      2059 2.02225E-01
 -1      2060 2.36038E-01
 -1      2061 2.34456E-01
 -1      2062 1.53548E-01
 -1      2063 1.78678E-01
 -1      2064 1.75251E-01
 -1      2065 1.13935E-01
 -1      2066 1.34655E-01
 -1      2067 1.32811E-01
 -1      2068 8.29955E-02
 -1      2069 9.84732E-02
 -1      2070 9.84569E-02
 -1      2071 5.81317E-02
 -1      2072 7.05636E-02
 -1      2073 7.05636E-02
 -1      2074 4.16619E-02
 -1      2075 4.81607E-02
 -1      2076 4.81607E-02
 -1      2077 2.88662E-02
 -1      2078 3.50115E-02
 -1      2079 3.15392E-02
 -1      2080 1.62973E-02
 -1      2081 2.31159E-02
 -1      2082 1.91385E-02
 -1      2083 1.22007E-02
 -1      2084 1.19050E-02
 -1      2085 1.41981E-02
 -1      2086 1.68852E-02
 -1      2087 1.68852E-02
 -1      2088 1.80509E-02
 -1      2089 1.68852E-02
 -1      2090 1.58756E-02
 -1      2091 1.70631E-02
 -1      2092 2.07379E-02
 -1      2093 1.17740E-02
 -1      2094 1.11247E-02
 -1      2095 1.45835E-02
 -1      2096 1.68479E-02
 -1      2097 1.48613E-02
 -1      2098 1.68906E-02
 -1      2099 1.92715E-02
 -1      2100 1.84302E-02
 -1      2101 2.15602E-02
 -1      2102 1.92795E-02
 -1      2103 1.92715E-02
 -1      2104 2.31424E-02
 -1      2105 1.93038E-02
 -1      2106 1.93038E-02
 -1      2107 2.31668E-02
 -1      2108 1.84467E-02
 -1      2109 1.93038E-02
 -1      2110 2.31911E-02
 -1      2111 1.50832E-02
 -1      2112 1.70046E-02
 -1      2113 2.17490E-02
 -1      2114 1.13930E-02
 -1      2115 1.19593E-02
 -1      2116 1.71830E-02
 -1      2117 1.49986E-02
 -1      2118 1.25343E-02
 -1      2119 1.52004E-02
 -1      2120 1.73284E-02
 -1      2121 1.73284E-02
 -1      2122 1.86715E-02
 -1      2123 3.80451E+01
 -1      2124 2.88252E+01
 -1      2125 3.03443E+01
 -1      2126 3.03443E+01
 -1      2127 3.00032E+01
 -1      2128 3.03443E+01
 -1      2129 1.88687E+01
 -1      2130 3.18395E+01
 -1      2131 1.03125E+01
 -1      2132 1.52482E+01
 -1      2133 1.27934E+01
 -1      2134 1.02719E+00
 -1      2135 1.20046E+00
 -1      2136 9.77582E-01
 -1      2137 8.42990E-01
 -1      2138 1.11387E+01
 -1      2139 1.10237E+01
 -1      2140 1.14251E+01
 -1      2141 1.14397E+01
 -1      2142 1.11023E+01
 -1      2143 1.10621E+01
 -1      2144 1.03678E+01
 -1      2145 1.07297E+01
 -1      2146 9.54790E+00
 -1      2147 9.25959E+00
 -1      2148 2.00733E+01
 -1      2149 1.18565E+01
 -1      2150 2.69010E+01
 -1      2151 2.43908E+01
 -1      2152 3.38003E+01
 -1      2153 3.38003E+01
 -1      2154 3.36003E+01
 -1      2155 3.54595E+01
 -1      2156 3.36003E+01
 -1      2157 3.36003E+01
 -1      2158 3.26886E+01
 -1      2159 2.92363E+01
 -1      2160 3.35770E+01
 -1      2161 3.10244E+01
 -1      2162 1.54369E+01
 -1      2163 2.82976E+01
 -1      2164 9.27946E+00
 -1      2165 1.20030E+01
 -1      2166 9.95779E+00
 -1      2167 9.37084E+00
 -1      2168 1.12212E+01
 -1      2169 1.09211E+01
 -1      2170 8.78181E+00
 -1      2171 1.12345E+01
 -1      2172 1.16377E+01
 -1      2173 1.12938E+01
 -1      2174 1.10265E+01
 -1      2175 1.03343E+01
 -1      2176 1.05769E+01
 -1      2177 9.21865E+00
 -1      2178 9.07442E+00
 -1      2179 1.91255E+01
 -1      2180 1.17009E+01
 -1      2181 8.69067E+00
 -1      2182 2.57568E+01
 -1      2183 2.30971E+01
 -1      2184 3.23974E+01
 -1      2185 3.23974E+01
 -1      2186 3.02047E+01
 -1      2187 3.16498E+01
 -1      2188 9.73460E+00
 -1      2189 9.35455E+00
 -1      2190 2.90617E+00
 -1      2191 8.21491E+00
 -1      2192 8.54603E+00
 -1      2193 2.09414E+00
 -1      2194 3.00032E+01
 -1      2195 3.11813E+01
 -1      2196 1.74659E-02
 -1      2197 2.26196E+01
 -1      2198 3.10417E+01
 -1      2199 3.16498E+01
 -1      2200 1.51446E+01
 -1      2201 7.46832E+00
 -1      2202 9.44503E+00
 -1      2203 1.01615E+01
 -1      2204 7.72711E+00
 -1      2205 1.10697E+01
 -1      2206 1.97830E+01
 -1      2207 2.67266E+01
 -1      2208 3.27547E+01
 -1      2209 3.71187E+01
 -1      2210 3.54595E+01
 -1      2211 2.69010E+01
 -1      2212 1.56842E+01
 -1      2213 9.05813E+00
 -1      2214 7.85773E+00
 -1      2215 9.33850E+00
 -1      2216 1.01361E+01
 -1      2217 1.00741E+01
 -1      2218 1.03699E+01
 -1      2219 2.57568E+01
 -1      2220 1.10044E+00
 -1      2221 1.47594E+00
 -1      2222 5.49354E-01
 -1      2223 5.81766E-01
 -1      2224 5.95237E-01
 -1      2225 6.42694E-01
 -1      2226 4.91279E-01
 -1      2227 4.98235E-01
 -1      2228 4.96666E-01
 -1      2229 5.34837E-01
 -1      2230 5.12208E-01
 -1      2231 4.32230E-01
 -1      2232 5.85085E-01
 -1      2233 5.50902E-01
 -1      2234 4.62269E-01
 -1      2235 6.46638E-01
 -1      2236 5.98404E-01
 -1      2237 4.91653E-01
 -1      2238 7.14624E-01
 -1      2239 6.46638E-01
 -1      2240 5.04973E-01
 -1      2241 8.66328E-01
 -1      2242 7.58587E-01
 -1      2243 5.48935E-01
 -1      2244 8.90408E-01
 -1      2245 1.01887E+00
 -1      2246 9.71976E-01
 -1      2247 1.26238E+00
 -1      2248 1.02952E+00
 -1      2249 6.37887E+00
 -1      2250 7.33685E+00
 -1      2251 9.85658E-01
 -1      2252 8.02852E-01
 -1      2253 7.38135E-01
 -1      2254 7.39828E-01
 -1      2255 6.33415E-01
 -1      2256 6.31247E-01
 -1      2257 5.68241E-01
 -1      2258 5.17713E-01
 -1      2259 5.03049E-01
 -1      2260 4.91147E-01
 -1      2261 4.44995E-01
 -1      2262 4.11309E-01
 -1      2263 4.15106E-01
 -1      2264 3.72970E-01
 -1      2265 3.54854E-01
 -1      2266 3.38364E-01
 -1      2267 2.99313E-01
 -1      2268 2.90358E-01
 -1      2269 2.93616E-01
 -1      2270 3.09232E-01
 -1      2271 2.50055E-01
 -1      2272 3.30848E-01
 -1      2273 3.59356E-01
 -1      2274 2.65975E-01
 -1      2275 4.25884E-01
 -1      2276 4.69139E-01
 -1      2277 3.54118E-01
 -1      2278 5.46469E-01
 -1      2279 6.28426E-01
 -1      2280 4.97976E-01
 -1      2281 7.10751E-01
 -1      2282 7.90950E-01
 -1      2283 6.57632E-01
 -1      2284 8.73281E-01
 -1      2285 9.40656E-01
 -1      2286 8.22287E-01
 -1      2287 1.01386E+00
 -1      2288 1.07467E+00
 -1      2289 9.77819E-01
 -1      2290 1.12964E+00
 -1      2291 1.19856E+00
 -1      2292 1.10599E+00
 -1      2293 1.30872E+00
 -1      2294 1.31703E+00
 -1      2295 1.27114E+00
 -1      2296 1.42050E+00
 -1      2297 1.36020E+00
 -1      2298 1.48477E+00
 -1      2299 1.41408E+00
 -1      2300 1.43245E+00
 -1      2301 1.64212E+00
 -1      2302 1.61758E+00
 -1      2303 1.63400E+00
 -1      2304 1.88112E+00
 -1      2305 1.54047E+00
 -1      2306 1.86425E+00
 -1      2307 1.97271E+00
 -1      2308 2.72027E+00
 -1      2309 3.03657E+00
 -1      2310 2.73519E+00
 -1      2311 4.36071E+00
 -1      2312 4.50261E+00
 -1      2313 4.91535E+00
 -1      2314 3.60672E+00
 -1      2315 3.58426E+00
 -1      2316 5.34360E+00
 -1      2317 3.67282E+00
 -1      2318 3.62810E+00
 -1      2319 4.53626E+00
 -1      2320 2.68387E+00
 -1      2321 2.35635E+00
 -1      2322 3.68059E+00
 -1      2323 2.00328E+00
 -1      2324 1.69030E+00
 -1      2325 2.38329E+00
 -1      2326 1.76705E+00
 -1      2327 1.68927E+00
 -1      2328 2.10697E+00
 -1      2329 1.45234E+00
 -1      2330 1.40086E+00
 -1      2331 1.94680E+00
 -1      2332 1.36898E+00
 -1      2333 1.43317E+00
 -1      2334 1.67800E+00
 -1      2335 1.33947E+00
 -1      2336 1.35482E+00
 -1      2337 1.55243E+00
 -1      2338 1.24704E+00
 -1      2339 1.19092E+00
 -1      2340 1.35095E+00
 -1      2341 1.12376E+00
 -1      2342 1.06628E+00
 -1      2343 1.17601E+00
 -1      2344 1.00192E+00
 -1      2345 9.44913E-01
 -1      2346 1.04448E+00
 -1      2347 8.69742E-01
 -1      2348 7.97861E-01
 -1      2349 9.04952E-01
 -1      2350 7.22512E-01
 -1      2351 6.48816E-01
 -1      2352 7.54432E-01
 -1      2353 5.79482E-01
 -1      2354 5.11570E-01
 -1      2355 6.09748E-01
 -1      2356 4.51212E-01
 -1      2357 3.92653E-01
 -1      2358 4.80056E-01
 -1      2359 3.42149E-01
 -1      2360 2.93941E-01
 -1      2361 3.69196E-01
 -1      2362 2.52956E-01
 -1      2363 2.14650E-01
 -1      2364 2.77707E-01
 -1      2365 1.82231E-01
 -1      2366 1.52690E-01
 -1      2367 2.04303E-01
 -1      2368 1.27641E-01
 -1      2369 1.08164E-01
 -1      2370 1.46835E-01
 -1      2371 8.92643E-02
 -1      2372 7.57827E-02
 -1      2373 1.02886E-01
 -1      2374 6.18963E-02
 -1      2375 5.26487E-02
 -1      2376 7.01004E-02
 -1      2377 4.27083E-02
 -1      2378 3.54445E-02
 -1      2379 4.62737E-02
 -1      2380 5.42285E-01
 -1      2381 6.13269E-01
 -1      2382 4.88590E-01
 -1      2383 5.10043E-01
 -1      2384 5.01016E-01
 -1      2385 4.31222E-01
 -1      2386 4.52707E-01
 -1      2387 4.32891E-01
 -1      2388 3.73888E-01
 -1      2389 3.93902E-01
 -1      2390 3.59689E-01
 -1      2391 3.24801E-01
 -1      2392 3.43016E-01
 -1      2393 2.91497E-01
 -1      2394 3.36434E-01
 -1      2395 3.43027E-01
 -1      2396 2.78851E-01
 -1      2397 3.74129E-01
 -1      2398 3.54108E-01
 -1      2399 3.14752E-01
 -1      2400 4.69928E-01
 -1      2401 4.25235E-01
 -1      2402 3.83532E-01
 -1      2403 5.70660E-01
 -1      2404 5.21467E-01
 -1      2405 4.86177E-01
 -1      2406 6.60674E-01
 -1      2407 6.14551E-01
 -1      2408 5.81607E-01
 -1      2409 7.19630E-01
 -1      2410 6.95851E-01
 -1      2411 6.60674E-01
 -1      2412 7.45835E-01
 -1      2413 7.45835E-01
 -1      2414 7.22055E-01
 -1      2415 7.40459E-01
 -1      2416 7.59105E-01
 -1      2417 7.61530E-01
 -1      2418 6.29162E-01
 -1      2419 7.11584E-01
 -1      2420 7.45925E-01
 -1      2421 7.05529E-01
 -1      2422 6.93737E-01
 -1      2423 7.81624E-01
 -1      2424 9.06044E-01
 -1      2425 7.34825E-01
 -1      2426 8.75495E-01
 -1      2427 1.34604E+00
 -1      2428 1.06995E+00
 -1      2429 1.06870E+00
 -1      2430 1.62226E+00
 -1      2431 1.48495E+00
 -1      2432 1.37151E+00
 -1      2433 1.81694E+00
 -1      2434 1.81694E+00
 -1      2435 1.70510E+00
 -1      2436 1.79231E+00
 -1      2437 1.80860E+00
 -1      2438 1.89144E+00
 -1      2439 1.93468E+00
 -1      2440 1.82110E+00
 -1      2441 1.91189E+00
 -1      2442 1.80001E+00
 -1      2443 1.80624E+00
 -1      2444 1.81226E+00
 -1      2445 1.44542E+00
 -1      2446 1.68031E+00
 -1      2447 1.56412E+00
 -1      2448 1.01676E+00
 -1      2449 1.28932E+00
 -1      2450 1.28833E+00
 -1      2451 7.25933E-01
 -1      2452 8.83806E-01
 -1      2453 9.99276E-01
 -1      2454 7.03308E-01
 -1      2455 6.92846E-01
 -1      2456 8.33234E-01
 -1      2457 7.45916E-01
 -1      2458 6.83564E-01
 -1      2459 7.80404E-01
 -1      2460 7.83708E-01
 -1      2461 7.62961E-01
 -1      2462 7.77705E-01
 -1      2463 7.67461E-01
 -1      2464 7.65324E-01
 -1      2465 7.76365E-01
 -1      2466 7.06260E-01
 -1      2467 7.38897E-01
 -1      2468 7.29417E-01
 -1      2469 6.36283E-01
 -1      2470 6.73412E-01
 -1      2471 6.68005E-01
 -1      2472 5.53826E-01
 -1      2473 5.98625E-01
 -1      2474 5.97499E-01
 -1      2475 4.60349E-01
 -1      2476 5.09510E-01
 -1      2477 5.15525E-01
 -1      2478 3.68253E-01
 -1      2479 4.15664E-01
 -1      2480 4.26524E-01
 -1      2481 2.84737E-01
 -1      2482 3.27013E-01
 -1      2483 3.40599E-01
 -1      2484 2.13219E-01
 -1      2485 2.48878E-01
 -1      2486 2.63500E-01
 -1      2487 1.59853E-01
 -1      2488 1.83399E-01
 -1      2489 1.97821E-01
 -1      2490 1.17059E-01
 -1      2491 1.35952E-01
 -1      2492 1.44100E-01
 -1      2493 8.30745E-02
 -1      2494 9.85359E-02
 -1      2495 1.01677E-01
 -1      2496 5.67878E-02
 -1      2497 6.92197E-02
 -1      2498 6.92987E-02
 -1      2499 3.83330E-02
 -1      2500 4.83041E-02
 -1      2501 4.69602E-02
 -1      2502 2.62636E-02
 -1      2503 3.29140E-02
 -1      2504 3.30574E-02
 -1      2505 2.28134E-02
 -1      2506 2.28432E-02
 -1      2507 1.97558E-02
 -1      2508 2.73129E-02
 -1      2509 2.57306E-02
 -1      2510 2.85959E-02
 -1      2511 1.79365E-02
 -1      2512 2.06236E-02
 -1      2513 1.74220E-02
 -1      2514 1.82023E-02
 -1      2515 2.07750E-02
 -1      2516 2.33746E-02
 -1      2517 2.76070E-02
 -1      2518 2.76070E-02
 -1      2519 3.17774E-02
 -1      2520 2.76522E-02
 -1      2521 2.76278E-02
 -1      2522 3.20924E-02
 -1      2523 2.76522E-02
 -1      2524 2.76522E-02
 -1      2525 3.21132E-02
 -1      2526 2.61305E-02
 -1      2527 2.75726E-02
 -1      2528 3.20337E-02
 -1      2529 2.05160E-02
 -1      2530 2.36399E-02
 -1      2531 2.94635E-02
 -1      2532 2.13056E-02
 -1      2533 2.01643E-02
 -1      2534 2.66212E-02
 -1      2535 2.36354E-02
 -1      2536 2.13056E-02
 -1      2537 2.62695E-02
 -1      2538 3.11813E+01
 -1      2539 3.11813E+01
 -1      2540 1.48566E+01
 -1      2541 2.10622E+01
 -1      2542 6.93281E-01
 -1      2543 7.91844E-01
 -1      2544 6.13269E-01
 -1      2545 2.17725E-02
 -1      2546 3.10417E+01
 -1      2547 3.09022E+01
 -1      2548 8.46522E+00
 -1      2549 1.20858E+01
 -1      2550 1.65540E+00
 -1      2551 1.30403E+00
 -1      2552 8.23646E-01
 -1      2553 9.57557E-01
 -1      2554 2.66788E+01
 -1      2555 2.74265E+01
 -1      2556 5.28743E+00
 -1      2557 6.54729E+00
 -1      2558 6.32349E+00
 -1      2559 6.23210E+00
 -1      2560 5.10610E-01
 -1      2561 5.33522E-01
 -1      2562 4.61976E-01
 -1      2563 4.32201E-01
 -1      2564 8.99445E+00
 -1      2565 9.35748E+00
 -1      2566 9.12189E+00
 -1      2567 9.32993E+00
 -1      2568 8.74070E+00
 -1      2569 8.43969E+00
 -1      2570 7.86710E+00
 -1      2571 8.23969E+00
 -1      2572 5.51068E+00
 -1      2573 6.61885E+00
 -1      2574 8.98542E+00
 -1      2575 6.67685E+00
 -1      2576 1.48009E+01
 -1      2577 1.04834E+01
 -1      2578 2.40616E+01
 -1      2579 1.71623E+01
 -1      2580 1.19614E+01
 -1      2581 3.01631E+01
 -1      2582 2.85038E+01
 -1      2583 3.71187E+01
 -1      2584 3.71187E+01
 -1      2585 2.83907E+01
 -1      2586 3.27547E+01
 -1      2587 2.15107E+01
 -1      2588 2.31749E+01
 -1      2589 1.30745E+01
 -1      2590 1.83539E+01
 -1      2591 7.72548E+00
 -1      2592 1.11594E+01
 -1      2593 7.99230E+00
 -1      2594 7.02900E+00
 -1      2595 2.32842E+01
 -1      2596 1.66436E+01
 -1      2597 9.20720E+00
 -1      2598 8.79078E+00
 -1      2599 7.79492E+00
 -1      2600 8.51176E+00
 -1      2601 7.47177E+00
 -1      2602 8.52975E+00
 -1      2603 6.04754E+00
 -1      2604 1.47232E+01
 -1      2605 1.07515E+01
 -1      2606 8.10838E+00
 -1      2607 7.66245E+00
 -1      2608 6.37335E+00
 -1      2609 1.60606E+00
 -1      2610 1.75246E+00
 -1      2611 1.30896E+00
 -1      2612 1.18367E+00
 -1      2613 2.45325E+01
 -1      2614 2.57106E+01
 -1      2615 7.66102E+00
 -1      2616 5.04750E-01
 -1      2617 6.42694E-01
 -1      2618 7.05047E-01
 -1      2619 7.91844E-01
 -1      2620 1.22677E+00
 -1      2621 1.67696E+01
 -1      2622 6.82948E-01
 -1      2623 7.55188E-01
 -1      2624 6.62923E-01
 -1      2625 4.82652E-01
 -1      2626 2.66788E+01
 -1      2627 6.62919E+00
 -1      2628 1.22506E+01
 -1      2629 5.61403E+00
 -1      2630 7.95917E+00
 -1      2631 2.41882E-02
 -1      2632 1.05284E+01
 -1      2633 2.41882E-02
 -1      2634 1.83133E+01
 -1      2635 3.10417E+01
 -1      2636 2.57106E+01
 -1      2637 7.03797E+00
 -1      2638 6.32186E+00
 -1      2639 9.53343E-01
 -1      2640 9.73033E+00
 -1      2641 2.40738E-02
 -1      2642 5.12651E+00
 -1      2643 1.48022E+01
 -1      2644 2.31749E+01
 -1      2645 3.27547E+01
 -1      2646 2.32836E+01
 -1      2647 1.35449E+01
 -1      2648 1.79871E+01
 -1      2649 8.10208E+00
 -1      2650 5.43796E+00
 -1      2651 5.52004E+00
 -1      2652 5.53398E+00
 -1      2653 5.49529E+00
 -1      2654 6.26700E+00
 -1      2655 7.52305E+00
 -1      2656 3.01631E+01
 -1      2657 2.24148E-02
 -1      2658 2.16437E-02
 -1      2659 2.42777E-02
 -1      2660 2.84208E-02
 -1      2661 2.93097E-02
 -1      2662 4.14503E-01
 -1      2663 3.98438E-01
 -1      2664 3.88358E-01
 -1      2665 3.74385E-01
 -1      2666 3.40593E-01
 -1      2667 4.32074E-01
 -1      2668 4.32074E-01
 -1      2669 4.66665E-01
 -1      2670 4.22703E-01
 -1      2671 3.49805E-01
 -1      2672 7.07345E-01
 -1      2673 7.88913E-01
 -1      2674 7.74401E+00
 -1      2675 9.65910E+00
 -1      2676 8.23221E-01
 -1      2677 5.26783E+00
 -1      2678 6.39621E+00
 -1      2679 5.33593E-01
 -1      2680 4.70569E-01
 -1      2681 4.55354E-01
 -1      2682 3.90181E-01
 -1      2683 3.57701E-01
 -1      2684 3.57686E-01
 -1      2685 3.31120E-01
 -1      2686 3.09992E-01
 -1      2687 3.03064E-01
 -1      2688 2.73175E-01
 -1      2689 2.49441E-01
 -1      2690 2.47753E-01
 -1      2691 2.13147E-01
 -1      2692 1.95963E-01
 -1      2693 1.90905E-01
 -1      2694 1.85209E-01
 -1      2695 1.48300E-01
 -1      2696 2.19300E-01
 -1      2697 2.40915E-01
 -1      2698 1.60150E-01
 -1      2699 2.99797E-01
 -1      2700 3.66325E-01
 -1      2701 2.53122E-01
 -1      2702 4.35060E-01
 -1      2703 5.12390E-01
 -1      2704 3.80739E-01
 -1      2705 5.92212E-01
 -1      2706 6.74537E-01
 -1      2707 5.29295E-01
 -1      2708 7.66687E-01
 -1      2709 8.49017E-01
 -1      2710 7.01267E-01
 -1      2711 9.54051E-01
 -1      2712 1.02725E+00
 -1      2713 8.98451E-01
 -1      2714 1.14312E+00
 -1      2715 1.19810E+00
 -1      2716 1.11935E+00
 -1      2717 1.31644E+00
 -1      2718 1.42661E+00
 -1      2719 1.35357E+00
 -1      2720 1.59247E+00
 -1      2721 1.69594E+00
 -1      2722 1.63777E+00
 -1      2723 1.95913E+00
 -1      2724 2.01300E+00
 -1      2725 2.06682E+00
 -1      2726 2.26825E+00
 -1      2727 2.45338E+00
 -1      2728 2.58525E+00
 -1      2729 2.76814E+00
 -1      2730 2.67460E+00
 -1      2731 3.15527E+00
 -1      2732 2.80988E+00
 -1      2733 3.66590E+00
 -1      2734 3.60531E+00
 -1      2735 4.91535E+00
 -1      2736 6.23949E+00
 -1      2737 5.10632E+00
 -1      2738 5.19487E+00
 -1      2739 2.73635E+00
 -1      2740 2.38329E+00
 -1      2741 2.52590E+00
 -1      2742 2.60265E+00
 -1      2743 2.87896E+00
 -1      2744 2.55443E+00
 -1      2745 2.31750E+00
 -1      2746 2.97335E+00
 -1      2747 2.12204E+00
 -1      2748 2.09017E+00
 -1      2749 2.72967E+00
 -1      2750 1.80308E+00
 -1      2751 1.70938E+00
 -1      2752 2.24712E+00
 -1      2753 1.50425E+00
 -1      2754 1.39647E+00
 -1      2755 1.75490E+00
 -1      2756 1.28363E+00
 -1      2757 1.21648E+00
 -1      2758 1.43694E+00
 -1      2759 1.10308E+00
 -1      2760 1.03872E+00
 -1      2761 1.21071E+00
 -1      2762 9.35910E-01
 -1      2763 8.60739E-01
 -1      2764 9.94509E-01
 -1      2765 7.71697E-01
 -1      2766 6.96347E-01
 -1      2767 8.02654E-01
 -1      2768 6.21353E-01
 -1      2769 5.52019E-01
 -1      2770 6.38618E-01
 -1      2771 4.89816E-01
 -1      2772 4.29458E-01
 -1      2773 5.01421E-01
 -1      2774 3.78578E-01
 -1      2775 3.28074E-01
 -1      2776 3.88337E-01
 -1      2777 2.87023E-01
 -1      2778 2.46038E-01
 -1      2779 2.96405E-01
 -1      2780 2.13384E-01
 -1      2781 1.80965E-01
 -1      2782 2.22699E-01
 -1      2783 1.55380E-01
 -1      2784 1.30331E-01
 -1      2785 1.64461E-01
 -1      2786 1.10601E-01
 -1      2787 9.17010E-02
 -1      2788 1.19146E-01
 -1      2789 7.67779E-02
 -1      2790 6.28915E-02
 -1      2791 8.44921E-02
 -1      2792 4.95374E-02
 -1      2793 3.95971E-02
 -1      2794 5.62149E-02
 -1      2795 3.43343E-01
 -1      2796 3.79225E-01
 -1      2797 3.13015E-02
 -1      2798 2.42777E-02
 -1      2799 3.45652E-02
 -1      2800 4.05610E-01
 -1      2801 4.37852E-01
 -1      2802 3.16061E-01
 -1      2803 2.17496E-01
 -1      2804 2.48368E-01
 -1      2805 2.41049E-01
 -1      2806 2.22823E-01
 -1      2807 1.79695E-01
 -1      2808 2.92843E-01
 -1      2809 2.75169E-01
 -1      2810 2.19141E-01
 -1      2811 3.98741E-01
 -1      2812 3.47635E-01
 -1      2813 3.08052E-01
 -1      2814 5.06721E-01
 -1      2815 4.55182E-01
 -1      2816 4.19284E-01
 -1      2817 6.05194E-01
 -1      2818 5.61303E-01
 -1      2819 5.30308E-01
 -1      2820 6.87358E-01
 -1      2821 6.52182E-01
 -1      2822 6.31878E-01
 -1      2823 7.64910E-01
 -1      2824 7.38706E-01
 -1      2825 7.30214E-01
 -1      2826 8.48173E-01
 -1      2827 8.34903E-01
 -1      2828 8.51554E-01
 -1      2829 8.76265E-01
 -1      2830 9.05141E-01
 -1      2831 9.78513E-01
 -1      2832 9.72068E-01
 -1      2833 9.07493E-01
 -1      2834 1.06671E+00
 -1      2835 1.16692E+00
 -1      2836 1.13762E+00
 -1      2837 1.26349E+00
 -1      2838 1.38279E+00
 -1      2839 1.21888E+00
 -1      2840 1.48101E+00
 -1      2841 1.70238E+00
 -1      2842 1.56348E+00
 -1      2843 1.71365E+00
 -1      2844 1.99444E+00
 -1      2845 1.79975E+00
 -1      2846 1.99172E+00
 -1      2847 2.62442E+00
 -1      2848 2.63276E+00
 -1      2849 2.72742E+00
 -1      2850 2.21653E+00
 -1      2851 2.18774E+00
 -1      2852 2.92906E+00
 -1      2853 2.05003E+00
 -1      2854 2.17847E+00
 -1      2855 2.45431E+00
 -1      2856 1.56383E+00
 -1      2857 1.68353E+00
 -1      2858 2.04974E+00
 -1      2859 1.35789E+00
 -1      2860 1.51399E+00
 -1      2861 1.63339E+00
 -1      2862 1.14917E+00
 -1      2863 1.28212E+00
 -1      2864 1.50778E+00
 -1      2865 1.05049E+00
 -1      2866 1.08358E+00
 -1      2867 1.36643E+00
 -1      2868 8.87363E-01
 -1      2869 9.07106E-01
 -1      2870 1.15745E+00
 -1      2871 8.75018E-01
 -1      2872 8.57973E-01
 -1      2873 9.84676E-01
 -1      2874 8.00870E-01
 -1      2875 8.19255E-01
 -1      2876 8.99522E-01
 -1      2877 7.29417E-01
 -1      2878 7.57981E-01
 -1      2879 8.00870E-01
 -1      2880 6.60410E-01
 -1      2881 6.93257E-01
 -1      2882 7.21822E-01
 -1      2883 5.76929E-01
 -1      2884 6.14587E-01
 -1      2885 6.39840E-01
 -1      2886 4.82348E-01
 -1      2887 5.26664E-01
 -1      2888 5.43752E-01
 -1      2889 3.88979E-01
 -1      2890 4.33664E-01
 -1      2891 4.44803E-01
 -1      2892 3.05239E-01
 -1      2893 3.46478E-01
 -1      2894 3.53619E-01
 -1      2895 2.33860E-01
 -1      2896 2.69720E-01
 -1      2897 2.75599E-01
 -1      2898 1.75171E-01
 -1      2899 2.04991E-01
 -1      2900 2.11211E-01
 -1      2901 1.27745E-01
 -1      2902 1.51646E-01
 -1      2903 1.58816E-01
 -1      2904 9.05610E-02
 -1      2905 1.09084E-01
 -1      2906 1.16630E-01
 -1      2907 6.22786E-02
 -1      2908 7.61333E-02
 -1      2909 8.35409E-02
 -1      2910 4.25594E-02
 -1      2911 5.10431E-02
 -1      2912 5.78777E-02
 -1      2913 2.91517E-02
 -1      2914 3.45707E-02
 -1      2915 3.86536E-02
 -1      2916 2.55871E-02
 -1      2917 7.96847E+00
 -1      2918 1.07393E+01
 -1      2919 3.82596E-02
 -1      2920 3.82387E-02
 -1      2921 4.42112E+00
 -1      2922 3.66101E+00
 -1      2923 3.59053E-02
 -1      2924 3.30179E-02
 -1      2925 3.83880E-02
 -1      2926 3.83880E-02
 -1      2927 4.45343E-02
 -1      2928 3.82387E-02
 -1      2929 3.79446E-02
 -1      2930 4.23666E-02
 -1      2931 4.44059E-02
 -1      2932 3.83084E-02
 -1      2933 3.83880E-02
 -1      2934 4.46628E-02
 -1      2935 3.44383E-02
 -1      2936 3.69289E-02
 -1      2937 4.32833E-02
 -1      2938 2.91445E-02
 -1      2939 2.94961E-02
 -1      2940 3.69616E-02
 -1      2941 1.15103E+01
 -1      2942 9.58986E+00
 -1      2943 1.78158E+01
 -1      2944 2.32865E+01
 -1      2945 6.01584E-01
 -1      2946 5.59938E-01
 -1      2947 3.99215E-01
 -1      2948 6.87137E+00
 -1      2949 6.74865E+00
 -1      2950 7.56303E+00
 -1      2951 6.06508E+00
 -1      2952 2.34022E+01
 -1      2953 1.91789E+01
 -1      2954 4.82213E-01
 -1      2955 5.62224E-01
 -1      2956 3.86807E-01
 -1      2957 2.80282E-01
 -1      2958 3.17601E-01
 -1      2959 2.63935E-01
 -1      2960 2.06281E-01
 -1      2961 5.78634E-01
 -1      2962 5.34770E-01
 -1      2963 3.74092E-01
 -1      2964 3.56572E-01
 -1      2965 1.05154E+01
 -1      2966 1.36722E+01
 -1      2967 2.27970E+01
 -1      2968 2.26574E+01
 -1      2969 1.51575E+01
 -1      2970 5.95528E-01
 -1      2971 6.94092E-01
 -1      2972 5.11029E-01
 -1      2973 4.64472E-01
 -1      2974 4.32074E-01
 -1      2975 4.18755E-01
 -1      2976 3.54924E-01
 -1      2977 3.59176E-01
 -1      2978 4.17675E-01
 -1      2979 4.31147E-01
 -1      2980 1.71756E+01
 -1      2981 1.30333E+01
 -1      2982 3.75453E+00
 -1      2983 5.00278E+00
 -1      2984 4.56594E+00
 -1      2985 3.39977E+00
 -1      2986 1.21674E+01
 -1      2987 9.80597E+00
 -1      2988 7.76897E+00
 -1      2989 2.62695E-02
 -1      2990 2.13322E+01
 -1      2991 2.56962E+01
 -1      2992 1.50268E+01
 -1      2993 2.02426E+01
 -1      2994 1.07399E+01
 -1      2995 4.32316E+00
 -1      2996 4.32868E+00
 -1      2997 4.49561E+00
 -1      2998 5.74324E+00
 -1      2999 2.59603E+01
 -1      3000 1.90047E+01
 -1      3001 1.45378E+01
 -1      3002 4.96022E+00
 -1      3003 6.45360E+00
 -1      3004 6.31329E+00
 -1      3005 6.92341E+00
 -1      3006 5.66758E+00
 -1      3007 4.89034E+00
 -1      3008 8.79562E+00
 -1      3009 6.57386E+00
 -1      3010 5.10836E+00
 -1      3011 5.99374E+00
 -1      3012 6.74849E+00
 -1      3013 4.22822E+00
 -1      3014 1.24708E+01
 -1      3015 1.59412E+01
 -1      3016 6.92344E+00
 -1      3017 6.30666E+00
 -1      3018 7.03797E+00
 -1      3019 4.99004E+00
 -1      3020 4.31147E-01
 -1      3021 4.31147E-01
 -1      3022 3.57543E-01
 -1      3023 3.30278E-01
 -1      3024 3.74150E-01
 -1      3025 3.88093E-01
 -1      3026 8.52909E+00
 -1      3027 5.58590E-01
 -1      3028 4.09570E+00
 -1      3029 5.19487E+00
 -1      3030 4.62482E+00
 -1      3031 3.68059E+00
 -1      3032 6.38237E+00
 -1      3033 6.60711E+00
 -1      3034 2.52393E-02
 -1      3035 3.03171E-02
 -1      3036 2.55050E-02
 -1      3037 5.39413E+00
 -1      3038 3.79022E+00
 -1      3039 1.35171E+01
 -1      3040 8.05534E+00
 -1      3041 4.92999E+00
 -1      3042 1.03726E+01
 -1      3043 2.62695E-02
 -1      3044 1.13894E+01
 -1      3045 1.49021E+01
 -1      3046 5.71289E+00
 -1      3047 4.77055E+00
 -1      3048 5.30960E+00
 -1      3049 3.27140E+00
 -1      3050 1.66630E+01
 -1      3051 1.14428E+01
 -1      3052 1.24603E+01
 -1      3053 1.38990E+01
 -1      3054 3.98028E-01
 -1      3055 4.13859E-01
 -1      3056 3.53727E-01
 -1      3057 3.39977E-01
 -1      3058 2.90001E-02
 -1      3059 2.66662E-02
 -1      3060 3.11305E-02
 -1      3061 3.63094E-02
 -1      3062 2.88250E+00
 -1      3063 2.86586E-02
 -1      3064 2.86586E-02
 -1      3065 3.15336E-02
 -1      3066 3.69542E-02
 -1      3067 4.32358E-01
 -1      3068 1.31841E+01
 -1      3069 3.72373E+00
 -1      3070 9.91090E+00
 -1      3071 3.24035E+00
 -1      3072 4.17950E+00
 -1      3073 2.92104E-01
 -1      3074 3.01476E-01
 -1      3075 4.03699E-01
 -1      3076 3.81600E-01
 -1      3077 3.20262E-01
 -1      3078 3.30095E-01
 -1      3079 9.71977E+00
 -1      3080 8.19675E+00
 -1      3081 2.70658E-01
 -1      3082 2.38163E-01
 -1      3083 2.21426E-01
 -1      3084 1.93370E-01
 -1      3085 1.82092E-01
 -1      3086 1.66309E-01
 -1      3087 1.40887E-01
 -1      3088 1.38294E-01
 -1      3089 1.46468E-01
 -1      3090 1.24227E-01
 -1      3091 1.16814E-01
 -1      3092 1.48088E-01
 -1      3093 1.82178E-01
 -1      3094 1.46256E-01
 -1      3095 2.27663E-01
 -1      3096 2.86545E-01
 -1      3097 2.15601E-01
 -1      3098 3.47233E-01
 -1      3099 4.15967E-01
 -1      3100 3.21773E-01
 -1      3101 4.90745E-01
 -1      3102 5.70567E-01
 -1      3103 4.57239E-01
 -1      3104 6.55066E-01
 -1      3105 7.47216E-01
 -1      3106 6.16516E-01
 -1      3107 8.46518E-01
 -1      3108 9.51552E-01
 -1      3109 8.00317E-01
 -1      3110 1.08431E+00
 -1      3111 1.20017E+00
 -1      3112 1.03237E+00
 -1      3113 1.39410E+00
 -1      3114 1.51245E+00
 -1      3115 1.35905E+00
 -1      3116 1.77972E+00
 -1      3117 1.94558E+00
 -1      3118 1.82026E+00
 -1      3119 2.18574E+00
 -1      3120 2.44893E+00
 -1      3121 2.32769E+00
 -1      3122 3.01681E+00
 -1      3123 3.27206E+00
 -1      3124 3.13573E+00
 -1      3125 3.22115E+00
 -1      3126 3.53592E+00
 -1      3127 3.65270E+00
 -1      3128 4.28100E+00
 -1      3129 4.41628E+00
 -1      3130 5.28274E+00
 -1      3131 5.23452E+00
 -1      3132 3.94176E+00
 -1      3133 3.74630E+00
 -1      3134 6.25115E+00
 -1      3135 2.70949E+00
 -1      3136 2.42240E+00
 -1      3137 3.92158E+00
 -1      3138 2.12603E+00
 -1      3139 1.92089E+00
 -1      3140 2.58840E+00
 -1      3141 1.63293E+00
 -1      3142 1.52010E+00
 -1      3143 2.00406E+00
 -1      3144 1.29956E+00
 -1      3145 1.18617E+00
 -1      3146 1.49556E+00
 -1      3147 1.04840E+00
 -1      3148 9.45590E-01
 -1      3149 1.13725E+00
 -1      3150 8.45497E-01
 -1      3151 7.56454E-01
 -1      3152 8.99389E-01
 -1      3153 6.76619E-01
 -1      3154 6.01626E-01
 -1      3155 7.19462E-01
 -1      3156 5.31991E-01
 -1      3157 4.69788E-01
 -1      3158 5.69992E-01
 -1      3159 4.11446E-01
 -1      3160 3.60565E-01
 -1      3161 4.42016E-01
 -1      3162 3.13031E-01
 -1      3163 2.71979E-01
 -1      3164 3.36140E-01
 -1      3165 2.34092E-01
 -1      3166 2.01438E-01
 -1      3167 2.50719E-01
 -1      3168 1.71803E-01
 -1      3169 1.46218E-01
 -1      3170 1.83196E-01
 -1      3171 1.23619E-01
 -1      3172 1.03889E-01
 -1      3173 1.30961E-01
 -1      3174 8.75290E-02
 -1      3175 7.26058E-02
 -1      3176 9.20026E-02
 -1      3177 6.01939E-02
 -1      3178 4.68397E-02
 -1      3179 4.09332E-02
 -1      3180 6.32307E-02
 -1      3181 2.50566E-01
 -1      3182 2.76951E-01
 -1      3183 2.17394E-01
 -1      3184 1.83274E-01
 -1      3185 1.48766E-01
 -1      3186 1.43439E-01
 -1      3187 1.47019E-01
 -1      3188 4.35945E-01
 -1      3189 3.79504E-01
 -1      3190 5.55323E-01
 -1      3191 5.00741E-01
 -1      3192 4.60960E-01
 -1      3193 6.73854E-01
 -1      3194 6.26866E-01
 -1      3195 5.97299E-01
 -1      3196 8.00572E-01
 -1      3197 7.49225E-01
 -1      3198 7.44213E-01
 -1      3199 9.42163E-01
 -1      3200 8.72170E-01
 -1      3201 8.91182E-01
 -1      3202 1.13099E+00
 -1      3203 1.07402E+00
 -1      3204 1.09464E+00
 -1      3205 1.31521E+00
 -1      3206 1.28398E+00
 -1      3207 1.37949E+00
 -1      3208 1.64346E+00
 -1      3209 1.47790E+00
 -1      3210 1.69517E+00
 -1      3211 1.64907E+00
 -1      3212 1.59711E+00
 -1      3213 1.81152E+00
 -1      3214 1.97350E+00
 -1      3215 1.79282E+00
 -1      3216 1.90892E+00
 -1      3217 2.04349E+00
 -1      3218 1.94612E+00
 -1      3219 2.02528E+00
 -1      3220 3.35833E+00
 -1      3221 3.79502E+00
 -1      3222 3.35358E+00
 -1      3223 3.39164E+00
 -1      3224 2.12302E+00
 -1      3225 2.48952E+00
 -1      3226 2.09565E+00
 -1      3227 2.14549E+00
 -1      3228 2.58528E+00
 -1      3229 1.98371E+00
 -1      3230 2.05948E+00
 -1      3231 2.57158E+00
 -1      3232 1.64457E+00
 -1      3233 1.71016E+00
 -1      3234 2.26186E+00
 -1      3235 1.32883E+00
 -1      3236 1.47222E+00
 -1      3237 1.81595E+00
 -1      3238 1.18328E+00
 -1      3239 1.21267E+00
 -1      3240 1.52743E+00
 -1      3241 9.96311E-01
 -1      3242 1.05207E+00
 -1      3243 1.28007E+00
 -1      3244 8.45813E-01
 -1      3245 8.88702E-01
 -1      3246 1.04125E+00
 -1      3247 7.44177E-01
 -1      3248 7.80336E-01
 -1      3249 8.68169E-01
 -1      3250 6.32274E-01
 -1      3251 6.78096E-01
 -1      3252 7.36611E-01
 -1      3253 5.21919E-01
 -1      3254 5.72185E-01
 -1      3255 6.10441E-01
 -1      3256 4.18283E-01
 -1      3257 4.66967E-01
 -1      3258 4.95400E-01
 -1      3259 3.28594E-01
 -1      3260 3.71095E-01
 -1      3261 3.93259E-01
 -1      3262 2.54424E-01
 -1      3263 2.89943E-01
 -1      3264 3.07420E-01
 -1      3265 1.93832E-01
 -1      3266 2.22701E-01
 -1      3267 2.37045E-01
 -1      3268 1.44702E-01
 -1      3269 1.68227E-01
 -1      3270 1.79717E-01
 -1      3271 1.05724E-01
 -1      3272 1.24385E-01
 -1      3273 1.33796E-01
 -1      3274 7.56550E-02
 -1      3275 9.00827E-02
 -1      3276 9.78377E-02
 -1      3277 5.18759E-02
 -1      3278 6.31113E-02
 -1      3279 6.96531E-02
 -1      3280 3.55633E-02
 -1      3281 4.35520E-02
 -1      3282 4.87856E-02
 -1      3283 3.52155E-02
 -1      3284 5.27975E-02
 -1      3285 5.27975E-02
 -1      3286 2.41243E+00
 -1      3287 2.76719E+00
 -1      3288 5.19386E-02
 -1      3289 5.18101E-02
 -1      3290 6.00733E-02
 -1      3291 4.72174E+00
 -1      3292 4.89669E+00
 -1      3293 4.92999E+00
 -1      3294 4.29091E+00
 -1      3295 1.18200E+01
 -1      3296 1.20841E+01
 -1      3297 3.13331E-01
 -1      3298 3.03252E-01
 -1      3299 1.07477E+01
 -1      3300 1.26224E+01
 -1      3301 2.99048E-01
 -1      3302 3.43409E-01
 -1      3303 2.33553E-01
 -1      3304 1.14428E+01
 -1      3305 1.00653E+01
 -1      3306 5.57140E+00
 -1      3307 5.14180E-02
 -1      3308 5.27975E-02
 -1      3309 6.09322E-02
 -1      3310 4.19148E-02
 -1      3311 4.68570E-02
 -1      3312 5.63712E-02
 -1      3313 3.22155E-01
 -1      3314 2.67363E-01
 -1      3315 2.31497E-01
 -1      3316 3.38815E-01
 -1      3317 3.95886E-01
 -1      3318 3.03962E-01
 -1      3319 2.55633E-01
 -1      3320 3.82633E-01
 -1      3321 6.75043E+00
 -1      3322 7.60675E+00
 -1      3323 5.05428E+00
 -1      3324 2.85604E-01
 -1      3325 2.70390E-01
 -1      3326 1.98561E-01
 -1      3327 1.23720E+01
 -1      3328 1.31168E+01
 -1      3329 8.19675E+00
 -1      3330 7.40251E+00
 -1      3331 5.06806E+00
 -1      3332 6.64032E+00
 -1      3333 8.30531E+00
 -1      3334 6.06237E+00
 -1      3335 8.29854E+00
 -1      3336 9.65306E+00
 -1      3337 6.51987E+00
 -1      3338 1.28615E+01
 -1      3339 1.23720E+01
 -1      3340 1.03313E+01
 -1      3341 3.42685E+00
 -1      3342 2.85968E+00
 -1      3343 1.28356E+01
 -1      3344 1.08323E+01
 -1      3345 8.65640E+00
 -1      3346 4.28453E+00
 -1      3347 7.74040E+00
 -1      3348 9.47193E+00
 -1      3349 6.20135E+00
 -1      3350 3.30150E+00
 -1      3351 4.29246E+00
 -1      3352 1.07304E+01
 -1      3353 1.18200E+01
 -1      3354 5.95017E+00
 -1      3355 2.96771E-01
 -1      3356 2.96536E-01
 -1      3357 2.69509E-01
 -1      3358 2.59534E-01
 -1      3359 3.17234E-01
 -1      3360 3.17234E-01
 -1      3361 2.74439E-01
 -1      3362 2.92054E-01
 -1      3363 3.10750E-01
 -1      3364 1.00501E+01
 -1      3365 8.57724E+00
 -1      3366 7.54392E+00
 -1      3367 3.16263E-01
 -1      3368 3.16263E-01
 -1      3369 3.68059E+00
 -1      3370 1.94990E-01
 -1      3371 2.20731E-01
 -1      3372 1.81621E-01
 -1      3373 3.09574E-01
 -1      3374 8.35869E+00
 -1      3375 1.08453E-01
 -1      3376 1.39382E-01
 -1      3377 1.71295E-01
 -1      3378 3.79502E+00
 -1      3379 3.36574E+00
 -1      3380 2.72742E+00
 -1      3381 2.68182E+00
 -1      3382 4.25760E+00
 -1      3383 3.42685E+00
 -1      3384 5.15209E-02
 -1      3385 4.94815E-02
 -1      3386 5.18101E-02
 -1      3387 5.18101E-02
 -1      3388 5.89251E-02
 -1      3389 5.92143E-02
 -1      3390 8.57399E+00
 -1      3391 1.12918E+01
 -1      3392 8.95019E+00
 -1      3393 5.14133E+00
 -1      3394 9.36625E+00
 -1      3395 8.67447E+00
 -1      3396 1.14438E+01
 -1      3397 8.91362E+00
 -1      3398 1.01187E+01
 -1      3399 5.63728E+00
 -1      3400 5.30689E+00
 -1      3401 3.16346E-01
 -1      3402 2.75066E-01
 -1      3403 3.12530E-01
 -1      3404 2.98859E+00
 -1      3405 4.21270E+00
 -1      3406 5.81457E-02
 -1      3407 4.89914E-02
 -1      3408 4.49736E-02
 -1      3409 2.84598E+00
 -1      3410 3.17583E-01
 -1      3411 3.13331E-01
 -1      3412 2.75990E-01
 -1      3413 2.75641E-01
 -1      3414 2.22262E-01
 -1      3415 4.71494E+00
 -1      3416 2.88215E+00
 -1      3417 3.37693E-01
 -1      3418 3.70997E-01
 -1      3419 2.55854E-01
 -1      3420 2.49933E-01
 -1      3421 3.86846E-02
 -1      3422 3.91705E-02
 -1      3423 4.90658E-02
 -1      3424 4.85701E-02
 -1      3425 6.67236E+00
 -1      3426 9.11377E+00
 -1      3427 7.74966E+00
 -1      3428 2.96595E+00
 -1      3429 3.01888E-01
 -1      3430 8.35748E+00
 -1      3431 6.59750E+00
 -1      3432 3.88981E-02
 -1      3433 3.77369E-02
 -1      3434 4.29831E-02
 -1      3435 5.15800E-02
 -1      3436 4.95311E+00
 -1      3437 3.66129E+00
 -1      3438 1.39900E-01
 -1      3439 1.12839E-01
 -1      3440 1.26924E-01
 -1      3441 1.32505E-01
 -1      3442 1.28530E-01
 -1      3443 1.48213E-01
 -1      3444 1.72074E-01
 -1      3445 1.58323E-01
 -1      3446 2.07040E-01
 -1      3447 2.52524E-01
 -1      3448 2.08998E-01
 -1      3449 3.11310E-01
 -1      3450 3.71999E-01
 -1      3451 3.02749E-01
 -1      3452 4.44082E-01
 -1      3453 5.18860E-01
 -1      3454 4.33619E-01
 -1      3455 6.07238E-01
 -1      3456 6.91737E-01
 -1      3457 5.94082E-01
 -1      3458 8.00317E-01
 -1      3459 8.99619E-01
 -1      3460 7.91040E-01
 -1      3461 1.03237E+00
 -1      3462 1.16513E+00
 -1      3463 1.03237E+00
 -1      3464 1.32712E+00
 -1      3465 1.52105E+00
 -1      3466 1.32712E+00
 -1      3467 1.83155E+00
 -1      3468 2.09883E+00
 -1      3469 1.79962E+00
 -1      3470 3.50578E+00
 -1      3471 3.74594E+00
 -1      3472 3.51707E+00
 -1      3473 4.76585E+00
 -1      3474 7.12020E-02
 -1      3475 7.12020E-02
 -1      3476 4.52506E+00
 -1      3477 3.48826E+00
 -1      3478 3.50171E+00
 -1      3479 3.20533E+00
 -1      3480 4.10520E+00
 -1      3481 2.30145E+00
 -1      3482 2.01349E+00
 -1      3483 3.21477E+00
 -1      3484 1.67092E+00
 -1      3485 1.45038E+00
 -1      3486 1.96831E+00
 -1      3487 1.27430E+00
 -1      3488 1.13652E+00
 -1      3489 1.44965E+00
 -1      3490 9.99482E-01
 -1      3491 8.99389E-01
 -1      3492 1.13652E+00
 -1      3493 7.89542E-01
 -1      3494 7.09707E-01
 -1      3495 8.89635E-01
 -1      3496 6.21885E-01
 -1      3497 5.52251E-01
 -1      3498 6.91965E-01
 -1      3499 4.82301E-01
 -1      3500 4.23958E-01
 -1      3501 5.34193E-01
 -1      3502 3.68419E-01
 -1      3503 3.20885E-01
 -1      3504 4.08704E-01
 -1      3505 2.76984E-01
 -1      3506 2.39097E-01
 -1      3507 3.09263E-01
 -1      3508 2.04639E-01
 -1      3509 1.75004E-01
 -1      3510 2.30905E-01
 -1      3511 1.48201E-01
 -1      3512 1.25603E-01
 -1      3513 1.69645E-01
 -1      3514 1.04828E-01
 -1      3515 8.84679E-02
 -1      3516 1.22068E-01
 -1      3517 8.73156E+00
 -1      3518 8.45033E+00
 -1      3519 6.46227E-01
 -1      3520 5.74684E-01
 -1      3521 5.04468E-01
 -1      3522 4.39672E-01
 -1      3523 5.53396E-01
 -1      3524 1.01104E+00
 -1      3525 9.39443E-01
 -1      3526 1.29731E+00
 -1      3527 1.16545E+00
 -1      3528 1.21371E+00
 -1      3529 1.66130E+00
 -1      3530 1.50832E+00
 -1      3531 1.57913E+00
 -1      3532 2.91513E+00
 -1      3533 2.75243E+00
 -1      3534 2.88126E+00
 -1      3535 2.68009E+00
 -1      3536 2.53634E+00
 -1      3537 3.00648E+00
 -1      3538 3.03386E+00
 -1      3539 1.90968E+00
 -1      3540 2.08203E+00
 -1      3541 1.75256E+00
 -1      3542 1.86872E+00
 -1      3543 2.13480E+00
 -1      3544 1.36842E+00
 -1      3545 1.49963E+00
 -1      3546 1.84091E+00
 -1      3547 1.10057E+00
 -1      3548 1.20818E+00
 -1      3549 1.42774E+00
 -1      3550 8.97392E-01
 -1      3551 9.62869E-01
 -1      3552 1.12980E+00
 -1      3553 7.20221E-01
 -1      3554 7.86302E-01
 -1      3555 8.81002E-01
 -1      3556 5.80562E-01
 -1      3557 6.40651E-01
 -1      3558 6.90342E-01
 -1      3559 4.66158E-01
 -1      3560 5.21110E-01
 -1      3561 5.51320E-01
 -1      3562 3.73394E-01
 -1      3563 4.20582E-01
 -1      3564 4.46293E-01
 -1      3565 2.93335E-01
 -1      3566 3.31986E-01
 -1      3567 3.59309E-01
 -1      3568 2.25758E-01
 -1      3569 2.57482E-01
 -1      3570 2.82048E-01
 -1      3571 1.70166E-01
 -1      3572 1.95770E-01
 -1      3573 2.16207E-01
 -1      3574 1.25406E-01
 -1      3575 1.45723E-01
 -1      3576 1.61776E-01
 -1      3577 8.99574E-02
 -1      3578 1.05598E-01
 -1      3579 1.17526E-01
 -1      3580 6.98074E-02
 -1      3581 8.23510E-02
 -1      3582 9.01117E-02
 -1      3583 6.58835E-02
 -1      3584 7.04444E-02
 -1      3585 8.07142E-02
 -1      3586 1.83558E-01
 -1      3587 1.49049E-01
 -1      3588 2.83143E+00
 -1      3589 6.63356E+00
 -1      3590 7.90937E+00
 -1      3591 5.31857E+00
 -1      3592 6.01036E+00
 -1      3593 5.47106E+00
 -1      3594 4.25634E+00
 -1      3595 6.25115E+00
 -1      3596 1.88798E-01
 -1      3597 1.64828E-01
 -1      3598 7.12020E-02
 -1      3599 7.03430E-02
 -1      3600 8.14717E-02
 -1      3601 8.73156E+00
 -1      3602 8.73156E+00
 -1      3603 7.13177E+00
 -1      3604 2.92977E+00
 -1      3605 3.02596E-01
 -1      3606 3.12530E-01
 -1      3607 2.75150E-01
 -1      3608 8.07060E-01
 -1      3609 7.31689E-01
 -1      3610 7.09074E-01
 -1      3611 9.26920E-01
 -1      3612 1.66901E-01
 -1      3613 1.67169E-01
 -1      3614 7.17428E+00
 -1      3615 7.17428E+00
 -1      3616 1.56314E-01
 -1      3617 1.39577E-01
 -1      3618 1.14123E-01
 -1      3619 7.93797E+00
 -1      3620 6.82549E+00
 -1      3621 4.80684E+00
 -1      3622 5.90692E+00
 -1      3623 3.01442E+00
 -1      3624 3.90298E+00
 -1      3625 3.60855E+00
 -1      3626 2.62005E+00
 -1      3627 1.79898E-01
 -1      3628 2.01995E-01
 -1      3629 8.61038E+00
 -1      3630 8.61038E+00
 -1      3631 2.05396E-01
 -1      3632 2.21155E-01
 -1      3633 6.84919E+00
 -1      3634 5.09940E+00
 -1      3635 5.81783E+00
 -1      3636 3.68845E+00
 -1      3637 1.60778E-01
 -1      3638 1.24239E-01
 -1      3639 1.20181E-01
 -1      3640 1.33437E-01
 -1      3641 5.55769E+00
 -1      3642 7.17428E+00
 -1      3643 4.98230E+00
 -1      3644 1.28091E-01
 -1      3645 2.69089E-01
 -1      3646 7.08733E+00
 -1      3647 6.29506E+00
 -1      3648 4.89535E+00
 -1      3649 1.44332E-01
 -1      3650 1.97986E-01
 -1      3651 7.19857E-02
 -1      3652 5.95737E-02
 -1      3653 5.73251E-02
 -1      3654 8.48109E-02
 -1      3655 1.24655E-01
 -1      3656 1.90759E-01
 -1      3657 1.78901E-01
 -1      3658 1.40522E-01
 -1      3659 1.79122E-01
 -1      3660 6.85766E-02
 -1      3661 6.82874E-02
 -1      3662 4.23528E-01
 -1      3663 3.80020E-01
 -1      3664 3.22671E-01
 -1      3665 3.50262E+00
 -1      3666 2.73144E+00
 -1      3667 2.77779E+00
 -1      3668 5.14822E+00
 -1      3669 3.83505E+00
 -1      3670 2.44022E+00
 -1      3671 2.34650E+00
 -1      3672 2.14750E+00
 -1      3673 7.31383E+00
 -1      3674 8.30175E-02
 -1      3675 7.33660E-02
 -1      3676 7.28759E-02
 -1      3677 5.13070E-02
 -1      3678 2.21785E-01
 -1      3679 2.23816E-01
 -1      3680 2.71755E-01
 -1      3681 3.15609E+00
 -1      3682 5.23906E+00
 -1      3683 1.67409E-01
 -1      3684 1.35851E-01
 -1      3685 1.37574E-01
 -1      3686 7.97053E-02
 -1      3687 6.85766E-02
 -1      3688 6.85766E-02
 -1      3689 6.00695E-02
 -1      3690 5.14701E+00
 -1      3691 4.86654E+00
 -1      3692 7.59822E+00
 -1      3693 6.41964E+00
 -1      3694 5.65454E+00
 -1      3695 6.40049E-02
 -1      3696 2.60607E-01
 -1      3697 2.36591E-01
 -1      3698 2.30110E-01
 -1      3699 1.92270E-01
 -1      3700 2.36591E-01
 -1      3701 2.36591E-01
 -1      3702 1.97191E-01
 -1      3703 7.41427E-02
 -1      3704 6.61942E+00
 -1      3705 7.44191E+00
 -1      3706 2.03173E-01
 -1      3707 2.12661E-01
 -1      3708 1.40852E-01
 -1      3709 2.12745E-01
 -1      3710 5.86249E+00
 -1      3711 5.60959E+00
 -1      3712 5.11285E+00
 -1      3713 1.63484E-01
 -1      3714 1.79192E-01
 -1      3715 1.99044E-01
 -1      3716 2.34010E-01
 -1      3717 2.04204E-01
 -1      3718 2.76159E-01
 -1      3719 3.34945E-01
 -1      3720 2.66205E-01
 -1      3721 3.96151E-01
 -1      3722 4.68234E-01
 -1      3723 3.69560E-01
 -1      3724 5.46622E-01
 -1      3725 6.35000E-01
 -1      3726 5.09153E-01
 -1      3727 7.38304E-01
 -1      3728 8.46884E-01
 -1      3729 6.90844E-01
 -1      3730 9.88148E-01
 -1      3731 1.12090E+00
 -1      3732 9.35413E-01
 -1      3733 1.32028E+00
 -1      3734 1.48228E+00
 -1      3735 1.27606E+00
 -1      3736 1.75107E+00
 -1      3737 2.06157E+00
 -1      3738 1.74423E+00
 -1      3739 2.90206E+00
 -1      3740 4.30901E+00
 -1      3741 2.85351E+00
 -1      3742 6.23612E-01
 -1      3743 5.53396E-01
 -1      3744 9.06249E-02
 -1      3745 1.26050E-01
 -1      3746 1.22041E-01
 -1      3747 1.42925E-01
 -1      3748 1.35510E-01
 -1      3749 1.24655E-01
 -1      3750 3.72515E+00
 -1      3751 2.82126E+00
 -1      3752 2.44430E+00
 -1      3753 2.10173E+00
 -1      3754 2.95468E+00
 -1      3755 1.62574E+00
 -1      3756 1.44965E+00
 -1      3757 2.10173E+00
 -1      3758 1.23017E+00
 -1      3759 1.09313E+00
 -1      3760 1.40626E+00
 -1      3761 9.42509E-01
 -1      3762 8.32662E-01
 -1      3763 1.03616E+00
 -1      3764 7.24456E-01
 -1      3765 6.36634E-01
 -1      3766 7.77331E-01
 -1      3767 5.56589E-01
 -1      3768 4.86639E-01
 -1      3769 5.89080E-01
 -1      3770 4.25881E-01
 -1      3771 3.70342E-01
 -1      3772 4.48277E-01
 -1      3773 3.23427E-01
 -1      3774 2.79525E-01
 -1      3775 3.40604E-01
 -1      3776 2.42981E-01
 -1      3777 2.08524E-01
 -1      3778 2.57144E-01
 -1      3779 1.79957E-01
 -1      3780 1.53154E-01
 -1      3781 1.92033E-01
 -1      3782 1.35673E-01
 -1      3783 1.14898E-01
 -1      3784 1.45985E-01
 -1      3785 2.03071E+00
 -1      3786 1.81970E+00
 -1      3787 1.37263E+00
 -1      3788 1.21822E+00
 -1      3789 1.82421E+00
 -1      3790 3.34408E+00
 -1      3791 1.80899E-01
 -1      3792 2.35036E-01
 -1      3793 2.35385E-01
 -1      3794 2.74570E+00
 -1      3795 2.78666E+00
 -1      3796 3.95499E+00
 -1      3797 1.11456E+00
 -1      3798 1.25226E+00
 -1      3799 8.62682E-01
 -1      3800 9.73773E-01
 -1      3801 1.09624E+00
 -1      3802 6.81095E-01
 -1      3803 7.60665E-01
 -1      3804 8.53435E-01
 -1      3805 5.51320E-01
 -1      3806 6.10772E-01
 -1      3807 6.81095E-01
 -1      3808 4.44396E-01
 -1      3809 4.89972E-01
 -1      3810 5.49423E-01
 -1      3811 3.51070E-01
 -1      3812 3.92478E-01
 -1      3813 4.36157E-01
 -1      3814 2.72107E-01
 -1      3815 3.07960E-01
 -1      3816 3.41129E-01
 -1      3817 2.06869E-01
 -1      3818 2.36857E-01
 -1      3819 2.62768E-01
 -1      3820 1.54028E-01
 -1      3821 1.78470E-01
 -1      3822 1.99120E-01
 -1      3823 1.12130E-01
 -1      3824 1.31938E-01
 -1      3825 1.48632E-01
 -1      3826 5.80672E+00
 -1      3827 5.29436E+00
 -1      3828 5.28434E+00
 -1      3829 5.92549E+00
 -1      3830 5.74343E+00
 -1      3831 5.52854E+00
 -1      3832 2.28543E-01
 -1      3833 2.34604E-01
 -1      3834 1.95625E-01
 -1      3835 9.51319E-02
 -1      3836 9.51319E-02
 -1      3837 1.47179E+00
 -1      3838 1.63204E+00
 -1      3839 1.45656E+00
 -1      3840 1.11917E-01
 -1      3841 1.35612E-01
 -1      3842 1.27703E-01
 -1      3843 1.96537E+00
 -1      3844 2.21829E+00
 -1      3845 2.00942E+00
 -1      3846 1.15675E-01
 -1      3847 1.15998E-01
 -1      3848 1.26530E-01
 -1      3849 5.92838E+00
 -1      3850 5.92838E+00
 -1      3851 4.60332E+00
 -1      3852 1.31242E-01
 -1      3853 1.45327E-01
 -1      3854 1.66196E-01
 -1      3855 1.32795E-01
 -1      3856 6.30899E+00
 -1      3857 5.96918E+00
 -1      3858 7.00805E-02
 -1      3859 2.34604E-01
 -1      3860 2.34604E-01
 -1      3861 1.94058E-01
 -1      3862 4.68163E+00
 -1      3863 7.79389E-02
 -1      3864 4.30016E+00
 -1      3865 1.04230E-01
 -1      3866 4.29764E+00
 -1      3867 4.95316E+00
 -1      3868 8.53008E-02
 -1      3869 6.07449E+00
 -1      3870 4.60176E+00
 -1      3871 4.58783E+00
 -1      3872 2.60367E-01
 -1      3873 2.22139E-01
 -1      3874 4.70152E+00
 -1      3875 5.77777E+00
 -1      3876 4.20737E+00
 -1      3877 4.33815E+00
 -1      3878 7.02785E-01
 -1      3879 7.02785E-01
 -1      3880 7.88247E-01
 -1      3881 1.85936E-01
 -1      3882 1.61125E-01
 -1      3883 2.22487E-01
 -1      3884 9.29071E-02
 -1      3885 5.53396E-01
 -1      3886 4.83181E-01
 -1      3887 4.23528E-01
 -1      3888 1.24748E-01
 -1      3889 1.02456E-01
 -1      3890 1.12258E-01
 -1      3891 4.11762E+00
 -1      3892 4.03066E+00
 -1      3893 4.11762E+00
 -1      3894 1.42925E-01
 -1      3895 1.21400E-01
 -1      3896 3.12960E-01
 -1      3897 2.87016E+00
 -1      3898 8.96591E-02
 -1      3899 9.47377E-02
 -1      3900 1.04988E-01
 -1      3901 1.72199E-01
 -1      3902 1.60354E-01
 -1      3903 1.58788E-01
 -1      3904 9.26643E-02
 -1      3905 9.08979E-02
 -1      3906 1.06325E-01
 -1      3907 1.18648E-01
 -1      3908 4.72958E+00
 -1      3909 4.48093E+00
 -1      3910 4.16977E+00
 -1      3911 3.52791E+00
 -1      3912 3.19686E+00
 -1      3913 1.04589E+00
 -1      3914 9.13505E-01
 -1      3915 9.07215E-01
 -1      3916 1.16400E-01
 -1      3917 1.16400E-01
 -1      3918 1.28120E-01
 -1      3919 1.29359E-01
 -1      3920 3.90665E+00
 -1      3921 4.54003E+00
 -1      3922 5.92838E+00
 -1      3923 4.72498E+00
 -1      3924 1.95985E-01
 -1      3925 1.63695E-01
 -1      3926 1.63695E-01
 -1      3927 1.26858E-01
 -1      3928 3.43722E+00
 -1      3929 2.34609E+00
 -1      3930 2.58667E+00
 -1      3931 1.20480E+00
 -1      3932 3.11963E-01
 -1      3933 3.10286E-01
 -1      3934 3.62879E-01
 -1      3935 2.53352E-01
 -1      3936 2.95501E-01
 -1      3937 3.32629E-01
 -1      3938 3.93834E-01
 -1      3939 3.19775E-01
 -1      3940 4.40332E-01
 -1      3941 5.18719E-01
 -1      3942 4.03400E-01
 -1      3943 5.91077E-01
 -1      3944 6.94381E-01
 -1      3945 5.22255E-01
 -1      3946 8.03046E-01
 -1      3947 9.44310E-01
 -1      3948 7.03278E-01
 -1      3949 1.10897E+00
 -1      3950 1.30835E+00
 -1      3951 9.76603E-01
 -1      3952 1.56477E+00
 -1      3953 1.83356E+00
 -1      3954 1.39768E+00
 -1      3955 2.36460E+00
 -1      3956 3.20508E+00
 -1      3957 2.18513E+00
 -1      3958 1.20523E-01
 -1      3959 1.22485E-01
 -1      3960 1.11381E-01
 -1      3961 3.76247E+00
 -1      3962 2.50392E+00
 -1      3963 2.02793E+00
 -1      3964 1.43918E+00
 -1      3965 1.21970E+00
 -1      3966 1.84138E+00
 -1      3967 1.04107E+00
 -1      3968 8.90449E-01
 -1      3969 1.07399E+00
 -1      3970 7.71601E-01
 -1      3971 6.63396E-01
 -1      3972 7.76514E-01
 -1      3973 5.81875E-01
 -1      3974 5.01830E-01
 -1      3975 5.76146E-01
 -1      3976 4.42652E-01
 -1      3977 3.81895E-01
 -1      3978 4.35447E-01
 -1      3979 3.37217E-01
 -1      3980 2.90301E-01
 -1      3981 3.31592E-01
 -1      3982 2.55822E-01
 -1      3983 2.19277E-01
 -1      3984 2.52434E-01
 -1      3985 1.92621E-01
 -1      3986 1.64054E-01
 -1      3987 1.91298E-01
 -1      3988 1.64618E-01
 -1      3989 1.47137E-01
 -1      3990 1.37282E-01
 -1      3991 1.65206E-01
 -1      3992 1.36498E+00
 -1      3993 1.19265E+00
 -1      3994 6.71792E-01
 -1      3995 7.42115E-01
 -1      3996 1.35388E-01
 -1      3997 1.49269E-01
 -1      3998 4.10670E+00
 -1      3999 4.00002E+00
 -1      4000 8.53435E-01
 -1      4001 9.55452E-01
 -1      4002 8.44132E-01
 -1      4003 1.09059E+00
 -1      4004 1.23138E+00
 -1      4005 1.09059E+00
 -1      4006 5.26080E-01
 -1      4007 5.87428E-01
 -1      4008 6.48449E-01
 -1      4009 4.09049E-01
 -1      4010 4.60967E-01
 -1      4011 4.98972E-01
 -1      4012 3.15191E-01
 -1      4013 3.58301E-01
 -1      4014 3.83111E-01
 -1      4015 2.40149E-01
 -1      4016 2.75399E-01
 -1      4017 2.92571E-01
 -1      4018 1.80483E-01
 -1      4019 2.08881E-01
 -1      4020 2.21512E-01
 -1      4021 1.40701E-01
 -1      4022 1.62791E-01
 -1      4023 1.72553E-01
 -1      4024 1.07319E-01
 -1      4025 2.66945E+00
 -1      4026 3.84924E+00
 -1      4027 3.55076E+00
 -1      4028 2.97575E+00
 -1      4029 3.67242E+00
 -1      4030 1.27175E-01
 -1      4031 1.53670E-01
 -1      4032 1.93852E+00
 -1      4033 2.15805E+00
 -1      4034 1.93287E+00
 -1      4035 3.13959E+00
 -1      4036 1.36098E-01
 -1      4037 1.27833E-01
 -1      4038 1.28918E-01
 -1      4039 1.61256E-01
 -1      4040 2.46821E+00
 -1      4041 2.80154E+00
 -1      4042 3.12825E+00
 -1      4043 2.95017E+00
 -1      4044 1.15872E-01
 -1      4045 1.06892E-01
 -1      4046 1.62489E-01
 -1      4047 1.63695E-01
 -1      4048 1.30199E-01
 -1      4049 1.16978E-01
 -1      4050 2.16498E+00
 -1      4051 1.71790E+00
 -1      4052 1.70574E+00
 -1      4053 2.59878E+00
 -1      4054 2.82421E+00
 -1      4055 2.04700E-01
 -1      4056 2.24551E-01
 -1      4057 2.53847E-01
 -1      4058 1.64085E-01
 -1      4059 1.64085E-01
 -1      4060 1.28815E-01
 -1      4061 3.67541E+00
 -1      4062 3.82313E+00
 -1      4063 4.00807E+00
 -1      4064 2.71790E+00
 -1      4065 2.46831E-01
 -1      4066 2.10628E-01
 -1      4067 6.06801E-01
 -1      4068 5.36585E-01
 -1      4069 2.52499E+00
 -1      4070 1.65771E-01
 -1      4071 1.37282E-01
 -1      4072 1.34814E-01
 -1      4073 1.01135E-01
 -1      4074 1.02437E-01
 -1      4075 1.15657E-01
 -1      4076 3.42906E-01
 -1      4077 2.91310E-01
 -1      4078 2.79451E-01
 -1      4079 1.13961E-01
 -1      4080 1.28120E-01
 -1      4081 1.67245E-01
 -1      4082 1.85402E-01
 -1      4083 2.05749E-01
 -1      4084 4.22531E-01
 -1      4085 1.64784E-01
 -1      4086 3.67242E+00
 -1      4087 1.34811E-01
 -1      4088 7.02693E-01
 -1      4089 6.85881E-01
 -1      4090 7.81866E-01
 -1      4091 3.59340E+00
 -1      4092 3.82791E+00
 -1      4093 3.09835E+00
 -1      4094 1.19917E-01
 -1      4095 1.30575E-01
 -1      4096 1.45820E-01
 -1      4097 1.15173E-01
 -1      4098 1.54860E-01
 -1      4099 4.09506E+00
 -1      4100 3.87449E+00
 -1      4101 3.31733E+00
 -1      4102 1.03247E+00
 -1      4103 9.07215E-01
 -1      4104 9.07123E-01
 -1      4105 1.09875E-01
 -1      4106 1.15173E-01
 -1      4107 9.62332E-02
 -1      4108 1.14868E-01
 -1      4109 1.11528E-01
 -1      4110 9.78855E-02
 -1      4111 1.19265E+00
 -1      4112 3.93926E-01
 -1      4113 4.40423E-01
 -1      4114 4.96413E-01
 -1      4115 5.68771E-01
 -1      4116 4.86938E-01
 -1      4117 6.45721E-01
 -1      4118 7.54386E-01
 -1      4119 6.19878E-01
 -1      4120 8.67174E-01
 -1      4121 1.03183E+00
 -1      4122 8.09616E-01
 -1      4123 1.24221E+00
 -1      4124 1.49863E+00
 -1      4125 1.13278E+00
 -1      4126 2.09470E+00
 -1      4127 2.62574E+00
 -1      4128 1.93924E+00
 -1      4129 5.15619E-01
 -1      4130 4.62214E-01
 -1      4131 4.01565E-01
 -1      4132 2.57142E+00
 -1      4133 2.47655E+00
 -1      4134 3.62398E+00
 -1      4135 1.91052E+00
 -1      4136 1.32177E+00
 -1      4137 1.95695E+00
 -1      4138 1.10865E+00
 -1      4139 9.30024E-01
 -1      4140 1.17780E+00
 -1      4141 7.90767E-01
 -1      4142 6.71919E-01
 -1      4143 8.25428E-01
 -1      4144 5.77960E-01
 -1      4145 4.96439E-01
 -1      4146 5.92212E-01
 -1      4147 4.36770E-01
 -1      4148 3.77593E-01
 -1      4149 4.38584E-01
 -1      4150 3.34705E-01
 -1      4151 2.90027E-01
 -1      4152 3.36029E-01
 -1      4153 2.56521E-01
 -1      4154 2.22041E-01
 -1      4155 2.59634E-01
 -1      4156 1.95185E-01
 -1      4157 1.68528E-01
 -1      4158 1.99271E-01
 -1      4159 1.69093E-01
 -1      4160 4.66056E-01
 -1      4161 5.31169E-01
 -1      4162 2.49440E-01
 -1      4163 2.78241E-01
 -1      4164 2.02747E+00
 -1      4165 1.67455E+00
 -1      4166 6.25128E-01
 -1      4167 7.09492E-01
 -1      4168 5.92212E-01
 -1      4169 1.17319E+00
 -1      4170 1.30832E+00
 -1      4171 3.49601E-01
 -1      4172 4.00349E-01
 -1      4173 4.32546E-01
 -1      4174 2.62347E-01
 -1      4175 3.02139E-01
 -1      4176 3.19377E-01
 -1      4177 1.95743E-01
 -1      4178 2.27010E-01
 -1      4179 2.36578E-01
 -1      4180 1.54860E-01
 -1      4181 1.72553E-01
 -1      4182 1.78051E-01
 -1      4183 3.13628E-01
 -1      4184 3.50756E-01
 -1      4185 3.09222E-01
 -1      4186 1.79919E+00
 -1      4187 2.50633E+00
 -1      4188 1.88179E+00
 -1      4189 1.19917E-01
 -1      4190 1.20482E-01
 -1      4191 1.10255E-01
 -1      4192 1.10236E-01
 -1      4193 8.48749E-01
 -1      4194 9.60068E-01
 -1      4195 1.17780E+00
 -1      4196 8.25428E-01
 -1      4197 2.43911E+00
 -1      4198 1.14868E-01
 -1      4199 1.14868E-01
 -1      4200 9.95379E-02
 -1      4201 1.00327E-01
 -1      4202 2.10628E-01
 -1      4203 1.86284E-01
 -1      4204 1.61256E-01
 -1      4205 1.54860E-01
 -1      4206 1.34799E+00
 -1      4207 1.18782E+00
 -1      4208 1.66972E+00
 -1      4209 3.66000E+00
 -1      4210 7.20126E-01
 -1      4211 6.24234E-01
 -1      4212 3.45128E+00
 -1      4213 2.67743E+00
 -1      4214 2.02443E-01
 -1      4215 2.21740E-01
 -1      4216 2.46135E-01
 -1      4217 5.36359E-01
 -1      4218 4.61988E-01
 -1      4219 5.70604E-01
 -1      4220 2.90707E+00
 -1      4221 2.98455E+00
 -1      4222 1.69093E-01
 -1      4223 2.83191E+00
 -1      4224 2.96559E+00
 -1      4225 1.38523E-01
 -1      4226 1.31213E-01
 -1      4227 1.30087E-01
 -1      4228 1.63551E-01
 -1      4229 3.82589E-01
 -1      4230 2.40791E+00
 -1      4231 3.87778E-01
 -1      4232 1.65026E-01
 -1      4233 1.60316E-01
 -1      4234 3.11292E-01
 -1      4235 2.66813E-01
 -1      4236 3.04894E+00
 -1      4237 1.08953E-01
 -1      4238 1.07301E-01
 -1      4239 1.30984E-01
 -1      4240 2.34972E-01
 -1      4241 2.10628E-01
 -1      4242 2.66813E-01
 -1      4243 9.70749E-01
 -1      4244 8.45399E-01
 -1      4245 7.83752E-01
 -1      4246 1.60316E-01
 -1      4247 1.12609E+00
 -1      4248 2.26579E+00
 -1      4249 2.95851E+00
 -1      4250 6.00704E-01
 -1      4251 6.77654E-01
 -1      4252 8.02927E-01
 -1      4253 9.15715E-01
 -1      4254 1.13278E+00
 -1      4255 1.34316E+00
 -1      4256 1.66972E+00
 -1      4257 3.27575E+00
 -1      4258 2.44782E+00
 -1      4259 1.88179E+00
 -1      4260 1.39092E+00
 -1      4261 1.17780E+00
 -1      4262 9.64684E-01
 -1      4263 8.25428E-01
 -1      4264 6.86171E-01
 -1      4265 5.92212E-01
 -1      4266 4.98253E-01
 -1      4267 4.38584E-01
 -1      4268 3.72877E-01
 -1      4269 3.29990E-01
 -1      4270 2.82528E-01
 -1      4271 2.49021E-01
 -1      4272 2.13685E-01
 -1      4273 1.86829E-01
 -1      4274 1.63638E-01
 -1      4275 2.86245E-01
 -1      4276 3.21632E-01
 -1      4277 4.05470E-01
 -1      4278 3.46811E-01
 -1      4279 3.34173E-01
 -1      4280 4.26210E-01
 -1      4281 1.17929E-01
 -1      4282 1.08809E-01
 -1      4283 1.08020E-01
 -1      4284 3.57150E-01
 -1      4285 4.00320E-01
 -1      4286 1.45146E-01
 -1      4287 1.66572E-01
 -1      4288 1.82563E-01
 -1      4289 1.32530E-01
 -1      4290 4.56838E-01
 -1      4291 5.12828E-01
 -1      4292 2.54403E-01
 -1      4293 2.26703E-01
 -1      4294 1.32530E-01
 -1      4295 1.46692E-01
 -1      4296 1.36924E-01
 -1      4297 1.26193E-01
 -1      4298 1.24766E-01
 -1      4299 1.08020E-01
 -1      4300 1.17435E-01
 -1      4301 1.76217E-01
 -1      4302 1.53484E-01
 -1      4303 1.49590E-01
 -1      4304 2.00561E-01
 -1      4305 1.31597E-01
 -1      4306 1.39861E-01
 -1      4307 1.56421E-01
 -1      4308 1.92293E-01
 -1      4309 2.00561E-01
 -1      4310 1.66151E-01
 -1      4311 1.56421E-01
 -1      4312 1.49590E-01
 -3
 9999
