    1C
    1UUSER                                                              
    1UDATE              27.october.2022                                 
    1UTIME              01:05:30                                        
    1UHOST                                                              
    1UPGM               CalculiX                                        
    1UVERSION           Version 2.17                             
    1UCOMPILETIME       Thu Jul 23 21:43:50 CEST 2020                    
    1UDIR                                                               
    1UDBN                                                               
    1UMAT    1SOLIDMATERIAL                                             
    2C                          4345                                     1
 -1         1 1.10239E+02 3.09091E+01 0.00000E+00
 -1         2 1.13435E+02 2.50323E+01 0.00000E+00
 -1         3 1.50000E+02 0.00000E+00 0.00000E+00
 -1         4 1.50000E+02 5.00000E+01 0.00000E+00
 -1         5 0.00000E+00 0.00000E+00 0.00000E+00
 -1         6 0.00000E+00 5.00000E+01 0.00000E+00
 -1         7 0.00000E+00 4.70500E+01 0.00000E+00
 -1         8 0.00000E+00 4.41000E+01 0.00000E+00
 -1         9 0.00000E+00 4.11500E+01 0.00000E+00
 -1        10 0.00000E+00 3.82000E+01 0.00000E+00
 -1        11 0.00000E+00 3.52500E+01 0.00000E+00
 -1        12 0.00000E+00 3.23500E+01 0.00000E+00
 -1        13 0.00000E+00 2.94000E+01 0.00000E+00
 -1        14 0.00000E+00 2.64500E+01 0.00000E+00
 -1        15 0.00000E+00 2.35000E+01 0.00000E+00
 -1        16 0.00000E+00 2.05500E+01 0.00000E+00
 -1        17 0.00000E+00 1.76000E+01 0.00000E+00
 -1        18 0.00000E+00 1.47000E+01 0.00000E+00
 -1        19 0.00000E+00 1.17500E+01 0.00000E+00
 -1        20 0.00000E+00 8.80000E+00 0.00000E+00
 -1        21 0.00000E+00 5.85000E+00 0.00000E+00
 -1        22 0.00000E+00 2.90000E+00 0.00000E+00
 -1        23 3.15000E+00 5.00000E+01 0.00000E+00
 -1        24 6.15000E+00 5.00000E+01 0.00000E+00
 -1        25 9.15000E+00 5.00000E+01 0.00000E+00
 -1        26 1.21500E+01 5.00000E+01 0.00000E+00
 -1        27 1.51500E+01 5.00000E+01 0.00000E+00
 -1        28 1.81500E+01 5.00000E+01 0.00000E+00
 -1        29 2.11500E+01 5.00000E+01 0.00000E+00
 -1        30 2.41500E+01 5.00000E+01 0.00000E+00
 -1        31 2.71500E+01 5.00000E+01 0.00000E+00
 -1        32 3.01500E+01 5.00000E+01 0.00000E+00
 -1        33 3.31500E+01 5.00000E+01 0.00000E+00
 -1        34 3.61500E+01 5.00000E+01 0.00000E+00
 -1        35 3.91500E+01 5.00000E+01 0.00000E+00
 -1        36 4.21500E+01 5.00000E+01 0.00000E+00
 -1        37 4.51500E+01 5.00000E+01 0.00000E+00
 -1        38 4.81500E+01 5.00000E+01 0.00000E+00
 -1        39 5.11500E+01 5.00000E+01 0.00000E+00
 -1        40 5.41500E+01 5.00000E+01 0.00000E+00
 -1        41 5.71500E+01 5.00000E+01 0.00000E+00
 -1        42 6.01500E+01 5.00000E+01 0.00000E+00
 -1        43 6.31500E+01 5.00000E+01 0.00000E+00
 -1        44 6.61500E+01 5.00000E+01 0.00000E+00
 -1        45 6.91500E+01 5.00000E+01 0.00000E+00
 -1        46 7.21500E+01 5.00000E+01 0.00000E+00
 -1        47 7.51500E+01 5.00000E+01 0.00000E+00
 -1        48 7.81500E+01 5.00000E+01 0.00000E+00
 -1        49 8.11500E+01 5.00000E+01 0.00000E+00
 -1        50 8.41500E+01 5.00000E+01 0.00000E+00
 -1        51 8.71500E+01 5.00000E+01 0.00000E+00
 -1        52 9.01500E+01 5.00000E+01 0.00000E+00
 -1        53 9.31500E+01 5.00000E+01 0.00000E+00
 -1        54 9.61500E+01 5.00000E+01 0.00000E+00
 -1        55 9.91500E+01 5.00000E+01 0.00000E+00
 -1        56 1.02150E+02 5.00000E+01 0.00000E+00
 -1        57 1.05150E+02 5.00000E+01 0.00000E+00
 -1        58 1.08150E+02 5.00000E+01 0.00000E+00
 -1        59 1.11150E+02 5.00000E+01 0.00000E+00
 -1        60 1.14150E+02 5.00000E+01 0.00000E+00
 -1        61 1.17150E+02 5.00000E+01 0.00000E+00
 -1        62 1.20150E+02 5.00000E+01 0.00000E+00
 -1        63 1.23150E+02 5.00000E+01 0.00000E+00
 -1        64 1.26150E+02 5.00000E+01 0.00000E+00
 -1        65 1.29150E+02 5.00000E+01 0.00000E+00
 -1        66 1.32150E+02 5.00000E+01 0.00000E+00
 -1        67 1.35150E+02 5.00000E+01 0.00000E+00
 -1        68 1.38150E+02 5.00000E+01 0.00000E+00
 -1        69 1.41150E+02 5.00000E+01 0.00000E+00
 -1        70 1.44150E+02 5.00000E+01 0.00000E+00
 -1        71 1.47150E+02 5.00000E+01 0.00000E+00
 -1        72 3.15000E+00 0.00000E+00 0.00000E+00
 -1        73 6.15000E+00 0.00000E+00 0.00000E+00
 -1        74 9.15000E+00 0.00000E+00 0.00000E+00
 -1        75 1.21500E+01 0.00000E+00 0.00000E+00
 -1        76 1.51500E+01 0.00000E+00 0.00000E+00
 -1        77 1.81500E+01 0.00000E+00 0.00000E+00
 -1        78 2.11500E+01 0.00000E+00 0.00000E+00
 -1        79 2.41500E+01 0.00000E+00 0.00000E+00
 -1        80 2.71500E+01 0.00000E+00 0.00000E+00
 -1        81 3.01500E+01 0.00000E+00 0.00000E+00
 -1        82 3.31500E+01 0.00000E+00 0.00000E+00
 -1        83 3.61500E+01 0.00000E+00 0.00000E+00
 -1        84 3.91500E+01 0.00000E+00 0.00000E+00
 -1        85 4.21500E+01 0.00000E+00 0.00000E+00
 -1        86 4.51500E+01 0.00000E+00 0.00000E+00
 -1        87 4.81500E+01 0.00000E+00 0.00000E+00
 -1        88 5.11500E+01 0.00000E+00 0.00000E+00
 -1        89 5.41500E+01 0.00000E+00 0.00000E+00
 -1        90 5.71500E+01 0.00000E+00 0.00000E+00
 -1        91 6.01500E+01 0.00000E+00 0.00000E+00
 -1        92 6.31500E+01 0.00000E+00 0.00000E+00
 -1        93 6.61500E+01 0.00000E+00 0.00000E+00
 -1        94 6.91500E+01 0.00000E+00 0.00000E+00
 -1        95 7.21500E+01 0.00000E+00 0.00000E+00
 -1        96 7.51500E+01 0.00000E+00 0.00000E+00
 -1        97 7.81500E+01 0.00000E+00 0.00000E+00
 -1        98 8.11500E+01 0.00000E+00 0.00000E+00
 -1        99 8.41500E+01 0.00000E+00 0.00000E+00
 -1       100 8.71500E+01 0.00000E+00 0.00000E+00
 -1       101 9.01500E+01 0.00000E+00 0.00000E+00
 -1       102 9.31500E+01 0.00000E+00 0.00000E+00
 -1       103 9.61500E+01 0.00000E+00 0.00000E+00
 -1       104 9.91500E+01 0.00000E+00 0.00000E+00
 -1       105 1.02150E+02 0.00000E+00 0.00000E+00
 -1       106 1.05150E+02 0.00000E+00 0.00000E+00
 -1       107 1.08150E+02 0.00000E+00 0.00000E+00
 -1       108 1.11150E+02 0.00000E+00 0.00000E+00
 -1       109 1.14150E+02 0.00000E+00 0.00000E+00
 -1       110 1.17150E+02 0.00000E+00 0.00000E+00
 -1       111 1.20150E+02 0.00000E+00 0.00000E+00
 -1       112 1.23150E+02 0.00000E+00 0.00000E+00
 -1       113 1.26150E+02 0.00000E+00 0.00000E+00
 -1       114 1.29150E+02 0.00000E+00 0.00000E+00
 -1       115 1.32150E+02 0.00000E+00 0.00000E+00
 -1       116 1.35150E+02 0.00000E+00 0.00000E+00
 -1       117 1.38150E+02 0.00000E+00 0.00000E+00
 -1       118 1.41150E+02 0.00000E+00 0.00000E+00
 -1       119 1.44150E+02 0.00000E+00 0.00000E+00
 -1       120 1.47150E+02 0.00000E+00 0.00000E+00
 -1       121 1.50000E+02 2.95000E+00 0.00000E+00
 -1       122 1.50000E+02 5.90000E+00 0.00000E+00
 -1       123 1.50000E+02 8.85000E+00 0.00000E+00
 -1       124 1.50000E+02 1.18000E+01 0.00000E+00
 -1       125 1.50000E+02 1.47500E+01 0.00000E+00
 -1       126 1.50000E+02 1.76500E+01 0.00000E+00
 -1       127 1.50000E+02 2.06000E+01 0.00000E+00
 -1       128 1.50000E+02 2.35500E+01 0.00000E+00
 -1       129 1.50000E+02 2.65000E+01 0.00000E+00
 -1       130 1.50000E+02 2.94500E+01 0.00000E+00
 -1       131 1.50000E+02 3.24000E+01 0.00000E+00
 -1       132 1.50000E+02 3.53000E+01 0.00000E+00
 -1       133 1.50000E+02 3.82500E+01 0.00000E+00
 -1       134 1.50000E+02 4.12000E+01 0.00000E+00
 -1       135 1.50000E+02 4.41500E+01 0.00000E+00
 -1       136 1.50000E+02 4.71000E+01 0.00000E+00
 -1       137 1.13286E+02 2.35929E+01 0.00000E+00
 -1       138 1.12776E+02 2.20670E+01 0.00000E+00
 -1       139 1.12052E+02 2.08543E+01 0.00000E+00
 -1       140 1.11034E+02 1.97542E+01 0.00000E+00
 -1       141 1.09807E+02 1.88976E+01 0.00000E+00
 -1       142 1.08440E+02 1.83253E+01 0.00000E+00
 -1       143 1.06770E+02 1.80403E+01 0.00000E+00
 -1       144 1.05320E+02 1.81217E+01 0.00000E+00
 -1       145 1.03727E+02 1.85774E+01 0.00000E+00
 -1       146 1.02281E+02 1.93982E+01 0.00000E+00
 -1       147 1.01105E+02 2.04951E+01 0.00000E+00
 -1       148 1.00244E+02 2.17668E+01 0.00000E+00
 -1       149 9.96353E+01 2.33717E+01 0.00000E+00
 -1       150 9.94391E+01 2.48084E+01 0.00000E+00
 -1       151 9.95594E+01 2.63434E+01 0.00000E+00
 -1       152 9.99864E+01 2.77543E+01 0.00000E+00
 -1       153 1.00776E+02 2.91514E+01 0.00000E+00
 -1       154 1.01751E+02 3.02341E+01 0.00000E+00
 -1       155 1.03026E+02 3.11456E+01 0.00000E+00
 -1       156 1.04346E+02 3.17131E+01 0.00000E+00
 -1       157 1.05832E+02 3.20062E+01 0.00000E+00
 -1       158 1.07417E+02 3.19632E+01 0.00000E+00
 -1       159 1.08870E+02 3.15954E+01 0.00000E+00
 -1       160 1.11289E+02 3.00761E+01 0.00000E+00
 -1       161 1.12241E+02 2.89434E+01 0.00000E+00
 -1       162 1.12911E+02 2.76916E+01 0.00000E+00
 -1       163 1.13310E+02 2.63496E+01 0.00000E+00
 -1       164 2.59800E+00 4.55750E+01 0.00000E+00
 -1       165 2.59800E+00 4.26250E+01 0.00000E+00
 -1       166 2.59800E+00 3.96750E+01 0.00000E+00
 -1       167 2.59800E+00 3.67250E+01 0.00000E+00
 -1       168 2.59800E+00 3.38250E+01 0.00000E+00
 -1       169 2.59800E+00 3.08750E+01 0.00000E+00
 -1       170 2.59800E+00 2.79250E+01 0.00000E+00
 -1       171 2.59800E+00 2.49750E+01 0.00000E+00
 -1       172 2.59800E+00 2.20250E+01 0.00000E+00
 -1       173 2.59800E+00 1.90750E+01 0.00000E+00
 -1       174 2.59800E+00 1.61750E+01 0.00000E+00
 -1       175 2.59800E+00 1.32250E+01 0.00000E+00
 -1       176 2.59800E+00 1.02750E+01 0.00000E+00
 -1       177 2.59800E+00 7.32500E+00 0.00000E+00
 -1       178 2.59800E+00 4.37500E+00 0.00000E+00
 -1       179 2.87400E+00 2.18750E+00 0.00000E+00
 -1       180 4.65000E+00 4.74020E+01 0.00000E+00
 -1       181 7.65000E+00 4.74020E+01 0.00000E+00
 -1       182 1.06500E+01 4.74020E+01 0.00000E+00
 -1       183 1.36500E+01 4.74020E+01 0.00000E+00
 -1       184 1.66500E+01 4.74020E+01 0.00000E+00
 -1       185 1.96500E+01 4.74020E+01 0.00000E+00
 -1       186 2.26500E+01 4.74020E+01 0.00000E+00
 -1       187 2.56500E+01 4.74020E+01 0.00000E+00
 -1       188 2.86500E+01 4.74020E+01 0.00000E+00
 -1       189 3.16500E+01 4.74020E+01 0.00000E+00
 -1       190 3.46500E+01 4.74020E+01 0.00000E+00
 -1       191 3.76500E+01 4.74020E+01 0.00000E+00
 -1       192 4.06500E+01 4.74020E+01 0.00000E+00
 -1       193 4.36500E+01 4.74020E+01 0.00000E+00
 -1       194 4.66500E+01 4.74020E+01 0.00000E+00
 -1       195 4.96500E+01 4.74020E+01 0.00000E+00
 -1       196 5.26500E+01 4.74020E+01 0.00000E+00
 -1       197 5.56500E+01 4.74020E+01 0.00000E+00
 -1       198 5.86500E+01 4.74020E+01 0.00000E+00
 -1       199 6.16500E+01 4.74020E+01 0.00000E+00
 -1       200 6.46500E+01 4.74020E+01 0.00000E+00
 -1       201 6.76500E+01 4.74020E+01 0.00000E+00
 -1       202 7.06500E+01 4.74020E+01 0.00000E+00
 -1       203 7.36500E+01 4.74020E+01 0.00000E+00
 -1       204 7.66500E+01 4.74020E+01 0.00000E+00
 -1       205 7.96500E+01 4.74020E+01 0.00000E+00
 -1       206 8.26500E+01 4.74020E+01 0.00000E+00
 -1       207 8.56500E+01 4.74020E+01 0.00000E+00
 -1       208 8.86500E+01 4.74020E+01 0.00000E+00
 -1       209 9.16500E+01 4.74020E+01 0.00000E+00
 -1       210 9.46500E+01 4.74020E+01 0.00000E+00
 -1       211 9.76500E+01 4.74020E+01 0.00000E+00
 -1       212 1.00650E+02 4.74020E+01 0.00000E+00
 -1       213 1.03650E+02 4.74020E+01 0.00000E+00
 -1       214 1.06650E+02 4.74020E+01 0.00000E+00
 -1       215 1.09650E+02 4.74020E+01 0.00000E+00
 -1       216 1.12650E+02 4.74020E+01 0.00000E+00
 -1       217 1.15650E+02 4.74020E+01 0.00000E+00
 -1       218 1.18650E+02 4.74020E+01 0.00000E+00
 -1       219 1.21650E+02 4.74020E+01 0.00000E+00
 -1       220 1.24650E+02 4.74020E+01 0.00000E+00
 -1       221 1.27650E+02 4.74020E+01 0.00000E+00
 -1       222 1.30650E+02 4.74020E+01 0.00000E+00
 -1       223 1.33650E+02 4.74020E+01 0.00000E+00
 -1       224 1.36650E+02 4.74020E+01 0.00000E+00
 -1       225 1.39650E+02 4.74020E+01 0.00000E+00
 -1       226 1.42650E+02 4.74020E+01 0.00000E+00
 -1       227 1.45650E+02 4.74020E+01 0.00000E+00
 -1       228 5.87400E+00 2.18750E+00 0.00000E+00
 -1       229 8.87400E+00 2.18750E+00 0.00000E+00
 -1       230 1.18740E+01 2.18750E+00 0.00000E+00
 -1       231 1.48740E+01 2.18750E+00 0.00000E+00
 -1       232 1.78740E+01 2.18750E+00 0.00000E+00
 -1       233 2.08740E+01 2.18750E+00 0.00000E+00
 -1       234 2.38740E+01 2.18750E+00 0.00000E+00
 -1       235 2.68740E+01 2.18750E+00 0.00000E+00
 -1       236 2.98740E+01 2.18750E+00 0.00000E+00
 -1       237 3.28740E+01 2.18750E+00 0.00000E+00
 -1       238 3.58740E+01 2.18750E+00 0.00000E+00
 -1       239 3.88740E+01 2.18750E+00 0.00000E+00
 -1       240 4.18740E+01 2.18750E+00 0.00000E+00
 -1       241 4.48740E+01 2.18750E+00 0.00000E+00
 -1       242 4.78740E+01 2.18750E+00 0.00000E+00
 -1       243 5.08740E+01 2.18750E+00 0.00000E+00
 -1       244 5.38740E+01 2.18750E+00 0.00000E+00
 -1       245 5.68740E+01 2.18750E+00 0.00000E+00
 -1       246 5.98740E+01 2.18750E+00 0.00000E+00
 -1       247 6.28740E+01 2.18750E+00 0.00000E+00
 -1       248 6.58740E+01 2.18750E+00 0.00000E+00
 -1       249 6.88740E+01 2.18750E+00 0.00000E+00
 -1       250 7.18740E+01 2.18750E+00 0.00000E+00
 -1       251 7.48740E+01 2.18750E+00 0.00000E+00
 -1       252 7.78740E+01 2.18750E+00 0.00000E+00
 -1       253 8.08740E+01 2.18750E+00 0.00000E+00
 -1       254 8.38740E+01 2.18750E+00 0.00000E+00
 -1       255 8.68740E+01 2.18750E+00 0.00000E+00
 -1       256 8.98740E+01 2.18750E+00 0.00000E+00
 -1       257 9.28740E+01 2.18750E+00 0.00000E+00
 -1       258 9.58740E+01 2.18750E+00 0.00000E+00
 -1       259 9.88740E+01 2.18750E+00 0.00000E+00
 -1       260 1.01874E+02 2.18750E+00 0.00000E+00
 -1       261 1.04874E+02 2.18750E+00 0.00000E+00
 -1       262 1.07874E+02 2.18750E+00 0.00000E+00
 -1       263 1.10874E+02 2.18750E+00 0.00000E+00
 -1       264 1.13874E+02 2.18750E+00 0.00000E+00
 -1       265 1.16874E+02 2.18750E+00 0.00000E+00
 -1       266 1.19874E+02 2.18750E+00 0.00000E+00
 -1       267 1.22874E+02 2.18750E+00 0.00000E+00
 -1       268 1.25874E+02 2.18750E+00 0.00000E+00
 -1       269 1.28874E+02 2.18750E+00 0.00000E+00
 -1       270 1.31874E+02 2.18750E+00 0.00000E+00
 -1       271 1.34874E+02 2.18750E+00 0.00000E+00
 -1       272 1.37874E+02 2.18750E+00 0.00000E+00
 -1       273 1.40874E+02 2.18750E+00 0.00000E+00
 -1       274 1.43874E+02 2.18750E+00 0.00000E+00
 -1       275 1.46874E+02 2.18750E+00 0.00000E+00
 -1       276 1.47402E+02 4.42500E+00 0.00000E+00
 -1       277 1.47402E+02 7.37500E+00 0.00000E+00
 -1       278 1.47402E+02 1.03250E+01 0.00000E+00
 -1       279 1.47402E+02 1.32750E+01 0.00000E+00
 -1       280 1.47402E+02 1.61750E+01 0.00000E+00
 -1       281 1.47402E+02 1.91250E+01 0.00000E+00
 -1       282 1.47402E+02 2.20750E+01 0.00000E+00
 -1       283 1.47402E+02 2.50250E+01 0.00000E+00
 -1       284 1.47402E+02 2.79750E+01 0.00000E+00
 -1       285 1.47402E+02 3.09250E+01 0.00000E+00
 -1       286 1.47402E+02 3.38250E+01 0.00000E+00
 -1       287 1.47402E+02 3.67750E+01 0.00000E+00
 -1       288 1.47402E+02 3.97250E+01 0.00000E+00
 -1       289 1.47402E+02 4.26750E+01 0.00000E+00
 -1       290 1.46526E+02 4.50385E+01 0.00000E+00
 -1       291 1.14567E+02 2.41873E+01 0.00000E+00
 -1       292 1.14499E+02 2.23398E+01 0.00000E+00
 -1       293 1.13455E+02 2.08389E+01 0.00000E+00
 -1       294 1.12432E+02 1.94807E+01 0.00000E+00
 -1       295 1.11114E+02 1.83319E+01 0.00000E+00
 -1       296 1.09624E+02 1.74158E+01 0.00000E+00
 -1       297 1.07880E+02 1.65747E+01 0.00000E+00
 -1       298 1.05977E+02 1.68705E+01 0.00000E+00
 -1       299 1.04144E+02 1.70228E+01 0.00000E+00
 -1       300 1.02240E+02 1.76420E+01 0.00000E+00
 -1       301 1.00638E+02 1.88148E+01 0.00000E+00
 -1       302 9.93931E+01 2.02632E+01 0.00000E+00
 -1       303 9.84142E+01 2.19909E+01 0.00000E+00
 -1       304 9.83359E+01 2.39260E+01 0.00000E+00
 -1       305 9.81235E+01 2.56837E+01 0.00000E+00
 -1       306 9.86125E+01 2.74001E+01 0.00000E+00
 -1       307 9.91066E+01 2.91729E+01 0.00000E+00
 -1       308 1.00363E+02 3.05043E+01 0.00000E+00
 -1       309 1.01586E+02 3.18122E+01 0.00000E+00
 -1       310 1.03207E+02 3.25432E+01 0.00000E+00
 -1       311 1.04838E+02 3.31314E+01 0.00000E+00
 -1       312 1.06666E+02 3.35317E+01 0.00000E+00
 -1       313 1.08441E+02 3.29546E+01 0.00000E+00
 -1       314 1.10173E+02 3.24858E+01 0.00000E+00
 -1       315 1.11517E+02 3.14427E+01 0.00000E+00
 -1       316 1.12822E+02 3.03974E+01 0.00000E+00
 -1       317 1.13719E+02 2.89290E+01 0.00000E+00
 -1       318 1.14272E+02 2.73667E+01 0.00000E+00
 -1       319 1.14580E+02 2.58055E+01 0.00000E+00
 -1       320 5.19600E+00 4.11500E+01 0.00000E+00
 -1       321 5.19600E+00 4.41000E+01 0.00000E+00
 -1       322 5.19600E+00 3.52750E+01 0.00000E+00
 -1       323 5.19600E+00 3.23250E+01 0.00000E+00
 -1       324 5.19600E+00 2.93750E+01 0.00000E+00
 -1       325 5.19600E+00 2.64250E+01 0.00000E+00
 -1       326 5.19600E+00 2.34750E+01 0.00000E+00
 -1       327 5.19600E+00 2.05250E+01 0.00000E+00
 -1       328 5.19600E+00 1.76250E+01 0.00000E+00
 -1       329 5.19600E+00 1.46750E+01 0.00000E+00
 -1       330 5.19600E+00 1.17250E+01 0.00000E+00
 -1       331 5.19600E+00 8.77500E+00 0.00000E+00
 -1       332 5.19600E+00 5.82500E+00 0.00000E+00
 -1       333 5.53500E+00 4.00625E+00 0.00000E+00
 -1       334 8.53500E+00 4.00625E+00 0.00000E+00
 -1       335 9.15000E+00 4.48040E+01 0.00000E+00
 -1       336 1.21500E+01 4.48040E+01 0.00000E+00
 -1       337 1.51500E+01 4.48040E+01 0.00000E+00
 -1       338 1.81500E+01 4.48040E+01 0.00000E+00
 -1       339 2.11500E+01 4.48040E+01 0.00000E+00
 -1       340 2.41500E+01 4.48040E+01 0.00000E+00
 -1       341 2.71500E+01 4.48040E+01 0.00000E+00
 -1       342 3.01500E+01 4.48040E+01 0.00000E+00
 -1       343 3.31500E+01 4.48040E+01 0.00000E+00
 -1       344 3.61500E+01 4.48040E+01 0.00000E+00
 -1       345 3.91500E+01 4.48040E+01 0.00000E+00
 -1       346 4.21500E+01 4.48040E+01 0.00000E+00
 -1       347 4.51500E+01 4.48040E+01 0.00000E+00
 -1       348 4.81500E+01 4.48040E+01 0.00000E+00
 -1       349 5.11500E+01 4.48040E+01 0.00000E+00
 -1       350 5.41500E+01 4.48040E+01 0.00000E+00
 -1       351 5.71500E+01 4.48040E+01 0.00000E+00
 -1       352 6.01500E+01 4.48040E+01 0.00000E+00
 -1       353 6.31500E+01 4.48040E+01 0.00000E+00
 -1       354 6.61500E+01 4.48040E+01 0.00000E+00
 -1       355 6.91500E+01 4.48040E+01 0.00000E+00
 -1       356 7.21500E+01 4.48040E+01 0.00000E+00
 -1       357 7.51500E+01 4.48040E+01 0.00000E+00
 -1       358 7.81500E+01 4.48040E+01 0.00000E+00
 -1       359 8.11500E+01 4.48040E+01 0.00000E+00
 -1       360 8.41500E+01 4.48040E+01 0.00000E+00
 -1       361 8.71500E+01 4.48040E+01 0.00000E+00
 -1       362 9.01500E+01 4.48040E+01 0.00000E+00
 -1       363 9.31500E+01 4.48040E+01 0.00000E+00
 -1       364 9.61500E+01 4.48040E+01 0.00000E+00
 -1       365 9.91500E+01 4.48040E+01 0.00000E+00
 -1       366 1.02150E+02 4.48040E+01 0.00000E+00
 -1       367 1.05150E+02 4.48040E+01 0.00000E+00
 -1       368 1.08150E+02 4.48040E+01 0.00000E+00
 -1       369 1.11150E+02 4.48040E+01 0.00000E+00
 -1       370 1.14150E+02 4.48040E+01 0.00000E+00
 -1       371 1.17150E+02 4.48040E+01 0.00000E+00
 -1       372 1.20150E+02 4.48040E+01 0.00000E+00
 -1       373 1.23150E+02 4.48040E+01 0.00000E+00
 -1       374 1.26150E+02 4.48040E+01 0.00000E+00
 -1       375 1.29150E+02 4.48040E+01 0.00000E+00
 -1       376 1.32150E+02 4.48040E+01 0.00000E+00
 -1       377 1.35150E+02 4.48040E+01 0.00000E+00
 -1       378 1.38150E+02 4.48040E+01 0.00000E+00
 -1       379 1.41150E+02 4.48040E+01 0.00000E+00
 -1       380 1.43838E+02 4.49212E+01 0.00000E+00
 -1       381 1.15350E+01 4.00625E+00 0.00000E+00
 -1       382 1.45350E+01 4.00625E+00 0.00000E+00
 -1       383 1.75350E+01 4.00625E+00 0.00000E+00
 -1       384 2.05350E+01 4.00625E+00 0.00000E+00
 -1       385 2.35350E+01 4.00625E+00 0.00000E+00
 -1       386 2.65350E+01 4.00625E+00 0.00000E+00
 -1       387 2.95350E+01 4.00625E+00 0.00000E+00
 -1       388 3.25350E+01 4.00625E+00 0.00000E+00
 -1       389 3.55350E+01 4.00625E+00 0.00000E+00
 -1       390 3.85350E+01 4.00625E+00 0.00000E+00
 -1       391 4.15350E+01 4.00625E+00 0.00000E+00
 -1       392 4.45350E+01 4.00625E+00 0.00000E+00
 -1       393 4.75350E+01 4.00625E+00 0.00000E+00
 -1       394 5.05350E+01 4.00625E+00 0.00000E+00
 -1       395 5.35350E+01 4.00625E+00 0.00000E+00
 -1       396 5.65350E+01 4.00625E+00 0.00000E+00
 -1       397 5.95350E+01 4.00625E+00 0.00000E+00
 -1       398 6.25350E+01 4.00625E+00 0.00000E+00
 -1       399 6.55350E+01 4.00625E+00 0.00000E+00
 -1       400 6.85350E+01 4.00625E+00 0.00000E+00
 -1       401 7.15350E+01 4.00625E+00 0.00000E+00
 -1       402 7.45350E+01 4.00625E+00 0.00000E+00
 -1       403 7.75350E+01 4.00625E+00 0.00000E+00
 -1       404 8.05350E+01 4.00625E+00 0.00000E+00
 -1       405 8.35350E+01 4.00625E+00 0.00000E+00
 -1       406 8.65350E+01 4.00625E+00 0.00000E+00
 -1       407 8.95350E+01 4.00625E+00 0.00000E+00
 -1       408 9.25350E+01 4.00625E+00 0.00000E+00
 -1       409 9.55350E+01 4.00625E+00 0.00000E+00
 -1       410 9.85350E+01 4.00625E+00 0.00000E+00
 -1       411 1.01535E+02 4.00625E+00 0.00000E+00
 -1       412 1.04535E+02 4.00625E+00 0.00000E+00
 -1       413 1.07535E+02 4.00625E+00 0.00000E+00
 -1       414 1.10535E+02 4.00625E+00 0.00000E+00
 -1       415 1.13535E+02 4.00625E+00 0.00000E+00
 -1       416 1.16535E+02 4.00625E+00 0.00000E+00
 -1       417 1.19535E+02 4.00625E+00 0.00000E+00
 -1       418 1.22535E+02 4.00625E+00 0.00000E+00
 -1       419 1.25535E+02 4.00625E+00 0.00000E+00
 -1       420 1.28535E+02 4.00625E+00 0.00000E+00
 -1       421 1.31535E+02 4.00625E+00 0.00000E+00
 -1       422 1.34535E+02 4.00625E+00 0.00000E+00
 -1       423 1.37535E+02 4.00625E+00 0.00000E+00
 -1       424 1.40535E+02 4.00625E+00 0.00000E+00
 -1       425 1.43535E+02 4.00625E+00 0.00000E+00
 -1       426 1.45469E+02 4.21562E+00 0.00000E+00
 -1       427 1.44804E+02 1.18000E+01 0.00000E+00
 -1       428 1.44804E+02 8.85000E+00 0.00000E+00
 -1       429 1.45136E+02 6.53281E+00 0.00000E+00
 -1       430 1.44804E+02 1.47000E+01 0.00000E+00
 -1       431 1.44804E+02 1.76500E+01 0.00000E+00
 -1       432 1.44804E+02 2.06000E+01 0.00000E+00
 -1       433 1.44804E+02 2.35500E+01 0.00000E+00
 -1       434 1.44804E+02 2.65000E+01 0.00000E+00
 -1       435 1.44804E+02 2.94500E+01 0.00000E+00
 -1       436 1.44804E+02 3.23500E+01 0.00000E+00
 -1       437 1.44804E+02 3.53000E+01 0.00000E+00
 -1       438 1.44804E+02 3.82500E+01 0.00000E+00
 -1       439 1.44804E+02 4.12000E+01 0.00000E+00
 -1       440 1.15041E+02 2.08492E+01 0.00000E+00
 -1       441 1.16121E+02 2.49836E+01 0.00000E+00
 -1       442 1.16053E+02 2.31362E+01 0.00000E+00
 -1       443 1.14046E+02 1.93298E+01 0.00000E+00
 -1       444 1.12680E+02 1.78659E+01 0.00000E+00
 -1       445 5.19600E+00 3.82125E+01 0.00000E+00
 -1       446 1.09460E+02 1.55259E+01 0.00000E+00
 -1       447 1.06716E+02 1.53590E+01 0.00000E+00
 -1       448 1.04883E+02 1.55113E+01 0.00000E+00
 -1       449 1.02714E+02 1.58607E+01 0.00000E+00
 -1       450 1.00476E+02 1.69120E+01 0.00000E+00
 -1       451 9.89053E+01 1.85850E+01 0.00000E+00
 -1       452 9.74843E+01 2.03229E+01 0.00000E+00
 -1       453 9.67451E+01 2.28925E+01 0.00000E+00
 -1       454 9.65326E+01 2.46502E+01 0.00000E+00
 -1       455 9.68796E+01 2.69659E+01 0.00000E+00
 -1       456 9.73738E+01 2.87387E+01 0.00000E+00
 -1       457 9.85482E+01 3.09581E+01 0.00000E+00
 -1       458 9.97709E+01 3.22660E+01 0.00000E+00
 -1       459 1.01760E+02 3.35885E+01 0.00000E+00
 -1       460 1.03391E+02 3.41767E+01 0.00000E+00
 -1       461 1.05475E+02 3.45977E+01 0.00000E+00
 -1       462 1.08032E+02 3.47148E+01 0.00000E+00
 -1       463 1.09764E+02 3.42460E+01 0.00000E+00
 -1       464 1.11691E+02 3.30545E+01 0.00000E+00
 -1       465 1.12995E+02 3.20092E+01 0.00000E+00
 -1       466 1.14662E+02 3.05136E+01 0.00000E+00
 -1       467 1.15296E+02 2.86089E+01 0.00000E+00
 -1       468 1.15780E+02 2.68527E+01 0.00000E+00
 -1       469 1.11135E+02 1.66268E+01 0.00000E+00
 -1       470 1.16595E+02 2.16456E+01 0.00000E+00
 -1       471 1.08297E+02 1.43102E+01 0.00000E+00
 -1       472 1.06841E+02 3.57809E+01 0.00000E+00
 -1       473 1.00350E+01 6.60425E+00 0.00000E+00
 -1       474 7.79400E+00 3.08500E+01 0.00000E+00
 -1       475 7.79400E+00 3.38000E+01 0.00000E+00
 -1       476 7.79400E+00 2.49500E+01 0.00000E+00
 -1       477 7.79400E+00 2.20000E+01 0.00000E+00
 -1       478 7.79400E+00 1.91000E+01 0.00000E+00
 -1       479 7.79400E+00 1.61500E+01 0.00000E+00
 -1       480 7.79400E+00 1.32000E+01 0.00000E+00
 -1       481 7.79400E+00 1.02500E+01 0.00000E+00
 -1       482 1.30350E+01 6.60425E+00 0.00000E+00
 -1       483 1.06500E+01 4.22060E+01 0.00000E+00
 -1       484 1.11332E+02 1.45030E+01 0.00000E+00
 -1       485 1.36500E+01 4.22060E+01 0.00000E+00
 -1       486 1.66500E+01 4.22060E+01 0.00000E+00
 -1       487 1.96500E+01 4.22060E+01 0.00000E+00
 -1       488 2.26500E+01 4.22060E+01 0.00000E+00
 -1       489 2.56500E+01 4.22060E+01 0.00000E+00
 -1       490 2.86500E+01 4.22060E+01 0.00000E+00
 -1       491 3.16500E+01 4.22060E+01 0.00000E+00
 -1       492 3.46500E+01 4.22060E+01 0.00000E+00
 -1       493 3.76500E+01 4.22060E+01 0.00000E+00
 -1       494 4.06500E+01 4.22060E+01 0.00000E+00
 -1       495 4.36500E+01 4.22060E+01 0.00000E+00
 -1       496 4.66500E+01 4.22060E+01 0.00000E+00
 -1       497 4.96500E+01 4.22060E+01 0.00000E+00
 -1       498 5.26500E+01 4.22060E+01 0.00000E+00
 -1       499 5.56500E+01 4.22060E+01 0.00000E+00
 -1       500 5.86500E+01 4.22060E+01 0.00000E+00
 -1       501 6.16500E+01 4.22060E+01 0.00000E+00
 -1       502 6.46500E+01 4.22060E+01 0.00000E+00
 -1       503 6.76500E+01 4.22060E+01 0.00000E+00
 -1       504 7.06500E+01 4.22060E+01 0.00000E+00
 -1       505 7.36500E+01 4.22060E+01 0.00000E+00
 -1       506 7.66500E+01 4.22060E+01 0.00000E+00
 -1       507 7.96500E+01 4.22060E+01 0.00000E+00
 -1       508 8.26500E+01 4.22060E+01 0.00000E+00
 -1       509 8.56500E+01 4.22060E+01 0.00000E+00
 -1       510 8.86500E+01 4.22060E+01 0.00000E+00
 -1       511 9.16500E+01 4.22060E+01 0.00000E+00
 -1       512 9.46500E+01 4.22060E+01 0.00000E+00
 -1       513 9.76500E+01 4.22060E+01 0.00000E+00
 -1       514 1.00650E+02 4.22060E+01 0.00000E+00
 -1       515 1.03650E+02 4.22060E+01 0.00000E+00
 -1       516 1.06650E+02 4.22060E+01 0.00000E+00
 -1       517 1.09650E+02 4.22060E+01 0.00000E+00
 -1       518 1.12650E+02 4.22060E+01 0.00000E+00
 -1       519 1.15650E+02 4.22060E+01 0.00000E+00
 -1       520 1.18650E+02 4.22060E+01 0.00000E+00
 -1       521 1.21650E+02 4.22060E+01 0.00000E+00
 -1       522 1.24650E+02 4.22060E+01 0.00000E+00
 -1       523 1.27650E+02 4.22060E+01 0.00000E+00
 -1       524 1.30650E+02 4.22060E+01 0.00000E+00
 -1       525 1.33650E+02 4.22060E+01 0.00000E+00
 -1       526 1.36650E+02 4.22060E+01 0.00000E+00
 -1       527 1.39650E+02 4.22060E+01 0.00000E+00
 -1       528 1.90350E+01 6.60425E+00 0.00000E+00
 -1       529 2.20350E+01 6.60425E+00 0.00000E+00
 -1       530 2.50350E+01 6.60425E+00 0.00000E+00
 -1       531 2.80350E+01 6.60425E+00 0.00000E+00
 -1       532 3.10350E+01 6.60425E+00 0.00000E+00
 -1       533 3.40350E+01 6.60425E+00 0.00000E+00
 -1       534 3.70350E+01 6.60425E+00 0.00000E+00
 -1       535 4.00350E+01 6.60425E+00 0.00000E+00
 -1       536 4.30350E+01 6.60425E+00 0.00000E+00
 -1       537 4.60350E+01 6.60425E+00 0.00000E+00
 -1       538 4.90350E+01 6.60425E+00 0.00000E+00
 -1       539 5.20350E+01 6.60425E+00 0.00000E+00
 -1       540 5.50350E+01 6.60425E+00 0.00000E+00
 -1       541 5.80350E+01 6.60425E+00 0.00000E+00
 -1       542 6.10350E+01 6.60425E+00 0.00000E+00
 -1       543 6.40350E+01 6.60425E+00 0.00000E+00
 -1       544 6.70350E+01 6.60425E+00 0.00000E+00
 -1       545 7.00350E+01 6.60425E+00 0.00000E+00
 -1       546 7.30350E+01 6.60425E+00 0.00000E+00
 -1       547 7.60350E+01 6.60425E+00 0.00000E+00
 -1       548 7.90350E+01 6.60425E+00 0.00000E+00
 -1       549 8.20350E+01 6.60425E+00 0.00000E+00
 -1       550 8.50350E+01 6.60425E+00 0.00000E+00
 -1       551 8.80350E+01 6.60425E+00 0.00000E+00
 -1       552 9.10350E+01 6.60425E+00 0.00000E+00
 -1       553 9.40350E+01 6.60425E+00 0.00000E+00
 -1       554 9.70350E+01 6.60425E+00 0.00000E+00
 -1       555 1.00035E+02 6.60425E+00 0.00000E+00
 -1       556 1.03035E+02 6.60425E+00 0.00000E+00
 -1       557 1.06035E+02 6.60425E+00 0.00000E+00
 -1       558 1.09035E+02 6.60425E+00 0.00000E+00
 -1       559 1.12035E+02 6.60425E+00 0.00000E+00
 -1       560 1.15035E+02 6.60425E+00 0.00000E+00
 -1       561 1.18035E+02 6.60425E+00 0.00000E+00
 -1       562 1.21035E+02 6.60425E+00 0.00000E+00
 -1       563 1.24035E+02 6.60425E+00 0.00000E+00
 -1       564 1.27035E+02 6.60425E+00 0.00000E+00
 -1       565 1.30035E+02 6.60425E+00 0.00000E+00
 -1       566 1.33035E+02 6.60425E+00 0.00000E+00
 -1       567 1.36035E+02 6.60425E+00 0.00000E+00
 -1       568 1.39035E+02 6.60425E+00 0.00000E+00
 -1       569 1.42035E+02 6.60425E+00 0.00000E+00
 -1       570 1.42206E+02 1.61750E+01 0.00000E+00
 -1       571 1.42206E+02 1.91250E+01 0.00000E+00
 -1       572 1.42206E+02 1.03250E+01 0.00000E+00
 -1       573 1.42206E+02 1.32500E+01 0.00000E+00
 -1       574 1.42206E+02 2.20750E+01 0.00000E+00
 -1       575 1.42206E+02 2.50250E+01 0.00000E+00
 -1       576 1.42206E+02 2.79750E+01 0.00000E+00
 -1       577 1.42206E+02 3.08750E+01 0.00000E+00
 -1       578 1.42206E+02 3.38250E+01 0.00000E+00
 -1       579 1.42206E+02 3.67750E+01 0.00000E+00
 -1       580 1.42206E+02 3.97250E+01 0.00000E+00
 -1       581 1.15838E+02 1.92417E+01 0.00000E+00
 -1       582 1.17473E+02 2.61956E+01 0.00000E+00
 -1       583 1.60350E+01 6.60425E+00 0.00000E+00
 -1       584 1.17717E+02 2.40003E+01 0.00000E+00
 -1       585 1.17111E+02 2.81642E+01 0.00000E+00
 -1       586 7.92300E+00 4.16780E+01 0.00000E+00
 -1       587 1.14494E+02 1.75420E+01 0.00000E+00
 -1       588 1.04110E+02 3.59862E+01 0.00000E+00
 -1       589 9.53054E+01 2.10872E+01 0.00000E+00
 -1       590 7.79400E+00 2.79000E+01 0.00000E+00
 -1       591 1.00865E+02 1.48340E+01 0.00000E+00
 -1       592 1.05665E+02 1.38095E+01 0.00000E+00
 -1       593 1.03495E+02 1.41588E+01 0.00000E+00
 -1       594 9.85621E+01 1.66894E+01 0.00000E+00
 -1       595 9.69318E+01 1.84213E+01 0.00000E+00
 -1       596 9.51856E+01 2.35957E+01 0.00000E+00
 -1       597 9.48442E+01 2.60871E+01 0.00000E+00
 -1       598 9.55553E+01 2.82903E+01 0.00000E+00
 -1       599 9.61488E+01 3.08073E+01 0.00000E+00
 -1       600 9.79067E+01 3.27834E+01 0.00000E+00
 -1       601 9.98624E+01 3.42858E+01 0.00000E+00
 -1       602 1.01937E+02 3.56536E+01 0.00000E+00
 -1       603 1.16477E+02 3.00688E+01 0.00000E+00
 -1       604 1.09302E+02 3.59742E+01 0.00000E+00
 -1       605 1.11630E+02 3.51090E+01 0.00000E+00
 -1       606 1.13363E+02 3.38050E+01 0.00000E+00
 -1       607 1.15030E+02 3.23093E+01 0.00000E+00
 -1       608 7.61550E+00 6.21462E+00 0.00000E+00
 -1       609 1.12876E+02 1.57421E+01 0.00000E+00
 -1       610 7.79400E+00 3.67375E+01 0.00000E+00
 -1       611 1.17392E+02 2.00381E+01 0.00000E+00
 -1       612 1.41678E+02 4.22645E+01 0.00000E+00
 -1       613 1.18259E+02 2.25097E+01 0.00000E+00
 -1       614 1.08111E+02 3.70402E+01 0.00000E+00
 -1       615 9.47529E+01 1.91857E+01 0.00000E+00
 -1       616 1.16845E+02 3.18646E+01 0.00000E+00
 -1       617 1.05476E+02 3.71693E+01 0.00000E+00
 -1       618 1.10169E+02 1.32873E+01 0.00000E+00
 -1       619 1.07245E+02 1.27606E+01 0.00000E+00
 -1       620 9.89519E+01 1.46114E+01 0.00000E+00
 -1       621 1.03920E+01 2.05500E+01 0.00000E+00
 -1       622 1.03920E+01 2.35000E+01 0.00000E+00
 -1       623 1.03920E+01 1.46750E+01 0.00000E+00
 -1       624 1.03920E+01 1.17250E+01 0.00000E+00
 -1       625 1.15350E+01 9.20225E+00 0.00000E+00
 -1       626 1.13282E+02 1.36540E+01 0.00000E+00
 -1       627 1.45350E+01 9.20225E+00 0.00000E+00
 -1       628 1.01754E+02 1.28352E+01 0.00000E+00
 -1       629 1.51500E+01 3.96080E+01 0.00000E+00
 -1       630 1.81500E+01 3.96080E+01 0.00000E+00
 -1       631 2.11500E+01 3.96080E+01 0.00000E+00
 -1       632 2.41500E+01 3.96080E+01 0.00000E+00
 -1       633 2.71500E+01 3.96080E+01 0.00000E+00
 -1       634 3.01500E+01 3.96080E+01 0.00000E+00
 -1       635 3.31500E+01 3.96080E+01 0.00000E+00
 -1       636 3.61500E+01 3.96080E+01 0.00000E+00
 -1       637 3.91500E+01 3.96080E+01 0.00000E+00
 -1       638 4.21500E+01 3.96080E+01 0.00000E+00
 -1       639 4.51500E+01 3.96080E+01 0.00000E+00
 -1       640 4.81500E+01 3.96080E+01 0.00000E+00
 -1       641 5.11500E+01 3.96080E+01 0.00000E+00
 -1       642 5.41500E+01 3.96080E+01 0.00000E+00
 -1       643 5.71500E+01 3.96080E+01 0.00000E+00
 -1       644 6.01500E+01 3.96080E+01 0.00000E+00
 -1       645 6.31500E+01 3.96080E+01 0.00000E+00
 -1       646 6.61500E+01 3.96080E+01 0.00000E+00
 -1       647 6.91500E+01 3.96080E+01 0.00000E+00
 -1       648 7.21500E+01 3.96080E+01 0.00000E+00
 -1       649 7.51500E+01 3.96080E+01 0.00000E+00
 -1       650 7.81500E+01 3.96080E+01 0.00000E+00
 -1       651 8.11500E+01 3.96080E+01 0.00000E+00
 -1       652 8.41500E+01 3.96080E+01 0.00000E+00
 -1       653 8.71500E+01 3.96080E+01 0.00000E+00
 -1       654 9.01500E+01 3.96080E+01 0.00000E+00
 -1       655 9.31500E+01 3.96080E+01 0.00000E+00
 -1       656 9.61500E+01 3.96080E+01 0.00000E+00
 -1       657 9.91500E+01 3.96080E+01 0.00000E+00
 -1       658 1.02150E+02 3.96080E+01 0.00000E+00
 -1       659 1.08150E+02 3.96530E+01 0.00000E+00
 -1       660 1.11150E+02 3.96530E+01 0.00000E+00
 -1       661 1.14150E+02 3.96530E+01 0.00000E+00
 -1       662 1.17150E+02 3.96530E+01 0.00000E+00
 -1       663 1.20150E+02 3.96530E+01 0.00000E+00
 -1       664 1.23150E+02 3.96530E+01 0.00000E+00
 -1       665 1.26150E+02 3.96530E+01 0.00000E+00
 -1       666 1.29150E+02 3.96530E+01 0.00000E+00
 -1       667 1.32150E+02 3.96530E+01 0.00000E+00
 -1       668 1.35150E+02 3.96530E+01 0.00000E+00
 -1       669 1.38150E+02 3.96530E+01 0.00000E+00
 -1       670 2.35350E+01 9.20225E+00 0.00000E+00
 -1       671 9.35675E+01 2.77155E+01 0.00000E+00
 -1       672 2.05350E+01 9.20225E+00 0.00000E+00
 -1       673 2.95350E+01 9.20225E+00 0.00000E+00
 -1       674 3.25350E+01 9.20225E+00 0.00000E+00
 -1       675 3.55350E+01 9.20225E+00 0.00000E+00
 -1       676 3.85350E+01 9.20225E+00 0.00000E+00
 -1       677 4.15350E+01 9.20225E+00 0.00000E+00
 -1       678 4.45350E+01 9.20225E+00 0.00000E+00
 -1       679 4.75350E+01 9.20225E+00 0.00000E+00
 -1       680 5.05350E+01 9.20225E+00 0.00000E+00
 -1       681 5.35350E+01 9.20225E+00 0.00000E+00
 -1       682 5.65350E+01 9.20225E+00 0.00000E+00
 -1       683 5.95350E+01 9.20225E+00 0.00000E+00
 -1       684 6.25350E+01 9.20225E+00 0.00000E+00
 -1       685 6.55350E+01 9.20225E+00 0.00000E+00
 -1       686 6.85350E+01 9.20225E+00 0.00000E+00
 -1       687 7.15350E+01 9.20225E+00 0.00000E+00
 -1       688 7.45350E+01 9.20225E+00 0.00000E+00
 -1       689 7.75350E+01 9.20225E+00 0.00000E+00
 -1       690 8.05350E+01 9.20225E+00 0.00000E+00
 -1       691 8.35350E+01 9.20225E+00 0.00000E+00
 -1       692 8.65350E+01 9.20225E+00 0.00000E+00
 -1       693 8.95350E+01 9.20225E+00 0.00000E+00
 -1       694 9.25350E+01 9.20225E+00 0.00000E+00
 -1       695 9.55350E+01 9.20225E+00 0.00000E+00
 -1       696 9.85350E+01 9.20225E+00 0.00000E+00
 -1       697 1.01535E+02 9.20225E+00 0.00000E+00
 -1       698 1.04535E+02 9.20225E+00 0.00000E+00
 -1       699 1.07535E+02 9.20225E+00 0.00000E+00
 -1       700 1.10535E+02 9.20225E+00 0.00000E+00
 -1       701 1.13535E+02 9.20225E+00 0.00000E+00
 -1       702 1.16535E+02 9.20225E+00 0.00000E+00
 -1       703 1.19535E+02 9.20225E+00 0.00000E+00
 -1       704 1.22535E+02 9.20225E+00 0.00000E+00
 -1       705 1.25535E+02 9.20225E+00 0.00000E+00
 -1       706 1.28535E+02 9.20225E+00 0.00000E+00
 -1       707 1.31535E+02 9.20225E+00 0.00000E+00
 -1       708 1.34535E+02 9.20225E+00 0.00000E+00
 -1       709 1.37535E+02 9.20225E+00 0.00000E+00
 -1       710 1.39870E+02 9.76363E+00 0.00000E+00
 -1       711 1.39608E+02 2.35500E+01 0.00000E+00
 -1       712 1.40178E+02 3.96890E+01 0.00000E+00
 -1       713 1.39608E+02 1.76500E+01 0.00000E+00
 -1       714 1.39608E+02 2.65000E+01 0.00000E+00
 -1       715 1.39608E+02 2.06000E+01 0.00000E+00
 -1       716 1.75350E+01 9.20225E+00 0.00000E+00
 -1       717 1.39608E+02 2.94000E+01 0.00000E+00
 -1       718 1.39608E+02 3.23500E+01 0.00000E+00
 -1       719 1.39608E+02 3.53000E+01 0.00000E+00
 -1       720 1.19144E+02 2.75204E+01 0.00000E+00
 -1       721 9.78035E+00 3.93914E+01 0.00000E+00
 -1       722 1.02713E+02 3.78466E+01 0.00000E+00
 -1       723 1.18510E+02 2.94250E+01 0.00000E+00
 -1       724 9.99558E+01 3.64016E+01 0.00000E+00
 -1       725 9.56211E+01 3.30467E+01 0.00000E+00
 -1       726 2.65350E+01 9.20225E+00 0.00000E+00
 -1       727 1.24652E+01 3.94997E+01 0.00000E+00
 -1       728 1.03920E+01 1.76125E+01 0.00000E+00
 -1       729 1.03920E+01 3.23250E+01 0.00000E+00
 -1       730 1.04307E+02 1.22909E+01 0.00000E+00
 -1       731 9.35323E+01 2.22597E+01 0.00000E+00
 -1       732 1.11122E+02 3.73063E+01 0.00000E+00
 -1       733 1.19388E+02 2.53250E+01 0.00000E+00
 -1       734 1.16643E+02 1.72242E+01 0.00000E+00
 -1       735 9.41611E+01 3.02325E+01 0.00000E+00
 -1       736 1.15025E+02 1.54244E+01 0.00000E+00
 -1       737 1.13729E+02 3.60955E+01 0.00000E+00
 -1       738 9.62540E+01 1.61501E+01 0.00000E+00
 -1       739 1.15396E+02 3.45998E+01 0.00000E+00
 -1       740 9.78397E+01 3.48947E+01 0.00000E+00
 -1       741 9.31909E+01 2.47511E+01 0.00000E+00
 -1       742 1.03920E+01 3.52625E+01 0.00000E+00
 -1       743 1.03920E+01 2.64500E+01 0.00000E+00
 -1       744 1.19930E+02 2.38344E+01 0.00000E+00
 -1       745 9.98403E+01 1.26126E+01 0.00000E+00
 -1       746 1.39608E+02 1.47250E+01 0.00000E+00
 -1       747 1.18197E+02 1.80206E+01 0.00000E+00
 -1       748 1.05150E+02 3.96305E+01 0.00000E+00
 -1       749 9.19142E+01 2.63795E+01 0.00000E+00
 -1       750 1.17210E+02 3.41551E+01 0.00000E+00
 -1       751 1.39739E+02 1.22443E+01 0.00000E+00
 -1       752 9.40751E+01 1.69145E+01 0.00000E+00
 -1       753 9.36334E+01 3.24719E+01 0.00000E+00
 -1       754 1.38879E+02 3.74765E+01 0.00000E+00
 -1       755 1.19056E+02 2.09022E+01 0.00000E+00
 -1       756 9.29799E+01 2.03582E+01 0.00000E+00
 -1       757 1.18877E+02 3.12208E+01 0.00000E+00
 -1       758 1.03920E+01 2.93875E+01 0.00000E+00
 -1       759 1.12119E+02 1.24383E+01 0.00000E+00
 -1       760 1.33920E+01 1.17250E+01 0.00000E+00
 -1       761 1.96500E+01 3.70100E+01 0.00000E+00
 -1       762 2.26500E+01 3.70100E+01 0.00000E+00
 -1       763 2.56500E+01 3.70100E+01 0.00000E+00
 -1       764 2.86500E+01 3.70100E+01 0.00000E+00
 -1       765 3.16500E+01 3.70100E+01 0.00000E+00
 -1       766 3.46500E+01 3.70100E+01 0.00000E+00
 -1       767 3.76500E+01 3.70100E+01 0.00000E+00
 -1       768 4.06500E+01 3.70100E+01 0.00000E+00
 -1       769 4.36500E+01 3.70100E+01 0.00000E+00
 -1       770 4.66500E+01 3.70100E+01 0.00000E+00
 -1       771 4.96500E+01 3.70100E+01 0.00000E+00
 -1       772 5.26500E+01 3.70100E+01 0.00000E+00
 -1       773 5.56500E+01 3.70100E+01 0.00000E+00
 -1       774 5.86500E+01 3.70100E+01 0.00000E+00
 -1       775 6.16500E+01 3.70100E+01 0.00000E+00
 -1       776 6.46500E+01 3.70100E+01 0.00000E+00
 -1       777 6.76500E+01 3.70100E+01 0.00000E+00
 -1       778 7.06500E+01 3.70100E+01 0.00000E+00
 -1       779 7.36500E+01 3.70100E+01 0.00000E+00
 -1       780 7.66500E+01 3.70100E+01 0.00000E+00
 -1       781 7.96500E+01 3.70100E+01 0.00000E+00
 -1       782 8.26500E+01 3.70100E+01 0.00000E+00
 -1       783 8.56500E+01 3.70100E+01 0.00000E+00
 -1       784 8.86500E+01 3.70100E+01 0.00000E+00
 -1       785 9.16500E+01 3.70100E+01 0.00000E+00
 -1       786 9.46500E+01 3.70100E+01 0.00000E+00
 -1       787 1.15650E+02 3.70550E+01 0.00000E+00
 -1       788 1.18650E+02 3.70550E+01 0.00000E+00
 -1       789 1.21650E+02 3.70550E+01 0.00000E+00
 -1       790 1.24650E+02 3.70550E+01 0.00000E+00
 -1       791 1.27650E+02 3.70550E+01 0.00000E+00
 -1       792 1.30650E+02 3.70550E+01 0.00000E+00
 -1       793 1.33650E+02 3.70550E+01 0.00000E+00
 -1       794 1.36264E+02 3.72658E+01 0.00000E+00
 -1       795 1.37010E+02 2.79500E+01 0.00000E+00
 -1       796 3.40350E+01 1.18003E+01 0.00000E+00
 -1       797 3.10350E+01 1.18003E+01 0.00000E+00
 -1       798 4.00350E+01 1.18003E+01 0.00000E+00
 -1       799 4.30350E+01 1.18003E+01 0.00000E+00
 -1       800 4.60350E+01 1.18003E+01 0.00000E+00
 -1       801 4.90350E+01 1.18003E+01 0.00000E+00
 -1       802 5.20350E+01 1.18003E+01 0.00000E+00
 -1       803 5.50350E+01 1.18003E+01 0.00000E+00
 -1       804 5.80350E+01 1.18003E+01 0.00000E+00
 -1       805 6.10350E+01 1.18003E+01 0.00000E+00
 -1       806 6.40350E+01 1.18003E+01 0.00000E+00
 -1       807 6.70350E+01 1.18003E+01 0.00000E+00
 -1       808 7.00350E+01 1.18003E+01 0.00000E+00
 -1       809 7.30350E+01 1.18003E+01 0.00000E+00
 -1       810 7.60350E+01 1.18003E+01 0.00000E+00
 -1       811 7.90350E+01 1.18003E+01 0.00000E+00
 -1       812 8.20350E+01 1.18003E+01 0.00000E+00
 -1       813 8.50350E+01 1.18003E+01 0.00000E+00
 -1       814 8.80350E+01 1.18003E+01 0.00000E+00
 -1       815 9.10350E+01 1.18003E+01 0.00000E+00
 -1       816 9.40350E+01 1.18003E+01 0.00000E+00
 -1       817 9.70350E+01 1.18003E+01 0.00000E+00
 -1       818 1.18035E+02 1.18003E+01 0.00000E+00
 -1       819 1.21035E+02 1.18003E+01 0.00000E+00
 -1       820 1.24035E+02 1.18003E+01 0.00000E+00
 -1       821 1.27035E+02 1.18003E+01 0.00000E+00
 -1       822 1.30035E+02 1.18003E+01 0.00000E+00
 -1       823 1.33035E+02 1.18003E+01 0.00000E+00
 -1       824 1.36035E+02 1.18003E+01 0.00000E+00
 -1       825 1.37887E+02 1.20223E+01 0.00000E+00
 -1       826 9.54183E+01 3.55460E+01 0.00000E+00
 -1       827 1.29900E+01 2.20250E+01 0.00000E+00
 -1       828 1.37010E+02 3.09000E+01 0.00000E+00
 -1       829 1.37010E+02 2.50000E+01 0.00000E+00
 -1       830 1.21090E+02 2.92260E+01 0.00000E+00
 -1       831 1.21334E+02 2.70307E+01 0.00000E+00
 -1       832 3.70350E+01 1.18003E+01 0.00000E+00
 -1       833 2.20350E+01 1.18003E+01 0.00000E+00
 -1       834 1.17483E+02 1.48415E+01 0.00000E+00
 -1       835 1.09850E+02 3.77854E+01 0.00000E+00
 -1       836 1.66500E+01 3.70100E+01 0.00000E+00
 -1       837 9.76113E+01 3.74547E+01 0.00000E+00
 -1       838 1.15741E+02 1.30712E+01 0.00000E+00
 -1       839 1.37010E+02 3.38500E+01 0.00000E+00
 -1       840 9.65042E+01 1.34543E+01 0.00000E+00
 -1       841 9.15426E+01 2.95215E+01 0.00000E+00
 -1       842 9.16624E+01 2.32726E+01 0.00000E+00
 -1       843 1.29900E+01 2.49750E+01 0.00000E+00
 -1       844 1.20727E+02 2.22270E+01 0.00000E+00
 -1       845 1.37136E+01 1.50524E+01 0.00000E+00
 -1       846 1.37010E+02 1.61875E+01 0.00000E+00
 -1       847 1.19038E+02 1.56379E+01 0.00000E+00
 -1       848 9.03857E+01 2.49010E+01 0.00000E+00
 -1       849 1.00650E+02 3.75578E+01 0.00000E+00
 -1       850 1.39652E+01 3.69017E+01 0.00000E+00
 -1       851 2.50350E+01 1.18003E+01 0.00000E+00
 -1       852 1.19243E+02 3.35113E+01 0.00000E+00
 -1       853 1.90350E+01 1.18003E+01 0.00000E+00
 -1       854 2.80350E+01 1.18003E+01 0.00000E+00
 -1       855 1.14577E+02 1.18555E+01 0.00000E+00
 -1       856 1.37010E+02 1.91375E+01 0.00000E+00
 -1       857 1.29900E+01 1.90875E+01 0.00000E+00
 -1       858 1.37010E+02 2.20688E+01 0.00000E+00
 -1       859 9.23021E+01 1.80869E+01 0.00000E+00
 -1       860 1.19861E+02 1.88847E+01 0.00000E+00
 -1       861 9.11100E+01 2.13710E+01 0.00000E+00
 -1       862 1.21876E+02 2.55400E+01 0.00000E+00
 -1       863 1.36637E+02 3.55579E+01 0.00000E+00
 -1       864 9.10149E+01 3.17608E+01 0.00000E+00
 -1       865 1.29900E+01 3.08563E+01 0.00000E+00
 -1       866 1.29900E+01 3.37938E+01 0.00000E+00
 -1       867 1.56243E+01 1.21273E+01 0.00000E+00
 -1       868 2.41500E+01 3.44120E+01 0.00000E+00
 -1       869 2.71500E+01 3.44120E+01 0.00000E+00
 -1       870 3.01500E+01 3.44120E+01 0.00000E+00
 -1       871 3.31500E+01 3.44120E+01 0.00000E+00
 -1       872 3.61500E+01 3.44120E+01 0.00000E+00
 -1       873 3.91500E+01 3.44120E+01 0.00000E+00
 -1       874 4.21500E+01 3.44120E+01 0.00000E+00
 -1       875 4.51500E+01 3.44120E+01 0.00000E+00
 -1       876 4.81500E+01 3.44120E+01 0.00000E+00
 -1       877 5.11500E+01 3.44120E+01 0.00000E+00
 -1       878 5.41500E+01 3.44120E+01 0.00000E+00
 -1       879 5.71500E+01 3.44120E+01 0.00000E+00
 -1       880 6.01500E+01 3.44120E+01 0.00000E+00
 -1       881 6.31500E+01 3.44120E+01 0.00000E+00
 -1       882 6.61500E+01 3.44120E+01 0.00000E+00
 -1       883 6.91500E+01 3.44120E+01 0.00000E+00
 -1       884 7.21500E+01 3.44120E+01 0.00000E+00
 -1       885 7.51500E+01 3.44120E+01 0.00000E+00
 -1       886 7.81500E+01 3.44120E+01 0.00000E+00
 -1       887 8.11500E+01 3.44120E+01 0.00000E+00
 -1       888 8.41500E+01 3.44120E+01 0.00000E+00
 -1       889 8.71500E+01 3.44120E+01 0.00000E+00
 -1       890 8.96923E+01 2.77096E+01 0.00000E+00
 -1       891 1.26150E+02 3.44570E+01 0.00000E+00
 -1       892 1.29150E+02 3.44570E+01 0.00000E+00
 -1       893 1.32150E+02 3.44570E+01 0.00000E+00
 -1       894 4.45350E+01 1.43982E+01 0.00000E+00
 -1       895 4.15350E+01 1.43982E+01 0.00000E+00
 -1       896 5.05350E+01 1.43982E+01 0.00000E+00
 -1       897 5.35350E+01 1.43982E+01 0.00000E+00
 -1       898 5.65350E+01 1.43982E+01 0.00000E+00
 -1       899 5.95350E+01 1.43982E+01 0.00000E+00
 -1       900 6.25350E+01 1.43982E+01 0.00000E+00
 -1       901 6.55350E+01 1.43982E+01 0.00000E+00
 -1       902 6.85350E+01 1.43982E+01 0.00000E+00
 -1       903 7.15350E+01 1.43982E+01 0.00000E+00
 -1       904 7.45350E+01 1.43982E+01 0.00000E+00
 -1       905 7.75350E+01 1.43982E+01 0.00000E+00
 -1       906 8.05350E+01 1.43982E+01 0.00000E+00
 -1       907 8.35350E+01 1.43982E+01 0.00000E+00
 -1       908 8.65350E+01 1.43982E+01 0.00000E+00
 -1       909 8.95350E+01 1.43982E+01 0.00000E+00
 -1       910 1.22535E+02 1.43982E+01 0.00000E+00
 -1       911 1.28535E+02 1.43982E+01 0.00000E+00
 -1       912 1.31535E+02 1.43982E+01 0.00000E+00
 -1       913 1.34535E+02 1.43982E+01 0.00000E+00
 -1       914 1.34412E+02 2.94250E+01 0.00000E+00
 -1       915 1.37449E+02 1.41049E+01 0.00000E+00
 -1       916 1.34412E+02 2.64750E+01 0.00000E+00
 -1       917 1.23583E+02 2.83921E+01 0.00000E+00
 -1       918 9.40111E+01 3.48898E+01 0.00000E+00
 -1       919 3.25350E+01 1.43982E+01 0.00000E+00
 -1       920 1.34412E+02 3.23750E+01 0.00000E+00
 -1       921 1.21357E+02 3.17461E+01 0.00000E+00
 -1       922 9.36445E+01 1.39752E+01 0.00000E+00
 -1       923 9.13926E+01 3.41788E+01 0.00000E+00
 -1       924 1.25535E+02 1.43982E+01 0.00000E+00
 -1       925 1.29900E+01 2.79188E+01 0.00000E+00
 -1       926 4.75350E+01 1.43982E+01 0.00000E+00
 -1       927 1.81500E+01 3.44120E+01 0.00000E+00
 -1       928 2.11500E+01 3.44120E+01 0.00000E+00
 -1       929 1.21532E+02 2.02095E+01 0.00000E+00
 -1       930 1.23150E+02 3.44570E+01 0.00000E+00
 -1       931 1.34412E+02 2.35438E+01 0.00000E+00
 -1       932 1.20702E+02 1.65020E+01 0.00000E+00
 -1       933 8.98333E+01 2.29994E+01 0.00000E+00
 -1       934 8.91646E+01 2.99490E+01 0.00000E+00
 -1       935 1.55880E+01 2.93875E+01 0.00000E+00
 -1       936 1.34394E+02 3.50075E+01 0.00000E+00
 -1       937 2.05350E+01 1.43982E+01 0.00000E+00
 -1       938 2.95350E+01 1.43982E+01 0.00000E+00
 -1       939 3.85350E+01 1.43982E+01 0.00000E+00
 -1       940 1.68440E+01 1.50107E+01 0.00000E+00
 -1       941 1.61204E+01 1.90457E+01 0.00000E+00
 -1       942 1.19535E+02 1.43982E+01 0.00000E+00
 -1       943 3.55350E+01 1.43982E+01 0.00000E+00
 -1       944 1.24125E+02 2.69015E+01 0.00000E+00
 -1       945 1.23849E+02 3.09123E+01 0.00000E+00
 -1       946 1.55880E+01 2.35000E+01 0.00000E+00
 -1       947 1.22674E+02 2.39326E+01 0.00000E+00
 -1       948 2.35350E+01 1.43982E+01 0.00000E+00
 -1       949 1.55880E+01 3.23250E+01 0.00000E+00
 -1       950 9.04322E+01 1.90998E+01 0.00000E+00
 -1       951 1.58542E+01 2.12729E+01 0.00000E+00
 -1       952 1.34535E+02 1.73482E+01 0.00000E+00
 -1       953 1.27650E+02 3.18590E+01 0.00000E+00
 -1       954 2.56500E+01 3.18140E+01 0.00000E+00
 -1       955 2.86500E+01 3.18140E+01 0.00000E+00
 -1       956 3.16500E+01 3.18140E+01 0.00000E+00
 -1       957 3.46500E+01 3.18140E+01 0.00000E+00
 -1       958 3.76500E+01 3.18140E+01 0.00000E+00
 -1       959 4.06500E+01 3.18140E+01 0.00000E+00
 -1       960 4.36500E+01 3.18140E+01 0.00000E+00
 -1       961 4.66500E+01 3.18140E+01 0.00000E+00
 -1       962 4.96500E+01 3.18140E+01 0.00000E+00
 -1       963 5.26500E+01 3.18140E+01 0.00000E+00
 -1       964 5.56500E+01 3.18140E+01 0.00000E+00
 -1       965 5.86500E+01 3.18140E+01 0.00000E+00
 -1       966 6.16500E+01 3.18140E+01 0.00000E+00
 -1       967 6.46500E+01 3.18140E+01 0.00000E+00
 -1       968 6.76500E+01 3.18140E+01 0.00000E+00
 -1       969 7.06500E+01 3.18140E+01 0.00000E+00
 -1       970 7.36500E+01 3.18140E+01 0.00000E+00
 -1       971 7.66500E+01 3.18140E+01 0.00000E+00
 -1       972 7.96500E+01 3.18140E+01 0.00000E+00
 -1       973 8.26500E+01 3.18140E+01 0.00000E+00
 -1       974 8.56500E+01 3.18140E+01 0.00000E+00
 -1       975 1.55880E+01 2.64438E+01 0.00000E+00
 -1       976 2.65350E+01 1.43982E+01 0.00000E+00
 -1       977 1.30650E+02 3.18590E+01 0.00000E+00
 -1       978 5.50350E+01 1.69963E+01 0.00000E+00
 -1       979 5.20350E+01 1.69963E+01 0.00000E+00
 -1       980 6.10350E+01 1.69963E+01 0.00000E+00
 -1       981 6.40350E+01 1.69963E+01 0.00000E+00
 -1       982 6.70350E+01 1.69963E+01 0.00000E+00
 -1       983 7.00350E+01 1.69963E+01 0.00000E+00
 -1       984 7.30350E+01 1.69963E+01 0.00000E+00
 -1       985 7.60350E+01 1.69963E+01 0.00000E+00
 -1       986 7.90350E+01 1.69963E+01 0.00000E+00
 -1       987 8.20350E+01 1.69963E+01 0.00000E+00
 -1       988 8.50350E+01 1.69963E+01 0.00000E+00
 -1       989 8.80350E+01 1.69963E+01 0.00000E+00
 -1       990 1.96500E+01 3.18140E+01 0.00000E+00
 -1       991 1.30035E+02 1.69963E+01 0.00000E+00
 -1       992 1.31814E+02 2.79500E+01 0.00000E+00
 -1       993 8.77232E+01 2.57336E+01 0.00000E+00
 -1       994 1.24035E+02 1.69963E+01 0.00000E+00
 -1       995 1.34412E+02 2.06125E+01 0.00000E+00
 -1       996 1.27035E+02 1.69963E+01 0.00000E+00
 -1       997 8.83324E+01 3.17874E+01 0.00000E+00
 -1       998 2.26500E+01 3.18140E+01 0.00000E+00
 -1       999 5.80350E+01 1.69963E+01 0.00000E+00
 -1      1000 4.30350E+01 1.69963E+01 0.00000E+00
 -1      1001 1.98114E+01 1.84333E+01 0.00000E+00
 -1      1002 1.31814E+02 2.50187E+01 0.00000E+00
 -1      1003 8.71707E+01 2.38320E+01 0.00000E+00
 -1      1004 8.91555E+01 2.07282E+01 0.00000E+00
 -1      1005 4.00350E+01 1.69963E+01 0.00000E+00
 -1      1006 4.90350E+01 1.69963E+01 0.00000E+00
 -1      1007 8.65350E+01 1.95942E+01 0.00000E+00
 -1      1008 1.96500E+01 2.88703E+01 0.00000E+00
 -1      1009 3.40350E+01 1.69963E+01 0.00000E+00
 -1      1010 1.24922E+02 2.52940E+01 0.00000E+00
 -1      1011 1.22034E+02 1.73039E+01 0.00000E+00
 -1      1012 8.71955E+01 2.79730E+01 0.00000E+00
 -1      1013 1.23478E+02 2.19151E+01 0.00000E+00
 -1      1014 1.27383E+02 2.93389E+01 0.00000E+00
 -1      1015 1.83007E+01 2.26948E+01 0.00000E+00
 -1      1016 3.10350E+01 1.69963E+01 0.00000E+00
 -1      1017 4.60350E+01 1.69963E+01 0.00000E+00
 -1      1018 2.28114E+01 1.84333E+01 0.00000E+00
 -1      1019 1.96500E+01 2.59265E+01 0.00000E+00
 -1      1020 2.41500E+01 2.92160E+01 0.00000E+00
 -1      1021 8.64822E+01 2.99756E+01 0.00000E+00
 -1      1022 2.71500E+01 2.92160E+01 0.00000E+00
 -1      1023 3.01500E+01 2.92160E+01 0.00000E+00
 -1      1024 3.31500E+01 2.92160E+01 0.00000E+00
 -1      1025 3.61500E+01 2.92160E+01 0.00000E+00
 -1      1026 3.91500E+01 2.92160E+01 0.00000E+00
 -1      1027 4.21500E+01 2.92160E+01 0.00000E+00
 -1      1028 4.51500E+01 2.92160E+01 0.00000E+00
 -1      1029 4.81500E+01 2.92160E+01 0.00000E+00
 -1      1030 5.11500E+01 2.92160E+01 0.00000E+00
 -1      1031 5.41500E+01 2.92160E+01 0.00000E+00
 -1      1032 5.71500E+01 2.92160E+01 0.00000E+00
 -1      1033 6.01500E+01 2.92160E+01 0.00000E+00
 -1      1034 6.31500E+01 2.92160E+01 0.00000E+00
 -1      1035 6.61500E+01 2.92160E+01 0.00000E+00
 -1      1036 6.91500E+01 2.92160E+01 0.00000E+00
 -1      1037 7.21500E+01 2.92160E+01 0.00000E+00
 -1      1038 7.51500E+01 2.92160E+01 0.00000E+00
 -1      1039 7.81500E+01 2.92160E+01 0.00000E+00
 -1      1040 8.11500E+01 2.92160E+01 0.00000E+00
 -1      1041 8.38161E+01 2.95958E+01 0.00000E+00
 -1      1042 6.85350E+01 1.95942E+01 0.00000E+00
 -1      1043 5.35350E+01 1.95942E+01 0.00000E+00
 -1      1044 5.65350E+01 1.95942E+01 0.00000E+00
 -1      1045 2.13728E+01 2.33097E+01 0.00000E+00
 -1      1046 6.55350E+01 1.95942E+01 0.00000E+00
 -1      1047 6.25350E+01 1.95942E+01 0.00000E+00
 -1      1048 7.15350E+01 1.95942E+01 0.00000E+00
 -1      1049 7.45350E+01 1.95942E+01 0.00000E+00
 -1      1050 7.75350E+01 1.95942E+01 0.00000E+00
 -1      1051 8.05350E+01 1.95942E+01 0.00000E+00
 -1      1052 8.35350E+01 1.95942E+01 0.00000E+00
 -1      1053 2.19000E+01 2.90431E+01 0.00000E+00
 -1      1054 3.70350E+01 1.69963E+01 0.00000E+00
 -1      1055 4.45350E+01 1.95942E+01 0.00000E+00
 -1      1056 2.58114E+01 1.84333E+01 0.00000E+00
 -1      1057 1.29912E+02 2.02605E+01 0.00000E+00
 -1      1058 1.26153E+02 2.73165E+01 0.00000E+00
 -1      1059 1.23757E+02 1.94557E+01 0.00000E+00
 -1      1060 1.90561E+01 2.05641E+01 0.00000E+00
 -1      1061 2.84232E+01 1.77148E+01 0.00000E+00
 -1      1062 1.30863E+02 2.26396E+01 0.00000E+00
 -1      1063 5.95350E+01 1.95942E+01 0.00000E+00
 -1      1064 1.28983E+02 2.61676E+01 0.00000E+00
 -1      1065 8.49521E+01 2.55076E+01 0.00000E+00
 -1      1066 2.26813E+01 2.60467E+01 0.00000E+00
 -1      1067 4.15350E+01 1.95942E+01 0.00000E+00
 -1      1068 5.05350E+01 1.95942E+01 0.00000E+00
 -1      1069 1.26757E+02 1.94557E+01 0.00000E+00
 -1      1070 8.50350E+01 2.21922E+01 0.00000E+00
 -1      1071 1.25727E+02 2.32765E+01 0.00000E+00
 -1      1072 2.20561E+01 2.05641E+01 0.00000E+00
 -1      1073 3.25350E+01 1.95942E+01 0.00000E+00
 -1      1074 3.55350E+01 1.95942E+01 0.00000E+00
 -1      1075 4.75350E+01 1.95942E+01 0.00000E+00
 -1      1076 2.56500E+01 2.66180E+01 0.00000E+00
 -1      1077 2.43710E+01 2.35576E+01 0.00000E+00
 -1      1078 2.86500E+01 2.66180E+01 0.00000E+00
 -1      1079 3.16500E+01 2.66180E+01 0.00000E+00
 -1      1080 3.46500E+01 2.66180E+01 0.00000E+00
 -1      1081 3.76500E+01 2.66180E+01 0.00000E+00
 -1      1082 4.06500E+01 2.66180E+01 0.00000E+00
 -1      1083 4.36500E+01 2.66180E+01 0.00000E+00
 -1      1084 4.66500E+01 2.66180E+01 0.00000E+00
 -1      1085 4.96500E+01 2.66180E+01 0.00000E+00
 -1      1086 5.26500E+01 2.66180E+01 0.00000E+00
 -1      1087 5.56500E+01 2.66180E+01 0.00000E+00
 -1      1088 5.86500E+01 2.66180E+01 0.00000E+00
 -1      1089 6.16500E+01 2.66180E+01 0.00000E+00
 -1      1090 6.46500E+01 2.66180E+01 0.00000E+00
 -1      1091 6.76500E+01 2.66180E+01 0.00000E+00
 -1      1092 7.06500E+01 2.66180E+01 0.00000E+00
 -1      1093 7.36500E+01 2.66180E+01 0.00000E+00
 -1      1094 7.66500E+01 2.66180E+01 0.00000E+00
 -1      1095 7.96500E+01 2.66180E+01 0.00000E+00
 -1      1096 5.80350E+01 2.21922E+01 0.00000E+00
 -1      1097 7.00350E+01 2.21922E+01 0.00000E+00
 -1      1098 6.40350E+01 2.21922E+01 0.00000E+00
 -1      1099 7.60350E+01 2.21922E+01 0.00000E+00
 -1      1100 7.90350E+01 2.21922E+01 0.00000E+00
 -1      1101 8.20350E+01 2.21922E+01 0.00000E+00
 -1      1102 2.50561E+01 2.05641E+01 0.00000E+00
 -1      1103 1.26242E+02 2.13661E+01 0.00000E+00
 -1      1104 1.27355E+02 2.47221E+01 0.00000E+00
 -1      1105 8.42388E+01 2.75102E+01 0.00000E+00
 -1      1106 3.85350E+01 1.95942E+01 0.00000E+00
 -1      1107 5.50350E+01 2.21922E+01 0.00000E+00
 -1      1108 2.99232E+01 2.03128E+01 0.00000E+00
 -1      1109 6.70350E+01 2.21922E+01 0.00000E+00
 -1      1110 7.30350E+01 2.21922E+01 0.00000E+00
 -1      1111 6.10350E+01 2.21922E+01 0.00000E+00
 -1      1112 1.29109E+02 2.36808E+01 0.00000E+00
 -1      1113 5.20350E+01 2.21922E+01 0.00000E+00
 -1      1114 8.26499E+01 2.66180E+01 0.00000E+00
 -1      1115 1.28552E+02 2.20029E+01 0.00000E+00
 -1      1116 4.30350E+01 2.21922E+01 0.00000E+00
 -1      1117 3.40350E+01 2.21922E+01 0.00000E+00
 -1      1118 3.14232E+01 2.29108E+01 0.00000E+00
 -1      1119 2.74897E+01 2.04384E+01 0.00000E+00
 -1      1120 4.60350E+01 2.21922E+01 0.00000E+00
 -1      1121 3.01500E+01 2.40200E+01 0.00000E+00
 -1      1122 3.91500E+01 2.40200E+01 0.00000E+00
 -1      1123 5.11500E+01 2.40200E+01 0.00000E+00
 -1      1124 2.72605E+01 2.37888E+01 0.00000E+00
 -1      1125 3.70350E+01 2.21922E+01 0.00000E+00
 -1      1126 4.90350E+01 2.21922E+01 0.00000E+00
 -1      1127 4.81500E+01 2.40200E+01 0.00000E+00
 -1      1128 0.00000E+00 4.85250E+01 0.00000E+00
 -1      1129 0.00000E+00 4.55750E+01 0.00000E+00
 -1      1130 0.00000E+00 4.26250E+01 0.00000E+00
 -1      1131 0.00000E+00 3.96750E+01 0.00000E+00
 -1      1132 0.00000E+00 3.67250E+01 0.00000E+00
 -1      1133 0.00000E+00 3.38000E+01 0.00000E+00
 -1      1134 0.00000E+00 3.08750E+01 0.00000E+00
 -1      1135 0.00000E+00 2.79250E+01 0.00000E+00
 -1      1136 0.00000E+00 2.49750E+01 0.00000E+00
 -1      1137 0.00000E+00 2.20250E+01 0.00000E+00
 -1      1138 0.00000E+00 1.90750E+01 0.00000E+00
 -1      1139 0.00000E+00 1.61500E+01 0.00000E+00
 -1      1140 0.00000E+00 1.32250E+01 0.00000E+00
 -1      1141 0.00000E+00 1.02750E+01 0.00000E+00
 -1      1142 0.00000E+00 7.32500E+00 0.00000E+00
 -1      1143 0.00000E+00 4.37500E+00 0.00000E+00
 -1      1144 0.00000E+00 1.45000E+00 0.00000E+00
 -1      1145 1.57500E+00 5.00000E+01 0.00000E+00
 -1      1146 4.65000E+00 5.00000E+01 0.00000E+00
 -1      1147 7.65000E+00 5.00000E+01 0.00000E+00
 -1      1148 1.06500E+01 5.00000E+01 0.00000E+00
 -1      1149 1.36500E+01 5.00000E+01 0.00000E+00
 -1      1150 1.66500E+01 5.00000E+01 0.00000E+00
 -1      1151 1.96500E+01 5.00000E+01 0.00000E+00
 -1      1152 2.26500E+01 5.00000E+01 0.00000E+00
 -1      1153 2.56500E+01 5.00000E+01 0.00000E+00
 -1      1154 2.86500E+01 5.00000E+01 0.00000E+00
 -1      1155 3.16500E+01 5.00000E+01 0.00000E+00
 -1      1156 3.46500E+01 5.00000E+01 0.00000E+00
 -1      1157 3.76500E+01 5.00000E+01 0.00000E+00
 -1      1158 4.06500E+01 5.00000E+01 0.00000E+00
 -1      1159 4.36500E+01 5.00000E+01 0.00000E+00
 -1      1160 4.66500E+01 5.00000E+01 0.00000E+00
 -1      1161 4.96500E+01 5.00000E+01 0.00000E+00
 -1      1162 5.26500E+01 5.00000E+01 0.00000E+00
 -1      1163 5.56500E+01 5.00000E+01 0.00000E+00
 -1      1164 5.86500E+01 5.00000E+01 0.00000E+00
 -1      1165 6.16500E+01 5.00000E+01 0.00000E+00
 -1      1166 6.46500E+01 5.00000E+01 0.00000E+00
 -1      1167 6.76500E+01 5.00000E+01 0.00000E+00
 -1      1168 7.06500E+01 5.00000E+01 0.00000E+00
 -1      1169 7.36500E+01 5.00000E+01 0.00000E+00
 -1      1170 7.66500E+01 5.00000E+01 0.00000E+00
 -1      1171 7.96500E+01 5.00000E+01 0.00000E+00
 -1      1172 8.26500E+01 5.00000E+01 0.00000E+00
 -1      1173 8.56500E+01 5.00000E+01 0.00000E+00
 -1      1174 8.86500E+01 5.00000E+01 0.00000E+00
 -1      1175 9.16500E+01 5.00000E+01 0.00000E+00
 -1      1176 9.46500E+01 5.00000E+01 0.00000E+00
 -1      1177 9.76500E+01 5.00000E+01 0.00000E+00
 -1      1178 1.00650E+02 5.00000E+01 0.00000E+00
 -1      1179 1.03650E+02 5.00000E+01 0.00000E+00
 -1      1180 1.06650E+02 5.00000E+01 0.00000E+00
 -1      1181 1.09650E+02 5.00000E+01 0.00000E+00
 -1      1182 1.12650E+02 5.00000E+01 0.00000E+00
 -1      1183 1.15650E+02 5.00000E+01 0.00000E+00
 -1      1184 1.18650E+02 5.00000E+01 0.00000E+00
 -1      1185 1.21650E+02 5.00000E+01 0.00000E+00
 -1      1186 1.24650E+02 5.00000E+01 0.00000E+00
 -1      1187 1.27650E+02 5.00000E+01 0.00000E+00
 -1      1188 1.30650E+02 5.00000E+01 0.00000E+00
 -1      1189 1.33650E+02 5.00000E+01 0.00000E+00
 -1      1190 1.36650E+02 5.00000E+01 0.00000E+00
 -1      1191 1.39650E+02 5.00000E+01 0.00000E+00
 -1      1192 1.42650E+02 5.00000E+01 0.00000E+00
 -1      1193 1.45650E+02 5.00000E+01 0.00000E+00
 -1      1194 1.48575E+02 5.00000E+01 0.00000E+00
 -1      1195 1.57500E+00 0.00000E+00 0.00000E+00
 -1      1196 4.65000E+00 0.00000E+00 0.00000E+00
 -1      1197 7.65000E+00 0.00000E+00 0.00000E+00
 -1      1198 1.06500E+01 0.00000E+00 0.00000E+00
 -1      1199 1.36500E+01 0.00000E+00 0.00000E+00
 -1      1200 1.66500E+01 0.00000E+00 0.00000E+00
 -1      1201 1.96500E+01 0.00000E+00 0.00000E+00
 -1      1202 2.26500E+01 0.00000E+00 0.00000E+00
 -1      1203 2.56500E+01 0.00000E+00 0.00000E+00
 -1      1204 2.86500E+01 0.00000E+00 0.00000E+00
 -1      1205 3.16500E+01 0.00000E+00 0.00000E+00
 -1      1206 3.46500E+01 0.00000E+00 0.00000E+00
 -1      1207 3.76500E+01 0.00000E+00 0.00000E+00
 -1      1208 4.06500E+01 0.00000E+00 0.00000E+00
 -1      1209 4.36500E+01 0.00000E+00 0.00000E+00
 -1      1210 4.66500E+01 0.00000E+00 0.00000E+00
 -1      1211 4.96500E+01 0.00000E+00 0.00000E+00
 -1      1212 5.26500E+01 0.00000E+00 0.00000E+00
 -1      1213 5.56500E+01 0.00000E+00 0.00000E+00
 -1      1214 5.86500E+01 0.00000E+00 0.00000E+00
 -1      1215 6.16500E+01 0.00000E+00 0.00000E+00
 -1      1216 6.46500E+01 0.00000E+00 0.00000E+00
 -1      1217 6.76500E+01 0.00000E+00 0.00000E+00
 -1      1218 7.06500E+01 0.00000E+00 0.00000E+00
 -1      1219 7.36500E+01 0.00000E+00 0.00000E+00
 -1      1220 7.66500E+01 0.00000E+00 0.00000E+00
 -1      1221 7.96500E+01 0.00000E+00 0.00000E+00
 -1      1222 8.26500E+01 0.00000E+00 0.00000E+00
 -1      1223 8.56500E+01 0.00000E+00 0.00000E+00
 -1      1224 8.86500E+01 0.00000E+00 0.00000E+00
 -1      1225 9.16500E+01 0.00000E+00 0.00000E+00
 -1      1226 9.46500E+01 0.00000E+00 0.00000E+00
 -1      1227 9.76500E+01 0.00000E+00 0.00000E+00
 -1      1228 1.00650E+02 0.00000E+00 0.00000E+00
 -1      1229 1.03650E+02 0.00000E+00 0.00000E+00
 -1      1230 1.06650E+02 0.00000E+00 0.00000E+00
 -1      1231 1.09650E+02 0.00000E+00 0.00000E+00
 -1      1232 1.12650E+02 0.00000E+00 0.00000E+00
 -1      1233 1.15650E+02 0.00000E+00 0.00000E+00
 -1      1234 1.18650E+02 0.00000E+00 0.00000E+00
 -1      1235 1.21650E+02 0.00000E+00 0.00000E+00
 -1      1236 1.24650E+02 0.00000E+00 0.00000E+00
 -1      1237 1.27650E+02 0.00000E+00 0.00000E+00
 -1      1238 1.30650E+02 0.00000E+00 0.00000E+00
 -1      1239 1.33650E+02 0.00000E+00 0.00000E+00
 -1      1240 1.36650E+02 0.00000E+00 0.00000E+00
 -1      1241 1.39650E+02 0.00000E+00 0.00000E+00
 -1      1242 1.42650E+02 0.00000E+00 0.00000E+00
 -1      1243 1.45650E+02 0.00000E+00 0.00000E+00
 -1      1244 1.48575E+02 0.00000E+00 0.00000E+00
 -1      1245 1.50000E+02 1.47500E+00 0.00000E+00
 -1      1246 1.50000E+02 4.42500E+00 0.00000E+00
 -1      1247 1.50000E+02 7.37500E+00 0.00000E+00
 -1      1248 1.50000E+02 1.03250E+01 0.00000E+00
 -1      1249 1.50000E+02 1.32750E+01 0.00000E+00
 -1      1250 1.50000E+02 1.62000E+01 0.00000E+00
 -1      1251 1.50000E+02 1.91250E+01 0.00000E+00
 -1      1252 1.50000E+02 2.20750E+01 0.00000E+00
 -1      1253 1.50000E+02 2.50250E+01 0.00000E+00
 -1      1254 1.50000E+02 2.79750E+01 0.00000E+00
 -1      1255 1.50000E+02 3.09250E+01 0.00000E+00
 -1      1256 1.50000E+02 3.38500E+01 0.00000E+00
 -1      1257 1.50000E+02 3.67750E+01 0.00000E+00
 -1      1258 1.50000E+02 3.97250E+01 0.00000E+00
 -1      1259 1.50000E+02 4.26750E+01 0.00000E+00
 -1      1260 1.50000E+02 4.56250E+01 0.00000E+00
 -1      1261 1.50000E+02 4.85500E+01 0.00000E+00
 -1      1262 1.13398E+02 2.43087E+01 0.00000E+00
 -1      1263 1.13075E+02 2.28153E+01 0.00000E+00
 -1      1264 1.12445E+02 2.14424E+01 0.00000E+00
 -1      1265 1.11572E+02 2.02769E+01 0.00000E+00
 -1      1266 1.10443E+02 1.92931E+01 0.00000E+00
 -1      1267 1.09138E+02 1.85752E+01 0.00000E+00
 -1      1268 1.07614E+02 1.81321E+01 0.00000E+00
 -1      1269 1.06043E+02 1.80433E+01 0.00000E+00
 -1      1270 1.04510E+02 1.83022E+01 0.00000E+00
 -1      1271 1.02980E+02 1.89447E+01 0.00000E+00
 -1      1272 1.01662E+02 1.99128E+01 0.00000E+00
 -1      1273 1.00639E+02 2.11073E+01 0.00000E+00
 -1      1274 9.98902E+01 2.25506E+01 0.00000E+00
 -1      1275 9.94999E+01 2.40850E+01 0.00000E+00
 -1      1276 9.94569E+01 2.55792E+01 0.00000E+00
 -1      1277 9.97356E+01 2.70601E+01 0.00000E+00
 -1      1278 1.00341E+02 2.84755E+01 0.00000E+00
 -1      1279 1.01235E+02 2.97182E+01 0.00000E+00
 -1      1280 1.02363E+02 3.07256E+01 0.00000E+00
 -1      1281 1.03671E+02 3.14633E+01 0.00000E+00
 -1      1282 1.05081E+02 3.19000E+01 0.00000E+00
 -1      1283 1.06626E+02 3.20297E+01 0.00000E+00
 -1      1284 1.08153E+02 3.18183E+01 0.00000E+00
 -1      1285 1.09573E+02 3.12898E+01 0.00000E+00
 -1      1286 1.10784E+02 3.05178E+01 0.00000E+00
 -1      1287 1.11795E+02 2.95350E+01 0.00000E+00
 -1      1288 1.12608E+02 2.83345E+01 0.00000E+00
 -1      1289 1.13144E+02 2.70306E+01 0.00000E+00
 -1      1290 1.13404E+02 2.56939E+01 0.00000E+00
 -1      1291 1.57500E+00 4.85250E+01 0.00000E+00
 -1      1292 1.29900E+00 4.48375E+01 0.00000E+00
 -1      1293 1.29900E+00 4.63125E+01 0.00000E+00
 -1      1294 1.29900E+00 4.18875E+01 0.00000E+00
 -1      1295 1.29900E+00 4.33625E+01 0.00000E+00
 -1      1296 2.59800E+00 4.41000E+01 0.00000E+00
 -1      1297 1.29900E+00 3.89375E+01 0.00000E+00
 -1      1298 1.29900E+00 4.04125E+01 0.00000E+00
 -1      1299 2.59800E+00 4.11500E+01 0.00000E+00
 -1      1300 1.29900E+00 3.59875E+01 0.00000E+00
 -1      1301 1.29900E+00 3.74625E+01 0.00000E+00
 -1      1302 2.59800E+00 3.82000E+01 0.00000E+00
 -1      1303 1.29900E+00 3.30875E+01 0.00000E+00
 -1      1304 1.29900E+00 3.45375E+01 0.00000E+00
 -1      1305 2.59800E+00 3.52750E+01 0.00000E+00
 -1      1306 1.29900E+00 3.01375E+01 0.00000E+00
 -1      1307 1.29900E+00 3.16125E+01 0.00000E+00
 -1      1308 2.59800E+00 3.23500E+01 0.00000E+00
 -1      1309 1.29900E+00 2.71875E+01 0.00000E+00
 -1      1310 1.29900E+00 2.86625E+01 0.00000E+00
 -1      1311 2.59800E+00 2.94000E+01 0.00000E+00
 -1      1312 1.29900E+00 2.42375E+01 0.00000E+00
 -1      1313 1.29900E+00 2.57125E+01 0.00000E+00
 -1      1314 2.59800E+00 2.64500E+01 0.00000E+00
 -1      1315 1.29900E+00 2.12875E+01 0.00000E+00
 -1      1316 1.29900E+00 2.27625E+01 0.00000E+00
 -1      1317 2.59800E+00 2.35000E+01 0.00000E+00
 -1      1318 1.29900E+00 1.83375E+01 0.00000E+00
 -1      1319 1.29900E+00 1.98125E+01 0.00000E+00
 -1      1320 2.59800E+00 2.05500E+01 0.00000E+00
 -1      1321 1.29900E+00 1.54375E+01 0.00000E+00
 -1      1322 1.29900E+00 1.68875E+01 0.00000E+00
 -1      1323 2.59800E+00 1.76250E+01 0.00000E+00
 -1      1324 1.29900E+00 1.24875E+01 0.00000E+00
 -1      1325 1.29900E+00 1.39625E+01 0.00000E+00
 -1      1326 2.59800E+00 1.47000E+01 0.00000E+00
 -1      1327 1.29900E+00 9.53750E+00 0.00000E+00
 -1      1328 1.29900E+00 1.10125E+01 0.00000E+00
 -1      1329 2.59800E+00 1.17500E+01 0.00000E+00
 -1      1330 1.29900E+00 6.58750E+00 0.00000E+00
 -1      1331 1.29900E+00 8.06250E+00 0.00000E+00
 -1      1332 2.59800E+00 8.80000E+00 0.00000E+00
 -1      1333 1.29900E+00 3.63750E+00 0.00000E+00
 -1      1334 1.29900E+00 5.11250E+00 0.00000E+00
 -1      1335 2.59800E+00 5.85000E+00 0.00000E+00
 -1      1336 1.43700E+00 1.09375E+00 0.00000E+00
 -1      1337 1.43700E+00 2.54375E+00 0.00000E+00
 -1      1338 2.73600E+00 3.28125E+00 0.00000E+00
 -1      1339 3.01200E+00 1.09375E+00 0.00000E+00
 -1      1340 3.90000E+00 4.87010E+01 0.00000E+00
 -1      1341 5.40000E+00 4.87010E+01 0.00000E+00
 -1      1342 6.90000E+00 4.87010E+01 0.00000E+00
 -1      1343 8.40000E+00 4.87010E+01 0.00000E+00
 -1      1344 6.15000E+00 4.74020E+01 0.00000E+00
 -1      1345 9.90000E+00 4.87010E+01 0.00000E+00
 -1      1346 1.14000E+01 4.87010E+01 0.00000E+00
 -1      1347 9.15000E+00 4.74020E+01 0.00000E+00
 -1      1348 1.29000E+01 4.87010E+01 0.00000E+00
 -1      1349 1.44000E+01 4.87010E+01 0.00000E+00
 -1      1350 1.21500E+01 4.74020E+01 0.00000E+00
 -1      1351 1.59000E+01 4.87010E+01 0.00000E+00
 -1      1352 1.74000E+01 4.87010E+01 0.00000E+00
 -1      1353 1.51500E+01 4.74020E+01 0.00000E+00
 -1      1354 1.89000E+01 4.87010E+01 0.00000E+00
 -1      1355 2.04000E+01 4.87010E+01 0.00000E+00
 -1      1356 1.81500E+01 4.74020E+01 0.00000E+00
 -1      1357 2.19000E+01 4.87010E+01 0.00000E+00
 -1      1358 2.34000E+01 4.87010E+01 0.00000E+00
 -1      1359 2.11500E+01 4.74020E+01 0.00000E+00
 -1      1360 2.49000E+01 4.87010E+01 0.00000E+00
 -1      1361 2.64000E+01 4.87010E+01 0.00000E+00
 -1      1362 2.41500E+01 4.74020E+01 0.00000E+00
 -1      1363 2.79000E+01 4.87010E+01 0.00000E+00
 -1      1364 2.94000E+01 4.87010E+01 0.00000E+00
 -1      1365 2.71500E+01 4.74020E+01 0.00000E+00
 -1      1366 3.09000E+01 4.87010E+01 0.00000E+00
 -1      1367 3.24000E+01 4.87010E+01 0.00000E+00
 -1      1368 3.01500E+01 4.74020E+01 0.00000E+00
 -1      1369 3.39000E+01 4.87010E+01 0.00000E+00
 -1      1370 3.54000E+01 4.87010E+01 0.00000E+00
 -1      1371 3.31500E+01 4.74020E+01 0.00000E+00
 -1      1372 3.69000E+01 4.87010E+01 0.00000E+00
 -1      1373 3.84000E+01 4.87010E+01 0.00000E+00
 -1      1374 3.61500E+01 4.74020E+01 0.00000E+00
 -1      1375 3.99000E+01 4.87010E+01 0.00000E+00
 -1      1376 4.14000E+01 4.87010E+01 0.00000E+00
 -1      1377 3.91500E+01 4.74020E+01 0.00000E+00
 -1      1378 4.29000E+01 4.87010E+01 0.00000E+00
 -1      1379 4.44000E+01 4.87010E+01 0.00000E+00
 -1      1380 4.21500E+01 4.74020E+01 0.00000E+00
 -1      1381 4.59000E+01 4.87010E+01 0.00000E+00
 -1      1382 4.74000E+01 4.87010E+01 0.00000E+00
 -1      1383 4.51500E+01 4.74020E+01 0.00000E+00
 -1      1384 4.89000E+01 4.87010E+01 0.00000E+00
 -1      1385 5.04000E+01 4.87010E+01 0.00000E+00
 -1      1386 4.81500E+01 4.74020E+01 0.00000E+00
 -1      1387 5.19000E+01 4.87010E+01 0.00000E+00
 -1      1388 5.34000E+01 4.87010E+01 0.00000E+00
 -1      1389 5.11500E+01 4.74020E+01 0.00000E+00
 -1      1390 5.49000E+01 4.87010E+01 0.00000E+00
 -1      1391 5.64000E+01 4.87010E+01 0.00000E+00
 -1      1392 5.41500E+01 4.74020E+01 0.00000E+00
 -1      1393 5.79000E+01 4.87010E+01 0.00000E+00
 -1      1394 5.94000E+01 4.87010E+01 0.00000E+00
 -1      1395 5.71500E+01 4.74020E+01 0.00000E+00
 -1      1396 6.09000E+01 4.87010E+01 0.00000E+00
 -1      1397 6.24000E+01 4.87010E+01 0.00000E+00
 -1      1398 6.01500E+01 4.74020E+01 0.00000E+00
 -1      1399 6.39000E+01 4.87010E+01 0.00000E+00
 -1      1400 6.54000E+01 4.87010E+01 0.00000E+00
 -1      1401 6.31500E+01 4.74020E+01 0.00000E+00
 -1      1402 6.69000E+01 4.87010E+01 0.00000E+00
 -1      1403 6.84000E+01 4.87010E+01 0.00000E+00
 -1      1404 6.61500E+01 4.74020E+01 0.00000E+00
 -1      1405 6.99000E+01 4.87010E+01 0.00000E+00
 -1      1406 7.14000E+01 4.87010E+01 0.00000E+00
 -1      1407 6.91500E+01 4.74020E+01 0.00000E+00
 -1      1408 7.29000E+01 4.87010E+01 0.00000E+00
 -1      1409 7.44000E+01 4.87010E+01 0.00000E+00
 -1      1410 7.21500E+01 4.74020E+01 0.00000E+00
 -1      1411 7.59000E+01 4.87010E+01 0.00000E+00
 -1      1412 7.74000E+01 4.87010E+01 0.00000E+00
 -1      1413 7.51500E+01 4.74020E+01 0.00000E+00
 -1      1414 7.89000E+01 4.87010E+01 0.00000E+00
 -1      1415 8.04000E+01 4.87010E+01 0.00000E+00
 -1      1416 7.81500E+01 4.74020E+01 0.00000E+00
 -1      1417 8.19000E+01 4.87010E+01 0.00000E+00
 -1      1418 8.34000E+01 4.87010E+01 0.00000E+00
 -1      1419 8.11500E+01 4.74020E+01 0.00000E+00
 -1      1420 8.49000E+01 4.87010E+01 0.00000E+00
 -1      1421 8.64000E+01 4.87010E+01 0.00000E+00
 -1      1422 8.41500E+01 4.74020E+01 0.00000E+00
 -1      1423 8.79000E+01 4.87010E+01 0.00000E+00
 -1      1424 8.94000E+01 4.87010E+01 0.00000E+00
 -1      1425 8.71500E+01 4.74020E+01 0.00000E+00
 -1      1426 9.09000E+01 4.87010E+01 0.00000E+00
 -1      1427 9.24000E+01 4.87010E+01 0.00000E+00
 -1      1428 9.01500E+01 4.74020E+01 0.00000E+00
 -1      1429 9.39000E+01 4.87010E+01 0.00000E+00
 -1      1430 9.54000E+01 4.87010E+01 0.00000E+00
 -1      1431 9.31500E+01 4.74020E+01 0.00000E+00
 -1      1432 9.69000E+01 4.87010E+01 0.00000E+00
 -1      1433 9.84000E+01 4.87010E+01 0.00000E+00
 -1      1434 9.61500E+01 4.74020E+01 0.00000E+00
 -1      1435 9.99000E+01 4.87010E+01 0.00000E+00
 -1      1436 1.01400E+02 4.87010E+01 0.00000E+00
 -1      1437 9.91500E+01 4.74020E+01 0.00000E+00
 -1      1438 1.02900E+02 4.87010E+01 0.00000E+00
 -1      1439 1.04400E+02 4.87010E+01 0.00000E+00
 -1      1440 1.02150E+02 4.74020E+01 0.00000E+00
 -1      1441 1.05900E+02 4.87010E+01 0.00000E+00
 -1      1442 1.07400E+02 4.87010E+01 0.00000E+00
 -1      1443 1.05150E+02 4.74020E+01 0.00000E+00
 -1      1444 1.08900E+02 4.87010E+01 0.00000E+00
 -1      1445 1.10400E+02 4.87010E+01 0.00000E+00
 -1      1446 1.08150E+02 4.74020E+01 0.00000E+00
 -1      1447 1.11900E+02 4.87010E+01 0.00000E+00
 -1      1448 1.13400E+02 4.87010E+01 0.00000E+00
 -1      1449 1.11150E+02 4.74020E+01 0.00000E+00
 -1      1450 1.14900E+02 4.87010E+01 0.00000E+00
 -1      1451 1.16400E+02 4.87010E+01 0.00000E+00
 -1      1452 1.14150E+02 4.74020E+01 0.00000E+00
 -1      1453 1.17900E+02 4.87010E+01 0.00000E+00
 -1      1454 1.19400E+02 4.87010E+01 0.00000E+00
 -1      1455 1.17150E+02 4.74020E+01 0.00000E+00
 -1      1456 1.20900E+02 4.87010E+01 0.00000E+00
 -1      1457 1.22400E+02 4.87010E+01 0.00000E+00
 -1      1458 1.20150E+02 4.74020E+01 0.00000E+00
 -1      1459 1.23900E+02 4.87010E+01 0.00000E+00
 -1      1460 1.25400E+02 4.87010E+01 0.00000E+00
 -1      1461 1.23150E+02 4.74020E+01 0.00000E+00
 -1      1462 1.26900E+02 4.87010E+01 0.00000E+00
 -1      1463 1.28400E+02 4.87010E+01 0.00000E+00
 -1      1464 1.26150E+02 4.74020E+01 0.00000E+00
 -1      1465 1.29900E+02 4.87010E+01 0.00000E+00
 -1      1466 1.31400E+02 4.87010E+01 0.00000E+00
 -1      1467 1.29150E+02 4.74020E+01 0.00000E+00
 -1      1468 1.32900E+02 4.87010E+01 0.00000E+00
 -1      1469 1.34400E+02 4.87010E+01 0.00000E+00
 -1      1470 1.32150E+02 4.74020E+01 0.00000E+00
 -1      1471 1.35900E+02 4.87010E+01 0.00000E+00
 -1      1472 1.37400E+02 4.87010E+01 0.00000E+00
 -1      1473 1.35150E+02 4.74020E+01 0.00000E+00
 -1      1474 1.38900E+02 4.87010E+01 0.00000E+00
 -1      1475 1.40400E+02 4.87010E+01 0.00000E+00
 -1      1476 1.38150E+02 4.74020E+01 0.00000E+00
 -1      1477 1.41900E+02 4.87010E+01 0.00000E+00
 -1      1478 1.43400E+02 4.87010E+01 0.00000E+00
 -1      1479 1.41150E+02 4.74020E+01 0.00000E+00
 -1      1480 1.44900E+02 4.87010E+01 0.00000E+00
 -1      1481 1.46400E+02 4.87010E+01 0.00000E+00
 -1      1482 1.44150E+02 4.74020E+01 0.00000E+00
 -1      1483 1.48575E+02 4.85500E+01 0.00000E+00
 -1      1484 1.47825E+02 4.72510E+01 0.00000E+00
 -1      1485 6.01200E+00 1.09375E+00 0.00000E+00
 -1      1486 4.51200E+00 1.09375E+00 0.00000E+00
 -1      1487 4.37400E+00 2.18750E+00 0.00000E+00
 -1      1488 9.01200E+00 1.09375E+00 0.00000E+00
 -1      1489 7.51200E+00 1.09375E+00 0.00000E+00
 -1      1490 7.37400E+00 2.18750E+00 0.00000E+00
 -1      1491 1.20120E+01 1.09375E+00 0.00000E+00
 -1      1492 1.05120E+01 1.09375E+00 0.00000E+00
 -1      1493 1.03740E+01 2.18750E+00 0.00000E+00
 -1      1494 1.50120E+01 1.09375E+00 0.00000E+00
 -1      1495 1.35120E+01 1.09375E+00 0.00000E+00
 -1      1496 1.33740E+01 2.18750E+00 0.00000E+00
 -1      1497 1.80120E+01 1.09375E+00 0.00000E+00
 -1      1498 1.65120E+01 1.09375E+00 0.00000E+00
 -1      1499 1.63740E+01 2.18750E+00 0.00000E+00
 -1      1500 2.10120E+01 1.09375E+00 0.00000E+00
 -1      1501 1.95120E+01 1.09375E+00 0.00000E+00
 -1      1502 1.93740E+01 2.18750E+00 0.00000E+00
 -1      1503 2.40120E+01 1.09375E+00 0.00000E+00
 -1      1504 2.25120E+01 1.09375E+00 0.00000E+00
 -1      1505 2.23740E+01 2.18750E+00 0.00000E+00
 -1      1506 2.70120E+01 1.09375E+00 0.00000E+00
 -1      1507 2.55120E+01 1.09375E+00 0.00000E+00
 -1      1508 2.53740E+01 2.18750E+00 0.00000E+00
 -1      1509 3.00120E+01 1.09375E+00 0.00000E+00
 -1      1510 2.85120E+01 1.09375E+00 0.00000E+00
 -1      1511 2.83740E+01 2.18750E+00 0.00000E+00
 -1      1512 3.30120E+01 1.09375E+00 0.00000E+00
 -1      1513 3.15120E+01 1.09375E+00 0.00000E+00
 -1      1514 3.13740E+01 2.18750E+00 0.00000E+00
 -1      1515 3.60120E+01 1.09375E+00 0.00000E+00
 -1      1516 3.45120E+01 1.09375E+00 0.00000E+00
 -1      1517 3.43740E+01 2.18750E+00 0.00000E+00
 -1      1518 3.90120E+01 1.09375E+00 0.00000E+00
 -1      1519 3.75120E+01 1.09375E+00 0.00000E+00
 -1      1520 3.73740E+01 2.18750E+00 0.00000E+00
 -1      1521 4.20120E+01 1.09375E+00 0.00000E+00
 -1      1522 4.05120E+01 1.09375E+00 0.00000E+00
 -1      1523 4.03740E+01 2.18750E+00 0.00000E+00
 -1      1524 4.50120E+01 1.09375E+00 0.00000E+00
 -1      1525 4.35120E+01 1.09375E+00 0.00000E+00
 -1      1526 4.33740E+01 2.18750E+00 0.00000E+00
 -1      1527 4.80120E+01 1.09375E+00 0.00000E+00
 -1      1528 4.65120E+01 1.09375E+00 0.00000E+00
 -1      1529 4.63740E+01 2.18750E+00 0.00000E+00
 -1      1530 5.10120E+01 1.09375E+00 0.00000E+00
 -1      1531 4.95120E+01 1.09375E+00 0.00000E+00
 -1      1532 4.93740E+01 2.18750E+00 0.00000E+00
 -1      1533 5.40120E+01 1.09375E+00 0.00000E+00
 -1      1534 5.25120E+01 1.09375E+00 0.00000E+00
 -1      1535 5.23740E+01 2.18750E+00 0.00000E+00
 -1      1536 5.70120E+01 1.09375E+00 0.00000E+00
 -1      1537 5.55120E+01 1.09375E+00 0.00000E+00
 -1      1538 5.53740E+01 2.18750E+00 0.00000E+00
 -1      1539 6.00120E+01 1.09375E+00 0.00000E+00
 -1      1540 5.85120E+01 1.09375E+00 0.00000E+00
 -1      1541 5.83740E+01 2.18750E+00 0.00000E+00
 -1      1542 6.30120E+01 1.09375E+00 0.00000E+00
 -1      1543 6.15120E+01 1.09375E+00 0.00000E+00
 -1      1544 6.13740E+01 2.18750E+00 0.00000E+00
 -1      1545 6.60120E+01 1.09375E+00 0.00000E+00
 -1      1546 6.45120E+01 1.09375E+00 0.00000E+00
 -1      1547 6.43740E+01 2.18750E+00 0.00000E+00
 -1      1548 6.90120E+01 1.09375E+00 0.00000E+00
 -1      1549 6.75120E+01 1.09375E+00 0.00000E+00
 -1      1550 6.73740E+01 2.18750E+00 0.00000E+00
 -1      1551 7.20120E+01 1.09375E+00 0.00000E+00
 -1      1552 7.05120E+01 1.09375E+00 0.00000E+00
 -1      1553 7.03740E+01 2.18750E+00 0.00000E+00
 -1      1554 7.50120E+01 1.09375E+00 0.00000E+00
 -1      1555 7.35120E+01 1.09375E+00 0.00000E+00
 -1      1556 7.33740E+01 2.18750E+00 0.00000E+00
 -1      1557 7.80120E+01 1.09375E+00 0.00000E+00
 -1      1558 7.65120E+01 1.09375E+00 0.00000E+00
 -1      1559 7.63740E+01 2.18750E+00 0.00000E+00
 -1      1560 8.10120E+01 1.09375E+00 0.00000E+00
 -1      1561 7.95120E+01 1.09375E+00 0.00000E+00
 -1      1562 7.93740E+01 2.18750E+00 0.00000E+00
 -1      1563 8.40120E+01 1.09375E+00 0.00000E+00
 -1      1564 8.25120E+01 1.09375E+00 0.00000E+00
 -1      1565 8.23740E+01 2.18750E+00 0.00000E+00
 -1      1566 8.70120E+01 1.09375E+00 0.00000E+00
 -1      1567 8.55120E+01 1.09375E+00 0.00000E+00
 -1      1568 8.53740E+01 2.18750E+00 0.00000E+00
 -1      1569 9.00120E+01 1.09375E+00 0.00000E+00
 -1      1570 8.85120E+01 1.09375E+00 0.00000E+00
 -1      1571 8.83740E+01 2.18750E+00 0.00000E+00
 -1      1572 9.30120E+01 1.09375E+00 0.00000E+00
 -1      1573 9.15120E+01 1.09375E+00 0.00000E+00
 -1      1574 9.13740E+01 2.18750E+00 0.00000E+00
 -1      1575 9.60120E+01 1.09375E+00 0.00000E+00
 -1      1576 9.45120E+01 1.09375E+00 0.00000E+00
 -1      1577 9.43740E+01 2.18750E+00 0.00000E+00
 -1      1578 9.90120E+01 1.09375E+00 0.00000E+00
 -1      1579 9.75120E+01 1.09375E+00 0.00000E+00
 -1      1580 9.73740E+01 2.18750E+00 0.00000E+00
 -1      1581 1.02012E+02 1.09375E+00 0.00000E+00
 -1      1582 1.00512E+02 1.09375E+00 0.00000E+00
 -1      1583 1.00374E+02 2.18750E+00 0.00000E+00
 -1      1584 1.05012E+02 1.09375E+00 0.00000E+00
 -1      1585 1.03512E+02 1.09375E+00 0.00000E+00
 -1      1586 1.03374E+02 2.18750E+00 0.00000E+00
 -1      1587 1.08012E+02 1.09375E+00 0.00000E+00
 -1      1588 1.06512E+02 1.09375E+00 0.00000E+00
 -1      1589 1.06374E+02 2.18750E+00 0.00000E+00
 -1      1590 1.11012E+02 1.09375E+00 0.00000E+00
 -1      1591 1.09512E+02 1.09375E+00 0.00000E+00
 -1      1592 1.09374E+02 2.18750E+00 0.00000E+00
 -1      1593 1.14012E+02 1.09375E+00 0.00000E+00
 -1      1594 1.12512E+02 1.09375E+00 0.00000E+00
 -1      1595 1.12374E+02 2.18750E+00 0.00000E+00
 -1      1596 1.17012E+02 1.09375E+00 0.00000E+00
 -1      1597 1.15512E+02 1.09375E+00 0.00000E+00
 -1      1598 1.15374E+02 2.18750E+00 0.00000E+00
 -1      1599 1.20012E+02 1.09375E+00 0.00000E+00
 -1      1600 1.18512E+02 1.09375E+00 0.00000E+00
 -1      1601 1.18374E+02 2.18750E+00 0.00000E+00
 -1      1602 1.23012E+02 1.09375E+00 0.00000E+00
 -1      1603 1.21512E+02 1.09375E+00 0.00000E+00
 -1      1604 1.21374E+02 2.18750E+00 0.00000E+00
 -1      1605 1.26012E+02 1.09375E+00 0.00000E+00
 -1      1606 1.24512E+02 1.09375E+00 0.00000E+00
 -1      1607 1.24374E+02 2.18750E+00 0.00000E+00
 -1      1608 1.29012E+02 1.09375E+00 0.00000E+00
 -1      1609 1.27512E+02 1.09375E+00 0.00000E+00
 -1      1610 1.27374E+02 2.18750E+00 0.00000E+00
 -1      1611 1.32012E+02 1.09375E+00 0.00000E+00
 -1      1612 1.30512E+02 1.09375E+00 0.00000E+00
 -1      1613 1.30374E+02 2.18750E+00 0.00000E+00
 -1      1614 1.35012E+02 1.09375E+00 0.00000E+00
 -1      1615 1.33512E+02 1.09375E+00 0.00000E+00
 -1      1616 1.33374E+02 2.18750E+00 0.00000E+00
 -1      1617 1.38012E+02 1.09375E+00 0.00000E+00
 -1      1618 1.36512E+02 1.09375E+00 0.00000E+00
 -1      1619 1.36374E+02 2.18750E+00 0.00000E+00
 -1      1620 1.41012E+02 1.09375E+00 0.00000E+00
 -1      1621 1.39512E+02 1.09375E+00 0.00000E+00
 -1      1622 1.39374E+02 2.18750E+00 0.00000E+00
 -1      1623 1.44012E+02 1.09375E+00 0.00000E+00
 -1      1624 1.42512E+02 1.09375E+00 0.00000E+00
 -1      1625 1.42374E+02 2.18750E+00 0.00000E+00
 -1      1626 1.47012E+02 1.09375E+00 0.00000E+00
 -1      1627 1.45512E+02 1.09375E+00 0.00000E+00
 -1      1628 1.45374E+02 2.18750E+00 0.00000E+00
 -1      1629 1.48575E+02 1.47500E+00 0.00000E+00
 -1      1630 1.48701E+02 5.16250E+00 0.00000E+00
 -1      1631 1.48701E+02 3.68750E+00 0.00000E+00
 -1      1632 1.48701E+02 8.11250E+00 0.00000E+00
 -1      1633 1.48701E+02 6.63750E+00 0.00000E+00
 -1      1634 1.47402E+02 5.90000E+00 0.00000E+00
 -1      1635 1.48701E+02 1.10625E+01 0.00000E+00
 -1      1636 1.48701E+02 9.58750E+00 0.00000E+00
 -1      1637 1.47402E+02 8.85000E+00 0.00000E+00
 -1      1638 1.48701E+02 1.40125E+01 0.00000E+00
 -1      1639 1.48701E+02 1.25375E+01 0.00000E+00
 -1      1640 1.47402E+02 1.18000E+01 0.00000E+00
 -1      1641 1.48701E+02 1.69125E+01 0.00000E+00
 -1      1642 1.48701E+02 1.54625E+01 0.00000E+00
 -1      1643 1.47402E+02 1.47250E+01 0.00000E+00
 -1      1644 1.48701E+02 1.98625E+01 0.00000E+00
 -1      1645 1.48701E+02 1.83875E+01 0.00000E+00
 -1      1646 1.47402E+02 1.76500E+01 0.00000E+00
 -1      1647 1.48701E+02 2.28125E+01 0.00000E+00
 -1      1648 1.48701E+02 2.13375E+01 0.00000E+00
 -1      1649 1.47402E+02 2.06000E+01 0.00000E+00
 -1      1650 1.48701E+02 2.57625E+01 0.00000E+00
 -1      1651 1.48701E+02 2.42875E+01 0.00000E+00
 -1      1652 1.47402E+02 2.35500E+01 0.00000E+00
 -1      1653 1.48701E+02 2.87125E+01 0.00000E+00
 -1      1654 1.48701E+02 2.72375E+01 0.00000E+00
 -1      1655 1.47402E+02 2.65000E+01 0.00000E+00
 -1      1656 1.48701E+02 3.16625E+01 0.00000E+00
 -1      1657 1.48701E+02 3.01875E+01 0.00000E+00
 -1      1658 1.47402E+02 2.94500E+01 0.00000E+00
 -1      1659 1.48701E+02 3.45625E+01 0.00000E+00
 -1      1660 1.48701E+02 3.31125E+01 0.00000E+00
 -1      1661 1.47402E+02 3.23750E+01 0.00000E+00
 -1      1662 1.48701E+02 3.75125E+01 0.00000E+00
 -1      1663 1.48701E+02 3.60375E+01 0.00000E+00
 -1      1664 1.47402E+02 3.53000E+01 0.00000E+00
 -1      1665 1.48701E+02 4.04625E+01 0.00000E+00
 -1      1666 1.48701E+02 3.89875E+01 0.00000E+00
 -1      1667 1.47402E+02 3.82500E+01 0.00000E+00
 -1      1668 1.48701E+02 4.34125E+01 0.00000E+00
 -1      1669 1.48701E+02 4.19375E+01 0.00000E+00
 -1      1670 1.47402E+02 4.12000E+01 0.00000E+00
 -1      1671 1.48263E+02 4.60692E+01 0.00000E+00
 -1      1672 1.48263E+02 4.45942E+01 0.00000E+00
 -1      1673 1.46964E+02 4.38568E+01 0.00000E+00
 -1      1674 1.46088E+02 4.62202E+01 0.00000E+00
 -1      1675 1.13926E+02 2.38901E+01 0.00000E+00
 -1      1676 1.14001E+02 2.46098E+01 0.00000E+00
 -1      1677 1.13638E+02 2.22034E+01 0.00000E+00
 -1      1678 1.13892E+02 2.29663E+01 0.00000E+00
 -1      1679 1.12753E+02 2.08466E+01 0.00000E+00
 -1      1680 1.13116E+02 2.14529E+01 0.00000E+00
 -1      1681 1.11733E+02 1.96175E+01 0.00000E+00
 -1      1682 1.12242E+02 2.01675E+01 0.00000E+00
 -1      1683 1.10461E+02 1.86147E+01 0.00000E+00
 -1      1684 1.11074E+02 1.90431E+01 0.00000E+00
 -1      1685 1.09032E+02 1.78705E+01 0.00000E+00
 -1      1686 1.09715E+02 1.81567E+01 0.00000E+00
 -1      1687 1.07325E+02 1.73075E+01 0.00000E+00
 -1      1688 1.08160E+02 1.74500E+01 0.00000E+00
 -1      1689 1.05649E+02 1.74961E+01 0.00000E+00
 -1      1690 1.06374E+02 1.74554E+01 0.00000E+00
 -1      1691 1.03936E+02 1.78001E+01 0.00000E+00
 -1      1692 1.04732E+02 1.75722E+01 0.00000E+00
 -1      1693 1.02261E+02 1.85201E+01 0.00000E+00
 -1      1694 1.02984E+02 1.81097E+01 0.00000E+00
 -1      1695 1.00871E+02 1.96550E+01 0.00000E+00
 -1      1696 1.01460E+02 1.91065E+01 0.00000E+00
 -1      1697 9.98184E+01 2.10150E+01 0.00000E+00
 -1      1698 1.00249E+02 2.03791E+01 0.00000E+00
 -1      1699 9.90247E+01 2.26813E+01 0.00000E+00
 -1      1700 9.93290E+01 2.18789E+01 0.00000E+00
 -1      1701 9.88875E+01 2.43672E+01 0.00000E+00
 -1      1702 9.89856E+01 2.36489E+01 0.00000E+00
 -1      1703 9.88414E+01 2.60135E+01 0.00000E+00
 -1      1704 9.87813E+01 2.52460E+01 0.00000E+00
 -1      1705 9.92994E+01 2.75772E+01 0.00000E+00
 -1      1706 9.90859E+01 2.68717E+01 0.00000E+00
 -1      1707 9.99412E+01 2.91621E+01 0.00000E+00
 -1      1708 9.95465E+01 2.84636E+01 0.00000E+00
 -1      1709 1.01057E+02 3.03692E+01 0.00000E+00
 -1      1710 1.00569E+02 2.98279E+01 0.00000E+00
 -1      1711 1.02306E+02 3.14789E+01 0.00000E+00
 -1      1712 1.01669E+02 3.10232E+01 0.00000E+00
 -1      1713 1.03776E+02 3.21282E+01 0.00000E+00
 -1      1714 1.03116E+02 3.18444E+01 0.00000E+00
 -1      1715 1.05335E+02 3.25688E+01 0.00000E+00
 -1      1716 1.04592E+02 3.24223E+01 0.00000E+00
 -1      1717 1.07041E+02 3.27474E+01 0.00000E+00
 -1      1718 1.06249E+02 3.27689E+01 0.00000E+00
 -1      1719 1.08655E+02 3.22750E+01 0.00000E+00
 -1      1720 1.07929E+02 3.24589E+01 0.00000E+00
 -1      1721 1.10206E+02 3.16975E+01 0.00000E+00
 -1      1722 1.09521E+02 3.20406E+01 0.00000E+00
 -1      1723 1.11403E+02 3.07594E+01 0.00000E+00
 -1      1724 1.10878E+02 3.11759E+01 0.00000E+00
 -1      1725 1.12531E+02 2.96704E+01 0.00000E+00
 -1      1726 1.12056E+02 3.02368E+01 0.00000E+00
 -1      1727 1.13315E+02 2.83103E+01 0.00000E+00
 -1      1728 1.12980E+02 2.89362E+01 0.00000E+00
 -1      1729 1.13791E+02 2.68581E+01 0.00000E+00
 -1      1730 1.13592E+02 2.75292E+01 0.00000E+00
 -1      1731 1.14008E+02 2.54189E+01 0.00000E+00
 -1      1732 1.13945E+02 2.60775E+01 0.00000E+00
 -1      1733 1.11773E+02 1.89063E+01 0.00000E+00
 -1      1734 1.12944E+02 2.01598E+01 0.00000E+00
 -1      1735 1.48437E+02 2.56875E+00 0.00000E+00
 -1      1736 1.47138E+02 3.30625E+00 0.00000E+00
 -1      1737 1.14533E+02 2.32635E+01 0.00000E+00
 -1      1738 1.13977E+02 2.15893E+01 0.00000E+00
 -1      1739 1.14573E+02 2.49964E+01 0.00000E+00
 -1      1740 1.10369E+02 1.78738E+01 0.00000E+00
 -1      1741 1.08752E+02 1.69953E+01 0.00000E+00
 -1      1742 1.06928E+02 1.67226E+01 0.00000E+00
 -1      1743 1.05061E+02 1.69466E+01 0.00000E+00
 -1      1744 1.03192E+02 1.73324E+01 0.00000E+00
 -1      1745 1.01439E+02 1.82284E+01 0.00000E+00
 -1      1746 1.00015E+02 1.95390E+01 0.00000E+00
 -1      1747 9.89036E+01 2.11271E+01 0.00000E+00
 -1      1748 9.83751E+01 2.29585E+01 0.00000E+00
 -1      1749 9.82297E+01 2.48048E+01 0.00000E+00
 -1      1750 9.83680E+01 2.65419E+01 0.00000E+00
 -1      1751 9.88596E+01 2.82865E+01 0.00000E+00
 -1      1752 9.97347E+01 2.98386E+01 0.00000E+00
 -1      1753 1.00974E+02 3.11583E+01 0.00000E+00
 -1      1754 1.02396E+02 3.21777E+01 0.00000E+00
 -1      1755 1.04023E+02 3.28373E+01 0.00000E+00
 -1      1756 1.05752E+02 3.33315E+01 0.00000E+00
 -1      1757 1.07553E+02 3.32431E+01 0.00000E+00
 -1      1758 1.09307E+02 3.27202E+01 0.00000E+00
 -1      1759 1.10845E+02 3.19643E+01 0.00000E+00
 -1      1760 1.12169E+02 3.09200E+01 0.00000E+00
 -1      1761 1.13270E+02 2.96632E+01 0.00000E+00
 -1      1762 1.13996E+02 2.81479E+01 0.00000E+00
 -1      1763 1.14426E+02 2.65861E+01 0.00000E+00
 -1      1764 2.87400E+00 4.77875E+01 0.00000E+00
 -1      1765 3.89700E+00 4.04125E+01 0.00000E+00
 -1      1766 3.89700E+00 4.18875E+01 0.00000E+00
 -1      1767 3.89700E+00 4.33625E+01 0.00000E+00
 -1      1768 3.89700E+00 4.48375E+01 0.00000E+00
 -1      1769 5.19600E+00 4.26250E+01 0.00000E+00
 -1      1770 3.89700E+00 3.45500E+01 0.00000E+00
 -1      1771 3.89700E+00 3.60000E+01 0.00000E+00
 -1      1772 3.89700E+00 3.16000E+01 0.00000E+00
 -1      1773 3.89700E+00 3.30750E+01 0.00000E+00
 -1      1774 5.19600E+00 3.38000E+01 0.00000E+00
 -1      1775 3.89700E+00 2.86500E+01 0.00000E+00
 -1      1776 3.89700E+00 3.01250E+01 0.00000E+00
 -1      1777 5.19600E+00 3.08500E+01 0.00000E+00
 -1      1778 3.89700E+00 2.57000E+01 0.00000E+00
 -1      1779 3.89700E+00 2.71750E+01 0.00000E+00
 -1      1780 5.19600E+00 2.79000E+01 0.00000E+00
 -1      1781 3.89700E+00 2.27500E+01 0.00000E+00
 -1      1782 3.89700E+00 2.42250E+01 0.00000E+00
 -1      1783 5.19600E+00 2.49500E+01 0.00000E+00
 -1      1784 3.89700E+00 1.98000E+01 0.00000E+00
 -1      1785 3.89700E+00 2.12750E+01 0.00000E+00
 -1      1786 5.19600E+00 2.20000E+01 0.00000E+00
 -1      1787 3.89700E+00 1.69000E+01 0.00000E+00
 -1      1788 3.89700E+00 1.83500E+01 0.00000E+00
 -1      1789 5.19600E+00 1.90750E+01 0.00000E+00
 -1      1790 3.89700E+00 1.39500E+01 0.00000E+00
 -1      1791 3.89700E+00 1.54250E+01 0.00000E+00
 -1      1792 5.19600E+00 1.61500E+01 0.00000E+00
 -1      1793 3.89700E+00 1.10000E+01 0.00000E+00
 -1      1794 3.89700E+00 1.24750E+01 0.00000E+00
 -1      1795 5.19600E+00 1.32000E+01 0.00000E+00
 -1      1796 3.89700E+00 8.05000E+00 0.00000E+00
 -1      1797 3.89700E+00 9.52500E+00 0.00000E+00
 -1      1798 5.19600E+00 1.02500E+01 0.00000E+00
 -1      1799 3.89700E+00 5.10000E+00 0.00000E+00
 -1      1800 3.89700E+00 6.57500E+00 0.00000E+00
 -1      1801 5.19600E+00 7.30000E+00 0.00000E+00
 -1      1802 4.20450E+00 3.09687E+00 0.00000E+00
 -1      1803 4.06650E+00 4.19063E+00 0.00000E+00
 -1      1804 5.36550E+00 4.91563E+00 0.00000E+00
 -1      1805 5.70450E+00 3.09687E+00 0.00000E+00
 -1      1806 3.62400E+00 4.64885E+01 0.00000E+00
 -1      1807 8.70450E+00 3.09687E+00 0.00000E+00
 -1      1808 7.20450E+00 3.09687E+00 0.00000E+00
 -1      1809 7.03500E+00 4.00625E+00 0.00000E+00
 -1      1810 4.92300E+00 4.57510E+01 0.00000E+00
 -1      1811 8.40000E+00 4.61030E+01 0.00000E+00
 -1      1812 9.90000E+00 4.61030E+01 0.00000E+00
 -1      1813 1.14000E+01 4.61030E+01 0.00000E+00
 -1      1814 1.29000E+01 4.61030E+01 0.00000E+00
 -1      1815 1.06500E+01 4.48040E+01 0.00000E+00
 -1      1816 1.44000E+01 4.61030E+01 0.00000E+00
 -1      1817 1.59000E+01 4.61030E+01 0.00000E+00
 -1      1818 1.36500E+01 4.48040E+01 0.00000E+00
 -1      1819 1.74000E+01 4.61030E+01 0.00000E+00
 -1      1820 1.89000E+01 4.61030E+01 0.00000E+00
 -1      1821 1.66500E+01 4.48040E+01 0.00000E+00
 -1      1822 2.04000E+01 4.61030E+01 0.00000E+00
 -1      1823 2.19000E+01 4.61030E+01 0.00000E+00
 -1      1824 1.96500E+01 4.48040E+01 0.00000E+00
 -1      1825 2.34000E+01 4.61030E+01 0.00000E+00
 -1      1826 2.49000E+01 4.61030E+01 0.00000E+00
 -1      1827 2.26500E+01 4.48040E+01 0.00000E+00
 -1      1828 2.64000E+01 4.61030E+01 0.00000E+00
 -1      1829 2.79000E+01 4.61030E+01 0.00000E+00
 -1      1830 2.56500E+01 4.48040E+01 0.00000E+00
 -1      1831 2.94000E+01 4.61030E+01 0.00000E+00
 -1      1832 3.09000E+01 4.61030E+01 0.00000E+00
 -1      1833 2.86500E+01 4.48040E+01 0.00000E+00
 -1      1834 3.24000E+01 4.61030E+01 0.00000E+00
 -1      1835 3.39000E+01 4.61030E+01 0.00000E+00
 -1      1836 3.16500E+01 4.48040E+01 0.00000E+00
 -1      1837 3.54000E+01 4.61030E+01 0.00000E+00
 -1      1838 3.69000E+01 4.61030E+01 0.00000E+00
 -1      1839 3.46500E+01 4.48040E+01 0.00000E+00
 -1      1840 3.84000E+01 4.61030E+01 0.00000E+00
 -1      1841 3.99000E+01 4.61030E+01 0.00000E+00
 -1      1842 3.76500E+01 4.48040E+01 0.00000E+00
 -1      1843 4.14000E+01 4.61030E+01 0.00000E+00
 -1      1844 4.29000E+01 4.61030E+01 0.00000E+00
 -1      1845 4.06500E+01 4.48040E+01 0.00000E+00
 -1      1846 4.44000E+01 4.61030E+01 0.00000E+00
 -1      1847 4.59000E+01 4.61030E+01 0.00000E+00
 -1      1848 4.36500E+01 4.48040E+01 0.00000E+00
 -1      1849 4.74000E+01 4.61030E+01 0.00000E+00
 -1      1850 4.89000E+01 4.61030E+01 0.00000E+00
 -1      1851 4.66500E+01 4.48040E+01 0.00000E+00
 -1      1852 5.04000E+01 4.61030E+01 0.00000E+00
 -1      1853 5.19000E+01 4.61030E+01 0.00000E+00
 -1      1854 4.96500E+01 4.48040E+01 0.00000E+00
 -1      1855 5.34000E+01 4.61030E+01 0.00000E+00
 -1      1856 5.49000E+01 4.61030E+01 0.00000E+00
 -1      1857 5.26500E+01 4.48040E+01 0.00000E+00
 -1      1858 5.64000E+01 4.61030E+01 0.00000E+00
 -1      1859 5.79000E+01 4.61030E+01 0.00000E+00
 -1      1860 5.56500E+01 4.48040E+01 0.00000E+00
 -1      1861 5.94000E+01 4.61030E+01 0.00000E+00
 -1      1862 6.09000E+01 4.61030E+01 0.00000E+00
 -1      1863 5.86500E+01 4.48040E+01 0.00000E+00
 -1      1864 6.24000E+01 4.61030E+01 0.00000E+00
 -1      1865 6.39000E+01 4.61030E+01 0.00000E+00
 -1      1866 6.16500E+01 4.48040E+01 0.00000E+00
 -1      1867 6.54000E+01 4.61030E+01 0.00000E+00
 -1      1868 6.69000E+01 4.61030E+01 0.00000E+00
 -1      1869 6.46500E+01 4.48040E+01 0.00000E+00
 -1      1870 6.84000E+01 4.61030E+01 0.00000E+00
 -1      1871 6.99000E+01 4.61030E+01 0.00000E+00
 -1      1872 6.76500E+01 4.48040E+01 0.00000E+00
 -1      1873 7.14000E+01 4.61030E+01 0.00000E+00
 -1      1874 7.29000E+01 4.61030E+01 0.00000E+00
 -1      1875 7.06500E+01 4.48040E+01 0.00000E+00
 -1      1876 7.44000E+01 4.61030E+01 0.00000E+00
 -1      1877 7.59000E+01 4.61030E+01 0.00000E+00
 -1      1878 7.36500E+01 4.48040E+01 0.00000E+00
 -1      1879 7.74000E+01 4.61030E+01 0.00000E+00
 -1      1880 7.89000E+01 4.61030E+01 0.00000E+00
 -1      1881 7.66500E+01 4.48040E+01 0.00000E+00
 -1      1882 8.04000E+01 4.61030E+01 0.00000E+00
 -1      1883 8.19000E+01 4.61030E+01 0.00000E+00
 -1      1884 7.96500E+01 4.48040E+01 0.00000E+00
 -1      1885 8.34000E+01 4.61030E+01 0.00000E+00
 -1      1886 8.49000E+01 4.61030E+01 0.00000E+00
 -1      1887 8.26500E+01 4.48040E+01 0.00000E+00
 -1      1888 8.64000E+01 4.61030E+01 0.00000E+00
 -1      1889 8.79000E+01 4.61030E+01 0.00000E+00
 -1      1890 8.56500E+01 4.48040E+01 0.00000E+00
 -1      1891 8.94000E+01 4.61030E+01 0.00000E+00
 -1      1892 9.09000E+01 4.61030E+01 0.00000E+00
 -1      1893 8.86500E+01 4.48040E+01 0.00000E+00
 -1      1894 9.24000E+01 4.61030E+01 0.00000E+00
 -1      1895 9.39000E+01 4.61030E+01 0.00000E+00
 -1      1896 9.16500E+01 4.48040E+01 0.00000E+00
 -1      1897 9.54000E+01 4.61030E+01 0.00000E+00
 -1      1898 9.69000E+01 4.61030E+01 0.00000E+00
 -1      1899 9.46500E+01 4.48040E+01 0.00000E+00
 -1      1900 9.84000E+01 4.61030E+01 0.00000E+00
 -1      1901 9.99000E+01 4.61030E+01 0.00000E+00
 -1      1902 9.76500E+01 4.48040E+01 0.00000E+00
 -1      1903 1.01400E+02 4.61030E+01 0.00000E+00
 -1      1904 1.02900E+02 4.61030E+01 0.00000E+00
 -1      1905 1.00650E+02 4.48040E+01 0.00000E+00
 -1      1906 1.04400E+02 4.61030E+01 0.00000E+00
 -1      1907 1.05900E+02 4.61030E+01 0.00000E+00
 -1      1908 1.03650E+02 4.48040E+01 0.00000E+00
 -1      1909 1.07400E+02 4.61030E+01 0.00000E+00
 -1      1910 1.08900E+02 4.61030E+01 0.00000E+00
 -1      1911 1.06650E+02 4.48040E+01 0.00000E+00
 -1      1912 1.10400E+02 4.61030E+01 0.00000E+00
 -1      1913 1.11900E+02 4.61030E+01 0.00000E+00
 -1      1914 1.09650E+02 4.48040E+01 0.00000E+00
 -1      1915 1.13400E+02 4.61030E+01 0.00000E+00
 -1      1916 1.14900E+02 4.61030E+01 0.00000E+00
 -1      1917 1.12650E+02 4.48040E+01 0.00000E+00
 -1      1918 1.16400E+02 4.61030E+01 0.00000E+00
 -1      1919 1.17900E+02 4.61030E+01 0.00000E+00
 -1      1920 1.15650E+02 4.48040E+01 0.00000E+00
 -1      1921 1.19400E+02 4.61030E+01 0.00000E+00
 -1      1922 1.20900E+02 4.61030E+01 0.00000E+00
 -1      1923 1.18650E+02 4.48040E+01 0.00000E+00
 -1      1924 1.22400E+02 4.61030E+01 0.00000E+00
 -1      1925 1.23900E+02 4.61030E+01 0.00000E+00
 -1      1926 1.21650E+02 4.48040E+01 0.00000E+00
 -1      1927 1.25400E+02 4.61030E+01 0.00000E+00
 -1      1928 1.26900E+02 4.61030E+01 0.00000E+00
 -1      1929 1.24650E+02 4.48040E+01 0.00000E+00
 -1      1930 1.28400E+02 4.61030E+01 0.00000E+00
 -1      1931 1.29900E+02 4.61030E+01 0.00000E+00
 -1      1932 1.27650E+02 4.48040E+01 0.00000E+00
 -1      1933 1.31400E+02 4.61030E+01 0.00000E+00
 -1      1934 1.32900E+02 4.61030E+01 0.00000E+00
 -1      1935 1.30650E+02 4.48040E+01 0.00000E+00
 -1      1936 1.34400E+02 4.61030E+01 0.00000E+00
 -1      1937 1.35900E+02 4.61030E+01 0.00000E+00
 -1      1938 1.33650E+02 4.48040E+01 0.00000E+00
 -1      1939 1.37400E+02 4.61030E+01 0.00000E+00
 -1      1940 1.38900E+02 4.61030E+01 0.00000E+00
 -1      1941 1.36650E+02 4.48040E+01 0.00000E+00
 -1      1942 1.40400E+02 4.61030E+01 0.00000E+00
 -1      1943 1.41900E+02 4.61030E+01 0.00000E+00
 -1      1944 1.39650E+02 4.48040E+01 0.00000E+00
 -1      1945 1.43244E+02 4.61616E+01 0.00000E+00
 -1      1946 1.44744E+02 4.61616E+01 0.00000E+00
 -1      1947 1.45182E+02 4.49799E+01 0.00000E+00
 -1      1948 1.42494E+02 4.48626E+01 0.00000E+00
 -1      1949 1.17045E+01 3.09687E+00 0.00000E+00
 -1      1950 1.02045E+01 3.09687E+00 0.00000E+00
 -1      1951 1.00350E+01 4.00625E+00 0.00000E+00
 -1      1952 1.47045E+01 3.09687E+00 0.00000E+00
 -1      1953 1.32045E+01 3.09687E+00 0.00000E+00
 -1      1954 1.30350E+01 4.00625E+00 0.00000E+00
 -1      1955 1.77045E+01 3.09687E+00 0.00000E+00
 -1      1956 1.62045E+01 3.09687E+00 0.00000E+00
 -1      1957 1.60350E+01 4.00625E+00 0.00000E+00
 -1      1958 2.07045E+01 3.09687E+00 0.00000E+00
 -1      1959 1.92045E+01 3.09687E+00 0.00000E+00
 -1      1960 1.90350E+01 4.00625E+00 0.00000E+00
 -1      1961 2.37045E+01 3.09687E+00 0.00000E+00
 -1      1962 2.22045E+01 3.09687E+00 0.00000E+00
 -1      1963 2.20350E+01 4.00625E+00 0.00000E+00
 -1      1964 2.67045E+01 3.09687E+00 0.00000E+00
 -1      1965 2.52045E+01 3.09687E+00 0.00000E+00
 -1      1966 2.50350E+01 4.00625E+00 0.00000E+00
 -1      1967 2.97045E+01 3.09687E+00 0.00000E+00
 -1      1968 2.82045E+01 3.09687E+00 0.00000E+00
 -1      1969 2.80350E+01 4.00625E+00 0.00000E+00
 -1      1970 3.27045E+01 3.09687E+00 0.00000E+00
 -1      1971 3.12045E+01 3.09687E+00 0.00000E+00
 -1      1972 3.10350E+01 4.00625E+00 0.00000E+00
 -1      1973 3.57045E+01 3.09687E+00 0.00000E+00
 -1      1974 3.42045E+01 3.09687E+00 0.00000E+00
 -1      1975 3.40350E+01 4.00625E+00 0.00000E+00
 -1      1976 3.87045E+01 3.09687E+00 0.00000E+00
 -1      1977 3.72045E+01 3.09687E+00 0.00000E+00
 -1      1978 3.70350E+01 4.00625E+00 0.00000E+00
 -1      1979 4.17045E+01 3.09687E+00 0.00000E+00
 -1      1980 4.02045E+01 3.09687E+00 0.00000E+00
 -1      1981 4.00350E+01 4.00625E+00 0.00000E+00
 -1      1982 4.47045E+01 3.09687E+00 0.00000E+00
 -1      1983 4.32045E+01 3.09687E+00 0.00000E+00
 -1      1984 4.30350E+01 4.00625E+00 0.00000E+00
 -1      1985 4.77045E+01 3.09687E+00 0.00000E+00
 -1      1986 4.62045E+01 3.09687E+00 0.00000E+00
 -1      1987 4.60350E+01 4.00625E+00 0.00000E+00
 -1      1988 5.07045E+01 3.09687E+00 0.00000E+00
 -1      1989 4.92045E+01 3.09687E+00 0.00000E+00
 -1      1990 4.90350E+01 4.00625E+00 0.00000E+00
 -1      1991 5.37045E+01 3.09687E+00 0.00000E+00
 -1      1992 5.22045E+01 3.09687E+00 0.00000E+00
 -1      1993 5.20350E+01 4.00625E+00 0.00000E+00
 -1      1994 5.67045E+01 3.09687E+00 0.00000E+00
 -1      1995 5.52045E+01 3.09687E+00 0.00000E+00
 -1      1996 5.50350E+01 4.00625E+00 0.00000E+00
 -1      1997 5.97045E+01 3.09687E+00 0.00000E+00
 -1      1998 5.82045E+01 3.09687E+00 0.00000E+00
 -1      1999 5.80350E+01 4.00625E+00 0.00000E+00
 -1      2000 6.27045E+01 3.09687E+00 0.00000E+00
 -1      2001 6.12045E+01 3.09687E+00 0.00000E+00
 -1      2002 6.10350E+01 4.00625E+00 0.00000E+00
 -1      2003 6.57045E+01 3.09687E+00 0.00000E+00
 -1      2004 6.42045E+01 3.09687E+00 0.00000E+00
 -1      2005 6.40350E+01 4.00625E+00 0.00000E+00
 -1      2006 6.87045E+01 3.09687E+00 0.00000E+00
 -1      2007 6.72045E+01 3.09687E+00 0.00000E+00
 -1      2008 6.70350E+01 4.00625E+00 0.00000E+00
 -1      2009 7.17045E+01 3.09687E+00 0.00000E+00
 -1      2010 7.02045E+01 3.09687E+00 0.00000E+00
 -1      2011 7.00350E+01 4.00625E+00 0.00000E+00
 -1      2012 7.47045E+01 3.09687E+00 0.00000E+00
 -1      2013 7.32045E+01 3.09687E+00 0.00000E+00
 -1      2014 7.30350E+01 4.00625E+00 0.00000E+00
 -1      2015 7.77045E+01 3.09687E+00 0.00000E+00
 -1      2016 7.62045E+01 3.09687E+00 0.00000E+00
 -1      2017 7.60350E+01 4.00625E+00 0.00000E+00
 -1      2018 8.07045E+01 3.09687E+00 0.00000E+00
 -1      2019 7.92045E+01 3.09687E+00 0.00000E+00
 -1      2020 7.90350E+01 4.00625E+00 0.00000E+00
 -1      2021 8.37045E+01 3.09687E+00 0.00000E+00
 -1      2022 8.22045E+01 3.09687E+00 0.00000E+00
 -1      2023 8.20350E+01 4.00625E+00 0.00000E+00
 -1      2024 8.67045E+01 3.09687E+00 0.00000E+00
 -1      2025 8.52045E+01 3.09687E+00 0.00000E+00
 -1      2026 8.50350E+01 4.00625E+00 0.00000E+00
 -1      2027 8.97045E+01 3.09687E+00 0.00000E+00
 -1      2028 8.82045E+01 3.09687E+00 0.00000E+00
 -1      2029 8.80350E+01 4.00625E+00 0.00000E+00
 -1      2030 9.27045E+01 3.09687E+00 0.00000E+00
 -1      2031 9.12045E+01 3.09687E+00 0.00000E+00
 -1      2032 9.10350E+01 4.00625E+00 0.00000E+00
 -1      2033 9.57045E+01 3.09687E+00 0.00000E+00
 -1      2034 9.42045E+01 3.09687E+00 0.00000E+00
 -1      2035 9.40350E+01 4.00625E+00 0.00000E+00
 -1      2036 9.87045E+01 3.09687E+00 0.00000E+00
 -1      2037 9.72045E+01 3.09687E+00 0.00000E+00
 -1      2038 9.70350E+01 4.00625E+00 0.00000E+00
 -1      2039 1.01704E+02 3.09687E+00 0.00000E+00
 -1      2040 1.00204E+02 3.09687E+00 0.00000E+00
 -1      2041 1.00035E+02 4.00625E+00 0.00000E+00
 -1      2042 1.04704E+02 3.09687E+00 0.00000E+00
 -1      2043 1.03204E+02 3.09687E+00 0.00000E+00
 -1      2044 1.03035E+02 4.00625E+00 0.00000E+00
 -1      2045 1.07704E+02 3.09687E+00 0.00000E+00
 -1      2046 1.06204E+02 3.09687E+00 0.00000E+00
 -1      2047 1.06035E+02 4.00625E+00 0.00000E+00
 -1      2048 1.10704E+02 3.09687E+00 0.00000E+00
 -1      2049 1.09204E+02 3.09687E+00 0.00000E+00
 -1      2050 1.09035E+02 4.00625E+00 0.00000E+00
 -1      2051 1.13704E+02 3.09687E+00 0.00000E+00
 -1      2052 1.12204E+02 3.09687E+00 0.00000E+00
 -1      2053 1.12035E+02 4.00625E+00 0.00000E+00
 -1      2054 1.16704E+02 3.09687E+00 0.00000E+00
 -1      2055 1.15204E+02 3.09687E+00 0.00000E+00
 -1      2056 1.15035E+02 4.00625E+00 0.00000E+00
 -1      2057 1.19704E+02 3.09687E+00 0.00000E+00
 -1      2058 1.18204E+02 3.09687E+00 0.00000E+00
 -1      2059 1.18035E+02 4.00625E+00 0.00000E+00
 -1      2060 1.22704E+02 3.09687E+00 0.00000E+00
 -1      2061 1.21204E+02 3.09687E+00 0.00000E+00
 -1      2062 1.21035E+02 4.00625E+00 0.00000E+00
 -1      2063 1.25704E+02 3.09687E+00 0.00000E+00
 -1      2064 1.24204E+02 3.09687E+00 0.00000E+00
 -1      2065 1.24035E+02 4.00625E+00 0.00000E+00
 -1      2066 1.28704E+02 3.09687E+00 0.00000E+00
 -1      2067 1.27204E+02 3.09687E+00 0.00000E+00
 -1      2068 1.27035E+02 4.00625E+00 0.00000E+00
 -1      2069 1.31704E+02 3.09687E+00 0.00000E+00
 -1      2070 1.30204E+02 3.09687E+00 0.00000E+00
 -1      2071 1.30035E+02 4.00625E+00 0.00000E+00
 -1      2072 1.34704E+02 3.09687E+00 0.00000E+00
 -1      2073 1.33204E+02 3.09687E+00 0.00000E+00
 -1      2074 1.33035E+02 4.00625E+00 0.00000E+00
 -1      2075 1.37704E+02 3.09687E+00 0.00000E+00
 -1      2076 1.36204E+02 3.09687E+00 0.00000E+00
 -1      2077 1.36035E+02 4.00625E+00 0.00000E+00
 -1      2078 1.40704E+02 3.09687E+00 0.00000E+00
 -1      2079 1.39204E+02 3.09687E+00 0.00000E+00
 -1      2080 1.39035E+02 4.00625E+00 0.00000E+00
 -1      2081 1.43704E+02 3.09687E+00 0.00000E+00
 -1      2082 1.42204E+02 3.09687E+00 0.00000E+00
 -1      2083 1.42035E+02 4.00625E+00 0.00000E+00
 -1      2084 1.46171E+02 3.20156E+00 0.00000E+00
 -1      2085 1.44671E+02 3.20156E+00 0.00000E+00
 -1      2086 1.44502E+02 4.11094E+00 0.00000E+00
 -1      2087 1.46435E+02 4.32031E+00 0.00000E+00
 -1      2088 1.46103E+02 1.25375E+01 0.00000E+00
 -1      2089 1.46103E+02 1.10625E+01 0.00000E+00
 -1      2090 1.46103E+02 9.58750E+00 0.00000E+00
 -1      2091 1.46103E+02 8.11250E+00 0.00000E+00
 -1      2092 1.44804E+02 1.03250E+01 0.00000E+00
 -1      2093 1.46269E+02 6.95391E+00 0.00000E+00
 -1      2094 1.46269E+02 5.47891E+00 0.00000E+00
 -1      2095 1.45302E+02 5.37422E+00 0.00000E+00
 -1      2096 1.44970E+02 7.69141E+00 0.00000E+00
 -1      2097 1.46103E+02 1.54375E+01 0.00000E+00
 -1      2098 1.46103E+02 1.39875E+01 0.00000E+00
 -1      2099 1.44804E+02 1.32500E+01 0.00000E+00
 -1      2100 1.46103E+02 1.83875E+01 0.00000E+00
 -1      2101 1.46103E+02 1.69125E+01 0.00000E+00
 -1      2102 1.44804E+02 1.61750E+01 0.00000E+00
 -1      2103 1.46103E+02 2.13375E+01 0.00000E+00
 -1      2104 1.46103E+02 1.98625E+01 0.00000E+00
 -1      2105 1.44804E+02 1.91250E+01 0.00000E+00
 -1      2106 1.46103E+02 2.42875E+01 0.00000E+00
 -1      2107 1.46103E+02 2.28125E+01 0.00000E+00
 -1      2108 1.44804E+02 2.20750E+01 0.00000E+00
 -1      2109 1.46103E+02 2.72375E+01 0.00000E+00
 -1      2110 1.46103E+02 2.57625E+01 0.00000E+00
 -1      2111 1.44804E+02 2.50250E+01 0.00000E+00
 -1      2112 1.46103E+02 3.01875E+01 0.00000E+00
 -1      2113 1.46103E+02 2.87125E+01 0.00000E+00
 -1      2114 1.44804E+02 2.79750E+01 0.00000E+00
 -1      2115 1.46103E+02 3.30875E+01 0.00000E+00
 -1      2116 1.46103E+02 3.16375E+01 0.00000E+00
 -1      2117 1.44804E+02 3.09000E+01 0.00000E+00
 -1      2118 1.46103E+02 3.60375E+01 0.00000E+00
 -1      2119 1.46103E+02 3.45625E+01 0.00000E+00
 -1      2120 1.44804E+02 3.38250E+01 0.00000E+00
 -1      2121 1.46103E+02 3.89875E+01 0.00000E+00
 -1      2122 1.46103E+02 3.75125E+01 0.00000E+00
 -1      2123 1.44804E+02 3.67750E+01 0.00000E+00
 -1      2124 1.46103E+02 4.19375E+01 0.00000E+00
 -1      2125 1.46103E+02 4.04625E+01 0.00000E+00
 -1      2126 1.44804E+02 3.97250E+01 0.00000E+00
 -1      2127 1.14248E+02 2.08440E+01 0.00000E+00
 -1      2128 1.14770E+02 2.15945E+01 0.00000E+00
 -1      2129 1.15344E+02 2.45854E+01 0.00000E+00
 -1      2130 1.15350E+02 2.53946E+01 0.00000E+00
 -1      2131 1.15276E+02 2.27380E+01 0.00000E+00
 -1      2132 1.15310E+02 2.36617E+01 0.00000E+00
 -1      2133 1.16087E+02 2.40599E+01 0.00000E+00
 -1      2134 1.13239E+02 1.94052E+01 0.00000E+00
 -1      2135 1.13751E+02 2.00843E+01 0.00000E+00
 -1      2136 1.11897E+02 1.80989E+01 0.00000E+00
 -1      2137 1.12556E+02 1.86733E+01 0.00000E+00
 -1      2138 3.89700E+00 3.74688E+01 0.00000E+00
 -1      2139 3.89700E+00 3.89437E+01 0.00000E+00
 -1      2140 5.19600E+00 3.96813E+01 0.00000E+00
 -1      2141 5.19600E+00 3.67438E+01 0.00000E+00
 -1      2142 1.08670E+02 1.60503E+01 0.00000E+00
 -1      2143 1.09542E+02 1.64708E+01 0.00000E+00
 -1      2144 1.06347E+02 1.61148E+01 0.00000E+00
 -1      2145 1.07298E+02 1.59669E+01 0.00000E+00
 -1      2146 1.04514E+02 1.62670E+01 0.00000E+00
 -1      2147 1.05430E+02 1.61909E+01 0.00000E+00
 -1      2148 1.05800E+02 1.54352E+01 0.00000E+00
 -1      2149 1.02477E+02 1.67513E+01 0.00000E+00
 -1      2150 1.03429E+02 1.64417E+01 0.00000E+00
 -1      2151 1.00557E+02 1.78634E+01 0.00000E+00
 -1      2152 1.01358E+02 1.72770E+01 0.00000E+00
 -1      2153 9.91492E+01 1.94241E+01 0.00000E+00
 -1      2154 9.97715E+01 1.86999E+01 0.00000E+00
 -1      2155 9.79492E+01 2.11569E+01 0.00000E+00
 -1      2156 9.84387E+01 2.02931E+01 0.00000E+00
 -1      2157 9.75405E+01 2.34093E+01 0.00000E+00
 -1      2158 9.75796E+01 2.24417E+01 0.00000E+00
 -1      2159 9.73280E+01 2.51670E+01 0.00000E+00
 -1      2160 9.74343E+01 2.42881E+01 0.00000E+00
 -1      2161 9.66388E+01 2.37714E+01 0.00000E+00
 -1      2162 9.77461E+01 2.71830E+01 0.00000E+00
 -1      2163 9.75016E+01 2.63248E+01 0.00000E+00
 -1      2164 9.82402E+01 2.89558E+01 0.00000E+00
 -1      2165 9.79931E+01 2.80694E+01 0.00000E+00
 -1      2166 9.71267E+01 2.78523E+01 0.00000E+00
 -1      2167 9.94555E+01 3.07312E+01 0.00000E+00
 -1      2168 9.88274E+01 3.00655E+01 0.00000E+00
 -1      2169 1.00678E+02 3.20391E+01 0.00000E+00
 -1      2170 1.00067E+02 3.13852E+01 0.00000E+00
 -1      2171 9.91596E+01 3.16121E+01 0.00000E+00
 -1      2172 1.02484E+02 3.30659E+01 0.00000E+00
 -1      2173 1.01673E+02 3.27004E+01 0.00000E+00
 -1      2174 1.04115E+02 3.36540E+01 0.00000E+00
 -1      2175 1.03299E+02 3.33599E+01 0.00000E+00
 -1      2176 1.02576E+02 3.38826E+01 0.00000E+00
 -1      2177 1.06071E+02 3.40647E+01 0.00000E+00
 -1      2178 1.05157E+02 3.38645E+01 0.00000E+00
 -1      2179 1.08236E+02 3.38347E+01 0.00000E+00
 -1      2180 1.07349E+02 3.41232E+01 0.00000E+00
 -1      2181 1.09968E+02 3.33659E+01 0.00000E+00
 -1      2182 1.09102E+02 3.36003E+01 0.00000E+00
 -1      2183 1.08898E+02 3.44804E+01 0.00000E+00
 -1      2184 1.11604E+02 3.22486E+01 0.00000E+00
 -1      2185 1.10932E+02 3.27702E+01 0.00000E+00
 -1      2186 1.12909E+02 3.12033E+01 0.00000E+00
 -1      2187 1.12256E+02 3.17260E+01 0.00000E+00
 -1      2188 1.12343E+02 3.25319E+01 0.00000E+00
 -1      2189 1.14191E+02 2.97213E+01 0.00000E+00
 -1      2190 1.13742E+02 3.04555E+01 0.00000E+00
 -1      2191 1.14784E+02 2.79878E+01 0.00000E+00
 -1      2192 1.14507E+02 2.87689E+01 0.00000E+00
 -1      2193 1.15180E+02 2.63291E+01 0.00000E+00
 -1      2194 1.15026E+02 2.71097E+01 0.00000E+00
 -1      2195 1.10380E+02 1.70213E+01 0.00000E+00
 -1      2196 1.11125E+02 1.74793E+01 0.00000E+00
 -1      2197 1.11908E+02 1.72464E+01 0.00000E+00
 -1      2198 6.42300E+00 4.57510E+01 0.00000E+00
 -1      2199 1.10298E+02 1.60763E+01 0.00000E+00
 -1      2200 7.17300E+00 4.44520E+01 0.00000E+00
 -1      2201 1.15547E+02 2.19927E+01 0.00000E+00
 -1      2202 1.16324E+02 2.23909E+01 0.00000E+00
 -1      2203 1.15818E+02 2.12474E+01 0.00000E+00
 -1      2204 1.14544E+02 2.00895E+01 0.00000E+00
 -1      2205 1.45665E+02 4.31193E+01 0.00000E+00
 -1      2206 1.15950E+02 2.59182E+01 0.00000E+00
 -1      2207 1.13363E+02 1.85979E+01 0.00000E+00
 -1      2208 1.15538E+02 2.77308E+01 0.00000E+00
 -1      2209 1.13829E+02 3.12614E+01 0.00000E+00
 -1      2210 1.10727E+02 3.36503E+01 0.00000E+00
 -1      2211 1.04433E+02 3.43872E+01 0.00000E+00
 -1      2212 1.00766E+02 3.29273E+01 0.00000E+00
 -1      2213 9.79610E+01 2.98484E+01 0.00000E+00
 -1      2214 9.67061E+01 2.58081E+01 0.00000E+00
 -1      2215 9.71147E+01 2.16077E+01 0.00000E+00
 -1      2216 9.81948E+01 1.94540E+01 0.00000E+00
 -1      2217 9.96904E+01 1.77485E+01 0.00000E+00
 -1      2218 1.03799E+02 1.56860E+01 0.00000E+00
 -1      2219 1.08088E+02 1.54424E+01 0.00000E+00
 -1      2220 1.08879E+02 1.49180E+01 0.00000E+00
 -1      2221 1.07507E+02 1.48346E+01 0.00000E+00
 -1      2222 1.01595E+02 1.63863E+01 0.00000E+00
 -1      2223 1.06754E+02 3.46563E+01 0.00000E+00
 -1      2224 1.06158E+02 3.51893E+01 0.00000E+00
 -1      2225 1.07436E+02 3.52478E+01 0.00000E+00
 -1      2226 1.14979E+02 2.95612E+01 0.00000E+00
 -1      2227 1.07850E+01 5.30525E+00 0.00000E+00
 -1      2228 9.28500E+00 5.30525E+00 0.00000E+00
 -1      2229 6.49500E+00 3.01125E+01 0.00000E+00
 -1      2230 6.49500E+00 3.15875E+01 0.00000E+00
 -1      2231 6.49500E+00 3.30625E+01 0.00000E+00
 -1      2232 6.49500E+00 3.45375E+01 0.00000E+00
 -1      2233 7.79400E+00 3.23250E+01 0.00000E+00
 -1      2234 6.49500E+00 2.42125E+01 0.00000E+00
 -1      2235 6.49500E+00 2.56875E+01 0.00000E+00
 -1      2236 6.49500E+00 2.12625E+01 0.00000E+00
 -1      2237 6.49500E+00 2.27375E+01 0.00000E+00
 -1      2238 7.79400E+00 2.34750E+01 0.00000E+00
 -1      2239 6.49500E+00 1.83625E+01 0.00000E+00
 -1      2240 6.49500E+00 1.98125E+01 0.00000E+00
 -1      2241 7.79400E+00 2.05500E+01 0.00000E+00
 -1      2242 6.49500E+00 1.54125E+01 0.00000E+00
 -1      2243 6.49500E+00 1.68875E+01 0.00000E+00
 -1      2244 7.79400E+00 1.76250E+01 0.00000E+00
 -1      2245 6.49500E+00 1.24625E+01 0.00000E+00
 -1      2246 6.49500E+00 1.39375E+01 0.00000E+00
 -1      2247 7.79400E+00 1.46750E+01 0.00000E+00
 -1      2248 6.49500E+00 9.51250E+00 0.00000E+00
 -1      2249 6.49500E+00 1.09875E+01 0.00000E+00
 -1      2250 7.79400E+00 1.17250E+01 0.00000E+00
 -1      2251 1.37850E+01 5.30525E+00 0.00000E+00
 -1      2252 1.22850E+01 5.30525E+00 0.00000E+00
 -1      2253 1.15350E+01 6.60425E+00 0.00000E+00
 -1      2254 9.90000E+00 4.35050E+01 0.00000E+00
 -1      2255 1.14000E+01 4.35050E+01 0.00000E+00
 -1      2256 1.10396E+02 1.50144E+01 0.00000E+00
 -1      2257 1.11234E+02 1.55649E+01 0.00000E+00
 -1      2258 1.29000E+01 4.35050E+01 0.00000E+00
 -1      2259 1.44000E+01 4.35050E+01 0.00000E+00
 -1      2260 1.21500E+01 4.22060E+01 0.00000E+00
 -1      2261 1.59000E+01 4.35050E+01 0.00000E+00
 -1      2262 1.74000E+01 4.35050E+01 0.00000E+00
 -1      2263 1.51500E+01 4.22060E+01 0.00000E+00
 -1      2264 1.89000E+01 4.35050E+01 0.00000E+00
 -1      2265 2.04000E+01 4.35050E+01 0.00000E+00
 -1      2266 1.81500E+01 4.22060E+01 0.00000E+00
 -1      2267 2.19000E+01 4.35050E+01 0.00000E+00
 -1      2268 2.34000E+01 4.35050E+01 0.00000E+00
 -1      2269 2.11500E+01 4.22060E+01 0.00000E+00
 -1      2270 2.49000E+01 4.35050E+01 0.00000E+00
 -1      2271 2.64000E+01 4.35050E+01 0.00000E+00
 -1      2272 2.41500E+01 4.22060E+01 0.00000E+00
 -1      2273 2.79000E+01 4.35050E+01 0.00000E+00
 -1      2274 2.94000E+01 4.35050E+01 0.00000E+00
 -1      2275 2.71500E+01 4.22060E+01 0.00000E+00
 -1      2276 3.09000E+01 4.35050E+01 0.00000E+00
 -1      2277 3.24000E+01 4.35050E+01 0.00000E+00
 -1      2278 3.01500E+01 4.22060E+01 0.00000E+00
 -1      2279 3.39000E+01 4.35050E+01 0.00000E+00
 -1      2280 3.54000E+01 4.35050E+01 0.00000E+00
 -1      2281 3.31500E+01 4.22060E+01 0.00000E+00
 -1      2282 3.69000E+01 4.35050E+01 0.00000E+00
 -1      2283 3.84000E+01 4.35050E+01 0.00000E+00
 -1      2284 3.61500E+01 4.22060E+01 0.00000E+00
 -1      2285 3.99000E+01 4.35050E+01 0.00000E+00
 -1      2286 4.14000E+01 4.35050E+01 0.00000E+00
 -1      2287 3.91500E+01 4.22060E+01 0.00000E+00
 -1      2288 4.29000E+01 4.35050E+01 0.00000E+00
 -1      2289 4.44000E+01 4.35050E+01 0.00000E+00
 -1      2290 4.21500E+01 4.22060E+01 0.00000E+00
 -1      2291 4.59000E+01 4.35050E+01 0.00000E+00
 -1      2292 4.74000E+01 4.35050E+01 0.00000E+00
 -1      2293 4.51500E+01 4.22060E+01 0.00000E+00
 -1      2294 4.89000E+01 4.35050E+01 0.00000E+00
 -1      2295 5.04000E+01 4.35050E+01 0.00000E+00
 -1      2296 4.81500E+01 4.22060E+01 0.00000E+00
 -1      2297 5.19000E+01 4.35050E+01 0.00000E+00
 -1      2298 5.34000E+01 4.35050E+01 0.00000E+00
 -1      2299 5.11500E+01 4.22060E+01 0.00000E+00
 -1      2300 5.49000E+01 4.35050E+01 0.00000E+00
 -1      2301 5.64000E+01 4.35050E+01 0.00000E+00
 -1      2302 5.41500E+01 4.22060E+01 0.00000E+00
 -1      2303 5.79000E+01 4.35050E+01 0.00000E+00
 -1      2304 5.94000E+01 4.35050E+01 0.00000E+00
 -1      2305 5.71500E+01 4.22060E+01 0.00000E+00
 -1      2306 6.09000E+01 4.35050E+01 0.00000E+00
 -1      2307 6.24000E+01 4.35050E+01 0.00000E+00
 -1      2308 6.01500E+01 4.22060E+01 0.00000E+00
 -1      2309 6.39000E+01 4.35050E+01 0.00000E+00
 -1      2310 6.54000E+01 4.35050E+01 0.00000E+00
 -1      2311 6.31500E+01 4.22060E+01 0.00000E+00
 -1      2312 6.69000E+01 4.35050E+01 0.00000E+00
 -1      2313 6.84000E+01 4.35050E+01 0.00000E+00
 -1      2314 6.61500E+01 4.22060E+01 0.00000E+00
 -1      2315 6.99000E+01 4.35050E+01 0.00000E+00
 -1      2316 7.14000E+01 4.35050E+01 0.00000E+00
 -1      2317 6.91500E+01 4.22060E+01 0.00000E+00
 -1      2318 7.29000E+01 4.35050E+01 0.00000E+00
 -1      2319 7.44000E+01 4.35050E+01 0.00000E+00
 -1      2320 7.21500E+01 4.22060E+01 0.00000E+00
 -1      2321 7.59000E+01 4.35050E+01 0.00000E+00
 -1      2322 7.74000E+01 4.35050E+01 0.00000E+00
 -1      2323 7.51500E+01 4.22060E+01 0.00000E+00
 -1      2324 7.89000E+01 4.35050E+01 0.00000E+00
 -1      2325 8.04000E+01 4.35050E+01 0.00000E+00
 -1      2326 7.81500E+01 4.22060E+01 0.00000E+00
 -1      2327 8.19000E+01 4.35050E+01 0.00000E+00
 -1      2328 8.34000E+01 4.35050E+01 0.00000E+00
 -1      2329 8.11500E+01 4.22060E+01 0.00000E+00
 -1      2330 8.49000E+01 4.35050E+01 0.00000E+00
 -1      2331 8.64000E+01 4.35050E+01 0.00000E+00
 -1      2332 8.41500E+01 4.22060E+01 0.00000E+00
 -1      2333 8.79000E+01 4.35050E+01 0.00000E+00
 -1      2334 8.94000E+01 4.35050E+01 0.00000E+00
 -1      2335 8.71500E+01 4.22060E+01 0.00000E+00
 -1      2336 9.09000E+01 4.35050E+01 0.00000E+00
 -1      2337 9.24000E+01 4.35050E+01 0.00000E+00
 -1      2338 9.01500E+01 4.22060E+01 0.00000E+00
 -1      2339 9.39000E+01 4.35050E+01 0.00000E+00
 -1      2340 9.54000E+01 4.35050E+01 0.00000E+00
 -1      2341 9.31500E+01 4.22060E+01 0.00000E+00
 -1      2342 9.69000E+01 4.35050E+01 0.00000E+00
 -1      2343 9.84000E+01 4.35050E+01 0.00000E+00
 -1      2344 9.61500E+01 4.22060E+01 0.00000E+00
 -1      2345 9.99000E+01 4.35050E+01 0.00000E+00
 -1      2346 1.01400E+02 4.35050E+01 0.00000E+00
 -1      2347 9.91500E+01 4.22060E+01 0.00000E+00
 -1      2348 1.02900E+02 4.35050E+01 0.00000E+00
 -1      2349 1.04400E+02 4.35050E+01 0.00000E+00
 -1      2350 1.02150E+02 4.22060E+01 0.00000E+00
 -1      2351 1.05900E+02 4.35050E+01 0.00000E+00
 -1      2352 1.07400E+02 4.35050E+01 0.00000E+00
 -1      2353 1.05150E+02 4.22060E+01 0.00000E+00
 -1      2354 1.08900E+02 4.35050E+01 0.00000E+00
 -1      2355 1.10400E+02 4.35050E+01 0.00000E+00
 -1      2356 1.08150E+02 4.22060E+01 0.00000E+00
 -1      2357 1.11900E+02 4.35050E+01 0.00000E+00
 -1      2358 1.13400E+02 4.35050E+01 0.00000E+00
 -1      2359 1.11150E+02 4.22060E+01 0.00000E+00
 -1      2360 1.14900E+02 4.35050E+01 0.00000E+00
 -1      2361 1.16400E+02 4.35050E+01 0.00000E+00
 -1      2362 1.14150E+02 4.22060E+01 0.00000E+00
 -1      2363 1.17900E+02 4.35050E+01 0.00000E+00
 -1      2364 1.19400E+02 4.35050E+01 0.00000E+00
 -1      2365 1.17150E+02 4.22060E+01 0.00000E+00
 -1      2366 1.20900E+02 4.35050E+01 0.00000E+00
 -1      2367 1.22400E+02 4.35050E+01 0.00000E+00
 -1      2368 1.20150E+02 4.22060E+01 0.00000E+00
 -1      2369 1.23900E+02 4.35050E+01 0.00000E+00
 -1      2370 1.25400E+02 4.35050E+01 0.00000E+00
 -1      2371 1.23150E+02 4.22060E+01 0.00000E+00
 -1      2372 1.26900E+02 4.35050E+01 0.00000E+00
 -1      2373 1.28400E+02 4.35050E+01 0.00000E+00
 -1      2374 1.26150E+02 4.22060E+01 0.00000E+00
 -1      2375 1.29900E+02 4.35050E+01 0.00000E+00
 -1      2376 1.31400E+02 4.35050E+01 0.00000E+00
 -1      2377 1.29150E+02 4.22060E+01 0.00000E+00
 -1      2378 1.32900E+02 4.35050E+01 0.00000E+00
 -1      2379 1.34400E+02 4.35050E+01 0.00000E+00
 -1      2380 1.32150E+02 4.22060E+01 0.00000E+00
 -1      2381 1.35900E+02 4.35050E+01 0.00000E+00
 -1      2382 1.37400E+02 4.35050E+01 0.00000E+00
 -1      2383 1.35150E+02 4.22060E+01 0.00000E+00
 -1      2384 1.38900E+02 4.35050E+01 0.00000E+00
 -1      2385 1.40400E+02 4.35050E+01 0.00000E+00
 -1      2386 1.38150E+02 4.22060E+01 0.00000E+00
 -1      2387 1.97850E+01 5.30525E+00 0.00000E+00
 -1      2388 1.82850E+01 5.30525E+00 0.00000E+00
 -1      2389 2.27850E+01 5.30525E+00 0.00000E+00
 -1      2390 2.12850E+01 5.30525E+00 0.00000E+00
 -1      2391 2.05350E+01 6.60425E+00 0.00000E+00
 -1      2392 2.57850E+01 5.30525E+00 0.00000E+00
 -1      2393 2.42850E+01 5.30525E+00 0.00000E+00
 -1      2394 2.35350E+01 6.60425E+00 0.00000E+00
 -1      2395 2.87850E+01 5.30525E+00 0.00000E+00
 -1      2396 2.72850E+01 5.30525E+00 0.00000E+00
 -1      2397 2.65350E+01 6.60425E+00 0.00000E+00
 -1      2398 3.17850E+01 5.30525E+00 0.00000E+00
 -1      2399 3.02850E+01 5.30525E+00 0.00000E+00
 -1      2400 2.95350E+01 6.60425E+00 0.00000E+00
 -1      2401 3.47850E+01 5.30525E+00 0.00000E+00
 -1      2402 3.32850E+01 5.30525E+00 0.00000E+00
 -1      2403 3.25350E+01 6.60425E+00 0.00000E+00
 -1      2404 3.77850E+01 5.30525E+00 0.00000E+00
 -1      2405 3.62850E+01 5.30525E+00 0.00000E+00
 -1      2406 3.55350E+01 6.60425E+00 0.00000E+00
 -1      2407 4.07850E+01 5.30525E+00 0.00000E+00
 -1      2408 3.92850E+01 5.30525E+00 0.00000E+00
 -1      2409 3.85350E+01 6.60425E+00 0.00000E+00
 -1      2410 4.37850E+01 5.30525E+00 0.00000E+00
 -1      2411 4.22850E+01 5.30525E+00 0.00000E+00
 -1      2412 4.15350E+01 6.60425E+00 0.00000E+00
 -1      2413 4.67850E+01 5.30525E+00 0.00000E+00
 -1      2414 4.52850E+01 5.30525E+00 0.00000E+00
 -1      2415 4.45350E+01 6.60425E+00 0.00000E+00
 -1      2416 4.97850E+01 5.30525E+00 0.00000E+00
 -1      2417 4.82850E+01 5.30525E+00 0.00000E+00
 -1      2418 4.75350E+01 6.60425E+00 0.00000E+00
 -1      2419 5.27850E+01 5.30525E+00 0.00000E+00
 -1      2420 5.12850E+01 5.30525E+00 0.00000E+00
 -1      2421 5.05350E+01 6.60425E+00 0.00000E+00
 -1      2422 5.57850E+01 5.30525E+00 0.00000E+00
 -1      2423 5.42850E+01 5.30525E+00 0.00000E+00
 -1      2424 5.35350E+01 6.60425E+00 0.00000E+00
 -1      2425 5.87850E+01 5.30525E+00 0.00000E+00
 -1      2426 5.72850E+01 5.30525E+00 0.00000E+00
 -1      2427 5.65350E+01 6.60425E+00 0.00000E+00
 -1      2428 6.17850E+01 5.30525E+00 0.00000E+00
 -1      2429 6.02850E+01 5.30525E+00 0.00000E+00
 -1      2430 5.95350E+01 6.60425E+00 0.00000E+00
 -1      2431 6.47850E+01 5.30525E+00 0.00000E+00
 -1      2432 6.32850E+01 5.30525E+00 0.00000E+00
 -1      2433 6.25350E+01 6.60425E+00 0.00000E+00
 -1      2434 6.77850E+01 5.30525E+00 0.00000E+00
 -1      2435 6.62850E+01 5.30525E+00 0.00000E+00
 -1      2436 6.55350E+01 6.60425E+00 0.00000E+00
 -1      2437 7.07850E+01 5.30525E+00 0.00000E+00
 -1      2438 6.92850E+01 5.30525E+00 0.00000E+00
 -1      2439 6.85350E+01 6.60425E+00 0.00000E+00
 -1      2440 7.37850E+01 5.30525E+00 0.00000E+00
 -1      2441 7.22850E+01 5.30525E+00 0.00000E+00
 -1      2442 7.15350E+01 6.60425E+00 0.00000E+00
 -1      2443 7.67850E+01 5.30525E+00 0.00000E+00
 -1      2444 7.52850E+01 5.30525E+00 0.00000E+00
 -1      2445 7.45350E+01 6.60425E+00 0.00000E+00
 -1      2446 7.97850E+01 5.30525E+00 0.00000E+00
 -1      2447 7.82850E+01 5.30525E+00 0.00000E+00
 -1      2448 7.75350E+01 6.60425E+00 0.00000E+00
 -1      2449 8.27850E+01 5.30525E+00 0.00000E+00
 -1      2450 8.12850E+01 5.30525E+00 0.00000E+00
 -1      2451 8.05350E+01 6.60425E+00 0.00000E+00
 -1      2452 8.57850E+01 5.30525E+00 0.00000E+00
 -1      2453 8.42850E+01 5.30525E+00 0.00000E+00
 -1      2454 8.35350E+01 6.60425E+00 0.00000E+00
 -1      2455 8.87850E+01 5.30525E+00 0.00000E+00
 -1      2456 8.72850E+01 5.30525E+00 0.00000E+00
 -1      2457 8.65350E+01 6.60425E+00 0.00000E+00
 -1      2458 9.17850E+01 5.30525E+00 0.00000E+00
 -1      2459 9.02850E+01 5.30525E+00 0.00000E+00
 -1      2460 8.95350E+01 6.60425E+00 0.00000E+00
 -1      2461 9.47850E+01 5.30525E+00 0.00000E+00
 -1      2462 9.32850E+01 5.30525E+00 0.00000E+00
 -1      2463 9.25350E+01 6.60425E+00 0.00000E+00
 -1      2464 9.77850E+01 5.30525E+00 0.00000E+00
 -1      2465 9.62850E+01 5.30525E+00 0.00000E+00
 -1      2466 9.55350E+01 6.60425E+00 0.00000E+00
 -1      2467 1.00785E+02 5.30525E+00 0.00000E+00
 -1      2468 9.92850E+01 5.30525E+00 0.00000E+00
 -1      2469 9.85350E+01 6.60425E+00 0.00000E+00
 -1      2470 1.03785E+02 5.30525E+00 0.00000E+00
 -1      2471 1.02285E+02 5.30525E+00 0.00000E+00
 -1      2472 1.01535E+02 6.60425E+00 0.00000E+00
 -1      2473 1.06785E+02 5.30525E+00 0.00000E+00
 -1      2474 1.05285E+02 5.30525E+00 0.00000E+00
 -1      2475 1.04535E+02 6.60425E+00 0.00000E+00
 -1      2476 1.09785E+02 5.30525E+00 0.00000E+00
 -1      2477 1.08285E+02 5.30525E+00 0.00000E+00
 -1      2478 1.07535E+02 6.60425E+00 0.00000E+00
 -1      2479 1.12785E+02 5.30525E+00 0.00000E+00
 -1      2480 1.11285E+02 5.30525E+00 0.00000E+00
 -1      2481 1.10535E+02 6.60425E+00 0.00000E+00
 -1      2482 1.15785E+02 5.30525E+00 0.00000E+00
 -1      2483 1.14285E+02 5.30525E+00 0.00000E+00
 -1      2484 1.13535E+02 6.60425E+00 0.00000E+00
 -1      2485 1.18785E+02 5.30525E+00 0.00000E+00
 -1      2486 1.17285E+02 5.30525E+00 0.00000E+00
 -1      2487 1.16535E+02 6.60425E+00 0.00000E+00
 -1      2488 1.21785E+02 5.30525E+00 0.00000E+00
 -1      2489 1.20285E+02 5.30525E+00 0.00000E+00
 -1      2490 1.19535E+02 6.60425E+00 0.00000E+00
 -1      2491 1.24785E+02 5.30525E+00 0.00000E+00
 -1      2492 1.23285E+02 5.30525E+00 0.00000E+00
 -1      2493 1.22535E+02 6.60425E+00 0.00000E+00
 -1      2494 1.27785E+02 5.30525E+00 0.00000E+00
 -1      2495 1.26285E+02 5.30525E+00 0.00000E+00
 -1      2496 1.25535E+02 6.60425E+00 0.00000E+00
 -1      2497 1.30785E+02 5.30525E+00 0.00000E+00
 -1      2498 1.29285E+02 5.30525E+00 0.00000E+00
 -1      2499 1.28535E+02 6.60425E+00 0.00000E+00
 -1      2500 1.33785E+02 5.30525E+00 0.00000E+00
 -1      2501 1.32285E+02 5.30525E+00 0.00000E+00
 -1      2502 1.31535E+02 6.60425E+00 0.00000E+00
 -1      2503 1.36785E+02 5.30525E+00 0.00000E+00
 -1      2504 1.35285E+02 5.30525E+00 0.00000E+00
 -1      2505 1.34535E+02 6.60425E+00 0.00000E+00
 -1      2506 1.39785E+02 5.30525E+00 0.00000E+00
 -1      2507 1.38285E+02 5.30525E+00 0.00000E+00
 -1      2508 1.37535E+02 6.60425E+00 0.00000E+00
 -1      2509 1.42785E+02 5.30525E+00 0.00000E+00
 -1      2510 1.41285E+02 5.30525E+00 0.00000E+00
 -1      2511 1.40535E+02 6.60425E+00 0.00000E+00
 -1      2512 1.44336E+02 5.26953E+00 0.00000E+00
 -1      2513 1.43505E+02 1.69125E+01 0.00000E+00
 -1      2514 1.43505E+02 1.54375E+01 0.00000E+00
 -1      2515 1.43505E+02 1.98625E+01 0.00000E+00
 -1      2516 1.43505E+02 1.83875E+01 0.00000E+00
 -1      2517 1.42206E+02 1.76500E+01 0.00000E+00
 -1      2518 1.43505E+02 1.10625E+01 0.00000E+00
 -1      2519 1.43505E+02 9.58750E+00 0.00000E+00
 -1      2520 1.43505E+02 1.39750E+01 0.00000E+00
 -1      2521 1.43505E+02 1.25250E+01 0.00000E+00
 -1      2522 1.42206E+02 1.17875E+01 0.00000E+00
 -1      2523 1.42206E+02 1.47125E+01 0.00000E+00
 -1      2524 1.43505E+02 2.28125E+01 0.00000E+00
 -1      2525 1.43505E+02 2.13375E+01 0.00000E+00
 -1      2526 1.42206E+02 2.06000E+01 0.00000E+00
 -1      2527 1.43505E+02 2.57625E+01 0.00000E+00
 -1      2528 1.43505E+02 2.42875E+01 0.00000E+00
 -1      2529 1.42206E+02 2.35500E+01 0.00000E+00
 -1      2530 1.43505E+02 2.87125E+01 0.00000E+00
 -1      2531 1.43505E+02 2.72375E+01 0.00000E+00
 -1      2532 1.42206E+02 2.65000E+01 0.00000E+00
 -1      2533 1.43505E+02 3.16125E+01 0.00000E+00
 -1      2534 1.43505E+02 3.01625E+01 0.00000E+00
 -1      2535 1.42206E+02 2.94250E+01 0.00000E+00
 -1      2536 1.43505E+02 3.45625E+01 0.00000E+00
 -1      2537 1.43505E+02 3.30875E+01 0.00000E+00
 -1      2538 1.42206E+02 3.23500E+01 0.00000E+00
 -1      2539 1.43505E+02 3.75125E+01 0.00000E+00
 -1      2540 1.43505E+02 3.60375E+01 0.00000E+00
 -1      2541 1.42206E+02 3.53000E+01 0.00000E+00
 -1      2542 1.43505E+02 4.04625E+01 0.00000E+00
 -1      2543 1.43505E+02 3.89875E+01 0.00000E+00
 -1      2544 1.42206E+02 3.82500E+01 0.00000E+00
 -1      2545 1.14942E+02 1.92858E+01 0.00000E+00
 -1      2546 1.15440E+02 2.00455E+01 0.00000E+00
 -1      2547 1.44321E+02 4.30606E+01 0.00000E+00
 -1      2548 1.16797E+02 2.55896E+01 0.00000E+00
 -1      2549 1.16627E+02 2.65242E+01 0.00000E+00
 -1      2550 1.67850E+01 5.30525E+00 0.00000E+00
 -1      2551 1.52850E+01 5.30525E+00 0.00000E+00
 -1      2552 1.75350E+01 6.60425E+00 0.00000E+00
 -1      2553 1.16885E+02 2.35682E+01 0.00000E+00
 -1      2554 1.16919E+02 2.44920E+01 0.00000E+00
 -1      2555 1.16446E+02 2.75085E+01 0.00000E+00
 -1      2556 1.16204E+02 2.83865E+01 0.00000E+00
 -1      2557 6.55950E+00 4.28890E+01 0.00000E+00
 -1      2558 8.53650E+00 4.32410E+01 0.00000E+00
 -1      2559 9.28650E+00 4.19420E+01 0.00000E+00
 -1      2560 6.55950E+00 4.14140E+01 0.00000E+00
 -1      2561 1.13587E+02 1.77040E+01 0.00000E+00
 -1      2562 1.14270E+02 1.84359E+01 0.00000E+00
 -1      2563 1.04793E+02 3.52919E+01 0.00000E+00
 -1      2564 1.03751E+02 3.50814E+01 0.00000E+00
 -1      2565 9.60252E+01 2.19899E+01 0.00000E+00
 -1      2566 9.63948E+01 2.07051E+01 0.00000E+00
 -1      2567 6.49500E+00 2.71625E+01 0.00000E+00
 -1      2568 6.49500E+00 2.86375E+01 0.00000E+00
 -1      2569 7.79400E+00 2.93750E+01 0.00000E+00
 -1      2570 7.79400E+00 2.64250E+01 0.00000E+00
 -1      2571 1.00671E+02 1.58730E+01 0.00000E+00
 -1      2572 1.01790E+02 1.53473E+01 0.00000E+00
 -1      2573 1.05274E+02 1.46604E+01 0.00000E+00
 -1      2574 1.06191E+02 1.45842E+01 0.00000E+00
 -1      2575 1.03104E+02 1.50098E+01 0.00000E+00
 -1      2576 1.04189E+02 1.48351E+01 0.00000E+00
 -1      2577 1.04580E+02 1.39841E+01 0.00000E+00
 -1      2578 9.87337E+01 1.76372E+01 0.00000E+00
 -1      2579 9.95188E+01 1.68007E+01 0.00000E+00
 -1      2580 9.72081E+01 1.93721E+01 0.00000E+00
 -1      2581 9.79185E+01 1.85032E+01 0.00000E+00
 -1      2582 9.58591E+01 2.41230E+01 0.00000E+00
 -1      2583 9.59654E+01 2.32441E+01 0.00000E+00
 -1      2584 9.58619E+01 2.65265E+01 0.00000E+00
 -1      2585 9.56884E+01 2.53687E+01 0.00000E+00
 -1      2586 9.64645E+01 2.85145E+01 0.00000E+00
 -1      2587 9.62175E+01 2.76281E+01 0.00000E+00
 -1      2588 9.73485E+01 3.08827E+01 0.00000E+00
 -1      2589 9.67613E+01 2.97730E+01 0.00000E+00
 -1      2590 9.88388E+01 3.25247E+01 0.00000E+00
 -1      2591 9.82274E+01 3.18708E+01 0.00000E+00
 -1      2592 1.00811E+02 3.39371E+01 0.00000E+00
 -1      2593 9.98167E+01 3.32759E+01 0.00000E+00
 -1      2594 1.02664E+02 3.49151E+01 0.00000E+00
 -1      2595 1.01849E+02 3.46211E+01 0.00000E+00
 -1      2596 1.15887E+02 2.93389E+01 0.00000E+00
 -1      2597 1.15570E+02 3.02912E+01 0.00000E+00
 -1      2598 1.16794E+02 2.91165E+01 0.00000E+00
 -1      2599 1.09533E+02 3.51101E+01 0.00000E+00
 -1      2600 1.08667E+02 3.53445E+01 0.00000E+00
 -1      2601 1.11660E+02 3.40818E+01 0.00000E+00
 -1      2602 1.10697E+02 3.46775E+01 0.00000E+00
 -1      2603 1.13179E+02 3.29071E+01 0.00000E+00
 -1      2604 1.12527E+02 3.34298E+01 0.00000E+00
 -1      2605 1.14846E+02 3.14114E+01 0.00000E+00
 -1      2606 1.14013E+02 3.21593E+01 0.00000E+00
 -1      2607 1.14197E+02 3.30572E+01 0.00000E+00
 -1      2608 8.07525E+00 5.11044E+00 0.00000E+00
 -1      2609 6.57525E+00 5.11044E+00 0.00000E+00
 -1      2610 6.40575E+00 6.01981E+00 0.00000E+00
 -1      2611 8.82525E+00 6.40944E+00 0.00000E+00
 -1      2612 1.12006E+02 1.61845E+01 0.00000E+00
 -1      2613 1.12778E+02 1.68040E+01 0.00000E+00
 -1      2614 1.12104E+02 1.51225E+01 0.00000E+00
 -1      2615 1.02180E+02 1.44964E+01 0.00000E+00
 -1      2616 7.79400E+00 3.52687E+01 0.00000E+00
 -1      2617 6.49500E+00 3.60062E+01 0.00000E+00
 -1      2618 6.49500E+00 3.74750E+01 0.00000E+00
 -1      2619 1.45350E+01 6.60425E+00 0.00000E+00
 -1      2620 6.40575E+00 7.49481E+00 0.00000E+00
 -1      2621 1.03024E+02 3.58199E+01 0.00000E+00
 -1      2622 1.00900E+02 3.49697E+01 0.00000E+00
 -1      2623 1.13685E+02 1.66421E+01 0.00000E+00
 -1      2624 9.88846E+01 3.35346E+01 0.00000E+00
 -1      2625 1.16217E+02 2.04436E+01 0.00000E+00
 -1      2626 1.16994E+02 2.08418E+01 0.00000E+00
 -1      2627 1.16615E+02 1.96399E+01 0.00000E+00
 -1      2628 1.17292E+02 2.71799E+01 0.00000E+00
 -1      2629 9.70277E+01 3.17954E+01 0.00000E+00
 -1      2630 1.43586E+02 6.56853E+00 0.00000E+00
 -1      2631 1.43419E+02 7.72713E+00 0.00000E+00
 -1      2632 9.58521E+01 2.95488E+01 0.00000E+00
 -1      2633 1.15166E+02 1.83919E+01 0.00000E+00
 -1      2634 1.42758E+02 4.35929E+01 0.00000E+00
 -1      2635 1.43241E+02 4.17323E+01 0.00000E+00
 -1      2636 1.41942E+02 4.09948E+01 0.00000E+00
 -1      2637 1.41414E+02 4.35342E+01 0.00000E+00
 -1      2638 9.51998E+01 2.71887E+01 0.00000E+00
 -1      2639 1.17595E+02 2.50979E+01 0.00000E+00
 -1      2640 7.70475E+00 8.23231E+00 0.00000E+00
 -1      2641 1.17156E+02 2.28229E+01 0.00000E+00
 -1      2642 1.17988E+02 2.32550E+01 0.00000E+00
 -1      2643 1.17427E+02 2.20776E+01 0.00000E+00
 -1      2644 9.50149E+01 2.48414E+01 0.00000E+00
 -1      2645 1.08707E+02 3.65072E+01 0.00000E+00
 -1      2646 1.08072E+02 3.58775E+01 0.00000E+00
 -1      2647 1.07476E+02 3.64106E+01 0.00000E+00
 -1      2648 9.61186E+01 1.97543E+01 0.00000E+00
 -1      2649 9.58424E+01 1.88035E+01 0.00000E+00
 -1      2650 9.50292E+01 2.01365E+01 0.00000E+00
 -1      2651 1.15754E+02 3.11891E+01 0.00000E+00
 -1      2652 1.15937E+02 3.20870E+01 0.00000E+00
 -1      2653 1.16661E+02 3.09667E+01 0.00000E+00
 -1      2654 1.12496E+02 3.44570E+01 0.00000E+00
 -1      2655 1.05475E+02 3.58835E+01 0.00000E+00
 -1      2656 1.04793E+02 3.65778E+01 0.00000E+00
 -1      2657 1.06158E+02 3.64751E+01 0.00000E+00
 -1      2658 9.52455E+01 2.23415E+01 0.00000E+00
 -1      2659 6.55950E+00 3.99453E+01 0.00000E+00
 -1      2660 1.09814E+02 1.44066E+01 0.00000E+00
 -1      2661 1.10750E+02 1.38951E+01 0.00000E+00
 -1      2662 1.09233E+02 1.37987E+01 0.00000E+00
 -1      2663 1.06981E+02 1.40598E+01 0.00000E+00
 -1      2664 1.07771E+02 1.35354E+01 0.00000E+00
 -1      2665 1.06455E+02 1.32850E+01 0.00000E+00
 -1      2666 9.87570E+01 1.56504E+01 0.00000E+00
 -1      2667 9.97138E+01 1.57617E+01 0.00000E+00
 -1      2668 9.99087E+01 1.47227E+01 0.00000E+00
 -1      2669 9.77470E+01 1.75554E+01 0.00000E+00
 -1      2670 1.10466E+02 3.55416E+01 0.00000E+00
 -1      2671 1.42120E+02 8.46463E+00 0.00000E+00
 -1      2672 1.40664E+02 4.22352E+01 0.00000E+00
 -1      2673 9.09300E+00 1.98250E+01 0.00000E+00
 -1      2674 9.09300E+00 2.12750E+01 0.00000E+00
 -1      2675 9.09300E+00 2.27500E+01 0.00000E+00
 -1      2676 9.09300E+00 2.42250E+01 0.00000E+00
 -1      2677 1.03920E+01 2.20250E+01 0.00000E+00
 -1      2678 9.09300E+00 1.39375E+01 0.00000E+00
 -1      2679 9.09300E+00 1.54125E+01 0.00000E+00
 -1      2680 9.09300E+00 1.09875E+01 0.00000E+00
 -1      2681 9.09300E+00 1.24625E+01 0.00000E+00
 -1      2682 1.03920E+01 1.32000E+01 0.00000E+00
 -1      2683 1.22850E+01 7.90325E+00 0.00000E+00
 -1      2684 1.07850E+01 7.90325E+00 0.00000E+00
 -1      2685 1.12307E+02 1.40785E+01 0.00000E+00
 -1      2686 1.13079E+02 1.46981E+01 0.00000E+00
 -1      2687 1.52850E+01 7.90325E+00 0.00000E+00
 -1      2688 1.37850E+01 7.90325E+00 0.00000E+00
 -1      2689 1.30350E+01 9.20225E+00 0.00000E+00
 -1      2690 1.01310E+02 1.38346E+01 0.00000E+00
 -1      2691 1.02625E+02 1.34970E+01 0.00000E+00
 -1      2692 1.44000E+01 4.09070E+01 0.00000E+00
 -1      2693 1.59000E+01 4.09070E+01 0.00000E+00
 -1      2694 1.74000E+01 4.09070E+01 0.00000E+00
 -1      2695 1.89000E+01 4.09070E+01 0.00000E+00
 -1      2696 1.66500E+01 3.96080E+01 0.00000E+00
 -1      2697 2.04000E+01 4.09070E+01 0.00000E+00
 -1      2698 2.19000E+01 4.09070E+01 0.00000E+00
 -1      2699 1.96500E+01 3.96080E+01 0.00000E+00
 -1      2700 2.34000E+01 4.09070E+01 0.00000E+00
 -1      2701 2.49000E+01 4.09070E+01 0.00000E+00
 -1      2702 2.26500E+01 3.96080E+01 0.00000E+00
 -1      2703 2.64000E+01 4.09070E+01 0.00000E+00
 -1      2704 2.79000E+01 4.09070E+01 0.00000E+00
 -1      2705 2.56500E+01 3.96080E+01 0.00000E+00
 -1      2706 2.94000E+01 4.09070E+01 0.00000E+00
 -1      2707 3.09000E+01 4.09070E+01 0.00000E+00
 -1      2708 2.86500E+01 3.96080E+01 0.00000E+00
 -1      2709 3.24000E+01 4.09070E+01 0.00000E+00
 -1      2710 3.39000E+01 4.09070E+01 0.00000E+00
 -1      2711 3.16500E+01 3.96080E+01 0.00000E+00
 -1      2712 3.54000E+01 4.09070E+01 0.00000E+00
 -1      2713 3.69000E+01 4.09070E+01 0.00000E+00
 -1      2714 3.46500E+01 3.96080E+01 0.00000E+00
 -1      2715 3.84000E+01 4.09070E+01 0.00000E+00
 -1      2716 3.99000E+01 4.09070E+01 0.00000E+00
 -1      2717 3.76500E+01 3.96080E+01 0.00000E+00
 -1      2718 4.14000E+01 4.09070E+01 0.00000E+00
 -1      2719 4.29000E+01 4.09070E+01 0.00000E+00
 -1      2720 4.06500E+01 3.96080E+01 0.00000E+00
 -1      2721 4.44000E+01 4.09070E+01 0.00000E+00
 -1      2722 4.59000E+01 4.09070E+01 0.00000E+00
 -1      2723 4.36500E+01 3.96080E+01 0.00000E+00
 -1      2724 4.74000E+01 4.09070E+01 0.00000E+00
 -1      2725 4.89000E+01 4.09070E+01 0.00000E+00
 -1      2726 4.66500E+01 3.96080E+01 0.00000E+00
 -1      2727 5.04000E+01 4.09070E+01 0.00000E+00
 -1      2728 5.19000E+01 4.09070E+01 0.00000E+00
 -1      2729 4.96500E+01 3.96080E+01 0.00000E+00
 -1      2730 5.34000E+01 4.09070E+01 0.00000E+00
 -1      2731 5.49000E+01 4.09070E+01 0.00000E+00
 -1      2732 5.26500E+01 3.96080E+01 0.00000E+00
 -1      2733 5.64000E+01 4.09070E+01 0.00000E+00
 -1      2734 5.79000E+01 4.09070E+01 0.00000E+00
 -1      2735 5.56500E+01 3.96080E+01 0.00000E+00
 -1      2736 5.94000E+01 4.09070E+01 0.00000E+00
 -1      2737 6.09000E+01 4.09070E+01 0.00000E+00
 -1      2738 5.86500E+01 3.96080E+01 0.00000E+00
 -1      2739 6.24000E+01 4.09070E+01 0.00000E+00
 -1      2740 6.39000E+01 4.09070E+01 0.00000E+00
 -1      2741 6.16500E+01 3.96080E+01 0.00000E+00
 -1      2742 6.54000E+01 4.09070E+01 0.00000E+00
 -1      2743 6.69000E+01 4.09070E+01 0.00000E+00
 -1      2744 6.46500E+01 3.96080E+01 0.00000E+00
 -1      2745 6.84000E+01 4.09070E+01 0.00000E+00
 -1      2746 6.99000E+01 4.09070E+01 0.00000E+00
 -1      2747 6.76500E+01 3.96080E+01 0.00000E+00
 -1      2748 7.14000E+01 4.09070E+01 0.00000E+00
 -1      2749 7.29000E+01 4.09070E+01 0.00000E+00
 -1      2750 7.06500E+01 3.96080E+01 0.00000E+00
 -1      2751 7.44000E+01 4.09070E+01 0.00000E+00
 -1      2752 7.59000E+01 4.09070E+01 0.00000E+00
 -1      2753 7.36500E+01 3.96080E+01 0.00000E+00
 -1      2754 7.74000E+01 4.09070E+01 0.00000E+00
 -1      2755 7.89000E+01 4.09070E+01 0.00000E+00
 -1      2756 7.66500E+01 3.96080E+01 0.00000E+00
 -1      2757 8.04000E+01 4.09070E+01 0.00000E+00
 -1      2758 8.19000E+01 4.09070E+01 0.00000E+00
 -1      2759 7.96500E+01 3.96080E+01 0.00000E+00
 -1      2760 8.34000E+01 4.09070E+01 0.00000E+00
 -1      2761 8.49000E+01 4.09070E+01 0.00000E+00
 -1      2762 8.26500E+01 3.96080E+01 0.00000E+00
 -1      2763 8.64000E+01 4.09070E+01 0.00000E+00
 -1      2764 8.79000E+01 4.09070E+01 0.00000E+00
 -1      2765 8.56500E+01 3.96080E+01 0.00000E+00
 -1      2766 8.94000E+01 4.09070E+01 0.00000E+00
 -1      2767 9.09000E+01 4.09070E+01 0.00000E+00
 -1      2768 8.86500E+01 3.96080E+01 0.00000E+00
 -1      2769 9.24000E+01 4.09070E+01 0.00000E+00
 -1      2770 9.39000E+01 4.09070E+01 0.00000E+00
 -1      2771 9.16500E+01 3.96080E+01 0.00000E+00
 -1      2772 9.54000E+01 4.09070E+01 0.00000E+00
 -1      2773 9.69000E+01 4.09070E+01 0.00000E+00
 -1      2774 9.46500E+01 3.96080E+01 0.00000E+00
 -1      2775 9.84000E+01 4.09070E+01 0.00000E+00
 -1      2776 9.99000E+01 4.09070E+01 0.00000E+00
 -1      2777 9.76500E+01 3.96080E+01 0.00000E+00
 -1      2778 1.01400E+02 4.09070E+01 0.00000E+00
 -1      2779 1.02900E+02 4.09070E+01 0.00000E+00
 -1      2780 1.00650E+02 3.96080E+01 0.00000E+00
 -1      2781 1.07400E+02 4.09295E+01 0.00000E+00
 -1      2782 1.08900E+02 4.09295E+01 0.00000E+00
 -1      2783 1.10400E+02 4.09295E+01 0.00000E+00
 -1      2784 1.11900E+02 4.09295E+01 0.00000E+00
 -1      2785 1.09650E+02 3.96530E+01 0.00000E+00
 -1      2786 1.13400E+02 4.09295E+01 0.00000E+00
 -1      2787 1.14900E+02 4.09295E+01 0.00000E+00
 -1      2788 1.12650E+02 3.96530E+01 0.00000E+00
 -1      2789 1.16400E+02 4.09295E+01 0.00000E+00
 -1      2790 1.17900E+02 4.09295E+01 0.00000E+00
 -1      2791 1.15650E+02 3.96530E+01 0.00000E+00
 -1      2792 1.19400E+02 4.09295E+01 0.00000E+00
 -1      2793 1.20900E+02 4.09295E+01 0.00000E+00
 -1      2794 1.18650E+02 3.96530E+01 0.00000E+00
 -1      2795 1.22400E+02 4.09295E+01 0.00000E+00
 -1      2796 1.23900E+02 4.09295E+01 0.00000E+00
 -1      2797 1.21650E+02 3.96530E+01 0.00000E+00
 -1      2798 1.25400E+02 4.09295E+01 0.00000E+00
 -1      2799 1.26900E+02 4.09295E+01 0.00000E+00
 -1      2800 1.24650E+02 3.96530E+01 0.00000E+00
 -1      2801 1.28400E+02 4.09295E+01 0.00000E+00
 -1      2802 1.29900E+02 4.09295E+01 0.00000E+00
 -1      2803 1.27650E+02 3.96530E+01 0.00000E+00
 -1      2804 1.31400E+02 4.09295E+01 0.00000E+00
 -1      2805 1.32900E+02 4.09295E+01 0.00000E+00
 -1      2806 1.30650E+02 3.96530E+01 0.00000E+00
 -1      2807 1.34400E+02 4.09295E+01 0.00000E+00
 -1      2808 1.35900E+02 4.09295E+01 0.00000E+00
 -1      2809 1.33650E+02 3.96530E+01 0.00000E+00
 -1      2810 1.37400E+02 4.09295E+01 0.00000E+00
 -1      2811 1.38900E+02 4.09295E+01 0.00000E+00
 -1      2812 1.36650E+02 3.96530E+01 0.00000E+00
 -1      2813 2.42850E+01 7.90325E+00 0.00000E+00
 -1      2814 2.27850E+01 7.90325E+00 0.00000E+00
 -1      2815 9.45614E+01 2.80029E+01 0.00000E+00
 -1      2816 9.42059E+01 2.69013E+01 0.00000E+00
 -1      2817 2.12850E+01 7.90325E+00 0.00000E+00
 -1      2818 1.97850E+01 7.90325E+00 0.00000E+00
 -1      2819 2.20350E+01 9.20225E+00 0.00000E+00
 -1      2820 3.02850E+01 7.90325E+00 0.00000E+00
 -1      2821 2.87850E+01 7.90325E+00 0.00000E+00
 -1      2822 3.32850E+01 7.90325E+00 0.00000E+00
 -1      2823 3.17850E+01 7.90325E+00 0.00000E+00
 -1      2824 3.10350E+01 9.20225E+00 0.00000E+00
 -1      2825 3.62850E+01 7.90325E+00 0.00000E+00
 -1      2826 3.47850E+01 7.90325E+00 0.00000E+00
 -1      2827 3.40350E+01 9.20225E+00 0.00000E+00
 -1      2828 3.92850E+01 7.90325E+00 0.00000E+00
 -1      2829 3.77850E+01 7.90325E+00 0.00000E+00
 -1      2830 3.70350E+01 9.20225E+00 0.00000E+00
 -1      2831 4.22850E+01 7.90325E+00 0.00000E+00
 -1      2832 4.07850E+01 7.90325E+00 0.00000E+00
 -1      2833 4.00350E+01 9.20225E+00 0.00000E+00
 -1      2834 4.52850E+01 7.90325E+00 0.00000E+00
 -1      2835 4.37850E+01 7.90325E+00 0.00000E+00
 -1      2836 4.30350E+01 9.20225E+00 0.00000E+00
 -1      2837 4.82850E+01 7.90325E+00 0.00000E+00
 -1      2838 4.67850E+01 7.90325E+00 0.00000E+00
 -1      2839 4.60350E+01 9.20225E+00 0.00000E+00
 -1      2840 5.12850E+01 7.90325E+00 0.00000E+00
 -1      2841 4.97850E+01 7.90325E+00 0.00000E+00
 -1      2842 4.90350E+01 9.20225E+00 0.00000E+00
 -1      2843 5.42850E+01 7.90325E+00 0.00000E+00
 -1      2844 5.27850E+01 7.90325E+00 0.00000E+00
 -1      2845 5.20350E+01 9.20225E+00 0.00000E+00
 -1      2846 5.72850E+01 7.90325E+00 0.00000E+00
 -1      2847 5.57850E+01 7.90325E+00 0.00000E+00
 -1      2848 5.50350E+01 9.20225E+00 0.00000E+00
 -1      2849 6.02850E+01 7.90325E+00 0.00000E+00
 -1      2850 5.87850E+01 7.90325E+00 0.00000E+00
 -1      2851 5.80350E+01 9.20225E+00 0.00000E+00
 -1      2852 6.32850E+01 7.90325E+00 0.00000E+00
 -1      2853 6.17850E+01 7.90325E+00 0.00000E+00
 -1      2854 6.10350E+01 9.20225E+00 0.00000E+00
 -1      2855 6.62850E+01 7.90325E+00 0.00000E+00
 -1      2856 6.47850E+01 7.90325E+00 0.00000E+00
 -1      2857 6.40350E+01 9.20225E+00 0.00000E+00
 -1      2858 6.92850E+01 7.90325E+00 0.00000E+00
 -1      2859 6.77850E+01 7.90325E+00 0.00000E+00
 -1      2860 6.70350E+01 9.20225E+00 0.00000E+00
 -1      2861 7.22850E+01 7.90325E+00 0.00000E+00
 -1      2862 7.07850E+01 7.90325E+00 0.00000E+00
 -1      2863 7.00350E+01 9.20225E+00 0.00000E+00
 -1      2864 7.52850E+01 7.90325E+00 0.00000E+00
 -1      2865 7.37850E+01 7.90325E+00 0.00000E+00
 -1      2866 7.30350E+01 9.20225E+00 0.00000E+00
 -1      2867 7.82850E+01 7.90325E+00 0.00000E+00
 -1      2868 7.67850E+01 7.90325E+00 0.00000E+00
 -1      2869 7.60350E+01 9.20225E+00 0.00000E+00
 -1      2870 8.12850E+01 7.90325E+00 0.00000E+00
 -1      2871 7.97850E+01 7.90325E+00 0.00000E+00
 -1      2872 7.90350E+01 9.20225E+00 0.00000E+00
 -1      2873 8.42850E+01 7.90325E+00 0.00000E+00
 -1      2874 8.27850E+01 7.90325E+00 0.00000E+00
 -1      2875 8.20350E+01 9.20225E+00 0.00000E+00
 -1      2876 8.72850E+01 7.90325E+00 0.00000E+00
 -1      2877 8.57850E+01 7.90325E+00 0.00000E+00
 -1      2878 8.50350E+01 9.20225E+00 0.00000E+00
 -1      2879 9.02850E+01 7.90325E+00 0.00000E+00
 -1      2880 8.87850E+01 7.90325E+00 0.00000E+00
 -1      2881 8.80350E+01 9.20225E+00 0.00000E+00
 -1      2882 9.32850E+01 7.90325E+00 0.00000E+00
 -1      2883 9.17850E+01 7.90325E+00 0.00000E+00
 -1      2884 9.10350E+01 9.20225E+00 0.00000E+00
 -1      2885 9.62850E+01 7.90325E+00 0.00000E+00
 -1      2886 9.47850E+01 7.90325E+00 0.00000E+00
 -1      2887 9.40350E+01 9.20225E+00 0.00000E+00
 -1      2888 9.92850E+01 7.90325E+00 0.00000E+00
 -1      2889 9.77850E+01 7.90325E+00 0.00000E+00
 -1      2890 9.70350E+01 9.20225E+00 0.00000E+00
 -1      2891 1.02285E+02 7.90325E+00 0.00000E+00
 -1      2892 1.00785E+02 7.90325E+00 0.00000E+00
 -1      2893 1.00035E+02 9.20225E+00 0.00000E+00
 -1      2894 1.05285E+02 7.90325E+00 0.00000E+00
 -1      2895 1.03785E+02 7.90325E+00 0.00000E+00
 -1      2896 1.03035E+02 9.20225E+00 0.00000E+00
 -1      2897 1.08285E+02 7.90325E+00 0.00000E+00
 -1      2898 1.06785E+02 7.90325E+00 0.00000E+00
 -1      2899 1.06035E+02 9.20225E+00 0.00000E+00
 -1      2900 1.11285E+02 7.90325E+00 0.00000E+00
 -1      2901 1.09785E+02 7.90325E+00 0.00000E+00
 -1      2902 1.09035E+02 9.20225E+00 0.00000E+00
 -1      2903 1.14285E+02 7.90325E+00 0.00000E+00
 -1      2904 1.12785E+02 7.90325E+00 0.00000E+00
 -1      2905 1.12035E+02 9.20225E+00 0.00000E+00
 -1      2906 1.17285E+02 7.90325E+00 0.00000E+00
 -1      2907 1.15785E+02 7.90325E+00 0.00000E+00
 -1      2908 1.15035E+02 9.20225E+00 0.00000E+00
 -1      2909 1.20285E+02 7.90325E+00 0.00000E+00
 -1      2910 1.18785E+02 7.90325E+00 0.00000E+00
 -1      2911 1.18035E+02 9.20225E+00 0.00000E+00
 -1      2912 1.23285E+02 7.90325E+00 0.00000E+00
 -1      2913 1.21785E+02 7.90325E+00 0.00000E+00
 -1      2914 1.21035E+02 9.20225E+00 0.00000E+00
 -1      2915 1.26285E+02 7.90325E+00 0.00000E+00
 -1      2916 1.24785E+02 7.90325E+00 0.00000E+00
 -1      2917 1.24035E+02 9.20225E+00 0.00000E+00
 -1      2918 1.29285E+02 7.90325E+00 0.00000E+00
 -1      2919 1.27785E+02 7.90325E+00 0.00000E+00
 -1      2920 1.27035E+02 9.20225E+00 0.00000E+00
 -1      2921 1.32285E+02 7.90325E+00 0.00000E+00
 -1      2922 1.30785E+02 7.90325E+00 0.00000E+00
 -1      2923 1.30035E+02 9.20225E+00 0.00000E+00
 -1      2924 1.35285E+02 7.90325E+00 0.00000E+00
 -1      2925 1.33785E+02 7.90325E+00 0.00000E+00
 -1      2926 1.33035E+02 9.20225E+00 0.00000E+00
 -1      2927 1.38285E+02 7.90325E+00 0.00000E+00
 -1      2928 1.36785E+02 7.90325E+00 0.00000E+00
 -1      2929 1.36035E+02 9.20225E+00 0.00000E+00
 -1      2930 1.40953E+02 8.18394E+00 0.00000E+00
 -1      2931 1.39453E+02 8.18394E+00 0.00000E+00
 -1      2932 1.38703E+02 9.48294E+00 0.00000E+00
 -1      2933 1.41038E+02 1.00443E+01 0.00000E+00
 -1      2934 1.40907E+02 2.42875E+01 0.00000E+00
 -1      2935 1.40907E+02 2.28125E+01 0.00000E+00
 -1      2936 1.39914E+02 4.09475E+01 0.00000E+00
 -1      2937 1.40928E+02 4.09768E+01 0.00000E+00
 -1      2938 1.41192E+02 3.97070E+01 0.00000E+00
 -1      2939 1.39164E+02 3.96710E+01 0.00000E+00
 -1      2940 1.40907E+02 1.83875E+01 0.00000E+00
 -1      2941 1.40907E+02 1.69125E+01 0.00000E+00
 -1      2942 1.40907E+02 2.72375E+01 0.00000E+00
 -1      2943 1.40907E+02 2.57625E+01 0.00000E+00
 -1      2944 1.39608E+02 2.50250E+01 0.00000E+00
 -1      2945 1.40907E+02 2.13375E+01 0.00000E+00
 -1      2946 1.40907E+02 1.98625E+01 0.00000E+00
 -1      2947 1.39608E+02 1.91250E+01 0.00000E+00
 -1      2948 1.39608E+02 2.20750E+01 0.00000E+00
 -1      2949 1.82850E+01 7.90325E+00 0.00000E+00
 -1      2950 1.67850E+01 7.90325E+00 0.00000E+00
 -1      2951 1.60350E+01 9.20225E+00 0.00000E+00
 -1      2952 1.90350E+01 9.20225E+00 0.00000E+00
 -1      2953 1.40907E+02 3.01375E+01 0.00000E+00
 -1      2954 1.40907E+02 2.86875E+01 0.00000E+00
 -1      2955 1.39608E+02 2.79500E+01 0.00000E+00
 -1      2956 1.40907E+02 3.30875E+01 0.00000E+00
 -1      2957 1.40907E+02 3.16125E+01 0.00000E+00
 -1      2958 1.39608E+02 3.08750E+01 0.00000E+00
 -1      2959 1.40907E+02 3.60375E+01 0.00000E+00
 -1      2960 1.40907E+02 3.45625E+01 0.00000E+00
 -1      2961 1.39608E+02 3.38250E+01 0.00000E+00
 -1      2962 1.41192E+02 3.82320E+01 0.00000E+00
 -1      2963 1.18308E+02 2.68580E+01 0.00000E+00
 -1      2964 1.18127E+02 2.78423E+01 0.00000E+00
 -1      2965 8.85168E+00 4.05347E+01 0.00000E+00
 -1      2966 1.02152E+01 4.07987E+01 0.00000E+00
 -1      2967 1.03412E+02 3.69164E+01 0.00000E+00
 -1      2968 1.02325E+02 3.67501E+01 0.00000E+00
 -1      2969 1.17810E+02 2.87946E+01 0.00000E+00
 -1      2970 1.17493E+02 2.97469E+01 0.00000E+00
 -1      2971 1.18827E+02 2.84727E+01 0.00000E+00
 -1      2972 1.00947E+02 3.60276E+01 0.00000E+00
 -1      2973 9.99091E+01 3.53437E+01 0.00000E+00
 -1      2974 9.67639E+01 3.29150E+01 0.00000E+00
 -1      2975 9.58850E+01 3.19270E+01 0.00000E+00
 -1      2976 2.72850E+01 7.90325E+00 0.00000E+00
 -1      2977 2.57850E+01 7.90325E+00 0.00000E+00
 -1      2978 2.50350E+01 9.20225E+00 0.00000E+00
 -1      2979 2.80350E+01 9.20225E+00 0.00000E+00
 -1      2980 1.15576E+01 4.08528E+01 0.00000E+00
 -1      2981 1.30576E+01 4.08528E+01 0.00000E+00
 -1      2982 1.38076E+01 3.95538E+01 0.00000E+00
 -1      2983 1.11228E+01 3.94455E+01 0.00000E+00
 -1      2984 9.09300E+00 1.68813E+01 0.00000E+00
 -1      2985 9.09300E+00 1.83563E+01 0.00000E+00
 -1      2986 1.03920E+01 1.90812E+01 0.00000E+00
 -1      2987 1.03920E+01 1.61437E+01 0.00000E+00
 -1      2988 9.09300E+00 3.15875E+01 0.00000E+00
 -1      2989 9.09300E+00 3.30625E+01 0.00000E+00
 -1      2990 1.03901E+02 1.32249E+01 0.00000E+00
 -1      2991 1.04986E+02 1.30502E+01 0.00000E+00
 -1      2992 9.43590E+01 2.29277E+01 0.00000E+00
 -1      2993 9.44188E+01 2.16735E+01 0.00000E+00
 -1      2994 1.11376E+02 3.62076E+01 0.00000E+00
 -1      2995 1.10212E+02 3.66402E+01 0.00000E+00
 -1      2996 7.48818E+00 3.88019E+01 0.00000E+00
 -1      2997 1.18553E+02 2.46627E+01 0.00000E+00
 -1      2998 1.18430E+02 2.57603E+01 0.00000E+00
 -1      2999 1.19266E+02 2.64227E+01 0.00000E+00
 -1      3000 1.15569E+02 1.73831E+01 0.00000E+00
 -1      3001 1.16241E+02 1.82330E+01 0.00000E+00
 -1      3002 9.51549E+01 3.05199E+01 0.00000E+00
 -1      3003 9.48582E+01 2.92614E+01 0.00000E+00
 -1      3004 9.38643E+01 2.89740E+01 0.00000E+00
 -1      3005 1.13951E+02 1.55833E+01 0.00000E+00
 -1      3006 1.14760E+02 1.64832E+01 0.00000E+00
 -1      3007 1.15834E+02 1.63243E+01 0.00000E+00
 -1      3008 1.13546E+02 3.49502E+01 0.00000E+00
 -1      3009 1.12679E+02 3.56022E+01 0.00000E+00
 -1      3010 9.65929E+01 1.72857E+01 0.00000E+00
 -1      3011 9.74081E+01 1.64198E+01 0.00000E+00
 -1      3012 1.15213E+02 3.34546E+01 0.00000E+00
 -1      3013 1.14379E+02 3.42024E+01 0.00000E+00
 -1      3014 1.14562E+02 3.53476E+01 0.00000E+00
 -1      3015 8.91450E+00 8.42712E+00 0.00000E+00
 -1      3016 9.88511E+01 3.45902E+01 0.00000E+00
 -1      3017 9.78732E+01 3.38390E+01 0.00000E+00
 -1      3018 9.40176E+01 2.54191E+01 0.00000E+00
 -1      3019 9.41883E+01 2.41734E+01 0.00000E+00
 -1      3020 9.33616E+01 2.35054E+01 0.00000E+00
 -1      3021 9.09300E+00 3.45313E+01 0.00000E+00
 -1      3022 9.09300E+00 3.60000E+01 0.00000E+00
 -1      3023 1.03920E+01 3.37938E+01 0.00000E+00
 -1      3024 1.03920E+01 2.49750E+01 0.00000E+00
 -1      3025 9.09300E+00 2.57000E+01 0.00000E+00
 -1      3026 9.09300E+00 2.71750E+01 0.00000E+00
 -1      3027 1.03031E+02 1.25630E+01 0.00000E+00
 -1      3028 1.14154E+02 1.45392E+01 0.00000E+00
 -1      3029 1.19095E+02 2.31720E+01 0.00000E+00
 -1      3030 1.18824E+02 2.39174E+01 0.00000E+00
 -1      3031 1.19659E+02 2.45797E+01 0.00000E+00
 -1      3032 1.00353E+02 1.37233E+01 0.00000E+00
 -1      3033 1.00797E+02 1.27239E+01 0.00000E+00
 -1      3034 9.93961E+01 1.36120E+01 0.00000E+00
 -1      3035 1.39608E+02 1.61875E+01 0.00000E+00
 -1      3036 1.40907E+02 1.54500E+01 0.00000E+00
 -1      3037 1.40907E+02 1.39875E+01 0.00000E+00
 -1      3038 1.17018E+02 1.86312E+01 0.00000E+00
 -1      3039 1.17795E+02 1.90294E+01 0.00000E+00
 -1      3040 1.17420E+02 1.76224E+01 0.00000E+00
 -1      3041 1.04400E+02 4.09183E+01 0.00000E+00
 -1      3042 1.05900E+02 4.09183E+01 0.00000E+00
 -1      3043 1.06650E+02 3.96418E+01 0.00000E+00
 -1      3044 1.03650E+02 3.96193E+01 0.00000E+00
 -1      3045 9.27409E+01 2.70475E+01 0.00000E+00
 -1      3046 9.33792E+01 2.62333E+01 0.00000E+00
 -1      3047 9.25526E+01 2.55653E+01 0.00000E+00
 -1      3048 1.16120E+02 3.32322E+01 0.00000E+00
 -1      3049 1.16303E+02 3.43774E+01 0.00000E+00
 -1      3050 1.17028E+02 3.30098E+01 0.00000E+00
 -1      3051 9.88978E+01 3.56481E+01 0.00000E+00
 -1      3052 1.40973E+02 1.27472E+01 0.00000E+00
 -1      3053 1.40973E+02 1.12847E+01 0.00000E+00
 -1      3054 1.39805E+02 1.10040E+01 0.00000E+00
 -1      3055 1.39674E+02 1.34847E+01 0.00000E+00
 -1      3056 1.04095E+02 3.75079E+01 0.00000E+00
 -1      3057 9.55035E+01 1.76679E+01 0.00000E+00
 -1      3058 9.51646E+01 1.65323E+01 0.00000E+00
 -1      3059 9.44140E+01 1.80501E+01 0.00000E+00
 -1      3060 9.48911E+01 3.16396E+01 0.00000E+00
 -1      3061 9.38972E+01 3.13522E+01 0.00000E+00
 -1      3062 9.46272E+01 3.27593E+01 0.00000E+00
 -1      3063 1.39529E+02 3.85828E+01 0.00000E+00
 -1      3064 1.40542E+02 3.71258E+01 0.00000E+00
 -1      3065 1.39243E+02 3.63883E+01 0.00000E+00
 -1      3066 1.38514E+02 3.85648E+01 0.00000E+00
 -1      3067 9.67304E+01 3.39707E+01 0.00000E+00
 -1      3068 1.17826E+02 2.12739E+01 0.00000E+00
 -1      3069 1.18658E+02 2.17059E+01 0.00000E+00
 -1      3070 1.18224E+02 2.04702E+01 0.00000E+00
 -1      3071 9.41426E+01 2.07227E+01 0.00000E+00
 -1      3072 9.38664E+01 1.97719E+01 0.00000E+00
 -1      3073 9.32561E+01 2.13089E+01 0.00000E+00
 -1      3074 1.17677E+02 3.06448E+01 0.00000E+00
 -1      3075 1.17861E+02 3.15427E+01 0.00000E+00
 -1      3076 1.18694E+02 3.03229E+01 0.00000E+00
 -1      3077 1.01335E+02 3.71241E+01 0.00000E+00
 -1      3078 1.06793E+02 3.71048E+01 0.00000E+00
 -1      3079 8.78718E+00 3.80644E+01 0.00000E+00
 -1      3080 1.08707E+02 1.30239E+01 0.00000E+00
 -1      3081 1.12425E+02 3.67009E+01 0.00000E+00
 -1      3082 9.09300E+00 2.86437E+01 0.00000E+00
 -1      3083 9.09300E+00 3.01187E+01 0.00000E+00
 -1      3084 1.03920E+01 3.08563E+01 0.00000E+00
 -1      3085 1.03920E+01 2.79188E+01 0.00000E+00
 -1      3086 1.05776E+02 1.25257E+01 0.00000E+00
 -1      3087 9.76030E+01 1.53807E+01 0.00000E+00
 -1      3088 1.11144E+02 1.28628E+01 0.00000E+00
 -1      3089 1.11725E+02 1.34706E+01 0.00000E+00
 -1      3090 1.12701E+02 1.30462E+01 0.00000E+00
 -1      3091 9.66450E+00 9.72612E+00 0.00000E+00
 -1      3092 1.09635E+01 1.04636E+01 0.00000E+00
 -1      3093 1.24635E+01 1.04636E+01 0.00000E+00
 -1      3094 1.18920E+01 1.17250E+01 0.00000E+00
 -1      3095 1.39635E+01 1.04636E+01 0.00000E+00
 -1      3096 1.18920E+01 1.32000E+01 0.00000E+00
 -1      3097 1.05921E+02 1.07466E+01 0.00000E+00
 -1      3098 1.07390E+02 1.09814E+01 0.00000E+00
 -1      3099 1.89000E+01 3.83090E+01 0.00000E+00
 -1      3100 2.04000E+01 3.83090E+01 0.00000E+00
 -1      3101 2.19000E+01 3.83090E+01 0.00000E+00
 -1      3102 2.34000E+01 3.83090E+01 0.00000E+00
 -1      3103 2.11500E+01 3.70100E+01 0.00000E+00
 -1      3104 2.49000E+01 3.83090E+01 0.00000E+00
 -1      3105 2.64000E+01 3.83090E+01 0.00000E+00
 -1      3106 2.41500E+01 3.70100E+01 0.00000E+00
 -1      3107 2.79000E+01 3.83090E+01 0.00000E+00
 -1      3108 2.94000E+01 3.83090E+01 0.00000E+00
 -1      3109 2.71500E+01 3.70100E+01 0.00000E+00
 -1      3110 3.09000E+01 3.83090E+01 0.00000E+00
 -1      3111 3.24000E+01 3.83090E+01 0.00000E+00
 -1      3112 3.01500E+01 3.70100E+01 0.00000E+00
 -1      3113 3.39000E+01 3.83090E+01 0.00000E+00
 -1      3114 3.54000E+01 3.83090E+01 0.00000E+00
 -1      3115 3.31500E+01 3.70100E+01 0.00000E+00
 -1      3116 3.69000E+01 3.83090E+01 0.00000E+00
 -1      3117 3.84000E+01 3.83090E+01 0.00000E+00
 -1      3118 3.61500E+01 3.70100E+01 0.00000E+00
 -1      3119 3.99000E+01 3.83090E+01 0.00000E+00
 -1      3120 4.14000E+01 3.83090E+01 0.00000E+00
 -1      3121 3.91500E+01 3.70100E+01 0.00000E+00
 -1      3122 4.29000E+01 3.83090E+01 0.00000E+00
 -1      3123 4.44000E+01 3.83090E+01 0.00000E+00
 -1      3124 4.21500E+01 3.70100E+01 0.00000E+00
 -1      3125 4.59000E+01 3.83090E+01 0.00000E+00
 -1      3126 4.74000E+01 3.83090E+01 0.00000E+00
 -1      3127 4.51500E+01 3.70100E+01 0.00000E+00
 -1      3128 4.89000E+01 3.83090E+01 0.00000E+00
 -1      3129 5.04000E+01 3.83090E+01 0.00000E+00
 -1      3130 4.81500E+01 3.70100E+01 0.00000E+00
 -1      3131 5.19000E+01 3.83090E+01 0.00000E+00
 -1      3132 5.34000E+01 3.83090E+01 0.00000E+00
 -1      3133 5.11500E+01 3.70100E+01 0.00000E+00
 -1      3134 5.49000E+01 3.83090E+01 0.00000E+00
 -1      3135 5.64000E+01 3.83090E+01 0.00000E+00
 -1      3136 5.41500E+01 3.70100E+01 0.00000E+00
 -1      3137 5.79000E+01 3.83090E+01 0.00000E+00
 -1      3138 5.94000E+01 3.83090E+01 0.00000E+00
 -1      3139 5.71500E+01 3.70100E+01 0.00000E+00
 -1      3140 6.09000E+01 3.83090E+01 0.00000E+00
 -1      3141 6.24000E+01 3.83090E+01 0.00000E+00
 -1      3142 6.01500E+01 3.70100E+01 0.00000E+00
 -1      3143 6.39000E+01 3.83090E+01 0.00000E+00
 -1      3144 6.54000E+01 3.83090E+01 0.00000E+00
 -1      3145 6.31500E+01 3.70100E+01 0.00000E+00
 -1      3146 6.69000E+01 3.83090E+01 0.00000E+00
 -1      3147 6.84000E+01 3.83090E+01 0.00000E+00
 -1      3148 6.61500E+01 3.70100E+01 0.00000E+00
 -1      3149 6.99000E+01 3.83090E+01 0.00000E+00
 -1      3150 7.14000E+01 3.83090E+01 0.00000E+00
 -1      3151 6.91500E+01 3.70100E+01 0.00000E+00
 -1      3152 7.29000E+01 3.83090E+01 0.00000E+00
 -1      3153 7.44000E+01 3.83090E+01 0.00000E+00
 -1      3154 7.21500E+01 3.70100E+01 0.00000E+00
 -1      3155 7.59000E+01 3.83090E+01 0.00000E+00
 -1      3156 7.74000E+01 3.83090E+01 0.00000E+00
 -1      3157 7.51500E+01 3.70100E+01 0.00000E+00
 -1      3158 7.89000E+01 3.83090E+01 0.00000E+00
 -1      3159 8.04000E+01 3.83090E+01 0.00000E+00
 -1      3160 7.81500E+01 3.70100E+01 0.00000E+00
 -1      3161 8.19000E+01 3.83090E+01 0.00000E+00
 -1      3162 8.34000E+01 3.83090E+01 0.00000E+00
 -1      3163 8.11500E+01 3.70100E+01 0.00000E+00
 -1      3164 8.49000E+01 3.83090E+01 0.00000E+00
 -1      3165 8.64000E+01 3.83090E+01 0.00000E+00
 -1      3166 8.41500E+01 3.70100E+01 0.00000E+00
 -1      3167 8.79000E+01 3.83090E+01 0.00000E+00
 -1      3168 8.94000E+01 3.83090E+01 0.00000E+00
 -1      3169 8.71500E+01 3.70100E+01 0.00000E+00
 -1      3170 9.09000E+01 3.83090E+01 0.00000E+00
 -1      3171 9.24000E+01 3.83090E+01 0.00000E+00
 -1      3172 9.01500E+01 3.70100E+01 0.00000E+00
 -1      3173 9.39000E+01 3.83090E+01 0.00000E+00
 -1      3174 9.54000E+01 3.83090E+01 0.00000E+00
 -1      3175 9.31500E+01 3.70100E+01 0.00000E+00
 -1      3176 1.11136E+02 3.84797E+01 0.00000E+00
 -1      3177 1.12636E+02 3.84797E+01 0.00000E+00
 -1      3178 1.14900E+02 3.83540E+01 0.00000E+00
 -1      3179 1.16400E+02 3.83540E+01 0.00000E+00
 -1      3180 1.17900E+02 3.83540E+01 0.00000E+00
 -1      3181 1.19400E+02 3.83540E+01 0.00000E+00
 -1      3182 1.17150E+02 3.70550E+01 0.00000E+00
 -1      3183 1.20900E+02 3.83540E+01 0.00000E+00
 -1      3184 1.22400E+02 3.83540E+01 0.00000E+00
 -1      3185 1.20150E+02 3.70550E+01 0.00000E+00
 -1      3186 1.23900E+02 3.83540E+01 0.00000E+00
 -1      3187 1.25400E+02 3.83540E+01 0.00000E+00
 -1      3188 1.23150E+02 3.70550E+01 0.00000E+00
 -1      3189 1.26900E+02 3.83540E+01 0.00000E+00
 -1      3190 1.28400E+02 3.83540E+01 0.00000E+00
 -1      3191 1.26150E+02 3.70550E+01 0.00000E+00
 -1      3192 1.29900E+02 3.83540E+01 0.00000E+00
 -1      3193 1.31400E+02 3.83540E+01 0.00000E+00
 -1      3194 1.29150E+02 3.70550E+01 0.00000E+00
 -1      3195 1.32900E+02 3.83540E+01 0.00000E+00
 -1      3196 1.34400E+02 3.83540E+01 0.00000E+00
 -1      3197 1.32150E+02 3.70550E+01 0.00000E+00
 -1      3198 1.35707E+02 3.84594E+01 0.00000E+00
 -1      3199 1.37207E+02 3.84594E+01 0.00000E+00
 -1      3200 1.37572E+02 3.73712E+01 0.00000E+00
 -1      3201 1.34957E+02 3.71604E+01 0.00000E+00
 -1      3202 1.38309E+02 2.86750E+01 0.00000E+00
 -1      3203 1.38309E+02 2.72250E+01 0.00000E+00
 -1      3204 3.47850E+01 1.05013E+01 0.00000E+00
 -1      3205 3.32850E+01 1.05013E+01 0.00000E+00
 -1      3206 3.17850E+01 1.05013E+01 0.00000E+00
 -1      3207 3.02850E+01 1.05013E+01 0.00000E+00
 -1      3208 3.25350E+01 1.18003E+01 0.00000E+00
 -1      3209 4.07850E+01 1.05013E+01 0.00000E+00
 -1      3210 3.92850E+01 1.05013E+01 0.00000E+00
 -1      3211 4.37850E+01 1.05013E+01 0.00000E+00
 -1      3212 4.22850E+01 1.05013E+01 0.00000E+00
 -1      3213 4.15350E+01 1.18003E+01 0.00000E+00
 -1      3214 4.67850E+01 1.05013E+01 0.00000E+00
 -1      3215 4.52850E+01 1.05013E+01 0.00000E+00
 -1      3216 4.45350E+01 1.18003E+01 0.00000E+00
 -1      3217 4.97850E+01 1.05013E+01 0.00000E+00
 -1      3218 4.82850E+01 1.05013E+01 0.00000E+00
 -1      3219 4.75350E+01 1.18003E+01 0.00000E+00
 -1      3220 5.27850E+01 1.05013E+01 0.00000E+00
 -1      3221 5.12850E+01 1.05013E+01 0.00000E+00
 -1      3222 5.05350E+01 1.18003E+01 0.00000E+00
 -1      3223 5.57850E+01 1.05013E+01 0.00000E+00
 -1      3224 5.42850E+01 1.05013E+01 0.00000E+00
 -1      3225 5.35350E+01 1.18003E+01 0.00000E+00
 -1      3226 5.87850E+01 1.05013E+01 0.00000E+00
 -1      3227 5.72850E+01 1.05013E+01 0.00000E+00
 -1      3228 5.65350E+01 1.18003E+01 0.00000E+00
 -1      3229 6.17850E+01 1.05013E+01 0.00000E+00
 -1      3230 6.02850E+01 1.05013E+01 0.00000E+00
 -1      3231 5.95350E+01 1.18003E+01 0.00000E+00
 -1      3232 6.47850E+01 1.05013E+01 0.00000E+00
 -1      3233 6.32850E+01 1.05013E+01 0.00000E+00
 -1      3234 6.25350E+01 1.18003E+01 0.00000E+00
 -1      3235 6.77850E+01 1.05013E+01 0.00000E+00
 -1      3236 6.62850E+01 1.05013E+01 0.00000E+00
 -1      3237 6.55350E+01 1.18003E+01 0.00000E+00
 -1      3238 7.07850E+01 1.05013E+01 0.00000E+00
 -1      3239 6.92850E+01 1.05013E+01 0.00000E+00
 -1      3240 6.85350E+01 1.18003E+01 0.00000E+00
 -1      3241 7.37850E+01 1.05013E+01 0.00000E+00
 -1      3242 7.22850E+01 1.05013E+01 0.00000E+00
 -1      3243 7.15350E+01 1.18003E+01 0.00000E+00
 -1      3244 7.67850E+01 1.05013E+01 0.00000E+00
 -1      3245 7.52850E+01 1.05013E+01 0.00000E+00
 -1      3246 7.45350E+01 1.18003E+01 0.00000E+00
 -1      3247 7.97850E+01 1.05013E+01 0.00000E+00
 -1      3248 7.82850E+01 1.05013E+01 0.00000E+00
 -1      3249 7.75350E+01 1.18003E+01 0.00000E+00
 -1      3250 8.27850E+01 1.05013E+01 0.00000E+00
 -1      3251 8.12850E+01 1.05013E+01 0.00000E+00
 -1      3252 8.05350E+01 1.18003E+01 0.00000E+00
 -1      3253 8.57850E+01 1.05013E+01 0.00000E+00
 -1      3254 8.42850E+01 1.05013E+01 0.00000E+00
 -1      3255 8.35350E+01 1.18003E+01 0.00000E+00
 -1      3256 8.87850E+01 1.05013E+01 0.00000E+00
 -1      3257 8.72850E+01 1.05013E+01 0.00000E+00
 -1      3258 8.65350E+01 1.18003E+01 0.00000E+00
 -1      3259 9.17850E+01 1.05013E+01 0.00000E+00
 -1      3260 9.02850E+01 1.05013E+01 0.00000E+00
 -1      3261 8.95350E+01 1.18003E+01 0.00000E+00
 -1      3262 9.47850E+01 1.05013E+01 0.00000E+00
 -1      3263 9.32850E+01 1.05013E+01 0.00000E+00
 -1      3264 9.25350E+01 1.18003E+01 0.00000E+00
 -1      3265 9.77850E+01 1.05013E+01 0.00000E+00
 -1      3266 9.62850E+01 1.05013E+01 0.00000E+00
 -1      3267 9.55350E+01 1.18003E+01 0.00000E+00
 -1      3268 1.00688E+02 1.09074E+01 0.00000E+00
 -1      3269 9.91877E+01 1.09074E+01 0.00000E+00
 -1      3270 1.04421E+02 1.07466E+01 0.00000E+00
 -1      3271 1.08890E+02 1.09814E+01 0.00000E+00
 -1      3272 1.12827E+02 1.08203E+01 0.00000E+00
 -1      3273 1.11327E+02 1.08203E+01 0.00000E+00
 -1      3274 1.18785E+02 1.05013E+01 0.00000E+00
 -1      3275 1.17285E+02 1.05013E+01 0.00000E+00
 -1      3276 1.21785E+02 1.05013E+01 0.00000E+00
 -1      3277 1.20285E+02 1.05013E+01 0.00000E+00
 -1      3278 1.19535E+02 1.18003E+01 0.00000E+00
 -1      3279 1.24785E+02 1.05013E+01 0.00000E+00
 -1      3280 1.23285E+02 1.05013E+01 0.00000E+00
 -1      3281 1.22535E+02 1.18003E+01 0.00000E+00
 -1      3282 1.27785E+02 1.05013E+01 0.00000E+00
 -1      3283 1.26285E+02 1.05013E+01 0.00000E+00
 -1      3284 1.25535E+02 1.18003E+01 0.00000E+00
 -1      3285 1.30785E+02 1.05013E+01 0.00000E+00
 -1      3286 1.29285E+02 1.05013E+01 0.00000E+00
 -1      3287 1.28535E+02 1.18003E+01 0.00000E+00
 -1      3288 1.33785E+02 1.05013E+01 0.00000E+00
 -1      3289 1.32285E+02 1.05013E+01 0.00000E+00
 -1      3290 1.31535E+02 1.18003E+01 0.00000E+00
 -1      3291 1.36785E+02 1.05013E+01 0.00000E+00
 -1      3292 1.35285E+02 1.05013E+01 0.00000E+00
 -1      3293 1.34535E+02 1.18003E+01 0.00000E+00
 -1      3294 1.38879E+02 1.08930E+01 0.00000E+00
 -1      3295 1.37711E+02 1.06123E+01 0.00000E+00
 -1      3296 1.36961E+02 1.19113E+01 0.00000E+00
 -1      3297 1.38813E+02 1.21333E+01 0.00000E+00
 -1      3298 9.66290E+01 3.52204E+01 0.00000E+00
 -1      3299 9.55197E+01 3.42964E+01 0.00000E+00
 -1      3300 1.16910E+01 2.12875E+01 0.00000E+00
 -1      3301 1.16910E+01 2.27625E+01 0.00000E+00
 -1      3302 1.38309E+02 3.16250E+01 0.00000E+00
 -1      3303 1.38309E+02 3.01500E+01 0.00000E+00
 -1      3304 1.37010E+02 2.94250E+01 0.00000E+00
 -1      3305 1.38309E+02 2.57500E+01 0.00000E+00
 -1      3306 1.38309E+02 2.42750E+01 0.00000E+00
 -1      3307 1.37010E+02 2.64750E+01 0.00000E+00
 -1      3308 1.20117E+02 2.83732E+01 0.00000E+00
 -1      3309 1.19800E+02 2.93255E+01 0.00000E+00
 -1      3310 1.20361E+02 2.61779E+01 0.00000E+00
 -1      3311 1.20239E+02 2.72755E+01 0.00000E+00
 -1      3312 1.21212E+02 2.81283E+01 0.00000E+00
 -1      3313 3.77850E+01 1.05013E+01 0.00000E+00
 -1      3314 3.62850E+01 1.05013E+01 0.00000E+00
 -1      3315 3.55350E+01 1.18003E+01 0.00000E+00
 -1      3316 3.85350E+01 1.18003E+01 0.00000E+00
 -1      3317 2.27850E+01 1.05013E+01 0.00000E+00
 -1      3318 2.12850E+01 1.05013E+01 0.00000E+00
 -1      3319 1.16254E+02 1.51330E+01 0.00000E+00
 -1      3320 1.17063E+02 1.60329E+01 0.00000E+00
 -1      3321 1.09576E+02 3.68798E+01 0.00000E+00
 -1      3322 1.08981E+02 3.74128E+01 0.00000E+00
 -1      3323 1.10486E+02 3.75458E+01 0.00000E+00
 -1      3324 1.10500E+02 3.87192E+01 0.00000E+00
 -1      3325 1.02921E+02 1.07466E+01 0.00000E+00
 -1      3326 1.09000E+02 3.87192E+01 0.00000E+00
 -1      3327 1.59000E+01 3.83090E+01 0.00000E+00
 -1      3328 1.74000E+01 3.83090E+01 0.00000E+00
 -1      3329 1.81500E+01 3.70100E+01 0.00000E+00
 -1      3330 9.87835E+01 3.69282E+01 0.00000E+00
 -1      3331 9.77255E+01 3.61747E+01 0.00000E+00
 -1      3332 1.14511E+02 1.33626E+01 0.00000E+00
 -1      3333 1.15383E+02 1.42478E+01 0.00000E+00
 -1      3334 1.16612E+02 1.39564E+01 0.00000E+00
 -1      3335 1.38309E+02 3.45750E+01 0.00000E+00
 -1      3336 1.38309E+02 3.31000E+01 0.00000E+00
 -1      3337 1.37010E+02 3.23750E+01 0.00000E+00
 -1      3338 9.63791E+01 1.48022E+01 0.00000E+00
 -1      3339 9.77281E+01 1.40328E+01 0.00000E+00
 -1      3340 1.00862E+01 3.73269E+01 0.00000E+00
 -1      3341 9.28518E+01 2.98770E+01 0.00000E+00
 -1      3342 9.25551E+01 2.86185E+01 0.00000E+00
 -1      3343 1.15523E+02 3.58274E+01 0.00000E+00
 -1      3344 1.14689E+02 3.65753E+01 0.00000E+00
 -1      3345 9.24267E+01 2.40118E+01 0.00000E+00
 -1      3346 9.25974E+01 2.27661E+01 0.00000E+00
 -1      3347 1.08131E+02 3.83466E+01 0.00000E+00
 -1      3348 1.06813E+02 3.84112E+01 0.00000E+00
 -1      3349 1.05313E+02 3.83999E+01 0.00000E+00
 -1      3350 1.16910E+01 2.42375E+01 0.00000E+00
 -1      3351 1.16910E+01 2.57125E+01 0.00000E+00
 -1      3352 1.29900E+01 2.35000E+01 0.00000E+00
 -1      3353 9.65148E+01 3.65004E+01 0.00000E+00
 -1      3354 1.10352E+02 1.12448E+01 0.00000E+00
 -1      3355 1.19493E+02 2.23683E+01 0.00000E+00
 -1      3356 1.20329E+02 2.30307E+01 0.00000E+00
 -1      3357 1.19892E+02 2.15646E+01 0.00000E+00
 -1      3358 9.79935E+01 1.32058E+01 0.00000E+00
 -1      3359 9.84377E+01 1.22064E+01 0.00000E+00
 -1      3360 1.35528E+01 1.33887E+01 0.00000E+00
 -1      3361 1.20528E+01 1.48637E+01 0.00000E+00
 -1      3362 1.38309E+02 1.69188E+01 0.00000E+00
 -1      3363 1.38309E+02 1.54563E+01 0.00000E+00
 -1      3364 1.17840E+02 1.64311E+01 0.00000E+00
 -1      3365 1.18618E+02 1.68293E+01 0.00000E+00
 -1      3366 1.18261E+02 1.52397E+01 0.00000E+00
 -1      3367 1.13939E+02 3.78743E+01 0.00000E+00
 -1      3368 1.02432E+02 3.87273E+01 0.00000E+00
 -1      3369 1.03932E+02 3.87385E+01 0.00000E+00
 -1      3370 9.11500E+01 2.56402E+01 0.00000E+00
 -1      3371 9.17883E+01 2.48260E+01 0.00000E+00
 -1      3372 9.10241E+01 2.40868E+01 0.00000E+00
 -1      3373 1.17023E+02 3.58274E+01 0.00000E+00
 -1      3374 9.68806E+01 3.85313E+01 0.00000E+00
 -1      3375 9.83806E+01 3.85313E+01 0.00000E+00
 -1      3376 9.99000E+01 3.85829E+01 0.00000E+00
 -1      3377 1.01400E+02 3.85829E+01 0.00000E+00
 -1      3378 9.17284E+01 2.79505E+01 0.00000E+00
 -1      3379 1.32152E+01 3.82007E+01 0.00000E+00
 -1      3380 1.45576E+01 3.82548E+01 0.00000E+00
 -1      3381 1.53076E+01 3.69558E+01 0.00000E+00
 -1      3382 1.19984E+02 3.02234E+01 0.00000E+00
 -1      3383 2.42850E+01 1.05013E+01 0.00000E+00
 -1      3384 2.35350E+01 1.18003E+01 0.00000E+00
 -1      3385 2.57850E+01 1.05013E+01 0.00000E+00
 -1      3386 1.14286E+01 3.73811E+01 0.00000E+00
 -1      3387 1.18044E+02 3.26879E+01 0.00000E+00
 -1      3388 1.18227E+02 3.38332E+01 0.00000E+00
 -1      3389 1.19060E+02 3.23660E+01 0.00000E+00
 -1      3390 2.05350E+01 1.18003E+01 0.00000E+00
 -1      3391 1.97850E+01 1.05013E+01 0.00000E+00
 -1      3392 1.82850E+01 1.05013E+01 0.00000E+00
 -1      3393 2.95350E+01 1.18003E+01 0.00000E+00
 -1      3394 2.87850E+01 1.05013E+01 0.00000E+00
 -1      3395 2.72850E+01 1.05013E+01 0.00000E+00
 -1      3396 1.13930E+02 1.27548E+01 0.00000E+00
 -1      3397 1.15159E+02 1.24633E+01 0.00000E+00
 -1      3398 1.13348E+02 1.21469E+01 0.00000E+00
 -1      3399 1.14056E+02 1.05289E+01 0.00000E+00
 -1      3400 1.16306E+02 1.18279E+01 0.00000E+00
 -1      3401 1.15556E+02 1.05289E+01 0.00000E+00
 -1      3402 1.38309E+02 1.83937E+01 0.00000E+00
 -1      3403 1.37010E+02 1.76625E+01 0.00000E+00
 -1      3404 1.38309E+02 1.98687E+01 0.00000E+00
 -1      3405 1.20528E+01 1.63325E+01 0.00000E+00
 -1      3406 1.16910E+01 1.98188E+01 0.00000E+00
 -1      3407 1.29900E+01 2.05562E+01 0.00000E+00
 -1      3408 1.16910E+01 1.83500E+01 0.00000E+00
 -1      3409 1.38309E+02 2.28094E+01 0.00000E+00
 -1      3410 1.38309E+02 2.13344E+01 0.00000E+00
 -1      3411 1.37010E+02 2.06031E+01 0.00000E+00
 -1      3412 1.37010E+02 2.35344E+01 0.00000E+00
 -1      3413 9.35275E+01 1.86363E+01 0.00000E+00
 -1      3414 9.31886E+01 1.75007E+01 0.00000E+00
 -1      3415 9.26410E+01 1.92225E+01 0.00000E+00
 -1      3416 1.18627E+02 1.94614E+01 0.00000E+00
 -1      3417 1.19459E+02 1.98935E+01 0.00000E+00
 -1      3418 1.19029E+02 1.84527E+01 0.00000E+00
 -1      3419 9.23212E+01 2.18154E+01 0.00000E+00
 -1      3420 9.20449E+01 2.08646E+01 0.00000E+00
 -1      3421 9.13862E+01 2.23218E+01 0.00000E+00
 -1      3422 1.01644E+02 1.10187E+01 0.00000E+00
 -1      3423 1.20632E+02 2.54325E+01 0.00000E+00
 -1      3424 1.21605E+02 2.62854E+01 0.00000E+00
 -1      3425 1.20903E+02 2.46872E+01 0.00000E+00
 -1      3426 1.37758E+02 3.65172E+01 0.00000E+00
 -1      3427 1.38123E+02 3.54289E+01 0.00000E+00
 -1      3428 1.36824E+02 3.47039E+01 0.00000E+00
 -1      3429 1.36451E+02 3.64118E+01 0.00000E+00
 -1      3430 9.23241E+01 3.21164E+01 0.00000E+00
 -1      3431 9.25880E+01 3.09967E+01 0.00000E+00
 -1      3432 9.12787E+01 3.06412E+01 0.00000E+00
 -1      3433 1.16910E+01 3.01219E+01 0.00000E+00
 -1      3434 1.16910E+01 3.15906E+01 0.00000E+00
 -1      3435 1.29900E+01 3.23250E+01 0.00000E+00
 -1      3436 1.16910E+01 3.30594E+01 0.00000E+00
 -1      3437 1.16910E+01 3.45281E+01 0.00000E+00
 -1      3438 1.50796E+01 1.06648E+01 0.00000E+00
 -1      3439 1.45081E+01 1.19262E+01 0.00000E+00
 -1      3440 1.46689E+01 1.35899E+01 0.00000E+00
 -1      3441 1.65796E+01 1.06648E+01 0.00000E+00
 -1      3442 9.67696E+01 1.26272E+01 0.00000E+00
 -1      3443 1.01682E+02 3.77022E+01 0.00000E+00
 -1      3444 9.91306E+01 3.75062E+01 0.00000E+00
 -1      3445 9.61306E+01 3.72323E+01 0.00000E+00
 -1      3446 2.34000E+01 3.57110E+01 0.00000E+00
 -1      3447 2.49000E+01 3.57110E+01 0.00000E+00
 -1      3448 2.64000E+01 3.57110E+01 0.00000E+00
 -1      3449 2.79000E+01 3.57110E+01 0.00000E+00
 -1      3450 2.56500E+01 3.44120E+01 0.00000E+00
 -1      3451 2.94000E+01 3.57110E+01 0.00000E+00
 -1      3452 3.09000E+01 3.57110E+01 0.00000E+00
 -1      3453 2.86500E+01 3.44120E+01 0.00000E+00
 -1      3454 3.24000E+01 3.57110E+01 0.00000E+00
 -1      3455 3.39000E+01 3.57110E+01 0.00000E+00
 -1      3456 3.16500E+01 3.44120E+01 0.00000E+00
 -1      3457 3.54000E+01 3.57110E+01 0.00000E+00
 -1      3458 3.69000E+01 3.57110E+01 0.00000E+00
 -1      3459 3.46500E+01 3.44120E+01 0.00000E+00
 -1      3460 3.84000E+01 3.57110E+01 0.00000E+00
 -1      3461 3.99000E+01 3.57110E+01 0.00000E+00
 -1      3462 3.76500E+01 3.44120E+01 0.00000E+00
 -1      3463 4.14000E+01 3.57110E+01 0.00000E+00
 -1      3464 4.29000E+01 3.57110E+01 0.00000E+00
 -1      3465 4.06500E+01 3.44120E+01 0.00000E+00
 -1      3466 4.44000E+01 3.57110E+01 0.00000E+00
 -1      3467 4.59000E+01 3.57110E+01 0.00000E+00
 -1      3468 4.36500E+01 3.44120E+01 0.00000E+00
 -1      3469 4.74000E+01 3.57110E+01 0.00000E+00
 -1      3470 4.89000E+01 3.57110E+01 0.00000E+00
 -1      3471 4.66500E+01 3.44120E+01 0.00000E+00
 -1      3472 5.04000E+01 3.57110E+01 0.00000E+00
 -1      3473 5.19000E+01 3.57110E+01 0.00000E+00
 -1      3474 4.96500E+01 3.44120E+01 0.00000E+00
 -1      3475 5.34000E+01 3.57110E+01 0.00000E+00
 -1      3476 5.49000E+01 3.57110E+01 0.00000E+00
 -1      3477 5.26500E+01 3.44120E+01 0.00000E+00
 -1      3478 5.64000E+01 3.57110E+01 0.00000E+00
 -1      3479 5.79000E+01 3.57110E+01 0.00000E+00
 -1      3480 5.56500E+01 3.44120E+01 0.00000E+00
 -1      3481 5.94000E+01 3.57110E+01 0.00000E+00
 -1      3482 6.09000E+01 3.57110E+01 0.00000E+00
 -1      3483 5.86500E+01 3.44120E+01 0.00000E+00
 -1      3484 6.24000E+01 3.57110E+01 0.00000E+00
 -1      3485 6.39000E+01 3.57110E+01 0.00000E+00
 -1      3486 6.16500E+01 3.44120E+01 0.00000E+00
 -1      3487 6.54000E+01 3.57110E+01 0.00000E+00
 -1      3488 6.69000E+01 3.57110E+01 0.00000E+00
 -1      3489 6.46500E+01 3.44120E+01 0.00000E+00
 -1      3490 6.84000E+01 3.57110E+01 0.00000E+00
 -1      3491 6.99000E+01 3.57110E+01 0.00000E+00
 -1      3492 6.76500E+01 3.44120E+01 0.00000E+00
 -1      3493 7.14000E+01 3.57110E+01 0.00000E+00
 -1      3494 7.29000E+01 3.57110E+01 0.00000E+00
 -1      3495 7.06500E+01 3.44120E+01 0.00000E+00
 -1      3496 7.44000E+01 3.57110E+01 0.00000E+00
 -1      3497 7.59000E+01 3.57110E+01 0.00000E+00
 -1      3498 7.36500E+01 3.44120E+01 0.00000E+00
 -1      3499 7.74000E+01 3.57110E+01 0.00000E+00
 -1      3500 7.89000E+01 3.57110E+01 0.00000E+00
 -1      3501 7.66500E+01 3.44120E+01 0.00000E+00
 -1      3502 8.04000E+01 3.57110E+01 0.00000E+00
 -1      3503 8.19000E+01 3.57110E+01 0.00000E+00
 -1      3504 7.96500E+01 3.44120E+01 0.00000E+00
 -1      3505 8.34000E+01 3.57110E+01 0.00000E+00
 -1      3506 8.49000E+01 3.57110E+01 0.00000E+00
 -1      3507 8.26500E+01 3.44120E+01 0.00000E+00
 -1      3508 8.64000E+01 3.57110E+01 0.00000E+00
 -1      3509 8.79000E+01 3.57110E+01 0.00000E+00
 -1      3510 8.56500E+01 3.44120E+01 0.00000E+00
 -1      3511 9.06175E+01 2.86156E+01 0.00000E+00
 -1      3512 9.08033E+01 2.70446E+01 0.00000E+00
 -1      3513 1.18946E+02 3.52832E+01 0.00000E+00
 -1      3514 1.20446E+02 3.52832E+01 0.00000E+00
 -1      3515 1.25400E+02 3.57560E+01 0.00000E+00
 -1      3516 1.26900E+02 3.57560E+01 0.00000E+00
 -1      3517 1.28400E+02 3.57560E+01 0.00000E+00
 -1      3518 1.29900E+02 3.57560E+01 0.00000E+00
 -1      3519 1.27650E+02 3.44570E+01 0.00000E+00
 -1      3520 1.31400E+02 3.57560E+01 0.00000E+00
 -1      3521 1.32900E+02 3.57560E+01 0.00000E+00
 -1      3522 1.30650E+02 3.44570E+01 0.00000E+00
 -1      3523 4.52850E+01 1.30992E+01 0.00000E+00
 -1      3524 4.37850E+01 1.30992E+01 0.00000E+00
 -1      3525 4.22850E+01 1.30992E+01 0.00000E+00
 -1      3526 4.07850E+01 1.30992E+01 0.00000E+00
 -1      3527 4.30350E+01 1.43982E+01 0.00000E+00
 -1      3528 5.12850E+01 1.30992E+01 0.00000E+00
 -1      3529 4.97850E+01 1.30992E+01 0.00000E+00
 -1      3530 5.42850E+01 1.30992E+01 0.00000E+00
 -1      3531 5.27850E+01 1.30992E+01 0.00000E+00
 -1      3532 5.20350E+01 1.43982E+01 0.00000E+00
 -1      3533 5.72850E+01 1.30992E+01 0.00000E+00
 -1      3534 5.57850E+01 1.30992E+01 0.00000E+00
 -1      3535 5.50350E+01 1.43982E+01 0.00000E+00
 -1      3536 6.02850E+01 1.30992E+01 0.00000E+00
 -1      3537 5.87850E+01 1.30992E+01 0.00000E+00
 -1      3538 5.80350E+01 1.43982E+01 0.00000E+00
 -1      3539 6.32850E+01 1.30992E+01 0.00000E+00
 -1      3540 6.17850E+01 1.30992E+01 0.00000E+00
 -1      3541 6.10350E+01 1.43982E+01 0.00000E+00
 -1      3542 6.62850E+01 1.30992E+01 0.00000E+00
 -1      3543 6.47850E+01 1.30992E+01 0.00000E+00
 -1      3544 6.40350E+01 1.43982E+01 0.00000E+00
 -1      3545 6.92850E+01 1.30992E+01 0.00000E+00
 -1      3546 6.77850E+01 1.30992E+01 0.00000E+00
 -1      3547 6.70350E+01 1.43982E+01 0.00000E+00
 -1      3548 7.22850E+01 1.30992E+01 0.00000E+00
 -1      3549 7.07850E+01 1.30992E+01 0.00000E+00
 -1      3550 7.00350E+01 1.43982E+01 0.00000E+00
 -1      3551 7.52850E+01 1.30992E+01 0.00000E+00
 -1      3552 7.37850E+01 1.30992E+01 0.00000E+00
 -1      3553 7.30350E+01 1.43982E+01 0.00000E+00
 -1      3554 7.82850E+01 1.30992E+01 0.00000E+00
 -1      3555 7.67850E+01 1.30992E+01 0.00000E+00
 -1      3556 7.60350E+01 1.43982E+01 0.00000E+00
 -1      3557 8.12850E+01 1.30992E+01 0.00000E+00
 -1      3558 7.97850E+01 1.30992E+01 0.00000E+00
 -1      3559 7.90350E+01 1.43982E+01 0.00000E+00
 -1      3560 8.42850E+01 1.30992E+01 0.00000E+00
 -1      3561 8.27850E+01 1.30992E+01 0.00000E+00
 -1      3562 8.20350E+01 1.43982E+01 0.00000E+00
 -1      3563 8.72850E+01 1.30992E+01 0.00000E+00
 -1      3564 8.57850E+01 1.30992E+01 0.00000E+00
 -1      3565 8.50350E+01 1.43982E+01 0.00000E+00
 -1      3566 9.02850E+01 1.30992E+01 0.00000E+00
 -1      3567 8.87850E+01 1.30992E+01 0.00000E+00
 -1      3568 8.80350E+01 1.43982E+01 0.00000E+00
 -1      3569 9.52696E+01 1.26272E+01 0.00000E+00
 -1      3570 1.23285E+02 1.30992E+01 0.00000E+00
 -1      3571 1.21785E+02 1.30992E+01 0.00000E+00
 -1      3572 1.29285E+02 1.30992E+01 0.00000E+00
 -1      3573 1.27785E+02 1.30992E+01 0.00000E+00
 -1      3574 1.32285E+02 1.30992E+01 0.00000E+00
 -1      3575 1.30785E+02 1.30992E+01 0.00000E+00
 -1      3576 1.30035E+02 1.43982E+01 0.00000E+00
 -1      3577 1.35285E+02 1.30992E+01 0.00000E+00
 -1      3578 1.33785E+02 1.30992E+01 0.00000E+00
 -1      3579 1.33035E+02 1.43982E+01 0.00000E+00
 -1      3580 1.33518E+01 1.70700E+01 0.00000E+00
 -1      3581 9.50341E+01 3.62780E+01 0.00000E+00
 -1      3582 1.35711E+02 3.01625E+01 0.00000E+00
 -1      3583 1.35711E+02 2.86875E+01 0.00000E+00
 -1      3584 1.38528E+02 1.44149E+01 0.00000E+00
 -1      3585 1.38594E+02 1.31746E+01 0.00000E+00
 -1      3586 1.37668E+02 1.30636E+01 0.00000E+00
 -1      3587 1.37229E+02 1.51462E+01 0.00000E+00
 -1      3588 1.35711E+02 2.72125E+01 0.00000E+00
 -1      3589 1.35711E+02 2.57375E+01 0.00000E+00
 -1      3590 1.34412E+02 2.79500E+01 0.00000E+00
 -1      3591 1.22459E+02 2.77114E+01 0.00000E+00
 -1      3592 1.22336E+02 2.88090E+01 0.00000E+00
 -1      3593 9.48161E+01 3.39683E+01 0.00000E+00
 -1      3594 9.38222E+01 3.36808E+01 0.00000E+00
 -1      3595 3.32850E+01 1.30992E+01 0.00000E+00
 -1      3596 3.17850E+01 1.30992E+01 0.00000E+00
 -1      3597 1.35711E+02 3.31125E+01 0.00000E+00
 -1      3598 1.35711E+02 3.16375E+01 0.00000E+00
 -1      3599 1.34412E+02 3.09000E+01 0.00000E+00
 -1      3600 1.21223E+02 3.04861E+01 0.00000E+00
 -1      3601 1.20117E+02 3.14835E+01 0.00000E+00
 -1      3602 9.47147E+01 3.52179E+01 0.00000E+00
 -1      3603 9.50744E+01 1.37147E+01 0.00000E+00
 -1      3604 9.38398E+01 1.28877E+01 0.00000E+00
 -1      3605 9.23398E+01 1.28877E+01 0.00000E+00
 -1      3606 9.49493E+01 1.50627E+01 0.00000E+00
 -1      3607 9.38598E+01 1.54448E+01 0.00000E+00
 -1      3608 9.27019E+01 3.45343E+01 0.00000E+00
 -1      3609 9.25130E+01 3.33253E+01 0.00000E+00
 -1      3610 9.12038E+01 3.29698E+01 0.00000E+00
 -1      3611 9.43306E+01 3.59499E+01 0.00000E+00
 -1      3612 1.26285E+02 1.30992E+01 0.00000E+00
 -1      3613 1.24785E+02 1.30992E+01 0.00000E+00
 -1      3614 1.27035E+02 1.43982E+01 0.00000E+00
 -1      3615 1.21786E+01 3.60821E+01 0.00000E+00
 -1      3616 1.16910E+01 2.71844E+01 0.00000E+00
 -1      3617 1.16910E+01 2.86531E+01 0.00000E+00
 -1      3618 1.29900E+01 2.93875E+01 0.00000E+00
 -1      3619 4.82850E+01 1.30992E+01 0.00000E+00
 -1      3620 4.67850E+01 1.30992E+01 0.00000E+00
 -1      3621 4.60350E+01 1.43982E+01 0.00000E+00
 -1      3622 4.90350E+01 1.43982E+01 0.00000E+00
 -1      3623 9.28306E+01 3.59499E+01 0.00000E+00
 -1      3624 1.74000E+01 3.57110E+01 0.00000E+00
 -1      3625 1.89000E+01 3.57110E+01 0.00000E+00
 -1      3626 2.04000E+01 3.57110E+01 0.00000E+00
 -1      3627 2.19000E+01 3.57110E+01 0.00000E+00
 -1      3628 2.26500E+01 3.44120E+01 0.00000E+00
 -1      3629 9.15898E+01 1.41867E+01 0.00000E+00
 -1      3630 9.15213E+01 3.55944E+01 0.00000E+00
 -1      3631 1.20294E+02 2.05558E+01 0.00000E+00
 -1      3632 1.21130E+02 2.12182E+01 0.00000E+00
 -1      3633 1.20697E+02 1.95471E+01 0.00000E+00
 -1      3634 1.23900E+02 3.57560E+01 0.00000E+00
 -1      3635 1.24650E+02 3.44570E+01 0.00000E+00
 -1      3636 1.22400E+02 3.57560E+01 0.00000E+00
 -1      3637 1.34412E+02 2.50094E+01 0.00000E+00
 -1      3638 1.35711E+02 2.42719E+01 0.00000E+00
 -1      3639 1.35711E+02 2.28062E+01 0.00000E+00
 -1      3640 1.19870E+02 1.60700E+01 0.00000E+00
 -1      3641 1.19450E+02 1.72613E+01 0.00000E+00
 -1      3642 1.20282E+02 1.76934E+01 0.00000E+00
 -1      3643 9.00390E+01 2.63053E+01 0.00000E+00
 -1      3644 9.01095E+01 2.39502E+01 0.00000E+00
 -1      3645 9.07478E+01 2.31360E+01 0.00000E+00
 -1      3646 9.04716E+01 2.21852E+01 0.00000E+00
 -1      3647 9.18051E+01 1.56564E+01 0.00000E+00
 -1      3648 9.03536E+01 2.97352E+01 0.00000E+00
 -1      3649 8.94285E+01 2.88293E+01 0.00000E+00
 -1      3650 9.00898E+01 3.08549E+01 0.00000E+00
 -1      3651 9.00213E+01 3.55944E+01 0.00000E+00
 -1      3652 1.96500E+01 3.44120E+01 0.00000E+00
 -1      3653 1.21196E+02 3.39842E+01 0.00000E+00
 -1      3654 1.42890E+01 2.86531E+01 0.00000E+00
 -1      3655 1.42890E+01 3.01219E+01 0.00000E+00
 -1      3656 2.65350E+01 1.18003E+01 0.00000E+00
 -1      3657 8.92713E+01 3.42954E+01 0.00000E+00
 -1      3658 1.34022E+02 3.60313E+01 0.00000E+00
 -1      3659 1.35329E+02 3.61366E+01 0.00000E+00
 -1      3660 1.35515E+02 3.52827E+01 0.00000E+00
 -1      3661 1.33272E+02 3.47323E+01 0.00000E+00
 -1      3662 1.20300E+02 3.26287E+01 0.00000E+00
 -1      3663 2.12850E+01 1.30992E+01 0.00000E+00
 -1      3664 1.97850E+01 1.30992E+01 0.00000E+00
 -1      3665 3.02850E+01 1.30992E+01 0.00000E+00
 -1      3666 2.87850E+01 1.30992E+01 0.00000E+00
 -1      3667 3.10350E+01 1.43982E+01 0.00000E+00
 -1      3668 4.00350E+01 1.43982E+01 0.00000E+00
 -1      3669 3.92850E+01 1.30992E+01 0.00000E+00
 -1      3670 3.77850E+01 1.30992E+01 0.00000E+00
 -1      3671 1.24035E+02 1.43982E+01 0.00000E+00
 -1      3672 1.16888E+02 1.24357E+01 0.00000E+00
 -1      3673 1.62341E+01 1.35690E+01 0.00000E+00
 -1      3674 1.52788E+01 1.50316E+01 0.00000E+00
 -1      3675 1.34776E+01 3.53477E+01 0.00000E+00
 -1      3676 1.64822E+01 1.70282E+01 0.00000E+00
 -1      3677 1.49170E+01 1.70491E+01 0.00000E+00
 -1      3678 1.45552E+01 1.90666E+01 0.00000E+00
 -1      3679 1.20285E+02 1.30992E+01 0.00000E+00
 -1      3680 1.18785E+02 1.30992E+01 0.00000E+00
 -1      3681 3.47850E+01 1.30992E+01 0.00000E+00
 -1      3682 3.40350E+01 1.43982E+01 0.00000E+00
 -1      3683 3.62850E+01 1.30992E+01 0.00000E+00
 -1      3684 1.36742E+02 1.29526E+01 0.00000E+00
 -1      3685 1.35773E+02 1.52929E+01 0.00000E+00
 -1      3686 1.35992E+02 1.42516E+01 0.00000E+00
 -1      3687 1.22730E+02 2.69661E+01 0.00000E+00
 -1      3688 1.23854E+02 2.76468E+01 0.00000E+00
 -1      3689 1.23001E+02 2.62208E+01 0.00000E+00
 -1      3690 1.29900E+01 2.64469E+01 0.00000E+00
 -1      3691 1.22470E+02 3.00691E+01 0.00000E+00
 -1      3692 1.22603E+02 3.13292E+01 0.00000E+00
 -1      3693 1.23716E+02 2.96522E+01 0.00000E+00
 -1      3694 1.42890E+01 2.27625E+01 0.00000E+00
 -1      3695 1.42890E+01 2.42375E+01 0.00000E+00
 -1      3696 1.21302E+02 2.38835E+01 0.00000E+00
 -1      3697 1.22275E+02 2.47363E+01 0.00000E+00
 -1      3698 1.21700E+02 2.30798E+01 0.00000E+00
 -1      3699 2.42850E+01 1.30992E+01 0.00000E+00
 -1      3700 2.27850E+01 1.30992E+01 0.00000E+00
 -1      3701 2.20350E+01 1.43982E+01 0.00000E+00
 -1      3702 1.17930E+02 3.56051E+01 0.00000E+00
 -1      3703 1.00303E+02 3.69797E+01 0.00000E+00
 -1      3704 1.42890E+01 3.15906E+01 0.00000E+00
 -1      3705 1.42890E+01 3.30594E+01 0.00000E+00
 -1      3706 1.55880E+01 3.08563E+01 0.00000E+00
 -1      3707 1.17759E+02 1.33209E+01 0.00000E+00
 -1      3708 9.07711E+01 2.02354E+01 0.00000E+00
 -1      3709 9.17060E+01 1.97290E+01 0.00000E+00
 -1      3710 9.13671E+01 1.85934E+01 0.00000E+00
 -1      3711 1.61190E+01 3.46675E+01 0.00000E+00
 -1      3712 1.68690E+01 3.33685E+01 0.00000E+00
 -1      3713 1.44221E+01 2.01802E+01 0.00000E+00
 -1      3714 1.44221E+01 2.16489E+01 0.00000E+00
 -1      3715 1.57211E+01 2.23864E+01 0.00000E+00
 -1      3716 1.59873E+01 2.01593E+01 0.00000E+00
 -1      3717 1.35773E+02 1.82429E+01 0.00000E+00
 -1      3718 1.35773E+02 1.67679E+01 0.00000E+00
 -1      3719 1.34535E+02 1.58733E+01 0.00000E+00
 -1      3720 1.35702E+02 3.44287E+01 0.00000E+00
 -1      3721 1.73296E+01 1.19638E+01 0.00000E+00
 -1      3722 1.34403E+02 3.36912E+01 0.00000E+00
 -1      3723 1.21035E+02 1.43982E+01 0.00000E+00
 -1      3724 1.18509E+02 1.46199E+01 0.00000E+00
 -1      3725 1.19286E+02 1.50181E+01 0.00000E+00
 -1      3726 1.47766E+01 3.46133E+01 0.00000E+00
 -1      3727 1.26900E+02 3.31580E+01 0.00000E+00
 -1      3728 1.28400E+02 3.31580E+01 0.00000E+00
 -1      3729 2.49000E+01 3.31130E+01 0.00000E+00
 -1      3730 2.64000E+01 3.31130E+01 0.00000E+00
 -1      3731 1.79395E+01 1.34055E+01 0.00000E+00
 -1      3732 2.79000E+01 3.31130E+01 0.00000E+00
 -1      3733 2.94000E+01 3.31130E+01 0.00000E+00
 -1      3734 2.71500E+01 3.18140E+01 0.00000E+00
 -1      3735 3.09000E+01 3.31130E+01 0.00000E+00
 -1      3736 3.24000E+01 3.31130E+01 0.00000E+00
 -1      3737 3.01500E+01 3.18140E+01 0.00000E+00
 -1      3738 3.39000E+01 3.31130E+01 0.00000E+00
 -1      3739 3.54000E+01 3.31130E+01 0.00000E+00
 -1      3740 3.31500E+01 3.18140E+01 0.00000E+00
 -1      3741 3.69000E+01 3.31130E+01 0.00000E+00
 -1      3742 3.84000E+01 3.31130E+01 0.00000E+00
 -1      3743 3.61500E+01 3.18140E+01 0.00000E+00
 -1      3744 3.99000E+01 3.31130E+01 0.00000E+00
 -1      3745 4.14000E+01 3.31130E+01 0.00000E+00
 -1      3746 3.91500E+01 3.18140E+01 0.00000E+00
 -1      3747 4.29000E+01 3.31130E+01 0.00000E+00
 -1      3748 4.44000E+01 3.31130E+01 0.00000E+00
 -1      3749 4.21500E+01 3.18140E+01 0.00000E+00
 -1      3750 4.59000E+01 3.31130E+01 0.00000E+00
 -1      3751 4.74000E+01 3.31130E+01 0.00000E+00
 -1      3752 4.51500E+01 3.18140E+01 0.00000E+00
 -1      3753 4.89000E+01 3.31130E+01 0.00000E+00
 -1      3754 5.04000E+01 3.31130E+01 0.00000E+00
 -1      3755 4.81500E+01 3.18140E+01 0.00000E+00
 -1      3756 5.19000E+01 3.31130E+01 0.00000E+00
 -1      3757 5.34000E+01 3.31130E+01 0.00000E+00
 -1      3758 5.11500E+01 3.18140E+01 0.00000E+00
 -1      3759 5.49000E+01 3.31130E+01 0.00000E+00
 -1      3760 5.64000E+01 3.31130E+01 0.00000E+00
 -1      3761 5.41500E+01 3.18140E+01 0.00000E+00
 -1      3762 5.79000E+01 3.31130E+01 0.00000E+00
 -1      3763 5.94000E+01 3.31130E+01 0.00000E+00
 -1      3764 5.71500E+01 3.18140E+01 0.00000E+00
 -1      3765 6.09000E+01 3.31130E+01 0.00000E+00
 -1      3766 6.24000E+01 3.31130E+01 0.00000E+00
 -1      3767 6.01500E+01 3.18140E+01 0.00000E+00
 -1      3768 6.39000E+01 3.31130E+01 0.00000E+00
 -1      3769 6.54000E+01 3.31130E+01 0.00000E+00
 -1      3770 6.31500E+01 3.18140E+01 0.00000E+00
 -1      3771 6.69000E+01 3.31130E+01 0.00000E+00
 -1      3772 6.84000E+01 3.31130E+01 0.00000E+00
 -1      3773 6.61500E+01 3.18140E+01 0.00000E+00
 -1      3774 6.99000E+01 3.31130E+01 0.00000E+00
 -1      3775 7.14000E+01 3.31130E+01 0.00000E+00
 -1      3776 6.91500E+01 3.18140E+01 0.00000E+00
 -1      3777 7.29000E+01 3.31130E+01 0.00000E+00
 -1      3778 7.44000E+01 3.31130E+01 0.00000E+00
 -1      3779 7.21500E+01 3.18140E+01 0.00000E+00
 -1      3780 7.59000E+01 3.31130E+01 0.00000E+00
 -1      3781 7.74000E+01 3.31130E+01 0.00000E+00
 -1      3782 7.51500E+01 3.18140E+01 0.00000E+00
 -1      3783 7.89000E+01 3.31130E+01 0.00000E+00
 -1      3784 8.04000E+01 3.31130E+01 0.00000E+00
 -1      3785 7.81500E+01 3.18140E+01 0.00000E+00
 -1      3786 8.19000E+01 3.31130E+01 0.00000E+00
 -1      3787 8.34000E+01 3.31130E+01 0.00000E+00
 -1      3788 8.11500E+01 3.18140E+01 0.00000E+00
 -1      3789 8.49000E+01 3.31130E+01 0.00000E+00
 -1      3790 8.64000E+01 3.31130E+01 0.00000E+00
 -1      3791 8.41500E+01 3.18140E+01 0.00000E+00
 -1      3792 1.42890E+01 2.71812E+01 0.00000E+00
 -1      3793 1.55880E+01 2.79156E+01 0.00000E+00
 -1      3794 1.42890E+01 2.57094E+01 0.00000E+00
 -1      3795 2.72850E+01 1.30992E+01 0.00000E+00
 -1      3796 2.57850E+01 1.30992E+01 0.00000E+00
 -1      3797 2.50350E+01 1.43982E+01 0.00000E+00
 -1      3798 1.33281E+02 3.34160E+01 0.00000E+00
 -1      3799 1.22253E+02 3.31016E+01 0.00000E+00
 -1      3800 1.29900E+02 3.31580E+01 0.00000E+00
 -1      3801 1.31400E+02 3.31580E+01 0.00000E+00
 -1      3802 1.29150E+02 3.18590E+01 0.00000E+00
 -1      3803 5.57850E+01 1.56973E+01 0.00000E+00
 -1      3804 5.42850E+01 1.56973E+01 0.00000E+00
 -1      3805 5.27850E+01 1.56973E+01 0.00000E+00
 -1      3806 5.12850E+01 1.56973E+01 0.00000E+00
 -1      3807 5.35350E+01 1.69963E+01 0.00000E+00
 -1      3808 6.17850E+01 1.56973E+01 0.00000E+00
 -1      3809 6.02850E+01 1.56973E+01 0.00000E+00
 -1      3810 6.47850E+01 1.56973E+01 0.00000E+00
 -1      3811 6.32850E+01 1.56973E+01 0.00000E+00
 -1      3812 6.25350E+01 1.69963E+01 0.00000E+00
 -1      3813 6.77850E+01 1.56973E+01 0.00000E+00
 -1      3814 6.62850E+01 1.56973E+01 0.00000E+00
 -1      3815 6.55350E+01 1.69963E+01 0.00000E+00
 -1      3816 7.07850E+01 1.56973E+01 0.00000E+00
 -1      3817 6.92850E+01 1.56973E+01 0.00000E+00
 -1      3818 6.85350E+01 1.69963E+01 0.00000E+00
 -1      3819 7.37850E+01 1.56973E+01 0.00000E+00
 -1      3820 7.22850E+01 1.56973E+01 0.00000E+00
 -1      3821 7.15350E+01 1.69963E+01 0.00000E+00
 -1      3822 7.67850E+01 1.56973E+01 0.00000E+00
 -1      3823 7.52850E+01 1.56973E+01 0.00000E+00
 -1      3824 7.45350E+01 1.69963E+01 0.00000E+00
 -1      3825 7.97850E+01 1.56973E+01 0.00000E+00
 -1      3826 7.82850E+01 1.56973E+01 0.00000E+00
 -1      3827 7.75350E+01 1.69963E+01 0.00000E+00
 -1      3828 8.27850E+01 1.56973E+01 0.00000E+00
 -1      3829 8.12850E+01 1.56973E+01 0.00000E+00
 -1      3830 8.05350E+01 1.69963E+01 0.00000E+00
 -1      3831 8.57850E+01 1.56973E+01 0.00000E+00
 -1      3832 8.42850E+01 1.56973E+01 0.00000E+00
 -1      3833 8.35350E+01 1.69963E+01 0.00000E+00
 -1      3834 8.87850E+01 1.56973E+01 0.00000E+00
 -1      3835 8.72850E+01 1.56973E+01 0.00000E+00
 -1      3836 8.65350E+01 1.69963E+01 0.00000E+00
 -1      3837 1.89000E+01 3.31130E+01 0.00000E+00
 -1      3838 2.04000E+01 3.31130E+01 0.00000E+00
 -1      3839 1.33035E+02 1.58733E+01 0.00000E+00
 -1      3840 1.30785E+02 1.56973E+01 0.00000E+00
 -1      3841 1.29285E+02 1.56973E+01 0.00000E+00
 -1      3842 1.33113E+02 2.86875E+01 0.00000E+00
 -1      3843 1.33113E+02 2.72125E+01 0.00000E+00
 -1      3844 1.86895E+01 1.47045E+01 0.00000E+00
 -1      3845 8.87077E+01 2.67216E+01 0.00000E+00
 -1      3846 8.90544E+01 2.53173E+01 0.00000E+00
 -1      3847 1.24785E+02 1.56973E+01 0.00000E+00
 -1      3848 1.23285E+02 1.56973E+01 0.00000E+00
 -1      3849 1.35711E+02 2.13406E+01 0.00000E+00
 -1      3850 1.35711E+02 1.98750E+01 0.00000E+00
 -1      3851 1.34412E+02 2.20781E+01 0.00000E+00
 -1      3852 9.10551E+01 1.69554E+01 0.00000E+00
 -1      3853 1.32531E+02 3.21170E+01 0.00000E+00
 -1      3854 1.27785E+02 1.56973E+01 0.00000E+00
 -1      3855 1.26285E+02 1.56973E+01 0.00000E+00
 -1      3856 1.25535E+02 1.69963E+01 0.00000E+00
 -1      3857 1.28535E+02 1.69963E+01 0.00000E+00
 -1      3858 1.55880E+01 2.49719E+01 0.00000E+00
 -1      3859 8.77412E+01 3.30997E+01 0.00000E+00
 -1      3860 8.98625E+01 3.29831E+01 0.00000E+00
 -1      3861 8.96737E+01 3.17741E+01 0.00000E+00
 -1      3862 8.69912E+01 3.18007E+01 0.00000E+00
 -1      3863 2.19000E+01 3.31130E+01 0.00000E+00
 -1      3864 2.34000E+01 3.31130E+01 0.00000E+00
 -1      3865 2.41500E+01 3.18140E+01 0.00000E+00
 -1      3866 1.23500E+02 3.26847E+01 0.00000E+00
 -1      3867 1.76190E+01 3.20695E+01 0.00000E+00
 -1      3868 1.25000E+02 3.26847E+01 0.00000E+00
 -1      3869 5.87850E+01 1.56973E+01 0.00000E+00
 -1      3870 5.72850E+01 1.56973E+01 0.00000E+00
 -1      3871 5.95350E+01 1.69963E+01 0.00000E+00
 -1      3872 4.37850E+01 1.56973E+01 0.00000E+00
 -1      3873 4.22850E+01 1.56973E+01 0.00000E+00
 -1      3874 1.76190E+01 3.06007E+01 0.00000E+00
 -1      3875 2.01732E+01 1.64158E+01 0.00000E+00
 -1      3876 1.83277E+01 1.67220E+01 0.00000E+00
 -1      3877 1.79659E+01 1.87395E+01 0.00000E+00
 -1      3878 1.33113E+02 2.57469E+01 0.00000E+00
 -1      3879 1.33113E+02 2.42813E+01 0.00000E+00
 -1      3880 1.31814E+02 2.64844E+01 0.00000E+00
 -1      3881 8.87782E+01 2.43665E+01 0.00000E+00
 -1      3882 8.85020E+01 2.34157E+01 0.00000E+00
 -1      3883 8.74469E+01 2.47828E+01 0.00000E+00
 -1      3884 8.87485E+01 3.08682E+01 0.00000E+00
 -1      3885 8.94944E+01 2.18638E+01 0.00000E+00
 -1      3886 9.01327E+01 2.10496E+01 0.00000E+00
 -1      3887 8.97938E+01 1.99140E+01 0.00000E+00
 -1      3888 2.80350E+01 1.43982E+01 0.00000E+00
 -1      3889 5.65350E+01 1.69963E+01 0.00000E+00
 -1      3890 1.21618E+02 1.54501E+01 0.00000E+00
 -1      3891 1.20118E+02 1.54501E+01 0.00000E+00
 -1      3892 4.07850E+01 1.56973E+01 0.00000E+00
 -1      3893 3.92850E+01 1.56973E+01 0.00000E+00
 -1      3894 4.15350E+01 1.69963E+01 0.00000E+00
 -1      3895 5.05350E+01 1.69963E+01 0.00000E+00
 -1      3896 4.97850E+01 1.56973E+01 0.00000E+00
 -1      3897 4.82850E+01 1.56973E+01 0.00000E+00
 -1      3898 8.72850E+01 1.82952E+01 0.00000E+00
 -1      3899 8.57850E+01 1.82952E+01 0.00000E+00
 -1      3900 2.11500E+01 3.18140E+01 0.00000E+00
 -1      3901 1.32531E+02 3.06420E+01 0.00000E+00
 -1      3902 1.25750E+02 3.13857E+01 0.00000E+00
 -1      3903 1.32285E+02 1.71723E+01 0.00000E+00
 -1      3904 3.70350E+01 1.43982E+01 0.00000E+00
 -1      3905 1.76190E+01 2.76570E+01 0.00000E+00
 -1      3906 1.76190E+01 2.91289E+01 0.00000E+00
 -1      3907 1.96500E+01 3.03421E+01 0.00000E+00
 -1      3908 3.47850E+01 1.56973E+01 0.00000E+00
 -1      3909 3.32850E+01 1.56973E+01 0.00000E+00
 -1      3910 1.23399E+02 2.54170E+01 0.00000E+00
 -1      3911 1.24524E+02 2.60978E+01 0.00000E+00
 -1      3912 1.23798E+02 2.46133E+01 0.00000E+00
 -1      3913 1.21368E+02 1.69029E+01 0.00000E+00
 -1      3914 1.20947E+02 1.80943E+01 0.00000E+00
 -1      3915 1.21783E+02 1.87567E+01 0.00000E+00
 -1      3916 1.22284E+02 1.58511E+01 0.00000E+00
 -1      3917 8.84439E+01 2.78413E+01 0.00000E+00
 -1      3918 8.74593E+01 2.68533E+01 0.00000E+00
 -1      3919 8.81800E+01 2.89610E+01 0.00000E+00
 -1      3920 1.22103E+02 2.20710E+01 0.00000E+00
 -1      3921 1.23076E+02 2.29238E+01 0.00000E+00
 -1      3922 1.22505E+02 2.10623E+01 0.00000E+00
 -1      3923 1.23034E+02 1.71501E+01 0.00000E+00
 -1      3924 1.34473E+02 1.89804E+01 0.00000E+00
 -1      3925 1.25483E+02 2.88655E+01 0.00000E+00
 -1      3926 1.25616E+02 3.01256E+01 0.00000E+00
 -1      3927 1.27517E+02 3.05990E+01 0.00000E+00
 -1      3928 1.70775E+01 2.19838E+01 0.00000E+00
 -1      3929 1.69444E+01 2.30974E+01 0.00000E+00
 -1      3930 3.17850E+01 1.56973E+01 0.00000E+00
 -1      3931 3.02850E+01 1.56973E+01 0.00000E+00
 -1      3932 3.25350E+01 1.69963E+01 0.00000E+00
 -1      3933 4.67850E+01 1.56973E+01 0.00000E+00
 -1      3934 4.52850E+01 1.56973E+01 0.00000E+00
 -1      3935 4.75350E+01 1.69963E+01 0.00000E+00
 -1      3936 2.31732E+01 1.64158E+01 0.00000E+00
 -1      3937 2.16732E+01 1.64158E+01 0.00000E+00
 -1      3938 2.13114E+01 1.84333E+01 0.00000E+00
 -1      3939 1.76190E+01 2.47132E+01 0.00000E+00
 -1      3940 1.76190E+01 2.61851E+01 0.00000E+00
 -1      3941 1.96500E+01 2.73984E+01 0.00000E+00
 -1      3942 4.45350E+01 1.69963E+01 0.00000E+00
 -1      3943 1.31232E+02 2.99045E+01 0.00000E+00
 -1      3944 8.92336E+01 1.80480E+01 0.00000E+00
 -1      3945 8.84836E+01 1.93470E+01 0.00000E+00
 -1      3946 1.89754E+01 2.43106E+01 0.00000E+00
 -1      3947 2.34000E+01 3.05150E+01 0.00000E+00
 -1      3948 2.49000E+01 3.05150E+01 0.00000E+00
 -1      3949 8.74073E+01 3.08815E+01 0.00000E+00
 -1      3950 8.78234E+01 2.99623E+01 0.00000E+00
 -1      3951 8.60661E+01 3.08948E+01 0.00000E+00
 -1      3952 2.64000E+01 3.05150E+01 0.00000E+00
 -1      3953 2.79000E+01 3.05150E+01 0.00000E+00
 -1      3954 2.56500E+01 2.92160E+01 0.00000E+00
 -1      3955 2.94000E+01 3.05150E+01 0.00000E+00
 -1      3956 3.09000E+01 3.05150E+01 0.00000E+00
 -1      3957 2.86500E+01 2.92160E+01 0.00000E+00
 -1      3958 3.24000E+01 3.05150E+01 0.00000E+00
 -1      3959 3.39000E+01 3.05150E+01 0.00000E+00
 -1      3960 3.16500E+01 2.92160E+01 0.00000E+00
 -1      3961 3.54000E+01 3.05150E+01 0.00000E+00
 -1      3962 3.69000E+01 3.05150E+01 0.00000E+00
 -1      3963 3.46500E+01 2.92160E+01 0.00000E+00
 -1      3964 3.84000E+01 3.05150E+01 0.00000E+00
 -1      3965 3.99000E+01 3.05150E+01 0.00000E+00
 -1      3966 3.76500E+01 2.92160E+01 0.00000E+00
 -1      3967 4.14000E+01 3.05150E+01 0.00000E+00
 -1      3968 4.29000E+01 3.05150E+01 0.00000E+00
 -1      3969 4.06500E+01 2.92160E+01 0.00000E+00
 -1      3970 4.44000E+01 3.05150E+01 0.00000E+00
 -1      3971 4.59000E+01 3.05150E+01 0.00000E+00
 -1      3972 4.36500E+01 2.92160E+01 0.00000E+00
 -1      3973 4.74000E+01 3.05150E+01 0.00000E+00
 -1      3974 4.89000E+01 3.05150E+01 0.00000E+00
 -1      3975 4.66500E+01 2.92160E+01 0.00000E+00
 -1      3976 5.04000E+01 3.05150E+01 0.00000E+00
 -1      3977 5.19000E+01 3.05150E+01 0.00000E+00
 -1      3978 4.96500E+01 2.92160E+01 0.00000E+00
 -1      3979 5.34000E+01 3.05150E+01 0.00000E+00
 -1      3980 5.49000E+01 3.05150E+01 0.00000E+00
 -1      3981 5.26500E+01 2.92160E+01 0.00000E+00
 -1      3982 5.64000E+01 3.05150E+01 0.00000E+00
 -1      3983 5.79000E+01 3.05150E+01 0.00000E+00
 -1      3984 5.56500E+01 2.92160E+01 0.00000E+00
 -1      3985 5.94000E+01 3.05150E+01 0.00000E+00
 -1      3986 6.09000E+01 3.05150E+01 0.00000E+00
 -1      3987 5.86500E+01 2.92160E+01 0.00000E+00
 -1      3988 6.24000E+01 3.05150E+01 0.00000E+00
 -1      3989 6.39000E+01 3.05150E+01 0.00000E+00
 -1      3990 6.16500E+01 2.92160E+01 0.00000E+00
 -1      3991 6.54000E+01 3.05150E+01 0.00000E+00
 -1      3992 6.69000E+01 3.05150E+01 0.00000E+00
 -1      3993 6.46500E+01 2.92160E+01 0.00000E+00
 -1      3994 6.84000E+01 3.05150E+01 0.00000E+00
 -1      3995 6.99000E+01 3.05150E+01 0.00000E+00
 -1      3996 6.76500E+01 2.92160E+01 0.00000E+00
 -1      3997 7.14000E+01 3.05150E+01 0.00000E+00
 -1      3998 7.29000E+01 3.05150E+01 0.00000E+00
 -1      3999 7.06500E+01 2.92160E+01 0.00000E+00
 -1      4000 7.44000E+01 3.05150E+01 0.00000E+00
 -1      4001 7.59000E+01 3.05150E+01 0.00000E+00
 -1      4002 7.36500E+01 2.92160E+01 0.00000E+00
 -1      4003 7.74000E+01 3.05150E+01 0.00000E+00
 -1      4004 7.89000E+01 3.05150E+01 0.00000E+00
 -1      4005 7.66500E+01 2.92160E+01 0.00000E+00
 -1      4006 8.04000E+01 3.05150E+01 0.00000E+00
 -1      4007 8.19000E+01 3.05150E+01 0.00000E+00
 -1      4008 7.96500E+01 2.92160E+01 0.00000E+00
 -1      4009 8.32330E+01 3.07049E+01 0.00000E+00
 -1      4010 8.47330E+01 3.07049E+01 0.00000E+00
 -1      4011 8.51492E+01 2.97857E+01 0.00000E+00
 -1      4012 8.24830E+01 2.94059E+01 0.00000E+00
 -1      4013 6.92850E+01 1.82952E+01 0.00000E+00
 -1      4014 6.77850E+01 1.82952E+01 0.00000E+00
 -1      4015 5.42850E+01 1.82952E+01 0.00000E+00
 -1      4016 5.27850E+01 1.82952E+01 0.00000E+00
 -1      4017 1.29017E+02 3.05990E+01 0.00000E+00
 -1      4018 5.72850E+01 1.82952E+01 0.00000E+00
 -1      4019 5.57850E+01 1.82952E+01 0.00000E+00
 -1      4020 5.50350E+01 1.95942E+01 0.00000E+00
 -1      4021 1.98368E+01 2.30022E+01 0.00000E+00
 -1      4022 2.05114E+01 2.46181E+01 0.00000E+00
 -1      4023 6.62850E+01 1.82952E+01 0.00000E+00
 -1      4024 6.47850E+01 1.82952E+01 0.00000E+00
 -1      4025 6.70350E+01 1.95942E+01 0.00000E+00
 -1      4026 6.32850E+01 1.82952E+01 0.00000E+00
 -1      4027 6.17850E+01 1.82952E+01 0.00000E+00
 -1      4028 6.40350E+01 1.95942E+01 0.00000E+00
 -1      4029 7.22850E+01 1.82952E+01 0.00000E+00
 -1      4030 7.07850E+01 1.82952E+01 0.00000E+00
 -1      4031 7.00350E+01 1.95942E+01 0.00000E+00
 -1      4032 7.52850E+01 1.82952E+01 0.00000E+00
 -1      4033 7.37850E+01 1.82952E+01 0.00000E+00
 -1      4034 7.30350E+01 1.95942E+01 0.00000E+00
 -1      4035 7.82850E+01 1.82952E+01 0.00000E+00
 -1      4036 7.67850E+01 1.82952E+01 0.00000E+00
 -1      4037 7.60350E+01 1.95942E+01 0.00000E+00
 -1      4038 8.12850E+01 1.82952E+01 0.00000E+00
 -1      4039 7.97850E+01 1.82952E+01 0.00000E+00
 -1      4040 7.90350E+01 1.95942E+01 0.00000E+00
 -1      4041 8.42850E+01 1.82952E+01 0.00000E+00
 -1      4042 8.27850E+01 1.82952E+01 0.00000E+00
 -1      4043 8.20350E+01 1.95942E+01 0.00000E+00
 -1      4044 8.50350E+01 1.95942E+01 0.00000E+00
 -1      4045 2.07750E+01 3.04286E+01 0.00000E+00
 -1      4046 2.22750E+01 3.04286E+01 0.00000E+00
 -1      4047 2.30250E+01 2.91296E+01 0.00000E+00
 -1      4048 2.07750E+01 2.89567E+01 0.00000E+00
 -1      4049 3.77850E+01 1.56973E+01 0.00000E+00
 -1      4050 3.62850E+01 1.56973E+01 0.00000E+00
 -1      4051 3.55350E+01 1.69963E+01 0.00000E+00
 -1      4052 3.85350E+01 1.69963E+01 0.00000E+00
 -1      4053 4.52850E+01 1.82952E+01 0.00000E+00
 -1      4054 4.37850E+01 1.82952E+01 0.00000E+00
 -1      4055 2.61732E+01 1.64158E+01 0.00000E+00
 -1      4056 2.46732E+01 1.64158E+01 0.00000E+00
 -1      4057 2.43114E+01 1.84333E+01 0.00000E+00
 -1      4058 1.32162E+02 2.04365E+01 0.00000E+00
 -1      4059 1.32223E+02 1.88044E+01 0.00000E+00
 -1      4060 1.29973E+02 1.86284E+01 0.00000E+00
 -1      4061 1.25139E+02 2.71090E+01 0.00000E+00
 -1      4062 1.24868E+02 2.78543E+01 0.00000E+00
 -1      4063 1.26768E+02 2.83277E+01 0.00000E+00
 -1      4064 1.25537E+02 2.63053E+01 0.00000E+00
 -1      4065 1.22895E+02 1.83798E+01 0.00000E+00
 -1      4066 1.22644E+02 1.98326E+01 0.00000E+00
 -1      4067 1.23618E+02 2.06854E+01 0.00000E+00
 -1      4068 1.23896E+02 1.82260E+01 0.00000E+00
 -1      4069 1.75883E+01 1.98049E+01 0.00000E+00
 -1      4070 1.74552E+01 2.09185E+01 0.00000E+00
 -1      4071 1.86784E+01 2.16294E+01 0.00000E+00
 -1      4072 1.94338E+01 1.94987E+01 0.00000E+00
 -1      4073 2.89791E+01 1.60565E+01 0.00000E+00
 -1      4074 2.74791E+01 1.60565E+01 0.00000E+00
 -1      4075 2.71173E+01 1.80740E+01 0.00000E+00
 -1      4076 2.97291E+01 1.73555E+01 0.00000E+00
 -1      4077 1.32637E+02 2.30917E+01 0.00000E+00
 -1      4078 1.32637E+02 2.16261E+01 0.00000E+00
 -1      4079 1.30387E+02 2.14501E+01 0.00000E+00
 -1      4080 1.31339E+02 2.38292E+01 0.00000E+00
 -1      4081 6.02850E+01 1.82952E+01 0.00000E+00
 -1      4082 5.87850E+01 1.82952E+01 0.00000E+00
 -1      4083 5.80350E+01 1.95942E+01 0.00000E+00
 -1      4084 1.29599E+02 2.86444E+01 0.00000E+00
 -1      4085 1.28183E+02 2.77532E+01 0.00000E+00
 -1      4086 1.30399E+02 2.70588E+01 0.00000E+00
 -1      4087 1.30399E+02 2.55932E+01 0.00000E+00
 -1      4088 1.27568E+02 2.67420E+01 0.00000E+00
 -1      4089 8.68388E+01 2.89743E+01 0.00000E+00
 -1      4090 8.63376E+01 2.56206E+01 0.00000E+00
 -1      4091 8.60614E+01 2.46698E+01 0.00000E+00
 -1      4092 8.81631E+01 2.22801E+01 0.00000E+00
 -1      4093 2.20271E+01 2.46782E+01 0.00000E+00
 -1      4094 2.11657E+01 2.59866E+01 0.00000E+00
 -1      4095 4.22850E+01 1.82952E+01 0.00000E+00
 -1      4096 4.07850E+01 1.82952E+01 0.00000E+00
 -1      4097 4.30350E+01 1.95942E+01 0.00000E+00
 -1      4098 5.20350E+01 1.95942E+01 0.00000E+00
 -1      4099 5.12850E+01 1.82952E+01 0.00000E+00
 -1      4100 4.97850E+01 1.82952E+01 0.00000E+00
 -1      4101 9.01685E+01 1.75416E+01 0.00000E+00
 -1      4102 8.60738E+01 2.67403E+01 0.00000E+00
 -1      4103 1.26896E+02 1.82260E+01 0.00000E+00
 -1      4104 1.25396E+02 1.82260E+01 0.00000E+00
 -1      4105 1.25257E+02 1.94557E+01 0.00000E+00
 -1      4106 2.02145E+01 2.19369E+01 0.00000E+00
 -1      4107 8.57850E+01 2.08932E+01 0.00000E+00
 -1      4108 8.42850E+01 2.08932E+01 0.00000E+00
 -1      4109 1.24200E+02 2.36046E+01 0.00000E+00
 -1      4110 1.25325E+02 2.42853E+01 0.00000E+00
 -1      4111 1.24603E+02 2.25958E+01 0.00000E+00
 -1      4112 2.11657E+01 2.74585E+01 0.00000E+00
 -1      4113 6.10350E+01 1.95942E+01 0.00000E+00
 -1      4114 2.09338E+01 1.94987E+01 0.00000E+00
 -1      4115 2.05561E+01 2.05641E+01 0.00000E+00
 -1      4116 2.24338E+01 1.94987E+01 0.00000E+00
 -1      4117 3.32850E+01 1.82952E+01 0.00000E+00
 -1      4118 3.17850E+01 1.82952E+01 0.00000E+00
 -1      4119 3.62850E+01 1.82952E+01 0.00000E+00
 -1      4120 3.47850E+01 1.82952E+01 0.00000E+00
 -1      4121 3.40350E+01 1.95942E+01 0.00000E+00
 -1      4122 1.28473E+02 1.86284E+01 0.00000E+00
 -1      4123 4.82850E+01 1.82952E+01 0.00000E+00
 -1      4124 4.67850E+01 1.82952E+01 0.00000E+00
 -1      4125 4.60350E+01 1.95942E+01 0.00000E+00
 -1      4126 4.90350E+01 1.95942E+01 0.00000E+00
 -1      4127 8.78452E+01 2.01612E+01 0.00000E+00
 -1      4128 8.68529E+01 2.17131E+01 0.00000E+00
 -1      4129 8.61029E+01 2.30121E+01 0.00000E+00
 -1      4130 8.49935E+01 2.38499E+01 0.00000E+00
 -1      4131 2.49000E+01 2.79170E+01 0.00000E+00
 -1      4132 2.64000E+01 2.79170E+01 0.00000E+00
 -1      4133 2.28719E+01 2.34337E+01 0.00000E+00
 -1      4134 2.35262E+01 2.48022E+01 0.00000E+00
 -1      4135 2.79000E+01 2.79170E+01 0.00000E+00
 -1      4136 2.94000E+01 2.79170E+01 0.00000E+00
 -1      4137 2.71500E+01 2.66180E+01 0.00000E+00
 -1      4138 3.09000E+01 2.79170E+01 0.00000E+00
 -1      4139 3.24000E+01 2.79170E+01 0.00000E+00
 -1      4140 3.01500E+01 2.66180E+01 0.00000E+00
 -1      4141 3.39000E+01 2.79170E+01 0.00000E+00
 -1      4142 3.54000E+01 2.79170E+01 0.00000E+00
 -1      4143 3.31500E+01 2.66180E+01 0.00000E+00
 -1      4144 3.69000E+01 2.79170E+01 0.00000E+00
 -1      4145 3.84000E+01 2.79170E+01 0.00000E+00
 -1      4146 3.61500E+01 2.66180E+01 0.00000E+00
 -1      4147 3.99000E+01 2.79170E+01 0.00000E+00
 -1      4148 4.14000E+01 2.79170E+01 0.00000E+00
 -1      4149 3.91500E+01 2.66180E+01 0.00000E+00
 -1      4150 4.29000E+01 2.79170E+01 0.00000E+00
 -1      4151 4.44000E+01 2.79170E+01 0.00000E+00
 -1      4152 4.21500E+01 2.66180E+01 0.00000E+00
 -1      4153 4.59000E+01 2.79170E+01 0.00000E+00
 -1      4154 4.74000E+01 2.79170E+01 0.00000E+00
 -1      4155 4.51500E+01 2.66180E+01 0.00000E+00
 -1      4156 4.89000E+01 2.79170E+01 0.00000E+00
 -1      4157 5.04000E+01 2.79170E+01 0.00000E+00
 -1      4158 4.81500E+01 2.66180E+01 0.00000E+00
 -1      4159 5.19000E+01 2.79170E+01 0.00000E+00
 -1      4160 5.34000E+01 2.79170E+01 0.00000E+00
 -1      4161 5.11500E+01 2.66180E+01 0.00000E+00
 -1      4162 5.49000E+01 2.79170E+01 0.00000E+00
 -1      4163 5.64000E+01 2.79170E+01 0.00000E+00
 -1      4164 5.41500E+01 2.66180E+01 0.00000E+00
 -1      4165 5.79000E+01 2.79170E+01 0.00000E+00
 -1      4166 5.94000E+01 2.79170E+01 0.00000E+00
 -1      4167 5.71500E+01 2.66180E+01 0.00000E+00
 -1      4168 6.09000E+01 2.79170E+01 0.00000E+00
 -1      4169 6.24000E+01 2.79170E+01 0.00000E+00
 -1      4170 6.01500E+01 2.66180E+01 0.00000E+00
 -1      4171 6.39000E+01 2.79170E+01 0.00000E+00
 -1      4172 6.54000E+01 2.79170E+01 0.00000E+00
 -1      4173 6.31500E+01 2.66180E+01 0.00000E+00
 -1      4174 6.69000E+01 2.79170E+01 0.00000E+00
 -1      4175 6.84000E+01 2.79170E+01 0.00000E+00
 -1      4176 6.61500E+01 2.66180E+01 0.00000E+00
 -1      4177 6.99000E+01 2.79170E+01 0.00000E+00
 -1      4178 7.14000E+01 2.79170E+01 0.00000E+00
 -1      4179 6.91500E+01 2.66180E+01 0.00000E+00
 -1      4180 7.29000E+01 2.79170E+01 0.00000E+00
 -1      4181 7.44000E+01 2.79170E+01 0.00000E+00
 -1      4182 7.21500E+01 2.66180E+01 0.00000E+00
 -1      4183 7.59000E+01 2.79170E+01 0.00000E+00
 -1      4184 7.74000E+01 2.79170E+01 0.00000E+00
 -1      4185 7.51500E+01 2.66180E+01 0.00000E+00
 -1      4186 7.89000E+01 2.79170E+01 0.00000E+00
 -1      4187 8.04000E+01 2.79170E+01 0.00000E+00
 -1      4188 7.81500E+01 2.66180E+01 0.00000E+00
 -1      4189 5.87850E+01 2.08932E+01 0.00000E+00
 -1      4190 5.72850E+01 2.08932E+01 0.00000E+00
 -1      4191 7.07850E+01 2.08932E+01 0.00000E+00
 -1      4192 6.92850E+01 2.08932E+01 0.00000E+00
 -1      4193 6.47850E+01 2.08932E+01 0.00000E+00
 -1      4194 6.32850E+01 2.08932E+01 0.00000E+00
 -1      4195 7.67850E+01 2.08932E+01 0.00000E+00
 -1      4196 7.52850E+01 2.08932E+01 0.00000E+00
 -1      4197 7.97850E+01 2.08932E+01 0.00000E+00
 -1      4198 7.82850E+01 2.08932E+01 0.00000E+00
 -1      4199 7.75350E+01 2.21922E+01 0.00000E+00
 -1      4200 8.27850E+01 2.08932E+01 0.00000E+00
 -1      4201 8.12850E+01 2.08932E+01 0.00000E+00
 -1      4202 8.05350E+01 2.21922E+01 0.00000E+00
 -1      4203 8.35350E+01 2.21922E+01 0.00000E+00
 -1      4204 2.54338E+01 1.94987E+01 0.00000E+00
 -1      4205 2.39338E+01 1.94987E+01 0.00000E+00
 -1      4206 2.35561E+01 2.05641E+01 0.00000E+00
 -1      4207 1.24999E+02 2.04109E+01 0.00000E+00
 -1      4208 1.24860E+02 2.16406E+01 0.00000E+00
 -1      4209 1.25985E+02 2.23213E+01 0.00000E+00
 -1      4210 1.26499E+02 2.04109E+01 0.00000E+00
 -1      4211 1.26139E+02 2.50081E+01 0.00000E+00
 -1      4212 1.26754E+02 2.60193E+01 0.00000E+00
 -1      4213 1.28169E+02 2.54448E+01 0.00000E+00
 -1      4214 1.26541E+02 2.39993E+01 0.00000E+00
 -1      4215 1.28334E+02 1.98581E+01 0.00000E+00
 -1      4216 8.57171E+01 2.77416E+01 0.00000E+00
 -1      4217 8.45955E+01 2.65089E+01 0.00000E+00
 -1      4218 8.53605E+01 2.87429E+01 0.00000E+00
 -1      4219 2.17145E+01 2.19369E+01 0.00000E+00
 -1      4220 3.92850E+01 1.82952E+01 0.00000E+00
 -1      4221 3.77850E+01 1.82952E+01 0.00000E+00
 -1      4222 3.70350E+01 1.95942E+01 0.00000E+00
 -1      4223 4.00350E+01 1.95942E+01 0.00000E+00
 -1      4224 5.57850E+01 2.08932E+01 0.00000E+00
 -1      4225 5.42850E+01 2.08932E+01 0.00000E+00
 -1      4226 5.65350E+01 2.21922E+01 0.00000E+00
 -1      4227 3.12291E+01 1.99535E+01 0.00000E+00
 -1      4228 3.04791E+01 1.86545E+01 0.00000E+00
 -1      4229 2.91732E+01 1.90138E+01 0.00000E+00
 -1      4230 8.34935E+01 2.38499E+01 0.00000E+00
 -1      4231 6.77850E+01 2.08932E+01 0.00000E+00
 -1      4232 6.62850E+01 2.08932E+01 0.00000E+00
 -1      4233 6.85350E+01 2.21922E+01 0.00000E+00
 -1      4234 7.37850E+01 2.08932E+01 0.00000E+00
 -1      4235 7.22850E+01 2.08932E+01 0.00000E+00
 -1      4236 7.15350E+01 2.21922E+01 0.00000E+00
 -1      4237 7.45350E+01 2.21922E+01 0.00000E+00
 -1      4238 6.17850E+01 2.08932E+01 0.00000E+00
 -1      4239 6.02850E+01 2.08932E+01 0.00000E+00
 -1      4240 6.25350E+01 2.21922E+01 0.00000E+00
 -1      4241 2.34157E+01 2.76314E+01 0.00000E+00
 -1      4242 2.41657E+01 2.63324E+01 0.00000E+00
 -1      4243 1.29046E+02 2.49242E+01 0.00000E+00
 -1      4244 1.30462E+02 2.43498E+01 0.00000E+00
 -1      4245 1.29986E+02 2.31602E+01 0.00000E+00
 -1      4246 1.28232E+02 2.42015E+01 0.00000E+00
 -1      4247 2.50105E+01 2.50878E+01 0.00000E+00
 -1      4248 5.95350E+01 2.21922E+01 0.00000E+00
 -1      4249 5.35350E+01 2.21922E+01 0.00000E+00
 -1      4250 5.27850E+01 2.08932E+01 0.00000E+00
 -1      4251 5.12850E+01 2.08932E+01 0.00000E+00
 -1      4252 2.32135E+01 2.20608E+01 0.00000E+00
 -1      4253 8.11500E+01 2.66180E+01 0.00000E+00
 -1      4254 8.19000E+01 2.79170E+01 0.00000E+00
 -1      4255 8.34444E+01 2.70641E+01 0.00000E+00
 -1      4256 8.38010E+01 2.60628E+01 0.00000E+00
 -1      4257 6.55350E+01 2.21922E+01 0.00000E+00
 -1      4258 1.29232E+02 2.11317E+01 0.00000E+00
 -1      4259 1.27655E+02 2.07293E+01 0.00000E+00
 -1      4260 1.27397E+02 2.16845E+01 0.00000E+00
 -1      4261 1.29708E+02 2.23212E+01 0.00000E+00
 -1      4262 4.37850E+01 2.08932E+01 0.00000E+00
 -1      4263 4.22850E+01 2.08932E+01 0.00000E+00
 -1      4264 8.40275E+01 2.85530E+01 0.00000E+00
 -1      4265 3.47850E+01 2.08932E+01 0.00000E+00
 -1      4266 3.32850E+01 2.08932E+01 0.00000E+00
 -1      4267 8.23425E+01 2.44051E+01 0.00000E+00
 -1      4268 3.19791E+01 2.12525E+01 0.00000E+00
 -1      4269 3.06732E+01 2.16118E+01 0.00000E+00
 -1      4270 3.27291E+01 2.25515E+01 0.00000E+00
 -1      4271 2.79564E+01 1.90766E+01 0.00000E+00
 -1      4272 2.66505E+01 1.94359E+01 0.00000E+00
 -1      4273 2.62729E+01 2.05012E+01 0.00000E+00
 -1      4274 2.87064E+01 2.03756E+01 0.00000E+00
 -1      4275 2.22907E+01 2.75449E+01 0.00000E+00
 -1      4276 4.67850E+01 2.08932E+01 0.00000E+00
 -1      4277 4.52850E+01 2.08932E+01 0.00000E+00
 -1      4278 4.45350E+01 2.21922E+01 0.00000E+00
 -1      4279 2.94000E+01 2.53190E+01 0.00000E+00
 -1      4280 3.09000E+01 2.53190E+01 0.00000E+00
 -1      4281 3.28425E+01 2.44051E+01 0.00000E+00
 -1      4282 3.43425E+01 2.44051E+01 0.00000E+00
 -1      4283 3.84000E+01 2.53190E+01 0.00000E+00
 -1      4284 3.99000E+01 2.53190E+01 0.00000E+00
 -1      4285 4.18425E+01 2.44051E+01 0.00000E+00
 -1      4286 4.33425E+01 2.44051E+01 0.00000E+00
 -1      4287 4.48425E+01 2.44051E+01 0.00000E+00
 -1      4288 4.63425E+01 2.44051E+01 0.00000E+00
 -1      4289 5.04000E+01 2.53190E+01 0.00000E+00
 -1      4290 5.19000E+01 2.53190E+01 0.00000E+00
 -1      4291 5.38425E+01 2.44051E+01 0.00000E+00
 -1      4292 5.53425E+01 2.44051E+01 0.00000E+00
 -1      4293 5.68425E+01 2.44051E+01 0.00000E+00
 -1      4294 5.83425E+01 2.44051E+01 0.00000E+00
 -1      4295 5.98425E+01 2.44051E+01 0.00000E+00
 -1      4296 6.13425E+01 2.44051E+01 0.00000E+00
 -1      4297 6.28425E+01 2.44051E+01 0.00000E+00
 -1      4298 6.43425E+01 2.44051E+01 0.00000E+00
 -1      4299 6.58425E+01 2.44051E+01 0.00000E+00
 -1      4300 6.73425E+01 2.44051E+01 0.00000E+00
 -1      4301 6.88425E+01 2.44051E+01 0.00000E+00
 -1      4302 7.03425E+01 2.44051E+01 0.00000E+00
 -1      4303 7.18425E+01 2.44051E+01 0.00000E+00
 -1      4304 7.33425E+01 2.44051E+01 0.00000E+00
 -1      4305 7.48425E+01 2.44051E+01 0.00000E+00
 -1      4306 7.63425E+01 2.44051E+01 0.00000E+00
 -1      4307 7.78425E+01 2.44051E+01 0.00000E+00
 -1      4308 7.93425E+01 2.44051E+01 0.00000E+00
 -1      4309 8.32330E+01 2.81069E+01 0.00000E+00
 -1      4310 8.08425E+01 2.44051E+01 0.00000E+00
 -1      4311 2.47135E+01 2.20608E+01 0.00000E+00
 -1      4312 2.64552E+01 2.52034E+01 0.00000E+00
 -1      4313 2.79552E+01 2.52034E+01 0.00000E+00
 -1      4314 2.87052E+01 2.39044E+01 0.00000E+00
 -1      4315 2.58157E+01 2.36732E+01 0.00000E+00
 -1      4316 3.62850E+01 2.08932E+01 0.00000E+00
 -1      4317 3.55350E+01 2.21922E+01 0.00000E+00
 -1      4318 3.77850E+01 2.08932E+01 0.00000E+00
 -1      4319 2.61583E+01 2.21764E+01 0.00000E+00
 -1      4320 4.97850E+01 2.08932E+01 0.00000E+00
 -1      4321 4.82850E+01 2.08932E+01 0.00000E+00
 -1      4322 5.05350E+01 2.21922E+01 0.00000E+00
 -1      4323 4.10925E+01 2.31061E+01 0.00000E+00
 -1      4324 4.03425E+01 2.18071E+01 0.00000E+00
 -1      4325 3.58425E+01 2.44051E+01 0.00000E+00
 -1      4326 1.28831E+02 2.28419E+01 0.00000E+00
 -1      4327 3.73425E+01 2.44051E+01 0.00000E+00
 -1      4328 4.74000E+01 2.53190E+01 0.00000E+00
 -1      4329 4.89000E+01 2.53190E+01 0.00000E+00
 -1      4330 4.96500E+01 2.40200E+01 0.00000E+00
 -1      4331 3.80925E+01 2.31061E+01 0.00000E+00
 -1      4332 5.30925E+01 2.31061E+01 0.00000E+00
 -1      4333 1.27140E+02 2.26397E+01 0.00000E+00
 -1      4334 3.00366E+01 2.21664E+01 0.00000E+00
 -1      4335 2.88198E+01 2.22292E+01 0.00000E+00
 -1      4336 2.73751E+01 2.21136E+01 0.00000E+00
 -1      4337 4.75350E+01 2.21922E+01 0.00000E+00
 -1      4338 1.27418E+02 2.34787E+01 0.00000E+00
 -1      4339 3.88425E+01 2.18071E+01 0.00000E+00
 -1      4340 4.70925E+01 2.31061E+01 0.00000E+00
 -1      4341 4.85925E+01 2.31061E+01 0.00000E+00
 -1      4342 5.00925E+01 2.31061E+01 0.00000E+00
 -1      4343 3.15366E+01 2.47644E+01 0.00000E+00
 -1      4344 3.07866E+01 2.34654E+01 0.00000E+00
 -1      4345 5.15925E+01 2.31061E+01 0.00000E+00
 -3
    3C                          2091                                     1
 -1       164    8    0    1
 -2         6         7        23      1128      1291      1145
 -1       165    8    0    1
 -2         7         8       164      1129      1292      1293
 -1       166    8    0    1
 -2         8         9       165      1130      1294      1295
 -1       167    8    0    1
 -2         8       165       164      1295      1296      1292
 -1       168    8    0    1
 -2         9        10       166      1131      1297      1298
 -1       169    8    0    1
 -2         9       166       165      1298      1299      1294
 -1       170    8    0    1
 -2        10        11       167      1132      1300      1301
 -1       171    8    0    1
 -2        10       167       166      1301      1302      1297
 -1       172    8    0    1
 -2        11        12       168      1133      1303      1304
 -1       173    8    0    1
 -2        11       168       167      1304      1305      1300
 -1       174    8    0    1
 -2        12        13       169      1134      1306      1307
 -1       175    8    0    1
 -2        12       169       168      1307      1308      1303
 -1       176    8    0    1
 -2        13        14       170      1135      1309      1310
 -1       177    8    0    1
 -2        13       170       169      1310      1311      1306
 -1       178    8    0    1
 -2        14        15       171      1136      1312      1313
 -1       179    8    0    1
 -2        14       171       170      1313      1314      1309
 -1       180    8    0    1
 -2        15        16       172      1137      1315      1316
 -1       181    8    0    1
 -2        15       172       171      1316      1317      1312
 -1       182    8    0    1
 -2        16        17       173      1138      1318      1319
 -1       183    8    0    1
 -2        16       173       172      1319      1320      1315
 -1       184    8    0    1
 -2        17        18       174      1139      1321      1322
 -1       185    8    0    1
 -2        17       174       173      1322      1323      1318
 -1       186    8    0    1
 -2        18        19       175      1140      1324      1325
 -1       187    8    0    1
 -2        18       175       174      1325      1326      1321
 -1       188    8    0    1
 -2        19        20       176      1141      1327      1328
 -1       189    8    0    1
 -2        19       176       175      1328      1329      1324
 -1       190    8    0    1
 -2        20        21       177      1142      1330      1331
 -1       191    8    0    1
 -2        20       177       176      1331      1332      1327
 -1       192    8    0    1
 -2        21        22       178      1143      1333      1334
 -1       193    8    0    1
 -2        21       178       177      1334      1335      1330
 -1       194    8    0    1
 -2        22         5       179      1144      1336      1337
 -1       195    8    0    1
 -2       178        22       179      1333      1337      1338
 -1       196    8    0    1
 -2         5        72       179      1195      1339      1336
 -1       197    8    0    1
 -2        24        23       180      1146      1340      1341
 -1       198    8    0    1
 -2        25        24       181      1147      1342      1343
 -1       199    8    0    1
 -2        24       180       181      1341      1344      1342
 -1       200    8    0    1
 -2        26        25       182      1148      1345      1346
 -1       201    8    0    1
 -2        25       181       182      1343      1347      1345
 -1       202    8    0    1
 -2        27        26       183      1149      1348      1349
 -1       203    8    0    1
 -2        26       182       183      1346      1350      1348
 -1       204    8    0    1
 -2        28        27       184      1150      1351      1352
 -1       205    8    0    1
 -2        27       183       184      1349      1353      1351
 -1       206    8    0    1
 -2        29        28       185      1151      1354      1355
 -1       207    8    0    1
 -2        28       184       185      1352      1356      1354
 -1       208    8    0    1
 -2        30        29       186      1152      1357      1358
 -1       209    8    0    1
 -2        29       185       186      1355      1359      1357
 -1       210    8    0    1
 -2        31        30       187      1153      1360      1361
 -1       211    8    0    1
 -2        30       186       187      1358      1362      1360
 -1       212    8    0    1
 -2        32        31       188      1154      1363      1364
 -1       213    8    0    1
 -2        31       187       188      1361      1365      1363
 -1       214    8    0    1
 -2        33        32       189      1155      1366      1367
 -1       215    8    0    1
 -2        32       188       189      1364      1368      1366
 -1       216    8    0    1
 -2        34        33       190      1156      1369      1370
 -1       217    8    0    1
 -2        33       189       190      1367      1371      1369
 -1       218    8    0    1
 -2        35        34       191      1157      1372      1373
 -1       219    8    0    1
 -2        34       190       191      1370      1374      1372
 -1       220    8    0    1
 -2        36        35       192      1158      1375      1376
 -1       221    8    0    1
 -2        35       191       192      1373      1377      1375
 -1       222    8    0    1
 -2        37        36       193      1159      1378      1379
 -1       223    8    0    1
 -2        36       192       193      1376      1380      1378
 -1       224    8    0    1
 -2        38        37       194      1160      1381      1382
 -1       225    8    0    1
 -2        37       193       194      1379      1383      1381
 -1       226    8    0    1
 -2        39        38       195      1161      1384      1385
 -1       227    8    0    1
 -2        38       194       195      1382      1386      1384
 -1       228    8    0    1
 -2        40        39       196      1162      1387      1388
 -1       229    8    0    1
 -2        39       195       196      1385      1389      1387
 -1       230    8    0    1
 -2        41        40       197      1163      1390      1391
 -1       231    8    0    1
 -2        40       196       197      1388      1392      1390
 -1       232    8    0    1
 -2        42        41       198      1164      1393      1394
 -1       233    8    0    1
 -2        41       197       198      1391      1395      1393
 -1       234    8    0    1
 -2        43        42       199      1165      1396      1397
 -1       235    8    0    1
 -2        42       198       199      1394      1398      1396
 -1       236    8    0    1
 -2        44        43       200      1166      1399      1400
 -1       237    8    0    1
 -2        43       199       200      1397      1401      1399
 -1       238    8    0    1
 -2        45        44       201      1167      1402      1403
 -1       239    8    0    1
 -2        44       200       201      1400      1404      1402
 -1       240    8    0    1
 -2        46        45       202      1168      1405      1406
 -1       241    8    0    1
 -2        45       201       202      1403      1407      1405
 -1       242    8    0    1
 -2        47        46       203      1169      1408      1409
 -1       243    8    0    1
 -2        46       202       203      1406      1410      1408
 -1       244    8    0    1
 -2        48        47       204      1170      1411      1412
 -1       245    8    0    1
 -2        47       203       204      1409      1413      1411
 -1       246    8    0    1
 -2        49        48       205      1171      1414      1415
 -1       247    8    0    1
 -2        48       204       205      1412      1416      1414
 -1       248    8    0    1
 -2        50        49       206      1172      1417      1418
 -1       249    8    0    1
 -2        49       205       206      1415      1419      1417
 -1       250    8    0    1
 -2        51        50       207      1173      1420      1421
 -1       251    8    0    1
 -2        50       206       207      1418      1422      1420
 -1       252    8    0    1
 -2        52        51       208      1174      1423      1424
 -1       253    8    0    1
 -2        51       207       208      1421      1425      1423
 -1       254    8    0    1
 -2        53        52       209      1175      1426      1427
 -1       255    8    0    1
 -2        52       208       209      1424      1428      1426
 -1       256    8    0    1
 -2        54        53       210      1176      1429      1430
 -1       257    8    0    1
 -2        53       209       210      1427      1431      1429
 -1       258    8    0    1
 -2        55        54       211      1177      1432      1433
 -1       259    8    0    1
 -2        54       210       211      1430      1434      1432
 -1       260    8    0    1
 -2        56        55       212      1178      1435      1436
 -1       261    8    0    1
 -2        55       211       212      1433      1437      1435
 -1       262    8    0    1
 -2        57        56       213      1179      1438      1439
 -1       263    8    0    1
 -2        56       212       213      1436      1440      1438
 -1       264    8    0    1
 -2        58        57       214      1180      1441      1442
 -1       265    8    0    1
 -2        57       213       214      1439      1443      1441
 -1       266    8    0    1
 -2        59        58       215      1181      1444      1445
 -1       267    8    0    1
 -2        58       214       215      1442      1446      1444
 -1       268    8    0    1
 -2        60        59       216      1182      1447      1448
 -1       269    8    0    1
 -2        59       215       216      1445      1449      1447
 -1       270    8    0    1
 -2        61        60       217      1183      1450      1451
 -1       271    8    0    1
 -2        60       216       217      1448      1452      1450
 -1       272    8    0    1
 -2        62        61       218      1184      1453      1454
 -1       273    8    0    1
 -2        61       217       218      1451      1455      1453
 -1       274    8    0    1
 -2        63        62       219      1185      1456      1457
 -1       275    8    0    1
 -2        62       218       219      1454      1458      1456
 -1       276    8    0    1
 -2        64        63       220      1186      1459      1460
 -1       277    8    0    1
 -2        63       219       220      1457      1461      1459
 -1       278    8    0    1
 -2        65        64       221      1187      1462      1463
 -1       279    8    0    1
 -2        64       220       221      1460      1464      1462
 -1       280    8    0    1
 -2        66        65       222      1188      1465      1466
 -1       281    8    0    1
 -2        65       221       222      1463      1467      1465
 -1       282    8    0    1
 -2        67        66       223      1189      1468      1469
 -1       283    8    0    1
 -2        66       222       223      1466      1470      1468
 -1       284    8    0    1
 -2        68        67       224      1190      1471      1472
 -1       285    8    0    1
 -2        67       223       224      1469      1473      1471
 -1       286    8    0    1
 -2        69        68       225      1191      1474      1475
 -1       287    8    0    1
 -2        68       224       225      1472      1476      1474
 -1       288    8    0    1
 -2        70        69       226      1192      1477      1478
 -1       289    8    0    1
 -2        69       225       226      1475      1479      1477
 -1       290    8    0    1
 -2        71        70       227      1193      1480      1481
 -1       291    8    0    1
 -2        70       226       227      1478      1482      1480
 -1       292    8    0    1
 -2         4        71       136      1194      1483      1261
 -1       293    8    0    1
 -2       136        71       227      1483      1481      1484
 -1       294    8    0    1
 -2        72        73       228      1196      1485      1486
 -1       295    8    0    1
 -2        72       228       179      1486      1487      1339
 -1       296    8    0    1
 -2        73        74       229      1197      1488      1489
 -1       297    8    0    1
 -2        73       229       228      1489      1490      1485
 -1       298    8    0    1
 -2        74        75       230      1198      1491      1492
 -1       299    8    0    1
 -2        74       230       229      1492      1493      1488
 -1       300    8    0    1
 -2        75        76       231      1199      1494      1495
 -1       301    8    0    1
 -2        75       231       230      1495      1496      1491
 -1       302    8    0    1
 -2        76        77       232      1200      1497      1498
 -1       303    8    0    1
 -2        76       232       231      1498      1499      1494
 -1       304    8    0    1
 -2        77        78       233      1201      1500      1501
 -1       305    8    0    1
 -2        77       233       232      1501      1502      1497
 -1       306    8    0    1
 -2        78        79       234      1202      1503      1504
 -1       307    8    0    1
 -2        78       234       233      1504      1505      1500
 -1       308    8    0    1
 -2        79        80       235      1203      1506      1507
 -1       309    8    0    1
 -2        79       235       234      1507      1508      1503
 -1       310    8    0    1
 -2        80        81       236      1204      1509      1510
 -1       311    8    0    1
 -2        80       236       235      1510      1511      1506
 -1       312    8    0    1
 -2        81        82       237      1205      1512      1513
 -1       313    8    0    1
 -2        81       237       236      1513      1514      1509
 -1       314    8    0    1
 -2        82        83       238      1206      1515      1516
 -1       315    8    0    1
 -2        82       238       237      1516      1517      1512
 -1       316    8    0    1
 -2        83        84       239      1207      1518      1519
 -1       317    8    0    1
 -2        83       239       238      1519      1520      1515
 -1       318    8    0    1
 -2        84        85       240      1208      1521      1522
 -1       319    8    0    1
 -2        84       240       239      1522      1523      1518
 -1       320    8    0    1
 -2        85        86       241      1209      1524      1525
 -1       321    8    0    1
 -2        85       241       240      1525      1526      1521
 -1       322    8    0    1
 -2        86        87       242      1210      1527      1528
 -1       323    8    0    1
 -2        86       242       241      1528      1529      1524
 -1       324    8    0    1
 -2        87        88       243      1211      1530      1531
 -1       325    8    0    1
 -2        87       243       242      1531      1532      1527
 -1       326    8    0    1
 -2        88        89       244      1212      1533      1534
 -1       327    8    0    1
 -2        88       244       243      1534      1535      1530
 -1       328    8    0    1
 -2        89        90       245      1213      1536      1537
 -1       329    8    0    1
 -2        89       245       244      1537      1538      1533
 -1       330    8    0    1
 -2        90        91       246      1214      1539      1540
 -1       331    8    0    1
 -2        90       246       245      1540      1541      1536
 -1       332    8    0    1
 -2        91        92       247      1215      1542      1543
 -1       333    8    0    1
 -2        91       247       246      1543      1544      1539
 -1       334    8    0    1
 -2        92        93       248      1216      1545      1546
 -1       335    8    0    1
 -2        92       248       247      1546      1547      1542
 -1       336    8    0    1
 -2        93        94       249      1217      1548      1549
 -1       337    8    0    1
 -2        93       249       248      1549      1550      1545
 -1       338    8    0    1
 -2        94        95       250      1218      1551      1552
 -1       339    8    0    1
 -2        94       250       249      1552      1553      1548
 -1       340    8    0    1
 -2        95        96       251      1219      1554      1555
 -1       341    8    0    1
 -2        95       251       250      1555      1556      1551
 -1       342    8    0    1
 -2        96        97       252      1220      1557      1558
 -1       343    8    0    1
 -2        96       252       251      1558      1559      1554
 -1       344    8    0    1
 -2        97        98       253      1221      1560      1561
 -1       345    8    0    1
 -2        97       253       252      1561      1562      1557
 -1       346    8    0    1
 -2        98        99       254      1222      1563      1564
 -1       347    8    0    1
 -2        98       254       253      1564      1565      1560
 -1       348    8    0    1
 -2        99       100       255      1223      1566      1567
 -1       349    8    0    1
 -2        99       255       254      1567      1568      1563
 -1       350    8    0    1
 -2       100       101       256      1224      1569      1570
 -1       351    8    0    1
 -2       100       256       255      1570      1571      1566
 -1       352    8    0    1
 -2       101       102       257      1225      1572      1573
 -1       353    8    0    1
 -2       101       257       256      1573      1574      1569
 -1       354    8    0    1
 -2       102       103       258      1226      1575      1576
 -1       355    8    0    1
 -2       102       258       257      1576      1577      1572
 -1       356    8    0    1
 -2       103       104       259      1227      1578      1579
 -1       357    8    0    1
 -2       103       259       258      1579      1580      1575
 -1       358    8    0    1
 -2       104       105       260      1228      1581      1582
 -1       359    8    0    1
 -2       104       260       259      1582      1583      1578
 -1       360    8    0    1
 -2       105       106       261      1229      1584      1585
 -1       361    8    0    1
 -2       105       261       260      1585      1586      1581
 -1       362    8    0    1
 -2       106       107       262      1230      1587      1588
 -1       363    8    0    1
 -2       106       262       261      1588      1589      1584
 -1       364    8    0    1
 -2       107       108       263      1231      1590      1591
 -1       365    8    0    1
 -2       107       263       262      1591      1592      1587
 -1       366    8    0    1
 -2       108       109       264      1232      1593      1594
 -1       367    8    0    1
 -2       108       264       263      1594      1595      1590
 -1       368    8    0    1
 -2       109       110       265      1233      1596      1597
 -1       369    8    0    1
 -2       109       265       264      1597      1598      1593
 -1       370    8    0    1
 -2       110       111       266      1234      1599      1600
 -1       371    8    0    1
 -2       110       266       265      1600      1601      1596
 -1       372    8    0    1
 -2       111       112       267      1235      1602      1603
 -1       373    8    0    1
 -2       111       267       266      1603      1604      1599
 -1       374    8    0    1
 -2       112       113       268      1236      1605      1606
 -1       375    8    0    1
 -2       112       268       267      1606      1607      1602
 -1       376    8    0    1
 -2       113       114       269      1237      1608      1609
 -1       377    8    0    1
 -2       113       269       268      1609      1610      1605
 -1       378    8    0    1
 -2       114       115       270      1238      1611      1612
 -1       379    8    0    1
 -2       114       270       269      1612      1613      1608
 -1       380    8    0    1
 -2       115       116       271      1239      1614      1615
 -1       381    8    0    1
 -2       115       271       270      1615      1616      1611
 -1       382    8    0    1
 -2       116       117       272      1240      1617      1618
 -1       383    8    0    1
 -2       116       272       271      1618      1619      1614
 -1       384    8    0    1
 -2       117       118       273      1241      1620      1621
 -1       385    8    0    1
 -2       117       273       272      1621      1622      1617
 -1       386    8    0    1
 -2       118       119       274      1242      1623      1624
 -1       387    8    0    1
 -2       118       274       273      1624      1625      1620
 -1       388    8    0    1
 -2       119       120       275      1243      1626      1627
 -1       389    8    0    1
 -2       119       275       274      1627      1628      1623
 -1       390    8    0    1
 -2       120         3       121      1244      1245      1629
 -1       391    8    0    1
 -2       121       122       276      1246      1630      1631
 -1       392    8    0    1
 -2       122       123       277      1247      1632      1633
 -1       393    8    0    1
 -2       122       277       276      1633      1634      1630
 -1       394    8    0    1
 -2       123       124       278      1248      1635      1636
 -1       395    8    0    1
 -2       123       278       277      1636      1637      1632
 -1       396    8    0    1
 -2       124       125       279      1249      1638      1639
 -1       397    8    0    1
 -2       124       279       278      1639      1640      1635
 -1       398    8    0    1
 -2       125       126       280      1250      1641      1642
 -1       399    8    0    1
 -2       125       280       279      1642      1643      1638
 -1       400    8    0    1
 -2       126       127       281      1251      1644      1645
 -1       401    8    0    1
 -2       126       281       280      1645      1646      1641
 -1       402    8    0    1
 -2       127       128       282      1252      1647      1648
 -1       403    8    0    1
 -2       127       282       281      1648      1649      1644
 -1       404    8    0    1
 -2       128       129       283      1253      1650      1651
 -1       405    8    0    1
 -2       128       283       282      1651      1652      1647
 -1       406    8    0    1
 -2       129       130       284      1254      1653      1654
 -1       407    8    0    1
 -2       129       284       283      1654      1655      1650
 -1       408    8    0    1
 -2       130       131       285      1255      1656      1657
 -1       409    8    0    1
 -2       130       285       284      1657      1658      1653
 -1       410    8    0    1
 -2       131       132       286      1256      1659      1660
 -1       411    8    0    1
 -2       131       286       285      1660      1661      1656
 -1       412    8    0    1
 -2       132       133       287      1257      1662      1663
 -1       413    8    0    1
 -2       132       287       286      1663      1664      1659
 -1       414    8    0    1
 -2       133       134       288      1258      1665      1666
 -1       415    8    0    1
 -2       133       288       287      1666      1667      1662
 -1       416    8    0    1
 -2       134       135       289      1259      1668      1669
 -1       417    8    0    1
 -2       134       289       288      1669      1670      1665
 -1       418    8    0    1
 -2       135       136       290      1260      1671      1672
 -1       419    8    0    1
 -2       289       135       290      1668      1672      1673
 -1       420    8    0    1
 -2       136       227       290      1484      1674      1671
 -1       421    8    0    1
 -2         2       137       291      1262      1675      1676
 -1       422    8    0    1
 -2       137       138       292      1263      1677      1678
 -1       423    8    0    1
 -2       138       139       293      1264      1679      1680
 -1       424    8    0    1
 -2       139       140       294      1265      1681      1682
 -1       425    8    0    1
 -2       140       141       295      1266      1683      1684
 -1       426    8    0    1
 -2       141       142       296      1267      1685      1686
 -1       427    8    0    1
 -2       142       143       297      1268      1687      1688
 -1       428    8    0    1
 -2       143       144       298      1269      1689      1690
 -1       429    8    0    1
 -2       144       145       299      1270      1691      1692
 -1       430    8    0    1
 -2       145       146       300      1271      1693      1694
 -1       431    8    0    1
 -2       146       147       301      1272      1695      1696
 -1       432    8    0    1
 -2       147       148       302      1273      1697      1698
 -1       433    8    0    1
 -2       148       149       303      1274      1699      1700
 -1       434    8    0    1
 -2       149       150       304      1275      1701      1702
 -1       435    8    0    1
 -2       150       151       305      1276      1703      1704
 -1       436    8    0    1
 -2       151       152       306      1277      1705      1706
 -1       437    8    0    1
 -2       152       153       307      1278      1707      1708
 -1       438    8    0    1
 -2       153       154       308      1279      1709      1710
 -1       439    8    0    1
 -2       154       155       309      1280      1711      1712
 -1       440    8    0    1
 -2       155       156       310      1281      1713      1714
 -1       441    8    0    1
 -2       156       157       311      1282      1715      1716
 -1       442    8    0    1
 -2       157       158       312      1283      1717      1718
 -1       443    8    0    1
 -2       158       159       313      1284      1719      1720
 -1       444    8    0    1
 -2       159         1       314      1285      1721      1722
 -1       445    8    0    1
 -2         1       160       315      1286      1723      1724
 -1       446    8    0    1
 -2       160       161       316      1287      1725      1726
 -1       447    8    0    1
 -2       161       162       317      1288      1727      1728
 -1       448    8    0    1
 -2       162       163       318      1289      1729      1730
 -1       449    8    0    1
 -2       163         2       319      1290      1731      1732
 -1       450    8    0    1
 -2       294       140       295      1681      1684      1733
 -1       451    8    0    1
 -2       293       139       294      1679      1682      1734
 -1       452    8    0    1
 -2       120       121       275      1629      1735      1626
 -1       453    8    0    1
 -2       121       276       275      1631      1736      1735
 -1       454    8    0    1
 -2       291       137       292      1675      1678      1737
 -1       455    8    0    1
 -2       292       138       293      1677      1680      1738
 -1       456    8    0    1
 -2         2       291       319      1676      1739      1731
 -1       457    8    0    1
 -2       141       296       295      1686      1740      1683
 -1       458    8    0    1
 -2       142       297       296      1688      1741      1685
 -1       459    8    0    1
 -2       143       298       297      1690      1742      1687
 -1       460    8    0    1
 -2       144       299       298      1692      1743      1689
 -1       461    8    0    1
 -2       145       300       299      1694      1744      1691
 -1       462    8    0    1
 -2       146       301       300      1696      1745      1693
 -1       463    8    0    1
 -2       147       302       301      1698      1746      1695
 -1       464    8    0    1
 -2       148       303       302      1700      1747      1697
 -1       465    8    0    1
 -2       149       304       303      1702      1748      1699
 -1       466    8    0    1
 -2       150       305       304      1704      1749      1701
 -1       467    8    0    1
 -2       151       306       305      1706      1750      1703
 -1       468    8    0    1
 -2       152       307       306      1708      1751      1705
 -1       469    8    0    1
 -2       153       308       307      1710      1752      1707
 -1       470    8    0    1
 -2       154       309       308      1712      1753      1709
 -1       471    8    0    1
 -2       155       310       309      1714      1754      1711
 -1       472    8    0    1
 -2       156       311       310      1716      1755      1713
 -1       473    8    0    1
 -2       157       312       311      1718      1756      1715
 -1       474    8    0    1
 -2       158       313       312      1720      1757      1717
 -1       475    8    0    1
 -2       159       314       313      1722      1758      1719
 -1       476    8    0    1
 -2         1       315       314      1724      1759      1721
 -1       477    8    0    1
 -2       160       316       315      1726      1760      1723
 -1       478    8    0    1
 -2       161       317       316      1728      1761      1725
 -1       479    8    0    1
 -2       162       318       317      1730      1762      1727
 -1       480    8    0    1
 -2       163       319       318      1732      1763      1729
 -1       481    8    0    1
 -2        23         7       164      1291      1293      1764
 -1       482    8    0    1
 -2       165       166       320      1299      1765      1766
 -1       483    8    0    1
 -2       164       165       321      1296      1767      1768
 -1       484    8    0    1
 -2       165       320       321      1766      1769      1767
 -1       485    8    0    1
 -2       167       168       322      1305      1770      1771
 -1       486    8    0    1
 -2       168       169       323      1308      1772      1773
 -1       487    8    0    1
 -2       168       323       322      1773      1774      1770
 -1       488    8    0    1
 -2       169       170       324      1311      1775      1776
 -1       489    8    0    1
 -2       169       324       323      1776      1777      1772
 -1       490    8    0    1
 -2       170       171       325      1314      1778      1779
 -1       491    8    0    1
 -2       170       325       324      1779      1780      1775
 -1       492    8    0    1
 -2       171       172       326      1317      1781      1782
 -1       493    8    0    1
 -2       171       326       325      1782      1783      1778
 -1       494    8    0    1
 -2       172       173       327      1320      1784      1785
 -1       495    8    0    1
 -2       172       327       326      1785      1786      1781
 -1       496    8    0    1
 -2       173       174       328      1323      1787      1788
 -1       497    8    0    1
 -2       173       328       327      1788      1789      1784
 -1       498    8    0    1
 -2       174       175       329      1326      1790      1791
 -1       499    8    0    1
 -2       174       329       328      1791      1792      1787
 -1       500    8    0    1
 -2       175       176       330      1329      1793      1794
 -1       501    8    0    1
 -2       175       330       329      1794      1795      1790
 -1       502    8    0    1
 -2       176       177       331      1332      1796      1797
 -1       503    8    0    1
 -2       176       331       330      1797      1798      1793
 -1       504    8    0    1
 -2       177       178       332      1335      1799      1800
 -1       505    8    0    1
 -2       177       332       331      1800      1801      1796
 -1       506    8    0    1
 -2       178       179       333      1338      1802      1803
 -1       507    8    0    1
 -2       332       178       333      1799      1803      1804
 -1       508    8    0    1
 -2       179       228       333      1487      1805      1802
 -1       509    8    0    1
 -2       180        23       164      1340      1764      1806
 -1       510    8    0    1
 -2       228       229       334      1490      1807      1808
 -1       511    8    0    1
 -2       228       334       333      1808      1809      1805
 -1       512    8    0    1
 -2       180       164       321      1806      1768      1810
 -1       513    8    0    1
 -2       182       181       335      1347      1811      1812
 -1       514    8    0    1
 -2       183       182       336      1350      1813      1814
 -1       515    8    0    1
 -2       182       335       336      1812      1815      1813
 -1       516    8    0    1
 -2       184       183       337      1353      1816      1817
 -1       517    8    0    1
 -2       183       336       337      1814      1818      1816
 -1       518    8    0    1
 -2       185       184       338      1356      1819      1820
 -1       519    8    0    1
 -2       184       337       338      1817      1821      1819
 -1       520    8    0    1
 -2       186       185       339      1359      1822      1823
 -1       521    8    0    1
 -2       185       338       339      1820      1824      1822
 -1       522    8    0    1
 -2       187       186       340      1362      1825      1826
 -1       523    8    0    1
 -2       186       339       340      1823      1827      1825
 -1       524    8    0    1
 -2       188       187       341      1365      1828      1829
 -1       525    8    0    1
 -2       187       340       341      1826      1830      1828
 -1       526    8    0    1
 -2       189       188       342      1368      1831      1832
 -1       527    8    0    1
 -2       188       341       342      1829      1833      1831
 -1       528    8    0    1
 -2       190       189       343      1371      1834      1835
 -1       529    8    0    1
 -2       189       342       343      1832      1836      1834
 -1       530    8    0    1
 -2       191       190       344      1374      1837      1838
 -1       531    8    0    1
 -2       190       343       344      1835      1839      1837
 -1       532    8    0    1
 -2       192       191       345      1377      1840      1841
 -1       533    8    0    1
 -2       191       344       345      1838      1842      1840
 -1       534    8    0    1
 -2       193       192       346      1380      1843      1844
 -1       535    8    0    1
 -2       192       345       346      1841      1845      1843
 -1       536    8    0    1
 -2       194       193       347      1383      1846      1847
 -1       537    8    0    1
 -2       193       346       347      1844      1848      1846
 -1       538    8    0    1
 -2       195       194       348      1386      1849      1850
 -1       539    8    0    1
 -2       194       347       348      1847      1851      1849
 -1       540    8    0    1
 -2       196       195       349      1389      1852      1853
 -1       541    8    0    1
 -2       195       348       349      1850      1854      1852
 -1       542    8    0    1
 -2       197       196       350      1392      1855      1856
 -1       543    8    0    1
 -2       196       349       350      1853      1857      1855
 -1       544    8    0    1
 -2       198       197       351      1395      1858      1859
 -1       545    8    0    1
 -2       197       350       351      1856      1860      1858
 -1       546    8    0    1
 -2       199       198       352      1398      1861      1862
 -1       547    8    0    1
 -2       198       351       352      1859      1863      1861
 -1       548    8    0    1
 -2       200       199       353      1401      1864      1865
 -1       549    8    0    1
 -2       199       352       353      1862      1866      1864
 -1       550    8    0    1
 -2       201       200       354      1404      1867      1868
 -1       551    8    0    1
 -2       200       353       354      1865      1869      1867
 -1       552    8    0    1
 -2       202       201       355      1407      1870      1871
 -1       553    8    0    1
 -2       201       354       355      1868      1872      1870
 -1       554    8    0    1
 -2       203       202       356      1410      1873      1874
 -1       555    8    0    1
 -2       202       355       356      1871      1875      1873
 -1       556    8    0    1
 -2       204       203       357      1413      1876      1877
 -1       557    8    0    1
 -2       203       356       357      1874      1878      1876
 -1       558    8    0    1
 -2       205       204       358      1416      1879      1880
 -1       559    8    0    1
 -2       204       357       358      1877      1881      1879
 -1       560    8    0    1
 -2       206       205       359      1419      1882      1883
 -1       561    8    0    1
 -2       205       358       359      1880      1884      1882
 -1       562    8    0    1
 -2       207       206       360      1422      1885      1886
 -1       563    8    0    1
 -2       206       359       360      1883      1887      1885
 -1       564    8    0    1
 -2       208       207       361      1425      1888      1889
 -1       565    8    0    1
 -2       207       360       361      1886      1890      1888
 -1       566    8    0    1
 -2       209       208       362      1428      1891      1892
 -1       567    8    0    1
 -2       208       361       362      1889      1893      1891
 -1       568    8    0    1
 -2       210       209       363      1431      1894      1895
 -1       569    8    0    1
 -2       209       362       363      1892      1896      1894
 -1       570    8    0    1
 -2       211       210       364      1434      1897      1898
 -1       571    8    0    1
 -2       210       363       364      1895      1899      1897
 -1       572    8    0    1
 -2       212       211       365      1437      1900      1901
 -1       573    8    0    1
 -2       211       364       365      1898      1902      1900
 -1       574    8    0    1
 -2       213       212       366      1440      1903      1904
 -1       575    8    0    1
 -2       212       365       366      1901      1905      1903
 -1       576    8    0    1
 -2       214       213       367      1443      1906      1907
 -1       577    8    0    1
 -2       213       366       367      1904      1908      1906
 -1       578    8    0    1
 -2       215       214       368      1446      1909      1910
 -1       579    8    0    1
 -2       214       367       368      1907      1911      1909
 -1       580    8    0    1
 -2       216       215       369      1449      1912      1913
 -1       581    8    0    1
 -2       215       368       369      1910      1914      1912
 -1       582    8    0    1
 -2       217       216       370      1452      1915      1916
 -1       583    8    0    1
 -2       216       369       370      1913      1917      1915
 -1       584    8    0    1
 -2       218       217       371      1455      1918      1919
 -1       585    8    0    1
 -2       217       370       371      1916      1920      1918
 -1       586    8    0    1
 -2       219       218       372      1458      1921      1922
 -1       587    8    0    1
 -2       218       371       372      1919      1923      1921
 -1       588    8    0    1
 -2       220       219       373      1461      1924      1925
 -1       589    8    0    1
 -2       219       372       373      1922      1926      1924
 -1       590    8    0    1
 -2       221       220       374      1464      1927      1928
 -1       591    8    0    1
 -2       220       373       374      1925      1929      1927
 -1       592    8    0    1
 -2       222       221       375      1467      1930      1931
 -1       593    8    0    1
 -2       221       374       375      1928      1932      1930
 -1       594    8    0    1
 -2       223       222       376      1470      1933      1934
 -1       595    8    0    1
 -2       222       375       376      1931      1935      1933
 -1       596    8    0    1
 -2       224       223       377      1473      1936      1937
 -1       597    8    0    1
 -2       223       376       377      1934      1938      1936
 -1       598    8    0    1
 -2       225       224       378      1476      1939      1940
 -1       599    8    0    1
 -2       224       377       378      1937      1941      1939
 -1       600    8    0    1
 -2       226       225       379      1479      1942      1943
 -1       601    8    0    1
 -2       225       378       379      1940      1944      1942
 -1       602    8    0    1
 -2       227       226       380      1482      1945      1946
 -1       603    8    0    1
 -2       290       227       380      1674      1946      1947
 -1       604    8    0    1
 -2       226       379       380      1943      1948      1945
 -1       605    8    0    1
 -2       229       230       381      1493      1949      1950
 -1       606    8    0    1
 -2       229       381       334      1950      1951      1807
 -1       607    8    0    1
 -2       230       231       382      1496      1952      1953
 -1       608    8    0    1
 -2       230       382       381      1953      1954      1949
 -1       609    8    0    1
 -2       231       232       383      1499      1955      1956
 -1       610    8    0    1
 -2       231       383       382      1956      1957      1952
 -1       611    8    0    1
 -2       232       233       384      1502      1958      1959
 -1       612    8    0    1
 -2       232       384       383      1959      1960      1955
 -1       613    8    0    1
 -2       233       234       385      1505      1961      1962
 -1       614    8    0    1
 -2       233       385       384      1962      1963      1958
 -1       615    8    0    1
 -2       234       235       386      1508      1964      1965
 -1       616    8    0    1
 -2       234       386       385      1965      1966      1961
 -1       617    8    0    1
 -2       235       236       387      1511      1967      1968
 -1       618    8    0    1
 -2       235       387       386      1968      1969      1964
 -1       619    8    0    1
 -2       236       237       388      1514      1970      1971
 -1       620    8    0    1
 -2       236       388       387      1971      1972      1967
 -1       621    8    0    1
 -2       237       238       389      1517      1973      1974
 -1       622    8    0    1
 -2       237       389       388      1974      1975      1970
 -1       623    8    0    1
 -2       238       239       390      1520      1976      1977
 -1       624    8    0    1
 -2       238       390       389      1977      1978      1973
 -1       625    8    0    1
 -2       239       240       391      1523      1979      1980
 -1       626    8    0    1
 -2       239       391       390      1980      1981      1976
 -1       627    8    0    1
 -2       240       241       392      1526      1982      1983
 -1       628    8    0    1
 -2       240       392       391      1983      1984      1979
 -1       629    8    0    1
 -2       241       242       393      1529      1985      1986
 -1       630    8    0    1
 -2       241       393       392      1986      1987      1982
 -1       631    8    0    1
 -2       242       243       394      1532      1988      1989
 -1       632    8    0    1
 -2       242       394       393      1989      1990      1985
 -1       633    8    0    1
 -2       243       244       395      1535      1991      1992
 -1       634    8    0    1
 -2       243       395       394      1992      1993      1988
 -1       635    8    0    1
 -2       244       245       396      1538      1994      1995
 -1       636    8    0    1
 -2       244       396       395      1995      1996      1991
 -1       637    8    0    1
 -2       245       246       397      1541      1997      1998
 -1       638    8    0    1
 -2       245       397       396      1998      1999      1994
 -1       639    8    0    1
 -2       246       247       398      1544      2000      2001
 -1       640    8    0    1
 -2       246       398       397      2001      2002      1997
 -1       641    8    0    1
 -2       247       248       399      1547      2003      2004
 -1       642    8    0    1
 -2       247       399       398      2004      2005      2000
 -1       643    8    0    1
 -2       248       249       400      1550      2006      2007
 -1       644    8    0    1
 -2       248       400       399      2007      2008      2003
 -1       645    8    0    1
 -2       249       250       401      1553      2009      2010
 -1       646    8    0    1
 -2       249       401       400      2010      2011      2006
 -1       647    8    0    1
 -2       250       251       402      1556      2012      2013
 -1       648    8    0    1
 -2       250       402       401      2013      2014      2009
 -1       649    8    0    1
 -2       251       252       403      1559      2015      2016
 -1       650    8    0    1
 -2       251       403       402      2016      2017      2012
 -1       651    8    0    1
 -2       252       253       404      1562      2018      2019
 -1       652    8    0    1
 -2       252       404       403      2019      2020      2015
 -1       653    8    0    1
 -2       253       254       405      1565      2021      2022
 -1       654    8    0    1
 -2       253       405       404      2022      2023      2018
 -1       655    8    0    1
 -2       254       255       406      1568      2024      2025
 -1       656    8    0    1
 -2       254       406       405      2025      2026      2021
 -1       657    8    0    1
 -2       255       256       407      1571      2027      2028
 -1       658    8    0    1
 -2       255       407       406      2028      2029      2024
 -1       659    8    0    1
 -2       256       257       408      1574      2030      2031
 -1       660    8    0    1
 -2       256       408       407      2031      2032      2027
 -1       661    8    0    1
 -2       257       258       409      1577      2033      2034
 -1       662    8    0    1
 -2       257       409       408      2034      2035      2030
 -1       663    8    0    1
 -2       258       259       410      1580      2036      2037
 -1       664    8    0    1
 -2       258       410       409      2037      2038      2033
 -1       665    8    0    1
 -2       259       260       411      1583      2039      2040
 -1       666    8    0    1
 -2       259       411       410      2040      2041      2036
 -1       667    8    0    1
 -2       260       261       412      1586      2042      2043
 -1       668    8    0    1
 -2       260       412       411      2043      2044      2039
 -1       669    8    0    1
 -2       261       262       413      1589      2045      2046
 -1       670    8    0    1
 -2       261       413       412      2046      2047      2042
 -1       671    8    0    1
 -2       262       263       414      1592      2048      2049
 -1       672    8    0    1
 -2       262       414       413      2049      2050      2045
 -1       673    8    0    1
 -2       263       264       415      1595      2051      2052
 -1       674    8    0    1
 -2       263       415       414      2052      2053      2048
 -1       675    8    0    1
 -2       264       265       416      1598      2054      2055
 -1       676    8    0    1
 -2       264       416       415      2055      2056      2051
 -1       677    8    0    1
 -2       265       266       417      1601      2057      2058
 -1       678    8    0    1
 -2       265       417       416      2058      2059      2054
 -1       679    8    0    1
 -2       266       267       418      1604      2060      2061
 -1       680    8    0    1
 -2       266       418       417      2061      2062      2057
 -1       681    8    0    1
 -2       267       268       419      1607      2063      2064
 -1       682    8    0    1
 -2       267       419       418      2064      2065      2060
 -1       683    8    0    1
 -2       268       269       420      1610      2066      2067
 -1       684    8    0    1
 -2       268       420       419      2067      2068      2063
 -1       685    8    0    1
 -2       269       270       421      1613      2069      2070
 -1       686    8    0    1
 -2       269       421       420      2070      2071      2066
 -1       687    8    0    1
 -2       270       271       422      1616      2072      2073
 -1       688    8    0    1
 -2       270       422       421      2073      2074      2069
 -1       689    8    0    1
 -2       271       272       423      1619      2075      2076
 -1       690    8    0    1
 -2       271       423       422      2076      2077      2072
 -1       691    8    0    1
 -2       272       273       424      1622      2078      2079
 -1       692    8    0    1
 -2       272       424       423      2079      2080      2075
 -1       693    8    0    1
 -2       273       274       425      1625      2081      2082
 -1       694    8    0    1
 -2       273       425       424      2082      2083      2078
 -1       695    8    0    1
 -2       274       275       426      1628      2084      2085
 -1       696    8    0    1
 -2       425       274       426      2081      2085      2086
 -1       697    8    0    1
 -2       275       276       426      1736      2087      2084
 -1       698    8    0    1
 -2       278       279       427      1640      2088      2089
 -1       699    8    0    1
 -2       277       278       428      1637      2090      2091
 -1       700    8    0    1
 -2       278       427       428      2089      2092      2090
 -1       701    8    0    1
 -2       276       277       429      1634      2093      2094
 -1       702    8    0    1
 -2       426       276       429      2087      2094      2095
 -1       703    8    0    1
 -2       277       428       429      2091      2096      2093
 -1       704    8    0    1
 -2       279       280       430      1643      2097      2098
 -1       705    8    0    1
 -2       279       430       427      2098      2099      2088
 -1       706    8    0    1
 -2       280       281       431      1646      2100      2101
 -1       707    8    0    1
 -2       280       431       430      2101      2102      2097
 -1       708    8    0    1
 -2       281       282       432      1649      2103      2104
 -1       709    8    0    1
 -2       281       432       431      2104      2105      2100
 -1       710    8    0    1
 -2       282       283       433      1652      2106      2107
 -1       711    8    0    1
 -2       282       433       432      2107      2108      2103
 -1       712    8    0    1
 -2       283       284       434      1655      2109      2110
 -1       713    8    0    1
 -2       283       434       433      2110      2111      2106
 -1       714    8    0    1
 -2       284       285       435      1658      2112      2113
 -1       715    8    0    1
 -2       284       435       434      2113      2114      2109
 -1       716    8    0    1
 -2       285       286       436      1661      2115      2116
 -1       717    8    0    1
 -2       285       436       435      2116      2117      2112
 -1       718    8    0    1
 -2       286       287       437      1664      2118      2119
 -1       719    8    0    1
 -2       286       437       436      2119      2120      2115
 -1       720    8    0    1
 -2       287       288       438      1667      2121      2122
 -1       721    8    0    1
 -2       287       438       437      2122      2123      2118
 -1       722    8    0    1
 -2       288       289       439      1670      2124      2125
 -1       723    8    0    1
 -2       288       439       438      2125      2126      2121
 -1       724    8    0    1
 -2       292       293       440      1738      2127      2128
 -1       725    8    0    1
 -2       319       291       441      1739      2129      2130
 -1       726    8    0    1
 -2       291       292       442      1737      2131      2132
 -1       727    8    0    1
 -2       291       442       441      2132      2133      2129
 -1       728    8    0    1
 -2       293       294       443      1734      2134      2135
 -1       729    8    0    1
 -2       294       295       444      1733      2136      2137
 -1       730    8    0    1
 -2       166       167       445      1302      2138      2139
 -1       731    8    0    1
 -2       320       166       445      1765      2139      2140
 -1       732    8    0    1
 -2       167       322       445      1771      2141      2138
 -1       733    8    0    1
 -2       296       297       446      1741      2142      2143
 -1       734    8    0    1
 -2       297       298       447      1742      2144      2145
 -1       735    8    0    1
 -2       298       299       448      1743      2146      2147
 -1       736    8    0    1
 -2       298       448       447      2147      2148      2144
 -1       737    8    0    1
 -2       299       300       449      1744      2149      2150
 -1       738    8    0    1
 -2       300       301       450      1745      2151      2152
 -1       739    8    0    1
 -2       301       302       451      1746      2153      2154
 -1       740    8    0    1
 -2       302       303       452      1747      2155      2156
 -1       741    8    0    1
 -2       303       304       453      1748      2157      2158
 -1       742    8    0    1
 -2       304       305       454      1749      2159      2160
 -1       743    8    0    1
 -2       304       454       453      2160      2161      2157
 -1       744    8    0    1
 -2       305       306       455      1750      2162      2163
 -1       745    8    0    1
 -2       306       307       456      1751      2164      2165
 -1       746    8    0    1
 -2       306       456       455      2165      2166      2162
 -1       747    8    0    1
 -2       307       308       457      1752      2167      2168
 -1       748    8    0    1
 -2       308       309       458      1753      2169      2170
 -1       749    8    0    1
 -2       308       458       457      2170      2171      2167
 -1       750    8    0    1
 -2       309       310       459      1754      2172      2173
 -1       751    8    0    1
 -2       310       311       460      1755      2174      2175
 -1       752    8    0    1
 -2       310       460       459      2175      2176      2172
 -1       753    8    0    1
 -2       311       312       461      1756      2177      2178
 -1       754    8    0    1
 -2       312       313       462      1757      2179      2180
 -1       755    8    0    1
 -2       313       314       463      1758      2181      2182
 -1       756    8    0    1
 -2       313       463       462      2182      2183      2179
 -1       757    8    0    1
 -2       314       315       464      1759      2184      2185
 -1       758    8    0    1
 -2       315       316       465      1760      2186      2187
 -1       759    8    0    1
 -2       315       465       464      2187      2188      2184
 -1       760    8    0    1
 -2       316       317       466      1761      2189      2190
 -1       761    8    0    1
 -2       317       318       467      1762      2191      2192
 -1       762    8    0    1
 -2       318       319       468      1763      2193      2194
 -1       763    8    0    1
 -2       295       296       469      1740      2195      2196
 -1       764    8    0    1
 -2       444       295       469      2136      2196      2197
 -1       765    8    0    1
 -2       180       321       181      1810      2198      1344
 -1       766    8    0    1
 -2       296       446       469      2143      2199      2195
 -1       767    8    0    1
 -2       335       181       321      1811      2198      2200
 -1       768    8    0    1
 -2       442       292       470      2131      2201      2202
 -1       769    8    0    1
 -2       292       440       470      2128      2203      2201
 -1       770    8    0    1
 -2       293       443       440      2135      2204      2127
 -1       771    8    0    1
 -2       439       289       290      2124      1673      2205
 -1       772    8    0    1
 -2       319       441       468      2130      2206      2193
 -1       773    8    0    1
 -2       443       294       444      2134      2137      2207
 -1       774    8    0    1
 -2       467       318       468      2191      2194      2208
 -1       775    8    0    1
 -2       465       316       466      2186      2190      2209
 -1       776    8    0    1
 -2       463       314       464      2181      2185      2210
 -1       777    8    0    1
 -2       460       311       461      2174      2178      2211
 -1       778    8    0    1
 -2       458       309       459      2169      2173      2212
 -1       779    8    0    1
 -2       456       307       457      2164      2168      2213
 -1       780    8    0    1
 -2       454       305       455      2159      2163      2214
 -1       781    8    0    1
 -2       452       303       453      2155      2158      2215
 -1       782    8    0    1
 -2       451       302       452      2153      2156      2216
 -1       783    8    0    1
 -2       450       301       451      2151      2154      2217
 -1       784    8    0    1
 -2       448       299       449      2146      2150      2218
 -1       785    8    0    1
 -2       446       297       471      2142      2219      2220
 -1       786    8    0    1
 -2       297       447       471      2145      2221      2219
 -1       787    8    0    1
 -2       449       300       450      2149      2152      2222
 -1       788    8    0    1
 -2       461       312       472      2177      2223      2224
 -1       789    8    0    1
 -2       312       462       472      2180      2225      2223
 -1       790    8    0    1
 -2       466       317       467      2189      2192      2226
 -1       791    8    0    1
 -2       334       381       473      1951      2227      2228
 -1       792    8    0    1
 -2       323       324       474      1777      2229      2230
 -1       793    8    0    1
 -2       322       323       475      1774      2231      2232
 -1       794    8    0    1
 -2       323       474       475      2230      2233      2231
 -1       795    8    0    1
 -2       325       326       476      1783      2234      2235
 -1       796    8    0    1
 -2       326       327       477      1786      2236      2237
 -1       797    8    0    1
 -2       326       477       476      2237      2238      2234
 -1       798    8    0    1
 -2       327       328       478      1789      2239      2240
 -1       799    8    0    1
 -2       327       478       477      2240      2241      2236
 -1       800    8    0    1
 -2       328       329       479      1792      2242      2243
 -1       801    8    0    1
 -2       328       479       478      2243      2244      2239
 -1       802    8    0    1
 -2       329       330       480      1795      2245      2246
 -1       803    8    0    1
 -2       329       480       479      2246      2247      2242
 -1       804    8    0    1
 -2       330       331       481      1798      2248      2249
 -1       805    8    0    1
 -2       330       481       480      2249      2250      2245
 -1       806    8    0    1
 -2       381       382       482      1954      2251      2252
 -1       807    8    0    1
 -2       381       482       473      2252      2253      2227
 -1       808    8    0    1
 -2       336       335       483      1815      2254      2255
 -1       809    8    0    1
 -2       469       446       484      2199      2256      2257
 -1       810    8    0    1
 -2       337       336       485      1818      2258      2259
 -1       811    8    0    1
 -2       336       483       485      2255      2260      2258
 -1       812    8    0    1
 -2       338       337       486      1821      2261      2262
 -1       813    8    0    1
 -2       337       485       486      2259      2263      2261
 -1       814    8    0    1
 -2       339       338       487      1824      2264      2265
 -1       815    8    0    1
 -2       338       486       487      2262      2266      2264
 -1       816    8    0    1
 -2       340       339       488      1827      2267      2268
 -1       817    8    0    1
 -2       339       487       488      2265      2269      2267
 -1       818    8    0    1
 -2       341       340       489      1830      2270      2271
 -1       819    8    0    1
 -2       340       488       489      2268      2272      2270
 -1       820    8    0    1
 -2       342       341       490      1833      2273      2274
 -1       821    8    0    1
 -2       341       489       490      2271      2275      2273
 -1       822    8    0    1
 -2       343       342       491      1836      2276      2277
 -1       823    8    0    1
 -2       342       490       491      2274      2278      2276
 -1       824    8    0    1
 -2       344       343       492      1839      2279      2280
 -1       825    8    0    1
 -2       343       491       492      2277      2281      2279
 -1       826    8    0    1
 -2       345       344       493      1842      2282      2283
 -1       827    8    0    1
 -2       344       492       493      2280      2284      2282
 -1       828    8    0    1
 -2       346       345       494      1845      2285      2286
 -1       829    8    0    1
 -2       345       493       494      2283      2287      2285
 -1       830    8    0    1
 -2       347       346       495      1848      2288      2289
 -1       831    8    0    1
 -2       346       494       495      2286      2290      2288
 -1       832    8    0    1
 -2       348       347       496      1851      2291      2292
 -1       833    8    0    1
 -2       347       495       496      2289      2293      2291
 -1       834    8    0    1
 -2       349       348       497      1854      2294      2295
 -1       835    8    0    1
 -2       348       496       497      2292      2296      2294
 -1       836    8    0    1
 -2       350       349       498      1857      2297      2298
 -1       837    8    0    1
 -2       349       497       498      2295      2299      2297
 -1       838    8    0    1
 -2       351       350       499      1860      2300      2301
 -1       839    8    0    1
 -2       350       498       499      2298      2302      2300
 -1       840    8    0    1
 -2       352       351       500      1863      2303      2304
 -1       841    8    0    1
 -2       351       499       500      2301      2305      2303
 -1       842    8    0    1
 -2       353       352       501      1866      2306      2307
 -1       843    8    0    1
 -2       352       500       501      2304      2308      2306
 -1       844    8    0    1
 -2       354       353       502      1869      2309      2310
 -1       845    8    0    1
 -2       353       501       502      2307      2311      2309
 -1       846    8    0    1
 -2       355       354       503      1872      2312      2313
 -1       847    8    0    1
 -2       354       502       503      2310      2314      2312
 -1       848    8    0    1
 -2       356       355       504      1875      2315      2316
 -1       849    8    0    1
 -2       355       503       504      2313      2317      2315
 -1       850    8    0    1
 -2       357       356       505      1878      2318      2319
 -1       851    8    0    1
 -2       356       504       505      2316      2320      2318
 -1       852    8    0    1
 -2       358       357       506      1881      2321      2322
 -1       853    8    0    1
 -2       357       505       506      2319      2323      2321
 -1       854    8    0    1
 -2       359       358       507      1884      2324      2325
 -1       855    8    0    1
 -2       358       506       507      2322      2326      2324
 -1       856    8    0    1
 -2       360       359       508      1887      2327      2328
 -1       857    8    0    1
 -2       359       507       508      2325      2329      2327
 -1       858    8    0    1
 -2       361       360       509      1890      2330      2331
 -1       859    8    0    1
 -2       360       508       509      2328      2332      2330
 -1       860    8    0    1
 -2       362       361       510      1893      2333      2334
 -1       861    8    0    1
 -2       361       509       510      2331      2335      2333
 -1       862    8    0    1
 -2       363       362       511      1896      2336      2337
 -1       863    8    0    1
 -2       362       510       511      2334      2338      2336
 -1       864    8    0    1
 -2       364       363       512      1899      2339      2340
 -1       865    8    0    1
 -2       363       511       512      2337      2341      2339
 -1       866    8    0    1
 -2       365       364       513      1902      2342      2343
 -1       867    8    0    1
 -2       364       512       513      2340      2344      2342
 -1       868    8    0    1
 -2       366       365       514      1905      2345      2346
 -1       869    8    0    1
 -2       365       513       514      2343      2347      2345
 -1       870    8    0    1
 -2       367       366       515      1908      2348      2349
 -1       871    8    0    1
 -2       366       514       515      2346      2350      2348
 -1       872    8    0    1
 -2       368       367       516      1911      2351      2352
 -1       873    8    0    1
 -2       367       515       516      2349      2353      2351
 -1       874    8    0    1
 -2       369       368       517      1914      2354      2355
 -1       875    8    0    1
 -2       368       516       517      2352      2356      2354
 -1       876    8    0    1
 -2       370       369       518      1917      2357      2358
 -1       877    8    0    1
 -2       369       517       518      2355      2359      2357
 -1       878    8    0    1
 -2       371       370       519      1920      2360      2361
 -1       879    8    0    1
 -2       370       518       519      2358      2362      2360
 -1       880    8    0    1
 -2       372       371       520      1923      2363      2364
 -1       881    8    0    1
 -2       371       519       520      2361      2365      2363
 -1       882    8    0    1
 -2       373       372       521      1926      2366      2367
 -1       883    8    0    1
 -2       372       520       521      2364      2368      2366
 -1       884    8    0    1
 -2       374       373       522      1929      2369      2370
 -1       885    8    0    1
 -2       373       521       522      2367      2371      2369
 -1       886    8    0    1
 -2       375       374       523      1932      2372      2373
 -1       887    8    0    1
 -2       374       522       523      2370      2374      2372
 -1       888    8    0    1
 -2       376       375       524      1935      2375      2376
 -1       889    8    0    1
 -2       375       523       524      2373      2377      2375
 -1       890    8    0    1
 -2       377       376       525      1938      2378      2379
 -1       891    8    0    1
 -2       376       524       525      2376      2380      2378
 -1       892    8    0    1
 -2       378       377       526      1941      2381      2382
 -1       893    8    0    1
 -2       377       525       526      2379      2383      2381
 -1       894    8    0    1
 -2       379       378       527      1944      2384      2385
 -1       895    8    0    1
 -2       378       526       527      2382      2386      2384
 -1       896    8    0    1
 -2       383       384       528      1960      2387      2388
 -1       897    8    0    1
 -2       384       385       529      1963      2389      2390
 -1       898    8    0    1
 -2       384       529       528      2390      2391      2387
 -1       899    8    0    1
 -2       385       386       530      1966      2392      2393
 -1       900    8    0    1
 -2       385       530       529      2393      2394      2389
 -1       901    8    0    1
 -2       386       387       531      1969      2395      2396
 -1       902    8    0    1
 -2       386       531       530      2396      2397      2392
 -1       903    8    0    1
 -2       387       388       532      1972      2398      2399
 -1       904    8    0    1
 -2       387       532       531      2399      2400      2395
 -1       905    8    0    1
 -2       388       389       533      1975      2401      2402
 -1       906    8    0    1
 -2       388       533       532      2402      2403      2398
 -1       907    8    0    1
 -2       389       390       534      1978      2404      2405
 -1       908    8    0    1
 -2       389       534       533      2405      2406      2401
 -1       909    8    0    1
 -2       390       391       535      1981      2407      2408
 -1       910    8    0    1
 -2       390       535       534      2408      2409      2404
 -1       911    8    0    1
 -2       391       392       536      1984      2410      2411
 -1       912    8    0    1
 -2       391       536       535      2411      2412      2407
 -1       913    8    0    1
 -2       392       393       537      1987      2413      2414
 -1       914    8    0    1
 -2       392       537       536      2414      2415      2410
 -1       915    8    0    1
 -2       393       394       538      1990      2416      2417
 -1       916    8    0    1
 -2       393       538       537      2417      2418      2413
 -1       917    8    0    1
 -2       394       395       539      1993      2419      2420
 -1       918    8    0    1
 -2       394       539       538      2420      2421      2416
 -1       919    8    0    1
 -2       395       396       540      1996      2422      2423
 -1       920    8    0    1
 -2       395       540       539      2423      2424      2419
 -1       921    8    0    1
 -2       396       397       541      1999      2425      2426
 -1       922    8    0    1
 -2       396       541       540      2426      2427      2422
 -1       923    8    0    1
 -2       397       398       542      2002      2428      2429
 -1       924    8    0    1
 -2       397       542       541      2429      2430      2425
 -1       925    8    0    1
 -2       398       399       543      2005      2431      2432
 -1       926    8    0    1
 -2       398       543       542      2432      2433      2428
 -1       927    8    0    1
 -2       399       400       544      2008      2434      2435
 -1       928    8    0    1
 -2       399       544       543      2435      2436      2431
 -1       929    8    0    1
 -2       400       401       545      2011      2437      2438
 -1       930    8    0    1
 -2       400       545       544      2438      2439      2434
 -1       931    8    0    1
 -2       401       402       546      2014      2440      2441
 -1       932    8    0    1
 -2       401       546       545      2441      2442      2437
 -1       933    8    0    1
 -2       402       403       547      2017      2443      2444
 -1       934    8    0    1
 -2       402       547       546      2444      2445      2440
 -1       935    8    0    1
 -2       403       404       548      2020      2446      2447
 -1       936    8    0    1
 -2       403       548       547      2447      2448      2443
 -1       937    8    0    1
 -2       404       405       549      2023      2449      2450
 -1       938    8    0    1
 -2       404       549       548      2450      2451      2446
 -1       939    8    0    1
 -2       405       406       550      2026      2452      2453
 -1       940    8    0    1
 -2       405       550       549      2453      2454      2449
 -1       941    8    0    1
 -2       406       407       551      2029      2455      2456
 -1       942    8    0    1
 -2       406       551       550      2456      2457      2452
 -1       943    8    0    1
 -2       407       408       552      2032      2458      2459
 -1       944    8    0    1
 -2       407       552       551      2459      2460      2455
 -1       945    8    0    1
 -2       408       409       553      2035      2461      2462
 -1       946    8    0    1
 -2       408       553       552      2462      2463      2458
 -1       947    8    0    1
 -2       409       410       554      2038      2464      2465
 -1       948    8    0    1
 -2       409       554       553      2465      2466      2461
 -1       949    8    0    1
 -2       410       411       555      2041      2467      2468
 -1       950    8    0    1
 -2       410       555       554      2468      2469      2464
 -1       951    8    0    1
 -2       411       412       556      2044      2470      2471
 -1       952    8    0    1
 -2       411       556       555      2471      2472      2467
 -1       953    8    0    1
 -2       412       413       557      2047      2473      2474
 -1       954    8    0    1
 -2       412       557       556      2474      2475      2470
 -1       955    8    0    1
 -2       413       414       558      2050      2476      2477
 -1       956    8    0    1
 -2       413       558       557      2477      2478      2473
 -1       957    8    0    1
 -2       414       415       559      2053      2479      2480
 -1       958    8    0    1
 -2       414       559       558      2480      2481      2476
 -1       959    8    0    1
 -2       415       416       560      2056      2482      2483
 -1       960    8    0    1
 -2       415       560       559      2483      2484      2479
 -1       961    8    0    1
 -2       416       417       561      2059      2485      2486
 -1       962    8    0    1
 -2       416       561       560      2486      2487      2482
 -1       963    8    0    1
 -2       417       418       562      2062      2488      2489
 -1       964    8    0    1
 -2       417       562       561      2489      2490      2485
 -1       965    8    0    1
 -2       418       419       563      2065      2491      2492
 -1       966    8    0    1
 -2       418       563       562      2492      2493      2488
 -1       967    8    0    1
 -2       419       420       564      2068      2494      2495
 -1       968    8    0    1
 -2       419       564       563      2495      2496      2491
 -1       969    8    0    1
 -2       420       421       565      2071      2497      2498
 -1       970    8    0    1
 -2       420       565       564      2498      2499      2494
 -1       971    8    0    1
 -2       421       422       566      2074      2500      2501
 -1       972    8    0    1
 -2       421       566       565      2501      2502      2497
 -1       973    8    0    1
 -2       422       423       567      2077      2503      2504
 -1       974    8    0    1
 -2       422       567       566      2504      2505      2500
 -1       975    8    0    1
 -2       423       424       568      2080      2506      2507
 -1       976    8    0    1
 -2       423       568       567      2507      2508      2503
 -1       977    8    0    1
 -2       424       425       569      2083      2509      2510
 -1       978    8    0    1
 -2       424       569       568      2510      2511      2506
 -1       979    8    0    1
 -2       425       426       429      2086      2095      2512
 -1       980    8    0    1
 -2       430       431       570      2102      2513      2514
 -1       981    8    0    1
 -2       431       432       571      2105      2515      2516
 -1       982    8    0    1
 -2       431       571       570      2516      2517      2513
 -1       983    8    0    1
 -2       428       427       572      2092      2518      2519
 -1       984    8    0    1
 -2       427       430       573      2099      2520      2521
 -1       985    8    0    1
 -2       572       427       573      2518      2521      2522
 -1       986    8    0    1
 -2       430       570       573      2514      2523      2520
 -1       987    8    0    1
 -2       432       433       574      2108      2524      2525
 -1       988    8    0    1
 -2       432       574       571      2525      2526      2515
 -1       989    8    0    1
 -2       433       434       575      2111      2527      2528
 -1       990    8    0    1
 -2       433       575       574      2528      2529      2524
 -1       991    8    0    1
 -2       434       435       576      2114      2530      2531
 -1       992    8    0    1
 -2       434       576       575      2531      2532      2527
 -1       993    8    0    1
 -2       435       436       577      2117      2533      2534
 -1       994    8    0    1
 -2       435       577       576      2534      2535      2530
 -1       995    8    0    1
 -2       436       437       578      2120      2536      2537
 -1       996    8    0    1
 -2       436       578       577      2537      2538      2533
 -1       997    8    0    1
 -2       437       438       579      2123      2539      2540
 -1       998    8    0    1
 -2       437       579       578      2540      2541      2536
 -1       999    8    0    1
 -2       438       439       580      2126      2542      2543
 -1      1000    8    0    1
 -2       438       580       579      2543      2544      2539
 -1      1001    8    0    1
 -2       440       443       581      2204      2545      2546
 -1      1002    8    0    1
 -2       439       290       380      2205      1947      2547
 -1      1003    8    0    1
 -2       468       441       582      2206      2548      2549
 -1      1004    8    0    1
 -2       382       383       583      1957      2550      2551
 -1      1005    8    0    1
 -2       383       528       583      2388      2552      2550
 -1      1006    8    0    1
 -2       441       442       584      2133      2553      2554
 -1      1007    8    0    1
 -2       467       468       585      2208      2555      2556
 -1      1008    8    0    1
 -2       335       321       586      2200      2557      2558
 -1      1009    8    0    1
 -2       483       335       586      2254      2558      2559
 -1      1010    8    0    1
 -2       321       320       586      1769      2560      2557
 -1      1011    8    0    1
 -2       443       444       587      2207      2561      2562
 -1      1012    8    0    1
 -2       460       461       588      2211      2563      2564
 -1      1013    8    0    1
 -2       452       453       589      2215      2565      2566
 -1      1014    8    0    1
 -2       324       325       590      1780      2567      2568
 -1      1015    8    0    1
 -2       474       324       590      2229      2568      2569
 -1      1016    8    0    1
 -2       325       476       590      2235      2570      2567
 -1      1017    8    0    1
 -2       449       450       591      2222      2571      2572
 -1      1018    8    0    1
 -2       447       448       592      2148      2573      2574
 -1      1019    8    0    1
 -2       448       449       593      2218      2575      2576
 -1      1020    8    0    1
 -2       448       593       592      2576      2577      2573
 -1      1021    8    0    1
 -2       450       451       594      2217      2578      2579
 -1      1022    8    0    1
 -2       451       452       595      2216      2580      2581
 -1      1023    8    0    1
 -2       453       454       596      2161      2582      2583
 -1      1024    8    0    1
 -2       454       455       597      2214      2584      2585
 -1      1025    8    0    1
 -2       455       456       598      2166      2586      2587
 -1      1026    8    0    1
 -2       456       457       599      2213      2588      2589
 -1      1027    8    0    1
 -2       457       458       600      2171      2590      2591
 -1      1028    8    0    1
 -2       458       459       601      2212      2592      2593
 -1      1029    8    0    1
 -2       459       460       602      2176      2594      2595
 -1      1030    8    0    1
 -2       466       467       603      2226      2596      2597
 -1      1031    8    0    1
 -2       467       585       603      2556      2598      2596
 -1      1032    8    0    1
 -2       462       463       604      2183      2599      2600
 -1      1033    8    0    1
 -2       463       464       605      2210      2601      2602
 -1      1034    8    0    1
 -2       464       465       606      2188      2603      2604
 -1      1035    8    0    1
 -2       465       466       607      2209      2605      2606
 -1      1036    8    0    1
 -2       465       607       606      2606      2607      2603
 -1      1037    8    0    1
 -2       333       334       608      1809      2608      2609
 -1      1038    8    0    1
 -2       332       333       608      1804      2609      2610
 -1      1039    8    0    1
 -2       334       473       608      2228      2611      2608
 -1      1040    8    0    1
 -2       444       469       609      2197      2612      2613
 -1      1041    8    0    1
 -2       469       484       609      2257      2614      2612
 -1      1042    8    0    1
 -2       449       591       593      2572      2615      2575
 -1      1043    8    0    1
 -2       322       475       610      2232      2616      2617
 -1      1044    8    0    1
 -2       322       610       445      2617      2618      2141
 -1      1045    8    0    1
 -2       482       382       583      2251      2551      2619
 -1      1046    8    0    1
 -2       331       332       608      1801      2610      2620
 -1      1047    8    0    1
 -2       602       460       588      2594      2564      2621
 -1      1048    8    0    1
 -2       601       459       602      2592      2595      2622
 -1      1049    8    0    1
 -2       587       444       609      2561      2613      2623
 -1      1050    8    0    1
 -2       600       458       601      2590      2593      2624
 -1      1051    8    0    1
 -2       470       440       611      2203      2625      2626
 -1      1052    8    0    1
 -2       440       581       611      2546      2627      2625
 -1      1053    8    0    1
 -2       468       582       585      2549      2628      2555
 -1      1054    8    0    1
 -2       599       457       600      2588      2591      2629
 -1      1055    8    0    1
 -2       425       429       569      2512      2630      2509
 -1      1056    8    0    1
 -2       429       428       569      2096      2631      2630
 -1      1057    8    0    1
 -2       598       456       599      2586      2589      2632
 -1      1058    8    0    1
 -2       581       443       587      2545      2562      2633
 -1      1059    8    0    1
 -2       439       380       612      2547      2634      2635
 -1      1060    8    0    1
 -2       580       439       612      2542      2635      2636
 -1      1061    8    0    1
 -2       380       379       612      1948      2637      2634
 -1      1062    8    0    1
 -2       597       455       598      2584      2587      2638
 -1      1063    8    0    1
 -2       582       441       584      2548      2554      2639
 -1      1064    8    0    1
 -2       331       608       481      2620      2640      2248
 -1      1065    8    0    1
 -2       584       442       613      2553      2641      2642
 -1      1066    8    0    1
 -2       442       470       613      2202      2643      2641
 -1      1067    8    0    1
 -2       596       454       597      2582      2585      2644
 -1      1068    8    0    1
 -2       462       604       614      2600      2645      2646
 -1      1069    8    0    1
 -2       462       614       472      2646      2647      2225
 -1      1070    8    0    1
 -2       595       452       615      2580      2648      2649
 -1      1071    8    0    1
 -2       452       589       615      2566      2650      2648
 -1      1072    8    0    1
 -2       607       466       616      2605      2651      2652
 -1      1073    8    0    1
 -2       466       603       616      2597      2653      2651
 -1      1074    8    0    1
 -2       605       464       606      2601      2604      2654
 -1      1075    8    0    1
 -2       588       461       617      2563      2655      2656
 -1      1076    8    0    1
 -2       461       472       617      2224      2657      2655
 -1      1077    8    0    1
 -2       589       453       596      2565      2583      2658
 -1      1078    8    0    1
 -2       586       320       445      2560      2140      2659
 -1      1079    8    0    1
 -2       484       446       618      2256      2660      2661
 -1      1080    8    0    1
 -2       446       471       618      2220      2662      2660
 -1      1081    8    0    1
 -2       471       447       619      2221      2663      2664
 -1      1082    8    0    1
 -2       447       592       619      2574      2665      2663
 -1      1083    8    0    1
 -2       450       594       620      2579      2666      2667
 -1      1084    8    0    1
 -2       450       620       591      2667      2668      2571
 -1      1085    8    0    1
 -2       594       451       595      2578      2581      2669
 -1      1086    8    0    1
 -2       604       463       605      2599      2602      2670
 -1      1087    8    0    1
 -2       569       428       572      2631      2519      2671
 -1      1088    8    0    1
 -2       612       379       527      2637      2385      2672
 -1      1089    8    0    1
 -2       477       478       621      2241      2673      2674
 -1      1090    8    0    1
 -2       476       477       622      2238      2675      2676
 -1      1091    8    0    1
 -2       477       621       622      2674      2677      2675
 -1      1092    8    0    1
 -2       479       480       623      2247      2678      2679
 -1      1093    8    0    1
 -2       480       481       624      2250      2680      2681
 -1      1094    8    0    1
 -2       480       624       623      2681      2682      2678
 -1      1095    8    0    1
 -2       473       482       625      2253      2683      2684
 -1      1096    8    0    1
 -2       609       484       626      2614      2685      2686
 -1      1097    8    0    1
 -2       482       583       627      2619      2687      2688
 -1      1098    8    0    1
 -2       482       627       625      2688      2689      2683
 -1      1099    8    0    1
 -2       593       591       628      2615      2690      2691
 -1      1100    8    0    1
 -2       486       485       629      2263      2692      2693
 -1      1101    8    0    1
 -2       487       486       630      2266      2694      2695
 -1      1102    8    0    1
 -2       486       629       630      2693      2696      2694
 -1      1103    8    0    1
 -2       488       487       631      2269      2697      2698
 -1      1104    8    0    1
 -2       487       630       631      2695      2699      2697
 -1      1105    8    0    1
 -2       489       488       632      2272      2700      2701
 -1      1106    8    0    1
 -2       488       631       632      2698      2702      2700
 -1      1107    8    0    1
 -2       490       489       633      2275      2703      2704
 -1      1108    8    0    1
 -2       489       632       633      2701      2705      2703
 -1      1109    8    0    1
 -2       491       490       634      2278      2706      2707
 -1      1110    8    0    1
 -2       490       633       634      2704      2708      2706
 -1      1111    8    0    1
 -2       492       491       635      2281      2709      2710
 -1      1112    8    0    1
 -2       491       634       635      2707      2711      2709
 -1      1113    8    0    1
 -2       493       492       636      2284      2712      2713
 -1      1114    8    0    1
 -2       492       635       636      2710      2714      2712
 -1      1115    8    0    1
 -2       494       493       637      2287      2715      2716
 -1      1116    8    0    1
 -2       493       636       637      2713      2717      2715
 -1      1117    8    0    1
 -2       495       494       638      2290      2718      2719
 -1      1118    8    0    1
 -2       494       637       638      2716      2720      2718
 -1      1119    8    0    1
 -2       496       495       639      2293      2721      2722
 -1      1120    8    0    1
 -2       495       638       639      2719      2723      2721
 -1      1121    8    0    1
 -2       497       496       640      2296      2724      2725
 -1      1122    8    0    1
 -2       496       639       640      2722      2726      2724
 -1      1123    8    0    1
 -2       498       497       641      2299      2727      2728
 -1      1124    8    0    1
 -2       497       640       641      2725      2729      2727
 -1      1125    8    0    1
 -2       499       498       642      2302      2730      2731
 -1      1126    8    0    1
 -2       498       641       642      2728      2732      2730
 -1      1127    8    0    1
 -2       500       499       643      2305      2733      2734
 -1      1128    8    0    1
 -2       499       642       643      2731      2735      2733
 -1      1129    8    0    1
 -2       501       500       644      2308      2736      2737
 -1      1130    8    0    1
 -2       500       643       644      2734      2738      2736
 -1      1131    8    0    1
 -2       502       501       645      2311      2739      2740
 -1      1132    8    0    1
 -2       501       644       645      2737      2741      2739
 -1      1133    8    0    1
 -2       503       502       646      2314      2742      2743
 -1      1134    8    0    1
 -2       502       645       646      2740      2744      2742
 -1      1135    8    0    1
 -2       504       503       647      2317      2745      2746
 -1      1136    8    0    1
 -2       503       646       647      2743      2747      2745
 -1      1137    8    0    1
 -2       505       504       648      2320      2748      2749
 -1      1138    8    0    1
 -2       504       647       648      2746      2750      2748
 -1      1139    8    0    1
 -2       506       505       649      2323      2751      2752
 -1      1140    8    0    1
 -2       505       648       649      2749      2753      2751
 -1      1141    8    0    1
 -2       507       506       650      2326      2754      2755
 -1      1142    8    0    1
 -2       506       649       650      2752      2756      2754
 -1      1143    8    0    1
 -2       508       507       651      2329      2757      2758
 -1      1144    8    0    1
 -2       507       650       651      2755      2759      2757
 -1      1145    8    0    1
 -2       509       508       652      2332      2760      2761
 -1      1146    8    0    1
 -2       508       651       652      2758      2762      2760
 -1      1147    8    0    1
 -2       510       509       653      2335      2763      2764
 -1      1148    8    0    1
 -2       509       652       653      2761      2765      2763
 -1      1149    8    0    1
 -2       511       510       654      2338      2766      2767
 -1      1150    8    0    1
 -2       510       653       654      2764      2768      2766
 -1      1151    8    0    1
 -2       512       511       655      2341      2769      2770
 -1      1152    8    0    1
 -2       511       654       655      2767      2771      2769
 -1      1153    8    0    1
 -2       513       512       656      2344      2772      2773
 -1      1154    8    0    1
 -2       512       655       656      2770      2774      2772
 -1      1155    8    0    1
 -2       514       513       657      2347      2775      2776
 -1      1156    8    0    1
 -2       513       656       657      2773      2777      2775
 -1      1157    8    0    1
 -2       515       514       658      2350      2778      2779
 -1      1158    8    0    1
 -2       514       657       658      2776      2780      2778
 -1      1159    8    0    1
 -2       517       516       659      2356      2781      2782
 -1      1160    8    0    1
 -2       518       517       660      2359      2783      2784
 -1      1161    8    0    1
 -2       517       659       660      2782      2785      2783
 -1      1162    8    0    1
 -2       519       518       661      2362      2786      2787
 -1      1163    8    0    1
 -2       518       660       661      2784      2788      2786
 -1      1164    8    0    1
 -2       520       519       662      2365      2789      2790
 -1      1165    8    0    1
 -2       519       661       662      2787      2791      2789
 -1      1166    8    0    1
 -2       521       520       663      2368      2792      2793
 -1      1167    8    0    1
 -2       520       662       663      2790      2794      2792
 -1      1168    8    0    1
 -2       522       521       664      2371      2795      2796
 -1      1169    8    0    1
 -2       521       663       664      2793      2797      2795
 -1      1170    8    0    1
 -2       523       522       665      2374      2798      2799
 -1      1171    8    0    1
 -2       522       664       665      2796      2800      2798
 -1      1172    8    0    1
 -2       524       523       666      2377      2801      2802
 -1      1173    8    0    1
 -2       523       665       666      2799      2803      2801
 -1      1174    8    0    1
 -2       525       524       667      2380      2804      2805
 -1      1175    8    0    1
 -2       524       666       667      2802      2806      2804
 -1      1176    8    0    1
 -2       526       525       668      2383      2807      2808
 -1      1177    8    0    1
 -2       525       667       668      2805      2809      2807
 -1      1178    8    0    1
 -2       527       526       669      2386      2810      2811
 -1      1179    8    0    1
 -2       526       668       669      2808      2812      2810
 -1      1180    8    0    1
 -2       529       530       670      2394      2813      2814
 -1      1181    8    0    1
 -2       597       598       671      2638      2815      2816
 -1      1182    8    0    1
 -2       528       529       672      2391      2817      2818
 -1      1183    8    0    1
 -2       529       670       672      2814      2819      2817
 -1      1184    8    0    1
 -2       531       532       673      2400      2820      2821
 -1      1185    8    0    1
 -2       532       533       674      2403      2822      2823
 -1      1186    8    0    1
 -2       532       674       673      2823      2824      2820
 -1      1187    8    0    1
 -2       533       534       675      2406      2825      2826
 -1      1188    8    0    1
 -2       533       675       674      2826      2827      2822
 -1      1189    8    0    1
 -2       534       535       676      2409      2828      2829
 -1      1190    8    0    1
 -2       534       676       675      2829      2830      2825
 -1      1191    8    0    1
 -2       535       536       677      2412      2831      2832
 -1      1192    8    0    1
 -2       535       677       676      2832      2833      2828
 -1      1193    8    0    1
 -2       536       537       678      2415      2834      2835
 -1      1194    8    0    1
 -2       536       678       677      2835      2836      2831
 -1      1195    8    0    1
 -2       537       538       679      2418      2837      2838
 -1      1196    8    0    1
 -2       537       679       678      2838      2839      2834
 -1      1197    8    0    1
 -2       538       539       680      2421      2840      2841
 -1      1198    8    0    1
 -2       538       680       679      2841      2842      2837
 -1      1199    8    0    1
 -2       539       540       681      2424      2843      2844
 -1      1200    8    0    1
 -2       539       681       680      2844      2845      2840
 -1      1201    8    0    1
 -2       540       541       682      2427      2846      2847
 -1      1202    8    0    1
 -2       540       682       681      2847      2848      2843
 -1      1203    8    0    1
 -2       541       542       683      2430      2849      2850
 -1      1204    8    0    1
 -2       541       683       682      2850      2851      2846
 -1      1205    8    0    1
 -2       542       543       684      2433      2852      2853
 -1      1206    8    0    1
 -2       542       684       683      2853      2854      2849
 -1      1207    8    0    1
 -2       543       544       685      2436      2855      2856
 -1      1208    8    0    1
 -2       543       685       684      2856      2857      2852
 -1      1209    8    0    1
 -2       544       545       686      2439      2858      2859
 -1      1210    8    0    1
 -2       544       686       685      2859      2860      2855
 -1      1211    8    0    1
 -2       545       546       687      2442      2861      2862
 -1      1212    8    0    1
 -2       545       687       686      2862      2863      2858
 -1      1213    8    0    1
 -2       546       547       688      2445      2864      2865
 -1      1214    8    0    1
 -2       546       688       687      2865      2866      2861
 -1      1215    8    0    1
 -2       547       548       689      2448      2867      2868
 -1      1216    8    0    1
 -2       547       689       688      2868      2869      2864
 -1      1217    8    0    1
 -2       548       549       690      2451      2870      2871
 -1      1218    8    0    1
 -2       548       690       689      2871      2872      2867
 -1      1219    8    0    1
 -2       549       550       691      2454      2873      2874
 -1      1220    8    0    1
 -2       549       691       690      2874      2875      2870
 -1      1221    8    0    1
 -2       550       551       692      2457      2876      2877
 -1      1222    8    0    1
 -2       550       692       691      2877      2878      2873
 -1      1223    8    0    1
 -2       551       552       693      2460      2879      2880
 -1      1224    8    0    1
 -2       551       693       692      2880      2881      2876
 -1      1225    8    0    1
 -2       552       553       694      2463      2882      2883
 -1      1226    8    0    1
 -2       552       694       693      2883      2884      2879
 -1      1227    8    0    1
 -2       553       554       695      2466      2885      2886
 -1      1228    8    0    1
 -2       553       695       694      2886      2887      2882
 -1      1229    8    0    1
 -2       554       555       696      2469      2888      2889
 -1      1230    8    0    1
 -2       554       696       695      2889      2890      2885
 -1      1231    8    0    1
 -2       555       556       697      2472      2891      2892
 -1      1232    8    0    1
 -2       555       697       696      2892      2893      2888
 -1      1233    8    0    1
 -2       556       557       698      2475      2894      2895
 -1      1234    8    0    1
 -2       556       698       697      2895      2896      2891
 -1      1235    8    0    1
 -2       557       558       699      2478      2897      2898
 -1      1236    8    0    1
 -2       557       699       698      2898      2899      2894
 -1      1237    8    0    1
 -2       558       559       700      2481      2900      2901
 -1      1238    8    0    1
 -2       558       700       699      2901      2902      2897
 -1      1239    8    0    1
 -2       559       560       701      2484      2903      2904
 -1      1240    8    0    1
 -2       559       701       700      2904      2905      2900
 -1      1241    8    0    1
 -2       560       561       702      2487      2906      2907
 -1      1242    8    0    1
 -2       560       702       701      2907      2908      2903
 -1      1243    8    0    1
 -2       561       562       703      2490      2909      2910
 -1      1244    8    0    1
 -2       561       703       702      2910      2911      2906
 -1      1245    8    0    1
 -2       562       563       704      2493      2912      2913
 -1      1246    8    0    1
 -2       562       704       703      2913      2914      2909
 -1      1247    8    0    1
 -2       563       564       705      2496      2915      2916
 -1      1248    8    0    1
 -2       563       705       704      2916      2917      2912
 -1      1249    8    0    1
 -2       564       565       706      2499      2918      2919
 -1      1250    8    0    1
 -2       564       706       705      2919      2920      2915
 -1      1251    8    0    1
 -2       565       566       707      2502      2921      2922
 -1      1252    8    0    1
 -2       565       707       706      2922      2923      2918
 -1      1253    8    0    1
 -2       566       567       708      2505      2924      2925
 -1      1254    8    0    1
 -2       566       708       707      2925      2926      2921
 -1      1255    8    0    1
 -2       567       568       709      2508      2927      2928
 -1      1256    8    0    1
 -2       567       709       708      2928      2929      2924
 -1      1257    8    0    1
 -2       568       569       710      2511      2930      2931
 -1      1258    8    0    1
 -2       709       568       710      2927      2931      2932
 -1      1259    8    0    1
 -2       569       572       710      2671      2933      2930
 -1      1260    8    0    1
 -2       574       575       711      2529      2934      2935
 -1      1261    8    0    1
 -2       612       527       712      2672      2936      2937
 -1      1262    8    0    1
 -2       580       612       712      2636      2937      2938
 -1      1263    8    0    1
 -2       527       669       712      2811      2939      2936
 -1      1264    8    0    1
 -2       570       571       713      2517      2940      2941
 -1      1265    8    0    1
 -2       575       576       714      2532      2942      2943
 -1      1266    8    0    1
 -2       575       714       711      2943      2944      2934
 -1      1267    8    0    1
 -2       571       574       715      2526      2945      2946
 -1      1268    8    0    1
 -2       713       571       715      2940      2946      2947
 -1      1269    8    0    1
 -2       574       711       715      2935      2948      2945
 -1      1270    8    0    1
 -2       583       528       716      2552      2949      2950
 -1      1271    8    0    1
 -2       627       583       716      2687      2950      2951
 -1      1272    8    0    1
 -2       528       672       716      2818      2952      2949
 -1      1273    8    0    1
 -2       576       577       717      2535      2953      2954
 -1      1274    8    0    1
 -2       576       717       714      2954      2955      2942
 -1      1275    8    0    1
 -2       577       578       718      2538      2956      2957
 -1      1276    8    0    1
 -2       577       718       717      2957      2958      2953
 -1      1277    8    0    1
 -2       578       579       719      2541      2959      2960
 -1      1278    8    0    1
 -2       578       719       718      2960      2961      2956
 -1      1279    8    0    1
 -2       579       580       712      2544      2938      2962
 -1      1280    8    0    1
 -2       585       582       720      2628      2963      2964
 -1      1281    8    0    1
 -2       483       586       721      2559      2965      2966
 -1      1282    8    0    1
 -2       602       588       722      2621      2967      2968
 -1      1283    8    0    1
 -2       603       585       723      2598      2969      2970
 -1      1284    8    0    1
 -2       585       720       723      2964      2971      2969
 -1      1285    8    0    1
 -2       601       602       724      2622      2972      2973
 -1      1286    8    0    1
 -2       599       600       725      2629      2974      2975
 -1      1287    8    0    1
 -2       530       531       726      2397      2976      2977
 -1      1288    8    0    1
 -2       670       530       726      2813      2977      2978
 -1      1289    8    0    1
 -2       531       673       726      2821      2979      2976
 -1      1290    8    0    1
 -2       485       483       727      2260      2980      2981
 -1      1291    8    0    1
 -2       629       485       727      2692      2981      2982
 -1      1292    8    0    1
 -2       483       721       727      2966      2983      2980
 -1      1293    8    0    1
 -2       478       479       728      2244      2984      2985
 -1      1294    8    0    1
 -2       621       478       728      2673      2985      2986
 -1      1295    8    0    1
 -2       479       623       728      2679      2987      2984
 -1      1296    8    0    1
 -2       475       474       729      2233      2988      2989
 -1      1297    8    0    1
 -2       592       593       730      2577      2990      2991
 -1      1298    8    0    1
 -2       589       596       731      2658      2992      2993
 -1      1299    8    0    1
 -2       604       605       732      2670      2994      2995
 -1      1300    8    0    1
 -2       586       445       721      2659      2996      2965
 -1      1301    8    0    1
 -2       582       584       733      2639      2997      2998
 -1      1302    8    0    1
 -2       582       733       720      2998      2999      2963
 -1      1303    8    0    1
 -2       581       587       734      2633      3000      3001
 -1      1304    8    0    1
 -2       598       599       735      2632      3002      3003
 -1      1305    8    0    1
 -2       598       735       671      3003      3004      2815
 -1      1306    8    0    1
 -2       587       609       736      2623      3005      3006
 -1      1307    8    0    1
 -2       587       736       734      3006      3007      3000
 -1      1308    8    0    1
 -2       605       606       737      2654      3008      3009
 -1      1309    8    0    1
 -2       594       595       738      2669      3010      3011
 -1      1310    8    0    1
 -2       606       607       739      2607      3012      3013
 -1      1311    8    0    1
 -2       606       739       737      3013      3014      3008
 -1      1312    8    0    1
 -2       481       608       473      2640      2611      3015
 -1      1313    8    0    1
 -2       600       601       740      2624      3016      3017
 -1      1314    8    0    1
 -2       596       597       741      2644      3018      3019
 -1      1315    8    0    1
 -2       596       741       731      3019      3020      2992
 -1      1316    8    0    1
 -2       610       475       742      2616      3021      3022
 -1      1317    8    0    1
 -2       475       729       742      2989      3023      3021
 -1      1318    8    0    1
 -2       476       622       743      2676      3024      3025
 -1      1319    8    0    1
 -2       476       743       590      3025      3026      2570
 -1      1320    8    0    1
 -2       593       628       730      2691      3027      2990
 -1      1321    8    0    1
 -2       609       626       736      2686      3028      3005
 -1      1322    8    0    1
 -2       584       613       744      2642      3029      3030
 -1      1323    8    0    1
 -2       584       744       733      3030      3031      2997
 -1      1324    8    0    1
 -2       628       591       745      2690      3032      3033
 -1      1325    8    0    1
 -2       591       620       745      2668      3034      3032
 -1      1326    8    0    1
 -2       570       713       746      2941      3035      3036
 -1      1327    8    0    1
 -2       570       746       573      3036      3037      2523
 -1      1328    8    0    1
 -2       611       581       747      2627      3038      3039
 -1      1329    8    0    1
 -2       581       734       747      3001      3040      3038
 -1      1330    8    0    1
 -2       516       515       748      2353      3041      3042
 -1      1331    8    0    1
 -2       659       516       748      2781      3042      3043
 -1      1332    8    0    1
 -2       515       658       748      2779      3044      3041
 -1      1333    8    0    1
 -2       597       671       749      2816      3045      3046
 -1      1334    8    0    1
 -2       597       749       741      3046      3047      3018
 -1      1335    8    0    1
 -2       739       607       750      3012      3048      3049
 -1      1336    8    0    1
 -2       607       616       750      2652      3050      3048
 -1      1337    8    0    1
 -2       601       724       740      2973      3051      3016
 -1      1338    8    0    1
 -2       572       573       751      2522      3052      3053
 -1      1339    8    0    1
 -2       710       572       751      2933      3053      3054
 -1      1340    8    0    1
 -2       573       746       751      3037      3055      3052
 -1      1341    8    0    1
 -2       722       588       617      2967      2656      3056
 -1      1342    8    0    1
 -2       738       595       752      3010      3057      3058
 -1      1343    8    0    1
 -2       595       615       752      2649      3059      3057
 -1      1344    8    0    1
 -2       735       599       753      3002      3060      3061
 -1      1345    8    0    1
 -2       599       725       753      2975      3062      3060
 -1      1346    8    0    1
 -2       579       712       754      2962      3063      3064
 -1      1347    8    0    1
 -2       719       579       754      2959      3064      3065
 -1      1348    8    0    1
 -2       712       669       754      2939      3066      3063
 -1      1349    8    0    1
 -2       725       600       740      2974      3017      3067
 -1      1350    8    0    1
 -2       613       470       755      2643      3068      3069
 -1      1351    8    0    1
 -2       470       611       755      2626      3070      3068
 -1      1352    8    0    1
 -2       615       589       756      2650      3071      3072
 -1      1353    8    0    1
 -2       589       731       756      2993      3073      3071
 -1      1354    8    0    1
 -2       616       603       757      2653      3074      3075
 -1      1355    8    0    1
 -2       603       723       757      2970      3076      3074
 -1      1356    8    0    1
 -2       602       722       724      2968      3077      2972
 -1      1357    8    0    1
 -2       617       472       614      2657      2647      3078
 -1      1358    8    0    1
 -2       445       610       721      2618      3079      2996
 -1      1359    8    0    1
 -2       618       471       619      2662      2664      3080
 -1      1360    8    0    1
 -2       732       605       737      2994      3009      3081
 -1      1361    8    0    1
 -2       474       590       758      2569      3082      3083
 -1      1362    8    0    1
 -2       729       474       758      2988      3083      3084
 -1      1363    8    0    1
 -2       590       743       758      3026      3085      3082
 -1      1364    8    0    1
 -2       619       592       730      2665      2991      3086
 -1      1365    8    0    1
 -2       620       594       738      2666      3011      3087
 -1      1366    8    0    1
 -2       484       618       759      2661      3088      3089
 -1      1367    8    0    1
 -2       484       759       626      3089      3090      2685
 -1      1368    8    0    1
 -2       481       473       625      3015      2684      3091
 -1      1369    8    0    1
 -2       624       481       625      2680      3091      3092
 -1      1370    8    0    1
 -2       624       625       760      3092      3093      3094
 -1      1371    8    0    1
 -2       625       627       760      2689      3095      3093
 -1      1372    8    0    1
 -2       623       624       760      2682      3094      3096
 -1      1373    8    0    1
 -2       619       730       699      3086      3097      3098
 -1      1374    8    0    1
 -2       631       630       761      2699      3099      3100
 -1      1375    8    0    1
 -2       632       631       762      2702      3101      3102
 -1      1376    8    0    1
 -2       631       761       762      3100      3103      3101
 -1      1377    8    0    1
 -2       633       632       763      2705      3104      3105
 -1      1378    8    0    1
 -2       632       762       763      3102      3106      3104
 -1      1379    8    0    1
 -2       634       633       764      2708      3107      3108
 -1      1380    8    0    1
 -2       633       763       764      3105      3109      3107
 -1      1381    8    0    1
 -2       635       634       765      2711      3110      3111
 -1      1382    8    0    1
 -2       634       764       765      3108      3112      3110
 -1      1383    8    0    1
 -2       636       635       766      2714      3113      3114
 -1      1384    8    0    1
 -2       635       765       766      3111      3115      3113
 -1      1385    8    0    1
 -2       637       636       767      2717      3116      3117
 -1      1386    8    0    1
 -2       636       766       767      3114      3118      3116
 -1      1387    8    0    1
 -2       638       637       768      2720      3119      3120
 -1      1388    8    0    1
 -2       637       767       768      3117      3121      3119
 -1      1389    8    0    1
 -2       639       638       769      2723      3122      3123
 -1      1390    8    0    1
 -2       638       768       769      3120      3124      3122
 -1      1391    8    0    1
 -2       640       639       770      2726      3125      3126
 -1      1392    8    0    1
 -2       639       769       770      3123      3127      3125
 -1      1393    8    0    1
 -2       641       640       771      2729      3128      3129
 -1      1394    8    0    1
 -2       640       770       771      3126      3130      3128
 -1      1395    8    0    1
 -2       642       641       772      2732      3131      3132
 -1      1396    8    0    1
 -2       641       771       772      3129      3133      3131
 -1      1397    8    0    1
 -2       643       642       773      2735      3134      3135
 -1      1398    8    0    1
 -2       642       772       773      3132      3136      3134
 -1      1399    8    0    1
 -2       644       643       774      2738      3137      3138
 -1      1400    8    0    1
 -2       643       773       774      3135      3139      3137
 -1      1401    8    0    1
 -2       645       644       775      2741      3140      3141
 -1      1402    8    0    1
 -2       644       774       775      3138      3142      3140
 -1      1403    8    0    1
 -2       646       645       776      2744      3143      3144
 -1      1404    8    0    1
 -2       645       775       776      3141      3145      3143
 -1      1405    8    0    1
 -2       647       646       777      2747      3146      3147
 -1      1406    8    0    1
 -2       646       776       777      3144      3148      3146
 -1      1407    8    0    1
 -2       648       647       778      2750      3149      3150
 -1      1408    8    0    1
 -2       647       777       778      3147      3151      3149
 -1      1409    8    0    1
 -2       649       648       779      2753      3152      3153
 -1      1410    8    0    1
 -2       648       778       779      3150      3154      3152
 -1      1411    8    0    1
 -2       650       649       780      2756      3155      3156
 -1      1412    8    0    1
 -2       649       779       780      3153      3157      3155
 -1      1413    8    0    1
 -2       651       650       781      2759      3158      3159
 -1      1414    8    0    1
 -2       650       780       781      3156      3160      3158
 -1      1415    8    0    1
 -2       652       651       782      2762      3161      3162
 -1      1416    8    0    1
 -2       651       781       782      3159      3163      3161
 -1      1417    8    0    1
 -2       653       652       783      2765      3164      3165
 -1      1418    8    0    1
 -2       652       782       783      3162      3166      3164
 -1      1419    8    0    1
 -2       654       653       784      2768      3167      3168
 -1      1420    8    0    1
 -2       653       783       784      3165      3169      3167
 -1      1421    8    0    1
 -2       655       654       785      2771      3170      3171
 -1      1422    8    0    1
 -2       654       784       785      3168      3172      3170
 -1      1423    8    0    1
 -2       656       655       786      2774      3173      3174
 -1      1424    8    0    1
 -2       655       785       786      3171      3175      3173
 -1      1425    8    0    1
 -2       661       660       732      2788      3176      3177
 -1      1426    8    0    1
 -2       662       661       787      2791      3178      3179
 -1      1427    8    0    1
 -2       663       662       788      2794      3180      3181
 -1      1428    8    0    1
 -2       662       787       788      3179      3182      3180
 -1      1429    8    0    1
 -2       664       663       789      2797      3183      3184
 -1      1430    8    0    1
 -2       663       788       789      3181      3185      3183
 -1      1431    8    0    1
 -2       665       664       790      2800      3186      3187
 -1      1432    8    0    1
 -2       664       789       790      3184      3188      3186
 -1      1433    8    0    1
 -2       666       665       791      2803      3189      3190
 -1      1434    8    0    1
 -2       665       790       791      3187      3191      3189
 -1      1435    8    0    1
 -2       667       666       792      2806      3192      3193
 -1      1436    8    0    1
 -2       666       791       792      3190      3194      3192
 -1      1437    8    0    1
 -2       668       667       793      2809      3195      3196
 -1      1438    8    0    1
 -2       667       792       793      3193      3197      3195
 -1      1439    8    0    1
 -2       669       668       794      2812      3198      3199
 -1      1440    8    0    1
 -2       754       669       794      3066      3199      3200
 -1      1441    8    0    1
 -2       668       793       794      3196      3201      3198
 -1      1442    8    0    1
 -2       714       717       795      2955      3202      3203
 -1      1443    8    0    1
 -2       674       675       796      2827      3204      3205
 -1      1444    8    0    1
 -2       673       674       797      2824      3206      3207
 -1      1445    8    0    1
 -2       674       796       797      3205      3208      3206
 -1      1446    8    0    1
 -2       676       677       798      2833      3209      3210
 -1      1447    8    0    1
 -2       677       678       799      2836      3211      3212
 -1      1448    8    0    1
 -2       677       799       798      3212      3213      3209
 -1      1449    8    0    1
 -2       678       679       800      2839      3214      3215
 -1      1450    8    0    1
 -2       678       800       799      3215      3216      3211
 -1      1451    8    0    1
 -2       679       680       801      2842      3217      3218
 -1      1452    8    0    1
 -2       679       801       800      3218      3219      3214
 -1      1453    8    0    1
 -2       680       681       802      2845      3220      3221
 -1      1454    8    0    1
 -2       680       802       801      3221      3222      3217
 -1      1455    8    0    1
 -2       681       682       803      2848      3223      3224
 -1      1456    8    0    1
 -2       681       803       802      3224      3225      3220
 -1      1457    8    0    1
 -2       682       683       804      2851      3226      3227
 -1      1458    8    0    1
 -2       682       804       803      3227      3228      3223
 -1      1459    8    0    1
 -2       683       684       805      2854      3229      3230
 -1      1460    8    0    1
 -2       683       805       804      3230      3231      3226
 -1      1461    8    0    1
 -2       684       685       806      2857      3232      3233
 -1      1462    8    0    1
 -2       684       806       805      3233      3234      3229
 -1      1463    8    0    1
 -2       685       686       807      2860      3235      3236
 -1      1464    8    0    1
 -2       685       807       806      3236      3237      3232
 -1      1465    8    0    1
 -2       686       687       808      2863      3238      3239
 -1      1466    8    0    1
 -2       686       808       807      3239      3240      3235
 -1      1467    8    0    1
 -2       687       688       809      2866      3241      3242
 -1      1468    8    0    1
 -2       687       809       808      3242      3243      3238
 -1      1469    8    0    1
 -2       688       689       810      2869      3244      3245
 -1      1470    8    0    1
 -2       688       810       809      3245      3246      3241
 -1      1471    8    0    1
 -2       689       690       811      2872      3247      3248
 -1      1472    8    0    1
 -2       689       811       810      3248      3249      3244
 -1      1473    8    0    1
 -2       690       691       812      2875      3250      3251
 -1      1474    8    0    1
 -2       690       812       811      3251      3252      3247
 -1      1475    8    0    1
 -2       691       692       813      2878      3253      3254
 -1      1476    8    0    1
 -2       691       813       812      3254      3255      3250
 -1      1477    8    0    1
 -2       692       693       814      2881      3256      3257
 -1      1478    8    0    1
 -2       692       814       813      3257      3258      3253
 -1      1479    8    0    1
 -2       693       694       815      2884      3259      3260
 -1      1480    8    0    1
 -2       693       815       814      3260      3261      3256
 -1      1481    8    0    1
 -2       694       695       816      2887      3262      3263
 -1      1482    8    0    1
 -2       694       816       815      3263      3264      3259
 -1      1483    8    0    1
 -2       695       696       817      2890      3265      3266
 -1      1484    8    0    1
 -2       695       817       816      3266      3267      3262
 -1      1485    8    0    1
 -2       696       697       745      2893      3268      3269
 -1      1486    8    0    1
 -2       698       699       730      2899      3097      3270
 -1      1487    8    0    1
 -2       699       700       619      2902      3271      3098
 -1      1488    8    0    1
 -2       700       701       759      2905      3272      3273
 -1      1489    8    0    1
 -2       702       703       818      2911      3274      3275
 -1      1490    8    0    1
 -2       703       704       819      2914      3276      3277
 -1      1491    8    0    1
 -2       703       819       818      3277      3278      3274
 -1      1492    8    0    1
 -2       704       705       820      2917      3279      3280
 -1      1493    8    0    1
 -2       704       820       819      3280      3281      3276
 -1      1494    8    0    1
 -2       705       706       821      2920      3282      3283
 -1      1495    8    0    1
 -2       705       821       820      3283      3284      3279
 -1      1496    8    0    1
 -2       706       707       822      2923      3285      3286
 -1      1497    8    0    1
 -2       706       822       821      3286      3287      3282
 -1      1498    8    0    1
 -2       707       708       823      2926      3288      3289
 -1      1499    8    0    1
 -2       707       823       822      3289      3290      3285
 -1      1500    8    0    1
 -2       708       709       824      2929      3291      3292
 -1      1501    8    0    1
 -2       708       824       823      3292      3293      3288
 -1      1502    8    0    1
 -2       709       710       825      2932      3294      3295
 -1      1503    8    0    1
 -2       824       709       825      3291      3295      3296
 -1      1504    8    0    1
 -2       710       751       825      3054      3297      3294
 -1      1505    8    0    1
 -2       725       740       826      3067      3298      3299
 -1      1506    8    0    1
 -2       622       621       827      2677      3300      3301
 -1      1507    8    0    1
 -2       717       718       828      2958      3302      3303
 -1      1508    8    0    1
 -2       717       828       795      3303      3304      3202
 -1      1509    8    0    1
 -2       711       714       829      2944      3305      3306
 -1      1510    8    0    1
 -2       714       795       829      3203      3307      3305
 -1      1511    8    0    1
 -2       723       720       830      2971      3308      3309
 -1      1512    8    0    1
 -2       720       733       831      2999      3310      3311
 -1      1513    8    0    1
 -2       720       831       830      3311      3312      3308
 -1      1514    8    0    1
 -2       675       676       832      2830      3313      3314
 -1      1515    8    0    1
 -2       796       675       832      3204      3314      3315
 -1      1516    8    0    1
 -2       676       798       832      3210      3316      3313
 -1      1517    8    0    1
 -2       672       670       833      2819      3317      3318
 -1      1518    8    0    1
 -2       734       736       834      3007      3319      3320
 -1      1519    8    0    1
 -2       614       604       835      2645      3321      3322
 -1      1520    8    0    1
 -2       835       604       732      3321      2995      3323
 -1      1521    8    0    1
 -2       732       660       835      3176      3324      3323
 -1      1522    8    0    1
 -2       698       730       697      3270      3325      2896
 -1      1523    8    0    1
 -2       660       659       835      2785      3326      3324
 -1      1524    8    0    1
 -2       630       629       836      2696      3327      3328
 -1      1525    8    0    1
 -2       630       836       761      3328      3329      3099
 -1      1526    8    0    1
 -2       740       724       837      3051      3330      3331
 -1      1527    8    0    1
 -2       736       626       838      3028      3332      3333
 -1      1528    8    0    1
 -2       736       838       834      3333      3334      3319
 -1      1529    8    0    1
 -2       718       719       839      2961      3335      3336
 -1      1530    8    0    1
 -2       718       839       828      3336      3337      3302
 -1      1531    8    0    1
 -2       620       738       840      3087      3338      3339
 -1      1532    8    0    1
 -2       721       610       742      3079      3022      3340
 -1      1533    8    0    1
 -2       671       735       841      3004      3341      3342
 -1      1534    8    0    1
 -2       737       739       787      3014      3343      3344
 -1      1535    8    0    1
 -2       731       741       842      3020      3345      3346
 -1      1536    8    0    1
 -2       835       659       614      3326      3347      3322
 -1      1537    8    0    1
 -2       614       659       617      3347      3348      3078
 -1      1538    8    0    1
 -2       617       659       748      3348      3043      3349
 -1      1539    8    0    1
 -2       743       622       843      3024      3350      3351
 -1      1540    8    0    1
 -2       622       827       843      3301      3352      3350
 -1      1541    8    0    1
 -2       740       837       826      3331      3353      3298
 -1      1542    8    0    1
 -2       619       700       618      3271      3354      3080
 -1      1543    8    0    1
 -2       744       613       844      3029      3355      3356
 -1      1544    8    0    1
 -2       613       755       844      3069      3357      3355
 -1      1545    8    0    1
 -2       745       620       817      3034      3358      3359
 -1      1546    8    0    1
 -2       623       760       845      3096      3360      3361
 -1      1547    8    0    1
 -2       746       713       846      3035      3362      3363
 -1      1548    8    0    1
 -2       747       734       847      3040      3364      3365
 -1      1549    8    0    1
 -2       734       834       847      3320      3366      3364
 -1      1550    8    0    1
 -2       661       732       737      3177      3081      3367
 -1      1551    8    0    1
 -2       748       658       722      3044      3368      3369
 -1      1552    8    0    1
 -2       741       749       848      3047      3370      3371
 -1      1553    8    0    1
 -2       741       848       842      3371      3372      3345
 -1      1554    8    0    1
 -2       787       739       788      3343      3373      3182
 -1      1555    8    0    1
 -2       657       656       837      2777      3374      3375
 -1      1556    8    0    1
 -2       658       657       849      2780      3376      3377
 -1      1557    8    0    1
 -2       749       671       841      3045      3342      3378
 -1      1558    8    0    1
 -2       629       727       850      2982      3379      3380
 -1      1559    8    0    1
 -2       629       850       836      3380      3381      3327
 -1      1560    8    0    1
 -2       723       830       757      3309      3382      3076
 -1      1561    8    0    1
 -2       833       670       851      3317      3383      3384
 -1      1562    8    0    1
 -2       670       726       851      2978      3385      3383
 -1      1563    8    0    1
 -2       727       721       742      2983      3340      3386
 -1      1564    8    0    1
 -2       750       616       852      3050      3387      3388
 -1      1565    8    0    1
 -2       616       757       852      3075      3389      3387
 -1      1566    8    0    1
 -2       672       833       853      3318      3390      3391
 -1      1567    8    0    1
 -2       672       853       716      3391      3392      2952
 -1      1568    8    0    1
 -2       673       797       854      3207      3393      3394
 -1      1569    8    0    1
 -2       673       854       726      3394      3395      2979
 -1      1570    8    0    1
 -2       696       745       817      3269      3359      3265
 -1      1571    8    0    1
 -2       838       626       855      3332      3396      3397
 -1      1572    8    0    1
 -2       626       759       855      3090      3398      3396
 -1      1573    8    0    1
 -2       759       701       855      3272      3399      3398
 -1      1574    8    0    1
 -2       702       818       855      3275      3400      3401
 -1      1575    8    0    1
 -2       701       702       855      2908      3401      3399
 -1      1576    8    0    1
 -2       661       737       787      3367      3344      3178
 -1      1577    8    0    1
 -2       846       713       856      3362      3402      3403
 -1      1578    8    0    1
 -2       713       715       856      2947      3404      3402
 -1      1579    8    0    1
 -2       623       845       728      3361      3405      2987
 -1      1580    8    0    1
 -2       618       700       759      3354      3273      3088
 -1      1581    8    0    1
 -2       827       621       857      3300      3406      3407
 -1      1582    8    0    1
 -2       621       728       857      2986      3408      3406
 -1      1583    8    0    1
 -2       715       711       858      2948      3409      3410
 -1      1584    8    0    1
 -2       856       715       858      3404      3410      3411
 -1      1585    8    0    1
 -2       711       829       858      3306      3412      3409
 -1      1586    8    0    1
 -2       752       615       859      3059      3413      3414
 -1      1587    8    0    1
 -2       615       756       859      3072      3415      3413
 -1      1588    8    0    1
 -2       755       611       860      3070      3416      3417
 -1      1589    8    0    1
 -2       611       747       860      3039      3418      3416
 -1      1590    8    0    1
 -2       756       731       861      3073      3419      3420
 -1      1591    8    0    1
 -2       731       842       861      3346      3421      3419
 -1      1592    8    0    1
 -2       697       730       628      3325      3027      3422
 -1      1593    8    0    1
 -2       831       733       862      3310      3423      3424
 -1      1594    8    0    1
 -2       733       744       862      3031      3425      3423
 -1      1595    8    0    1
 -2       617       748       722      3349      3369      3056
 -1      1596    8    0    1
 -2       719       754       863      3065      3426      3427
 -1      1597    8    0    1
 -2       839       719       863      3335      3427      3428
 -1      1598    8    0    1
 -2       754       794       863      3200      3429      3426
 -1      1599    8    0    1
 -2       735       753       864      3061      3430      3431
 -1      1600    8    0    1
 -2       735       864       841      3431      3432      3341
 -1      1601    8    0    1
 -2       729       758       865      3084      3433      3434
 -1      1602    8    0    1
 -2       729       865       866      3434      3435      3436
 -1      1603    8    0    1
 -2       729       866       742      3436      3437      3023
 -1      1604    8    0    1
 -2       697       628       745      3422      3033      3268
 -1      1605    8    0    1
 -2       760       627       867      3095      3438      3439
 -1      1606    8    0    1
 -2       845       760       867      3360      3439      3440
 -1      1607    8    0    1
 -2       627       716       867      2951      3441      3438
 -1      1608    8    0    1
 -2       817       620       840      3358      3339      3442
 -1      1609    8    0    1
 -2       722       658       849      3368      3377      3443
 -1      1610    8    0    1
 -2       849       657       837      3376      3375      3444
 -1      1611    8    0    1
 -2       656       786       837      3174      3445      3374
 -1      1612    8    0    1
 -2       763       762       868      3106      3446      3447
 -1      1613    8    0    1
 -2       764       763       869      3109      3448      3449
 -1      1614    8    0    1
 -2       763       868       869      3447      3450      3448
 -1      1615    8    0    1
 -2       765       764       870      3112      3451      3452
 -1      1616    8    0    1
 -2       764       869       870      3449      3453      3451
 -1      1617    8    0    1
 -2       766       765       871      3115      3454      3455
 -1      1618    8    0    1
 -2       765       870       871      3452      3456      3454
 -1      1619    8    0    1
 -2       767       766       872      3118      3457      3458
 -1      1620    8    0    1
 -2       766       871       872      3455      3459      3457
 -1      1621    8    0    1
 -2       768       767       873      3121      3460      3461
 -1      1622    8    0    1
 -2       767       872       873      3458      3462      3460
 -1      1623    8    0    1
 -2       769       768       874      3124      3463      3464
 -1      1624    8    0    1
 -2       768       873       874      3461      3465      3463
 -1      1625    8    0    1
 -2       770       769       875      3127      3466      3467
 -1      1626    8    0    1
 -2       769       874       875      3464      3468      3466
 -1      1627    8    0    1
 -2       771       770       876      3130      3469      3470
 -1      1628    8    0    1
 -2       770       875       876      3467      3471      3469
 -1      1629    8    0    1
 -2       772       771       877      3133      3472      3473
 -1      1630    8    0    1
 -2       771       876       877      3470      3474      3472
 -1      1631    8    0    1
 -2       773       772       878      3136      3475      3476
 -1      1632    8    0    1
 -2       772       877       878      3473      3477      3475
 -1      1633    8    0    1
 -2       774       773       879      3139      3478      3479
 -1      1634    8    0    1
 -2       773       878       879      3476      3480      3478
 -1      1635    8    0    1
 -2       775       774       880      3142      3481      3482
 -1      1636    8    0    1
 -2       774       879       880      3479      3483      3481
 -1      1637    8    0    1
 -2       776       775       881      3145      3484      3485
 -1      1638    8    0    1
 -2       775       880       881      3482      3486      3484
 -1      1639    8    0    1
 -2       777       776       882      3148      3487      3488
 -1      1640    8    0    1
 -2       776       881       882      3485      3489      3487
 -1      1641    8    0    1
 -2       778       777       883      3151      3490      3491
 -1      1642    8    0    1
 -2       777       882       883      3488      3492      3490
 -1      1643    8    0    1
 -2       779       778       884      3154      3493      3494
 -1      1644    8    0    1
 -2       778       883       884      3491      3495      3493
 -1      1645    8    0    1
 -2       780       779       885      3157      3496      3497
 -1      1646    8    0    1
 -2       779       884       885      3494      3498      3496
 -1      1647    8    0    1
 -2       781       780       886      3160      3499      3500
 -1      1648    8    0    1
 -2       780       885       886      3497      3501      3499
 -1      1649    8    0    1
 -2       782       781       887      3163      3502      3503
 -1      1650    8    0    1
 -2       781       886       887      3500      3504      3502
 -1      1651    8    0    1
 -2       783       782       888      3166      3505      3506
 -1      1652    8    0    1
 -2       782       887       888      3503      3507      3505
 -1      1653    8    0    1
 -2       784       783       889      3169      3508      3509
 -1      1654    8    0    1
 -2       783       888       889      3506      3510      3508
 -1      1655    8    0    1
 -2       749       841       890      3378      3511      3512
 -1      1656    8    0    1
 -2       789       788       852      3185      3513      3514
 -1      1657    8    0    1
 -2       791       790       891      3191      3515      3516
 -1      1658    8    0    1
 -2       792       791       892      3194      3517      3518
 -1      1659    8    0    1
 -2       791       891       892      3516      3519      3517
 -1      1660    8    0    1
 -2       793       792       893      3197      3520      3521
 -1      1661    8    0    1
 -2       792       892       893      3518      3522      3520
 -1      1662    8    0    1
 -2       799       800       894      3216      3523      3524
 -1      1663    8    0    1
 -2       798       799       895      3213      3525      3526
 -1      1664    8    0    1
 -2       799       894       895      3524      3527      3525
 -1      1665    8    0    1
 -2       801       802       896      3222      3528      3529
 -1      1666    8    0    1
 -2       802       803       897      3225      3530      3531
 -1      1667    8    0    1
 -2       802       897       896      3531      3532      3528
 -1      1668    8    0    1
 -2       803       804       898      3228      3533      3534
 -1      1669    8    0    1
 -2       803       898       897      3534      3535      3530
 -1      1670    8    0    1
 -2       804       805       899      3231      3536      3537
 -1      1671    8    0    1
 -2       804       899       898      3537      3538      3533
 -1      1672    8    0    1
 -2       805       806       900      3234      3539      3540
 -1      1673    8    0    1
 -2       805       900       899      3540      3541      3536
 -1      1674    8    0    1
 -2       806       807       901      3237      3542      3543
 -1      1675    8    0    1
 -2       806       901       900      3543      3544      3539
 -1      1676    8    0    1
 -2       807       808       902      3240      3545      3546
 -1      1677    8    0    1
 -2       807       902       901      3546      3547      3542
 -1      1678    8    0    1
 -2       808       809       903      3243      3548      3549
 -1      1679    8    0    1
 -2       808       903       902      3549      3550      3545
 -1      1680    8    0    1
 -2       809       810       904      3246      3551      3552
 -1      1681    8    0    1
 -2       809       904       903      3552      3553      3548
 -1      1682    8    0    1
 -2       810       811       905      3249      3554      3555
 -1      1683    8    0    1
 -2       810       905       904      3555      3556      3551
 -1      1684    8    0    1
 -2       811       812       906      3252      3557      3558
 -1      1685    8    0    1
 -2       811       906       905      3558      3559      3554
 -1      1686    8    0    1
 -2       812       813       907      3255      3560      3561
 -1      1687    8    0    1
 -2       812       907       906      3561      3562      3557
 -1      1688    8    0    1
 -2       813       814       908      3258      3563      3564
 -1      1689    8    0    1
 -2       813       908       907      3564      3565      3560
 -1      1690    8    0    1
 -2       814       815       909      3261      3566      3567
 -1      1691    8    0    1
 -2       814       909       908      3567      3568      3563
 -1      1692    8    0    1
 -2       816       817       840      3267      3442      3569
 -1      1693    8    0    1
 -2       819       820       910      3281      3570      3571
 -1      1694    8    0    1
 -2       821       822       911      3287      3572      3573
 -1      1695    8    0    1
 -2       822       823       912      3290      3574      3575
 -1      1696    8    0    1
 -2       822       912       911      3575      3576      3572
 -1      1697    8    0    1
 -2       823       824       913      3293      3577      3578
 -1      1698    8    0    1
 -2       823       913       912      3578      3579      3574
 -1      1699    8    0    1
 -2       728       845       857      3405      3580      3408
 -1      1700    8    0    1
 -2       826       837       786      3353      3445      3581
 -1      1701    8    0    1
 -2       795       828       914      3304      3582      3583
 -1      1702    8    0    1
 -2       751       746       915      3055      3584      3585
 -1      1703    8    0    1
 -2       825       751       915      3297      3585      3586
 -1      1704    8    0    1
 -2       746       846       915      3363      3587      3584
 -1      1705    8    0    1
 -2       829       795       916      3307      3588      3589
 -1      1706    8    0    1
 -2       795       914       916      3583      3590      3588
 -1      1707    8    0    1
 -2       830       831       917      3312      3591      3592
 -1      1708    8    0    1
 -2       753       725       918      3062      3593      3594
 -1      1709    8    0    1
 -2       797       796       919      3208      3595      3596
 -1      1710    8    0    1
 -2       828       839       920      3337      3597      3598
 -1      1711    8    0    1
 -2       828       920       914      3598      3599      3582
 -1      1712    8    0    1
 -2       757       830       921      3382      3600      3601
 -1      1713    8    0    1
 -2       918       725       826      3593      3299      3602
 -1      1714    8    0    1
 -2       816       840       922      3569      3603      3604
 -1      1715    8    0    1
 -2       815       816       922      3264      3604      3605
 -1      1716    8    0    1
 -2       840       738       922      3338      3606      3603
 -1      1717    8    0    1
 -2       922       738       752      3606      3058      3607
 -1      1718    8    0    1
 -2       753       918       923      3594      3608      3609
 -1      1719    8    0    1
 -2       753       923       864      3609      3610      3430
 -1      1720    8    0    1
 -2       918       826       786      3602      3581      3611
 -1      1721    8    0    1
 -2       820       821       924      3284      3612      3613
 -1      1722    8    0    1
 -2       821       911       924      3573      3614      3612
 -1      1723    8    0    1
 -2       727       742       850      3386      3615      3379
 -1      1724    8    0    1
 -2       758       743       925      3085      3616      3617
 -1      1725    8    0    1
 -2       758       925       865      3617      3618      3433
 -1      1726    8    0    1
 -2       800       801       926      3219      3619      3620
 -1      1727    8    0    1
 -2       894       800       926      3523      3620      3621
 -1      1728    8    0    1
 -2       801       896       926      3529      3622      3619
 -1      1729    8    0    1
 -2       918       786       785      3611      3175      3623
 -1      1730    8    0    1
 -2       761       836       927      3329      3624      3625
 -1      1731    8    0    1
 -2       762       761       928      3103      3626      3627
 -1      1732    8    0    1
 -2       762       928       868      3627      3628      3446
 -1      1733    8    0    1
 -2       815       922       909      3605      3629      3566
 -1      1734    8    0    1
 -2       918       785       923      3623      3630      3608
 -1      1735    8    0    1
 -2       844       755       929      3357      3631      3632
 -1      1736    8    0    1
 -2       755       860       929      3417      3633      3631
 -1      1737    8    0    1
 -2       891       790       930      3515      3634      3635
 -1      1738    8    0    1
 -2       790       789       930      3188      3636      3634
 -1      1739    8    0    1
 -2       829       916       931      3589      3637      3638
 -1      1740    8    0    1
 -2       829       931       858      3638      3639      3412
 -1      1741    8    0    1
 -2       747       847       932      3365      3640      3641
 -1      1742    8    0    1
 -2       747       932       860      3641      3642      3418
 -1      1743    8    0    1
 -2       848       749       890      3370      3512      3643
 -1      1744    8    0    1
 -2       842       848       933      3372      3644      3645
 -1      1745    8    0    1
 -2       842       933       861      3645      3646      3421
 -1      1746    8    0    1
 -2       909       922       752      3629      3607      3647
 -1      1747    8    0    1
 -2       890       841       934      3511      3648      3649
 -1      1748    8    0    1
 -2       841       864       934      3432      3650      3648
 -1      1749    8    0    1
 -2       785       784       923      3172      3651      3630
 -1      1750    8    0    1
 -2       761       927       928      3625      3652      3626
 -1      1751    8    0    1
 -2       789       852       930      3514      3653      3636
 -1      1752    8    0    1
 -2       865       925       935      3618      3654      3655
 -1      1753    8    0    1
 -2       851       726       854      3385      3395      3656
 -1      1754    8    0    1
 -2       923       784       889      3651      3509      3657
 -1      1755    8    0    1
 -2       794       793       936      3201      3658      3659
 -1      1756    8    0    1
 -2       863       794       936      3429      3659      3660
 -1      1757    8    0    1
 -2       793       893       936      3521      3661      3658
 -1      1758    8    0    1
 -2       852       757       921      3389      3601      3662
 -1      1759    8    0    1
 -2       853       833       937      3390      3663      3664
 -1      1760    8    0    1
 -2       854       797       938      3393      3665      3666
 -1      1761    8    0    1
 -2       797       919       938      3596      3667      3665
 -1      1762    8    0    1
 -2       798       895       939      3526      3668      3669
 -1      1763    8    0    1
 -2       798       939       832      3669      3670      3316
 -1      1764    8    0    1
 -2       910       820       924      3570      3613      3671
 -1      1765    8    0    1
 -2       838       855       818      3397      3400      3672
 -1      1766    8    0    1
 -2       845       867       940      3440      3673      3674
 -1      1767    8    0    1
 -2       850       742       866      3615      3437      3675
 -1      1768    8    0    1
 -2       845       940       941      3674      3676      3677
 -1      1769    8    0    1
 -2       845       941       857      3677      3678      3580
 -1      1770    8    0    1
 -2       818       819       942      3278      3679      3680
 -1      1771    8    0    1
 -2       919       796       943      3595      3681      3682
 -1      1772    8    0    1
 -2       796       832       943      3315      3683      3681
 -1      1773    8    0    1
 -2       824       825       915      3296      3586      3684
 -1      1774    8    0    1
 -2       915       846       913      3587      3685      3686
 -1      1775    8    0    1
 -2       917       831       944      3591      3687      3688
 -1      1776    8    0    1
 -2       831       862       944      3424      3689      3687
 -1      1777    8    0    1
 -2       824       915       913      3684      3686      3577
 -1      1778    8    0    1
 -2       743       843       925      3351      3690      3616
 -1      1779    8    0    1
 -2       921       830       945      3600      3691      3692
 -1      1780    8    0    1
 -2       830       917       945      3592      3693      3691
 -1      1781    8    0    1
 -2       843       827       946      3352      3694      3695
 -1      1782    8    0    1
 -2       862       744       947      3425      3696      3697
 -1      1783    8    0    1
 -2       744       844       947      3356      3698      3696
 -1      1784    8    0    1
 -2       833       851       948      3384      3699      3700
 -1      1785    8    0    1
 -2       833       948       937      3700      3701      3663
 -1      1786    8    0    1
 -2       788       739       750      3373      3049      3702
 -1      1787    8    0    1
 -2       724       722       849      3077      3443      3703
 -1      1788    8    0    1
 -2       837       724       849      3330      3703      3444
 -1      1789    8    0    1
 -2       866       865       949      3435      3704      3705
 -1      1790    8    0    1
 -2       865       935       949      3655      3706      3704
 -1      1791    8    0    1
 -2       834       838       818      3334      3672      3707
 -1      1792    8    0    1
 -2       756       861       950      3420      3708      3709
 -1      1793    8    0    1
 -2       756       950       859      3709      3710      3415
 -1      1794    8    0    1
 -2       927       836       949      3624      3711      3712
 -1      1795    8    0    1
 -2       827       857       951      3407      3713      3714
 -1      1796    8    0    1
 -2       946       827       951      3694      3714      3715
 -1      1797    8    0    1
 -2       857       941       951      3678      3716      3713
 -1      1798    8    0    1
 -2       846       856       952      3403      3717      3718
 -1      1799    8    0    1
 -2       846       952       913      3718      3719      3685
 -1      1800    8    0    1
 -2       750       852       788      3388      3513      3702
 -1      1801    8    0    1
 -2       839       863       936      3428      3660      3720
 -1      1802    8    0    1
 -2       716       853       867      3392      3721      3441
 -1      1803    8    0    1
 -2       920       839       936      3597      3720      3722
 -1      1804    8    0    1
 -2       819       910       942      3571      3723      3679
 -1      1805    8    0    1
 -2       847       834       942      3366      3724      3725
 -1      1806    8    0    1
 -2       818       942       834      3680      3724      3707
 -1      1807    8    0    1
 -2       949       836       850      3711      3381      3726
 -1      1808    8    0    1
 -2       892       891       953      3519      3727      3728
 -1      1809    8    0    1
 -2       869       868       954      3450      3729      3730
 -1      1810    8    0    1
 -2       867       853       940      3721      3731      3673
 -1      1811    8    0    1
 -2       870       869       955      3453      3732      3733
 -1      1812    8    0    1
 -2       869       954       955      3730      3734      3732
 -1      1813    8    0    1
 -2       871       870       956      3456      3735      3736
 -1      1814    8    0    1
 -2       870       955       956      3733      3737      3735
 -1      1815    8    0    1
 -2       872       871       957      3459      3738      3739
 -1      1816    8    0    1
 -2       871       956       957      3736      3740      3738
 -1      1817    8    0    1
 -2       873       872       958      3462      3741      3742
 -1      1818    8    0    1
 -2       872       957       958      3739      3743      3741
 -1      1819    8    0    1
 -2       874       873       959      3465      3744      3745
 -1      1820    8    0    1
 -2       873       958       959      3742      3746      3744
 -1      1821    8    0    1
 -2       875       874       960      3468      3747      3748
 -1      1822    8    0    1
 -2       874       959       960      3745      3749      3747
 -1      1823    8    0    1
 -2       876       875       961      3471      3750      3751
 -1      1824    8    0    1
 -2       875       960       961      3748      3752      3750
 -1      1825    8    0    1
 -2       877       876       962      3474      3753      3754
 -1      1826    8    0    1
 -2       876       961       962      3751      3755      3753
 -1      1827    8    0    1
 -2       878       877       963      3477      3756      3757
 -1      1828    8    0    1
 -2       877       962       963      3754      3758      3756
 -1      1829    8    0    1
 -2       879       878       964      3480      3759      3760
 -1      1830    8    0    1
 -2       878       963       964      3757      3761      3759
 -1      1831    8    0    1
 -2       880       879       965      3483      3762      3763
 -1      1832    8    0    1
 -2       879       964       965      3760      3764      3762
 -1      1833    8    0    1
 -2       881       880       966      3486      3765      3766
 -1      1834    8    0    1
 -2       880       965       966      3763      3767      3765
 -1      1835    8    0    1
 -2       882       881       967      3489      3768      3769
 -1      1836    8    0    1
 -2       881       966       967      3766      3770      3768
 -1      1837    8    0    1
 -2       883       882       968      3492      3771      3772
 -1      1838    8    0    1
 -2       882       967       968      3769      3773      3771
 -1      1839    8    0    1
 -2       884       883       969      3495      3774      3775
 -1      1840    8    0    1
 -2       883       968       969      3772      3776      3774
 -1      1841    8    0    1
 -2       885       884       970      3498      3777      3778
 -1      1842    8    0    1
 -2       884       969       970      3775      3779      3777
 -1      1843    8    0    1
 -2       886       885       971      3501      3780      3781
 -1      1844    8    0    1
 -2       885       970       971      3778      3782      3780
 -1      1845    8    0    1
 -2       887       886       972      3504      3783      3784
 -1      1846    8    0    1
 -2       886       971       972      3781      3785      3783
 -1      1847    8    0    1
 -2       888       887       973      3507      3786      3787
 -1      1848    8    0    1
 -2       887       972       973      3784      3788      3786
 -1      1849    8    0    1
 -2       889       888       974      3510      3789      3790
 -1      1850    8    0    1
 -2       888       973       974      3787      3791      3789
 -1      1851    8    0    1
 -2       935       925       975      3654      3792      3793
 -1      1852    8    0    1
 -2       925       843       975      3690      3794      3792
 -1      1853    8    0    1
 -2       851       854       976      3656      3795      3796
 -1      1854    8    0    1
 -2       851       976       948      3796      3797      3699
 -1      1855    8    0    1
 -2       936       893       920      3661      3798      3722
 -1      1856    8    0    1
 -2       852       921       930      3662      3799      3653
 -1      1857    8    0    1
 -2       893       892       977      3522      3800      3801
 -1      1858    8    0    1
 -2       892       953       977      3728      3802      3800
 -1      1859    8    0    1
 -2       897       898       978      3535      3803      3804
 -1      1860    8    0    1
 -2       896       897       979      3532      3805      3806
 -1      1861    8    0    1
 -2       897       978       979      3804      3807      3805
 -1      1862    8    0    1
 -2       899       900       980      3541      3808      3809
 -1      1863    8    0    1
 -2       900       901       981      3544      3810      3811
 -1      1864    8    0    1
 -2       900       981       980      3811      3812      3808
 -1      1865    8    0    1
 -2       901       902       982      3547      3813      3814
 -1      1866    8    0    1
 -2       901       982       981      3814      3815      3810
 -1      1867    8    0    1
 -2       902       903       983      3550      3816      3817
 -1      1868    8    0    1
 -2       902       983       982      3817      3818      3813
 -1      1869    8    0    1
 -2       903       904       984      3553      3819      3820
 -1      1870    8    0    1
 -2       903       984       983      3820      3821      3816
 -1      1871    8    0    1
 -2       904       905       985      3556      3822      3823
 -1      1872    8    0    1
 -2       904       985       984      3823      3824      3819
 -1      1873    8    0    1
 -2       905       906       986      3559      3825      3826
 -1      1874    8    0    1
 -2       905       986       985      3826      3827      3822
 -1      1875    8    0    1
 -2       906       907       987      3562      3828      3829
 -1      1876    8    0    1
 -2       906       987       986      3829      3830      3825
 -1      1877    8    0    1
 -2       907       908       988      3565      3831      3832
 -1      1878    8    0    1
 -2       907       988       987      3832      3833      3828
 -1      1879    8    0    1
 -2       908       909       989      3568      3834      3835
 -1      1880    8    0    1
 -2       908       989       988      3835      3836      3831
 -1      1881    8    0    1
 -2       928       927       990      3652      3837      3838
 -1      1882    8    0    1
 -2       912       913       952      3579      3719      3839
 -1      1883    8    0    1
 -2       911       912       991      3576      3840      3841
 -1      1884    8    0    1
 -2       916       914       992      3590      3842      3843
 -1      1885    8    0    1
 -2       853       937       940      3664      3844      3731
 -1      1886    8    0    1
 -2       848       890       993      3643      3845      3846
 -1      1887    8    0    1
 -2       910       924       994      3671      3847      3848
 -1      1888    8    0    1
 -2       856       858       995      3411      3849      3850
 -1      1889    8    0    1
 -2       858       931       995      3639      3851      3849
 -1      1890    8    0    1
 -2       909       752       989      3647      3852      3834
 -1      1891    8    0    1
 -2       920       893       977      3798      3801      3853
 -1      1892    8    0    1
 -2       924       911       996      3614      3854      3855
 -1      1893    8    0    1
 -2       994       924       996      3847      3855      3856
 -1      1894    8    0    1
 -2       911       991       996      3841      3857      3854
 -1      1895    8    0    1
 -2       843       946       975      3695      3858      3794
 -1      1896    8    0    1
 -2       923       889       997      3657      3859      3860
 -1      1897    8    0    1
 -2       864       923       997      3610      3860      3861
 -1      1898    8    0    1
 -2       889       974       997      3790      3862      3859
 -1      1899    8    0    1
 -2       868       928       998      3628      3863      3864
 -1      1900    8    0    1
 -2       868       998       954      3864      3865      3729
 -1      1901    8    0    1
 -2       930       921       945      3799      3692      3866
 -1      1902    8    0    1
 -2       927       949       990      3712      3867      3837
 -1      1903    8    0    1
 -2       891       930       945      3635      3866      3868
 -1      1904    8    0    1
 -2       898       899       999      3538      3869      3870
 -1      1905    8    0    1
 -2       899       980       999      3809      3871      3869
 -1      1906    8    0    1
 -2       895       894      1000      3527      3872      3873
 -1      1907    8    0    1
 -2       949       935       990      3706      3874      3867
 -1      1908    8    0    1
 -2       940       937      1001      3844      3875      3876
 -1      1909    8    0    1
 -2       940      1001       941      3876      3877      3676
 -1      1910    8    0    1
 -2       949       850       866      3726      3675      3705
 -1      1911    8    0    1
 -2       931       916      1002      3637      3878      3879
 -1      1912    8    0    1
 -2       916       992      1002      3843      3880      3878
 -1      1913    8    0    1
 -2       933       848      1003      3644      3881      3882
 -1      1914    8    0    1
 -2       848       993      1003      3846      3883      3881
 -1      1915    8    0    1
 -2       934       864       997      3650      3861      3884
 -1      1916    8    0    1
 -2       861       933      1004      3646      3885      3886
 -1      1917    8    0    1
 -2       861      1004       950      3886      3887      3708
 -1      1918    8    0    1
 -2       976       854       938      3795      3666      3888
 -1      1919    8    0    1
 -2       978       898       999      3803      3870      3889
 -1      1920    8    0    1
 -2       942       910       932      3723      3890      3891
 -1      1921    8    0    1
 -2       939       895      1005      3668      3892      3893
 -1      1922    8    0    1
 -2       895      1000      1005      3873      3894      3892
 -1      1923    8    0    1
 -2       896       979      1006      3806      3895      3896
 -1      1924    8    0    1
 -2       896      1006       926      3896      3897      3622
 -1      1925    8    0    1
 -2       988       989      1007      3836      3898      3899
 -1      1926    8    0    1
 -2       928       990       998      3838      3900      3863
 -1      1927    8    0    1
 -2       920       977       914      3853      3901      3599
 -1      1928    8    0    1
 -2       891       945       953      3868      3902      3727
 -1      1929    8    0    1
 -2       912       952       991      3839      3903      3840
 -1      1930    8    0    1
 -2       943       832       939      3683      3670      3904
 -1      1931    8    0    1
 -2       935       975      1008      3793      3905      3906
 -1      1932    8    0    1
 -2       935      1008       990      3906      3907      3874
 -1      1933    8    0    1
 -2       847       942       932      3725      3891      3640
 -1      1934    8    0    1
 -2       919       943      1009      3682      3908      3909
 -1      1935    8    0    1
 -2       944       862      1010      3689      3910      3911
 -1      1936    8    0    1
 -2       862       947      1010      3697      3912      3910
 -1      1937    8    0    1
 -2       860       932      1011      3642      3913      3914
 -1      1938    8    0    1
 -2       929       860      1011      3633      3914      3915
 -1      1939    8    0    1
 -2       932       910      1011      3890      3916      3913
 -1      1940    8    0    1
 -2       993       890      1012      3845      3917      3918
 -1      1941    8    0    1
 -2       890       934      1012      3649      3919      3917
 -1      1942    8    0    1
 -2       947       844      1013      3698      3920      3921
 -1      1943    8    0    1
 -2       844       929      1013      3632      3922      3920
 -1      1944    8    0    1
 -2       910       994      1011      3848      3923      3916
 -1      1945    8    0    1
 -2       856       995       952      3850      3924      3717
 -1      1946    8    0    1
 -2       945       917      1014      3693      3925      3926
 -1      1947    8    0    1
 -2       945      1014       953      3926      3927      3902
 -1      1948    8    0    1
 -2       946       951      1015      3715      3928      3929
 -1      1949    8    0    1
 -2       938       919      1016      3667      3930      3931
 -1      1950    8    0    1
 -2       919      1009      1016      3909      3932      3930
 -1      1951    8    0    1
 -2       894       926      1017      3621      3933      3934
 -1      1952    8    0    1
 -2       926      1006      1017      3897      3935      3933
 -1      1953    8    0    1
 -2       937       948      1018      3701      3936      3937
 -1      1954    8    0    1
 -2       937      1018      1001      3937      3938      3875
 -1      1955    8    0    1
 -2       975       946      1019      3858      3939      3940
 -1      1956    8    0    1
 -2       975      1019      1008      3940      3941      3905
 -1      1957    8    0    1
 -2      1000       894      1017      3872      3934      3942
 -1      1958    8    0    1
 -2       914       977       992      3901      3943      3842
 -1      1959    8    0    1
 -2      1007       989       950      3898      3944      3945
 -1      1960    8    0    1
 -2       946      1015      1019      3929      3946      3939
 -1      1961    8    0    1
 -2       954       998      1020      3865      3947      3948
 -1      1962    8    0    1
 -2       934       997      1021      3884      3949      3950
 -1      1963    8    0    1
 -2       997       974      1021      3862      3951      3949
 -1      1964    8    0    1
 -2       955       954      1022      3734      3952      3953
 -1      1965    8    0    1
 -2       954      1020      1022      3948      3954      3952
 -1      1966    8    0    1
 -2       956       955      1023      3737      3955      3956
 -1      1967    8    0    1
 -2       955      1022      1023      3953      3957      3955
 -1      1968    8    0    1
 -2       957       956      1024      3740      3958      3959
 -1      1969    8    0    1
 -2       956      1023      1024      3956      3960      3958
 -1      1970    8    0    1
 -2       958       957      1025      3743      3961      3962
 -1      1971    8    0    1
 -2       957      1024      1025      3959      3963      3961
 -1      1972    8    0    1
 -2       959       958      1026      3746      3964      3965
 -1      1973    8    0    1
 -2       958      1025      1026      3962      3966      3964
 -1      1974    8    0    1
 -2       960       959      1027      3749      3967      3968
 -1      1975    8    0    1
 -2       959      1026      1027      3965      3969      3967
 -1      1976    8    0    1
 -2       961       960      1028      3752      3970      3971
 -1      1977    8    0    1
 -2       960      1027      1028      3968      3972      3970
 -1      1978    8    0    1
 -2       962       961      1029      3755      3973      3974
 -1      1979    8    0    1
 -2       961      1028      1029      3971      3975      3973
 -1      1980    8    0    1
 -2       963       962      1030      3758      3976      3977
 -1      1981    8    0    1
 -2       962      1029      1030      3974      3978      3976
 -1      1982    8    0    1
 -2       964       963      1031      3761      3979      3980
 -1      1983    8    0    1
 -2       963      1030      1031      3977      3981      3979
 -1      1984    8    0    1
 -2       965       964      1032      3764      3982      3983
 -1      1985    8    0    1
 -2       964      1031      1032      3980      3984      3982
 -1      1986    8    0    1
 -2       966       965      1033      3767      3985      3986
 -1      1987    8    0    1
 -2       965      1032      1033      3983      3987      3985
 -1      1988    8    0    1
 -2       967       966      1034      3770      3988      3989
 -1      1989    8    0    1
 -2       966      1033      1034      3986      3990      3988
 -1      1990    8    0    1
 -2       968       967      1035      3773      3991      3992
 -1      1991    8    0    1
 -2       967      1034      1035      3989      3993      3991
 -1      1992    8    0    1
 -2       969       968      1036      3776      3994      3995
 -1      1993    8    0    1
 -2       968      1035      1036      3992      3996      3994
 -1      1994    8    0    1
 -2       970       969      1037      3779      3997      3998
 -1      1995    8    0    1
 -2       969      1036      1037      3995      3999      3997
 -1      1996    8    0    1
 -2       971       970      1038      3782      4000      4001
 -1      1997    8    0    1
 -2       970      1037      1038      3998      4002      4000
 -1      1998    8    0    1
 -2       972       971      1039      3785      4003      4004
 -1      1999    8    0    1
 -2       971      1038      1039      4001      4005      4003
 -1      2000    8    0    1
 -2       973       972      1040      3788      4006      4007
 -1      2001    8    0    1
 -2       972      1039      1040      4004      4008      4006
 -1      2002    8    0    1
 -2       974       973      1041      3791      4009      4010
 -1      2003    8    0    1
 -2      1021       974      1041      3951      4010      4011
 -1      2004    8    0    1
 -2       973      1040      1041      4007      4012      4009
 -1      2005    8    0    1
 -2       982       983      1042      3818      4013      4014
 -1      2006    8    0    1
 -2       979       978      1043      3807      4015      4016
 -1      2007    8    0    1
 -2       977       953      1014      3802      3927      4017
 -1      2008    8    0    1
 -2       978       999      1044      3889      4018      4019
 -1      2009    8    0    1
 -2       978      1044      1043      4019      4020      4015
 -1      2010    8    0    1
 -2      1019      1015      1045      3946      4021      4022
 -1      2011    8    0    1
 -2       981       982      1046      3815      4023      4024
 -1      2012    8    0    1
 -2       982      1042      1046      4014      4025      4023
 -1      2013    8    0    1
 -2       980       981      1047      3812      4026      4027
 -1      2014    8    0    1
 -2       981      1046      1047      4024      4028      4026
 -1      2015    8    0    1
 -2       983       984      1048      3821      4029      4030
 -1      2016    8    0    1
 -2       983      1048      1042      4030      4031      4013
 -1      2017    8    0    1
 -2       984       985      1049      3824      4032      4033
 -1      2018    8    0    1
 -2       984      1049      1048      4033      4034      4029
 -1      2019    8    0    1
 -2       985       986      1050      3827      4035      4036
 -1      2020    8    0    1
 -2       985      1050      1049      4036      4037      4032
 -1      2021    8    0    1
 -2       986       987      1051      3830      4038      4039
 -1      2022    8    0    1
 -2       986      1051      1050      4039      4040      4035
 -1      2023    8    0    1
 -2       987       988      1052      3833      4041      4042
 -1      2024    8    0    1
 -2      1051       987      1052      4038      4042      4043
 -1      2025    8    0    1
 -2       988      1007      1052      3899      4044      4041
 -1      2026    8    0    1
 -2       998       990      1053      3900      4045      4046
 -1      2027    8    0    1
 -2      1020       998      1053      3947      4046      4047
 -1      2028    8    0    1
 -2       990      1008      1053      3907      4048      4045
 -1      2029    8    0    1
 -2       943       939      1054      3904      4049      4050
 -1      2030    8    0    1
 -2      1009       943      1054      3908      4050      4051
 -1      2031    8    0    1
 -2       939      1005      1054      3893      4052      4049
 -1      2032    8    0    1
 -2      1000      1017      1055      3942      4053      4054
 -1      2033    8    0    1
 -2       948       976      1056      3797      4055      4056
 -1      2034    8    0    1
 -2       948      1056      1018      4056      4057      3936
 -1      2035    8    0    1
 -2       952       995      1057      3924      4058      4059
 -1      2036    8    0    1
 -2       952      1057       991      4059      4060      3903
 -1      2037    8    0    1
 -2       917       944      1058      3688      4061      4062
 -1      2038    8    0    1
 -2      1014       917      1058      3925      4062      4063
 -1      2039    8    0    1
 -2       944      1010      1058      3911      4064      4061
 -1      2040    8    0    1
 -2       929      1011      1059      3915      4065      4066
 -1      2041    8    0    1
 -2      1013       929      1059      3922      4066      4067
 -1      2042    8    0    1
 -2      1011       994      1059      3923      4068      4065
 -1      2043    8    0    1
 -2       951       941      1060      3716      4069      4070
 -1      2044    8    0    1
 -2      1015       951      1060      3928      4070      4071
 -1      2045    8    0    1
 -2       941      1001      1060      3877      4072      4069
 -1      2046    8    0    1
 -2       976       938      1061      3888      4073      4074
 -1      2047    8    0    1
 -2      1056       976      1061      4055      4074      4075
 -1      2048    8    0    1
 -2       938      1016      1061      3931      4076      4073
 -1      2049    8    0    1
 -2       995       931      1062      3851      4077      4078
 -1      2050    8    0    1
 -2      1057       995      1062      4058      4078      4079
 -1      2051    8    0    1
 -2       931      1002      1062      3879      4080      4077
 -1      2052    8    0    1
 -2       999       980      1063      3871      4081      4082
 -1      2053    8    0    1
 -2       999      1063      1044      4082      4083      4018
 -1      2054    8    0    1
 -2       977      1014       992      4017      4084      3943
 -1      2055    8    0    1
 -2       992      1014      1064      4084      4085      4086
 -1      2056    8    0    1
 -2      1002       992      1064      3880      4086      4087
 -1      2057    8    0    1
 -2      1014      1058      1064      4063      4088      4085
 -1      2058    8    0    1
 -2       934      1021      1012      3950      4089      3919
 -1      2059    8    0    1
 -2      1003       993      1065      3883      4090      4091
 -1      2060    8    0    1
 -2      1004       933      1003      3885      3882      4092
 -1      2061    8    0    1
 -2      1019      1045      1066      4022      4093      4094
 -1      2062    8    0    1
 -2      1005      1000      1067      3894      4095      4096
 -1      2063    8    0    1
 -2      1000      1055      1067      4054      4097      4095
 -1      2064    8    0    1
 -2       979      1043      1068      4016      4098      4099
 -1      2065    8    0    1
 -2       979      1068      1006      4099      4100      3895
 -1      2066    8    0    1
 -2       989       752       859      3852      3414      4101
 -1      2067    8    0    1
 -2       993      1012      1065      3918      4102      4090
 -1      2068    8    0    1
 -2       994       996      1069      3856      4103      4104
 -1      2069    8    0    1
 -2       994      1069      1059      4104      4105      4068
 -1      2070    8    0    1
 -2      1045      1015      1060      4021      4071      4106
 -1      2071    8    0    1
 -2       989       859       950      4101      3710      3944
 -1      2072    8    0    1
 -2      1052      1007      1070      4044      4107      4108
 -1      2073    8    0    1
 -2      1010       947      1071      3912      4109      4110
 -1      2074    8    0    1
 -2       947      1013      1071      3921      4111      4109
 -1      2075    8    0    1
 -2      1019      1066      1008      4094      4112      3941
 -1      2076    8    0    1
 -2      1063       980      1047      4081      4027      4113
 -1      2077    8    0    1
 -2      1060      1001      1072      4072      4114      4115
 -1      2078    8    0    1
 -2      1001      1018      1072      3938      4116      4114
 -1      2079    8    0    1
 -2      1016      1009      1073      3932      4117      4118
 -1      2080    8    0    1
 -2      1009      1054      1074      4051      4119      4120
 -1      2081    8    0    1
 -2      1009      1074      1073      4120      4121      4117
 -1      2082    8    0    1
 -2       996       991      1057      3857      4060      4122
 -1      2083    8    0    1
 -2      1017      1006      1075      3935      4123      4124
 -1      2084    8    0    1
 -2      1055      1017      1075      4053      4124      4125
 -1      2085    8    0    1
 -2      1006      1068      1075      4100      4126      4123
 -1      2086    8    0    1
 -2      1007       950      1004      3945      3887      4127
 -1      2087    8    0    1
 -2      1007      1004      1003      4127      4092      4128
 -1      2088    8    0    1
 -2      1007      1003      1070      4128      4129      4107
 -1      2089    8    0    1
 -2      1070      1003      1065      4129      4091      4130
 -1      2090    8    0    1
 -2      1022      1020      1076      3954      4131      4132
 -1      2091    8    0    1
 -2      1066      1045      1077      4093      4133      4134
 -1      2092    8    0    1
 -2      1023      1022      1078      3957      4135      4136
 -1      2093    8    0    1
 -2      1022      1076      1078      4132      4137      4135
 -1      2094    8    0    1
 -2      1024      1023      1079      3960      4138      4139
 -1      2095    8    0    1
 -2      1023      1078      1079      4136      4140      4138
 -1      2096    8    0    1
 -2      1025      1024      1080      3963      4141      4142
 -1      2097    8    0    1
 -2      1024      1079      1080      4139      4143      4141
 -1      2098    8    0    1
 -2      1026      1025      1081      3966      4144      4145
 -1      2099    8    0    1
 -2      1025      1080      1081      4142      4146      4144
 -1      2100    8    0    1
 -2      1027      1026      1082      3969      4147      4148
 -1      2101    8    0    1
 -2      1026      1081      1082      4145      4149      4147
 -1      2102    8    0    1
 -2      1028      1027      1083      3972      4150      4151
 -1      2103    8    0    1
 -2      1027      1082      1083      4148      4152      4150
 -1      2104    8    0    1
 -2      1029      1028      1084      3975      4153      4154
 -1      2105    8    0    1
 -2      1028      1083      1084      4151      4155      4153
 -1      2106    8    0    1
 -2      1030      1029      1085      3978      4156      4157
 -1      2107    8    0    1
 -2      1029      1084      1085      4154      4158      4156
 -1      2108    8    0    1
 -2      1031      1030      1086      3981      4159      4160
 -1      2109    8    0    1
 -2      1030      1085      1086      4157      4161      4159
 -1      2110    8    0    1
 -2      1032      1031      1087      3984      4162      4163
 -1      2111    8    0    1
 -2      1031      1086      1087      4160      4164      4162
 -1      2112    8    0    1
 -2      1033      1032      1088      3987      4165      4166
 -1      2113    8    0    1
 -2      1032      1087      1088      4163      4167      4165
 -1      2114    8    0    1
 -2      1034      1033      1089      3990      4168      4169
 -1      2115    8    0    1
 -2      1033      1088      1089      4166      4170      4168
 -1      2116    8    0    1
 -2      1035      1034      1090      3993      4171      4172
 -1      2117    8    0    1
 -2      1034      1089      1090      4169      4173      4171
 -1      2118    8    0    1
 -2      1036      1035      1091      3996      4174      4175
 -1      2119    8    0    1
 -2      1035      1090      1091      4172      4176      4174
 -1      2120    8    0    1
 -2      1037      1036      1092      3999      4177      4178
 -1      2121    8    0    1
 -2      1036      1091      1092      4175      4179      4177
 -1      2122    8    0    1
 -2      1038      1037      1093      4002      4180      4181
 -1      2123    8    0    1
 -2      1037      1092      1093      4178      4182      4180
 -1      2124    8    0    1
 -2      1039      1038      1094      4005      4183      4184
 -1      2125    8    0    1
 -2      1038      1093      1094      4181      4185      4183
 -1      2126    8    0    1
 -2      1040      1039      1095      4008      4186      4187
 -1      2127    8    0    1
 -2      1039      1094      1095      4184      4188      4186
 -1      2128    8    0    1
 -2      1044      1063      1096      4083      4189      4190
 -1      2129    8    0    1
 -2      1042      1048      1097      4031      4191      4192
 -1      2130    8    0    1
 -2      1047      1046      1098      4028      4193      4194
 -1      2131    8    0    1
 -2      1049      1050      1099      4037      4195      4196
 -1      2132    8    0    1
 -2      1050      1051      1100      4040      4197      4198
 -1      2133    8    0    1
 -2      1050      1100      1099      4198      4199      4195
 -1      2134    8    0    1
 -2      1051      1052      1101      4043      4200      4201
 -1      2135    8    0    1
 -2      1100      1051      1101      4197      4201      4202
 -1      2136    8    0    1
 -2      1052      1070      1101      4108      4203      4200
 -1      2137    8    0    1
 -2      1018      1056      1102      4057      4204      4205
 -1      2138    8    0    1
 -2      1018      1102      1072      4205      4206      4116
 -1      2139    8    0    1
 -2      1013      1059      1103      4067      4207      4208
 -1      2140    8    0    1
 -2      1071      1013      1103      4111      4208      4209
 -1      2141    8    0    1
 -2      1059      1069      1103      4105      4210      4207
 -1      2142    8    0    1
 -2      1058      1010      1104      4064      4211      4212
 -1      2143    8    0    1
 -2      1064      1058      1104      4088      4212      4213
 -1      2144    8    0    1
 -2      1010      1071      1104      4110      4214      4211
 -1      2145    8    0    1
 -2       996      1057      1069      4122      4215      4103
 -1      2146    8    0    1
 -2      1065      1012      1105      4102      4216      4217
 -1      2147    8    0    1
 -2      1012      1021      1105      4089      4218      4216
 -1      2148    8    0    1
 -2      1045      1060      1072      4106      4115      4219
 -1      2149    8    0    1
 -2      1054      1005      1106      4052      4220      4221
 -1      2150    8    0    1
 -2      1074      1054      1106      4119      4221      4222
 -1      2151    8    0    1
 -2      1005      1067      1106      4096      4223      4220
 -1      2152    8    0    1
 -2      1043      1044      1107      4020      4224      4225
 -1      2153    8    0    1
 -2      1044      1096      1107      4190      4226      4224
 -1      2154    8    0    1
 -2      1016      1073      1108      4118      4227      4228
 -1      2155    8    0    1
 -2      1016      1108      1061      4228      4229      4076
 -1      2156    8    0    1
 -2      1070      1065      1101      4130      4230      4203
 -1      2157    8    0    1
 -2      1046      1042      1109      4025      4231      4232
 -1      2158    8    0    1
 -2      1042      1097      1109      4192      4233      4231
 -1      2159    8    0    1
 -2      1048      1049      1110      4034      4234      4235
 -1      2160    8    0    1
 -2      1097      1048      1110      4191      4235      4236
 -1      2161    8    0    1
 -2      1049      1099      1110      4196      4237      4234
 -1      2162    8    0    1
 -2      1063      1047      1111      4113      4238      4239
 -1      2163    8    0    1
 -2      1047      1098      1111      4194      4240      4238
 -1      2164    8    0    1
 -2      1076      1020      1066      4131      4241      4242
 -1      2165    8    0    1
 -2      1002      1064      1112      4087      4243      4244
 -1      2166    8    0    1
 -2      1062      1002      1112      4080      4244      4245
 -1      2167    8    0    1
 -2      1064      1104      1112      4213      4246      4243
 -1      2168    8    0    1
 -2      1066      1077      1076      4134      4247      4242
 -1      2169    8    0    1
 -2      1096      1063      1111      4189      4239      4248
 -1      2170    8    0    1
 -2      1043      1107      1113      4225      4249      4250
 -1      2171    8    0    1
 -2      1043      1113      1068      4250      4251      4098
 -1      2172    8    0    1
 -2      1077      1045      1072      4133      4219      4252
 -1      2173    8    0    1
 -2      1040      1095      1114      4187      4253      4254
 -1      2174    8    0    1
 -2      1065      1105      1114      4217      4255      4256
 -1      2175    8    0    1
 -2      1046      1109      1098      4232      4257      4193
 -1      2176    8    0    1
 -2      1069      1057      1115      4215      4258      4259
 -1      2177    8    0    1
 -2      1103      1069      1115      4210      4259      4260
 -1      2178    8    0    1
 -2      1057      1062      1115      4079      4261      4258
 -1      2179    8    0    1
 -2      1067      1055      1116      4097      4262      4263
 -1      2180    8    0    1
 -2      1105      1021      1041      4218      4011      4264
 -1      2181    8    0    1
 -2      1073      1074      1117      4121      4265      4266
 -1      2182    8    0    1
 -2      1101      1065      1114      4230      4256      4267
 -1      2183    8    0    1
 -2      1108      1073      1118      4227      4268      4269
 -1      2184    8    0    1
 -2      1073      1117      1118      4266      4270      4268
 -1      2185    8    0    1
 -2      1056      1061      1119      4075      4271      4272
 -1      2186    8    0    1
 -2      1102      1056      1119      4204      4272      4273
 -1      2187    8    0    1
 -2      1061      1108      1119      4229      4274      4271
 -1      2188    8    0    1
 -2      1008      1066      1053      4112      4275      4048
 -1      2189    8    0    1
 -2      1055      1075      1120      4125      4276      4277
 -1      2190    8    0    1
 -2      1055      1120      1116      4277      4278      4262
 -1      2191    8    0    1
 -2      1066      1020      1053      4241      4047      4275
 -1      2192    8    0    1
 -2      1079      1078      1121      4140      4279      4280
 -1      2193    8    0    1
 -2      1080      1079      1117      4143      4281      4282
 -1      2194    8    0    1
 -2      1082      1081      1122      4149      4283      4284
 -1      2195    8    0    1
 -2      1083      1082      1116      4152      4285      4286
 -1      2196    8    0    1
 -2      1084      1083      1120      4155      4287      4288
 -1      2197    8    0    1
 -2      1086      1085      1123      4161      4289      4290
 -1      2198    8    0    1
 -2      1087      1086      1107      4164      4291      4292
 -1      2199    8    0    1
 -2      1088      1087      1096      4167      4293      4294
 -1      2200    8    0    1
 -2      1089      1088      1111      4170      4295      4296
 -1      2201    8    0    1
 -2      1090      1089      1098      4173      4297      4298
 -1      2202    8    0    1
 -2      1091      1090      1109      4176      4299      4300
 -1      2203    8    0    1
 -2      1092      1091      1097      4179      4301      4302
 -1      2204    8    0    1
 -2      1093      1092      1110      4182      4303      4304
 -1      2205    8    0    1
 -2      1094      1093      1099      4185      4305      4306
 -1      2206    8    0    1
 -2      1095      1094      1100      4188      4307      4308
 -1      2207    8    0    1
 -2      1041      1040      1114      4012      4254      4309
 -1      2208    8    0    1
 -2      1114      1095      1101      4253      4310      4267
 -1      2209    8    0    1
 -2      1077      1072      1102      4252      4206      4311
 -1      2210    8    0    1
 -2      1099      1093      1110      4305      4304      4237
 -1      2211    8    0    1
 -2      1098      1109      1090      4257      4299      4298
 -1      2212    8    0    1
 -2      1078      1076      1124      4137      4312      4313
 -1      2213    8    0    1
 -2      1121      1078      1124      4279      4313      4314
 -1      2214    8    0    1
 -2      1076      1077      1124      4247      4315      4312
 -1      2215    8    0    1
 -2      1096      1111      1088      4248      4295      4294
 -1      2216    8    0    1
 -2      1099      1100      1094      4199      4307      4306
 -1      2217    8    0    1
 -2      1107      1096      1087      4226      4293      4292
 -1      2218    8    0    1
 -2      1117      1074      1125      4265      4316      4317
 -1      2219    8    0    1
 -2      1074      1106      1125      4222      4318      4316
 -1      2220    8    0    1
 -2      1077      1102      1124      4311      4319      4315
 -1      2221    8    0    1
 -2      1097      1091      1109      4301      4300      4233
 -1      2222    8    0    1
 -2      1075      1068      1126      4126      4320      4321
 -1      2223    8    0    1
 -2      1068      1113      1126      4251      4322      4320
 -1      2224    8    0    1
 -2      1101      1095      1100      4310      4308      4202
 -1      2225    8    0    1
 -2      1067      1116      1122      4263      4323      4324
 -1      2226    8    0    1
 -2      1116      1082      1122      4285      4284      4323
 -1      2227    8    0    1
 -2      1111      1098      1089      4240      4297      4296
 -1      2228    8    0    1
 -2      1080      1117      1125      4282      4317      4325
 -1      2229    8    0    1
 -2      1083      1116      1120      4286      4278      4287
 -1      2230    8    0    1
 -2      1092      1097      1110      4302      4236      4303
 -1      2231    8    0    1
 -2      1062      1112      1115      4245      4326      4261
 -1      2232    8    0    1
 -2      1081      1080      1125      4146      4325      4327
 -1      2233    8    0    1
 -2      1085      1084      1127      4158      4328      4329
 -1      2234    8    0    1
 -2      1085      1127      1123      4329      4330      4289
 -1      2235    8    0    1
 -2      1041      1114      1105      4309      4255      4264
 -1      2236    8    0    1
 -2      1081      1125      1122      4327      4331      4283
 -1      2237    8    0    1
 -2      1107      1086      1123      4291      4290      4332
 -1      2238    8    0    1
 -2      1071      1103      1115      4209      4260      4333
 -1      2239    8    0    1
 -2      1119      1108      1121      4274      4334      4335
 -1      2240    8    0    1
 -2      1124      1102      1119      4319      4273      4336
 -1      2241    8    0    1
 -2      1120      1075      1126      4276      4321      4337
 -1      2242    8    0    1
 -2      1071      1115      1112      4333      4326      4338
 -1      2243    8    0    1
 -2      1125      1106      1122      4318      4339      4331
 -1      2244    8    0    1
 -2      1127      1084      1120      4328      4288      4340
 -1      2245    8    0    1
 -2      1123      1127      1126      4330      4341      4342
 -1      2246    8    0    1
 -2      1121      1124      1119      4314      4336      4335
 -1      2247    8    0    1
 -2      1104      1071      1112      4214      4338      4246
 -1      2248    8    0    1
 -2      1127      1120      1126      4340      4337      4341
 -1      2249    8    0    1
 -2      1122      1106      1067      4339      4223      4324
 -1      2250    8    0    1
 -2      1117      1079      1118      4281      4343      4270
 -1      2251    8    0    1
 -2      1079      1121      1118      4280      4344      4343
 -1      2252    8    0    1
 -2      1123      1126      1113      4342      4322      4345
 -1      2253    8    0    1
 -2      1113      1107      1123      4249      4332      4345
 -1      2254    8    0    1
 -2      1108      1118      1121      4269      4344      4334
 -3
    1PSTEP                         1           1           1          
  100CL  101 1.000000000        4345                     0    1           1
 -4  DISP        4    1
 -5  D1          1    2    1    0
 -5  D2          1    2    2    0
 -5  D3          1    2    3    0
 -5  ALL         1    2    0    0    1ALL
 -1         1 1.17598E-02-7.08829E-04-5.97722E-14
 -1         2 1.27602E-02-6.70509E-08-6.31761E-14
 -1         3 1.50443E-02 5.44874E-04-1.07825E-13
 -1         4 1.50506E-02-5.50240E-04-1.08887E-13
 -1         5 0.00000E+00 0.00000E+00 0.00000E+00
 -1         6 0.00000E+00 0.00000E+00 0.00000E+00
 -1         7 0.00000E+00 0.00000E+00 0.00000E+00
 -1         8 0.00000E+00 0.00000E+00 0.00000E+00
 -1         9 0.00000E+00 0.00000E+00 0.00000E+00
 -1        10 0.00000E+00 0.00000E+00 0.00000E+00
 -1        11 0.00000E+00 0.00000E+00 0.00000E+00
 -1        12 0.00000E+00 0.00000E+00 0.00000E+00
 -1        13 0.00000E+00 0.00000E+00 0.00000E+00
 -1        14 0.00000E+00 0.00000E+00 0.00000E+00
 -1        15 0.00000E+00 0.00000E+00 0.00000E+00
 -1        16 0.00000E+00 0.00000E+00 0.00000E+00
 -1        17 0.00000E+00 0.00000E+00 0.00000E+00
 -1        18 0.00000E+00 0.00000E+00 0.00000E+00
 -1        19 0.00000E+00 0.00000E+00 0.00000E+00
 -1        20 0.00000E+00 0.00000E+00 0.00000E+00
 -1        21 0.00000E+00 0.00000E+00 0.00000E+00
 -1        22 0.00000E+00 0.00000E+00 0.00000E+00
 -1        23 4.11334E-04-2.60756E-04 3.16553E-17
 -1        24 7.03249E-04-4.01025E-04-2.96902E-17
 -1        25 9.73226E-04-4.98407E-04-1.83342E-16
 -1        26 1.23760E-03-5.67127E-04-4.28748E-16
 -1        27 1.50099E-03-6.16318E-04-7.67151E-16
 -1        28 1.76549E-03-6.51351E-04-1.19822E-15
 -1        29 2.03205E-03-6.75921E-04-1.72460E-15
 -1        30 2.30104E-03-6.92701E-04-2.34567E-15
 -1        31 2.57251E-03-7.03683E-04-3.06091E-15
 -1        32 2.84634E-03-7.10359E-04-3.87291E-15
 -1        33 3.12231E-03-7.13840E-04-4.78106E-15
 -1        34 3.40019E-03-7.14939E-04-5.77838E-15
 -1        35 3.67974E-03-7.14234E-04-6.86790E-15
 -1        36 3.96078E-03-7.12120E-04-8.05112E-15
 -1        37 4.24318E-03-7.08853E-04-9.32940E-15
 -1        38 4.52691E-03-7.04587E-04-1.06994E-14
 -1        39 4.81204E-03-6.99416E-04-1.21597E-14
 -1        40 5.09874E-03-6.93405E-04-1.37147E-14
 -1        41 5.38733E-03-6.86639E-04-1.53643E-14
 -1        42 5.67832E-03-6.79270E-04-1.71061E-14
 -1        43 5.97236E-03-6.71579E-04-1.89436E-14
 -1        44 6.27032E-03-6.64062E-04-2.08714E-14
 -1        45 6.57324E-03-6.57525E-04-2.28895E-14
 -1        46 6.88235E-03-6.53214E-04-2.50083E-14
 -1        47 7.19893E-03-6.52953E-04-2.72231E-14
 -1        48 7.52417E-03-6.59276E-04-2.95292E-14
 -1        49 7.85881E-03-6.75496E-04-3.19292E-14
 -1        50 8.20260E-03-7.05577E-04-3.44306E-14
 -1        51 8.55361E-03-7.53618E-04-3.70216E-14
 -1        52 8.90738E-03-8.22678E-04-3.97098E-14
 -1        53 9.25658E-03-9.12748E-04-4.24883E-14
 -1        54 9.59170E-03-1.01814E-03-4.53555E-14
 -1        55 9.90375E-03-1.12552E-03-4.83151E-14
 -1        56 1.01888E-02-1.21485E-03-5.13579E-14
 -1        57 1.04518E-02-1.26497E-03-5.44874E-14
 -1        58 1.07069E-02-1.26243E-03-5.77008E-14
 -1        59 1.09714E-02-1.20826E-03-6.10018E-14
 -1        60 1.12584E-02-1.11735E-03-6.43873E-14
 -1        61 1.15715E-02-1.01107E-03-6.78388E-14
 -1        62 1.19055E-02-9.08618E-04-7.13497E-14
 -1        63 1.22510E-02-8.22002E-04-7.49327E-14
 -1        64 1.25984E-02-7.55633E-04-7.85782E-14
 -1        65 1.29405E-02-7.08451E-04-8.22853E-14
 -1        66 1.32730E-02-6.76454E-04-8.60398E-14
 -1        67 1.35939E-02-6.54585E-04-8.98249E-14
 -1        68 1.39034E-02-6.37799E-04-9.36341E-14
 -1        69 1.42025E-02-6.21570E-04-9.74625E-14
 -1        70 1.44935E-02-6.02219E-04-1.01306E-13
 -1        71 1.47797E-02-5.77633E-04-1.05179E-13
 -1        72 4.13781E-04 2.61460E-04 5.48437E-17
 -1        73 7.03073E-04 4.03732E-04 3.35256E-17
 -1        74 9.73762E-04 5.00180E-04-6.54418E-17
 -1        75 1.23843E-03 5.68839E-04-2.46331E-16
 -1        76 1.50195E-03 6.18078E-04-5.13925E-16
 -1        77 1.76652E-03 6.53203E-04-8.67948E-16
 -1        78 2.03312E-03 6.77883E-04-1.31007E-15
 -1        79 2.30213E-03 6.94785E-04-1.83748E-15
 -1        80 2.57362E-03 7.05894E-04-2.45489E-15
 -1        81 2.84745E-03 7.12701E-04-3.16816E-15
 -1        82 3.12343E-03 7.16316E-04-3.97680E-15
 -1        83 3.40131E-03 7.17548E-04-4.87813E-15
 -1        84 3.68087E-03 7.16977E-04-5.87341E-15
 -1        85 3.96191E-03 7.14998E-04-6.96837E-15
 -1        86 4.24431E-03 7.11865E-04-8.16882E-15
 -1        87 4.52805E-03 7.07736E-04-9.47734E-15
 -1        88 4.81317E-03 7.02701E-04-1.08908E-14
 -1        89 5.09987E-03 6.96829E-04-1.24076E-14
 -1        90 5.38847E-03 6.90204E-04-1.40321E-14
 -1        91 5.67946E-03 6.82979E-04-1.57558E-14
 -1        92 5.97349E-03 6.75438E-04-1.75759E-14
 -1        93 6.27143E-03 6.68076E-04-1.94875E-14
 -1        94 6.57433E-03 6.61702E-04-2.15004E-14
 -1        95 6.88340E-03 6.57560E-04-2.36012E-14
 -1        96 7.19990E-03 6.57471E-04-2.57953E-14
 -1        97 7.52501E-03 6.63963E-04-2.80896E-14
 -1        98 7.85944E-03 6.80329E-04-3.04801E-14
 -1        99 8.20293E-03 7.10503E-04-3.29529E-14
 -1       100 8.55352E-03 7.58536E-04-3.55134E-14
 -1       101 8.90676E-03 8.27417E-04-3.81675E-14
 -1       102 9.25536E-03 9.17059E-04-4.09203E-14
 -1       103 9.58991E-03 1.02174E-03-4.37744E-14
 -1       104 9.90156E-03 1.12819E-03-4.67168E-14
 -1       105 1.01864E-02 1.21659E-03-4.97561E-14
 -1       106 1.04493E-02 1.26602E-03-5.28940E-14
 -1       107 1.07042E-02 1.26324E-03-5.61459E-14
 -1       108 1.09686E-02 1.20925E-03-5.94975E-14
 -1       109 1.12552E-02 1.11870E-03-6.29584E-14
 -1       110 1.15677E-02 1.01268E-03-6.65082E-14
 -1       111 1.19012E-02 9.10194E-04-7.01284E-14
 -1       112 1.22461E-02 8.23246E-04-7.38095E-14
 -1       113 1.25931E-02 7.56321E-04-7.75478E-14
 -1       114 1.29348E-02 7.08440E-04-8.13412E-14
 -1       115 1.32670E-02 6.75671E-04-8.51523E-14
 -1       116 1.35878E-02 6.53000E-04-8.89534E-14
 -1       117 1.38971E-02 6.35406E-04-9.27456E-14
 -1       118 1.41962E-02 6.18383E-04-9.65493E-14
 -1       119 1.44872E-02 5.98266E-04-1.00380E-13
 -1       120 1.47734E-02 5.72881E-04-1.04206E-13
 -1       121 1.50744E-02 4.60080E-04-1.07941E-13
 -1       122 1.51085E-02 3.76368E-04-1.08069E-13
 -1       123 1.51475E-02 2.97320E-04-1.08191E-13
 -1       124 1.51887E-02 2.25641E-04-1.08318E-13
 -1       125 1.52285E-02 1.62533E-04-1.08432E-13
 -1       126 1.52623E-02 1.08673E-04-1.08540E-13
 -1       127 1.52877E-02 6.08239E-05-1.08621E-13
 -1       128 1.53013E-02 1.76127E-05-1.08684E-13
 -1       129 1.53016E-02-2.39837E-05-1.08746E-13
 -1       130 1.52886E-02-6.72185E-05-1.08773E-13
 -1       131 1.52638E-02-1.15114E-04-1.08816E-13
 -1       132 1.52306E-02-1.69045E-04-1.08868E-13
 -1       133 1.51915E-02-2.32238E-04-1.08911E-13
 -1       134 1.51510E-02-3.04016E-04-1.08919E-13
 -1       135 1.51128E-02-3.83251E-04-1.08909E-13
 -1       136 1.50794E-02-4.66831E-04-1.08900E-13
 -1       137 1.27138E-02 1.70691E-04-6.29455E-14
 -1       138 1.25545E-02 3.50178E-04-6.23101E-14
 -1       139 1.23283E-02 4.97789E-04-6.14556E-14
 -1       140 1.20091E-02 6.33642E-04-6.02868E-14
 -1       141 1.16232E-02 7.41799E-04-5.89035E-14
 -1       142 1.11909E-02 8.15077E-04-5.73968E-14
 -1       143 1.06683E-02 8.52107E-04-5.55950E-14
 -1       144 1.02079E-02 8.40378E-04-5.40581E-14
 -1       145 9.70698E-03 7.79699E-04-5.24032E-14
 -1       146 9.25512E-03 6.73669E-04-5.09307E-14
 -1       147 8.88892E-03 5.36962E-04-4.97607E-14
 -1       148 8.62224E-03 3.83111E-04-4.89229E-14
 -1       149 8.43427E-03 1.95485E-04-4.83569E-14
 -1       150 8.37410E-03 2.63165E-05-4.81998E-14
 -1       151 8.41117E-03-1.51236E-04-4.83605E-14
 -1       152 8.54267E-03-3.18088E-04-4.88249E-14
 -1       153 8.78681E-03-4.84576E-04-4.96544E-14
 -1       154 9.09012E-03-6.18329E-04-5.06824E-14
 -1       155 9.48750E-03-7.34351E-04-5.20286E-14
 -1       156 9.90268E-03-8.08829E-04-5.34363E-14
 -1       157 1.03722E-02-8.48620E-04-5.50269E-14
 -1       158 1.08690E-02-8.44073E-04-5.67272E-14
 -1       159 1.13299E-02-7.96956E-04-5.82901E-14
 -1       160 1.20902E-02-6.04403E-04-6.09172E-14
 -1       161 1.23879E-02-4.65403E-04-6.19535E-14
 -1       162 1.25969E-02-3.14887E-04-6.26712E-14
 -1       163 1.27213E-02-1.55338E-04-6.30838E-14
 -1       164 2.40369E-04-1.25558E-04-1.26886E-17
 -1       165 2.25251E-04-9.46654E-05-2.62648E-17
 -1       166 2.19506E-04-7.28270E-05-3.38440E-17
 -1       167 2.16723E-04-5.51491E-05-3.81368E-17
 -1       168 2.15242E-04-4.00039E-05-4.00206E-17
 -1       169 2.14416E-04-2.59433E-05-4.05797E-17
 -1       170 2.14005E-04-1.26589E-05-4.04170E-17
 -1       171 2.13885E-04 2.72675E-07-3.98817E-17
 -1       172 2.14024E-04 1.32167E-05-3.86247E-17
 -1       173 2.14457E-04 2.65409E-05-3.68154E-17
 -1       174 2.15290E-04 4.04315E-05-3.41219E-17
 -1       175 2.16826E-04 5.59597E-05-2.98562E-17
 -1       176 2.19666E-04 7.38662E-05-2.34052E-17
 -1       177 2.25421E-04 9.60654E-05-1.31426E-17
 -1       178 2.39298E-04 1.27634E-04 3.49994E-18
 -1       179 2.97661E-04 1.85531E-04 2.18772E-17
 -1       180 4.68542E-04-2.63603E-04-3.73304E-17
 -1       181 7.66618E-04-3.82212E-04-1.64077E-16
 -1       182 1.05039E-03-4.65088E-04-3.77661E-16
 -1       183 1.32768E-03-5.23822E-04-6.80947E-16
 -1       184 1.60217E-03-5.65423E-04-1.07457E-15
 -1       185 1.87593E-03-5.94563E-04-1.56020E-15
 -1       186 2.15010E-03-6.14527E-04-2.13938E-15
 -1       187 2.42528E-03-6.27713E-04-2.81097E-15
 -1       188 2.70173E-03-6.35898E-04-3.57601E-15
 -1       189 2.97955E-03-6.40402E-04-4.43583E-15
 -1       190 3.25871E-03-6.42190E-04-5.38806E-15
 -1       191 3.53915E-03-6.41952E-04-6.43072E-15
 -1       192 3.82078E-03-6.40162E-04-7.56707E-15
 -1       193 4.10355E-03-6.37126E-04-8.79615E-15
 -1       194 4.38746E-03-6.33029E-04-1.01177E-14
 -1       195 4.67255E-03-6.27967E-04-1.15292E-14
 -1       196 4.95894E-03-6.21988E-04-1.30339E-14
 -1       197 5.24687E-03-6.15129E-04-1.46326E-14
 -1       198 5.53666E-03-6.07467E-04-1.63243E-14
 -1       199 5.82876E-03-5.99169E-04-1.81105E-14
 -1       200 6.12376E-03-5.90570E-04-1.99927E-14
 -1       201 6.42234E-03-5.82266E-04-2.19654E-14
 -1       202 6.72532E-03-5.75229E-04-2.40338E-14
 -1       203 7.03358E-03-5.70959E-04-2.61992E-14
 -1       204 7.34794E-03-5.71641E-04-2.84567E-14
 -1       205 7.66907E-03-5.80282E-04-3.08071E-14
 -1       206 7.99717E-03-6.00746E-04-3.32502E-14
 -1       207 8.33167E-03-6.37502E-04-3.57897E-14
 -1       208 8.67078E-03-6.94847E-04-3.84227E-14
 -1       209 9.01118E-03-7.75259E-04-4.11495E-14
 -1       210 9.34801E-03-8.76792E-04-4.39663E-14
 -1       211 9.67564E-03-9.90129E-04-4.68722E-14
 -1       212 9.98971E-03-1.09723E-03-4.98663E-14
 -1       213 1.02898E-02-1.17441E-03-5.29475E-14
 -1       214 1.05809E-02-1.20094E-03-5.61189E-14
 -1       215 1.08724E-02-1.16924E-03-5.93790E-14
 -1       216 1.11732E-02-1.08906E-03-6.27225E-14
 -1       217 1.14875E-02-9.82048E-04-6.61425E-14
 -1       218 1.18142E-02-8.71392E-04-6.96248E-14
 -1       219 1.21484E-02-7.73816E-04-7.31719E-14
 -1       220 1.24844E-02-6.97208E-04-7.67890E-14
 -1       221 1.28173E-02-6.42311E-04-8.04624E-14
 -1       222 1.31440E-02-6.05664E-04-8.41812E-14
 -1       223 1.34627E-02-5.82045E-04-8.79446E-14
 -1       224 1.37730E-02-5.65958E-04-9.17356E-14
 -1       225 1.40753E-02-5.52334E-04-9.55537E-14
 -1       226 1.43708E-02-5.36838E-04-9.93892E-14
 -1       227 1.46609E-02-5.16235E-04-1.03250E-13
 -1       228 6.04454E-04 3.31096E-04-1.55888E-17
 -1       229 8.93471E-04 4.32720E-04-1.26255E-16
 -1       230 1.17227E-03 5.04444E-04-3.15950E-16
 -1       231 1.44651E-03 5.55470E-04-5.89467E-16
 -1       232 1.71920E-03 5.91605E-04-9.49121E-16
 -1       233 1.99195E-03 6.16810E-04-1.39576E-15
 -1       234 2.26562E-03 6.33937E-04-1.92966E-15
 -1       235 2.54062E-03 6.45088E-04-2.55193E-15
 -1       236 2.81710E-03 6.51829E-04-3.26683E-15
 -1       237 3.09505E-03 6.55320E-04-4.07546E-15
 -1       238 3.37442E-03 6.56402E-04-4.97622E-15
 -1       239 3.65510E-03 6.55669E-04-5.97079E-15
 -1       240 3.93701E-03 6.53524E-04-7.06435E-15
 -1       241 4.22009E-03 6.50221E-04-8.26004E-15
 -1       242 4.50436E-03 6.45905E-04-9.56097E-15
 -1       243 4.78988E-03 6.40653E-04-1.09648E-14
 -1       244 5.07683E-03 6.34507E-04-1.24731E-14
 -1       245 5.36548E-03 6.27520E-04-1.40850E-14
 -1       246 5.65623E-03 6.19804E-04-1.57957E-14
 -1       247 5.94959E-03 6.11592E-04-1.76066E-14
 -1       248 6.24622E-03 6.03319E-04-1.95121E-14
 -1       249 6.54693E-03 5.95726E-04-2.15171E-14
 -1       250 6.85258E-03 5.89986E-04-2.36103E-14
 -1       251 7.16409E-03 5.87859E-04-2.57947E-14
 -1       252 7.48228E-03 5.91842E-04-2.80784E-14
 -1       253 7.80763E-03 6.05272E-04-3.04565E-14
 -1       254 8.14000E-03 6.32261E-04-3.29220E-14
 -1       255 8.47820E-03 6.77254E-04-3.54745E-14
 -1       256 8.81952E-03 7.43918E-04-3.81190E-14
 -1       257 9.15956E-03 8.33108E-04-4.08570E-14
 -1       258 9.49260E-03 9.40044E-04-4.36951E-14
 -1       259 9.81301E-03 1.05185E-03-4.66262E-14
 -1       260 1.01178E-02 1.14785E-03-4.96555E-14
 -1       261 1.04091E-02 1.20490E-03-5.27843E-14
 -1       262 1.06947E-02 1.20714E-03-5.60212E-14
 -1       263 1.09849E-02 1.15421E-03-5.93569E-14
 -1       264 1.12876E-02 1.06131E-03-6.27938E-14
 -1       265 1.16052E-02 9.51280E-04-6.63206E-14
 -1       266 1.19348E-02 8.44895E-04-6.99258E-14
 -1       267 1.22706E-02 7.55205E-04-7.35973E-14
 -1       268 1.26068E-02 6.86990E-04-7.73266E-14
 -1       269 1.29387E-02 6.39112E-04-8.11029E-14
 -1       270 1.32634E-02 6.07302E-04-8.48997E-14
 -1       271 1.35796E-02 5.86208E-04-8.86979E-14
 -1       272 1.38871E-02 5.70520E-04-9.24869E-14
 -1       273 1.41867E-02 5.55480E-04-9.62879E-14
 -1       274 1.44798E-02 5.37163E-04-1.00109E-13
 -1       275 1.47683E-02 5.13009E-04-1.03935E-13
 -1       276 1.48435E-02 4.45240E-04-1.04696E-13
 -1       277 1.48815E-02 3.65390E-04-1.04811E-13
 -1       278 1.49238E-02 2.90440E-04-1.04924E-13
 -1       279 1.49669E-02 2.21353E-04-1.05034E-13
 -1       280 1.50057E-02 1.59371E-04-1.05131E-13
 -1       281 1.50377E-02 1.01763E-04-1.05220E-13
 -1       282 1.50585E-02 4.83078E-05-1.05295E-13
 -1       283 1.50659E-02-2.91625E-06-1.05358E-13
 -1       284 1.50591E-02-5.41480E-05-1.05403E-13
 -1       285 1.50389E-02-1.07626E-04-1.05442E-13
 -1       286 1.50081E-02-1.64254E-04-1.05476E-13
 -1       287 1.49693E-02-2.27308E-04-1.05506E-13
 -1       288 1.49269E-02-2.96455E-04-1.05526E-13
 -1       289 1.48854E-02-3.71460E-04-1.05529E-13
 -1       290 1.47716E-02-4.42876E-04-1.04390E-13
 -1       291 1.27707E-02 4.59122E-05-6.45060E-14
 -1       292 1.26275E-02 1.37513E-04-6.43776E-14
 -1       293 1.23713E-02 2.90605E-04-6.31075E-14
 -1       294 1.20429E-02 4.50422E-04-6.18934E-14
 -1       295 1.16618E-02 6.27800E-04-6.03693E-14
 -1       296 1.12649E-02 7.87561E-04-5.86821E-14
 -1       297 1.08474E-02 9.11652E-04-5.67489E-14
 -1       298 1.04613E-02 9.23602E-04-5.47157E-14
 -1       299 1.00734E-02 8.55852E-04-5.27928E-14
 -1       300 9.65718E-03 6.91438E-04-5.08513E-14
 -1       301 9.23397E-03 4.89137E-04-4.92694E-14
 -1       302 8.85584E-03 3.05936E-04-4.80797E-14
 -1       303 8.54661E-03 1.53686E-04-4.71758E-14
 -1       304 8.37463E-03 6.06259E-05-4.71459E-14
 -1       305 8.35357E-03-3.08585E-05-4.69960E-14
 -1       306 8.47592E-03-1.36761E-04-4.75124E-14
 -1       307 8.73278E-03-2.53312E-04-4.80499E-14
 -1       308 9.06096E-03-4.33739E-04-4.93211E-14
 -1       309 9.45512E-03-6.07315E-04-5.05912E-14
 -1       310 9.83430E-03-7.76809E-04-5.22738E-14
 -1       311 1.02192E-02-8.92049E-04-5.40019E-14
 -1       312 1.06079E-02-9.38101E-04-5.59650E-14
 -1       313 1.10032E-02-8.70287E-04-5.78697E-14
 -1       314 1.13843E-02-7.39108E-04-5.97669E-14
 -1       315 1.17723E-02-5.77275E-04-6.12396E-14
 -1       316 1.21139E-02-4.00585E-04-6.26923E-14
 -1       317 1.24340E-02-2.52570E-04-6.36742E-14
 -1       318 1.26604E-02-1.37348E-04-6.42659E-14
 -1       319 1.27739E-02-4.21615E-05-6.45740E-14
 -1       320 4.55359E-04-1.64891E-04-1.18998E-16
 -1       321 4.74195E-04-2.13058E-04-9.64228E-17
 -1       322 4.40477E-04-9.40891E-05-1.40167E-16
 -1       323 4.37544E-04-6.49684E-05-1.43691E-16
 -1       324 4.35942E-04-3.79407E-05-1.44565E-16
 -1       325 4.35241E-04-1.20294E-05-1.43623E-16
 -1       326 4.35272E-04 1.35476E-05-1.41106E-16
 -1       327 4.36039E-04 3.95163E-05-1.36643E-16
 -1       328 4.37685E-04 6.61922E-05-1.29840E-16
 -1       329 4.40716E-04 9.54827E-05-1.20140E-16
 -1       330 4.46073E-04 1.28406E-04-1.06326E-16
 -1       331 4.55868E-04 1.67387E-04-8.60382E-17
 -1       332 4.75823E-04 2.17120E-04-5.66428E-17
 -1       333 5.31925E-04 2.70040E-04-4.07423E-17
 -1       334 8.24343E-04 3.73585E-04-1.58321E-16
 -1       335 8.63130E-04-3.57484E-04-3.16014E-16
 -1       336 1.14943E-03-4.26221E-04-5.86404E-16
 -1       337 1.43214E-03-4.75328E-04-9.44777E-16
 -1       338 1.71279E-03-5.09944E-04-1.39185E-15
 -1       339 1.99249E-03-5.33850E-04-1.93002E-15
 -1       340 2.27202E-03-5.49843E-04-2.55980E-15
 -1       341 2.55184E-03-5.60010E-04-3.28052E-15
 -1       342 2.83224E-03-5.65900E-04-4.09322E-15
 -1       343 3.11334E-03-5.68655E-04-4.99930E-15
 -1       344 3.39521E-03-5.69099E-04-5.99644E-15
 -1       345 3.67786E-03-5.67805E-04-7.08469E-15
 -1       346 3.96130E-03-5.65150E-04-8.26713E-15
 -1       347 4.24555E-03-5.61366E-04-9.54150E-15
 -1       348 4.53063E-03-5.56573E-04-1.09048E-14
 -1       349 4.81665E-03-5.50824E-04-1.23580E-14
 -1       350 5.10373E-03-5.44135E-04-1.39050E-14
 -1       351 5.39207E-03-5.36534E-04-1.55478E-14
 -1       352 5.68196E-03-5.28107E-04-1.72837E-14
 -1       353 5.97374E-03-5.19062E-04-1.91170E-14
 -1       354 6.26786E-03-5.09810E-04-2.10429E-14
 -1       355 6.56483E-03-5.01072E-04-2.30624E-14
 -1       356 6.86527E-03-4.94005E-04-2.51793E-14
 -1       357 7.16986E-03-4.90368E-04-2.73885E-14
 -1       358 7.47930E-03-4.92676E-04-2.96892E-14
 -1       359 7.79432E-03-5.04332E-04-3.20813E-14
 -1       360 8.11553E-03-5.29610E-04-3.45689E-14
 -1       361 8.44323E-03-5.73308E-04-3.71489E-14
 -1       362 8.77704E-03-6.39752E-04-3.98209E-14
 -1       363 9.11523E-03-7.30791E-04-4.25844E-14
 -1       364 9.45412E-03-8.42594E-04-4.54368E-14
 -1       365 9.78826E-03-9.62044E-04-4.83831E-14
 -1       366 1.01127E-02-1.06569E-03-5.14163E-14
 -1       367 1.04271E-02-1.12554E-03-5.45393E-14
 -1       368 1.07373E-02-1.12237E-03-5.77523E-14
 -1       369 1.10523E-02-1.05773E-03-6.10559E-14
 -1       370 1.13772E-02-9.52789E-04-6.44443E-14
 -1       371 1.17108E-02-8.35476E-04-6.78993E-14
 -1       372 1.20478E-02-7.27862E-04-7.14175E-14
 -1       373 1.23828E-02-6.41406E-04-7.50023E-14
 -1       374 1.27123E-02-5.78617E-04-7.86481E-14
 -1       375 1.30348E-02-5.36646E-04-8.23427E-14
 -1       376 1.33498E-02-5.10301E-04-8.60736E-14
 -1       377 1.36579E-02-4.93874E-04-8.98433E-14
 -1       378 1.39595E-02-4.82001E-04-9.36473E-14
 -1       379 1.42554E-02-4.69988E-04-9.74702E-14
 -1       380 1.45149E-02-4.59165E-04-1.00918E-13
 -1       381 1.10975E-03 4.47887E-04-3.52691E-16
 -1       382 1.39042E-03 5.00894E-04-6.28847E-16
 -1       383 1.66865E-03 5.38399E-04-9.89694E-16
 -1       384 1.94595E-03 5.64507E-04-1.43738E-15
 -1       385 2.22327E-03 5.82202E-04-1.97187E-15
 -1       386 2.50116E-03 5.93692E-04-2.59423E-15
 -1       387 2.77990E-03 6.00619E-04-3.30759E-15
 -1       388 3.05961E-03 6.04196E-04-4.11332E-15
 -1       389 3.34033E-03 6.05302E-04-5.01016E-15
 -1       390 3.62205E-03 6.04556E-04-6.00036E-15
 -1       391 3.90473E-03 6.02377E-04-7.08898E-15
 -1       392 4.18837E-03 5.99024E-04-8.27678E-15
 -1       393 4.47299E-03 5.94645E-04-9.56756E-15
 -1       394 4.75867E-03 5.89307E-04-1.09616E-14
 -1       395 5.04556E-03 5.83042E-04-1.24578E-14
 -1       396 5.33386E-03 5.75880E-04-1.40567E-14
 -1       397 5.62389E-03 5.67904E-04-1.57557E-14
 -1       398 5.91606E-03 5.59304E-04-1.75551E-14
 -1       399 6.21086E-03 5.50464E-04-1.94516E-14
 -1       400 6.50891E-03 5.42053E-04-2.14444E-14
 -1       401 6.81088E-03 5.35161E-04-2.35291E-14
 -1       402 7.11753E-03 5.31446E-04-2.57028E-14
 -1       403 7.42956E-03 5.33300E-04-2.79731E-14
 -1       404 7.74757E-03 5.43972E-04-3.03399E-14
 -1       405 8.07187E-03 5.67567E-04-3.27946E-14
 -1       406 8.40220E-03 6.08711E-04-3.53364E-14
 -1       407 8.73739E-03 6.71614E-04-3.79681E-14
 -1       408 9.07498E-03 7.58176E-04-4.06939E-14
 -1       409 9.41094E-03 8.65117E-04-4.35163E-14
 -1       410 9.74025E-03 9.80886E-04-4.64323E-14
 -1       411 1.00588E-02 1.08472E-03-4.94465E-14
 -1       412 1.03664E-02 1.15115E-03-5.25614E-14
 -1       413 1.06683E-02 1.16061E-03-5.57820E-14
 -1       414 1.09731E-02 1.11037E-03-5.91041E-14
 -1       415 1.12874E-02 1.01610E-03-6.25252E-14
 -1       416 1.16124E-02 9.02756E-04-6.60314E-14
 -1       417 1.19446E-02 7.93072E-04-6.96202E-14
 -1       418 1.22791E-02 7.01025E-04-7.32824E-14
 -1       419 1.26112E-02 6.31558E-04-7.70039E-14
 -1       420 1.29380E-02 5.83367E-04-8.07658E-14
 -1       421 1.32578E-02 5.51963E-04-8.45535E-14
 -1       422 1.35702E-02 5.31808E-04-8.83418E-14
 -1       423 1.38754E-02 5.17451E-04-9.21289E-14
 -1       424 1.41740E-02 5.04018E-04-9.59276E-14
 -1       425 1.44671E-02 4.87447E-04-9.97448E-14
 -1       426 1.46560E-02 4.67775E-04-1.02221E-13
 -1       427 1.47016E-02 2.74060E-04-1.01652E-13
 -1       428 1.46561E-02 3.47736E-04-1.01547E-13
 -1       429 1.46542E-02 4.06617E-04-1.01886E-13
 -1       430 1.47449E-02 2.06558E-04-1.01747E-13
 -1       431 1.47831E-02 1.42655E-04-1.01834E-13
 -1       432 1.48114E-02 8.27551E-05-1.01907E-13
 -1       433 1.48265E-02 2.55174E-05-1.01975E-13
 -1       434 1.48268E-02-3.07875E-05-1.02031E-13
 -1       435 1.48122E-02-8.80320E-05-1.02076E-13
 -1       436 1.47852E-02-1.46904E-04-1.02110E-13
 -1       437 1.47477E-02-2.10756E-04-1.02132E-13
 -1       438 1.47043E-02-2.79418E-04-1.02152E-13
 -1       439 1.46596E-02-3.53130E-04-1.02163E-13
 -1       440 1.24648E-02 1.67682E-04-6.49926E-14
 -1       441 1.28074E-02 9.51530E-07-6.63897E-14
 -1       442 1.27416E-02 4.97414E-05-6.62591E-14
 -1       443 1.21655E-02 3.02765E-04-6.37791E-14
 -1       444 1.17858E-02 4.92004E-04-6.21567E-14
 -1       445 4.45684E-04-1.26499E-04-1.32493E-16
 -1       446 1.10484E-02 8.56814E-04-5.84568E-14
 -1       447 1.06054E-02 9.63876E-04-5.54584E-14
 -1       448 1.03071E-02 9.31507E-04-5.35183E-14
 -1       449 9.94220E-03 7.94167E-04-5.12814E-14
 -1       450 9.50325E-03 5.60830E-04-4.90568E-14
 -1       451 9.08040E-03 3.43826E-04-4.75638E-14
 -1       452 8.71053E-03 1.71848E-04-4.62486E-14
 -1       453 8.40633E-03 5.51465E-05-4.56242E-14
 -1       454 8.32607E-03 9.48455E-06-4.54776E-14
 -1       455 8.39584E-03-5.04841E-05-4.58709E-14
 -1       456 8.58029E-03-1.23851E-04-4.63898E-14
 -1       457 8.96852E-03-2.89896E-04-4.75788E-14
 -1       458 9.29457E-03-4.53254E-04-4.88074E-14
 -1       459 9.74010E-03-6.92623E-04-5.08330E-14
 -1       460 1.00466E-02-8.41747E-04-5.25215E-14
 -1       461 1.04045E-02-9.50669E-04-5.47233E-14
 -1       462 1.08175E-02-9.34712E-04-5.74800E-14
 -1       463 1.11163E-02-8.28328E-04-5.93712E-14
 -1       464 1.15330E-02-6.23377E-04-6.14940E-14
 -1       465 1.18547E-02-4.54706E-04-6.29508E-14
 -1       466 1.22560E-02-2.50091E-04-6.48337E-14
 -1       467 1.25563E-02-1.30787E-04-6.55182E-14
 -1       468 1.27401E-02-5.38170E-05-6.60378E-14
 -1       469 1.14037E-02 6.89290E-04-6.03619E-14
 -1       470 1.26404E-02 8.40859E-05-6.68700E-14
 -1       471 1.08246E-02 9.41931E-04-5.71380E-14
 -1       472 1.06191E-02-9.76520E-04-5.62190E-14
 -1       473 9.31131E-04 3.46120E-04-3.10600E-16
 -1       474 6.65962E-04-7.51894E-05-3.10705E-16
 -1       475 6.69889E-04-1.15972E-04-3.06650E-16
 -1       476 6.63323E-04 1.10454E-06-3.07422E-16
 -1       477 6.64035E-04 3.87946E-05-3.00744E-16
 -1       478 6.66147E-04 7.68741E-05-2.90153E-16
 -1       479 6.70199E-04 1.17808E-04-2.75065E-16
 -1       480 6.77161E-04 1.62445E-04-2.54032E-16
 -1       481 6.89009E-04 2.12819E-04-2.24765E-16
 -1       482 1.21697E-03 4.06573E-04-5.63158E-16
 -1       483 9.76202E-04-3.28712E-04-4.86302E-16
 -1       484 1.12621E-02 7.60413E-04-6.05255E-14
 -1       485 1.26208E-03-3.83555E-04-8.10268E-16
 -1       486 1.54707E-03-4.23217E-04-1.22117E-15
 -1       487 1.83117E-03-4.51125E-04-1.71988E-15
 -1       488 2.11468E-03-4.70159E-04-2.30821E-15
 -1       489 2.39794E-03-4.82581E-04-2.98619E-15
 -1       490 2.68118E-03-4.90126E-04-3.75464E-15
 -1       491 2.96460E-03-4.94092E-04-4.61397E-15
 -1       492 3.24828E-03-4.95435E-04-5.56479E-15
 -1       493 3.53231E-03-4.94831E-04-6.60688E-15
 -1       494 3.81673E-03-4.92738E-04-7.74101E-15
 -1       495 4.10155E-03-4.89446E-04-8.96762E-15
 -1       496 4.38682E-03-4.85118E-04-1.02833E-14
 -1       497 4.67260E-03-4.79824E-04-1.16867E-14
 -1       498 4.95893E-03-4.73584E-04-1.31839E-14
 -1       499 5.24594E-03-4.66400E-04-1.47755E-14
 -1       500 5.53374E-03-4.58304E-04-1.64628E-14
 -1       501 5.82252E-03-4.49406E-04-1.82465E-14
 -1       502 6.11250E-03-4.39964E-04-2.01253E-14
 -1       503 6.40398E-03-4.30465E-04-2.20979E-14
 -1       504 6.69732E-03-4.21736E-04-2.41655E-14
 -1       505 6.99304E-03-4.15070E-04-2.63256E-14
 -1       506 7.29182E-03-4.12381E-04-2.85780E-14
 -1       507 7.59461E-03-4.16359E-04-3.09229E-14
 -1       508 7.90275E-03-4.30599E-04-3.33587E-14
 -1       509 8.21798E-03-4.59625E-04-3.58873E-14
 -1       510 8.54226E-03-5.08623E-04-3.85066E-14
 -1       511 8.87706E-03-5.82501E-04-4.12164E-14
 -1       512 9.22188E-03-6.83650E-04-4.40145E-14
 -1       513 9.57225E-03-8.07393E-04-4.69050E-14
 -1       514 9.91972E-03-9.35836E-04-4.98870E-14
 -1       515 1.02565E-02-1.03606E-03-5.29594E-14
 -1       516 1.05834E-02-1.07187E-03-5.61275E-14
 -1       517 1.09111E-02-1.02841E-03-5.93862E-14
 -1       518 1.12491E-02-9.24689E-04-6.27384E-14
 -1       519 1.15968E-02-7.97659E-04-6.61663E-14
 -1       520 1.19459E-02-6.78455E-04-6.96615E-14
 -1       521 1.22882E-02-5.82674E-04-7.32171E-14
 -1       522 1.26198E-02-5.13426E-04-7.68326E-14
 -1       523 1.29407E-02-4.67403E-04-8.05036E-14
 -1       524 1.32522E-02-4.38972E-04-8.42120E-14
 -1       525 1.35564E-02-4.22226E-04-8.79596E-14
 -1       526 1.38549E-02-4.11740E-04-9.17388E-14
 -1       527 1.41487E-02-4.02777E-04-9.55486E-14
 -1       528 1.78373E-03 4.80919E-04-1.31689E-15
 -1       529 2.06567E-03 5.02051E-04-1.82261E-15
 -1       530 2.34738E-03 5.16040E-04-2.41397E-15
 -1       531 2.62919E-03 5.24763E-04-3.09390E-15
 -1       532 2.91133E-03 5.29623E-04-3.86465E-15
 -1       533 3.19393E-03 5.31651E-04-4.72645E-15
 -1       534 3.47706E-03 5.31584E-04-5.67963E-15
 -1       535 3.76074E-03 5.29928E-04-6.72650E-15
 -1       536 4.04500E-03 5.27008E-04-7.87081E-15
 -1       537 4.32988E-03 5.23012E-04-9.11489E-15
 -1       538 4.61542E-03 5.18034E-04-1.04608E-14
 -1       539 4.90172E-03 5.12104E-04-1.19075E-14
 -1       540 5.18888E-03 5.05231E-04-1.34554E-14
 -1       541 5.47708E-03 4.97445E-04-1.51035E-14
 -1       542 5.76655E-03 4.88846E-04-1.68537E-14
 -1       543 6.05758E-03 4.79676E-04-1.87021E-14
 -1       544 6.35052E-03 4.70397E-04-2.06467E-14
 -1       545 6.64582E-03 4.61802E-04-2.26837E-14
 -1       546 6.94401E-03 4.55148E-04-2.48126E-14
 -1       547 7.24576E-03 4.52310E-04-2.70346E-14
 -1       548 7.55187E-03 4.55939E-04-2.93508E-14
 -1       549 7.86334E-03 4.69577E-04-3.17617E-14
 -1       550 8.18131E-03 4.97640E-04-3.42594E-14
 -1       551 8.50688E-03 5.45064E-04-3.68434E-14
 -1       552 8.84056E-03 6.16276E-04-3.95217E-14
 -1       553 9.18122E-03 7.12958E-04-4.22906E-14
 -1       554 9.52492E-03 8.30373E-04-4.51511E-14
 -1       555 9.86494E-03 9.52834E-04-4.81093E-14
 -1       556 1.01952E-02 1.05266E-03-5.11670E-14
 -1       557 1.05157E-02 1.09855E-03-5.43268E-14
 -1       558 1.08346E-02 1.07353E-03-5.75963E-14
 -1       559 1.11612E-02 9.87614E-04-6.09662E-14
 -1       560 1.14981E-02 8.70005E-04-6.44232E-14
 -1       561 1.18402E-02 7.50638E-04-6.79662E-14
 -1       562 1.21805E-02 6.48562E-04-7.15865E-14
 -1       563 1.25141E-02 5.70868E-04-7.52743E-14
 -1       564 1.28391E-02 5.16794E-04-7.90082E-14
 -1       565 1.31556E-02 4.81831E-04-8.27742E-14
 -1       566 1.34646E-02 4.60294E-04-8.65525E-14
 -1       567 1.37671E-02 4.46580E-04-9.03308E-14
 -1       568 1.40643E-02 4.35645E-04-9.41208E-14
 -1       569 1.43568E-02 4.23130E-04-9.79326E-14
 -1       570 1.45247E-02 1.82353E-04-9.84605E-14
 -1       571 1.45609E-02 1.17968E-04-9.85350E-14
 -1       572 1.44324E-02 3.23167E-04-9.82833E-14
 -1       573 1.44804E-02 2.50434E-04-9.83758E-14
 -1       574 1.45846E-02 5.69011E-05-9.86020E-14
 -1       575 1.45930E-02-2.34620E-06-9.86601E-14
 -1       576 1.45852E-02-6.15919E-05-9.87116E-14
 -1       577 1.45626E-02-1.21601E-04-9.87514E-14
 -1       578 1.45272E-02-1.85926E-04-9.87774E-14
 -1       579 1.44832E-02-2.54549E-04-9.87942E-14
 -1       580 1.44355E-02-3.27894E-04-9.88094E-14
 -1       581 1.23216E-02 2.07275E-04-6.59001E-14
 -1       582 1.28151E-02-2.00610E-05-6.80397E-14
 -1       583 1.50103E-03 4.50164E-04-8.97645E-16
 -1       584 1.28258E-02 1.62397E-05-6.82757E-14
 -1       585 1.26879E-02-6.81518E-05-6.76585E-14
 -1       586 7.12589E-04-2.51830E-04-2.70946E-16
 -1       587 1.19716E-02 3.71500E-04-6.42644E-14
 -1       588 1.02386E-02-9.24022E-04-5.33256E-14
 -1       589 8.48837E-03 8.48395E-05-4.42240E-14
 -1       590 6.63923E-04-3.65501E-05-3.10864E-16
 -1       591 9.74447E-03 6.92967E-04-4.93746E-14
 -1       592 1.04557E-02 9.76231E-04-5.42828E-14
 -1       593 1.01497E-02 8.92443E-04-5.20256E-14
 -1       594 9.26987E-03 4.29084E-04-4.71674E-14
 -1       595 8.89118E-03 2.42746E-04-4.56616E-14
 -1       596 8.32284E-03 2.37399E-05-4.41932E-14
 -1       597 8.30031E-03-1.44655E-05-4.39511E-14
 -1       598 8.44567E-03-6.55757E-05-4.46730E-14
 -1       599 8.72645E-03-1.72078E-04-4.52931E-14
 -1       600 9.12647E-03-3.53256E-04-4.70125E-14
 -1       601 9.53237E-03-5.70553E-04-4.89593E-14
 -1       602 9.92122E-03-7.86603E-04-5.10763E-14
 -1       603 1.24633E-02-1.50489E-04-6.69559E-14
 -1       604 1.09600E-02-9.01131E-04-5.89085E-14
 -1       605 1.13331E-02-7.20640E-04-6.14856E-14
 -1       606 1.16856E-02-5.24324E-04-6.34253E-14
 -1       607 1.20612E-02-3.27962E-04-6.53154E-14
 -1       608 7.03715E-04 2.90984E-04-1.57338E-16
 -1       609 1.15691E-02 5.88448E-04-6.23318E-14
 -1       610 6.76632E-04-1.60218E-04-2.97007E-16
 -1       611 1.25365E-02 1.27285E-04-6.77782E-14
 -1       612 1.43442E-02-3.97059E-04-9.81407E-14
 -1       613 1.27811E-02 4.23255E-05-6.88871E-14
 -1       614 1.07767E-02-9.67652E-04-5.76275E-14
 -1       615 8.61343E-03 1.46797E-04-4.36418E-14
 -1       616 1.23068E-02-2.26699E-04-6.74314E-14
 -1       617 1.04392E-02-9.84361E-04-5.47943E-14
 -1       618 1.10505E-02 8.73833E-04-5.91744E-14
 -1       619 1.06620E-02 9.89495E-04-5.59369E-14
 -1       620 9.49421E-03 5.71952E-04-4.74684E-14
 -1       621 8.99980E-04 7.41557E-05-5.14732E-16
 -1       622 8.97915E-04 2.51937E-05-5.28586E-16
 -1       623 9.11931E-04 1.78336E-04-4.67820E-16
 -1       624 9.24228E-04 2.36923E-04-4.30923E-16
 -1       625 1.04883E-03 3.14014E-04-4.86529E-16
 -1       626 1.14854E-02 6.66179E-04-6.27296E-14
 -1       627 1.33455E-03 3.61607E-04-7.95205E-16
 -1       628 9.95790E-03 8.29017E-04-5.01889E-14
 -1       629 1.38327E-03-3.37077E-04-1.04970E-15
 -1       630 1.66947E-03-3.67883E-04-1.51009E-15
 -1       631 1.95569E-03-3.89483E-04-2.05791E-15
 -1       632 2.24174E-03-4.04006E-04-2.69358E-15
 -1       633 2.52761E-03-4.13210E-04-3.41858E-15
 -1       634 2.81334E-03-4.18476E-04-4.23283E-15
 -1       635 3.09899E-03-4.20845E-04-5.13746E-15
 -1       636 3.38461E-03-4.21077E-04-6.13181E-15
 -1       637 3.67024E-03-4.19705E-04-7.21856E-15
 -1       638 3.95589E-03-4.17075E-04-8.39697E-15
 -1       639 4.24160E-03-4.13397E-04-9.66632E-15
 -1       640 4.52738E-03-4.08775E-04-1.10229E-14
 -1       641 4.81325E-03-4.03241E-04-1.24686E-14
 -1       642 5.09922E-03-3.96797E-04-1.40104E-14
 -1       643 5.38533E-03-3.89440E-04-1.56485E-14
 -1       644 5.67161E-03-3.81216E-04-1.73821E-14
 -1       645 5.95810E-03-3.72263E-04-1.92136E-14
 -1       646 6.24490E-03-3.62877E-04-2.11385E-14
 -1       647 6.53215E-03-3.53588E-04-2.31561E-14
 -1       648 6.82012E-03-3.45261E-04-2.52674E-14
 -1       649 7.10930E-03-3.39201E-04-2.74701E-14
 -1       650 7.40053E-03-3.37291E-04-2.97682E-14
 -1       651 7.69522E-03-3.42151E-04-3.21578E-14
 -1       652 7.99563E-03-3.57333E-04-3.46374E-14
 -1       653 8.30508E-03-3.87577E-04-3.72057E-14
 -1       654 8.62773E-03-4.38970E-04-3.98629E-14
 -1       655 8.96751E-03-5.18570E-04-4.26086E-14
 -1       656 9.32512E-03-6.31761E-04-4.54402E-14
 -1       657 9.69396E-03-7.74551E-04-4.83638E-14
 -1       658 1.00602E-02-9.19621E-04-5.13818E-14
 -1       659 1.07577E-02-1.00799E-03-5.77185E-14
 -1       660 1.11118E-02-9.07182E-04-6.10298E-14
 -1       661 1.14789E-02-7.62752E-04-6.44257E-14
 -1       662 1.18463E-02-6.25300E-04-6.78961E-14
 -1       663 1.22015E-02-5.18552E-04-7.14282E-14
 -1       664 1.25386E-02-4.44413E-04-7.50185E-14
 -1       665 1.28591E-02-3.96759E-04-7.86634E-14
 -1       666 1.31669E-02-3.68161E-04-8.23559E-14
 -1       667 1.34659E-02-3.52113E-04-8.60825E-14
 -1       668 1.37594E-02-3.43224E-04-8.98393E-14
 -1       669 1.40491E-02-3.37023E-04-9.36290E-14
 -1       670 2.19056E-03 4.36950E-04-2.22372E-15
 -1       671 8.31272E-03-3.93447E-05-4.28180E-14
 -1       672 1.90557E-03 4.20459E-04-1.66161E-15
 -1       673 2.76002E-03 4.53895E-04-3.60724E-15
 -1       674 3.04474E-03 4.57025E-04-4.43369E-15
 -1       675 3.32955E-03 4.57815E-04-5.35028E-15
 -1       676 3.61452E-03 4.56859E-04-6.35906E-15
 -1       677 3.89967E-03 4.54549E-04-7.46233E-15
 -1       678 4.18504E-03 4.51126E-04-8.66213E-15
 -1       679 4.47067E-03 4.46718E-04-9.96187E-15
 -1       680 4.75657E-03 4.41373E-04-1.13611E-14
 -1       681 5.04281E-03 4.35097E-04-1.28601E-14
 -1       682 5.32944E-03 4.27892E-04-1.44595E-14
 -1       683 5.61655E-03 4.19797E-04-1.61580E-14
 -1       684 5.90425E-03 4.10942E-04-1.79575E-14
 -1       685 6.19270E-03 4.01613E-04-1.98529E-14
 -1       686 6.48210E-03 3.92336E-04-2.18415E-14
 -1       687 6.77279E-03 3.83980E-04-2.39229E-14
 -1       688 7.06525E-03 3.77874E-04-2.60977E-14
 -1       689 7.36027E-03 3.75958E-04-2.83677E-14
 -1       690 7.65904E-03 3.80930E-04-3.07313E-14
 -1       691 7.96340E-03 3.96403E-04-3.31837E-14
 -1       692 8.27589E-03 4.27005E-04-3.57244E-14
 -1       693 8.59959E-03 4.78327E-04-3.83528E-14
 -1       694 8.93703E-03 5.56116E-04-4.10735E-14
 -1       695 9.28813E-03 6.63590E-04-4.38811E-14
 -1       696 9.64731E-03 7.95994E-04-4.67844E-14
 -1       697 1.00029E-02 9.30572E-04-4.97832E-14
 -1       698 1.03468E-02 1.02532E-03-5.28806E-14
 -1       699 1.06811E-02 1.03879E-03-5.60912E-14
 -1       700 1.10210E-02 9.65248E-04-5.94097E-14
 -1       701 1.13737E-02 8.38836E-04-6.28236E-14
 -1       702 1.17329E-02 7.04212E-04-6.63220E-14
 -1       703 1.20864E-02 5.90238E-04-6.99057E-14
 -1       704 1.24271E-02 5.05387E-04-7.35534E-14
 -1       705 1.27534E-02 4.47552E-04-7.72551E-14
 -1       706 1.30674E-02 4.10841E-04-8.09972E-14
 -1       707 1.33722E-02 3.88933E-04-8.47611E-14
 -1       708 1.36704E-02 3.76114E-04-8.85309E-14
 -1       709 1.39639E-02 3.67434E-04-9.23142E-14
 -1       710 1.41997E-02 3.45766E-04-9.52908E-14
 -1       711 1.43585E-02 2.78999E-05-9.53136E-14
 -1       712 1.42427E-02-3.33313E-04-9.62117E-14
 -1       713 1.43069E-02 1.52926E-04-9.51817E-14
 -1       714 1.43588E-02-3.20126E-05-9.53686E-14
 -1       715 1.43405E-02 8.89053E-05-9.52542E-14
 -1       716 1.62025E-03 3.96155E-04-1.18602E-15
 -1       717 1.43418E-02-9.19553E-05-9.54141E-14
 -1       718 1.43090E-02-1.55898E-04-9.54425E-14
 -1       719 1.42647E-02-2.24133E-04-9.54615E-14
 -1       720 1.28242E-02-3.95245E-05-7.00727E-14
 -1       721 8.72340E-04-2.47259E-04-4.40423E-16
 -1       722 1.00990E-02-8.98634E-04-5.19254E-14
 -1       723 1.26679E-02-9.17079E-05-6.93558E-14
 -1       724 9.68519E-03-6.82612E-04-4.91064E-14
 -1       725 8.88799E-03-2.69271E-04-4.48459E-14
 -1       726 2.47533E-03 4.47587E-04-2.87056E-15
 -1       727 1.12691E-03-2.97193E-04-7.11701E-16
 -1       728 9.04350E-04 1.24660E-04-4.94996E-16
 -1       729 9.04012E-04-1.22275E-04-5.36365E-16
 -1       730 1.02973E-02 9.63706E-04-5.27937E-14
 -1       731 8.31520E-03 4.35694E-05-4.26249E-14
 -1       732 1.11618E-02-8.36176E-04-6.09618E-14
 -1       733 1.28941E-02-4.25374E-06-7.03141E-14
 -1       734 1.21899E-02 2.85136E-04-6.67942E-14
 -1       735 8.51316E-03-1.11938E-04-4.34245E-14
 -1       736 1.18344E-02 4.65096E-04-6.48224E-14
 -1       737 1.15640E-02-6.22820E-04-6.38957E-14
 -1       738 9.03235E-03 3.41415E-04-4.49303E-14
 -1       739 1.18869E-02-4.42912E-04-6.57928E-14
 -1       740 9.30796E-03-4.72620E-04-4.69987E-14
 -1       741 8.23063E-03 4.51055E-06-4.23915E-14
 -1       742 9.11338E-04-1.75680E-04-5.26187E-16
 -1       743 8.97852E-04-2.31715E-05-5.36616E-16
 -1       744 1.29038E-02 1.61524E-05-7.09278E-14
 -1       745 9.71457E-03 7.23662E-04-4.82582E-14
 -1       746 1.42622E-02 2.20650E-04-9.51075E-14
 -1       747 1.24235E-02 2.00416E-04-6.86750E-14
 -1       748 1.04129E-02-1.01346E-03-5.45002E-14
 -1       749 8.18748E-03-1.67869E-05-4.12743E-14
 -1       750 1.21452E-02-3.38413E-04-6.79068E-14
 -1       751 1.42315E-02 2.81581E-04-9.52050E-14
 -1       752 8.73134E-03 2.35699E-04-4.29190E-14
 -1       753 8.63838E-03-1.94651E-04-4.29829E-14
 -1       754 1.41587E-02-2.78800E-04-9.45451E-14
 -1       755 1.27223E-02 7.88598E-05-6.97987E-14
 -1       756 8.39083E-03 8.83841E-05-4.20502E-14
 -1       757 1.25548E-02-1.53500E-04-6.98295E-14
 -1       758 8.99774E-04-7.18692E-05-5.39343E-16
 -1       759 1.12804E-02 7.89358E-04-6.13470E-14
 -1       760 1.20775E-03 2.83303E-04-7.22766E-16
 -1       761 1.79745E-03-3.09338E-04-1.81074E-15
 -1       762 2.08514E-03-3.25213E-04-2.40463E-15
 -1       763 2.37296E-03-3.35682E-04-3.08589E-15
 -1       764 2.66067E-03-3.42065E-04-3.85616E-15
 -1       765 2.94817E-03-3.45409E-04-4.71527E-15
 -1       766 3.23541E-03-3.46508E-04-5.66335E-15
 -1       767 3.52236E-03-3.45935E-04-6.70242E-15
 -1       768 3.80903E-03-3.44082E-04-7.83295E-15
 -1       769 4.09540E-03-3.41196E-04-9.05394E-15
 -1       770 4.38147E-03-3.37415E-04-1.03648E-14
 -1       771 4.66720E-03-3.32796E-04-1.17629E-14
 -1       772 4.95257E-03-3.27347E-04-1.32524E-14
 -1       773 5.23751E-03-3.21060E-04-1.48407E-14
 -1       774 5.52195E-03-3.13939E-04-1.65264E-14
 -1       775 5.80580E-03-3.06041E-04-1.83073E-14
 -1       776 6.08897E-03-2.97521E-04-2.01846E-14
 -1       777 6.37139E-03-2.88682E-04-2.21536E-14
 -1       778 6.65308E-03-2.80039E-04-2.42160E-14
 -1       779 6.93419E-03-2.72385E-04-2.63709E-14
 -1       780 7.21517E-03-2.66873E-04-2.86187E-14
 -1       781 7.49699E-03-2.65128E-04-3.09626E-14
 -1       782 7.78148E-03-2.69420E-04-3.33966E-14
 -1       783 8.07178E-03-2.83018E-04-3.59168E-14
 -1       784 8.37295E-03-3.11036E-04-3.85223E-14
 -1       785 8.69197E-03-3.60938E-04-4.12161E-14
 -1       786 9.03654E-03-4.45356E-04-4.39936E-14
 -1       787 1.17661E-02-5.65529E-04-6.61254E-14
 -1       788 1.21364E-02-4.42687E-04-6.96388E-14
 -1       789 1.24786E-02-3.65307E-04-7.32047E-14
 -1       790 1.27959E-02-3.19440E-04-7.68250E-14
 -1       791 1.30968E-02-2.93847E-04-8.04958E-14
 -1       792 1.33878E-02-2.80521E-04-8.42081E-14
 -1       793 1.36735E-02-2.74128E-04-8.79516E-14
 -1       794 1.39161E-02-2.76601E-04-9.12332E-14
 -1       795 1.41238E-02-6.11835E-05-9.20932E-14
 -1       796 3.18017E-03 3.83186E-04-5.01540E-15
 -1       797 2.89359E-03 3.81465E-04-4.13466E-15
 -1       798 3.75282E-03 3.81474E-04-7.05052E-15
 -1       799 4.03892E-03 3.78781E-04-8.20859E-15
 -1       800 4.32489E-03 3.75124E-04-9.46273E-15
 -1       801 4.61071E-03 3.70579E-04-1.08169E-14
 -1       802 4.89637E-03 3.65164E-04-1.22689E-14
 -1       803 5.18186E-03 3.58872E-04-1.38197E-14
 -1       804 5.46716E-03 3.51706E-04-1.54696E-14
 -1       805 5.75222E-03 3.43720E-04-1.72181E-14
 -1       806 6.03703E-03 3.35066E-04-1.90645E-14
 -1       807 6.32161E-03 3.26055E-04-2.10054E-14
 -1       808 6.60603E-03 3.17223E-04-2.30387E-14
 -1       809 6.89051E-03 3.09418E-04-2.51661E-14
 -1       810 7.17556E-03 3.03896E-04-2.73879E-14
 -1       811 7.46212E-03 3.02442E-04-2.97052E-14
 -1       812 7.75189E-03 3.07541E-04-3.21145E-14
 -1       813 8.04767E-03 3.22640E-04-3.46093E-14
 -1       814 8.35374E-03 3.52626E-04-3.71925E-14
 -1       815 8.67576E-03 4.04578E-04-3.98645E-14
 -1       816 9.01896E-03 4.87466E-04-4.26236E-14
 -1       817 9.38529E-03 6.10242E-04-4.54699E-14
 -1       818 1.20051E-02 5.23497E-04-6.82306E-14
 -1       819 1.23553E-02 4.31462E-04-7.18424E-14
 -1       820 1.26831E-02 3.72573E-04-7.55110E-14
 -1       821 1.29935E-02 3.37092E-04-7.92247E-14
 -1       822 1.32922E-02 3.16912E-04-8.29688E-14
 -1       823 1.35839E-02 3.06031E-04-8.67293E-14
 -1       824 1.38715E-02 2.99789E-04-9.05033E-14
 -1       825 1.40521E-02 2.90774E-04-9.28489E-14
 -1       826 9.04773E-03-3.96952E-04-4.46991E-14
 -1       827 1.13858E-03 5.90760E-05-8.03888E-16
 -1       828 1.40945E-02-1.23773E-04-9.21324E-14
 -1       829 1.41338E-02-1.27122E-06-9.20431E-14
 -1       830 1.28532E-02-7.53515E-05-7.24434E-14
 -1       831 1.29546E-02-3.00340E-05-7.26954E-14
 -1       832 3.46657E-03 3.83039E-04-5.98655E-15
 -1       833 2.03282E-03 3.57312E-04-2.02463E-15
 -1       834 1.21004E-02 3.86457E-04-6.77029E-14
 -1       835 1.09857E-02-9.15569E-04-5.95551E-14
 -1       836 1.51032E-03-2.86507E-04-1.30306E-15
 -1       837 9.42576E-03-5.97570E-04-4.68257E-14
 -1       838 1.17789E-02 5.57602E-04-6.55701E-14
 -1       839 1.40499E-02-1.91002E-04-9.21562E-14
 -1       840 9.24286E-03 5.01115E-04-4.50451E-14
 -1       841 8.28094E-03-7.70872E-05-4.10150E-14
 -1       842 8.18361E-03 2.51840E-05-4.09555E-14
 -1       843 1.13721E-03 1.20159E-06-8.19064E-16
 -1       844 1.28935E-02 4.34213E-05-7.18480E-14
 -1       845 1.22201E-03 2.10165E-04-8.17062E-16
 -1       846 1.40479E-02 1.87830E-04-9.18543E-14
 -1       847 1.23324E-02 2.98123E-04-6.95935E-14
 -1       848 8.09614E-03 2.83001E-06-3.98589E-14
 -1       849 9.82517E-03-7.75423E-04-4.98249E-14
 -1       850 1.25399E-03-2.56288E-04-9.21643E-16
 -1       851 2.31989E-03 3.69570E-04-2.64057E-15
 -1       852 1.24182E-02-2.49806E-04-7.03008E-14
 -1       853 1.74576E-03 3.38949E-04-1.49386E-15
 -1       854 2.60683E-03 3.77225E-04-3.34293E-15
 -1       855 1.15768E-02 6.76895E-04-6.41567E-14
 -1       856 1.40932E-02 1.20544E-04-9.19257E-14
 -1       857 1.14267E-03 1.17863E-04-7.80585E-16
 -1       858 1.41230E-02 5.82843E-05-9.19872E-14
 -1       859 8.48170E-03 1.60429E-04-4.13390E-14
 -1       860 1.26410E-02 1.40311E-04-7.07025E-14
 -1       861 8.21445E-03 5.97931E-05-4.03907E-14
 -1       862 1.30081E-02-7.72094E-06-7.33178E-14
 -1       863 1.39846E-02-2.32638E-04-9.16946E-14
 -1       864 8.35741E-03-1.41189E-04-4.05797E-14
 -1       865 1.14229E-03-1.15238E-04-8.27609E-16
 -1       866 1.14941E-03-1.76194E-04-8.19515E-16
 -1       867 1.41788E-03 3.00135E-04-1.00114E-15
 -1       868 2.21868E-03-2.58431E-04-2.75960E-15
 -1       869 2.50777E-03-2.65408E-04-3.48598E-15
 -1       870 2.79677E-03-2.69431E-04-4.29996E-15
 -1       871 3.08545E-03-2.71250E-04-5.20198E-15
 -1       872 3.37371E-03-2.71429E-04-6.19445E-15
 -1       873 3.66146E-03-2.70370E-04-7.27600E-15
 -1       874 3.94866E-03-2.68341E-04-8.44931E-15
 -1       875 4.23525E-03-2.65501E-04-9.71298E-15
 -1       876 4.52118E-03-2.61930E-04-1.10651E-14
 -1       877 4.80637E-03-2.57653E-04-1.25058E-14
 -1       878 5.09070E-03-2.52663E-04-1.40409E-14
 -1       879 5.37402E-03-2.46951E-04-1.56768E-14
 -1       880 5.65615E-03-2.40528E-04-1.74103E-14
 -1       881 5.93686E-03-2.33459E-04-1.92374E-14
 -1       882 6.21590E-03-2.25892E-04-2.11598E-14
 -1       883 6.49304E-03-2.18098E-04-2.31744E-14
 -1       884 6.76811E-03-2.10501E-04-2.52800E-14
 -1       885 7.04105E-03-2.03714E-04-2.74779E-14
 -1       886 7.31215E-03-1.98581E-04-2.97730E-14
 -1       887 7.58220E-03-1.96248E-04-3.21609E-14
 -1       888 7.85298E-03-1.98370E-04-3.46365E-14
 -1       889 8.12789E-03-2.07601E-04-3.71955E-14
 -1       890 8.09251E-03-3.96569E-05-3.93169E-14
 -1       891 1.30437E-02-2.17793E-04-7.86371E-14
 -1       892 1.33210E-02-2.09286E-04-8.23317E-14
 -1       893 1.35951E-02-2.06363E-04-8.60607E-14
 -1       894 4.17851E-03 3.03020E-04-8.96599E-15
 -1       895 3.89197E-03 3.05804E-04-7.75435E-15
 -1       896 4.75003E-03 2.95068E-04-1.16812E-14
 -1       897 5.03488E-03 2.89937E-04-1.31856E-14
 -1       898 5.31899E-03 2.84023E-04-1.47871E-14
 -1       899 5.60223E-03 2.77338E-04-1.64854E-14
 -1       900 5.88443E-03 2.69943E-04-1.82826E-14
 -1       901 6.16544E-03 2.61997E-04-2.01758E-14
 -1       902 6.44510E-03 2.53792E-04-2.21627E-14
 -1       903 6.72333E-03 2.45807E-04-2.42403E-14
 -1       904 7.00023E-03 2.38753E-04-2.64142E-14
 -1       905 7.27619E-03 2.33640E-04-2.86844E-14
 -1       906 7.55220E-03 2.31871E-04-3.10485E-14
 -1       907 7.83019E-03 2.35448E-04-3.35004E-14
 -1       908 8.11359E-03 2.47393E-04-3.60397E-14
 -1       909 8.40853E-03 2.72937E-04-3.86662E-14
 -1       910 1.26359E-02 2.90252E-04-7.37800E-14
 -1       911 1.32252E-02 2.44062E-04-8.11822E-14
 -1       912 1.35067E-02 2.36507E-04-8.49302E-14
 -1       913 1.37856E-02 2.33135E-04-8.86915E-14
 -1       914 1.38860E-02-9.04679E-05-8.88422E-14
 -1       915 1.40506E-02 2.38225E-04-9.23537E-14
 -1       916 1.39099E-02-3.01593E-05-8.87978E-14
 -1       917 1.30549E-02-5.75662E-05-7.54416E-14
 -1       918 8.84319E-03-3.17919E-04-4.33710E-14
 -1       919 3.02969E-03 3.07803E-04-4.67593E-15
 -1       920 1.38416E-02-1.55680E-04-8.88724E-14
 -1       921 1.27338E-02-1.50544E-04-7.28014E-14
 -1       922 8.87040E-03 3.69313E-04-4.23773E-14
 -1       923 8.52424E-03-2.34548E-04-4.09556E-14
 -1       924 1.29371E-02 2.59779E-04-7.74610E-14
 -1       925 1.13840E-03-5.65366E-05-8.27121E-16
 -1       926 4.46455E-03 2.99428E-04-1.02752E-14
 -1       927 1.64187E-03-2.31672E-04-1.56978E-15
 -1       928 1.92985E-03-2.47560E-04-2.12179E-15
 -1       929 1.28520E-02 9.00147E-05-7.27623E-14
 -1       930 1.27570E-02-2.36790E-04-7.49897E-14
 -1       931 1.39095E-02 2.77806E-05-8.87457E-14
 -1       932 1.25622E-02 2.27071E-04-7.16320E-14
 -1       933 8.08656E-03 3.10911E-05-3.93067E-14
 -1       934 8.12810E-03-8.57795E-05-3.88968E-14
 -1       935 1.38426E-03-9.70970E-05-1.17882E-15
 -1       936 1.37883E-02-2.19658E-04-8.88720E-14
 -1       937 1.87612E-03 2.78552E-04-1.82121E-15
 -1       938 2.74150E-03 3.05259E-04-3.83110E-15
 -1       939 3.60497E-03 3.07681E-04-6.63609E-15
 -1       940 1.51975E-03 2.38989E-04-1.23108E-15
 -1       941 1.43793E-03 1.37078E-04-1.19022E-15
 -1       942 1.23122E-02 3.46963E-04-7.01431E-14
 -1       943 3.31753E-03 3.08453E-04-5.61112E-15
 -1       944 1.31251E-02-3.06329E-05-7.60771E-14
 -1       945 1.29830E-02-1.17235E-04-7.58007E-14
 -1       946 1.38142E-03 3.41458E-05-1.15643E-15
 -1       947 1.30468E-02 1.57066E-05-7.42483E-14
 -1       948 2.16448E-03 2.91624E-04-2.40546E-15
 -1       949 1.39050E-03-1.64260E-04-1.17431E-15
 -1       950 8.26843E-03 1.15874E-04-3.96926E-14
 -1       951 1.40871E-03 8.47378E-05-1.17651E-15
 -1       952 1.38452E-02 1.60546E-04-8.87699E-14
 -1       953 1.32652E-02-1.40589E-04-8.04596E-14
 -1       954 2.35574E-03-1.89294E-04-3.12405E-15
 -1       955 2.64572E-03-1.93422E-04-3.89323E-15
 -1       956 2.93553E-03-1.95603E-04-4.74879E-15
 -1       957 3.22492E-03-1.96326E-04-5.69400E-15
 -1       958 3.51371E-03-1.95956E-04-6.72859E-15
 -1       959 3.80179E-03-1.94746E-04-7.85304E-15
 -1       960 4.08906E-03-1.92858E-04-9.06875E-15
 -1       961 4.37545E-03-1.90381E-04-1.03749E-14
 -1       962 4.66084E-03-1.87354E-04-1.17688E-14
 -1       963 4.94507E-03-1.83782E-04-1.32541E-14
 -1       964 5.22796E-03-1.79653E-04-1.48368E-14
 -1       965 5.50925E-03-1.74962E-04-1.65194E-14
 -1       966 5.78864E-03-1.69724E-04-1.82981E-14
 -1       967 6.06577E-03-1.63999E-04-2.01717E-14
 -1       968 6.34021E-03-1.57909E-04-2.21393E-14
 -1       969 6.61152E-03-1.51654E-04-2.41971E-14
 -1       970 6.87925E-03-1.45514E-04-2.63470E-14
 -1       971 7.14302E-03-1.39854E-04-2.85936E-14
 -1       972 7.40256E-03-1.35115E-04-3.09334E-14
 -1       973 7.65794E-03-1.31838E-04-3.33629E-14
 -1       974 7.90987E-03-1.30848E-04-3.58776E-14
 -1       975 1.38133E-03-3.12576E-05-1.17234E-15
 -1       976 2.45304E-03 3.00159E-04-3.07490E-15
 -1       977 1.35224E-02-1.41559E-04-8.41723E-14
 -1       978 5.17233E-03 2.16189E-04-1.41098E-14
 -1       979 4.88877E-03 2.20645E-04-1.25546E-14
 -1       980 5.73521E-03 2.05364E-04-1.75070E-14
 -1       981 6.01398E-03 1.99072E-04-1.93509E-14
 -1       982 6.29053E-03 1.92352E-04-2.12923E-14
 -1       983 6.56454E-03 1.85441E-04-2.33234E-14
 -1       984 6.83570E-03 1.78688E-04-2.54480E-14
 -1       985 7.10382E-03 1.72575E-04-2.76689E-14
 -1       986 7.36896E-03 1.67729E-04-2.99867E-14
 -1       987 7.63168E-03 1.64991E-04-3.23961E-14
 -1       988 7.89341E-03 1.65647E-04-3.48932E-14
 -1       989 8.15750E-03 1.72542E-04-3.74750E-14
 -1       990 1.77718E-03-1.72621E-04-1.84757E-15
 -1       991 1.34379E-02 1.68872E-04-8.31295E-14
 -1       992 1.36848E-02-5.77844E-05-8.55726E-14
 -1       993 7.93862E-03-9.59898E-06-3.75355E-14
 -1       994 1.29037E-02 1.80376E-04-7.57102E-14
 -1       995 1.38850E-02 8.76627E-05-8.86883E-14
 -1       996 1.31724E-02 1.71588E-04-7.94028E-14
 -1       997 8.13290E-03-1.32721E-04-3.81955E-14
 -1       998 2.06601E-03-1.82601E-04-2.44228E-15
 -1       999 5.45456E-03 2.11090E-04-1.57586E-14
 -1      1000 4.03191E-03 2.30229E-04-8.46941E-15
 -1      1001 1.79234E-03 1.68693E-04-1.77802E-15
 -1      1002 1.36997E-02-1.09623E-06-8.55257E-14
 -1      1003 7.90569E-03 2.01482E-05-3.69997E-14
 -1      1004 8.10505E-03 7.40430E-05-3.86226E-14
 -1      1005 3.74464E-03 2.32105E-04-7.29779E-15
 -1      1006 4.60408E-03 2.24466E-04-1.10970E-14
 -1      1007 7.94335E-03 1.01270E-04-3.62917E-14
 -1      1008 1.77104E-03-9.71258E-05-1.84823E-15
 -1      1009 3.16809E-03 2.33234E-04-5.23137E-15
 -1      1010 1.31912E-02-4.99358E-06-7.70204E-14
 -1      1011 1.27361E-02 1.81701E-04-7.32743E-14
 -1      1012 7.93161E-03-4.69209E-05-3.71332E-14
 -1      1013 1.30543E-02 5.11945E-05-7.51778E-14
 -1      1014 1.33101E-02-8.16427E-05-8.01006E-14
 -1      1015 1.64005E-03 5.71445E-05-1.57368E-15
 -1      1016 2.87899E-03 2.31967E-04-4.33429E-15
 -1      1017 4.31842E-03 2.27665E-04-9.73617E-15
 -1      1018 2.08127E-03 1.78304E-04-2.35575E-15
 -1      1019 1.76839E-03-2.24684E-05-1.83662E-15
 -1      1020 2.20549E-03-1.14650E-04-2.77221E-15
 -1      1021 7.92550E-03-8.74762E-05-3.65607E-14
 -1      1022 2.49589E-03-1.18045E-04-3.49536E-15
 -1      1023 2.78641E-03-1.20014E-04-4.30529E-15
 -1      1024 3.07664E-03-1.20899E-04-5.20263E-15
 -1      1025 3.36630E-03-1.20973E-04-6.18942E-15
 -1      1026 3.65520E-03-1.20433E-04-7.26529E-15
 -1      1027 3.94321E-03-1.19407E-04-8.43268E-15
 -1      1028 4.23021E-03-1.17977E-04-9.69100E-15
 -1      1029 4.51606E-03-1.16183E-04-1.10394E-14
 -1      1030 4.80061E-03-1.14036E-04-1.24776E-14
 -1      1031 5.08364E-03-1.11533E-04-1.40085E-14
 -1      1032 5.36487E-03-1.08669E-04-1.56388E-14
 -1      1033 5.64397E-03-1.05438E-04-1.73667E-14
 -1      1034 5.92050E-03-1.01858E-04-1.91906E-14
 -1      1035 6.19397E-03-9.79742E-05-2.11097E-14
 -1      1036 6.46376E-03-9.38655E-05-2.31202E-14
 -1      1037 6.72920E-03-8.96449E-05-2.52235E-14
 -1      1038 6.98947E-03-8.54458E-05-2.74208E-14
 -1      1039 7.24362E-03-8.13946E-05-2.97137E-14
 -1      1040 7.49046E-03-7.75868E-05-3.20977E-14
 -1      1041 7.70924E-03-8.21397E-05-3.42956E-14
 -1      1042 6.41393E-03 1.26547E-04-2.24140E-14
 -1      1043 5.02720E-03 1.47704E-04-1.34347E-14
 -1      1044 5.30916E-03 1.44331E-04-1.50365E-14
 -1      1045 1.93457E-03 4.53156E-05-2.14174E-15
 -1      1046 6.14208E-03 1.31527E-04-2.04260E-14
 -1      1047 5.86701E-03 1.36208E-04-1.85325E-14
 -1      1048 6.68198E-03 1.21418E-04-2.44931E-14
 -1      1049 6.94561E-03 1.16335E-04-2.66658E-14
 -1      1050 7.20415E-03 1.11517E-04-2.89344E-14
 -1      1051 7.45692E-03 1.07170E-04-3.12976E-14
 -1      1052 7.70331E-03 1.03545E-04-3.37533E-14
 -1      1053 1.98788E-03-1.06308E-04-2.28618E-15
 -1      1054 3.45667E-03 2.33175E-04-6.21916E-15
 -1      1055 4.17260E-03 1.55111E-04-9.19685E-15
 -1      1056 2.37107E-03 1.84773E-04-3.01799E-15
 -1      1057 1.35023E-02 9.18744E-05-8.30598E-14
 -1      1058 1.32567E-02-4.02822E-05-7.85642E-14
 -1      1059 1.29868E-02 1.07871E-04-7.54469E-14
 -1      1060 1.71517E-03 1.11741E-04-1.67790E-15
 -1      1061 2.62520E-03 2.08908E-04-3.64516E-15
 -1      1062 1.36126E-02 4.40989E-05-8.42962E-14
 -1      1063 5.58923E-03 1.40493E-04-1.67360E-14
 -1      1064 1.34760E-02-2.16524E-05-8.20302E-14
 -1      1065 7.74873E-03-6.57076E-06-3.51514E-14
 -1      1066 2.06044E-03-2.70775E-05-2.43473E-15
 -1      1067 3.88546E-03 1.56669E-04-7.97162E-15
 -1      1068 4.74363E-03 1.50620E-04-1.19275E-14
 -1      1069 1.32267E-02 1.07825E-04-7.91326E-14
 -1      1070 7.77416E-03 5.02111E-05-3.51147E-14
 -1      1071 1.32338E-02 2.86920E-05-7.79626E-14
 -1      1072 2.00378E-03 1.19064E-04-2.24062E-15
 -1      1073 3.01895E-03 1.57664E-04-4.85117E-15
 -1      1074 3.30852E-03 1.58091E-04-5.80026E-15
 -1      1075 4.45870E-03 1.53088E-04-1.05154E-14
 -1      1076 2.34797E-03-4.40351E-05-3.10847E-15
 -1      1077 2.22409E-03 4.06771E-05-2.77850E-15
 -1      1078 2.63876E-03-4.50257E-05-3.87087E-15
 -1      1079 2.92947E-03-4.55370E-05-4.72082E-15
 -1      1080 3.21975E-03-4.56741E-05-5.65920E-15
 -1      1081 3.50932E-03-4.55335E-05-6.68687E-15
 -1      1082 3.79798E-03-4.51820E-05-7.80468E-15
 -1      1083 4.08563E-03-4.46588E-05-9.01353E-15
 -1      1084 4.37209E-03-4.39854E-05-1.03149E-14
 -1      1085 4.65722E-03-4.31701E-05-1.17075E-14
 -1      1086 4.94081E-03-4.22152E-05-1.31899E-14
 -1      1087 5.22257E-03-4.11299E-05-1.47680E-14
 -1      1088 5.50218E-03-3.98930E-05-1.64449E-14
 -1      1089 5.77921E-03-3.85150E-05-1.82161E-14
 -1      1090 6.05313E-03-3.70058E-05-2.00867E-14
 -1      1091 6.32332E-03-3.53865E-05-2.20508E-14
 -1      1092 6.58901E-03-3.36894E-05-2.41048E-14
 -1      1093 6.84927E-03-3.19539E-05-2.62540E-14
 -1      1094 7.10292E-03-3.02159E-05-2.84989E-14
 -1      1095 7.34833E-03-2.84865E-05-3.08363E-14
 -1      1096 5.44602E-03 7.46271E-05-1.59705E-14
 -1      1097 6.53780E-03 6.46880E-05-2.35433E-14
 -1      1098 5.99890E-03 7.00707E-05-1.95662E-14
 -1      1099 7.05661E-03 5.89127E-05-2.78917E-14
 -1      1100 7.30573E-03 5.60205E-05-3.02088E-14
 -1      1101 7.54562E-03 5.30044E-05-3.26181E-14
 -1      1102 2.29371E-03 1.24082E-04-2.88710E-15
 -1      1103 1.32366E-02 6.52558E-05-7.85503E-14
 -1      1104 1.33584E-02 4.41272E-06-7.99960E-14
 -1      1105 7.71064E-03-4.15674E-05-3.46033E-14
 -1      1106 3.59739E-03 1.57699E-04-6.83986E-15
 -1      1107 5.16574E-03 7.65332E-05-1.43191E-14
 -1      1108 2.76531E-03 1.35778E-04-4.11395E-15
 -1      1109 6.27043E-03 6.74607E-05-2.15084E-14
 -1      1110 6.80020E-03 6.18166E-05-2.56688E-14
 -1      1111 5.72390E-03 7.24692E-05-1.77190E-14
 -1      1112 1.34840E-02 2.34453E-05-8.21424E-14
 -1      1113 4.88345E-03 7.81902E-05-1.27646E-14
 -1      1114 7.58311E-03-2.68604E-05-3.32609E-14
 -1      1115 1.34236E-02 5.48184E-05-8.14166E-14
 -1      1116 4.02731E-03 8.16937E-05-8.65684E-15
 -1      1117 3.16107E-03 8.26870E-05-5.38126E-15
 -1      1118 2.90785E-03 6.15117E-05-4.59639E-15
 -1      1119 2.52951E-03 1.30367E-04-3.47225E-15
 -1      1120 4.31401E-03 8.07663E-05-9.93400E-15
 -1      1121 2.78397E-03 2.93356E-05-4.24998E-15
 -1      1122 3.65366E-03 2.96890E-05-7.18657E-15
 -1      1123 4.79910E-03 2.84907E-05-1.23786E-14
 -1      1124 2.50392E-03 3.53399E-05-3.47403E-15
 -1      1125 3.45071E-03 8.27171E-05-6.38187E-15
 -1      1126 4.59945E-03 7.95956E-05-1.13029E-14
 -1      1127 4.51475E-03 2.89245E-05-1.09424E-14
 -1      1128 0.00000E+00 0.00000E+00 0.00000E+00
 -1      1129 0.00000E+00 0.00000E+00 0.00000E+00
 -1      1130 0.00000E+00 0.00000E+00 0.00000E+00
 -1      1131 0.00000E+00 0.00000E+00 0.00000E+00
 -1      1132 0.00000E+00 0.00000E+00 0.00000E+00
 -1      1133 0.00000E+00 0.00000E+00 0.00000E+00
 -1      1134 0.00000E+00 0.00000E+00 0.00000E+00
 -1      1135 0.00000E+00 0.00000E+00 0.00000E+00
 -1      1136 0.00000E+00 0.00000E+00 0.00000E+00
 -1      1137 0.00000E+00 0.00000E+00 0.00000E+00
 -1      1138 0.00000E+00 0.00000E+00 0.00000E+00
 -1      1139 0.00000E+00 0.00000E+00 0.00000E+00
 -1      1140 0.00000E+00 0.00000E+00 0.00000E+00
 -1      1141 0.00000E+00 0.00000E+00 0.00000E+00
 -1      1142 0.00000E+00 0.00000E+00 0.00000E+00
 -1      1143 0.00000E+00 0.00000E+00 0.00000E+00
 -1      1144 0.00000E+00 0.00000E+00 0.00000E+00
 -1      1145 2.11643E-04-1.48337E-04 1.41217E-17
 -1      1146 5.51544E-04-3.37543E-04-1.16552E-17
 -1      1147 8.33278E-04-4.59046E-04-1.17582E-16
 -1      1148 1.10275E-03-5.40714E-04-3.17834E-16
 -1      1149 1.36803E-03-5.97915E-04-6.10867E-16
 -1      1150 1.63269E-03-6.38530E-04-9.96328E-16
 -1      1151 1.89858E-03-6.67194E-04-1.47530E-15
 -1      1152 2.16653E-03-6.87009E-04-2.04876E-15
 -1      1153 2.43686E-03-7.00234E-04-2.71660E-15
 -1      1154 2.70956E-03-7.08564E-04-3.47958E-15
 -1      1155 2.98448E-03-7.13266E-04-4.34074E-15
 -1      1156 3.26141E-03-7.15276E-04-5.29425E-15
 -1      1157 3.54013E-03-7.15269E-04-6.33639E-15
 -1      1158 3.82043E-03-7.13716E-04-7.47255E-15
 -1      1159 4.10216E-03-7.10925E-04-8.70400E-15
 -1      1160 4.38524E-03-7.07087E-04-1.00280E-14
 -1      1161 4.66969E-03-7.02310E-04-1.14427E-14
 -1      1162 4.95564E-03-6.96658E-04-1.29507E-14
 -1      1163 5.24334E-03-6.90188E-04-1.45522E-14
 -1      1164 5.53319E-03-6.82995E-04-1.62480E-14
 -1      1165 5.82578E-03-6.75268E-04-1.80388E-14
 -1      1166 6.12187E-03-6.67363E-04-1.99231E-14
 -1      1167 6.42239E-03-6.59892E-04-2.18957E-14
 -1      1168 6.72849E-03-6.53841E-04-2.39633E-14
 -1      1169 7.04138E-03-6.50709E-04-2.61306E-14
 -1      1170 7.36228E-03-6.52668E-04-2.83910E-14
 -1      1171 7.69212E-03-6.62688E-04-3.07420E-14
 -1      1172 8.03113E-03-6.84572E-04-3.31914E-14
 -1      1173 8.37825E-03-7.22688E-04-3.57408E-14
 -1      1174 8.73036E-03-7.81168E-04-3.83814E-14
 -1      1175 9.08169E-03-8.62237E-04-4.11121E-14
 -1      1176 9.42393E-03-9.63616E-04-4.39346E-14
 -1      1177 9.74779E-03-1.07573E-03-4.68475E-14
 -1      1178 1.00466E-02-1.18073E-03-4.98495E-14
 -1      1179 1.03206E-02-1.25583E-03-5.29361E-14
 -1      1180 1.05793E-02-1.28151E-03-5.61052E-14
 -1      1181 1.08388E-02-1.25074E-03-5.93617E-14
 -1      1182 1.11145E-02-1.17257E-03-6.27055E-14
 -1      1183 1.14148E-02-1.06742E-03-6.61232E-14
 -1      1184 1.17386E-02-9.57656E-04-6.96023E-14
 -1      1185 1.20784E-02-8.59909E-04-7.31516E-14
 -1      1186 1.24247E-02-7.82344E-04-7.67649E-14
 -1      1187 1.27691E-02-7.26036E-04-8.04415E-14
 -1      1188 1.31061E-02-6.87769E-04-8.41714E-14
 -1      1189 1.34327E-02-6.62489E-04-8.79400E-14
 -1      1190 1.37479E-02-6.44811E-04-9.17319E-14
 -1      1191 1.40522E-02-6.29736E-04-9.55519E-14
 -1      1192 1.43474E-02-6.12974E-04-9.93887E-14
 -1      1193 1.46359E-02-5.91343E-04-1.03246E-13
 -1      1194 1.49142E-02-5.64984E-04-1.07039E-13
 -1      1195 2.28401E-04 1.60714E-04 2.76336E-17
 -1      1196 5.53718E-04 3.42175E-04 3.55889E-17
 -1      1197 8.34207E-04 4.61215E-04-2.52755E-17
 -1      1198 1.10364E-03 5.42402E-04-1.66954E-16
 -1      1199 1.36893E-03 5.99596E-04-3.92413E-16
 -1      1200 1.63364E-03 6.40300E-04-7.03769E-16
 -1      1201 1.89958E-03 6.69070E-04-1.10258E-15
 -1      1202 2.16758E-03 6.89004E-04-1.58703E-15
 -1      1203 2.43793E-03 7.02357E-04-2.15904E-15
 -1      1204 2.71065E-03 7.10819E-04-2.82382E-15
 -1      1205 2.98558E-03 7.15656E-04-3.58451E-15
 -1      1206 3.26253E-03 7.17803E-04-4.44004E-15
 -1      1207 3.54125E-03 7.17934E-04-5.39069E-15
 -1      1208 3.82155E-03 7.16518E-04-6.43744E-15
 -1      1209 4.10328E-03 7.13865E-04-7.58382E-15
 -1      1210 4.38637E-03 7.10165E-04-8.83831E-15
 -1      1211 4.67082E-03 7.05527E-04-1.01990E-14
 -1      1212 4.95677E-03 7.00015E-04-1.16635E-14
 -1      1213 5.24447E-03 6.93686E-04-1.32341E-14
 -1      1214 5.53432E-03 6.86637E-04-1.49091E-14
 -1      1215 5.82690E-03 6.79057E-04-1.66824E-14
 -1      1216 6.12298E-03 6.71304E-04-1.85471E-14
 -1      1217 6.42348E-03 6.63989E-04-2.05059E-14
 -1      1218 6.72954E-03 6.58100E-04-2.25642E-14
 -1      1219 7.04237E-03 6.55133E-04-2.47123E-14
 -1      1220 7.36316E-03 6.57255E-04-2.69562E-14
 -1      1221 7.69284E-03 6.67426E-04-2.92981E-14
 -1      1222 8.03161E-03 6.89426E-04-3.17290E-14
 -1      1223 8.37839E-03 7.27587E-04-3.42442E-14
 -1      1224 8.73004E-03 7.85983E-04-3.68529E-14
 -1      1225 9.08082E-03 8.66764E-04-3.95565E-14
 -1      1226 9.42248E-03 9.67598E-04-4.23634E-14
 -1      1227 9.74584E-03 1.07895E-03-4.52623E-14
 -1      1228 1.00443E-02 1.18311E-03-4.82533E-14
 -1      1229 1.03181E-02 1.25750E-03-5.13390E-14
 -1      1230 1.05767E-02 1.28273E-03-5.45314E-14
 -1      1231 1.08360E-02 1.25179E-03-5.78307E-14
 -1      1232 1.11115E-02 1.17367E-03-6.12419E-14
 -1      1233 1.14113E-02 1.06865E-03-6.47478E-14
 -1      1234 1.17345E-02 9.58958E-04-6.83308E-14
 -1      1235 1.20737E-02 8.61089E-04-7.19779E-14
 -1      1236 1.24195E-02 7.83183E-04-7.56871E-14
 -1      1237 1.27636E-02 7.26340E-04-7.94508E-14
 -1      1238 1.31003E-02 6.87402E-04-8.32491E-14
 -1      1239 1.34266E-02 6.61370E-04-8.70485E-14
 -1      1240 1.37417E-02 6.42901E-04-9.08443E-14
 -1      1241 1.40460E-02 6.27023E-04-9.46462E-14
 -1      1242 1.43411E-02 6.09468E-04-9.84651E-14
 -1      1243 1.46296E-02 5.87088E-04-1.02294E-13
 -1      1244 1.49079E-02 5.59948E-04-1.06021E-13
 -1      1245 1.50582E-02 5.03362E-04-1.07881E-13
 -1      1246 1.50900E-02 4.18841E-04-1.08007E-13
 -1      1247 1.51270E-02 3.37356E-04-1.08130E-13
 -1      1248 1.51682E-02 2.62010E-04-1.08250E-13
 -1      1249 1.52100E-02 1.94631E-04-1.08377E-13
 -1      1250 1.52481E-02 1.36131E-04-1.08488E-13
 -1      1251 1.52788E-02 8.51253E-05-1.08587E-13
 -1      1252 1.52990E-02 3.94205E-05-1.08652E-13
 -1      1253 1.53062E-02-3.18644E-06-1.08719E-13
 -1      1254 1.52996E-02-4.58049E-05-1.08756E-13
 -1      1255 1.52800E-02-9.15440E-05-1.08786E-13
 -1      1256 1.52499E-02-1.42609E-04-1.08840E-13
 -1      1257 1.52125E-02-2.01187E-04-1.08891E-13
 -1      1258 1.51713E-02-2.68661E-04-1.08917E-13
 -1      1259 1.51309E-02-3.44137E-04-1.08910E-13
 -1      1260 1.50947E-02-4.25660E-04-1.08905E-13
 -1      1261 1.50640E-02-5.09453E-04-1.08901E-13
 -1      1262 1.27883E-02 7.21082E-05-6.31049E-14
 -1      1263 1.26708E-02 2.26734E-04-6.26833E-14
 -1      1264 1.24497E-02 3.83471E-04-6.19346E-14
 -1      1265 1.21520E-02 5.35041E-04-6.09301E-14
 -1      1266 1.17829E-02 6.80051E-04-5.96489E-14
 -1      1267 1.13733E-02 7.97976E-04-5.81989E-14
 -1      1268 1.09118E-02 8.74670E-04-5.65420E-14
 -1      1269 1.04441E-02 8.92152E-04-5.48653E-14
 -1      1270 9.98486E-03 8.41821E-04-5.32539E-14
 -1      1271 9.51564E-03 7.29844E-04-5.16742E-14
 -1      1272 9.09499E-03 5.80724E-04-5.03383E-14
 -1      1273 8.75441E-03 4.20435E-04-4.93244E-14
 -1      1274 8.49559E-03 2.53338E-04-4.86026E-14
 -1      1275 8.35502E-03 9.42883E-05-4.82489E-14
 -1      1276 8.34026E-03-5.31318E-05-4.82466E-14
 -1      1277 8.43926E-03-2.03278E-04-4.85666E-14
 -1      1278 8.65184E-03-3.61089E-04-4.92140E-14
 -1      1279 8.95409E-03-5.19189E-04-5.01656E-14
 -1      1280 9.32091E-03-6.66576E-04-5.13674E-14
 -1      1281 9.73008E-03-7.89165E-04-5.27626E-14
 -1      1282 1.01576E-02-8.68232E-04-5.42701E-14
 -1      1283 1.06176E-02-8.92695E-04-5.59175E-14
 -1      1284 1.10746E-02-8.56179E-04-5.75541E-14
 -1      1285 1.15093E-02-7.63401E-04-5.90823E-14
 -1      1286 1.18932E-02-6.40639E-04-6.03871E-14
 -1      1287 1.22271E-02-5.00234E-04-6.14841E-14
 -1      1288 1.25062E-02-3.49319E-04-6.23586E-14
 -1      1289 1.26967E-02-2.03652E-04-6.29238E-14
 -1      1290 1.27909E-02-6.62588E-05-6.31728E-14
 -1      1291 1.66672E-04-1.10354E-04 7.99599E-19
 -1      1292 1.12524E-04-5.69987E-05-1.58836E-17
 -1      1293 1.17602E-04-6.76024E-05-1.13977E-17
 -1      1294 1.08412E-04-4.35204E-05-2.31884E-17
 -1      1295 1.10272E-04-4.96334E-05-2.09115E-17
 -1      1296 2.26299E-04-1.07673E-04-4.96158E-17
 -1      1297 1.06839E-04-3.36438E-05-2.71864E-17
 -1      1298 1.07681E-04-3.83655E-05-2.59124E-17
 -1      1299 2.19088E-04-8.25136E-05-6.26940E-17
 -1      1300 1.06069E-04-2.53802E-05-2.98562E-17
 -1      1301 1.06495E-04-2.94148E-05-2.91786E-17
 -1      1302 2.15870E-04-6.33342E-05-7.06222E-17
 -1      1303 1.05671E-04-1.81150E-05-3.09404E-17
 -1      1304 1.05898E-04-2.16852E-05-3.07236E-17
 -1      1305 2.14225E-04-4.72373E-05-7.51894E-17
 -1      1306 1.05456E-04-1.12556E-05-3.14012E-17
 -1      1307 1.05577E-04-1.46443E-05-3.14148E-17
 -1      1308 2.13321E-04-3.27931E-05-7.72901E-17
 -1      1309 1.05359E-04-4.69666E-06-3.13741E-17
 -1      1310 1.05410E-04-7.95415E-06-3.14419E-17
 -1      1311 2.12835E-04-1.92158E-05-7.79135E-17
 -1      1312 1.05348E-04 1.74512E-06-3.08320E-17
 -1      1313 1.05346E-04-1.47270E-06-3.10624E-17
 -1      1314 2.12625E-04-6.16925E-06-7.74934E-17
 -1      1315 1.05419E-04 8.23643E-06-2.99240E-17
 -1      1316 1.05363E-04 4.97239E-06-3.02628E-17
 -1      1317 2.12633E-04 6.71720E-06-7.59619E-17
 -1      1318 1.05592E-04 1.49521E-05-2.86094E-17
 -1      1319 1.05467E-04 1.15486E-05-2.90566E-17
 -1      1320 2.12860E-04 1.97898E-05-7.34411E-17
 -1      1321 1.05920E-04 2.19774E-05-2.66172E-17
 -1      1322 1.05688E-04 1.83835E-05-2.73219E-17
 -1      1323 2.13362E-04 3.33064E-05-6.98497E-17
 -1      1324 1.06538E-04 2.98487E-05-2.35543E-17
 -1      1325 1.06102E-04 2.57700E-05-2.45978E-17
 -1      1326 2.14291E-04 4.78451E-05-6.44287E-17
 -1      1327 1.07720E-04 3.89492E-05-1.91226E-17
 -1      1328 1.06873E-04 3.41554E-05-2.08844E-17
 -1      1329 2.15981E-04 6.42651E-05-5.67580E-17
 -1      1330 1.10251E-04 5.03732E-05-1.22515E-17
 -1      1331 1.08417E-04 4.41915E-05-1.52601E-17
 -1      1332 2.19190E-04 8.37640E-05-4.55365E-17
 -1      1333 1.16918E-04 6.76377E-05-1.76183E-18
 -1      1334 1.12170E-04 5.77978E-05-6.77626E-18
 -1      1335 2.26285E-04 1.09492E-04-2.91515E-17
 -1      1336 1.57555E-04 1.09867E-04 1.42708E-17
 -1      1337 1.35637E-04 8.61060E-05 4.64852E-18
 -1      1338 2.55992E-04 1.52128E-04-9.70361E-18
 -1      1339 3.35028E-04 2.20759E-04 1.73201E-17
 -1      1340 4.21463E-04-2.61770E-04-2.43945E-17
 -1      1341 5.74523E-04-3.36840E-04-5.90484E-17
 -1      1342 7.21672E-04-3.97449E-04-1.17839E-16
 -1      1343 8.64796E-04-4.46745E-04-1.99276E-16
 -1      1344 6.11947E-04-3.30948E-04-1.13828E-16
 -1      1345 1.00477E-03-4.87812E-04-3.02696E-16
 -1      1346 1.14256E-03-5.21787E-04-4.28870E-16
 -1      1347 9.05104E-04-4.31649E-04-2.84129E-16
 -1      1348 1.27900E-03-5.50537E-04-5.77758E-16
 -1      1349 1.41458E-03-5.74540E-04-7.49997E-16
 -1      1350 1.18744E-03-5.01045E-04-5.42684E-16
 -1      1351 1.54976E-03-5.94859E-04-9.44855E-16
 -1      1352 1.68478E-03-6.11825E-04-1.16294E-15
 -1      1353 1.46427E-03-5.49751E-04-8.91661E-16
 -1      1354 1.81989E-03-6.26065E-04-1.40407E-15
 -1      1355 1.95520E-03-6.37869E-04-1.66852E-15
 -1      1356 1.73884E-03-5.83935E-04-1.33137E-15
 -1      1357 2.09083E-03-6.47637E-04-1.95688E-15
 -1      1358 2.22683E-03-6.55615E-04-2.26853E-15
 -1      1359 2.01302E-03-6.07561E-04-1.86396E-15
 -1      1360 2.36324E-03-6.62074E-04-2.60329E-15
 -1      1361 2.50009E-03-6.67216E-04-2.96127E-15
 -1      1362 2.28780E-03-6.23418E-04-2.48923E-15
 -1      1363 2.63739E-03-6.71230E-04-3.34391E-15
 -1      1364 2.77513E-03-6.74276E-04-3.75009E-15
 -1      1365 2.56367E-03-6.33549E-04-3.20771E-15
 -1      1366 2.91331E-03-6.76488E-04-4.17976E-15
 -1      1367 3.05190E-03-6.77988E-04-4.63388E-15
 -1      1368 2.84083E-03-6.39471E-04-4.02019E-15
 -1      1369 3.19091E-03-6.78869E-04-5.10959E-15
 -1      1370 3.33031E-03-6.79223E-04-5.60772E-15
 -1      1371 3.11932E-03-6.42298E-04-4.92557E-15
 -1      1372 3.47008E-03-6.79109E-04-6.13000E-15
 -1      1373 3.61021E-03-6.78597E-04-6.67443E-15
 -1      1374 3.39912E-03-6.42838E-04-5.92287E-15
 -1      1375 3.75068E-03-6.77721E-04-7.24285E-15
 -1      1376 3.89149E-03-6.76533E-04-7.83519E-15
 -1      1377 3.68015E-03-6.41654E-04-7.01332E-15
 -1      1378 4.03261E-03-6.75046E-04-8.44913E-15
 -1      1379 4.17405E-03-6.73298E-04-9.08763E-15
 -1      1380 3.96235E-03-6.39121E-04-8.19597E-15
 -1      1381 4.31580E-03-6.71290E-04-9.74896E-15
 -1      1382 4.45788E-03-6.69050E-04-1.04327E-14
 -1      1383 4.24570E-03-6.35470E-04-9.47083E-15
 -1      1384 4.60028E-03-6.66568E-04-1.11395E-14
 -1      1385 4.74304E-03-6.63868E-04-1.18697E-14
 -1      1386 4.53021E-03-6.30826E-04-1.08371E-14
 -1      1387 4.88616E-03-6.60937E-04-1.26226E-14
 -1      1388 5.02969E-03-6.57798E-04-1.33987E-14
 -1      1389 4.81599E-03-6.25246E-04-1.22952E-14
 -1      1390 5.17365E-03-6.54435E-04-1.41993E-14
 -1      1391 5.31810E-03-6.50882E-04-1.50229E-14
 -1      1392 5.10319E-03-6.18756E-04-1.38467E-14
 -1      1393 5.46309E-03-6.47125E-04-1.58696E-14
 -1      1394 5.60868E-03-6.43214E-04-1.67400E-14
 -1      1395 5.39212E-03-6.11393E-04-1.54927E-14
 -1      1396 5.75496E-03-6.39147E-04-1.76342E-14
 -1      1397 5.90199E-03-6.34997E-04-1.85532E-14
 -1      1398 5.68314E-03-6.03254E-04-1.72315E-14
 -1      1399 6.04989E-03-6.30785E-04-1.94941E-14
 -1      1400 6.19873E-03-6.26618E-04-2.04572E-14
 -1      1401 5.97678E-03-5.94563E-04-1.90659E-14
 -1      1402 6.34865E-03-6.22554E-04-2.14450E-14
 -1      1403 6.49976E-03-6.18748E-04-2.24550E-14
 -1      1404 6.27367E-03-5.85747E-04-2.09939E-14
 -1      1405 6.65218E-03-6.15316E-04-2.34894E-14
 -1      1406 6.80603E-03-6.12472E-04-2.45477E-14
 -1      1407 6.57455E-03-5.77553E-04-2.30151E-14
 -1      1408 6.96146E-03-6.10416E-04-2.56298E-14
 -1      1409 7.11857E-03-6.09437E-04-2.67366E-14
 -1      1410 6.88026E-03-5.71180E-04-2.51318E-14
 -1      1411 7.27749E-03-6.09849E-04-2.78666E-14
 -1      1412 7.43829E-03-6.12023E-04-2.90182E-14
 -1      1413 7.19162E-03-5.68442E-04-2.73420E-14
 -1      1414 7.60103E-03-6.16416E-04-3.01940E-14
 -1      1415 7.76574E-03-6.23472E-04-3.13923E-14
 -1      1416 7.50933E-03-5.71948E-04-2.96465E-14
 -1      1417 7.93237E-03-6.33804E-04-3.26155E-14
 -1      1418 8.10079E-03-6.47890E-04-3.38649E-14
 -1      1419 7.83380E-03-5.85219E-04-3.20427E-14
 -1      1420 8.27083E-03-6.66450E-04-3.51366E-14
 -1      1421 8.44213E-03-6.89902E-04-3.64318E-14
 -1      1422 8.16480E-03-6.12647E-04-3.45353E-14
 -1      1423 8.61431E-03-7.18917E-04-3.77506E-14
 -1      1424 8.78677E-03-7.53666E-04-3.90917E-14
 -1      1425 8.50120E-03-6.59039E-04-3.71214E-14
 -1      1426 8.95887E-03-7.94456E-04-4.04557E-14
 -1      1427 9.12978E-03-8.40919E-04-4.18418E-14
 -1      1428 8.84053E-03-7.28423E-04-3.98006E-14
 -1      1429 9.29868E-03-8.92538E-04-4.32518E-14
 -1      1430 9.46468E-03-9.48072E-04-4.46852E-14
 -1      1431 9.17887E-03-8.21802E-04-4.25718E-14
 -1      1432 9.62700E-03-1.00577E-03-4.61396E-14
 -1      1433 9.78499E-03-1.06336E-03-4.76151E-14
 -1      1434 9.51113E-03-9.33987E-04-4.54324E-14
 -1      1435 9.93829E-03-1.11788E-03-4.91136E-14
 -1      1436 1.00869E-02-1.16642E-03-5.06364E-14
 -1      1437 9.83226E-03-1.05083E-03-4.83825E-14
 -1      1438 1.02313E-02-1.20568E-03-5.21788E-14
 -1      1439 1.03723E-02-1.23312E-03-5.37419E-14
 -1      1440 1.01396E-02-1.14967E-03-5.14224E-14
 -1      1441 1.05111E-02-1.24660E-03-5.53265E-14
 -1      1442 1.06493E-02-1.24517E-03-5.69315E-14
 -1      1443 1.04353E-02-1.20569E-03-5.45475E-14
 -1      1444 1.07884E-02-1.22903E-03-5.85610E-14
 -1      1445 1.09298E-02-1.19934E-03-6.02131E-14
 -1      1446 1.07266E-02-1.20281E-03-5.77606E-14
 -1      1447 1.10747E-02-1.15851E-03-6.18839E-14
 -1      1448 1.12238E-02-1.10917E-03-6.35748E-14
 -1      1449 1.10229E-02-1.14226E-03-6.10614E-14
 -1      1450 1.13774E-02-1.05464E-03-6.52824E-14
 -1      1451 1.15354E-02-9.97794E-04-6.70053E-14
 -1      1452 1.13307E-02-1.04189E-03-6.44420E-14
 -1      1453 1.16974E-02-9.41434E-04-6.87479E-14
 -1      1454 1.18626E-02-8.87666E-04-7.05065E-14
 -1      1455 1.16514E-02-9.26685E-04-6.78930E-14
 -1      1456 1.20302E-02-8.38045E-04-7.22797E-14
 -1      1457 1.21993E-02-7.93633E-04-7.40711E-14
 -1      1458 1.19818E-02-8.18245E-04-7.14082E-14
 -1      1459 1.23690E-02-7.54772E-04-7.58787E-14
 -1      1460 1.25386E-02-7.21678E-04-7.76988E-14
 -1      1461 1.23166E-02-7.29192E-04-7.49905E-14
 -1      1462 1.27073E-02-6.93913E-04-7.95347E-14
 -1      1463 1.28746E-02-6.71180E-04-8.13865E-14
 -1      1464 1.26506E-02-6.63338E-04-7.86333E-14
 -1      1465 1.30402E-02-6.52701E-04-8.32491E-14
 -1      1466 1.32037E-02-6.37937E-04-8.51198E-14
 -1      1467 1.29800E-02-6.18597E-04-8.23291E-14
 -1      1468 1.33649E-02-6.26058E-04-8.70021E-14
 -1      1469 1.35237E-02-6.16456E-04-8.88923E-14
 -1      1470 1.33025E-02-5.90014E-04-8.60687E-14
 -1      1471 1.36801E-02-6.08378E-04-9.07894E-14
 -1      1472 1.38342E-02-6.01233E-04-9.26896E-14
 -1      1473 1.36169E-02-5.71829E-04-8.98451E-14
 -1      1474 1.39861E-02-5.94385E-04-9.45983E-14
 -1      1475 1.41359E-02-5.87304E-04-9.65125E-14
 -1      1476 1.39232E-02-5.58524E-04-9.36488E-14
 -1      1477 1.42838E-02-5.79488E-04-9.84320E-14
 -1      1478 1.44301E-02-5.70504E-04-1.00355E-13
 -1      1479 1.42223E-02-5.45238E-04-9.74740E-14
 -1      1480 1.45752E-02-5.60062E-04-1.02286E-13
 -1      1481 1.47191E-02-5.47928E-04-1.04224E-13
 -1      1482 1.45152E-02-5.28013E-04-1.01323E-13
 -1      1483 1.49282E-02-5.23611E-04-1.07045E-13
 -1      1484 1.48698E-02-4.93897E-04-1.06076E-13
 -1      1485 6.42949E-04 3.72057E-04-1.18314E-17
 -1      1486 4.92861E-04 3.03725E-04 1.22244E-17
 -1      1487 4.44797E-04 2.65936E-04-7.75205E-18
 -1      1488 9.28445E-04 4.72023E-04-1.18679E-16
 -1      1489 7.87629E-04 4.26534E-04-5.54976E-17
 -1      1490 7.44584E-04 3.90773E-04-8.13152E-17
 -1      1491 1.20323E-03 5.41415E-04-3.06274E-16
 -1      1492 1.06662E-03 5.09754E-04-2.01946E-16
 -1      1493 1.03054E-03 4.76204E-04-2.32846E-16
 -1      1494 1.47365E-03 5.90545E-04-5.77487E-16
 -1      1495 1.33866E-03 5.68125E-04-4.31214E-16
 -1      1496 1.30835E-03 5.35985E-04-4.65719E-16
 -1      1497 1.74303E-03 6.25320E-04-9.34908E-16
 -1      1498 1.60830E-03 6.09487E-04-7.45267E-16
 -1      1499 1.58246E-03 5.78186E-04-7.82740E-16
 -1      1500 2.01307E-03 6.49591E-04-1.37904E-15
 -1      1501 1.87788E-03 6.38598E-04-1.14587E-15
 -1      1502 1.85550E-03 6.07765E-04-1.18562E-15
 -1      1503 2.28457E-03 6.66082E-04-1.90942E-15
 -1      1504 2.14860E-03 6.58680E-04-1.63339E-15
 -1      1505 2.12886E-03 6.28087E-04-1.67555E-15
 -1      1506 2.55785E-03 6.76806E-04-2.53004E-15
 -1      1507 2.42097E-03 6.72066E-04-2.20828E-15
 -1      1508 2.40327E-03 6.41575E-04-2.25324E-15
 -1      1509 2.83299E-03 6.83267E-04-3.24393E-15
 -1      1510 2.69519E-03 6.80495E-04-2.87549E-15
 -1      1511 2.67904E-03 6.50021E-04-2.92178E-15
 -1      1512 3.10991E-03 6.86581E-04-4.05234E-15
 -1      1513 2.97124E-03 6.85262E-04-3.63651E-15
 -1      1514 2.95627E-03 6.54756E-04-3.68379E-15
 -1      1515 3.38848E-03 6.87560E-04-4.95411E-15
 -1      1516 3.24900E-03 6.87322E-04-4.49127E-15
 -1      1517 3.23493E-03 6.56759E-04-4.53873E-15
 -1      1518 3.66856E-03 6.86777E-04-5.95268E-15
 -1      1519 3.52834E-03 6.87360E-04-5.44107E-15
 -1      1520 3.51494E-03 6.56726E-04-5.48758E-15
 -1      1521 3.95000E-03 6.84619E-04-7.04715E-15
 -1      1522 3.80912E-03 6.85851E-04-6.48735E-15
 -1      1523 3.79624E-03 6.55140E-04-6.53302E-15
 -1      1524 4.23275E-03 6.81331E-04-8.24494E-15
 -1      1525 4.09122E-03 6.83103E-04-7.63286E-15
 -1      1526 4.07873E-03 6.52312E-04-7.67711E-15
 -1      1527 4.51678E-03 6.77051E-04-9.54831E-15
 -1      1528 4.37460E-03 6.79305E-04-8.88351E-15
 -1      1529 4.36242E-03 6.48427E-04-8.92450E-15
 -1      1530 4.80218E-03 6.71853E-04-1.09579E-14
 -1      1531 4.65931E-03 6.74558E-04-1.02404E-14
 -1      1532 4.64734E-03 6.43583E-04-1.02772E-14
 -1      1533 5.08913E-03 6.65779E-04-1.24708E-14
 -1      1534 4.94545E-03 6.68915E-04-1.17015E-14
 -1      1535 4.93361E-03 6.37822E-04-1.17344E-14
 -1      1536 5.37793E-03 6.58883E-04-1.40871E-14
 -1      1537 5.23328E-03 6.62418E-04-1.32658E-14
 -1      1538 5.22146E-03 6.31175E-04-1.32938E-14
 -1      1539 5.66902E-03 6.51280E-04-1.58064E-14
 -1      1540 5.52316E-03 6.55145E-04-1.49342E-14
 -1      1541 5.51123E-03 6.23702E-04-1.49561E-14
 -1      1542 5.96301E-03 6.43207E-04-1.76205E-14
 -1      1543 5.81561E-03 6.47262E-04-1.67013E-14
 -1      1544 5.80337E-03 6.15549E-04-1.67177E-14
 -1      1545 6.26063E-03 6.35106E-04-1.95291E-14
 -1      1546 6.11131E-03 6.39099E-04-1.85628E-14
 -1      1547 6.09847E-03 6.07019E-04-1.85749E-14
 -1      1548 6.56279E-03 6.27724E-04-2.15330E-14
 -1      1549 6.41108E-03 6.31236E-04-2.05192E-14
 -1      1550 6.39724E-03 5.98663E-04-2.05282E-14
 -1      1551 6.87050E-03 6.22249E-04-2.36325E-14
 -1      1552 6.71588E-03 6.24624E-04-2.25713E-14
 -1      1553 6.70052E-03 5.91399E-04-2.25764E-14
 -1      1554 7.18478E-03 6.20462E-04-2.58250E-14
 -1      1555 7.02675E-03 6.20730E-04-2.47173E-14
 -1      1556 7.00918E-03 5.86661E-04-2.47165E-14
 -1      1557 7.50652E-03 6.24897E-04-2.81116E-14
 -1      1558 7.34466E-03 6.21695E-04-2.69560E-14
 -1      1559 7.32405E-03 5.86563E-04-2.69517E-14
 -1      1560 7.83617E-03 6.38953E-04-3.04938E-14
 -1      1561 7.67033E-03 6.30484E-04-2.92916E-14
 -1      1562 7.64575E-03 5.94061E-04-2.92819E-14
 -1      1563 8.17337E-03 6.66834E-04-3.29630E-14
 -1      1564 8.00387E-03 6.50927E-04-3.17174E-14
 -1      1565 7.97442E-03 6.13017E-04-3.17031E-14
 -1      1566 8.51641E-03 7.13094E-04-3.55195E-14
 -1      1567 8.34431E-03 6.87496E-04-3.42302E-14
 -1      1568 8.30936E-03 6.48006E-04-3.42113E-14
 -1      1569 8.86177E-03 7.81473E-04-3.81697E-14
 -1      1570 8.68909E-03 7.44529E-04-3.68332E-14
 -1      1571 8.64868E-03 7.03590E-04-3.68103E-14
 -1      1572 9.20393E-03 8.72755E-04-4.09188E-14
 -1      1573 9.03368E-03 8.24595E-04-3.95314E-14
 -1      1574 8.98895E-03 7.82712E-04-3.95025E-14
 -1      1575 9.53599E-03 9.81831E-04-4.37626E-14
 -1      1576 9.37171E-03 9.25879E-04-4.23285E-14
 -1      1577 9.32527E-03 8.84057E-04-4.22916E-14
 -1      1578 9.85157E-03 1.09520E-03-4.67033E-14
 -1      1579 9.69620E-03 1.03924E-03-4.52212E-14
 -1      1580 9.65205E-03 9.98944E-04-4.51765E-14
 -1      1581 1.01478E-02 1.19150E-03-4.97343E-14
 -1      1582 1.00021E-02 1.14692E-03-4.82057E-14
 -1      1583 9.96491E-03 1.10966E-03-4.81557E-14
 -1      1584 1.04280E-02 1.24727E-03-5.28700E-14
 -1      1585 1.02894E-02 1.22549E-03-5.12893E-14
 -1      1586 1.02632E-02 1.19213E-03-5.12329E-14
 -1      1587 1.07020E-02 1.24696E-03-5.61072E-14
 -1      1588 1.05650E-02 1.25425E-03-5.44763E-14
 -1      1589 1.05519E-02 1.22435E-03-5.44148E-14
 -1      1590 1.09819E-02 1.19087E-03-5.94557E-14
 -1      1591 1.08404E-02 1.22498E-03-5.77678E-14
 -1      1592 1.08399E-02 1.19694E-03-5.77003E-14
 -1      1593 1.12774E-02 1.09502E-03-6.29028E-14
 -1      1594 1.11273E-02 1.14643E-03-6.11669E-14
 -1      1595 1.11367E-02 1.11832E-03-6.10896E-14
 -1      1596 1.15913E-02 9.82806E-04-6.64390E-14
 -1      1597 1.14321E-02 1.03954E-03-6.46609E-14
 -1      1598 1.14470E-02 1.01000E-03-6.45704E-14
 -1      1599 1.19206E-02 8.75260E-04-7.00461E-14
 -1      1600 1.17544E-02 9.27527E-04-6.82352E-14
 -1      1601 1.17707E-02 8.96116E-04-6.81371E-14
 -1      1602 1.22586E-02 7.85295E-04-7.37214E-14
 -1      1603 1.20890E-02 8.27723E-04-7.18759E-14
 -1      1604 1.21031E-02 7.94692E-04-7.17732E-14
 -1      1605 1.25982E-02 7.17374E-04-7.74537E-14
 -1      1606 1.24286E-02 7.48639E-04-7.55802E-14
 -1      1607 1.24387E-02 7.14580E-04-7.54723E-14
 -1      1608 1.29337E-02 6.70014E-04-8.12267E-14
 -1      1609 1.27667E-02 6.91403E-04-7.93349E-14
 -1      1610 1.27723E-02 6.56956E-04-7.92205E-14
 -1      1611 1.32615E-02 6.38700E-04-8.50220E-14
 -1      1612 1.30987E-02 6.52705E-04-8.31248E-14
 -1      1613 1.31003E-02 6.18407E-04-8.30011E-14
 -1      1614 1.35799E-02 6.17940E-04-8.88183E-14
 -1      1615 1.34220E-02 6.27348E-04-8.69227E-14
 -1      1616 1.34205E-02 5.93590E-04-8.67942E-14
 -1      1617 1.38887E-02 6.02365E-04-9.26172E-14
 -1      1618 1.37355E-02 6.09810E-04-9.07173E-14
 -1      1619 1.37323E-02 5.76841E-04-9.05889E-14
 -1      1620 1.41887E-02 5.87192E-04-9.64244E-14
 -1      1621 1.40397E-02 5.94976E-04-9.45180E-14
 -1      1622 1.40360E-02 5.62927E-04-9.43885E-14
 -1      1623 1.44816E-02 5.68497E-04-1.00245E-13
 -1      1624 1.43359E-02 5.78458E-04-9.83317E-14
 -1      1625 1.43325E-02 5.47358E-04-9.81988E-14
 -1      1626 1.47697E-02 5.43815E-04-1.04068E-13
 -1      1627 1.46261E-02 5.56931E-04-1.02157E-13
 -1      1628 1.46234E-02 5.26684E-04-1.02022E-13
 -1      1629 1.49225E-02 5.17856E-04-1.06073E-13
 -1      1630 1.49752E-02 4.12801E-04-1.06381E-13
 -1      1631 1.49579E-02 4.53830E-04-1.06321E-13
 -1      1632 1.50142E-02 3.33910E-04-1.06498E-13
 -1      1633 1.49941E-02 3.72737E-04-1.06441E-13
 -1      1634 1.48611E-02 4.05864E-04-1.04752E-13
 -1      1635 1.50569E-02 2.60751E-04-1.06616E-13
 -1      1636 1.50353E-02 2.96525E-04-1.06556E-13
 -1      1637 1.49021E-02 3.28531E-04-1.04866E-13
 -1      1638 1.50994E-02 1.94369E-04-1.06731E-13
 -1      1639 1.50784E-02 2.26685E-04-1.06677E-13
 -1      1640 1.49461E-02 2.56573E-04-1.04980E-13
 -1      1641 1.51366E-02 1.35782E-04-1.06834E-13
 -1      1642 1.51188E-02 1.64280E-04-1.06783E-13
 -1      1643 1.49883E-02 1.91052E-04-1.05086E-13
 -1      1644 1.51660E-02 8.20883E-05-1.06921E-13
 -1      1645 1.51526E-02 1.08277E-04-1.06881E-13
 -1      1646 1.50250E-02 1.31124E-04-1.05181E-13
 -1      1647 1.51836E-02 3.26345E-05-1.06987E-13
 -1      1648 1.51764E-02 5.69611E-05-1.06954E-13
 -1      1649 1.50523E-02 7.54039E-05-1.05258E-13
 -1      1650 1.51874E-02-1.48939E-05-1.07049E-13
 -1      1651 1.51873E-02 8.78414E-06-1.07020E-13
 -1      1652 1.50669E-02 2.28237E-05-1.05324E-13
 -1      1653 1.51771E-02-6.30851E-05-1.07084E-13
 -1      1654 1.51840E-02-3.87491E-05-1.07071E-13
 -1      1655 1.50672E-02-2.86624E-05-1.05379E-13
 -1      1656 1.51539E-02-1.14435E-04-1.07124E-13
 -1      1657 1.51670E-02-8.82267E-05-1.07103E-13
 -1      1658 1.50532E-02-8.12577E-05-1.05421E-13
 -1      1659 1.51210E-02-1.69984E-04-1.07168E-13
 -1      1660 1.51385E-02-1.41485E-04-1.07148E-13
 -1      1661 1.50267E-02-1.36518E-04-1.05459E-13
 -1      1662 1.50810E-02-2.32960E-04-1.07207E-13
 -1      1663 1.51016E-02-2.00610E-04-1.07189E-13
 -1      1664 1.49908E-02-1.96444E-04-1.05496E-13
 -1      1665 1.50386E-02-3.02876E-04-1.07223E-13
 -1      1666 1.50599E-02-2.67062E-04-1.07219E-13
 -1      1667 1.49488E-02-2.62557E-04-1.05524E-13
 -1      1668 1.49981E-02-3.79146E-04-1.07220E-13
 -1      1669 1.50179E-02-3.40298E-04-1.07223E-13
 -1      1670 1.49056E-02-3.34575E-04-1.05535E-13
 -1      1671 1.49243E-02-4.56472E-04-1.06648E-13
 -1      1672 1.49416E-02-4.15669E-04-1.06648E-13
 -1      1673 1.48275E-02-4.08011E-04-1.04965E-13
 -1      1674 1.47149E-02-4.80246E-04-1.03828E-13
 -1      1675 1.27831E-02 7.15227E-05-6.37287E-14
 -1      1676 1.28139E-02 2.61578E-05-6.38422E-14
 -1      1677 1.26038E-02 1.78718E-04-6.33522E-14
 -1      1678 1.27060E-02 1.21480E-04-6.36667E-14
 -1      1679 1.23326E-02 3.35871E-04-6.23006E-14
 -1      1680 1.24668E-02 2.68993E-04-6.27265E-14
 -1      1681 1.19838E-02 5.04646E-04-6.11162E-14
 -1      1682 1.21546E-02 4.23011E-04-6.17050E-14
 -1      1683 1.15932E-02 6.81740E-04-5.96651E-14
 -1      1684 1.17763E-02 6.00449E-04-6.03604E-14
 -1      1685 1.11933E-02 8.32662E-04-5.80730E-14
 -1      1686 1.13737E-02 7.67195E-04-5.88290E-14
 -1      1687 1.07611E-02 9.37289E-04-5.62106E-14
 -1      1688 1.09546E-02 8.99975E-04-5.71144E-14
 -1      1689 1.03724E-02 9.29014E-04-5.44286E-14
 -1      1690 1.05457E-02 9.40457E-04-5.51966E-14
 -1      1691 9.96017E-03 8.36664E-04-5.26366E-14
 -1      1692 1.01578E-02 8.93522E-04-5.34639E-14
 -1      1693 9.53147E-03 6.60928E-04-5.09262E-14
 -1      1694 9.73078E-03 7.48409E-04-5.16591E-14
 -1      1695 9.10985E-03 4.61857E-04-4.95432E-14
 -1      1696 9.29669E-03 5.52003E-04-5.01259E-14
 -1      1697 8.74820E-03 2.86809E-04-4.85245E-14
 -1      1698 8.90249E-03 3.61432E-04-4.89381E-14
 -1      1699 8.46010E-03 1.37051E-04-4.77827E-14
 -1      1700 8.58002E-03 1.99463E-04-4.80630E-14
 -1      1701 8.32671E-03 4.17454E-05-4.76834E-14
 -1      1702 8.36653E-03 8.73715E-05-4.77610E-14
 -1      1703 8.34048E-03-5.60582E-05-4.76878E-14
 -1      1704 8.31578E-03-1.16114E-05-4.76066E-14
 -1      1705 8.49016E-03-1.71254E-04-4.81800E-14
 -1      1706 8.40581E-03-1.17698E-04-4.79491E-14
 -1      1707 8.77770E-03-3.05085E-04-4.88676E-14
 -1      1708 8.63113E-03-2.32915E-04-4.84549E-14
 -1      1709 9.11604E-03-4.86476E-04-5.00299E-14
 -1      1710 8.95263E-03-4.07977E-04-4.95136E-14
 -1      1711 9.52354E-03-6.64550E-04-5.13465E-14
 -1      1712 9.33456E-03-5.77767E-04-5.06781E-14
 -1      1713 9.90557E-03-8.21093E-04-5.29016E-14
 -1      1714 9.72923E-03-7.56745E-04-5.21990E-14
 -1      1715 1.02997E-02-9.20950E-04-5.45564E-14
 -1      1716 1.01193E-02-8.82935E-04-5.37673E-14
 -1      1717 1.07001E-02-9.42673E-04-5.63802E-14
 -1      1718 1.05190E-02-9.47644E-04-5.55329E-14
 -1      1719 1.11051E-02-8.59400E-04-5.81167E-14
 -1      1720 1.09233E-02-9.04544E-04-5.73307E-14
 -1      1721 1.14996E-02-7.13424E-04-5.98011E-14
 -1      1722 1.13134E-02-7.88385E-04-5.90593E-14
 -1      1723 1.18776E-02-5.53777E-04-6.10991E-14
 -1      1724 1.17155E-02-6.28086E-04-6.05286E-14
 -1      1725 1.22243E-02-3.77014E-04-6.23409E-14
 -1      1726 1.20611E-02-4.55904E-04-6.18193E-14
 -1      1727 1.25256E-02-2.33167E-04-6.31859E-14
 -1      1728 1.23993E-02-2.96978E-04-6.28262E-14
 -1      1729 1.27283E-02-1.19102E-04-6.36853E-14
 -1      1730 1.26484E-02-1.70256E-04-6.34764E-14
 -1      1731 1.28148E-02-2.42037E-05-6.38825E-14
 -1      1732 1.27891E-02-6.54528E-05-6.38353E-14
 -1      1733 1.18208E-02 5.14003E-04-6.11577E-14
 -1      1734 1.21984E-02 3.27602E-04-6.25204E-14
 -1      1735 1.49206E-02 4.88097E-04-1.05940E-13
 -1      1736 1.48046E-02 4.79875E-04-1.04313E-13
 -1      1737 1.27448E-02 6.84596E-05-6.44434E-14
 -1      1738 1.25202E-02 1.67159E-04-6.37503E-14
 -1      1739 1.28238E-02 1.26159E-06-6.45435E-14
 -1      1740 1.14211E-02 7.10209E-04-5.95546E-14
 -1      1741 1.10173E-02 8.80457E-04-5.77483E-14
 -1      1742 1.06568E-02 9.65870E-04-5.57661E-14
 -1      1743 1.02847E-02 9.31738E-04-5.37877E-14
 -1      1744 9.90081E-03 7.91801E-04-5.18520E-14
 -1      1745 9.48217E-03 5.75131E-04-5.00864E-14
 -1      1746 9.06070E-03 3.58348E-04-4.86965E-14
 -1      1747 8.68541E-03 1.83988E-04-4.76451E-14
 -1      1748 8.41760E-03 8.08510E-05-4.71750E-14
 -1      1749 8.31135E-03 8.90675E-06-4.70806E-14
 -1      1750 8.36858E-03-5.79749E-05-4.72643E-14
 -1      1751 8.57982E-03-1.54495E-04-4.77950E-14
 -1      1752 8.90223E-03-2.98721E-04-4.87034E-14
 -1      1753 9.28987E-03-4.92937E-04-4.99860E-14
 -1      1754 9.68369E-03-6.93390E-04-5.14715E-14
 -1      1755 1.00620E-02-8.62515E-04-5.31806E-14
 -1      1756 1.04303E-02-9.60818E-04-5.50185E-14
 -1      1757 1.07805E-02-9.47708E-04-5.69484E-14
 -1      1758 1.11598E-02-8.27703E-04-5.88465E-14
 -1      1759 1.15358E-02-6.50783E-04-6.05267E-14
 -1      1760 1.19158E-02-4.57663E-04-6.19831E-14
 -1      1761 1.22707E-02-2.81820E-04-6.31974E-14
 -1      1762 1.25716E-02-1.53740E-04-6.39813E-14
 -1      1763 1.27609E-02-6.52105E-05-6.44285E-14
 -1      1764 2.85188E-04-1.76259E-04-2.45843E-17
 -1      1765 3.32153E-04-1.16842E-04-1.00777E-16
 -1      1766 3.36290E-04-1.33087E-04-9.34718E-17
 -1      1767 3.42167E-04-1.52070E-04-8.44322E-17
 -1      1768 3.51707E-04-1.74065E-04-7.20994E-17
 -1      1769 4.58277E-04-1.88163E-04-1.35986E-16
 -1      1770 3.24588E-04-6.54383E-05-1.16132E-16
 -1      1771 3.25723E-04-7.67329E-05-1.13909E-16
 -1      1772 3.23123E-04-4.39310E-05-1.18720E-16
 -1      1773 3.23765E-04-5.44276E-05-1.17744E-16
 -1      1774 4.36554E-04-7.93555E-05-1.73445E-16
 -1      1775 3.22354E-04-2.37956E-05-1.19222E-16
 -1      1776 3.22679E-04-3.37178E-05-1.19113E-16
 -1      1777 4.34590E-04-5.13611E-05-1.76047E-16
 -1      1778 3.22067E-04-4.34219E-06-1.18097E-16
 -1      1779 3.22161E-04-1.40040E-05-1.18896E-16
 -1      1780 4.33587E-04-2.49460E-05-1.76224E-16
 -1      1781 3.22187E-04 1.49950E-05-1.15603E-16
 -1      1782 3.22075E-04 5.32303E-06-1.17134E-16
 -1      1783 4.33296E-04 7.57105E-07-1.74326E-16
 -1      1784 3.22741E-04 3.47621E-05-1.11470E-16
 -1      1785 3.22397E-04 2.48075E-05-1.13801E-16
 -1      1786 4.33645E-04 2.64889E-05-1.70220E-16
 -1      1787 3.23852E-04 5.52135E-05-1.05439E-16
 -1      1788 3.23198E-04 4.48445E-05-1.08786E-16
 -1      1789 4.34703E-04 5.27642E-05-1.63687E-16
 -1      1790 3.25885E-04 7.78746E-05-9.65482E-17
 -1      1791 3.24699E-04 6.62891E-05-1.01441E-16
 -1      1792 4.36730E-04 8.06584E-05-1.54214E-16
 -1      1793 3.29546E-04 1.03718E-04-8.40934E-17
 -1      1794 3.27413E-04 9.03659E-05-9.09917E-17
 -1      1795 4.40345E-04 1.11638E-04-1.40797E-16
 -1      1796 3.36548E-04 1.35174E-04-6.60144E-17
 -1      1797 3.32382E-04 1.18678E-04-7.61788E-17
 -1      1798 4.46774E-04 1.47413E-04-1.22068E-16
 -1      1799 3.52243E-04 1.77656E-04-3.98715E-17
 -1      1800 3.42763E-04 1.54817E-04-5.44134E-17
 -1      1801 4.59263E-04 1.91528E-04-9.53962E-17
 -1      1802 4.07620E-04 2.33728E-04-1.99087E-17
 -1      1803 3.78021E-04 2.02710E-04-3.23499E-17
 -1      1804 4.95769E-04 2.44057E-04-7.04867E-17
 -1      1805 5.58435E-04 3.02555E-04-4.88569E-17
 -1      1806 3.39958E-04-1.90952E-04-4.91686E-17
 -1      1807 8.53385E-04 4.07170E-04-1.64948E-16
 -1      1808 7.07018E-04 3.59431E-04-9.75375E-17
 -1      1809 6.73270E-04 3.28870E-04-1.11158E-16
 -1      1810 4.58870E-04-2.36773E-04-9.30517E-17
 -1      1811 8.07070E-04-3.74173E-04-2.62472E-16
 -1      1812 9.52303E-04-4.15350E-04-3.73128E-16
 -1      1813 1.09510E-03-4.50023E-04-5.05442E-16
 -1      1814 1.23673E-03-4.78893E-04-6.59873E-16
 -1      1815 1.00375E-03-3.97968E-04-4.66139E-16
 -1      1816 1.37710E-03-5.03340E-04-8.36625E-16
 -1      1817 1.51674E-03-5.23663E-04-1.03597E-15
 -1      1818 1.28937E-03-4.55883E-04-7.80395E-16
 -1      1819 1.65586E-03-5.40776E-04-1.25793E-15
 -1      1820 1.79466E-03-5.54918E-04-1.50241E-15
 -1      1821 1.57171E-03-4.96728E-04-1.18309E-15
 -1      1822 1.93333E-03-5.66695E-04-1.77011E-15
 -1      1823 2.07193E-03-5.76305E-04-2.06100E-15
 -1      1824 1.85226E-03-5.25109E-04-1.67569E-15
 -1      1825 2.21064E-03-5.84164E-04-2.37474E-15
 -1      1826 2.34943E-03-5.90439E-04-2.71102E-15
 -1      1827 2.13209E-03-5.44339E-04-2.25957E-15
 -1      1828 2.48843E-03-5.95421E-04-3.07085E-15
 -1      1829 2.62760E-03-5.99247E-04-3.45427E-15
 -1      1830 2.41190E-03-5.56846E-04-2.93464E-15
 -1      1831 2.76703E-03-6.02121E-04-3.86075E-15
 -1      1832 2.90668E-03-6.04151E-04-4.29022E-15
 -1      1833 2.69209E-03-5.64425E-04-3.70138E-15
 -1      1834 3.04661E-03-6.05481E-04-4.74318E-15
 -1      1835 3.18677E-03-6.06194E-04-5.21821E-15
 -1      1836 2.97288E-03-5.68401E-04-4.56087E-15
 -1      1837 3.32720E-03-6.06387E-04-5.71655E-15
 -1      1838 3.46786E-03-6.06120E-04-6.23859E-15
 -1      1839 3.25439E-03-5.69737E-04-5.51202E-15
 -1      1840 3.60879E-03-6.05457E-04-6.78355E-15
 -1      1841 3.74996E-03-6.04442E-04-7.35196E-15
 -1      1842 3.53667E-03-5.69117E-04-6.55482E-15
 -1      1843 3.89138E-03-6.03109E-04-7.94278E-15
 -1      1844 4.03303E-03-6.01491E-04-8.55669E-15
 -1      1845 3.81973E-03-5.66999E-04-7.69008E-15
 -1      1846 4.17494E-03-5.99601E-04-9.19418E-15
 -1      1847 4.31710E-03-5.97462E-04-9.85396E-15
 -1      1848 4.10359E-03-5.63676E-04-8.91794E-15
 -1      1849 4.45952E-03-5.95073E-04-1.05360E-14
 -1      1850 4.60221E-03-5.92453E-04-1.12409E-14
 -1      1851 4.38828E-03-5.59308E-04-1.02365E-14
 -1      1852 4.74518E-03-5.89589E-04-1.19699E-14
 -1      1853 4.88846E-03-5.86499E-04-1.27209E-14
 -1      1854 4.67385E-03-5.53969E-04-1.16446E-14
 -1      1855 5.03207E-03-5.83169E-04-1.34950E-14
 -1      1856 5.17605E-03-5.79616E-04-1.42936E-14
 -1      1857 4.96043E-03-5.47677E-04-1.31454E-14
 -1      1858 5.32041E-03-5.75829E-04-1.51169E-14
 -1      1859 5.46523E-03-5.71836E-04-1.59619E-14
 -1      1860 5.24819E-03-5.40437E-04-1.47409E-14
 -1      1861 5.61051E-03-5.67634E-04-1.68302E-14
 -1      1862 5.75636E-03-5.63267E-04-1.77234E-14
 -1      1863 5.53736E-03-5.32286E-04-1.64313E-14
 -1      1864 5.90278E-03-5.58753E-04-1.86403E-14
 -1      1865 6.04989E-03-5.54158E-04-1.95805E-14
 -1      1866 5.82826E-03-5.23345E-04-1.82154E-14
 -1      1867 6.19771E-03-5.49537E-04-2.05439E-14
 -1      1868 6.34639E-03-5.44987E-04-2.15313E-14
 -1      1869 6.12127E-03-5.13894E-04-2.00960E-14
 -1      1870 6.49593E-03-5.40621E-04-2.25405E-14
 -1      1871 6.64650E-03-5.36580E-04-2.35749E-14
 -1      1872 6.41687E-03-5.04466E-04-2.20676E-14
 -1      1873 6.79810E-03-5.33056E-04-2.46331E-14
 -1      1874 6.95092E-03-5.30252E-04-2.57142E-14
 -1      1875 6.71562E-03-4.95965E-04-2.41359E-14
 -1      1876 7.10495E-03-5.28467E-04-2.68193E-14
 -1      1877 7.26036E-03-5.27982E-04-2.79478E-14
 -1      1878 7.01813E-03-4.89820E-04-2.62978E-14
 -1      1879 7.41716E-03-5.29232E-04-2.90988E-14
 -1      1880 7.57546E-03-5.32587E-04-3.02726E-14
 -1      1881 7.32507E-03-4.88158E-04-2.85527E-14
 -1      1882 7.73530E-03-5.38632E-04-3.14714E-14
 -1      1883 7.89665E-03-5.47832E-04-3.26917E-14
 -1      1884 7.63716E-03-4.93976E-04-3.09004E-14
 -1      1885 8.05963E-03-5.60889E-04-3.39358E-14
 -1      1886 8.22395E-03-5.78338E-04-3.52050E-14
 -1      1887 7.95504E-03-5.11235E-04-3.33402E-14
 -1      1888 8.38988E-03-6.00886E-04-3.64968E-14
 -1      1889 8.55673E-03-6.29034E-04-3.78114E-14
 -1      1890 8.27925E-03-5.44741E-04-3.58747E-14
 -1      1891 8.72493E-03-6.63255E-04-3.91498E-14
 -1      1892 8.89332E-03-7.03791E-04-4.05095E-14
 -1      1893 8.60987E-03-5.99531E-04-3.85012E-14
 -1      1894 9.06243E-03-7.50493E-04-4.18933E-14
 -1      1895 9.23069E-03-8.02928E-04-4.32996E-14
 -1      1896 8.94608E-03-6.79389E-04-4.12181E-14
 -1      1897 9.39853E-03-8.59882E-04-4.47292E-14
 -1      1898 9.56434E-03-9.19757E-04-4.61800E-14
 -1      1899 9.28533E-03-7.84096E-04-4.40274E-14
 -1      1900 9.72824E-03-9.80036E-04-4.76511E-14
 -1      1901 9.88933E-03-1.03777E-03-4.91475E-14
 -1      1902 9.62291E-03-9.05524E-04-4.69245E-14
 -1      1903 1.00472E-02-1.08954E-03-5.06658E-14
 -1      1904 1.02027E-02-1.13178E-03-5.22062E-14
 -1      1905 9.95287E-03-1.02451E-03-4.99117E-14
 -1      1906 1.03549E-02-1.16142E-03-5.37689E-14
 -1      1907 1.05065E-02-1.17603E-03-5.53517E-14
 -1      1908 1.02716E-02-1.11273E-03-5.29891E-14
 -1      1909 1.06565E-02-1.17448E-03-5.69604E-14
 -1      1910 1.08082E-02-1.15695E-03-5.85899E-14
 -1      1911 1.05820E-02-1.14345E-03-5.61592E-14
 -1      1912 1.09608E-02-1.12490E-03-6.02397E-14
 -1      1913 1.11165E-02-1.08103E-03-6.19114E-14
 -1      1914 1.08928E-02-1.10651E-03-5.94180E-14
 -1      1915 1.12746E-02-1.02855E-03-6.36021E-14
 -1      1916 1.14357E-02-9.70996E-04-6.53104E-14
 -1      1917 1.12123E-02-1.01498E-03-6.27611E-14
 -1      1918 1.15994E-02-9.11705E-04-6.70360E-14
 -1      1919 1.17645E-02-8.53450E-04-6.87792E-14
 -1      1920 1.15423E-02-8.96602E-04-6.61806E-14
 -1      1921 1.19314E-02-7.98554E-04-7.05393E-14
 -1      1922 1.20983E-02-7.48406E-04-7.23144E-14
 -1      1923 1.18787E-02-7.78752E-04-6.96677E-14
 -1      1924 1.22657E-02-7.04019E-04-7.41047E-14
 -1      1925 1.24321E-02-6.65663E-04-7.59114E-14
 -1      1926 1.22153E-02-6.78890E-04-7.32207E-14
 -1      1927 1.25979E-02-6.33321E-04-7.77325E-14
 -1      1928 1.27620E-02-6.06641E-04-7.95672E-14
 -1      1929 1.25477E-02-6.03555E-04-7.68320E-14
 -1      1930 1.29249E-02-5.85018E-04-8.14131E-14
 -1      1931 1.30858E-02-5.67856E-04-8.32705E-14
 -1      1932 1.28735E-02-5.51811E-04-8.05006E-14
 -1      1933 1.32452E-02-5.54319E-04-8.51412E-14
 -1      1934 1.34026E-02-5.43778E-04-8.70186E-14
 -1      1935 1.31921E-02-5.18973E-04-8.42129E-14
 -1      1936 1.35582E-02-5.35382E-04-8.89032E-14
 -1      1937 1.37120E-02-5.28552E-04-9.07978E-14
 -1      1938 1.35035E-02-4.99147E-04-8.79657E-14
 -1      1939 1.38640E-02-5.22524E-04-9.26971E-14
 -1      1940 1.40145E-02-5.16778E-04-9.46028E-14
 -1      1941 1.38082E-02-4.86534E-04-9.17463E-14
 -1      1942 1.41633E-02-5.10692E-04-9.65183E-14
 -1      1943 1.43108E-02-5.03797E-04-9.84374E-14
 -1      1944 1.41070E-02-4.75958E-04-9.55609E-14
 -1      1945 1.44411E-02-4.98255E-04-1.00162E-13
 -1      1946 1.45864E-02-4.88649E-04-1.02094E-13
 -1      1947 1.46428E-02-4.52556E-04-1.02659E-13
 -1      1948 1.43847E-02-4.65467E-04-9.91999E-14
 -1      1949 1.13835E-03 4.80105E-04-3.58884E-16
 -1      1950 9.96627E-04 4.46873E-04-2.51684E-16
 -1      1951 9.64271E-04 4.17426E-04-2.67988E-16
 -1      1952 1.41738E-03 5.31519E-04-6.34597E-16
 -1      1953 1.27827E-03 5.08110E-04-4.86183E-16
 -1      1954 1.24867E-03 4.79984E-04-5.04046E-16
 -1      1955 1.69365E-03 5.67694E-04-9.95447E-16
 -1      1956 1.55567E-03 5.51268E-04-8.04288E-16
 -1      1957 1.52886E-03 5.24111E-04-8.23086E-16
 -1      1958 1.96910E-03 5.92789E-04-1.44211E-15
 -1      1959 1.83138E-03 5.81458E-04-1.20776E-15
 -1      1960 1.80701E-03 5.54945E-04-1.22721E-15
 -1      1961 2.24481E-03 6.09738E-04-1.97567E-15
 -1      1962 2.10688E-03 6.02158E-04-1.69787E-15
 -1      1963 2.08453E-03 5.76057E-04-1.71765E-15
 -1      1964 2.52136E-03 6.20687E-04-2.59874E-15
 -1      1965 2.38296E-03 6.15871E-04-2.27626E-15
 -1      1966 2.36225E-03 5.90024E-04-2.29581E-15
 -1      1967 2.79899E-03 6.27227E-04-3.31310E-15
 -1      1968 2.66003E-03 6.24440E-04-2.94404E-15
 -1      1969 2.64063E-03 5.98743E-04-2.96357E-15
 -1      1970 3.07783E-03 6.30531E-04-4.12012E-15
 -1      1971 2.93826E-03 6.29234E-04-3.70492E-15
 -1      1972 2.91989E-03 6.03618E-04-3.72299E-15
 -1      1973 3.35785E-03 6.31448E-04-5.01931E-15
 -1      1974 3.21770E-03 6.31252E-04-4.55814E-15
 -1      1975 3.20012E-03 6.05673E-04-4.57461E-15
 -1      1976 3.63903E-03 6.30575E-04-6.01441E-15
 -1      1977 3.49830E-03 6.31211E-04-5.50471E-15
 -1      1978 3.48135E-03 6.05642E-04-5.51923E-15
 -1      1979 3.92131E-03 6.28311E-04-7.10577E-15
 -1      1980 3.78004E-03 6.29601E-04-6.54747E-15
 -1      1981 3.76355E-03 6.04025E-04-6.55938E-15
 -1      1982 4.20468E-03 6.24904E-04-8.29752E-15
 -1      1983 4.06286E-03 6.26741E-04-7.68871E-15
 -1      1984 4.04672E-03 6.01148E-04-7.69709E-15
 -1      1985 4.48915E-03 6.20489E-04-9.59232E-15
 -1      1986 4.34678E-03 6.22816E-04-8.93242E-15
 -1      1987 4.33087E-03 5.97200E-04-8.93670E-15
 -1      1988 4.77482E-03 6.15129E-04-1.09928E-14
 -1      1989 4.63183E-03 6.17922E-04-1.02795E-14
 -1      1990 4.61605E-03 5.92275E-04-1.02796E-14
 -1      1991 5.06183E-03 6.08847E-04-1.24962E-14
 -1      1992 4.91814E-03 6.12097E-04-1.17319E-14
 -1      1993 4.90236E-03 5.86406E-04-1.17263E-14
 -1      1994 5.35043E-03 6.01673E-04-1.40995E-14
 -1      1995 5.20591E-03 6.05362E-04-1.32849E-14
 -1      1996 5.19000E-03 5.79608E-04-1.32736E-14
 -1      1997 5.64099E-03 5.93686E-04-1.58063E-14
 -1      1998 5.49544E-03 5.97764E-04-1.49403E-14
 -1      1999 5.47923E-03 5.71916E-04-1.49228E-14
 -1      2000 5.93395E-03 5.85080E-04-1.76103E-14
 -1      2001 5.78713E-03 5.89432E-04-1.66963E-14
 -1      2002 5.77040E-03 5.63442E-04-1.66724E-14
 -1      2003 6.22991E-03 5.76244E-04-1.95107E-14
 -1      2004 6.08151E-03 5.80646E-04-1.85480E-14
 -1      2005 6.06396E-03 5.54444E-04-1.85196E-14
 -1      2006 6.52953E-03 5.67860E-04-2.15057E-14
 -1      2007 6.37920E-03 5.71928E-04-2.04966E-14
 -1      2008 6.36047E-03 5.45414E-04-2.04620E-14
 -1      2009 6.83358E-03 5.61045E-04-2.35946E-14
 -1      2010 6.68093E-03 5.64159E-04-2.25388E-14
 -1      2011 6.66055E-03 5.37194E-04-2.24996E-14
 -1      2012 7.14283E-03 5.57502E-04-2.57772E-14
 -1      2013 6.98748E-03 5.58729E-04-2.46732E-14
 -1      2014 6.96490E-03 5.31127E-04-2.46287E-14
 -1      2015 7.45798E-03 5.59703E-04-2.80535E-14
 -1      2016 7.29961E-03 5.57706E-04-2.69039E-14
 -1      2017 7.27422E-03 5.29220E-04-2.68523E-14
 -1      2018 7.77950E-03 5.71020E-04-3.04247E-14
 -1      2019 7.61792E-03 5.64001E-04-2.92278E-14
 -1      2020 7.58913E-03 5.34322E-04-2.91714E-14
 -1      2021 8.10738E-03 5.95721E-04-3.28833E-14
 -1      2022 7.94268E-03 5.81450E-04-3.16428E-14
 -1      2023 7.91008E-03 5.50224E-04-3.15813E-14
 -1      2024 8.44085E-03 6.38610E-04-3.54309E-14
 -1      2025 8.27355E-03 6.14667E-04-3.41460E-14
 -1      2026 8.23710E-03 5.81550E-04-3.40784E-14
 -1      2027 8.77806E-03 7.03982E-04-3.80708E-14
 -1      2028 8.60926E-03 6.68382E-04-3.67396E-14
 -1      2029 8.56957E-03 6.33179E-04-3.66657E-14
 -1      2030 9.11577E-03 7.93562E-04-4.08040E-14
 -1      2031 8.94727E-03 7.45922E-04-3.94238E-14
 -1      2032 8.90584E-03 7.08835E-04-3.93452E-14
 -1      2033 9.44946E-03 9.03459E-04-4.36326E-14
 -1      2034 9.28363E-03 8.46610E-04-4.22074E-14
 -1      2035 9.24285E-03 8.08550E-04-4.21197E-14
 -1      2036 9.77416E-03 1.02108E-03-4.65600E-14
 -1      2037 9.61336E-03 9.62483E-04-4.50842E-14
 -1      2038 9.57609E-03 9.25224E-04-4.49903E-14
 -1      2039 1.00865E-02 1.12475E-03-4.95782E-14
 -1      2040 9.93194E-03 1.07615E-03-4.80571E-14
 -1      2041 9.90059E-03 1.04194E-03-4.79548E-14
 -1      2042 1.03872E-02 1.18887E-03-5.27031E-14
 -1      2043 1.02378E-02 1.16297E-03-5.11278E-14
 -1      2044 1.02136E-02 1.13344E-03-5.10202E-14
 -1      2045 1.06825E-02 1.19483E-03-5.59275E-14
 -1      2046 1.05346E-02 1.19938E-03-5.43028E-14
 -1      2047 1.05175E-02 1.17441E-03-5.41868E-14
 -1      2048 1.09813E-02 1.14110E-03-5.92578E-14
 -1      2049 1.08306E-02 1.17457E-03-5.75787E-14
 -1      2050 1.08198E-02 1.15222E-03-5.74566E-14
 -1      2051 1.12903E-02 1.04394E-03-6.26845E-14
 -1      2052 1.11341E-02 1.09644E-03-6.09601E-14
 -1      2053 1.11290E-02 1.07433E-03-6.08283E-14
 -1      2054 1.16112E-02 9.28491E-04-6.62005E-14
 -1      2055 1.14494E-02 9.87070E-04-6.44312E-14
 -1      2056 1.14491E-02 9.63646E-04-6.42915E-14
 -1      2057 1.19411E-02 8.17510E-04-6.97960E-14
 -1      2058 1.17754E-02 8.71546E-04-6.79907E-14
 -1      2059 1.17783E-02 8.46410E-04-6.78414E-14
 -1      2060 1.22748E-02 7.24923E-04-7.34578E-14
 -1      2061 1.21079E-02 7.68601E-04-7.16184E-14
 -1      2062 1.21120E-02 7.42085E-04-7.14650E-14
 -1      2063 1.26077E-02 6.55525E-04-7.71799E-14
 -1      2064 1.24418E-02 6.87415E-04-7.53106E-14
 -1      2065 1.24453E-02 6.60052E-04-7.51513E-14
 -1      2066 1.29361E-02 6.07766E-04-8.09382E-14
 -1      2067 1.27728E-02 6.29228E-04-7.90555E-14
 -1      2068 1.27745E-02 6.01501E-04-7.88876E-14
 -1      2069 1.32579E-02 5.76917E-04-8.47223E-14
 -1      2070 1.30980E-02 5.90572E-04-8.28305E-14
 -1      2071 1.30975E-02 5.62856E-04-8.26586E-14
 -1      2072 1.35721E-02 5.57248E-04-8.85139E-14
 -1      2073 1.34161E-02 5.66013E-04-8.66188E-14
 -1      2074 1.34134E-02 5.38598E-04-8.64428E-14
 -1      2075 1.38787E-02 5.43178E-04-9.23089E-14
 -1      2076 1.37264E-02 5.49799E-04-9.04103E-14
 -1      2077 1.37221E-02 5.22912E-04-9.02324E-14
 -1      2078 1.41783E-02 5.29749E-04-9.61140E-14
 -1      2079 1.40293E-02 5.36620E-04-9.42101E-14
 -1      2080 1.40241E-02 5.10444E-04-9.40297E-14
 -1      2081 1.44719E-02 5.12855E-04-9.99276E-14
 -1      2082 1.43257E-02 5.21910E-04-9.80187E-14
 -1      2083 1.43200E-02 4.96584E-04-9.78382E-14
 -1      2084 1.47109E-02 4.91337E-04-1.03075E-13
 -1      2085 1.45665E-02 5.03175E-04-1.01163E-13
 -1      2086 1.45608E-02 4.78612E-04-1.00982E-13
 -1      2087 1.47491E-02 4.57773E-04-1.03456E-13
 -1      2088 1.48354E-02 2.49468E-04-1.03343E-13
 -1      2089 1.48129E-02 2.84484E-04-1.03289E-13
 -1      2090 1.47904E-02 3.20861E-04-1.03233E-13
 -1      2091 1.47683E-02 3.58470E-04-1.03180E-13
 -1      2092 1.46790E-02 3.11087E-04-1.01601E-13
 -1      2093 1.47675E-02 3.87593E-04-1.03346E-13
 -1      2094 1.47477E-02 4.27240E-04-1.03289E-13
 -1      2095 1.46538E-02 4.37728E-04-1.02050E-13
 -1      2096 1.46544E-02 3.77664E-04-1.01715E-13
 -1      2097 1.48773E-02 1.84449E-04-1.03440E-13
 -1      2098 1.48569E-02 2.16337E-04-1.03392E-13
 -1      2099 1.47246E-02 2.40535E-04-1.01703E-13
 -1      2100 1.49131E-02 1.23171E-04-1.03526E-13
 -1      2101 1.48963E-02 1.53277E-04-1.03484E-13
 -1      2102 1.47666E-02 1.74794E-04-1.01792E-13
 -1      2103 1.49380E-02 6.57960E-05-1.03601E-13
 -1      2104 1.49271E-02 9.41312E-05-1.03567E-13
 -1      2105 1.48009E-02 1.12845E-04-1.01874E-13
 -1      2106 1.49494E-02 1.07880E-05-1.03664E-13
 -1      2107 1.49455E-02 3.81693E-05-1.03633E-13
 -1      2108 1.48233E-02 5.42095E-05-1.01944E-13
 -1      2109 1.49460E-02-4.37291E-05-1.03716E-13
 -1      2110 1.49496E-02-1.63451E-05-1.03692E-13
 -1      2111 1.48312E-02-2.63580E-06-1.02005E-13
 -1      2112 1.49281E-02-9.97053E-05-1.03758E-13
 -1      2113 1.49388E-02-7.13611E-05-1.03739E-13
 -1      2114 1.48239E-02-5.94844E-05-1.02056E-13
 -1      2115 1.48985E-02-1.57840E-04-1.03794E-13
 -1      2116 1.49146E-02-1.28256E-04-1.03775E-13
 -1      2117 1.48023E-02-1.17622E-04-1.02096E-13
 -1      2118 1.48595E-02-2.21415E-04-1.03823E-13
 -1      2119 1.48799E-02-1.88989E-04-1.03810E-13
 -1      2120 1.47690E-02-1.79016E-04-1.02126E-13
 -1      2121 1.48158E-02-2.90169E-04-1.03842E-13
 -1      2122 1.48380E-02-2.55129E-04-1.03833E-13
 -1      2123 1.47274E-02-2.45292E-04-1.02149E-13
 -1      2124 1.47720E-02-3.64205E-04-1.03850E-13
 -1      2125 1.47936E-02-3.26574E-04-1.03849E-13
 -1      2126 1.46821E-02-3.16467E-04-1.02164E-13
 -1      2127 1.24148E-02 1.74877E-04-6.40633E-14
 -1      2128 1.25594E-02 1.13551E-04-6.46944E-14
 -1      2129 1.28268E-02 8.67965E-06-6.54522E-14
 -1      2130 1.28285E-02-7.03917E-06-6.54874E-14
 -1      2131 1.27122E-02 5.47804E-05-6.53203E-14
 -1      2132 1.27888E-02 3.23581E-05-6.53827E-14
 -1      2133 1.28179E-02 1.39656E-05-6.63266E-14
 -1      2134 1.20770E-02 3.28846E-04-6.28575E-14
 -1      2135 1.22499E-02 2.48110E-04-6.34641E-14
 -1      2136 1.16807E-02 5.35459E-04-6.12875E-14
 -1      2137 1.18685E-02 4.33806E-04-6.20548E-14
 -1      2138 3.27180E-04-8.90306E-05-1.10751E-16
 -1      2139 3.29249E-04-1.02203E-04-1.06198E-16
 -1      2140 4.46276E-04-1.45182E-04-1.55298E-16
 -1      2141 4.40020E-04-1.10010E-04-1.66872E-16
 -1      2142 1.09284E-02 9.14900E-04-5.76354E-14
 -1      2143 1.10986E-02 8.38085E-04-5.86059E-14
 -1      2144 1.05475E-02 9.85760E-04-5.51236E-14
 -1      2145 1.07015E-02 9.76429E-04-5.61396E-14
 -1      2146 1.02332E-02 9.23699E-04-5.31916E-14
 -1      2147 1.03885E-02 9.68401E-04-5.41530E-14
 -1      2148 1.04647E-02 9.87969E-04-5.45177E-14
 -1      2149 9.85902E-03 7.45911E-04-5.10991E-14
 -1      2150 1.00408E-02 8.45125E-04-5.20687E-14
 -1      2151 9.42219E-03 4.97493E-04-4.91940E-14
 -1      2152 9.62299E-03 6.13333E-04-4.99811E-14
 -1      2153 8.99477E-03 2.80491E-04-4.78494E-14
 -1      2154 9.18835E-03 3.76166E-04-4.84406E-14
 -1      2155 8.62406E-03 1.21005E-04-4.67341E-14
 -1      2156 8.79004E-03 1.85521E-04-4.71827E-14
 -1      2157 8.36082E-03 3.75868E-05-4.64006E-14
 -1      2158 8.45129E-03 6.15685E-05-4.64148E-14
 -1      2159 8.30205E-03-2.52035E-07-4.62486E-14
 -1      2160 8.31420E-03 1.48300E-05-4.63228E-14
 -1      2161 8.32599E-03 1.73337E-05-4.55673E-14
 -1      2162 8.40978E-03-5.32661E-05-4.67031E-14
 -1      2163 8.33995E-03-2.78965E-05-4.64452E-14
 -1      2164 8.65151E-03-1.35745E-04-4.72334E-14
 -1      2165 8.51382E-03-9.11963E-05-4.69668E-14
 -1      2166 8.45801E-03-5.52894E-05-4.61444E-14
 -1      2167 9.04371E-03-3.11320E-04-4.84721E-14
 -1      2168 8.86756E-03-2.24544E-04-4.78368E-14
 -1      2169 9.41570E-03-5.02346E-04-4.97306E-14
 -1      2170 9.22542E-03-4.03108E-04-4.90970E-14
 -1      2171 9.15193E-03-3.37456E-04-4.82178E-14
 -1      2172 9.83150E-03-7.39204E-04-5.15943E-14
 -1      2173 9.65768E-03-6.37268E-04-5.07536E-14
 -1      2174 1.01562E-02-8.96759E-04-5.33014E-14
 -1      2175 9.99688E-03-8.23797E-04-5.24446E-14
 -1      2176 9.92969E-03-7.78842E-04-5.17137E-14
 -1      2177 1.05008E-02-9.85376E-04-5.53771E-14
 -1      2178 1.03452E-02-9.57068E-04-5.44029E-14
 -1      2179 1.08673E-02-9.35127E-04-5.77092E-14
 -1      2180 1.07118E-02-9.76838E-04-5.67528E-14
 -1      2181 1.11912E-02-7.92294E-04-5.96005E-14
 -1      2182 1.10290E-02-8.75048E-04-5.86503E-14
 -1      2183 1.09391E-02-9.10235E-04-5.84523E-14
 -1      2184 1.15946E-02-5.79469E-04-6.13921E-14
 -1      2185 1.14161E-02-6.76705E-04-6.06556E-14
 -1      2186 1.19453E-02-3.88234E-04-6.28426E-14
 -1      2187 1.17710E-02-4.84705E-04-6.21146E-14
 -1      2188 1.16584E-02-5.19921E-04-6.22427E-14
 -1      2189 1.23312E-02-2.01881E-04-6.42711E-14
 -1      2190 1.21641E-02-2.73865E-04-6.37763E-14
 -1      2191 1.26246E-02-9.60516E-05-6.49058E-14
 -1      2192 1.25012E-02-1.39372E-04-6.46077E-14
 -1      2193 1.27914E-02-3.31879E-05-6.53167E-14
 -1      2194 1.27275E-02-5.69001E-05-6.51614E-14
 -1      2195 1.12932E-02 7.44393E-04-5.95525E-14
 -1      2196 1.14711E-02 6.46152E-04-6.04000E-14
 -1      2197 1.15560E-02 5.78506E-04-6.12855E-14
 -1      2198 6.07764E-04-2.98188E-04-1.55542E-16
 -1      2199 1.11846E-02 7.87046E-04-5.94389E-14
 -1      2200 6.63489E-04-2.92481E-04-2.15336E-16
 -1      2201 1.26438E-02 6.83534E-05-6.56283E-14
 -1      2202 1.27139E-02 4.22896E-05-6.65661E-14
 -1      2203 1.25677E-02 8.59649E-05-6.59373E-14
 -1      2204 1.23165E-02 1.92244E-04-6.43998E-14
 -1      2205 1.47137E-02-3.98539E-04-1.03283E-13
 -1      2206 1.28192E-02-1.34447E-05-6.62209E-14
 -1      2207 1.19540E-02 3.62773E-04-6.29873E-14
 -1      2208 1.26798E-02-6.01974E-05-6.57902E-14
 -1      2209 1.20426E-02-3.13728E-04-6.39065E-14
 -1      2210 1.12831E-02-7.34315E-04-6.04549E-14
 -1      2211 1.02496E-02-9.31926E-04-5.36554E-14
 -1      2212 9.55187E-03-5.59958E-04-4.98493E-14
 -1      2213 8.76281E-03-1.62804E-04-4.70011E-14
 -1      2214 8.30924E-03-8.97628E-06-4.56875E-14
 -1      2215 8.52416E-03 7.63714E-05-4.59567E-14
 -1      2216 8.89576E-03 2.16017E-04-4.69290E-14
 -1      2217 9.31969E-03 4.26383E-04-4.83356E-14
 -1      2218 1.01510E-02 8.92401E-04-5.24256E-14
 -1      2219 1.08093E-02 9.57615E-04-5.69828E-14
 -1      2220 1.09059E-02 9.24708E-04-5.78312E-14
 -1      2221 1.07115E-02 9.85889E-04-5.63287E-14
 -1      2222 9.75877E-03 6.80143E-04-5.01914E-14
 -1      2223 1.06096E-02-9.94974E-04-5.61256E-14
 -1      2224 1.05236E-02-9.98867E-04-5.55029E-14
 -1      2225 1.07011E-02-9.88200E-04-5.68796E-14
 -1      2226 1.24151E-02-1.49671E-04-6.51898E-14
 -1      2227 1.01641E-03 3.99868E-04-3.56784E-16
 -1      2228 8.71971E-04 3.63497E-04-2.54151E-16
 -1      2229 5.47892E-04-5.53470E-05-2.51521E-16
 -1      2230 5.48916E-04-7.20767E-05-2.50627E-16
 -1      2231 5.50321E-04-8.94114E-05-2.48865E-16
 -1      2232 5.52163E-04-1.07408E-04-2.45924E-16
 -1      2233 6.65399E-04-9.55577E-05-3.39911E-16
 -1      2234 5.46529E-04 8.86304E-06-2.47564E-16
 -1      2235 5.46509E-04-6.98822E-06-2.49570E-16
 -1      2236 5.47275E-04 4.09012E-05-2.41127E-16
 -1      2237 5.46781E-04 2.48133E-05-2.44759E-16
 -1      2238 6.61496E-04 1.99445E-05-3.35046E-16
 -1      2239 5.49076E-04 7.35471E-05-2.31572E-16
 -1      2240 5.48027E-04 5.70434E-05-2.36858E-16
 -1      2241 6.62806E-04 5.78273E-05-3.25830E-16
 -1      2242 5.52434E-04 1.09037E-04-2.17640E-16
 -1      2243 5.50527E-04 9.09539E-05-2.25270E-16
 -1      2244 6.65630E-04 9.73191E-05-3.12182E-16
 -1      2245 5.58277E-04 1.48385E-04-1.98124E-16
 -1      2246 5.54978E-04 1.28154E-04-2.08641E-16
 -1      2247 6.70681E-04 1.40108E-04-2.92843E-16
 -1      2248 5.68555E-04 1.93988E-04-1.71399E-16
 -1      2249 5.62743E-04 1.70270E-04-1.85914E-16
 -1      2250 6.79283E-04 1.87667E-04-2.66212E-16
 -1      2251 1.30180E-03 4.56753E-04-6.21722E-16
 -1      2252 1.15951E-03 4.30845E-04-4.78879E-16
 -1      2253 1.07161E-03 3.81386E-04-4.50771E-16
 -1      2254 9.15047E-04-3.46442E-04-4.24926E-16
 -1      2255 1.05912E-03-3.79748E-04-5.63202E-16
 -1      2256 1.11291E-02 8.19435E-04-5.95189E-14
 -1      2257 1.12849E-02 7.26605E-04-6.04791E-14
 -1      2258 1.20235E-03-4.08114E-04-7.22770E-16
 -1      2259 1.34513E-03-4.31949E-04-9.04157E-16
 -1      2260 1.11684E-03-3.60566E-04-6.64169E-16
 -1      2261 1.48728E-03-4.52112E-04-1.10772E-15
 -1      2262 1.62904E-03-4.68884E-04-1.33341E-15
 -1      2263 1.40314E-03-4.07251E-04-1.03160E-15
 -1      2264 1.77043E-03-4.82931E-04-1.58096E-15
 -1      2265 1.91159E-03-4.94465E-04-1.85132E-15
 -1      2266 1.68824E-03-4.40354E-04-1.48625E-15
 -1      2267 2.05259E-03-5.03978E-04-2.14423E-15
 -1      2268 2.19348E-03-5.11641E-04-2.45989E-15
 -1      2269 1.97240E-03-4.63192E-04-2.02887E-15
 -1      2270 2.33436E-03-5.17811E-04-2.79776E-15
 -1      2271 2.47523E-03-5.22627E-04-3.15880E-15
 -1      2272 2.25601E-03-4.78378E-04-2.66145E-15
 -1      2273 2.61617E-03-5.26347E-04-3.54297E-15
 -1      2274 2.75716E-03-5.29080E-04-3.94971E-15
 -1      2275 2.53941E-03-4.87917E-04-3.38489E-15
 -1      2276 2.89826E-03-5.31009E-04-4.37970E-15
 -1      2277 3.03946E-03-5.32220E-04-4.83232E-15
 -1      2278 2.82284E-03-4.93317E-04-4.19891E-15
 -1      2279 3.18080E-03-5.32840E-04-5.30770E-15
 -1      2280 3.32225E-03-5.32933E-04-5.80578E-15
 -1      2281 3.10646E-03-4.95695E-04-5.10409E-15
 -1      2282 3.46385E-03-5.32584E-04-6.32707E-15
 -1      2283 3.60558E-03-5.31838E-04-6.87171E-15
 -1      2284 3.39037E-03-4.95852E-04-6.10036E-15
 -1      2285 3.74747E-03-5.30748E-04-7.43877E-15
 -1      2286 3.88950E-03-5.29345E-04-8.02914E-15
 -1      2287 3.67462E-03-4.94344E-04-7.18812E-15
 -1      2288 4.03168E-03-5.27657E-04-8.64203E-15
 -1      2289 4.17402E-03-5.25706E-04-9.27824E-15
 -1      2290 3.95927E-03-4.91533E-04-8.36757E-15
 -1      2291 4.31653E-03-5.23499E-04-9.93768E-15
 -1      2292 4.45921E-03-5.21051E-04-1.06179E-14
 -1      2293 4.24435E-03-4.87631E-04-9.63864E-15
 -1      2294 4.60206E-03-5.18360E-04-1.13212E-14
 -1      2295 4.74512E-03-5.15433E-04-1.20481E-14
 -1      2296 4.52990E-03-4.82743E-04-1.09992E-14
 -1      2297 4.88837E-03-5.12262E-04-1.27975E-14
 -1      2298 5.03185E-03-5.08857E-04-1.35699E-14
 -1      2299 4.81598E-03-4.76901E-04-1.24500E-14
 -1      2300 5.17557E-03-5.05206E-04-1.43666E-14
 -1      2301 5.31957E-03-5.01323E-04-1.51882E-14
 -1      2302 5.10269E-03-4.70101E-04-1.39949E-14
 -1      2303 5.46384E-03-4.97204E-04-1.60327E-14
 -1      2304 5.60846E-03-4.92872E-04-1.69003E-14
 -1      2305 5.39013E-03-4.62342E-04-1.56348E-14
 -1      2306 5.75341E-03-4.88340E-04-1.77928E-14
 -1      2307 5.89879E-03-4.83646E-04-1.87088E-14
 -1      2308 5.67846E-03-4.53675E-04-1.73710E-14
 -1      2309 6.04457E-03-4.78830E-04-1.96477E-14
 -1      2310 6.19087E-03-4.73956E-04-2.06107E-14
 -1      2311 5.96787E-03-4.44259E-04-1.92017E-14
 -1      2312 6.33766E-03-4.69109E-04-2.15975E-14
 -1      2313 6.48510E-03-4.64386E-04-2.26067E-14
 -1      2314 6.25862E-03-4.34440E-04-2.11270E-14
 -1      2315 6.63314E-03-4.59937E-04-2.36405E-14
 -1      2316 6.78195E-03-4.55912E-04-2.46976E-14
 -1      2317 6.55102E-03-4.24843E-04-2.31463E-14
 -1      2318 6.93152E-03-4.52542E-04-2.57781E-14
 -1      2319 7.08201E-03-4.50052E-04-2.68817E-14
 -1      2320 6.84549E-03-4.16500E-04-2.52593E-14
 -1      2321 7.23345E-03-4.48779E-04-2.80091E-14
 -1      2322 7.38598E-03-4.49044E-04-2.91589E-14
 -1      2323 7.14262E-03-4.10991E-04-2.74656E-14
 -1      2324 7.53970E-03-4.51304E-04-3.03318E-14
 -1      2325 7.69473E-03-4.56008E-04-3.15287E-14
 -1      2326 7.44321E-03-4.10617E-04-2.97658E-14
 -1      2327 7.85126E-03-4.63717E-04-3.27477E-14
 -1      2328 8.00932E-03-4.75038E-04-3.39892E-14
 -1      2329 7.74842E-03-4.18560E-04-3.21565E-14
 -1      2330 8.16927E-03-4.90575E-04-3.52546E-14
 -1      2331 8.33093E-03-5.11085E-04-3.65432E-14
 -1      2332 8.05983E-03-4.38993E-04-3.46386E-14
 -1      2333 8.49488E-03-5.37086E-04-3.78561E-14
 -1      2334 8.66058E-03-5.69358E-04-3.91899E-14
 -1      2335 8.37949E-03-4.77036E-04-3.72124E-14
 -1      2336 8.82875E-03-6.08099E-04-4.05461E-14
 -1      2337 8.99831E-03-6.53792E-04-4.19251E-14
 -1      2338 8.70942E-03-5.38235E-04-3.98777E-14
 -1      2339 9.16996E-03-7.05969E-04-4.33267E-14
 -1      2340 9.34192E-03-7.64065E-04-4.47522E-14
 -1      2341 9.05051E-03-6.27116E-04-4.26316E-14
 -1      2342 9.51454E-03-8.26536E-04-4.61990E-14
 -1      2343 9.68576E-03-8.90873E-04-4.76675E-14
 -1      2344 9.40038E-03-7.43707E-04-4.54747E-14
 -1      2345 9.85528E-03-9.54297E-04-4.91594E-14
 -1      2346 1.00220E-02-1.01198E-03-5.06744E-14
 -1      2347 9.75162E-03-8.77436E-04-4.84092E-14
 -1      2348 1.01850E-02-1.06052E-03-5.22134E-14
 -1      2349 1.03459E-02-1.09455E-03-5.37739E-14
 -1      2350 1.00940E-02-1.00142E-03-5.14362E-14
 -1      2351 1.05033E-02-1.11166E-03-5.53582E-14
 -1      2352 1.06616E-02-1.10977E-03-5.69661E-14
 -1      2353 1.04223E-02-1.07629E-03-5.45578E-14
 -1      2354 1.08195E-02-1.08904E-03-5.85957E-14
 -1      2355 1.09809E-02-1.05221E-03-6.02465E-14
 -1      2356 1.07442E-02-1.07189E-03-5.77723E-14
 -1      2357 1.11445E-02-1.00191E-03-6.19188E-14
 -1      2358 1.13117E-02-9.43656E-04-6.36122E-14
 -1      2359 1.10740E-02-9.90806E-04-6.10763E-14
 -1      2360 1.14814E-02-8.80829E-04-6.53229E-14
 -1      2361 1.16523E-02-8.17908E-04-6.70500E-14
 -1      2362 1.14175E-02-8.65938E-04-6.44634E-14
 -1      2363 1.18243E-02-7.57542E-04-6.87947E-14
 -1      2364 1.19953E-02-7.01926E-04-7.05590E-14
 -1      2365 1.17683E-02-7.35719E-04-6.79227E-14
 -1      2366 1.21656E-02-6.52400E-04-7.23353E-14
 -1      2367 1.23336E-02-6.09293E-04-7.41261E-14
 -1      2368 1.21161E-02-6.24622E-04-7.14476E-14
 -1      2369 1.25000E-02-5.72914E-04-7.59335E-14
 -1      2370 1.26638E-02-5.42676E-04-7.77536E-14
 -1      2371 1.24543E-02-5.41150E-04-7.50322E-14
 -1      2372 1.28257E-02-5.18256E-04-7.95861E-14
 -1      2373 1.29852E-02-4.98786E-04-8.14314E-14
 -1      2374 1.27809E-02-4.84074E-04-7.86736E-14
 -1      2375 1.31428E-02-4.83628E-04-8.32883E-14
 -1      2376 1.32984E-02-4.71961E-04-8.51552E-14
 -1      2377 1.30970E-02-4.48110E-04-8.23637E-14
 -1      2378 1.34524E-02-4.63044E-04-8.70287E-14
 -1      2379 1.36047E-02-4.56181E-04-8.89084E-14
 -1      2380 1.34046E-02-4.27018E-04-8.60920E-14
 -1      2381 1.37555E-02-4.50655E-04-9.08018E-14
 -1      2382 1.39050E-02-4.45884E-04-9.26996E-14
 -1      2383 1.37058E-02-4.14900E-04-8.98539E-14
 -1      2384 1.40532E-02-4.41241E-04-9.46037E-14
 -1      2385 1.42003E-02-4.36219E-04-9.65179E-14
 -1      2386 1.40018E-02-4.06560E-04-9.36506E-14
 -1      2387 1.86482E-03 5.24968E-04-1.40317E-15
 -1      2388 1.72463E-03 5.12321E-04-1.17582E-15
 -1      2389 2.14481E-03 5.43963E-04-1.92262E-15
 -1      2390 2.00487E-03 5.35456E-04-1.65227E-15
 -1      2391 1.92424E-03 4.94302E-04-1.58355E-15
 -1      2392 2.42479E-03 5.56336E-04-2.53004E-15
 -1      2393 2.28479E-03 5.50874E-04-2.21505E-15
 -1      2394 2.20628E-03 5.11251E-04-2.13200E-15
 -1      2395 2.70515E-03 5.63854E-04-3.22680E-15
 -1      2396 2.56492E-03 5.60623E-04-2.86715E-15
 -1      2397 2.48818E-03 5.22111E-04-2.76762E-15
 -1      2398 2.98609E-03 5.67822E-04-4.01452E-15
 -1      2399 2.84555E-03 5.66222E-04-3.60883E-15
 -1      2400 2.77025E-03 5.28509E-04-3.49270E-15
 -1      2401 3.26774E-03 5.69189E-04-4.89417E-15
 -1      2402 3.12683E-03 5.68786E-04-4.44320E-15
 -1      2403 3.05268E-03 5.31647E-04-4.30909E-15
 -1      2404 3.55013E-03 5.68624E-04-5.86750E-15
 -1      2405 3.40884E-03 5.69116E-04-5.36871E-15
 -1      2406 3.33558E-03 5.32395E-04-5.21679E-15
 -1      2407 3.83328E-03 5.66580E-04-6.93523E-15
 -1      2408 3.69161E-03 5.67765E-04-6.38904E-15
 -1      2409 3.61902E-03 5.31360E-04-6.21732E-15
 -1      2410 4.11722E-03 5.63340E-04-8.10140E-15
 -1      2411 3.97516E-03 5.65095E-04-7.50601E-15
 -1      2412 3.90301E-03 5.28943E-04-7.31316E-15
 -1      2413 4.40197E-03 5.59061E-04-9.36936E-15
 -1      2414 4.25949E-03 5.61322E-04-8.72292E-15
 -1      2415 4.18760E-03 5.25389E-04-8.50813E-15
 -1      2416 4.68761E-03 5.53813E-04-1.07393E-14
 -1      2417 4.54467E-03 5.56553E-04-1.00413E-14
 -1      2418 4.47284E-03 5.20825E-04-9.80379E-15
 -1      2419 4.97423E-03 5.47613E-04-1.22118E-14
 -1      2420 4.83078E-03 5.50828E-04-1.14625E-14
 -1      2421 4.75879E-03 5.15300E-04-1.12003E-14
 -1      2422 5.26203E-03 5.40467E-04-1.37837E-14
 -1      2423 5.11797E-03 5.44153E-04-1.29854E-14
 -1      2424 5.04555E-03 5.08817E-04-1.26976E-14
 -1      2425 5.55122E-03 5.32413E-04-1.54584E-14
 -1      2426 5.40642E-03 5.36543E-04-1.46084E-14
 -1      2427 5.33327E-03 5.01378E-04-1.42965E-14
 -1      2428 5.84213E-03 5.23578E-04-1.72331E-14
 -1      2429 5.69642E-03 5.28075E-04-1.63335E-14
 -1      2430 5.62215E-03 4.93028E-04-1.59957E-14
 -1      2431 6.13513E-03 5.14253E-04-1.91037E-14
 -1      2432 5.98832E-03 5.18947E-04-1.81559E-14
 -1      2433 5.91245E-03 4.83913E-04-1.77943E-14
 -1      2434 6.43069E-03 5.04981E-04-2.10698E-14
 -1      2435 6.28254E-03 5.09562E-04-2.00750E-14
 -1      2436 6.20447E-03 4.74356E-04-1.96887E-14
 -1      2437 6.72936E-03 4.96685E-04-2.31311E-14
 -1      2438 6.57958E-03 5.00637E-04-2.20893E-14
 -1      2439 6.49861E-03 4.64954E-04-2.16793E-14
 -1      2440 7.03176E-03 4.90816E-04-2.52837E-14
 -1      2441 6.88003E-03 4.93338E-04-2.41947E-14
 -1      2442 6.79535E-03 4.56699E-04-2.37623E-14
 -1      2443 7.33855E-03 4.89525E-04-2.75296E-14
 -1      2444 7.18454E-03 4.89444E-04-2.63947E-14
 -1      2445 7.09525E-03 4.51135E-04-2.59378E-14
 -1      2446 7.65042E-03 4.95833E-04-2.98716E-14
 -1      2447 7.49380E-03 4.91520E-04-2.86891E-14
 -1      2448 7.39905E-03 4.50521E-04-2.82071E-14
 -1      2449 7.96806E-03 5.13713E-04-3.23015E-14
 -1      2450 7.80851E-03 5.03057E-04-3.10757E-14
 -1      2451 7.70763E-03 4.57999E-04-3.05711E-14
 -1      2452 8.29201E-03 5.47964E-04-3.48213E-14
 -1      2453 8.12931E-03 5.28480E-04-3.35507E-14
 -1      2454 8.02209E-03 4.77676E-04-3.30238E-14
 -1      2455 8.62242E-03 6.03575E-04-3.74321E-14
 -1      2456 8.45659E-03 5.72805E-04-3.61153E-14
 -1      2457 8.34369E-03 5.14508E-04-3.55660E-14
 -1      2458 8.95846E-03 6.84191E-04-4.01331E-14
 -1      2459 8.79008E-03 6.40619E-04-3.87705E-14
 -1      2460 8.67345E-03 5.73677E-04-3.81972E-14
 -1      2461 9.29765E-03 7.89352E-04-4.29271E-14
 -1      2462 9.12818E-03 7.33962E-04-4.15173E-14
 -1      2463 9.01135E-03 6.58994E-04-4.09198E-14
 -1      2464 9.63524E-03 9.10626E-04-4.58186E-14
 -1      2465 9.46724E-03 8.48929E-04-4.43608E-14
 -1      2466 9.35502E-03 7.69830E-04-4.37343E-14
 -1      2467 9.96517E-03 1.02853E-03-4.88039E-14
 -1      2468 9.80150E-03 9.71738E-04-4.72999E-14
 -1      2469 9.69856E-03 8.96432E-04-4.66457E-14
 -1      2470 1.02839E-02 1.11453E-03-5.18924E-14
 -1      2471 1.01256E-02 1.07749E-03-5.03353E-14
 -1      2472 1.00342E-02 1.01580E-03-4.96546E-14
 -1      2473 1.05941E-02 1.14219E-03-5.50831E-14
 -1      2474 1.04390E-02 1.13692E-03-5.34754E-14
 -1      2475 1.03577E-02 1.09528E-03-5.27643E-14
 -1      2476 1.09051E-02 1.10175E-03-5.83762E-14
 -1      2477 1.07483E-02 1.12990E-03-5.67157E-14
 -1      2478 1.06737E-02 1.10654E-03-5.59783E-14
 -1      2479 1.12252E-02 1.00792E-03-6.17684E-14
 -1      2480 1.10635E-02 1.05982E-03-6.00602E-14
 -1      2481 1.09939E-02 1.04579E-03-5.92951E-14
 -1      2482 1.15559E-02 8.88706E-04-6.52500E-14
 -1      2483 1.13895E-02 9.49563E-04-6.34987E-14
 -1      2484 1.13256E-02 9.35979E-04-6.27082E-14
 -1      2485 1.18924E-02 7.71238E-04-6.88165E-14
 -1      2486 1.17240E-02 8.28445E-04-6.70227E-14
 -1      2487 1.16666E-02 8.10235E-04-6.62086E-14
 -1      2488 1.22288E-02 6.72280E-04-7.24526E-14
 -1      2489 1.20612E-02 7.18887E-04-7.06263E-14
 -1      2490 1.20095E-02 6.95033E-04-6.97910E-14
 -1      2491 1.25607E-02 5.97850E-04-7.61508E-14
 -1      2492 1.23957E-02 6.31983E-04-7.42945E-14
 -1      2493 1.23474E-02 6.03333E-04-7.34406E-14
 -1      2494 1.28858E-02 5.46685E-04-7.98906E-14
 -1      2495 1.27243E-02 5.69606E-04-7.80165E-14
 -1      2496 1.26769E-02 5.37462E-04-7.71474E-14
 -1      2497 1.32037E-02 5.14025E-04-8.36595E-14
 -1      2498 1.30457E-02 5.28382E-04-8.17734E-14
 -1      2499 1.29976E-02 4.93943E-04-8.08902E-14
 -1      2500 1.35144E-02 4.94005E-04-8.74414E-14
 -1      2501 1.33599E-02 5.02778E-04-8.55502E-14
 -1      2502 1.33101E-02 4.67120E-04-8.46589E-14
 -1      2503 1.38186E-02 4.80895E-04-9.12310E-14
 -1      2504 1.36672E-02 4.86899E-04-8.93360E-14
 -1      2505 1.36157E-02 4.51019E-04-8.84399E-14
 -1      2506 1.41169E-02 4.69580E-04-9.50307E-14
 -1      2507 1.39684E-02 4.75292E-04-9.31284E-14
 -1      2508 1.39155E-02 4.40140E-04-9.22285E-14
 -1      2509 1.44102E-02 4.55717E-04-9.88395E-14
 -1      2510 1.42641E-02 4.63208E-04-9.69325E-14
 -1      2511 1.42104E-02 4.29683E-04-9.60266E-14
 -1      2512 1.45595E-02 4.47414E-04-1.00814E-13
 -1      2513 1.46562E-02 1.63099E-04-1.00146E-13
 -1      2514 1.46360E-02 1.95800E-04-1.00107E-13
 -1      2515 1.46888E-02 1.00669E-04-1.00225E-13
 -1      2516 1.46739E-02 1.31477E-04-1.00186E-13
 -1      2517 1.45460E-02 1.49852E-04-9.85033E-14
 -1      2518 1.45679E-02 2.99444E-04-9.99670E-14
 -1      2519 1.45441E-02 3.36736E-04-9.99153E-14
 -1      2520 1.46143E-02 2.29276E-04-1.00064E-13
 -1      2521 1.45915E-02 2.63624E-04-1.00016E-13
 -1      2522 1.44572E-02 2.86443E-04-9.83325E-14
 -1      2523 1.45046E-02 2.16044E-04-9.84234E-14
 -1      2524 1.47084E-02 4.11459E-05-1.00288E-13
 -1      2525 1.47004E-02 7.06857E-05-1.00258E-13
 -1      2526 1.45768E-02 8.72216E-05-9.85759E-14
 -1      2527 1.47127E-02-1.70376E-05-1.00350E-13
 -1      2528 1.47125E-02 1.20546E-05-1.00322E-13
 -1      2529 1.45934E-02 2.72006E-05-9.86413E-14
 -1      2530 1.47011E-02-7.56714E-05-1.00398E-13
 -1      2531 1.47088E-02-4.61297E-05-1.00372E-13
 -1      2532 1.45937E-02-3.18932E-05-9.86962E-14
 -1      2533 1.46758E-02-1.35412E-04-1.00432E-13
 -1      2534 1.46901E-02-1.05143E-04-1.00416E-13
 -1      2535 1.45779E-02-9.13955E-05-9.87398E-14
 -1      2536 1.46386E-02-1.99682E-04-1.00461E-13
 -1      2537 1.46584E-02-1.67008E-04-1.00448E-13
 -1      2538 1.45481E-02-1.53453E-04-9.87735E-14
 -1      2539 1.45943E-02-2.68358E-04-1.00480E-13
 -1      2540 1.46171E-02-2.33422E-04-1.00471E-13
 -1      2541 1.45072E-02-2.19876E-04-9.87980E-14
 -1      2542 1.45473E-02-3.41809E-04-1.00490E-13
 -1      2543 1.45708E-02-3.04491E-04-1.00484E-13
 -1      2544 1.44601E-02-2.90863E-04-9.88122E-14
 -1      2545 1.22328E-02 2.12546E-04-6.48539E-14
 -1      2546 1.23868E-02 1.50280E-04-6.54599E-14
 -1      2547 1.45860E-02-4.05867E-04-1.01548E-13
 -1      2548 1.28423E-02-6.68753E-06-6.72214E-14
 -1      2549 1.28050E-02-1.67372E-05-6.70466E-14
 -1      2550 1.58415E-03 4.96971E-04-9.69792E-16
 -1      2551 1.44325E-03 4.78708E-04-7.85003E-16
 -1      2552 1.64156E-03 4.69088E-04-1.12111E-15
 -1      2553 1.28117E-02 1.45410E-05-6.72691E-14
 -1      2554 1.28448E-02 5.97355E-06-6.73367E-14
 -1      2555 1.27336E-02-3.76472E-05-6.68609E-14
 -1      2556 1.26381E-02-6.29439E-05-6.65987E-14
 -1      2557 5.88402E-04-2.38060E-04-2.00293E-16
 -1      2558 7.81192E-04-3.04876E-04-3.21967E-16
 -1      2559 8.40637E-04-2.93685E-04-3.97523E-16
 -1      2560 5.78913E-04-2.10293E-04-2.14767E-16
 -1      2561 1.18511E-02 4.00044E-04-6.32286E-14
 -1      2562 1.20396E-02 3.02479E-04-6.40424E-14
 -1      2563 1.03318E-02-9.66286E-04-5.40575E-14
 -1      2564 1.01799E-02-9.05810E-04-5.29631E-14
 -1      2565 8.43307E-03 4.49665E-05-4.49441E-14
 -1      2566 8.58567E-03 8.92501E-05-4.52526E-14
 -1      2567 5.46720E-04-2.29217E-05-2.50884E-16
 -1      2568 5.47171E-04-3.89760E-05-2.51535E-16
 -1      2569 6.62657E-04-5.58574E-05-3.42147E-16
 -1      2570 6.61443E-04-1.77196E-05-3.40439E-16
 -1      2571 9.66894E-03 6.22297E-04-4.92461E-14
 -1      2572 9.87347E-03 7.46366E-04-5.03538E-14
 -1      2573 1.04022E-02 9.84082E-04-5.39336E-14
 -1      2574 1.05259E-02 1.00221E-03-5.49033E-14
 -1      2575 1.00847E-02 8.60871E-04-5.16838E-14
 -1      2576 1.02449E-02 9.36671E-04-5.28023E-14
 -1      2577 1.03185E-02 9.66714E-04-5.31778E-14
 -1      2578 9.20825E-03 3.58293E-04-4.73978E-14
 -1      2579 9.41333E-03 4.72209E-04-4.81373E-14
 -1      2580 8.81070E-03 1.73434E-04-4.59799E-14
 -1      2581 8.99987E-03 2.55008E-04-4.66340E-14
 -1      2582 8.29670E-03 1.01851E-05-4.48496E-14
 -1      2583 8.33867E-03 1.89516E-05-4.49240E-14
 -1      2584 8.32063E-03-1.26620E-05-4.49232E-14
 -1      2585 8.28224E-03-2.94632E-06-4.47284E-14
 -1      2586 8.49777E-03-5.92987E-05-4.55449E-14
 -1      2587 8.40232E-03-3.50891E-05-4.52866E-14
 -1      2588 8.85164E-03-1.87203E-04-4.64504E-14
 -1      2589 8.65736E-03-1.12652E-04-4.58608E-14
 -1      2590 9.23588E-03-3.71689E-04-4.79372E-14
 -1      2591 9.07421E-03-2.88858E-04-4.73233E-14
 -1      2592 9.66903E-03-6.21310E-04-4.99291E-14
 -1      2593 9.45663E-03-4.93828E-04-4.89184E-14
 -1      2594 1.00143E-02-8.25110E-04-5.18361E-14
 -1      2595 9.87721E-03-7.43963E-04-5.09944E-14
 -1      2596 1.25104E-02-1.04821E-04-6.62507E-14
 -1      2597 1.23604E-02-1.59111E-04-6.59060E-14
 -1      2598 1.25942E-02-7.84156E-05-6.73189E-14
 -1      2599 1.10015E-02-8.83297E-04-5.91700E-14
 -1      2600 1.08721E-02-9.42513E-04-5.82234E-14
 -1      2601 1.13830E-02-6.68462E-04-6.15153E-14
 -1      2602 1.11954E-02-7.81410E-04-6.04505E-14
 -1      2603 1.17286E-02-4.66701E-04-6.32109E-14
 -1      2604 1.15744E-02-5.56906E-04-6.24809E-14
 -1      2605 1.21378E-02-2.55404E-04-6.50917E-14
 -1      2606 1.19345E-02-3.55725E-04-6.41469E-14
 -1      2607 1.18524E-02-4.02254E-04-6.43851E-14
 -1      2608 7.57749E-04 3.34294E-04-1.81794E-16
 -1      2609 6.11363E-04 2.84931E-04-1.14316E-16
 -1      2610 5.84658E-04 2.58167E-04-1.22827E-16
 -1      2611 8.13591E-04 3.22972E-04-2.50464E-16
 -1      2612 1.14512E-02 6.28944E-04-6.13726E-14
 -1      2613 1.16293E-02 5.22042E-04-6.22731E-14
 -1      2614 1.13832E-02 6.75611E-04-6.14544E-14
 -1      2615 9.97445E-03 8.09667E-04-5.07193E-14
 -1      2616 6.70269E-04-1.38063E-04-3.32416E-16
 -1      2617 5.54595E-04-1.26327E-04-2.41614E-16
 -1      2618 5.57764E-04-1.46331E-04-2.35814E-16
 -1      2619 1.35759E-03 4.32723E-04-7.44223E-16
 -1      2620 5.72184E-04 2.27978E-04-1.43847E-16
 -1      2621 1.01033E-02-8.76849E-04-5.22288E-14
 -1      2622 9.75980E-03-6.81856E-04-5.00466E-14
 -1      2623 1.17421E-02 4.61490E-04-6.33159E-14
 -1      2624 9.35172E-03-4.41241E-04-4.80116E-14
 -1      2625 1.24974E-02 1.06639E-04-6.63924E-14
 -1      2626 1.25961E-02 7.80791E-05-6.73280E-14
 -1      2627 1.24348E-02 1.33981E-04-6.68453E-14
 -1      2628 1.27848E-02-2.49679E-05-6.78590E-14
 -1      2629 8.92729E-03-2.27883E-04-4.61728E-14
 -1      2630 1.45054E-02 4.16308E-04-9.99056E-14
 -1      2631 1.45067E-02 3.85981E-04-9.97385E-14
 -1      2632 8.56758E-03-8.69587E-05-4.50008E-14
 -1      2633 1.21383E-02 2.55636E-04-6.50945E-14
 -1      2634 1.44280E-02-4.28779E-04-9.95384E-14
 -1      2635 1.45023E-02-3.76214E-04-1.00155E-13
 -1      2636 1.43896E-02-3.62170E-04-9.84839E-14
 -1      2637 1.42986E-02-4.33176E-04-9.78155E-14
 -1      2638 8.33735E-03-2.07466E-05-4.43278E-14
 -1      2639 1.28615E-02-4.66822E-07-6.81632E-14
 -1      2640 6.89469E-04 2.51335E-04-2.17423E-16
 -1      2641 1.27768E-02 2.51259E-05-6.75739E-14
 -1      2642 1.28287E-02 1.71897E-05-6.85846E-14
 -1      2643 1.27320E-02 3.79987E-05-6.78811E-14
 -1      2644 8.26806E-03 1.91648E-06-4.40887E-14
 -1      2645 1.08490E-02-9.59175E-04-5.82947E-14
 -1      2646 1.07771E-02-9.76841E-04-5.75854E-14
 -1      2647 1.06942E-02-9.99186E-04-5.69521E-14
 -1      2648 8.66987E-03 1.22090E-04-4.49620E-14
 -1      2649 8.74774E-03 1.62465E-04-4.46683E-14
 -1      2650 8.54538E-03 9.15367E-05-4.39550E-14
 -1      2651 1.22634E-02-1.99576E-04-6.61466E-14
 -1      2652 1.21776E-02-2.46423E-04-6.63842E-14
 -1      2653 1.23802E-02-1.60039E-04-6.72072E-14
 -1      2654 1.14770E-02-6.18226E-04-6.24735E-14
 -1      2655 1.04356E-02-9.95420E-04-5.47942E-14
 -1      2656 1.03555E-02-9.81388E-04-5.40902E-14
 -1      2657 1.05254E-02-1.00935E-03-5.55358E-14
 -1      2658 8.37330E-03 3.28972E-05-4.42277E-14
 -1      2659 5.71709E-04-1.85416E-04-2.26015E-16
 -1      2660 1.10185E-02 8.79770E-04-5.88501E-14
 -1      2661 1.11293E-02 8.31066E-04-5.98804E-14
 -1      2662 1.09233E-02 9.28780E-04-5.81845E-14
 -1      2663 1.06314E-02 1.00493E-03-5.57347E-14
 -1      2664 1.07273E-02 9.92213E-04-5.65723E-14
 -1      2665 1.05631E-02 1.01228E-03-5.51397E-14
 -1      2666 9.41270E-03 4.87717E-04-4.73491E-14
 -1      2667 9.54028E-03 5.50549E-04-4.82923E-14
 -1      2668 9.64174E-03 6.25972E-04-4.84455E-14
 -1      2669 9.09277E-03 3.06238E-04-4.64377E-14
 -1      2670 1.11172E-02-8.29502E-04-6.02152E-14
 -1      2671 1.43937E-02 3.72442E-04-9.81098E-14
 -1      2672 1.42462E-02-4.00015E-04-9.68523E-14
 -1      2673 7.80364E-04 7.73814E-05-4.23679E-16
 -1      2674 7.79118E-04 5.55072E-05-4.30699E-16
 -1      2675 7.78282E-04 3.35815E-05-4.36608E-16
 -1      2676 7.77864E-04 1.19030E-05-4.41297E-16
 -1      2677 8.96724E-04 4.97073E-05-5.51642E-16
 -1      2678 7.91602E-04 1.73224E-04-3.79132E-16
 -1      2679 7.87620E-04 1.47800E-04-3.93240E-16
 -1      2680 8.03401E-04 2.28441E-04-3.44492E-16
 -1      2681 7.96816E-04 2.00048E-04-3.63303E-16
 -1      2682 9.14914E-04 2.07936E-04-4.76859E-16
 -1      2683 1.12968E-03 3.62015E-04-5.50558E-16
 -1      2684 9.86102E-04 3.32975E-04-4.19898E-16
 -1      2685 1.13519E-02 7.12204E-04-6.16507E-14
 -1      2686 1.14943E-02 6.22549E-04-6.25569E-14
 -1      2687 1.41588E-03 4.07833E-04-8.72295E-16
 -1      2688 1.27285E-03 3.86858E-04-7.01208E-16
 -1      2689 1.18957E-03 3.41552E-04-6.55834E-16
 -1      2690 9.88315E-03 7.70623E-04-4.98100E-14
 -1      2691 1.00719E-02 8.72956E-04-5.11332E-14
 -1      2692 1.32004E-03-3.62785E-04-9.55047E-16
 -1      2693 1.46326E-03-3.81719E-04-1.16241E-15
 -1      2694 1.60629E-03-3.97738E-04-1.39095E-15
 -1      2695 1.74922E-03-4.11068E-04-1.64144E-15
 -1      2696 1.52494E-03-3.55364E-04-1.29600E-15
 -1      2697 1.89198E-03-4.22173E-04-1.91404E-15
 -1      2698 2.03463E-03-4.31240E-04-2.20866E-15
 -1      2699 1.81162E-03-3.81112E-04-1.79938E-15
 -1      2700 2.17718E-03-4.38640E-04-2.52635E-15
 -1      2701 2.31964E-03-4.44522E-04-2.86557E-15
 -1      2702 2.09809E-03-3.98720E-04-2.39121E-15
 -1      2703 2.46206E-03-4.49170E-04-3.22726E-15
 -1      2704 2.60443E-03-4.52701E-04-3.61233E-15
 -1      2705 2.38428E-03-4.10182E-04-3.07126E-15
 -1      2706 2.74680E-03-4.55327E-04-4.01961E-15
 -1      2707 2.88915E-03-4.57136E-04-4.44938E-15
 -1      2708 2.67025E-03-4.17080E-04-3.84092E-15
 -1      2709 3.03152E-03-4.58282E-04-4.90153E-15
 -1      2710 3.17390E-03-4.58832E-04-5.37625E-15
 -1      2711 2.95606E-03-4.20624E-04-4.70026E-15
 -1      2712 3.31632E-03-4.58892E-04-5.87459E-15
 -1      2713 3.45877E-03-4.58509E-04-6.39532E-15
 -1      2714 3.24178E-03-4.21709E-04-5.64994E-15
 -1      2715 3.60127E-03-4.57754E-04-6.93862E-15
 -1      2716 3.74381E-03-4.56658E-04-7.50539E-15
 -1      2717 3.52746E-03-4.20973E-04-6.69027E-15
 -1      2718 3.88641E-03-4.55266E-04-8.09525E-15
 -1      2719 4.02906E-03-4.53595E-04-8.70688E-15
 -1      2720 3.81315E-03-4.18844E-04-7.82288E-15
 -1      2721 4.17178E-03-4.51668E-04-9.34126E-15
 -1      2722 4.31456E-03-4.49496E-04-9.99901E-15
 -1      2723 4.09887E-03-4.15591E-04-9.04610E-15
 -1      2724 4.45741E-03-4.47086E-04-1.06784E-14
 -1      2725 4.60033E-03-4.44442E-04-1.13800E-14
 -1      2726 4.38465E-03-4.11360E-04-1.03590E-14
 -1      2727 4.74334E-03-4.41563E-04-1.21053E-14
 -1      2728 4.88644E-03-4.38449E-04-1.28528E-14
 -1      2729 4.67051E-03-4.06207E-04-1.17616E-14
 -1      2730 5.02962E-03-4.35096E-04-1.36243E-14
 -1      2731 5.17292E-03-4.31506E-04-1.44200E-14
 -1      2732 4.95646E-03-4.00137E-04-1.32556E-14
 -1      2733 5.31632E-03-4.27676E-04-1.52392E-14
 -1      2734 5.45986E-03-4.23614E-04-1.60825E-14
 -1      2735 5.24253E-03-3.93136E-04-1.48454E-14
 -1      2736 5.60353E-03-4.19328E-04-1.69503E-14
 -1      2737 5.74736E-03-4.14834E-04-1.78424E-14
 -1      2738 5.52875E-03-3.85208E-04-1.65321E-14
 -1      2739 5.89134E-03-4.10163E-04-1.87574E-14
 -1      2740 6.03554E-03-4.05346E-04-1.96958E-14
 -1      2741 5.81515E-03-3.76425E-04-1.83142E-14
 -1      2742 6.17993E-03-4.00445E-04-2.06584E-14
 -1      2743 6.32458E-03-3.95519E-04-2.16445E-14
 -1      2744 6.10179E-03-3.66983E-04-2.01918E-14
 -1      2745 6.46948E-03-3.90676E-04-2.26542E-14
 -1      2746 6.61474E-03-3.86013E-04-2.36859E-14
 -1      2747 6.38877E-03-3.57270E-04-2.21628E-14
 -1      2748 6.76033E-03-3.81698E-04-2.47425E-14
 -1      2749 6.90640E-03-3.77886E-04-2.58220E-14
 -1      2750 6.67629E-03-3.47956E-04-2.42270E-14
 -1      2751 7.05294E-03-3.74819E-04-2.69247E-14
 -1      2752 7.20015E-03-3.72738E-04-2.80506E-14
 -1      2753 6.96471E-03-3.40099E-04-2.63854E-14
 -1      2754 7.34808E-03-3.71968E-04-2.91998E-14
 -1      2755 7.49695E-03-3.72873E-04-3.03721E-14
 -1      2756 7.25467E-03-3.35271E-04-2.86352E-14
 -1      2757 7.64694E-03-3.75853E-04-3.15676E-14
 -1      2758 7.79830E-03-3.81459E-04-3.27852E-14
 -1      2759 7.54729E-03-3.35705E-04-3.09795E-14
 -1      2760 7.95137E-03-3.90138E-04-3.40239E-14
 -1      2761 8.10640E-03-4.02694E-04-3.52860E-14
 -1      2762 7.84447E-03-3.44486E-04-3.34128E-14
 -1      2763 8.26399E-03-4.19562E-04-3.65738E-14
 -1      2764 8.42426E-03-4.41879E-04-3.78830E-14
 -1      2765 8.14911E-03-3.65789E-04-3.59375E-14
 -1      2766 8.58806E-03-4.69961E-04-3.92131E-14
 -1      2767 8.75509E-03-5.05139E-04-4.05653E-14
 -1      2768 8.46532E-03-4.05242E-04-3.85515E-14
 -1      2769 8.92645E-03-5.47455E-04-4.19393E-14
 -1      2770 9.10084E-03-5.98072E-04-4.33355E-14
 -1      2771 8.79771E-03-4.69871E-04-4.12516E-14
 -1      2772 9.27934E-03-6.56358E-04-4.47557E-14
 -1      2773 9.45911E-03-7.21872E-04-4.61970E-14
 -1      2774 9.14939E-03-5.67349E-04-4.40392E-14
 -1      2775 9.64041E-03-7.92782E-04-4.76618E-14
 -1      2776 9.81995E-03-8.64838E-04-4.91480E-14
 -1      2777 9.51727E-03-7.00925E-04-4.69168E-14
 -1      2778 9.99681E-03-9.34811E-04-5.06609E-14
 -1      2779 1.01697E-02-9.93854E-04-5.21968E-14
 -1      2780 9.88815E-03-8.56610E-04-4.98877E-14
 -1      2781 1.06649E-02-1.05722E-03-5.69467E-14
 -1      2782 1.08312E-02-1.03095E-03-5.85776E-14
 -1      2783 1.09997E-02-9.83186E-04-6.02322E-14
 -1      2784 1.11734E-02-9.22299E-04-6.19065E-14
 -1      2785 1.09256E-02-9.79981E-04-5.93862E-14
 -1      2786 1.13510E-02-8.52264E-04-6.36028E-14
 -1      2787 1.15306E-02-7.81514E-04-6.53152E-14
 -1      2788 1.12845E-02-8.42434E-04-6.27403E-14
 -1      2789 1.17117E-02-7.13091E-04-6.70491E-14
 -1      2790 1.18907E-02-6.50493E-04-6.87978E-14
 -1      2791 1.16556E-02-6.90739E-04-6.61730E-14
 -1      2792 1.20679E-02-5.95313E-04-7.05598E-14
 -1      2793 1.22409E-02-5.47753E-04-7.23394E-14
 -1      2794 1.20214E-02-5.64168E-04-6.96734E-14
 -1      2795 1.24108E-02-5.08176E-04-7.41345E-14
 -1      2796 1.25764E-02-4.75460E-04-7.59406E-14
 -1      2797 1.23702E-02-4.73062E-04-7.32334E-14
 -1      2798 1.27388E-02-4.49433E-04-7.77618E-14
 -1      2799 1.28977E-02-4.28689E-04-7.95944E-14
 -1      2800 1.27000E-02-4.13212E-04-7.68501E-14
 -1      2801 1.30540E-02-4.12796E-04-8.14380E-14
 -1      2802 1.32077E-02-4.00622E-04-8.32943E-14
 -1      2803 1.30143E-02-3.76694E-04-8.05166E-14
 -1      2804 1.33595E-02-3.91614E-04-8.51574E-14
 -1      2805 1.35096E-02-3.84912E-04-8.70276E-14
 -1      2806 1.33175E-02-3.55990E-04-8.42233E-14
 -1      2807 1.36583E-02-3.79932E-04-8.89088E-14
 -1      2808 1.38058E-02-3.76029E-04-9.07979E-14
 -1      2809 1.36134E-02-3.45035E-04-8.79664E-14
 -1      2810 1.39523E-02-3.72646E-04-9.26973E-14
 -1      2811 1.40979E-02-3.69267E-04-9.46002E-14
 -1      2812 1.39048E-02-3.38850E-04-9.17426E-14
 -1      2813 2.26891E-03 4.77894E-04-2.34452E-15
 -1      2814 2.12710E-03 4.71226E-04-2.04550E-15
 -1      2815 8.36181E-03-3.23130E-05-4.37593E-14
 -1      2816 8.28568E-03-1.64821E-05-4.34010E-14
 -1      2817 1.98520E-03 4.62904E-04-1.76850E-15
 -1      2818 1.84317E-03 4.52767E-04-1.51249E-15
 -1      2819 2.04749E-03 4.30916E-04-1.95715E-15
 -1      2820 2.83597E-03 4.92701E-04-3.76188E-15
 -1      2821 2.69419E-03 4.90460E-04-3.37425E-15
 -1      2822 3.11969E-03 4.95095E-04-4.60615E-15
 -1      2823 2.97781E-03 4.94221E-04-4.17232E-15
 -1      2824 2.90230E-03 4.56526E-04-4.03451E-15
 -1      2825 3.40369E-03 4.95302E-04-5.54176E-15
 -1      2826 3.26166E-03 4.95437E-04-5.06248E-15
 -1      2827 3.18714E-03 4.58245E-04-4.90615E-15
 -1      2828 3.68803E-03 4.93866E-04-6.57027E-15
 -1      2829 3.54582E-03 4.94765E-04-6.04433E-15
 -1      2830 3.47208E-03 4.57977E-04-5.86955E-15
 -1      2831 3.97274E-03 4.91141E-04-7.69414E-15
 -1      2832 3.83034E-03 4.92649E-04-7.12024E-15
 -1      2833 3.75719E-03 4.56203E-04-6.92602E-15
 -1      2834 4.25787E-03 4.87334E-04-8.91745E-15
 -1      2835 4.11525E-03 4.89364E-04-8.29314E-15
 -1      2836 4.04249E-03 4.53229E-04-8.07804E-15
 -1      2837 4.54345E-03 4.82545E-04-1.02398E-14
 -1      2838 4.40060E-03 4.85058E-04-9.56597E-15
 -1      2839 4.32802E-03 4.49229E-04-9.32825E-15
 -1      2840 4.82956E-03 4.76805E-04-1.16634E-14
 -1      2841 4.68644E-03 4.79793E-04-1.09391E-14
 -1      2842 4.61381E-03 4.44277E-04-1.06783E-14
 -1      2843 5.11627E-03 4.70108E-04-1.31862E-14
 -1      2844 4.97283E-03 4.73575E-04-1.24121E-14
 -1      2845 4.89992E-03 4.38388E-04-1.21275E-14
 -1      2846 5.40370E-03 4.62455E-04-1.48101E-14
 -1      2847 5.25988E-03 4.66398E-04-1.39854E-14
 -1      2848 5.18638E-03 4.31551E-04-1.36763E-14
 -1      2849 5.69200E-03 4.53900E-04-1.65350E-14
 -1      2850 5.54772E-03 4.58283E-04-1.56598E-14
 -1      2851 5.47328E-03 4.23770E-04-1.53254E-14
 -1      2852 5.98135E-03 4.44610E-04-1.83564E-14
 -1      2853 5.83651E-03 4.49331E-04-1.74335E-14
 -1      2854 5.76071E-03 4.15108E-04-1.70740E-14
 -1      2855 6.27201E-03 4.34938E-04-2.02750E-14
 -1      2856 6.12648E-03 4.39792E-04-1.93039E-14
 -1      2857 6.04879E-03 4.05752E-04-1.89200E-14
 -1      2858 6.56428E-03 4.25524E-04-2.22880E-14
 -1      2859 6.41790E-03 4.30149E-04-2.12701E-14
 -1      2860 6.33771E-03 3.96081E-04-2.08620E-14
 -1      2861 6.85861E-03 4.17412E-04-2.43947E-14
 -1      2862 6.71114E-03 4.21226E-04-2.33305E-14
 -1      2863 6.62770E-03 3.86763E-04-2.28983E-14
 -1      2864 7.15555E-03 4.12203E-04-2.65922E-14
 -1      2865 7.00669E-03 4.14326E-04-2.54811E-14
 -1      2866 6.91917E-03 3.78872E-04-2.50264E-14
 -1      2867 7.45594E-03 4.12213E-04-2.88855E-14
 -1      2868 7.30524E-03 4.11382E-04-2.77267E-14
 -1      2869 7.21272E-03 3.74020E-04-2.72471E-14
 -1      2870 7.76096E-03 4.20636E-04-3.12715E-14
 -1      2871 7.60779E-03 4.15129E-04-3.00680E-14
 -1      2872 7.50934E-03 3.74523E-04-2.95645E-14
 -1      2873 8.07224E-03 4.41651E-04-3.37462E-14
 -1      2874 7.91574E-03 4.29240E-04-3.24972E-14
 -1      2875 7.81058E-03 3.83559E-04-3.19730E-14
 -1      2876 8.39189E-03 4.80368E-04-3.63097E-14
 -1      2877 8.23098E-03 4.58382E-04-3.50165E-14
 -1      2878 8.11874E-03 4.05334E-04-3.44691E-14
 -1      2879 8.72198E-03 5.42338E-04-3.89619E-14
 -1      2880 8.55571E-03 5.08017E-04-3.76242E-14
 -1      2881 8.43689E-03 4.45201E-04-3.70530E-14
 -1      2882 9.06333E-03 6.31938E-04-4.17051E-14
 -1      2883 8.89156E-03 5.83434E-04-4.03231E-14
 -1      2884 8.76827E-03 5.09402E-04-3.97271E-14
 -1      2885 9.41363E-03 7.48874E-04-4.45419E-14
 -1      2886 9.23806E-03 6.87256E-04-4.31123E-14
 -1      2887 9.11458E-03 6.03378E-04-4.24924E-14
 -1      2888 9.76519E-03 8.82472E-04-4.74720E-14
 -1      2889 9.59021E-03 8.15147E-04-4.59939E-14
 -1      2890 9.47302E-03 7.28144E-04-4.53468E-14
 -1      2891 1.01078E-02 1.00493E-03-5.05024E-14
 -1      2892 9.93819E-03 9.47802E-04-4.89756E-14
 -1      2893 9.83346E-03 8.71022E-04-4.82982E-14
 -1      2894 1.04356E-02 1.07768E-03-5.36339E-14
 -1      2895 1.02725E-02 1.05058E-03-5.20548E-14
 -1      2896 1.01819E-02 9.97684E-04-5.13488E-14
 -1      2897 1.07574E-02 1.06916E-03-5.68717E-14
 -1      2898 1.05954E-02 1.08403E-03-5.52400E-14
 -1      2899 1.05154E-02 1.05956E-03-5.45023E-14
 -1      2900 1.10871E-02 9.83967E-04-6.02130E-14
 -1      2901 1.09196E-02 1.03371E-03-5.85294E-14
 -1      2902 1.08452E-02 1.02507E-03-5.77651E-14
 -1      2903 1.14315E-02 8.57528E-04-6.36464E-14
 -1      2904 1.12579E-02 9.23072E-04-6.19188E-14
 -1      2905 1.11885E-02 9.13093E-04-6.11299E-14
 -1      2906 1.17828E-02 7.27390E-04-6.71683E-14
 -1      2907 1.16073E-02 7.90865E-04-6.53976E-14
 -1      2908 1.15468E-02 7.72196E-04-6.45880E-14
 -1      2909 1.21305E-02 6.17320E-04-7.07644E-14
 -1      2910 1.19580E-02 6.69112E-04-6.89569E-14
 -1      2911 1.19067E-02 6.41960E-04-6.81267E-14
 -1      2912 1.24681E-02 5.35082E-04-7.44279E-14
 -1      2913 1.23010E-02 5.72821E-04-7.25899E-14
 -1      2914 1.22563E-02 5.40412E-04-7.17395E-14
 -1      2915 1.27939E-02 4.78883E-04-7.81386E-14
 -1      2916 1.26326E-02 5.04117E-04-7.62788E-14
 -1      2917 1.25910E-02 4.69285E-04-7.54118E-14
 -1      2918 1.31093E-02 4.43328E-04-8.18853E-14
 -1      2919 1.29529E-02 4.58966E-04-8.00088E-14
 -1      2920 1.29114E-02 4.23181E-04-7.91280E-14
 -1      2921 1.34163E-02 4.22223E-04-8.56514E-14
 -1      2922 1.32638E-02 4.31367E-04-8.37659E-14
 -1      2923 1.32206E-02 3.95357E-04-8.28756E-14
 -1      2924 1.37169E-02 4.09743E-04-8.94333E-14
 -1      2925 1.35673E-02 4.15241E-04-8.75423E-14
 -1      2926 1.35219E-02 3.79506E-04-8.66436E-14
 -1      2927 1.40126E-02 4.00773E-04-9.32231E-14
 -1      2928 1.38653E-02 4.05104E-04-9.13259E-14
 -1      2929 1.38175E-02 3.70185E-04-9.04230E-14
 -1      2930 1.42767E-02 3.84520E-04-9.66149E-14
 -1      2931 1.41314E-02 3.89500E-04-9.47135E-14
 -1      2932 1.40822E-02 3.55964E-04-9.38062E-14
 -1      2933 1.43166E-02 3.34648E-04-9.67906E-14
 -1      2934 1.44785E-02 1.26591E-05-9.69943E-14
 -1      2935 1.44740E-02 4.26158E-05-9.69638E-14
 -1      2936 1.41955E-02-3.67222E-04-9.58903E-14
 -1      2937 1.42926E-02-3.65094E-04-9.71878E-14
 -1      2938 1.43394E-02-3.30874E-04-9.75184E-14
 -1      2939 1.41462E-02-3.34782E-04-9.49325E-14
 -1      2940 1.44364E-02 1.35403E-04-9.68640E-14
 -1      2941 1.44171E-02 1.68067E-04-9.68255E-14
 -1      2942 1.44744E-02-4.70167E-05-9.70441E-14
 -1      2943 1.44786E-02-1.70612E-05-9.70204E-14
 -1      2944 1.43636E-02-2.05676E-06-9.53499E-14
 -1      2945 1.44653E-02 7.28419E-05-9.69332E-14
 -1      2946 1.44526E-02 1.03767E-04-9.68993E-14
 -1      2947 1.43275E-02 1.20185E-04-9.52281E-14
 -1      2948 1.43541E-02 5.79946E-05-9.52935E-14
 -1      2949 1.70098E-03 4.40398E-04-1.27754E-15
 -1      2950 1.55854E-03 4.25600E-04-1.06427E-15
 -1      2951 1.47598E-03 3.82145E-04-1.00543E-15
 -1      2952 1.76200E-03 4.11041E-04-1.43868E-15
 -1      2953 1.44541E-02-1.07103E-04-9.70836E-14
 -1      2954 1.44662E-02-7.67237E-05-9.70651E-14
 -1      2955 1.43548E-02-6.15883E-05-9.53974E-14
 -1      2956 1.44194E-02-1.71332E-04-9.71170E-14
 -1      2957 1.44383E-02-1.38703E-04-9.71020E-14
 -1      2958 1.43293E-02-1.23197E-04-9.54369E-14
 -1      2959 1.43746E-02-2.39815E-04-9.71374E-14
 -1      2960 1.43980E-02-2.04969E-04-9.71281E-14
 -1      2961 1.42896E-02-1.89086E-04-9.54642E-14
 -1      2962 1.43646E-02-2.93158E-04-9.75140E-14
 -1      2963 1.28387E-02-1.82253E-05-6.90619E-14
 -1      2964 1.27750E-02-3.28838E-05-6.88718E-14
 -1      2965 7.88802E-04-2.52605E-04-3.78956E-16
 -1      2966 9.19971E-04-2.88382E-04-4.91984E-16
 -1      2967 1.01844E-02-9.27296E-04-5.26572E-14
 -1      2968 1.00396E-02-8.57591E-04-5.15361E-14
 -1      2969 1.26867E-02-5.76056E-05-6.85172E-14
 -1      2970 1.25771E-02-9.08137E-05-6.81621E-14
 -1      2971 1.27679E-02-4.64290E-05-6.97195E-14
 -1      2972 9.82558E-03-7.36285E-04-5.01208E-14
 -1      2973 9.64329E-03-6.23358E-04-4.90678E-14
 -1      2974 9.01698E-03-2.83130E-04-4.59511E-14
 -1      2975 8.81798E-03-1.96282E-04-4.50933E-14
 -1      2976 2.55243E-03 4.87333E-04-3.00892E-15
 -1      2977 2.41069E-03 4.83220E-04-2.66575E-15
 -1      2978 2.33260E-03 4.44022E-04-2.56137E-15
 -1      2979 2.61748E-03 4.52114E-04-3.25335E-15
 -1      2980 1.04817E-03-3.15936E-04-6.22264E-16
 -1      2981 1.19143E-03-3.41557E-04-7.88811E-16
 -1      2982 1.25301E-03-3.19973E-04-8.99468E-16
 -1      2983 9.96715E-04-2.74946E-04-5.95322E-16
 -1      2984 7.84495E-04 1.23520E-04-4.04882E-16
 -1      2985 7.82137E-04 1.00080E-04-4.15019E-16
 -1      2986 8.99794E-04 9.94890E-05-5.34105E-16
 -1      2987 9.05484E-04 1.51650E-04-5.09724E-16
 -1      2988 7.81882E-04-9.80299E-05-4.46461E-16
 -1      2989 7.84170E-04-1.21392E-04-4.43656E-16
 -1      2990 1.02451E-02 9.49222E-04-5.24402E-14
 -1      2991 1.03819E-02 9.93350E-04-5.35680E-14
 -1      2992 8.30200E-03 2.08841E-05-4.34250E-14
 -1      2993 8.38140E-03 4.21302E-05-4.34415E-14
 -1      2994 1.12139E-02-7.87156E-04-6.12474E-14
 -1      2995 1.10430E-02-8.81305E-04-5.99580E-14
 -1      2996 6.52861E-04-1.88501E-04-2.92843E-16
 -1      2997 1.28854E-02 1.64545E-06-6.93002E-14
 -1      2998 1.28772E-02-5.45922E-06-6.91836E-14
 -1      2999 1.28892E-02-1.32583E-05-7.01996E-14
 -1      3000 1.20676E-02 2.98536E-04-6.55412E-14
 -1      3001 1.22401E-02 2.19051E-04-6.63614E-14
 -1      3002 8.61179E-03-1.13681E-04-4.43742E-14
 -1      3003 8.47363E-03-6.58653E-05-4.40663E-14
 -1      3004 8.39067E-03-5.45954E-05-4.31408E-14
 -1      3005 1.16808E-02 5.09959E-04-6.35946E-14
 -1      3006 1.18727E-02 3.98743E-04-6.45637E-14
 -1      3007 1.19991E-02 3.53721E-04-6.58206E-14
 -1      3008 1.15899E-02-5.65599E-04-6.36834E-14
 -1      3009 1.14254E-02-6.66526E-04-6.27080E-14
 -1      3010 8.98115E-03 2.69360E-04-4.53217E-14
 -1      3011 9.16596E-03 3.60200E-04-4.60700E-14
 -1      3012 1.19467E-02-3.65937E-04-6.55705E-14
 -1      3013 1.17648E-02-4.64221E-04-6.46238E-14
 -1      3014 1.17051E-02-5.23565E-04-6.48569E-14
 -1      3015 8.03007E-04 2.78332E-04-2.93548E-16
 -1      3016 9.44177E-03-5.05159E-04-4.80072E-14
 -1      3017 9.24362E-03-3.95116E-04-4.70374E-14
 -1      3018 8.24101E-03-9.67282E-07-4.31874E-14
 -1      3019 8.25326E-03 6.66037E-06-4.33080E-14
 -1      3020 8.24161E-03 1.46096E-05-4.25291E-14
 -1      3021 7.87196E-04-1.45539E-04-4.39346E-16
 -1      3022 7.91026E-04-1.70702E-04-4.32827E-16
 -1      3023 9.05008E-04-1.49129E-04-5.61752E-16
 -1      3024 8.95709E-04 1.01060E-06-5.63080E-16
 -1      3025 7.77835E-04-9.72818E-06-4.44686E-16
 -1      3026 7.78193E-04-3.13901E-05-4.46935E-16
 -1      3027 1.01446E-02 9.19063E-04-5.15106E-14
 -1      3028 1.16360E-02 5.58700E-04-6.37936E-14
 -1      3029 1.28661E-02 1.71221E-05-6.99128E-14
 -1      3030 1.28814E-02 9.06101E-06-6.96071E-14
 -1      3031 1.29223E-02 3.91946E-06-7.06292E-14
 -1      3032 9.75725E-03 7.07825E-04-4.88445E-14
 -1      3033 9.85303E-03 7.81869E-04-4.92446E-14
 -1      3034 9.62979E-03 6.48156E-04-4.78907E-14
 -1      3035 1.42873E-02 1.85871E-04-9.51538E-14
 -1      3036 1.43955E-02 2.01453E-04-9.67855E-14
 -1      3037 1.43720E-02 2.36025E-04-9.67454E-14
 -1      3038 1.23627E-02 1.73856E-04-6.72954E-14
 -1      3039 1.24772E-02 1.40344E-04-6.82317E-14
 -1      3040 1.23056E-02 2.18890E-04-6.77420E-14
 -1      3041 1.03370E-02-1.03851E-03-5.37573E-14
 -1      3042 1.05027E-02-1.06009E-03-5.53419E-14
 -1      3043 1.05850E-02-1.04165E-03-5.61243E-14
 -1      3044 1.02452E-02-9.91132E-04-5.29568E-14
 -1      3045 8.23010E-03-1.85814E-05-4.20638E-14
 -1      3046 8.23174E-03-8.95993E-06-4.26240E-14
 -1      3047 8.18857E-03-4.03835E-06-4.18528E-14
 -1      3048 1.20819E-02-3.08023E-04-6.66251E-14
 -1      3049 1.20066E-02-3.72381E-04-6.68604E-14
 -1      3050 1.22120E-02-2.62164E-04-6.76841E-14
 -1      3051 9.51919E-03-5.70962E-04-4.80771E-14
 -1      3052 1.43572E-02 2.66089E-04-9.67924E-14
 -1      3053 1.43319E-02 3.02795E-04-9.67463E-14
 -1      3054 1.42159E-02 3.12926E-04-9.52549E-14
 -1      3055 1.42481E-02 2.50341E-04-9.51627E-14
 -1      3056 1.02776E-02-9.68869E-04-5.33792E-14
 -1      3057 8.82370E-03 2.12436E-04-4.43069E-14
 -1      3058 8.88289E-03 2.66782E-04-4.39417E-14
 -1      3059 8.67750E-03 1.71954E-04-4.33035E-14
 -1      3060 8.69179E-03-1.58955E-04-4.41538E-14
 -1      3061 8.57540E-03-1.33962E-04-4.32246E-14
 -1      3062 8.76233E-03-2.10065E-04-4.39334E-14
 -1      3063 1.42008E-02-3.05583E-04-9.53904E-14
 -1      3064 1.43223E-02-2.66947E-04-9.66771E-14
 -1      3065 1.42133E-02-2.50563E-04-9.50152E-14
 -1      3066 1.41047E-02-3.06773E-04-9.41007E-14
 -1      3067 9.10713E-03-3.47532E-04-4.59434E-14
 -1      3068 1.26872E-02 5.56701E-05-6.83361E-14
 -1      3069 1.27666E-02 4.33081E-05-6.93463E-14
 -1      3070 1.26429E-02 7.84697E-05-6.87904E-14
 -1      3071 8.43456E-03 6.57076E-05-4.31548E-14
 -1      3072 8.48947E-03 9.54686E-05-4.28643E-14
 -1      3073 8.33890E-03 5.03754E-05-4.23586E-14
 -1      3074 1.25046E-02-1.24203E-04-6.84015E-14
 -1      3075 1.24354E-02-1.63632E-04-6.86377E-14
 -1      3076 1.26172E-02-1.02072E-04-6.96009E-14
 -1      3077 9.91804E-03-8.06314E-04-5.05369E-14
 -1      3078 1.06046E-02-1.01304E-03-5.62306E-14
 -1      3079 7.70000E-04-2.02500E-04-3.94880E-16
 -1      3080 1.08404E-02 9.65710E-04-5.75757E-14
 -1      3081 1.13392E-02-7.36304E-04-6.24404E-14
 -1      3082 7.78963E-04-5.31889E-05-4.47925E-16
 -1      3083 7.80166E-04-7.53915E-05-4.47857E-16
 -1      3084 8.99518E-04-9.71509E-05-5.68285E-16
 -1      3085 8.96594E-04-4.75545E-05-5.68556E-16
 -1      3086 1.04799E-02 1.01286E-03-5.43848E-14
 -1      3087 9.27586E-03 4.37030E-04-4.62150E-14
 -1      3088 1.11493E-02 8.41120E-04-6.02844E-14
 -1      3089 1.12450E-02 7.79245E-04-6.09669E-14
 -1      3090 1.13612E-02 7.31875E-04-6.20609E-14
 -1      3091 8.64801E-04 2.66649E-04-3.67707E-16
 -1      3092 9.82907E-04 2.75860E-04-4.85140E-16
 -1      3093 1.12546E-03 3.01372E-04-6.25476E-16
 -1      3094 1.06324E-03 2.62819E-04-5.92706E-16
 -1      3095 1.26855E-03 3.23449E-04-7.85708E-16
 -1      3096 1.05584E-03 2.30154E-04-6.16708E-16
 -1      3097 1.05033E-02 1.03455E-03-5.44577E-14
 -1      3098 1.06671E-02 1.03010E-03-5.60517E-14
 -1      3099 1.73172E-03-3.40324E-04-1.68587E-15
 -1      3100 1.87540E-03-3.50438E-04-1.96032E-15
 -1      3101 2.01907E-03-3.58812E-04-2.25701E-15
 -1      3102 2.16272E-03-3.65597E-04-2.57570E-15
 -1      3103 1.94032E-03-3.19085E-04-2.12398E-15
 -1      3104 2.30633E-03-3.71064E-04-2.91593E-15
 -1      3105 2.44989E-03-3.75338E-04-3.27832E-15
 -1      3106 2.22838E-03-3.31933E-04-2.76158E-15
 -1      3107 2.59340E-03-3.78634E-04-3.66319E-15
 -1      3108 2.73684E-03-3.81047E-04-4.07100E-15
 -1      3109 2.51638E-03-3.40066E-04-3.48725E-15
 -1      3110 2.88024E-03-3.82741E-04-4.50006E-15
 -1      3111 3.02357E-03-3.83786E-04-4.95174E-15
 -1      3112 2.80416E-03-3.44680E-04-4.30146E-15
 -1      3113 3.16686E-03-3.84303E-04-5.42676E-15
 -1      3114 3.31010E-03-3.84341E-04-5.92449E-15
 -1      3115 3.09165E-03-3.46697E-04-5.20486E-15
 -1      3116 3.45330E-03-3.83984E-04-6.44393E-15
 -1      3117 3.59645E-03-3.83266E-04-6.98614E-15
 -1      3118 3.37884E-03-3.46798E-04-6.19907E-15
 -1      3119 3.73957E-03-3.82243E-04-7.55217E-15
 -1      3120 3.88265E-03-3.80933E-04-8.14062E-15
 -1      3121 3.66572E-03-3.45457E-04-7.28326E-15
 -1      3122 4.02570E-03-3.79370E-04-8.75161E-15
 -1      3123 4.16871E-03-3.77564E-04-9.38498E-15
 -1      3124 3.95230E-03-3.42988E-04-8.45859E-15
 -1      3125 4.31169E-03-3.75532E-04-1.00408E-14
 -1      3126 4.45464E-03-3.73275E-04-1.07192E-14
 -1      3127 4.23857E-03-3.39574E-04-9.72472E-15
 -1      3128 4.59755E-03-3.70801E-04-1.14192E-14
 -1      3129 4.74043E-03-3.68105E-04-1.21424E-14
 -1      3130 4.52451E-03-3.35303E-04-1.10796E-14
 -1      3131 4.88327E-03-3.65191E-04-1.28897E-14
 -1      3132 5.02607E-03-3.62049E-04-1.36596E-14
 -1      3133 4.81009E-03-3.30198E-04-1.25244E-14
 -1      3134 5.16883E-03-3.58685E-04-1.44541E-14
 -1      3135 5.31155E-03-3.55091E-04-1.52728E-14
 -1      3136 5.09527E-03-3.24247E-04-1.40645E-14
 -1      3137 5.45421E-03-3.51277E-04-1.61149E-14
 -1      3138 5.59683E-03-3.47240E-04-1.69822E-14
 -1      3139 5.37998E-03-3.17435E-04-1.57006E-14
 -1      3140 5.73938E-03-3.43006E-04-1.78742E-14
 -1      3141 5.88189E-03-3.38580E-04-1.87882E-14
 -1      3142 5.66413E-03-3.09778E-04-1.74338E-14
 -1      3143 6.02432E-03-3.34009E-04-1.97255E-14
 -1      3144 6.16671E-03-3.29315E-04-2.06873E-14
 -1      3145 5.94762E-03-3.01365E-04-1.92623E-14
 -1      3146 6.30902E-03-3.24577E-04-2.16731E-14
 -1      3147 6.45132E-03-3.19841E-04-2.26814E-14
 -1      3148 6.23036E-03-2.92406E-04-2.11840E-14
 -1      3149 6.59357E-03-3.15228E-04-2.37132E-14
 -1      3150 6.73586E-03-3.10819E-04-2.47680E-14
 -1      3151 6.51231E-03-2.83288E-04-2.32010E-14
 -1      3152 6.87817E-03-3.06787E-04-2.58462E-14
 -1      3153 7.02065E-03-3.03271E-04-2.69476E-14
 -1      3154 6.79354E-03-2.74639E-04-2.53094E-14
 -1      3155 7.16331E-03-3.00493E-04-2.80729E-14
 -1      3156 7.30637E-03-2.98685E-04-2.92207E-14
 -1      3157 7.07431E-03-2.67403E-04-2.75116E-14
 -1      3158 7.44992E-03-2.98114E-04-3.03919E-14
 -1      3159 7.59430E-03-2.99160E-04-3.15872E-14
 -1      3160 7.35534E-03-2.62930E-04-2.98070E-14
 -1      3161 7.73973E-03-3.02116E-04-3.28037E-14
 -1      3162 7.88669E-03-3.07617E-04-3.40412E-14
 -1      3163 7.63801E-03-2.63103E-04-3.21950E-14
 -1      3164 8.03562E-03-3.15948E-04-3.53020E-14
 -1      3165 8.18715E-03-3.28160E-04-3.65865E-14
 -1      3166 7.92489E-03-2.70595E-04-3.46706E-14
 -1      3167 8.34202E-03-3.44537E-04-3.78924E-14
 -1      3168 8.50088E-03-3.66776E-04-3.92188E-14
 -1      3169 8.22026E-03-2.89370E-04-3.72347E-14
 -1      3170 8.66505E-03-3.94955E-04-4.05671E-14
 -1      3171 8.83447E-03-4.31739E-04-4.19364E-14
 -1      3172 8.53082E-03-3.25947E-04-3.98854E-14
 -1      3173 9.01083E-03-4.76926E-04-4.33274E-14
 -1      3174 9.19255E-03-5.33515E-04-4.47417E-14
 -1      3175 8.86511E-03-3.90584E-04-4.26204E-14
 -1      3176 1.11188E-02-8.81828E-04-6.10202E-14
 -1      3177 1.13080E-02-7.98858E-04-6.27095E-14
 -1      3178 1.16025E-02-6.65695E-04-6.52944E-14
 -1      3179 1.17930E-02-5.91614E-04-6.70324E-14
 -1      3180 1.19807E-02-5.28856E-04-6.87849E-14
 -1      3181 1.21609E-02-4.76106E-04-7.05503E-14
 -1      3182 1.19453E-02-4.91217E-04-6.78928E-14
 -1      3183 1.23359E-02-4.34093E-04-7.23312E-14
 -1      3184 1.25040E-02-4.00152E-04-7.41273E-14
 -1      3185 1.23073E-02-3.91931E-04-7.14311E-14
 -1      3186 1.26669E-02-3.74246E-04-7.59377E-14
 -1      3187 1.28249E-02-3.53938E-04-7.77591E-14
 -1      3188 1.26390E-02-3.32926E-04-7.50237E-14
 -1      3189 1.29793E-02-3.38915E-04-7.95939E-14
 -1      3190 1.31304E-02-3.27521E-04-8.14382E-14
 -1      3191 1.29485E-02-2.99873E-04-7.86690E-14
 -1      3192 1.32792E-02-3.19439E-04-8.32887E-14
 -1      3193 1.34261E-02-3.13606E-04-8.51519E-14
 -1      3194 1.32441E-02-2.82472E-04-8.23575E-14
 -1      3195 1.35715E-02-3.09614E-04-8.70239E-14
 -1      3196 1.37160E-02-3.06781E-04-8.89022E-14
 -1      3197 1.35321E-02-2.74268E-04-8.60813E-14
 -1      3198 1.38389E-02-3.07768E-04-9.05483E-14
 -1      3199 1.39822E-02-3.05811E-04-9.24438E-14
 -1      3200 1.40382E-02-2.76938E-04-9.28983E-14
 -1      3201 1.37957E-02-2.73673E-04-8.95983E-14
 -1      3202 1.42349E-02-7.63397E-05-9.37587E-14
 -1      3203 1.42442E-02-4.64274E-05-9.37376E-14
 -1      3204 3.25502E-03 4.21109E-04-5.20969E-15
 -1      3205 3.11214E-03 4.20811E-04-4.74864E-15
 -1      3206 2.96923E-03 4.19985E-04-4.31004E-15
 -1      3207 2.82631E-03 4.18574E-04-3.89462E-15
 -1      3208 3.03675E-03 3.83159E-04-4.58985E-15
 -1      3209 3.82650E-03 4.18401E-04-7.28395E-15
 -1      3210 3.68363E-03 4.19576E-04-6.73024E-15
 -1      3211 4.11225E-03 4.15248E-04-8.46400E-15
 -1      3212 3.96937E-03 4.16954E-04-7.86213E-15
 -1      3213 3.89596E-03 3.80522E-04-7.64583E-15
 -1      3214 4.39805E-03 4.11125E-04-9.74119E-15
 -1      3215 4.25514E-03 4.13304E-04-9.09033E-15
 -1      3216 4.18203E-03 3.77258E-04-8.85242E-15
 -1      3217 4.68391E-03 4.06084E-04-1.11182E-14
 -1      3218 4.54097E-03 4.08719E-04-1.04171E-14
 -1      3219 4.46796E-03 3.73082E-04-1.01568E-14
 -1      3220 4.96985E-03 4.00129E-04-1.25932E-14
 -1      3221 4.82686E-03 4.03222E-04-1.18433E-14
 -1      3222 4.75374E-03 3.68029E-04-1.15594E-14
 -1      3223 5.25588E-03 3.93246E-04-1.41678E-14
 -1      3224 5.11284E-03 3.96805E-04-1.33678E-14
 -1      3225 5.03935E-03 3.62092E-04-1.30604E-14
 -1      3226 5.54203E-03 3.85440E-04-1.58430E-14
 -1      3227 5.39893E-03 3.89457E-04-1.49931E-14
 -1      3228 5.32476E-03 3.55257E-04-1.46616E-14
 -1      3229 5.82834E-03 3.76789E-04-1.76149E-14
 -1      3230 5.68515E-03 3.81214E-04-1.67167E-14
 -1      3231 5.60995E-03 3.47536E-04-1.63607E-14
 -1      3232 6.11486E-03 3.67492E-04-1.94854E-14
 -1      3233 5.97155E-03 3.72206E-04-1.85387E-14
 -1      3234 5.89489E-03 3.39013E-04-1.81583E-14
 -1      3235 6.40168E-03 3.57947E-04-2.14494E-14
 -1      3236 6.25820E-03 3.62722E-04-2.04551E-14
 -1      3237 6.17955E-03 3.29900E-04-2.00509E-14
 -1      3238 6.68901E-03 3.48831E-04-2.35085E-14
 -1      3239 6.54525E-03 3.53286E-04-2.24670E-14
 -1      3240 6.46397E-03 3.20597E-04-2.20383E-14
 -1      3241 6.97722E-03 3.41213E-04-2.56588E-14
 -1      3242 6.83295E-03 3.44756E-04-2.45727E-14
 -1      3243 6.74828E-03 3.11770E-04-2.41188E-14
 -1      3244 7.26695E-03 3.36672E-04-2.79046E-14
 -1      3245 7.12181E-03 3.38437E-04-2.67696E-14
 -1      3246 7.03283E-03 3.04445E-04-2.62937E-14
 -1      3247 7.55937E-03 3.37452E-04-3.02444E-14
 -1      3248 7.41271E-03 3.36215E-04-2.90627E-14
 -1      3249 7.31832E-03 3.00110E-04-2.85624E-14
 -1      3250 7.85640E-03 3.46642E-04-3.26730E-14
 -1      3251 7.70714E-03 3.40726E-04-3.14474E-14
 -1      3252 7.60607E-03 3.00866E-04-3.09238E-14
 -1      3253 8.16103E-03 3.68415E-04-3.51924E-14
 -1      3254 8.00755E-03 3.55553E-04-3.39219E-14
 -1      3255 7.89841E-03 3.09627E-04-3.33763E-14
 -1      3256 8.47744E-03 4.08422E-04-3.77977E-14
 -1      3257 8.31755E-03 3.85555E-04-3.64838E-14
 -1      3258 8.19904E-03 3.30504E-04-3.59157E-14
 -1      3259 8.81025E-03 4.74026E-04-4.04943E-14
 -1      3260 8.64173E-03 4.37345E-04-3.91352E-14
 -1      3261 8.51340E-03 3.69719E-04-3.85441E-14
 -1      3262 9.16265E-03 5.72068E-04-4.32777E-14
 -1      3263 8.98440E-03 5.18221E-04-4.18741E-14
 -1      3264 8.84796E-03 4.36000E-04-4.12605E-14
 -1      3265 9.53143E-03 7.06070E-04-4.61522E-14
 -1      3266 9.34619E-03 6.34718E-04-4.47032E-14
 -1      3267 9.20722E-03 5.39158E-04-4.40620E-14
 -1      3268 9.88428E-03 8.41921E-04-4.90473E-14
 -1      3269 9.69713E-03 7.61632E-04-4.75504E-14
 -1      3270 1.03311E-02 1.00930E-03-5.28721E-14
 -1      3271 1.08413E-02 9.95717E-04-5.76905E-14
 -1      3272 1.13120E-02 8.17044E-04-6.21124E-14
 -1      3273 1.11270E-02 8.93906E-04-6.04037E-14
 -1      3274 1.20386E-02 5.53627E-04-6.90871E-14
 -1      3275 1.18579E-02 6.12075E-04-6.73000E-14
 -1      3276 1.23867E-02 4.64629E-04-7.27129E-14
 -1      3277 1.22155E-02 5.05129E-04-7.08910E-14
 -1      3278 1.21787E-02 4.67022E-04-7.00482E-14
 -1      3279 1.27154E-02 4.06272E-04-7.63915E-14
 -1      3280 1.25535E-02 4.32324E-04-7.45472E-14
 -1      3281 1.25202E-02 3.92893E-04-7.36837E-14
 -1      3282 1.30286E-02 3.70573E-04-8.01156E-14
 -1      3283 1.28737E-02 3.86229E-04-7.82505E-14
 -1      3284 1.28400E-02 3.47743E-04-7.73726E-14
 -1      3285 1.33309E-02 3.50145E-04-8.38633E-14
 -1      3286 1.31809E-02 3.58921E-04-8.19871E-14
 -1      3287 1.31445E-02 3.21833E-04-8.10993E-14
 -1      3288 1.36262E-02 3.39040E-04-8.76313E-14
 -1      3289 1.34792E-02 3.43780E-04-8.57435E-14
 -1      3290 1.34393E-02 3.07952E-04-8.48501E-14
 -1      3291 1.39170E-02 3.32394E-04-9.14136E-14
 -1      3292 1.37720E-02 3.35430E-04-8.95203E-14
 -1      3293 1.37287E-02 3.00826E-04-8.86156E-14
 -1      3294 1.41255E-02 3.17822E-04-9.40767E-14
 -1      3295 1.40083E-02 3.27605E-04-9.25886E-14
 -1      3296 1.39626E-02 2.94189E-04-9.16807E-14
 -1      3297 1.41426E-02 2.85658E-04-9.40324E-14
 -1      3298 9.18883E-03-4.17887E-04-4.58714E-14
 -1      3299 8.98364E-03-3.18481E-04-4.47995E-14
 -1      3300 1.01682E-03 6.82379E-05-6.80012E-16
 -1      3301 1.01567E-03 4.12422E-05-6.88604E-16
 -1      3302 1.42033E-02-1.39522E-04-9.37943E-14
 -1      3303 1.42211E-02-1.07405E-04-9.37761E-14
 -1      3304 1.41139E-02-9.14525E-05-9.21244E-14
 -1      3305 1.42489E-02-1.65686E-05-9.37116E-14
 -1      3306 1.42487E-02 1.32473E-05-9.36859E-14
 -1      3307 1.41342E-02-3.08576E-05-9.20811E-14
 -1      3308 1.28479E-02-4.44798E-05-7.12652E-14
 -1      3309 1.27708E-02-6.56325E-05-7.09040E-14
 -1      3310 1.29415E-02-1.28590E-05-7.15125E-14
 -1      3311 1.29040E-02-2.51028E-05-7.13888E-14
 -1      3312 1.29226E-02-4.20792E-05-7.25798E-14
 -1      3313 3.54076E-03 4.20441E-04-6.20015E-15
 -1      3314 3.39790E-03 4.20973E-04-5.69346E-15
 -1      3315 3.32333E-03 3.83762E-04-5.51638E-15
 -1      3316 3.60973E-03 3.82762E-04-6.53377E-15
 -1      3317 2.11105E-03 3.98298E-04-2.15015E-15
 -1      3318 1.96782E-03 3.90514E-04-1.86689E-15
 -1      3319 1.19566E-02 4.07356E-04-6.62774E-14
 -1      3320 1.21273E-02 3.19920E-04-6.72667E-14
 -1      3321 1.09534E-02-9.23747E-04-5.92588E-14
 -1      3322 1.08705E-02-9.62745E-04-5.86126E-14
 -1      3323 1.10564E-02-8.89883E-04-6.02783E-14
 -1      3324 1.10370E-02-9.22119E-04-6.03154E-14
 -1      3325 1.01559E-02 9.58006E-04-5.13134E-14
 -1      3326 1.08567E-02-9.83850E-04-5.86569E-14
 -1      3327 1.44461E-03-3.13732E-04-1.20196E-15
 -1      3328 1.58812E-03-3.28153E-04-1.43303E-15
 -1      3329 1.65249E-03-3.00043E-04-1.57342E-15
 -1      3330 9.57086E-03-6.33572E-04-4.79900E-14
 -1      3331 9.39109E-03-5.28888E-04-4.69438E-14
 -1      3332 1.16184E-02 6.03306E-04-6.41649E-14
 -1      3333 1.17838E-02 5.02865E-04-6.52171E-14
 -1      3334 1.19277E-02 4.60675E-04-6.66536E-14
 -1      3335 1.41582E-02-2.07225E-04-9.38163E-14
 -1      3336 1.41821E-02-1.72704E-04-9.38067E-14
 -1      3337 1.40758E-02-1.55908E-04-9.21549E-14
 -1      3338 9.15770E-03 4.10197E-04-4.50145E-14
 -1      3339 9.38314E-03 5.23530E-04-4.62781E-14
 -1      3340 8.87935E-04-2.11917E-04-5.13600E-16
 -1      3341 8.38495E-03-7.58449E-05-4.22336E-14
 -1      3342 8.28923E-03-4.56669E-05-4.19346E-14
 -1      3343 1.18036E-02-4.96644E-04-6.59780E-14
 -1      3344 1.16499E-02-5.86350E-04-6.50282E-14
 -1      3345 8.19003E-03 1.10380E-05-4.16932E-14
 -1      3346 8.23229E-03 2.40541E-05-4.18077E-14
 -1      3347 1.07580E-02-1.00612E-03-5.77013E-14
 -1      3348 1.06062E-02-1.02607E-03-5.62774E-14
 -1      3349 1.04309E-02-1.01733E-03-5.46794E-14
 -1      3350 1.01507E-03 1.44557E-05-6.95340E-16
 -1      3351 1.01504E-03-1.22325E-05-7.00381E-16
 -1      3352 1.13579E-03 3.01791E-05-8.41219E-16
 -1      3353 9.24979E-03-4.86781E-04-4.57816E-14
 -1      3354 1.10152E-02 9.31167E-04-5.93264E-14
 -1      3355 1.28485E-02 2.96547E-05-7.03703E-14
 -1      3356 1.29167E-02 2.18648E-05-7.13963E-14
 -1      3357 1.28263E-02 4.57570E-05-7.08278E-14
 -1      3358 9.46164E-03 5.83679E-04-4.64985E-14
 -1      3359 9.56120E-03 6.61559E-04-4.68811E-14
 -1      3360 1.21205E-03 2.47436E-04-7.97675E-16
 -1      3361 1.06423E-03 1.96719E-04-6.56674E-16
 -1      3362 1.41800E-02 1.69643E-04-9.35244E-14
 -1      3363 1.41559E-02 2.03901E-04-9.34853E-14
 -1      3364 1.22502E-02 2.72603E-04-6.82033E-14
 -1      3365 1.23688E-02 2.33265E-04-6.91434E-14
 -1      3366 1.22123E-02 3.27317E-04-6.86630E-14
 -1      3367 1.14947E-02-6.95408E-04-6.41849E-14
 -1      3368 1.00925E-02-9.20322E-04-5.16844E-14
 -1      3369 1.02722E-02-9.83376E-04-5.32358E-14
 -1      3370 8.12505E-03-5.11066E-06-4.05861E-14
 -1      3371 8.15280E-03 2.95497E-06-4.11378E-14
 -1      3372 8.12271E-03 1.09666E-05-4.04275E-14
 -1      3373 1.19967E-02-4.27297E-04-6.77259E-14
 -1      3374 9.38704E-03-6.11152E-04-4.61604E-14
 -1      3375 9.57724E-03-6.88519E-04-4.76177E-14
 -1      3376 9.77351E-03-7.76554E-04-4.91219E-14
 -1      3377 9.96242E-03-8.60501E-04-5.06305E-14
 -1      3378 8.21139E-03-3.52145E-05-4.11693E-14
 -1      3379 1.18787E-03-2.78833E-04-8.42154E-16
 -1      3380 1.31611E-03-2.97320E-04-1.01374E-15
 -1      3381 1.38027E-03-2.73436E-04-1.13146E-15
 -1      3382 1.27231E-02-9.25577E-05-7.11415E-14
 -1      3383 2.25421E-03 4.04619E-04-2.45522E-15
 -1      3384 2.17571E-03 3.65131E-04-2.34812E-15
 -1      3385 2.39731E-03 4.09611E-04-2.78239E-15
 -1      3386 1.01430E-03-2.34485E-04-6.47052E-16
 -1      3387 1.23521E-02-2.17108E-04-6.88769E-14
 -1      3388 1.22803E-02-2.75176E-04-6.91125E-14
 -1      3389 1.24836E-02-1.84132E-04-7.00763E-14
 -1      3390 1.88832E-03 3.50200E-04-1.77484E-15
 -1      3391 1.82453E-03 3.80956E-04-1.60462E-15
 -1      3392 1.68117E-03 3.69460E-04-1.36342E-15
 -1      3393 2.74996E-03 3.80412E-04-3.75390E-15
 -1      3394 2.68335E-03 4.16445E-04-3.50204E-15
 -1      3395 2.54035E-03 4.13518E-04-3.13126E-15
 -1      3396 1.15133E-02 6.68861E-04-6.34664E-14
 -1      3397 1.16637E-02 6.14208E-04-6.48835E-14
 -1      3398 1.14152E-02 7.33009E-04-6.27708E-14
 -1      3399 1.14587E-02 7.63465E-04-6.35142E-14
 -1      3400 1.17845E-02 5.90535E-04-6.62034E-14
 -1      3401 1.16449E-02 6.88773E-04-6.52624E-14
 -1      3402 1.42015E-02 1.36421E-04-9.35600E-14
 -1      3403 1.40742E-02 1.52706E-04-9.18992E-14
 -1      3404 1.42197E-02 1.04264E-04-9.35939E-14
 -1      3405 1.05958E-03 1.66437E-04-6.74889E-16
 -1      3406 1.01861E-03 9.55126E-05-6.69685E-16
 -1      3407 1.13842E-03 8.85951E-05-8.21351E-16
 -1      3408 1.02104E-03 1.23308E-04-6.57352E-16
 -1      3409 1.42436E-02 4.29234E-05-9.36577E-14
 -1      3410 1.42338E-02 7.33691E-05-9.36271E-14
 -1      3411 1.41128E-02 8.83831E-05-9.19676E-14
 -1      3412 1.41337E-02 2.81369E-05-9.20275E-14
 -1      3413 8.54914E-03 1.35168E-04-4.25067E-14
 -1      3414 8.60149E-03 1.81037E-04-4.21473E-14
 -1      3415 8.43170E-03 1.08767E-04-4.17176E-14
 -1      3416 1.25873E-02 1.11346E-04-6.92452E-14
 -1      3417 1.26876E-02 9.19139E-05-7.02578E-14
 -1      3418 1.25384E-02 1.49853E-04-6.96951E-14
 -1      3419 8.25716E-03 4.01268E-05-4.15227E-14
 -1      3420 8.28889E-03 6.04522E-05-4.12386E-14
 -1      3421 8.18418E-03 3.40166E-05-4.06957E-14
 -1      3422 1.00007E-02 8.89776E-04-5.00200E-14
 -1      3423 1.29636E-02-4.60262E-06-7.18228E-14
 -1      3424 1.29992E-02-1.49805E-05-7.30178E-14
 -1      3425 1.29756E-02 2.29032E-06-7.21332E-14
 -1      3426 1.40721E-02-2.55054E-04-9.31305E-14
 -1      3427 1.41260E-02-2.27864E-04-9.35868E-14
 -1      3428 1.40193E-02-2.10526E-04-9.19379E-14
 -1      3429 1.39518E-02-2.53162E-04-9.14784E-14
 -1      3430 8.49023E-03-1.50383E-04-4.17974E-14
 -1      3431 8.43839E-03-1.10194E-04-4.20168E-14
 -1      3432 8.31267E-03-9.66316E-05-4.08227E-14
 -1      3433 1.01833E-03-9.30334E-05-7.05423E-16
 -1      3434 1.02069E-03-1.20757E-04-7.03661E-16
 -1      3435 1.14350E-03-1.45947E-04-8.53348E-16
 -1      3436 1.02383E-03-1.49176E-04-6.99866E-16
 -1      3437 1.02785E-03-1.78413E-04-6.93835E-16
 -1      3438 1.37368E-03 3.32650E-04-9.23171E-16
 -1      3439 1.31089E-03 2.93943E-04-8.82039E-16
 -1      3440 1.31721E-03 2.55192E-04-9.35151E-16
 -1      3441 1.51704E-03 3.49226E-04-1.11956E-15
 -1      3442 9.32801E-03 5.50867E-04-4.52846E-14
 -1      3443 9.97876E-03-8.48290E-04-5.09001E-14
 -1      3444 9.63927E-03-6.83463E-04-4.83411E-14
 -1      3445 9.23787E-03-5.09341E-04-4.54254E-14
 -1      3446 2.15066E-03-2.92960E-04-2.60866E-15
 -1      3447 2.29503E-03-2.97713E-04-2.94954E-15
 -1      3448 2.43939E-03-3.01482E-04-3.31243E-15
 -1      3449 2.58372E-03-3.04359E-04-3.69752E-15
 -1      3450 2.36256E-03-2.62986E-04-3.13932E-15
 -1      3451 2.72798E-03-3.06502E-04-4.10407E-15
 -1      3452 2.87217E-03-3.07982E-04-4.53291E-15
 -1      3453 2.65182E-03-2.68279E-04-3.90883E-15
 -1      3454 3.01628E-03-3.08922E-04-4.98471E-15
 -1      3455 3.16029E-03-3.09371E-04-5.45889E-15
 -1      3456 2.94083E-03-2.71022E-04-4.76644E-15
 -1      3457 3.30420E-03-3.09420E-04-5.95574E-15
 -1      3458 3.44800E-03-3.09101E-04-6.47441E-15
 -1      3459 3.22944E-03-2.71875E-04-5.71383E-15
 -1      3460 3.59169E-03-3.08480E-04-7.01608E-15
 -1      3461 3.73528E-03-3.07574E-04-7.58076E-15
 -1      3462 3.51754E-03-2.71318E-04-6.75104E-15
 -1      3463 3.87875E-03-3.06428E-04-8.16736E-15
 -1      3464 4.02210E-03-3.05048E-04-8.77727E-15
 -1      3465 3.80509E-03-2.69681E-04-7.87814E-15
 -1      3466 4.16534E-03-3.03461E-04-9.40984E-15
 -1      3467 4.30845E-03-3.01667E-04-1.00640E-14
 -1      3468 4.09205E-03-2.67172E-04-9.09646E-15
 -1      3469 4.45143E-03-2.99682E-04-1.07408E-14
 -1      3470 4.59428E-03-2.97498E-04-1.14402E-14
 -1      3471 4.37836E-03-2.63902E-04-1.04044E-14
 -1      3472 4.73698E-03-2.95124E-04-1.21621E-14
 -1      3473 4.87953E-03-2.92550E-04-1.29075E-14
 -1      3474 4.66396E-03-2.59918E-04-1.18021E-14
 -1      3475 5.02190E-03-2.89782E-04-1.36768E-14
 -1      3476 5.16410E-03-2.86807E-04-1.44699E-14
 -1      3477 4.94875E-03-2.55219E-04-1.32912E-14
 -1      3478 5.30610E-03-2.83637E-04-1.52875E-14
 -1      3479 5.44789E-03-2.80257E-04-1.61292E-14
 -1      3480 5.23259E-03-2.49788E-04-1.48762E-14
 -1      3481 5.58943E-03-2.76689E-04-1.69958E-14
 -1      3482 5.73073E-03-2.72920E-04-1.78871E-14
 -1      3483 5.51532E-03-2.43615E-04-1.65604E-14
 -1      3484 5.87174E-03-2.68990E-04-1.88005E-14
 -1      3485 6.01247E-03-2.64890E-04-1.97371E-14
 -1      3486 5.79671E-03-2.36725E-04-1.83400E-14
 -1      3487 6.15286E-03-2.60683E-04-2.06979E-14
 -1      3488 6.29293E-03-2.56373E-04-2.16830E-14
 -1      3489 6.07653E-03-2.29210E-04-2.02146E-14
 -1      3490 6.43262E-03-2.52049E-04-2.26904E-14
 -1      3491 6.57198E-03-2.47733E-04-2.37212E-14
 -1      3492 6.35452E-03-2.21265E-04-2.21825E-14
 -1      3493 6.71094E-03-2.43548E-04-2.47755E-14
 -1      3494 6.84960E-03-2.39543E-04-2.58522E-14
 -1      3495 6.63045E-03-2.13216E-04-2.42428E-14
 -1      3496 6.98789E-03-2.35876E-04-2.69527E-14
 -1      3497 7.12599E-03-2.32639E-04-2.80773E-14
 -1      3498 6.90420E-03-2.05559E-04-2.63959E-14
 -1      3499 7.26387E-03-2.30016E-04-2.92242E-14
 -1      3500 7.40181E-03-2.28182E-04-3.03946E-14
 -1      3501 7.17584E-03-1.98980E-04-2.86431E-14
 -1      3502 7.53984E-03-2.27330E-04-3.15879E-14
 -1      3503 7.67846E-03-2.27786E-04-3.28035E-14
 -1      3504 7.44589E-03-1.94407E-04-3.09826E-14
 -1      3505 7.81779E-03-2.29722E-04-3.40411E-14
 -1      3506 7.95865E-03-2.33792E-04-3.52998E-14
 -1      3507 7.71564E-03-1.93097E-04-3.34130E-14
 -1      3508 8.10133E-03-2.40136E-04-3.65807E-14
 -1      3509 8.24712E-03-2.49967E-04-3.78847E-14
 -1      3510 7.98773E-03-1.96999E-04-3.59301E-14
 -1      3511 8.17028E-03-4.81673E-05-4.01854E-14
 -1      3512 8.13032E-03-2.26876E-05-4.03134E-14
 -1      3513 1.22658E-02-3.34008E-04-6.99858E-14
 -1      3514 1.24344E-02-2.99005E-04-7.17676E-14
 -1      3515 1.29231E-02-2.60070E-04-7.77464E-14
 -1      3516 1.30693E-02-2.51212E-04-7.95807E-14
 -1      3517 1.32127E-02-2.45464E-04-8.14261E-14
 -1      3518 1.33545E-02-2.41544E-04-8.32783E-14
 -1      3519 1.31851E-02-2.08231E-04-8.04925E-14
 -1      3520 1.34950E-02-2.39212E-04-8.51402E-14
 -1      3521 1.36348E-02-2.37879E-04-8.70120E-14
 -1      3522 1.34602E-02-2.04487E-04-8.42020E-14
 -1      3523 4.25184E-03 3.39304E-04-9.24373E-15
 -1      3524 4.10875E-03 3.41065E-04-8.61491E-15
 -1      3525 3.96557E-03 3.42603E-04-8.01004E-15
 -1      3526 3.82232E-03 3.43913E-04-7.42853E-15
 -1      3527 4.03533E-03 3.04705E-04-8.37682E-15
 -1      3528 4.82332E-03 3.30177E-04-1.20038E-14
 -1      3529 4.68059E-03 3.32772E-04-1.12771E-14
 -1      3530 5.10845E-03 3.24357E-04-1.35307E-14
 -1      3531 4.96594E-03 3.27376E-04-1.27545E-14
 -1      3532 4.89266E-03 2.92590E-04-1.24497E-14
 -1      3533 5.39308E-03 3.17680E-04-1.51566E-14
 -1      3534 5.25082E-03 3.21129E-04-1.43311E-14
 -1      3535 5.17717E-03 2.86985E-04-1.40026E-14
 -1      3536 5.67712E-03 3.10165E-04-1.68801E-14
 -1      3537 5.53517E-03 3.14028E-04-1.60063E-14
 -1      3538 5.46085E-03 2.80577E-04-1.56525E-14
 -1      3539 5.96046E-03 3.01902E-04-1.87012E-14
 -1      3540 5.81887E-03 3.06123E-04-1.77785E-14
 -1      3541 5.74356E-03 2.73389E-04-1.74008E-14
 -1      3542 6.24303E-03 2.93105E-04-2.06172E-14
 -1      3543 6.10184E-03 2.97558E-04-1.96477E-14
 -1      3544 6.02513E-03 2.65515E-04-1.92451E-14
 -1      3545 6.52477E-03 2.84166E-04-2.26273E-14
 -1      3546 6.38399E-03 2.88630E-04-2.16108E-14
 -1      3547 6.30538E-03 2.57164E-04-2.11852E-14
 -1      3548 6.80575E-03 2.75715E-04-2.47315E-14
 -1      3549 6.66532E-03 2.79839E-04-2.36680E-14
 -1      3550 6.58418E-03 2.48700E-04-2.32184E-14
 -1      3551 7.08626E-03 2.68698E-04-2.69290E-14
 -1      3552 6.94600E-03 2.71961E-04-2.58187E-14
 -1      3553 6.86152E-03 2.40694E-04-2.53452E-14
 -1      3554 7.36702E-03 2.64464E-04-2.92215E-14
 -1      3555 7.22651E-03 2.66128E-04-2.80633E-14
 -1      3556 7.13762E-03 2.33971E-04-2.75658E-14
 -1      3557 7.64948E-03 2.64902E-04-3.16053E-14
 -1      3558 7.50787E-03 2.63930E-04-3.04021E-14
 -1      3559 7.41315E-03 2.29681E-04-2.98816E-14
 -1      3560 7.93621E-03 2.72681E-04-3.40804E-14
 -1      3561 7.79204E-03 2.67599E-04-3.28317E-14
 -1      3562 7.68957E-03 2.29425E-04-3.22894E-14
 -1      3563 8.23158E-03 2.91753E-04-3.66413E-14
 -1      3564 8.08239E-03 2.80318E-04-3.53500E-14
 -1      3565 7.96964E-03 2.35525E-04-3.47854E-14
 -1      3566 8.54220E-03 3.28991E-04-3.92904E-14
 -1      3567 8.38446E-03 3.07324E-04-3.79549E-14
 -1      3568 8.25817E-03 2.51779E-04-3.73678E-14
 -1      3569 9.13943E-03 4.85063E-04-4.38543E-14
 -1      3570 1.26555E-02 3.25953E-04-7.46552E-14
 -1      3571 1.24940E-02 3.50922E-04-7.28256E-14
 -1      3572 1.32581E-02 2.77071E-04-8.20789E-14
 -1      3573 1.31120E-02 2.84277E-04-8.02127E-14
 -1      3574 1.35452E-02 2.68759E-04-8.58291E-14
 -1      3575 1.34022E-02 2.72164E-04-8.39518E-14
 -1      3576 1.33680E-02 2.36369E-04-8.30562E-14
 -1      3577 1.38288E-02 2.64818E-04-8.96011E-14
 -1      3578 1.36873E-02 2.66500E-04-8.77129E-14
 -1      3579 1.36477E-02 2.32480E-04-8.68103E-14
 -1      3580 1.17935E-03 1.63271E-04-8.28723E-16
 -1      3581 9.05202E-03-4.12128E-04-4.43728E-14
 -1      3582 1.39921E-02-1.06250E-04-9.04928E-14
 -1      3583 1.40083E-02-7.51646E-05-9.04752E-14
 -1      3584 1.41579E-02 2.28850E-04-9.37343E-14
 -1      3585 1.41414E-02 2.59523E-04-9.37835E-14
 -1      3586 1.40523E-02 2.63407E-04-9.26084E-14
 -1      3587 1.40510E-02 2.11852E-04-9.21111E-14
 -1      3588 1.40194E-02-4.51726E-05-9.04527E-14
 -1      3589 1.40249E-02-1.57010E-05-9.04291E-14
 -1      3590 1.39039E-02-5.91870E-05-8.88306E-14
 -1      3591 1.30126E-02-3.75326E-05-7.40776E-14
 -1      3592 1.29654E-02-5.70654E-05-7.39483E-14
 -1      3593 8.87689E-03-2.77957E-04-4.41333E-14
 -1      3594 8.74507E-03-2.40387E-04-4.32005E-14
 -1      3595 3.10484E-03 3.46057E-04-4.87319E-15
 -1      3596 2.96111E-03 3.45314E-04-4.42975E-15
 -1      3597 1.39469E-02-1.72292E-04-9.05220E-14
 -1      3598 1.39714E-02-1.38468E-04-9.05080E-14
 -1      3599 1.38687E-02-1.21065E-04-8.88678E-14
 -1      3600 1.28028E-02-9.89289E-05-7.26349E-14
 -1      3601 1.26468E-02-1.35748E-04-7.13244E-14
 -1      3602 8.95060E-03-3.44167E-04-4.40573E-14
 -1      3603 9.06053E-03 4.20005E-04-4.37260E-14
 -1      3604 8.95262E-03 4.20976E-04-4.25269E-14
 -1      3605 8.77871E-03 3.79420E-04-4.11419E-14
 -1      3606 8.96436E-03 3.40285E-04-4.36738E-14
 -1      3607 8.81155E-03 2.90333E-04-4.26741E-14
 -1      3608 8.68068E-03-2.60221E-04-4.21798E-14
 -1      3609 8.58578E-03-2.01641E-04-4.19881E-14
 -1      3610 8.43775E-03-1.75030E-04-4.07942E-14
 -1      3611 8.94806E-03-3.71164E-04-4.37081E-14
 -1      3612 1.29635E-02 2.94033E-04-7.83497E-14
 -1      3613 1.28117E-02 3.07887E-04-7.64963E-14
 -1      3614 1.30837E-02 2.45955E-04-7.93247E-14
 -1      3615 1.07926E-03-2.16855E-04-7.39168E-16
 -1      3616 1.01555E-03-3.89509E-05-7.03661E-16
 -1      3617 1.01663E-03-6.58032E-05-7.05301E-16
 -1      3618 1.13817E-03-8.60084E-05-8.57319E-16
 -1      3619 4.53777E-03 3.35155E-04-1.05743E-14
 -1      3620 4.39485E-03 3.37335E-04-9.89661E-15
 -1      3621 4.32166E-03 3.01446E-04-9.63754E-15
 -1      3622 4.60746E-03 2.97405E-04-1.09950E-14
 -1      3623 8.77468E-03-3.30133E-04-4.23152E-14
 -1      3624 1.57422E-03-2.60637E-04-1.46218E-15
 -1      3625 1.71804E-03-2.71044E-04-1.71654E-15
 -1      3626 1.86209E-03-2.79799E-04-1.99245E-15
 -1      3627 2.00634E-03-2.87028E-04-2.28979E-15
 -1      3628 2.07331E-03-2.54288E-04-2.45747E-15
 -1      3629 8.63375E-03 3.04294E-04-4.05268E-14
 -1      3630 8.61172E-03-2.87867E-04-4.11132E-14
 -1      3631 1.27925E-02 6.99291E-05-7.12835E-14
 -1      3632 1.28847E-02 5.54522E-05-7.23147E-14
 -1      3633 1.27583E-02 9.94539E-05-7.17416E-14
 -1      3634 1.27736E-02-2.72171E-04-7.59215E-14
 -1      3635 1.29037E-02-2.19077E-04-7.68228E-14
 -1      3636 1.26190E-02-2.89793E-04-7.41110E-14
 -1      3637 1.39161E-02-1.16344E-06-8.87830E-14
 -1      3638 1.40247E-02 1.32601E-05-9.04026E-14
 -1      3639 1.40188E-02 4.25597E-05-9.03748E-14
 -1      3640 1.24485E-02 2.48071E-04-7.06257E-14
 -1      3641 1.24876E-02 1.97540E-04-7.01601E-14
 -1      3642 1.26000E-02 1.69607E-04-7.11800E-14
 -1      3643 8.07449E-03-1.45251E-05-3.96112E-14
 -1      3644 8.07555E-03 1.41385E-05-3.96051E-14
 -1      3645 8.12499E-03 2.33400E-05-4.01499E-14
 -1      3646 8.13532E-03 3.79303E-05-3.98692E-14
 -1      3647 8.57869E-03 2.41799E-04-4.07969E-14
 -1      3648 8.19885E-03-7.23517E-05-3.99741E-14
 -1      3649 8.09923E-03-5.50635E-05-3.91324E-14
 -1      3650 8.23078E-03-1.01493E-04-3.97602E-14
 -1      3651 8.45485E-03-2.65765E-04-3.97606E-14
 -1      3652 1.78454E-03-2.41141E-04-1.86275E-15
 -1      3653 1.25883E-02-2.29044E-04-7.26495E-14
 -1      3654 1.25904E-03-7.63520E-05-1.02385E-15
 -1      3655 1.26112E-03-1.07808E-04-1.02422E-15
 -1      3656 2.46294E-03 3.74750E-04-3.00717E-15
 -1      3657 8.32180E-03-2.09397E-04-3.90799E-14
 -1      3658 1.37329E-02-2.44502E-04-8.84185E-14
 -1      3659 1.38526E-02-2.46642E-04-9.00631E-14
 -1      3660 1.38876E-02-2.24879E-04-9.02932E-14
 -1      3661 1.36930E-02-2.11074E-04-8.74720E-14
 -1      3662 1.25845E-02-1.81600E-04-7.15607E-14
 -1      3663 1.95332E-03 3.18738E-04-1.94969E-15
 -1      3664 1.80932E-03 3.10255E-04-1.68187E-15
 -1      3665 2.81730E-03 3.44014E-04-4.00920E-15
 -1      3666 2.67343E-03 3.42098E-04-3.61224E-15
 -1      3667 2.88532E-03 3.07322E-04-4.26943E-15
 -1      3668 3.74850E-03 3.07121E-04-7.21107E-15
 -1      3669 3.67898E-03 3.44967E-04-6.87066E-15
 -1      3670 3.53557E-03 3.45752E-04-6.33669E-15
 -1      3671 1.27892E-02 2.66165E-04-7.56245E-14
 -1      3672 1.18835E-02 5.32082E-04-6.69163E-14
 -1      3673 1.46665E-03 2.71042E-04-1.14146E-15
 -1      3674 1.36884E-03 2.26510E-04-1.03989E-15
 -1      3675 1.19890E-03-2.16001E-04-8.99563E-16
 -1      3676 1.47631E-03 1.87724E-04-1.24145E-15
 -1      3677 1.32731E-03 1.76282E-04-1.02407E-15
 -1      3678 1.28801E-03 1.28511E-04-1.00220E-15
 -1      3679 1.23256E-02 3.82831E-04-7.10072E-14
 -1      3680 1.21502E-02 4.25638E-04-6.92052E-14
 -1      3681 3.24850E-03 3.46346E-04-5.33838E-15
 -1      3682 3.17347E-03 3.08750E-04-5.15941E-15
 -1      3683 3.39207E-03 3.46220E-04-5.82642E-15
 -1      3684 1.39630E-02 2.67205E-04-9.14333E-14
 -1      3685 1.39198E-02 2.08606E-04-9.02785E-14
 -1      3686 1.39192E-02 2.34540E-04-9.05251E-14
 -1      3687 1.30482E-02-2.60027E-05-7.43918E-14
 -1      3688 1.31019E-02-3.93698E-05-7.57688E-14
 -1      3689 1.30770E-02-1.64417E-05-7.47071E-14
 -1      3690 1.13571E-03-2.77033E-05-8.52874E-16
 -1      3691 1.29197E-02-8.67520E-05-7.41304E-14
 -1      3692 1.28669E-02-1.22410E-04-7.43111E-14
 -1      3693 1.30292E-02-7.89648E-05-7.56339E-14
 -1      3694 1.25781E-03 4.78721E-05-1.00064E-15
 -1      3695 1.25708E-03 1.68016E-05-1.00977E-15
 -1      3696 1.29859E-02 1.20030E-05-7.25942E-14
 -1      3697 1.30440E-02 3.17709E-06-7.37943E-14
 -1      3698 1.29886E-02 2.29941E-05-7.30555E-14
 -1      3699 2.24143E-03 3.31390E-04-2.54976E-15
 -1      3700 2.09737E-03 3.25738E-04-2.23908E-15
 -1      3701 2.01934E-03 2.86590E-04-2.12928E-15
 -1      3702 1.21244E-02-3.80500E-04-6.87892E-14
 -1      3703 9.77670E-03-7.32650E-04-4.94970E-14
 -1      3704 1.26404E-03-1.39739E-04-1.02220E-15
 -1      3705 1.26782E-03-1.72254E-04-1.01754E-15
 -1      3706 1.38535E-03-1.30927E-04-1.20597E-15
 -1      3707 1.20366E-02 4.48380E-04-6.79912E-14
 -1      3708 8.23263E-03 7.68083E-05-4.00647E-14
 -1      3709 8.32764E-03 8.96699E-05-4.08879E-14
 -1      3710 8.36644E-03 1.24285E-04-4.05346E-14
 -1      3711 1.44726E-03-2.24600E-04-1.26979E-15
 -1      3712 1.51412E-03-1.98102E-04-1.39324E-15
 -1      3713 1.27337E-03 1.03498E-04-9.96477E-16
 -1      3714 1.27137E-03 7.19158E-05-1.00987E-15
 -1      3715 1.39326E-03 5.94558E-05-1.19560E-15
 -1      3716 1.42151E-03 1.11078E-04-1.21223E-15
 -1      3717 1.39728E-02 1.39103E-04-9.03511E-14
 -1      3718 1.39477E-02 1.73099E-04-9.03159E-14
 -1      3719 1.38184E-02 1.94433E-04-8.87353E-14
 -1      3720 1.39216E-02-2.03730E-04-9.05198E-14
 -1      3721 1.58034E-03 3.22146E-04-1.26075E-15
 -1      3722 1.38180E-02-1.85464E-04-8.88816E-14
 -1      3723 1.24755E-02 3.05955E-04-7.19679E-14
 -1      3724 1.22015E-02 3.53600E-04-6.89370E-14
 -1      3725 1.23171E-02 3.11835E-04-6.98815E-14
 -1      3726 1.31920E-03-2.11972E-04-1.07594E-15
 -1      3727 1.31615E-02-1.71885E-04-7.95618E-14
 -1      3728 1.32948E-02-1.70775E-04-8.14067E-14
 -1      3729 2.28605E-03-2.24720E-04-2.96837E-15
 -1      3730 2.43094E-03-2.27753E-04-3.33132E-15
 -1      3731 1.63074E-03 2.89385E-04-1.38859E-15
 -1      3732 2.57583E-03-2.30103E-04-3.71583E-15
 -1      3733 2.72068E-03-2.31833E-04-4.12189E-15
 -1      3734 2.50010E-03-1.92064E-04-3.52488E-15
 -1      3735 2.86545E-03-2.33055E-04-4.55075E-15
 -1      3736 3.01012E-03-2.33812E-04-5.00186E-15
 -1      3737 2.79020E-03-1.95081E-04-4.33727E-15
 -1      3738 3.15467E-03-2.34194E-04-5.47433E-15
 -1      3739 3.29908E-03-2.34229E-04-5.96990E-15
 -1      3740 3.07997E-03-1.96416E-04-5.23741E-15
 -1      3741 3.44335E-03-2.33983E-04-6.48787E-15
 -1      3742 3.58746E-03-2.33473E-04-7.02823E-15
 -1      3743 3.36918E-03-1.96495E-04-6.22686E-15
 -1      3744 3.73140E-03-2.32747E-04-7.59190E-15
 -1      3745 3.87516E-03-2.31809E-04-8.17711E-15
 -1      3746 3.65772E-03-1.95628E-04-7.30667E-15
 -1      3747 4.01875E-03-2.30694E-04-8.78490E-15
 -1      3748 4.16214E-03-2.29398E-04-9.41634E-15
 -1      3749 3.94547E-03-1.94016E-04-8.47635E-15
 -1      3750 4.30533E-03-2.27944E-04-1.00699E-14
 -1      3751 4.44831E-03-2.26323E-04-1.07455E-14
 -1      3752 4.23237E-03-1.91781E-04-9.73680E-15
 -1      3753 4.59106E-03-2.24551E-04-1.14432E-14
 -1      3754 4.73358E-03-2.22613E-04-1.21642E-14
 -1      3755 4.51830E-03-1.88983E-04-1.10872E-14
 -1      3756 4.87583E-03-2.20523E-04-1.29089E-14
 -1      3757 5.01780E-03-2.18262E-04-1.36770E-14
 -1      3758 4.80315E-03-1.85635E-04-1.25280E-14
 -1      3759 5.15947E-03-2.15846E-04-1.44694E-14
 -1      3760 5.30082E-03-2.13253E-04-1.52858E-14
 -1      3761 5.08673E-03-1.81729E-04-1.40640E-14
 -1      3762 5.44179E-03-2.10505E-04-1.61265E-14
 -1      3763 5.58238E-03-2.07578E-04-1.69924E-14
 -1      3764 5.36883E-03-1.77249E-04-1.56962E-14
 -1      3765 5.72253E-03-2.04506E-04-1.78821E-14
 -1      3766 5.86222E-03-2.01265E-04-1.87948E-14
 -1      3767 5.64915E-03-1.72191E-04-1.74254E-14
 -1      3768 6.00139E-03-1.97905E-04-1.97320E-14
 -1      3769 6.14002E-03-1.94403E-04-2.06924E-14
 -1      3770 5.92736E-03-1.66583E-04-1.92511E-14
 -1      3771 6.27802E-03-1.90830E-04-2.16751E-14
 -1      3772 6.41541E-03-1.87165E-04-2.26815E-14
 -1      3773 6.20305E-03-1.60506E-04-2.11700E-14
 -1      3774 6.55209E-03-1.83505E-04-2.37117E-14
 -1      3775 6.68808E-03-1.79832E-04-2.47649E-14
 -1      3776 6.47577E-03-1.54107E-04-2.31826E-14
 -1      3777 6.82327E-03-1.76270E-04-2.58409E-14
 -1      3778 6.95773E-03-1.72805E-04-2.69410E-14
 -1      3779 6.74505E-03-1.47609E-04-2.52881E-14
 -1      3780 7.09136E-03-1.69586E-04-2.80646E-14
 -1      3781 7.22429E-03-1.66612E-04-2.92110E-14
 -1      3782 7.01045E-03-1.41309E-04-2.74876E-14
 -1      3783 7.35640E-03-1.64042E-04-3.03808E-14
 -1      3784 7.48800E-03-1.61920E-04-3.15728E-14
 -1      3785 7.27160E-03-1.35554E-04-2.97800E-14
 -1      3786 7.61893E-03-1.60405E-04-3.27870E-14
 -1      3787 7.74980E-03-1.59629E-04-3.40235E-14
 -1      3788 7.52836E-03-1.30745E-04-3.21642E-14
 -1      3789 7.88039E-03-1.59716E-04-3.52802E-14
 -1      3790 8.01192E-03-1.61184E-04-3.65600E-14
 -1      3791 7.78103E-03-1.27355E-04-3.46342E-14
 -1      3792 1.25769E-03-4.51465E-05-1.02129E-15
 -1      3793 1.38084E-03-6.42887E-05-1.20491E-15
 -1      3794 1.25704E-03-1.41483E-05-1.01651E-15
 -1      3795 2.52948E-03 3.39427E-04-3.23625E-15
 -1      3796 2.38548E-03 3.35917E-04-2.88197E-15
 -1      3797 2.30809E-03 2.97124E-04-2.75599E-15
 -1      3798 1.37227E-02-1.78248E-04-8.74726E-14
 -1      3799 1.27426E-02-1.84243E-04-7.39095E-14
 -1      3800 1.34275E-02-1.70577E-04-8.32616E-14
 -1      3801 1.35607E-02-1.71045E-04-8.51232E-14
 -1      3802 1.33969E-02-1.37568E-04-8.23208E-14
 -1      3803 5.24556E-03 2.50047E-04-1.44757E-14
 -1      3804 5.10381E-03 2.52784E-04-1.36746E-14
 -1      3805 4.96180E-03 2.55329E-04-1.28978E-14
 -1      3806 4.81955E-03 2.57700E-04-1.21455E-14
 -1      3807 5.03076E-03 2.18447E-04-1.33480E-14
 -1      3808 5.80942E-03 2.37296E-04-1.79219E-14
 -1      3809 5.66897E-03 2.40754E-04-1.70240E-14
 -1      3810 6.08906E-03 2.29947E-04-1.97911E-14
 -1      3811 5.94944E-03 2.33699E-04-1.88448E-14
 -1      3812 5.87477E-03 2.01935E-04-1.84449E-14
 -1      3813 6.36682E-03 2.22175E-04-2.17533E-14
 -1      3814 6.22818E-03 2.26109E-04-2.07608E-14
 -1      3815 6.15236E-03 1.95244E-04-2.03373E-14
 -1      3816 6.64250E-03 2.14306E-04-2.38100E-14
 -1      3817 6.50492E-03 2.18240E-04-2.27695E-14
 -1      3818 6.42751E-03 1.88180E-04-2.23240E-14
 -1      3819 6.91594E-03 2.06830E-04-2.59597E-14
 -1      3820 6.77947E-03 2.10496E-04-2.48737E-14
 -1      3821 6.69988E-03 1.81019E-04-2.44036E-14
 -1      3822 7.18727E-03 2.00427E-04-2.82051E-14
 -1      3823 7.05182E-03 2.03457E-04-2.70706E-14
 -1      3824 6.96920E-03 1.74150E-04-2.65772E-14
 -1      3825 7.45700E-03 1.96013E-04-3.05437E-14
 -1      3826 7.32222E-03 1.97907E-04-2.93631E-14
 -1      3827 7.23539E-03 1.68079E-04-2.88459E-14
 -1      3828 7.72645E-03 1.94856E-04-3.29741E-14
 -1      3829 7.59155E-03 1.94906E-04-3.17477E-14
 -1      3830 7.49870E-03 1.63442E-04-3.12080E-14
 -1      3831 7.99832E-03 1.98891E-04-3.54920E-14
 -1      3832 7.86170E-03 1.95988E-04-3.42224E-14
 -1      3833 7.76011E-03 1.61121E-04-3.36610E-14
 -1      3834 8.27724E-03 2.11359E-04-3.80944E-14
 -1      3835 8.13631E-03 2.03819E-04-3.67819E-14
 -1      3836 8.02184E-03 1.62585E-04-3.61991E-14
 -1      3837 1.70781E-03-2.03386E-04-1.73494E-15
 -1      3838 1.85201E-03-2.10327E-04-2.01121E-15
 -1      3839 1.36821E-02 1.94328E-04-8.68504E-14
 -1      3840 1.34734E-02 1.99580E-04-8.40300E-14
 -1      3841 1.33366E-02 2.01128E-04-8.21618E-14
 -1      3842 1.37878E-02-7.29425E-05-8.72138E-14
 -1      3843 1.38013E-02-4.34564E-05-8.71923E-14
 -1      3844 1.69645E-03 2.60643E-04-1.53798E-15
 -1      3845 8.00176E-03-2.10986E-05-3.84447E-14
 -1      3846 8.00961E-03-2.52175E-06-3.87113E-14
 -1      3847 1.29194E-02 2.13849E-04-7.65925E-14
 -1      3848 1.27747E-02 2.23825E-04-7.47546E-14
 -1      3849 1.40073E-02 7.23558E-05-9.03442E-14
 -1      3850 1.39909E-02 1.03269E-04-9.03117E-14
 -1      3851 1.39032E-02 5.66577E-05-8.87258E-14
 -1      3852 8.43265E-03 1.80506E-04-4.01803E-14
 -1      3853 1.36832E-02-1.46732E-04-8.65249E-14
 -1      3854 1.31993E-02 2.03463E-04-8.02994E-14
 -1      3855 1.30602E-02 2.07741E-04-7.84413E-14
 -1      3856 1.30419E-02 1.69434E-04-7.75618E-14
 -1      3857 1.33081E-02 1.66309E-04-8.12682E-14
 -1      3858 1.37944E-03 1.44441E-06-1.19399E-15
 -1      3859 8.12956E-03-1.63146E-04-3.77223E-14
 -1      3860 8.31533E-03-1.67144E-04-3.95901E-14
 -1      3861 8.24020E-03-1.27026E-04-3.94047E-14
 -1      3862 8.01740E-03-1.25668E-04-3.70534E-14
 -1      3863 1.99651E-03-2.16119E-04-2.30866E-15
 -1      3864 2.14122E-03-2.20871E-04-2.62770E-15
 -1      3865 2.20997E-03-1.86803E-04-2.80002E-15
 -1      3866 1.28778E-02-1.64386E-04-7.54096E-14
 -1      3867 1.58183E-03-1.70386E-04-1.52001E-15
 -1      3868 1.30113E-02-1.60387E-04-7.72338E-14
 -1      3869 5.52817E-03 2.44027E-04-1.61503E-14
 -1      3870 5.38702E-03 2.47134E-04-1.53007E-14
 -1      3871 5.59510E-03 2.08081E-04-1.66486E-14
 -1      3872 4.10523E-03 2.66867E-04-8.74660E-15
 -1      3873 3.96184E-03 2.68163E-04-8.13851E-15
 -1      3874 1.57825E-03-1.34268E-04-1.52287E-15
 -1      3875 1.83222E-03 2.23706E-04-1.83036E-15
 -1      3876 1.65384E-03 2.06391E-04-1.52073E-15
 -1      3877 1.61324E-03 1.53804E-04-1.49656E-15
 -1      3878 1.38081E-02-1.52234E-05-8.71687E-14
 -1      3879 1.38079E-02 1.29397E-05-8.71431E-14
 -1      3880 1.37000E-02-2.86538E-05-8.55588E-14
 -1      3881 7.99468E-03 9.89459E-06-3.84397E-14
 -1      3882 7.98762E-03 2.27343E-05-3.81671E-14
 -1      3883 7.91103E-03 4.86817E-06-3.72900E-14
 -1      3884 8.12539E-03-1.01588E-04-3.85722E-14
 -1      3885 8.08397E-03 4.57243E-05-3.89886E-14
 -1      3886 8.15307E-03 5.91376E-05-3.95253E-14
 -1      3887 8.17596E-03 8.52681E-05-3.91799E-14
 -1      3888 2.59683E-03 3.03704E-04-3.46895E-15
 -1      3889 5.31367E-03 2.13594E-04-1.49500E-14
 -1      3890 1.25949E-02 2.49955E-04-7.27180E-14
 -1      3891 1.24364E-02 2.73609E-04-7.09026E-14
 -1      3892 3.81829E-03 2.69255E-04-7.55364E-15
 -1      3893 3.67458E-03 2.70141E-04-6.99237E-15
 -1      3894 3.88832E-03 2.31429E-04-7.89938E-15
 -1      3895 4.74661E-03 2.22647E-04-1.18419E-14
 -1      3896 4.67708E-03 2.59884E-04-1.14175E-14
 -1      3897 4.53439E-03 2.61898E-04-1.07136E-14
 -1      3898 8.04047E-03 1.27981E-04-3.69070E-14
 -1      3899 7.91583E-03 1.28192E-04-3.56177E-14
 -1      3900 1.92036E-03-1.78604E-04-2.16206E-15
 -1      3901 1.37108E-02-1.13263E-04-8.65101E-14
 -1      3902 1.31254E-02-1.23464E-04-7.81351E-14
 -1      3903 1.36439E-02 1.62006E-04-8.59476E-14
 -1      3904 3.46120E-03 3.08553E-04-6.13925E-15
 -1      3905 1.57371E-03-6.29099E-05-1.51982E-15
 -1      3906 1.57554E-03-9.84478E-05-1.52265E-15
 -1      3907 1.77240E-03-1.35161E-04-1.87739E-15
 -1      3908 3.24262E-03 2.71255E-04-5.44885E-15
 -1      3909 3.09837E-03 2.71005E-04-4.97944E-15
 -1      3910 1.31069E-02-5.72021E-06-7.51733E-14
 -1      3911 1.31703E-02-1.61324E-05-7.65555E-14
 -1      3912 1.31301E-02 4.65720E-06-7.56405E-14
 -1      3913 1.26529E-02 1.92369E-04-7.24671E-14
 -1      3914 1.26874E-02 1.48385E-04-7.19972E-14
 -1      3915 1.27996E-02 1.22692E-04-7.30320E-14
 -1      3916 1.26842E-02 2.26119E-04-7.35412E-14
 -1      3917 8.00586E-03-3.89901E-05-3.82418E-14
 -1      3918 7.92379E-03-2.52200E-05-3.73588E-14
 -1      3919 8.01723E-03-5.96099E-05-3.80374E-14
 -1      3920 1.29814E-02 4.01061E-05-7.35174E-14
 -1      3921 1.30646E-02 2.86421E-05-7.47235E-14
 -1      3922 1.29682E-02 6.08267E-05-7.39792E-14
 -1      3923 1.28229E-02 1.72175E-04-7.45006E-14
 -1      3924 1.38701E-02 1.21925E-04-8.87347E-14
 -1      3925 1.31840E-02-6.50569E-05-7.77750E-14
 -1      3926 1.31568E-02-9.23255E-05-7.79556E-14
 -1      3927 1.32944E-02-1.06311E-04-8.02922E-14
 -1      3928 1.52256E-03 7.20037E-05-1.39609E-15
 -1      3929 1.50887E-03 4.54353E-05-1.38546E-15
 -1      3930 2.95400E-03 2.70346E-04-4.53201E-15
 -1      3931 2.80952E-03 2.69242E-04-4.10720E-15
 -1      3932 3.02327E-03 2.33150E-04-4.79858E-15
 -1      3933 4.39152E-03 2.63730E-04-1.00333E-14
 -1      3934 4.24846E-03 2.65391E-04-9.37813E-15
 -1      3935 4.46140E-03 2.26211E-04-1.04328E-14
 -1      3936 2.12128E-03 2.35239E-04-2.41135E-15
 -1      3937 1.97664E-03 2.30040E-04-2.11039E-15
 -1      3938 1.93558E-03 1.74469E-04-2.08343E-15
 -1      3939 1.57249E-03 7.70249E-06-1.50554E-15
 -1      3940 1.57270E-03-2.75596E-05-1.51402E-15
 -1      3941 1.76803E-03-5.99251E-05-1.87197E-15
 -1      3942 4.17527E-03 2.29147E-04-9.11863E-15
 -1      3943 1.36139E-02-9.59999E-05-8.48810E-14
 -1      3944 8.21344E-03 1.35859E-04-3.86035E-14
 -1      3945 8.09876E-03 1.00011E-04-3.79990E-14
 -1      3946 1.70233E-03 1.81091E-05-1.73230E-15
 -1      3947 2.13445E-03-1.49386E-04-2.63397E-15
 -1      3948 2.27955E-03-1.52109E-04-2.97420E-15
 -1      3949 8.02010E-03-1.02580E-04-3.73991E-14
 -1      3950 8.02171E-03-8.08564E-05-3.77445E-14
 -1      3951 7.91334E-03-1.04188E-04-3.62422E-14
 -1      3952 2.42475E-03-1.54276E-04-3.33618E-15
 -1      3953 2.57000E-03-1.55937E-04-3.71974E-15
 -1      3954 2.34987E-03-1.16831E-04-3.14995E-15
 -1      3955 2.71523E-03-1.57182E-04-4.12544E-15
 -1      3956 2.86039E-03-1.58042E-04-4.55311E-15
 -1      3957 2.64058E-03-1.19427E-04-3.91625E-15
 -1      3958 3.00544E-03-1.58593E-04-5.00296E-15
 -1      3959 3.15037E-03-1.58855E-04-5.47429E-15
 -1      3960 2.93115E-03-1.20776E-04-4.76981E-15
 -1      3961 3.29513E-03-1.58887E-04-5.96794E-15
 -1      3962 3.43972E-03-1.58700E-04-6.48455E-15
 -1      3963 3.22125E-03-1.21189E-04-5.71188E-15
 -1      3964 3.58412E-03-1.58342E-04-7.02392E-15
 -1      3965 3.72831E-03-1.57811E-04-7.58551E-15
 -1      3966 3.51066E-03-1.20902E-04-6.74326E-15
 -1      3967 3.87228E-03-1.57143E-04-8.16922E-15
 -1      3968 4.01602E-03-1.56333E-04-8.77613E-15
 -1      3969 3.79921E-03-1.20075E-04-7.86433E-15
 -1      3970 4.15951E-03-1.55407E-04-9.40594E-15
 -1      3971 4.30275E-03-1.54355E-04-1.00582E-14
 -1      3972 4.08679E-03-1.18810E-04-9.07718E-15
 -1      3973 4.44570E-03-1.53197E-04-1.07328E-14
 -1      3974 4.58837E-03-1.51916E-04-1.14296E-14
 -1      3975 4.37327E-03-1.17166E-04-1.03797E-14
 -1      3976 4.73071E-03-1.50530E-04-1.21494E-14
 -1      3977 4.87272E-03-1.49020E-04-1.28934E-14
 -1      3978 4.65851E-03-1.15166E-04-1.17739E-14
 -1      3979 5.01436E-03-1.47403E-04-1.36614E-14
 -1      3980 5.15560E-03-1.45657E-04-1.44524E-14
 -1      3981 4.94233E-03-1.12808E-04-1.32601E-14
 -1      3982 5.29641E-03-1.43804E-04-1.52678E-14
 -1      3983 5.43674E-03-1.41815E-04-1.61073E-14
 -1      3984 5.22447E-03-1.10084E-04-1.48413E-14
 -1      3985 5.57655E-03-1.39722E-04-1.69712E-14
 -1      3986 5.71579E-03-1.37492E-04-1.78597E-14
 -1      3987 5.50463E-03-1.06985E-04-1.65200E-14
 -1      3988 5.85440E-03-1.35169E-04-1.87721E-14
 -1      3989 5.99235E-03-1.32716E-04-1.97080E-14
 -1      3990 5.78241E-03-1.03510E-04-1.82950E-14
 -1      3991 6.12953E-03-1.30192E-04-2.06678E-14
 -1      3992 6.26592E-03-1.27555E-04-2.16495E-14
 -1      3993 6.05733E-03-9.96851E-05-2.01658E-14
 -1      3994 6.40141E-03-1.24884E-04-2.26549E-14
 -1      3995 6.53596E-03-1.22127E-04-2.36844E-14
 -1      3996 6.32882E-03-9.55650E-05-2.21303E-14
 -1      3997 6.66945E-03-1.19388E-04-2.47375E-14
 -1      3998 6.80185E-03-1.16598E-04-2.58133E-14
 -1      3999 6.59623E-03-9.12363E-05-2.41873E-14
 -1      4000 6.93301E-03-1.13888E-04-2.69121E-14
 -1      4001 7.06293E-03-1.11163E-04-2.80350E-14
 -1      4002 6.85878E-03-8.68084E-05-2.63383E-14
 -1      4003 7.19140E-03-1.08582E-04-2.91814E-14
 -1      4004 7.31850E-03-1.06009E-04-3.03504E-14
 -1      4005 7.11555E-03-8.23855E-05-2.85831E-14
 -1      4006 7.44392E-03-1.03633E-04-3.15414E-14
 -1      4007 7.56789E-03-1.01281E-04-3.27541E-14
 -1      4008 7.36543E-03-7.80083E-05-3.09201E-14
 -1      4009 7.68021E-03-1.03492E-04-3.38540E-14
 -1      4010 7.80168E-03-1.01482E-04-3.51077E-14
 -1      4011 7.81299E-03-8.12475E-05-3.54426E-14
 -1      4012 7.59672E-03-7.76423E-05-3.32120E-14
 -1      4013 6.48776E-03 1.55240E-04-2.28958E-14
 -1      4014 6.35192E-03 1.58396E-04-2.18793E-14
 -1      4015 5.09962E-03 1.81993E-04-1.37989E-14
 -1      4016 4.95804E-03 1.83941E-04-1.30218E-14
 -1      4017 1.34172E-02-1.08079E-04-8.21406E-14
 -1      4018 5.38160E-03 1.77680E-04-1.54256E-14
 -1      4019 5.24081E-03 1.79915E-04-1.45999E-14
 -1      4020 5.16840E-03 1.46010E-04-1.42514E-14
 -1      4021 1.78575E-03 5.18365E-05-1.87444E-15
 -1      4022 1.84988E-03 1.08184E-05-2.01553E-15
 -1      4023 6.21529E-03 1.61462E-04-2.08861E-14
 -1      4024 6.07789E-03 1.64476E-04-1.99162E-14
 -1      4025 6.27801E-03 1.28628E-04-2.14366E-14
 -1      4026 5.93982E-03 1.67361E-04-1.89698E-14
 -1      4027 5.80109E-03 1.70152E-04-1.80470E-14
 -1      4028 6.00467E-03 1.33607E-04-1.94959E-14
 -1      4029 6.75674E-03 1.48913E-04-2.49989E-14
 -1      4030 6.62269E-03 1.52094E-04-2.39352E-14
 -1      4031 6.54777E-03 1.23377E-04-2.34695E-14
 -1      4032 7.02179E-03 1.42768E-04-2.71960E-14
 -1      4033 6.88976E-03 1.45823E-04-2.60859E-14
 -1      4034 6.81333E-03 1.18010E-04-2.55960E-14
 -1      4035 7.28255E-03 1.37134E-04-2.94886E-14
 -1      4036 7.15268E-03 1.39894E-04-2.83307E-14
 -1      4037 7.07401E-03 1.12708E-04-2.78178E-14
 -1      4038 7.53888E-03 1.32376E-04-3.18736E-14
 -1      4039 7.41118E-03 1.34649E-04-3.06695E-14
 -1      4040 7.32910E-03 1.07626E-04-3.01337E-14
 -1      4041 7.79115E-03 1.29001E-04-3.43490E-14
 -1      4042 7.66533E-03 1.30479E-04-3.30999E-14
 -1      4043 7.57787E-03 1.02842E-04-3.25416E-14
 -1      4044 7.81982E-03 9.85711E-05-3.50377E-14
 -1      4045 1.88087E-03-1.40757E-04-2.09029E-15
 -1      4046 2.02557E-03-1.44593E-04-2.39313E-15
 -1      4047 2.09565E-03-1.10881E-04-2.55065E-15
 -1      4048 1.87819E-03-1.02117E-04-2.08897E-15
 -1      4049 3.53073E-03 2.70784E-04-6.45495E-15
 -1      4050 3.38674E-03 2.71174E-04-5.94075E-15
 -1      4051 3.31225E-03 2.33636E-04-5.74143E-15
 -1      4052 3.60062E-03 2.32977E-04-6.77401E-15
 -1      4053 4.24545E-03 1.91580E-04-9.49443E-15
 -1      4054 4.10214E-03 1.92704E-04-8.85995E-15
 -1      4055 2.41083E-03 2.42840E-04-3.07755E-15
 -1      4056 2.26603E-03 2.39483E-04-2.73352E-15
 -1      4057 2.22528E-03 1.82367E-04-2.70283E-15
 -1      4058 1.36954E-02 8.83941E-05-8.58739E-14
 -1      4059 1.36725E-02 1.23969E-04-8.59123E-14
 -1      4060 1.34765E-02 1.26210E-04-8.31008E-14
 -1      4061 1.31976E-02-3.28082E-05-7.73263E-14
 -1      4062 1.31648E-02-4.47643E-05-7.70078E-14
 -1      4063 1.32904E-02-5.74136E-05-7.93414E-14
 -1      4064 1.32344E-02-2.06851E-05-7.77988E-14
 -1      4065 1.28727E-02 1.32264E-04-7.43717E-14
 -1      4066 1.29241E-02 9.01856E-05-7.41107E-14
 -1      4067 1.30318E-02 7.14662E-05-7.53226E-14
 -1      4068 1.29507E-02 1.35347E-04-7.55882E-14
 -1      4069 1.57472E-03 1.26007E-04-1.45145E-15
 -1      4070 1.56002E-03 9.85330E-05-1.44417E-15
 -1      4071 1.67602E-03 8.44046E-05-1.65430E-15
 -1      4072 1.75224E-03 1.40375E-04-1.75607E-15
 -1      4073 2.68265E-03 2.57524E-04-3.76777E-15
 -1      4074 2.53795E-03 2.55419E-04-3.38385E-15
 -1      4075 2.49753E-03 1.97409E-04-3.35078E-15
 -1      4076 2.75169E-03 2.20984E-04-4.00847E-15
 -1      4077 1.37637E-02 3.55602E-05-8.65268E-14
 -1      4078 1.37506E-02 6.45572E-05-8.64948E-14
 -1      4079 1.35647E-02 6.57434E-05-8.36862E-14
 -1      4080 1.36631E-02 2.08635E-05-8.49204E-14
 -1      4081 5.66178E-03 1.72793E-04-1.71487E-14
 -1      4082 5.52193E-03 1.75316E-04-1.62758E-14
 -1      4083 5.44941E-03 1.42343E-04-1.59031E-14
 -1      4084 1.35021E-02-6.76910E-05-8.28376E-14
 -1      4085 1.34056E-02-4.87293E-05-8.10746E-14
 -1      4086 1.35840E-02-3.84343E-05-8.38053E-14
 -1      4087 1.35918E-02-1.13748E-05-8.37817E-14
 -1      4088 1.33724E-02-2.96687E-05-8.03007E-14
 -1      4089 7.92123E-03-6.24915E-05-3.68707E-14
 -1      4090 7.83873E-03-7.28776E-06-3.63591E-14
 -1      4091 7.81950E-03 6.58919E-06-3.60946E-14
 -1      4092 7.98687E-03 4.07363E-05-3.78316E-14
 -1      4093 1.99605E-03 9.55842E-06-2.31499E-15
 -1      4094 1.91305E-03-2.48952E-05-2.15267E-15
 -1      4095 3.95859E-03 1.93676E-04-8.24860E-15
 -1      4096 3.81483E-03 1.94504E-04-7.66017E-15
 -1      4097 4.02909E-03 1.56049E-04-8.60038E-15
 -1      4098 4.88561E-03 1.49202E-04-1.26967E-14
 -1      4099 4.81612E-03 1.85738E-04-1.22686E-14
 -1      4100 4.67387E-03 1.87406E-04-1.15397E-14
 -1      4101 8.31892E-03 1.53779E-04-3.94115E-14
 -1      4102 7.82882E-03-2.46584E-05-3.61637E-14
 -1      4103 1.32047E-02 1.34107E-04-7.92775E-14
 -1      4104 1.30775E-02 1.34136E-04-7.74292E-14
 -1      4105 1.31117E-02 1.01837E-04-7.72940E-14
 -1      4106 1.82315E-03 7.97368E-05-1.93160E-15
 -1      4107 7.84748E-03 7.07114E-05-3.57269E-14
 -1      4108 7.73355E-03 7.32084E-05-3.44584E-14
 -1      4109 1.31462E-02 1.97055E-05-7.61084E-14
 -1      4110 1.32243E-02 1.04878E-05-7.74965E-14
 -1      4111 1.31548E-02 3.60725E-05-7.65761E-14
 -1      4112 1.91400E-03-6.35036E-05-2.16083E-15
 -1      4113 5.72830E-03 1.38200E-04-1.76511E-14
 -1      4114 1.89659E-03 1.45042E-04-2.03041E-15
 -1      4115 1.85809E-03 1.16066E-04-1.97641E-15
 -1      4116 2.04132E-03 1.48918E-04-2.32599E-15
 -1      4117 3.09313E-03 1.95753E-04-5.06862E-15
 -1      4118 2.94830E-03 1.95242E-04-4.61754E-15
 -1      4119 3.38234E-03 1.95918E-04-6.03699E-15
 -1      4120 3.23781E-03 1.95973E-04-5.54179E-15
 -1      4121 3.16350E-03 1.58216E-04-5.34173E-15
 -1      4122 1.33494E-02 1.24818E-04-8.12405E-14
 -1      4123 4.53134E-03 1.88930E-04-1.08336E-14
 -1      4124 4.38852E-03 1.90327E-04-1.01516E-14
 -1      4125 4.31577E-03 1.54218E-04-9.87216E-15
 -1      4126 4.60133E-03 1.51934E-04-1.12368E-14
 -1      4127 8.02090E-03 8.22097E-05-3.74747E-14
 -1      4128 7.90822E-03 5.37543E-05-3.66736E-14
 -1      4129 7.83441E-03 3.24566E-05-3.60751E-14
 -1      4130 7.74917E-03 1.99619E-05-3.51609E-14
 -1      4131 2.27554E-03-7.98501E-05-2.96692E-15
 -1      4132 2.42092E-03-8.10082E-05-3.32720E-15
 -1      4133 2.07817E-03 4.32928E-05-2.47706E-15
 -1      4134 2.14098E-03 6.41139E-06-2.63294E-15
 -1      4135 2.56636E-03-8.19088E-05-3.70948E-15
 -1      4136 2.71181E-03-8.25660E-05-4.11372E-15
 -1      4137 2.49264E-03-4.46984E-05-3.50574E-15
 -1      4138 2.85719E-03-8.30329E-05-4.53964E-15
 -1      4139 3.00248E-03-8.33125E-05-4.98795E-15
 -1      4140 2.78362E-03-4.54169E-05-4.31210E-15
 -1      4141 3.14763E-03-8.34500E-05-5.45821E-15
 -1      4142 3.29260E-03-8.34487E-05-5.95006E-15
 -1      4143 3.07430E-03-4.57032E-05-5.20633E-15
 -1      4144 3.43739E-03-8.33414E-05-6.46473E-15
 -1      4145 3.58196E-03-8.31266E-05-7.00240E-15
 -1      4146 3.36436E-03-4.56822E-05-6.18921E-15
 -1      4147 3.72630E-03-8.28313E-05-7.56198E-15
 -1      4148 3.87039E-03-8.24462E-05-8.14430E-15
 -1      4149 3.65359E-03-4.54255E-05-7.26142E-15
 -1      4150 4.01422E-03-8.19969E-05-8.74984E-15
 -1      4151 4.15777E-03-8.14719E-05-9.37787E-15
 -1      4152 3.94184E-03-4.49673E-05-8.42464E-15
 -1      4153 4.30102E-03-8.08907E-05-1.00289E-14
 -1      4154 4.44395E-03-8.02387E-05-1.07029E-14
 -1      4155 4.22896E-03-4.43576E-05-9.67951E-15
 -1      4156 4.58655E-03-7.95318E-05-1.13990E-14
 -1      4157 4.72878E-03-7.87540E-05-1.21184E-14
 -1      4158 4.51481E-03-4.36044E-05-1.10266E-14
 -1      4159 4.87063E-03-7.79231E-05-1.28608E-14
 -1      4160 5.01204E-03-7.70155E-05-1.36279E-14
 -1      4161 4.79920E-03-4.27092E-05-1.24644E-14
 -1      4162 5.15299E-03-7.60594E-05-1.44174E-14
 -1      4163 5.29344E-03-7.50244E-05-1.52315E-14
 -1      4164 5.08190E-03-4.16755E-05-1.39949E-14
 -1      4165 5.43334E-03-7.39348E-05-1.60707E-14
 -1      4166 5.57264E-03-7.27641E-05-1.69331E-14
 -1      4167 5.36258E-03-4.04963E-05-1.56231E-14
 -1      4168 5.71128E-03-7.15444E-05-1.78195E-14
 -1      4169 5.84919E-03-7.02418E-05-1.87307E-14
 -1      4170 5.64088E-03-3.91683E-05-1.73467E-14
 -1      4171 5.98631E-03-6.89005E-05-1.96663E-14
 -1      4172 6.12256E-03-6.74776E-05-2.06246E-14
 -1      4173 5.91629E-03-3.76970E-05-1.91675E-14
 -1      4174 6.25785E-03-6.60329E-05-2.16066E-14
 -1      4175 6.39210E-03-6.45108E-05-2.26110E-14
 -1      4176 6.18824E-03-3.60957E-05-2.10845E-14
 -1      4177 6.52519E-03-6.29914E-05-2.36405E-14
 -1      4178 6.65705E-03-6.13992E-05-2.46928E-14
 -1      4179 6.45601E-03-3.43886E-05-2.30948E-14
 -1      4180 6.78749E-03-5.98401E-05-2.57663E-14
 -1      4181 6.91646E-03-5.82056E-05-2.68646E-14
 -1      4182 6.71872E-03-3.26077E-05-2.51966E-14
 -1      4183 7.04370E-03-5.66382E-05-2.79872E-14
 -1      4184 7.16916E-03-5.49696E-05-2.91332E-14
 -1      4185 6.97530E-03-3.07840E-05-2.73927E-14
 -1      4186 7.29246E-03-5.34020E-05-3.03017E-14
 -1      4187 7.41358E-03-5.16490E-05-3.14915E-14
 -1      4188 7.22429E-03-2.89271E-05-2.96829E-14
 -1      4189 5.51723E-03 1.07607E-04-1.63815E-14
 -1      4190 5.37749E-03 1.09120E-04-1.55313E-14
 -1      4191 6.60797E-03 9.25937E-05-2.40453E-14
 -1      4192 6.47495E-03 9.47127E-05-2.30052E-14
 -1      4193 6.06958E-03 1.00683E-04-2.00240E-14
 -1      4194 5.93260E-03 1.02555E-04-1.90775E-14
 -1      4195 7.12659E-03 8.40282E-05-2.84410E-14
 -1      4196 6.99915E-03 8.62109E-05-2.73061E-14
 -1      4197 7.37598E-03 7.97290E-05-3.07813E-14
 -1      4198 7.25218E-03 8.19412E-05-2.96006E-14
 -1      4199 7.17998E-03 5.67640E-05-2.90674E-14
 -1      4200 7.61698E-03 7.52912E-05-3.32108E-14
 -1      4201 7.49753E-03 7.75947E-05-3.19843E-14
 -1      4202 7.42382E-03 5.35114E-05-3.14300E-14
 -1      4203 7.65696E-03 4.98316E-05-3.38807E-14
 -1      4204 2.33144E-03 1.54686E-04-2.98043E-15
 -1      4205 2.18630E-03 1.52113E-04-2.64274E-15
 -1      4206 2.14772E-03 1.22141E-04-2.58067E-15
 -1      4207 1.31240E-02 7.92483E-05-7.70045E-14
 -1      4208 1.31504E-02 5.37993E-05-7.68684E-14
 -1      4209 1.32446E-02 4.35215E-05-7.82623E-14
 -1      4210 1.32385E-02 8.19770E-05-7.88497E-14
 -1      4211 1.32811E-02-4.72974E-07-7.85107E-14
 -1      4212 1.33200E-02-1.68629E-05-7.92867E-14
 -1      4213 1.34239E-02-8.13019E-06-8.10191E-14
 -1      4214 1.33048E-02 1.54929E-05-7.89838E-14
 -1      4215 1.33697E-02 9.61464E-05-8.11000E-14
 -1      4216 7.81629E-03-4.18068E-05-3.58830E-14
 -1      4217 7.72219E-03-2.26484E-05-3.49030E-14
 -1      4218 7.80759E-03-6.04362E-05-3.56010E-14
 -1      4219 1.96773E-03 8.21598E-05-2.21999E-15
 -1      4220 3.67086E-03 1.95160E-04-7.09567E-15
 -1      4221 3.52669E-03 1.95645E-04-6.55503E-15
 -1      4222 3.45284E-03 1.58161E-04-6.33589E-15
 -1      4223 3.74141E-03 1.57386E-04-7.42119E-15
 -1      4224 5.23720E-03 1.10524E-04-1.47050E-14
 -1      4225 5.09641E-03 1.11849E-04-1.39037E-14
 -1      4226 5.30609E-03 7.55639E-05-1.51606E-14
 -1      4227 2.89174E-03 1.47041E-04-4.50146E-15
 -1      4228 2.82141E-03 1.84141E-04-4.25299E-15
 -1      4229 2.69441E-03 1.72842E-04-3.90440E-15
 -1      4230 7.63999E-03 2.12869E-05-3.39044E-14
 -1      4231 6.34084E-03 9.67474E-05-2.19879E-14
 -1      4232 6.20567E-03 9.87644E-05-2.09941E-14
 -1      4233 6.40400E-03 6.58337E-05-2.25420E-14
 -1      4234 6.87020E-03 8.83225E-05-2.61955E-14
 -1      4235 6.73973E-03 9.04934E-05-2.51080E-14
 -1      4236 6.66865E-03 6.29027E-05-2.46223E-14
 -1      4237 6.92770E-03 5.98683E-05-2.67962E-14
 -1      4238 5.79485E-03 1.04319E-04-1.81546E-14
 -1      4239 5.65636E-03 1.06019E-04-1.72562E-14
 -1      4240 5.86154E-03 7.11730E-05-1.86600E-14
 -1      4241 2.13153E-03-7.06117E-05-2.63022E-15
 -1      4242 2.20319E-03-3.55769E-05-2.78843E-15
 -1      4243 1.34891E-02 8.39506E-07-8.20935E-14
 -1      4244 1.35963E-02 1.10085E-05-8.38380E-14
 -1      4245 1.35527E-02 3.26743E-05-8.32250E-14
 -1      4246 1.34270E-02 1.32145E-05-8.10732E-14
 -1      4247 2.28474E-03-1.37818E-06-2.97038E-15
 -1      4248 5.58515E-03 7.34972E-05-1.68616E-14
 -1      4249 5.02480E-03 7.73645E-05-1.35570E-14
 -1      4250 4.95516E-03 1.13067E-04-1.31263E-14
 -1      4251 4.81349E-03 1.14210E-04-1.23728E-14
 -1      4252 2.11244E-03 8.08139E-05-2.53121E-15
 -1      4253 7.46358E-03-2.69735E-05-3.20631E-14
 -1      4254 7.53192E-03-5.00594E-05-3.27029E-14
 -1      4255 7.64188E-03-3.29094E-05-3.39533E-14
 -1      4256 7.66167E-03-1.56872E-05-3.42246E-14
 -1      4257 6.13470E-03 6.86071E-05-2.05540E-14
 -1      4258 1.34677E-02 7.07980E-05-8.22430E-14
 -1      4259 1.33358E-02 7.66807E-05-8.02818E-14
 -1      4260 1.33360E-02 5.71434E-05-7.99880E-14
 -1      4261 1.35226E-02 4.79703E-05-8.28616E-14
 -1      4262 4.09982E-03 1.18576E-04-8.95478E-15
 -1      4263 3.95618E-03 1.19190E-04-8.34043E-15
 -1      4264 7.70383E-03-5.90684E-05-3.44750E-14
 -1      4265 3.23438E-03 1.20565E-04-5.61806E-15
 -1      4266 3.08941E-03 1.20417E-04-5.14138E-15
 -1      4267 7.55208E-03 1.24402E-05-3.29698E-14
 -1      4268 2.96266E-03 1.09716E-04-4.75349E-15
 -1      4269 2.83581E-03 9.89395E-05-4.38080E-15
 -1      4270 3.03411E-03 7.22230E-05-5.00840E-15
 -1      4271 2.57652E-03 1.69890E-04-3.58716E-15
 -1      4272 2.44937E-03 1.58159E-04-3.26865E-15
 -1      4273 2.41086E-03 1.27621E-04-3.19990E-15
 -1      4274 2.64685E-03 1.33426E-04-3.81265E-15
 -1      4275 2.02267E-03-6.71134E-05-2.38958E-15
 -1      4276 4.38625E-03 1.17089E-04-1.02511E-14
 -1      4277 4.24318E-03 1.17881E-04-9.59156E-15
 -1      4278 4.17075E-03 8.13011E-05-9.31076E-15
 -1      4279 2.71052E-03-8.00425E-06-4.08732E-15
 -1      4280 2.85600E-03-8.02011E-06-4.51131E-15
 -1      4281 3.04428E-03 1.84804E-05-5.07808E-15
 -1      4282 3.18946E-03 1.85476E-05-5.55202E-15
 -1      4283 3.58114E-03-7.88848E-06-6.96375E-15
 -1      4284 3.72554E-03-7.82079E-06-7.52127E-15
 -1      4285 3.91219E-03 1.85066E-05-8.25830E-15
 -1      4286 4.05597E-03 1.84564E-05-8.86816E-15
 -1      4287 4.19945E-03 1.83775E-05-9.50082E-15
 -1      4288 4.34261E-03 1.83016E-05-1.01573E-14
 -1      4289 4.72804E-03-7.16602E-06-1.20681E-14
 -1      4290 4.86980E-03-7.03852E-06-1.28102E-14
 -1      4291 5.05277E-03 1.76700E-05-1.37829E-14
 -1      4292 5.19347E-03 1.75182E-05-1.45780E-14
 -1      4293 5.33362E-03 1.73263E-05-1.53986E-14
 -1      4294 5.47317E-03 1.71475E-05-1.62424E-14
 -1      4295 5.61207E-03 1.69224E-05-1.71109E-14
 -1      4296 5.75026E-03 1.67182E-05-1.80021E-14
 -1      4297 5.88766E-03 1.64586E-05-1.89191E-14
 -1      4298 6.02421E-03 1.62308E-05-1.98604E-14
 -1      4299 6.15980E-03 1.59359E-05-2.08243E-14
 -1      4300 6.29436E-03 1.56886E-05-2.18120E-14
 -1      4301 6.42777E-03 1.53583E-05-2.28233E-14
 -1      4302 6.55994E-03 1.50974E-05-2.38587E-14
 -1      4303 6.69071E-03 1.47303E-05-2.49159E-14
 -1      4304 6.81996E-03 1.44633E-05-2.59951E-14
 -1      4305 6.94752E-03 1.40533E-05-2.70994E-14
 -1      4306 7.07320E-03 1.37896E-05-2.82279E-14
 -1      4307 7.19678E-03 1.33200E-05-2.93813E-14
 -1      4308 7.31802E-03 1.30790E-05-3.05555E-14
 -1      4309 7.63712E-03-5.17735E-05-3.38029E-14
 -1      4310 7.43659E-03 1.24926E-05-3.17520E-14
 -1      4311 2.25765E-03 8.23925E-05-2.86224E-15
 -1      4312 2.42484E-03-4.64102E-06-3.31792E-15
 -1      4313 2.57035E-03-4.66401E-06-3.69873E-15
 -1      4314 2.64333E-03 3.24756E-05-3.87937E-15
 -1      4315 2.36315E-03 3.82076E-05-3.14370E-15
 -1      4316 3.37917E-03 1.20557E-04-6.11651E-15
 -1      4317 3.30570E-03 8.28525E-05-5.89723E-15
 -1      4318 3.52376E-03 1.20392E-04-6.63770E-15
 -1      4319 2.39753E-03 8.03854E-05-3.20333E-15
 -1      4320 4.67143E-03 1.15252E-04-1.16421E-14
 -1      4321 4.52900E-03 1.16219E-04-1.09344E-14
 -1      4322 4.74163E-03 7.89188E-05-1.20483E-14
 -1      4323 3.84052E-03 5.59173E-05-7.93155E-15
 -1      4324 3.76914E-03 9.34702E-05-7.60707E-15
 -1      4325 3.33445E-03 1.85713E-05-6.04792E-15
 -1      4326 1.34610E-02 3.75590E-05-8.17850E-14
 -1      4327 3.47924E-03 1.85894E-05-6.56652E-15
 -1      4328 4.44329E-03-7.39043E-06-1.06550E-14
 -1      4329 4.58585E-03-7.27616E-06-1.13501E-14
 -1      4330 4.65710E-03 2.87257E-05-1.16741E-14
 -1      4331 3.55193E-03 5.62362E-05-6.80577E-15
 -1      4332 4.98265E-03 5.28737E-05-1.33563E-14
 -1      4333 1.33329E-02 3.93052E-05-7.96909E-14
 -1      4334 2.77358E-03 8.27294E-05-4.21227E-15
 -1      4335 2.65556E-03 8.04434E-05-3.88128E-15
 -1      4336 2.51558E-03 8.29697E-05-3.50312E-15
 -1      4337 4.45687E-03 8.02322E-05-1.06330E-14
 -1      4338 1.33629E-02 2.48986E-05-8.00525E-14
 -1      4339 3.62488E-03 9.37650E-05-7.04524E-15
 -1      4340 4.41437E-03 5.47350E-05-1.04592E-14
 -1      4341 4.55702E-03 5.43283E-05-1.11489E-14
 -1      4342 4.69930E-03 5.38889E-05-1.18613E-14
 -1      4343 2.91772E-03 8.02234E-06-4.68968E-15
 -1      4344 2.84538E-03 4.54743E-05-4.44950E-15
 -1      4345 4.84119E-03 5.34021E-05-1.25977E-14
 -3
    1PSTEP                         2           1           1          
  100CL  101 1.000000000        4345                     0    1           1
 -4  STRESS      6    1
 -5  SXX         1    4    1    1
 -5  SYY         1    4    2    2
 -5  SZZ         1    4    3    3
 -5  SXY         1    4    1    2
 -5  SYZ         1    4    2    3
 -5  SZX         1    4    3    1
 -1         1 2.83632E+01 1.07925E+01 1.39866E+00-1.71330E+01-1.79612E-12 2.90934E-12
 -1         2-6.45200E-01-2.48113E+01-3.39156E+00-3.69702E-02-2.01089E-12-6.63775E-14
 -1         3 1.99815E+01-1.96703E-02 4.00093E-02-1.94953E-02-6.02766E-13-5.80359E-13
 -1         4 1.99829E+01-1.75601E-02 4.20021E-02 1.77631E-02 1.99113E-13 1.73588E-13
 -1         5 3.27641E+01 6.14190E+00 2.74247E+00 6.22409E+00-3.06144E-14 2.17525E-12
 -1         6 3.57485E+01 1.22622E+01 5.12546E+00-8.64643E+00-1.07081E-13 1.91723E-12
 -1         7 2.08146E+01 6.09856E+00-1.28873E-01-4.72632E+00-1.52656E-14 4.61488E-13
 -1         8 1.96690E+01 5.93413E+00 5.08848E-02-3.27624E+00-2.18714E-14-4.51202E-15
 -1         9 1.91355E+01 5.77145E+00 4.90754E-02-2.52833E+00-2.33719E-14-2.58205E-13
 -1        10 1.88953E+01 5.69214E+00 5.10886E-02-1.95317E+00-1.10632E-14-3.90566E-13
 -1        11 1.87752E+01 5.65166E+00 5.03226E-02-1.45772E+00-1.02631E-14-4.59713E-13
 -1        12 1.87127E+01 5.63034E+00 4.88259E-02-1.01645E+00-4.46973E-15-4.79130E-13
 -1        13 1.86799E+01 5.61916E+00 4.75180E-02-5.96197E-01-1.84575E-15-4.71398E-13
 -1        14 1.86662E+01 5.61444E+00 4.68080E-02-1.91499E-01 1.12177E-15-4.63444E-13
 -1        15 1.86667E+01 5.61460E+00 4.68510E-02 2.08492E-01 9.76617E-15-4.45236E-13
 -1        16 1.86814E+01 5.61963E+00 4.76600E-02 6.14029E-01 1.07238E-14-4.21385E-13
 -1        17 1.87154E+01 5.63109E+00 4.91538E-02 1.03627E+00 1.46051E-14-3.84260E-13
 -1        18 1.87791E+01 5.65280E+00 5.08837E-02 1.48070E+00 1.65905E-14-3.17851E-13
 -1        19 1.89010E+01 5.69378E+00 5.15653E-02 1.98205E+00 2.02833E-14-2.13536E-13
 -1        20 1.91409E+01 5.77404E+00 4.87660E-02 2.56566E+00 2.78562E-14-2.54514E-14
 -1        21 1.96644E+01 5.94872E+00 4.58319E-02 3.31032E+00 3.12667E-14 3.07483E-13
 -1        22 2.11976E+01 6.38037E+00 1.39550E-01 4.52385E+00 1.94289E-15 9.09722E-13
 -1        23 2.30243E+01-1.37891E+00-9.38202E-01-7.11443E-01-7.17690E-14 1.53440E-12
 -1        24 1.93601E+01-9.94872E-02-3.09845E-01 6.31587E-02-2.21169E-14 1.22346E-12
 -1        25 1.86703E+01-5.63200E-02-6.87768E-02 6.06763E-02-7.76571E-15 9.22205E-13
 -1        26 1.84662E+01-2.20841E-02-6.45480E-03 3.29085E-02-1.73619E-14 6.85133E-13
 -1        27 1.84758E+01-1.18025E-02 1.60880E-03 2.25282E-02 3.21564E-15 5.23874E-13
 -1        28 1.85880E+01-6.24941E-03 1.81322E-03 1.62039E-02-3.38775E-15 5.04903E-13
 -1        29 1.87459E+01-3.11376E-03 1.73954E-03 1.20242E-02 1.75858E-16 3.91887E-13
 -1        30 1.89183E+01-1.28872E-03 1.90044E-03 9.03425E-03 5.42344E-15 3.12038E-13
 -1        31 1.90879E+01-2.38301E-04 2.02647E-03 6.77553E-03 1.83904E-15 2.55818E-13
 -1        32 1.92455E+01 3.23549E-04 2.00390E-03 5.01741E-03-4.61926E-14 6.44155E-14
 -1        33 1.93870E+01 5.60458E-04 1.83283E-03 3.63298E-03 6.53907E-14 3.50765E-14
 -1        34 1.95118E+01 5.71263E-04 1.54262E-03 2.54516E-03 5.96978E-15 1.46127E-13
 -1        35 1.96220E+01 4.16978E-04 1.15819E-03 1.70411E-03-7.38247E-15 5.62813E-14
 -1        36 1.97212E+01 1.34705E-04 6.92633E-04 1.07810E-03-2.40397E-14-5.68682E-14
 -1        37 1.98147E+01-2.54335E-04 1.47570E-04 6.50348E-04-1.65699E-14-9.26153E-14
 -1        38 1.99090E+01-7.39265E-04-4.84773E-04 4.18729E-04-2.59737E-14-1.29481E-13
 -1        39 2.00119E+01-1.31478E-03-1.21891E-03 3.97197E-04-2.96615E-14-2.03040E-13
 -1        40 2.01324E+01-1.97592E-03-2.07240E-03 6.18162E-04 1.93348E-15-1.75355E-13
 -1        41 2.02811E+01-2.71120E-03-3.05991E-03 1.13535E-03 5.42214E-15-2.36430E-13
 -1        42 2.04700E+01-3.49277E-03-4.18271E-03 2.02610E-03-8.14179E-15-3.63803E-13
 -1        43 2.07122E+01-4.26166E-03-5.40994E-03 3.39101E-03-3.20083E-14-3.34218E-13
 -1        44 2.10214E+01-4.90609E-03-6.64498E-03 5.34597E-03-1.59415E-14-1.04493E-13
 -1        45 2.14104E+01-5.23169E-03-7.66793E-03 7.99678E-03-8.52692E-15-4.57447E-14
 -1        46 2.18879E+01-4.92577E-03-8.04431E-03 1.13771E-02 1.55794E-14-1.49235E-13
 -1        47 2.24537E+01-3.52886E-03-7.00198E-03 1.53178E-02 1.20803E-14-1.93127E-14
 -1        48 2.30902E+01-4.49632E-04-3.32079E-03 1.92047E-02 1.92034E-14 8.74058E-14
 -1        49 2.37500E+01 4.89829E-03 4.60987E-03 2.15989E-02-4.28830E-14-1.18678E-13
 -1        50 2.43413E+01 1.27227E-02 1.82409E-02 1.98003E-02-1.31853E-14-3.78505E-13
 -1        51 2.47172E+01 2.21359E-02 3.73212E-02 9.74909E-03 3.05832E-15-2.14778E-13
 -1        52 2.46831E+01 3.02675E-02 5.73094E-02-1.28587E-02-8.69986E-15-1.98239E-13
 -1        53 2.40461E+01 3.19682E-02 6.70133E-02-4.89281E-02 8.24015E-15-3.88793E-13
 -1        54 2.27263E+01 2.16519E-02 5.10730E-02-8.99621E-02 1.40580E-14-5.15945E-13
 -1        55 2.09030E+01-2.01922E-03 1.27453E-03-1.14825E-01-6.81714E-14-4.75509E-13
 -1        56 1.90860E+01-3.14192E-02-6.77142E-02-9.87390E-02 8.54577E-14-5.60975E-13
 -1        57 1.79632E+01-5.13956E-02-1.17111E-01-3.58583E-02 1.53675E-14-1.15409E-13
 -1        58 1.80228E+01-4.96800E-02-1.12931E-01 4.59779E-02-5.45237E-14-4.62042E-13
 -1        59 1.92227E+01-2.72975E-02-5.80670E-02 1.03259E-01-1.65217E-14-6.66706E-13
 -1        60 2.10202E+01 2.32270E-03 1.04162E-02 1.12622E-01-4.18583E-14-6.67584E-13
 -1        61 2.27298E+01 2.46076E-02 5.62268E-02 8.36985E-02 8.21305E-14-5.24636E-13
 -1        62 2.38797E+01 3.32278E-02 6.82493E-02 4.18583E-02-6.19177E-14-6.27701E-13
 -1        63 2.43297E+01 3.03777E-02 5.65618E-02 6.70198E-03 4.56022E-14-6.17133E-13
 -1        64 2.41811E+01 2.17419E-02 3.63601E-02-1.49284E-02-1.27093E-13-8.12728E-13
 -1        65 2.36316E+01 1.21172E-02 1.77496E-02-2.46798E-02 5.38207E-14-6.19186E-13
 -1        66 2.28745E+01 3.94955E-03 4.32630E-03-2.68862E-02 8.91733E-14-2.01731E-13
 -1        67 2.20577E+01-2.23176E-03-4.50933E-03-2.52540E-02 3.72492E-14-7.74068E-14
 -1        68 2.12844E+01-6.87367E-03-1.10805E-02-2.17402E-02-7.91430E-15 3.23568E-13
 -1        69 2.06302E+01-1.04701E-02-1.75913E-02-1.62608E-02-1.34456E-14 3.61803E-13
 -1        70 2.01664E+01-1.10596E-02-2.18144E-02-4.88830E-03 2.26667E-14 3.25015E-13
 -1        71 1.99687E+01 2.49868E-03-5.55590E-03 1.16544E-02-1.03459E-13 2.80790E-13
 -1        72 2.10370E+01-4.04831E-01-9.80299E-01-3.11424E-01 2.74919E-14 2.04606E-12
 -1        73 1.93245E+01-6.58798E-02-2.91137E-01-5.37871E-02 1.22831E-14 1.66803E-12
 -1        74 1.86797E+01-2.05025E-02-6.42665E-02-2.03116E-02 5.65184E-15 1.36733E-12
 -1        75 1.84753E+01-9.87766E-03-9.29426E-03-1.54025E-02 6.57027E-16 1.22739E-12
 -1        76 1.84848E+01-5.17098E-03 6.96230E-04-1.23117E-02 2.19218E-14 1.09155E-12
 -1        77 1.85961E+01-2.62918E-03 1.75436E-03-1.00142E-02 1.82571E-14 9.83358E-13
 -1        78 1.87530E+01-1.17646E-03 1.88019E-03-8.24098E-03-2.61097E-14 1.05865E-12
 -1        79 1.89244E+01-3.37352E-04 2.05372E-03-6.76008E-03 1.87560E-14 1.08099E-12
 -1        80 1.90930E+01 1.25237E-04 2.15595E-03-5.46899E-03-2.12238E-14 8.78448E-13
 -1        81 1.92496E+01 3.43517E-04 2.10760E-03-4.32387E-03 3.02897E-14 7.36400E-13
 -1        82 1.93902E+01 3.95241E-04 1.91287E-03-3.30488E-03 1.43492E-14 5.11709E-13
 -1        83 1.95143E+01 3.27712E-04 1.60019E-03-2.40015E-03 2.21838E-14 4.26959E-13
 -1        84 1.96238E+01 1.69652E-04 1.19387E-03-1.60011E-03-1.13443E-14 4.62194E-13
 -1        85 1.97224E+01-6.23372E-05 7.06546E-04-8.96801E-04-2.71727E-15 5.14278E-13
 -1        86 1.98154E+01-3.59666E-04 1.39369E-04-2.85416E-04 2.50460E-14 3.42523E-13
 -1        87 1.99092E+01-7.18556E-04-5.15827E-04 2.32915E-04-4.96160E-14 2.09021E-13
 -1        88 2.00117E+01-1.13682E-03-1.27369E-03 6.47250E-04-9.26942E-15 1.48389E-13
 -1        89 2.01319E+01-1.60984E-03-2.15145E-03 9.31631E-04 9.31930E-14-1.13624E-13
 -1        90 2.02804E+01-2.12490E-03-3.16255E-03 1.03808E-03-4.57641E-14-3.84841E-13
 -1        91 2.04692E+01-2.65253E-03-4.30569E-03 8.87383E-04 2.24597E-14-2.62430E-13
 -1        92 2.07115E+01-3.13368E-03-5.54499E-03 3.57874E-04-4.48811E-14-7.57467E-15
 -1        93 2.10208E+01-3.46107E-03-6.77508E-03-7.25986E-04 3.57966E-14 1.43032E-13
 -1        94 2.14100E+01-3.45499E-03-7.76179E-03-2.59876E-03-4.09419E-15-1.57126E-13
 -1        95 2.18877E+01-2.83831E-03-8.04907E-03-5.53655E-03-4.85798E-15-1.57708E-14
 -1        96 2.24536E+01-1.22747E-03-6.83481E-03-9.78131E-03 9.20502E-14 9.44678E-14
 -1        97 2.30894E+01 1.81900E-03-2.86241E-03-1.53405E-02-2.03277E-14-1.09396E-13
 -1        98 2.37469E+01 6.61483E-03 5.50791E-03-2.15655E-02-3.25501E-14 4.95168E-14
 -1        99 2.43332E+01 1.29221E-02 1.96767E-02-2.64575E-02-8.31534E-14-1.16842E-14
 -1       100 2.46996E+01 1.93033E-02 3.91538E-02-2.59472E-02-4.79521E-15-3.43412E-14
 -1       101 2.46503E+01 2.26055E-02 5.88902E-02-1.40479E-02-1.96509E-14-3.14956E-13
 -1       102 2.39936E+01 1.85440E-02 6.72723E-02 1.44412E-02 2.45440E-14-8.17933E-13
 -1       103 2.26542E+01 4.60529E-03 4.90332E-02 5.73724E-02-1.07081E-14-5.01911E-13
 -1       104 2.08188E+01-1.58066E-02-2.89790E-03 9.82273E-02 2.17016E-14-2.23585E-13
 -1       105 1.90053E+01-3.25802E-02-7.20408E-02 1.09173E-01 3.31185E-14-3.58394E-14
 -1       106 1.79057E+01-3.56082E-02-1.19391E-01 7.15040E-02-8.34940E-14-1.75724E-13
 -1       107 1.80024E+01-2.37571E-02-1.11722E-01-8.01561E-04 7.65523E-14-6.64208E-13
 -1       108 1.92354E+01-4.75065E-03-5.51935E-02-6.77109E-02 8.78939E-14-1.28899E-12
 -1       109 2.10479E+01 1.17659E-02 1.29983E-02-9.76576E-02 2.53233E-14-1.18262E-12
 -1       110 2.27539E+01 2.03248E-02 5.78926E-02-8.80919E-02-1.06321E-13-1.00345E-12
 -1       111 2.38893E+01 2.09360E-02 6.92425E-02-5.73782E-02 3.44731E-14-6.27052E-13
 -1       112 2.43232E+01 1.65398E-02 5.70793E-02-2.49848E-02-5.40788E-14-7.44979E-13
 -1       113 2.41626E+01 1.04345E-02 3.65641E-02-9.54776E-04 1.59073E-13-6.48767E-13
 -1       114 2.36070E+01 4.71818E-03 1.77111E-02 1.31960E-02-4.92336E-14-7.05367E-13
 -1       115 2.28482E+01 1.81121E-04 4.08986E-03 1.99361E-02 2.60965E-15-5.68930E-13
 -1       116 2.20327E+01-3.24519E-03-4.91307E-03 2.23091E-02 2.69292E-14-4.70373E-13
 -1       117 2.12622E+01-5.97610E-03-1.16979E-02 2.24333E-02 5.78075E-14-1.35785E-12
 -1       118 2.06121E+01-8.18067E-03-1.84856E-02 2.08552E-02 8.22941E-14-1.79593E-12
 -1       119 2.01550E+01-8.48535E-03-2.29383E-02 1.43385E-02-1.95482E-16-2.05565E-12
 -1       120 1.99727E+01 8.32709E-03-2.81064E-03-5.83946E-03 2.18867E-13-1.61656E-12
 -1       121 1.99990E+01-1.47622E-02-3.77800E-03-1.23857E-02-1.19818E-12 1.42193E-13
 -1       122 1.99892E+01 1.73313E-01-2.12679E-02 7.58071E-03-6.54262E-13-2.39711E-13
 -1       123 1.99928E+01 6.17337E-01-1.38442E-02 1.82318E-02-1.28593E-13-2.64981E-14
 -1       124 1.99980E+01 1.19827E+00-3.80158E-03 2.19830E-02-8.05150E-13 1.10978E-13
 -1       125 2.00032E+01 1.81241E+00 5.00273E-03 2.13439E-02-3.87393E-13-1.00220E-13
 -1       126 2.00082E+01 2.36026E+00 1.21450E-02 1.79003E-02-4.77134E-13 3.22545E-13
 -1       127 2.00117E+01 2.78164E+00 1.73499E-02 1.18563E-02 3.01943E-13 2.53655E-13
 -1       128 2.00136E+01 3.00794E+00 2.01870E-02 4.13537E-03-8.41573E-14-2.27904E-13
 -1       129 2.00136E+01 3.00711E+00 2.01915E-02-4.18599E-03 5.52999E-13 3.55052E-13
 -1       130 2.00117E+01 2.77912E+00 1.73604E-02-1.18982E-02 3.59231E-13-2.95232E-13
 -1       131 2.00080E+01 2.35618E+00 1.20462E-02-1.81148E-02-8.80266E-13-9.80773E-14
 -1       132 2.00034E+01 1.80704E+00 5.01085E-03-2.14356E-02-9.06918E-13 4.19515E-13
 -1       133 1.99980E+01 1.19174E+00-3.80845E-03-2.19713E-02-4.25152E-13 7.84158E-14
 -1       134 1.99914E+01 6.09187E-01-1.48490E-02-1.97434E-02 3.14188E-13 9.37121E-14
 -1       135 1.99909E+01 1.75811E-01-1.86534E-02-1.10217E-02 3.54072E-14-2.47138E-13
 -1       136 1.99906E+01-8.27972E-03-2.93100E-03 2.40175E-02-2.25595E-13 5.24634E-14
 -1       137-1.50824E+00-2.01267E+01-3.10288E+00-3.91008E+00-4.74676E-13 1.76487E-13
 -1       138-1.32529E+00-8.17567E+00-2.23156E+00-2.63465E+00 1.19110E-12 5.66602E-13
 -1       139 3.04229E+00 3.67673E+00-1.04961E+00 3.63310E+00 2.07889E-12 1.57996E-12
 -1       140 1.56655E+01 1.06039E+01 3.99031E-01 1.28000E+01 1.68165E-12 1.74954E-12
 -1       141 3.50098E+01 1.00278E+01 1.83568E+00 1.82014E+01 1.25019E-12 2.31676E-12
 -1       142 5.43732E+01 5.08084E+00 2.96845E+00 1.49636E+01 6.48148E-13 2.27235E-12
 -1       143 6.58285E+01 1.15998E+00 3.56931E+00 3.50429E+00 1.09412E-13 1.03747E-12
 -1       144 6.22624E+01 2.37579E+00 3.39011E+00-9.86658E+00-6.25637E-14 1.56070E-13
 -1       145 4.47062E+01 7.85852E+00 2.43403E+00-1.77426E+01 5.86531E-13-1.10983E-12
 -1       146 2.27202E+01 1.06890E+01 9.43344E-01-1.52510E+01 1.43013E-12-1.84008E-12
 -1       147 6.44562E+00 5.94971E+00-6.40130E-01-6.45661E+00 1.98547E-12-1.52706E-12
 -1       148-6.94041E-01-5.27724E+00-1.98620E+00 1.40505E+00 2.01106E-12-1.16968E-12
 -1       149-1.70636E+00-1.84267E+01-2.99312E+00 4.14099E+00 1.35425E-12-4.89608E-13
 -1       150-7.25306E-01-2.43585E+01-3.34984E+00 5.69828E-01 6.93536E-13 9.16038E-14
 -1       151-1.25602E+00-2.08818E+01-3.14414E+00-3.42790E+00-3.39478E-13-2.21212E-13
 -1       152-1.76779E+00-9.98160E+00-2.39328E+00-3.47116E+00-1.18144E-12-5.78121E-13
 -1       153 2.69206E+00 2.77450E+00-1.17022E+00 3.12492E+00-1.97248E-12-1.59450E-12
 -1       154 1.44909E+01 1.00736E+01 2.73556E-01 1.20118E+01-1.96310E-12-2.02127E-12
 -1       155 3.39433E+01 1.01235E+01 1.74591E+00 1.80283E+01-1.12849E-12-2.08572E-12
 -1       156 5.30529E+01 5.38986E+00 2.88561E+00 1.57598E+01-5.00364E-13-1.30596E-12
 -1       157 6.50435E+01 1.40864E+00 3.51787E+00 5.08658E+00-1.52763E-13 6.14023E-13
 -1       158 6.33990E+01 1.99630E+00 3.43852E+00-8.20722E+00-2.27001E-13 2.10487E-12
 -1       159 4.86706E+01 6.88284E+00 2.66105E+00-1.73416E+01-1.10212E-12 2.76379E-12
 -1       160 1.21126E+01 9.45287E+00 4.07901E-02-1.06772E+01-1.94805E-12 2.19552E-12
 -1       161 1.55127E+00 1.16228E+00-1.34952E+00-1.83599E+00-2.16543E-12 1.27953E-12
 -1       162-1.75436E+00-1.07564E+01-2.45977E+00 3.66683E+00-1.86495E-12 1.04883E-12
 -1       163-1.25630E+00-2.10199E+01-3.16272E+00 3.63995E+00-1.73336E-12 2.07685E-13
 -1       164 2.10094E+01 3.69387E+00-5.73853E-02-3.61178E+00-2.54588E-13 2.12885E-13
 -1       165 1.99886E+01 4.20710E+00-4.58057E-02-2.81080E+00-2.45541E-13-8.12926E-14
 -1       166 1.95061E+01 4.47773E+00-3.17245E-02-2.19678E+00-1.91761E-13-2.54017E-13
 -1       167 1.92691E+01 4.61437E+00-2.38245E-02-1.67632E+00-1.37622E-13-3.35378E-13
 -1       168 1.91393E+01 4.69714E+00-1.95886E-02-1.22036E+00-9.07568E-14-3.70126E-13
 -1       169 1.90667E+01 4.74800E+00-1.74538E-02-7.93103E-01-4.47038E-14-3.79348E-13
 -1       170 1.90302E+01 4.77589E+00-1.64324E-02-3.87411E-01 1.05759E-14-3.79745E-13
 -1       171 1.90196E+01 4.78445E+00-1.61389E-02 8.26210E-03 5.40424E-14-3.67836E-13
 -1       172 1.90319E+01 4.77461E+00-1.64724E-02 4.04277E-01 9.46729E-14-3.47522E-13
 -1       173 1.90704E+01 4.74501E+00-1.75283E-02 8.11009E-01 1.39222E-13-3.21662E-13
 -1       174 1.91438E+01 4.69248E+00-1.96974E-02 1.23285E+00 1.78974E-13-2.69544E-13
 -1       175 1.92780E+01 4.60516E+00-2.40161E-02 1.69982E+00 2.34127E-13-1.93758E-13
 -1       176 1.95232E+01 4.45928E+00-3.28551E-02 2.22836E+00 2.66191E-13-6.46514E-14
 -1       177 2.00109E+01 4.18358E+00-4.72153E-02 2.84852E+00 2.83593E-13 1.65916E-13
 -1       178 2.11309E+01 3.46353E+00-5.97923E-02 3.53810E+00 2.58946E-13 5.43392E-13
 -1       179 2.24143E+01 1.14351E+00-3.36460E-01 3.01582E+00 1.76424E-13 1.02826E-12
 -1       180 2.19663E+01 8.58367E-01 6.03232E-04-1.95999E+00-2.14828E-13 5.55347E-13
 -1       181 2.04413E+01 1.90064E-01-9.99202E-03-7.65295E-01-1.88254E-13 4.44306E-13
 -1       182 1.96647E+01 1.01631E-01 1.35703E-02-2.86953E-01-1.32557E-13 3.56835E-13
 -1       183 1.93239E+01 4.71784E-02 1.00129E-02-6.92631E-02-1.09794E-13 2.78095E-13
 -1       184 1.91932E+01 2.25471E-02 5.17494E-03 3.80102E-02-4.23911E-14 2.07983E-13
 -1       185 1.91789E+01 9.55469E-03 2.44457E-03 9.07004E-02-5.06510E-14 1.86343E-13
 -1       186 1.92270E+01 2.25494E-03 1.14757E-03 1.13370E-01-3.43204E-14 1.71991E-13
 -1       187 1.93063E+01-1.83228E-03 5.24356E-04 1.18920E-01-4.59192E-14 1.54635E-13
 -1       188 1.93985E+01-3.91885E-03 2.05311E-04 1.14929E-01-7.38861E-14 1.59504E-13
 -1       189 1.94932E+01-4.68248E-03 4.07422E-05 1.06216E-01-4.30443E-14 2.00762E-13
 -1       190 1.95848E+01-4.53346E-03-3.10529E-05 9.60126E-02 1.75686E-14 6.09464E-14
 -1       191 1.96715E+01-3.72651E-03-3.98863E-05 8.65862E-02-5.50984E-14 2.89720E-15
 -1       192 1.97537E+01-2.41483E-03-2.63280E-06 7.96055E-02-8.75907E-14-3.29863E-15
 -1       193 1.98335E+01-6.80607E-04 7.03826E-05 7.63870E-02-1.10996E-14 5.21462E-14
 -1       194 1.99148E+01 1.44472E-03 1.72622E-04 7.80633E-02-3.10107E-14 8.05094E-14
 -1       195 2.00023E+01 3.96374E-03 2.99522E-04 8.56984E-02-5.74213E-14 5.11224E-14
 -1       196 2.01022E+01 6.89564E-03 4.46775E-04 1.00355E-01-2.98725E-16 5.78216E-14
 -1       197 2.02215E+01 1.02535E-02 6.08292E-04 1.23105E-01-5.49521E-14-4.20097E-14
 -1       198 2.03682E+01 1.40106E-02 7.73483E-04 1.54968E-01-1.18018E-13-5.80342E-14
 -1       199 2.05508E+01 1.80462E-02 9.23525E-04 1.96731E-01-2.41241E-14-1.89467E-13
 -1       200 2.07781E+01 2.20588E-02 1.02656E-03 2.48600E-01 1.22879E-13-1.72195E-13
 -1       201 2.10583E+01 2.54289E-02 1.03253E-03 3.09560E-01-4.05615E-14-1.93139E-13
 -1       202 2.13968E+01 2.70142E-02 8.70149E-04 3.76346E-01 6.39447E-14 1.38707E-14
 -1       203 2.17944E+01 2.48815E-02 4.52246E-04 4.41844E-01 1.65058E-14 1.10970E-13
 -1       204 2.22427E+01 1.60469E-02-3.00263E-04 4.92922E-01-1.71706E-14 4.79379E-14
 -1       205 2.27191E+01-3.52317E-03-1.40200E-03 5.08031E-01-1.08767E-13 2.20501E-14
 -1       206 2.31805E+01-3.80507E-02-2.71552E-03 4.55927E-01-1.88536E-13-8.16812E-14
 -1       207 2.35580E+01-8.91585E-02-3.84965E-03 2.98778E-01 8.94256E-14-2.01622E-13
 -1       208 2.37583E+01-1.50240E-01-4.20985E-03 5.15590E-03 7.90110E-14-1.04941E-14
 -1       209 2.36778E+01-1.98764E-01-3.23397E-03-4.21556E-01-1.29379E-13-5.16442E-14
 -1       210 2.32403E+01-1.93726E-01-1.05254E-03-9.02268E-01-1.46809E-13-1.64146E-13
 -1       211 2.24618E+01-9.36041E-02 1.25187E-03-1.25811E+00-5.86900E-14-2.96207E-13
 -1       212 2.15142E+01 9.87886E-02 2.14674E-03-1.26020E+00 2.30217E-14-3.24323E-13
 -1       213 2.07228E+01 2.98328E-01 1.28309E-03-7.82313E-01 1.60537E-13-4.41028E-13
 -1       214 2.04268E+01 3.76042E-01 6.82765E-04 3.80856E-02-1.59920E-13-5.65679E-13
 -1       215 2.07588E+01 2.74504E-01 1.35333E-03 8.28866E-01-1.07107E-13-5.12565E-13
 -1       216 2.15451E+01 6.75595E-02 1.95978E-03 1.23892E+00-3.59769E-14-5.46473E-13
 -1       217 2.24335E+01-1.16531E-01 8.24609E-04 1.17081E+00-4.98503E-14-5.25760E-13
 -1       218 2.31123E+01-2.03520E-01-1.54925E-03 7.75242E-01 4.31113E-14-5.88474E-13
 -1       219 2.34307E+01-1.99358E-01-3.61363E-03 2.81873E-01 7.45541E-15-3.09677E-13
 -1       220 2.33886E+01-1.47578E-01-4.35849E-03-1.42510E-01 1.23326E-14-3.20390E-13
 -1       221 2.30688E+01-8.65806E-02-3.77241E-03-4.29721E-01 1.39153E-13-5.05082E-14
 -1       222 2.25777E+01-3.58983E-02-2.39595E-03-5.80510E-01 2.27080E-13 1.88929E-14
 -1       223 2.20110E+01 1.66915E-04-8.38437E-04-6.24242E-01 1.37986E-13-4.02660E-14
 -1       224 2.14436E+01 2.51562E-02 4.81671E-04-5.91759E-01 2.63268E-13 1.82823E-14
 -1       225 2.09299E+01 4.51375E-02 1.24375E-03-5.03296E-01 2.23548E-14 4.34286E-14
 -1       226 2.05099E+01 6.60037E-02 1.57935E-03-3.67049E-01 4.42516E-14-1.08705E-15
 -1       227 2.02003E+01 8.71343E-02 1.21697E-03-1.88927E-01 5.07874E-14 1.43518E-14
 -1       228 2.09576E+01 2.77053E-01-5.13407E-02 1.16586E+00 1.90820E-13 9.01210E-13
 -1       229 1.98618E+01 1.26827E-01 8.30963E-03 4.44165E-01 1.44232E-13 7.58007E-13
 -1       230 1.93544E+01 5.80246E-02 1.27336E-02 1.51186E-01 9.14854E-14 6.19896E-13
 -1       231 1.91436E+01 2.76831E-02 7.62664E-03 1.19975E-02 9.26616E-14 5.41190E-13
 -1       232 1.90926E+01 1.30719E-02 3.82665E-03-5.71172E-02 4.66836E-14 5.24666E-13
 -1       233 1.91275E+01 5.16733E-03 1.91669E-03-8.96712E-02-4.71060E-14 5.34489E-13
 -1       234 1.92061E+01 7.02794E-04 1.02370E-03-1.01760E-01 5.83720E-14 4.73628E-13
 -1       235 1.93040E+01-1.76174E-03 5.73141E-04-1.02231E-01 9.92032E-14 3.86534E-13
 -1       236 1.94072E+01-2.95946E-03 3.22388E-04-9.64442E-02 8.32558E-14 2.50561E-13
 -1       237 1.95081E+01-3.30799E-03 1.78401E-04-8.78799E-02 7.27871E-14 2.80188E-13
 -1       238 1.96031E+01-3.06269E-03 1.01666E-04-7.89094E-02 6.41288E-14 2.26447E-13
 -1       239 1.96916E+01-2.38158E-03 7.16980E-05-7.12218E-02-1.71146E-14 2.00242E-13
 -1       240 1.97754E+01-1.35730E-03 7.57834E-05-6.60901E-02 2.11017E-14 2.16537E-13
 -1       241 1.98575E+01-3.60011E-05 1.05187E-04-6.45506E-02 5.79212E-14 1.47516E-13
 -1       242 1.99426E+01 1.56909E-03 1.53321E-04-6.75290E-02 8.53389E-14 1.84570E-13
 -1       243 2.00364E+01 3.46581E-03 2.14370E-04-7.59232E-02 6.57174E-14-1.61498E-14
 -1       244 2.01456E+01 5.66979E-03 2.81923E-04-9.06446E-02 1.50234E-13-2.20837E-14
 -1       245 2.02784E+01 8.18643E-03 3.47359E-04-1.12609E-01 3.73727E-14 1.77353E-14
 -1       246 2.04433E+01 1.09829E-02 3.97931E-04-1.42652E-01-7.86983E-14-8.47323E-14
 -1       247 2.06499E+01 1.39430E-02 4.14652E-04-1.81337E-01-1.46690E-13-4.93545E-14
 -1       248 2.09074E+01 1.67935E-02 3.70744E-04-2.28573E-01-5.46906E-14 5.74262E-14
 -1       249 2.12238E+01 1.89891E-02 2.32784E-04-2.82966E-01 7.67728E-14 1.13930E-13
 -1       250 2.16034E+01 1.95448E-02-3.08881E-05-3.40763E-01-2.42452E-14 5.59316E-14
 -1       251 2.20436E+01 1.68261E-02-4.26997E-04-3.94274E-01 8.59127E-15 2.70070E-14
 -1       252 2.25296E+01 8.37644E-03-8.92286E-04-4.29822E-01 1.32686E-14 1.93905E-13
 -1       253 2.30273E+01-8.96717E-03-1.22994E-03-4.25733E-01-5.16864E-14 2.96663E-13
 -1       254 2.34770E+01-3.80836E-02-1.07042E-03-3.52040E-01 3.65289E-14 2.45883E-13
 -1       255 2.37886E+01-7.88083E-02 1.03724E-06-1.75608E-01 6.68706E-14 7.60160E-14
 -1       256 2.38496E+01-1.22992E-01 2.03870E-03 1.23846E-01 1.47821E-13-1.60172E-13
 -1       257 2.35529E+01-1.49385E-01 4.19848E-03 5.23902E-01-8.46155E-15-2.03082E-13
 -1       258 2.28547E+01-1.25411E-01 4.48736E-03 9.24701E-01-1.35331E-13-6.08628E-14
 -1       259 2.18503E+01-2.74276E-02 8.28128E-04 1.14436E+00-7.16887E-14-4.94648E-14
 -1       260 2.08174E+01 1.23670E-01-5.87587E-03 9.96493E-01 4.39119E-14-1.05705E-14
 -1       261 2.01449E+01 2.48511E-01-1.10442E-02 4.41639E-01 7.11054E-14-5.63351E-14
 -1       262 2.01301E+01 2.59904E-01-9.52092E-03-3.08703E-01 3.39134E-13-2.91300E-13
 -1       263 2.07685E+01 1.51452E-01-2.47738E-03-9.03489E-01 2.22795E-13-4.38323E-13
 -1       264 2.17589E+01-4.21989E-04 4.34830E-03-1.10540E+00-1.05248E-13-5.43170E-13
 -1       265 2.27075E+01-1.11696E-01 6.46273E-03-9.20785E-01-1.55329E-13-4.88475E-13
 -1       266 2.33346E+01-1.49874E-01 4.38589E-03-5.24725E-01-1.34716E-13-3.03034E-13
 -1       267 2.35471E+01-1.32413E-01 1.04210E-03-1.06575E-01 5.73114E-14-2.72704E-13
 -1       268 2.33915E+01-9.12152E-02-1.27600E-03 2.20659E-01-8.14062E-14-3.20138E-13
 -1       269 2.29771E+01-4.94616E-02-2.04197E-03 4.24267E-01-1.15187E-13 3.41862E-14
 -1       270 2.24195E+01-1.68580E-02-1.68894E-03 5.18033E-01 3.44626E-14-4.80258E-14
 -1       271 2.18146E+01 5.94092E-03-9.04334E-04 5.29920E-01 1.90110E-13-5.60642E-13
 -1       272 2.12348E+01 2.22985E-02-3.49831E-04 4.83800E-01 3.82015E-13-7.12380E-13
 -1       273 2.07331E+01 3.66600E-02-5.74209E-04 3.92845E-01 1.34106E-13-6.73593E-13
 -1       274 2.03506E+01 5.40175E-02-3.75066E-04 2.59725E-01 6.75189E-14-5.13230E-13
 -1       275 2.01055E+01 6.05791E-02 1.68339E-03 9.54743E-02-4.01074E-13-4.08290E-13
 -1       276 2.00827E+01 2.09937E-01 1.53531E-03 1.94167E-01-3.78310E-13 2.09925E-13
 -1       277 2.00575E+01 4.99687E-01 7.37130E-04 3.52772E-01-2.60361E-13 3.06697E-13
 -1       278 2.00247E+01 8.77870E-01 3.53110E-04 4.49741E-01-7.89925E-14-7.48337E-14
 -1       279 1.99950E+01 1.29825E+00-2.25936E-04 4.73210E-01-9.43807E-14 2.91897E-13
 -1       280 1.99690E+01 1.69880E+00-1.11280E-03 4.28925E-01-1.69021E-13-5.96485E-14
 -1       281 1.99473E+01 2.03906E+00-1.88426E-03 3.24307E-01-2.33345E-13 3.13974E-13
 -1       282 1.99329E+01 2.26415E+00-2.41764E-03 1.74181E-01-1.42896E-13 1.38913E-13
 -1       283 1.99277E+01 2.34257E+00-2.60196E-03-6.32474E-04 1.98275E-13 2.55792E-13
 -1       284 1.99328E+01 2.26305E+00-2.42133E-03-1.75445E-01-3.22446E-14-1.74690E-13
 -1       285 1.99474E+01 2.03681E+00-1.89211E-03-3.25588E-01-7.18248E-14-3.25554E-13
 -1       286 1.99687E+01 1.70235E+00-1.07193E-03-4.28898E-01-1.28980E-13 9.29308E-14
 -1       287 1.99953E+01 1.29424E+00-2.29908E-04-4.73985E-01 3.27305E-14 4.00082E-13
 -1       288 2.00248E+01 8.73533E-01 4.50393E-04-4.49650E-01 9.51347E-14 3.24657E-13
 -1       289 2.00596E+01 4.97813E-01 1.56891E-03-3.48897E-01 3.47854E-14-1.36543E-13
 -1       290 2.01288E+01 2.73060E-01 1.97273E-03-3.04422E-01-7.42194E-14-2.69183E-13
 -1       291-9.30460E-01-1.09084E+01-9.81306E-01 1.08579E+00-5.31616E-13 7.60392E-13
 -1       292 3.71704E+00-7.69610E+00-5.28169E-01 4.44123E+00-3.43475E-13 9.20375E-13
 -1       293 9.41397E+00-4.96214E+00-5.11463E-01 5.49167E+00 3.01092E-13 9.64756E-13
 -1       294 1.84613E+01-9.09275E-01-1.12306E-01 7.18034E+00 7.89646E-13 6.65717E-13
 -1       295 2.90830E+01 2.56685E+00 3.42957E-01 7.67760E+00 5.22554E-13 1.02501E-12
 -1       296 3.83567E+01 4.80588E+00 6.50272E-01 5.78149E+00 5.66013E-13 8.16208E-13
 -1       297 4.17407E+01 6.92776E+00 5.74938E-01 1.69726E+00 6.53394E-13 1.09038E-13
 -1       298 4.67582E+01 6.63327E+00 1.03631E+00-1.03230E+00 3.39312E-13 1.69899E-13
 -1       299 4.15623E+01 5.81488E+00 7.38605E-01-3.93783E+00 5.94233E-13 8.88178E-15
 -1       300 3.31252E+01 2.58028E+00 3.20007E-01-5.41209E+00 5.44835E-13 4.30767E-14
 -1       301 2.33236E+01-1.18825E+00 1.48133E-02-6.67165E+00 5.51614E-13-3.78197E-13
 -1       302 1.33920E+01-4.56435E+00-2.57145E-01-6.52245E+00 4.72733E-13-3.55341E-13
 -1       303 4.93883E+00-6.96405E+00-4.45312E-01-5.00337E+00 3.74645E-13-5.51795E-13
 -1       304-6.22453E-01-1.04490E+01-9.23042E-01-1.41223E+00 4.96575E-13-4.02650E-13
 -1       305-9.56300E-01-9.87938E+00-8.27423E-01 9.74128E-01 1.57686E-13-5.03708E-13
 -1       306 1.92473E+00-8.93106E+00-8.28738E-01 2.99719E+00-9.67837E-14-5.84297E-13
 -1       307 9.58902E+00-5.52869E+00-4.16846E-01 5.85882E+00-2.69090E-13-8.63767E-13
 -1       308 1.78121E+01-1.29006E+00-1.42658E-01 7.01549E+00-6.82981E-13-6.96915E-13
 -1       309 2.86907E+01 1.59960E+00 2.52380E-01 6.83543E+00-5.88599E-13-4.82003E-13
 -1       310 3.81383E+01 4.76276E+00 6.90452E-01 6.29676E+00-6.56680E-13 1.73805E-13
 -1       311 4.41596E+01 6.36701E+00 8.94008E-01 3.16570E+00-7.77572E-13 1.07650E-12
 -1       312 4.35103E+01 7.40523E+00 6.80955E-01-3.82139E-01-7.41629E-13 1.44244E-12
 -1       313 4.35491E+01 6.03747E+00 9.06325E-01-4.35536E+00-8.34485E-13 1.55964E-12
 -1       314 3.55268E+01 3.85893E+00 5.12276E-01-5.95642E+00-8.62938E-13 1.41034E-12
 -1       315 2.60981E+01 1.57038E+00 2.04070E-01-7.62089E+00-9.04971E-13 1.49938E-12
 -1       316 1.71615E+01-2.55149E+00-1.74718E-01-6.84456E+00-9.06691E-13 1.10065E-12
 -1       317 8.15304E+00-5.84512E+00-5.23729E-01-5.35604E+00-9.31255E-13 7.52030E-13
 -1       318 1.86319E+00-9.17444E+00-8.65010E-01-2.95811E+00-1.05349E-12 5.97161E-13
 -1       319-9.57227E-01-1.10171E+01-9.99110E-01-9.74267E-01-7.90271E-13 1.43732E-13
 -1       320 2.01443E+01 3.01476E+00-1.78000E-02-2.11203E+00-2.43107E-13-7.95804E-14
 -1       321 2.07514E+01 2.20986E+00-1.78589E-02-2.36512E+00-2.71294E-13 8.99870E-14
 -1       322 1.95845E+01 3.69180E+00-1.56100E-02-1.32000E+00-1.35104E-13-2.50392E-13
 -1       323 1.94637E+01 3.84799E+00-1.37025E-02-9.24978E-01-8.66112E-14-2.65326E-13
 -1       324 1.93956E+01 3.93907E+00-1.27173E-02-5.44575E-01-1.58349E-14-2.69551E-13
 -1       325 1.93655E+01 3.98047E+00-1.23025E-02-1.73482E-01 4.66639E-14-2.59587E-13
 -1       326 1.93668E+01 3.97886E+00-1.23237E-02 1.94625E-01 9.49663E-14-2.60596E-13
 -1       327 1.93997E+01 3.93391E+00-1.27730E-02 5.66110E-01 1.41994E-13-2.44906E-13
 -1       328 1.94694E+01 3.84067E+00-1.38034E-02 9.40429E-01 1.96737E-13-2.05354E-13
 -1       329 1.95951E+01 3.67832E+00-1.56976E-02 1.33471E+00 2.52460E-13-1.43481E-13
 -1       330 1.98092E+01 3.40961E+00-1.88452E-02 1.74038E+00 2.89767E-13-6.51970E-14
 -1       331 2.01776E+01 2.95508E+00-2.29242E-02 2.12908E+00 3.10815E-13 8.88872E-14
 -1       332 2.07453E+01 2.12942E+00-3.04637E-02 2.32384E+00 3.05048E-13 3.41538E-13
 -1       333 2.10907E+01 1.18776E+00-2.49229E-02 1.92335E+00 2.52688E-13 5.48665E-13
 -1       334 2.03864E+01 4.89226E-01 8.33642E-03 9.28862E-01 1.98772E-13 4.53717E-13
 -1       335 2.04541E+01 6.75045E-01 1.25589E-02-1.02758E+00-2.07978E-13 1.26825E-13
 -1       336 2.00315E+01 3.37129E-01 7.18269E-03-4.59826E-01-1.43247E-13 1.15227E-13
 -1       337 1.97772E+01 1.76493E-01 4.16415E-03-1.50672E-01-1.22392E-13 9.95939E-14
 -1       338 1.96415E+01 9.06279E-02 1.90518E-03 2.06344E-02-5.91814E-14 7.53441E-14
 -1       339 1.95862E+01 4.18650E-02 7.98588E-04 1.12310E-01-6.40487E-14 6.44447E-14
 -1       340 1.95815E+01 1.34439E-02 2.85569E-04 1.56540E-01-5.44902E-14 7.21353E-14
 -1       341 1.96070E+01-2.73675E-03 3.85743E-05 1.72472E-01-4.51418E-14 5.92510E-14
 -1       342 1.96493E+01-1.10446E-02-8.15597E-05 1.72201E-01-4.90158E-14 7.70758E-14
 -1       343 1.97001E+01-1.40418E-02-1.29205E-04 1.63752E-01-6.76804E-14 7.43075E-14
 -1       344 1.97545E+01-1.33090E-02-1.28869E-04 1.52666E-01-6.54194E-14-2.17708E-14
 -1       345 1.98104E+01-9.83107E-03-9.38496E-05 1.42916E-01-5.28757E-14-6.30281E-14
 -1       346 1.98676E+01-4.19980E-03-3.19482E-05 1.37496E-01-1.61989E-15 4.83733E-14
 -1       347 1.99273E+01 3.26437E-03 5.23915E-05 1.38804E-01-4.76325E-14 8.55186E-14
 -1       348 1.99919E+01 1.24251E-02 1.56842E-04 1.48911E-01-4.93737E-14 1.83084E-14
 -1       349 2.00648E+01 2.32525E-02 2.80091E-04 1.69727E-01-6.16357E-14 6.72258E-14
 -1       350 2.01499E+01 3.57370E-02 4.20575E-04 2.03071E-01-7.57613E-14-3.49790E-15
 -1       351 2.02520E+01 4.97738E-02 5.74750E-04 2.50635E-01-5.98885E-14 4.84843E-14
 -1       352 2.03764E+01 6.49923E-02 7.34562E-04 3.13792E-01-7.33995E-14 4.59498E-17
 -1       353 2.05285E+01 8.04946E-02 8.83711E-04 3.93187E-01-8.25409E-15 3.07342E-14
 -1       354 2.07136E+01 9.44547E-02 9.92359E-04 4.88014E-01 1.07325E-13-1.67386E-14
 -1       355 2.09366E+01 1.03528E-01 1.01055E-03 5.94821E-01 1.79266E-13 6.85648E-14
 -1       356 2.12008E+01 1.02061E-01 8.62083E-04 7.05698E-01 4.65511E-14 2.90278E-14
 -1       357 2.15076E+01 8.12347E-02 4.44021E-04 8.05734E-01-3.73964E-14 3.96953E-14
 -1       358 2.18548E+01 2.86554E-02-3.58363E-04 8.69913E-01-1.00944E-13-1.66557E-13
 -1       359 2.22356E+01-7.02613E-02-1.61936E-03 8.60323E-01-6.42728E-14-2.43820E-14
 -1       360 2.26349E+01-2.26467E-01-3.27908E-03 7.26194E-01-8.68725E-14 1.25531E-13
 -1       361 2.30238E+01-4.33265E-01-4.93474E-03 4.12197E-01 9.68301E-14-1.32495E-14
 -1       362 2.33504E+01-6.43375E-01-5.91405E-03-1.16542E-01-1.51489E-14-1.22154E-13
 -1       363 2.35306E+01-7.45549E-01-5.32448E-03-8.25227E-01-1.29239E-13-8.43775E-15
 -1       364 2.34607E+01-5.79657E-01-3.30898E-03-1.54192E+00-1.14532E-13 2.40968E-13
 -1       365 2.30891E+01-4.52522E-02-8.37740E-04-1.93528E+00-5.88669E-14 2.30054E-13
 -1       366 2.25334E+01 7.18985E-01 3.76863E-04-1.64926E+00-6.60882E-14-5.13183E-14
 -1       367 2.21135E+01 1.28105E+00-6.52184E-04-6.17879E-01-9.59467E-14-2.47663E-13
 -1       368 2.21301E+01 1.23168E+00-4.94366E-04 7.11925E-01-7.61179E-14-2.30811E-13
 -1       369 2.25542E+01 6.09659E-01-1.55675E-04 1.65249E+00-1.21621E-13-3.03607E-14
 -1       370 2.30637E+01-1.47025E-01-1.28054E-03 1.82453E+00-1.96692E-14-1.51179E-13
 -1       371 2.33568E+01-6.37518E-01-3.67495E-03 1.35149E+00 9.06946E-14-1.24794E-13
 -1       372 2.33426E+01-7.61279E-01-5.61312E-03 6.02932E-01 3.96638E-13 7.00856E-14
 -1       373 2.30869E+01-6.37997E-01-5.99916E-03-1.06908E-01 9.72352E-14 2.92874E-13
 -1       374 2.26925E+01-4.23035E-01-4.93874E-03-6.26410E-01-2.15565E-14 1.99251E-13
 -1       375 2.22403E+01-2.16784E-01-3.12791E-03-9.29757E-01 2.77534E-13 5.35531E-15
 -1       376 2.17811E+01-5.77180E-02-1.33805E-03-1.05185E+00 4.10179E-13 6.67431E-14
 -1       377 2.13448E+01 5.44009E-02 1.28783E-04-1.04088E+00 3.74044E-14 1.77165E-13
 -1       378 2.09494E+01 1.35675E-01 1.19938E-03-9.35742E-01 7.65449E-14-8.03494E-14
 -1       379 2.06077E+01 2.04532E-01 2.29607E-03-7.60533E-01-8.99888E-16-1.55836E-13
 -1       380 2.03524E+01 2.46744E-01 2.50205E-03-5.46400E-01-3.62520E-14-2.96447E-13
 -1       381 1.98841E+01 2.28379E-01 1.07908E-02 4.00306E-01 1.63053E-13 3.91341E-13
 -1       382 1.95948E+01 1.15266E-01 6.16306E-03 1.21711E-01 1.23859E-13 3.26897E-13
 -1       383 1.94596E+01 5.76876E-02 2.80239E-03-2.70987E-02 6.51936E-14 3.00873E-13
 -1       384 1.94195E+01 2.59533E-02 1.17852E-03-1.04248E-01-2.71094E-15 2.19892E-13
 -1       385 1.94353E+01 7.78135E-03 4.63758E-04-1.40066E-01 6.18761E-14 1.13094E-13
 -1       386 1.94823E+01-2.49019E-03 1.26545E-04-1.51724E-01 1.28143E-13 1.19710E-13
 -1       387 1.95449E+01-7.77783E-03-4.11430E-05-1.49691E-01 1.22498E-13 1.46034E-13
 -1       388 1.96137E+01-9.74243E-03-1.16685E-04-1.40767E-01 7.15299E-14 1.44127E-13
 -1       389 1.96836E+01-9.39522E-03-1.32939E-04-1.29580E-01 9.30560E-14 1.49613E-13
 -1       390 1.97525E+01-7.36429E-03-1.06784E-04-1.19411E-01-1.00097E-14 1.42298E-13
 -1       391 1.98206E+01-4.02706E-03-4.83414E-05-1.12707E-01 6.62331E-14 1.48760E-13
 -1       392 1.98895E+01 4.12583E-04 3.62885E-05-1.11411E-01 6.49946E-14 1.68792E-13
 -1       393 1.99621E+01 5.87050E-03 1.43550E-04-1.17199E-01 4.62288E-14 1.30550E-13
 -1       394 2.00427E+01 1.23365E-02 2.71207E-04-1.31625E-01 1.34209E-13 1.13513E-13
 -1       395 2.01361E+01 1.98246E-02 4.16959E-04-1.56194E-01 1.20774E-13 9.55544E-14
 -1       396 2.02482E+01 2.83089E-02 5.76571E-04-1.92352E-01 1.06057E-13 2.29184E-13
 -1       397 2.03855E+01 3.76266E-02 7.41251E-04-2.41350E-01-3.50987E-14 8.71165E-14
 -1       398 2.05548E+01 4.73283E-02 8.93866E-04-3.03942E-01-8.36093E-14 9.93591E-14
 -1       399 2.07628E+01 5.64432E-02 1.00381E-03-3.79811E-01-1.58010E-13 5.01324E-14
 -1       400 2.10154E+01 6.31249E-02 1.02102E-03-4.66607E-01 5.59546E-14 2.95472E-14
 -1       401 2.13162E+01 6.41569E-02 8.71557E-04-5.58439E-01 6.89739E-14 5.33906E-14
 -1       402 2.16648E+01 5.43724E-02 4.60278E-04-6.43692E-01-4.56710E-14-2.83874E-14
 -1       403 2.20546E+01 2.62488E-02-3.08349E-04-7.02267E-01-9.56886E-14 4.80712E-14
 -1       404 2.24687E+01-2.95877E-02-1.47752E-03-7.02941E-01-3.51116E-14 1.05430E-13
 -1       405 2.28766E+01-1.21335E-01-2.93153E-03-6.02937E-01 1.52709E-13 2.57143E-13
 -1       406 2.32299E+01-2.47952E-01-4.28289E-03-3.54338E-01 6.69039E-14 1.86381E-13
 -1       407 2.34595E+01-3.84937E-01-4.99094E-03 7.51967E-02 2.00227E-13 3.88393E-13
 -1       408 2.34817E+01-4.69672E-01-4.53734E-03 6.62202E-01 3.45778E-14 4.32030E-13
 -1       409 2.32220E+01-4.04516E-01-2.72112E-03 1.27638E+00-5.86788E-14 1.22092E-13
 -1       410 2.26743E+01-1.11802E-01-4.63452E-04 1.65950E+00-3.40034E-14-1.63355E-14
 -1       411 2.19817E+01 3.56043E-01 9.58041E-04 1.51850E+00-5.01123E-14 2.17096E-14
 -1       412 2.14421E+01 7.65788E-01 2.17301E-03 7.49964E-01 1.32048E-13 1.57752E-13
 -1       413 2.13569E+01 8.29571E-01 2.91974E-03-3.65608E-01 4.50770E-13 1.53443E-13
 -1       414 2.17670E+01 5.03828E-01 3.40581E-03-1.28415E+00 3.41219E-13 1.62188E-13
 -1       415 2.24185E+01 2.06838E-02 2.58354E-03-1.61468E+00 2.31007E-14 8.65922E-14
 -1       416 2.29837E+01-3.46722E-01-9.69252E-04-1.35111E+00-2.00703E-13-9.11779E-14
 -1       417 2.32687E+01-4.82106E-01-4.54952E-03-7.57779E-01-3.07430E-13-8.01634E-14
 -1       418 2.32488E+01-4.34561E-01-6.29492E-03-1.24201E-01 8.80906E-14 9.79013E-15
 -1       419 2.29912E+01-3.04611E-01-5.80983E-03 3.76719E-01-1.30620E-13 1.37403E-13
 -1       420 2.25844E+01-1.68291E-01-4.13395E-03 6.92804E-01-1.15638E-13 2.06006E-13
 -1       421 2.21049E+01-5.92420E-02-2.15271E-03 8.41700E-01 1.07689E-13 5.33584E-14
 -1       422 2.16108E+01 1.83244E-02-3.99931E-04 8.63613E-01 4.01487E-13-8.72738E-14
 -1       423 2.11437E+01 7.36732E-02 8.91645E-04 7.94839E-01 3.23014E-13 1.73828E-14
 -1       424 2.07326E+01 1.18926E-01 1.57938E-03 6.58592E-01 1.84343E-13 1.87594E-13
 -1       425 2.03950E+01 1.61367E-01 1.71962E-03 4.67168E-01-1.52831E-13 2.57823E-13
 -1       426 2.02217E+01 1.95214E-01 1.58392E-03 3.37417E-01-2.86813E-13 3.12726E-13
 -1       427 2.00336E+01 9.45780E-01 4.64792E-04 7.96804E-01-6.93770E-15 2.62242E-13
 -1       428 2.01441E+01 6.25676E-01 1.77896E-03 7.11455E-01-1.10247E-13 2.92993E-13
 -1       429 2.02012E+01 3.99095E-01 2.32279E-03 5.43788E-01-2.25793E-13 2.39981E-13
 -1       430 1.99282E+01 1.26178E+00-6.44644E-04 7.73436E-01 1.88924E-14-1.59414E-13
 -1       431 1.98334E+01 1.55048E+00-1.55205E-03 6.45080E-01 1.28765E-13 2.50751E-13
 -1       432 1.97611E+01 1.76924E+00-2.24573E-03 4.27297E-01 1.44243E-13 2.80889E-13
 -1       433 1.97217E+01 1.88736E+00-2.61512E-03 1.48955E-01-1.26125E-13 1.61925E-13
 -1       434 1.97216E+01 1.88709E+00-2.62499E-03-1.50926E-01-1.02611E-13 1.80616E-13
 -1       435 1.97612E+01 1.76834E+00-2.25699E-03-4.29302E-01-1.92042E-13-4.44638E-13
 -1       436 1.98321E+01 1.55342E+00-1.55613E-03-6.44058E-01-2.64730E-14-9.94857E-14
 -1       437 1.99270E+01 1.26508E+00-6.58493E-04-7.73907E-01 6.93383E-14 5.60252E-13
 -1       438 2.00348E+01 9.43006E-01 4.45853E-04-7.98035E-01 1.23858E-13 5.36170E-13
 -1       439 2.01473E+01 6.22661E-01 1.90690E-03-7.14844E-01 2.32971E-13-6.65702E-14
 -1       440 1.14030E+01-5.70950E+00-3.85961E-02 6.98086E+00-3.29153E-13 9.86697E-13
 -1       441 1.38453E+00-4.19548E+00-2.81529E-02 1.12775E-01-2.50754E-15 4.07285E-13
 -1       442 3.82966E+00-4.24719E+00 2.46394E-02 4.10631E+00-2.83308E-13 5.95260E-13
 -1       443 1.88338E+01-5.38576E+00-4.35000E-02 6.68697E+00 1.59039E-14 4.43916E-13
 -1       444 2.67027E+01-3.11116E+00 7.31060E-03 4.56112E+00 2.69271E-13 4.73802E-13
 -1       445 1.98034E+01 3.43085E+00-1.76733E-02-1.73980E+00-1.94258E-13-1.93215E-13
 -1       446 3.35052E+01 4.52397E+00-5.72417E-02-5.99119E-01 4.99531E-13-1.38362E-14
 -1       447 3.54385E+01 8.03533E+00 3.87700E-02 6.92284E-02 3.81584E-13 1.88726E-13
 -1       448 3.55349E+01 7.06387E+00 6.39825E-02 3.45542E-01 3.56798E-13 3.92061E-13
 -1       449 3.32589E+01 2.98663E+00-5.32831E-03 9.78451E-02 4.49869E-13 3.01259E-13
 -1       450 2.91894E+01-2.53701E+00-2.12009E-02-2.35591E+00 4.94011E-13 5.25871E-13
 -1       451 2.19961E+01-5.23497E+00-5.84623E-03-5.83802E+00 4.12170E-14-1.52635E-13
 -1       452 1.37221E+01-5.45518E+00 5.52975E-02-7.16892E+00-1.03598E-13-3.69253E-14
 -1       453 4.45322E+00-4.15227E+00 1.28385E-02-4.60499E+00-4.78645E-14-3.83735E-13
 -1       454 1.85813E+00-3.46500E+00 5.01022E-02-8.70642E-01 6.98469E-14-5.16948E-13
 -1       455 3.67518E+00-4.33350E+00 7.80581E-03 4.16057E+00 2.49412E-13-5.94955E-13
 -1       456 9.35431E+00-5.25705E+00-1.54802E-02 6.66980E+00 3.52815E-13-6.42202E-13
 -1       457 1.95367E+01-5.51498E+00 3.27410E-02 6.54730E+00 1.96079E-13-2.15793E-13
 -1       458 2.59749E+01-4.02180E+00-2.90181E-02 4.33537E+00 8.02136E-15 9.84213E-14
 -1       459 3.20192E+01 5.84971E-01 2.18262E-02 1.22347E+00-5.34805E-13 7.87356E-13
 -1       460 3.45259E+01 4.52748E+00 3.67182E-02 5.27493E-03-9.66893E-13 1.19758E-12
 -1       461 3.57218E+01 7.60666E+00 4.08354E-02-3.56523E-01-9.59649E-13 1.18463E-12
 -1       462 3.46287E+01 6.95998E+00-3.02178E-02 4.88067E-01-7.20285E-13 1.11128E-12
 -1       463 3.39604E+01 3.94739E+00 2.25241E-02 7.77893E-02-5.40373E-13 1.12924E-12
 -1       464 3.05845E+01-8.08966E-01 1.17141E-02-2.60624E+00-5.38472E-13 1.01971E-12
 -1       465 2.54800E+01-3.78886E+00 1.32298E-02-4.92325E+00-3.67817E-13 1.00590E-12
 -1       466 1.75355E+01-5.82370E+00 6.28893E-03-6.94633E+00-4.67362E-13 8.01999E-13
 -1       467 8.72726E+00-5.58179E+00-6.25406E-02-6.56030E+00-3.65763E-13 5.28431E-13
 -1       468 3.11360E+00-5.03053E+00-8.32966E-02-3.93393E+00-4.25479E-13 4.11171E-13
 -1       469 3.20768E+01 5.54369E-01 1.97356E-02 1.67169E+00 3.53386E-13 2.19838E-13
 -1       470 9.29296E+00-3.86043E+00 1.24729E-01 6.20213E+00-3.69503E-13 9.73610E-13
 -1       471 3.10185E+01 6.35685E+00-1.38424E-01-1.27515E+00 5.48561E-13 4.21184E-13
 -1       472 3.12775E+01 7.53728E+00-1.44672E-01 2.19994E-01-7.85538E-13 4.05217E-13
 -1       473 2.03698E+01 8.31855E-01 4.07831E-03 9.74017E-01 2.03939E-13 2.06305E-13
 -1       474 1.97372E+01 3.10359E+00-5.35181E-03-6.34695E-01-4.78758E-14-2.30709E-13
 -1       475 1.98326E+01 2.92990E+00-5.73038E-03-9.50929E-01-1.02493E-13-2.15097E-13
 -1       476 1.96704E+01 3.22634E+00-5.02627E-03 8.82131E-03 6.42369E-14-2.24678E-13
 -1       477 1.96887E+01 3.19334E+00-5.09980E-03 3.30872E-01 1.07121E-13-2.21682E-13
 -1       478 1.97419E+01 3.09626E+00-5.40772E-03 6.47040E-01 1.62223E-13-1.78541E-13
 -1       479 1.98389E+01 2.91848E+00-6.01847E-03 9.62500E-01 2.20952E-13-1.24522E-13
 -1       480 1.99934E+01 2.63316E+00-6.53619E-03 1.25824E+00 2.47153E-13-1.06503E-13
 -1       481 2.02326E+01 2.18805E+00-5.60353E-03 1.50354E+00 2.63739E-13 1.36891E-15
 -1       482 2.01077E+01 4.53407E-01 4.98651E-03 4.66256E-01 1.87764E-13 1.67241E-13
 -1       483 2.03414E+01 9.72742E-01 2.78407E-03-9.42074E-01-1.90628E-13 9.61362E-16
 -1       484 2.98142E+01 6.66096E-01-1.38115E-01-1.52064E+00 3.37060E-13 3.90923E-13
 -1       485 2.01693E+01 5.45337E-01 2.32214E-03-4.69752E-01-1.45339E-13-7.15529E-15
 -1       486 2.00219E+01 3.03938E-01 1.10407E-03-1.68371E-01-1.03200E-13 1.06760E-14
 -1       487 1.99215E+01 1.62581E-01 4.70486E-04 1.37282E-02-6.18565E-14 2.28787E-14
 -1       488 1.98634E+01 7.73075E-02 1.64007E-04 1.17568E-01-7.22898E-14 1.09591E-14
 -1       489 1.98374E+01 2.60841E-02 2.93983E-05 1.71060E-01-1.04447E-13-2.75506E-14
 -1       490 1.98335E+01-3.26187E-03-3.43144E-05 1.93170E-01-2.85907E-14-1.13225E-13
 -1       491 1.98441E+01-1.79314E-02-6.23913E-05 1.96970E-01-2.98578E-14-7.61466E-14
 -1       492 1.98641E+01-2.24026E-02-6.79210E-05 1.91633E-01-1.02608E-13 4.56752E-14
 -1       493 1.98900E+01-1.95255E-02-5.73796E-05 1.83741E-01-7.29914E-14 7.14093E-14
 -1       494 1.99203E+01-1.10983E-02-3.45877E-05 1.78162E-01 1.27804E-14 6.32558E-14
 -1       495 1.99542E+01 1.79654E-03-1.81777E-06 1.78654E-01-4.81571E-14-2.04632E-14
 -1       496 1.99922E+01 1.85693E-02 3.97347E-05 1.88283E-01-6.82463E-14 8.10298E-14
 -1       497 2.00355E+01 3.89454E-02 8.95545E-05 2.09708E-01-6.99381E-14 1.56928E-13
 -1       498 2.00857E+01 6.27928E-02 1.47359E-04 2.45345E-01-1.29268E-13 1.46564E-13
 -1       499 2.01449E+01 8.99175E-02 2.12463E-04 2.97409E-01-3.09857E-14 4.54229E-14
 -1       500 2.02156E+01 1.19786E-01 2.82952E-04 3.67807E-01-1.27789E-13 3.18460E-14
 -1       501 2.03007E+01 1.51122E-01 3.54437E-04 4.57848E-01-7.26964E-14 1.11971E-14
 -1       502 2.04031E+01 1.81308E-01 4.18087E-04 5.67684E-01 5.54752E-14-7.20674E-14
 -1       503 2.05265E+01 2.05506E-01 4.57875E-04 6.95414E-01 1.78407E-13-7.04651E-14
 -1       504 2.06756E+01 2.15447E-01 4.47081E-04 8.35691E-01 6.57859E-14-1.45124E-13
 -1       505 2.08568E+01 1.97948E-01 3.44610E-04 9.77721E-01-6.19309E-14-1.52308E-13
 -1       506 2.10802E+01 1.33597E-01 9.45048E-05 1.10254E+00-1.48999E-13-1.56496E-13
 -1       507 2.13613E+01-3.08221E-03-3.69072E-04 1.17959E+00-5.23526E-14-2.09507E-13
 -1       508 2.17216E+01-2.38953E-01-1.07837E-03 1.16321E+00 8.63635E-16-1.89304E-13
 -1       509 2.21856E+01-5.87334E-01-2.00630E-03 9.90822E-01-2.91642E-14-8.72282E-14
 -1       510 2.27638E+01-1.01469E+00-2.64721E-03 5.90008E-01 9.36422E-14 7.62151E-14
 -1       511 2.34195E+01-1.39359E+00-3.17576E-03-9.37911E-02 6.22116E-14 2.52602E-13
 -1       512 2.40180E+01-1.45305E+00-3.86591E-03-1.02318E+00-5.90992E-14 4.18133E-13
 -1       513 2.43202E+01-8.48700E-01-7.96133E-03-1.93919E+00-1.58742E-13 4.64402E-13
 -1       514 2.41528E+01 5.15107E-01-1.53062E-02-2.30166E+00-2.58437E-13 2.01359E-13
 -1       515 2.36839E+01 2.07882E+00-2.29429E-02-1.57970E+00-3.66758E-13 1.29420E-14
 -1       516 2.34424E+01 2.72122E+00-2.82392E-02 7.23705E-02-1.54028E-13-2.92028E-13
 -1       517 2.37220E+01 1.88685E+00-2.25930E-02 1.63936E+00 7.89039E-15-3.78583E-13
 -1       518 2.41577E+01 2.79226E-01-1.52695E-02 2.19570E+00-2.08215E-14-1.20885E-13
 -1       519 2.42415E+01-1.00767E+00-7.26852E-03 1.71038E+00-1.51700E-13 3.57008E-14
 -1       520 2.38570E+01-1.50770E+00-3.28722E-03 7.47199E-01 2.97244E-13-1.51131E-13
 -1       521 2.32141E+01-1.39027E+00-2.80722E-03-1.78414E-01 2.48450E-13-2.14878E-13
 -1       522 2.25361E+01-9.94908E-01-2.82304E-03-8.46313E-01 5.88959E-14-3.36367E-13
 -1       523 2.19429E+01-5.66903E-01-1.94404E-03-1.23298E+00 7.79492E-14-1.31390E-13
 -1       524 2.14640E+01-2.18189E-01-9.84908E-04-1.39395E+00 1.98242E-13-2.23971E-13
 -1       525 2.10849E+01 3.26731E-02-1.78453E-04-1.39508E+00 3.76313E-13-1.96798E-13
 -1       526 2.07812E+01 2.07780E-01 3.78476E-04-1.28781E+00-5.27631E-14 1.04141E-13
 -1       527 2.05327E+01 3.40256E-01 9.14858E-04-1.10369E+00-3.70874E-13-2.70546E-13
 -1       528 1.98057E+01 1.29374E-01 9.89171E-04-1.81084E-02 1.04124E-13 5.49981E-14
 -1       529 1.97481E+01 6.07036E-02 3.72933E-04-1.17461E-01 9.61697E-14 1.59795E-14
 -1       530 1.97304E+01 1.99654E-02 9.86373E-05-1.67255E-01 8.66929E-14-3.43281E-15
 -1       531 1.97384E+01-3.30283E-03-3.18563E-05-1.86665E-01 6.88722E-14 1.68263E-14
 -1       532 1.97622E+01-1.50704E-02-9.12625E-05-1.88482E-01 8.40638E-14 8.67330E-14
 -1       533 1.97951E+01-1.89504E-02-1.09327E-04-1.81477E-01 7.77921E-14 3.92324E-14
 -1       534 1.98334E+01-1.72114E-02-9.87693E-05-1.71845E-01 8.16434E-14 5.65924E-14
 -1       535 1.98749E+01-1.12768E-02-6.71049E-05-1.64110E-01 2.45257E-14 2.15582E-14
 -1       536 1.99195E+01-2.00131E-03-1.88810E-05-1.61728E-01 4.39226E-14-2.69244E-14
 -1       537 1.99678E+01 1.01510E-02 4.32607E-05-1.67501E-01 3.96834E-14-2.33211E-14
 -1       538 2.00215E+01 2.49714E-02 1.17886E-04-1.83857E-01 4.29964E-14 3.48303E-14
 -1       539 2.00832E+01 4.23795E-02 2.04106E-04-2.13012E-01 1.80433E-14 1.42861E-13
 -1       540 2.01559E+01 6.22770E-02 3.00538E-04-2.57027E-01 8.00826E-14 2.67016E-13
 -1       541 2.02429E+01 8.43507E-02 4.04063E-04-3.17720E-01 4.86154E-14 3.03917E-13
 -1       542 2.03483E+01 1.07783E-01 5.07980E-04-3.96411E-01-4.49760E-14 2.31005E-13
 -1       543 2.04759E+01 1.30812E-01 5.99319E-04-4.93400E-01-6.00772E-14 1.76596E-13
 -1       544 2.06301E+01 1.50087E-01 6.55150E-04-6.07101E-01-2.20801E-14-8.18251E-14
 -1       545 2.08151E+01 1.59744E-01 6.38219E-04-7.32670E-01 7.67468E-14-6.95457E-14
 -1       546 2.10354E+01 1.50256E-01 4.93128E-04-8.59995E-01-1.00734E-14-1.16452E-14
 -1       547 2.12962E+01 1.07341E-01 1.46718E-04-9.70979E-01-8.29716E-14-9.66787E-14
 -1       548 2.16038E+01 1.18776E-02-4.78569E-04-1.03631E+00-8.19198E-14-9.57468E-15
 -1       549 2.19652E+01-1.56999E-01-1.42086E-03-1.01259E+00 6.24195E-14-7.39854E-15
 -1       550 2.23856E+01-4.11247E-01-2.52687E-03-8.42237E-01-2.37696E-14 1.18286E-13
 -1       551 2.28562E+01-7.29729E-01-3.34012E-03-4.62361E-01-1.71362E-14 1.34592E-13
 -1       552 2.33322E+01-1.02170E+00-3.68980E-03 1.64536E-01 3.32553E-14 3.17741E-13
 -1       553 2.37102E+01-1.10248E+00-3.83937E-03 9.89905E-01 1.41160E-13 3.99159E-13
 -1       554 2.38258E+01-7.24995E-01-4.26130E-03 1.79457E+00 3.29689E-14 2.54046E-13
 -1       555 2.35757E+01 2.06083E-01-5.98684E-03 2.14484E+00-2.09379E-13 3.02731E-13
 -1       556 2.30896E+01 1.37242E+00-9.59134E-03 1.62568E+00 6.88954E-14 3.33979E-13
 -1       557 2.27788E+01 2.02763E+00-6.52725E-03 2.61163E-01 3.52001E-13 2.83924E-13
 -1       558 2.29317E+01 1.64065E+00-1.17313E-02-1.21841E+00 3.64183E-13 2.69161E-13
 -1       559 2.33960E+01 5.23438E-01-7.44509E-03-2.00017E+00 2.66225E-13 2.56767E-13
 -1       560 2.37140E+01-5.37321E-01-4.02932E-03-1.85019E+00 1.04199E-13 6.60259E-14
 -1       561 2.36648E+01-1.07961E+00-3.80166E-03-1.10266E+00-1.64694E-13-1.17298E-13
 -1       562 2.33063E+01-1.10692E+00-4.88059E-03-2.30569E-01-3.88450E-13-1.15594E-13
 -1       563 2.28043E+01-8.50063E-01-4.43209E-03 4.83676E-01-8.29067E-14 3.17996E-13
 -1       564 2.22841E+01-5.22105E-01-3.29521E-03 9.49958E-01 2.34253E-14 1.46729E-13
 -1       565 2.18050E+01-2.36061E-01-1.88310E-03 1.18718E+00-1.33564E-14 2.57369E-14
 -1       566 2.13836E+01-2.36496E-02-6.22927E-04 1.24907E+00 2.03124E-13 1.96911E-13
 -1       567 2.10192E+01 1.25637E-01 4.25064E-04 1.18736E+00 2.23585E-13 1.94428E-13
 -1       568 2.07072E+01 2.37089E-01 1.60271E-03 1.04023E+00 1.29329E-13 4.93701E-13
 -1       569 2.04362E+01 3.30132E-01 2.00336E-03 8.28205E-01-8.82843E-14 6.51841E-13
 -1       570 1.97467E+01 1.19442E+00-5.05978E-04 9.56764E-01 3.77587E-13 1.99406E-13
 -1       571 1.95696E+01 1.41851E+00-8.40899E-04 7.25444E-01 1.35529E-13 3.16797E-13
 -1       572 2.01712E+01 6.60401E-01 4.22542E-04 1.02909E+00-1.58534E-13 1.95591E-13
 -1       573 1.99546E+01 9.32393E-01-1.33314E-04 1.05896E+00-1.83150E-13 2.33835E-13
 -1       574 1.94492E+01 1.57009E+00-1.09916E-03 3.91114E-01 5.23664E-14 5.29752E-15
 -1       575 1.94062E+01 1.62391E+00-1.20342E-03-1.06173E-03 4.27583E-14 2.34360E-13
 -1       576 1.94492E+01 1.57003E+00-1.11991E-03-3.93367E-01-9.63849E-14-2.33630E-13
 -1       577 1.95671E+01 1.42163E+00-8.56525E-04-7.22976E-01 3.75233E-14-2.48347E-13
 -1       578 1.97439E+01 1.19808E+00-5.43117E-04-9.56303E-01 2.72522E-13 2.16821E-13
 -1       579 1.99505E+01 9.32868E-01-1.40402E-04-1.06203E+00 1.04000E-13 3.68945E-13
 -1       580 2.01706E+01 6.57548E-01 3.04694E-04-1.02787E+00 1.40477E-14 5.01959E-13
 -1       581 1.79090E+01-5.49206E+00 6.61207E-02 6.63725E+00-5.72063E-13 4.08026E-13
 -1       582 5.07097E+00-1.82537E+00 1.62747E-01-2.42507E+00 8.85403E-14 5.13645E-13
 -1       583 1.99207E+01 2.45792E-01 2.33913E-03 1.60661E-01 1.41513E-13 1.25298E-13
 -1       584 5.42685E+00-1.47128E+00 1.87676E-01 2.07360E+00 1.40981E-14 1.76859E-13
 -1       585 8.86553E+00-3.14866E+00 1.43157E-01-5.70699E+00-1.25094E-13 5.76539E-13
 -1       586 2.03952E+01 1.75552E+00-5.96359E-03-1.53899E+00-2.24032E-13-3.57170E-14
 -1       587 2.44650E+01-5.42009E+00 7.62049E-03 4.49333E+00-7.34204E-14 2.70929E-13
 -1       588 3.04145E+01 5.44721E+00-1.76173E-01-1.64883E+00-8.30641E-13 6.61832E-13
 -1       589 1.14438E+01-2.97441E+00 1.62826E-01-6.03201E+00-2.73698E-13-2.62707E-13
 -1       590 1.96858E+01 3.19769E+00-5.10248E-03-3.13299E-01 1.51834E-14-2.13008E-13
 -1       591 2.94882E+01-6.87756E-01-1.26909E-01 1.05450E+00 4.21180E-13 2.08139E-13
 -1       592 3.00637E+01 6.99279E+00-1.83275E-01 6.70880E-01 3.57867E-13 1.14074E-13
 -1       593 3.04592E+01 4.51392E+00-1.37022E-01 1.91396E+00 5.57804E-13 2.60771E-13
 -1       594 2.59894E+01-4.79781E+00-1.47231E-02-3.03407E+00 1.34052E-13 3.37109E-13
 -1       595 2.01825E+01-5.44520E+00 5.13028E-02-5.82193E+00-1.38764E-13-1.96959E-13
 -1       596 5.70326E+00-1.54573E+00 1.66458E-01-2.85913E+00-1.33619E-13-2.54560E-13
 -1       597 5.86194E+00-1.04801E+00 1.92207E-01 2.05799E+00 1.57159E-13-3.02952E-13
 -1       598 9.30937E+00-2.88040E+00 1.42905E-01 5.68124E+00 5.02411E-13-4.35603E-13
 -1       599 1.72089E+01-4.84386E+00 1.10203E-01 6.47629E+00 6.38663E-13-1.67297E-13
 -1       600 2.41844E+01-5.46761E+00 1.67026E-02 4.21517E+00 3.50407E-13 2.53915E-13
 -1       601 2.87523E+01-2.95216E+00-5.81879E-02 7.60747E-01-1.56772E-13 7.96710E-13
 -1       602 3.00204E+01 1.47093E+00-1.34068E-01-1.83569E+00-6.93515E-13 1.00119E-12
 -1       603 1.49335E+01-4.74732E+00 1.08241E-01-6.83000E+00-1.83020E-13 4.05814E-13
 -1       604 3.03308E+01 4.53414E+00-1.65184E-01 1.75511E+00-4.32793E-13 3.23332E-13
 -1       605 3.01177E+01-2.67122E-02-1.01201E-01 1.01871E+00-2.57332E-13 5.96634E-13
 -1       606 2.81055E+01-3.77956E+00-4.16437E-02-1.78569E+00-1.78923E-13 7.09002E-13
 -1       607 2.31614E+01-5.62566E+00 1.66906E-02-4.92817E+00-1.97405E-13 8.00774E-13
 -1       608 2.05814E+01 1.30511E+00-1.00383E-03 1.54962E+00 2.65051E-13 2.64482E-13
 -1       609 2.90390E+01-2.74572E+00-5.81931E-02 7.10309E-01 2.04582E-13 1.13361E-13
 -1       610 1.99743E+01 2.64884E+00-9.82918E-03-1.24073E+00-1.53660E-13-1.98196E-13
 -1       611 1.47850E+01-3.96539E+00 1.24882E-01 6.43651E+00-5.44537E-13 7.66442E-13
 -1       612 2.03881E+01 4.14668E-01 1.28216E-03-9.41641E-01-1.63356E-13-3.90893E-13
 -1       613 8.75717E+00-1.63114E+00 1.66234E-01 4.28330E+00 5.69128E-14 5.68420E-13
 -1       614 2.84614E+01 5.66635E+00-1.77644E-01 1.35489E+00-5.44072E-13-1.31062E-13
 -1       615 1.67071E+01-3.72369E+00 8.96457E-02-5.82265E+00-2.67276E-13 6.48717E-14
 -1       616 2.00712E+01-5.07913E+00 6.86116E-02-5.64071E+00 6.10345E-14 5.88255E-13
 -1       617 2.81650E+01 6.24714E+00-1.63070E-01-9.51026E-01-6.95305E-13 1.71863E-13
 -1       618 2.86765E+01 2.94729E+00-1.57898E-01-2.26345E+00 3.67734E-13 1.35801E-13
 -1       619 2.79133E+01 6.14983E+00-1.66116E-01-6.49495E-01 5.53828E-13 4.60764E-14
 -1       620 2.77185E+01-3.27422E+00-3.68284E-02 3.34142E-02 3.42599E-13 3.66054E-13
 -1       621 1.99653E+01 2.44946E+00-1.57128E-03 3.94884E-01 1.25400E-13-1.41534E-13
 -1       622 1.99341E+01 2.52418E+00-1.52662E-03 1.35931E-01 7.66293E-14-1.97634E-13
 -1       623 2.01287E+01 2.04290E+00-9.35616E-04 8.55458E-01 2.04733E-13-1.12478E-13
 -1       624 2.02374E+01 1.68181E+00-1.74596E-03 9.96471E-01 2.11218E-13-5.26616E-14
 -1       625 2.03180E+01 1.03636E+00 2.46984E-03 8.34834E-01 2.06446E-13 4.52794E-14
 -1       626 2.78458E+01-1.91912E+00-6.89871E-02-1.10069E+00 4.60899E-14 2.44808E-13
 -1       627 2.02066E+01 6.15060E-01 1.13025E-03 4.24091E-01 1.71960E-13 3.71936E-14
 -1       628 2.79391E+01 1.50107E+00-1.23339E-01 2.43923E+00 3.77934E-13 6.73669E-13
 -1       629 2.02397E+01 6.74596E-01 4.47627E-04-3.96325E-01-1.11281E-13-2.52922E-14
 -1       630 2.01677E+01 3.92967E-01 2.26886E-04-1.41197E-01-1.09104E-13-2.78808E-14
 -1       631 2.01030E+01 2.14937E-01 7.44466E-05 2.18266E-02-6.52619E-14-7.19930E-14
 -1       632 2.00537E+01 1.02778E-01 8.76681E-06 1.18891E-01-1.13868E-13-1.28330E-13
 -1       633 2.00201E+01 3.41454E-02-1.20944E-05 1.70977E-01-1.00016E-13-1.10743E-13
 -1       634 1.99996E+01-4.86558E-03-2.15463E-05 1.94200E-01-1.78154E-14-6.62883E-14
 -1       635 1.99893E+01-2.32078E-02-2.44599E-05 2.00538E-01-1.62492E-14-1.03718E-13
 -1       636 1.99867E+01-2.67496E-02-2.25495E-05 1.98841E-01-4.66063E-14-7.04035E-14
 -1       637 1.99898E+01-1.93352E-02-1.67422E-05 1.95703E-01-7.03042E-14-6.20390E-14
 -1       638 1.99974E+01-3.41963E-03-7.73848E-06 1.96148E-01-1.03488E-13-5.85521E-15
 -1       639 2.00085E+01 1.95161E-02 4.02240E-06 2.04146E-01-2.89295E-14-2.45703E-14
 -1       640 2.00228E+01 4.86540E-02 1.83542E-05 2.22993E-01 2.75027E-14 2.22614E-14
 -1       641 2.00402E+01 8.35615E-02 3.53430E-05 2.55563E-01-8.23058E-14 7.09142E-14
 -1       642 2.00606E+01 1.23903E-01 5.49929E-05 3.04441E-01-1.64533E-13 1.06206E-13
 -1       643 2.00844E+01 1.69086E-01 7.71022E-05 3.71939E-01-8.86498E-14 1.97418E-14
 -1       644 2.01119E+01 2.17773E-01 1.01172E-04 4.59966E-01-3.39405E-14-4.76880E-14
 -1       645 2.01441E+01 2.67202E-01 1.25930E-04 5.69729E-01-1.23211E-13 2.58111E-14
 -1       646 2.01825E+01 3.12211E-01 1.48658E-04 7.01254E-01 4.47572E-14-1.29014E-13
 -1       647 2.02305E+01 3.43853E-01 1.64219E-04 8.52647E-01 1.33351E-13-2.28533E-13
 -1       648 2.02950E+01 3.47587E-01 1.63180E-04 1.01904E+00-2.00110E-14-2.30812E-13
 -1       649 2.03886E+01 3.01194E-01 1.28303E-04 1.19104E+00-1.47691E-13-2.63787E-13
 -1       650 2.05347E+01 1.73168E-01 3.51161E-05 1.35243E+00-1.81097E-13-2.58833E-13
 -1       651 2.07716E+01-7.64396E-02-1.54157E-04 1.47622E+00 5.28603E-14-1.09672E-13
 -1       652 2.11573E+01-4.88038E-01-3.95854E-04 1.51776E+00 1.45639E-13-8.43777E-14
 -1       653 2.17650E+01-1.07721E+00-8.06566E-04 1.40244E+00 1.14094E-13 2.83746E-14
 -1       654 2.26555E+01-1.77385E+00 2.26618E-04 1.02532E+00 1.33548E-13 1.22597E-13
 -1       655 2.38032E+01-2.33284E+00-9.84230E-04 2.48210E-01 1.81382E-13 2.73553E-13
 -1       656 2.49855E+01-2.24146E+00-1.10362E-02-9.41134E-01 4.03563E-14 3.63012E-13
 -1       657 2.57108E+01-8.22142E-01-3.64933E-02-2.16376E+00-4.03016E-13 4.57626E-13
 -1       658 2.56966E+01 1.87080E+00-7.37001E-02-2.47145E+00-5.47238E-13 2.27600E-13
 -1       659 2.52252E+01 4.01415E+00-9.29392E-02 1.22028E+00-2.56017E-13-2.09158E-13
 -1       660 2.56466E+01 1.44661E+00-6.49494E-02 2.40314E+00 3.64327E-14-5.15445E-13
 -1       661 2.56118E+01-1.12741E+00-3.04717E-02 1.95024E+00 1.32793E-13-5.53555E-13
 -1       662 2.48173E+01-2.34353E+00-5.26609E-03 6.42342E-01 2.19960E-13-1.06865E-13
 -1       663 2.36163E+01-2.32382E+00 8.77593E-04-5.28530E-01 1.68522E-13-4.97393E-14
 -1       664 2.24950E+01-1.73444E+00-9.06341E-04-1.26864E+00 8.90591E-15 1.79791E-14
 -1       665 2.16396E+01-1.03904E+00-8.31103E-04-1.63300E+00 1.20195E-13-1.63557E-13
 -1       666 2.10629E+01-4.61139E-01-4.86730E-04-1.74194E+00 1.63693E-13-2.12709E-13
 -1       667 2.06951E+01-4.18256E-02-9.17925E-05-1.69765E+00 4.20757E-13-2.39871E-13
 -1       668 2.04652E+01 2.45692E-01 1.79868E-04-1.56040E+00 1.81988E-13-5.93802E-13
 -1       669 2.03157E+01 4.48811E-01 3.23929E-04-1.36363E+00-2.66220E-13-3.56368E-13
 -1       670 1.99736E+01 9.11055E-02 7.15560E-05-1.20342E-01 1.12273E-13-2.90735E-15
 -1       671 1.00081E+01-9.21767E-01 1.18975E-01 3.87643E+00 1.66192E-13-2.68910E-13
 -1       672 2.00263E+01 1.91100E-01 2.13847E-04-2.02493E-02 1.28028E-13-7.66716E-15
 -1       673 1.99298E+01-4.36060E-03-1.65408E-05-1.95806E-01 3.43149E-14 4.65646E-14
 -1       674 1.99285E+01-2.11442E-02-3.06817E-05-2.00922E-01 1.06822E-13 4.05612E-14
 -1       675 1.99357E+01-2.52529E-02-3.30289E-05-1.97490E-01 8.18320E-14 7.03089E-14
 -1       676 1.99489E+01-2.00849E-02-2.67096E-05-1.92143E-01 6.42499E-14 2.98231E-14
 -1       677 1.99667E+01-7.79651E-03-1.35735E-05-1.89878E-01 5.95668E-14 8.56892E-14
 -1       678 1.99883E+01 1.03126E-02 4.95509E-06-1.94606E-01 5.02166E-14 4.64670E-14
 -1       679 2.00139E+01 3.35282E-02 2.81438E-05-2.09554E-01-1.04080E-14 6.02654E-14
 -1       680 2.00437E+01 6.14904E-02 5.58535E-05-2.37530E-01-3.18846E-14 1.29599E-13
 -1       681 2.00788E+01 9.39558E-02 8.79293E-05-2.81065E-01-1.70960E-15 1.59580E-13
 -1       682 2.01200E+01 1.30514E-01 1.23911E-04-3.42430E-01 2.71736E-14 1.68036E-13
 -1       683 2.01689E+01 1.70199E-01 1.62539E-04-4.23508E-01-2.28395E-14 2.15776E-13
 -1       684 2.02270E+01 2.10927E-01 2.01132E-04-5.25471E-01-2.30831E-14 2.47408E-13
 -1       685 2.02967E+01 2.48687E-01 2.34558E-04-6.48228E-01 4.73251E-14 1.84312E-13
 -1       686 2.03815E+01 2.76374E-01 2.53782E-04-7.89548E-01 1.74784E-14 1.30944E-13
 -1       687 2.04869E+01 2.82249E-01 2.43390E-04-9.43772E-01 1.12570E-13 2.88635E-13
 -1       688 2.06231E+01 2.48142E-01 1.77568E-04-1.09996E+00-8.93213E-16 2.76531E-13
 -1       689 2.08071E+01 1.48086E-01 1.49279E-05-1.23929E+00-9.05548E-14 1.25780E-13
 -1       690 2.10664E+01-5.08772E-02-2.95758E-04-1.33152E+00-8.63009E-14 1.58560E-13
 -1       691 2.14418E+01-3.81930E-01-7.65868E-04-1.33018E+00-3.44223E-14 3.15418E-13
 -1       692 2.19822E+01-8.57625E-01-1.05135E-03-1.16631E+00-7.64578E-15 3.60259E-13
 -1       693 2.27194E+01-1.42003E+00-3.63199E-04-7.48897E-01-2.52814E-15 3.23900E-13
 -1       694 2.36120E+01-1.86887E+00-5.50379E-05-2.40420E-03-8.12544E-15 4.32218E-13
 -1       695 2.44827E+01-1.83758E+00-6.74239E-03 1.05882E+00 9.99943E-14 4.98334E-13
 -1       696 2.49874E+01-8.19219E-01-1.21311E-02 2.11935E+00 2.30818E-14 3.70871E-13
 -1       697 2.47569E+01 1.20023E+00-5.15668E-02 2.43479E+00-5.10893E-14 2.99587E-15
 -1       698 2.44687E+01 3.05533E+00-4.57479E-02 1.33524E+00 2.06718E-13-2.33208E-14
 -1       699 2.42306E+01 3.44308E+00-6.80782E-02-7.15118E-01 3.73271E-13-1.05747E-13
 -1       700 2.45747E+01 1.81635E+00-4.95914E-02-2.18776E+00 4.87626E-13-2.28471E-13
 -1       701 2.49750E+01-3.73046E-01-1.50863E-02-2.18229E+00 1.54870E-13-1.94735E-13
 -1       702 2.46207E+01-1.71412E+00-7.71875E-03-1.23003E+00-2.35941E-14 2.01369E-13
 -1       703 2.38117E+01-1.98302E+00-3.13632E-03-1.09479E-01-2.60355E-13 3.19197E-13
 -1       704 2.28785E+01-1.61784E+00-1.81199E-03 7.60223E-01-2.84654E-13 9.95310E-14
 -1       705 2.20745E+01-1.05494E+00-1.41670E-03 1.28368E+00 6.94146E-14 1.01121E-13
 -1       706 2.14669E+01-5.35934E-01-9.38773E-04 1.52677E+00 1.46650E-13 1.17569E-13
 -1       707 2.10352E+01-1.40839E-01-4.41979E-04 1.57673E+00 1.90429E-13-2.17341E-13
 -1       708 2.07310E+01 1.36249E-01-4.82782E-06 1.50075E+00 3.08578E-13-4.11425E-13
 -1       709 2.05100E+01 3.31853E-01 5.04266E-04 1.34141E+00-9.68318E-14-1.20995E-13
 -1       710 2.03153E+01 4.96337E-01 5.88842E-04 1.20552E+00-1.77819E-13 8.07300E-14
 -1       711 1.90282E+01 1.43390E+00-4.77526E-04 2.47284E-01 5.65484E-14 2.26080E-13
 -1       712 2.02394E+01 5.58685E-01 6.81088E-04-1.20536E+00-1.71547E-13 2.32403E-13
 -1       713 1.94270E+01 1.13058E+00-2.17154E-04 1.05173E+00 1.87686E-13-1.22385E-13
 -1       714 1.90281E+01 1.43419E+00-4.45860E-04-2.49250E-01 1.36543E-14-1.85680E-13
 -1       715 1.91716E+01 1.32422E+00-2.67028E-04 7.03773E-01 1.01042E-13 2.16853E-13
 -1       716 2.01070E+01 3.49901E-01 3.12873E-04 1.50930E-01 1.57837E-13 2.37648E-15
 -1       717 1.91678E+01 1.32770E+00-2.81563E-04-6.98868E-01 6.34573E-14-1.75517E-13
 -1       718 1.94225E+01 1.13501E+00-2.11171E-04-1.04955E+00 2.46734E-13-4.92917E-14
 -1       719 1.97479E+01 8.94719E-01-3.09843E-04-1.24793E+00 8.12653E-14 7.11124E-14
 -1       720 9.70565E+00-9.98155E-01 1.50913E-01-3.79270E+00 4.67491E-14 7.85497E-13
 -1       721 2.02804E+01 1.67875E+00 8.95593E-05-1.14267E+00-1.72127E-13-8.88174E-14
 -1       722 2.73719E+01 2.85832E+00-1.36086E-01-2.52565E+00-6.48682E-13 4.45862E-13
 -1       723 1.31786E+01-2.65503E+00 1.18468E-01-5.68574E+00 4.03184E-14 1.67109E-13
 -1       724 2.81286E+01-1.44674E+00-7.09529E-02-1.44578E+00-5.52808E-13 6.18471E-13
 -1       725 2.18398E+01-4.82887E+00 2.87022E-02 4.38318E+00 3.65921E-13-1.32398E-13
 -1       726 1.99432E+01 3.03383E-02 1.17928E-05-1.73106E-01 5.12513E-14 1.49871E-14
 -1       727 2.02904E+01 1.07652E+00-1.54005E-04-7.25178E-01-1.37117E-13-5.19977E-14
 -1       728 2.00303E+01 2.29375E+00-1.26784E-03 6.41787E-01 1.64858E-13-9.84467E-14
 -1       729 2.00229E+01 2.30504E+00-1.58141E-03-6.30823E-01-7.61543E-14-1.74560E-13
 -1       730 2.72321E+01 4.88581E+00-1.55673E-01 1.77358E+00 2.57669E-13 3.10987E-13
 -1       731 1.02234E+01-9.30749E-01 1.35578E-01-3.90230E+00-1.65245E-13-1.25205E-13
 -1       732 2.79141E+01 1.43635E+00-9.97989E-02 2.33554E+00-3.14158E-14-3.03507E-13
 -1       733 7.93964E+00-1.51374E-01 1.57236E-01-5.21122E-01 6.93087E-14 3.66908E-13
 -1       734 2.22623E+01-5.20008E+00 3.28479E-02 4.62674E+00-7.15660E-13 2.72218E-13
 -1       735 1.50260E+01-2.85966E+00 1.00732E-01 5.61050E+00 3.96540E-13-2.84741E-13
 -1       736 2.63670E+01-4.52628E+00-2.00658E-02 1.76390E+00-2.40915E-13 1.69448E-13
 -1       737 2.77194E+01-2.59970E+00-6.69615E-02 6.82480E-01 1.63809E-13-6.69256E-15
 -1       738 2.37717E+01-4.93716E+00 1.23142E-02-3.28271E+00-2.35489E-13 1.28912E-13
 -1       739 2.58767E+01-4.66163E+00-1.90763E-02-2.02638E+00 2.44384E-13 2.36318E-13
 -1       740 2.64160E+01-4.35456E+00-2.11617E-02 1.38760E+00-4.23142E-14 2.74471E-13
 -1       741 8.21113E+00 1.16255E-01 1.44263E-01-4.62289E-01 1.80884E-13-8.63337E-14
 -1       742 2.01219E+01 2.06293E+00-1.12514E-03-8.55624E-01-1.05478E-13-1.65512E-13
 -1       743 1.99331E+01 2.52583E+00-1.51482E-03-1.26725E-01 4.06310E-14-1.79908E-13
 -1       744 9.22497E+00-8.85357E-02 1.31537E-01 1.72223E+00 1.16409E-13 3.25934E-13
 -1       745 2.72318E+01-9.76743E-01-6.00968E-02 1.91830E+00 2.60294E-13 8.34440E-13
 -1       746 1.97504E+01 8.91516E-01-4.00967E-04 1.24768E+00 2.30914E-13 6.84420E-13
 -1       747 1.93901E+01-4.18890E+00 6.80684E-02 5.25477E+00-4.96943E-13 6.31734E-14
 -1       748 2.53080E+01 4.17672E+00-8.64140E-02-1.05186E+00-5.38868E-13 1.06787E-13
 -1       749 1.04137E+01 3.31275E-01 8.63114E-02 1.69367E+00 6.29202E-14-2.45162E-13
 -1       750 2.35153E+01-4.69426E+00 2.64227E-02-3.27660E+00 3.51722E-13-1.46601E-14
 -1       751 2.00422E+01 6.91760E-01 1.32695E-04 1.27851E+00-1.75830E-13 2.40530E-13
 -1       752 2.05485E+01-3.85932E+00 2.80693E-02-4.27842E+00-2.86755E-13 1.67750E-13
 -1       753 1.93404E+01-3.51282E+00 3.86774E-02 4.62189E+00 4.13459E-13-1.77252E-13
 -1       754 2.00037E+01 6.65353E-01 1.81243E-04-1.35317E+00 1.21053E-13 5.81049E-13
 -1       755 1.28989E+01-2.09596E+00 1.13660E-01 5.21456E+00-3.04068E-13 5.36314E-13
 -1       756 1.41533E+01-1.81314E+00 8.03419E-02-4.81239E+00-2.76744E-13-1.15980E-13
 -1       757 1.72951E+01-3.41929E+00 6.94800E-02-5.45926E+00 1.83216E-13 3.53852E-13
 -1       758 1.99625E+01 2.45482E+00-1.54960E-03-3.85032E-01-2.14253E-14-1.62683E-13
 -1       759 2.73011E+01 1.70807E-01-8.27570E-02-2.20768E+00 1.75089E-13 1.71738E-16
 -1       760 2.02882E+01 1.06222E+00-6.73922E-04 6.09033E-01 1.82700E-13-4.92878E-14
 -1       761 2.02647E+01 4.35858E-01-2.64640E-06-9.47467E-02-1.00158E-13-8.45301E-14
 -1       762 2.02255E+01 2.39563E-01-1.14963E-05 3.71281E-02-1.32401E-13-5.80739E-14
 -1       763 2.01848E+01 1.12763E-01-1.04372E-05 1.17117E-01-1.18971E-13-6.06413E-14
 -1       764 2.01480E+01 3.49544E-02-9.22013E-06 1.61087E-01-4.55575E-14-5.67525E-14
 -1       765 2.01168E+01-8.03841E-03-8.36032E-06 1.81677E-01-3.79046E-14-1.01320E-13
 -1       766 2.00913E+01-2.59247E-02-7.41690E-06 1.88852E-01-4.10827E-14-4.91307E-14
 -1       767 2.00709E+01-2.53347E-02-5.96400E-06 1.90292E-01-4.75751E-14-1.92306E-14
 -1       768 2.00545E+01-1.07064E-02-3.95206E-06 1.91903E-01-9.90773E-15 2.65693E-14
 -1       769 2.00411E+01 1.51051E-02-1.45688E-06 1.98298E-01-3.64928E-14 7.00555E-14
 -1       770 2.00294E+01 5.03801E-02 1.41008E-06 2.13201E-01-6.99019E-14 3.74833E-14
 -1       771 2.00180E+01 9.41412E-02 4.95641E-06 2.39759E-01-5.26204E-14-1.34003E-14
 -1       772 2.00056E+01 1.45781E-01 9.33335E-06 2.80736E-01-8.62281E-14 1.26919E-14
 -1       773 1.99907E+01 2.04662E-01 1.45085E-05 3.38627E-01-1.43955E-13 5.93891E-14
 -1       774 1.99716E+01 2.69594E-01 2.07020E-05 4.15677E-01-1.03583E-13 3.40986E-14
 -1       775 1.99471E+01 3.38156E-01 2.82478E-05 5.13806E-01-3.72432E-14 1.06453E-14
 -1       776 1.99164E+01 4.05775E-01 3.75073E-05 6.34468E-01-7.66124E-14 1.41174E-13
 -1       777 1.98798E+01 4.64452E-01 4.90405E-05 7.78493E-01-2.58527E-14 6.01264E-14
 -1       778 1.98410E+01 5.01009E-01 6.30479E-05 9.45914E-01 5.95637E-14-1.91034E-14
 -1       779 1.98086E+01 4.94859E-01 7.69237E-05 1.13579E+00-1.14166E-13-1.10173E-13
 -1       780 1.98012E+01 4.15428E-01 7.88455E-05 1.34580E+00-1.19367E-13-2.64458E-14
 -1       781 1.98535E+01 2.19955E-01 6.81607E-05 1.57086E+00-9.00906E-14 6.54510E-14
 -1       782 2.00255E+01-1.46441E-01 5.12330E-05 1.79876E+00 4.27283E-14-3.63915E-14
 -1       783 2.04142E+01-7.43654E-01 2.29463E-04 1.99923E+00 1.33299E-13-1.20324E-13
 -1       784 2.11673E+01-1.60051E+00-2.64642E-04 2.07115E+00 2.31249E-13 5.44426E-14
 -1       785 2.24197E+01-2.63682E+00 4.26210E-03 1.87917E+00 2.13275E-13 2.46978E-13
 -1       786 2.42598E+01-3.43141E+00 1.01418E-02 1.11398E+00 2.18017E-13 3.39757E-13
 -1       787 2.59926E+01-3.19596E+00-3.37459E-02 7.12627E-02 3.16652E-13-5.28818E-13
 -1       788 2.40732E+01-3.45472E+00 1.33860E-02-1.38535E+00 3.37611E-13-2.94201E-13
 -1       789 2.23044E+01-2.58176E+00-3.30195E-03-2.06998E+00 2.74611E-13-1.14291E-13
 -1       790 2.11150E+01-1.54741E+00 6.09252E-04-2.26685E+00 1.25498E-13 7.32433E-14
 -1       791 2.04444E+01-7.16394E-01 1.86216E-04-2.18093E+00-1.19499E-13 2.71514E-13
 -1       792 2.01046E+01-1.22423E-01 2.17663E-05-1.99548E+00 8.68545E-14 9.57107E-14
 -1       793 1.99707E+01 2.75060E-01 1.51333E-04-1.77007E+00 4.37191E-13 1.74801E-14
 -1       794 1.99827E+01 4.98592E-01 3.52311E-04-1.56150E+00 2.26650E-13 2.43973E-13
 -1       795 1.86349E+01 1.27005E+00-7.73172E-05-5.87947E-01 2.49463E-14-5.41577E-14
 -1       796 2.00490E+01-2.51360E-02-7.58499E-06-1.95860E-01 7.66078E-14-1.45761E-14
 -1       797 2.00678E+01-6.95538E-03-4.09190E-06-1.89143E-01 8.77499E-14 4.40542E-14
 -1       798 2.00289E+01-1.53080E-02-5.79928E-06-1.95460E-01-1.25376E-15 1.66779E-14
 -1       799 2.00250E+01 5.87570E-03-1.38960E-06-1.99397E-01 1.76994E-14-2.93890E-15
 -1       800 2.00239E+01 3.53987E-02 3.53406E-06-2.11565E-01-1.64689E-14 1.56949E-13
 -1       801 2.00245E+01 7.23568E-02 9.91613E-06-2.35205E-01-4.76135E-14 1.63298E-13
 -1       802 2.00262E+01 1.16216E-01 1.78089E-05-2.73155E-01-1.64567E-14 1.88454E-13
 -1       803 2.00281E+01 1.66457E-01 2.74892E-05-3.27964E-01-3.01690E-14 1.92638E-13
 -1       804 2.00295E+01 2.22140E-01 3.88361E-05-4.01893E-01-3.49315E-14 2.45598E-13
 -1       805 2.00300E+01 2.81299E-01 5.15003E-05-4.96810E-01-3.49366E-14 2.94844E-13
 -1       806 2.00294E+01 3.40108E-01 6.51494E-05-6.13953E-01 2.70584E-14 3.27678E-13
 -1       807 2.00290E+01 3.91714E-01 7.96078E-05-7.53578E-01-2.71032E-14 4.03977E-13
 -1       808 2.00324E+01 4.24636E-01 9.36018E-05-9.14476E-01-1.38451E-14 4.17745E-13
 -1       809 2.00480E+01 4.20686E-01 1.02321E-04-1.09331E+00 4.64632E-14 3.59167E-13
 -1       810 2.00926E+01 3.52652E-01 8.75315E-05-1.28356E+00 5.94653E-14 2.76418E-13
 -1       811 2.01966E+01 1.82618E-01 3.22781E-06-1.47345E+00-5.60622E-14 3.01230E-13
 -1       812 2.04112E+01-1.36837E-01-1.98538E-04-1.64182E+00-1.18871E-13 1.66266E-13
 -1       813 2.08155E+01-6.54690E-01-4.23040E-04-1.74912E+00-4.44330E-14 2.23437E-13
 -1       814 2.15177E+01-1.39241E+00 3.78017E-04-1.71221E+00-1.89018E-13 3.36822E-13
 -1       815 2.26083E+01-2.24859E+00 4.04641E-03-1.37939E+00-1.03066E-13 5.55167E-13
 -1       816 2.40726E+01-2.91501E+00-2.50049E-03-5.90724E-01-3.21158E-14 7.34083E-13
 -1       817 2.56363E+01-2.62499E+00-1.79664E-02 8.13572E-01 6.56289E-14 9.32725E-13
 -1       818 2.45747E+01-3.04629E+00-3.47566E-03 3.94751E-01-1.57781E-13 1.11393E-13
 -1       819 2.30060E+01-2.54293E+00 3.30617E-03 1.39091E+00-2.81163E-13 2.28286E-13
 -1       820 2.17941E+01-1.69052E+00 9.40355E-04 1.85468E+00-8.76275E-14 1.34647E-15
 -1       821 2.09995E+01-8.97210E-01 8.92022E-05 1.97324E+00-4.12806E-14 1.02095E-13
 -1       822 2.05324E+01-2.95945E-01-3.41856E-05 1.91196E+00 2.00365E-13 2.30622E-13
 -1       823 2.02815E+01 1.21728E-01 1.59265E-04 1.76223E+00 3.29536E-13 2.59110E-13
 -1       824 2.01585E+01 4.02669E-01 7.52869E-05 1.56295E+00 1.78459E-13 3.45392E-13
 -1       825 2.00858E+01 5.52671E-01-5.99384E-04 1.42672E+00-1.51997E-13 1.65239E-13
 -1       826 2.42418E+01-4.13122E+00-2.30541E-03 1.97779E+00 1.88935E-13 2.58548E-13
 -1       827 2.01445E+01 1.88841E+00-6.71883E-04 1.99283E-01 8.88518E-14-1.35321E-13
 -1       828 1.89494E+01 1.08907E+00-8.54102E-05-1.07556E+00 2.22738E-13 1.80929E-13
 -1       829 1.85218E+01 1.33540E+00-5.69027E-04 4.66009E-03 1.39683E-15 8.92699E-14
 -1       830 1.39180E+01-9.88128E-01 7.11701E-02-4.08842E+00 2.90685E-13 1.75778E-13
 -1       831 1.15220E+01 1.01328E-01 8.27599E-02-2.28978E+00 8.08581E-14 7.03826E-13
 -1       832 2.00365E+01-2.65356E-02-8.24411E-06-1.95890E-01 6.78600E-14-6.51868E-15
 -1       833 2.01732E+01 2.27750E-01-7.15090E-06-3.30637E-02 1.12805E-13 8.38893E-15
 -1       834 2.40935E+01-4.31214E+00-2.11258E-03 2.37621E+00-5.07287E-13 4.80931E-13
 -1       835 2.73798E+01 3.23604E+00-1.30813E-01 2.17898E+00-3.38056E-13-3.22391E-13
 -1       836 2.02939E+01 7.32376E-01 1.05910E-04-2.94257E-01-1.06439E-13-8.30063E-14
 -1       837 2.62189E+01-2.88916E+00-3.71643E-02-6.85483E-01-1.51751E-13 5.39345E-13
 -1       838 2.60018E+01-3.32961E+00-2.19685E-02 5.95145E-02-1.76524E-13 2.30128E-14
 -1       839 1.93969E+01 8.43311E-01-5.43154E-04-1.38599E+00 4.07705E-13-6.52791E-14
 -1       840 2.54343E+01-3.63042E+00-1.56418E-02-6.19346E-01-7.42624E-14 6.77225E-13
 -1       841 1.42237E+01-8.79159E-01 6.85360E-02 4.01488E+00 2.44047E-13-1.82084E-13
 -1       842 1.09445E+01 2.73673E-01 8.22879E-02-2.02580E+00 1.19770E-13 4.54532E-14
 -1       843 2.01334E+01 1.92763E+00-4.01193E-04 3.68567E-03 4.55831E-14-1.46170E-13
 -1       844 1.17777E+01-4.29274E-01 8.56412E-02 3.28504E+00 8.17445E-14 1.65472E-13
 -1       845 2.02703E+01 1.34976E+00-1.18370E-04 5.20584E-01 1.33384E-13-8.30293E-14
 -1       846 1.94001E+01 8.40584E-01 4.76996E-04 1.38498E+00 1.06370E-13 2.09762E-13
 -1       847 2.21555E+01-3.87071E+00 3.43746E-02 3.39467E+00-3.90960E-13 5.02904E-13
 -1       848 1.16723E+01 7.79360E-01 5.16866E-02-1.13689E-01 1.43596E-14-2.17552E-13
 -1       849 2.74487E+01 4.87617E-02-5.79970E-02-2.24520E+00-5.59764E-13 4.35780E-13
 -1       850 2.02901E+01 1.12863E+00 6.37055E-04-5.39397E-01-8.68720E-14-7.97509E-14
 -1       851 2.01294E+01 1.07801E-01-1.49155E-05-1.20160E-01 6.36030E-14 2.90181E-14
 -1       852 2.10326E+01-3.83388E+00 2.58643E-02-4.08586E+00 3.65691E-13-1.11395E-13
 -1       853 2.02248E+01 4.12151E-01 3.79999E-05 1.11715E-01 1.14033E-13-7.47149E-15
 -1       854 2.00942E+01 3.42539E-02-3.07027E-06-1.67523E-01-3.39122E-15 4.48174E-14
 -1       855 2.62126E+01-2.03747E+00-2.41149E-02-1.28802E+00-2.24289E-13 8.55401E-14
 -1       856 1.89519E+01 1.08577E+00-8.51672E-05 1.07454E+00 2.51098E-13 2.03850E-13
 -1       857 2.01755E+01 1.77482E+00-1.18205E-03 3.79470E-01 1.23418E-13-9.66835E-14
 -1       858 1.86376E+01 1.26744E+00-5.10818E-04 5.92485E-01 1.54058E-13 1.08132E-14
 -1       859 1.80419E+01-2.57917E+00 3.24622E-02-4.37356E+00-2.92478E-13 4.44349E-15
 -1       860 1.70511E+01-2.72954E+00 6.17667E-02 5.00463E+00-5.71123E-13 3.05457E-13
 -1       861 1.33829E+01-3.52104E-01 5.26808E-02-3.33657E+00-1.51899E-13 9.91533E-14
 -1       862 1.13449E+01 5.43149E-01 7.58491E-02-5.77788E-01 2.31482E-14 4.30826E-13
 -1       863 1.96790E+01 6.66322E-01 4.65840E-04-1.50742E+00 4.29865E-13 8.26839E-14
 -1       864 1.73964E+01-1.73491E+00 1.92811E-02 3.98765E+00 2.97322E-13 8.91145E-14
 -1       865 2.01743E+01 1.78265E+00-2.49483E-04-3.76421E-01-4.96376E-14-1.25055E-13
 -1       866 2.02164E+01 1.59281E+00-1.55744E-03-5.29321E-01-7.85896E-14-1.65912E-13
 -1       867 2.02821E+01 7.79954E-01-1.95116E-04 3.74811E-01 1.67133E-13-3.79740E-14
 -1       868 2.03095E+01 2.36805E-01-3.05785E-05 5.03867E-02-1.04895E-13-6.11160E-14
 -1       869 2.02732E+01 1.07235E-01-7.80605E-06 1.09433E-01-8.96753E-14-6.53809E-15
 -1       870 2.02332E+01 2.88015E-02-5.02939E-06 1.42233E-01-4.88803E-14-1.45693E-14
 -1       871 2.01934E+01-1.20559E-02-4.24142E-06 1.58162E-01-1.97893E-14-4.21761E-14
 -1       872 2.01557E+01-2.51124E-02-2.89540E-06 1.64894E-01-2.95959E-14-4.63410E-14
 -1       873 2.01203E+01-1.72131E-02-1.71949E-06 1.68522E-01-2.88961E-14 4.14896E-15
 -1       874 2.00867E+01 6.99148E-03-1.23875E-06 1.73840E-01-6.74605E-14-8.94367E-14
 -1       875 2.00535E+01 4.45256E-02-1.18289E-06 1.84657E-01-4.85601E-14-6.06836E-14
 -1       876 2.00190E+01 9.36060E-02-9.34569E-07 2.04129E-01-5.97280E-14 2.74879E-14
 -1       877 1.99808E+01 1.53156E-01-1.03952E-06 2.34965E-01-3.83215E-14 5.33268E-14
 -1       878 1.99363E+01 2.22393E-01-1.50077E-06 2.79570E-01-8.89939E-14 5.55298E-14
 -1       879 1.98824E+01 3.00320E-01-1.42437E-06 3.40191E-01-1.55373E-13 1.09575E-13
 -1       880 1.98159E+01 3.85041E-01-7.10237E-07 4.18955E-01-1.81100E-14 1.14407E-13
 -1       881 1.97336E+01 4.72997E-01 6.54767E-07 5.17920E-01-2.93332E-14 1.78705E-13
 -1       882 1.96328E+01 5.57940E-01 3.42867E-06 6.39258E-01 3.70199E-14 1.23737E-13
 -1       883 1.95124E+01 6.29538E-01 8.64086E-06 7.85614E-01-4.01849E-14 1.18618E-13
 -1       884 1.93739E+01 6.71561E-01 1.58651E-05 9.60812E-01-1.09515E-13 5.55342E-14
 -1       885 1.92249E+01 6.59526E-01 1.51730E-05 1.17102E+00-1.11097E-13 1.33485E-13
 -1       886 1.90831E+01 5.57732E-01-3.38922E-05 1.42619E+00-3.94574E-14 7.55510E-14
 -1       887 1.89850E+01 3.15751E-01-6.26181E-05 1.74100E+00-8.97481E-14 9.54210E-14
 -1       888 1.89996E+01-1.34466E-01 2.87345E-04 2.13180E+00 6.95795E-14-4.63599E-14
 -1       889 1.92447E+01-8.77940E-01 3.16946E-03 2.61118E+00 1.72917E-13-6.25301E-14
 -1       890 1.32867E+01 4.38326E-01 4.20046E-02 2.17324E+00 2.25064E-13 1.84271E-14
 -1       891 1.94034E+01-8.64088E-01-1.97863E-03-2.71503E+00 2.06548E-13-3.71013E-14
 -1       892 1.92090E+01-1.33160E-01-1.30586E-04-2.27491E+00 1.87735E-13 2.99761E-13
 -1       893 1.92485E+01 3.42589E-01-4.55171E-04-1.90304E+00 3.07302E-14 5.14790E-13
 -1       894 2.00508E+01 3.06751E-02 2.27787E-06-1.93195E-01-7.54038E-14 8.18513E-14
 -1       895 2.00751E+01-1.53949E-03 3.31821E-06-1.83966E-01 2.78440E-14 2.17144E-14
 -1       896 2.00009E+01 1.25891E-01 8.61430E-07-2.40901E-01-7.81659E-14 1.82783E-13
 -1       897 1.99712E+01 1.87138E-01 2.38852E-06-2.84909E-01-3.18606E-14 2.15678E-13
 -1       898 1.99354E+01 2.56360E-01 5.93514E-06-3.45576E-01-4.21541E-14 1.91587E-13
 -1       899 1.98910E+01 3.31936E-01 1.00934E-05-4.25076E-01-7.72431E-14 2.12380E-13
 -1       900 1.98358E+01 4.10732E-01 1.43921E-05-5.25379E-01-1.06990E-14 2.31728E-13
 -1       901 1.97681E+01 4.87088E-01 2.08200E-05-6.48265E-01-5.63064E-15 2.53705E-13
 -1       902 1.96879E+01 5.51449E-01 3.07500E-05-7.95425E-01 5.29162E-14 1.66368E-13
 -1       903 1.95981E+01 5.88535E-01 4.52760E-05-9.68751E-01 4.77994E-14 1.98340E-13
 -1       904 1.95081E+01 5.74957E-01 5.85035E-05-1.17082E+00 1.17684E-13 1.85002E-13
 -1       905 1.94378E+01 4.76368E-01 2.84138E-05-1.40529E+00-1.32539E-14 1.92021E-13
 -1       906 1.94259E+01 2.44890E-01-1.49247E-04-1.67605E+00-1.08687E-13 1.79074E-13
 -1       907 1.95407E+01-1.80910E-01-3.02769E-04-1.98274E+00-1.50288E-13 1.48368E-13
 -1       908 1.98877E+01-8.70855E-01-1.38342E-03-2.31345E+00-1.34831E-13 1.66981E-13
 -1       909 2.06990E+01-1.91501E+00 3.86470E-03-2.55250E+00-1.59846E-13 4.10162E-14
 -1       910 2.11345E+01-2.31308E+00 1.02574E-02 2.78626E+00 9.73267E-15 6.64696E-13
 -1       911 1.97542E+01-4.04867E-01 1.39098E-03 2.28512E+00 1.93095E-14 4.16669E-13
 -1       912 1.96102E+01 1.26599E-01-5.27094E-04 1.97977E+00 1.15203E-13 5.84350E-13
 -1       913 1.96302E+01 4.75876E-01-3.49078E-04 1.69988E+00 8.95959E-14 7.96697E-13
 -1       914 1.82903E+01 1.07329E+00 9.63641E-04-1.02949E+00 2.19851E-13-3.27890E-14
 -1       915 1.97631E+01 6.91467E-01 1.78127E-04 1.45046E+00 1.15572E-13 1.11829E-12
 -1       916 1.79683E+01 1.23207E+00-8.80446E-04-3.67192E-01 5.89457E-14 5.48024E-14
 -1       917 1.43509E+01 1.44365E-01 2.41917E-02-2.51478E+00 2.17175E-13 2.85254E-13
 -1       918 2.26145E+01-3.84625E+00 1.54749E-02 2.89072E+00 4.06655E-13 1.04907E-13
 -1       919 2.01619E+01-1.07210E-02 9.66618E-06-1.70528E-01 7.66793E-14-5.06837E-16
 -1       920 1.88766E+01 7.85000E-01-1.28101E-03-1.49486E+00 1.43860E-13 1.07784E-13
 -1       921 1.76066E+01-2.09798E+00 3.17328E-02-4.30959E+00 3.30114E-13 1.45960E-14
 -1       922 2.31289E+01-3.48401E+00 3.80862E-03-2.09322E+00-2.46855E-13 3.62113E-13
 -1       923 2.02502E+01-2.54879E+00 1.44637E-02 3.34350E+00 3.46533E-13-1.98371E-13
 -1       924 2.01823E+01-1.20322E+00 2.45784E-03 2.58767E+00-1.40416E-13 6.28590E-13
 -1       925 2.01439E+01 1.89205E+00-3.92659E-04-1.93050E-01-1.85192E-14-1.19457E-13
 -1       926 2.00267E+01 7.34942E-02 1.19124E-06-2.11196E-01-1.10136E-13 1.45597E-13
 -1       927 2.03398E+01 7.27062E-01-2.02391E-04-1.91771E-01-9.56716E-14-1.37399E-13
 -1       928 2.03357E+01 4.35737E-01-4.03279E-05-4.50434E-02-9.65571E-14-1.16771E-13
 -1       929 1.49950E+01-1.14346E+00 4.50625E-02 4.09969E+00-2.07096E-13-1.39314E-13
 -1       930 2.00514E+01-1.93717E+00 1.46993E-02-3.20097E+00 3.27383E-13-1.89526E-13
 -1       931 1.79737E+01 1.23159E+00-1.25099E-03 3.71097E-01-2.04914E-15 4.09232E-14
 -1       932 2.01722E+01-3.01796E+00 1.21623E-02 3.87492E+00-1.79194E-13 1.75542E-13
 -1       933 1.27656E+01 5.59986E-01 3.67214E-02-1.78346E+00-1.67192E-13 1.77554E-13
 -1       934 1.55012E+01-2.52321E-01 2.37375E-02 3.05550E+00 3.19064E-13-2.07313E-13
 -1       935 2.02937E+01 1.33746E+00-3.40817E-05-1.94580E-01-4.40778E-14-1.04469E-13
 -1       936 1.94862E+01 5.27091E-01 8.25964E-04-1.68934E+00 3.44550E-13 4.57482E-14
 -1       937 2.03068E+01 4.35461E-01 3.52975E-04 6.40993E-02 8.01874E-14-1.78984E-14
 -1       938 2.01981E+01 3.14001E-02 6.45351E-05-1.52883E-01 5.06588E-14-7.48019E-15
 -1       939 2.01009E+01-2.13975E-02 8.12539E-07-1.80099E-01 5.21856E-14 6.53961E-14
 -1       940 2.03258E+01 8.51560E-01 3.40795E-04 2.73003E-01 1.01826E-13-6.14003E-14
 -1       941 2.03180E+01 1.19021E+00 1.30267E-04 2.30079E-01 9.63399E-14-5.61143E-14
 -1       942 2.27601E+01-3.53073E+00 1.65093E-02 2.59759E+00-4.16088E-13 7.68861E-13
 -1       943 2.01296E+01-2.59670E-02 4.37408E-07-1.77376E-01 8.10597E-14 1.09644E-13
 -1       944 1.37979E+01 6.38376E-01 3.06550E-02-1.41508E+00 1.56530E-13 4.96762E-13
 -1       945 1.67367E+01-7.04731E-01 1.14936E-02-3.34242E+00 2.94328E-13 9.56446E-14
 -1       946 2.02843E+01 1.40561E+00 4.30809E-04 6.57900E-02 2.70480E-14-9.35329E-14
 -1       947 1.22883E+01 5.93578E-01 4.96862E-02 1.04974E+00 4.64941E-14 2.58996E-13
 -1       948 2.02754E+01 2.38685E-01 1.05469E-04-4.70884E-02 8.08033E-14 3.47446E-14
 -1       949 2.03046E+01 1.21468E+00 2.13423E-04-3.02965E-01-6.43132E-14-1.49262E-13
 -1       950 1.63928E+01-1.06006E+00 3.98840E-02-3.72995E+00-1.90878E-13-9.46031E-15
 -1       951 2.03005E+01 1.31446E+00 3.35064E-04 1.57249E-01 6.90082E-14-1.02208E-13
 -1       952 1.89615E+01 7.68722E-01-1.18398E-03 1.51848E+00 9.49905E-14 1.08016E-13
 -1       953 1.79147E+01 1.39239E-02 3.97834E-03-2.42382E+00 3.76511E-13-1.06616E-14
 -1       954 2.03645E+01 2.11824E-01-1.89753E-05 5.45314E-02-5.20385E-14-3.97913E-14
 -1       955 2.03278E+01 8.93687E-02-1.64770E-06 9.28553E-02-3.58450E-14 3.03434E-14
 -1       956 2.02833E+01 1.78854E-02-2.39984E-06 1.14110E-01-2.10859E-14 5.23710E-14
 -1       957 2.02358E+01-1.54307E-02-2.86151E-06 1.24792E-01 7.37084E-15 7.73887E-14
 -1       958 2.01876E+01-1.99201E-02-7.57867E-07 1.30269E-01-1.97431E-14 5.66319E-14
 -1       959 2.01394E+01-2.22399E-03 3.96306E-07 1.34918E-01-8.46983E-14 5.03713E-14
 -1       960 2.00905E+01 3.30893E-02-1.61560E-06 1.42144E-01-3.15706E-14 1.09858E-13
 -1       961 2.00392E+01 8.32244E-02-9.18691E-07 1.54750E-01-2.67371E-14 7.77329E-14
 -1       962 1.99828E+01 1.46461E-01-2.60999E-06 1.75136E-01-4.75097E-14 6.53708E-14
 -1       963 1.99181E+01 2.21640E-01-1.11284E-05 2.05355E-01-9.60385E-15 1.09372E-13
 -1       964 1.98411E+01 3.07899E-01-1.76455E-05 2.47291E-01-3.03607E-14 1.78383E-13
 -1       965 1.97473E+01 4.03811E-01-2.40784E-05 3.02861E-01-3.63999E-14 2.57994E-13
 -1       966 1.96318E+01 5.06791E-01-3.15918E-05 3.73976E-01-8.72142E-15 3.14142E-13
 -1       967 1.94894E+01 6.12386E-01-4.17216E-05 4.62875E-01-5.61996E-14 2.75507E-13
 -1       968 1.93147E+01 7.13249E-01-5.56706E-05 5.72613E-01-1.45848E-14 2.17695E-13
 -1       969 1.91029E+01 7.97973E-01-7.69121E-05 7.07959E-01-1.00558E-13 1.08191E-13
 -1       970 1.88504E+01 8.49621E-01-1.18011E-04 8.77059E-01-3.16037E-14 7.03664E-14
 -1       971 1.85561E+01 8.43715E-01-2.27242E-04 1.09414E+00-8.34432E-14 1.47681E-13
 -1       972 1.82249E+01 7.45157E-01-4.78578E-04 1.38304E+00-6.84910E-14 1.72556E-13
 -1       973 1.78716E+01 5.03274E-01-7.85299E-04 1.78094E+00-9.35343E-14 1.65964E-13
 -1       974 1.75381E+01 4.30329E-02-1.14532E-04 2.35029E+00 1.17244E-13-2.00605E-15
 -1       975 2.02850E+01 1.40430E+00 1.20558E-04-6.82056E-02-1.18870E-14-1.05468E-13
 -1       976 2.02371E+01 1.10173E-01 1.00819E-04-1.15283E-01 2.23306E-14 4.06163E-14
 -1       977 1.82507E+01 4.96581E-01-3.01031E-03-1.88996E+00 1.07962E-14 1.42062E-14
 -1       978 1.98857E+01 2.69746E-01-5.21155E-06-2.67492E-01 1.93820E-14 1.15956E-13
 -1       979 1.99481E+01 1.91033E-01-6.01626E-06-2.23100E-01-5.32242E-14 7.87984E-14
 -1       980 1.97167E+01 4.52288E-01-8.27490E-06-4.03260E-01 1.71648E-14 1.03242E-13
 -1       981 1.96018E+01 5.49580E-01-1.14018E-05-4.98883E-01 1.53400E-14 3.18556E-14
 -1       982 1.94615E+01 6.42400E-01-1.44115E-05-6.16433E-01 1.45302E-14-5.74456E-15
 -1       983 1.92929E+01 7.19463E-01-1.78948E-05-7.59799E-01-2.01855E-14 3.81510E-14
 -1       984 1.90958E+01 7.63603E-01-2.53654E-05-9.35330E-01 7.00642E-15 1.87774E-13
 -1       985 1.88745E+01 7.49446E-01-5.91903E-05-1.15395E+00 9.13927E-14 3.00325E-13
 -1       986 1.86427E+01 6.39926E-01-2.21675E-04-1.43378E+00-3.41847E-14 2.85989E-13
 -1       987 1.84321E+01 3.82265E-01-5.94902E-04-1.80152E+00-6.24500E-14 1.47384E-13
 -1       988 1.82998E+01-9.40157E-02-1.36760E-03-2.30099E+00-9.38743E-14 1.66971E-13
 -1       989 1.83279E+01-8.27299E-01 1.51492E-02-2.94488E+00-1.92479E-13 1.64969E-13
 -1       990 2.03847E+01 6.73352E-01-3.58684E-05-1.01489E-01-7.03803E-14-1.06829E-13
 -1       991 1.86531E+01 2.24819E-01 2.58850E-03 2.10527E+00 1.23191E-13 5.29437E-13
 -1       992 1.74307E+01 1.07615E+00 9.12173E-04-8.94348E-01 7.43090E-14-2.11782E-14
 -1       993 1.38435E+01 1.00042E+00 1.64354E-02 4.42972E-01 1.03950E-13 5.93219E-14
 -1       994 1.86479E+01-1.29881E+00 8.46019E-03 3.30900E+00-1.18544E-13 7.11926E-13
 -1       995 1.83125E+01 1.06687E+00-9.71826E-04 1.03607E+00 1.40893E-13 1.15844E-14
 -1       996 1.84932E+01-3.64594E-01 5.31053E-04 2.63249E+00-4.57886E-14 6.27864E-13
 -1       997 1.73032E+01-6.25309E-01 1.28903E-02 3.06539E+00 1.18991E-13-1.44554E-13
 -1       998 2.03856E+01 4.02755E-01 4.88408E-05-7.90820E-03-3.71322E-14-4.49842E-14
 -1       999 1.98099E+01 3.57609E-01-4.75816E-06-3.26864E-01-7.58710E-14 9.80965E-14
 -1      1000 2.00908E+01 2.11165E-02 8.88366E-06-1.58567E-01-1.93818E-14 1.37395E-13
 -1      1001 2.03862E+01 6.68436E-01 2.24026E-05 9.20513E-02 4.21107E-14-5.42290E-14
 -1      1002 1.71896E+01 1.18385E+00-8.37474E-05 6.11698E-04 8.66646E-14 5.10908E-14
 -1      1003 1.42101E+01 1.05358E+00 1.37508E-02-7.54553E-01 2.50390E-14 3.12676E-13
 -1      1004 1.49607E+01-2.21100E-02 3.60142E-02-2.81936E+00-4.61796E-14 1.22729E-13
 -1      1005 2.01330E+01-9.37178E-03 1.93078E-07-1.51853E-01 8.35020E-14 1.18289E-13
 -1      1006 2.00009E+01 1.22706E-01-2.39934E-06-1.91623E-01-9.42601E-14 1.44475E-13
 -1      1007 1.65309E+01 2.10047E-01 2.14160E-03-2.39276E+00-7.12507E-14 1.62423E-13
 -1      1008 2.04040E+01 7.61744E-01-1.23522E-04-6.63357E-02-4.55952E-14-4.17256E-14
 -1      1009 2.02190E+01-1.44612E-02 5.63269E-06-1.41529E-01 5.41403E-14-9.37747E-15
 -1      1010 1.39426E+01 8.85715E-01 1.42329E-02-1.94450E-01 8.91981E-14 3.95568E-13
 -1      1011 1.87549E+01-2.10893E+00 1.56870E-02 3.90142E+00-3.45321E-13 4.67263E-13
 -1      1012 1.48549E+01 7.29503E-01 1.03464E-02 1.64697E+00 9.87594E-14 1.15288E-13
 -1      1013 1.40821E+01 2.02527E-01 2.77253E-02 2.42131E+00-6.77279E-14-1.39637E-13
 -1      1014 1.65094E+01 5.45307E-01 3.97925E-03-1.90493E+00 3.44651E-13-1.16500E-13
 -1      1015 2.03754E+01 9.66779E-01-8.78479E-04 6.17907E-02 2.93967E-14-4.81534E-14
 -1      1016 2.02633E+01 2.22790E-02-3.00298E-05-1.28470E-01 4.05844E-14 9.12604E-15
 -1      1017 2.00475E+01 6.57142E-02 5.96371E-06-1.70909E-01-1.50838E-13 1.74027E-13
 -1      1018 2.03905E+01 3.97101E-01-4.13597E-05 3.96554E-03 3.01884E-14-4.50278E-14
 -1      1019 2.04106E+01 8.03933E-01 3.55128E-04-1.85155E-02 3.73712E-15-4.77602E-14
 -1      1020 2.04188E+01 3.43247E-01-3.42625E-05 1.18929E-02-1.16198E-14-5.96917E-14
 -1      1021 1.62467E+01 3.43954E-01 4.33088E-03 2.21475E+00-6.35614E-18-1.44409E-13
 -1      1022 2.03943E+01 1.71298E-01-4.02000E-06 4.54534E-02-3.15337E-14-5.43364E-14
 -1      1023 2.03535E+01 6.38919E-02-2.97747E-06 6.55737E-02-3.05957E-14-4.82676E-15
 -1      1024 2.03036E+01 5.06249E-03-2.51216E-05 7.67654E-02 1.71689E-14 1.47738E-14
 -1      1025 2.02491E+01-1.66109E-02-2.02019E-05 8.26011E-02-1.86713E-14 5.38472E-14
 -1      1026 2.01924E+01-9.88477E-03 6.57173E-06 8.63325E-02-4.62326E-14 3.68433E-14
 -1      1027 2.01338E+01 1.87938E-02-1.43292E-05 9.06146E-02-1.88383E-14 9.85600E-14
 -1      1028 2.00721E+01 6.56173E-02-1.35324E-05 9.73701E-02-9.93490E-14-8.53253E-14
 -1      1029 2.00050E+01 1.28107E-01 7.32130E-06 1.08364E-01-2.51510E-14-7.57748E-14
 -1      1030 1.99290E+01 2.04599E-01-2.48438E-06 1.25083E-01-2.45853E-15-2.77822E-14
 -1      1031 1.98401E+01 2.93721E-01-4.68769E-05 1.48716E-01 2.34778E-14-3.29875E-14
 -1      1032 1.97327E+01 3.95050E-01-7.28824E-05 1.80832E-01 3.71210E-15 1.37236E-13
 -1      1033 1.96014E+01 5.06236E-01-8.55853E-05 2.22562E-01 7.03376E-15 1.27391E-13
 -1      1034 1.94393E+01 6.24362E-01-1.08931E-04 2.75456E-01-7.79692E-14-2.53819E-15
 -1      1035 1.92387E+01 7.44379E-01-1.41548E-04 3.41656E-01-4.58197E-14 5.34560E-14
 -1      1036 1.89909E+01 8.58584E-01-1.90326E-04 4.24455E-01-1.22045E-13-7.20933E-14
 -1      1037 1.86850E+01 9.56001E-01-2.70469E-04 5.29508E-01-6.39914E-14 3.38788E-14
 -1      1038 1.83074E+01 1.02175E+00-4.16579E-04 6.67032E-01-8.52266E-14-8.57880E-15
 -1      1039 1.78394E+01 1.03611E+00-6.58052E-04 8.55645E-01-7.32166E-14-5.23792E-15
 -1      1040 1.72528E+01 9.72769E-01-5.77002E-04 1.12678E+00-9.60022E-14 4.59011E-14
 -1      1041 1.67460E+01 7.50492E-01-6.73236E-04 1.57289E+00-1.79275E-13-6.05260E-14
 -1      1042 1.91342E+01 7.94758E-01-1.03360E-04-5.07550E-01-1.25493E-14 4.63556E-14
 -1      1043 1.98750E+01 2.62612E-01-3.23446E-05-1.79056E-01-3.49470E-14 1.13894E-13
 -1      1044 1.97808E+01 3.57530E-01-2.73934E-05-2.16938E-01-2.23129E-14 1.68918E-13
 -1      1045 2.04312E+01 6.08692E-01 1.93573E-04 1.37537E-02 3.56694E-14-3.19203E-14
 -1      1046 1.93492E+01 6.87136E-01-7.91466E-05-4.09064E-01 5.33297E-14 5.08616E-16
 -1      1047 1.95240E+01 5.73693E-01-6.17285E-05-3.29898E-01 4.53415E-14 7.47737E-14
 -1      1048 1.88715E+01 8.85061E-01-1.42389E-04-6.31000E-01-2.74720E-14 5.45856E-14
 -1      1049 1.85527E+01 9.41837E-01-2.12046E-04-7.89327E-01-1.10015E-13-4.27046E-14
 -1      1050 1.81679E+01 9.42675E-01-3.96002E-04-1.00071E+00-6.19404E-14 1.14591E-13
 -1      1051 1.77095E+01 8.53527E-01-6.93851E-04-1.29733E+00-5.58613E-14 2.56147E-13
 -1      1052 1.71689E+01 6.26422E-01-2.01719E-03-1.73053E+00-1.22767E-14 2.02001E-13
 -1      1053 2.04197E+01 5.29717E-01 8.85519E-06-2.42060E-02-2.35335E-14-6.66245E-14
 -1      1054 2.01755E+01-2.26975E-02 1.84687E-06-1.47547E-01 5.23617E-14 8.24523E-14
 -1      1055 2.00814E+01 5.12866E-02 1.43370E-05-1.19788E-01-5.88751E-14 1.81010E-14
 -1      1056 2.03694E+01 2.08974E-01 4.57792E-06-5.49569E-02 4.24198E-14-2.62242E-14
 -1      1057 1.73915E+01 7.25874E-01-4.37094E-05 1.61129E+00 1.94326E-13 6.07727E-14
 -1      1058 1.51107E+01 7.86673E-01 6.58317E-03-1.30665E+00 1.67916E-13 3.17797E-13
 -1      1059 1.63681E+01-6.15435E-01 1.71718E-02 3.32224E+00-5.05637E-14-9.09836E-14
 -1      1060 2.03897E+01 8.21663E-01-1.30506E-04 8.93452E-02 4.07823E-14-3.54040E-14
 -1      1061 2.03200E+01 9.26101E-02-8.29851E-05-9.68356E-02 4.97476E-14-3.39639E-14
 -1      1062 1.70844E+01 1.05486E+00 9.84331E-04 8.07662E-01 1.38698E-13-3.34199E-13
 -1      1063 1.96657E+01 4.62191E-01-4.71770E-05-2.66623E-01-1.85203E-14 7.29041E-14
 -1      1064 1.61964E+01 1.07623E+00 4.49348E-03-4.76295E-01 2.30144E-13 1.81552E-13
 -1      1065 1.52687E+01 1.18025E+00 1.87223E-03 1.88110E-01 7.13001E-14 2.76216E-13
 -1      1066 2.04411E+01 4.88110E-01-2.83596E-06-2.47876E-03 4.28646E-15 3.54784E-15
 -1      1067 2.01379E+01 9.13462E-03-5.67326E-05-1.12527E-01 2.42856E-14 1.34376E-14
 -1      1068 1.99535E+01 1.79301E-01-2.46033E-05-1.51252E-01-8.18210E-14 4.59045E-14
 -1      1069 1.69660E+01 1.33663E-01-2.69731E-03 2.41849E+00-5.98717E-14-7.17872E-15
 -1      1070 1.57541E+01 9.30498E-01 8.13932E-03-1.23494E+00 8.21929E-14 3.07071E-13
 -1      1071 1.47581E+01 8.15599E-01 9.66516E-03 1.07724E+00-1.09825E-13-3.57731E-14
 -1      1072 2.04179E+01 5.04927E-01 2.22048E-05 2.04108E-02 2.94723E-14-3.56870E-14
 -1      1073 2.02967E+01 1.02501E-02-1.81490E-05-9.52711E-02 8.87414E-14 2.12903E-14
 -1      1074 2.02449E+01-1.66504E-02 3.86867E-09-1.03151E-01 2.46239E-14-3.32734E-15
 -1      1075 2.00210E+01 1.08492E-01 8.50183E-06-1.32086E-01-1.08021E-13-1.07476E-14
 -1      1076 2.04313E+01 2.68503E-01-1.74103E-05 1.07754E-02 3.09321E-16-1.55144E-14
 -1      1077 2.04389E+01 3.53197E-01 2.30771E-05-5.28724E-03-2.38343E-14-5.70916E-15
 -1      1078 2.03996E+01 1.23020E-01 6.37418E-06 2.15872E-02 1.55127E-14-2.81876E-14
 -1      1079 2.03546E+01 3.64396E-02 1.47285E-04 2.76358E-02 1.67528E-14-3.82012E-14
 -1      1080 2.02992E+01-5.61614E-03 4.93340E-05 3.13204E-02-3.47579E-15-3.44058E-14
 -1      1081 2.02383E+01-1.32455E-02-2.72621E-05 3.33258E-02-2.35261E-14 2.17710E-14
 -1      1082 2.01763E+01 4.52353E-03 6.02041E-05 3.49260E-02-5.72883E-14 6.21277E-14
 -1      1083 2.01101E+01 4.47470E-02 2.17716E-05 3.71553E-02-1.18228E-13 4.96023E-14
 -1      1084 2.00388E+01 1.02248E-01 1.04732E-05 4.06463E-02-4.52243E-14 7.11855E-14
 -1      1085 1.99601E+01 1.74601E-01 1.19919E-06 4.61594E-02-3.75976E-14 4.86844E-15
 -1      1086 1.98685E+01 2.62676E-01 2.31937E-04 5.50620E-02 7.37404E-14 1.81601E-14
 -1      1087 1.97577E+01 3.64234E-01 8.83581E-05 6.63782E-02 7.49898E-14 1.61404E-14
 -1      1088 1.96247E+01 4.76835E-01 6.70639E-05 8.09896E-02-1.84019E-14 2.67938E-14
 -1      1089 1.94608E+01 5.99331E-01 8.72769E-05 9.99410E-02-1.13120E-13 1.21858E-14
 -1      1090 1.92578E+01 7.27975E-01 1.12942E-04 1.23884E-01-1.13845E-13-1.79831E-14
 -1      1091 1.90055E+01 8.57302E-01 1.45803E-04 1.53981E-01-1.20345E-13-8.15748E-14
 -1      1092 1.86909E+01 9.79695E-01 1.84428E-04 1.92199E-01-4.62151E-14 1.69087E-14
 -1      1093 1.82961E+01 1.08540E+00 2.11535E-04 2.41914E-01-7.15010E-14 4.40513E-14
 -1      1094 1.77944E+01 1.16299E+00 1.54183E-04 3.08761E-01-2.13032E-13 3.71349E-14
 -1      1095 1.71422E+01 1.19769E+00-9.11397E-04 4.03241E-01-1.75578E-13-1.82752E-14
 -1      1096 1.96686E+01 4.43704E-01-5.07852E-05-1.31039E-01 1.94180E-15-8.18634E-14
 -1      1097 1.88117E+01 9.31080E-01-1.70146E-04-3.11888E-01-3.98310E-14 1.29019E-13
 -1      1098 1.93308E+01 6.86404E-01-9.16315E-05-2.00635E-01 2.47374E-15 2.38485E-14
 -1      1099 1.80048E+01 1.10481E+00-2.92299E-04-4.99433E-01-1.34498E-13 9.64761E-14
 -1      1100 1.74323E+01 1.13348E+00 1.74559E-04-6.47497E-01-1.35677E-13 1.74738E-13
 -1      1101 1.66708E+01 1.10151E+00-2.13631E-03-8.83616E-01-1.62937E-14 2.85909E-13
 -1      1102 2.04106E+01 2.80593E-01-5.77749E-05-2.63045E-02 1.67393E-14-1.33416E-14
 -1      1103 1.57758E+01 5.05994E-01 3.49412E-03 1.93680E+00-1.23747E-13-1.04051E-13
 -1      1104 1.53808E+01 1.02800E+00 4.70840E-03 1.61396E-01 5.09914E-14 1.83470E-13
 -1      1105 1.59289E+01 1.02408E+00 9.82851E-04 9.95892E-01-5.41452E-14-7.54339E-14
 -1      1106 2.01920E+01-1.42888E-02 6.91429E-07-1.07906E-01-5.59596E-15 7.42814E-15
 -1      1107 1.97921E+01 3.34977E-01-8.57720E-06-1.06498E-01 2.82608E-14-7.12150E-14
 -1      1108 2.03500E+01 6.97756E-02 1.01614E-04-7.18163E-02 1.92800E-14 5.75750E-15
 -1      1109 1.90992E+01 8.12076E-01-1.24647E-04-2.49717E-01-2.50893E-14 1.28788E-13
 -1      1110 1.84537E+01 1.03298E+00-2.34978E-04-3.92226E-01-2.31958E-14 1.53539E-13
 -1      1111 1.95176E+01 5.61826E-01-6.70430E-05-1.61680E-01 3.75982E-15-4.11859E-14
 -1      1112 1.62996E+01 1.05643E+00 2.77141E-03 5.56515E-01 1.05626E-13-2.89089E-13
 -1      1113 1.98952E+01 2.38337E-01 2.63778E-04-8.92237E-02-4.84496E-14 9.56737E-14
 -1      1114 1.63128E+01 1.17520E+00 6.48983E-03 5.43241E-01-1.22606E-13-7.35617E-14
 -1      1115 1.64229E+01 8.70457E-01 3.20673E-03 1.26822E+00 5.46787E-14-2.72998E-13
 -1      1116 2.01215E+01 3.35144E-02 1.64793E-05-6.24173E-02-1.12001E-14 9.37443E-14
 -1      1117 2.03036E+01-1.79166E-03-6.82488E-05-5.27751E-02 7.34044E-14 4.19467E-14
 -1      1118 2.03535E+01 4.20295E-02-2.10442E-04-3.51655E-02 5.49284E-14-1.80604E-14
 -1      1119 2.03857E+01 1.54367E-01-4.28601E-05-5.31810E-02-2.49061E-15 2.55285E-14
 -1      1120 2.00537E+01 8.68341E-02-3.57484E-05-6.82460E-02-5.59591E-14 1.22995E-13
 -1      1121 2.03819E+01 7.46342E-02-1.35058E-05-1.58105E-02 1.92874E-14-2.63488E-14
 -1      1122 2.02103E+01-7.29003E-03 6.83281E-06-2.11686E-02-3.54217E-14 3.78655E-14
 -1      1123 1.99136E+01 2.17580E-01-2.95003E-04-3.06131E-02-2.53755E-14 4.23170E-15
 -1      1124 2.04188E+01 1.84470E-01 4.03330E-05-1.38747E-02-1.78800E-14-6.12674E-15
 -1      1125 2.02465E+01-1.56037E-02 3.80293E-05-5.67946E-02 3.27763E-14 4.25566E-14
 -1      1126 1.99796E+01 1.55018E-01 2.26374E-05-7.69808E-02-1.32428E-13 1.08208E-13
 -1      1127 2.00000E+01 1.37422E-01-5.11086E-05-2.61977E-02-1.04345E-13 9.93405E-14
 -1      1128 2.79592E+01 9.08537E+00 2.32516E+00-6.69858E+00-2.95319E-14 1.17129E-12
 -1      1129 2.05441E+01 6.22611E+00 2.09584E-01-3.90535E+00-1.66811E-14 2.74836E-13
 -1      1130 1.94321E+01 5.85222E+00 7.52240E-02-2.88973E+00-1.31839E-14-1.22388E-13
 -1      1131 1.90253E+01 5.72572E+00 6.03990E-02-2.23711E+00-8.94423E-15-3.09844E-13
 -1      1132 1.88404E+01 5.66941E+00 5.75974E-02-1.70341E+00-4.96304E-15-4.16433E-13
 -1      1133 1.87481E+01 5.64110E+00 5.56007E-02-1.23570E+00-2.55004E-15-4.58598E-13
 -1      1134 1.86999E+01 5.62614E+00 5.38550E-02-8.05490E-01-1.59378E-15-4.67388E-13
 -1      1135 1.86765E+01 5.61876E+00 5.26472E-02-3.93458E-01 3.48246E-16-4.55367E-13
 -1      1136 1.86699E+01 5.61666E+00 5.22624E-02 8.47635E-03 5.73001E-16-4.40614E-13
 -1      1137 1.86776E+01 5.61911E+00 5.27681E-02 4.10823E-01 3.57505E-15-4.26427E-13
 -1      1138 1.87021E+01 5.62687E+00 5.41378E-02 8.24219E-01 4.98646E-15-3.93224E-13
 -1      1139 1.87518E+01 5.64244E+00 5.63215E-02 1.25708E+00 6.87905E-15-3.41206E-13
 -1      1140 1.88458E+01 5.67129E+00 5.84987E-02 1.72919E+00 8.18269E-15-2.55742E-13
 -1      1141 1.90308E+01 5.72736E+00 6.04012E-02 2.27038E+00 1.08975E-14-1.06072E-13
 -1      1142 1.94289E+01 5.84942E+00 6.91413E-02 2.93039E+00 1.49603E-14 1.51244E-13
 -1      1143 2.04501E+01 6.18097E+00 1.53110E-01 3.87990E+00 1.52656E-14 6.11806E-13
 -1      1144 2.52134E+01 7.99312E+00 1.43024E+00 5.84686E+00 2.24820E-14 1.50238E-12
 -1      1145 2.88086E+01 3.61630E+00 1.27147E+00-4.21725E+00-1.21236E-13 1.73489E-12
 -1      1146 2.02218E+01-1.77725E-01-6.16290E-01-1.10043E-01-4.29795E-14 1.45534E-12
 -1      1147 1.88260E+01-9.63481E-02-2.36348E-01 6.24725E-02-1.45647E-14 1.06588E-12
 -1      1148 1.84905E+01-4.80550E-02-5.95722E-02 4.04514E-02-1.97264E-14 8.16874E-13
 -1      1149 1.84337E+01-2.46201E-02-1.51790E-02 2.67233E-02-2.98503E-15 5.96020E-13
 -1      1150 1.85136E+01-1.30608E-02-4.95550E-03 1.89796E-02-4.63215E-15 5.19321E-13
 -1      1151 1.86586E+01-6.64296E-03-1.47235E-03 1.40081E-02-6.74688E-15 4.68325E-13
 -1      1152 1.88293E+01-2.91279E-03 5.25127E-04 1.05478E-02-1.42995E-15 3.43586E-13
 -1      1153 1.90034E+01-7.40324E-04 1.78239E-03 7.97805E-03-1.25110E-15 2.99875E-13
 -1      1154 1.91686E+01 4.65522E-04 2.43563E-03 5.99088E-03-1.46247E-14 1.74156E-13
 -1      1155 1.93188E+01 1.03762E-03 2.60893E-03 4.42505E-03 7.77481E-15-1.91947E-14
 -1      1156 1.94520E+01 1.17564E-03 2.42284E-03 3.18747E-03 3.30237E-14 1.35919E-13
 -1      1157 1.95691E+01 1.00318E-03 1.96896E-03 2.21960E-03 1.96830E-15 1.09916E-13
 -1      1158 1.96730E+01 5.96388E-04 1.30545E-03 1.48366E-03-1.38173E-14-1.40918E-14
 -1      1159 1.97683E+01-1.80380E-07 4.62074E-04 9.57410E-04-1.39332E-14-7.31378E-14
 -1      1160 1.98608E+01-7.63472E-04-5.53356E-04 6.32893E-04-2.75225E-14-1.09250E-13
 -1      1161 1.99577E+01-1.68404E-03-1.74844E-03 5.17160E-04-8.39530E-15-1.44529E-13
 -1      1162 2.00675E+01-2.75826E-03-3.13892E-03 6.34190E-04-5.53491E-15-2.03664E-13
 -1      1163 2.02000E+01-3.97887E-03-4.73875E-03 1.02733E-03-6.35109E-15-2.32994E-13
 -1      1164 2.03664E+01-5.32168E-03-6.54463E-03 1.76151E-03 5.85366E-15-3.12925E-13
 -1      1165 2.05793E+01-6.72572E-03-8.51031E-03 2.92344E-03-2.71712E-15-4.01094E-13
 -1      1166 2.08526E+01-8.06316E-03-1.05033E-02 4.61642E-03-2.41997E-14-1.91723E-13
 -1      1167 2.11997E+01-9.09479E-03-1.22338E-02 6.94204E-03-1.69396E-15 2.82101E-14
 -1      1168 2.16322E+01-9.40890E-03-1.31439E-02 9.95481E-03-2.62369E-14-1.39614E-13
 -1      1169 2.21557E+01-8.34973E-03-1.22573E-02 1.35650E-02 3.49562E-14-1.44903E-13
 -1      1170 2.27631E+01-4.96585E-03-8.02706E-03 1.73552E-02-1.54961E-14 7.87634E-14
 -1      1171 2.34242E+01 1.93962E-03 1.66971E-03 2.02792E-02-6.71165E-15 6.34527E-14
 -1      1172 2.40718E+01 1.34772E-02 1.90468E-02 2.02754E-02-2.92949E-14-3.82937E-13
 -1      1173 2.45868E+01 2.97966E-02 4.48551E-02 1.40284E-02 5.89589E-15-2.32432E-13
 -1      1174 2.47934E+01 4.84399E-02 7.53365E-02-2.51967E-03-8.19223E-15-2.03814E-13
 -1      1175 2.44835E+01 6.23753E-02 9.85111E-02-3.18589E-02 1.23027E-14-2.87423E-13
 -1      1176 2.34972E+01 5.95440E-02 9.39143E-02-7.02246E-02-1.05801E-14-5.00572E-13
 -1      1177 2.18634E+01 2.83444E-02 4.27541E-02-1.02995E-01 1.13035E-14-4.60951E-13
 -1      1178 1.99325E+01-2.97116E-02-5.09230E-02-1.07318E-01 2.22400E-14-5.46174E-13
 -1      1179 1.83524E+01-8.94110E-02-1.45369E-01-6.76838E-02 2.97297E-14-3.50671E-13
 -1      1180 1.77786E+01-1.12539E-01-1.81630E-01 5.06931E-03-7.69263E-15-1.98343E-13
 -1      1181 1.84635E+01-8.22465E-02-1.34238E-01 7.49806E-02-2.07343E-14-5.23068E-13
 -1      1182 2.00772E+01-2.02438E-02-3.59506E-02 1.08425E-01-9.72313E-15-7.05921E-13
 -1      1183 2.19376E+01 3.55077E-02 5.40836E-02 9.87192E-02 2.62576E-14-6.12801E-13
 -1      1184 2.34224E+01 6.28624E-02 9.90062E-02 6.35176E-02-4.05370E-14-5.53745E-13
 -1      1185 2.42247E+01 6.28647E-02 9.89899E-02 2.51851E-02 2.54475E-14-6.08909E-13
 -1      1186 2.43473E+01 4.77632E-02 7.40593E-02-3.24293E-03-2.56739E-14-6.70004E-13
 -1      1187 2.39622E+01 2.88814E-02 4.36147E-02-1.91707E-02-3.48714E-14-7.92392E-13
 -1      1188 2.32775E+01 1.24180E-02 1.81118E-02-2.54575E-02 3.67063E-14-3.59039E-13
 -1      1189 2.24672E+01 1.12020E-04-5.21544E-06-2.59990E-02 4.48796E-14-1.32283E-13
 -1      1190 2.16555E+01-8.70830E-03-1.26614E-02-2.35685E-02 1.31586E-14 1.56136E-13
 -1      1191 2.09286E+01-1.54744E-02-2.30386E-02-1.91424E-02-1.36959E-14 3.65756E-13
 -1      1192 2.03571E+01-2.08834E-02-3.21698E-02-1.13361E-02-3.22008E-14 3.63924E-13
 -1      1193 2.00216E+01-2.64140E-02-3.06670E-02 4.29122E-03-9.57719E-15 2.46563E-13
 -1      1194 1.99694E+01 1.03435E-02 2.02792E-02 1.08871E-02 3.41372E-14 2.47700E-13
 -1      1195 2.77884E+01 5.25721E-01 3.77305E-01 1.96665E+00-2.49800E-14 2.20873E-12
 -1      1196 2.00793E+01-6.62224E-02-5.73585E-01 1.29525E-01 8.92342E-15 1.88041E-12
 -1      1197 1.89006E+01-4.05919E-02-1.93223E-01 1.94420E-02 1.47833E-14 1.52642E-12
 -1      1198 1.85194E+01-2.14053E-02-5.05417E-02 1.48379E-03 4.52329E-15 1.30081E-12
 -1      1199 1.84464E+01-1.23992E-02-1.33877E-02-4.04265E-03 8.67232E-15 1.16447E-12
 -1      1200 1.85200E+01-7.40736E-03-4.65069E-03-5.47841E-03 1.97597E-14 1.05616E-12
 -1      1201 1.86619E+01-4.34694E-03-1.93500E-03-5.64089E-03-1.00722E-15 9.95596E-13
 -1      1202 1.88309E+01-2.40506E-03-3.72566E-04-5.32256E-03-1.12319E-14 1.12063E-12
 -1      1203 1.90041E+01-1.17915E-03 6.99933E-04-4.77323E-03-3.44181E-15 1.00466E-12
 -1      1204 1.91688E+01-4.42965E-04 1.33419E-03-4.10556E-03-7.53651E-15 8.19366E-13
 -1      1205 1.93187E+01-5.75327E-05 1.58628E-03-3.38385E-03 3.31713E-14 6.07488E-13
 -1      1206 1.94518E+01 6.57322E-05 1.53087E-03-2.64743E-03-4.11309E-15 4.49591E-13
 -1      1207 1.95688E+01-1.74827E-05 1.23080E-03-1.91946E-03 1.51420E-14 4.41066E-13
 -1      1208 1.96728E+01-2.74654E-04 7.26098E-04-1.21221E-03-1.28100E-14 4.88372E-13
 -1      1209 1.97681E+01-6.90132E-04 3.42390E-05-5.31452E-04 2.95159E-15 4.68575E-13
 -1      1210 1.98607E+01-1.26040E-03-8.46145E-04 1.19230E-04-1.04386E-15 2.62420E-13
 -1      1211 1.99577E+01-1.98955E-03-1.93058E-03 7.33843E-04-2.87910E-14 1.72673E-13
 -1      1212 2.00675E+01-2.88364E-03-3.24284E-03 1.29845E-03 2.05648E-14 6.83279E-14
 -1      1213 2.02000E+01-3.94243E-03-4.80603E-03 1.78394E-03 3.90330E-14-3.17593E-13
 -1      1214 2.03663E+01-5.14610E-03-6.62755E-03 2.13610E-03 6.75642E-15-3.03483E-13
 -1      1215 2.05790E+01-6.43357E-03-8.67277E-03 2.26200E-03 1.15462E-14-1.39238E-13
 -1      1216 2.08517E+01-7.66805E-03-1.08192E-02 2.01233E-03-2.23921E-14 9.89079E-14
 -1      1217 2.11979E+01-8.58486E-03-1.27798E-02 1.16126E-03 3.30478E-14-2.98043E-14
 -1      1218 2.16289E+01-8.72081E-03-1.39824E-02-6.08043E-04-1.90725E-14-9.42874E-14
 -1      1219 2.21501E+01-7.33792E-03-1.34040E-02-3.69054E-03 1.28999E-14 6.77756E-15
 -1      1220 2.27539E+01-3.39168E-03-9.40299E-03-8.46947E-03 4.62861E-14-6.38378E-15
 -1      1221 2.34101E+01 4.32907E-03 2.89208E-04-1.50580E-02-4.09254E-14-6.54789E-14
 -1      1222 2.40511E+01 1.66518E-02 1.80248E-02-2.27533E-02-3.00207E-14-4.27783E-15
 -1      1223 2.45582E+01 3.27914E-02 4.45272E-02-2.91947E-02-4.39752E-14 6.46254E-14
 -1      1224 2.47562E+01 4.85838E-02 7.56838E-02-2.96383E-02-2.31304E-14-1.42180E-13
 -1      1225 2.44398E+01 5.54047E-02 9.90725E-02-1.75478E-02 3.68794E-14-6.45678E-13
 -1      1226 2.34533E+01 4.26032E-02 9.45314E-02 1.16603E-02 9.01796E-15-6.86812E-13
 -1      1227 2.18290E+01 6.02705E-03 4.49373E-02 5.34934E-02 5.73153E-15-3.87801E-13
 -1      1228 1.99160E+01-4.19803E-02-4.35529E-02 8.96733E-02-4.59064E-14-1.11244E-13
 -1      1229 1.83537E+01-7.47217E-02-1.30787E-01 9.51899E-02 1.31587E-14-4.07729E-14
 -1      1230 1.77877E+01-7.16964E-02-1.63831E-01 5.90298E-02-6.45838E-15-3.03264E-13
 -1      1231 1.84638E+01-3.90769E-02-1.23023E-01-2.22002E-03 5.48684E-14-1.06903E-12
 -1      1232 2.00555E+01-1.77452E-04-3.90199E-02-5.60957E-02 5.67242E-14-1.27146E-12
 -1      1233 2.18938E+01 2.59007E-02 3.83250E-02-8.01079E-02-3.88383E-15-1.11952E-12
 -1      1234 2.33675E+01 3.45871E-02 7.84211E-02-7.36659E-02-2.49518E-14-8.25506E-13
 -1      1235 2.41712E+01 3.12219E-02 8.10620E-02-5.05101E-02 1.58428E-14-7.27425E-13
 -1      1236 2.43034E+01 2.27554E-02 6.24423E-02-2.48812E-02 3.85096E-14-5.41121E-13
 -1      1237 2.39306E+01 1.37652E-02 3.85412E-02-4.63659E-03 8.93292E-14-7.35379E-13
 -1      1238 2.32573E+01 6.13301E-03 1.80345E-02 8.47666E-03-3.34599E-14-6.78721E-13
 -1      1239 2.24561E+01-2.39213E-05 2.98868E-03 1.58507E-02-3.17682E-14-4.70568E-13
 -1      1240 2.16508E+01-5.41320E-03-8.26818E-03 1.96035E-02 3.74963E-14-9.27317E-13
 -1      1241 2.09281E+01-1.09835E-02-1.86094E-02 2.12239E-02 6.57441E-14-1.51371E-12
 -1      1242 2.03588E+01-1.64927E-02-2.86087E-02 2.01064E-02 8.14761E-14-2.00336E-12
 -1      1243 2.00215E+01-1.55950E-02-2.69388E-02 1.08295E-02 6.00169E-14-1.85946E-12
 -1      1244 1.99737E+01 9.27998E-03 2.08430E-02-9.55499E-03-2.53259E-14-1.07625E-12
 -1      1245 2.00092E+01-2.73444E-02 1.94543E-02-8.88072E-03-1.14176E-12-7.73413E-14
 -1      1246 1.99804E+01 2.83976E-02-2.82136E-02-4.23688E-03-9.27867E-13-1.47067E-13
 -1      1247 1.99829E+01 3.61618E-01-2.76282E-02 1.30943E-02-2.77956E-13-4.27189E-14
 -1      1248 1.99917E+01 8.92227E-01-1.34536E-02 2.01069E-02-5.79526E-13-6.99148E-14
 -1      1249 2.00017E+01 1.50838E+00 1.66140E-03 2.16080E-02-3.93619E-13 7.84555E-14
 -1      1250 2.00108E+01 2.10572E+00 1.48262E-02 1.94029E-02-6.96783E-13 5.38155E-14
 -1      1251 2.00184E+01 2.60372E+00 2.51367E-02 1.48509E-02 3.61169E-15 2.65862E-13
 -1      1252 2.00236E+01 2.93666E+00 3.20772E-02 7.97148E-03 2.87621E-13-1.56030E-13
 -1      1253 2.00254E+01 3.05257E+00 3.45140E-02-2.54365E-05-9.71740E-14-7.77850E-15
 -1      1254 2.00236E+01 2.93499E+00 3.20782E-02-8.03063E-03 8.25241E-13 3.79495E-14
 -1      1255 2.00183E+01 2.60039E+00 2.50923E-02-1.49033E-02-3.39858E-13-2.09713E-13
 -1      1256 2.00110E+01 2.10058E+00 1.46981E-02-1.97281E-02-9.55028E-13 1.60652E-13
 -1      1257 2.00016E+01 1.50222E+00 1.60870E-03-2.16825E-02-9.22575E-13 8.84760E-14
 -1      1258 1.99916E+01 8.84998E-01-1.37966E-02-2.04120E-02 6.80220E-14 7.91508E-14
 -1      1259 1.99820E+01 3.47329E-01-3.02758E-02-1.59106E-02 2.95453E-13 6.22332E-15
 -1      1260 1.99746E+01 3.63996E-02-2.66207E-02 1.06114E-02-7.62177E-14-1.10411E-13
 -1      1261 2.00108E+01-3.03894E-02 2.01738E-02 9.82464E-03-7.17568E-14 4.56486E-14
 -1      1262-1.04451E+00-2.43771E+01-3.75426E+00-2.27127E+00-1.45522E-12 1.46237E-14
 -1      1263-1.83181E+00-1.52056E+01-3.04665E+00-3.90764E+00 4.48308E-13 3.79197E-13
 -1      1264 2.31677E-01-2.59480E+00-1.91819E+00-1.35128E-01 1.70775E-12 1.17095E-12
 -1      1265 8.89198E+00 7.65756E+00-3.00257E-01 8.16215E+00 1.95954E-12 1.75815E-12
 -1      1266 2.55806E+01 1.11165E+01 1.41231E+00 1.61204E+01 1.41998E-12 2.00928E-12
 -1      1267 4.62828E+01 8.24786E+00 3.05976E+00 1.75834E+01 1.03106E-12 2.51843E-12
 -1      1268 6.23452E+01 3.53473E+00 3.97767E+00 9.76484E+00 3.97314E-13 1.79645E-12
 -1      1269 6.70137E+01 1.74643E+00 4.31325E+00-3.39296E+00-4.01762E-14 6.02185E-13
 -1      1270 5.55229E+01 5.45529E+00 3.54805E+00-1.47204E+01 2.24404E-13-4.44422E-13
 -1      1271 3.43946E+01 1.02346E+01 2.14086E+00-1.74035E+01 1.04750E-12-1.66489E-12
 -1      1272 1.41945E+01 9.19042E+00 2.98684E-01-1.10502E+01 1.71330E-12-1.84408E-12
 -1      1273 2.10763E+00 3.38216E-01-1.52412E+00-1.96529E+00 2.18292E-12-1.49136E-12
 -1      1274-1.68436E+00-1.28358E+01-2.85642E+00 3.56563E+00 1.73683E-12-7.58671E-13
 -1      1275-1.16227E+00-2.34019E+01-3.70796E+00 2.78121E+00 1.01524E-12-1.99583E-13
 -1      1276-1.09824E+00-2.43050E+01-3.72280E+00-1.62633E+00 2.31204E-13-1.40648E-13
 -1      1277-1.71191E+00-1.68130E+01-3.19598E+00-4.18322E+00-8.81406E-13-3.94462E-13
 -1      1278-1.40038E-01-3.85605E+00-2.00000E+00-7.58535E-01-1.52145E-12-1.04106E-12
 -1      1279 8.05459E+00 6.92036E+00-4.56162E-01 7.46382E+00-2.18070E-12-2.00484E-12
 -1      1280 2.43510E+01 1.09317E+01 1.27903E+00 1.55489E+01-1.50546E-12-2.09588E-12
 -1      1281 4.47312E+01 8.33733E+00 2.82320E+00 1.77941E+01-9.12159E-13-1.96088E-12
 -1      1282 6.15081E+01 3.64428E+00 3.95818E+00 1.10999E+01-2.65316E-13-4.01013E-13
 -1      1283 6.66476E+01 2.03601E+00 4.22989E+00-1.63425E+00-1.33255E-13 1.43549E-12
 -1      1284 5.83873E+01 4.63682E+00 3.76307E+00-1.36574E+01-6.75709E-13 2.47569E-12
 -1      1285 3.93287E+01 9.62050E+00 2.47378E+00-1.79997E+01-1.51446E-12 2.89702E-12
 -1      1286 2.02506E+01 1.09087E+01 9.53118E-01-1.43315E+01-1.94378E-12 2.70561E-12
 -1      1287 6.28581E+00 5.69335E+00-6.94747E-01-6.08995E+00-2.00284E-12 1.72307E-12
 -1      1288-6.19964E-01-5.16634E+00-2.13703E+00 1.52785E+00-2.09477E-12 1.25300E-12
 -1      1289-1.75232E+00-1.70972E+01-3.20271E+00 4.25804E+00-1.68465E-12 6.31412E-13
 -1      1290-1.07062E+00-2.45053E+01-3.75288E+00 2.02786E+00-1.98208E-12 1.04979E-13
 -1      1291 2.22621E+01 1.83794E+00-7.25878E-01-2.79124E+00-4.50751E-14 9.81937E-13
 -1      1292 2.03560E+01 4.68976E+00-4.86603E-02-3.30857E+00-1.31867E-13 8.91370E-14
 -1      1293 2.08627E+01 4.81012E+00-1.13463E-01-4.16253E+00-1.67338E-13 3.00024E-13
 -1      1294 1.95295E+01 4.99287E+00-1.96893E-02-2.65629E+00-1.37348E-13-2.06144E-13
 -1      1295 1.98271E+01 5.08956E+00 1.95095E-04-3.04726E+00-1.54335E-13-7.88120E-14
 -1      1296 2.05229E+01 3.95247E+00-2.59247E-02-3.07664E+00-2.35242E-13 9.05109E-14
 -1      1297 1.91837E+01 5.08428E+00-3.52635E-03-2.07269E+00-1.02710E-13-3.57693E-13
 -1      1298 1.93315E+01 5.13924E+00 1.05309E-02-2.36550E+00-1.24331E-13-2.89161E-13
 -1      1299 1.97516E+01 4.36557E+00-2.45278E-02-2.49109E+00-2.10051E-13-1.62571E-13
 -1      1300 1.90104E+01 5.13093E+00 3.30946E-03-1.56634E+00-7.58456E-14-4.35837E-13
 -1      1301 1.90874E+01 5.16029E+00 1.25455E-02-1.81650E+00-8.27134E-14-4.01401E-13
 -1      1302 1.93917E+01 4.55464E+00-2.00465E-02-1.93374E+00-1.53667E-13-2.90972E-13
 -1      1303 1.89180E+01 5.16107E+00 6.55276E-03-1.11842E+00-4.69390E-14-4.64413E-13
 -1      1304 1.89598E+01 5.17721E+00 1.26879E-02-1.34002E+00-5.86605E-14-4.50369E-13
 -1      1305 1.92075E+01 4.66146E+00-1.61182E-02-1.44602E+00-1.12125E-13-3.42767E-13
 -1      1306 1.88675E+01 5.18097E+00 8.22251E-03-6.94802E-01-2.18389E-14-4.64451E-13
 -1      1307 1.88900E+01 5.18967E+00 1.19821E-02-9.05240E-01-2.95736E-14-4.66811E-13
 -1      1308 1.91056E+01 4.72693E+00-1.40309E-02-1.00551E+00-6.42607E-14-3.75023E-13
 -1      1309 1.88441E+01 5.19296E+00 9.32359E-03-2.89602E-01 9.22163E-15-4.59143E-13
 -1      1310 1.88538E+01 5.19672E+00 1.10894E-02-4.91971E-01 1.14709E-15-4.62576E-13
 -1      1311 1.90509E+01 4.76587E+00-1.29268E-02-5.89581E-01-1.64877E-14-3.73642E-13
 -1      1312 1.88405E+01 5.19791E+00 1.02549E-02 1.08345E-01 3.54638E-14-4.43874E-13
 -1      1313 1.88402E+01 5.19778E+00 1.01821E-02-9.15892E-02 2.40543E-14-4.54475E-13
 -1      1314 1.90272E+01 4.78393E+00-1.24687E-02-1.89372E-01 3.23557E-14-3.68230E-13
 -1      1315 1.88555E+01 5.19635E+00 1.11854E-02 5.09319E-01 6.00414E-14-4.18249E-13
 -1      1316 1.88451E+01 5.19231E+00 9.26146E-03 3.06526E-01 5.10151E-14-4.32890E-13
 -1      1317 1.90281E+01 4.78329E+00-1.24856E-02 2.06030E-01 6.71769E-14-3.54793E-13
 -1      1318 1.88933E+01 5.18852E+00 1.21086E-02 9.24066E-01 8.69070E-14-3.88490E-13
 -1      1319 1.88699E+01 5.17962E+00 8.16829E-03 7.12669E-01 7.69489E-14-4.08049E-13
 -1      1320 1.90535E+01 4.76381E+00-1.29765E-02 6.06928E-01 1.13514E-13-3.29754E-13
 -1      1321 1.89640E+01 5.17532E+00 1.29076E-02 1.35765E+00 1.10042E-13-3.29261E-13
 -1      1322 1.89214E+01 5.15875E+00 6.47571E-03 1.13459E+00 1.00656E-13-3.64037E-13
 -1      1323 1.91100E+01 4.72330E+00-1.39992E-02 1.02066E+00 1.52719E-13-2.91597E-13
 -1      1324 1.90953E+01 5.15658E+00 1.28227E-02 1.84258E+00 1.44138E-13-2.33313E-13
 -1      1325 1.90166E+01 5.12645E+00 3.16521E-03 1.58966E+00 1.28696E-13-2.89289E-13
 -1      1326 1.92142E+01 4.65478E+00-1.61514E-02 1.46409E+00 1.93759E-13-2.27797E-13
 -1      1327 1.93424E+01 5.13307E+00 1.01458E-02 2.39977E+00 1.67297E-13-7.27925E-14
 -1      1328 1.91931E+01 5.07620E+00-4.35791E-03 2.10248E+00 1.49977E-13-1.71918E-13
 -1      1329 1.94053E+01 4.54220E+00-1.99939E-02 1.96002E+00 2.40761E-13-1.23550E-13
 -1      1330 1.98523E+01 5.09885E+00 5.99910E-03 3.08570E+00 1.78510E-13 2.05863E-13
 -1      1331 1.95412E+01 4.98408E+00-2.05372E-02 2.69846E+00 1.63800E-13 3.86288E-14
 -1      1332 1.97729E+01 4.34614E+00-2.45666E-02 2.52995E+00 2.63994E-13 5.92859E-14
 -1      1333 2.10988E+01 4.90642E+00 8.24677E-03 4.05522E+00 1.46383E-13 6.94153E-13
 -1      1334 2.03304E+01 4.73339E+00-4.79912E-02 3.41790E+00 1.44856E-13 4.04135E-13
 -1      1335 2.05609E+01 3.91569E+00-2.24351E-02 3.18009E+00 2.54935E-13 3.62751E-13
 -1      1336 2.71979E+01 3.20513E+00 9.29063E-01 4.58276E+00 5.73014E-14 1.55470E-12
 -1      1337 2.20153E+01 3.52184E+00-1.82012E-01 3.88598E+00 6.28664E-14 9.62425E-13
 -1      1338 2.21074E+01 2.56168E+00-3.25976E-02 3.45792E+00 2.34913E-13 7.97779E-13
 -1      1339 2.14214E+01 3.59655E-01-7.63498E-01 1.18457E+00 1.17156E-13 1.52134E-12
 -1      1340 2.19955E+01 1.31475E-01-4.00887E-01-1.28640E+00-1.31631E-13 1.02773E-12
 -1      1341 2.06720E+01 3.06746E-01-1.64868E-01-8.06353E-01-1.25906E-13 8.77021E-13
 -1      1342 2.00740E+01 1.53473E-01-7.35313E-02-4.02767E-01-9.50039E-14 8.12776E-13
 -1      1343 1.96033E+01 9.11694E-02-1.49373E-02-3.30606E-01-9.26551E-14 6.77302E-13
 -1      1344 2.09664E+01 3.69080E-01-1.04293E-01-1.27504E+00-2.18221E-13 5.05034E-13
 -1      1345 1.92454E+01 6.44848E-02 3.04065E-03-1.36030E-01-7.34560E-14 6.28150E-13
 -1      1346 1.90902E+01 4.12590E-02 1.32227E-02-1.18240E-01-7.86038E-14 5.22103E-13
 -1      1347 1.99147E+01 1.33888E-01-3.51396E-02-5.05251E-01-1.63865E-13 4.10321E-13
 -1      1348 1.89292E+01 3.15188E-02 1.32523E-02-2.87381E-02-5.91107E-14 4.73142E-13
 -1      1349 1.89088E+01 1.93863E-02 1.10661E-02-1.93624E-02-5.07099E-14 3.88942E-13
 -1      1350 1.94363E+01 5.54256E-02-8.51572E-03-1.71369E-01-1.23110E-13 3.32050E-13
 -1      1351 1.88522E+01 1.59990E-02 8.79556E-03 2.42722E-02-1.28296E-14 3.61445E-13
 -1      1352 1.88936E+01 9.08063E-03 6.45343E-03 2.88938E-02-1.90577E-14 3.40004E-13
 -1      1353 1.92263E+01 2.43922E-02-3.49703E-03-1.25606E-02-7.84078E-14 2.47676E-13
 -1      1354 1.88931E+01 7.86037E-03 4.69724E-03 5.00763E-02-2.38262E-14 3.37194E-13
 -1      1355 1.89625E+01 3.54137E-03 3.66361E-03 5.19708E-02-2.39087E-14 2.88901E-13
 -1      1356 1.91684E+01 1.01821E-02-2.22099E-03 6.61275E-02-5.21278E-14 1.98109E-13
 -1      1357 1.89916E+01 3.23331E-03 2.47407E-03 6.08729E-02-8.25734E-15 2.72525E-13
 -1      1358 1.90713E+01 4.24647E-04 2.24186E-03 6.11682E-02-1.13286E-14 2.48637E-13
 -1      1359 1.91936E+01 2.81730E-03-1.34154E-03 1.03115E-01-3.89603E-14 1.75779E-13
 -1      1360 1.91147E+01 5.52779E-04 1.37358E-03 6.30963E-02-1.72321E-14 2.38571E-13
 -1      1361 1.91950E+01-1.28759E-03 1.48297E-03 6.24765E-02-2.23969E-14 2.12859E-13
 -1      1362 1.92623E+01-1.17451E-03-5.97328E-04 1.16816E-01-4.82824E-14 1.70550E-13
 -1      1363 1.92440E+01-9.35427E-04 8.00840E-04 6.05406E-02-3.47407E-14 1.92442E-13
 -1      1364 1.93197E+01-2.11109E-03 1.03126E-03 5.94554E-02-6.72822E-14 1.27483E-13
 -1      1365 1.93509E+01-3.24137E-03-6.68602E-05 1.17328E-01-5.64165E-14 1.42879E-13
 -1      1366 1.93692E+01-1.64391E-03 4.78896E-04 5.56304E-02-5.27488E-14 1.32856E-13
 -1      1367 1.94379E+01-2.34252E-03 7.41506E-04 5.43868E-02 1.21364E-14 1.14119E-13
 -1      1368 1.94459E+01-4.10007E-03 2.45145E-04 1.10790E-01-7.38633E-14 1.76719E-13
 -1      1369 1.94853E+01-1.81832E-03 2.91531E-04 4.99960E-02 4.52889E-14 5.42500E-14
 -1      1370 1.95465E+01-2.16393E-03 5.53485E-04 4.88099E-02 1.47583E-14 7.67056E-14
 -1      1371 1.95399E+01-4.15347E-03 3.79329E-04 1.01198E-01-3.44278E-15 1.28484E-13
 -1      1372 1.95910E+01-1.61066E-03 1.85951E-04 4.47798E-02-3.19649E-14 5.47008E-14
 -1      1373 1.96455E+01-1.68862E-03 4.37606E-04 4.38080E-02-4.56508E-14 2.64697E-14
 -1      1374 1.96292E+01-3.64389E-03 3.79572E-04 9.12848E-02-2.17480E-14 1.36724E-14
 -1      1375 1.96873E+01-1.11409E-03 1.33415E-04 4.08212E-02-3.48152E-14 1.48946E-14
 -1      1376 1.97368E+01-9.84253E-04 3.76132E-04 4.01852E-02-5.69759E-14-2.53366E-14
 -1      1377 1.97133E+01-2.71714E-03 2.79045E-04 8.30050E-02-6.00803E-14 3.70267E-15
 -1      1378 1.97772E+01-3.81630E-04 1.15263E-04 3.87808E-02-1.23821E-14-5.04739E-15
 -1      1379 1.98241E+01-8.67101E-05 3.56734E-04 3.85831E-02-1.28584E-14-5.37799E-14
 -1      1380 1.97937E+01-1.45439E-03 9.93690E-05 7.78437E-02-6.36267E-14 5.09783E-14
 -1      1381 1.98651E+01 5.62122E-04 1.17481E-04 3.92266E-02-2.48344E-14-2.82974E-14
 -1      1382 1.99127E+01 9.90229E-04 3.69640E-04 3.95629E-02-4.99482E-14-3.83004E-14
 -1      1383 1.98734E+01 1.09111E-04-1.46998E-04 7.70195E-02-1.20405E-14 3.86526E-14
 -1      1384 1.99568E+01 1.71222E-03 1.27911E-04 4.26937E-02-3.47114E-14-4.84899E-14
 -1      1385 2.00088E+01 2.24639E-03 4.05738E-04 4.36620E-02-4.83316E-14-8.40877E-14
 -1      1386 1.99566E+01 1.97036E-03-4.54139E-04 8.16273E-02-6.79045E-14 8.56403E-14
 -1      1387 2.00590E+01 3.07489E-03 1.34270E-04 4.97209E-02-3.18219E-15-8.57864E-14
 -1      1388 2.01200E+01 3.68592E-03 4.54794E-04 5.14255E-02 6.47355E-15-5.71849E-14
 -1      1389 2.00490E+01 4.14589E-03-8.20182E-04 9.27289E-02-1.78750E-14 4.45875E-14
 -1      1390 2.01800E+01 4.65725E-03 1.22427E-04 6.08596E-02-1.85520E-14-1.14946E-13
 -1      1391 2.02550E+01 5.30487E-03 5.03470E-04 6.34104E-02-1.52876E-14-1.09051E-13
 -1      1392 2.01571E+01 6.65638E-03-1.24461E-03 1.11393E-01-4.15794E-14-6.26322E-15
 -1      1393 2.03289E+01 6.45246E-03 7.48434E-05 7.66468E-02-5.49694E-14-1.38323E-13
 -1      1394 2.04238E+01 7.07282E-03 5.33089E-04 8.01510E-02-7.91082E-14-2.38221E-13
 -1      1395 2.02883E+01 9.50423E-03-1.72483E-03 1.38671E-01-7.96135E-14-3.02413E-14
 -1      1396 2.05161E+01 8.41648E-03-3.04976E-05 9.75223E-02-2.32329E-14-2.96478E-13
 -1      1397 2.06372E+01 8.90395E-03 5.17496E-04 1.02062E-01-4.13952E-14-3.27123E-13
 -1      1398 2.04511E+01 1.26380E-02-2.25133E-03 1.75478E-01-7.86339E-14-1.23755E-13
 -1      1399 2.07525E+01 1.04308E-02-2.19592E-04 1.23658E-01 5.43680E-14-2.36830E-13
 -1      1400 2.09062E+01 1.06118E-02 4.22356E-04 1.29250E-01 6.48437E-14-1.44827E-13
 -1      1401 2.06544E+01 1.58940E-02-2.80014E-03 2.22331E-01 4.86319E-14-2.42064E-13
 -1      1402 2.10486E+01 1.22429E-02-5.17755E-04 1.54651E-01 4.71259E-15-1.72179E-13
 -1      1403 2.12409E+01 1.18402E-02 2.09095E-04 1.61166E-01-2.89265E-16-1.28428E-13
 -1      1404 2.09066E+01 1.89018E-02-3.32101E-03 2.78863E-01 5.17342E-14-1.88133E-13
 -1      1405 2.14136E+01 1.33771E-02-9.35717E-04 1.89006E-01 9.88792E-15-6.06754E-14
 -1      1406 2.16481E+01 1.19668E-02-1.50169E-04 1.96045E-01 1.21127E-14-3.70710E-14
 -1      1407 2.12153E+01 2.09384E-02-3.71859E-03 3.42990E-01 1.40638E-14-8.71816E-14
 -1      1408 2.18515E+01 1.30116E-02-1.43836E-03 2.23334E-01 4.65960E-14-1.06208E-14
 -1      1409 2.21271E+01 9.98897E-03-6.37448E-04 2.30023E-01 4.98863E-14 2.34335E-14
 -1      1410 2.15841E+01 2.07240E-02-3.82384E-03 4.09609E-01 2.15938E-14 9.94630E-14
 -1      1411 2.23573E+01 9.84786E-03-1.88778E-03 2.51229E-01-1.02690E-14 8.54698E-15
 -1      1412 2.26642E+01 4.44504E-03-1.12580E-03 2.55935E-01-5.04935E-15 2.33355E-14
 -1      1413 2.20102E+01 1.61923E-02-3.35601E-03 4.68706E-01 9.44058E-15 5.67304E-14
 -1      1414 2.29095E+01 2.06097E-03-1.96365E-03 2.61967E-01-2.57932E-15 1.72744E-14
 -1      1415 2.32234E+01-6.47757E-03-1.30047E-03 2.61978E-01-6.44033E-14-7.00464E-14
 -1      1416 2.24793E+01 4.37537E-03-1.88665E-03 5.03047E-01-5.89140E-14 4.17661E-14
 -1      1417 2.34614E+01-1.24312E-02-1.10794E-03 2.39651E-01-1.06842E-13-1.49226E-13
 -1      1418 2.37371E+01-2.43337E-02-6.22811E-04 2.31025E-01-8.39689E-14-2.72594E-13
 -1      1419 2.29597E+01-1.82168E-02 1.15184E-03 4.86238E-01-1.77083E-13-5.43320E-14
 -1      1420 2.39316E+01-3.49220E-02 1.38623E-03 1.64414E-01 4.12561E-14-2.36353E-13
 -1      1421 2.40991E+01-4.88437E-02 1.49922E-03 1.42491E-01 3.50588E-14-2.18452E-13
 -1      1422 2.33959E+01-5.40027E-02 6.31119E-03 3.83432E-01-2.86889E-14-1.55414E-13
 -1      1423 2.42005E+01-6.36121E-02 5.89289E-03 1.84989E-02 9.68583E-15-1.21156E-13
 -1      1424 2.41708E+01-7.51269E-02 5.16621E-03-2.00850E-02-2.08514E-15-8.77102E-14
 -1      1425 2.37053E+01-1.00664E-01 1.36482E-02 1.59042E-01 6.85285E-14-1.13535E-13
 -1      1426 2.41233E+01-9.00479E-02 1.15201E-02-1.99610E-01-4.46466E-14-1.16318E-13
 -1      1427 2.38133E+01-9.07013E-02 9.03944E-03-2.52556E-01-5.97673E-14-2.17139E-13
 -1      1428 2.37838E+01-1.45470E-01 2.17955E-02-2.02825E-01-5.13478E-15 4.84205E-16
 -1      1429 2.35752E+01-9.68268E-02 1.50893E-02-4.53683E-01-4.31400E-14-2.72671E-13
 -1      1430 2.29585E+01-7.64652E-02 9.81069E-03-5.07341E-01-5.98766E-14-3.12209E-13
 -1      1431 2.35309E+01-1.61248E-01 2.68664E-02-6.63223E-01-1.47347E-13-1.49117E-13
 -1      1432 2.25370E+01-6.30961E-02 1.19582E-02-6.54600E-01 1.42720E-14-4.02969E-13
 -1      1433 2.17048E+01-1.79961E-02 3.67705E-03-6.82663E-01-4.11884E-14-3.88155E-13
 -1      1434 2.29036E+01-1.14383E-01 2.24861E-02-1.09342E+00-1.03435E-13-2.11602E-13
 -1      1435 2.11920E+01 1.69764E-02-1.80462E-04-6.80986E-01-4.91321E-14-3.93928E-13
 -1      1436 2.03760E+01 7.38053E-02-9.51509E-03-6.56292E-01 6.13155E-14-4.79589E-13
 -1      1437 2.19896E+01 8.34032E-03 3.84679E-03-1.28420E+00-3.34260E-14-2.86254E-13
 -1      1438 1.99475E+01 1.13519E-01-1.64554E-02-4.54908E-01 1.28071E-13-4.72747E-13
 -1      1439 1.94477E+01 1.52835E-01-2.26195E-02-3.73826E-01 8.99905E-14-3.11765E-13
 -1      1440 2.10520E+01 1.67624E-01-2.48561E-02-1.04738E+00 1.00727E-13-3.85530E-13
 -1      1441 1.92878E+01 1.68790E-01-2.57073E-02-3.09767E-02-8.25676E-14-3.31984E-13
 -1      1442 1.93126E+01 1.65499E-01-2.52982E-02 7.23726E-02-1.47649E-13-5.02169E-13
 -1      1443 2.04598E+01 2.77577E-01-4.68796E-02-3.82346E-01 6.10102E-15-4.92351E-13
 -1      1444 1.94937E+01 1.44552E-01-2.12103E-02 4.03019E-01-5.64045E-14-5.53863E-13
 -1      1445 2.00252E+01 1.00889E-01-1.44775E-02 4.77344E-01-3.79696E-14-5.60954E-13
 -1      1446 2.04821E+01 2.68306E-01-4.49236E-02 4.46791E-01-1.63803E-13-5.66062E-13
 -1      1447 2.04526E+01 5.98973E-02-7.46580E-03 6.50604E-01-6.76108E-15-6.07139E-13
 -1      1448 2.12583E+01 3.07340E-03 1.75079E-03 6.66666E-01-7.53043E-15-5.75859E-13
 -1      1449 2.10952E+01 1.45390E-01-2.08094E-02 1.06090E+00-5.57002E-14-4.98671E-13
 -1      1450 2.17409E+01-2.99074E-02 5.03254E-03 6.40693E-01-5.99620E-14-5.67858E-13
 -1      1451 2.25206E+01-7.20941E-02 1.28139E-02 6.06582E-01 3.57214E-14-5.80723E-13
 -1      1452 2.20006E+01-1.39979E-02 7.47049E-03 1.22880E+00-6.09388E-14-5.22606E-13
 -1      1453 2.28901E+01-8.28098E-02 1.01731E-02 4.42493E-01 3.89168E-14-5.93622E-13
 -1      1454 2.34273E+01-9.98674E-02 1.48622E-02 3.86541E-01-7.30197E-14-5.87010E-13
 -1      1455 2.28316E+01-1.28268E-01 2.43471E-02 9.84553E-01 1.52378E-14-6.32397E-13
 -1      1456 2.36034E+01-9.23204E-02 8.83244E-03 1.79917E-01-1.90846E-14-4.73791E-13
 -1      1457 2.38243E+01-8.94538E-02 1.08138E-02 1.27114E-01-2.12321E-14-5.51389E-13
 -1      1458 2.33458E+01-1.65926E-01 2.71718E-02 5.28662E-01 4.11945E-14-3.53730E-13
 -1      1459 2.38081E+01-7.45738E-02 4.95620E-03-5.15154E-02 8.02223E-15-5.55945E-13
 -1      1460 2.37494E+01-6.19525E-02 5.31626E-03-8.92487E-02-3.01651E-14-5.70148E-13
 -1      1461 2.34754E+01-1.44731E-01 2.14443E-02 6.38261E-02-4.87874E-14-3.56747E-13
 -1      1462 2.35861E+01-4.79528E-02 1.61364E-03-2.10567E-01-3.42552E-14-4.20079E-13
 -1      1463 2.33341E+01-3.33830E-02 1.20091E-03-2.31824E-01 1.03202E-13-3.44863E-13
 -1      1464 2.32749E+01-9.85378E-02 1.32225E-02-2.93289E-01 9.33862E-14-1.75072E-13
 -1      1465 2.30806E+01-2.35901E-02-1.14951E-04-2.95780E-01 1.37542E-13-2.09617E-13
 -1      1466 2.27245E+01-1.08533E-02-8.72336E-04-3.03981E-01 1.45509E-13-6.76161E-14
 -1      1467 2.28485E+01-5.21247E-02 6.01059E-03-5.11258E-01 2.16166E-13-7.37604E-15
 -1      1468 2.24317E+01-5.23598E-03-5.08390E-04-3.22824E-01 1.06292E-13-2.01377E-13
 -1      1469 2.20427E+01 4.82460E-03-1.48917E-03-3.22104E-01 6.63857E-14-9.92557E-14
 -1      1470 2.23019E+01-1.59815E-02 8.29544E-04-6.06925E-01 1.73550E-13-1.34982E-13
 -1      1471 2.17496E+01 7.76822E-03-3.82704E-04-3.08806E-01 1.76571E-13-2.10075E-14
 -1      1472 2.13791E+01 1.57532E-02-1.60853E-03-3.02099E-01 1.39467E-13 1.10490E-13
 -1      1473 2.17215E+01 9.41661E-03-2.63931E-03-6.11293E-01 2.11014E-13 5.62428E-14
 -1      1474 2.11143E+01 1.78184E-02-6.60808E-04-2.65155E-01 1.10502E-15 2.02255E-13
 -1      1475 2.08003E+01 2.46341E-02-2.11062E-03-2.53625E-01-1.86478E-14 2.27669E-13
 -1      1476 2.11711E+01 2.81842E-02-5.16584E-03-5.50209E-01 1.09209E-13-2.54159E-14
 -1      1477 2.05845E+01 2.73198E-02-2.01085E-03-1.96536E-01 1.07718E-14 1.67933E-13
 -1      1478 2.03604E+01 3.31764E-02-2.66405E-03-1.79572E-01 1.61624E-14 2.02120E-13
 -1      1479 2.06975E+01 4.54557E-02-7.16919E-03-4.37637E-01 1.12219E-14-3.41003E-15
 -1      1480 2.02053E+01 3.96742E-02-2.65421E-03-1.03118E-01 5.56985E-14 1.59616E-13
 -1      1481 2.00987E+01 3.68315E-02 4.36006E-04-8.14964E-02-4.68950E-14 1.50576E-13
 -1      1482 2.03316E+01 6.49865E-02-8.02194E-03-2.80578E-01 1.22524E-13 1.58941E-14
 -1      1483 1.99984E+01 1.06672E-02 3.14184E-03 5.77216E-03-1.79723E-13 1.62344E-13
 -1      1484 2.00701E+01 5.84194E-02-3.14212E-03-7.69757E-02-1.10127E-13 6.14981E-14
 -1      1485 2.02527E+01 7.54869E-02-1.52114E-01 4.84442E-01 1.07168E-13 1.27632E-12
 -1      1486 2.15238E+01 2.16113E-01-2.29289E-01 7.21461E-01 9.87543E-14 1.43699E-12
 -1      1487 2.17228E+01 8.81857E-01-8.54339E-02 2.06592E+00 1.87912E-13 1.01380E-12
 -1      1488 1.93230E+01 3.23741E-02-2.13405E-02 1.86598E-01 7.54674E-14 1.05860E-12
 -1      1489 1.97445E+01 1.13600E-01-6.27133E-02 2.38597E-01 7.65533E-14 1.18119E-12
 -1      1490 2.02965E+01 1.87707E-01-5.51761E-02 7.87265E-01 1.66839E-13 8.38058E-13
 -1      1491 1.89397E+01 1.50912E-02 5.66559E-03 5.41358E-02 4.55278E-14 9.16305E-13
 -1      1492 1.90791E+01 5.15972E-02 9.70954E-04 8.04229E-02 4.27757E-14 9.78224E-13
 -1      1493 1.95503E+01 7.18278E-02-1.21430E-02 3.00117E-01 1.11338E-13 7.04077E-13
 -1      1494 1.88276E+01 7.11073E-03 6.97504E-03-8.30605E-03 6.14981E-14 8.12251E-13
 -1      1495 1.88431E+01 2.58265E-02 1.10851E-02 6.06045E-03 4.35259E-14 8.80514E-13
 -1      1496 1.92136E+01 3.10092E-02-2.45244E-03 8.47035E-02 9.07122E-14 5.86857E-13
 -1      1497 1.88519E+01 3.21357E-03 4.78120E-03-3.85377E-02 3.35348E-14 7.49083E-13
 -1      1498 1.88091E+01 1.37862E-02 8.51848E-03-3.04458E-02 3.72766E-14 7.84423E-13
 -1      1499 1.90958E+01 1.32509E-02-1.60846E-03-2.02140E-02 7.70712E-14 5.20277E-13
 -1      1500 1.89444E+01 1.07316E-03 3.29296E-03-5.20129E-02-3.38442E-14 7.77599E-13
 -1      1501 1.88749E+01 7.27809E-03 5.37052E-03-4.75587E-02-1.29356E-14 7.47378E-13
 -1      1502 1.90957E+01 4.56079E-03-1.62235E-03-7.17392E-02-5.63850E-15 5.57489E-13
 -1      1503 1.90674E+01-1.43126E-04 2.50934E-03-5.61022E-02 4.14251E-14 7.62627E-13
 -1      1504 1.89882E+01 3.47908E-03 3.44087E-03-5.38891E-02 5.59622E-15 7.58038E-13
 -1      1505 1.91575E+01-4.90282E-05-1.36955E-03-9.45682E-02-6.78862E-15 5.02752E-13
 -1      1506 1.91994E+01-8.01212E-04 2.03713E-03-5.49106E-02 5.14679E-14 6.26782E-13
 -1      1507 1.91199E+01 1.20886E-03 2.34638E-03-5.40830E-02 6.35501E-14 7.16000E-13
 -1      1508 1.92491E+01-2.48682E-03-1.00228E-03-1.01205E-01 7.45650E-14 4.59949E-13
 -1      1509 1.93286E+01-1.09229E-03 1.68100E-03-5.09537E-02 5.81084E-14 5.04242E-13
 -1      1510 1.92538E+01-1.04242E-04 1.67622E-03-5.09492E-02 3.33484E-14 5.65467E-13
 -1      1511 1.93518E+01-3.63617E-03-6.77144E-04-9.87911E-02 9.03611E-14 3.24137E-13
 -1      1512 1.94490E+01-1.13006E-03 1.37389E-03-4.58788E-02 5.44375E-14 4.22140E-13
 -1      1513 1.93811E+01-7.73523E-04 1.22693E-03-4.63081E-02 6.24312E-14 4.86406E-13
 -1      1514 1.94553E+01-3.96519E-03-4.41367E-04-9.17765E-02 8.30918E-14 2.39544E-13
 -1      1515 1.95584E+01-9.86033E-04 1.09607E-03-4.08142E-02 3.92776E-14 3.33068E-13
 -1      1516 1.94980E+01-9.87404E-04 9.10057E-04-4.13962E-02 2.85618E-14 3.82284E-13
 -1      1517 1.95541E+01-3.74832E-03-2.95165E-04-8.31056E-02 6.21273E-14 2.78767E-13
 -1      1518 1.96575E+01-7.04603E-04 8.40893E-04-3.65680E-02-9.48880E-15 3.37389E-13
 -1      1519 1.96038E+01-8.62990E-04 6.84514E-04-3.70892E-02 6.21362E-15 2.92031E-13
 -1      1520 1.96463E+01-3.15415E-03-2.28477E-04-7.48208E-02 2.32450E-14 1.88828E-13
 -1      1521 1.97489E+01-3.10980E-04 6.03683E-04-3.37541E-02 8.77601E-15 3.59044E-13
 -1      1522 1.97002E+01-4.71055E-04 5.27652E-04-3.40411E-02-1.77929E-14 3.59413E-13
 -1      1523 1.97326E+01-2.28466E-03-2.33194E-04-6.84102E-02-8.19829E-15 2.38056E-13
 -1      1524 1.98368E+01 1.83573E-04 3.79014E-04-3.28794E-02 4.29246E-14 2.57580E-13
 -1      1525 1.97906E+01 1.50272E-04 4.24689E-04-3.27789E-02 2.90685E-14 3.18105E-13
 -1      1526 1.98153E+01-1.19611E-03-3.05805E-04-6.50318E-02 4.34218E-14 1.66308E-13
 -1      1527 1.99268E+01 7.77563E-04 1.60193E-04-3.44053E-02 1.08371E-14 1.97705E-13
 -1      1528 1.98798E+01 9.86548E-04 3.64792E-04-3.37688E-02 5.48769E-14 2.32791E-13
 -1      1529 1.98984E+01 8.75866E-05-4.47394E-04-6.56676E-02 6.86488E-14 1.69568E-13
 -1      1530 2.00255E+01 1.47518E-03-6.06499E-05-3.87890E-02 4.58605E-14 4.80689E-14
 -1      1531 1.99741E+01 2.03978E-03 3.39166E-04-3.74614E-02 1.50212E-14 9.29071E-14
 -1      1532 1.99871E+01 1.56422E-03-6.63042E-04-7.12282E-02 7.44616E-14 9.62372E-14
 -1      1533 2.01410E+01 2.28131E-03-2.92216E-04-4.65035E-02 1.11340E-13-6.60212E-14
 -1      1534 2.00807E+01 3.32088E-03 3.39672E-04-4.43157E-02 5.33509E-14 2.91448E-14
 -1      1535 2.00876E+01 3.24316E-03-9.60910E-04-8.26167E-02 9.26015E-14-4.75469E-14
 -1      1536 2.02825E+01 3.19439E-03-5.43271E-04-5.80317E-02-3.62485E-14-2.16103E-13
 -1      1537 2.02081E+01 4.83971E-03 3.57478E-04-5.47994E-02 9.29320E-14-8.45437E-14
 -1      1538 2.02073E+01 5.13285E-03-1.35065E-03-1.00746E-01 1.43995E-13 2.81005E-14
 -1      1539 2.04603E+01 4.19513E-03-8.20892E-04-7.38225E-02-3.59498E-14-1.69946E-13
 -1      1540 2.03662E+01 6.58971E-03 3.81562E-04-6.93541E-02-5.96098E-14-2.11880E-13
 -1      1541 2.03545E+01 7.22301E-03-1.84042E-03-1.26494E-01-4.37406E-14-3.80626E-14
 -1      1542 2.06858E+01 5.22835E-03-1.12652E-03-9.41855E-02-9.40103E-14-1.46868E-14
 -1      1543 2.05655E+01 8.52279E-03 3.97222E-04-8.83068E-02-4.84969E-14-1.27090E-13
 -1      1544 2.05384E+01 9.45631E-03-2.43123E-03-1.60570E-01-9.05842E-14-3.76280E-14
 -1      1545 2.09702E+01 6.17388E-03-1.44740E-03-1.19089E-01 2.12295E-14 7.44118E-14
 -1      1546 2.08173E+01 1.05080E-02 3.85268E-04-1.11696E-01-5.13123E-14 1.56784E-14
 -1      1547 2.07684E+01 1.16827E-02-3.10640E-03-2.03239E-01-1.40428E-13 6.71625E-15
 -1      1548 2.13238E+01 6.80236E-03-1.73913E-03-1.47808E-01 2.95933E-14-1.12783E-14
 -1      1549 2.11323E+01 1.22654E-02 3.23850E-04-1.38964E-01 4.93256E-14 1.22352E-13
 -1      1550 2.10534E+01 1.35862E-02-3.81271E-03-2.53810E-01 3.74514E-14 8.65386E-14
 -1      1551 2.17526E+01 6.71358E-03-1.89280E-03-1.78341E-01 2.62435E-14 1.88382E-14
 -1      1552 2.15189E+01 1.32677E-02 1.97057E-04-1.68455E-01-1.14622E-15-3.16153E-15
 -1      1553 2.13999E+01 1.45742E-02-4.42839E-03-3.09806E-01 2.17933E-14 1.07267E-13
 -1      1554 2.22546E+01 5.26659E-03-1.68126E-03-2.06545E-01 4.59595E-14 1.06365E-13
 -1      1555 2.19795E+01 1.26113E-02 1.72563E-05-1.96648E-01-2.12804E-14 3.69557E-14
 -1      1556 2.18096E+01 1.36265E-02-4.71383E-03-3.65666E-01-1.59081E-14-5.19723E-15
 -1      1557 2.28124E+01 1.54054E-03-6.91628E-04-2.24991E-01-7.08835E-15 5.81254E-14
 -1      1558 2.25057E+01 8.89279E-03-1.31386E-04-2.17129E-01 6.36349E-14 1.33484E-13
 -1      1559 2.22747E+01 9.13580E-03-4.24901E-03-4.10944E-01 2.84839E-14 9.57108E-14
 -1      1560 2.33840E+01-5.56412E-03 1.70566E-03-2.21822E-01-4.14924E-14 1.63697E-13
 -1      1561 2.30700E+01 2.16894E-04-3.05783E-05-2.19512E-01-4.76459E-14 1.05813E-13
 -1      1562 2.27725E+01-1.13879E-03-2.38937E-03-4.28254E-01-3.89461E-14 2.96111E-13
 -1      1563 2.38922E+01-1.68517E-02 6.20242E-03-1.80579E-01-7.09285E-15 9.84126E-14
 -1      1564 2.36163E+01-1.53660E-02 7.11265E-04-1.89030E-01 3.46706E-14 1.55022E-13
 -1      1565 2.32577E+01-1.96792E-02 1.66614E-03-3.92006E-01 3.14540E-14 2.52272E-13
 -1      1566 2.42184E+01-3.16872E-02 1.29556E-02-8.30910E-02 5.08569E-14 6.36171E-14
 -1      1567 2.40510E+01-3.85070E-02 2.54134E-03-1.08516E-01-3.06847E-14 5.36897E-14
 -1      1568 2.36563E+01-4.77670E-02 8.50116E-03-2.70529E-01-9.26342E-15 1.51292E-13
 -1      1569 2.42116E+01-4.62059E-02 2.04248E-02 8.14909E-02 3.63104E-14-2.12811E-13
 -1      1570 2.42428E+01-6.59699E-02 5.51045E-03 3.45337E-02 4.80345E-14-1.17818E-13
 -1      1571 2.38655E+01-8.24141E-02 1.75960E-02-3.61999E-02 1.34346E-13-1.91618E-14
 -1      1572 2.37290E+01-5.18789E-02 2.42087E-02 2.99876E-01 5.39612E-14-4.93584E-13
 -1      1573 2.40436E+01-8.75902E-02 8.51042E-03 2.33816E-01 4.97016E-14-2.97939E-13
 -1      1574 2.37692E+01-1.12042E-01 2.61936E-02 3.11940E-01 8.94840E-14-2.20118E-13
 -1      1575 2.27192E+01-3.73776E-02 1.75748E-02 5.15541E-01-6.13971E-14-2.82156E-13
 -1      1576 2.33452E+01-8.60814E-02 8.69580E-03 4.46202E-01-6.07318E-14-3.98105E-13
 -1      1577 2.32807E+01-1.14355E-01 2.89251E-02 7.15430E-01-6.54095E-14-1.23956E-13
 -1      1578 2.13268E+01 2.58989E-03-3.91984E-03 6.27568E-01-3.86016E-14-1.45987E-13
 -1      1579 2.21722E+01-4.54813E-02 2.44477E-03 5.84931E-01-6.79741E-14-2.67356E-13
 -1      1580 2.24135E+01-6.41655E-02 2.00864E-02 1.03435E+00-1.04370E-13-1.05832E-13
 -1      1581 1.99411E+01 5.56199E-02-3.43755E-02 5.35260E-01 4.14148E-14-8.36484E-14
 -1      1582 2.07681E+01 3.11742E-02-1.08180E-02 5.50039E-01 1.19783E-15-1.18558E-13
 -1      1583 2.13519E+01 4.34302E-02-4.42337E-04 1.08077E+00-5.62233E-14 1.58901E-15
 -1      1584 1.90837E+01 9.11941E-02-5.60400E-02 2.22260E-01-7.10890E-15-1.08337E-13
 -1      1585 1.95816E+01 1.10071E-01-2.49285E-02 3.00645E-01 8.58619E-14-4.51444E-14
 -1      1586 2.04452E+01 1.68417E-01-2.32264E-02 7.34262E-01 7.95388E-14-4.78211E-14
 -1      1587 1.91277E+01 8.38966E-02-5.11929E-02-1.90184E-01 2.04092E-13-4.46920E-13
 -1      1588 1.90821E+01 1.43281E-01-2.92374E-02-8.10295E-02 8.22033E-14-2.35899E-13
 -1      1589 2.00638E+01 2.34551E-01-3.46122E-02 7.63090E-02 1.91708E-13-1.44930E-13
 -1      1590 2.00411E+01 3.96099E-02-2.19217E-02-5.08752E-01 1.64885E-13-8.77270E-13
 -1      1591 1.94795E+01 1.10963E-01-1.85729E-02-4.20366E-01 1.78050E-13-6.22655E-13
 -1      1592 2.03711E+01 1.91299E-01-2.93686E-02-6.05755E-01 2.87156E-13-3.45028E-13
 -1      1593 2.14104E+01-1.18083E-02 1.24300E-02-6.07871E-01-4.83611E-14-8.86957E-13
 -1      1594 2.05817E+01 3.87491E-02 1.36605E-04-5.73080E-01 1.18091E-14-8.62269E-13
 -1      1595 2.12085E+01 6.70810E-02-1.44789E-02-1.00991E+00 9.95939E-14-4.64011E-13
 -1      1596 2.27121E+01-4.43897E-02 3.32936E-02-4.97485E-01-1.38315E-13-7.00974E-13
 -1      1597 2.19264E+01-2.93971E-02 1.53029E-02-5.14613E-01-2.54224E-14-7.45695E-13
 -1      1598 2.22110E+01-5.99400E-02-1.84960E-04-1.01849E+00-1.17849E-13-5.75345E-13
 -1      1599 2.35816E+01-5.17619E-02 3.60155E-02-2.77419E-01-4.55417E-14-4.87711E-13
 -1      1600 2.30532E+01-6.60956E-02 2.04098E-02-3.22850E-01-1.25617E-13-6.66127E-13
 -1      1601 2.30267E+01-1.30674E-01 7.91998E-03-7.25335E-01-1.68879E-13-4.64391E-13
 -1      1602 2.39051E+01-4.24742E-02 2.70824E-02-5.12392E-02 2.66523E-14-5.49631E-13
 -1      1603 2.36996E+01-7.06174E-02 1.68865E-02-1.00766E-01 7.32643E-14-4.22828E-13
 -1      1604 2.34630E+01-1.37439E-01 1.01229E-02-3.16135E-01-1.07761E-14-2.42596E-13
 -1      1605 2.37538E+01-2.74364E-02 1.51655E-02 1.21943E-01 4.14512E-14-4.53792E-13
 -1      1606 2.38268E+01-5.62864E-02 9.78931E-03 8.22458E-02-1.33467E-13-5.30655E-13
 -1      1607 2.34970E+01-1.05923E-01 8.95706E-03 5.72161E-02-6.34614E-14-4.10905E-13
 -1      1608 2.32773E+01-1.35638E-02 5.40694E-03 2.27156E-01-7.12538E-14-4.04418E-13
 -1      1609 2.35389E+01-3.63580E-02 3.34510E-03 2.01198E-01 6.93022E-14-3.58326E-13
 -1      1610 2.32101E+01-6.40553E-02 6.68533E-03 3.22474E-01-1.55466E-14 9.31720E-15
 -1      1611 2.26267E+01-3.22295E-03-7.91365E-04 2.73740E-01 6.13264E-14-3.07636E-13
 -1      1612 2.29877E+01-1.83319E-02-7.50744E-04 2.60022E-01-1.48410E-14-2.78338E-13
 -1      1613 2.27182E+01-2.78841E-02 4.46436E-03 4.70922E-01-8.82024E-14-4.04832E-14
 -1      1614 2.19228E+01 3.89889E-03-4.18846E-03 2.77561E-01 3.35343E-14-5.74287E-13
 -1      1615 2.23131E+01-4.41199E-03-2.62009E-03 2.73139E-01 3.81904E-14-5.60071E-13
 -1      1616 2.21299E+01-1.99416E-03 2.56851E-03 5.23814E-01 1.51653E-13-3.09633E-13
 -1      1617 2.12529E+01 9.14337E-03-6.29856E-03 2.51446E-01 2.11681E-13-1.02385E-12
 -1      1618 2.16227E+01 6.21787E-03-3.21229E-03 2.54092E-01 2.39269E-13-6.03160E-13
 -1      1619 2.15301E+01 1.53510E-02 7.11565E-04 5.07203E-01 3.18326E-13-6.89748E-13
 -1      1620 2.06823E+01 1.40102E-02-8.37411E-03 2.01937E-01 8.68325E-14-1.22035E-12
 -1      1621 2.09942E+01 1.55771E-02-3.61539E-03 2.11011E-01 1.02357E-13-1.05319E-12
 -1      1622 2.09818E+01 2.81421E-02-1.64381E-03 4.39656E-01 2.16242E-13-7.58497E-13
 -1      1623 2.02663E+01 1.95062E-02-9.30077E-03 1.29278E-01 6.32524E-15-1.33017E-12
 -1      1624 2.04861E+01 2.56978E-02-4.18450E-03 1.46426E-01 9.64545E-14-1.19380E-12
 -1      1625 2.05311E+01 4.09961E-02-4.36145E-03 3.29389E-01 9.30657E-14-5.39754E-13
 -1      1626 2.00517E+01 2.39683E-02 3.52981E-04 4.10504E-02-2.39944E-13-1.03130E-12
 -1      1627 2.01452E+01 3.30557E-02-2.85833E-03 6.33598E-02-2.05282E-13-1.21661E-12
 -1      1628 2.02098E+01 5.29117E-02-5.59431E-03 1.79838E-01-1.11062E-13-5.33504E-13
 -1      1629 2.00030E+01 1.22504E-02 4.17862E-03-1.50783E-03-5.45651E-13-6.72176E-13
 -1      1630 2.00334E+01 2.08603E-01-4.69628E-03 1.06726E-01-5.10561E-13-6.41653E-15
 -1      1631 2.00372E+01 1.05032E-01 1.42442E-03 8.33352E-02-7.19957E-13 2.46716E-13
 -1      1632 2.00214E+01 5.68308E-01-2.70002E-03 1.88849E-01-1.87944E-13 1.10916E-13
 -1      1633 2.00295E+01 3.57098E-01-3.16864E-03 1.74712E-01-3.82676E-13 1.90464E-14
 -1      1634 2.00628E+01 3.34571E-01-6.23145E-03 2.75025E-01-2.63713E-13 2.04795E-13
 -1      1635 2.00070E+01 1.03751E+00-7.51101E-04 2.35713E-01-4.43343E-13-9.34975E-14
 -1      1636 2.00159E+01 7.63110E-01-2.09114E-03 2.29487E-01-8.75428E-14-9.63084E-14
 -1      1637 2.00337E+01 6.74797E-01-5.05424E-03 4.05003E-01-1.74842E-13 1.99659E-13
 -1      1638 1.99933E+01 1.54596E+00 3.21342E-04 2.44445E-01-1.84896E-13 1.11350E-13
 -1      1639 2.00018E+01 1.25539E+00-8.26487E-04 2.45791E-01-3.78097E-13 3.27013E-13
 -1      1640 2.00084E+01 1.08461E+00-1.26487E-03 4.65230E-01-9.79121E-14 1.55196E-13
 -1      1641 1.99816E+01 2.01301E+00 7.15603E-04 2.18272E-01-3.10856E-13 2.12190E-13
 -1      1642 1.99888E+01 1.75360E+00-1.48480E-04 2.26000E-01-2.76458E-13-1.61070E-13
 -1      1643 1.99857E+01 1.50721E+00 2.66682E-03 4.54279E-01-1.42223E-13-1.41600E-13
 -1      1644 1.99722E+01 2.38938E+00 8.87819E-04 1.61295E-01-3.58463E-14 3.16592E-13
 -1      1645 1.99779E+01 2.18983E+00 3.36703E-04 1.74662E-01-3.25441E-13 3.23395E-13
 -1      1646 1.99667E+01 1.88862E+00 6.03338E-03 3.79464E-01-2.35802E-13 2.00564E-13
 -1      1647 1.99667E+01 2.61341E+00 9.15661E-04 8.16844E-02-1.63337E-14-1.37104E-13
 -1      1648 1.99697E+01 2.50627E+00 6.31036E-04 9.87255E-02 1.95521E-14 1.73908E-13
 -1      1649 1.99524E+01 2.17972E+00 8.66808E-03 2.51128E-01-2.23029E-13 3.42899E-13
 -1      1650 1.99658E+01 2.65373E+00 8.32872E-04-9.50243E-03 3.08106E-13 3.52803E-13
 -1      1651 1.99658E+01 2.65414E+00 8.34276E-04 8.84683E-03 7.60438E-15-1.02223E-14
 -1      1652 1.99447E+01 2.33612E+00 1.01097E-02 8.74395E-02 2.49023E-14-5.62224E-15
 -1      1653 1.99697E+01 2.50446E+00 6.16527E-04-9.93781E-02 1.27651E-13-3.24592E-13
 -1      1654 1.99667E+01 2.61244E+00 9.22869E-04-8.23427E-02 3.53117E-13 1.26740E-13
 -1      1655 1.99447E+01 2.33557E+00 1.01081E-02-8.87119E-02 1.76868E-13 2.38849E-13
 -1      1656 1.99778E+01 2.18666E+00 2.82020E-04-1.75278E-01-4.12120E-13-1.68791E-13
 -1      1657 1.99723E+01 2.38704E+00 9.35882E-04-1.61965E-01 8.67006E-14-2.97421E-13
 -1      1658 1.99524E+01 2.17809E+00 8.64548E-03-2.52416E-01-9.93771E-14-3.64308E-13
 -1      1659 1.99888E+01 1.75313E+00-9.35744E-05-2.26105E-01-4.08552E-13 3.22659E-13
 -1      1660 1.99815E+01 2.01302E+00 7.62702E-04-2.18420E-01-4.26692E-13-7.72258E-14
 -1      1661 1.99669E+01 1.88897E+00 6.08943E-03-3.79975E-01-1.65768E-13-1.23864E-13
 -1      1662 2.00020E+01 1.25016E+00-8.00027E-04-2.46126E-01-2.62432E-13 1.49397E-13
 -1      1663 1.99934E+01 1.54129E+00 3.37939E-04-2.44855E-01-4.34647E-13 3.38217E-13
 -1      1664 1.99857E+01 1.50696E+00 2.63498E-03-4.54858E-01-1.08514E-13 3.36982E-13
 -1      1665 2.00158E+01 7.57809E-01-2.11038E-03-2.29946E-01 1.01467E-13 1.76260E-13
 -1      1666 2.00070E+01 1.03224E+00-7.04604E-04-2.35754E-01-1.23646E-13 3.18132E-13
 -1      1667 2.00085E+01 1.08034E+00-1.27745E-03-4.65574E-01 3.46359E-14 4.03284E-13
 -1      1668 2.00319E+01 3.59095E-01-6.69771E-04-1.74884E-01 3.51021E-15-1.71162E-13
 -1      1669 2.00203E+01 5.64965E-01-2.66451E-03-1.88922E-01 1.59817E-13 1.54304E-15
 -1      1670 2.00340E+01 6.70950E-01-4.88546E-03-4.04309E-01 9.78863E-14 2.21156E-15
 -1      1671 2.00585E+01 1.43536E-01 3.95952E-03-1.25718E-01-1.28701E-13-1.00536E-13
 -1      1672 2.00536E+01 2.49063E-01-2.21574E-03-1.59722E-01-8.64933E-15-2.23926E-13
 -1      1673 2.00852E+01 3.70652E-01-5.39812E-03-3.26595E-01-4.21486E-15-1.64147E-13
 -1      1674 2.01665E+01 1.74508E-01 1.63046E-04-2.47975E-01-2.27703E-14-1.44234E-13
 -1      1675-7.30905E-01-1.49836E+01-1.71574E+00-1.13018E+00-5.29743E-13 5.31131E-13
 -1      1676-6.59391E-01-1.71350E+01-1.92700E+00 2.33079E-01-1.24660E-12 2.96402E-13
 -1      1677 1.91857E+00-7.83791E+00-1.07002E+00 1.08656E+00 4.02012E-13 7.20729E-13
 -1      1678 9.98158E-01-1.28714E+01-1.55721E+00 3.73530E-01-3.90687E-13 5.38063E-13
 -1      1679 6.69357E+00-4.92243E-01-5.53862E-01 4.38249E+00 1.16440E-12 1.24101E-12
 -1      1680 3.87548E+00-5.87754E+00-1.25625E+00 1.70375E+00 7.20646E-13 8.02025E-13
 -1      1681 1.70310E+01 4.94031E+00 2.14200E-01 9.57798E+00 1.24867E-12 1.09013E-12
 -1      1682 1.06007E+01 1.39668E+00-6.70383E-01 5.80152E+00 1.35203E-12 1.06937E-12
 -1      1683 3.13285E+01 6.45850E+00 9.68262E-01 1.26100E+01 8.45657E-13 1.62470E-12
 -1      1684 2.22449E+01 6.05984E+00 1.25277E-01 1.04943E+01 1.03906E-12 1.35736E-12
 -1      1685 4.49406E+01 4.94130E+00 1.42022E+00 1.03354E+01 6.37254E-13 1.52878E-12
 -1      1686 3.63778E+01 6.58934E+00 8.61667E-01 1.18723E+01 9.06553E-13 1.54765E-12
 -1      1687 5.23697E+01 3.95058E+00 1.61503E+00 2.89499E+00 4.36956E-13 6.13731E-13
 -1      1688 4.74862E+01 5.19325E+00 1.29833E+00 7.72010E+00 6.11233E-13 1.14297E-12
 -1      1689 5.36282E+01 3.95427E+00 1.77175E+00-4.95856E+00 1.09801E-13 1.67755E-13
 -1      1690 5.51346E+01 3.45267E+00 1.82398E+00 8.43527E-01 1.91402E-13 5.65548E-13
 -1      1691 4.27477E+01 5.89187E+00 1.13797E+00-1.05093E+01 5.78718E-13-4.89053E-13
 -1      1692 5.07130E+01 4.17744E+00 1.74650E+00-7.04449E+00 2.82746E-13 2.75335E-14
 -1      1693 2.79136E+01 5.76549E+00 2.99351E-01-1.04099E+01 9.22817E-13-9.09051E-13
 -1      1694 3.78501E+01 5.36144E+00 1.15603E+00-1.11690E+01 6.48259E-13-5.87086E-13
 -1      1695 1.48909E+01 2.16402E+00-4.39786E-01-7.02616E+00 1.16851E-12-9.50573E-13
 -1      1696 2.26804E+01 4.72482E+00 4.40798E-01-1.04006E+01 9.83658E-13-1.00431E-12
 -1      1697 6.27873E+00-4.35046E+00-1.03213E+00-3.02440E+00 1.20604E-12-8.17457E-13
 -1      1698 1.03524E+01 6.54027E-01-2.68183E-01-6.17716E+00 1.24611E-12-7.98694E-13
 -1      1699 1.50756E+00-1.16878E+01-1.48460E+00-6.74339E-01 8.44658E-13-4.88200E-13
 -1      1700 2.90889E+00-6.07675E+00-9.02407E-01-1.93988E+00 1.13809E-12-7.57061E-13
 -1      1701-5.75225E-01-1.66201E+01-1.87312E+00-1.05030E-01 5.72598E-13-1.04888E-13
 -1      1702-6.41408E-01-1.39650E+01-1.63841E+00 1.12742E+00 8.83960E-13-4.32432E-13
 -1      1703-6.11396E-01-1.47981E+01-1.64316E+00-8.58958E-01-4.53526E-14-3.75588E-13
 -1      1704-6.15869E-01-1.62957E+01-1.77351E+00 4.54547E-01 4.41466E-13-1.63536E-13
 -1      1705 6.66668E-01-9.18572E+00-1.31966E+00-1.43547E-01-6.83009E-13-5.15615E-13
 -1      1706 2.09996E-01-1.40627E+01-1.78681E+00-3.46989E-01-2.38365E-13-3.40644E-13
 -1      1707 6.80142E+00-1.49146E+00-5.65601E-01 4.33528E+00-1.06826E-12-1.11838E-12
 -1      1708 3.82467E+00-7.13603E+00-1.29507E+00 1.60546E+00-6.74905E-13-6.74460E-13
 -1      1709 1.60449E+01 4.60813E+00 1.45417E-01 9.12887E+00-1.34404E-12-1.32028E-12
 -1      1710 9.95363E+00 9.42301E-01-7.31431E-01 5.43388E+00-1.28164E-12-1.19693E-12
 -1      1711 3.07352E+01 5.94343E+00 9.04185E-01 1.19789E+01-8.56759E-13-1.18838E-12
 -1      1712 2.16524E+01 5.20764E+00 2.94172E-02 9.70142E+00-1.15497E-12-1.19793E-12
 -1      1713 4.45469E+01 5.24662E+00 1.55234E+00 1.09909E+01-6.43263E-13-5.51781E-13
 -1      1714 3.57632E+01 6.66716E+00 8.58175E-01 1.21084E+01-8.61811E-13-9.13269E-13
 -1      1715 5.32433E+01 3.65479E+00 1.74379E+00 4.40187E+00-4.92772E-13 7.55507E-13
 -1      1716 4.80160E+01 5.11992E+00 1.45563E+00 9.02227E+00-5.65652E-13-4.41869E-14
 -1      1717 5.24718E+01 4.21556E+00 1.58955E+00-3.71427E+00-4.59077E-13 1.62964E-12
 -1      1718 5.31388E+01 3.98531E+00 1.60921E+00 1.81767E+00-4.81115E-13 1.02418E-12
 -1      1719 4.56082E+01 5.68538E+00 1.36695E+00-1.05622E+01-8.67757E-13 2.07834E-12
 -1      1720 5.22083E+01 3.90688E+00 1.77343E+00-6.52566E+00-5.52003E-13 1.81599E-12
 -1      1721 3.19079E+01 6.46326E+00 6.32781E-01-1.15275E+01-1.34692E-12 2.01483E-12
 -1      1722 4.10730E+01 5.50716E+00 1.36684E+00-1.14010E+01-1.06132E-12 2.03648E-12
 -1      1723 1.89196E+01 5.18266E+00-7.55744E-02-9.42759E+00-1.43663E-12 1.82543E-12
 -1      1724 2.66959E+01 6.33313E+00 7.31758E-01-1.19841E+01-1.34714E-12 2.18225E-12
 -1      1725 9.34461E+00-5.97003E-01-7.94531E-01-4.79237E+00-1.51790E-12 1.10367E-12
 -1      1726 1.48542E+01 3.37225E+00 3.09694E-02-8.34403E+00-1.42175E-12 1.60094E-12
 -1      1727 3.00507E+00-7.71395E+00-1.40864E+00-1.11741E+00-1.38090E-12 9.06608E-13
 -1      1728 5.36901E+00-2.29661E+00-7.17639E-01-3.47437E+00-1.55476E-12 9.88432E-13
 -1      1729 2.17338E-01-1.42968E+01-1.81610E+00 3.84724E-01-1.38867E-12 3.66582E-13
 -1      1730 6.52386E-01-9.70713E+00-1.37238E+00 2.06055E-01-1.45950E-12 8.29711E-13
 -1      1731-6.15257E-01-1.71280E+01-1.90840E+00-2.31699E-01-1.30912E-12 8.89566E-14
 -1      1732-6.44610E-01-1.54706E+01-1.76482E+00 1.03695E+00-1.33077E-12 1.65978E-13
 -1      1733 2.40405E+01 1.07162E+00 2.64540E-01 7.54030E+00 7.33080E-13 8.31557E-13
 -1      1734 1.37758E+01-3.07778E+00-3.92709E-01 6.32207E+00 5.36016E-13 8.38662E-13
 -1      1735 2.00380E+01 3.67022E-02-2.53987E-03 3.87952E-02-7.42136E-13-1.47279E-13
 -1      1736 2.00903E+01 1.30017E-01-1.90657E-03 1.42538E-01-4.51798E-13 6.07126E-15
 -1      1737 8.57382E-01-9.86182E+00-1.04385E+00 2.72984E+00-4.85834E-13 9.05109E-13
 -1      1738 6.13570E+00-7.18141E+00-8.30353E-01 4.72089E+00 2.49800E-14 9.78322E-13
 -1      1739-1.44654E+00-1.19320E+01-1.38922E+00 2.92814E-02-6.65593E-13 3.67706E-13
 -1      1740 3.46291E+01 4.23815E+00 9.04352E-01 6.97989E+00 5.39457E-13 1.00664E-12
 -1      1741 4.15908E+01 6.49094E+00 1.17993E+00 3.88210E+00 6.30912E-13 5.83866E-13
 -1      1742 4.54992E+01 7.46010E+00 1.32070E+00 5.01196E-01 5.29576E-13 2.22392E-13
 -1      1743 4.54736E+01 6.94983E+00 1.44877E+00-2.65234E+00 4.14613E-13 2.36478E-14
 -1      1744 3.81935E+01 4.80172E+00 9.33796E-01-4.77401E+00 6.50285E-13 1.82077E-14
 -1      1745 2.87893E+01 9.91768E-01 4.10300E-01-6.15236E+00 5.33351E-13-2.13052E-13
 -1      1746 1.83585E+01-2.93873E+00-1.31558E-01-6.63340E+00 5.57776E-13-3.81917E-13
 -1      1747 8.90996E+00-6.33773E+00-5.58763E-01-5.67851E+00 4.55302E-13-6.04933E-13
 -1      1748 1.59974E+00-9.25887E+00-9.91605E-01-3.21319E+00 4.75897E-13-5.14588E-13
 -1      1749-1.32727E+00-1.11708E+01-1.28829E+00-2.01325E-01 3.02806E-13-4.03233E-13
 -1      1750-4.22281E-03-1.03832E+01-1.21128E+00 1.88284E+00 6.64468E-14-5.99909E-13
 -1      1751 5.38271E+00-7.58886E+00-8.30909E-01 4.46345E+00-2.36700E-13-7.12576E-13
 -1      1752 1.34684E+01-3.79160E+00-4.14639E-01 6.21551E+00-4.80727E-13-8.86957E-13
 -1      1753 2.36442E+01 4.12739E-01 2.20180E-01 7.17343E+00-7.25198E-13-5.93747E-13
 -1      1754 3.39531E+01 3.66891E+00 7.70387E-01 6.63971E+00-6.04350E-13-2.32148E-13
 -1      1755 4.23843E+01 6.20161E+00 1.30605E+00 4.94257E+00-7.27529E-13 5.57221E-13
 -1      1756 4.52997E+01 7.49054E+00 1.33654E+00 1.39114E+00-8.39884E-13 1.25144E-12
 -1      1757 4.50766E+01 7.35535E+00 1.36802E+00-2.41512E+00-7.85594E-13 1.46028E-12
 -1      1758 4.04483E+01 5.59886E+00 1.15509E+00-5.29523E+00-8.08409E-13 1.49547E-12
 -1      1759 3.15607E+01 3.11747E+00 6.67462E-01-7.06194E+00-9.01001E-13 1.51335E-12
 -1      1760 2.16419E+01-4.14364E-01 6.04956E-02-7.16162E+00-8.75744E-13 1.35747E-12
 -1      1761 1.25491E+01-4.36408E+00-4.25241E-01-6.13132E+00-9.75220E-13 8.97171E-13
 -1      1762 4.63329E+00-7.99784E+00-9.24407E-01-4.07906E+00-9.54126E-13 8.21433E-13
 -1      1763-4.64894E-03-1.09475E+01-1.28791E+00-1.87356E+00-1.00675E-12 2.52243E-13
 -1      1764 2.28549E+01 1.98493E+00-2.35787E-02-2.72335E+00-1.64823E-13 8.18817E-13
 -1      1765 1.98222E+01 3.71419E+00-3.55463E-02-2.15388E+00-2.13636E-13-1.41876E-13
 -1      1766 2.00564E+01 3.56193E+00-4.02706E-02-2.44685E+00-2.47502E-13-5.36723E-14
 -1      1767 2.03609E+01 3.18169E+00-4.57039E-02-2.58669E+00-2.52518E-13 4.47420E-14
 -1      1768 2.05800E+01 2.80995E+00-1.42552E-01-2.85498E+00-2.64750E-13 1.83062E-13
 -1      1769 2.04212E+01 2.69329E+00-4.44771E-03-2.22781E+00-2.56535E-13 1.46133E-14
 -1      1770 1.93564E+01 4.18934E+00-2.02053E-02-1.27220E+00-1.13014E-13-2.75228E-13
 -1      1771 1.94290E+01 4.14894E+00-1.75185E-02-1.49658E+00-1.43862E-13-2.54982E-13
 -1      1772 1.92615E+01 4.29453E+00-1.68030E-02-8.60805E-01-6.48604E-14-2.85116E-13
 -1      1773 1.93036E+01 4.27073E+00-1.43504E-02-1.07172E+00-9.08655E-14-2.82944E-13
 -1      1774 1.95292E+01 3.78255E+00-9.21357E-03-1.12154E+00-1.09313E-13-2.61492E-13
 -1      1775 1.92108E+01 4.35499E+00-1.48161E-02-4.67387E-01-2.95358E-15-2.88413E-13
 -1      1776 1.92324E+01 4.34215E+00-1.33269E-02-6.67900E-01-2.97530E-14-2.88446E-13
 -1      1777 1.94333E+01 3.90289E+00-9.20100E-03-7.34164E-01-4.88568E-14-2.69545E-13
 -1      1778 1.91917E+01 4.38065E+00-1.36817E-02-8.37539E-02 5.30140E-14-2.76222E-13
 -1      1779 1.91980E+01 4.37671E+00-1.32307E-02-2.79421E-01 2.63098E-14-2.83041E-13
 -1      1780 1.93837E+01 3.96749E+00-9.15736E-03-3.58741E-01 1.37484E-14-2.62058E-13
 -1      1781 1.91997E+01 4.37534E+00-1.31836E-02 2.98470E-01 9.81325E-14-2.68877E-13
 -1      1782 1.91922E+01 4.37981E+00-1.37659E-02 1.02640E-01 7.76003E-14-2.77793E-13
 -1      1783 1.93692E+01 3.98694E+00-9.14415E-03 1.05582E-02 7.08585E-14-2.64462E-13
 -1      1784 1.92364E+01 4.33810E+00-1.33520E-02 6.87687E-01 1.41127E-13-2.49661E-13
 -1      1785 1.92135E+01 4.35183E+00-1.49280E-02 4.86668E-01 1.21733E-13-2.65081E-13
 -1      1786 1.93864E+01 3.96420E+00-9.18895E-03 3.80064E-01 1.16748E-13-2.49543E-13
 -1      1787 1.93089E+01 4.26468E+00-1.44376E-02 1.08568E+00 1.90262E-13-1.98716E-13
 -1      1788 1.92660E+01 4.28920E+00-1.69890E-02 8.77575E-01 1.65995E-13-2.27866E-13
 -1      1789 1.94384E+01 3.89669E+00-9.21251E-03 7.52689E-01 1.62569E-13-2.28314E-13
 -1      1790 1.94393E+01 4.13736E+00-1.74286E-02 1.51594E+00 2.48964E-13-1.35895E-13
 -1      1791 1.93634E+01 4.18002E+00-2.05250E-02 1.28629E+00 2.13940E-13-1.70313E-13
 -1      1792 1.95369E+01 3.77275E+00-9.28515E-03 1.13670E+00 2.17180E-13-1.73212E-13
 -1      1793 1.96670E+01 3.92077E+00-2.52144E-02 1.98128E+00 2.82434E-13-3.54161E-14
 -1      1794 1.95350E+01 3.99760E+00-2.69060E-02 1.72385E+00 2.60379E-13-9.83935E-14
 -1      1795 1.97091E+01 3.56561E+00-8.74169E-03 1.53670E+00 2.67110E-13-1.03896E-13
 -1      1796 2.00739E+01 3.52259E+00-4.51901E-02 2.47374E+00 3.02678E-13 1.52149E-13
 -1      1797 1.98347E+01 3.68305E+00-3.97039E-02 2.18467E+00 2.83484E-13 4.08042E-14
 -1      1798 2.00039E+01 3.22264E+00-5.25201E-03 1.93631E+00 2.95936E-13 1.87350E-14
 -1      1799 2.09176E+01 2.68175E+00-5.76548E-02 2.85918E+00 2.80940E-13 4.56524E-13
 -1      1800 2.04109E+01 3.09684E+00-5.04175E-02 2.61754E+00 2.87636E-13 2.81108E-13
 -1      1801 2.05151E+01 2.60986E+00 3.19219E-03 2.24623E+00 3.04969E-13 2.14492E-13
 -1      1802 2.17269E+01 1.21302E+00-1.22092E-01 2.33096E+00 2.26569E-13 8.13155E-13
 -1      1803 2.12709E+01 2.26303E+00 1.23205E-04 2.74172E+00 2.54609E-13 5.75442E-13
 -1      1804 2.09338E+01 1.68503E+00-2.29675E-02 2.14165E+00 2.76820E-13 4.46827E-13
 -1      1805 2.09479E+01 7.78702E-01-6.24668E-02 1.52530E+00 2.31384E-13 7.29148E-13
 -1      1806 2.17930E+01 2.45827E+00 9.08694E-02-3.04938E+00-2.21680E-13 4.23744E-13
 -1      1807 2.00963E+01 2.97906E-01-8.92636E-03 6.58186E-01 1.78933E-13 6.08976E-13
 -1      1808 2.06489E+01 4.40400E-01-1.24660E-02 1.03518E+00 1.85477E-13 6.72975E-13
 -1      1809 2.07406E+01 8.45139E-01 2.26573E-03 1.41648E+00 2.24213E-13 5.01797E-13
 -1      1810 2.15035E+01 1.74276E+00 7.94502E-02-2.33847E+00-2.39163E-13 3.21333E-13
 -1      1811 2.05168E+01 5.00427E-01 3.25328E-02-9.22979E-01-1.91742E-13 2.83030E-13
 -1      1812 2.00843E+01 3.51796E-01 7.56972E-03-6.31221E-01-1.62481E-13 2.34908E-13
 -1      1813 1.98895E+01 2.57314E-01 2.74220E-02-3.92880E-01-1.39199E-13 2.31716E-13
 -1      1814 1.96980E+01 1.78066E-01 1.04015E-02-2.55042E-01-1.28440E-13 1.97949E-13
 -1      1815 2.01953E+01 4.83733E-01-5.72783E-03-7.24757E-01-1.79416E-13 1.22983E-13
 -1      1816 1.95759E+01 1.32695E-01 1.66898E-02-1.21476E-01-1.13286E-13 1.87142E-13
 -1      1817 1.94973E+01 9.30170E-02 6.98227E-03-5.07254E-02-8.04873E-14 1.58081E-13
 -1      1818 1.98686E+01 2.44035E-01-5.71511E-03-2.97519E-01-1.36632E-13 1.04172E-13
 -1      1819 1.94322E+01 6.83778E-02 8.70661E-03 2.27870E-02-5.65173E-14 1.48841E-13
 -1      1820 1.94172E+01 4.67554E-02 4.12942E-03 5.89731E-02-5.74423E-14 1.33874E-13
 -1      1821 1.96856E+01 1.25171E-01-4.62930E-03-6.07282E-02-9.32414E-14 9.31351E-14
 -1      1822 1.93911E+01 3.25117E-02 4.25919E-03 9.78047E-02-6.23035E-14 1.25810E-13
 -1      1823 1.94106E+01 2.02018E-02 2.46728E-03 1.14702E-01-4.71103E-14 1.05226E-13
 -1      1824 1.95988E+01 6.10612E-02-3.47831E-03 6.90031E-02-7.12481E-14 7.05559E-14
 -1      1825 1.94090E+01 1.17132E-02 1.88915E-03 1.32954E-01-4.93840E-14 1.24338E-13
 -1      1826 1.94460E+01 4.73785E-03 1.51165E-03 1.38693E-01-4.19275E-14 1.22861E-13
 -1      1827 1.95747E+01 2.45534E-02-2.37566E-03 1.35950E-01-5.28320E-14 6.69107E-14
 -1      1828 1.94591E+01-2.30811E-04 6.06255E-04 1.44733E-01-4.65108E-14 1.05235E-13
 -1      1829 1.95038E+01-3.90501E-03 9.41592E-04 1.44120E-01-4.88758E-14 1.16216E-13
 -1      1830 1.95890E+01 3.61358E-03-1.49862E-03 1.65411E-01-5.68809E-14 6.15749E-14
 -1      1831 1.95250E+01-6.56968E-03-9.01453E-05 1.43223E-01-6.39530E-14 1.34907E-13
 -1      1832 1.95717E+01-8.08699E-03 6.06700E-04 1.39325E-01-4.88319E-14 1.34616E-13
 -1      1833 1.96253E+01-7.76894E-03-8.82927E-04 1.72835E-01-4.62133E-14 7.78461E-14
 -1      1834 1.95968E+01-9.17256E-03-4.43637E-04 1.34988E-01-5.80609E-14 1.34488E-13
 -1      1835 1.96426E+01-9.21965E-03 4.37437E-04 1.29868E-01-2.72333E-14 1.01287E-13
 -1      1836 1.96733E+01-1.29107E-02-4.90154E-04 1.68197E-01-6.71117E-14 6.43770E-14
 -1      1837 1.96695E+01-9.18176E-03-5.82232E-04 1.24502E-01-2.82709E-14 3.96430E-14
 -1      1838 1.97131E+01-8.18139E-03 3.96841E-04 1.19605E-01-4.09065E-14-2.01058E-14
 -1      1839 1.97266E+01-1.37846E-02-2.68538E-04 1.58232E-01-6.39870E-14 2.77201E-14
 -1      1840 1.97407E+01-7.30978E-03-5.80955E-04 1.14938E-01-4.95402E-14-2.06801E-14
 -1      1841 1.97823E+01-5.51691E-03 4.63276E-04 1.11329E-01-8.20260E-14-4.17860E-14
 -1      1842 1.97821E+01-1.16062E-02-1.74932E-04 1.47668E-01-5.07081E-14-5.42776E-14
 -1      1843 1.98105E+01-3.99045E-03-4.87228E-04 1.08664E-01-5.31552E-14 1.89636E-15
 -1      1844 1.98512E+01-1.54602E-03 6.24307E-04 1.07174E-01-3.37783E-15 7.78049E-14
 -1      1845 1.98385E+01-7.11826E-03-1.77686E-04 1.39969E-01-3.62805E-14-4.08620E-14
 -1      1846 1.98805E+01 5.33540E-04-3.32224E-04 1.07561E-01-2.10824E-14 7.18596E-14
 -1      1847 1.99221E+01 3.56779E-03 8.73566E-04 1.08897E-01-1.19289E-14 1.10596E-13
 -1      1848 1.98966E+01-7.46077E-04-2.54508E-04 1.37817E-01-1.97458E-14 6.53578E-14
 -1      1849 1.99538E+01 6.15106E-03-1.37000E-04 1.13245E-01-2.09977E-14 6.64462E-14
 -1      1850 1.99987E+01 9.76516E-03 1.20808E-03 1.18058E-01-4.05199E-14 8.48006E-14
 -1      1851 1.99582E+01 7.30230E-03-3.89768E-04 1.43440E-01-5.68249E-14 3.78273E-14
 -1      1852 2.00345E+01 1.28327E-02 8.34680E-05 1.27212E-01-5.24845E-14 9.19083E-14
 -1      1853 2.00858E+01 1.70412E-02 1.62511E-03 1.36136E-01-2.58104E-14 8.82500E-14
 -1      1854 2.00261E+01 1.69578E-02-5.72101E-04 1.58821E-01-5.00624E-14 4.95501E-14
 -1      1855 2.01275E+01 2.05781E-02 3.17152E-04 1.50910E-01-5.81738E-14 3.94323E-14
 -1      1856 2.01887E+01 2.53864E-02 2.11787E-03 1.64571E-01-7.52914E-14-2.83007E-14
 -1      1857 2.01041E+01 2.82118E-02-7.92302E-04 1.85825E-01-7.83586E-14 4.04900E-14
 -1      1858 2.02389E+01 2.93487E-02 5.52224E-04 1.85728E-01-5.14718E-14 3.14413E-15
 -1      1859 2.03139E+01 3.47047E-02 2.66902E-03 2.04704E-01-5.88385E-14 1.30113E-14
 -1      1860 2.01966E+01 4.10194E-02-1.04147E-03 2.26211E-01-6.21099E-14 1.51871E-14
 -1      1861 2.03750E+01 3.89690E-02 7.74488E-04 2.32874E-01-1.00457E-13 1.32830E-14
 -1      1862 2.04682E+01 4.46892E-02 3.24114E-03 2.57588E-01-5.15121E-14-1.68537E-14
 -1      1863 2.03088E+01 5.51604E-02-1.30933E-03 2.81523E-01-7.46991E-14 1.29646E-14
 -1      1864 2.05430E+01 4.89763E-02 9.65078E-04 2.93083E-01-1.69231E-14-2.48478E-14
 -1      1865 2.06586E+01 5.46309E-02 3.76258E-03 3.23600E-01 5.10128E-14-5.16212E-14
 -1      1866 2.04459E+01 7.00290E-02-1.58301E-03 3.52797E-01-5.89119E-14-2.20611E-14
 -1      1867 2.07499E+01 5.83879E-02 1.09905E-03 3.66085E-01 1.00987E-13-5.80073E-14
 -1      1868 2.08916E+01 6.31251E-02 4.10829E-03 4.01751E-01 2.38438E-15-6.02475E-14
 -1      1869 2.06135E+01 8.43085E-02-1.84679E-03 4.39990E-01 6.19012E-14-1.80412E-14
 -1      1870 2.10018E+01 6.53516E-02 1.14621E-03 4.49699E-01 8.35530E-15 2.04204E-14
 -1      1871 2.11721E+01 6.76471E-02 4.07687E-03 4.88553E-01 1.39404E-13-7.38938E-15
 -1      1872 2.08169E+01 9.54817E-02-2.08314E-03 5.41041E-01 1.27719E-13 5.85845E-14
 -1      1873 2.13033E+01 6.66605E-02 1.07649E-03 5.38410E-01 6.34837E-14 6.23134E-15
 -1      1874 2.15019E+01 6.40040E-02 3.37154E-03 5.76315E-01-1.13143E-14 3.48625E-14
 -1      1875 2.10604E+01 9.91470E-02-2.27498E-03 6.50365E-01 1.29556E-13 4.33203E-14
 -1      1876 2.16551E+01 5.71816E-02 8.72428E-04 6.21311E-01-1.38392E-14 6.83488E-14
 -1      1877 2.18770E+01 4.57999E-02 1.60397E-03 6.50777E-01 3.58567E-15 7.48555E-14
 -1      1878 2.13467E+01 8.81953E-02-2.40696E-03 7.56687E-01 1.37297E-14 3.20145E-14
 -1      1879 2.20518E+01 2.94499E-02 5.46927E-04 6.79463E-01-7.64648E-14 1.20724E-14
 -1      1880 2.22846E+01 4.37561E-03-1.63841E-03 6.88393E-01-1.29757E-13 1.09396E-14
 -1      1881 2.16756E+01 5.21720E-02-2.45794E-03 8.40201E-01-8.35916E-14-7.86359E-14
 -1      1882 2.24783E+01-2.58600E-02 1.54105E-04 6.83300E-01-1.23765E-13 6.18169E-14
 -1      1883 2.26993E+01-6.96739E-02-6.59670E-03 6.54392E-01-1.58028E-13 2.87270E-14
 -1      1884 2.20429E+01-2.22544E-02-2.36526E-03 8.69563E-01-8.16380E-14-1.18924E-13
 -1      1885 2.29053E+01-1.17080E-01-2.55211E-04 5.92027E-01-1.54030E-13 6.44597E-14
 -1      1886 2.30797E+01-1.81378E-01-1.29203E-02 5.04518E-01 1.00467E-14-1.13546E-14
 -1      1887 2.24381E+01-1.47694E-01-1.93191E-03 8.00354E-01-8.58953E-14 6.30327E-14
 -1      1888 2.32837E+01-2.43897E-01-7.39926E-04 3.59315E-01 1.03518E-13-6.19240E-14
 -1      1889 2.33662E+01-3.20466E-01-1.90882E-02 1.96037E-01 1.31110E-13-2.82990E-14
 -1      1890 2.28393E+01-3.26108E-01-6.62692E-04 5.78894E-01-4.02066E-15 8.89518E-14
 -1      1891 2.35408E+01-3.83679E-01-1.78596E-03-4.77547E-02 7.79160E-14-6.56491E-14
 -1      1892 2.34847E+01-4.45296E-01-2.19120E-02-2.85327E-01-7.67138E-14-9.25850E-14
 -1      1893 2.32065E+01-5.30353E-01 2.23418E-03 1.58471E-01 6.53609E-14-6.84392E-14
 -1      1894 2.35834E+01-4.75005E-01-4.26940E-03-6.10180E-01-1.36121E-13-8.36872E-14
 -1      1895 2.33608E+01-4.72045E-01-1.71671E-02-8.79792E-01-1.43059E-13-1.34224E-13
 -1      1896 2.34710E+01-6.81034E-01 7.38708E-03-4.64096E-01-7.84988E-14-1.04029E-13
 -1      1897 2.33244E+01-4.18746E-01-8.73513E-03-1.20432E+00-1.53319E-13-2.00100E-15
 -1      1898 2.29550E+01-3.00086E-01-3.05724E-03-1.40827E+00-1.10257E-13 1.89085E-14
 -1      1899 2.35344E+01-6.43516E-01 1.32201E-02-1.18922E+00-1.28565E-13 1.30206E-13
 -1      1900 2.27520E+01-1.32440E-01-1.27251E-02-1.58028E+00-8.92997E-14-4.67647E-14
 -1      1901 2.23233E+01 1.00212E-01 1.49600E-02-1.58956E+00 4.28867E-15-4.45564E-14
 -1      1902 2.33083E+01-2.93774E-01 1.35720E-02-1.76449E+00-1.03729E-13 2.42917E-13
 -1      1903 2.20173E+01 3.39229E-01-1.04402E-02-1.45128E+00-2.26564E-14-1.95351E-13
 -1      1904 2.16711E+01 5.82983E-01 2.39743E-02-1.18946E+00 4.61211E-14-2.67770E-13
 -1      1905 2.28163E+01 3.41810E-01 2.03829E-03-1.83419E+00-5.99828E-14 1.12388E-13
 -1      1906 2.14395E+01 7.58628E-01 1.74560E-03-7.18087E-01 1.63480E-14-3.58430E-13
 -1      1907 2.13114E+01 8.54007E-01 1.59167E-02-2.59366E-01-8.79435E-14-3.87778E-13
 -1      1908 2.22872E+01 9.79971E-01-1.85575E-02-1.16667E+00-4.83433E-14-1.90150E-13
 -1      1909 2.13215E+01 8.38710E-01 1.81114E-02 3.43786E-01-1.18596E-13-4.67165E-13
 -1      1910 2.14616E+01 7.14007E-01-7.43683E-04 7.85360E-01-1.27474E-13-3.34417E-13
 -1      1911 2.20669E+01 1.22306E+00-2.89488E-02 4.99757E-02-9.69867E-14-2.89907E-13
 -1      1912 2.16977E+01 5.19562E-01 2.36526E-02 1.21634E+00-9.29846E-14-2.64286E-13
 -1      1913 2.20395E+01 2.66834E-01-1.20167E-02 1.43948E+00-5.92998E-14-3.45120E-13
 -1      1914 2.23112E+01 9.03596E-01-1.61740E-02 1.21831E+00-6.96335E-14-5.81401E-14
 -1      1915 2.23220E+01 3.03206E-02 1.27593E-02 1.52623E+00-4.52190E-14-3.98150E-13
 -1      1916 2.27233E+01-1.92192E-01-1.31063E-02 1.48013E+00-2.16493E-14-2.98817E-13
 -1      1917 2.28198E+01 2.39265E-01 4.26028E-03 1.77941E+00-7.56574E-14-1.72429E-13
 -1      1918 2.28852E+01-3.46045E-01-5.36134E-03 1.27132E+00-5.16948E-16-3.19075E-13
 -1      1919 2.32080E+01-4.48794E-01-8.76497E-03 1.04558E+00 1.03747E-13-3.23064E-13
 -1      1920 2.32466E+01-3.72217E-01 1.45461E-02 1.61132E+00-1.33712E-14-1.34395E-13
 -1      1921 2.32009E+01-4.88874E-01-1.83620E-02 7.05825E-01 2.46080E-13-2.19130E-13
 -1      1922 2.33659E+01-4.80834E-01-4.60707E-03 4.29442E-01 2.45934E-13-4.02387E-14
 -1      1923 2.33889E+01-6.80586E-01 1.28762E-02 9.80692E-01 2.74673E-13-2.44401E-14
 -1      1924 2.32290E+01-4.44394E-01-2.18648E-02 1.03788E-01 6.43374E-14 6.82529E-14
 -1      1925 2.32243E+01-3.78918E-01-2.36214E-03-1.32501E-01 5.13469E-14 1.38950E-13
 -1      1926 2.32448E+01-6.86441E-01 6.91249E-03 2.40417E-01 2.38584E-13 9.17308E-14
 -1      1927 2.30160E+01-3.14024E-01-1.83461E-02-3.72046E-01-1.88816E-14-2.74997E-15
 -1      1928 2.28737E+01-2.37456E-01-1.30570E-03-5.31754E-01 8.22016E-14 7.03005E-14
 -1      1929 2.29085E+01-5.22722E-01 1.93386E-03-3.77410E-01 5.48216E-14 3.10308E-13
 -1      1930 2.26385E+01-1.74905E-01-1.18879E-02-6.72127E-01 2.61379E-13-5.63920E-14
 -1      1931 2.24073E+01-1.10883E-01-4.53357E-04-7.55828E-01 3.17581E-13-1.79036E-14
 -1      1932 2.24756E+01-3.16360E-01-8.30496E-04-7.87735E-01 9.68106E-14 1.97765E-14
 -1      1933 2.21716E+01-6.24352E-02-5.48649E-03-8.12861E-01 2.67742E-13 2.77721E-14
 -1      1934 2.18985E+01-1.64003E-02 6.16124E-04-8.36518E-01 2.58291E-13 1.62609E-13
 -1      1935 2.20122E+01-1.36952E-01-2.06553E-03-9.98044E-01 3.84645E-13-7.80821E-15
 -1      1936 2.16768E+01 1.80105E-02-5.40972E-04-8.32560E-01 9.00192E-14 2.30481E-13
 -1      1937 2.13999E+01 4.99694E-02 1.98721E-03-8.13061E-01 1.54222E-13 1.42494E-13
 -1      1938 2.15585E+01-3.88270E-03-2.62296E-03-1.05143E+00 1.93156E-13 2.05981E-13
 -1      1939 2.12001E+01 7.52232E-02 2.59330E-03-7.66094E-01 1.65924E-13-8.36820E-14
 -1      1940 2.09478E+01 9.97401E-02 3.41487E-03-7.14916E-01 9.07269E-14-1.56041E-14
 -1      1941 2.11382E+01 9.09197E-02-2.90231E-03-9.91974E-01 8.91504E-14-5.68718E-14
 -1      1942 2.07737E+01 1.21343E-01 3.96888E-03-6.36125E-01 2.88138E-14-7.24080E-14
 -1      1943 2.05665E+01 1.43401E-01 4.50754E-03-5.58527E-01 3.11270E-14 3.31549E-15
 -1      1944 2.07663E+01 1.64078E-01-2.82122E-03-8.51097E-01 7.56491E-15-1.18434E-13
 -1      1945 2.04360E+01 1.57257E-01 4.05768E-03-4.59263E-01 4.11758E-14-7.79851E-14
 -1      1946 2.02840E+01 1.75381E-01 5.76376E-03-3.62691E-01 8.65735E-14-1.24605E-13
 -1      1947 2.02368E+01 2.48058E-01-2.47127E-03-4.26835E-01-4.36804E-14-2.80133E-13
 -1      1948 2.04650E+01 2.21210E-01-3.50220E-03-6.53903E-01 4.70565E-15-1.77225E-13
 -1      1949 1.96128E+01 1.41974E-01 7.86870E-03 2.60628E-01 1.33418E-13 5.02263E-13
 -1      1950 1.98854E+01 2.04050E-01 1.64359E-02 4.33576E-01 1.47498E-13 5.69678E-13
 -1      1951 2.00977E+01 3.50484E-01-1.52938E-03 6.56387E-01 1.77813E-13 4.25016E-13
 -1      1952 1.93696E+01 7.18725E-02 6.93244E-03 5.77289E-02 1.05861E-13 4.22989E-13
 -1      1953 1.94851E+01 1.01740E-01 1.41931E-02 1.46187E-01 1.06999E-13 4.70382E-13
 -1      1954 1.97043E+01 1.65091E-01-1.95870E-03 2.57706E-01 1.45325E-13 3.69439E-13
 -1      1955 1.92784E+01 3.61958E-02 4.42410E-03-4.77584E-02 6.07765E-14 4.13995E-13
 -1      1956 1.93090E+01 5.19623E-02 8.33700E-03-5.65953E-04 8.42325E-14 4.14308E-13
 -1      1957 1.95035E+01 8.07261E-02-2.81687E-03 4.57407E-02 1.00926E-13 3.08119E-13
 -1      1958 1.92761E+01 1.63746E-02 2.86617E-03-1.00492E-01-2.11931E-14 3.84711E-13
 -1      1959 1.92613E+01 2.51882E-02 4.36476E-03-7.57982E-02 5.30923E-15 4.05114E-13
 -1      1960 1.94240E+01 3.76195E-02-2.85598E-03-6.63401E-02 1.67670E-14 2.76696E-13
 -1      1961 1.93232E+01 4.94349E-03 2.00891E-03-1.23111E-01 7.23713E-14 2.99513E-13
 -1      1962 1.92850E+01 9.88895E-03 2.17517E-03-1.11485E-01 6.30252E-15 3.36695E-13
 -1      1963 1.94174E+01 1.40016E-02-2.32999E-03-1.22391E-01 3.53056E-14 1.77566E-13
 -1      1964 1.93954E+01-1.53992E-03 1.48576E-03-1.28315E-01 1.15240E-13 2.58860E-13
 -1      1965 1.93467E+01 1.08021E-03 9.97494E-04-1.24414E-01 9.94590E-14 3.22987E-13
 -1      1966 1.94525E+01 7.66424E-04-1.71873E-03-1.45910E-01 9.35500E-14 1.15795E-13
 -1      1967 1.94780E+01-4.86928E-03 1.13227E-03-1.23854E-01 1.02033E-13 1.78308E-13
 -1      1968 1.94261E+01-3.72290E-03 3.50558E-04-1.24371E-01 1.06514E-13 2.38944E-13
 -1      1969 1.95097E+01-6.32442E-03-1.21421E-03-1.50599E-01 1.23437E-13 1.33918E-13
 -1      1970 1.95625E+01-6.07749E-03 8.87665E-04-1.14773E-01 6.67824E-14 1.89576E-13
 -1      1971 1.95116E+01-5.89251E-03 3.21657E-06-1.17520E-01 7.14213E-14 1.66860E-13
 -1      1972 1.95769E+01-9.49634E-03-8.46813E-04-1.45046E-01 9.72662E-14 1.46924E-13
 -1      1973 1.96448E+01-5.79745E-03 7.28239E-04-1.04515E-01 8.78571E-14 1.72882E-13
 -1      1974 1.95966E+01-6.25070E-03-1.57312E-04-1.07971E-01 7.07598E-14 2.04231E-13
 -1      1975 1.96471E+01-1.00330E-02-5.99505E-04-1.34938E-01 8.10016E-14 1.64899E-13
 -1      1976 1.97234E+01-4.42263E-03 6.42958E-04-9.55288E-02-5.59969E-15 1.80067E-13
 -1      1977 1.96783E+01-5.30793E-03-1.91857E-04-9.85887E-02 3.29810E-14 1.72061E-13
 -1      1978 1.97170E+01-8.71408E-03-4.48733E-04-1.24215E-01 4.12129E-14 1.39443E-13
 -1      1979 1.97993E+01-2.18811E-03 6.25940E-04-8.96511E-02 6.13219E-14 1.72885E-13
 -1      1980 1.97565E+01-3.37690E-03-1.36675E-04-9.14633E-02 1.43413E-14 1.81311E-13
 -1      1981 1.97857E+01-6.01427E-03-3.75457E-04-1.15731E-01 2.86609E-14 1.39822E-13
 -1      1982 1.98748E+01 7.81361E-04 6.74404E-04-8.83600E-02 6.45779E-14 1.48966E-13
 -1      1983 1.98329E+01-6.35223E-04-1.45249E-05-8.82187E-02 5.51072E-14 1.56425E-13
 -1      1984 1.98539E+01-2.20541E-03-3.66300E-04-1.11673E-01 6.15361E-14 1.62178E-13
 -1      1985 1.99538E+01 4.43713E-03 7.87570E-04-9.29501E-02 5.83726E-14 1.72489E-13
 -1      1986 1.99104E+01 2.83363E-03 1.60100E-04-9.02179E-02 3.73772E-14 1.67095E-13
 -1      1987 1.99243E+01 2.58003E-03-4.12425E-04-1.13846E-01 5.31117E-14 1.64844E-13
 -1      1988 2.00412E+01 8.77658E-03 9.65339E-04-1.04645E-01 8.07943E-14 6.24536E-14
 -1      1989 1.99934E+01 7.00786E-03 3.77622E-04-9.87023E-02 1.04266E-13 1.36351E-13
 -1      1990 2.00003E+01 8.30118E-03-5.08368E-04-1.23858E-01 8.66226E-14 6.27674E-14
 -1      1991 2.01430E+01 1.38098E-02 1.20623E-03-1.24655E-01 1.24315E-13 4.11920E-14
 -1      1992 2.00873E+01 1.18950E-02 6.30532E-04-1.14872E-01 7.20978E-14 4.76872E-14
 -1      1993 2.00864E+01 1.49633E-02-6.50905E-04-1.43238E-01 1.34808E-13 1.35742E-13
 -1      1994 2.02660E+01 1.95151E-02 1.50398E-03-1.54160E-01 7.47475E-14 1.53700E-13
 -1      1995 2.01985E+01 1.74921E-02 9.10349E-04-1.39903E-01 1.49782E-13 1.63711E-13
 -1      1996 2.01882E+01 2.25633E-02-8.38063E-04-1.73461E-01 1.14072E-13 1.60009E-13
 -1      1997 2.04177E+01 2.57719E-02 1.84199E-03-1.94196E-01-7.46083E-14-3.59181E-15
 -1      1998 2.03341E+01 2.37280E-02 1.20392E-03-1.74879E-01-6.18711E-15 5.73684E-14
 -1      1999 2.03118E+01 3.10125E-02-1.06806E-03-2.15882E-01 5.08895E-14 1.35432E-13
 -1      2000 2.06064E+01 3.22556E-02 2.18483E-03-2.45403E-01-1.11187E-13-6.04443E-16
 -1      2001 2.05019E+01 3.03745E-02 1.48857E-03-2.20604E-01-6.69371E-14-4.59771E-15
 -1      2002 2.04638E+01 4.00181E-02-1.33805E-03-2.71521E-01-6.32903E-14 9.36321E-14
 -1      2003 2.08399E+01 3.82732E-02 2.46594E-03-3.07531E-01-1.16850E-13 6.51717E-14
 -1      2004 2.07100E+01 3.69071E-02 1.72591E-03-2.77225E-01-1.68825E-13-3.95282E-14
 -1      2005 2.06513E+01 4.88983E-02-1.64248E-03-3.40629E-01-1.39610E-13 7.90317E-14
 -1      2006 2.11249E+01 4.25166E-02 2.57222E-03-3.78621E-01 7.55528E-14 4.31183E-14
 -1      2007 2.09659E+01 4.22908E-02 1.85467E-03-3.43585E-01 9.15349E-15 5.90819E-14
 -1      2008 2.08805E+01 5.62971E-02-1.97046E-03-4.21933E-01-2.68854E-14 4.74625E-14
 -1      2009 2.14651E+01 4.27212E-02 2.33035E-03-4.53692E-01-2.35575E-15 4.81739E-14
 -1      2010 2.12753E+01 4.46726E-02 1.78475E-03-4.16154E-01 8.33379E-14 8.63675E-14
 -1      2011 2.11566E+01 5.97749E-02-2.30048E-03-5.11413E-01 4.43562E-14 4.81132E-14
 -1      2012 2.18586E+01 3.52785E-02 1.50804E-03-5.22840E-01-7.71030E-15-4.43634E-14
 -1      2013 2.16399E+01 4.09934E-02 1.39781E-03-4.87450E-01-5.81727E-14-2.33817E-14
 -1      2014 2.14815E+01 5.52895E-02-2.58930E-03-6.00473E-01 1.39377E-14-3.64636E-14
 -1      2015 2.22938E+01 1.50014E-02-1.42179E-04-5.68801E-01-6.08859E-14 1.15151E-13
 -1      2016 2.20546E+01 2.66388E-02 5.64332E-04-5.43905E-01-2.49218E-14-5.36723E-15
 -1      2017 2.18524E+01 3.67228E-02-2.74978E-03-6.73468E-01-5.65440E-14 5.22624E-14
 -1      2018 2.27448E+01-2.44060E-02-2.75058E-03-5.64647E-01-8.19225E-14 2.32903E-13
 -1      2019 2.25029E+01-4.49727E-03-8.10701E-04-5.63544E-01-2.63649E-14 1.51691E-13
 -1      2020 2.22580E+01-4.05704E-03-2.61163E-03-7.04972E-01-6.59598E-14 1.89865E-14
 -1      2021 2.31661E+01-8.80101E-02-6.05971E-03-4.73536E-01 1.02009E-13 2.69624E-13
 -1      2022 2.29518E+01-5.86515E-02-2.70197E-03-5.14742E-01 7.22452E-14 2.53373E-13
 -1      2023 2.26754E+01-7.54515E-02-1.86220E-03-6.58103E-01 4.79755E-14 2.05335E-13
 -1      2024 2.34898E+01-1.73792E-01-9.10137E-03-2.54845E-01 4.88116E-14 5.27768E-14
 -1      2025 2.33465E+01-1.37960E-01-4.86368E-03-3.59102E-01 1.12514E-14 1.50113E-13
 -1      2026 2.30654E+01-1.80653E-01-1.94712E-06-4.87183E-01 1.09859E-13 2.04098E-13
 -1      2027 2.36284E+01-2.62934E-01-1.01800E-02 1.16802E-01 1.96842E-13 1.01317E-13
 -1      2028 2.36079E+01-2.32048E-01-6.84414E-03-6.38452E-02 1.54108E-13 1.91567E-13
 -1      2029 2.33687E+01-3.06705E-01 3.45778E-03-1.50743E-01 1.03361E-13 2.80613E-13
 -1      2030 2.34918E+01-3.10879E-01-7.48734E-03 6.15840E-01-1.38726E-14 5.06158E-14
 -1      2031 2.36396E+01-3.07430E-01-8.04838E-03 3.70980E-01 1.30446E-13 1.27077E-13
 -1      2032 2.35065E+01-4.10886E-01 8.31183E-03 3.58304E-01 1.23066E-13 4.54236E-13
 -1      2033 2.30248E+01-2.52816E-01-1.02302E-03 1.12260E+00-9.74203E-14 2.18506E-14
 -1      2034 2.33552E+01-3.03956E-01-7.78835E-03 8.72985E-01-1.08366E-13-7.32921E-15
 -1      2035 2.33946E+01-4.15259E-01 1.30081E-02 9.66498E-01-3.04175E-14 2.21056E-13
 -1      2036 2.22679E+01-4.53775E-02 4.91404E-03 1.41332E+00-3.54833E-14-4.82427E-14
 -1      2037 2.27354E+01-1.59326E-01-5.44014E-03 1.26922E+00-1.12290E-13-4.17947E-14
 -1      2038 2.29848E+01-2.37719E-01 1.33960E-02 1.48026E+00-2.79030E-14 6.53080E-14
 -1      2039 2.14183E+01 2.63246E-01 4.14762E-03 1.25079E+00 1.84037E-14 5.16497E-14
 -1      2040 2.19022E+01 1.25745E-01-5.82843E-04 1.32476E+00-4.86304E-14 3.87485E-14
 -1      2041 2.23410E+01 1.28909E-01 5.41536E-03 1.61584E+00-7.48798E-14-2.43468E-14
 -1      2042 2.08076E+01 5.11532E-01-4.47532E-03 5.73625E-01 7.34170E-14 2.09169E-14
 -1      2043 2.11397E+01 4.32697E-01 6.59405E-03 8.88025E-01 6.50278E-14 8.57092E-14
 -1      2044 2.16924E+01 5.44822E-01-8.40692E-03 1.16111E+00 6.60166E-14 9.81923E-14
 -1      2045 2.07420E+01 5.26055E-01-1.23787E-02-3.62016E-01 4.26379E-13-9.46136E-14
 -1      2046 2.07802E+01 5.67082E-01 1.25197E-02 6.38725E-02 2.51008E-13-2.43295E-14
 -1      2047 2.13592E+01 7.68432E-01-1.62678E-02 1.97401E-01 2.77414E-13 1.03509E-13
 -1      2048 2.12569E+01 2.99472E-01-1.06391E-02-1.11061E+00 2.35668E-13-1.71002E-13
 -1      2049 2.09840E+01 4.33467E-01 1.28982E-02-7.75752E-01 3.44821E-13-6.79699E-14
 -1      2050 2.15275E+01 6.44730E-01-1.17884E-02-8.43980E-01 3.88285E-13 2.29951E-13
 -1      2051 2.20836E+01-1.06943E-02-8.29864E-04-1.36630E+00-8.83722E-14-2.61548E-13
 -1      2052 2.16203E+01 1.30512E-01 6.65349E-03-1.25058E+00 1.16122E-13-2.37178E-13
 -1      2053 2.20803E+01 2.62569E-01 7.31053E-04-1.47596E+00 2.37394E-13 4.07382E-14
 -1      2054 2.28529E+01-2.35363E-01 7.91792E-03-1.13384E+00-2.06528E-13-3.14445E-13
 -1      2055 2.23836E+01-1.54461E-01-2.57483E-03-1.22805E+00-1.90511E-13-3.00067E-13
 -1      2056 2.27070E+01-1.49972E-01 6.90650E-03-1.49984E+00-1.32091E-13 1.66082E-14
 -1      2057 2.33170E+01-3.11171E-01 1.05473E-02-6.34323E-01-2.33415E-13-1.56553E-13
 -1      2058 2.29878E+01-3.01891E-01-9.79095E-03-8.41638E-01-2.14939E-13-2.56958E-13
 -1      2059 2.31398E+01-4.00913E-01 4.96635E-03-1.05726E+00-2.43675E-13-1.00111E-13
 -1      2060 2.34135E+01-2.74600E-01 8.00408E-03-1.06713E-01 4.84933E-14-1.04975E-13
 -1      2061 2.32843E+01-3.09566E-01-1.24853E-02-3.27394E-01-1.21066E-14-8.17404E-14
 -1      2062 2.32734E+01-4.49614E-01 6.36512E-04-4.35342E-01-1.16133E-13-5.72259E-14
 -1      2063 2.32019E+01-1.89666E-01 3.85805E-03 3.06868E-01-1.27384E-13-1.52125E-13
 -1      2064 2.32593E+01-2.37769E-01-1.13337E-02 1.31778E-01-5.42656E-14-1.35393E-13
 -1      2065 2.31332E+01-3.65255E-01-1.92827E-03 1.34117E-01 7.04558E-15 6.90398E-15
 -1      2066 2.27852E+01-1.02923E-01 4.96155E-04 5.64935E-01-1.29965E-13 1.52373E-13
 -1      2067 2.29784E+01-1.45397E-01-8.13047E-03 4.53114E-01-6.06980E-14 6.20632E-14
 -1      2068 2.27984E+01-2.34792E-01-2.31505E-03 5.41347E-01-1.58127E-13 2.56187E-13
 -1      2069 2.22621E+01-3.41459E-02-1.24088E-03 6.83998E-01-2.02043E-14-7.36442E-14
 -1      2070 2.25331E+01-6.49519E-02-4.45253E-03 6.29487E-01-6.84899E-14 9.63431E-14
 -1      2071 2.23518E+01-1.13557E-01-1.66248E-03 7.71694E-01 1.71217E-14 1.34689E-13
 -1      2072 2.17105E+01 1.49236E-02-1.53538E-03 6.98602E-01 3.57227E-13-2.36113E-13
 -1      2073 2.20094E+01-5.44945E-03-1.16846E-03 6.88007E-01 2.26571E-13-4.51657E-14
 -1      2074 2.18611E+01-2.12323E-02-9.26371E-04 8.55378E-01 2.30474E-13-7.59540E-14
 -1      2075 2.11870E+01 5.06138E-02-9.69070E-04 6.38931E-01 3.57670E-13-3.26976E-13
 -1      2076 2.14758E+01 3.67894E-02 1.34545E-03 6.60745E-01 2.95793E-13-2.97440E-13
 -1      2077 2.13763E+01 4.42869E-02-5.58198E-04 8.31062E-01 3.45774E-13-7.53122E-14
 -1      2078 2.07322E+01 8.08824E-02-2.36448E-04 5.23196E-01 1.50365E-13-3.07220E-13
 -1      2079 2.09830E+01 6.95992E-02 2.87449E-03 5.71167E-01 2.79092E-13-2.98460E-13
 -1      2080 2.09332E+01 9.33370E-02-7.71611E-04 7.28425E-01 2.94115E-13 1.29670E-13
 -1      2081 2.03763E+01 1.11438E-01 1.50603E-03 3.59486E-01-3.76713E-14-1.03239E-13
 -1      2082 2.05660E+01 9.91816E-02 3.06149E-03 4.32090E-01-2.14846E-15-1.10281E-13
 -1      2083 2.05559E+01 1.36506E-01-1.25546E-03 5.65228E-01-1.16721E-14 2.61438E-13
 -1      2084 2.01661E+01 1.32613E-01 3.64976E-03 2.11142E-01-3.03022E-13 7.24627E-15
 -1      2085 2.02929E+01 1.26124E-01 2.57051E-03 2.99327E-01-9.16602E-14-5.87513E-15
 -1      2086 2.03017E+01 1.73178E-01-1.87409E-03 4.02060E-01-2.02382E-13 1.97833E-13
 -1      2087 2.01513E+01 2.00430E-01-1.86121E-04 2.64817E-01-3.78373E-13 1.61464E-13
 -1      2088 2.00038E+01 1.11856E+00-1.70282E-03 6.33625E-01 4.43786E-14 2.37749E-13
 -1      2089 2.00406E+01 9.16646E-01 2.75275E-03 6.20677E-01-4.68954E-14 1.11215E-13
 -1      2090 2.00762E+01 7.51522E-01 1.24024E-04 5.82473E-01-1.03756E-13 1.24608E-13
 -1      2091 2.01119E+01 5.68744E-01 3.82995E-03 5.26955E-01-1.88358E-13 3.78196E-13
 -1      2092 2.00871E+01 7.81679E-01-6.76190E-04 7.60521E-01-7.34100E-14 2.63437E-13
 -1      2093 2.01254E+01 4.53299E-01 1.22697E-03 4.48530E-01-2.34203E-13 2.27215E-13
 -1      2094 2.01503E+01 3.06632E-01 3.68458E-03 3.61741E-01-2.32484E-13 1.59482E-13
 -1      2095 2.02151E+01 2.96502E-01 2.51223E-03 4.38551E-01-2.64894E-13 2.39164E-13
 -1      2096 2.01655E+01 5.09674E-01-1.01320E-03 6.27820E-01-1.65824E-13 2.93221E-13
 -1      2097 1.99372E+01 1.47254E+00-3.98399E-03 5.97246E-01-6.55606E-14-1.88287E-13
 -1      2098 1.99706E+01 1.28021E+00 2.40827E-04 6.23164E-01-6.35405E-14 2.71935E-14
 -1      2099 1.99816E+01 1.10652E+00 8.43366E-04 7.90107E-01-2.29414E-14 7.43007E-14
 -1      2100 1.98790E+01 1.78320E+00-6.02749E-03 4.78549E-01-1.06456E-14 2.31445E-13
 -1      2101 1.99074E+01 1.62037E+00-2.28127E-03 5.39702E-01-1.19455E-13 2.31170E-13
 -1      2102 1.98852E+01 1.41648E+00 2.85346E-03 7.14009E-01 7.14395E-14-3.59998E-15
 -1      2103 1.98375E+01 2.00288E+00-7.24252E-03 2.93196E-01-4.17015E-14 2.74990E-13
 -1      2104 1.98565E+01 1.89524E+00-4.64288E-03 3.80949E-01-3.15841E-14 3.47446E-13
 -1      2105 1.98050E+01 1.67726E+00 4.86778E-03 5.39840E-01 1.62944E-13 3.22672E-13
 -1      2106 1.98184E+01 2.10087E+00-7.38260E-03 6.63095E-02 4.73755E-14 1.18105E-13
 -1      2107 1.98252E+01 2.06342E+00-6.44158E-03 1.68560E-01-1.03347E-13 1.13064E-13
 -1      2108 1.97515E+01 1.85071E+00 6.33183E-03 2.90139E-01-2.51046E-14 1.61318E-13
 -1      2109 1.98251E+01 2.06272E+00-6.46501E-03-1.70184E-01-2.30905E-14 5.20113E-14
 -1      2110 1.98184E+01 2.10075E+00-7.37371E-03-6.79314E-02 2.87269E-14 3.32350E-13
 -1      2111 1.97326E+01 1.91145E+00 6.86912E-03-9.89667E-04-1.03204E-13 3.09549E-13
 -1      2112 1.98564E+01 1.89364E+00-4.72775E-03-3.82545E-01-7.44591E-14-4.37446E-13
 -1      2113 1.98376E+01 2.00195E+00-7.19358E-03-2.94860E-01-1.68581E-13-2.44443E-13
 -1      2114 1.97514E+01 1.85020E+00 6.30608E-03-2.92153E-01-1.98758E-13-1.40882E-13
 -1      2115 1.99065E+01 1.62338E+00-2.34306E-03-5.39062E-01-1.24578E-13 7.93963E-14
 -1      2116 1.98786E+01 1.78363E+00-6.00136E-03-4.78761E-01-1.35674E-13-1.06021E-13
 -1      2117 1.98047E+01 1.67814E+00 4.93658E-03-5.40228E-01-1.09611E-13-3.41664E-13
 -1      2118 1.99705E+01 1.28007E+00 3.01839E-04-6.23844E-01 2.20982E-14 5.36113E-13
 -1      2119 1.99364E+01 1.47582E+00-4.02059E-03-5.97383E-01-6.48847E-14 3.68896E-13
 -1      2120 1.98839E+01 1.41967E+00 2.85973E-03-7.13679E-01 8.70769E-14 2.28976E-13
 -1      2121 2.00415E+01 9.12826E-01 2.83044E-03-6.21099E-01 1.60866E-13 3.85076E-13
 -1      2122 2.00043E+01 1.11514E+00-1.75521E-03-6.34511E-01 8.85741E-14 5.46425E-13
 -1      2123 1.99815E+01 1.10673E+00 7.69657E-04-7.91109E-01 7.24312E-15 6.23254E-13
 -1      2124 2.01138E+01 5.59057E-01 2.15143E-03-5.29106E-01 1.75999E-13-1.80396E-14
 -1      2125 2.00748E+01 7.47749E-01-3.30245E-04-5.82208E-01 1.41738E-13 1.45344E-13
 -1      2126 2.00875E+01 7.79266E-01-7.06265E-04-7.59920E-01 1.39565E-13 1.80105E-13
 -1      2127 1.06181E+01-5.37862E+00-1.87789E-01 6.37234E+00 4.77396E-15 9.25392E-13
 -1      2128 7.52242E+00-6.32310E+00-2.23762E-01 5.70448E+00-2.67675E-13 9.07580E-13
 -1      2129 3.82131E-01-7.20555E+00-3.76741E-01 8.30375E-01-2.44527E-13 4.78451E-13
 -1      2130 3.15903E-01-7.23958E+00-3.89670E-01-6.48176E-01-3.66290E-13 2.86160E-13
 -1      2131 3.76869E+00-5.89375E+00-2.07803E-01 4.33209E+00-3.42226E-13 8.29670E-13
 -1      2132 1.42829E+00-7.38852E+00-4.56203E-01 2.45728E+00-4.49252E-13 6.91336E-13
 -1      2133 2.36427E+00-4.57699E+00-1.37789E-01 2.13725E+00-1.83076E-13 4.04177E-13
 -1      2134 1.87468E+01-3.14897E+00 1.89681E-03 6.93767E+00 4.04565E-13 6.32883E-13
 -1      2135 1.41181E+01-5.13170E+00-3.30374E-01 6.13047E+00 7.04992E-14 6.84480E-13
 -1      2136 2.76444E+01-2.91321E-01 1.58544E-01 6.06212E+00 4.48308E-13 7.05436E-13
 -1      2137 2.25456E+01-2.22899E+00-1.80094E-01 5.84217E+00 5.42344E-13 6.05516E-13
 -1      2138 1.95246E+01 4.01738E+00-2.49795E-02-1.70149E+00-1.63881E-13-2.30422E-13
 -1      2139 1.96478E+01 3.94357E+00-2.46687E-02-1.95789E+00-1.99431E-13-1.88023E-13
 -1      2140 1.99634E+01 3.23716E+00-1.87416E-02-1.92745E+00-2.14036E-13-1.40839E-13
 -1      2141 1.96963E+01 3.58919E+00-6.68143E-03-1.52173E+00-1.60160E-13-2.21729E-13
 -1      2142 3.69337E+01 5.61448E+00 6.74319E-02 7.17470E-01 6.03129E-13-4.99045E-14
 -1      2143 3.59987E+01 4.43479E+00 2.17290E-01 2.15469E+00 5.16753E-13 2.66454E-13
 -1      2144 4.10591E+01 7.30130E+00 5.22872E-01-1.04960E-01 3.98903E-13 1.61732E-13
 -1      2145 3.83587E+01 7.31945E+00 1.75552E-01 7.44706E-01 5.06428E-13 6.30329E-14
 -1      2146 3.81581E+01 6.13311E+00 1.83850E-01-1.49198E+00 4.55080E-13 2.04337E-13
 -1      2147 4.06731E+01 6.78233E+00 4.27220E-01-6.68764E-01 3.60822E-13 2.93182E-13
 -1      2148 3.61617E+01 7.97895E+00 3.29725E-01 1.86809E-01 3.28237E-13 3.26711E-13
 -1      2149 3.30309E+01 2.54922E+00-2.44263E-03-2.44721E+00 4.43590E-13 2.61569E-13
 -1      2150 3.70091E+01 4.42635E+00 3.19692E-01-2.05477E+00 5.30603E-13 2.16716E-13
 -1      2151 2.62681E+01-2.00307E+00-1.06091E-01-4.40438E+00 5.14672E-13 7.23310E-14
 -1      2152 3.08368E+01 1.44312E-02 1.26387E-01-3.98011E+00 5.01488E-13 3.77698E-13
 -1      2153 1.76167E+01-4.87579E+00-2.08400E-01-6.09732E+00 2.38143E-13-1.73028E-13
 -1      2154 2.25459E+01-3.18106E+00 3.21829E-02-6.29887E+00 3.55993E-13-1.93179E-13
 -1      2155 9.37042E+00-6.02043E+00-1.86531E-01-5.96220E+00 1.00253E-13-3.83790E-13
 -1      2156 1.36186E+01-5.01275E+00-4.04559E-02-6.94491E+00 1.61926E-13-2.08909E-13
 -1      2157 2.01455E+00-6.97779E+00-3.85576E-01-2.90255E+00 2.11831E-13-4.17444E-13
 -1      2158 4.64841E+00-5.38342E+00-1.47398E-01-4.87562E+00 1.73805E-13-4.40314E-13
 -1      2159 5.31164E-01-6.24050E+00-2.56157E-01 2.42847E-01 7.06241E-14-4.97935E-13
 -1      2160 7.99660E-01-6.63684E+00-3.14055E-01-1.41716E+00 2.56101E-13-4.36429E-13
 -1      2161 3.02920E+00-4.08890E+00-8.28158E-02-2.72233E+00-5.82867E-15-4.54303E-13
 -1      2162 3.07459E+00-6.47713E+00-2.84979E-01 3.85261E+00 1.06304E-13-6.59750E-13
 -1      2163 1.35308E+00-6.70178E+00-3.21694E-01 2.44169E+00 2.19463E-13-5.76705E-13
 -1      2164 9.49336E+00-5.24734E+00-1.27407E-01 6.37064E+00 2.11497E-14-7.68247E-13
 -1      2165 5.67796E+00-6.84298E+00-3.95906E-01 4.82793E+00 1.51712E-13-6.43402E-13
 -1      2166 6.37761E+00-5.04437E+00-1.02382E-01 5.42817E+00 2.81219E-13-6.22974E-13
 -1      2167 1.89222E+01-3.57911E+00 1.02078E-02 6.77660E+00-2.70783E-13-3.97904E-13
 -1      2168 1.45629E+01-5.38764E+00-2.22159E-01 6.18753E+00-2.87548E-14-6.04322E-13
 -1      2169 2.70738E+01-1.24169E+00 9.67789E-02 5.55564E+00-3.50386E-13-1.82743E-13
 -1      2170 2.20593E+01-2.94689E+00-1.84357E-01 5.65766E+00-2.83995E-13-2.66898E-13
 -1      2171 2.29139E+01-4.78470E+00 4.24899E-02 5.42127E+00 1.21680E-13-2.61458E-14
 -1      2172 3.47061E+01 2.66799E+00 3.09727E-01 3.72993E+00-6.14112E-13 5.41456E-13
 -1      2173 3.02382E+01 8.19548E-01-3.04275E-02 3.85558E+00-5.19626E-13 1.52989E-13
 -1      2174 3.87560E+01 5.39000E+00 3.19977E-01 1.78081E+00-8.65974E-13 1.21297E-12
 -1      2175 3.60836E+01 4.24360E+00 1.61079E-01 2.80401E+00-7.43877E-13 7.96474E-13
 -1      2176 3.36967E+01 2.86942E+00 2.46557E-01 5.88973E-01-7.35828E-13 1.01474E-12
 -1      2177 3.92621E+01 7.35681E+00 2.23301E-01-1.37891E-01-8.65030E-13 1.48778E-12
 -1      2178 3.99583E+01 6.87488E+00 4.26538E-01 1.03319E+00-8.64919E-13 1.25533E-12
 -1      2179 3.89917E+01 6.32735E+00 3.47431E-01-1.50233E+00-7.94531E-13 1.36308E-12
 -1      2180 3.85047E+01 7.09200E+00 1.49602E-01-1.54183E-01-6.54587E-13 1.28483E-12
 -1      2181 3.45351E+01 3.59494E+00 7.69787E-02-2.63680E+00-6.43124E-13 1.27509E-12
 -1      2182 3.81539E+01 4.92181E+00 3.34830E-01-2.21798E+00-7.53758E-13 1.31967E-12
 -1      2183 3.48843E+01 5.88417E+00 2.66901E-01 2.71793E-01-6.55864E-13 1.10920E-12
 -1      2184 2.83543E+01 3.99576E-02-2.57744E-02-4.98654E+00-6.79234E-13 1.22269E-12
 -1      2185 3.26094E+01 1.54041E+00 1.88865E-01-4.32627E+00-6.46413E-13 1.30695E-12
 -1      2186 2.12028E+01-3.18063E+00-1.75288E-01-5.87573E+00-5.96967E-13 1.07170E-12
 -1      2187 2.58023E+01-1.10292E+00 1.57340E-01-6.24058E+00-6.43263E-13 1.21081E-12
 -1      2188 2.83111E+01-2.16334E+00 1.29182E-01-3.78097E+00-4.33487E-13 9.14935E-13
 -1      2189 1.29149E+01-5.77569E+00-2.87352E-01-6.18384E+00-6.45373E-13 7.46014E-13
 -1      2190 1.73973E+01-4.19987E+00-1.43291E-02-6.95129E+00-6.63469E-13 1.02801E-12
 -1      2191 5.25108E+00-7.17523E+00-4.60742E-01-4.69564E+00-6.19949E-13 6.37213E-13
 -1      2192 8.57094E+00-5.63402E+00-2.01548E-01-6.03920E+00-6.29607E-13 6.80407E-13
 -1      2193 1.08728E+00-7.66547E+00-4.62562E-01-2.32977E+00-5.92054E-13 2.77223E-13
 -1      2194 2.71374E+00-6.89461E+00-3.40517E-01-3.65912E+00-7.60891E-13 4.42701E-13
 -1      2195 3.46166E+01 2.59342E+00 1.95631E-01 3.74554E+00 4.19114E-13 5.12368E-13
 -1      2196 3.05388E+01 1.17550E+00 1.24841E-02 4.43419E+00 4.13614E-13 6.30607E-13
 -1      2197 2.98972E+01-1.06505E+00 2.03182E-01 3.16157E+00 3.10960E-13 4.48086E-13
 -1      2198 2.07309E+01 1.10847E+00-2.09142E-02-1.61709E+00-2.30618E-13 2.59954E-13
 -1      2199 3.35058E+01 2.94689E+00 2.55499E-01 5.85662E-01 4.05592E-13 8.78742E-14
 -1      2200 2.06232E+01 1.33214E+00-1.78522E-02-1.67907E+00-2.41383E-13 1.19526E-13
 -1      2201 6.77977E+00-5.63810E+00-1.40917E-01 5.44279E+00-3.88412E-13 9.90069E-13
 -1      2202 6.66889E+00-3.99074E+00 1.15063E-01 5.28991E+00-2.97956E-13 8.73690E-13
 -1      2203 1.00707E+01-5.04425E+00-8.06305E-02 6.51754E+00-3.92020E-13 9.81104E-13
 -1      2204 1.49799E+01-5.79018E+00-1.24729E-01 6.85636E+00-1.62204E-13 7.46458E-13
 -1      2205 2.01498E+01 4.47433E-01 2.90389E-03-5.09932E-01 1.26468E-13-1.95211E-13
 -1      2206 1.97020E+00-5.00646E+00-2.09309E-01-1.89776E+00-2.03740E-13 4.98435E-13
 -1      2207 2.29420E+01-4.28559E+00 3.29234E-02 5.69247E+00 2.16216E-13 4.52360E-13
 -1      2208 5.72725E+00-5.59785E+00-1.84475E-01-5.26123E+00-4.13725E-13 4.48919E-13
 -1      2209 2.14732E+01-5.06603E+00-3.15881E-02-5.93583E+00-4.66738E-13 9.86239E-13
 -1      2210 3.29192E+01 1.75269E+00 2.03119E-01-1.34746E+00-5.28202E-13 1.17378E-12
 -1      2211 3.58903E+01 6.46044E+00 3.04964E-01-1.18292E-01-1.01985E-12 1.13276E-12
 -1      2212 2.94176E+01-1.68476E+00 1.12513E-01 2.84345E+00-2.81275E-13 3.79363E-13
 -1      2213 1.44311E+01-5.62744E+00-2.59851E-02 6.75917E+00 2.68618E-13-5.82812E-13
 -1      2214 2.41916E+00-4.28894E+00-1.14488E-01 1.63909E+00 2.00048E-13-5.35016E-13
 -1      2215 8.88582E+00-4.96861E+00-3.95310E-03-6.08034E+00-4.38538E-14-3.18773E-13
 -1      2216 1.78128E+01-5.58511E+00-2.15027E-02-6.51398E+00-6.61693E-14-4.48946E-14
 -1      2217 2.59261E+01-3.82215E+00 8.15849E-02-4.21920E+00 3.08004E-13 1.61759E-13
 -1      2218 3.49007E+01 5.33346E+00 2.32191E-01 2.43186E-01 4.32210E-13 3.17579E-13
 -1      2219 3.59620E+01 6.62187E+00 1.82413E-01 6.36259E-02 5.86864E-13 1.30174E-13
 -1      2220 3.24977E+01 5.61646E+00 1.12405E-02-8.55812E-01 5.68934E-13 2.53880E-13
 -1      2221 3.31609E+01 7.14804E+00-7.24213E-02-6.74356E-01 4.68070E-13 2.82496E-13
 -1      2222 3.15838E+01 2.39140E-01 7.38081E-02-1.09969E+00 4.53693E-13 3.93241E-13
 -1      2223 3.69184E+01 7.54696E+00 2.42923E-01-5.31408E-02-7.55285E-13 1.01986E-12
 -1      2224 3.35192E+01 7.64213E+00-2.20208E-02-3.36055E-02-8.60034E-13 7.79724E-13
 -1      2225 3.31261E+01 7.32309E+00-1.80050E-02 3.05729E-01-7.49012E-13 8.08520E-13
 -1      2226 1.31325E+01-5.72377E+00-3.09706E-02-6.89836E+00-4.61908E-13 7.02431E-13
 -1      2227 2.01432E+01 5.06351E-01 3.71972E-03 6.79694E-01 1.83943E-13 3.00835E-13
 -1      2228 2.04115E+01 6.99939E-01 2.08390E-02 9.71318E-01 2.01143E-13 3.31402E-13
 -1      2229 1.95642E+01 3.51565E+00-1.11260E-02-5.92277E-01-3.15939E-14-2.49968E-13
 -1      2230 1.95992E+01 3.46959E+00-1.05252E-02-7.76938E-01-6.87983E-14-2.50182E-13
 -1      2231 1.96455E+01 3.38108E+00-1.27989E-02-9.41417E-01-9.12441E-14-2.44296E-13
 -1      2232 1.97057E+01 3.30046E+00-1.27813E-02-1.13148E+00-1.19610E-13-2.36097E-13
 -1      2233 1.97905E+01 3.03292E+00 3.02685E-04-7.93013E-01-7.46787E-14-2.17581E-13
 -1      2234 1.95175E+01 3.59829E+00-9.63202E-03 9.95661E-02 8.27846E-14-2.44595E-13
 -1      2235 1.95168E+01 3.59911E+00-9.63735E-03-8.01612E-02 5.47849E-14-2.44702E-13
 -1      2236 1.95433E+01 3.55887E+00-9.72599E-03 4.46158E-01 1.26917E-13-2.32024E-13
 -1      2237 1.95261E+01 3.58145E+00-1.01512E-02 2.65065E-01 1.00522E-13-2.46895E-13
 -1      2238 1.96839E+01 3.22107E+00-8.89155E-04 1.69838E-01 8.88657E-14-2.25170E-13
 -1      2239 1.96041E+01 3.46234E+00-1.06560E-02 7.90739E-01 1.84827E-13-2.01199E-13
 -1      2240 1.95685E+01 3.50930E+00-1.12235E-02 6.09050E-01 1.51138E-13-2.16560E-13
 -1      2241 1.97203E+01 3.15756E+00-4.55326E-04 4.88837E-01 1.27490E-13-1.94310E-13
 -1      2242 1.97137E+01 3.28851E+00-1.30126E-02 1.14433E+00 2.35703E-13-1.40591E-13
 -1      2243 1.96516E+01 3.37187E+00-1.29506E-02 9.54848E-01 2.06335E-13-1.70519E-13
 -1      2244 1.97965E+01 3.02399E+00 4.17624E-04 8.05094E-01 1.88855E-13-1.55541E-13
 -1      2245 1.98917E+01 3.00288E+00-1.81791E-02 1.49182E+00 2.72901E-13-9.29474E-14
 -1      2246 1.97928E+01 3.14414E+00-1.52339E-02 1.30116E+00 2.48415E-13-1.31061E-13
 -1      2247 1.99244E+01 2.79853E+00 1.97595E-03 1.11142E+00 2.29450E-13-1.17287E-13
 -1      2248 2.01679E+01 2.54385E+00-2.83454E-02 1.79655E+00 2.94276E-13 4.69139E-14
 -1      2249 2.00178E+01 2.78292E+00-1.70867E-02 1.62208E+00 2.79428E-13-3.18894E-14
 -1      2250 2.01178E+01 2.44817E+00 6.02436E-03 1.37797E+00 2.54800E-13-4.92054E-14
 -1      2251 1.98656E+01 2.68133E-01 4.64765E-03 2.87213E-01 1.61142E-13 2.50748E-13
 -1      2252 2.00268E+01 3.67917E-01 2.01878E-02 4.44353E-01 1.72904E-13 2.86290E-13
 -1      2253 2.02069E+01 6.34335E-01-2.32199E-03 7.06736E-01 1.95468E-13 1.90959E-13
 -1      2254 2.03984E+01 8.55517E-01 1.35278E-02-1.00147E+00-1.96151E-13 6.54862E-14
 -1      2255 2.01856E+01 6.26839E-01-4.68333E-03-6.93651E-01-1.63446E-13 5.82188E-14
 -1      2256 3.12936E+01 2.47308E+00-2.00408E-01-1.00729E+00 4.01540E-13 2.27124E-13
 -1      2257 3.09780E+01 5.79360E-01-7.70428E-02-1.28303E-01 3.51996E-13 1.87128E-13
 -1      2258 2.01205E+01 4.69724E-01 1.62018E-02-4.76759E-01-1.44683E-13 6.11863E-14
 -1      2259 1.99796E+01 3.44389E-01 8.43316E-05-3.05360E-01-1.42631E-13 4.58329E-14
 -1      2260 2.02425E+01 7.49210E-01-6.93153E-04-6.95919E-01-1.76427E-13-3.40992E-15
 -1      2261 1.99161E+01 2.59513E-01 1.08781E-02-1.68034E-01-1.10781E-13 6.60537E-14
 -1      2262 1.98373E+01 1.88221E-01 7.41374E-04-7.07478E-02-7.24833E-14 4.71174E-14
 -1      2263 2.00780E+01 4.16142E-01-3.64739E-03-3.12517E-01-1.25202E-13-2.13338E-15
 -1      2264 1.97930E+01 1.38951E-01 6.41149E-03 1.15340E-02-5.35989E-14 4.82463E-14
 -1      2265 1.97579E+01 9.69049E-02 7.60900E-04 6.50966E-02-5.99217E-14 4.59091E-14
 -1      2266 1.99572E+01 2.27691E-01-3.63866E-03-7.31992E-02-8.57124E-14 1.75249E-14
 -1      2267 1.97323E+01 6.73342E-02 3.59094E-03 1.11284E-01-5.98220E-14 4.14568E-14
 -1      2268 1.97253E+01 4.22457E-02 6.81433E-04 1.38383E-01-5.87726E-14 3.88814E-14
 -1      2269 1.98818E+01 1.16037E-01-2.96112E-03 6.82824E-02-6.92137E-14 1.83322E-14
 -1      2270 1.97142E+01 2.44898E-02 1.86962E-03 1.61501E-01-8.47162E-14 2.77815E-14
 -1      2271 1.97241E+01 9.90369E-03 5.97552E-04 1.72587E-01-6.92084E-14 1.34064E-14
 -1      2272 1.98430E+01 4.90634E-02-2.17449E-03 1.45980E-01-8.75110E-14 7.11088E-15
 -1      2273 1.97231E+01-2.86056E-04 8.11872E-04 1.81431E-01-2.21350E-14-1.80324E-14
 -1      2274 1.97427E+01-8.01978E-03 5.33352E-04 1.83186E-01-2.39252E-14-1.63573E-14
 -1      2275 1.98305E+01 9.69176E-03-1.50976E-03 1.83124E-01-6.74229E-14-9.02445E-14
 -1      2276 1.97483E+01-1.31278E-02 1.66853E-04 1.83792E-01-3.90668E-14-3.16185E-15
 -1      2277 1.97730E+01-1.62097E-02 5.06214E-04 1.80681E-01-4.67827E-14 3.44825E-14
 -1      2278 1.98356E+01-1.16909E-02-1.01868E-03 1.95624E-01-3.31380E-14-1.23070E-13
 -1      2279 1.97829E+01-1.77767E-02-2.10742E-04 1.77273E-01-8.18055E-14 5.54427E-14
 -1      2280 1.98100E+01-1.75851E-02 5.26232E-04 1.72394E-01-9.05938E-14 2.66952E-14
 -1      2281 1.98520E+01-2.08600E-02-6.85228E-04 1.94532E-01-6.40165E-14 1.68898E-15
 -1      2282 1.98226E+01-1.65925E-02-4.12038E-04 1.67999E-01-6.15384E-14 1.42614E-14
 -1      2283 1.98510E+01-1.39962E-02 5.98491E-04 1.63580E-01-3.59945E-14 1.31150E-14
 -1      2284 1.98756E+01-2.14269E-02-4.78992E-04 1.87682E-01-9.29142E-14 4.43867E-14
 -1      2285 1.98654E+01-1.10647E-02-4.97774E-04 1.60435E-01-8.14970E-15 2.43511E-14
 -1      2286 1.98948E+01-6.59403E-03 7.26153E-04 1.58151E-01 1.07783E-14 9.16235E-14
 -1      2287 1.99040E+01-1.56750E-02-3.71445E-04 1.80768E-01-3.03309E-14 6.34429E-14
 -1      2288 1.99109E+01-2.09863E-03-5.09821E-04 1.57986E-01-2.64843E-14 3.84820E-14
 -1      2289 1.99419E+01 3.94978E-03 9.11998E-04 1.59173E-01-4.57563E-14 3.81843E-14
 -1      2290 1.99362E+01-5.01376E-03-3.39314E-04 1.78082E-01-2.00086E-14 1.87857E-14
 -1      2291 1.99599E+01 9.80370E-03-4.77452E-04 1.63406E-01-7.89555E-14 7.31715E-14
 -1      2292 1.99935E+01 1.72910E-02 1.15845E-03 1.69204E-01-7.76387E-14 5.55334E-14
 -1      2293 1.99720E+01 9.74380E-03-3.64336E-04 1.83023E-01-6.21430E-14 7.52802E-15
 -1      2294 2.00140E+01 2.44064E-02-4.21105E-04 1.79076E-01-7.19765E-14 7.55892E-14
 -1      2295 2.00520E+01 3.32853E-02 1.46644E-03 1.90522E-01-6.54415E-14 8.78470E-14
 -1      2296 2.00124E+01 2.81832E-02-4.32052E-04 1.98443E-01-5.53479E-14 1.38347E-13
 -1      2297 2.00757E+01 4.16131E-02-3.54717E-04 2.07170E-01-9.67518E-14 8.74323E-14
 -1      2298 2.01201E+01 5.18563E-02 1.83316E-03 2.25234E-01-8.43593E-14 8.62606E-14
 -1      2299 2.00587E+01 5.01159E-02-5.30491E-04 2.26875E-01-1.08714E-13 1.28108E-13
 -1      2300 2.01481E+01 6.13232E-02-2.86899E-04 2.49713E-01-5.39121E-14 2.07415E-15
 -1      2301 2.02012E+01 7.28303E-02 2.24841E-03 2.75279E-01-5.58991E-14 4.31815E-14
 -1      2302 2.01129E+01 7.53920E-02-6.49430E-04 2.70637E-01-8.93374E-14 1.12998E-13
 -1      2303 2.02348E+01 8.32389E-02-2.20879E-04 3.08512E-01-1.25232E-13 5.27269E-14
 -1      2304 2.02993E+01 9.57040E-02 2.68915E-03 3.42279E-01-9.02095E-14 2.98693E-14
 -1      2305 2.01774E+01 1.03661E-01-7.80297E-04 3.31797E-01-6.19680E-14 2.10358E-14
 -1      2306 2.03398E+01 1.06587E-01-1.52927E-04 3.84913E-01-5.16459E-14-4.28181E-14
 -1      2307 2.04182E+01 1.19300E-01 3.11178E-03 4.27181E-01-2.65006E-14-3.54127E-14
 -1      2308 2.02547E+01 1.34034E-01-9.17335E-04 4.11981E-01-1.19580E-13 2.36032E-14
 -1      2309 2.04674E+01 1.29700E-01-6.85129E-05 4.79320E-01 5.75630E-15-3.79198E-14
 -1      2310 2.05623E+01 1.41253E-01 3.44140E-03 5.29620E-01 6.31208E-14-4.50909E-14
 -1      2311 2.03480E+01 1.64576E-01-1.06153E-03 5.11949E-01-6.38790E-15-6.86195E-14
 -1      2312 2.06220E+01 1.49399E-01 6.47397E-05 5.90377E-01 1.47622E-13-6.05886E-14
 -1      2313 2.07355E+01 1.57251E-01 3.55814E-03 6.46868E-01 2.00391E-13-3.34384E-14
 -1      2314 2.04604E+01 1.91571E-01-1.22860E-03 6.30876E-01 1.13626E-13-4.17669E-14
 -1      2315 2.08085E+01 1.60108E-01 3.07779E-04 7.13667E-01 1.63026E-13-3.12263E-14
 -1      2316 2.09418E+01 1.60026E-01 3.28233E-03 7.72243E-01 7.41200E-14-1.76604E-14
 -1      2317 2.05963E+01 2.08458E-01-1.46220E-03 7.65210E-01 1.34290E-13-1.08909E-13
 -1      2318 2.10319E+01 1.52737E-01 7.62781E-04 8.39799E-01 1.20876E-14-5.04566E-14
 -1      2319 2.11850E+01 1.38172E-01 2.36335E-03 8.92850E-01-5.76925E-14-4.61067E-14
 -1      2320 2.07608E+01 2.04472E-01-1.85201E-03 9.06985E-01-1.35254E-15-1.55523E-13
 -1      2321 2.12981E+01 1.13585E-01 1.58038E-03 9.51753E-01-1.26054E-13-1.17772E-13
 -1      2322 2.14689E+01 7.53405E-02 4.82421E-04 9.86683E-01-9.22283E-14-1.78368E-13
 -1      2323 2.09621E+01 1.63215E-01-2.54909E-03 1.04146E+00-1.31769E-13-1.75944E-13
 -1      2324 2.16140E+01 2.41096E-02 2.93597E-03 1.02163E+00-5.79417E-14-1.72823E-13
 -1      2325 2.17977E+01-4.88327E-02-2.70272E-03 1.01956E+00-1.42903E-14-1.44469E-13
 -1      2326 2.12124E+01 6.20588E-02-3.75434E-03 1.14404E+00-9.80682E-14-1.26250E-13
 -1      2327 2.19871E+01-1.36359E-01 4.93281E-03 1.00753E+00 4.68473E-15-1.23359E-13
 -1      2328 2.21745E+01-2.53047E-01-7.41858E-03 9.43336E-01-2.99548E-14-3.43617E-14
 -1      2329 2.15299E+01-1.25432E-01-5.61661E-03 1.17679E+00 7.75476E-15-2.30386E-13
 -1      2330 2.24214E+01-3.81030E-01 7.29617E-03 8.52996E-01-5.00984E-14-5.29427E-14
 -1      2331 2.25969E+01-5.38791E-01-1.33028E-02 6.99031E-01 6.23286E-15-5.55929E-14
 -1      2332 2.19377E+01-4.19494E-01-7.93225E-03 1.08567E+00-4.49783E-14-1.47989E-13
 -1      2333 2.29057E+01-6.93373E-01 9.03816E-03 4.95048E-01 8.49535E-14-1.45344E-14
 -1      2334 2.30443E+01-8.61064E-01-1.88220E-02 2.33001E-01 5.12732E-14-3.10362E-14
 -1      2335 2.24554E+01-8.09517E-01-9.48313E-03 8.02558E-01 2.70497E-14 2.69798E-14
 -1      2336 2.33917E+01-9.93207E-01 7.38099E-03-1.08546E-01 1.10485E-14 5.41277E-14
 -1      2337 2.34588E+01-1.09041E+00-2.02421E-02-4.65213E-01-1.74591E-14 1.63347E-13
 -1      2338 2.30750E+01-1.21289E+00-7.88352E-03 2.62586E-01 9.30898E-14 1.23512E-13
 -1      2339 2.37659E+01-1.10052E+00-1.54117E-03-9.18670E-01-9.94595E-14 2.31400E-13
 -1      2340 2.37269E+01-9.99660E-01-1.22456E-02-1.28992E+00-9.08535E-14 3.25194E-13
 -1      2341 2.37180E+01-1.42686E+00-8.69372E-04-5.48538E-01 7.88844E-15 3.56140E-13
 -1      2342 2.38601E+01-7.67389E-01-1.97829E-02-1.71990E+00-1.01668E-13 2.90651E-13
 -1      2343 2.37093E+01-3.71825E-01 5.45563E-03-1.94000E+00-1.18000E-13 3.30456E-13
 -1      2344 2.41981E+01-1.13810E+00 1.01669E-02-1.49157E+00-8.90243E-14 4.44399E-13
 -1      2345 2.35775E+01 1.29282E-01-3.77744E-02-2.08886E+00-1.58514E-13 2.46949E-13
 -1      2346 2.33701E+01 7.30906E-01 2.10356E-02-1.96536E+00-1.73575E-13 8.31266E-14
 -1      2347 2.42869E+01-1.43055E-01 1.05925E-02-2.16428E+00-2.25214E-13 3.77825E-13
 -1      2348 2.30786E+01 1.29350E+00-3.75603E-02-1.59951E+00-1.83981E-13 9.42562E-15
 -1      2349 2.29284E+01 1.75101E+00 1.30206E-02-1.07771E+00-1.84283E-13-1.38148E-13
 -1      2350 2.39558E+01 1.31535E+00-8.23840E-03-2.00565E+00-3.13936E-13 8.37984E-14
 -1      2351 2.27830E+01 1.97927E+00-1.36950E-02-2.84762E-01-1.44086E-13-2.57161E-13
 -1      2352 2.27886E+01 1.93927E+00-1.75225E-02 4.02059E-01-7.10092E-14-2.45809E-13
 -1      2353 2.35715E+01 2.40600E+00-3.12967E-02-7.85022E-01-2.58956E-13-1.75716E-13
 -1      2354 2.29567E+01 1.64147E+00 1.54325E-02 1.15497E+00-4.37324E-14-1.76543E-13
 -1      2355 2.31041E+01 1.13798E+00-3.99064E-02 1.62832E+00-8.25590E-14-7.62749E-14
 -1      2356 2.35919E+01 2.30149E+00-3.29448E-02 8.93170E-01-8.03836E-14-3.17296E-13
 -1      2357 2.33803E+01 5.58362E-01 1.96855E-02 1.91678E+00-1.04377E-13 1.36948E-14
 -1      2358 2.35667E+01-3.36133E-02-3.69212E-02 1.98034E+00-2.54996E-14-1.46315E-14
 -1      2359 2.39790E+01 1.10068E+00-6.87164E-03 1.98324E+00 4.80865E-15-3.36843E-13
 -1      2360 2.36535E+01-5.07405E-01 3.16307E-03 1.77184E+00-1.16046E-13-5.60619E-14
 -1      2361 2.37702E+01-8.66862E-01-1.74958E-02 1.51171E+00-1.50253E-14 8.87783E-15
 -1      2362 2.42457E+01-3.42007E-01 9.73495E-03 1.99304E+00-1.45837E-13-4.52477E-14
 -1      2363 2.35936E+01-1.06279E+00-1.35838E-02 1.05687E+00 2.75114E-13-1.98285E-13
 -1      2364 2.35937E+01-1.13159E+00-3.32669E-04 6.71061E-01 3.82925E-13-5.85201E-14
 -1      2365 2.40732E+01-1.24778E+00 8.75731E-03 1.23379E+00 1.13990E-13-1.06221E-14
 -1      2366 2.32627E+01-1.09923E+00-1.99806E-02 2.18108E-01 2.99565E-13-1.23491E-13
 -1      2367 2.31580E+01-9.87946E-01 7.33344E-03-1.38605E-01 2.02527E-13-2.66182E-14
 -1      2368 2.35332E+01-1.45288E+00-1.09962E-03 2.73472E-01 2.12530E-13-1.50595E-13
 -1      2369 2.27998E+01-8.48585E-01-1.80029E-02-4.72663E-01 4.72374E-14-4.05770E-14
 -1      2370 2.26262E+01-6.78583E-01 8.27359E-03-7.30211E-01 2.82443E-14-2.37184E-14
 -1      2371 2.28583E+01-1.20131E+00-8.06211E-03-5.26461E-01 1.78500E-13-2.36567E-13
 -1      2372 2.23106E+01-5.23145E-01-1.23900E-02-9.27257E-01 6.33868E-15 4.23280E-14
 -1      2373 2.21028E+01-3.66280E-01 6.71677E-03-1.07578E+00 9.26037E-14-2.96016E-14
 -1      2374 2.22205E+01-7.88946E-01-9.36398E-03-1.05158E+00 5.94423E-14-1.84213E-13
 -1      2375 2.18489E+01-2.37827E-01-6.62268E-03-1.16053E+00 2.06076E-13-1.04661E-14
 -1      2376 2.16316E+01-1.18990E-01 4.84847E-03-1.21835E+00 3.87410E-13-1.42979E-13
 -1      2377 2.16878E+01-3.98540E-01-7.61300E-03-1.32195E+00 9.70424E-14-1.29587E-13
 -1      2378 2.14325E+01-2.57867E-02-2.23081E-03-1.22320E+00 3.83990E-13-1.52558E-13
 -1      2379 2.12223E+01 5.71674E-02 3.64173E-03-1.21413E+00 1.70330E-13-4.98364E-14
 -1      2380 2.12625E+01-9.72542E-02-5.41476E-03-1.40028E+00 2.97892E-13-3.01843E-13
 -1      2381 2.10643E+01 1.22811E-01 5.61433E-04-1.16491E+00 4.73904E-14 1.28177E-13
 -1      2382 2.08717E+01 1.82117E-01 3.20834E-03-1.10831E+00 1.25307E-14 2.13044E-14
 -1      2383 2.09239E+01 1.16644E-01-3.62707E-03-1.34533E+00 1.99516E-13-3.41432E-15
 -1      2384 2.07419E+01 2.32560E-01 2.02605E-03-1.02147E+00-1.63426E-13-1.53176E-13
 -1      2385 2.05760E+01 2.79313E-01 3.37768E-03-9.28959E-01-1.76682E-13-2.93837E-13
 -1      2386 2.06487E+01 2.70706E-01-2.27354E-03-1.19910E+00-2.42335E-13 3.12060E-15
 -1      2387 1.96178E+01 7.30189E-02 2.08771E-03-6.46694E-02 4.73619E-14 1.16216E-13
 -1      2388 1.96454E+01 1.04616E-01 6.92449E-03-1.83290E-02 7.32337E-14 1.79526E-13
 -1      2389 1.95947E+01 3.16714E-02 1.39166E-03-1.31170E-01 6.91160E-14 4.55600E-14
 -1      2390 1.95914E+01 5.02944E-02 3.69769E-03-1.08251E-01 5.25316E-14 8.37878E-14
 -1      2391 1.97645E+01 9.06618E-02-3.21730E-03-7.03298E-02 1.01001E-13 2.04305E-14
 -1      2392 1.96078E+01 7.40409E-03 9.60115E-04-1.61106E-01 1.05587E-13 4.13231E-14
 -1      2393 1.95872E+01 1.82193E-02 1.84667E-03-1.52128E-01 7.22079E-14 2.84845E-14
 -1      2394 1.97311E+01 3.74919E-02-2.33047E-03-1.43963E-01 9.21132E-14 1.02311E-14
 -1      2395 1.96422E+01-6.09057E-03 6.87619E-04-1.69258E-01 9.11719E-14 8.77974E-14
 -1      2396 1.96126E+01-2.83592E-04 7.59024E-04-1.68348E-01 9.35851E-14 6.33399E-14
 -1      2397 1.97292E+01 6.56514E-03-1.58422E-03-1.77930E-01 8.62372E-14 3.35322E-15
 -1      2398 1.96880E+01-1.24233E-02 5.30821E-04-1.65365E-01 7.91157E-14 1.18276E-13
 -1      2399 1.96544E+01-9.97867E-03 1.22768E-04-1.68671E-01 1.02615E-13 1.24840E-13
 -1      2400 1.97471E+01-1.02368E-02-1.03830E-03-1.88113E-01 7.28220E-14 5.57205E-14
 -1      2401 1.97393E+01-1.37968E-02 4.69239E-04-1.56084E-01 8.39105E-14 1.03358E-13
 -1      2402 1.97046E+01-1.36980E-02-2.30432E-04-1.60966E-01 7.90839E-14 1.13822E-13
 -1      2403 1.97767E+01-1.76151E-02-6.73700E-04-1.85216E-01 8.83639E-14 6.75003E-14
 -1      2404 1.97930E+01-1.15944E-02 4.91674E-04-1.46120E-01 2.50748E-14 1.11351E-13
 -1      2405 1.97583E+01-1.32042E-02-3.98200E-04-1.50696E-01 8.64124E-14 1.19521E-13
 -1      2406 1.98130E+01-1.84420E-02-4.53502E-04-1.76679E-01 7.81405E-14 3.94549E-14
 -1      2407 1.98481E+01-6.67493E-03 5.91122E-04-1.38938E-01 6.55140E-14 6.10684E-14
 -1      2408 1.98135E+01-9.60426E-03-4.42340E-04-1.41801E-01 1.42219E-14 6.56405E-14
 -1      2409 1.98532E+01-1.45140E-02-3.44282E-04-1.67831E-01 4.98867E-14 3.80979E-14
 -1      2410 1.99051E+01 4.60495E-04 7.63919E-04-1.37226E-01 5.71750E-14 7.31258E-14
 -1      2411 1.98699E+01-3.57026E-03-4.04109E-04-1.37255E-01 6.91355E-14 7.85744E-14
 -1      2412 1.98963E+01-6.93417E-03-3.20148E-04-1.62643E-01 4.80047E-14 9.67198E-15
 -1      2413 1.99661E+01 9.55585E-03 1.00867E-03-1.43214E-01 6.39737E-14 5.95823E-14
 -1      2414 1.99288E+01 4.52528E-03-3.11555E-04-1.39451E-01 6.80021E-14 1.08151E-13
 -1      2415 1.99424E+01 3.66369E-03-3.61705E-04-1.64229E-01 3.75216E-14-3.78300E-14
 -1      2416 2.00338E+01 2.05103E-02 1.32451E-03-1.58887E-01 8.16707E-14 6.84371E-14
 -1      2417 1.99924E+01 1.45107E-02-1.83949E-04-1.50451E-01 5.86248E-14 9.10866E-14
 -1      2418 1.99931E+01 1.69616E-02-4.54387E-04-1.75196E-01 5.52642E-14-8.32679E-15
 -1      2419 2.01120E+01 3.32881E-02 1.70855E-03-1.86102E-01 9.42074E-14 1.54908E-13
 -1      2420 2.00640E+01 2.63273E-02-3.46956E-05-1.72151E-01 9.08278E-14 1.69436E-13
 -1      2421 2.00502E+01 3.28291E-02-5.86689E-04-1.97862E-01 1.71133E-14 7.11275E-14
 -1      2422 2.02050E+01 4.78082E-02 2.15174E-03-2.26602E-01 6.38576E-14 2.52590E-13
 -1      2423 2.01475E+01 3.99327E-02 1.26474E-04-2.06341E-01 1.01064E-13 2.16684E-13
 -1      2424 2.01167E+01 5.11893E-02-7.48746E-04-2.34364E-01 5.42516E-14 2.26624E-13
 -1      2425 2.03178E+01 6.37902E-02 2.63287E-03-2.81907E-01 3.22218E-14 1.99370E-13
 -1      2426 2.02477E+01 5.51728E-02 2.92002E-04-2.54661E-01 9.92353E-14 2.43085E-13
 -1      2427 2.01958E+01 7.18502E-02-9.31505E-04-2.86651E-01 7.34363E-14 2.88568E-13
 -1      2428 2.04557E+01 8.05222E-02 3.10962E-03-3.53021E-01-9.20656E-14 1.52340E-13
 -1      2429 2.03696E+01 7.15957E-02 4.55736E-04-3.18404E-01-4.92000E-14 1.49126E-13
 -1      2430 2.02912E+01 9.42628E-02-1.12660E-03-3.56305E-01-7.67669E-16 2.54322E-13
 -1      2431 2.06238E+01 9.65080E-02 3.50595E-03-4.39881E-01-1.14724E-13 8.27028E-14
 -1      2432 2.05186E+01 8.81678E-02 6.13130E-04-3.98101E-01-6.87641E-14 1.52126E-13
 -1      2433 2.04070E+01 1.17160E-01-1.32768E-03-4.44167E-01-6.69623E-14 2.34608E-13
 -1      2434 2.08271E+01 1.08944E-01 3.69576E-03-5.40426E-01 8.70669E-15-5.89089E-14
 -1      2435 2.07001E+01 1.02847E-01 7.63124E-04-4.92803E-01-8.06476E-14-3.87520E-14
 -1      2436 2.05473E+01 1.38013E-01-1.53440E-03-5.49640E-01-3.34876E-14 3.93700E-14
 -1      2437 2.10694E+01 1.12995E-01 3.48493E-03-6.49149E-01 7.78942E-14-2.00035E-14
 -1      2438 2.09191E+01 1.11965E-01 9.12576E-04-5.98904E-01 3.87033E-14-1.67576E-14
 -1      2439 2.07164E+01 1.52244E-01-1.75967E-03-6.69581E-01 1.28224E-14-9.55708E-14
 -1      2440 2.13525E+01 1.00925E-01 2.59935E-03-7.54990E-01-4.33747E-14-3.32626E-14
 -1      2441 2.11796E+01 1.09413E-01 1.08352E-03-7.08373E-01 4.37308E-14 2.54111E-14
 -1      2442 2.09188E+01 1.52183E-01-2.03998E-03-7.96616E-01 5.90267E-14-6.02331E-15
 -1      2443 2.16753E+01 6.14057E-02 6.96506E-04-8.38598E-01-9.47151E-14 3.23150E-14
 -1      2444 2.14840E+01 8.57951E-02 1.32082E-03-8.06285E-01-7.55710E-14 1.68233E-14
 -1      2445 2.11593E+01 1.25934E-01-2.44371E-03-9.16777E-01-5.66045E-14-8.14778E-14
 -1      2446 2.20324E+01-2.00823E-02-2.56739E-03-8.69437E-01-3.37312E-14 6.11629E-14
 -1      2447 2.18319E+01 2.80824E-02 1.69046E-03-8.67823E-01-6.26970E-14 3.93224E-14
 -1      2448 2.14436E+01 5.67660E-02-3.06149E-03-1.00651E+00-9.29623E-14-3.74353E-14
 -1      2449 2.24123E+01-1.57718E-01-7.34063E-03-8.04217E-01 8.69112E-14 1.04115E-13
 -1      2450 2.22185E+01-7.88506E-02 2.23983E-03-8.55546E-01 2.27053E-14 7.03747E-14
 -1      2451 2.17781E+01-7.53774E-02-3.93763E-03-1.02959E+00 1.77148E-15 2.47274E-15
 -1      2452 2.27937E+01-3.55016E-01-1.31195E-02-5.90181E-01 2.89391E-14 2.03133E-13
 -1      2453 2.26307E+01-2.46010E-01 2.88923E-03-7.19278E-01 5.47171E-14 1.51287E-13
 -1      2454 2.21692E+01-2.86957E-01-4.84304E-03-9.35467E-01 2.29160E-14 7.71524E-15
 -1      2455 2.31389E+01-5.84366E-01-1.81880E-02-1.80286E-01 6.07587E-14 2.82575E-13
 -1      2456 2.30394E+01-4.65200E-01 3.14588E-03-4.04153E-01 1.60475E-14 2.36171E-13
 -1      2457 2.26163E+01-5.72997E-01-4.82356E-03-6.63260E-01-1.37520E-14 1.28089E-13
 -1      2458 2.33865E+01-7.61570E-01-1.95057E-02 4.30721E-01-1.28751E-14 4.81331E-13
 -1      2459 2.33867E+01-6.84373E-01 1.54607E-03 1.23357E-01 7.72897E-14 3.94045E-13
 -1      2460 2.30954E+01-8.76087E-01-2.28571E-03-1.60691E-01-6.60756E-15 2.15236E-13
 -1      2461 2.34527E+01-7.37545E-01-1.27624E-02 1.15082E+00 4.24790E-14 2.38329E-13
 -1      2462 2.35786E+01-7.86522E-01-3.92422E-03 8.25156E-01 6.11759E-14 4.58819E-13
 -1      2463 2.35345E+01-1.05733E+00 3.56221E-03 5.70010E-01 9.49618E-14 4.21090E-13
 -1      2464 2.32562E+01-3.55633E-01 2.87781E-03 1.73541E+00 3.10620E-14 9.81533E-14
 -1      2465 2.34997E+01-6.02371E-01-1.35545E-02 1.52533E+00 3.18226E-14 1.98208E-13
 -1      2466 2.37991E+01-8.99524E-01 1.13858E-02 1.40097E+00 8.42924E-14 3.07770E-13
 -1      2467 2.28100E+01 3.74598E-01 1.83105E-02 1.82129E+00-1.35540E-13 1.41774E-13
 -1      2468 2.31020E+01-2.77842E-02-2.24122E-02 1.88524E+00-6.03536E-14 1.37446E-13
 -1      2469 2.37365E+01-2.38337E-01 1.21710E-02 2.00345E+00-8.31158E-14 2.58953E-13
 -1      2470 2.23114E+01 1.13306E+00 1.92706E-02 1.16208E+00 1.25722E-13 2.76916E-13
 -1      2471 2.25352E+01 7.79818E-01-2.07578E-02 1.56057E+00-1.94436E-14 1.71661E-13
 -1      2472 2.33516E+01 7.95322E-01-3.20881E-03 1.93748E+00-1.03985E-13 3.20273E-13
 -1      2473 2.20969E+01 1.40739E+00 2.24694E-03-7.48332E-02 3.53179E-13 2.41675E-13
 -1      2474 2.21372E+01 1.36220E+00-1.93351E-03 5.11335E-01 2.49953E-13 2.29593E-13
 -1      2475 2.29245E+01 1.69916E+00-1.70079E-02 9.76590E-01 2.29823E-13 3.30821E-13
 -1      2476 2.23457E+01 9.80883E-01-2.04605E-02-1.25120E+00 3.53436E-13 2.54060E-13
 -1      2477 2.21899E+01 1.27304E+00 1.53719E-02-7.78101E-01 3.80128E-13 3.02790E-13
 -1      2478 2.28440E+01 1.82200E+00-2.15761E-02-4.94474E-01 3.23614E-13 2.72411E-13
 -1      2479 2.28738E+01 1.80632E-01-2.40717E-02-1.78827E+00 1.21273E-13 2.25212E-13
 -1      2480 2.26114E+01 5.95084E-01 2.02753E-02-1.63448E+00 2.98804E-13 2.42086E-13
 -1      2481 2.31790E+01 1.08250E+00-8.76450E-03-1.66295E+00 3.56066E-13 1.66664E-13
 -1      2482 2.33107E+01-4.92651E-01-1.50427E-02-1.58179E+00-7.66396E-14 1.34359E-14
 -1      2483 2.30638E+01-1.93428E-01 7.49495E-03-1.73317E+00 4.00146E-14 1.85610E-13
 -1      2484 2.35902E+01 1.30878E-02 1.01231E-02-1.96680E+00 2.03069E-13 1.77507E-13
 -1      2485 2.34378E+01-7.85629E-01-4.62894E-03-9.22318E-01-2.94069E-13-1.20675E-13
 -1      2486 2.32977E+01-6.88909E-01-9.55139E-03-1.23238E+00-1.79761E-13-6.31539E-14
 -1      2487 2.37239E+01-7.91300E-01 1.33029E-02-1.49135E+00-4.62172E-14 5.88191E-15
 -1      2488 2.32616E+01-7.49451E-01 1.10732E-03-1.77343E-01-1.26769E-13-7.18275E-14
 -1      2489 2.32547E+01-8.01049E-01-1.86697E-02-5.00275E-01-3.25999E-13-8.23965E-14
 -1      2490 2.35026E+01-1.08601E+00 4.85778E-03-6.62518E-01-2.88053E-13-9.15494E-14
 -1      2491 2.28917E+01-5.49006E-01 2.95948E-03 4.27229E-01-1.25411E-13 2.11853E-13
 -1      2492 2.29989E+01-6.62444E-01-1.88239E-02 1.74771E-01 9.40047E-15 1.84500E-13
 -1      2493 2.30580E+01-9.78301E-01-2.55515E-03 1.37934E-01-2.32088E-13 1.14487E-13
 -1      2494 2.24347E+01-3.20274E-01 2.76835E-03 8.18313E-01-7.67303E-14 9.75756E-14
 -1      2495 2.26195E+01-4.34863E-01-1.40946E-02 6.59795E-01-6.11650E-14 1.71913E-13
 -1      2496 2.25397E+01-6.88432E-01-5.46703E-03 7.28241E-01-4.91241E-14 2.73425E-13
 -1      2497 2.19595E+01-1.29092E-01 2.28534E-03 1.01197E+00 8.44804E-14 4.50020E-14
 -1      2498 2.21857E+01-2.19778E-01-8.30920E-03 9.37976E-01-4.58702E-14 7.35657E-14
 -1      2499 2.20378E+01-3.82005E-01-5.46752E-03 1.07757E+00 1.54024E-14 3.89814E-15
 -1      2500 2.15046E+01 1.03664E-02 2.21043E-03 1.05413E+00 2.68410E-13-1.40816E-15
 -1      2501 2.17424E+01-5.41658E-02-3.35479E-03 1.04478E+00 1.65603E-13 7.51070E-14
 -1      2502 2.15870E+01-1.32936E-01-4.41769E-03 1.22454E+00 7.10684E-14 6.97978E-14
 -1      2503 2.10905E+01 1.09284E-01 2.68792E-03 9.88558E-01 2.57233E-13 1.35432E-13
 -1      2504 2.13181E+01 6.32583E-02 1.76603E-04 1.02594E+00 2.90540E-13 7.74839E-14
 -1      2505 2.11936E+01 4.76146E-02-3.37043E-03 1.22263E+00 2.23684E-13 2.76547E-13
 -1      2506 2.07282E+01 1.85797E-01 3.32228E-03 8.45194E-01 1.81093E-13 4.26706E-13
 -1      2507 2.09304E+01 1.49127E-01 2.29045E-03 9.17809E-01 2.48118E-13 3.33270E-13
 -1      2508 2.08533E+01 1.76963E-01-2.79065E-03 1.11683E+00 1.60048E-13 2.51204E-13
 -1      2509 2.04230E+01 2.52367E-01 3.81918E-03 6.42615E-01-1.60819E-13 4.45404E-13
 -1      2510 2.05913E+01 2.19369E-01 3.11975E-03 7.42611E-01 3.09214E-14 4.69764E-13
 -1      2511 2.05610E+01 2.78990E-01-2.95088E-03 9.35529E-01 3.97930E-14 6.09761E-13
 -1      2512 2.03032E+01 2.76577E-01 3.04631E-03 5.07135E-01-2.30465E-13 2.21878E-13
 -1      2513 1.97748E+01 1.36311E+00-6.31570E-03 7.96189E-01 2.80832E-13 1.95423E-13
 -1      2514 1.98500E+01 1.22954E+00 1.77955E-03 8.64376E-01 2.27480E-13 5.55585E-14
 -1      2515 1.96523E+01 1.58294E+00-7.04408E-03 5.70595E-01 1.80301E-13 3.96103E-13
 -1      2516 1.97105E+01 1.48238E+00-3.88141E-04 6.86587E-01 1.89844E-13 3.28653E-13
 -1      2517 1.96621E+01 1.31591E+00 3.15435E-03 8.46694E-01 2.86157E-13 2.06961E-13
 -1      2518 2.00863E+01 7.99458E-01-3.02806E-03 9.09911E-01-8.39869E-14 2.58995E-13
 -1      2519 2.01705E+01 6.47776E-01 4.95798E-03 8.69502E-01-1.41554E-13 2.70755E-13
 -1      2520 1.99257E+01 1.09060E+00-4.72509E-03 9.12935E-01-1.12142E-13 8.91300E-14
 -1      2521 2.00078E+01 9.42798E-01 3.49038E-03 9.25923E-01-1.96611E-13 2.69580E-13
 -1      2522 2.00638E+01 7.97621E-01 9.36433E-04 1.04820E+00-1.32933E-13 9.22785E-14
 -1      2523 1.98513E+01 1.06785E+00 1.30306E-03 1.01372E+00 1.27016E-13 1.92093E-13
 -1      2524 1.95768E+01 1.71786E+00-6.64086E-03 2.64073E-01-7.07629E-14 1.01734E-13
 -1      2525 1.96088E+01 1.66378E+00-2.86694E-03 4.12638E-01 1.36766E-13 5.09297E-14
 -1      2526 1.95159E+01 1.50864E+00 4.96763E-03 5.62160E-01 5.86038E-14 1.52874E-13
 -1      2527 1.95612E+01 1.74644E+00-5.15218E-03-8.11263E-02-6.38335E-14 2.13089E-13
 -1      2528 1.95613E+01 1.74660E+00-5.11900E-03 7.90673E-02-7.47714E-14 2.61111E-13
 -1      2529 1.94357E+01 1.61438E+00 6.08908E-03 1.96432E-01 6.98922E-14 2.29146E-13
 -1      2530 1.96086E+01 1.66322E+00-2.98848E-03-4.14740E-01-1.80796E-13-3.81995E-13
 -1      2531 1.95768E+01 1.71779E+00-6.59739E-03-2.66214E-01-1.14834E-13-1.24203E-13
 -1      2532 1.94356E+01 1.61443E+00 6.07114E-03-1.98647E-01-4.89670E-14-1.34264E-14
 -1      2533 1.97084E+01 1.48527E+00-4.89450E-04-6.84819E-01 8.72761E-15-2.41735E-13
 -1      2534 1.96514E+01 1.58408E+00-7.00745E-03-5.70399E-01-4.52210E-14-4.43405E-13
 -1      2535 1.95151E+01 1.51008E+00 5.04331E-03-5.61903E-01-3.50733E-14-3.40253E-13
 -1      2536 1.98480E+01 1.23298E+00 1.77985E-03-8.64266E-01 2.27327E-13 4.16186E-13
 -1      2537 1.97729E+01 1.36640E+00-6.31874E-03-7.95376E-01 1.52892E-13 3.49137E-14
 -1      2538 1.96594E+01 1.31940E+00 3.12540E-03-8.45232E-01 1.40045E-13 5.00946E-14
 -1      2539 2.00083E+01 9.41646E-01 3.33936E-03-9.26648E-01 5.17351E-14 4.83985E-13
 -1      2540 1.99250E+01 1.09280E+00-4.68673E-03-9.13971E-01 8.09018E-14 4.31627E-13
 -1      2541 1.98488E+01 1.06977E+00 8.39661E-04-1.01477E+00 2.35513E-13 2.21491E-13
 -1      2542 2.01718E+01 6.45421E-01 4.57459E-03-8.66308E-01 1.21231E-13 1.63600E-13
 -1      2543 2.00899E+01 7.98527E-01-2.12842E-03-9.11513E-01 8.56893E-14 5.16495E-13
 -1      2544 2.00577E+01 7.96116E-01-2.00124E-04-1.04960E+00 4.78804E-14 5.78924E-13
 -1      2545 1.82445E+01-5.46002E+00 5.92222E-03 6.76525E+00-2.49301E-13 4.07438E-13
 -1      2546 1.47288E+01-5.40307E+00 5.45132E-02 6.80673E+00-4.72289E-13 7.89320E-13
 -1      2547 2.02497E+01 4.27867E-01 2.04976E-03-6.36803E-01 1.27101E-13-2.71689E-13
 -1      2548 3.20275E+00-2.94685E+00 6.55704E-02-1.11399E+00 1.35170E-14 5.54057E-13
 -1      2549 4.13207E+00-3.38123E+00 5.51997E-02-3.26169E+00-1.44607E-13 4.61631E-13
 -1      2550 1.96990E+01 1.43310E-01 3.23028E-03 6.18717E-02 1.03467E-13 2.05075E-13
 -1      2551 1.97780E+01 1.98074E-01 1.24088E-02 1.47976E-01 1.33686E-13 2.28313E-13
 -1      2552 1.98452E+01 1.81104E-01-3.95680E-03 6.71700E-02 1.21126E-13 9.74993E-14
 -1      2553 4.58677E+00-2.84688E+00 9.92142E-02 3.14259E+00-1.27579E-13 2.54796E-13
 -1      2554 3.48459E+00-2.77328E+00 1.00337E-01 1.04259E+00-1.35308E-16 3.08420E-13
 -1      2555 6.07773E+00-3.96901E+00 5.03579E-02-4.76959E+00-1.96176E-13 4.94105E-13
 -1      2556 8.72112E+00-4.36996E+00 2.99082E-02-6.19981E+00-2.46747E-13 4.43867E-13
 -1      2557 2.05446E+01 1.95499E+00-1.37237E-02-1.89751E+00-2.39201E-13 2.30094E-14
 -1      2558 2.04061E+01 1.20889E+00-8.81866E-03-1.29124E+00-2.22270E-13 4.56883E-14
 -1      2559 2.03799E+01 1.38482E+00 9.19271E-03-1.24023E+00-2.05666E-13-7.12212E-15
 -1      2560 2.02932E+01 2.39736E+00 7.06392E-04-1.83781E+00-2.32077E-13-5.01005E-14
 -1      2561 2.53264E+01-4.42227E+00-6.80111E-02 4.58338E+00 1.29008E-13 3.93324E-13
 -1      2562 2.17517E+01-5.30840E+00-5.16288E-03 5.50031E+00-3.54716E-14 2.99039E-13
 -1      2563 3.27782E+01 6.48662E+00-1.39772E-01-8.73495E-01-9.26315E-13 8.44810E-13
 -1      2564 3.24203E+01 5.01237E+00-1.00947E-01-9.82098E-01-9.32643E-13 9.06525E-13
 -1      2565 8.14584E+00-3.47937E+00 1.28992E-01-5.32084E+00-1.74805E-13-3.21687E-13
 -1      2566 1.23059E+01-4.28212E+00 5.26010E-02-6.60274E+00-1.82965E-13-1.54515E-13
 -1      2567 1.95240E+01 3.58446E+00-1.01052E-02-2.45650E-01 3.29081E-14-2.40100E-13
 -1      2568 1.95398E+01 3.56373E+00-9.68021E-03-4.26622E-01-4.92436E-15-2.42051E-13
 -1      2569 1.97162E+01 3.16321E+00-5.60579E-04-4.74009E-01-1.61742E-14-2.19634E-13
 -1      2570 1.96824E+01 3.22316E+00-9.09060E-04-1.52230E-01 3.66601E-14-2.24263E-13
 -1      2571 2.94534E+01-1.45719E+00-4.34499E-02-5.80325E-01 4.85027E-13 3.42809E-13
 -1      2572 3.12132E+01 9.61082E-01-1.13103E-01 4.30281E-01 4.45130E-13 1.82243E-13
 -1      2573 3.26570E+01 6.99771E+00-9.72581E-02 6.83612E-01 3.01315E-13 2.53658E-13
 -1      2574 3.24967E+01 7.44798E+00-1.42575E-01 2.24350E-01 3.26295E-13 1.45658E-13
 -1      2575 3.17850E+01 3.84908E+00-8.24192E-02 1.12860E+00 5.33101E-13 2.76890E-13
 -1      2576 3.27785E+01 5.62161E+00-1.09571E-01 9.97159E-01 4.67737E-13 2.99816E-13
 -1      2577 3.05316E+01 5.89021E+00-7.56635E-02 1.30297E+00 4.35180E-13 1.80814E-13
 -1      2578 2.42029E+01-4.95354E+00 1.49846E-02-4.29168E+00 7.16649E-14 3.62765E-14
 -1      2579 2.72749E+01-3.74307E+00-8.07456E-02-2.71428E+00 3.43447E-13 4.75397E-13
 -1      2580 1.70651E+01-5.28555E+00 7.81548E-02-6.47626E+00-1.33449E-13 5.68989E-15
 -1      2581 2.08939E+01-5.43627E+00-1.51881E-02-5.95221E+00-8.97338E-14-2.96450E-13
 -1      2582 3.86396E+00-2.47667E+00 1.10936E-01-1.75699E+00-6.07570E-14-4.12836E-13
 -1      2583 5.01560E+00-2.85199E+00 4.96774E-02-3.79539E+00-1.21347E-13-3.11418E-13
 -1      2584 4.74168E+00-2.63036E+00 1.09639E-01 3.17196E+00 1.82576E-13-4.28546E-13
 -1      2585 3.80667E+00-2.18420E+00 1.22356E-01 5.81459E-01 1.07751E-13-4.10449E-13
 -1      2586 9.19514E+00-4.06493E+00 2.60731E-02 6.24220E+00 4.29323E-13-4.53165E-13
 -1      2587 6.56471E+00-3.50582E+00 8.38967E-02 4.81561E+00 3.67539E-13-4.71900E-13
 -1      2588 1.80474E+01-5.32363E+00-1.14819E-03 6.60735E+00 4.30045E-13-1.93720E-13
 -1      2589 1.35216E+01-4.89159E+00 1.02276E-01 6.55508E+00 5.27189E-13-4.87943E-13
 -1      2590 2.48476E+01-4.85469E+00-7.36183E-02 4.38843E+00 1.94400E-13 1.72723E-13
 -1      2591 2.19448E+01-5.37380E+00 3.78614E-02 5.22113E+00 3.00288E-13 4.20497E-14
 -1      2592 3.00870E+01-1.36954E+00-1.10713E-01 1.08278E+00-3.52081E-13 8.26311E-13
 -1      2593 2.74858E+01-3.34752E+00-1.57161E-02 2.44693E+00-8.44047E-14 4.88720E-13
 -1      2594 3.19817E+01 2.80816E+00-1.25697E-01-8.30281E-01-8.50986E-13 1.05224E-12
 -1      2595 3.09894E+01 1.06425E+00-7.32202E-02-4.88321E-01-6.05765E-13 9.29257E-13
 -1      2596 1.20037E+01-5.12462E+00 4.19419E-02-6.63638E+00-3.21493E-13 4.65183E-13
 -1      2597 1.59641E+01-5.34468E+00-3.80573E-03-6.85849E+00-3.48166E-13 5.38250E-13
 -1      2598 1.19150E+01-4.04772E+00 1.27032E-01-6.35819E+00-2.20268E-13 4.95104E-13
 -1      2599 3.20803E+01 4.28425E+00-8.68550E-02 1.09596E+00-4.87971E-13 7.47069E-13
 -1      2600 3.22144E+01 5.64769E+00-1.79256E-01 9.65642E-01-6.00964E-13 7.05824E-13
 -1      2601 3.04774E+01-4.06191E-01-3.99186E-02-6.35134E-01-4.46192E-13 8.63754E-13
 -1      2602 3.17100E+01 1.77456E+00-1.44473E-01 4.54116E-01-3.78891E-13 8.49654E-13
 -1      2603 2.68581E+01-3.74683E+00-2.17513E-02-3.22513E+00-2.70464E-13 8.84737E-13
 -1      2604 2.90485E+01-2.43342E+00-9.28305E-02-2.26902E+00-3.88148E-13 8.01914E-13
 -1      2605 2.04205E+01-5.54891E+00 4.29552E-02-5.93164E+00-3.51580E-13 7.43204E-13
 -1      2606 2.41357E+01-4.83327E+00-9.83120E-03-5.02506E+00-2.89269E-13 9.62452E-13
 -1      2607 2.58144E+01-4.80447E+00 2.30940E-02-3.42255E+00-2.11081E-13 8.05120E-13
 -1      2608 2.04858E+01 8.74810E-01-7.32950E-03 1.22839E+00 2.36941E-13 3.53180E-13
 -1      2609 2.08367E+01 1.25690E+00-6.04758E-03 1.72904E+00 2.52399E-13 3.98738E-13
 -1      2610 2.06431E+01 1.71561E+00-1.57758E-02 1.92332E+00 2.83788E-13 3.03944E-13
 -1      2611 2.04455E+01 1.05768E+00-9.41290E-03 1.24341E+00 2.39109E-13 2.40100E-13
 -1      2612 3.01842E+01-1.26131E+00-1.22084E-01 1.24109E+00 3.03639E-13 1.26316E-13
 -1      2613 2.80459E+01-2.91865E+00-2.66491E-02 2.46287E+00 2.07515E-13 3.44169E-13
 -1      2614 2.97109E+01-9.13593E-01-1.60405E-03-4.19494E-01 2.67578E-13 2.19602E-13
 -1      2615 3.02388E+01 1.89544E+00-8.75843E-02 1.55848E+00 4.66460E-13 2.64566E-13
 -1      2616 1.99154E+01 2.81015E+00 1.13054E-03-1.09891E+00-1.27370E-13-2.07143E-13
 -1      2617 1.97819E+01 3.15593E+00-1.61815E-02-1.28869E+00-1.39721E-13-2.22537E-13
 -1      2618 1.98840E+01 3.01249E+00-1.85416E-02-1.47874E+00-1.70959E-13-1.97917E-13
 -1      2619 1.99907E+01 3.39667E-01-3.79988E-03 3.06385E-01 1.69829E-13 1.49320E-13
 -1      2620 2.04197E+01 2.11566E+00-1.27806E-02 1.87642E+00 2.85098E-13 1.72931E-13
 -1      2621 3.04471E+01 3.57661E+00-6.91571E-02-1.82574E+00-7.75602E-13 7.96530E-13
 -1      2622 2.96803E+01-7.31835E-01-4.21493E-02-5.41948E-01-4.10505E-13 8.96117E-13
 -1      2623 2.70661E+01-4.10145E+00 3.33660E-02 2.64114E+00 1.29549E-13 2.50105E-13
 -1      2624 2.66805E+01-4.25222E+00 2.93421E-02 2.47896E+00 1.14755E-13 4.87388E-13
 -1      2625 1.32861E+01-4.87878E+00 6.72034E-02 6.73479E+00-4.71762E-13 8.61672E-13
 -1      2626 1.21228E+01-3.74037E+00 1.86175E-01 6.41503E+00-4.11365E-13 7.84178E-13
 -1      2627 1.61543E+01-4.86373E+00 2.77824E-02 6.48195E+00-6.03240E-13 6.66467E-13
 -1      2628 6.91161E+00-2.58471E+00 1.32472E-01-4.10641E+00 3.40006E-15 5.31214E-13
 -1      2629 2.07217E+01-5.33100E+00 6.63590E-02 5.45234E+00 4.91579E-13 8.23005E-14
 -1      2630 2.03145E+01 3.63563E-01 1.33918E-03 6.86636E-01-1.92842E-13 4.86625E-13
 -1      2631 2.02757E+01 4.72590E-01-1.44550E-04 7.71274E-01-1.05435E-13 4.59895E-13
 -1      2632 1.33224E+01-3.86693E+00 1.55306E-01 6.22580E+00 5.72375E-13-4.37775E-13
 -1      2633 2.12547E+01-5.56581E+00 4.96509E-02 5.65387E+00-3.20965E-13 2.77799E-13
 -1      2634 2.03807E+01 3.38001E-01 5.08470E-03-7.41634E-01-9.59896E-14-4.09399E-13
 -1      2635 2.02530E+01 5.15090E-01-1.55334E-03-8.30528E-01 6.73434E-14-2.15247E-13
 -1      2636 2.02802E+01 5.32874E-01 5.67919E-04-9.87542E-01-9.71579E-14 2.29824E-14
 -1      2637 2.05064E+01 3.07858E-01 3.73759E-03-8.50672E-01-6.79742E-14-3.39039E-13
 -1      2638 7.45244E+00-2.04713E+00 1.55057E-01 3.88923E+00 3.29944E-13-3.99236E-13
 -1      2639 5.06933E+00-1.73651E+00 1.47148E-01-1.30395E-01 1.62023E-14 4.60687E-13
 -1      2640 2.04342E+01 1.80820E+00 1.26337E-02 1.56415E+00 2.59853E-13 1.32307E-13
 -1      2641 6.56297E+00-2.88158E+00 1.37882E-01 4.22042E+00-8.39329E-14 5.27967E-13
 -1      2642 7.07656E+00-1.61607E+00 1.51347E-01 3.28410E+00 6.12843E-14 3.42809E-13
 -1      2643 8.84906E+00-2.79810E+00 9.63878E-02 5.15209E+00-1.67893E-13 7.54813E-13
 -1      2644 5.57647E+00-1.33149E+00 1.68838E-01-3.80380E-01-1.71911E-15-2.39836E-13
 -1      2645 2.95054E+01 5.25472E+00-9.82754E-02 1.51831E+00-4.38399E-13 1.28342E-13
 -1      2646 3.14339E+01 6.23188E+00-1.03691E-01 9.14066E-01-6.56891E-13 4.81185E-13
 -1      2647 2.97584E+01 6.56894E+00-2.05812E-01 7.36680E-01-6.67910E-13 1.44634E-13
 -1      2648 1.54615E+01-4.57751E+00 1.00933E-01-6.43328E+00-1.33671E-13 6.10414E-14
 -1      2649 1.82600E+01-4.65647E+00 2.93715E-02-5.76894E+00-1.98189E-13 3.51386E-14
 -1      2650 1.41643E+01-3.34634E+00 1.32048E-01-6.01586E+00-2.87700E-13-1.10953E-13
 -1      2651 1.89973E+01-5.45225E+00 6.90349E-02-6.26396E+00-1.69531E-13 7.29855E-13
 -1      2652 2.14222E+01-5.46738E+00-2.14014E-02-5.23264E+00-1.09524E-13 7.19199E-13
 -1      2653 1.76370E+01-4.84411E+00 1.25383E-01-6.33089E+00-1.44051E-14 4.64462E-13
 -1      2654 2.94181E+01-1.87183E+00 8.00978E-03-3.92439E-01-2.06456E-13 7.11542E-13
 -1      2655 3.16806E+01 6.78666E+00-9.85636E-02-6.64165E-01-8.19289E-13 5.41414E-13
 -1      2656 2.94222E+01 5.97271E+00-9.17461E-02-1.31092E+00-7.38298E-13 4.24299E-13
 -1      2657 2.95840E+01 6.80585E+00-2.22986E-01-3.16250E-01-7.49956E-13 1.81109E-13
 -1      2658 8.56788E+00-2.31198E+00 1.75811E-01-4.58067E+00-1.72362E-13-2.80220E-13
 -1      2659 2.01181E+01 2.61273E+00-9.99530E-03-1.67807E+00-2.10259E-13-1.18443E-13
 -1      2660 3.10270E+01 3.61927E+00-1.05688E-01-1.43059E+00 4.25798E-13 2.79304E-13
 -1      2661 2.94161E+01 1.92467E+00-7.63532E-02-1.79661E+00 3.80973E-13 3.22353E-13
 -1      2662 2.96977E+01 4.60818E+00-2.09334E-01-1.71375E+00 4.60298E-13 3.46140E-13
 -1      2663 3.13955E+01 6.92085E+00-1.22313E-01-3.22094E-01 4.79339E-13 1.95986E-13
 -1      2664 2.94468E+01 6.23837E+00-1.82473E-01-1.00490E+00 5.57637E-13 2.50050E-13
 -1      2665 2.91106E+01 6.74346E+00-9.98778E-02 9.06068E-02 4.56912E-13 9.84473E-14
 -1      2666 2.70776E+01-3.89616E+00 4.76782E-02-1.47706E+00 3.00159E-13 3.77490E-13
 -1      2667 2.84606E+01-3.01139E+00-4.36093E-02-1.04309E+00 4.31079E-13 4.11421E-13
 -1      2668 2.84210E+01-2.03098E+00-1.27871E-01 5.69853E-01 3.78128E-13 2.97748E-13
 -1      2669 2.33038E+01-5.28781E+00 4.72713E-02-4.47258E+00-1.01308E-14-2.99483E-14
 -1      2670 3.05216E+01 2.40426E+00-4.59302E-02 1.45505E+00-3.56382E-13 4.52166E-13
 -1      2671 2.03078E+01 4.92941E-01 1.69005E-03 9.36739E-01-1.98451E-13 4.30104E-13
 -1      2672 2.04538E+01 3.73455E-01-2.21521E-03-1.02151E+00-2.49201E-13-3.96424E-13
 -1      2673 1.98501E+01 2.76456E+00-6.27970E-03 5.17039E-01 1.42945E-13-1.55150E-13
 -1      2674 1.98253E+01 2.81459E+00-5.69385E-03 3.66058E-01 1.09369E-13-1.80695E-13
 -1      2675 1.98087E+01 2.85207E+00-5.61267E-03 2.30198E-01 9.23514E-14-2.14875E-13
 -1      2676 1.98002E+01 2.86898E+00-5.43904E-03 7.53667E-02 7.27492E-14-2.07904E-13
 -1      2677 1.99552E+01 2.50098E+00 3.64450E-03 2.65833E-01 9.21880E-14-1.79651E-13
 -1      2678 2.00459E+01 2.32324E+00-1.08235E-02 1.04726E+00 2.30049E-13-1.13456E-13
 -1      2679 1.99821E+01 2.47116E+00-6.85048E-03 9.12689E-01 2.12613E-13-1.10970E-13
 -1      2680 2.02175E+01 1.91288E+00-1.03778E-02 1.23014E+00 2.32738E-13-2.88792E-14
 -1      2681 2.01257E+01 2.14520E+00-5.03184E-03 1.13689E+00 2.25296E-13-7.65629E-14
 -1      2682 2.01977E+01 1.88815E+00 8.74523E-03 9.31896E-01 2.09533E-13-9.00341E-14
 -1      2683 2.02084E+01 7.26035E-01-4.24090E-03 6.44794E-01 1.99252E-13 1.01209E-13
 -1      2684 2.03533E+01 9.52094E-01 9.67699E-03 9.08912E-01 1.99526E-13 1.20854E-13
 -1      2685 2.86392E+01-6.98120E-01-1.53745E-01-1.25640E+00 1.86400E-13 3.68969E-13
 -1      2686 2.85212E+01-2.22276E+00-2.15594E-02-3.11515E-01 9.66588E-14 1.67047E-13
 -1      2687 2.00656E+01 4.15094E-01-2.27482E-03 2.88643E-01 1.58301E-13 8.95940E-14
 -1      2688 2.01701E+01 5.55621E-01 1.13415E-02 4.52975E-01 1.75508E-13 9.80765E-14
 -1      2689 2.02513E+01 8.21090E-01-2.91804E-04 6.20826E-01 1.97152E-13 3.72898E-14
 -1      2690 2.87961E+01 5.33817E-01-9.99828E-02 1.78215E+00 3.72175E-13 3.99458E-13
 -1      2691 2.90958E+01 2.84863E+00-1.72997E-01 2.09366E+00 4.45061E-13 4.45158E-13
 -1      2692 2.02143E+01 6.27069E-01 7.80301E-03-4.39321E-01-1.15001E-13-1.99757E-14
 -1      2693 2.01312E+01 4.76146E-01-3.14587E-03-2.80210E-01-1.08536E-13-1.50335E-14
 -1      2694 2.01052E+01 3.63183E-01 6.62177E-03-1.60333E-01-1.10002E-13-1.15449E-14
 -1      2695 2.00463E+01 2.68982E-01-1.69204E-03-6.22690E-02-9.14580E-14-1.31822E-14
 -1      2696 2.01958E+01 5.29421E-01-1.55228E-03-2.63732E-01-1.12401E-13-1.91081E-14
 -1      2697 2.00205E+01 1.99296E-01 4.53671E-03 1.35961E-02-5.65046E-14-2.40761E-14
 -1      2698 1.99851E+01 1.40481E-01-7.68731E-04 7.08840E-02-6.68675E-14-2.84084E-14
 -1      2699 2.01272E+01 3.00592E-01-2.07653E-03-5.62664E-02-8.78609E-14-4.51860E-14
 -1      2700 1.99645E+01 9.71655E-02 2.88783E-03 1.15253E-01-8.82325E-14-5.59279E-14
 -1      2701 1.99472E+01 6.09567E-02-2.05361E-04 1.45887E-01-1.05103E-13-6.86838E-14
 -1      2702 2.00714E+01 1.56225E-01-1.92589E-03 7.26858E-02-9.01803E-14-1.00985E-13
 -1      2703 1.99328E+01 3.46991E-02 1.71036E-03 1.68972E-01-1.07514E-13-6.94681E-14
 -1      2704 1.99282E+01 1.34754E-02 1.33745E-04 1.82766E-01-7.42592E-14-9.82874E-14
 -1      2705 2.00315E+01 6.64578E-02-1.56841E-03 1.46461E-01-1.14806E-13-1.20336E-13
 -1      2706 1.99192E+01-1.31653E-03 8.89916E-04 1.92324E-01-2.26362E-14-8.72360E-14
 -1      2707 1.99231E+01-1.22995E-02 3.44876E-04 1.96125E-01-1.96539E-14-9.28338E-14
 -1      2708 2.00058E+01 1.31621E-02-1.20353E-03 1.83525E-01-5.35593E-14-9.48446E-14
 -1      2709 1.99184E+01-1.91405E-02 3.30696E-04 1.97880E-01 1.89028E-15-9.88196E-14
 -1      2710 1.99278E+01-2.29302E-02 4.92104E-04 1.96534E-01-3.61313E-14-4.60680E-14
 -1      2711 1.99915E+01-1.51122E-02-9.00317E-04 1.97873E-01-2.07674E-14-6.73340E-14
 -1      2712 1.99264E+01-2.40938E-02-4.32704E-05 1.94697E-01-7.74704E-14-1.29323E-14
 -1      2713 1.99394E+01-2.26722E-02 6.14521E-04 1.91701E-01-8.51079E-14 1.48095E-14
 -1      2714 1.99858E+01-2.57659E-02-6.71076E-04 1.99874E-01-3.08470E-14-9.84369E-14
 -1      2715 1.99404E+01-1.96355E-02-2.90450E-04 1.89402E-01-7.21652E-14 3.59182E-14
 -1      2716 1.99561E+01-1.42756E-02 7.36508E-04 1.87348E-01-2.90398E-14-3.63635E-15
 -1      2717 1.99866E+01-2.36360E-02-5.09110E-04 1.97217E-01-5.74367E-14-5.29989E-14
 -1      2718 1.99590E+01-7.97590E-03-4.55311E-04 1.86971E-01-4.97352E-14-4.95849E-15
 -1      2719 1.99769E+01 5.39956E-04 8.74038E-04 1.87856E-01-7.20703E-14-1.36777E-14
 -1      2720 1.99923E+01-1.18522E-02-4.02129E-04 1.95684E-01-8.55163E-14-4.74631E-14
 -1      2721 1.99814E+01 9.54172E-03-5.71348E-04 1.91291E-01-3.86430E-14-3.39604E-14
 -1      2722 2.00016E+01 2.07727E-02 1.03783E-03 1.96738E-01-3.20162E-14 1.77501E-14
 -1      2723 2.00018E+01 7.63590E-03-3.37123E-04 1.99755E-01-7.36457E-14-8.84960E-15
 -1      2724 2.00074E+01 3.21701E-02-6.63237E-04 2.05562E-01-7.21118E-15 7.27845E-14
 -1      2725 2.00306E+01 4.58955E-02 1.23440E-03 2.16962E-01-1.51428E-14 1.10855E-13
 -1      2726 2.00146E+01 3.36945E-02-3.02270E-04 2.13049E-01 1.56874E-14-1.39498E-14
 -1      2727 2.00377E+01 5.95289E-02-7.48271E-04 2.32562E-01-7.85433E-14 1.27751E-13
 -1      2728 2.00646E+01 7.56316E-02 1.46615E-03 2.51166E-01-1.01998E-13 1.27206E-13
 -1      2729 2.00305E+01 6.57125E-02-2.86789E-04 2.38644E-01-5.44703E-14 3.08785E-14
 -1      2730 2.00730E+01 9.13738E-02-8.36984E-04 2.74805E-01-1.59100E-13 1.26567E-13
 -1      2731 2.01047E+01 1.09706E-01 1.73040E-03 3.01738E-01-9.85917E-14 8.65993E-14
 -1      2732 2.00493E+01 1.03319E-01-2.81359E-04 2.79264E-01-1.10049E-13 8.57336E-14
 -1      2733 2.01145E+01 1.27320E-01-9.32238E-04 3.34560E-01-6.34684E-14 3.56452E-14
 -1      2734 2.01522E+01 1.47526E-01 2.01780E-03 3.70776E-01-9.19340E-14-7.70526E-15
 -1      2735 2.00714E+01 1.46061E-01-2.79566E-04 3.37363E-01-1.24472E-13 9.84623E-14
 -1      2736 2.01636E+01 1.66464E-01-1.02663E-03 4.13736E-01-9.25700E-14 5.65234E-15
 -1      2737 2.02087E+01 1.87730E-01 2.31060E-03 4.59873E-01-7.52853E-14 3.90972E-14
 -1      2738 2.00971E+01 1.92981E-01-2.79696E-04 4.15058E-01-6.17724E-14-2.53649E-14
 -1      2739 2.02223E+01 2.06856E-01-1.09766E-03 5.13588E-01-9.85698E-14 9.62758E-14
 -1      2740 2.02761E+01 2.27548E-01 2.58063E-03 5.69695E-01-2.14680E-14-5.63577E-15
 -1      2741 2.01270E+01 2.42033E-01-2.89750E-04 5.13925E-01-6.50370E-14-2.85511E-14
 -1      2742 2.02928E+01 2.44715E-01-1.09920E-03 6.34184E-01 7.68403E-14-6.20376E-14
 -1      2743 2.03571E+01 2.61858E-01 2.78709E-03 6.99296E-01 1.07286E-13-9.52912E-14
 -1      2744 2.01622E+01 2.89241E-01-3.37418E-04 6.34606E-01-4.58223E-14-3.38839E-14
 -1      2745 2.03789E+01 2.73332E-01-9.48216E-04 7.73578E-01 1.57685E-13-1.29726E-13
 -1      2746 2.04558E+01 2.81893E-01 2.87381E-03 8.45069E-01 9.08050E-14-1.64002E-13
 -1      2747 2.02052E+01 3.27507E-01-4.86195E-04 7.76204E-01 8.52548E-14-2.21855E-13
 -1      2748 2.04865E+01 2.81576E-01-5.06353E-04 9.26567E-01 2.34086E-14-1.98038E-13
 -1      2749 2.05788E+01 2.73570E-01 2.76347E-03 9.99235E-01-2.36635E-14-2.10006E-13
 -1      2750 2.02607E+01 3.44987E-01-8.59966E-04 9.35390E-01 7.41078E-14-2.02344E-13
 -1      2751 2.06256E+01 2.52151E-01 4.41149E-04 1.08289E+00-1.02407E-13-2.38474E-13
 -1      2752 2.07377E+01 2.15785E-01 2.34232E-03 1.14774E+00-1.66422E-13-2.35794E-13
 -1      2753 2.03380E+01 3.23106E-01-1.67530E-03 1.10511E+00-9.83483E-14-2.28378E-13
 -1      2754 2.08135E+01 1.60174E-01 2.20345E-03 1.22466E+00-1.54887E-13-2.34608E-13
 -1      2755 2.09521E+01 7.96370E-02 1.41675E-03 1.26739E+00-1.14973E-13-2.80383E-13
 -1      2756 2.04541E+01 2.34666E-01-3.26903E-03 1.27269E+00-1.83852E-13-2.80220E-13
 -1      2757 2.10775E+01-2.63235E-02 5.16147E-03 1.32270E+00-3.27689E-14-1.98853E-13
 -1      2758 2.12522E+01-1.68876E-01-3.67123E-04 1.32211E+00 3.56679E-14-1.59621E-13
 -1      2759 2.06386E+01 4.34255E-02-6.08557E-03 1.41670E+00-8.99006E-14-1.93076E-13
 -1      2760 2.14581E+01-3.40201E-01 9.67022E-03 1.33144E+00 3.90472E-14-1.60753E-13
 -1      2761 2.16782E+01-5.57317E-01-3.67615E-03 1.25847E+00 3.01614E-14-7.93928E-14
 -1      2762 2.09384E+01-2.91519E-01-1.05183E-02 1.50175E+00 1.30544E-13-9.55695E-14
 -1      2763 2.20028E+01-7.96237E-01 1.54204E-02 1.18272E+00 9.73037E-14-9.59009E-15
 -1      2764 2.22706E+01-1.07537E+00-8.76136E-03 1.00220E+00 1.14536E-13 1.13746E-13
 -1      2765 2.14191E+01-7.99006E-01-1.64664E-02 1.46929E+00 1.31623E-13-4.36736E-14
 -1      2766 2.27426E+01-1.34656E+00 2.10685E-02 7.88197E-01 1.35072E-13 1.19044E-13
 -1      2767 2.30389E+01-1.62149E+00-1.53502E-02 4.71576E-01 1.25864E-13 1.83215E-13
 -1      2768 2.21511E+01-1.45039E+00-2.15454E-02 1.22867E+00 1.08165E-13 7.17516E-14
 -1      2769 2.36380E+01-1.81837E+00 1.93032E-02 5.99899E-02 1.19938E-13 2.33248E-13
 -1      2770 2.39036E+01-1.91879E+00-2.02614E-02-3.84956E-01 6.66381E-14 3.71568E-13
 -1      2771 2.31684E+01-2.08206E+00-1.97666E-02 6.58409E-01 1.71088E-13 1.68768E-13
 -1      2772 2.44994E+01-1.84039E+00-1.26811E-03-9.83061E-01-1.14119E-14 3.83008E-13
 -1      2773 2.46473E+01-1.50840E+00-1.60472E-02-1.45282E+00-8.82458E-14 4.66707E-13
 -1      2774 2.43619E+01-2.30523E+00-1.10067E-02-3.24293E-01 9.84057E-14 3.16740E-13
 -1      2775 2.49668E+01-9.16517E-01-4.64941E-02-2.01959E+00-3.14730E-13 5.02334E-13
 -1      2776 2.49373E+01-2.79397E-02-7.52856E-03-2.24318E+00-3.32085E-13 3.58447E-13
 -1      2777 2.53831E+01-1.52176E+00-3.64634E-04-1.56965E+00-1.89619E-13 4.54416E-13
 -1      2778 2.48470E+01 1.02824E+00-8.52907E-02-2.33890E+00-3.78548E-13 2.16491E-13
 -1      2779 2.46859E+01 2.13693E+00-1.07998E-02-2.02635E+00-4.60604E-13 1.14515E-13
 -1      2780 2.57833E+01 5.13870E-01-3.00473E-02-2.38207E+00-4.54272E-13 3.54442E-13
 -1      2781 2.43112E+01 3.38787E+00-5.66454E-02 6.47539E-01-2.29983E-13-2.17420E-13
 -1      2782 2.44491E+01 2.78638E+00-8.65257E-02 1.40222E+00-8.38010E-14-3.43325E-13
 -1      2783 2.47042E+01 1.84090E+00-5.54106E-03 2.01794E+00 3.88439E-14-5.07872E-13
 -1      2784 2.48450E+01 7.09620E-01-8.20451E-02 2.26067E+00 3.27897E-14-4.29315E-13
 -1      2785 2.55702E+01 2.77801E+00-4.99461E-02 1.88090E+00-8.21704E-14-3.67269E-13
 -1      2786 2.49009E+01-2.96878E-01-3.07162E-03 2.05125E+00 2.06606E-14-4.07171E-13
 -1      2787 2.48858E+01-1.12469E+00-3.89511E-02 1.78320E+00-4.89912E-14-2.62598E-13
 -1      2788 2.57148E+01 8.55809E-02-2.62175E-02 2.20024E+00 8.03524E-14-5.64573E-13
 -1      2789 2.45153E+01-1.64985E+00-1.63998E-02 1.17741E+00 3.95522E-15-8.60202E-14
 -1      2790 2.43347E+01-1.90718E+00 4.48947E-03 6.95216E-01 2.13923E-13-1.19947E-13
 -1      2791 2.52102E+01-1.75363E+00-2.06343E-02 1.30893E+00 1.18168E-13-3.10845E-13
 -1      2792 2.37282E+01-1.94414E+00-1.89911E-02 1.05839E-01 1.94085E-13-1.11843E-13
 -1      2793 2.34428E+01-1.80977E+00 2.08381E-02-3.36220E-01 1.55745E-13-1.23414E-13
 -1      2794 2.41723E+01-2.35712E+00-1.23588E-02 3.40657E-02 2.61663E-13-2.16676E-14
 -1      2795 2.28549E+01-1.59773E+00-1.44645E-02-7.30698E-01 1.36068E-13-1.36337E-13
 -1      2796 2.25473E+01-1.31743E+00 1.96721E-02-1.04008E+00 1.30665E-13-2.03889E-13
 -1      2797 2.29910E+01-2.06090E+00-2.20988E-02-9.19006E-01 2.86199E-14-3.16539E-14
 -1      2798 2.20934E+01-1.04588E+00-8.28839E-03-1.24593E+00 1.26547E-13-2.87197E-13
 -1      2799 2.18175E+01-7.68179E-01 1.43287E-02-1.41951E+00 1.30612E-13-2.38570E-13
 -1      2800 2.20101E+01-1.41026E+00-2.13374E-02-1.46589E+00 1.05779E-13 2.76573E-14
 -1      2801 2.15090E+01-5.32919E-01-3.23142E-03-1.49131E+00 1.37927E-13-2.61006E-13
 -1      2802 2.12813E+01-3.16350E-01 9.00710E-03-1.55912E+00 1.62966E-13-2.63507E-13
 -1      2803 2.13114E+01-7.65117E-01-1.55746E-02-1.69565E+00 1.18858E-13-2.24998E-13
 -1      2804 2.10843E+01-1.41975E-01-3.75079E-04-1.54794E+00 3.04187E-13-1.97902E-13
 -1      2805 2.09013E+01 1.04121E-02 5.23470E-03-1.54081E+00 4.14098E-13-1.10527E-13
 -1      2806 2.08541E+01-2.60365E-01-9.91884E-03-1.72481E+00 2.88066E-13-1.91729E-13
 -1      2807 2.07780E+01 1.31345E-01 1.04583E-03-1.47904E+00 3.21043E-13-2.94993E-13
 -1      2808 2.06299E+01 2.36250E-01 2.95019E-03-1.42090E+00 6.37712E-14-3.53180E-13
 -1      2809 2.05659E+01 9.73521E-02-5.33764E-03-1.63203E+00 2.96374E-13-3.72306E-13
 -1      2810 2.05485E+01 3.23314E-01 1.42483E-03-1.32738E+00-2.07964E-13-2.33952E-13
 -1      2811 2.04289E+01 4.00574E-01 2.00041E-03-1.23202E+00-3.51741E-13-2.62330E-13
 -1      2812 2.03813E+01 3.45301E-01-2.84721E-03-1.46433E+00-2.23677E-14-5.57354E-13
 -1      2813 1.98541E+01 5.22007E-02 1.32716E-04-1.44863E-01 9.35456E-14 1.85054E-14
 -1      2814 1.98675E+01 8.33222E-02 3.16558E-03-1.15630E-01 1.06060E-13 3.25168E-14
 -1      2815 9.52730E+00-1.94671E+00 8.33075E-02 4.78091E+00 3.19508E-13-3.39950E-13
 -1      2816 7.96293E+00-9.59762E-01 1.50848E-01 3.00774E+00 1.61815E-13-2.65010E-13
 -1      2817 1.98899E+01 1.20361E-01-2.04379E-04-7.03641E-02 1.18570E-13 1.97441E-14
 -1      2818 1.99256E+01 1.71537E-01 5.28418E-03-1.43465E-02 1.27439E-13 2.88443E-14
 -1      2819 1.99916E+01 1.37945E-01-2.35045E-03-7.27510E-02 1.18369E-13-1.67380E-14
 -1      2820 1.98472E+01-1.05709E-02 4.21234E-04-1.92662E-01 5.64246E-14 6.22959E-14
 -1      2821 1.98369E+01-1.03555E-03 8.70199E-04-1.89860E-01 5.34478E-14 4.21661E-14
 -1      2822 1.98628E+01-2.01771E-02 5.00583E-04-1.91593E-01 1.08481E-13 3.83278E-14
 -1      2823 1.98470E+01-1.66487E-02 2.76386E-04-1.93861E-01 1.02435E-13 6.23409E-14
 -1      2824 1.99260E+01-1.38431E-02-9.46679E-04-1.98893E-01 6.91297E-14 4.08288E-14
 -1      2825 1.98854E+01-2.08113E-02 5.83648E-04-1.85011E-01 8.27299E-14 3.32828E-14
 -1      2826 1.98663E+01-2.15838E-02-9.94104E-05-1.88994E-01 8.33629E-14 4.99645E-14
 -1      2827 1.99299E+01-2.39547E-02-6.76705E-04-1.99411E-01 1.02608E-13 7.19013E-14
 -1      2828 1.99128E+01-1.48124E-02 6.87770E-04-1.78480E-01 3.61860E-14 6.06730E-14
 -1      2829 1.98916E+01-1.87975E-02-3.27599E-04-1.81722E-01 7.91571E-14 5.57071E-14
 -1      2830 1.99407E+01-2.32189E-02-4.99893E-04-1.94782E-01 6.64349E-14 4.13133E-14
 -1      2831 1.99441E+01-3.63725E-03 8.24018E-04-1.76214E-01 4.34349E-14 3.88998E-14
 -1      2832 1.99210E+01-1.01688E-02-4.59129E-04-1.76840E-01 3.56181E-14 7.09881E-14
 -1      2833 1.99565E+01-1.43835E-02-3.97355E-04-1.90792E-01 6.43975E-14 3.30568E-14
 -1      2834 1.99793E+01 1.18646E-02 9.99825E-04-1.81561E-01 1.61826E-14-6.68354E-15
 -1      2835 1.99540E+01 3.16139E-03-5.31025E-04-1.78060E-01 2.59586E-14-5.31367E-15
 -1      2836 1.99763E+01 8.46869E-04-3.52009E-04-1.91875E-01 6.54435E-14 8.19590E-14
 -1      2837 2.00192E+01 3.12512E-02 1.21991E-03-1.97338E-01 1.44079E-14 2.99733E-14
 -1      2838 1.99909E+01 2.05593E-02-5.70084E-04-1.88415E-01 3.86079E-15-1.76848E-14
 -1      2839 1.99999E+01 2.14845E-02-3.49303E-04-2.01588E-01 3.06118E-14 2.42001E-14
 -1      2840 2.00653E+01 5.43086E-02 1.48578E-03-2.26050E-01-1.87961E-14 1.04246E-13
 -1      2841 2.00327E+01 4.17126E-02-5.95047E-04-2.10537E-01 2.14532E-15 7.02686E-14
 -1      2842 2.00275E+01 4.70078E-02-3.76897E-04-2.22938E-01-3.17023E-14 1.02200E-13
 -1      2843 2.01194E+01 8.08569E-02 1.79396E-03-2.69981E-01 2.95284E-14 1.56017E-13
 -1      2844 2.00812E+01 6.64476E-02-6.17911E-04-2.46812E-01-1.12856E-14 1.27793E-13
 -1      2845 2.00597E+01 7.71289E-02-4.24262E-04-2.58592E-01-2.00703E-14 1.74316E-13
 -1      2846 2.01839E+01 1.10505E-01 2.13348E-03-3.31164E-01 1.97352E-14 2.42485E-13
 -1      2847 2.01382E+01 9.45165E-02-6.44088E-04-2.99413E-01 7.03557E-14 1.82171E-13
 -1      2848 2.00977E+01 1.11534E-01-4.82840E-04-3.10953E-01 6.91484E-15 1.65331E-13
 -1      2849 2.02614E+01 1.42306E-01 2.48203E-03-4.11178E-01-1.00286E-14 2.21239E-13
 -1      2850 2.02063E+01 1.25310E-01-6.70695E-04-3.70195E-01-3.00758E-16 2.41088E-13
 -1      2851 2.01425E+01 1.49545E-01-5.47549E-04-3.82107E-01 8.28839E-15 1.92557E-13
 -1      2852 2.03545E+01 1.74244E-01 2.80108E-03-5.10740E-01-5.52764E-14 2.16864E-13
 -1      2853 2.02882E+01 1.57440E-01-6.82735E-04-4.60406E-01-1.80507E-14 2.50410E-13
 -1      2854 2.01957E+01 1.89646E-01-6.19955E-04-4.73601E-01-1.43574E-14 2.40974E-13
 -1      2855 2.04666E+01 2.02498E-01 3.02972E-03-6.28986E-01 3.94492E-15 1.23456E-13
 -1      2856 2.03871E+01 1.88130E-01-6.46233E-04-5.70139E-01 2.88785E-15 1.96555E-13
 -1      2857 2.02595E+01 2.28789E-01-7.15278E-04-5.86005E-01 1.14380E-14 2.05625E-13
 -1      2858 2.06015E+01 2.20385E-01 3.07708E-03-7.62360E-01 5.98026E-14 3.97655E-14
 -1      2859 2.05069E+01 2.12328E-01-4.97206E-04-6.97461E-01 2.10168E-14 9.11466E-14
 -1      2860 2.03364E+01 2.61396E-01-8.74913E-04-7.18204E-01 4.70531E-14 1.75242E-13
 -1      2861 2.07642E+01 2.16997E-01 2.81316E-03-9.02979E-01 6.16675E-14 9.33411E-14
 -1      2862 2.06528E+01 2.21497E-01-1.26541E-04-8.37057E-01 1.03967E-13 1.03520E-13
 -1      2863 2.04309E+01 2.77988E-01-1.18598E-03-8.66317E-01 4.55831E-14 1.67600E-13
 -1      2864 2.09624E+01 1.75762E-01 2.05771E-03-1.03637E+00-6.29266E-15 3.69963E-14
 -1      2865 2.08323E+01 2.02169E-01 6.35515E-04-9.78290E-01 1.63034E-14 8.84181E-14
 -1      2866 2.05505E+01 2.63481E-01-1.80647E-03-1.02214E+00 6.73785E-14 2.56205E-13
 -1      2867 2.12079E+01 7.37341E-02 5.67232E-04-1.13856E+00-1.32183E-13 3.45969E-16
 -1      2868 2.10568E+01 1.34705E-01 2.02396E-03-1.10251E+00-6.92648E-14 2.45742E-14
 -1      2869 2.07081E+01 1.95577E-01-2.98555E-03-1.17092E+00-3.73918E-14 2.38119E-13
 -1      2870 2.15179E+01-1.16386E-01-1.98246E-03-1.17291E+00-1.85626E-15 9.62436E-14
 -1      2871 2.13439E+01-6.41132E-03 4.31024E-03-1.17968E+00-5.28947E-14 1.43435E-14
 -1      2872 2.09251E+01 4.44578E-02-5.04523E-03-1.28830E+00-9.60726E-14 6.01326E-14
 -1      2873 2.19149E+01-4.17293E-01-5.93337E-03-1.08751E+00 5.88245E-15 2.58443E-13
 -1      2874 2.17174E+01-2.47893E-01 7.68140E-03-1.16462E+00 1.86921E-14 2.02369E-13
 -1      2875 2.12349E+01-2.23399E-01-8.24028E-03-1.33619E+00-8.65157E-14 2.99700E-13
 -1      2876 2.24181E+01-8.23168E-01-1.11003E-02-8.15995E-01-1.41176E-14 2.35689E-13
 -1      2877 2.22034E+01-6.02855E-01 1.19523E-02-9.94268E-01-1.90600E-14 2.54823E-13
 -1      2878 2.16825E+01-6.31422E-01-1.22398E-02-1.25736E+00-5.97775E-16 2.82853E-13
 -1      2879 2.30202E+01-1.25387E+00-1.60582E-02-2.92908E-01 2.80748E-14 2.21542E-13
 -1      2880 2.28101E+01-1.03636E+00 1.56039E-02-5.93301E-01-9.32858E-15 2.03357E-13
 -1      2881 2.23124E+01-1.15599E+00-1.47804E-02-9.71595E-01 5.46590E-15 3.81100E-13
 -1      2882 2.36497E+01-1.50711E+00-1.85434E-02 4.95205E-01 8.67969E-14 3.93217E-13
 -1      2883 2.34871E+01-1.41280E+00 1.37340E-02 9.16863E-02 4.26317E-14 2.98488E-13
 -1      2884 2.31282E+01-1.66137E+00-1.14562E-02-3.91883E-01-4.43799E-14 3.60593E-13
 -1      2885 2.41426E+01-1.25483E+00-1.34533E-02 1.43163E+00 5.62250E-14 4.18430E-13
 -1      2886 2.40891E+01-1.46899E+00-1.51606E-03 1.01992E+00 1.33705E-13 4.52871E-13
 -1      2887 2.40329E+01-1.86182E+00-3.39975E-03 5.14642E-01 7.26496E-14 4.77485E-13
 -1      2888 2.42753E+01-2.01770E-01 4.34390E-03 2.12628E+00-9.88281E-14 2.62989E-13
 -1      2889 2.43604E+01-8.35985E-01-2.87278E-02 1.92561E+00 4.02399E-14 3.50386E-13
 -1      2890 2.47579E+01-1.33272E+00 1.64716E-03 1.60167E+00 7.57450E-14 4.67225E-13
 -1      2891 2.39687E+01 1.40845E+00 9.79530E-04 1.99739E+00 3.11834E-14 7.35566E-14
 -1      2892 2.41484E+01 5.61220E-01-6.18380E-02 2.22959E+00-1.47757E-13 1.16170E-13
 -1      2893 2.49608E+01 2.18506E-01-8.08823E-03 2.33891E+00-1.71599E-14 1.54434E-13
 -1      2894 2.36162E+01 2.64351E+00-2.29102E-03 8.03129E-01 3.69847E-13 1.13274E-13
 -1      2895 2.37238E+01 2.12785E+00-5.47723E-02 1.45250E+00 2.25268E-13 1.47093E-13
 -1      2896 2.46649E+01 2.09908E+00-3.88060E-02 1.88651E+00 2.14551E-14-2.66176E-14
 -1      2897 2.36016E+01 2.43818E+00-5.14387E-02-9.23006E-01 3.85275E-13 1.08848E-13
 -1      2898 2.35038E+01 2.71424E+00-4.11782E-02-2.26518E-01 3.84533E-13 1.22133E-13
 -1      2899 2.43910E+01 3.45809E+00-2.21796E-02 3.56689E-01 2.68327E-13-8.08425E-14
 -1      2900 2.39884E+01 9.99023E-01-7.20616E-02-2.03124E+00 3.54765E-13-1.22710E-14
 -1      2901 2.38035E+01 1.82967E+00-1.10640E-02-1.68312E+00 4.36942E-13 3.88144E-16
 -1      2902 2.45621E+01 2.68758E+00 3.50794E-03-1.41949E+00 4.84928E-13-1.94840E-13
 -1      2903 2.42925E+01-5.41050E-01-3.87294E-02-1.98383E+00 1.57296E-13-4.72088E-14
 -1      2904 2.41923E+01 2.02230E-01 1.02056E-02-2.08919E+00 2.75214E-13 4.72482E-14
 -1      2905 2.49109E+01 7.45164E-01-4.65954E-03-2.24213E+00 2.93727E-13-2.83884E-13
 -1      2906 2.41263E+01-1.40979E+00-9.17544E-03-1.15625E+00-4.23635E-14 5.21866E-14
 -1      2907 2.41656E+01-1.07614E+00-6.75971E-03-1.54704E+00 5.85080E-14 1.39006E-13
 -1      2908 2.48441E+01-1.04242E+00 7.26720E-03-1.73595E+00 5.16401E-14 4.63189E-14
 -1      2909 2.35683E+01-1.51577E+00 9.63378E-03-1.76808E-01-4.19210E-13 6.51024E-14
 -1      2910 2.37258E+01-1.53843E+00-1.73500E-02-6.10024E-01-1.89703E-13 5.32239E-14
 -1      2911 2.42110E+01-1.84358E+00-6.90984E-04-6.65353E-01-7.20847E-14 2.43772E-13
 -1      2912 2.28629E+01-1.19393E+00 1.47091E-02 6.09680E-01-1.69106E-13 1.42273E-13
 -1      2913 2.30844E+01-1.39373E+00-1.83346E-02 2.65448E-01-3.89919E-13-2.34561E-14
 -1      2914 2.33089E+01-1.81865E+00-1.29395E-02 3.44347E-01-3.59834E-13 2.79518E-13
 -1      2915 2.22000E+01-7.53677E-01 1.25091E-02 1.10582E+00 6.20260E-14 1.79843E-13
 -1      2916 2.24372E+01-9.83314E-01-1.28460E-02 8.85189E-01 3.48744E-14 1.54744E-13
 -1      2917 2.24360E+01-1.35448E+00-1.58419E-02 1.03714E+00-7.76755E-14 1.12352E-13
 -1      2918 2.16519E+01-3.60491E-01 8.68410E-03 1.34891E+00 2.93866E-14 1.24901E-13
 -1      2919 2.18763E+01-5.52380E-01-7.23466E-03 1.23957E+00 9.46550E-14 1.55076E-13
 -1      2920 2.17377E+01-8.08546E-01-1.34610E-02 1.41570E+00 8.56962E-14 1.00411E-13
 -1      2921 2.12206E+01-6.48307E-02 5.50207E-03 1.40731E+00 1.78937E-13-3.51563E-14
 -1      2922 2.14220E+01-2.04235E-01-2.98943E-03 1.38272E+00 8.04347E-14-2.65326E-15
 -1      2923 2.12283E+01-3.46846E-01-9.51689E-03 1.55848E+00 1.96593E-13-1.34690E-14
 -1      2924 2.08832E+01 1.42935E-01 3.70333E-03 1.34007E+00 3.14498E-13-1.06144E-13
 -1      2925 2.10595E+01 4.60811E-02-2.91633E-04 1.37550E+00 3.11663E-13-4.18230E-14
 -1      2926 2.08685E+01-7.69129E-03-6.08561E-03 1.54306E+00 2.43694E-13-3.50848E-13
 -1      2927 2.06171E+01 2.91743E-01 3.78493E-03 1.18682E+00 5.57822E-14 2.23876E-13
 -1      2928 2.07666E+01 2.21735E-01 1.40469E-03 1.26450E+00 1.17264E-13 5.57754E-14
 -1      2929 2.06099E+01 2.30546E-01-3.68847E-03 1.42425E+00 7.19062E-14-2.44209E-13
 -1      2930 2.03906E+01 4.21364E-01 3.96009E-03 1.01526E+00-1.58918E-13 3.53450E-13
 -1      2931 2.05161E+01 3.62783E-01 2.78696E-03 1.12658E+00-5.23622E-14 2.91104E-13
 -1      2932 2.03969E+01 4.07992E-01-4.58046E-03 1.27394E+00-1.05603E-13 2.44094E-14
 -1      2933 2.02302E+01 5.73173E-01-4.48362E-03 1.11683E+00-2.47468E-13 1.69852E-13
 -1      2934 1.92118E+01 1.52066E+00-4.69734E-03 1.18526E-01 1.49770E-13 2.45764E-13
 -1      2935 1.92419E+01 1.49741E+00-1.72660E-03 3.22077E-01 1.02275E-13 1.65427E-13
 -1      2936 2.03913E+01 4.49468E-01 2.33532E-03-1.15434E+00-2.92293E-13-6.39407E-14
 -1      2937 2.03198E+01 4.91805E-01 1.83011E-03-1.07202E+00-2.15809E-13-7.66054E-14
 -1      2938 2.02046E+01 6.07255E-01 4.12153E-04-1.11733E+00-1.15359E-13 4.13345E-13
 -1      2939 2.02722E+01 5.01454E-01-2.13668E-03-1.28482E+00-2.05813E-13-9.51831E-14
 -1      2940 1.94812E+01 1.26453E+00-7.11278E-03 8.83672E-01 1.20554E-13 3.60326E-14
 -1      2941 1.96023E+01 1.16562E+00 3.47304E-03 1.00263E+00 2.69083E-13 1.65410E-13
 -1      2942 1.92416E+01 1.49736E+00-1.87165E-03-3.24149E-01-3.33850E-15-9.28129E-14
 -1      2943 1.92119E+01 1.52091E+00-4.61449E-03-1.20539E-01 4.01034E-14-1.51896E-14
 -1      2944 1.90350E+01 1.44846E+00 6.23575E-03-9.79400E-04 3.79674E-14-2.96719E-14
 -1      2945 1.92977E+01 1.43701E+00-6.59552E-03 5.42168E-01 6.10168E-14 1.77372E-13
 -1      2946 1.93813E+01 1.37095E+00 1.31265E-03 7.15114E-01 1.80827E-14 2.90134E-13
 -1      2947 1.93031E+01 1.23534E+00 3.51782E-03 8.83954E-01 7.16191E-14-4.48692E-14
 -1      2948 1.91059E+01 1.39164E+00 5.49786E-03 4.79187E-01 9.06252E-14 2.61249E-13
 -1      2949 1.99585E+01 2.32100E-01-8.06012E-04 6.45879E-02 1.35232E-13 4.04989E-14
 -1      2950 2.00269E+01 3.15622E-01 8.64273E-03 1.63268E-01 1.42365E-13 7.20563E-14
 -1      2951 2.01439E+01 4.73276E-01-3.96788E-03 2.81106E-01 1.61779E-13 3.11516E-14
 -1      2952 2.00545E+01 2.67652E-01-2.87758E-03 6.14640E-02 1.46535E-13-2.24430E-15
 -1      2953 1.93779E+01 1.37419E+00 1.21042E-03-7.11505E-01 7.82780E-14-2.35467E-13
 -1      2954 1.92962E+01 1.43871E+00-6.53274E-03-5.40950E-01-3.15123E-14-1.46342E-13
 -1      2955 1.91045E+01 1.39331E+00 5.57576E-03-4.77584E-01-1.64979E-15-7.75714E-14
 -1      2956 1.95987E+01 1.16988E+00 3.49802E-03-1.00132E+00 2.00658E-13 4.08303E-14
 -1      2957 1.94777E+01 1.26843E+00-7.10149E-03-8.81431E-01 1.38992E-13-6.08614E-14
 -1      2958 1.92987E+01 1.23960E+00 3.53015E-03-8.80555E-01 2.12475E-13-4.75362E-14
 -1      2959 1.98630E+01 9.19476E-01 3.33671E-03-1.15046E+00 1.12490E-13 1.30959E-13
 -1      2960 1.97280E+01 1.03912E+00-5.83313E-03-1.10000E+00 1.85962E-13 8.95159E-14
 -1      2961 1.95837E+01 1.01849E+00 8.73815E-04-1.15752E+00 1.65877E-13 1.99462E-14
 -1      2962 2.00843E+01 7.39556E-01-3.32430E-04-1.13692E+00 1.60915E-14 4.52235E-13
 -1      2963 7.43740E+00-1.38153E+00 1.51222E-01-3.09183E+00 1.17337E-13 5.92387E-13
 -1      2964 9.17693E+00-2.07881E+00 1.14949E-01-4.74975E+00-6.28109E-14 7.63389E-13
 -1      2965 2.03188E+01 1.70953E+00-9.82433E-03-1.33380E+00-1.96856E-13-6.31507E-14
 -1      2966 2.02859E+01 1.32801E+00-7.03668E-03-1.03671E+00-1.86616E-13-4.47107E-14
 -1      2967 2.87933E+01 3.90383E+00-2.11164E-01-1.98472E+00-7.00107E-13 5.88904E-13
 -1      2968 2.87225E+01 2.36618E+00-7.69323E-02-2.26505E+00-6.87145E-13 7.33968E-13
 -1      2969 1.11532E+01-2.88093E+00 1.47595E-01-5.63737E+00-4.87665E-14 4.30378E-13
 -1      2970 1.38781E+01-3.73003E+00 7.89432E-02-6.25210E+00-3.68872E-14 3.33303E-13
 -1      2971 1.15072E+01-1.87208E+00 1.57089E-01-4.76728E+00 2.51951E-14 5.25038E-13
 -1      2972 2.88805E+01-1.58986E-01-1.87416E-01-1.55740E+00-6.40793E-13 8.55704E-13
 -1      2973 2.85641E+01-1.98524E+00 1.08457E-02-4.79576E-01-3.63314E-13 7.00828E-13
 -1      2974 2.27889E+01-5.27323E+00-4.01923E-02 4.42982E+00 3.45834E-13 8.70970E-14
 -1      2975 1.96449E+01-4.71741E+00 1.02356E-01 5.38455E+00 5.09981E-13-5.24199E-14
 -1      2976 1.98424E+01 1.16514E-02 3.14663E-04-1.80621E-01 6.62071E-14 1.31280E-14
 -1      2977 1.98412E+01 2.98550E-02 1.78335E-03-1.68022E-01 7.53110E-14 1.84997E-14
 -1      2978 1.99522E+01 5.84639E-02-1.81136E-03-1.48318E-01 8.78373E-14 7.82097E-15
 -1      2979 1.99321E+01 1.14071E-02-1.32523E-03-1.85430E-01 4.27560E-14 3.56347E-14
 -1      2980 2.03173E+01 1.03587E+00 5.05225E-03-8.35581E-01-1.54417E-13-3.18466E-14
 -1      2981 2.02235E+01 7.98779E-01-5.20882E-03-5.95160E-01-1.32008E-13-2.96446E-14
 -1      2982 2.02613E+01 8.78286E-01 1.95975E-03-5.55762E-01-1.28275E-13-3.74933E-14
 -1      2983 2.02792E+01 1.38606E+00 1.92581E-03-9.21905E-01-1.56038E-13-6.82659E-14
 -1      2984 1.99258E+01 2.59490E+00-8.47899E-03 7.93912E-01 2.01757E-13-1.16887E-13
 -1      2985 1.98826E+01 2.68822E+00-6.35547E-03 6.46751E-01 1.59390E-13-1.41343E-13
 -1      2986 2.00037E+01 2.39074E+00 5.31713E-03 5.19380E-01 1.39625E-13-1.20635E-13
 -1      2987 2.00924E+01 2.19094E+00 8.62575E-03 7.51283E-01 1.87396E-13-9.02538E-14
 -1      2988 1.98791E+01 2.69665E+00-6.01670E-03-6.36341E-01-5.93408E-14-2.05398E-13
 -1      2989 1.99213E+01 2.60709E+00-7.59421E-03-7.85630E-01-9.27237E-14-1.90410E-13
 -1      2990 2.88895E+01 4.73612E+00-1.28166E-01 1.92216E+00 4.10727E-13 2.42056E-13
 -1      2991 2.86412E+01 5.75175E+00-2.29512E-01 1.10712E+00 3.47222E-13 2.33237E-13
 -1      2992 8.09134E+00-1.19509E+00 1.75269E-01-3.40113E+00-1.43552E-13-1.89709E-13
 -1      2993 1.06116E+01-2.02798E+00 8.44436E-02-4.94609E+00-1.75235E-13-1.77303E-13
 -1      2994 2.90889E+01 8.88765E-01-5.78666E-02 1.78732E+00-8.30447E-14 1.53294E-13
 -1      2995 2.89706E+01 2.85866E+00-1.90964E-01 1.99786E+00-2.26430E-13 7.43156E-14
 -1      2996 2.00854E+01 2.52643E+00-2.11015E-03-1.45949E+00-1.83896E-13-1.32420E-13
 -1      2997 6.58875E+00-8.11971E-01 1.48329E-01 7.59640E-01-2.33893E-14 2.71699E-13
 -1      2998 6.51386E+00-9.37083E-01 1.67551E-01-1.45406E+00 1.09163E-13 4.59188E-13
 -1      2999 8.77050E+00-5.81067E-01 1.68270E-01-2.16731E+00 1.33692E-13 5.73874E-13
 -1      3000 2.31171E+01-5.41451E+00-4.07520E-02 4.66076E+00-3.93088E-13 2.59966E-13
 -1      3001 2.02082E+01-5.25657E+00 7.44971E-02 5.61132E+00-6.08291E-13 2.76766E-13
 -1      3002 1.58283E+01-3.90883E+00 2.38575E-02 6.01782E+00 4.99545E-13-2.67009E-13
 -1      3003 1.23685E+01-2.83190E+00 1.57254E-01 5.65462E+00 4.74371E-13-4.82961E-13
 -1      3004 1.25937E+01-1.91387E+00 1.56893E-01 4.84618E+00 3.22548E-13-3.52843E-13
 -1      3005 2.74167E+01-3.79083E+00-1.28943E-01 1.31282E+00 1.41900E-14 1.17129E-13
 -1      3006 2.56073E+01-4.84447E+00 5.00649E-02 3.01057E+00-1.41977E-13 1.97092E-13
 -1      3007 2.44911E+01-4.95145E+00 4.00423E-02 3.26124E+00-4.71019E-13 2.18381E-13
 -1      3008 2.80004E+01-3.04693E+00-1.07719E-02-4.55469E-01 3.73312E-14 3.59227E-13
 -1      3009 2.86376E+01-1.53163E+00-1.82459E-01 7.32746E-01-8.84015E-15 3.07990E-13
 -1      3010 2.21100E+01-5.06638E+00 6.27427E-02-4.52005E+00-1.69420E-13-1.80246E-14
 -1      3011 2.47317E+01-5.02558E+00-5.56196E-02-3.28437E+00-6.66134E-14 1.82979E-13
 -1      3012 2.46689E+01-5.03499E+00 2.43319E-02-3.44743E+00 2.17465E-14 5.14422E-13
 -1      3013 2.67852E+01-4.31583E+00-8.40379E-02-1.98946E+00-6.38378E-15 4.76841E-13
 -1      3014 2.70150E+01-3.65367E+00 4.40760E-03-6.95403E-01 1.50151E-13 1.98869E-13
 -1      3015 2.03352E+01 1.49983E+00-2.13092E-03 1.26879E+00 2.32978E-13 9.66345E-14
 -1      3016 2.73012E+01-3.85951E+00-1.44851E-01 1.19536E+00-7.27855E-14 4.87610E-13
 -1      3017 2.54429E+01-4.71184E+00 6.18448E-02 2.69071E+00 1.36884E-13 3.38354E-13
 -1      3018 6.98135E+00-4.71136E-01 1.43089E-01 7.40161E-01 1.89338E-13-1.41054E-13
 -1      3019 6.85762E+00-6.97443E-01 1.30743E-01-1.63062E+00 3.15581E-14-1.29785E-13
 -1      3020 9.13941E+00-3.90873E-01 1.66003E-01-2.23484E+00-2.22600E-14-1.13215E-13
 -1      3021 1.99751E+01 2.48929E+00-5.44203E-03-9.03126E-01-1.02011E-13-1.85230E-13
 -1      3022 2.00353E+01 2.35968E+00-6.75868E-03-1.03763E+00-1.38720E-13-1.81272E-13
 -1      3023 2.00766E+01 2.20504E+00 6.02124E-03-7.40898E-01-8.46028E-14-1.57222E-13
 -1      3024 1.99388E+01 2.53856E+00 3.43087E-03 4.62381E-03 6.59039E-14-1.77765E-13
 -1      3025 1.97996E+01 2.86977E+00-5.49916E-03-6.19836E-02 5.34716E-14-2.07868E-13
 -1      3026 1.98070E+01 2.85513E+00-5.54785E-03-2.16906E-01 2.54257E-14-2.03857E-13
 -1      3027 2.78214E+01 3.12026E+00-1.03073E-01 2.18197E+00 3.48416E-13 5.17461E-13
 -1      3028 2.72892E+01-3.24273E+00-2.27828E-02 3.15121E-01-9.52866E-14 1.98286E-13
 -1      3029 8.85898E+00-8.73668E-01 1.25466E-01 2.94359E+00 8.83599E-14 4.23772E-13
 -1      3030 7.55700E+00-7.35073E-01 2.05585E-01 1.86385E+00 5.27703E-14 2.62596E-13
 -1      3031 8.50525E+00-1.75689E-01 1.12923E-01 7.00550E-01 6.72414E-14 3.29653E-13
 -1      3032 2.84111E+01-9.54889E-01-9.14707E-02 1.46980E+00 3.41158E-13 5.10245E-13
 -1      3033 2.75704E+01 3.10374E-01-8.17105E-02 2.23074E+00 3.15512E-13 7.51427E-13
 -1      3034 2.75220E+01-2.02258E+00-2.90545E-02 9.08637E-01 3.01259E-13 5.81250E-13
 -1      3035 1.95873E+01 1.01474E+00 9.79607E-04 1.15773E+00 2.82043E-13 3.07388E-13
 -1      3036 1.97296E+01 1.03537E+00-6.16691E-03 1.09948E+00 3.17554E-13 3.86139E-13
 -1      3037 1.98668E+01 9.16167E-01 3.54170E-03 1.15041E+00 4.63637E-14 4.81054E-13
 -1      3038 1.87568E+01-4.86111E+00 7.88189E-02 5.95224E+00-5.06747E-13 2.44943E-13
 -1      3039 1.71328E+01-4.01099E+00 1.09875E-01 5.90308E+00-5.15255E-13 4.49002E-13
 -1      3040 2.07528E+01-4.71506E+00 4.00821E-02 4.90802E+00-5.97508E-13 2.56888E-13
 -1      3041 2.44156E+01 2.99839E+00-8.73675E-02-1.28537E+00-5.04249E-13 1.50739E-14
 -1      3042 2.43527E+01 3.48192E+00-4.19073E-02-4.96506E-01-3.26850E-13-8.30265E-14
 -1      3043 2.53241E+01 4.22134E+00-6.42009E-02 4.41490E-02-3.70759E-13 2.54501E-14
 -1      3044 2.55627E+01 3.15428E+00-5.10407E-02-1.84247E+00-5.78496E-13 1.12629E-13
 -1      3045 1.00497E+01-3.34988E-01 4.25197E-02 2.72682E+00 9.04138E-14-2.46636E-13
 -1      3046 8.45940E+00-3.37443E-01 1.63235E-01 1.82098E+00 1.31711E-13-2.85008E-13
 -1      3047 9.34240E+00 2.30071E-01 1.14414E-01 6.96986E-01 1.40561E-13-2.26125E-13
 -1      3048 2.34485E+01-5.21071E+00 2.68831E-02-4.08480E+00 7.02771E-14 4.11050E-13
 -1      3049 2.46571E+01-4.73666E+00-7.53221E-03-2.61523E+00 3.35027E-13 1.05499E-13
 -1      3050 2.18460E+01-4.83022E+00 5.43050E-02-4.53510E+00 1.30396E-13 2.57730E-13
 -1      3051 2.74292E+01-2.94207E+00-2.11467E-02-6.08211E-02-2.99742E-13 4.21357E-13
 -1      3052 1.99827E+01 8.06613E-01-4.63294E-03 1.16647E+00-1.07339E-13 2.78960E-13
 -1      3053 2.01201E+01 6.80827E-01 3.46996E-03 1.14985E+00-1.88883E-13 1.23013E-13
 -1      3054 2.01866E+01 5.96030E-01 3.35873E-03 1.24471E+00-2.68625E-13 6.57642E-14
 -1      3055 1.98997E+01 7.93942E-01 1.86851E-03 1.26769E+00 1.01125E-13 5.84122E-13
 -1      3056 2.78163E+01 4.63974E+00-1.15449E-01-1.84002E+00-6.40821E-13 4.25590E-13
 -1      3057 2.05207E+01-4.68568E+00 6.44930E-02-5.00305E+00-2.04753E-13-6.42195E-15
 -1      3058 2.21665E+01-4.42375E+00 3.25321E-02-3.73250E+00-2.85185E-13 1.87919E-13
 -1      3059 1.87067E+01-3.70333E+00 8.56813E-02-5.11224E+00-2.29428E-13 5.74679E-14
 -1      3060 1.84614E+01-4.11669E+00 1.02359E-01 5.45027E+00 4.87124E-13-9.72555E-14
 -1      3061 1.72653E+01-3.20154E+00 7.01501E-02 5.18743E+00 3.55257E-13-1.10315E-13
 -1      3062 2.04232E+01-4.16921E+00-2.63791E-03 4.47524E+00 3.90531E-13-2.03549E-13
 -1      3063 2.01223E+01 6.14789E-01 1.02760E-03-1.27742E+00 3.54715E-14 3.52736E-13
 -1      3064 1.99664E+01 7.96643E-01-2.00588E-03-1.20843E+00 1.25735E-13 4.14426E-13
 -1      3065 1.98780E+01 7.77118E-01 7.54489E-04-1.30358E+00 7.24273E-14 3.62119E-13
 -1      3066 2.01651E+01 5.55730E-01 2.17425E-03-1.35699E+00-5.12441E-14 9.77132E-14
 -1      3067 2.42603E+01-4.72659E+00 2.73325E-02 2.96895E+00 1.39146E-13 1.13669E-13
 -1      3068 1.12798E+01-2.90649E+00 1.60202E-01 5.68424E+00-2.78888E-13 7.06074E-13
 -1      3069 1.08175E+01-1.86912E+00 1.32139E-01 4.84156E+00-1.60830E-13 6.31634E-13
 -1      3070 1.36658E+01-3.12252E+00 5.93840E-02 5.74438E+00-3.59865E-13 5.75429E-13
 -1      3071 1.30171E+01-2.35633E+00 1.66319E-01-5.38420E+00-2.80831E-13-2.30094E-13
 -1      3072 1.52553E+01-2.82092E+00 4.18863E-02-5.27101E+00-3.34212E-13-6.25749E-14
 -1      3073 1.21820E+01-1.39191E+00 9.71117E-02-4.45066E+00-1.70197E-13-1.27537E-13
 -1      3074 1.63433E+01-4.04749E+00 1.31352E-01-6.09789E+00 6.52534E-14 3.84845E-13
 -1      3075 1.85156E+01-4.29776E+00 2.41862E-02-5.49165E+00 1.96801E-13 3.95288E-13
 -1      3076 1.52170E+01-3.05574E+00 7.58839E-02-5.62463E+00 6.83620E-14 2.45012E-13
 -1      3077 2.79312E+01 8.14575E-01-6.45304E-02-2.09116E+00-6.19643E-13 5.08149E-13
 -1      3078 2.85497E+01 6.14521E+00-1.09866E-01 1.95736E-01-6.44318E-13-2.71293E-14
 -1      3079 2.01450E+01 2.17284E+00 5.29071E-04-1.20868E+00-1.58028E-13-1.46962E-13
 -1      3080 2.85383E+01 4.71208E+00-1.07257E-01-1.53555E+00 4.73899E-13 8.15459E-14
 -1      3081 2.80333E+01-6.11741E-01-5.15466E-02 1.59118E+00 7.88467E-14-1.78635E-13
 -1      3082 1.98223E+01 2.81961E+00-5.69440E-03-3.52322E-01-1.19344E-16-1.81778E-13
 -1      3083 1.98461E+01 2.77132E+00-6.17579E-03-5.06138E-01-3.45575E-14-2.02272E-13
 -1      3084 1.99991E+01 2.39604E+00 4.34501E-03-5.08676E-01-4.84077E-14-1.72060E-13
 -1      3085 1.99533E+01 2.50446E+00 3.64120E-03-2.56152E-01 8.36351E-15-1.67422E-13
 -1      3086 2.77552E+01 5.83821E+00-9.13805E-02 7.00796E-01 3.42781E-13 1.52281E-13
 -1      3087 2.58947E+01-4.29285E+00-2.55358E-03-1.67891E+00 8.43076E-14 2.62818E-13
 -1      3088 2.78868E+01 1.56985E+00-1.33099E-01-2.28258E+00 3.03313E-13-2.81303E-14
 -1      3089 2.85720E+01 3.46188E-01-1.12455E-01-1.86330E+00 2.39392E-13 2.90296E-13
 -1      3090 2.76393E+01-8.28833E-01-5.53640E-02-1.60839E+00 1.53835E-13 1.96669E-13
 -1      3091 2.02885E+01 1.58442E+00-2.29810E-03 1.16730E+00 2.31503E-13 2.89482E-14
 -1      3092 2.02725E+01 1.36367E+00-9.64401E-04 9.19067E-01 2.10772E-13-2.30328E-15
 -1      3093 2.03030E+01 1.06081E+00 4.16484E-03 7.22480E-01 1.97672E-13 1.86358E-15
 -1      3094 2.02589E+01 1.36554E+00-2.66134E-03 7.97516E-01 2.01625E-13-4.68324E-14
 -1      3095 2.02407E+01 8.33979E-01-3.97331E-03 5.14341E-01 1.82567E-13-5.00205E-15
 -1      3096 2.02157E+01 1.53842E+00-3.75512E-03 7.43220E-01 1.86971E-13-9.66332E-14
 -1      3097 2.55929E+01 4.40104E+00-1.16860E-01 4.41842E-01 2.63317E-13 5.00849E-14
 -1      3098 2.58659E+01 4.61249E+00-1.67276E-01-7.76294E-01 4.49030E-13-1.01065E-13
 -1      3099 2.02227E+01 4.24714E-01 4.05878E-03-1.21326E-01-1.02982E-13-5.25699E-14
 -1      3100 2.01838E+01 3.17957E-01-2.25113E-03-3.58404E-02-9.50669E-14-7.91326E-14
 -1      3101 2.01699E+01 2.35468E-01 3.18477E-03 2.66002E-02-1.05209E-13-7.98538E-14
 -1      3102 2.01402E+01 1.66129E-01-1.24136E-03 7.85891E-02-1.27574E-13-9.98908E-14
 -1      3103 2.02408E+01 3.36124E-01-8.08334E-04-2.60604E-02-1.19431E-13-7.39119E-14
 -1      3104 2.01237E+01 1.13587E-01 2.19509E-03 1.15765E-01-1.17910E-13-9.12808E-14
 -1      3105 2.01033E+01 7.02881E-02-5.31235E-04 1.44642E-01-1.09036E-13-9.82700E-14
 -1      3106 2.02008E+01 1.74488E-01-1.03365E-03 7.89662E-02-1.23866E-13-4.77404E-14
 -1      3107 2.00873E+01 3.84201E-02 1.40026E-03 1.64376E-01-6.74644E-14-9.24598E-14
 -1      3108 2.00748E+01 1.32757E-02-5.90465E-05 1.78207E-01-3.41392E-14-7.39521E-14
 -1      3109 2.01626E+01 7.24223E-02-9.91598E-04 1.40342E-01-8.74642E-14-6.15522E-14
 -1      3110 2.00605E+01-4.09612E-03 7.84211E-04 1.86758E-01-2.68053E-14-7.39562E-14
 -1      3111 2.00541E+01-1.63564E-02 2.55753E-04 1.91631E-01-4.76367E-14-9.64585E-14
 -1      3112 2.01292E+01 1.22744E-02-8.64446E-04 1.72140E-01-4.49322E-14-8.00031E-14
 -1      3113 2.00418E+01-2.33627E-02 3.22023E-04 1.93886E-01-5.24398E-14-8.04516E-14
 -1      3114 2.00401E+01-2.62992E-02 4.72485E-04 1.94337E-01-4.22970E-14-8.40261E-14
 -1      3115 2.01015E+01-1.79308E-02-7.16122E-04 1.85652E-01-3.98716E-14-7.69831E-14
 -1      3116 2.00297E+01-2.57123E-02-2.24852E-05 1.94040E-01-3.50402E-14-5.56427E-14
 -1      3117 2.00314E+01-2.17094E-02 6.32441E-04 1.93466E-01-5.33116E-14-6.99007E-14
 -1      3118 2.00791E+01-2.63757E-02-5.71973E-04 1.89677E-01-4.65484E-14-3.28239E-14
 -1      3119 2.00226E+01-1.53627E-02-2.84934E-04 1.93488E-01-4.93403E-14-5.63390E-14
 -1      3120 2.00270E+01-5.97232E-03 7.63963E-04 1.94484E-01-4.90520E-14-6.44296E-15
 -1      3121 2.00611E+01-1.85958E-02-4.40544E-04 1.90985E-01-3.26336E-14 4.02540E-15
 -1      3122 2.00193E+01 4.96719E-03-4.96421E-04 1.97070E-01-8.46755E-14 4.83058E-14
 -1      3123 2.00259E+01 1.87901E-02 8.86882E-04 2.01680E-01-5.08130E-14 4.59112E-14
 -1      3124 2.00466E+01 1.76988E-03-3.20630E-04 1.94816E-01-1.03012E-14 4.02326E-14
 -1      3125 2.00187E+01 3.36271E-02-6.82322E-04 2.08648E-01-4.36257E-14 4.26428E-14
 -1      3126 2.00272E+01 5.13393E-02 1.01432E-03 2.18561E-01-8.27635E-15 3.59591E-14
 -1      3127 2.00344E+01 3.24426E-02-2.07998E-04 2.05322E-01-5.31556E-14 7.13690E-14
 -1      3128 2.00200E+01 6.96842E-02-8.61643E-04 2.31457E-01-2.62690E-14-1.03292E-14
 -1      3129 2.00303E+01 9.09869E-02 1.15422E-03 2.48130E-01-7.44322E-14-5.75160E-15
 -1      3130 2.00232E+01 7.20828E-02-9.68885E-05 2.25930E-01-7.45003E-14-5.34028E-15
 -1      3131 2.00222E+01 1.12598E-01-1.04761E-03 2.68329E-01-8.24001E-14 2.54417E-14
 -1      3132 2.00343E+01 1.37267E-01 1.31044E-03 2.93054E-01-1.32469E-13 5.52136E-14
 -1      3133 2.00116E+01 1.19910E-01 1.98576E-05 2.59589E-01-5.59111E-14-2.98921E-14
 -1      3134 2.00247E+01 1.61874E-01-1.24719E-03 3.21810E-01-1.55162E-13 8.43118E-14
 -1      3135 2.00388E+01 1.89554E-01 1.48305E-03 3.55730E-01-1.13047E-13 3.92340E-14
 -1      3136 1.99984E+01 1.75312E-01 1.47250E-04 3.08924E-01-1.21388E-13 5.02200E-14
 -1      3137 2.00268E+01 2.16631E-01-1.45868E-03 3.94185E-01-1.03966E-13 4.28958E-14
 -1      3138 2.00430E+01 2.46564E-01 1.67001E-03 4.38225E-01-5.56223E-14-2.00747E-14
 -1      3139 1.99818E+01 2.37380E-01 2.86017E-04 3.76308E-01-1.33449E-13 5.48093E-14
 -1      3140 2.00281E+01 2.75020E-01-1.66907E-03 4.87362E-01-3.01700E-14-2.58457E-14
 -1      3141 2.00469E+01 3.05675E-01 1.87051E-03 5.42101E-01-7.17276E-14 2.35086E-14
 -1      3142 1.99605E+01 3.04312E-01 4.29845E-04 4.63830E-01-6.36489E-14-1.85808E-14
 -1      3143 2.00287E+01 3.33431E-01-1.84882E-03 6.02658E-01-1.06307E-13 4.88011E-14
 -1      3144 2.00507E+01 3.61987E-01 2.09006E-03 6.68108E-01-3.87639E-14-1.47477E-15
 -1      3145 1.99334E+01 3.72598E-01 5.55736E-04 5.73181E-01-5.04991E-14 7.01424E-14
 -1      3146 2.00296E+01 3.85367E-01-1.94217E-03 7.40459E-01-2.63646E-14-7.52670E-14
 -1      3147 2.00566E+01 4.06994E-01 2.34806E-03 8.15750E-01 2.96120E-14-1.35895E-13
 -1      3148 1.99000E+01 4.35912E-01 6.10583E-04 7.05513E-01-7.37863E-14 1.22617E-13
 -1      3149 2.00345E+01 4.19911E-01-1.85211E-03 8.99750E-01 8.25049E-14-1.42846E-13
 -1      3150 2.00698E+01 4.26810E-01 2.68584E-03 9.82695E-01-7.78349E-16-1.56780E-13
 -1      3151 1.98623E+01 4.83580E-01 4.89460E-04 8.61262E-01 3.05013E-14 1.35849E-14
 -1      3152 2.00517E+01 4.19729E-01-1.41585E-03 1.07747E+00-8.89967E-14-1.66909E-13
 -1      3153 2.01015E+01 3.99992E-01 3.16562E-03 1.16395E+00-1.31161E-13-1.45159E-13
 -1      3154 1.98257E+01 4.98546E-01 3.07347E-07 1.03998E+00-1.62128E-14-8.01990E-14
 -1      3155 2.00973E+01 3.58830E-01-3.65039E-04 1.26747E+00-1.32033E-13-1.01034E-13
 -1      3156 2.01732E+01 2.95359E-01 3.84349E-03 1.35051E+00-1.74024E-13-4.59161E-14
 -1      3157 1.98031E+01 4.54921E-01-1.18753E-03 1.24005E+00-1.21744E-13-1.01508E-13
 -1      3158 2.02013E+01 2.00847E-01 1.75629E-03 1.45860E+00-1.51614E-13-4.93503E-14
 -1      3159 2.03218E+01 7.10731E-02 4.66318E-03 1.52676E+00-3.53637E-15-1.63400E-14
 -1      3160 1.98194E+01 3.15501E-01-3.59929E-03 1.45784E+00-1.22395E-13 4.83788E-14
 -1      3161 2.04142E+01-1.00208E-01 5.68821E-03 1.63050E+00 5.86543E-14-6.66060E-14
 -1      3162 2.06072E+01-3.21889E-01 5.26839E-03 1.66478E+00 1.10669E-13-4.66187E-14
 -1      3163 1.99198E+01 3.06445E-02-7.98582E-03 1.68496E+00-2.19965E-14-1.78392E-14
 -1      3164 2.08156E+01-5.91663E-01 1.27442E-02 1.74408E+00 1.70723E-13-8.51362E-14
 -1      3165 2.11125E+01-9.26319E-01 3.37433E-03 1.71330E+00 1.10597E-13-6.85528E-14
 -1      3166 2.01795E+01-4.58367E-01-1.52764E-02 1.90032E+00 1.03956E-13-9.49861E-14
 -1      3167 2.15135E+01-1.29183E+00 2.46386E-02 1.71607E+00 1.28851E-13 3.76678E-14
 -1      3168 2.19370E+01-1.71409E+00 8.32434E-04 1.57176E+00 1.51255E-13 1.13704E-13
 -1      3169 2.07160E+01-1.20658E+00-2.78744E-02 2.04643E+00 1.59069E-13-7.99183E-14
 -1      3170 2.26079E+01-2.14597E+00 3.48417E-02 1.42001E+00 1.51552E-13 1.82327E-13
 -1      3171 2.31418E+01-2.54610E+00-1.15625E-02 1.07758E+00 2.13663E-13 2.56274E-13
 -1      3172 2.16949E+01-2.14084E+00-3.06893E-02 1.98874E+00 2.22512E-13 1.67597E-13
 -1      3173 2.40857E+01-2.81953E+00 3.31503E-02 6.39466E-01 1.37839E-13 3.05997E-13
 -1      3174 2.46440E+01-2.89474E+00-2.58961E-02 8.64006E-02 1.16771E-13 3.58173E-13
 -1      3175 2.32312E+01-3.05243E+00-1.45069E-02 1.52027E+00 2.25958E-13 2.70773E-13
 -1      3176 2.67320E+01 1.50917E+00-6.08875E-02 2.36256E+00-4.94466E-14-4.98192E-13
 -1      3177 2.65653E+01-7.62981E-02-1.21969E-01 2.09525E+00 4.64698E-14-5.45272E-13
 -1      3178 2.59604E+01-2.13520E+00-2.07107E-02 1.04333E+00 2.31034E-13-5.35781E-13
 -1      3179 2.54895E+01-2.76812E+00 9.62094E-03 3.71811E-01 2.54928E-13-3.46286E-13
 -1      3180 2.44653E+01-2.93845E+00-1.16147E-02-3.76476E-01 3.02883E-13-2.25299E-13
 -1      3181 2.39004E+01-2.80223E+00 4.39776E-02-9.07696E-01 2.77402E-13-2.12135E-13
 -1      3182 2.49424E+01-3.39239E+00-1.97480E-02-6.51225E-01 3.33108E-13-4.34473E-13
 -1      3183 2.29841E+01-2.49218E+00-4.74729E-03-1.33740E+00 1.80720E-13-1.34618E-13
 -1      3184 2.24517E+01-2.07975E+00 3.50179E-02-1.64447E+00 9.37507E-14-1.02143E-13
 -1      3185 2.30457E+01-3.07336E+00-4.83909E-02-1.74557E+00 3.05444E-13-1.48204E-13
 -1      3186 2.18348E+01-1.67126E+00 2.50633E-04-1.78613E+00 3.72085E-14 6.29057E-14
 -1      3187 2.14234E+01-1.25126E+00 2.14826E-02-1.92650E+00 1.32970E-13 5.29030E-14
 -1      3188 2.15796E+01-2.11121E+00-4.27513E-02-2.18967E+00 1.93115E-13-6.46414E-14
 -1      3189 2.10644E+01-8.89662E-01 4.61466E-03-1.91792E+00-2.40476E-14 5.90021E-14
 -1      3190 2.07811E+01-5.65495E-01 1.14744E-02-1.94843E+00 4.78249E-14 1.26800E-13
 -1      3191 2.07113E+01-1.15727E+00-2.49582E-02-2.22882E+00 2.22077E-14 2.11180E-13
 -1      3192 2.05987E+01-2.97321E-01 4.94777E-03-1.87501E+00 1.37453E-13-7.52571E-14
 -1      3193 2.04156E+01-7.00336E-02 5.46444E-03-1.83976E+00 2.45981E-13-2.02767E-13
 -1      3194 2.02356E+01-4.31877E-01-1.43747E-02-2.09079E+00-4.82161E-15 2.02555E-13
 -1      3195 2.03393E+01 1.13663E-01 3.91437E-03-1.73838E+00 3.90778E-13-2.98189E-13
 -1      3196 2.02261E+01 2.66032E-01 2.22789E-03-1.66306E+00 2.90304E-13-2.48136E-13
 -1      3197 2.00182E+01 7.25887E-02-6.50927E-03-1.88392E+00 2.18441E-13-4.57849E-14
 -1      3198 2.02279E+01 3.69717E-01 2.71804E-03-1.56238E+00 1.69114E-13-2.33150E-13
 -1      3199 2.01551E+01 4.78415E-01 1.38938E-03-1.46078E+00-5.37368E-14-4.95395E-14
 -1      3200 1.99887E+01 5.80902E-01-1.96591E-03-1.45634E+00 1.44195E-13 4.07013E-13
 -1      3201 1.99692E+01 3.83939E-01-3.01151E-03-1.66582E+00 3.76648E-13 1.99509E-13
 -1      3202 1.89129E+01 1.29892E+00 1.97544E-03-6.43652E-01-4.46269E-14-4.03719E-14
 -1      3203 1.88209E+01 1.34274E+00-5.97441E-03-4.13556E-01 5.94829E-15-5.55278E-14
 -1      3204 1.99934E+01-2.52232E-02 4.90736E-04-1.97152E-01 7.69425E-14 3.71943E-14
 -1      3205 1.99903E+01-2.18378E-02 3.38317E-04-1.97550E-01 8.76642E-14 2.33624E-14
 -1      3206 1.99992E+01-1.48520E-02 3.01524E-04-1.95558E-01 7.88042E-14 3.79697E-14
 -1      3207 2.00012E+01-3.12344E-03 8.43314E-04-1.91209E-01 5.15967E-14 5.03103E-14
 -1      3208 2.00556E+01-1.70509E-02-7.90486E-04-1.92934E-01 8.65161E-14 1.58716E-14
 -1      3209 1.99989E+01-1.05084E-02 7.67654E-04-1.93120E-01 2.28614E-14 4.49381E-14
 -1      3210 1.99894E+01-1.79830E-02-2.79127E-04-1.93477E-01 4.35854E-14 5.15360E-15
 -1      3211 2.00078E+01 9.54239E-03 8.99484E-04-1.97473E-01 3.70826E-14 7.57141E-14
 -1      3212 1.99960E+01-1.77345E-03-4.72452E-04-1.94462E-01 2.05652E-14 6.70246E-14
 -1      3213 2.00257E+01-5.17884E-03-3.65010E-04-1.97157E-01-4.46791E-15-1.27658E-15
 -1      3214 2.00201E+01 3.62762E-02 1.04455E-03-2.11067E-01-2.32460E-15 1.31460E-13
 -1      3215 2.00060E+01 2.16163E-02-6.30394E-04-2.03014E-01 4.13943E-14 1.22081E-13
 -1      3216 2.00234E+01 2.02708E-02-2.77844E-04-2.05063E-01 1.45313E-14 6.95686E-14
 -1      3217 2.00355E+01 6.90781E-02 1.21058E-03-2.36919E-01-3.40481E-14 1.36324E-13
 -1      3218 2.00189E+01 5.13380E-02-7.74410E-04-2.22380E-01-4.06695E-14 1.51350E-13
 -1      3219 2.00234E+01 5.35869E-02-2.04686E-04-2.22841E-01-4.27700E-14 1.89260E-13
 -1      3220 2.00539E+01 1.07563E-01 1.40028E-03-2.77706E-01-1.92946E-15 1.70128E-13
 -1      3221 2.00346E+01 8.69217E-02-9.19096E-04-2.55398E-01-2.25818E-14 1.75983E-13
 -1      3222 2.00248E+01 9.40612E-02-1.37242E-04-2.53523E-01-3.85014E-14 1.52529E-13
 -1      3223 2.00757E+01 1.51256E-01 1.61205E-03-3.35829E-01 2.17789E-17 1.56286E-13
 -1      3224 2.00529E+01 1.27980E-01-1.07235E-03-3.04615E-01 1.29404E-14 1.84692E-13
 -1      3225 2.00267E+01 1.41179E-01-6.85318E-05-2.99802E-01-2.10210E-14 1.92914E-13
 -1      3226 2.01009E+01 1.99176E-01 1.83958E-03-4.13348E-01-5.96463E-14 2.47589E-13
 -1      3227 2.00741E+01 1.73847E-01-1.23396E-03-3.72305E-01-1.00602E-15 1.92631E-13
 -1      3228 2.00286E+01 1.94220E-01 4.83565E-06-3.64084E-01-1.67349E-14 1.93047E-13
 -1      3229 2.01303E+01 2.49254E-01 2.07267E-03-5.11776E-01-2.70338E-14 2.61291E-13
 -1      3230 2.00986E+01 2.23093E-01-1.39200E-03-4.60339E-01-2.26166E-14 2.94739E-13
 -1      3231 2.00298E+01 2.51733E-01 7.88092E-05-4.48443E-01-4.53793E-14 2.93499E-13
 -1      3232 2.01649E+01 2.97509E-01 2.29943E-03-6.31685E-01 2.79816E-14 2.15789E-13
 -1      3233 2.01273E+01 2.72829E-01-1.51710E-03-5.69910E-01 4.29724E-15 2.95589E-13
 -1      3234 2.00300E+01 3.10817E-01 1.35505E-04-5.54442E-01-4.06401E-15 3.05000E-13
 -1      3235 2.02072E+01 3.36883E-01 2.50960E-03-7.72104E-01-4.79109E-15 2.39752E-13
 -1      3236 2.01621E+01 3.17730E-01-1.55279E-03-7.01068E-01 4.12921E-14 2.74561E-13
 -1      3237 2.00296E+01 3.66103E-01 1.31222E-04-6.82848E-01 1.04864E-14 3.79721E-13
 -1      3238 2.02619E+01 3.55667E-01 2.69676E-03-9.29654E-01 4.44884E-14 3.57118E-13
 -1      3239 2.02066E+01 3.48676E-01-1.40044E-03-8.52021E-01-8.93151E-15 2.72964E-13
 -1      3240 2.00310E+01 4.08350E-01-2.42043E-05-8.33206E-01-1.07032E-14 4.23034E-13
 -1      3241 2.03385E+01 3.35543E-01 2.85269E-03-1.09732E+00-1.32449E-14 3.90933E-13
 -1      3242 2.02682E+01 3.50970E-01-8.97809E-04-1.01813E+00 7.14545E-14 4.03742E-13
 -1      3243 2.00396E+01 4.22576E-01-4.98515E-04-1.00328E+00 1.64125E-14 3.34290E-13
 -1      3244 2.04541E+01 2.49702E-01 2.93767E-03-1.26262E+00-9.18720E-15 2.27756E-13
 -1      3245 2.03608E+01 3.02347E-01 2.06762E-04-1.19043E+00 1.62102E-15 3.26717E-13
 -1      3246 2.00672E+01 3.85810E-01-1.58055E-03-1.18818E+00 3.86103E-14 3.19168E-13
 -1      3247 2.06384E+01 6.22832E-02 2.81081E-03-1.40485E+00-1.04767E-13 1.98339E-13
 -1      3248 2.05089E+01 1.71532E-01 2.28052E-03-1.35323E+00-3.48688E-14 2.04745E-13
 -1      3249 2.01362E+01 2.65035E-01-3.72372E-03-1.37888E+00 2.59115E-14 2.86410E-13
 -1      3250 2.09372E+01-2.67951E-01 2.06811E-03-1.49060E+00-1.21042E-13 2.01393E-13
 -1      3251 2.07529E+01-8.06213E-02 5.85024E-03-1.48024E+00-1.39583E-13 2.04303E-13
 -1      3252 2.02858E+01 1.69092E-02-7.53861E-03-1.55911E+00-1.15151E-13 2.36214E-13
 -1      3253 2.14136E+01-7.74026E-01-3.26482E-04-1.46605E+00-8.42425E-17 2.33735E-13
 -1      3254 2.11534E+01-4.93436E-01 1.16445E-02-1.52768E+00-3.09574E-14 2.12885E-13
 -1      3255 2.05785E+01-4.07512E-01-1.36433E-02-1.69903E+00-7.39074E-14 1.92276E-13
 -1      3256 2.21342E+01-1.43819E+00-5.12850E-03-1.24229E+00-5.94529E-14 3.09512E-13
 -1      3257 2.17888E+01-1.08334E+00 2.03824E-02-1.41945E+00-3.61061E-14 3.13516E-13
 -1      3258 2.11079E+01-1.04751E+00-2.22852E-02-1.73971E+00-1.02194E-13 2.13264E-13
 -1      3259 2.31290E+01-2.09794E+00-9.76148E-03-6.95642E-01-8.07809E-14 5.19992E-13
 -1      3260 2.27171E+01-1.78090E+00 2.89459E-02-1.03680E+00-4.74195E-14 5.19542E-13
 -1      3261 2.19858E+01-1.86035E+00-2.78039E-02-1.56826E+00-1.75918E-13 5.44989E-13
 -1      3262 2.43151E+01-2.40956E+00-1.83613E-02 2.39315E-01 5.19246E-15 6.24501E-13
 -1      3263 2.38905E+01-2.33663E+00 2.24079E-02-2.75310E-01-2.18366E-14 6.57083E-13
 -1      3264 2.32796E+01-2.55503E+00-5.13818E-03-9.96825E-01-5.43469E-14 6.07955E-13
 -1      3265 2.53484E+01-1.70348E+00-2.22304E-02 1.44666E+00 6.24414E-14 6.83411E-13
 -1      3266 2.50690E+01-2.21755E+00-8.57144E-03 9.25405E-01 8.16795E-14 6.89407E-13
 -1      3267 2.48327E+01-2.79847E+00-1.15252E-02 1.02456E-01-2.56318E-14 7.94693E-13
 -1      3268 2.60555E+01 2.99150E-01-4.27902E-02 2.24144E+00 1.15859E-13 5.02617E-13
 -1      3269 2.60434E+01-9.37857E-01-4.91668E-02 2.03644E+00 1.10335E-13 6.56593E-13
 -1      3270 2.56925E+01 3.91019E+00-1.18044E-01 1.51193E+00 1.55653E-13 1.63796E-13
 -1      3271 2.59683E+01 3.83299E+00-1.41964E-01-1.56050E+00 5.65104E-13-1.11244E-13
 -1      3272 2.60691E+01-1.91243E-01-7.15774E-02-2.16057E+00 1.00975E-13-1.28966E-13
 -1      3273 2.60060E+01 1.19427E+00-3.21723E-02-2.18901E+00 3.67942E-13-1.01725E-13
 -1      3274 2.42155E+01-2.46452E+00 1.59153E-02 1.24734E-01-1.91847E-13 2.44028E-13
 -1      3275 2.46138E+01-2.38152E+00-1.29505E-02-4.18813E-01-1.18060E-13 1.50477E-13
 -1      3276 2.29887E+01-2.01709E+00 2.96971E-02 1.04688E+00-2.56623E-13 9.45212E-14
 -1      3277 2.34177E+01-2.30498E+00-1.47760E-02 6.54322E-01-2.37100E-13 2.87205E-13
 -1      3278 2.36795E+01-2.82401E+00-3.03758E-02 9.25402E-01-2.76982E-13 2.63589E-13
 -1      3279 2.19758E+01-1.32575E+00 2.23965E-02 1.54651E+00 5.54331E-15 8.02869E-14
 -1      3280 2.23528E+01-1.68977E+00-6.95746E-03 1.32007E+00-1.37639E-13 1.10551E-13
 -1      3281 2.23080E+01-2.15627E+00-2.98476E-02 1.64438E+00-1.62343E-13 1.23611E-13
 -1      3282 2.12619E+01-6.86760E-01 1.38169E-02 1.73564E+00 5.30658E-14 9.40813E-14
 -1      3283 2.15532E+01-9.96990E-01-8.69727E-04 1.63770E+00 1.50949E-14 7.36888E-14
 -1      3284 2.13294E+01-1.31940E+00-2.38922E-02 1.92422E+00-5.66206E-14-3.55770E-14
 -1      3285 2.08016E+01-2.00899E-01 7.51171E-03 1.73616E+00 1.99956E-13 1.56650E-14
 -1      3286 2.10118E+01-4.27454E-01 1.79277E-03 1.72512E+00 2.37423E-13 9.72505E-14
 -1      3287 2.07237E+01-6.11550E-01-1.58265E-02 1.94770E+00 7.93006E-14 1.66945E-13
 -1      3288 2.05165E+01 1.39056E-01 3.69062E-03 1.62670E+00 3.29932E-13-1.79949E-13
 -1      3289 2.06663E+01-1.65084E-02 2.52554E-03 1.67254E+00 2.88540E-13-1.89371E-14
 -1      3290 2.03842E+01-9.49758E-02-8.85768E-03 1.83987E+00 2.78507E-13 3.66559E-13
 -1      3291 2.03439E+01 3.73981E-01 2.75479E-03 1.45044E+00-3.23724E-15-9.54340E-14
 -1      3292 2.04491E+01 2.65326E-01 2.36751E-03 1.53352E+00 1.96241E-13-9.63672E-14
 -1      3293 2.02086E+01 2.59930E-01-4.04160E-03 1.66423E+00 2.21876E-13 3.13824E-13
 -1      3294 2.02122E+01 5.28785E-01 2.58537E-03 1.31341E+00-1.57665E-13 1.74397E-14
 -1      3295 2.03058E+01 4.41067E-01 2.42473E-03 1.38736E+00-1.55551E-13-1.06602E-13
 -1      3296 2.01150E+01 4.74864E-01-2.42644E-03 1.49486E+00 4.38113E-14 3.06767E-13
 -1      3297 2.00541E+01 6.19247E-01-4.05954E-03 1.34969E+00-2.16843E-13 1.54736E-13
 -1      3298 2.51675E+01-4.36514E+00-6.67385E-02 1.75959E+00 4.97380E-14 1.69705E-13
 -1      3299 2.31934E+01-4.42031E+00 4.61854E-02 3.11915E+00 2.73327E-13 8.10003E-14
 -1      3300 2.00506E+01 2.16055E+00-4.42923E-03 2.93730E-01 1.10299E-13-1.39293E-13
 -1      3301 2.00382E+01 2.19994E+00-3.14590E-03 1.70953E-01 7.89205E-14-1.76522E-13
 -1      3302 1.92049E+01 1.11766E+00 5.33774E-03-1.06034E+00 2.41994E-13 1.03636E-13
 -1      3303 1.90399E+01 1.19796E+00-7.84207E-03-8.81957E-01 1.81222E-13 4.86210E-15
 -1      3304 1.87965E+01 1.18698E+00 4.32054E-03-8.38860E-01 8.76203E-14 1.41897E-13
 -1      3305 1.87748E+01 1.37984E+00-2.57088E-03-1.25777E-01-2.99309E-14-9.47197E-14
 -1      3306 1.87754E+01 1.37947E+00-2.51064E-03 1.29043E-01 2.65376E-14 1.55283E-13
 -1      3307 1.85849E+01 1.31518E+00 6.40868E-03-2.94033E-01 3.30295E-14-6.84531E-14
 -1      3308 1.18780E+01-9.61465E-01 1.07792E-01-3.93962E+00 1.59820E-13 4.57231E-13
 -1      3309 1.35362E+01-1.79022E+00 9.94519E-02-4.88662E+00 1.41248E-13 8.80823E-14
 -1      3310 9.71488E+00-2.66616E-02 1.06186E-01-1.46746E+00 1.21767E-13 5.36890E-13
 -1      3311 1.05882E+01-4.50435E-01 1.03031E-01-3.03835E+00 5.53620E-14 7.17329E-13
 -1      3312 1.27321E+01-4.45219E-01 9.46523E-02-3.21979E+00 1.80772E-13 5.18210E-13
 -1      3313 1.99938E+01-2.27431E-02 6.37245E-04-1.94468E-01 7.20603E-14 4.11453E-15
 -1      3314 1.99870E+01-2.54994E-02-2.11012E-05-1.96152E-01 8.12032E-14 4.67755E-14
 -1      3315 2.00406E+01-2.66071E-02-6.14870E-04-1.96013E-01 6.86305E-14-2.46364E-14
 -1      3316 2.00311E+01-2.15147E-02-4.74901E-04-1.95584E-01 4.33959E-14 1.22218E-14
 -1      3317 2.00745E+01 1.54165E-01-1.07104E-03-7.74937E-02 1.13472E-13-5.01838E-15
 -1      3318 2.01065E+01 2.18669E-01 3.74304E-03-2.33166E-02 1.17120E-13 6.80241E-15
 -1      3319 2.50090E+01-4.52050E+00-7.33862E-02 2.14447E+00-4.09672E-13 3.01960E-13
 -1      3320 2.32995E+01-4.68234E+00 4.39373E-02 3.46120E+00-6.30475E-13 2.91215E-13
 -1      3321 2.88398E+01 3.80144E+00-1.44699E-01 1.98197E+00-3.80362E-13 1.66950E-14
 -1      3322 2.78546E+01 4.48190E+00-1.63091E-01 1.84586E+00-4.56524E-13-1.95205E-13
 -1      3323 2.77284E+01 2.34229E+00-9.20348E-02 2.21617E+00-1.86129E-13-2.40072E-13
 -1      3324 2.64170E+01 2.24015E+00-1.44489E-01 2.24042E+00-1.00475E-13-4.11345E-13
 -1      3325 2.58341E+01 2.86817E+00-1.09349E-01 2.14215E+00 1.10037E-13 2.11178E-13
 -1      3326 2.63634E+01 3.79395E+00-6.33371E-02 1.69001E+00-2.92447E-13-2.95403E-13
 -1      3327 2.02711E+01 7.13493E-01 4.05607E-03-3.47829E-01-1.12178E-13-5.06714E-14
 -1      3328 2.02285E+01 5.52737E-01-3.21611E-03-2.16189E-01-1.02524E-13-6.70614E-14
 -1      3329 2.02764E+01 5.81833E-01 3.31181E-04-1.90673E-01-1.00266E-13-8.33214E-14
 -1      3330 2.69745E+01-2.41157E+00-1.41768E-01-9.58243E-01-3.44891E-13 5.40616E-13
 -1      3331 2.64230E+01-3.40511E+00 3.31970E-02 2.34505E-01-8.88456E-14 3.74027E-13
 -1      3332 2.68065E+01-2.70166E+00-7.62277E-02-4.95533E-01-1.06710E-13 1.03847E-13
 -1      3333 2.62812E+01-3.80870E+00 2.25798E-02 8.19246E-01-2.20212E-13 1.33955E-13
 -1      3334 2.52181E+01-3.86504E+00 1.70441E-02 1.20337E+00-3.12025E-13 2.66016E-13
 -1      3335 1.95881E+01 8.75625E-01 4.00685E-03-1.31302E+00 2.61541E-13-7.75375E-15
 -1      3336 1.93900E+01 9.80065E-01-7.18711E-03-1.21630E+00 3.60210E-13-9.34076E-14
 -1      3337 1.91718E+01 9.67632E-01 5.39826E-04-1.24248E+00 2.79223E-13 6.88919E-14
 -1      3338 2.47251E+01-4.25039E+00 8.21603E-03-1.89998E+00-1.12542E-13 4.13508E-13
 -1      3339 2.64118E+01-3.52579E+00-6.07177E-02-3.41202E-01 1.10986E-13 4.78985E-13
 -1      3340 2.01982E+01 1.89100E+00 1.13649E-03-1.00876E+00-1.35612E-13-1.40389E-13
 -1      3341 1.44353E+01-1.89245E+00 3.24312E-02 4.76949E+00 3.04021E-13-2.16521E-13
 -1      3342 1.23366E+01-8.39673E-01 1.53442E-01 3.95642E+00 2.04788E-13-2.22156E-13
 -1      3343 2.60038E+01-3.86017E+00-4.71389E-03-9.35086E-01 2.95806E-13-1.02515E-13
 -1      3344 2.67172E+01-2.94761E+00-9.24248E-02 3.07741E-01 2.05981E-13-2.73670E-13
 -1      3345 9.58378E+00 1.83505E-01 1.08348E-01-1.29274E+00 1.68719E-13-2.97817E-14
 -1      3346 1.05086E+01-3.45581E-01 8.62297E-02-2.93413E+00-5.28258E-14-2.49106E-14
 -1      3347 2.67159E+01 4.68351E+00-1.92270E-01 1.31048E+00-4.03524E-13-1.74208E-13
 -1      3348 2.65965E+01 5.24412E+00-1.27458E-01 2.15709E-01-4.97213E-13-7.61544E-16
 -1      3349 2.66295E+01 5.03302E+00-1.75852E-01-9.44012E-01-6.08055E-13 2.28503E-13
 -1      3350 2.00305E+01 2.21840E+00-3.79718E-03 6.63015E-02 6.62870E-14-1.70332E-13
 -1      3351 2.00303E+01 2.21935E+00-3.66335E-03-5.80295E-02 4.08320E-14-1.53811E-13
 -1      3352 2.01445E+01 1.92348E+00 4.91576E-03 1.01618E-01 7.20946E-14-1.53322E-13
 -1      3353 2.53560E+01-3.58342E+00-1.16680E-02 6.62510E-01 3.28591E-14 3.66117E-13
 -1      3354 2.64283E+01 2.33279E+00-1.33711E-01-2.31131E+00 4.14335E-13-4.80588E-14
 -1      3355 1.04439E+01-9.66810E-01 1.75239E-01 3.76067E+00 6.41848E-14 3.64028E-13
 -1      3356 1.04097E+01-3.10047E-01 7.14301E-02 2.58507E+00 9.48824E-14 2.68577E-13
 -1      3357 1.22072E+01-1.29130E+00 7.34157E-02 4.19602E+00-1.53346E-13 3.77615E-13
 -1      3358 2.65823E+01-2.89370E+00-2.46472E-02 4.54106E-01 1.94471E-13 6.91017E-13
 -1      3359 2.63701E+01-1.87389E+00-4.59290E-02 1.38335E+00 1.85633E-13 8.97185E-13
 -1      3360 2.02913E+01 1.22789E+00 7.87789E-03 5.72911E-01 1.49722E-13-8.38789E-14
 -1      3361 2.01921E+01 1.67688E+00-6.25583E-03 6.81236E-01 1.70108E-13-9.57908E-14
 -1      3362 1.93933E+01 9.76206E-01-7.14211E-03 1.21682E+00 1.78617E-13-1.59239E-14
 -1      3363 1.95925E+01 8.70931E-01 4.25535E-03 1.31176E+00 1.85440E-13 5.06267E-13
 -1      3364 2.22119E+01-4.54571E+00 2.53012E-02 4.00575E+00-5.91256E-13 4.23883E-13
 -1      3365 2.07871E+01-4.02107E+00 3.79427E-02 4.33250E+00-4.22593E-13 2.51816E-13
 -1      3366 2.31376E+01-4.10736E+00 2.57800E-02 2.88551E+00-4.74145E-13 5.86269E-13
 -1      3367 2.66892E+01-1.69536E+00-9.66548E-03 1.41553E+00 1.87850E-13-3.79530E-13
 -1      3368 2.64549E+01 2.23671E+00-1.50983E-01-2.44724E+00-6.20157E-13 2.91309E-13
 -1      3369 2.63151E+01 3.74520E+00-8.44466E-02-1.73884E+00-6.23945E-13 2.69514E-13
 -1      3370 1.08733E+01 4.96668E-01 8.86362E-03 7.31102E-01 5.41212E-14-2.60798E-13
 -1      3371 1.01535E+01 4.48393E-01 1.21902E-01-2.86959E-01 7.04957E-14-2.04975E-13
 -1      3372 1.12891E+01 5.14183E-01 6.27479E-02-1.01763E+00 7.41846E-14-1.44426E-13
 -1      3373 2.48841E+01-4.11035E+00-1.06617E-02-1.72625E+00 3.41276E-13-6.90832E-14
 -1      3374 2.56103E+01-2.54776E+00-1.39218E-02-8.07461E-01-4.16026E-14 4.58463E-13
 -1      3375 2.59969E+01-1.76900E+00-2.45312E-02-1.42297E+00-2.97724E-13 4.33320E-13
 -1      3376 2.65011E+01-5.45008E-01-9.39217E-02-2.18969E+00-4.56128E-13 3.87843E-13
 -1      3377 2.65690E+01 1.07253E+00-5.98079E-02-2.33870E+00-5.83977E-13 3.45914E-13
 -1      3378 1.22749E+01-2.83178E-01 9.08413E-02 2.97027E+00 1.18770E-13-1.54779E-13
 -1      3379 2.02873E+01 1.10503E+00-1.58783E-05-6.33876E-01-1.23445E-13-6.92920E-14
 -1      3380 2.02545E+01 8.92366E-01-5.62764E-03-4.64558E-01-1.13017E-13-6.04413E-14
 -1      3381 2.02887E+01 9.33439E-01 1.13586E-03-4.11440E-01-9.98549E-14-7.85314E-14
 -1      3382 1.54413E+01-2.22799E+00 6.27981E-02-4.80541E+00 1.61895E-13 1.76449E-13
 -1      3383 2.00565E+01 1.05865E-01 2.48199E-03-1.17724E-01 9.28345E-14 1.85238E-14
 -1      3384 2.01459E+01 1.65665E-01-1.45827E-03-7.86273E-02 8.49374E-14 1.40762E-14
 -1      3385 2.00375E+01 6.58111E-02-3.96113E-04-1.47330E-01 5.88128E-14 2.79700E-14
 -1      3386 2.02185E+01 1.56793E+00-2.08576E-03-8.09475E-01-1.28553E-13-1.19134E-13
 -1      3387 2.06463E+01-4.39482E+00 8.24029E-02-4.82232E+00 2.28081E-13 1.72886E-13
 -1      3388 2.21237E+01-4.34937E+00-2.87195E-02-3.68741E+00 3.69116E-13-1.14451E-13
 -1      3389 1.91512E+01-3.63036E+00 3.17094E-02-4.83953E+00 3.03250E-13 7.68309E-14
 -1      3390 2.01918E+01 3.19312E-01-1.38102E-03 3.64253E-02 1.14235E-13 1.45954E-14
 -1      3391 2.01251E+01 2.94793E-01-2.18772E-03 4.48933E-02 1.14279E-13-7.94395E-15
 -1      3392 2.01758E+01 3.95016E-01 6.07847E-03 1.35597E-01 1.38528E-13-1.15384E-14
 -1      3393 2.00774E+01 1.23142E-02-1.01701E-03-1.79152E-01 4.07849E-14 5.74859E-14
 -1      3394 2.00132E+01 1.31085E-02 3.00533E-05-1.82263E-01 1.55828E-14 4.46693E-14
 -1      3395 2.00223E+01 3.64980E-02 1.54094E-03-1.68487E-01 2.23380E-14 2.72313E-14
 -1      3396 2.70235E+01-1.99415E+00-3.98623E-02-1.19934E+00-8.64413E-14 1.49027E-13
 -1      3397 2.60908E+01-2.65701E+00-1.94830E-02-5.72561E-01-2.39419E-13 1.10295E-13
 -1      3398 2.67634E+01-9.55702E-01-4.33118E-02-1.77137E+00-4.81143E-14-5.92235E-14
 -1      3399 2.55888E+01-1.12790E+00-2.12502E-02-1.72670E+00-2.18645E-14-7.86367E-14
 -1      3400 2.53908E+01-2.63518E+00-1.20896E-02-4.25619E-01-1.90048E-13 1.72470E-13
 -1      3401 2.53908E+01-1.92805E+00-2.78302E-02-1.24257E+00-1.42360E-13 1.30469E-13
 -1      3402 1.92086E+01 1.11382E+00 5.30702E-03 1.06030E+00 2.39744E-13 2.50910E-14
 -1      3403 1.91714E+01 9.63013E-01-2.90015E-04 1.24189E+00 1.66416E-13 1.42341E-13
 -1      3404 1.90442E+01 1.19398E+00-7.86623E-03 8.84222E-01 2.08041E-13 1.55722E-13
 -1      3405 2.01536E+01 1.80857E+00-3.32608E-03 5.88315E-01 1.52661E-13-7.08150E-14
 -1      3406 2.00720E+01 2.10403E+00-3.02153E-03 3.91195E-01 1.29201E-13-1.22701E-13
 -1      3407 2.01658E+01 1.84679E+00 4.55637E-03 2.89405E-01 1.03534E-13-1.11455E-13
 -1      3408 2.00969E+01 2.02043E+00-6.49381E-03 5.09555E-01 1.46117E-13-1.01171E-13
 -1      3409 1.88220E+01 1.34151E+00-6.19296E-03 4.14799E-01 3.94242E-14 6.53747E-14
 -1      3410 1.89163E+01 1.29618E+00 1.91921E-03 6.48694E-01 1.88309E-13 6.63820E-14
 -1      3411 1.88008E+01 1.18347E+00 4.24456E-03 8.40908E-01 2.16315E-13 6.76542E-14
 -1      3412 1.85861E+01 1.31376E+00 6.09464E-03 3.00846E-01 7.48686E-14 7.10742E-14
 -1      3413 1.74448E+01-3.13843E+00 6.79760E-02-5.10166E+00-2.81337E-13 2.64233E-14
 -1      3414 1.91391E+01-3.30138E+00-2.28502E-02-4.39913E+00-2.65128E-13 5.47271E-14
 -1      3415 1.60878E+01-2.23920E+00 3.24272E-02-4.66232E+00-2.85591E-13-6.35117E-14
 -1      3416 1.60495E+01-3.30042E+00 1.24103E-01 5.68004E+00-5.19904E-13 5.60843E-13
 -1      3417 1.49493E+01-2.42145E+00 7.17561E-02 5.18385E+00-3.86649E-13 4.46629E-13
 -1      3418 1.81035E+01-3.50866E+00 3.39868E-02 5.09548E+00-5.58571E-13 9.35363E-14
 -1      3419 1.20018E+01-6.00541E-01 1.28985E-01-3.57592E+00-1.49644E-13-3.02119E-14
 -1      3420 1.36371E+01-1.09896E+00 2.93520E-02-4.03735E+00-2.00107E-13 1.77428E-14
 -1      3421 1.21525E+01-7.58743E-02 5.64135E-02-2.74578E+00-3.54161E-14 8.11989E-14
 -1      3422 2.62695E+01 1.34725E+00-9.32297E-02 2.49822E+00 1.99306E-13 4.75758E-13
 -1      3423 9.82093E+00 2.31581E-01 1.52774E-01-5.88190E-01 1.00394E-13 4.02844E-13
 -1      3424 1.13983E+01 3.14695E-01 7.70158E-02-1.37565E+00 3.84159E-14 5.58859E-13
 -1      3425 1.01990E+01 2.21967E-01 8.23932E-02 4.89475E-01 1.23011E-13 3.27890E-13
 -1      3426 1.98471E+01 6.69847E-01 7.43041E-04-1.42727E+00 2.40330E-13 4.06450E-13
 -1      3427 1.97035E+01 7.78218E-01-3.48730E-03-1.37697E+00 2.15529E-13 1.65999E-14
 -1      3428 1.95350E+01 7.52465E-01-5.85681E-04-1.44977E+00 4.26864E-13-7.06195E-14
 -1      3429 1.98357E+01 5.82171E-01 2.08446E-03-1.53286E+00 3.49838E-13 2.54053E-13
 -1      3430 1.81996E+01-2.62553E+00-7.41453E-03 4.27605E+00 3.48161E-13 5.79398E-16
 -1      3431 1.64070E+01-2.24282E+00 9.16962E-02 4.71183E+00 3.19744E-13 1.83256E-14
 -1      3432 1.58479E+01-1.38376E+00 2.09276E-02 4.03512E+00 2.84842E-13-5.46854E-14
 -1      3433 2.00678E+01 2.11124E+00-3.10397E-03-3.84335E-01-3.29598E-14-1.45408E-13
 -1      3434 2.00920E+01 2.03346E+00-5.21096E-03-4.98900E-01-6.94164E-14-1.52681E-13
 -1      3435 2.02046E+01 1.70334E+00 5.57279E-03-4.55249E-01-7.17228E-14-1.44677E-13
 -1      3436 2.01232E+01 1.93980E+00-2.91161E-03-5.85875E-01-7.15913E-14-1.64094E-13
 -1      3437 2.01595E+01 1.81097E+00-6.85688E-03-6.83657E-01-8.38383E-14-1.61870E-13
 -1      3438 2.02542E+01 7.16128E-01 7.07729E-03 4.07440E-01 1.64721E-13-3.51813E-15
 -1      3439 2.02734E+01 9.21615E-01-3.48346E-03 4.84381E-01 1.75494E-13-4.20617E-14
 -1      3440 2.02778E+01 1.05770E+00-2.72588E-03 4.52249E-01 1.48465E-13-7.65049E-14
 -1      3441 2.01950E+01 5.51657E-01-3.68091E-03 2.61996E-01 1.69971E-13-1.53146E-14
 -1      3442 2.55716E+01-3.11217E+00-7.53425E-03 7.58834E-02-2.03223E-14 7.81591E-13
 -1      3443 2.74528E+01 1.37410E+00-1.21342E-01-2.38652E+00-6.35519E-13 4.31211E-13
 -1      3444 2.68985E+01-1.50153E+00-2.02720E-02-1.51013E+00-3.51649E-13 4.64670E-13
 -1      3445 2.51866E+01-3.22861E+00-2.86909E-02 2.47880E-01 8.66886E-14 4.93270E-13
 -1      3446 2.02711E+01 2.44061E-01 2.05650E-03 4.18029E-02-1.26020E-13-4.95492E-14
 -1      3447 2.02471E+01 1.70803E-01-1.22055E-03 8.40109E-02-1.23117E-13-5.65358E-14
 -1      3448 2.02321E+01 1.14344E-01 1.54085E-03 1.11663E-01-1.05231E-13-4.40784E-14
 -1      3449 2.02111E+01 6.85839E-02-5.62269E-04 1.35665E-01-6.01826E-14-2.88205E-14
 -1      3450 2.02887E+01 1.71008E-01-4.40950E-04 8.12634E-02-1.00653E-13-2.92475E-14
 -1      3451 2.01930E+01 3.48177E-02 1.02049E-03 1.50391E-01-5.07371E-14-3.41615E-14
 -1      3452 2.01758E+01 9.03949E-03-9.80208E-05 1.62425E-01-5.48498E-14-4.43293E-14
 -1      3453 2.02505E+01 6.70147E-02-5.68294E-04 1.26738E-01-6.56732E-14-4.24965E-15
 -1      3454 2.01569E+01-8.27139E-03 5.77309E-04 1.68966E-01-3.55972E-14-7.63976E-14
 -1      3455 2.01433E+01-1.94420E-02 2.20807E-04 1.73994E-01-2.56365E-14-6.18743E-14
 -1      3456 2.02108E+01 7.45092E-03-5.87282E-04 1.50736E-01-3.99150E-14-1.75352E-14
 -1      3457 2.01247E+01-2.46752E-02 2.14607E-04 1.76196E-01-3.60052E-14-4.27805E-14
 -1      3458 2.01143E+01-2.50050E-02 4.38755E-04 1.78070E-01-4.08483E-14-4.11846E-14
 -1      3459 2.01725E+01-1.93729E-02-5.32625E-04 1.61776E-01-2.60245E-14-6.13583E-14
 -1      3460 2.00963E+01-2.11750E-02-8.36441E-05 1.78966E-01-5.09985E-14 1.96483E-14
 -1      3461 2.00884E+01-1.32351E-02 5.89358E-04 1.80662E-01-3.57347E-14 4.19505E-14
 -1      3462 2.01363E+01-2.17951E-02-4.34227E-04 1.66728E-01-1.84679E-14-1.88927E-14
 -1      3463 2.00709E+01-2.36159E-03-3.38025E-04 1.82636E-01-4.21524E-14-1.28856E-14
 -1      3464 2.00648E+01 1.21647E-02 6.98525E-04 1.86477E-01-4.62767E-14-3.01032E-14
 -1      3465 2.01022E+01-5.57256E-03-3.07503E-04 1.71024E-01-4.51560E-14-2.97988E-14
 -1      3466 2.00472E+01 2.88016E-02-5.69977E-04 1.91428E-01-4.81136E-14-1.30759E-14
 -1      3467 2.00423E+01 4.88854E-02 7.85733E-04 1.99285E-01-7.01028E-14-3.18240E-14
 -1      3468 2.00693E+01 2.54838E-02-1.56508E-04 1.78948E-01-7.01580E-14-9.25675E-14
 -1      3469 2.00237E+01 7.05260E-02-7.97051E-04 2.08791E-01-8.87964E-14-1.17019E-14
 -1      3470 2.00193E+01 9.55698E-02 8.63419E-04 2.22235E-01-7.77789E-14 3.49751E-14
 -1      3471 2.00360E+01 6.89934E-02 1.61243E-05 1.93970E-01-3.83589E-14-3.90688E-14
 -1      3472 1.99985E+01 1.21760E-01-1.03275E-03 2.37664E-01-4.43808E-14 4.11647E-14
 -1      3473 1.99938E+01 1.51391E-01 9.39669E-04 2.58058E-01-4.34257E-14 2.54703E-14
 -1      3474 2.00002E+01 1.23533E-01 2.12248E-04 2.19019E-01-6.52362E-14 4.65383E-14
 -1      3475 1.99696E+01 1.81790E-01-1.28784E-03 2.80643E-01-9.64245E-14 6.84739E-14
 -1      3476 1.99640E+01 2.15648E-01 1.02069E-03 3.09199E-01-1.31097E-13 8.48953E-14
 -1      3477 1.99595E+01 1.88184E-01 4.36679E-04 2.56645E-01-4.28565E-14 3.73265E-14
 -1      3478 1.99348E+01 2.49788E-01-1.56724E-03 3.40102E-01-1.65945E-13 7.86674E-14
 -1      3479 1.99273E+01 2.87243E-01 1.11147E-03 3.77899E-01-1.32542E-13 4.83475E-14
 -1      3480 1.99111E+01 2.62059E-01 6.89451E-04 3.09168E-01-1.33514E-13 8.02646E-14
 -1      3481 1.98915E+01 3.24215E-01-1.86979E-03 4.18231E-01-4.54061E-14 4.14622E-14
 -1      3482 1.98816E+01 3.64019E-01 1.22177E-03 4.66178E-01-5.59584E-16 3.04756E-14
 -1      3483 1.98518E+01 3.43721E-01 9.70890E-04 3.78777E-01-8.24517E-14 8.17515E-14
 -1      3484 1.98377E+01 4.02087E-01-2.18892E-03 5.17016E-01-2.72371E-14 9.54122E-14
 -1      3485 1.98248E+01 4.41929E-01 1.37419E-03 5.75804E-01-3.78681E-14 1.47140E-13
 -1      3486 1.97783E+01 4.30441E-01 1.27102E-03 4.67560E-01-1.22342E-14 1.56086E-13
 -1      3487 1.97714E+01 4.77999E-01-2.50841E-03 6.38250E-01-6.69895E-15 1.80781E-13
 -1      3488 1.97561E+01 5.13896E-01 1.61596E-03 7.08310E-01 2.68639E-14 1.27143E-13
 -1      3489 1.96878E+01 5.17297E-01 1.56150E-03 5.77623E-01 3.58297E-15 1.63373E-13
 -1      3490 1.96926E+01 5.42794E-01-2.79718E-03 7.83629E-01-1.03320E-14 1.03245E-13
 -1      3491 1.96766E+01 5.68263E-01 2.03627E-03 8.65106E-01 2.07368E-14 7.11571E-14
 -1      3492 1.95781E+01 5.95957E-01 1.78570E-03 7.11353E-01-8.65624E-15 9.47529E-14
 -1      3493 1.96040E+01 5.81790E-01-2.99828E-03 9.54994E-01 1.00849E-14 3.16818E-14
 -1      3494 1.95920E+01 5.86790E-01 2.78523E-03 1.04777E+00-1.07717E-13 3.67368E-15
 -1      3495 1.94492E+01 6.53050E-01 1.83364E-03 8.71942E-01-5.26710E-14 6.18599E-14
 -1      3496 1.95142E+01 5.72527E-01-3.00179E-03 1.15478E+00-1.31284E-13-5.29268E-14
 -1      3497 1.95157E+01 5.42155E-01 4.08088E-03 1.25848E+00-1.04780E-13-3.33477E-14
 -1      3498 1.93050E+01 6.68040E-01 1.49823E-03 1.06432E+00-1.38145E-13 9.13123E-14
 -1      3499 1.94420E+01 4.82144E-01-2.58034E-03 1.38646E+00-7.14435E-14-3.19336E-14
 -1      3500 1.94751E+01 3.95240E-01 6.20538E-03 1.50007E+00-7.25977E-14 4.84940E-14
 -1      3501 1.91573E+01 6.10517E-01 3.96202E-04 1.29646E+00-6.60621E-14 1.11125E-13
 -1      3502 1.94244E+01 2.64897E-01-1.15219E-03 1.65415E+00-1.29314E-13 3.61768E-14
 -1      3503 1.95195E+01 9.29390E-02 9.41304E-03 1.77440E+00-4.51133E-14 2.87407E-14
 -1      3504 1.90311E+01 4.36819E-01-2.11490E-03 1.58062E+00-8.02900E-14 9.16402E-14
 -1      3505 1.95287E+01-1.38706E-01 2.63148E-03 1.95872E+00 7.34744E-14 9.86963E-16
 -1      3506 1.97345E+01-4.30499E-01 1.40926E-02 2.07463E+00 1.05922E-13-4.36259E-14
 -1      3507 1.89758E+01 8.66095E-02-6.89908E-03 1.93254E+00-1.64522E-14 3.29596E-14
 -1      3508 1.98730E+01-7.94607E-01 1.35094E-02 2.28714E+00 1.41435E-13-7.22936E-14
 -1      3509 2.02529E+01-1.25614E+00 1.30833E-02 2.36342E+00 2.06175E-13-1.60531E-14
 -1      3510 1.90829E+01-5.19333E-01-1.47185E-02 2.36425E+00 1.32945E-13-9.00252E-14
 -1      3511 1.35721E+01-2.72253E-01 2.77637E-03 3.06886E+00 2.43473E-13-8.58064E-14
 -1      3512 1.19983E+01 4.65568E-01 1.25039E-01 1.96017E+00 1.41465E-13-7.12624E-14
 -1      3513 2.27283E+01-3.70982E+00 1.73363E-02-2.75149E+00 3.39839E-13-1.36423E-13
 -1      3514 2.18132E+01-3.12133E+00 4.32425E-02-2.98010E+00 3.38518E-13-4.29639E-14
 -1      3515 2.03051E+01-1.20098E+00 1.98182E-02-2.51175E+00 1.61958E-13-1.73485E-14
 -1      3516 1.99538E+01-7.71707E-01 1.09575E-02-2.43254E+00 3.48291E-14 8.58309E-14
 -1      3517 1.98535E+01-4.17088E-01 1.34372E-02-2.23727E+00-1.37350E-14 2.58825E-13
 -1      3518 1.96728E+01-1.24203E-01 2.39468E-03-2.12849E+00 1.34531E-13 3.73342E-13
 -1      3519 1.92542E+01-5.07045E-01-1.58901E-02-2.48991E+00 1.71084E-13 1.27027E-13
 -1      3520 1.96882E+01 1.13348E-01 7.28092E-03-1.95541E+00 4.90478E-14 4.09360E-13
 -1      3521 1.96195E+01 3.06438E-01-3.10784E-04-1.83733E+00 2.54365E-13 2.99006E-13
 -1      3522 1.92132E+01 1.00242E-01-6.80207E-03-2.08604E+00 1.08190E-13 4.59609E-13
 -1      3523 2.00383E+01 3.45196E-02 8.48743E-04-2.02794E-01-7.40564E-14 9.16822E-14
 -1      3524 2.00379E+01 1.73079E-02-5.38167E-04-1.96196E-01-1.81280E-14 4.44758E-14
 -1      3525 2.00511E+01 3.29715E-03 7.44222E-04-1.92123E-01 3.29722E-14 7.66901E-15
 -1      3526 2.00523E+01-8.87100E-03-3.13562E-04-1.89441E-01-2.99882E-15 1.80458E-14
 -1      3527 2.00620E+01 1.42136E-02-2.32879E-04-1.88280E-01-6.89688E-15 6.45369E-14
 -1      3528 2.00145E+01 1.23109E-01 1.05626E-03-2.57368E-01-5.88699E-14 1.83955E-13
 -1      3529 2.00120E+01 9.72933E-02-9.63841E-04-2.38252E-01-7.22029E-14 1.60973E-13
 -1      3530 2.00005E+01 1.79093E-01 1.17247E-03-3.06716E-01-5.25609E-14 2.31054E-13
 -1      3531 1.99977E+01 1.49459E-01-1.18992E-03-2.79376E-01-3.45706E-14 2.25254E-13
 -1      3532 1.99865E+01 1.56704E-01 2.37196E-04-2.62256E-01-6.84884E-14 1.90189E-13
 -1      3533 1.99832E+01 2.41750E-01 1.30162E-03-3.73932E-01-4.33905E-14 2.34989E-13
 -1      3534 1.99804E+01 2.08818E-01-1.43348E-03-3.37269E-01-6.42632E-14 2.13306E-13
 -1      3535 1.99543E+01 2.22163E-01 4.32642E-04-3.14500E-01-2.81383E-14 1.87210E-13
 -1      3536 1.99611E+01 3.09277E-01 1.44717E-03-4.61031E-01-7.38573E-14 2.48989E-13
 -1      3537 1.99585E+01 2.74100E-01-1.69298E-03-4.14148E-01-5.19512E-14 2.36875E-13
 -1      3538 1.99149E+01 2.94818E-01 6.47337E-04-3.84499E-01-4.57711E-14 2.24682E-13
 -1      3539 1.99331E+01 3.78188E-01 1.62043E-03-5.69623E-01 1.57139E-14 3.07517E-13
 -1      3540 1.99308E+01 3.42775E-01-1.95666E-03-5.11928E-01-7.32003E-15 2.68851E-13
 -1      3541 1.98658E+01 3.72290E-01 8.69795E-04-4.74327E-01-4.83194E-14 2.18930E-13
 -1      3542 1.98991E+01 4.42233E-01 1.85081E-03-7.00749E-01-5.33684E-14 3.54857E-13
 -1      3543 1.98964E+01 4.10133E-01-2.19800E-03-6.32098E-01 1.18204E-14 2.80319E-13
 -1      3544 1.98051E+01 4.50166E-01 1.07209E-03-5.85858E-01-3.30863E-15 2.44576E-13
 -1      3545 1.98608E+01 4.90931E-01 2.19709E-03-8.54711E-01 1.07501E-14 3.12351E-13
 -1      3546 1.98559E+01 4.68025E-01-2.36828E-03-7.75583E-01-1.52062E-14 2.89623E-13
 -1      3547 1.97317E+01 5.20789E-01 1.19400E-03-7.20818E-01 1.87300E-14 2.22037E-13
 -1      3548 1.98245E+01 5.07619E-01 2.76052E-03-1.03091E+00 6.01376E-14 2.14668E-13
 -1      3549 1.98131E+01 5.03159E-01-2.38185E-03-9.42633E-01-1.34909E-15 2.88308E-13
 -1      3550 1.96469E+01 5.71645E-01 1.11906E-03-8.80981E-01 5.40123E-14 1.96915E-13
 -1      3551 1.98034E+01 4.67061E-01 3.67685E-03-1.22760E+00 6.75417E-14 2.39876E-13
 -1      3552 1.97770E+01 4.94923E-01-2.08834E-03-1.13269E+00 8.32999E-14 2.42105E-13
 -1      3553 1.95561E+01 5.83210E-01 6.31306E-04-1.06855E+00 1.00585E-13 1.58280E-13
 -1      3554 1.98237E+01 3.33062E-01 5.05985E-03-1.44107E+00-3.84714E-14 2.66301E-13
 -1      3555 1.97668E+01 4.12933E-01-1.22827E-03-1.34396E+00 3.37494E-14 2.25729E-13
 -1      3556 1.94729E+01 5.26261E-01-6.63360E-04-1.28662E+00 3.66445E-14 1.81397E-13
 -1      3557 1.99309E+01 5.74910E-02 6.90101E-03-1.66317E+00-1.14381E-13 1.76612E-13
 -1      3558 1.98183E+01 2.15147E-01 6.57346E-04-1.57193E+00-9.68948E-14 2.49328E-13
 -1      3559 1.94250E+01 3.59083E-01-3.43422E-03-1.53901E+00-3.97573E-14 1.93772E-13
 -1      3560 2.02003E+01-4.16031E-01 9.22315E-03-1.87473E+00-1.00046E-13 2.44577E-13
 -1      3561 1.99929E+01-1.50997E-01 4.58861E-03-1.80501E+00-9.28188E-14 2.17177E-13
 -1      3562 1.94628E+01 2.59374E-02-8.62111E-03-1.82783E+00-1.35774E-13 1.74412E-13
 -1      3563 2.07344E+01-1.14724E+00 6.72542E-03-2.03335E+00-2.09499E-13 2.86516E-13
 -1      3564 2.03904E+01-7.40876E-01 1.31244E-02-2.01557E+00-1.10405E-13 2.73121E-13
 -1      3565 1.96701E+01-5.40829E-01-1.79198E-02-2.14496E+00-1.40575E-13 1.17990E-13
 -1      3566 2.16457E+01-2.12925E+00-8.52833E-03-2.01412E+00-1.26323E-13 2.42093E-13
 -1      3567 2.11767E+01-1.58982E+00 3.36623E-02-2.10673E+00-2.03256E-13 2.51839E-13
 -1      3568 2.02023E+01-1.45501E+00-4.08187E-02-2.45627E+00-1.45063E-13 8.67795E-14
 -1      3569 2.47674E+01-3.29933E+00 3.45182E-03-6.20205E-01-4.81351E-14 7.19230E-13
 -1      3570 2.15231E+01-1.94486E+00 3.32910E-02 2.28154E+00-1.31279E-13 3.61981E-13
 -1      3571 2.21090E+01-2.46801E+00 7.33776E-03 2.11034E+00-1.84671E-13 3.87887E-13
 -1      3572 2.01646E+01-3.39364E-01 6.88178E-03 2.08727E+00 8.40525E-14 2.85343E-13
 -1      3573 2.04036E+01-6.52892E-01 1.07890E-02 2.13979E+00 1.00499E-14 2.56766E-13
 -1      3574 1.99575E+01 1.26736E-01 6.65163E-04 1.86852E+00 2.27397E-13 4.95225E-13
 -1      3575 2.00909E+01-8.51031E-02 7.46976E-03 1.95042E+00 1.63158E-13 4.01151E-13
 -1      3576 1.96579E+01-1.50090E-01-1.05275E-02 2.12909E+00 1.93257E-14 4.63391E-13
 -1      3577 1.99027E+01 4.39950E-01-2.98287E-04 1.63024E+00 1.15388E-13 6.59500E-13
 -1      3578 1.99663E+01 3.00945E-01 5.47773E-03 1.72971E+00 1.55567E-13 5.23109E-13
 -1      3579 1.96177E+01 3.11096E-01 1.59346E-03 1.83724E+00 1.42054E-13 7.23148E-13
 -1      3580 2.02249E+01 1.57975E+00 2.79828E-03 4.54763E-01 1.31693E-13-7.50951E-14
 -1      3581 2.43514E+01-3.71412E+00 5.17272E-02 1.54215E+00 2.27499E-13 3.24579E-13
 -1      3582 1.86491E+01 1.09041E+00 9.11132E-03-1.04710E+00 2.57093E-13 1.23180E-13
 -1      3583 1.84492E+01 1.15520E+00-8.72916E-03-8.03008E-01 1.42852E-13-5.74642E-14
 -1      3584 1.97450E+01 7.87541E-01-4.68570E-03 1.34551E+00 1.52817E-13 8.92584E-13
 -1      3585 1.99133E+01 6.93413E-01 1.42379E-03 1.36095E+00 4.30494E-14 7.82700E-13
 -1      3586 1.99282E+01 6.23243E-01 1.46659E-03 1.43869E+00 3.13338E-14 7.62654E-13
 -1      3587 1.95769E+01 7.66615E-01-1.08224E-03 1.42047E+00 1.19560E-13 6.98686E-13
 -1      3588 1.83114E+01 1.25172E+00 1.15331E-03-4.78928E-01 1.10399E-13-1.09248E-13
 -1      3589 1.82375E+01 1.27627E+00-5.76886E-03-1.76698E-01 2.20010E-14 3.40530E-14
 -1      3590 1.81434E+01 1.15600E+00 6.23196E-03-7.07082E-01 1.19235E-13 2.53148E-14
 -1      3591 1.29890E+01 1.20619E-01 5.80226E-02-2.40295E+00 1.97628E-13 4.55212E-13
 -1      3592 1.40283E+01-4.58376E-01 6.33365E-03-3.27298E+00 2.74662E-13 3.49804E-13
 -1      3593 2.23366E+01-4.29041E+00 4.76998E-02 3.59102E+00 3.88401E-13-3.32194E-14
 -1      3594 2.09944E+01-3.74205E+00 1.25435E-02 3.81413E+00 4.20906E-13-1.05848E-13
 -1      3595 2.01064E+01-1.84842E-02 2.49127E-04-1.83695E-01 9.09162E-14 4.96135E-15
 -1      3596 2.01168E+01-6.82330E-03 6.75363E-04-1.78771E-01 9.46728E-14 2.28647E-14
 -1      3597 1.91615E+01 8.24056E-01 6.83472E-03-1.43584E+00 2.64638E-13 8.58910E-14
 -1      3598 1.88854E+01 9.26908E-01-1.03688E-02-1.28533E+00 2.00710E-13 4.54548E-14
 -1      3599 1.85638E+01 9.29081E-01-4.22453E-03-1.27821E+00 2.24860E-13 5.68291E-14
 -1      3600 1.57461E+01-1.58632E+00 3.74038E-02-4.29028E+00 2.64715E-13 4.24938E-14
 -1      3601 1.74736E+01-2.69409E+00 7.65514E-02-4.88798E+00 2.40252E-13 1.89539E-13
 -1      3602 2.33558E+01-3.95578E+00-8.47984E-03 2.40986E+00 3.30425E-13 2.68094E-13
 -1      3603 2.42967E+01-3.58870E+00 4.49094E-03-1.32367E+00-1.59737E-13 5.79866E-13
 -1      3604 2.35792E+01-3.21921E+00-1.80143E-02-1.34755E+00-9.02110E-14 5.51751E-13
 -1      3605 2.29032E+01-2.78873E+00 3.69553E-02-1.71503E+00-1.35386E-13 3.89356E-13
 -1      3606 2.35098E+01-4.20158E+00 2.08171E-02-2.66914E+00-2.73566E-13 1.83797E-13
 -1      3607 2.19214E+01-3.73872E+00-6.61150E-03-3.21308E+00-2.89206E-13 2.65876E-13
 -1      3608 2.13384E+01-3.22926E+00-6.68163E-03 3.12741E+00 3.66817E-13-7.09931E-14
 -1      3609 1.99062E+01-2.94866E+00 7.49834E-02 3.92256E+00 4.35842E-13-2.11177E-13
 -1      3610 1.87701E+01-2.20645E+00-1.02658E-02 3.73556E+00 3.25566E-13-6.96830E-14
 -1      3611 2.34326E+01-3.66595E+00-3.14041E-03 2.02413E+00 3.24147E-13 2.05717E-13
 -1      3612 2.06337E+01-1.02419E+00 1.66766E-02 2.25951E+00-1.02706E-13 3.19509E-13
 -1      3613 2.10293E+01-1.46154E+00 1.15357E-02 2.23942E+00-8.78184E-14 2.87954E-13
 -1      3614 1.99137E+01-8.21340E-01-1.79544E-02 2.43588E+00-7.77929E-14 4.69911E-13
 -1      3615 2.02215E+01 1.58168E+00 1.77351E-03-7.01344E-01-9.39067E-14-1.12561E-13
 -1      3616 2.00365E+01 2.20186E+00-3.40111E-03-1.63224E-01 1.42509E-14-1.40896E-13
 -1      3617 2.00485E+01 2.16511E+00-4.29494E-03-2.85068E-01-2.53665E-14-1.41995E-13
 -1      3618 2.01651E+01 1.85293E+00 5.29782E-03-2.85696E-01-3.30718E-14-1.25478E-13
 -1      3619 2.00266E+01 7.47122E-02 9.50059E-04-2.23582E-01-7.41620E-14 1.56563E-13
 -1      3620 2.00249E+01 5.30269E-02-7.50022E-04-2.11435E-01-8.50186E-14 1.41684E-13
 -1      3621 2.00383E+01 5.19006E-02-9.04294E-05-2.01763E-01-1.11896E-13 9.55778E-14
 -1      3622 2.00137E+01 9.96860E-02 6.42589E-05-2.25502E-01-8.00264E-14 1.84010E-13
 -1      3623 2.25748E+01-3.16368E+00 5.07616E-02 2.35002E+00 2.92560E-13 1.81272E-13
 -1      3624 2.03165E+01 7.31452E-01-5.14373E-04-2.45652E-01-1.06203E-13-1.07681E-13
 -1      3625 2.02976E+01 5.74999E-01-3.52897E-03-1.42391E-01-9.61771E-14-1.14535E-13
 -1      3626 2.03036E+01 4.43656E-01 2.54091E-03-7.18384E-02-9.00168E-14-1.00099E-13
 -1      3627 2.02794E+01 3.32040E-01-2.13072E-03-4.08669E-03-1.13921E-13-8.05101E-14
 -1      3628 2.03203E+01 3.35332E-01-1.71406E-04 4.26772E-03-1.03547E-13-8.91697E-14
 -1      3629 2.17953E+01-2.66038E+00-5.27253E-03-2.33083E+00-1.97771E-13 2.47018E-13
 -1      3630 2.13866E+01-2.64995E+00-3.98911E-03 2.62463E+00 2.57041E-13 1.78312E-14
 -1      3631 1.40948E+01-1.55276E+00 1.27806E-01 4.62421E+00-2.74669E-13 1.90160E-13
 -1      3632 1.33231E+01-8.35519E-01 3.24196E-02 3.75449E+00-8.51923E-14-4.43673E-14
 -1      3633 1.58948E+01-1.96548E+00 2.38419E-02 4.54002E+00-3.76154E-13 2.03337E-13
 -1      3634 2.06449E+01-1.70127E+00 3.15361E-02-2.68508E+00 2.33320E-13-1.08307E-13
 -1      3635 1.96261E+01-1.45864E+00-3.77197E-02-2.96022E+00 2.89771E-13-1.26600E-13
 -1      3636 2.12551E+01-2.28117E+00 2.33765E-02-2.64295E+00 3.05058E-13-1.03053E-13
 -1      3637 1.79747E+01 1.24840E+00 7.59516E-03 2.30420E-03-1.33040E-14 1.96705E-14
 -1      3638 1.82407E+01 1.27754E+00-4.74378E-03 1.85046E-01-1.25453E-14 7.52474E-14
 -1      3639 1.83127E+01 1.24754E+00-2.60226E-04 4.83334E-01 6.06306E-14 2.28513E-14
 -1      3640 2.10719E+01-3.49727E+00-8.67144E-03 3.64950E+00-2.68681E-13 2.27575E-13
 -1      3641 1.98481E+01-3.55936E+00 6.26661E-02 4.52892E+00-3.35246E-13 1.19557E-14
 -1      3642 1.86335E+01-2.87793E+00 2.93389E-02 4.46067E+00-3.61367E-13 1.75485E-13
 -1      3643 1.24201E+01 6.32051E-01 5.56179E-02 1.10239E+00 1.36859E-13-1.09052E-13
 -1      3644 1.22272E+01 6.33751E-01 4.35534E-02-9.93254E-01-7.21463E-14-7.09294E-14
 -1      3645 1.19813E+01 4.71458E-01 1.05750E-01-1.89107E+00-2.34292E-14 1.09086E-13
 -1      3646 1.29503E+01 9.28479E-02 1.93558E-02-2.52735E+00-1.53051E-13 1.78024E-13
 -1      3647 2.06713E+01-2.75484E+00 4.84404E-02-3.30385E+00-2.61970E-13 1.68175E-13
 -1      3648 1.50045E+01-5.15647E-01 9.26201E-02 3.48941E+00 3.27943E-13-1.94088E-13
 -1      3649 1.43142E+01 3.09162E-02-6.70185E-03 2.66710E+00 2.87126E-13-5.56707E-14
 -1      3650 1.64139E+01-9.80237E-01 3.00029E-02 3.49745E+00 3.24751E-13-9.07260E-14
 -1      3651 2.07809E+01-2.01582E+00 2.52369E-02 2.63600E+00 2.97512E-13-6.99300E-14
 -1      3652 2.03359E+01 5.83031E-01 8.07376E-04-1.14629E-01-9.46918E-14-1.23545E-13
 -1      3653 2.03448E+01-2.85773E+00-1.76606E-02-3.64251E+00 2.88523E-13-1.12459E-13
 -1      3654 2.02161E+01 1.61049E+00-2.50350E-03-1.97427E-01-2.51442E-14-1.18260E-13
 -1      3655 2.02259E+01 1.55358E+00-4.40511E-03-2.80454E-01-4.22853E-14-1.24555E-13
 -1      3656 2.01072E+01 6.93086E-02-1.26947E-03-1.45174E-01 3.54256E-14 3.62319E-14
 -1      3657 1.96399E+01-1.67925E+00-5.33343E-03 2.97768E+00 2.20862E-13-8.32112E-14
 -1      3658 1.97365E+01 4.02539E-01 3.74874E-03-1.72578E+00 4.72590E-13 8.31056E-14
 -1      3659 1.97414E+01 5.13271E-01 1.76318E-04-1.62316E+00 4.13492E-13 1.19424E-13
 -1      3660 1.95866E+01 5.98635E-01 1.78034E-03-1.59367E+00 4.15962E-13 3.54209E-15
 -1      3661 1.93749E+01 4.40671E-01 3.30230E-03-1.79315E+00 1.59703E-13 3.07432E-13
 -1      3662 1.92841E+01-2.95753E+00 4.89743E-02-4.21331E+00 3.73597E-13-1.14023E-14
 -1      3663 2.02386E+01 3.24187E-01-2.20105E-03 1.43127E-02 9.92483E-14-2.86446E-15
 -1      3664 2.02702E+01 4.32275E-01 3.54538E-03 9.06036E-02 9.86575E-14-7.06737E-15
 -1      3665 2.01335E+01 1.06614E-02-3.94794E-05-1.71428E-01 5.85516E-14 1.76483E-14
 -1      3666 2.01486E+01 3.60095E-02 1.19735E-03-1.58521E-01 9.88104E-15 3.16093E-14
 -1      3667 2.01768E+01 9.01536E-03-7.82358E-04-1.62379E-01 4.85213E-14-2.96324E-14
 -1      3668 2.00866E+01-1.19805E-02-3.62879E-04-1.81888E-01 4.16528E-14 4.19621E-14
 -1      3669 2.00660E+01-1.76537E-02 6.20979E-04-1.88243E-01 2.79661E-14 3.81150E-14
 -1      3670 2.00695E+01-2.37765E-02-5.43149E-05-1.87514E-01 5.30167E-14 2.00670E-14
 -1      3671 2.05524E+01-1.78039E+00-2.55975E-02 2.69899E+00-1.95887E-14 6.74383E-13
 -1      3672 2.51858E+01-3.27515E+00-5.33922E-02 2.63910E-01-1.40745E-13 2.25128E-14
 -1      3673 2.03111E+01 8.27375E-01 4.89510E-03 3.27221E-01 1.35983E-13-5.57510E-14
 -1      3674 2.02958E+01 1.10344E+00 1.51345E-03 3.93570E-01 1.19328E-13-6.61009E-14
 -1      3675 2.02573E+01 1.36624E+00 1.09771E-03-5.39472E-01-7.49569E-14-1.27219E-13
 -1      3676 2.03176E+01 1.02686E+00-1.44186E-03 2.52753E-01 9.64212E-14-5.66114E-14
 -1      3677 2.02877E+01 1.27292E+00-2.26981E-03 3.70321E-01 1.12727E-13-7.42182E-14
 -1      3678 2.02495E+01 1.48526E+00 1.79184E-03 3.06488E-01 1.04675E-13-6.93537E-14
 -1      3679 2.29925E+01-2.97105E+00 5.02272E-02 1.94251E+00-3.96013E-13 5.62416E-13
 -1      3680 2.37818E+01-3.32045E+00 1.15093E-02 1.49178E+00-2.90524E-13 4.18151E-13
 -1      3681 2.00906E+01-2.45621E-02 2.64624E-04-1.85884E-01 6.94323E-14 4.64254E-14
 -1      3682 2.01434E+01-1.92125E-02-6.07027E-04-1.74256E-01 9.37245E-14 6.12188E-14
 -1      3683 2.00841E+01-2.60984E-02 4.63347E-04-1.87120E-01 4.66797E-14 3.85667E-14
 -1      3684 1.99598E+01 5.46801E-01 2.09657E-03 1.50619E+00 1.49495E-13 7.51215E-13
 -1      3685 1.94951E+01 6.56956E-01-3.80871E-03 1.54028E+00 1.20650E-13 5.15620E-13
 -1      3686 1.97006E+01 5.88606E-01 1.60137E-03 1.57299E+00 7.20405E-14 9.06374E-13
 -1      3687 1.27116E+01 3.62601E-01 5.34600E-02-1.85274E+00 1.12449E-13 5.52031E-13
 -1      3688 1.40786E+01 3.80748E-01 3.39959E-02-1.95619E+00 2.13672E-13 3.18773E-13
 -1      3689 1.25427E+01 5.54738E-01 2.58503E-02-1.01492E+00 4.31543E-14 4.79592E-13
 -1      3690 2.01444E+01 1.92444E+00 4.93881E-03-9.48419E-02 1.25207E-14-1.24473E-13
 -1      3691 1.54929E+01-8.09715E-01 7.35879E-02-3.64725E+00 2.84302E-13 2.03547E-13
 -1      3692 1.70221E+01-1.46418E+00-3.55370E-02-3.83957E+00 3.18059E-13 6.43374E-14
 -1      3693 1.55317E+01-2.80231E-01 2.12525E-02-2.99310E+00 2.05957E-13 2.76593E-13
 -1      3694 2.02083E+01 1.64004E+00-3.71834E-03 1.31236E-01 6.43937E-14-1.16506E-13
 -1      3695 2.02051E+01 1.65994E+00-3.04855E-03 4.14965E-02 2.99223E-14-1.26801E-13
 -1      3696 1.09186E+01 3.15037E-01 1.35771E-01 1.35231E+00 5.60233E-14 2.88977E-13
 -1      3697 1.17458E+01 5.48301E-01 4.61530E-02 2.91213E-01 3.97807E-14 2.87721E-13
 -1      3698 1.19250E+01 8.32206E-02 4.85465E-02 2.09821E+00 4.18337E-14 2.25410E-13
 -1      3699 2.02020E+01 1.68266E-01-1.04558E-03-8.45076E-02 6.86608E-14 2.15153E-14
 -1      3700 2.02279E+01 2.39355E-01 2.54607E-03-3.76641E-02 9.80997E-14 1.32515E-14
 -1      3701 2.02874E+01 3.36091E-01-1.02794E-04 6.69388E-03 8.32399E-14 1.87281E-14
 -1      3702 2.39220E+01-3.93568E+00 8.32905E-02-2.29530E+00 3.42586E-13-1.17050E-13
 -1      3703 2.78350E+01-5.78415E-01-2.22678E-02-1.85831E+00-5.21257E-13 5.03514E-13
 -1      3704 2.02400E+01 1.49083E+00-1.31186E-03-3.43564E-01-4.48773E-14-1.16900E-13
 -1      3705 2.02537E+01 1.40704E+00-1.36370E-03-4.11615E-01-7.48007E-14-1.48704E-13
 -1      3706 2.03081E+01 1.29124E+00 7.14592E-03-2.49191E-01-4.04627E-14-1.13133E-13
 -1      3707 2.44725E+01-3.55945E+00 4.29038E-02 1.32174E+00-2.68133E-13 2.23352E-13
 -1      3708 1.48862E+01-7.48499E-01 3.30814E-02-3.60957E+00-1.74652E-13 2.42167E-14
 -1      3709 1.54386E+01-1.39987E+00 9.74949E-02-4.22794E+00-2.42265E-13-3.91909E-14
 -1      3710 1.71760E+01-1.78754E+00 4.09959E-02-3.99570E+00-2.58486E-13-6.89726E-15
 -1      3711 2.03025E+01 9.78121E-01-1.12919E-03-3.06220E-01-9.45164E-14-1.31468E-13
 -1      3712 2.03241E+01 9.61419E-01-1.73556E-03-2.48164E-01-8.47361E-14-1.53863E-13
 -1      3713 2.02325E+01 1.53663E+00-3.89409E-03 2.61776E-01 8.84590E-14-1.00404E-13
 -1      3714 2.02230E+01 1.59586E+00-1.24323E-03 1.81061E-01 7.26333E-14-1.14566E-13
 -1      3715 2.02989E+01 1.37793E+00 6.91749E-03 1.11835E-01 5.65366E-14-9.50492E-14
 -1      3716 2.03118E+01 1.26252E+00 3.88490E-03 1.93909E-01 8.83763E-14-7.65172E-14
 -1      3717 1.89243E+01 9.11298E-01-1.15298E-02 1.29062E+00 2.03792E-13 1.91945E-13
 -1      3718 1.92035E+01 8.16024E-01 9.61632E-03 1.44509E+00 1.01749E-13 1.12071E-13
 -1      3719 1.92769E+01 6.15825E-01-4.48282E-03 1.62219E+00 7.72823E-14 4.03060E-13
 -1      3720 1.94220E+01 6.82561E-01-4.55986E-03-1.53638E+00 3.29117E-13-5.66029E-14
 -1      3721 2.02464E+01 5.88516E-01-2.12676E-03 2.36697E-01 1.47129E-13-1.31954E-14
 -1      3722 1.91720E+01 6.48507E-01-3.67589E-03-1.60020E+00 1.72642E-13 1.62311E-13
 -1      3723 2.17925E+01-2.95214E+00-2.73305E-02 2.71106E+00-1.71798E-13 6.91355E-13
 -1      3724 2.33145E+01-3.98552E+00-3.61894E-02 2.51216E+00-4.67650E-13 6.39499E-13
 -1      3725 2.24958E+01-3.61742E+00 6.85967E-02 2.97717E+00-4.01613E-13 5.86640E-13
 -1      3726 2.02960E+01 1.18682E+00 1.52937E-03-4.24948E-01-7.71010E-14-1.30269E-13
 -1      3727 1.86802E+01-3.91231E-01 2.09374E-02-2.56553E+00 3.23047E-13 1.16573E-15
 -1      3728 1.85513E+01-7.45858E-02-6.04874E-03-2.33873E+00 3.47492E-13 6.79885E-14
 -1      3729 2.03393E+01 2.28204E-01 1.23167E-03 5.11940E-02-6.50508E-14-5.27240E-14
 -1      3730 2.03187E+01 1.56694E-01-9.81299E-04 8.21320E-02-7.29024E-14-2.50253E-14
 -1      3731 2.02771E+01 6.17756E-01-3.41110E-03 1.93853E-01 1.16353E-13-3.89246E-14
 -1      3732 2.03026E+01 1.01276E-01 9.76672E-04 1.00024E-01-5.63706E-14 1.57602E-14
 -1      3733 2.02808E+01 5.73585E-02-4.44390E-04 1.17868E-01-3.96000E-14 1.01712E-14
 -1      3734 2.03445E+01 1.49993E-01-8.51868E-05 7.46118E-02-3.25289E-14 1.57453E-15
 -1      3735 2.02599E+01 2.53485E-02 6.53148E-04 1.27228E-01-3.82771E-14 1.70240E-14
 -1      3736 2.02390E+01 2.07626E-03-5.57906E-05 1.36555E-01-2.54701E-14 3.93896E-14
 -1      3737 2.03036E+01 5.29016E-02-3.03751E-04 1.04056E-01-3.99704E-14 3.78169E-14
 -1      3738 2.02159E+01-1.25706E-02 3.54103E-04 1.40742E-01-2.69281E-15 3.39927E-14
 -1      3739 2.01966E+01-2.04278E-02 2.10785E-04 1.45290E-01-1.15747E-14 3.11751E-14
 -1      3740 2.02577E+01 5.17179E-04-3.83338E-04 1.19777E-01-8.99709E-15 7.71434E-14
 -1      3741 2.01725E+01-2.20443E-02 8.46063E-05 1.47055E-01-2.44169E-14 2.61552E-14
 -1      3742 2.01548E+01-1.82102E-02 3.85598E-04 1.49824E-01-1.23225E-14 2.50518E-14
 -1      3743 2.02101E+01-1.83077E-02-3.70582E-04 1.27652E-01-1.05177E-14 5.09799E-14
 -1      3744 2.01303E+01-9.83566E-03-1.60446E-04 1.51394E-01-4.14353E-14 3.49810E-15
 -1      3745 2.01138E+01 3.10712E-03 4.91121E-04 1.54749E-01-6.30558E-14-3.25255E-15
 -1      3746 2.01622E+01-1.15625E-02-2.84274E-04 1.32548E-01-4.66457E-14 5.06332E-14
 -1      3747 2.00886E+01 1.94196E-02-3.94697E-04 1.57875E-01-5.92912E-14-2.70600E-15
 -1      3748 2.00727E+01 3.98054E-02 5.51593E-04 1.63685E-01-5.67581E-14 3.70418E-14
 -1      3749 2.01142E+01 1.51476E-02-1.33657E-04 1.38361E-01-6.07810E-14 7.05787E-14
 -1      3750 2.00459E+01 6.27965E-02-6.30717E-04 1.69796E-01-2.36936E-14 4.76862E-14
 -1      3751 2.00295E+01 8.96219E-02 5.85033E-04 1.79612E-01-1.35437E-14 6.43198E-14
 -1      3752 2.00647E+01 5.81032E-02 5.95735E-05 1.48168E-01-3.52814E-14 1.20053E-13
 -1      3753 2.00000E+01 1.18524E-01-8.78721E-04 1.89945E-01-5.88603E-14 8.81530E-14
 -1      3754 1.99820E+01 1.51166E-01 5.97112E-04 2.05083E-01-7.53755E-14 8.65901E-14
 -1      3755 2.00115E+01 1.15069E-01 2.98713E-04 1.64570E-01-2.99812E-14 4.66306E-14
 -1      3756 1.99480E+01 1.85469E-01-1.15197E-03 2.20714E-01-2.62707E-14 1.03812E-13
 -1      3757 1.99271E+01 2.23496E-01 5.97394E-04 2.42319E-01-4.16288E-14 7.84576E-14
 -1      3758 1.99518E+01 1.84602E-01 5.76807E-04 1.89799E-01-3.69801E-14 7.69129E-14
 -1      3759 1.98867E+01 2.62776E-01-1.45905E-03 2.64256E-01-3.82629E-14 1.18640E-13
 -1      3760 1.98613E+01 3.05683E-01 5.95453E-04 2.93391E-01-7.30053E-14 1.64327E-13
 -1      3761 1.98819E+01 2.65705E-01 9.01800E-04 2.25794E-01-1.14444E-14 1.62658E-13
 -1      3762 1.98122E+01 3.49230E-01-1.80280E-03 3.22655E-01-9.19150E-14 2.02290E-13
 -1      3763 1.97807E+01 3.96072E-01 5.99189E-04 3.60305E-01-5.51830E-14 2.17666E-13
 -1      3764 1.97976E+01 3.57224E-01 1.27206E-03 2.74471E-01-3.23625E-14 1.80719E-13
 -1      3765 1.97205E+01 4.42569E-01-2.19373E-03 3.97944E-01-2.66364E-14 2.56269E-13
 -1      3766 1.96814E+01 4.91631E-01 6.29447E-04 4.45054E-01-1.60385E-14 2.55686E-13
 -1      3767 1.96943E+01 4.57188E-01 1.69958E-03 3.37735E-01-2.80290E-14 2.70584E-13
 -1      3768 1.96074E+01 5.38747E-01-2.64584E-03 4.92271E-01-5.97043E-14 2.47632E-13
 -1      3769 1.95593E+01 5.87073E-01 7.26646E-04 5.49854E-01-1.61692E-14 2.06737E-13
 -1      3770 1.95669E+01 5.62063E-01 2.17250E-03 4.17643E-01-3.75874E-14 2.79950E-13
 -1      3771 1.94688E+01 6.30898E-01-3.17815E-03 6.08248E-01 6.18402E-17 1.46051E-13
 -1      3772 1.94114E+01 6.73690E-01 9.68588E-04 6.77592E-01-3.20917E-14 1.69640E-13
 -1      3773 1.94100E+01 6.65958E-01 2.68272E-03 5.16817E-01-1.74111E-14 2.67920E-13
 -1      3774 1.93017E+01 7.08034E-01-3.82470E-03 7.49573E-01-5.19021E-14 1.43601E-13
 -1      3775 1.92362E+01 7.37900E-01 1.49525E-03 8.32635E-01-1.02108E-13 7.89781E-14
 -1      3776 1.92187E+01 7.59486E-01 3.20815E-03 6.39118E-01-6.50245E-14 1.80557E-13
 -1      3777 1.91054E+01 7.53386E-01-4.63595E-03 9.22193E-01-8.11524E-14 6.98673E-14
 -1      3778 1.90360E+01 7.59370E-01 2.53592E-03 1.02228E+00-5.00542E-14 1.92729E-13
 -1      3779 1.89885E+01 8.28454E-01 3.69760E-03 7.90910E-01-7.28037E-14 5.76265E-14
 -1      3780 1.88833E+01 7.42267E-01-5.66714E-03 1.13620E+00-6.43643E-14 2.02351E-13
 -1      3781 1.88198E+01 7.08511E-01 4.40893E-03 1.25887E+00-5.64826E-14 1.86989E-13
 -1      3782 1.87168E+01 8.52089E-01 4.02387E-03 9.83221E-01-3.50690E-14 6.00842E-14
 -1      3783 1.86471E+01 6.39287E-01-6.90248E-03 1.40839E+00-6.72163E-14 1.27209E-13
 -1      3784 1.86092E+01 5.43399E-01 7.73183E-03 1.56223E+00-3.00712E-14 1.54054E-13
 -1      3785 1.84049E+01 8.00406E-01 3.86426E-03 1.23500E+00-9.83888E-14 1.81908E-13
 -1      3786 1.84249E+01 3.94154E-01-7.88503E-03 1.76527E+00-7.65667E-14 1.32604E-13
 -1      3787 1.84482E+01 2.05235E-01 1.34056E-02 1.96066E+00-5.04250E-14 5.32610E-14
 -1      3788 1.80607E+01 6.29476E-01 2.25235E-03 1.57694E+00-6.06530E-14 1.67231E-13
 -1      3789 1.82783E+01-6.38168E-02-6.42209E-03 2.24416E+00 8.12188E-14-4.62126E-14
 -1      3790 1.84204E+01-3.94238E-01 2.16717E-02 2.49004E+00 1.58331E-13-8.84507E-14
 -1      3791 1.77133E+01 2.81380E-01 1.14133E-03 2.05487E+00-2.09005E-14 1.01956E-13
 -1      3792 2.02088E+01 1.64254E+00-3.53496E-03-1.25098E-01-1.67781E-14-1.15364E-13
 -1      3793 2.02983E+01 1.39349E+00 8.27641E-03-1.33185E-01-2.64386E-14-1.06657E-13
 -1      3794 2.02051E+01 1.66068E+00-3.03471E-03-3.48322E-02 1.65482E-14-1.17294E-13
 -1      3795 2.01658E+01 6.91885E-02-4.02943E-04-1.41979E-01 4.70496E-16 4.08665E-14
 -1      3796 2.01862E+01 1.13495E-01 1.84501E-03-1.15507E-01 2.96485E-14 2.43537E-14
 -1      3797 2.02520E+01 1.72675E-01-7.65192E-04-8.24570E-02 4.65586E-14 3.58827E-14
 -1      3798 1.90511E+01 5.72948E-01 7.71572E-04-1.69037E+00 7.57500E-14 2.60859E-13
 -1      3799 1.89078E+01-1.99673E+00 3.84450E-02-3.71352E+00 3.44244E-13-5.96762E-14
 -1      3800 1.87415E+01 1.96011E-01 1.07320E-02-2.09051E+00 1.64483E-13 1.10548E-13
 -1      3801 1.87525E+01 4.11172E-01-5.43633E-03-1.89775E+00 6.87874E-14 2.23190E-13
 -1      3802 1.80624E+01 2.24410E-01-1.70311E-02-2.15790E+00 2.56196E-13-6.29705E-15
 -1      3803 1.99106E+01 2.64909E-01 8.12931E-04-3.06398E-01-2.77693E-14 1.56409E-13
 -1      3804 1.99268E+01 2.26075E-01-1.39348E-03-2.76876E-01-2.90186E-14 1.41975E-13
 -1      3805 1.99599E+01 1.90799E-01 7.71708E-04-2.54030E-01-5.89936E-14 1.27375E-13
 -1      3806 1.99733E+01 1.56519E-01-1.11136E-03-2.32441E-01-7.64966E-14 1.52895E-13
 -1      3807 1.99186E+01 2.31088E-01 6.93868E-04-2.44717E-01-3.11017E-14 5.24475E-14
 -1      3808 1.97756E+01 4.33603E-01 9.36219E-04-4.63755E-01-2.33181E-14 1.23272E-13
 -1      3809 1.98011E+01 3.88849E-01-2.05460E-03-4.15388E-01-2.63536E-14 1.51689E-13
 -1      3810 1.96840E+01 5.20584E-01 1.07028E-03-5.72761E-01 2.33111E-14 1.41591E-13
 -1      3811 1.97154E+01 4.76400E-01-2.43897E-03-5.13667E-01 7.91609E-15 1.19377E-13
 -1      3812 1.96643E+01 5.02917E-01 1.75350E-03-4.50232E-01 1.76438E-14 3.46531E-14
 -1      3813 1.95735E+01 5.99469E-01 1.33308E-03-7.04886E-01 1.46243E-14 8.86216E-14
 -1      3814 1.96107E+01 5.60428E-01-2.85884E-03-6.34216E-01 1.91476E-14 1.21149E-13
 -1      3815 1.95380E+01 5.98503E-01 2.14549E-03-5.56697E-01 2.02372E-14 9.04773E-15
 -1      3816 1.94445E+01 6.57158E-01 1.84954E-03-8.63101E-01 1.48257E-14 1.66277E-13
 -1      3817 1.94857E+01 6.30455E-01-3.31273E-03-7.79795E-01 1.97334E-14 1.15324E-13
 -1      3818 1.93849E+01 6.83987E-01 2.49936E-03-6.86966E-01-1.54700E-14 4.79405E-14
 -1      3819 1.93018E+01 6.73663E-01 2.82850E-03-1.05202E+00 1.00910E-13 1.99702E-13
 -1      3820 1.93420E+01 6.70175E-01-3.79051E-03-9.54452E-01 4.92496E-14 2.29909E-13
 -1      3821 1.92032E+01 7.45079E-01 2.72725E-03-8.46084E-01-4.34432E-15 1.11273E-13
 -1      3822 1.91582E+01 6.19450E-01 4.54908E-03-1.27922E+00 4.53852E-14 2.15415E-13
 -1      3823 1.91867E+01 6.55162E-01-4.24505E-03-1.16478E+00 1.14211E-13 2.52103E-13
 -1      3824 1.89944E+01 7.60390E-01 2.64797E-03-1.04256E+00 3.78939E-14 2.67309E-13
 -1      3825 1.90410E+01 4.52260E-01 7.30059E-03-1.55617E+00-7.24040E-14 2.08134E-13
 -1      3826 1.90375E+01 5.49913E-01-4.53227E-03-1.42129E+00-2.86657E-14 2.27641E-13
 -1      3827 1.87665E+01 6.98384E-01 1.84718E-03-1.29079E+00 5.14812E-14 2.68311E-13
 -1      3828 1.90026E+01 1.15178E-01 1.19009E-02-1.89672E+00-1.16495E-13 9.65126E-14
 -1      3829 1.89311E+01 3.04897E-01-4.18591E-03-1.73871E+00-6.13312E-14 1.57582E-13
 -1      3830 1.85403E+01 5.13543E-01-4.05522E-04-1.61323E+00-4.98321E-14 2.00228E-13
 -1      3831 1.91264E+01-4.73235E-01 1.47659E-02-2.31557E+00-1.12517E-13 7.64629E-14
 -1      3832 1.89381E+01-1.44450E-01-9.22720E-04-2.13439E+00-1.40722E-13 1.14044E-13
 -1      3833 1.83581E+01 1.43281E-01-5.00893E-03-2.04094E+00-8.66899E-14 1.84491E-13
 -1      3834 1.95097E+01-1.43592E+00-1.57279E-03-2.83673E+00-1.82460E-13 3.88413E-14
 -1      3835 1.91886E+01-8.14837E-01 3.15442E-02-2.60682E+00-1.15870E-13 1.15413E-13
 -1      3836 1.83243E+01-5.14730E-01-1.04118E-02-2.60879E+00-1.05525E-13 1.22305E-13
 -1      3837 2.03680E+01 7.11604E-01 4.58517E-03-1.47977E-01-7.56734E-14-1.16463E-13
 -1      3838 2.03567E+01 5.53157E-01-2.14306E-03-7.38440E-02-8.52266E-14-1.07621E-13
 -1      3839 1.92641E+01 4.61741E-01 5.32592E-03 1.75984E+00 6.68592E-14 3.07933E-13
 -1      3840 1.91273E+01 1.64943E-01-5.84060E-03 2.03421E+00 9.93112E-14 4.77167E-13
 -1      3841 1.92291E+01-6.70686E-02 1.95676E-02 2.19224E+00 8.78312E-14 5.63798E-13
 -1      3842 1.78848E+01 1.08090E+00 9.01050E-03-9.63502E-01 1.18330E-13-6.03107E-14
 -1      3843 1.76803E+01 1.13739E+00-1.07410E-02-6.26767E-01 9.84430E-14 1.28122E-13
 -1      3844 2.03180E+01 6.36326E-01 9.74922E-04 1.65982E-01 8.94877E-14-3.49822E-14
 -1      3845 1.34520E+01 6.96205E-01-4.56454E-03 1.27962E+00 1.56495E-13 5.78357E-15
 -1      3846 1.28206E+01 9.28825E-01 5.24609E-02 1.87436E-01 9.62104E-14-2.75682E-14
 -1      3847 1.94628E+01-1.25633E+00 7.39237E-03 2.92959E+00-2.05804E-13 7.47852E-13
 -1      3848 1.99363E+01-1.82550E+00 2.09590E-02 3.07838E+00-4.18112E-14 7.07153E-13
 -1      3849 1.84512E+01 1.15586E+00-8.82930E-03 8.09707E-01 1.52743E-13 1.41797E-15
 -1      3850 1.86553E+01 1.08389E+00 8.30897E-03 1.05433E+00 1.62630E-13 1.80307E-13
 -1      3851 1.81488E+01 1.16108E+00 6.80085E-03 7.08440E-01 8.34977E-14-7.16687E-14
 -1      3852 1.91438E+01-2.23903E+00 5.44763E-03-3.60276E+00-2.80592E-13 1.91375E-13
 -1      3853 1.85957E+01 6.55701E-01 8.09079E-03-1.67215E+00 5.82097E-14 3.54265E-14
 -1      3854 1.91480E+01-4.01924E-01-4.08587E-03 2.45662E+00 1.19426E-14 5.19394E-13
 -1      3855 1.93903E+01-7.74714E-01 2.15355E-02 2.61596E+00-1.17716E-13 6.27405E-13
 -1      3856 1.85672E+01-8.10406E-01 7.67329E-03 2.95232E+00-1.12273E-13 8.04014E-13
 -1      3857 1.85719E+01-4.37640E-02 7.70810E-03 2.36243E+00 5.73773E-14 6.30567E-13
 -1      3858 2.02929E+01 1.42264E+00 6.98426E-03-1.82606E-03 4.23626E-15-9.30088E-14
 -1      3859 1.82713E+01-7.78981E-01-5.18754E-03 2.83977E+00 1.28484E-13-8.03663E-14
 -1      3860 1.87013E+01-1.58399E+00 2.05918E-02 3.27878E+00 2.03527E-13-1.31875E-13
 -1      3861 1.73528E+01-1.11193E+00 4.41909E-02 3.51372E+00 2.02733E-13-3.13170E-14
 -1      3862 1.74364E+01-3.02556E-01 1.53627E-03 2.69021E+00 1.35000E-13-1.35454E-13
 -1      3863 2.03626E+01 4.23393E-01 1.29237E-03-2.82777E-02-7.15107E-14-9.15887E-14
 -1      3864 2.03469E+01 3.15581E-01-1.53339E-03 2.11413E-02-6.27565E-14-5.85414E-14
 -1      3865 2.03743E+01 3.05974E-01 1.55496E-04 2.46373E-02-4.97108E-14-3.12774E-14
 -1      3866 1.84446E+01-1.34562E+00 3.09313E-02-3.35369E+00 3.73621E-13-4.45847E-14
 -1      3867 2.03412E+01 9.25017E-01-3.41461E-03-1.95688E-01-7.22094E-14-1.31617E-13
 -1      3868 1.81698E+01-8.02364E-01 1.04538E-02-3.04793E+00 3.00252E-13-3.75589E-14
 -1      3869 1.98502E+01 3.46750E-01 8.62917E-04-3.75636E-01-7.75862E-14 1.45569E-13
 -1      3870 1.98705E+01 3.04180E-01-1.70643E-03-3.37152E-01-4.06334E-14 1.36170E-13
 -1      3871 1.97671E+01 4.06444E-01 1.36827E-03-3.64314E-01-2.82307E-14 1.38467E-13
 -1      3872 2.00716E+01 2.69827E-02 6.36316E-04-1.76223E-01-4.18844E-14 1.04741E-13
 -1      3873 2.00831E+01 9.20845E-03-3.70114E-04-1.71090E-01 6.95364E-15 6.75073E-14
 -1      3874 2.03398E+01 9.86470E-01-3.82282E-03-1.53142E-01-6.56048E-14-9.90824E-14
 -1      3875 2.03454E+01 5.53688E-01-1.35619E-03 7.86790E-02 5.49882E-14-4.20428E-14
 -1      3876 2.03532E+01 7.57980E-01-1.83753E-03 1.79763E-01 6.46190E-14-6.10599E-14
 -1      3877 2.03577E+01 9.24456E-01 1.89325E-03 1.61695E-01 6.47785E-14-5.02540E-14
 -1      3878 1.75811E+01 1.20044E+00-2.97388E-03-1.85182E-01 5.20967E-14 8.24729E-14
 -1      3879 1.75732E+01 1.19530E+00-8.15703E-03 1.87680E-01 1.85970E-14 6.86485E-14
 -1      3880 1.73234E+01 1.14735E+00 1.28044E-02-4.47815E-01 9.59413E-14 1.73251E-13
 -1      3881 1.30291E+01 9.27352E-01 3.41797E-02-4.35995E-01 2.00057E-14 1.14438E-13
 -1      3882 1.35576E+01 8.41038E-01 4.47969E-02-1.23347E+00-9.53465E-14 2.46650E-13
 -1      3883 1.40992E+01 9.92984E-01 2.13904E-02-1.63890E-01 8.04586E-14 2.02743E-13
 -1      3884 1.63569E+01-4.95618E-01-1.74315E-02 3.06676E+00 2.10526E-13-1.93953E-13
 -1      3885 1.37316E+01 2.42476E-01-5.13821E-03-2.32720E+00-1.21599E-13 1.78822E-13
 -1      3886 1.43062E+01-1.45107E-01 8.91306E-02-3.07082E+00-1.10535E-13 1.32810E-13
 -1      3887 1.56490E+01-5.93512E-01 2.18602E-02-3.31155E+00-9.69442E-14 6.74790E-14
 -1      3888 2.02136E+01 6.89518E-02-9.19982E-04-1.35129E-01 4.02805E-14 2.94497E-14
 -1      3889 1.98505E+01 3.14742E-01 1.01170E-03-2.96514E-01-2.04159E-14 1.23945E-13
 -1      3890 2.07398E+01-2.61183E+00 4.60593E-02 3.27731E+00-1.07701E-13 4.89866E-13
 -1      3891 2.14501E+01-3.31168E+00 9.06558E-03 3.28036E+00-2.88155E-13 4.68071E-13
 -1      3892 2.01049E+01-4.69598E-03 5.52371E-04-1.68315E-01 6.43758E-14 5.12959E-14
 -1      3893 2.01175E+01-1.54162E-02-1.27404E-04-1.65611E-01 6.33640E-14 6.73128E-14
 -1      3894 2.01109E+01 5.48346E-03-2.21663E-04-1.55038E-01 3.38845E-14 1.19391E-13
 -1      3895 1.99754E+01 1.57238E-01 4.10622E-04-2.06864E-01-6.89936E-14 1.43594E-13
 -1      3896 2.00014E+01 1.25844E-01 7.34488E-04-2.16419E-01-8.16134E-14 1.65277E-13
 -1      3897 2.00131E+01 9.65852E-02-8.51887E-04-2.01639E-01-1.01963E-13 1.42794E-13
 -1      3898 1.74591E+01-3.75742E-01-2.23789E-04-2.67288E+00-1.23763E-13 1.70638E-13
 -1      3899 1.74308E+01 4.08163E-02-5.38322E-03-2.33390E+00-4.36383E-14 1.61532E-13
 -1      3900 2.03817E+01 5.39309E-01-1.91199E-04-5.25222E-02-5.40566E-14-7.78318E-14
 -1      3901 1.82122E+01 7.91277E-01-9.52454E-03-1.44742E+00 6.02027E-14-1.06888E-14
 -1      3902 1.73478E+01-3.21684E-01 9.35518E-03-2.84352E+00 3.01443E-13 1.42807E-14
 -1      3903 1.87835E+01 4.94467E-01-1.06870E-02 1.80653E+00 9.39470E-14 2.04865E-13
 -1      3904 2.01134E+01-2.43702E-02-4.93558E-04-1.78791E-01 5.91531E-14 9.77314E-14
 -1      3905 2.03424E+01 1.06359E+00-4.88345E-03-7.28083E-02-2.13600E-14-7.79812E-14
 -1      3906 2.03455E+01 1.03002E+00-4.82443E-03-1.27351E-01-5.16959E-14-7.05545E-14
 -1      3907 2.04020E+01 7.35021E-01 6.16702E-03-8.60819E-02-6.28971E-14-7.94099E-14
 -1      3908 2.01752E+01-2.04773E-02 2.30701E-04-1.59910E-01 8.29355E-14 3.36885E-14
 -1      3909 2.01920E+01-1.11748E-02 4.63946E-04-1.55197E-01 6.64279E-14-4.74394E-15
 -1      3910 1.27456E+01 7.25428E-01 5.97168E-02-3.92358E-01 1.87970E-14 4.17597E-13
 -1      3911 1.38308E+01 7.64082E-01 1.89941E-02-7.85841E-01 1.42955E-13 4.47880E-13
 -1      3912 1.30678E+01 7.05157E-01 2.74068E-03 3.96226E-01 7.45905E-14 3.42223E-13
 -1      3913 1.93969E+01-2.54224E+00 4.09173E-04 3.85425E+00-2.41598E-13 4.11808E-13
 -1      3914 1.80315E+01-2.37450E+00 7.55605E-02 4.41765E+00-5.09103E-13 4.07670E-13
 -1      3915 1.68805E+01-1.70664E+00 5.10206E-03 4.07448E+00-3.10724E-13 2.76685E-13
 -1      3916 1.99859E+01-2.23508E+00 6.83025E-03 3.33692E+00-7.28081E-14 5.99676E-13
 -1      3917 1.42089E+01 6.32755E-01 6.98840E-02 1.87772E+00 1.61773E-13 7.58144E-14
 -1      3918 1.42671E+01 8.39141E-01-1.17855E-02 1.09015E+00 1.15947E-13 6.88113E-14
 -1      3919 1.51169E+01 2.45737E-01 8.78482E-03 2.34485E+00 1.67970E-13-1.55154E-14
 -1      3920 1.30756E+01-4.28197E-02 1.04264E-01 2.82756E+00 1.37772E-14 2.10318E-14
 -1      3921 1.31317E+01 3.65628E-01 1.97344E-02 1.79271E+00 2.79655E-14 9.32171E-14
 -1      3922 1.44134E+01-4.63843E-01 1.64070E-02 3.22413E+00-1.80475E-13-2.08240E-13
 -1      3923 1.87123E+01-1.68785E+00 2.35152E-02 3.58804E+00-1.87839E-13 4.43731E-13
 -1      3924 1.86576E+01 9.17183E-01 4.82415E-03 1.29021E+00 1.41909E-13 2.28880E-13
 -1      3925 1.55550E+01 3.79109E-01 4.31285E-02-2.18356E+00 2.68364E-13 1.57586E-13
 -1      3926 1.65054E+01-6.13170E-02-1.09747E-02-2.56635E+00 2.68987E-13 1.00447E-13
 -1      3927 1.72054E+01 2.72288E-01 3.64488E-03-2.19543E+00 2.60134E-13-5.56697E-14
 -1      3928 2.03336E+01 1.12941E+00-4.51520E-03 1.09011E-01 5.27918E-14-7.95409E-14
 -1      3929 2.03291E+01 1.17360E+00-3.52582E-03 6.43959E-02 3.15900E-14-6.72008E-14
 -1      3930 2.02133E+01 4.72335E-03 6.59430E-06-1.49959E-01 3.30375E-14-4.23537E-15
 -1      3931 2.02331E+01 2.85743E-02 7.79450E-04-1.39548E-01 4.68097E-14 3.49800E-15
 -1      3932 2.02388E+01 2.87739E-03-5.46287E-04-1.35552E-01 5.31273E-14-1.51702E-15
 -1      3933 2.00378E+01 7.09396E-02 6.93033E-04-1.91316E-01-1.46605E-13 1.37337E-13
 -1      3934 2.00489E+01 4.71231E-02-6.06711E-04-1.82081E-01-1.19226E-13 1.16823E-13
 -1      3935 2.00244E+01 9.42974E-02 1.72226E-04-1.80864E-01-1.23060E-13 1.47075E-13
 -1      3936 2.03356E+01 3.17280E-01-8.82009E-04-2.11706E-02 5.02289E-14 3.89216E-15
 -1      3937 2.03511E+01 4.20198E-01 3.14536E-05 3.54218E-02 4.16333E-14-4.40756E-14
 -1      3938 2.03874E+01 5.35139E-01 1.08489E-03 4.78348E-02 3.16138E-14-5.43616E-14
 -1      3939 2.03460E+01 1.09037E+00-3.09340E-03 1.76221E-02 1.25289E-14-6.84491E-14
 -1      3940 2.03465E+01 1.08554E+00-3.74748E-03-3.97270E-02-5.66513E-15-8.75829E-14
 -1      3941 2.04145E+01 7.98648E-01 6.02418E-03-4.26033E-02-1.54915E-14-5.79974E-14
 -1      3942 2.00687E+01 4.32705E-02-3.13701E-05-1.64436E-01-8.46515E-14 1.52569E-13
 -1      3943 1.78237E+01 8.02792E-01 6.78311E-03-1.41472E+00 3.33392E-17-9.99114E-15
 -1      3944 1.73776E+01-9.71742E-01 7.60503E-03-3.32444E+00-2.04465E-13 1.32875E-13
 -1      3945 1.63898E+01-3.84303E-01 8.79201E-03-3.02914E+00-1.25769E-13 1.15467E-13
 -1      3946 2.03976E+01 8.98272E-01 3.81996E-03 1.92192E-02 1.77198E-14-3.47499E-14
 -1      3947 2.04031E+01 3.74899E-01 3.53317E-04 1.55493E-03-2.33669E-14-5.22632E-14
 -1      3948 2.03909E+01 2.75079E-01-1.00686E-03 3.31206E-02-4.11254E-14-5.03201E-14
 -1      3949 1.67929E+01-1.22902E-01 2.13677E-02 2.62417E+00 7.77520E-14-1.62705E-13
 -1      3950 1.59469E+01 7.34420E-02 3.69620E-02 2.61135E+00 1.35219E-13-2.03878E-13
 -1      3951 1.68501E+01 1.48745E-01-2.45026E-02 2.29267E+00 7.73053E-14-7.72095E-14
 -1      3952 2.03808E+01 1.93912E-01 6.28241E-04 4.92515E-02-4.01692E-14-3.81134E-14
 -1      3953 2.03610E+01 1.28618E-01-6.65120E-04 6.93177E-02-3.38612E-14-1.16361E-14
 -1      3954 2.04061E+01 2.56646E-01 4.32044E-04 2.95020E-02-2.03174E-14-3.86723E-14
 -1      3955 2.03420E+01 7.84443E-02 5.22517E-04 7.84567E-02-3.97887E-14-1.10449E-14
 -1      3956 2.03187E+01 3.99752E-02-2.62489E-04 9.01786E-02-2.17116E-14 4.17587E-15
 -1      3957 2.03727E+01 1.17180E-01 5.36177E-05 5.60238E-02-3.13358E-14-4.43513E-14
 -1      3958 2.02946E+01 1.27360E-02 3.53501E-04 9.47709E-02 1.04408E-14-1.16189E-14
 -1      3959 2.02703E+01-5.48687E-03 2.16649E-05 1.01159E-01 1.26467E-14 3.53494E-14
 -1      3960 2.03269E+01 3.39178E-02-2.18050E-04 7.14743E-02-3.93809E-15 2.56910E-15
 -1      3961 2.02434E+01-1.53291E-02 1.64007E-04 1.03136E-01-1.02333E-14 3.27103E-14
 -1      3962 2.02191E+01-1.81492E-02 2.01956E-04 1.06815E-01-2.07610E-14 2.43717E-14
 -1      3963 2.02748E+01-6.42522E-03-3.31541E-04 7.97918E-02-6.14501E-15 4.70333E-14
 -1      3964 2.01906E+01-1.47112E-02-1.42683E-05 1.07899E-01-3.56790E-14 3.24940E-14
 -1      3965 2.01665E+01-5.63803E-03 3.02165E-04 1.10971E-01-7.41917E-14 4.46924E-14
 -1      3966 2.02194E+01-1.38120E-02-2.84998E-04 8.44730E-02-3.72823E-14 3.46905E-14
 -1      3967 2.01368E+01 8.06747E-03-2.09153E-04 1.12580E-01-4.97798E-14 8.22980E-14
 -1      3968 2.01126E+01 2.65600E-02 3.36902E-04 1.16621E-01-5.08729E-15 9.59841E-14
 -1      3969 2.01621E+01 4.16022E-03-1.42282E-04 8.84096E-02-1.87443E-14 8.99672E-14
 -1      3970 2.00811E+01 4.87365E-02-4.24606E-04 1.19766E-01-3.72084E-14 1.92612E-14
 -1      3971 2.00559E+01 7.51787E-02 3.33936E-04 1.26161E-01-7.55111E-14-1.12730E-15
 -1      3972 2.01026E+01 4.20848E-02 1.24984E-05 9.38366E-02-5.64150E-14-3.13954E-15
 -1      3973 2.00214E+01 1.04639E-01-6.44287E-04 1.31788E-01-4.85859E-14-2.01212E-14
 -1      3974 1.99938E+01 1.38093E-01 3.00220E-04 1.41671E-01-2.22887E-14-1.52536E-14
 -1      3975 2.00390E+01 9.70201E-02 2.70616E-04 1.02629E-01-6.92626E-14-7.72453E-14
 -1      3976 1.99547E+01 1.74083E-01-8.98893E-04 1.50601E-01 1.44177E-15-2.24077E-16
 -1      3977 1.99231E+01 2.13893E-01 2.20056E-04 1.64929E-01 7.36885E-16 2.80368E-14
 -1      3978 1.99684E+01 1.66888E-01 6.14634E-04 1.16423E-01-1.00587E-14-6.17309E-14
 -1      3979 1.98772E+01 2.55883E-01-1.21231E-03 1.77852E-01 2.48204E-14 4.37850E-14
 -1      3980 1.98396E+01 3.01666E-01 1.30495E-04 1.97467E-01-1.37504E-14 7.22234E-14
 -1      3981 1.98871E+01 2.50199E-01 9.79882E-04 1.36639E-01 9.57516E-15-2.12193E-14
 -1      3982 1.97843E+01 3.49176E-01-1.56638E-03 2.15193E-01-1.81783E-14 1.38701E-13
 -1      3983 1.97385E+01 4.00205E-01 2.71669E-05 2.40986E-01-6.02890E-15 1.68841E-13
 -1      3984 1.97901E+01 3.45886E-01 1.34392E-03 1.64344E-01 2.94950E-14 3.63894E-14
 -1      3985 1.96710E+01 4.52207E-01-1.96504E-03 2.64248E-01-1.52943E-14 1.86776E-13
 -1      3986 1.96145E+01 5.07238E-01-7.92967E-05 2.97040E-01-4.08828E-15 2.10662E-13
 -1      3987 1.96723E+01 4.52731E-01 1.85965E-03 2.01237E-01-1.27637E-14 1.26113E-13
 -1      3988 1.95312E+01 5.62111E-01-2.45197E-03 3.26722E-01-4.00124E-14 1.54772E-13
 -1      3989 1.94614E+01 6.19086E-01-1.72646E-04 3.67506E-01-5.64099E-14 8.18383E-14
 -1      3990 1.95275E+01 5.68089E-01 2.44980E-03 2.48467E-01-4.25683E-14 4.77077E-14
 -1      3991 1.93585E+01 6.74072E-01-3.06141E-03 4.04836E-01-5.27658E-14 1.51749E-13
 -1      3992 1.92730E+01 7.29638E-01-2.16018E-04 4.54979E-01-1.09617E-14 1.02270E-13
 -1      3993 1.93483E+01 6.88007E-01 3.14575E-03 3.07904E-01-6.31590E-14 3.09751E-14
 -1      3994 1.91458E+01 7.80410E-01-3.86956E-03 5.01798E-01-7.58048E-14 7.63462E-14
 -1      3995 1.90422E+01 8.29513E-01-1.39289E-04 5.63494E-01-1.46751E-13 4.26291E-15
 -1      3996 1.91268E+01 8.06149E-01 3.98405E-03 3.82226E-01-6.43419E-14 1.85748E-14
 -1      3997 1.88851E+01 8.69662E-01-5.00986E-03 6.22881E-01-8.88472E-14 2.11361E-14
 -1      3998 1.87621E+01 9.05067E-01 1.85258E-04 6.99959E-01-5.41866E-14 6.19041E-14
 -1      3999 1.88534E+01 9.13252E-01 5.02519E-03 4.75836E-01-1.03823E-13-6.16578E-14
 -1      4000 1.85676E+01 9.25473E-01-6.70598E-03 7.77354E-01-6.56615E-14 1.79270E-14
 -1      4001 1.84254E+01 9.37127E-01 9.77327E-04 8.76623E-01-8.74026E-14 5.43099E-14
 -1      4002 1.85164E+01 9.96519E-01 6.36741E-03 5.96538E-01-7.78479E-14 3.52313E-14
 -1      4003 1.81832E+01 9.25160E-01-9.25763E-03 9.81769E-01-7.50869E-14 5.37757E-14
 -1      4004 1.80260E+01 8.99102E-01 2.74529E-03 1.11499E+00-4.70933E-14 1.07233E-13
 -1      4005 1.80998E+01 1.03878E+00 8.12107E-03 7.58530E-01-7.75715E-14-4.23657E-14
 -1      4006 1.77224E+01 8.37978E-01-1.24588E-02 1.26550E+00-1.01590E-13 7.11891E-14
 -1      4007 1.75587E+01 7.54731E-01 7.30779E-03 1.45224E+00-6.77782E-14 8.33075E-14
 -1      4008 1.75802E+01 1.01627E+00 9.72420E-03 9.86855E-01-8.16572E-14 6.08225E-14
 -1      4009 1.72833E+01 5.99566E-01-1.82593E-02 1.68505E+00-1.05368E-13 3.17223E-14
 -1      4010 1.71460E+01 4.34575E-01 1.57436E-02 1.95334E+00-4.64237E-14 8.57680E-15
 -1      4011 1.65417E+01 5.80379E-01 2.13320E-02 1.87674E+00-8.83735E-14-9.77563E-14
 -1      4012 1.70262E+01 8.73263E-01 8.10470E-03 1.34510E+00-1.23121E-13 1.21656E-14
 -1      4013 1.92102E+01 7.58931E-01 4.88134E-04-6.31562E-01-9.90630E-15 1.43070E-14
 -1      4014 1.92918E+01 7.13306E-01-3.56584E-03-5.64786E-01 1.00381E-15 1.39216E-14
 -1      4015 1.98798E+01 2.67351E-01 3.63016E-04-2.22893E-01 1.38173E-14 1.02472E-13
 -1      4016 1.99099E+01 2.24948E-01-1.19590E-03-2.01773E-01-3.64506E-14 8.59942E-14
 -1      4017 1.74228E+01 5.22427E-01 2.96347E-03-1.89658E+00 1.67481E-13-1.83240E-13
 -1      4018 1.97944E+01 3.58747E-01 3.16669E-04-2.71271E-01-4.41561E-14 1.45944E-13
 -1      4019 1.98309E+01 3.11277E-01-1.52393E-03-2.43205E-01 4.09867E-14 1.58538E-13
 -1      4020 1.98310E+01 3.11318E-01 1.15935E-03-1.97522E-01-1.31374E-14 1.41303E-13
 -1      4021 2.04053E+01 7.91439E-01 1.80668E-03 3.53861E-02 2.69659E-14-4.43626E-14
 -1      4022 2.04177E+01 7.04589E-01-1.94125E-03-5.68579E-04 1.85533E-14-3.45485E-14
 -1      4023 1.94026E+01 6.66146E-01 2.88875E-04-5.11051E-01 4.07081E-14-8.78743E-15
 -1      4024 1.94706E+01 6.14113E-01-2.88637E-03-4.56210E-01 2.70666E-14 2.65672E-14
 -1      4025 1.92519E+01 7.44962E-01 3.43684E-03-4.57390E-01 3.94131E-15 3.20889E-14
 -1      4026 1.95608E+01 5.62854E-01 2.40858E-04-4.13091E-01 1.02952E-14 2.64091E-14
 -1      4027 1.96165E+01 5.09503E-01-2.34791E-03-3.68339E-01 5.28508E-14 7.98085E-14
 -1      4028 1.94446E+01 6.33560E-01 2.74388E-03-3.68746E-01 4.73287E-14 2.80644E-14
 -1      4029 1.89799E+01 8.27174E-01 9.86301E-04-7.80668E-01-4.38561E-14 4.36287E-14
 -1      4030 1.90748E+01 7.95480E-01-4.47299E-03-6.98855E-01-3.08596E-14-2.20528E-14
 -1      4031 1.90158E+01 8.44954E-01 4.24038E-03-5.68047E-01-1.12645E-14 5.22498E-14
 -1      4032 1.87100E+01 8.50617E-01 2.06022E-03-9.68871E-01-3.37019E-14 1.27721E-13
 -1      4033 1.88152E+01 8.43594E-01-5.74965E-03-8.66587E-01-5.86970E-14 3.35321E-14
 -1      4034 1.87284E+01 9.19730E-01 5.18427E-03-7.08380E-01-6.29424E-14-7.92389E-15
 -1      4035 1.84031E+01 8.00091E-01 4.06592E-03-1.21460E+00-2.00339E-14 2.52738E-13
 -1      4036 1.85105E+01 8.33261E-01-7.58870E-03-1.08253E+00 1.78225E-14 2.26305E-13
 -1      4037 1.83807E+01 9.50119E-01 6.28594E-03-8.92147E-01-1.00414E-13 2.68530E-14
 -1      4038 1.80721E+01 6.33335E-01 7.72072E-03-1.54771E+00-5.45323E-14 2.52870E-13
 -1      4039 1.81638E+01 7.29063E-01-1.01527E-02-1.37157E+00-3.04026E-14 3.24105E-13
 -1      4040 1.79631E+01 9.08169E-01 7.31366E-03-1.14458E+00-5.33667E-14 1.92271E-13
 -1      4041 1.77406E+01 2.88146E-01 1.15283E-02-2.01239E+00-7.21319E-14 2.22483E-13
 -1      4042 1.77907E+01 4.79180E-01-1.33474E-02-1.77163E+00-8.17512E-14 2.21339E-13
 -1      4043 1.74687E+01 7.52901E-01 8.16448E-03-1.50512E+00-5.60068E-14 2.30811E-13
 -1      4044 1.69250E+01 4.22077E-01 1.78776E-02-2.04704E+00-4.41140E-15 1.89099E-13
 -1      4045 2.04000E+01 6.01968E-01-1.38886E-03-5.93805E-02-4.47537E-14-9.57079E-14
 -1      4046 2.04023E+01 4.66293E-01-5.47632E-04-1.57275E-02-2.52110E-14-5.97806E-14
 -1      4047 2.04185E+01 4.38682E-01 6.73474E-04-5.56625E-03-1.74497E-14-5.53985E-14
 -1      4048 2.04092E+01 6.45511E-01-1.01017E-03-4.61973E-02-3.91567E-14-5.38958E-14
 -1      4049 2.01391E+01-2.17331E-02 4.18887E-04-1.64279E-01 4.79855E-14 7.63974E-14
 -1      4050 2.01536E+01-2.37110E-02 1.39352E-04-1.61873E-01 8.02855E-14 9.56535E-14
 -1      4051 2.01954E+01-1.92701E-02-4.33863E-04-1.44710E-01 5.01374E-14 4.28835E-14
 -1      4052 2.01528E+01-1.66032E-02-3.54485E-04-1.49684E-01 6.51916E-14 9.36130E-14
 -1      4053 2.00649E+01 5.93980E-02 4.52420E-04-1.45527E-01-1.07660E-13 1.19472E-13
 -1      4054 2.00860E+01 3.55917E-02-3.89636E-04-1.39125E-01-5.02641E-14 1.00971E-13
 -1      4055 2.03065E+01 1.59356E-01-2.69627E-04-8.54577E-02 3.15969E-14-1.40659E-14
 -1      4056 2.03265E+01 2.27017E-01 4.75369E-04-5.02170E-02 5.40562E-14-1.85660E-14
 -1      4057 2.03782E+01 3.01734E-01 4.04520E-05-2.58755E-02 4.33434E-14-1.80254E-14
 -1      4058 1.78623E+01 8.86736E-01-9.06836E-03 1.30561E+00 1.75086E-13 4.57648E-14
 -1      4059 1.82465E+01 7.51769E-01 3.67596E-03 1.55335E+00 2.19237E-13 1.12276E-13
 -1      4060 1.80113E+01 4.56182E-01-4.42171E-03 1.89134E+00 1.67943E-13 2.42692E-13
 -1      4061 1.45023E+01 7.30603E-01 3.98066E-02-1.35159E+00 1.31989E-13 4.18094E-13
 -1      4062 1.47119E+01 4.81060E-01 1.26576E-02-1.86124E+00 1.90185E-13 2.15964E-13
 -1      4063 1.57955E+01 6.29468E-01-1.20281E-02-1.64366E+00 3.65226E-13 1.19443E-13
 -1      4064 1.44683E+01 7.91439E-01-1.17736E-02-7.85228E-01 1.11178E-13 3.84776E-13
 -1      4065 1.74991E+01-1.36803E+00 1.31267E-02 3.63789E+00-2.52848E-13 2.26092E-13
 -1      4066 1.57922E+01-8.11567E-01 7.56093E-02 3.69357E+00-1.46001E-13-1.35822E-13
 -1      4067 1.51546E+01-2.68082E-01-1.03001E-02 2.93119E+00-9.66414E-14-1.48817E-13
 -1      4068 1.74385E+01-1.01393E+00-2.34519E-02 3.34138E+00-5.30886E-14 2.52080E-13
 -1      4069 2.03493E+01 9.94073E-01-3.70917E-03 1.56558E-01 7.33296E-14-4.70433E-14
 -1      4070 2.03467E+01 1.06117E+00-5.78225E-04 1.25126E-01 5.76331E-14-6.32339E-14
 -1      4071 2.03841E+01 9.00384E-01 1.30234E-03 7.62659E-02 3.05488E-14-4.44587E-14
 -1      4072 2.03894E+01 7.49916E-01 1.77163E-03 9.21343E-02 4.89991E-14-5.08088E-14
 -1      4073 2.02607E+01 6.09290E-02-1.76743E-04-1.25713E-01 6.52989E-14-2.07455E-14
 -1      4074 2.02822E+01 1.03424E-01 6.60419E-04-1.05260E-01 4.56809E-14-1.33201E-14
 -1      4075 2.03421E+01 1.49451E-01-4.76338E-04-7.54623E-02 4.06268E-14-2.94692E-14
 -1      4076 2.02888E+01 5.61738E-02-7.35506E-04-1.12830E-01 4.68337E-14-1.53241E-14
 -1      4077 1.75307E+01 1.13287E+00-6.27100E-03 5.85813E-01 7.75270E-14-1.23246E-13
 -1      4078 1.77063E+01 1.05317E+00-5.72147E-03 9.23281E-01 1.39457E-13-2.55376E-13
 -1      4079 1.72528E+01 8.99365E-01 1.05845E-02 1.20634E+00 1.15848E-13-1.25000E-13
 -1      4080 1.71430E+01 1.13686E+00 1.09233E-02 3.99653E-01 1.22520E-13-1.88765E-13
 -1      4081 1.96897E+01 4.58414E-01 2.63664E-04-3.34003E-01-1.23041E-14 1.09968E-13
 -1      4082 1.97348E+01 4.07013E-01-1.90236E-03-2.98093E-01-4.82711E-14 1.09019E-13
 -1      4083 1.97277E+01 4.11639E-01 1.61938E-03-2.41237E-01-2.47985E-14 9.71505E-14
 -1      4084 1.69408E+01 8.15035E-01-6.83879E-03-1.38043E+00 2.03983E-13-2.51357E-13
 -1      4085 1.63247E+01 8.30486E-01 1.48797E-02-1.19387E+00 2.34269E-13 2.48360E-14
 -1      4086 1.68140E+01 1.06181E+00-6.40984E-03-6.85231E-01 9.03725E-14 3.02774E-14
 -1      4087 1.66942E+01 1.11425E+00-6.32289E-03-2.37778E-01 2.27622E-13 1.06911E-13
 -1      4088 1.56827E+01 9.53869E-01 1.92833E-02-8.76291E-01 1.53459E-13 2.18650E-13
 -1      4089 1.54830E+01 4.84907E-01-2.73564E-02 1.96076E+00-1.36566E-15 9.50195E-15
 -1      4090 1.46546E+01 1.12274E+00 4.02031E-02 3.19022E-01 9.39884E-14 1.53795E-13
 -1      4091 1.47024E+01 1.08043E+00-1.75079E-02-2.31432E-01 2.08017E-14 3.11222E-13
 -1      4092 1.43916E+01 5.26740E-01-4.98747E-03-1.79336E+00-2.16918E-14 1.61966E-13
 -1      4093 2.04356E+01 5.50661E-01 2.90578E-04 6.78630E-03 2.09327E-14-7.51644E-15
 -1      4094 2.04242E+01 6.45007E-01-1.54917E-04-1.09683E-02 4.44401E-15-2.74704E-14
 -1      4095 2.01148E+01 1.60192E-02 4.25020E-04-1.35688E-01 6.85942E-15 9.16036E-14
 -1      4096 2.01357E+01-1.72664E-04-1.46976E-04-1.31637E-01 3.78858E-14 1.14005E-13
 -1      4097 2.01087E+01 3.01353E-02-1.22173E-04-1.16036E-01-1.14358E-14 1.35705E-14
 -1      4098 1.99162E+01 2.21710E-01 7.47187E-04-1.64781E-01-6.27612E-14 7.47295E-14
 -1      4099 1.99507E+01 1.86284E-01 4.01318E-04-1.87040E-01-5.30018E-14 7.48910E-14
 -1      4100 1.99761E+01 1.49530E-01-9.08897E-04-1.71876E-01-8.81144E-14 1.15791E-13
 -1      4101 1.81823E+01-1.53418E+00 7.24057E-02-3.56303E+00-2.73429E-13 1.45380E-13
 -1      4102 1.50396E+01 9.46149E-01 1.04994E-03 8.88083E-01 1.31873E-13 1.02223E-13
 -1      4103 1.76696E+01-1.53812E-01-2.77136E-02 2.54021E+00-2.18645E-14 3.17813E-13
 -1      4104 1.77489E+01-5.39149E-01 1.20860E-02 2.88554E+00 7.94314E-15 3.36774E-13
 -1      4105 1.67393E+01-1.91281E-01 3.62195E-02 2.83565E+00-2.41569E-14-1.00651E-13
 -1      4106 2.04096E+01 7.15189E-01-7.65158E-04 4.88671E-02 2.73581E-14-3.68905E-14
 -1      4107 1.60420E+01 5.48557E-01-1.93048E-02-1.83371E+00-9.25735E-15 2.11698E-13
 -1      4108 1.63909E+01 7.56668E-01-2.55251E-02-1.49541E+00 8.79465E-14 2.51765E-13
 -1      4109 1.36212E+01 7.31662E-01 5.18006E-02 1.05677E+00 3.06374E-15 2.38051E-13
 -1      4110 1.43381E+01 8.53385E-01 1.71609E-02 4.86639E-01-2.75066E-14 2.50879E-13
 -1      4111 1.43501E+01 5.03047E-01-2.69829E-03 1.71133E+00-3.87766E-14-4.68202E-14
 -1      4112 2.04196E+01 6.24543E-01-1.41127E-03-2.81626E-02-2.34689E-14-3.71832E-14
 -1      4113 1.96010E+01 5.20351E-01 2.14285E-03-2.97642E-01 1.79306E-14 7.13176E-14
 -1      4114 2.03992E+01 5.83648E-01-1.56145E-03 5.56650E-02 2.72880E-14-3.98607E-14
 -1      4115 2.04047E+01 6.66044E-01 1.49349E-03 5.57636E-02 2.69698E-14-3.61885E-14
 -1      4116 2.04027E+01 4.52056E-01 1.74981E-04 1.17048E-02 3.89191E-14-3.99605E-14
 -1      4117 2.02584E+01-2.67310E-03 3.43014E-05-1.18787E-01 5.10750E-14 7.18778E-15
 -1      4118 2.02817E+01 1.74734E-02 4.88643E-04-1.11162E-01 6.86879E-14 2.07140E-14
 -1      4119 2.02110E+01-1.96159E-02 2.30031E-04-1.25752E-01 3.87445E-14 3.40850E-14
 -1      4120 2.02331E+01-1.46504E-02 2.65591E-04-1.21724E-01 3.47790E-14 6.14837E-15
 -1      4121 2.02688E+01-4.11561E-03-4.20319E-04-9.95535E-02 5.68513E-14 2.23924E-14
 -1      4122 1.78680E+01 2.06617E-01 1.86332E-03 2.14674E+00 9.87926E-14 2.98094E-13
 -1      4123 2.00112E+01 1.16621E-01 4.39504E-04-1.61900E-01-9.47423E-14 3.65616E-14
 -1      4124 2.00337E+01 8.60378E-02-6.43810E-04-1.51675E-01-1.17061E-13 9.97182E-14
 -1      4125 2.00514E+01 7.99432E-02 1.81405E-04-1.25675E-01-7.69877E-14 1.15507E-14
 -1      4126 1.99883E+01 1.44292E-01 4.52290E-04-1.41354E-01-1.01344E-13 9.10542E-15
 -1      4127 1.58216E+01 1.40995E-01 4.54455E-02-2.59165E+00-5.41065E-14 1.31643E-13
 -1      4128 1.52778E+01 6.03106E-01-5.68964E-03-1.66391E+00-1.36072E-14 1.57192E-13
 -1      4129 1.50490E+01 1.01347E+00 3.62292E-02-1.01072E+00 6.12135E-14 2.91545E-13
 -1      4130 1.54986E+01 1.06945E+00 1.30354E-02-5.21338E-01 4.11615E-14 3.03492E-13
 -1      4131 2.04254E+01 3.06325E-01-4.01961E-05 1.11652E-02-1.68737E-15-4.75493E-14
 -1      4132 2.04124E+01 2.18698E-01-6.25141E-04 2.83000E-02-1.72435E-14-4.99079E-14
 -1      4133 2.04355E+01 4.81389E-01 1.12409E-03 4.67230E-03 2.02473E-14-1.67729E-14
 -1      4134 2.04389E+01 4.19533E-01-7.10724E-04-3.90486E-03-8.25048E-15 2.83098E-14
 -1      4135 2.03976E+01 1.48262E-01 1.93557E-04 3.29840E-02-1.59250E-14-4.56745E-14
 -1      4136 2.03767E+01 9.27604E-02-3.12250E-04 4.38649E-02-1.49735E-14-1.13641E-14
 -1      4137 2.04148E+01 1.95229E-01 2.81197E-04 1.65626E-02 7.55943E-15-3.14089E-14
 -1      4138 2.03539E+01 5.12027E-02 2.60078E-04 4.62308E-02 4.69277E-15 1.70646E-14
 -1      4139 2.03293E+01 2.05972E-02 1.63363E-04 5.31773E-02 2.30454E-14 1.51495E-14
 -1      4140 2.03744E+01 7.88889E-02-2.16063E-04 2.45698E-02 2.49463E-14-2.54656E-14
 -1      4141 2.03014E+01 1.35502E-04 1.08805E-04 5.31350E-02 6.26932E-15 2.49560E-14
 -1      4142 2.02745E+01-1.09520E-02 2.88375E-04 5.75414E-02-6.00731E-15 3.63741E-14
 -1      4143 2.03241E+01 1.37074E-02-6.65740E-04 2.90478E-02-2.86921E-16-3.94102E-14
 -1      4144 2.02442E+01-1.50103E-02 1.59897E-05 5.71371E-02-2.11878E-14 6.37185E-14
 -1      4145 2.02158E+01-1.14940E-02 1.98059E-04 6.00347E-02-4.21013E-14 5.13490E-14
 -1      4146 2.02669E+01-1.08389E-02-5.36602E-04 3.21068E-02-1.36563E-14-1.71698E-14
 -1      4147 2.01844E+01-2.46275E-03-1.70312E-05 6.04182E-02-3.88192E-14 6.82336E-14
 -1      4148 2.01554E+01 1.21004E-02 2.71349E-04 6.31947E-02-3.75659E-14 7.39520E-14
 -1      4149 2.02055E+01-4.86632E-03-2.44173E-04 3.41510E-02-3.96878E-14 8.55897E-14
 -1      4150 2.01217E+01 3.13322E-02-2.54430E-04 6.35624E-02-1.09812E-13 6.50545E-14
 -1      4151 2.00913E+01 5.55240E-02 2.38259E-04 6.73846E-02-1.43041E-13-1.45213E-14
 -1      4152 2.01425E+01 2.42290E-02-9.07873E-05 3.56567E-02-8.34297E-14 2.96404E-14
 -1      4153 2.00549E+01 8.31704E-02-4.48502E-04 6.90209E-02-8.80946E-14-6.95791E-15
 -1      4154 2.00218E+01 1.15444E-01 1.35306E-04 7.44663E-02-3.83674E-14-1.19464E-14
 -1      4155 2.00745E+01 7.33772E-02 1.63601E-04 3.86887E-02-7.63093E-14 7.40117E-14
 -1      4156 1.99816E+01 1.50525E-01-5.88937E-04 7.76390E-02-2.19365E-14-3.33041E-14
 -1      4157 1.99439E+01 1.89874E-01-7.44399E-05 8.52243E-02-1.80983E-14-3.60010E-14
 -1      4158 2.00007E+01 1.38653E-01 5.45714E-04 4.33506E-02-5.25365E-14 2.13924E-14
 -1      4159 1.98977E+01 2.31972E-01-8.03941E-04 9.01223E-02 2.38699E-14 7.85810E-15
 -1      4160 1.98531E+01 2.77747E-01-3.57773E-04 1.00362E-01 1.82367E-14 1.65069E-15
 -1      4161 1.99175E+01 2.19470E-01 1.26087E-03 5.04368E-02 3.70791E-14-1.93444E-14
 -1      4162 1.97975E+01 3.26550E-01-1.31501E-03 1.07950E-01 5.56904E-14 3.24718E-14
 -1      4163 1.97447E+01 3.78926E-01-3.81785E-04 1.21863E-01 5.41193E-14 1.06193E-13
 -1      4164 1.98179E+01 3.16189E-01 2.23956E-03 6.05937E-02 6.89315E-14 3.25096E-14
 -1      4165 1.96769E+01 4.32633E-01-1.79221E-03 1.31758E-01-7.71890E-15 9.84176E-14
 -1      4166 1.96123E+01 4.90343E-01-6.28548E-04 1.49446E-01 9.83073E-15 1.24805E-13
 -1      4167 1.97004E+01 4.24189E-01 3.53765E-03 7.37348E-02 2.73225E-14-4.43954E-15
 -1      4168 1.95289E+01 5.48542E-01-2.28920E-03 1.62504E-01-5.82630E-14 1.36330E-13
 -1      4169 1.94490E+01 6.10099E-01-9.13960E-04 1.84564E-01-1.26813E-13 7.04122E-14
 -1      4170 1.95555E+01 5.43281E-01 4.84000E-03 9.07186E-02-4.50295E-14 6.87430E-14
 -1      4171 1.93458E+01 6.70746E-01-2.92185E-03 2.01415E-01-8.00107E-14 7.96230E-14
 -1      4172 1.92468E+01 7.33794E-01-1.24816E-03 2.28625E-01-5.60748E-14 5.81453E-14
 -1      4173 1.93765E+01 6.70663E-01 6.42420E-03 1.12396E-01-1.20895E-13-1.17659E-14
 -1      4174 1.91187E+01 7.93827E-01-3.76021E-03 2.50173E-01-7.02251E-14 1.55815E-14
 -1      4175 1.89963E+01 8.54853E-01-1.63553E-03 2.83773E-01-9.85973E-14-4.75770E-14
 -1      4176 1.91544E+01 8.01959E-01 8.43841E-03 1.39715E-01-1.14506E-13-6.55179E-14
 -1      4177 1.88366E+01 9.09844E-01-4.94195E-03 3.11456E-01-8.94243E-14-6.54217E-14
 -1      4178 1.86856E+01 9.64003E-01-2.08983E-03 3.53673E-01-6.48809E-14 1.04492E-14
 -1      4179 1.88784E+01 9.30879E-01 1.11099E-02 1.74253E-01-1.01033E-13-2.40903E-14
 -1      4180 1.84849E+01 1.00797E+00-6.72122E-03 3.89902E-01-6.27869E-14 4.20065E-14
 -1      4181 1.82987E+01 1.04901E+00-2.64911E-03 4.44899E-01-9.30126E-14 3.07468E-14
 -1      4182 1.85341E+01 1.04914E+00 1.48080E-02 2.18703E-01-3.02592E-14 1.57919E-14
 -1      4183 1.80429E+01 1.07442E+00-9.52522E-03 4.93924E-01-9.53146E-14-1.65685E-14
 -1      4184 1.78127E+01 1.09471E+00-3.26142E-03 5.69467E-01-1.19830E-13 1.02378E-14
 -1      4185 1.81008E+01 1.14667E+00 2.00341E-02 2.77613E-01-1.59450E-13 3.61297E-14
 -1      4186 1.74793E+01 1.09264E+00-1.36943E-02 6.39842E-01-1.23135E-13-1.22772E-14
 -1      4187 1.71937E+01 1.08121E+00-3.56572E-03 7.49493E-01-8.24380E-14 2.82749E-14
 -1      4188 1.75439E+01 1.21109E+00 2.65674E-02 3.58369E-01-2.16224E-13 1.67045E-14
 -1      4189 1.96663E+01 4.52412E-01-4.26594E-04-1.97612E-01 2.45941E-14 1.21063E-14
 -1      4190 1.97232E+01 3.97593E-01-1.63980E-03-1.75544E-01 6.25515E-15 7.10122E-14
 -1      4191 1.88399E+01 9.06192E-01-1.21986E-03-4.67355E-01-3.09777E-14 1.59656E-13
 -1      4192 1.89691E+01 8.54487E-01-4.65987E-03-4.14699E-01-3.56632E-14 1.13334E-13
 -1      4193 1.93386E+01 6.85445E-01-8.63241E-04-3.02559E-01 1.90037E-14 3.54966E-14
 -1      4194 1.94250E+01 6.25074E-01-2.75593E-03-2.68229E-01 4.22487E-14 6.93335E-14
 -1      4195 1.80845E+01 1.02285E+00-1.15496E-03-7.42794E-01-1.20271E-13 6.30434E-14
 -1      4196 1.82719E+01 1.00710E+00-8.75322E-03-6.52896E-01-1.23203E-13 6.87799E-14
 -1      4197 1.75691E+01 9.96567E-01 3.67865E-04-9.63968E-01-1.23014E-13 1.56287E-13
 -1      4198 1.77896E+01 1.01430E+00-1.25690E-02-8.36707E-01-1.19479E-13 8.42462E-14
 -1      4199 1.77825E+01 1.14364E+00 2.19616E-02-5.68490E-01-1.32568E-13 7.70037E-14
 -1      4200 1.69239E+01 8.61233E-01 1.30843E-04-1.29757E+00-1.09086E-14 1.94839E-13
 -1      4201 1.71781E+01 9.35788E-01-2.01812E-02-1.10760E+00-4.88407E-14 2.25155E-13
 -1      4202 1.71367E+01 1.14832E+00 2.77060E-02-7.51066E-01-9.06883E-14 2.52741E-13
 -1      4203 1.62964E+01 1.01651E+00 1.85906E-02-1.05806E+00 3.45370E-14 2.72013E-13
 -1      4204 2.03888E+01 2.45638E-01 2.29873E-04-4.15567E-02 3.86439E-14-9.45140E-15
 -1      4205 2.03988E+01 3.36609E-01-6.67358E-04-1.11680E-02 3.32045E-14-3.31241E-14
 -1      4206 2.04144E+01 3.92223E-01 6.08112E-04-2.44460E-03 3.06632E-14-2.38470E-14
 -1      4207 1.60047E+01-2.00549E-02 8.52758E-03 2.60597E+00-4.56582E-14-8.92272E-14
 -1      4208 1.50274E+01 4.05116E-01 4.94995E-02 2.15307E+00-1.07170E-13-1.52583E-13
 -1      4209 1.52699E+01 6.37760E-01 4.07058E-03 1.53805E+00-9.62728E-14-1.58414E-13
 -1      4210 1.63106E+01 2.71463E-01-3.08965E-02 2.19128E+00-1.52875E-13-1.25195E-14
 -1      4211 1.47188E+01 9.91444E-01 3.59607E-02-2.86783E-03 3.25569E-14 2.72445E-13
 -1      4212 1.52333E+01 9.20700E-01 1.46523E-02-5.46433E-01 3.63054E-14 2.61368E-13
 -1      4213 1.57537E+01 1.02470E+00-1.29620E-02-1.58277E-01 1.91160E-13 2.21430E-13
 -1      4214 1.50420E+01 9.01428E-01-3.64888E-03 5.91857E-01-3.56473E-14 1.95113E-14
 -1      4215 1.71944E+01 4.63042E-01 1.32403E-02 1.99596E+00 6.05891E-14 1.09908E-13
 -1      4216 1.54700E+01 9.13874E-01 3.24143E-02 1.29738E+00 3.72821E-14 1.91640E-14
 -1      4217 1.55992E+01 1.06906E+00-7.33362E-03 6.11430E-01 3.34090E-14 7.85288E-14
 -1      4218 1.60528E+01 7.13561E-01 6.64717E-03 1.58771E+00-3.51819E-14-8.69300E-14
 -1      4219 2.04239E+01 5.59152E-01-2.30454E-05 1.71558E-02 4.11563E-14-2.89253E-14
 -1      4220 2.01633E+01-1.16729E-02 3.67047E-04-1.30354E-01 5.41553E-14 9.35265E-14
 -1      4221 2.01843E+01-1.83557E-02 1.77224E-05-1.27277E-01 2.83756E-14 5.61716E-14
 -1      4222 2.02167E+01-1.61715E-02-3.46789E-04-1.05517E-01 5.27562E-15-7.51143E-15
 -1      4223 2.01641E+01-3.20705E-03-3.00752E-04-1.10406E-01 3.86071E-15 9.58252E-15
 -1      4224 1.97855E+01 3.46356E-01-2.01520E-04-1.61199E-01-1.13102E-14 7.99222E-14
 -1      4225 1.98323E+01 2.96698E-01-1.15299E-03-1.43954E-01 7.58101E-15 6.26871E-14
 -1      4226 1.97375E+01 3.92487E-01 2.73526E-03-1.18906E-01-1.27816E-14-7.70688E-14
 -1      4227 2.03209E+01 3.84879E-02-6.11395E-04-8.36059E-02 6.07773E-14 4.83981E-15
 -1      4228 2.03075E+01 4.54995E-02-9.19541E-05-1.00724E-01 4.13770E-14 2.11837E-14
 -1      4229 2.03361E+01 8.14372E-02 2.97972E-04-8.33011E-02 2.60196E-14 9.91164E-15
 -1      4230 1.59543E+01 1.15341E+00-1.88828E-03-3.95918E-01 4.75149E-14 3.17411E-13
 -1      4231 1.91151E+01 8.01744E-01-1.06661E-03-3.75559E-01-7.88405E-15 1.25792E-13
 -1      4232 1.92211E+01 7.43203E-01-3.55579E-03-3.33250E-01 1.45961E-14 8.62336E-14
 -1      4233 1.89814E+01 8.82210E-01 9.14477E-03-2.79156E-01-3.33039E-14 9.77833E-14
 -1      4234 1.85015E+01 9.85646E-01-1.27430E-03-5.85344E-01-4.18409E-14 8.36375E-14
 -1      4235 1.86576E+01 9.47543E-01-6.27317E-03-5.18057E-01 2.55634E-14 1.58068E-13
 -1      4236 1.86672E+01 9.96128E-01 1.20387E-02-3.49655E-01-2.76212E-14 1.21669E-13
 -1      4237 1.82758E+01 1.08773E+00 1.61134E-02-4.42289E-01-7.95371E-14 1.33641E-13
 -1      4238 1.95197E+01 5.66828E-01-6.43978E-04-2.44110E-01 3.14733E-14 3.16960E-14
 -1      4239 1.95897E+01 5.08108E-01-2.14462E-03-2.16372E-01 2.24695E-14 5.80389E-14
 -1      4240 1.94390E+01 6.30116E-01 5.32249E-03-1.80359E-01 1.32570E-14-1.95481E-14
 -1      4241 2.04302E+01 4.15685E-01-6.19890E-04 2.49036E-03 2.25858E-15-3.09299E-14
 -1      4242 2.04356E+01 3.78325E-01 4.99286E-04 2.29446E-03-1.76650E-15 8.43578E-15
 -1      4243 1.62442E+01 1.08013E+00 1.24835E-02 4.19772E-02 2.52381E-13 2.24931E-14
 -1      4244 1.67344E+01 1.11313E+00-3.99039E-03 2.73022E-01 1.31213E-13-1.70580E-13
 -1      4245 1.66761E+01 1.04081E+00-6.06460E-03 6.75386E-01 1.52922E-13-2.96406E-13
 -1      4246 1.58404E+01 1.03033E+00-1.96545E-03 3.58381E-01 1.05378E-13-6.98840E-14
 -1      4247 2.04349E+01 3.12290E-01-1.13267E-04 3.59085E-03-1.46283E-14 1.83748E-14
 -1      4248 1.96040E+01 5.07129E-01 3.96567E-03-1.45805E-01 2.56354E-15-5.54615E-14
 -1      4249 1.98462E+01 2.85420E-01 3.19465E-04-9.72070E-02 2.78045E-14 1.78284E-14
 -1      4250 1.98837E+01 2.50975E-01-3.87452E-05-1.33991E-01-5.32360E-14 1.10047E-13
 -1      4251 1.99227E+01 2.07666E-01-8.00815E-04-1.20882E-01-7.47028E-14 6.47593E-14
 -1      4252 2.04283E+01 4.27792E-01-8.28865E-04 6.20411E-03 1.02893E-14-4.26027E-14
 -1      4253 1.67955E+01 1.21080E+00 2.50148E-02 4.69465E-01-1.28292E-13-3.62562E-14
 -1      4254 1.67478E+01 1.05545E+00-1.38408E-02 8.59095E-01-1.34543E-13 2.60799E-15
 -1      4255 1.61413E+01 1.09948E+00 8.53149E-03 7.75190E-01-9.96635E-14-9.41860E-14
 -1      4256 1.58239E+01 1.15646E+00 3.91441E-03 3.47091E-01 6.28339E-15 1.41266E-13
 -1      4257 1.92347E+01 7.57269E-01 6.99407E-03-2.24033E-01-1.94162E-14 9.33861E-14
 -1      4258 1.68725E+01 7.76557E-01-1.35342E-02 1.44200E+00 9.72861E-14-1.19870E-13
 -1      4259 1.66821E+01 5.22496E-01 9.77795E-03 1.83684E+00-6.75642E-14-3.48107E-14
 -1      4260 1.61135E+01 6.86083E-01 5.76088E-03 1.58835E+00-3.90602E-14-7.95042E-14
 -1      4261 1.67565E+01 9.48373E-01-6.99756E-04 1.03932E+00 8.76244E-14-3.23213E-13
 -1      4262 2.01017E+01 4.28014E-02 2.71513E-04-9.14581E-02-1.16953E-14 2.93120E-14
 -1      4263 2.01303E+01 2.08516E-02-5.63684E-05-8.73345E-02 1.73834E-14 2.42489E-14
 -1      4264 1.62832E+01 8.53164E-01-2.27085E-02 1.29420E+00-1.51554E-13-6.40264E-14
 -1      4265 2.02741E+01-9.32828E-03 9.09903E-05-7.87880E-02 4.29023E-14 1.57345E-14
 -1      4266 2.03014E+01 5.16369E-03 5.54812E-04-7.35622E-02 8.74499E-14 2.96207E-14
 -1      4267 1.64047E+01 1.14708E+00-8.86498E-03-1.94403E-01-1.27680E-14 1.71295E-13
 -1      4268 2.03261E+01 2.59321E-02-1.14328E-04-6.64192E-02 8.40369E-14-8.02620E-15
 -1      4269 2.03537E+01 5.63084E-02 4.07168E-04-5.40894E-02 3.90651E-14-1.33237E-14
 -1      4270 2.03262E+01 1.85694E-02-8.37169E-04-4.42261E-02 6.22103E-14 1.81399E-15
 -1      4271 2.03531E+01 1.24156E-01 2.62035E-04-7.57288E-02 2.92859E-14 1.02689E-14
 -1      4272 2.03764E+01 1.81111E-01-8.22855E-05-5.30257E-02 3.25360E-14 1.38424E-14
 -1      4273 2.03963E+01 2.17593E-01-1.06163E-04-3.85925E-02 4.95101E-15 8.23157E-15
 -1      4274 2.03660E+01 1.10455E-01-5.48498E-04-6.20981E-02 4.30625E-15 1.39310E-14
 -1      4275 2.04323E+01 5.14983E-01 1.63590E-03-1.19486E-02-7.23411E-15-4.00190E-14
 -1      4276 2.00373E+01 9.81092E-02 2.03850E-04-1.00168E-01-8.06209E-14 4.28018E-14
 -1      4277 2.00673E+01 6.83626E-02-3.58568E-04-9.39643E-02-4.37030E-14 4.93307E-14
 -1      4278 2.00873E+01 5.99257E-02-3.55929E-05-6.55173E-02-1.77330E-14 1.04160E-13
 -1      4279 2.03915E+01 9.89011E-02 2.81371E-04 2.44983E-03 1.99560E-14-3.12357E-14
 -1      4280 2.03677E+01 5.56246E-02-2.28333E-05 5.62702E-03 1.49960E-14-6.71650E-14
 -1      4281 2.03320E+01 1.71401E-02 9.15121E-05-1.19696E-02 3.37428E-14-2.33354E-14
 -1      4282 2.03047E+01-1.49914E-03 6.61909E-04-9.79665E-03 3.82235E-14-7.22615E-15
 -1      4283 2.02250E+01-1.02637E-02 3.71364E-05 6.46572E-03-1.07254E-14 1.63690E-14
 -1      4284 2.01940E+01-1.58467E-03 2.78233E-04 7.48980E-03-2.88625E-14 6.93554E-14
 -1      4285 2.01497E+01 1.89896E-02-1.43693E-05-1.38504E-02-5.81903E-14 7.62994E-14
 -1      4286 2.01167E+01 4.01635E-02 1.30474E-04-1.24166E-02-4.10345E-14 8.82827E-14
 -1      4287 2.00823E+01 6.57884E-02-1.26829E-04-1.48949E-02-5.52047E-14 8.74059E-14
 -1      4288 2.00463E+01 9.57253E-02 5.24259E-05-1.38381E-02-3.92935E-14 1.27487E-13
 -1      4289 1.99354E+01 1.96035E-01-6.02294E-04 8.33956E-03-2.74443E-14 2.89853E-14
 -1      4290 1.98884E+01 2.39749E-01-8.20629E-04 1.26237E-02 4.97140E-14 2.54850E-14
 -1      4291 1.98248E+01 2.99203E-01-1.03639E-03-2.41832E-02 6.31361E-14-2.02463E-14
 -1      4292 1.97679E+01 3.49908E-01-1.47191E-03-2.14433E-02 3.18893E-14-6.83806E-14
 -1      4293 1.97046E+01 4.02580E-01-2.32443E-03-3.01592E-02-4.03296E-16-6.47554E-14
 -1      4294 1.96362E+01 4.60069E-01-2.30398E-03-2.63320E-02-4.55902E-14-7.86579E-14
 -1      4295 1.95587E+01 5.17478E-01-3.27451E-03-3.75693E-02-4.43216E-14-3.49036E-14
 -1      4296 1.94746E+01 5.79945E-01-3.18795E-03-3.27174E-02-4.91474E-14-1.02022E-13
 -1      4297 1.93788E+01 6.40443E-01-4.35463E-03-4.68867E-02-6.64656E-14-7.36649E-14
 -1      4298 1.92746E+01 7.05946E-01-4.28841E-03-4.09354E-02-7.62926E-14-9.88134E-14
 -1      4299 1.91556E+01 7.66904E-01-5.71239E-03-5.86597E-02-1.02118E-13 1.37791E-14
 -1      4300 1.90260E+01 8.32595E-01-5.73634E-03-5.13672E-02-8.51709E-14-1.21530E-14
 -1      4301 1.88779E+01 8.90185E-01-7.50951E-03-7.37190E-02-8.16583E-14 3.71619E-14
 -1      4302 1.87159E+01 9.52123E-01-7.72604E-03-6.46244E-02-2.83345E-14 1.10067E-13
 -1      4303 1.85309E+01 1.00116E+00-1.00033E-02-9.34744E-02-4.93849E-14 1.04420E-13
 -1      4304 1.83269E+01 1.05433E+00-1.05580E-02-8.17727E-02-6.83866E-14 1.01873E-13
 -1      4305 1.80937E+01 1.08829E+00-1.35320E-02-1.20290E-01-1.11571E-13 7.82583E-14
 -1      4306 1.78338E+01 1.12688E+00-1.45177E-02-1.04811E-01-2.17347E-13 6.67774E-14
 -1      4307 1.75366E+01 1.13879E+00-1.79443E-02-1.57594E-01-2.04891E-13 1.42172E-13
 -1      4308 1.72015E+01 1.15669E+00-1.86860E-02-1.36588E-01-1.71901E-13 1.59094E-13
 -1      4309 1.64918E+01 9.70417E-01 3.67650E-04 1.07098E+00-1.82546E-13-5.76006E-14
 -1      4310 1.68182E+01 1.15377E+00-1.61080E-02-2.04991E-01-1.27734E-13 2.04739E-13
 -1      4311 2.04255E+01 3.18876E-01 1.76785E-04-1.62215E-02-8.20030E-15-1.33611E-14
 -1      4312 2.04256E+01 2.26077E-01-1.60731E-04-1.18240E-03-3.09907E-15-2.40959E-15
 -1      4313 2.04090E+01 1.53742E-01-2.68542E-04 4.89224E-03 9.19502E-15-2.38023E-14
 -1      4314 2.03983E+01 1.28135E-01-2.90900E-04-1.41332E-02 4.71821E-15 1.43330E-15
 -1      4315 2.04279E+01 2.68880E-01 3.95334E-04-9.35937E-03-3.37005E-14-5.80674E-15
 -1      4316 2.02459E+01-1.55209E-02 2.97360E-04-7.89831E-02 3.79513E-14 3.39159E-16
 -1      4317 2.02720E+01-1.00598E-02-7.30628E-04-5.55847E-02 6.32638E-14 6.68207E-14
 -1      4318 2.02190E+01-1.45887E-02 1.70506E-04-8.22555E-02 6.19736E-15-1.18470E-14
 -1      4319 2.04160E+01 2.32270E-01-3.22577E-04-2.11325E-02-9.56478E-15-8.37807E-15
 -1      4320 1.99661E+01 1.67745E-01 8.37660E-05-1.13980E-01-1.00438E-13 3.70767E-14
 -1      4321 1.99994E+01 1.31006E-01-5.78544E-04-1.04809E-01-1.25519E-13 4.49771E-14
 -1      4322 1.99387E+01 1.96898E-01 5.96183E-04-8.29303E-02-9.72241E-14 8.81317E-14
 -1      4323 2.01642E+01 1.18575E-02-2.79732E-04-4.13486E-02-3.17674E-14 7.10348E-14
 -1      4324 2.01747E+01 1.12846E-03 4.45192E-05-6.74274E-02-1.91642E-14 3.76261E-15
 -1      4325 2.02756E+01-1.08317E-02 2.10267E-04-1.25667E-02 1.04426E-14 1.15626E-14
 -1      4326 1.63877E+01 9.58754E-01 9.48783E-03 9.11097E-01 5.89185E-14-2.97355E-13
 -1      4327 2.02450E+01-1.29125E-02 3.98188E-04-1.13051E-02-3.27815E-15 2.77721E-14
 -1      4328 2.00187E+01 1.19384E-01-4.49518E-04 7.40391E-03-6.61368E-14 8.99835E-14
 -1      4329 1.99792E+01 1.55943E-01-2.67882E-04 9.75511E-03-7.94710E-14 9.91408E-14
 -1      4330 1.99581E+01 1.78053E-01 3.80367E-04-2.83672E-02-7.33664E-14 4.79975E-14
 -1      4331 2.02273E+01-1.14220E-02-3.16669E-04-3.99163E-02-1.40388E-14 2.46154E-14
 -1      4332 1.98557E+01 2.77150E-01 9.11806E-04-6.66272E-02 3.83489E-14-4.32152E-14
 -1      4333 1.56255E+01 8.40480E-01 7.65371E-03 1.17715E+00-1.74006E-14-2.02759E-13
 -1      4334 2.03677E+01 7.54749E-02 6.50889E-04-4.47608E-02 2.67290E-14-1.57050E-14
 -1      4335 2.03857E+01 1.14175E-01-9.83839E-05-3.59422E-02 5.55072E-15 7.33144E-15
 -1      4336 2.04039E+01 1.72294E-01 6.09088E-04-3.45109E-02-1.53015E-14 9.34641E-15
 -1      4337 2.00171E+01 1.20897E-01 2.65127E-04-7.25098E-02-9.55363E-14 1.22470E-13
 -1      4338 1.55627E+01 9.31981E-01 6.20582E-03 8.05742E-01-2.02525E-14-2.33402E-13
 -1      4339 2.02028E+01-9.50102E-03 1.56379E-04-6.45784E-02-4.96686E-14 1.27298E-14
 -1      4340 2.00269E+01 1.11901E-01-1.12014E-04-4.78107E-02-8.72071E-14 1.00386E-13
 -1      4341 1.99903E+01 1.46549E-01 2.58849E-04-5.13050E-02-1.16360E-13 9.02146E-14
 -1      4342 1.99466E+01 1.85013E-01-5.95614E-04-5.46161E-02-1.01879E-13 5.35474E-14
 -1      4343 2.03570E+01 4.17969E-02 8.28281E-04-3.27011E-03 2.82685E-14-4.69622E-14
 -1      4344 2.03661E+01 5.83715E-02-5.78833E-04-2.38340E-02 3.63299E-14-2.75562E-14
 -1      4345 1.99056E+01 2.28089E-01 3.61596E-04-5.97174E-02-3.25416E-14 3.40951E-14
 -3
    1PSTEP                         3           1           1          
  100CL  101 1.000000000        4345                     0    1           1
 -4  TOSTRAIN    6    1
 -5  EXX         1    4    1    1
 -5  EYY         1    4    2    2
 -5  EZZ         1    4    3    3
 -5  EXY         1    4    1    2
 -5  EYZ         1    4    2    3
 -5  EZX         1    4    3    1
 -1         1 1.17647E-04 8.87581E-06-4.92765E-05-1.06062E-04-1.11186E-17 1.80088E-17
 -1         2 3.72173E-05-1.12382E-04 2.02161E-05-2.28863E-07-1.24484E-17-4.10837E-19
 -1         3 9.51208E-05-2.86958E-05-2.83264E-05-1.20685E-07-3.73141E-18-3.59270E-18
 -1         4 9.51215E-05-2.86906E-05-2.83218E-05 1.09962E-07 1.23260E-18 1.07459E-18
 -1         5 1.43327E-04-2.14765E-05-4.25206E-05 3.85301E-05-1.89418E-19 1.34651E-17
 -1         6 1.45391E-04 2.57511E-10-4.41797E-05-5.35255E-05-6.62803E-19 1.18690E-17
 -1         7 9.05891E-05-5.10297E-07-3.90611E-05-2.92582E-05-9.45501E-20 2.85665E-18
 -1         8 8.51118E-05 8.65269E-08-3.63336E-05-2.02815E-05-1.35499E-19-2.78991E-20
 -1         9 8.28064E-05 7.65552E-08-3.53477E-05-1.56515E-05-1.44724E-19-1.59844E-18
 -1        10 8.17732E-05 3.90860E-08-3.48817E-05-1.20911E-05-6.84641E-20-2.41778E-18
 -1        11 8.12601E-05 1.90227E-08-3.46559E-05-9.02395E-06-6.35539E-20-2.84584E-18
 -1        12 8.09948E-05 9.00400E-09-3.45432E-05-6.29228E-06-2.76642E-20-2.96604E-18
 -1        13 8.08567E-05 4.41667E-09-3.44867E-05-3.69074E-06-1.14283E-20-2.91818E-18
 -1        14 8.07994E-05 2.51675E-09-3.44638E-05-1.18547E-06 6.94459E-21-2.86893E-18
 -1        15 8.08014E-05 2.49733E-09-3.44645E-05 1.29066E-06 6.04578E-20-2.75622E-18
 -1        16 8.08631E-05 4.30954E-09-3.44889E-05 3.80113E-06 6.63887E-20-2.60857E-18
 -1        17 8.10062E-05 8.24276E-09-3.45466E-05 6.41499E-06 9.04092E-20-2.37876E-18
 -1        18 8.12764E-05 1.80465E-08-3.46605E-05 9.16624E-06 1.02709E-19-1.96765E-18
 -1        19 8.17971E-05 3.81216E-08-3.48899E-05 1.22698E-05 1.25573E-19-1.32189E-18
 -1        20 8.28291E-05 8.15703E-08-3.53606E-05 1.58826E-05 1.72411E-19-1.57563E-19
 -1        21 8.50765E-05 1.69736E-07-3.63720E-05 2.04925E-05 1.93415E-19 1.90345E-18
 -1        22 9.16267E-05-9.89347E-08-3.87326E-05 2.80048E-05 1.22820E-20 5.63147E-18
 -1        23 1.12950E-04-3.81178E-05-3.53896E-05-4.40417E-06-4.44110E-19 9.49884E-18
 -1        24 9.27757E-05-2.76884E-05-2.89906E-05 3.90982E-07-1.36879E-19 7.57381E-18
 -1        25 8.90848E-05-2.68418E-05-2.69189E-05 3.75615E-07-4.80774E-20 5.70890E-18
 -1        26 8.79749E-05-2.64762E-05-2.63794E-05 2.03719E-07-1.07481E-19 4.24131E-18
 -1        27 8.79943E-05-2.64524E-05-2.63694E-05 1.39460E-07 1.99049E-20 3.24306E-18
 -1        28 8.85207E-05-2.65867E-05-2.65367E-05 1.00310E-07-2.09703E-20 3.12558E-18
 -1        29 8.92681E-05-2.67972E-05-2.67671E-05 7.44354E-08 1.08950E-21 2.42597E-18
 -1        30 9.00864E-05-2.70350E-05-2.70153E-05 5.59263E-08 3.35737E-20 1.93166E-18
 -1        31 9.08923E-05-2.72725E-05-2.72585E-05 4.19438E-08 1.13846E-20 1.58363E-18
 -1        32 9.16418E-05-2.74949E-05-2.74845E-05 3.10602E-08-2.85954E-19 3.98764E-19
 -1        33 9.23155E-05-2.76956E-05-2.76877E-05 2.24899E-08 4.04800E-19 2.17139E-19
 -1        34 9.29105E-05-2.78735E-05-2.78675E-05 1.57557E-08 3.69558E-20 9.04603E-19
 -1        35 9.34359E-05-2.80311E-05-2.80265E-05 1.05492E-08-4.57010E-20 3.48406E-19
 -1        36 9.39095E-05-2.81736E-05-2.81701E-05 6.67397E-09-1.48817E-19-3.52042E-19
 -1        37 9.43561E-05-2.83082E-05-2.83057E-05 4.02597E-09-1.02575E-19-5.73332E-19
 -1        38 9.48066E-05-2.84443E-05-2.84427E-05 2.59213E-09-1.60790E-19-8.01552E-19
 -1        39 9.52982E-05-2.85929E-05-2.85923E-05 2.45884E-09-1.83619E-19-1.25691E-18
 -1        40 9.58743E-05-2.87670E-05-2.87676E-05 3.82672E-09 1.19684E-20-1.08553E-18
 -1        41 9.65850E-05-2.89816E-05-2.89837E-05 7.02834E-09 3.35666E-20-1.46361E-18
 -1        42 9.74872E-05-2.92535E-05-2.92578E-05 1.25425E-08-5.04016E-20-2.25212E-18
 -1        43 9.86434E-05-2.96014E-05-2.96085E-05 2.09919E-08-1.98147E-19-2.06897E-18
 -1        44 1.00118E-04-3.00445E-05-3.00552E-05 3.30941E-08-9.86851E-20-6.46864E-19
 -1        45 1.01972E-04-3.06002E-05-3.06153E-05 4.95039E-08-5.27867E-20-2.83177E-19
 -1        46 1.04246E-04-3.12804E-05-3.12997E-05 7.04296E-08 9.64435E-20-9.23832E-19
 -1        47 1.06938E-04-3.20836E-05-3.21051E-05 9.48242E-08 7.47827E-20-1.19561E-19
 -1        48 1.09959E-04-3.29834E-05-3.30012E-05 1.18887E-07 1.18879E-19 5.41062E-19
 -1        49 1.13082E-04-3.39118E-05-3.39136E-05 1.33707E-07-2.65465E-19-7.34655E-19
 -1        50 1.15867E-04-3.47387E-05-3.47046E-05 1.22574E-07-8.16208E-20-2.34311E-18
 -1        51 1.17616E-04-3.52582E-05-3.51642E-05 6.03515E-08 1.89317E-20-1.32958E-18
 -1        52 1.17414E-04-3.51993E-05-3.50319E-05-7.96015E-08-5.38495E-20-1.22715E-18
 -1        53 1.14364E-04-3.42951E-05-3.40782E-05-3.02888E-07 5.10172E-20-2.40680E-18
 -1        54 1.08117E-04-3.24360E-05-3.22539E-05-5.56908E-07 8.70293E-20-3.19387E-18
 -1        55 9.95392E-05-2.98729E-05-2.98525E-05-7.10823E-07-4.22011E-19-2.94357E-18
 -1        56 9.10275E-05-2.73186E-05-2.75433E-05-6.11241E-07 5.29027E-19-3.47276E-18
 -1        57 8.57800E-05-2.57392E-05-2.61460E-05-2.21980E-07 9.51258E-20-7.14472E-19
 -1        58 8.60549E-05-2.58220E-05-2.62136E-05 2.84625E-07-3.37519E-19-2.86026E-18
 -1        59 9.16585E-05-2.75080E-05-2.76985E-05 6.39222E-07-1.02273E-19-4.12722E-18
 -1        60 1.00078E-04-3.00327E-05-2.99826E-05 6.97185E-07-2.59122E-19-4.13254E-18
 -1        61 1.08122E-04-3.24343E-05-3.22386E-05 5.18133E-07 5.08433E-19-3.24782E-18
 -1        62 1.13568E-04-3.40531E-05-3.38363E-05 2.59123E-07-3.83289E-19-3.88583E-18
 -1        63 1.15731E-04-3.46928E-05-3.45308E-05 4.14885E-08 2.82302E-19-3.82035E-18
 -1        64 1.15065E-04-3.44928E-05-3.44023E-05-9.24136E-08-7.86770E-19-5.03118E-18
 -1        65 1.12489E-04-3.37272E-05-3.36923E-05-1.52780E-07 3.33174E-19-3.83305E-18
 -1        66 1.08914E-04-3.26652E-05-3.26629E-05-1.66438E-07 5.52026E-19-1.24882E-18
 -1        67 1.05046E-04-3.15152E-05-3.15293E-05-1.56334E-07 2.30590E-19-4.79163E-19
 -1        68 1.01380E-04-3.04232E-05-3.04492E-05-1.34582E-07-4.89943E-20 2.00304E-18
 -1        69 9.82790E-05-2.94964E-05-2.95405E-05-1.00662E-07-8.32359E-20 2.23973E-18
 -1        70 9.60775E-05-2.88307E-05-2.88972E-05-3.02609E-08 1.40320E-19 2.01200E-18
 -1        71 9.50934E-05-2.85069E-05-2.85567E-05 7.21461E-08-6.40458E-19 1.73823E-18
 -1        72 1.02155E-04-3.05801E-05-3.41426E-05-1.92786E-06 1.70254E-19 1.26660E-17
 -1        73 9.25316E-05-2.75043E-05-2.88987E-05-3.32968E-07 7.60543E-20 1.03258E-17
 -1        74 8.90719E-05-2.66910E-05-2.69620E-05-1.25739E-07 3.49831E-20 8.46440E-18
 -1        75 8.80048E-05-2.64270E-05-2.64234E-05-9.53487E-08 4.07014E-21 7.59812E-18
 -1        76 8.80290E-05-2.64324E-05-2.63961E-05-7.62151E-08 1.35708E-19 6.75721E-18
 -1        77 8.85543E-05-2.65809E-05-2.65538E-05-6.19926E-08 1.13021E-19 6.08747E-18
 -1        78 8.92989E-05-2.67983E-05-2.67793E-05-5.10156E-08-1.61632E-19 6.55353E-18
 -1        79 9.01135E-05-2.70393E-05-2.70245E-05-4.18481E-08 1.16108E-19 6.69185E-18
 -1        80 9.09156E-05-2.72781E-05-2.72656E-05-3.38556E-08-1.31386E-19 5.43801E-18
 -1        81 9.16612E-05-2.75008E-05-2.74899E-05-2.67668E-08 1.87508E-19 4.55867E-18
 -1        82 9.23311E-05-2.77012E-05-2.76918E-05-2.04588E-08 8.88286E-20 3.16773E-18
 -1        83 9.29225E-05-2.78783E-05-2.78704E-05-1.48581E-08 1.37328E-19 2.64308E-18
 -1        84 9.34447E-05-2.80349E-05-2.80286E-05-9.90543E-09-7.02265E-20 2.86120E-18
 -1        85 9.39154E-05-2.81762E-05-2.81714E-05-5.55163E-09-1.68212E-20 3.18363E-18
 -1        86 9.43593E-05-2.83096E-05-2.83065E-05-1.76686E-09 1.55047E-19 2.12038E-18
 -1        87 9.48076E-05-2.84444E-05-2.84432E-05 1.44185E-09-3.07147E-19 1.29394E-18
 -1        88 9.52972E-05-2.85917E-05-2.85926E-05 4.00679E-09-5.73819E-20 9.18601E-19
 -1        89 9.58716E-05-2.87645E-05-2.87678E-05 5.76724E-09 5.76909E-19-7.03386E-19
 -1        90 9.65811E-05-2.89777E-05-2.89841E-05 6.42619E-09-2.83302E-19-2.38235E-18
 -1        91 9.74825E-05-2.92483E-05-2.92585E-05 5.49332E-09 1.39036E-19-1.62456E-18
 -1        92 9.86385E-05-2.95948E-05-2.96097E-05 2.21541E-09-2.77836E-19-4.68912E-20
 -1        93 1.00114E-04-3.00366E-05-3.00571E-05-4.49420E-09 2.21597E-19 8.85439E-19
 -1        94 1.01968E-04-3.05911E-05-3.06177E-05-1.60875E-08-2.53448E-20-9.72682E-19
 -1        95 1.04243E-04-3.12702E-05-3.13025E-05-3.42739E-08-3.00730E-20-9.76172E-20
 -1        96 1.06933E-04-3.20726E-05-3.21073E-05-6.05510E-08 5.69835E-19 5.84810E-19
 -1        97 1.09951E-04-3.29720E-05-3.30010E-05-9.49651E-08-1.25838E-19-6.77190E-19
 -1        98 1.13063E-04-3.39005E-05-3.39074E-05-1.33501E-07-2.01501E-19 3.06533E-19
 -1        99 1.15826E-04-3.47283E-05-3.46865E-05-1.63785E-07-5.14762E-19-7.23287E-20
 -1       100 1.17534E-04-3.52492E-05-3.51263E-05-1.60625E-07-2.96743E-20-2.12589E-19
 -1       101 1.17266E-04-3.51912E-05-3.49666E-05-8.69633E-08-1.21652E-19-1.94971E-18
 -1       102 1.14133E-04-3.42844E-05-3.39827E-05 8.93976E-08 1.51946E-19-5.06344E-18
 -1       103 1.07800E-04-3.24112E-05-3.21362E-05 3.55163E-07-6.62836E-20-3.10716E-18
 -1       104 9.91641E-05-2.98123E-05-2.97324E-05 6.08073E-07 1.34341E-19-1.38410E-18
 -1       105 9.06511E-05-2.72027E-05-2.74470E-05 6.75835E-07 2.05023E-19-2.21870E-19
 -1       106 8.54869E-05-2.55786E-05-2.60973E-05 4.42644E-07-5.16867E-19-1.08784E-18
 -1       107 8.59195E-05-2.56713E-05-2.62158E-05-4.96204E-09 4.73898E-19-4.11175E-18
 -1       108 9.16826E-05-2.74229E-05-2.77351E-05-4.19163E-07 5.44105E-19-7.97955E-18
 -1       109 1.00193E-04-3.00310E-05-3.00234E-05-6.04547E-07 1.56761E-19-7.32101E-18
 -1       110 1.08240E-04-3.24915E-05-3.22589E-05-5.45331E-07-6.58175E-19-6.21174E-18
 -1       111 1.13630E-04-3.41268E-05-3.38277E-05-3.55199E-07 2.13405E-19-3.88171E-18
 -1       112 1.15720E-04-3.47502E-05-3.44992E-05-1.54668E-07-3.34777E-19-4.61178E-18
 -1       113 1.14993E-04-3.45206E-05-3.43588E-05-5.91052E-09 9.84737E-19-4.01617E-18
 -1       114 1.12382E-04-3.37271E-05-3.36466E-05 8.16897E-08-3.04780E-19-4.36655E-18
 -1       115 1.08795E-04-3.26453E-05-3.26211E-05 1.23414E-07 1.61548E-20-3.52192E-18
 -1       116 1.04929E-04-3.14837E-05-3.14940E-05 1.38104E-07 1.66705E-19-2.91185E-18
 -1       117 1.01274E-04-3.03863E-05-3.04217E-05 1.38873E-07 3.57855E-19-8.40574E-18
 -1       118 9.81910E-05-2.94584E-05-2.95222E-05 1.29104E-07 5.09438E-19-1.11176E-17
 -1       119 9.60209E-05-2.88004E-05-2.88899E-05 8.87621E-08-1.21099E-21-1.27254E-17
 -1       120 9.51002E-05-2.84888E-05-2.85577E-05-3.61490E-08 1.35489E-18-1.00073E-17
 -1       121 9.52597E-05-2.86349E-05-2.85669E-05-7.66733E-08-7.41729E-18 8.80245E-19
 -1       122 9.49693E-05-2.77003E-05-2.89048E-05 4.69282E-08-4.05019E-18-1.48392E-18
 -1       123 9.43416E-05-2.56016E-05-2.95089E-05 1.12863E-07-7.96052E-19-1.64037E-19
 -1       124 9.35220E-05-2.28570E-05-3.02984E-05 1.36085E-07-4.98425E-18 6.87009E-19
 -1       125 9.26572E-05-1.99527E-05-3.11414E-05 1.32129E-07-2.39814E-18-6.20408E-19
 -1       126 9.18880E-05-1.73612E-05-3.18971E-05 1.10812E-07-2.95367E-18 1.99671E-18
 -1       127 9.12951E-05-1.53670E-05-3.24793E-05 7.33961E-08 1.86918E-18 1.57025E-18
 -1       128 9.09770E-05-1.42962E-05-3.27918E-05 2.55999E-08-5.20978E-19-1.41083E-18
 -1       129 9.09782E-05-1.43001E-05-3.27906E-05-2.59133E-08 3.42333E-18 2.19794E-18
 -1       130 9.12989E-05-1.53790E-05-3.24757E-05-7.36554E-08 2.22382E-18-1.82762E-18
 -1       131 9.18931E-05-1.73802E-05-3.18915E-05-1.12139E-07-5.44925E-18-6.07146E-19
 -1       132 9.26655E-05-1.99785E-05-3.11339E-05-1.32697E-07-5.61427E-18 2.59700E-18
 -1       133 9.35316E-05-2.28882E-05-3.02892E-05-1.36013E-07-2.63190E-18 4.85431E-19
 -1       134 9.43480E-05-2.56370E-05-2.95001E-05-1.22221E-07 1.94498E-18 5.80123E-19
 -1       135 9.49701E-05-2.76945E-05-2.88984E-05-6.82299E-08 2.19191E-19-1.52990E-18
 -1       136 9.52091E-05-2.85932E-05-2.85601E-05 1.48680E-07-1.39653E-18 3.24774E-19
 -1       137 2.60031E-05-8.92543E-05 1.61315E-05-2.42052E-05-2.93878E-18 1.09265E-18
 -1       138 8.55656E-06-3.38505E-05 2.94634E-06-1.63097E-05 7.37469E-18 3.50799E-18
 -1       139 1.07341E-05 1.46615E-05-1.45967E-05 2.24906E-05 1.28707E-17 9.78069E-18
 -1       140 5.88792E-05 2.75454E-05-3.56276E-05 7.92379E-05 1.04092E-17 1.08302E-17
 -1       141 1.49765E-04-4.88506E-06-5.55980E-05 1.12675E-04 7.73998E-18 1.43420E-17
 -1       142 2.47421E-04-5.77222E-05-7.07989E-05 9.26319E-05 4.01261E-18 1.40671E-17
 -1       143 3.06713E-04-9.36159E-05-7.87011E-05 2.16933E-05 6.77362E-19 6.42289E-18
 -1       144 2.88250E-04-8.24760E-05-7.61968E-05-6.10788E-05-3.87266E-19 9.65194E-19
 -1       145 1.98183E-04-2.99217E-05-6.35019E-05-1.09835E-04 3.63102E-18-6.87198E-18
 -1       146 9.15737E-05 1.70950E-05-4.32353E-05-9.44109E-05 8.85404E-18-1.13926E-17
 -1       147 2.31083E-05 2.00384E-05-2.07559E-05-3.99695E-05 1.22921E-17-9.45416E-18
 -1       148 7.07139E-06-2.13008E-05-9.27722E-07 8.69794E-06 1.24501E-17-7.24213E-18
 -1       149 2.24742E-05-8.10326E-05 1.45085E-05 2.56347E-05 8.38372E-18-3.03105E-18
 -1       150 3.61295E-05-1.10171E-04 1.98824E-05 3.52751E-06 4.29353E-18 5.67141E-19
 -1       151 2.83417E-05-9.31512E-05 1.66534E-05-2.12204E-05-2.10149E-18-1.36935E-18
 -1       152 9.26038E-06-4.15871E-05 5.38827E-06-2.14882E-05-7.31159E-18-3.57882E-18
 -1       153 1.05275E-05 1.10379E-05-1.33818E-05 1.93447E-05-1.22100E-17-9.87090E-18
 -1       154 5.42228E-05 2.68774E-05-3.37896E-05 7.43590E-05-1.21528E-17-1.25119E-17
 -1       155 1.44678E-04-2.77751E-06-5.46386E-05 1.11604E-04-6.98442E-18-1.29139E-17
 -1       156 2.40811E-04-5.42462E-05-6.97487E-05 9.75607E-05-3.09749E-18-8.08451E-18
 -1       157 3.02693E-04-9.12370E-05-7.81798E-05 3.14884E-05-9.45474E-19 3.80095E-18
 -1       158 2.94136E-04-8.59760E-05-7.70480E-05-5.08066E-05-1.40526E-18 1.30291E-17
 -1       159 2.18131E-04-4.05556E-05-6.66905E-05-1.07353E-04-6.82296E-18 1.71084E-17
 -1       160 4.41165E-05 2.76517E-05-3.06135E-05-6.60970E-05-1.20601E-17 1.35928E-17
 -1       161 7.65448E-06 5.24645E-06-1.03028E-05-1.13656E-05-1.34039E-17 7.92124E-18
 -1       162 1.05261E-05-4.52006E-05 6.15927E-06 2.26994E-05-1.15451E-17 6.49261E-18
 -1       163 2.85642E-05-9.37817E-05 1.67625E-05 2.25330E-05-1.07302E-17 1.28566E-18
 -1       164 9.48498E-05-1.23416E-05-3.55637E-05-2.23586E-05-1.57598E-18 1.31772E-18
 -1       165 8.92391E-05-8.45588E-06-3.47834E-05-1.74002E-05-1.52002E-18-5.03323E-19
 -1       166 8.65349E-05-6.49803E-06-3.44137E-05-1.35991E-05-1.18709E-18-1.57250E-18
 -1       167 8.51995E-05-5.52000E-06-3.42326E-05-1.03772E-05-8.51941E-19-2.07615E-18
 -1       168 8.44574E-05-4.94657E-06-3.41454E-05-7.55459E-06-5.61824E-19-2.29124E-18
 -1       169 8.40358E-05-4.60368E-06-3.41041E-05-4.90968E-06-2.76740E-19-2.34835E-18
 -1       170 8.38209E-05-4.42020E-06-3.40870E-05-2.39826E-06 6.54699E-20-2.35079E-18
 -1       171 8.37576E-05-4.36468E-06-3.40826E-05 5.11463E-08 3.34548E-19-2.27709E-18
 -1       172 8.38308E-05-4.42868E-06-3.40878E-05 2.50267E-06 5.86071E-19-2.15132E-18
 -1       173 8.40577E-05-4.62303E-06-3.41054E-05 5.02053E-06 8.61852E-19-1.99122E-18
 -1       174 8.44856E-05-4.97503E-06-3.41456E-05 7.63190E-06 1.10793E-18-1.66862E-18
 -1       175 8.52556E-05-5.57637E-06-3.42332E-05 1.05227E-05 1.44936E-18-1.19945E-18
 -1       176 8.66442E-05-6.60869E-06-3.44172E-05 1.37946E-05 1.64786E-18-4.00223E-19
 -1       177 8.93807E-05-8.59767E-06-3.47883E-05 1.76337E-05 1.75556E-18 1.02709E-18
 -1       178 9.57610E-05-1.36086E-05-3.54197E-05 2.19025E-05 1.60301E-18 3.36383E-18
 -1       179 1.05582E-04-2.60945E-05-3.52563E-05 1.86694E-05 1.09226E-18 6.36524E-18
 -1       180 1.03374E-04-2.72939E-05-3.26038E-05-1.21333E-05-1.32987E-18 3.43782E-18
 -1       181 9.70823E-05-2.82825E-05-2.95210E-05-4.73754E-06-1.16537E-18 2.75045E-18
 -1       182 9.34767E-05-2.76278E-05-2.81730E-05-1.77638E-06-8.20576E-19 2.20898E-18
 -1       183 9.19368E-05-2.73952E-05-2.76253E-05-4.28771E-07-6.79674E-19 1.72153E-18
 -1       184 9.13566E-05-2.73189E-05-2.74264E-05 2.35301E-07-2.62423E-19 1.28752E-18
 -1       185 9.13110E-05-2.73564E-05-2.74004E-05 5.61479E-07-3.13554E-19 1.15355E-18
 -1       186 9.15523E-05-2.74581E-05-2.74649E-05 7.01812E-07-2.12460E-19 1.06471E-18
 -1       187 9.19366E-05-2.75899E-05-2.75753E-05 7.36172E-07-2.84262E-19 9.57266E-19
 -1       188 9.23792E-05-2.77311E-05-2.77056E-05 7.11466E-07-4.57390E-19 9.87406E-19
 -1       189 9.28313E-05-2.78697E-05-2.78405E-05 6.57525E-07-2.66465E-19 1.24281E-18
 -1       190 9.32677E-05-2.79999E-05-2.79720E-05 5.94364E-07 1.08758E-19 3.77287E-19
 -1       191 9.36794E-05-2.81199E-05-2.80971E-05 5.36010E-07-3.41085E-19 1.79345E-20
 -1       192 9.40686E-05-2.82310E-05-2.82161E-05 4.92796E-07-5.42228E-19-2.04200E-20
 -1       193 9.44462E-05-2.83370E-05-2.83323E-05 4.72872E-07-6.87116E-20 3.22810E-19
 -1       194 9.48299E-05-2.84430E-05-2.84509E-05 4.83249E-07-1.91971E-19 4.98391E-19
 -1       195 9.52431E-05-2.85563E-05-2.85790E-05 5.30514E-07-3.55465E-19 3.16472E-19
 -1       196 9.57145E-05-2.86853E-05-2.87252E-05 6.21245E-07-1.84978E-21 3.57943E-19
 -1       197 9.62775E-05-2.88400E-05-2.88997E-05 7.62079E-07-3.40180E-19-2.60060E-19
 -1       198 9.69702E-05-2.90318E-05-2.91137E-05 9.59324E-07-7.30589E-19-3.59259E-19
 -1       199 9.78338E-05-2.92736E-05-2.93796E-05 1.21786E-06-1.49340E-19-1.17289E-18
 -1       200 9.89105E-05-2.95795E-05-2.97097E-05 1.53895E-06 7.60679E-19-1.06597E-18
 -1       201 1.00240E-04-2.99636E-05-3.01146E-05 1.91633E-06-2.51094E-19-1.19562E-18
 -1       202 1.01850E-04-3.04395E-05-3.06013E-05 2.32976E-06 3.95848E-19 8.58661E-20
 -1       203 1.03747E-04-3.10170E-05-3.11682E-05 2.73522E-06 1.02178E-19 6.86957E-19
 -1       204 1.05895E-04-3.16985E-05-3.17997E-05 3.05142E-06-1.06295E-19 2.96758E-19
 -1       205 1.08193E-04-3.24707E-05-3.24576E-05 3.14495E-06-6.73319E-19 1.36501E-19
 -1       206 1.10441E-04-3.32923E-05-3.30735E-05 2.82240E-06-1.16713E-18-5.05649E-19
 -1       207 1.12314E-04-3.40734E-05-3.35453E-05 1.84958E-06 5.53586E-19-1.24814E-18
 -1       208 1.13356E-04-3.46499E-05-3.37459E-05 3.19175E-08 4.89112E-19-6.49618E-20
 -1       209 1.13040E-04-3.47672E-05-3.35568E-05-2.60963E-06-8.00906E-19-3.19704E-19
 -1       210 1.10946E-04-3.41214E-05-3.29287E-05-5.58547E-06-9.08803E-19-1.01615E-18
 -1       211 1.07093E-04-3.25358E-05-3.19485E-05-7.78827E-06-3.63323E-19-1.83365E-18
 -1       212 1.02305E-04-3.02673E-05-3.08655E-05-7.80121E-06 1.42517E-19-2.00773E-18
 -1       213 9.82518E-05-2.81852E-05-3.00240E-05-4.84289E-06 9.93805E-19-2.73018E-18
 -1       214 9.67322E-05-2.73914E-05-2.97151E-05 2.35768E-07-9.89983E-19-3.50183E-18
 -1       215 9.84575E-05-2.83503E-05-3.00412E-05 5.13108E-06-6.63051E-19-3.17302E-18
 -1       216 1.02496E-04-3.04598E-05-3.08659E-05 7.66951E-06-2.22718E-19-3.38294E-18
 -1       217 1.06991E-04-3.26039E-05-3.18775E-05 7.24788E-06-3.08600E-19-3.25472E-18
 -1       218 1.10352E-04-3.39845E-05-3.27342E-05 4.79912E-06 2.66882E-19-3.64293E-18
 -1       219 1.11865E-04-3.44166E-05-3.32049E-05 1.74493E-06 4.61567E-20-1.91705E-18
 -1       220 1.11591E-04-3.41087E-05-3.32221E-05-8.82205E-07 7.63422E-20-1.98337E-18
 -1       221 1.09981E-04-3.33623E-05-3.28497E-05-2.66018E-06 8.61421E-19-3.12676E-19
 -1       222 1.07567E-04-3.24213E-05-3.22139E-05-3.59363E-06 1.40573E-18 1.16953E-19
 -1       223 1.04815E-04-3.14423E-05-3.14486E-05-3.86436E-06 8.54198E-19-2.49261E-19
 -1       224 1.02076E-04-3.05146E-05-3.06673E-05-3.66327E-06 1.62976E-18 1.13179E-19
 -1       225 9.95999E-05-2.96867E-05-2.99584E-05-3.11564E-06 1.38387E-19 2.68844E-19
 -1       226 9.75698E-05-2.89879E-05-2.93867E-05-2.27221E-06 2.73939E-19-6.73180E-21
 -1       227 9.60657E-05-2.84444E-05-2.89763E-05-1.16955E-06 3.14398E-19 8.88437E-20
 -1       228 9.94756E-05-2.85468E-05-3.05797E-05 7.21720E-06 1.18129E-18 5.57891E-18
 -1       229 9.43871E-05-2.77820E-05-2.85157E-05 2.74959E-06 8.92879E-19 4.69241E-18
 -1       230 9.20627E-05-2.73910E-05-2.76714E-05 9.35912E-07 5.66334E-19 3.83746E-18
 -1       231 9.11094E-05-2.72270E-05-2.73512E-05 7.42703E-08 5.73614E-19 3.35022E-18
 -1       232 9.08932E-05-2.72184E-05-2.72757E-05-3.53582E-07 2.88993E-19 3.24793E-18
 -1       233 9.10732E-05-2.73031E-05-2.73232E-05-5.55107E-07-2.91608E-19 3.30874E-18
 -1       234 9.14550E-05-2.74353E-05-2.74334E-05-6.29941E-07 3.61351E-19 2.93198E-18
 -1       235 9.19255E-05-2.75863E-05-2.75719E-05-6.32857E-07 6.14115E-19 2.39283E-18
 -1       236 9.24191E-05-2.77392E-05-2.77189E-05-5.97036E-07 5.15393E-19 1.55109E-18
 -1       237 9.29000E-05-2.78847E-05-2.78631E-05-5.44019E-07 4.50587E-19 1.73449E-18
 -1       238 9.33521E-05-2.80191E-05-2.79995E-05-4.88487E-07 3.96988E-19 1.40182E-18
 -1       239 9.37730E-05-2.81424E-05-2.81272E-05-4.40897E-07-1.05947E-19 1.23959E-18
 -1       240 9.41704E-05-2.82571E-05-2.82483E-05-4.09129E-07 1.30630E-19 1.34047E-18
 -1       241 9.45596E-05-2.83682E-05-2.83674E-05-3.99599E-07 3.58560E-19 9.13197E-19
 -1       242 9.49624E-05-2.84822E-05-2.84910E-05-4.18037E-07 5.28288E-19 1.14257E-18
 -1       243 9.54060E-05-2.86072E-05-2.86273E-05-4.70001E-07 4.06822E-19-9.99750E-20
 -1       244 9.59231E-05-2.87529E-05-2.87863E-05-5.61133E-07 9.30019E-19-1.36708E-19
 -1       245 9.65514E-05-2.89306E-05-2.89791E-05-6.97101E-07 2.31355E-19 1.09790E-19
 -1       246 9.73329E-05-2.91530E-05-2.92185E-05-8.83085E-07-4.87180E-19-5.24533E-19
 -1       247 9.83123E-05-2.94341E-05-2.95178E-05-1.12256E-06-9.08079E-19-3.05528E-19
 -1       248 9.95346E-05-2.97883E-05-2.98899E-05-1.41497E-06-3.38563E-19 3.55495E-19
 -1       249 1.01038E-04-3.02296E-05-3.03457E-05-1.75170E-06 4.75260E-19 7.05283E-19
 -1       250 1.02846E-04-3.07689E-05-3.08901E-05-2.10949E-06-1.50089E-19 3.46242E-19
 -1       251 1.04946E-04-3.14102E-05-3.15170E-05-2.44074E-06 5.31828E-20 1.67194E-19
 -1       252 1.07273E-04-3.21439E-05-3.22013E-05-2.66080E-06 8.21386E-20 1.20037E-18
 -1       253 1.09669E-04-3.29371E-05-3.28892E-05-2.63549E-06-3.19962E-19 1.83649E-18
 -1       254 1.11851E-04-3.37183E-05-3.34892E-05-2.17930E-06 2.26136E-19 1.52214E-18
 -1       255 1.13392E-04-3.43590E-05-3.38712E-05-1.08710E-06 4.13966E-19 4.70573E-19
 -1       256 1.13742E-04-3.46594E-05-3.38854E-05 7.66668E-07 9.15077E-19-9.91539E-19
 -1       257 1.12364E-04-3.43643E-05-3.34136E-05 3.24320E-06-5.23804E-20-1.25719E-18
 -1       258 1.09005E-04-3.32532E-05-3.24491E-05 5.72434E-06-8.37755E-19-3.76777E-19
 -1       259 1.04087E-04-3.13465E-05-3.11716E-05 7.08416E-06-4.43788E-19-3.06209E-19
 -1       260 9.89624E-05-2.91419E-05-2.99439E-05 6.16876E-06 2.71828E-19-6.54399E-20
 -1       261 9.55888E-05-2.75792E-05-2.91860E-05 2.73396E-06 4.40179E-19-3.48743E-19
 -1       262 9.55000E-05-2.75061E-05-2.91739E-05-1.91102E-06 2.09943E-18-1.80328E-18
 -1       263 9.86847E-05-2.89445E-05-2.98974E-05-5.59303E-06 1.37920E-18-2.71342E-18
 -1       264 1.03608E-04-3.10924E-05-3.10629E-05-6.84293E-06-6.51530E-19-3.36248E-18
 -1       265 1.08281E-04-3.29804E-05-3.22489E-05-5.70010E-06-9.61554E-19-3.02389E-18
 -1       266 1.11325E-04-3.40550E-05-3.31001E-05-3.24830E-06-8.33960E-19-1.87592E-18
 -1       267 1.12317E-04-3.42707E-05-3.34446E-05-6.59751E-07 3.54781E-19-1.68817E-18
 -1       268 1.11520E-04-3.38490E-05-3.32923E-05 1.36598E-06-5.03947E-19-1.98181E-18
 -1       269 1.09489E-04-3.30571E-05-3.27636E-05 2.62642E-06-7.13064E-19 2.11639E-19
 -1       270 1.06786E-04-3.21057E-05-3.20118E-05 3.20687E-06 2.13340E-19-2.97297E-19
 -1       271 1.03872E-04-3.11342E-05-3.11766E-05 3.28046E-06 1.17687E-18-3.47064E-18
 -1       272 1.01087E-04-3.02287E-05-3.03689E-05 2.99495E-06 2.36485E-18-4.40997E-18
 -1       273 9.86774E-05-2.94433E-05-2.96738E-05 2.43190E-06 8.30175E-19-4.16986E-18
 -1       274 9.68308E-05-2.88145E-05-2.91512E-05 1.60782E-06 4.17976E-19-3.17714E-18
 -1       275 9.56518E-05-2.84361E-05-2.88007E-05 5.91031E-07-2.48284E-18-2.52751E-18
 -1       276 9.53296E-05-2.76920E-05-2.89821E-05 1.20199E-06-2.34192E-18 1.29954E-18
 -1       277 9.47972E-05-2.62752E-05-2.93640E-05 2.18383E-06-1.61176E-18 1.89860E-18
 -1       278 9.41010E-05-2.44269E-05-2.98591E-05 2.78411E-06-4.88999E-19-4.63257E-19
 -1       279 9.33601E-05-2.23818E-05-3.04200E-05 2.92939E-06-5.84262E-19 1.80698E-18
 -1       280 9.26652E-05-2.04360E-05-3.09593E-05 2.65525E-06-1.04632E-18-3.69252E-19
 -1       281 9.20770E-05-1.87837E-05-3.14181E-05 2.00762E-06-1.44452E-18 1.94364E-18
 -1       282 9.16873E-05-1.76904E-05-3.17215E-05 1.07826E-06-8.84595E-19 8.59935E-19
 -1       283 9.15512E-05-1.73094E-05-3.18271E-05-3.91532E-09 1.22742E-18 1.58348E-18
 -1       284 9.16889E-05-1.76956E-05-3.17199E-05-1.08609E-06-1.99610E-19-1.08142E-18
 -1       285 9.20806E-05-1.87945E-05-3.14150E-05-2.01555E-06-4.44633E-19-2.01534E-18
 -1       286 9.26588E-05-2.04188E-05-3.09638E-05-2.65509E-06-7.98449E-19 5.75285E-19
 -1       287 9.33673E-05-2.24014E-05-3.04148E-05-2.93419E-06 2.02620E-19 2.47670E-18
 -1       288 9.41075E-05-2.44478E-05-2.98526E-05-2.78355E-06 5.88929E-19 2.00978E-18
 -1       289 9.48083E-05-2.62882E-05-2.93602E-05-2.15984E-06 2.15339E-19-8.45266E-19
 -1       290 9.54583E-05-2.74579E-05-2.91361E-05-1.88452E-06-4.59453E-19-1.66637E-18
 -1       291 1.25545E-05-4.92136E-05 1.22398E-05 6.72153E-06-3.29093E-18 4.70707E-18
 -1       292 2.94491E-05-4.12036E-05 3.16928E-06 2.74933E-05-2.12605E-18 5.69762E-18
 -1       293 5.26479E-05-3.63471E-05-8.79529E-06 3.39960E-05 1.86432E-18 5.97254E-18
 -1       294 8.93703E-05-3.05427E-05-2.56091E-05 4.44497E-05 4.88759E-18 4.12082E-18
 -1       295 1.34334E-04-2.98140E-05-4.35810E-05 4.75280E-05 3.23450E-18 6.34491E-18
 -1       296 1.74857E-04-3.28391E-05-5.85643E-05 3.57902E-05 3.50394E-18 5.05276E-18
 -1       297 1.88047E-04-2.74615E-05-6.67885E-05 1.05069E-05 4.04469E-18 6.74768E-19
 -1       298 2.11702E-04-3.66909E-05-7.13388E-05-6.39045E-06 2.10096E-18 1.05180E-18
 -1       299 1.88553E-04-3.27399E-05-6.41645E-05-2.43770E-05 3.67866E-18 5.52689E-20
 -1       300 1.53596E-04-3.54919E-05-4.94840E-05-3.35034E-05 3.37294E-18 2.66604E-19
 -1       301 1.12741E-04-3.89989E-05-3.15513E-05-4.13007E-05 3.41503E-18-2.34162E-18
 -1       302 7.06594E-05-4.04991E-05-1.38355E-05-4.03770E-05 2.92586E-18-2.19953E-18
 -1       303 3.41030E-05-3.95815E-05 7.72649E-07-3.09733E-05 2.31939E-18-3.41582E-18
 -1       304 1.32816E-05-4.75491E-05 1.14209E-05-8.74235E-06 3.07409E-18-2.49282E-18
 -1       305 1.07416E-05-4.44965E-05 1.15394E-05 6.03031E-06 9.76100E-19-3.11835E-18
 -1       306 2.31079E-05-4.40945E-05 6.06266E-06 1.85540E-05-5.98852E-19-3.61699E-18
 -1       307 5.41556E-05-3.94302E-05-7.78545E-06 3.62689E-05-1.66675E-18-5.34708E-18
 -1       308 8.68660E-05-3.13851E-05-2.42822E-05 4.34292E-05-4.22796E-18-4.31352E-18
 -1       309 1.33977E-04-3.37301E-05-4.20700E-05 4.23146E-05-3.64383E-18-2.98431E-18
 -1       310 1.73821E-04-3.27899E-05-5.79994E-05 3.89800E-05-4.06518E-18 1.07616E-18
 -1       311 1.99911E-04-3.40433E-05-6.79237E-05 1.95972E-05-4.81316E-18 6.66403E-18
 -1       312 1.95640E-04-2.78673E-05-6.94938E-05-2.36562E-06-4.59113E-18 8.92936E-18
 -1       313 1.97457E-04-3.47579E-05-6.65221E-05-2.69618E-05-5.16600E-18 9.65554E-18
 -1       314 1.62931E-04-3.31085E-05-5.38259E-05-3.68731E-05-5.34193E-18 8.73122E-18
 -1       315 1.21742E-04-3.00966E-05-3.85547E-05-4.71769E-05-5.60228E-18 9.28115E-18
 -1       316 8.56160E-05-3.64168E-05-2.17034E-05-4.23711E-05-5.61286E-18 6.81353E-18
 -1       317 4.79223E-05-3.87329E-05-5.79098E-06-3.31564E-05-5.76512E-18 4.65540E-18
 -1       318 2.32144E-05-4.51138E-05 6.32555E-06-1.83121E-05-6.52173E-18 3.69666E-18
 -1       319 1.26078E-05-4.96678E-05 1.23486E-05-6.03118E-06-4.89214E-18 8.89385E-19
 -1       320 9.16440E-05-1.43962E-05-3.31692E-05-1.30745E-05-1.50494E-18-4.92629E-19
 -1       321 9.56846E-05-1.90962E-05-3.28868E-05-1.46412E-05-1.67944E-18 5.57083E-19
 -1       322 8.80080E-05-1.03756E-05-3.33262E-05-8.17142E-06-8.36358E-19-1.55005E-18
 -1       323 8.72067E-05-9.46192E-06-3.33677E-05-5.72605E-06-5.36164E-19-1.64249E-18
 -1       324 8.67509E-05-8.93235E-06-3.33958E-05-3.37118E-06-9.80257E-20-1.66865E-18
 -1       325 8.65479E-05-8.69283E-06-3.34100E-05-1.07394E-06 2.88871E-19-1.60695E-18
 -1       326 8.65566E-05-8.70237E-06-3.34097E-05 1.20482E-06 5.87887E-19-1.61322E-18
 -1       327 8.67781E-05-8.96277E-06-3.33946E-05 3.50449E-06 8.79011E-19-1.51608E-18
 -1       328 8.72445E-05-9.50479E-06-3.33658E-05 5.82170E-06 1.21790E-18-1.27124E-18
 -1       329 8.80776E-05-1.04547E-05-3.33225E-05 8.26247E-06 1.56285E-18-8.88213E-19
 -1       330 8.94854E-05-1.20356E-05-3.32594E-05 1.07738E-05 1.79379E-18-4.03605E-19
 -1       331 9.18950E-05-1.47206E-05-3.31558E-05 1.31800E-05 1.92409E-18 5.50260E-19
 -1       332 9.57887E-05-1.94525E-05-3.28233E-05 1.43856E-05 1.88839E-18 2.11425E-18
 -1       333 9.87706E-05-2.44379E-05-3.19450E-05 1.19065E-05 1.56428E-18 3.39651E-18
 -1       334 9.63673E-05-2.68057E-05-2.97826E-05 5.75010E-06 1.23050E-18 2.80872E-18
 -1       335 9.64183E-05-2.60236E-05-3.01247E-05-6.36121E-06-1.28749E-18 7.85109E-19
 -1       336 9.48964E-05-2.70214E-05-2.90639E-05-2.84654E-06-8.86769E-19 7.13312E-19
 -1       337 9.39190E-05-2.74186E-05-2.84854E-05-9.32734E-07-7.57668E-19 6.16535E-19
 -1       338 9.33987E-05-2.76304E-05-2.81797E-05 1.27737E-07-3.66361E-19 4.66416E-19
 -1       339 9.32064E-05-2.77820E-05-2.80362E-05 6.95251E-07-3.96492E-19 3.98944E-19
 -1       340 9.32256E-05-2.79099E-05-2.79914E-05 9.69056E-07-3.37320E-19 4.46551E-19
 -1       341 9.33706E-05-2.80231E-05-2.80059E-05 1.06768E-06-2.79449E-19 3.66792E-19
 -1       342 9.35841E-05-2.81229E-05-2.80551E-05 1.06601E-06-3.03431E-19 4.77136E-19
 -1       343 9.38301E-05-2.82096E-05-2.81235E-05 1.01371E-06-4.18974E-19 4.59999E-19
 -1       344 9.40881E-05-2.82839E-05-2.82023E-05 9.45075E-07-4.04977E-19-1.34772E-19
 -1       345 9.43494E-05-2.83472E-05-2.82870E-05 8.84721E-07-3.27326E-19-3.90174E-19
 -1       346 9.46137E-05-2.84022E-05-2.83764E-05 8.51166E-07-1.00278E-20 2.99454E-19
 -1       347 9.48873E-05-2.84521E-05-2.84720E-05 8.59264E-07-2.94868E-19 5.29401E-19
 -1       348 9.51817E-05-2.85010E-05-2.85769E-05 9.21832E-07-3.05647E-19 1.13338E-19
 -1       349 9.55128E-05-2.85536E-05-2.86958E-05 1.05069E-06-3.81555E-19 4.16160E-19
 -1       350 9.59001E-05-2.86159E-05-2.88346E-05 1.25711E-06-4.68999E-19-2.16538E-20
 -1       351 9.63662E-05-2.86952E-05-2.89998E-05 1.55155E-06-3.70738E-19 3.00141E-19
 -1       352 9.69365E-05-2.88007E-05-2.91985E-05 1.94252E-06-4.54378E-19 2.84292E-22
 -1       353 9.76384E-05-2.89443E-05-2.94372E-05 2.43402E-06-5.10966E-20 1.90259E-19
 -1       354 9.84999E-05-2.91425E-05-2.97211E-05 3.02104E-06 6.64390E-19-1.03620E-19
 -1       355 9.95486E-05-2.94178E-05-3.00525E-05 3.68223E-06 1.10974E-18 4.24449E-19
 -1       356 1.00809E-04-2.98021E-05-3.04285E-05 4.36861E-06 2.88174E-19 1.79696E-19
 -1       357 1.02300E-04-3.03389E-05-3.08390E-05 4.98788E-06-2.31502E-19 2.45733E-19
 -1       358 1.04030E-04-3.10842E-05-3.12639E-05 5.38518E-06-6.24892E-19-1.03107E-18
 -1       359 1.05987E-04-3.20975E-05-3.16726E-05 5.32581E-06-3.97879E-19-1.50935E-19
 -1       360 1.08114E-04-3.34094E-05-3.20277E-05 4.49549E-06-5.37782E-19 7.77100E-19
 -1       361 1.10263E-04-3.49473E-05-3.22957E-05 2.55169E-06 5.99426E-19-8.20203E-20
 -1       362 1.12120E-04-3.64129E-05-3.24668E-05-7.21453E-07-9.37824E-20-7.56194E-19
 -1       363 1.13123E-04-3.71578E-05-3.25754E-05-5.10855E-06-8.00056E-19-5.22340E-20
 -1       364 1.12551E-04-3.62709E-05-3.27030E-05-9.54525E-06-7.09008E-19 1.49170E-18
 -1       365 1.10014E-04-3.31988E-05-3.29238E-05-1.19803E-05-3.64415E-19 1.42415E-18
 -1       366 1.06274E-04-2.87674E-05-3.32159E-05-1.02097E-05-4.09127E-19-3.17682E-19
 -1       367 1.03473E-04-2.54895E-05-3.34239E-05-3.82497E-06-5.93955E-19-1.53316E-18
 -1       368 1.03623E-04-2.57486E-05-3.33763E-05 4.40715E-06-4.71195E-19-1.42883E-18
 -1       369 1.06530E-04-2.93169E-05-3.30919E-05 1.02297E-05-7.52898E-19-1.87945E-19
 -1       370 1.10039E-04-3.36465E-05-3.27442E-05 1.12947E-05-1.21760E-19-9.35869E-19
 -1       371 1.12139E-04-3.63974E-05-3.24737E-05 8.36636E-06 5.61447E-19-7.72535E-19
 -1       372 1.12251E-04-3.69636E-05-3.22857E-05 3.73244E-06 2.45537E-18 4.33864E-19
 -1       373 1.10857E-04-3.60108E-05-3.20984E-05-6.61814E-07 6.01928E-19 1.81303E-18
 -1       374 1.08671E-04-3.44252E-05-3.18370E-05-3.87777E-06-1.33447E-19 1.23346E-18
 -1       375 1.06220E-04-3.27997E-05-3.14771E-05-5.75564E-06 1.71806E-18 3.31526E-20
 -1       376 1.03804E-04-3.13888E-05-3.10397E-05-6.51144E-06 2.53920E-18 4.13171E-19
 -1       377 1.01564E-04-3.02337E-05-3.05696E-05-6.44351E-06 2.31552E-19 1.09673E-18
 -1       378 9.95635E-05-2.92834E-05-3.01158E-05-5.79269E-06 4.73850E-19-4.97402E-19
 -1       379 9.78366E-05-2.84689E-05-2.97209E-05-4.70806E-06-5.56899E-21-9.64700E-19
 -1       380 9.65600E-05-2.79034E-05-2.94154E-05-3.38247E-06-2.24418E-19-1.83515E-18
 -1       381 9.43446E-05-2.73338E-05-2.86808E-05 2.47808E-06 1.00938E-18 2.42259E-18
 -1       382 9.31353E-05-2.74526E-05-2.81280E-05 7.53451E-07 7.66747E-19 2.02365E-18
 -1       383 9.25785E-05-2.75288E-05-2.78685E-05-1.67754E-07 4.03579E-19 1.86255E-18
 -1       384 9.24349E-05-2.76202E-05-2.77736E-05-6.45342E-07-1.67820E-20 1.36123E-18
 -1       385 9.25375E-05-2.77284E-05-2.77737E-05-8.67077E-07 3.83043E-19 7.00105E-19
 -1       386 9.27764E-05-2.78439E-05-2.78277E-05-9.39246E-07 7.93268E-19 7.41060E-19
 -1       387 9.30821E-05-2.79582E-05-2.79104E-05-9.26659E-07 7.58319E-19 9.04023E-19
 -1       388 9.34125E-05-2.80657E-05-2.80062E-05-8.71415E-07 4.42804E-19 8.92217E-19
 -1       389 9.37449E-05-2.81639E-05-2.81066E-05-8.02161E-07 5.76061E-19 9.26178E-19
 -1       390 9.40703E-05-2.82528E-05-2.82079E-05-7.39213E-07-6.19649E-20 8.80893E-19
 -1       391 9.43896E-05-2.83342E-05-2.83096E-05-6.97708E-07 4.10014E-19 9.20896E-19
 -1       392 9.47111E-05-2.84116E-05-2.84139E-05-6.89688E-07 4.02348E-19 1.04490E-18
 -1       393 9.50492E-05-2.84896E-05-2.85250E-05-7.25520E-07 2.86179E-19 8.08164E-19
 -1       394 9.54233E-05-2.85740E-05-2.86487E-05-8.14822E-07 8.30818E-19 7.02697E-19
 -1       395 9.58573E-05-2.86720E-05-2.87922E-05-9.66917E-07 7.47650E-19 5.91527E-19
 -1       396 9.63789E-05-2.87921E-05-2.89637E-05-1.19075E-06 6.56542E-19 1.41876E-18
 -1       397 9.70191E-05-2.89441E-05-2.91724E-05-1.49407E-06-2.17278E-19 5.39293E-19
 -1       398 9.78112E-05-2.91399E-05-2.94274E-05-1.88155E-06-5.17582E-19 6.15080E-19
 -1       399 9.87886E-05-2.93938E-05-2.97370E-05-2.35121E-06-9.78156E-19 3.10343E-19
 -1       400 9.99816E-05-2.97228E-05-3.01073E-05-2.88852E-06 3.46385E-19 1.82911E-19
 -1       401 1.01413E-04-3.01474E-05-3.05392E-05-3.45700E-06 4.26982E-19 3.30513E-19
 -1       402 1.03088E-04-3.06915E-05-3.10253E-05-3.98476E-06-2.82724E-19-1.75732E-19
 -1       403 1.04985E-04-3.13811E-05-3.15455E-05-4.34737E-06-5.92358E-19 2.97584E-19
 -1       404 1.07038E-04-3.22369E-05-3.20629E-05-4.35154E-06-2.17357E-19 6.52662E-19
 -1       405 1.09114E-04-3.32545E-05-3.25215E-05-3.73246E-06 9.45340E-19 1.59184E-18
 -1       406 1.10979E-04-3.43602E-05-3.28517E-05-2.19352E-06 4.14168E-19 1.15379E-18
 -1       407 1.12269E-04-3.53395E-05-3.29875E-05 4.65503E-07 1.23951E-18 2.40434E-18
 -1       408 1.12495E-04-3.57753E-05-3.28959E-05 4.09935E-06 2.14059E-19 2.67447E-18
 -1       409 1.11163E-04-3.50967E-05-3.26094E-05 7.90141E-06-3.63250E-19 7.55802E-19
 -1       410 1.08133E-04-3.29236E-05-3.22344E-05 1.02731E-05-2.10498E-19-1.01115E-19
 -1       411 1.04165E-04-2.97083E-05-3.19065E-05 9.40021E-06-3.10218E-19 1.34380E-19
 -1       412 1.01008E-04-2.69880E-05-3.17152E-05 4.64264E-06 8.17446E-19 9.76564E-19
 -1       413 1.00510E-04-2.65638E-05-3.16811E-05-2.26329E-06 2.79049E-18 9.49880E-19
 -1       414 1.02928E-04-2.87015E-05-3.17993E-05-7.94951E-06 2.11231E-18 1.00403E-18
 -1       415 1.06721E-04-3.19316E-05-3.20436E-05-9.99562E-06 1.43006E-19 5.36046E-19
 -1       416 1.09943E-04-3.44835E-05-3.23432E-05-8.36404E-06-1.24245E-18-5.64438E-19
 -1       417 1.11498E-04-3.55302E-05-3.25739E-05-4.69101E-06-1.90314E-18-4.96247E-19
 -1       418 1.11338E-04-3.52729E-05-3.26217E-05-7.68864E-07 5.45324E-19 6.06050E-20
 -1       419 1.09926E-04-3.42869E-05-3.24371E-05 2.33207E-06-8.08594E-19 8.50591E-19
 -1       420 1.07791E-04-3.30588E-05-3.20426E-05 4.28879E-06-7.15855E-19 1.27527E-18
 -1       421 1.05349E-04-3.18574E-05-3.15040E-05 5.21053E-06 6.66645E-19 3.30316E-19
 -1       422 1.02883E-04-3.07848E-05-3.09007E-05 5.34617E-06 2.48539E-18-5.40267E-19
 -1       423 1.00578E-04-2.98558E-05-3.03063E-05 4.92043E-06 1.99961E-18 1.07609E-19
 -1       424 9.85544E-05-2.90539E-05-2.97803E-05 4.07700E-06 1.14117E-18 1.16129E-18
 -1       425 9.68859E-05-2.83697E-05-2.93580E-05 2.89199E-06-9.46095E-19 1.59605E-18
 -1       426 9.60126E-05-2.79608E-05-2.91595E-05 2.08877E-06-1.77551E-18 1.93592E-18
 -1       427 9.40464E-05-2.41164E-05-2.99684E-05 4.93260E-06-4.29491E-20 1.62340E-18
 -1       428 9.50281E-05-2.58005E-05-2.96627E-05 4.40425E-06-6.82481E-19 1.81377E-18
 -1       429 9.56226E-05-2.69617E-05-2.94179E-05 3.36630E-06-1.39777E-18 1.48560E-18
 -1       430 9.30944E-05-2.24594E-05-3.02744E-05 4.78794E-06 1.16953E-19-9.86849E-19
 -1       431 9.22318E-05-2.09479E-05-3.05557E-05 3.99335E-06 7.97115E-19 1.55227E-18
 -1       432 9.15762E-05-1.98020E-05-3.07683E-05 2.64517E-06 8.92932E-19 1.73884E-18
 -1       433 9.12202E-05-1.91826E-05-3.08825E-05 9.22101E-07-7.80772E-19 1.00239E-18
 -1       434 9.12204E-05-1.91839E-05-3.08821E-05-9.34301E-07-6.35212E-19 1.11810E-18
 -1       435 9.15780E-05-1.98064E-05-3.07672E-05-2.65758E-06-1.18883E-18-2.75252E-18
 -1       436 9.22218E-05-2.09322E-05-3.05582E-05-3.98703E-06-1.63881E-19-6.15863E-19
 -1       437 9.30840E-05-2.24420E-05-3.02775E-05-4.79086E-06 4.29237E-19 3.46823E-18
 -1       438 9.40559E-05-2.41312E-05-2.99661E-05-4.94022E-06 7.66742E-19 3.31915E-18
 -1       439 9.50472E-05-2.58195E-05-2.96623E-05-4.42523E-06 1.44220E-18-4.12101E-19
 -1       440 6.25117E-05-4.34230E-05-8.31741E-06 4.32148E-05-2.03786E-18 6.10814E-18
 -1       441 1.26268E-05-2.19162E-05 3.88159E-06 6.98132E-07-1.54947E-20 2.52151E-18
 -1       442 2.42687E-05-2.57309E-05 7.13809E-07 2.54200E-05-1.75373E-18 3.68481E-18
 -1       443 9.74407E-05-5.24897E-05-1.94186E-05 4.13955E-05 9.84676E-20 2.74799E-18
 -1       444 1.31590E-04-5.29722E-05-3.36674E-05 2.82355E-05 1.66701E-18 2.93275E-18
 -1       445 8.94257E-05-1.19279E-05-3.32759E-05-1.07702E-05-1.20255E-18-1.19610E-18
 -1       446 1.53168E-04-2.62401E-05-5.46000E-05-3.70883E-06 3.09220E-18-8.54444E-20
 -1       447 1.57220E-04-1.24183E-05-6.19209E-05 4.28557E-07 2.36195E-18 1.16826E-18
 -1       448 1.59031E-04-1.72181E-05-6.05507E-05 2.13907E-06 2.20853E-18 2.42723E-18
 -1       449 1.54117E-04-3.32830E-05-5.18047E-05 6.05708E-07 2.78494E-18 1.86527E-18
 -1       450 1.42652E-04-5.37498E-05-3.81758E-05-1.45842E-05 3.05816E-18 3.25536E-18
 -1       451 1.12230E-04-5.63431E-05-2.39723E-05-3.61401E-05 2.55063E-19-9.44759E-19
 -1       452 7.30575E-05-4.56591E-05-1.15466E-05-4.43791E-05-6.41310E-19-2.28646E-19
 -1       453 2.71193E-05-2.61528E-05-3.68784E-07-2.85071E-05-2.96197E-19-2.37540E-18
 -1       454 1.37267E-05-1.92260E-05 2.53410E-06-5.38969E-06 4.32397E-19-3.20051E-18
 -1       455 2.36804E-05-2.58971E-05 9.77617E-07 2.57559E-05 1.54382E-18-3.68301E-18
 -1       456 5.20765E-05-3.83748E-05-5.92694E-06 4.12893E-05 2.18397E-18-3.97560E-18
 -1       457 1.00864E-04-5.42181E-05-1.98751E-05 4.05309E-05 1.21390E-18-1.33598E-18
 -1       458 1.29477E-04-5.62170E-05-3.14998E-05 2.68380E-05 4.98161E-20 6.09123E-19
 -1       459 1.51606E-04-4.29873E-05-4.64735E-05 7.57389E-06-3.31072E-18 4.87404E-18
 -1       460 1.57889E-04-2.78157E-05-5.56157E-05 3.26543E-08-5.98519E-18 7.41323E-18
 -1       461 1.59179E-04-1.48673E-05-6.17033E-05-2.20705E-06-5.94151E-18 7.33345E-18
 -1       462 1.54999E-04-1.62837E-05-5.95563E-05 3.02137E-06-4.45868E-18 6.87928E-18
 -1       463 1.56045E-04-2.97499E-05-5.40467E-05 4.81553E-07-3.34520E-18 6.99046E-18
 -1       464 1.46779E-04-4.75611E-05-4.24807E-05-1.61338E-05-3.33339E-18 6.31272E-18
 -1       465 1.26727E-04-5.44612E-05-3.09244E-05-3.04773E-05-2.27704E-18 6.22707E-18
 -1       466 9.18131E-05-5.27916E-05-1.67012E-05-4.30011E-05-2.89336E-18 4.96465E-18
 -1       467 4.96217E-05-3.89581E-05-4.79134E-06-4.06114E-05-2.26433E-18 3.27087E-18
 -1       468 2.21321E-05-2.82839E-05 2.34183E-06-2.43529E-05-2.63369E-18 2.54565E-18
 -1       469 1.51926E-04-4.32123E-05-4.65219E-05 1.03486E-05 2.18763E-18 1.36065E-18
 -1       470 4.95889E-05-3.18368E-05-7.16680E-06 3.83941E-05-2.28747E-18 6.02722E-18
 -1       471 1.38824E-04-1.38437E-05-5.40525E-05-7.89379E-06 3.39586E-18 2.60735E-18
 -1       472 1.38380E-04-8.58363E-06-5.61386E-05 1.36187E-06-4.86282E-18 2.50844E-18
 -1       473 9.58049E-05-2.51443E-05-3.02687E-05 6.02963E-06 1.26248E-18 1.27712E-18
 -1       474 8.95604E-05-1.34093E-05-3.26551E-05-3.92906E-06-2.96374E-19-1.42820E-18
 -1       475 9.02634E-05-1.43722E-05-3.25451E-05-5.88670E-06-6.34482E-19-1.33155E-18
 -1       476 8.90669E-05-1.27299E-05-3.27336E-05 5.46081E-08 3.97657E-19-1.39087E-18
 -1       477 8.92013E-05-1.29131E-05-3.27130E-05 2.04825E-06 6.63128E-19-1.37231E-18
 -1       478 8.95937E-05-1.34509E-05-3.26517E-05 4.00549E-06 1.00424E-18-1.10525E-18
 -1       479 9.03104E-05-1.44352E-05-3.25392E-05 5.95834E-06 1.36780E-18-7.70850E-19
 -1       480 9.14542E-05-1.60138E-05-3.23547E-05 7.78912E-06 1.52999E-18-6.59306E-19
 -1       481 9.32281E-05-1.84765E-05-3.20563E-05 9.30761E-06 1.63267E-18 8.47695E-21
 -1       482 9.50962E-05-2.65734E-05-2.93493E-05 2.88635E-06 1.16235E-18 1.03530E-18
 -1       483 9.54702E-05-2.44310E-05-3.04355E-05-5.83189E-06-1.18008E-18 5.95012E-21
 -1       484 1.41218E-04-3.92225E-05-4.42010E-05-9.41346E-06 2.08651E-18 2.41997E-18
 -1       485 9.52620E-05-2.62198E-05-2.95813E-05-2.90799E-06-8.99720E-19-4.42936E-20
 -1       486 9.49067E-05-2.71570E-05-2.90317E-05-1.04230E-06-6.38857E-19 6.60898E-20
 -1       487 9.46313E-05-2.76858E-05-2.86893E-05 8.49838E-08-3.82921E-19 1.41630E-19
 -1       488 9.44771E-05-2.80084E-05-2.84860E-05 7.27804E-07-4.47508E-19 6.78420E-20
 -1       489 9.44264E-05-2.82149E-05-2.83762E-05 1.05894E-06-6.46577E-19-1.70551E-19
 -1       490 9.44497E-05-2.83490E-05-2.83290E-05 1.19581E-06-1.76990E-19-7.00918E-19
 -1       491 9.45215E-05-2.84340E-05-2.83234E-05 1.21934E-06-1.84834E-19-4.71384E-19
 -1       492 9.46229E-05-2.84838E-05-2.83456E-05 1.18630E-06-6.35195E-19 2.82751E-19
 -1       493 9.47424E-05-2.85072E-05-2.83867E-05 1.13745E-06-4.51852E-19 4.42058E-19
 -1       494 9.48742E-05-2.85103E-05-2.84418E-05 1.10291E-06 7.91169E-20 3.91584E-19
 -1       495 9.50174E-05-2.84974E-05-2.85086E-05 1.10595E-06-2.98115E-19-1.26677E-19
 -1       496 9.51745E-05-2.84720E-05-2.85867E-05 1.16556E-06-4.22477E-19 5.01613E-19
 -1       497 9.53514E-05-2.84368E-05-2.86774E-05 1.29819E-06-4.32950E-19 9.71460E-19
 -1       498 9.55563E-05-2.83950E-05-2.87829E-05 1.51880E-06-8.00233E-19 9.07302E-19
 -1       499 9.57994E-05-2.83506E-05-2.89059E-05 1.84110E-06-1.91816E-19 2.81189E-19
 -1       500 9.60935E-05-2.83095E-05-2.90493E-05 2.27690E-06-7.91075E-19 1.97142E-19
 -1       501 9.64534E-05-2.82818E-05-2.92152E-05 2.83429E-06-4.50026E-19 6.93156E-20
 -1       502 9.68979E-05-2.82845E-05-2.94043E-05 3.51424E-06 3.43418E-19-4.46131E-19
 -1       503 9.74511E-05-2.83457E-05-2.96150E-05 4.30494E-06 1.10443E-18-4.36213E-19
 -1       504 9.81468E-05-2.85113E-05-2.98422E-05 5.17332E-06 4.07246E-19-8.98386E-19
 -1       505 9.90349E-05-2.88533E-05-3.00766E-05 6.05256E-06-3.83382E-19-9.42858E-19
 -1       506 1.00191E-04-2.94786E-05-3.03050E-05 6.82522E-06-9.22378E-19-9.68784E-19
 -1       507 1.01725E-04-3.05302E-05-3.05135E-05 7.30225E-06-3.24088E-19-1.29695E-18
 -1       508 1.03779E-04-3.21672E-05-3.06947E-05 7.20085E-06 5.34555E-21-1.17188E-18
 -1       509 1.06488E-04-3.44877E-05-3.08643E-05 6.13366E-06-1.80540E-19-5.39985E-19
 -1       510 1.09852E-04-3.73478E-05-3.10827E-05 3.65243E-06 5.79689E-19 4.71808E-19
 -1       511 1.13517E-04-4.00880E-05-3.14807E-05-5.80612E-07 3.85122E-19 1.56373E-18
 -1       512 1.16453E-04-4.12252E-05-3.22541E-05-6.33399E-06-3.65852E-19 2.58844E-18
 -1       513 1.17034E-04-3.87732E-05-3.35686E-05-1.20045E-05-9.82687E-19 2.87487E-18
 -1       514 1.14299E-04-3.20292E-05-3.53127E-05-1.42484E-05-1.59986E-18 1.24651E-18
 -1       515 1.09844E-04-2.39023E-05-3.69132E-05-9.77907E-06-2.27041E-18 8.01240E-20
 -1       516 1.07784E-04-2.04907E-05-3.75111E-05 4.48008E-07-9.53494E-19-1.80779E-18
 -1       517 1.10299E-04-2.48712E-05-3.66916E-05 1.01484E-05 4.88632E-20-2.34361E-18
 -1       518 1.14660E-04-3.31595E-05-3.49826E-05 1.35924E-05-1.28888E-19-7.48329E-19
 -1       519 1.16886E-04-3.94187E-05-3.32258E-05 1.05881E-05-9.39096E-19 2.21009E-19
 -1       520 1.15763E-04-4.12563E-05-3.19432E-05 4.62552E-06 1.84008E-18-9.35581E-19
 -1       521 1.12533E-04-3.97793E-05-3.11903E-05-1.10447E-06 1.53802E-18-1.33020E-18
 -1       522 1.08740E-04-3.69281E-05-3.07866E-05-5.23908E-06 3.64593E-19-2.08228E-18
 -1       523 1.05303E-04-3.40437E-05-3.05464E-05-7.63273E-06 4.82541E-19-8.13367E-19
 -1       524 1.02523E-04-3.17004E-05-3.03558E-05-8.62922E-06 1.22721E-18-1.38649E-18
 -1       525 1.00358E-04-2.99655E-05-3.01689E-05-8.63619E-06 2.32956E-18-1.21827E-18
 -1       526 9.86609E-05-2.86986E-05-2.99825E-05-7.97217E-06-3.26629E-19 6.44680E-19
 -1       527 9.72875E-05-2.77135E-05-2.98142E-05-6.83235E-06-2.29589E-18-1.67481E-18
 -1       528 9.41266E-05-2.76792E-05-2.84740E-05-1.12100E-07 6.44576E-19 3.40464E-19
 -1       529 9.39514E-05-2.79230E-05-2.82965E-05-7.27137E-07 5.95336E-19 9.89209E-20
 -1       530 9.39256E-05-2.80913E-05-2.82143E-05-1.03539E-06 5.36670E-19-2.12506E-20
 -1       531 9.39972E-05-2.82134E-05-2.81932E-05-1.15555E-06 4.26352E-19 1.04163E-19
 -1       532 9.41273E-05-2.83033E-05-2.82106E-05-1.16679E-06 5.20395E-19 5.36918E-19
 -1       533 9.42898E-05-2.83689E-05-2.82522E-05-1.12343E-06 4.81570E-19 2.42867E-19
 -1       534 9.44693E-05-2.84152E-05-2.83092E-05-1.06380E-06 5.05412E-19 3.50334E-19
 -1       535 9.46587E-05-2.84463E-05-2.83770E-05-1.01592E-06 1.51826E-19 1.33455E-19
 -1       536 9.48575E-05-2.84659E-05-2.84536E-05-1.00117E-06 2.71902E-19-1.66675E-19
 -1       537 9.50700E-05-2.84771E-05-2.85397E-05-1.03691E-06 2.45659E-19-1.44369E-19
 -1       538 9.53048E-05-2.84834E-05-2.86373E-05-1.13816E-06 2.66168E-19 2.15616E-19
 -1       539 9.55736E-05-2.84888E-05-2.87499E-05-1.31865E-06 1.11697E-19 8.84380E-19
 -1       540 9.58909E-05-2.84979E-05-2.88816E-05-1.59112E-06 4.95750E-19 1.65296E-18
 -1       541 9.62738E-05-2.85174E-05-2.90370E-05-1.96684E-06 3.00953E-19 1.88139E-18
 -1       542 9.67418E-05-2.85564E-05-2.92205E-05-2.45397E-06-2.78423E-19 1.43003E-18
 -1       543 9.73167E-05-2.86293E-05-2.94354E-05-3.05438E-06-3.71907E-19 1.09321E-18
 -1       544 9.80234E-05-2.87578E-05-2.96829E-05-3.75825E-06-1.36687E-19-5.06536E-19
 -1       545 9.88905E-05-2.89761E-05-2.99610E-05-4.53557E-06 4.75100E-19-4.30521E-19
 -1       546 9.99534E-05-2.93358E-05-3.02629E-05-5.32378E-06-6.23592E-20-7.20893E-20
 -1       547 1.01257E-04-2.99122E-05-3.05758E-05-6.01082E-06-5.13634E-19-5.98487E-19
 -1       548 1.02859E-04-3.08053E-05-3.08818E-05-6.41524E-06-5.07123E-19-5.92717E-20
 -1       549 1.04823E-04-3.21245E-05-3.11614E-05-6.26842E-06 3.86407E-19-4.58000E-20
 -1       550 1.07189E-04-3.39341E-05-3.14039E-05-5.21385E-06-1.47146E-19 7.32248E-19
 -1       551 1.09886E-04-3.61218E-05-3.16251E-05-2.86223E-06-1.06078E-19 8.33187E-19
 -1       552 1.12571E-04-3.81917E-05-3.18898E-05 1.01856E-06 2.05865E-19 1.96697E-18
 -1       553 1.14486E-04-3.91161E-05-3.23150E-05 6.12798E-06 8.73851E-19 2.47098E-18
 -1       554 1.14498E-04-3.74831E-05-3.30214E-05 1.11092E-05 2.04091E-19 1.57266E-18
 -1       555 1.11979E-04-3.26897E-05-3.40025E-05 1.32776E-05-1.29616E-18 1.87405E-18
 -1       556 1.08003E-04-2.64361E-05-3.49914E-05 1.00637E-05 4.26498E-19 2.06749E-18
 -1       557 1.05583E-04-2.28764E-05-3.54688E-05 1.61672E-06 2.17905E-18 1.75762E-18
 -1       558 1.06872E-04-2.49302E-05-3.51592E-05-7.54255E-06 2.25447E-18 1.66623E-18
 -1       559 1.10672E-04-3.09196E-05-3.42060E-05-1.23820E-05 1.64806E-18 1.58951E-18
 -1       560 1.13697E-04-3.64300E-05-3.31287E-05-1.14536E-05 6.45042E-19 4.08732E-19
 -1       561 1.14237E-04-3.89424E-05-3.22827E-05-6.82602E-06-1.01953E-18-7.26128E-19
 -1       562 1.12571E-04-3.85589E-05-3.17367E-05-1.42733E-06-2.40469E-18-7.15579E-19
 -1       563 1.09813E-04-3.66192E-05-3.13844E-05 2.99419E-06-5.13231E-19 1.96855E-18
 -1       564 1.06865E-04-3.43159E-05-3.11042E-05 5.88069E-06 1.45013E-19 9.08325E-19
 -1       565 1.04173E-04-3.22714E-05-3.08217E-05 7.34918E-06-8.26819E-20 1.59324E-19
 -1       566 1.01861E-04-3.06598E-05-3.05172E-05 7.73234E-06 1.25743E-18 1.21897E-18
 -1       567 9.99114E-05-2.94298E-05-3.02049E-05 7.35031E-06 1.38410E-18 1.20360E-18
 -1       568 9.82649E-05-2.84551E-05-2.99128E-05 6.43954E-06 8.00608E-19 3.05624E-18
 -1       569 9.68409E-05-2.76254E-05-2.96567E-05 5.12698E-06-5.46522E-19 4.03521E-18
 -1       570 9.23263E-05-2.25211E-05-2.99183E-05 5.92283E-06 2.33744E-18 1.23442E-18
 -1       571 9.11632E-05-2.12005E-05-2.99870E-05 4.49085E-06 8.38990E-19 1.96113E-18
 -1       572 9.51094E-05-2.56719E-05-2.97575E-05 6.37053E-06-9.81404E-19 1.21080E-18
 -1       573 9.36901E-05-2.40664E-05-2.98392E-05 6.55545E-06-1.13378E-18 1.44755E-18
 -1       574 9.03737E-05-2.03064E-05-3.00328E-05 2.42118E-06 3.24173E-19 3.27940E-20
 -1       575 9.00923E-05-1.99885E-05-3.00487E-05-6.57263E-09 2.64694E-19 1.45080E-18
 -1       576 9.03739E-05-2.03066E-05-3.00328E-05-2.43513E-06-5.96668E-19-1.44628E-18
 -1       577 9.11470E-05-2.11821E-05-2.99880E-05-4.47557E-06 2.32287E-19-1.53739E-18
 -1       578 9.23080E-05-2.24997E-05-2.99198E-05-5.91997E-06 1.68704E-18 1.34222E-18
 -1       579 9.36701E-05-2.40584E-05-2.98341E-05-6.57449E-06 6.43812E-19 2.28395E-18
 -1       580 9.51107E-05-2.56844E-05-2.97530E-05-6.36301E-06 8.69619E-20 3.10736E-18
 -1       581 9.30323E-05-5.18314E-05-1.74236E-05 4.10877E-05-3.54123E-18 2.52591E-18
 -1       582 2.65227E-05-1.61690E-05-3.86159E-06-1.50124E-05 5.48136E-19 3.17997E-18
 -1       583 9.45059E-05-2.72910E-05-2.87981E-05 9.94567E-07 8.76035E-19 7.75654E-19
 -1       584 2.76758E-05-1.50268E-05-4.75712E-06 1.28366E-05 8.73106E-20 1.09511E-18
 -1       585 4.65104E-05-2.78632E-05-7.48525E-06-3.53290E-05-7.74347E-19 3.56924E-18
 -1       586 9.46205E-05-2.07678E-05-3.16722E-05-9.52706E-06-1.38686E-18-2.21108E-19
 -1       587 1.24232E-04-6.07708E-05-2.71707E-05 2.78158E-05-4.54698E-19 1.67707E-18
 -1       588 1.37301E-04-1.72586E-05-5.20700E-05-1.02070E-05-5.14213E-18 4.09710E-18
 -1       589 5.85109E-05-3.07448E-05-1.13238E-05-3.73410E-05-1.69425E-18-1.62620E-18
 -1       590 8.91811E-05-1.28882E-05-3.27150E-05-1.93947E-06 9.39926E-20-1.31862E-18
 -1       591 1.41584E-04-4.52198E-05-4.17478E-05 6.52788E-06 2.60730E-18 1.28860E-18
 -1       592 1.33433E-04-9.38737E-06-5.38106E-05 4.15307E-06 2.21552E-18 7.06148E-19
 -1       593 1.38791E-04-2.18226E-05-5.06141E-05 1.18483E-05 3.45319E-18 1.61434E-18
 -1       594 1.30634E-04-5.99534E-05-3.03439E-05-1.87823E-05 8.30013E-19 2.08688E-18
 -1       595 1.03813E-04-5.48349E-05-2.08089E-05-3.60405E-05-8.59103E-19-1.21930E-18
 -1       596 2.91288E-05-1.57459E-05-5.14667E-06-1.76994E-05-8.27128E-19-1.57590E-18
 -1       597 2.91366E-05-1.36393E-05-5.96177E-06 1.27399E-05 9.72831E-19-1.87549E-18
 -1       598 4.82410E-05-2.72194E-05-8.50374E-06 3.51696E-05 3.11009E-18-2.69648E-18
 -1       599 8.87093E-05-4.78075E-05-1.71395E-05 4.00913E-05 3.95358E-18-1.03568E-18
 -1       600 1.22951E-04-6.06093E-05-2.66587E-05 2.60939E-05 2.16915E-18 1.57178E-18
 -1       601 1.41216E-04-5.50495E-05-3.71344E-05 4.70939E-06-9.70541E-19 4.93222E-18
 -1       602 1.41045E-04-3.56903E-05-4.56261E-05-1.13638E-05-4.29313E-18 6.19769E-18
 -1       603 7.77391E-05-4.40945E-05-1.40362E-05-4.22809E-05-1.13291E-18 2.51209E-18
 -1       604 1.38191E-04-2.15026E-05-5.05937E-05 1.08649E-05-2.67911E-18 2.00175E-18
 -1       605 1.43600E-04-4.30079E-05-4.34690E-05 6.30630E-06-1.59308E-18 3.69349E-18
 -1       606 1.39295E-04-5.80891E-05-3.49497E-05-1.10543E-05-1.10759E-18 4.38938E-18
 -1       607 1.18305E-04-5.99004E-05-2.49716E-05-3.05077E-05-1.22200E-18 4.95718E-18
 -1       608 9.61437E-05-2.31858E-05-3.12712E-05 9.59287E-06 1.64080E-18 1.63726E-18
 -1       609 1.42287E-04-5.44760E-05-3.78389E-05 4.39715E-06 1.26645E-18 7.01926E-19
 -1       610 9.13455E-05-1.59071E-05-3.23655E-05-7.68073E-06-9.51228E-19-1.22692E-18
 -1       611 7.58910E-05-4.01826E-05-1.48618E-05 3.98451E-05-3.37085E-18 4.74473E-18
 -1       612 9.64918E-05-2.71530E-05-2.97121E-05-5.82921E-06-1.01125E-18-2.41982E-18
 -1       613 4.37935E-05-2.05151E-05-9.38844E-06 2.65157E-05 3.52313E-19 3.51895E-18
 -1       614 1.27690E-04-1.34228E-05-4.95999E-05 8.38740E-06-3.36823E-18-8.11246E-19
 -1       615 8.47492E-05-4.17272E-05-1.81209E-05-3.60450E-05-1.65455E-18 4.01679E-19
 -1       616 1.02735E-04-5.29575E-05-2.10906E-05-3.49187E-05 3.77856E-19 3.64158E-18
 -1       617 1.25428E-04-1.02545E-05-4.99367E-05-5.88731E-06-4.30409E-18 1.06393E-18
 -1       618 1.32570E-04-2.67061E-05-4.59287E-05-1.40118E-05 2.27656E-18 8.40786E-19
 -1       619 1.24372E-04-1.03539E-05-4.94526E-05-4.02068E-06 3.42852E-18 2.85228E-19
 -1       620 1.36723E-04-5.51368E-05-3.50958E-05 2.06850E-07 2.12087E-18 2.26608E-18
 -1       621 9.15758E-05-1.68555E-05-3.20285E-05 2.44452E-06 7.76285E-19-8.76163E-19
 -1       622 9.13205E-05-1.64552E-05-3.20905E-05 8.41479E-07 4.74372E-19-1.22345E-18
 -1       623 9.29340E-05-1.90259E-05-3.16782E-05 5.29569E-06 1.26740E-18-6.96293E-19
 -1       624 9.39684E-05-2.08995E-05-3.13215E-05 6.16863E-06 1.30754E-18-3.26001E-19
 -1       625 9.52683E-05-2.40942E-05-3.04945E-05 5.16802E-06 1.27800E-18 2.80301E-19
 -1       626 1.35439E-04-4.88199E-05-3.73667E-05-6.81382E-06 2.85357E-19 1.51547E-18
 -1       627 9.53416E-05-2.59393E-05-2.97398E-05 2.62533E-06 1.06451E-18 2.30246E-19
 -1       628 1.31075E-04-3.25888E-05-4.26447E-05 1.51000E-05 2.33969E-18 4.17026E-18
 -1       629 9.54150E-05-2.57021E-05-2.98754E-05-2.45344E-06-6.88883E-19-1.56571E-19
 -1       630 9.54752E-05-2.69401E-05-2.93714E-05-8.74075E-07-6.75406E-19-1.72596E-19
 -1       631 9.54216E-05-2.76952E-05-2.90253E-05 1.35117E-07-4.04002E-19-4.45671E-19
 -1       632 9.53470E-05-2.81588E-05-2.87949E-05 7.35994E-07-7.04895E-19-7.94422E-19
 -1       633 9.52850E-05-2.84375E-05-2.86490E-05 1.05843E-06-6.19144E-19-6.85552E-19
 -1       634 9.52432E-05-2.85940E-05-2.85640E-05 1.20219E-06-1.10286E-19-4.10356E-19
 -1       635 9.52205E-05-2.86667E-05-2.85232E-05 1.24143E-06-1.00590E-19-6.42064E-19
 -1       636 9.52131E-05-2.86798E-05-2.85144E-05 1.23092E-06-2.88515E-19-4.35831E-19
 -1       637 9.52173E-05-2.86490E-05-2.85294E-05 1.21150E-06-4.35217E-19-3.84051E-19
 -1       638 9.52305E-05-2.85839E-05-2.85628E-05 1.21425E-06-6.40641E-19-3.62465E-20
 -1       639 9.52507E-05-2.84906E-05-2.86114E-05 1.26376E-06-1.79088E-19-1.52102E-19
 -1       640 9.52772E-05-2.83724E-05-2.86734E-05 1.38043E-06 1.70255E-19 1.37809E-19
 -1       641 9.53099E-05-2.82309E-05-2.87480E-05 1.58205E-06-5.09512E-19 4.38993E-19
 -1       642 9.53496E-05-2.80681E-05-2.88348E-05 1.88463E-06-1.01854E-18 6.57468E-19
 -1       643 9.53983E-05-2.78869E-05-2.89332E-05 2.30248E-06-5.48785E-19 1.22211E-19
 -1       644 9.54599E-05-2.76945E-05-2.90420E-05 2.84741E-06-2.10108E-19-2.95211E-19
 -1       645 9.55424E-05-2.75051E-05-2.91584E-05 3.52690E-06-7.62736E-19 1.59783E-19
 -1       646 9.56609E-05-2.73456E-05-2.92774E-05 4.34110E-06 2.77069E-19-7.98656E-19
 -1       647 9.58444E-05-2.72636E-05-2.93912E-05 5.27829E-06 8.25508E-19-1.41473E-18
 -1       648 9.61459E-05-2.73379E-05-2.94886E-05 6.30833E-06-1.23878E-19-1.42884E-18
 -1       649 9.66583E-05-2.76926E-05-2.95563E-05 7.37313E-06-9.14278E-19-1.63297E-18
 -1       650 9.75369E-05-2.85107E-05-2.95825E-05 8.37220E-06-1.12108E-18-1.60230E-18
 -1       651 9.90217E-05-3.00375E-05-2.95652E-05 9.13850E-06 3.27231E-19-6.78924E-19
 -1       652 1.01447E-04-3.25481E-05-2.95294E-05 9.39565E-06 9.01575E-19-5.22338E-19
 -1       653 1.05183E-04-3.62213E-05-2.95579E-05 8.68177E-06 7.06295E-19 1.75652E-19
 -1       654 1.10417E-04-4.08122E-05-2.98298E-05 6.34724E-06 8.26727E-19 7.58939E-19
 -1       655 1.16683E-04-4.51120E-05-3.06767E-05 1.53654E-06 1.12284E-18 1.69342E-18
 -1       656 1.22197E-04-4.63514E-05-3.25441E-05-5.82607E-06 2.49831E-19 2.24722E-18
 -1       657 1.23659E-04-4.05925E-05-3.57289E-05-1.33947E-05-2.49486E-18 2.83292E-18
 -1       658 1.19797E-04-2.76956E-05-3.97329E-05-1.52994E-05-3.38773E-18 1.40895E-18
 -1       659 1.14518E-04-1.67883E-05-4.22131E-05 7.55414E-06-1.58483E-18-1.29479E-18
 -1       660 1.20153E-04-2.96567E-05-3.90139E-05 1.48766E-05 2.25496E-19-3.19090E-18
 -1       661 1.23615E-04-4.19134E-05-3.51228E-05 1.20729E-05 8.22039E-19-3.42677E-18
 -1       662 1.21533E-04-4.66055E-05-3.21305E-05 3.97640E-06 1.36166E-18-6.61559E-19
 -1       663 1.15777E-04-4.48046E-05-3.04137E-05-3.27186E-06 1.04323E-18-3.07912E-19
 -1       664 1.09598E-04-4.03936E-05-2.96622E-05-7.85351E-06 5.51353E-20 1.11299E-19
 -1       665 1.04531E-04-3.58604E-05-2.94334E-05-1.01091E-05 7.44062E-19-1.01250E-18
 -1       666 1.00959E-04-3.22851E-05-2.94334E-05-1.07835E-05 1.01334E-18-1.31677E-18
 -1       667 9.86078E-05-2.97634E-05-2.95051E-05-1.05093E-05 2.60469E-18-1.48491E-18
 -1       668 9.71019E-05-2.80662E-05-2.95861E-05-9.65962E-06 1.12659E-18-3.67592E-18
 -1       669 9.60998E-05-2.68857E-05-2.96620E-05-8.44149E-06-1.64803E-18-2.20609E-18
 -1       670 9.49822E-05-2.81000E-05-2.86635E-05-7.44974E-07 6.95025E-19-1.79981E-20
 -1       671 4.88043E-05-1.88566E-05-1.24139E-05 2.39969E-05 1.02883E-18-1.66453E-18
 -1       672 9.50902E-05-2.76994E-05-2.88810E-05-1.25353E-07 7.92556E-19-4.74638E-20
 -1       673 9.49100E-05-2.84919E-05-2.84650E-05-1.21213E-06 2.12426E-19 2.88257E-19
 -1       674 9.49278E-05-2.85699E-05-2.84392E-05-1.24381E-06 6.61276E-19 2.51093E-19
 -1       675 9.49679E-05-2.85997E-05-2.84436E-05-1.22256E-06 5.06579E-19 4.35245E-19
 -1       676 9.50234E-05-2.85940E-05-2.84698E-05-1.18946E-06 3.97737E-19 1.84619E-19
 -1       677 9.50905E-05-2.85609E-05-2.85127E-05-1.17544E-06 3.68747E-19 5.30457E-19
 -1       678 9.51678E-05-2.85056E-05-2.85695E-05-1.20471E-06 3.10864E-19 2.87653E-19
 -1       679 9.52562E-05-2.84316E-05-2.86390E-05-1.29724E-06-6.44304E-20 3.73072E-19
 -1       680 9.53585E-05-2.83412E-05-2.87215E-05-1.47043E-06-1.97381E-19 8.02277E-19
 -1       681 9.54788E-05-2.82367E-05-2.88177E-05-1.73993E-06-1.05833E-20 9.87877E-19
 -1       682 9.56230E-05-2.81216E-05-2.89287E-05-2.11981E-06 1.68218E-19 1.04023E-18
 -1       683 9.57989E-05-2.80024E-05-2.90550E-05-2.62171E-06-1.41387E-19 1.33576E-18
 -1       684 9.60175E-05-2.78916E-05-2.91961E-05-3.25292E-06-1.42895E-19 1.53157E-18
 -1       685 9.62955E-05-2.78115E-05-2.93495E-05-4.01284E-06 2.92965E-19 1.14098E-18
 -1       686 9.66594E-05-2.78007E-05-2.95100E-05-4.88768E-06 1.08200E-19 8.10606E-19
 -1       687 9.71533E-05-2.79234E-05-2.96691E-05-5.84240E-06 6.96863E-19 1.78679E-18
 -1       688 9.78506E-05-2.82802E-05-2.98152E-05-6.80926E-06-5.52929E-21 1.71186E-18
 -1       689 9.88697E-05-2.90192E-05-2.99359E-05-7.67179E-06-5.60577E-19 7.78638E-19
 -1       690 1.00389E-04-3.03368E-05-3.00236E-05-8.24273E-06-5.34243E-19 9.81561E-19
 -1       691 1.02650E-04-3.24488E-05-3.00892E-05-8.23445E-06-2.13091E-19 1.95259E-18
 -1       692 1.05904E-04-3.54856E-05-3.01830E-05-7.22001E-06-4.73310E-20 2.23017E-18
 -1       693 1.10217E-04-3.92179E-05-3.04295E-05-4.63603E-06-1.56494E-20 2.00510E-18
 -1       694 1.15108E-04-4.26307E-05-3.10618E-05-1.48832E-08-5.02984E-20 2.67564E-18
 -1       695 1.19219E-04-4.37161E-05-3.23823E-05 6.55462E-06 6.19010E-19 3.08493E-18
 -1       696 1.20175E-04-3.95800E-05-3.45837E-05 1.31198E-05 1.42887E-19 2.29588E-18
 -1       697 1.16249E-04-2.95780E-05-3.73272E-05 1.50725E-05-3.16254E-19 1.85413E-20
 -1       698 1.12218E-04-2.03408E-05-3.95379E-05 8.26575E-06 1.27965E-18-1.44353E-19
 -1       699 1.10562E-04-1.81223E-05-3.98580E-05-4.42692E-06 2.31069E-18-6.54624E-19
 -1       700 1.14498E-04-2.63866E-05-3.79377E-05-1.35433E-05 3.01864E-18-1.41434E-18
 -1       701 1.19483E-04-3.74335E-05-3.52176E-05-1.35094E-05 9.58716E-19-1.20550E-18
 -1       702 1.19701E-04-4.33238E-05-3.27604E-05-7.61449E-06-1.46057E-19 1.24657E-18
 -1       703 1.16226E-04-4.34551E-05-3.11987E-05-6.77727E-07-1.61172E-18 1.97598E-18
 -1       704 1.11259E-04-4.03850E-05-3.03811E-05 4.70614E-06-1.76214E-18 6.16142E-19
 -1       705 1.06626E-04-3.65565E-05-3.00346E-05 7.94660E-06 4.29710E-19 6.25986E-19
 -1       706 1.02990E-04-3.32177E-05-2.99059E-05 9.45142E-06 9.07830E-19 7.27806E-19
 -1       707 1.00370E-04-3.07204E-05-2.98513E-05 9.76070E-06 1.17885E-18-1.34544E-18
 -1       708 9.85246E-05-2.89670E-05-2.98104E-05 9.29036E-06 1.91024E-18-2.54692E-18
 -1       709 9.71918E-05-2.77204E-05-2.97716E-05 8.30400E-06-5.99435E-19-7.49018E-19
 -1       710 9.60298E-05-2.66593E-05-2.97282E-05 7.46275E-06-1.10079E-18 4.99757E-19
 -1       711 8.85625E-05-2.03543E-05-2.92338E-05 1.53081E-06 3.50062E-19 1.39954E-18
 -1       712 9.55792E-05-2.62541E-05-2.97084E-05-7.46177E-06-1.06196E-18 1.43868E-18
 -1       713 9.08949E-05-2.23689E-05-2.93691E-05 6.51072E-06 1.16187E-18-7.57619E-19
 -1       714 8.85616E-05-2.03528E-05-2.92339E-05-1.54297E-06 8.45265E-20-1.14945E-18
 -1       715 8.94021E-05-2.10818E-05-2.92811E-05 4.35669E-06 6.25499E-19 1.34242E-18
 -1       716 9.52471E-05-2.70585E-05-2.92226E-05 9.34330E-07 9.77085E-19 1.47116E-20
 -1       717 8.93790E-05-2.10598E-05-2.92807E-05-4.32633E-06 3.92831E-19-1.08653E-18
 -1       718 9.08671E-05-2.23413E-05-2.93689E-05-6.49719E-06 1.52740E-18-3.05139E-19
 -1       719 9.27598E-05-2.39502E-05-2.94909E-05-7.72529E-06 5.03071E-19 4.40220E-19
 -1       720 4.74277E-05-1.88339E-05-1.17206E-05-2.34786E-05 2.89407E-19 4.86255E-18
 -1       721 9.41751E-05-2.09781E-05-3.13698E-05-7.07367E-06-1.06555E-18-5.49823E-19
 -1       722 1.26454E-04-2.52973E-05-4.38341E-05-1.56349E-05-4.01557E-18 2.76003E-18
 -1       723 6.63788E-05-3.16388E-05-1.44695E-05-3.51974E-05 2.49531E-19 1.03441E-18
 -1       724 1.36114E-04-4.69715E-05-3.84548E-05-8.95009E-06-3.42219E-18 3.82854E-18
 -1       725 1.10857E-04-5.42354E-05-2.41647E-05 2.71339E-05 2.26523E-18-8.19584E-19
 -1       726 9.49244E-05-2.83459E-05-2.85336E-05-1.07161E-06 3.17270E-19 9.27768E-20
 -1       727 9.50832E-05-2.38598E-05-3.05249E-05-4.48920E-06-8.48817E-19-3.21891E-19
 -1       728 9.21073E-05-1.76903E-05-3.18975E-05 3.97297E-06 1.02055E-18-6.09433E-19
 -1       729 9.20564E-05-1.76255E-05-3.19046E-05-3.90509E-06-4.71431E-19-1.08061E-18
 -1       730 1.22919E-04-1.54148E-05-4.66240E-05 1.09793E-05 1.59512E-18 1.92515E-18
 -1       731 4.98189E-05-1.92307E-05-1.26296E-05-2.41571E-05-1.02294E-18-7.74982E-19
 -1       732 1.31015E-04-3.28949E-05-4.24044E-05 1.44581E-05-1.94579E-19-1.87893E-18
 -1       733 3.77995E-05-1.22878E-05-1.03774E-05-3.22599E-06 4.29059E-19 2.27137E-18
 -1       734 1.13393E-04-5.66125E-05-2.42182E-05 2.86417E-05-4.43030E-18 1.68517E-18
 -1       735 7.54937E-05-3.52271E-05-1.69008E-05 3.47316E-05 2.45483E-18-1.76273E-18
 -1       736 1.32052E-04-5.91922E-05-3.12965E-05 1.09194E-05-1.49141E-18 1.04905E-18
 -1       737 1.35807E-04-5.18830E-05-3.62042E-05 4.22487E-06 1.01405E-18-4.15046E-20
 -1       738 1.20234E-04-5.74875E-05-2.68479E-05-2.03216E-05-1.45774E-18 7.98031E-19
 -1       739 1.29909E-04-5.91378E-05-3.03982E-05-1.25443E-05 1.51283E-18 1.46292E-18
 -1       740 1.32042E-04-5.84429E-05-3.16171E-05 8.58988E-06-2.61932E-19 1.69907E-18
 -1       741 3.87284E-05-1.13827E-05-1.12093E-05-2.86179E-06 1.11977E-18-5.34425E-19
 -1       742 9.28731E-05-1.89205E-05-3.16980E-05-5.29672E-06-6.52960E-19-1.02460E-18
 -1       743 9.13135E-05-1.64460E-05-3.20914E-05-7.84488E-07 2.51525E-19-1.11372E-18
 -1       744 4.38670E-05-1.37880E-05-1.24257E-05 1.06614E-05 7.20627E-19 2.01774E-18
 -1       745 1.31156E-04-4.34679E-05-3.77934E-05 1.18752E-05 1.61137E-18 5.16555E-18
 -1       746 9.27765E-05-2.39690E-05-2.94904E-05 7.72375E-06 1.42947E-18 4.23689E-18
 -1       747 9.82209E-05-4.77446E-05-2.13919E-05 3.25295E-05-3.07638E-18 3.91051E-19
 -1       748 1.14671E-04-1.61418E-05-4.25326E-05-6.51152E-06-3.33587E-18 6.61059E-19
 -1       749 4.89927E-05-1.34226E-05-1.49390E-05 1.04846E-05 3.89503E-19-1.51772E-18
 -1       750 1.18646E-04-5.59846E-05-2.67613E-05-2.02837E-05 2.17732E-18-9.07516E-20
 -1       751 9.44509E-05-2.53379E-05-2.96194E-05 7.91456E-06-1.08847E-18 1.48899E-18
 -1       752 1.03323E-04-4.77729E-05-2.37081E-05-2.64854E-05-1.77516E-18 1.03846E-18
 -1       753 9.70600E-05-4.44120E-05-2.24266E-05 2.86117E-05 2.55950E-18-1.09727E-18
 -1       754 9.43050E-05-2.54086E-05-2.95264E-05-8.37679E-06 7.49373E-19 3.59697E-18
 -1       755 6.42553E-05-2.85702E-05-1.48916E-05 3.22806E-05-1.88235E-18 3.31997E-18
 -1       756 6.98723E-05-2.89679E-05-1.72463E-05-2.97910E-05-1.71318E-18-7.18006E-19
 -1       757 8.71432E-05-4.10889E-05-1.94918E-05-3.37954E-05 1.13418E-18 2.19045E-18
 -1       758 9.15547E-05-1.68260E-05-3.20321E-05-2.38353E-06-1.32633E-19-1.00708E-18
 -1       759 1.29880E-04-3.80700E-05-3.96397E-05-1.36666E-05 1.08391E-18 1.04556E-21
 -1       760 9.50938E-05-2.39239E-05-3.05038E-05 3.77021E-06 1.13100E-18-3.05115E-19
 -1       761 9.58758E-05-2.68740E-05-2.95722E-05-5.86527E-07-6.20024E-19-5.23281E-19
 -1       762 9.59697E-05-2.77528E-05-2.92359E-05 2.29840E-07-8.19628E-19-3.59505E-19
 -1       763 9.59572E-05-2.82985E-05-2.89966E-05 7.25011E-07-7.36484E-19-3.75398E-19
 -1       764 9.58930E-05-2.86164E-05-2.88328E-05 9.97208E-07-2.82023E-19-3.51325E-19
 -1       765 9.58058E-05-2.87766E-05-2.87269E-05 1.12467E-06-2.34647E-19-6.27216E-19
 -1       766 9.57100E-05-2.88253E-05-2.86649E-05 1.16908E-06-2.54322E-19-3.04143E-19
 -1       767 9.56119E-05-2.87933E-05-2.86366E-05 1.17800E-06-2.94513E-19-1.19047E-19
 -1       768 9.55131E-05-2.87003E-05-2.86341E-05 1.18797E-06-6.13335E-20 1.64476E-19
 -1       769 9.54122E-05-2.85582E-05-2.86517E-05 1.22756E-06-2.25908E-19 4.33677E-19
 -1       770 9.53059E-05-2.83735E-05-2.86853E-05 1.31981E-06-4.32726E-19 2.32040E-19
 -1       771 9.51893E-05-2.81488E-05-2.87316E-05 1.48422E-06-3.25745E-19-8.29539E-20
 -1       772 9.50565E-05-2.78852E-05-2.87876E-05 1.73789E-06-5.33793E-19 7.85687E-20
 -1       773 9.49012E-05-2.75835E-05-2.88504E-05 2.09626E-06-8.91148E-19 3.67647E-19
 -1       774 9.47178E-05-2.72471E-05-2.89159E-05 2.57324E-06-6.41225E-19 2.11086E-19
 -1       775 9.45033E-05-2.68857E-05-2.89789E-05 3.18070E-06-2.30553E-19 6.58993E-20
 -1       776 9.42601E-05-2.65197E-05-2.90315E-05 3.92766E-06-4.74268E-19 8.73937E-19
 -1       777 9.40024E-05-2.61882E-05-2.90631E-05 4.81924E-06-1.60041E-19 3.72211E-19
 -1       778 9.37651E-05-2.59586E-05-2.90597E-05 5.85566E-06 3.68728E-19-1.18259E-19
 -1       779 9.36197E-05-2.59417E-05-2.90046E-05 7.03109E-06-7.06744E-19-6.82025E-19
 -1       780 9.36980E-05-2.63094E-05-2.88806E-05 8.33114E-06-7.38937E-19-1.63712E-19
 -1       781 9.42260E-05-2.73148E-05-2.86760E-05 9.72435E-06-5.57704E-19 4.05174E-19
 -1       782 9.55685E-05-2.93052E-05-2.83984E-05 1.11352E-05 2.64508E-19-2.25281E-19
 -1       783 9.82726E-05-3.27047E-05-2.80997E-05 1.23762E-05 8.25185E-19-7.44864E-19
 -1       784 1.03083E-04-3.78601E-05-2.79538E-05 1.28214E-05 1.43154E-18 3.37028E-19
 -1       785 1.10521E-04-4.45905E-05-2.82410E-05 1.16330E-05 1.32027E-18 1.52891E-18
 -1       786 1.20410E-04-5.10113E-05-2.97065E-05 6.89608E-06 1.34963E-18 2.10326E-18
 -1       787 1.28388E-04-5.23029E-05-3.27273E-05 4.41150E-07 1.96021E-18-3.27364E-18
 -1       788 1.19550E-04-5.08605E-05-2.93912E-05-8.57595E-06 2.08996E-18-1.82125E-18
 -1       789 1.09905E-04-4.41529E-05-2.81910E-05-1.28141E-05 1.69997E-18-7.07521E-19
 -1       790 1.02757E-04-3.75337E-05-2.79508E-05-1.40329E-05 7.76891E-19 4.53410E-19
 -1       791 9.83773E-05-3.26179E-05-2.81819E-05-1.35010E-05-7.39753E-19 1.68080E-18
 -1       792 9.59108E-05-2.93038E-05-2.85458E-05-1.23530E-05 5.37671E-19 5.92495E-19
 -1       793 9.47055E-05-2.72200E-05-2.89218E-05-1.09576E-05 2.70642E-18 1.08210E-19
 -1       794 9.44431E-05-2.61730E-05-2.92573E-05-9.66645E-06 1.40307E-18 1.51031E-18
 -1       795 8.69235E-05-2.05734E-05-2.84360E-05-3.63967E-06 1.54429E-19-3.35262E-19
 -1       796 9.55075E-05-2.87612E-05-2.86056E-05-1.21247E-06 4.74239E-19-9.02327E-20
 -1       797 9.55708E-05-2.87014E-05-2.86583E-05-1.17088E-06 5.43214E-19 2.72717E-19
 -1       798 9.53976E-05-2.86856E-05-2.85909E-05-1.20999E-06-7.76133E-21 1.03244E-19
 -1       799 9.53489E-05-2.85792E-05-2.86156E-05-1.23436E-06 1.09567E-19-1.81931E-20
 -1       800 9.53011E-05-2.84369E-05-2.86561E-05-1.30969E-06-1.01950E-19 9.71586E-19
 -1       801 9.52514E-05-2.82619E-05-2.87098E-05-1.45603E-06-2.94750E-19 1.01089E-18
 -1       802 9.51968E-05-2.80555E-05-2.87748E-05-1.69096E-06-1.01875E-19 1.16662E-18
 -1       803 9.51341E-05-2.78190E-05-2.88492E-05-2.03025E-06-1.86761E-19 1.19252E-18
 -1       804 9.50613E-05-2.75559E-05-2.89308E-05-2.48791E-06-2.16242E-19 1.52037E-18
 -1       805 9.49788E-05-2.72748E-05-2.90158E-05-3.07549E-06-2.16274E-19 1.82522E-18
 -1       806 9.48921E-05-2.69939E-05-2.90990E-05-3.80066E-06 1.67504E-19 2.02848E-18
 -1       807 9.48164E-05-2.67476E-05-2.91720E-05-4.66500E-06-1.67782E-19 2.50081E-18
 -1       808 9.47857E-05-2.65958E-05-2.92239E-05-5.66104E-06-8.57079E-20 2.58604E-18
 -1       809 9.48657E-05-2.66369E-05-2.92406E-05-6.76814E-06 2.87629E-19 2.22341E-18
 -1       810 9.51752E-05-2.70246E-05-2.92071E-05-7.94586E-06 3.68119E-19 1.71116E-18
 -1       811 9.59136E-05-2.79827E-05-2.91132E-05-9.12138E-06-3.47051E-19 1.86476E-18
 -1       812 9.73919E-05-2.98102E-05-2.89643E-05-1.01636E-05-7.35872E-19 1.02927E-18
 -1       813 1.00057E-04-3.28534E-05-2.88032E-05-1.08279E-05-2.75064E-19 1.38318E-18
 -1       814 1.04454E-04-3.73706E-05-2.87486E-05-1.05994E-05-1.17011E-18 2.08509E-18
 -1       815 1.10865E-04-4.30110E-05-2.90661E-05-8.53906E-06-6.38033E-19 3.43675E-18
 -1       816 1.18799E-04-4.82668E-05-3.02370E-05-3.65686E-06-1.98813E-19 4.54432E-18
 -1       817 1.25853E-04-4.90976E-05-3.29588E-05 5.03640E-06 4.06285E-19 5.77401E-18
 -1       818 1.21379E-04-4.96079E-05-3.07714E-05 2.44370E-06-9.76741E-19 6.89583E-19
 -1       819 1.13180E-04-4.49796E-05-2.92172E-05 8.61039E-06-1.74053E-18 1.41321E-18
 -1       820 1.06195E-04-3.91859E-05-2.87150E-05 1.14814E-05-5.42457E-19 8.33219E-21
 -1       821 1.01279E-04-3.42718E-05-2.87171E-05 1.22153E-05-2.55545E-19 6.32019E-19
 -1       822 9.81963E-05-3.07413E-05-2.89094E-05 1.18359E-05 1.24035E-18 1.42766E-18
 -1       823 9.64045E-05-2.83942E-05-2.91467E-05 1.09090E-05 2.03998E-18 1.60401E-18
 -1       824 9.54176E-05-2.68805E-05-2.93728E-05 9.67543E-06 1.10475E-18 2.13814E-18
 -1       825 9.48581E-05-2.60614E-05-2.94864E-05 8.83207E-06-9.40932E-19 1.02291E-18
 -1       826 1.21342E-04-5.43003E-05-2.87404E-05 1.22434E-05 1.16959E-18 1.60053E-18
 -1       827 9.32294E-05-1.97844E-05-3.14788E-05 1.23365E-06 5.50035E-19-8.37704E-19
 -1       828 8.86796E-05-2.18844E-05-2.86268E-05-6.65823E-06 1.37885E-18 1.12004E-18
 -1       829 8.62923E-05-2.00999E-05-2.83702E-05 2.88482E-08 8.64729E-21 5.52623E-19
 -1       830 6.75863E-05-2.46900E-05-1.81324E-05-2.53093E-05 1.79949E-18 1.08809E-18
 -1       831 5.46037E-05-1.60957E-05-1.62107E-05-1.41748E-05 5.00537E-19 4.35702E-18
 -1       832 9.54499E-05-2.87500E-05-2.85857E-05-1.21265E-06 4.20086E-19-4.03538E-20
 -1       833 9.57377E-05-2.77344E-05-2.91443E-05-2.04680E-07 6.98316E-19 5.19314E-20
 -1       834 1.20894E-04-5.49503E-05-2.82692E-05 1.47099E-05-3.14035E-18 2.97719E-18
 -1       835 1.25944E-04-2.35175E-05-4.43599E-05 1.34890E-05-2.09270E-18-1.99574E-18
 -1       836 9.55911E-05-2.55039E-05-3.00370E-05-1.82159E-06-6.58906E-19-5.13848E-19
 -1       837 1.29032E-04-5.11603E-05-3.35051E-05-4.24346E-06-9.39411E-19 3.33884E-18
 -1       838 1.28606E-04-5.29694E-05-3.24935E-05 3.68423E-07-1.09278E-18 1.42467E-19
 -1       839 9.11621E-05-2.36933E-05-2.89171E-05-8.57996E-06 2.52389E-18-4.04108E-19
 -1       840 1.26324E-04-5.36001E-05-3.12229E-05-3.83405E-06-4.59721E-19 4.19237E-18
 -1       841 6.88897E-05-2.46039E-05-1.87372E-05 2.48540E-05 1.51079E-18-1.12722E-18
 -1       842 5.16084E-05-1.44494E-05-1.56342E-05-1.25406E-05 7.41425E-19 2.81347E-19
 -1       843 9.31199E-05-1.95822E-05-3.15176E-05 2.28160E-08 2.82181E-19-9.04863E-19
 -1       844 5.65753E-05-1.89918E-05-1.58042E-05 2.03360E-05 5.06043E-19 1.02435E-18
 -1       845 9.45974E-05-2.25300E-05-3.08864E-05 3.22266E-06 8.25710E-19-5.13990E-19
 -1       846 9.11800E-05-2.37124E-05-2.89130E-05 8.57369E-06 6.58483E-19 1.29853E-18
 -1       847 1.10983E-04-5.01317E-05-2.59574E-05 2.10146E-05-2.42024E-18 3.11322E-18
 -1       848 5.43950E-05-1.30373E-05-1.75419E-05-7.03787E-07 8.88938E-20-1.34674E-18
 -1       849 1.30721E-04-3.88973E-05-3.95582E-05-1.38989E-05-3.46513E-18 2.69769E-18
 -1       850 9.50064E-05-2.36124E-05-3.05952E-05-3.33912E-06-5.37779E-19-4.93696E-19
 -1       851 9.57003E-05-2.82429E-05-2.89104E-05-7.43848E-07 3.93733E-19 1.79636E-19
 -1       852 1.05595E-04-4.83401E-05-2.44464E-05-2.52934E-05 2.26379E-18-6.89584E-19
 -1       853 9.57197E-05-2.69300E-05-2.94812E-05 6.91568E-07 7.05918E-19-4.62521E-20
 -1       854 9.56377E-05-2.85429E-05-2.87549E-05-1.03705E-06-2.09934E-20 2.77441E-19
 -1       855 1.27767E-04-4.71144E-05-3.46507E-05-7.97343E-06-1.38845E-18 5.29528E-19
 -1       856 8.86961E-05-2.19037E-05-2.86256E-05 6.65194E-06 1.55442E-18 1.26193E-18
 -1       857 9.35401E-05-2.03690E-05-3.13632E-05 2.34910E-06 7.64013E-19-5.98517E-19
 -1       858 8.69404E-05-2.05890E-05-2.84382E-05 3.66776E-06 9.53693E-19 6.69386E-20
 -1       859 8.95519E-05-3.81023E-05-2.19350E-05-2.70744E-05-1.81058E-18 2.75153E-20
 -1       860 8.50068E-05-3.74447E-05-2.01653E-05 3.09811E-05-3.53554E-18 1.89087E-18
 -1       861 6.41557E-05-2.08703E-05-1.83645E-05-2.06549E-05-9.40326E-19 6.13768E-19
 -1       862 5.31393E-05-1.37290E-05-1.66218E-05-3.57679E-06 1.43306E-19 2.66699E-18
 -1       863 9.27570E-05-2.49406E-05-2.90625E-05-9.33164E-06 2.66107E-18 5.11853E-19
 -1       864 8.52910E-05-3.31411E-05-2.22818E-05 2.46854E-05 1.84058E-18 5.51657E-19
 -1       865 9.35217E-05-2.03313E-05-3.13682E-05-2.33023E-06-3.07281E-19-7.74147E-19
 -1       866 9.39952E-05-2.12935E-05-3.11634E-05-3.27675E-06-4.86507E-19-1.02708E-18
 -1       867 9.54675E-05-2.52601E-05-3.00896E-05 2.32026E-06 1.03464E-18-2.35077E-19
 -1       868 9.63738E-05-2.78859E-05-2.93521E-05 3.11918E-07-6.49347E-19-3.78337E-19
 -1       869 9.63858E-05-2.84510E-05-2.91149E-05 6.77443E-07-5.55133E-19-4.04739E-20
 -1       870 9.63073E-05-2.87674E-05-2.89457E-05 8.80489E-07-3.02592E-19-9.01910E-20
 -1       871 9.61765E-05-2.89052E-05-2.88306E-05 9.79096E-07-1.22505E-19-2.61090E-19
 -1       872 9.60154E-05-2.89134E-05-2.87580E-05 1.02077E-06-1.83213E-19-2.86873E-19
 -1       873 9.58356E-05-2.88253E-05-2.87187E-05 1.04323E-06-1.78880E-19 2.56840E-20
 -1       874 9.56408E-05-2.86619E-05-2.87052E-05 1.07615E-06-4.17612E-19-5.53656E-19
 -1       875 9.54292E-05-2.84358E-05-2.87115E-05 1.14312E-06-3.00610E-19-3.75660E-19
 -1       876 9.51947E-05-2.81528E-05-2.87322E-05 1.26365E-06-3.69745E-19 1.70163E-19
 -1       877 9.49278E-05-2.78147E-05-2.87628E-05 1.45454E-06-2.37228E-19 3.30118E-19
 -1       878 9.46169E-05-2.74214E-05-2.87981E-05 1.73067E-06-5.50914E-19 3.43756E-19
 -1       879 9.42489E-05-2.69733E-05-2.88324E-05 2.10595E-06-9.61833E-19 6.78324E-19
 -1       880 9.38113E-05-2.64749E-05-2.88585E-05 2.59353E-06-1.12109E-19 7.08232E-19
 -1       881 9.32937E-05-2.59385E-05-2.88665E-05 3.20617E-06-1.81587E-19 1.10627E-18
 -1       882 9.26926E-05-2.53900E-05-2.88439E-05 3.95731E-06 2.29170E-19 7.65988E-19
 -1       883 9.20167E-05-2.48770E-05-2.87741E-05 4.86332E-06-2.48764E-19 7.34301E-19
 -1       884 9.12973E-05-2.44791E-05-2.86363E-05 5.94789E-06-6.77950E-19 3.43783E-19
 -1       885 9.06050E-05-2.43236E-05-2.84063E-05 7.24916E-06-6.87746E-19 8.26336E-19
 -1       886 9.00753E-05-2.46057E-05-2.80585E-05 8.82877E-06-2.44260E-19 4.67697E-19
 -1       887 8.99537E-05-2.56177E-05-2.75728E-05 1.07776E-05-5.55583E-19 5.90701E-19
 -1       888 9.06659E-05-2.77830E-05-2.69488E-05 1.31969E-05 4.30731E-19-2.86989E-19
 -1       889 9.28910E-05-3.16776E-05-2.62231E-05 1.61644E-05 1.07043E-18-3.87091E-19
 -1       890 6.25840E-05-1.69538E-05-1.94072E-05 1.34534E-05 1.39325E-18 1.14098E-19
 -1       891 9.36346E-05-3.18311E-05-2.64942E-05-1.68073E-05 1.27863E-18-2.29674E-19
 -1       892 9.16619E-05-2.80754E-05-2.72518E-05-1.40828E-05 1.16217E-18 1.85567E-18
 -1       893 9.11708E-05-2.58659E-05-2.79895E-05-1.17807E-05 1.90235E-19 3.18679E-18
 -1       894 9.54364E-05-2.84980E-05-2.86879E-05-1.19597E-06-4.66785E-19 5.06698E-19
 -1       895 9.55978E-05-2.86860E-05-2.86765E-05-1.13884E-06 1.72367E-19 1.34422E-19
 -1       896 9.50624E-05-2.79732E-05-2.87525E-05-1.49129E-06-4.83884E-19 1.13151E-18
 -1       897 9.48336E-05-2.76392E-05-2.87976E-05-1.76372E-06-1.97232E-19 1.33515E-18
 -1       898 9.45642E-05-2.72584E-05-2.88453E-05-2.13928E-06-2.60954E-19 1.18601E-18
 -1       899 9.42450E-05-2.68351E-05-2.88899E-05-2.63142E-06-4.78172E-19 1.31473E-18
 -1       900 9.38695E-05-2.63810E-05-2.89236E-05-3.25235E-06-6.62319E-20 1.43450E-18
 -1       901 9.34381E-05-2.59208E-05-2.89359E-05-4.01307E-06-3.48563E-20 1.57055E-18
 -1       902 9.29639E-05-2.54996E-05-2.89132E-05-4.92406E-06 3.27577E-19 1.02990E-18
 -1       903 9.24836E-05-2.51948E-05-2.88379E-05-5.99703E-06 2.95901E-19 1.22782E-18
 -1       904 9.20743E-05-2.51309E-05-2.86898E-05-7.24796E-06 7.28520E-19 1.14525E-18
 -1       905 9.18805E-05-2.55000E-05-2.84487E-05-8.69944E-06-8.20482E-20 1.18870E-18
 -1       906 9.21544E-05-2.65849E-05-2.81018E-05-1.03755E-05-6.72824E-19 1.10855E-18
 -1       907 9.33098E-05-2.87763E-05-2.76583E-05-1.22741E-05-9.30352E-19 9.18469E-19
 -1       908 9.59493E-05-3.25559E-05-2.71735E-05-1.43213E-05-8.34671E-19 1.03369E-18
 -1       909 1.01297E-04-3.86946E-05-2.68159E-05-1.58012E-05-9.89523E-19 2.53928E-19
 -1       910 1.03930E-04-4.12215E-05-2.68389E-05 1.72483E-05 6.02502E-20 4.11479E-18
 -1       911 9.46440E-05-3.01502E-05-2.76353E-05 1.41460E-05 1.19534E-19 2.57938E-18
 -1       912 9.32016E-05-2.74109E-05-2.81979E-05 1.22557E-05 7.13163E-19 3.61741E-18
 -1       913 9.27977E-05-2.57765E-05-2.87246E-05 1.05231E-05 5.54641E-19 4.93194E-18
 -1       914 8.55622E-05-2.10196E-05-2.76577E-05-6.37306E-06 1.36099E-18-2.02980E-19
 -1       915 9.31220E-05-2.49406E-05-2.92200E-05 8.97905E-06 7.15447E-19 6.92275E-18
 -1       916 8.38045E-05-1.98008E-05-2.74333E-05-2.27309E-06 3.64903E-19 3.39253E-19
 -1       917 6.80970E-05-1.98484E-05-2.05924E-05-1.55677E-05 1.34442E-18 1.76585E-18
 -1       918 1.13161E-04-5.06440E-05-2.67381E-05 1.78949E-05 2.51739E-18 6.49424E-19
 -1       919 9.60242E-05-2.88537E-05-2.87873E-05-1.05565E-06 4.74682E-19-3.13752E-21
 -1       920 8.87687E-05-2.32266E-05-2.80940E-05-9.25391E-06 8.90561E-19 6.67233E-19
 -1       921 8.67927E-05-3.51880E-05-2.20041E-05-2.66784E-05 2.04356E-18 9.03678E-20
 -1       922 1.15109E-04-4.96372E-05-2.80459E-05-1.29580E-05-1.52815E-18 2.24166E-18
 -1       923 1.00050E-04-4.10867E-05-2.52189E-05 2.06979E-05 2.14520E-18-1.22801E-18
 -1       924 9.78215E-05-3.45650E-05-2.71012E-05 1.60189E-05-8.69243E-19 3.89127E-18
 -1       925 9.32210E-05-1.97667E-05-3.14818E-05-1.19507E-06-1.14643E-19-7.39496E-19
 -1       926 9.52603E-05-2.82596E-05-2.87146E-05-1.30741E-06-6.81793E-19 9.01313E-19
 -1       927 9.58176E-05-2.55943E-05-3.00964E-05-1.18715E-06-5.92253E-19-8.50564E-19
 -1       928 9.62141E-05-2.69760E-05-2.96736E-05-2.78840E-07-5.97734E-19-7.22868E-19
 -1       929 7.29740E-05-2.69309E-05-1.95734E-05 2.53790E-05-1.28202E-18-8.62385E-19
 -1       930 9.82294E-05-3.78905E-05-2.58075E-05-1.98155E-05 2.02666E-18-1.17325E-18
 -1       931 8.38314E-05-1.98102E-05-2.74421E-05 2.29727E-06-1.26861E-20 2.53334E-19
 -1       932 1.00352E-04-4.32060E-05-2.44481E-05 2.39876E-05-1.10930E-18 1.08669E-18
 -1       933 5.99363E-05-1.56225E-05-1.88617E-05-1.10405E-05-1.03499E-18 1.09918E-18
 -1       934 7.41419E-05-2.33800E-05-2.16711E-05 1.89150E-05 1.97517E-18-1.28337E-18
 -1       935 9.47261E-05-2.26221E-05-3.09018E-05-1.20454E-06-2.72862E-19-6.46715E-19
 -1       936 9.20374E-05-2.53287E-05-2.85865E-05-1.04578E-05 2.13293E-18 2.83204E-19
 -1       937 9.60764E-05-2.69366E-05-2.96301E-05 3.96805E-07 4.96399E-19-1.10800E-19
 -1       938 9.61362E-05-2.87049E-05-2.88989E-05-9.46419E-07 3.13602E-19-4.63060E-20
 -1       939 9.57493E-05-2.88175E-05-2.86851E-05-1.11490E-06 3.23054E-19 4.04833E-19
 -1       940 9.55727E-05-2.49823E-05-3.02518E-05 1.69002E-06 6.30349E-19-3.80097E-19
 -1       941 9.50517E-05-2.33582E-05-3.07253E-05 1.42430E-06 5.96390E-19-3.47374E-19
 -1       942 1.13402E-04-4.93510E-05-2.73919E-05 1.60803E-05-2.57577E-18 4.75961E-18
 -1       943 9.58924E-05-2.88803E-05-2.87195E-05-1.09804E-06 5.01798E-19 6.78747E-19
 -1       944 6.47486E-05-1.67152E-05-2.04773E-05-8.76001E-06 9.68997E-19 3.07519E-18
 -1       945 8.06889E-05-2.72819E-05-2.28481E-05-2.06912E-05 1.82203E-18 5.92089E-19
 -1       946 9.45835E-05-2.22849E-05-3.09836E-05 4.07272E-07 1.67440E-19-5.79014E-19
 -1       947 5.75969E-05-1.47992E-05-1.81661E-05 6.49840E-06 2.87829E-19 1.60323E-18
 -1       948 9.62082E-05-2.78284E-05-2.93053E-05-2.91500E-07 5.00211E-19 2.15086E-19
 -1       949 9.49530E-05-2.32227E-05-3.07408E-05-1.87549E-06-3.98129E-19-9.24004E-19
 -1       950 7.95181E-05-2.85231E-05-2.17139E-05-2.30902E-05-1.18163E-18-5.85478E-20
 -1       951 9.47907E-05-2.27418E-05-3.08769E-05 9.73443E-07 4.27193E-19-6.32716E-19
 -1       952 8.91962E-05-2.34255E-05-2.81916E-05 9.40012E-06 5.88036E-19 6.68672E-19
 -1       953 8.52826E-05-2.55318E-05-2.55934E-05-1.50046E-05 2.33079E-18-6.60007E-20
 -1       954 9.66713E-05-2.80835E-05-2.93949E-05 3.37575E-07-3.22143E-19-2.46327E-19
 -1       955 9.66714E-05-2.86142E-05-2.91674E-05 5.74819E-07-2.21898E-19 1.87840E-19
 -1       956 9.65616E-05-2.88910E-05-2.90017E-05 7.06395E-07-1.30532E-19 3.24201E-19
 -1       957 9.63831E-05-2.89818E-05-2.88863E-05 7.72522E-07 4.56291E-20 4.79073E-19
 -1       958 9.61600E-05-2.89343E-05-2.88110E-05 8.06429E-07-1.22219E-19 3.50579E-19
 -1       959 9.59051E-05-2.87812E-05-2.87674E-05 8.35207E-07-5.24323E-19 3.11823E-19
 -1       960 9.56218E-05-2.85432E-05-2.87480E-05 8.79938E-07-1.95437E-19 6.80076E-19
 -1       961 9.53056E-05-2.82311E-05-2.87463E-05 9.57974E-07-1.65515E-19 4.81204E-19
 -1       962 9.49467E-05-2.78494E-05-2.87560E-05 1.08418E-06-2.94108E-19 4.04676E-19
 -1       963 9.45313E-05-2.73989E-05-2.87710E-05 1.27124E-06-5.94525E-20 6.77067E-19
 -1       964 9.40414E-05-2.68781E-05-2.87843E-05 1.53085E-06-1.87947E-19 1.10428E-18
 -1       965 9.34578E-05-2.62875E-05-2.87874E-05 1.87486E-06-2.25333E-19 1.59710E-18
 -1       966 9.27608E-05-2.56321E-05-2.87696E-05 2.31509E-06-5.39897E-20 1.94469E-18
 -1       967 9.19317E-05-2.49258E-05-2.87170E-05 2.86542E-06-3.47902E-19 1.70552E-18
 -1       968 9.09558E-05-2.41959E-05-2.86116E-05 3.54475E-06-9.02868E-20 1.34763E-18
 -1       969 8.98264E-05-2.34899E-05-2.84302E-05 4.38260E-06-6.22503E-19 6.69755E-19
 -1       970 8.85503E-05-2.28832E-05-2.81435E-05 5.42941E-06-1.95642E-19 4.35602E-19
 -1       971 8.71575E-05-2.24907E-05-2.77151E-05 6.77326E-06-5.16554E-19 9.14213E-19
 -1       972 8.57214E-05-2.24865E-05-2.71024E-05 8.56165E-06-4.23992E-19 1.06820E-18
 -1       973 8.43848E-05-2.31331E-05-2.62535E-05 1.10249E-05-5.79023E-19 1.02739E-18
 -1       974 8.34532E-05-2.48493E-05-2.51164E-05 1.45494E-05 7.25799E-19-1.24189E-20
 -1       975 9.45890E-05-2.22916E-05-3.09842E-05-4.22225E-07-7.35862E-20-6.52897E-19
 -1       976 9.62096E-05-2.83857E-05-2.90671E-05-7.13660E-07 1.38237E-19 2.51435E-19
 -1       977 8.62032E-05-2.37035E-05-2.67962E-05-1.16998E-05 6.68354E-20 8.79429E-20
 -1       978 9.43085E-05-2.71236E-05-2.87935E-05-1.65590E-06 1.19984E-19 7.17826E-19
 -1       979 9.47180E-05-2.75876E-05-2.87702E-05-1.38109E-06-3.29483E-19 4.87800E-19
 -1       980 9.32430E-05-2.60130E-05-2.88129E-05-2.49637E-06 1.06258E-19 6.39119E-19
 -1       981 9.25570E-05-2.53856E-05-2.87878E-05-3.08832E-06 9.49621E-20 1.97201E-19
 -1       982 9.17560E-05-2.47431E-05-2.87199E-05-3.81601E-06 8.99491E-20-3.55618E-20
 -1       983 9.08434E-05-2.41353E-05-2.85892E-05-4.70352E-06-1.24958E-19 2.36173E-19
 -1       984 8.98417E-05-2.36435E-05-2.83707E-05-5.79014E-06 4.33732E-20 1.16241E-18
 -1       985 8.88081E-05-2.33947E-05-2.80345E-05-7.14351E-06 5.65764E-19 1.85916E-18
 -1       986 8.78609E-05-2.35849E-05-2.75477E-05-8.87579E-06-2.11620E-19 1.77041E-18
 -1       987 8.72265E-05-2.45104E-05-2.68804E-05-1.11523E-05-3.86595E-19 9.12377E-19
 -1       988 8.72782E-05-2.65883E-05-2.60148E-05-1.42442E-05-5.81126E-19 1.03363E-18
 -1       989 8.84360E-05-3.01439E-05-2.49288E-05-1.82302E-05-1.19154E-18 1.02124E-18
 -1       990 9.61083E-05-2.59146E-05-3.00832E-05-6.28268E-07-4.35688E-19-6.61319E-19
 -1       991 8.84993E-05-2.55804E-05-2.69561E-05 1.30326E-05 7.62608E-19 3.27746E-18
 -1       992 8.14649E-05-1.97779E-05-2.64341E-05-5.53644E-06 4.60008E-19-1.31104E-19
 -1       993 6.44689E-05-1.50360E-05-2.11274E-05 2.74221E-06 6.43497E-19 3.67225E-19
 -1       994 9.06427E-05-3.28367E-05-2.47441E-05 2.04843E-05-7.33850E-19 4.40717E-18
 -1       995 8.56795E-05-2.10790E-05-2.76894E-05 6.41375E-06 8.72197E-19 7.17135E-20
 -1       996 8.85831E-05-2.81558E-05-2.58955E-05 1.62963E-05-2.83453E-19 3.88678E-18
 -1       997 8.32710E-05-2.77149E-05-2.37642E-05 1.89762E-05 7.36607E-19-8.94859E-19
 -1       998 9.64990E-05-2.72045E-05-2.96975E-05-4.89555E-08-2.29866E-19-2.78474E-19
 -1       999 9.38222E-05-2.65970E-05-2.88108E-05-2.02344E-06-4.69677E-19 6.07264E-19
 -1      1000 9.56405E-05-2.86006E-05-2.87313E-05-9.81607E-07-1.19983E-19 8.50540E-19
 -1      1001 9.61223E-05-2.59402E-05-3.00780E-05 5.69841E-07 2.60685E-19-3.35704E-19
 -1      1002 8.01640E-05-1.89190E-05-2.62481E-05 3.78670E-09 5.36495E-19 3.16276E-19
 -1      1003 6.61423E-05-1.53027E-05-2.17398E-05-4.67104E-06 1.55000E-19 1.93560E-18
 -1      1004 7.12215E-05-2.15292E-05-2.11693E-05-1.74532E-05-2.85884E-19 7.59769E-19
 -1      1005 9.58849E-05-2.88061E-05-2.87481E-05-9.40044E-07 5.16917E-19 7.32266E-19
 -1      1006 9.50672E-05-2.79884E-05-2.87480E-05-1.18624E-06-5.83515E-19 8.94368E-19
 -1      1007 7.84153E-05-2.26184E-05-2.39054E-05-1.48123E-05-4.41079E-19 1.00548E-18
 -1      1008 9.60739E-05-2.55210E-05-3.02374E-05-4.10649E-07-2.82256E-19-2.58301E-19
 -1      1009 9.63018E-05-2.89532E-05-2.88637E-05-8.76132E-07 3.35154E-19-5.80510E-20
 -1      1010 6.51078E-05-1.57207E-05-2.11156E-05-1.20374E-06 5.52174E-19 2.44876E-18
 -1      1011 9.22992E-05-3.68576E-05-2.37052E-05 2.41517E-05-2.13769E-18 2.89259E-18
 -1      1012 6.96808E-05-1.77623E-05-2.22142E-05 1.01955E-05 6.11369E-19 7.13691E-19
 -1      1013 6.67289E-05-1.91925E-05-2.02746E-05 1.49890E-05-4.19281E-19-8.64410E-19
 -1      1014 7.78314E-05-2.09938E-05-2.43449E-05-1.17925E-05 2.13356E-18-7.21187E-19
 -1      1015 9.56458E-05-2.45027E-05-3.04930E-05 3.82514E-07 1.81980E-19-2.98092E-19
 -1      1016 9.64602E-05-2.88415E-05-2.89796E-05-7.95288E-07 2.51237E-19 5.64946E-20
 -1      1017 9.53706E-05-2.83264E-05-2.87332E-05-1.05801E-06-9.33760E-19 1.07731E-18
 -1      1018 9.65302E-05-2.72382E-05-2.96967E-05 2.45486E-08 1.86880E-19-2.78743E-19
 -1      1019 9.60441E-05-2.53302E-05-3.03047E-05-1.14620E-07 2.31346E-20-2.95658E-19
 -1      1020 9.67420E-05-2.75351E-05-2.96602E-05 7.36227E-08-7.19320E-20-3.69520E-19
 -1      1021 7.68675E-05-2.15778E-05-2.36803E-05 1.37103E-05-3.79469E-23-8.93962E-19
 -1      1022 9.68711E-05-2.83190E-05-2.93795E-05 2.81378E-07-1.95209E-19-3.36368E-19
 -1      1023 9.68301E-05-2.87722E-05-2.91677E-05 4.05932E-07-1.89402E-19-2.98800E-20
 -1      1024 9.66767E-05-2.89810E-05-2.90125E-05 4.75214E-07 1.06283E-19 9.14566E-20
 -1      1025 9.64481E-05-2.90064E-05-2.89037E-05 5.11340E-07-1.15584E-19 3.33340E-19
 -1      1026 9.61682E-05-2.88933E-05-2.88321E-05 5.34439E-07-2.86202E-19 2.28078E-19
 -1      1027 9.58482E-05-2.86730E-05-2.87894E-05 5.60947E-07-1.16618E-19 6.10133E-19
 -1      1028 9.54877E-05-2.83619E-05-2.87682E-05 6.02767E-07-6.15017E-19-5.28205E-19
 -1      1029 9.50789E-05-2.79685E-05-2.87615E-05 6.70823E-07-1.55697E-19-4.69082E-19
 -1      1030 9.46079E-05-2.74958E-05-2.87623E-05 7.74326E-07-1.52195E-20-1.71985E-19
 -1      1031 9.40571E-05-2.69442E-05-2.87628E-05 9.20621E-07 1.45338E-19-2.04209E-19
 -1      1032 9.34010E-05-2.63083E-05-2.87543E-05 1.11943E-06 2.29797E-20 8.49554E-19
 -1      1033 9.26171E-05-2.55913E-05-2.87257E-05 1.37776E-06 4.35422E-20 7.88610E-19
 -1      1034 9.16764E-05-2.47971E-05-2.86629E-05 1.70520E-06-4.82667E-19-1.57128E-20
 -1      1035 9.05498E-05-2.39390E-05-2.85480E-05 2.11501E-06-2.83646E-19 3.30918E-19
 -1      1036 8.92063E-05-2.30410E-05-2.83572E-05 2.62758E-06-7.55515E-19-4.46292E-19
 -1      1037 8.76109E-05-2.21401E-05-2.80599E-05 3.27790E-06-3.96138E-19 2.09726E-19
 -1      1038 8.57191E-05-2.12874E-05-2.76151E-05 4.12925E-06-5.27593E-19-5.31072E-20
 -1      1039 8.34701E-05-2.05500E-05-2.69681E-05 5.29685E-06-4.53245E-19-3.24256E-20
 -1      1040 8.07672E-05-2.00138E-05-2.60392E-05 6.97532E-06-5.94298E-19 2.84149E-19
 -1      1041 7.86717E-05-2.03481E-05-2.49982E-05 9.73693E-06-1.10980E-18-3.74684E-19
 -1      1042 8.99800E-05-2.35499E-05-2.84704E-05-3.14197E-06-7.76863E-20 2.86963E-19
 -1      1043 9.42677E-05-2.71423E-05-2.87682E-05-1.10844E-06-2.16339E-19 7.05055E-19
 -1      1044 9.36835E-05-2.65557E-05-2.87691E-05-1.34295E-06-1.38128E-19 1.04568E-18
 -1      1045 9.64217E-05-2.62892E-05-3.00561E-05 8.51416E-08 2.20810E-19-1.97602E-19
 -1      1046 9.11574E-05-2.43695E-05-2.86237E-05-2.53230E-06 3.30137E-19 3.14861E-21
 -1      1047 9.21521E-05-2.51595E-05-2.87113E-05-2.04222E-06 2.80685E-19 4.62885E-19
 -1      1048 8.86003E-05-2.27446E-05-2.82244E-05-3.90619E-06-1.70065E-19 3.37910E-19
 -1      1049 8.70012E-05-2.20187E-05-2.78504E-05-4.88631E-06-6.81047E-19-2.64362E-19
 -1      1050 8.51677E-05-2.14647E-05-2.73027E-05-6.19490E-06-3.83441E-19 7.09375E-19
 -1      1051 8.31128E-05-2.12339E-05-2.65220E-05-8.03107E-06-3.45809E-19 1.58567E-18
 -1      1052 8.08645E-05-2.15411E-05-2.54315E-05-1.07128E-05-7.59997E-20 1.25048E-18
 -1      1053 9.64801E-05-2.66486E-05-2.99278E-05-1.49847E-07-1.45683E-19-4.12437E-19
 -1      1054 9.61063E-05-2.89303E-05-2.87897E-05-9.13386E-07 3.24144E-19 5.10419E-19
 -1      1055 9.55526E-05-2.84436E-05-2.87610E-05-7.41545E-07-3.64465E-19 1.12054E-19
 -1      1056 9.66987E-05-2.81041E-05-2.93977E-05-3.40209E-07 2.62599E-19-1.62340E-19
 -1      1057 8.17796E-05-2.13884E-05-2.58821E-05 9.97465E-06 1.20297E-18 3.76209E-19
 -1      1058 7.08226E-05-1.78501E-05-2.26792E-05-8.08877E-06 1.03948E-18 1.96732E-18
 -1      1059 7.87978E-05-2.63381E-05-2.24220E-05 2.05662E-05-3.13022E-19-5.63234E-19
 -1      1060 9.59203E-05-2.52153E-05-3.03026E-05 5.53090E-07 2.52462E-19-2.19167E-19
 -1      1061 9.66296E-05-2.85874E-05-2.91612E-05-5.99459E-07 3.07961E-19-2.10253E-19
 -1      1062 7.98460E-05-1.93846E-05-2.59086E-05 4.99981E-06 8.58607E-19-2.06885E-18
 -1      1063 9.29862E-05-2.58929E-05-2.87544E-05-1.65052E-06-1.14650E-19 4.51311E-19
 -1      1064 7.55818E-05-1.80192E-05-2.46538E-05-2.94849E-06 1.42470E-18 1.12389E-18
 -1      1065 7.10192E-05-1.61948E-05-2.34895E-05 1.16449E-06 4.41382E-19 1.70991E-18
 -1      1066 9.66412E-05-2.68772E-05-2.98989E-05-1.53447E-08 2.65353E-20 2.19628E-20
 -1      1067 9.58819E-05-2.87249E-05-2.87818E-05-6.96594E-07 1.50339E-19 8.31852E-20
 -1      1068 9.47606E-05-2.76512E-05-2.87613E-05-9.36325E-07-5.06511E-19 2.84171E-19
 -1      1069 8.06032E-05-2.35967E-05-2.44409E-05 1.49716E-05-3.70636E-19-4.44386E-20
 -1      1070 7.36786E-05-1.80865E-05-2.37964E-05-7.64486E-06 5.08812E-19 1.90092E-18
 -1      1071 6.90977E-05-1.72130E-05-2.22021E-05 6.66862E-06-6.79864E-19-2.21447E-19
 -1      1072 9.65065E-05-2.67640E-05-2.98896E-05 1.26353E-07 1.82448E-19-2.20919E-19
 -1      1073 9.66361E-05-2.89464E-05-2.90099E-05-5.89773E-07 5.49351E-19 1.31797E-19
 -1      1074 9.64283E-05-2.90006E-05-2.88976E-05-6.38555E-07 1.52434E-19-2.05978E-20
 -1      1075 9.51833E-05-2.80849E-05-2.87564E-05-8.17672E-07-6.68702E-19-6.65331E-20
 -1      1076 9.69082E-05-2.79089E-05-2.95712E-05 6.67047E-08 1.91483E-21-9.60412E-20
 -1      1077 9.68233E-05-2.75165E-05-2.97028E-05-3.27306E-08-1.47545E-19-3.53423E-20
 -1      1078 9.69653E-05-2.85565E-05-2.93180E-05 1.33635E-07 9.60310E-20-1.74494E-19
 -1      1079 9.68745E-05-2.89047E-05-2.91294E-05 1.71079E-07 1.03708E-19-2.36484E-19
 -1      1080 9.66707E-05-2.90256E-05-2.89906E-05 1.93888E-07-2.15167E-20-2.12988E-19
 -1      1081 9.63920E-05-2.89750E-05-2.88931E-05 2.06303E-07-1.45638E-19 1.34773E-19
 -1      1082 9.60709E-05-2.88018E-05-2.88294E-05 2.16209E-07-3.54642E-19 3.84600E-19
 -1      1083 9.56986E-05-2.85157E-05-2.87926E-05 2.30009E-07-7.31889E-19 3.07062E-19
 -1      1084 9.52767E-05-2.81400E-05-2.87729E-05 2.51620E-07-2.79960E-19 4.40672E-19
 -1      1085 9.47985E-05-2.76829E-05-2.87638E-05 2.85749E-07-2.32747E-19 3.01380E-20
 -1      1086 9.42363E-05-2.71331E-05-2.87577E-05 3.40860E-07 4.56488E-19 1.12420E-19
 -1      1087 9.35641E-05-2.64910E-05-2.87453E-05 4.10913E-07 4.64223E-19 9.99172E-20
 -1      1088 9.27696E-05-2.57647E-05-2.87161E-05 5.01364E-07-1.13916E-19 1.65866E-19
 -1      1089 9.18143E-05-2.49473E-05-2.86569E-05 6.18682E-07-7.00264E-19 7.54354E-20
 -1      1090 9.06638E-05-2.40448E-05-2.85506E-05 7.66899E-07-7.04754E-19-1.11324E-19
 -1      1091 8.92774E-05-2.30685E-05-2.83747E-05 9.53215E-07-7.44995E-19-5.04987E-19
 -1      1092 8.76044E-05-2.20363E-05-2.81000E-05 1.18980E-06-2.86094E-19 1.04672E-19
 -1      1093 8.55735E-05-2.09691E-05-2.76869E-05 1.49756E-06-4.42624E-19 2.72698E-19
 -1      1094 8.30735E-05-1.98827E-05-2.70812E-05 1.91137E-06-1.31877E-18 2.29881E-19
 -1      1095 7.99199E-05-1.87843E-05-2.62042E-05 2.49625E-06-1.08691E-18-1.13129E-19
 -1      1096 9.30261E-05-2.59850E-05-2.87321E-05-8.11191E-07 1.20206E-20-5.06773E-19
 -1      1097 8.82495E-05-2.24398E-05-2.82047E-05-1.93074E-06-2.46574E-19 7.98686E-19
 -1      1098 9.10709E-05-2.43467E-05-2.85964E-05-1.24203E-06 1.53134E-20 1.47634E-19
 -1      1099 8.41592E-05-2.04597E-05-2.73008E-05-3.09173E-06-8.32608E-19 5.97236E-19
 -1      1100 8.13914E-05-1.95060E-05-2.65217E-05-4.00832E-06-8.39911E-19 1.08171E-18
 -1      1101 7.78145E-05-1.85672E-05-2.53992E-05-5.47000E-06-1.00866E-19 1.76991E-18
 -1      1102 9.67926E-05-2.78218E-05-2.95591E-05-1.62837E-07 1.03624E-19-8.25906E-20
 -1      1103 7.43952E-05-2.01324E-05-2.32431E-05 1.19897E-05-7.66051E-19-6.44129E-19
 -1      1104 7.17667E-05-1.70841E-05-2.34188E-05 9.99119E-07 3.15660E-19 1.13577E-18
 -1      1105 7.43875E-05-1.78804E-05-2.42139E-05 6.16504E-06-3.35188E-19-4.66970E-19
 -1      1106 9.61729E-05-2.89138E-05-2.88253E-05-6.67991E-07-3.46417E-20 4.59835E-20
 -1      1107 9.37697E-05-2.66793E-05-2.87530E-05-6.59270E-07 1.74948E-19-4.40855E-19
 -1      1108 9.68051E-05-2.87394E-05-2.91707E-05-4.44577E-07 1.19352E-19 3.56416E-20
 -1      1109 8.97885E-05-2.34173E-05-2.84452E-05-1.54586E-06-1.55314E-19 7.97260E-19
 -1      1110 8.63995E-05-2.14432E-05-2.78393E-05-2.42807E-06-1.43593E-19 9.50480E-19
 -1      1111 9.21383E-05-2.52068E-05-2.86852E-05-1.00087E-06 2.32752E-20-2.54960E-19
 -1      1112 7.61040E-05-1.82585E-05-2.47811E-05 3.44509E-06 6.53878E-19-1.78960E-18
 -1      1113 9.43981E-05-2.72871E-05-2.87609E-05-5.52337E-07-2.99926E-19 5.92266E-19
 -1      1114 7.59920E-05-1.77171E-05-2.49520E-05 3.36292E-06-7.58989E-19-4.55383E-19
 -1      1115 7.69563E-05-1.93209E-05-2.46895E-05 7.85091E-06 3.38485E-19-1.68999E-18
 -1      1116 9.57688E-05-2.85854E-05-2.87928E-05-3.86393E-07-6.93342E-20 5.80322E-19
 -1      1117 9.66867E-05-2.90136E-05-2.90030E-05-3.26703E-07 4.54408E-19 2.59670E-19
 -1      1118 9.68619E-05-2.88760E-05-2.91375E-05-2.17691E-07 3.40033E-19-1.11802E-19
 -1      1119 9.68544E-05-2.83873E-05-2.93432E-05-3.29216E-07-1.54180E-20 1.58033E-19
 -1      1120 9.53698E-05-2.82346E-05-2.87724E-05-4.22475E-07-3.46414E-19 7.61400E-19
 -1      1121 9.69502E-05-2.87616E-05-2.92237E-05-9.78746E-08 1.19398E-19-1.63111E-19
 -1      1122 9.62500E-05-2.89066E-05-2.88614E-05-1.31044E-07-2.19277E-19 2.34405E-19
 -1      1123 9.45165E-05-2.74115E-05-2.87603E-05-1.89510E-07-1.57086E-19 2.61962E-20
 -1      1124 9.69686E-05-2.82913E-05-2.94330E-05-8.58912E-08-1.10686E-19-3.79275E-20
 -1      1125 9.64339E-05-2.89979E-05-2.89010E-05-3.51586E-07 2.02901E-19 2.63446E-19
 -1      1126 9.49197E-05-2.78042E-05-2.87637E-05-4.76548E-07-8.19791E-19 6.69857E-19
 -1      1127 9.50418E-05-2.79170E-05-2.87680E-05-1.62176E-07-6.45947E-19 6.14965E-19
 -1      1128 1.16838E-04 2.57511E-10-4.18486E-05-4.14674E-05-1.82959E-19 7.25081E-18
 -1      1129 8.86351E-05 7.18897E-11-3.72451E-05-2.41760E-05-1.03338E-19 1.70132E-18
 -1      1130 8.40662E-05 4.14438E-11-3.57623E-05-1.78888E-05-8.17387E-20-7.57618E-19
 -1      1131 8.23308E-05 3.20116E-11-3.50710E-05-1.38488E-05-5.53748E-20-1.91810E-18
 -1      1132 8.15348E-05 2.73531E-11-3.47398E-05-1.05449E-05-3.07182E-20-2.57792E-18
 -1      1133 8.11383E-05 2.46220E-11-3.45769E-05-7.64959E-06-1.57892E-20-2.83894E-18
 -1      1134 8.09331E-05 2.29738E-11-3.44951E-05-4.98637E-06-9.86992E-21-2.89336E-18
 -1      1135 8.08339E-05 2.20847E-11-3.44569E-05-2.43569E-06 2.15398E-21-2.81893E-18
 -1      1136 8.08059E-05 2.18157E-11-3.44462E-05 5.24726E-08 3.54778E-21-2.72760E-18
 -1      1137 8.08382E-05 2.21291E-11-3.44583E-05 2.54319E-06 2.21354E-20-2.63979E-18
 -1      1138 8.09418E-05 2.30749E-11-3.44979E-05 5.10231E-06 3.08671E-20-2.43423E-18
 -1      1139 8.11532E-05 2.47856E-11-3.45807E-05 7.78193E-06 4.25833E-20-2.11223E-18
 -1      1140 8.15564E-05 2.76523E-11-3.47458E-05 1.07045E-05 5.06367E-20-1.58316E-18
 -1      1141 8.23545E-05 3.25007E-11-3.50811E-05 1.40548E-05 6.74715E-20-6.56636E-19
 -1      1142 8.40634E-05 4.19102E-11-3.57826E-05 1.81405E-05 9.25913E-20 9.36276E-19
 -1      1143 8.83327E-05 6.67114E-11-3.73153E-05 2.40184E-05 9.44442E-20 3.78730E-18
 -1      1144 1.06602E-04 1.63873E-10-4.06272E-05 3.61948E-05 1.39549E-19 9.29979E-18
 -1      1145 1.30201E-04-2.57510E-05-4.02667E-05-2.61068E-05-7.50365E-19 1.07395E-17
 -1      1146 9.74287E-05-2.88542E-05-3.15691E-05-6.81220E-07-2.66048E-19 9.00936E-18
 -1      1147 9.01231E-05-2.70155E-05-2.78822E-05 3.86735E-07-9.01693E-20 6.59828E-18
 -1      1148 8.82039E-05-2.65588E-05-2.66301E-05 2.50414E-07-1.22115E-19 5.05676E-18
 -1      1149 8.78363E-05-2.64294E-05-2.63710E-05 1.65430E-07-1.84809E-20 3.68970E-18
 -1      1150 8.81859E-05-2.65032E-05-2.64530E-05 1.17493E-07-2.86734E-20 3.21486E-18
 -1      1151 8.88622E-05-2.66847E-05-2.66527E-05 8.67167E-08-4.17648E-20 2.89914E-18
 -1      1152 8.96668E-05-2.69136E-05-2.68923E-05 6.52958E-08-8.85207E-21 2.12697E-18
 -1      1153 9.04910E-05-2.71538E-05-2.71382E-05 4.93879E-08-7.74484E-21 1.85637E-18
 -1      1154 9.12751E-05-2.73850E-05-2.73729E-05 3.70864E-08-9.05341E-20 1.07811E-18
 -1      1155 9.19893E-05-2.75971E-05-2.75874E-05 2.73932E-08 4.81296E-20-1.18829E-19
 -1      1156 9.26236E-05-2.77865E-05-2.77788E-05 1.97320E-08 2.04432E-19 8.41408E-19
 -1      1157 9.31820E-05-2.79539E-05-2.79479E-05 1.37404E-08 1.21847E-20 6.80435E-19
 -1      1158 9.36783E-05-2.81033E-05-2.80989E-05 9.18454E-09-8.55355E-20-8.72361E-20
 -1      1159 9.41340E-05-2.82411E-05-2.82382E-05 5.92683E-09-8.62534E-20-4.52757E-19
 -1      1160 9.45771E-05-2.83754E-05-2.83741E-05 3.91791E-09-1.70377E-19-6.76312E-19
 -1      1161 9.50417E-05-2.85165E-05-2.85169E-05 3.20147E-09-5.19707E-20-8.94701E-19
 -1      1162 9.55679E-05-2.86765E-05-2.86789E-05 3.92594E-09-3.42637E-20-1.26078E-18
 -1      1163 9.62027E-05-2.88692E-05-2.88740E-05 6.35968E-09-3.93167E-20-1.44235E-18
 -1      1164 9.69996E-05-2.91108E-05-2.91184E-05 1.09046E-08 3.62380E-20-1.93716E-18
 -1      1165 9.80187E-05-2.94189E-05-2.94300E-05 1.80975E-08-1.68211E-20-2.48297E-18
 -1      1166 9.93245E-05-2.98128E-05-2.98279E-05 2.85779E-08-1.49808E-19-1.18686E-18
 -1      1167 1.00981E-04-3.03111E-05-3.03305E-05 4.29746E-08-1.04870E-20 1.74621E-19
 -1      1168 1.03043E-04-3.09292E-05-3.09523E-05 6.16250E-08-1.62419E-19-8.64252E-19
 -1      1169 1.05533E-04-3.16733E-05-3.16974E-05 8.39741E-08 2.16396E-19-8.97021E-19
 -1      1170 1.08414E-04-3.25309E-05-3.25498E-05 1.07437E-07-9.59281E-20 4.87600E-19
 -1      1171 1.11539E-04-3.34563E-05-3.34579E-05 1.25538E-07-4.15487E-20 3.92785E-19
 -1      1172 1.14581E-04-3.43513E-05-3.43168E-05 1.25515E-07-1.81347E-19-2.37050E-18
 -1      1173 1.16973E-04-3.50461E-05-3.49529E-05 8.68423E-08 3.65002E-20-1.43884E-18
 -1      1174 1.17887E-04-3.52961E-05-3.51296E-05-1.55980E-08-5.07161E-20-1.26168E-18
 -1      1175 1.16358E-04-3.48201E-05-3.45964E-05-1.97221E-07 7.61701E-20-1.77927E-18
 -1      1176 1.11672E-04-3.34180E-05-3.32053E-05-4.34724E-07-6.54895E-20-3.09887E-18
 -1      1177 1.04010E-04-3.11595E-05-3.10703E-05-6.37587E-07 6.99762E-20-2.85334E-18
 -1      1178 9.50320E-05-2.85438E-05-2.86751E-05-6.64352E-07 1.37684E-19-3.38114E-18
 -1      1179 8.77276E-05-2.64357E-05-2.67822E-05-4.18995E-07 1.84051E-19-2.17084E-18
 -1      1180 8.50800E-05-2.56744E-05-2.61021E-05 3.13815E-08-4.76191E-20-1.22784E-18
 -1      1181 8.82307E-05-2.65763E-05-2.68982E-05 4.64166E-07-1.28352E-19-3.23794E-18
 -1      1182 9.56862E-05-2.87268E-05-2.88241E-05 6.71200E-07-6.01906E-20-4.37005E-18
 -1      1183 1.04337E-04-3.12476E-05-3.11326E-05 6.11119E-07 1.62551E-19-3.79344E-18
 -1      1184 1.11304E-04-3.33026E-05-3.30789E-05 3.93204E-07-2.50937E-19-3.42805E-18
 -1      1185 1.15124E-04-3.44487E-05-3.42251E-05 1.55908E-07 1.57545E-19-3.76948E-18
 -1      1186 1.15766E-04-3.46602E-05-3.44974E-05-2.00753E-08-1.58934E-19-4.14766E-18
 -1      1187 1.14002E-04-3.41566E-05-3.40653E-05-1.18676E-07-2.15878E-19-4.90526E-18
 -1      1188 1.10801E-04-3.32203E-05-3.31850E-05-1.57594E-07 2.27231E-19-2.22267E-18
 -1      1189 1.06986E-04-3.20954E-05-3.20962E-05-1.60946E-07 2.77826E-19-8.18922E-19
 -1      1190 1.03152E-04-3.09598E-05-3.09843E-05-1.45900E-07 8.14583E-20 9.66570E-19
 -1      1191 9.97152E-05-2.99388E-05-2.99857E-05-1.18500E-07-8.47844E-20 2.26419E-18
 -1      1192 9.70145E-05-2.91351E-05-2.92050E-05-7.01760E-08-1.99337E-19 2.25286E-18
 -1      1193 9.54224E-05-2.86842E-05-2.87106E-05 2.65647E-08-5.92857E-20 1.52635E-18
 -1      1194 9.50487E-05-2.85075E-05-2.84459E-05 6.73964E-08 2.11325E-19 1.53339E-18
 -1      1195 1.31036E-04-3.77333E-05-3.86520E-05 1.21745E-05-1.54610E-19 1.36728E-17
 -1      1196 9.65298E-05-2.81807E-05-3.13215E-05 8.01823E-07 5.52689E-20 1.16407E-17
 -1      1197 9.03369E-05-2.69181E-05-2.78630E-05 1.20356E-07 9.15193E-20 9.44926E-18
 -1      1198 8.82904E-05-2.64860E-05-2.66664E-05 9.18536E-09 2.80050E-20 8.05264E-18
 -1      1199 8.78770E-05-2.63920E-05-2.63981E-05-2.50259E-08 5.36873E-20 7.20862E-18
 -1      1200 8.82079E-05-2.64858E-05-2.64688E-05-3.39140E-08 1.22323E-19 6.53814E-18
 -1      1201 8.88752E-05-2.66778E-05-2.66629E-05-3.49198E-08-6.23446E-21 6.16320E-18
 -1      1202 8.96749E-05-2.69122E-05-2.68996E-05-3.29492E-08-6.95311E-20 6.93727E-18
 -1      1203 9.04963E-05-2.71553E-05-2.71437E-05-2.95486E-08-2.13064E-20 6.21931E-18
 -1      1204 9.12786E-05-2.73880E-05-2.73770E-05-2.54154E-08-4.66547E-20 5.07226E-18
 -1      1205 9.19916E-05-2.76007E-05-2.75905E-05-2.09477E-08 2.05346E-19 3.76064E-18
 -1      1206 9.26252E-05-2.77901E-05-2.77810E-05-1.63889E-08-2.54619E-20 2.78318E-18
 -1      1207 9.31831E-05-2.79573E-05-2.79496E-05-1.18824E-08 9.37365E-20 2.73042E-18
 -1      1208 9.36791E-05-2.81063E-05-2.81001E-05-7.50416E-09-7.92999E-20 3.02326E-18
 -1      1209 9.41347E-05-2.82435E-05-2.82390E-05-3.28994E-09 1.82718E-20 2.90070E-18
 -1      1210 9.45778E-05-2.83772E-05-2.83747E-05 7.38092E-10-6.46209E-21 1.62450E-18
 -1      1211 9.50423E-05-2.85177E-05-2.85174E-05 4.54284E-09-1.78230E-19 1.06893E-18
 -1      1212 9.55684E-05-2.86770E-05-2.86792E-05 8.03804E-09 1.27307E-19 4.22985E-19
 -1      1213 9.62029E-05-2.88690E-05-2.88744E-05 1.10435E-08 2.41633E-19-1.96606E-18
 -1      1214 9.69992E-05-2.91097E-05-2.91189E-05 1.32235E-08 4.18251E-20-1.87870E-18
 -1      1215 9.80170E-05-2.94169E-05-2.94307E-05 1.40029E-08 7.14763E-20-8.61949E-19
 -1      1216 9.93204E-05-2.98093E-05-2.98288E-05 1.24573E-08-1.38619E-19 6.12292E-19
 -1      1217 1.00973E-04-3.03054E-05-3.03313E-05 7.18878E-09 2.04582E-19-1.84508E-19
 -1      1218 1.03027E-04-3.09200E-05-3.09526E-05-3.76408E-09-1.18068E-19-5.83665E-19
 -1      1219 1.05506E-04-3.16587E-05-3.16963E-05-2.28462E-08 7.98577E-20 4.19678E-20
 -1      1220 1.08370E-04-3.25083E-05-3.25455E-05-5.24300E-08 2.86533E-19-3.95326E-20
 -1      1221 1.11470E-04-3.34228E-05-3.34478E-05-9.32159E-08-2.53348E-19-4.05305E-19
 -1      1222 1.14480E-04-3.43052E-05-3.42967E-05-1.40854E-07-1.85843E-19-2.64698E-20
 -1      1223 1.16833E-04-3.49906E-05-3.49179E-05-1.80729E-07-2.72232E-19 4.00038E-19
 -1      1224 1.17709E-04-3.52428E-05-3.50750E-05-1.83475E-07-1.43175E-19-8.80160E-19
 -1      1225 1.16159E-04-3.47917E-05-3.45213E-05-1.08629E-07 2.28292E-19-3.99707E-18
 -1      1226 1.11486E-04-3.34368E-05-3.31154E-05 7.21829E-08 5.58314E-20-4.25168E-18
 -1      1227 1.03875E-04-3.12198E-05-3.09789E-05 3.31150E-07 3.54827E-20-2.40081E-18
 -1      1228 9.49605E-05-2.85892E-05-2.85989E-05 5.55121E-07-2.84185E-19-6.88744E-19
 -1      1229 8.76922E-05-2.63886E-05-2.67356E-05 5.89271E-07 8.14674E-20-2.52363E-19
 -1      1230 8.50398E-05-2.55184E-05-2.60887E-05 3.65423E-07-3.99694E-20-1.87738E-18
 -1      1231 8.81546E-05-2.63872E-05-2.69069E-05-1.37430E-08 3.39660E-19-6.61782E-18
 -1      1232 9.55582E-05-2.85958E-05-2.88362E-05-3.47259E-07 3.51148E-19-7.87105E-18
 -1      1233 1.04164E-04-3.12083E-05-3.11313E-05-4.95906E-07-2.40461E-20-6.93042E-18
 -1      1234 1.11112E-04-3.33295E-05-3.30581E-05-4.56027E-07-1.54454E-19-5.11015E-18
 -1      1235 1.14941E-04-3.44974E-05-3.41889E-05-3.12682E-07 9.80772E-20-4.50307E-18
 -1      1236 1.15609E-04-3.46999E-05-3.44543E-05-1.54026E-07 2.38387E-19-3.34980E-18
 -1      1237 1.13881E-04-3.41761E-05-3.40227E-05-2.87027E-08 5.52988E-19-4.55233E-18
 -1      1238 1.10715E-04-3.32213E-05-3.31476E-05 5.24745E-08-2.07134E-19-4.20155E-18
 -1      1239 1.06929E-04-3.20845E-05-3.20658E-05 9.81233E-08-1.96660E-19-2.91305E-18
 -1      1240 1.03119E-04-3.09437E-05-3.09614E-05 1.21355E-07 2.32120E-19-5.74055E-18
 -1      1241 9.96997E-05-2.99229E-05-2.99702E-05 1.31386E-07 4.06986E-19-9.37059E-18
 -1      1242 9.70111E-05-2.91217E-05-2.91967E-05 1.24468E-07 5.04377E-19-1.24017E-17
 -1      1243 9.54014E-05-2.86380E-05-2.87082E-05 6.70398E-08 3.71533E-19-1.15109E-17
 -1      1244 9.50697E-05-2.85194E-05-2.84478E-05-5.91500E-08-1.56779E-19-6.66252E-18
 -1      1245 9.52929E-05-2.87425E-05-2.84528E-05-5.49759E-08-7.06802E-18-4.78777E-19
 -1      1246 9.51445E-05-2.83679E-05-2.87183E-05-2.62283E-08-5.74394E-18-9.10418E-19
 -1      1247 9.46795E-05-2.67855E-05-2.91952E-05 8.10600E-08-1.72069E-18-2.64453E-19
 -1      1248 9.39434E-05-2.42917E-05-2.98983E-05 1.24471E-07-3.58753E-18-4.32807E-19
 -1      1249 9.30889E-05-2.13935E-05-3.07207E-05 1.33764E-07-2.43669E-18 4.85677E-19
 -1      1250 9.22604E-05-1.85809E-05-3.15245E-05 1.20113E-07-4.31338E-18 3.33143E-19
 -1      1251 9.15704E-05-1.62350E-05-3.21977E-05 9.19344E-08 2.23802E-20 1.64581E-18
 -1      1252 9.11094E-05-1.46669E-05-3.26476E-05 4.93472E-08 1.78050E-18-9.65899E-19
 -1      1253 9.09490E-05-1.41210E-05-3.28042E-05-1.57464E-10-6.01560E-19-4.81485E-20
 -1      1254 9.11117E-05-1.46748E-05-3.26452E-05-4.97134E-08 5.10864E-18 2.34928E-19
 -1      1255 9.15745E-05-1.62506E-05-3.21929E-05-9.22585E-08-2.10387E-18-1.29822E-18
 -1      1256 9.22687E-05-1.86054E-05-3.15180E-05-1.22126E-07-5.91205E-18 9.94510E-19
 -1      1257 9.30973E-05-2.14226E-05-3.07120E-05-1.34225E-07-5.71119E-18 5.47709E-19
 -1      1258 9.39534E-05-2.43254E-05-2.98894E-05-1.26360E-07 4.21068E-19 4.89981E-19
 -1      1259 9.46994E-05-2.68485E-05-2.91861E-05-9.84939E-08 1.82902E-18 3.85251E-20
 -1      1260 9.51033E-05-2.83238E-05-2.87140E-05 6.56895E-08-4.71817E-19-6.83497E-19
 -1      1261 9.53043E-05-2.87605E-05-2.84474E-05 6.08192E-08-4.44213E-19 2.82587E-19
 -1      1262 3.52138E-05-1.09226E-04 1.84391E-05-1.40602E-05-9.00904E-18 9.05002E-20
 -1      1263 1.73517E-05-6.54384E-05 9.83130E-06-2.41902E-05 2.77403E-18 2.34734E-18
 -1      1264 7.55035E-06-9.94686E-06-5.75836E-06-8.36507E-07 1.05744E-17 7.24975E-18
 -1      1265 3.18324E-05 2.41907E-05-2.50720E-05 5.05276E-05 1.21312E-17 1.08827E-17
 -1      1266 1.03914E-04 1.43742E-05-4.56991E-05 9.97927E-05 8.79051E-18 1.24378E-17
 -1      1267 2.04241E-04-3.12139E-05-6.33307E-05 1.08850E-04 6.38324E-18 1.55905E-17
 -1      1268 2.86150E-04-7.79149E-05-7.51729E-05 6.04490E-05 2.45957E-18 1.11207E-17
 -1      1269 3.10456E-04-9.35793E-05-7.76895E-05-2.10041E-05-2.48710E-19 3.72779E-18
 -1      1270 2.51533E-04-5.84095E-05-7.02162E-05-9.11263E-05 1.38913E-18-2.75286E-18
 -1      1271 1.46105E-04-3.45721E-06-5.35615E-05-1.07736E-04 6.48404E-18-1.03101E-17
 -1      1272 5.40372E-05 2.30593E-05-3.19848E-05-6.84061E-05 1.06065E-17-1.14146E-17
 -1      1273 1.17305E-05 7.76973E-07-1.07518E-05-1.21661E-05 1.35170E-17-9.23266E-18
 -1      1274 1.43967E-05-5.46359E-05 7.14104E-06 2.20729E-05 1.07531E-17-4.69680E-18
 -1      1275 3.31937E-05-1.04480E-04 1.74347E-05 1.72170E-05 6.28541E-18-1.23564E-18
 -1      1276 3.48100E-05-1.08851E-04 1.85627E-05-1.00678E-05 1.43085E-18-8.70591E-19
 -1      1277 2.04323E-05-7.30507E-05 1.12452E-05-2.58961E-05-5.45489E-18-2.44178E-18
 -1      1278 7.69894E-06-1.53050E-05-3.81512E-06-4.69569E-06-9.41731E-18-6.44592E-18
 -1      1279 2.91206E-05 2.20992E-05-2.35650E-05 4.62046E-05-1.35017E-17-1.24107E-17
 -1      1280 9.85132E-05 1.54415E-05-4.43132E-05 9.62549E-05-9.31821E-18-1.29765E-17
 -1      1281 1.97062E-04-2.82333E-05-6.23683E-05 1.10154E-04-5.64547E-18-1.21414E-17
 -1      1282 2.82035E-04-7.61695E-05-7.42263E-05 6.87139E-05-1.64250E-18-2.48265E-18
 -1      1283 3.08418E-04-9.15582E-05-7.79771E-05-1.01168E-05-8.24798E-19 8.88622E-18
 -1      1284 2.66035E-04-6.67061E-05-7.21151E-05-8.45460E-05-4.18328E-18 1.53237E-17
 -1      1285 1.70002E-04-1.39059E-05-5.81475E-05-1.11427E-04-9.37665E-18 1.79300E-17
 -1      1286 7.94860E-05 2.16550E-05-3.99746E-05-8.87188E-05-1.20313E-17 1.67509E-17
 -1      1287 2.27916E-05 1.91240E-05-2.04214E-05-3.76997E-05-1.23989E-17 1.06667E-17
 -1      1288 7.48118E-06-2.06631E-05-1.91019E-06 9.45813E-06-1.29664E-17 7.75713E-18
 -1      1289 2.06554E-05-7.43364E-05 1.16768E-05 2.63593E-05-1.04278E-17 3.90863E-18
 -1      1290 3.52706E-05-1.09801E-04 1.86662E-05 1.25534E-05-1.22697E-17 6.49886E-19
 -1      1291 1.04422E-04-2.20140E-05-3.78852E-05-1.72791E-05-2.78886E-19 6.07852E-18
 -1      1292 9.03033E-05-6.67832E-06-3.60114E-05-2.04816E-05-8.16381E-19 5.51736E-19
 -1      1293 9.26368E-05-6.73645E-06-3.72158E-05-2.57681E-05-1.03592E-18 1.85723E-18
 -1      1294 8.58932E-05-4.09563E-06-3.51257E-05-1.64437E-05-8.50315E-19-1.27616E-18
 -1      1295 8.71436E-05-4.08866E-06-3.55943E-05-1.88640E-05-9.55453E-19-4.87944E-19
 -1      1296 9.21186E-05-1.04601E-05-3.50882E-05-1.90459E-05-1.45621E-18 5.60206E-19
 -1      1297 8.40927E-05-3.18938E-06-3.46853E-05-1.28309E-05-6.35817E-19-2.21428E-18
 -1      1298 8.46979E-05-3.15889E-06-3.49080E-05-1.46436E-05-7.69688E-19-1.79007E-18
 -1      1299 8.78537E-05-7.39310E-06-3.45699E-05-1.54210E-05-1.30031E-18-1.00646E-18
 -1      1300 8.31913E-05-2.72947E-06-3.44719E-05-9.69639E-06-4.69528E-19-2.69804E-18
 -1      1301 8.35024E-05-2.71278E-06-3.45798E-05-1.12450E-05-5.12031E-19-2.48488E-18
 -1      1302 8.58635E-05-5.98504E-06-3.43045E-05-1.19707E-05-9.51271E-19-1.80124E-18
 -1      1303 8.27032E-05-2.45849E-06-3.43674E-05-6.92354E-06-2.90569E-19-2.87494E-18
 -1      1304 8.28706E-05-2.45016E-06-3.44210E-05-8.29534E-06-3.63152E-19-2.78798E-18
 -1      1305 8.48279E-05-5.21877E-06-3.41752E-05-8.95158E-06-6.94107E-19-2.12190E-18
 -1      1306 8.24321E-05-2.29403E-06-3.43158E-05-4.30116E-06-1.35194E-19-2.87519E-18
 -1      1307 8.25213E-05-2.29007E-06-3.43424E-05-5.60387E-06-1.83075E-19-2.88977E-18
 -1      1308 8.42465E-05-4.76450E-06-3.41133E-05-6.22458E-06-3.97808E-19-2.32158E-18
 -1      1309 8.23021E-05-2.20513E-06-3.42943E-05-1.79278E-06 5.70860E-20-2.84232E-18
 -1      1310 8.23401E-05-2.20352E-06-3.43050E-05-3.04554E-06 7.09721E-21-2.86358E-18
 -1      1311 8.39286E-05-4.50245E-06-3.40855E-05-3.64979E-06-1.02067E-19-2.31302E-18
 -1      1312 8.22766E-05-2.17775E-06-3.42918E-05 6.70705E-07 2.19540E-19-2.74779E-18
 -1      1313 8.22752E-05-2.17778E-06-3.42915E-05-5.66981E-07 1.48907E-19-2.81341E-18
 -1      1314 8.37894E-05-4.38330E-06-3.40753E-05-1.17230E-06 2.00297E-19-2.27952E-18
 -1      1315 8.23487E-05-2.20788E-06-3.43065E-05 3.15293E-06 3.71687E-19-2.58917E-18
 -1      1316 8.23079E-05-2.20953E-06-3.42951E-05 1.89754E-06 3.15809E-19-2.67979E-18
 -1      1317 8.37944E-05-4.38752E-06-3.40757E-05 1.27542E-06 4.15857E-19-2.19633E-18
 -1      1318 8.25384E-05-2.30044E-06-3.43449E-05 5.72041E-06 5.38002E-19-2.40494E-18
 -1      1319 8.24458E-05-2.30386E-06-3.43176E-05 4.41176E-06 4.76350E-19-2.52601E-18
 -1      1320 8.39441E-05-4.51596E-06-3.40865E-05 3.75717E-06 7.02705E-19-2.04136E-18
 -1      1321 8.28932E-05-2.46557E-06-3.44233E-05 8.40448E-06 6.81220E-19-2.03832E-18
 -1      1322 8.27229E-05-2.47429E-06-3.43693E-05 7.02365E-06 6.23105E-19-2.25356E-18
 -1      1323 8.42724E-05-4.78811E-06-3.41142E-05 6.31839E-06 9.45406E-19-1.80513E-18
 -1      1324 8.35454E-05-2.74225E-06-3.45845E-05 1.14064E-05 8.92283E-19-1.44432E-18
 -1      1325 8.32271E-05-2.75938E-06-3.44750E-05 9.84075E-06 7.96687E-19-1.79085E-18
 -1      1326 8.48697E-05-5.26021E-06-3.41755E-05 9.06342E-06 1.19946E-18-1.41020E-18
 -1      1327 8.47593E-05-3.20333E-06-3.49167E-05 1.48557E-05 1.03568E-18-4.50595E-19
 -1      1328 8.41504E-05-3.24017E-06-3.46912E-05 1.30154E-05 9.28454E-19-1.06426E-18
 -1      1329 8.59461E-05-6.06383E-06-3.43060E-05 1.21334E-05 1.49043E-18-7.64844E-19
 -1      1330 8.72423E-05-4.08883E-06-3.56160E-05 1.91020E-05 1.10495E-18 1.27444E-18
 -1      1331 8.59624E-05-4.15291E-06-3.51339E-05 1.67048E-05 1.01395E-18 2.39102E-19
 -1      1332 8.79831E-05-7.51601E-06-3.45728E-05 1.56616E-05 1.63424E-18 3.67003E-19
 -1      1333 9.34497E-05-6.78907E-06-3.71111E-05 2.51038E-05 9.06219E-19 4.29705E-18
 -1      1334 9.01181E-05-6.43497E-06-3.60340E-05 2.11584E-05 8.96690E-19 2.50171E-18
 -1      1335 9.23473E-05-1.06946E-05-3.50734E-05 1.96863E-05 1.57813E-18 2.24554E-18
 -1      1336 1.23608E-04-2.49189E-05-3.90089E-05 2.83695E-05 3.54907E-19 9.62399E-18
 -1      1337 1.00063E-04-1.44197E-05-3.73483E-05 2.40561E-05 3.89529E-19 5.95771E-18
 -1      1338 1.01660E-04-1.93369E-05-3.53967E-05 2.14062E-05 1.45429E-18 4.93884E-18
 -1      1339 1.02583E-04-2.77986E-05-3.47514E-05 7.33308E-06 7.25298E-19 9.41774E-18
 -1      1340 1.05125E-04-3.02233E-05-3.35189E-05-7.96342E-06-8.14846E-19 6.36206E-18
 -1      1341 9.82354E-05-2.78352E-05-3.07547E-05-4.99171E-06-7.79323E-19 5.42922E-18
 -1      1342 9.54761E-05-2.78412E-05-2.92465E-05-2.49332E-06-5.88132E-19 5.03146E-18
 -1      1343 9.32402E-05-2.75492E-05-2.82061E-05-2.04661E-06-5.73547E-19 4.19281E-18
 -1      1344 9.94618E-05-2.80455E-05-3.09759E-05-7.89312E-06-1.35091E-18 3.12635E-18
 -1      1345 9.15481E-05-2.71906E-05-2.75710E-05-8.42090E-07-4.54724E-19 3.88857E-18
 -1      1346 9.08277E-05-2.70941E-05-2.72676E-05-7.31961E-07-4.86607E-19 3.23204E-18
 -1      1347 9.46908E-05-2.77618E-05-2.88082E-05-3.12775E-06-1.01437E-18 2.54009E-18
 -1      1348 9.00751E-05-2.69106E-05-2.70236E-05-1.77902E-07-3.65918E-19 2.92899E-18
 -1      1349 8.99986E-05-2.69361E-05-2.69876E-05-1.19862E-07-3.13915E-19 2.40776E-18
 -1      1350 9.24868E-05-2.74901E-05-2.78859E-05-1.06086E-06-7.62105E-19 2.05552E-18
 -1      1351 8.97370E-05-2.68681E-05-2.69127E-05 1.50257E-07-7.94209E-20 2.23753E-18
 -1      1352 8.99474E-05-2.69569E-05-2.69731E-05 1.78867E-07-1.17976E-19 2.10478E-18
 -1      1353 9.15238E-05-2.73450E-05-2.75176E-05-7.77560E-08-4.85383E-19 1.53323E-18
 -1      1354 8.99491E-05-2.69594E-05-2.69790E-05 3.09996E-07-1.47495E-19 2.08737E-18
 -1      1355 9.02872E-05-2.70776E-05-2.70769E-05 3.21724E-07-1.48004E-19 1.78844E-18
 -1      1356 9.12666E-05-2.73317E-05-2.74085E-05 4.09361E-07-3.22698E-19 1.22639E-18
 -1      1357 9.04278E-05-2.71189E-05-2.71236E-05 3.76832E-07-5.11171E-20 1.68705E-18
 -1      1358 9.08117E-05-2.72458E-05-2.72346E-05 3.78660E-07-7.01292E-20 1.53918E-18
 -1      1359 9.13962E-05-2.74042E-05-2.74299E-05 6.38334E-07-2.41183E-19 1.08816E-18
 -1      1360 9.10198E-05-2.73061E-05-2.73010E-05 3.90596E-07-1.06675E-19 1.47687E-18
 -1      1361 9.14046E-05-2.74297E-05-2.74126E-05 3.86759E-07-1.38648E-19 1.31770E-18
 -1      1362 9.17275E-05-2.75222E-05-2.75187E-05 7.23144E-07-2.98891E-19 1.05579E-18
 -1      1363 9.16384E-05-2.74971E-05-2.74863E-05 3.74775E-07-2.15061E-19 1.19131E-18
 -1      1364 9.20002E-05-2.76111E-05-2.75917E-05 3.68057E-07-4.16509E-19 7.89183E-19
 -1      1365 9.21518E-05-2.76595E-05-2.76398E-05 7.26313E-07-3.49245E-19 8.84490E-19
 -1      1366 9.22360E-05-2.76788E-05-2.76657E-05 3.44379E-07-3.26540E-19 8.22443E-19
 -1      1367 9.25638E-05-2.77807E-05-2.77616E-05 3.36680E-07 7.51301E-20 7.06454E-19
 -1      1368 9.26052E-05-2.77998E-05-2.77729E-05 6.85842E-07-4.57249E-19 1.09398E-18
 -1      1369 9.27896E-05-2.78453E-05-2.78322E-05 3.09499E-07 2.80360E-19 3.35834E-19
 -1      1370 9.30810E-05-2.79347E-05-2.79179E-05 3.02156E-07 9.13610E-20 4.74848E-19
 -1      1371 9.30523E-05-2.79344E-05-2.79063E-05 6.26466E-07-2.13123E-20 7.95374E-19
 -1      1372 9.32926E-05-2.79951E-05-2.79840E-05 2.77208E-07-1.97878E-19 3.38626E-19
 -1      1373 9.35516E-05-2.80736E-05-2.80605E-05 2.71193E-07-2.82600E-19 1.63860E-19
 -1      1374 9.34770E-05-2.80596E-05-2.80347E-05 5.65096E-07-1.34630E-19 8.46382E-20
 -1      1375 9.37506E-05-2.81302E-05-2.81225E-05 2.52703E-07-2.15523E-19 9.22050E-20
 -1      1376 9.39855E-05-2.82006E-05-2.81922E-05 2.48766E-07-3.52708E-19-1.56846E-19
 -1      1377 9.38765E-05-2.81752E-05-2.81567E-05 5.13841E-07-3.71926E-19 2.29217E-20
 -1      1378 9.41776E-05-2.82552E-05-2.82521E-05 2.40072E-07-7.66509E-20-3.12451E-20
 -1      1379 9.44003E-05-2.83211E-05-2.83184E-05 2.38847E-07-7.95997E-20-3.32922E-19
 -1      1380 9.42577E-05-2.82838E-05-2.82742E-05 4.81889E-07-3.93880E-19 3.15580E-19
 -1      1381 9.45949E-05-2.83762E-05-2.83790E-05 2.42831E-07-1.53737E-19-1.75174E-19
 -1      1382 9.48204E-05-2.84425E-05-2.84464E-05 2.44913E-07-3.09203E-19-2.37098E-19
 -1      1383 9.46351E-05-2.83898E-05-2.83914E-05 4.76787E-07-7.45368E-20 2.39278E-19
 -1      1384 9.50295E-05-2.85017E-05-2.85115E-05 2.64295E-07-2.14880E-19-3.00176E-19
 -1      1385 9.52761E-05-2.85739E-05-2.85853E-05 2.70289E-07-2.99196E-19-5.20542E-19
 -1      1386 9.50294E-05-2.84994E-05-2.85145E-05 5.05312E-07-4.20361E-19 5.30154E-19
 -1      1387 9.55145E-05-2.86413E-05-2.86595E-05 3.07796E-07-1.96989E-20-5.31058E-19
 -1      1388 9.58034E-05-2.87259E-05-2.87459E-05 3.18348E-07 4.00740E-20-3.54001E-19
 -1      1389 9.54668E-05-2.86205E-05-2.86513E-05 5.74036E-07-1.10655E-19 2.76018E-19
 -1      1390 9.60884E-05-2.88066E-05-2.88346E-05 3.76750E-07-1.14847E-19-7.11571E-19
 -1      1391 9.64441E-05-2.89112E-05-2.89409E-05 3.92541E-07-9.46373E-20-6.75075E-19
 -1      1392 9.59783E-05-2.87623E-05-2.88113E-05 6.89576E-07-2.57398E-19-3.87724E-20
 -1      1393 9.67952E-05-2.90107E-05-2.90502E-05 4.74480E-07-3.40287E-19-8.56283E-19
 -1      1394 9.72454E-05-2.91440E-05-2.91844E-05 4.96173E-07-4.89717E-19-1.47471E-18
 -1      1395 9.66000E-05-2.89356E-05-2.90051E-05 8.58438E-07-4.92846E-19-1.87208E-19
 -1      1396 9.76839E-05-2.92686E-05-2.93209E-05 6.03709E-07-1.43824E-19-1.83534E-18
 -1      1397 9.82589E-05-2.94400E-05-2.94920E-05 6.31814E-07-2.56257E-19-2.02505E-18
 -1      1398 9.73715E-05-2.91525E-05-2.92447E-05 1.08629E-06-4.86782E-19-7.66100E-19
 -1      1399 9.88066E-05-2.95964E-05-2.96623E-05 7.65503E-07 3.36565E-19-1.46609E-18
 -1      1400 9.95375E-05-2.98161E-05-2.98791E-05 8.00117E-07 4.01414E-19-8.96548E-19
 -1      1401 9.83354E-05-2.94265E-05-2.95423E-05 1.37634E-06 3.01054E-19-1.49849E-18
 -1      1402 1.00215E-04-3.00105E-05-3.00894E-05 9.57363E-07 2.91738E-20-1.06588E-18
 -1      1403 1.01130E-04-3.02880E-05-3.03601E-05 9.97696E-07-1.78919E-21-7.95033E-19
 -1      1404 9.95332E-05-2.97719E-05-2.99095E-05 1.72629E-06 3.20260E-19-1.16463E-18
 -1      1405 1.01952E-04-3.05258E-05-3.06144E-05 1.17003E-06 6.12114E-20-3.75606E-19
 -1      1406 1.03069E-04-3.08686E-05-3.09436E-05 1.21361E-06 7.49839E-20-2.29480E-19
 -1      1407 1.01001E-04-3.02025E-05-3.03552E-05 2.12327E-06 8.70624E-20-5.39696E-19
 -1      1408 1.04038E-04-3.11524E-05-3.12419E-05 1.38254E-06 2.88452E-19-6.57575E-20
 -1      1409 1.05354E-04-3.15617E-05-3.16275E-05 1.42395E-06 3.08820E-19 1.45048E-19
 -1      1410 1.02757E-04-3.07303E-05-3.08822E-05 2.53568E-06 1.33674E-19 6.15723E-19
 -1      1411 1.06452E-04-3.18894E-05-3.19621E-05 1.55523E-06-6.35692E-20 5.28932E-20
 -1      1412 1.07920E-04-3.23547E-05-3.23892E-05 1.58436E-06-3.12571E-20 1.44459E-19
 -1      1413 1.04792E-04-3.13612E-05-3.14822E-05 2.90152E-06 5.84420E-20 3.51184E-19
 -1      1414 1.09093E-04-3.27153E-05-3.27402E-05 1.62170E-06-1.59671E-20 1.06911E-19
 -1      1415 1.10599E-04-3.32053E-05-3.31732E-05 1.62177E-06-3.98686E-19-4.33628E-19
 -1      1416 1.07041E-04-3.20897E-05-3.21285E-05 3.11410E-06-3.64706E-19 2.58557E-19
 -1      1417 1.11740E-04-3.35739E-05-3.35038E-05 1.48355E-06-6.61397E-19-9.23769E-19
 -1      1418 1.13069E-04-3.40251E-05-3.38783E-05 1.43015E-06-5.19804E-19-1.68747E-18
 -1      1419 1.09356E-04-3.28879E-05-3.27680E-05 3.01005E-06-1.09623E-18-3.36345E-19
 -1      1420 1.14008E-04-3.43563E-05-3.41315E-05 1.01780E-06 2.55394E-19-1.46314E-18
 -1      1421 1.14825E-04-3.46620E-05-3.43504E-05 8.82084E-07 2.17032E-19-1.35231E-18
 -1      1422 1.11477E-04-3.36889E-05-3.33155E-05 2.37363E-06-1.77602E-19-9.62087E-19
 -1      1423 1.15323E-04-3.48835E-05-3.44532E-05 1.14517E-07 5.99607E-20-7.50005E-19
 -1      1424 1.15199E-04-3.48949E-05-3.43978E-05-1.24336E-07-1.29040E-20-5.42935E-19
 -1      1425 1.13007E-04-3.43636E-05-3.36559E-05 9.84545E-07 4.24218E-19-7.02832E-19
 -1      1426 1.14985E-04-3.49071E-05-3.42783E-05-1.23568E-06-2.76371E-19-7.20044E-19
 -1      1427 1.13513E-04-3.44638E-05-3.38464E-05-1.56344E-06-3.69988E-19-1.34419E-18
 -1      1428 1.13433E-04-3.47007E-05-3.36652E-05-1.25558E-06-3.17836E-20 2.99274E-21
 -1      1429 1.12379E-04-3.41615E-05-3.34686E-05-2.80851E-06-2.67060E-19-1.68792E-18
 -1      1430 1.09421E-04-3.31760E-05-3.26419E-05-3.14068E-06-3.70650E-19-1.93282E-18
 -1      1431 1.12244E-04-3.44218E-05-3.32573E-05-4.10567E-06-9.12162E-19-9.23087E-19
 -1      1432 1.07392E-04-3.25133E-05-3.20487E-05-4.05229E-06 8.83528E-20-2.49441E-18
 -1      1433 1.03377E-04-3.10978E-05-3.09637E-05-4.22601E-06-2.54977E-19-2.40282E-18
 -1      1434 1.09196E-04-3.32962E-05-3.24489E-05-6.76880E-06-6.40317E-19-1.30994E-18
 -1      1435 1.00890E-04-3.01932E-05-3.02994E-05-4.21563E-06-3.04154E-19-2.43871E-18
 -1      1436 9.69365E-05-2.87435E-05-2.92593E-05-4.06276E-06 3.79583E-19-2.96885E-18
 -1      1437 1.04695E-04-3.13794E-05-3.14073E-05-7.94980E-06-2.06926E-19-1.77207E-18
 -1      1438 9.48494E-05-2.79323E-05-2.87369E-05-2.81610E-06 7.92836E-19-2.92650E-18
 -1      1439 9.24219E-05-2.70223E-05-2.81084E-05-2.31416E-06 5.57083E-19-1.92999E-18
 -1      1440 1.00044E-04-2.92406E-05-3.04321E-05-6.48375E-06 6.23535E-19-2.38665E-18
 -1      1441 9.16425E-05-2.67136E-05-2.79176E-05-1.91761E-07-5.11131E-19-2.05513E-18
 -1      1442 9.17644E-05-2.67652E-05-2.79463E-05 4.48021E-07-9.14015E-19-3.10866E-18
 -1      1443 9.70981E-05-2.78395E-05-2.98481E-05-2.36690E-06 3.77459E-20-3.04789E-18
 -1      1444 9.26509E-05-2.71295E-05-2.81556E-05 2.49488E-06-3.49189E-19-3.42871E-18
 -1      1445 9.52347E-05-2.81063E-05-2.88205E-05 2.95499E-06-2.35045E-19-3.47252E-18
 -1      1446 9.72146E-05-2.79183E-05-2.98573E-05 2.76585E-06-1.01402E-18-3.50419E-18
 -1      1447 9.73183E-05-2.89221E-05-2.93391E-05 4.02755E-06-4.18553E-20-3.75855E-18
 -1      1448 1.01223E-04-3.03569E-05-3.03651E-05 4.12698E-06-4.66182E-20-3.56484E-18
 -1      1449 1.00275E-04-2.94140E-05-3.04428E-05 6.56750E-06-3.44822E-19-3.08701E-18
 -1      1450 1.03564E-04-3.12081E-05-3.09918E-05 3.96619E-06-3.71192E-19-3.51524E-18
 -1      1451 1.07325E-04-3.25339E-05-3.20082E-05 3.75503E-06 2.21135E-19-3.59502E-18
 -1      1452 1.04774E-04-3.15067E-05-3.13738E-05 7.60684E-06-3.77246E-19-3.23519E-18
 -1      1453 1.09104E-04-3.31090E-05-3.25334E-05 2.73924E-06 2.40928E-19-3.67480E-18
 -1      1454 1.11680E-04-3.39644E-05-3.32542E-05 2.39287E-06-4.52024E-19-3.63390E-18
 -1      1455 1.08871E-04-3.32622E-05-3.23174E-05 6.09485E-06 9.43251E-20-3.91488E-18
 -1      1456 1.12517E-04-3.41714E-05-3.35453E-05 1.11377E-06-1.18135E-19-2.93301E-18
 -1      1457 1.13561E-04-3.44761E-05-3.38554E-05 7.86898E-07-1.31429E-19-3.41337E-18
 -1      1458 1.11369E-04-3.41801E-05-3.29847E-05 3.27267E-06 2.55016E-19-2.18975E-18
 -1      1459 1.13471E-04-3.43738E-05-3.38814E-05-3.18905E-07 4.96573E-20-3.44157E-18
 -1      1460 1.13173E-04-3.42303E-05-3.38139E-05-5.52492E-07-1.86744E-19-3.52949E-18
 -1      1461 1.11964E-04-3.42561E-05-3.32274E-05 3.95114E-07-3.02000E-19-2.20844E-18
 -1      1462 1.12381E-04-3.39251E-05-3.36182E-05-1.30351E-06-2.12063E-19-2.60050E-18
 -1      1463 1.11161E-04-3.34951E-05-3.32810E-05-1.43510E-06 6.38868E-19-2.13487E-18
 -1      1464 1.10955E-04-3.37379E-05-3.30461E-05-1.81560E-06 5.78100E-19-1.08378E-18
 -1      1465 1.09942E-04-3.30845E-05-3.29392E-05-1.83102E-06 8.51452E-19-1.29764E-18
 -1      1466 1.08229E-04-3.25140E-05-3.24522E-05-1.88178E-06 9.00772E-19-4.18606E-19
 -1      1467 1.08868E-04-3.28975E-05-3.25376E-05-3.16493E-06 1.33817E-18-4.56637E-20
 -1      1468 1.06826E-04-3.20695E-05-3.20402E-05-1.99843E-06 6.57998E-19-1.24662E-18
 -1      1469 1.04960E-04-3.14645E-05-3.15036E-05-1.99398E-06 4.10959E-19-6.14443E-19
 -1      1470 1.06221E-04-3.19372E-05-3.18331E-05-3.75716E-06 1.07436E-18-8.35611E-19
 -1      1471 1.03559E-04-3.10334E-05-3.10838E-05-1.91166E-06 1.09306E-18-1.29993E-19
 -1      1472 1.01785E-04-3.04643E-05-3.05718E-05-1.87013E-06 8.63367E-19 6.83979E-19
 -1      1473 1.03426E-04-3.09821E-05-3.10567E-05-3.78420E-06 1.30628E-18 3.48177E-19
 -1      1474 1.00520E-04-3.00775E-05-3.01919E-05-1.64144E-06 6.84078E-21 1.25205E-18
 -1      1475 9.90168E-05-2.95944E-05-2.97599E-05-1.57006E-06-1.15440E-19 1.40937E-18
 -1      1476 1.00782E-04-3.01028E-05-3.03093E-05-3.40606E-06 6.76055E-19-1.57333E-19
 -1      1477 9.79851E-05-2.92734E-05-2.94550E-05-1.21665E-06 6.66840E-20 1.03959E-18
 -1      1478 9.69108E-05-2.89245E-05-2.91464E-05-1.11164E-06 1.00052E-19 1.25121E-18
 -1      1479 9.85046E-05-2.93411E-05-2.96669E-05-2.70918E-06 6.94633E-20-2.11113E-20
 -1      1480 9.61628E-05-2.86720E-05-2.89340E-05-6.38350E-07 3.44799E-19 9.88102E-19
 -1      1481 9.56549E-05-2.85377E-05-2.87630E-05-5.04501E-07-2.90302E-19 9.32143E-19
 -1      1482 9.67358E-05-2.87242E-05-2.91762E-05-1.73691E-06 7.58482E-19 9.83890E-20
 -1      1483 9.52106E-05-2.85228E-05-2.85694E-05 3.57324E-08-1.11257E-18 1.00499E-18
 -1      1484 9.54928E-05-2.83889E-05-2.87700E-05-4.76517E-07-6.81732E-19 3.80703E-19
 -1      1485 9.65507E-05-2.83556E-05-2.97646E-05 2.99893E-06 6.63386E-19 7.90091E-18
 -1      1486 1.02513E-04-2.93917E-05-3.21489E-05 4.46619E-06 6.11399E-19 8.89543E-18
 -1      1487 1.02304E-04-2.67113E-05-3.26992E-05 1.27890E-05 1.16324E-18 6.27598E-18
 -1      1488 9.19984E-05-2.74196E-05-2.77521E-05 1.15513E-06 4.67178E-19 6.55326E-18
 -1      1489 9.39485E-05-2.75758E-05-2.86673E-05 1.47703E-06 4.73915E-19 7.31207E-18
 -1      1490 9.64608E-05-2.80224E-05-2.95259E-05 4.87354E-06 1.03280E-18 5.18796E-18
 -1      1491 9.01593E-05-2.69929E-05-2.70513E-05 3.35127E-07 2.81844E-19 5.67237E-18
 -1      1492 9.07780E-05-2.70116E-05-2.73250E-05 4.97856E-07 2.64810E-19 6.05570E-18
 -1      1493 9.30112E-05-2.75696E-05-2.80894E-05 1.85786E-06 6.89247E-19 4.35855E-18
 -1      1494 8.96351E-05-2.68727E-05-2.68735E-05-5.14184E-08 3.80705E-19 5.02823E-18
 -1      1495 8.96765E-05-2.68116E-05-2.69029E-05 3.75171E-08 2.69447E-19 5.45079E-18
 -1      1496 9.14527E-05-2.72969E-05-2.75040E-05 5.24355E-07 5.61550E-19 3.63291E-18
 -1      1497 8.97596E-05-2.69228E-05-2.69131E-05-2.38567E-07 2.07598E-19 4.63719E-18
 -1      1498 8.95355E-05-2.68167E-05-2.68493E-05-1.88474E-07 2.30762E-19 4.85596E-18
 -1      1499 9.09156E-05-2.72143E-05-2.73063E-05-1.25134E-07 4.77105E-19 3.22075E-18
 -1      1500 9.02052E-05-2.70630E-05-2.70493E-05-3.21984E-07-2.09512E-19 4.81371E-18
 -1      1501 8.98626E-05-2.69372E-05-2.69490E-05-2.94411E-07-8.00769E-20 4.62664E-18
 -1      1502 9.09279E-05-2.72556E-05-2.72939E-05-4.44100E-07-3.49037E-20 3.45112E-18
 -1      1503 9.07936E-05-2.72434E-05-2.72269E-05-3.47300E-07 2.56441E-19 4.72103E-18
 -1      1504 9.04099E-05-2.71143E-05-2.71145E-05-3.33599E-07 3.46429E-20 4.69262E-18
 -1      1505 9.12282E-05-2.73661E-05-2.73743E-05-5.85422E-07-4.20257E-20 3.11228E-18
 -1      1506 9.14241E-05-2.74345E-05-2.74169E-05-3.39922E-07 3.18611E-19 3.88008E-18
 -1      1507 9.10419E-05-2.73117E-05-2.73046E-05-3.34800E-07 3.93405E-19 4.43239E-18
 -1      1508 9.16672E-05-2.75091E-05-2.74999E-05-6.26505E-07 4.61593E-19 2.84731E-18
 -1      1509 9.20403E-05-2.76200E-05-2.76028E-05-3.15428E-07 3.59719E-19 3.12150E-18
 -1      1510 9.16823E-05-2.75083E-05-2.74972E-05-3.15400E-07 2.06442E-19 3.50051E-18
 -1      1511 9.21577E-05-2.76618E-05-2.76435E-05-6.11564E-07 5.59378E-19 2.00656E-18
 -1      1512 9.26140E-05-2.77916E-05-2.77761E-05-2.84011E-07 3.36994E-19 2.61325E-18
 -1      1513 9.22904E-05-2.76928E-05-2.76804E-05-2.86669E-07 3.86478E-19 3.01108E-18
 -1      1514 9.26505E-05-2.78115E-05-2.77897E-05-5.68140E-07 5.14378E-19 1.48289E-18
 -1      1515 9.31352E-05-2.79469E-05-2.79340E-05-2.52659E-07 2.43147E-19 2.06185E-18
 -1      1516 9.28479E-05-2.78603E-05-2.78486E-05-2.56262E-07 1.76811E-19 2.36652E-18
 -1      1517 9.31204E-05-2.79518E-05-2.79304E-05-5.14463E-07 3.84597E-19 1.72570E-18
 -1      1518 9.36071E-05-2.80867E-05-2.80772E-05-2.26373E-07-5.87403E-20 2.08860E-18
 -1      1519 9.33518E-05-2.80106E-05-2.80010E-05-2.29600E-07 3.84650E-20 1.80781E-18
 -1      1520 9.35586E-05-2.80808E-05-2.80627E-05-4.63176E-07 1.43897E-19 1.16894E-18
 -1      1521 9.40422E-05-2.82151E-05-2.82095E-05-2.08954E-07 5.43277E-20 2.22265E-18
 -1      1522 9.38104E-05-2.81461E-05-2.81400E-05-2.10731E-07-1.10146E-19 2.22494E-18
 -1      1523 9.39682E-05-2.81999E-05-2.81872E-05-4.23492E-07-5.07514E-20 1.47368E-18
 -1      1524 9.44604E-05-2.83380E-05-2.83368E-05-2.03539E-07 2.65724E-19 1.59454E-18
 -1      1525 9.42401E-05-2.82722E-05-2.82705E-05-2.02917E-07 1.79948E-19 1.96922E-18
 -1      1526 9.43608E-05-2.83129E-05-2.83073E-05-4.02578E-07 2.68802E-19 1.02953E-18
 -1      1527 9.48880E-05-2.84633E-05-2.84672E-05-2.12985E-07 6.70867E-20 1.22389E-18
 -1      1528 9.46640E-05-2.83956E-05-2.83994E-05-2.09045E-07 3.39714E-19 1.44109E-18
 -1      1529 9.47550E-05-2.84253E-05-2.84286E-05-4.06513E-07 4.24969E-19 1.04971E-18
 -1      1530 9.53574E-05-2.86007E-05-2.86102E-05-2.40122E-07 2.83898E-19 2.97570E-19
 -1      1531 9.51113E-05-2.85252E-05-2.85357E-05-2.31904E-07 9.29887E-20 5.75140E-19
 -1      1532 9.51754E-05-2.85446E-05-2.85584E-05-4.40937E-07 4.60953E-19 5.95754E-19
 -1      1533 9.59065E-05-2.87615E-05-2.87775E-05-2.87879E-07 6.89250E-19-4.08702E-19
 -1      1534 9.56171E-05-2.86714E-05-2.86898E-05-2.74335E-07 3.30268E-19 1.80421E-19
 -1      1535 9.56520E-05-2.86797E-05-2.87058E-05-5.11436E-07 5.73249E-19-2.94338E-19
 -1      1536 9.65793E-05-2.89589E-05-2.89821E-05-3.59244E-07-2.24395E-19-1.33778E-18
 -1      1537 9.62218E-05-2.88462E-05-2.88740E-05-3.39234E-07 5.75293E-19-5.23365E-19
 -1      1538 9.62197E-05-2.88412E-05-2.88813E-05-6.23663E-07 8.91397E-19 1.73955E-19
 -1      1539 9.74252E-05-2.92079E-05-2.92389E-05-4.56996E-07-2.22546E-19-1.05204E-18
 -1      1540 9.69718E-05-2.90637E-05-2.91021E-05-4.29335E-07-3.69012E-19-1.31164E-18
 -1      1541 9.69185E-05-2.90408E-05-2.90969E-05-7.83055E-07-2.70776E-19-2.35626E-19
 -1      1542 9.84978E-05-2.95246E-05-2.95639E-05-5.83053E-07-5.81969E-19-9.09204E-20
 -1      1543 9.79181E-05-2.93392E-05-2.93895E-05-5.46661E-07-3.00219E-19-7.86748E-19
 -1      1544 9.77918E-05-2.92921E-05-2.93657E-05-9.94008E-07-5.60757E-19-2.32936E-19
 -1      1545 9.98514E-05-2.99260E-05-2.99732E-05-7.37220E-07 1.31418E-19 4.60650E-19
 -1      1546 9.91143E-05-2.96895E-05-2.97521E-05-6.91451E-07-3.17648E-19 9.70581E-20
 -1      1547 9.88849E-05-2.96091E-05-2.97006E-05-1.25814E-06-8.69317E-19 4.15766E-20
 -1      1548 1.01535E-04-3.04276E-05-3.04805E-05-9.15001E-07 1.83196E-19-6.98140E-20
 -1      1549 1.00612E-04-3.01311E-05-3.02050E-05-8.60255E-07 3.05349E-19 7.57423E-19
 -1      1550 1.00240E-04-3.00061E-05-3.01138E-05-1.57120E-06 2.31845E-19 5.35714E-19
 -1      1551 1.03577E-04-3.10405E-05-3.10938E-05-1.10401E-06 1.62458E-19 1.16626E-19
 -1      1552 1.02452E-04-3.06783E-05-3.07592E-05-1.04282E-06-7.09886E-21-1.95678E-20
 -1      1553 1.01890E-04-3.04956E-05-3.06132E-05-1.91785E-06 1.34910E-19 6.64034E-19
 -1      1554 1.05969E-04-3.17648E-05-3.18079E-05-1.27861E-06 2.84511E-19 6.58456E-19
 -1      1555 1.04646E-04-3.13393E-05-3.14173E-05-1.21734E-06-1.31737E-19 2.28785E-19
 -1      1556 1.03842E-04-3.10849E-05-3.11984E-05-2.26365E-06-9.84808E-20-3.21674E-20
 -1      1557 1.08629E-04-3.25809E-05-3.25947E-05-1.39280E-06-4.38803E-20 3.59843E-19
 -1      1558 1.07158E-04-3.21085E-05-3.21644E-05-1.34413E-06 3.93931E-19 8.26347E-19
 -1      1559 1.06063E-04-3.17714E-05-3.18543E-05-2.54394E-06 1.76329E-19 5.92500E-19
 -1      1560 1.11358E-04-3.34347E-05-3.33897E-05-1.37318E-06-2.56859E-19 1.01337E-18
 -1      1561 1.09857E-04-3.29561E-05-3.29576E-05-1.35888E-06-2.94949E-19 6.55061E-19
 -1      1562 1.08446E-04-3.25342E-05-3.25419E-05-2.65109E-06-2.41095E-19 1.83307E-18
 -1      1563 1.13788E-04-3.42209E-05-3.40781E-05-1.11787E-06-4.39067E-20 6.09228E-19
 -1      1564 1.12479E-04-3.38117E-05-3.37122E-05-1.17019E-06 2.14627E-19 9.59635E-19
 -1      1565 1.10777E-04-3.33214E-05-3.31893E-05-2.42670E-06 1.94722E-19 1.56168E-18
 -1      1566 1.15353E-04-3.47671E-05-3.44908E-05-5.14373E-07 3.14832E-19 3.93817E-19
 -1      1567 1.14580E-04-3.45456E-05-3.42914E-05-6.71765E-07-1.89950E-19 3.32361E-19
 -1      1568 1.12705E-04-3.40344E-05-3.36860E-05-1.67470E-06-5.73468E-20 9.36567E-19
 -1      1569 1.15330E-04-3.48372E-05-3.44247E-05 5.04468E-07 2.24781E-19-1.31740E-18
 -1      1570 1.15528E-04-3.49546E-05-3.45121E-05 2.13780E-07 2.97362E-19-7.29348E-19
 -1      1571 1.13738E-04-3.45111E-05-3.38920E-05-2.24095E-07 8.31674E-19-1.18621E-19
 -1      1572 1.13035E-04-3.41802E-05-3.37092E-05 1.85638E-06 3.34035E-19-3.05557E-18
 -1      1573 1.14606E-04-3.47773E-05-3.41824E-05 1.44743E-06 3.07665E-19-1.84437E-18
 -1      1574 1.13309E-04-3.45269E-05-3.36712E-05 1.93106E-06 5.53960E-19-1.36263E-18
 -1      1575 1.08215E-04-3.26591E-05-3.23189E-05 3.19144E-06-3.80086E-19-1.74674E-18
 -1      1576 1.11278E-04-3.37726E-05-3.31859E-05 2.76220E-06-3.75957E-19-2.46450E-18
 -1      1577 1.10982E-04-3.38440E-05-3.29570E-05 4.42885E-06-4.04915E-19-7.67359E-19
 -1      1578 1.01558E-04-3.04489E-05-3.04892E-05 3.88494E-06-2.38963E-19-9.03678E-19
 -1      1579 1.05643E-04-3.18946E-05-3.15979E-05 3.62100E-06-4.20790E-19-1.65521E-18
 -1      1580 1.06794E-04-3.23536E-05-3.18320E-05 6.40315E-06-6.46107E-19-6.55127E-19
 -1      1581 9.49273E-05-2.81733E-05-2.87305E-05 3.31351E-06 2.56373E-19-5.17855E-19
 -1      1582 9.88667E-05-2.95048E-05-2.97648E-05 3.40500E-06 7.41154E-21-7.33901E-19
 -1      1583 1.01615E-04-3.02953E-05-3.05669E-05 6.69045E-06-3.48051E-19 9.79382E-21
 -1      1584 9.08246E-05-2.67481E-05-2.76596E-05 1.37590E-06-4.40192E-20-6.70665E-19
 -1      1585 9.31240E-05-2.74139E-05-2.82496E-05 1.86113E-06 5.31553E-19-2.79415E-19
 -1      1586 9.71507E-05-2.83723E-05-2.95586E-05 4.54543E-06 4.92391E-19-2.96025E-19
 -1      1587 9.10376E-05-2.68527E-05-2.76889E-05-1.17733E-06 1.26344E-18-2.76670E-18
 -1      1588 9.07042E-05-2.65361E-05-2.76041E-05-5.01611E-07 5.08895E-19-1.46034E-18
 -1      1589 9.52564E-05-2.74963E-05-2.91625E-05 4.72389E-07 1.18680E-18-8.97187E-19
 -1      1590 9.54087E-05-2.84102E-05-2.87912E-05-3.14942E-06 1.02072E-18-5.43065E-18
 -1      1591 9.26274E-05-2.72729E-05-2.80748E-05-2.60226E-06 1.10221E-18-3.85453E-18
 -1      1592 9.67740E-05-2.81487E-05-2.95147E-05-3.74991E-06 1.77764E-18-2.13587E-18
 -1      1593 1.01954E-04-3.06603E-05-3.05103E-05-3.76301E-06-2.99379E-19-5.49068E-18
 -1      1594 9.79527E-05-2.92181E-05-2.94572E-05-3.54764E-06 7.31029E-20-5.33790E-18
 -1      1595 1.00918E-04-2.99577E-05-3.04626E-05-6.25183E-06 6.16534E-19-2.87245E-18
 -1      1596 1.08169E-04-3.27047E-05-3.22239E-05-3.07967E-06-8.56238E-19-4.33935E-18
 -1      1597 1.04432E-04-3.14853E-05-3.12086E-05-3.18570E-06-1.57376E-19-4.61617E-18
 -1      1598 1.05852E-04-3.20151E-05-3.16452E-05-6.30491E-06-7.29547E-19-3.56164E-18
 -1      1599 1.12316E-04-3.39860E-05-3.34426E-05-1.71735E-06-2.81936E-19-3.01917E-18
 -1      1600 1.09843E-04-3.32771E-05-3.27416E-05-1.99859E-06-7.77616E-19-4.12362E-18
 -1      1601 1.09826E-04-3.35288E-05-3.26708E-05-4.49017E-06-1.04544E-18-2.87478E-18
 -1      1602 1.13856E-04-3.43911E-05-3.39605E-05-3.17195E-07 1.64986E-19-3.40248E-18
 -1      1603 1.12932E-04-3.42169E-05-3.36752E-05-6.23791E-07 4.53546E-19-2.61749E-18
 -1      1604 1.11910E-04-3.41875E-05-3.32740E-05-1.95703E-06-6.67038E-20-1.50179E-18
 -1      1605 1.13131E-04-3.40863E-05-3.38226E-05 7.54887E-07 2.56598E-19-2.80919E-18
 -1      1606 1.13527E-04-3.43203E-05-3.39113E-05 5.09141E-07-8.26214E-19-3.28501E-18
 -1      1607 1.12029E-04-3.40843E-05-3.33732E-05 3.54195E-07-3.92864E-19-2.54370E-18
 -1      1608 1.10856E-04-3.33255E-05-3.32081E-05 1.40620E-06-4.41099E-19-2.50351E-18
 -1      1609 1.12137E-04-3.38050E-05-3.35592E-05 1.24551E-06 4.29009E-19-2.21820E-18
 -1      1610 1.10606E-04-3.34718E-05-3.30339E-05 1.99627E-06-9.62507E-20 5.76843E-20
 -1      1611 1.07752E-04-3.23381E-05-3.23230E-05 1.69458E-06 3.79640E-19-1.90442E-18
 -1      1612 1.09492E-04-3.29258E-05-3.28169E-05 1.60966E-06-9.18750E-20-1.72305E-18
 -1      1613 1.08215E-04-3.25938E-05-3.23935E-05 2.91523E-06-5.46015E-19-2.50609E-19
 -1      1614 1.04395E-04-3.12937E-05-3.13438E-05 1.71823E-06 2.07593E-19-3.55512E-18
 -1      1615 1.06263E-04-3.18931E-05-3.18820E-05 1.69086E-06 2.36417E-19-3.46709E-18
 -1      1616 1.05379E-04-3.16272E-05-3.15990E-05 3.24266E-06 9.38805E-19-1.91678E-18
 -1      1617 1.01200E-04-3.03088E-05-3.04044E-05 1.55657E-06 1.31041E-18-6.33812E-18
 -1      1618 1.02961E-04-3.08554E-05-3.09138E-05 1.57295E-06 1.48119E-18-3.73387E-18
 -1      1619 1.02501E-04-3.06852E-05-3.07759E-05 3.13983E-06 1.97059E-18-4.26987E-18
 -1      1620 9.84791E-05-2.94675E-05-2.96060E-05 1.25008E-06 5.37535E-19-7.55454E-18
 -1      1621 9.99554E-05-2.99124E-05-3.00312E-05 1.30626E-06 6.33637E-19-6.51977E-18
 -1      1622 9.98753E-05-2.98376E-05-3.00220E-05 2.72168E-06 1.33864E-18-4.69546E-18
 -1      1623 9.64915E-05-2.88456E-05-2.90240E-05 8.00292E-07 3.91587E-20-8.23439E-18
 -1      1624 9.75220E-05-2.91375E-05-2.93225E-05 9.06447E-07 5.97097E-19-7.39017E-18
 -1      1625 9.77150E-05-2.91288E-05-2.94095E-05 2.03908E-06 5.76121E-19-3.34133E-18
 -1      1626 9.54496E-05-2.85317E-05-2.86779E-05 2.54122E-07-1.48537E-18-6.38425E-18
 -1      1627 9.58865E-05-2.86174E-05-2.88397E-05 3.92227E-07-1.27080E-18-7.53139E-18
 -1      1628 9.61696E-05-2.86112E-05-2.89734E-05 1.11328E-06-6.87528E-19-3.30265E-18
 -1      1629 9.52288E-05-2.85233E-05-2.85733E-05-9.33417E-09-3.37784E-18-4.16109E-18
 -1      1630 9.51059E-05-2.76191E-05-2.89395E-05 6.60684E-07-3.16061E-18-3.97245E-20
 -1      1631 9.52633E-05-2.81265E-05-2.87679E-05 5.15884E-07-4.45688E-18 1.52729E-18
 -1      1632 9.45321E-05-2.58920E-05-2.94268E-05 1.16907E-06-1.16347E-18 6.86623E-19
 -1      1633 9.48727E-05-2.69085E-05-2.91387E-05 1.08155E-06-2.36895E-18 1.17910E-19
 -1      1634 9.50680E-05-2.70590E-05-2.91687E-05 1.70254E-06-1.63251E-18 1.26778E-18
 -1      1635 9.37903E-05-2.36398E-05-3.00672E-05 1.45917E-06-2.74451E-18-5.78795E-19
 -1      1636 9.42268E-05-2.49574E-05-2.96943E-05 1.42063E-06-5.41929E-19-5.96195E-19
 -1      1637 9.44416E-05-2.53990E-05-2.96076E-05 2.50716E-06-1.08236E-18 1.23598E-18
 -1      1638 9.29973E-05-2.12006E-05-3.07689E-05 1.51323E-06-1.14459E-18 6.89310E-19
 -1      1639 9.34546E-05-2.25948E-05-3.03714E-05 1.52156E-06-2.34060E-18 2.02437E-18
 -1      1640 9.37306E-05-2.34169E-05-3.01389E-05 2.88000E-06-6.06122E-19 9.60739E-19
 -1      1641 9.22736E-05-1.89603E-05-3.14174E-05 1.35121E-06-1.92434E-18 1.31356E-18
 -1      1642 9.26799E-05-2.02047E-05-3.10613E-05 1.39905E-06-1.71139E-18-9.97102E-19
 -1      1643 9.30130E-05-2.13776E-05-3.06915E-05 2.81220E-06-8.80435E-19-8.76570E-19
 -1      1644 9.16909E-05-1.71549E-05-3.19409E-05 9.98496E-07-2.21903E-19 1.95986E-18
 -1      1645 9.20039E-05-1.81126E-05-3.16665E-05 1.08124E-06-2.01463E-18 2.00197E-18
 -1      1646 9.23730E-05-1.95391E-05-3.11932E-05 2.34907E-06-1.45973E-18 1.24158E-18
 -1      1647 9.13446E-05-1.60803E-05-3.22529E-05 5.05665E-07-1.01115E-19-8.48737E-19
 -1      1648 9.15127E-05-1.65945E-05-3.21056E-05 6.11158E-07 1.21033E-19 1.07657E-18
 -1      1649 9.18853E-05-1.81362E-05-3.15761E-05 1.55460E-06-1.38066E-18 2.12270E-18
 -1      1650 9.12829E-05-1.58869E-05-3.23096E-05-5.88245E-08 1.90732E-18 2.18402E-18
 -1      1651 9.12824E-05-1.58850E-05-3.23102E-05 5.47661E-08 4.70732E-20-6.32760E-20
 -1      1652 9.16232E-05-1.73826E-05-3.17816E-05 5.41292E-07 1.54156E-19-3.47912E-20
 -1      1653 9.15152E-05-1.66030E-05-3.21030E-05-6.15198E-07 7.90235E-19-2.00938E-18
 -1      1654 9.13459E-05-1.60849E-05-3.22514E-05-5.09741E-07 2.18596E-18 7.84578E-19
 -1      1655 9.16239E-05-1.73852E-05-3.17808E-05-5.49169E-07 1.09490E-18 1.47858E-18
 -1      1656 9.20080E-05-1.81274E-05-3.16621E-05-1.08505E-06-2.55122E-18-1.04489E-18
 -1      1657 9.16949E-05-1.71664E-05-3.19375E-05-1.00264E-06 5.36721E-19-1.84118E-18
 -1      1658 9.18873E-05-1.81439E-05-3.15738E-05-1.56258E-06-6.15194E-19-2.25524E-18
 -1      1659 9.26802E-05-2.02070E-05-3.10603E-05-1.39970E-06-2.52913E-18 1.99741E-18
 -1      1660 9.22731E-05-1.89602E-05-3.14171E-05-1.35213E-06-2.64141E-18-4.78064E-19
 -1      1661 9.23731E-05-1.95377E-05-3.11936E-05-2.35223E-06-1.02619E-18-7.66778E-19
 -1      1662 9.34628E-05-2.26200E-05-3.03640E-05-1.52364E-06-1.62460E-18 9.24841E-19
 -1      1663 9.30045E-05-2.12230E-05-3.07623E-05-1.51577E-06-2.69069E-18 2.09373E-18
 -1      1664 9.30135E-05-2.13788E-05-3.06913E-05-2.81579E-06-6.71750E-19 2.08608E-18
 -1      1665 9.42340E-05-2.49824E-05-2.96867E-05-1.42347E-06 6.28134E-19 1.09113E-18
 -1      1666 9.37980E-05-2.36651E-05-3.00595E-05-1.45943E-06-7.65413E-19 1.96939E-18
 -1      1667 9.37371E-05-2.34373E-05-3.01330E-05-2.88212E-06 2.14412E-19 2.49652E-18
 -1      1668 9.48781E-05-2.69061E-05-2.91332E-05-1.08262E-06 2.17350E-20-1.05957E-18
 -1      1669 9.45317E-05-2.59064E-05-2.94203E-05-1.16952E-06 9.89334E-19 9.55559E-21
 -1      1670 9.44483E-05-2.54180E-05-2.96017E-05-2.50287E-06 6.05966E-19 1.36898E-20
 -1      1671 9.53061E-05-2.79772E-05-2.88412E-05-7.78253E-07-7.96717E-19-6.22366E-19
 -1      1672 9.51407E-05-2.74588E-05-2.90143E-05-9.88758E-07-5.35417E-20-1.38621E-18
 -1      1673 9.51221E-05-2.69204E-05-2.92484E-05-2.02178E-06-2.60905E-20-1.01615E-18
 -1      1674 9.57813E-05-2.79785E-05-2.90578E-05-1.53508E-06-1.40960E-19-8.92876E-19
 -1      1675 2.03757E-05-6.78553E-05 1.42791E-05-6.99638E-06-3.27886E-18 3.28776E-18
 -1      1676 2.40914E-05-7.79003E-05 1.62443E-05 1.44287E-06-7.71689E-18 1.83510E-18
 -1      1677 2.18617E-05-3.85356E-05 3.36086E-06 6.72631E-06 2.49028E-18 4.46164E-18
 -1      1678 2.53654E-05-6.04937E-05 9.54646E-06 2.31233E-06-2.41743E-18 3.33085E-18
 -1      1679 3.33686E-05-1.11150E-05-1.14965E-05 2.71297E-05 7.20825E-18 7.68344E-18
 -1      1680 2.86458E-05-3.17301E-05-3.12204E-06 1.05470E-05 4.46217E-18 4.96573E-18
 -1      1681 7.37366E-05-1.11077E-06-3.03677E-05 5.92923E-05 7.72918E-18 6.74662E-18
 -1      1682 4.94419E-05-7.53527E-06-2.03314E-05 3.59142E-05 8.36869E-18 6.61956E-18
 -1      1683 1.38573E-04-1.53834E-05-4.93706E-05 7.80620E-05 5.23466E-18 1.00577E-17
 -1      1684 9.70921E-05-3.10101E-06-3.98388E-05 6.49650E-05 6.43152E-18 8.40426E-18
 -1      1685 2.04915E-04-4.26998E-05-6.44969E-05 6.39808E-05 3.94506E-18 9.46390E-18
 -1      1686 1.62583E-04-2.18214E-05-5.72784E-05 7.34952E-05 5.61244E-18 9.58164E-18
 -1      1687 2.41428E-04-5.83087E-05-7.27669E-05 1.79214E-05 2.70500E-18 3.79937E-18
 -1      1688 2.16851E-04-4.49624E-05-6.90738E-05 4.77911E-05 3.78412E-18 7.07527E-18
 -1      1689 2.47192E-04-6.03129E-05-7.38237E-05-3.06958E-05 6.80591E-19 1.03762E-18
 -1      1690 2.55008E-04-6.49281E-05-7.50105E-05 5.22184E-06 1.18500E-18 3.50097E-18
 -1      1691 1.93518E-04-3.46373E-05-6.40661E-05-6.50573E-05 3.58279E-18-3.02814E-18
 -1      1692 2.33028E-04-5.50495E-05-7.00982E-05-4.36087E-05 1.75029E-18 1.70254E-19
 -1      1693 1.24258E-04-1.28495E-05-4.66875E-05-6.44424E-05 5.71281E-18-5.62684E-18
 -1      1694 1.70928E-04-3.01923E-05-5.62259E-05-6.91416E-05 4.01345E-18-3.63547E-18
 -1      1695 6.84460E-05-1.03396E-05-2.64584E-05-4.34953E-05 7.23366E-18-5.88518E-18
 -1      1696 1.00622E-04-1.05311E-05-3.70513E-05-6.43844E-05 6.08847E-18-6.21722E-18
 -1      1697 3.75881E-05-2.82116E-05-7.66958E-06-1.87225E-05 7.46660E-18-5.06145E-18
 -1      1698 4.87458E-05-1.12916E-05-1.70005E-05-3.82396E-05 7.71478E-18-4.94328E-18
 -1      1699 2.59965E-05-5.56889E-05 7.47368E-06-4.17448E-06 5.23043E-18-3.02227E-18
 -1      1700 2.38221E-05-3.18033E-05 2.28341E-07-1.20088E-05 7.04562E-18-4.68706E-18
 -1      1701 2.36797E-05-7.56455E-05 1.56451E-05-6.50187E-07 3.54504E-18-6.49251E-19
 -1      1702 1.92362E-05-6.32430E-05 1.30643E-05 6.97928E-06 5.47353E-18-2.67694E-18
 -1      1703 2.05761E-05-6.72465E-05 1.41890E-05-5.31736E-06-2.81215E-19-2.32511E-18
 -1      1704 2.28805E-05-7.41854E-05 1.57142E-05 2.81386E-06 2.73285E-18-1.01220E-18
 -1      1705 1.81823E-05-4.28087E-05 5.88596E-06-8.88625E-07-4.22839E-18-3.19194E-18
 -1      1706 2.36421E-05-6.47126E-05 1.12810E-05-2.14803E-06-1.47553E-18-2.10858E-18
 -1      1707 3.53264E-05-1.60105E-05-1.02790E-05 2.68375E-05-6.61533E-18-6.92365E-18
 -1      1708 3.02572E-05-3.75948E-05-1.43649E-06 9.93853E-06-4.17926E-18-4.17460E-18
 -1      1709 6.96137E-05-1.18560E-06-2.88119E-05 5.65121E-05-8.32125E-18-8.17302E-18
 -1      1710 4.70970E-05-8.68742E-06-1.90486E-05 3.36383E-05-7.93416E-18-7.40984E-18
 -1      1711 1.36576E-04-1.68971E-05-4.80924E-05 7.41552E-05-5.30285E-18-7.35902E-18
 -1      1712 9.56252E-05-6.17574E-06-3.82314E-05 6.00564E-05-7.15065E-18-7.41577E-18
 -1      1713 2.02416E-04-4.08722E-05-6.37416E-05 6.80389E-05-3.98222E-18-3.41608E-18
 -1      1714 1.59551E-04-2.05679E-05-5.65283E-05 7.49568E-05-5.33504E-18-5.65310E-18
 -1      1715 2.45827E-04-6.11493E-05-7.29793E-05 2.72497E-05-3.05038E-18 4.67689E-18
 -1      1716 2.19254E-04-4.62932E-05-6.89769E-05 5.58521E-05-3.50148E-18-2.72745E-19
 -1      1717 2.41573E-04-5.71564E-05-7.34127E-05-2.29931E-05-2.84180E-18 1.00877E-17
 -1      1718 2.45050E-04-5.92338E-05-7.39430E-05 1.12523E-05-2.97838E-18 6.33994E-18
 -1      1719 2.07107E-04-4.00341E-05-6.67673E-05-6.53850E-05-5.37178E-18 1.28664E-17
 -1      1720 2.40496E-04-5.85126E-05-7.17197E-05-4.03970E-05-3.41714E-18 1.12410E-17
 -1      1721 1.41805E-04-1.57093E-05-5.18028E-05-7.13608E-05-8.33777E-18 1.24734E-17
 -1      1722 1.85766E-04-3.44038E-05-6.00344E-05-7.05774E-05-6.56980E-18 1.26072E-17
 -1      1723 8.27974E-05-2.24066E-06-3.47917E-05-5.83613E-05-8.89385E-18 1.12994E-17
 -1      1724 1.17031E-04-9.02458E-06-4.36998E-05-7.41874E-05-8.33904E-18 1.35102E-17
 -1      1725 4.64860E-05-1.50573E-05-1.62801E-05-2.96670E-05-9.39614E-18 6.83386E-18
 -1      1726 6.58727E-05-5.20628E-06-2.58904E-05-5.16535E-05-8.80152E-18 9.91198E-18
 -1      1727 2.73421E-05-3.90137E-05 1.91426E-08-6.91732E-06-8.54910E-18 5.61223E-18
 -1      1728 2.98728E-05-1.75811E-05-7.80648E-06-2.15080E-05-9.62484E-18 6.11939E-18
 -1      1729 2.40534E-05-6.57962E-05 1.14655E-05 2.38162E-06-8.59654E-18 2.26941E-18
 -1      1730 1.89345E-05-4.51959E-05 6.40022E-06 1.27558E-06-9.03615E-18 5.13620E-18
 -1      1731 2.42651E-05-7.79569E-05 1.62599E-05-1.43433E-06-8.10420E-18 5.50783E-19
 -1      1732 2.15524E-05-7.02273E-05 1.46178E-05 6.41922E-06-8.23867E-18 1.02724E-18
 -1      1733 1.12570E-04-2.96186E-05-3.46148E-05 4.66780E-05 4.53840E-18 5.14742E-18
 -1      1734 7.05571E-05-3.37748E-05-1.71530E-05 3.91366E-05 3.31783E-18 5.19146E-18
 -1      1735 9.53704E-05-2.84474E-05-2.86903E-05 2.40161E-07-4.59417E-18-9.11728E-19
 -1      1736 9.54853E-05-2.80786E-05-2.88953E-05 8.82380E-07-2.79684E-18 3.75825E-20
 -1      1737 1.96623E-05-4.66947E-05 7.89278E-06 1.68990E-05-3.00739E-18 5.60355E-18
 -1      1738 4.06630E-05-4.17762E-05-2.46020E-06 2.92246E-05 1.54160E-19 6.05634E-18
 -1      1739 1.21420E-05-5.27678E-05 1.24968E-05 1.81266E-07-4.12034E-18 2.27640E-18
 -1      1740 1.57554E-04-3.05804E-05-5.12182E-05 4.32088E-05 3.33943E-18 6.23162E-18
 -1      1741 1.87093E-04-3.01918E-05-6.30695E-05 2.40321E-05 3.90525E-18 3.61387E-18
 -1      1742 2.04119E-04-3.13613E-05-6.93671E-05 3.10264E-06 3.27802E-18 1.37653E-18
 -1      1743 2.04543E-04-3.39376E-05-6.79918E-05-1.64193E-05 2.56736E-18 1.46113E-19
 -1      1744 1.73680E-04-3.30309E-05-5.69752E-05-2.95534E-05 4.02574E-18 1.12655E-19
 -1      1745 1.35089E-04-3.69909E-05-4.05905E-05-3.80860E-05 3.30173E-18-1.31798E-18
 -1      1746 9.18075E-05-4.00324E-05-2.26547E-05-4.10639E-05 3.45335E-18-2.36407E-18
 -1      1747 5.22805E-05-4.21100E-05-6.33539E-06-3.51527E-05 2.81808E-18-3.74463E-18
 -1      1748 2.22613E-05-4.49586E-05 6.21970E-06-1.98912E-05 2.94683E-18-3.18527E-18
 -1      1749 1.14784E-05-4.94580E-05 1.17197E-05-1.24630E-06 1.87411E-18-2.49621E-18
 -1      1750 1.65434E-05-4.77074E-05 9.07119E-06 1.16557E-05 4.12082E-19-3.71318E-18
 -1      1751 3.76602E-05-4.26400E-05-8.05074E-07 2.76309E-05-1.46537E-18-4.41124E-18
 -1      1752 7.01439E-05-3.67034E-05-1.57984E-05 3.84770E-05-2.97563E-18-5.49047E-18
 -1      1753 1.11687E-04-3.21266E-05-3.33186E-05 4.44069E-05-4.48970E-18-3.67612E-18
 -1      1754 1.55339E-04-3.21339E-05-5.00772E-05 4.11030E-05-3.74092E-18-1.43657E-18
 -1      1755 1.91105E-04-3.28833E-05-6.31891E-05 3.05969E-05-4.50378E-18 3.44912E-18
 -1      1756 2.03103E-04-3.09540E-05-6.90501E-05 8.61182E-06-5.19909E-18 7.74696E-18
 -1      1757 2.02188E-04-3.13240E-05-6.83884E-05-1.49508E-05-4.86366E-18 9.03996E-18
 -1      1758 1.82962E-04-3.27721E-05-6.02812E-05-3.27800E-05-5.00459E-18 9.25976E-18
 -1      1759 1.44882E-04-3.11951E-05-4.63618E-05-4.37167E-05-5.57750E-18 9.36903E-18
 -1      1760 1.03562E-04-3.29765E-05-3.00369E-05-4.43339E-05-5.42101E-18 8.40341E-18
 -1      1761 6.65993E-05-3.81011E-05-1.37178E-05-3.79558E-05-6.03680E-18 5.55442E-18
 -1      1762 3.48094E-05-4.33833E-05 4.04557E-07-2.52514E-05-5.90636E-18 5.08495E-18
 -1      1763 1.74570E-05-5.02843E-05 9.51298E-06-1.15982E-05-6.23204E-18 1.56193E-18
 -1      1764 1.06031E-04-2.31641E-05-3.55977E-05-1.68588E-05-1.02021E-18 5.06886E-18
 -1      1765 8.91363E-05-1.05800E-05-3.37927E-05-1.33335E-05-1.32250E-18-8.78267E-19
 -1      1766 9.04759E-05-1.16330E-05-3.39323E-05-1.51472E-05-1.53216E-18-3.32249E-19
 -1      1767 9.24769E-05-1.38709E-05-3.38500E-05-1.60128E-05-1.56321E-18 2.76927E-19
 -1      1768 9.41893E-05-1.58156E-05-3.40930E-05-1.76737E-05-1.63892E-18 1.13322E-18
 -1      1769 9.34026E-05-1.63416E-05-3.30419E-05-1.37912E-05-1.58806E-18 9.04472E-20
 -1      1770 8.62175E-05-7.67393E-06-3.37330E-05-7.87550E-06-6.99610E-19-1.70381E-18
 -1      1771 8.66170E-05-7.97384E-06-3.37662E-05-9.26452E-06-8.90576E-19-1.57845E-18
 -1      1772 8.56103E-05-7.04223E-06-3.37315E-05-5.32880E-06-4.01518E-19-1.76499E-18
 -1      1773 8.58413E-05-7.21926E-06-3.37459E-05-6.63445E-06-5.62499E-19-1.75156E-18
 -1      1774 8.76058E-05-9.87357E-06-3.33464E-05-6.94287E-06-6.76697E-19-1.61877E-18
 -1      1775 8.52796E-05-6.68472E-06-3.37359E-05-2.89335E-06-1.82828E-20-1.78541E-18
 -1      1776 8.53987E-05-6.77886E-06-3.37413E-05-4.13462E-06-1.84185E-19-1.78562E-18
 -1      1777 8.69773E-05-9.16358E-06-3.33813E-05-4.54483E-06-3.02447E-19-1.66860E-18
 -1      1778 8.51506E-05-6.53697E-06-3.37399E-05-5.18476E-07 3.28182E-19-1.70995E-18
 -1      1779 8.51856E-05-6.56535E-06-3.37412E-05-1.72975E-06 1.62870E-19-1.75215E-18
 -1      1780 8.66485E-05-8.78509E-06-3.34024E-05-2.22078E-06 8.51090E-20-1.62226E-18
 -1      1781 8.51954E-05-6.57435E-06-3.37414E-05 1.84767E-06 6.07487E-19-1.66447E-18
 -1      1782 8.51542E-05-6.54152E-06-3.37399E-05 6.35392E-07 4.80383E-19-1.71966E-18
 -1      1783 8.65515E-05-8.67175E-06-3.34094E-05 6.53605E-08 4.38648E-19-1.63714E-18
 -1      1784 8.54235E-05-6.80383E-06-3.37414E-05 4.25711E-06 8.73643E-19-1.54550E-18
 -1      1785 8.52974E-05-6.70358E-06-3.37359E-05 3.01270E-06 7.53585E-19-1.64097E-18
 -1      1786 8.66661E-05-8.80456E-06-3.34017E-05 2.35278E-06 7.22728E-19-1.54482E-18
 -1      1787 8.58752E-05-7.25548E-06-3.37452E-05 6.72088E-06 1.17781E-18-1.23017E-18
 -1      1788 8.56399E-05-7.07388E-06-3.37312E-05 5.43261E-06 1.02759E-18-1.41057E-18
 -1      1789 8.70103E-05-9.20031E-06-3.33797E-05 4.65950E-06 1.00638E-18-1.41335E-18
 -1      1790 8.66826E-05-8.04383E-06-3.37640E-05 9.38440E-06 1.54120E-18-8.41236E-19
 -1      1791 8.62648E-05-7.72789E-06-3.37313E-05 7.96273E-06 1.32439E-18-1.05432E-18
 -1      1792 8.76566E-05-9.93117E-06-3.33438E-05 7.03673E-06 1.34445E-18-1.07228E-18
 -1      1793 8.80875E-05-9.38940E-06-3.38169E-05 1.22650E-05 1.74840E-18-2.19223E-19
 -1      1794 8.73514E-05-8.83253E-06-3.37461E-05 1.06714E-05 1.61186E-18-6.09096E-19
 -1      1795 8.87714E-05-1.11642E-05-3.32911E-05 9.51291E-06 1.65354E-18-6.43176E-19
 -1      1796 9.06222E-05-1.18382E-05-3.39244E-05 1.53136E-05 1.87370E-18 9.41901E-19
 -1      1797 8.92463E-05-1.07403E-05-3.37859E-05 1.35242E-05 1.75491E-18 2.52601E-19
 -1      1798 9.06605E-05-1.32236E-05-3.32058E-05 1.19867E-05 1.83198E-18 1.15964E-19
 -1      1799 9.58587E-05-1.70296E-05-3.39878E-05 1.76997E-05 1.73916E-18 2.82602E-18
 -1      1800 9.28430E-05-1.43396E-05-3.38226E-05 1.62038E-05 1.78061E-18 1.74018E-18
 -1      1801 9.39580E-05-1.68840E-05-3.30205E-05 1.39052E-05 1.88790E-18 1.32778E-18
 -1      1802 1.01903E-04-2.50878E-05-3.33528E-05 1.44297E-05 1.40263E-18 5.03392E-18
 -1      1803 9.80569E-05-1.96109E-05-3.36193E-05 1.69726E-05 1.57615E-18 3.56230E-18
 -1      1804 9.73105E-05-2.18487E-05-3.24220E-05 1.32578E-05 1.71367E-18 2.76607E-18
 -1      1805 9.87285E-05-2.61282E-05-3.13354E-05 9.44234E-06 1.43233E-18 4.51375E-18
 -1      1806 1.00135E-04-1.95566E-05-3.42120E-05-1.88771E-05-1.37239E-18 2.62305E-18
 -1      1807 9.52839E-05-2.72777E-05-2.91771E-05 4.07449E-06 1.10771E-18 3.76985E-18
 -1      1808 9.77167E-05-2.73834E-05-3.01869E-05 6.40828E-06 1.14821E-18 4.16603E-18
 -1      1809 9.75541E-05-2.56082E-05-3.08260E-05 8.76867E-06 1.38802E-18 3.10635E-18
 -1      1810 9.97943E-05-2.25339E-05-3.28306E-05-1.44762E-05-1.48053E-18 1.98920E-18
 -1      1811 9.69378E-05-2.69733E-05-2.98697E-05-5.71368E-06-1.18698E-18 1.75209E-18
 -1      1812 9.51263E-05-2.70275E-05-2.91584E-05-3.90756E-06-1.00583E-18 1.45420E-18
 -1      1813 9.43053E-05-2.72275E-05-2.86506E-05-2.43211E-06-8.61697E-19 1.43444E-18
 -1      1814 9.35308E-05-2.73069E-05-2.83449E-05-1.57883E-06-7.95106E-19 1.22540E-18
 -1      1815 9.54850E-05-2.65387E-05-2.95687E-05-4.48659E-06-1.11066E-18 7.61317E-19
 -1      1816 9.30051E-05-2.73575E-05-2.80757E-05-7.51995E-07-7.01300E-19 1.15850E-18
 -1      1817 9.27012E-05-2.74203E-05-2.79529E-05-3.14014E-07-4.98261E-19 9.78599E-19
 -1      1818 9.42720E-05-2.72135E-05-2.87596E-05-1.84178E-06-8.45822E-19 6.44877E-19
 -1      1819 9.24243E-05-2.74472E-05-2.78166E-05 1.41062E-07-3.49871E-19 9.21398E-19
 -1      1820 9.23904E-05-2.75222E-05-2.77860E-05 3.65071E-07-3.55597E-19 8.28746E-19
 -1      1821 9.35689E-05-2.75197E-05-2.83232E-05-3.75936E-07-5.77207E-19 5.76548E-19
 -1      1822 9.22862E-05-2.75529E-05-2.77278E-05 6.05458E-07-3.85689E-19 7.78822E-19
 -1      1823 9.23989E-05-2.76367E-05-2.77465E-05 7.10061E-07-2.91635E-19 6.51399E-19
 -1      1824 9.32456E-05-2.77026E-05-2.81021E-05 4.27162E-07-4.41059E-19 4.36775E-19
 -1      1825 9.24046E-05-2.76741E-05-2.77349E-05 8.23051E-07-3.05710E-19 7.69715E-19
 -1      1826 9.25912E-05-2.77596E-05-2.77796E-05 8.58576E-07-2.59551E-19 7.60565E-19
 -1      1827 9.31812E-05-2.78436E-05-2.80103E-05 8.41594E-07-3.27055E-19 4.14209E-19
 -1      1828 9.26619E-05-2.78007E-05-2.77955E-05 8.95964E-07-2.87924E-19 6.51453E-19
 -1      1829 9.28794E-05-2.78825E-05-2.78525E-05 8.92169E-07-3.02565E-19 7.19431E-19
 -1      1830 9.32778E-05-2.79649E-05-2.79965E-05 1.02397E-06-3.52120E-19 3.81178E-19
 -1      1831 9.29855E-05-2.79240E-05-2.78838E-05 8.86618E-07-3.95900E-19 8.35139E-19
 -1      1832 9.32091E-05-2.79989E-05-2.79451E-05 8.62491E-07-3.02292E-19 8.33337E-19
 -1      1833 9.34663E-05-2.80719E-05-2.80293E-05 1.06993E-06-2.86082E-19 4.81904E-19
 -1      1834 9.33321E-05-2.80385E-05-2.79845E-05 8.35642E-07-3.59425E-19 8.32545E-19
 -1      1835 9.35487E-05-2.81054E-05-2.80456E-05 8.03946E-07-1.68587E-19 6.27013E-19
 -1      1836 9.37015E-05-2.81655E-05-2.80886E-05 1.04122E-06-4.15453E-19 3.98524E-19
 -1      1837 9.36782E-05-2.81422E-05-2.80889E-05 7.70724E-07-1.75010E-19 2.45409E-19
 -1      1838 9.38831E-05-2.82011E-05-2.81480E-05 7.40413E-07-2.53231E-19-1.24465E-19
 -1      1839 9.39565E-05-2.82462E-05-2.81625E-05 9.79531E-07-3.96110E-19 1.71600E-19
 -1      1840 9.40145E-05-2.82350E-05-2.81933E-05 7.11521E-07-3.06678E-19-1.28020E-19
 -1      1841 9.42087E-05-2.82874E-05-2.82503E-05 6.89177E-07-5.07780E-19-2.58675E-19
 -1      1842 9.42172E-05-2.83151E-05-2.82444E-05 9.14133E-07-3.13907E-19-3.36004E-19
 -1      1843 9.43419E-05-2.83190E-05-2.82973E-05 6.72683E-07-3.29056E-19 1.17393E-20
 -1      1844 9.45306E-05-2.83670E-05-2.83536E-05 6.63460E-07-2.09103E-20 4.81650E-19
 -1      1845 9.44796E-05-2.83744E-05-2.83314E-05 8.66473E-07-2.24594E-19-2.52956E-19
 -1      1846 9.46687E-05-2.83977E-05-2.84031E-05 6.65853E-07-1.30510E-19 4.44845E-19
 -1      1847 9.48607E-05-2.84444E-05-2.84611E-05 6.74126E-07-7.38453E-20 6.84641E-19
 -1      1848 9.47472E-05-2.84269E-05-2.84239E-05 8.53155E-07-1.22236E-19 4.04596E-19
 -1      1849 9.50095E-05-2.84759E-05-2.85149E-05 7.01038E-07-1.29986E-19 4.11333E-19
 -1      1850 9.52164E-05-2.85248E-05-2.85778E-05 7.30834E-07-2.50837E-19 5.24956E-19
 -1      1851 9.50290E-05-2.84763E-05-2.85240E-05 8.87961E-07-3.51773E-19 2.34169E-19
 -1      1852 9.53838E-05-2.85597E-05-2.86386E-05 7.87500E-07-3.24904E-19 5.68956E-19
 -1      1853 9.56198E-05-2.86151E-05-2.87106E-05 8.42749E-07-1.59779E-19 5.46309E-19
 -1      1854 9.53389E-05-2.85271E-05-2.86356E-05 9.83178E-07-3.09910E-19 3.06739E-19
 -1      1855 9.58155E-05-2.86561E-05-2.87815E-05 9.34203E-07-3.60124E-19 2.44105E-19
 -1      1856 9.60974E-05-2.87232E-05-2.88672E-05 1.01878E-06-4.66090E-19-1.75195E-19
 -1      1857 9.56946E-05-2.85846E-05-2.87642E-05 1.15034E-06-4.85077E-19 2.50652E-19
 -1      1858 9.63328E-05-2.87737E-05-2.89520E-05 1.14975E-06-3.18635E-19 1.94636E-20
 -1      1859 9.66795E-05-2.88584E-05-2.90567E-05 1.26722E-06-3.64239E-19 8.05464E-20
 -1      1860 9.61173E-05-2.86555E-05-2.89159E-05 1.40035E-06-3.84491E-19 9.40156E-20
 -1      1861 9.69672E-05-2.89227E-05-2.91592E-05 1.44160E-06-6.21879E-19 8.22279E-20
 -1      1862 9.73990E-05-2.90321E-05-2.92887E-05 1.59459E-06-3.18884E-19-1.04333E-19
 -1      1863 9.66315E-05-2.87480E-05-2.90976E-05 1.74276E-06-4.62424E-19 8.02567E-20
 -1      1864 9.77527E-05-2.91154E-05-2.94126E-05 1.81432E-06-1.04761E-19-1.53820E-19
 -1      1865 9.82906E-05-2.92574E-05-2.95723E-05 2.00324E-06 3.15794E-19-3.19560E-19
 -1      1866 9.72636E-05-2.88727E-05-2.93160E-05 2.18398E-06-3.64692E-19-1.36569E-19
 -1      1867 9.87240E-05-2.93662E-05-2.97209E-05 2.26624E-06 6.25159E-19-3.59093E-19
 -1      1868 9.93876E-05-2.95504E-05-2.99157E-05 2.48703E-06 1.47610E-20-3.72960E-19
 -1      1869 9.80419E-05-2.90438E-05-2.95772E-05 2.72375E-06 3.83198E-19-1.11684E-19
 -1      1870 9.99137E-05-2.96931E-05-3.00905E-05 2.78385E-06 5.17244E-20 1.26412E-19
 -1      1871 1.00717E-04-2.99296E-05-3.03231E-05 3.02438E-06 8.62976E-19-4.57431E-20
 -1      1872 9.89949E-05-2.92808E-05-2.98848E-05 3.34930E-06 7.90643E-19 3.62666E-19
 -1      1873 1.01348E-04-3.01174E-05-3.05234E-05 3.33301E-06 3.92994E-19 3.85747E-20
 -1      1874 1.02294E-04-3.04171E-05-3.07924E-05 3.56767E-06-7.00415E-20 2.15815E-19
 -1      1875 1.00149E-04-2.96110E-05-3.02388E-05 4.02607E-06 8.02011E-19 2.68173E-19
 -1      1876 1.03037E-04-3.06648E-05-3.10134E-05 3.84621E-06-8.56728E-20 4.23110E-19
 -1      1877 1.04109E-04-3.10371E-05-3.13107E-05 4.02862E-06 2.21974E-20 4.63393E-19
 -1      1878 1.01528E-04-3.00718E-05-3.06327E-05 4.68425E-06 8.49928E-20 1.98185E-19
 -1      1879 1.04966E-04-3.13631E-05-3.15421E-05 4.20620E-06-4.73353E-19 7.47341E-20
 -1      1880 1.06113E-04-3.18120E-05-3.18492E-05 4.26148E-06-8.03260E-19 6.77213E-20
 -1      1881 1.03146E-04-3.07131E-05-3.10513E-05 5.20125E-06-5.17471E-19-4.86794E-19
 -1      1882 1.07076E-04-3.22353E-05-3.20742E-05 4.22995E-06-7.66161E-19 3.82675E-19
 -1      1883 1.08201E-04-3.27500E-05-3.23595E-05 4.05099E-06-9.78267E-19 1.77837E-19
 -1      1884 1.05002E-04-3.15925E-05-3.14694E-05 5.38301E-06-5.05378E-19-7.36193E-19
 -1      1885 1.09241E-04-3.32790E-05-3.25558E-05 3.66493E-06-9.53521E-19 3.99035E-19
 -1      1886 1.10181E-04-3.38162E-05-3.27734E-05 3.12321E-06 6.21907E-20-7.02905E-20
 -1      1887 1.07062E-04-3.27549E-05-3.18526E-05 4.95457E-06-5.31732E-19 3.90203E-19
 -1      1888 1.11224E-04-3.44228E-05-3.29176E-05 2.22433E-06 6.40823E-19-3.83339E-19
 -1      1889 1.11753E-04-3.48790E-05-3.30133E-05 1.21356E-06 8.11630E-19-1.75184E-19
 -1      1890 1.09225E-04-3.41795E-05-3.21649E-05 3.58363E-06-2.48882E-20 5.50654E-19
 -1      1891 1.12650E-04-3.54542E-05-3.30901E-05-2.95624E-07 4.82339E-19-4.06399E-19
 -1      1892 1.12499E-04-3.56387E-05-3.30178E-05-1.76631E-06-4.74888E-19-5.73147E-19
 -1      1893 1.11262E-04-3.56808E-05-3.23838E-05 9.81008E-07 4.04614E-19-4.23670E-19
 -1      1894 1.12987E-04-3.59464E-05-3.30323E-05-3.77730E-06-8.42652E-19-5.18066E-19
 -1      1895 1.11941E-04-3.55959E-05-3.27800E-05-5.44633E-06-8.85606E-19-8.30913E-19
 -1      1896 1.12729E-04-3.67835E-05-3.25219E-05-2.87298E-06-4.85952E-19-6.43991E-19
 -1      1897 1.11679E-04-3.53021E-05-3.27639E-05-7.45533E-06-9.49120E-19-1.23812E-20
 -1      1898 1.09742E-04-3.42174E-05-3.23787E-05-8.71786E-06-6.82543E-19 1.17049E-19
 -1      1899 1.12969E-04-3.67038E-05-3.26383E-05-7.36181E-06-7.95883E-19 8.06033E-19
 -1      1900 1.08550E-04-3.31154E-05-3.23743E-05-9.78266E-06-5.52805E-19-2.89493E-19
 -1      1901 1.06137E-04-3.14346E-05-3.19623E-05-9.84016E-06 2.65475E-20-2.75835E-19
 -1      1902 1.11392E-04-3.47158E-05-3.28132E-05-1.09231E-05-6.42131E-19 1.50377E-18
 -1      1903 1.04374E-04-2.98229E-05-3.19876E-05-8.98412E-06-1.40257E-19-1.20932E-18
 -1      1904 1.02329E-04-2.82168E-05-3.16774E-05-7.36330E-06 2.85503E-19-1.65763E-18
 -1      1905 1.08158E-04-3.09699E-05-3.30733E-05-1.13545E-05-3.71325E-19 6.95738E-19
 -1      1906 1.01007E-04-2.70179E-05-3.17033E-05-4.44530E-06 1.01181E-19-2.21887E-18
 -1      1907 1.00240E-04-2.64010E-05-3.15891E-05-1.60560E-06-5.44417E-19-2.40053E-18
 -1      1908 1.04756E-04-2.71458E-05-3.33272E-05-7.22221E-06-2.99281E-19-1.17713E-18
 -1      1909 1.00307E-04-2.64913E-05-3.15712E-05 2.12820E-06-7.34153E-19-2.89198E-18
 -1      1910 1.01179E-04-2.72584E-05-3.16830E-05 4.86175E-06-7.89117E-19-2.07019E-18
 -1      1911 1.03374E-04-2.56586E-05-3.34092E-05 3.09374E-07-6.00374E-19-1.79466E-18
 -1      1912 1.02546E-04-2.85564E-05-3.16263E-05 7.52973E-06-5.75632E-19-1.63606E-18
 -1      1913 1.04586E-04-3.01972E-05-3.19235E-05 8.91105E-06-3.67096E-19-2.13646E-18
 -1      1914 1.04976E-04-2.75472E-05-3.32410E-05 7.54193E-06-4.31067E-19-3.59913E-19
 -1      1915 1.06234E-04-3.17624E-05-3.18711E-05 9.44808E-06-2.79930E-19-2.46472E-18
 -1      1916 1.08499E-04-3.33583E-05-3.22497E-05 9.16270E-06-1.34018E-19-1.84981E-18
 -1      1917 1.08318E-04-3.14665E-05-3.29212E-05 1.10154E-05-4.68363E-19-1.06742E-18
 -1      1918 1.09479E-04-3.43333E-05-3.22244E-05 7.87007E-06-3.19623E-21-1.97523E-18
 -1      1919 1.11168E-04-3.52789E-05-3.25549E-05 6.47265E-06 6.42243E-19-1.99992E-18
 -1      1920 1.11209E-04-3.50027E-05-3.26085E-05 9.97484E-06-8.27743E-20-8.31972E-19
 -1      1921 1.11205E-04-3.54459E-05-3.25332E-05 4.36939E-06 1.52335E-18-1.35652E-18
 -1      1922 1.11960E-04-3.56630E-05-3.27149E-05 2.65845E-06 1.52245E-18-2.49096E-19
 -1      1923 1.12329E-04-3.66719E-05-3.23791E-05 6.07095E-06 1.70035E-18-1.51296E-19
 -1      1924 1.11280E-04-3.52692E-05-3.26536E-05 6.42497E-07 3.98291E-19 4.22520E-19
 -1      1925 1.11137E-04-3.49785E-05-3.26475E-05-8.20246E-07 3.17862E-19 8.60165E-19
 -1      1926 1.11660E-04-3.64855E-05-3.21933E-05 1.48829E-06 1.47695E-18 5.67859E-19
 -1      1927 1.10075E-04-3.43492E-05-3.25188E-05-2.30314E-06-1.16891E-19-1.70267E-20
 -1      1928 1.09263E-04-3.38056E-05-3.23437E-05-3.29181E-06 5.08855E-19 4.35193E-19
 -1      1929 1.09832E-04-3.52184E-05-3.19705E-05-2.33635E-06 3.39369E-19 1.92095E-18
 -1      1930 1.08069E-04-3.31566E-05-3.21475E-05-4.16078E-06 1.61806E-18-3.49090E-19
 -1      1931 1.06860E-04-3.25377E-05-3.18541E-05-4.67893E-06 1.96598E-18-1.10832E-19
 -1      1932 1.07480E-04-3.36133E-05-3.16600E-05-4.87645E-06 5.99299E-19 1.22426E-19
 -1      1933 1.05676E-04-3.19632E-05-3.16106E-05-5.03199E-06 1.65745E-18 1.71923E-19
 -1      1934 1.04301E-04-3.13625E-05-3.12572E-05-5.17844E-06 1.59894E-18 1.00662E-18
 -1      1935 1.05019E-04-3.20952E-05-3.12602E-05-6.17837E-06 2.38113E-18-4.83388E-20
 -1      1936 1.03198E-04-3.08803E-05-3.09951E-05-5.15395E-06 5.57262E-19 1.42678E-18
 -1      1937 1.01830E-04-3.03362E-05-3.06333E-05-5.03323E-06 9.54708E-19 8.82105E-19
 -1      1938 1.02669E-04-3.08126E-05-3.08048E-05-6.50883E-06 1.19573E-18 1.27512E-18
 -1      1939 1.00842E-04-2.99313E-05-3.03809E-05-4.74249E-06 1.02715E-18-5.18032E-19
 -1      1940 9.96039E-05-2.94553E-05-3.00516E-05-4.42567E-06 5.61644E-19-9.65965E-20
 -1      1941 1.00532E-04-2.97603E-05-3.03411E-05-6.14079E-06 5.51884E-19-3.52065E-19
 -1      1942 9.87431E-05-2.91045E-05-2.98311E-05-3.93792E-06 1.78372E-19-4.48239E-19
 -1      1943 9.77245E-05-2.87043E-05-2.95641E-05-3.45755E-06 1.92693E-19 2.05248E-20
 -1      1944 9.86569E-05-2.88808E-05-2.99140E-05-5.26869E-06 4.68308E-20-7.33162E-19
 -1      1945 9.70841E-05-2.84513E-05-2.93997E-05-2.84306E-06 2.54901E-19-4.82765E-19
 -1      1946 9.63317E-05-2.81502E-05-2.92002E-05-2.24523E-06 5.35934E-19-7.71362E-19
 -1      1947 9.60146E-05-2.77249E-05-2.92758E-05-2.64231E-06-2.70403E-19-1.73416E-18
 -1      1948 9.71412E-05-2.81773E-05-2.95684E-05-4.04797E-06 2.91300E-20-1.09711E-18
 -1      1949 9.31801E-05-2.73534E-05-2.81836E-05 1.61341E-06 8.25923E-19 3.10926E-18
 -1      1950 9.43773E-05-2.74595E-05-2.86209E-05 2.68404E-06 9.13088E-19 3.52658E-18
 -1      1951 9.52046E-05-2.70398E-05-2.92189E-05 4.06335E-06 1.10075E-18 2.63105E-18
 -1      1952 9.21236E-05-2.73385E-05-2.77405E-05 3.57369E-07 6.55329E-19 2.61851E-18
 -1      1953 9.26208E-05-2.73717E-05-2.79137E-05 9.04965E-07 6.62380E-19 2.91190E-18
 -1      1954 9.35970E-05-2.73601E-05-2.83942E-05 1.59533E-06 8.99635E-19 2.28700E-18
 -1      1955 9.17437E-05-2.73745E-05-2.75712E-05-2.95647E-07 3.76235E-19 2.56282E-18
 -1      1956 9.18616E-05-2.73488E-05-2.76189E-05-3.50352E-09 5.21436E-19 2.56477E-18
 -1      1957 9.27625E-05-2.74737E-05-2.79909E-05 2.83156E-07 6.24779E-19 1.90741E-18
 -1      1958 9.17634E-05-2.74634E-05-2.75470E-05-6.22092E-07-1.31195E-19 2.38155E-18
 -1      1959 9.16782E-05-2.74024E-05-2.75313E-05-4.69227E-07 3.28655E-20 2.50785E-18
 -1      1960 9.24455E-05-2.75653E-05-2.78159E-05-4.10677E-07 1.03793E-19 1.71288E-18
 -1      1961 9.20053E-05-2.75839E-05-2.76021E-05-7.62116E-07 4.48013E-19 1.85413E-18
 -1      1962 9.18163E-05-2.75061E-05-2.75538E-05-6.90144E-07 3.90156E-20 2.08430E-18
 -1      1963 9.24470E-05-2.76691E-05-2.77702E-05-7.57659E-07 2.18558E-19 1.09922E-18
 -1      1964 9.23591E-05-2.77172E-05-2.76984E-05-7.94330E-07 7.13392E-19 1.60247E-18
 -1      1965 9.21241E-05-2.76344E-05-2.76349E-05-7.70185E-07 6.15699E-19 1.99944E-18
 -1      1966 9.26322E-05-2.77832E-05-2.77985E-05-9.03249E-07 5.79119E-19 7.16826E-19
 -1      1967 9.27577E-05-2.78505E-05-2.78134E-05-7.66715E-07 6.31630E-19 1.10381E-18
 -1      1968 9.25101E-05-2.77698E-05-2.77446E-05-7.69916E-07 6.59370E-19 1.47918E-18
 -1      1969 9.29140E-05-2.78993E-05-2.78677E-05-9.32280E-07 7.64131E-19 8.29015E-19
 -1      1970 9.31624E-05-2.79767E-05-2.79336E-05-7.10502E-07 4.13415E-19 1.17357E-18
 -1      1971 9.29206E-05-2.79017E-05-2.78652E-05-7.27506E-07 4.42132E-19 1.03294E-18
 -1      1972 9.32380E-05-2.80110E-05-2.79574E-05-8.97901E-07 6.02125E-19 9.09531E-19
 -1      1973 9.35538E-05-2.80926E-05-2.80522E-05-6.46999E-07 5.43877E-19 1.07022E-18
 -1      1974 9.33261E-05-2.80246E-05-2.79869E-05-6.68395E-07 4.38037E-19 1.26429E-18
 -1      1975 9.35730E-05-2.81143E-05-2.80559E-05-8.35328E-07 5.01439E-19 1.02080E-18
 -1      1976 9.39264E-05-2.81983E-05-2.81669E-05-5.91369E-07-3.46649E-20 1.11470E-18
 -1      1977 9.37141E-05-2.81369E-05-2.81052E-05-6.10311E-07 2.04167E-19 1.06514E-18
 -1      1978 9.39038E-05-2.82081E-05-2.81569E-05-7.68949E-07 2.55127E-19 8.63221E-19
 -1      1979 9.42844E-05-2.82960E-05-2.82786E-05-5.54983E-07 3.79612E-19 1.07024E-18
 -1      1980 9.40837E-05-2.82395E-05-2.82194E-05-5.66201E-07 8.87793E-20 1.12240E-18
 -1      1981 9.42265E-05-2.82933E-05-2.82584E-05-7.16430E-07 1.77424E-19 8.65563E-19
 -1      1982 9.46399E-05-2.83898E-05-2.83905E-05-5.46991E-07 3.99768E-19 9.22174E-19
 -1      1983 9.44431E-05-2.83357E-05-2.83318E-05-5.46116E-07 3.41140E-19 9.68342E-19
 -1      1984 9.45463E-05-2.83728E-05-2.83614E-05-6.91311E-07 3.80938E-19 1.00396E-18
 -1      1985 9.50108E-05-2.84855E-05-2.85081E-05-5.75405E-07 3.61354E-19 1.06779E-18
 -1      1986 9.48070E-05-2.84301E-05-2.84467E-05-5.58492E-07 2.31383E-19 1.03440E-18
 -1      1987 9.48745E-05-2.84504E-05-2.84689E-05-7.04760E-07 3.28787E-19 1.02046E-18
 -1      1988 9.54206E-05-2.85899E-05-2.86383E-05-6.47805E-07 5.00156E-19 3.86618E-19
 -1      1989 9.51961E-05-2.85292E-05-2.85702E-05-6.11014E-07 6.45458E-19 8.44080E-19
 -1      1990 9.52282E-05-2.85316E-05-2.85861E-05-7.66742E-07 5.36235E-19 3.88560E-19
 -1      1991 9.58976E-05-2.87117E-05-2.87897E-05-7.71676E-07 7.69569E-19 2.54998E-19
 -1      1992 9.56360E-05-2.86404E-05-2.87102E-05-7.11114E-07 4.46320E-19 2.95207E-19
 -1      1993 9.56292E-05-2.86227E-05-2.87194E-05-8.86711E-07 8.34527E-19 8.40307E-19
 -1      1994 9.64745E-05-2.88606E-05-2.89721E-05-9.54322E-07 4.62724E-19 9.51476E-19
 -1      1995 9.61570E-05-2.87730E-05-2.88756E-05-8.66068E-07 9.27224E-19 1.01345E-18
 -1      1996 9.61033E-05-2.87317E-05-2.88765E-05-1.07381E-06 7.06156E-19 9.90533E-19
 -1      1997 9.71878E-05-2.90481E-05-2.91962E-05-1.20217E-06-4.61861E-19-2.22351E-20
 -1      1998 9.67933E-05-2.89374E-05-2.90768E-05-1.08259E-06-3.83009E-20 3.55137E-19
 -1      1999 9.66800E-05-2.88676E-05-2.90662E-05-1.33642E-06 3.15029E-19 8.38391E-19
 -1      2000 9.80765E-05-2.92872E-05-2.94734E-05-1.51916E-06-6.88299E-19-3.74154E-21
 -1      2001 9.75826E-05-2.91459E-05-2.93247E-05-1.36564E-06-4.14374E-19-2.84621E-20
 -1      2002 9.73916E-05-2.90416E-05-2.92976E-05-1.68085E-06-3.91798E-19 5.79627E-19
 -1      2003 9.91793E-05-2.95925E-05-2.98142E-05-1.90376E-06-7.23361E-19 4.03443E-19
 -1      2004 9.85640E-05-2.94125E-05-2.96303E-05-1.71616E-06-1.04511E-18-2.44698E-19
 -1      2005 9.82718E-05-2.92666E-05-2.95795E-05-2.10866E-06-8.64254E-19 4.89244E-19
 -1      2006 1.00530E-04-2.99796E-05-3.02269E-05-2.34384E-06 4.67709E-19 2.66921E-19
 -1      2007 9.97747E-05-2.97526E-05-3.00029E-05-2.12695E-06 5.66619E-20 3.65744E-19
 -1      2008 9.93533E-05-2.95584E-05-2.99191E-05-2.61197E-06-1.66434E-19 2.93815E-19
 -1      2009 1.02150E-04-3.04643E-05-3.07143E-05-2.80857E-06-1.45824E-20 2.98218E-19
 -1      2010 1.01245E-04-3.01831E-05-3.04486E-05-2.57619E-06 5.15903E-19 5.34655E-19
 -1      2011 1.00663E-04-2.99357E-05-3.03200E-05-3.16589E-06 2.74586E-19 2.97843E-19
 -1      2012 1.04036E-04-3.10607E-05-3.12697E-05-3.23663E-06-4.77316E-20-2.74629E-19
 -1      2013 1.02987E-04-3.07210E-05-3.09661E-05-3.01755E-06-3.60115E-19-1.44743E-19
 -1      2014 1.02218E-04-3.04209E-05-3.07792E-05-3.71721E-06 8.62824E-20-2.25726E-19
 -1      2015 1.06140E-04-3.17766E-05-3.18703E-05-3.52115E-06-3.76913E-19 7.12841E-19
 -1      2016 1.04983E-04-3.13805E-05-3.15419E-05-3.36703E-06-1.54277E-19-3.32262E-20
 -1      2017 1.04010E-04-3.10389E-05-3.12833E-05-4.16909E-06-3.50034E-19 3.23530E-19
 -1      2018 1.08347E-04-3.26048E-05-3.24707E-05-3.49543E-06-5.07140E-19 1.44178E-18
 -1      2019 1.07164E-04-3.21672E-05-3.21444E-05-3.48860E-06-1.63212E-19 9.39045E-19
 -1      2020 1.06000E-04-3.18127E-05-3.18038E-05-4.36411E-06-4.08324E-19 1.17536E-19
 -1      2021 1.10449E-04-3.35049E-05-3.29976E-05-2.93141E-06 6.31485E-19 1.66910E-18
 -1      2022 1.09382E-04-3.30637E-05-3.27174E-05-3.18650E-06 4.47232E-19 1.56850E-18
 -1      2023 1.08088E-04-3.27500E-05-3.22945E-05-4.07397E-06 2.96989E-19 1.27113E-18
 -1      2024 1.12118E-04-3.43715E-05-3.33520E-05-1.57761E-06 3.02169E-19 3.26713E-19
 -1      2025 1.11378E-04-3.40022E-05-3.31783E-05-2.22302E-06 6.96618E-20 9.29271E-19
 -1      2026 1.10093E-04-3.38108E-05-3.26925E-05-3.01589E-06 6.80081E-19 1.26346E-18
 -1      2027 1.12906E-04-3.49924E-05-3.34277E-05 7.23063E-07 1.21854E-18 6.27206E-19
 -1      2028 1.12760E-04-3.48208E-05-3.34266E-05-3.95232E-07 9.54004E-19 1.18589E-18
 -1      2029 1.11713E-04-3.48493E-05-3.29292E-05-9.33171E-07 6.39847E-19 1.73713E-18
 -1      2030 1.12321E-04-3.50294E-05-3.31513E-05 3.81234E-06-8.58613E-20 3.13336E-19
 -1      2031 1.13020E-04-3.52233E-05-3.33699E-05 2.29654E-06 8.07533E-19 7.86669E-19
 -1      2032 1.12511E-04-3.55492E-05-3.29542E-05 2.21808E-06 7.61833E-19 2.81194E-18
 -1      2033 1.10005E-04-3.40951E-05-3.25363E-05 6.94940E-06-6.03074E-19 1.35247E-19
 -1      2034 1.11661E-04-3.48009E-05-3.29675E-05 5.40419E-06-6.70837E-19-4.53824E-20
 -1      2035 1.11977E-04-3.54168E-05-3.27657E-05 5.98308E-06-1.88306E-19 1.36844E-18
 -1      2036 1.06095E-04-3.20344E-05-3.17231E-05 8.74914E-06-2.19658E-19-2.98685E-19
 -1      2037 1.08499E-04-3.32301E-05-3.22774E-05 7.85705E-06-6.95136E-19-2.58729E-19
 -1      2038 1.09772E-04-3.39865E-05-3.24320E-05 9.16353E-06-1.72729E-19 4.04299E-19
 -1      2039 1.01610E-04-2.93500E-05-3.09539E-05 7.74298E-06 1.13939E-19 3.19689E-19
 -1      2040 1.04117E-04-3.06892E-05-3.14713E-05 8.20092E-06-3.01044E-19 2.39843E-19
 -1      2041 1.06194E-04-3.13096E-05-3.20741E-05 1.00028E-05-4.63545E-19-1.50719E-19
 -1      2042 9.83593E-05-2.72828E-05-3.04772E-05 3.55101E-06 4.54486E-19 1.29484E-19
 -1      2043 1.00037E-04-2.81485E-05-3.07862E-05 5.49730E-06 4.02552E-19 5.30593E-19
 -1      2044 1.02531E-04-2.83828E-05-3.18076E-05 7.18783E-06 4.08667E-19 6.07852E-19
 -1      2045 9.80376E-05-2.71087E-05-3.04419E-05-2.24105E-06 2.63951E-18-5.85684E-19
 -1      2046 9.81254E-05-2.70035E-05-3.04365E-05 3.95401E-07 1.55390E-18-1.50620E-19
 -1      2047 1.00636E-04-2.68307E-05-3.16883E-05 1.22201E-06 1.71731E-18 6.40762E-19
 -1      2048 1.00811E-04-2.89258E-05-3.08455E-05-6.87519E-06 1.45890E-18-1.05858E-18
 -1      2049 9.92861E-05-2.79314E-05-3.05349E-05-4.80228E-06 2.13462E-18-4.20750E-19
 -1      2050 1.01608E-04-2.76666E-05-3.17308E-05-5.22464E-06 2.40368E-18 1.42351E-18
 -1      2051 1.05176E-04-3.15977E-05-3.15366E-05-8.45804E-06-5.47063E-19-1.61908E-18
 -1      2052 1.02758E-04-3.02742E-05-3.10410E-05-7.74170E-06 7.18860E-19-1.46825E-18
 -1      2053 1.04768E-04-3.02940E-05-3.19149E-05-9.13693E-06 1.46959E-18 2.52184E-19
 -1      2054 1.09148E-04-3.37791E-05-3.22730E-05-7.01902E-06-1.27850E-18-1.94656E-18
 -1      2055 1.06813E-04-3.27085E-05-3.17682E-05-7.60220E-06-1.17935E-18-1.85753E-18
 -1      2056 1.08333E-04-3.31626E-05-3.21914E-05-9.28475E-06-8.17701E-19 1.02822E-19
 -1      2057 1.11463E-04-3.48069E-05-3.28153E-05-3.92676E-06-1.44495E-18-9.69141E-19
 -1      2058 1.09911E-04-3.42633E-05-3.24551E-05-5.21014E-06-1.33056E-18-1.59069E-18
 -1      2059 1.10755E-04-3.49730E-05-3.24604E-05-6.54494E-06-1.50846E-18-6.19744E-19
 -1      2060 1.11874E-04-3.47669E-05-3.30174E-05-6.60607E-07 3.00200E-19-6.49843E-19
 -1      2061 1.11338E-04-3.47196E-05-3.28806E-05-2.02673E-06-7.49492E-20-5.06015E-19
 -1      2062 1.11467E-04-3.53896E-05-3.26023E-05-2.69497E-06-7.18919E-19-3.54257E-19
 -1      2063 1.10751E-04-3.40543E-05-3.28563E-05 1.89966E-06-7.88561E-19-9.41729E-19
 -1      2064 1.11115E-04-3.43437E-05-3.29419E-05 8.15769E-07-3.35921E-19-8.38146E-19
 -1      2065 1.10683E-04-3.47840E-05-3.25348E-05 8.30248E-07 4.36222E-20 4.27371E-20
 -1      2066 1.08647E-04-3.30412E-05-3.24010E-05 3.49722E-06-8.04549E-19 9.43257E-19
 -1      2067 1.09641E-04-3.35071E-05-3.26574E-05 2.80499E-06-3.75752E-19 3.84196E-19
 -1      2068 1.08903E-04-3.36839E-05-3.22448E-05 3.35120E-06-9.78882E-19 1.58591E-18
 -1      2069 1.06061E-04-3.19638E-05-3.17601E-05 4.23427E-06-1.25075E-19-4.55896E-19
 -1      2070 1.07400E-04-3.24931E-05-3.21186E-05 3.89682E-06-4.23990E-19 5.96410E-19
 -1      2071 1.06602E-04-3.24696E-05-3.17769E-05 4.77716E-06 1.05988E-19 8.33791E-19
 -1      2072 1.03364E-04-3.09417E-05-3.10436E-05 4.32468E-06 2.21141E-18-1.46165E-18
 -1      2073 1.04816E-04-3.14662E-05-3.14397E-05 4.25909E-06 1.40258E-18-2.79594E-19
 -1      2074 1.04132E-04-3.13299E-05-3.12042E-05 5.29520E-06 1.42675E-18-4.70196E-19
 -1      2075 1.00820E-04-3.00248E-05-3.03441E-05 3.95528E-06 2.21414E-18-2.02413E-18
 -1      2076 1.02211E-04-3.05064E-05-3.07258E-05 4.09033E-06 1.83110E-18-1.84128E-18
 -1      2077 1.01729E-04-3.03259E-05-3.06035E-05 5.14467E-06 2.14051E-18-4.66219E-19
 -1      2078 9.86095E-05-2.92319E-05-2.97341E-05 3.23883E-06 9.30836E-19-1.90184E-18
 -1      2079 9.98153E-05-2.96483E-05-3.00614E-05 3.53580E-06 1.72771E-18-1.84761E-18
 -1      2080 9.95496E-05-2.94590E-05-3.00416E-05 4.50930E-06 1.82071E-18 8.02721E-19
 -1      2081 9.68687E-05-2.85805E-05-2.92610E-05 2.22539E-06-2.33199E-19-6.39100E-19
 -1      2082 9.77871E-05-2.89120E-05-2.95071E-05 2.67484E-06-1.33044E-20-6.82688E-19
 -1      2083 9.76919E-05-2.87137E-05-2.95665E-05 3.49903E-06-7.22542E-20 1.61843E-18
 -1      2084 9.58346E-05-2.81825E-05-2.89808E-05 1.30707E-06-1.87585E-18 4.48539E-20
 -1      2085 9.64488E-05-2.83929E-05-2.91577E-05 1.85298E-06-5.67419E-19-3.63700E-20
 -1      2086 9.64300E-05-2.81751E-05-2.92587E-05 2.48894E-06-1.25284E-18 1.22468E-18
 -1      2087 9.56724E-05-2.78328E-05-2.90748E-05 1.63935E-06-2.34231E-18 9.99541E-19
 -1      2088 9.36606E-05-2.32479E-05-3.01829E-05 3.92244E-06 2.74723E-19 1.47178E-18
 -1      2089 9.41180E-05-2.42684E-05-2.99258E-05 3.84229E-06-2.90306E-19 6.88472E-19
 -1      2090 9.45272E-05-2.51018E-05-2.97533E-05 3.60578E-06-6.42297E-19 7.71381E-19
 -1      2091 9.49530E-05-2.60285E-05-2.95255E-05 3.26210E-06-1.16603E-18 2.34122E-18
 -1      2092 9.45371E-05-2.49726E-05-2.98157E-05 4.70799E-06-4.54444E-19 1.63080E-18
 -1      2093 9.51860E-05-2.65938E-05-2.93923E-05 2.77661E-06-1.44983E-18 1.40657E-18
 -1      2094 9.55104E-05-2.73312E-05-2.92066E-05 2.23935E-06-1.43919E-18 9.87273E-19
 -1      2095 9.58350E-05-2.74703E-05-2.92903E-05 2.71484E-06-1.63982E-18 1.48054E-18
 -1      2096 9.52993E-05-2.63793E-05-2.95407E-05 3.88650E-06-1.02653E-18 1.81518E-18
 -1      2097 9.28410E-05-2.14639E-05-3.06043E-05 3.69724E-06-4.05855E-19-1.16559E-18
 -1      2098 9.32689E-05-2.24335E-05-3.03572E-05 3.85768E-06-3.93349E-19 1.68341E-19
 -1      2099 9.35686E-05-2.32772E-05-3.01219E-05 4.89114E-06-1.42018E-19 4.59957E-19
 -1      2100 9.21233E-05-1.98986E-05-3.09748E-05 2.96245E-06-6.58965E-20 1.43275E-18
 -1      2101 9.24854E-05-2.07198E-05-3.07648E-05 3.34101E-06-7.39486E-19 1.43105E-18
 -1      2102 9.26636E-05-2.16663E-05-3.04173E-05 4.42005E-06 4.42245E-19-2.22867E-20
 -1      2103 9.16132E-05-1.87914E-05-3.12350E-05 1.81502E-06-2.58151E-19 1.70232E-18
 -1      2104 9.18538E-05-1.93348E-05-3.10960E-05 2.35825E-06-1.95519E-19 2.15086E-18
 -1      2105 9.19064E-05-2.03128E-05-3.06657E-05 3.34187E-06 1.00870E-18 1.99750E-18
 -1      2106 9.13827E-05-1.82973E-05-3.13484E-05 4.10487E-07 2.93277E-19 7.31128E-19
 -1      2107 9.14670E-05-1.84867E-05-3.13001E-05 1.04346E-06-6.39770E-19 6.99927E-19
 -1      2108 9.14018E-05-1.94125E-05-3.08301E-05 1.79610E-06-1.55410E-19 9.98635E-19
 -1      2109 9.14678E-05-1.84899E-05-3.12991E-05-1.05352E-06-1.42942E-19 3.21972E-19
 -1      2110 9.13828E-05-1.82979E-05-3.13482E-05-4.20528E-07 1.77833E-19 2.05740E-18
 -1      2111 9.12243E-05-1.90971E-05-3.08874E-05-6.12651E-09-6.38881E-19 1.91625E-18
 -1      2112 9.18557E-05-1.93422E-05-3.10940E-05-2.36813E-06-4.60936E-19-2.70800E-18
 -1      2113 9.16150E-05-1.87960E-05-3.12336E-05-1.82533E-06-1.04360E-18-1.51322E-18
 -1      2114 9.14020E-05-1.94148E-05-3.08294E-05-1.80857E-06-1.23041E-18-8.72126E-19
 -1      2115 9.24770E-05-2.07041E-05-3.07681E-05-3.33705E-06-7.71200E-19 4.91501E-19
 -1      2116 9.21207E-05-1.98960E-05-3.09747E-05-2.96376E-06-8.39883E-19-6.56318E-19
 -1      2117 9.19039E-05-2.03084E-05-3.06663E-05-3.34427E-06-6.78545E-19-2.11506E-18
 -1      2118 9.32687E-05-2.24342E-05-3.03566E-05-3.86189E-06 1.36801E-19 3.31880E-18
 -1      2119 9.28325E-05-2.14471E-05-3.06080E-05-3.69809E-06-4.01666E-19 2.28364E-18
 -1      2120 9.26530E-05-2.16493E-05-3.04200E-05-4.41802E-06 5.39048E-19 1.41747E-18
 -1      2121 9.41277E-05-2.42880E-05-2.99213E-05-3.84490E-06 9.95833E-19 2.38380E-18
 -1      2122 9.36680E-05-2.32649E-05-3.01790E-05-3.92792E-06 5.48320E-19 3.38263E-18
 -1      2123 9.35678E-05-2.32759E-05-3.01224E-05-4.89734E-06 4.48390E-20 3.85824E-18
 -1      2124 9.49784E-05-2.60749E-05-2.95225E-05-3.27542E-06 1.08952E-18-1.11673E-19
 -1      2125 9.45264E-05-2.51171E-05-2.97480E-05-3.60415E-06 8.77427E-19 8.99750E-19
 -1      2126 9.45425E-05-2.49846E-05-2.98130E-05-4.70426E-06 8.63977E-19 1.11494E-18
 -1      2127 5.85146E-05-4.05130E-05-8.37927E-06 3.94478E-05 2.96462E-20 5.72859E-18
 -1      2128 4.51737E-05-4.05367E-05-2.77884E-06 3.53134E-05-1.65764E-18 5.61837E-18
 -1      2129 1.26515E-05-3.43199E-05 7.95374E-06 5.14042E-06-1.51375E-18 2.96123E-18
 -1      2130 1.24032E-05-3.43688E-05 8.03540E-06-4.01252E-06-2.26751E-18 1.77115E-18
 -1      2131 2.66626E-05-3.31524E-05 2.04626E-06 2.68177E-05-2.11843E-18 5.13535E-18
 -1      2132 1.80081E-05-3.65721E-05 6.34221E-06 1.52117E-05-2.78144E-18 4.27963E-18
 -1      2133 1.79938E-05-2.49759E-05 2.50489E-06 1.32306E-05-1.13333E-18 2.50256E-18
 -1      2134 9.37663E-05-4.17790E-05-2.22736E-05 4.29475E-05 2.50425E-18 3.91753E-18
 -1      2135 7.50320E-05-4.41334E-05-1.44109E-05 3.79505E-05 4.36222E-19 4.23707E-18
 -1      2136 1.31830E-04-4.11057E-05-3.83208E-05 3.75274E-05 2.77573E-18 4.36688E-18
 -1      2137 1.10801E-04-4.25649E-05-2.98813E-05 3.61658E-05 3.35764E-18 3.74854E-18
 -1      2138 8.72709E-05-8.72622E-06-3.37504E-05-1.05330E-05-1.01450E-18-1.42642E-18
 -1      2139 8.79626E-05-9.25414E-06-3.38195E-05-1.21203E-05-1.23457E-18-1.16396E-18
 -1      2140 9.04662E-05-1.30773E-05-3.32329E-05-1.19318E-05-1.32498E-18-8.71875E-19
 -1      2141 8.86740E-05-1.10366E-05-3.32968E-05-9.42023E-06-9.91469E-19-1.37259E-18
 -1      2142 1.67758E-04-2.61232E-05-6.04621E-05 4.44148E-06 3.73330E-18-3.09167E-19
 -1      2143 1.64776E-04-3.06190E-05-5.67274E-05 1.33385E-05 3.19840E-18 1.64960E-18
 -1      2144 1.84342E-04-2.46348E-05-6.65965E-05-6.49752E-07 2.46952E-18 1.00119E-18
 -1      2145 1.71954E-04-2.01945E-05-6.44186E-05 4.61008E-06 3.13529E-18 3.89953E-19
 -1      2146 1.72681E-04-2.55690E-05-6.23977E-05-9.23609E-06 2.81681E-18 1.26504E-18
 -1      2147 1.83382E-04-2.64180E-05-6.57591E-05-4.13997E-06 2.23363E-18 1.81487E-18
 -1      2148 1.60329E-04-1.41356E-05-6.14880E-05 1.15644E-06 2.03161E-18 2.02240E-18
 -1      2149 1.53652E-04-3.50443E-05-5.08403E-05-1.51494E-05 2.74603E-18 1.61868E-18
 -1      2150 1.69454E-04-3.22491E-05-5.76712E-05-1.27200E-05 3.28479E-18 1.34085E-18
 -1      2151 1.28099E-04-4.69128E-05-3.51696E-05-2.72652E-05 3.18611E-18 4.47657E-19
 -1      2152 1.46641E-04-4.41645E-05-4.34714E-05-2.46388E-05 3.10448E-18 2.33866E-18
 -1      2153 9.11523E-05-4.80871E-05-1.91937E-05-3.77453E-05 1.47511E-18-1.07128E-18
 -1      2154 1.11860E-04-4.74023E-05-2.75108E-05-3.89930E-05 2.20398E-18-1.19580E-18
 -1      2155 5.34882E-05-4.17885E-05-5.67395E-06-3.69089E-05 6.20452E-19-2.37582E-18
 -1      2156 7.20694E-05-4.32676E-05-1.24867E-05-4.29923E-05 1.00246E-18-1.29321E-18
 -1      2157 2.01122E-05-3.55547E-05 5.25426E-06-1.79682E-05 1.31163E-18-2.58430E-18
 -1      2158 3.00365E-05-3.20653E-05 3.48107E-07-3.01824E-05 1.07616E-18-2.72575E-18
 -1      2159 1.18103E-05-3.01095E-05 6.93640E-06 1.50334E-06 4.37069E-19-3.08278E-18
 -1      2160 1.37378E-05-3.22977E-05 6.84332E-06-8.77292E-06 1.58565E-18-2.70246E-18
 -1      2161 2.03844E-05-2.36801E-05 1.11950E-06-1.68525E-05-3.61048E-20-2.81257E-18
 -1      2162 2.43011E-05-3.48286E-05 3.50374E-06 2.38495E-05 6.58145E-19-4.08418E-18
 -1      2163 1.64768E-05-3.33866E-05 6.10911E-06 1.51153E-05 1.35822E-18-3.57024E-18
 -1      2164 5.28847E-05-3.83673E-05-6.67244E-06 3.94373E-05 1.30867E-19-4.75567E-18
 -1      2165 3.73792E-05-4.01314E-05-2.20948E-07 2.98872E-05 9.38936E-19-3.98317E-18
 -1      2166 3.77221E-05-3.29854E-05-2.39216E-06 3.36030E-05 1.74086E-18-3.85633E-18
 -1      2167 9.52044E-05-4.40898E-05-2.18702E-05 4.19504E-05-1.67585E-18-2.46338E-18
 -1      2168 7.73612E-05-4.61422E-05-1.41654E-05 3.83038E-05-1.77453E-19-3.74124E-18
 -1      2169 1.30558E-04-4.47279E-05-3.64422E-05 3.43920E-05-2.16904E-18-1.13121E-18
 -1      2170 1.09518E-04-4.52828E-05-2.81813E-05 3.50236E-05-1.75844E-18-1.65214E-18
 -1      2171 1.15889E-04-5.55792E-05-2.56966E-05 3.35603E-05 7.53436E-19-1.61995E-19
 -1      2172 1.61013E-04-3.73179E-05-5.19166E-05 2.30900E-05-3.80162E-18 3.35086E-18
 -1      2173 1.42864E-04-3.92514E-05-4.45131E-05 2.38679E-05-3.21661E-18 9.47406E-19
 -1      2174 1.76395E-04-3.01561E-05-6.15419E-05 1.10241E-05-5.36024E-18 7.50895E-18
 -1      2175 1.65534E-04-3.15706E-05-5.68433E-05 1.73581E-05-4.60479E-18 4.93058E-18
 -1      2176 1.56009E-04-3.48264E-05-5.10632E-05 3.64602E-06-4.55481E-18 6.28202E-18
 -1      2177 1.76133E-04-2.13752E-05-6.55351E-05-8.53612E-07-5.35579E-18 9.21016E-18
 -1      2178 1.79847E-04-2.49552E-05-6.48734E-05 6.39591E-06-5.35410E-18 7.77068E-18
 -1      2179 1.76139E-04-2.60685E-05-6.30870E-05-9.30016E-06-4.91893E-18 8.43730E-18
 -1      2180 1.73011E-04-2.14490E-05-6.44258E-05-9.54468E-07-4.05263E-18 7.95375E-18
 -1      2181 1.59207E-04-3.23271E-05-5.41050E-05-1.63230E-05-3.98148E-18 7.89350E-18
 -1      2182 1.74176E-04-3.15468E-05-5.99423E-05-1.37303E-05-4.66630E-18 8.17006E-18
 -1      2183 1.57328E-04-2.21961E-05-5.69697E-05 1.68253E-06-4.05983E-18 6.86647E-18
 -1      2184 1.35000E-04-4.02790E-05-4.06859E-05-3.08691E-05-4.20510E-18 7.56824E-18
 -1      2185 1.52813E-04-3.95194E-05-4.78861E-05-2.67817E-05-4.00160E-18 8.09171E-18
 -1      2186 1.05760E-04-4.51851E-05-2.65806E-05-3.63736E-05-3.69560E-18 6.63481E-18
 -1      2187 1.24219E-04-4.23372E-05-3.45355E-05-3.86322E-05-3.98105E-18 7.49539E-18
 -1      2188 1.37721E-04-5.09306E-05-3.67388E-05-2.34060E-05-2.68382E-18 5.66411E-18
 -1      2189 7.01612E-05-4.55427E-05-1.15673E-05-3.82809E-05-3.99418E-18 4.61792E-18
 -1      2190 8.88644E-05-4.48322E-05-1.89217E-05-4.30318E-05-4.10811E-18 6.36355E-18
 -1      2191 3.59137E-05-4.10111E-05 5.54775E-07-2.90683E-05-3.83748E-18 3.94463E-18
 -1      2192 4.91505E-05-3.87850E-05-5.15534E-06-3.73855E-05-3.89805E-18 4.21198E-18
 -1      2193 1.67890E-05-3.73947E-05 7.19473E-06-1.44224E-05-3.66511E-18 1.71609E-18
 -1      2194 2.32585E-05-3.62218E-05 4.35117E-06-2.26517E-05-4.71077E-18 2.74058E-18
 -1      2195 1.60856E-04-3.73821E-05-5.22255E-05 2.31866E-05 2.59449E-18 3.17256E-18
 -1      2196 1.43726E-04-3.80470E-05-4.52467E-05 2.74497E-05 2.56047E-18 3.90397E-18
 -1      2197 1.43599E-04-4.80722E-05-4.02212E-05 1.95716E-05 1.92509E-18 2.77361E-18
 -1      2198 9.71650E-05-2.43073E-05-3.12987E-05-1.00105E-05-1.42762E-18 1.60926E-18
 -1      2199 1.54977E-04-3.41976E-05-5.08586E-05 3.62553E-06 2.51071E-18 5.44219E-19
 -1      2200 9.63284E-05-2.30927E-05-3.14499E-05-1.03942E-05-1.49426E-18 7.39936E-19
 -1      2201 4.05403E-05-3.63322E-05-2.30199E-06 3.36935E-05-2.40430E-18 6.12892E-18
 -1      2202 3.72933E-05-2.86949E-05-3.27801E-06 3.27471E-05-1.84463E-18 5.40852E-18
 -1      2203 5.52768E-05-3.82917E-05-7.56454E-06 4.03467E-05-2.42696E-18 6.07344E-18
 -1      2204 7.97829E-05-4.87940E-05-1.37222E-05 4.24441E-05-1.00458E-18 4.62080E-18
 -1      2205 9.53081E-05-2.66589E-05-2.94108E-05-3.15672E-06 7.82895E-19-1.20845E-18
 -1      2206 1.68330E-05-2.63559E-05 3.34082E-06-1.17480E-05-1.26102E-18 3.08532E-18
 -1      2207 1.15323E-04-5.32290E-05-2.64953E-05 3.52391E-05 1.33916E-18 2.80008E-18
 -1      2208 3.55331E-05-3.45747E-05-1.06331E-06-3.25695E-05-2.56100E-18 2.77912E-18
 -1      2209 1.09536E-04-5.47548E-05-2.35892E-05-3.67456E-05-2.88923E-18 6.10520E-18
 -1      2210 1.53964E-04-3.89714E-05-4.85640E-05-8.34141E-06-3.26997E-18 7.26670E-18
 -1      2211 1.61242E-04-2.09436E-05-5.90489E-05-7.32283E-07-6.31294E-18 7.01216E-18
 -1      2212 1.42330E-04-5.02086E-05-3.90826E-05 1.76023E-05-1.74108E-18 2.34798E-18
 -1      2213 7.67960E-05-4.73761E-05-1.27005E-05 4.18425E-05 1.66230E-18-3.60799E-18
 -1      2214 1.78104E-05-2.37159E-05 2.12593E-06 1.01467E-05 1.23847E-18-3.31190E-18
 -1      2215 4.94171E-05-3.63484E-05-5.61484E-06-3.76402E-05-2.71262E-19-1.97338E-18
 -1      2216 9.28324E-05-5.20119E-05-1.75706E-05-4.03246E-05-4.09540E-19-2.77933E-19
 -1      2217 1.28801E-04-5.53546E-05-3.11886E-05-2.61189E-05 1.90667E-18 1.00183E-18
 -1      2218 1.58243E-04-2.47924E-05-5.63717E-05 1.50544E-06 2.67578E-18 1.96639E-18
 -1      2219 1.61527E-04-2.01021E-05-5.99654E-05 3.93875E-07 3.63314E-18 8.05740E-19
 -1      2220 1.46711E-04-1.96962E-05-5.43952E-05-5.29788E-06 3.52239E-18 1.57188E-18
 -1      2221 1.47801E-04-1.32309E-05-5.79290E-05-4.17459E-06 2.89728E-18 1.74891E-18
 -1      2222 1.49952E-04-4.40864E-05-4.51099E-05-6.80762E-06 2.80850E-18 2.43480E-18
 -1      2223 1.64674E-04-1.71498E-05-6.23652E-05-3.28967E-07-4.67562E-18 6.31347E-18
 -1      2224 1.48729E-04-1.14620E-05-5.89067E-05-2.08034E-07-5.32445E-18 4.82692E-18
 -1      2225 1.47307E-04-1.24254E-05-5.78702E-05 1.89261E-06-4.63708E-18 5.00501E-18
 -1      2226 7.07569E-05-4.59725E-05-1.07314E-05-4.27041E-05-2.85958E-18 4.34824E-18
 -1      2227 9.51913E-05-2.63701E-05-2.94816E-05 4.20763E-06 1.13869E-18 1.86231E-18
 -1      2228 9.61682E-05-2.58561E-05-3.00600E-05 6.01292E-06 1.24519E-18 2.05154E-18
 -1      2229 8.81562E-05-1.11917E-05-3.30241E-05-3.66648E-06-1.95581E-19-1.54741E-18
 -1      2230 8.83881E-05-1.14620E-05-3.30056E-05-4.80962E-06-4.25894E-19-1.54874E-18
 -1      2231 8.87382E-05-1.19463E-05-3.29561E-05-5.82782E-06-5.64844E-19-1.51231E-18
 -1      2232 8.91402E-05-1.24163E-05-3.29269E-05-7.00438E-06-7.40446E-19-1.46156E-18
 -1      2233 8.99072E-05-1.38301E-05-3.26034E-05-4.90913E-06-4.62296E-19-1.34692E-18
 -1      2234 8.78140E-05-1.07337E-05-3.30685E-05 6.16361E-07 5.12476E-19-1.51416E-18
 -1      2235 8.78095E-05-1.07288E-05-3.30687E-05-4.96236E-07 3.39145E-19-1.51481E-18
 -1      2236 8.79934E-05-1.09582E-05-3.30495E-05 2.76193E-06 7.85676E-19-1.43634E-18
 -1      2237 8.78797E-05-1.08254E-05-3.30591E-05 1.64088E-06 6.22279E-19-1.52840E-18
 -1      2238 8.91324E-05-1.27801E-05-3.27256E-05 1.05138E-06 5.50121E-19-1.39391E-18
 -1      2239 8.84221E-05-1.15034E-05-3.30029E-05 4.89505E-06 1.14417E-18-1.24552E-18
 -1      2240 8.81861E-05-1.12280E-05-3.30217E-05 3.77031E-06 9.35616E-19-1.34061E-18
 -1      2241 8.93961E-05-1.31352E-05-3.26848E-05 3.02613E-06 7.89222E-19-1.20287E-18
 -1      2242 8.91954E-05-1.24842E-05-3.29222E-05 7.08395E-06 1.45912E-18-8.70320E-19
 -1      2243 8.87804E-05-1.19986E-05-3.29523E-05 5.91096E-06 1.27731E-18-1.05559E-18
 -1      2244 8.99487E-05-1.38814E-05-3.25988E-05 4.98392E-06 1.16910E-18-9.62865E-19
 -1      2245 9.04586E-05-1.40913E-05-3.27931E-05 9.23510E-06 1.68938E-18-5.75400E-19
 -1      2246 8.97815E-05-1.32816E-05-3.28396E-05 8.05480E-06 1.53781E-18-8.11325E-19
 -1      2247 9.08774E-05-1.51400E-05-3.24519E-05 6.88022E-06 1.42040E-18-7.26059E-19
 -1      2248 9.24440E-05-1.66572E-05-3.25803E-05 1.11215E-05 1.82171E-18 2.90420E-19
 -1      2249 9.13716E-05-1.53204E-05-3.26538E-05 1.00415E-05 1.72979E-18-1.97418E-19
 -1      2250 9.22930E-05-1.70903E-05-3.22084E-05 8.53026E-06 1.57733E-18-3.04604E-19
 -1      2251 9.42082E-05-2.71092E-05-2.87403E-05 1.77798E-06 9.97547E-19 1.55225E-18
 -1      2252 9.48114E-05-2.68866E-05-2.90392E-05 2.75076E-06 1.07037E-18 1.77227E-18
 -1      2253 9.53206E-05-2.58431E-05-2.97843E-05 4.37503E-06 1.21004E-18 1.18212E-18
 -1      2254 9.58936E-05-2.50860E-05-3.02983E-05-6.19955E-06-1.21427E-18 4.05390E-19
 -1      2255 9.52332E-05-2.58450E-05-2.97544E-05-4.29403E-06-1.01181E-18 3.60400E-19
 -1      2256 1.45770E-04-3.26422E-05-4.91924E-05-6.23558E-06 2.48541E-18 1.40607E-18
 -1      2257 1.46796E-04-4.13853E-05-4.54487E-05-7.94257E-07 2.17894E-18 1.15874E-18
 -1      2258 9.51179E-05-2.65300E-05-2.93375E-05-2.95137E-06-8.95658E-19 3.78776E-19
 -1      2259 9.46489E-05-2.69025E-05-2.90339E-05-1.89033E-06-8.82956E-19 2.83730E-19
 -1      2260 9.53237E-05-2.53492E-05-2.99915E-05-4.30807E-06-1.09217E-18-2.11084E-20
 -1      2261 9.44523E-05-2.72313E-05-2.87705E-05-1.04021E-06-6.85786E-19 4.08904E-19
 -1      2262 9.41932E-05-2.74437E-05-2.86043E-05-4.37963E-07-4.48704E-19 2.91678E-19
 -1      2263 9.50204E-05-2.66961E-05-2.92948E-05-1.93463E-06-7.75062E-19-1.32068E-20
 -1      2264 9.40447E-05-2.76232E-05-2.84437E-05 7.14007E-08-3.31803E-19 2.98668E-19
 -1      2265 9.39459E-05-2.77653E-05-2.83605E-05 4.02979E-07-3.70944E-19 2.84199E-19
 -1      2266 9.47140E-05-2.74208E-05-2.88528E-05-4.53138E-07-5.30600E-19 1.08488E-19
 -1      2267 9.38622E-05-2.78736E-05-2.82682E-05 6.88899E-07-3.70327E-19 2.56638E-19
 -1      2268 9.38688E-05-2.79788E-05-2.82361E-05 8.56656E-07-3.63830E-19 2.40694E-19
 -1      2269 9.45138E-05-2.78458E-05-2.85825E-05 4.22700E-07-4.28465E-19 1.13486E-19
 -1      2270 9.38394E-05-2.80492E-05-2.81892E-05 9.99769E-07-5.24433E-19 1.71980E-19
 -1      2271 9.39094E-05-2.81310E-05-2.81886E-05 1.06840E-06-4.28433E-19 8.29917E-20
 -1      2272 9.44237E-05-2.81105E-05-2.84276E-05 9.03684E-07-5.41735E-19 4.40197E-20
 -1      2273 9.39187E-05-2.81784E-05-2.81716E-05 1.12315E-06-1.37026E-19-1.11629E-19
 -1      2274 9.40235E-05-2.82428E-05-2.81898E-05 1.13401E-06-1.48108E-19-1.01260E-19
 -1      2275 9.44193E-05-2.82810E-05-2.83503E-05 1.13363E-06-4.17380E-19-5.58656E-19
 -1      2276 9.40581E-05-2.82746E-05-2.81923E-05 1.13776E-06-2.41842E-19-1.95734E-20
 -1      2277 9.41797E-05-2.83251E-05-2.82216E-05 1.11850E-06-2.89607E-19 2.13463E-19
 -1      2278 9.44733E-05-2.83908E-05-2.83247E-05 1.21101E-06-2.05140E-19-7.61861E-19
 -1      2279 9.42298E-05-2.83456E-05-2.82368E-05 1.09740E-06-5.06415E-19 3.43217E-19
 -1      2280 9.43578E-05-2.83845E-05-2.82724E-05 1.06720E-06-5.60819E-19 1.65256E-19
 -1      2281 9.45641E-05-2.84584E-05-2.83335E-05 1.20425E-06-3.96293E-19 1.04557E-20
 -1      2282 9.44176E-05-2.83964E-05-2.82962E-05 1.03999E-06-3.80952E-19 8.82849E-20
 -1      2283 9.45475E-05-2.84260E-05-2.83357E-05 1.01264E-06-2.22823E-19 8.11882E-20
 -1      2284 9.46771E-05-2.84951E-05-2.83654E-05 1.16184E-06-5.75183E-19 2.74775E-19
 -1      2285 9.46138E-05-2.84312E-05-2.83657E-05 9.93167E-07-5.04506E-20 1.50745E-19
 -1      2286 9.47455E-05-2.84536E-05-2.84083E-05 9.79029E-07 6.67229E-20 5.67193E-19
 -1      2287 9.48040E-05-2.85084E-05-2.84137E-05 1.11904E-06-1.87763E-19 3.92742E-19
 -1      2288 9.48177E-05-2.84535E-05-2.84436E-05 9.78007E-07-1.63951E-19 2.38222E-19
 -1      2289 9.49543E-05-2.84709E-05-2.84897E-05 9.85354E-07-2.83253E-19 2.36379E-19
 -1      2290 9.49417E-05-2.85036E-05-2.84747E-05 1.10242E-06-1.23863E-19 1.16293E-19
 -1      2291 9.50338E-05-2.84668E-05-2.85304E-05 1.01156E-06-4.88772E-19 4.52966E-19
 -1      2292 9.51808E-05-2.84815E-05-2.85813E-05 1.04746E-06-4.80620E-19 3.43778E-19
 -1      2293 9.50914E-05-2.84845E-05-2.85471E-05 1.13300E-06-3.84695E-19 4.66020E-20
 -1      2294 9.52704E-05-2.84746E-05-2.86283E-05 1.10857E-06-4.45569E-19 4.67933E-19
 -1      2295 9.54359E-05-2.84892E-05-2.86862E-05 1.17942E-06-4.05114E-19 5.43815E-19
 -1      2296 9.52573E-05-2.84543E-05-2.86314E-05 1.22846E-06-3.42630E-19 8.56435E-19
 -1      2297 9.55396E-05-2.84809E-05-2.87407E-05 1.28248E-06-5.98939E-19 5.41248E-19
 -1      2298 9.57331E-05-2.84986E-05-2.88083E-05 1.39430E-06-5.22224E-19 5.33994E-19
 -1      2299 9.54467E-05-2.84159E-05-2.87294E-05 1.40447E-06-6.72989E-19 7.93052E-19
 -1      2300 9.58562E-05-2.84906E-05-2.88720E-05 1.54584E-06-3.33742E-19 1.28400E-20
 -1      2301 9.60891E-05-2.85153E-05-2.89522E-05 1.70411E-06-3.46042E-19 2.67314E-19
 -1      2302 9.56690E-05-2.83728E-05-2.88435E-05 1.67537E-06-5.53041E-19 6.99512E-19
 -1      2303 9.62377E-05-2.85102E-05-2.90268E-05 1.90984E-06-7.75246E-19 3.26404E-19
 -1      2304 9.65226E-05-2.85471E-05-2.91229E-05 2.11887E-06-5.58440E-19 1.84905E-19
 -1      2305 9.59357E-05-2.83301E-05-2.89766E-05 2.05398E-06-3.83612E-19 1.30221E-19
 -1      2306 9.67042E-05-2.85491E-05-2.92099E-05 2.38279E-06-3.19712E-19-2.65065E-19
 -1      2307 9.70548E-05-2.86052E-05-2.93245E-05 2.64445E-06-1.64051E-19-2.19221E-19
 -1      2308 9.62609E-05-2.82958E-05-2.91312E-05 2.55036E-06-7.40254E-19 1.46115E-19
 -1      2309 9.72785E-05-2.86214E-05-2.94247E-05 2.96722E-06 3.56345E-20-2.34741E-19
 -1      2310 9.77089E-05-2.87070E-05-2.95601E-05 3.27860E-06 3.90747E-19-2.79134E-19
 -1      2311 9.66615E-05-2.82833E-05-2.93087E-05 3.16921E-06-3.95444E-20-4.24787E-19
 -1      2312 9.79866E-05-2.87487E-05-2.96732E-05 3.65471E-06 9.13851E-19-3.75073E-19
 -1      2313 9.85107E-05-2.88784E-05-2.98298E-05 4.00442E-06 1.24052E-18-2.06999E-19
 -1      2314 9.71588E-05-2.83152E-05-2.95087E-05 3.90542E-06 7.03397E-19-2.58557E-19
 -1      2315 9.88589E-05-2.89644E-05-2.99537E-05 4.41794E-06 1.00921E-18-1.93306E-19
 -1      2316 9.94896E-05-2.91595E-05-3.01298E-05 4.78055E-06 4.58838E-19-1.09326E-19
 -1      2317 9.77817E-05-2.84285E-05-2.97280E-05 4.73701E-06 8.31321E-19-6.74196E-19
 -1      2318 9.99326E-05-2.93193E-05-3.02601E-05 5.19876E-06 7.48276E-20-3.12350E-19
 -1      2319 1.00680E-04-2.96097E-05-3.04504E-05 5.52717E-06-3.57145E-19-2.85422E-19
 -1      2320 9.85716E-05-2.86820E-05-2.99593E-05 5.61467E-06-8.37252E-21-9.62764E-19
 -1      2321 1.01255E-04-2.98873E-05-3.05806E-05 5.89180E-06-7.80333E-19-7.29062E-19
 -1      2322 1.02125E-04-3.03118E-05-3.07752E-05 6.10804E-06-5.70937E-19-1.10418E-18
 -1      2323 9.95902E-05-2.91651E-05-3.01912E-05 6.44712E-06-8.15711E-19-1.08918E-18
 -1      2324 1.02885E-04-3.07666E-05-3.08977E-05 6.32436E-06-3.58687E-19-1.06986E-18
 -1      2325 1.03872E-04-3.13682E-05-3.10827E-05 6.31155E-06-8.84645E-20-8.94330E-19
 -1      2326 1.00928E-04-3.00026E-05-3.04100E-05 7.08216E-06-6.07089E-19-7.81545E-19
 -1      2327 1.04888E-04-3.20666E-05-3.11919E-05 6.23711E-06 2.90001E-20-7.63651E-19
 -1      2328 1.05965E-04-3.28722E-05-3.13517E-05 5.83970E-06-1.85436E-19-2.12716E-19
 -1      2329 1.02710E-04-3.13462E-05-3.06045E-05 7.28492E-06 4.80054E-20-1.42620E-18
 -1      2330 1.07303E-04-3.38554E-05-3.14515E-05 5.28045E-06-3.10133E-19-3.27740E-19
 -1      2331 1.08393E-04-3.48280E-05-3.15750E-05 4.32733E-06 3.85863E-20-3.44146E-19
 -1      2332 1.05076E-04-3.33258E-05-3.07780E-05 6.72084E-06-2.78439E-19-9.16120E-19
 -1      2333 1.10052E-04-3.60371E-05-3.16888E-05 3.06458E-06 5.25903E-19-8.99749E-20
 -1      2334 1.10992E-04-3.69939E-05-3.17800E-05 1.44239E-06 3.17402E-19-1.92129E-19
 -1      2335 1.08101E-04-3.59204E-05-3.09679E-05 4.96821E-06 1.67451E-19 1.67018E-19
 -1      2336 1.12797E-04-3.81568E-05-3.19626E-05-6.71950E-07 6.83963E-20 3.35076E-19
 -1      2337 1.13295E-04-3.86760E-05-3.20512E-05-2.87989E-06-1.08076E-19 1.01120E-18
 -1      2338 1.11625E-04-3.87287E-05-3.12692E-05 1.62553E-06 5.76270E-19 7.64600E-19
 -1      2339 1.14745E-04-3.91896E-05-3.23864E-05-5.68701E-06-6.15700E-19 1.43248E-18
 -1      2340 1.14431E-04-3.86383E-05-3.25257E-05-7.98524E-06-5.62427E-19 2.01310E-18
 -1      2341 1.14982E-04-4.06761E-05-3.18486E-05-3.39571E-06 4.88326E-20 2.20467E-18
 -1      2342 1.14744E-04-3.77118E-05-3.30837E-05-1.06470E-05-6.29372E-19 1.79927E-18
 -1      2343 1.13425E-04-3.56488E-05-3.33133E-05-1.20095E-05-7.30473E-19 2.04569E-18
 -1      2344 1.16841E-04-4.00028E-05-3.28945E-05-9.23353E-06-5.51102E-19 2.75104E-18
 -1      2345 1.12143E-04-3.30125E-05-3.40467E-05-1.29310E-05-9.81284E-19 1.52874E-18
 -1      2346 1.10212E-04-2.99354E-05-3.43298E-05-1.21665E-05-1.07451E-18 5.14599E-19
 -1      2347 1.15841E-04-3.53919E-05-3.44408E-05-1.33979E-05-1.39418E-18 2.33892E-18
 -1      2348 1.08104E-04-2.67563E-05-3.49962E-05-9.90174E-06-1.13893E-18 5.83526E-20
 -1      2349 1.06663E-04-2.44354E-05-3.51943E-05-6.67156E-06-1.14078E-18-8.55207E-19
 -1      2350 1.12208E-04-2.79472E-05-3.61408E-05-1.24159E-05-1.94344E-18 5.18748E-19
 -1      2351 1.05682E-04-2.31025E-05-3.54399E-05-1.76281E-06-8.91926E-19-1.59195E-18
 -1      2352 1.05772E-04-2.32956E-05-3.54090E-05 2.48894E-06-4.39570E-19-1.52168E-18
 -1      2353 1.08853E-04-2.21717E-05-3.72597E-05-4.85966E-06-1.60304E-18-1.08776E-18
 -1      2354 1.06951E-04-2.50008E-05-3.50667E-05 7.14981E-06-2.70733E-19-1.09289E-18
 -1      2355 1.08451E-04-2.75299E-05-3.48215E-05 1.00801E-05-5.11092E-19-4.72175E-19
 -1      2356 1.09102E-04-2.26962E-05-3.71475E-05 5.52915E-06-4.97605E-19-1.96421E-18
 -1      2357 1.10509E-04-3.07697E-05-3.41044E-05 1.18658E-05-6.46141E-19 8.47860E-20
 -1      2358 1.12323E-04-3.37740E-05-3.37945E-05 1.22593E-05-1.57848E-19-9.05730E-20
 -1      2359 1.12623E-04-2.90046E-05-3.58609E-05 1.22772E-05 2.97917E-20-2.08521E-18
 -1      2360 1.13356E-04-3.62114E-05-3.30507E-05 1.09685E-05-7.18383E-19-3.47047E-19
 -1      2361 1.14455E-04-3.80603E-05-3.28023E-05 9.35823E-06-9.30065E-20 5.49579E-20
 -1      2362 1.15930E-04-3.62792E-05-3.41018E-05 1.23378E-05-9.02798E-19-2.80103E-19
 -1      2363 1.13888E-04-3.87467E-05-3.22516E-05 6.54255E-06 1.70309E-18-1.22748E-18
 -1      2364 1.13968E-04-3.90933E-05-3.20903E-05 4.15419E-06 2.37049E-18-3.62267E-19
 -1      2365 1.16404E-04-4.03446E-05-3.25660E-05 7.63777E-06 7.05649E-19-6.57575E-20
 -1      2366 1.12374E-04-3.84383E-05-3.17572E-05 1.35019E-06 1.85445E-18-7.64469E-19
 -1      2367 1.11677E-04-3.77979E-05-3.16366E-05-8.58029E-07 1.25374E-18-1.64779E-19
 -1      2368 1.14140E-04-4.05357E-05-3.15485E-05 1.69292E-06 1.31566E-18-9.32258E-19
 -1      2369 1.09808E-04-3.65863E-05-3.14446E-05-2.92601E-06 2.92418E-19-2.51191E-19
 -1      2370 1.08701E-04-3.55663E-05-3.13144E-05-4.52035E-06 1.74844E-19-1.46826E-19
 -1      2371 1.10577E-04-3.83637E-05-3.09770E-05-3.25904E-06 1.10500E-18-1.46446E-18
 -1      2372 1.07006E-04-3.43458E-05-3.11840E-05-5.74016E-06 3.92348E-20 2.62033E-19
 -1      2373 1.05765E-04-3.33292E-05-3.10202E-05-6.65962E-06 5.73261E-19-1.83248E-19
 -1      2374 1.06952E-04-3.54871E-05-3.06611E-05-6.50977E-06 3.67975E-19-1.14037E-18
 -1      2375 1.04392E-04-3.23358E-05-3.09045E-05-7.18424E-06 1.27571E-18-6.47906E-20
 -1      2376 1.03171E-04-3.14759E-05-3.07093E-05-7.54218E-06 2.39826E-18-8.85110E-19
 -1      2377 1.03855E-04-3.28695E-05-3.04494E-05-8.18351E-06 6.00738E-19-8.02204E-19
 -1      2378 1.02100E-04-3.07375E-05-3.05917E-05-7.57217E-06 2.37708E-18-9.44408E-19
 -1      2379 1.00972E-04-3.00505E-05-3.03819E-05-7.51607E-06 1.05442E-18-3.08512E-19
 -1      2380 1.01397E-04-3.08304E-05-3.02619E-05-8.66840E-06 1.84409E-18-1.86855E-18
 -1      2381 1.00130E-04-2.95079E-05-3.02647E-05-7.21132E-06 2.93370E-19 7.93473E-19
 -1      2382 9.91243E-05-2.89541E-05-3.00616E-05-6.86095E-06 7.75709E-20 1.31884E-19
 -1      2383 9.94760E-05-2.93306E-05-3.00751E-05-8.32826E-06 1.23510E-18-2.11361E-20
 -1      2384 9.84358E-05-2.85267E-05-2.99539E-05-6.32340E-06-1.01168E-18-9.48230E-19
 -1      2385 9.75769E-05-2.80690E-05-2.97772E-05-5.75070E-06-1.09375E-18-1.81899E-18
 -1      2386 9.79437E-05-2.82058E-05-2.98957E-05-7.42301E-06-1.50017E-18 1.93182E-20
 -1      2387 9.33110E-05-2.76808E-05-2.81199E-05-4.00334E-07 2.93193E-19 7.19431E-19
 -1      2388 9.33900E-05-2.75765E-05-2.81813E-05-1.13465E-07 4.53351E-19 1.11135E-18
 -1      2389 9.32606E-05-2.78435E-05-2.80310E-05-8.12003E-07 4.27861E-19 2.82038E-19
 -1      2390 9.32154E-05-2.77535E-05-2.80420E-05-6.70126E-07 3.25196E-19 5.18686E-19
 -1      2391 9.39918E-05-2.77987E-05-2.83798E-05-4.35375E-07 6.25243E-19 1.26475E-19
 -1      2392 9.33585E-05-2.79773E-05-2.80171E-05-9.97321E-07 6.53635E-19 2.55810E-19
 -1      2393 9.32436E-05-2.78976E-05-2.79989E-05-9.41746E-07 4.47001E-19 1.76333E-19
 -1      2394 9.39074E-05-2.80054E-05-2.82519E-05-8.91197E-07 5.70225E-19 6.33356E-20
 -1      2395 9.35421E-05-2.80903E-05-2.80483E-05-1.04779E-06 5.64397E-19 5.43508E-19
 -1      2396 9.33925E-05-2.80204E-05-2.80139E-05-1.04215E-06 5.79336E-19 3.92104E-19
 -1      2397 9.39416E-05-2.81511E-05-2.82015E-05-1.10147E-06 5.33849E-19 2.07581E-20
 -1      2398 9.37696E-05-2.81857E-05-2.81055E-05-1.02369E-06 4.89764E-19 7.32186E-19
 -1      2399 9.36066E-05-2.81254E-05-2.80629E-05-1.04416E-06 6.35234E-19 7.72819E-19
 -1      2400 9.40500E-05-2.82574E-05-2.82005E-05-1.16451E-06 4.50803E-19 3.44937E-19
 -1      2401 9.40158E-05-2.82654E-05-2.81771E-05-9.66231E-07 5.19446E-19 6.39838E-19
 -1      2402 9.38511E-05-2.82143E-05-2.81309E-05-9.96456E-07 4.89567E-19 7.04614E-19
 -1      2403 9.42011E-05-2.83354E-05-2.82305E-05-1.14658E-06 5.47015E-19 4.17859E-19
 -1      2404 9.42682E-05-2.83316E-05-2.82568E-05-9.04552E-07 1.55225E-19 6.89313E-19
 -1      2405 9.41065E-05-2.82884E-05-2.82091E-05-9.32882E-07 5.34934E-19 7.39891E-19
 -1      2406 9.43748E-05-2.83915E-05-2.82802E-05-1.09373E-06 4.83727E-19 2.44245E-19
 -1      2407 9.45232E-05-2.83870E-05-2.83420E-05-8.60094E-07 4.05563E-19 3.78042E-19
 -1      2408 9.43642E-05-2.83501E-05-2.82934E-05-8.77815E-07 8.80402E-20 4.06346E-19
 -1      2409 9.45604E-05-2.84304E-05-2.83427E-05-1.03896E-06 3.08823E-19 2.35844E-19
 -1      2410 9.47846E-05-2.84348E-05-2.84329E-05-8.49496E-07 3.53941E-19 4.52683E-19
 -1      2411 9.46243E-05-2.84020E-05-2.83824E-05-8.49676E-07 4.27982E-19 4.86413E-19
 -1      2412 9.47545E-05-2.84558E-05-2.84149E-05-1.00684E-06 2.97172E-19 5.98742E-20
 -1      2413 9.50615E-05-2.84789E-05-2.85318E-05-8.86564E-07 3.96028E-19 3.68843E-19
 -1      2414 9.48929E-05-2.84477E-05-2.84776E-05-8.63267E-07 4.20965E-19 6.69507E-19
 -1      2415 9.49593E-05-2.84713E-05-2.84962E-05-1.01666E-06 2.32276E-19-2.34186E-19
 -1      2416 9.53679E-05-2.85239E-05-2.86427E-05-9.83588E-07 5.05580E-19 4.23658E-19
 -1      2417 9.51813E-05-2.84912E-05-2.85821E-05-9.31363E-07 3.62916E-19 5.63869E-19
 -1      2418 9.51814E-05-2.84801E-05-2.85879E-05-1.08455E-06 3.42112E-19-5.15469E-20
 -1      2419 9.57214E-05-2.85753E-05-2.87708E-05-1.15206E-06 5.83189E-19 9.58957E-19
 -1      2420 9.55051E-05-2.85374E-05-2.87006E-05-1.06570E-06 5.62267E-19 1.04889E-18
 -1      2421 9.54311E-05-2.84860E-05-2.86928E-05-1.22486E-06 1.05939E-19 4.40313E-19
 -1      2422 9.61430E-05-2.86397E-05-2.89223E-05-1.40278E-06 3.95309E-19 1.56365E-18
 -1      2423 9.58833E-05-2.85922E-05-2.88386E-05-1.27735E-06 6.25635E-19 1.34138E-18
 -1      2424 9.57216E-05-2.84933E-05-2.88148E-05-1.45083E-06 3.35843E-19 1.40291E-18
 -1      2425 9.66566E-05-2.87254E-05-2.91040E-05-1.74514E-06 1.99468E-19 1.23420E-18
 -1      2426 9.63383E-05-2.86629E-05-2.90027E-05-1.57647E-06 6.14314E-19 1.50481E-18
 -1      2427 9.60690E-05-2.85076E-05-2.89582E-05-1.77450E-06 4.54606E-19 1.78637E-18
 -1      2428 9.72884E-05-2.88434E-05-2.93226E-05-2.18537E-06-5.69930E-19 9.43056E-19
 -1      2429 9.68950E-05-2.87591E-05-2.91995E-05-1.97107E-06-3.04571E-19 9.23159E-19
 -1      2430 9.64917E-05-2.85369E-05-2.91274E-05-2.20570E-06-4.75257E-21 1.57437E-18
 -1      2431 9.80658E-05-2.90080E-05-2.95838E-05-2.72307E-06-7.10197E-19 5.11970E-19
 -1      2432 9.75806E-05-2.88933E-05-2.94353E-05-2.46444E-06-4.25682E-19 9.41731E-19
 -1      2433 9.70105E-05-2.85930E-05-2.93265E-05-2.74961E-06-4.14529E-19 1.45234E-18
 -1      2434 9.90159E-05-2.92395E-05-2.98911E-05-3.34549E-06 5.38983E-20-3.64674E-19
 -1      2435 9.84238E-05-2.90829E-05-2.97148E-05-3.05069E-06-4.99247E-19-2.39893E-19
 -1      2436 9.76491E-05-2.86938E-05-2.95577E-05-3.40253E-06-2.07304E-19 2.43719E-19
 -1      2437 1.00164E-04-2.95660E-05-3.02440E-05-4.01854E-06 4.82202E-19-1.23831E-19
 -1      2438 9.94534E-05-2.93525E-05-3.00400E-05-3.70750E-06 2.39592E-19-1.03738E-19
 -1      2439 9.84345E-05-2.88674E-05-2.98207E-05-4.14502E-06 7.93775E-20-5.91629E-19
 -1      2440 1.01530E-04-3.00266E-05-3.06353E-05-4.67375E-06-2.68509E-19-2.05913E-19
 -1      2441 1.00697E-04-2.97371E-05-3.04077E-05-4.38516E-06 2.70714E-19 1.57307E-19
 -1      2442 9.93989E-05-2.91564E-05-3.01111E-05-4.93143E-06 3.65403E-19-3.72875E-20
 -1      2443 1.03127E-04-3.06732E-05-3.10491E-05-5.19132E-06-5.86332E-19 2.00045E-19
 -1      2444 1.02180E-04-3.02848E-05-3.08077E-05-4.99129E-06-4.67820E-19 1.04145E-19
 -1      2445 1.00582E-04-2.96244E-05-3.04192E-05-5.67529E-06-3.50409E-19-5.04386E-19
 -1      2446 1.04949E-04-3.15669E-05-3.14584E-05-5.38223E-06-2.08813E-19 3.78630E-19
 -1      2447 1.03919E-04-3.10571E-05-3.12205E-05-5.37224E-06-3.88124E-19 2.43423E-19
 -1      2448 1.02035E-04-3.03590E-05-3.07293E-05-6.23079E-06-5.75481E-19-2.31743E-19
 -1      2449 1.06961E-04-3.27582E-05-3.18273E-05-4.97849E-06 5.38023E-19 6.44524E-19
 -1      2450 1.05912E-04-3.21194E-05-3.16174E-05-5.29624E-06 1.40557E-19 4.35656E-19
 -1      2451 1.03819E-04-3.14649E-05-3.10226E-05-6.37364E-06 1.09668E-20 1.53078E-20
 -1      2452 1.09067E-04-3.42342E-05-3.21177E-05-3.65350E-06 1.79141E-19 1.25749E-18
 -1      2453 1.08113E-04-3.35052E-05-3.19644E-05-4.45267E-06 3.38727E-19 9.36536E-19
 -1      2454 1.05985E-04-3.30298E-05-3.12834E-05-5.79098E-06 1.41860E-19 4.77606E-20
 -1      2455 1.11046E-04-3.58123E-05-3.23074E-05-1.11606E-06 3.76122E-19 1.74927E-18
 -1      2456 1.10371E-04-3.51331E-05-3.22339E-05-2.50190E-06 9.93411E-20 1.46201E-18
 -1      2457 1.08522E-04-3.50307E-05-3.15135E-05-4.10589E-06-8.51301E-20 7.92933E-19
 -1      2458 1.12480E-04-3.70080E-05-3.24142E-05 2.66637E-06-7.97071E-20 2.97967E-18
 -1      2459 1.12341E-04-3.66707E-05-3.24246E-05 7.63637E-07 4.78464E-19 2.43932E-18
 -1      2460 1.11233E-04-3.71620E-05-3.17527E-05-9.94757E-07-4.09057E-20 1.33241E-18
 -1      2461 1.12751E-04-3.69978E-05-3.25110E-05 7.12411E-06 2.62964E-19 1.47537E-18
 -1      2462 1.13408E-04-3.74234E-05-3.25788E-05 5.10811E-06 3.78710E-19 2.84031E-18
 -1      2463 1.13574E-04-3.86607E-05-3.20933E-05 3.52863E-06 5.87857E-19 2.60675E-18
 -1      2464 1.11248E-04-3.49208E-05-3.27014E-05 1.07430E-05 1.92288E-19 6.07601E-19
 -1      2465 1.12783E-04-3.64201E-05-3.27750E-05 9.44252E-06 1.97001E-19 1.22700E-18
 -1      2466 1.14598E-04-3.82984E-05-3.26594E-05 8.67268E-06 5.21814E-19 1.90524E-18
 -1      2467 1.08058E-04-3.08281E-05-3.30337E-05 1.12747E-05-8.39059E-19 8.77649E-19
 -1      2468 1.10081E-04-3.31032E-05-3.30699E-05 1.16706E-05-3.73619E-19 8.50851E-19
 -1      2469 1.13354E-04-3.50616E-05-3.35108E-05 1.24023E-05-5.14531E-19 1.60304E-18
 -1      2470 1.04599E-04-2.65055E-05-3.34003E-05 7.19380E-06 7.78291E-19 1.71424E-18
 -1      2471 1.06226E-04-2.84501E-05-3.34060E-05 9.66064E-06-1.20358E-19 1.06267E-18
 -1      2472 1.10067E-04-2.95676E-05-3.45109E-05 1.19939E-05-6.43732E-19 1.98264E-18
 -1      2473 1.03210E-04-2.48683E-05-3.35669E-05-4.63253E-07 2.18634E-18 1.49607E-18
 -1      2474 1.03472E-04-2.51352E-05-3.35798E-05 3.16541E-06 1.54732E-18 1.42129E-18
 -1      2475 1.06761E-04-2.46337E-05-3.52576E-05 6.04555E-06 1.42271E-18 2.04794E-18
 -1      2476 1.05036E-04-2.72224E-05-3.34212E-05-7.74550E-06 2.18791E-18 1.57275E-18
 -1      2477 1.03825E-04-2.56597E-05-3.34452E-05-4.81681E-06 2.35319E-18 1.87442E-18
 -1      2478 1.06209E-04-2.39273E-05-3.53399E-05-3.06103E-06 2.00334E-18 1.68636E-18
 -1      2479 1.08699E-04-3.17823E-05-3.30495E-05-1.10703E-05 7.50738E-19 1.39417E-18
 -1      2480 1.06794E-04-2.94972E-05-3.30555E-05-1.01182E-05 1.84975E-18 1.49863E-18
 -1      2481 1.08842E-04-2.79456E-05-3.47010E-05-1.02944E-05 2.20422E-18 1.03173E-18
 -1      2482 1.11729E-04-3.56255E-05-3.26688E-05-9.79201E-06-4.74434E-19 8.31813E-20
 -1      2483 1.10093E-04-3.38801E-05-3.26363E-05-1.07291E-05 2.47709E-19 1.14901E-18
 -1      2484 1.12301E-04-3.36524E-05-3.36707E-05-1.21755E-05 1.25709E-18 1.09885E-18
 -1      2485 1.12738E-04-3.72171E-05-3.23824E-05-5.70959E-06-1.82043E-18-7.47039E-19
 -1      2486 1.11939E-04-3.65494E-05-3.23438E-05-7.62899E-06-1.11280E-18-3.90952E-19
 -1      2487 1.14083E-04-3.76784E-05-3.26976E-05-9.23218E-06-2.86107E-19 3.64106E-20
 -1      2488 1.11839E-04-3.68012E-05-3.21549E-05-1.09784E-06-7.84763E-19-4.44647E-19
 -1      2489 1.11907E-04-3.70088E-05-3.21655E-05-3.09694E-06-2.01808E-18-5.10073E-19
 -1      2490 1.13462E-04-3.87535E-05-3.20005E-05-4.10130E-06-1.78318E-18-5.66734E-19
 -1      2491 1.09788E-04-3.53210E-05-3.19041E-05 2.64475E-06-7.76355E-19 1.31147E-18
 -1      2492 1.10492E-04-3.59832E-05-3.19989E-05 1.08192E-06 5.81872E-20 1.14214E-18
 -1      2493 1.11201E-04-3.75949E-05-3.15545E-05 8.53878E-07-1.43674E-18 7.08726E-19
 -1      2494 1.07285E-04-3.35786E-05-3.15788E-05 5.06575E-06-4.74994E-19 6.04040E-19
 -1      2495 1.08353E-04-3.43643E-05-3.17595E-05 4.08444E-06-3.78640E-19 1.06422E-18
 -1      2496 1.08323E-04-3.54700E-05-3.12422E-05 4.50816E-06-3.04101E-19 1.69263E-18
 -1      2497 1.04750E-04-3.19888E-05-3.11755E-05 6.26459E-06 5.22975E-19 2.78585E-19
 -1      2498 1.05972E-04-3.27285E-05-3.14194E-05 5.80652E-06-2.83956E-19 4.55409E-19
 -1      2499 1.05496E-04-3.32939E-05-3.09629E-05 6.67068E-06 9.53475E-20 2.41313E-20
 -1      2500 1.02385E-04-3.06746E-05-3.07251E-05 6.52558E-06 1.66159E-18-8.71848E-21
 -1      2501 1.03618E-04-3.13137E-05-3.09992E-05 6.46769E-06 1.02516E-18 4.64947E-19
 -1      2502 1.02992E-04-3.14653E-05-3.06697E-05 7.58048E-06 4.39947E-19 4.32082E-19
 -1      2503 1.00271E-04-2.96128E-05-3.02726E-05 6.11965E-06 1.59240E-18 8.38387E-19
 -1      2504 1.01424E-04-3.01535E-05-3.05440E-05 6.35108E-06 1.79858E-18 4.79663E-19
 -1      2505 1.00858E-04-3.00450E-05-3.03606E-05 7.56864E-06 1.38471E-18 1.71196E-18
 -1      2506 9.84353E-05-2.87316E-05-2.98613E-05 5.23215E-06 1.12105E-18 2.64151E-18
 -1      2507 9.94521E-05-2.91937E-05-3.01027E-05 5.68167E-06 1.53597E-18 2.06310E-18
 -1      2508 9.90528E-05-2.89438E-05-3.00566E-05 6.91368E-06 9.90773E-19 1.55507E-18
 -1      2509 9.68865E-05-2.79794E-05-2.95181E-05 3.97809E-06-9.95548E-19 2.75726E-18
 -1      2510 9.77360E-05-2.83760E-05-2.97147E-05 4.59711E-06 1.91418E-19 2.90806E-18
 -1      2511 9.75154E-05-2.80402E-05-2.97855E-05 5.79137E-06 2.46338E-19 3.77471E-18
 -1      2512 9.62825E-05-2.76919E-05-2.93852E-05 3.13940E-06-1.42669E-18 1.37353E-18
 -1      2513 9.22274E-05-2.17497E-05-3.02271E-05 4.92879E-06 1.73848E-18 1.20976E-18
 -1      2514 9.27646E-05-2.25046E-05-3.01051E-05 5.35090E-06 1.40821E-18 3.43935E-19
 -1      2515 9.13312E-05-2.05268E-05-3.03696E-05 3.53225E-06 1.11615E-18 2.45206E-18
 -1      2516 9.17423E-05-2.10983E-05-3.02774E-05 4.25030E-06 1.17523E-18 2.03452E-18
 -1      2517 9.17448E-05-2.18270E-05-2.99536E-05 5.24144E-06 1.77145E-18 1.28118E-18
 -1      2518 9.45111E-05-2.48834E-05-2.98511E-05 5.63278E-06-5.19919E-19 1.60330E-18
 -1      2519 9.51178E-05-2.57375E-05-2.97169E-05 5.38263E-06-8.76290E-19 1.67610E-18
 -1      2520 9.33329E-05-2.32652E-05-3.00457E-05 5.65151E-06-6.94211E-19 5.51758E-19
 -1      2521 9.39234E-05-2.40981E-05-2.99128E-05 5.73191E-06-1.21712E-18 1.66883E-18
 -1      2522 9.44011E-05-2.48657E-05-2.97976E-05 6.48883E-06-8.22916E-19 5.71248E-19
 -1      2523 9.30027E-05-2.32759E-05-2.98783E-05 6.27539E-06 7.86292E-19 1.18914E-18
 -1      2524 9.07782E-05-1.97771E-05-3.04526E-05 1.63474E-06-4.38056E-19 6.29779E-19
 -1      2525 9.10025E-05-2.00857E-05-3.04030E-05 2.55443E-06 8.46645E-19 3.15280E-19
 -1      2526 9.07706E-05-2.07030E-05-3.00114E-05 3.48004E-06 3.62785E-19 9.46366E-19
 -1      2527 9.06611E-05-1.96209E-05-3.04640E-05-5.02210E-07-3.95160E-19 1.31912E-18
 -1      2528 9.06612E-05-1.96202E-05-3.04642E-05 4.89464E-07-4.62871E-19 1.61641E-18
 -1      2529 9.02362E-05-2.00865E-05-3.00426E-05 1.21601E-06 4.32666E-19 1.41853E-18
 -1      2530 9.10025E-05-2.00879E-05-3.04025E-05-2.56744E-06-1.11922E-18-2.36473E-18
 -1      2531 9.07785E-05-1.97776E-05-3.04523E-05-1.64799E-06-7.10880E-19-7.68881E-19
 -1      2532 9.02355E-05-2.00860E-05-3.00426E-05-1.22972E-06-3.03129E-19-8.31151E-20
 -1      2533 9.17286E-05-2.10815E-05-3.02791E-05-4.23935E-06 5.40273E-20-1.49645E-18
 -1      2534 9.13251E-05-2.05202E-05-3.03698E-05-3.53104E-06-2.79940E-19-2.74489E-18
 -1      2535 9.07645E-05-2.06950E-05-3.00119E-05-3.47845E-06-2.17121E-19-2.10633E-18
 -1      2536 9.27506E-05-2.24856E-05-3.01073E-05-5.35022E-06 1.40726E-18 2.57639E-18
 -1      2537 9.22137E-05-2.17313E-05-3.02291E-05-4.92376E-06 9.46475E-19 2.16132E-19
 -1      2538 9.17270E-05-2.18065E-05-2.99549E-05-5.23239E-06 8.66944E-19 3.10111E-19
 -1      2539 9.39279E-05-2.41041E-05-2.99127E-05-5.73639E-06 3.20264E-19 2.99610E-18
 -1      2540 9.33265E-05-2.32538E-05-3.00477E-05-5.65792E-06 5.00821E-19 2.67198E-18
 -1      2541 9.29886E-05-2.32625E-05-2.98796E-05-6.28189E-06 1.45794E-18 1.37114E-18
 -1      2542 9.51277E-05-2.57500E-05-2.97171E-05-5.36286E-06 7.50479E-19 1.01276E-18
 -1      2543 9.45285E-05-2.48943E-05-2.98507E-05-5.64270E-06 5.30458E-19 3.19735E-18
 -1      2544 9.43756E-05-2.48625E-05-2.97921E-05-6.49753E-06 2.96402E-19 3.58382E-18
 -1      2545 9.46700E-05-5.20721E-05-1.82353E-05 4.18801E-05-1.54351E-18 2.52228E-18
 -1      2546 7.77777E-05-4.68479E-05-1.30628E-05 4.21369E-05-2.92353E-18 4.88637E-18
 -1      2547 9.58130E-05-2.68936E-05-2.95296E-05-3.94211E-06 7.86817E-19-1.68188E-18
 -1      2548 1.93673E-05-1.87017E-05-5.33257E-08-6.89616E-06 8.36710E-20 3.43091E-18
 -1      2549 2.44280E-05-2.20829E-05-8.09772E-07-2.01914E-05-8.95102E-19 2.85810E-18
 -1      2550 9.35955E-05-2.74636E-05-2.83308E-05 3.83015E-07 6.40509E-19 1.26951E-18
 -1      2551 9.38803E-05-2.73288E-05-2.84782E-05 9.16041E-07 8.27588E-19 1.41337E-18
 -1      2552 9.42480E-05-2.74823E-05-2.86279E-05 4.15814E-07 7.49824E-19 6.03567E-19
 -1      2553 2.57670E-05-2.02509E-05-2.01310E-06 1.94542E-05-7.89858E-19 1.57718E-18
 -1      2554 2.04118E-05-1.83274E-05-5.38355E-07 6.45412E-06-7.94093E-22 1.90921E-18
 -1      2555 3.45396E-05-2.76545E-05-2.77265E-06-2.95260E-05-1.21465E-18 3.05906E-18
 -1      2556 4.77292E-05-3.33108E-05-6.07352E-06-3.83798E-05-1.52762E-18 2.74799E-18
 -1      2557 9.50580E-05-2.00203E-05-3.22076E-05-1.17465E-05-1.48077E-18 1.42434E-19
 -1      2558 9.54575E-05-2.33823E-05-3.09205E-05-7.99341E-06-1.37597E-18 2.82832E-19
 -1      2559 9.50557E-05-2.25329E-05-3.10487E-05-7.67763E-06-1.27317E-18-4.40871E-20
 -1      2560 9.32086E-05-1.75753E-05-3.24118E-05-1.13769E-05-1.43666E-18-3.10146E-19
 -1      2561 1.27016E-04-5.71418E-05-3.01868E-05 2.83733E-05 7.98540E-19 2.43522E-18
 -1      2562 1.11170E-04-5.63445E-05-2.35150E-05 3.40495E-05-2.20017E-19 1.85130E-18
 -1      2563 1.47020E-04-1.57376E-05-5.67581E-05-5.40735E-06-5.73441E-18 5.22969E-18
 -1      2564 1.47366E-04-2.23021E-05-5.39559E-05-6.07966E-06-5.77316E-18 5.61202E-18
 -1      2565 4.35760E-05-2.83896E-05-6.05213E-06-3.29385E-05-1.08230E-18-1.99159E-18
 -1      2566 6.46415E-05-3.80460E-05-1.12120E-05-4.08741E-05-1.13269E-18-9.56724E-19
 -1      2567 8.78654E-05-1.08082E-05-3.30603E-05-1.52069E-06 2.03716E-19-1.48633E-18
 -1      2568 8.79697E-05-1.09301E-05-3.30512E-05-2.64100E-06-3.04843E-20-1.49841E-18
 -1      2569 8.93687E-05-1.31023E-05-3.26876E-05-2.93434E-06-1.00126E-19-1.35964E-18
 -1      2570 8.91225E-05-1.27680E-05-3.27266E-05-9.42379E-07 2.26944E-19-1.38830E-18
 -1      2571 1.42398E-04-4.89532E-05-4.02015E-05-3.59249E-06 3.00259E-18 2.12245E-18
 -1      2572 1.47423E-04-3.98522E-05-4.65019E-05 2.66364E-06 2.75550E-18 1.12867E-18
 -1      2573 1.45652E-04-1.31914E-05-5.71127E-05 4.23189E-06 1.86559E-18 1.57040E-18
 -1      2574 1.44310E-04-1.07537E-05-5.77428E-05 1.38883E-06 2.01975E-18 9.01693E-19
 -1      2575 1.45976E-04-2.69604E-05-5.12983E-05 6.98655E-06 3.30004E-18 1.71418E-18
 -1      2576 1.48214E-04-1.99004E-05-5.53791E-05 6.17289E-06 2.89558E-18 1.85648E-18
 -1      2577 1.37082E-04-1.54599E-05-5.23914E-05 8.06602E-06 2.69378E-18 1.11957E-18
 -1      2578 1.22307E-04-5.81853E-05-2.74278E-05-2.65675E-05 4.43845E-19 2.24675E-19
 -1      2579 1.35343E-04-5.66730E-05-3.40015E-05-1.68027E-05 2.12626E-18 2.94302E-18
 -1      2580 8.87015E-05-4.96597E-05-1.64558E-05-4.00911E-05-8.26281E-19 3.52048E-20
 -1      2581 1.07283E-04-5.57138E-05-2.21547E-05-3.68470E-05-5.55654E-19-1.83510E-18
 -1      2582 2.17794E-05-1.74721E-05-1.45357E-06-1.08766E-05-3.76083E-19-2.55571E-18
 -1      2583 2.78871E-05-2.08170E-05-2.85431E-06-2.34953E-05-7.51212E-19-1.92785E-18
 -1      2584 2.61804E-05-1.94560E-05-2.49408E-06 1.96360E-05 1.13015E-18-2.65312E-18
 -1      2585 2.10725E-05-1.60139E-05-1.73516E-06 3.59951E-06 6.66919E-19-2.54068E-18
 -1      2586 4.95562E-05-3.25300E-05-7.20472E-06 3.86422E-05 2.65799E-18-2.80516E-18
 -1      2587 3.61490E-05-2.61924E-05-3.97034E-06 2.98109E-05 2.27492E-18-2.92099E-18
 -1      2588 9.35467E-05-5.11309E-05-1.81822E-05 4.09026E-05 2.66222E-18-1.19921E-18
 -1      2589 7.12305E-05-4.27560E-05-1.18416E-05 4.05790E-05 3.26362E-18-3.02073E-18
 -1      2590 1.25362E-04-5.85090E-05-2.89119E-05 2.71665E-05 1.20321E-18 1.06906E-18
 -1      2591 1.12122E-04-5.69933E-05-2.34926E-05 3.23213E-05 1.85860E-18 2.60251E-19
 -1      2592 1.45386E-04-4.93449E-05-4.15522E-05 6.70293E-06-2.17953E-18 5.11502E-18
 -1      2593 1.35689E-04-5.51835E-05-3.45581E-05 1.51477E-05-5.22513E-19 3.02539E-18
 -1      2594 1.48462E-04-3.21364E-05-5.02984E-05-5.13983E-06-5.26770E-18 6.51390E-18
 -1      2595 1.46153E-04-3.90981E-05-4.61396E-05-3.02294E-06-3.74992E-18 5.75305E-18
 -1      2596 6.44213E-05-4.16110E-05-9.62748E-06-4.10824E-05-1.99010E-18 2.87970E-18
 -1      2597 8.36600E-05-4.82512E-05-1.51887E-05-4.24573E-05-2.15570E-18 3.33186E-18
 -1      2598 6.23392E-05-3.64778E-05-1.06341E-05-3.93602E-05-1.36351E-18 3.06488E-18
 -1      2599 1.46767E-04-2.53037E-05-5.23629E-05 6.78453E-06-3.02073E-18 4.62480E-18
 -1      2600 1.45590E-04-1.88707E-05-5.49423E-05 5.97779E-06-3.72038E-18 4.36953E-18
 -1      2601 1.45768E-04-4.54164E-05-4.31490E-05-3.93178E-06-2.76212E-18 5.34668E-18
 -1      2602 1.48671E-04-3.66433E-05-4.85230E-05 2.81119E-06-2.34565E-18 5.25986E-18
 -1      2603 1.33280E-04-5.61798E-05-3.31197E-05-1.99651E-05-1.67416E-18 5.47713E-18
 -1      2604 1.41935E-04-5.29530E-05-3.84637E-05-1.40463E-05-2.40282E-18 4.96446E-18
 -1      2605 1.05106E-04-5.56568E-05-2.10405E-05-3.67197E-05-2.17687E-18 4.60077E-18
 -1      2606 1.21851E-04-5.74811E-05-2.76217E-05-3.11075E-05-1.79084E-18 5.95814E-18
 -1      2607 1.29756E-04-5.97892E-05-2.99042E-05-2.11872E-05-1.30665E-18 4.98415E-18
 -1      2608 9.63124E-05-2.50893E-05-3.05501E-05 7.60433E-06 1.46680E-18 2.18635E-18
 -1      2609 9.74353E-05-2.37728E-05-3.15910E-05 1.07036E-05 1.56248E-18 2.46840E-18
 -1      2610 9.58722E-05-2.12980E-05-3.20162E-05 1.19063E-05 1.75679E-18 1.88152E-18
 -1      2611 9.58621E-05-2.41579E-05-3.07637E-05 7.69727E-06 1.48020E-18 1.48633E-18
 -1      2612 1.45711E-04-4.89521E-05-4.18997E-05 7.68297E-06 1.87963E-18 7.82235E-19
 -1      2613 1.37759E-04-5.39258E-05-3.60229E-05 1.52463E-05 1.28447E-18 2.13092E-18
 -1      2614 1.42788E-04-4.67923E-05-4.11466E-05-2.59687E-06 1.65661E-18 1.35949E-18
 -1      2615 1.41412E-04-3.40473E-05-4.63232E-05 9.64774E-06 2.88754E-18 1.63795E-18
 -1      2616 9.08191E-05-1.50705E-05-3.24597E-05-6.80275E-06-7.88482E-19-1.28232E-18
 -1      2617 8.97141E-05-1.32085E-05-3.28454E-05-7.97760E-06-8.64938E-19-1.37761E-18
 -1      2618 9.04085E-05-1.40340E-05-3.27975E-05-9.15410E-06-1.05832E-18-1.22520E-18
 -1      2619 9.47142E-05-2.69353E-05-2.90615E-05 1.89667E-06 1.05133E-18 9.24359E-19
 -1      2620 9.42327E-05-1.90782E-05-3.22543E-05 1.16159E-05 1.76490E-18 1.07054E-18
 -1      2621 1.39976E-04-2.63656E-05-4.89346E-05-1.13022E-05-4.80141E-18 4.93090E-18
 -1      2622 1.42441E-04-4.58252E-05-4.15557E-05-3.35491E-06-2.54131E-18 5.54743E-18
 -1      2623 1.34698E-04-5.82442E-05-3.26478E-05 1.63499E-05 8.02034E-19 1.54848E-18
 -1      2624 1.33083E-04-5.84056E-05-3.19007E-05 1.53459E-05 7.10449E-19 3.01692E-18
 -1      2625 7.01406E-05-4.23084E-05-1.16904E-05 4.16916E-05-2.92036E-18 5.33419E-18
 -1      2626 6.28048E-05-3.53954E-05-1.10883E-05 3.97121E-05-2.54629E-18 4.85456E-18
 -1      2627 8.38339E-05-4.62779E-05-1.59971E-05 4.01263E-05-3.73436E-18 4.12590E-18
 -1      2628 3.64156E-05-2.23711E-05-5.55047E-06-2.54206E-05 2.10699E-20 3.28861E-18
 -1      2629 1.06196E-04-5.50830E-05-2.16707E-05 3.37526E-05 3.04275E-18 5.09464E-19
 -1      2630 9.62144E-05-2.72914E-05-2.95337E-05 4.25060E-06-1.19378E-18 3.01244E-18
 -1      2631 9.58762E-05-2.67147E-05-2.96412E-05 4.77455E-06-6.52689E-19 2.84697E-18
 -1      2632 6.87423E-05-3.76678E-05-1.27683E-05 3.85407E-05 3.54335E-18-2.70987E-18
 -1      2633 1.09093E-04-5.69387E-05-2.21763E-05 3.50001E-05-1.98714E-18 1.71969E-18
 -1      2634 9.65606E-05-2.75130E-05-2.95739E-05-4.59107E-06-5.94220E-19-2.53437E-18
 -1      2635 9.57092E-05-2.64778E-05-2.96761E-05-5.14136E-06 4.16887E-19-1.33248E-18
 -1      2636 9.58105E-05-2.64351E-05-2.97303E-05-6.11336E-06-6.01453E-19 1.42271E-19
 -1      2637 9.72045E-05-2.78342E-05-2.97169E-05-5.26607E-06-4.20791E-19-2.09881E-18
 -1      2638 3.81908E-05-2.06161E-05-6.98351E-06 2.40762E-05 2.04230E-18-2.47143E-18
 -1      2639 2.64102E-05-1.57212E-05-4.06046E-06-8.07207E-07 1.00347E-19 2.85175E-18
 -1      2640 9.47047E-05-2.05993E-05-3.17147E-05 9.68285E-06 1.60861E-18 8.19028E-19
 -1      2641 3.51718E-05-2.32944E-05-4.60254E-06 2.61264E-05-5.19655E-19 3.26849E-18
 -1      2642 3.57904E-05-1.80211E-05-7.08001E-06 2.03302E-05 3.79365E-19 2.12245E-18
 -1      2643 4.59980E-05-2.61035E-05-8.18525E-06 3.18939E-05-1.03931E-18 4.67287E-18
 -1      2644 2.82156E-05-1.45480E-05-5.26028E-06-2.35473E-06-1.06409E-20-1.48443E-18
 -1      2645 1.33135E-04-1.69877E-05-5.01253E-05 9.39907E-06-2.71389E-18 7.94623E-19
 -1      2646 1.40931E-04-1.50818E-05-5.43020E-05 5.65851E-06-4.06618E-18 2.97880E-18
 -1      2647 1.32616E-04-1.09373E-05-5.28762E-05 4.56040E-06-4.13437E-18 8.95314E-19
 -1      2648 8.00215E-05-4.40298E-05-1.50680E-05-3.98250E-05-8.27551E-19 3.77936E-19
 -1      2649 9.35627E-05-4.83014E-05-1.92938E-05-3.57125E-05-1.22703E-18 2.17582E-19
 -1      2650 7.20411E-05-3.63584E-05-1.48255E-05-3.72411E-05-1.78089E-18-6.86944E-19
 -1      2651 9.81534E-05-5.32006E-05-1.90213E-05-3.87769E-05-1.04969E-18 4.51817E-18
 -1      2652 1.09852E-04-5.66078E-05-2.28946E-05-3.23925E-05-6.77944E-19 4.45218E-18
 -1      2653 9.07268E-05-4.84420E-05-1.76785E-05-3.91912E-05-8.91502E-20 2.87515E-18
 -1      2654 1.42749E-04-5.09508E-05-3.93137E-05-2.42939E-06-1.27811E-18 4.40499E-18
 -1      2655 1.41306E-04-1.27998E-05-5.54226E-05-4.11150E-06-5.07182E-18 3.35166E-18
 -1      2656 1.31704E-04-1.34591E-05-5.10010E-05-8.11521E-06-4.57059E-18 2.62676E-18
 -1      2657 1.31472E-04-9.53546E-06-5.30473E-05-1.95774E-06-4.64216E-18 1.12118E-18
 -1      2658 4.38511E-05-2.35004E-05-8.09981E-06-2.83566E-05-1.06705E-18-1.73494E-18
 -1      2659 9.20821E-05-1.62842E-05-3.25202E-05-1.03881E-05-1.30160E-18-7.33226E-19
 -1      2660 1.42728E-04-2.69387E-05-4.99980E-05-8.85601E-06 2.63639E-18 1.72922E-18
 -1      2661 1.37436E-04-3.27488E-05-4.51361E-05-1.11219E-05 2.35835E-18 1.99550E-18
 -1      2662 1.35134E-04-2.01826E-05-5.00053E-05-1.06089E-05 2.84942E-18 2.14278E-18
 -1      2663 1.39790E-04-1.17196E-05-5.53201E-05-1.99392E-06 2.96737E-18 1.21322E-18
 -1      2664 1.31572E-04-1.20997E-05-5.18477E-05-6.22079E-06 3.45229E-18 1.54806E-18
 -1      2665 1.29131E-04-9.33217E-06-5.16957E-05 5.60899E-07 2.82845E-18 6.09427E-19
 -1      2666 1.34439E-04-5.73035E-05-3.28893E-05-9.14372E-06 1.85818E-18 2.33675E-18
 -1      2667 1.39891E-04-5.49357E-05-3.65637E-05-6.45724E-06 2.66858E-18 2.54682E-18
 -1      2668 1.38422E-04-5.00900E-05-3.83089E-05 3.52766E-06 2.34075E-18 1.84314E-18
 -1      2669 1.18457E-04-5.85387E-05-2.55120E-05-2.76874E-05-6.23628E-20-1.85447E-19
 -1      2670 1.41972E-04-3.20878E-05-4.72556E-05 9.00745E-06-2.20610E-18 2.79923E-18
 -1      2671 9.59972E-05-2.66662E-05-2.97073E-05 5.79886E-06-1.22851E-18 2.66255E-18
 -1      2672 9.68689E-05-2.74383E-05-2.97638E-05-6.32362E-06-1.54267E-18-2.45405E-18
 -1      2673 9.05838E-05-1.51837E-05-3.23365E-05 3.20072E-06 8.84898E-19-9.60451E-19
 -1      2674 9.03937E-05-1.49110E-05-3.23699E-05 2.26607E-06 6.77049E-19-1.11858E-18
 -1      2675 9.02610E-05-1.47089E-05-3.23993E-05 1.42503E-06 5.71699E-19-1.33018E-18
 -1      2676 9.01961E-05-1.46165E-05-3.24105E-05 4.66556E-07 4.50352E-19-1.28703E-18
 -1      2677 9.14468E-05-1.66033E-05-3.20629E-05 1.64563E-06 5.70688E-19-1.11213E-18
 -1      2678 9.21532E-05-1.75585E-05-3.20075E-05 6.48307E-06 1.42411E-18-7.02349E-19
 -1      2679 9.16322E-05-1.67686E-05-3.21086E-05 5.64998E-06 1.31618E-18-6.86957E-19
 -1      2680 9.35558E-05-1.97583E-05-3.16642E-05 7.61518E-06 1.44076E-18-1.78777E-19
 -1      2681 9.27792E-05-1.85285E-05-3.18395E-05 7.03792E-06 1.39469E-18-4.73961E-19
 -1      2682 9.34697E-05-1.98752E-05-3.15096E-05 5.76888E-06 1.29711E-18-5.57353E-19
 -1      2683 9.51992E-05-2.54057E-05-2.99265E-05 3.99158E-06 1.23346E-18 6.26533E-19
 -1      2684 9.55464E-05-2.45562E-05-3.03902E-05 5.62660E-06 1.23515E-18 7.48142E-19
 -1      2685 1.37594E-04-4.40179E-05-4.06480E-05-7.77769E-06 1.15392E-18 2.28392E-18
 -1      2686 1.39021E-04-5.12983E-05-3.76719E-05-1.92843E-06 5.98402E-19 1.03412E-18
 -1      2687 9.49610E-05-2.66853E-05-2.92690E-05 1.78684E-06 9.79961E-19 5.54630E-19
 -1      2688 9.52383E-05-2.61849E-05-2.95542E-05 2.80413E-06 1.08648E-18 6.07140E-19
 -1      2689 9.52623E-05-2.50201E-05-3.01048E-05 3.84321E-06 1.22047E-18 2.30841E-19
 -1      2690 1.36505E-04-3.84525E-05-4.23760E-05 1.10324E-05 2.30393E-18 2.47281E-18
 -1      2691 1.34729E-04-2.77535E-05-4.64588E-05 1.29607E-05 2.75550E-18 2.75572E-18
 -1      2692 9.53515E-05-2.59026E-05-2.97362E-05-2.71961E-06-7.11911E-19-1.23659E-19
 -1      2693 9.51872E-05-2.64870E-05-2.94541E-05-1.73463E-06-6.71892E-19-9.30641E-20
 -1      2694 9.52109E-05-2.70018E-05-2.92090E-05-9.92539E-07-6.80965E-19-7.14684E-20
 -1      2695 9.50769E-05-2.73543E-05-2.90299E-05-3.85475E-07-5.66169E-19-8.16042E-20
 -1      2696 9.54165E-05-2.63279E-05-2.96149E-05-1.63263E-06-6.95815E-19-1.18288E-19
 -1      2697 9.50444E-05-2.76581E-05-2.88638E-05 8.41663E-08-3.49790E-19-1.49042E-19
 -1      2698 9.49675E-05-2.78801E-05-2.87545E-05 4.38806E-07-4.13941E-19-1.75861E-19
 -1      2699 9.54172E-05-2.73187E-05-2.91924E-05-3.48316E-07-5.43901E-19-2.79723E-19
 -1      2700 9.49263E-05-2.80622E-05-2.86458E-05 7.13469E-07-5.46202E-19-3.46221E-19
 -1      2701 9.49000E-05-2.82055E-05-2.85841E-05 9.03108E-07-6.50638E-19-4.25186E-19
 -1      2702 9.53576E-05-2.79267E-05-2.89058E-05 4.49960E-07-5.58259E-19-6.25143E-19
 -1      2703 9.48662E-05-2.83127E-05-2.85169E-05 1.04602E-06-6.65562E-19-4.30041E-19
 -1      2704 9.48767E-05-2.84049E-05-2.84875E-05 1.13141E-06-4.59700E-19-6.08446E-19
 -1      2705 9.52952E-05-2.82977E-05-2.87188E-05 9.06663E-07-7.10704E-19-7.44936E-19
 -1      2706 9.48541E-05-2.84636E-05-2.84499E-05 1.19058E-06-1.40129E-19-5.40032E-19
 -1      2707 9.48888E-05-2.85206E-05-2.84423E-05 1.21411E-06-1.21667E-19-5.74685E-19
 -1      2708 9.52485E-05-2.85153E-05-2.86042E-05 1.13611E-06-3.31557E-19-5.87133E-19
 -1      2709 9.48764E-05-2.85465E-05-2.84259E-05 1.22497E-06 1.17018E-20-6.11740E-19
 -1      2710 9.49262E-05-2.85781E-05-2.84331E-05 1.21664E-06-2.23670E-19-2.85183E-19
 -1      2711 9.52204E-05-2.86299E-05-2.85419E-05 1.22493E-06-1.28560E-19-4.16829E-19
 -1      2712 9.49220E-05-2.85809E-05-2.84320E-05 1.20527E-06-4.79579E-19-8.00569E-20
 -1      2713 9.49810E-05-2.85937E-05-2.84495E-05 1.18672E-06-5.26859E-19 9.16781E-20
 -1      2714 9.52083E-05-2.86729E-05-2.85175E-05 1.23732E-06-1.90958E-19-6.09371E-19
 -1      2715 9.49830E-05-2.85794E-05-2.84597E-05 1.17249E-06-4.46737E-19 2.22351E-19
 -1      2716 9.50483E-05-2.85777E-05-2.84848E-05 1.15977E-06-1.79770E-19-2.25106E-20
 -1      2717 9.52088E-05-2.86641E-05-2.85209E-05 1.22087E-06-3.55561E-19-3.28089E-19
 -1      2718 9.50550E-05-2.85502E-05-2.85037E-05 1.15744E-06-3.07884E-19-3.06953E-20
 -1      2719 9.51261E-05-2.85371E-05-2.85350E-05 1.16292E-06-4.46149E-19-8.46716E-20
 -1      2720 9.52188E-05-2.86162E-05-2.85454E-05 1.21138E-06-5.29387E-19-2.93819E-19
 -1      2721 9.51366E-05-2.84986E-05-2.85612E-05 1.18418E-06-2.39219E-19-2.10231E-19
 -1      2722 9.52147E-05-2.84763E-05-2.85985E-05 1.21790E-06-1.98196E-19 1.09882E-19
 -1      2723 9.52362E-05-2.85372E-05-2.85865E-05 1.23658E-06-4.55902E-19-5.47832E-20
 -1      2724 9.52285E-05-2.84279E-05-2.86312E-05 1.27252E-06-4.46407E-20 4.50571E-19
 -1      2725 9.53166E-05-2.83984E-05-2.86749E-05 1.34310E-06-9.37414E-20 6.86244E-19
 -1      2726 9.52600E-05-2.84314E-05-2.86419E-05 1.31888E-06 9.71122E-20-8.63561E-20
 -1      2727 9.53337E-05-2.83407E-05-2.87139E-05 1.43967E-06-4.86220E-19 7.90837E-19
 -1      2728 9.54357E-05-2.83057E-05-2.87648E-05 1.55483E-06-6.31418E-19 7.87466E-19
 -1      2729 9.52897E-05-2.83016E-05-2.87102E-05 1.47732E-06-3.37197E-19 1.91152E-19
 -1      2730 9.54563E-05-2.82394E-05-2.88102E-05 1.70118E-06-9.84904E-19 7.83513E-19
 -1      2731 9.55774E-05-2.82011E-05-2.88695E-05 1.86790E-06-6.10330E-19 5.36091E-19
 -1      2732 9.53259E-05-2.81495E-05-2.87909E-05 1.72878E-06-6.81254E-19 5.30732E-19
 -1      2733 9.56027E-05-2.81274E-05-2.89213E-05 2.07109E-06-3.92900E-19 2.20661E-19
 -1      2734 9.57492E-05-2.80892E-05-2.89900E-05 2.29528E-06-5.69115E-19-4.76993E-20
 -1      2735 9.53700E-05-2.79776E-05-2.88835E-05 2.08844E-06-7.70544E-19 6.09528E-19
 -1      2736 9.57809E-05-2.80110E-05-2.90479E-05 2.56123E-06-5.73053E-19 3.49906E-20
 -1      2737 9.59603E-05-2.79789E-05-2.91267E-05 2.84683E-06-4.66052E-19 2.42030E-19
 -1      2738 9.54252E-05-2.77908E-05-2.89872E-05 2.56941E-06-3.82400E-19-1.57021E-19
 -1      2739 9.60025E-05-2.79023E-05-2.91897E-05 3.17935E-06-6.10194E-19 5.95993E-19
 -1      2740 9.62242E-05-2.78860E-05-2.92787E-05 3.52668E-06-1.32897E-19-3.48880E-20
 -1      2741 9.54973E-05-2.75998E-05-2.90999E-05 3.18144E-06-4.02610E-19-1.76745E-19
 -1      2742 9.62844E-05-2.78228E-05-2.93446E-05 3.92590E-06 4.75678E-19-3.84042E-19
 -1      2743 9.65607E-05-2.78387E-05-2.94424E-05 4.32898E-06 6.64149E-19-5.89898E-19
 -1      2744 9.55977E-05-2.74253E-05-2.92179E-05 3.92851E-06-2.83662E-19-2.09757E-19
 -1      2745 9.66533E-05-2.78098E-05-2.95077E-05 4.78882E-06 9.76143E-19-8.03063E-19
 -1      2746 9.70016E-05-2.78843E-05-2.96116E-05 5.23138E-06 5.62126E-19-1.01525E-18
 -1      2747 9.57480E-05-2.73043E-05-2.93347E-05 4.80507E-06 5.27768E-19-1.37339E-18
 -1      2748 9.71532E-05-2.79249E-05-2.96711E-05 5.73589E-06 1.44910E-19-1.22595E-18
 -1      2749 9.75993E-05-2.80995E-05-2.97759E-05 6.18574E-06-1.46488E-19-1.30004E-18
 -1      2750 9.59879E-05-2.72998E-05-2.94408E-05 5.79051E-06 4.58762E-19-1.25261E-18
 -1      2751 9.78565E-05-2.82651E-05-2.98233E-05 6.70360E-06-6.33950E-19-1.47627E-18
 -1      2752 9.84395E-05-2.86011E-05-2.99224E-05 7.10503E-06-1.03023E-18-1.45968E-18
 -1      2753 9.63884E-05-2.75133E-05-2.95238E-05 6.84118E-06-6.08823E-19-1.41377E-18
 -1      2754 9.88797E-05-2.89739E-05-2.99518E-05 7.58122E-06-9.58824E-19-1.45234E-18
 -1      2755 9.96563E-05-2.95544E-05-3.00387E-05 7.84573E-06-7.11737E-19-1.73570E-18
 -1      2756 9.70701E-05-2.80981E-05-2.95710E-05 7.87853E-06-1.13813E-18-1.73469E-18
 -1      2757 1.00399E-04-3.02435E-05-3.00486E-05 8.18817E-06-2.02855E-19-1.23100E-18
 -1      2758 1.01443E-04-3.11639E-05-3.01207E-05 8.18447E-06 2.20801E-19-9.88131E-19
 -1      2759 9.82259E-05-2.92683E-05-2.95748E-05 8.77006E-06-5.56528E-19-1.19523E-18
 -1      2760 1.02654E-04-3.22882E-05-3.01224E-05 8.24225E-06 2.41720E-19-9.95138E-19
 -1      2761 1.04031E-04-3.36175E-05-3.01902E-05 7.79055E-06 1.86713E-19-4.91482E-19
 -1      2762 1.00138E-04-3.12851E-05-2.95456E-05 9.29655E-06 8.08132E-19-5.91620E-19
 -1      2763 1.05891E-04-3.52462E-05-3.02217E-05 7.32160E-06 6.02357E-19-5.93701E-20
 -1      2764 1.07599E-04-3.69234E-05-3.03206E-05 6.20410E-06 7.09034E-19 7.04146E-19
 -1      2765 1.03161E-04-3.43799E-05-2.95356E-05 9.09559E-06 8.14809E-19-2.70360E-19
 -1      2766 1.10192E-04-3.89317E-05-3.04655E-05 4.87931E-06 8.36156E-19 7.36942E-19
 -1      2767 1.12047E-04-4.06121E-05-3.06694E-05 2.91928E-06 7.79158E-19 1.13419E-18
 -1      2768 1.07584E-04-3.85202E-05-2.96750E-05 7.60605E-06 6.69592E-19 4.44176E-19
 -1      2769 1.15132E-04-4.24550E-05-3.10789E-05 3.71366E-07 7.42472E-19 1.44392E-18
 -1      2770 1.16597E-04-4.32561E-05-3.15033E-05-2.38306E-06 4.12518E-19 2.30019E-18
 -1      2771 1.13328E-04-4.29840E-05-3.02174E-05 4.07587E-06 1.05912E-18 1.04476E-18
 -1      2772 1.19295E-04-4.37612E-05-3.23761E-05-6.08561E-06-7.06437E-20 2.37101E-18
 -1      2773 1.19546E-04-4.23703E-05-3.31319E-05-8.99366E-06-5.46280E-19 2.88914E-18
 -1      2774 1.19318E-04-4.57642E-05-3.15619E-05-2.00753E-06 6.09179E-19 1.96077E-18
 -1      2775 1.20265E-04-3.99648E-05-3.45790E-05-1.25022E-05-1.94832E-18 3.10969E-18
 -1      2776 1.18800E-04-3.57471E-05-3.56207E-05-1.38863E-05-2.05575E-18 2.21896E-18
 -1      2777 1.23046E-04-4.35075E-05-3.40893E-05-9.71689E-06-1.17383E-18 2.81304E-18
 -1      2778 1.16972E-04-3.04775E-05-3.73708E-05-1.44789E-05-2.34345E-18 1.34018E-18
 -1      2779 1.14514E-04-2.50743E-05-3.83697E-05-1.25441E-05-2.85140E-18 7.08900E-19
 -1      2780 1.22087E-04-3.43434E-05-3.77105E-05-1.47461E-05-2.81223E-18 2.19419E-18
 -1      2781 1.11009E-04-1.85166E-05-3.98398E-05 4.00858E-06-1.42370E-18-1.34593E-18
 -1      2782 1.12568E-04-2.15353E-05-3.93199E-05 8.68043E-06-5.18728E-19-2.12535E-18
 -1      2783 1.15017E-04-2.65176E-05-3.79480E-05 1.24920E-05 2.40557E-19-3.14399E-18
 -1      2784 1.17413E-04-3.19966E-05-3.68973E-05 1.39946E-05 2.02997E-19-2.65767E-18
 -1      2785 1.17866E-04-2.32290E-05-4.07353E-05 1.16437E-05-5.08696E-19-2.27360E-18
 -1      2786 1.19004E-04-3.69820E-05-3.51633E-05 1.26982E-05 1.27862E-19-2.52058E-18
 -1      2787 1.20166E-04-4.08512E-05-3.41300E-05 1.10389E-05-3.03304E-19-1.62560E-18
 -1      2788 1.22367E-04-3.62904E-05-3.69825E-05 1.36206E-05 4.97394E-19-3.49502E-18
 -1      2789 1.19120E-04-4.28548E-05-3.27430E-05 7.28873E-06 2.44808E-20-5.32512E-19
 -1      2790 1.18597E-04-4.38520E-05-3.20179E-05 4.30372E-06 1.32428E-18-7.42540E-19
 -1      2791 1.22583E-04-4.43357E-05-3.36076E-05 8.10290E-06 7.31492E-19-1.92429E-18
 -1      2792 1.15796E-04-4.31281E-05-3.12106E-05 6.55192E-07 1.20148E-18-6.92364E-19
 -1      2793 1.14188E-04-4.21374E-05-3.08051E-05-2.08136E-06 9.64137E-19-7.63991E-19
 -1      2794 1.18491E-04-4.57386E-05-3.12234E-05 2.10883E-07 1.61983E-18-1.34136E-19
 -1      2795 1.11136E-04-4.02374E-05-3.04362E-05-4.52337E-06 8.42335E-19-8.43991E-19
 -1      2796 1.09222E-04-3.85120E-05-3.02347E-05-6.43858E-06 8.08882E-19-1.26218E-18
 -1      2797 1.12457E-04-4.26265E-05-3.00053E-05-5.68908E-06 1.77175E-19-1.95952E-19
 -1      2798 1.06713E-04-3.65305E-05-3.01074E-05-7.71288E-06 7.83383E-19-1.77788E-18
 -1      2799 1.04970E-04-3.48463E-05-3.00022E-05-8.78742E-06 8.08552E-19-1.47686E-18
 -1      2800 1.06855E-04-3.81280E-05-2.95299E-05-9.07455E-06 6.54823E-19 1.71211E-19
 -1      2801 1.03190E-04-3.32602E-05-2.99812E-05-9.23193E-06 8.53834E-19-1.61575E-18
 -1      2802 1.01779E-04-3.19212E-05-2.99071E-05-9.65171E-06 1.00884E-18-1.63124E-18
 -1      2803 1.02598E-04-3.40660E-05-2.94260E-05-1.04969E-05 7.35788E-19-1.39285E-18
 -1      2804 1.00605E-04-3.07960E-05-2.99194E-05-9.58248E-06 1.88306E-18-1.22511E-18
 -1      2805 9.95078E-05-2.98169E-05-2.98490E-05-9.53835E-06 2.56346E-18-6.84216E-19
 -1      2806 9.96915E-05-3.10173E-05-2.94669E-05-1.06774E-05 1.78326E-18-1.18690E-18
 -1      2807 9.87539E-05-2.90589E-05-2.98656E-05-9.15596E-06 1.98741E-18-1.82615E-18
 -1      2808 9.78958E-05-2.83505E-05-2.97947E-05-8.79607E-06 3.94774E-19-2.18635E-18
 -1      2809 9.78015E-05-2.89087E-05-2.95444E-05-1.01031E-05 1.83470E-18-2.30475E-18
 -1      2810 9.73863E-05-2.78175E-05-2.98102E-05-8.21711E-06-1.28739E-18-1.44827E-18
 -1      2811 9.67054E-05-2.72795E-05-2.97469E-05-7.62677E-06-2.17744E-18-1.62394E-18
 -1      2812 9.65647E-05-2.74678E-05-2.96230E-05-9.06491E-06-1.38467E-19-3.45028E-18
 -1      2813 9.44688E-05-2.81147E-05-2.84370E-05-8.96769E-07 5.79092E-19 1.14557E-19
 -1      2814 9.44834E-05-2.79898E-05-2.84860E-05-7.15802E-07 6.56563E-19 2.01294E-19
 -1      2815 4.80301E-05-2.29995E-05-1.04327E-05 2.95961E-05 1.97793E-18-2.10445E-18
 -1      2816 3.90743E-05-1.61614E-05-9.28620E-06 1.86193E-05 1.00172E-18-1.64049E-18
 -1      2817 9.45424E-05-2.78408E-05-2.85871E-05-4.35587E-07 7.34006E-19 1.22225E-19
 -1      2818 9.46311E-05-2.76558E-05-2.86850E-05-8.88119E-08 7.88910E-19 1.78560E-19
 -1      2819 9.50042E-05-2.78991E-05-2.87676E-05-4.50363E-07 7.32761E-19-1.03616E-19
 -1      2820 9.45251E-05-2.84041E-05-2.83361E-05-1.19267E-06 3.49295E-19 3.85641E-19
 -1      2821 9.44615E-05-2.83445E-05-2.83327E-05-1.17532E-06 3.30867E-19 2.61028E-19
 -1      2822 9.46129E-05-2.84722E-05-2.83442E-05-1.18605E-06 6.71550E-19 2.37267E-19
 -1      2823 9.45328E-05-2.84325E-05-2.83277E-05-1.20009E-06 6.34123E-19 3.85920E-19
 -1      2824 9.49070E-05-2.85303E-05-2.84505E-05-1.23124E-06 4.27946E-19 2.52750E-19
 -1      2825 9.47213E-05-2.85077E-05-2.83752E-05-1.14531E-06 5.12138E-19 2.06037E-19
 -1      2826 9.46325E-05-2.84831E-05-2.83501E-05-1.16996E-06 5.16056E-19 3.09304E-19
 -1      2827 9.49395E-05-2.85844E-05-2.84403E-05-1.23445E-06 6.35193E-19 4.45103E-19
 -1      2828 9.48431E-05-2.85184E-05-2.84224E-05-1.10488E-06 2.24009E-19 3.75595E-19
 -1      2829 9.47491E-05-2.85056E-05-2.83912E-05-1.12495E-06 4.90020E-19 3.44854E-19
 -1      2830 9.49895E-05-2.85965E-05-2.84559E-05-1.20579E-06 4.11264E-19 2.55749E-19
 -1      2831 9.49758E-05-2.85100E-05-2.84824E-05-1.09085E-06 2.68883E-19 2.40808E-19
 -1      2832 9.48770E-05-2.85063E-05-2.84462E-05-1.09472E-06 2.20493E-19 4.39450E-19
 -1      2833 9.50520E-05-2.85772E-05-2.84906E-05-1.18109E-06 3.98651E-19 2.04637E-19
 -1      2834 9.51210E-05-2.84867E-05-2.85540E-05-1.12395E-06 1.00178E-19-4.13744E-20
 -1      2835 9.50151E-05-2.84898E-05-2.85127E-05-1.10227E-06 1.60696E-19-3.28940E-20
 -1      2836 9.51247E-05-2.85331E-05-2.85405E-05-1.18780E-06 4.05126E-19 5.07365E-19
 -1      2837 9.52830E-05-2.84518E-05-2.86377E-05-1.22162E-06 8.91919E-20 1.85549E-19
 -1      2838 9.51660E-05-2.84596E-05-2.85904E-05-1.16638E-06 2.39001E-20-1.09477E-19
 -1      2839 9.52075E-05-2.84685E-05-2.86037E-05-1.24792E-06 1.89502E-19 1.49810E-19
 -1      2840 9.54692E-05-2.84082E-05-2.87352E-05-1.39936E-06-1.16357E-19 6.45333E-19
 -1      2841 9.53351E-05-2.84187E-05-2.86806E-05-1.30332E-06 1.32806E-20 4.34996E-19
 -1      2842 9.53024E-05-2.83863E-05-2.86797E-05-1.38009E-06-1.96252E-19 6.32665E-19
 -1      2843 9.56888E-05-2.83596E-05-2.88490E-05-1.67131E-06 1.82795E-19 9.65819E-19
 -1      2844 9.55305E-05-2.83701E-05-2.87852E-05-1.52788E-06-6.98632E-20 7.91102E-19
 -1      2845 9.54130E-05-2.82889E-05-2.87690E-05-1.60080E-06-1.24245E-19 1.07910E-18
 -1      2846 9.59531E-05-2.83110E-05-2.89819E-05-2.05006E-06 1.22171E-19 1.50110E-18
 -1      2847 9.57621E-05-2.83179E-05-2.89070E-05-1.85351E-06 4.35535E-19 1.12773E-18
 -1      2848 9.55445E-05-2.81791E-05-2.88726E-05-1.92495E-06 4.28061E-20 1.02348E-18
 -1      2849 9.62758E-05-2.82707E-05-2.91363E-05-2.54539E-06-6.20811E-20 1.36958E-18
 -1      2850 9.60424E-05-2.82685E-05-2.90483E-05-2.29169E-06-1.86178E-21 1.49245E-18
 -1      2851 9.57037E-05-2.80621E-05-2.89912E-05-2.36543E-06 5.13092E-20 1.19202E-18
 -1      2852 9.66734E-05-2.82522E-05-2.93135E-05-3.16173E-06-3.42187E-19 1.34249E-18
 -1      2853 9.63865E-05-2.82325E-05-2.92113E-05-2.85013E-06-1.11743E-19 1.55016E-18
 -1      2854 9.59002E-05-2.79471E-05-2.91249E-05-2.93182E-06-8.88793E-20 1.49174E-18
 -1      2855 9.71665E-05-2.82781E-05-2.95129E-05-3.89372E-06 2.44209E-20 7.64253E-19
 -1      2856 9.68137E-05-2.82277E-05-2.93963E-05-3.52943E-06 1.78770E-20 1.21677E-18
 -1      2857 9.61478E-05-2.78516E-05-2.92723E-05-3.62765E-06 7.08068E-20 1.27292E-18
 -1      2858 9.77830E-05-2.83856E-05-2.97309E-05-4.71937E-06 3.70207E-19 2.46167E-19
 -1      2859 9.73495E-05-2.82838E-05-2.96013E-05-4.31761E-06 1.30104E-19 5.64241E-19
 -1      2860 9.64677E-05-2.78060E-05-2.94295E-05-4.44602E-06 2.91282E-19 1.08483E-18
 -1      2861 9.85632E-05-2.86339E-05-2.99598E-05-5.58987E-06 3.81751E-19 5.77826E-19
 -1      2862 9.80305E-05-2.84491E-05-2.98211E-05-5.18178E-06 6.43604E-19 6.40839E-19
 -1      2863 9.68945E-05-2.78615E-05-2.95898E-05-5.36292E-06 2.82181E-19 1.03752E-18
 -1      2864 9.95671E-05-2.91123E-05-3.01876E-05-6.41560E-06-3.89544E-20 2.29025E-19
 -1      2865 9.89117E-05-2.87986E-05-3.00462E-05-6.05608E-06 1.00926E-19 5.47350E-19
 -1      2866 9.74857E-05-2.81006E-05-2.97429E-05-6.32753E-06 4.17105E-19 1.58603E-18
 -1      2867 1.00884E-04-2.99466E-05-3.03996E-05-7.04821E-06-8.18278E-19 2.14198E-21
 -1      2868 1.00075E-04-2.94426E-05-3.02640E-05-6.82508E-06-4.28782E-19 1.52126E-19
 -1      2869 9.83348E-05-2.86474E-05-2.98766E-05-7.24856E-06-2.31473E-19 1.47407E-18
 -1      2870 1.02635E-04-3.12913E-05-3.05831E-05-7.26085E-06-1.14912E-20 5.95793E-19
 -1      2871 1.01640E-04-3.05279E-05-3.04615E-05-7.30279E-06-3.27444E-19 8.87931E-20
 -1      2872 9.95873E-05-2.96742E-05-2.99806E-05-7.97521E-06-5.94735E-19 3.72250E-19
 -1      2873 1.04961E-04-3.32856E-05-3.07391E-05-6.73219E-06 3.64133E-20 1.59989E-18
 -1      2874 1.03759E-04-3.22162E-05-3.06341E-05-7.20955E-06 1.15713E-19 1.25276E-18
 -1      2875 1.01450E-04-3.13876E-05-3.00557E-05-8.27166E-06-5.35573E-19 1.85529E-18
 -1      2876 1.07945E-04-3.59298E-05-3.09027E-05-5.05139E-06-8.73949E-20 1.45903E-18
 -1      2877 1.06574E-04-3.46069E-05-3.08010E-05-6.15499E-06-1.17991E-19 1.57747E-18
 -1      2878 1.04170E-04-3.39643E-05-3.01313E-05-7.78364E-06-3.70205E-21 1.75099E-18
 -1      2879 1.11434E-04-3.88339E-05-3.11713E-05-1.81324E-06 1.73794E-19 1.37145E-18
 -1      2880 1.10078E-04-3.75432E-05-3.10310E-05-3.67282E-06-5.77488E-20 1.25888E-18
 -1      2881 1.07922E-04-3.73585E-05-3.02938E-05-6.01464E-06 3.38367E-20 2.35919E-18
 -1      2882 1.14797E-04-4.09355E-05-3.17206E-05 3.06556E-06 5.37317E-19 2.43420E-18
 -1      2883 1.13842E-04-4.03003E-05-3.14693E-05 5.67582E-07 2.63910E-19 1.84778E-18
 -1      2884 1.12524E-04-4.09352E-05-3.07214E-05-2.42594E-06-2.74728E-19 2.23224E-18
 -1      2885 1.16776E-04-4.04456E-05-3.27608E-05 8.86249E-06 3.48059E-19 2.59028E-18
 -1      2886 1.16811E-04-4.14060E-05-3.23216E-05 6.31378E-06 8.27702E-19 2.80348E-18
 -1      2887 1.17107E-04-4.31937E-05-3.16892E-05 3.18588E-06 4.49735E-19 2.95586E-18
 -1      2888 1.15878E-04-3.56460E-05-3.43700E-05 1.31627E-05-6.11796E-19 1.62803E-18
 -1      2889 1.17237E-04-3.87404E-05-3.37431E-05 1.19204E-05 2.49100E-19 2.16906E-18
 -1      2890 1.19796E-04-4.17171E-05-3.34567E-05 9.91512E-06 4.68892E-19 2.89237E-18
 -1      2891 1.12123E-04-2.75355E-05-3.62484E-05 1.23648E-05 1.93018E-19 4.55350E-19
 -1      2892 1.14279E-04-3.17370E-05-3.55940E-05 1.38022E-05-9.14690E-19 7.19147E-19
 -1      2893 1.18560E-04-3.46062E-05-3.60090E-05 1.44789E-05-1.06197E-19 9.56022E-19
 -1      2894 1.08685E-04-2.11461E-05-3.75248E-05 4.97175E-06 2.28953E-18 7.01231E-19
 -1      2895 1.10009E-04-2.36803E-05-3.71918E-05 8.99168E-06 1.39449E-18 9.10588E-19
 -1      2896 1.14509E-04-2.51846E-05-3.84191E-05 1.16784E-05 1.32812E-19-1.64774E-19
 -1      2897 1.08979E-04-2.20327E-05-3.74446E-05-5.71385E-06 2.38503E-18 6.73815E-19
 -1      2898 1.08104E-04-2.05930E-05-3.76504E-05-1.40226E-06 2.38045E-18 7.56070E-19
 -1      2899 1.11239E-04-1.83455E-05-3.98900E-05 2.20807E-06 1.66106E-18-5.00438E-19
 -1      2900 1.12906E-04-2.94090E-05-3.60395E-05-1.25744E-05 2.19616E-18-7.59650E-20
 -1      2901 1.10752E-04-2.52765E-05-3.66715E-05-1.04193E-05 2.70487E-18 2.40213E-21
 -1      2902 1.13118E-04-2.22957E-05-3.89113E-05-8.78731E-06 3.00199E-18-1.20615E-18
 -1      2903 1.16507E-04-3.72246E-05-3.41150E-05-1.22808E-05 9.73744E-19-2.92240E-19
 -1      2904 1.14898E-04-3.36120E-05-3.48007E-05-1.29331E-05 1.70370E-18 2.92484E-19
 -1      2905 1.17565E-04-3.20319E-05-3.66737E-05-1.38799E-05 1.81829E-18-1.75737E-18
 -1      2906 1.16914E-04-4.11664E-05-3.24959E-05-7.15774E-06-2.62248E-19 3.23059E-19
 -1      2907 1.16621E-04-3.96371E-05-3.30171E-05-9.57692E-06 3.62192E-19 8.60516E-19
 -1      2908 1.19784E-04-4.04658E-05-3.39678E-05-1.07464E-05 3.19669E-19 2.86734E-19
 -1      2909 1.14381E-04-4.09006E-05-3.14577E-05-1.09453E-06-2.59511E-18 4.03019E-19
 -1      2910 1.15203E-04-4.11951E-05-3.17789E-05-3.77634E-06-1.17435E-18 3.29482E-19
 -1      2911 1.17925E-04-4.33651E-05-3.19567E-05-4.11885E-06-4.46239E-19 1.50907E-18
 -1      2912 1.10556E-04-3.83677E-05-3.08857E-05 3.77421E-06-1.04685E-18 8.80739E-19
 -1      2913 1.11943E-04-3.95883E-05-3.10739E-05 1.64325E-06-2.41379E-18-1.45202E-19
 -1      2914 1.13611E-04-4.19402E-05-3.07620E-05 2.13167E-06-2.22754E-18 1.73035E-18
 -1      2915 1.06773E-04-3.53211E-05-3.05780E-05 6.84556E-06 3.83971E-19 1.11331E-18
 -1      2916 1.08267E-04-3.67172E-05-3.07095E-05 5.47974E-06 2.15891E-19 9.57939E-19
 -1      2917 1.08796E-04-3.84787E-05-3.01919E-05 6.42040E-06-4.80848E-19 6.95512E-19
 -1      2918 1.03607E-04-3.26603E-05-3.03749E-05 8.35042E-06 1.81917E-19 7.73196E-19
 -1      2919 1.04972E-04-3.38719E-05-3.04971E-05 7.67353E-06 5.85960E-19 9.59996E-19
 -1      2920 1.04687E-04-3.48849E-05-2.99630E-05 8.76387E-06 5.30499E-19 6.21593E-19
 -1      2921 1.01135E-04-3.06317E-05-3.01963E-05 8.71195E-06 1.10770E-18-2.17634E-19
 -1      2922 1.02306E-04-3.15711E-05-3.03253E-05 8.55969E-06 4.97929E-19-1.64257E-20
 -1      2923 1.01596E-04-3.19643E-05-2.98760E-05 9.64771E-06 1.21700E-18-8.33802E-20
 -1      2924 9.92342E-05-2.91577E-05-3.00197E-05 8.29566E-06 1.94689E-18-6.57084E-19
 -1      2925 1.00218E-04-2.98651E-05-3.01522E-05 8.51501E-06 1.92934E-18-2.58904E-19
 -1      2926 9.93935E-05-2.98401E-05-2.98301E-05 9.55230E-06 1.50858E-18-2.17191E-18
 -1      2927 9.77543E-05-2.80691E-05-2.98517E-05 7.34695E-06 3.45318E-19 1.38590E-18
 -1      2928 9.85699E-05-2.86127E-05-2.99767E-05 7.82785E-06 7.25918E-19 3.45276E-19
 -1      2929 9.78184E-05-2.83396E-05-2.97897E-05 8.81678E-06 4.45134E-19-1.51177E-18
 -1      2930 9.64903E-05-2.71285E-05-2.97125E-05 6.28495E-06-9.83778E-19 2.18802E-18
 -1      2931 9.71737E-05-2.75852E-05-2.98138E-05 6.97406E-06-3.24147E-19 1.80208E-18
 -1      2932 9.65519E-05-2.71891E-05-2.97431E-05 7.88631E-06-6.53735E-19 1.51106E-19
 -1      2933 9.55221E-05-2.61646E-05-2.97405E-05 6.91372E-06-1.53194E-18 1.05146E-18
 -1      2934 8.93192E-05-2.01975E-05-2.96402E-05 7.33733E-07 9.27148E-19 1.52140E-18
 -1      2935 8.94916E-05-2.03555E-05-2.96359E-05 1.99381E-06 6.33133E-19 1.02407E-18
 -1      2936 9.64560E-05-2.69934E-05-2.97614E-05-7.14591E-06-1.80943E-18-3.95823E-19
 -1      2937 9.60557E-05-2.66889E-05-2.97221E-05-6.63630E-06-1.33596E-18-4.74224E-19
 -1      2938 9.53443E-05-2.59726E-05-2.97293E-05-6.91680E-06-7.14130E-19 2.55881E-18
 -1      2939 9.58212E-05-2.65694E-05-2.96869E-05-7.95366E-06-1.27408E-18-5.89229E-19
 -1      2940 9.09715E-05-2.17986E-05-2.96707E-05 5.47035E-06 7.46287E-19 2.23058E-19
 -1      2941 9.16743E-05-2.24577E-05-2.96520E-05 6.20673E-06 1.66575E-18 1.02397E-18
 -1      2942 8.94901E-05-2.03550E-05-2.96360E-05-2.00664E-06-2.06667E-20-5.74556E-19
 -1      2943 8.93189E-05-2.01965E-05-2.96402E-05-7.46192E-07 2.48259E-19-9.40298E-20
 -1      2944 8.85647E-05-2.03043E-05-2.92324E-05-6.06295E-09 2.35036E-19-1.83683E-19
 -1      2945 8.98502E-05-2.07158E-05-2.96524E-05 3.35628E-06 3.77723E-19 1.09802E-18
 -1      2946 9.03317E-05-2.11612E-05-2.96399E-05 4.42690E-06 1.11941E-19 1.79607E-18
 -1      2947 9.01495E-05-2.16983E-05-2.93238E-05 5.47210E-06 4.43356E-19-2.77762E-19
 -1      2948 8.89847E-05-2.06752E-05-2.92561E-05 2.96640E-06 5.61013E-19 1.61725E-18
 -1      2949 9.47099E-05-2.74057E-05-2.88475E-05 3.99830E-07 8.37148E-19 2.50707E-19
 -1      2950 9.49028E-05-2.71192E-05-2.90195E-05 1.01070E-06 8.81307E-19 4.46062E-19
 -1      2951 9.52529E-05-2.65176E-05-2.94720E-05 1.74018E-06 1.00149E-18 1.92843E-19
 -1      2952 9.51194E-05-2.73706E-05-2.90453E-05 3.80491E-07 9.07121E-19-1.38946E-20
 -1      2953 9.03110E-05-2.11407E-05-2.96401E-05-4.40456E-06 4.84579E-19-1.45766E-18
 -1      2954 8.98406E-05-2.07056E-05-2.96524E-05-3.34874E-06-1.95076E-19-9.05929E-19
 -1      2955 8.89754E-05-2.06653E-05-2.92560E-05-2.95647E-06-1.02132E-20-4.80204E-19
 -1      2956 9.16508E-05-2.24323E-05-2.96527E-05-6.19866E-06 1.24217E-18 2.52759E-19
 -1      2957 9.09492E-05-2.17751E-05-2.96712E-05-5.45648E-06 8.60430E-19-3.76761E-19
 -1      2958 9.01225E-05-2.16717E-05-2.93236E-05-5.45105E-06 1.31532E-18-2.94272E-19
 -1      2959 9.32673E-05-2.40020E-05-2.96733E-05-7.12189E-06 6.96364E-19 8.10698E-19
 -1      2960 9.24665E-05-2.32263E-05-2.96950E-05-6.80950E-06 1.15119E-18 5.54146E-19
 -1      2961 9.17996E-05-2.31280E-05-2.94276E-05-7.16558E-06 1.02686E-18 1.23476E-19
 -1      2962 9.45835E-05-2.51697E-05-2.97499E-05-7.03808E-06 9.96138E-20 2.79955E-18
 -1      2963 3.71738E-05-1.74196E-05-7.93114E-06-1.91399E-05 7.26437E-19 3.66723E-18
 -1      2964 4.65052E-05-2.31732E-05-9.59279E-06-2.94032E-05-3.88894E-19 4.72581E-18
 -1      2965 9.43278E-05-2.08721E-05-3.15158E-05-8.25685E-06-1.21864E-18-3.90933E-19
 -1      2966 9.47124E-05-2.26460E-05-3.09105E-05-6.41772E-06-1.15524E-18-2.76781E-19
 -1      2967 1.31836E-04-2.22420E-05-4.77158E-05-1.22863E-05-4.33363E-18 3.64552E-18
 -1      2968 1.33504E-04-2.96548E-05-4.47788E-05-1.40217E-05-4.25369E-18 4.54338E-18
 -1      2969 5.70153E-05-2.98627E-05-1.11147E-05-3.48980E-05-3.01967E-19 2.66402E-18
 -1      2970 7.13018E-05-3.77006E-05-1.41213E-05-3.87035E-05-2.28593E-19 2.06327E-18
 -1      2971 5.72463E-05-2.55780E-05-1.30165E-05-2.95118E-05 1.55854E-19 3.25028E-18
 -1      2972 1.38021E-04-4.17471E-05-4.19231E-05-9.64105E-06-3.96692E-18 5.29724E-18
 -1      2973 1.38840E-04-5.02748E-05-3.79181E-05-2.96881E-06-2.24908E-18 4.33840E-18
 -1      2974 1.16109E-04-5.76087E-05-2.52137E-05 2.74227E-05 2.14088E-18 5.39170E-19
 -1      2975 1.00140E-04-5.06743E-05-2.08376E-05 3.33329E-05 3.15694E-18-3.24467E-19
 -1      2976 9.44707E-05-2.82913E-05-2.83615E-05-1.11813E-06 4.09853E-19 8.12683E-20
 -1      2977 9.44366E-05-2.82049E-05-2.83787E-05-1.04013E-06 4.66211E-19 1.14522E-19
 -1      2978 9.49297E-05-2.82222E-05-2.85953E-05-9.18159E-07 5.43755E-19 4.84155E-20
 -1      2979 9.49003E-05-2.84182E-05-2.84970E-05-1.14790E-06 2.64680E-19 2.20596E-19
 -1      2980 9.52621E-05-2.40992E-05-3.04805E-05-5.17264E-06-9.55911E-19-1.97147E-19
 -1      2981 9.51688E-05-2.50796E-05-3.00566E-05-3.68432E-06-8.17195E-19-1.83514E-19
 -1      2982 9.52251E-05-2.47652E-05-3.01901E-05-3.44043E-06-7.94082E-19-2.32103E-19
 -1      2983 9.45848E-05-2.23728E-05-3.09412E-05-5.70703E-06-9.65950E-19-4.22599E-19
 -1      2984 9.11897E-05-1.60966E-05-3.22128E-05 4.91469E-06 1.24897E-18-7.23585E-19
 -1      2985 9.08478E-05-1.55936E-05-3.22743E-05 4.00369E-06 9.86701E-19-8.74977E-19
 -1      2986 9.18330E-05-1.71999E-05-3.19668E-05 3.21521E-06 8.64344E-19-7.46789E-19
 -1      2987 9.25360E-05-1.82827E-05-3.17923E-05 4.65080E-06 1.16007E-18-5.58715E-19
 -1      2988 9.08186E-05-1.55489E-05-3.22797E-05-3.93925E-06-3.67348E-19-1.27151E-18
 -1      2989 9.11497E-05-1.60334E-05-3.22195E-05-4.86343E-06-5.74004E-19-1.17873E-18
 -1      2990 1.30986E-04-1.85347E-05-4.86469E-05 1.18991E-05 2.54237E-18 1.49840E-18
 -1      2991 1.28498E-04-1.31989E-05-5.02258E-05 6.85357E-06 2.14935E-18 1.44387E-18
 -1      2992 3.99871E-05-1.75004E-05-9.01717E-06-2.10546E-05-8.88696E-19-1.17441E-18
 -1      2993 5.33077E-05-2.49370E-05-1.18601E-05-3.06186E-05-1.08473E-18-1.09744E-18
 -1      2994 1.37332E-04-3.72407E-05-4.31008E-05 1.10643E-05-5.14149E-19 9.48995E-19
 -1      2995 1.34144E-04-2.75011E-05-4.63798E-05 1.23677E-05-1.40163E-18 4.60045E-19
 -1      2996 9.20387E-05-1.66598E-05-3.23127E-05-9.03497E-06-1.13840E-18-8.19743E-19
 -1      2997 3.23231E-05-1.34909E-05-7.54621E-06 4.70254E-06-1.44776E-19 1.68221E-18
 -1      2998 3.21177E-05-1.40072E-05-7.16896E-06-9.00132E-06 6.75747E-19 2.84264E-18
 -1      2999 4.23540E-05-1.55366E-05-1.08979E-05-1.34167E-05 8.27631E-19 3.55256E-18
 -1      3000 1.17875E-04-5.87496E-05-2.54834E-05 2.88523E-05-2.43363E-18 1.60931E-18
 -1      3001 1.03633E-04-5.40066E-05-2.10048E-05 3.47367E-05-3.76548E-18 1.71334E-18
 -1      3002 8.09226E-05-4.12594E-05-1.69141E-05 3.72532E-05 3.09252E-18-1.65298E-18
 -1      3003 6.27184E-05-3.13791E-05-1.28748E-05 3.50048E-05 2.93666E-18-2.98981E-18
 -1      3004 6.24800E-05-2.73288E-05-1.45098E-05 3.00002E-05 1.99672E-18-2.18429E-18
 -1      3005 1.36156E-04-5.70341E-05-3.43653E-05 8.12696E-06 8.78532E-20 7.25272E-19
 -1      3006 1.28789E-04-5.97224E-05-2.94228E-05 1.86368E-05-8.78956E-19 1.21994E-18
 -1      3007 1.23640E-04-5.86228E-05-2.77231E-05 2.01887E-05-2.91596E-18 1.35197E-18
 -1      3008 1.37703E-04-5.44944E-05-3.56991E-05-2.81957E-06 2.31127E-19 2.22378E-18
 -1      3009 1.38818E-04-4.79436E-05-3.95916E-05 4.53605E-06-5.47395E-20 1.90667E-18
 -1      3010 1.12434E-04-5.58009E-05-2.40492E-05-2.79813E-05-1.04884E-18-1.11597E-19
 -1      3011 1.25029E-04-5.91829E-05-2.84165E-05-2.03318E-05-4.12240E-19 1.13272E-18
 -1      3012 1.24629E-04-5.92522E-05-2.79326E-05-2.13412E-05 1.34519E-19 3.18463E-18
 -1      3013 1.33834E-04-5.86961E-05-3.24993E-05-1.23157E-05-3.95459E-20 2.95180E-18
 -1      3014 1.33856E-04-5.59976E-05-3.33524E-05-4.30487E-06 9.29513E-19 1.23100E-18
 -1      3015 9.46947E-05-2.19052E-05-3.12031E-05 7.85438E-06 1.44224E-18 5.98210E-19
 -1      3016 1.35726E-04-5.71734E-05-3.41778E-05 7.39987E-06-4.50622E-19 3.01861E-18
 -1      3017 1.27800E-04-5.88728E-05-2.93214E-05 1.66568E-05 8.47562E-19 2.09445E-18
 -1      3018 3.37132E-05-1.24213E-05-8.61893E-06 4.58195E-06 1.17211E-18-8.72867E-19
 -1      3019 3.34649E-05-1.33045E-05-8.17766E-06-1.00943E-05 1.95373E-19-8.03199E-19
 -1      3020 4.38422E-05-1.51548E-05-1.17074E-05-1.38347E-05-1.37802E-19-7.00602E-19
 -1      3021 9.15713E-05-1.66744E-05-3.21179E-05-5.59078E-06-6.31497E-19-1.14666E-18
 -1      3022 9.20449E-05-1.73756E-05-3.20250E-05-6.42344E-06-8.58742E-19-1.12216E-18
 -1      3023 9.24444E-05-1.81893E-05-3.18023E-05-4.58651E-06-5.23732E-19-9.73279E-19
 -1      3024 9.13152E-05-1.64005E-05-3.20942E-05 2.86236E-08 4.07977E-19-1.10045E-18
 -1      3025 9.01919E-05-1.46117E-05-3.24110E-05-3.83708E-07 3.31015E-19-1.28680E-18
 -1      3026 9.02480E-05-1.46919E-05-3.24008E-05-1.34275E-06 1.57397E-19-1.26197E-18
 -1      3027 1.28173E-04-2.47392E-05-4.46932E-05 1.35074E-05 2.15676E-18 3.20348E-18
 -1      3028 1.34614E-04-5.43936E-05-3.44606E-05 1.95075E-06-5.89853E-19 1.22746E-18
 -1      3029 4.32545E-05-1.69952E-05-1.08101E-05 1.82222E-05 5.46998E-19 2.62316E-18
 -1      3030 3.67421E-05-1.45898E-05-8.76664E-06 1.15381E-05 3.26637E-19 1.62588E-18
 -1      3031 4.05909E-05-1.31483E-05-1.13616E-05 4.33674E-06 4.16251E-19 2.04071E-18
 -1      3032 1.36786E-04-4.50037E-05-3.96587E-05 9.09879E-06 2.11197E-18 3.15859E-18
 -1      3033 1.30961E-04-3.77916E-05-4.02188E-05 1.38094E-05 1.95321E-18 4.65164E-18
 -1      3034 1.33988E-04-4.89070E-05-3.65661E-05 5.62490E-06 1.86494E-18 3.59820E-18
 -1      3035 9.18220E-05-2.31512E-05-2.94269E-05 7.16689E-06 1.74598E-18 1.90288E-18
 -1      3036 9.24800E-05-2.32460E-05-2.96936E-05 6.80630E-06 1.96581E-18 2.39038E-18
 -1      3037 9.32899E-05-2.40235E-05-2.96731E-05 7.12156E-06 2.87014E-19 2.97795E-18
 -1      3038 9.61500E-05-5.00562E-05-1.94757E-05 3.68472E-05-3.13699E-18 1.51635E-18
 -1      3039 8.71577E-05-4.37323E-05-1.82222E-05 3.65429E-05-3.18971E-18 2.77964E-18
 -1      3040 1.05502E-04-5.21568E-05-2.27202E-05 3.03830E-05-3.69889E-18 1.59026E-18
 -1      3041 1.12106E-04-2.04765E-05-3.95788E-05-7.95707E-06-3.12155E-18 9.33192E-20
 -1      3042 1.11051E-04-1.81491E-05-3.99633E-05-3.07361E-06-2.02335E-18-5.13977E-19
 -1      3043 1.14652E-04-1.59839E-05-4.25134E-05 2.73304E-07-2.29519E-18 1.57545E-19
 -1      3044 1.17294E-04-2.14249E-05-4.12673E-05-1.14058E-05-3.58115E-18 6.97188E-19
 -1      3045 4.82733E-05-1.60126E-05-1.36756E-05 1.68803E-05 5.59703E-19-1.52678E-18
 -1      3046 4.05317E-05-1.39249E-05-1.08255E-05 1.12727E-05 8.15375E-19-1.76426E-18
 -1      3047 4.39955E-05-1.24142E-05-1.31301E-05 4.31467E-06 8.70154E-19-1.39972E-18
 -1      3048 1.19065E-04-5.83492E-05-2.59260E-05-2.52868E-05 4.35004E-19 2.54459E-18
 -1      3049 1.24192E-04-5.77691E-05-2.84936E-05-1.61895E-05 2.07393E-18 6.53089E-19
 -1      3050 1.10851E-04-5.42872E-05-2.40497E-05-2.80744E-05 8.07169E-19 1.59545E-18
 -1      3051 1.34849E-04-5.31643E-05-3.50823E-05-3.76512E-07-1.85552E-18 2.60828E-18
 -1      3052 9.40101E-05-2.46991E-05-2.97211E-05 7.22098E-06-6.64477E-19 1.72690E-18
 -1      3053 9.48323E-05-2.55059E-05-2.96990E-05 7.11813E-06-1.16927E-18 7.61506E-19
 -1      3054 9.52703E-05-2.60045E-05-2.96734E-05 7.70535E-06-1.66292E-18 4.07112E-19
 -1      3055 9.36236E-05-2.46501E-05-2.95534E-05 7.84760E-06 6.26011E-19 3.61599E-18
 -1      3056 1.25995E-04-1.74787E-05-4.69155E-05-1.13906E-05-3.96687E-18 2.63454E-18
 -1      3057 1.04320E-04-5.17202E-05-2.23144E-05-3.09712E-05-1.26753E-18-3.97311E-20
 -1      3058 1.11828E-04-5.27785E-05-2.51919E-05-2.31059E-05-1.76545E-18 1.16329E-18
 -1      3059 9.42475E-05-4.44811E-05-2.10254E-05-3.16472E-05-1.42021E-18 3.55754E-19
 -1      3060 9.36461E-05-4.61229E-05-2.00050E-05 3.37398E-05 3.01544E-18-6.02082E-19
 -1      3061 8.66892E-05-4.00104E-05-1.97571E-05 3.21127E-05 2.19922E-18-6.82920E-19
 -1      3062 1.03213E-04-4.90256E-05-2.32326E-05 2.77039E-05 2.41759E-18-1.26004E-18
 -1      3063 9.49410E-05-2.58201E-05-2.96196E-05-7.90782E-06 2.19585E-19 2.18360E-18
 -1      3064 9.39428E-05-2.47270E-05-2.96710E-05-7.48075E-06 7.78362E-19 2.56549E-18
 -1      3065 9.35459E-05-2.46977E-05-2.95037E-05-8.06980E-06 4.48359E-19 2.24169E-18
 -1      3066 9.52271E-05-2.61640E-05-2.95908E-05-8.40040E-06-3.17225E-19 6.04891E-19
 -1      3067 1.22239E-04-5.72042E-05-2.77751E-05 1.83792E-05 8.61380E-19 7.03699E-19
 -1      3068 5.76366E-05-3.01833E-05-1.11990E-05 3.51881E-05-1.72625E-18 4.37080E-18
 -1      3069 5.39933E-05-2.45429E-05-1.21542E-05 2.99716E-05-9.95581E-19 3.91012E-18
 -1      3070 6.94512E-05-3.44766E-05-1.47791E-05 3.55604E-05-2.22775E-18 3.56209E-18
 -1      3071 6.51145E-05-3.00540E-05-1.44376E-05-3.33308E-05-1.73854E-18-1.42429E-18
 -1      3072 7.66143E-05-3.52861E-05-1.75639E-05-3.26301E-05-2.06888E-18-3.87306E-19
 -1      3073 5.98592E-05-2.41697E-05-1.49520E-05-2.75517E-05-1.05355E-18-7.89435E-19
 -1      3074 8.34195E-05-4.28089E-05-1.69399E-05-3.77489E-05 4.03823E-19 2.38239E-18
 -1      3075 9.42747E-05-4.69509E-05-2.01961E-05-3.39959E-05 1.21835E-18 2.44703E-18
 -1      3076 7.67189E-05-3.63981E-05-1.70119E-05-3.48191E-05 4.23146E-19 1.51672E-18
 -1      3077 1.31934E-04-3.59306E-05-4.13727E-05-1.29453E-05-3.83595E-18 3.14567E-18
 -1      3078 1.27329E-04-1.13654E-05-5.00873E-05 1.21170E-06-3.98825E-18-1.67904E-19
 -1      3079 9.28240E-05-1.84326E-05-3.18802E-05-7.48232E-06-9.78270E-19-9.09763E-19
 -1      3080 1.29318E-04-1.81772E-05-4.80113E-05-9.50576E-06 2.93402E-18 5.04726E-19
 -1      3081 1.34440E-04-4.28870E-05-3.94191E-05 9.85015E-06 4.88050E-19-1.10580E-18
 -1      3082 9.03722E-05-1.48828E-05-3.23727E-05-2.18104E-06-7.38879E-22-1.12529E-18
 -1      3083 9.05551E-05-1.51460E-05-3.23400E-05-3.13324E-06-2.13927E-19-1.25216E-18
 -1      3084 9.18046E-05-1.71666E-05-3.19723E-05-3.14895E-06-2.99667E-19-1.06513E-18
 -1      3085 9.14325E-05-1.65839E-05-3.20651E-05-1.58570E-06 5.17742E-20-1.03642E-18
 -1      3086 1.23958E-04-1.17188E-05-4.84258E-05 4.33826E-06 2.12203E-18 9.42695E-19
 -1      3087 1.29444E-04-5.74309E-05-3.08720E-05-1.03933E-05 5.21958E-19 1.62694E-18
 -1      3088 1.30742E-04-3.21727E-05-4.27147E-05-1.41303E-05 1.87766E-18-1.73959E-19
 -1      3089 1.35723E-04-3.90080E-05-4.18472E-05-1.15347E-05 1.48199E-18 1.79698E-18
 -1      3090 1.32879E-04-4.33524E-05-3.85643E-05-9.95673E-06 9.52436E-19 1.21745E-18
 -1      3091 9.43516E-05-2.14354E-05-3.12579E-05 7.22617E-06 1.43311E-18 1.79194E-19
 -1      3092 9.45888E-05-2.24656E-05-3.09133E-05 5.68946E-06 1.30478E-18-1.42585E-20
 -1      3093 9.51596E-05-2.39588E-05-3.04999E-05 4.47250E-06 1.22368E-18 1.15359E-20
 -1      3094 9.45240E-05-2.24349E-05-3.09048E-05 4.93700E-06 1.24815E-18-2.89915E-19
 -1      3095 9.51984E-05-2.49382E-05-3.01256E-05 3.18402E-06 1.13018E-18-3.09653E-20
 -1      3096 9.40730E-05-2.15484E-05-3.10952E-05 4.60088E-06 1.15744E-18-5.98205E-19
 -1      3097 1.15751E-04-1.54370E-05-4.34050E-05 2.73521E-06 1.63033E-18 3.10014E-19
 -1      3098 1.16820E-04-1.47480E-05-4.43370E-05-4.80563E-06 2.77970E-18-6.25719E-19
 -1      3099 9.56860E-05-2.68729E-05-2.94770E-05-7.51066E-07-6.37505E-19-3.25432E-19
 -1      3100 9.56622E-05-2.73167E-05-2.92989E-05-2.21869E-07-5.88510E-19-4.89868E-19
 -1      3101 9.57063E-05-2.76974E-05-2.91354E-05 1.64668E-07-6.51294E-19-4.94333E-19
 -1      3102 9.56700E-05-2.79788E-05-2.90149E-05 4.86504E-07-7.89743E-19-6.18372E-19
 -1      3103 9.59056E-05-2.73136E-05-2.93994E-05-1.61326E-07-7.39338E-19-4.57550E-19
 -1      3104 9.56615E-05-2.82103E-05-2.88999E-05 7.16641E-07-7.29922E-19-5.65071E-19
 -1      3105 9.56306E-05-2.83836E-05-2.88220E-05 8.95405E-07-6.74986E-19-6.08338E-19
 -1      3106 9.59467E-05-2.80260E-05-2.91125E-05 4.88838E-07-7.66788E-19-2.95536E-19
 -1      3107 9.55968E-05-2.85152E-05-2.87443E-05 1.01756E-06-4.17637E-19-5.72370E-19
 -1      3108 9.55755E-05-2.86150E-05-2.86976E-05 1.10319E-06-2.11338E-19-4.57799E-19
 -1      3109 9.59102E-05-2.84574E-05-2.89119E-05 8.68783E-07-5.41445E-19-3.81037E-19
 -1      3110 9.55308E-05-2.86785E-05-2.86482E-05 1.15612E-06-1.65937E-19-4.57824E-19
 -1      3111 9.55189E-05-2.87270E-05-2.86242E-05 1.18629E-06-2.94894E-19-5.97124E-19
 -1      3112 9.58371E-05-2.86963E-05-2.87777E-05 1.06563E-06-2.78152E-19-4.95257E-19
 -1      3113 9.54702E-05-2.87429E-05-2.85963E-05 1.20025E-06-3.24627E-19-4.98034E-19
 -1      3114 9.54659E-05-2.87546E-05-2.85889E-05 1.20304E-06-2.61839E-19-5.20162E-19
 -1      3115 9.57480E-05-2.88008E-05-2.86942E-05 1.14928E-06-2.46824E-19-4.76562E-19
 -1      3116 9.54164E-05-2.87363E-05-2.85773E-05 1.20120E-06-2.16915E-19-3.44455E-19
 -1      3117 9.54179E-05-2.87206E-05-2.85823E-05 1.19765E-06-3.30024E-19-4.32718E-19
 -1      3118 9.56532E-05-2.88092E-05-2.86494E-05 1.17419E-06-2.88157E-19-2.03196E-19
 -1      3119 9.53683E-05-2.86765E-05-2.85832E-05 1.19778E-06-3.05440E-19-3.48765E-19
 -1      3120 9.53742E-05-2.86396E-05-2.85979E-05 1.20395E-06-3.03655E-19-3.98850E-20
 -1      3121 9.55565E-05-2.87467E-05-2.86343E-05 1.18229E-06-2.02017E-19 2.49191E-20
 -1      3122 9.53238E-05-2.85747E-05-2.86085E-05 1.21996E-06-5.24182E-19 2.99036E-19
 -1      3123 9.53333E-05-2.85202E-05-2.86310E-05 1.24850E-06-3.14556E-19 2.84212E-19
 -1      3124 9.54581E-05-2.86292E-05-2.86421E-05 1.20600E-06-6.37696E-20 2.49059E-19
 -1      3125 9.52803E-05-2.84371E-05-2.86495E-05 1.29163E-06-2.70064E-19 2.63979E-19
 -1      3126 9.52929E-05-2.83673E-05-2.86788E-05 1.35300E-06-5.12345E-20 2.22604E-19
 -1      3127 9.53559E-05-2.84658E-05-2.86679E-05 1.27104E-06-3.29059E-19 4.41808E-19
 -1      3128 9.52349E-05-2.82669E-05-2.87036E-05 1.43283E-06-1.62618E-19-6.39427E-20
 -1      3129 9.52506E-05-2.81830E-05-2.87391E-05 1.53604E-06-4.60771E-19-3.56052E-20
 -1      3130 9.52457E-05-2.82612E-05-2.87080E-05 1.39862E-06-4.61192E-19-3.30589E-20
 -1      3131 9.51845E-05-2.80655E-05-2.87690E-05 1.66108E-06-5.10096E-19 1.57496E-19
 -1      3132 9.52036E-05-2.79687E-05-2.88103E-05 1.81415E-06-8.20043E-19 3.41799E-19
 -1      3133 9.51222E-05-2.80171E-05-2.87593E-05 1.60698E-06-3.46116E-19-1.85046E-19
 -1      3134 9.51263E-05-2.78341E-05-2.88439E-05 1.99216E-06-9.60527E-19 5.21930E-19
 -1      3135 9.51498E-05-2.77263E-05-2.88905E-05 2.20214E-06-6.99813E-19 2.42877E-19
 -1      3136 9.49796E-05-2.77345E-05-2.88188E-05 1.91239E-06-7.51450E-19 3.10886E-19
 -1      3137 9.50585E-05-2.75761E-05-2.89262E-05 2.44019E-06-6.43602E-19 2.65545E-19
 -1      3138 9.50884E-05-2.74612E-05-2.89772E-05 2.71282E-06-3.44328E-19-1.24272E-19
 -1      3139 9.48119E-05-2.74154E-05-2.88832E-05 2.32953E-06-8.26112E-19 3.39295E-19
 -1      3140 9.49816E-05-2.72996E-05-2.90125E-05 3.01700E-06-1.86767E-19-1.59997E-19
 -1      3141 9.50219E-05-2.71854E-05-2.90661E-05 3.35586E-06-4.44028E-19 1.45529E-19
 -1      3142 9.46147E-05-2.70665E-05-2.89477E-05 2.87133E-06-3.94017E-19-1.15024E-19
 -1      3143 9.49008E-05-2.70220E-05-2.90975E-05 3.73074E-06-6.58090E-19 3.02102E-19
 -1      3144 9.49593E-05-2.69231E-05-2.91510E-05 4.13591E-06-2.39967E-19-9.12949E-21
 -1      3145 9.43876E-05-2.67027E-05-2.90059E-05 3.54827E-06-3.12614E-19 4.34215E-19
 -1      3146 9.48312E-05-2.67758E-05-2.91735E-05 4.58379E-06-1.63209E-19-4.65939E-19
 -1      3147 9.49226E-05-2.67175E-05-2.92225E-05 5.04988E-06 1.83313E-19-8.41256E-19
 -1      3148 9.41385E-05-2.63537E-05-2.90485E-05 4.36746E-06-4.56773E-19 7.59058E-19
 -1      3149 9.48054E-05-2.66186E-05-2.92295E-05 5.56988E-06 5.10745E-19-8.84286E-19
 -1      3150 9.49568E-05-2.66425E-05-2.92681E-05 6.08335E-06-4.81833E-21-9.70543E-19
 -1      3151 9.38909E-05-2.60727E-05-2.90632E-05 5.33162E-06 1.88818E-19 8.40969E-20
 -1      3152 9.48866E-05-2.66445E-05-2.92516E-05 6.67002E-06-5.50932E-19-1.03325E-18
 -1      3153 9.51457E-05-2.68163E-05-2.92728E-05 7.20539E-06-8.11952E-19-8.98604E-19
 -1      3154 9.36961E-05-2.59485E-05-2.90347E-05 6.43797E-06-1.00365E-19-4.96470E-19
 -1      3155 9.51894E-05-2.70012E-05-2.92248E-05 7.84621E-06-8.17349E-19-6.25447E-19
 -1      3156 9.56353E-05-2.74178E-05-2.92224E-05 8.36028E-06-1.07729E-18-2.84242E-19
 -1      3157 9.36522E-05-2.61221E-05-2.89457E-05 7.67650E-06-7.53652E-19-6.28385E-19
 -1      3158 9.59070E-05-2.79050E-05-2.91375E-05 9.02942E-06-9.38560E-19-3.05502E-19
 -1      3159 9.66625E-05-2.86994E-05-2.91105E-05 9.45135E-06-2.18920E-20-1.01152E-19
 -1      3160 9.39326E-05-2.68059E-05-2.87813E-05 9.02471E-06-7.57685E-19 2.99488E-19
 -1      3161 9.73456E-05-2.96485E-05-2.89929E-05 1.00936E-05 3.63098E-19-4.12323E-19
 -1      3162 9.85818E-05-3.09792E-05-2.89539E-05 1.03058E-05 6.85092E-19-2.88592E-19
 -1      3163 9.48238E-05-2.82995E-05-2.85387E-05 1.04307E-05-1.36169E-19-1.10432E-19
 -1      3164 9.99488E-05-3.25722E-05-2.88306E-05 1.07967E-05 1.05686E-18-5.27034E-19
 -1      3165 1.01854E-04-3.45766E-05-2.88214E-05 1.06061E-05 6.84644E-19-4.24376E-19
 -1      3166 9.67694E-05-3.09887E-05-2.82458E-05 1.17639E-05 6.43538E-19-5.88010E-19
 -1      3167 1.04255E-04-3.69203E-05-2.87707E-05 1.06233E-05 7.97647E-19 2.33181E-19
 -1      3168 1.06909E-04-3.95020E-05-2.88859E-05 9.72997E-06 9.36342E-19 7.03881E-19
 -1      3169 1.00411E-04-3.53002E-05-2.80034E-05 1.26684E-05 9.84717E-19-4.94732E-19
 -1      3170 1.10673E-04-4.25656E-05-2.90654E-05 8.79051E-06 9.38177E-19 1.12869E-18
 -1      3171 1.13853E-04-4.51674E-05-2.94774E-05 6.67071E-06 1.32268E-18 1.58645E-18
 -1      3172 1.06411E-04-4.11434E-05-2.80806E-05 1.23112E-05 1.37744E-18 1.03749E-18
 -1      3173 1.18675E-04-4.78819E-05-3.02224E-05 3.95860E-06 8.53286E-19 1.89427E-18
 -1      3174 1.21525E-04-4.89532E-05-3.11937E-05 5.34861E-07 7.22865E-19 2.21726E-18
 -1      3175 1.15006E-04-4.77021E-05-2.88959E-05 9.41120E-06 1.39879E-18 1.67621E-18
 -1      3176 1.25226E-04-3.09151E-05-4.06345E-05 1.46254E-05-3.06097E-19-3.08405E-18
 -1      3177 1.26785E-04-3.81395E-05-3.84222E-05 1.29706E-05 2.87674E-19-3.37551E-18
 -1      3178 1.26701E-04-4.72243E-05-3.41346E-05 6.45870E-06 1.43020E-18-3.31676E-18
 -1      3179 1.25319E-04-4.96088E-05-3.24132E-05 2.30169E-06 1.57812E-18-2.14368E-18
 -1      3180 1.20716E-04-4.89265E-05-3.08080E-05-2.33057E-06 1.87499E-18-1.39472E-18
 -1      3181 1.17752E-04-4.75502E-05-2.99309E-05-5.61907E-06 1.71725E-18-1.31322E-18
 -1      3182 1.23648E-04-5.17581E-05-3.08798E-05-4.03139E-06 2.06210E-18-2.68960E-18
 -1      3183 1.13015E-04-4.46952E-05-2.92968E-05-8.27915E-06 1.11875E-18-8.33360E-19
 -1      3184 1.09834E-04-4.20275E-05-2.89361E-05-1.01801E-05 5.80368E-19-6.32317E-19
 -1      3185 1.14201E-04-4.74884E-05-2.87624E-05-1.08059E-05 1.89084E-18-9.17456E-19
 -1      3186 1.06362E-04-3.91513E-05-2.88038E-05-1.10570E-05 2.30340E-19 3.89413E-19
 -1      3187 1.03773E-04-3.65939E-05-2.87150E-05-1.19259E-05 8.23149E-19 3.27495E-19
 -1      3188 1.05837E-04-4.08204E-05-2.80156E-05-1.35551E-05 1.19548E-18-4.00167E-19
 -1      3189 1.01571E-04-3.43350E-05-2.87990E-05-1.18728E-05-1.48867E-19 3.65250E-19
 -1      3190 9.97492E-05-3.23966E-05-2.88248E-05-1.20617E-05 2.96060E-19 7.84955E-19
 -1      3191 1.00314E-04-3.50627E-05-2.80532E-05-1.37975E-05 1.37477E-19 1.30730E-18
 -1      3192 9.85066E-05-3.08496E-05-2.89784E-05-1.16072E-05 8.50901E-19-4.65877E-19
 -1      3193 9.73094E-05-2.95064E-05-2.90391E-05-1.13890E-05 1.52274E-18-1.25522E-18
 -1      3194 9.69977E-05-3.09441E-05-2.83595E-05-1.29430E-05-2.98488E-20 1.25391E-18
 -1      3195 9.66860E-05-2.85205E-05-2.91999E-05-1.07614E-05 2.41910E-18-1.84593E-18
 -1      3196 9.59313E-05-2.76307E-05-2.92638E-05-1.02951E-05 1.79712E-18-1.53608E-18
 -1      3197 9.52303E-05-2.82425E-05-2.87321E-05-1.16624E-05 1.35225E-18-2.83430E-19
 -1      3198 9.57915E-05-2.71404E-05-2.94123E-05-9.67188E-06 1.04689E-18-1.44331E-18
 -1      3199 9.52911E-05-2.65168E-05-2.94698E-05-9.04292E-06-3.32656E-19-3.06673E-19
 -1      3200 9.43574E-05-2.57863E-05-2.93946E-05-9.01543E-06 8.92636E-19 2.51960E-18
 -1      3201 9.45472E-05-2.66948E-05-2.90902E-05-1.03122E-05 2.33163E-18 1.23506E-18
 -1      3202 8.82030E-05-2.08359E-05-2.88646E-05-3.98451E-06-2.76262E-19-2.49922E-19
 -1      3203 8.77138E-05-2.04845E-05-2.88337E-05-2.56011E-06 3.68225E-20-3.43743E-19
 -1      3204 9.52421E-05-2.86828E-05-2.85237E-05-1.22046E-06 4.76311E-19 2.30251E-19
 -1      3205 9.52228E-05-2.86621E-05-2.85248E-05-1.22293E-06 5.42683E-19 1.44625E-19
 -1      3206 9.52553E-05-2.86415E-05-2.85477E-05-1.21060E-06 4.87836E-19 2.35051E-19
 -1      3207 9.52472E-05-2.85893E-05-2.85647E-05-1.18368E-06 3.19408E-19 3.11445E-19
 -1      3208 9.55285E-05-2.87310E-05-2.86303E-05-1.19435E-06 5.35576E-19 9.82527E-20
 -1      3209 9.52466E-05-2.86209E-05-2.85511E-05-1.19551E-06 1.41523E-19 2.78189E-19
 -1      3210 9.52137E-05-2.86415E-05-2.85319E-05-1.19772E-06 2.69815E-19 3.19033E-20
 -1      3211 9.52604E-05-2.85384E-05-2.85919E-05-1.22245E-06 2.29559E-19 4.68706E-19
 -1      3212 9.52223E-05-2.85735E-05-2.85654E-05-1.20381E-06 1.27308E-19 4.14914E-19
 -1      3213 9.53684E-05-2.86323E-05-2.86025E-05-1.22050E-06-2.76585E-20-7.90268E-21
 -1      3214 9.52805E-05-2.84289E-05-2.86470E-05-1.30661E-06-1.43904E-20 8.13802E-19
 -1      3215 9.52368E-05-2.84762E-05-2.86139E-05-1.25675E-06 2.56251E-19 7.55740E-19
 -1      3216 9.53211E-05-2.85080E-05-2.86352E-05-1.26944E-06 8.99554E-20 4.30663E-19
 -1      3217 9.53066E-05-2.82949E-05-2.87150E-05-1.46664E-06-2.10774E-19 8.43908E-19
 -1      3218 9.52560E-05-2.83529E-05-2.86755E-05-1.37664E-06-2.51764E-19 9.36931E-19
 -1      3219 9.52733E-05-2.83494E-05-2.86824E-05-1.37949E-06-2.64767E-19 1.17161E-18
 -1      3220 9.53393E-05-2.81383E-05-2.87955E-05-1.71913E-06-1.19443E-20 1.05317E-18
 -1      3221 9.52798E-05-2.82056E-05-2.87493E-05-1.58104E-06-1.39792E-19 1.08942E-18
 -1      3222 9.52218E-05-2.81587E-05-2.87418E-05-1.56943E-06-2.38342E-19 9.44226E-19
 -1      3223 9.53800E-05-2.79615E-05-2.88879E-05-2.07894E-06 1.34882E-22 9.67483E-19
 -1      3224 9.53086E-05-2.80360E-05-2.88349E-05-1.88571E-06 8.01072E-20 1.14333E-18
 -1      3225 9.51639E-05-2.79373E-05-2.88116E-05-1.85592E-06-1.30130E-19 1.19423E-18
 -1      3226 9.54314E-05-2.77698E-05-2.89914E-05-2.55882E-06-3.69239E-19 1.53269E-18
 -1      3227 9.53443E-05-2.78476E-05-2.89315E-05-2.30474E-06-6.22771E-21 1.19248E-18
 -1      3228 9.50970E-05-2.76875E-05-2.88898E-05-2.25386E-06-1.03597E-19 1.19505E-18
 -1      3229 9.54994E-05-2.75736E-05-2.91038E-05-3.16814E-06-1.67352E-19 1.61751E-18
 -1      3230 9.53909E-05-2.76479E-05-2.90376E-05-2.84971E-06-1.40008E-19 1.82458E-18
 -1      3231 9.50204E-05-2.74154E-05-2.89733E-05-2.77607E-06-2.80920E-19 1.81690E-18
 -1      3232 9.55951E-05-2.73936E-05-2.92211E-05-3.91043E-06 1.73220E-19 1.33584E-18
 -1      3233 9.54568E-05-2.74520E-05-2.91503E-05-3.52802E-06 2.66020E-20 1.82984E-18
 -1      3234 9.49367E-05-2.71344E-05-2.90577E-05-3.43226E-06-2.51583E-20 1.88810E-18
 -1      3235 9.57398E-05-2.72668E-05-2.93367E-05-4.77969E-06-2.96588E-20 1.48418E-18
 -1      3236 9.55581E-05-2.72877E-05-2.92642E-05-4.33994E-06 2.55618E-19 1.69967E-18
 -1      3237 9.48561E-05-2.68706E-05-2.91362E-05-4.22715E-06 6.49157E-20 2.35065E-18
 -1      3238 9.59733E-05-2.72558E-05-2.94408E-05-5.75500E-06 2.75404E-19 2.21073E-18
 -1      3239 9.57256E-05-2.72041E-05-2.93713E-05-5.27442E-06-5.52902E-20 1.68978E-18
 -1      3240 9.48023E-05-2.66711E-05-2.91992E-05-5.15794E-06-6.62578E-20 2.61878E-18
 -1      3241 9.63664E-05-2.74612E-05-2.95207E-05-6.79290E-06-8.19923E-20 2.42006E-18
 -1      3242 9.60150E-05-2.72820E-05-2.94602E-05-6.30274E-06 4.42337E-19 2.49936E-18
 -1      3243 9.48235E-05-2.66150E-05-2.92340E-05-6.21077E-06 1.01601E-19 2.06942E-18
 -1      3244 9.70396E-05-2.80353E-05-2.95629E-05-7.81620E-06-5.68732E-20 1.40992E-18
 -1      3245 9.65238E-05-2.76474E-05-2.95177E-05-7.36934E-06 1.00350E-20 2.02254E-18
 -1      3246 9.50091E-05-2.68279E-05-2.92261E-05-7.35542E-06 2.39016E-19 1.97580E-18
 -1      3247 9.81849E-05-2.91908E-05-2.95590E-05-8.69672E-06-6.48558E-19 1.22781E-18
 -1      3248 9.74131E-05-2.84849E-05-2.95326E-05-8.37712E-06-2.15855E-19 1.26747E-18
 -1      3249 9.55135E-05-2.74986E-05-2.91624E-05-8.53592E-06 1.60405E-19 1.77301E-18
 -1      3250 1.00081E-04-3.11892E-05-2.95177E-05-9.22749E-06-7.49311E-19 1.24672E-18
 -1      3251 9.89302E-05-3.00393E-05-2.95040E-05-9.16340E-06-8.64088E-19 1.26473E-18
 -1      3252 9.65854E-05-2.88884E-05-2.90397E-05-9.65161E-06-7.12841E-19 1.46228E-18
 -1      3253 1.03076E-04-3.42763E-05-2.94867E-05-9.07557E-06-5.23605E-22 1.44693E-18
 -1      3254 1.01419E-04-3.25855E-05-2.94588E-05-9.45707E-06-1.91641E-19 1.31786E-18
 -1      3255 9.85947E-05-3.13190E-05-2.88807E-05-1.05178E-05-4.57523E-19 1.19028E-18
 -1      3256 1.07463E-04-3.84615E-05-2.95901E-05-7.69036E-06-3.68042E-19 1.91602E-18
 -1      3257 1.05274E-04-3.63147E-05-2.94821E-05-8.78709E-06-2.23512E-19 1.94082E-18
 -1      3258 1.02042E-04-3.51105E-05-2.87639E-05-1.07696E-05-6.32634E-19 1.32021E-18
 -1      3259 1.13149E-04-4.30177E-05-3.00909E-05-4.30636E-06-5.00080E-19 3.21900E-18
 -1      3260 1.10679E-04-4.09748E-05-2.97710E-05-6.41827E-06-2.93547E-19 3.21621E-18
 -1      3261 1.07392E-04-4.02274E-05-2.88831E-05-9.70826E-06-1.08903E-18 3.37375E-18
 -1      3262 1.19254E-04-4.61836E-05-3.13810E-05 1.48147E-06 3.21409E-20 3.86596E-18
 -1      3263 1.17070E-04-4.52881E-05-3.06846E-05-1.70430E-06-1.35176E-19 4.06766E-18
 -1      3264 1.14513E-04-4.54160E-05-2.96310E-05-6.17082E-06-3.36432E-19 3.76352E-18
 -1      3265 1.23172E-04-4.42920E-05-3.38843E-05 8.95551E-06 3.86532E-19 4.23065E-18
 -1      3266 1.22556E-04-4.63604E-05-3.26858E-05 5.72870E-06 5.05639E-19 4.26776E-18
 -1      3267 1.22265E-04-4.87849E-05-3.15324E-05 6.34252E-07-1.58666E-19 4.91952E-18
 -1      3268 1.23708E-04-3.57365E-05-3.78533E-05 1.38756E-05 7.17278E-19 3.11142E-18
 -1      3269 1.25426E-04-4.16005E-05-3.60991E-05 1.26066E-05 6.83013E-19 4.06463E-18
 -1      3270 1.16928E-04-1.79150E-05-4.28517E-05 9.35959E-06 9.63712E-19 1.01400E-18
 -1      3271 1.18385E-04-1.86424E-05-4.32492E-05-9.66026E-06 3.49825E-18-6.88664E-19
 -1      3272 1.24514E-04-3.80500E-05-3.73092E-05-1.33750E-05 6.25057E-19-7.98368E-19
 -1      3273 1.22178E-04-3.14185E-05-3.90108E-05-1.35510E-05 2.27772E-18-6.29736E-19
 -1      3274 1.18810E-04-4.63521E-05-3.09970E-05 7.72162E-07-1.18762E-18 1.51065E-18
 -1      3275 1.20629E-04-4.64847E-05-3.18221E-05-2.59265E-06-7.30847E-19 9.31526E-19
 -1      3276 1.12309E-04-4.24885E-05-2.98180E-05 6.48071E-06-1.58862E-18 5.85129E-19
 -1      3277 1.14827E-04-4.44088E-05-3.02313E-05 4.05056E-06-1.46776E-18 1.77793E-18
 -1      3278 1.16837E-04-4.72321E-05-2.99382E-05 5.72868E-06-1.71465E-18 1.63174E-18
 -1      3279 1.06509E-04-3.77391E-05-2.93935E-05 9.57362E-06 3.43181E-20 4.97015E-19
 -1      3280 1.08866E-04-3.99691E-05-2.95517E-05 8.17188E-06-8.52046E-19 6.84362E-19
 -1      3281 1.09351E-04-4.20938E-05-2.89302E-05 1.01795E-05-1.00498E-18 7.65205E-19
 -1      3282 1.02209E-04-3.36642E-05-2.93273E-05 1.07445E-05 3.28502E-19 5.82407E-19
 -1      3283 1.04060E-04-3.55366E-05-2.93701E-05 1.01381E-05 9.34449E-20 4.56169E-19
 -1      3284 1.03488E-04-3.67193E-05-2.86995E-05 1.19119E-05-3.50508E-19-2.20238E-19
 -1      3285 9.93317E-05-3.06840E-05-2.93939E-05 1.07477E-05 1.23782E-18 9.69741E-20
 -1      3286 1.00664E-04-3.20550E-05-2.93977E-05 1.06793E-05 1.46976E-18 6.02025E-19
 -1      3287 9.95807E-05-3.24949E-05-2.88070E-05 1.20572E-05 4.90908E-19 1.03347E-18
 -1      3288 9.74935E-05-2.86523E-05-2.94903E-05 1.00701E-05 2.04244E-18-1.11397E-18
 -1      3289 9.84309E-05-2.96055E-05-2.94877E-05 1.03538E-05 1.78620E-18-1.17230E-19
 -1      3290 9.72158E-05-2.95598E-05-2.90267E-05 1.13897E-05 1.72409E-18 2.26918E-18
 -1      3291 9.63375E-05-2.72858E-05-2.95838E-05 8.97890E-06-2.00399E-20-5.90782E-19
 -1      3292 9.69944E-05-2.79530E-05-2.95808E-05 9.49324E-06 1.21483E-18-5.96559E-19
 -1      3293 9.58661E-05-2.76260E-05-2.92601E-05 1.03024E-05 1.37352E-18 1.94272E-18
 -1      3294 9.54897E-05-2.63603E-05-2.96177E-05 8.13061E-06-9.76025E-19 1.07960E-19
 -1      3295 9.60606E-05-2.69114E-05-2.96268E-05 8.58840E-06-9.62937E-19-6.59915E-19
 -1      3296 9.51110E-05-2.64710E-05-2.94257E-05 9.25391E-06 2.71213E-19 1.89904E-18
 -1      3297 9.46170E-05-2.56941E-05-2.95527E-05 8.35521E-06-1.34236E-18 9.57892E-19
 -1      3298 1.26176E-04-5.66446E-05-3.00354E-05 1.08927E-05 3.07870E-19 1.05055E-18
 -1      3299 1.16693E-04-5.42485E-05-2.65987E-05 1.93090E-05 1.69200E-18 5.01434E-19
 -1      3300 9.23988E-05-1.83490E-05-3.17513E-05 1.81833E-06 6.82806E-19-8.62290E-19
 -1      3301 9.22816E-05-1.81456E-05-3.17837E-05 1.05828E-06 4.88556E-19-1.09276E-18
 -1      3302 8.98475E-05-2.21210E-05-2.90068E-05-6.56400E-06 1.49806E-18 6.41558E-19
 -1      3303 8.89660E-05-2.14841E-05-2.89486E-05-5.45973E-06 1.12185E-18 3.00974E-20
 -1      3304 8.78051E-05-2.12060E-05-2.85272E-05-5.19294E-06 5.42412E-19 8.78409E-19
 -1      3305 8.74361E-05-2.02468E-05-2.88045E-05-7.78617E-07-1.85287E-19-5.86360E-19
 -1      3306 8.74396E-05-2.02495E-05-2.88046E-05 7.98835E-07 1.64280E-19 9.61275E-19
 -1      3307 8.66113E-05-2.02962E-05-2.83981E-05-1.82020E-06 2.04469E-19-4.23757E-19
 -1      3308 5.77817E-05-2.17010E-05-1.50818E-05-2.43881E-05 9.89334E-19 2.83041E-18
 -1      3309 6.68736E-05-2.80044E-05-1.63064E-05-3.02505E-05 8.74350E-19 5.45119E-19
 -1      3310 4.61477E-05-1.41570E-05-1.33347E-05-9.08429E-06 7.53806E-19 3.32376E-18
 -1      3311 5.09161E-05-1.74181E-05-1.39919E-05-1.88088E-05 3.42757E-19 4.44068E-18
 -1      3312 6.11298E-05-2.04440E-05-1.71020E-05-1.99320E-05 1.11904E-18 3.20803E-18
 -1      3313 9.52400E-05-2.86717E-05-2.85270E-05-1.20385E-06 4.46088E-19 2.54709E-20
 -1      3314 9.52129E-05-2.86743E-05-2.85166E-05-1.21427E-06 5.02687E-19 2.89562E-19
 -1      3315 9.54705E-05-2.87553E-05-2.85944E-05-1.21341E-06 4.24856E-19-1.52511E-19
 -1      3316 9.54175E-05-2.87176E-05-2.85874E-05-1.21076E-06 2.68641E-19 7.56586E-20
 -1      3317 9.53740E-05-2.79421E-05-2.89031E-05-4.79723E-07 7.02447E-19-3.10662E-20
 -1      3318 9.54274E-05-2.76876E-05-2.90181E-05-1.44341E-07 7.25029E-19 4.21102E-20
 -1      3319 1.25653E-04-5.71485E-05-2.96187E-05 1.32753E-05-2.53610E-18 1.86928E-18
 -1      3320 1.17576E-04-5.56446E-05-2.63867E-05 2.14265E-05-3.90297E-18 1.80276E-18
 -1      3321 1.32108E-04-2.28909E-05-4.73194E-05 1.22693E-05-2.35475E-18 1.03338E-19
 -1      3322 1.26471E-04-1.82169E-05-4.69715E-05 1.14268E-05-2.82613E-18-1.20840E-18
 -1      3323 1.28825E-04-2.83267E-05-4.33964E-05 1.37191E-05-1.15239E-18-1.48623E-18
 -1      3324 1.22802E-04-2.68648E-05-4.16269E-05 1.38693E-05-6.22040E-19-2.54639E-18
 -1      3325 1.19078E-04-2.30917E-05-4.15240E-05 1.32609E-05 6.81067E-19 1.30732E-18
 -1      3326 1.20210E-04-1.95051E-05-4.33835E-05 1.04620E-05-1.81011E-18-1.82866E-18
 -1      3327 9.55038E-05-2.55669E-05-2.99586E-05-2.15323E-06-6.94436E-19-3.13680E-19
 -1      3328 9.55410E-05-2.62611E-05-2.97028E-05-1.33831E-06-6.34673E-19-4.15142E-19
 -1      3329 9.57226E-05-2.61961E-05-2.97959E-05-1.18036E-06-6.20691E-19-5.15799E-19
 -1      3330 1.32098E-04-4.98161E-05-3.57650E-05-5.93198E-06-2.13505E-18 3.34665E-18
 -1      3331 1.30641E-04-5.40093E-05-3.27246E-05 1.45170E-06-5.50002E-19 2.31544E-18
 -1      3332 1.31618E-04-5.10511E-05-3.47984E-05-3.06758E-06-6.60580E-19 6.42898E-19
 -1      3333 1.30557E-04-5.57134E-05-3.19960E-05 5.07152E-06-1.36321E-18 8.29298E-19
 -1      3334 1.25584E-04-5.44552E-05-3.04233E-05 7.44944E-06-1.93158E-18 1.64676E-18
 -1      3335 9.20201E-05-2.38191E-05-2.92148E-05-8.12819E-06 1.61906E-18-4.79992E-20
 -1      3336 9.09435E-05-2.30227E-05-2.91343E-05-7.52949E-06 2.22987E-18-5.78238E-19
 -1      3337 8.99112E-05-2.27813E-05-2.87680E-05-7.69152E-06 1.72852E-18 4.26474E-19
 -1      3338 1.23799E-04-5.55733E-05-2.92105E-05-1.17618E-05-6.96678E-19 2.55987E-18
 -1      3339 1.30894E-04-5.44339E-05-3.29834E-05-2.11220E-06 6.87076E-19 2.96509E-18
 -1      3340 9.34789E-05-1.98515E-05-3.15506E-05-6.24473E-06-8.39504E-19-8.69076E-19
 -1      3341 7.13969E-05-2.96799E-05-1.77640E-05 2.95254E-05 1.88208E-18-1.34038E-18
 -1      3342 5.97262E-05-2.18414E-05-1.56935E-05 2.44921E-05 1.26774E-18-1.37526E-18
 -1      3343 1.29349E-04-5.55233E-05-3.16562E-05-5.78863E-06 1.83117E-18-6.34639E-19
 -1      3344 1.31567E-04-5.20716E-05-3.43966E-05 1.90507E-06 1.27509E-18-1.69415E-18
 -1      3345 4.52201E-05-1.29721E-05-1.34373E-05-8.00269E-06 1.04446E-18-1.84336E-19
 -1      3346 5.04117E-05-1.67812E-05-1.41080E-05-1.81637E-05-3.27034E-19-1.54372E-19
 -1      3347 1.20803E-04-1.55885E-05-4.57719E-05 8.11248E-06-2.49811E-18-1.07838E-18
 -1      3348 1.19341E-04-1.28409E-05-4.60936E-05 1.33534E-06-3.07791E-18-4.69839E-21
 -1      3349 1.19868E-04-1.38242E-05-4.60696E-05-5.84388E-06-3.76411E-18 1.41449E-18
 -1      3350 9.22195E-05-1.80458E-05-3.18022E-05 4.10438E-07 4.10348E-19-1.05443E-18
 -1      3351 9.22171E-05-1.80411E-05-3.18027E-05-3.59230E-07 2.52770E-19-9.52163E-19
 -1      3352 9.31714E-05-1.96255E-05-3.15023E-05 6.29063E-07 4.46300E-19-9.49133E-19
 -1      3353 1.25879E-04-5.32700E-05-3.11592E-05 4.10125E-06 2.03407E-19 2.26653E-18
 -1      3354 1.22707E-04-2.64552E-05-4.17240E-05-1.43081E-05 2.56503E-18-2.97467E-19
 -1      3355 5.08636E-05-1.97740E-05-1.27042E-05 2.32803E-05 3.97364E-19 2.25353E-18
 -1      3356 4.99110E-05-1.64495E-05-1.40880E-05 1.60028E-05 5.87417E-19 1.66251E-18
 -1      3357 5.98692E-05-2.36927E-05-1.52445E-05 2.59754E-05-9.49286E-19 2.33760E-18
 -1      3358 1.30752E-04-5.17191E-05-3.39583E-05 2.81113E-06 1.20388E-18 4.27770E-18
 -1      3359 1.28314E-04-4.65292E-05-3.52133E-05 8.56361E-06 1.14919E-18 5.55400E-18
 -1      3360 9.48598E-05-2.31517E-05-3.07042E-05 3.54659E-06 9.26850E-19-5.19250E-19
 -1      3361 9.37661E-05-2.08517E-05-3.12711E-05 4.21717E-06 1.05305E-18-5.92990E-19
 -1      3362 9.09647E-05-2.30459E-05-2.91333E-05 7.53270E-06 1.10572E-18-9.85764E-20
 -1      3363 9.20473E-05-2.38481E-05-2.92132E-05 8.12043E-06 1.14796E-18 3.13403E-18
 -1      3364 1.12229E-04-5.34137E-05-2.51170E-05 2.47975E-05-3.66019E-18 2.62405E-18
 -1      3365 1.04676E-04-4.88980E-05-2.37707E-05 2.68202E-05-2.61609E-18 1.55887E-18
 -1      3366 1.16010E-04-5.26494E-05-2.70633E-05 1.78627E-05-2.93519E-18 3.62929E-18
 -1      3367 1.29527E-04-4.61867E-05-3.57515E-05 8.76280E-06 1.16287E-18-2.34951E-18
 -1      3368 1.22996E-04-2.69260E-05-4.17070E-05-1.51496E-05-3.83902E-18 1.80328E-18
 -1      3369 1.20080E-04-1.96380E-05-4.33453E-05-1.07642E-05-3.86258E-18 1.66843E-18
 -1      3370 5.10552E-05-1.31808E-05-1.62005E-05 4.52587E-06 3.35040E-19-1.61455E-18
 -1      3371 4.75355E-05-1.25440E-05-1.45651E-05-1.77641E-06 4.36424E-19-1.26896E-18
 -1      3372 5.29332E-05-1.37684E-05-1.65630E-05-6.29962E-06 4.59244E-19-8.94149E-19
 -1      3373 1.24383E-04-5.51066E-05-2.97276E-05-1.06863E-05 2.11266E-18-4.27642E-19
 -1      3374 1.25613E-04-4.86984E-05-3.30128E-05-4.99857E-06-2.57544E-19 2.83812E-18
 -1      3375 1.26357E-04-4.55272E-05-3.47281E-05-8.80884E-06-1.84309E-18 2.68246E-18
 -1      3376 1.27109E-04-4.03198E-05-3.75274E-05-1.35552E-05-2.82361E-18 2.40094E-18
 -1      3377 1.25072E-04-3.27630E-05-3.97727E-05-1.44777E-05-3.61503E-18 2.14141E-18
 -1      3378 5.87268E-05-1.90139E-05-1.66985E-05 1.83874E-05 7.35225E-19-9.58206E-19
 -1      3379 9.50276E-05-2.37198E-05-3.05605E-05-3.92399E-06-7.64185E-19-4.28952E-19
 -1      3380 9.51830E-05-2.46775E-05-3.02365E-05-2.87583E-06-6.99629E-19-3.74161E-19
 -1      3381 9.52776E-05-2.45405E-05-3.03119E-05-2.54701E-06-6.18149E-19-4.86146E-19
 -1      3382 7.66231E-05-3.27582E-05-1.85771E-05-2.97478E-05 1.00220E-18 1.09220E-18
 -1      3383 9.53523E-05-2.81516E-05-2.87915E-05-7.28766E-07 5.74690E-19 1.14671E-19
 -1      3384 9.56981E-05-2.79888E-05-2.90234E-05-4.86740E-07 5.25803E-19 8.71381E-20
 -1      3385 9.53232E-05-2.83110E-05-2.87209E-05-9.12046E-07 3.64080E-19 1.73148E-19
 -1      3386 9.40417E-05-2.14142E-05-3.11334E-05-5.01103E-06-7.95806E-19-7.37497E-19
 -1      3387 1.04476E-04-5.05402E-05-2.28240E-05-2.98525E-05 1.41200E-18 1.07024E-18
 -1      3388 1.11605E-04-5.22756E-05-2.55287E-05-2.28269E-05 2.28500E-18-7.08507E-19
 -1      3389 9.63369E-05-4.46915E-05-2.20216E-05-2.99590E-05 1.87737E-18 4.75635E-19
 -1      3390 9.56974E-05-2.73230E-05-2.93082E-05 2.25490E-07 7.07168E-19 9.03525E-20
 -1      3391 9.54156E-05-2.73432E-05-2.91816E-05 2.77911E-07 7.07441E-19-4.91775E-20
 -1      3392 9.55024E-05-2.69503E-05-2.93580E-05 8.39411E-07 8.57552E-19-7.14282E-20
 -1      3393 9.55904E-05-2.86219E-05-2.87044E-05-1.10903E-06 2.52478E-19 3.55866E-19
 -1      3394 9.52820E-05-2.85279E-05-2.86088E-05-1.12829E-06 9.64651E-20 2.76524E-19
 -1      3395 9.52898E-05-2.84317E-05-2.86481E-05-1.04301E-06 1.38283E-19 1.68575E-19
 -1      3396 1.31589E-04-4.80440E-05-3.59461E-05-7.42451E-06-5.35087E-19 9.22525E-19
 -1      3397 1.28065E-04-4.98971E-05-3.35696E-05-3.54442E-06-1.48211E-18 6.82788E-19
 -1      3398 1.28872E-04-4.27225E-05-3.70744E-05-1.09656E-05-2.97864E-19-3.66686E-19
 -1      3399 1.23493E-04-4.18960E-05-3.50453E-05-1.06891E-05-1.35353E-19-4.86806E-19
 -1      3400 1.24690E-04-4.88038E-05-3.25656E-05-2.63478E-06-1.17648E-18 1.06767E-18
 -1      3401 1.23703E-04-4.54140E-05-3.36507E-05-7.69209E-06-8.81265E-19 8.07666E-19
 -1      3402 8.98709E-05-2.21445E-05-2.90068E-05 6.56375E-06 1.48413E-18 1.55325E-19
 -1      3403 8.99169E-05-2.28015E-05-2.87648E-05 7.68787E-06 1.03020E-18 8.81157E-19
 -1      3404 8.89921E-05-2.15091E-05-2.89491E-05 5.47375E-06 1.28788E-18 9.63993E-19
 -1      3405 9.33905E-05-2.01739E-05-3.13903E-05 3.64195E-06 9.45045E-19-4.38379E-19
 -1      3406 9.25793E-05-1.86507E-05-3.16944E-05 2.42168E-06 7.99814E-19-7.59576E-19
 -1      3407 9.33827E-05-2.00205E-05-3.14248E-05 1.79155E-06 6.40923E-19-6.89959E-19
 -1      3408 9.28224E-05-1.90795E-05-3.16271E-05 3.15439E-06 9.04531E-19-6.26294E-19
 -1      3409 8.77208E-05-2.04915E-05-2.88344E-05 2.56780E-06 2.44055E-19 4.04701E-19
 -1      3410 8.82233E-05-2.08538E-05-2.88659E-05 4.01572E-06 1.16572E-18 4.10936E-19
 -1      3411 8.78309E-05-2.12288E-05-2.85287E-05 5.20562E-06 1.33909E-18 4.18812E-19
 -1      3412 8.66199E-05-2.03043E-05-2.83994E-05 1.86238E-06 4.63472E-19 4.39982E-19
 -1      3413 8.74567E-05-3.99631E-05-2.01139E-05-3.15817E-05-1.74155E-18 1.63636E-19
 -1      3414 9.58876E-05-4.30298E-05-2.27342E-05-2.72327E-05-1.64118E-18 3.38747E-19
 -1      3415 7.97612E-05-3.36918E-05-1.96293E-05-2.88620E-05-1.76792E-18-3.93182E-19
 -1      3416 8.09639E-05-3.88215E-05-1.76220E-05 3.51622E-05-3.21846E-18 3.47194E-18
 -1      3417 7.45437E-05-3.29893E-05-1.75552E-05 3.20905E-05-2.39350E-18 2.76477E-18
 -1      3418 9.11708E-05-4.26185E-05-2.06879E-05 3.15435E-05-3.45785E-18 5.78947E-19
 -1      3419 5.78249E-05-2.01893E-05-1.56732E-05-2.21367E-05-9.26376E-19-1.87035E-19
 -1      3420 6.64668E-05-2.47567E-05-1.77719E-05-2.49931E-05-1.23880E-18 1.09744E-19
 -1      3421 5.78968E-05-1.78026E-05-1.69837E-05-1.69977E-05-2.19249E-19 5.02608E-19
 -1      3422 1.23302E-04-3.09793E-05-3.98965E-05 1.54652E-05 1.23386E-18 2.94516E-18
 -1      3423 4.62172E-05-1.31454E-05-1.36332E-05-3.64117E-06 6.21510E-19 2.49377E-18
 -1      3424 5.37183E-05-1.48948E-05-1.63662E-05-8.51592E-06 2.37804E-19 3.45960E-18
 -1      3425 4.81320E-05-1.36308E-05-1.44948E-05 3.03008E-06 7.61502E-19 2.02981E-18
 -1      3426 9.35520E-05-2.51643E-05-2.93064E-05-8.83545E-06 1.48776E-18 2.51612E-18
 -1      3427 9.27192E-05-2.44370E-05-2.92761E-05-8.52413E-06 1.33423E-18 1.02761E-19
 -1      3428 9.19496E-05-2.43231E-05-2.89849E-05-8.97477E-06 2.64249E-18-4.37168E-19
 -1      3429 9.36213E-05-2.55675E-05-2.91585E-05-9.48916E-06 2.16566E-18 1.57271E-18
 -1      3430 9.04261E-05-3.84914E-05-2.22840E-05 2.64708E-05 2.15530E-18 3.59989E-21
 -1      3431 8.12018E-05-3.42497E-05-1.97980E-05 2.91685E-05 1.97941E-18 1.13449E-19
 -1      3432 7.74131E-05-2.92591E-05-2.05634E-05 2.49793E-05 1.76331E-18-3.38548E-19
 -1      3433 9.25495E-05-1.86104E-05-3.16992E-05-2.37922E-06-2.04037E-19-9.00145E-19
 -1      3434 9.27788E-05-1.90123E-05-3.16326E-05-3.08843E-06-4.29720E-19-9.45168E-19
 -1      3435 9.37711E-05-2.07605E-05-3.12705E-05-2.81821E-06-4.43998E-19-8.95620E-19
 -1      3436 9.30577E-05-1.95061E-05-3.15324E-05-3.62685E-06-4.43184E-19-1.01582E-18
 -1      3437 9.34202E-05-2.01658E-05-3.14190E-05-4.23216E-06-5.18998E-19-1.00205E-18
 -1      3438 9.54154E-05-2.55345E-05-2.99239E-05 2.52224E-06 1.01970E-18-2.17780E-20
 -1      3439 9.52283E-05-2.45683E-05-3.02951E-05 2.99855E-06 1.08639E-18-2.60382E-19
 -1      3440 9.50536E-05-2.39277E-05-3.04922E-05 2.79963E-06 9.19070E-19-4.73601E-19
 -1      3441 9.53836E-05-2.62177E-05-2.96555E-05 1.62188E-06 1.05220E-18-9.48043E-20
 -1      3442 1.26226E-04-5.13400E-05-3.21208E-05 4.69754E-07-1.25811E-19 4.83842E-18
 -1      3443 1.28938E-04-3.25016E-05-4.17591E-05-1.47737E-05-3.93415E-18 2.66942E-18
 -1      3444 1.30262E-04-4.55475E-05-3.63779E-05-9.34843E-06-2.17687E-18 2.87658E-18
 -1      3445 1.24590E-04-5.13143E-05-3.15052E-05 1.53450E-06 5.36642E-19 3.05359E-18
 -1      3446 9.61775E-05-2.77995E-05-2.92976E-05 2.58780E-07-7.80126E-19-3.06733E-19
 -1      3447 9.61727E-05-2.81094E-05-2.91743E-05 5.20067E-07-7.62155E-19-3.49983E-19
 -1      3448 9.61777E-05-2.83607E-05-2.90590E-05 6.91247E-07-6.51429E-19-2.72866E-19
 -1      3449 9.61460E-05-2.85456E-05-2.89736E-05 8.39833E-07-3.72559E-19-1.78412E-19
 -1      3450 9.63693E-05-2.81689E-05-2.92303E-05 5.03059E-07-6.23091E-19-1.81056E-19
 -1      3451 9.61059E-05-2.86828E-05-2.88920E-05 9.30993E-07-3.14087E-19-2.11476E-19
 -1      3452 9.60623E-05-2.87793E-05-2.88359E-05 1.00549E-06-3.39547E-19-2.74419E-19
 -1      3453 9.63360E-05-2.86094E-05-2.90277E-05 7.84569E-07-4.06549E-19-2.63074E-20
 -1      3454 9.59962E-05-2.88358E-05-2.87810E-05 1.04598E-06-2.20363E-19-4.72938E-19
 -1      3455 9.59480E-05-2.88690E-05-2.87473E-05 1.07711E-06-1.58702E-19-3.83032E-19
 -1      3456 9.62323E-05-2.88363E-05-2.88861E-05 9.33126E-07-2.47093E-19-1.08551E-19
 -1      3457 9.58669E-05-2.88674E-05-2.87133E-05 1.09073E-06-2.22890E-19-2.64831E-19
 -1      3458 9.58174E-05-2.88544E-05-2.86969E-05 1.10234E-06-2.52871E-19-2.54952E-19
 -1      3459 9.60878E-05-2.89093E-05-2.87927E-05 1.00147E-06-1.61104E-19-3.79837E-19
 -1      3460 9.57271E-05-2.88097E-05-2.86792E-05 1.10788E-06-3.15705E-19 1.21632E-19
 -1      3461 9.56771E-05-2.87616E-05-2.86760E-05 1.11838E-06-2.21215E-19 2.59693E-19
 -1      3462 9.59189E-05-2.88693E-05-2.87371E-05 1.03213E-06-1.14325E-19-1.16955E-19
 -1      3463 9.55794E-05-2.86834E-05-2.86709E-05 1.13060E-06-2.60943E-19-7.97683E-20
 -1      3464 9.55284E-05-2.86071E-05-2.86781E-05 1.15438E-06-2.86475E-19-1.86353E-19
 -1      3465 9.57334E-05-2.87436E-05-2.87110E-05 1.05872E-06-2.79537E-19-1.84469E-19
 -1      3466 9.54224E-05-2.85009E-05-2.86827E-05 1.18503E-06-2.97846E-19-8.09458E-20
 -1      3467 9.53685E-05-2.84002E-05-2.86979E-05 1.23367E-06-4.33970E-19-1.97005E-19
 -1      3468 9.55321E-05-2.85489E-05-2.87076E-05 1.10777E-06-4.34311E-19-5.73037E-19
 -1      3469 9.52511E-05-2.82682E-05-2.87098E-05 1.29251E-06-5.49692E-19-7.24406E-20
 -1      3470 9.51920E-05-2.81451E-05-2.87313E-05 1.37574E-06-4.81488E-19 2.16513E-19
 -1      3471 9.53110E-05-2.82943E-05-2.87213E-05 1.20077E-06-2.37460E-19-2.41854E-19
 -1      3472 9.50585E-05-2.79880E-05-2.87481E-05 1.47125E-06-2.74738E-19 2.54829E-19
 -1      3473 9.49912E-05-2.78431E-05-2.87744E-05 1.59750E-06-2.68826E-19 1.57673E-19
 -1      3474 9.50624E-05-2.79838E-05-2.87472E-05 1.35583E-06-4.03843E-19 2.88094E-19
 -1      3475 9.48356E-05-2.76605E-05-2.87939E-05 1.73731E-06-5.96914E-19 4.23886E-19
 -1      3476 9.47569E-05-2.74945E-05-2.88231E-05 1.91409E-06-8.11550E-19 5.25542E-19
 -1      3477 9.47760E-05-2.76181E-05-2.87804E-05 1.58876E-06-2.65302E-19 2.31069E-19
 -1      3478 9.45729E-05-2.72865E-05-2.88425E-05 2.10539E-06-1.02728E-18 4.86989E-19
 -1      3479 9.44800E-05-2.71013E-05-2.88726E-05 2.33937E-06-8.20496E-19 2.99294E-19
 -1      3480 9.44394E-05-2.71975E-05-2.88155E-05 1.91390E-06-8.26514E-19 4.96876E-19
 -1      3481 9.42611E-05-2.68699E-05-2.88885E-05 2.58905E-06-2.81086E-19 2.56671E-19
 -1      3482 9.41525E-05-2.66706E-05-2.89165E-05 2.88586E-06-3.46403E-21 1.88659E-19
 -1      3483 9.40398E-05-2.67243E-05-2.88461E-05 2.34481E-06-5.10416E-19 5.06081E-19
 -1      3484 9.38937E-05-2.64217E-05-2.89243E-05 3.20057E-06-1.68611E-19 5.90647E-19
 -1      3485 9.37707E-05-2.62187E-05-2.89460E-05 3.56450E-06-2.34421E-19 9.10868E-19
 -1      3486 9.35657E-05-2.62068E-05-2.88636E-05 2.89442E-06-7.57356E-20 9.66250E-19
 -1      3487 9.34704E-05-2.59651E-05-2.89397E-05 3.95107E-06-4.14698E-20 1.11912E-18
 -1      3488 9.33402E-05-2.57782E-05-2.89494E-05 4.38477E-06 1.66300E-19 7.87073E-19
 -1      3489 9.30102E-05-2.56643E-05-2.88570E-05 3.57576E-06 2.21804E-20 1.01135E-18
 -1      3490 9.30030E-05-2.55436E-05-2.89211E-05 4.85104E-06-6.39599E-20 6.39136E-19
 -1      3491 9.28833E-05-2.54063E-05-2.89115E-05 5.35542E-06 1.28371E-19 4.40496E-19
 -1      3492 9.23751E-05-2.51334E-05-2.88116E-05 4.40361E-06-5.35865E-20 5.86566E-19
 -1      3493 9.25257E-05-2.52311E-05-2.88512E-05 5.91187E-06 6.24302E-20 1.96126E-19
 -1      3494 9.24528E-05-2.51983E-05-2.88135E-05 6.48622E-06-6.66819E-19 2.27417E-20
 -1      3495 9.16795E-05-2.46774E-05-2.87087E-05 5.39774E-06-3.26058E-19 3.82942E-19
 -1      3496 9.21110E-05-2.51468E-05-2.87096E-05 7.14863E-06-8.12709E-19-3.27642E-19
 -1      3497 9.21517E-05-2.53038E-05-2.86347E-05 7.79061E-06-6.48636E-19-2.06438E-19
 -1      3498 9.09722E-05-2.43996E-05-2.85258E-05 6.58863E-06-8.55182E-19 5.65266E-19
 -1      3499 9.18958E-05-2.54747E-05-2.84753E-05 8.58285E-06-4.42269E-19-1.97684E-19
 -1      3500 9.21649E-05-2.59483E-05-2.83566E-05 9.28615E-06-4.49414E-19 3.00201E-19
 -1      3501 9.03524E-05-2.44609E-05-2.82378E-05 8.02568E-06-4.08955E-19 6.87914E-19
 -1      3502 9.21204E-05-2.64861E-05-2.81331E-05 1.02400E-05-8.00516E-19 2.23952E-19
 -1      3503 9.28038E-05-2.74559E-05-2.79730E-05 1.09844E-05-2.79273E-19 1.77919E-19
 -1      3504 9.00032E-05-2.51042E-05-2.78214E-05 9.78479E-06-4.97033E-19 5.67297E-19
 -1      3505 9.31882E-05-2.85624E-05-2.76875E-05 1.21254E-05 4.54841E-19 6.10956E-21
 -1      3506 9.45685E-05-3.02622E-05-2.75100E-05 1.28430E-05 6.55710E-19-2.70065E-19
 -1      3507 9.02469E-05-2.66859E-05-2.72648E-05 1.19634E-05-1.01846E-19 2.04036E-19
 -1      3508 9.57490E-05-3.21931E-05-2.71904E-05 1.41585E-05 8.75548E-19-4.47532E-19
 -1      3509 9.82183E-05-3.49331E-05-2.70760E-05 1.46307E-05 1.27632E-18-9.93742E-20
 -1      3510 9.16338E-05-2.97132E-05-2.65894E-05 1.46358E-05 8.22990E-19-5.57298E-19
 -1      3511 6.50141E-05-2.06892E-05-1.89866E-05 1.89977E-05 1.50721E-18-5.31116E-19
 -1      3512 5.62910E-05-1.51021E-05-1.72101E-05 1.21344E-05 8.75739E-19-4.41092E-19
 -1      3513 1.13505E-04-5.01595E-05-2.70867E-05-1.70330E-05 2.10382E-18-8.44540E-19
 -1      3514 1.08270E-04-4.60870E-05-2.64968E-05-1.84482E-05 2.09558E-18-2.65975E-19
 -1      3515 9.83781E-05-3.47545E-05-2.71972E-05-1.55489E-05 1.00260E-18-1.07396E-19
 -1      3516 9.61050E-05-3.21959E-05-2.73508E-05-1.50586E-05 2.15609E-19 5.31333E-19
 -1      3517 9.51170E-05-3.03674E-05-2.77023E-05-1.38498E-05-8.50267E-20 1.60225E-18
 -1      3518 9.38540E-05-2.86989E-05-2.79152E-05-1.31764E-05 8.32808E-19 2.31116E-18
 -1      3519 9.24336E-05-2.98978E-05-2.68573E-05-1.54137E-05 1.05909E-18 7.86361E-19
 -1      3520 9.35808E-05-2.75966E-05-2.82532E-05-1.21049E-05 3.03629E-19 2.53413E-18
 -1      3521 9.29887E-05-2.65681E-05-2.84671E-05-1.13739E-05 1.57464E-18 1.85099E-18
 -1      3522 9.13579E-05-2.69604E-05-2.76230E-05-1.29136E-05 6.69746E-19 2.84520E-18
 -1      3523 9.53702E-05-2.84630E-05-2.86715E-05-1.25539E-06-4.58444E-19 5.67557E-19
 -1      3524 9.53947E-05-2.85424E-05-2.86529E-05-1.21455E-06-1.12221E-19 2.75326E-19
 -1      3525 9.54755E-05-2.86297E-05-2.86455E-05-1.18933E-06 2.04113E-19 4.74749E-20
 -1      3526 9.55005E-05-2.86880E-05-2.86350E-05-1.17273E-06-1.85641E-20 1.11712E-19
 -1      3527 9.55134E-05-2.85920E-05-2.86814E-05-1.16554E-06-4.26951E-20 3.99514E-19
 -1      3528 9.51295E-05-2.80073E-05-2.87629E-05-1.59323E-06-3.64433E-19 1.13877E-18
 -1      3529 9.51577E-05-2.81239E-05-2.87322E-05-1.47489E-06-4.46971E-19 9.96498E-19
 -1      3530 9.49830E-05-2.77210E-05-2.88224E-05-1.89872E-06-3.25377E-19 1.43033E-18
 -1      3531 9.50152E-05-2.78547E-05-2.87873E-05-1.72947E-06-2.14009E-19 1.39443E-18
 -1      3532 9.49496E-05-2.78063E-05-2.87749E-05-1.62349E-06-4.23976E-19 1.17736E-18
 -1      3533 9.48110E-05-2.73981E-05-2.88866E-05-2.31482E-06-2.68608E-19 1.45470E-18
 -1      3534 9.48484E-05-2.75470E-05-2.88485E-05-2.08785E-06-3.97819E-19 1.32046E-18
 -1      3535 9.47027E-05-2.74489E-05-2.88215E-05-1.94691E-06-1.74190E-19 1.15892E-18
 -1      3536 9.46092E-05-2.70452E-05-2.89509E-05-2.85400E-06-4.57212E-19 1.54136E-18
 -1      3537 9.46516E-05-2.72046E-05-2.89118E-05-2.56377E-06-3.21603E-19 1.46637E-18
 -1      3538 9.44108E-05-2.70469E-05-2.88680E-05-2.38023E-06-2.83345E-19 1.39089E-18
 -1      3539 9.43771E-05-2.66773E-05-2.90085E-05-3.52624E-06 9.72763E-20 1.90368E-18
 -1      3540 9.44217E-05-2.68375E-05-2.89716E-05-3.16908E-06-4.53144E-20 1.66431E-18
 -1      3541 9.40662E-05-2.66082E-05-2.89075E-05-2.93631E-06-2.99120E-19 1.35528E-18
 -1      3542 9.41230E-05-2.63240E-05-2.90502E-05-4.33797E-06-3.30375E-19 2.19673E-18
 -1      3543 9.41618E-05-2.64672E-05-2.90198E-05-3.91298E-06 7.31742E-20 1.73531E-18
 -1      3544 9.36655E-05-2.61509E-05-2.89310E-05-3.62674E-06-2.04821E-20 1.51404E-18
 -1      3545 9.38708E-05-2.60380E-05-2.90635E-05-5.29107E-06 6.65483E-20 1.93360E-18
 -1      3546 9.38868E-05-2.61335E-05-2.90455E-05-4.80123E-06-9.41337E-20 1.79290E-18
 -1      3547 9.32149E-05-2.57099E-05-2.89265E-05-4.46221E-06 1.15947E-19 1.37451E-18
 -1      3548 9.36730E-05-2.59074E-05-2.90327E-05-6.38184E-06 3.72280E-19 1.32889E-18
 -1      3549 9.36325E-05-2.59050E-05-2.90345E-05-5.83535E-06-8.35173E-21 1.78477E-18
 -1      3550 9.27382E-05-2.53464E-05-2.88782E-05-5.45369E-06 3.34362E-19 1.21900E-18
 -1      3551 9.36295E-05-2.60717E-05-2.89403E-05-7.59943E-06 4.18115E-19 1.48495E-18
 -1      3552 9.34720E-05-2.58931E-05-2.89698E-05-7.01187E-06 5.15666E-19 1.49875E-18
 -1      3553 9.22901E-05-2.51610E-05-2.87674E-05-6.61484E-06 6.22672E-19 9.79827E-19
 -1      3554 9.39153E-05-2.67407E-05-2.87712E-05-8.92093E-06-2.38156E-19 1.64853E-18
 -1      3555 9.35395E-05-2.62702E-05-2.88341E-05-8.31976E-06 2.08925E-19 1.39737E-18
 -1      3556 9.19774E-05-2.53115E-05-2.85734E-05-7.96481E-06 2.26847E-19 1.12293E-18
 -1      3557 9.48171E-05-2.82088E-05-2.85220E-05-1.02958E-05-7.08072E-19 1.09331E-18
 -1      3558 9.40644E-05-2.72882E-05-2.86160E-05-9.73100E-06-5.99825E-19 1.54346E-18
 -1      3559 9.19918E-05-2.60351E-05-2.82793E-05-9.52724E-06-2.46117E-19 1.19954E-18
 -1      3560 9.67732E-05-3.08519E-05-2.82194E-05-1.16055E-05-6.19336E-19 1.51405E-18
 -1      3561 9.54135E-05-2.92869E-05-2.83237E-05-1.11738E-05-5.74593E-19 1.34443E-18
 -1      3562 9.26550E-05-2.76681E-05-2.78820E-05-1.13152E-05-8.40507E-19 1.07970E-18
 -1      3563 1.00365E-04-3.50933E-05-2.79497E-05-1.25874E-05-1.29690E-18 1.77367E-18
 -1      3564 9.81366E-05-3.26758E-05-2.80082E-05-1.24773E-05-6.83463E-19 1.69075E-18
 -1      3565 9.44651E-05-3.06499E-05-2.74128E-05-1.32783E-05-8.70225E-19 7.30417E-19
 -1      3566 1.06129E-04-4.10496E-05-2.79213E-05-1.24684E-05-7.82010E-19 1.49867E-18
 -1      3567 1.03064E-04-3.78711E-05-2.78210E-05-1.30416E-05-1.25826E-18 1.55902E-18
 -1      3568 9.83385E-05-3.57308E-05-2.69763E-05-1.52055E-05-8.98007E-19 5.37213E-19
 -1      3569 1.22648E-04-5.10980E-05-3.06523E-05-3.83936E-06-2.97984E-19 4.45238E-18
 -1      3570 1.05222E-04-4.00561E-05-2.78104E-05 1.41238E-05-8.12678E-19 2.24084E-18
 -1      3571 1.08796E-04-4.33472E-05-2.80236E-05 1.30640E-05-1.14320E-18 2.40121E-18
 -1      3572 9.64970E-05-3.04325E-05-2.82890E-05 1.29212E-05 5.20326E-19 1.76641E-18
 -1      3573 9.80772E-05-3.22724E-05-2.81639E-05 1.32463E-05 6.22131E-20 1.58950E-18
 -1      3574 9.48535E-05-2.79081E-05-2.86885E-05 1.15670E-05 1.40770E-18 3.06568E-18
 -1      3575 9.57820E-05-2.91173E-05-2.85442E-05 1.20740E-05 1.01002E-18 2.48331E-18
 -1      3576 9.38385E-05-2.87824E-05-2.79184E-05 1.31801E-05 1.19635E-19 2.86861E-18
 -1      3577 9.41466E-05-2.63370E-05-2.90623E-05 1.00920E-05 7.14309E-19 4.08262E-18
 -1      3578 9.46399E-05-2.70980E-05-2.89271E-05 1.07077E-05 9.63034E-19 3.23829E-18
 -1      3579 9.29710E-05-2.65462E-05-2.84621E-05 1.13734E-05 8.79381E-19 4.47663E-18
 -1      3580 9.40483E-05-2.13741E-05-3.11362E-05 2.81520E-06 8.15240E-19-4.64874E-19
 -1      3581 1.21191E-04-5.25479E-05-2.92355E-05 9.54662E-06 1.40835E-18 2.00930E-18
 -1      3582 8.72345E-05-2.14622E-05-2.81559E-05-6.48203E-06 1.59152E-18 7.62543E-19
 -1      3583 8.62154E-05-2.08425E-05-2.80478E-05-4.97100E-06 8.84320E-19-3.55732E-19
 -1      3584 9.29054E-05-2.44503E-05-2.93545E-05 8.32934E-06 9.46009E-19 5.52552E-18
 -1      3585 9.38325E-05-2.51476E-05-2.94314E-05 8.42495E-06 2.66497E-19 4.84529E-18
 -1      3586 9.40035E-05-2.55031E-05-2.93522E-05 8.90616E-06 1.93971E-19 4.72119E-18
 -1      3587 9.21296E-05-2.43149E-05-2.90673E-05 8.79339E-06 7.40130E-19 4.32520E-18
 -1      3588 8.54075E-05-2.02003E-05-2.79419E-05-2.96479E-06 6.83426E-19-6.76300E-19
 -1      3589 8.50300E-05-1.99678E-05-2.79042E-05-1.09385E-06 1.36197E-19 2.10804E-19
 -1      3590 8.47366E-05-2.04232E-05-2.75408E-05-4.37717E-06 7.38121E-19 1.56711E-19
 -1      3591 6.15972E-05-1.80642E-05-1.84517E-05-1.48754E-05 1.22341E-18 2.81792E-18
 -1      3592 6.74473E-05-2.22323E-05-1.93555E-05-2.02613E-05 1.70029E-18 2.16541E-18
 -1      3593 1.12426E-04-5.24081E-05-2.55531E-05 2.22301E-05 2.40438E-18-2.05656E-19
 -1      3594 1.05301E-04-4.78292E-05-2.45865E-05 2.36113E-05 2.60563E-18-6.55240E-19
 -1      3595 9.57709E-05-2.88118E-05-2.86959E-05-1.13716E-06 5.62815E-19 3.07131E-20
 -1      3596 9.58030E-05-2.87717E-05-2.87253E-05-1.10668E-06 5.86070E-19 1.41543E-19
 -1      3597 9.00581E-05-2.34592E-05-2.85182E-05-8.88854E-06 1.63823E-18 5.31706E-19
 -1      3598 8.86213E-05-2.25505E-05-2.83527E-05-7.95682E-06 1.24249E-18 2.81387E-19
 -1      3599 8.70777E-05-2.20895E-05-2.78671E-05-7.91274E-06 1.39199E-18 3.51801E-19
 -1      3600 7.71939E-05-3.01017E-05-2.00501E-05-2.65589E-05 1.63874E-18 2.63057E-19
 -1      3601 8.69469E-05-3.79006E-05-2.07490E-05-3.02589E-05 1.48728E-18 1.17333E-18
 -1      3602 1.16881E-04-5.21903E-05-2.77547E-05 1.49182E-05 2.04549E-18 1.65962E-18
 -1      3603 1.20819E-04-5.18050E-05-2.95614E-05-8.19412E-06-9.88845E-19 3.58965E-18
 -1      3604 1.16907E-04-4.89884E-05-2.91715E-05-8.34196E-06-5.58448E-19 3.41561E-18
 -1      3605 1.12994E-04-4.60513E-05-2.85590E-05-1.06169E-05-8.38106E-19 2.41031E-18
 -1      3606 1.17924E-04-5.36227E-05-2.74840E-05-1.65232E-05-1.69347E-18 1.13779E-18
 -1      3607 1.09738E-04-4.91103E-05-2.60067E-05-1.98905E-05-1.79032E-18 1.64592E-18
 -1      3608 1.06234E-04-4.58513E-05-2.59020E-05 1.93601E-05 2.27076E-18-4.39481E-19
 -1      3609 9.88967E-05-4.25858E-05-2.38680E-05 2.42825E-05 2.69806E-18-1.30729E-18
 -1      3610 9.25482E-05-3.73067E-05-2.37113E-05 2.31249E-05 2.01540E-18-4.31378E-19
 -1      3611 1.16826E-04-5.09276E-05-2.82531E-05 1.25303E-05 2.00662E-18 1.27348E-18
 -1      3612 9.96950E-05-3.43776E-05-2.79342E-05 1.39875E-05-6.35799E-19 1.97791E-18
 -1      3613 1.02211E-04-3.70180E-05-2.78990E-05 1.38631E-05-5.43636E-19 1.78257E-18
 -1      3614 9.60259E-05-3.23336E-05-2.73602E-05 1.50793E-05-4.81576E-19 2.90898E-18
 -1      3615 9.40305E-05-2.13585E-05-3.11389E-05-4.34165E-06-5.81326E-19-6.96808E-19
 -1      3616 9.22712E-05-1.81336E-05-3.17853E-05-1.01043E-06 8.82196E-20-8.72213E-19
 -1      3617 9.23824E-05-1.83246E-05-3.17542E-05-1.76470E-06-1.57031E-19-8.79016E-19
 -1      3618 9.33697E-05-1.99914E-05-3.14291E-05-1.76859E-06-2.04730E-19-7.76765E-19
 -1      3619 9.52566E-05-2.82550E-05-2.87116E-05-1.38408E-06-4.59098E-19 9.69202E-19
 -1      3620 9.52821E-05-2.83535E-05-2.86864E-05-1.30888E-06-5.26306E-19 8.77094E-19
 -1      3621 9.53463E-05-2.83788E-05-2.87007E-05-1.24901E-06-6.92690E-19 5.91672E-19
 -1      3622 9.51610E-05-2.81165E-05-2.87332E-05-1.39596E-06-4.95401E-19 1.13911E-18
 -1      3623 1.11946E-04-4.73874E-05-2.74884E-05 1.45477E-05 1.81108E-18 1.12216E-18
 -1      3624 9.57009E-05-2.55397E-05-3.00709E-05-1.52070E-06-6.57446E-19-6.66599E-19
 -1      3625 9.58389E-05-2.62535E-05-2.98348E-05-8.81466E-07-5.95382E-19-7.09023E-19
 -1      3626 9.60463E-05-2.68961E-05-2.96268E-05-4.44714E-07-5.57247E-19-6.19661E-19
 -1      3627 9.60973E-05-2.73864E-05-2.94551E-05-2.52986E-08-7.05224E-19-4.98396E-19
 -1      3628 9.62845E-05-2.74319E-05-2.95089E-05 2.64192E-08-6.41007E-19-5.52003E-19
 -1      3629 1.07595E-04-4.37971E-05-2.73607E-05-1.44289E-05-1.22430E-18 1.52917E-18
 -1      3630 1.05632E-04-4.31654E-05-2.67857E-05 1.62477E-05 1.59120E-18 1.10386E-19
 -1      3631 6.91536E-05-2.77121E-05-1.73085E-05 2.86261E-05-1.70026E-18 1.17716E-18
 -1      3632 6.45904E-05-2.30579E-05-1.76850E-05 2.32421E-05-5.27331E-19-2.74650E-19
 -1      3633 7.84635E-05-3.21004E-05-1.97855E-05 2.81049E-05-2.32859E-18 1.25874E-18
 -1      3634 1.00695E-04-3.76391E-05-2.69122E-05-1.66219E-05 1.44436E-18-6.70470E-19
 -1      3635 9.55951E-05-3.49293E-05-2.61331E-05-1.83252E-05 1.79383E-18-7.83711E-19
 -1      3636 1.04440E-04-4.12605E-05-2.69943E-05-1.63611E-05 1.88845E-18-6.37948E-19
 -1      3637 8.37997E-05-1.97443E-05-2.74255E-05 1.42641E-08-8.23591E-20 1.21769E-19
 -1      3638 8.50422E-05-1.99678E-05-2.79058E-05 1.14552E-06-7.76615E-20 4.65818E-19
 -1      3639 8.54214E-05-2.02199E-05-2.79444E-05 2.99207E-06 3.75333E-19 1.41462E-19
 -1      3640 1.05351E-04-4.67441E-05-2.51480E-05 2.25921E-05-1.66328E-18 1.40880E-18
 -1      3641 9.95102E-05-4.53933E-05-2.29712E-05 2.80361E-05-2.07531E-18 7.39830E-20
 -1      3642 9.28002E-05-4.03656E-05-2.23682E-05 2.76137E-05-2.23704E-18 1.08633E-18
 -1      3643 5.81610E-05-1.48127E-05-1.83811E-05 6.82434E-06 8.47218E-19-6.75112E-19
 -1      3644 5.72570E-05-1.45117E-05-1.81653E-05-6.14872E-06-4.46625E-19-4.39081E-19
 -1      3645 5.62294E-05-1.50222E-05-1.72861E-05-1.17066E-05-1.45048E-19 6.75350E-19
 -1      3646 6.15078E-05-1.80860E-05-1.85409E-05-1.56455E-05-9.47459E-19 1.10210E-18
 -1      3647 1.02301E-04-4.27179E-05-2.53642E-05-2.04524E-05-1.62172E-18 1.04110E-18
 -1      3648 7.20545E-05-2.40228E-05-2.02574E-05 2.16011E-05 2.03014E-18-1.20152E-18
 -1      3649 6.81282E-05-2.02921E-05-2.05249E-05 1.65106E-05 1.77745E-18-3.44610E-19
 -1      3650 7.95188E-05-2.81591E-05-2.19052E-05 2.16509E-05 2.01037E-18-5.61623E-19
 -1      3651 1.01800E-04-3.93222E-05-2.66871E-05 1.63181E-05 1.84174E-18-4.32897E-19
 -1      3652 9.60037E-05-2.62762E-05-2.98804E-05-7.09606E-07-5.86187E-19-7.64800E-19
 -1      3653 1.00988E-04-4.26470E-05-2.50656E-05-2.25489E-05 1.78607E-18-6.96182E-19
 -1      3654 9.39699E-05-2.12075E-05-3.11927E-05-1.22217E-06-1.55655E-19-7.32087E-19
 -1      3655 9.41008E-05-2.14899E-05-3.11345E-05-1.73614E-06-2.61767E-19-7.71052E-19
 -1      3656 9.56515E-05-2.83928E-05-2.88297E-05-8.98698E-07 2.19301E-19 2.24293E-19
 -1      3657 9.59300E-05-3.60458E-05-2.56835E-05 1.84332E-05 1.36723E-18-5.15122E-19
 -1      3658 9.34028E-05-2.62835E-05-2.87522E-05-1.06834E-05 2.92556E-18 5.14463E-19
 -1      3659 9.32732E-05-2.57581E-05-2.89344E-05-1.00482E-05 2.55971E-18 7.39294E-19
 -1      3660 9.24119E-05-2.51328E-05-2.88276E-05-9.86557E-06 2.57500E-18 2.19277E-20
 -1      3661 9.16270E-05-2.55847E-05-2.82922E-05-1.11004E-05 9.88636E-19 1.90315E-18
 -1      3662 9.59843E-05-4.17022E-05-2.30905E-05-2.60824E-05 2.31274E-18-7.05552E-20
 -1      3663 9.59142E-05-2.73654E-05-2.93859E-05 8.86021E-08 6.14394E-19-1.77330E-20
 -1      3664 9.59023E-05-2.69041E-05-2.95581E-05 5.60879E-07 6.10737E-19-4.37505E-20
 -1      3665 9.58589E-05-2.87114E-05-2.87776E-05-1.06122E-06 3.62462E-19 1.09251E-19
 -1      3666 9.58928E-05-2.86140E-05-2.88295E-05-9.81318E-07 6.11682E-20 1.95677E-19
 -1      3667 9.60683E-05-2.87800E-05-2.88406E-05-1.00520E-06 3.00370E-19-1.83438E-19
 -1      3668 9.56682E-05-2.87517E-05-2.86798E-05-1.12597E-06 2.57850E-19 2.59766E-19
 -1      3669 9.55765E-05-2.87506E-05-2.86375E-05-1.16531E-06 1.73123E-19 2.35950E-19
 -1      3670 9.56032E-05-2.87839E-05-2.86370E-05-1.16080E-06 3.28199E-19 1.24224E-19
 -1      3671 1.00448E-04-3.78020E-05-2.69390E-05 1.67080E-05-1.21263E-19 4.17476E-18
 -1      3672 1.24687E-04-5.14993E-05-3.15551E-05 1.63373E-06-8.71289E-19 1.39360E-19
 -1      3673 9.55307E-05-2.50830E-05-3.01746E-05 2.02565E-06 8.41801E-19-3.45125E-19
 -1      3674 9.50681E-05-2.37417E-05-3.05631E-05 2.43638E-06 7.38700E-19-4.09196E-19
 -1      3675 9.45101E-05-2.24347E-05-3.08856E-05-3.33959E-06-4.64019E-19-7.87546E-19
 -1      3676 9.52855E-05-2.41333E-05-3.04989E-05 1.56466E-06 5.96894E-19-3.50452E-19
 -1      3677 9.47931E-05-2.29177E-05-3.08118E-05 2.29246E-06 6.97831E-19-4.59446E-19
 -1      3678 9.43018E-05-2.18577E-05-3.10411E-05 1.89731E-06 6.47991E-19-4.29332E-19
 -1      3679 1.13661E-04-4.70660E-05-2.83629E-05 1.20251E-05-2.45151E-18 3.48164E-18
 -1      3680 1.17974E-04-4.98022E-05-2.91757E-05 9.23482E-06-1.79848E-18 2.58856E-18
 -1      3681 9.57045E-05-2.88183E-05-2.86646E-05-1.15071E-06 4.29819E-19 2.87395E-19
 -1      3682 9.59494E-05-2.88669E-05-2.87518E-05-1.07873E-06 5.80199E-19 3.78973E-19
 -1      3683 9.56752E-05-2.88165E-05-2.86521E-05-1.15836E-06 2.88970E-19 2.38746E-19
 -1      3684 9.42626E-05-2.59132E-05-2.92852E-05 9.32403E-06 9.25446E-19 4.65038E-18
 -1      3685 9.19006E-05-2.47163E-05-2.88067E-05 9.53509E-06 7.46877E-19 3.19193E-18
 -1      3686 9.29694E-05-2.53432E-05-2.89770E-05 9.73757E-06 4.45965E-19 5.61089E-18
 -1      3687 5.99373E-05-1.65092E-05-1.84229E-05-1.14694E-05 6.96109E-19 3.41733E-18
 -1      3688 6.64485E-05-1.83478E-05-2.04943E-05-1.21097E-05 1.32273E-18 1.97335E-18
 -1      3689 5.88979E-05-1.53135E-05-1.85876E-05-6.28285E-06 2.67146E-19 2.96890E-18
 -1      3690 9.31697E-05-1.96208E-05-3.15035E-05-5.87117E-07 7.75086E-20-7.70550E-19
 -1      3691 7.48271E-05-2.60936E-05-2.06255E-05-2.25782E-05 1.75996E-18 1.26007E-18
 -1      3692 8.32000E-05-3.12388E-05-2.23948E-05-2.37688E-05 1.96893E-18 3.98291E-19
 -1      3693 7.43305E-05-2.35530E-05-2.16866E-05-1.85287E-05 1.27498E-18 1.71225E-18
 -1      3694 9.38925E-05-2.10540E-05-3.12296E-05 8.12414E-07 3.98628E-19-7.21230E-19
 -1      3695 9.38477E-05-2.09556E-05-3.12503E-05 2.56883E-07 1.85233E-19-7.84959E-19
 -1      3696 5.13492E-05-1.42917E-05-1.54015E-05 8.37144E-06 3.46817E-19 1.78893E-18
 -1      3697 5.50830E-05-1.42346E-05-1.73432E-05 1.80275E-06 2.46262E-19 1.78110E-18
 -1      3698 5.65973E-05-1.67087E-05-1.69234E-05 1.29889E-05 2.58967E-19 1.39538E-18
 -1      3699 9.59613E-05-2.80573E-05-2.91054E-05-5.23142E-07 4.25043E-19 1.33190E-19
 -1      3700 9.59775E-05-2.77608E-05-2.92267E-05-2.33158E-07 6.07284E-19 8.20329E-20
 -1      3701 9.61266E-05-2.73814E-05-2.94626E-05 4.14383E-08 5.15295E-19 1.15936E-19
 -1      3702 1.19418E-04-5.30346E-05-2.81552E-05-1.42090E-05 2.12077E-18-7.24597E-19
 -1      3703 1.33406E-04-4.24868E-05-3.90440E-05-1.15038E-05-3.22682E-18 3.11708E-18
 -1      3704 9.42530E-05-2.18132E-05-3.10503E-05-2.12683E-06-2.77812E-19-7.23670E-19
 -1      3705 9.44379E-05-2.22317E-05-3.09504E-05-2.54809E-06-4.63052E-19-9.20551E-19
 -1      3706 9.48504E-05-2.28730E-05-3.08222E-05-1.54261E-06-2.50483E-19-7.00345E-19
 -1      3707 1.21559E-04-5.19717E-05-2.96714E-05 8.18221E-06-1.65987E-18 1.38265E-18
 -1      3708 7.19088E-05-2.48776E-05-2.00392E-05-2.23449E-05-1.08116E-18 1.49898E-19
 -1      3709 7.53779E-05-2.88605E-05-1.95911E-05-2.61729E-05-1.49975E-18-2.42675E-19
 -1      3710 8.42855E-05-3.31078E-05-2.17883E-05-2.47353E-05-1.60015E-18-4.26958E-20
 -1      3711 9.52827E-05-2.43442E-05-3.04062E-05-1.89565E-06-5.85102E-19-8.13851E-19
 -1      3712 9.54107E-05-2.44538E-05-3.04162E-05-1.53625E-06-5.24557E-19-9.52488E-19
 -1      3713 9.41554E-05-2.15806E-05-3.11172E-05 1.62052E-06 5.47603E-19-6.21551E-19
 -1      3714 9.40218E-05-2.12888E-05-3.11757E-05 1.12085E-06 4.49634E-19-7.09217E-19
 -1      3715 9.46830E-05-2.24467E-05-3.09339E-05 6.92310E-07 3.49988E-19-5.88400E-19
 -1      3716 9.49138E-05-2.30104E-05-3.08020E-05 1.20039E-06 5.47091E-19-4.73678E-19
 -1      3717 8.88304E-05-2.26788E-05-2.83915E-05 7.98954E-06 1.26157E-18 1.18823E-18
 -1      3718 9.02657E-05-2.35615E-05-2.85535E-05 8.94580E-06 6.29874E-19 6.93773E-19
 -1      3719 9.09216E-05-2.45996E-05-2.84396E-05 1.00421E-05 4.78413E-19 2.49513E-18
 -1      3720 9.15173E-05-2.44890E-05-2.87426E-05-9.51091E-06 2.03739E-18-3.50398E-19
 -1      3721 9.55737E-05-2.61179E-05-2.97743E-05 1.46527E-06 9.10797E-19-8.16862E-20
 -1      3722 9.03740E-05-2.42952E-05-2.83325E-05-9.90602E-06 1.06874E-18 1.00478E-18
 -1      3723 1.08030E-04-4.51509E-05-2.70450E-05 1.67828E-05-1.06352E-18 4.27982E-18
 -1      3724 1.16767E-04-5.22334E-05-2.77852E-05 1.55515E-05-2.89497E-18 3.95880E-18
 -1      3725 1.12193E-04-4.94607E-05-2.66425E-05 1.84301E-05-2.48616E-18 3.63159E-18
 -1      3726 9.49498E-05-2.33449E-05-3.06824E-05-2.63063E-06-4.77292E-19-8.06429E-19
 -1      3727 8.94823E-05-2.85789E-05-2.60274E-05-1.58818E-05 1.99982E-18 7.21632E-21
 -1      3728 8.84545E-05-2.68483E-05-2.64240E-05-1.44779E-05 2.15114E-18 4.20879E-19
 -1      3729 9.65261E-05-2.79712E-05-2.93763E-05 3.16915E-07-4.02696E-19-3.26387E-19
 -1      3730 9.65331E-05-2.82791E-05-2.92552E-05 5.08436E-07-4.51300E-19-1.54919E-19
 -1      3731 9.56799E-05-2.60207E-05-2.98660E-05 1.20004E-06 7.20278E-19-2.40962E-19
 -1      3732 9.65328E-05-2.85228E-05-2.91437E-05 6.19199E-07-3.48961E-19 9.75632E-20
 -1      3733 9.64941E-05-2.86988E-05-2.90567E-05 7.29660E-07-2.45143E-19 6.29645E-20
 -1      3734 9.66645E-05-2.83492E-05-2.92783E-05 4.61882E-07-2.01369E-19 9.74713E-21
 -1      3735 9.64388E-05-2.88230E-05-2.89759E-05 7.87603E-07-2.36954E-19 1.05387E-19
 -1      3736 9.63734E-05-2.89029E-05-2.89161E-05 8.45338E-07-1.57672E-19 2.43840E-19
 -1      3737 9.66088E-05-2.87528E-05-2.90822E-05 6.44158E-07-2.47436E-19 2.34104E-19
 -1      3738 9.62837E-05-2.89403E-05-2.88602E-05 8.71259E-07-1.66698E-20 2.10431E-19
 -1      3739 9.62030E-05-2.89498E-05-2.88220E-05 8.99416E-07-7.16528E-20 1.92989E-19
 -1      3740 9.64649E-05-2.89365E-05-2.89421E-05 7.41476E-07-5.56962E-20 4.77554E-19
 -1      3741 9.60911E-05-2.89230E-05-2.87860E-05 9.10342E-07-1.51152E-19 1.61913E-19
 -1      3742 9.60007E-05-2.88798E-05-2.87647E-05 9.27480E-07-7.62818E-20 1.55083E-19
 -1      3743 9.62650E-05-2.89582E-05-2.88471E-05 7.90227E-07-6.51098E-20 3.15590E-19
 -1      3744 9.58729E-05-2.88042E-05-2.87443E-05 9.37202E-07-2.56504E-19 2.16549E-20
 -1      3745 9.57749E-05-2.87199E-05-2.87361E-05 9.57970E-07-3.90345E-19-2.01349E-20
 -1      3746 9.60276E-05-2.88578E-05-2.87880E-05 8.20538E-07-2.88759E-19 3.13444E-19
 -1      3747 9.56329E-05-2.86050E-05-2.87276E-05 9.77320E-07-3.67041E-19-1.67515E-20
 -1      3748 9.55264E-05-2.84865E-05-2.87295E-05 1.01329E-06-3.51360E-19 2.29306E-19
 -1      3749 9.57604E-05-2.86622E-05-2.87568E-05 8.56520E-07-3.76263E-19 4.36916E-19
 -1      3750 9.53679E-05-2.83371E-05-2.87297E-05 1.05112E-06-1.46675E-19 2.95200E-19
 -1      3751 9.52498E-05-2.81877E-05-2.87388E-05 1.11188E-06-8.38417E-20 3.98170E-19
 -1      3752 9.54629E-05-2.83872E-05-2.87465E-05 9.17233E-07-2.18409E-19 7.43183E-19
 -1      3753 9.50700E-05-2.80058E-05-2.87449E-05 1.17585E-06-3.64373E-19 5.45709E-19
 -1      3754 9.49356E-05-2.78267E-05-2.87588E-05 1.26956E-06-4.66610E-19 5.36034E-19
 -1      3755 9.51280E-05-2.80403E-05-2.87508E-05 1.01877E-06-1.85598E-19 2.88665E-19
 -1      3756 9.47274E-05-2.76124E-05-2.87676E-05 1.36633E-06-1.62628E-19 6.42647E-19
 -1      3757 9.45708E-05-2.74039E-05-2.87837E-05 1.50007E-06-2.57702E-19 4.85690E-19
 -1      3758 9.47439E-05-2.76243E-05-2.87635E-05 1.17495E-06-2.28924E-19 4.76127E-19
 -1      3759 9.43253E-05-2.71562E-05-2.87919E-05 1.63587E-06-2.36866E-19 7.34435E-19
 -1      3760 9.41400E-05-2.69185E-05-2.88071E-05 1.81623E-06-4.51937E-19 1.01726E-18
 -1      3761 9.42948E-05-2.71387E-05-2.87780E-05 1.39777E-06-7.08466E-20 1.00693E-18
 -1      3762 9.38477E-05-2.66376E-05-2.88107E-05 1.99739E-06-5.68997E-19 1.25227E-18
 -1      3763 9.36273E-05-2.63730E-05-2.88211E-05 2.23046E-06-3.41609E-19 1.34745E-18
 -1      3764 9.37623E-05-2.65831E-05-2.87866E-05 1.69910E-06-2.00339E-19 1.11874E-18
 -1      3765 9.32782E-05-2.60616E-05-2.88149E-05 2.46346E-06-1.64892E-19 1.58643E-18
 -1      3766 9.30176E-05-2.57761E-05-2.88156E-05 2.75509E-06-9.92862E-20 1.58282E-18
 -1      3767 9.31269E-05-2.59601E-05-2.87798E-05 2.09074E-06-1.73513E-19 1.67505E-18
 -1      3768 9.26025E-05-2.54413E-05-2.87927E-05 3.04739E-06-3.69598E-19 1.53296E-18
 -1      3769 9.22998E-05-2.51473E-05-2.87771E-05 3.40386E-06-1.00095E-19 1.27980E-18
 -1      3770 9.23695E-05-2.52793E-05-2.87453E-05 2.58541E-06-2.32684E-19 1.73302E-18
 -1      3771 9.18116E-05-2.48037E-05-2.87289E-05 3.76535E-06 3.82468E-22 9.04124E-19
 -1      3772 9.14712E-05-2.45238E-05-2.86883E-05 4.19461E-06-1.98663E-19 1.05015E-18
 -1      3773 9.14734E-05-2.45612E-05-2.86672E-05 3.19934E-06-1.07783E-19 1.65855E-18
 -1      3774 9.09070E-05-2.41969E-05-2.86036E-05 4.64021E-06-3.21299E-19 8.88960E-19
 -1      3775 9.05445E-05-2.39686E-05-2.85273E-05 5.15441E-06-6.32098E-19 4.88912E-19
 -1      3776 9.04279E-05-2.38432E-05-2.85249E-05 3.95645E-06-4.02533E-19 1.11774E-18
 -1      3777 8.99085E-05-2.36993E-05-2.83918E-05 5.70881E-06-5.02372E-19 4.32512E-19
 -1      3778 8.95591E-05-2.35818E-05-2.82670E-05 6.32838E-06-3.09859E-19 1.19308E-18
 -1      3779 8.92326E-05-2.31867E-05-2.82923E-05 4.89611E-06-4.50689E-19 3.56735E-19
 -1      3780 8.88680E-05-2.34334E-05-2.80634E-05 7.03364E-06-3.98445E-19 1.25265E-18
 -1      3781 8.85996E-05-2.35179E-05-2.78766E-05 7.79303E-06-3.49654E-19 1.15755E-18
 -1      3782 8.79048E-05-2.26865E-05-2.79365E-05 6.08661E-06-2.17093E-19 3.71950E-19
 -1      3783 8.78923E-05-2.35846E-05-2.75848E-05 8.71859E-06-4.16101E-19 7.87486E-19
 -1      3784 8.78279E-05-2.40080E-05-2.73240E-05 9.67093E-06-1.86155E-19 9.53670E-19
 -1      3785 8.64933E-05-2.24867E-05-2.74177E-05 7.64526E-06-6.09074E-19 1.12610E-18
 -1      3786 8.71856E-05-2.44330E-05-2.69219E-05 1.09278E-05-4.73984E-19 8.20879E-19
 -1      3787 8.75363E-05-2.53964E-05-2.65840E-05 1.21374E-05-3.12155E-19 3.29711E-19
 -1      3788 8.51010E-05-2.28068E-05-2.66896E-05 9.76202E-06-3.75471E-19 1.03524E-18
 -1      3789 8.71401E-05-2.64066E-05-2.60513E-05 1.38924E-05 5.02783E-19-2.86079E-19
 -1      3790 8.82487E-05-2.82232E-05-2.56485E-05 1.54146E-05 9.80143E-19-5.47551E-19
 -1      3791 8.39457E-05-2.39665E-05-2.57013E-05 1.27206E-05-1.29385E-19 6.31157E-19
 -1      3792 9.38909E-05-2.10430E-05-3.12330E-05-7.74417E-07-1.03865E-19-7.14159E-19
 -1      3793 9.46563E-05-2.23738E-05-3.09489E-05-8.24476E-07-1.63667E-19-6.60254E-19
 -1      3794 9.38466E-05-2.09521E-05-3.12512E-05-2.15628E-07 1.02441E-19-7.26104E-19
 -1      3795 9.59294E-05-2.84782E-05-2.89090E-05-8.78920E-07 2.91255E-21 2.52983E-19
 -1      3796 9.59602E-05-2.82997E-05-2.89908E-05-7.15042E-07 1.83538E-19 1.50761E-19
 -1      3797 9.61926E-05-2.81081E-05-2.91818E-05-5.10448E-07 2.88219E-19 2.22131E-19
 -1      3798 8.98998E-05-2.44886E-05-2.80306E-05-1.04642E-05 4.68925E-19 1.61484E-18
 -1      3799 9.28345E-05-3.65742E-05-2.39755E-05-2.29885E-05 2.13104E-18-3.69412E-19
 -1      3800 8.89500E-05-2.58555E-05-2.70025E-05-1.29412E-05 1.01823E-18 6.84346E-19
 -1      3801 8.87179E-05-2.48235E-05-2.74025E-05-1.17480E-05 4.25828E-19 1.38166E-18
 -1      3802 8.57151E-05-2.47105E-05-2.62051E-05-1.33584E-05 1.58598E-18-3.89867E-20
 -1      3803 9.44326E-05-2.71834E-05-2.88182E-05-1.89675E-06-1.71905E-19 9.68244E-19
 -1      3804 9.45685E-05-2.73883E-05-2.87964E-05-1.71399E-06-1.79639E-19 8.78895E-19
 -1      3805 9.47736E-05-2.76067E-05-2.87831E-05-1.57257E-06-3.65198E-19 7.88511E-19
 -1      3806 9.48890E-05-2.77864E-05-2.87622E-05-1.43892E-06-4.73550E-19 9.46490E-19
 -1      3807 9.45195E-05-2.73558E-05-2.87820E-05-1.51492E-06-1.92534E-19 3.24675E-19
 -1      3808 9.35489E-05-2.61875E-05-2.88659E-05-2.87087E-06-1.44350E-19 7.63113E-19
 -1      3809 9.37382E-05-2.64326E-05-2.88525E-05-2.57145E-06-1.63141E-19 9.39030E-19
 -1      3810 9.29882E-05-2.56426E-05-2.88586E-05-3.54566E-06 1.44307E-19 8.76517E-19
 -1      3811 9.32057E-05-2.58928E-05-2.88570E-05-3.17985E-06 4.90042E-20 7.38999E-19
 -1      3812 9.29185E-05-2.56995E-05-2.88019E-05-2.78715E-06 1.09223E-19 2.14519E-19
 -1      3813 9.23489E-05-2.51094E-05-2.88122E-05-4.36358E-06 9.05314E-20 5.48610E-19
 -1      3814 9.25878E-05-2.53425E-05-2.88295E-05-3.92610E-06 1.18533E-19 7.49970E-19
 -1      3815 9.21800E-05-2.50645E-05-2.87562E-05-3.44622E-06 1.25278E-19 5.60098E-20
 -1      3816 9.16513E-05-2.46511E-05-2.87078E-05-5.34301E-06 9.17784E-20 1.02933E-18
 -1      3817 9.18933E-05-2.48299E-05-2.87532E-05-4.82730E-06 1.22159E-19 7.13913E-19
 -1      3818 9.13283E-05-2.44392E-05-2.86579E-05-4.25265E-06-9.57668E-20 2.96774E-19
 -1      3819 9.09467E-05-2.43701E-05-2.85228E-05-6.51252E-06 6.24678E-19 1.23625E-18
 -1      3820 9.11528E-05-2.44347E-05-2.86069E-05-5.90852E-06 3.04878E-19 1.42325E-18
 -1      3821 9.03754E-05-2.38890E-05-2.84845E-05-5.23766E-06-2.68936E-20 6.88830E-19
 -1      3822 9.03381E-05-2.44256E-05-2.82321E-05-7.91901E-06 2.80956E-19 1.33352E-18
 -1      3823 9.04353E-05-2.42837E-05-2.83657E-05-7.21054E-06 7.07021E-19 1.56064E-18
 -1      3824 8.93594E-05-2.35177E-05-2.82085E-05-6.45395E-06 2.34582E-19 1.65477E-18
 -1      3825 9.00150E-05-2.50583E-05-2.78128E-05-9.63344E-06-4.48215E-19 1.28845E-18
 -1      3826 8.98756E-05-2.45713E-05-2.80036E-05-8.79846E-06-1.77455E-19 1.40921E-18
 -1      3827 8.83641E-05-2.34863E-05-2.77982E-05-7.99058E-06 3.18693E-19 1.66097E-18
 -1      3828 9.03069E-05-2.66151E-05-2.72544E-05-1.17416E-05-7.21158E-19 5.97458E-19
 -1      3829 8.97185E-05-2.55866E-05-2.74999E-05-1.07634E-05-3.79670E-19 9.75508E-19
 -1      3830 8.75542E-05-2.40401E-05-2.72217E-05-9.98667E-06-3.08485E-19 1.23950E-18
 -1      3831 9.17332E-05-2.95981E-05-2.65771E-05-1.43345E-05-6.96528E-19 4.73341E-19
 -1      3832 9.03891E-05-2.77410E-05-2.68525E-05-1.32129E-05-8.71132E-19 7.05987E-19
 -1      3833 8.72219E-05-2.55364E-05-2.64544E-05-1.26344E-05-5.36651E-19 1.14209E-18
 -1      3834 9.49569E-05-3.47065E-05-2.58272E-05-1.75607E-05-1.12949E-18 2.40458E-19
 -1      3835 9.24935E-05-3.13376E-05-2.60981E-05-1.61375E-05-7.17288E-19 7.14462E-19
 -1      3836 8.80090E-05-2.86139E-05-2.54919E-05-1.61496E-05-6.53244E-19 7.57118E-19
 -1      3837 9.59671E-05-2.57150E-05-3.00918E-05-9.16049E-07-4.68455E-19-7.20962E-19
 -1      3838 9.61495E-05-2.64438E-05-2.98814E-05-4.57130E-07-5.27593E-19-6.66224E-19
 -1      3839 9.10668E-05-2.53290E-05-2.81545E-05 1.08942E-05 4.13891E-19 1.90625E-18
 -1      3840 9.08552E-05-2.65309E-05-2.75882E-05 1.25927E-05 6.14785E-19 2.95389E-18
 -1      3841 9.16349E-05-2.78175E-05-2.72811E-05 1.35710E-05 5.43716E-19 3.49018E-18
 -1      3842 8.36087E-05-2.04154E-05-2.70510E-05-5.96454E-06 7.32519E-19-3.73352E-19
 -1      3843 8.25823E-05-1.98260E-05-2.69335E-05-3.87998E-06 6.09409E-19 7.93136E-19
 -1      3844 9.58418E-05-2.59970E-05-2.99301E-05 1.02751E-06 5.53971E-19-2.16557E-19
 -1      3845 6.30689E-05-1.58953E-05-2.02334E-05 7.92149E-06 9.68777E-19 3.57739E-20
 -1      3846 5.96487E-05-1.39671E-05-1.93922E-05 1.16032E-06 5.95575E-19-1.70664E-19
 -1      3847 9.44643E-05-3.37971E-05-2.59741E-05 1.81356E-05-1.27403E-18 4.62957E-18
 -1      3848 9.75125E-05-3.72032E-05-2.57727E-05 1.90566E-05-2.58828E-19 4.37762E-18
 -1      3849 8.62240E-05-2.08421E-05-2.80521E-05 5.01247E-06 9.45552E-19 8.77866E-21
 -1      3850 8.72746E-05-2.15010E-05-2.81593E-05 6.52678E-06 1.00676E-18 1.11619E-18
 -1      3851 8.47544E-05-2.04076E-05-2.75531E-05 4.38558E-06 5.16890E-19-4.43663E-19
 -1      3852 9.43517E-05-3.80181E-05-2.41237E-05-2.23028E-05-1.73699E-18 1.18468E-18
 -1      3853 8.76026E-05-2.34544E-05-2.74635E-05-1.03514E-05 3.60347E-19 2.19307E-19
 -1      3854 9.17609E-05-2.92624E-05-2.67996E-05 1.52077E-05 7.39313E-20 3.21530E-18
 -1      3855 9.34107E-05-3.14203E-05-2.64911E-05 1.61940E-05-7.28720E-19 3.88394E-18
 -1      3856 8.95620E-05-3.03946E-05-2.53303E-05 1.82763E-05-6.95022E-19 4.97724E-18
 -1      3857 8.84891E-05-2.67507E-05-2.64320E-05 1.46246E-05 3.55190E-19 3.90351E-18
 -1      3858 9.45905E-05-2.22254E-05-3.09889E-05-1.13042E-08 2.62250E-20-5.75769E-19
 -1      3859 8.81263E-05-2.98038E-05-2.50137E-05 1.75795E-05 7.95377E-19-4.97500E-19
 -1      3860 9.12874E-05-3.42884E-05-2.43553E-05 2.02972E-05 1.25994E-18-8.16361E-19
 -1      3861 8.41577E-05-3.01478E-05-2.29908E-05 2.17516E-05 1.25502E-18-1.93871E-19
 -1      3862 8.34605E-05-2.63521E-05-2.44696E-05 1.66537E-05 8.35713E-19-8.38521E-19
 -1      3863 9.63581E-05-2.70751E-05-2.96881E-05-1.75052E-07-4.42686E-19-5.66978E-19
 -1      3864 9.64413E-05-2.75620E-05-2.95251E-05 1.30875E-07-3.88493E-19-3.62399E-19
 -1      3865 9.65831E-05-2.76493E-05-2.95425E-05 1.52516E-07-3.07734E-19-1.93622E-19
 -1      3866 8.97093E-05-3.28013E-05-2.42798E-05-2.07610E-05 2.31290E-18-2.75986E-19
 -1      3867 9.55463E-05-2.46491E-05-3.03966E-05-1.21140E-06-4.47011E-19-8.14774E-19
 -1      3868 8.76543E-05-2.97926E-05-2.47609E-05-1.88681E-05 1.85871E-18-2.32506E-19
 -1      3869 9.40281E-05-2.67075E-05-2.88487E-05-2.32536E-06-4.80295E-19 9.01140E-19
 -1      3870 9.41891E-05-2.69355E-05-2.88290E-05-2.08713E-06-2.51540E-19 8.42957E-19
 -1      3871 9.35465E-05-2.63052E-05-2.88128E-05-2.25528E-06-1.74761E-19 8.57177E-19
 -1      3872 9.55397E-05-2.85462E-05-2.87093E-05-1.09091E-06-2.59284E-19 6.48397E-19
 -1      3873 9.56211E-05-2.86457E-05-2.87050E-05-1.05913E-06 4.30463E-20 4.17903E-19
 -1      3874 9.54523E-05-2.43539E-05-3.04843E-05-9.48020E-07-4.06125E-19-6.13367E-19
 -1      3875 9.60937E-05-2.64263E-05-2.98623E-05 4.87061E-07 3.40403E-19-2.60265E-19
 -1      3876 9.58400E-05-2.54640E-05-3.01676E-05 1.11282E-06 4.00022E-19-3.77990E-19
 -1      3877 9.56182E-05-2.46830E-05-3.03941E-05 1.00097E-06 4.01010E-19-3.11096E-19
 -1      3878 8.20090E-05-1.93953E-05-2.68450E-05-1.14636E-06 3.22503E-19 5.10546E-19
 -1      3879 8.19861E-05-1.94011E-05-2.68510E-05 1.16183E-06 1.15123E-19 4.24967E-19
 -1      3880 8.08349E-05-1.93024E-05-2.63258E-05-2.77219E-06 5.93922E-19 1.07251E-18
 -1      3881 6.06696E-05-1.42458E-05-1.97750E-05-2.69902E-06 1.23832E-19 7.08424E-19
 -1      3882 6.32946E-05-1.54271E-05-2.03562E-05-7.63576E-06-5.90243E-19 1.52690E-18
 -1      3883 6.56897E-05-1.54437E-05-2.14583E-05-1.01455E-06 4.98075E-19 1.25507E-18
 -1      3884 7.86227E-05-2.57021E-05-2.27419E-05 1.89847E-05 1.30326E-18-1.20066E-18
 -1      3885 6.50497E-05-1.84546E-05-1.99875E-05-1.44065E-05-7.52761E-19 1.10705E-18
 -1      3886 6.82050E-05-2.12558E-05-1.98058E-05-1.90098E-05-6.84277E-19 8.22178E-19
 -1      3887 7.53358E-05-2.52132E-05-2.14038E-05-2.05001E-05-6.00134E-19 4.17733E-19
 -1      3888 9.61581E-05-2.85469E-05-2.89795E-05-8.36512E-07 2.49355E-19 1.82308E-19
 -1      3889 9.40752E-05-2.68605E-05-2.88027E-05-1.83556E-06-1.26384E-19 7.67276E-19
 -1      3890 1.02426E-04-4.21313E-05-2.56777E-05 2.02881E-05-6.66717E-19 3.03251E-18
 -1      3891 1.06862E-04-4.64259E-05-2.58689E-05 2.03070E-05-1.78380E-18 2.89759E-18
 -1      3892 9.57436E-05-2.87445E-05-2.87120E-05-1.04195E-06 3.98517E-19 3.17546E-19
 -1      3893 9.58200E-05-2.88126E-05-2.87179E-05-1.02521E-06 3.92254E-19 4.16698E-19
 -1      3894 9.57587E-05-2.87034E-05-2.87388E-05-9.59762E-07 2.09761E-19 7.39085E-19
 -1      3895 9.48958E-05-2.77881E-05-2.87590E-05-1.28058E-06-4.27103E-19 8.88914E-19
 -1      3896 9.50639E-05-2.79752E-05-2.87497E-05-1.33973E-06-5.05226E-19 1.02314E-18
 -1      3897 9.51637E-05-2.81290E-05-2.87322E-05-1.24824E-06-6.31200E-19 8.83961E-19
 -1      3898 8.36759E-05-2.67306E-05-2.44059E-05-1.65464E-05-7.66148E-19 1.05633E-18
 -1      3899 8.29530E-05-2.46990E-05-2.49850E-05-1.44479E-05-2.70144E-19 9.99961E-19
 -1      3900 9.62854E-05-2.65483E-05-2.98880E-05-3.25138E-07-3.34636E-19-4.81816E-19
 -1      3901 8.56081E-05-2.22359E-05-2.71932E-05-8.96025E-06 3.72683E-19-6.61678E-20
 -1      3902 8.30546E-05-2.63277E-05-2.42784E-05-1.76028E-05 1.86608E-18 8.84024E-20
 -1      3903 8.87542E-05-2.44637E-05-2.75909E-05 1.11833E-05 5.81573E-19 1.26821E-18
 -1      3904 9.58138E-05-2.88488E-05-2.87010E-05-1.10680E-06 3.66186E-19 6.05004E-19
 -1      3905 9.53560E-05-2.39888E-05-3.06032E-05-4.50718E-07-1.32229E-19-4.82741E-19
 -1      3906 9.54186E-05-2.41532E-05-3.05594E-05-7.88363E-07-3.20022E-19-4.36765E-19
 -1      3907 9.60937E-05-2.56545E-05-3.01664E-05-5.32888E-07-3.89363E-19-4.91585E-19
 -1      3908 9.61013E-05-2.89195E-05-2.87914E-05-9.89917E-07 5.13411E-19 2.08548E-19
 -1      3909 9.61675E-05-2.88995E-05-2.88275E-05-9.60744E-07 4.11221E-19-2.93672E-20
 -1      3910 5.95715E-05-1.48388E-05-1.89599E-05-2.42888E-06 1.16355E-19 2.58514E-18
 -1      3911 6.47422E-05-1.61469E-05-2.07594E-05-4.86473E-06 8.84958E-19 2.77260E-18
 -1      3912 6.12163E-05-1.53143E-05-1.96626E-05 2.45283E-06 4.61749E-19 2.11856E-18
 -1      3913 9.59974E-05-3.98163E-05-2.40761E-05 2.38596E-05-1.49560E-18 2.54929E-18
 -1      3914 8.91483E-05-3.71743E-05-2.20073E-05 2.73473E-05-3.15161E-18 2.52367E-18
 -1      3915 8.28140E-05-3.22491E-05-2.16526E-05 2.52230E-05-1.92353E-18 1.71278E-18
 -1      3916 9.83542E-05-3.92043E-05-2.53258E-05 2.06571E-05-4.50721E-19 3.71228E-18
 -1      3917 6.66577E-05-1.73852E-05-2.08696E-05 1.16240E-05 1.00146E-18 4.69316E-19
 -1      3918 6.67567E-05-1.63688E-05-2.16365E-05 6.74857E-06 7.17766E-19 4.25978E-19
 -1      3919 7.16215E-05-2.04379E-05-2.19048E-05 1.45157E-05 1.03982E-18-9.60390E-20
 -1      3920 6.21769E-05-1.90322E-05-1.81217E-05 1.75040E-05 8.53055E-20 1.30231E-19
 -1      3921 6.19813E-05-1.70466E-05-1.91879E-05 1.10978E-05 1.73099E-19 5.76988E-19
 -1      3922 6.92745E-05-2.28228E-05-1.98498E-05 1.99589E-05-1.11722E-18-1.28903E-18
 -1      3923 9.14839E-05-3.48029E-05-2.42087E-05 2.22117E-05-1.16280E-18 2.74690E-18
 -1      3924 8.75284E-05-2.22930E-05-2.79409E-05 7.98701E-06 8.78484E-19 1.41688E-18
 -1      3925 7.34683E-05-2.04778E-05-2.25577E-05-1.35173E-05 1.66131E-18 9.75524E-19
 -1      3926 7.87006E-05-2.38555E-05-2.35439E-05-1.58869E-05 1.66516E-18 6.21802E-19
 -1      3927 8.15365E-05-2.32878E-05-2.49508E-05-1.35908E-05 1.61036E-18-3.44622E-19
 -1      3928 9.52195E-05-2.36634E-05-3.06829E-05 6.74830E-07 3.26806E-19-4.92396E-19
 -1      3929 9.51337E-05-2.34480E-05-3.07349E-05 3.98641E-07 1.95557E-19-4.16005E-19
 -1      3930 9.62470E-05-2.88537E-05-2.88829E-05-9.28316E-07 2.04518E-19-2.62189E-20
 -1      3931 9.63061E-05-2.87695E-05-2.89415E-05-8.63867E-07 2.89775E-19 2.16542E-20
 -1      3932 9.63717E-05-2.88980E-05-2.89192E-05-8.39131E-07 3.28883E-19-9.39108E-21
 -1      3933 9.53157E-05-2.82886E-05-2.87235E-05-1.18434E-06-9.07557E-19 8.50183E-19
 -1      3934 9.54045E-05-2.84160E-05-2.87115E-05-1.12717E-06-7.38068E-19 7.23190E-19
 -1      3935 9.52194E-05-2.81575E-05-2.87402E-05-1.11964E-06-7.61800E-19 9.10462E-19
 -1      3936 9.63840E-05-2.75387E-05-2.95082E-05-1.31056E-07 3.10940E-19 2.40945E-20
 -1      3937 9.63098E-05-2.70721E-05-2.96732E-05 2.19278E-07 2.57730E-19-2.72849E-19
 -1      3938 9.63170E-05-2.65782E-05-2.98842E-05 2.96120E-07 1.95705E-19-3.36524E-19
 -1      3939 9.53324E-05-2.38690E-05-3.06381E-05 1.09089E-07 7.75605E-20-4.23733E-19
 -1      3940 9.53427E-05-2.38918E-05-3.06351E-05-2.45929E-07-3.50700E-20-5.42180E-19
 -1      3941 9.60626E-05-2.53692E-05-3.02759E-05-2.63735E-07-9.58999E-20-3.59032E-19
 -1      3942 9.55036E-05-2.84635E-05-2.87316E-05-1.01794E-06-5.24033E-19 9.44475E-19
 -1      3943 8.37184E-05-2.16494E-05-2.65770E-05-8.75779E-06 2.05554E-22-6.18508E-20
 -1      3944 8.41277E-05-2.94633E-05-2.34007E-05-2.05798E-05-1.26574E-18 8.22568E-19
 -1      3945 7.85829E-05-2.52565E-05-2.28231E-05-1.87518E-05-7.78572E-19 7.14803E-19
 -1      3946 9.58426E-05-2.48674E-05-3.04044E-05 1.18976E-07 1.09694E-19-2.15118E-19
 -1      3947 9.66214E-05-2.73625E-05-2.96811E-05 9.62573E-09-1.44652E-19-3.23534E-19
 -1      3948 9.67081E-05-2.78186E-05-2.95277E-05 2.05032E-07-2.54586E-19-3.11506E-19
 -1      3949 8.01113E-05-2.46057E-05-2.37126E-05 1.62449E-05 4.81317E-19-1.00722E-18
 -1      3950 7.57797E-05-2.24843E-05-2.27101E-05 1.61655E-05 8.37067E-19-1.26211E-18
 -1      3951 8.00612E-05-2.33283E-05-2.44008E-05 1.41927E-05 4.78560E-19-4.77962E-19
 -1      3952 9.67734E-05-2.81929E-05-2.93894E-05 3.04890E-07-2.48667E-19-2.35940E-19
 -1      3953 9.67743E-05-2.84737E-05-2.92740E-05 4.29110E-07-2.09617E-19-7.20333E-20
 -1      3954 9.68046E-05-2.79300E-05-2.95161E-05 1.82631E-07-1.25774E-19-2.39400E-19
 -1      3955 9.67537E-05-2.86872E-05-2.91695E-05 4.85684E-07-2.46311E-19-6.83730E-20
 -1      3956 9.66992E-05-2.88360E-05-2.90851E-05 5.58248E-07-1.34405E-19 2.58506E-20
 -1      3957 9.68453E-05-2.85459E-05-2.92710E-05 3.46814E-07-1.93983E-19-2.74555E-19
 -1      3958 9.66223E-05-2.89322E-05-2.90088E-05 5.86677E-07 6.46333E-20-7.19265E-20
 -1      3959 9.65332E-05-2.89838E-05-2.89497E-05 6.26224E-07 7.82890E-20 2.18829E-19
 -1      3960 9.67468E-05-2.88767E-05-2.90880E-05 4.42460E-07-2.43786E-20 1.59039E-20
 -1      3961 9.64186E-05-2.89923E-05-2.88964E-05 6.38460E-07-6.33486E-20 2.02492E-19
 -1      3962 9.63070E-05-2.89711E-05-2.88575E-05 6.61237E-07-1.28521E-19 1.50872E-19
 -1      3963 9.65561E-05-2.89941E-05-2.89563E-05 4.93949E-07-3.80405E-20 2.91159E-19
 -1      3964 9.61665E-05-2.89137E-05-2.88227E-05 6.67945E-07-2.20870E-19 2.01153E-19
 -1      3965 9.60386E-05-2.88366E-05-2.87998E-05 6.86964E-07-4.59282E-19 2.76667E-19
 -1      3966 9.63029E-05-2.89502E-05-2.88665E-05 5.22928E-07-2.30795E-19 2.14751E-19
 -1      3967 9.58783E-05-2.87281E-05-2.87794E-05 6.96923E-07-3.08161E-19 5.09464E-19
 -1      3968 9.57360E-05-2.86063E-05-2.87687E-05 7.21937E-07-3.14927E-20 5.94187E-19
 -1      3969 9.60045E-05-2.87831E-05-2.88097E-05 5.47297E-07-1.16036E-19 5.56940E-19
 -1      3970 9.55551E-05-2.84546E-05-2.87589E-05 7.41406E-07-2.30337E-19 1.19236E-19
 -1      3971 9.53963E-05-2.82937E-05-2.87571E-05 7.80996E-07-4.67450E-19-6.97856E-21
 -1      3972 9.56666E-05-2.85176E-05-2.87781E-05 5.80893E-07-3.49236E-19-1.94352E-20
 -1      3973 9.51913E-05-2.81028E-05-2.87545E-05 8.15833E-07-3.00770E-19-1.24559E-19
 -1      3974 9.50109E-05-2.79054E-05-2.87584E-05 8.77012E-07-1.37978E-19-9.44272E-20
 -1      3975 9.52847E-05-2.81655E-05-2.87644E-05 6.35322E-07-4.28768E-19-4.78185E-19
 -1      3976 9.47750E-05-2.76765E-05-2.87597E-05 9.32294E-07 8.92528E-21-1.38709E-21
 -1      3977 9.45660E-05-2.74434E-05-2.87661E-05 1.02099E-06 4.56169E-21 1.73561E-19
 -1      3978 9.48485E-05-2.77325E-05-2.87618E-05 7.20715E-07-6.22684E-20-3.82144E-19
 -1      3979 9.42896E-05-2.71758E-05-2.87673E-05 1.10099E-06 1.53650E-19 2.71050E-19
 -1      3980 9.40433E-05-2.69060E-05-2.87727E-05 1.22242E-06-8.51216E-20 4.47097E-19
 -1      3981 9.43414E-05-2.72200E-05-2.87628E-05 8.45861E-07 5.92748E-20-1.31358E-19
 -1      3982 9.37145E-05-2.65984E-05-2.87696E-05 1.33215E-06-1.12532E-19 8.58627E-19
 -1      3983 9.34213E-05-2.62922E-05-2.87695E-05 1.49182E-06-3.73216E-20 1.04521E-18
 -1      3984 9.37424E-05-2.66264E-05-2.87593E-05 1.01737E-06 1.82588E-19 2.25268E-19
 -1      3985 9.30281E-05-2.59452E-05-2.87568E-05 1.63582E-06-9.46793E-20 1.15623E-18
 -1      3986 9.26778E-05-2.56052E-05-2.87457E-05 1.83882E-06-2.53084E-20 1.30410E-18
 -1      3987 9.30284E-05-2.59501E-05-2.87412E-05 1.24575E-06-7.90132E-20 7.80697E-19
 -1      3988 9.22062E-05-2.52215E-05-2.87164E-05 2.02256E-06-2.47696E-19 9.58115E-19
 -1      3989 9.17894E-05-2.48538E-05-2.86873E-05 2.27504E-06-3.49204E-19 5.06618E-19
 -1      3990 9.21728E-05-2.51947E-05-2.86963E-05 1.53813E-06-2.63518E-19 2.95333E-19
 -1      3991 9.12247E-05-2.44408E-05-2.86325E-05 2.50612E-06-3.26645E-19 9.39402E-19
 -1      3992 9.07340E-05-2.40580E-05-2.85762E-05 2.81654E-06-6.78580E-20 6.33101E-19
 -1      3993 9.11474E-05-2.43687E-05-2.86083E-05 1.90607E-06-3.90984E-19 1.91750E-19
 -1      3994 9.00609E-05-2.36293E-05-2.84844E-05 3.10637E-06-4.69267E-19 4.72620E-19
 -1      3995 8.94924E-05-2.32529E-05-2.83889E-05 3.48830E-06-9.08462E-19 2.63896E-20
 -1      3996 8.99227E-05-2.34909E-05-2.84567E-05 2.36616E-06-3.98307E-19 1.14986E-19
 -1      3997 8.86937E-05-2.28303E-05-2.82449E-05 3.85593E-06-5.50006E-19 1.30843E-19
 -1      3998 8.80502E-05-2.24935E-05-2.80951E-05 4.33308E-06-3.35441E-19 3.83216E-19
 -1      3999 8.84665E-05-2.25919E-05-2.82142E-05 2.94565E-06-6.42714E-19-3.81691E-19
 -1      4000 8.71044E-05-2.21085E-05-2.78791E-05 4.81219E-06-4.06475E-19 1.10977E-19
 -1      4001 8.64001E-05-2.18610E-05-2.76562E-05 5.42671E-06-5.41064E-19 3.36203E-19
 -1      4002 8.67405E-05-2.17157E-05-2.78452E-05 3.69286E-06-4.81916E-19 2.18099E-19
 -1      4003 8.52784E-05-2.15573E-05-2.73418E-05 6.07762E-06-4.64824E-19 3.32897E-19
 -1      4004 8.45499E-05-2.14740E-05-2.70228E-05 6.90232E-06-2.91529E-19 6.63823E-19
 -1      4005 8.46941E-05-2.09220E-05-2.73022E-05 4.69566E-06-4.80205E-19-2.62264E-19
 -1      4006 8.32132E-05-2.13096E-05-2.65742E-05 7.83406E-06-6.28891E-19 4.40695E-19
 -1      4007 8.25242E-05-2.15003E-05-2.61272E-05 8.99006E-06-4.19579E-19 5.15714E-19
 -1      4008 8.22496E-05-2.02891E-05-2.65201E-05 6.10910E-06-5.05498E-19 3.76519E-19
 -1      4009 8.14708E-05-2.18092E-05-2.56338E-05 1.04313E-05-6.52277E-19 1.96378E-19
 -1      4010 8.10043E-05-2.24474E-05-2.50401E-05 1.20921E-05-2.87384E-19 5.30959E-20
 -1      4011 7.79106E-05-2.08978E-05-2.43586E-05 1.16179E-05-5.47069E-19-6.05159E-19
 -1      4012 7.98179E-05-2.01763E-05-2.55320E-05 8.32681E-06-7.62176E-19 7.53102E-20
 -1      4013 9.03924E-05-2.38299E-05-2.85250E-05-3.90967E-06-6.13249E-20 8.85674E-20
 -1      4014 9.08518E-05-2.41579E-05-2.85957E-05-3.49629E-06 6.21409E-21 8.61812E-20
 -1      4015 9.42833E-05-2.71272E-05-2.87799E-05-1.37981E-06 8.55357E-20 6.34351E-19
 -1      4016 9.44894E-05-2.73698E-05-2.87698E-05-1.24907E-06-2.25647E-19 5.32345E-19
 -1      4017 8.22152E-05-2.24062E-05-2.56220E-05-1.17408E-05 1.03679E-18-1.13434E-18
 -1      4018 9.37460E-05-2.65698E-05-2.87887E-05-1.67930E-06-2.73347E-19 9.03463E-19
 -1      4019 9.39906E-05-2.68455E-05-2.87819E-05-1.50556E-06 2.53727E-19 9.81427E-19
 -1      4020 9.39868E-05-2.68492E-05-2.87692E-05-1.22275E-06-8.13269E-20 8.74733E-19
 -1      4021 9.60350E-05-2.53843E-05-3.02725E-05 2.19057E-07 1.66932E-19-2.74626E-19
 -1      4022 9.62232E-05-2.58101E-05-3.01839E-05-3.51977E-09 1.14854E-19-2.13872E-19
 -1      4023 9.14412E-05-2.45463E-05-2.86682E-05-3.16365E-06 2.52003E-19-5.43986E-20
 -1      4024 9.18442E-05-2.48867E-05-2.87062E-05-2.82416E-06 1.67555E-19 1.64464E-19
 -1      4025 9.06067E-05-2.39602E-05-2.85506E-05-2.83146E-06 2.43987E-20 1.98646E-19
 -1      4026 9.23423E-05-2.52641E-05-2.87470E-05-2.55723E-06 6.37322E-20 1.63485E-19
 -1      4027 9.26874E-05-2.55940E-05-2.87626E-05-2.28019E-06 3.27171E-19 4.94053E-19
 -1      4028 9.16843E-05-2.47650E-05-2.86700E-05-2.28271E-06 2.92987E-19 1.73732E-19
 -1      4029 8.91976E-05-2.31767E-05-2.82912E-05-4.83271E-06-2.71490E-19 2.70082E-19
 -1      4030 8.97025E-05-2.34554E-05-2.84074E-05-4.32625E-06-1.91036E-19-1.36517E-19
 -1      4031 8.93383E-05-2.31479E-05-2.83523E-05-3.51648E-06-6.97328E-20 3.23451E-19
 -1      4032 8.78772E-05-2.26810E-05-2.79339E-05-5.99777E-06-2.08630E-19 7.90651E-19
 -1      4033 8.83995E-05-2.28536E-05-2.81114E-05-5.36459E-06-3.63362E-19 2.07580E-19
 -1      4034 8.78615E-05-2.23826E-05-2.80441E-05-4.38521E-06-3.89643E-19-4.90531E-20
 -1      4035 8.64848E-05-2.24859E-05-2.74137E-05-7.51894E-06-1.24019E-19 1.56457E-18
 -1      4036 8.69659E-05-2.24649E-05-2.76701E-05-6.70138E-06 1.10330E-19 1.40094E-18
 -1      4037 8.61610E-05-2.17428E-05-2.75856E-05-5.52281E-06-6.21609E-19 1.66233E-19
 -1      4038 8.51419E-05-2.28125E-05-2.66853E-05-9.58109E-06-3.37581E-19 1.56539E-18
 -1      4039 8.54672E-05-2.24620E-05-2.70381E-05-8.49067E-06-1.88206E-19 2.00637E-18
 -1      4040 8.42310E-05-2.13475E-05-2.69242E-05-7.08547E-06-3.30366E-19 1.19025E-18
 -1      4041 8.40507E-05-2.39880E-05-2.57004E-05-1.24576E-05-4.46531E-19 1.37727E-18
 -1      4042 8.40521E-05-2.31144E-05-2.61634E-05-1.09672E-05-5.06079E-19 1.37020E-18
 -1      4043 8.20970E-05-2.13817E-05-2.59920E-05-9.31744E-06-3.46711E-19 1.42883E-18
 -1      4044 7.99667E-05-2.21942E-05-2.46964E-05-1.26722E-05-2.73036E-20 1.17061E-18
 -1      4045 9.62848E-05-2.62743E-05-3.00094E-05-3.67594E-07-2.77047E-19-5.92477E-19
 -1      4046 9.64884E-05-2.69249E-05-2.98149E-05-9.73609E-08-1.56068E-19-3.70071E-19
 -1      4047 9.66032E-05-2.70813E-05-2.97927E-05-3.44577E-08-1.08022E-19-3.42943E-19
 -1      4048 9.62661E-05-2.60807E-05-3.00830E-05-2.85983E-07-2.42399E-19-3.33641E-19
 -1      4049 9.59311E-05-2.88743E-05-2.87371E-05-1.01697E-06 2.97053E-19 4.72936E-19
 -1      4050 9.60031E-05-2.89039E-05-2.87563E-05-1.00207E-06 4.97005E-19 5.92141E-19
 -1      4051 9.61968E-05-2.89417E-05-2.88251E-05-8.95822E-07 3.10375E-19 2.65469E-19
 -1      4052 9.59899E-05-2.88683E-05-2.87677E-05-9.26615E-07 4.03567E-19 5.79509E-19
 -1      4053 9.54617E-05-2.83820E-05-2.87469E-05-9.00884E-07-6.66465E-19 7.39589E-19
 -1      4054 9.55975E-05-2.85243E-05-2.87470E-05-8.61249E-07-3.11159E-19 6.25056E-19
 -1      4055 9.64702E-05-2.82500E-05-2.92382E-05-5.29024E-07 1.95600E-19-8.70743E-20
 -1      4056 9.64680E-05-2.79576E-05-2.93600E-05-3.10867E-07 3.34633E-19-1.14932E-19
 -1      4057 9.66079E-05-2.76749E-05-2.95426E-05-1.60182E-07 2.68316E-19-1.11586E-19
 -1      4058 8.38046E-05-2.12820E-05-2.68275E-05 8.08233E-06 1.08386E-18 2.83303E-19
 -1      4059 8.58086E-05-2.24918E-05-2.71228E-05 9.61601E-06 1.35718E-18 6.95040E-19
 -1      4060 8.51228E-05-2.35518E-05-2.64032E-05 1.17083E-05 1.03965E-18 1.50238E-18
 -1      4061 6.79578E-05-1.72953E-05-2.15717E-05-8.36696E-06 8.17076E-19 2.58820E-18
 -1      4062 6.93516E-05-1.87444E-05-2.16440E-05-1.15220E-05 1.17734E-18 1.33692E-18
 -1      4063 7.43346E-05-1.95504E-05-2.35215E-05-1.01750E-05 2.26092E-18 7.39413E-19
 -1      4064 6.77829E-05-1.68834E-05-2.18557E-05-4.86094E-06 6.88244E-19 2.38195E-18
 -1      4065 8.52648E-05-3.15320E-05-2.29819E-05 2.25203E-05-1.56523E-18 1.39962E-18
 -1      4066 7.62524E-05-2.65329E-05-2.10409E-05 2.28649E-05-9.03811E-19-8.40786E-19
 -1      4067 7.25624E-05-2.29113E-05-2.13155E-05 1.81454E-05-5.98283E-19-9.21228E-19
 -1      4068 8.45224E-05-2.97069E-05-2.35753E-05 2.06847E-05-3.28649E-19 1.56049E-18
 -1      4069 9.54864E-05-2.43314E-05-3.05081E-05 9.69168E-07 4.53945E-19-2.91220E-19
 -1      4070 9.53738E-05-2.40127E-05-3.05854E-05 7.74589E-07 3.56776E-19-3.91448E-19
 -1      4071 9.57792E-05-2.48345E-05-3.04003E-05 4.72123E-07 1.89111E-19-2.75221E-19
 -1      4072 9.60184E-05-2.55592E-05-3.01905E-05 5.70355E-07 3.03328E-19-3.14530E-19
 -1      4073 9.63927E-05-2.86535E-05-2.90317E-05-7.78226E-07 4.04231E-19-1.28424E-19
 -1      4074 9.64330E-05-2.84830E-05-2.91191E-05-6.51610E-07 2.82786E-19-8.24580E-20
 -1      4075 9.66545E-05-2.83479E-05-2.92760E-05-4.67148E-07 2.51499E-19-1.82428E-19
 -1      4076 9.65339E-05-2.87154E-05-2.90677E-05-6.98474E-07 2.89923E-19-9.48633E-20
 -1      4077 8.18702E-05-1.96403E-05-2.66921E-05 3.62646E-06 4.79927E-19-7.62952E-19
 -1      4078 8.28191E-05-2.02714E-05-2.68264E-05 5.71555E-06 8.63306E-19-1.58090E-18
 -1      4079 8.08561E-05-2.03792E-05-2.58812E-05 7.46784E-06 7.17156E-19-7.73812E-19
 -1      4080 7.99938E-05-1.90920E-05-2.60621E-05 2.47404E-06 7.58458E-19-1.16854E-18
 -1      4081 9.31053E-05-2.59456E-05-2.87818E-05-2.06764E-06-7.61682E-20 6.80755E-19
 -1      4082 9.33966E-05-2.62517E-05-2.87831E-05-1.84534E-06-2.98821E-19 6.74882E-19
 -1      4083 9.33512E-05-2.62246E-05-2.87628E-05-1.49337E-06-1.53515E-19 6.01408E-19
 -1      4084 7.95161E-05-2.03103E-05-2.53981E-05-8.54550E-06 1.26275E-18-1.55602E-18
 -1      4085 7.65289E-05-1.93875E-05-2.44365E-05-7.39065E-06 1.45024E-18 1.53753E-19
 -1      4086 7.85591E-05-1.89547E-05-2.55675E-05-4.24190E-06 5.59449E-19 1.87432E-19
 -1      4087 7.79134E-05-1.85339E-05-2.54707E-05-1.47196E-06 1.40909E-18 6.61829E-19
 -1      4088 7.32894E-05-1.78892E-05-2.36747E-05-5.42466E-06 9.49983E-19 1.35356E-18
 -1      4089 7.30750E-05-1.97704E-05-2.29416E-05 1.21381E-05-8.45379E-21 5.88225E-20
 -1      4090 6.81223E-05-1.56461E-05-2.23476E-05 1.97490E-06 5.81829E-19 9.52058E-19
 -1      4091 6.84930E-05-1.58335E-05-2.26303E-05-1.43267E-06 1.28769E-19 1.92661E-18
 -1      4092 6.77862E-05-1.80441E-05-2.13357E-05-1.11018E-05-1.34294E-19 1.00264E-18
 -1      4093 9.65253E-05-2.65719E-05-2.99790E-05 4.20105E-08 1.29584E-19-4.65303E-20
 -1      4094 9.63367E-05-2.61057E-05-3.00995E-05-6.78992E-08 2.75104E-20-1.70055E-19
 -1      4095 9.57611E-05-2.86597E-05-2.87562E-05-8.39971E-07 4.24630E-20 5.67070E-19
 -1      4096 9.58849E-05-2.87660E-05-2.87658E-05-8.14893E-07 2.34531E-19 7.05745E-19
 -1      4097 9.57130E-05-2.85831E-05-2.87704E-05-7.18320E-07-7.07933E-20 8.40079E-20
 -1      4098 9.45212E-05-2.73970E-05-2.87649E-05-1.02007E-06-3.88522E-19 4.62611E-19
 -1      4099 9.47364E-05-2.76144E-05-2.87651E-05-1.15787E-06-3.28107E-19 4.63611E-19
 -1      4100 9.49122E-05-2.78240E-05-2.87553E-05-1.06399E-06-5.45470E-19 7.16804E-19
 -1      4101 8.86706E-05-3.33837E-05-2.34382E-05-2.20568E-05-1.69265E-18 8.99966E-19
 -1      4102 7.02638E-05-1.69811E-05-2.28317E-05 5.49766E-06 8.16356E-19 6.32813E-19
 -1      4103 8.44004E-05-2.59352E-05-2.51545E-05 1.57251E-05-1.35350E-19 1.96742E-18
 -1      4104 8.52716E-05-2.79402E-05-2.45278E-05 1.78629E-05 4.91641E-20 2.08479E-18
 -1      4105 7.99324E-05-2.48759E-05-2.34675E-05 1.75540E-05-1.49549E-19-6.23075E-19
 -1      4106 9.61678E-05-2.57498E-05-3.01819E-05 3.02511E-07 1.69360E-19-2.28369E-19
 -1      4107 7.56346E-05-2.02774E-05-2.37928E-05-1.13516E-05-5.73137E-20 1.31052E-18
 -1      4108 7.70075E-05-1.97760E-05-2.46181E-05-9.25727E-06 5.44425E-19 1.55855E-18
 -1      4109 6.37434E-05-1.60487E-05-2.02574E-05 6.54190E-06 1.89739E-20 1.47365E-18
 -1      4110 6.70330E-05-1.64438E-05-2.16204E-05 3.01253E-06-1.70280E-19 1.55307E-18
 -1      4111 6.76189E-05-1.81008E-05-2.12316E-05 1.05940E-05-2.40049E-19-2.89831E-19
 -1      4112 9.63460E-05-2.61948E-05-3.00698E-05-1.74340E-07-1.45284E-19-2.30181E-19
 -1      4113 9.25916E-05-2.55266E-05-2.87346E-05-1.84255E-06 1.10999E-19 4.41490E-19
 -1      4114 9.63074E-05-2.63602E-05-2.99829E-05 3.44593E-07 1.68926E-19-2.46757E-19
 -1      4115 9.62117E-05-2.59801E-05-3.00940E-05 3.45203E-07 1.66956E-19-2.24024E-19
 -1      4116 9.65097E-05-2.69943E-05-2.97917E-05 7.24580E-08 2.40928E-19-2.47375E-19
 -1      4117 9.64722E-05-2.89533E-05-2.89365E-05-7.35348E-07 3.16178E-19 4.44958E-20
 -1      4118 9.65536E-05-2.88913E-05-2.89964E-05-6.88145E-07 4.25211E-19 1.28229E-19
 -1      4119 9.62705E-05-2.89666E-05-2.88437E-05-7.78465E-07 2.39847E-19 2.11003E-19
 -1      4120 9.63685E-05-2.89745E-05-2.88822E-05-7.53529E-07 2.15299E-19 3.80614E-20
 -1      4121 9.65245E-05-2.89744E-05-2.89515E-05-6.16283E-07 3.51937E-19 1.38620E-19
 -1      4122 8.47881E-05-2.45445E-05-2.58121E-05 1.32893E-05 6.11570E-19 1.84535E-18
 -1      4123 9.51240E-05-2.80326E-05-2.87519E-05-1.00224E-06-5.86500E-19 2.26334E-19
 -1      4124 9.52766E-05-2.82090E-05-2.87456E-05-9.38939E-07-7.24660E-19 6.17303E-19
 -1      4125 9.53683E-05-2.82644E-05-2.87582E-05-7.77991E-07-4.76591E-19 7.15045E-20
 -1      4126 9.49755E-05-2.78682E-05-2.87587E-05-8.75046E-07-6.27367E-19 5.63669E-20
 -1      4127 7.50748E-05-2.19958E-05-2.25873E-05-1.60436E-05-3.34954E-19 8.14932E-19
 -1      4128 7.18978E-05-1.89453E-05-2.27141E-05-1.03004E-05-8.42335E-20 9.73089E-19
 -1      4129 7.01624E-05-1.67243E-05-2.27739E-05-6.25685E-06 3.78942E-19 1.80479E-18
 -1      4130 7.22564E-05-1.70669E-05-2.36066E-05-3.22733E-06 2.54810E-19 1.87876E-18
 -1      4131 9.68263E-05-2.77204E-05-2.96170E-05 6.91181E-08-1.04455E-20-2.94353E-19
 -1      4132 9.68904E-05-2.81183E-05-2.94760E-05 1.75190E-07-1.06745E-19-3.08954E-19
 -1      4133 9.66227E-05-2.69029E-05-2.98760E-05 2.89237E-08 1.25340E-19-1.03832E-19
 -1      4134 9.67296E-05-2.71996E-05-2.98011E-05-2.41729E-08-5.10744E-20 1.75251E-19
 -1      4135 9.69195E-05-2.84337E-05-2.93504E-05 2.04187E-07-9.85832E-20-2.82747E-19
 -1      4136 9.68999E-05-2.86674E-05-2.92436E-05 2.71545E-07-9.26932E-20-7.03490E-20
 -1      4137 9.69342E-05-2.82348E-05-2.94416E-05 1.02530E-07 4.67964E-20-1.94436E-19
 -1      4138 9.68500E-05-2.88336E-05-2.91489E-05 2.86191E-07 2.90506E-20 1.05638E-19
 -1      4139 9.67766E-05-2.89440E-05-2.90705E-05 3.29193E-07 1.42662E-19 9.37825E-20
 -1      4140 9.69088E-05-2.87304E-05-2.92201E-05 1.52099E-07 1.54430E-19-1.57645E-19
 -1      4141 9.66729E-05-2.90015E-05-2.90016E-05 3.28931E-07 3.88102E-20 1.54490E-19
 -1      4142 9.65604E-05-2.90161E-05-2.89465E-05 3.56209E-07-3.71880E-20 2.25173E-19
 -1      4143 9.67630E-05-2.89683E-05-2.90572E-05 1.79820E-07-1.77606E-21-2.43968E-19
 -1      4144 9.64224E-05-2.89918E-05-2.88988E-05 3.53706E-07-1.31162E-19 3.94448E-19
 -1      4145 9.62818E-05-2.89347E-05-2.88623E-05 3.71644E-07-2.60627E-19 3.17875E-19
 -1      4146 9.65252E-05-2.90035E-05-2.89398E-05 1.98756E-07-8.45388E-20-1.06289E-19
 -1      4147 9.61197E-05-2.88465E-05-2.88314E-05 3.74017E-07-2.40309E-19 4.22399E-19
 -1      4148 9.59606E-05-2.87363E-05-2.88095E-05 3.91205E-07-2.32551E-19 4.57798E-19
 -1      4149 9.62241E-05-2.88879E-05-2.88592E-05 2.11411E-07-2.45686E-19 5.29841E-19
 -1      4150 9.57730E-05-2.85957E-05-2.87912E-05 3.93481E-07-6.79791E-19 4.02719E-19
 -1      4151 9.55933E-05-2.84378E-05-2.87801E-05 4.17143E-07-8.85489E-19-8.98938E-20
 -1      4152 9.58823E-05-2.86595E-05-2.88101E-05 2.20732E-07-5.16470E-19 1.83488E-19
 -1      4153 9.53813E-05-2.82532E-05-2.87708E-05 4.27272E-07-5.45347E-19-4.30728E-20
 -1      4154 9.51770E-05-2.80531E-05-2.87669E-05 4.60982E-07-2.37512E-19-7.39540E-20
 -1      4155 9.54879E-05-2.83287E-05-2.87819E-05 2.39502E-07-4.72391E-19 4.58168E-19
 -1      4156 9.49364E-05-2.78275E-05-2.87630E-05 4.80622E-07-1.35797E-19-2.06168E-19
 -1      4157 9.46996E-05-2.75870E-05-2.87628E-05 5.27579E-07-1.12037E-19-2.22863E-19
 -1      4158 9.50423E-05-2.79129E-05-2.87678E-05 2.68361E-07-3.25226E-19 1.32429E-19
 -1      4159 9.44207E-05-2.73195E-05-2.87605E-05 5.57900E-07 1.47766E-19 4.86455E-20
 -1      4160 9.41423E-05-2.70384E-05-2.87600E-05 6.21290E-07 1.12894E-19 1.02188E-20
 -1      4161 9.45300E-05-2.74103E-05-2.87611E-05 3.12228E-07 2.29537E-19-1.19751E-19
 -1      4162 9.38090E-05-2.67252E-05-2.87549E-05 6.68263E-07 3.44750E-19 2.01016E-19
 -1      4163 9.34814E-05-2.64017E-05-2.87498E-05 7.54389E-07 3.35024E-19 6.57385E-19
 -1      4164 9.39163E-05-2.68089E-05-2.87524E-05 3.75104E-07 4.26719E-19 2.01250E-19
 -1      4165 9.30840E-05-2.60471E-05-2.87364E-05 8.15647E-07-4.77836E-20 6.09252E-19
 -1      4166 9.26923E-05-2.56817E-05-2.87210E-05 9.25145E-07 6.08569E-20 7.72604E-19
 -1      4167 9.32005E-05-2.61286E-05-2.87326E-05 4.56454E-07 1.69140E-19-2.74827E-20
 -1      4168 9.22144E-05-2.52830E-05-2.86930E-05 1.00598E-06-3.60676E-19 8.43950E-19
 -1      4169 9.17440E-05-2.48777E-05-2.86602E-05 1.14254E-06-7.85032E-19 4.35885E-19
 -1      4170 9.23385E-05-2.53563E-05-2.86895E-05 5.61591E-07-2.78755E-19 4.25552E-19
 -1      4171 9.11688E-05-2.44387E-05-2.86090E-05 1.24686E-06-4.95304E-19 4.92904E-19
 -1      4172 9.06051E-05-2.39994E-05-2.85497E-05 1.41530E-06-3.47130E-19 3.59947E-19
 -1      4173 9.13017E-05-2.44962E-05-2.86082E-05 6.95786E-07-7.48399E-19-7.28361E-20
 -1      4174 8.99127E-05-2.35269E-05-2.84644E-05 1.54869E-06-4.34727E-19 9.64567E-20
 -1      4175 8.92398E-05-2.30645E-05-2.83666E-05 1.75669E-06-6.10365E-19-2.94524E-19
 -1      4176 9.00538E-05-2.35566E-05-2.84689E-05 8.64902E-07-7.08848E-19-4.05587E-19
 -1      4177 8.84052E-05-2.25697E-05-2.82327E-05 1.92806E-06-5.53579E-19-4.04992E-19
 -1      4178 8.76049E-05-2.21002E-05-2.80808E-05 2.18940E-06-4.01644E-19 6.46859E-20
 -1      4179 8.85515E-05-2.25523E-05-2.82461E-05 1.07871E-06-6.25445E-19-1.49130E-19
 -1      4180 8.65930E-05-2.15976E-05-2.78790E-05 2.41368E-06-3.88682E-19 2.60041E-19
 -1      4181 8.56420E-05-2.11419E-05-2.76522E-05 2.75414E-06-5.75792E-19 1.90336E-19
 -1      4182 8.67377E-05-2.15025E-05-2.79055E-05 1.35387E-06-1.87319E-19 9.77612E-20
 -1      4183 8.43974E-05-2.06457E-05-2.73558E-05 3.05762E-06-5.90042E-19-1.02567E-19
 -1      4184 8.32630E-05-2.02291E-05-2.70261E-05 3.52527E-06-7.41802E-19 6.33757E-20
 -1      4185 8.45274E-05-2.04265E-05-2.74009E-05 1.71856E-06-9.87066E-19 2.23660E-19
 -1      4186 8.16935E-05-1.97478E-05-2.65966E-05 3.96093E-06-7.62265E-19-7.60014E-20
 -1      4187 8.03353E-05-1.94087E-05-2.61240E-05 4.63972E-06-5.10331E-19 1.75038E-19
 -1      4188 8.17743E-05-1.93336E-05-2.66663E-05 2.21847E-06-1.33853E-18 1.03409E-19
 -1      4189 9.30033E-05-2.59397E-05-2.87430E-05-1.22331E-06 1.52249E-19 7.49439E-20
 -1      4190 9.33542E-05-2.62803E-05-2.87517E-05-1.08670E-06 3.87221E-20 4.39600E-19
 -1      4191 8.84210E-05-2.25972E-05-2.82145E-05-2.89315E-06-1.91767E-19 9.88346E-19
 -1      4192 8.91148E-05-2.30230E-05-2.83415E-05-2.56719E-06-2.20772E-19 7.01592E-19
 -1      4193 9.11106E-05-2.43613E-05-2.86099E-05-1.87299E-06 1.17642E-19 2.19741E-19
 -1      4194 9.16108E-05-2.47695E-05-2.86560E-05-1.66046E-06 2.61540E-19 4.29207E-19
 -1      4195 8.46571E-05-2.09626E-05-2.73017E-05-4.59825E-06-7.44537E-19 3.90272E-19
 -1      4196 8.55829E-05-2.12945E-05-2.75831E-05-4.04173E-06-7.62687E-19 4.25780E-19
 -1      4197 8.22381E-05-2.03537E-05-2.65206E-05-5.96742E-06-7.61517E-19 9.67489E-19
 -1      4198 8.32813E-05-2.05658E-05-2.69226E-05-5.17962E-06-7.39631E-19 5.21525E-19
 -1      4199 8.30135E-05-1.99891E-05-2.69328E-05-3.51922E-06-8.20660E-19 4.76693E-19
 -1      4200 7.93596E-05-2.00761E-05-2.54067E-05-8.03257E-06-6.75310E-20 1.20614E-18
 -1      4201 8.04925E-05-2.00552E-05-2.59731E-05-6.85657E-06-3.02350E-19 1.39382E-18
 -1      4202 7.99232E-05-1.90524E-05-2.59895E-05-4.64946E-06-5.61410E-19 1.56459E-18
 -1      4203 7.61231E-05-1.84666E-05-2.46442E-05-6.54990E-06 2.13800E-19 1.68389E-18
 -1      4204 9.67382E-05-2.79575E-05-2.94766E-05-2.57256E-07 2.39224E-19-5.85087E-20
 -1      4205 9.66573E-05-2.75373E-05-2.96252E-05-6.91349E-08 2.05552E-19-2.05054E-19
 -1      4206 9.66503E-05-2.72966E-05-2.97209E-05-1.51333E-08 1.89820E-19-1.47624E-19
 -1      4207 7.62291E-05-2.29715E-05-2.27945E-05 1.61322E-05-2.82654E-19-5.52365E-19
 -1      4208 7.09098E-05-1.96094E-05-2.18108E-05 1.33285E-05-6.63432E-19-9.44548E-19
 -1      4209 7.17969E-05-1.87830E-05-2.27059E-05 9.52128E-06-5.95967E-19-9.80651E-19
 -1      4210 7.73257E-05-2.19640E-05-2.38357E-05 1.35650E-05-9.46371E-19-7.74936E-20
 -1      4211 6.86220E-05-1.63571E-05-2.22720E-05-1.77532E-08 2.01538E-19 1.68656E-18
 -1      4212 7.12033E-05-1.73985E-05-2.30074E-05-3.38268E-06 2.24747E-19 1.61800E-18
 -1      4213 7.35724E-05-1.76073E-05-2.40309E-05-9.79807E-07 1.18337E-18 1.37076E-18
 -1      4214 7.03462E-05-1.71909E-05-2.27938E-05 3.66388E-06-2.20679E-19 1.20792E-19
 -1      4215 8.11978E-05-2.23774E-05-2.51619E-05 1.23560E-05 3.75072E-19 6.80383E-19
 -1      4216 7.23146E-05-1.77945E-05-2.32511E-05 8.03143E-06 2.30792E-19 1.18636E-19
 -1      4217 7.27652E-05-1.71833E-05-2.38467E-05 3.78504E-06 2.06808E-19 4.86131E-19
 -1      4218 7.54129E-05-1.95441E-05-2.39202E-05 9.82868E-06-2.17790E-19-5.38144E-19
 -1      4219 9.64580E-05-2.65144E-05-2.99759E-05 1.06202E-07 2.54777E-19-1.79061E-19
 -1      4220 9.60316E-05-2.88608E-05-2.87862E-05-8.06953E-07 3.35247E-19 5.78974E-19
 -1      4221 9.61419E-05-2.89222E-05-2.88084E-05-7.87906E-07 1.75658E-19 3.47729E-19
 -1      4222 9.62936E-05-2.89575E-05-2.88595E-05-6.53202E-07 3.26586E-20-4.64995E-20
 -1      4223 9.60243E-05-2.88206E-05-2.88027E-05-6.83467E-07 2.38995E-20 5.93203E-20
 -1      4224 9.37222E-05-2.66154E-05-2.87608E-05-9.97901E-07-7.00152E-20 4.94757E-19
 -1      4225 9.40176E-05-2.69174E-05-2.87613E-05-8.91144E-07 4.69301E-20 3.88063E-19
 -1      4226 9.34237E-05-2.63314E-05-2.87442E-05-7.36083E-07-7.91244E-20-4.77093E-19
 -1      4227 9.67120E-05-2.88457E-05-2.90877E-05-5.17560E-07 3.76240E-19 2.99608E-20
 -1      4228 9.66374E-05-2.87939E-05-2.90761E-05-6.23531E-07 2.56143E-19 1.31138E-19
 -1      4229 9.67218E-05-2.86642E-05-2.91665E-05-5.15674E-07 1.61074E-19 6.13579E-20
 -1      4230 7.43277E-05-1.72967E-05-2.44485E-05-2.45092E-06 2.94142E-19 1.96493E-18
 -1      4231 8.98805E-05-2.34879E-05-2.84577E-05-2.32489E-06-4.88063E-20 7.78715E-19
 -1      4232 9.04725E-05-2.39146E-05-2.85374E-05-2.06297E-06 9.03570E-20 5.33827E-19
 -1      4233 8.91143E-05-2.29284E-05-2.83331E-05-1.72811E-06-2.06167E-19 6.05326E-19
 -1      4234 8.66961E-05-2.17353E-05-2.78448E-05-3.62356E-06-2.59015E-19 5.17756E-19
 -1      4235 8.75011E-05-2.21327E-05-2.80372E-05-3.20702E-06 1.58250E-19 9.78514E-19
 -1      4236 8.74512E-05-2.19412E-05-2.80331E-05-2.16453E-06-1.70989E-19 7.53188E-19
 -1      4237 8.54506E-05-2.09516E-05-2.75854E-05-2.73798E-06-4.92373E-19 8.27304E-19
 -1      4238 9.21420E-05-2.51852E-05-2.86981E-05-1.51116E-06 1.94835E-19 1.96213E-19
 -1      4239 9.25615E-05-2.55627E-05-2.87214E-05-1.33945E-06 1.39097E-19 3.59288E-19
 -1      4240 9.16590E-05-2.47771E-05-2.86449E-05-1.11651E-06 8.20675E-20-1.21012E-19
 -1      4241 9.66936E-05-2.72056E-05-2.97828E-05 1.54165E-08 1.39817E-20-1.91471E-19
 -1      4242 9.67712E-05-2.73929E-05-2.97318E-05 1.42038E-08-1.09355E-20 5.22215E-20
 -1      4243 7.57925E-05-1.80803E-05-2.46896E-05 2.59859E-07 1.56236E-18 1.39243E-19
 -1      4244 7.81029E-05-1.85999E-05-2.55154E-05 1.69014E-06 8.12270E-19-1.05597E-18
 -1      4245 7.79317E-05-1.88581E-05-2.53387E-05 4.18096E-06 9.46663E-19-1.83490E-18
 -1      4246 7.39615E-05-1.77201E-05-2.41104E-05 2.21855E-06 6.52338E-19-4.32616E-19
 -1      4247 9.68631E-05-2.77055E-05-2.96394E-05 2.22291E-08-9.05559E-20 1.13749E-19
 -1      4248 9.26224E-05-2.55965E-05-2.87114E-05-9.02600E-07 1.58697E-20-3.43333E-19
 -1      4249 9.40977E-05-2.69931E-05-2.87580E-05-6.01758E-07 1.72123E-19 1.10366E-19
 -1      4250 9.43256E-05-2.72101E-05-2.87640E-05-8.29471E-07-3.29556E-19 6.81246E-19
 -1      4251 9.45743E-05-2.74709E-05-2.87614E-05-7.48317E-07-4.62446E-19 4.00891E-19
 -1      4252 9.66679E-05-2.71451E-05-2.97984E-05 3.84064E-08 6.36954E-20-2.63731E-19
 -1      4253 7.82131E-05-1.82636E-05-2.56041E-05 2.90621E-06-7.94184E-19-2.24437E-19
 -1      4254 7.82633E-05-1.88797E-05-2.54991E-05 5.31820E-06-8.32887E-19 1.61453E-20
 -1      4255 7.52806E-05-1.78356E-05-2.45891E-05 4.79879E-06-6.16970E-19-5.83056E-19
 -1      4256 7.36942E-05-1.71042E-05-2.42390E-05 2.14866E-06 3.88973E-20 8.74505E-19
 -1      4257 9.05019E-05-2.38821E-05-2.85266E-05-1.38687E-06-1.20195E-19 5.78104E-19
 -1      4258 7.92553E-05-2.03864E-05-2.52774E-05 8.92668E-06 6.02248E-19-7.42051E-19
 -1      4259 7.86780E-05-2.13574E-05-2.45314E-05 1.13709E-05-4.18256E-19-2.15490E-19
 -1      4260 7.57425E-05-1.97604E-05-2.39719E-05 9.83265E-06-2.41802E-19-4.92167E-19
 -1      4261 7.84392E-05-1.94209E-05-2.52961E-05 6.43387E-06 5.42437E-19-2.00084E-18
 -1      4262 9.56608E-05-2.85133E-05-2.87766E-05-5.66169E-07-7.23997E-20 1.81455E-19
 -1      4263 9.58288E-05-2.86582E-05-2.87876E-05-5.40642E-07 1.07612E-19 1.50112E-19
 -1      4264 7.63528E-05-1.91666E-05-2.45887E-05 8.01169E-06-9.38188E-19-3.96354E-19
 -1      4265 9.65566E-05-2.90076E-05-2.89493E-05-4.87735E-07 2.65586E-19 9.74040E-20
 -1      4266 9.66652E-05-2.89782E-05-2.90067E-05-4.55385E-07 5.41357E-19 1.83367E-19
 -1      4267 7.64916E-05-1.79604E-05-2.51162E-05-1.20344E-06-7.90404E-20 1.06039E-18
 -1      4268 9.67539E-05-2.89136E-05-2.90748E-05-4.11167E-07 5.20229E-19-4.96861E-20
 -1      4269 9.68413E-05-2.88092E-05-2.91552E-05-3.34839E-07 2.41832E-19-8.24801E-20
 -1      4270 9.67662E-05-2.89478E-05-2.90680E-05-2.73781E-07 3.85111E-19 1.12294E-20
 -1      4271 9.67415E-05-2.84849E-05-2.92519E-05-4.68797E-07 1.81294E-19 6.35691E-20
 -1      4272 9.67721E-05-2.82467E-05-2.93683E-05-3.28255E-07 2.01414E-19 8.56912E-20
 -1      4273 9.68146E-05-2.81013E-05-2.94489E-05-2.38906E-07 3.06491E-20 5.09574E-20
 -1      4274 9.68240E-05-2.85675E-05-2.92547E-05-3.84417E-07 2.66578E-20 8.62397E-20
 -1      4275 9.65585E-05-2.67390E-05-2.99169E-05-7.39675E-08-4.47825E-20-2.47737E-19
 -1      4276 9.52753E-05-2.81578E-05-2.87639E-05-6.20085E-07-4.99082E-19 2.64963E-19
 -1      4277 9.54614E-05-2.83415E-05-2.87669E-05-5.81684E-07-2.70542E-19 3.05380E-19
 -1      4278 9.55681E-05-2.84107E-05-2.87819E-05-4.05583E-07-1.09776E-19 6.44801E-19
 -1      4279 9.69609E-05-2.86602E-05-2.92707E-05 1.51656E-08 1.23537E-19-1.93364E-19
 -1      4280 9.69098E-05-2.88319E-05-2.91763E-05 3.48339E-08 9.28326E-20-4.15784E-19
 -1      4281 9.67944E-05-2.89642E-05-2.90697E-05-7.40974E-08 2.08884E-19-1.44457E-19
 -1      4282 9.66903E-05-2.90148E-05-2.90014E-05-6.06459E-08 2.36622E-19-4.47331E-20
 -1      4283 9.63239E-05-2.89417E-05-2.88780E-05 4.00259E-08-6.63955E-20 1.01332E-19
 -1      4284 9.61638E-05-2.88565E-05-2.88450E-05 4.63654E-08-1.78672E-19 4.29343E-19
 -1      4285 9.59238E-05-2.86948E-05-2.88125E-05-8.57407E-08-3.60225E-19 4.72329E-19
 -1      4286 9.57362E-05-2.85471E-05-2.87949E-05-7.68649E-08-2.54023E-19 5.46512E-19
 -1      4287 9.55364E-05-2.83756E-05-2.87836E-05-9.22065E-08-3.41743E-19 5.41084E-19
 -1      4288 9.53218E-05-2.81818E-05-2.87741E-05-8.56644E-08-2.43245E-19 7.89204E-19
 -1      4289 9.46511E-05-2.75447E-05-2.87620E-05 5.16258E-08-1.69893E-19 1.79433E-19
 -1      4290 9.43654E-05-2.72692E-05-2.87584E-05 7.81470E-08 3.07753E-19 1.57764E-19
 -1      4291 9.39779E-05-2.68949E-05-2.87535E-05-1.49706E-07 3.90842E-19-1.25334E-19
 -1      4292 9.36350E-05-2.65715E-05-2.87467E-05-1.32744E-07 1.97410E-19-4.23309E-19
 -1      4293 9.32595E-05-2.62290E-05-2.87356E-05-1.86700E-07-2.49705E-21-4.00866E-19
 -1      4294 9.28516E-05-2.58576E-05-2.87199E-05-1.63008E-07-2.82225E-19-4.86929E-19
 -1      4295 9.24019E-05-2.54721E-05-2.86958E-05-2.32572E-07-2.74372E-19-2.16070E-19
 -1      4296 9.19124E-05-2.50547E-05-2.86646E-05-2.02536E-07-3.04246E-19-6.31564E-19
 -1      4297 9.13711E-05-2.46280E-05-2.86196E-05-2.90251E-07-4.11454E-19-4.56021E-19
 -1      4298 9.07817E-05-2.41674E-05-2.85641E-05-2.53410E-07-4.72287E-19-6.11703E-19
 -1      4299 9.01298E-05-2.37051E-05-2.84880E-05-3.63132E-07-6.32157E-19 8.52980E-20
 -1      4300 8.94190E-05-2.32071E-05-2.83968E-05-3.17987E-07-5.27248E-19-7.52333E-20
 -1      4301 8.86339E-05-2.27188E-05-2.82759E-05-4.56356E-07-5.05506E-19 2.30051E-19
 -1      4302 8.77744E-05-2.21921E-05-2.81340E-05-4.00056E-07-1.75405E-19 6.81364E-19
 -1      4303 8.68262E-05-2.16910E-05-2.79505E-05-5.78651E-07-3.05717E-19 6.46407E-19
 -1      4304 8.57798E-05-2.11456E-05-2.77377E-05-5.06212E-07-4.23345E-19 6.30646E-19
 -1      4305 8.46252E-05-2.06465E-05-2.74673E-05-7.44651E-07-6.90677E-19 4.84456E-19
 -1      4306 8.33339E-05-2.00900E-05-2.71559E-05-6.48827E-07-1.34548E-18 4.13384E-19
 -1      4307 8.19066E-05-1.96039E-05-2.67646E-05-9.75580E-07-1.26837E-18 8.80114E-19
 -1      4308 8.02863E-05-1.90389E-05-2.63150E-05-8.45543E-07-1.06415E-18 9.84870E-19
 -1      4309 7.71457E-05-1.89393E-05-2.49443E-05 6.62987E-06-1.13005E-18-3.56576E-19
 -1      4310 7.84615E-05-1.85089E-05-2.57510E-05-1.26899E-06-7.90733E-19 1.26743E-18
 -1      4311 9.68086E-05-2.76611E-05-2.96340E-05-1.00419E-07-5.07637E-20-8.27114E-20
 -1      4312 9.69421E-05-2.81027E-05-2.95032E-05-7.31964E-09-1.91847E-20-1.49165E-20
 -1      4313 9.69662E-05-2.84232E-05-2.93766E-05 3.02853E-08 5.69215E-20-1.47347E-19
 -1      4314 9.69519E-05-2.85298E-05-2.93248E-05-8.74912E-08 2.92081E-20 8.87286E-21
 -1      4315 9.68911E-05-2.79029E-05-2.95650E-05-5.79389E-08-2.08622E-19-3.59464E-20
 -1      4316 9.64307E-05-2.89970E-05-2.88991E-05-4.88943E-07 2.34937E-19 2.09957E-21
 -1      4317 9.65486E-05-2.90068E-05-2.89491E-05-3.44095E-07 3.91633E-19 4.13652E-19
 -1      4318 9.63015E-05-2.89540E-05-2.88626E-05-5.09201E-07 3.83646E-20-7.33388E-20
 -1      4319 9.68878E-05-2.80592E-05-2.94991E-05-1.30820E-07-5.92105E-20-5.18642E-20
 -1      4320 9.48367E-05-2.77243E-05-2.87622E-05-7.05592E-07-6.21758E-19 2.29523E-19
 -1      4321 9.50491E-05-2.79460E-05-2.87605E-05-6.48818E-07-7.77024E-19 2.78430E-19
 -1      4322 9.46640E-05-2.75471E-05-2.87623E-05-5.13378E-07-6.01863E-19 5.45577E-19
 -1      4323 9.60034E-05-2.87491E-05-2.88242E-05-2.55968E-07-1.96655E-19 4.39740E-19
 -1      4324 9.60682E-05-2.88157E-05-2.88224E-05-4.17408E-07-1.18636E-19 2.32923E-20
 -1      4325 9.65657E-05-2.90170E-05-2.89487E-05-7.77939E-08 6.46444E-20 7.15779E-20
 -1      4326 7.66535E-05-1.88591E-05-2.47355E-05 5.64013E-06 3.64733E-19-1.84077E-18
 -1      4327 9.64226E-05-2.89835E-05-2.89011E-05-6.99841E-08-2.02933E-20 1.71923E-19
 -1      4328 9.51571E-05-2.80290E-05-2.87708E-05 4.58337E-08-4.09418E-19 5.57041E-19
 -1      4329 9.49168E-05-2.77988E-05-2.87658E-05 6.03888E-08-4.91963E-19 6.13729E-19
 -1      4330 9.47835E-05-2.76642E-05-2.87641E-05-1.75606E-07-4.54173E-19 2.97128E-19
 -1      4331 9.63375E-05-2.89501E-05-2.88814E-05-2.47101E-07-8.69069E-20 1.52381E-19
 -1      4332 9.41539E-05-2.70469E-05-2.87569E-05-4.12454E-07 2.37398E-19-2.67523E-19
 -1      4333 7.31956E-05-1.83308E-05-2.34864E-05 7.28713E-06-1.07718E-19-1.25518E-18
 -1      4334 9.68801E-05-2.87382E-05-2.92014E-05-2.77091E-07 1.65465E-19-9.72215E-20
 -1      4335 9.69117E-05-2.85786E-05-2.92860E-05-2.22499E-07 3.43616E-20 4.53851E-20
 -1      4336 9.69146E-05-2.83289E-05-2.93917E-05-2.13639E-07-9.47239E-20 5.78586E-20
 -1      4337 9.51463E-05-2.80205E-05-2.87673E-05-4.48870E-07-5.91415E-19 7.58145E-19
 -1      4338 7.27678E-05-1.78033E-05-2.35343E-05 4.98792E-06-1.25371E-19-1.44487E-18
 -1      4339 9.62171E-05-2.89066E-05-2.88468E-05-3.99771E-07-3.07472E-19 7.88035E-20
 -1      4340 9.52066E-05-2.80769E-05-2.87703E-05-2.95971E-07-5.39854E-19 6.21437E-19
 -1      4341 9.49824E-05-2.78601E-05-2.87657E-05-3.17602E-07-7.20323E-19 5.58472E-19
 -1      4342 9.47204E-05-2.76133E-05-2.87623E-05-3.38099E-07-6.30677E-19 3.31484E-19
 -1      4343 9.68771E-05-2.88836E-05-2.91372E-05-2.02435E-08 1.74995E-19-2.90719E-19
 -1      4344 9.68991E-05-2.88157E-05-2.91806E-05-1.47544E-07 2.24899E-19-1.70586E-19
 -1      4345 9.44623E-05-2.73510E-05-2.87607E-05-3.69679E-07-2.01448E-19 2.11065E-19
 -3
    1PSTEP                         4           1           1          
  100CL  101 1.000000000        4345                     0    1           1
 -4  ERROR       1    1
 -5  STR(%)      1    1    0    0
 -1         1 1.20001E+01
 -1         2 2.38865E+01
 -1         3 8.84904E-02
 -1         4 1.04508E-01
 -1         5 1.40425E+01
 -1         6 1.31468E+01
 -1         7 1.31468E+01
 -1         8 3.66277E+00
 -1         9 1.82316E+00
 -1        10 1.28792E+00
 -1        11 1.04539E+00
 -1        12 8.99384E-01
 -1        13 8.08704E-01
 -1        14 7.54458E-01
 -1        15 7.56414E-01
 -1        16 8.12948E-01
 -1        17 9.00278E-01
 -1        18 1.05173E+00
 -1        19 1.30653E+00
 -1        20 1.83381E+00
 -1        21 3.50453E+00
 -1        22 8.64351E+00
 -1        23 1.31468E+01
 -1        24 4.32082E+00
 -1        25 3.34518E+00
 -1        26 2.11640E+00
 -1        27 1.36857E+00
 -1        28 1.01891E+00
 -1        29 7.81552E-01
 -1        30 6.03994E-01
 -1        31 4.66789E-01
 -1        32 3.60726E-01
 -1        33 2.85651E-01
 -1        34 2.26884E-01
 -1        35 1.82401E-01
 -1        36 1.50192E-01
 -1        37 1.29353E-01
 -1        38 1.23920E-01
 -1        39 1.47785E-01
 -1        40 1.83229E-01
 -1        41 2.31107E-01
 -1        42 2.91583E-01
 -1        43 3.63463E-01
 -1        44 4.43214E-01
 -1        45 5.23613E-01
 -1        46 6.49011E-01
 -1        47 8.21094E-01
 -1        48 1.02730E+00
 -1        49 1.23348E+00
 -1        50 1.35475E+00
 -1        51 1.35475E+00
 -1        52 1.39575E+00
 -1        53 1.39575E+00
 -1        54 1.79932E+00
 -1        55 2.98921E+00
 -1        56 3.98229E+00
 -1        57 3.98229E+00
 -1        58 3.89368E+00
 -1        59 3.88834E+00
 -1        60 2.78417E+00
 -1        61 1.70615E+00
 -1        62 1.32885E+00
 -1        63 1.32885E+00
 -1        64 1.32591E+00
 -1        65 1.32591E+00
 -1        66 1.14551E+00
 -1        67 8.65968E-01
 -1        68 8.16405E-01
 -1        69 7.48886E-01
 -1        70 5.86670E-01
 -1        71 4.67535E-01
 -1        72 1.40425E+01
 -1        73 3.39697E+00
 -1        74 2.41618E+00
 -1        75 1.66955E+00
 -1        76 1.14917E+00
 -1        77 9.09078E-01
 -1        78 7.35928E-01
 -1        79 5.94632E-01
 -1        80 4.78124E-01
 -1        81 3.82825E-01
 -1        82 3.10588E-01
 -1        83 2.54601E-01
 -1        84 2.11034E-01
 -1        85 1.79366E-01
 -1        86 1.60025E-01
 -1        87 1.63085E-01
 -1        88 1.79430E-01
 -1        89 2.03560E-01
 -1        90 2.33057E-01
 -1        91 2.90820E-01
 -1        92 3.62190E-01
 -1        93 4.41224E-01
 -1        94 5.20660E-01
 -1        95 5.87927E-01
 -1        96 6.23510E-01
 -1        97 6.81953E-01
 -1        98 8.93363E-01
 -1        99 1.07048E+00
 -1       100 1.14421E+00
 -1       101 1.46648E+00
 -1       102 1.50186E+00
 -1       103 1.77949E+00
 -1       104 2.11490E+00
 -1       105 3.17322E+00
 -1       106 3.44530E+00
 -1       107 3.84506E+00
 -1       108 3.84506E+00
 -1       109 3.05054E+00
 -1       110 1.75094E+00
 -1       111 1.15635E+00
 -1       112 1.19212E+00
 -1       113 1.35541E+00
 -1       114 1.35541E+00
 -1       115 1.29039E+00
 -1       116 1.08723E+00
 -1       117 8.57954E-01
 -1       118 7.39974E-01
 -1       119 5.74258E-01
 -1       120 3.35627E-01
 -1       121 1.61625E-01
 -1       122 1.61625E-01
 -1       123 1.28851E-01
 -1       124 7.06462E-02
 -1       125 6.01213E-02
 -1       126 1.10158E-01
 -1       127 1.43911E-01
 -1       128 1.54699E-01
 -1       129 1.54699E-01
 -1       130 1.43884E-01
 -1       131 1.09149E-01
 -1       132 6.05272E-02
 -1       133 7.14343E-02
 -1       134 1.29110E-01
 -1       135 2.17883E-01
 -1       136 2.52486E-01
 -1       137 2.52127E+01
 -1       138 4.76681E+01
 -1       139 4.76681E+01
 -1       140 2.09127E+01
 -1       141 1.26030E+01
 -1       142 1.37818E+01
 -1       143 1.37818E+01
 -1       144 1.28376E+01
 -1       145 1.28376E+01
 -1       146 1.61291E+01
 -1       147 4.18783E+01
 -1       148 4.18783E+01
 -1       149 2.46287E+01
 -1       150 2.51597E+01
 -1       151 2.51597E+01
 -1       152 4.80282E+01
 -1       153 4.80282E+01
 -1       154 2.21650E+01
 -1       155 1.18626E+01
 -1       156 1.26922E+01
 -1       157 1.30894E+01
 -1       158 1.30894E+01
 -1       159 1.23709E+01
 -1       160 2.53993E+01
 -1       161 2.95563E+01
 -1       162 2.95563E+01
 -1       163 2.44170E+01
 -1       164 6.07722E+00
 -1       165 2.29721E+00
 -1       166 1.50627E+00
 -1       167 1.15688E+00
 -1       168 9.72917E-01
 -1       169 8.64382E-01
 -1       170 7.96252E-01
 -1       171 7.56414E-01
 -1       172 7.99659E-01
 -1       173 8.67032E-01
 -1       174 9.80398E-01
 -1       175 1.17149E+00
 -1       176 1.52619E+00
 -1       177 2.25935E+00
 -1       178 3.93072E+00
 -1       179 1.40425E+01
 -1       180 4.32082E+00
 -1       181 3.34518E+00
 -1       182 2.11640E+00
 -1       183 1.45219E+00
 -1       184 1.03145E+00
 -1       185 7.81552E-01
 -1       186 6.03994E-01
 -1       187 4.77750E-01
 -1       188 3.80540E-01
 -1       189 3.01962E-01
 -1       190 2.47514E-01
 -1       191 2.01921E-01
 -1       192 1.64693E-01
 -1       193 1.34879E-01
 -1       194 1.22705E-01
 -1       195 1.24507E-01
 -1       196 1.50857E-01
 -1       197 1.86433E-01
 -1       198 2.31440E-01
 -1       199 2.91583E-01
 -1       200 3.70892E-01
 -1       201 4.87855E-01
 -1       202 6.17439E-01
 -1       203 7.47723E-01
 -1       204 8.62463E-01
 -1       205 1.02730E+00
 -1       206 1.23348E+00
 -1       207 1.35475E+00
 -1       208 1.28528E+00
 -1       209 1.39575E+00
 -1       210 1.32710E+00
 -1       211 1.82437E+00
 -1       212 2.98921E+00
 -1       213 3.98229E+00
 -1       214 3.89368E+00
 -1       215 3.88834E+00
 -1       216 2.78417E+00
 -1       217 1.70615E+00
 -1       218 1.18970E+00
 -1       219 1.32885E+00
 -1       220 1.31141E+00
 -1       221 1.32591E+00
 -1       222 1.14551E+00
 -1       223 8.69538E-01
 -1       224 8.16405E-01
 -1       225 7.48886E-01
 -1       226 5.86670E-01
 -1       227 4.67535E-01
 -1       228 3.39697E+00
 -1       229 2.41618E+00
 -1       230 1.66955E+00
 -1       231 1.14917E+00
 -1       232 9.09078E-01
 -1       233 7.35928E-01
 -1       234 5.94632E-01
 -1       235 4.78124E-01
 -1       236 3.82825E-01
 -1       237 3.10588E-01
 -1       238 2.54601E-01
 -1       239 2.11034E-01
 -1       240 1.79366E-01
 -1       241 1.60025E-01
 -1       242 1.56190E-01
 -1       243 1.63085E-01
 -1       244 1.79430E-01
 -1       245 2.07988E-01
 -1       246 2.58167E-01
 -1       247 3.16623E-01
 -1       248 3.80055E-01
 -1       249 4.43312E-01
 -1       250 5.20660E-01
 -1       251 5.87927E-01
 -1       252 6.23510E-01
 -1       253 7.58971E-01
 -1       254 8.93363E-01
 -1       255 1.07048E+00
 -1       256 1.14421E+00
 -1       257 1.46648E+00
 -1       258 1.50186E+00
 -1       259 1.77949E+00
 -1       260 2.22662E+00
 -1       261 3.17322E+00
 -1       262 3.44530E+00
 -1       263 3.84506E+00
 -1       264 3.05054E+00
 -1       265 1.75094E+00
 -1       266 1.15635E+00
 -1       267 1.04891E+00
 -1       268 1.19212E+00
 -1       269 1.35541E+00
 -1       270 1.29039E+00
 -1       271 1.08723E+00
 -1       272 8.57954E-01
 -1       273 7.39974E-01
 -1       274 5.74258E-01
 -1       275 3.47222E-01
 -1       276 2.04909E-01
 -1       277 2.04909E-01
 -1       278 2.01569E-01
 -1       279 9.92919E-02
 -1       280 1.87206E-01
 -1       281 2.57568E-01
 -1       282 2.91570E-01
 -1       283 2.91621E-01
 -1       284 2.91621E-01
 -1       285 2.56650E-01
 -1       286 1.88940E-01
 -1       287 1.00692E-01
 -1       288 2.00736E-01
 -1       289 2.00736E-01
 -1       290 2.61500E-01
 -1       291 3.05834E+01
 -1       292 2.71926E+01
 -1       293 4.76681E+01
 -1       294 2.22271E+01
 -1       295 1.14385E+01
 -1       296 1.26030E+01
 -1       297 1.37818E+01
 -1       298 1.20605E+01
 -1       299 1.28376E+01
 -1       300 1.22284E+01
 -1       301 1.64890E+01
 -1       302 4.18783E+01
 -1       303 3.52839E+01
 -1       304 3.23153E+01
 -1       305 3.23153E+01
 -1       306 3.06581E+01
 -1       307 4.80282E+01
 -1       308 2.29031E+01
 -1       309 1.18626E+01
 -1       310 1.18191E+01
 -1       311 1.26922E+01
 -1       312 1.30894E+01
 -1       313 1.23709E+01
 -1       314 1.20001E+01
 -1       315 1.16459E+01
 -1       316 2.73413E+01
 -1       317 3.19884E+01
 -1       318 3.19884E+01
 -1       319 3.05834E+01
 -1       320 1.04614E+00
 -1       321 2.47867E+00
 -1       322 7.94308E-01
 -1       323 6.94371E-01
 -1       324 6.31590E-01
 -1       325 5.87691E-01
 -1       326 5.90896E-01
 -1       327 6.34208E-01
 -1       328 7.00643E-01
 -1       329 7.95703E-01
 -1       330 9.30737E-01
 -1       331 1.15796E+00
 -1       332 1.32724E+00
 -1       333 2.20235E+00
 -1       334 1.91615E+00
 -1       335 1.73318E+00
 -1       336 1.27204E+00
 -1       337 9.12588E-01
 -1       338 6.62479E-01
 -1       339 5.45359E-01
 -1       340 4.50252E-01
 -1       341 3.67212E-01
 -1       342 3.01843E-01
 -1       343 2.47995E-01
 -1       344 2.02547E-01
 -1       345 1.64793E-01
 -1       346 1.34879E-01
 -1       347 1.14636E-01
 -1       348 1.06657E-01
 -1       349 1.24507E-01
 -1       350 1.50857E-01
 -1       351 1.86433E-01
 -1       352 2.55127E-01
 -1       353 3.44143E-01
 -1       354 4.48006E-01
 -1       355 5.63114E-01
 -1       356 6.80824E-01
 -1       357 7.85428E-01
 -1       358 8.77600E-01
 -1       359 9.82930E-01
 -1       360 1.03574E+00
 -1       361 9.50589E-01
 -1       362 7.96478E-01
 -1       363 8.46434E-01
 -1       364 1.24960E+00
 -1       365 1.78221E+00
 -1       366 2.34457E+00
 -1       367 2.42797E+00
 -1       368 2.42743E+00
 -1       369 2.27329E+00
 -1       370 1.73968E+00
 -1       371 1.17159E+00
 -1       372 8.64190E-01
 -1       373 8.03375E-01
 -1       374 9.15600E-01
 -1       375 9.42598E-01
 -1       376 8.29159E-01
 -1       377 6.88531E-01
 -1       378 6.10321E-01
 -1       379 5.36731E-01
 -1       380 4.07709E-01
 -1       381 1.13322E+00
 -1       382 8.95519E-01
 -1       383 7.08844E-01
 -1       384 5.50816E-01
 -1       385 4.44547E-01
 -1       386 3.79751E-01
 -1       387 3.18004E-01
 -1       388 2.62719E-01
 -1       389 2.18432E-01
 -1       390 1.85139E-01
 -1       391 1.58444E-01
 -1       392 1.38543E-01
 -1       393 1.30923E-01
 -1       394 1.30885E-01
 -1       395 1.41548E-01
 -1       396 1.73709E-01
 -1       397 2.28112E-01
 -1       398 3.13797E-01
 -1       399 4.15778E-01
 -1       400 5.31408E-01
 -1       401 6.53206E-01
 -1       402 7.66627E-01
 -1       403 8.62598E-01
 -1       404 9.35262E-01
 -1       405 9.35262E-01
 -1       406 9.15127E-01
 -1       407 7.44741E-01
 -1       408 6.76310E-01
 -1       409 9.93609E-01
 -1       410 1.67759E+00
 -1       411 1.98435E+00
 -1       412 1.99769E+00
 -1       413 1.93743E+00
 -1       414 2.22443E+00
 -1       415 2.02341E+00
 -1       416 1.34053E+00
 -1       417 7.78757E-01
 -1       418 6.06670E-01
 -1       419 8.32027E-01
 -1       420 9.28937E-01
 -1       421 9.56497E-01
 -1       422 8.61795E-01
 -1       423 7.46173E-01
 -1       424 6.22150E-01
 -1       425 5.15682E-01
 -1       426 3.47222E-01
 -1       427 2.16487E-01
 -1       428 3.81459E-01
 -1       429 3.81459E-01
 -1       430 2.36787E-01
 -1       431 3.45881E-01
 -1       432 4.11652E-01
 -1       433 4.11652E-01
 -1       434 4.11076E-01
 -1       435 4.11076E-01
 -1       436 3.47676E-01
 -1       437 2.38631E-01
 -1       438 2.24020E-01
 -1       439 3.33590E-01
 -1       440 2.71926E+01
 -1       441 3.13699E+01
 -1       442 3.13699E+01
 -1       443 1.70388E+01
 -1       444 9.75975E+00
 -1       445 9.09755E-01
 -1       446 8.90632E+00
 -1       447 1.05500E+01
 -1       448 1.06666E+01
 -1       449 8.48040E+00
 -1       450 7.70458E+00
 -1       451 1.36460E+01
 -1       452 2.31646E+01
 -1       453 2.86219E+01
 -1       454 3.46897E+01
 -1       455 3.46897E+01
 -1       456 3.06581E+01
 -1       457 1.73817E+01
 -1       458 9.77956E+00
 -1       459 7.37479E+00
 -1       460 9.62744E+00
 -1       461 9.53535E+00
 -1       462 1.01543E+01
 -1       463 9.55322E+00
 -1       464 6.41262E+00
 -1       465 1.06454E+01
 -1       466 1.82015E+01
 -1       467 3.19884E+01
 -1       468 2.99666E+01
 -1       469 7.39369E+00
 -1       470 2.23590E+01
 -1       471 9.02050E+00
 -1       472 9.24284E+00
 -1       473 1.05157E+00
 -1       474 4.85937E-01
 -1       475 5.13683E-01
 -1       476 4.31717E-01
 -1       477 4.57353E-01
 -1       478 4.86444E-01
 -1       479 5.10889E-01
 -1       480 5.10889E-01
 -1       481 6.05168E-01
 -1       482 8.95519E-01
 -1       483 8.04124E-01
 -1       484 4.49177E+00
 -1       485 7.06299E-01
 -1       486 5.93659E-01
 -1       487 4.81875E-01
 -1       488 3.83682E-01
 -1       489 3.31145E-01
 -1       490 2.82726E-01
 -1       491 2.37093E-01
 -1       492 1.96418E-01
 -1       493 1.61423E-01
 -1       494 1.31904E-01
 -1       495 1.07041E-01
 -1       496 8.55652E-02
 -1       497 9.25317E-02
 -1       498 1.09762E-01
 -1       499 1.53575E-01
 -1       500 2.19072E-01
 -1       501 2.97803E-01
 -1       502 3.90726E-01
 -1       503 4.97074E-01
 -1       504 6.13205E-01
 -1       505 7.31113E-01
 -1       506 8.36805E-01
 -1       507 9.17132E-01
 -1       508 1.05510E+00
 -1       509 1.17417E+00
 -1       510 1.22639E+00
 -1       511 1.40815E+00
 -1       512 1.61893E+00
 -1       513 1.73905E+00
 -1       514 1.95062E+00
 -1       515 2.83659E+00
 -1       516 3.07772E+00
 -1       517 2.64117E+00
 -1       518 1.89029E+00
 -1       519 1.72916E+00
 -1       520 1.58051E+00
 -1       521 1.36073E+00
 -1       522 1.09876E+00
 -1       523 1.01260E+00
 -1       524 8.68330E-01
 -1       525 7.42256E-01
 -1       526 6.27958E-01
 -1       527 5.02935E-01
 -1       528 5.50816E-01
 -1       529 4.44547E-01
 -1       530 3.79751E-01
 -1       531 3.18004E-01
 -1       532 2.62719E-01
 -1       533 2.18001E-01
 -1       534 1.79317E-01
 -1       535 1.46142E-01
 -1       536 1.19422E-01
 -1       537 9.94556E-02
 -1       538 9.89601E-02
 -1       539 1.16781E-01
 -1       540 1.41548E-01
 -1       541 2.05198E-01
 -1       542 2.82247E-01
 -1       543 3.73625E-01
 -1       544 4.78369E-01
 -1       545 5.92299E-01
 -1       546 7.06363E-01
 -1       547 8.04926E-01
 -1       548 8.85223E-01
 -1       549 9.70808E-01
 -1       550 1.04072E+00
 -1       551 1.03023E+00
 -1       552 1.09221E+00
 -1       553 1.20282E+00
 -1       554 1.48800E+00
 -1       555 1.76835E+00
 -1       556 2.37381E+00
 -1       557 2.47333E+00
 -1       558 2.56453E+00
 -1       559 1.88675E+00
 -1       560 1.57974E+00
 -1       561 1.24256E+00
 -1       562 1.16259E+00
 -1       563 9.35856E-01
 -1       564 9.21094E-01
 -1       565 8.47380E-01
 -1       566 7.40722E-01
 -1       567 6.44159E-01
 -1       568 5.28002E-01
 -1       569 4.35370E-01
 -1       570 4.16266E-01
 -1       571 5.33282E-01
 -1       572 3.59659E-01
 -1       573 3.25851E-01
 -1       574 5.63552E-01
 -1       575 5.63552E-01
 -1       576 5.62640E-01
 -1       577 5.35957E-01
 -1       578 4.18859E-01
 -1       579 3.77264E-01
 -1       580 3.77264E-01
 -1       581 1.25185E+01
 -1       582 2.99666E+01
 -1       583 7.08844E-01
 -1       584 3.13699E+01
 -1       585 2.19919E+01
 -1       586 8.73745E-01
 -1       587 8.25414E+00
 -1       588 7.07603E+00
 -1       589 1.91391E+01
 -1       590 4.57223E-01
 -1       591 3.30769E+00
 -1       592 7.82678E+00
 -1       593 6.34580E+00
 -1       594 7.12292E+00
 -1       595 1.09269E+01
 -1       596 2.86219E+01
 -1       597 3.46897E+01
 -1       598 2.02686E+01
 -1       599 1.42121E+01
 -1       600 8.71718E+00
 -1       601 5.44609E+00
 -1       602 4.97339E+00
 -1       603 1.39049E+01
 -1       604 6.13399E+00
 -1       605 4.20267E+00
 -1       606 5.87982E+00
 -1       607 9.17480E+00
 -1       608 1.32928E+00
 -1       609 5.68829E+00
 -1       610 5.30511E-01
 -1       611 1.31412E+01
 -1       612 3.39255E-01
 -1       613 1.60046E+01
 -1       614 7.46547E+00
 -1       615 1.02860E+01
 -1       616 9.00959E+00
 -1       617 8.18773E+00
 -1       618 5.76959E+00
 -1       619 7.78087E+00
 -1       620 4.48068E+00
 -1       621 3.57819E-01
 -1       622 3.43250E-01
 -1       623 3.62762E-01
 -1       624 3.37709E-01
 -1       625 5.45113E-01
 -1       626 3.18542E+00
 -1       627 5.19457E-01
 -1       628 4.13110E+00
 -1       629 4.00600E-01
 -1       630 3.88182E-01
 -1       631 3.47306E-01
 -1       632 2.97579E-01
 -1       633 2.47391E-01
 -1       634 2.14787E-01
 -1       635 1.82057E-01
 -1       636 1.52145E-01
 -1       637 1.23943E-01
 -1       638 9.75214E-02
 -1       639 7.22463E-02
 -1       640 5.82148E-02
 -1       641 6.90766E-02
 -1       642 1.15224E-01
 -1       643 1.70442E-01
 -1       644 2.36968E-01
 -1       645 3.16979E-01
 -1       646 4.12382E-01
 -1       647 5.24465E-01
 -1       648 6.53329E-01
 -1       649 7.96826E-01
 -1       650 9.48615E-01
 -1       651 1.09420E+00
 -1       652 1.32079E+00
 -1       653 1.61644E+00
 -1       654 1.92869E+00
 -1       655 2.23903E+00
 -1       656 2.48877E+00
 -1       657 1.97639E+00
 -1       658 2.83659E+00
 -1       659 4.99091E+00
 -1       660 2.80465E+00
 -1       661 2.35179E+00
 -1       662 2.55481E+00
 -1       663 2.16488E+00
 -1       664 1.75252E+00
 -1       665 1.44337E+00
 -1       666 1.13262E+00
 -1       667 9.16224E-01
 -1       668 7.52362E-01
 -1       669 5.40783E-01
 -1       670 3.32640E-01
 -1       671 1.40033E+01
 -1       672 4.00942E-01
 -1       673 2.41911E-01
 -1       674 2.05509E-01
 -1       675 1.71438E-01
 -1       676 1.40663E-01
 -1       677 1.13179E-01
 -1       678 8.82973E-02
 -1       679 6.93383E-02
 -1       680 8.08016E-02
 -1       681 1.10703E-01
 -1       682 1.66112E-01
 -1       683 2.32808E-01
 -1       684 3.12677E-01
 -1       685 4.06918E-01
 -1       686 5.15431E-01
 -1       687 6.35916E-01
 -1       688 7.62575E-01
 -1       689 8.84429E-01
 -1       690 9.89711E-01
 -1       691 1.17831E+00
 -1       692 1.38166E+00
 -1       693 1.52347E+00
 -1       694 1.81955E+00
 -1       695 1.93338E+00
 -1       696 2.40279E+00
 -1       697 4.13110E+00
 -1       698 2.82844E+00
 -1       699 5.42739E+00
 -1       700 5.36041E+00
 -1       701 2.52719E+00
 -1       702 2.05802E+00
 -1       703 1.90765E+00
 -1       704 1.44894E+00
 -1       705 1.30583E+00
 -1       706 1.09299E+00
 -1       707 8.73461E-01
 -1       708 7.41804E-01
 -1       709 6.01256E-01
 -1       710 4.85268E-01
 -1       711 7.45067E-01
 -1       712 3.77264E-01
 -1       713 6.37361E-01
 -1       714 7.42123E-01
 -1       715 7.45067E-01
 -1       716 4.69061E-01
 -1       717 7.42123E-01
 -1       718 6.40739E-01
 -1       719 5.03843E-01
 -1       720 1.46505E+01
 -1       721 5.30511E-01
 -1       722 3.87309E+00
 -1       723 1.08408E+01
 -1       724 3.06085E+00
 -1       725 7.42029E+00
 -1       726 2.78221E-01
 -1       727 4.02801E-01
 -1       728 3.62762E-01
 -1       729 3.58401E-01
 -1       730 5.42739E+00
 -1       731 1.38299E+01
 -1       732 3.13204E+00
 -1       733 1.27224E+01
 -1       734 7.03707E+00
 -1       735 1.09394E+01
 -1       736 5.20203E+00
 -1       737 3.06453E+00
 -1       738 5.79088E+00
 -1       739 4.65641E+00
 -1       740 5.24567E+00
 -1       741 1.21725E+01
 -1       742 3.77002E-01
 -1       743 3.42810E-01
 -1       744 1.00441E+01
 -1       745 2.81158E+00
 -1       746 5.00625E-01
 -1       747 7.78326E+00
 -1       748 3.77230E+00
 -1       749 1.12764E+01
 -1       750 5.37513E+00
 -1       751 3.89929E-01
 -1       752 6.21775E+00
 -1       753 6.88762E+00
 -1       754 3.81673E-01
 -1       755 1.10459E+01
 -1       756 9.07909E+00
 -1       757 7.70275E+00
 -1       758 3.57497E-01
 -1       759 3.22471E+00
 -1       760 2.79799E-01
 -1       761 2.58543E-01
 -1       762 2.51139E-01
 -1       763 2.28768E-01
 -1       764 1.99214E-01
 -1       765 1.71787E-01
 -1       766 1.48282E-01
 -1       767 1.22412E-01
 -1       768 9.55840E-02
 -1       769 6.82036E-02
 -1       770 4.52905E-02
 -1       771 4.80432E-02
 -1       772 8.32089E-02
 -1       773 1.30904E-01
 -1       774 1.90868E-01
 -1       775 2.63339E-01
 -1       776 3.49750E-01
 -1       777 4.50300E-01
 -1       778 5.62781E-01
 -1       779 7.05179E-01
 -1       780 8.97677E-01
 -1       781 1.14644E+00
 -1       782 1.45915E+00
 -1       783 1.78509E+00
 -1       784 2.37224E+00
 -1       785 3.04066E+00
 -1       786 2.64673E+00
 -1       787 2.55481E+00
 -1       788 4.17675E+00
 -1       789 2.91119E+00
 -1       790 2.04750E+00
 -1       791 1.60534E+00
 -1       792 1.26903E+00
 -1       793 9.52668E-01
 -1       794 5.72501E-01
 -1       795 9.74950E-01
 -1       796 1.61776E-01
 -1       797 1.89703E-01
 -1       798 1.03295E-01
 -1       799 7.66072E-02
 -1       800 5.07129E-02
 -1       801 4.35704E-02
 -1       802 7.35667E-02
 -1       803 1.18695E-01
 -1       804 1.72814E-01
 -1       805 2.38324E-01
 -1       806 3.17941E-01
 -1       807 4.17686E-01
 -1       808 5.39290E-01
 -1       809 6.83211E-01
 -1       810 8.47847E-01
 -1       811 1.04321E+00
 -1       812 1.26200E+00
 -1       813 1.50693E+00
 -1       814 1.96536E+00
 -1       815 2.98114E+00
 -1       816 2.87368E+00
 -1       817 2.40279E+00
 -1       818 2.63884E+00
 -1       819 2.49196E+00
 -1       820 1.98403E+00
 -1       821 1.50473E+00
 -1       822 1.18380E+00
 -1       823 9.43932E-01
 -1       824 7.18768E-01
 -1       825 5.14519E-01
 -1       826 4.18612E+00
 -1       827 2.91172E-01
 -1       828 9.12639E-01
 -1       829 9.74950E-01
 -1       830 7.97979E+00
 -1       831 9.32556E+00
 -1       832 1.32588E-01
 -1       833 2.89862E-01
 -1       834 3.59997E+00
 -1       835 4.06554E+00
 -1       836 2.35687E-01
 -1       837 2.84726E+00
 -1       838 2.93215E+00
 -1       839 7.31804E-01
 -1       840 3.63308E+00
 -1       841 9.19930E+00
 -1       842 7.98955E+00
 -1       843 2.82614E-01
 -1       844 7.91369E+00
 -1       845 3.36578E-01
 -1       846 7.29106E-01
 -1       847 4.26422E+00
 -1       848 7.98955E+00
 -1       849 1.97639E+00
 -1       850 2.62663E-01
 -1       851 2.56931E-01
 -1       852 5.43399E+00
 -1       853 3.11003E-01
 -1       854 2.19220E-01
 -1       855 2.52719E+00
 -1       856 9.29177E-01
 -1       857 3.36578E-01
 -1       858 9.71731E-01
 -1       859 6.39008E+00
 -1       860 7.56521E+00
 -1       861 5.79006E+00
 -1       862 8.01261E+00
 -1       863 5.52437E-01
 -1       864 5.37219E+00
 -1       865 2.89370E-01
 -1       866 2.80943E-01
 -1       867 3.28048E-01
 -1       868 1.83926E-01
 -1       869 1.75689E-01
 -1       870 1.58342E-01
 -1       871 1.36598E-01
 -1       872 1.19855E-01
 -1       873 9.99041E-02
 -1       874 7.81211E-02
 -1       875 6.45221E-02
 -1       876 6.86503E-02
 -1       877 7.95824E-02
 -1       878 1.24480E-01
 -1       879 1.79981E-01
 -1       880 2.48186E-01
 -1       881 3.31793E-01
 -1       882 4.33626E-01
 -1       883 5.56446E-01
 -1       884 7.02384E-01
 -1       885 8.71553E-01
 -1       886 1.09476E+00
 -1       887 1.43500E+00
 -1       888 2.03106E+00
 -1       889 3.57342E+00
 -1       890 7.14847E+00
 -1       891 3.35426E+00
 -1       892 1.83580E+00
 -1       893 1.20943E+00
 -1       894 6.00823E-02
 -1       895 8.52120E-02
 -1       896 6.55978E-02
 -1       897 1.07054E-01
 -1       898 1.60239E-01
 -1       899 2.25113E-01
 -1       900 3.03903E-01
 -1       901 3.98533E-01
 -1       902 5.10145E-01
 -1       903 6.38092E-01
 -1       904 7.79656E-01
 -1       905 9.90933E-01
 -1       906 1.28823E+00
 -1       907 1.71842E+00
 -1       908 2.25492E+00
 -1       909 3.43487E+00
 -1       910 3.06875E+00
 -1       911 1.78230E+00
 -1       912 1.26929E+00
 -1       913 9.35474E-01
 -1       914 1.34717E+00
 -1       915 5.80866E-01
 -1       916 1.34717E+00
 -1       917 5.16138E+00
 -1       918 4.61806E+00
 -1       919 1.51285E-01
 -1       920 1.16681E+00
 -1       921 6.08506E+00
 -1       922 4.05645E+00
 -1       923 4.09643E+00
 -1       924 2.42235E+00
 -1       925 2.89370E-01
 -1       926 5.82437E-02
 -1       927 1.56287E-01
 -1       928 1.76307E-01
 -1       929 6.74640E+00
 -1       930 4.54691E+00
 -1       931 1.77941E+00
 -1       932 4.58068E+00
 -1       933 4.67723E+00
 -1       934 4.52385E+00
 -1       935 2.17659E-01
 -1       936 8.39189E-01
 -1       937 2.10204E-01
 -1       938 1.75471E-01
 -1       939 1.09297E-01
 -1       940 2.05775E-01
 -1       941 2.05591E-01
 -1       942 3.42943E+00
 -1       943 1.31872E-01
 -1       944 5.19253E+00
 -1       945 4.54691E+00
 -1       946 2.32712E-01
 -1       947 6.30345E+00
 -1       948 2.11999E-01
 -1       949 2.05465E-01
 -1       950 5.38024E+00
 -1       951 2.32712E-01
 -1       952 2.11629E+00
 -1       953 3.05708E+00
 -1       954 1.36624E-01
 -1       955 1.34895E-01
 -1       956 1.24453E-01
 -1       957 1.08741E-01
 -1       958 9.54840E-02
 -1       959 8.03897E-02
 -1       960 7.66224E-02
 -1       961 8.09475E-02
 -1       962 8.90410E-02
 -1       963 1.07688E-01
 -1       964 1.54491E-01
 -1       965 2.12863E-01
 -1       966 2.85995E-01
 -1       967 3.77995E-01
 -1       968 4.94540E-01
 -1       969 6.43879E-01
 -1       970 8.38166E-01
 -1       971 1.09476E+00
 -1       972 1.43500E+00
 -1       973 1.86334E+00
 -1       974 2.32183E+00
 -1       975 2.17659E-01
 -1       976 1.97984E-01
 -1       977 2.51778E+00
 -1       978 1.43848E-01
 -1       979 9.71668E-02
 -1       980 2.73179E-01
 -1       981 3.62013E-01
 -1       982 4.72239E-01
 -1       983 6.09192E-01
 -1       984 7.79656E-01
 -1       985 9.90933E-01
 -1       986 1.24715E+00
 -1       987 1.68446E+00
 -1       988 2.44380E+00
 -1       989 3.43487E+00
 -1       990 1.92116E-01
 -1       991 1.87437E+00
 -1       992 2.51778E+00
 -1       993 5.35265E+00
 -1       994 3.60822E+00
 -1       995 2.11629E+00
 -1       996 2.60399E+00
 -1       997 3.57342E+00
 -1       998 1.24486E-01
 -1       999 2.01569E-01
 -1      1000 7.03786E-02
 -1      1001 1.26958E-01
 -1      1002 2.00587E+00
 -1      1003 5.35265E+00
 -1      1004 4.96646E+00
 -1      1005 8.84659E-02
 -1      1006 8.02239E-02
 -1      1007 4.96646E+00
 -1      1008 2.06365E-01
 -1      1009 1.20352E-01
 -1      1010 5.19253E+00
 -1      1011 5.65311E+00
 -1      1012 3.26756E+00
 -1      1013 4.65003E+00
 -1      1014 3.22754E+00
 -1      1015 2.01217E-01
 -1      1016 1.39801E-01
 -1      1017 7.40580E-02
 -1      1018 1.76453E-01
 -1      1019 2.06365E-01
 -1      1020 9.09467E-02
 -1      1021 2.54914E+00
 -1      1022 1.02255E-01
 -1      1023 1.02853E-01
 -1      1024 9.63617E-02
 -1      1025 8.53776E-02
 -1      1026 8.01493E-02
 -1      1027 8.36306E-02
 -1      1028 8.70924E-02
 -1      1029 9.34095E-02
 -1      1030 1.05238E-01
 -1      1031 1.30427E-01
 -1      1032 1.65655E-01
 -1      1033 2.22266E-01
 -1      1034 2.94820E-01
 -1      1035 3.88994E-01
 -1      1036 5.13975E-01
 -1      1037 6.85466E-01
 -1      1038 9.31029E-01
 -1      1039 1.30506E+00
 -1      1040 1.62293E+00
 -1      1041 1.83303E+00
 -1      1042 5.15043E-01
 -1      1043 1.18640E-01
 -1      1044 1.64459E-01
 -1      1045 1.01263E-01
 -1      1046 3.91895E-01
 -1      1047 2.97056E-01
 -1      1048 6.78775E-01
 -1      1049 9.04108E-01
 -1      1050 1.22380E+00
 -1      1051 1.68446E+00
 -1      1052 2.44818E+00
 -1      1053 8.58552E-02
 -1      1054 1.05696E-01
 -1      1055 8.17389E-02
 -1      1056 1.93404E-01
 -1      1057 2.11629E+00
 -1      1058 3.22754E+00
 -1      1059 4.33404E+00
 -1      1060 1.56022E-01
 -1      1061 1.72919E-01
 -1      1062 1.77941E+00
 -1      1063 2.22919E-01
 -1      1064 2.27438E+00
 -1      1065 3.10106E+00
 -1      1066 8.58552E-02
 -1      1067 1.03028E-01
 -1      1068 9.80010E-02
 -1      1069 2.60399E+00
 -1      1070 3.15908E+00
 -1      1071 4.76288E+00
 -1      1072 7.28090E-02
 -1      1073 1.08797E-01
 -1      1074 9.52519E-02
 -1      1075 8.78882E-02
 -1      1076 6.62360E-02
 -1      1077 5.59014E-02
 -1      1078 7.52712E-02
 -1      1079 8.68504E-02
 -1      1080 8.59860E-02
 -1      1081 8.06092E-02
 -1      1082 1.11661E-01
 -1      1083 8.70924E-02
 -1      1084 9.34095E-02
 -1      1085 1.04031E-01
 -1      1086 1.37606E-01
 -1      1087 1.64160E-01
 -1      1088 2.06140E-01
 -1      1089 2.60314E-01
 -1      1090 3.31632E-01
 -1      1091 4.28398E-01
 -1      1092 5.58797E-01
 -1      1093 7.40131E-01
 -1      1094 9.93009E-01
 -1      1095 1.35667E+00
 -1      1096 1.86491E-01
 -1      1097 4.99565E-01
 -1      1098 2.98654E-01
 -1      1099 9.32376E-01
 -1      1100 1.38095E+00
 -1      1101 2.56841E+00
 -1      1102 7.46541E-02
 -1      1103 3.12148E+00
 -1      1104 2.79116E+00
 -1      1105 2.14481E+00
 -1      1106 9.49134E-02
 -1      1107 1.47994E-01
 -1      1108 1.27133E-01
 -1      1109 3.79335E-01
 -1      1110 6.73824E-01
 -1      1111 2.35705E-01
 -1      1112 2.73238E+00
 -1      1113 1.42508E-01
 -1      1114 2.15571E+00
 -1      1115 2.73238E+00
 -1      1116 1.11661E-01
 -1      1117 8.68504E-02
 -1      1118 9.24668E-02
 -1      1119 1.02284E-01
 -1      1120 8.78882E-02
 -1      1121 7.24228E-02
 -1      1122 1.11661E-01
 -1      1123 1.42508E-01
 -1      1124 6.67548E-02
 -1      1125 8.59860E-02
 -1      1126 1.00840E-01
 -1      1127 1.00840E-01
 -1      1128 1.31468E+01
 -1      1129 8.40477E+00
 -1      1130 2.74297E+00
 -1      1131 1.55554E+00
 -1      1132 1.16666E+00
 -1      1133 9.72385E-01
 -1      1134 8.54044E-01
 -1      1135 7.81581E-01
 -1      1136 7.55436E-01
 -1      1137 7.84681E-01
 -1      1138 8.56613E-01
 -1      1139 9.76004E-01
 -1      1140 1.17913E+00
 -1      1141 1.57017E+00
 -1      1142 2.66917E+00
 -1      1143 6.07402E+00
 -1      1144 1.13430E+01
 -1      1145 1.31468E+01
 -1      1146 8.73379E+00
 -1      1147 3.83300E+00
 -1      1148 2.73079E+00
 -1      1149 1.74248E+00
 -1      1150 1.19374E+00
 -1      1151 9.00231E-01
 -1      1152 6.92773E-01
 -1      1153 5.35391E-01
 -1      1154 4.13758E-01
 -1      1155 3.23189E-01
 -1      1156 2.56267E-01
 -1      1157 2.04643E-01
 -1      1158 1.66296E-01
 -1      1159 1.39773E-01
 -1      1160 1.26637E-01
 -1      1161 1.35853E-01
 -1      1162 1.65507E-01
 -1      1163 2.07168E-01
 -1      1164 2.61345E-01
 -1      1165 3.27523E-01
 -1      1166 4.03338E-01
 -1      1167 4.83413E-01
 -1      1168 5.86312E-01
 -1      1169 7.35053E-01
 -1      1170 9.24196E-01
 -1      1171 1.13039E+00
 -1      1172 1.29412E+00
 -1      1173 1.35475E+00
 -1      1174 1.37525E+00
 -1      1175 1.39575E+00
 -1      1176 1.59754E+00
 -1      1177 2.39426E+00
 -1      1178 3.48575E+00
 -1      1179 3.98229E+00
 -1      1180 3.93799E+00
 -1      1181 3.89101E+00
 -1      1182 3.33626E+00
 -1      1183 2.24516E+00
 -1      1184 1.51750E+00
 -1      1185 1.32885E+00
 -1      1186 1.32738E+00
 -1      1187 1.32591E+00
 -1      1188 1.23571E+00
 -1      1189 1.00574E+00
 -1      1190 8.41187E-01
 -1      1191 7.82646E-01
 -1      1192 6.67778E-01
 -1      1193 5.27103E-01
 -1      1194 2.86022E-01
 -1      1195 1.40425E+01
 -1      1196 8.71972E+00
 -1      1197 2.90657E+00
 -1      1198 2.04286E+00
 -1      1199 1.40936E+00
 -1      1200 1.02912E+00
 -1      1201 8.22503E-01
 -1      1202 6.65280E-01
 -1      1203 5.36378E-01
 -1      1204 4.30475E-01
 -1      1205 3.46706E-01
 -1      1206 2.82594E-01
 -1      1207 2.32817E-01
 -1      1208 1.95200E-01
 -1      1209 1.69695E-01
 -1      1210 1.61555E-01
 -1      1211 1.71257E-01
 -1      1212 1.91495E-01
 -1      1213 2.18308E-01
 -1      1214 2.61938E-01
 -1      1215 3.26505E-01
 -1      1216 4.01707E-01
 -1      1217 4.80942E-01
 -1      1218 5.54294E-01
 -1      1219 6.05718E-01
 -1      1220 6.52732E-01
 -1      1221 7.87658E-01
 -1      1222 9.81924E-01
 -1      1223 1.10735E+00
 -1      1224 1.30534E+00
 -1      1225 1.48417E+00
 -1      1226 1.64068E+00
 -1      1227 1.94720E+00
 -1      1228 2.64406E+00
 -1      1229 3.30926E+00
 -1      1230 3.64518E+00
 -1      1231 3.84506E+00
 -1      1232 3.44780E+00
 -1      1233 2.40074E+00
 -1      1234 1.45365E+00
 -1      1235 1.17423E+00
 -1      1236 1.27376E+00
 -1      1237 1.35541E+00
 -1      1238 1.32290E+00
 -1      1239 1.18881E+00
 -1      1240 9.72593E-01
 -1      1241 7.98964E-01
 -1      1242 6.57116E-01
 -1      1243 4.54943E-01
 -1      1244 2.12059E-01
 -1      1245 1.25057E-01
 -1      1246 1.61625E-01
 -1      1247 1.45238E-01
 -1      1248 9.97488E-02
 -1      1249 6.53837E-02
 -1      1250 8.51397E-02
 -1      1251 1.27034E-01
 -1      1252 1.49305E-01
 -1      1253 1.54699E-01
 -1      1254 1.49292E-01
 -1      1255 1.26517E-01
 -1      1256 8.48381E-02
 -1      1257 6.59808E-02
 -1      1258 1.00272E-01
 -1      1259 1.73496E-01
 -1      1260 2.35185E-01
 -1      1261 1.78497E-01
 -1      1262 2.45496E+01
 -1      1263 3.64404E+01
 -1      1264 4.76681E+01
 -1      1265 3.42904E+01
 -1      1266 1.67579E+01
 -1      1267 1.31924E+01
 -1      1268 1.37818E+01
 -1      1269 1.33097E+01
 -1      1270 1.28376E+01
 -1      1271 1.44834E+01
 -1      1272 2.90037E+01
 -1      1273 4.18783E+01
 -1      1274 3.32535E+01
 -1      1275 2.48942E+01
 -1      1276 2.51597E+01
 -1      1277 3.65939E+01
 -1      1278 4.80282E+01
 -1      1279 3.50966E+01
 -1      1280 1.70138E+01
 -1      1281 1.22774E+01
 -1      1282 1.28908E+01
 -1      1283 1.30894E+01
 -1      1284 1.27302E+01
 -1      1285 1.21855E+01
 -1      1286 1.86997E+01
 -1      1287 2.74778E+01
 -1      1288 2.95563E+01
 -1      1289 2.69866E+01
 -1      1290 2.41518E+01
 -1      1291 1.31468E+01
 -1      1292 4.87000E+00
 -1      1293 9.61199E+00
 -1      1294 2.06019E+00
 -1      1295 2.97999E+00
 -1      1296 4.18722E+00
 -1      1297 1.39710E+00
 -1      1298 1.66472E+00
 -1      1299 1.90174E+00
 -1      1300 1.10113E+00
 -1      1301 1.22240E+00
 -1      1302 1.33157E+00
 -1      1303 9.36151E-01
 -1      1304 1.00915E+00
 -1      1305 1.06490E+00
 -1      1306 8.36543E-01
 -1      1307 8.81883E-01
 -1      1308 9.18650E-01
 -1      1309 7.75355E-01
 -1      1310 8.02478E-01
 -1      1311 8.30317E-01
 -1      1312 7.56414E-01
 -1      1313 7.55436E-01
 -1      1314 7.76333E-01
 -1      1315 8.06304E-01
 -1      1316 7.78037E-01
 -1      1317 7.78037E-01
 -1      1318 8.83655E-01
 -1      1319 8.39990E-01
 -1      1320 8.33346E-01
 -1      1321 1.01606E+00
 -1      1322 9.40338E-01
 -1      1323 9.23715E-01
 -1      1324 1.23901E+00
 -1      1325 1.11161E+00
 -1      1326 1.07594E+00
 -1      1327 1.68000E+00
 -1      1328 1.41636E+00
 -1      1329 1.34884E+00
 -1      1330 2.88194E+00
 -1      1331 2.04658E+00
 -1      1332 1.89277E+00
 -1      1333 6.28712E+00
 -1      1334 3.71762E+00
 -1      1335 3.09504E+00
 -1      1336 1.40425E+01
 -1      1337 1.13430E+01
 -1      1338 8.98660E+00
 -1      1339 1.40425E+01
 -1      1340 8.73379E+00
 -1      1341 4.32082E+00
 -1      1342 3.83300E+00
 -1      1343 3.34518E+00
 -1      1344 3.83300E+00
 -1      1345 2.73079E+00
 -1      1346 2.11640E+00
 -1      1347 2.73079E+00
 -1      1348 1.78429E+00
 -1      1349 1.41038E+00
 -1      1350 1.78429E+00
 -1      1351 1.20001E+00
 -1      1352 1.02518E+00
 -1      1353 1.24182E+00
 -1      1354 9.00231E-01
 -1      1355 7.81552E-01
 -1      1356 9.06499E-01
 -1      1357 6.92773E-01
 -1      1358 6.03994E-01
 -1      1359 6.92773E-01
 -1      1360 5.40872E-01
 -1      1361 4.72269E-01
 -1      1362 5.40872E-01
 -1      1363 4.23664E-01
 -1      1364 3.70633E-01
 -1      1365 4.29145E-01
 -1      1366 3.31344E-01
 -1      1367 2.93807E-01
 -1      1368 3.41251E-01
 -1      1369 2.66582E-01
 -1      1370 2.37199E-01
 -1      1371 2.74738E-01
 -1      1372 2.14402E-01
 -1      1373 1.92161E-01
 -1      1374 2.24717E-01
 -1      1375 1.73547E-01
 -1      1376 1.57442E-01
 -1      1377 1.83307E-01
 -1      1378 1.42535E-01
 -1      1379 1.32116E-01
 -1      1380 1.49786E-01
 -1      1381 1.26029E-01
 -1      1382 1.23313E-01
 -1      1383 1.28792E-01
 -1      1384 1.24214E-01
 -1      1385 1.36146E-01
 -1      1386 1.23606E-01
 -1      1387 1.49321E-01
 -1      1388 1.67043E-01
 -1      1389 1.37682E-01
 -1      1390 1.84831E-01
 -1      1391 2.08770E-01
 -1      1392 1.68645E-01
 -1      1393 2.31274E-01
 -1      1394 2.61511E-01
 -1      1395 2.08936E-01
 -1      1396 2.91583E-01
 -1      1397 3.27523E-01
 -1      1398 2.61511E-01
 -1      1399 3.67177E-01
 -1      1400 4.07053E-01
 -1      1401 3.31237E-01
 -1      1402 4.65534E-01
 -1      1403 5.05734E-01
 -1      1404 4.29374E-01
 -1      1405 5.70526E-01
 -1      1406 6.33225E-01
 -1      1407 5.52647E-01
 -1      1408 6.98367E-01
 -1      1409 7.84409E-01
 -1      1410 6.82581E-01
 -1      1411 8.41778E-01
 -1      1412 9.44880E-01
 -1      1413 8.05093E-01
 -1      1414 1.02730E+00
 -1      1415 1.13039E+00
 -1      1416 9.44880E-01
 -1      1417 1.23348E+00
 -1      1418 1.29412E+00
 -1      1419 1.13039E+00
 -1      1420 1.35475E+00
 -1      1421 1.35475E+00
 -1      1422 1.29412E+00
 -1      1423 1.32002E+00
 -1      1424 1.34052E+00
 -1      1425 1.32002E+00
 -1      1426 1.39575E+00
 -1      1427 1.39575E+00
 -1      1428 1.34052E+00
 -1      1429 1.36143E+00
 -1      1430 1.56321E+00
 -1      1431 1.36143E+00
 -1      1432 1.81184E+00
 -1      1433 2.40679E+00
 -1      1434 1.57573E+00
 -1      1435 2.98921E+00
 -1      1436 3.48575E+00
 -1      1437 2.40679E+00
 -1      1438 3.98229E+00
 -1      1439 3.98229E+00
 -1      1440 3.48575E+00
 -1      1441 3.93799E+00
 -1      1442 3.89368E+00
 -1      1443 3.93799E+00
 -1      1444 3.89101E+00
 -1      1445 3.88834E+00
 -1      1446 3.89101E+00
 -1      1447 3.33626E+00
 -1      1448 2.78417E+00
 -1      1449 3.33626E+00
 -1      1450 2.24516E+00
 -1      1451 1.70615E+00
 -1      1452 2.24516E+00
 -1      1453 1.44792E+00
 -1      1454 1.25927E+00
 -1      1455 1.44792E+00
 -1      1456 1.32885E+00
 -1      1457 1.32885E+00
 -1      1458 1.25927E+00
 -1      1459 1.32013E+00
 -1      1460 1.31866E+00
 -1      1461 1.32013E+00
 -1      1462 1.32591E+00
 -1      1463 1.32591E+00
 -1      1464 1.31866E+00
 -1      1465 1.23571E+00
 -1      1466 1.14551E+00
 -1      1467 1.23571E+00
 -1      1468 1.00752E+00
 -1      1469 8.67753E-01
 -1      1470 1.00752E+00
 -1      1471 8.41187E-01
 -1      1472 8.16405E-01
 -1      1473 8.42972E-01
 -1      1474 7.82646E-01
 -1      1475 7.48886E-01
 -1      1476 7.82646E-01
 -1      1477 6.67778E-01
 -1      1478 5.86670E-01
 -1      1479 6.67778E-01
 -1      1480 5.27103E-01
 -1      1481 4.67535E-01
 -1      1482 5.27103E-01
 -1      1483 3.60011E-01
 -1      1484 3.60011E-01
 -1      1485 3.39697E+00
 -1      1486 8.71972E+00
 -1      1487 8.71972E+00
 -1      1488 2.41618E+00
 -1      1489 2.90657E+00
 -1      1490 2.90657E+00
 -1      1491 1.66955E+00
 -1      1492 2.04286E+00
 -1      1493 2.04286E+00
 -1      1494 1.14917E+00
 -1      1495 1.40936E+00
 -1      1496 1.40936E+00
 -1      1497 9.09078E-01
 -1      1498 1.02912E+00
 -1      1499 1.02912E+00
 -1      1500 7.35928E-01
 -1      1501 8.22503E-01
 -1      1502 8.22503E-01
 -1      1503 5.94632E-01
 -1      1504 6.65280E-01
 -1      1505 6.65280E-01
 -1      1506 4.78124E-01
 -1      1507 5.36378E-01
 -1      1508 5.36378E-01
 -1      1509 3.82825E-01
 -1      1510 4.30475E-01
 -1      1511 4.30475E-01
 -1      1512 3.10588E-01
 -1      1513 3.46706E-01
 -1      1514 3.46706E-01
 -1      1515 2.54601E-01
 -1      1516 2.82594E-01
 -1      1517 2.82594E-01
 -1      1518 2.11034E-01
 -1      1519 2.32817E-01
 -1      1520 2.32817E-01
 -1      1521 1.79366E-01
 -1      1522 1.95200E-01
 -1      1523 1.95200E-01
 -1      1524 1.60025E-01
 -1      1525 1.69695E-01
 -1      1526 1.69695E-01
 -1      1527 1.59637E-01
 -1      1528 1.58107E-01
 -1      1529 1.58107E-01
 -1      1530 1.71257E-01
 -1      1531 1.63085E-01
 -1      1532 1.59637E-01
 -1      1533 1.91495E-01
 -1      1534 1.79430E-01
 -1      1535 1.71257E-01
 -1      1536 2.20523E-01
 -1      1537 2.05774E-01
 -1      1538 1.93709E-01
 -1      1539 2.74494E-01
 -1      1540 2.45612E-01
 -1      1541 2.33078E-01
 -1      1542 3.39407E-01
 -1      1543 3.03721E-01
 -1      1544 2.87395E-01
 -1      1545 4.10640E-01
 -1      1546 3.71123E-01
 -1      1547 3.48339E-01
 -1      1548 4.81986E-01
 -1      1549 4.42268E-01
 -1      1550 4.11684E-01
 -1      1551 5.54294E-01
 -1      1552 5.20660E-01
 -1      1553 4.81986E-01
 -1      1554 6.05718E-01
 -1      1555 5.87927E-01
 -1      1556 5.54294E-01
 -1      1557 6.52732E-01
 -1      1558 6.23510E-01
 -1      1559 6.05718E-01
 -1      1560 8.26167E-01
 -1      1561 7.20462E-01
 -1      1562 6.91241E-01
 -1      1563 9.81924E-01
 -1      1564 8.93363E-01
 -1      1565 8.26167E-01
 -1      1566 1.10735E+00
 -1      1567 1.07048E+00
 -1      1568 9.81924E-01
 -1      1569 1.30534E+00
 -1      1570 1.14421E+00
 -1      1571 1.10735E+00
 -1      1572 1.48417E+00
 -1      1573 1.46648E+00
 -1      1574 1.30534E+00
 -1      1575 1.64068E+00
 -1      1576 1.50186E+00
 -1      1577 1.48417E+00
 -1      1578 1.94720E+00
 -1      1579 1.77949E+00
 -1      1580 1.64068E+00
 -1      1581 2.69992E+00
 -1      1582 2.17076E+00
 -1      1583 2.00306E+00
 -1      1584 3.30926E+00
 -1      1585 3.17322E+00
 -1      1586 2.69992E+00
 -1      1587 3.64518E+00
 -1      1588 3.44530E+00
 -1      1589 3.30926E+00
 -1      1590 3.84506E+00
 -1      1591 3.84506E+00
 -1      1592 3.64518E+00
 -1      1593 3.05054E+00
 -1      1594 3.44780E+00
 -1      1595 3.44780E+00
 -1      1596 1.75094E+00
 -1      1597 2.40074E+00
 -1      1598 2.40074E+00
 -1      1599 1.15635E+00
 -1      1600 1.45365E+00
 -1      1601 1.45365E+00
 -1      1602 1.12051E+00
 -1      1603 1.10263E+00
 -1      1604 1.10263E+00
 -1      1605 1.27376E+00
 -1      1606 1.19212E+00
 -1      1607 1.12051E+00
 -1      1608 1.35541E+00
 -1      1609 1.35541E+00
 -1      1610 1.27376E+00
 -1      1611 1.29039E+00
 -1      1612 1.32290E+00
 -1      1613 1.32290E+00
 -1      1614 1.08723E+00
 -1      1615 1.18881E+00
 -1      1616 1.18881E+00
 -1      1617 8.57954E-01
 -1      1618 9.72593E-01
 -1      1619 9.72593E-01
 -1      1620 7.39974E-01
 -1      1621 7.98964E-01
 -1      1622 7.98964E-01
 -1      1623 5.74258E-01
 -1      1624 6.57116E-01
 -1      1625 6.57116E-01
 -1      1626 3.41425E-01
 -1      1627 4.60740E-01
 -1      1628 4.60740E-01
 -1      1629 2.48626E-01
 -1      1630 1.83267E-01
 -1      1631 1.83267E-01
 -1      1632 1.66880E-01
 -1      1633 1.83267E-01
 -1      1634 2.04909E-01
 -1      1635 1.36107E-01
 -1      1636 1.65210E-01
 -1      1637 2.03239E-01
 -1      1638 7.97066E-02
 -1      1639 8.49691E-02
 -1      1640 1.50430E-01
 -1      1641 1.48682E-01
 -1      1642 1.23664E-01
 -1      1643 1.43249E-01
 -1      1644 2.00739E-01
 -1      1645 1.83863E-01
 -1      1646 2.22387E-01
 -1      1647 2.23134E-01
 -1      1648 2.17740E-01
 -1      1649 2.74569E-01
 -1      1650 2.23160E-01
 -1      1651 2.23160E-01
 -1      1652 2.91596E-01
 -1      1653 2.17753E-01
 -1      1654 2.23160E-01
 -1      1655 2.91621E-01
 -1      1656 1.82900E-01
 -1      1657 2.00267E-01
 -1      1658 2.74136E-01
 -1      1659 1.24734E-01
 -1      1660 1.49045E-01
 -1      1661 2.22795E-01
 -1      1662 8.60629E-02
 -1      1663 8.06094E-02
 -1      1664 1.44816E-01
 -1      1665 1.64923E-01
 -1      1666 1.36085E-01
 -1      1667 1.50714E-01
 -1      1668 2.09309E-01
 -1      1669 1.64923E-01
 -1      1670 2.00736E-01
 -1      1671 2.56993E-01
 -1      1672 2.39691E-01
 -1      1673 2.31118E-01
 -1      1674 3.64518E-01
 -1      1675 2.78981E+01
 -1      1676 2.72350E+01
 -1      1677 3.74303E+01
 -1      1678 2.62026E+01
 -1      1679 4.76681E+01
 -1      1680 4.76681E+01
 -1      1681 2.15699E+01
 -1      1682 3.49476E+01
 -1      1683 1.20208E+01
 -1      1684 1.61756E+01
 -1      1685 1.31924E+01
 -1      1686 1.26030E+01
 -1      1687 1.37818E+01
 -1      1688 1.37818E+01
 -1      1689 1.24491E+01
 -1      1690 1.29212E+01
 -1      1691 1.28376E+01
 -1      1692 1.28376E+01
 -1      1693 1.41788E+01
 -1      1694 1.25330E+01
 -1      1695 2.91837E+01
 -1      1696 1.63091E+01
 -1      1697 4.18783E+01
 -1      1698 4.18783E+01
 -1      1699 2.99563E+01
 -1      1700 3.85811E+01
 -1      1701 2.87375E+01
 -1      1702 2.84720E+01
 -1      1703 2.87375E+01
 -1      1704 2.87375E+01
 -1      1705 3.93431E+01
 -1      1706 2.79089E+01
 -1      1707 4.80282E+01
 -1      1708 4.80282E+01
 -1      1709 2.25341E+01
 -1      1710 3.54657E+01
 -1      1711 1.18626E+01
 -1      1712 1.70138E+01
 -1      1713 1.22557E+01
 -1      1714 1.18408E+01
 -1      1715 1.28908E+01
 -1      1716 1.26922E+01
 -1      1717 1.30894E+01
 -1      1718 1.30894E+01
 -1      1719 1.23709E+01
 -1      1720 1.27302E+01
 -1      1721 1.20001E+01
 -1      1722 1.21855E+01
 -1      1723 1.85226E+01
 -1      1724 1.18230E+01
 -1      1725 2.84488E+01
 -1      1726 2.63703E+01
 -1      1727 3.07723E+01
 -1      1728 3.07723E+01
 -1      1729 2.82027E+01
 -1      1730 3.07723E+01
 -1      1731 2.72350E+01
 -1      1732 2.75002E+01
 -1      1733 1.68328E+01
 -1      1734 3.49476E+01
 -1      1735 2.54423E-01
 -1      1736 2.76065E-01
 -1      1737 2.88880E+01
 -1      1738 3.74303E+01
 -1      1739 3.05834E+01
 -1      1740 1.20208E+01
 -1      1741 1.31924E+01
 -1      1742 1.29212E+01
 -1      1743 1.24491E+01
 -1      1744 1.25330E+01
 -1      1745 1.43587E+01
 -1      1746 2.91837E+01
 -1      1747 3.85811E+01
 -1      1748 3.37996E+01
 -1      1749 3.23153E+01
 -1      1750 3.14867E+01
 -1      1751 3.93431E+01
 -1      1752 3.54657E+01
 -1      1753 1.73829E+01
 -1      1754 1.18408E+01
 -1      1755 1.22557E+01
 -1      1756 1.28908E+01
 -1      1757 1.27302E+01
 -1      1758 1.21855E+01
 -1      1759 1.18230E+01
 -1      1760 1.94936E+01
 -1      1761 2.96648E+01
 -1      1762 3.19884E+01
 -1      1763 3.12859E+01
 -1      1764 9.61199E+00
 -1      1765 1.27621E+00
 -1      1766 1.67168E+00
 -1      1767 2.38794E+00
 -1      1768 4.27795E+00
 -1      1769 1.76241E+00
 -1      1770 8.83612E-01
 -1      1771 9.75592E-01
 -1      1772 7.79377E-01
 -1      1773 8.33644E-01
 -1      1774 7.44339E-01
 -1      1775 7.13921E-01
 -1      1776 7.47986E-01
 -1      1777 6.62980E-01
 -1      1778 6.72052E-01
 -1      1779 6.91972E-01
 -1      1780 6.09641E-01
 -1      1781 6.95278E-01
 -1      1782 6.73655E-01
 -1      1783 5.89294E-01
 -1      1784 7.50620E-01
 -1      1785 7.16934E-01
 -1      1786 6.12552E-01
 -1      1787 8.40521E-01
 -1      1788 7.83837E-01
 -1      1789 6.67426E-01
 -1      1790 9.83595E-01
 -1      1791 8.88051E-01
 -1      1792 7.48173E-01
 -1      1793 1.22846E+00
 -1      1794 1.05111E+00
 -1      1795 8.63220E-01
 -1      1796 1.70866E+00
 -1      1797 1.34207E+00
 -1      1798 1.04435E+00
 -1      1799 2.62898E+00
 -1      1800 1.79330E+00
 -1      1801 1.24260E+00
 -1      1802 8.12241E+00
 -1      1803 3.06654E+00
 -1      1804 1.76480E+00
 -1      1805 2.79966E+00
 -1      1806 5.19902E+00
 -1      1807 2.16617E+00
 -1      1808 2.65656E+00
 -1      1809 2.05925E+00
 -1      1810 3.39975E+00
 -1      1811 2.53918E+00
 -1      1812 1.92479E+00
 -1      1813 1.69422E+00
 -1      1814 1.36212E+00
 -1      1815 1.50261E+00
 -1      1816 1.18239E+00
 -1      1817 9.72017E-01
 -1      1818 1.09231E+00
 -1      1819 8.46963E-01
 -1      1820 7.22016E-01
 -1      1821 7.87533E-01
 -1      1822 6.63456E-01
 -1      1823 5.74676E-01
 -1      1824 6.03919E-01
 -1      1825 5.27123E-01
 -1      1826 4.64001E-01
 -1      1827 4.97806E-01
 -1      1828 4.22481E-01
 -1      1829 3.73876E-01
 -1      1830 4.08732E-01
 -1      1831 3.41191E-01
 -1      1832 3.01903E-01
 -1      1833 3.34527E-01
 -1      1834 2.74978E-01
 -1      1835 2.47754E-01
 -1      1836 2.74919E-01
 -1      1837 2.25030E-01
 -1      1838 2.02234E-01
 -1      1839 2.25271E-01
 -1      1840 1.83357E-01
 -1      1841 1.64743E-01
 -1      1842 1.83670E-01
 -1      1843 1.49786E-01
 -1      1844 1.34879E-01
 -1      1845 1.49836E-01
 -1      1846 1.24757E-01
 -1      1847 1.18671E-01
 -1      1848 1.24757E-01
 -1      1849 1.14681E-01
 -1      1850 1.15582E-01
 -1      1851 1.10646E-01
 -1      1852 1.24507E-01
 -1      1853 1.37682E-01
 -1      1854 1.15582E-01
 -1      1855 1.50857E-01
 -1      1856 1.68645E-01
 -1      1857 1.37682E-01
 -1      1858 1.86433E-01
 -1      1859 2.08936E-01
 -1      1860 1.68645E-01
 -1      1861 2.43283E-01
 -1      1862 2.73355E-01
 -1      1863 2.20780E-01
 -1      1864 3.17863E-01
 -1      1865 3.57517E-01
 -1      1866 2.99635E-01
 -1      1867 4.09449E-01
 -1      1868 4.67931E-01
 -1      1869 3.96075E-01
 -1      1870 5.25484E-01
 -1      1871 5.90276E-01
 -1      1872 5.05560E-01
 -1      1873 6.49131E-01
 -1      1874 7.14274E-01
 -1      1875 6.21969E-01
 -1      1876 7.66576E-01
 -1      1877 8.23945E-01
 -1      1878 7.33126E-01
 -1      1879 8.70031E-01
 -1      1880 9.52449E-01
 -1      1881 8.31514E-01
 -1      1882 1.00511E+00
 -1      1883 1.10821E+00
 -1      1884 9.30265E-01
 -1      1885 1.13461E+00
 -1      1886 1.19525E+00
 -1      1887 1.00934E+00
 -1      1888 1.15267E+00
 -1      1889 1.11794E+00
 -1      1890 9.93165E-01
 -1      1891 1.04088E+00
 -1      1892 1.09612E+00
 -1      1893 8.73534E-01
 -1      1894 1.12109E+00
 -1      1895 1.08677E+00
 -1      1896 8.21456E-01
 -1      1897 1.28835E+00
 -1      1898 1.53698E+00
 -1      1899 1.04802E+00
 -1      1900 1.80329E+00
 -1      1901 2.38571E+00
 -1      1902 1.51590E+00
 -1      1903 2.66689E+00
 -1      1904 3.16343E+00
 -1      1905 2.06339E+00
 -1      1906 3.20513E+00
 -1      1907 3.16083E+00
 -1      1908 2.38627E+00
 -1      1909 3.16056E+00
 -1      1910 3.15789E+00
 -1      1911 2.42770E+00
 -1      1912 3.08082E+00
 -1      1913 2.52873E+00
 -1      1914 2.35036E+00
 -1      1915 2.26192E+00
 -1      1916 1.72291E+00
 -1      1917 2.00648E+00
 -1      1918 1.43887E+00
 -1      1919 1.18064E+00
 -1      1920 1.45563E+00
 -1      1921 1.02694E+00
 -1      1922 1.09652E+00
 -1      1923 1.01789E+00
 -1      1924 1.06611E+00
 -1      1925 1.05739E+00
 -1      1926 8.33782E-01
 -1      1927 1.11350E+00
 -1      1928 1.12076E+00
 -1      1929 8.59487E-01
 -1      1930 1.13426E+00
 -1      1931 1.04405E+00
 -1      1932 9.29099E-01
 -1      1933 9.87334E-01
 -1      1934 8.49349E-01
 -1      1935 8.85879E-01
 -1      1936 7.79035E-01
 -1      1937 7.52468E-01
 -1      1938 7.58845E-01
 -1      1939 7.13363E-01
 -1      1940 6.79603E-01
 -1      1941 6.49426E-01
 -1      1942 6.42808E-01
 -1      1943 5.61700E-01
 -1      1944 5.73526E-01
 -1      1945 4.97189E-01
 -1      1946 4.37622E-01
 -1      1947 3.34604E-01
 -1      1948 4.72220E-01
 -1      1949 1.40138E+00
 -1      1950 1.77470E+00
 -1      1951 1.52468E+00
 -1      1952 1.02234E+00
 -1      1953 1.28253E+00
 -1      1954 1.01437E+00
 -1      1955 8.08961E-01
 -1      1956 9.29007E-01
 -1      1957 8.02181E-01
 -1      1958 6.43372E-01
 -1      1959 7.29947E-01
 -1      1960 6.29830E-01
 -1      1961 5.19589E-01
 -1      1962 5.90237E-01
 -1      1963 4.97681E-01
 -1      1964 4.28938E-01
 -1      1965 4.87191E-01
 -1      1966 4.12149E-01
 -1      1967 3.50414E-01
 -1      1968 3.98064E-01
 -1      1969 3.48877E-01
 -1      1970 2.86654E-01
 -1      1971 3.22772E-01
 -1      1972 2.90362E-01
 -1      1973 2.36516E-01
 -1      1974 2.64510E-01
 -1      1975 2.40576E-01
 -1      1976 1.98086E-01
 -1      1977 2.19870E-01
 -1      1978 2.01785E-01
 -1      1979 1.68905E-01
 -1      1980 1.84739E-01
 -1      1981 1.71791E-01
 -1      1982 1.49284E-01
 -1      1983 1.58955E-01
 -1      1984 1.48493E-01
 -1      1985 1.43556E-01
 -1      1986 1.45474E-01
 -1      1987 1.34733E-01
 -1      1988 1.46985E-01
 -1      1989 1.43537E-01
 -1      1990 1.30904E-01
 -1      1991 1.60489E-01
 -1      1992 1.52316E-01
 -1      1993 1.36216E-01
 -1      1994 1.90848E-01
 -1      1995 1.76569E-01
 -1      1996 1.57628E-01
 -1      1997 2.43139E-01
 -1      1998 2.18050E-01
 -1      1999 2.00910E-01
 -1      2000 3.15210E-01
 -1      2001 2.85982E-01
 -1      2002 2.70954E-01
 -1      2003 3.97917E-01
 -1      2004 3.66200E-01
 -1      2005 3.64788E-01
 -1      2006 4.87360E-01
 -1      2007 4.55732E-01
 -1      2008 4.73593E-01
 -1      2009 5.86933E-01
 -1      2010 5.48259E-01
 -1      2011 5.92307E-01
 -1      2012 6.77277E-01
 -1      2013 6.43644E-01
 -1      2014 7.09917E-01
 -1      2015 7.43054E-01
 -1      2016 7.25262E-01
 -1      2017 8.14613E-01
 -1      2018 8.47117E-01
 -1      2019 7.79386E-01
 -1      2020 8.98930E-01
 -1      2021 9.14312E-01
 -1      2022 8.47117E-01
 -1      2023 9.35262E-01
 -1      2024 9.92806E-01
 -1      2025 9.04245E-01
 -1      2026 9.25195E-01
 -1      2027 9.44477E-01
 -1      2028 9.07613E-01
 -1      2029 8.29934E-01
 -1      2030 1.07139E+00
 -1      2031 9.10261E-01
 -1      2032 7.10526E-01
 -1      2033 1.24773E+00
 -1      2034 1.23004E+00
 -1      2035 8.34960E-01
 -1      2036 1.72854E+00
 -1      2037 1.58972E+00
 -1      2038 1.33560E+00
 -1      2039 2.10548E+00
 -1      2040 1.88192E+00
 -1      2041 1.83097E+00
 -1      2042 2.58545E+00
 -1      2043 2.11215E+00
 -1      2044 1.99102E+00
 -1      2045 2.69136E+00
 -1      2046 2.55532E+00
 -1      2047 1.96756E+00
 -1      2048 3.03474E+00
 -1      2049 2.83486E+00
 -1      2050 2.08093E+00
 -1      2051 2.53697E+00
 -1      2052 2.93423E+00
 -1      2053 2.12392E+00
 -1      2054 1.54574E+00
 -1      2055 2.19553E+00
 -1      2056 1.68197E+00
 -1      2057 9.67553E-01
 -1      2058 1.26485E+00
 -1      2059 1.05964E+00
 -1      2060 8.27790E-01
 -1      2061 8.81509E-01
 -1      2062 6.92713E-01
 -1      2063 1.01207E+00
 -1      2064 9.40468E-01
 -1      2065 7.19348E-01
 -1      2066 1.14217E+00
 -1      2067 1.06053E+00
 -1      2068 8.80482E-01
 -1      2069 1.12345E+00
 -1      2070 1.15595E+00
 -1      2071 9.42717E-01
 -1      2072 9.74513E-01
 -1      2073 1.07609E+00
 -1      2074 9.09146E-01
 -1      2075 8.02064E-01
 -1      2076 9.16702E-01
 -1      2077 8.03984E-01
 -1      2078 6.81062E-01
 -1      2079 7.40052E-01
 -1      2080 6.84162E-01
 -1      2081 5.44970E-01
 -1      2082 6.27828E-01
 -1      2083 5.68916E-01
 -1      2084 3.47222E-01
 -1      2085 4.60740E-01
 -1      2086 4.31452E-01
 -1      2087 2.76065E-01
 -1      2088 1.57890E-01
 -1      2089 2.09028E-01
 -1      2090 2.91514E-01
 -1      2091 2.93184E-01
 -1      2092 2.98973E-01
 -1      2093 2.93184E-01
 -1      2094 2.93184E-01
 -1      2095 3.64340E-01
 -1      2096 3.81459E-01
 -1      2097 2.11997E-01
 -1      2098 1.68039E-01
 -1      2099 2.26637E-01
 -1      2100 3.01725E-01
 -1      2101 2.66544E-01
 -1      2102 2.91334E-01
 -1      2103 3.51611E-01
 -1      2104 3.34610E-01
 -1      2105 3.78767E-01
 -1      2106 3.51637E-01
 -1      2107 3.51611E-01
 -1      2108 4.11652E-01
 -1      2109 3.51349E-01
 -1      2110 3.51349E-01
 -1      2111 4.11364E-01
 -1      2112 3.33863E-01
 -1      2113 3.51349E-01
 -1      2114 4.11076E-01
 -1      2115 2.68308E-01
 -1      2116 3.02163E-01
 -1      2117 3.79376E-01
 -1      2118 1.69661E-01
 -1      2119 2.13785E-01
 -1      2120 2.93153E-01
 -1      2121 2.12378E-01
 -1      2122 1.62356E-01
 -1      2123 2.31325E-01
 -1      2124 2.67163E-01
 -1      2125 2.67163E-01
 -1      2126 2.78805E-01
 -1      2127 3.74303E+01
 -1      2128 2.71926E+01
 -1      2129 3.09767E+01
 -1      2130 3.09767E+01
 -1      2131 2.92813E+01
 -1      2132 3.09767E+01
 -1      2133 3.13699E+01
 -1      2134 1.96329E+01
 -1      2135 3.23534E+01
 -1      2136 1.05991E+01
 -1      2137 1.59934E+01
 -1      2138 1.03332E+00
 -1      2139 1.20801E+00
 -1      2140 9.77949E-01
 -1      2141 8.52031E-01
 -1      2142 1.13441E+01
 -1      2143 1.07547E+01
 -1      2144 1.13053E+01
 -1      2145 1.21659E+01
 -1      2146 1.17521E+01
 -1      2147 1.13635E+01
 -1      2148 1.06083E+01
 -1      2149 1.03544E+01
 -1      2150 1.06590E+01
 -1      2151 1.20968E+01
 -1      2152 9.96651E+00
 -1      2153 2.77622E+01
 -1      2154 1.50675E+01
 -1      2155 2.92243E+01
 -1      2156 3.25215E+01
 -1      2157 3.04686E+01
 -1      2158 3.19529E+01
 -1      2159 3.35025E+01
 -1      2160 3.35025E+01
 -1      2161 3.16558E+01
 -1      2162 3.26739E+01
 -1      2163 3.35025E+01
 -1      2164 3.93431E+01
 -1      2165 3.06581E+01
 -1      2166 3.26739E+01
 -1      2167 2.01424E+01
 -1      2168 3.27049E+01
 -1      2169 1.08211E+01
 -1      2170 1.63414E+01
 -1      2171 1.35806E+01
 -1      2172 9.59694E+00
 -1      2173 9.61869E+00
 -1      2174 1.11598E+01
 -1      2175 1.07233E+01
 -1      2176 8.50111E+00
 -1      2177 1.13124E+01
 -1      2178 1.11138E+01
 -1      2179 1.12626E+01
 -1      2180 1.16219E+01
 -1      2181 1.07767E+01
 -1      2182 1.09621E+01
 -1      2183 9.85377E+00
 -1      2184 9.02924E+00
 -1      2185 9.20637E+00
 -1      2186 1.89933E+01
 -1      2187 1.11456E+01
 -1      2188 8.52899E+00
 -1      2189 2.50949E+01
 -1      2190 2.27714E+01
 -1      2191 3.19884E+01
 -1      2192 3.19884E+01
 -1      2193 3.02750E+01
 -1      2194 3.09775E+01
 -1      2195 9.99837E+00
 -1      2196 9.41609E+00
 -1      2197 8.57672E+00
 -1      2198 2.91193E+00
 -1      2199 8.15001E+00
 -1      2200 2.10593E+00
 -1      2201 2.47758E+01
 -1      2202 2.68645E+01
 -1      2203 2.47758E+01
 -1      2204 2.21157E+01
 -1      2205 2.97545E-01
 -1      2206 3.06682E+01
 -1      2207 1.33993E+01
 -1      2208 3.09775E+01
 -1      2209 1.44234E+01
 -1      2210 7.98292E+00
 -1      2211 9.58140E+00
 -1      2212 8.57717E+00
 -1      2213 2.40199E+01
 -1      2214 3.46897E+01
 -1      2215 2.58933E+01
 -1      2216 1.84053E+01
 -1      2217 1.06753E+01
 -1      2218 9.57348E+00
 -1      2219 1.14012E+01
 -1      2220 8.96341E+00
 -1      2221 9.78525E+00
 -1      2222 8.09249E+00
 -1      2223 1.11661E+01
 -1      2224 9.38910E+00
 -1      2225 9.69858E+00
 -1      2226 2.50949E+01
 -1      2227 1.09239E+00
 -1      2228 1.48386E+00
 -1      2229 5.58764E-01
 -1      2230 5.90154E-01
 -1      2231 6.04027E-01
 -1      2232 6.53995E-01
 -1      2233 4.99810E-01
 -1      2234 5.11307E-01
 -1      2235 5.09704E-01
 -1      2236 5.45781E-01
 -1      2237 5.24125E-01
 -1      2238 4.44535E-01
 -1      2239 5.93543E-01
 -1      2240 5.60326E-01
 -1      2241 4.71899E-01
 -1      2242 6.53296E-01
 -1      2243 6.05766E-01
 -1      2244 4.98666E-01
 -1      2245 7.20813E-01
 -1      2246 6.53296E-01
 -1      2247 5.10889E-01
 -1      2248 8.81566E-01
 -1      2249 7.67953E-01
 -1      2250 5.58028E-01
 -1      2251 8.95519E-01
 -1      2252 1.01437E+00
 -1      2253 9.73542E-01
 -1      2254 1.26865E+00
 -1      2255 1.03808E+00
 -1      2256 6.69904E+00
 -1      2257 5.94273E+00
 -1      2258 9.89170E-01
 -1      2259 8.09443E-01
 -1      2260 7.55212E-01
 -1      2261 7.53123E-01
 -1      2262 6.28069E-01
 -1      2263 6.49979E-01
 -1      2264 5.72177E-01
 -1      2265 5.13617E-01
 -1      2266 5.37767E-01
 -1      2267 4.64521E-01
 -1      2268 4.16967E-01
 -1      2269 4.32779E-01
 -1      2270 3.90698E-01
 -1      2271 3.49178E-01
 -1      2272 3.57414E-01
 -1      2273 3.24969E-01
 -1      2274 2.92285E-01
 -1      2275 3.06936E-01
 -1      2276 2.69468E-01
 -1      2277 2.42544E-01
 -1      2278 2.59909E-01
 -1      2279 2.22206E-01
 -1      2280 1.99482E-01
 -1      2281 2.16755E-01
 -1      2282 1.81985E-01
 -1      2283 1.63108E-01
 -1      2284 1.78920E-01
 -1      2285 1.48348E-01
 -1      2286 1.33391E-01
 -1      2287 1.46663E-01
 -1      2288 1.20960E-01
 -1      2289 1.10838E-01
 -1      2290 1.19472E-01
 -1      2291 1.00100E-01
 -1      2292 9.61111E-02
 -1      2293 9.63030E-02
 -1      2294 9.95944E-02
 -1      2295 1.08519E-01
 -1      2296 8.90484E-02
 -1      2297 1.17135E-01
 -1      2298 1.30310E-01
 -1      2299 1.01147E-01
 -1      2300 1.52216E-01
 -1      2301 1.70004E-01
 -1      2302 1.31669E-01
 -1      2303 2.02752E-01
 -1      2304 2.37099E-01
 -1      2305 1.86324E-01
 -1      2306 2.76465E-01
 -1      2307 3.20973E-01
 -1      2308 2.58437E-01
 -1      2309 3.67434E-01
 -1      2310 4.19366E-01
 -1      2311 3.44264E-01
 -1      2312 4.72540E-01
 -1      2313 5.30094E-01
 -1      2314 4.43900E-01
 -1      2315 5.88159E-01
 -1      2316 6.47014E-01
 -1      2317 5.55140E-01
 -1      2318 7.05968E-01
 -1      2319 7.58270E-01
 -1      2320 6.72159E-01
 -1      2321 8.11117E-01
 -1      2322 8.57202E-01
 -1      2323 7.83959E-01
 -1      2324 8.97366E-01
 -1      2325 9.50031E-01
 -1      2326 8.76969E-01
 -1      2327 1.01901E+00
 -1      2328 1.04542E+00
 -1      2329 9.86115E-01
 -1      2330 1.10496E+00
 -1      2331 1.06238E+00
 -1      2332 1.11463E+00
 -1      2333 1.08849E+00
 -1      2334 1.01143E+00
 -1      2335 1.20028E+00
 -1      2336 1.10232E+00
 -1      2337 1.12729E+00
 -1      2338 1.31727E+00
 -1      2339 1.23268E+00
 -1      2340 1.43426E+00
 -1      2341 1.51354E+00
 -1      2342 1.49433E+00
 -1      2343 1.76063E+00
 -1      2344 1.67899E+00
 -1      2345 1.86641E+00
 -1      2346 2.14759E+00
 -1      2347 1.84484E+00
 -1      2348 2.59058E+00
 -1      2349 2.63228E+00
 -1      2350 2.39360E+00
 -1      2351 2.75284E+00
 -1      2352 2.75257E+00
 -1      2353 2.95715E+00
 -1      2354 2.53430E+00
 -1      2355 2.45723E+00
 -1      2356 2.85944E+00
 -1      2357 2.08179E+00
 -1      2358 1.81498E+00
 -1      2359 2.26573E+00
 -1      2360 1.73442E+00
 -1      2361 1.45037E+00
 -1      2362 1.80972E+00
 -1      2363 1.37605E+00
 -1      2364 1.22235E+00
 -1      2365 1.65483E+00
 -1      2366 1.11246E+00
 -1      2367 1.08205E+00
 -1      2368 1.47062E+00
 -1      2369 9.51068E-01
 -1      2370 1.00718E+00
 -1      2371 1.22975E+00
 -1      2372 9.64097E-01
 -1      2373 9.77597E-01
 -1      2374 1.05568E+00
 -1      2375 9.05464E-01
 -1      2376 8.48745E-01
 -1      2377 9.40463E-01
 -1      2378 7.85708E-01
 -1      2379 7.15393E-01
 -1      2380 8.05293E-01
 -1      2381 6.58244E-01
 -1      2382 6.19139E-01
 -1      2383 6.85107E-01
 -1      2384 5.56628E-01
 -1      2385 5.19833E-01
 -1      2386 5.65446E-01
 -1      2387 5.50816E-01
 -1      2388 6.29830E-01
 -1      2389 4.44547E-01
 -1      2390 4.97681E-01
 -1      2391 4.97681E-01
 -1      2392 3.79751E-01
 -1      2393 4.12149E-01
 -1      2394 4.12149E-01
 -1      2395 3.18004E-01
 -1      2396 3.48877E-01
 -1      2397 3.48877E-01
 -1      2398 2.62719E-01
 -1      2399 2.90362E-01
 -1      2400 2.90362E-01
 -1      2401 2.18216E-01
 -1      2402 2.40360E-01
 -1      2403 2.40360E-01
 -1      2404 1.82228E-01
 -1      2405 1.98874E-01
 -1      2406 1.98659E-01
 -1      2407 1.52293E-01
 -1      2408 1.65640E-01
 -1      2409 1.62729E-01
 -1      2410 1.28983E-01
 -1      2411 1.38933E-01
 -1      2412 1.32782E-01
 -1      2413 1.15189E-01
 -1      2414 1.18999E-01
 -1      2415 1.09439E-01
 -1      2416 1.14923E-01
 -1      2417 1.14942E-01
 -1      2418 9.92079E-02
 -1      2419 1.29164E-01
 -1      2420 1.23833E-01
 -1      2421 1.07870E-01
 -1      2422 1.57628E-01
 -1      2423 1.41548E-01
 -1      2424 1.29164E-01
 -1      2425 2.16655E-01
 -1      2426 1.89454E-01
 -1      2427 1.73373E-01
 -1      2428 2.98022E-01
 -1      2429 2.55179E-01
 -1      2430 2.43722E-01
 -1      2431 3.94701E-01
 -1      2432 3.43711E-01
 -1      2433 3.27936E-01
 -1      2434 5.04889E-01
 -1      2435 4.47074E-01
 -1      2436 4.25997E-01
 -1      2437 6.22753E-01
 -1      2438 5.61854E-01
 -1      2439 5.35334E-01
 -1      2440 7.36495E-01
 -1      2441 6.79784E-01
 -1      2442 6.49331E-01
 -1      2443 8.33762E-01
 -1      2444 7.85777E-01
 -1      2445 7.55645E-01
 -1      2446 9.10242E-01
 -1      2447 8.73910E-01
 -1      2448 8.45075E-01
 -1      2449 9.53035E-01
 -1      2450 9.53035E-01
 -1      2451 9.28015E-01
 -1      2452 9.77922E-01
 -1      2453 9.87989E-01
 -1      2454 1.00576E+00
 -1      2455 8.87486E-01
 -1      2456 9.72679E-01
 -1      2457 1.03547E+00
 -1      2458 8.84257E-01
 -1      2459 9.18473E-01
 -1      2460 1.06122E+00
 -1      2461 1.09822E+00
 -1      2462 9.39566E-01
 -1      2463 1.14751E+00
 -1      2464 1.58280E+00
 -1      2465 1.24081E+00
 -1      2466 1.34541E+00
 -1      2467 1.87635E+00
 -1      2468 1.72297E+00
 -1      2469 1.62818E+00
 -1      2470 2.18575E+00
 -1      2471 2.17908E+00
 -1      2472 2.07108E+00
 -1      2473 2.20538E+00
 -1      2474 2.23551E+00
 -1      2475 2.42357E+00
 -1      2476 2.39448E+00
 -1      2477 2.25098E+00
 -1      2478 2.51893E+00
 -1      2479 1.95508E+00
 -1      2480 2.05559E+00
 -1      2481 2.22564E+00
 -1      2482 1.46013E+00
 -1      2483 1.80157E+00
 -1      2484 1.73324E+00
 -1      2485 1.01066E+00
 -1      2486 1.29154E+00
 -1      2487 1.41115E+00
 -1      2488 8.84630E-01
 -1      2489 9.70674E-01
 -1      2490 1.20257E+00
 -1      2491 8.83941E-01
 -1      2492 7.71263E-01
 -1      2493 1.04922E+00
 -1      2494 9.25016E-01
 -1      2495 8.76560E-01
 -1      2496 9.28475E-01
 -1      2497 9.01938E-01
 -1      2498 8.88159E-01
 -1      2499 8.84237E-01
 -1      2500 8.01259E-01
 -1      2501 8.48610E-01
 -1      2502 7.94051E-01
 -1      2503 6.95166E-01
 -1      2504 7.52977E-01
 -1      2505 6.92441E-01
 -1      2506 5.75076E-01
 -1      2507 6.37088E-01
 -1      2508 5.86081E-01
 -1      2509 4.75526E-01
 -1      2510 5.28760E-01
 -1      2511 4.81686E-01
 -1      2512 4.48571E-01
 -1      2513 3.81074E-01
 -1      2514 3.26526E-01
 -1      2515 4.72467E-01
 -1      2516 4.39582E-01
 -1      2517 4.74774E-01
 -1      2518 2.88073E-01
 -1      2519 3.70559E-01
 -1      2520 2.81319E-01
 -1      2521 2.71169E-01
 -1      2522 3.42755E-01
 -1      2523 3.71059E-01
 -1      2524 4.87602E-01
 -1      2525 4.87602E-01
 -1      2526 5.48417E-01
 -1      2527 4.87314E-01
 -1      2528 4.87602E-01
 -1      2529 5.63552E-01
 -1      2530 4.86858E-01
 -1      2531 4.86858E-01
 -1      2532 5.63096E-01
 -1      2533 4.41817E-01
 -1      2534 4.73517E-01
 -1      2535 5.49299E-01
 -1      2536 3.28745E-01
 -1      2537 3.83268E-01
 -1      2538 4.77408E-01
 -1      2539 3.00642E-01
 -1      2540 3.07947E-01
 -1      2541 3.98062E-01
 -1      2542 3.55427E-01
 -1      2543 3.00642E-01
 -1      2544 3.77264E-01
 -1      2545 1.47786E+01
 -1      2546 1.98556E+01
 -1      2547 3.70650E-01
 -1      2548 3.06682E+01
 -1      2549 2.99666E+01
 -1      2550 7.08844E-01
 -1      2551 8.02181E-01
 -1      2552 6.29830E-01
 -1      2553 3.13699E+01
 -1      2554 3.13699E+01
 -1      2555 2.59792E+01
 -1      2556 2.69901E+01
 -1      2557 1.67621E+00
 -1      2558 1.30346E+00
 -1      2559 8.38935E-01
 -1      2560 9.59944E-01
 -1      2561 9.00694E+00
 -1      2562 1.26465E+01
 -1      2563 8.30569E+00
 -1      2564 8.35173E+00
 -1      2565 2.38805E+01
 -1      2566 2.11519E+01
 -1      2567 5.22457E-01
 -1      2568 5.44406E-01
 -1      2569 4.71580E-01
 -1      2570 4.44470E-01
 -1      2571 5.50614E+00
 -1      2572 5.89405E+00
 -1      2573 9.24667E+00
 -1      2574 9.18839E+00
 -1      2575 7.41310E+00
 -1      2576 8.50618E+00
 -1      2577 7.08629E+00
 -1      2578 1.03845E+01
 -1      2579 7.41375E+00
 -1      2580 1.70457E+01
 -1      2581 1.22864E+01
 -1      2582 3.16558E+01
 -1      2583 2.86219E+01
 -1      2584 3.46897E+01
 -1      2585 3.46897E+01
 -1      2586 2.54633E+01
 -1      2587 2.74791E+01
 -1      2588 1.57969E+01
 -1      2589 2.24351E+01
 -1      2590 9.24837E+00
 -1      2591 1.30494E+01
 -1      2592 6.41044E+00
 -1      2593 7.61282E+00
 -1      2594 7.30042E+00
 -1      2595 6.17409E+00
 -1      2596 2.29466E+01
 -1      2597 1.60532E+01
 -1      2598 1.79484E+01
 -1      2599 7.84361E+00
 -1      2600 8.14415E+00
 -1      2601 5.30765E+00
 -1      2602 6.87795E+00
 -1      2603 8.26259E+00
 -1      2604 6.14622E+00
 -1      2605 1.36882E+01
 -1      2606 9.91008E+00
 -1      2607 7.52731E+00
 -1      2608 1.62272E+00
 -1      2609 1.76582E+00
 -1      2610 1.32826E+00
 -1      2611 1.19042E+00
 -1      2612 6.54099E+00
 -1      2613 7.72402E+00
 -1      2614 5.09003E+00
 -1      2615 4.82675E+00
 -1      2616 5.22097E-01
 -1      2617 6.62409E-01
 -1      2618 7.20133E-01
 -1      2619 8.02181E-01
 -1      2620 1.24362E+00
 -1      2621 6.02471E+00
 -1      2622 5.20974E+00
 -1      2623 6.97121E+00
 -1      2624 7.08163E+00
 -1      2625 2.01669E+01
 -1      2626 1.77501E+01
 -1      2627 1.28298E+01
 -1      2628 2.59792E+01
 -1      2629 1.14646E+01
 -1      2630 4.08414E-01
 -1      2631 4.08414E-01
 -1      2632 1.72403E+01
 -1      2633 1.03863E+01
 -1      2634 3.73482E-01
 -1      2635 3.36422E-01
 -1      2636 3.58259E-01
 -1      2637 4.37993E-01
 -1      2638 2.74791E+01
 -1      2639 3.06682E+01
 -1      2640 9.67225E-01
 -1      2641 2.36873E+01
 -1      2642 2.36873E+01
 -1      2643 1.91818E+01
 -1      2644 3.16558E+01
 -1      2645 6.79973E+00
 -1      2646 8.80989E+00
 -1      2647 8.35415E+00
 -1      2648 1.67253E+01
 -1      2649 1.06064E+01
 -1      2650 1.47126E+01
 -1      2651 1.36055E+01
 -1      2652 9.09219E+00
 -1      2653 1.14572E+01
 -1      2654 5.04125E+00
 -1      2655 8.86154E+00
 -1      2656 7.63188E+00
 -1      2657 8.71528E+00
 -1      2658 2.38805E+01
 -1      2659 8.91750E-01
 -1      2660 7.33795E+00
 -1      2661 5.13068E+00
 -1      2662 7.39504E+00
 -1      2663 9.16543E+00
 -1      2664 8.40068E+00
 -1      2665 7.80383E+00
 -1      2666 5.80180E+00
 -1      2667 6.09263E+00
 -1      2668 3.89419E+00
 -1      2669 9.02489E+00
 -1      2670 5.16833E+00
 -1      2671 3.97514E-01
 -1      2672 4.21095E-01
 -1      2673 4.22131E-01
 -1      2674 4.07586E-01
 -1      2675 4.00302E-01
 -1      2676 3.87484E-01
 -1      2677 3.50535E-01
 -1      2678 4.36826E-01
 -1      2679 4.36826E-01
 -1      2680 4.71438E-01
 -1      2681 4.24299E-01
 -1      2682 3.50236E-01
 -1      2683 7.20316E-01
 -1      2684 7.98339E-01
 -1      2685 3.83859E+00
 -1      2686 4.43685E+00
 -1      2687 6.14150E-01
 -1      2688 7.07488E-01
 -1      2689 5.32285E-01
 -1      2690 3.71940E+00
 -1      2691 5.23845E+00
 -1      2692 5.53449E-01
 -1      2693 4.97129E-01
 -1      2694 4.90920E-01
 -1      2695 4.35029E-01
 -1      2696 3.94391E-01
 -1      2697 4.14590E-01
 -1      2698 3.65494E-01
 -1      2699 3.67744E-01
 -1      2700 3.40630E-01
 -1      2701 3.14362E-01
 -1      2702 3.22442E-01
 -1      2703 2.89268E-01
 -1      2704 2.65058E-01
 -1      2705 2.72485E-01
 -1      2706 2.48756E-01
 -1      2707 2.25940E-01
 -1      2708 2.31089E-01
 -1      2709 2.09575E-01
 -1      2710 1.89237E-01
 -1      2711 1.98422E-01
 -1      2712 1.74281E-01
 -1      2713 1.56784E-01
 -1      2714 1.67101E-01
 -1      2715 1.42683E-01
 -1      2716 1.27923E-01
 -1      2717 1.38044E-01
 -1      2718 1.14712E-01
 -1      2719 1.02281E-01
 -1      2720 1.10732E-01
 -1      2721 8.96435E-02
 -1      2722 7.89058E-02
 -1      2723 8.48838E-02
 -1      2724 7.18900E-02
 -1      2725 7.53732E-02
 -1      2726 6.52305E-02
 -1      2727 8.08042E-02
 -1      2728 8.94194E-02
 -1      2729 6.36457E-02
 -1      2730 1.12493E-01
 -1      2731 1.34400E-01
 -1      2732 9.21505E-02
 -1      2733 1.62009E-01
 -1      2734 1.94757E-01
 -1      2735 1.42833E-01
 -1      2736 2.28020E-01
 -1      2737 2.67385E-01
 -1      2738 2.03705E-01
 -1      2739 3.07391E-01
 -1      2740 3.53853E-01
 -1      2741 2.76973E-01
 -1      2742 4.01554E-01
 -1      2743 4.54728E-01
 -1      2744 3.64681E-01
 -1      2745 5.10770E-01
 -1      2746 5.68835E-01
 -1      2747 4.68424E-01
 -1      2748 6.33267E-01
 -1      2749 6.92221E-01
 -1      2750 5.88897E-01
 -1      2751 7.63969E-01
 -1      2752 8.16816E-01
 -1      2753 7.25078E-01
 -1      2754 8.92710E-01
 -1      2755 9.32873E-01
 -1      2756 8.72721E-01
 -1      2757 1.00567E+00
 -1      2758 1.07465E+00
 -1      2759 1.02141E+00
 -1      2760 1.18794E+00
 -1      2761 1.24748E+00
 -1      2762 1.20750E+00
 -1      2763 1.39531E+00
 -1      2764 1.42142E+00
 -1      2765 1.46862E+00
 -1      2766 1.57754E+00
 -1      2767 1.66842E+00
 -1      2768 1.77257E+00
 -1      2769 1.82359E+00
 -1      2770 1.92898E+00
 -1      2771 2.08386E+00
 -1      2772 2.05385E+00
 -1      2773 2.11391E+00
 -1      2774 2.36390E+00
 -1      2775 1.85772E+00
 -1      2776 1.96350E+00
 -1      2777 2.23258E+00
 -1      2778 2.39360E+00
 -1      2779 2.83659E+00
 -1      2780 2.40649E+00
 -1      2781 4.03431E+00
 -1      2782 3.81604E+00
 -1      2783 2.72291E+00
 -1      2784 2.34747E+00
 -1      2785 3.89778E+00
 -1      2786 2.12104E+00
 -1      2787 2.04047E+00
 -1      2788 2.57822E+00
 -1      2789 2.14199E+00
 -1      2790 2.06766E+00
 -1      2791 2.45330E+00
 -1      2792 1.87269E+00
 -1      2793 1.76280E+00
 -1      2794 2.35985E+00
 -1      2795 1.55663E+00
 -1      2796 1.42564E+00
 -1      2797 1.95870E+00
 -1      2798 1.27106E+00
 -1      2799 1.22798E+00
 -1      2800 1.59795E+00
 -1      2801 1.07261E+00
 -1      2802 1.00048E+00
 -1      2803 1.28799E+00
 -1      2804 8.92277E-01
 -1      2805 8.29240E-01
 -1      2806 1.02442E+00
 -1      2807 7.47309E-01
 -1      2808 6.90160E-01
 -1      2809 8.34293E-01
 -1      2810 5.84370E-01
 -1      2811 5.21859E-01
 -1      2812 6.46572E-01
 -1      2813 3.56196E-01
 -1      2814 3.88594E-01
 -1      2815 1.71359E+01
 -1      2816 2.43465E+01
 -1      2817 4.22744E-01
 -1      2818 4.75879E-01
 -1      2819 3.66791E-01
 -1      2820 2.52315E-01
 -1      2821 2.79958E-01
 -1      2822 2.11755E-01
 -1      2823 2.34114E-01
 -1      2824 2.23710E-01
 -1      2825 1.75378E-01
 -1      2826 1.94719E-01
 -1      2827 1.88473E-01
 -1      2828 1.43403E-01
 -1      2829 1.59990E-01
 -1      2830 1.56051E-01
 -1      2831 1.16301E-01
 -1      2832 1.29660E-01
 -1      2833 1.26921E-01
 -1      2834 9.38765E-02
 -1      2835 1.03860E-01
 -1      2836 1.00738E-01
 -1      2837 8.41492E-02
 -1      2838 8.43970E-02
 -1      2839 7.88178E-02
 -1      2840 9.87912E-02
 -1      2841 8.98809E-02
 -1      2842 7.50699E-02
 -1      2843 1.26126E-01
 -1      2844 1.13742E-01
 -1      2845 9.57525E-02
 -1      2846 1.85655E-01
 -1      2847 1.53830E-01
 -1      2848 1.38407E-01
 -1      2849 2.57527E-01
 -1      2850 2.19003E-01
 -1      2851 1.99460E-01
 -1      2852 3.43151E-01
 -1      2853 2.97462E-01
 -1      2854 2.72742E-01
 -1      2855 4.42644E-01
 -1      2856 3.90271E-01
 -1      2857 3.59797E-01
 -1      2858 5.53865E-01
 -1      2859 4.96900E-01
 -1      2860 4.61175E-01
 -1      2861 6.71139E-01
 -1      2862 6.14108E-01
 -1      2863 5.75674E-01
 -1      2864 7.83751E-01
 -1      2865 7.34469E-01
 -1      2866 6.99245E-01
 -1      2867 8.84826E-01
 -1      2868 8.44677E-01
 -1      2869 8.23502E-01
 -1      2870 9.80260E-01
 -1      2871 9.37467E-01
 -1      2872 9.37070E-01
 -1      2873 1.10951E+00
 -1      2874 1.07456E+00
 -1      2875 1.08401E+00
 -1      2876 1.20595E+00
 -1      2877 1.21119E+00
 -1      2878 1.27999E+00
 -1      2879 1.30784E+00
 -1      2880 1.27685E+00
 -1      2881 1.45256E+00
 -1      2882 1.51119E+00
 -1      2883 1.45588E+00
 -1      2884 1.67151E+00
 -1      2885 1.71069E+00
 -1      2886 1.56810E+00
 -1      2887 1.87647E+00
 -1      2888 2.08557E+00
 -1      2889 1.94540E+00
 -1      2890 2.16809E+00
 -1      2891 3.25245E+00
 -1      2892 2.94973E+00
 -1      2893 3.26695E+00
 -1      2894 2.65088E+00
 -1      2895 2.60113E+00
 -1      2896 3.47977E+00
 -1      2897 3.99596E+00
 -1      2898 3.95036E+00
 -1      2899 4.12792E+00
 -1      2900 3.62358E+00
 -1      2901 3.96247E+00
 -1      2902 5.39390E+00
 -1      2903 2.05346E+00
 -1      2904 2.20697E+00
 -1      2905 3.94380E+00
 -1      2906 1.65029E+00
 -1      2907 1.81888E+00
 -1      2908 2.29261E+00
 -1      2909 1.53512E+00
 -1      2910 1.57510E+00
 -1      2911 1.98284E+00
 -1      2912 1.19240E+00
 -1      2913 1.30576E+00
 -1      2914 1.67829E+00
 -1      2915 1.11346E+00
 -1      2916 1.12084E+00
 -1      2917 1.37738E+00
 -1      2918 9.70186E-01
 -1      2919 1.00704E+00
 -1      2920 1.19941E+00
 -1      2921 8.07092E-01
 -1      2922 8.60421E-01
 -1      2923 9.83226E-01
 -1      2924 6.92981E-01
 -1      2925 7.41263E-01
 -1      2926 8.07632E-01
 -1      2927 5.64629E-01
 -1      2928 6.22707E-01
 -1      2929 6.71530E-01
 -1      2930 4.60319E-01
 -1      2931 5.06635E-01
 -1      2932 5.43262E-01
 -1      2933 4.22463E-01
 -1      2934 6.54309E-01
 -1      2935 6.54309E-01
 -1      2936 4.40100E-01
 -1      2937 3.58259E-01
 -1      2938 3.77264E-01
 -1      2939 4.59023E-01
 -1      2940 5.85322E-01
 -1      2941 5.26814E-01
 -1      2942 6.52381E-01
 -1      2943 6.52837E-01
 -1      2944 7.43595E-01
 -1      2945 6.54309E-01
 -1      2946 6.39174E-01
 -1      2947 6.91214E-01
 -1      2948 7.45067E-01
 -1      2949 5.09938E-01
 -1      2950 5.88952E-01
 -1      2951 4.94259E-01
 -1      2952 4.35001E-01
 -1      2953 6.39040E-01
 -1      2954 6.52381E-01
 -1      2955 7.42123E-01
 -1      2956 5.29799E-01
 -1      2957 5.88348E-01
 -1      2958 6.91431E-01
 -1      2959 4.40554E-01
 -1      2960 4.61351E-01
 -1      2961 5.72291E-01
 -1      2962 3.77264E-01
 -1      2963 2.23085E+01
 -1      2964 1.83212E+01
 -1      2965 7.02128E-01
 -1      2966 6.67318E-01
 -1      2967 5.47456E+00
 -1      2968 4.42324E+00
 -1      2969 1.64163E+01
 -1      2970 1.23728E+01
 -1      2971 1.27456E+01
 -1      2972 4.01712E+00
 -1      2973 4.25347E+00
 -1      2974 8.06874E+00
 -1      2975 1.08162E+01
 -1      2976 2.98113E-01
 -1      2977 3.28986E-01
 -1      2978 3.05431E-01
 -1      2979 2.60066E-01
 -1      2980 6.03463E-01
 -1      2981 5.54550E-01
 -1      2982 4.01700E-01
 -1      2983 4.66656E-01
 -1      2984 4.36826E-01
 -1      2985 4.24603E-01
 -1      2986 3.60291E-01
 -1      2987 3.62762E-01
 -1      2988 4.22169E-01
 -1      2989 4.36042E-01
 -1      2990 5.88660E+00
 -1      2991 6.62709E+00
 -1      2992 2.12259E+01
 -1      2993 1.64845E+01
 -1      2994 3.66736E+00
 -1      2995 4.63302E+00
 -1      2996 7.20133E-01
 -1      2997 2.20461E+01
 -1      2998 2.13445E+01
 -1      2999 1.36864E+01
 -1      3000 7.64560E+00
 -1      3001 9.77779E+00
 -1      3002 1.25758E+01
 -1      3003 1.56040E+01
 -1      3004 1.24714E+01
 -1      3005 5.44516E+00
 -1      3006 6.72808E+00
 -1      3007 6.11955E+00
 -1      3008 4.47218E+00
 -1      3009 3.63360E+00
 -1      3010 8.35887E+00
 -1      3011 6.45690E+00
 -1      3012 6.91560E+00
 -1      3013 5.26812E+00
 -1      3014 3.86047E+00
 -1      3015 8.28367E-01
 -1      3016 5.34588E+00
 -1      3017 6.98143E+00
 -1      3018 2.34311E+01
 -1      3019 2.03972E+01
 -1      3020 1.30012E+01
 -1      3021 4.45342E-01
 -1      3022 4.53756E-01
 -1      3023 3.67701E-01
 -1      3024 3.43030E-01
 -1      3025 3.87264E-01
 -1      3026 4.00016E-01
 -1      3027 4.77925E+00
 -1      3028 4.19372E+00
 -1      3029 1.30243E+01
 -1      3030 2.07070E+01
 -1      3031 1.13832E+01
 -1      3032 3.05964E+00
 -1      3033 3.47134E+00
 -1      3034 3.64613E+00
 -1      3035 5.68994E-01
 -1      3036 4.58446E-01
 -1      3037 4.13238E-01
 -1      3038 1.01509E+01
 -1      3039 1.04622E+01
 -1      3040 7.41016E+00
 -1      3041 3.30445E+00
 -1      3042 3.42501E+00
 -1      3043 4.38161E+00
 -1      3044 3.30445E+00
 -1      3045 1.26399E+01
 -1      3046 2.29831E+01
 -1      3047 1.17245E+01
 -1      3048 7.27497E+00
 -1      3049 5.01577E+00
 -1      3050 7.19236E+00
 -1      3051 4.15326E+00
 -1      3052 3.57890E-01
 -1      3053 3.74794E-01
 -1      3054 4.37598E-01
 -1      3055 4.45277E-01
 -1      3056 6.03041E+00
 -1      3057 8.57230E+00
 -1      3058 6.00432E+00
 -1      3059 8.25187E+00
 -1      3060 1.05499E+01
 -1      3061 8.91353E+00
 -1      3062 7.15396E+00
 -1      3063 3.79468E-01
 -1      3064 3.79468E-01
 -1      3065 4.42758E-01
 -1      3066 4.61228E-01
 -1      3067 6.33298E+00
 -1      3068 1.67025E+01
 -1      3069 1.35252E+01
 -1      3070 1.20935E+01
 -1      3071 1.41091E+01
 -1      3072 9.68254E+00
 -1      3073 1.14545E+01
 -1      3074 1.08038E+01
 -1      3075 8.35617E+00
 -1      3076 9.27176E+00
 -1      3077 3.46697E+00
 -1      3078 7.82660E+00
 -1      3079 5.30511E-01
 -1      3080 6.77523E+00
 -1      3081 3.09829E+00
 -1      3082 4.07360E-01
 -1      3083 4.21717E-01
 -1      3084 3.57949E-01
 -1      3085 3.50154E-01
 -1      3086 6.60413E+00
 -1      3087 5.13578E+00
 -1      3088 4.49715E+00
 -1      3089 3.85824E+00
 -1      3090 3.20506E+00
 -1      3091 5.75140E-01
 -1      3092 4.41411E-01
 -1      3093 4.12456E-01
 -1      3094 3.08754E-01
 -1      3095 3.99628E-01
 -1      3096 3.21281E-01
 -1      3097 5.42739E+00
 -1      3098 6.60413E+00
 -1      3099 3.23363E-01
 -1      3100 3.02924E-01
 -1      3101 2.99222E-01
 -1      3102 2.74359E-01
 -1      3103 2.54841E-01
 -1      3104 2.63173E-01
 -1      3105 2.38079E-01
 -1      3106 2.39953E-01
 -1      3107 2.23302E-01
 -1      3108 2.07000E-01
 -1      3109 2.13991E-01
 -1      3110 1.93287E-01
 -1      3111 1.76922E-01
 -1      3112 1.85501E-01
 -1      3113 1.65169E-01
 -1      3114 1.50213E-01
 -1      3115 1.60035E-01
 -1      3116 1.37278E-01
 -1      3117 1.23177E-01
 -1      3118 1.35347E-01
 -1      3119 1.09764E-01
 -1      3120 9.65527E-02
 -1      3121 1.08998E-01
 -1      3122 8.28625E-02
 -1      3123 7.02249E-02
 -1      3124 8.18938E-02
 -1      3125 5.87684E-02
 -1      3126 5.17527E-02
 -1      3127 5.67471E-02
 -1      3128 5.31290E-02
 -1      3129 5.85599E-02
 -1      3130 4.66669E-02
 -1      3131 7.61427E-02
 -1      3132 9.92166E-02
 -1      3133 6.56260E-02
 -1      3134 1.23064E-01
 -1      3135 1.50673E-01
 -1      3136 1.07056E-01
 -1      3137 1.80655E-01
 -1      3138 2.13918E-01
 -1      3139 1.60886E-01
 -1      3140 2.50154E-01
 -1      3141 2.90159E-01
 -1      3142 2.27104E-01
 -1      3143 3.33364E-01
 -1      3144 3.81066E-01
 -1      3145 3.06545E-01
 -1      3146 4.31341E-01
 -1      3147 4.87383E-01
 -1      3148 4.00025E-01
 -1      3149 5.43623E-01
 -1      3150 6.08055E-01
 -1      3151 5.06541E-01
 -1      3152 6.79254E-01
 -1      3153 7.51003E-01
 -1      3154 6.33980E-01
 -1      3155 8.47252E-01
 -1      3156 9.23146E-01
 -1      3157 8.01428E-01
 -1      3158 1.04753E+00
 -1      3159 1.12032E+00
 -1      3160 1.02206E+00
 -1      3161 1.27668E+00
 -1      3162 1.38997E+00
 -1      3163 1.30279E+00
 -1      3164 1.55294E+00
 -1      3165 1.70077E+00
 -1      3166 1.62212E+00
 -1      3167 1.99434E+00
 -1      3168 2.15046E+00
 -1      3169 2.07867E+00
 -1      3170 2.48467E+00
 -1      3171 2.63985E+00
 -1      3172 2.70645E+00
 -1      3173 2.44288E+00
 -1      3174 2.56775E+00
 -1      3175 2.84369E+00
 -1      3176 2.96834E+00
 -1      3177 2.74191E+00
 -1      3178 2.45330E+00
 -1      3179 2.55481E+00
 -1      3180 3.36578E+00
 -1      3181 3.17082E+00
 -1      3182 3.36578E+00
 -1      3183 2.53804E+00
 -1      3184 2.33186E+00
 -1      3185 3.54397E+00
 -1      3186 1.90001E+00
 -1      3187 1.74544E+00
 -1      3188 2.47935E+00
 -1      3189 1.52435E+00
 -1      3190 1.36898E+00
 -1      3191 1.82642E+00
 -1      3192 1.20082E+00
 -1      3193 1.09262E+00
 -1      3194 1.43718E+00
 -1      3195 9.34446E-01
 -1      3196 8.52515E-01
 -1      3197 1.11085E+00
 -1      3198 6.62431E-01
 -1      3199 5.56642E-01
 -1      3200 4.77087E-01
 -1      3201 7.62584E-01
 -1      3202 8.58537E-01
 -1      3203 8.58537E-01
 -1      3204 1.66607E-01
 -1      3205 1.83642E-01
 -1      3206 1.97606E-01
 -1      3207 2.15807E-01
 -1      3208 1.75739E-01
 -1      3209 1.08237E-01
 -1      3210 1.21979E-01
 -1      3211 8.24523E-02
 -1      3212 9.48930E-02
 -1      3213 8.99513E-02
 -1      3214 6.00256E-02
 -1      3215 6.95051E-02
 -1      3216 6.36600E-02
 -1      3217 6.21860E-02
 -1      3218 5.64544E-02
 -1      3219 4.71416E-02
 -1      3220 9.21350E-02
 -1      3221 7.71842E-02
 -1      3222 5.85686E-02
 -1      3223 1.42403E-01
 -1      3224 1.14699E-01
 -1      3225 9.61307E-02
 -1      3226 2.02811E-01
 -1      3227 1.69463E-01
 -1      3228 1.45754E-01
 -1      3229 2.75501E-01
 -1      3230 2.35566E-01
 -1      3231 2.05569E-01
 -1      3232 3.62429E-01
 -1      3233 3.15309E-01
 -1      3234 2.78132E-01
 -1      3235 4.66559E-01
 -1      3236 4.12302E-01
 -1      3237 3.67813E-01
 -1      3238 5.87603E-01
 -1      3239 5.27361E-01
 -1      3240 4.78488E-01
 -1      3241 7.22893E-01
 -1      3242 6.59564E-01
 -1      3243 6.11251E-01
 -1      3244 8.66138E-01
 -1      3245 8.05211E-01
 -1      3246 7.65529E-01
 -1      3247 1.01646E+00
 -1      3248 9.63820E-01
 -1      3249 9.45529E-01
 -1      3250 1.22016E+00
 -1      3251 1.12585E+00
 -1      3252 1.15261E+00
 -1      3253 1.44429E+00
 -1      3254 1.34262E+00
 -1      3255 1.38446E+00
 -1      3256 1.74441E+00
 -1      3257 1.67351E+00
 -1      3258 1.73614E+00
 -1      3259 2.40034E+00
 -1      3260 2.25230E+00
 -1      3261 2.47325E+00
 -1      3262 2.40353E+00
 -1      3263 2.34661E+00
 -1      3264 2.92741E+00
 -1      3265 2.40279E+00
 -1      3266 2.16809E+00
 -1      3267 2.63823E+00
 -1      3268 3.47134E+00
 -1      3269 2.60718E+00
 -1      3270 4.12792E+00
 -1      3271 6.57064E+00
 -1      3272 2.87595E+00
 -1      3273 4.29256E+00
 -1      3274 2.27325E+00
 -1      3275 2.34843E+00
 -1      3276 1.97045E+00
 -1      3277 2.19980E+00
 -1      3278 2.56540E+00
 -1      3279 1.64493E+00
 -1      3280 1.71648E+00
 -1      3281 2.23800E+00
 -1      3282 1.29886E+00
 -1      3283 1.40528E+00
 -1      3284 1.74438E+00
 -1      3285 1.02863E+00
 -1      3286 1.13839E+00
 -1      3287 1.34426E+00
 -1      3288 8.42868E-01
 -1      3289 9.08696E-01
 -1      3290 1.06386E+00
 -1      3291 6.60012E-01
 -1      3292 7.30286E-01
 -1      3293 8.31350E-01
 -1      3294 4.99893E-01
 -1      3295 5.57887E-01
 -1      3296 6.16644E-01
 -1      3297 4.52224E-01
 -1      3298 4.71590E+00
 -1      3299 5.80321E+00
 -1      3300 3.24495E-01
 -1      3301 3.17211E-01
 -1      3302 7.76689E-01
 -1      3303 8.27381E-01
 -1      3304 9.43795E-01
 -1      3305 8.58537E-01
 -1      3306 8.60009E-01
 -1      3307 9.74950E-01
 -1      3308 1.13151E+01
 -1      3309 9.41028E+00
 -1      3310 1.10240E+01
 -1      3311 1.19880E+01
 -1      3312 8.65267E+00
 -1      3313 1.36626E-01
 -1      3314 1.52013E-01
 -1      3315 1.47182E-01
 -1      3316 1.17942E-01
 -1      3317 3.11251E-01
 -1      3318 3.45402E-01
 -1      3319 4.40100E+00
 -1      3320 5.31852E+00
 -1      3321 5.09977E+00
 -1      3322 5.76551E+00
 -1      3323 3.59879E+00
 -1      3324 3.43509E+00
 -1      3325 4.77925E+00
 -1      3326 4.52822E+00
 -1      3327 3.18143E-01
 -1      3328 3.11934E-01
 -1      3329 2.47115E-01
 -1      3330 2.95405E+00
 -1      3331 4.04646E+00
 -1      3332 3.05878E+00
 -1      3333 4.06709E+00
 -1      3334 3.26606E+00
 -1      3335 6.17824E-01
 -1      3336 6.86271E-01
 -1      3337 8.22221E-01
 -1      3338 4.71198E+00
 -1      3339 4.05688E+00
 -1      3340 4.53756E-01
 -1      3341 1.00694E+01
 -1      3342 1.16013E+01
 -1      3343 3.60561E+00
 -1      3344 2.80967E+00
 -1      3345 1.00810E+01
 -1      3346 1.09097E+01
 -1      3347 6.22819E+00
 -1      3348 6.58932E+00
 -1      3349 5.98002E+00
 -1      3350 3.12932E-01
 -1      3351 3.12712E-01
 -1      3352 2.86893E-01
 -1      3353 3.51669E+00
 -1      3354 5.56500E+00
 -1      3355 1.19591E+01
 -1      3356 8.97889E+00
 -1      3357 9.47979E+00
 -1      3358 3.44174E+00
 -1      3359 2.60718E+00
 -1      3360 3.08188E-01
 -1      3361 3.49670E-01
 -1      3362 6.83234E-01
 -1      3363 6.14866E-01
 -1      3364 5.65064E+00
 -1      3365 6.02374E+00
 -1      3366 3.93210E+00
 -1      3367 2.70816E+00
 -1      3368 3.35484E+00
 -1      3369 3.82270E+00
 -1      3370 9.63298E+00
 -1      3371 1.00810E+01
 -1      3372 7.98955E+00
 -1      3373 4.41658E+00
 -1      3374 2.66801E+00
 -1      3375 2.41182E+00
 -1      3376 1.97639E+00
 -1      3377 2.40649E+00
 -1      3378 1.02379E+01
 -1      3379 3.32732E-01
 -1      3380 3.31631E-01
 -1      3381 2.49175E-01
 -1      3382 7.84127E+00
 -1      3383 2.94786E-01
 -1      3384 2.73396E-01
 -1      3385 2.67576E-01
 -1      3386 3.89901E-01
 -1      3387 7.22179E+00
 -1      3388 5.40456E+00
 -1      3389 6.56837E+00
 -1      3390 3.00433E-01
 -1      3391 3.55972E-01
 -1      3392 3.90032E-01
 -1      3393 2.04461E-01
 -1      3394 2.30566E-01
 -1      3395 2.48721E-01
 -1      3396 2.85630E+00
 -1      3397 2.72967E+00
 -1      3398 2.87595E+00
 -1      3399 2.52719E+00
 -1      3400 2.58302E+00
 -1      3401 2.29261E+00
 -1      3402 7.83269E-01
 -1      3403 8.29141E-01
 -1      3404 8.37122E-01
 -1      3405 3.49670E-01
 -1      3406 3.47199E-01
 -1      3407 3.13875E-01
 -1      3408 3.49670E-01
 -1      3409 8.58399E-01
 -1      3410 8.58399E-01
 -1      3411 9.50454E-01
 -1      3412 9.73341E-01
 -1      3413 8.33803E+00
 -1      3414 6.30392E+00
 -1      3415 7.73459E+00
 -1      3416 1.03532E+01
 -1      3417 9.30555E+00
 -1      3418 7.67423E+00
 -1      3419 9.80997E+00
 -1      3420 7.43458E+00
 -1      3421 6.88981E+00
 -1      3422 4.13110E+00
 -1      3423 1.03675E+01
 -1      3424 8.66908E+00
 -1      3425 9.02835E+00
 -1      3426 4.67055E-01
 -1      3427 5.28140E-01
 -1      3428 6.42120E-01
 -1      3429 5.62469E-01
 -1      3430 6.12991E+00
 -1      3431 8.15581E+00
 -1      3432 7.28574E+00
 -1      3433 3.23434E-01
 -1      3434 3.23886E-01
 -1      3435 2.85157E-01
 -1      3436 3.19672E-01
 -1      3437 3.28972E-01
 -1      3438 4.23752E-01
 -1      3439 3.03923E-01
 -1      3440 3.32313E-01
 -1      3441 3.98554E-01
 -1      3442 3.01794E+00
 -1      3443 2.92474E+00
 -1      3444 2.41182E+00
 -1      3445 2.74699E+00
 -1      3446 2.17532E-01
 -1      3447 2.06347E-01
 -1      3448 2.02228E-01
 -1      3449 1.87451E-01
 -1      3450 1.79807E-01
 -1      3451 1.78778E-01
 -1      3452 1.65065E-01
 -1      3453 1.67016E-01
 -1      3454 1.54193E-01
 -1      3455 1.42440E-01
 -1      3456 1.47470E-01
 -1      3457 1.34068E-01
 -1      3458 1.21133E-01
 -1      3459 1.28226E-01
 -1      3460 1.11158E-01
 -1      3461 9.77440E-02
 -1      3462 1.09880E-01
 -1      3463 8.68526E-02
 -1      3464 7.31623E-02
 -1      3465 8.90126E-02
 -1      3466 6.63629E-02
 -1      3467 5.49063E-02
 -1      3468 7.13216E-02
 -1      3469 5.69704E-02
 -1      3470 5.83468E-02
 -1      3471 6.65862E-02
 -1      3472 6.38128E-02
 -1      3473 8.13956E-02
 -1      3474 7.41164E-02
 -1      3475 1.03844E-01
 -1      3476 1.27692E-01
 -1      3477 1.02031E-01
 -1      3478 1.55442E-01
 -1      3479 1.85424E-01
 -1      3480 1.52230E-01
 -1      3481 2.19527E-01
 -1      3482 2.55763E-01
 -1      3483 2.14083E-01
 -1      3484 2.97566E-01
 -1      3485 3.40771E-01
 -1      3486 2.89989E-01
 -1      3487 3.91688E-01
 -1      3488 4.41963E-01
 -1      3489 3.82709E-01
 -1      3490 5.03373E-01
 -1      3491 5.59613E-01
 -1      3492 4.95036E-01
 -1      3493 6.32582E-01
 -1      3494 7.03781E-01
 -1      3495 6.29415E-01
 -1      3496 7.88366E-01
 -1      3497 8.84615E-01
 -1      3498 7.86969E-01
 -1      3499 9.96220E-01
 -1      3500 1.12060E+00
 -1      3501 9.83158E-01
 -1      3502 1.29072E+00
 -1      3503 1.44708E+00
 -1      3504 1.26488E+00
 -1      3505 1.74511E+00
 -1      3506 1.90808E+00
 -1      3507 1.73303E+00
 -1      3508 2.67926E+00
 -1      3509 2.97283E+00
 -1      3510 2.80224E+00
 -1      3511 8.17388E+00
 -1      3512 9.21244E+00
 -1      3513 4.80537E+00
 -1      3514 4.17259E+00
 -1      3515 2.70088E+00
 -1      3516 2.47980E+00
 -1      3517 1.72057E+00
 -1      3518 1.55241E+00
 -1      3519 2.59503E+00
 -1      3520 1.23923E+00
 -1      3521 1.08105E+00
 -1      3522 1.52261E+00
 -1      3523 5.53976E-02
 -1      3524 6.83448E-02
 -1      3525 8.09096E-02
 -1      3526 9.42537E-02
 -1      3527 7.26472E-02
 -1      3528 6.95823E-02
 -1      3529 5.45841E-02
 -1      3530 1.12874E-01
 -1      3531 9.03103E-02
 -1      3532 8.63258E-02
 -1      3533 1.66526E-01
 -1      3534 1.39467E-01
 -1      3535 1.33646E-01
 -1      3536 2.31718E-01
 -1      3537 1.98963E-01
 -1      3538 1.92676E-01
 -1      3539 3.10922E-01
 -1      3540 2.71114E-01
 -1      3541 2.64508E-01
 -1      3542 4.08110E-01
 -1      3543 3.58237E-01
 -1      3544 3.51218E-01
 -1      3545 5.24718E-01
 -1      3546 4.63915E-01
 -1      3547 4.54339E-01
 -1      3548 6.60652E-01
 -1      3549 5.88691E-01
 -1      3550 5.74119E-01
 -1      3551 8.13751E-01
 -1      3552 7.31433E-01
 -1      3553 7.08874E-01
 -1      3554 1.01707E+00
 -1      3555 9.19390E-01
 -1      3556 8.85294E-01
 -1      3557 1.27511E+00
 -1      3558 1.16572E+00
 -1      3559 1.13958E+00
 -1      3560 1.61267E+00
 -1      3561 1.49021E+00
 -1      3562 1.50332E+00
 -1      3563 2.11014E+00
 -1      3564 1.88092E+00
 -1      3565 1.98667E+00
 -1      3566 3.20800E+00
 -1      3567 2.70011E+00
 -1      3568 2.84489E+00
 -1      3569 3.25338E+00
 -1      3570 2.52639E+00
 -1      3571 2.78036E+00
 -1      3572 1.48305E+00
 -1      3573 1.64351E+00
 -1      3574 1.10661E+00
 -1      3575 1.22654E+00
 -1      3576 1.52579E+00
 -1      3577 8.27121E-01
 -1      3578 9.39703E-01
 -1      3579 1.10238E+00
 -1      3580 3.36578E-01
 -1      3581 3.41643E+00
 -1      3582 1.12990E+00
 -1      3583 1.16106E+00
 -1      3584 5.40746E-01
 -1      3585 4.85397E-01
 -1      3586 5.47692E-01
 -1      3587 6.54986E-01
 -1      3588 1.16106E+00
 -1      3589 1.16106E+00
 -1      3590 1.34717E+00
 -1      3591 7.24347E+00
 -1      3592 6.57058E+00
 -1      3593 6.01917E+00
 -1      3594 5.75284E+00
 -1      3595 1.56530E-01
 -1      3596 1.70494E-01
 -1      3597 9.49305E-01
 -1      3598 1.03972E+00
 -1      3599 1.25699E+00
 -1      3600 7.03242E+00
 -1      3601 6.89390E+00
 -1      3602 4.40209E+00
 -1      3603 3.84476E+00
 -1      3604 3.46506E+00
 -1      3605 3.51879E+00
 -1      3606 4.92367E+00
 -1      3607 5.13710E+00
 -1      3608 4.35724E+00
 -1      3609 5.49202E+00
 -1      3610 4.73431E+00
 -1      3611 3.63239E+00
 -1      3612 1.96354E+00
 -1      3613 2.20319E+00
 -1      3614 2.10233E+00
 -1      3615 3.19832E-01
 -1      3616 3.16090E-01
 -1      3617 3.23434E-01
 -1      3618 2.89370E-01
 -1      3619 5.09070E-02
 -1      3620 5.44783E-02
 -1      3621 5.91630E-02
 -1      3622 6.19207E-02
 -1      3623 3.82936E+00
 -1      3624 1.95987E-01
 -1      3625 2.07415E-01
 -1      3626 2.17425E-01
 -1      3627 2.13723E-01
 -1      3628 1.80116E-01
 -1      3629 3.74566E+00
 -1      3630 3.56854E+00
 -1      3631 8.89614E+00
 -1      3632 7.33004E+00
 -1      3633 7.15580E+00
 -1      3634 3.29721E+00
 -1      3635 3.95058E+00
 -1      3636 3.72905E+00
 -1      3637 1.56329E+00
 -1      3638 1.37718E+00
 -1      3639 1.37557E+00
 -1      3640 4.42245E+00
 -1      3641 6.18197E+00
 -1      3642 6.07294E+00
 -1      3643 7.56901E+00
 -1      3644 6.33339E+00
 -1      3645 6.33339E+00
 -1      3646 5.23364E+00
 -1      3647 4.82631E+00
 -1      3648 6.86157E+00
 -1      3649 5.83616E+00
 -1      3650 4.94802E+00
 -1      3651 3.23433E+00
 -1      3652 1.66297E-01
 -1      3653 4.99045E+00
 -1      3654 2.53515E-01
 -1      3655 2.53515E-01
 -1      3656 2.38076E-01
 -1      3657 3.83492E+00
 -1      3658 8.95929E-01
 -1      3659 7.05845E-01
 -1      3660 6.95813E-01
 -1      3661 1.02431E+00
 -1      3662 5.75953E+00
 -1      3663 2.50033E-01
 -1      3664 2.60604E-01
 -1      3665 1.82587E-01
 -1      3666 1.97346E-01
 -1      3667 1.63378E-01
 -1      3668 9.72544E-02
 -1      3669 1.06296E-01
 -1      3670 1.20942E-01
 -1      3671 2.74555E+00
 -1      3672 2.78550E+00
 -1      3673 2.66912E-01
 -1      3674 2.71177E-01
 -1      3675 2.71803E-01
 -1      3676 2.05683E-01
 -1      3677 2.71084E-01
 -1      3678 2.71084E-01
 -1      3679 2.96069E+00
 -1      3680 3.03414E+00
 -1      3681 1.46824E-01
 -1      3682 1.41578E-01
 -1      3683 1.32230E-01
 -1      3684 6.49817E-01
 -1      3685 8.32290E-01
 -1      3686 7.58170E-01
 -1      3687 7.25904E+00
 -1      3688 5.17695E+00
 -1      3689 6.60257E+00
 -1      3690 2.85992E-01
 -1      3691 6.26335E+00
 -1      3692 5.31598E+00
 -1      3693 4.85414E+00
 -1      3694 2.61942E-01
 -1      3695 2.57663E-01
 -1      3696 8.17377E+00
 -1      3697 7.15803E+00
 -1      3698 7.10857E+00
 -1      3699 2.34465E-01
 -1      3700 2.50931E-01
 -1      3701 2.11102E-01
 -1      3702 4.77594E+00
 -1      3703 2.51862E+00
 -1      3704 2.47418E-01
 -1      3705 2.43204E-01
 -1      3706 2.11562E-01
 -1      3707 3.11941E+00
 -1      3708 5.58515E+00
 -1      3709 7.22966E+00
 -1      3710 5.88516E+00
 -1      3711 2.20576E-01
 -1      3712 1.80876E-01
 -1      3713 2.84645E-01
 -1      3714 2.61942E-01
 -1      3715 2.32712E-01
 -1      3716 2.19152E-01
 -1      3717 1.52273E+00
 -1      3718 1.42270E+00
 -1      3719 1.52588E+00
 -1      3720 7.85497E-01
 -1      3721 3.19526E-01
 -1      3722 1.00300E+00
 -1      3723 3.24909E+00
 -1      3724 3.51470E+00
 -1      3725 3.84682E+00
 -1      3726 2.34064E-01
 -1      3727 3.20567E+00
 -1      3728 2.44644E+00
 -1      3729 1.60275E-01
 -1      3730 1.56157E-01
 -1      3731 2.58389E-01
 -1      3732 1.55292E-01
 -1      3733 1.46618E-01
 -1      3734 1.35760E-01
 -1      3735 1.41398E-01
 -1      3736 1.30526E-01
 -1      3737 1.29674E-01
 -1      3738 1.22670E-01
 -1      3739 1.14298E-01
 -1      3740 1.16597E-01
 -1      3741 1.07670E-01
 -1      3742 9.76941E-02
 -1      3743 1.02113E-01
 -1      3744 9.01469E-02
 -1      3745 7.92554E-02
 -1      3746 8.79369E-02
 -1      3747 7.73718E-02
 -1      3748 7.05723E-02
 -1      3749 7.85061E-02
 -1      3750 7.27348E-02
 -1      3751 7.47989E-02
 -1      3752 7.87850E-02
 -1      3753 7.88457E-02
 -1      3754 8.43117E-02
 -1      3755 8.49943E-02
 -1      3756 9.36352E-02
 -1      3757 1.16084E-01
 -1      3758 9.83645E-02
 -1      3759 1.39486E-01
 -1      3760 1.67236E-01
 -1      3761 1.31090E-01
 -1      3762 1.96422E-01
 -1      3763 2.30525E-01
 -1      3764 1.83677E-01
 -1      3765 2.67091E-01
 -1      3766 3.08894E-01
 -1      3767 2.49429E-01
 -1      3768 3.54894E-01
 -1      3769 4.05811E-01
 -1      3770 3.31995E-01
 -1      3771 4.64083E-01
 -1      3772 5.25493E-01
 -1      3773 4.36267E-01
 -1      3774 6.00162E-01
 -1      3775 6.73131E-01
 -1      3776 5.69209E-01
 -1      3777 7.70275E-01
 -1      3778 8.54860E-01
 -1      3779 7.41022E-01
 -1      3780 9.83158E-01
 -1      3781 1.09476E+00
 -1      3782 9.66464E-01
 -1      3783 1.26488E+00
 -1      3784 1.43500E+00
 -1      3785 1.26488E+00
 -1      3786 1.64917E+00
 -1      3787 1.94720E+00
 -1      3788 1.64917E+00
 -1      3789 2.17645E+00
 -1      3790 2.94762E+00
 -1      3791 2.09258E+00
 -1      3792 2.53515E-01
 -1      3793 2.17659E-01
 -1      3794 2.50137E-01
 -1      3795 2.08602E-01
 -1      3796 2.27457E-01
 -1      3797 2.04992E-01
 -1      3798 1.18812E+00
 -1      3799 5.31598E+00
 -1      3800 2.17679E+00
 -1      3801 1.86361E+00
 -1      3802 2.78743E+00
 -1      3803 1.52043E-01
 -1      3804 1.25451E-01
 -1      3805 1.02110E-01
 -1      3806 8.13823E-02
 -1      3807 1.20507E-01
 -1      3808 2.88541E-01
 -1      3809 2.49146E-01
 -1      3810 3.80273E-01
 -1      3811 3.32958E-01
 -1      3812 3.17596E-01
 -1      3813 4.91192E-01
 -1      3814 4.35386E-01
 -1      3815 4.17126E-01
 -1      3816 6.23642E-01
 -1      3817 5.59668E-01
 -1      3818 5.40715E-01
 -1      3819 7.79656E-01
 -1      3820 7.08874E-01
 -1      3821 6.94424E-01
 -1      3822 9.90933E-01
 -1      3823 8.85294E-01
 -1      3824 8.85294E-01
 -1      3825 1.26769E+00
 -1      3826 1.11904E+00
 -1      3827 1.11904E+00
 -1      3828 1.70144E+00
 -1      3829 1.48635E+00
 -1      3830 1.46581E+00
 -1      3831 2.34936E+00
 -1      3832 2.08111E+00
 -1      3833 2.06413E+00
 -1      3834 3.43487E+00
 -1      3835 2.84489E+00
 -1      3836 2.93934E+00
 -1      3837 1.74202E-01
 -1      3838 1.84211E-01
 -1      3839 1.69279E+00
 -1      3840 1.57183E+00
 -1      3841 1.82833E+00
 -1      3842 1.93247E+00
 -1      3843 1.93247E+00
 -1      3844 2.07990E-01
 -1      3845 6.25056E+00
 -1      3846 6.67110E+00
 -1      3847 3.01528E+00
 -1      3848 3.33848E+00
 -1      3849 1.54401E+00
 -1      3850 1.52273E+00
 -1      3851 1.94785E+00
 -1      3852 4.82631E+00
 -1      3853 1.84229E+00
 -1      3854 2.19314E+00
 -1      3855 2.51317E+00
 -1      3856 3.10610E+00
 -1      3857 2.23918E+00
 -1      3858 2.25186E-01
 -1      3859 3.57342E+00
 -1      3860 3.83492E+00
 -1      3861 4.47281E+00
 -1      3862 2.94762E+00
 -1      3863 1.50396E-01
 -1      3864 1.54206E-01
 -1      3865 1.30555E-01
 -1      3866 4.54691E+00
 -1      3867 1.98790E-01
 -1      3868 3.95058E+00
 -1      3869 2.13341E-01
 -1      3870 1.80904E-01
 -1      3871 2.37374E-01
 -1      3872 6.52305E-02
 -1      3873 7.77953E-02
 -1      3874 2.04888E-01
 -1      3875 1.68581E-01
 -1      3876 1.66366E-01
 -1      3877 1.66274E-01
 -1      3878 1.67652E+00
 -1      3879 1.89264E+00
 -1      3880 2.26183E+00
 -1      3881 6.67110E+00
 -1      3882 5.01494E+00
 -1      3883 5.35265E+00
 -1      3884 4.04864E+00
 -1      3885 4.82184E+00
 -1      3886 5.37826E+00
 -1      3887 5.17335E+00
 -1      3888 1.86728E-01
 -1      3889 1.72708E-01
 -1      3890 3.82472E+00
 -1      3891 4.00505E+00
 -1      3892 8.68390E-02
 -1      3893 9.88813E-02
 -1      3894 7.94223E-02
 -1      3895 8.86954E-02
 -1      3896 7.29108E-02
 -1      3897 6.92338E-02
 -1      3898 4.20066E+00
 -1      3899 3.70513E+00
 -1      3900 1.58301E-01
 -1      3901 1.93247E+00
 -1      3902 3.80199E+00
 -1      3903 1.99533E+00
 -1      3904 1.20584E-01
 -1      3905 2.12012E-01
 -1      3906 2.12012E-01
 -1      3907 1.99241E-01
 -1      3908 1.26112E-01
 -1      3909 1.35818E-01
 -1      3910 6.60257E+00
 -1      3911 5.19253E+00
 -1      3912 5.74799E+00
 -1      3913 5.11690E+00
 -1      3914 6.60916E+00
 -1      3915 6.19976E+00
 -1      3916 4.36093E+00
 -1      3917 5.20802E+00
 -1      3918 4.31011E+00
 -1      3919 3.89571E+00
 -1      3920 6.28186E+00
 -1      3921 5.47674E+00
 -1      3922 5.69822E+00
 -1      3923 4.63066E+00
 -1      3924 2.11629E+00
 -1      3925 4.19446E+00
 -1      3926 3.88722E+00
 -1      3927 3.14231E+00
 -1      3928 2.16965E-01
 -1      3929 2.16965E-01
 -1      3930 1.45543E-01
 -1      3931 1.57636E-01
 -1      3932 1.30076E-01
 -1      3933 6.61509E-02
 -1      3934 6.70702E-02
 -1      3935 7.71409E-02
 -1      3936 1.94226E-01
 -1      3937 1.93329E-01
 -1      3938 1.51705E-01
 -1      3939 2.19539E-01
 -1      3940 2.12012E-01
 -1      3941 2.06365E-01
 -1      3942 7.22183E-02
 -1      3943 2.51778E+00
 -1      3944 4.40755E+00
 -1      3945 5.17335E+00
 -1      3946 2.03791E-01
 -1      3947 1.07716E-01
 -1      3948 1.13785E-01
 -1      3949 3.06128E+00
 -1      3950 3.53650E+00
 -1      3951 2.43548E+00
 -1      3952 1.19440E-01
 -1      3953 1.18575E-01
 -1      3954 9.66009E-02
 -1      3955 1.18874E-01
 -1      3956 1.13653E-01
 -1      3957 1.02554E-01
 -1      3958 1.10408E-01
 -1      3959 1.02552E-01
 -1      3960 9.96076E-02
 -1      3961 9.70594E-02
 -1      3962 9.04308E-02
 -1      3963 9.08696E-02
 -1      3964 8.78167E-02
 -1      3965 8.02695E-02
 -1      3966 8.27634E-02
 -1      3967 8.20101E-02
 -1      3968 8.01265E-02
 -1      3969 8.18899E-02
 -1      3970 8.18574E-02
 -1      3971 8.40200E-02
 -1      3972 8.53615E-02
 -1      3973 8.71785E-02
 -1      3974 9.12253E-02
 -1      3975 9.02509E-02
 -1      3976 9.71395E-02
 -1      3977 1.06463E-01
 -1      3978 9.93238E-02
 -1      3979 1.19057E-01
 -1      3980 1.42459E-01
 -1      3981 1.17832E-01
 -1      3982 1.60073E-01
 -1      3983 1.89259E-01
 -1      3984 1.48041E-01
 -1      3985 2.17565E-01
 -1      3986 2.54131E-01
 -1      3987 1.93960E-01
 -1      3988 2.90407E-01
 -1      3989 3.36407E-01
 -1      3990 2.58543E-01
 -1      3991 3.83494E-01
 -1      3992 4.41767E-01
 -1      3993 3.41907E-01
 -1      3994 5.04258E-01
 -1      3995 5.78927E-01
 -1      3996 4.51485E-01
 -1      3997 6.64672E-01
 -1      3998 7.61816E-01
 -1      3999 5.99721E-01
 -1      4000 8.84598E-01
 -1      4001 1.01290E+00
 -1      4002 8.08248E-01
 -1      4003 1.19991E+00
 -1      4004 1.37003E+00
 -1      4005 1.11805E+00
 -1      4006 1.52897E+00
 -1      4007 1.74313E+00
 -1      4008 1.46400E+00
 -1      4009 1.84819E+00
 -1      4010 2.07743E+00
 -1      4011 2.19109E+00
 -1      4012 1.72798E+00
 -1      4013 5.62117E-01
 -1      4014 4.93641E-01
 -1      4015 1.31244E-01
 -1      4016 1.07903E-01
 -1      4017 2.87266E+00
 -1      4018 1.83014E-01
 -1      4019 1.54153E-01
 -1      4020 1.41549E-01
 -1      4021 1.51240E-01
 -1      4022 1.53814E-01
 -1      4023 4.32067E-01
 -1      4024 3.76954E-01
 -1      4025 4.53469E-01
 -1      4026 3.29535E-01
 -1      4027 2.85118E-01
 -1      4028 3.44476E-01
 -1      4029 7.29216E-01
 -1      4030 6.43983E-01
 -1      4031 5.96909E-01
 -1      4032 9.47521E-01
 -1      4033 8.41882E-01
 -1      4034 7.91442E-01
 -1      4035 1.23547E+00
 -1      4036 1.10737E+00
 -1      4037 1.06395E+00
 -1      4038 1.68446E+00
 -1      4039 1.46581E+00
 -1      4040 1.45413E+00
 -1      4041 2.44599E+00
 -1      4042 2.06632E+00
 -1      4043 2.06632E+00
 -1      4044 3.70732E+00
 -1      4045 1.38985E-01
 -1      4046 1.05171E-01
 -1      4047 8.84009E-02
 -1      4048 1.46110E-01
 -1      4049 1.07496E-01
 -1      4050 1.18784E-01
 -1      4051 1.13024E-01
 -1      4052 9.70811E-02
 -1      4053 7.78985E-02
 -1      4054 7.60588E-02
 -1      4055 1.95694E-01
 -1      4056 2.02701E-01
 -1      4057 1.84928E-01
 -1      4058 2.11629E+00
 -1      4059 2.11629E+00
 -1      4060 1.99533E+00
 -1      4061 4.21004E+00
 -1      4062 4.19446E+00
 -1      4063 3.22754E+00
 -1      4064 4.21004E+00
 -1      4065 4.99358E+00
 -1      4066 5.54022E+00
 -1      4067 4.49204E+00
 -1      4068 3.97113E+00
 -1      4069 1.80807E-01
 -1      4070 1.94367E-01
 -1      4071 1.78620E-01
 -1      4072 1.41490E-01
 -1      4073 1.74195E-01
 -1      4074 1.85452E-01
 -1      4075 1.83161E-01
 -1      4076 1.56360E-01
 -1      4077 1.77941E+00
 -1      4078 1.94785E+00
 -1      4079 1.94785E+00
 -1      4080 1.89264E+00
 -1      4081 2.48049E-01
 -1      4082 2.12244E-01
 -1      4083 1.93689E-01
 -1      4084 2.87266E+00
 -1      4085 2.75096E+00
 -1      4086 2.39608E+00
 -1      4087 2.14013E+00
 -1      4088 2.75096E+00
 -1      4089 2.90835E+00
 -1      4090 4.22686E+00
 -1      4091 4.22686E+00
 -1      4092 5.15955E+00
 -1      4093 9.35589E-02
 -1      4094 1.46110E-01
 -1      4095 8.67033E-02
 -1      4096 9.57470E-02
 -1      4097 9.23835E-02
 -1      4098 1.08320E-01
 -1      4099 9.75839E-02
 -1      4100 8.91124E-02
 -1      4101 4.91248E+00
 -1      4102 3.18431E+00
 -1      4103 2.60399E+00
 -1      4104 3.10610E+00
 -1      4105 3.46901E+00
 -1      4106 1.28642E-01
 -1      4107 4.06277E+00
 -1      4108 2.80363E+00
 -1      4109 5.53316E+00
 -1      4110 4.97771E+00
 -1      4111 4.70646E+00
 -1      4112 1.46110E-01
 -1      4113 2.59988E-01
 -1      4114 9.98834E-02
 -1      4115 1.14416E-01
 -1      4116 1.24631E-01
 -1      4117 1.14574E-01
 -1      4118 1.24299E-01
 -1      4119 1.00474E-01
 -1      4120 1.07802E-01
 -1      4121 1.02024E-01
 -1      4122 2.36014E+00
 -1      4123 8.40561E-02
 -1      4124 8.09731E-02
 -1      4125 8.48136E-02
 -1      4126 9.29446E-02
 -1      4127 4.96646E+00
 -1      4128 5.15955E+00
 -1      4129 4.25587E+00
 -1      4130 3.13007E+00
 -1      4131 7.85913E-02
 -1      4132 8.42455E-02
 -1      4133 7.85820E-02
 -1      4134 7.08783E-02
 -1      4135 8.87632E-02
 -1      4136 8.90623E-02
 -1      4137 7.07536E-02
 -1      4138 9.48519E-02
 -1      4139 9.16061E-02
 -1      4140 8.10608E-02
 -1      4141 9.11739E-02
 -1      4142 8.56818E-02
 -1      4143 8.64182E-02
 -1      4144 8.29934E-02
 -1      4145 8.03793E-02
 -1      4146 8.32976E-02
 -1      4147 9.59052E-02
 -1      4148 9.76458E-02
 -1      4149 9.61352E-02
 -1      4150 8.53615E-02
 -1      4151 8.70924E-02
 -1      4152 9.93768E-02
 -1      4153 9.02509E-02
 -1      4154 9.34095E-02
 -1      4155 9.02509E-02
 -1      4156 9.87202E-02
 -1      4157 1.04634E-01
 -1      4158 9.87202E-02
 -1      4159 1.21422E-01
 -1      4160 1.34016E-01
 -1      4161 1.20818E-01
 -1      4162 1.47294E-01
 -1      4163 1.64907E-01
 -1      4164 1.50883E-01
 -1      4165 1.85897E-01
 -1      4166 2.14203E-01
 -1      4167 1.85150E-01
 -1      4168 2.41290E-01
 -1      4169 2.77567E-01
 -1      4170 2.33227E-01
 -1      4171 3.13226E-01
 -1      4172 3.60313E-01
 -1      4173 2.95973E-01
 -1      4174 4.08696E-01
 -1      4175 4.71187E-01
 -1      4176 3.80015E-01
 -1      4177 5.36386E-01
 -1      4178 6.22132E-01
 -1      4179 4.93598E-01
 -1      4180 7.12799E-01
 -1      4181 8.35580E-01
 -1      4182 6.49464E-01
 -1      4183 9.62019E-01
 -1      4184 1.14904E+00
 -1      4185 8.66570E-01
 -1      4186 1.33087E+00
 -1      4187 1.48980E+00
 -1      4188 1.17484E+00
 -1      4189 2.04705E-01
 -1      4190 1.75475E-01
 -1      4191 5.89170E-01
 -1      4192 5.07304E-01
 -1      4193 3.45274E-01
 -1      4194 2.97855E-01
 -1      4195 1.07809E+00
 -1      4196 9.18242E-01
 -1      4197 1.53271E+00
 -1      4198 1.30237E+00
 -1      4199 1.15666E+00
 -1      4200 2.50829E+00
 -1      4201 2.12644E+00
 -1      4202 1.97468E+00
 -1      4203 2.86375E+00
 -1      4204 1.34029E-01
 -1      4205 1.25553E-01
 -1      4206 7.37316E-02
 -1      4207 3.72776E+00
 -1      4208 3.88576E+00
 -1      4209 3.94218E+00
 -1      4210 2.86273E+00
 -1      4211 3.99185E+00
 -1      4212 3.00935E+00
 -1      4213 2.53277E+00
 -1      4214 3.77702E+00
 -1      4215 2.36014E+00
 -1      4216 2.70618E+00
 -1      4217 2.62293E+00
 -1      4218 2.34697E+00
 -1      4219 8.70358E-02
 -1      4220 9.16897E-02
 -1      4221 1.00305E-01
 -1      4222 9.50826E-02
 -1      4223 9.89707E-02
 -1      4224 1.56227E-01
 -1      4225 1.33317E-01
 -1      4226 1.67243E-01
 -1      4227 1.17965E-01
 -1      4228 1.33467E-01
 -1      4229 1.50026E-01
 -1      4230 2.83473E+00
 -1      4231 4.47189E-01
 -1      4232 3.85615E-01
 -1      4233 4.39450E-01
 -1      4234 7.88966E-01
 -1      4235 6.76299E-01
 -1      4236 5.86694E-01
 -1      4237 8.03100E-01
 -1      4238 2.66381E-01
 -1      4239 2.29312E-01
 -1      4240 2.67179E-01
 -1      4241 8.84009E-02
 -1      4242 7.60456E-02
 -1      4243 2.50338E+00
 -1      4244 2.36913E+00
 -1      4245 2.25590E+00
 -1      4246 2.76177E+00
 -1      4247 6.10687E-02
 -1      4248 2.11098E-01
 -1      4249 1.45251E-01
 -1      4250 1.30574E-01
 -1      4251 1.20255E-01
 -1      4252 6.43552E-02
 -1      4253 1.75619E+00
 -1      4254 1.88932E+00
 -1      4255 2.15026E+00
 -1      4256 2.62839E+00
 -1      4257 3.38994E-01
 -1      4258 2.42434E+00
 -1      4259 2.66819E+00
 -1      4260 2.92693E+00
 -1      4261 2.25590E+00
 -1      4262 9.67000E-02
 -1      4263 1.07345E-01
 -1      4264 1.98892E+00
 -1      4265 9.10511E-02
 -1      4266 9.78236E-02
 -1      4267 2.36206E+00
 -1      4268 1.00632E-01
 -1      4269 1.09800E-01
 -1      4270 8.96586E-02
 -1      4271 1.37601E-01
 -1      4272 1.47844E-01
 -1      4273 8.84690E-02
 -1      4274 1.14709E-01
 -1      4275 8.58552E-02
 -1      4276 8.78882E-02
 -1      4277 8.48136E-02
 -1      4278 9.97747E-02
 -1      4279 7.38470E-02
 -1      4280 7.96366E-02
 -1      4281 8.68504E-02
 -1      4282 8.64182E-02
 -1      4283 9.61352E-02
 -1      4284 1.11661E-01
 -1      4285 1.11661E-01
 -1      4286 9.93768E-02
 -1      4287 8.74903E-02
 -1      4288 9.06489E-02
 -1      4289 1.23270E-01
 -1      4290 1.40057E-01
 -1      4291 1.42800E-01
 -1      4292 1.56077E-01
 -1      4293 1.75326E-01
 -1      4294 1.96316E-01
 -1      4295 2.20923E-01
 -1      4296 2.48010E-01
 -1      4297 2.79484E-01
 -1      4298 3.15143E-01
 -1      4299 3.55483E-01
 -1      4300 4.03867E-01
 -1      4301 4.63982E-01
 -1      4302 5.29181E-01
 -1      4303 6.16310E-01
 -1      4304 7.06977E-01
 -1      4305 8.36254E-01
 -1      4306 9.62693E-01
 -1      4307 1.18698E+00
 -1      4308 1.36881E+00
 -1      4309 1.99437E+00
 -1      4310 1.96254E+00
 -1      4311 6.52777E-02
 -1      4312 6.64954E-02
 -1      4313 7.10130E-02
 -1      4314 6.95888E-02
 -1      4315 6.13281E-02
 -1      4316 9.06190E-02
 -1      4317 8.64182E-02
 -1      4318 9.04497E-02
 -1      4319 7.07045E-02
 -1      4320 9.94203E-02
 -1      4321 9.43640E-02
 -1      4322 1.21674E-01
 -1      4323 1.11661E-01
 -1      4324 1.07345E-01
 -1      4325 8.59860E-02
 -1      4326 2.73238E+00
 -1      4327 8.32976E-02
 -1      4328 9.71246E-02
 -1      4329 1.02435E-01
 -1      4330 1.21674E-01
 -1      4331 9.88236E-02
 -1      4332 1.45251E-01
 -1      4333 3.74763E+00
 -1      4334 9.97780E-02
 -1      4335 8.73533E-02
 -1      4336 8.45193E-02
 -1      4337 9.43640E-02
 -1      4338 3.74763E+00
 -1      4339 1.03287E-01
 -1      4340 9.43640E-02
 -1      4341 1.00840E-01
 -1      4342 1.21674E-01
 -1      4343 8.96586E-02
 -1      4344 8.24448E-02
 -1      4345 1.42508E-01
 -3
 9999
