    1C
    1UUSER                                                              
    1UDATE              27.october.2022                                 
    1UTIME              00:54:10                                        
    1UHOST                                                              
    1UPGM               CalculiX                                        
    1UVERSION           Version 2.17                             
    1UCOMPILETIME       Thu Jul 23 21:43:50 CEST 2020                    
    1UDIR                                                               
    1UDBN                                                               
    1UMAT    1SOLIDMATERIAL                                             
    2C                          4231                                     1
 -1         1 1.20084E+02 4.49619E+01 0.00000E+00
 -1         2 1.27084E+02 3.79619E+01 0.00000E+00
 -1         3 1.50000E+02 0.00000E+00 0.00000E+00
 -1         4 1.50000E+02 5.00000E+01 0.00000E+00
 -1         5 0.00000E+00 0.00000E+00 0.00000E+00
 -1         6 0.00000E+00 5.00000E+01 0.00000E+00
 -1         7 0.00000E+00 4.70500E+01 0.00000E+00
 -1         8 0.00000E+00 4.41000E+01 0.00000E+00
 -1         9 0.00000E+00 4.11500E+01 0.00000E+00
 -1        10 0.00000E+00 3.82000E+01 0.00000E+00
 -1        11 0.00000E+00 3.52500E+01 0.00000E+00
 -1        12 0.00000E+00 3.23500E+01 0.00000E+00
 -1        13 0.00000E+00 2.94000E+01 0.00000E+00
 -1        14 0.00000E+00 2.64500E+01 0.00000E+00
 -1        15 0.00000E+00 2.35000E+01 0.00000E+00
 -1        16 0.00000E+00 2.05500E+01 0.00000E+00
 -1        17 0.00000E+00 1.76000E+01 0.00000E+00
 -1        18 0.00000E+00 1.47000E+01 0.00000E+00
 -1        19 0.00000E+00 1.17500E+01 0.00000E+00
 -1        20 0.00000E+00 8.80000E+00 0.00000E+00
 -1        21 0.00000E+00 5.85000E+00 0.00000E+00
 -1        22 0.00000E+00 2.90000E+00 0.00000E+00
 -1        23 3.00000E+00 5.00000E+01 0.00000E+00
 -1        24 6.00000E+00 5.00000E+01 0.00000E+00
 -1        25 9.00000E+00 5.00000E+01 0.00000E+00
 -1        26 1.20000E+01 5.00000E+01 0.00000E+00
 -1        27 1.50000E+01 5.00000E+01 0.00000E+00
 -1        28 1.80000E+01 5.00000E+01 0.00000E+00
 -1        29 2.10000E+01 5.00000E+01 0.00000E+00
 -1        30 2.40000E+01 5.00000E+01 0.00000E+00
 -1        31 2.70000E+01 5.00000E+01 0.00000E+00
 -1        32 3.00000E+01 5.00000E+01 0.00000E+00
 -1        33 3.30000E+01 5.00000E+01 0.00000E+00
 -1        34 3.60000E+01 5.00000E+01 0.00000E+00
 -1        35 3.90000E+01 5.00000E+01 0.00000E+00
 -1        36 4.20000E+01 5.00000E+01 0.00000E+00
 -1        37 4.50000E+01 5.00000E+01 0.00000E+00
 -1        38 4.80000E+01 5.00000E+01 0.00000E+00
 -1        39 5.10000E+01 5.00000E+01 0.00000E+00
 -1        40 5.40000E+01 5.00000E+01 0.00000E+00
 -1        41 5.70000E+01 5.00000E+01 0.00000E+00
 -1        42 6.00000E+01 5.00000E+01 0.00000E+00
 -1        43 6.30000E+01 5.00000E+01 0.00000E+00
 -1        44 6.60000E+01 5.00000E+01 0.00000E+00
 -1        45 6.90000E+01 5.00000E+01 0.00000E+00
 -1        46 7.20000E+01 5.00000E+01 0.00000E+00
 -1        47 7.50000E+01 5.00000E+01 0.00000E+00
 -1        48 7.80000E+01 5.00000E+01 0.00000E+00
 -1        49 8.10000E+01 5.00000E+01 0.00000E+00
 -1        50 8.40000E+01 5.00000E+01 0.00000E+00
 -1        51 8.70000E+01 5.00000E+01 0.00000E+00
 -1        52 9.00000E+01 5.00000E+01 0.00000E+00
 -1        53 9.30000E+01 5.00000E+01 0.00000E+00
 -1        54 9.60000E+01 5.00000E+01 0.00000E+00
 -1        55 9.90000E+01 5.00000E+01 0.00000E+00
 -1        56 1.02000E+02 5.00000E+01 0.00000E+00
 -1        57 1.05000E+02 5.00000E+01 0.00000E+00
 -1        58 1.08000E+02 5.00000E+01 0.00000E+00
 -1        59 1.10850E+02 5.00000E+01 0.00000E+00
 -1        60 1.13550E+02 5.00000E+01 0.00000E+00
 -1        61 1.16250E+02 5.00000E+01 0.00000E+00
 -1        62 1.18650E+02 5.00000E+01 0.00000E+00
 -1        63 1.21500E+02 5.00000E+01 0.00000E+00
 -1        64 1.24050E+02 5.00000E+01 0.00000E+00
 -1        65 1.26600E+02 5.00000E+01 0.00000E+00
 -1        66 1.29150E+02 5.00000E+01 0.00000E+00
 -1        67 1.32150E+02 5.00000E+01 0.00000E+00
 -1        68 1.35150E+02 5.00000E+01 0.00000E+00
 -1        69 1.38150E+02 5.00000E+01 0.00000E+00
 -1        70 1.41150E+02 5.00000E+01 0.00000E+00
 -1        71 1.44150E+02 5.00000E+01 0.00000E+00
 -1        72 1.47150E+02 5.00000E+01 0.00000E+00
 -1        73 3.15000E+00 0.00000E+00 0.00000E+00
 -1        74 6.15000E+00 0.00000E+00 0.00000E+00
 -1        75 9.15000E+00 0.00000E+00 0.00000E+00
 -1        76 1.21500E+01 0.00000E+00 0.00000E+00
 -1        77 1.51500E+01 0.00000E+00 0.00000E+00
 -1        78 1.81500E+01 0.00000E+00 0.00000E+00
 -1        79 2.11500E+01 0.00000E+00 0.00000E+00
 -1        80 2.41500E+01 0.00000E+00 0.00000E+00
 -1        81 2.71500E+01 0.00000E+00 0.00000E+00
 -1        82 3.01500E+01 0.00000E+00 0.00000E+00
 -1        83 3.31500E+01 0.00000E+00 0.00000E+00
 -1        84 3.61500E+01 0.00000E+00 0.00000E+00
 -1        85 3.91500E+01 0.00000E+00 0.00000E+00
 -1        86 4.21500E+01 0.00000E+00 0.00000E+00
 -1        87 4.51500E+01 0.00000E+00 0.00000E+00
 -1        88 4.81500E+01 0.00000E+00 0.00000E+00
 -1        89 5.11500E+01 0.00000E+00 0.00000E+00
 -1        90 5.41500E+01 0.00000E+00 0.00000E+00
 -1        91 5.71500E+01 0.00000E+00 0.00000E+00
 -1        92 6.01500E+01 0.00000E+00 0.00000E+00
 -1        93 6.31500E+01 0.00000E+00 0.00000E+00
 -1        94 6.61500E+01 0.00000E+00 0.00000E+00
 -1        95 6.91500E+01 0.00000E+00 0.00000E+00
 -1        96 7.21500E+01 0.00000E+00 0.00000E+00
 -1        97 7.51500E+01 0.00000E+00 0.00000E+00
 -1        98 7.81500E+01 0.00000E+00 0.00000E+00
 -1        99 8.11500E+01 0.00000E+00 0.00000E+00
 -1       100 8.41500E+01 0.00000E+00 0.00000E+00
 -1       101 8.71500E+01 0.00000E+00 0.00000E+00
 -1       102 9.01500E+01 0.00000E+00 0.00000E+00
 -1       103 9.31500E+01 0.00000E+00 0.00000E+00
 -1       104 9.61500E+01 0.00000E+00 0.00000E+00
 -1       105 9.91500E+01 0.00000E+00 0.00000E+00
 -1       106 1.02150E+02 0.00000E+00 0.00000E+00
 -1       107 1.05150E+02 0.00000E+00 0.00000E+00
 -1       108 1.08150E+02 0.00000E+00 0.00000E+00
 -1       109 1.11150E+02 0.00000E+00 0.00000E+00
 -1       110 1.14150E+02 0.00000E+00 0.00000E+00
 -1       111 1.17150E+02 0.00000E+00 0.00000E+00
 -1       112 1.20150E+02 0.00000E+00 0.00000E+00
 -1       113 1.23150E+02 0.00000E+00 0.00000E+00
 -1       114 1.26150E+02 0.00000E+00 0.00000E+00
 -1       115 1.29150E+02 0.00000E+00 0.00000E+00
 -1       116 1.32150E+02 0.00000E+00 0.00000E+00
 -1       117 1.35150E+02 0.00000E+00 0.00000E+00
 -1       118 1.38150E+02 0.00000E+00 0.00000E+00
 -1       119 1.41150E+02 0.00000E+00 0.00000E+00
 -1       120 1.44150E+02 0.00000E+00 0.00000E+00
 -1       121 1.47150E+02 0.00000E+00 0.00000E+00
 -1       122 1.50000E+02 2.95000E+00 0.00000E+00
 -1       123 1.50000E+02 5.90000E+00 0.00000E+00
 -1       124 1.50000E+02 8.85000E+00 0.00000E+00
 -1       125 1.50000E+02 1.18000E+01 0.00000E+00
 -1       126 1.50000E+02 1.47500E+01 0.00000E+00
 -1       127 1.50000E+02 1.76500E+01 0.00000E+00
 -1       128 1.50000E+02 2.06000E+01 0.00000E+00
 -1       129 1.50000E+02 2.35500E+01 0.00000E+00
 -1       130 1.50000E+02 2.65000E+01 0.00000E+00
 -1       131 1.50000E+02 2.94500E+01 0.00000E+00
 -1       132 1.50000E+02 3.24000E+01 0.00000E+00
 -1       133 1.50000E+02 3.53000E+01 0.00000E+00
 -1       134 1.50000E+02 3.82500E+01 0.00000E+00
 -1       135 1.50000E+02 4.12000E+01 0.00000E+00
 -1       136 1.50000E+02 4.41500E+01 0.00000E+00
 -1       137 1.50000E+02 4.71000E+01 0.00000E+00
 -1       138 1.26903E+02 3.63780E+01 0.00000E+00
 -1       139 1.26388E+02 3.49192E+01 0.00000E+00
 -1       140 1.25636E+02 3.36977E+01 0.00000E+00
 -1       141 1.24631E+02 3.26395E+01 0.00000E+00
 -1       142 1.23363E+02 3.17773E+01 0.00000E+00
 -1       143 1.21899E+02 3.12012E+01 0.00000E+00
 -1       144 1.20499E+02 3.09742E+01 0.00000E+00
 -1       145 1.18949E+02 3.10546E+01 0.00000E+00
 -1       146 1.17501E+02 3.14561E+01 0.00000E+00
 -1       147 1.16187E+02 3.21475E+01 0.00000E+00
 -1       148 1.15118E+02 3.30284E+01 0.00000E+00
 -1       149 1.14173E+02 3.42126E+01 0.00000E+00
 -1       150 1.13533E+02 3.54965E+01 0.00000E+00
 -1       151 1.13167E+02 3.68915E+01 0.00000E+00
 -1       152 1.13092E+02 3.82813E+01 0.00000E+00
 -1       153 1.13302E+02 3.96925E+01 0.00000E+00
 -1       154 1.13864E+02 4.11717E+01 0.00000E+00
 -1       155 1.14675E+02 4.24053E+01 0.00000E+00
 -1       156 1.15889E+02 4.35655E+01 0.00000E+00
 -1       157 1.17143E+02 4.43138E+01 0.00000E+00
 -1       158 1.18624E+02 4.48078E+01 0.00000E+00
 -1       159 1.21441E+02 4.48292E+01 0.00000E+00
 -1       160 1.22820E+02 4.44052E+01 0.00000E+00
 -1       161 1.24042E+02 4.37360E+01 0.00000E+00
 -1       162 1.25067E+02 4.28785E+01 0.00000E+00
 -1       163 1.25936E+02 4.18041E+01 0.00000E+00
 -1       164 1.26583E+02 4.05622E+01 0.00000E+00
 -1       165 1.26958E+02 3.92838E+01 0.00000E+00
 -1       166 2.59800E+00 4.55750E+01 0.00000E+00
 -1       167 2.59800E+00 4.26250E+01 0.00000E+00
 -1       168 2.59800E+00 3.96750E+01 0.00000E+00
 -1       169 2.59800E+00 3.67250E+01 0.00000E+00
 -1       170 2.59800E+00 3.38250E+01 0.00000E+00
 -1       171 2.59800E+00 3.08750E+01 0.00000E+00
 -1       172 2.59800E+00 2.79250E+01 0.00000E+00
 -1       173 2.59800E+00 2.49750E+01 0.00000E+00
 -1       174 2.59800E+00 2.20250E+01 0.00000E+00
 -1       175 2.59800E+00 1.90750E+01 0.00000E+00
 -1       176 2.59800E+00 1.61750E+01 0.00000E+00
 -1       177 2.59800E+00 1.32250E+01 0.00000E+00
 -1       178 2.59800E+00 1.02750E+01 0.00000E+00
 -1       179 2.59800E+00 7.32500E+00 0.00000E+00
 -1       180 2.59800E+00 4.37500E+00 0.00000E+00
 -1       181 2.87400E+00 2.18750E+00 0.00000E+00
 -1       182 4.50000E+00 4.74020E+01 0.00000E+00
 -1       183 7.50000E+00 4.74020E+01 0.00000E+00
 -1       184 1.05000E+01 4.74020E+01 0.00000E+00
 -1       185 1.35000E+01 4.74020E+01 0.00000E+00
 -1       186 1.65000E+01 4.74020E+01 0.00000E+00
 -1       187 1.95000E+01 4.74020E+01 0.00000E+00
 -1       188 2.25000E+01 4.74020E+01 0.00000E+00
 -1       189 2.55000E+01 4.74020E+01 0.00000E+00
 -1       190 2.85000E+01 4.74020E+01 0.00000E+00
 -1       191 3.15000E+01 4.74020E+01 0.00000E+00
 -1       192 3.45000E+01 4.74020E+01 0.00000E+00
 -1       193 3.75000E+01 4.74020E+01 0.00000E+00
 -1       194 4.05000E+01 4.74020E+01 0.00000E+00
 -1       195 4.35000E+01 4.74020E+01 0.00000E+00
 -1       196 4.65000E+01 4.74020E+01 0.00000E+00
 -1       197 4.95000E+01 4.74020E+01 0.00000E+00
 -1       198 5.25000E+01 4.74020E+01 0.00000E+00
 -1       199 5.55000E+01 4.74020E+01 0.00000E+00
 -1       200 5.85000E+01 4.74020E+01 0.00000E+00
 -1       201 6.15000E+01 4.74020E+01 0.00000E+00
 -1       202 6.45000E+01 4.74020E+01 0.00000E+00
 -1       203 6.75000E+01 4.74020E+01 0.00000E+00
 -1       204 7.05000E+01 4.74020E+01 0.00000E+00
 -1       205 7.35000E+01 4.74020E+01 0.00000E+00
 -1       206 7.65000E+01 4.74020E+01 0.00000E+00
 -1       207 7.95000E+01 4.74020E+01 0.00000E+00
 -1       208 8.25000E+01 4.74020E+01 0.00000E+00
 -1       209 8.55000E+01 4.74020E+01 0.00000E+00
 -1       210 8.85000E+01 4.74020E+01 0.00000E+00
 -1       211 9.15000E+01 4.74020E+01 0.00000E+00
 -1       212 9.45000E+01 4.74020E+01 0.00000E+00
 -1       213 9.75000E+01 4.74020E+01 0.00000E+00
 -1       214 1.00500E+02 4.74020E+01 0.00000E+00
 -1       215 1.03500E+02 4.74020E+01 0.00000E+00
 -1       216 1.06500E+02 4.74020E+01 0.00000E+00
 -1       217 1.09350E+02 4.74020E+01 0.00000E+00
 -1       218 1.12050E+02 4.74020E+01 0.00000E+00
 -1       219 1.14750E+02 4.74020E+01 0.00000E+00
 -1       220 1.20075E+02 4.74020E+01 0.00000E+00
 -1       221 1.25325E+02 4.77822E+01 0.00000E+00
 -1       222 1.27875E+02 4.77822E+01 0.00000E+00
 -1       223 1.30875E+02 4.77822E+01 0.00000E+00
 -1       224 1.33875E+02 4.77822E+01 0.00000E+00
 -1       225 1.36875E+02 4.77822E+01 0.00000E+00
 -1       226 1.39875E+02 4.77822E+01 0.00000E+00
 -1       227 1.42875E+02 4.77822E+01 0.00000E+00
 -1       228 1.45875E+02 4.77822E+01 0.00000E+00
 -1       229 1.47938E+02 4.74411E+01 0.00000E+00
 -1       230 5.87400E+00 2.18750E+00 0.00000E+00
 -1       231 8.87400E+00 2.18750E+00 0.00000E+00
 -1       232 1.18740E+01 2.18750E+00 0.00000E+00
 -1       233 1.48740E+01 2.18750E+00 0.00000E+00
 -1       234 1.78740E+01 2.18750E+00 0.00000E+00
 -1       235 2.08740E+01 2.18750E+00 0.00000E+00
 -1       236 2.38740E+01 2.18750E+00 0.00000E+00
 -1       237 2.68740E+01 2.18750E+00 0.00000E+00
 -1       238 2.98740E+01 2.18750E+00 0.00000E+00
 -1       239 3.28740E+01 2.18750E+00 0.00000E+00
 -1       240 3.58740E+01 2.18750E+00 0.00000E+00
 -1       241 3.88740E+01 2.18750E+00 0.00000E+00
 -1       242 4.18740E+01 2.18750E+00 0.00000E+00
 -1       243 4.48740E+01 2.18750E+00 0.00000E+00
 -1       244 4.78740E+01 2.18750E+00 0.00000E+00
 -1       245 5.08740E+01 2.18750E+00 0.00000E+00
 -1       246 5.38740E+01 2.18750E+00 0.00000E+00
 -1       247 5.68740E+01 2.18750E+00 0.00000E+00
 -1       248 5.98740E+01 2.18750E+00 0.00000E+00
 -1       249 6.28740E+01 2.18750E+00 0.00000E+00
 -1       250 6.58740E+01 2.18750E+00 0.00000E+00
 -1       251 6.88740E+01 2.18750E+00 0.00000E+00
 -1       252 7.18740E+01 2.18750E+00 0.00000E+00
 -1       253 7.48740E+01 2.18750E+00 0.00000E+00
 -1       254 7.78740E+01 2.18750E+00 0.00000E+00
 -1       255 8.08740E+01 2.18750E+00 0.00000E+00
 -1       256 8.38740E+01 2.18750E+00 0.00000E+00
 -1       257 8.68740E+01 2.18750E+00 0.00000E+00
 -1       258 8.98740E+01 2.18750E+00 0.00000E+00
 -1       259 9.28740E+01 2.18750E+00 0.00000E+00
 -1       260 9.58740E+01 2.18750E+00 0.00000E+00
 -1       261 9.88740E+01 2.18750E+00 0.00000E+00
 -1       262 1.01874E+02 2.18750E+00 0.00000E+00
 -1       263 1.04874E+02 2.18750E+00 0.00000E+00
 -1       264 1.07874E+02 2.18750E+00 0.00000E+00
 -1       265 1.10874E+02 2.18750E+00 0.00000E+00
 -1       266 1.13874E+02 2.18750E+00 0.00000E+00
 -1       267 1.16874E+02 2.18750E+00 0.00000E+00
 -1       268 1.19874E+02 2.18750E+00 0.00000E+00
 -1       269 1.22874E+02 2.18750E+00 0.00000E+00
 -1       270 1.25874E+02 2.18750E+00 0.00000E+00
 -1       271 1.28874E+02 2.18750E+00 0.00000E+00
 -1       272 1.31874E+02 2.18750E+00 0.00000E+00
 -1       273 1.34874E+02 2.18750E+00 0.00000E+00
 -1       274 1.37874E+02 2.18750E+00 0.00000E+00
 -1       275 1.40874E+02 2.18750E+00 0.00000E+00
 -1       276 1.43874E+02 2.18750E+00 0.00000E+00
 -1       277 1.46874E+02 2.18750E+00 0.00000E+00
 -1       278 1.47402E+02 4.42500E+00 0.00000E+00
 -1       279 1.47402E+02 7.37500E+00 0.00000E+00
 -1       280 1.47402E+02 1.03250E+01 0.00000E+00
 -1       281 1.47402E+02 1.32750E+01 0.00000E+00
 -1       282 1.47402E+02 1.61750E+01 0.00000E+00
 -1       283 1.47402E+02 1.91250E+01 0.00000E+00
 -1       284 1.47402E+02 2.20750E+01 0.00000E+00
 -1       285 1.47402E+02 2.50250E+01 0.00000E+00
 -1       286 1.47402E+02 2.79750E+01 0.00000E+00
 -1       287 1.47402E+02 3.09250E+01 0.00000E+00
 -1       288 1.47402E+02 3.38250E+01 0.00000E+00
 -1       289 1.47402E+02 3.67750E+01 0.00000E+00
 -1       290 1.47402E+02 3.97250E+01 0.00000E+00
 -1       291 1.47402E+02 4.26750E+01 0.00000E+00
 -1       292 1.47670E+02 4.50580E+01 0.00000E+00
 -1       293 1.28531E+02 3.69937E+01 0.00000E+00
 -1       294 1.27947E+02 3.51897E+01 0.00000E+00
 -1       295 1.27115E+02 3.36283E+01 0.00000E+00
 -1       296 1.26073E+02 3.22762E+01 0.00000E+00
 -1       297 1.24679E+02 3.12059E+01 0.00000E+00
 -1       298 1.23167E+02 3.01271E+01 0.00000E+00
 -1       299 1.21393E+02 2.98909E+01 0.00000E+00
 -1       300 1.19652E+02 2.96363E+01 0.00000E+00
 -1       301 1.17834E+02 2.98448E+01 0.00000E+00
 -1       302 1.16240E+02 3.06547E+01 0.00000E+00
 -1       303 1.14881E+02 3.16526E+01 0.00000E+00
 -1       304 1.13567E+02 3.27596E+01 0.00000E+00
 -1       305 1.12693E+02 3.42761E+01 0.00000E+00
 -1       306 1.12015E+02 3.58436E+01 0.00000E+00
 -1       307 1.11918E+02 3.75210E+01 0.00000E+00
 -1       308 1.11997E+02 3.91653E+01 0.00000E+00
 -1       309 1.12293E+02 4.09222E+01 0.00000E+00
 -1       310 1.13257E+02 4.24550E+01 0.00000E+00
 -1       311 1.14329E+02 4.39829E+01 0.00000E+00
 -1       312 1.15894E+02 4.49807E+01 0.00000E+00
 -1       313 1.17446E+02 4.58699E+01 0.00000E+00
 -1       314 1.19218E+02 4.61739E+01 0.00000E+00
 -1       315 1.20880E+02 4.61022E+01 0.00000E+00
 -1       316 1.22536E+02 4.59362E+01 0.00000E+00
 -1       317 1.24054E+02 4.52074E+01 0.00000E+00
 -1       318 1.25332E+02 4.42373E+01 0.00000E+00
 -1       319 1.26509E+02 4.31562E+01 0.00000E+00
 -1       320 1.27409E+02 4.17827E+01 0.00000E+00
 -1       321 1.27934E+02 4.02642E+01 0.00000E+00
 -1       322 1.28228E+02 3.87379E+01 0.00000E+00
 -1       323 1.17130E+02 4.77596E+01 0.00000E+00
 -1       324 1.22775E+02 4.79497E+01 0.00000E+00
 -1       325 5.19600E+00 4.11500E+01 0.00000E+00
 -1       326 5.19600E+00 4.41000E+01 0.00000E+00
 -1       327 5.19600E+00 3.52750E+01 0.00000E+00
 -1       328 5.19600E+00 3.23250E+01 0.00000E+00
 -1       329 5.19600E+00 2.93750E+01 0.00000E+00
 -1       330 5.19600E+00 2.64250E+01 0.00000E+00
 -1       331 5.19600E+00 2.34750E+01 0.00000E+00
 -1       332 5.19600E+00 2.05250E+01 0.00000E+00
 -1       333 5.19600E+00 1.76250E+01 0.00000E+00
 -1       334 5.19600E+00 1.46750E+01 0.00000E+00
 -1       335 5.19600E+00 1.17250E+01 0.00000E+00
 -1       336 5.19600E+00 8.77500E+00 0.00000E+00
 -1       337 5.19600E+00 5.82500E+00 0.00000E+00
 -1       338 5.53500E+00 4.00625E+00 0.00000E+00
 -1       339 8.53500E+00 4.00625E+00 0.00000E+00
 -1       340 9.00000E+00 4.48040E+01 0.00000E+00
 -1       341 1.20000E+01 4.48040E+01 0.00000E+00
 -1       342 1.50000E+01 4.48040E+01 0.00000E+00
 -1       343 1.80000E+01 4.48040E+01 0.00000E+00
 -1       344 2.10000E+01 4.48040E+01 0.00000E+00
 -1       345 2.40000E+01 4.48040E+01 0.00000E+00
 -1       346 2.70000E+01 4.48040E+01 0.00000E+00
 -1       347 3.00000E+01 4.48040E+01 0.00000E+00
 -1       348 3.30000E+01 4.48040E+01 0.00000E+00
 -1       349 3.60000E+01 4.48040E+01 0.00000E+00
 -1       350 3.90000E+01 4.48040E+01 0.00000E+00
 -1       351 4.20000E+01 4.48040E+01 0.00000E+00
 -1       352 4.50000E+01 4.48040E+01 0.00000E+00
 -1       353 4.80000E+01 4.48040E+01 0.00000E+00
 -1       354 5.10000E+01 4.48040E+01 0.00000E+00
 -1       355 5.40000E+01 4.48040E+01 0.00000E+00
 -1       356 5.70000E+01 4.48040E+01 0.00000E+00
 -1       357 6.00000E+01 4.48040E+01 0.00000E+00
 -1       358 6.30000E+01 4.48040E+01 0.00000E+00
 -1       359 6.60000E+01 4.48040E+01 0.00000E+00
 -1       360 6.90000E+01 4.48040E+01 0.00000E+00
 -1       361 7.20000E+01 4.48040E+01 0.00000E+00
 -1       362 7.50000E+01 4.48040E+01 0.00000E+00
 -1       363 7.80000E+01 4.48040E+01 0.00000E+00
 -1       364 8.10000E+01 4.48040E+01 0.00000E+00
 -1       365 8.40000E+01 4.48040E+01 0.00000E+00
 -1       366 8.70000E+01 4.48040E+01 0.00000E+00
 -1       367 9.00000E+01 4.48040E+01 0.00000E+00
 -1       368 9.30000E+01 4.48040E+01 0.00000E+00
 -1       369 9.60000E+01 4.48040E+01 0.00000E+00
 -1       370 9.90000E+01 4.48040E+01 0.00000E+00
 -1       371 1.02000E+02 4.48040E+01 0.00000E+00
 -1       372 1.05000E+02 4.48040E+01 0.00000E+00
 -1       373 1.07850E+02 4.48040E+01 0.00000E+00
 -1       374 1.10550E+02 4.48040E+01 0.00000E+00
 -1       375 1.29472E+02 3.56926E+01 0.00000E+00
 -1       376 1.27820E+02 3.20076E+01 0.00000E+00
 -1       377 1.29375E+02 4.57319E+01 0.00000E+00
 -1       378 1.32375E+02 4.53968E+01 0.00000E+00
 -1       379 1.35375E+02 4.53968E+01 0.00000E+00
 -1       380 1.38375E+02 4.53968E+01 0.00000E+00
 -1       381 1.41375E+02 4.53968E+01 0.00000E+00
 -1       382 1.44375E+02 4.53968E+01 0.00000E+00
 -1       383 1.33740E+01 4.78550E+00 0.00000E+00
 -1       384 1.63740E+01 4.78550E+00 0.00000E+00
 -1       385 1.93740E+01 4.78550E+00 0.00000E+00
 -1       386 2.23740E+01 4.78550E+00 0.00000E+00
 -1       387 2.53740E+01 4.78550E+00 0.00000E+00
 -1       388 2.83740E+01 4.78550E+00 0.00000E+00
 -1       389 3.13740E+01 4.78550E+00 0.00000E+00
 -1       390 3.43740E+01 4.78550E+00 0.00000E+00
 -1       391 3.73740E+01 4.78550E+00 0.00000E+00
 -1       392 4.03740E+01 4.78550E+00 0.00000E+00
 -1       393 4.33740E+01 4.78550E+00 0.00000E+00
 -1       394 4.63740E+01 4.78550E+00 0.00000E+00
 -1       395 4.93740E+01 4.78550E+00 0.00000E+00
 -1       396 5.23740E+01 4.78550E+00 0.00000E+00
 -1       397 5.53740E+01 4.78550E+00 0.00000E+00
 -1       398 5.83740E+01 4.78550E+00 0.00000E+00
 -1       399 6.13740E+01 4.78550E+00 0.00000E+00
 -1       400 6.43740E+01 4.78550E+00 0.00000E+00
 -1       401 6.73740E+01 4.78550E+00 0.00000E+00
 -1       402 7.03740E+01 4.78550E+00 0.00000E+00
 -1       403 7.33740E+01 4.78550E+00 0.00000E+00
 -1       404 7.63740E+01 4.78550E+00 0.00000E+00
 -1       405 7.93740E+01 4.78550E+00 0.00000E+00
 -1       406 8.23740E+01 4.78550E+00 0.00000E+00
 -1       407 8.53740E+01 4.78550E+00 0.00000E+00
 -1       408 8.83740E+01 4.78550E+00 0.00000E+00
 -1       409 9.13740E+01 4.78550E+00 0.00000E+00
 -1       410 9.43740E+01 4.78550E+00 0.00000E+00
 -1       411 9.73740E+01 4.78550E+00 0.00000E+00
 -1       412 1.00374E+02 4.78550E+00 0.00000E+00
 -1       413 1.03374E+02 4.78550E+00 0.00000E+00
 -1       414 1.06374E+02 4.78550E+00 0.00000E+00
 -1       415 1.09374E+02 4.78550E+00 0.00000E+00
 -1       416 1.12374E+02 4.78550E+00 0.00000E+00
 -1       417 1.15374E+02 4.78550E+00 0.00000E+00
 -1       418 1.18374E+02 4.78550E+00 0.00000E+00
 -1       419 1.21374E+02 4.78550E+00 0.00000E+00
 -1       420 1.24374E+02 4.78550E+00 0.00000E+00
 -1       421 1.27374E+02 4.78550E+00 0.00000E+00
 -1       422 1.30374E+02 4.78550E+00 0.00000E+00
 -1       423 1.33374E+02 4.78550E+00 0.00000E+00
 -1       424 1.36374E+02 4.78550E+00 0.00000E+00
 -1       425 1.39374E+02 4.78550E+00 0.00000E+00
 -1       426 1.42374E+02 4.78550E+00 0.00000E+00
 -1       427 1.44888E+02 4.60525E+00 0.00000E+00
 -1       428 1.44804E+02 1.18000E+01 0.00000E+00
 -1       429 1.44804E+02 8.85000E+00 0.00000E+00
 -1       430 1.44804E+02 1.47000E+01 0.00000E+00
 -1       431 1.44804E+02 1.76500E+01 0.00000E+00
 -1       432 1.44804E+02 2.06000E+01 0.00000E+00
 -1       433 1.44804E+02 2.35500E+01 0.00000E+00
 -1       434 1.44804E+02 2.65000E+01 0.00000E+00
 -1       435 1.44804E+02 2.94500E+01 0.00000E+00
 -1       436 1.44804E+02 3.23500E+01 0.00000E+00
 -1       437 1.44804E+02 3.53000E+01 0.00000E+00
 -1       438 1.44804E+02 3.82500E+01 0.00000E+00
 -1       439 1.44804E+02 4.12000E+01 0.00000E+00
 -1       440 1.09545E+01 4.39587E+00 0.00000E+00
 -1       441 1.28749E+02 3.37603E+01 0.00000E+00
 -1       442 1.26216E+02 3.06463E+01 0.00000E+00
 -1       443 5.19600E+00 3.82125E+01 0.00000E+00
 -1       444 1.26600E+02 4.57319E+01 0.00000E+00
 -1       445 1.24704E+02 2.95675E+01 0.00000E+00
 -1       446 1.22484E+02 2.84750E+01 0.00000E+00
 -1       447 1.20744E+02 2.82204E+01 0.00000E+00
 -1       448 1.18557E+02 2.81199E+01 0.00000E+00
 -1       449 1.16336E+02 2.88701E+01 0.00000E+00
 -1       450 1.14744E+02 3.00413E+01 0.00000E+00
 -1       451 1.13430E+02 3.11483E+01 0.00000E+00
 -1       452 1.11789E+02 3.27450E+01 0.00000E+00
 -1       453 1.11111E+02 3.43124E+01 0.00000E+00
 -1       454 1.10422E+02 3.65934E+01 0.00000E+00
 -1       455 1.10501E+02 3.82377E+01 0.00000E+00
 -1       456 1.10619E+02 4.03002E+01 0.00000E+00
 -1       457 1.11677E+02 4.23787E+01 0.00000E+00
 -1       458 1.12732E+02 4.39634E+01 0.00000E+00
 -1       459 1.14280E+02 4.57868E+01 0.00000E+00
 -1       460 1.28043E+02 4.31795E+01 0.00000E+00
 -1       461 1.28976E+02 4.14748E+01 0.00000E+00
 -1       462 1.29519E+02 3.97779E+01 0.00000E+00
 -1       463 1.29821E+02 3.80338E+01 0.00000E+00
 -1       464 1.30762E+02 3.67326E+01 0.00000E+00
 -1       465 1.15762E+02 4.65595E+01 0.00000E+00
 -1       466 1.44589E+02 4.32984E+01 0.00000E+00
 -1       467 1.24021E+02 2.79154E+01 0.00000E+00
 -1       468 7.79400E+00 3.08500E+01 0.00000E+00
 -1       469 7.79400E+00 3.38000E+01 0.00000E+00
 -1       470 7.79400E+00 2.49500E+01 0.00000E+00
 -1       471 7.79400E+00 2.20000E+01 0.00000E+00
 -1       472 7.79400E+00 1.91000E+01 0.00000E+00
 -1       473 7.79400E+00 1.61500E+01 0.00000E+00
 -1       474 7.79400E+00 1.32000E+01 0.00000E+00
 -1       475 7.79400E+00 1.02500E+01 0.00000E+00
 -1       476 7.79400E+00 7.30000E+00 0.00000E+00
 -1       477 8.16450E+00 5.65312E+00 0.00000E+00
 -1       478 1.05000E+01 4.22060E+01 0.00000E+00
 -1       479 1.35000E+01 4.22060E+01 0.00000E+00
 -1       480 1.65000E+01 4.22060E+01 0.00000E+00
 -1       481 1.95000E+01 4.22060E+01 0.00000E+00
 -1       482 2.25000E+01 4.22060E+01 0.00000E+00
 -1       483 2.55000E+01 4.22060E+01 0.00000E+00
 -1       484 2.85000E+01 4.22060E+01 0.00000E+00
 -1       485 3.15000E+01 4.22060E+01 0.00000E+00
 -1       486 3.45000E+01 4.22060E+01 0.00000E+00
 -1       487 3.75000E+01 4.22060E+01 0.00000E+00
 -1       488 4.05000E+01 4.22060E+01 0.00000E+00
 -1       489 4.35000E+01 4.22060E+01 0.00000E+00
 -1       490 4.65000E+01 4.22060E+01 0.00000E+00
 -1       491 4.95000E+01 4.22060E+01 0.00000E+00
 -1       492 5.25000E+01 4.22060E+01 0.00000E+00
 -1       493 5.55000E+01 4.22060E+01 0.00000E+00
 -1       494 5.85000E+01 4.22060E+01 0.00000E+00
 -1       495 6.15000E+01 4.22060E+01 0.00000E+00
 -1       496 6.45000E+01 4.22060E+01 0.00000E+00
 -1       497 6.75000E+01 4.22060E+01 0.00000E+00
 -1       498 7.05000E+01 4.22060E+01 0.00000E+00
 -1       499 7.35000E+01 4.22060E+01 0.00000E+00
 -1       500 7.65000E+01 4.22060E+01 0.00000E+00
 -1       501 7.95000E+01 4.22060E+01 0.00000E+00
 -1       502 8.25000E+01 4.22060E+01 0.00000E+00
 -1       503 8.55000E+01 4.22060E+01 0.00000E+00
 -1       504 8.85000E+01 4.22060E+01 0.00000E+00
 -1       505 9.15000E+01 4.22060E+01 0.00000E+00
 -1       506 9.45000E+01 4.22060E+01 0.00000E+00
 -1       507 9.75000E+01 4.22060E+01 0.00000E+00
 -1       508 1.00500E+02 4.22060E+01 0.00000E+00
 -1       509 1.03500E+02 4.22060E+01 0.00000E+00
 -1       510 1.06350E+02 4.22060E+01 0.00000E+00
 -1       511 1.12061E+02 4.50697E+01 0.00000E+00
 -1       512 7.84800E+00 4.16780E+01 0.00000E+00
 -1       513 1.36875E+02 4.27988E+01 0.00000E+00
 -1       514 1.39875E+02 4.27988E+01 0.00000E+00
 -1       515 1.42232E+02 4.30486E+01 0.00000E+00
 -1       516 2.08740E+01 7.38350E+00 0.00000E+00
 -1       517 1.78740E+01 7.38350E+00 0.00000E+00
 -1       518 1.48740E+01 7.38350E+00 0.00000E+00
 -1       519 2.38740E+01 7.38350E+00 0.00000E+00
 -1       520 2.68740E+01 7.38350E+00 0.00000E+00
 -1       521 2.98740E+01 7.38350E+00 0.00000E+00
 -1       522 3.28740E+01 7.38350E+00 0.00000E+00
 -1       523 3.58740E+01 7.38350E+00 0.00000E+00
 -1       524 3.88740E+01 7.38350E+00 0.00000E+00
 -1       525 4.18740E+01 7.38350E+00 0.00000E+00
 -1       526 4.48740E+01 7.38350E+00 0.00000E+00
 -1       527 4.78740E+01 7.38350E+00 0.00000E+00
 -1       528 5.08740E+01 7.38350E+00 0.00000E+00
 -1       529 5.38740E+01 7.38350E+00 0.00000E+00
 -1       530 5.68740E+01 7.38350E+00 0.00000E+00
 -1       531 5.98740E+01 7.38350E+00 0.00000E+00
 -1       532 6.28740E+01 7.38350E+00 0.00000E+00
 -1       533 6.58740E+01 7.38350E+00 0.00000E+00
 -1       534 6.88740E+01 7.38350E+00 0.00000E+00
 -1       535 7.18740E+01 7.38350E+00 0.00000E+00
 -1       536 7.48740E+01 7.38350E+00 0.00000E+00
 -1       537 7.78740E+01 7.38350E+00 0.00000E+00
 -1       538 8.08740E+01 7.38350E+00 0.00000E+00
 -1       539 8.38740E+01 7.38350E+00 0.00000E+00
 -1       540 8.68740E+01 7.38350E+00 0.00000E+00
 -1       541 8.98740E+01 7.38350E+00 0.00000E+00
 -1       542 9.28740E+01 7.38350E+00 0.00000E+00
 -1       543 9.58740E+01 7.38350E+00 0.00000E+00
 -1       544 9.88740E+01 7.38350E+00 0.00000E+00
 -1       545 1.01874E+02 7.38350E+00 0.00000E+00
 -1       546 1.04874E+02 7.38350E+00 0.00000E+00
 -1       547 1.07874E+02 7.38350E+00 0.00000E+00
 -1       548 1.10874E+02 7.38350E+00 0.00000E+00
 -1       549 1.13874E+02 7.38350E+00 0.00000E+00
 -1       550 1.16874E+02 7.38350E+00 0.00000E+00
 -1       551 1.19874E+02 7.38350E+00 0.00000E+00
 -1       552 1.22874E+02 7.38350E+00 0.00000E+00
 -1       553 1.25874E+02 7.38350E+00 0.00000E+00
 -1       554 1.28874E+02 7.38350E+00 0.00000E+00
 -1       555 1.31874E+02 7.38350E+00 0.00000E+00
 -1       556 1.34874E+02 7.38350E+00 0.00000E+00
 -1       557 1.37874E+02 7.38350E+00 0.00000E+00
 -1       558 1.40874E+02 7.38350E+00 0.00000E+00
 -1       559 1.42206E+02 1.61750E+01 0.00000E+00
 -1       560 1.42206E+02 1.32750E+01 0.00000E+00
 -1       561 1.42206E+02 1.03250E+01 0.00000E+00
 -1       562 1.42206E+02 1.91250E+01 0.00000E+00
 -1       563 1.42206E+02 2.20750E+01 0.00000E+00
 -1       564 1.42206E+02 2.50250E+01 0.00000E+00
 -1       565 1.42206E+02 2.79750E+01 0.00000E+00
 -1       566 1.42206E+02 3.08750E+01 0.00000E+00
 -1       567 1.42206E+02 3.38250E+01 0.00000E+00
 -1       568 1.42206E+02 3.67750E+01 0.00000E+00
 -1       569 1.42206E+02 3.97250E+01 0.00000E+00
 -1       570 1.29652E+02 3.21591E+01 0.00000E+00
 -1       571 1.30560E+02 3.41841E+01 0.00000E+00
 -1       572 1.14524E+02 2.80742E+01 0.00000E+00
 -1       573 1.33875E+02 4.27988E+01 0.00000E+00
 -1       574 1.28074E+02 3.00832E+01 0.00000E+00
 -1       575 7.79400E+00 2.79000E+01 0.00000E+00
 -1       576 1.30721E+02 4.10980E+01 0.00000E+00
 -1       577 1.26456E+02 2.87107E+01 0.00000E+00
 -1       578 1.16978E+02 2.71082E+01 0.00000E+00
 -1       579 1.21850E+02 2.67336E+01 0.00000E+00
 -1       580 1.09620E+02 4.21179E+01 0.00000E+00
 -1       581 1.19664E+02 2.66330E+01 0.00000E+00
 -1       582 1.13210E+02 2.91812E+01 0.00000E+00
 -1       583 1.11472E+02 3.07775E+01 0.00000E+00
 -1       584 1.09953E+02 3.28811E+01 0.00000E+00
 -1       585 1.09285E+02 3.50050E+01 0.00000E+00
 -1       586 1.09083E+02 3.74817E+01 0.00000E+00
 -1       587 1.29720E+02 4.29892E+01 0.00000E+00
 -1       588 1.09201E+02 3.95442E+01 0.00000E+00
 -1       589 1.31195E+02 3.91705E+01 0.00000E+00
 -1       590 7.79400E+00 3.67375E+01 0.00000E+00
 -1       591 1.05840E+01 6.04275E+00 0.00000E+00
 -1       592 1.31850E+02 3.52242E+01 0.00000E+00
 -1       593 1.32136E+02 3.78693E+01 0.00000E+00
 -1       594 1.27290E+01 6.71313E+00 0.00000E+00
 -1       595 7.82100E+00 3.92077E+01 0.00000E+00
 -1       596 1.18085E+02 2.56214E+01 0.00000E+00
 -1       597 1.03920E+01 2.05500E+01 0.00000E+00
 -1       598 1.03920E+01 2.35000E+01 0.00000E+00
 -1       599 1.03920E+01 1.46750E+01 0.00000E+00
 -1       600 1.03920E+01 1.17250E+01 0.00000E+00
 -1       601 1.02135E+01 7.68962E+00 0.00000E+00
 -1       602 1.38375E+02 4.04134E+01 0.00000E+00
 -1       603 1.20000E+01 3.96080E+01 0.00000E+00
 -1       604 1.50000E+01 3.96080E+01 0.00000E+00
 -1       605 1.80000E+01 3.96080E+01 0.00000E+00
 -1       606 2.10000E+01 3.96080E+01 0.00000E+00
 -1       607 2.40000E+01 3.96080E+01 0.00000E+00
 -1       608 2.70000E+01 3.96080E+01 0.00000E+00
 -1       609 3.00000E+01 3.96080E+01 0.00000E+00
 -1       610 3.30000E+01 3.96080E+01 0.00000E+00
 -1       611 3.60000E+01 3.96080E+01 0.00000E+00
 -1       612 3.90000E+01 3.96080E+01 0.00000E+00
 -1       613 4.20000E+01 3.96080E+01 0.00000E+00
 -1       614 4.50000E+01 3.96080E+01 0.00000E+00
 -1       615 4.80000E+01 3.96080E+01 0.00000E+00
 -1       616 5.10000E+01 3.96080E+01 0.00000E+00
 -1       617 5.40000E+01 3.96080E+01 0.00000E+00
 -1       618 5.70000E+01 3.96080E+01 0.00000E+00
 -1       619 6.00000E+01 3.96080E+01 0.00000E+00
 -1       620 6.30000E+01 3.96080E+01 0.00000E+00
 -1       621 6.60000E+01 3.96080E+01 0.00000E+00
 -1       622 6.90000E+01 3.96080E+01 0.00000E+00
 -1       623 7.20000E+01 3.96080E+01 0.00000E+00
 -1       624 7.50000E+01 3.96080E+01 0.00000E+00
 -1       625 7.80000E+01 3.96080E+01 0.00000E+00
 -1       626 8.10000E+01 3.96080E+01 0.00000E+00
 -1       627 8.40000E+01 3.96080E+01 0.00000E+00
 -1       628 8.70000E+01 3.96080E+01 0.00000E+00
 -1       629 9.00000E+01 3.96080E+01 0.00000E+00
 -1       630 9.30000E+01 3.96080E+01 0.00000E+00
 -1       631 9.60000E+01 3.96080E+01 0.00000E+00
 -1       632 9.90000E+01 3.96080E+01 0.00000E+00
 -1       633 1.02000E+02 3.96080E+01 0.00000E+00
 -1       634 1.04850E+02 3.96080E+01 0.00000E+00
 -1       635 9.91050E+00 3.94079E+01 0.00000E+00
 -1       636 1.39608E+02 1.47250E+01 0.00000E+00
 -1       637 1.23756E+02 2.58181E+01 0.00000E+00
 -1       638 1.93740E+01 9.98150E+00 0.00000E+00
 -1       639 2.23740E+01 9.98150E+00 0.00000E+00
 -1       640 1.63740E+01 9.98150E+00 0.00000E+00
 -1       641 2.83740E+01 9.98150E+00 0.00000E+00
 -1       642 3.13740E+01 9.98150E+00 0.00000E+00
 -1       643 3.43740E+01 9.98150E+00 0.00000E+00
 -1       644 3.73740E+01 9.98150E+00 0.00000E+00
 -1       645 4.03740E+01 9.98150E+00 0.00000E+00
 -1       646 4.33740E+01 9.98150E+00 0.00000E+00
 -1       647 4.63740E+01 9.98150E+00 0.00000E+00
 -1       648 4.93740E+01 9.98150E+00 0.00000E+00
 -1       649 5.23740E+01 9.98150E+00 0.00000E+00
 -1       650 5.53740E+01 9.98150E+00 0.00000E+00
 -1       651 5.83740E+01 9.98150E+00 0.00000E+00
 -1       652 6.13740E+01 9.98150E+00 0.00000E+00
 -1       653 6.43740E+01 9.98150E+00 0.00000E+00
 -1       654 6.73740E+01 9.98150E+00 0.00000E+00
 -1       655 7.03740E+01 9.98150E+00 0.00000E+00
 -1       656 7.33740E+01 9.98150E+00 0.00000E+00
 -1       657 7.63740E+01 9.98150E+00 0.00000E+00
 -1       658 7.93740E+01 9.98150E+00 0.00000E+00
 -1       659 8.23740E+01 9.98150E+00 0.00000E+00
 -1       660 8.53740E+01 9.98150E+00 0.00000E+00
 -1       661 8.83740E+01 9.98150E+00 0.00000E+00
 -1       662 9.13740E+01 9.98150E+00 0.00000E+00
 -1       663 9.43740E+01 9.98150E+00 0.00000E+00
 -1       664 9.73740E+01 9.98150E+00 0.00000E+00
 -1       665 1.00374E+02 9.98150E+00 0.00000E+00
 -1       666 1.03374E+02 9.98150E+00 0.00000E+00
 -1       667 1.06374E+02 9.98150E+00 0.00000E+00
 -1       668 1.09374E+02 9.98150E+00 0.00000E+00
 -1       669 1.12374E+02 9.98150E+00 0.00000E+00
 -1       670 1.15374E+02 9.98150E+00 0.00000E+00
 -1       671 1.18374E+02 9.98150E+00 0.00000E+00
 -1       672 1.21374E+02 9.98150E+00 0.00000E+00
 -1       673 1.24374E+02 9.98150E+00 0.00000E+00
 -1       674 1.27374E+02 9.98150E+00 0.00000E+00
 -1       675 1.30374E+02 9.98150E+00 0.00000E+00
 -1       676 1.33374E+02 9.98150E+00 0.00000E+00
 -1       677 1.36374E+02 9.98150E+00 0.00000E+00
 -1       678 1.39290E+02 1.01532E+01 0.00000E+00
 -1       679 1.39608E+02 2.06000E+01 0.00000E+00
 -1       680 1.31977E+02 3.23327E+01 0.00000E+00
 -1       681 1.39608E+02 1.76625E+01 0.00000E+00
 -1       682 1.39449E+02 1.24391E+01 0.00000E+00
 -1       683 1.39608E+02 2.35500E+01 0.00000E+00
 -1       684 2.53740E+01 9.98150E+00 0.00000E+00
 -1       685 1.39608E+02 2.65000E+01 0.00000E+00
 -1       686 1.39608E+02 2.94000E+01 0.00000E+00
 -1       687 1.39608E+02 3.23500E+01 0.00000E+00
 -1       688 1.39608E+02 3.53000E+01 0.00000E+00
 -1       689 1.31166E+02 4.45643E+01 0.00000E+00
 -1       690 1.12654E+02 2.71879E+01 0.00000E+00
 -1       691 1.28700E+02 2.77059E+01 0.00000E+00
 -1       692 1.35375E+02 4.04134E+01 0.00000E+00
 -1       693 1.08143E+02 3.34789E+01 0.00000E+00
 -1       694 1.15062E+02 2.58393E+01 0.00000E+00
 -1       695 1.33285E+02 3.97919E+01 0.00000E+00
 -1       696 1.07475E+02 3.61037E+01 0.00000E+00
 -1       697 1.30628E+02 2.97790E+01 0.00000E+00
 -1       698 1.03920E+01 1.76125E+01 0.00000E+00
 -1       699 1.20851E+02 2.46352E+01 0.00000E+00
 -1       700 1.26190E+02 2.66134E+01 0.00000E+00
 -1       701 1.10916E+02 2.87843E+01 0.00000E+00
 -1       702 1.03920E+01 3.23250E+01 0.00000E+00
 -1       703 1.07262E+02 3.86206E+01 0.00000E+00
 -1       704 1.09186E+02 3.07272E+01 0.00000E+00
 -1       705 1.03920E+01 2.64500E+01 0.00000E+00
 -1       706 1.33267E+02 3.33727E+01 0.00000E+00
 -1       707 1.33224E+02 3.63608E+01 0.00000E+00
 -1       708 1.33741E+01 9.98153E+00 0.00000E+00
 -1       709 1.03920E+01 3.52625E+01 0.00000E+00
 -1       710 1.39653E+02 3.82500E+01 0.00000E+00
 -1       711 1.16168E+02 2.43524E+01 0.00000E+00
 -1       712 1.03920E+01 2.93875E+01 0.00000E+00
 -1       713 1.29900E+01 1.32000E+01 0.00000E+00
 -1       714 1.06904E+02 3.14356E+01 0.00000E+00
 -1       715 1.37010E+02 3.08750E+01 0.00000E+00
 -1       716 1.65000E+01 3.70100E+01 0.00000E+00
 -1       717 1.95000E+01 3.70100E+01 0.00000E+00
 -1       718 2.25000E+01 3.70100E+01 0.00000E+00
 -1       719 2.55000E+01 3.70100E+01 0.00000E+00
 -1       720 2.85000E+01 3.70100E+01 0.00000E+00
 -1       721 3.15000E+01 3.70100E+01 0.00000E+00
 -1       722 3.45000E+01 3.70100E+01 0.00000E+00
 -1       723 3.75000E+01 3.70100E+01 0.00000E+00
 -1       724 4.05000E+01 3.70100E+01 0.00000E+00
 -1       725 4.35000E+01 3.70100E+01 0.00000E+00
 -1       726 4.65000E+01 3.70100E+01 0.00000E+00
 -1       727 4.95000E+01 3.70100E+01 0.00000E+00
 -1       728 5.25000E+01 3.70100E+01 0.00000E+00
 -1       729 5.55000E+01 3.70100E+01 0.00000E+00
 -1       730 5.85000E+01 3.70100E+01 0.00000E+00
 -1       731 6.15000E+01 3.70100E+01 0.00000E+00
 -1       732 6.45000E+01 3.70100E+01 0.00000E+00
 -1       733 6.75000E+01 3.70100E+01 0.00000E+00
 -1       734 7.05000E+01 3.70100E+01 0.00000E+00
 -1       735 7.35000E+01 3.70100E+01 0.00000E+00
 -1       736 7.65000E+01 3.70100E+01 0.00000E+00
 -1       737 7.95000E+01 3.70100E+01 0.00000E+00
 -1       738 8.25000E+01 3.70100E+01 0.00000E+00
 -1       739 8.55000E+01 3.70100E+01 0.00000E+00
 -1       740 8.85000E+01 3.70100E+01 0.00000E+00
 -1       741 9.15000E+01 3.70100E+01 0.00000E+00
 -1       742 9.45000E+01 3.70100E+01 0.00000E+00
 -1       743 9.75000E+01 3.70100E+01 0.00000E+00
 -1       744 1.00500E+02 3.70100E+01 0.00000E+00
 -1       745 1.03350E+02 3.70100E+01 0.00000E+00
 -1       746 3.58740E+01 1.25795E+01 0.00000E+00
 -1       747 1.48741E+01 1.25795E+01 0.00000E+00
 -1       748 1.10171E+02 2.62294E+01 0.00000E+00
 -1       749 1.33412E+02 2.99421E+01 0.00000E+00
 -1       750 2.08740E+01 1.25795E+01 0.00000E+00
 -1       751 1.78740E+01 1.25795E+01 0.00000E+00
 -1       752 3.28740E+01 1.25795E+01 0.00000E+00
 -1       753 2.98740E+01 1.25795E+01 0.00000E+00
 -1       754 3.88740E+01 1.25795E+01 0.00000E+00
 -1       755 4.18740E+01 1.25795E+01 0.00000E+00
 -1       756 4.48740E+01 1.25795E+01 0.00000E+00
 -1       757 4.78740E+01 1.25795E+01 0.00000E+00
 -1       758 5.08740E+01 1.25795E+01 0.00000E+00
 -1       759 5.38740E+01 1.25795E+01 0.00000E+00
 -1       760 5.68740E+01 1.25795E+01 0.00000E+00
 -1       761 5.98740E+01 1.25795E+01 0.00000E+00
 -1       762 6.28740E+01 1.25795E+01 0.00000E+00
 -1       763 6.58740E+01 1.25795E+01 0.00000E+00
 -1       764 6.88740E+01 1.25795E+01 0.00000E+00
 -1       765 7.18740E+01 1.25795E+01 0.00000E+00
 -1       766 7.48740E+01 1.25795E+01 0.00000E+00
 -1       767 7.78740E+01 1.25795E+01 0.00000E+00
 -1       768 8.08740E+01 1.25795E+01 0.00000E+00
 -1       769 8.38740E+01 1.25795E+01 0.00000E+00
 -1       770 8.68740E+01 1.25795E+01 0.00000E+00
 -1       771 8.98740E+01 1.25795E+01 0.00000E+00
 -1       772 9.28740E+01 1.25795E+01 0.00000E+00
 -1       773 9.58740E+01 1.25795E+01 0.00000E+00
 -1       774 9.88740E+01 1.25795E+01 0.00000E+00
 -1       775 1.01874E+02 1.25795E+01 0.00000E+00
 -1       776 1.04874E+02 1.25795E+01 0.00000E+00
 -1       777 1.07874E+02 1.25795E+01 0.00000E+00
 -1       778 1.10874E+02 1.25795E+01 0.00000E+00
 -1       779 1.13874E+02 1.25795E+01 0.00000E+00
 -1       780 1.16874E+02 1.25795E+01 0.00000E+00
 -1       781 1.19874E+02 1.25795E+01 0.00000E+00
 -1       782 1.22874E+02 1.25795E+01 0.00000E+00
 -1       783 1.25874E+02 1.25795E+01 0.00000E+00
 -1       784 1.28874E+02 1.25795E+01 0.00000E+00
 -1       785 1.31874E+02 1.25795E+01 0.00000E+00
 -1       786 1.34874E+02 1.25795E+01 0.00000E+00
 -1       787 1.37161E+02 1.25093E+01 0.00000E+00
 -1       788 1.37010E+02 2.79750E+01 0.00000E+00
 -1       789 1.12692E+02 2.44324E+01 0.00000E+00
 -1       790 1.37078E+02 3.68140E+01 0.00000E+00
 -1       791 1.37044E+02 3.38445E+01 0.00000E+00
 -1       792 1.18723E+02 2.30392E+01 0.00000E+00
 -1       793 1.08441E+02 2.81723E+01 0.00000E+00
 -1       794 1.23077E+02 2.33278E+01 0.00000E+00
 -1       795 1.01512E+01 3.73352E+01 0.00000E+00
 -1       796 1.37010E+02 2.50250E+01 0.00000E+00
 -1       797 1.05822E+02 3.42854E+01 0.00000E+00
 -1       798 1.31566E+02 2.69729E+01 0.00000E+00
 -1       799 1.34962E+02 3.79768E+01 0.00000E+00
 -1       800 1.05336E+02 3.69467E+01 0.00000E+00
 -1       801 1.25610E+02 2.42668E+01 0.00000E+00
 -1       802 1.29900E+01 2.20250E+01 0.00000E+00
 -1       803 1.37010E+02 2.20750E+01 0.00000E+00
 -1       804 1.28331E+02 2.51262E+01 0.00000E+00
 -1       805 1.35000E+01 3.70100E+01 0.00000E+00
 -1       806 1.07930E+02 4.01124E+01 0.00000E+00
 -1       807 1.13798E+02 2.29456E+01 0.00000E+00
 -1       808 1.37010E+02 1.91375E+01 0.00000E+00
 -1       809 2.68740E+01 1.25795E+01 0.00000E+00
 -1       810 1.29900E+01 2.49750E+01 0.00000E+00
 -1       811 2.38740E+01 1.25795E+01 0.00000E+00
 -1       812 1.20949E+02 2.17318E+01 0.00000E+00
 -1       813 1.37010E+02 1.62000E+01 0.00000E+00
 -1       814 1.29900E+01 3.37938E+01 0.00000E+00
 -1       815 1.06159E+02 2.88807E+01 0.00000E+00
 -1       816 1.29900E+01 1.61375E+01 0.00000E+00
 -1       817 1.29900E+01 1.90875E+01 0.00000E+00
 -1       818 1.29900E+01 3.08563E+01 0.00000E+00
 -1       819 1.48741E+01 1.55170E+01 0.00000E+00
 -1       820 2.10000E+01 3.44120E+01 0.00000E+00
 -1       821 2.40000E+01 3.44120E+01 0.00000E+00
 -1       822 2.70000E+01 3.44120E+01 0.00000E+00
 -1       823 3.00000E+01 3.44120E+01 0.00000E+00
 -1       824 3.30000E+01 3.44120E+01 0.00000E+00
 -1       825 3.60000E+01 3.44120E+01 0.00000E+00
 -1       826 3.90000E+01 3.44120E+01 0.00000E+00
 -1       827 4.20000E+01 3.44120E+01 0.00000E+00
 -1       828 4.50000E+01 3.44120E+01 0.00000E+00
 -1       829 4.80000E+01 3.44120E+01 0.00000E+00
 -1       830 5.10000E+01 3.44120E+01 0.00000E+00
 -1       831 5.40000E+01 3.44120E+01 0.00000E+00
 -1       832 5.70000E+01 3.44120E+01 0.00000E+00
 -1       833 6.00000E+01 3.44120E+01 0.00000E+00
 -1       834 6.30000E+01 3.44120E+01 0.00000E+00
 -1       835 6.60000E+01 3.44120E+01 0.00000E+00
 -1       836 6.90000E+01 3.44120E+01 0.00000E+00
 -1       837 7.20000E+01 3.44120E+01 0.00000E+00
 -1       838 7.50000E+01 3.44120E+01 0.00000E+00
 -1       839 7.80000E+01 3.44120E+01 0.00000E+00
 -1       840 8.10000E+01 3.44120E+01 0.00000E+00
 -1       841 8.40000E+01 3.44120E+01 0.00000E+00
 -1       842 8.70000E+01 3.44120E+01 0.00000E+00
 -1       843 9.00000E+01 3.44120E+01 0.00000E+00
 -1       844 9.30000E+01 3.44120E+01 0.00000E+00
 -1       845 9.60000E+01 3.44120E+01 0.00000E+00
 -1       846 9.90000E+01 3.44120E+01 0.00000E+00
 -1       847 1.01850E+02 3.44120E+01 0.00000E+00
 -1       848 4.03740E+01 1.51775E+01 0.00000E+00
 -1       849 1.34412E+02 2.65000E+01 0.00000E+00
 -1       850 1.09923E+02 2.32154E+01 0.00000E+00
 -1       851 3.73740E+01 1.51775E+01 0.00000E+00
 -1       852 3.13740E+01 1.51775E+01 0.00000E+00
 -1       853 4.33740E+01 1.51775E+01 0.00000E+00
 -1       854 4.63740E+01 1.51775E+01 0.00000E+00
 -1       855 4.93740E+01 1.51775E+01 0.00000E+00
 -1       856 5.23740E+01 1.51775E+01 0.00000E+00
 -1       857 5.53740E+01 1.51775E+01 0.00000E+00
 -1       858 5.83740E+01 1.51775E+01 0.00000E+00
 -1       859 6.13740E+01 1.51775E+01 0.00000E+00
 -1       860 6.43740E+01 1.51775E+01 0.00000E+00
 -1       861 6.73740E+01 1.51775E+01 0.00000E+00
 -1       862 7.03740E+01 1.51775E+01 0.00000E+00
 -1       863 7.33740E+01 1.51775E+01 0.00000E+00
 -1       864 7.63740E+01 1.51775E+01 0.00000E+00
 -1       865 7.93740E+01 1.51775E+01 0.00000E+00
 -1       866 8.23740E+01 1.51775E+01 0.00000E+00
 -1       867 8.53740E+01 1.51775E+01 0.00000E+00
 -1       868 8.83740E+01 1.51775E+01 0.00000E+00
 -1       869 9.13740E+01 1.51775E+01 0.00000E+00
 -1       870 9.43740E+01 1.51775E+01 0.00000E+00
 -1       871 9.73740E+01 1.51775E+01 0.00000E+00
 -1       872 1.00374E+02 1.51775E+01 0.00000E+00
 -1       873 1.03374E+02 1.51775E+01 0.00000E+00
 -1       874 1.06374E+02 1.51775E+01 0.00000E+00
 -1       875 1.09374E+02 1.51775E+01 0.00000E+00
 -1       876 1.12374E+02 1.51775E+01 0.00000E+00
 -1       877 1.15374E+02 1.51775E+01 0.00000E+00
 -1       878 1.18374E+02 1.51775E+01 0.00000E+00
 -1       879 1.21374E+02 1.51775E+01 0.00000E+00
 -1       880 1.24374E+02 1.51775E+01 0.00000E+00
 -1       881 1.27374E+02 1.51775E+01 0.00000E+00
 -1       882 1.30374E+02 1.51775E+01 0.00000E+00
 -1       883 1.33374E+02 1.51775E+01 0.00000E+00
 -1       884 1.03836E+02 3.43487E+01 0.00000E+00
 -1       885 1.07524E+02 2.56147E+01 0.00000E+00
 -1       886 1.34412E+02 2.35500E+01 0.00000E+00
 -1       887 1.35295E+02 3.48965E+01 0.00000E+00
 -1       888 1.25172E+02 2.15606E+01 0.00000E+00
 -1       889 1.31214E+02 2.38323E+01 0.00000E+00
 -1       890 1.29900E+01 2.79188E+01 0.00000E+00
 -1       891 1.04446E+02 3.21326E+01 0.00000E+00
 -1       892 1.59900E+01 3.37938E+01 0.00000E+00
 -1       893 1.84950E+01 3.41029E+01 0.00000E+00
 -1       894 1.27893E+02 2.24200E+01 0.00000E+00
 -1       895 3.43740E+01 1.51775E+01 0.00000E+00
 -1       896 1.16353E+02 2.16324E+01 0.00000E+00
 -1       897 1.11030E+02 2.17285E+01 0.00000E+00
 -1       898 1.34412E+02 2.06125E+01 0.00000E+00
 -1       899 2.83740E+01 1.51775E+01 0.00000E+00
 -1       900 1.55880E+01 2.35000E+01 0.00000E+00
 -1       901 1.18579E+02 2.03249E+01 0.00000E+00
 -1       902 1.33893E+02 1.78950E+01 0.00000E+00
 -1       903 1.23044E+02 1.99647E+01 0.00000E+00
 -1       904 1.93740E+01 1.51775E+01 0.00000E+00
 -1       905 2.23740E+01 1.51775E+01 0.00000E+00
 -1       906 1.55880E+01 2.05625E+01 0.00000E+00
 -1       907 1.27302E+02 1.95559E+01 0.00000E+00
 -1       908 2.55000E+01 3.18140E+01 0.00000E+00
 -1       909 2.85000E+01 3.18140E+01 0.00000E+00
 -1       910 3.15000E+01 3.18140E+01 0.00000E+00
 -1       911 3.45000E+01 3.18140E+01 0.00000E+00
 -1       912 3.75000E+01 3.18140E+01 0.00000E+00
 -1       913 4.05000E+01 3.18140E+01 0.00000E+00
 -1       914 4.35000E+01 3.18140E+01 0.00000E+00
 -1       915 4.65000E+01 3.18140E+01 0.00000E+00
 -1       916 4.95000E+01 3.18140E+01 0.00000E+00
 -1       917 5.25000E+01 3.18140E+01 0.00000E+00
 -1       918 5.55000E+01 3.18140E+01 0.00000E+00
 -1       919 5.85000E+01 3.18140E+01 0.00000E+00
 -1       920 6.15000E+01 3.18140E+01 0.00000E+00
 -1       921 6.45000E+01 3.18140E+01 0.00000E+00
 -1       922 6.75000E+01 3.18140E+01 0.00000E+00
 -1       923 7.05000E+01 3.18140E+01 0.00000E+00
 -1       924 7.35000E+01 3.18140E+01 0.00000E+00
 -1       925 7.65000E+01 3.18140E+01 0.00000E+00
 -1       926 7.95000E+01 3.18140E+01 0.00000E+00
 -1       927 8.25000E+01 3.18140E+01 0.00000E+00
 -1       928 8.55000E+01 3.18140E+01 0.00000E+00
 -1       929 8.85000E+01 3.18140E+01 0.00000E+00
 -1       930 9.15000E+01 3.18140E+01 0.00000E+00
 -1       931 9.45000E+01 3.18140E+01 0.00000E+00
 -1       932 9.75000E+01 3.18140E+01 0.00000E+00
 -1       933 1.00350E+02 3.18140E+01 0.00000E+00
 -1       934 4.48740E+01 1.77755E+01 0.00000E+00
 -1       935 2.53740E+01 1.51775E+01 0.00000E+00
 -1       936 1.03192E+02 2.93950E+01 0.00000E+00
 -1       937 4.18740E+01 1.77755E+01 0.00000E+00
 -1       938 5.08740E+01 1.77755E+01 0.00000E+00
 -1       939 5.38740E+01 1.77755E+01 0.00000E+00
 -1       940 5.68740E+01 1.77755E+01 0.00000E+00
 -1       941 5.98740E+01 1.77755E+01 0.00000E+00
 -1       942 6.28740E+01 1.77755E+01 0.00000E+00
 -1       943 6.58740E+01 1.77755E+01 0.00000E+00
 -1       944 6.88740E+01 1.77755E+01 0.00000E+00
 -1       945 7.18740E+01 1.77755E+01 0.00000E+00
 -1       946 7.48740E+01 1.77755E+01 0.00000E+00
 -1       947 7.78740E+01 1.77755E+01 0.00000E+00
 -1       948 8.08740E+01 1.77755E+01 0.00000E+00
 -1       949 8.38740E+01 1.77755E+01 0.00000E+00
 -1       950 8.68740E+01 1.77755E+01 0.00000E+00
 -1       951 8.98740E+01 1.77755E+01 0.00000E+00
 -1       952 9.28740E+01 1.77755E+01 0.00000E+00
 -1       953 9.58740E+01 1.77755E+01 0.00000E+00
 -1       954 9.88740E+01 1.77755E+01 0.00000E+00
 -1       955 1.01874E+02 1.77755E+01 0.00000E+00
 -1       956 1.04874E+02 1.77755E+01 0.00000E+00
 -1       957 1.07874E+02 1.77755E+01 0.00000E+00
 -1       958 1.10874E+02 1.77755E+01 0.00000E+00
 -1       959 1.13874E+02 1.77755E+01 0.00000E+00
 -1       960 1.16874E+02 1.77755E+01 0.00000E+00
 -1       961 1.22874E+02 1.77755E+01 0.00000E+00
 -1       962 1.02398E+02 3.19733E+01 0.00000E+00
 -1       963 1.55880E+01 2.64438E+01 0.00000E+00
 -1       964 3.88740E+01 1.77755E+01 0.00000E+00
 -1       965 1.30570E+02 2.07354E+01 0.00000E+00
 -1       966 1.63076E+01 3.04687E+01 0.00000E+00
 -1       967 4.78740E+01 1.77755E+01 0.00000E+00
 -1       968 1.04486E+02 2.62631E+01 0.00000E+00
 -1       969 1.06919E+02 2.26100E+01 0.00000E+00
 -1       970 2.25000E+01 3.18140E+01 0.00000E+00
 -1       971 1.52310E+01 1.80398E+01 0.00000E+00
 -1       972 1.13888E+02 1.99782E+01 0.00000E+00
 -1       973 2.98740E+01 1.77755E+01 0.00000E+00
 -1       974 1.03881E+02 2.32584E+01 0.00000E+00
 -1       975 1.73195E+01 1.79379E+01 0.00000E+00
 -1       976 1.19977E+02 1.77512E+01 0.00000E+00
 -1       977 1.99950E+01 3.15049E+01 0.00000E+00
 -1       978 3.28740E+01 1.77755E+01 0.00000E+00
 -1       979 1.08025E+02 2.11232E+01 0.00000E+00
 -1       980 1.81860E+01 2.49719E+01 0.00000E+00
 -1       981 1.81860E+01 2.20344E+01 0.00000E+00
 -1       982 3.58740E+01 1.77755E+01 0.00000E+00
 -1       983 2.08740E+01 1.77755E+01 0.00000E+00
 -1       984 3.00000E+01 2.92160E+01 0.00000E+00
 -1       985 3.30000E+01 2.92160E+01 0.00000E+00
 -1       986 3.60000E+01 2.92160E+01 0.00000E+00
 -1       987 3.90000E+01 2.92160E+01 0.00000E+00
 -1       988 4.20000E+01 2.92160E+01 0.00000E+00
 -1       989 4.50000E+01 2.92160E+01 0.00000E+00
 -1       990 4.80000E+01 2.92160E+01 0.00000E+00
 -1       991 5.10000E+01 2.92160E+01 0.00000E+00
 -1       992 5.40000E+01 2.92160E+01 0.00000E+00
 -1       993 5.70000E+01 2.92160E+01 0.00000E+00
 -1       994 6.00000E+01 2.92160E+01 0.00000E+00
 -1       995 6.30000E+01 2.92160E+01 0.00000E+00
 -1       996 6.60000E+01 2.92160E+01 0.00000E+00
 -1       997 6.90000E+01 2.92160E+01 0.00000E+00
 -1       998 7.20000E+01 2.92160E+01 0.00000E+00
 -1       999 7.50000E+01 2.92160E+01 0.00000E+00
 -1      1000 7.80000E+01 2.92160E+01 0.00000E+00
 -1      1001 8.10000E+01 2.92160E+01 0.00000E+00
 -1      1002 8.40000E+01 2.92160E+01 0.00000E+00
 -1      1003 8.70000E+01 2.92160E+01 0.00000E+00
 -1      1004 9.00000E+01 2.92160E+01 0.00000E+00
 -1      1005 9.30000E+01 2.92160E+01 0.00000E+00
 -1      1006 9.60000E+01 2.92160E+01 0.00000E+00
 -1      1007 9.88500E+01 2.92160E+01 0.00000E+00
 -1      1008 2.68740E+01 1.77755E+01 0.00000E+00
 -1      1009 4.33740E+01 2.03735E+01 0.00000E+00
 -1      1010 5.53740E+01 2.03735E+01 0.00000E+00
 -1      1011 5.23740E+01 2.03735E+01 0.00000E+00
 -1      1012 6.13740E+01 2.03735E+01 0.00000E+00
 -1      1013 6.43740E+01 2.03735E+01 0.00000E+00
 -1      1014 6.73740E+01 2.03735E+01 0.00000E+00
 -1      1015 7.03740E+01 2.03735E+01 0.00000E+00
 -1      1016 7.33740E+01 2.03735E+01 0.00000E+00
 -1      1017 7.63740E+01 2.03735E+01 0.00000E+00
 -1      1018 7.93740E+01 2.03735E+01 0.00000E+00
 -1      1019 8.23740E+01 2.03735E+01 0.00000E+00
 -1      1020 8.53740E+01 2.03735E+01 0.00000E+00
 -1      1021 8.83740E+01 2.03735E+01 0.00000E+00
 -1      1022 9.13740E+01 2.03735E+01 0.00000E+00
 -1      1023 9.43740E+01 2.03735E+01 0.00000E+00
 -1      1024 9.73740E+01 2.03735E+01 0.00000E+00
 -1      1025 1.00374E+02 2.03735E+01 0.00000E+00
 -1      1026 1.03374E+02 2.03735E+01 0.00000E+00
 -1      1027 1.01144E+02 2.92357E+01 0.00000E+00
 -1      1028 4.03740E+01 2.03735E+01 0.00000E+00
 -1      1029 5.83740E+01 2.03735E+01 0.00000E+00
 -1      1030 1.90905E+01 2.82384E+01 0.00000E+00
 -1      1031 4.93740E+01 2.03735E+01 0.00000E+00
 -1      1032 2.70000E+01 2.92160E+01 0.00000E+00
 -1      1033 2.38740E+01 1.77755E+01 0.00000E+00
 -1      1034 1.02438E+02 2.61038E+01 0.00000E+00
 -1      1035 2.40000E+01 2.92160E+01 0.00000E+00
 -1      1036 1.92153E+01 2.04520E+01 0.00000E+00
 -1      1037 4.63740E+01 2.03735E+01 0.00000E+00
 -1      1038 2.83740E+01 2.03735E+01 0.00000E+00
 -1      1039 3.13740E+01 2.03735E+01 0.00000E+00
 -1      1040 2.22153E+01 2.04520E+01 0.00000E+00
 -1      1041 2.15452E+01 2.87272E+01 0.00000E+00
 -1      1042 3.73740E+01 2.03735E+01 0.00000E+00
 -1      1043 2.06408E+01 2.54607E+01 0.00000E+00
 -1      1044 1.00144E+02 2.60842E+01 0.00000E+00
 -1      1045 3.45000E+01 2.66180E+01 0.00000E+00
 -1      1046 3.75000E+01 2.66180E+01 0.00000E+00
 -1      1047 4.05000E+01 2.66180E+01 0.00000E+00
 -1      1048 4.35000E+01 2.66180E+01 0.00000E+00
 -1      1049 4.65000E+01 2.66180E+01 0.00000E+00
 -1      1050 4.95000E+01 2.66180E+01 0.00000E+00
 -1      1051 5.25000E+01 2.66180E+01 0.00000E+00
 -1      1052 5.55000E+01 2.66180E+01 0.00000E+00
 -1      1053 5.85000E+01 2.66180E+01 0.00000E+00
 -1      1054 6.15000E+01 2.66180E+01 0.00000E+00
 -1      1055 6.45000E+01 2.66180E+01 0.00000E+00
 -1      1056 6.75000E+01 2.66180E+01 0.00000E+00
 -1      1057 7.05000E+01 2.66180E+01 0.00000E+00
 -1      1058 7.35000E+01 2.66180E+01 0.00000E+00
 -1      1059 7.65000E+01 2.66180E+01 0.00000E+00
 -1      1060 7.95000E+01 2.66180E+01 0.00000E+00
 -1      1061 8.25000E+01 2.66180E+01 0.00000E+00
 -1      1062 8.55000E+01 2.66180E+01 0.00000E+00
 -1      1063 8.85000E+01 2.66180E+01 0.00000E+00
 -1      1064 9.15000E+01 2.66180E+01 0.00000E+00
 -1      1065 9.45000E+01 2.66180E+01 0.00000E+00
 -1      1066 9.73220E+01 2.63511E+01 0.00000E+00
 -1      1067 5.38740E+01 2.29715E+01 0.00000E+00
 -1      1068 1.01406E+02 2.32387E+01 0.00000E+00
 -1      1069 4.78740E+01 2.29715E+01 0.00000E+00
 -1      1070 2.85000E+01 2.66180E+01 0.00000E+00
 -1      1071 6.58740E+01 2.29715E+01 0.00000E+00
 -1      1072 6.28740E+01 2.29715E+01 0.00000E+00
 -1      1073 7.18740E+01 2.29715E+01 0.00000E+00
 -1      1074 7.48740E+01 2.29715E+01 0.00000E+00
 -1      1075 7.78740E+01 2.29715E+01 0.00000E+00
 -1      1076 8.08740E+01 2.29715E+01 0.00000E+00
 -1      1077 8.38740E+01 2.29715E+01 0.00000E+00
 -1      1078 8.68740E+01 2.29715E+01 0.00000E+00
 -1      1079 8.98740E+01 2.29715E+01 0.00000E+00
 -1      1080 9.28740E+01 2.29715E+01 0.00000E+00
 -1      1081 9.58740E+01 2.29715E+01 0.00000E+00
 -1      1082 9.86401E+01 2.31051E+01 0.00000E+00
 -1      1083 2.53740E+01 2.03735E+01 0.00000E+00
 -1      1084 2.55000E+01 2.66180E+01 0.00000E+00
 -1      1085 1.99208E+01 2.26683E+01 0.00000E+00
 -1      1086 4.18740E+01 2.29715E+01 0.00000E+00
 -1      1087 5.98740E+01 2.29715E+01 0.00000E+00
 -1      1088 6.88740E+01 2.29715E+01 0.00000E+00
 -1      1089 5.08740E+01 2.29715E+01 0.00000E+00
 -1      1090 3.15000E+01 2.66180E+01 0.00000E+00
 -1      1091 3.43740E+01 2.03735E+01 0.00000E+00
 -1      1092 5.68740E+01 2.29715E+01 0.00000E+00
 -1      1093 4.48740E+01 2.29715E+01 0.00000E+00
 -1      1094 2.27965E+01 2.34158E+01 0.00000E+00
 -1      1095 2.98740E+01 2.29715E+01 0.00000E+00
 -1      1096 2.68740E+01 2.29715E+01 0.00000E+00
 -1      1097 3.88740E+01 2.29715E+01 0.00000E+00
 -1      1098 3.60000E+01 2.40200E+01 0.00000E+00
 -1      1099 3.28740E+01 2.29715E+01 0.00000E+00
 -1      1100 0.00000E+00 4.85250E+01 0.00000E+00
 -1      1101 0.00000E+00 4.55750E+01 0.00000E+00
 -1      1102 0.00000E+00 4.26250E+01 0.00000E+00
 -1      1103 0.00000E+00 3.96750E+01 0.00000E+00
 -1      1104 0.00000E+00 3.67250E+01 0.00000E+00
 -1      1105 0.00000E+00 3.38000E+01 0.00000E+00
 -1      1106 0.00000E+00 3.08750E+01 0.00000E+00
 -1      1107 0.00000E+00 2.79250E+01 0.00000E+00
 -1      1108 0.00000E+00 2.49750E+01 0.00000E+00
 -1      1109 0.00000E+00 2.20250E+01 0.00000E+00
 -1      1110 0.00000E+00 1.90750E+01 0.00000E+00
 -1      1111 0.00000E+00 1.61500E+01 0.00000E+00
 -1      1112 0.00000E+00 1.32250E+01 0.00000E+00
 -1      1113 0.00000E+00 1.02750E+01 0.00000E+00
 -1      1114 0.00000E+00 7.32500E+00 0.00000E+00
 -1      1115 0.00000E+00 4.37500E+00 0.00000E+00
 -1      1116 0.00000E+00 1.45000E+00 0.00000E+00
 -1      1117 1.50000E+00 5.00000E+01 0.00000E+00
 -1      1118 4.50000E+00 5.00000E+01 0.00000E+00
 -1      1119 7.50000E+00 5.00000E+01 0.00000E+00
 -1      1120 1.05000E+01 5.00000E+01 0.00000E+00
 -1      1121 1.35000E+01 5.00000E+01 0.00000E+00
 -1      1122 1.65000E+01 5.00000E+01 0.00000E+00
 -1      1123 1.95000E+01 5.00000E+01 0.00000E+00
 -1      1124 2.25000E+01 5.00000E+01 0.00000E+00
 -1      1125 2.55000E+01 5.00000E+01 0.00000E+00
 -1      1126 2.85000E+01 5.00000E+01 0.00000E+00
 -1      1127 3.15000E+01 5.00000E+01 0.00000E+00
 -1      1128 3.45000E+01 5.00000E+01 0.00000E+00
 -1      1129 3.75000E+01 5.00000E+01 0.00000E+00
 -1      1130 4.05000E+01 5.00000E+01 0.00000E+00
 -1      1131 4.35000E+01 5.00000E+01 0.00000E+00
 -1      1132 4.65000E+01 5.00000E+01 0.00000E+00
 -1      1133 4.95000E+01 5.00000E+01 0.00000E+00
 -1      1134 5.25000E+01 5.00000E+01 0.00000E+00
 -1      1135 5.55000E+01 5.00000E+01 0.00000E+00
 -1      1136 5.85000E+01 5.00000E+01 0.00000E+00
 -1      1137 6.15000E+01 5.00000E+01 0.00000E+00
 -1      1138 6.45000E+01 5.00000E+01 0.00000E+00
 -1      1139 6.75000E+01 5.00000E+01 0.00000E+00
 -1      1140 7.05000E+01 5.00000E+01 0.00000E+00
 -1      1141 7.35000E+01 5.00000E+01 0.00000E+00
 -1      1142 7.65000E+01 5.00000E+01 0.00000E+00
 -1      1143 7.95000E+01 5.00000E+01 0.00000E+00
 -1      1144 8.25000E+01 5.00000E+01 0.00000E+00
 -1      1145 8.55000E+01 5.00000E+01 0.00000E+00
 -1      1146 8.85000E+01 5.00000E+01 0.00000E+00
 -1      1147 9.15000E+01 5.00000E+01 0.00000E+00
 -1      1148 9.45000E+01 5.00000E+01 0.00000E+00
 -1      1149 9.75000E+01 5.00000E+01 0.00000E+00
 -1      1150 1.00500E+02 5.00000E+01 0.00000E+00
 -1      1151 1.03500E+02 5.00000E+01 0.00000E+00
 -1      1152 1.06500E+02 5.00000E+01 0.00000E+00
 -1      1153 1.09425E+02 5.00000E+01 0.00000E+00
 -1      1154 1.12200E+02 5.00000E+01 0.00000E+00
 -1      1155 1.14900E+02 5.00000E+01 0.00000E+00
 -1      1156 1.17450E+02 5.00000E+01 0.00000E+00
 -1      1157 1.20075E+02 5.00000E+01 0.00000E+00
 -1      1158 1.22775E+02 5.00000E+01 0.00000E+00
 -1      1159 1.25325E+02 5.00000E+01 0.00000E+00
 -1      1160 1.27875E+02 5.00000E+01 0.00000E+00
 -1      1161 1.30650E+02 5.00000E+01 0.00000E+00
 -1      1162 1.33650E+02 5.00000E+01 0.00000E+00
 -1      1163 1.36650E+02 5.00000E+01 0.00000E+00
 -1      1164 1.39650E+02 5.00000E+01 0.00000E+00
 -1      1165 1.42650E+02 5.00000E+01 0.00000E+00
 -1      1166 1.45650E+02 5.00000E+01 0.00000E+00
 -1      1167 1.48575E+02 5.00000E+01 0.00000E+00
 -1      1168 1.57500E+00 0.00000E+00 0.00000E+00
 -1      1169 4.65000E+00 0.00000E+00 0.00000E+00
 -1      1170 7.65000E+00 0.00000E+00 0.00000E+00
 -1      1171 1.06500E+01 0.00000E+00 0.00000E+00
 -1      1172 1.36500E+01 0.00000E+00 0.00000E+00
 -1      1173 1.66500E+01 0.00000E+00 0.00000E+00
 -1      1174 1.96500E+01 0.00000E+00 0.00000E+00
 -1      1175 2.26500E+01 0.00000E+00 0.00000E+00
 -1      1176 2.56500E+01 0.00000E+00 0.00000E+00
 -1      1177 2.86500E+01 0.00000E+00 0.00000E+00
 -1      1178 3.16500E+01 0.00000E+00 0.00000E+00
 -1      1179 3.46500E+01 0.00000E+00 0.00000E+00
 -1      1180 3.76500E+01 0.00000E+00 0.00000E+00
 -1      1181 4.06500E+01 0.00000E+00 0.00000E+00
 -1      1182 4.36500E+01 0.00000E+00 0.00000E+00
 -1      1183 4.66500E+01 0.00000E+00 0.00000E+00
 -1      1184 4.96500E+01 0.00000E+00 0.00000E+00
 -1      1185 5.26500E+01 0.00000E+00 0.00000E+00
 -1      1186 5.56500E+01 0.00000E+00 0.00000E+00
 -1      1187 5.86500E+01 0.00000E+00 0.00000E+00
 -1      1188 6.16500E+01 0.00000E+00 0.00000E+00
 -1      1189 6.46500E+01 0.00000E+00 0.00000E+00
 -1      1190 6.76500E+01 0.00000E+00 0.00000E+00
 -1      1191 7.06500E+01 0.00000E+00 0.00000E+00
 -1      1192 7.36500E+01 0.00000E+00 0.00000E+00
 -1      1193 7.66500E+01 0.00000E+00 0.00000E+00
 -1      1194 7.96500E+01 0.00000E+00 0.00000E+00
 -1      1195 8.26500E+01 0.00000E+00 0.00000E+00
 -1      1196 8.56500E+01 0.00000E+00 0.00000E+00
 -1      1197 8.86500E+01 0.00000E+00 0.00000E+00
 -1      1198 9.16500E+01 0.00000E+00 0.00000E+00
 -1      1199 9.46500E+01 0.00000E+00 0.00000E+00
 -1      1200 9.76500E+01 0.00000E+00 0.00000E+00
 -1      1201 1.00650E+02 0.00000E+00 0.00000E+00
 -1      1202 1.03650E+02 0.00000E+00 0.00000E+00
 -1      1203 1.06650E+02 0.00000E+00 0.00000E+00
 -1      1204 1.09650E+02 0.00000E+00 0.00000E+00
 -1      1205 1.12650E+02 0.00000E+00 0.00000E+00
 -1      1206 1.15650E+02 0.00000E+00 0.00000E+00
 -1      1207 1.18650E+02 0.00000E+00 0.00000E+00
 -1      1208 1.21650E+02 0.00000E+00 0.00000E+00
 -1      1209 1.24650E+02 0.00000E+00 0.00000E+00
 -1      1210 1.27650E+02 0.00000E+00 0.00000E+00
 -1      1211 1.30650E+02 0.00000E+00 0.00000E+00
 -1      1212 1.33650E+02 0.00000E+00 0.00000E+00
 -1      1213 1.36650E+02 0.00000E+00 0.00000E+00
 -1      1214 1.39650E+02 0.00000E+00 0.00000E+00
 -1      1215 1.42650E+02 0.00000E+00 0.00000E+00
 -1      1216 1.45650E+02 0.00000E+00 0.00000E+00
 -1      1217 1.48575E+02 0.00000E+00 0.00000E+00
 -1      1218 1.50000E+02 1.47500E+00 0.00000E+00
 -1      1219 1.50000E+02 4.42500E+00 0.00000E+00
 -1      1220 1.50000E+02 7.37500E+00 0.00000E+00
 -1      1221 1.50000E+02 1.03250E+01 0.00000E+00
 -1      1222 1.50000E+02 1.32750E+01 0.00000E+00
 -1      1223 1.50000E+02 1.62000E+01 0.00000E+00
 -1      1224 1.50000E+02 1.91250E+01 0.00000E+00
 -1      1225 1.50000E+02 2.20750E+01 0.00000E+00
 -1      1226 1.50000E+02 2.50250E+01 0.00000E+00
 -1      1227 1.50000E+02 2.79750E+01 0.00000E+00
 -1      1228 1.50000E+02 3.09250E+01 0.00000E+00
 -1      1229 1.50000E+02 3.38500E+01 0.00000E+00
 -1      1230 1.50000E+02 3.67750E+01 0.00000E+00
 -1      1231 1.50000E+02 3.97250E+01 0.00000E+00
 -1      1232 1.50000E+02 4.26750E+01 0.00000E+00
 -1      1233 1.50000E+02 4.56250E+01 0.00000E+00
 -1      1234 1.50000E+02 4.85500E+01 0.00000E+00
 -1      1235 1.27039E+02 3.71648E+01 0.00000E+00
 -1      1236 1.26686E+02 3.56343E+01 0.00000E+00
 -1      1237 1.26043E+02 3.42891E+01 0.00000E+00
 -1      1238 1.25161E+02 3.31424E+01 0.00000E+00
 -1      1239 1.24021E+02 3.21736E+01 0.00000E+00
 -1      1240 1.22647E+02 3.14479E+01 0.00000E+00
 -1      1241 1.21205E+02 3.10522E+01 0.00000E+00
 -1      1242 1.19722E+02 3.09713E+01 0.00000E+00
 -1      1243 1.18214E+02 3.12164E+01 0.00000E+00
 -1      1244 1.16825E+02 3.17668E+01 0.00000E+00
 -1      1245 1.15631E+02 3.25615E+01 0.00000E+00
 -1      1246 1.14614E+02 3.35948E+01 0.00000E+00
 -1      1247 1.13820E+02 3.48381E+01 0.00000E+00
 -1      1248 1.13314E+02 3.61845E+01 0.00000E+00
 -1      1249 1.13094E+02 3.75845E+01 0.00000E+00
 -1      1250 1.13161E+02 3.89923E+01 0.00000E+00
 -1      1251 1.13541E+02 4.04480E+01 0.00000E+00
 -1      1252 1.14237E+02 4.18100E+01 0.00000E+00
 -1      1253 1.15247E+02 4.30219E+01 0.00000E+00
 -1      1254 1.16496E+02 4.39724E+01 0.00000E+00
 -1      1255 1.17869E+02 4.46023E+01 0.00000E+00
 -1      1256 1.19350E+02 4.49233E+01 0.00000E+00
 -1      1257 1.20766E+02 4.49287E+01 0.00000E+00
 -1      1258 1.22141E+02 4.46528E+01 0.00000E+00
 -1      1259 1.23448E+02 4.41010E+01 0.00000E+00
 -1      1260 1.24575E+02 4.33318E+01 0.00000E+00
 -1      1261 1.25528E+02 4.23628E+01 0.00000E+00
 -1      1262 1.26291E+02 4.11994E+01 0.00000E+00
 -1      1263 1.26801E+02 3.99320E+01 0.00000E+00
 -1      1264 1.27053E+02 3.86259E+01 0.00000E+00
 -1      1265 1.50000E+00 4.85250E+01 0.00000E+00
 -1      1266 1.29900E+00 4.48375E+01 0.00000E+00
 -1      1267 1.29900E+00 4.63125E+01 0.00000E+00
 -1      1268 1.29900E+00 4.18875E+01 0.00000E+00
 -1      1269 1.29900E+00 4.33625E+01 0.00000E+00
 -1      1270 2.59800E+00 4.41000E+01 0.00000E+00
 -1      1271 1.29900E+00 3.89375E+01 0.00000E+00
 -1      1272 1.29900E+00 4.04125E+01 0.00000E+00
 -1      1273 2.59800E+00 4.11500E+01 0.00000E+00
 -1      1274 1.29900E+00 3.59875E+01 0.00000E+00
 -1      1275 1.29900E+00 3.74625E+01 0.00000E+00
 -1      1276 2.59800E+00 3.82000E+01 0.00000E+00
 -1      1277 1.29900E+00 3.30875E+01 0.00000E+00
 -1      1278 1.29900E+00 3.45375E+01 0.00000E+00
 -1      1279 2.59800E+00 3.52750E+01 0.00000E+00
 -1      1280 1.29900E+00 3.01375E+01 0.00000E+00
 -1      1281 1.29900E+00 3.16125E+01 0.00000E+00
 -1      1282 2.59800E+00 3.23500E+01 0.00000E+00
 -1      1283 1.29900E+00 2.71875E+01 0.00000E+00
 -1      1284 1.29900E+00 2.86625E+01 0.00000E+00
 -1      1285 2.59800E+00 2.94000E+01 0.00000E+00
 -1      1286 1.29900E+00 2.42375E+01 0.00000E+00
 -1      1287 1.29900E+00 2.57125E+01 0.00000E+00
 -1      1288 2.59800E+00 2.64500E+01 0.00000E+00
 -1      1289 1.29900E+00 2.12875E+01 0.00000E+00
 -1      1290 1.29900E+00 2.27625E+01 0.00000E+00
 -1      1291 2.59800E+00 2.35000E+01 0.00000E+00
 -1      1292 1.29900E+00 1.83375E+01 0.00000E+00
 -1      1293 1.29900E+00 1.98125E+01 0.00000E+00
 -1      1294 2.59800E+00 2.05500E+01 0.00000E+00
 -1      1295 1.29900E+00 1.54375E+01 0.00000E+00
 -1      1296 1.29900E+00 1.68875E+01 0.00000E+00
 -1      1297 2.59800E+00 1.76250E+01 0.00000E+00
 -1      1298 1.29900E+00 1.24875E+01 0.00000E+00
 -1      1299 1.29900E+00 1.39625E+01 0.00000E+00
 -1      1300 2.59800E+00 1.47000E+01 0.00000E+00
 -1      1301 1.29900E+00 9.53750E+00 0.00000E+00
 -1      1302 1.29900E+00 1.10125E+01 0.00000E+00
 -1      1303 2.59800E+00 1.17500E+01 0.00000E+00
 -1      1304 1.29900E+00 6.58750E+00 0.00000E+00
 -1      1305 1.29900E+00 8.06250E+00 0.00000E+00
 -1      1306 2.59800E+00 8.80000E+00 0.00000E+00
 -1      1307 1.29900E+00 3.63750E+00 0.00000E+00
 -1      1308 1.29900E+00 5.11250E+00 0.00000E+00
 -1      1309 2.59800E+00 5.85000E+00 0.00000E+00
 -1      1310 1.43700E+00 1.09375E+00 0.00000E+00
 -1      1311 1.43700E+00 2.54375E+00 0.00000E+00
 -1      1312 2.73600E+00 3.28125E+00 0.00000E+00
 -1      1313 3.01200E+00 1.09375E+00 0.00000E+00
 -1      1314 3.75000E+00 4.87010E+01 0.00000E+00
 -1      1315 5.25000E+00 4.87010E+01 0.00000E+00
 -1      1316 6.75000E+00 4.87010E+01 0.00000E+00
 -1      1317 8.25000E+00 4.87010E+01 0.00000E+00
 -1      1318 6.00000E+00 4.74020E+01 0.00000E+00
 -1      1319 9.75000E+00 4.87010E+01 0.00000E+00
 -1      1320 1.12500E+01 4.87010E+01 0.00000E+00
 -1      1321 9.00000E+00 4.74020E+01 0.00000E+00
 -1      1322 1.27500E+01 4.87010E+01 0.00000E+00
 -1      1323 1.42500E+01 4.87010E+01 0.00000E+00
 -1      1324 1.20000E+01 4.74020E+01 0.00000E+00
 -1      1325 1.57500E+01 4.87010E+01 0.00000E+00
 -1      1326 1.72500E+01 4.87010E+01 0.00000E+00
 -1      1327 1.50000E+01 4.74020E+01 0.00000E+00
 -1      1328 1.87500E+01 4.87010E+01 0.00000E+00
 -1      1329 2.02500E+01 4.87010E+01 0.00000E+00
 -1      1330 1.80000E+01 4.74020E+01 0.00000E+00
 -1      1331 2.17500E+01 4.87010E+01 0.00000E+00
 -1      1332 2.32500E+01 4.87010E+01 0.00000E+00
 -1      1333 2.10000E+01 4.74020E+01 0.00000E+00
 -1      1334 2.47500E+01 4.87010E+01 0.00000E+00
 -1      1335 2.62500E+01 4.87010E+01 0.00000E+00
 -1      1336 2.40000E+01 4.74020E+01 0.00000E+00
 -1      1337 2.77500E+01 4.87010E+01 0.00000E+00
 -1      1338 2.92500E+01 4.87010E+01 0.00000E+00
 -1      1339 2.70000E+01 4.74020E+01 0.00000E+00
 -1      1340 3.07500E+01 4.87010E+01 0.00000E+00
 -1      1341 3.22500E+01 4.87010E+01 0.00000E+00
 -1      1342 3.00000E+01 4.74020E+01 0.00000E+00
 -1      1343 3.37500E+01 4.87010E+01 0.00000E+00
 -1      1344 3.52500E+01 4.87010E+01 0.00000E+00
 -1      1345 3.30000E+01 4.74020E+01 0.00000E+00
 -1      1346 3.67500E+01 4.87010E+01 0.00000E+00
 -1      1347 3.82500E+01 4.87010E+01 0.00000E+00
 -1      1348 3.60000E+01 4.74020E+01 0.00000E+00
 -1      1349 3.97500E+01 4.87010E+01 0.00000E+00
 -1      1350 4.12500E+01 4.87010E+01 0.00000E+00
 -1      1351 3.90000E+01 4.74020E+01 0.00000E+00
 -1      1352 4.27500E+01 4.87010E+01 0.00000E+00
 -1      1353 4.42500E+01 4.87010E+01 0.00000E+00
 -1      1354 4.20000E+01 4.74020E+01 0.00000E+00
 -1      1355 4.57500E+01 4.87010E+01 0.00000E+00
 -1      1356 4.72500E+01 4.87010E+01 0.00000E+00
 -1      1357 4.50000E+01 4.74020E+01 0.00000E+00
 -1      1358 4.87500E+01 4.87010E+01 0.00000E+00
 -1      1359 5.02500E+01 4.87010E+01 0.00000E+00
 -1      1360 4.80000E+01 4.74020E+01 0.00000E+00
 -1      1361 5.17500E+01 4.87010E+01 0.00000E+00
 -1      1362 5.32500E+01 4.87010E+01 0.00000E+00
 -1      1363 5.10000E+01 4.74020E+01 0.00000E+00
 -1      1364 5.47500E+01 4.87010E+01 0.00000E+00
 -1      1365 5.62500E+01 4.87010E+01 0.00000E+00
 -1      1366 5.40000E+01 4.74020E+01 0.00000E+00
 -1      1367 5.77500E+01 4.87010E+01 0.00000E+00
 -1      1368 5.92500E+01 4.87010E+01 0.00000E+00
 -1      1369 5.70000E+01 4.74020E+01 0.00000E+00
 -1      1370 6.07500E+01 4.87010E+01 0.00000E+00
 -1      1371 6.22500E+01 4.87010E+01 0.00000E+00
 -1      1372 6.00000E+01 4.74020E+01 0.00000E+00
 -1      1373 6.37500E+01 4.87010E+01 0.00000E+00
 -1      1374 6.52500E+01 4.87010E+01 0.00000E+00
 -1      1375 6.30000E+01 4.74020E+01 0.00000E+00
 -1      1376 6.67500E+01 4.87010E+01 0.00000E+00
 -1      1377 6.82500E+01 4.87010E+01 0.00000E+00
 -1      1378 6.60000E+01 4.74020E+01 0.00000E+00
 -1      1379 6.97500E+01 4.87010E+01 0.00000E+00
 -1      1380 7.12500E+01 4.87010E+01 0.00000E+00
 -1      1381 6.90000E+01 4.74020E+01 0.00000E+00
 -1      1382 7.27500E+01 4.87010E+01 0.00000E+00
 -1      1383 7.42500E+01 4.87010E+01 0.00000E+00
 -1      1384 7.20000E+01 4.74020E+01 0.00000E+00
 -1      1385 7.57500E+01 4.87010E+01 0.00000E+00
 -1      1386 7.72500E+01 4.87010E+01 0.00000E+00
 -1      1387 7.50000E+01 4.74020E+01 0.00000E+00
 -1      1388 7.87500E+01 4.87010E+01 0.00000E+00
 -1      1389 8.02500E+01 4.87010E+01 0.00000E+00
 -1      1390 7.80000E+01 4.74020E+01 0.00000E+00
 -1      1391 8.17500E+01 4.87010E+01 0.00000E+00
 -1      1392 8.32500E+01 4.87010E+01 0.00000E+00
 -1      1393 8.10000E+01 4.74020E+01 0.00000E+00
 -1      1394 8.47500E+01 4.87010E+01 0.00000E+00
 -1      1395 8.62500E+01 4.87010E+01 0.00000E+00
 -1      1396 8.40000E+01 4.74020E+01 0.00000E+00
 -1      1397 8.77500E+01 4.87010E+01 0.00000E+00
 -1      1398 8.92500E+01 4.87010E+01 0.00000E+00
 -1      1399 8.70000E+01 4.74020E+01 0.00000E+00
 -1      1400 9.07500E+01 4.87010E+01 0.00000E+00
 -1      1401 9.22500E+01 4.87010E+01 0.00000E+00
 -1      1402 9.00000E+01 4.74020E+01 0.00000E+00
 -1      1403 9.37500E+01 4.87010E+01 0.00000E+00
 -1      1404 9.52500E+01 4.87010E+01 0.00000E+00
 -1      1405 9.30000E+01 4.74020E+01 0.00000E+00
 -1      1406 9.67500E+01 4.87010E+01 0.00000E+00
 -1      1407 9.82500E+01 4.87010E+01 0.00000E+00
 -1      1408 9.60000E+01 4.74020E+01 0.00000E+00
 -1      1409 9.97500E+01 4.87010E+01 0.00000E+00
 -1      1410 1.01250E+02 4.87010E+01 0.00000E+00
 -1      1411 9.90000E+01 4.74020E+01 0.00000E+00
 -1      1412 1.02750E+02 4.87010E+01 0.00000E+00
 -1      1413 1.04250E+02 4.87010E+01 0.00000E+00
 -1      1414 1.02000E+02 4.74020E+01 0.00000E+00
 -1      1415 1.05750E+02 4.87010E+01 0.00000E+00
 -1      1416 1.07250E+02 4.87010E+01 0.00000E+00
 -1      1417 1.05000E+02 4.74020E+01 0.00000E+00
 -1      1418 1.08675E+02 4.87010E+01 0.00000E+00
 -1      1419 1.10100E+02 4.87010E+01 0.00000E+00
 -1      1420 1.07925E+02 4.74020E+01 0.00000E+00
 -1      1421 1.11450E+02 4.87010E+01 0.00000E+00
 -1      1422 1.12800E+02 4.87010E+01 0.00000E+00
 -1      1423 1.10700E+02 4.74020E+01 0.00000E+00
 -1      1424 1.14150E+02 4.87010E+01 0.00000E+00
 -1      1425 1.15500E+02 4.87010E+01 0.00000E+00
 -1      1426 1.13400E+02 4.74020E+01 0.00000E+00
 -1      1427 1.19363E+02 4.87010E+01 0.00000E+00
 -1      1428 1.20787E+02 4.87010E+01 0.00000E+00
 -1      1429 1.24688E+02 4.88911E+01 0.00000E+00
 -1      1430 1.25963E+02 4.88911E+01 0.00000E+00
 -1      1431 1.27238E+02 4.88911E+01 0.00000E+00
 -1      1432 1.28512E+02 4.88911E+01 0.00000E+00
 -1      1433 1.26600E+02 4.77822E+01 0.00000E+00
 -1      1434 1.30012E+02 4.88911E+01 0.00000E+00
 -1      1435 1.31512E+02 4.88911E+01 0.00000E+00
 -1      1436 1.29375E+02 4.77822E+01 0.00000E+00
 -1      1437 1.33012E+02 4.88911E+01 0.00000E+00
 -1      1438 1.34512E+02 4.88911E+01 0.00000E+00
 -1      1439 1.32375E+02 4.77822E+01 0.00000E+00
 -1      1440 1.36012E+02 4.88911E+01 0.00000E+00
 -1      1441 1.37512E+02 4.88911E+01 0.00000E+00
 -1      1442 1.35375E+02 4.77822E+01 0.00000E+00
 -1      1443 1.39012E+02 4.88911E+01 0.00000E+00
 -1      1444 1.40512E+02 4.88911E+01 0.00000E+00
 -1      1445 1.38375E+02 4.77822E+01 0.00000E+00
 -1      1446 1.42012E+02 4.88911E+01 0.00000E+00
 -1      1447 1.43512E+02 4.88911E+01 0.00000E+00
 -1      1448 1.41375E+02 4.77822E+01 0.00000E+00
 -1      1449 1.45012E+02 4.88911E+01 0.00000E+00
 -1      1450 1.46512E+02 4.88911E+01 0.00000E+00
 -1      1451 1.44375E+02 4.77822E+01 0.00000E+00
 -1      1452 1.47544E+02 4.87205E+01 0.00000E+00
 -1      1453 1.48969E+02 4.87205E+01 0.00000E+00
 -1      1454 1.48969E+02 4.72705E+01 0.00000E+00
 -1      1455 1.46906E+02 4.76116E+01 0.00000E+00
 -1      1456 6.01200E+00 1.09375E+00 0.00000E+00
 -1      1457 4.51200E+00 1.09375E+00 0.00000E+00
 -1      1458 4.37400E+00 2.18750E+00 0.00000E+00
 -1      1459 9.01200E+00 1.09375E+00 0.00000E+00
 -1      1460 7.51200E+00 1.09375E+00 0.00000E+00
 -1      1461 7.37400E+00 2.18750E+00 0.00000E+00
 -1      1462 1.20120E+01 1.09375E+00 0.00000E+00
 -1      1463 1.05120E+01 1.09375E+00 0.00000E+00
 -1      1464 1.03740E+01 2.18750E+00 0.00000E+00
 -1      1465 1.50120E+01 1.09375E+00 0.00000E+00
 -1      1466 1.35120E+01 1.09375E+00 0.00000E+00
 -1      1467 1.33740E+01 2.18750E+00 0.00000E+00
 -1      1468 1.80120E+01 1.09375E+00 0.00000E+00
 -1      1469 1.65120E+01 1.09375E+00 0.00000E+00
 -1      1470 1.63740E+01 2.18750E+00 0.00000E+00
 -1      1471 2.10120E+01 1.09375E+00 0.00000E+00
 -1      1472 1.95120E+01 1.09375E+00 0.00000E+00
 -1      1473 1.93740E+01 2.18750E+00 0.00000E+00
 -1      1474 2.40120E+01 1.09375E+00 0.00000E+00
 -1      1475 2.25120E+01 1.09375E+00 0.00000E+00
 -1      1476 2.23740E+01 2.18750E+00 0.00000E+00
 -1      1477 2.70120E+01 1.09375E+00 0.00000E+00
 -1      1478 2.55120E+01 1.09375E+00 0.00000E+00
 -1      1479 2.53740E+01 2.18750E+00 0.00000E+00
 -1      1480 3.00120E+01 1.09375E+00 0.00000E+00
 -1      1481 2.85120E+01 1.09375E+00 0.00000E+00
 -1      1482 2.83740E+01 2.18750E+00 0.00000E+00
 -1      1483 3.30120E+01 1.09375E+00 0.00000E+00
 -1      1484 3.15120E+01 1.09375E+00 0.00000E+00
 -1      1485 3.13740E+01 2.18750E+00 0.00000E+00
 -1      1486 3.60120E+01 1.09375E+00 0.00000E+00
 -1      1487 3.45120E+01 1.09375E+00 0.00000E+00
 -1      1488 3.43740E+01 2.18750E+00 0.00000E+00
 -1      1489 3.90120E+01 1.09375E+00 0.00000E+00
 -1      1490 3.75120E+01 1.09375E+00 0.00000E+00
 -1      1491 3.73740E+01 2.18750E+00 0.00000E+00
 -1      1492 4.20120E+01 1.09375E+00 0.00000E+00
 -1      1493 4.05120E+01 1.09375E+00 0.00000E+00
 -1      1494 4.03740E+01 2.18750E+00 0.00000E+00
 -1      1495 4.50120E+01 1.09375E+00 0.00000E+00
 -1      1496 4.35120E+01 1.09375E+00 0.00000E+00
 -1      1497 4.33740E+01 2.18750E+00 0.00000E+00
 -1      1498 4.80120E+01 1.09375E+00 0.00000E+00
 -1      1499 4.65120E+01 1.09375E+00 0.00000E+00
 -1      1500 4.63740E+01 2.18750E+00 0.00000E+00
 -1      1501 5.10120E+01 1.09375E+00 0.00000E+00
 -1      1502 4.95120E+01 1.09375E+00 0.00000E+00
 -1      1503 4.93740E+01 2.18750E+00 0.00000E+00
 -1      1504 5.40120E+01 1.09375E+00 0.00000E+00
 -1      1505 5.25120E+01 1.09375E+00 0.00000E+00
 -1      1506 5.23740E+01 2.18750E+00 0.00000E+00
 -1      1507 5.70120E+01 1.09375E+00 0.00000E+00
 -1      1508 5.55120E+01 1.09375E+00 0.00000E+00
 -1      1509 5.53740E+01 2.18750E+00 0.00000E+00
 -1      1510 6.00120E+01 1.09375E+00 0.00000E+00
 -1      1511 5.85120E+01 1.09375E+00 0.00000E+00
 -1      1512 5.83740E+01 2.18750E+00 0.00000E+00
 -1      1513 6.30120E+01 1.09375E+00 0.00000E+00
 -1      1514 6.15120E+01 1.09375E+00 0.00000E+00
 -1      1515 6.13740E+01 2.18750E+00 0.00000E+00
 -1      1516 6.60120E+01 1.09375E+00 0.00000E+00
 -1      1517 6.45120E+01 1.09375E+00 0.00000E+00
 -1      1518 6.43740E+01 2.18750E+00 0.00000E+00
 -1      1519 6.90120E+01 1.09375E+00 0.00000E+00
 -1      1520 6.75120E+01 1.09375E+00 0.00000E+00
 -1      1521 6.73740E+01 2.18750E+00 0.00000E+00
 -1      1522 7.20120E+01 1.09375E+00 0.00000E+00
 -1      1523 7.05120E+01 1.09375E+00 0.00000E+00
 -1      1524 7.03740E+01 2.18750E+00 0.00000E+00
 -1      1525 7.50120E+01 1.09375E+00 0.00000E+00
 -1      1526 7.35120E+01 1.09375E+00 0.00000E+00
 -1      1527 7.33740E+01 2.18750E+00 0.00000E+00
 -1      1528 7.80120E+01 1.09375E+00 0.00000E+00
 -1      1529 7.65120E+01 1.09375E+00 0.00000E+00
 -1      1530 7.63740E+01 2.18750E+00 0.00000E+00
 -1      1531 8.10120E+01 1.09375E+00 0.00000E+00
 -1      1532 7.95120E+01 1.09375E+00 0.00000E+00
 -1      1533 7.93740E+01 2.18750E+00 0.00000E+00
 -1      1534 8.40120E+01 1.09375E+00 0.00000E+00
 -1      1535 8.25120E+01 1.09375E+00 0.00000E+00
 -1      1536 8.23740E+01 2.18750E+00 0.00000E+00
 -1      1537 8.70120E+01 1.09375E+00 0.00000E+00
 -1      1538 8.55120E+01 1.09375E+00 0.00000E+00
 -1      1539 8.53740E+01 2.18750E+00 0.00000E+00
 -1      1540 9.00120E+01 1.09375E+00 0.00000E+00
 -1      1541 8.85120E+01 1.09375E+00 0.00000E+00
 -1      1542 8.83740E+01 2.18750E+00 0.00000E+00
 -1      1543 9.30120E+01 1.09375E+00 0.00000E+00
 -1      1544 9.15120E+01 1.09375E+00 0.00000E+00
 -1      1545 9.13740E+01 2.18750E+00 0.00000E+00
 -1      1546 9.60120E+01 1.09375E+00 0.00000E+00
 -1      1547 9.45120E+01 1.09375E+00 0.00000E+00
 -1      1548 9.43740E+01 2.18750E+00 0.00000E+00
 -1      1549 9.90120E+01 1.09375E+00 0.00000E+00
 -1      1550 9.75120E+01 1.09375E+00 0.00000E+00
 -1      1551 9.73740E+01 2.18750E+00 0.00000E+00
 -1      1552 1.02012E+02 1.09375E+00 0.00000E+00
 -1      1553 1.00512E+02 1.09375E+00 0.00000E+00
 -1      1554 1.00374E+02 2.18750E+00 0.00000E+00
 -1      1555 1.05012E+02 1.09375E+00 0.00000E+00
 -1      1556 1.03512E+02 1.09375E+00 0.00000E+00
 -1      1557 1.03374E+02 2.18750E+00 0.00000E+00
 -1      1558 1.08012E+02 1.09375E+00 0.00000E+00
 -1      1559 1.06512E+02 1.09375E+00 0.00000E+00
 -1      1560 1.06374E+02 2.18750E+00 0.00000E+00
 -1      1561 1.11012E+02 1.09375E+00 0.00000E+00
 -1      1562 1.09512E+02 1.09375E+00 0.00000E+00
 -1      1563 1.09374E+02 2.18750E+00 0.00000E+00
 -1      1564 1.14012E+02 1.09375E+00 0.00000E+00
 -1      1565 1.12512E+02 1.09375E+00 0.00000E+00
 -1      1566 1.12374E+02 2.18750E+00 0.00000E+00
 -1      1567 1.17012E+02 1.09375E+00 0.00000E+00
 -1      1568 1.15512E+02 1.09375E+00 0.00000E+00
 -1      1569 1.15374E+02 2.18750E+00 0.00000E+00
 -1      1570 1.20012E+02 1.09375E+00 0.00000E+00
 -1      1571 1.18512E+02 1.09375E+00 0.00000E+00
 -1      1572 1.18374E+02 2.18750E+00 0.00000E+00
 -1      1573 1.23012E+02 1.09375E+00 0.00000E+00
 -1      1574 1.21512E+02 1.09375E+00 0.00000E+00
 -1      1575 1.21374E+02 2.18750E+00 0.00000E+00
 -1      1576 1.26012E+02 1.09375E+00 0.00000E+00
 -1      1577 1.24512E+02 1.09375E+00 0.00000E+00
 -1      1578 1.24374E+02 2.18750E+00 0.00000E+00
 -1      1579 1.29012E+02 1.09375E+00 0.00000E+00
 -1      1580 1.27512E+02 1.09375E+00 0.00000E+00
 -1      1581 1.27374E+02 2.18750E+00 0.00000E+00
 -1      1582 1.32012E+02 1.09375E+00 0.00000E+00
 -1      1583 1.30512E+02 1.09375E+00 0.00000E+00
 -1      1584 1.30374E+02 2.18750E+00 0.00000E+00
 -1      1585 1.35012E+02 1.09375E+00 0.00000E+00
 -1      1586 1.33512E+02 1.09375E+00 0.00000E+00
 -1      1587 1.33374E+02 2.18750E+00 0.00000E+00
 -1      1588 1.38012E+02 1.09375E+00 0.00000E+00
 -1      1589 1.36512E+02 1.09375E+00 0.00000E+00
 -1      1590 1.36374E+02 2.18750E+00 0.00000E+00
 -1      1591 1.41012E+02 1.09375E+00 0.00000E+00
 -1      1592 1.39512E+02 1.09375E+00 0.00000E+00
 -1      1593 1.39374E+02 2.18750E+00 0.00000E+00
 -1      1594 1.44012E+02 1.09375E+00 0.00000E+00
 -1      1595 1.42512E+02 1.09375E+00 0.00000E+00
 -1      1596 1.42374E+02 2.18750E+00 0.00000E+00
 -1      1597 1.47012E+02 1.09375E+00 0.00000E+00
 -1      1598 1.45512E+02 1.09375E+00 0.00000E+00
 -1      1599 1.45374E+02 2.18750E+00 0.00000E+00
 -1      1600 1.48575E+02 1.47500E+00 0.00000E+00
 -1      1601 1.48701E+02 5.16250E+00 0.00000E+00
 -1      1602 1.48701E+02 3.68750E+00 0.00000E+00
 -1      1603 1.48701E+02 8.11250E+00 0.00000E+00
 -1      1604 1.48701E+02 6.63750E+00 0.00000E+00
 -1      1605 1.47402E+02 5.90000E+00 0.00000E+00
 -1      1606 1.48701E+02 1.10625E+01 0.00000E+00
 -1      1607 1.48701E+02 9.58750E+00 0.00000E+00
 -1      1608 1.47402E+02 8.85000E+00 0.00000E+00
 -1      1609 1.48701E+02 1.40125E+01 0.00000E+00
 -1      1610 1.48701E+02 1.25375E+01 0.00000E+00
 -1      1611 1.47402E+02 1.18000E+01 0.00000E+00
 -1      1612 1.48701E+02 1.69125E+01 0.00000E+00
 -1      1613 1.48701E+02 1.54625E+01 0.00000E+00
 -1      1614 1.47402E+02 1.47250E+01 0.00000E+00
 -1      1615 1.48701E+02 1.98625E+01 0.00000E+00
 -1      1616 1.48701E+02 1.83875E+01 0.00000E+00
 -1      1617 1.47402E+02 1.76500E+01 0.00000E+00
 -1      1618 1.48701E+02 2.28125E+01 0.00000E+00
 -1      1619 1.48701E+02 2.13375E+01 0.00000E+00
 -1      1620 1.47402E+02 2.06000E+01 0.00000E+00
 -1      1621 1.48701E+02 2.57625E+01 0.00000E+00
 -1      1622 1.48701E+02 2.42875E+01 0.00000E+00
 -1      1623 1.47402E+02 2.35500E+01 0.00000E+00
 -1      1624 1.48701E+02 2.87125E+01 0.00000E+00
 -1      1625 1.48701E+02 2.72375E+01 0.00000E+00
 -1      1626 1.47402E+02 2.65000E+01 0.00000E+00
 -1      1627 1.48701E+02 3.16625E+01 0.00000E+00
 -1      1628 1.48701E+02 3.01875E+01 0.00000E+00
 -1      1629 1.47402E+02 2.94500E+01 0.00000E+00
 -1      1630 1.48701E+02 3.45625E+01 0.00000E+00
 -1      1631 1.48701E+02 3.31125E+01 0.00000E+00
 -1      1632 1.47402E+02 3.23750E+01 0.00000E+00
 -1      1633 1.48701E+02 3.75125E+01 0.00000E+00
 -1      1634 1.48701E+02 3.60375E+01 0.00000E+00
 -1      1635 1.47402E+02 3.53000E+01 0.00000E+00
 -1      1636 1.48701E+02 4.04625E+01 0.00000E+00
 -1      1637 1.48701E+02 3.89875E+01 0.00000E+00
 -1      1638 1.47402E+02 3.82500E+01 0.00000E+00
 -1      1639 1.48701E+02 4.34125E+01 0.00000E+00
 -1      1640 1.48701E+02 4.19375E+01 0.00000E+00
 -1      1641 1.47402E+02 4.12000E+01 0.00000E+00
 -1      1642 1.48835E+02 4.60790E+01 0.00000E+00
 -1      1643 1.48835E+02 4.46040E+01 0.00000E+00
 -1      1644 1.47536E+02 4.38665E+01 0.00000E+00
 -1      1645 1.47804E+02 4.62496E+01 0.00000E+00
 -1      1646 1.27717E+02 3.66859E+01 0.00000E+00
 -1      1647 1.27808E+02 3.74778E+01 0.00000E+00
 -1      1648 1.27168E+02 3.50545E+01 0.00000E+00
 -1      1649 1.27425E+02 3.57839E+01 0.00000E+00
 -1      1650 1.26375E+02 3.36630E+01 0.00000E+00
 -1      1651 1.26752E+02 3.42738E+01 0.00000E+00
 -1      1652 1.25352E+02 3.24579E+01 0.00000E+00
 -1      1653 1.25854E+02 3.29869E+01 0.00000E+00
 -1      1654 1.24021E+02 3.14916E+01 0.00000E+00
 -1      1655 1.24655E+02 3.19227E+01 0.00000E+00
 -1      1656 1.22533E+02 3.06641E+01 0.00000E+00
 -1      1657 1.23265E+02 3.09522E+01 0.00000E+00
 -1      1658 1.20946E+02 3.04326E+01 0.00000E+00
 -1      1659 1.21646E+02 3.05461E+01 0.00000E+00
 -1      1660 1.19301E+02 3.03455E+01 0.00000E+00
 -1      1661 1.20076E+02 3.03053E+01 0.00000E+00
 -1      1662 1.17667E+02 3.06504E+01 0.00000E+00
 -1      1663 1.18391E+02 3.04497E+01 0.00000E+00
 -1      1664 1.16213E+02 3.14011E+01 0.00000E+00
 -1      1665 1.16871E+02 3.10554E+01 0.00000E+00
 -1      1666 1.15000E+02 3.23405E+01 0.00000E+00
 -1      1667 1.15534E+02 3.19000E+01 0.00000E+00
 -1      1668 1.13870E+02 3.34861E+01 0.00000E+00
 -1      1669 1.14343E+02 3.28940E+01 0.00000E+00
 -1      1670 1.13113E+02 3.48863E+01 0.00000E+00
 -1      1671 1.13433E+02 3.42444E+01 0.00000E+00
 -1      1672 1.12591E+02 3.63675E+01 0.00000E+00
 -1      1673 1.12774E+02 3.56701E+01 0.00000E+00
 -1      1674 1.12505E+02 3.79011E+01 0.00000E+00
 -1      1675 1.12543E+02 3.72062E+01 0.00000E+00
 -1      1676 1.12649E+02 3.94289E+01 0.00000E+00
 -1      1677 1.12544E+02 3.87233E+01 0.00000E+00
 -1      1678 1.13078E+02 4.10470E+01 0.00000E+00
 -1      1679 1.12797E+02 4.03074E+01 0.00000E+00
 -1      1680 1.13966E+02 4.24302E+01 0.00000E+00
 -1      1681 1.13560E+02 4.18134E+01 0.00000E+00
 -1      1682 1.15109E+02 4.37742E+01 0.00000E+00
 -1      1683 1.14502E+02 4.31941E+01 0.00000E+00
 -1      1684 1.16518E+02 4.46472E+01 0.00000E+00
 -1      1685 1.15892E+02 4.42731E+01 0.00000E+00
 -1      1686 1.18035E+02 4.53389E+01 0.00000E+00
 -1      1687 1.17295E+02 4.50919E+01 0.00000E+00
 -1      1688 1.19651E+02 4.55679E+01 0.00000E+00
 -1      1689 1.18921E+02 4.54909E+01 0.00000E+00
 -1      1690 1.21161E+02 4.54657E+01 0.00000E+00
 -1      1691 1.20482E+02 4.55321E+01 0.00000E+00
 -1      1692 1.22678E+02 4.51707E+01 0.00000E+00
 -1      1693 1.21988E+02 4.53827E+01 0.00000E+00
 -1      1694 1.24048E+02 4.44717E+01 0.00000E+00
 -1      1695 1.23437E+02 4.48063E+01 0.00000E+00
 -1      1696 1.25200E+02 4.35579E+01 0.00000E+00
 -1      1697 1.24687E+02 4.39866E+01 0.00000E+00
 -1      1698 1.26222E+02 4.24801E+01 0.00000E+00
 -1      1699 1.25788E+02 4.30173E+01 0.00000E+00
 -1      1700 1.26996E+02 4.11725E+01 0.00000E+00
 -1      1701 1.26672E+02 4.17934E+01 0.00000E+00
 -1      1702 1.27446E+02 3.97740E+01 0.00000E+00
 -1      1703 1.27259E+02 4.04132E+01 0.00000E+00
 -1      1704 1.27656E+02 3.83499E+01 0.00000E+00
 -1      1705 1.27593E+02 3.90108E+01 0.00000E+00
 -1      1706 1.15940E+02 4.75808E+01 0.00000E+00
 -1      1707 1.16690E+02 4.88798E+01 0.00000E+00
 -1      1708 1.17890E+02 4.88798E+01 0.00000E+00
 -1      1709 1.18603E+02 4.75808E+01 0.00000E+00
 -1      1710 1.28380E+02 3.78658E+01 0.00000E+00
 -1      1711 1.22137E+02 4.89749E+01 0.00000E+00
 -1      1712 1.23412E+02 4.89749E+01 0.00000E+00
 -1      1713 1.26594E+02 3.29522E+01 0.00000E+00
 -1      1714 1.21425E+02 4.76759E+01 0.00000E+00
 -1      1715 1.48437E+02 2.56875E+00 0.00000E+00
 -1      1716 1.47138E+02 3.30625E+00 0.00000E+00
 -1      1717 1.28239E+02 3.60917E+01 0.00000E+00
 -1      1718 1.27531E+02 3.44090E+01 0.00000E+00
 -1      1719 1.25376E+02 3.17410E+01 0.00000E+00
 -1      1720 1.23923E+02 3.06665E+01 0.00000E+00
 -1      1721 1.22280E+02 3.00090E+01 0.00000E+00
 -1      1722 1.20523E+02 2.97636E+01 0.00000E+00
 -1      1723 1.18743E+02 2.97406E+01 0.00000E+00
 -1      1724 1.17037E+02 3.02497E+01 0.00000E+00
 -1      1725 1.15561E+02 3.11536E+01 0.00000E+00
 -1      1726 1.14224E+02 3.22061E+01 0.00000E+00
 -1      1727 1.13130E+02 3.35179E+01 0.00000E+00
 -1      1728 1.12354E+02 3.50599E+01 0.00000E+00
 -1      1729 1.11967E+02 3.66823E+01 0.00000E+00
 -1      1730 1.11958E+02 3.83432E+01 0.00000E+00
 -1      1731 1.12145E+02 4.00438E+01 0.00000E+00
 -1      1732 1.12775E+02 4.16886E+01 0.00000E+00
 -1      1733 1.13793E+02 4.32189E+01 0.00000E+00
 -1      1734 1.15112E+02 4.44818E+01 0.00000E+00
 -1      1735 1.16670E+02 4.54253E+01 0.00000E+00
 -1      1736 1.18332E+02 4.60219E+01 0.00000E+00
 -1      1737 1.20049E+02 4.61381E+01 0.00000E+00
 -1      1738 1.21708E+02 4.60192E+01 0.00000E+00
 -1      1739 1.23295E+02 4.55718E+01 0.00000E+00
 -1      1740 1.24693E+02 4.47223E+01 0.00000E+00
 -1      1741 1.25921E+02 4.36967E+01 0.00000E+00
 -1      1742 1.26959E+02 4.24694E+01 0.00000E+00
 -1      1743 1.27671E+02 4.10234E+01 0.00000E+00
 -1      1744 1.28081E+02 3.95011E+01 0.00000E+00
 -1      1745 2.79900E+00 4.77875E+01 0.00000E+00
 -1      1746 1.24050E+02 4.78660E+01 0.00000E+00
 -1      1747 3.89700E+00 4.04125E+01 0.00000E+00
 -1      1748 3.89700E+00 4.18875E+01 0.00000E+00
 -1      1749 3.89700E+00 4.33625E+01 0.00000E+00
 -1      1750 3.89700E+00 4.48375E+01 0.00000E+00
 -1      1751 5.19600E+00 4.26250E+01 0.00000E+00
 -1      1752 3.89700E+00 3.45500E+01 0.00000E+00
 -1      1753 3.89700E+00 3.60000E+01 0.00000E+00
 -1      1754 3.89700E+00 3.16000E+01 0.00000E+00
 -1      1755 3.89700E+00 3.30750E+01 0.00000E+00
 -1      1756 5.19600E+00 3.38000E+01 0.00000E+00
 -1      1757 3.89700E+00 2.86500E+01 0.00000E+00
 -1      1758 3.89700E+00 3.01250E+01 0.00000E+00
 -1      1759 5.19600E+00 3.08500E+01 0.00000E+00
 -1      1760 3.89700E+00 2.57000E+01 0.00000E+00
 -1      1761 3.89700E+00 2.71750E+01 0.00000E+00
 -1      1762 5.19600E+00 2.79000E+01 0.00000E+00
 -1      1763 3.89700E+00 2.27500E+01 0.00000E+00
 -1      1764 3.89700E+00 2.42250E+01 0.00000E+00
 -1      1765 5.19600E+00 2.49500E+01 0.00000E+00
 -1      1766 3.89700E+00 1.98000E+01 0.00000E+00
 -1      1767 3.89700E+00 2.12750E+01 0.00000E+00
 -1      1768 5.19600E+00 2.20000E+01 0.00000E+00
 -1      1769 3.89700E+00 1.69000E+01 0.00000E+00
 -1      1770 3.89700E+00 1.83500E+01 0.00000E+00
 -1      1771 5.19600E+00 1.90750E+01 0.00000E+00
 -1      1772 3.89700E+00 1.39500E+01 0.00000E+00
 -1      1773 3.89700E+00 1.54250E+01 0.00000E+00
 -1      1774 5.19600E+00 1.61500E+01 0.00000E+00
 -1      1775 3.89700E+00 1.10000E+01 0.00000E+00
 -1      1776 3.89700E+00 1.24750E+01 0.00000E+00
 -1      1777 5.19600E+00 1.32000E+01 0.00000E+00
 -1      1778 3.89700E+00 8.05000E+00 0.00000E+00
 -1      1779 3.89700E+00 9.52500E+00 0.00000E+00
 -1      1780 5.19600E+00 1.02500E+01 0.00000E+00
 -1      1781 3.89700E+00 5.10000E+00 0.00000E+00
 -1      1782 3.89700E+00 6.57500E+00 0.00000E+00
 -1      1783 5.19600E+00 7.30000E+00 0.00000E+00
 -1      1784 4.20450E+00 3.09687E+00 0.00000E+00
 -1      1785 4.06650E+00 4.19063E+00 0.00000E+00
 -1      1786 5.36550E+00 4.91563E+00 0.00000E+00
 -1      1787 5.70450E+00 3.09687E+00 0.00000E+00
 -1      1788 3.54900E+00 4.64885E+01 0.00000E+00
 -1      1789 8.70450E+00 3.09687E+00 0.00000E+00
 -1      1790 7.20450E+00 3.09687E+00 0.00000E+00
 -1      1791 7.03500E+00 4.00625E+00 0.00000E+00
 -1      1792 8.25000E+00 4.61030E+01 0.00000E+00
 -1      1793 9.75000E+00 4.61030E+01 0.00000E+00
 -1      1794 1.12500E+01 4.61030E+01 0.00000E+00
 -1      1795 1.27500E+01 4.61030E+01 0.00000E+00
 -1      1796 1.05000E+01 4.48040E+01 0.00000E+00
 -1      1797 1.42500E+01 4.61030E+01 0.00000E+00
 -1      1798 1.57500E+01 4.61030E+01 0.00000E+00
 -1      1799 1.35000E+01 4.48040E+01 0.00000E+00
 -1      1800 1.72500E+01 4.61030E+01 0.00000E+00
 -1      1801 1.87500E+01 4.61030E+01 0.00000E+00
 -1      1802 1.65000E+01 4.48040E+01 0.00000E+00
 -1      1803 2.02500E+01 4.61030E+01 0.00000E+00
 -1      1804 2.17500E+01 4.61030E+01 0.00000E+00
 -1      1805 1.95000E+01 4.48040E+01 0.00000E+00
 -1      1806 2.32500E+01 4.61030E+01 0.00000E+00
 -1      1807 2.47500E+01 4.61030E+01 0.00000E+00
 -1      1808 2.25000E+01 4.48040E+01 0.00000E+00
 -1      1809 2.62500E+01 4.61030E+01 0.00000E+00
 -1      1810 2.77500E+01 4.61030E+01 0.00000E+00
 -1      1811 2.55000E+01 4.48040E+01 0.00000E+00
 -1      1812 2.92500E+01 4.61030E+01 0.00000E+00
 -1      1813 3.07500E+01 4.61030E+01 0.00000E+00
 -1      1814 2.85000E+01 4.48040E+01 0.00000E+00
 -1      1815 3.22500E+01 4.61030E+01 0.00000E+00
 -1      1816 3.37500E+01 4.61030E+01 0.00000E+00
 -1      1817 3.15000E+01 4.48040E+01 0.00000E+00
 -1      1818 3.52500E+01 4.61030E+01 0.00000E+00
 -1      1819 3.67500E+01 4.61030E+01 0.00000E+00
 -1      1820 3.45000E+01 4.48040E+01 0.00000E+00
 -1      1821 3.82500E+01 4.61030E+01 0.00000E+00
 -1      1822 3.97500E+01 4.61030E+01 0.00000E+00
 -1      1823 3.75000E+01 4.48040E+01 0.00000E+00
 -1      1824 4.12500E+01 4.61030E+01 0.00000E+00
 -1      1825 4.27500E+01 4.61030E+01 0.00000E+00
 -1      1826 4.05000E+01 4.48040E+01 0.00000E+00
 -1      1827 4.42500E+01 4.61030E+01 0.00000E+00
 -1      1828 4.57500E+01 4.61030E+01 0.00000E+00
 -1      1829 4.35000E+01 4.48040E+01 0.00000E+00
 -1      1830 4.72500E+01 4.61030E+01 0.00000E+00
 -1      1831 4.87500E+01 4.61030E+01 0.00000E+00
 -1      1832 4.65000E+01 4.48040E+01 0.00000E+00
 -1      1833 5.02500E+01 4.61030E+01 0.00000E+00
 -1      1834 5.17500E+01 4.61030E+01 0.00000E+00
 -1      1835 4.95000E+01 4.48040E+01 0.00000E+00
 -1      1836 5.32500E+01 4.61030E+01 0.00000E+00
 -1      1837 5.47500E+01 4.61030E+01 0.00000E+00
 -1      1838 5.25000E+01 4.48040E+01 0.00000E+00
 -1      1839 5.62500E+01 4.61030E+01 0.00000E+00
 -1      1840 5.77500E+01 4.61030E+01 0.00000E+00
 -1      1841 5.55000E+01 4.48040E+01 0.00000E+00
 -1      1842 5.92500E+01 4.61030E+01 0.00000E+00
 -1      1843 6.07500E+01 4.61030E+01 0.00000E+00
 -1      1844 5.85000E+01 4.48040E+01 0.00000E+00
 -1      1845 6.22500E+01 4.61030E+01 0.00000E+00
 -1      1846 6.37500E+01 4.61030E+01 0.00000E+00
 -1      1847 6.15000E+01 4.48040E+01 0.00000E+00
 -1      1848 6.52500E+01 4.61030E+01 0.00000E+00
 -1      1849 6.67500E+01 4.61030E+01 0.00000E+00
 -1      1850 6.45000E+01 4.48040E+01 0.00000E+00
 -1      1851 6.82500E+01 4.61030E+01 0.00000E+00
 -1      1852 6.97500E+01 4.61030E+01 0.00000E+00
 -1      1853 6.75000E+01 4.48040E+01 0.00000E+00
 -1      1854 7.12500E+01 4.61030E+01 0.00000E+00
 -1      1855 7.27500E+01 4.61030E+01 0.00000E+00
 -1      1856 7.05000E+01 4.48040E+01 0.00000E+00
 -1      1857 7.42500E+01 4.61030E+01 0.00000E+00
 -1      1858 7.57500E+01 4.61030E+01 0.00000E+00
 -1      1859 7.35000E+01 4.48040E+01 0.00000E+00
 -1      1860 7.72500E+01 4.61030E+01 0.00000E+00
 -1      1861 7.87500E+01 4.61030E+01 0.00000E+00
 -1      1862 7.65000E+01 4.48040E+01 0.00000E+00
 -1      1863 8.02500E+01 4.61030E+01 0.00000E+00
 -1      1864 8.17500E+01 4.61030E+01 0.00000E+00
 -1      1865 7.95000E+01 4.48040E+01 0.00000E+00
 -1      1866 8.32500E+01 4.61030E+01 0.00000E+00
 -1      1867 8.47500E+01 4.61030E+01 0.00000E+00
 -1      1868 8.25000E+01 4.48040E+01 0.00000E+00
 -1      1869 8.62500E+01 4.61030E+01 0.00000E+00
 -1      1870 8.77500E+01 4.61030E+01 0.00000E+00
 -1      1871 8.55000E+01 4.48040E+01 0.00000E+00
 -1      1872 8.92500E+01 4.61030E+01 0.00000E+00
 -1      1873 9.07500E+01 4.61030E+01 0.00000E+00
 -1      1874 8.85000E+01 4.48040E+01 0.00000E+00
 -1      1875 9.22500E+01 4.61030E+01 0.00000E+00
 -1      1876 9.37500E+01 4.61030E+01 0.00000E+00
 -1      1877 9.15000E+01 4.48040E+01 0.00000E+00
 -1      1878 9.52500E+01 4.61030E+01 0.00000E+00
 -1      1879 9.67500E+01 4.61030E+01 0.00000E+00
 -1      1880 9.45000E+01 4.48040E+01 0.00000E+00
 -1      1881 9.82500E+01 4.61030E+01 0.00000E+00
 -1      1882 9.97500E+01 4.61030E+01 0.00000E+00
 -1      1883 9.75000E+01 4.48040E+01 0.00000E+00
 -1      1884 1.01250E+02 4.61030E+01 0.00000E+00
 -1      1885 1.02750E+02 4.61030E+01 0.00000E+00
 -1      1886 1.00500E+02 4.48040E+01 0.00000E+00
 -1      1887 1.04250E+02 4.61030E+01 0.00000E+00
 -1      1888 1.05750E+02 4.61030E+01 0.00000E+00
 -1      1889 1.03500E+02 4.48040E+01 0.00000E+00
 -1      1890 1.07175E+02 4.61030E+01 0.00000E+00
 -1      1891 1.08600E+02 4.61030E+01 0.00000E+00
 -1      1892 1.06425E+02 4.48040E+01 0.00000E+00
 -1      1893 1.09950E+02 4.61030E+01 0.00000E+00
 -1      1894 1.11300E+02 4.61030E+01 0.00000E+00
 -1      1895 1.09200E+02 4.48040E+01 0.00000E+00
 -1      1896 1.28710E+02 3.54412E+01 0.00000E+00
 -1      1897 1.29002E+02 3.63432E+01 0.00000E+00
 -1      1898 1.26947E+02 3.21419E+01 0.00000E+00
 -1      1899 1.27468E+02 3.28179E+01 0.00000E+00
 -1      1900 4.84800E+00 4.57510E+01 0.00000E+00
 -1      1901 1.28625E+02 4.67571E+01 0.00000E+00
 -1      1902 1.30125E+02 4.67571E+01 0.00000E+00
 -1      1903 1.31625E+02 4.65895E+01 0.00000E+00
 -1      1904 1.33125E+02 4.65895E+01 0.00000E+00
 -1      1905 1.34625E+02 4.65895E+01 0.00000E+00
 -1      1906 1.36125E+02 4.65895E+01 0.00000E+00
 -1      1907 1.33875E+02 4.53968E+01 0.00000E+00
 -1      1908 1.37625E+02 4.65895E+01 0.00000E+00
 -1      1909 1.39125E+02 4.65895E+01 0.00000E+00
 -1      1910 1.36875E+02 4.53968E+01 0.00000E+00
 -1      1911 1.40625E+02 4.65895E+01 0.00000E+00
 -1      1912 1.42125E+02 4.65895E+01 0.00000E+00
 -1      1913 1.39875E+02 4.53968E+01 0.00000E+00
 -1      1914 1.43625E+02 4.65895E+01 0.00000E+00
 -1      1915 1.45125E+02 4.65895E+01 0.00000E+00
 -1      1916 1.42875E+02 4.53968E+01 0.00000E+00
 -1      1917 1.46772E+02 4.64201E+01 0.00000E+00
 -1      1918 1.41240E+01 3.48650E+00 0.00000E+00
 -1      1919 1.26240E+01 3.48650E+00 0.00000E+00
 -1      1920 1.71240E+01 3.48650E+00 0.00000E+00
 -1      1921 1.56240E+01 3.48650E+00 0.00000E+00
 -1      1922 1.48740E+01 4.78550E+00 0.00000E+00
 -1      1923 2.01240E+01 3.48650E+00 0.00000E+00
 -1      1924 1.86240E+01 3.48650E+00 0.00000E+00
 -1      1925 1.78740E+01 4.78550E+00 0.00000E+00
 -1      1926 2.31240E+01 3.48650E+00 0.00000E+00
 -1      1927 2.16240E+01 3.48650E+00 0.00000E+00
 -1      1928 2.08740E+01 4.78550E+00 0.00000E+00
 -1      1929 2.61240E+01 3.48650E+00 0.00000E+00
 -1      1930 2.46240E+01 3.48650E+00 0.00000E+00
 -1      1931 2.38740E+01 4.78550E+00 0.00000E+00
 -1      1932 2.91240E+01 3.48650E+00 0.00000E+00
 -1      1933 2.76240E+01 3.48650E+00 0.00000E+00
 -1      1934 2.68740E+01 4.78550E+00 0.00000E+00
 -1      1935 3.21240E+01 3.48650E+00 0.00000E+00
 -1      1936 3.06240E+01 3.48650E+00 0.00000E+00
 -1      1937 2.98740E+01 4.78550E+00 0.00000E+00
 -1      1938 3.51240E+01 3.48650E+00 0.00000E+00
 -1      1939 3.36240E+01 3.48650E+00 0.00000E+00
 -1      1940 3.28740E+01 4.78550E+00 0.00000E+00
 -1      1941 3.81240E+01 3.48650E+00 0.00000E+00
 -1      1942 3.66240E+01 3.48650E+00 0.00000E+00
 -1      1943 3.58740E+01 4.78550E+00 0.00000E+00
 -1      1944 4.11240E+01 3.48650E+00 0.00000E+00
 -1      1945 3.96240E+01 3.48650E+00 0.00000E+00
 -1      1946 3.88740E+01 4.78550E+00 0.00000E+00
 -1      1947 4.41240E+01 3.48650E+00 0.00000E+00
 -1      1948 4.26240E+01 3.48650E+00 0.00000E+00
 -1      1949 4.18740E+01 4.78550E+00 0.00000E+00
 -1      1950 4.71240E+01 3.48650E+00 0.00000E+00
 -1      1951 4.56240E+01 3.48650E+00 0.00000E+00
 -1      1952 4.48740E+01 4.78550E+00 0.00000E+00
 -1      1953 5.01240E+01 3.48650E+00 0.00000E+00
 -1      1954 4.86240E+01 3.48650E+00 0.00000E+00
 -1      1955 4.78740E+01 4.78550E+00 0.00000E+00
 -1      1956 5.31240E+01 3.48650E+00 0.00000E+00
 -1      1957 5.16240E+01 3.48650E+00 0.00000E+00
 -1      1958 5.08740E+01 4.78550E+00 0.00000E+00
 -1      1959 5.61240E+01 3.48650E+00 0.00000E+00
 -1      1960 5.46240E+01 3.48650E+00 0.00000E+00
 -1      1961 5.38740E+01 4.78550E+00 0.00000E+00
 -1      1962 5.91240E+01 3.48650E+00 0.00000E+00
 -1      1963 5.76240E+01 3.48650E+00 0.00000E+00
 -1      1964 5.68740E+01 4.78550E+00 0.00000E+00
 -1      1965 6.21240E+01 3.48650E+00 0.00000E+00
 -1      1966 6.06240E+01 3.48650E+00 0.00000E+00
 -1      1967 5.98740E+01 4.78550E+00 0.00000E+00
 -1      1968 6.51240E+01 3.48650E+00 0.00000E+00
 -1      1969 6.36240E+01 3.48650E+00 0.00000E+00
 -1      1970 6.28740E+01 4.78550E+00 0.00000E+00
 -1      1971 6.81240E+01 3.48650E+00 0.00000E+00
 -1      1972 6.66240E+01 3.48650E+00 0.00000E+00
 -1      1973 6.58740E+01 4.78550E+00 0.00000E+00
 -1      1974 7.11240E+01 3.48650E+00 0.00000E+00
 -1      1975 6.96240E+01 3.48650E+00 0.00000E+00
 -1      1976 6.88740E+01 4.78550E+00 0.00000E+00
 -1      1977 7.41240E+01 3.48650E+00 0.00000E+00
 -1      1978 7.26240E+01 3.48650E+00 0.00000E+00
 -1      1979 7.18740E+01 4.78550E+00 0.00000E+00
 -1      1980 7.71240E+01 3.48650E+00 0.00000E+00
 -1      1981 7.56240E+01 3.48650E+00 0.00000E+00
 -1      1982 7.48740E+01 4.78550E+00 0.00000E+00
 -1      1983 8.01240E+01 3.48650E+00 0.00000E+00
 -1      1984 7.86240E+01 3.48650E+00 0.00000E+00
 -1      1985 7.78740E+01 4.78550E+00 0.00000E+00
 -1      1986 8.31240E+01 3.48650E+00 0.00000E+00
 -1      1987 8.16240E+01 3.48650E+00 0.00000E+00
 -1      1988 8.08740E+01 4.78550E+00 0.00000E+00
 -1      1989 8.61240E+01 3.48650E+00 0.00000E+00
 -1      1990 8.46240E+01 3.48650E+00 0.00000E+00
 -1      1991 8.38740E+01 4.78550E+00 0.00000E+00
 -1      1992 8.91240E+01 3.48650E+00 0.00000E+00
 -1      1993 8.76240E+01 3.48650E+00 0.00000E+00
 -1      1994 8.68740E+01 4.78550E+00 0.00000E+00
 -1      1995 9.21240E+01 3.48650E+00 0.00000E+00
 -1      1996 9.06240E+01 3.48650E+00 0.00000E+00
 -1      1997 8.98740E+01 4.78550E+00 0.00000E+00
 -1      1998 9.51240E+01 3.48650E+00 0.00000E+00
 -1      1999 9.36240E+01 3.48650E+00 0.00000E+00
 -1      2000 9.28740E+01 4.78550E+00 0.00000E+00
 -1      2001 9.81240E+01 3.48650E+00 0.00000E+00
 -1      2002 9.66240E+01 3.48650E+00 0.00000E+00
 -1      2003 9.58740E+01 4.78550E+00 0.00000E+00
 -1      2004 1.01124E+02 3.48650E+00 0.00000E+00
 -1      2005 9.96240E+01 3.48650E+00 0.00000E+00
 -1      2006 9.88740E+01 4.78550E+00 0.00000E+00
 -1      2007 1.04124E+02 3.48650E+00 0.00000E+00
 -1      2008 1.02624E+02 3.48650E+00 0.00000E+00
 -1      2009 1.01874E+02 4.78550E+00 0.00000E+00
 -1      2010 1.07124E+02 3.48650E+00 0.00000E+00
 -1      2011 1.05624E+02 3.48650E+00 0.00000E+00
 -1      2012 1.04874E+02 4.78550E+00 0.00000E+00
 -1      2013 1.10124E+02 3.48650E+00 0.00000E+00
 -1      2014 1.08624E+02 3.48650E+00 0.00000E+00
 -1      2015 1.07874E+02 4.78550E+00 0.00000E+00
 -1      2016 1.13124E+02 3.48650E+00 0.00000E+00
 -1      2017 1.11624E+02 3.48650E+00 0.00000E+00
 -1      2018 1.10874E+02 4.78550E+00 0.00000E+00
 -1      2019 1.16124E+02 3.48650E+00 0.00000E+00
 -1      2020 1.14624E+02 3.48650E+00 0.00000E+00
 -1      2021 1.13874E+02 4.78550E+00 0.00000E+00
 -1      2022 1.19124E+02 3.48650E+00 0.00000E+00
 -1      2023 1.17624E+02 3.48650E+00 0.00000E+00
 -1      2024 1.16874E+02 4.78550E+00 0.00000E+00
 -1      2025 1.22124E+02 3.48650E+00 0.00000E+00
 -1      2026 1.20624E+02 3.48650E+00 0.00000E+00
 -1      2027 1.19874E+02 4.78550E+00 0.00000E+00
 -1      2028 1.25124E+02 3.48650E+00 0.00000E+00
 -1      2029 1.23624E+02 3.48650E+00 0.00000E+00
 -1      2030 1.22874E+02 4.78550E+00 0.00000E+00
 -1      2031 1.28124E+02 3.48650E+00 0.00000E+00
 -1      2032 1.26624E+02 3.48650E+00 0.00000E+00
 -1      2033 1.25874E+02 4.78550E+00 0.00000E+00
 -1      2034 1.31124E+02 3.48650E+00 0.00000E+00
 -1      2035 1.29624E+02 3.48650E+00 0.00000E+00
 -1      2036 1.28874E+02 4.78550E+00 0.00000E+00
 -1      2037 1.34124E+02 3.48650E+00 0.00000E+00
 -1      2038 1.32624E+02 3.48650E+00 0.00000E+00
 -1      2039 1.31874E+02 4.78550E+00 0.00000E+00
 -1      2040 1.37124E+02 3.48650E+00 0.00000E+00
 -1      2041 1.35624E+02 3.48650E+00 0.00000E+00
 -1      2042 1.34874E+02 4.78550E+00 0.00000E+00
 -1      2043 1.40124E+02 3.48650E+00 0.00000E+00
 -1      2044 1.38624E+02 3.48650E+00 0.00000E+00
 -1      2045 1.37874E+02 4.78550E+00 0.00000E+00
 -1      2046 1.43124E+02 3.48650E+00 0.00000E+00
 -1      2047 1.41624E+02 3.48650E+00 0.00000E+00
 -1      2048 1.40874E+02 4.78550E+00 0.00000E+00
 -1      2049 1.45881E+02 3.39637E+00 0.00000E+00
 -1      2050 1.44381E+02 3.39637E+00 0.00000E+00
 -1      2051 1.43631E+02 4.69537E+00 0.00000E+00
 -1      2052 1.46145E+02 4.51512E+00 0.00000E+00
 -1      2053 1.46103E+02 1.25375E+01 0.00000E+00
 -1      2054 1.46103E+02 1.10625E+01 0.00000E+00
 -1      2055 1.46103E+02 9.58750E+00 0.00000E+00
 -1      2056 1.46103E+02 8.11250E+00 0.00000E+00
 -1      2057 1.44804E+02 1.03250E+01 0.00000E+00
 -1      2058 1.46145E+02 5.99013E+00 0.00000E+00
 -1      2059 1.46103E+02 1.54375E+01 0.00000E+00
 -1      2060 1.46103E+02 1.39875E+01 0.00000E+00
 -1      2061 1.44804E+02 1.32500E+01 0.00000E+00
 -1      2062 1.46103E+02 1.83875E+01 0.00000E+00
 -1      2063 1.46103E+02 1.69125E+01 0.00000E+00
 -1      2064 1.44804E+02 1.61750E+01 0.00000E+00
 -1      2065 1.46103E+02 2.13375E+01 0.00000E+00
 -1      2066 1.46103E+02 1.98625E+01 0.00000E+00
 -1      2067 1.44804E+02 1.91250E+01 0.00000E+00
 -1      2068 1.46103E+02 2.42875E+01 0.00000E+00
 -1      2069 1.46103E+02 2.28125E+01 0.00000E+00
 -1      2070 1.44804E+02 2.20750E+01 0.00000E+00
 -1      2071 1.46103E+02 2.72375E+01 0.00000E+00
 -1      2072 1.46103E+02 2.57625E+01 0.00000E+00
 -1      2073 1.44804E+02 2.50250E+01 0.00000E+00
 -1      2074 1.46103E+02 3.01875E+01 0.00000E+00
 -1      2075 1.46103E+02 2.87125E+01 0.00000E+00
 -1      2076 1.44804E+02 2.79750E+01 0.00000E+00
 -1      2077 1.46103E+02 3.30875E+01 0.00000E+00
 -1      2078 1.46103E+02 3.16375E+01 0.00000E+00
 -1      2079 1.44804E+02 3.09000E+01 0.00000E+00
 -1      2080 1.46103E+02 3.60375E+01 0.00000E+00
 -1      2081 1.46103E+02 3.45625E+01 0.00000E+00
 -1      2082 1.44804E+02 3.38250E+01 0.00000E+00
 -1      2083 1.46103E+02 3.89875E+01 0.00000E+00
 -1      2084 1.46103E+02 3.75125E+01 0.00000E+00
 -1      2085 1.44804E+02 3.67750E+01 0.00000E+00
 -1      2086 1.46103E+02 4.19375E+01 0.00000E+00
 -1      2087 1.46103E+02 4.04625E+01 0.00000E+00
 -1      2088 1.44804E+02 3.97250E+01 0.00000E+00
 -1      2089 1.14143E+01 3.29169E+00 0.00000E+00
 -1      2090 9.91425E+00 3.29169E+00 0.00000E+00
 -1      2091 9.74475E+00 4.20106E+00 0.00000E+00
 -1      2092 1.21643E+01 4.59069E+00 0.00000E+00
 -1      2093 1.27932E+02 3.36943E+01 0.00000E+00
 -1      2094 1.28348E+02 3.44750E+01 0.00000E+00
 -1      2095 1.25447E+02 3.09261E+01 0.00000E+00
 -1      2096 1.26145E+02 3.14612E+01 0.00000E+00
 -1      2097 3.89700E+00 3.74688E+01 0.00000E+00
 -1      2098 3.89700E+00 3.89437E+01 0.00000E+00
 -1      2099 5.19600E+00 3.96813E+01 0.00000E+00
 -1      2100 5.19600E+00 3.67438E+01 0.00000E+00
 -1      2101 1.25963E+02 4.67571E+01 0.00000E+00
 -1      2102 1.27238E+02 4.67571E+01 0.00000E+00
 -1      2103 1.23935E+02 2.98473E+01 0.00000E+00
 -1      2104 1.24691E+02 3.03867E+01 0.00000E+00
 -1      2105 1.25460E+02 3.01069E+01 0.00000E+00
 -1      2106 1.21938E+02 2.91830E+01 0.00000E+00
 -1      2107 1.22825E+02 2.93011E+01 0.00000E+00
 -1      2108 1.20198E+02 2.89284E+01 0.00000E+00
 -1      2109 1.21068E+02 2.90557E+01 0.00000E+00
 -1      2110 1.21614E+02 2.83477E+01 0.00000E+00
 -1      2111 1.18196E+02 2.89823E+01 0.00000E+00
 -1      2112 1.19105E+02 2.88781E+01 0.00000E+00
 -1      2113 1.16288E+02 2.97624E+01 0.00000E+00
 -1      2114 1.17085E+02 2.93575E+01 0.00000E+00
 -1      2115 1.14813E+02 3.08469E+01 0.00000E+00
 -1      2116 1.15492E+02 3.03480E+01 0.00000E+00
 -1      2117 1.13499E+02 3.19539E+01 0.00000E+00
 -1      2118 1.14156E+02 3.14004E+01 0.00000E+00
 -1      2119 1.14087E+02 3.05948E+01 0.00000E+00
 -1      2120 1.12241E+02 3.35106E+01 0.00000E+00
 -1      2121 1.12678E+02 3.27523E+01 0.00000E+00
 -1      2122 1.11563E+02 3.50780E+01 0.00000E+00
 -1      2123 1.11902E+02 3.42943E+01 0.00000E+00
 -1      2124 1.11450E+02 3.35287E+01 0.00000E+00
 -1      2125 1.11170E+02 3.70572E+01 0.00000E+00
 -1      2126 1.11218E+02 3.62185E+01 0.00000E+00
 -1      2127 1.11249E+02 3.87015E+01 0.00000E+00
 -1      2128 1.11210E+02 3.78794E+01 0.00000E+00
 -1      2129 1.10461E+02 3.74156E+01 0.00000E+00
 -1      2130 1.11456E+02 4.06112E+01 0.00000E+00
 -1      2131 1.11308E+02 3.97328E+01 0.00000E+00
 -1      2132 1.12467E+02 4.24169E+01 0.00000E+00
 -1      2133 1.11985E+02 4.16505E+01 0.00000E+00
 -1      2134 1.13530E+02 4.39731E+01 0.00000E+00
 -1      2135 1.12994E+02 4.32092E+01 0.00000E+00
 -1      2136 1.15087E+02 4.53838E+01 0.00000E+00
 -1      2137 1.14304E+02 4.48849E+01 0.00000E+00
 -1      2138 1.20478E+02 4.67521E+01 0.00000E+00
 -1      2139 1.19646E+02 4.67880E+01 0.00000E+00
 -1      2140 1.25966E+02 4.49846E+01 0.00000E+00
 -1      2141 1.25327E+02 4.54696E+01 0.00000E+00
 -1      2142 1.26555E+02 4.44441E+01 0.00000E+00
 -1      2143 1.27726E+02 4.24811E+01 0.00000E+00
 -1      2144 1.27276E+02 4.31678E+01 0.00000E+00
 -1      2145 1.28455E+02 4.08695E+01 0.00000E+00
 -1      2146 1.28192E+02 4.16287E+01 0.00000E+00
 -1      2147 1.28873E+02 3.92579E+01 0.00000E+00
 -1      2148 1.28726E+02 4.00211E+01 0.00000E+00
 -1      2149 1.29176E+02 3.75138E+01 0.00000E+00
 -1      2150 1.29025E+02 3.83858E+01 0.00000E+00
 -1      2151 1.29670E+02 3.89059E+01 0.00000E+00
 -1      2152 1.21828E+02 4.70260E+01 0.00000E+00
 -1      2153 1.22656E+02 4.69430E+01 0.00000E+00
 -1      2154 1.30875E+02 4.55644E+01 0.00000E+00
 -1      2155 1.27018E+02 3.13269E+01 0.00000E+00
 -1      2156 1.28285E+02 3.28839E+01 0.00000E+00
 -1      2157 6.34800E+00 4.57510E+01 0.00000E+00
 -1      2158 7.09800E+00 4.44520E+01 0.00000E+00
 -1      2159 1.23414E+02 4.65786E+01 0.00000E+00
 -1      2160 1.24689E+02 4.64948E+01 0.00000E+00
 -1      2161 1.17288E+02 4.68148E+01 0.00000E+00
 -1      2162 1.18761E+02 4.66359E+01 0.00000E+00
 -1      2163 1.30117E+02 3.62126E+01 0.00000E+00
 -1      2164 1.29647E+02 3.68632E+01 0.00000E+00
 -1      2165 1.30292E+02 3.73832E+01 0.00000E+00
 -1      2166 1.29111E+02 3.47264E+01 0.00000E+00
 -1      2167 1.13165E+02 4.65944E+01 0.00000E+00
 -1      2168 1.14515E+02 4.65944E+01 0.00000E+00
 -1      2169 1.16446E+02 4.71596E+01 0.00000E+00
 -1      2170 1.16604E+02 4.62147E+01 0.00000E+00
 -1      2171 1.27988E+02 4.57319E+01 0.00000E+00
 -1      2172 1.46022E+02 4.52274E+01 0.00000E+00
 -1      2173 1.44846E+02 6.72762E+00 0.00000E+00
 -1      2174 1.46130E+02 4.41782E+01 0.00000E+00
 -1      2175 1.45996E+02 4.29867E+01 0.00000E+00
 -1      2176 1.44697E+02 4.22492E+01 0.00000E+00
 -1      2177 1.44482E+02 4.43476E+01 0.00000E+00
 -1      2178 1.15322E+02 4.61913E+01 0.00000E+00
 -1      2179 1.23253E+02 2.81952E+01 0.00000E+00
 -1      2180 1.23594E+02 2.90213E+01 0.00000E+00
 -1      2181 1.24363E+02 2.87415E+01 0.00000E+00
 -1      2182 1.29247E+02 4.06264E+01 0.00000E+00
 -1      2183 1.13506E+02 4.48751E+01 0.00000E+00
 -1      2184 1.12205E+02 4.31711E+01 0.00000E+00
 -1      2185 1.10560E+02 3.92690E+01 0.00000E+00
 -1      2186 1.10767E+02 3.54529E+01 0.00000E+00
 -1      2187 1.12610E+02 3.19466E+01 0.00000E+00
 -1      2188 1.15540E+02 2.94557E+01 0.00000E+00
 -1      2189 1.19650E+02 2.81701E+01 0.00000E+00
 -1      2190 1.17447E+02 2.84950E+01 0.00000E+00
 -1      2191 1.11148E+02 4.13395E+01 0.00000E+00
 -1      2192 1.28509E+02 4.23271E+01 0.00000E+00
 -1      2193 6.49500E+00 3.01125E+01 0.00000E+00
 -1      2194 6.49500E+00 3.15875E+01 0.00000E+00
 -1      2195 6.49500E+00 3.30625E+01 0.00000E+00
 -1      2196 6.49500E+00 3.45375E+01 0.00000E+00
 -1      2197 7.79400E+00 3.23250E+01 0.00000E+00
 -1      2198 6.49500E+00 2.42125E+01 0.00000E+00
 -1      2199 6.49500E+00 2.56875E+01 0.00000E+00
 -1      2200 6.49500E+00 2.12625E+01 0.00000E+00
 -1      2201 6.49500E+00 2.27375E+01 0.00000E+00
 -1      2202 7.79400E+00 2.34750E+01 0.00000E+00
 -1      2203 6.49500E+00 1.83625E+01 0.00000E+00
 -1      2204 6.49500E+00 1.98125E+01 0.00000E+00
 -1      2205 7.79400E+00 2.05500E+01 0.00000E+00
 -1      2206 6.49500E+00 1.54125E+01 0.00000E+00
 -1      2207 6.49500E+00 1.68875E+01 0.00000E+00
 -1      2208 7.79400E+00 1.76250E+01 0.00000E+00
 -1      2209 6.49500E+00 1.24625E+01 0.00000E+00
 -1      2210 6.49500E+00 1.39375E+01 0.00000E+00
 -1      2211 7.79400E+00 1.46750E+01 0.00000E+00
 -1      2212 6.49500E+00 9.51250E+00 0.00000E+00
 -1      2213 6.49500E+00 1.09875E+01 0.00000E+00
 -1      2214 7.79400E+00 1.17250E+01 0.00000E+00
 -1      2215 6.49500E+00 6.56250E+00 0.00000E+00
 -1      2216 6.49500E+00 8.03750E+00 0.00000E+00
 -1      2217 7.79400E+00 8.77500E+00 0.00000E+00
 -1      2218 6.84975E+00 4.82969E+00 0.00000E+00
 -1      2219 6.68025E+00 5.73906E+00 0.00000E+00
 -1      2220 7.97925E+00 6.47656E+00 0.00000E+00
 -1      2221 8.34975E+00 4.82969E+00 0.00000E+00
 -1      2222 9.75000E+00 4.35050E+01 0.00000E+00
 -1      2223 1.12500E+01 4.35050E+01 0.00000E+00
 -1      2224 1.27500E+01 4.35050E+01 0.00000E+00
 -1      2225 1.42500E+01 4.35050E+01 0.00000E+00
 -1      2226 1.20000E+01 4.22060E+01 0.00000E+00
 -1      2227 1.57500E+01 4.35050E+01 0.00000E+00
 -1      2228 1.72500E+01 4.35050E+01 0.00000E+00
 -1      2229 1.50000E+01 4.22060E+01 0.00000E+00
 -1      2230 1.87500E+01 4.35050E+01 0.00000E+00
 -1      2231 2.02500E+01 4.35050E+01 0.00000E+00
 -1      2232 1.80000E+01 4.22060E+01 0.00000E+00
 -1      2233 2.17500E+01 4.35050E+01 0.00000E+00
 -1      2234 2.32500E+01 4.35050E+01 0.00000E+00
 -1      2235 2.10000E+01 4.22060E+01 0.00000E+00
 -1      2236 2.47500E+01 4.35050E+01 0.00000E+00
 -1      2237 2.62500E+01 4.35050E+01 0.00000E+00
 -1      2238 2.40000E+01 4.22060E+01 0.00000E+00
 -1      2239 2.77500E+01 4.35050E+01 0.00000E+00
 -1      2240 2.92500E+01 4.35050E+01 0.00000E+00
 -1      2241 2.70000E+01 4.22060E+01 0.00000E+00
 -1      2242 3.07500E+01 4.35050E+01 0.00000E+00
 -1      2243 3.22500E+01 4.35050E+01 0.00000E+00
 -1      2244 3.00000E+01 4.22060E+01 0.00000E+00
 -1      2245 3.37500E+01 4.35050E+01 0.00000E+00
 -1      2246 3.52500E+01 4.35050E+01 0.00000E+00
 -1      2247 3.30000E+01 4.22060E+01 0.00000E+00
 -1      2248 3.67500E+01 4.35050E+01 0.00000E+00
 -1      2249 3.82500E+01 4.35050E+01 0.00000E+00
 -1      2250 3.60000E+01 4.22060E+01 0.00000E+00
 -1      2251 3.97500E+01 4.35050E+01 0.00000E+00
 -1      2252 4.12500E+01 4.35050E+01 0.00000E+00
 -1      2253 3.90000E+01 4.22060E+01 0.00000E+00
 -1      2254 4.27500E+01 4.35050E+01 0.00000E+00
 -1      2255 4.42500E+01 4.35050E+01 0.00000E+00
 -1      2256 4.20000E+01 4.22060E+01 0.00000E+00
 -1      2257 4.57500E+01 4.35050E+01 0.00000E+00
 -1      2258 4.72500E+01 4.35050E+01 0.00000E+00
 -1      2259 4.50000E+01 4.22060E+01 0.00000E+00
 -1      2260 4.87500E+01 4.35050E+01 0.00000E+00
 -1      2261 5.02500E+01 4.35050E+01 0.00000E+00
 -1      2262 4.80000E+01 4.22060E+01 0.00000E+00
 -1      2263 5.17500E+01 4.35050E+01 0.00000E+00
 -1      2264 5.32500E+01 4.35050E+01 0.00000E+00
 -1      2265 5.10000E+01 4.22060E+01 0.00000E+00
 -1      2266 5.47500E+01 4.35050E+01 0.00000E+00
 -1      2267 5.62500E+01 4.35050E+01 0.00000E+00
 -1      2268 5.40000E+01 4.22060E+01 0.00000E+00
 -1      2269 5.77500E+01 4.35050E+01 0.00000E+00
 -1      2270 5.92500E+01 4.35050E+01 0.00000E+00
 -1      2271 5.70000E+01 4.22060E+01 0.00000E+00
 -1      2272 6.07500E+01 4.35050E+01 0.00000E+00
 -1      2273 6.22500E+01 4.35050E+01 0.00000E+00
 -1      2274 6.00000E+01 4.22060E+01 0.00000E+00
 -1      2275 6.37500E+01 4.35050E+01 0.00000E+00
 -1      2276 6.52500E+01 4.35050E+01 0.00000E+00
 -1      2277 6.30000E+01 4.22060E+01 0.00000E+00
 -1      2278 6.67500E+01 4.35050E+01 0.00000E+00
 -1      2279 6.82500E+01 4.35050E+01 0.00000E+00
 -1      2280 6.60000E+01 4.22060E+01 0.00000E+00
 -1      2281 6.97500E+01 4.35050E+01 0.00000E+00
 -1      2282 7.12500E+01 4.35050E+01 0.00000E+00
 -1      2283 6.90000E+01 4.22060E+01 0.00000E+00
 -1      2284 7.27500E+01 4.35050E+01 0.00000E+00
 -1      2285 7.42500E+01 4.35050E+01 0.00000E+00
 -1      2286 7.20000E+01 4.22060E+01 0.00000E+00
 -1      2287 7.57500E+01 4.35050E+01 0.00000E+00
 -1      2288 7.72500E+01 4.35050E+01 0.00000E+00
 -1      2289 7.50000E+01 4.22060E+01 0.00000E+00
 -1      2290 7.87500E+01 4.35050E+01 0.00000E+00
 -1      2291 8.02500E+01 4.35050E+01 0.00000E+00
 -1      2292 7.80000E+01 4.22060E+01 0.00000E+00
 -1      2293 8.17500E+01 4.35050E+01 0.00000E+00
 -1      2294 8.32500E+01 4.35050E+01 0.00000E+00
 -1      2295 8.10000E+01 4.22060E+01 0.00000E+00
 -1      2296 8.47500E+01 4.35050E+01 0.00000E+00
 -1      2297 8.62500E+01 4.35050E+01 0.00000E+00
 -1      2298 8.40000E+01 4.22060E+01 0.00000E+00
 -1      2299 8.77500E+01 4.35050E+01 0.00000E+00
 -1      2300 8.92500E+01 4.35050E+01 0.00000E+00
 -1      2301 8.70000E+01 4.22060E+01 0.00000E+00
 -1      2302 9.07500E+01 4.35050E+01 0.00000E+00
 -1      2303 9.22500E+01 4.35050E+01 0.00000E+00
 -1      2304 9.00000E+01 4.22060E+01 0.00000E+00
 -1      2305 9.37500E+01 4.35050E+01 0.00000E+00
 -1      2306 9.52500E+01 4.35050E+01 0.00000E+00
 -1      2307 9.30000E+01 4.22060E+01 0.00000E+00
 -1      2308 9.67500E+01 4.35050E+01 0.00000E+00
 -1      2309 9.82500E+01 4.35050E+01 0.00000E+00
 -1      2310 9.60000E+01 4.22060E+01 0.00000E+00
 -1      2311 9.97500E+01 4.35050E+01 0.00000E+00
 -1      2312 1.01250E+02 4.35050E+01 0.00000E+00
 -1      2313 9.90000E+01 4.22060E+01 0.00000E+00
 -1      2314 1.02750E+02 4.35050E+01 0.00000E+00
 -1      2315 1.04250E+02 4.35050E+01 0.00000E+00
 -1      2316 1.02000E+02 4.22060E+01 0.00000E+00
 -1      2317 1.05675E+02 4.35050E+01 0.00000E+00
 -1      2318 1.07100E+02 4.35050E+01 0.00000E+00
 -1      2319 1.04925E+02 4.22060E+01 0.00000E+00
 -1      2320 1.12055E+02 4.62359E+01 0.00000E+00
 -1      2321 1.13170E+02 4.54283E+01 0.00000E+00
 -1      2322 6.52200E+00 4.28890E+01 0.00000E+00
 -1      2323 8.42400E+00 4.32410E+01 0.00000E+00
 -1      2324 9.17400E+00 4.19420E+01 0.00000E+00
 -1      2325 6.52200E+00 4.14140E+01 0.00000E+00
 -1      2326 1.43589E+02 6.81775E+00 0.00000E+00
 -1      2327 1.36125E+02 4.40978E+01 0.00000E+00
 -1      2328 1.37625E+02 4.40978E+01 0.00000E+00
 -1      2329 1.39125E+02 4.40978E+01 0.00000E+00
 -1      2330 1.40625E+02 4.40978E+01 0.00000E+00
 -1      2331 1.38375E+02 4.27988E+01 0.00000E+00
 -1      2332 1.41804E+02 4.42227E+01 0.00000E+00
 -1      2333 1.43304E+02 4.42227E+01 0.00000E+00
 -1      2334 1.43411E+02 4.31735E+01 0.00000E+00
 -1      2335 1.41054E+02 4.29237E+01 0.00000E+00
 -1      2336 2.16240E+01 6.08450E+00 0.00000E+00
 -1      2337 2.01240E+01 6.08450E+00 0.00000E+00
 -1      2338 1.86240E+01 6.08450E+00 0.00000E+00
 -1      2339 1.71240E+01 6.08450E+00 0.00000E+00
 -1      2340 1.93740E+01 7.38350E+00 0.00000E+00
 -1      2341 1.56240E+01 6.08450E+00 0.00000E+00
 -1      2342 1.41240E+01 6.08450E+00 0.00000E+00
 -1      2343 1.63740E+01 7.38350E+00 0.00000E+00
 -1      2344 2.46240E+01 6.08450E+00 0.00000E+00
 -1      2345 2.31240E+01 6.08450E+00 0.00000E+00
 -1      2346 2.23740E+01 7.38350E+00 0.00000E+00
 -1      2347 2.76240E+01 6.08450E+00 0.00000E+00
 -1      2348 2.61240E+01 6.08450E+00 0.00000E+00
 -1      2349 2.53740E+01 7.38350E+00 0.00000E+00
 -1      2350 3.06240E+01 6.08450E+00 0.00000E+00
 -1      2351 2.91240E+01 6.08450E+00 0.00000E+00
 -1      2352 2.83740E+01 7.38350E+00 0.00000E+00
 -1      2353 3.36240E+01 6.08450E+00 0.00000E+00
 -1      2354 3.21240E+01 6.08450E+00 0.00000E+00
 -1      2355 3.13740E+01 7.38350E+00 0.00000E+00
 -1      2356 3.66240E+01 6.08450E+00 0.00000E+00
 -1      2357 3.51240E+01 6.08450E+00 0.00000E+00
 -1      2358 3.43740E+01 7.38350E+00 0.00000E+00
 -1      2359 3.96240E+01 6.08450E+00 0.00000E+00
 -1      2360 3.81240E+01 6.08450E+00 0.00000E+00
 -1      2361 3.73740E+01 7.38350E+00 0.00000E+00
 -1      2362 4.26240E+01 6.08450E+00 0.00000E+00
 -1      2363 4.11240E+01 6.08450E+00 0.00000E+00
 -1      2364 4.03740E+01 7.38350E+00 0.00000E+00
 -1      2365 4.56240E+01 6.08450E+00 0.00000E+00
 -1      2366 4.41240E+01 6.08450E+00 0.00000E+00
 -1      2367 4.33740E+01 7.38350E+00 0.00000E+00
 -1      2368 4.86240E+01 6.08450E+00 0.00000E+00
 -1      2369 4.71240E+01 6.08450E+00 0.00000E+00
 -1      2370 4.63740E+01 7.38350E+00 0.00000E+00
 -1      2371 5.16240E+01 6.08450E+00 0.00000E+00
 -1      2372 5.01240E+01 6.08450E+00 0.00000E+00
 -1      2373 4.93740E+01 7.38350E+00 0.00000E+00
 -1      2374 5.46240E+01 6.08450E+00 0.00000E+00
 -1      2375 5.31240E+01 6.08450E+00 0.00000E+00
 -1      2376 5.23740E+01 7.38350E+00 0.00000E+00
 -1      2377 5.76240E+01 6.08450E+00 0.00000E+00
 -1      2378 5.61240E+01 6.08450E+00 0.00000E+00
 -1      2379 5.53740E+01 7.38350E+00 0.00000E+00
 -1      2380 6.06240E+01 6.08450E+00 0.00000E+00
 -1      2381 5.91240E+01 6.08450E+00 0.00000E+00
 -1      2382 5.83740E+01 7.38350E+00 0.00000E+00
 -1      2383 6.36240E+01 6.08450E+00 0.00000E+00
 -1      2384 6.21240E+01 6.08450E+00 0.00000E+00
 -1      2385 6.13740E+01 7.38350E+00 0.00000E+00
 -1      2386 6.66240E+01 6.08450E+00 0.00000E+00
 -1      2387 6.51240E+01 6.08450E+00 0.00000E+00
 -1      2388 6.43740E+01 7.38350E+00 0.00000E+00
 -1      2389 6.96240E+01 6.08450E+00 0.00000E+00
 -1      2390 6.81240E+01 6.08450E+00 0.00000E+00
 -1      2391 6.73740E+01 7.38350E+00 0.00000E+00
 -1      2392 7.26240E+01 6.08450E+00 0.00000E+00
 -1      2393 7.11240E+01 6.08450E+00 0.00000E+00
 -1      2394 7.03740E+01 7.38350E+00 0.00000E+00
 -1      2395 7.56240E+01 6.08450E+00 0.00000E+00
 -1      2396 7.41240E+01 6.08450E+00 0.00000E+00
 -1      2397 7.33740E+01 7.38350E+00 0.00000E+00
 -1      2398 7.86240E+01 6.08450E+00 0.00000E+00
 -1      2399 7.71240E+01 6.08450E+00 0.00000E+00
 -1      2400 7.63740E+01 7.38350E+00 0.00000E+00
 -1      2401 8.16240E+01 6.08450E+00 0.00000E+00
 -1      2402 8.01240E+01 6.08450E+00 0.00000E+00
 -1      2403 7.93740E+01 7.38350E+00 0.00000E+00
 -1      2404 8.46240E+01 6.08450E+00 0.00000E+00
 -1      2405 8.31240E+01 6.08450E+00 0.00000E+00
 -1      2406 8.23740E+01 7.38350E+00 0.00000E+00
 -1      2407 8.76240E+01 6.08450E+00 0.00000E+00
 -1      2408 8.61240E+01 6.08450E+00 0.00000E+00
 -1      2409 8.53740E+01 7.38350E+00 0.00000E+00
 -1      2410 9.06240E+01 6.08450E+00 0.00000E+00
 -1      2411 8.91240E+01 6.08450E+00 0.00000E+00
 -1      2412 8.83740E+01 7.38350E+00 0.00000E+00
 -1      2413 9.36240E+01 6.08450E+00 0.00000E+00
 -1      2414 9.21240E+01 6.08450E+00 0.00000E+00
 -1      2415 9.13740E+01 7.38350E+00 0.00000E+00
 -1      2416 9.66240E+01 6.08450E+00 0.00000E+00
 -1      2417 9.51240E+01 6.08450E+00 0.00000E+00
 -1      2418 9.43740E+01 7.38350E+00 0.00000E+00
 -1      2419 9.96240E+01 6.08450E+00 0.00000E+00
 -1      2420 9.81240E+01 6.08450E+00 0.00000E+00
 -1      2421 9.73740E+01 7.38350E+00 0.00000E+00
 -1      2422 1.02624E+02 6.08450E+00 0.00000E+00
 -1      2423 1.01124E+02 6.08450E+00 0.00000E+00
 -1      2424 1.00374E+02 7.38350E+00 0.00000E+00
 -1      2425 1.05624E+02 6.08450E+00 0.00000E+00
 -1      2426 1.04124E+02 6.08450E+00 0.00000E+00
 -1      2427 1.03374E+02 7.38350E+00 0.00000E+00
 -1      2428 1.08624E+02 6.08450E+00 0.00000E+00
 -1      2429 1.07124E+02 6.08450E+00 0.00000E+00
 -1      2430 1.06374E+02 7.38350E+00 0.00000E+00
 -1      2431 1.11624E+02 6.08450E+00 0.00000E+00
 -1      2432 1.10124E+02 6.08450E+00 0.00000E+00
 -1      2433 1.09374E+02 7.38350E+00 0.00000E+00
 -1      2434 1.14624E+02 6.08450E+00 0.00000E+00
 -1      2435 1.13124E+02 6.08450E+00 0.00000E+00
 -1      2436 1.12374E+02 7.38350E+00 0.00000E+00
 -1      2437 1.17624E+02 6.08450E+00 0.00000E+00
 -1      2438 1.16124E+02 6.08450E+00 0.00000E+00
 -1      2439 1.15374E+02 7.38350E+00 0.00000E+00
 -1      2440 1.20624E+02 6.08450E+00 0.00000E+00
 -1      2441 1.19124E+02 6.08450E+00 0.00000E+00
 -1      2442 1.18374E+02 7.38350E+00 0.00000E+00
 -1      2443 1.23624E+02 6.08450E+00 0.00000E+00
 -1      2444 1.22124E+02 6.08450E+00 0.00000E+00
 -1      2445 1.21374E+02 7.38350E+00 0.00000E+00
 -1      2446 1.26624E+02 6.08450E+00 0.00000E+00
 -1      2447 1.25124E+02 6.08450E+00 0.00000E+00
 -1      2448 1.24374E+02 7.38350E+00 0.00000E+00
 -1      2449 1.29624E+02 6.08450E+00 0.00000E+00
 -1      2450 1.28124E+02 6.08450E+00 0.00000E+00
 -1      2451 1.27374E+02 7.38350E+00 0.00000E+00
 -1      2452 1.32624E+02 6.08450E+00 0.00000E+00
 -1      2453 1.31124E+02 6.08450E+00 0.00000E+00
 -1      2454 1.30374E+02 7.38350E+00 0.00000E+00
 -1      2455 1.35624E+02 6.08450E+00 0.00000E+00
 -1      2456 1.34124E+02 6.08450E+00 0.00000E+00
 -1      2457 1.33374E+02 7.38350E+00 0.00000E+00
 -1      2458 1.38624E+02 6.08450E+00 0.00000E+00
 -1      2459 1.37124E+02 6.08450E+00 0.00000E+00
 -1      2460 1.36374E+02 7.38350E+00 0.00000E+00
 -1      2461 1.41624E+02 6.08450E+00 0.00000E+00
 -1      2462 1.40124E+02 6.08450E+00 0.00000E+00
 -1      2463 1.39374E+02 7.38350E+00 0.00000E+00
 -1      2464 1.43505E+02 1.69125E+01 0.00000E+00
 -1      2465 1.43505E+02 1.54375E+01 0.00000E+00
 -1      2466 1.43505E+02 1.39875E+01 0.00000E+00
 -1      2467 1.43505E+02 1.25375E+01 0.00000E+00
 -1      2468 1.42206E+02 1.47250E+01 0.00000E+00
 -1      2469 1.43505E+02 1.10625E+01 0.00000E+00
 -1      2470 1.43505E+02 9.58750E+00 0.00000E+00
 -1      2471 1.42206E+02 1.18000E+01 0.00000E+00
 -1      2472 1.43505E+02 1.98625E+01 0.00000E+00
 -1      2473 1.43505E+02 1.83875E+01 0.00000E+00
 -1      2474 1.42206E+02 1.76500E+01 0.00000E+00
 -1      2475 1.43505E+02 2.28125E+01 0.00000E+00
 -1      2476 1.43505E+02 2.13375E+01 0.00000E+00
 -1      2477 1.42206E+02 2.06000E+01 0.00000E+00
 -1      2478 1.43505E+02 2.57625E+01 0.00000E+00
 -1      2479 1.43505E+02 2.42875E+01 0.00000E+00
 -1      2480 1.42206E+02 2.35500E+01 0.00000E+00
 -1      2481 1.43505E+02 2.87125E+01 0.00000E+00
 -1      2482 1.43505E+02 2.72375E+01 0.00000E+00
 -1      2483 1.42206E+02 2.65000E+01 0.00000E+00
 -1      2484 1.43505E+02 3.16125E+01 0.00000E+00
 -1      2485 1.43505E+02 3.01625E+01 0.00000E+00
 -1      2486 1.42206E+02 2.94250E+01 0.00000E+00
 -1      2487 1.43505E+02 3.45625E+01 0.00000E+00
 -1      2488 1.43505E+02 3.30875E+01 0.00000E+00
 -1      2489 1.42206E+02 3.23500E+01 0.00000E+00
 -1      2490 1.43505E+02 3.75125E+01 0.00000E+00
 -1      2491 1.43505E+02 3.60375E+01 0.00000E+00
 -1      2492 1.42206E+02 3.53000E+01 0.00000E+00
 -1      2493 1.43505E+02 4.04625E+01 0.00000E+00
 -1      2494 1.43505E+02 3.89875E+01 0.00000E+00
 -1      2495 1.42206E+02 3.82500E+01 0.00000E+00
 -1      2496 1.28736E+02 3.20833E+01 0.00000E+00
 -1      2497 1.29201E+02 3.29597E+01 0.00000E+00
 -1      2498 1.29655E+02 3.39722E+01 0.00000E+00
 -1      2499 1.30016E+02 3.49383E+01 0.00000E+00
 -1      2500 1.27322E+02 4.44557E+01 0.00000E+00
 -1      2501 1.14634E+02 2.90577E+01 0.00000E+00
 -1      2502 1.15430E+02 2.84721E+01 0.00000E+00
 -1      2503 1.33125E+02 4.40978E+01 0.00000E+00
 -1      2504 1.34625E+02 4.40978E+01 0.00000E+00
 -1      2505 1.35375E+02 4.27988E+01 0.00000E+00
 -1      2506 1.27145E+02 3.03647E+01 0.00000E+00
 -1      2507 1.27947E+02 3.10454E+01 0.00000E+00
 -1      2508 6.49500E+00 2.71625E+01 0.00000E+00
 -1      2509 6.49500E+00 2.86375E+01 0.00000E+00
 -1      2510 7.79400E+00 2.93750E+01 0.00000E+00
 -1      2511 7.79400E+00 2.64250E+01 0.00000E+00
 -1      2512 1.42839E+02 8.11675E+00 0.00000E+00
 -1      2513 1.30120E+02 4.04380E+01 0.00000E+00
 -1      2514 1.29848E+02 4.12864E+01 0.00000E+00
 -1      2515 1.25580E+02 2.91391E+01 0.00000E+00
 -1      2516 1.26336E+02 2.96785E+01 0.00000E+00
 -1      2517 1.16657E+02 2.79892E+01 0.00000E+00
 -1      2518 1.17768E+02 2.76140E+01 0.00000E+00
 -1      2519 1.21297E+02 2.74770E+01 0.00000E+00
 -1      2520 1.22167E+02 2.76043E+01 0.00000E+00
 -1      2521 1.10649E+02 4.22483E+01 0.00000E+00
 -1      2522 1.10119E+02 4.12090E+01 0.00000E+00
 -1      2523 1.19110E+02 2.73764E+01 0.00000E+00
 -1      2524 1.20204E+02 2.74267E+01 0.00000E+00
 -1      2525 1.20757E+02 2.66833E+01 0.00000E+00
 -1      2526 1.13320E+02 3.01647E+01 0.00000E+00
 -1      2527 1.13977E+02 2.96112E+01 0.00000E+00
 -1      2528 1.13867E+02 2.86277E+01 0.00000E+00
 -1      2529 1.11631E+02 3.17612E+01 0.00000E+00
 -1      2530 1.12451E+02 3.09629E+01 0.00000E+00
 -1      2531 1.10532E+02 3.35968E+01 0.00000E+00
 -1      2532 1.10871E+02 3.28130E+01 0.00000E+00
 -1      2533 1.09854E+02 3.57992E+01 0.00000E+00
 -1      2534 1.10198E+02 3.46587E+01 0.00000E+00
 -1      2535 1.09792E+02 3.78597E+01 0.00000E+00
 -1      2536 1.09752E+02 3.70376E+01 0.00000E+00
 -1      2537 1.29348E+02 4.22320E+01 0.00000E+00
 -1      2538 1.28882E+02 4.30844E+01 0.00000E+00
 -1      2539 1.09910E+02 3.99222E+01 0.00000E+00
 -1      2540 1.09851E+02 3.88910E+01 0.00000E+00
 -1      2541 1.09142E+02 3.85130E+01 0.00000E+00
 -1      2542 1.11641E+02 4.43837E+01 0.00000E+00
 -1      2543 1.11114E+02 4.35914E+01 0.00000E+00
 -1      2544 1.15828E+02 4.57701E+01 0.00000E+00
 -1      2545 1.28709E+02 4.44557E+01 0.00000E+00
 -1      2546 1.30508E+02 3.86021E+01 0.00000E+00
 -1      2547 1.30357E+02 3.94742E+01 0.00000E+00
 -1      2548 1.10085E+02 4.34609E+01 0.00000E+00
 -1      2549 1.29548E+02 4.43606E+01 0.00000E+00
 -1      2550 7.79400E+00 3.52687E+01 0.00000E+00
 -1      2551 6.49500E+00 3.60062E+01 0.00000E+00
 -1      2552 6.49500E+00 3.74750E+01 0.00000E+00
 -1      2553 9.55950E+00 5.02450E+00 0.00000E+00
 -1      2554 9.37425E+00 5.84794E+00 0.00000E+00
 -1      2555 1.07692E+01 5.21931E+00 0.00000E+00
 -1      2556 1.30661E+02 3.54584E+01 0.00000E+00
 -1      2557 1.31306E+02 3.59784E+01 0.00000E+00
 -1      2558 1.31205E+02 3.47041E+01 0.00000E+00
 -1      2559 1.31449E+02 3.73010E+01 0.00000E+00
 -1      2560 1.30979E+02 3.79515E+01 0.00000E+00
 -1      2561 1.31665E+02 3.85199E+01 0.00000E+00
 -1      2562 1.08735E+02 4.34609E+01 0.00000E+00
 -1      2563 1.09410E+02 4.08310E+01 0.00000E+00
 -1      2564 1.28863E+02 3.11212E+01 0.00000E+00
 -1      2565 1.41540E+02 8.85425E+00 0.00000E+00
 -1      2566 1.30221E+02 4.20436E+01 0.00000E+00
 -1      2567 1.43518E+02 4.21243E+01 0.00000E+00
 -1      2568 1.30106E+02 3.31716E+01 0.00000E+00
 -1      2569 1.42219E+02 4.13868E+01 0.00000E+00
 -1      2570 1.30515E+01 5.74931E+00 0.00000E+00
 -1      2571 1.18418E+01 5.55450E+00 0.00000E+00
 -1      2572 1.16565E+01 6.37794E+00 0.00000E+00
 -1      2573 1.38015E+01 7.04831E+00 0.00000E+00
 -1      2574 1.22936E+02 2.73245E+01 0.00000E+00
 -1      2575 1.09184E+02 3.62434E+01 0.00000E+00
 -1      2576 6.50850E+00 3.87101E+01 0.00000E+00
 -1      2577 6.50850E+00 4.01789E+01 0.00000E+00
 -1      2578 7.83450E+00 4.04429E+01 0.00000E+00
 -1      2579 7.80750E+00 3.79726E+01 0.00000E+00
 -1      2580 1.30958E+02 4.01342E+01 0.00000E+00
 -1      2581 1.09619E+02 3.39431E+01 0.00000E+00
 -1      2582 1.12341E+02 2.99793E+01 0.00000E+00
 -1      2583 1.25239E+02 2.83131E+01 0.00000E+00
 -1      2584 1.18321E+02 2.68706E+01 0.00000E+00
 -1      2585 1.18874E+02 2.61272E+01 0.00000E+00
 -1      2586 1.17531E+02 2.63648E+01 0.00000E+00
 -1      2587 1.31548E+02 4.32474E+01 0.00000E+00
 -1      2588 1.32298E+02 4.19484E+01 0.00000E+00
 -1      2589 1.27265E+02 2.93970E+01 0.00000E+00
 -1      2590 1.15751E+02 2.75912E+01 0.00000E+00
 -1      2591 1.10713E+02 3.18293E+01 0.00000E+00
 -1      2592 1.15256E+02 4.69808E+01 0.00000E+00
 -1      2593 9.09300E+00 1.98250E+01 0.00000E+00
 -1      2594 9.09300E+00 2.12750E+01 0.00000E+00
 -1      2595 9.09300E+00 2.27500E+01 0.00000E+00
 -1      2596 9.09300E+00 2.42250E+01 0.00000E+00
 -1      2597 1.03920E+01 2.20250E+01 0.00000E+00
 -1      2598 9.09300E+00 1.39375E+01 0.00000E+00
 -1      2599 9.09300E+00 1.54125E+01 0.00000E+00
 -1      2600 9.09300E+00 1.09875E+01 0.00000E+00
 -1      2601 9.09300E+00 1.24625E+01 0.00000E+00
 -1      2602 1.03920E+01 1.32000E+01 0.00000E+00
 -1      2603 9.18900E+00 6.67137E+00 0.00000E+00
 -1      2604 9.00375E+00 7.49481E+00 0.00000E+00
 -1      2605 1.03988E+01 6.86619E+00 0.00000E+00
 -1      2606 1.37625E+02 4.16061E+01 0.00000E+00
 -1      2607 1.39125E+02 4.16061E+01 0.00000E+00
 -1      2608 1.12500E+01 4.09070E+01 0.00000E+00
 -1      2609 1.27500E+01 4.09070E+01 0.00000E+00
 -1      2610 1.12396E+02 4.45165E+01 0.00000E+00
 -1      2611 1.11305E+02 4.49369E+01 0.00000E+00
 -1      2612 1.42500E+01 4.09070E+01 0.00000E+00
 -1      2613 1.57500E+01 4.09070E+01 0.00000E+00
 -1      2614 1.35000E+01 3.96080E+01 0.00000E+00
 -1      2615 1.72500E+01 4.09070E+01 0.00000E+00
 -1      2616 1.87500E+01 4.09070E+01 0.00000E+00
 -1      2617 1.65000E+01 3.96080E+01 0.00000E+00
 -1      2618 2.02500E+01 4.09070E+01 0.00000E+00
 -1      2619 2.17500E+01 4.09070E+01 0.00000E+00
 -1      2620 1.95000E+01 3.96080E+01 0.00000E+00
 -1      2621 2.32500E+01 4.09070E+01 0.00000E+00
 -1      2622 2.47500E+01 4.09070E+01 0.00000E+00
 -1      2623 2.25000E+01 3.96080E+01 0.00000E+00
 -1      2624 2.62500E+01 4.09070E+01 0.00000E+00
 -1      2625 2.77500E+01 4.09070E+01 0.00000E+00
 -1      2626 2.55000E+01 3.96080E+01 0.00000E+00
 -1      2627 2.92500E+01 4.09070E+01 0.00000E+00
 -1      2628 3.07500E+01 4.09070E+01 0.00000E+00
 -1      2629 2.85000E+01 3.96080E+01 0.00000E+00
 -1      2630 3.22500E+01 4.09070E+01 0.00000E+00
 -1      2631 3.37500E+01 4.09070E+01 0.00000E+00
 -1      2632 3.15000E+01 3.96080E+01 0.00000E+00
 -1      2633 3.52500E+01 4.09070E+01 0.00000E+00
 -1      2634 3.67500E+01 4.09070E+01 0.00000E+00
 -1      2635 3.45000E+01 3.96080E+01 0.00000E+00
 -1      2636 3.82500E+01 4.09070E+01 0.00000E+00
 -1      2637 3.97500E+01 4.09070E+01 0.00000E+00
 -1      2638 3.75000E+01 3.96080E+01 0.00000E+00
 -1      2639 4.12500E+01 4.09070E+01 0.00000E+00
 -1      2640 4.27500E+01 4.09070E+01 0.00000E+00
 -1      2641 4.05000E+01 3.96080E+01 0.00000E+00
 -1      2642 4.42500E+01 4.09070E+01 0.00000E+00
 -1      2643 4.57500E+01 4.09070E+01 0.00000E+00
 -1      2644 4.35000E+01 3.96080E+01 0.00000E+00
 -1      2645 4.72500E+01 4.09070E+01 0.00000E+00
 -1      2646 4.87500E+01 4.09070E+01 0.00000E+00
 -1      2647 4.65000E+01 3.96080E+01 0.00000E+00
 -1      2648 5.02500E+01 4.09070E+01 0.00000E+00
 -1      2649 5.17500E+01 4.09070E+01 0.00000E+00
 -1      2650 4.95000E+01 3.96080E+01 0.00000E+00
 -1      2651 5.32500E+01 4.09070E+01 0.00000E+00
 -1      2652 5.47500E+01 4.09070E+01 0.00000E+00
 -1      2653 5.25000E+01 3.96080E+01 0.00000E+00
 -1      2654 5.62500E+01 4.09070E+01 0.00000E+00
 -1      2655 5.77500E+01 4.09070E+01 0.00000E+00
 -1      2656 5.55000E+01 3.96080E+01 0.00000E+00
 -1      2657 5.92500E+01 4.09070E+01 0.00000E+00
 -1      2658 6.07500E+01 4.09070E+01 0.00000E+00
 -1      2659 5.85000E+01 3.96080E+01 0.00000E+00
 -1      2660 6.22500E+01 4.09070E+01 0.00000E+00
 -1      2661 6.37500E+01 4.09070E+01 0.00000E+00
 -1      2662 6.15000E+01 3.96080E+01 0.00000E+00
 -1      2663 6.52500E+01 4.09070E+01 0.00000E+00
 -1      2664 6.67500E+01 4.09070E+01 0.00000E+00
 -1      2665 6.45000E+01 3.96080E+01 0.00000E+00
 -1      2666 6.82500E+01 4.09070E+01 0.00000E+00
 -1      2667 6.97500E+01 4.09070E+01 0.00000E+00
 -1      2668 6.75000E+01 3.96080E+01 0.00000E+00
 -1      2669 7.12500E+01 4.09070E+01 0.00000E+00
 -1      2670 7.27500E+01 4.09070E+01 0.00000E+00
 -1      2671 7.05000E+01 3.96080E+01 0.00000E+00
 -1      2672 7.42500E+01 4.09070E+01 0.00000E+00
 -1      2673 7.57500E+01 4.09070E+01 0.00000E+00
 -1      2674 7.35000E+01 3.96080E+01 0.00000E+00
 -1      2675 7.72500E+01 4.09070E+01 0.00000E+00
 -1      2676 7.87500E+01 4.09070E+01 0.00000E+00
 -1      2677 7.65000E+01 3.96080E+01 0.00000E+00
 -1      2678 8.02500E+01 4.09070E+01 0.00000E+00
 -1      2679 8.17500E+01 4.09070E+01 0.00000E+00
 -1      2680 7.95000E+01 3.96080E+01 0.00000E+00
 -1      2681 8.32500E+01 4.09070E+01 0.00000E+00
 -1      2682 8.47500E+01 4.09070E+01 0.00000E+00
 -1      2683 8.25000E+01 3.96080E+01 0.00000E+00
 -1      2684 8.62500E+01 4.09070E+01 0.00000E+00
 -1      2685 8.77500E+01 4.09070E+01 0.00000E+00
 -1      2686 8.55000E+01 3.96080E+01 0.00000E+00
 -1      2687 8.92500E+01 4.09070E+01 0.00000E+00
 -1      2688 9.07500E+01 4.09070E+01 0.00000E+00
 -1      2689 8.85000E+01 3.96080E+01 0.00000E+00
 -1      2690 9.22500E+01 4.09070E+01 0.00000E+00
 -1      2691 9.37500E+01 4.09070E+01 0.00000E+00
 -1      2692 9.15000E+01 3.96080E+01 0.00000E+00
 -1      2693 9.52500E+01 4.09070E+01 0.00000E+00
 -1      2694 9.67500E+01 4.09070E+01 0.00000E+00
 -1      2695 9.45000E+01 3.96080E+01 0.00000E+00
 -1      2696 9.82500E+01 4.09070E+01 0.00000E+00
 -1      2697 9.97500E+01 4.09070E+01 0.00000E+00
 -1      2698 9.75000E+01 3.96080E+01 0.00000E+00
 -1      2699 1.01250E+02 4.09070E+01 0.00000E+00
 -1      2700 1.02750E+02 4.09070E+01 0.00000E+00
 -1      2701 1.00500E+02 3.96080E+01 0.00000E+00
 -1      2702 1.04175E+02 4.09070E+01 0.00000E+00
 -1      2703 1.05600E+02 4.09070E+01 0.00000E+00
 -1      2704 1.03425E+02 3.96080E+01 0.00000E+00
 -1      2705 8.87925E+00 4.05429E+01 0.00000E+00
 -1      2706 1.02052E+01 4.08069E+01 0.00000E+00
 -1      2707 1.09552E+01 3.95079E+01 0.00000E+00
 -1      2708 8.86575E+00 3.93078E+01 0.00000E+00
 -1      2709 1.40907E+02 1.54500E+01 0.00000E+00
 -1      2710 1.40907E+02 1.40000E+01 0.00000E+00
 -1      2711 1.22803E+02 2.62758E+01 0.00000E+00
 -1      2712 1.23889E+02 2.68668E+01 0.00000E+00
 -1      2713 1.41040E+02 4.12619E+01 0.00000E+00
 -1      2714 2.01240E+01 8.68250E+00 0.00000E+00
 -1      2715 1.86240E+01 8.68250E+00 0.00000E+00
 -1      2716 2.31240E+01 8.68250E+00 0.00000E+00
 -1      2717 2.16240E+01 8.68250E+00 0.00000E+00
 -1      2718 2.08740E+01 9.98150E+00 0.00000E+00
 -1      2719 1.71240E+01 8.68250E+00 0.00000E+00
 -1      2720 1.56240E+01 8.68250E+00 0.00000E+00
 -1      2721 1.78740E+01 9.98150E+00 0.00000E+00
 -1      2722 2.91240E+01 8.68250E+00 0.00000E+00
 -1      2723 2.76240E+01 8.68250E+00 0.00000E+00
 -1      2724 3.21240E+01 8.68250E+00 0.00000E+00
 -1      2725 3.06240E+01 8.68250E+00 0.00000E+00
 -1      2726 2.98740E+01 9.98150E+00 0.00000E+00
 -1      2727 3.51240E+01 8.68250E+00 0.00000E+00
 -1      2728 3.36240E+01 8.68250E+00 0.00000E+00
 -1      2729 3.28740E+01 9.98150E+00 0.00000E+00
 -1      2730 3.81240E+01 8.68250E+00 0.00000E+00
 -1      2731 3.66240E+01 8.68250E+00 0.00000E+00
 -1      2732 3.58740E+01 9.98150E+00 0.00000E+00
 -1      2733 4.11240E+01 8.68250E+00 0.00000E+00
 -1      2734 3.96240E+01 8.68250E+00 0.00000E+00
 -1      2735 3.88740E+01 9.98150E+00 0.00000E+00
 -1      2736 4.41240E+01 8.68250E+00 0.00000E+00
 -1      2737 4.26240E+01 8.68250E+00 0.00000E+00
 -1      2738 4.18740E+01 9.98150E+00 0.00000E+00
 -1      2739 4.71240E+01 8.68250E+00 0.00000E+00
 -1      2740 4.56240E+01 8.68250E+00 0.00000E+00
 -1      2741 4.48740E+01 9.98150E+00 0.00000E+00
 -1      2742 5.01240E+01 8.68250E+00 0.00000E+00
 -1      2743 4.86240E+01 8.68250E+00 0.00000E+00
 -1      2744 4.78740E+01 9.98150E+00 0.00000E+00
 -1      2745 5.31240E+01 8.68250E+00 0.00000E+00
 -1      2746 5.16240E+01 8.68250E+00 0.00000E+00
 -1      2747 5.08740E+01 9.98150E+00 0.00000E+00
 -1      2748 5.61240E+01 8.68250E+00 0.00000E+00
 -1      2749 5.46240E+01 8.68250E+00 0.00000E+00
 -1      2750 5.38740E+01 9.98150E+00 0.00000E+00
 -1      2751 5.91240E+01 8.68250E+00 0.00000E+00
 -1      2752 5.76240E+01 8.68250E+00 0.00000E+00
 -1      2753 5.68740E+01 9.98150E+00 0.00000E+00
 -1      2754 6.21240E+01 8.68250E+00 0.00000E+00
 -1      2755 6.06240E+01 8.68250E+00 0.00000E+00
 -1      2756 5.98740E+01 9.98150E+00 0.00000E+00
 -1      2757 6.51240E+01 8.68250E+00 0.00000E+00
 -1      2758 6.36240E+01 8.68250E+00 0.00000E+00
 -1      2759 6.28740E+01 9.98150E+00 0.00000E+00
 -1      2760 6.81240E+01 8.68250E+00 0.00000E+00
 -1      2761 6.66240E+01 8.68250E+00 0.00000E+00
 -1      2762 6.58740E+01 9.98150E+00 0.00000E+00
 -1      2763 7.11240E+01 8.68250E+00 0.00000E+00
 -1      2764 6.96240E+01 8.68250E+00 0.00000E+00
 -1      2765 6.88740E+01 9.98150E+00 0.00000E+00
 -1      2766 7.41240E+01 8.68250E+00 0.00000E+00
 -1      2767 7.26240E+01 8.68250E+00 0.00000E+00
 -1      2768 7.18740E+01 9.98150E+00 0.00000E+00
 -1      2769 7.71240E+01 8.68250E+00 0.00000E+00
 -1      2770 7.56240E+01 8.68250E+00 0.00000E+00
 -1      2771 7.48740E+01 9.98150E+00 0.00000E+00
 -1      2772 8.01240E+01 8.68250E+00 0.00000E+00
 -1      2773 7.86240E+01 8.68250E+00 0.00000E+00
 -1      2774 7.78740E+01 9.98150E+00 0.00000E+00
 -1      2775 8.31240E+01 8.68250E+00 0.00000E+00
 -1      2776 8.16240E+01 8.68250E+00 0.00000E+00
 -1      2777 8.08740E+01 9.98150E+00 0.00000E+00
 -1      2778 8.61240E+01 8.68250E+00 0.00000E+00
 -1      2779 8.46240E+01 8.68250E+00 0.00000E+00
 -1      2780 8.38740E+01 9.98150E+00 0.00000E+00
 -1      2781 8.91240E+01 8.68250E+00 0.00000E+00
 -1      2782 8.76240E+01 8.68250E+00 0.00000E+00
 -1      2783 8.68740E+01 9.98150E+00 0.00000E+00
 -1      2784 9.21240E+01 8.68250E+00 0.00000E+00
 -1      2785 9.06240E+01 8.68250E+00 0.00000E+00
 -1      2786 8.98740E+01 9.98150E+00 0.00000E+00
 -1      2787 9.51240E+01 8.68250E+00 0.00000E+00
 -1      2788 9.36240E+01 8.68250E+00 0.00000E+00
 -1      2789 9.28740E+01 9.98150E+00 0.00000E+00
 -1      2790 9.81240E+01 8.68250E+00 0.00000E+00
 -1      2791 9.66240E+01 8.68250E+00 0.00000E+00
 -1      2792 9.58740E+01 9.98150E+00 0.00000E+00
 -1      2793 1.01124E+02 8.68250E+00 0.00000E+00
 -1      2794 9.96240E+01 8.68250E+00 0.00000E+00
 -1      2795 9.88740E+01 9.98150E+00 0.00000E+00
 -1      2796 1.04124E+02 8.68250E+00 0.00000E+00
 -1      2797 1.02624E+02 8.68250E+00 0.00000E+00
 -1      2798 1.01874E+02 9.98150E+00 0.00000E+00
 -1      2799 1.07124E+02 8.68250E+00 0.00000E+00
 -1      2800 1.05624E+02 8.68250E+00 0.00000E+00
 -1      2801 1.04874E+02 9.98150E+00 0.00000E+00
 -1      2802 1.10124E+02 8.68250E+00 0.00000E+00
 -1      2803 1.08624E+02 8.68250E+00 0.00000E+00
 -1      2804 1.07874E+02 9.98150E+00 0.00000E+00
 -1      2805 1.13124E+02 8.68250E+00 0.00000E+00
 -1      2806 1.11624E+02 8.68250E+00 0.00000E+00
 -1      2807 1.10874E+02 9.98150E+00 0.00000E+00
 -1      2808 1.16124E+02 8.68250E+00 0.00000E+00
 -1      2809 1.14624E+02 8.68250E+00 0.00000E+00
 -1      2810 1.13874E+02 9.98150E+00 0.00000E+00
 -1      2811 1.19124E+02 8.68250E+00 0.00000E+00
 -1      2812 1.17624E+02 8.68250E+00 0.00000E+00
 -1      2813 1.16874E+02 9.98150E+00 0.00000E+00
 -1      2814 1.22124E+02 8.68250E+00 0.00000E+00
 -1      2815 1.20624E+02 8.68250E+00 0.00000E+00
 -1      2816 1.19874E+02 9.98150E+00 0.00000E+00
 -1      2817 1.25124E+02 8.68250E+00 0.00000E+00
 -1      2818 1.23624E+02 8.68250E+00 0.00000E+00
 -1      2819 1.22874E+02 9.98150E+00 0.00000E+00
 -1      2820 1.28124E+02 8.68250E+00 0.00000E+00
 -1      2821 1.26624E+02 8.68250E+00 0.00000E+00
 -1      2822 1.25874E+02 9.98150E+00 0.00000E+00
 -1      2823 1.31124E+02 8.68250E+00 0.00000E+00
 -1      2824 1.29624E+02 8.68250E+00 0.00000E+00
 -1      2825 1.28874E+02 9.98150E+00 0.00000E+00
 -1      2826 1.34124E+02 8.68250E+00 0.00000E+00
 -1      2827 1.32624E+02 8.68250E+00 0.00000E+00
 -1      2828 1.31874E+02 9.98150E+00 0.00000E+00
 -1      2829 1.37124E+02 8.68250E+00 0.00000E+00
 -1      2830 1.35624E+02 8.68250E+00 0.00000E+00
 -1      2831 1.34874E+02 9.98150E+00 0.00000E+00
 -1      2832 1.40082E+02 8.76838E+00 0.00000E+00
 -1      2833 1.38582E+02 8.76838E+00 0.00000E+00
 -1      2834 1.37832E+02 1.00674E+01 0.00000E+00
 -1      2835 1.40748E+02 1.02391E+01 0.00000E+00
 -1      2836 1.40907E+02 2.13375E+01 0.00000E+00
 -1      2837 1.40907E+02 1.98625E+01 0.00000E+00
 -1      2838 1.30814E+02 3.22459E+01 0.00000E+00
 -1      2839 1.31268E+02 3.32584E+01 0.00000E+00
 -1      2840 1.40907E+02 1.83937E+01 0.00000E+00
 -1      2841 1.40907E+02 1.69188E+01 0.00000E+00
 -1      2842 1.39608E+02 1.61938E+01 0.00000E+00
 -1      2843 1.39608E+02 1.91313E+01 0.00000E+00
 -1      2844 1.40827E+02 1.28571E+01 0.00000E+00
 -1      2845 1.40827E+02 1.13821E+01 0.00000E+00
 -1      2846 1.39370E+02 1.12962E+01 0.00000E+00
 -1      2847 1.39529E+02 1.35821E+01 0.00000E+00
 -1      2848 1.40907E+02 2.42875E+01 0.00000E+00
 -1      2849 1.40907E+02 2.28125E+01 0.00000E+00
 -1      2850 1.39608E+02 2.20750E+01 0.00000E+00
 -1      2851 2.61240E+01 8.68250E+00 0.00000E+00
 -1      2852 2.46240E+01 8.68250E+00 0.00000E+00
 -1      2853 2.38740E+01 9.98150E+00 0.00000E+00
 -1      2854 2.68740E+01 9.98150E+00 0.00000E+00
 -1      2855 1.40907E+02 2.72375E+01 0.00000E+00
 -1      2856 1.40907E+02 2.57625E+01 0.00000E+00
 -1      2857 1.39608E+02 2.50250E+01 0.00000E+00
 -1      2858 1.40907E+02 3.01375E+01 0.00000E+00
 -1      2859 1.40907E+02 2.86875E+01 0.00000E+00
 -1      2860 1.39608E+02 2.79500E+01 0.00000E+00
 -1      2861 1.40907E+02 3.30875E+01 0.00000E+00
 -1      2862 1.40907E+02 3.16125E+01 0.00000E+00
 -1      2863 1.39608E+02 3.08750E+01 0.00000E+00
 -1      2864 1.40907E+02 3.60375E+01 0.00000E+00
 -1      2865 1.40907E+02 3.45625E+01 0.00000E+00
 -1      2866 1.39608E+02 3.38250E+01 0.00000E+00
 -1      2867 1.30443E+02 4.37768E+01 0.00000E+00
 -1      2868 1.30271E+02 4.51481E+01 0.00000E+00
 -1      2869 1.12932E+02 2.81845E+01 0.00000E+00
 -1      2870 1.13589E+02 2.76310E+01 0.00000E+00
 -1      2871 1.27578E+02 2.82083E+01 0.00000E+00
 -1      2872 1.28387E+02 2.88946E+01 0.00000E+00
 -1      2873 1.34625E+02 4.16061E+01 0.00000E+00
 -1      2874 1.36125E+02 4.16061E+01 0.00000E+00
 -1      2875 1.36875E+02 4.04134E+01 0.00000E+00
 -1      2876 1.08714E+02 3.42419E+01 0.00000E+00
 -1      2877 1.09048E+02 3.31800E+01 0.00000E+00
 -1      2878 1.14793E+02 2.69567E+01 0.00000E+00
 -1      2879 1.16020E+02 2.64737E+01 0.00000E+00
 -1      2880 1.32003E+02 4.04450E+01 0.00000E+00
 -1      2881 1.33580E+02 4.12954E+01 0.00000E+00
 -1      2882 1.34330E+02 4.01027E+01 0.00000E+00
 -1      2883 1.32240E+02 3.94812E+01 0.00000E+00
 -1      2884 1.08279E+02 3.67927E+01 0.00000E+00
 -1      2885 1.08380E+02 3.55544E+01 0.00000E+00
 -1      2886 1.29351E+02 2.99311E+01 0.00000E+00
 -1      2887 1.30140E+02 3.09690E+01 0.00000E+00
 -1      2888 9.09300E+00 1.68813E+01 0.00000E+00
 -1      2889 9.09300E+00 1.83563E+01 0.00000E+00
 -1      2890 1.03920E+01 1.90812E+01 0.00000E+00
 -1      2891 1.03920E+01 1.61437E+01 0.00000E+00
 -1      2892 1.20257E+02 2.56341E+01 0.00000E+00
 -1      2893 1.21350E+02 2.56844E+01 0.00000E+00
 -1      2894 1.25106E+02 2.72644E+01 0.00000E+00
 -1      2895 1.26323E+02 2.76621E+01 0.00000E+00
 -1      2896 1.24973E+02 2.62157E+01 0.00000E+00
 -1      2897 1.11194E+02 2.97809E+01 0.00000E+00
 -1      2898 1.12063E+02 2.89827E+01 0.00000E+00
 -1      2899 1.11785E+02 2.79861E+01 0.00000E+00
 -1      2900 9.09300E+00 3.15875E+01 0.00000E+00
 -1      2901 9.09300E+00 3.30625E+01 0.00000E+00
 -1      2902 1.08232E+02 3.90824E+01 0.00000E+00
 -1      2903 1.08173E+02 3.80512E+01 0.00000E+00
 -1      2904 1.07985E+02 4.21619E+01 0.00000E+00
 -1      2905 1.09570E+02 3.18041E+01 0.00000E+00
 -1      2906 1.10329E+02 3.07523E+01 0.00000E+00
 -1      2907 1.40290E+02 4.00692E+01 0.00000E+00
 -1      2908 1.03920E+01 2.49750E+01 0.00000E+00
 -1      2909 9.09300E+00 2.57000E+01 0.00000E+00
 -1      2910 9.09300E+00 2.71750E+01 0.00000E+00
 -1      2911 9.00375E+00 8.96981E+00 0.00000E+00
 -1      2912 1.08665E+02 3.21030E+01 0.00000E+00
 -1      2913 1.31914E+02 3.37784E+01 0.00000E+00
 -1      2914 1.32559E+02 3.42984E+01 0.00000E+00
 -1      2915 1.32622E+02 3.28527E+01 0.00000E+00
 -1      2916 1.13858E+02 2.65136E+01 0.00000E+00
 -1      2917 1.31993E+02 3.65467E+01 0.00000E+00
 -1      2918 1.32680E+02 3.71151E+01 0.00000E+00
 -1      2919 1.32537E+02 3.57925E+01 0.00000E+00
 -1      2920 1.22303E+02 2.52266E+01 0.00000E+00
 -1      2921 1.48740E+01 9.98151E+00 0.00000E+00
 -1      2922 1.41240E+01 8.68251E+00 0.00000E+00
 -1      2923 1.31303E+02 3.10558E+01 0.00000E+00
 -1      2924 1.07368E+02 3.73621E+01 0.00000E+00
 -1      2925 1.27445E+02 2.71596E+01 0.00000E+00
 -1      2926 1.03920E+01 3.37938E+01 0.00000E+00
 -1      2927 9.09300E+00 3.45313E+01 0.00000E+00
 -1      2928 9.09300E+00 3.60000E+01 0.00000E+00
 -1      2929 1.40930E+02 3.89875E+01 0.00000E+00
 -1      2930 1.40930E+02 3.75125E+01 0.00000E+00
 -1      2931 1.30515E+01 8.34733E+00 0.00000E+00
 -1      2932 1.32710E+02 3.88306E+01 0.00000E+00
 -1      2933 1.16573E+02 2.57303E+01 0.00000E+00
 -1      2934 1.17126E+02 2.49869E+01 0.00000E+00
 -1      2935 1.15615E+02 2.50959E+01 0.00000E+00
 -1      2936 1.29664E+02 2.87424E+01 0.00000E+00
 -1      2937 1.03027E+01 9.70731E+00 0.00000E+00
 -1      2938 1.07809E+02 3.47913E+01 0.00000E+00
 -1      2939 9.09300E+00 2.86437E+01 0.00000E+00
 -1      2940 9.09300E+00 3.01187E+01 0.00000E+00
 -1      2941 1.03920E+01 3.08563E+01 0.00000E+00
 -1      2942 1.03920E+01 2.79188E+01 0.00000E+00
 -1      2943 1.39631E+02 3.67750E+01 0.00000E+00
 -1      2944 1.10051E+02 2.97557E+01 0.00000E+00
 -1      2945 1.39014E+02 3.93317E+01 0.00000E+00
 -1      2946 1.06056E+02 3.91143E+01 0.00000E+00
 -1      2947 1.06806E+02 4.04133E+01 0.00000E+00
 -1      2948 1.31771E+02 4.49806E+01 0.00000E+00
 -1      2949 1.19468E+02 2.51283E+01 0.00000E+00
 -1      2950 1.16910E+01 1.24625E+01 0.00000E+00
 -1      2951 1.16910E+01 1.39375E+01 0.00000E+00
 -1      2952 1.14712E+01 7.20138E+00 0.00000E+00
 -1      2953 1.07524E+02 3.24572E+01 0.00000E+00
 -1      2954 1.08045E+02 3.10814E+01 0.00000E+00
 -1      2955 1.38309E+02 3.16125E+01 0.00000E+00
 -1      2956 1.38309E+02 3.01375E+01 0.00000E+00
 -1      2957 1.57500E+01 3.83090E+01 0.00000E+00
 -1      2958 1.72500E+01 3.83090E+01 0.00000E+00
 -1      2959 1.87500E+01 3.83090E+01 0.00000E+00
 -1      2960 2.02500E+01 3.83090E+01 0.00000E+00
 -1      2961 1.80000E+01 3.70100E+01 0.00000E+00
 -1      2962 2.17500E+01 3.83090E+01 0.00000E+00
 -1      2963 2.32500E+01 3.83090E+01 0.00000E+00
 -1      2964 2.10000E+01 3.70100E+01 0.00000E+00
 -1      2965 2.47500E+01 3.83090E+01 0.00000E+00
 -1      2966 2.62500E+01 3.83090E+01 0.00000E+00
 -1      2967 2.40000E+01 3.70100E+01 0.00000E+00
 -1      2968 2.77500E+01 3.83090E+01 0.00000E+00
 -1      2969 2.92500E+01 3.83090E+01 0.00000E+00
 -1      2970 2.70000E+01 3.70100E+01 0.00000E+00
 -1      2971 3.07500E+01 3.83090E+01 0.00000E+00
 -1      2972 3.22500E+01 3.83090E+01 0.00000E+00
 -1      2973 3.00000E+01 3.70100E+01 0.00000E+00
 -1      2974 3.37500E+01 3.83090E+01 0.00000E+00
 -1      2975 3.52500E+01 3.83090E+01 0.00000E+00
 -1      2976 3.30000E+01 3.70100E+01 0.00000E+00
 -1      2977 3.67500E+01 3.83090E+01 0.00000E+00
 -1      2978 3.82500E+01 3.83090E+01 0.00000E+00
 -1      2979 3.60000E+01 3.70100E+01 0.00000E+00
 -1      2980 3.97500E+01 3.83090E+01 0.00000E+00
 -1      2981 4.12500E+01 3.83090E+01 0.00000E+00
 -1      2982 3.90000E+01 3.70100E+01 0.00000E+00
 -1      2983 4.27500E+01 3.83090E+01 0.00000E+00
 -1      2984 4.42500E+01 3.83090E+01 0.00000E+00
 -1      2985 4.20000E+01 3.70100E+01 0.00000E+00
 -1      2986 4.57500E+01 3.83090E+01 0.00000E+00
 -1      2987 4.72500E+01 3.83090E+01 0.00000E+00
 -1      2988 4.50000E+01 3.70100E+01 0.00000E+00
 -1      2989 4.87500E+01 3.83090E+01 0.00000E+00
 -1      2990 5.02500E+01 3.83090E+01 0.00000E+00
 -1      2991 4.80000E+01 3.70100E+01 0.00000E+00
 -1      2992 5.17500E+01 3.83090E+01 0.00000E+00
 -1      2993 5.32500E+01 3.83090E+01 0.00000E+00
 -1      2994 5.10000E+01 3.70100E+01 0.00000E+00
 -1      2995 5.47500E+01 3.83090E+01 0.00000E+00
 -1      2996 5.62500E+01 3.83090E+01 0.00000E+00
 -1      2997 5.40000E+01 3.70100E+01 0.00000E+00
 -1      2998 5.77500E+01 3.83090E+01 0.00000E+00
 -1      2999 5.92500E+01 3.83090E+01 0.00000E+00
 -1      3000 5.70000E+01 3.70100E+01 0.00000E+00
 -1      3001 6.07500E+01 3.83090E+01 0.00000E+00
 -1      3002 6.22500E+01 3.83090E+01 0.00000E+00
 -1      3003 6.00000E+01 3.70100E+01 0.00000E+00
 -1      3004 6.37500E+01 3.83090E+01 0.00000E+00
 -1      3005 6.52500E+01 3.83090E+01 0.00000E+00
 -1      3006 6.30000E+01 3.70100E+01 0.00000E+00
 -1      3007 6.67500E+01 3.83090E+01 0.00000E+00
 -1      3008 6.82500E+01 3.83090E+01 0.00000E+00
 -1      3009 6.60000E+01 3.70100E+01 0.00000E+00
 -1      3010 6.97500E+01 3.83090E+01 0.00000E+00
 -1      3011 7.12500E+01 3.83090E+01 0.00000E+00
 -1      3012 6.90000E+01 3.70100E+01 0.00000E+00
 -1      3013 7.27500E+01 3.83090E+01 0.00000E+00
 -1      3014 7.42500E+01 3.83090E+01 0.00000E+00
 -1      3015 7.20000E+01 3.70100E+01 0.00000E+00
 -1      3016 7.57500E+01 3.83090E+01 0.00000E+00
 -1      3017 7.72500E+01 3.83090E+01 0.00000E+00
 -1      3018 7.50000E+01 3.70100E+01 0.00000E+00
 -1      3019 7.87500E+01 3.83090E+01 0.00000E+00
 -1      3020 8.02500E+01 3.83090E+01 0.00000E+00
 -1      3021 7.80000E+01 3.70100E+01 0.00000E+00
 -1      3022 8.17500E+01 3.83090E+01 0.00000E+00
 -1      3023 8.32500E+01 3.83090E+01 0.00000E+00
 -1      3024 8.10000E+01 3.70100E+01 0.00000E+00
 -1      3025 8.47500E+01 3.83090E+01 0.00000E+00
 -1      3026 8.62500E+01 3.83090E+01 0.00000E+00
 -1      3027 8.40000E+01 3.70100E+01 0.00000E+00
 -1      3028 8.77500E+01 3.83090E+01 0.00000E+00
 -1      3029 8.92500E+01 3.83090E+01 0.00000E+00
 -1      3030 8.70000E+01 3.70100E+01 0.00000E+00
 -1      3031 9.07500E+01 3.83090E+01 0.00000E+00
 -1      3032 9.22500E+01 3.83090E+01 0.00000E+00
 -1      3033 9.00000E+01 3.70100E+01 0.00000E+00
 -1      3034 9.37500E+01 3.83090E+01 0.00000E+00
 -1      3035 9.52500E+01 3.83090E+01 0.00000E+00
 -1      3036 9.30000E+01 3.70100E+01 0.00000E+00
 -1      3037 9.67500E+01 3.83090E+01 0.00000E+00
 -1      3038 9.82500E+01 3.83090E+01 0.00000E+00
 -1      3039 9.60000E+01 3.70100E+01 0.00000E+00
 -1      3040 9.97500E+01 3.83090E+01 0.00000E+00
 -1      3041 1.01250E+02 3.83090E+01 0.00000E+00
 -1      3042 9.90000E+01 3.70100E+01 0.00000E+00
 -1      3043 1.02675E+02 3.83090E+01 0.00000E+00
 -1      3044 1.04100E+02 3.83090E+01 0.00000E+00
 -1      3045 1.01925E+02 3.70100E+01 0.00000E+00
 -1      3046 3.66240E+01 1.12805E+01 0.00000E+00
 -1      3047 3.51240E+01 1.12805E+01 0.00000E+00
 -1      3048 1.56240E+01 1.12805E+01 0.00000E+00
 -1      3049 1.41241E+01 1.12805E+01 0.00000E+00
 -1      3050 1.10543E+02 2.75068E+01 0.00000E+00
 -1      3051 1.11412E+02 2.67087E+01 0.00000E+00
 -1      3052 1.32020E+02 2.98605E+01 0.00000E+00
 -1      3053 1.32694E+02 3.11374E+01 0.00000E+00
 -1      3054 2.16240E+01 1.12805E+01 0.00000E+00
 -1      3055 2.01240E+01 1.12805E+01 0.00000E+00
 -1      3056 1.86240E+01 1.12805E+01 0.00000E+00
 -1      3057 1.71240E+01 1.12805E+01 0.00000E+00
 -1      3058 1.63741E+01 1.25795E+01 0.00000E+00
 -1      3059 1.93740E+01 1.25795E+01 0.00000E+00
 -1      3060 3.36240E+01 1.12805E+01 0.00000E+00
 -1      3061 3.21240E+01 1.12805E+01 0.00000E+00
 -1      3062 3.43740E+01 1.25795E+01 0.00000E+00
 -1      3063 3.06240E+01 1.12805E+01 0.00000E+00
 -1      3064 2.91240E+01 1.12805E+01 0.00000E+00
 -1      3065 3.13740E+01 1.25795E+01 0.00000E+00
 -1      3066 3.96240E+01 1.12805E+01 0.00000E+00
 -1      3067 3.81240E+01 1.12805E+01 0.00000E+00
 -1      3068 3.73740E+01 1.25795E+01 0.00000E+00
 -1      3069 4.26240E+01 1.12805E+01 0.00000E+00
 -1      3070 4.11240E+01 1.12805E+01 0.00000E+00
 -1      3071 4.03740E+01 1.25795E+01 0.00000E+00
 -1      3072 4.56240E+01 1.12805E+01 0.00000E+00
 -1      3073 4.41240E+01 1.12805E+01 0.00000E+00
 -1      3074 4.33740E+01 1.25795E+01 0.00000E+00
 -1      3075 4.86240E+01 1.12805E+01 0.00000E+00
 -1      3076 4.71240E+01 1.12805E+01 0.00000E+00
 -1      3077 4.63740E+01 1.25795E+01 0.00000E+00
 -1      3078 5.16240E+01 1.12805E+01 0.00000E+00
 -1      3079 5.01240E+01 1.12805E+01 0.00000E+00
 -1      3080 4.93740E+01 1.25795E+01 0.00000E+00
 -1      3081 5.46240E+01 1.12805E+01 0.00000E+00
 -1      3082 5.31240E+01 1.12805E+01 0.00000E+00
 -1      3083 5.23740E+01 1.25795E+01 0.00000E+00
 -1      3084 5.76240E+01 1.12805E+01 0.00000E+00
 -1      3085 5.61240E+01 1.12805E+01 0.00000E+00
 -1      3086 5.53740E+01 1.25795E+01 0.00000E+00
 -1      3087 6.06240E+01 1.12805E+01 0.00000E+00
 -1      3088 5.91240E+01 1.12805E+01 0.00000E+00
 -1      3089 5.83740E+01 1.25795E+01 0.00000E+00
 -1      3090 6.36240E+01 1.12805E+01 0.00000E+00
 -1      3091 6.21240E+01 1.12805E+01 0.00000E+00
 -1      3092 6.13740E+01 1.25795E+01 0.00000E+00
 -1      3093 6.66240E+01 1.12805E+01 0.00000E+00
 -1      3094 6.51240E+01 1.12805E+01 0.00000E+00
 -1      3095 6.43740E+01 1.25795E+01 0.00000E+00
 -1      3096 6.96240E+01 1.12805E+01 0.00000E+00
 -1      3097 6.81240E+01 1.12805E+01 0.00000E+00
 -1      3098 6.73740E+01 1.25795E+01 0.00000E+00
 -1      3099 7.26240E+01 1.12805E+01 0.00000E+00
 -1      3100 7.11240E+01 1.12805E+01 0.00000E+00
 -1      3101 7.03740E+01 1.25795E+01 0.00000E+00
 -1      3102 7.56240E+01 1.12805E+01 0.00000E+00
 -1      3103 7.41240E+01 1.12805E+01 0.00000E+00
 -1      3104 7.33740E+01 1.25795E+01 0.00000E+00
 -1      3105 7.86240E+01 1.12805E+01 0.00000E+00
 -1      3106 7.71240E+01 1.12805E+01 0.00000E+00
 -1      3107 7.63740E+01 1.25795E+01 0.00000E+00
 -1      3108 8.16240E+01 1.12805E+01 0.00000E+00
 -1      3109 8.01240E+01 1.12805E+01 0.00000E+00
 -1      3110 7.93740E+01 1.25795E+01 0.00000E+00
 -1      3111 8.46240E+01 1.12805E+01 0.00000E+00
 -1      3112 8.31240E+01 1.12805E+01 0.00000E+00
 -1      3113 8.23740E+01 1.25795E+01 0.00000E+00
 -1      3114 8.76240E+01 1.12805E+01 0.00000E+00
 -1      3115 8.61240E+01 1.12805E+01 0.00000E+00
 -1      3116 8.53740E+01 1.25795E+01 0.00000E+00
 -1      3117 9.06240E+01 1.12805E+01 0.00000E+00
 -1      3118 8.91240E+01 1.12805E+01 0.00000E+00
 -1      3119 8.83740E+01 1.25795E+01 0.00000E+00
 -1      3120 9.36240E+01 1.12805E+01 0.00000E+00
 -1      3121 9.21240E+01 1.12805E+01 0.00000E+00
 -1      3122 9.13740E+01 1.25795E+01 0.00000E+00
 -1      3123 9.66240E+01 1.12805E+01 0.00000E+00
 -1      3124 9.51240E+01 1.12805E+01 0.00000E+00
 -1      3125 9.43740E+01 1.25795E+01 0.00000E+00
 -1      3126 9.96240E+01 1.12805E+01 0.00000E+00
 -1      3127 9.81240E+01 1.12805E+01 0.00000E+00
 -1      3128 9.73740E+01 1.25795E+01 0.00000E+00
 -1      3129 1.02624E+02 1.12805E+01 0.00000E+00
 -1      3130 1.01124E+02 1.12805E+01 0.00000E+00
 -1      3131 1.00374E+02 1.25795E+01 0.00000E+00
 -1      3132 1.05624E+02 1.12805E+01 0.00000E+00
 -1      3133 1.04124E+02 1.12805E+01 0.00000E+00
 -1      3134 1.03374E+02 1.25795E+01 0.00000E+00
 -1      3135 1.08624E+02 1.12805E+01 0.00000E+00
 -1      3136 1.07124E+02 1.12805E+01 0.00000E+00
 -1      3137 1.06374E+02 1.25795E+01 0.00000E+00
 -1      3138 1.11624E+02 1.12805E+01 0.00000E+00
 -1      3139 1.10124E+02 1.12805E+01 0.00000E+00
 -1      3140 1.09374E+02 1.25795E+01 0.00000E+00
 -1      3141 1.14624E+02 1.12805E+01 0.00000E+00
 -1      3142 1.13124E+02 1.12805E+01 0.00000E+00
 -1      3143 1.12374E+02 1.25795E+01 0.00000E+00
 -1      3144 1.17624E+02 1.12805E+01 0.00000E+00
 -1      3145 1.16124E+02 1.12805E+01 0.00000E+00
 -1      3146 1.15374E+02 1.25795E+01 0.00000E+00
 -1      3147 1.20624E+02 1.12805E+01 0.00000E+00
 -1      3148 1.19124E+02 1.12805E+01 0.00000E+00
 -1      3149 1.18374E+02 1.25795E+01 0.00000E+00
 -1      3150 1.23624E+02 1.12805E+01 0.00000E+00
 -1      3151 1.22124E+02 1.12805E+01 0.00000E+00
 -1      3152 1.21374E+02 1.25795E+01 0.00000E+00
 -1      3153 1.26624E+02 1.12805E+01 0.00000E+00
 -1      3154 1.25124E+02 1.12805E+01 0.00000E+00
 -1      3155 1.24374E+02 1.25795E+01 0.00000E+00
 -1      3156 1.29624E+02 1.12805E+01 0.00000E+00
 -1      3157 1.28124E+02 1.12805E+01 0.00000E+00
 -1      3158 1.27374E+02 1.25795E+01 0.00000E+00
 -1      3159 1.32624E+02 1.12805E+01 0.00000E+00
 -1      3160 1.31124E+02 1.12805E+01 0.00000E+00
 -1      3161 1.30374E+02 1.25795E+01 0.00000E+00
 -1      3162 1.35624E+02 1.12805E+01 0.00000E+00
 -1      3163 1.34124E+02 1.12805E+01 0.00000E+00
 -1      3164 1.33374E+02 1.25795E+01 0.00000E+00
 -1      3165 1.38226E+02 1.13313E+01 0.00000E+00
 -1      3166 1.36768E+02 1.12454E+01 0.00000E+00
 -1      3167 1.36018E+02 1.25444E+01 0.00000E+00
 -1      3168 1.38305E+02 1.24742E+01 0.00000E+00
 -1      3169 1.38309E+02 2.86875E+01 0.00000E+00
 -1      3170 1.38309E+02 2.72375E+01 0.00000E+00
 -1      3171 1.37010E+02 2.94250E+01 0.00000E+00
 -1      3172 1.12673E+02 2.58101E+01 0.00000E+00
 -1      3173 1.13877E+02 2.51358E+01 0.00000E+00
 -1      3174 1.38365E+02 3.75320E+01 0.00000E+00
 -1      3175 1.38343E+02 3.60570E+01 0.00000E+00
 -1      3176 1.38326E+02 3.45723E+01 0.00000E+00
 -1      3177 1.38326E+02 3.30972E+01 0.00000E+00
 -1      3178 1.37027E+02 3.23597E+01 0.00000E+00
 -1      3179 1.37061E+02 3.53292E+01 0.00000E+00
 -1      3180 1.18404E+02 2.43303E+01 0.00000E+00
 -1      3181 1.19787E+02 2.38372E+01 0.00000E+00
 -1      3182 1.08814E+02 2.94497E+01 0.00000E+00
 -1      3183 1.09679E+02 2.84783E+01 0.00000E+00
 -1      3184 1.09306E+02 2.72009E+01 0.00000E+00
 -1      3185 1.30944E+02 4.28312E+01 0.00000E+00
 -1      3186 1.17938E+01 8.83558E+00 0.00000E+00
 -1      3187 1.21964E+02 2.39815E+01 0.00000E+00
 -1      3188 1.23416E+02 2.45729E+01 0.00000E+00
 -1      3189 8.97262E+00 3.70363E+01 0.00000E+00
 -1      3190 8.98612E+00 3.82715E+01 0.00000E+00
 -1      3191 1.00309E+01 3.83715E+01 0.00000E+00
 -1      3192 1.02716E+01 3.62988E+01 0.00000E+00
 -1      3193 1.38309E+02 2.57625E+01 0.00000E+00
 -1      3194 1.38309E+02 2.42875E+01 0.00000E+00
 -1      3195 1.37010E+02 2.65000E+01 0.00000E+00
 -1      3196 1.06648E+02 3.51945E+01 0.00000E+00
 -1      3197 1.06982E+02 3.38821E+01 0.00000E+00
 -1      3198 1.30133E+02 2.73394E+01 0.00000E+00
 -1      3199 1.31097E+02 2.83759E+01 0.00000E+00
 -1      3200 1.34123E+02 3.88844E+01 0.00000E+00
 -1      3201 1.35168E+02 3.91951E+01 0.00000E+00
 -1      3202 1.18830E+01 1.08533E+01 0.00000E+00
 -1      3203 1.06299E+02 3.77837E+01 0.00000E+00
 -1      3204 1.06405E+02 3.65252E+01 0.00000E+00
 -1      3205 1.05579E+02 3.56160E+01 0.00000E+00
 -1      3206 1.05093E+02 3.82773E+01 0.00000E+00
 -1      3207 1.24683E+02 2.50424E+01 0.00000E+00
 -1      3208 1.25900E+02 2.54401E+01 0.00000E+00
 -1      3209 1.16910E+01 2.12875E+01 0.00000E+00
 -1      3210 1.16910E+01 2.27625E+01 0.00000E+00
 -1      3211 1.38309E+02 2.28125E+01 0.00000E+00
 -1      3212 1.38309E+02 2.13375E+01 0.00000E+00
 -1      3213 1.37010E+02 2.35500E+01 0.00000E+00
 -1      3214 1.27261E+02 2.58698E+01 0.00000E+00
 -1      3215 1.28515E+02 2.64161E+01 0.00000E+00
 -1      3216 1.27500E+01 3.83090E+01 0.00000E+00
 -1      3217 1.42500E+01 3.83090E+01 0.00000E+00
 -1      3218 1.50000E+01 3.70100E+01 0.00000E+00
 -1      3219 1.33549E+02 3.79231E+01 0.00000E+00
 -1      3220 1.07140E+02 4.11592E+01 0.00000E+00
 -1      3221 1.08775E+02 4.11151E+01 0.00000E+00
 -1      3222 1.08565E+02 3.98283E+01 0.00000E+00
 -1      3223 1.37726E+02 3.86137E+01 0.00000E+00
 -1      3224 1.07596E+02 3.93665E+01 0.00000E+00
 -1      3225 1.24343E+02 2.37973E+01 0.00000E+00
 -1      3226 1.06363E+02 3.28605E+01 0.00000E+00
 -1      3227 1.13245E+02 2.36890E+01 0.00000E+00
 -1      3228 1.14430E+02 2.43924E+01 0.00000E+00
 -1      3229 1.14983E+02 2.36490E+01 0.00000E+00
 -1      3230 1.10756E+01 3.84716E+01 0.00000E+00
 -1      3231 1.33245E+02 3.48668E+01 0.00000E+00
 -1      3232 1.38309E+02 1.98687E+01 0.00000E+00
 -1      3233 1.38309E+02 1.84000E+01 0.00000E+00
 -1      3234 1.37010E+02 2.06063E+01 0.00000E+00
 -1      3235 2.83740E+01 1.25795E+01 0.00000E+00
 -1      3236 2.76240E+01 1.12805E+01 0.00000E+00
 -1      3237 2.61240E+01 1.12805E+01 0.00000E+00
 -1      3238 1.04343E+02 3.69783E+01 0.00000E+00
 -1      3239 1.39320E+01 1.28898E+01 0.00000E+00
 -1      3240 1.31820E+01 1.15908E+01 0.00000E+00
 -1      3241 1.11431E+02 2.53309E+01 0.00000E+00
 -1      3242 1.16910E+01 2.42375E+01 0.00000E+00
 -1      3243 1.16910E+01 2.57125E+01 0.00000E+00
 -1      3244 1.29900E+01 2.35000E+01 0.00000E+00
 -1      3245 2.46240E+01 1.12805E+01 0.00000E+00
 -1      3246 2.31240E+01 1.12805E+01 0.00000E+00
 -1      3247 2.23740E+01 1.25795E+01 0.00000E+00
 -1      3248 2.53740E+01 1.25795E+01 0.00000E+00
 -1      3249 1.19836E+02 2.23855E+01 0.00000E+00
 -1      3250 1.20900E+02 2.31835E+01 0.00000E+00
 -1      3251 1.22013E+02 2.25298E+01 0.00000E+00
 -1      3252 1.38309E+02 1.69312E+01 0.00000E+00
 -1      3253 1.38309E+02 1.54625E+01 0.00000E+00
 -1      3254 1.37010E+02 1.76688E+01 0.00000E+00
 -1      3255 1.18256E+01 3.71726E+01 0.00000E+00
 -1      3256 1.16910E+01 3.30594E+01 0.00000E+00
 -1      3257 1.16910E+01 3.45281E+01 0.00000E+00
 -1      3258 1.07673E+02 2.98039E+01 0.00000E+00
 -1      3259 1.07300E+02 2.85265E+01 0.00000E+00
 -1      3260 1.06532E+02 3.01581E+01 0.00000E+00
 -1      3261 1.36226E+02 3.86137E+01 0.00000E+00
 -1      3262 1.29948E+02 2.60496E+01 0.00000E+00
 -1      3263 1.16910E+01 1.54063E+01 0.00000E+00
 -1      3264 1.16910E+01 1.68750E+01 0.00000E+00
 -1      3265 1.29900E+01 1.46687E+01 0.00000E+00
 -1      3266 1.17445E+02 2.36958E+01 0.00000E+00
 -1      3267 1.34093E+02 3.71688E+01 0.00000E+00
 -1      3268 1.32489E+02 2.84575E+01 0.00000E+00
 -1      3269 1.38385E+02 1.36172E+01 0.00000E+00
 -1      3270 1.37086E+02 1.43547E+01 0.00000E+00
 -1      3271 1.16910E+01 1.98188E+01 0.00000E+00
 -1      3272 1.29900E+01 2.05562E+01 0.00000E+00
 -1      3273 1.16910E+01 1.83500E+01 0.00000E+00
 -1      3274 1.26970E+02 2.46965E+01 0.00000E+00
 -1      3275 1.16910E+01 3.01219E+01 0.00000E+00
 -1      3276 1.16910E+01 3.15906E+01 0.00000E+00
 -1      3277 1.29900E+01 3.23250E+01 0.00000E+00
 -1      3278 1.33339E+02 3.16574E+01 0.00000E+00
 -1      3279 1.48741E+01 1.40483E+01 0.00000E+00
 -1      3280 1.39320E+01 1.43585E+01 0.00000E+00
 -1      3281 1.39320E+01 1.58273E+01 0.00000E+00
 -1      3282 2.02500E+01 3.57110E+01 0.00000E+00
 -1      3283 2.17500E+01 3.57110E+01 0.00000E+00
 -1      3284 2.32500E+01 3.57110E+01 0.00000E+00
 -1      3285 2.47500E+01 3.57110E+01 0.00000E+00
 -1      3286 2.25000E+01 3.44120E+01 0.00000E+00
 -1      3287 2.62500E+01 3.57110E+01 0.00000E+00
 -1      3288 2.77500E+01 3.57110E+01 0.00000E+00
 -1      3289 2.55000E+01 3.44120E+01 0.00000E+00
 -1      3290 2.92500E+01 3.57110E+01 0.00000E+00
 -1      3291 3.07500E+01 3.57110E+01 0.00000E+00
 -1      3292 2.85000E+01 3.44120E+01 0.00000E+00
 -1      3293 3.22500E+01 3.57110E+01 0.00000E+00
 -1      3294 3.37500E+01 3.57110E+01 0.00000E+00
 -1      3295 3.15000E+01 3.44120E+01 0.00000E+00
 -1      3296 3.52500E+01 3.57110E+01 0.00000E+00
 -1      3297 3.67500E+01 3.57110E+01 0.00000E+00
 -1      3298 3.45000E+01 3.44120E+01 0.00000E+00
 -1      3299 3.82500E+01 3.57110E+01 0.00000E+00
 -1      3300 3.97500E+01 3.57110E+01 0.00000E+00
 -1      3301 3.75000E+01 3.44120E+01 0.00000E+00
 -1      3302 4.12500E+01 3.57110E+01 0.00000E+00
 -1      3303 4.27500E+01 3.57110E+01 0.00000E+00
 -1      3304 4.05000E+01 3.44120E+01 0.00000E+00
 -1      3305 4.42500E+01 3.57110E+01 0.00000E+00
 -1      3306 4.57500E+01 3.57110E+01 0.00000E+00
 -1      3307 4.35000E+01 3.44120E+01 0.00000E+00
 -1      3308 4.72500E+01 3.57110E+01 0.00000E+00
 -1      3309 4.87500E+01 3.57110E+01 0.00000E+00
 -1      3310 4.65000E+01 3.44120E+01 0.00000E+00
 -1      3311 5.02500E+01 3.57110E+01 0.00000E+00
 -1      3312 5.17500E+01 3.57110E+01 0.00000E+00
 -1      3313 4.95000E+01 3.44120E+01 0.00000E+00
 -1      3314 5.32500E+01 3.57110E+01 0.00000E+00
 -1      3315 5.47500E+01 3.57110E+01 0.00000E+00
 -1      3316 5.25000E+01 3.44120E+01 0.00000E+00
 -1      3317 5.62500E+01 3.57110E+01 0.00000E+00
 -1      3318 5.77500E+01 3.57110E+01 0.00000E+00
 -1      3319 5.55000E+01 3.44120E+01 0.00000E+00
 -1      3320 5.92500E+01 3.57110E+01 0.00000E+00
 -1      3321 6.07500E+01 3.57110E+01 0.00000E+00
 -1      3322 5.85000E+01 3.44120E+01 0.00000E+00
 -1      3323 6.22500E+01 3.57110E+01 0.00000E+00
 -1      3324 6.37500E+01 3.57110E+01 0.00000E+00
 -1      3325 6.15000E+01 3.44120E+01 0.00000E+00
 -1      3326 6.52500E+01 3.57110E+01 0.00000E+00
 -1      3327 6.67500E+01 3.57110E+01 0.00000E+00
 -1      3328 6.45000E+01 3.44120E+01 0.00000E+00
 -1      3329 6.82500E+01 3.57110E+01 0.00000E+00
 -1      3330 6.97500E+01 3.57110E+01 0.00000E+00
 -1      3331 6.75000E+01 3.44120E+01 0.00000E+00
 -1      3332 7.12500E+01 3.57110E+01 0.00000E+00
 -1      3333 7.27500E+01 3.57110E+01 0.00000E+00
 -1      3334 7.05000E+01 3.44120E+01 0.00000E+00
 -1      3335 7.42500E+01 3.57110E+01 0.00000E+00
 -1      3336 7.57500E+01 3.57110E+01 0.00000E+00
 -1      3337 7.35000E+01 3.44120E+01 0.00000E+00
 -1      3338 7.72500E+01 3.57110E+01 0.00000E+00
 -1      3339 7.87500E+01 3.57110E+01 0.00000E+00
 -1      3340 7.65000E+01 3.44120E+01 0.00000E+00
 -1      3341 8.02500E+01 3.57110E+01 0.00000E+00
 -1      3342 8.17500E+01 3.57110E+01 0.00000E+00
 -1      3343 7.95000E+01 3.44120E+01 0.00000E+00
 -1      3344 8.32500E+01 3.57110E+01 0.00000E+00
 -1      3345 8.47500E+01 3.57110E+01 0.00000E+00
 -1      3346 8.25000E+01 3.44120E+01 0.00000E+00
 -1      3347 8.62500E+01 3.57110E+01 0.00000E+00
 -1      3348 8.77500E+01 3.57110E+01 0.00000E+00
 -1      3349 8.55000E+01 3.44120E+01 0.00000E+00
 -1      3350 8.92500E+01 3.57110E+01 0.00000E+00
 -1      3351 9.07500E+01 3.57110E+01 0.00000E+00
 -1      3352 8.85000E+01 3.44120E+01 0.00000E+00
 -1      3353 9.22500E+01 3.57110E+01 0.00000E+00
 -1      3354 9.37500E+01 3.57110E+01 0.00000E+00
 -1      3355 9.15000E+01 3.44120E+01 0.00000E+00
 -1      3356 9.52500E+01 3.57110E+01 0.00000E+00
 -1      3357 9.67500E+01 3.57110E+01 0.00000E+00
 -1      3358 9.45000E+01 3.44120E+01 0.00000E+00
 -1      3359 9.82500E+01 3.57110E+01 0.00000E+00
 -1      3360 9.97500E+01 3.57110E+01 0.00000E+00
 -1      3361 9.75000E+01 3.44120E+01 0.00000E+00
 -1      3362 1.01175E+02 3.57110E+01 0.00000E+00
 -1      3363 1.02600E+02 3.57110E+01 0.00000E+00
 -1      3364 1.00425E+02 3.44120E+01 0.00000E+00
 -1      3365 4.11240E+01 1.38785E+01 0.00000E+00
 -1      3366 3.96240E+01 1.38785E+01 0.00000E+00
 -1      3367 1.35711E+02 2.72375E+01 0.00000E+00
 -1      3368 1.35711E+02 2.57625E+01 0.00000E+00
 -1      3369 1.10047E+02 2.47224E+01 0.00000E+00
 -1      3370 1.11308E+02 2.38239E+01 0.00000E+00
 -1      3371 3.81240E+01 1.38785E+01 0.00000E+00
 -1      3372 3.66240E+01 1.38785E+01 0.00000E+00
 -1      3373 3.88740E+01 1.51775E+01 0.00000E+00
 -1      3374 3.21240E+01 1.38785E+01 0.00000E+00
 -1      3375 3.06240E+01 1.38785E+01 0.00000E+00
 -1      3376 4.41240E+01 1.38785E+01 0.00000E+00
 -1      3377 4.26240E+01 1.38785E+01 0.00000E+00
 -1      3378 4.18740E+01 1.51775E+01 0.00000E+00
 -1      3379 4.71240E+01 1.38785E+01 0.00000E+00
 -1      3380 4.56240E+01 1.38785E+01 0.00000E+00
 -1      3381 4.48740E+01 1.51775E+01 0.00000E+00
 -1      3382 5.01240E+01 1.38785E+01 0.00000E+00
 -1      3383 4.86240E+01 1.38785E+01 0.00000E+00
 -1      3384 4.78740E+01 1.51775E+01 0.00000E+00
 -1      3385 5.31240E+01 1.38785E+01 0.00000E+00
 -1      3386 5.16240E+01 1.38785E+01 0.00000E+00
 -1      3387 5.08740E+01 1.51775E+01 0.00000E+00
 -1      3388 5.61240E+01 1.38785E+01 0.00000E+00
 -1      3389 5.46240E+01 1.38785E+01 0.00000E+00
 -1      3390 5.38740E+01 1.51775E+01 0.00000E+00
 -1      3391 5.91240E+01 1.38785E+01 0.00000E+00
 -1      3392 5.76240E+01 1.38785E+01 0.00000E+00
 -1      3393 5.68740E+01 1.51775E+01 0.00000E+00
 -1      3394 6.21240E+01 1.38785E+01 0.00000E+00
 -1      3395 6.06240E+01 1.38785E+01 0.00000E+00
 -1      3396 5.98740E+01 1.51775E+01 0.00000E+00
 -1      3397 6.51240E+01 1.38785E+01 0.00000E+00
 -1      3398 6.36240E+01 1.38785E+01 0.00000E+00
 -1      3399 6.28740E+01 1.51775E+01 0.00000E+00
 -1      3400 6.81240E+01 1.38785E+01 0.00000E+00
 -1      3401 6.66240E+01 1.38785E+01 0.00000E+00
 -1      3402 6.58740E+01 1.51775E+01 0.00000E+00
 -1      3403 7.11240E+01 1.38785E+01 0.00000E+00
 -1      3404 6.96240E+01 1.38785E+01 0.00000E+00
 -1      3405 6.88740E+01 1.51775E+01 0.00000E+00
 -1      3406 7.41240E+01 1.38785E+01 0.00000E+00
 -1      3407 7.26240E+01 1.38785E+01 0.00000E+00
 -1      3408 7.18740E+01 1.51775E+01 0.00000E+00
 -1      3409 7.71240E+01 1.38785E+01 0.00000E+00
 -1      3410 7.56240E+01 1.38785E+01 0.00000E+00
 -1      3411 7.48740E+01 1.51775E+01 0.00000E+00
 -1      3412 8.01240E+01 1.38785E+01 0.00000E+00
 -1      3413 7.86240E+01 1.38785E+01 0.00000E+00
 -1      3414 7.78740E+01 1.51775E+01 0.00000E+00
 -1      3415 8.31240E+01 1.38785E+01 0.00000E+00
 -1      3416 8.16240E+01 1.38785E+01 0.00000E+00
 -1      3417 8.08740E+01 1.51775E+01 0.00000E+00
 -1      3418 8.61240E+01 1.38785E+01 0.00000E+00
 -1      3419 8.46240E+01 1.38785E+01 0.00000E+00
 -1      3420 8.38740E+01 1.51775E+01 0.00000E+00
 -1      3421 8.91240E+01 1.38785E+01 0.00000E+00
 -1      3422 8.76240E+01 1.38785E+01 0.00000E+00
 -1      3423 8.68740E+01 1.51775E+01 0.00000E+00
 -1      3424 9.21240E+01 1.38785E+01 0.00000E+00
 -1      3425 9.06240E+01 1.38785E+01 0.00000E+00
 -1      3426 8.98740E+01 1.51775E+01 0.00000E+00
 -1      3427 9.51240E+01 1.38785E+01 0.00000E+00
 -1      3428 9.36240E+01 1.38785E+01 0.00000E+00
 -1      3429 9.28740E+01 1.51775E+01 0.00000E+00
 -1      3430 9.81240E+01 1.38785E+01 0.00000E+00
 -1      3431 9.66240E+01 1.38785E+01 0.00000E+00
 -1      3432 9.58740E+01 1.51775E+01 0.00000E+00
 -1      3433 1.01124E+02 1.38785E+01 0.00000E+00
 -1      3434 9.96240E+01 1.38785E+01 0.00000E+00
 -1      3435 9.88740E+01 1.51775E+01 0.00000E+00
 -1      3436 1.04124E+02 1.38785E+01 0.00000E+00
 -1      3437 1.02624E+02 1.38785E+01 0.00000E+00
 -1      3438 1.01874E+02 1.51775E+01 0.00000E+00
 -1      3439 1.07124E+02 1.38785E+01 0.00000E+00
 -1      3440 1.05624E+02 1.38785E+01 0.00000E+00
 -1      3441 1.04874E+02 1.51775E+01 0.00000E+00
 -1      3442 1.10124E+02 1.38785E+01 0.00000E+00
 -1      3443 1.08624E+02 1.38785E+01 0.00000E+00
 -1      3444 1.07874E+02 1.51775E+01 0.00000E+00
 -1      3445 1.13124E+02 1.38785E+01 0.00000E+00
 -1      3446 1.11624E+02 1.38785E+01 0.00000E+00
 -1      3447 1.10874E+02 1.51775E+01 0.00000E+00
 -1      3448 1.16124E+02 1.38785E+01 0.00000E+00
 -1      3449 1.14624E+02 1.38785E+01 0.00000E+00
 -1      3450 1.13874E+02 1.51775E+01 0.00000E+00
 -1      3451 1.19124E+02 1.38785E+01 0.00000E+00
 -1      3452 1.17624E+02 1.38785E+01 0.00000E+00
 -1      3453 1.16874E+02 1.51775E+01 0.00000E+00
 -1      3454 1.22124E+02 1.38785E+01 0.00000E+00
 -1      3455 1.20624E+02 1.38785E+01 0.00000E+00
 -1      3456 1.19874E+02 1.51775E+01 0.00000E+00
 -1      3457 1.25124E+02 1.38785E+01 0.00000E+00
 -1      3458 1.23624E+02 1.38785E+01 0.00000E+00
 -1      3459 1.22874E+02 1.51775E+01 0.00000E+00
 -1      3460 1.28124E+02 1.38785E+01 0.00000E+00
 -1      3461 1.26624E+02 1.38785E+01 0.00000E+00
 -1      3462 1.25874E+02 1.51775E+01 0.00000E+00
 -1      3463 1.31124E+02 1.38785E+01 0.00000E+00
 -1      3464 1.29624E+02 1.38785E+01 0.00000E+00
 -1      3465 1.28874E+02 1.51775E+01 0.00000E+00
 -1      3466 1.34124E+02 1.38785E+01 0.00000E+00
 -1      3467 1.32624E+02 1.38785E+01 0.00000E+00
 -1      3468 1.31874E+02 1.51775E+01 0.00000E+00
 -1      3469 1.35942E+02 1.43897E+01 0.00000E+00
 -1      3470 1.35211E+02 3.04085E+01 0.00000E+00
 -1      3471 1.35211E+02 2.89585E+01 0.00000E+00
 -1      3472 1.35139E+02 3.21239E+01 0.00000E+00
 -1      3473 1.03593E+02 3.56793E+01 0.00000E+00
 -1      3474 1.04586E+02 3.56477E+01 0.00000E+00
 -1      3475 1.02843E+02 3.43803E+01 0.00000E+00
 -1      3476 1.07983E+02 2.68935E+01 0.00000E+00
 -1      3477 1.08848E+02 2.59221E+01 0.00000E+00
 -1      3478 1.19460E+01 3.61362E+01 0.00000E+00
 -1      3479 1.35711E+02 2.42875E+01 0.00000E+00
 -1      3480 1.35711E+02 2.28125E+01 0.00000E+00
 -1      3481 1.34412E+02 2.50250E+01 0.00000E+00
 -1      3482 1.34281E+02 3.41346E+01 0.00000E+00
 -1      3483 1.34260E+02 3.56287E+01 0.00000E+00
 -1      3484 1.36020E+02 3.73954E+01 0.00000E+00
 -1      3485 1.32450E+01 3.54019E+01 0.00000E+00
 -1      3486 1.24124E+02 2.24442E+01 0.00000E+00
 -1      3487 1.25391E+02 2.29137E+01 0.00000E+00
 -1      3488 1.29772E+02 2.44792E+01 0.00000E+00
 -1      3489 1.31390E+02 2.54026E+01 0.00000E+00
 -1      3490 1.16910E+01 2.71844E+01 0.00000E+00
 -1      3491 1.16910E+01 2.86531E+01 0.00000E+00
 -1      3492 1.29900E+01 2.93875E+01 0.00000E+00
 -1      3493 1.05134E+02 3.32090E+01 0.00000E+00
 -1      3494 1.05675E+02 3.17841E+01 0.00000E+00
 -1      3495 1.35129E+02 3.64366E+01 0.00000E+00
 -1      3496 1.44900E+01 3.37938E+01 0.00000E+00
 -1      3497 1.47450E+01 3.54019E+01 0.00000E+00
 -1      3498 1.62450E+01 3.54019E+01 0.00000E+00
 -1      3499 1.74975E+01 3.55564E+01 0.00000E+00
 -1      3500 1.89975E+01 3.55564E+01 0.00000E+00
 -1      3501 1.97475E+01 3.42574E+01 0.00000E+00
 -1      3502 1.72425E+01 3.39483E+01 0.00000E+00
 -1      3503 1.26751E+02 2.33434E+01 0.00000E+00
 -1      3504 1.28112E+02 2.37731E+01 0.00000E+00
 -1      3505 1.26533E+02 2.19903E+01 0.00000E+00
 -1      3506 3.51240E+01 1.38785E+01 0.00000E+00
 -1      3507 3.36240E+01 1.38785E+01 0.00000E+00
 -1      3508 3.28740E+01 1.51775E+01 0.00000E+00
 -1      3509 3.58740E+01 1.51775E+01 0.00000E+00
 -1      3510 1.04829E+02 3.43170E+01 0.00000E+00
 -1      3511 1.16261E+02 2.29924E+01 0.00000E+00
 -1      3512 1.17538E+02 2.23358E+01 0.00000E+00
 -1      3513 1.15076E+02 2.22890E+01 0.00000E+00
 -1      3514 1.35192E+02 1.56888E+01 0.00000E+00
 -1      3515 1.36187E+02 3.58552E+01 0.00000E+00
 -1      3516 1.11861E+02 2.30805E+01 0.00000E+00
 -1      3517 1.12414E+02 2.23370E+01 0.00000E+00
 -1      3518 1.10477E+02 2.24720E+01 0.00000E+00
 -1      3519 1.63741E+01 1.40483E+01 0.00000E+00
 -1      3520 1.35711E+02 2.13438E+01 0.00000E+00
 -1      3521 1.35711E+02 1.98750E+01 0.00000E+00
 -1      3522 1.34412E+02 2.20812E+01 0.00000E+00
 -1      3523 2.91240E+01 1.38785E+01 0.00000E+00
 -1      3524 2.76240E+01 1.38785E+01 0.00000E+00
 -1      3525 2.98740E+01 1.51775E+01 0.00000E+00
 -1      3526 1.29554E+02 2.31262E+01 0.00000E+00
 -1      3527 1.04141E+02 3.32406E+01 0.00000E+00
 -1      3528 1.42890E+01 2.27625E+01 0.00000E+00
 -1      3529 1.42890E+01 2.42375E+01 0.00000E+00
 -1      3530 1.36170E+02 3.43705E+01 0.00000E+00
 -1      3531 1.17466E+02 2.09786E+01 0.00000E+00
 -1      3532 1.18651E+02 2.16821E+01 0.00000E+00
 -1      3533 1.19764E+02 2.10284E+01 0.00000E+00
 -1      3534 1.35155E+02 3.36086E+01 0.00000E+00
 -1      3535 1.33912E+02 2.82210E+01 0.00000E+00
 -1      3536 1.06842E+02 2.72477E+01 0.00000E+00
 -1      3537 1.29900E+01 2.64469E+01 0.00000E+00
 -1      3538 1.35452E+02 1.85163E+01 0.00000E+00
 -1      3539 1.35452E+02 1.70475E+01 0.00000E+00
 -1      3540 1.33633E+02 1.65362E+01 0.00000E+00
 -1      3541 1.34152E+02 1.92537E+01 0.00000E+00
 -1      3542 1.05303E+02 3.05067E+01 0.00000E+00
 -1      3543 1.32989E+02 2.67365E+01 0.00000E+00
 -1      3544 1.23060E+02 2.16462E+01 0.00000E+00
 -1      3545 1.24108E+02 2.07626E+01 0.00000E+00
 -1      3546 1.21996E+02 2.08482E+01 0.00000E+00
 -1      3547 1.32813E+02 2.51661E+01 0.00000E+00
 -1      3548 2.01240E+01 1.38785E+01 0.00000E+00
 -1      3549 1.86240E+01 1.38785E+01 0.00000E+00
 -1      3550 1.44900E+01 3.23250E+01 0.00000E+00
 -1      3551 1.08724E+02 2.44151E+01 0.00000E+00
 -1      3552 1.29900E+01 1.76125E+01 0.00000E+00
 -1      3553 2.31240E+01 1.38785E+01 0.00000E+00
 -1      3554 2.16240E+01 1.38785E+01 0.00000E+00
 -1      3555 2.08740E+01 1.51775E+01 0.00000E+00
 -1      3556 1.42890E+01 1.98250E+01 0.00000E+00
 -1      3557 1.42890E+01 2.12938E+01 0.00000E+00
 -1      3558 1.55880E+01 2.20313E+01 0.00000E+00
 -1      3559 1.26237E+02 2.05583E+01 0.00000E+00
 -1      3560 1.27597E+02 2.09880E+01 0.00000E+00
 -1      3561 2.47500E+01 3.31130E+01 0.00000E+00
 -1      3562 2.62500E+01 3.31130E+01 0.00000E+00
 -1      3563 2.77500E+01 3.31130E+01 0.00000E+00
 -1      3564 2.92500E+01 3.31130E+01 0.00000E+00
 -1      3565 2.70000E+01 3.18140E+01 0.00000E+00
 -1      3566 3.07500E+01 3.31130E+01 0.00000E+00
 -1      3567 3.22500E+01 3.31130E+01 0.00000E+00
 -1      3568 3.00000E+01 3.18140E+01 0.00000E+00
 -1      3569 3.37500E+01 3.31130E+01 0.00000E+00
 -1      3570 3.52500E+01 3.31130E+01 0.00000E+00
 -1      3571 3.30000E+01 3.18140E+01 0.00000E+00
 -1      3572 3.67500E+01 3.31130E+01 0.00000E+00
 -1      3573 3.82500E+01 3.31130E+01 0.00000E+00
 -1      3574 3.60000E+01 3.18140E+01 0.00000E+00
 -1      3575 3.97500E+01 3.31130E+01 0.00000E+00
 -1      3576 4.12500E+01 3.31130E+01 0.00000E+00
 -1      3577 3.90000E+01 3.18140E+01 0.00000E+00
 -1      3578 4.27500E+01 3.31130E+01 0.00000E+00
 -1      3579 4.42500E+01 3.31130E+01 0.00000E+00
 -1      3580 4.20000E+01 3.18140E+01 0.00000E+00
 -1      3581 4.57500E+01 3.31130E+01 0.00000E+00
 -1      3582 4.72500E+01 3.31130E+01 0.00000E+00
 -1      3583 4.50000E+01 3.18140E+01 0.00000E+00
 -1      3584 4.87500E+01 3.31130E+01 0.00000E+00
 -1      3585 5.02500E+01 3.31130E+01 0.00000E+00
 -1      3586 4.80000E+01 3.18140E+01 0.00000E+00
 -1      3587 5.17500E+01 3.31130E+01 0.00000E+00
 -1      3588 5.32500E+01 3.31130E+01 0.00000E+00
 -1      3589 5.10000E+01 3.18140E+01 0.00000E+00
 -1      3590 5.47500E+01 3.31130E+01 0.00000E+00
 -1      3591 5.62500E+01 3.31130E+01 0.00000E+00
 -1      3592 5.40000E+01 3.18140E+01 0.00000E+00
 -1      3593 5.77500E+01 3.31130E+01 0.00000E+00
 -1      3594 5.92500E+01 3.31130E+01 0.00000E+00
 -1      3595 5.70000E+01 3.18140E+01 0.00000E+00
 -1      3596 6.07500E+01 3.31130E+01 0.00000E+00
 -1      3597 6.22500E+01 3.31130E+01 0.00000E+00
 -1      3598 6.00000E+01 3.18140E+01 0.00000E+00
 -1      3599 6.37500E+01 3.31130E+01 0.00000E+00
 -1      3600 6.52500E+01 3.31130E+01 0.00000E+00
 -1      3601 6.30000E+01 3.18140E+01 0.00000E+00
 -1      3602 6.67500E+01 3.31130E+01 0.00000E+00
 -1      3603 6.82500E+01 3.31130E+01 0.00000E+00
 -1      3604 6.60000E+01 3.18140E+01 0.00000E+00
 -1      3605 6.97500E+01 3.31130E+01 0.00000E+00
 -1      3606 7.12500E+01 3.31130E+01 0.00000E+00
 -1      3607 6.90000E+01 3.18140E+01 0.00000E+00
 -1      3608 7.27500E+01 3.31130E+01 0.00000E+00
 -1      3609 7.42500E+01 3.31130E+01 0.00000E+00
 -1      3610 7.20000E+01 3.18140E+01 0.00000E+00
 -1      3611 7.57500E+01 3.31130E+01 0.00000E+00
 -1      3612 7.72500E+01 3.31130E+01 0.00000E+00
 -1      3613 7.50000E+01 3.18140E+01 0.00000E+00
 -1      3614 7.87500E+01 3.31130E+01 0.00000E+00
 -1      3615 8.02500E+01 3.31130E+01 0.00000E+00
 -1      3616 7.80000E+01 3.18140E+01 0.00000E+00
 -1      3617 8.17500E+01 3.31130E+01 0.00000E+00
 -1      3618 8.32500E+01 3.31130E+01 0.00000E+00
 -1      3619 8.10000E+01 3.18140E+01 0.00000E+00
 -1      3620 8.47500E+01 3.31130E+01 0.00000E+00
 -1      3621 8.62500E+01 3.31130E+01 0.00000E+00
 -1      3622 8.40000E+01 3.18140E+01 0.00000E+00
 -1      3623 8.77500E+01 3.31130E+01 0.00000E+00
 -1      3624 8.92500E+01 3.31130E+01 0.00000E+00
 -1      3625 8.70000E+01 3.18140E+01 0.00000E+00
 -1      3626 9.07500E+01 3.31130E+01 0.00000E+00
 -1      3627 9.22500E+01 3.31130E+01 0.00000E+00
 -1      3628 9.00000E+01 3.18140E+01 0.00000E+00
 -1      3629 9.37500E+01 3.31130E+01 0.00000E+00
 -1      3630 9.52500E+01 3.31130E+01 0.00000E+00
 -1      3631 9.30000E+01 3.18140E+01 0.00000E+00
 -1      3632 9.67500E+01 3.31130E+01 0.00000E+00
 -1      3633 9.82500E+01 3.31130E+01 0.00000E+00
 -1      3634 9.60000E+01 3.18140E+01 0.00000E+00
 -1      3635 9.96750E+01 3.31130E+01 0.00000E+00
 -1      3636 1.01100E+02 3.31130E+01 0.00000E+00
 -1      3637 9.89250E+01 3.18140E+01 0.00000E+00
 -1      3638 4.56240E+01 1.64765E+01 0.00000E+00
 -1      3639 4.41240E+01 1.64765E+01 0.00000E+00
 -1      3640 1.71240E+01 1.53473E+01 0.00000E+00
 -1      3641 2.61240E+01 1.38785E+01 0.00000E+00
 -1      3642 2.46240E+01 1.38785E+01 0.00000E+00
 -1      3643 2.38740E+01 1.51775E+01 0.00000E+00
 -1      3644 2.68740E+01 1.51775E+01 0.00000E+00
 -1      3645 1.03819E+02 3.07638E+01 0.00000E+00
 -1      3646 1.04676E+02 2.91378E+01 0.00000E+00
 -1      3647 4.26240E+01 1.64765E+01 0.00000E+00
 -1      3648 4.11240E+01 1.64765E+01 0.00000E+00
 -1      3649 4.33740E+01 1.77755E+01 0.00000E+00
 -1      3650 5.16240E+01 1.64765E+01 0.00000E+00
 -1      3651 5.01240E+01 1.64765E+01 0.00000E+00
 -1      3652 5.46240E+01 1.64765E+01 0.00000E+00
 -1      3653 5.31240E+01 1.64765E+01 0.00000E+00
 -1      3654 5.23740E+01 1.77755E+01 0.00000E+00
 -1      3655 5.76240E+01 1.64765E+01 0.00000E+00
 -1      3656 5.61240E+01 1.64765E+01 0.00000E+00
 -1      3657 5.53740E+01 1.77755E+01 0.00000E+00
 -1      3658 6.06240E+01 1.64765E+01 0.00000E+00
 -1      3659 5.91240E+01 1.64765E+01 0.00000E+00
 -1      3660 5.83740E+01 1.77755E+01 0.00000E+00
 -1      3661 6.36240E+01 1.64765E+01 0.00000E+00
 -1      3662 6.21240E+01 1.64765E+01 0.00000E+00
 -1      3663 6.13740E+01 1.77755E+01 0.00000E+00
 -1      3664 6.66240E+01 1.64765E+01 0.00000E+00
 -1      3665 6.51240E+01 1.64765E+01 0.00000E+00
 -1      3666 6.43740E+01 1.77755E+01 0.00000E+00
 -1      3667 6.96240E+01 1.64765E+01 0.00000E+00
 -1      3668 6.81240E+01 1.64765E+01 0.00000E+00
 -1      3669 6.73740E+01 1.77755E+01 0.00000E+00
 -1      3670 7.26240E+01 1.64765E+01 0.00000E+00
 -1      3671 7.11240E+01 1.64765E+01 0.00000E+00
 -1      3672 7.03740E+01 1.77755E+01 0.00000E+00
 -1      3673 7.56240E+01 1.64765E+01 0.00000E+00
 -1      3674 7.41240E+01 1.64765E+01 0.00000E+00
 -1      3675 7.33740E+01 1.77755E+01 0.00000E+00
 -1      3676 7.86240E+01 1.64765E+01 0.00000E+00
 -1      3677 7.71240E+01 1.64765E+01 0.00000E+00
 -1      3678 7.63740E+01 1.77755E+01 0.00000E+00
 -1      3679 8.16240E+01 1.64765E+01 0.00000E+00
 -1      3680 8.01240E+01 1.64765E+01 0.00000E+00
 -1      3681 7.93740E+01 1.77755E+01 0.00000E+00
 -1      3682 8.46240E+01 1.64765E+01 0.00000E+00
 -1      3683 8.31240E+01 1.64765E+01 0.00000E+00
 -1      3684 8.23740E+01 1.77755E+01 0.00000E+00
 -1      3685 8.76240E+01 1.64765E+01 0.00000E+00
 -1      3686 8.61240E+01 1.64765E+01 0.00000E+00
 -1      3687 8.53740E+01 1.77755E+01 0.00000E+00
 -1      3688 9.06240E+01 1.64765E+01 0.00000E+00
 -1      3689 8.91240E+01 1.64765E+01 0.00000E+00
 -1      3690 8.83740E+01 1.77755E+01 0.00000E+00
 -1      3691 9.36240E+01 1.64765E+01 0.00000E+00
 -1      3692 9.21240E+01 1.64765E+01 0.00000E+00
 -1      3693 9.13740E+01 1.77755E+01 0.00000E+00
 -1      3694 9.66240E+01 1.64765E+01 0.00000E+00
 -1      3695 9.51240E+01 1.64765E+01 0.00000E+00
 -1      3696 9.43740E+01 1.77755E+01 0.00000E+00
 -1      3697 9.96240E+01 1.64765E+01 0.00000E+00
 -1      3698 9.81240E+01 1.64765E+01 0.00000E+00
 -1      3699 9.73740E+01 1.77755E+01 0.00000E+00
 -1      3700 1.02624E+02 1.64765E+01 0.00000E+00
 -1      3701 1.01124E+02 1.64765E+01 0.00000E+00
 -1      3702 1.00374E+02 1.77755E+01 0.00000E+00
 -1      3703 1.05624E+02 1.64765E+01 0.00000E+00
 -1      3704 1.04124E+02 1.64765E+01 0.00000E+00
 -1      3705 1.03374E+02 1.77755E+01 0.00000E+00
 -1      3706 1.08624E+02 1.64765E+01 0.00000E+00
 -1      3707 1.07124E+02 1.64765E+01 0.00000E+00
 -1      3708 1.06374E+02 1.77755E+01 0.00000E+00
 -1      3709 1.11624E+02 1.64765E+01 0.00000E+00
 -1      3710 1.10124E+02 1.64765E+01 0.00000E+00
 -1      3711 1.09374E+02 1.77755E+01 0.00000E+00
 -1      3712 1.14624E+02 1.64765E+01 0.00000E+00
 -1      3713 1.13124E+02 1.64765E+01 0.00000E+00
 -1      3714 1.12374E+02 1.77755E+01 0.00000E+00
 -1      3715 1.17624E+02 1.64765E+01 0.00000E+00
 -1      3716 1.16124E+02 1.64765E+01 0.00000E+00
 -1      3717 1.15374E+02 1.77755E+01 0.00000E+00
 -1      3718 1.23624E+02 1.64765E+01 0.00000E+00
 -1      3719 1.22124E+02 1.64765E+01 0.00000E+00
 -1      3720 1.27338E+02 1.73667E+01 0.00000E+00
 -1      3721 1.25838E+02 1.73667E+01 0.00000E+00
 -1      3722 1.28838E+02 1.73667E+01 0.00000E+00
 -1      3723 1.32133E+02 1.65362E+01 0.00000E+00
 -1      3724 1.02124E+02 3.31926E+01 0.00000E+00
 -1      3725 1.03117E+02 3.31610E+01 0.00000E+00
 -1      3726 1.03422E+02 3.20529E+01 0.00000E+00
 -1      3727 1.01374E+02 3.18936E+01 0.00000E+00
 -1      3728 1.42890E+01 2.57094E+01 0.00000E+00
 -1      3729 1.42890E+01 2.71812E+01 0.00000E+00
 -1      3730 1.55880E+01 2.49719E+01 0.00000E+00
 -1      3731 1.32813E+02 2.36911E+01 0.00000E+00
 -1      3732 3.96240E+01 1.64765E+01 0.00000E+00
 -1      3733 3.81240E+01 1.64765E+01 0.00000E+00
 -1      3734 4.03740E+01 1.77755E+01 0.00000E+00
 -1      3735 1.29232E+02 2.15777E+01 0.00000E+00
 -1      3736 1.30892E+02 2.22838E+01 0.00000E+00
 -1      3737 1.46488E+01 3.06625E+01 0.00000E+00
 -1      3738 1.61488E+01 3.21312E+01 0.00000E+00
 -1      3739 1.46488E+01 2.91937E+01 0.00000E+00
 -1      3740 1.32813E+02 2.22224E+01 0.00000E+00
 -1      3741 4.86240E+01 1.64765E+01 0.00000E+00
 -1      3742 4.71240E+01 1.64765E+01 0.00000E+00
 -1      3743 4.93740E+01 1.77755E+01 0.00000E+00
 -1      3744 1.05323E+02 2.75719E+01 0.00000E+00
 -1      3745 1.06005E+02 2.59389E+01 0.00000E+00
 -1      3746 1.07222E+02 2.41124E+01 0.00000E+00
 -1      3747 1.08421E+02 2.29127E+01 0.00000E+00
 -1      3748 2.17500E+01 3.31130E+01 0.00000E+00
 -1      3749 2.32500E+01 3.31130E+01 0.00000E+00
 -1      3750 2.40000E+01 3.18140E+01 0.00000E+00
 -1      3751 1.41105E+01 1.70886E+01 0.00000E+00
 -1      3752 1.41105E+01 1.85636E+01 0.00000E+00
 -1      3753 1.54095E+01 1.93011E+01 0.00000E+00
 -1      3754 1.50525E+01 1.67784E+01 0.00000E+00
 -1      3755 1.13843E+02 2.14619E+01 0.00000E+00
 -1      3756 1.15121E+02 2.08053E+01 0.00000E+00
 -1      3757 4.63740E+01 1.77755E+01 0.00000E+00
 -1      3758 3.06240E+01 1.64765E+01 0.00000E+00
 -1      3759 2.91240E+01 1.64765E+01 0.00000E+00
 -1      3760 1.04183E+02 2.47608E+01 0.00000E+00
 -1      3761 1.05702E+02 2.44366E+01 0.00000E+00
 -1      3762 1.05400E+02 2.29342E+01 0.00000E+00
 -1      3763 1.59478E+01 2.84562E+01 0.00000E+00
 -1      3764 1.83468E+01 1.65577E+01 0.00000E+00
 -1      3765 1.60968E+01 1.67275E+01 0.00000E+00
 -1      3766 1.28936E+02 2.01456E+01 0.00000E+00
 -1      3767 1.32491E+02 2.06739E+01 0.00000E+00
 -1      3768 1.16614E+02 1.97039E+01 0.00000E+00
 -1      3769 1.17727E+02 1.90502E+01 0.00000E+00
 -1      3770 1.19175E+02 1.64644E+01 0.00000E+00
 -1      3771 1.18425E+02 1.77634E+01 0.00000E+00
 -1      3772 1.19278E+02 1.90381E+01 0.00000E+00
 -1      3773 1.20675E+02 1.64644E+01 0.00000E+00
 -1      3774 1.25088E+02 1.86657E+01 0.00000E+00
 -1      3775 1.30472E+02 1.79564E+01 0.00000E+00
 -1      3776 1.20463E+02 1.97415E+01 0.00000E+00
 -1      3777 2.04975E+01 3.29584E+01 0.00000E+00
 -1      3778 2.12475E+01 3.16594E+01 0.00000E+00
 -1      3779 1.92450E+01 3.28039E+01 0.00000E+00
 -1      3780 1.02795E+02 3.06841E+01 0.00000E+00
 -1      3781 1.21510E+02 1.88579E+01 0.00000E+00
 -1      3782 3.36240E+01 1.64765E+01 0.00000E+00
 -1      3783 3.21240E+01 1.64765E+01 0.00000E+00
 -1      3784 3.13740E+01 1.77755E+01 0.00000E+00
 -1      3785 1.08974E+02 2.21693E+01 0.00000E+00
 -1      3786 1.09527E+02 2.14259E+01 0.00000E+00
 -1      3787 1.07472E+02 2.18666E+01 0.00000E+00
 -1      3788 1.68870E+01 2.42359E+01 0.00000E+00
 -1      3789 1.68870E+01 2.57078E+01 0.00000E+00
 -1      3790 1.74013E+01 3.22858E+01 0.00000E+00
 -1      3791 1.68870E+01 2.12984E+01 0.00000E+00
 -1      3792 1.68870E+01 2.27672E+01 0.00000E+00
 -1      3793 1.81860E+01 2.35031E+01 0.00000E+00
 -1      3794 1.62753E+01 1.79888E+01 0.00000E+00
 -1      3795 1.12459E+02 2.08534E+01 0.00000E+00
 -1      3796 1.03839E+02 2.78290E+01 0.00000E+00
 -1      3797 3.66240E+01 1.64765E+01 0.00000E+00
 -1      3798 3.51240E+01 1.64765E+01 0.00000E+00
 -1      3799 3.73740E+01 1.77755E+01 0.00000E+00
 -1      3800 2.16240E+01 1.64765E+01 0.00000E+00
 -1      3801 2.01240E+01 1.64765E+01 0.00000E+00
 -1      3802 1.25173E+02 1.97603E+01 0.00000E+00
 -1      3803 1.90968E+01 1.78567E+01 0.00000E+00
 -1      3804 2.92500E+01 3.05150E+01 0.00000E+00
 -1      3805 3.07500E+01 3.05150E+01 0.00000E+00
 -1      3806 3.22500E+01 3.05150E+01 0.00000E+00
 -1      3807 3.37500E+01 3.05150E+01 0.00000E+00
 -1      3808 3.15000E+01 2.92160E+01 0.00000E+00
 -1      3809 3.52500E+01 3.05150E+01 0.00000E+00
 -1      3810 3.67500E+01 3.05150E+01 0.00000E+00
 -1      3811 3.45000E+01 2.92160E+01 0.00000E+00
 -1      3812 3.82500E+01 3.05150E+01 0.00000E+00
 -1      3813 3.97500E+01 3.05150E+01 0.00000E+00
 -1      3814 3.75000E+01 2.92160E+01 0.00000E+00
 -1      3815 4.12500E+01 3.05150E+01 0.00000E+00
 -1      3816 4.27500E+01 3.05150E+01 0.00000E+00
 -1      3817 4.05000E+01 2.92160E+01 0.00000E+00
 -1      3818 4.42500E+01 3.05150E+01 0.00000E+00
 -1      3819 4.57500E+01 3.05150E+01 0.00000E+00
 -1      3820 4.35000E+01 2.92160E+01 0.00000E+00
 -1      3821 4.72500E+01 3.05150E+01 0.00000E+00
 -1      3822 4.87500E+01 3.05150E+01 0.00000E+00
 -1      3823 4.65000E+01 2.92160E+01 0.00000E+00
 -1      3824 5.02500E+01 3.05150E+01 0.00000E+00
 -1      3825 5.17500E+01 3.05150E+01 0.00000E+00
 -1      3826 4.95000E+01 2.92160E+01 0.00000E+00
 -1      3827 5.32500E+01 3.05150E+01 0.00000E+00
 -1      3828 5.47500E+01 3.05150E+01 0.00000E+00
 -1      3829 5.25000E+01 2.92160E+01 0.00000E+00
 -1      3830 5.62500E+01 3.05150E+01 0.00000E+00
 -1      3831 5.77500E+01 3.05150E+01 0.00000E+00
 -1      3832 5.55000E+01 2.92160E+01 0.00000E+00
 -1      3833 5.92500E+01 3.05150E+01 0.00000E+00
 -1      3834 6.07500E+01 3.05150E+01 0.00000E+00
 -1      3835 5.85000E+01 2.92160E+01 0.00000E+00
 -1      3836 6.22500E+01 3.05150E+01 0.00000E+00
 -1      3837 6.37500E+01 3.05150E+01 0.00000E+00
 -1      3838 6.15000E+01 2.92160E+01 0.00000E+00
 -1      3839 6.52500E+01 3.05150E+01 0.00000E+00
 -1      3840 6.67500E+01 3.05150E+01 0.00000E+00
 -1      3841 6.45000E+01 2.92160E+01 0.00000E+00
 -1      3842 6.82500E+01 3.05150E+01 0.00000E+00
 -1      3843 6.97500E+01 3.05150E+01 0.00000E+00
 -1      3844 6.75000E+01 2.92160E+01 0.00000E+00
 -1      3845 7.12500E+01 3.05150E+01 0.00000E+00
 -1      3846 7.27500E+01 3.05150E+01 0.00000E+00
 -1      3847 7.05000E+01 2.92160E+01 0.00000E+00
 -1      3848 7.42500E+01 3.05150E+01 0.00000E+00
 -1      3849 7.57500E+01 3.05150E+01 0.00000E+00
 -1      3850 7.35000E+01 2.92160E+01 0.00000E+00
 -1      3851 7.72500E+01 3.05150E+01 0.00000E+00
 -1      3852 7.87500E+01 3.05150E+01 0.00000E+00
 -1      3853 7.65000E+01 2.92160E+01 0.00000E+00
 -1      3854 8.02500E+01 3.05150E+01 0.00000E+00
 -1      3855 8.17500E+01 3.05150E+01 0.00000E+00
 -1      3856 7.95000E+01 2.92160E+01 0.00000E+00
 -1      3857 8.32500E+01 3.05150E+01 0.00000E+00
 -1      3858 8.47500E+01 3.05150E+01 0.00000E+00
 -1      3859 8.25000E+01 2.92160E+01 0.00000E+00
 -1      3860 8.62500E+01 3.05150E+01 0.00000E+00
 -1      3861 8.77500E+01 3.05150E+01 0.00000E+00
 -1      3862 8.55000E+01 2.92160E+01 0.00000E+00
 -1      3863 8.92500E+01 3.05150E+01 0.00000E+00
 -1      3864 9.07500E+01 3.05150E+01 0.00000E+00
 -1      3865 8.85000E+01 2.92160E+01 0.00000E+00
 -1      3866 9.22500E+01 3.05150E+01 0.00000E+00
 -1      3867 9.37500E+01 3.05150E+01 0.00000E+00
 -1      3868 9.15000E+01 2.92160E+01 0.00000E+00
 -1      3869 9.52500E+01 3.05150E+01 0.00000E+00
 -1      3870 9.67500E+01 3.05150E+01 0.00000E+00
 -1      3871 9.45000E+01 2.92160E+01 0.00000E+00
 -1      3872 9.81750E+01 3.05150E+01 0.00000E+00
 -1      3873 9.96000E+01 3.05150E+01 0.00000E+00
 -1      3874 9.74250E+01 2.92160E+01 0.00000E+00
 -1      3875 2.83740E+01 1.77755E+01 0.00000E+00
 -1      3876 2.76240E+01 1.64765E+01 0.00000E+00
 -1      3877 2.61240E+01 1.64765E+01 0.00000E+00
 -1      3878 1.21425E+02 1.77634E+01 0.00000E+00
 -1      3879 1.15381E+02 1.88769E+01 0.00000E+00
 -1      3880 4.41240E+01 1.90745E+01 0.00000E+00
 -1      3881 4.26240E+01 1.90745E+01 0.00000E+00
 -1      3882 5.61240E+01 1.90745E+01 0.00000E+00
 -1      3883 5.46240E+01 1.90745E+01 0.00000E+00
 -1      3884 5.31240E+01 1.90745E+01 0.00000E+00
 -1      3885 5.16240E+01 1.90745E+01 0.00000E+00
 -1      3886 5.38740E+01 2.03735E+01 0.00000E+00
 -1      3887 6.21240E+01 1.90745E+01 0.00000E+00
 -1      3888 6.06240E+01 1.90745E+01 0.00000E+00
 -1      3889 6.51240E+01 1.90745E+01 0.00000E+00
 -1      3890 6.36240E+01 1.90745E+01 0.00000E+00
 -1      3891 6.28740E+01 2.03735E+01 0.00000E+00
 -1      3892 6.81240E+01 1.90745E+01 0.00000E+00
 -1      3893 6.66240E+01 1.90745E+01 0.00000E+00
 -1      3894 6.58740E+01 2.03735E+01 0.00000E+00
 -1      3895 7.11240E+01 1.90745E+01 0.00000E+00
 -1      3896 6.96240E+01 1.90745E+01 0.00000E+00
 -1      3897 6.88740E+01 2.03735E+01 0.00000E+00
 -1      3898 7.41240E+01 1.90745E+01 0.00000E+00
 -1      3899 7.26240E+01 1.90745E+01 0.00000E+00
 -1      3900 7.18740E+01 2.03735E+01 0.00000E+00
 -1      3901 7.71240E+01 1.90745E+01 0.00000E+00
 -1      3902 7.56240E+01 1.90745E+01 0.00000E+00
 -1      3903 7.48740E+01 2.03735E+01 0.00000E+00
 -1      3904 8.01240E+01 1.90745E+01 0.00000E+00
 -1      3905 7.86240E+01 1.90745E+01 0.00000E+00
 -1      3906 7.78740E+01 2.03735E+01 0.00000E+00
 -1      3907 8.31240E+01 1.90745E+01 0.00000E+00
 -1      3908 8.16240E+01 1.90745E+01 0.00000E+00
 -1      3909 8.08740E+01 2.03735E+01 0.00000E+00
 -1      3910 8.61240E+01 1.90745E+01 0.00000E+00
 -1      3911 8.46240E+01 1.90745E+01 0.00000E+00
 -1      3912 8.38740E+01 2.03735E+01 0.00000E+00
 -1      3913 8.91240E+01 1.90745E+01 0.00000E+00
 -1      3914 8.76240E+01 1.90745E+01 0.00000E+00
 -1      3915 8.68740E+01 2.03735E+01 0.00000E+00
 -1      3916 9.21240E+01 1.90745E+01 0.00000E+00
 -1      3917 9.06240E+01 1.90745E+01 0.00000E+00
 -1      3918 8.98740E+01 2.03735E+01 0.00000E+00
 -1      3919 9.51240E+01 1.90745E+01 0.00000E+00
 -1      3920 9.36240E+01 1.90745E+01 0.00000E+00
 -1      3921 9.28740E+01 2.03735E+01 0.00000E+00
 -1      3922 9.81240E+01 1.90745E+01 0.00000E+00
 -1      3923 9.66240E+01 1.90745E+01 0.00000E+00
 -1      3924 9.58740E+01 2.03735E+01 0.00000E+00
 -1      3925 1.01124E+02 1.90745E+01 0.00000E+00
 -1      3926 9.96240E+01 1.90745E+01 0.00000E+00
 -1      3927 9.88740E+01 2.03735E+01 0.00000E+00
 -1      3928 1.04124E+02 1.90745E+01 0.00000E+00
 -1      3929 1.02624E+02 1.90745E+01 0.00000E+00
 -1      3930 1.01874E+02 2.03735E+01 0.00000E+00
 -1      3931 1.07949E+02 1.94493E+01 0.00000E+00
 -1      3932 1.06449E+02 1.94493E+01 0.00000E+00
 -1      3933 1.09449E+02 1.94493E+01 0.00000E+00
 -1      3934 1.13881E+02 1.88769E+01 0.00000E+00
 -1      3935 1.32232E+02 1.93152E+01 0.00000E+00
 -1      3936 1.00747E+02 3.05248E+01 0.00000E+00
 -1      3937 1.01771E+02 3.06045E+01 0.00000E+00
 -1      3938 1.02168E+02 2.93153E+01 0.00000E+00
 -1      3939 4.11240E+01 1.90745E+01 0.00000E+00
 -1      3940 3.96240E+01 1.90745E+01 0.00000E+00
 -1      3941 4.18740E+01 2.03735E+01 0.00000E+00
 -1      3942 1.64538E+01 1.92502E+01 0.00000E+00
 -1      3943 1.81513E+01 3.09868E+01 0.00000E+00
 -1      3944 5.91240E+01 1.90745E+01 0.00000E+00
 -1      3945 5.76240E+01 1.90745E+01 0.00000E+00
 -1      3946 5.98740E+01 2.03735E+01 0.00000E+00
 -1      3947 1.73393E+01 2.73411E+01 0.00000E+00
 -1      3948 1.76991E+01 2.93535E+01 0.00000E+00
 -1      3949 1.95427E+01 2.98716E+01 0.00000E+00
 -1      3950 1.86383E+01 2.66051E+01 0.00000E+00
 -1      3951 5.01240E+01 1.90745E+01 0.00000E+00
 -1      3952 4.86240E+01 1.90745E+01 0.00000E+00
 -1      3953 5.08740E+01 2.03735E+01 0.00000E+00
 -1      3954 2.62500E+01 3.05150E+01 0.00000E+00
 -1      3955 2.77500E+01 3.05150E+01 0.00000E+00
 -1      3956 2.85000E+01 2.92160E+01 0.00000E+00
 -1      3957 1.22959E+02 1.88701E+01 0.00000E+00
 -1      3958 2.31240E+01 1.64765E+01 0.00000E+00
 -1      3959 2.23740E+01 1.77755E+01 0.00000E+00
 -1      3960 2.46240E+01 1.64765E+01 0.00000E+00
 -1      3961 1.02815E+02 2.77494E+01 0.00000E+00
 -1      3962 1.03462E+02 2.61835E+01 0.00000E+00
 -1      3963 1.01791E+02 2.76698E+01 0.00000E+00
 -1      3964 2.32500E+01 3.05150E+01 0.00000E+00
 -1      3965 2.47500E+01 3.05150E+01 0.00000E+00
 -1      3966 2.55000E+01 2.92160E+01 0.00000E+00
 -1      3967 2.00447E+01 1.91137E+01 0.00000E+00
 -1      3968 1.82674E+01 1.91949E+01 0.00000E+00
 -1      3969 4.71240E+01 1.90745E+01 0.00000E+00
 -1      3970 4.56240E+01 1.90745E+01 0.00000E+00
 -1      3971 4.48740E+01 2.03735E+01 0.00000E+00
 -1      3972 1.12381E+02 1.88769E+01 0.00000E+00
 -1      3973 1.10952E+02 1.97520E+01 0.00000E+00
 -1      3974 1.03627E+02 2.18159E+01 0.00000E+00
 -1      3975 1.05146E+02 2.14918E+01 0.00000E+00
 -1      3976 9.99971E+01 2.92258E+01 0.00000E+00
 -1      3977 2.91240E+01 1.90745E+01 0.00000E+00
 -1      3978 2.76240E+01 1.90745E+01 0.00000E+00
 -1      3979 3.21240E+01 1.90745E+01 0.00000E+00
 -1      3980 3.06240E+01 1.90745E+01 0.00000E+00
 -1      3981 2.98740E+01 2.03735E+01 0.00000E+00
 -1      3982 2.30447E+01 1.91137E+01 0.00000E+00
 -1      3983 2.15447E+01 1.91137E+01 0.00000E+00
 -1      3984 2.07153E+01 2.04520E+01 0.00000E+00
 -1      3985 5.68740E+01 2.03735E+01 0.00000E+00
 -1      3986 1.74017E+01 2.05072E+01 0.00000E+00
 -1      3987 2.07701E+01 3.01160E+01 0.00000E+00
 -1      3988 2.20226E+01 3.02706E+01 0.00000E+00
 -1      3989 2.27726E+01 2.89716E+01 0.00000E+00
 -1      3990 2.03179E+01 2.84828E+01 0.00000E+00
 -1      3991 3.88740E+01 2.03735E+01 0.00000E+00
 -1      3992 3.81240E+01 1.90745E+01 0.00000E+00
 -1      3993 3.66240E+01 1.90745E+01 0.00000E+00
 -1      3994 3.43740E+01 1.77755E+01 0.00000E+00
 -1      3995 1.94134E+01 2.52163E+01 0.00000E+00
 -1      3996 1.98656E+01 2.68495E+01 0.00000E+00
 -1      3997 2.10930E+01 2.70939E+01 0.00000E+00
 -1      3998 4.78740E+01 2.03735E+01 0.00000E+00
 -1      3999 1.03159E+02 2.46811E+01 0.00000E+00
 -1      4000 9.94970E+01 2.76501E+01 0.00000E+00
 -1      4001 1.00644E+02 2.76599E+01 0.00000E+00
 -1      4002 1.01291E+02 2.60940E+01 0.00000E+00
 -1      4003 2.53740E+01 1.77755E+01 0.00000E+00
 -1      4004 3.37500E+01 2.79170E+01 0.00000E+00
 -1      4005 3.52500E+01 2.79170E+01 0.00000E+00
 -1      4006 3.67500E+01 2.79170E+01 0.00000E+00
 -1      4007 3.82500E+01 2.79170E+01 0.00000E+00
 -1      4008 3.60000E+01 2.66180E+01 0.00000E+00
 -1      4009 3.97500E+01 2.79170E+01 0.00000E+00
 -1      4010 4.12500E+01 2.79170E+01 0.00000E+00
 -1      4011 3.90000E+01 2.66180E+01 0.00000E+00
 -1      4012 4.27500E+01 2.79170E+01 0.00000E+00
 -1      4013 4.42500E+01 2.79170E+01 0.00000E+00
 -1      4014 4.20000E+01 2.66180E+01 0.00000E+00
 -1      4015 4.57500E+01 2.79170E+01 0.00000E+00
 -1      4016 4.72500E+01 2.79170E+01 0.00000E+00
 -1      4017 4.50000E+01 2.66180E+01 0.00000E+00
 -1      4018 4.87500E+01 2.79170E+01 0.00000E+00
 -1      4019 5.02500E+01 2.79170E+01 0.00000E+00
 -1      4020 4.80000E+01 2.66180E+01 0.00000E+00
 -1      4021 5.17500E+01 2.79170E+01 0.00000E+00
 -1      4022 5.32500E+01 2.79170E+01 0.00000E+00
 -1      4023 5.10000E+01 2.66180E+01 0.00000E+00
 -1      4024 5.47500E+01 2.79170E+01 0.00000E+00
 -1      4025 5.62500E+01 2.79170E+01 0.00000E+00
 -1      4026 5.40000E+01 2.66180E+01 0.00000E+00
 -1      4027 5.77500E+01 2.79170E+01 0.00000E+00
 -1      4028 5.92500E+01 2.79170E+01 0.00000E+00
 -1      4029 5.70000E+01 2.66180E+01 0.00000E+00
 -1      4030 6.07500E+01 2.79170E+01 0.00000E+00
 -1      4031 6.22500E+01 2.79170E+01 0.00000E+00
 -1      4032 6.00000E+01 2.66180E+01 0.00000E+00
 -1      4033 6.37500E+01 2.79170E+01 0.00000E+00
 -1      4034 6.52500E+01 2.79170E+01 0.00000E+00
 -1      4035 6.30000E+01 2.66180E+01 0.00000E+00
 -1      4036 6.67500E+01 2.79170E+01 0.00000E+00
 -1      4037 6.82500E+01 2.79170E+01 0.00000E+00
 -1      4038 6.60000E+01 2.66180E+01 0.00000E+00
 -1      4039 6.97500E+01 2.79170E+01 0.00000E+00
 -1      4040 7.12500E+01 2.79170E+01 0.00000E+00
 -1      4041 6.90000E+01 2.66180E+01 0.00000E+00
 -1      4042 7.27500E+01 2.79170E+01 0.00000E+00
 -1      4043 7.42500E+01 2.79170E+01 0.00000E+00
 -1      4044 7.20000E+01 2.66180E+01 0.00000E+00
 -1      4045 7.57500E+01 2.79170E+01 0.00000E+00
 -1      4046 7.72500E+01 2.79170E+01 0.00000E+00
 -1      4047 7.50000E+01 2.66180E+01 0.00000E+00
 -1      4048 7.87500E+01 2.79170E+01 0.00000E+00
 -1      4049 8.02500E+01 2.79170E+01 0.00000E+00
 -1      4050 7.80000E+01 2.66180E+01 0.00000E+00
 -1      4051 8.17500E+01 2.79170E+01 0.00000E+00
 -1      4052 8.32500E+01 2.79170E+01 0.00000E+00
 -1      4053 8.10000E+01 2.66180E+01 0.00000E+00
 -1      4054 8.47500E+01 2.79170E+01 0.00000E+00
 -1      4055 8.62500E+01 2.79170E+01 0.00000E+00
 -1      4056 8.40000E+01 2.66180E+01 0.00000E+00
 -1      4057 8.77500E+01 2.79170E+01 0.00000E+00
 -1      4058 8.92500E+01 2.79170E+01 0.00000E+00
 -1      4059 8.70000E+01 2.66180E+01 0.00000E+00
 -1      4060 9.07500E+01 2.79170E+01 0.00000E+00
 -1      4061 9.22500E+01 2.79170E+01 0.00000E+00
 -1      4062 9.00000E+01 2.66180E+01 0.00000E+00
 -1      4063 9.37500E+01 2.79170E+01 0.00000E+00
 -1      4064 9.52500E+01 2.79170E+01 0.00000E+00
 -1      4065 9.30000E+01 2.66180E+01 0.00000E+00
 -1      4066 9.66610E+01 2.77835E+01 0.00000E+00
 -1      4067 9.80860E+01 2.77835E+01 0.00000E+00
 -1      4068 9.87331E+01 2.62176E+01 0.00000E+00
 -1      4069 9.59110E+01 2.64845E+01 0.00000E+00
 -1      4070 5.46240E+01 2.16725E+01 0.00000E+00
 -1      4071 5.31240E+01 2.16725E+01 0.00000E+00
 -1      4072 1.02643E+02 2.32485E+01 0.00000E+00
 -1      4073 1.02390E+02 2.18061E+01 0.00000E+00
 -1      4074 1.00890E+02 2.18061E+01 0.00000E+00
 -1      4075 1.01922E+02 2.46713E+01 0.00000E+00
 -1      4076 4.86240E+01 2.16725E+01 0.00000E+00
 -1      4077 4.71240E+01 2.16725E+01 0.00000E+00
 -1      4078 2.77500E+01 2.79170E+01 0.00000E+00
 -1      4079 2.92500E+01 2.79170E+01 0.00000E+00
 -1      4080 6.66240E+01 2.16725E+01 0.00000E+00
 -1      4081 6.51240E+01 2.16725E+01 0.00000E+00
 -1      4082 6.36240E+01 2.16725E+01 0.00000E+00
 -1      4083 6.21240E+01 2.16725E+01 0.00000E+00
 -1      4084 6.43740E+01 2.29715E+01 0.00000E+00
 -1      4085 7.26240E+01 2.16725E+01 0.00000E+00
 -1      4086 7.11240E+01 2.16725E+01 0.00000E+00
 -1      4087 7.56240E+01 2.16725E+01 0.00000E+00
 -1      4088 7.41240E+01 2.16725E+01 0.00000E+00
 -1      4089 7.33740E+01 2.29715E+01 0.00000E+00
 -1      4090 7.86240E+01 2.16725E+01 0.00000E+00
 -1      4091 7.71240E+01 2.16725E+01 0.00000E+00
 -1      4092 7.63740E+01 2.29715E+01 0.00000E+00
 -1      4093 8.16240E+01 2.16725E+01 0.00000E+00
 -1      4094 8.01240E+01 2.16725E+01 0.00000E+00
 -1      4095 7.93740E+01 2.29715E+01 0.00000E+00
 -1      4096 8.46240E+01 2.16725E+01 0.00000E+00
 -1      4097 8.31240E+01 2.16725E+01 0.00000E+00
 -1      4098 8.23740E+01 2.29715E+01 0.00000E+00
 -1      4099 8.76240E+01 2.16725E+01 0.00000E+00
 -1      4100 8.61240E+01 2.16725E+01 0.00000E+00
 -1      4101 8.53740E+01 2.29715E+01 0.00000E+00
 -1      4102 9.06240E+01 2.16725E+01 0.00000E+00
 -1      4103 8.91240E+01 2.16725E+01 0.00000E+00
 -1      4104 8.83740E+01 2.29715E+01 0.00000E+00
 -1      4105 9.36240E+01 2.16725E+01 0.00000E+00
 -1      4106 9.21240E+01 2.16725E+01 0.00000E+00
 -1      4107 9.13740E+01 2.29715E+01 0.00000E+00
 -1      4108 9.66240E+01 2.16725E+01 0.00000E+00
 -1      4109 9.51240E+01 2.16725E+01 0.00000E+00
 -1      4110 9.43740E+01 2.29715E+01 0.00000E+00
 -1      4111 9.95070E+01 2.17393E+01 0.00000E+00
 -1      4112 9.80070E+01 2.17393E+01 0.00000E+00
 -1      4113 9.72570E+01 2.30383E+01 0.00000E+00
 -1      4114 1.00023E+02 2.31719E+01 0.00000E+00
 -1      4115 1.05699E+02 2.07483E+01 0.00000E+00
 -1      4116 2.68740E+01 2.03735E+01 0.00000E+00
 -1      4117 2.61240E+01 1.90745E+01 0.00000E+00
 -1      4118 2.46240E+01 1.90745E+01 0.00000E+00
 -1      4119 1.87007E+01 2.12432E+01 0.00000E+00
 -1      4120 2.47500E+01 2.79170E+01 0.00000E+00
 -1      4121 2.62500E+01 2.79170E+01 0.00000E+00
 -1      4122 2.70000E+01 2.66180E+01 0.00000E+00
 -1      4123 1.90534E+01 2.38201E+01 0.00000E+00
 -1      4124 2.02808E+01 2.40645E+01 0.00000E+00
 -1      4125 4.26240E+01 2.16725E+01 0.00000E+00
 -1      4126 4.11240E+01 2.16725E+01 0.00000E+00
 -1      4127 6.06240E+01 2.16725E+01 0.00000E+00
 -1      4128 5.91240E+01 2.16725E+01 0.00000E+00
 -1      4129 6.13740E+01 2.29715E+01 0.00000E+00
 -1      4130 6.96240E+01 2.16725E+01 0.00000E+00
 -1      4131 6.81240E+01 2.16725E+01 0.00000E+00
 -1      4132 7.03740E+01 2.29715E+01 0.00000E+00
 -1      4133 1.90534E+01 2.23513E+01 0.00000E+00
 -1      4134 5.16240E+01 2.16725E+01 0.00000E+00
 -1      4135 5.01240E+01 2.16725E+01 0.00000E+00
 -1      4136 5.23740E+01 2.29715E+01 0.00000E+00
 -1      4137 1.95680E+01 2.15602E+01 0.00000E+00
 -1      4138 3.07500E+01 2.79170E+01 0.00000E+00
 -1      4139 3.22500E+01 2.79170E+01 0.00000E+00
 -1      4140 3.30000E+01 2.66180E+01 0.00000E+00
 -1      4141 3.51240E+01 1.90745E+01 0.00000E+00
 -1      4142 3.36240E+01 1.90745E+01 0.00000E+00
 -1      4143 3.28740E+01 2.03735E+01 0.00000E+00
 -1      4144 3.58740E+01 2.03735E+01 0.00000E+00
 -1      4145 5.76240E+01 2.16725E+01 0.00000E+00
 -1      4146 5.61240E+01 2.16725E+01 0.00000E+00
 -1      4147 5.53740E+01 2.29715E+01 0.00000E+00
 -1      4148 5.83740E+01 2.29715E+01 0.00000E+00
 -1      4149 4.56240E+01 2.16725E+01 0.00000E+00
 -1      4150 4.41240E+01 2.16725E+01 0.00000E+00
 -1      4151 4.33740E+01 2.29715E+01 0.00000E+00
 -1      4152 2.13586E+01 2.30421E+01 0.00000E+00
 -1      4153 2.17186E+01 2.44383E+01 0.00000E+00
 -1      4154 2.10680E+01 2.15601E+01 0.00000E+00
 -1      4155 1.00775E+02 2.46614E+01 0.00000E+00
 -1      4156 3.06240E+01 2.16725E+01 0.00000E+00
 -1      4157 2.91240E+01 2.16725E+01 0.00000E+00
 -1      4158 2.37947E+01 2.04127E+01 0.00000E+00
 -1      4159 2.25059E+01 2.19339E+01 0.00000E+00
 -1      4160 3.00000E+01 2.66180E+01 0.00000E+00
 -1      4161 6.73740E+01 2.29715E+01 0.00000E+00
 -1      4162 4.93740E+01 2.29715E+01 0.00000E+00
 -1      4163 2.76240E+01 2.16725E+01 0.00000E+00
 -1      4164 2.61240E+01 2.16725E+01 0.00000E+00
 -1      4165 2.83740E+01 2.29715E+01 0.00000E+00
 -1      4166 2.41482E+01 2.50169E+01 0.00000E+00
 -1      4167 2.30704E+01 2.60393E+01 0.00000E+00
 -1      4168 4.03740E+01 2.29715E+01 0.00000E+00
 -1      4169 3.96240E+01 2.16725E+01 0.00000E+00
 -1      4170 3.81240E+01 2.16725E+01 0.00000E+00
 -1      4171 4.63740E+01 2.29715E+01 0.00000E+00
 -1      4172 3.52500E+01 2.53190E+01 0.00000E+00
 -1      4173 3.67500E+01 2.53190E+01 0.00000E+00
 -1      4174 9.93921E+01 2.45946E+01 0.00000E+00
 -1      4175 3.81870E+01 2.47948E+01 0.00000E+00
 -1      4176 3.96870E+01 2.47948E+01 0.00000E+00
 -1      4177 4.11870E+01 2.47948E+01 0.00000E+00
 -1      4178 4.26870E+01 2.47948E+01 0.00000E+00
 -1      4179 4.41870E+01 2.47948E+01 0.00000E+00
 -1      4180 4.56870E+01 2.47948E+01 0.00000E+00
 -1      4181 4.71870E+01 2.47948E+01 0.00000E+00
 -1      4182 4.86870E+01 2.47948E+01 0.00000E+00
 -1      4183 5.01870E+01 2.47948E+01 0.00000E+00
 -1      4184 5.16870E+01 2.47948E+01 0.00000E+00
 -1      4185 5.31870E+01 2.47948E+01 0.00000E+00
 -1      4186 5.46870E+01 2.47948E+01 0.00000E+00
 -1      4187 5.61870E+01 2.47948E+01 0.00000E+00
 -1      4188 5.76870E+01 2.47948E+01 0.00000E+00
 -1      4189 5.91870E+01 2.47948E+01 0.00000E+00
 -1      4190 6.06870E+01 2.47948E+01 0.00000E+00
 -1      4191 6.21870E+01 2.47948E+01 0.00000E+00
 -1      4192 6.36870E+01 2.47948E+01 0.00000E+00
 -1      4193 6.51870E+01 2.47948E+01 0.00000E+00
 -1      4194 6.66870E+01 2.47948E+01 0.00000E+00
 -1      4195 6.81870E+01 2.47948E+01 0.00000E+00
 -1      4196 6.96870E+01 2.47948E+01 0.00000E+00
 -1      4197 7.11870E+01 2.47948E+01 0.00000E+00
 -1      4198 7.26870E+01 2.47948E+01 0.00000E+00
 -1      4199 7.41870E+01 2.47948E+01 0.00000E+00
 -1      4200 7.56870E+01 2.47948E+01 0.00000E+00
 -1      4201 7.71870E+01 2.47948E+01 0.00000E+00
 -1      4202 7.86870E+01 2.47948E+01 0.00000E+00
 -1      4203 8.01870E+01 2.47948E+01 0.00000E+00
 -1      4204 8.16870E+01 2.47948E+01 0.00000E+00
 -1      4205 8.31870E+01 2.47948E+01 0.00000E+00
 -1      4206 8.46870E+01 2.47948E+01 0.00000E+00
 -1      4207 8.61870E+01 2.47948E+01 0.00000E+00
 -1      4208 8.76870E+01 2.47948E+01 0.00000E+00
 -1      4209 8.91870E+01 2.47948E+01 0.00000E+00
 -1      4210 9.06870E+01 2.47948E+01 0.00000E+00
 -1      4211 9.21870E+01 2.47948E+01 0.00000E+00
 -1      4212 9.36870E+01 2.47948E+01 0.00000E+00
 -1      4213 3.21240E+01 2.16725E+01 0.00000E+00
 -1      4214 3.13740E+01 2.29715E+01 0.00000E+00
 -1      4215 3.36240E+01 2.16725E+01 0.00000E+00
 -1      4216 2.40852E+01 2.18947E+01 0.00000E+00
 -1      4217 3.21870E+01 2.47948E+01 0.00000E+00
 -1      4218 3.36870E+01 2.47948E+01 0.00000E+00
 -1      4219 9.51870E+01 2.47948E+01 0.00000E+00
 -1      4220 2.23204E+01 2.73383E+01 0.00000E+00
 -1      4221 2.61870E+01 2.47948E+01 0.00000E+00
 -1      4222 2.76870E+01 2.47948E+01 0.00000E+00
 -1      4223 2.48352E+01 2.31937E+01 0.00000E+00
 -1      4224 9.65980E+01 2.46613E+01 0.00000E+00
 -1      4225 2.91870E+01 2.47948E+01 0.00000E+00
 -1      4226 3.06870E+01 2.47948E+01 0.00000E+00
 -1      4227 9.79811E+01 2.47281E+01 0.00000E+00
 -1      4228 3.74370E+01 2.34958E+01 0.00000E+00
 -1      4229 3.44370E+01 2.34958E+01 0.00000E+00
 -1      4230 3.66870E+01 2.21968E+01 0.00000E+00
 -1      4231 3.51870E+01 2.21968E+01 0.00000E+00
 -3
    3C                          2033                                     1
 -1       166    8    0    1
 -2         6         7        23      1100      1265      1117
 -1       167    8    0    1
 -2         7         8       166      1101      1266      1267
 -1       168    8    0    1
 -2         8         9       167      1102      1268      1269
 -1       169    8    0    1
 -2         8       167       166      1269      1270      1266
 -1       170    8    0    1
 -2         9        10       168      1103      1271      1272
 -1       171    8    0    1
 -2         9       168       167      1272      1273      1268
 -1       172    8    0    1
 -2        10        11       169      1104      1274      1275
 -1       173    8    0    1
 -2        10       169       168      1275      1276      1271
 -1       174    8    0    1
 -2        11        12       170      1105      1277      1278
 -1       175    8    0    1
 -2        11       170       169      1278      1279      1274
 -1       176    8    0    1
 -2        12        13       171      1106      1280      1281
 -1       177    8    0    1
 -2        12       171       170      1281      1282      1277
 -1       178    8    0    1
 -2        13        14       172      1107      1283      1284
 -1       179    8    0    1
 -2        13       172       171      1284      1285      1280
 -1       180    8    0    1
 -2        14        15       173      1108      1286      1287
 -1       181    8    0    1
 -2        14       173       172      1287      1288      1283
 -1       182    8    0    1
 -2        15        16       174      1109      1289      1290
 -1       183    8    0    1
 -2        15       174       173      1290      1291      1286
 -1       184    8    0    1
 -2        16        17       175      1110      1292      1293
 -1       185    8    0    1
 -2        16       175       174      1293      1294      1289
 -1       186    8    0    1
 -2        17        18       176      1111      1295      1296
 -1       187    8    0    1
 -2        17       176       175      1296      1297      1292
 -1       188    8    0    1
 -2        18        19       177      1112      1298      1299
 -1       189    8    0    1
 -2        18       177       176      1299      1300      1295
 -1       190    8    0    1
 -2        19        20       178      1113      1301      1302
 -1       191    8    0    1
 -2        19       178       177      1302      1303      1298
 -1       192    8    0    1
 -2        20        21       179      1114      1304      1305
 -1       193    8    0    1
 -2        20       179       178      1305      1306      1301
 -1       194    8    0    1
 -2        21        22       180      1115      1307      1308
 -1       195    8    0    1
 -2        21       180       179      1308      1309      1304
 -1       196    8    0    1
 -2        22         5       181      1116      1310      1311
 -1       197    8    0    1
 -2       180        22       181      1307      1311      1312
 -1       198    8    0    1
 -2         5        73       181      1168      1313      1310
 -1       199    8    0    1
 -2        24        23       182      1118      1314      1315
 -1       200    8    0    1
 -2        25        24       183      1119      1316      1317
 -1       201    8    0    1
 -2        24       182       183      1315      1318      1316
 -1       202    8    0    1
 -2        26        25       184      1120      1319      1320
 -1       203    8    0    1
 -2        25       183       184      1317      1321      1319
 -1       204    8    0    1
 -2        27        26       185      1121      1322      1323
 -1       205    8    0    1
 -2        26       184       185      1320      1324      1322
 -1       206    8    0    1
 -2        28        27       186      1122      1325      1326
 -1       207    8    0    1
 -2        27       185       186      1323      1327      1325
 -1       208    8    0    1
 -2        29        28       187      1123      1328      1329
 -1       209    8    0    1
 -2        28       186       187      1326      1330      1328
 -1       210    8    0    1
 -2        30        29       188      1124      1331      1332
 -1       211    8    0    1
 -2        29       187       188      1329      1333      1331
 -1       212    8    0    1
 -2        31        30       189      1125      1334      1335
 -1       213    8    0    1
 -2        30       188       189      1332      1336      1334
 -1       214    8    0    1
 -2        32        31       190      1126      1337      1338
 -1       215    8    0    1
 -2        31       189       190      1335      1339      1337
 -1       216    8    0    1
 -2        33        32       191      1127      1340      1341
 -1       217    8    0    1
 -2        32       190       191      1338      1342      1340
 -1       218    8    0    1
 -2        34        33       192      1128      1343      1344
 -1       219    8    0    1
 -2        33       191       192      1341      1345      1343
 -1       220    8    0    1
 -2        35        34       193      1129      1346      1347
 -1       221    8    0    1
 -2        34       192       193      1344      1348      1346
 -1       222    8    0    1
 -2        36        35       194      1130      1349      1350
 -1       223    8    0    1
 -2        35       193       194      1347      1351      1349
 -1       224    8    0    1
 -2        37        36       195      1131      1352      1353
 -1       225    8    0    1
 -2        36       194       195      1350      1354      1352
 -1       226    8    0    1
 -2        38        37       196      1132      1355      1356
 -1       227    8    0    1
 -2        37       195       196      1353      1357      1355
 -1       228    8    0    1
 -2        39        38       197      1133      1358      1359
 -1       229    8    0    1
 -2        38       196       197      1356      1360      1358
 -1       230    8    0    1
 -2        40        39       198      1134      1361      1362
 -1       231    8    0    1
 -2        39       197       198      1359      1363      1361
 -1       232    8    0    1
 -2        41        40       199      1135      1364      1365
 -1       233    8    0    1
 -2        40       198       199      1362      1366      1364
 -1       234    8    0    1
 -2        42        41       200      1136      1367      1368
 -1       235    8    0    1
 -2        41       199       200      1365      1369      1367
 -1       236    8    0    1
 -2        43        42       201      1137      1370      1371
 -1       237    8    0    1
 -2        42       200       201      1368      1372      1370
 -1       238    8    0    1
 -2        44        43       202      1138      1373      1374
 -1       239    8    0    1
 -2        43       201       202      1371      1375      1373
 -1       240    8    0    1
 -2        45        44       203      1139      1376      1377
 -1       241    8    0    1
 -2        44       202       203      1374      1378      1376
 -1       242    8    0    1
 -2        46        45       204      1140      1379      1380
 -1       243    8    0    1
 -2        45       203       204      1377      1381      1379
 -1       244    8    0    1
 -2        47        46       205      1141      1382      1383
 -1       245    8    0    1
 -2        46       204       205      1380      1384      1382
 -1       246    8    0    1
 -2        48        47       206      1142      1385      1386
 -1       247    8    0    1
 -2        47       205       206      1383      1387      1385
 -1       248    8    0    1
 -2        49        48       207      1143      1388      1389
 -1       249    8    0    1
 -2        48       206       207      1386      1390      1388
 -1       250    8    0    1
 -2        50        49       208      1144      1391      1392
 -1       251    8    0    1
 -2        49       207       208      1389      1393      1391
 -1       252    8    0    1
 -2        51        50       209      1145      1394      1395
 -1       253    8    0    1
 -2        50       208       209      1392      1396      1394
 -1       254    8    0    1
 -2        52        51       210      1146      1397      1398
 -1       255    8    0    1
 -2        51       209       210      1395      1399      1397
 -1       256    8    0    1
 -2        53        52       211      1147      1400      1401
 -1       257    8    0    1
 -2        52       210       211      1398      1402      1400
 -1       258    8    0    1
 -2        54        53       212      1148      1403      1404
 -1       259    8    0    1
 -2        53       211       212      1401      1405      1403
 -1       260    8    0    1
 -2        55        54       213      1149      1406      1407
 -1       261    8    0    1
 -2        54       212       213      1404      1408      1406
 -1       262    8    0    1
 -2        56        55       214      1150      1409      1410
 -1       263    8    0    1
 -2        55       213       214      1407      1411      1409
 -1       264    8    0    1
 -2        57        56       215      1151      1412      1413
 -1       265    8    0    1
 -2        56       214       215      1410      1414      1412
 -1       266    8    0    1
 -2        58        57       216      1152      1415      1416
 -1       267    8    0    1
 -2        57       215       216      1413      1417      1415
 -1       268    8    0    1
 -2        59        58       217      1153      1418      1419
 -1       269    8    0    1
 -2        58       216       217      1416      1420      1418
 -1       270    8    0    1
 -2        60        59       218      1154      1421      1422
 -1       271    8    0    1
 -2        59       217       218      1419      1423      1421
 -1       272    8    0    1
 -2        61        60       219      1155      1424      1425
 -1       273    8    0    1
 -2        60       218       219      1422      1426      1424
 -1       274    8    0    1
 -2        63        62       220      1157      1427      1428
 -1       275    8    0    1
 -2        65        64       221      1159      1429      1430
 -1       276    8    0    1
 -2        66        65       222      1160      1431      1432
 -1       277    8    0    1
 -2        65       221       222      1430      1433      1431
 -1       278    8    0    1
 -2        67        66       223      1161      1434      1435
 -1       279    8    0    1
 -2        66       222       223      1432      1436      1434
 -1       280    8    0    1
 -2        68        67       224      1162      1437      1438
 -1       281    8    0    1
 -2        67       223       224      1435      1439      1437
 -1       282    8    0    1
 -2        69        68       225      1163      1440      1441
 -1       283    8    0    1
 -2        68       224       225      1438      1442      1440
 -1       284    8    0    1
 -2        70        69       226      1164      1443      1444
 -1       285    8    0    1
 -2        69       225       226      1441      1445      1443
 -1       286    8    0    1
 -2        71        70       227      1165      1446      1447
 -1       287    8    0    1
 -2        70       226       227      1444      1448      1446
 -1       288    8    0    1
 -2        72        71       228      1166      1449      1450
 -1       289    8    0    1
 -2        71       227       228      1447      1451      1449
 -1       290    8    0    1
 -2         4        72       229      1167      1452      1453
 -1       291    8    0    1
 -2       137         4       229      1234      1453      1454
 -1       292    8    0    1
 -2        72       228       229      1450      1455      1452
 -1       293    8    0    1
 -2        73        74       230      1169      1456      1457
 -1       294    8    0    1
 -2        73       230       181      1457      1458      1313
 -1       295    8    0    1
 -2        74        75       231      1170      1459      1460
 -1       296    8    0    1
 -2        74       231       230      1460      1461      1456
 -1       297    8    0    1
 -2        75        76       232      1171      1462      1463
 -1       298    8    0    1
 -2        75       232       231      1463      1464      1459
 -1       299    8    0    1
 -2        76        77       233      1172      1465      1466
 -1       300    8    0    1
 -2        76       233       232      1466      1467      1462
 -1       301    8    0    1
 -2        77        78       234      1173      1468      1469
 -1       302    8    0    1
 -2        77       234       233      1469      1470      1465
 -1       303    8    0    1
 -2        78        79       235      1174      1471      1472
 -1       304    8    0    1
 -2        78       235       234      1472      1473      1468
 -1       305    8    0    1
 -2        79        80       236      1175      1474      1475
 -1       306    8    0    1
 -2        79       236       235      1475      1476      1471
 -1       307    8    0    1
 -2        80        81       237      1176      1477      1478
 -1       308    8    0    1
 -2        80       237       236      1478      1479      1474
 -1       309    8    0    1
 -2        81        82       238      1177      1480      1481
 -1       310    8    0    1
 -2        81       238       237      1481      1482      1477
 -1       311    8    0    1
 -2        82        83       239      1178      1483      1484
 -1       312    8    0    1
 -2        82       239       238      1484      1485      1480
 -1       313    8    0    1
 -2        83        84       240      1179      1486      1487
 -1       314    8    0    1
 -2        83       240       239      1487      1488      1483
 -1       315    8    0    1
 -2        84        85       241      1180      1489      1490
 -1       316    8    0    1
 -2        84       241       240      1490      1491      1486
 -1       317    8    0    1
 -2        85        86       242      1181      1492      1493
 -1       318    8    0    1
 -2        85       242       241      1493      1494      1489
 -1       319    8    0    1
 -2        86        87       243      1182      1495      1496
 -1       320    8    0    1
 -2        86       243       242      1496      1497      1492
 -1       321    8    0    1
 -2        87        88       244      1183      1498      1499
 -1       322    8    0    1
 -2        87       244       243      1499      1500      1495
 -1       323    8    0    1
 -2        88        89       245      1184      1501      1502
 -1       324    8    0    1
 -2        88       245       244      1502      1503      1498
 -1       325    8    0    1
 -2        89        90       246      1185      1504      1505
 -1       326    8    0    1
 -2        89       246       245      1505      1506      1501
 -1       327    8    0    1
 -2        90        91       247      1186      1507      1508
 -1       328    8    0    1
 -2        90       247       246      1508      1509      1504
 -1       329    8    0    1
 -2        91        92       248      1187      1510      1511
 -1       330    8    0    1
 -2        91       248       247      1511      1512      1507
 -1       331    8    0    1
 -2        92        93       249      1188      1513      1514
 -1       332    8    0    1
 -2        92       249       248      1514      1515      1510
 -1       333    8    0    1
 -2        93        94       250      1189      1516      1517
 -1       334    8    0    1
 -2        93       250       249      1517      1518      1513
 -1       335    8    0    1
 -2        94        95       251      1190      1519      1520
 -1       336    8    0    1
 -2        94       251       250      1520      1521      1516
 -1       337    8    0    1
 -2        95        96       252      1191      1522      1523
 -1       338    8    0    1
 -2        95       252       251      1523      1524      1519
 -1       339    8    0    1
 -2        96        97       253      1192      1525      1526
 -1       340    8    0    1
 -2        96       253       252      1526      1527      1522
 -1       341    8    0    1
 -2        97        98       254      1193      1528      1529
 -1       342    8    0    1
 -2        97       254       253      1529      1530      1525
 -1       343    8    0    1
 -2        98        99       255      1194      1531      1532
 -1       344    8    0    1
 -2        98       255       254      1532      1533      1528
 -1       345    8    0    1
 -2        99       100       256      1195      1534      1535
 -1       346    8    0    1
 -2        99       256       255      1535      1536      1531
 -1       347    8    0    1
 -2       100       101       257      1196      1537      1538
 -1       348    8    0    1
 -2       100       257       256      1538      1539      1534
 -1       349    8    0    1
 -2       101       102       258      1197      1540      1541
 -1       350    8    0    1
 -2       101       258       257      1541      1542      1537
 -1       351    8    0    1
 -2       102       103       259      1198      1543      1544
 -1       352    8    0    1
 -2       102       259       258      1544      1545      1540
 -1       353    8    0    1
 -2       103       104       260      1199      1546      1547
 -1       354    8    0    1
 -2       103       260       259      1547      1548      1543
 -1       355    8    0    1
 -2       104       105       261      1200      1549      1550
 -1       356    8    0    1
 -2       104       261       260      1550      1551      1546
 -1       357    8    0    1
 -2       105       106       262      1201      1552      1553
 -1       358    8    0    1
 -2       105       262       261      1553      1554      1549
 -1       359    8    0    1
 -2       106       107       263      1202      1555      1556
 -1       360    8    0    1
 -2       106       263       262      1556      1557      1552
 -1       361    8    0    1
 -2       107       108       264      1203      1558      1559
 -1       362    8    0    1
 -2       107       264       263      1559      1560      1555
 -1       363    8    0    1
 -2       108       109       265      1204      1561      1562
 -1       364    8    0    1
 -2       108       265       264      1562      1563      1558
 -1       365    8    0    1
 -2       109       110       266      1205      1564      1565
 -1       366    8    0    1
 -2       109       266       265      1565      1566      1561
 -1       367    8    0    1
 -2       110       111       267      1206      1567      1568
 -1       368    8    0    1
 -2       110       267       266      1568      1569      1564
 -1       369    8    0    1
 -2       111       112       268      1207      1570      1571
 -1       370    8    0    1
 -2       111       268       267      1571      1572      1567
 -1       371    8    0    1
 -2       112       113       269      1208      1573      1574
 -1       372    8    0    1
 -2       112       269       268      1574      1575      1570
 -1       373    8    0    1
 -2       113       114       270      1209      1576      1577
 -1       374    8    0    1
 -2       113       270       269      1577      1578      1573
 -1       375    8    0    1
 -2       114       115       271      1210      1579      1580
 -1       376    8    0    1
 -2       114       271       270      1580      1581      1576
 -1       377    8    0    1
 -2       115       116       272      1211      1582      1583
 -1       378    8    0    1
 -2       115       272       271      1583      1584      1579
 -1       379    8    0    1
 -2       116       117       273      1212      1585      1586
 -1       380    8    0    1
 -2       116       273       272      1586      1587      1582
 -1       381    8    0    1
 -2       117       118       274      1213      1588      1589
 -1       382    8    0    1
 -2       117       274       273      1589      1590      1585
 -1       383    8    0    1
 -2       118       119       275      1214      1591      1592
 -1       384    8    0    1
 -2       118       275       274      1592      1593      1588
 -1       385    8    0    1
 -2       119       120       276      1215      1594      1595
 -1       386    8    0    1
 -2       119       276       275      1595      1596      1591
 -1       387    8    0    1
 -2       120       121       277      1216      1597      1598
 -1       388    8    0    1
 -2       120       277       276      1598      1599      1594
 -1       389    8    0    1
 -2       121         3       122      1217      1218      1600
 -1       390    8    0    1
 -2       122       123       278      1219      1601      1602
 -1       391    8    0    1
 -2       123       124       279      1220      1603      1604
 -1       392    8    0    1
 -2       123       279       278      1604      1605      1601
 -1       393    8    0    1
 -2       124       125       280      1221      1606      1607
 -1       394    8    0    1
 -2       124       280       279      1607      1608      1603
 -1       395    8    0    1
 -2       125       126       281      1222      1609      1610
 -1       396    8    0    1
 -2       125       281       280      1610      1611      1606
 -1       397    8    0    1
 -2       126       127       282      1223      1612      1613
 -1       398    8    0    1
 -2       126       282       281      1613      1614      1609
 -1       399    8    0    1
 -2       127       128       283      1224      1615      1616
 -1       400    8    0    1
 -2       127       283       282      1616      1617      1612
 -1       401    8    0    1
 -2       128       129       284      1225      1618      1619
 -1       402    8    0    1
 -2       128       284       283      1619      1620      1615
 -1       403    8    0    1
 -2       129       130       285      1226      1621      1622
 -1       404    8    0    1
 -2       129       285       284      1622      1623      1618
 -1       405    8    0    1
 -2       130       131       286      1227      1624      1625
 -1       406    8    0    1
 -2       130       286       285      1625      1626      1621
 -1       407    8    0    1
 -2       131       132       287      1228      1627      1628
 -1       408    8    0    1
 -2       131       287       286      1628      1629      1624
 -1       409    8    0    1
 -2       132       133       288      1229      1630      1631
 -1       410    8    0    1
 -2       132       288       287      1631      1632      1627
 -1       411    8    0    1
 -2       133       134       289      1230      1633      1634
 -1       412    8    0    1
 -2       133       289       288      1634      1635      1630
 -1       413    8    0    1
 -2       134       135       290      1231      1636      1637
 -1       414    8    0    1
 -2       134       290       289      1637      1638      1633
 -1       415    8    0    1
 -2       135       136       291      1232      1639      1640
 -1       416    8    0    1
 -2       135       291       290      1640      1641      1636
 -1       417    8    0    1
 -2       136       137       292      1233      1642      1643
 -1       418    8    0    1
 -2       291       136       292      1639      1643      1644
 -1       419    8    0    1
 -2       137       229       292      1454      1645      1642
 -1       420    8    0    1
 -2         2       138       293      1235      1646      1647
 -1       421    8    0    1
 -2       138       139       294      1236      1648      1649
 -1       422    8    0    1
 -2       139       140       295      1237      1650      1651
 -1       423    8    0    1
 -2       140       141       296      1238      1652      1653
 -1       424    8    0    1
 -2       141       142       297      1239      1654      1655
 -1       425    8    0    1
 -2       142       143       298      1240      1656      1657
 -1       426    8    0    1
 -2       143       144       299      1241      1658      1659
 -1       427    8    0    1
 -2       144       145       300      1242      1660      1661
 -1       428    8    0    1
 -2       145       146       301      1243      1662      1663
 -1       429    8    0    1
 -2       146       147       302      1244      1664      1665
 -1       430    8    0    1
 -2       147       148       303      1245      1666      1667
 -1       431    8    0    1
 -2       148       149       304      1246      1668      1669
 -1       432    8    0    1
 -2       149       150       305      1247      1670      1671
 -1       433    8    0    1
 -2       150       151       306      1248      1672      1673
 -1       434    8    0    1
 -2       151       152       307      1249      1674      1675
 -1       435    8    0    1
 -2       152       153       308      1250      1676      1677
 -1       436    8    0    1
 -2       153       154       309      1251      1678      1679
 -1       437    8    0    1
 -2       154       155       310      1252      1680      1681
 -1       438    8    0    1
 -2       155       156       311      1253      1682      1683
 -1       439    8    0    1
 -2       156       157       312      1254      1684      1685
 -1       440    8    0    1
 -2       157       158       313      1255      1686      1687
 -1       441    8    0    1
 -2       158         1       314      1256      1688      1689
 -1       442    8    0    1
 -2         1       159       315      1257      1690      1691
 -1       443    8    0    1
 -2       159       160       316      1258      1692      1693
 -1       444    8    0    1
 -2       160       161       317      1259      1694      1695
 -1       445    8    0    1
 -2       161       162       318      1260      1696      1697
 -1       446    8    0    1
 -2       162       163       319      1261      1698      1699
 -1       447    8    0    1
 -2       163       164       320      1262      1700      1701
 -1       448    8    0    1
 -2       164       165       321      1263      1702      1703
 -1       449    8    0    1
 -2       165         2       322      1264      1704      1705
 -1       450    8    0    1
 -2        61       219       323      1425      1706      1707
 -1       451    8    0    1
 -2       220        62       323      1427      1708      1709
 -1       452    8    0    1
 -2        62        61       323      1156      1707      1708
 -1       453    8    0    1
 -2         2       293       322      1647      1710      1704
 -1       454    8    0    1
 -2        64        63       324      1158      1711      1712
 -1       455    8    0    1
 -2       295       140       296      1650      1653      1713
 -1       456    8    0    1
 -2        63       220       324      1428      1714      1711
 -1       457    8    0    1
 -2       121       122       277      1600      1715      1597
 -1       458    8    0    1
 -2       122       278       277      1602      1716      1715
 -1       459    8    0    1
 -2       293       138       294      1646      1649      1717
 -1       460    8    0    1
 -2       294       139       295      1648      1651      1718
 -1       461    8    0    1
 -2       141       297       296      1655      1719      1652
 -1       462    8    0    1
 -2       142       298       297      1657      1720      1654
 -1       463    8    0    1
 -2       143       299       298      1659      1721      1656
 -1       464    8    0    1
 -2       144       300       299      1661      1722      1658
 -1       465    8    0    1
 -2       145       301       300      1663      1723      1660
 -1       466    8    0    1
 -2       146       302       301      1665      1724      1662
 -1       467    8    0    1
 -2       147       303       302      1667      1725      1664
 -1       468    8    0    1
 -2       148       304       303      1669      1726      1666
 -1       469    8    0    1
 -2       149       305       304      1671      1727      1668
 -1       470    8    0    1
 -2       150       306       305      1673      1728      1670
 -1       471    8    0    1
 -2       151       307       306      1675      1729      1672
 -1       472    8    0    1
 -2       152       308       307      1677      1730      1674
 -1       473    8    0    1
 -2       153       309       308      1679      1731      1676
 -1       474    8    0    1
 -2       154       310       309      1681      1732      1678
 -1       475    8    0    1
 -2       155       311       310      1683      1733      1680
 -1       476    8    0    1
 -2       156       312       311      1685      1734      1682
 -1       477    8    0    1
 -2       157       313       312      1687      1735      1684
 -1       478    8    0    1
 -2       158       314       313      1689      1736      1686
 -1       479    8    0    1
 -2         1       315       314      1691      1737      1688
 -1       480    8    0    1
 -2       159       316       315      1693      1738      1690
 -1       481    8    0    1
 -2       160       317       316      1695      1739      1692
 -1       482    8    0    1
 -2       161       318       317      1697      1740      1694
 -1       483    8    0    1
 -2       162       319       318      1699      1741      1696
 -1       484    8    0    1
 -2       163       320       319      1701      1742      1698
 -1       485    8    0    1
 -2       164       321       320      1703      1743      1700
 -1       486    8    0    1
 -2       165       322       321      1705      1744      1702
 -1       487    8    0    1
 -2        23         7       166      1265      1267      1745
 -1       488    8    0    1
 -2       221        64       324      1429      1712      1746
 -1       489    8    0    1
 -2       167       168       325      1273      1747      1748
 -1       490    8    0    1
 -2       166       167       326      1270      1749      1750
 -1       491    8    0    1
 -2       167       325       326      1748      1751      1749
 -1       492    8    0    1
 -2       169       170       327      1279      1752      1753
 -1       493    8    0    1
 -2       170       171       328      1282      1754      1755
 -1       494    8    0    1
 -2       170       328       327      1755      1756      1752
 -1       495    8    0    1
 -2       171       172       329      1285      1757      1758
 -1       496    8    0    1
 -2       171       329       328      1758      1759      1754
 -1       497    8    0    1
 -2       172       173       330      1288      1760      1761
 -1       498    8    0    1
 -2       172       330       329      1761      1762      1757
 -1       499    8    0    1
 -2       173       174       331      1291      1763      1764
 -1       500    8    0    1
 -2       173       331       330      1764      1765      1760
 -1       501    8    0    1
 -2       174       175       332      1294      1766      1767
 -1       502    8    0    1
 -2       174       332       331      1767      1768      1763
 -1       503    8    0    1
 -2       175       176       333      1297      1769      1770
 -1       504    8    0    1
 -2       175       333       332      1770      1771      1766
 -1       505    8    0    1
 -2       176       177       334      1300      1772      1773
 -1       506    8    0    1
 -2       176       334       333      1773      1774      1769
 -1       507    8    0    1
 -2       177       178       335      1303      1775      1776
 -1       508    8    0    1
 -2       177       335       334      1776      1777      1772
 -1       509    8    0    1
 -2       178       179       336      1306      1778      1779
 -1       510    8    0    1
 -2       178       336       335      1779      1780      1775
 -1       511    8    0    1
 -2       179       180       337      1309      1781      1782
 -1       512    8    0    1
 -2       179       337       336      1782      1783      1778
 -1       513    8    0    1
 -2       180       181       338      1312      1784      1785
 -1       514    8    0    1
 -2       337       180       338      1781      1785      1786
 -1       515    8    0    1
 -2       181       230       338      1458      1787      1784
 -1       516    8    0    1
 -2       182        23       166      1314      1745      1788
 -1       517    8    0    1
 -2       230       231       339      1461      1789      1790
 -1       518    8    0    1
 -2       230       339       338      1790      1791      1787
 -1       519    8    0    1
 -2       184       183       340      1321      1792      1793
 -1       520    8    0    1
 -2       185       184       341      1324      1794      1795
 -1       521    8    0    1
 -2       184       340       341      1793      1796      1794
 -1       522    8    0    1
 -2       186       185       342      1327      1797      1798
 -1       523    8    0    1
 -2       185       341       342      1795      1799      1797
 -1       524    8    0    1
 -2       187       186       343      1330      1800      1801
 -1       525    8    0    1
 -2       186       342       343      1798      1802      1800
 -1       526    8    0    1
 -2       188       187       344      1333      1803      1804
 -1       527    8    0    1
 -2       187       343       344      1801      1805      1803
 -1       528    8    0    1
 -2       189       188       345      1336      1806      1807
 -1       529    8    0    1
 -2       188       344       345      1804      1808      1806
 -1       530    8    0    1
 -2       190       189       346      1339      1809      1810
 -1       531    8    0    1
 -2       189       345       346      1807      1811      1809
 -1       532    8    0    1
 -2       191       190       347      1342      1812      1813
 -1       533    8    0    1
 -2       190       346       347      1810      1814      1812
 -1       534    8    0    1
 -2       192       191       348      1345      1815      1816
 -1       535    8    0    1
 -2       191       347       348      1813      1817      1815
 -1       536    8    0    1
 -2       193       192       349      1348      1818      1819
 -1       537    8    0    1
 -2       192       348       349      1816      1820      1818
 -1       538    8    0    1
 -2       194       193       350      1351      1821      1822
 -1       539    8    0    1
 -2       193       349       350      1819      1823      1821
 -1       540    8    0    1
 -2       195       194       351      1354      1824      1825
 -1       541    8    0    1
 -2       194       350       351      1822      1826      1824
 -1       542    8    0    1
 -2       196       195       352      1357      1827      1828
 -1       543    8    0    1
 -2       195       351       352      1825      1829      1827
 -1       544    8    0    1
 -2       197       196       353      1360      1830      1831
 -1       545    8    0    1
 -2       196       352       353      1828      1832      1830
 -1       546    8    0    1
 -2       198       197       354      1363      1833      1834
 -1       547    8    0    1
 -2       197       353       354      1831      1835      1833
 -1       548    8    0    1
 -2       199       198       355      1366      1836      1837
 -1       549    8    0    1
 -2       198       354       355      1834      1838      1836
 -1       550    8    0    1
 -2       200       199       356      1369      1839      1840
 -1       551    8    0    1
 -2       199       355       356      1837      1841      1839
 -1       552    8    0    1
 -2       201       200       357      1372      1842      1843
 -1       553    8    0    1
 -2       200       356       357      1840      1844      1842
 -1       554    8    0    1
 -2       202       201       358      1375      1845      1846
 -1       555    8    0    1
 -2       201       357       358      1843      1847      1845
 -1       556    8    0    1
 -2       203       202       359      1378      1848      1849
 -1       557    8    0    1
 -2       202       358       359      1846      1850      1848
 -1       558    8    0    1
 -2       204       203       360      1381      1851      1852
 -1       559    8    0    1
 -2       203       359       360      1849      1853      1851
 -1       560    8    0    1
 -2       205       204       361      1384      1854      1855
 -1       561    8    0    1
 -2       204       360       361      1852      1856      1854
 -1       562    8    0    1
 -2       206       205       362      1387      1857      1858
 -1       563    8    0    1
 -2       205       361       362      1855      1859      1857
 -1       564    8    0    1
 -2       207       206       363      1390      1860      1861
 -1       565    8    0    1
 -2       206       362       363      1858      1862      1860
 -1       566    8    0    1
 -2       208       207       364      1393      1863      1864
 -1       567    8    0    1
 -2       207       363       364      1861      1865      1863
 -1       568    8    0    1
 -2       209       208       365      1396      1866      1867
 -1       569    8    0    1
 -2       208       364       365      1864      1868      1866
 -1       570    8    0    1
 -2       210       209       366      1399      1869      1870
 -1       571    8    0    1
 -2       209       365       366      1867      1871      1869
 -1       572    8    0    1
 -2       211       210       367      1402      1872      1873
 -1       573    8    0    1
 -2       210       366       367      1870      1874      1872
 -1       574    8    0    1
 -2       212       211       368      1405      1875      1876
 -1       575    8    0    1
 -2       211       367       368      1873      1877      1875
 -1       576    8    0    1
 -2       213       212       369      1408      1878      1879
 -1       577    8    0    1
 -2       212       368       369      1876      1880      1878
 -1       578    8    0    1
 -2       214       213       370      1411      1881      1882
 -1       579    8    0    1
 -2       213       369       370      1879      1883      1881
 -1       580    8    0    1
 -2       215       214       371      1414      1884      1885
 -1       581    8    0    1
 -2       214       370       371      1882      1886      1884
 -1       582    8    0    1
 -2       216       215       372      1417      1887      1888
 -1       583    8    0    1
 -2       215       371       372      1885      1889      1887
 -1       584    8    0    1
 -2       217       216       373      1420      1890      1891
 -1       585    8    0    1
 -2       216       372       373      1888      1892      1890
 -1       586    8    0    1
 -2       218       217       374      1423      1893      1894
 -1       587    8    0    1
 -2       217       373       374      1891      1895      1893
 -1       588    8    0    1
 -2       293       294       375      1717      1896      1897
 -1       589    8    0    1
 -2       295       296       376      1713      1898      1899
 -1       590    8    0    1
 -2       182       166       326      1788      1750      1900
 -1       591    8    0    1
 -2       223       222       377      1436      1901      1902
 -1       592    8    0    1
 -2       224       223       378      1439      1903      1904
 -1       593    8    0    1
 -2       225       224       379      1442      1905      1906
 -1       594    8    0    1
 -2       224       378       379      1904      1907      1905
 -1       595    8    0    1
 -2       226       225       380      1445      1908      1909
 -1       596    8    0    1
 -2       225       379       380      1906      1910      1908
 -1       597    8    0    1
 -2       227       226       381      1448      1911      1912
 -1       598    8    0    1
 -2       226       380       381      1909      1913      1911
 -1       599    8    0    1
 -2       228       227       382      1451      1914      1915
 -1       600    8    0    1
 -2       227       381       382      1912      1916      1914
 -1       601    8    0    1
 -2       229       228       292      1455      1917      1645
 -1       602    8    0    1
 -2       232       233       383      1467      1918      1919
 -1       603    8    0    1
 -2       233       234       384      1470      1920      1921
 -1       604    8    0    1
 -2       233       384       383      1921      1922      1918
 -1       605    8    0    1
 -2       234       235       385      1473      1923      1924
 -1       606    8    0    1
 -2       234       385       384      1924      1925      1920
 -1       607    8    0    1
 -2       235       236       386      1476      1926      1927
 -1       608    8    0    1
 -2       235       386       385      1927      1928      1923
 -1       609    8    0    1
 -2       236       237       387      1479      1929      1930
 -1       610    8    0    1
 -2       236       387       386      1930      1931      1926
 -1       611    8    0    1
 -2       237       238       388      1482      1932      1933
 -1       612    8    0    1
 -2       237       388       387      1933      1934      1929
 -1       613    8    0    1
 -2       238       239       389      1485      1935      1936
 -1       614    8    0    1
 -2       238       389       388      1936      1937      1932
 -1       615    8    0    1
 -2       239       240       390      1488      1938      1939
 -1       616    8    0    1
 -2       239       390       389      1939      1940      1935
 -1       617    8    0    1
 -2       240       241       391      1491      1941      1942
 -1       618    8    0    1
 -2       240       391       390      1942      1943      1938
 -1       619    8    0    1
 -2       241       242       392      1494      1944      1945
 -1       620    8    0    1
 -2       241       392       391      1945      1946      1941
 -1       621    8    0    1
 -2       242       243       393      1497      1947      1948
 -1       622    8    0    1
 -2       242       393       392      1948      1949      1944
 -1       623    8    0    1
 -2       243       244       394      1500      1950      1951
 -1       624    8    0    1
 -2       243       394       393      1951      1952      1947
 -1       625    8    0    1
 -2       244       245       395      1503      1953      1954
 -1       626    8    0    1
 -2       244       395       394      1954      1955      1950
 -1       627    8    0    1
 -2       245       246       396      1506      1956      1957
 -1       628    8    0    1
 -2       245       396       395      1957      1958      1953
 -1       629    8    0    1
 -2       246       247       397      1509      1959      1960
 -1       630    8    0    1
 -2       246       397       396      1960      1961      1956
 -1       631    8    0    1
 -2       247       248       398      1512      1962      1963
 -1       632    8    0    1
 -2       247       398       397      1963      1964      1959
 -1       633    8    0    1
 -2       248       249       399      1515      1965      1966
 -1       634    8    0    1
 -2       248       399       398      1966      1967      1962
 -1       635    8    0    1
 -2       249       250       400      1518      1968      1969
 -1       636    8    0    1
 -2       249       400       399      1969      1970      1965
 -1       637    8    0    1
 -2       250       251       401      1521      1971      1972
 -1       638    8    0    1
 -2       250       401       400      1972      1973      1968
 -1       639    8    0    1
 -2       251       252       402      1524      1974      1975
 -1       640    8    0    1
 -2       251       402       401      1975      1976      1971
 -1       641    8    0    1
 -2       252       253       403      1527      1977      1978
 -1       642    8    0    1
 -2       252       403       402      1978      1979      1974
 -1       643    8    0    1
 -2       253       254       404      1530      1980      1981
 -1       644    8    0    1
 -2       253       404       403      1981      1982      1977
 -1       645    8    0    1
 -2       254       255       405      1533      1983      1984
 -1       646    8    0    1
 -2       254       405       404      1984      1985      1980
 -1       647    8    0    1
 -2       255       256       406      1536      1986      1987
 -1       648    8    0    1
 -2       255       406       405      1987      1988      1983
 -1       649    8    0    1
 -2       256       257       407      1539      1989      1990
 -1       650    8    0    1
 -2       256       407       406      1990      1991      1986
 -1       651    8    0    1
 -2       257       258       408      1542      1992      1993
 -1       652    8    0    1
 -2       257       408       407      1993      1994      1989
 -1       653    8    0    1
 -2       258       259       409      1545      1995      1996
 -1       654    8    0    1
 -2       258       409       408      1996      1997      1992
 -1       655    8    0    1
 -2       259       260       410      1548      1998      1999
 -1       656    8    0    1
 -2       259       410       409      1999      2000      1995
 -1       657    8    0    1
 -2       260       261       411      1551      2001      2002
 -1       658    8    0    1
 -2       260       411       410      2002      2003      1998
 -1       659    8    0    1
 -2       261       262       412      1554      2004      2005
 -1       660    8    0    1
 -2       261       412       411      2005      2006      2001
 -1       661    8    0    1
 -2       262       263       413      1557      2007      2008
 -1       662    8    0    1
 -2       262       413       412      2008      2009      2004
 -1       663    8    0    1
 -2       263       264       414      1560      2010      2011
 -1       664    8    0    1
 -2       263       414       413      2011      2012      2007
 -1       665    8    0    1
 -2       264       265       415      1563      2013      2014
 -1       666    8    0    1
 -2       264       415       414      2014      2015      2010
 -1       667    8    0    1
 -2       265       266       416      1566      2016      2017
 -1       668    8    0    1
 -2       265       416       415      2017      2018      2013
 -1       669    8    0    1
 -2       266       267       417      1569      2019      2020
 -1       670    8    0    1
 -2       266       417       416      2020      2021      2016
 -1       671    8    0    1
 -2       267       268       418      1572      2022      2023
 -1       672    8    0    1
 -2       267       418       417      2023      2024      2019
 -1       673    8    0    1
 -2       268       269       419      1575      2025      2026
 -1       674    8    0    1
 -2       268       419       418      2026      2027      2022
 -1       675    8    0    1
 -2       269       270       420      1578      2028      2029
 -1       676    8    0    1
 -2       269       420       419      2029      2030      2025
 -1       677    8    0    1
 -2       270       271       421      1581      2031      2032
 -1       678    8    0    1
 -2       270       421       420      2032      2033      2028
 -1       679    8    0    1
 -2       271       272       422      1584      2034      2035
 -1       680    8    0    1
 -2       271       422       421      2035      2036      2031
 -1       681    8    0    1
 -2       272       273       423      1587      2037      2038
 -1       682    8    0    1
 -2       272       423       422      2038      2039      2034
 -1       683    8    0    1
 -2       273       274       424      1590      2040      2041
 -1       684    8    0    1
 -2       273       424       423      2041      2042      2037
 -1       685    8    0    1
 -2       274       275       425      1593      2043      2044
 -1       686    8    0    1
 -2       274       425       424      2044      2045      2040
 -1       687    8    0    1
 -2       275       276       426      1596      2046      2047
 -1       688    8    0    1
 -2       275       426       425      2047      2048      2043
 -1       689    8    0    1
 -2       276       277       427      1599      2049      2050
 -1       690    8    0    1
 -2       426       276       427      2046      2050      2051
 -1       691    8    0    1
 -2       277       278       427      1716      2052      2049
 -1       692    8    0    1
 -2       280       281       428      1611      2053      2054
 -1       693    8    0    1
 -2       279       280       429      1608      2055      2056
 -1       694    8    0    1
 -2       280       428       429      2054      2057      2055
 -1       695    8    0    1
 -2       278       279       427      1605      2058      2052
 -1       696    8    0    1
 -2       281       282       430      1614      2059      2060
 -1       697    8    0    1
 -2       281       430       428      2060      2061      2053
 -1       698    8    0    1
 -2       282       283       431      1617      2062      2063
 -1       699    8    0    1
 -2       282       431       430      2063      2064      2059
 -1       700    8    0    1
 -2       283       284       432      1620      2065      2066
 -1       701    8    0    1
 -2       283       432       431      2066      2067      2062
 -1       702    8    0    1
 -2       284       285       433      1623      2068      2069
 -1       703    8    0    1
 -2       284       433       432      2069      2070      2065
 -1       704    8    0    1
 -2       285       286       434      1626      2071      2072
 -1       705    8    0    1
 -2       285       434       433      2072      2073      2068
 -1       706    8    0    1
 -2       286       287       435      1629      2074      2075
 -1       707    8    0    1
 -2       286       435       434      2075      2076      2071
 -1       708    8    0    1
 -2       287       288       436      1632      2077      2078
 -1       709    8    0    1
 -2       287       436       435      2078      2079      2074
 -1       710    8    0    1
 -2       288       289       437      1635      2080      2081
 -1       711    8    0    1
 -2       288       437       436      2081      2082      2077
 -1       712    8    0    1
 -2       289       290       438      1638      2083      2084
 -1       713    8    0    1
 -2       289       438       437      2084      2085      2080
 -1       714    8    0    1
 -2       290       291       439      1641      2086      2087
 -1       715    8    0    1
 -2       290       439       438      2087      2088      2083
 -1       716    8    0    1
 -2       231       232       440      1464      2089      2090
 -1       717    8    0    1
 -2       339       231       440      1789      2090      2091
 -1       718    8    0    1
 -2       232       383       440      1919      2092      2089
 -1       719    8    0    1
 -2       294       295       441      1718      2093      2094
 -1       720    8    0    1
 -2       296       297       442      1719      2095      2096
 -1       721    8    0    1
 -2       168       169       443      1276      2097      2098
 -1       722    8    0    1
 -2       325       168       443      1747      2098      2099
 -1       723    8    0    1
 -2       169       327       443      1753      2100      2097
 -1       724    8    0    1
 -2       222       221       444      1433      2101      2102
 -1       725    8    0    1
 -2       297       298       445      1720      2103      2104
 -1       726    8    0    1
 -2       297       445       442      2104      2105      2095
 -1       727    8    0    1
 -2       298       299       446      1721      2106      2107
 -1       728    8    0    1
 -2       299       300       447      1722      2108      2109
 -1       729    8    0    1
 -2       299       447       446      2109      2110      2106
 -1       730    8    0    1
 -2       300       301       448      1723      2111      2112
 -1       731    8    0    1
 -2       301       302       449      1724      2113      2114
 -1       732    8    0    1
 -2       302       303       450      1725      2115      2116
 -1       733    8    0    1
 -2       303       304       451      1726      2117      2118
 -1       734    8    0    1
 -2       303       451       450      2118      2119      2115
 -1       735    8    0    1
 -2       304       305       452      1727      2120      2121
 -1       736    8    0    1
 -2       305       306       453      1728      2122      2123
 -1       737    8    0    1
 -2       305       453       452      2123      2124      2120
 -1       738    8    0    1
 -2       306       307       454      1729      2125      2126
 -1       739    8    0    1
 -2       307       308       455      1730      2127      2128
 -1       740    8    0    1
 -2       307       455       454      2128      2129      2125
 -1       741    8    0    1
 -2       308       309       456      1731      2130      2131
 -1       742    8    0    1
 -2       309       310       457      1732      2132      2133
 -1       743    8    0    1
 -2       310       311       458      1733      2134      2135
 -1       744    8    0    1
 -2       311       312       459      1734      2136      2137
 -1       745    8    0    1
 -2       314       315       220      1737      2138      2139
 -1       746    8    0    1
 -2       317       318       444      1740      2140      2141
 -1       747    8    0    1
 -2       318       319       444      1741      2142      2140
 -1       748    8    0    1
 -2       319       320       460      1742      2143      2144
 -1       749    8    0    1
 -2       320       321       461      1743      2145      2146
 -1       750    8    0    1
 -2       321       322       462      1744      2147      2148
 -1       751    8    0    1
 -2       322       293       463      1710      2149      2150
 -1       752    8    0    1
 -2       322       463       462      2150      2151      2147
 -1       753    8    0    1
 -2       220       315       324      2138      2152      1714
 -1       754    8    0    1
 -2       324       315       316      2152      1738      2153
 -1       755    8    0    1
 -2       223       377       378      1902      2154      1903
 -1       756    8    0    1
 -2       376       296       442      1898      2096      2155
 -1       757    8    0    1
 -2       441       295       376      2093      1899      2156
 -1       758    8    0    1
 -2       340       183       326      1792      2157      2158
 -1       759    8    0    1
 -2       183       182       326      1318      1900      2157
 -1       760    8    0    1
 -2       221       324       317      1746      2159      2160
 -1       761    8    0    1
 -2       220       323       313      1709      2161      2162
 -1       762    8    0    1
 -2       293       375       464      1897      2163      2164
 -1       763    8    0    1
 -2       293       464       463      2164      2165      2149
 -1       764    8    0    1
 -2       375       294       441      1896      2094      2166
 -1       765    8    0    1
 -2       219       218       459      1426      2167      2168
 -1       766    8    0    1
 -2       221       317       444      2160      2141      2101
 -1       767    8    0    1
 -2       313       323       465      2161      2169      2170
 -1       768    8    0    1
 -2       317       324       316      2159      2153      1739
 -1       769    8    0    1
 -2       377       222       444      1901      2102      2171
 -1       770    8    0    1
 -2       228       382       292      1915      2172      1917
 -1       771    8    0    1
 -2       427       279       429      2058      2056      2173
 -1       772    8    0    1
 -2       291       292       466      1644      2174      2175
 -1       773    8    0    1
 -2       439       291       466      2086      2175      2176
 -1       774    8    0    1
 -2       292       382       466      2172      2177      2174
 -1       775    8    0    1
 -2       219       459       312      2168      2136      2178
 -1       776    8    0    1
 -2       298       446       467      2107      2179      2180
 -1       777    8    0    1
 -2       298       467       445      2180      2181      2103
 -1       778    8    0    1
 -2       461       321       462      2145      2148      2182
 -1       779    8    0    1
 -2       458       311       459      2134      2137      2183
 -1       780    8    0    1
 -2       457       310       458      2132      2135      2184
 -1       781    8    0    1
 -2       455       308       456      2127      2131      2185
 -1       782    8    0    1
 -2       453       306       454      2122      2126      2186
 -1       783    8    0    1
 -2       451       304       452      2117      2121      2187
 -1       784    8    0    1
 -2       449       302       450      2113      2116      2188
 -1       785    8    0    1
 -2       447       300       448      2108      2112      2189
 -1       786    8    0    1
 -2       448       301       449      2111      2114      2190
 -1       787    8    0    1
 -2       456       309       457      2130      2133      2191
 -1       788    8    0    1
 -2       460       320       461      2143      2146      2192
 -1       789    8    0    1
 -2       328       329       468      1759      2193      2194
 -1       790    8    0    1
 -2       327       328       469      1756      2195      2196
 -1       791    8    0    1
 -2       328       468       469      2194      2197      2195
 -1       792    8    0    1
 -2       330       331       470      1765      2198      2199
 -1       793    8    0    1
 -2       331       332       471      1768      2200      2201
 -1       794    8    0    1
 -2       331       471       470      2201      2202      2198
 -1       795    8    0    1
 -2       332       333       472      1771      2203      2204
 -1       796    8    0    1
 -2       332       472       471      2204      2205      2200
 -1       797    8    0    1
 -2       333       334       473      1774      2206      2207
 -1       798    8    0    1
 -2       333       473       472      2207      2208      2203
 -1       799    8    0    1
 -2       334       335       474      1777      2209      2210
 -1       800    8    0    1
 -2       334       474       473      2210      2211      2206
 -1       801    8    0    1
 -2       335       336       475      1780      2212      2213
 -1       802    8    0    1
 -2       335       475       474      2213      2214      2209
 -1       803    8    0    1
 -2       336       337       476      1783      2215      2216
 -1       804    8    0    1
 -2       336       476       475      2216      2217      2212
 -1       805    8    0    1
 -2       337       338       477      1786      2218      2219
 -1       806    8    0    1
 -2       476       337       477      2215      2219      2220
 -1       807    8    0    1
 -2       338       339       477      1791      2221      2218
 -1       808    8    0    1
 -2       341       340       478      1796      2222      2223
 -1       809    8    0    1
 -2       342       341       479      1799      2224      2225
 -1       810    8    0    1
 -2       341       478       479      2223      2226      2224
 -1       811    8    0    1
 -2       343       342       480      1802      2227      2228
 -1       812    8    0    1
 -2       342       479       480      2225      2229      2227
 -1       813    8    0    1
 -2       344       343       481      1805      2230      2231
 -1       814    8    0    1
 -2       343       480       481      2228      2232      2230
 -1       815    8    0    1
 -2       345       344       482      1808      2233      2234
 -1       816    8    0    1
 -2       344       481       482      2231      2235      2233
 -1       817    8    0    1
 -2       346       345       483      1811      2236      2237
 -1       818    8    0    1
 -2       345       482       483      2234      2238      2236
 -1       819    8    0    1
 -2       347       346       484      1814      2239      2240
 -1       820    8    0    1
 -2       346       483       484      2237      2241      2239
 -1       821    8    0    1
 -2       348       347       485      1817      2242      2243
 -1       822    8    0    1
 -2       347       484       485      2240      2244      2242
 -1       823    8    0    1
 -2       349       348       486      1820      2245      2246
 -1       824    8    0    1
 -2       348       485       486      2243      2247      2245
 -1       825    8    0    1
 -2       350       349       487      1823      2248      2249
 -1       826    8    0    1
 -2       349       486       487      2246      2250      2248
 -1       827    8    0    1
 -2       351       350       488      1826      2251      2252
 -1       828    8    0    1
 -2       350       487       488      2249      2253      2251
 -1       829    8    0    1
 -2       352       351       489      1829      2254      2255
 -1       830    8    0    1
 -2       351       488       489      2252      2256      2254
 -1       831    8    0    1
 -2       353       352       490      1832      2257      2258
 -1       832    8    0    1
 -2       352       489       490      2255      2259      2257
 -1       833    8    0    1
 -2       354       353       491      1835      2260      2261
 -1       834    8    0    1
 -2       353       490       491      2258      2262      2260
 -1       835    8    0    1
 -2       355       354       492      1838      2263      2264
 -1       836    8    0    1
 -2       354       491       492      2261      2265      2263
 -1       837    8    0    1
 -2       356       355       493      1841      2266      2267
 -1       838    8    0    1
 -2       355       492       493      2264      2268      2266
 -1       839    8    0    1
 -2       357       356       494      1844      2269      2270
 -1       840    8    0    1
 -2       356       493       494      2267      2271      2269
 -1       841    8    0    1
 -2       358       357       495      1847      2272      2273
 -1       842    8    0    1
 -2       357       494       495      2270      2274      2272
 -1       843    8    0    1
 -2       359       358       496      1850      2275      2276
 -1       844    8    0    1
 -2       358       495       496      2273      2277      2275
 -1       845    8    0    1
 -2       360       359       497      1853      2278      2279
 -1       846    8    0    1
 -2       359       496       497      2276      2280      2278
 -1       847    8    0    1
 -2       361       360       498      1856      2281      2282
 -1       848    8    0    1
 -2       360       497       498      2279      2283      2281
 -1       849    8    0    1
 -2       362       361       499      1859      2284      2285
 -1       850    8    0    1
 -2       361       498       499      2282      2286      2284
 -1       851    8    0    1
 -2       363       362       500      1862      2287      2288
 -1       852    8    0    1
 -2       362       499       500      2285      2289      2287
 -1       853    8    0    1
 -2       364       363       501      1865      2290      2291
 -1       854    8    0    1
 -2       363       500       501      2288      2292      2290
 -1       855    8    0    1
 -2       365       364       502      1868      2293      2294
 -1       856    8    0    1
 -2       364       501       502      2291      2295      2293
 -1       857    8    0    1
 -2       366       365       503      1871      2296      2297
 -1       858    8    0    1
 -2       365       502       503      2294      2298      2296
 -1       859    8    0    1
 -2       367       366       504      1874      2299      2300
 -1       860    8    0    1
 -2       366       503       504      2297      2301      2299
 -1       861    8    0    1
 -2       368       367       505      1877      2302      2303
 -1       862    8    0    1
 -2       367       504       505      2300      2304      2302
 -1       863    8    0    1
 -2       369       368       506      1880      2305      2306
 -1       864    8    0    1
 -2       368       505       506      2303      2307      2305
 -1       865    8    0    1
 -2       370       369       507      1883      2308      2309
 -1       866    8    0    1
 -2       369       506       507      2306      2310      2308
 -1       867    8    0    1
 -2       371       370       508      1886      2311      2312
 -1       868    8    0    1
 -2       370       507       508      2309      2313      2311
 -1       869    8    0    1
 -2       372       371       509      1889      2314      2315
 -1       870    8    0    1
 -2       371       508       509      2312      2316      2314
 -1       871    8    0    1
 -2       373       372       510      1892      2317      2318
 -1       872    8    0    1
 -2       372       509       510      2315      2319      2317
 -1       873    8    0    1
 -2       459       218       511      2167      2320      2321
 -1       874    8    0    1
 -2       340       326       512      2158      2322      2323
 -1       875    8    0    1
 -2       478       340       512      2222      2323      2324
 -1       876    8    0    1
 -2       326       325       512      1751      2325      2322
 -1       877    8    0    1
 -2       427       429       426      2173      2326      2051
 -1       878    8    0    1
 -2       380       379       513      1910      2327      2328
 -1       879    8    0    1
 -2       381       380       514      1913      2329      2330
 -1       880    8    0    1
 -2       380       513       514      2328      2331      2329
 -1       881    8    0    1
 -2       382       381       515      1916      2332      2333
 -1       882    8    0    1
 -2       466       382       515      2177      2333      2334
 -1       883    8    0    1
 -2       381       514       515      2330      2335      2332
 -1       884    8    0    1
 -2       385       386       516      1928      2336      2337
 -1       885    8    0    1
 -2       384       385       517      1925      2338      2339
 -1       886    8    0    1
 -2       385       516       517      2337      2340      2338
 -1       887    8    0    1
 -2       383       384       518      1922      2341      2342
 -1       888    8    0    1
 -2       384       517       518      2339      2343      2341
 -1       889    8    0    1
 -2       386       387       519      1931      2344      2345
 -1       890    8    0    1
 -2       386       519       516      2345      2346      2336
 -1       891    8    0    1
 -2       387       388       520      1934      2347      2348
 -1       892    8    0    1
 -2       387       520       519      2348      2349      2344
 -1       893    8    0    1
 -2       388       389       521      1937      2350      2351
 -1       894    8    0    1
 -2       388       521       520      2351      2352      2347
 -1       895    8    0    1
 -2       389       390       522      1940      2353      2354
 -1       896    8    0    1
 -2       389       522       521      2354      2355      2350
 -1       897    8    0    1
 -2       390       391       523      1943      2356      2357
 -1       898    8    0    1
 -2       390       523       522      2357      2358      2353
 -1       899    8    0    1
 -2       391       392       524      1946      2359      2360
 -1       900    8    0    1
 -2       391       524       523      2360      2361      2356
 -1       901    8    0    1
 -2       392       393       525      1949      2362      2363
 -1       902    8    0    1
 -2       392       525       524      2363      2364      2359
 -1       903    8    0    1
 -2       393       394       526      1952      2365      2366
 -1       904    8    0    1
 -2       393       526       525      2366      2367      2362
 -1       905    8    0    1
 -2       394       395       527      1955      2368      2369
 -1       906    8    0    1
 -2       394       527       526      2369      2370      2365
 -1       907    8    0    1
 -2       395       396       528      1958      2371      2372
 -1       908    8    0    1
 -2       395       528       527      2372      2373      2368
 -1       909    8    0    1
 -2       396       397       529      1961      2374      2375
 -1       910    8    0    1
 -2       396       529       528      2375      2376      2371
 -1       911    8    0    1
 -2       397       398       530      1964      2377      2378
 -1       912    8    0    1
 -2       397       530       529      2378      2379      2374
 -1       913    8    0    1
 -2       398       399       531      1967      2380      2381
 -1       914    8    0    1
 -2       398       531       530      2381      2382      2377
 -1       915    8    0    1
 -2       399       400       532      1970      2383      2384
 -1       916    8    0    1
 -2       399       532       531      2384      2385      2380
 -1       917    8    0    1
 -2       400       401       533      1973      2386      2387
 -1       918    8    0    1
 -2       400       533       532      2387      2388      2383
 -1       919    8    0    1
 -2       401       402       534      1976      2389      2390
 -1       920    8    0    1
 -2       401       534       533      2390      2391      2386
 -1       921    8    0    1
 -2       402       403       535      1979      2392      2393
 -1       922    8    0    1
 -2       402       535       534      2393      2394      2389
 -1       923    8    0    1
 -2       403       404       536      1982      2395      2396
 -1       924    8    0    1
 -2       403       536       535      2396      2397      2392
 -1       925    8    0    1
 -2       404       405       537      1985      2398      2399
 -1       926    8    0    1
 -2       404       537       536      2399      2400      2395
 -1       927    8    0    1
 -2       405       406       538      1988      2401      2402
 -1       928    8    0    1
 -2       405       538       537      2402      2403      2398
 -1       929    8    0    1
 -2       406       407       539      1991      2404      2405
 -1       930    8    0    1
 -2       406       539       538      2405      2406      2401
 -1       931    8    0    1
 -2       407       408       540      1994      2407      2408
 -1       932    8    0    1
 -2       407       540       539      2408      2409      2404
 -1       933    8    0    1
 -2       408       409       541      1997      2410      2411
 -1       934    8    0    1
 -2       408       541       540      2411      2412      2407
 -1       935    8    0    1
 -2       409       410       542      2000      2413      2414
 -1       936    8    0    1
 -2       409       542       541      2414      2415      2410
 -1       937    8    0    1
 -2       410       411       543      2003      2416      2417
 -1       938    8    0    1
 -2       410       543       542      2417      2418      2413
 -1       939    8    0    1
 -2       411       412       544      2006      2419      2420
 -1       940    8    0    1
 -2       411       544       543      2420      2421      2416
 -1       941    8    0    1
 -2       412       413       545      2009      2422      2423
 -1       942    8    0    1
 -2       412       545       544      2423      2424      2419
 -1       943    8    0    1
 -2       413       414       546      2012      2425      2426
 -1       944    8    0    1
 -2       413       546       545      2426      2427      2422
 -1       945    8    0    1
 -2       414       415       547      2015      2428      2429
 -1       946    8    0    1
 -2       414       547       546      2429      2430      2425
 -1       947    8    0    1
 -2       415       416       548      2018      2431      2432
 -1       948    8    0    1
 -2       415       548       547      2432      2433      2428
 -1       949    8    0    1
 -2       416       417       549      2021      2434      2435
 -1       950    8    0    1
 -2       416       549       548      2435      2436      2431
 -1       951    8    0    1
 -2       417       418       550      2024      2437      2438
 -1       952    8    0    1
 -2       417       550       549      2438      2439      2434
 -1       953    8    0    1
 -2       418       419       551      2027      2440      2441
 -1       954    8    0    1
 -2       418       551       550      2441      2442      2437
 -1       955    8    0    1
 -2       419       420       552      2030      2443      2444
 -1       956    8    0    1
 -2       419       552       551      2444      2445      2440
 -1       957    8    0    1
 -2       420       421       553      2033      2446      2447
 -1       958    8    0    1
 -2       420       553       552      2447      2448      2443
 -1       959    8    0    1
 -2       421       422       554      2036      2449      2450
 -1       960    8    0    1
 -2       421       554       553      2450      2451      2446
 -1       961    8    0    1
 -2       422       423       555      2039      2452      2453
 -1       962    8    0    1
 -2       422       555       554      2453      2454      2449
 -1       963    8    0    1
 -2       423       424       556      2042      2455      2456
 -1       964    8    0    1
 -2       423       556       555      2456      2457      2452
 -1       965    8    0    1
 -2       424       425       557      2045      2458      2459
 -1       966    8    0    1
 -2       424       557       556      2459      2460      2455
 -1       967    8    0    1
 -2       425       426       558      2048      2461      2462
 -1       968    8    0    1
 -2       425       558       557      2462      2463      2458
 -1       969    8    0    1
 -2       430       431       559      2064      2464      2465
 -1       970    8    0    1
 -2       428       430       560      2061      2466      2467
 -1       971    8    0    1
 -2       430       559       560      2465      2468      2466
 -1       972    8    0    1
 -2       429       428       561      2057      2469      2470
 -1       973    8    0    1
 -2       428       560       561      2467      2471      2469
 -1       974    8    0    1
 -2       431       432       562      2067      2472      2473
 -1       975    8    0    1
 -2       431       562       559      2473      2474      2464
 -1       976    8    0    1
 -2       432       433       563      2070      2475      2476
 -1       977    8    0    1
 -2       432       563       562      2476      2477      2472
 -1       978    8    0    1
 -2       433       434       564      2073      2478      2479
 -1       979    8    0    1
 -2       433       564       563      2479      2480      2475
 -1       980    8    0    1
 -2       434       435       565      2076      2481      2482
 -1       981    8    0    1
 -2       434       565       564      2482      2483      2478
 -1       982    8    0    1
 -2       435       436       566      2079      2484      2485
 -1       983    8    0    1
 -2       435       566       565      2485      2486      2481
 -1       984    8    0    1
 -2       436       437       567      2082      2487      2488
 -1       985    8    0    1
 -2       436       567       566      2488      2489      2484
 -1       986    8    0    1
 -2       437       438       568      2085      2490      2491
 -1       987    8    0    1
 -2       437       568       567      2491      2492      2487
 -1       988    8    0    1
 -2       438       439       569      2088      2493      2494
 -1       989    8    0    1
 -2       438       569       568      2494      2495      2490
 -1       990    8    0    1
 -2       441       376       570      2156      2496      2497
 -1       991    8    0    1
 -2       375       441       571      2166      2498      2499
 -1       992    8    0    1
 -2       319       460       444      2144      2500      2142
 -1       993    8    0    1
 -2       449       450       572      2188      2501      2502
 -1       994    8    0    1
 -2       379       378       573      1907      2503      2504
 -1       995    8    0    1
 -2       379       573       513      2504      2505      2327
 -1       996    8    0    1
 -2       376       442       574      2155      2506      2507
 -1       997    8    0    1
 -2       329       330       575      1762      2508      2509
 -1       998    8    0    1
 -2       468       329       575      2193      2509      2510
 -1       999    8    0    1
 -2       330       470       575      2199      2511      2508
 -1      1000    8    0    1
 -2       426       429       558      2326      2512      2461
 -1      1001    8    0    1
 -2       461       462       576      2182      2513      2514
 -1      1002    8    0    1
 -2       442       445       577      2105      2515      2516
 -1      1003    8    0    1
 -2       448       449       578      2190      2517      2518
 -1      1004    8    0    1
 -2       446       447       579      2110      2519      2520
 -1      1005    8    0    1
 -2       456       457       580      2191      2521      2522
 -1      1006    8    0    1
 -2       447       448       581      2189      2523      2524
 -1      1007    8    0    1
 -2       447       581       579      2524      2525      2519
 -1      1008    8    0    1
 -2       450       451       582      2119      2526      2527
 -1      1009    8    0    1
 -2       450       582       572      2527      2528      2501
 -1      1010    8    0    1
 -2       451       452       583      2187      2529      2530
 -1      1011    8    0    1
 -2       452       453       584      2124      2531      2532
 -1      1012    8    0    1
 -2       453       454       585      2186      2533      2534
 -1      1013    8    0    1
 -2       454       455       586      2129      2535      2536
 -1      1014    8    0    1
 -2       460       461       587      2192      2537      2538
 -1      1015    8    0    1
 -2       455       456       588      2185      2539      2540
 -1      1016    8    0    1
 -2       455       588       586      2540      2541      2535
 -1      1017    8    0    1
 -2       457       458       374      2184      2542      2543
 -1      1018    8    0    1
 -2       312       313       465      1735      2170      2544
 -1      1019    8    0    1
 -2       377       444       460      2171      2500      2545
 -1      1020    8    0    1
 -2       462       463       589      2151      2546      2547
 -1      1021    8    0    1
 -2       457       374       580      2543      2548      2521
 -1      1022    8    0    1
 -2       377       460       587      2545      2538      2549
 -1      1023    8    0    1
 -2       327       469       590      2196      2550      2551
 -1      1024    8    0    1
 -2       327       590       443      2551      2552      2100
 -1      1025    8    0    1
 -2       477       339       591      2221      2553      2554
 -1      1026    8    0    1
 -2       339       440       591      2091      2555      2553
 -1      1027    8    0    1
 -2       464       375       592      2163      2556      2557
 -1      1028    8    0    1
 -2       375       571       592      2499      2558      2556
 -1      1029    8    0    1
 -2       463       464       593      2165      2559      2560
 -1      1030    8    0    1
 -2       463       593       589      2560      2561      2546
 -1      1031    8    0    1
 -2       374       373       580      1895      2562      2548
 -1      1032    8    0    1
 -2       588       456       580      2539      2522      2563
 -1      1033    8    0    1
 -2       376       574       570      2507      2564      2496
 -1      1034    8    0    1
 -2       429       561       558      2470      2565      2512
 -1      1035    8    0    1
 -2       461       576       587      2514      2566      2537
 -1      1036    8    0    1
 -2       439       466       515      2176      2334      2567
 -1      1037    8    0    1
 -2       441       570       571      2497      2568      2498
 -1      1038    8    0    1
 -2       569       439       515      2493      2567      2569
 -1      1039    8    0    1
 -2       440       383       594      2092      2570      2571
 -1      1040    8    0    1
 -2       591       440       594      2555      2571      2572
 -1      1041    8    0    1
 -2       383       518       594      2342      2573      2570
 -1      1042    8    0    1
 -2       467       446       579      2179      2520      2574
 -1      1043    8    0    1
 -2       585       454       586      2533      2536      2575
 -1      1044    8    0    1
 -2       325       443       595      2099      2576      2577
 -1      1045    8    0    1
 -2       512       325       595      2325      2577      2578
 -1      1046    8    0    1
 -2       443       590       595      2552      2579      2576
 -1      1047    8    0    1
 -2       462       589       576      2547      2580      2513
 -1      1048    8    0    1
 -2       584       453       585      2531      2534      2581
 -1      1049    8    0    1
 -2       451       583       582      2530      2582      2526
 -1      1050    8    0    1
 -2       445       467       577      2181      2583      2515
 -1      1051    8    0    1
 -2       581       448       596      2523      2584      2585
 -1      1052    8    0    1
 -2       448       578       596      2518      2586      2584
 -1      1053    8    0    1
 -2       573       378       576      2503      2587      2588
 -1      1054    8    0    1
 -2       574       442       577      2506      2516      2589
 -1      1055    8    0    1
 -2       578       449       572      2517      2502      2590
 -1      1056    8    0    1
 -2       583       452       584      2529      2532      2591
 -1      1057    8    0    1
 -2       323       219       465      1706      2592      2169
 -1      1058    8    0    1
 -2       471       472       597      2205      2593      2594
 -1      1059    8    0    1
 -2       470       471       598      2202      2595      2596
 -1      1060    8    0    1
 -2       471       597       598      2594      2597      2595
 -1      1061    8    0    1
 -2       473       474       599      2211      2598      2599
 -1      1062    8    0    1
 -2       474       475       600      2214      2600      2601
 -1      1063    8    0    1
 -2       474       600       599      2601      2602      2598
 -1      1064    8    0    1
 -2       476       477       601      2220      2603      2604
 -1      1065    8    0    1
 -2       477       591       601      2554      2605      2603
 -1      1066    8    0    1
 -2       514       513       602      2331      2606      2607
 -1      1067    8    0    1
 -2       479       478       603      2226      2608      2609
 -1      1068    8    0    1
 -2       459       511       458      2321      2610      2183
 -1      1069    8    0    1
 -2       218       374       511      1894      2611      2320
 -1      1070    8    0    1
 -2       220       313       314      2162      1736      2139
 -1      1071    8    0    1
 -2       480       479       604      2229      2612      2613
 -1      1072    8    0    1
 -2       479       603       604      2609      2614      2612
 -1      1073    8    0    1
 -2       481       480       605      2232      2615      2616
 -1      1074    8    0    1
 -2       480       604       605      2613      2617      2615
 -1      1075    8    0    1
 -2       482       481       606      2235      2618      2619
 -1      1076    8    0    1
 -2       481       605       606      2616      2620      2618
 -1      1077    8    0    1
 -2       483       482       607      2238      2621      2622
 -1      1078    8    0    1
 -2       482       606       607      2619      2623      2621
 -1      1079    8    0    1
 -2       484       483       608      2241      2624      2625
 -1      1080    8    0    1
 -2       483       607       608      2622      2626      2624
 -1      1081    8    0    1
 -2       485       484       609      2244      2627      2628
 -1      1082    8    0    1
 -2       484       608       609      2625      2629      2627
 -1      1083    8    0    1
 -2       486       485       610      2247      2630      2631
 -1      1084    8    0    1
 -2       485       609       610      2628      2632      2630
 -1      1085    8    0    1
 -2       487       486       611      2250      2633      2634
 -1      1086    8    0    1
 -2       486       610       611      2631      2635      2633
 -1      1087    8    0    1
 -2       488       487       612      2253      2636      2637
 -1      1088    8    0    1
 -2       487       611       612      2634      2638      2636
 -1      1089    8    0    1
 -2       489       488       613      2256      2639      2640
 -1      1090    8    0    1
 -2       488       612       613      2637      2641      2639
 -1      1091    8    0    1
 -2       490       489       614      2259      2642      2643
 -1      1092    8    0    1
 -2       489       613       614      2640      2644      2642
 -1      1093    8    0    1
 -2       491       490       615      2262      2645      2646
 -1      1094    8    0    1
 -2       490       614       615      2643      2647      2645
 -1      1095    8    0    1
 -2       492       491       616      2265      2648      2649
 -1      1096    8    0    1
 -2       491       615       616      2646      2650      2648
 -1      1097    8    0    1
 -2       493       492       617      2268      2651      2652
 -1      1098    8    0    1
 -2       492       616       617      2649      2653      2651
 -1      1099    8    0    1
 -2       494       493       618      2271      2654      2655
 -1      1100    8    0    1
 -2       493       617       618      2652      2656      2654
 -1      1101    8    0    1
 -2       495       494       619      2274      2657      2658
 -1      1102    8    0    1
 -2       494       618       619      2655      2659      2657
 -1      1103    8    0    1
 -2       496       495       620      2277      2660      2661
 -1      1104    8    0    1
 -2       495       619       620      2658      2662      2660
 -1      1105    8    0    1
 -2       497       496       621      2280      2663      2664
 -1      1106    8    0    1
 -2       496       620       621      2661      2665      2663
 -1      1107    8    0    1
 -2       498       497       622      2283      2666      2667
 -1      1108    8    0    1
 -2       497       621       622      2664      2668      2666
 -1      1109    8    0    1
 -2       499       498       623      2286      2669      2670
 -1      1110    8    0    1
 -2       498       622       623      2667      2671      2669
 -1      1111    8    0    1
 -2       500       499       624      2289      2672      2673
 -1      1112    8    0    1
 -2       499       623       624      2670      2674      2672
 -1      1113    8    0    1
 -2       501       500       625      2292      2675      2676
 -1      1114    8    0    1
 -2       500       624       625      2673      2677      2675
 -1      1115    8    0    1
 -2       502       501       626      2295      2678      2679
 -1      1116    8    0    1
 -2       501       625       626      2676      2680      2678
 -1      1117    8    0    1
 -2       503       502       627      2298      2681      2682
 -1      1118    8    0    1
 -2       502       626       627      2679      2683      2681
 -1      1119    8    0    1
 -2       504       503       628      2301      2684      2685
 -1      1120    8    0    1
 -2       503       627       628      2682      2686      2684
 -1      1121    8    0    1
 -2       505       504       629      2304      2687      2688
 -1      1122    8    0    1
 -2       504       628       629      2685      2689      2687
 -1      1123    8    0    1
 -2       506       505       630      2307      2690      2691
 -1      1124    8    0    1
 -2       505       629       630      2688      2692      2690
 -1      1125    8    0    1
 -2       507       506       631      2310      2693      2694
 -1      1126    8    0    1
 -2       506       630       631      2691      2695      2693
 -1      1127    8    0    1
 -2       508       507       632      2313      2696      2697
 -1      1128    8    0    1
 -2       507       631       632      2694      2698      2696
 -1      1129    8    0    1
 -2       509       508       633      2316      2699      2700
 -1      1130    8    0    1
 -2       508       632       633      2697      2701      2699
 -1      1131    8    0    1
 -2       510       509       634      2319      2702      2703
 -1      1132    8    0    1
 -2       509       633       634      2700      2704      2702
 -1      1133    8    0    1
 -2       478       512       635      2324      2705      2706
 -1      1134    8    0    1
 -2       603       478       635      2608      2706      2707
 -1      1135    8    0    1
 -2       512       595       635      2578      2708      2705
 -1      1136    8    0    1
 -2       560       559       636      2468      2709      2710
 -1      1137    8    0    1
 -2       467       579       637      2574      2711      2712
 -1      1138    8    0    1
 -2       515       514       569      2335      2713      2569
 -1      1139    8    0    1
 -2       517       516       638      2340      2714      2715
 -1      1140    8    0    1
 -2       516       519       639      2346      2716      2717
 -1      1141    8    0    1
 -2       516       639       638      2717      2718      2714
 -1      1142    8    0    1
 -2       518       517       640      2343      2719      2720
 -1      1143    8    0    1
 -2       517       638       640      2715      2721      2719
 -1      1144    8    0    1
 -2       520       521       641      2352      2722      2723
 -1      1145    8    0    1
 -2       521       522       642      2355      2724      2725
 -1      1146    8    0    1
 -2       521       642       641      2725      2726      2722
 -1      1147    8    0    1
 -2       522       523       643      2358      2727      2728
 -1      1148    8    0    1
 -2       522       643       642      2728      2729      2724
 -1      1149    8    0    1
 -2       523       524       644      2361      2730      2731
 -1      1150    8    0    1
 -2       523       644       643      2731      2732      2727
 -1      1151    8    0    1
 -2       524       525       645      2364      2733      2734
 -1      1152    8    0    1
 -2       524       645       644      2734      2735      2730
 -1      1153    8    0    1
 -2       525       526       646      2367      2736      2737
 -1      1154    8    0    1
 -2       525       646       645      2737      2738      2733
 -1      1155    8    0    1
 -2       526       527       647      2370      2739      2740
 -1      1156    8    0    1
 -2       526       647       646      2740      2741      2736
 -1      1157    8    0    1
 -2       527       528       648      2373      2742      2743
 -1      1158    8    0    1
 -2       527       648       647      2743      2744      2739
 -1      1159    8    0    1
 -2       528       529       649      2376      2745      2746
 -1      1160    8    0    1
 -2       528       649       648      2746      2747      2742
 -1      1161    8    0    1
 -2       529       530       650      2379      2748      2749
 -1      1162    8    0    1
 -2       529       650       649      2749      2750      2745
 -1      1163    8    0    1
 -2       530       531       651      2382      2751      2752
 -1      1164    8    0    1
 -2       530       651       650      2752      2753      2748
 -1      1165    8    0    1
 -2       531       532       652      2385      2754      2755
 -1      1166    8    0    1
 -2       531       652       651      2755      2756      2751
 -1      1167    8    0    1
 -2       532       533       653      2388      2757      2758
 -1      1168    8    0    1
 -2       532       653       652      2758      2759      2754
 -1      1169    8    0    1
 -2       533       534       654      2391      2760      2761
 -1      1170    8    0    1
 -2       533       654       653      2761      2762      2757
 -1      1171    8    0    1
 -2       534       535       655      2394      2763      2764
 -1      1172    8    0    1
 -2       534       655       654      2764      2765      2760
 -1      1173    8    0    1
 -2       535       536       656      2397      2766      2767
 -1      1174    8    0    1
 -2       535       656       655      2767      2768      2763
 -1      1175    8    0    1
 -2       536       537       657      2400      2769      2770
 -1      1176    8    0    1
 -2       536       657       656      2770      2771      2766
 -1      1177    8    0    1
 -2       537       538       658      2403      2772      2773
 -1      1178    8    0    1
 -2       537       658       657      2773      2774      2769
 -1      1179    8    0    1
 -2       538       539       659      2406      2775      2776
 -1      1180    8    0    1
 -2       538       659       658      2776      2777      2772
 -1      1181    8    0    1
 -2       539       540       660      2409      2778      2779
 -1      1182    8    0    1
 -2       539       660       659      2779      2780      2775
 -1      1183    8    0    1
 -2       540       541       661      2412      2781      2782
 -1      1184    8    0    1
 -2       540       661       660      2782      2783      2778
 -1      1185    8    0    1
 -2       541       542       662      2415      2784      2785
 -1      1186    8    0    1
 -2       541       662       661      2785      2786      2781
 -1      1187    8    0    1
 -2       542       543       663      2418      2787      2788
 -1      1188    8    0    1
 -2       542       663       662      2788      2789      2784
 -1      1189    8    0    1
 -2       543       544       664      2421      2790      2791
 -1      1190    8    0    1
 -2       543       664       663      2791      2792      2787
 -1      1191    8    0    1
 -2       544       545       665      2424      2793      2794
 -1      1192    8    0    1
 -2       544       665       664      2794      2795      2790
 -1      1193    8    0    1
 -2       545       546       666      2427      2796      2797
 -1      1194    8    0    1
 -2       545       666       665      2797      2798      2793
 -1      1195    8    0    1
 -2       546       547       667      2430      2799      2800
 -1      1196    8    0    1
 -2       546       667       666      2800      2801      2796
 -1      1197    8    0    1
 -2       547       548       668      2433      2802      2803
 -1      1198    8    0    1
 -2       547       668       667      2803      2804      2799
 -1      1199    8    0    1
 -2       548       549       669      2436      2805      2806
 -1      1200    8    0    1
 -2       548       669       668      2806      2807      2802
 -1      1201    8    0    1
 -2       549       550       670      2439      2808      2809
 -1      1202    8    0    1
 -2       549       670       669      2809      2810      2805
 -1      1203    8    0    1
 -2       550       551       671      2442      2811      2812
 -1      1204    8    0    1
 -2       550       671       670      2812      2813      2808
 -1      1205    8    0    1
 -2       551       552       672      2445      2814      2815
 -1      1206    8    0    1
 -2       551       672       671      2815      2816      2811
 -1      1207    8    0    1
 -2       552       553       673      2448      2817      2818
 -1      1208    8    0    1
 -2       552       673       672      2818      2819      2814
 -1      1209    8    0    1
 -2       553       554       674      2451      2820      2821
 -1      1210    8    0    1
 -2       553       674       673      2821      2822      2817
 -1      1211    8    0    1
 -2       554       555       675      2454      2823      2824
 -1      1212    8    0    1
 -2       554       675       674      2824      2825      2820
 -1      1213    8    0    1
 -2       555       556       676      2457      2826      2827
 -1      1214    8    0    1
 -2       555       676       675      2827      2828      2823
 -1      1215    8    0    1
 -2       556       557       677      2460      2829      2830
 -1      1216    8    0    1
 -2       556       677       676      2830      2831      2826
 -1      1217    8    0    1
 -2       557       558       678      2463      2832      2833
 -1      1218    8    0    1
 -2       677       557       678      2829      2833      2834
 -1      1219    8    0    1
 -2       558       561       678      2565      2835      2832
 -1      1220    8    0    1
 -2       562       563       679      2477      2836      2837
 -1      1221    8    0    1
 -2       571       570       680      2568      2838      2839
 -1      1222    8    0    1
 -2       559       562       681      2474      2840      2841
 -1      1223    8    0    1
 -2       636       559       681      2709      2841      2842
 -1      1224    8    0    1
 -2       562       679       681      2837      2843      2840
 -1      1225    8    0    1
 -2       561       560       682      2471      2844      2845
 -1      1226    8    0    1
 -2       678       561       682      2835      2845      2846
 -1      1227    8    0    1
 -2       560       636       682      2710      2847      2844
 -1      1228    8    0    1
 -2       563       564       683      2480      2848      2849
 -1      1229    8    0    1
 -2       563       683       679      2849      2850      2836
 -1      1230    8    0    1
 -2       519       520       684      2349      2851      2852
 -1      1231    8    0    1
 -2       639       519       684      2716      2852      2853
 -1      1232    8    0    1
 -2       520       641       684      2723      2854      2851
 -1      1233    8    0    1
 -2       564       565       685      2483      2855      2856
 -1      1234    8    0    1
 -2       564       685       683      2856      2857      2848
 -1      1235    8    0    1
 -2       565       566       686      2486      2858      2859
 -1      1236    8    0    1
 -2       565       686       685      2859      2860      2855
 -1      1237    8    0    1
 -2       566       567       687      2489      2861      2862
 -1      1238    8    0    1
 -2       566       687       686      2862      2863      2858
 -1      1239    8    0    1
 -2       567       568       688      2492      2864      2865
 -1      1240    8    0    1
 -2       567       688       687      2865      2866      2861
 -1      1241    8    0    1
 -2       377       587       689      2549      2867      2868
 -1      1242    8    0    1
 -2       572       582       690      2528      2869      2870
 -1      1243    8    0    1
 -2       574       577       691      2589      2871      2872
 -1      1244    8    0    1
 -2       513       573       692      2505      2873      2874
 -1      1245    8    0    1
 -2       513       692       602      2874      2875      2606
 -1      1246    8    0    1
 -2       584       585       693      2581      2876      2877
 -1      1247    8    0    1
 -2       578       572       694      2590      2878      2879
 -1      1248    8    0    1
 -2       573       576       695      2588      2880      2881
 -1      1249    8    0    1
 -2       692       573       695      2873      2881      2882
 -1      1250    8    0    1
 -2       576       589       695      2580      2883      2880
 -1      1251    8    0    1
 -2       585       586       696      2575      2884      2885
 -1      1252    8    0    1
 -2       570       574       697      2564      2886      2887
 -1      1253    8    0    1
 -2       472       473       698      2208      2888      2889
 -1      1254    8    0    1
 -2       597       472       698      2593      2889      2890
 -1      1255    8    0    1
 -2       473       599       698      2599      2891      2888
 -1      1256    8    0    1
 -2       579       581       699      2525      2892      2893
 -1      1257    8    0    1
 -2       577       467       700      2583      2894      2895
 -1      1258    8    0    1
 -2       467       637       700      2712      2896      2894
 -1      1259    8    0    1
 -2       582       583       701      2582      2897      2898
 -1      1260    8    0    1
 -2       582       701       690      2898      2899      2869
 -1      1261    8    0    1
 -2       469       468       702      2197      2900      2901
 -1      1262    8    0    1
 -2       586       588       703      2541      2902      2903
 -1      1263    8    0    1
 -2       374       458       511      2542      2610      2611
 -1      1264    8    0    1
 -2       580       373       510      2562      2318      2904
 -1      1265    8    0    1
 -2       583       584       704      2591      2905      2906
 -1      1266    8    0    1
 -2       219       312       465      2178      2544      2592
 -1      1267    8    0    1
 -2       569       514       602      2713      2607      2907
 -1      1268    8    0    1
 -2       470       598       705      2596      2908      2909
 -1      1269    8    0    1
 -2       470       705       575      2909      2910      2511
 -1      1270    8    0    1
 -2       476       601       475      2604      2911      2217
 -1      1271    8    0    1
 -2       584       693       704      2877      2912      2905
 -1      1272    8    0    1
 -2       592       571       706      2558      2913      2914
 -1      1273    8    0    1
 -2       571       680       706      2839      2915      2913
 -1      1274    8    0    1
 -2       694       572       690      2878      2870      2916
 -1      1275    8    0    1
 -2       593       464       707      2559      2917      2918
 -1      1276    8    0    1
 -2       464       592       707      2557      2919      2917
 -1      1277    8    0    1
 -2       637       579       699      2711      2893      2920
 -1      1278    8    0    1
 -2       518       640       708      2720      2921      2922
 -1      1279    8    0    1
 -2       680       570       697      2838      2887      2923
 -1      1280    8    0    1
 -2       696       586       703      2884      2903      2924
 -1      1281    8    0    1
 -2       691       577       700      2871      2895      2925
 -1      1282    8    0    1
 -2       469       702       709      2901      2926      2927
 -1      1283    8    0    1
 -2       469       709       590      2927      2928      2550
 -1      1284    8    0    1
 -2       568       569       710      2495      2929      2930
 -1      1285    8    0    1
 -2       594       518       708      2573      2922      2931
 -1      1286    8    0    1
 -2       589       593       695      2561      2932      2883
 -1      1287    8    0    1
 -2       596       578       711      2586      2933      2934
 -1      1288    8    0    1
 -2       578       694       711      2879      2935      2933
 -1      1289    8    0    1
 -2       574       691       697      2872      2936      2886
 -1      1290    8    0    1
 -2       475       601       600      2911      2937      2600
 -1      1291    8    0    1
 -2       693       585       696      2876      2885      2938
 -1      1292    8    0    1
 -2       468       575       712      2510      2939      2940
 -1      1293    8    0    1
 -2       702       468       712      2900      2940      2941
 -1      1294    8    0    1
 -2       575       705       712      2910      2942      2939
 -1      1295    8    0    1
 -2       568       710       688      2930      2943      2864
 -1      1296    8    0    1
 -2       701       583       704      2897      2906      2944
 -1      1297    8    0    1
 -2       569       602       710      2907      2945      2929
 -1      1298    8    0    1
 -2       510       634       703      2703      2946      2947
 -1      1299    8    0    1
 -2       378       377       689      2154      2868      2948
 -1      1300    8    0    1
 -2       581       596       699      2585      2949      2892
 -1      1301    8    0    1
 -2       599       600       713      2602      2950      2951
 -1      1302    8    0    1
 -2       601       591       594      2605      2572      2952
 -1      1303    8    0    1
 -2       704       693       714      2912      2953      2954
 -1      1304    8    0    1
 -2       686       687       715      2863      2955      2956
 -1      1305    8    0    1
 -2       605       604       716      2617      2957      2958
 -1      1306    8    0    1
 -2       606       605       717      2620      2959      2960
 -1      1307    8    0    1
 -2       605       716       717      2958      2961      2959
 -1      1308    8    0    1
 -2       607       606       718      2623      2962      2963
 -1      1309    8    0    1
 -2       606       717       718      2960      2964      2962
 -1      1310    8    0    1
 -2       608       607       719      2626      2965      2966
 -1      1311    8    0    1
 -2       607       718       719      2963      2967      2965
 -1      1312    8    0    1
 -2       609       608       720      2629      2968      2969
 -1      1313    8    0    1
 -2       608       719       720      2966      2970      2968
 -1      1314    8    0    1
 -2       610       609       721      2632      2971      2972
 -1      1315    8    0    1
 -2       609       720       721      2969      2973      2971
 -1      1316    8    0    1
 -2       611       610       722      2635      2974      2975
 -1      1317    8    0    1
 -2       610       721       722      2972      2976      2974
 -1      1318    8    0    1
 -2       612       611       723      2638      2977      2978
 -1      1319    8    0    1
 -2       611       722       723      2975      2979      2977
 -1      1320    8    0    1
 -2       613       612       724      2641      2980      2981
 -1      1321    8    0    1
 -2       612       723       724      2978      2982      2980
 -1      1322    8    0    1
 -2       614       613       725      2644      2983      2984
 -1      1323    8    0    1
 -2       613       724       725      2981      2985      2983
 -1      1324    8    0    1
 -2       615       614       726      2647      2986      2987
 -1      1325    8    0    1
 -2       614       725       726      2984      2988      2986
 -1      1326    8    0    1
 -2       616       615       727      2650      2989      2990
 -1      1327    8    0    1
 -2       615       726       727      2987      2991      2989
 -1      1328    8    0    1
 -2       617       616       728      2653      2992      2993
 -1      1329    8    0    1
 -2       616       727       728      2990      2994      2992
 -1      1330    8    0    1
 -2       618       617       729      2656      2995      2996
 -1      1331    8    0    1
 -2       617       728       729      2993      2997      2995
 -1      1332    8    0    1
 -2       619       618       730      2659      2998      2999
 -1      1333    8    0    1
 -2       618       729       730      2996      3000      2998
 -1      1334    8    0    1
 -2       620       619       731      2662      3001      3002
 -1      1335    8    0    1
 -2       619       730       731      2999      3003      3001
 -1      1336    8    0    1
 -2       621       620       732      2665      3004      3005
 -1      1337    8    0    1
 -2       620       731       732      3002      3006      3004
 -1      1338    8    0    1
 -2       622       621       733      2668      3007      3008
 -1      1339    8    0    1
 -2       621       732       733      3005      3009      3007
 -1      1340    8    0    1
 -2       623       622       734      2671      3010      3011
 -1      1341    8    0    1
 -2       622       733       734      3008      3012      3010
 -1      1342    8    0    1
 -2       624       623       735      2674      3013      3014
 -1      1343    8    0    1
 -2       623       734       735      3011      3015      3013
 -1      1344    8    0    1
 -2       625       624       736      2677      3016      3017
 -1      1345    8    0    1
 -2       624       735       736      3014      3018      3016
 -1      1346    8    0    1
 -2       626       625       737      2680      3019      3020
 -1      1347    8    0    1
 -2       625       736       737      3017      3021      3019
 -1      1348    8    0    1
 -2       627       626       738      2683      3022      3023
 -1      1349    8    0    1
 -2       626       737       738      3020      3024      3022
 -1      1350    8    0    1
 -2       628       627       739      2686      3025      3026
 -1      1351    8    0    1
 -2       627       738       739      3023      3027      3025
 -1      1352    8    0    1
 -2       629       628       740      2689      3028      3029
 -1      1353    8    0    1
 -2       628       739       740      3026      3030      3028
 -1      1354    8    0    1
 -2       630       629       741      2692      3031      3032
 -1      1355    8    0    1
 -2       629       740       741      3029      3033      3031
 -1      1356    8    0    1
 -2       631       630       742      2695      3034      3035
 -1      1357    8    0    1
 -2       630       741       742      3032      3036      3034
 -1      1358    8    0    1
 -2       632       631       743      2698      3037      3038
 -1      1359    8    0    1
 -2       631       742       743      3035      3039      3037
 -1      1360    8    0    1
 -2       633       632       744      2701      3040      3041
 -1      1361    8    0    1
 -2       632       743       744      3038      3042      3040
 -1      1362    8    0    1
 -2       634       633       745      2704      3043      3044
 -1      1363    8    0    1
 -2       633       744       745      3041      3045      3043
 -1      1364    8    0    1
 -2       643       644       746      2732      3046      3047
 -1      1365    8    0    1
 -2       708       640       747      2921      3048      3049
 -1      1366    8    0    1
 -2       690       701       748      2899      3050      3051
 -1      1367    8    0    1
 -2       680       697       749      2923      3052      3053
 -1      1368    8    0    1
 -2       638       639       750      2718      3054      3055
 -1      1369    8    0    1
 -2       640       638       751      2721      3056      3057
 -1      1370    8    0    1
 -2       747       640       751      3048      3057      3058
 -1      1371    8    0    1
 -2       638       750       751      3055      3059      3056
 -1      1372    8    0    1
 -2       642       643       752      2729      3060      3061
 -1      1373    8    0    1
 -2       643       746       752      3047      3062      3060
 -1      1374    8    0    1
 -2       641       642       753      2726      3063      3064
 -1      1375    8    0    1
 -2       642       752       753      3061      3065      3063
 -1      1376    8    0    1
 -2       644       645       754      2735      3066      3067
 -1      1377    8    0    1
 -2       644       754       746      3067      3068      3046
 -1      1378    8    0    1
 -2       645       646       755      2738      3069      3070
 -1      1379    8    0    1
 -2       645       755       754      3070      3071      3066
 -1      1380    8    0    1
 -2       646       647       756      2741      3072      3073
 -1      1381    8    0    1
 -2       646       756       755      3073      3074      3069
 -1      1382    8    0    1
 -2       647       648       757      2744      3075      3076
 -1      1383    8    0    1
 -2       647       757       756      3076      3077      3072
 -1      1384    8    0    1
 -2       648       649       758      2747      3078      3079
 -1      1385    8    0    1
 -2       648       758       757      3079      3080      3075
 -1      1386    8    0    1
 -2       649       650       759      2750      3081      3082
 -1      1387    8    0    1
 -2       649       759       758      3082      3083      3078
 -1      1388    8    0    1
 -2       650       651       760      2753      3084      3085
 -1      1389    8    0    1
 -2       650       760       759      3085      3086      3081
 -1      1390    8    0    1
 -2       651       652       761      2756      3087      3088
 -1      1391    8    0    1
 -2       651       761       760      3088      3089      3084
 -1      1392    8    0    1
 -2       652       653       762      2759      3090      3091
 -1      1393    8    0    1
 -2       652       762       761      3091      3092      3087
 -1      1394    8    0    1
 -2       653       654       763      2762      3093      3094
 -1      1395    8    0    1
 -2       653       763       762      3094      3095      3090
 -1      1396    8    0    1
 -2       654       655       764      2765      3096      3097
 -1      1397    8    0    1
 -2       654       764       763      3097      3098      3093
 -1      1398    8    0    1
 -2       655       656       765      2768      3099      3100
 -1      1399    8    0    1
 -2       655       765       764      3100      3101      3096
 -1      1400    8    0    1
 -2       656       657       766      2771      3102      3103
 -1      1401    8    0    1
 -2       656       766       765      3103      3104      3099
 -1      1402    8    0    1
 -2       657       658       767      2774      3105      3106
 -1      1403    8    0    1
 -2       657       767       766      3106      3107      3102
 -1      1404    8    0    1
 -2       658       659       768      2777      3108      3109
 -1      1405    8    0    1
 -2       658       768       767      3109      3110      3105
 -1      1406    8    0    1
 -2       659       660       769      2780      3111      3112
 -1      1407    8    0    1
 -2       659       769       768      3112      3113      3108
 -1      1408    8    0    1
 -2       660       661       770      2783      3114      3115
 -1      1409    8    0    1
 -2       660       770       769      3115      3116      3111
 -1      1410    8    0    1
 -2       661       662       771      2786      3117      3118
 -1      1411    8    0    1
 -2       661       771       770      3118      3119      3114
 -1      1412    8    0    1
 -2       662       663       772      2789      3120      3121
 -1      1413    8    0    1
 -2       662       772       771      3121      3122      3117
 -1      1414    8    0    1
 -2       663       664       773      2792      3123      3124
 -1      1415    8    0    1
 -2       663       773       772      3124      3125      3120
 -1      1416    8    0    1
 -2       664       665       774      2795      3126      3127
 -1      1417    8    0    1
 -2       664       774       773      3127      3128      3123
 -1      1418    8    0    1
 -2       665       666       775      2798      3129      3130
 -1      1419    8    0    1
 -2       665       775       774      3130      3131      3126
 -1      1420    8    0    1
 -2       666       667       776      2801      3132      3133
 -1      1421    8    0    1
 -2       666       776       775      3133      3134      3129
 -1      1422    8    0    1
 -2       667       668       777      2804      3135      3136
 -1      1423    8    0    1
 -2       667       777       776      3136      3137      3132
 -1      1424    8    0    1
 -2       668       669       778      2807      3138      3139
 -1      1425    8    0    1
 -2       668       778       777      3139      3140      3135
 -1      1426    8    0    1
 -2       669       670       779      2810      3141      3142
 -1      1427    8    0    1
 -2       669       779       778      3142      3143      3138
 -1      1428    8    0    1
 -2       670       671       780      2813      3144      3145
 -1      1429    8    0    1
 -2       670       780       779      3145      3146      3141
 -1      1430    8    0    1
 -2       671       672       781      2816      3147      3148
 -1      1431    8    0    1
 -2       671       781       780      3148      3149      3144
 -1      1432    8    0    1
 -2       672       673       782      2819      3150      3151
 -1      1433    8    0    1
 -2       672       782       781      3151      3152      3147
 -1      1434    8    0    1
 -2       673       674       783      2822      3153      3154
 -1      1435    8    0    1
 -2       673       783       782      3154      3155      3150
 -1      1436    8    0    1
 -2       674       675       784      2825      3156      3157
 -1      1437    8    0    1
 -2       674       784       783      3157      3158      3153
 -1      1438    8    0    1
 -2       675       676       785      2828      3159      3160
 -1      1439    8    0    1
 -2       675       785       784      3160      3161      3156
 -1      1440    8    0    1
 -2       676       677       786      2831      3162      3163
 -1      1441    8    0    1
 -2       676       786       785      3163      3164      3159
 -1      1442    8    0    1
 -2       677       678       787      2834      3165      3166
 -1      1443    8    0    1
 -2       786       677       787      3162      3166      3167
 -1      1444    8    0    1
 -2       678       682       787      2846      3168      3165
 -1      1445    8    0    1
 -2       685       686       788      2860      3169      3170
 -1      1446    8    0    1
 -2       686       715       788      2956      3171      3169
 -1      1447    8    0    1
 -2       694       690       789      2916      3172      3173
 -1      1448    8    0    1
 -2       688       710       790      2943      3174      3175
 -1      1449    8    0    1
 -2       687       688       791      2866      3176      3177
 -1      1450    8    0    1
 -2       715       687       791      2955      3177      3178
 -1      1451    8    0    1
 -2       688       790       791      3175      3179      3176
 -1      1452    8    0    1
 -2       699       596       792      2949      3180      3181
 -1      1453    8    0    1
 -2       701       704       793      2944      3182      3183
 -1      1454    8    0    1
 -2       701       793       748      3183      3184      3050
 -1      1455    8    0    1
 -2       689       587       576      2867      2566      3185
 -1      1456    8    0    1
 -2       594       708       601      2931      3186      2952
 -1      1457    8    0    1
 -2       637       699       794      2920      3187      3188
 -1      1458    8    0    1
 -2       595       590       795      2579      3189      3190
 -1      1459    8    0    1
 -2       635       595       795      2708      3190      3191
 -1      1460    8    0    1
 -2       590       709       795      2928      3192      3189
 -1      1461    8    0    1
 -2       683       685       796      2857      3193      3194
 -1      1462    8    0    1
 -2       685       788       796      3170      3195      3193
 -1      1463    8    0    1
 -2       693       696       797      2938      3196      3197
 -1      1464    8    0    1
 -2       697       691       798      2936      3198      3199
 -1      1465    8    0    1
 -2       692       695       799      2882      3200      3201
 -1      1466    8    0    1
 -2       600       601       708      2937      3186      3202
 -1      1467    8    0    1
 -2       696       703       800      2924      3203      3204
 -1      1468    8    0    1
 -2       797       696       800      3196      3204      3205
 -1      1469    8    0    1
 -2       703       634       800      2946      3206      3203
 -1      1470    8    0    1
 -2       700       637       801      2896      3207      3208
 -1      1471    8    0    1
 -2       598       597       802      2597      3209      3210
 -1      1472    8    0    1
 -2       679       683       803      2850      3211      3212
 -1      1473    8    0    1
 -2       683       796       803      3194      3213      3211
 -1      1474    8    0    1
 -2       691       700       804      2925      3214      3215
 -1      1475    8    0    1
 -2       604       603       805      2614      3216      3217
 -1      1476    8    0    1
 -2       604       805       716      3217      3218      2957
 -1      1477    8    0    1
 -2       695       593       799      2932      3219      3200
 -1      1478    8    0    1
 -2       580       510       806      2904      3220      3221
 -1      1479    8    0    1
 -2       588       580       806      2563      3221      3222
 -1      1480    8    0    1
 -2       710       602       790      2945      3223      3174
 -1      1481    8    0    1
 -2       588       806       703      3222      3224      2902
 -1      1482    8    0    1
 -2       637       794       801      3188      3225      3207
 -1      1483    8    0    1
 -2       714       693       797      2953      3197      3226
 -1      1484    8    0    1
 -2       694       789       807      3173      3227      3228
 -1      1485    8    0    1
 -2       694       807       711      3228      3229      2935
 -1      1486    8    0    1
 -2       603       635       795      2707      3191      3230
 -1      1487    8    0    1
 -2       707       592       706      2919      2914      3231
 -1      1488    8    0    1
 -2       681       679       808      2843      3232      3233
 -1      1489    8    0    1
 -2       679       803       808      3212      3234      3232
 -1      1490    8    0    1
 -2       641       753       809      3064      3235      3236
 -1      1491    8    0    1
 -2       641       809       684      3236      3237      2854
 -1      1492    8    0    1
 -2       634       745       800      3044      3238      3206
 -1      1493    8    0    1
 -2       708       747       713      3049      3239      3240
 -1      1494    8    0    1
 -2       690       748       789      3051      3241      3172
 -1      1495    8    0    1
 -2       705       598       810      2908      3242      3243
 -1      1496    8    0    1
 -2       598       802       810      3210      3244      3242
 -1      1497    8    0    1
 -2       639       684       811      2853      3245      3246
 -1      1498    8    0    1
 -2       750       639       811      3054      3246      3247
 -1      1499    8    0    1
 -2       684       809       811      3237      3248      3245
 -1      1500    8    0    1
 -2       699       792       812      3181      3249      3250
 -1      1501    8    0    1
 -2       699       812       794      3250      3251      3187
 -1      1502    8    0    1
 -2       636       681       813      2842      3252      3253
 -1      1503    8    0    1
 -2       681       808       813      3233      3254      3252
 -1      1504    8    0    1
 -2       805       603       795      3216      3230      3255
 -1      1505    8    0    1
 -2       709       702       814      2926      3256      3257
 -1      1506    8    0    1
 -2       793       704       815      3182      3258      3259
 -1      1507    8    0    1
 -2       704       714       815      2954      3260      3258
 -1      1508    8    0    1
 -2       790       602       692      3223      2875      3261
 -1      1509    8    0    1
 -2       798       691       804      3198      3215      3262
 -1      1510    8    0    1
 -2       698       599       816      2891      3263      3264
 -1      1511    8    0    1
 -2       599       713       816      2951      3265      3263
 -1      1512    8    0    1
 -2       596       711       792      2934      3266      3180
 -1      1513    8    0    1
 -2       576       378       689      2587      2948      3185
 -1      1514    8    0    1
 -2       593       707       799      2918      3267      3219
 -1      1515    8    0    1
 -2       749       697       798      3052      3199      3268
 -1      1516    8    0    1
 -2       682       636       787      2847      3269      3168
 -1      1517    8    0    1
 -2       787       636       813      3269      3253      3270
 -1      1518    8    0    1
 -2       600       708       713      3202      3240      2950
 -1      1519    8    0    1
 -2       802       597       817      3209      3271      3272
 -1      1520    8    0    1
 -2       597       698       817      2890      3273      3271
 -1      1521    8    0    1
 -2       700       801       804      3208      3274      3214
 -1      1522    8    0    1
 -2       702       712       818      2941      3275      3276
 -1      1523    8    0    1
 -2       702       818       814      3276      3277      3256
 -1      1524    8    0    1
 -2       706       680       749      2915      3053      3278
 -1      1525    8    0    1
 -2       713       747       819      3239      3279      3280
 -1      1526    8    0    1
 -2       713       819       816      3280      3281      3265
 -1      1527    8    0    1
 -2       718       717       820      2964      3282      3283
 -1      1528    8    0    1
 -2       719       718       821      2967      3284      3285
 -1      1529    8    0    1
 -2       718       820       821      3283      3286      3284
 -1      1530    8    0    1
 -2       720       719       822      2970      3287      3288
 -1      1531    8    0    1
 -2       719       821       822      3285      3289      3287
 -1      1532    8    0    1
 -2       721       720       823      2973      3290      3291
 -1      1533    8    0    1
 -2       720       822       823      3288      3292      3290
 -1      1534    8    0    1
 -2       722       721       824      2976      3293      3294
 -1      1535    8    0    1
 -2       721       823       824      3291      3295      3293
 -1      1536    8    0    1
 -2       723       722       825      2979      3296      3297
 -1      1537    8    0    1
 -2       722       824       825      3294      3298      3296
 -1      1538    8    0    1
 -2       724       723       826      2982      3299      3300
 -1      1539    8    0    1
 -2       723       825       826      3297      3301      3299
 -1      1540    8    0    1
 -2       725       724       827      2985      3302      3303
 -1      1541    8    0    1
 -2       724       826       827      3300      3304      3302
 -1      1542    8    0    1
 -2       726       725       828      2988      3305      3306
 -1      1543    8    0    1
 -2       725       827       828      3303      3307      3305
 -1      1544    8    0    1
 -2       727       726       829      2991      3308      3309
 -1      1545    8    0    1
 -2       726       828       829      3306      3310      3308
 -1      1546    8    0    1
 -2       728       727       830      2994      3311      3312
 -1      1547    8    0    1
 -2       727       829       830      3309      3313      3311
 -1      1548    8    0    1
 -2       729       728       831      2997      3314      3315
 -1      1549    8    0    1
 -2       728       830       831      3312      3316      3314
 -1      1550    8    0    1
 -2       730       729       832      3000      3317      3318
 -1      1551    8    0    1
 -2       729       831       832      3315      3319      3317
 -1      1552    8    0    1
 -2       731       730       833      3003      3320      3321
 -1      1553    8    0    1
 -2       730       832       833      3318      3322      3320
 -1      1554    8    0    1
 -2       732       731       834      3006      3323      3324
 -1      1555    8    0    1
 -2       731       833       834      3321      3325      3323
 -1      1556    8    0    1
 -2       733       732       835      3009      3326      3327
 -1      1557    8    0    1
 -2       732       834       835      3324      3328      3326
 -1      1558    8    0    1
 -2       734       733       836      3012      3329      3330
 -1      1559    8    0    1
 -2       733       835       836      3327      3331      3329
 -1      1560    8    0    1
 -2       735       734       837      3015      3332      3333
 -1      1561    8    0    1
 -2       734       836       837      3330      3334      3332
 -1      1562    8    0    1
 -2       736       735       838      3018      3335      3336
 -1      1563    8    0    1
 -2       735       837       838      3333      3337      3335
 -1      1564    8    0    1
 -2       737       736       839      3021      3338      3339
 -1      1565    8    0    1
 -2       736       838       839      3336      3340      3338
 -1      1566    8    0    1
 -2       738       737       840      3024      3341      3342
 -1      1567    8    0    1
 -2       737       839       840      3339      3343      3341
 -1      1568    8    0    1
 -2       739       738       841      3027      3344      3345
 -1      1569    8    0    1
 -2       738       840       841      3342      3346      3344
 -1      1570    8    0    1
 -2       740       739       842      3030      3347      3348
 -1      1571    8    0    1
 -2       739       841       842      3345      3349      3347
 -1      1572    8    0    1
 -2       741       740       843      3033      3350      3351
 -1      1573    8    0    1
 -2       740       842       843      3348      3352      3350
 -1      1574    8    0    1
 -2       742       741       844      3036      3353      3354
 -1      1575    8    0    1
 -2       741       843       844      3351      3355      3353
 -1      1576    8    0    1
 -2       743       742       845      3039      3356      3357
 -1      1577    8    0    1
 -2       742       844       845      3354      3358      3356
 -1      1578    8    0    1
 -2       744       743       846      3042      3359      3360
 -1      1579    8    0    1
 -2       743       845       846      3357      3361      3359
 -1      1580    8    0    1
 -2       745       744       847      3045      3362      3363
 -1      1581    8    0    1
 -2       744       846       847      3360      3364      3362
 -1      1582    8    0    1
 -2       754       755       848      3071      3365      3366
 -1      1583    8    0    1
 -2       796       788       849      3195      3367      3368
 -1      1584    8    0    1
 -2       789       748       850      3241      3369      3370
 -1      1585    8    0    1
 -2       746       754       851      3068      3371      3372
 -1      1586    8    0    1
 -2       754       848       851      3366      3373      3371
 -1      1587    8    0    1
 -2       753       752       852      3065      3374      3375
 -1      1588    8    0    1
 -2       755       756       853      3074      3376      3377
 -1      1589    8    0    1
 -2       755       853       848      3377      3378      3365
 -1      1590    8    0    1
 -2       756       757       854      3077      3379      3380
 -1      1591    8    0    1
 -2       756       854       853      3380      3381      3376
 -1      1592    8    0    1
 -2       757       758       855      3080      3382      3383
 -1      1593    8    0    1
 -2       757       855       854      3383      3384      3379
 -1      1594    8    0    1
 -2       758       759       856      3083      3385      3386
 -1      1595    8    0    1
 -2       758       856       855      3386      3387      3382
 -1      1596    8    0    1
 -2       759       760       857      3086      3388      3389
 -1      1597    8    0    1
 -2       759       857       856      3389      3390      3385
 -1      1598    8    0    1
 -2       760       761       858      3089      3391      3392
 -1      1599    8    0    1
 -2       760       858       857      3392      3393      3388
 -1      1600    8    0    1
 -2       761       762       859      3092      3394      3395
 -1      1601    8    0    1
 -2       761       859       858      3395      3396      3391
 -1      1602    8    0    1
 -2       762       763       860      3095      3397      3398
 -1      1603    8    0    1
 -2       762       860       859      3398      3399      3394
 -1      1604    8    0    1
 -2       763       764       861      3098      3400      3401
 -1      1605    8    0    1
 -2       763       861       860      3401      3402      3397
 -1      1606    8    0    1
 -2       764       765       862      3101      3403      3404
 -1      1607    8    0    1
 -2       764       862       861      3404      3405      3400
 -1      1608    8    0    1
 -2       765       766       863      3104      3406      3407
 -1      1609    8    0    1
 -2       765       863       862      3407      3408      3403
 -1      1610    8    0    1
 -2       766       767       864      3107      3409      3410
 -1      1611    8    0    1
 -2       766       864       863      3410      3411      3406
 -1      1612    8    0    1
 -2       767       768       865      3110      3412      3413
 -1      1613    8    0    1
 -2       767       865       864      3413      3414      3409
 -1      1614    8    0    1
 -2       768       769       866      3113      3415      3416
 -1      1615    8    0    1
 -2       768       866       865      3416      3417      3412
 -1      1616    8    0    1
 -2       769       770       867      3116      3418      3419
 -1      1617    8    0    1
 -2       769       867       866      3419      3420      3415
 -1      1618    8    0    1
 -2       770       771       868      3119      3421      3422
 -1      1619    8    0    1
 -2       770       868       867      3422      3423      3418
 -1      1620    8    0    1
 -2       771       772       869      3122      3424      3425
 -1      1621    8    0    1
 -2       771       869       868      3425      3426      3421
 -1      1622    8    0    1
 -2       772       773       870      3125      3427      3428
 -1      1623    8    0    1
 -2       772       870       869      3428      3429      3424
 -1      1624    8    0    1
 -2       773       774       871      3128      3430      3431
 -1      1625    8    0    1
 -2       773       871       870      3431      3432      3427
 -1      1626    8    0    1
 -2       774       775       872      3131      3433      3434
 -1      1627    8    0    1
 -2       774       872       871      3434      3435      3430
 -1      1628    8    0    1
 -2       775       776       873      3134      3436      3437
 -1      1629    8    0    1
 -2       775       873       872      3437      3438      3433
 -1      1630    8    0    1
 -2       776       777       874      3137      3439      3440
 -1      1631    8    0    1
 -2       776       874       873      3440      3441      3436
 -1      1632    8    0    1
 -2       777       778       875      3140      3442      3443
 -1      1633    8    0    1
 -2       777       875       874      3443      3444      3439
 -1      1634    8    0    1
 -2       778       779       876      3143      3445      3446
 -1      1635    8    0    1
 -2       778       876       875      3446      3447      3442
 -1      1636    8    0    1
 -2       779       780       877      3146      3448      3449
 -1      1637    8    0    1
 -2       779       877       876      3449      3450      3445
 -1      1638    8    0    1
 -2       780       781       878      3149      3451      3452
 -1      1639    8    0    1
 -2       780       878       877      3452      3453      3448
 -1      1640    8    0    1
 -2       781       782       879      3152      3454      3455
 -1      1641    8    0    1
 -2       781       879       878      3455      3456      3451
 -1      1642    8    0    1
 -2       782       783       880      3155      3457      3458
 -1      1643    8    0    1
 -2       782       880       879      3458      3459      3454
 -1      1644    8    0    1
 -2       783       784       881      3158      3460      3461
 -1      1645    8    0    1
 -2       783       881       880      3461      3462      3457
 -1      1646    8    0    1
 -2       784       785       882      3161      3463      3464
 -1      1647    8    0    1
 -2       784       882       881      3464      3465      3460
 -1      1648    8    0    1
 -2       785       786       883      3164      3466      3467
 -1      1649    8    0    1
 -2       785       883       882      3467      3468      3463
 -1      1650    8    0    1
 -2       786       787       813      3167      3270      3469
 -1      1651    8    0    1
 -2       788       715       749      3171      3470      3471
 -1      1652    8    0    1
 -2       706       749       715      3278      3470      3472
 -1      1653    8    0    1
 -2       800       745       884      3238      3473      3474
 -1      1654    8    0    1
 -2       745       847       884      3363      3475      3473
 -1      1655    8    0    1
 -2       510       703       806      2947      3224      3220
 -1      1656    8    0    1
 -2       748       793       885      3184      3476      3477
 -1      1657    8    0    1
 -2       795       709       805      3192      3478      3255
 -1      1658    8    0    1
 -2       803       796       886      3213      3479      3480
 -1      1659    8    0    1
 -2       796       849       886      3368      3481      3479
 -1      1660    8    0    1
 -2       707       706       887      3231      3482      3483
 -1      1661    8    0    1
 -2       790       692       799      3261      3201      3484
 -1      1662    8    0    1
 -2       709       814       805      3257      3485      3478
 -1      1663    8    0    1
 -2       801       794       888      3225      3486      3487
 -1      1664    8    0    1
 -2       798       804       889      3262      3488      3489
 -1      1665    8    0    1
 -2       712       705       890      2942      3490      3491
 -1      1666    8    0    1
 -2       712       890       818      3491      3492      3275
 -1      1667    8    0    1
 -2       714       797       891      3226      3493      3494
 -1      1668    8    0    1
 -2       799       707       887      3267      3483      3495
 -1      1669    8    0    1
 -2       805       814       892      3485      3496      3497
 -1      1670    8    0    1
 -2       805       892       716      3497      3498      3218
 -1      1671    8    0    1
 -2       717       716       893      2961      3499      3500
 -1      1672    8    0    1
 -2       820       717       893      3282      3500      3501
 -1      1673    8    0    1
 -2       716       892       893      3498      3502      3499
 -1      1674    8    0    1
 -2       804       801       894      3274      3503      3504
 -1      1675    8    0    1
 -2       801       888       894      3487      3505      3503
 -1      1676    8    0    1
 -2       752       746       895      3062      3506      3507
 -1      1677    8    0    1
 -2       852       752       895      3374      3507      3508
 -1      1678    8    0    1
 -2       746       851       895      3372      3509      3506
 -1      1679    8    0    1
 -2       797       800       884      3205      3474      3510
 -1      1680    8    0    1
 -2       792       711       896      3266      3511      3512
 -1      1681    8    0    1
 -2       711       807       896      3229      3513      3511
 -1      1682    8    0    1
 -2       786       813       883      3469      3514      3466
 -1      1683    8    0    1
 -2       790       799       887      3484      3495      3515
 -1      1684    8    0    1
 -2       807       789       897      3227      3516      3517
 -1      1685    8    0    1
 -2       789       850       897      3370      3518      3516
 -1      1686    8    0    1
 -2       819       747       751      3279      3058      3519
 -1      1687    8    0    1
 -2       808       803       898      3234      3520      3521
 -1      1688    8    0    1
 -2       803       886       898      3480      3522      3520
 -1      1689    8    0    1
 -2       809       753       899      3235      3523      3524
 -1      1690    8    0    1
 -2       753       852       899      3375      3525      3523
 -1      1691    8    0    1
 -2       804       894       889      3504      3526      3488
 -1      1692    8    0    1
 -2       797       884       891      3510      3527      3493
 -1      1693    8    0    1
 -2       810       802       900      3244      3528      3529
 -1      1694    8    0    1
 -2       791       790       887      3179      3515      3530
 -1      1695    8    0    1
 -2       792       896       901      3512      3531      3532
 -1      1696    8    0    1
 -2       792       901       812      3532      3533      3249
 -1      1697    8    0    1
 -2       706       715       791      3472      3178      3534
 -1      1698    8    0    1
 -2       788       749       849      3471      3535      3367
 -1      1699    8    0    1
 -2       885       793       815      3476      3259      3536
 -1      1700    8    0    1
 -2       705       810       890      3243      3537      3490
 -1      1701    8    0    1
 -2       813       808       902      3254      3538      3539
 -1      1702    8    0    1
 -2       883       813       902      3514      3539      3540
 -1      1703    8    0    1
 -2       808       898       902      3521      3541      3538
 -1      1704    8    0    1
 -2       815       714       891      3260      3494      3542
 -1      1705    8    0    1
 -2       849       749       798      3535      3268      3543
 -1      1706    8    0    1
 -2       888       794       903      3486      3544      3545
 -1      1707    8    0    1
 -2       794       812       903      3251      3546      3544
 -1      1708    8    0    1
 -2       798       889       849      3489      3547      3543
 -1      1709    8    0    1
 -2       751       750       904      3059      3548      3549
 -1      1710    8    0    1
 -2       892       814       818      3496      3277      3550
 -1      1711    8    0    1
 -2       850       748       885      3369      3477      3551
 -1      1712    8    0    1
 -2       817       698       816      3273      3264      3552
 -1      1713    8    0    1
 -2       750       811       905      3247      3553      3554
 -1      1714    8    0    1
 -2       750       905       904      3554      3555      3548
 -1      1715    8    0    1
 -2       802       817       906      3272      3556      3557
 -1      1716    8    0    1
 -2       802       906       900      3557      3558      3528
 -1      1717    8    0    1
 -2       894       888       907      3505      3559      3560
 -1      1718    8    0    1
 -2       822       821       908      3289      3561      3562
 -1      1719    8    0    1
 -2       823       822       909      3292      3563      3564
 -1      1720    8    0    1
 -2       822       908       909      3562      3565      3563
 -1      1721    8    0    1
 -2       824       823       910      3295      3566      3567
 -1      1722    8    0    1
 -2       823       909       910      3564      3568      3566
 -1      1723    8    0    1
 -2       825       824       911      3298      3569      3570
 -1      1724    8    0    1
 -2       824       910       911      3567      3571      3569
 -1      1725    8    0    1
 -2       826       825       912      3301      3572      3573
 -1      1726    8    0    1
 -2       825       911       912      3570      3574      3572
 -1      1727    8    0    1
 -2       827       826       913      3304      3575      3576
 -1      1728    8    0    1
 -2       826       912       913      3573      3577      3575
 -1      1729    8    0    1
 -2       828       827       914      3307      3578      3579
 -1      1730    8    0    1
 -2       827       913       914      3576      3580      3578
 -1      1731    8    0    1
 -2       829       828       915      3310      3581      3582
 -1      1732    8    0    1
 -2       828       914       915      3579      3583      3581
 -1      1733    8    0    1
 -2       830       829       916      3313      3584      3585
 -1      1734    8    0    1
 -2       829       915       916      3582      3586      3584
 -1      1735    8    0    1
 -2       831       830       917      3316      3587      3588
 -1      1736    8    0    1
 -2       830       916       917      3585      3589      3587
 -1      1737    8    0    1
 -2       832       831       918      3319      3590      3591
 -1      1738    8    0    1
 -2       831       917       918      3588      3592      3590
 -1      1739    8    0    1
 -2       833       832       919      3322      3593      3594
 -1      1740    8    0    1
 -2       832       918       919      3591      3595      3593
 -1      1741    8    0    1
 -2       834       833       920      3325      3596      3597
 -1      1742    8    0    1
 -2       833       919       920      3594      3598      3596
 -1      1743    8    0    1
 -2       835       834       921      3328      3599      3600
 -1      1744    8    0    1
 -2       834       920       921      3597      3601      3599
 -1      1745    8    0    1
 -2       836       835       922      3331      3602      3603
 -1      1746    8    0    1
 -2       835       921       922      3600      3604      3602
 -1      1747    8    0    1
 -2       837       836       923      3334      3605      3606
 -1      1748    8    0    1
 -2       836       922       923      3603      3607      3605
 -1      1749    8    0    1
 -2       838       837       924      3337      3608      3609
 -1      1750    8    0    1
 -2       837       923       924      3606      3610      3608
 -1      1751    8    0    1
 -2       839       838       925      3340      3611      3612
 -1      1752    8    0    1
 -2       838       924       925      3609      3613      3611
 -1      1753    8    0    1
 -2       840       839       926      3343      3614      3615
 -1      1754    8    0    1
 -2       839       925       926      3612      3616      3614
 -1      1755    8    0    1
 -2       841       840       927      3346      3617      3618
 -1      1756    8    0    1
 -2       840       926       927      3615      3619      3617
 -1      1757    8    0    1
 -2       842       841       928      3349      3620      3621
 -1      1758    8    0    1
 -2       841       927       928      3618      3622      3620
 -1      1759    8    0    1
 -2       843       842       929      3352      3623      3624
 -1      1760    8    0    1
 -2       842       928       929      3621      3625      3623
 -1      1761    8    0    1
 -2       844       843       930      3355      3626      3627
 -1      1762    8    0    1
 -2       843       929       930      3624      3628      3626
 -1      1763    8    0    1
 -2       845       844       931      3358      3629      3630
 -1      1764    8    0    1
 -2       844       930       931      3627      3631      3629
 -1      1765    8    0    1
 -2       846       845       932      3361      3632      3633
 -1      1766    8    0    1
 -2       845       931       932      3630      3634      3632
 -1      1767    8    0    1
 -2       847       846       933      3364      3635      3636
 -1      1768    8    0    1
 -2       846       932       933      3633      3637      3635
 -1      1769    8    0    1
 -2       853       854       934      3381      3638      3639
 -1      1770    8    0    1
 -2       819       751       904      3519      3549      3640
 -1      1771    8    0    1
 -2       811       809       935      3248      3641      3642
 -1      1772    8    0    1
 -2       905       811       935      3553      3642      3643
 -1      1773    8    0    1
 -2       809       899       935      3524      3644      3641
 -1      1774    8    0    1
 -2       815       891       936      3542      3645      3646
 -1      1775    8    0    1
 -2       848       853       937      3378      3647      3648
 -1      1776    8    0    1
 -2       853       934       937      3639      3649      3647
 -1      1777    8    0    1
 -2       855       856       938      3387      3650      3651
 -1      1778    8    0    1
 -2       856       857       939      3390      3652      3653
 -1      1779    8    0    1
 -2       856       939       938      3653      3654      3650
 -1      1780    8    0    1
 -2       857       858       940      3393      3655      3656
 -1      1781    8    0    1
 -2       857       940       939      3656      3657      3652
 -1      1782    8    0    1
 -2       858       859       941      3396      3658      3659
 -1      1783    8    0    1
 -2       858       941       940      3659      3660      3655
 -1      1784    8    0    1
 -2       859       860       942      3399      3661      3662
 -1      1785    8    0    1
 -2       859       942       941      3662      3663      3658
 -1      1786    8    0    1
 -2       860       861       943      3402      3664      3665
 -1      1787    8    0    1
 -2       860       943       942      3665      3666      3661
 -1      1788    8    0    1
 -2       861       862       944      3405      3667      3668
 -1      1789    8    0    1
 -2       861       944       943      3668      3669      3664
 -1      1790    8    0    1
 -2       862       863       945      3408      3670      3671
 -1      1791    8    0    1
 -2       862       945       944      3671      3672      3667
 -1      1792    8    0    1
 -2       863       864       946      3411      3673      3674
 -1      1793    8    0    1
 -2       863       946       945      3674      3675      3670
 -1      1794    8    0    1
 -2       864       865       947      3414      3676      3677
 -1      1795    8    0    1
 -2       864       947       946      3677      3678      3673
 -1      1796    8    0    1
 -2       865       866       948      3417      3679      3680
 -1      1797    8    0    1
 -2       865       948       947      3680      3681      3676
 -1      1798    8    0    1
 -2       866       867       949      3420      3682      3683
 -1      1799    8    0    1
 -2       866       949       948      3683      3684      3679
 -1      1800    8    0    1
 -2       867       868       950      3423      3685      3686
 -1      1801    8    0    1
 -2       867       950       949      3686      3687      3682
 -1      1802    8    0    1
 -2       868       869       951      3426      3688      3689
 -1      1803    8    0    1
 -2       868       951       950      3689      3690      3685
 -1      1804    8    0    1
 -2       869       870       952      3429      3691      3692
 -1      1805    8    0    1
 -2       869       952       951      3692      3693      3688
 -1      1806    8    0    1
 -2       870       871       953      3432      3694      3695
 -1      1807    8    0    1
 -2       870       953       952      3695      3696      3691
 -1      1808    8    0    1
 -2       871       872       954      3435      3697      3698
 -1      1809    8    0    1
 -2       871       954       953      3698      3699      3694
 -1      1810    8    0    1
 -2       872       873       955      3438      3700      3701
 -1      1811    8    0    1
 -2       872       955       954      3701      3702      3697
 -1      1812    8    0    1
 -2       873       874       956      3441      3703      3704
 -1      1813    8    0    1
 -2       873       956       955      3704      3705      3700
 -1      1814    8    0    1
 -2       874       875       957      3444      3706      3707
 -1      1815    8    0    1
 -2       874       957       956      3707      3708      3703
 -1      1816    8    0    1
 -2       875       876       958      3447      3709      3710
 -1      1817    8    0    1
 -2       875       958       957      3710      3711      3706
 -1      1818    8    0    1
 -2       876       877       959      3450      3712      3713
 -1      1819    8    0    1
 -2       876       959       958      3713      3714      3709
 -1      1820    8    0    1
 -2       877       878       960      3453      3715      3716
 -1      1821    8    0    1
 -2       877       960       959      3716      3717      3712
 -1      1822    8    0    1
 -2       879       880       961      3459      3718      3719
 -1      1823    8    0    1
 -2       880       881       907      3462      3720      3721
 -1      1824    8    0    1
 -2       881       882       907      3465      3722      3720
 -1      1825    8    0    1
 -2       882       883       902      3468      3540      3723
 -1      1826    8    0    1
 -2       884       847       962      3475      3724      3725
 -1      1827    8    0    1
 -2       891       884       962      3527      3725      3726
 -1      1828    8    0    1
 -2       847       933       962      3636      3727      3724
 -1      1829    8    0    1
 -2       890       810       963      3537      3728      3729
 -1      1830    8    0    1
 -2       810       900       963      3529      3730      3728
 -1      1831    8    0    1
 -2       886       849       889      3481      3547      3731
 -1      1832    8    0    1
 -2       851       848       964      3373      3732      3733
 -1      1833    8    0    1
 -2       848       937       964      3648      3734      3732
 -1      1834    8    0    1
 -2       889       894       965      3526      3735      3736
 -1      1835    8    0    1
 -2       892       818       966      3550      3737      3738
 -1      1836    8    0    1
 -2       818       890       966      3492      3739      3737
 -1      1837    8    0    1
 -2       886       889       898      3731      3740      3522
 -1      1838    8    0    1
 -2       854       855       967      3384      3741      3742
 -1      1839    8    0    1
 -2       855       938       967      3651      3743      3741
 -1      1840    8    0    1
 -2       885       815       968      3536      3744      3745
 -1      1841    8    0    1
 -2       850       885       969      3551      3746      3747
 -1      1842    8    0    1
 -2       821       820       970      3286      3748      3749
 -1      1843    8    0    1
 -2       821       970       908      3749      3750      3561
 -1      1844    8    0    1
 -2       817       816       971      3552      3751      3752
 -1      1845    8    0    1
 -2       906       817       971      3556      3752      3753
 -1      1846    8    0    1
 -2       816       819       971      3281      3754      3751
 -1      1847    8    0    1
 -2       896       807       972      3513      3755      3756
 -1      1848    8    0    1
 -2       854       967       934      3742      3757      3638
 -1      1849    8    0    1
 -2       899       852       973      3525      3758      3759
 -1      1850    8    0    1
 -2       885       968       974      3745      3760      3761
 -1      1851    8    0    1
 -2       885       974       969      3761      3762      3746
 -1      1852    8    0    1
 -2       890       963       966      3729      3763      3739
 -1      1853    8    0    1
 -2       819       904       975      3640      3764      3765
 -1      1854    8    0    1
 -2       894       907       965      3560      3766      3735
 -1      1855    8    0    1
 -2       889       965       898      3736      3767      3740
 -1      1856    8    0    1
 -2       901       896       960      3531      3768      3769
 -1      1857    8    0    1
 -2       960       878       976      3715      3770      3771
 -1      1858    8    0    1
 -2       901       960       976      3769      3771      3772
 -1      1859    8    0    1
 -2       878       879       976      3456      3773      3770
 -1      1860    8    0    1
 -2       961       880       907      3718      3721      3774
 -1      1861    8    0    1
 -2       907       882       965      3722      3775      3766
 -1      1862    8    0    1
 -2       812       901       976      3533      3772      3776
 -1      1863    8    0    1
 -2       970       820       977      3748      3777      3778
 -1      1864    8    0    1
 -2       820       893       977      3501      3779      3777
 -1      1865    8    0    1
 -2       891       962       936      3726      3780      3645
 -1      1866    8    0    1
 -2       903       812       976      3546      3776      3781
 -1      1867    8    0    1
 -2       852       895       978      3508      3782      3783
 -1      1868    8    0    1
 -2       852       978       973      3783      3784      3758
 -1      1869    8    0    1
 -2       887       706       791      3482      3534      3530
 -1      1870    8    0    1
 -2       897       850       979      3518      3785      3786
 -1      1871    8    0    1
 -2       850       969       979      3747      3787      3785
 -1      1872    8    0    1
 -2       963       900       980      3730      3788      3789
 -1      1873    8    0    1
 -2       892       966       893      3738      3790      3502
 -1      1874    8    0    1
 -2       900       906       981      3558      3791      3792
 -1      1875    8    0    1
 -2       900       981       980      3792      3793      3788
 -1      1876    8    0    1
 -2       819       975       971      3765      3794      3754
 -1      1877    8    0    1
 -2       807       897       972      3517      3795      3755
 -1      1878    8    0    1
 -2       968       815       936      3744      3646      3796
 -1      1879    8    0    1
 -2       895       851       982      3509      3797      3798
 -1      1880    8    0    1
 -2       851       964       982      3733      3799      3797
 -1      1881    8    0    1
 -2       904       905       983      3555      3800      3801
 -1      1882    8    0    1
 -2       888       903       907      3545      3802      3559
 -1      1883    8    0    1
 -2       904       983       975      3801      3803      3764
 -1      1884    8    0    1
 -2       910       909       984      3568      3804      3805
 -1      1885    8    0    1
 -2       911       910       985      3571      3806      3807
 -1      1886    8    0    1
 -2       910       984       985      3805      3808      3806
 -1      1887    8    0    1
 -2       912       911       986      3574      3809      3810
 -1      1888    8    0    1
 -2       911       985       986      3807      3811      3809
 -1      1889    8    0    1
 -2       913       912       987      3577      3812      3813
 -1      1890    8    0    1
 -2       912       986       987      3810      3814      3812
 -1      1891    8    0    1
 -2       914       913       988      3580      3815      3816
 -1      1892    8    0    1
 -2       913       987       988      3813      3817      3815
 -1      1893    8    0    1
 -2       915       914       989      3583      3818      3819
 -1      1894    8    0    1
 -2       914       988       989      3816      3820      3818
 -1      1895    8    0    1
 -2       916       915       990      3586      3821      3822
 -1      1896    8    0    1
 -2       915       989       990      3819      3823      3821
 -1      1897    8    0    1
 -2       917       916       991      3589      3824      3825
 -1      1898    8    0    1
 -2       916       990       991      3822      3826      3824
 -1      1899    8    0    1
 -2       918       917       992      3592      3827      3828
 -1      1900    8    0    1
 -2       917       991       992      3825      3829      3827
 -1      1901    8    0    1
 -2       919       918       993      3595      3830      3831
 -1      1902    8    0    1
 -2       918       992       993      3828      3832      3830
 -1      1903    8    0    1
 -2       920       919       994      3598      3833      3834
 -1      1904    8    0    1
 -2       919       993       994      3831      3835      3833
 -1      1905    8    0    1
 -2       921       920       995      3601      3836      3837
 -1      1906    8    0    1
 -2       920       994       995      3834      3838      3836
 -1      1907    8    0    1
 -2       922       921       996      3604      3839      3840
 -1      1908    8    0    1
 -2       921       995       996      3837      3841      3839
 -1      1909    8    0    1
 -2       923       922       997      3607      3842      3843
 -1      1910    8    0    1
 -2       922       996       997      3840      3844      3842
 -1      1911    8    0    1
 -2       924       923       998      3610      3845      3846
 -1      1912    8    0    1
 -2       923       997       998      3843      3847      3845
 -1      1913    8    0    1
 -2       925       924       999      3613      3848      3849
 -1      1914    8    0    1
 -2       924       998       999      3846      3850      3848
 -1      1915    8    0    1
 -2       926       925      1000      3616      3851      3852
 -1      1916    8    0    1
 -2       925       999      1000      3849      3853      3851
 -1      1917    8    0    1
 -2       927       926      1001      3619      3854      3855
 -1      1918    8    0    1
 -2       926      1000      1001      3852      3856      3854
 -1      1919    8    0    1
 -2       928       927      1002      3622      3857      3858
 -1      1920    8    0    1
 -2       927      1001      1002      3855      3859      3857
 -1      1921    8    0    1
 -2       929       928      1003      3625      3860      3861
 -1      1922    8    0    1
 -2       928      1002      1003      3858      3862      3860
 -1      1923    8    0    1
 -2       930       929      1004      3628      3863      3864
 -1      1924    8    0    1
 -2       929      1003      1004      3861      3865      3863
 -1      1925    8    0    1
 -2       931       930      1005      3631      3866      3867
 -1      1926    8    0    1
 -2       930      1004      1005      3864      3868      3866
 -1      1927    8    0    1
 -2       932       931      1006      3634      3869      3870
 -1      1928    8    0    1
 -2       931      1005      1006      3867      3871      3869
 -1      1929    8    0    1
 -2       933       932      1007      3637      3872      3873
 -1      1930    8    0    1
 -2       932      1006      1007      3870      3874      3872
 -1      1931    8    0    1
 -2       899       973      1008      3759      3875      3876
 -1      1932    8    0    1
 -2       899      1008       935      3876      3877      3644
 -1      1933    8    0    1
 -2       976       879       961      3773      3719      3878
 -1      1934    8    0    1
 -2       896       972       960      3756      3879      3768
 -1      1935    8    0    1
 -2       937       934      1009      3649      3880      3881
 -1      1936    8    0    1
 -2       939       940      1010      3657      3882      3883
 -1      1937    8    0    1
 -2       938       939      1011      3654      3884      3885
 -1      1938    8    0    1
 -2       939      1010      1011      3883      3886      3884
 -1      1939    8    0    1
 -2       941       942      1012      3663      3887      3888
 -1      1940    8    0    1
 -2       942       943      1013      3666      3889      3890
 -1      1941    8    0    1
 -2       942      1013      1012      3890      3891      3887
 -1      1942    8    0    1
 -2       943       944      1014      3669      3892      3893
 -1      1943    8    0    1
 -2       943      1014      1013      3893      3894      3889
 -1      1944    8    0    1
 -2       944       945      1015      3672      3895      3896
 -1      1945    8    0    1
 -2       944      1015      1014      3896      3897      3892
 -1      1946    8    0    1
 -2       945       946      1016      3675      3898      3899
 -1      1947    8    0    1
 -2       945      1016      1015      3899      3900      3895
 -1      1948    8    0    1
 -2       946       947      1017      3678      3901      3902
 -1      1949    8    0    1
 -2       946      1017      1016      3902      3903      3898
 -1      1950    8    0    1
 -2       947       948      1018      3681      3904      3905
 -1      1951    8    0    1
 -2       947      1018      1017      3905      3906      3901
 -1      1952    8    0    1
 -2       948       949      1019      3684      3907      3908
 -1      1953    8    0    1
 -2       948      1019      1018      3908      3909      3904
 -1      1954    8    0    1
 -2       949       950      1020      3687      3910      3911
 -1      1955    8    0    1
 -2       949      1020      1019      3911      3912      3907
 -1      1956    8    0    1
 -2       950       951      1021      3690      3913      3914
 -1      1957    8    0    1
 -2       950      1021      1020      3914      3915      3910
 -1      1958    8    0    1
 -2       951       952      1022      3693      3916      3917
 -1      1959    8    0    1
 -2       951      1022      1021      3917      3918      3913
 -1      1960    8    0    1
 -2       952       953      1023      3696      3919      3920
 -1      1961    8    0    1
 -2       952      1023      1022      3920      3921      3916
 -1      1962    8    0    1
 -2       953       954      1024      3699      3922      3923
 -1      1963    8    0    1
 -2       953      1024      1023      3923      3924      3919
 -1      1964    8    0    1
 -2       954       955      1025      3702      3925      3926
 -1      1965    8    0    1
 -2       954      1025      1024      3926      3927      3922
 -1      1966    8    0    1
 -2       955       956      1026      3705      3928      3929
 -1      1967    8    0    1
 -2       955      1026      1025      3929      3930      3925
 -1      1968    8    0    1
 -2       956       957       979      3708      3931      3932
 -1      1969    8    0    1
 -2       957       958       979      3711      3933      3931
 -1      1970    8    0    1
 -2       959       960       972      3717      3879      3934
 -1      1971    8    0    1
 -2       965       882       902      3775      3723      3935
 -1      1972    8    0    1
 -2       962       933      1027      3727      3936      3937
 -1      1973    8    0    1
 -2       962      1027       936      3937      3938      3780
 -1      1974    8    0    1
 -2       902       898       965      3541      3767      3935
 -1      1975    8    0    1
 -2       964       937      1028      3734      3939      3940
 -1      1976    8    0    1
 -2       937      1009      1028      3881      3941      3939
 -1      1977    8    0    1
 -2       971       975       906      3794      3942      3753
 -1      1978    8    0    1
 -2       893       966       977      3790      3943      3779
 -1      1979    8    0    1
 -2       940       941      1029      3660      3944      3945
 -1      1980    8    0    1
 -2       941      1012      1029      3888      3946      3944
 -1      1981    8    0    1
 -2       966       963      1030      3763      3947      3948
 -1      1982    8    0    1
 -2       977       966      1030      3943      3948      3949
 -1      1983    8    0    1
 -2       963       980      1030      3789      3950      3947
 -1      1984    8    0    1
 -2       967       938      1031      3743      3951      3952
 -1      1985    8    0    1
 -2       938      1011      1031      3885      3953      3951
 -1      1986    8    0    1
 -2       909       908      1032      3565      3954      3955
 -1      1987    8    0    1
 -2       909      1032       984      3955      3956      3804
 -1      1988    8    0    1
 -2       903       976       961      3781      3878      3957
 -1      1989    8    0    1
 -2       983       905      1033      3800      3958      3959
 -1      1990    8    0    1
 -2       905       935      1033      3643      3960      3958
 -1      1991    8    0    1
 -2       968       936      1034      3796      3961      3962
 -1      1992    8    0    1
 -2       936      1027      1034      3938      3963      3961
 -1      1993    8    0    1
 -2       908       970      1035      3750      3964      3965
 -1      1994    8    0    1
 -2       908      1035      1032      3965      3966      3954
 -1      1995    8    0    1
 -2       975       983      1036      3803      3967      3968
 -1      1996    8    0    1
 -2       934       967      1037      3757      3969      3970
 -1      1997    8    0    1
 -2       934      1037      1009      3970      3971      3880
 -1      1998    8    0    1
 -2       959       972       958      3934      3972      3714
 -1      1999    8    0    1
 -2       958       972       897      3972      3795      3973
 -1      2000    8    0    1
 -2       958       897       979      3973      3786      3933
 -1      2001    8    0    1
 -2       969       974      1026      3762      3974      3975
 -1      2002    8    0    1
 -2       933      1007      1027      3873      3976      3936
 -1      2003    8    0    1
 -2      1008       973      1038      3875      3977      3978
 -1      2004    8    0    1
 -2       973       978      1039      3784      3979      3980
 -1      2005    8    0    1
 -2       973      1039      1038      3980      3981      3977
 -1      2006    8    0    1
 -2       983      1033      1040      3959      3982      3983
 -1      2007    8    0    1
 -2       983      1040      1036      3983      3984      3967
 -1      2008    8    0    1
 -2      1010       940      1029      3882      3945      3985
 -1      2009    8    0    1
 -2       906       975      1036      3942      3968      3986
 -1      2010    8    0    1
 -2       970       977      1041      3778      3987      3988
 -1      2011    8    0    1
 -2      1035       970      1041      3964      3988      3989
 -1      2012    8    0    1
 -2       977      1030      1041      3949      3990      3987
 -1      2013    8    0    1
 -2       964      1028      1042      3940      3991      3992
 -1      2014    8    0    1
 -2       964      1042       982      3992      3993      3799
 -1      2015    8    0    1
 -2       961       907       903      3774      3802      3957
 -1      2016    8    0    1
 -2       978       895       982      3782      3798      3994
 -1      2017    8    0    1
 -2      1030       980      1043      3950      3995      3996
 -1      2018    8    0    1
 -2      1030      1043      1041      3996      3997      3990
 -1      2019    8    0    1
 -2      1037       967      1031      3969      3952      3998
 -1      2020    8    0    1
 -2       968      1034       974      3962      3999      3760
 -1      2021    8    0    1
 -2      1027      1007      1044      3976      4000      4001
 -1      2022    8    0    1
 -2      1027      1044      1034      4001      4002      3963
 -1      2023    8    0    1
 -2       935      1008      1033      3877      4003      3960
 -1      2024    8    0    1
 -2       986       985      1045      3811      4004      4005
 -1      2025    8    0    1
 -2       987       986      1046      3814      4006      4007
 -1      2026    8    0    1
 -2       986      1045      1046      4005      4008      4006
 -1      2027    8    0    1
 -2       988       987      1047      3817      4009      4010
 -1      2028    8    0    1
 -2       987      1046      1047      4007      4011      4009
 -1      2029    8    0    1
 -2       989       988      1048      3820      4012      4013
 -1      2030    8    0    1
 -2       988      1047      1048      4010      4014      4012
 -1      2031    8    0    1
 -2       990       989      1049      3823      4015      4016
 -1      2032    8    0    1
 -2       989      1048      1049      4013      4017      4015
 -1      2033    8    0    1
 -2       991       990      1050      3826      4018      4019
 -1      2034    8    0    1
 -2       990      1049      1050      4016      4020      4018
 -1      2035    8    0    1
 -2       992       991      1051      3829      4021      4022
 -1      2036    8    0    1
 -2       991      1050      1051      4019      4023      4021
 -1      2037    8    0    1
 -2       993       992      1052      3832      4024      4025
 -1      2038    8    0    1
 -2       992      1051      1052      4022      4026      4024
 -1      2039    8    0    1
 -2       994       993      1053      3835      4027      4028
 -1      2040    8    0    1
 -2       993      1052      1053      4025      4029      4027
 -1      2041    8    0    1
 -2       995       994      1054      3838      4030      4031
 -1      2042    8    0    1
 -2       994      1053      1054      4028      4032      4030
 -1      2043    8    0    1
 -2       996       995      1055      3841      4033      4034
 -1      2044    8    0    1
 -2       995      1054      1055      4031      4035      4033
 -1      2045    8    0    1
 -2       997       996      1056      3844      4036      4037
 -1      2046    8    0    1
 -2       996      1055      1056      4034      4038      4036
 -1      2047    8    0    1
 -2       998       997      1057      3847      4039      4040
 -1      2048    8    0    1
 -2       997      1056      1057      4037      4041      4039
 -1      2049    8    0    1
 -2       999       998      1058      3850      4042      4043
 -1      2050    8    0    1
 -2       998      1057      1058      4040      4044      4042
 -1      2051    8    0    1
 -2      1000       999      1059      3853      4045      4046
 -1      2052    8    0    1
 -2       999      1058      1059      4043      4047      4045
 -1      2053    8    0    1
 -2      1001      1000      1060      3856      4048      4049
 -1      2054    8    0    1
 -2      1000      1059      1060      4046      4050      4048
 -1      2055    8    0    1
 -2      1002      1001      1061      3859      4051      4052
 -1      2056    8    0    1
 -2      1001      1060      1061      4049      4053      4051
 -1      2057    8    0    1
 -2      1003      1002      1062      3862      4054      4055
 -1      2058    8    0    1
 -2      1002      1061      1062      4052      4056      4054
 -1      2059    8    0    1
 -2      1004      1003      1063      3865      4057      4058
 -1      2060    8    0    1
 -2      1003      1062      1063      4055      4059      4057
 -1      2061    8    0    1
 -2      1005      1004      1064      3868      4060      4061
 -1      2062    8    0    1
 -2      1004      1063      1064      4058      4062      4060
 -1      2063    8    0    1
 -2      1006      1005      1065      3871      4063      4064
 -1      2064    8    0    1
 -2      1005      1064      1065      4061      4065      4063
 -1      2065    8    0    1
 -2      1007      1006      1066      3874      4066      4067
 -1      2066    8    0    1
 -2      1044      1007      1066      4000      4067      4068
 -1      2067    8    0    1
 -2      1006      1065      1066      4064      4069      4066
 -1      2068    8    0    1
 -2      1011      1010      1067      3886      4070      4071
 -1      2069    8    0    1
 -2      1026       974      1068      3974      4072      4073
 -1      2070    8    0    1
 -2      1025      1026      1068      3930      4073      4074
 -1      2071    8    0    1
 -2       974      1034      1068      3999      4075      4072
 -1      2072    8    0    1
 -2      1037      1031      1069      3998      4076      4077
 -1      2073    8    0    1
 -2       984      1032      1070      3956      4078      4079
 -1      2074    8    0    1
 -2      1013      1014      1071      3894      4080      4081
 -1      2075    8    0    1
 -2      1012      1013      1072      3891      4082      4083
 -1      2076    8    0    1
 -2      1013      1071      1072      4081      4084      4082
 -1      2077    8    0    1
 -2      1015      1016      1073      3900      4085      4086
 -1      2078    8    0    1
 -2      1016      1017      1074      3903      4087      4088
 -1      2079    8    0    1
 -2      1016      1074      1073      4088      4089      4085
 -1      2080    8    0    1
 -2      1017      1018      1075      3906      4090      4091
 -1      2081    8    0    1
 -2      1017      1075      1074      4091      4092      4087
 -1      2082    8    0    1
 -2      1018      1019      1076      3909      4093      4094
 -1      2083    8    0    1
 -2      1018      1076      1075      4094      4095      4090
 -1      2084    8    0    1
 -2      1019      1020      1077      3912      4096      4097
 -1      2085    8    0    1
 -2      1019      1077      1076      4097      4098      4093
 -1      2086    8    0    1
 -2      1020      1021      1078      3915      4099      4100
 -1      2087    8    0    1
 -2      1020      1078      1077      4100      4101      4096
 -1      2088    8    0    1
 -2      1021      1022      1079      3918      4102      4103
 -1      2089    8    0    1
 -2      1021      1079      1078      4103      4104      4099
 -1      2090    8    0    1
 -2      1022      1023      1080      3921      4105      4106
 -1      2091    8    0    1
 -2      1022      1080      1079      4106      4107      4102
 -1      2092    8    0    1
 -2      1023      1024      1081      3924      4108      4109
 -1      2093    8    0    1
 -2      1023      1081      1080      4109      4110      4105
 -1      2094    8    0    1
 -2      1024      1025      1082      3927      4111      4112
 -1      2095    8    0    1
 -2      1081      1024      1082      4108      4112      4113
 -1      2096    8    0    1
 -2      1025      1068      1082      4074      4114      4111
 -1      2097    8    0    1
 -2       956       979      1026      3932      4115      3928
 -1      2098    8    0    1
 -2      1008      1038      1083      3978      4116      4117
 -1      2099    8    0    1
 -2      1008      1083      1033      4117      4118      4003
 -1      2100    8    0    1
 -2       906      1036       981      3986      4119      3791
 -1      2101    8    0    1
 -2      1032      1035      1084      3966      4120      4121
 -1      2102    8    0    1
 -2      1032      1084      1070      4121      4122      4078
 -1      2103    8    0    1
 -2      1043       980      1085      3995      4123      4124
 -1      2104    8    0    1
 -2      1028      1009      1086      3941      4125      4126
 -1      2105    8    0    1
 -2      1029      1012      1087      3946      4127      4128
 -1      2106    8    0    1
 -2      1012      1072      1087      4083      4129      4127
 -1      2107    8    0    1
 -2      1014      1015      1088      3897      4130      4131
 -1      2108    8    0    1
 -2      1015      1073      1088      4086      4132      4130
 -1      2109    8    0    1
 -2       980       981      1085      3793      4133      4123
 -1      2110    8    0    1
 -2      1031      1011      1089      3953      4134      4135
 -1      2111    8    0    1
 -2      1011      1067      1089      4071      4136      4134
 -1      2112    8    0    1
 -2       981      1036      1085      4119      4137      4133
 -1      2113    8    0    1
 -2       985       984      1090      3808      4138      4139
 -1      2114    8    0    1
 -2       985      1090      1045      4139      4140      4004
 -1      2115    8    0    1
 -2       978       982      1091      3994      4141      4142
 -1      2116    8    0    1
 -2      1039       978      1091      3979      4142      4143
 -1      2117    8    0    1
 -2       982      1042      1091      3993      4144      4141
 -1      2118    8    0    1
 -2      1010      1029      1092      3985      4145      4146
 -1      2119    8    0    1
 -2      1067      1010      1092      4070      4146      4147
 -1      2120    8    0    1
 -2      1029      1087      1092      4128      4148      4145
 -1      2121    8    0    1
 -2      1009      1037      1093      3971      4149      4150
 -1      2122    8    0    1
 -2      1009      1093      1086      4150      4151      4125
 -1      2123    8    0    1
 -2      1043      1085      1094      4124      4152      4153
 -1      2124    8    0    1
 -2      1085      1036      1040      4137      3984      4154
 -1      2125    8    0    1
 -2      1068      1034      1044      4075      4002      4155
 -1      2126    8    0    1
 -2      1038      1039      1095      3981      4156      4157
 -1      2127    8    0    1
 -2      1040      1033      1083      3982      4118      4158
 -1      2128    8    0    1
 -2      1085      1040      1094      4154      4159      4152
 -1      2129    8    0    1
 -2       984      1070      1090      4079      4160      4138
 -1      2130    8    0    1
 -2      1014      1088      1071      4131      4161      4080
 -1      2131    8    0    1
 -2      1069      1031      1089      4076      4135      4162
 -1      2132    8    0    1
 -2      1083      1038      1096      4116      4163      4164
 -1      2133    8    0    1
 -2      1038      1095      1096      4157      4165      4163
 -1      2134    8    0    1
 -2       969      1026       979      3975      4115      3787
 -1      2135    8    0    1
 -2      1043      1094      1084      4153      4166      4167
 -1      2136    8    0    1
 -2      1028      1086      1097      4126      4168      4169
 -1      2137    8    0    1
 -2      1028      1097      1042      4169      4170      3991
 -1      2138    8    0    1
 -2      1037      1069      1093      4077      4171      4149
 -1      2139    8    0    1
 -2      1046      1045      1098      4008      4172      4173
 -1      2140    8    0    1
 -2      1068      1044      1082      4155      4174      4114
 -1      2141    8    0    1
 -2      1047      1046      1097      4011      4175      4176
 -1      2142    8    0    1
 -2      1048      1047      1086      4014      4177      4178
 -1      2143    8    0    1
 -2      1049      1048      1093      4017      4179      4180
 -1      2144    8    0    1
 -2      1050      1049      1069      4020      4181      4182
 -1      2145    8    0    1
 -2      1051      1050      1089      4023      4183      4184
 -1      2146    8    0    1
 -2      1052      1051      1067      4026      4185      4186
 -1      2147    8    0    1
 -2      1053      1052      1092      4029      4187      4188
 -1      2148    8    0    1
 -2      1054      1053      1087      4032      4189      4190
 -1      2149    8    0    1
 -2      1055      1054      1072      4035      4191      4192
 -1      2150    8    0    1
 -2      1056      1055      1071      4038      4193      4194
 -1      2151    8    0    1
 -2      1057      1056      1088      4041      4195      4196
 -1      2152    8    0    1
 -2      1058      1057      1073      4044      4197      4198
 -1      2153    8    0    1
 -2      1059      1058      1074      4047      4199      4200
 -1      2154    8    0    1
 -2      1060      1059      1075      4050      4201      4202
 -1      2155    8    0    1
 -2      1061      1060      1076      4053      4203      4204
 -1      2156    8    0    1
 -2      1062      1061      1077      4056      4205      4206
 -1      2157    8    0    1
 -2      1063      1062      1078      4059      4207      4208
 -1      2158    8    0    1
 -2      1064      1063      1079      4062      4209      4210
 -1      2159    8    0    1
 -2      1065      1064      1080      4065      4211      4212
 -1      2160    8    0    1
 -2      1095      1039      1099      4156      4213      4214
 -1      2161    8    0    1
 -2      1039      1091      1099      4143      4215      4213
 -1      2162    8    0    1
 -2      1040      1083      1094      4158      4216      4159
 -1      2163    8    0    1
 -2      1087      1053      1092      4189      4188      4148
 -1      2164    8    0    1
 -2      1080      1064      1079      4211      4210      4107
 -1      2165    8    0    1
 -2      1067      1051      1089      4185      4184      4136
 -1      2166    8    0    1
 -2      1079      1063      1078      4209      4208      4104
 -1      2167    8    0    1
 -2      1045      1090      1099      4140      4217      4218
 -1      2168    8    0    1
 -2      1089      1050      1069      4183      4182      4162
 -1      2169    8    0    1
 -2      1074      1075      1059      4092      4201      4200
 -1      2170    8    0    1
 -2      1073      1074      1058      4089      4199      4198
 -1      2171    8    0    1
 -2      1076      1077      1061      4098      4205      4204
 -1      2172    8    0    1
 -2      1077      1078      1062      4101      4207      4206
 -1      2173    8    0    1
 -2      1080      1081      1065      4110      4219      4212
 -1      2174    8    0    1
 -2      1087      1072      1054      4129      4191      4190
 -1      2175    8    0    1
 -2      1069      1049      1093      4181      4180      4171
 -1      2176    8    0    1
 -2      1076      1060      1075      4203      4202      4095
 -1      2177    8    0    1
 -2      1084      1035      1043      4120      4220      4167
 -1      2178    8    0    1
 -2      1086      1047      1097      4177      4176      4168
 -1      2179    8    0    1
 -2      1086      1093      1048      4151      4179      4178
 -1      2180    8    0    1
 -2      1088      1073      1057      4132      4197      4196
 -1      2181    8    0    1
 -2      1070      1084      1096      4122      4221      4222
 -1      2182    8    0    1
 -2      1072      1071      1055      4084      4193      4192
 -1      2183    8    0    1
 -2      1071      1088      1056      4161      4195      4194
 -1      2184    8    0    1
 -2      1094      1083      1096      4216      4164      4223
 -1      2185    8    0    1
 -2      1052      1067      1092      4186      4147      4187
 -1      2186    8    0    1
 -2      1065      1081      1066      4219      4224      4069
 -1      2187    8    0    1
 -2      1043      1035      1041      4220      3989      3997
 -1      2188    8    0    1
 -2      1090      1070      1095      4160      4225      4226
 -1      2189    8    0    1
 -2      1095      1070      1096      4225      4222      4165
 -1      2190    8    0    1
 -2      1090      1095      1099      4226      4214      4217
 -1      2191    8    0    1
 -2      1082      1044      1066      4174      4068      4227
 -1      2192    8    0    1
 -2      1097      1046      1098      4175      4173      4228
 -1      2193    8    0    1
 -2      1094      1096      1084      4223      4221      4166
 -1      2194    8    0    1
 -2      1066      1081      1082      4224      4113      4227
 -1      2195    8    0    1
 -2      1045      1099      1098      4218      4229      4172
 -1      2196    8    0    1
 -2      1042      1097      1098      4170      4228      4230
 -1      2197    8    0    1
 -2      1042      1098      1091      4230      4231      4144
 -1      2198    8    0    1
 -2      1091      1098      1099      4231      4229      4215
 -3
    1PSTEP                         1           1           1          
  100CL  101 1.000000000        4231                     0    1           1
 -4  DISP        4    1
 -5  D1          1    2    1    0
 -5  D2          1    2    2    0
 -5  D3          1    2    3    0
 -5  ALL         1    2    0    0    1ALL
 -1         1 1.26709E-02-2.60632E-03-2.32453E-14
 -1         2 1.50391E-02-1.25049E-03-2.53774E-14
 -1         3 1.35535E-02-1.46300E-03-3.12209E-14
 -1         4 1.70241E-02-2.72607E-03-3.46791E-14
 -1         5 0.00000E+00 0.00000E+00 0.00000E+00
 -1         6 0.00000E+00 0.00000E+00 0.00000E+00
 -1         7 0.00000E+00 0.00000E+00 0.00000E+00
 -1         8 0.00000E+00 0.00000E+00 0.00000E+00
 -1         9 0.00000E+00 0.00000E+00 0.00000E+00
 -1        10 0.00000E+00 0.00000E+00 0.00000E+00
 -1        11 0.00000E+00 0.00000E+00 0.00000E+00
 -1        12 0.00000E+00 0.00000E+00 0.00000E+00
 -1        13 0.00000E+00 0.00000E+00 0.00000E+00
 -1        14 0.00000E+00 0.00000E+00 0.00000E+00
 -1        15 0.00000E+00 0.00000E+00 0.00000E+00
 -1        16 0.00000E+00 0.00000E+00 0.00000E+00
 -1        17 0.00000E+00 0.00000E+00 0.00000E+00
 -1        18 0.00000E+00 0.00000E+00 0.00000E+00
 -1        19 0.00000E+00 0.00000E+00 0.00000E+00
 -1        20 0.00000E+00 0.00000E+00 0.00000E+00
 -1        21 0.00000E+00 0.00000E+00 0.00000E+00
 -1        22 0.00000E+00 0.00000E+00 0.00000E+00
 -1        23 3.95235E-04-2.52077E-04 2.79182E-18
 -1        24 6.89647E-04-3.95213E-04-2.28394E-17
 -1        25 9.60284E-04-4.94326E-04-7.61212E-17
 -1        26 1.22498E-03-5.64225E-04-1.56318E-16
 -1        27 1.48858E-03-6.14314E-04-2.64901E-16
 -1        28 1.75326E-03-6.50096E-04-4.03174E-16
 -1        29 2.02001E-03-6.75347E-04-5.73380E-16
 -1        30 2.28922E-03-6.92811E-04-7.74862E-16
 -1        31 2.56097E-03-7.04545E-04-1.00781E-15
 -1        32 2.83512E-03-7.12107E-04-1.26891E-15
 -1        33 3.11144E-03-7.16679E-04-1.55725E-15
 -1        34 3.38966E-03-7.19153E-04-1.87024E-15
 -1        35 3.66949E-03-7.20191E-04-2.21669E-15
 -1        36 3.95067E-03-7.20277E-04-2.59427E-15
 -1        37 4.23293E-03-7.19757E-04-3.00584E-15
 -1        38 4.51607E-03-7.18871E-04-3.45971E-15
 -1        39 4.79989E-03-7.17775E-04-3.96050E-15
 -1        40 5.08424E-03-7.16565E-04-4.50359E-15
 -1        41 5.36900E-03-7.15291E-04-5.08367E-15
 -1        42 5.65409E-03-7.13963E-04-5.69753E-15
 -1        43 5.93945E-03-7.12564E-04-6.33810E-15
 -1        44 6.22506E-03-7.11051E-04-7.01064E-15
 -1        45 6.51095E-03-7.09357E-04-7.71496E-15
 -1        46 6.79717E-03-7.07390E-04-8.45580E-15
 -1        47 7.08390E-03-7.05031E-04-9.24038E-15
 -1        48 7.37139E-03-7.02132E-04-1.00532E-14
 -1        49 7.66011E-03-6.98522E-04-1.09043E-14
 -1        50 7.95084E-03-6.94030E-04-1.17788E-14
 -1        51 8.24488E-03-6.88546E-04-1.26718E-14
 -1        52 8.54438E-03-6.82182E-04-1.35812E-14
 -1        53 8.85295E-03-6.75642E-04-1.45124E-14
 -1        54 9.17652E-03-6.71032E-04-1.54678E-14
 -1        55 9.52463E-03-6.73609E-04-1.64339E-14
 -1        56 9.91197E-03-6.95334E-04-1.73989E-14
 -1        57 1.03587E-02-7.61422E-04-1.83686E-14
 -1        58 1.08848E-02-9.19602E-04-1.93437E-14
 -1        59 1.14577E-02-1.22144E-03-2.02722E-14
 -1        60 1.20175E-02-1.69133E-03-2.11634E-14
 -1        61 1.24879E-02-2.28608E-03-2.21037E-14
 -1        62 1.27564E-02-2.72781E-03-2.29932E-14
 -1        63 1.29781E-02-2.84380E-03-2.40849E-14
 -1        64 1.32615E-02-2.57006E-03-2.50478E-14
 -1        65 1.37014E-02-2.20027E-03-2.59892E-14
 -1        66 1.42218E-02-1.93695E-03-2.69163E-14
 -1        67 1.48179E-02-1.82790E-03-2.79855E-14
 -1        68 1.53344E-02-1.88129E-03-2.90413E-14
 -1        69 1.57674E-02-2.02362E-03-3.01247E-14
 -1        70 1.61355E-02-2.20400E-03-3.12316E-14
 -1        71 1.64583E-02-2.39225E-03-3.23878E-14
 -1        72 1.67531E-02-2.57046E-03-3.35536E-14
 -1        73 4.13846E-04 2.61421E-04 3.20653E-17
 -1        74 7.03245E-04 4.03650E-04 5.82589E-17
 -1        75 9.74067E-04 5.00075E-04 7.49387E-17
 -1        76 1.23891E-03 5.68740E-04 7.85776E-17
 -1        77 1.50266E-03 6.18051E-04 6.43237E-17
 -1        78 1.76749E-03 6.53312E-04 2.79487E-17
 -1        79 2.03439E-03 6.78217E-04-2.82909E-17
 -1        80 2.30376E-03 6.95462E-04-1.07715E-16
 -1        81 2.57564E-03 7.07071E-04-2.13073E-16
 -1        82 2.84992E-03 7.14578E-04-3.48612E-16
 -1        83 3.12635E-03 7.19148E-04-5.16653E-16
 -1        84 3.40466E-03 7.21657E-04-7.15709E-16
 -1        85 3.68458E-03 7.22760E-04-9.44482E-16
 -1        86 3.96583E-03 7.22932E-04-1.20309E-15
 -1        87 4.24817E-03 7.22515E-04-1.49171E-15
 -1        88 4.53137E-03 7.21749E-04-1.81339E-15
 -1        89 4.81527E-03 7.20793E-04-2.16667E-15
 -1        90 5.09972E-03 7.19753E-04-2.55256E-15
 -1        91 5.38460E-03 7.18693E-04-2.97417E-15
 -1        92 5.66984E-03 7.17656E-04-3.43425E-15
 -1        93 5.95539E-03 7.16670E-04-3.93123E-15
 -1        94 6.24121E-03 7.15766E-04-4.46417E-15
 -1        95 6.52730E-03 7.14986E-04-5.03173E-15
 -1        96 6.81366E-03 7.14393E-04-5.63448E-15
 -1        97 7.10026E-03 7.14086E-04-6.27548E-15
 -1        98 7.38706E-03 7.14201E-04-6.95611E-15
 -1        99 7.67397E-03 7.14917E-04-7.68012E-15
 -1       100 7.96076E-03 7.16440E-04-8.45046E-15
 -1       101 8.24703E-03 7.18971E-04-9.26196E-15
 -1       102 8.53216E-03 7.22632E-04-1.01202E-14
 -1       103 8.81519E-03 7.27355E-04-1.10096E-14
 -1       104 9.09479E-03 7.32701E-04-1.19429E-14
 -1       105 9.36931E-03 7.37640E-04-1.29266E-14
 -1       106 9.63682E-03 7.40296E-04-1.39462E-14
 -1       107 9.89541E-03 7.37750E-04-1.49954E-14
 -1       108 1.01436E-02 7.25979E-04-1.60829E-14
 -1       109 1.03806E-02 7.00064E-04-1.71907E-14
 -1       110 1.06073E-02 6.54729E-04-1.83088E-14
 -1       111 1.08259E-02 5.85183E-04-1.94287E-14
 -1       112 1.10400E-02 4.88054E-04-2.05358E-14
 -1       113 1.12542E-02 3.62142E-04-2.16391E-14
 -1       114 1.14730E-02 2.08703E-04-2.27315E-14
 -1       115 1.17001E-02 3.11669E-05-2.38137E-14
 -1       116 1.19378E-02-1.65586E-04-2.48845E-14
 -1       117 1.21872E-02-3.76094E-04-2.59585E-14
 -1       118 1.24478E-02-5.95034E-04-2.70255E-14
 -1       119 1.27186E-02-8.17638E-04-2.80862E-14
 -1       120 1.29975E-02-1.03985E-03-2.91492E-14
 -1       121 1.32818E-02-1.25865E-03-3.02128E-14
 -1       122 1.37637E-02-1.54698E-03-3.14276E-14
 -1       123 1.39703E-02-1.63283E-03-3.16539E-14
 -1       124 1.41745E-02-1.72386E-03-3.18651E-14
 -1       125 1.43802E-02-1.82159E-03-3.20585E-14
 -1       126 1.45922E-02-1.92531E-03-3.22729E-14
 -1       127 1.48107E-02-2.03032E-03-3.25096E-14
 -1       128 1.50456E-02-2.13551E-03-3.27485E-14
 -1       129 1.52925E-02-2.23291E-03-3.29674E-14
 -1       130 1.55468E-02-2.31609E-03-3.31782E-14
 -1       131 1.57997E-02-2.38026E-03-3.33645E-14
 -1       132 1.60395E-02-2.42462E-03-3.35649E-14
 -1       133 1.62512E-02-2.45371E-03-3.37867E-14
 -1       134 1.64355E-02-2.47903E-03-3.39935E-14
 -1       135 1.65910E-02-2.51336E-03-3.41703E-14
 -1       136 1.67303E-02-2.56732E-03-3.43310E-14
 -1       137 1.68721E-02-2.64260E-03-3.44954E-14
 -1       138 1.48672E-02-1.03646E-03-2.51880E-14
 -1       139 1.45929E-02-8.32272E-04-2.48900E-14
 -1       140 1.42560E-02-6.52509E-04-2.45324E-14
 -1       141 1.38467E-02-4.84437E-04-2.41130E-14
 -1       142 1.33600E-02-3.31248E-04-2.36116E-14
 -1       143 1.28270E-02-2.05022E-04-2.30503E-14
 -1       144 1.23299E-02-1.24972E-04-2.25254E-14
 -1       145 1.17955E-02-7.71022E-05-2.19658E-14
 -1       146 1.13067E-02-7.25502E-05-2.14608E-14
 -1       147 1.08667E-02-1.07534E-04-2.10181E-14
 -1       148 1.05122E-02-1.74350E-04-2.06798E-14
 -1       149 1.01999E-02-2.81952E-04-2.04123E-14
 -1       150 9.98771E-03-4.14475E-04-2.02749E-14
 -1       151 9.86452E-03-5.73951E-04-2.02372E-14
 -1       152 9.83701E-03-7.54157E-04-2.02989E-14
 -1       153 9.90554E-03-9.65439E-04-2.04658E-14
 -1       154 1.00997E-02-1.23242E-03-2.07703E-14
 -1       155 1.03938E-02-1.51883E-03-2.11424E-14
 -1       156 1.08622E-02-1.87782E-03-2.16404E-14
 -1       157 1.13794E-02-2.19307E-03-2.21381E-14
 -1       158 1.20218E-02-2.47161E-03-2.27066E-14
 -1       159 1.32674E-02-2.59426E-03-2.37312E-14
 -1       160 1.38374E-02-2.45922E-03-2.42111E-14
 -1       161 1.43020E-02-2.25835E-03-2.46213E-14
 -1       162 1.46469E-02-2.04702E-03-2.49551E-14
 -1       163 1.48990E-02-1.83222E-03-2.52123E-14
 -1       164 1.50461E-02-1.62490E-03-2.53683E-14
 -1       165 1.50881E-02-1.43537E-03-2.54241E-14
 -1       166 2.40368E-04-1.25512E-04-7.07442E-18
 -1       167 2.25284E-04-9.46141E-05-9.89334E-18
 -1       168 2.19536E-04-7.27785E-05-1.09199E-17
 -1       169 2.16714E-04-5.50975E-05-1.09809E-17
 -1       170 2.15212E-04-3.99585E-05-1.04558E-17
 -1       171 2.14370E-04-2.59105E-05-9.52743E-18
 -1       172 2.13947E-04-1.26457E-05-8.44322E-18
 -1       173 2.13823E-04 2.63412E-07-7.46744E-18
 -1       174 2.13965E-04 1.31846E-05-6.08170E-18
 -1       175 2.14409E-04 2.64882E-05-4.65529E-18
 -1       176 2.15258E-04 4.03625E-05-2.88330E-18
 -1       177 2.16813E-04 5.58780E-05-5.38713E-19
 -1       178 2.19683E-04 7.37789E-05 2.63258E-18
 -1       179 2.25454E-04 9.59874E-05 7.14218E-18
 -1       180 2.39354E-04 1.27564E-04 1.33763E-17
 -1       181 2.97734E-04 1.85477E-04 2.12707E-17
 -1       182 4.53562E-04-2.56588E-04-1.80384E-17
 -1       183 7.52432E-04-3.77206E-04-6.14980E-17
 -1       184 1.03681E-03-4.61552E-04-1.30341E-16
 -1       185 1.31448E-03-5.21332E-04-2.25545E-16
 -1       186 1.58922E-03-5.63755E-04-3.48693E-16
 -1       187 1.86319E-03-5.93603E-04-5.01037E-16
 -1       188 2.13755E-03-6.14238E-04-6.83671E-16
 -1       189 2.41291E-03-6.28126E-04-8.96567E-16
 -1       190 2.68956E-03-6.37115E-04-1.13939E-15
 -1       191 2.96756E-03-6.42596E-04-1.41088E-15
 -1       192 3.24687E-03-6.45614E-04-1.70740E-15
 -1       193 3.52737E-03-6.46945E-04-2.03328E-15
 -1       194 3.80892E-03-6.47157E-04-2.39243E-15
 -1       195 4.09136E-03-6.46657E-04-2.78512E-15
 -1       196 4.37456E-03-6.45731E-04-3.21410E-15
 -1       197 4.65836E-03-6.44565E-04-3.68475E-15
 -1       198 4.94267E-03-6.43278E-04-4.19699E-15
 -1       199 5.22737E-03-6.41933E-04-4.75020E-15
 -1       200 5.51240E-03-6.40552E-04-5.33652E-15
 -1       201 5.79772E-03-6.39124E-04-5.95477E-15
 -1       202 6.08330E-03-6.37610E-04-6.60347E-15
 -1       203 6.36916E-03-6.35946E-04-7.28513E-15
 -1       204 6.65534E-03-6.34039E-04-8.00481E-15
 -1       205 6.94196E-03-6.31767E-04-8.76152E-15
 -1       206 7.22919E-03-6.28969E-04-9.54903E-15
 -1       207 7.51735E-03-6.25444E-04-1.03731E-14
 -1       208 7.80691E-03-6.20950E-04-1.12254E-14
 -1       209 8.09863E-03-6.15230E-04-1.21016E-14
 -1       210 8.39369E-03-6.08088E-04-1.29977E-14
 -1       211 8.69390E-03-5.99601E-04-1.39138E-14
 -1       212 9.00198E-03-5.90615E-04-1.48502E-14
 -1       213 9.32193E-03-5.83878E-04-1.58039E-14
 -1       214 9.65938E-03-5.86474E-04-1.67643E-14
 -1       215 1.00218E-02-6.14743E-04-1.77286E-14
 -1       216 1.04179E-02-7.02828E-04-1.86973E-14
 -1       217 1.08342E-02-8.98334E-04-1.96287E-14
 -1       218 1.12703E-02-1.25077E-03-2.05278E-14
 -1       219 1.17457E-02-1.80036E-03-2.14498E-14
 -1       220 1.27650E-02-2.77200E-03-2.33855E-14
 -1       221 1.37264E-02-2.25932E-03-2.53690E-14
 -1       222 1.41781E-02-1.91701E-03-2.63032E-14
 -1       223 1.46756E-02-1.72945E-03-2.73857E-14
 -1       224 1.51231E-02-1.74082E-03-2.84533E-14
 -1       225 1.55215E-02-1.86791E-03-2.95302E-14
 -1       226 1.58790E-02-2.04770E-03-3.06324E-14
 -1       227 1.62052E-02-2.24296E-03-3.17659E-14
 -1       228 1.65093E-02-2.43204E-03-3.29253E-14
 -1       229 1.66927E-02-2.54237E-03-3.37108E-14
 -1       230 6.04628E-04 3.30996E-04 3.95056E-17
 -1       231 8.93770E-04 4.32609E-04 4.84808E-17
 -1       232 1.17269E-03 5.04324E-04 4.39508E-17
 -1       233 1.44711E-03 5.55405E-04 2.18907E-17
 -1       234 1.71999E-03 5.91650E-04-2.06134E-17
 -1       235 1.99297E-03 6.17057E-04-8.36055E-17
 -1       236 2.26690E-03 6.34504E-04-1.69789E-16
 -1       237 2.54217E-03 6.46130E-04-2.82286E-16
 -1       238 2.81893E-03 6.53547E-04-4.23113E-16
 -1       239 3.09716E-03 6.57969E-04-5.94966E-16
 -1       240 3.37674E-03 6.60306E-04-7.98027E-16
 -1       241 3.65753E-03 6.61233E-04-1.03141E-15
 -1       242 3.93937E-03 6.61239E-04-1.29475E-15
 -1       243 4.22207E-03 6.60673E-04-1.58867E-15
 -1       244 4.50551E-03 6.59775E-04-1.91407E-15
 -1       245 4.78953E-03 6.58707E-04-2.27167E-15
 -1       246 5.07404E-03 6.57572E-04-2.66221E-15
 -1       247 5.35893E-03 6.56431E-04-3.08656E-15
 -1       248 5.64415E-03 6.55323E-04-3.54907E-15
 -1       249 5.92964E-03 6.54272E-04-4.04851E-15
 -1       250 6.21538E-03 6.53305E-04-4.58447E-15
 -1       251 6.50134E-03 6.52458E-04-5.15599E-15
 -1       252 6.78752E-03 6.51794E-04-5.76124E-15
 -1       253 7.07389E-03 6.51409E-04-6.40505E-15
 -1       254 7.36038E-03 6.51446E-04-7.09017E-15
 -1       255 7.64692E-03 6.52095E-04-7.81573E-15
 -1       256 7.93329E-03 6.53587E-04-8.58414E-15
 -1       257 8.21920E-03 6.56163E-04-9.39110E-15
 -1       258 8.50415E-03 6.60010E-04-1.02421E-14
 -1       259 8.78744E-03 6.65148E-04-1.11295E-14
 -1       260 9.06810E-03 6.71253E-04-1.20576E-14
 -1       261 9.34494E-03 6.77422E-04-1.30297E-14
 -1       262 9.61662E-03 6.81902E-04-1.40404E-14
 -1       263 9.88180E-03 6.81849E-04-1.50827E-14
 -1       264 1.01394E-02 6.73227E-04-1.61555E-14
 -1       265 1.03891E-02 6.50972E-04-1.72494E-14
 -1       266 1.06312E-02 6.09522E-04-1.83555E-14
 -1       267 1.08673E-02 5.43690E-04-1.94632E-14
 -1       268 1.11000E-02 4.49693E-04-2.05664E-14
 -1       269 1.13324E-02 3.26007E-04-2.16662E-14
 -1       270 1.15677E-02 1.73742E-04-2.27602E-14
 -1       271 1.18088E-02-3.62854E-06-2.38463E-14
 -1       272 1.20573E-02-2.01028E-04-2.49253E-14
 -1       273 1.23141E-02-4.12734E-04-2.59981E-14
 -1       274 1.25791E-02-6.33182E-04-2.70640E-14
 -1       275 1.28513E-02-8.57408E-04-2.81321E-14
 -1       276 1.31296E-02-1.08118E-03-2.91994E-14
 -1       277 1.34124E-02-1.30122E-03-3.02632E-14
 -1       278 1.36198E-02-1.40443E-03-3.06088E-14
 -1       279 1.38235E-02-1.49313E-03-3.08168E-14
 -1       280 1.40262E-02-1.58593E-03-3.10207E-14
 -1       281 1.42331E-02-1.68277E-03-3.12354E-14
 -1       282 1.44453E-02-1.78063E-03-3.14509E-14
 -1       283 1.46740E-02-1.88037E-03-3.16709E-14
 -1       284 1.49169E-02-1.97672E-03-3.18880E-14
 -1       285 1.51716E-02-2.06554E-03-3.20969E-14
 -1       286 1.54310E-02-2.14305E-03-3.23018E-14
 -1       287 1.56837E-02-2.20720E-03-3.24974E-14
 -1       288 1.59124E-02-2.25821E-03-3.26886E-14
 -1       289 1.61141E-02-2.30251E-03-3.28767E-14
 -1       290 1.62811E-02-2.34680E-03-3.30535E-14
 -1       291 1.64216E-02-2.39911E-03-3.32234E-14
 -1       292 1.65537E-02-2.46651E-03-3.34667E-14
 -1       293 1.49833E-02-1.28296E-03-2.58220E-14
 -1       294 1.46875E-02-1.13437E-03-2.54886E-14
 -1       295 1.42994E-02-9.48998E-04-2.50842E-14
 -1       296 1.38582E-02-7.37595E-04-2.46200E-14
 -1       297 1.33917E-02-4.93987E-04-2.40527E-14
 -1       298 1.28773E-02-2.68727E-04-2.34428E-14
 -1       299 1.24611E-02-1.00161E-04-2.27833E-14
 -1       300 1.20378E-02-6.39124E-06-2.21360E-14
 -1       301 1.16284E-02-5.97620E-06-2.14895E-14
 -1       302 1.12192E-02-8.88251E-05-2.09604E-14
 -1       303 1.08276E-02-2.05821E-04-2.05312E-14
 -1       304 1.04685E-02-3.47303E-04-2.01380E-14
 -1       305 1.01425E-02-4.70903E-04-1.99281E-14
 -1       306 9.91620E-03-5.79301E-04-1.97966E-14
 -1       307 9.81104E-03-6.70757E-04-1.98685E-14
 -1       308 9.83927E-03-7.76505E-04-2.00014E-14
 -1       309 1.00276E-02-9.10597E-04-2.02193E-14
 -1       310 1.03619E-02-1.15502E-03-2.06490E-14
 -1       311 1.08647E-02-1.47003E-03-2.11152E-14
 -1       312 1.14040E-02-1.91369E-03-2.17228E-14
 -1       313 1.19791E-02-2.33722E-03-2.23310E-14
 -1       314 1.24836E-02-2.64967E-03-2.29967E-14
 -1       315 1.29390E-02-2.71972E-03-2.36071E-14
 -1       316 1.33855E-02-2.57777E-03-2.42110E-14
 -1       317 1.38533E-02-2.29990E-03-2.47267E-14
 -1       318 1.42949E-02-2.02048E-03-2.51401E-14
 -1       319 1.46577E-02-1.77689E-03-2.55044E-14
 -1       320 1.49383E-02-1.59454E-03-2.57403E-14
 -1       321 1.50909E-02-1.46890E-03-2.58299E-14
 -1       322 1.51088E-02-1.36809E-03-2.58318E-14
 -1       323 1.22455E-02-2.37539E-03-2.23155E-14
 -1       324 1.32542E-02-2.65436E-03-2.44315E-14
 -1       325 4.55335E-04-1.64761E-04-3.81605E-17
 -1       326 4.74356E-04-2.13080E-04-3.46809E-17
 -1       327 4.40440E-04-9.40031E-05-3.85298E-17
 -1       328 4.37458E-04-6.49025E-05-3.63919E-17
 -1       329 4.35824E-04-3.79054E-05-3.37831E-17
 -1       330 4.35107E-04-1.20295E-05-3.07913E-17
 -1       331 4.35137E-04 1.35101E-05-2.74032E-17
 -1       332 4.35919E-04 3.94424E-05-2.33984E-17
 -1       333 4.37595E-04 6.60878E-05-1.86957E-17
 -1       334 4.40664E-04 9.53564E-05-1.30274E-17
 -1       335 4.46065E-04 1.28266E-04-5.86486E-18
 -1       336 4.56010E-04 1.67251E-04 3.65579E-18
 -1       337 4.75916E-04 2.16921E-04 1.61309E-17
 -1       338 5.32035E-04 2.69903E-04 2.64376E-17
 -1       339 8.24561E-04 3.73393E-04 2.95852E-17
 -1       340 8.49026E-04-3.53398E-04-1.03148E-16
 -1       341 1.13560E-03-4.23242E-04-1.86246E-16
 -1       342 1.41856E-03-4.73248E-04-2.95435E-16
 -1       343 1.69940E-03-5.08612E-04-4.31770E-16
 -1       344 1.97926E-03-5.33192E-04-5.96545E-16
 -1       345 2.25892E-03-5.49858E-04-7.90692E-16
 -1       346 2.53886E-03-5.60763E-04-1.01500E-15
 -1       347 2.81934E-03-5.67529E-04-1.26840E-15
 -1       348 3.10049E-03-5.71377E-04-1.54856E-15
 -1       349 3.38234E-03-5.73215E-04-1.85648E-15
 -1       350 3.66486E-03-5.73710E-04-2.19509E-15
 -1       351 3.94798E-03-5.73345E-04-2.56701E-15
 -1       352 4.23164E-03-5.72457E-04-2.97331E-15
 -1       353 4.51575E-03-5.71276E-04-3.41774E-15
 -1       354 4.80025E-03-5.69946E-04-3.90343E-15
 -1       355 5.08508E-03-5.68553E-04-4.42848E-15
 -1       356 5.37017E-03-5.67133E-04-4.98744E-15
 -1       357 5.65550E-03-5.65685E-04-5.58176E-15
 -1       358 5.94105E-03-5.64181E-04-6.20619E-15
 -1       359 6.22681E-03-5.62565E-04-6.86475E-15
 -1       360 6.51281E-03-5.60756E-04-7.55951E-15
 -1       361 6.79909E-03-5.58644E-04-8.29125E-15
 -1       362 7.08573E-03-5.56086E-04-9.05502E-15
 -1       363 7.37285E-03-5.52901E-04-9.85180E-15
 -1       364 7.66060E-03-5.48868E-04-1.06813E-14
 -1       365 7.94922E-03-5.43742E-04-1.15385E-14
 -1       366 8.23895E-03-5.37301E-04-1.24198E-14
 -1       367 8.53010E-03-5.29484E-04-1.33218E-14
 -1       368 8.82291E-03-5.20706E-04-1.42446E-14
 -1       369 9.11746E-03-5.12552E-04-1.51829E-14
 -1       370 9.41347E-03-5.09202E-04-1.61348E-14
 -1       371 9.71041E-03-5.20182E-04-1.70919E-14
 -1       372 1.00087E-02-5.65198E-04-1.80577E-14
 -1       373 1.02990E-02-6.74109E-04-1.89813E-14
 -1       374 1.05961E-02-8.89233E-04-1.98725E-14
 -1       375 1.48281E-02-1.30252E-03-2.60788E-14
 -1       376 1.39832E-02-9.74097E-04-2.52470E-14
 -1       377 1.46208E-02-1.67679E-03-2.67134E-14
 -1       378 1.50161E-02-1.61599E-03-2.77650E-14
 -1       379 1.53448E-02-1.71422E-03-2.88409E-14
 -1       380 1.56560E-02-1.88193E-03-2.99368E-14
 -1       381 1.59582E-02-2.07683E-03-3.10572E-14
 -1       382 1.62531E-02-2.27411E-03-3.22043E-14
 -1       383 1.27181E-03 4.61070E-04-6.94906E-18
 -1       384 1.55278E-03 5.03952E-04-4.93719E-17
 -1       385 1.83220E-03 5.34123E-04-1.12086E-16
 -1       386 2.11114E-03 5.54937E-04-1.96400E-16
 -1       387 2.39023E-03 5.68901E-04-3.05504E-16
 -1       388 2.66986E-03 5.77904E-04-4.42114E-16
 -1       389 2.95021E-03 5.83367E-04-6.07506E-16
 -1       390 3.23133E-03 5.86356E-04-8.03113E-16
 -1       391 3.51321E-03 5.87662E-04-1.02962E-15
 -1       392 3.79581E-03 5.87861E-04-1.28715E-15
 -1       393 4.07903E-03 5.87366E-04-1.57479E-15
 -1       394 4.36279E-03 5.86464E-04-1.89390E-15
 -1       395 4.64700E-03 5.85349E-04-2.24386E-15
 -1       396 4.93160E-03 5.84144E-04-2.62590E-15
 -1       397 5.21652E-03 5.82925E-04-3.03990E-15
 -1       398 5.50170E-03 5.81736E-04-3.49120E-15
 -1       399 5.78710E-03 5.80600E-04-3.98017E-15
 -1       400 6.07271E-03 5.79539E-04-4.50526E-15
 -1       401 6.35850E-03 5.78577E-04-5.06606E-15
 -1       402 6.64446E-03 5.77759E-04-5.66145E-15
 -1       403 6.93057E-03 5.77163E-04-6.29339E-15
 -1       404 7.21683E-03 5.76906E-04-6.96599E-15
 -1       405 7.50319E-03 5.77160E-04-7.67704E-15
 -1       406 7.78958E-03 5.78148E-04-8.42757E-15
 -1       407 8.07587E-03 5.80133E-04-9.21695E-15
 -1       408 8.36183E-03 5.83375E-04-1.00469E-14
 -1       409 8.64714E-03 5.88053E-04-1.09164E-14
 -1       410 8.93127E-03 5.94118E-04-1.18210E-14
 -1       411 9.21356E-03 6.01088E-04-1.27677E-14
 -1       412 9.49311E-03 6.07770E-04-1.37551E-14
 -1       413 9.76893E-03 6.11966E-04-1.47743E-14
 -1       414 1.00400E-02 6.10231E-04-1.58210E-14
 -1       415 1.03055E-02 5.97840E-04-1.68930E-14
 -1       416 1.05652E-02 5.69093E-04-1.79839E-14
 -1       417 1.08197E-02 5.18069E-04-1.90815E-14
 -1       418 1.10703E-02 4.39722E-04-2.01801E-14
 -1       419 1.13195E-02 3.31026E-04-2.12753E-14
 -1       420 1.15696E-02 1.91747E-04-2.23719E-14
 -1       421 1.18231E-02 2.44956E-05-2.34608E-14
 -1       422 1.20817E-02-1.65925E-04-2.45445E-14
 -1       423 1.23459E-02-3.73591E-04-2.56232E-14
 -1       424 1.26157E-02-5.92497E-04-2.66975E-14
 -1       425 1.28906E-02-8.17253E-04-2.77662E-14
 -1       426 1.31697E-02-1.04333E-03-2.88380E-14
 -1       427 1.33939E-02-1.22568E-03-2.97225E-14
 -1       428 1.38772E-02-1.44035E-03-3.01916E-14
 -1       429 1.36752E-02-1.34709E-03-2.99830E-14
 -1       430 1.40825E-02-1.53531E-03-3.04019E-14
 -1       431 1.43033E-02-1.63402E-03-3.06106E-14
 -1       432 1.45392E-02-1.73275E-03-3.08164E-14
 -1       433 1.47906E-02-1.82848E-03-3.10207E-14
 -1       434 1.50530E-02-1.91741E-03-3.12260E-14
 -1       435 1.53169E-02-1.99583E-03-3.14240E-14
 -1       436 1.55638E-02-2.06051E-03-3.16078E-14
 -1       437 1.57871E-02-2.11468E-03-3.17864E-14
 -1       438 1.59719E-02-2.16228E-03-3.19540E-14
 -1       439 1.61189E-02-2.21178E-03-3.21270E-14
 -1       440 1.04905E-03 4.24628E-04 1.78114E-17
 -1       441 1.44411E-02-1.16425E-03-2.56958E-14
 -1       442 1.34867E-02-6.93286E-04-2.45782E-14
 -1       443 4.45696E-04-1.26483E-04-3.92244E-17
 -1       444 1.42073E-02-1.92758E-03-2.57045E-14
 -1       445 1.30483E-02-4.40232E-04-2.39659E-14
 -1       446 1.25195E-02-1.52449E-04-2.30955E-14
 -1       447 1.21992E-02-1.79671E-05-2.24488E-14
 -1       448 1.18207E-02 4.13764E-05-2.16524E-14
 -1       449 1.14208E-02-2.74921E-05-2.08971E-14
 -1       450 1.10569E-02-1.57417E-04-2.03988E-14
 -1       451 1.07231E-02-2.91538E-04-2.00046E-14
 -1       452 1.03076E-02-4.55554E-04-1.95419E-14
 -1       453 1.00505E-02-5.44160E-04-1.94081E-14
 -1       454 9.82268E-03-6.21454E-04-1.93197E-14
 -1       455 9.79107E-03-6.64784E-04-1.94478E-14
 -1       456 9.91012E-03-7.24011E-04-1.96195E-14
 -1       457 1.02524E-02-9.00766E-04-2.01064E-14
 -1       458 1.06777E-02-1.14117E-03-2.05623E-14
 -1       459 1.13313E-02-1.57693E-03-2.11994E-14
 -1       460 1.47822E-02-1.61188E-03-2.60620E-14
 -1       461 1.50367E-02-1.48718E-03-2.62819E-14
 -1       462 1.51347E-02-1.42593E-03-2.63644E-14
 -1       463 1.50934E-02-1.38848E-03-2.63554E-14
 -1       464 1.49993E-02-1.40295E-03-2.66140E-14
 -1       465 1.17752E-02-1.98496E-03-2.17615E-14
 -1       466 1.61882E-02-2.23905E-03-3.21651E-14
 -1       467 1.27131E-02-2.99494E-04-2.36216E-14
 -1       468 6.65791E-04-7.51338E-05-7.71579E-17
 -1       469 6.69775E-04-1.15885E-04-8.12101E-17
 -1       470 6.63101E-04 1.07674E-06-6.57467E-17
 -1       471 6.63824E-04 3.87227E-05-5.86858E-17
 -1       472 6.65972E-04 7.67611E-05-5.04899E-17
 -1       473 6.70081E-04 1.17659E-04-4.08439E-17
 -1       474 6.77108E-04 1.62270E-04-2.91921E-17
 -1       475 6.88977E-04 2.12641E-04-1.42369E-17
 -1       476 7.09826E-04 2.71686E-04 4.17079E-18
 -1       477 7.63571E-04 3.20424E-04 1.55447E-17
 -1       478 9.62127E-04-3.25442E-04-1.47631E-16
 -1       479 1.24808E-03-3.81148E-04-2.43498E-16
 -1       480 1.53317E-03-4.21565E-04-3.65163E-16
 -1       481 1.81737E-03-4.50145E-04-5.13634E-16
 -1       482 2.10096E-03-4.69823E-04-6.89952E-16
 -1       483 2.38428E-03-4.82923E-04-8.95151E-16
 -1       484 2.66756E-03-4.91248E-04-1.13035E-15
 -1       485 2.95098E-03-4.96169E-04-1.39369E-15
 -1       486 3.23463E-03-4.98721E-04-1.68485E-15
 -1       487 3.51856E-03-4.99672E-04-2.00405E-15
 -1       488 3.80277E-03-4.99581E-04-2.35438E-15
 -1       489 4.08724E-03-4.98844E-04-2.73884E-15
 -1       490 4.37196E-03-4.97734E-04-3.15901E-15
 -1       491 4.65690E-03-4.96430E-04-3.61844E-15
 -1       492 4.94203E-03-4.95041E-04-4.11619E-15
 -1       493 5.22733E-03-4.93623E-04-4.64955E-15
 -1       494 5.51277E-03-4.92190E-04-5.21829E-15
 -1       495 5.79835E-03-4.90729E-04-5.81850E-15
 -1       496 6.08404E-03-4.89199E-04-6.45203E-15
 -1       497 6.36986E-03-4.87538E-04-7.12363E-15
 -1       498 6.65579E-03-4.85662E-04-7.83046E-15
 -1       499 6.94183E-03-4.83466E-04-8.57021E-15
 -1       500 7.22795E-03-4.80824E-04-9.34075E-15
 -1       501 7.51408E-03-4.77593E-04-1.01466E-14
 -1       502 7.80006E-03-4.73635E-04-1.09841E-14
 -1       503 8.08557E-03-4.68861E-04-1.18485E-14
 -1       504 8.37000E-03-4.63344E-04-1.27340E-14
 -1       505 8.65218E-03-4.57542E-04-1.36410E-14
 -1       506 8.93009E-03-4.52736E-04-1.45689E-14
 -1       507 9.20037E-03-4.51807E-04-1.55094E-14
 -1       508 9.45789E-03-4.60502E-04-1.64578E-14
 -1       509 9.69588E-03-4.89298E-04-1.74166E-14
 -1       510 9.89852E-03-5.51769E-04-1.83360E-14
 -1       511 1.08363E-02-1.10296E-03-2.03981E-14
 -1       512 7.05690E-04-2.49900E-04-8.40121E-17
 -1       513 1.54934E-02-1.73804E-03-2.92212E-14
 -1       514 1.57453E-02-1.92164E-03-3.03345E-14
 -1       515 1.59620E-02-2.08037E-03-3.12428E-14
 -1       516 1.95113E-03 4.73336E-04-2.12964E-16
 -1       517 1.66778E-03 4.48895E-04-1.29728E-16
 -1       518 1.38359E-03 4.13973E-04-6.74408E-17
 -1       519 2.23403E-03 4.89966E-04-3.19464E-16
 -1       520 2.51682E-03 5.00875E-04-4.51255E-16
 -1       521 2.79972E-03 5.07664E-04-6.11673E-16
 -1       522 3.08287E-03 5.11546E-04-8.01015E-16
 -1       523 3.36634E-03 5.13431E-04-1.02139E-15
 -1       524 3.65015E-03 5.13984E-04-1.27161E-15
 -1       525 3.93428E-03 5.13689E-04-1.55308E-15
 -1       526 4.21872E-03 5.12885E-04-1.86434E-15
 -1       527 4.50342E-03 5.11802E-04-2.20727E-15
 -1       528 4.78835E-03 5.10591E-04-2.58271E-15
 -1       529 5.07347E-03 5.09346E-04-2.98898E-15
 -1       530 5.35877E-03 5.08119E-04-3.42945E-15
 -1       531 5.64421E-03 5.06938E-04-3.90654E-15
 -1       532 5.92978E-03 5.05819E-04-4.42055E-15
 -1       533 6.21548E-03 5.04778E-04-4.97105E-15
 -1       534 6.50130E-03 5.03842E-04-5.55667E-15
 -1       535 6.78725E-03 5.03060E-04-6.17802E-15
 -1       536 7.07334E-03 5.02518E-04-6.83708E-15
 -1       537 7.35962E-03 5.02348E-04-7.53397E-15
 -1       538 7.64610E-03 5.02735E-04-8.26887E-15
 -1       539 7.93282E-03 5.03919E-04-9.04354E-15
 -1       540 8.21979E-03 5.06180E-04-9.85397E-15
 -1       541 8.50699E-03 5.09782E-04-1.07049E-14
 -1       542 8.79431E-03 5.14892E-04-1.15900E-14
 -1       543 9.08150E-03 5.21407E-04-1.25139E-14
 -1       544 9.36811E-03 5.28724E-04-1.34795E-14
 -1       545 9.65341E-03 5.35412E-04-1.44772E-14
 -1       546 9.93640E-03 5.38863E-04-1.54990E-14
 -1       547 1.02159E-02 5.35020E-04-1.65510E-14
 -1       548 1.04910E-02 5.18369E-04-1.76228E-14
 -1       549 1.07612E-02 4.82415E-04-1.87048E-14
 -1       550 1.10270E-02 4.20746E-04-1.97980E-14
 -1       551 1.12902E-02 3.28489E-04-2.08906E-14
 -1       552 1.15531E-02 2.03650E-04-2.19854E-14
 -1       553 1.18180E-02 4.77123E-05-2.30766E-14
 -1       554 1.20869E-02-1.34833E-04-2.41612E-14
 -1       555 1.23603E-02-3.37715E-04-2.52428E-14
 -1       556 1.26380E-02-5.54302E-04-2.63243E-14
 -1       557 1.29189E-02-7.78672E-04-2.74000E-14
 -1       558 1.32022E-02-1.00601E-03-2.84752E-14
 -1       559 1.39330E-02-1.38867E-03-2.95548E-14
 -1       560 1.37256E-02-1.29167E-03-2.93553E-14
 -1       561 1.35247E-02-1.19702E-03-2.91492E-14
 -1       562 1.41588E-02-1.49047E-03-2.97557E-14
 -1       563 1.44027E-02-1.59348E-03-2.99525E-14
 -1       564 1.46640E-02-1.69415E-03-3.01514E-14
 -1       565 1.49367E-02-1.78737E-03-3.03462E-14
 -1       566 1.52034E-02-1.86622E-03-3.05279E-14
 -1       567 1.54545E-02-1.92999E-03-3.07042E-14
 -1       568 1.56663E-02-1.97909E-03-3.08706E-14
 -1       569 1.58280E-02-2.02204E-03-3.10395E-14
 -1       570 1.42081E-02-1.16905E-03-2.59292E-14
 -1       571 1.46393E-02-1.32609E-03-2.63849E-14
 -1       572 1.11765E-02-8.28422E-05-2.02133E-14
 -1       573 1.52599E-02-1.58984E-03-2.81314E-14
 -1       574 1.36426E-02-8.92787E-04-2.52252E-14
 -1       575 6.63714E-04-3.65340E-05-7.19707E-17
 -1       576 1.51329E-02-1.47018E-03-2.68829E-14
 -1       577 1.31908E-02-6.24772E-04-2.45520E-14
 -1       578 1.15767E-02 3.78444E-05-2.10278E-14
 -1       579 1.22850E-02-7.35625E-05-2.27626E-14
 -1       580 1.00894E-02-7.01987E-04-1.94007E-14
 -1       581 1.19650E-02 3.85744E-05-2.19654E-14
 -1       582 1.09068E-02-1.98994E-04-1.98195E-14
 -1       583 1.05156E-02-3.59577E-04-1.93202E-14
 -1       584 1.01271E-02-4.94691E-04-1.89394E-14
 -1       585 9.88658E-03-5.65111E-04-1.88479E-14
 -1       586 9.76780E-03-6.05425E-04-1.89344E-14
 -1       587 1.49415E-02-1.52812E-03-2.66529E-14
 -1       588 9.81943E-03-6.32043E-04-1.91024E-14
 -1       589 1.51640E-02-1.45232E-03-2.69276E-14
 -1       590 6.76599E-04-1.60068E-04-8.38868E-17
 -1       591 9.90528E-04 3.72809E-04 7.86047E-19
 -1       592 1.48617E-02-1.42658E-03-2.69195E-14
 -1       593 1.51305E-02-1.47516E-03-2.71852E-14
 -1       594 1.18690E-03 3.98249E-04-2.70949E-17
 -1       595 6.88384E-04-2.02064E-04-8.47338E-17
 -1       596 1.17220E-02 6.91736E-05-2.13399E-14
 -1       597 8.99699E-04 7.40525E-05-9.99736E-17
 -1       598 8.97602E-04 2.51351E-05-1.12073E-16
 -1       599 9.11807E-04 1.78140E-04-6.96702E-17
 -1       600 9.24212E-04 2.36640E-04-4.94803E-17
 -1       601 9.36716E-04 3.23440E-04-1.32883E-17
 -1       602 1.55580E-02-1.79557E-03-2.96304E-14
 -1       603 1.08357E-03-2.92160E-04-1.94238E-16
 -1       604 1.36907E-03-3.35219E-04-3.01571E-16
 -1       605 1.65527E-03-3.66662E-04-4.34423E-16
 -1       606 1.94149E-03-3.88862E-04-5.94234E-16
 -1       607 2.22755E-03-4.03997E-04-7.81154E-16
 -1       608 2.51342E-03-4.13883E-04-9.97554E-16
 -1       609 2.79914E-03-4.19961E-04-1.24248E-15
 -1       610 3.08477E-03-4.23347E-04-1.51639E-15
 -1       611 3.37034E-03-4.24882E-04-1.81820E-15
 -1       612 3.65590E-03-4.25190E-04-2.14920E-15
 -1       613 3.94146E-03-4.24718E-04-2.51166E-15
 -1       614 4.22703E-03-4.23780E-04-2.90824E-15
 -1       615 4.51262E-03-4.22588E-04-3.34326E-15
 -1       616 4.79824E-03-4.21277E-04-3.81532E-15
 -1       617 5.08388E-03-4.19921E-04-4.32189E-15
 -1       618 5.36956E-03-4.18556E-04-4.86446E-15
 -1       619 5.65525E-03-4.17182E-04-5.44155E-15
 -1       620 5.94096E-03-4.15780E-04-6.04981E-15
 -1       621 6.22668E-03-4.14308E-04-6.69555E-15
 -1       622 6.51236E-03-4.12717E-04-7.37848E-15
 -1       623 6.79796E-03-4.10944E-04-8.09398E-15
 -1       624 7.08336E-03-4.08930E-04-8.84068E-15
 -1       625 7.36838E-03-4.06626E-04-9.62003E-15
 -1       626 7.65267E-03-4.04025E-04-1.04348E-14
 -1       627 7.93566E-03-4.01215E-04-1.12821E-14
 -1       628 8.21638E-03-3.98479E-04-1.21530E-14
 -1       629 8.49319E-03-3.96479E-04-1.30442E-14
 -1       630 8.76351E-03-3.96561E-04-1.39556E-14
 -1       631 9.02324E-03-4.01222E-04-1.48826E-14
 -1       632 9.26623E-03-4.14707E-04-1.58237E-14
 -1       633 9.48361E-03-4.43577E-04-1.67754E-14
 -1       634 9.65541E-03-4.93608E-04-1.76897E-14
 -1       635 8.84729E-04-2.49977E-04-1.33730E-16
 -1       636 1.35671E-02-1.14242E-03-2.85115E-14
 -1       637 1.24924E-02-2.20431E-04-2.33995E-14
 -1       638 1.78982E-03 3.90806E-04-2.19554E-16
 -1       639 2.07565E-03 4.09874E-04-3.23628E-16
 -1       640 1.50380E-03 3.63384E-04-1.37802E-16
 -1       641 2.64668E-03 4.30872E-04-6.07052E-16
 -1       642 2.93202E-03 4.35776E-04-7.91698E-16
 -1       643 3.21732E-03 4.38379E-04-1.00604E-15
 -1       644 3.50263E-03 4.39425E-04-1.24863E-15
 -1       645 3.78796E-03 4.39456E-04-1.52266E-15
 -1       646 4.07335E-03 4.38861E-04-1.82740E-15
 -1       647 4.35878E-03 4.37907E-04-2.16223E-15
 -1       648 4.64425E-03 4.36774E-04-2.53054E-15
 -1       649 4.92978E-03 4.35573E-04-2.93036E-15
 -1       650 5.21534E-03 4.34370E-04-3.36238E-15
 -1       651 5.50095E-03 4.33200E-04-3.82761E-15
 -1       652 5.78659E-03 4.32077E-04-4.33184E-15
 -1       653 6.07228E-03 4.31009E-04-4.87152E-15
 -1       654 6.35803E-03 4.30005E-04-5.44754E-15
 -1       655 6.64386E-03 4.29088E-04-6.05810E-15
 -1       656 6.92983E-03 4.28303E-04-6.70478E-15
 -1       657 7.21599E-03 4.27730E-04-7.38741E-15
 -1       658 7.50246E-03 4.27495E-04-8.10824E-15
 -1       659 7.78939E-03 4.27778E-04-8.86807E-15
 -1       660 8.07698E-03 4.28816E-04-9.66448E-15
 -1       661 8.36546E-03 4.30889E-04-1.04985E-14
 -1       662 8.65507E-03 4.34282E-04-1.13653E-14
 -1       663 8.94600E-03 4.39189E-04-1.22685E-14
 -1       664 9.23826E-03 4.45551E-04-1.32109E-14
 -1       665 9.53153E-03 4.52770E-04-1.41887E-14
 -1       666 9.82501E-03 4.59311E-04-1.51914E-14
 -1       667 1.01174E-02 4.62214E-04-1.62209E-14
 -1       668 1.04070E-02 4.56684E-04-1.72728E-14
 -1       669 1.06923E-02 4.36068E-04-1.83406E-14
 -1       670 1.09725E-02 3.92596E-04-1.94216E-14
 -1       671 1.12486E-02 3.19035E-04-2.05084E-14
 -1       672 1.15228E-02 2.10809E-04-2.16009E-14
 -1       673 1.17982E-02 6.75939E-05-2.26924E-14
 -1       674 1.20771E-02-1.06555E-04-2.37776E-14
 -1       675 1.23605E-02-3.04734E-04-2.48568E-14
 -1       676 1.26479E-02-5.19130E-04-2.59433E-14
 -1       677 1.29375E-02-7.42848E-04-2.70258E-14
 -1       678 1.32309E-02-9.69642E-04-2.80907E-14
 -1       679 1.40088E-02-1.35295E-03-2.88976E-14
 -1       680 1.44570E-02-1.34260E-03-2.67936E-14
 -1       681 1.37786E-02-1.24508E-03-2.87059E-14
 -1       682 1.33961E-02-1.05430E-03-2.83006E-14
 -1       683 1.42625E-02-1.46432E-03-2.90861E-14
 -1       684 2.36124E-03 4.22673E-04-4.51770E-16
 -1       685 1.45382E-02-1.57364E-03-2.92749E-14
 -1       686 1.48228E-02-1.67114E-03-2.94579E-14
 -1       687 1.51077E-02-1.75113E-03-2.96336E-14
 -1       688 1.53601E-02-1.80711E-03-2.98021E-14
 -1       689 1.49396E-02-1.57735E-03-2.72777E-14
 -1       690 1.09400E-02-1.17109E-04-1.95140E-14
 -1       691 1.33842E-02-8.19496E-04-2.53136E-14
 -1       692 1.53620E-02-1.63104E-03-2.85261E-14
 -1       693 9.93167E-03-5.01933E-04-1.83792E-14
 -1       694 1.13115E-02 1.86238E-05-2.02758E-14
 -1       695 1.52448E-02-1.53207E-03-2.77252E-14
 -1       696 9.74779E-03-5.43403E-04-1.83244E-14
 -1       697 1.39253E-02-1.11829E-03-2.61452E-14
 -1       698 9.04165E-04 1.24543E-04-8.60247E-17
 -1       699 1.20466E-02 2.25565E-06-2.22799E-14
 -1       700 1.29034E-02-4.96299E-04-2.43296E-14
 -1       701 1.06119E-02-2.57560E-04-1.90159E-14
 -1       702 9.03809E-04-1.22213E-04-1.38795E-16
 -1       703 9.72782E-03-5.54797E-04-1.84104E-14
 -1       704 1.02508E-02-3.91246E-04-1.85550E-14
 -1       705 8.97541E-04-2.31850E-05-1.22525E-16
 -1       706 1.47088E-02-1.45010E-03-2.73303E-14
 -1       707 1.50507E-02-1.50751E-03-2.74928E-14
 -1       708 1.21790E-03 3.25255E-04-7.70698E-17
 -1       709 9.11226E-04-1.75606E-04-1.43850E-16
 -1       710 1.55565E-02-1.84760E-03-2.99849E-14
 -1       711 1.14519E-02 7.76651E-05-2.05849E-14
 -1       712 8.99499E-04-7.18397E-05-1.31409E-16
 -1       713 1.16157E-03 2.43543E-04-1.03860E-16
 -1       714 9.96783E-03-4.08577E-04-1.78457E-14
 -1       715 1.47306E-02-1.56900E-03-2.85750E-14
 -1       716 1.49590E-03-2.85168E-04-3.59965E-16
 -1       717 1.78293E-03-3.08528E-04-5.03520E-16
 -1       718 2.07057E-03-3.24933E-04-6.73889E-16
 -1       719 2.35834E-03-3.35978E-04-8.71793E-16
 -1       720 2.64603E-03-3.43028E-04-1.09832E-15
 -1       721 2.93351E-03-3.47192E-04-1.35297E-15
 -1       722 3.22076E-03-3.49332E-04-1.63713E-15
 -1       723 3.50777E-03-3.50100E-04-1.95003E-15
 -1       724 3.79454E-03-3.49975E-04-2.29233E-15
 -1       725 4.08112E-03-3.49297E-04-2.66688E-15
 -1       726 4.36751E-03-3.48303E-04-3.07800E-15
 -1       727 4.65376E-03-3.47148E-04-3.52456E-15
 -1       728 4.93988E-03-3.45926E-04-4.00624E-15
 -1       729 5.22590E-03-3.44688E-04-4.52139E-15
 -1       730 5.51182E-03-3.43452E-04-5.07384E-15
 -1       731 5.79765E-03-3.42217E-04-5.65827E-15
 -1       732 6.08337E-03-3.40965E-04-6.27979E-15
 -1       733 6.36895E-03-3.39674E-04-6.93668E-15
 -1       734 6.65431E-03-3.38327E-04-7.62807E-15
 -1       735 6.93933E-03-3.36919E-04-8.35029E-15
 -1       736 7.22379E-03-3.35483E-04-9.10524E-15
 -1       737 7.50731E-03-3.34122E-04-9.89432E-15
 -1       738 7.78930E-03-3.33066E-04-1.07188E-14
 -1       739 8.06881E-03-3.32763E-04-1.15746E-14
 -1       740 8.34436E-03-3.34037E-04-1.24501E-14
 -1       741 8.61367E-03-3.38312E-04-1.33464E-14
 -1       742 8.87341E-03-3.47915E-04-1.42628E-14
 -1       743 9.11875E-03-3.66406E-04-1.51932E-14
 -1       744 9.34300E-03-3.98701E-04-1.61371E-14
 -1       745 9.52825E-03-4.47281E-04-1.70448E-14
 -1       746 3.35368E-03 3.64122E-04-1.21853E-15
 -1       747 1.34364E-03 2.80640E-04-1.37843E-16
 -1       748 1.06319E-02-1.32076E-04-1.86116E-14
 -1       749 1.42654E-02-1.32580E-03-2.71817E-14
 -1       750 1.91732E-03 3.29819E-04-3.18830E-16
 -1       751 1.63009E-03 3.09292E-04-2.17535E-16
 -1       752 3.06678E-03 3.62528E-04-9.82128E-16
 -1       753 2.77966E-03 3.59200E-04-7.74313E-16
 -1       754 3.64037E-03 3.64562E-04-1.48438E-15
 -1       755 3.92687E-03 3.64268E-04-1.78127E-15
 -1       756 4.21320E-03 3.63536E-04-2.10941E-15
 -1       757 4.49940E-03 3.62567E-04-2.47041E-15
 -1       758 4.78547E-03 3.61491E-04-2.86390E-15
 -1       759 5.07143E-03 3.60386E-04-3.28722E-15
 -1       760 5.35732E-03 3.59294E-04-3.74345E-15
 -1       761 5.64314E-03 3.58232E-04-4.23660E-15
 -1       762 5.92891E-03 3.57202E-04-4.76591E-15
 -1       763 6.21466E-03 3.56200E-04-5.33129E-15
 -1       764 6.50042E-03 3.55223E-04-5.93205E-15
 -1       765 6.78626E-03 3.54279E-04-6.56689E-15
 -1       766 7.07226E-03 3.53392E-04-7.23785E-15
 -1       767 7.35856E-03 3.52616E-04-7.94455E-15
 -1       768 7.64540E-03 3.52044E-04-8.69056E-15
 -1       769 7.93306E-03 3.51824E-04-9.47337E-15
 -1       770 8.22198E-03 3.52169E-04-1.02918E-14
 -1       771 8.51266E-03 3.53368E-04-1.11431E-14
 -1       772 8.80568E-03 3.55766E-04-1.20270E-14
 -1       773 9.10156E-03 3.59698E-04-1.29499E-14
 -1       774 9.40058E-03 3.65327E-04-1.39068E-14
 -1       775 9.70249E-03 3.72300E-04-1.48918E-14
 -1       776 1.00062E-02 3.79175E-04-1.58999E-14
 -1       777 1.03098E-02 3.82646E-04-1.69318E-14
 -1       778 1.06105E-02 3.76804E-04-1.79840E-14
 -1       779 1.09061E-02 3.53055E-04-1.90503E-14
 -1       780 1.11959E-02 3.01441E-04-2.01302E-14
 -1       781 1.14815E-02 2.13538E-04-2.12154E-14
 -1       782 1.17667E-02 8.57123E-05-2.23049E-14
 -1       783 1.20553E-02-7.91744E-05-2.33941E-14
 -1       784 1.23491E-02-2.73255E-04-2.44767E-14
 -1       785 1.26476E-02-4.86666E-04-2.55566E-14
 -1       786 1.29483E-02-7.10495E-04-2.66469E-14
 -1       787 1.31730E-02-8.81940E-04-2.74753E-14
 -1       788 1.44175E-02-1.46535E-03-2.83980E-14
 -1       789 1.10002E-02 7.87827E-06-1.93677E-14
 -1       790 1.52946E-02-1.69232E-03-2.89385E-14
 -1       791 1.50421E-02-1.64785E-03-2.87594E-14
 -1       792 1.17328E-02 8.50779E-05-2.14233E-14
 -1       793 1.03290E-02-2.58515E-04-1.81494E-14
 -1       794 1.22574E-02-1.21377E-04-2.30067E-14
 -1       795 8.96629E-04-2.12056E-04-1.39523E-16
 -1       796 1.41187E-02-1.34432E-03-2.82163E-14
 -1       797 9.72779E-03-4.71755E-04-1.76719E-14
 -1       798 1.36793E-02-1.03865E-03-2.63240E-14
 -1       799 1.52496E-02-1.59756E-03-2.82244E-14
 -1       800 9.63565E-03-4.92525E-04-1.76800E-14
 -1       801 1.26312E-02-3.54201E-04-2.39807E-14
 -1       802 1.13817E-03 5.89935E-05-1.68668E-16
 -1       803 1.38510E-02-1.22123E-03-2.80304E-14
 -1       804 1.30609E-02-6.50050E-04-2.50234E-14
 -1       805 1.21035E-03-2.53178E-04-2.42431E-16
 -1       806 9.81837E-03-5.85296E-04-1.87206E-14
 -1       807 1.11372E-02 8.09385E-05-1.96660E-14
 -1       808 1.36144E-02-1.10436E-03-2.78468E-14
 -1       809 2.49233E-03 3.53360E-04-5.95020E-16
 -1       810 1.13679E-03 1.15281E-06-1.84643E-16
 -1       811 2.20484E-03 3.43994E-04-4.44110E-16
 -1       812 1.19392E-02 2.21479E-05-2.21460E-14
 -1       813 1.34018E-02-9.95649E-04-2.76574E-14
 -1       814 1.14922E-03-1.76140E-04-2.18291E-16
 -1       815 1.00302E-02-2.91208E-04-1.74407E-14
 -1       816 1.14976E-03 1.79028E-04-1.29034E-16
 -1       817 1.14230E-03 1.17735E-04-1.50257E-16
 -1       818 1.14196E-03-1.15226E-04-2.09258E-16
 -1       819 1.32987E-03 2.10443E-04-1.69356E-16
 -1       820 1.91504E-03-2.47118E-04-5.72831E-16
 -1       821 2.20378E-03-2.58446E-04-7.52629E-16
 -1       822 2.49281E-03-2.65944E-04-9.61223E-16
 -1       823 2.78178E-03-2.70590E-04-1.19780E-15
 -1       824 3.07051E-03-2.73191E-04-1.46206E-15
 -1       825 3.35889E-03-2.74372E-04-1.75504E-15
 -1       826 3.64689E-03-2.74605E-04-2.07813E-15
 -1       827 3.93451E-03-2.74235E-04-2.43250E-15
 -1       828 4.22179E-03-2.73502E-04-2.82142E-15
 -1       829 4.50875E-03-2.72573E-04-3.24427E-15
 -1       830 4.79543E-03-2.71552E-04-3.70196E-15
 -1       831 5.08188E-03-2.70502E-04-4.19192E-15
 -1       832 5.36811E-03-2.69455E-04-4.71666E-15
 -1       833 5.65415E-03-2.68424E-04-5.27711E-15
 -1       834 5.93998E-03-2.67412E-04-5.87228E-15
 -1       835 6.22559E-03-2.66420E-04-6.50598E-15
 -1       836 6.51092E-03-2.65461E-04-7.17281E-15
 -1       837 6.79584E-03-2.64573E-04-7.87093E-15
 -1       838 7.08018E-03-2.63843E-04-8.60074E-15
 -1       839 7.36360E-03-2.63440E-04-9.36503E-15
 -1       840 7.64564E-03-2.63673E-04-1.01643E-14
 -1       841 7.92556E-03-2.65068E-04-1.09993E-14
 -1       842 8.20228E-03-2.68491E-04-1.18597E-14
 -1       843 8.47423E-03-2.75307E-04-1.27418E-14
 -1       844 8.73931E-03-2.87575E-04-1.36438E-14
 -1       845 8.99473E-03-3.08203E-04-1.45641E-14
 -1       846 9.23718E-03-3.40881E-04-1.55014E-14
 -1       847 9.45223E-03-3.86446E-04-1.64021E-14
 -1       848 3.77962E-03 2.89062E-04-1.72791E-15
 -1       849 1.39738E-02-1.22999E-03-2.73462E-14
 -1       850 1.06519E-02 9.53449E-06-1.83438E-14
 -1       851 3.49196E-03 2.89016E-04-1.43932E-15
 -1       852 2.91555E-03 2.86105E-04-9.50364E-16
 -1       853 4.06694E-03 2.88614E-04-2.04810E-15
 -1       854 4.35393E-03 2.87881E-04-2.40125E-15
 -1       855 4.64065E-03 2.87006E-04-2.78723E-15
 -1       856 4.92712E-03 2.86073E-04-3.20463E-15
 -1       857 5.21339E-03 2.85131E-04-3.65250E-15
 -1       858 5.49947E-03 2.84201E-04-4.13497E-15
 -1       859 5.78541E-03 2.83282E-04-4.65411E-15
 -1       860 6.07123E-03 2.82363E-04-5.20845E-15
 -1       861 6.35697E-03 2.81422E-04-5.79956E-15
 -1       862 6.64269E-03 2.80434E-04-6.42442E-15
 -1       863 6.92849E-03 2.79377E-04-7.08352E-15
 -1       864 7.21451E-03 2.78230E-04-7.77867E-15
 -1       865 7.50096E-03 2.76994E-04-8.50989E-15
 -1       866 7.78820E-03 2.75697E-04-9.28014E-15
 -1       867 8.07672E-03 2.74424E-04-1.00839E-14
 -1       868 8.36718E-03 2.73350E-04-1.09210E-14
 -1       869 8.66045E-03 2.72789E-04-1.17902E-14
 -1       870 8.95751E-03 2.73229E-04-1.26944E-14
 -1       871 9.25931E-03 2.75325E-04-1.36323E-14
 -1       872 9.56648E-03 2.79757E-04-1.45997E-14
 -1       873 9.87881E-03 2.86784E-04-1.55884E-14
 -1       874 1.01948E-02 2.95351E-04-1.65997E-14
 -1       875 1.05113E-02 3.01656E-04-1.76328E-14
 -1       876 1.08243E-02 2.97872E-04-1.86873E-14
 -1       877 1.11305E-02 2.71887E-04-1.97561E-14
 -1       878 1.14296E-02 2.10071E-04-2.08355E-14
 -1       879 1.17253E-02 1.02863E-04-2.19173E-14
 -1       880 1.20236E-02-5.06044E-05-2.30020E-14
 -1       881 1.23276E-02-2.40864E-04-2.40897E-14
 -1       882 1.26391E-02-4.55532E-04-2.51737E-14
 -1       883 1.29531E-02-6.81498E-04-2.62613E-14
 -1       884 9.59358E-03-4.26315E-04-1.70324E-14
 -1       885 1.03124E-02-1.31740E-04-1.76834E-14
 -1       886 1.36840E-02-1.09191E-03-2.71662E-14
 -1       887 1.50227E-02-1.58161E-03-2.81713E-14
 -1       888 1.24129E-02-2.44714E-04-2.36656E-14
 -1       889 1.33204E-02-8.49498E-04-2.60082E-14
 -1       890 1.13799E-03-5.65250E-05-1.98138E-16
 -1       891 9.71561E-03-3.89306E-04-1.70918E-14
 -1       892 1.43301E-03-2.01661E-04-3.28740E-16
 -1       893 1.67340E-03-2.25944E-04-4.41189E-16
 -1       894 1.27935E-02-4.98680E-04-2.47040E-14
 -1       895 3.20393E-03 2.88171E-04-1.18013E-15
 -1       896 1.14190E-02 1.29814E-04-2.04943E-14
 -1       897 1.07878E-02 8.51253E-05-1.86314E-14
 -1       898 1.34388E-02-9.64623E-04-2.69841E-14
 -1       899 2.62687E-03 2.82245E-04-7.48408E-16
 -1       900 1.38091E-03 3.40459E-05-2.58172E-16
 -1       901 1.16278E-02 1.19627E-04-2.12154E-14
 -1       902 1.31842E-02-8.17843E-04-2.66202E-14
 -1       903 1.20953E-02-6.57802E-05-2.27988E-14
 -1       904 1.76098E-03 2.51459E-04-3.05779E-16
 -1       905 2.04925E-03 2.65966E-04-4.27670E-16
 -1       906 1.38407E-03 9.97618E-05-2.35587E-16
 -1       907 1.25478E-02-3.56707E-04-2.43215E-14
 -1       908 2.34058E-03-1.89519E-04-8.31431E-16
 -1       909 2.63051E-03-1.94082E-04-1.04912E-15
 -1       910 2.92036E-03-1.96798E-04-1.29480E-15
 -1       911 3.20990E-03-1.98201E-04-1.56739E-15
 -1       912 3.49899E-03-1.98707E-04-1.86916E-15
 -1       913 3.78761E-03-1.98623E-04-2.20376E-15
 -1       914 4.07574E-03-1.98174E-04-2.57045E-15
 -1       915 4.36343E-03-1.97514E-04-2.97187E-15
 -1       916 4.65071E-03-1.96746E-04-3.40602E-15
 -1       917 4.93762E-03-1.95937E-04-3.87149E-15
 -1       918 5.22422E-03-1.95126E-04-4.37111E-15
 -1       919 5.51053E-03-1.94334E-04-4.90559E-15
 -1       920 5.79656E-03-1.93578E-04-5.47630E-15
 -1       921 6.08231E-03-1.92874E-04-6.08418E-15
 -1       922 6.36773E-03-1.92255E-04-6.72720E-15
 -1       923 6.65276E-03-1.91781E-04-7.40345E-15
 -1       924 6.93724E-03-1.91564E-04-8.10708E-15
 -1       925 7.22098E-03-1.91801E-04-8.84444E-15
 -1       926 7.50363E-03-1.92816E-04-9.61947E-15
 -1       927 7.78473E-03-1.95127E-04-1.04300E-14
 -1       928 8.06365E-03-1.99535E-04-1.12725E-14
 -1       929 8.33954E-03-2.07221E-04-1.21375E-14
 -1       930 8.61139E-03-2.19853E-04-1.30264E-14
 -1       931 8.87819E-03-2.39610E-04-1.39372E-14
 -1       932 9.13924E-03-2.68987E-04-1.48653E-14
 -1       933 9.38231E-03-3.07662E-04-1.57631E-14
 -1       934 4.20812E-03 2.12682E-04-2.32331E-15
 -1       935 2.33802E-03 2.75846E-04-5.74380E-16
 -1       936 9.70458E-03-2.79517E-04-1.65130E-14
 -1       937 3.92030E-03 2.13138E-04-1.97922E-15
 -1       938 4.78254E-03 2.11365E-04-3.11177E-15
 -1       939 5.06924E-03 2.10639E-04-3.55341E-15
 -1       940 5.35565E-03 2.09909E-04-4.02576E-15
 -1       941 5.64181E-03 2.09174E-04-4.53447E-15
 -1       942 5.92776E-03 2.08418E-04-5.08070E-15
 -1       943 6.21354E-03 2.07612E-04-5.66071E-15
 -1       944 6.49921E-03 2.06709E-04-6.27565E-15
 -1       945 6.78482E-03 2.05651E-04-6.92517E-15
 -1       946 7.07049E-03 2.04362E-04-7.60977E-15
 -1       947 7.35642E-03 2.02757E-04-8.32797E-15
 -1       948 7.64290E-03 2.00744E-04-9.08386E-15
 -1       949 7.93040E-03 1.98249E-04-9.87283E-15
 -1       950 8.21958E-03 1.95256E-04-1.06985E-14
 -1       951 8.51140E-03 1.91883E-04-1.15540E-14
 -1       952 8.80714E-03 1.88490E-04-1.24437E-14
 -1       953 9.10831E-03 1.85821E-04-1.33659E-14
 -1       954 9.41649E-03 1.85108E-04-1.43152E-14
 -1       955 9.73287E-03 1.87999E-04-1.52849E-14
 -1       956 1.00574E-02 1.95877E-04-1.62757E-14
 -1       957 1.03880E-02 2.08865E-04-1.72909E-14
 -1       958 1.07198E-02 2.21844E-04-1.83283E-14
 -1       959 1.10467E-02 2.23404E-04-1.93861E-14
 -1       960 1.13640E-02 1.94963E-04-2.04575E-14
 -1       961 1.19820E-02-1.79823E-05-2.26124E-14
 -1       962 9.55067E-03-3.46098E-04-1.64235E-14
 -1       963 1.38083E-03-3.12949E-05-2.77640E-16
 -1       964 3.63202E-03 2.13294E-04-1.66773E-15
 -1       965 1.30007E-02-6.62081E-04-2.55816E-14
 -1       966 1.45398E-03-1.24994E-04-3.27233E-16
 -1       967 4.49552E-03 2.12062E-04-2.70074E-15
 -1       968 9.93885E-03-1.63860E-04-1.67251E-14
 -1       969 1.02893E-02 6.81898E-06-1.72877E-14
 -1       970 2.05095E-03-1.82451E-04-6.41489E-16
 -1       971 1.35563E-03 1.55060E-04-2.02959E-16
 -1       972 1.10995E-02 1.66392E-04-1.95251E-14
 -1       973 2.76448E-03 2.09538E-04-9.10272E-16
 -1       974 9.92955E-03-3.12064E-05-1.63260E-14
 -1       975 1.55452E-03 1.69806E-04-2.67944E-16
 -1       976 1.16831E-02 1.14227E-04-2.15666E-14
 -1       977 1.80895E-03-1.66044E-04-5.01942E-16
 -1       978 3.05407E-03 2.11826E-04-1.13386E-15
 -1       979 1.04261E-02 7.89960E-05-1.75636E-14
 -1       980 1.62739E-03 1.50563E-06-3.69205E-16
 -1       981 1.62913E-03 7.30464E-05-3.42632E-16
 -1       982 3.34327E-03 2.12950E-04-1.38641E-15
 -1       983 1.89580E-03 1.89973E-04-4.03699E-16
 -1       984 2.77107E-03-1.20630E-04-1.13515E-15
 -1       985 3.06143E-03-1.21906E-04-1.38781E-15
 -1       986 3.35139E-03-1.22479E-04-1.66816E-15
 -1       987 3.64083E-03-1.22578E-04-1.98082E-15
 -1       988 3.92973E-03-1.22373E-04-2.32609E-15
 -1       989 4.21807E-03-1.21986E-04-2.70514E-15
 -1       990 4.50591E-03-1.21500E-04-3.11707E-15
 -1       991 4.79330E-03-1.20969E-04-3.55919E-15
 -1       992 5.08027E-03-1.20429E-04-4.03395E-15
 -1       993 5.36688E-03-1.19906E-04-4.54307E-15
 -1       994 5.65314E-03-1.19419E-04-5.08810E-15
 -1       995 5.93909E-03-1.18994E-04-5.67132E-15
 -1       996 6.22469E-03-1.18669E-04-6.29047E-15
 -1       997 6.50992E-03-1.18514E-04-6.94427E-15
 -1       998 6.79470E-03-1.18643E-04-7.62411E-15
 -1       999 7.07890E-03-1.19244E-04-8.33451E-15
 -1      1000 7.36236E-03-1.20615E-04-9.08206E-15
 -1      1001 7.64484E-03-1.23210E-04-9.86936E-15
 -1      1002 7.92606E-03-1.27695E-04-1.06897E-14
 -1      1003 8.20573E-03-1.35005E-04-1.15373E-14
 -1      1004 8.48364E-03-1.46381E-04-1.24102E-14
 -1      1005 8.75990E-03-1.63320E-04-1.33078E-14
 -1      1006 9.03527E-03-1.87316E-04-1.42284E-14
 -1      1007 9.29802E-03-2.17398E-04-1.51189E-14
 -1      1008 2.47468E-03 2.05580E-04-7.14889E-16
 -1      1009 4.06225E-03 1.36995E-04-2.23932E-15
 -1      1010 5.21176E-03 1.35299E-04-3.90956E-15
 -1      1011 4.92500E-03 1.35773E-04-3.44411E-15
 -1      1012 5.78432E-03 1.34289E-04-4.94273E-15
 -1      1013 6.07020E-03 1.33706E-04-5.51520E-15
 -1      1014 6.35586E-03 1.33007E-04-6.12080E-15
 -1      1015 6.64135E-03 1.32114E-04-6.76250E-15
 -1      1016 6.92673E-03 1.30920E-04-7.43531E-15
 -1      1017 7.21213E-03 1.29279E-04-8.14155E-15
 -1      1018 7.49775E-03 1.27007E-04-8.88222E-15
 -1      1019 7.78393E-03 1.23884E-04-9.66013E-15
 -1      1020 8.07120E-03 1.19683E-04-1.04709E-14
 -1      1021 8.36042E-03 1.14237E-04-1.13151E-14
 -1      1022 8.65283E-03 1.07561E-04-1.21924E-14
 -1      1023 8.95018E-03 1.00072E-04-1.31012E-14
 -1      1024 9.25469E-03 9.28876E-05-1.40342E-14
 -1      1025 9.56894E-03 8.81782E-05-1.49912E-14
 -1      1026 9.89507E-03 8.91934E-05-1.59614E-14
 -1      1027 9.51254E-03-2.46759E-04-1.58491E-14
 -1      1028 3.77368E-03 1.37185E-04-1.90307E-15
 -1      1029 5.49818E-03 1.34809E-04-4.40698E-15
 -1      1030 1.71590E-03-8.00430E-05-4.35222E-16
 -1      1031 4.63786E-03 1.36231E-04-3.00962E-15
 -1      1032 2.48054E-03-1.18352E-04-9.08636E-16
 -1      1033 2.18496E-03 1.99313E-04-5.46160E-16
 -1      1034 9.71921E-03-1.45849E-04-1.60531E-14
 -1      1035 2.19024E-03-1.14696E-04-7.08814E-16
 -1      1036 1.73002E-03 1.15025E-04-3.67863E-16
 -1      1037 4.35029E-03 1.36653E-04-2.60796E-15
 -1      1038 2.61441E-03 1.33408E-04-8.63787E-16
 -1      1039 2.90482E-03 1.35479E-04-1.08054E-15
 -1      1040 2.01864E-03 1.22452E-04-5.03995E-16
 -1      1041 1.95249E-03-9.74360E-05-5.62616E-16
 -1      1042 3.48457E-03 1.37113E-04-1.59911E-15
 -1      1043 1.86275E-03-1.10077E-05-4.85621E-16
 -1      1044 9.48094E-03-1.27659E-04-1.53196E-14
 -1      1045 3.20464E-03-4.62074E-05-1.47610E-15
 -1      1046 3.49467E-03-4.62913E-05-1.76497E-15
 -1      1047 3.78413E-03-4.62252E-05-2.08837E-15
 -1      1048 4.07301E-03-4.60647E-05-2.44511E-15
 -1      1049 4.36131E-03-4.58500E-05-2.83433E-15
 -1      1050 4.64909E-03-4.56094E-05-3.25495E-15
 -1      1051 4.93640E-03-4.53632E-05-3.70553E-15
 -1      1052 5.22328E-03-4.51282E-05-4.18952E-15
 -1      1053 5.50979E-03-4.49221E-05-4.70835E-15
 -1      1054 5.79594E-03-4.47694E-05-5.26468E-15
 -1      1055 6.08176E-03-4.47088E-05-5.85907E-15
 -1      1056 6.36723E-03-4.48039E-05-6.48732E-15
 -1      1057 6.65233E-03-4.51568E-05-7.14737E-15
 -1      1058 6.93702E-03-4.59283E-05-7.83591E-15
 -1      1059 7.22124E-03-4.73636E-05-8.55680E-15
 -1      1060 7.50494E-03-4.98231E-05-9.31563E-15
 -1      1061 7.78808E-03-5.38163E-05-1.01115E-14
 -1      1062 8.07072E-03-6.00271E-05-1.09407E-14
 -1      1063 8.35314E-03-6.93089E-05-1.17950E-14
 -1      1064 8.63597E-03-8.26015E-05-1.26801E-14
 -1      1065 8.92058E-03-1.00681E-04-1.35882E-14
 -1      1066 9.19570E-03-1.13598E-04-1.44459E-14
 -1      1067 5.06792E-03 6.03438E-05-3.78299E-15
 -1      1068 9.65673E-03-2.58469E-05-1.55272E-14
 -1      1069 4.49330E-03 6.06898E-05-2.90167E-15
 -1      1070 2.62332E-03-4.52555E-05-9.81505E-16
 -1      1071 6.21271E-03 5.92126E-05-5.95717E-15
 -1      1072 5.92698E-03 5.96182E-05-5.35861E-15
 -1      1073 6.78337E-03 5.77192E-05-7.25341E-15
 -1      1074 7.06837E-03 5.63473E-05-7.94797E-15
 -1      1075 7.35324E-03 5.42679E-05-8.67583E-15
 -1      1076 7.63817E-03 5.11673E-05-9.44203E-15
 -1      1077 7.92346E-03 4.66534E-05-1.02435E-14
 -1      1078 8.20966E-03 4.02856E-05-1.10762E-14
 -1      1079 8.49770E-03 3.16616E-05-1.19382E-14
 -1      1080 8.78908E-03 2.06105E-05-1.28355E-14
 -1      1081 9.08610E-03 7.53850E-06-1.37563E-14
 -1      1082 9.36637E-03-9.81243E-06-1.46349E-14
 -1      1083 2.32401E-03 1.30025E-04-6.74262E-16
 -1      1084 2.33258E-03-4.41452E-05-7.74561E-16
 -1      1085 1.79465E-03 6.02625E-05-4.23046E-16
 -1      1086 3.91669E-03 6.09132E-05-2.14775E-15
 -1      1087 5.64096E-03 5.99122E-05-4.79705E-15
 -1      1088 6.49816E-03 5.86183E-05-6.58997E-15
 -1      1089 4.78083E-03 6.05251E-05-3.32641E-15
 -1      1090 2.91413E-03-4.58966E-05-1.21569E-15
 -1      1091 3.19492E-03 1.36617E-04-1.32495E-15
 -1      1092 5.35462E-03 6.01442E-05-4.27267E-15
 -1      1093 4.20527E-03 6.08271E-05-2.50769E-15
 -1      1094 2.07110E-03 4.35660E-05-5.74177E-16
 -1      1095 2.75685E-03 5.96229E-05-1.02115E-15
 -1      1096 2.46605E-03 5.83872E-05-8.11112E-16
 -1      1097 3.62753E-03 6.09067E-05-1.81874E-15
 -1      1098 3.34959E-03 2.99905E-05-1.55948E-15
 -1      1099 3.04752E-03 6.03608E-05-1.25857E-15
 -1      1100 0.00000E+00 0.00000E+00 0.00000E+00
 -1      1101 0.00000E+00 0.00000E+00 0.00000E+00
 -1      1102 0.00000E+00 0.00000E+00 0.00000E+00
 -1      1103 0.00000E+00 0.00000E+00 0.00000E+00
 -1      1104 0.00000E+00 0.00000E+00 0.00000E+00
 -1      1105 0.00000E+00 0.00000E+00 0.00000E+00
 -1      1106 0.00000E+00 0.00000E+00 0.00000E+00
 -1      1107 0.00000E+00 0.00000E+00 0.00000E+00
 -1      1108 0.00000E+00 0.00000E+00 0.00000E+00
 -1      1109 0.00000E+00 0.00000E+00 0.00000E+00
 -1      1110 0.00000E+00 0.00000E+00 0.00000E+00
 -1      1111 0.00000E+00 0.00000E+00 0.00000E+00
 -1      1112 0.00000E+00 0.00000E+00 0.00000E+00
 -1      1113 0.00000E+00 0.00000E+00 0.00000E+00
 -1      1114 0.00000E+00 0.00000E+00 0.00000E+00
 -1      1115 0.00000E+00 0.00000E+00 0.00000E+00
 -1      1116 0.00000E+00 0.00000E+00 0.00000E+00
 -1      1117 2.02766E-04-1.43052E-04 6.09864E-19
 -1      1118 5.37077E-04-3.30289E-04-1.38507E-17
 -1      1119 8.19925E-04-4.54119E-04-5.28006E-17
 -1      1120 1.08988E-03-5.37288E-04-1.19709E-16
 -1      1121 1.35547E-03-5.95516E-04-2.14415E-16
 -1      1122 1.62035E-03-6.36932E-04-3.38027E-16
 -1      1123 1.88642E-03-6.66287E-04-4.91821E-16
 -1      1124 2.15459E-03-6.86761E-04-6.78290E-16
 -1      1125 2.42517E-03-7.00681E-04-8.96296E-16
 -1      1126 2.69816E-03-7.09804E-04-1.14286E-15
 -1      1127 2.97342E-03-7.15468E-04-1.41782E-15
 -1      1128 3.25069E-03-7.18684E-04-1.71879E-15
 -1      1129 3.52971E-03-7.20209E-04-2.04860E-15
 -1      1130 3.81020E-03-7.20600E-04-2.41076E-15
 -1      1131 4.09191E-03-7.20259E-04-2.80502E-15
 -1      1132 4.37459E-03-7.19469E-04-3.23767E-15
 -1      1133 4.65805E-03-7.18420E-04-3.71663E-15
 -1      1134 4.94212E-03-7.17231E-04-4.23850E-15
 -1      1135 5.22667E-03-7.15970E-04-4.79923E-15
 -1      1136 5.51160E-03-7.14663E-04-5.39373E-15
 -1      1137 5.79682E-03-7.13304E-04-6.02227E-15
 -1      1138 6.08231E-03-7.11861E-04-6.68080E-15
 -1      1139 6.36807E-03-7.10277E-04-7.36911E-15
 -1      1140 6.65415E-03-7.08471E-04-8.08940E-15
 -1      1141 6.94067E-03-7.06334E-04-8.85319E-15
 -1      1142 7.22784E-03-7.03725E-04-9.65024E-15
 -1      1143 7.51605E-03-7.00468E-04-1.04808E-14
 -1      1144 7.80593E-03-6.96357E-04-1.13458E-14
 -1      1145 8.09855E-03-6.91177E-04-1.22307E-14
 -1      1146 8.39567E-03-6.84778E-04-1.31299E-14
 -1      1147 8.70018E-03-6.77268E-04-1.40482E-14
 -1      1148 9.01681E-03-6.69472E-04-1.49908E-14
 -1      1149 9.35309E-03-6.64038E-04-1.59522E-14
 -1      1150 9.72066E-03-6.67971E-04-1.69177E-14
 -1      1151 1.01362E-02-6.98102E-04-1.78859E-14
 -1      1152 1.06201E-02-7.91260E-04-1.88600E-14
 -1      1153 1.11710E-02-1.00754E-03-1.98118E-14
 -1      1154 1.17465E-02-1.40201E-03-2.07227E-14
 -1      1155 1.22781E-02-1.98160E-03-2.16349E-14
 -1      1156 1.26482E-02-2.56922E-03-2.25493E-14
 -1      1157 1.28672E-02-2.90391E-03-2.35385E-14
 -1      1158 1.30900E-02-2.77335E-03-2.45680E-14
 -1      1159 1.34559E-02-2.38075E-03-2.55214E-14
 -1      1160 1.39512E-02-2.01969E-03-2.64538E-14
 -1      1161 1.45203E-02-1.81843E-03-2.74536E-14
 -1      1162 1.50778E-02-1.80657E-03-2.85127E-14
 -1      1163 1.55503E-02-1.92446E-03-2.95809E-14
 -1      1164 1.59495E-02-2.10101E-03-3.06790E-14
 -1      1165 1.62948E-02-2.29510E-03-3.18140E-14
 -1      1166 1.66037E-02-2.48393E-03-3.29777E-14
 -1      1167 1.68857E-02-2.65159E-03-3.41201E-14
 -1      1168 2.28429E-04 1.60696E-04 1.56938E-17
 -1      1169 5.53839E-04 3.42111E-04 4.45336E-17
 -1      1170 8.34453E-04 4.61129E-04 6.52554E-17
 -1      1171 1.10404E-03 5.42294E-04 7.47422E-17
 -1      1172 1.36953E-03 5.99509E-04 6.93889E-17
 -1      1173 1.63448E-03 6.40307E-04 4.36256E-17
 -1      1174 1.90071E-03 6.69250E-04-3.33392E-18
 -1      1175 2.16903E-03 6.89457E-04-7.12050E-17
 -1      1176 2.43976E-03 7.03216E-04-1.64501E-16
 -1      1177 2.71289E-03 7.12259E-04-2.84644E-16
 -1      1178 2.98826E-03 7.17902E-04-4.37638E-16
 -1      1179 3.26564E-03 7.21141E-04-6.19920E-16
 -1      1180 3.54475E-03 7.22722E-04-8.34063E-16
 -1      1181 3.82532E-03 7.23192E-04-1.07920E-15
 -1      1182 4.10710E-03 7.22949E-04-1.35283E-15
 -1      1183 4.38986E-03 7.22272E-04-1.65722E-15
 -1      1184 4.67339E-03 7.21352E-04-1.99480E-15
 -1      1185 4.95755E-03 7.20314E-04-2.36466E-15
 -1      1186 5.24221E-03 7.19237E-04-2.76904E-15
 -1      1187 5.52726E-03 7.18169E-04-3.21073E-15
 -1      1188 5.81265E-03 7.17141E-04-3.68795E-15
 -1      1189 6.09833E-03 7.16179E-04-4.20305E-15
 -1      1190 6.38429E-03 7.15315E-04-4.75274E-15
 -1      1191 6.67050E-03 7.14598E-04-5.33815E-15
 -1      1192 6.95696E-03 7.14107E-04-5.96189E-15
 -1      1193 7.24365E-03 7.13961E-04-6.62345E-15
 -1      1194 7.53048E-03 7.14323E-04-7.32305E-15
 -1      1195 7.81728E-03 7.15396E-04-8.06842E-15
 -1      1196 8.10375E-03 7.17408E-04-8.85975E-15
 -1      1197 8.38936E-03 7.20556E-04-9.69720E-15
 -1      1198 8.67334E-03 7.24924E-04-1.05710E-14
 -1      1199 8.95455E-03 7.30325E-04-1.14805E-14
 -1      1200 9.23151E-03 7.36101E-04-1.24390E-14
 -1      1201 9.50244E-03 7.40864E-04-1.34416E-14
 -1      1202 9.76544E-03 7.42243E-04-1.44767E-14
 -1      1203 1.00188E-02 7.36721E-04-1.55422E-14
 -1      1204 1.02615E-02 7.19684E-04-1.66364E-14
 -1      1205 1.04935E-02 6.85799E-04-1.77483E-14
 -1      1206 1.07163E-02 6.29740E-04-1.88682E-14
 -1      1207 1.09329E-02 5.47156E-04-1.99824E-14
 -1      1208 1.11472E-02 4.35599E-04-2.10898E-14
 -1      1209 1.13639E-02 2.95098E-04-2.21880E-14
 -1      1210 1.15870E-02 1.28155E-04-2.32717E-14
 -1      1211 1.18195E-02-6.08206E-05-2.43466E-14
 -1      1212 1.20632E-02-2.66393E-04-2.54153E-14
 -1      1213 1.23182E-02-4.82964E-04-2.64908E-14
 -1      1214 1.25838E-02-7.05354E-04-2.75576E-14
 -1      1215 1.28585E-02-9.29040E-04-2.86166E-14
 -1      1216 1.31401E-02-1.15030E-03-2.96785E-14
 -1      1217 1.34184E-02-1.36177E-03-3.07207E-14
 -1      1218 1.36596E-02-1.50571E-03-3.13213E-14
 -1      1219 1.38679E-02-1.59026E-03-3.15431E-14
 -1      1220 1.40723E-02-1.67852E-03-3.17675E-14
 -1      1221 1.42759E-02-1.77278E-03-3.19656E-14
 -1      1222 1.44834E-02-1.87333E-03-3.21634E-14
 -1      1223 1.46978E-02-1.97746E-03-3.23880E-14
 -1      1224 1.49243E-02-2.08229E-03-3.26317E-14
 -1      1225 1.51663E-02-2.18339E-03-3.28615E-14
 -1      1226 1.54193E-02-2.27364E-03-3.30771E-14
 -1      1227 1.56764E-02-2.34745E-03-3.32753E-14
 -1      1228 1.59263E-02-2.40197E-03-3.34574E-14
 -1      1229 1.61546E-02-2.43889E-03-3.36739E-14
 -1      1230 1.63531E-02-2.46621E-03-3.38965E-14
 -1      1231 1.65205E-02-2.49595E-03-3.40865E-14
 -1      1232 1.66632E-02-2.54006E-03-3.42493E-14
 -1      1233 1.67986E-02-2.60527E-03-3.44111E-14
 -1      1234 1.69439E-02-2.68634E-03-3.45842E-14
 -1      1235 1.50141E-02-1.16254E-03-2.53019E-14
 -1      1236 1.47652E-02-9.74986E-04-2.50496E-14
 -1      1237 1.44264E-02-7.87298E-04-2.47110E-14
 -1      1238 1.40259E-02-5.99972E-04-2.43234E-14
 -1      1239 1.35629E-02-4.12133E-04-2.38682E-14
 -1      1240 1.30547E-02-2.42704E-04-2.33368E-14
 -1      1241 1.25571E-02-1.18492E-04-2.27932E-14
 -1      1242 1.20679E-02-4.99876E-05-2.22476E-14
 -1      1243 1.15798E-02-3.73604E-05-2.17145E-14
 -1      1244 1.11263E-02-7.73426E-05-2.12430E-14
 -1      1245 1.07248E-02-1.56271E-04-2.08529E-14
 -1      1246 1.03694E-02-2.63922E-04-2.05403E-14
 -1      1247 1.00785E-02-3.90975E-04-2.03311E-14
 -1      1248 9.88277E-03-5.26372E-04-2.02461E-14
 -1      1249 9.78908E-03-6.72293E-04-2.02560E-14
 -1      1250 9.80598E-03-8.37262E-04-2.03653E-14
 -1      1251 9.94963E-03-1.04707E-03-2.06041E-14
 -1      1252 1.02227E-02-1.31118E-03-2.09544E-14
 -1      1253 1.06325E-02-1.64763E-03-2.13857E-14
 -1      1254 1.11502E-02-2.02925E-03-2.18903E-14
 -1      1255 1.17302E-02-2.38045E-03-2.24356E-14
 -1      1256 1.23603E-02-2.62364E-03-2.29933E-14
 -1      1257 1.29580E-02-2.68512E-03-2.34937E-14
 -1      1258 1.35239E-02-2.58023E-03-2.39692E-14
 -1      1259 1.40391E-02-2.36417E-03-2.44116E-14
 -1      1260 1.44563E-02-2.11584E-03-2.47833E-14
 -1      1261 1.47804E-02-1.88189E-03-2.50884E-14
 -1      1262 1.50092E-02-1.67075E-03-2.53046E-14
 -1      1263 1.51245E-02-1.49077E-03-2.54163E-14
 -1      1264 1.51295E-02-1.33179E-03-2.54227E-14
 -1      1265 1.58740E-04-1.05122E-04-2.73761E-18
 -1      1266 1.12513E-04-5.69378E-05-6.38324E-18
 -1      1267 1.17561E-04-6.74829E-05-5.32614E-18
 -1      1268 1.08422E-04-4.34824E-05-8.00954E-18
 -1      1269 1.10287E-04-4.95872E-05-7.58942E-18
 -1      1270 2.26318E-04-1.07607E-04-1.78758E-17
 -1      1271 1.06850E-04-3.36144E-05-8.34836E-18
 -1      1272 1.07695E-04-3.83392E-05-8.28059E-18
 -1      1273 2.19110E-04-8.24646E-05-2.02475E-17
 -1      1274 1.06067E-04-2.53435E-05-8.30770E-18
 -1      1275 1.06501E-04-2.93760E-05-8.33480E-18
 -1      1276 2.15886E-04-6.32749E-05-2.08438E-17
 -1      1277 1.05655E-04-1.80867E-05-8.05020E-18
 -1      1278 1.05887E-04-2.16540E-05-8.25349E-18
 -1      1279 2.14210E-04-4.71775E-05-2.05863E-17
 -1      1280 1.05432E-04-1.12371E-05-7.56231E-18
 -1      1281 1.05557E-04-1.46211E-05-7.76560E-18
 -1      1282 2.13283E-04-3.27464E-05-1.97325E-17
 -1      1283 1.05331E-04-4.69063E-06-6.89824E-18
 -1      1284 1.05384E-04-7.94220E-06-7.10152E-18
 -1      1285 2.12782E-04-1.91885E-05-1.82824E-17
 -1      1286 1.05319E-04 1.73734E-06-6.26127E-18
 -1      1287 1.05317E-04-1.47414E-06-6.51877E-18
 -1      1288 2.12565E-04-6.16581E-06-1.69271E-17
 -1      1289 1.05392E-04 8.21499E-06-5.20417E-18
 -1      1290 1.05335E-04 4.95705E-06-5.51588E-18
 -1      1291 2.12572E-04 6.69521E-06-1.49620E-17
 -1      1292 1.05572E-04 1.49187E-05-4.26905E-18
 -1      1293 1.05443E-04 1.15203E-05-4.54010E-18
 -1      1294 2.12806E-04 1.97434E-05-1.26987E-17
 -1      1295 1.05908E-04 2.19347E-05-3.00866E-18
 -1      1296 1.05671E-04 1.83447E-05-3.41524E-18
 -1      1297 2.13322E-04 3.32394E-05-1.02593E-17
 -1      1298 1.06535E-04 2.97988E-05-1.34170E-18
 -1      1299 1.06093E-04 2.57230E-05-1.84314E-18
 -1      1300 2.14268E-04 4.77622E-05-6.97955E-18
 -1      1301 1.07736E-04 3.88961E-05 7.86047E-19
 -1      1302 1.06882E-04 3.41009E-05-1.35525E-20
 -1      1303 2.15984E-04 6.41686E-05-3.06287E-18
 -1      1304 1.10274E-04 5.03341E-05 3.60497E-18
 -1      1305 1.08439E-04 4.41506E-05 2.38524E-18
 -1      1306 2.19233E-04 8.36762E-05 2.04643E-18
 -1      1307 1.16939E-04 6.76021E-05 7.33192E-18
 -1      1308 1.12187E-04 5.77556E-05 5.63785E-18
 -1      1309 2.26324E-04 1.09415E-04 8.51099E-18
 -1      1310 1.57586E-04 1.09845E-04 1.22379E-17
 -1      1311 1.35670E-04 8.60739E-05 9.71716E-18
 -1      1312 2.56051E-04 1.52058E-04 1.59920E-17
 -1      1313 3.35103E-04 2.20705E-04 2.52348E-17
 -1      1314 4.06147E-04-2.53604E-04-1.45419E-17
 -1      1315 5.59794E-04-3.30191E-04-2.79047E-17
 -1      1316 7.07466E-04-3.91975E-04-4.86265E-17
 -1      1317 8.51017E-04-4.42214E-04-7.61652E-17
 -1      1318 5.97301E-04-3.24977E-04-4.36798E-17
 -1      1319 9.91314E-04-4.84023E-04-1.09775E-16
 -1      1320 1.12936E-03-5.18603E-04-1.50392E-16
 -1      1321 8.91143E-04-4.27448E-04-9.95975E-17
 -1      1322 1.26599E-03-5.47874E-04-1.98192E-16
 -1      1323 1.40173E-03-5.72324E-04-2.53039E-16
 -1      1324 1.17400E-03-4.98084E-04-1.81766E-16
 -1      1325 1.53704E-03-5.93046E-04-3.14676E-16
 -1      1326 1.67218E-03-6.10378E-04-3.83672E-16
 -1      1327 1.45117E-03-5.47709E-04-2.91352E-16
 -1      1328 1.80739E-03-6.24965E-04-4.60501E-16
 -1      1329 1.94280E-03-6.37100E-04-5.44866E-16
 -1      1330 1.72598E-03-5.82637E-04-4.29331E-16
 -1      1331 2.07854E-03-6.47196E-04-6.37064E-16
 -1      1332 2.21464E-03-6.55505E-04-7.37312E-16
 -1      1333 2.00037E-03-6.06930E-04-5.96962E-16
 -1      1334 2.35116E-03-6.62309E-04-8.44675E-16
 -1      1335 2.48813E-03-6.67815E-04-9.59953E-16
 -1      1336 2.27534E-03-6.23451E-04-7.94720E-16
 -1      1337 2.62555E-03-6.72223E-04-1.08244E-15
 -1      1338 2.76341E-03-6.75702E-04-1.21158E-15
 -1      1339 2.55140E-03-6.34313E-04-1.02270E-15
 -1      1340 2.90171E-03-6.78393E-04-1.34774E-15
 -1      1341 3.04043E-03-6.80429E-04-1.49106E-15
 -1      1342 2.82874E-03-6.41101E-04-1.27958E-15
 -1      1343 3.17955E-03-6.81913E-04-1.64087E-15
 -1      1344 3.31905E-03-6.82947E-04-1.79727E-15
 -1      1345 3.10739E-03-6.45006E-04-1.56366E-15
 -1      1346 3.45890E-03-6.83603E-04-1.96142E-15
 -1      1347 3.59908E-03-6.83960E-04-2.13394E-15
 -1      1348 3.38728E-03-6.46918E-04-1.87570E-15
 -1      1349 3.73956E-03-6.84067E-04-2.31408E-15
 -1      1350 3.88032E-03-6.83983E-04-2.50212E-15
 -1      1351 3.66829E-03-6.47493E-04-2.21798E-15
 -1      1352 4.02133E-03-6.83741E-04-2.69954E-15
 -1      1353 4.16257E-03-6.83383E-04-2.90542E-15
 -1      1354 3.95027E-03-6.47206E-04-2.59435E-15
 -1      1355 4.30402E-03-6.82930E-04-3.12193E-15
 -1      1356 4.44565E-03-6.82413E-04-3.34811E-15
 -1      1357 4.23307E-03-6.46390E-04-3.00565E-15
 -1      1358 4.58744E-03-6.81842E-04-3.58441E-15
 -1      1359 4.72939E-03-6.81240E-04-3.83370E-15
 -1      1360 4.51655E-03-6.45273E-04-3.45595E-15
 -1      1361 4.87146E-03-6.80610E-04-4.09244E-15
 -1      1362 5.01366E-03-6.79966E-04-4.36042E-15
 -1      1363 4.80059E-03-6.44000E-04-3.94762E-15
 -1      1364 5.15596E-03-6.79308E-04-4.63852E-15
 -1      1365 5.29835E-03-6.78643E-04-4.92511E-15
 -1      1366 5.08508E-03-6.42657E-04-4.48068E-15
 -1      1367 5.44084E-03-6.77967E-04-5.21999E-15
 -1      1368 5.58339E-03-6.77284E-04-5.52298E-15
 -1      1369 5.36994E-03-6.41281E-04-5.04847E-15
 -1      1370 5.72603E-03-6.76585E-04-5.83444E-15
 -1      1371 5.86873E-03-6.75872E-04-6.15457E-15
 -1      1372 5.65511E-03-6.39875E-04-5.65035E-15
 -1      1373 6.01150E-03-6.75133E-04-6.48147E-15
 -1      1374 6.15434E-03-6.74366E-04-6.81650E-15
 -1      1375 5.94056E-03-6.38411E-04-6.28454E-15
 -1      1376 6.29725E-03-6.73554E-04-7.16008E-15
 -1      1377 6.44025E-03-6.72695E-04-7.51028E-15
 -1      1378 6.22629E-03-6.36836E-04-6.95129E-15
 -1      1379 6.58333E-03-6.71767E-04-7.87017E-15
 -1      1380 6.72652E-03-6.70766E-04-8.24030E-15
 -1      1381 6.51233E-03-6.35069E-04-7.65241E-15
 -1      1382 6.86984E-03-6.69661E-04-8.61910E-15
 -1      1383 7.01331E-03-6.68451E-04-9.00834E-15
 -1      1384 6.79876E-03-6.33001E-04-8.38859E-15
 -1      1385 7.15697E-03-6.67090E-04-9.40612E-15
 -1      1386 7.30086E-03-6.65583E-04-9.80951E-15
 -1      1387 7.08573E-03-6.30484E-04-9.16133E-15
 -1      1388 7.44504E-03-6.63866E-04-1.02219E-14
 -1      1389 7.58959E-03-6.61953E-04-1.06437E-14
 -1      1390 7.37351E-03-6.27325E-04-9.96588E-15
 -1      1391 7.73459E-03-6.59754E-04-1.10723E-14
 -1      1392 7.88018E-03-6.57308E-04-1.15083E-14
 -1      1393 7.66250E-03-6.23279E-04-1.08032E-14
 -1      1394 8.02650E-03-6.54485E-04-1.19483E-14
 -1      1395 8.17375E-03-6.51373E-04-1.23926E-14
 -1      1396 7.95335E-03-6.18045E-04-1.16672E-14
 -1      1397 8.32216E-03-6.47798E-04-1.28402E-14
 -1      1398 8.47206E-03-6.43934E-04-1.32937E-14
 -1      1399 8.24706E-03-6.11294E-04-1.25527E-14
 -1      1400 8.62380E-03-6.39576E-04-1.37539E-14
 -1      1401 8.77791E-03-6.35057E-04-1.42173E-14
 -1      1402 8.54517E-03-6.02768E-04-1.34585E-14
 -1      1403 8.93493E-03-6.30199E-04-1.46868E-14
 -1      1404 9.09566E-03-6.25631E-04-1.51626E-14
 -1      1405 8.84998E-03-5.92541E-04-1.43853E-14
 -1      1406 9.26090E-03-6.21397E-04-1.56394E-14
 -1      1407 9.43183E-03-6.18681E-04-1.61199E-14
 -1      1408 9.16481E-03-5.81702E-04-1.53302E-14
 -1      1409 9.60953E-03-6.18257E-04-1.66017E-14
 -1      1410 9.79561E-03-6.22392E-04-1.70827E-14
 -1      1411 9.49424E-03-5.73956E-04-1.62857E-14
 -1      1412 9.99141E-03-6.33673E-04-1.75661E-14
 -1      1413 1.01988E-02-6.56535E-04-1.80514E-14
 -1      1414 9.84418E-03-5.79235E-04-1.72480E-14
 -1      1415 1.04190E-02-6.97098E-04-1.85371E-14
 -1      1416 1.06536E-02-7.64039E-04-1.90237E-14
 -1      1417 1.02220E-02-6.21030E-04-1.82158E-14
 -1      1418 1.08902E-02-8.61482E-04-1.94899E-14
 -1      1419 1.11393E-02-1.00446E-03-1.99575E-14
 -1      1420 1.06262E-02-7.43818E-04-1.91662E-14
 -1      1421 1.13861E-02-1.18920E-03-2.04044E-14
 -1      1422 1.16367E-02-1.43123E-03-2.08566E-14
 -1      1423 1.10533E-02-1.00679E-03-2.00812E-14
 -1      1424 1.18887E-02-1.72379E-03-2.13199E-14
 -1      1425 1.21300E-02-2.05395E-03-2.17891E-14
 -1      1426 1.15171E-02-1.47329E-03-2.09952E-14
 -1      1427 1.27210E-02-2.83480E-03-2.31967E-14
 -1      1428 1.29117E-02-2.89376E-03-2.37319E-14
 -1      1429 1.34833E-02-2.42609E-03-2.52064E-14
 -1      1430 1.37074E-02-2.21083E-03-2.56781E-14
 -1      1431 1.39433E-02-2.02419E-03-2.61445E-14
 -1      1432 1.41811E-02-1.88223E-03-2.66069E-14
 -1      1433 1.39430E-02-2.04474E-03-2.58363E-14
 -1      1434 1.44564E-02-1.77823E-03-2.71470E-14
 -1      1435 1.47205E-02-1.73330E-03-2.76849E-14
 -1      1436 1.44263E-02-1.75261E-03-2.68438E-14
 -1      1437 1.49696E-02-1.73813E-03-2.82197E-14
 -1      1438 1.52029E-02-1.77906E-03-2.87493E-14
 -1      1439 1.48991E-02-1.67832E-03-2.79192E-14
 -1      1440 1.54203E-02-1.84512E-03-2.92865E-14
 -1      1441 1.56233E-02-1.92779E-03-2.98331E-14
 -1      1442 1.53196E-02-1.76927E-03-2.89920E-14
 -1      1443 1.58134E-02-2.02027E-03-3.03846E-14
 -1      1444 1.59921E-02-2.11810E-03-3.09432E-14
 -1      1445 1.56962E-02-1.93995E-03-3.00870E-14
 -1      1446 1.61613E-02-2.21766E-03-3.15092E-14
 -1      1447 1.63223E-02-2.31631E-03-3.20835E-14
 -1      1448 1.60384E-02-2.13898E-03-3.12053E-14
 -1      1449 1.64768E-02-2.41207E-03-3.26633E-14
 -1      1450 1.66262E-02-2.50333E-03-3.32478E-14
 -1      1451 1.63546E-02-2.33830E-03-3.23522E-14
 -1      1452 1.67177E-02-2.55824E-03-3.36385E-14
 -1      1453 1.68544E-02-2.63659E-03-3.41928E-14
 -1      1454 1.67798E-02-2.59621E-03-3.41061E-14
 -1      1455 1.65983E-02-2.48996E-03-3.33236E-14
 -1      1456 6.43126E-04 3.71967E-04 4.62141E-17
 -1      1457 4.92982E-04 3.03648E-04 3.65512E-17
 -1      1458 4.44912E-04 2.65847E-04 2.95039E-17
 -1      1459 9.28756E-04 4.71925E-04 5.78015E-17
 -1      1460 7.87880E-04 4.26439E-04 5.35731E-17
 -1      1461 7.44818E-04 3.90656E-04 4.26498E-17
 -1      1462 1.20369E-03 5.41293E-04 5.61888E-17
 -1      1463 1.06700E-03 5.09626E-04 5.88857E-17
 -1      1464 1.03089E-03 4.76056E-04 4.42354E-17
 -1      1465 1.47431E-03 5.90473E-04 3.74321E-17
 -1      1466 1.33922E-03 5.68010E-04 4.92092E-17
 -1      1467 1.30886E-03 5.35835E-04 3.06829E-17
 -1      1468 1.74393E-03 6.25370E-04-2.07354E-18
 -1      1469 1.60907E-03 6.09461E-04 2.04237E-17
 -1      1470 1.58316E-03 5.78126E-04-1.84314E-18
 -1      1471 2.01423E-03 6.49849E-04-6.28702E-17
 -1      1472 1.87891E-03 6.38737E-04-2.98562E-17
 -1      1473 1.85641E-03 6.07867E-04-5.48877E-17
 -1      1474 2.28603E-03 6.66663E-04-1.46218E-16
 -1      1475 2.14990E-03 6.59083E-04-1.01359E-16
 -1      1476 2.13002E-03 6.28446E-04-1.29915E-16
 -1      1477 2.55964E-03 6.77862E-04-2.56251E-16
 -1      1478 2.42259E-03 6.72864E-04-1.97921E-16
 -1      1479 2.40469E-03 6.42320E-04-2.29810E-16
 -1      1480 2.83513E-03 6.84997E-04-3.95259E-16
 -1      1481 2.69715E-03 6.81862E-04-3.21927E-16
 -1      1482 2.68074E-03 6.51324E-04-3.56892E-16
 -1      1483 3.11240E-03 6.89240E-04-5.65574E-16
 -1      1484 2.97355E-03 6.87424E-04-4.76534E-16
 -1      1485 2.95823E-03 6.56844E-04-5.14088E-16
 -1      1486 3.39127E-03 6.91470E-04-7.65284E-16
 -1      1487 3.25164E-03 6.90565E-04-6.61675E-16
 -1      1488 3.23713E-03 6.59917E-04-7.01126E-16
 -1      1489 3.67154E-03 6.92338E-04-9.97019E-16
 -1      1490 3.53124E-03 6.92044E-04-8.76862E-16
 -1      1491 3.51730E-03 6.61317E-04-9.19051E-16
 -1      1492 3.95300E-03 6.92319E-04-1.25908E-15
 -1      1493 3.81214E-03 6.92418E-04-1.12413E-15
 -1      1494 3.79859E-03 6.61610E-04-1.16778E-15
 -1      1495 4.23545E-03 6.91748E-04-1.54984E-15
 -1      1496 4.09411E-03 6.92087E-04-1.40037E-15
 -1      1497 4.08084E-03 6.61204E-04-1.44635E-15
 -1      1498 4.51871E-03 6.90859E-04-1.87248E-15
 -1      1499 4.37699E-03 6.91333E-04-1.70702E-15
 -1      1500 4.36389E-03 6.60382E-04-1.75554E-15
 -1      1501 4.80262E-03 6.89808E-04-2.22908E-15
 -1      1502 4.66059E-03 6.90347E-04-2.04722E-15
 -1      1503 4.64760E-03 6.59336E-04-2.09732E-15
 -1      1504 5.08705E-03 6.88692E-04-2.61759E-15
 -1      1505 4.94478E-03 6.89254E-04-2.41887E-15
 -1      1506 4.93185E-03 6.58191E-04-2.47204E-15
 -1      1507 5.37191E-03 6.87572E-04-3.04264E-15
 -1      1508 5.22943E-03 6.88130E-04-2.82567E-15
 -1      1509 5.21654E-03 6.57024E-04-2.88016E-15
 -1      1510 5.65712E-03 6.86484E-04-3.50312E-15
 -1      1511 5.51447E-03 6.87022E-04-3.26784E-15
 -1      1512 5.50159E-03 6.55878E-04-3.32412E-15
 -1      1513 5.94262E-03 6.85452E-04-4.00022E-15
 -1      1514 5.79983E-03 6.85959E-04-3.74719E-15
 -1      1515 5.78693E-03 6.54781E-04-3.80407E-15
 -1      1516 6.22839E-03 6.84501E-04-4.53510E-15
 -1      1517 6.08548E-03 6.84964E-04-4.26312E-15
 -1      1518 6.07255E-03 6.53755E-04-4.32183E-15
 -1      1519 6.51441E-03 6.83669E-04-5.10369E-15
 -1      1520 6.37137E-03 6.84067E-04-4.81546E-15
 -1      1521 6.35839E-03 6.52826E-04-4.87606E-15
 -1      1522 6.80066E-03 6.83017E-04-5.70994E-15
 -1      1523 6.65751E-03 6.83315E-04-5.40200E-15
 -1      1524 6.64446E-03 6.52043E-04-5.46450E-15
 -1      1525 7.08712E-03 6.82643E-04-6.35370E-15
 -1      1526 6.94386E-03 6.82789E-04-6.02674E-15
 -1      1527 6.93072E-03 6.51481E-04-6.08990E-15
 -1      1528 7.37371E-03 6.82690E-04-7.03579E-15
 -1      1529 7.23040E-03 6.82606E-04-6.68916E-15
 -1      1530 7.21713E-03 6.51261E-04-6.75444E-15
 -1      1531 7.66034E-03 6.83348E-04-7.75894E-15
 -1      1532 7.51703E-03 6.82934E-04-7.39285E-15
 -1      1533 7.50361E-03 6.51555E-04-7.45855E-15
 -1      1534 7.94677E-03 6.84850E-04-8.52688E-15
 -1      1535 7.80359E-03 6.83987E-04-8.13726E-15
 -1      1536 7.79002E-03 6.52582E-04-8.20479E-15
 -1      1537 8.23263E-03 6.87437E-04-9.33764E-15
 -1      1538 8.08979E-03 6.86008E-04-8.92655E-15
 -1      1539 8.07609E-03 6.54601E-04-8.99160E-15
 -1      1540 8.51734E-03 6.91297E-04-1.01926E-14
 -1      1541 8.37517E-03 6.89223E-04-9.76081E-15
 -1      1542 8.36143E-03 6.57859E-04-9.82280E-15
 -1      1543 8.80008E-03 6.96447E-04-1.10808E-14
 -1      1544 8.65902E-03 6.93751E-04-1.06320E-14
 -1      1545 8.64543E-03 6.62511E-04-1.06920E-14
 -1      1546 9.07971E-03 7.02553E-04-1.20124E-14
 -1      1547 8.94036E-03 6.99459E-04-1.15419E-14
 -1      1548 8.92726E-03 6.68469E-04-1.15997E-14
 -1      1549 9.35485E-03 7.08693E-04-1.29902E-14
 -1      1550 9.21794E-03 7.05750E-04-1.24955E-14
 -1      1551 9.20586E-03 6.75194E-04-1.25507E-14
 -1      1552 9.62396E-03 7.13077E-04-1.40025E-14
 -1      1553 9.49026E-03 7.11300E-04-1.34915E-14
 -1      1554 9.48000E-03 6.81426E-04-1.35415E-14
 -1      1555 9.88550E-03 7.12813E-04-1.50497E-14
 -1      1556 9.75577E-03 7.13789E-04-1.45221E-14
 -1      1557 9.74834E-03 6.84898E-04-1.45673E-14
 -1      1558 1.01383E-02 7.03802E-04-1.61236E-14
 -1      1559 1.00131E-02 7.09718E-04-1.55833E-14
 -1      1560 1.00097E-02 6.82139E-04-1.56226E-14
 -1      1561 1.03820E-02 6.80927E-04-1.72203E-14
 -1      1562 1.02613E-02 6.94437E-04-1.66697E-14
 -1      1563 1.02634E-02 6.68473E-04-1.67031E-14
 -1      1564 1.06172E-02 6.38595E-04-1.83319E-14
 -1      1565 1.05006E-02 6.62502E-04-1.77750E-14
 -1      1566 1.05094E-02 6.38363E-04-1.78019E-14
 -1      1567 1.08457E-02 5.71635E-04-1.94443E-14
 -1      1568 1.07321E-02 6.08411E-04-1.88884E-14
 -1      1569 1.07488E-02 5.86151E-04-1.89092E-14
 -1      1570 1.10704E-02 4.76329E-04-2.05508E-14
 -1      1571 1.09583E-02 5.27600E-04-1.99991E-14
 -1      1572 1.09835E-02 5.07076E-04-2.00156E-14
 -1      1573 1.12950E-02 3.51261E-04-2.16545E-14
 -1      1574 1.11825E-02 4.17426E-04-2.11030E-14
 -1      1575 1.12163E-02 3.98305E-04-2.11182E-14
 -1      1576 1.15231E-02 1.97659E-04-2.27441E-14
 -1      1577 1.14084E-02 2.77791E-04-2.22012E-14
 -1      1578 1.14505E-02 2.59613E-04-2.22141E-14
 -1      1579 1.17579E-02 1.91042E-05-2.38264E-14
 -1      1580 1.16395E-02 1.11166E-04-2.32862E-14
 -1      1581 1.16889E-02 9.34322E-05-2.33018E-14
 -1      1582 1.20013E-02-1.79260E-04-2.49015E-14
 -1      1583 1.18784E-02-7.79753E-05-2.43655E-14
 -1      1584 1.19339E-02-9.57166E-05-2.43832E-14
 -1      1585 1.22543E-02-3.91685E-04-2.59742E-14
 -1      1586 1.21266E-02-2.84075E-04-2.54386E-14
 -1      1587 1.21867E-02-3.02172E-04-2.54585E-14
 -1      1588 1.25167E-02-6.12604E-04-2.70460E-14
 -1      1589 1.23843E-02-5.01398E-04-2.65098E-14
 -1      1590 1.24475E-02-5.20081E-04-2.65310E-14
 -1      1591 1.27875E-02-8.37059E-04-2.81091E-14
 -1      1592 1.26511E-02-7.24651E-04-2.75779E-14
 -1      1593 1.27160E-02-7.44051E-04-2.75985E-14
 -1      1594 1.30654E-02-1.06081E-03-2.91717E-14
 -1      1595 1.29257E-02-9.49229E-04-2.86409E-14
 -1      1596 1.29911E-02-9.69403E-04-2.86641E-14
 -1      1597 1.33482E-02-1.28058E-03-3.02393E-14
 -1      1598 1.32063E-02-1.17130E-03-2.97054E-14
 -1      1599 1.32715E-02-1.19224E-03-2.97308E-14
 -1      1600 1.35240E-02-1.40399E-03-3.08185E-14
 -1      1601 1.37953E-02-1.52028E-03-3.11315E-14
 -1      1602 1.36925E-02-1.47685E-03-3.10221E-14
 -1      1603 1.39984E-02-1.61021E-03-3.13422E-14
 -1      1604 1.38972E-02-1.56468E-03-3.12369E-14
 -1      1605 1.37222E-02-1.44909E-03-3.07159E-14
 -1      1606 1.42016E-02-1.70496E-03-3.15428E-14
 -1      1607 1.40997E-02-1.65697E-03-3.14440E-14
 -1      1608 1.39241E-02-1.53977E-03-3.09201E-14
 -1      1609 1.44102E-02-1.80412E-03-3.17530E-14
 -1      1610 1.43049E-02-1.75407E-03-3.16444E-14
 -1      1611 1.41275E-02-1.63446E-03-3.11264E-14
 -1      1612 1.46252E-02-1.90401E-03-3.19750E-14
 -1      1613 1.45162E-02-1.85393E-03-3.18628E-14
 -1      1614 1.43359E-02-1.73156E-03-3.13379E-14
 -1      1615 1.48574E-02-2.00473E-03-3.22073E-14
 -1      1616 1.47395E-02-1.95474E-03-3.20912E-14
 -1      1617 1.45558E-02-1.83000E-03-3.15580E-14
 -1      1618 1.51037E-02-2.10011E-03-3.24252E-14
 -1      1619 1.49789E-02-2.05339E-03-3.23174E-14
 -1      1620 1.47920E-02-1.92768E-03-3.17773E-14
 -1      1621 1.53605E-02-2.18538E-03-3.26364E-14
 -1      1622 1.52312E-02-2.14429E-03-3.25317E-14
 -1      1623 1.50425E-02-2.02001E-03-3.19901E-14
 -1      1624 1.56193E-02-2.25674E-03-3.28317E-14
 -1      1625 1.54903E-02-2.22295E-03-3.27378E-14
 -1      1626 1.53025E-02-2.10315E-03-3.21971E-14
 -1      1627 1.58680E-02-2.31295E-03-3.30267E-14
 -1      1628 1.57457E-02-2.28667E-03-3.29259E-14
 -1      1629 1.55623E-02-2.17420E-03-3.23933E-14
 -1      1630 1.60893E-02-2.35602E-03-3.32293E-14
 -1      1631 1.59822E-02-2.33567E-03-3.31289E-14
 -1      1632 1.58063E-02-2.23212E-03-3.25853E-14
 -1      1633 1.62816E-02-2.39407E-03-3.34345E-14
 -1      1634 1.61899E-02-2.37523E-03-3.33334E-14
 -1      1635 1.60234E-02-2.28021E-03-3.27815E-14
 -1      1636 1.64401E-02-2.43551E-03-3.36119E-14
 -1      1637 1.63647E-02-2.41377E-03-3.35276E-14
 -1      1638 1.62068E-02-2.32474E-03-3.29690E-14
 -1      1639 1.65763E-02-2.48883E-03-3.37810E-14
 -1      1640 1.65099E-02-2.46030E-03-3.36959E-14
 -1      1641 1.63567E-02-2.37310E-03-3.31433E-14
 -1      1642 1.67096E-02-2.55768E-03-3.39836E-14
 -1      1643 1.66419E-02-2.52196E-03-3.39010E-14
 -1      1644 1.64877E-02-2.43375E-03-3.33501E-14
 -1      1645 1.66197E-02-2.50567E-03-3.35926E-14
 -1      1646 1.49706E-02-1.21455E-03-2.55117E-14
 -1      1647 1.50711E-02-1.26993E-03-2.56031E-14
 -1      1648 1.46495E-02-1.05387E-03-2.51892E-14
 -1      1649 1.48123E-02-1.12747E-03-2.53375E-14
 -1      1650 1.42516E-02-8.63393E-04-2.48009E-14
 -1      1651 1.44415E-02-9.51365E-04-2.49807E-14
 -1      1652 1.38013E-02-6.47350E-04-2.43634E-14
 -1      1653 1.40138E-02-7.50288E-04-2.45708E-14
 -1      1654 1.33232E-02-4.08284E-04-2.38321E-14
 -1      1655 1.35506E-02-5.17277E-04-2.40844E-14
 -1      1656 1.28163E-02-1.95442E-04-2.32464E-14
 -1      1657 1.30363E-02-2.91368E-04-2.35263E-14
 -1      1658 1.23958E-02-5.50765E-05-2.26598E-14
 -1      1659 1.25881E-02-1.09430E-04-2.29205E-14
 -1      1660 1.19611E-02 1.21582E-05-2.20564E-14
 -1      1661 1.21600E-02-6.13238E-06-2.23355E-14
 -1      1662 1.15420E-02-1.19522E-05-2.14832E-14
 -1      1663 1.17305E-02 1.08518E-05-2.17330E-14
 -1      1664 1.11199E-02-1.07283E-04-2.10049E-14
 -1      1665 1.13097E-02-5.71454E-05-2.12206E-14
 -1      1666 1.07296E-02-2.29539E-04-2.06207E-14
 -1      1667 1.09023E-02-1.70624E-04-2.07878E-14
 -1      1668 1.03639E-02-3.75570E-04-2.02828E-14
 -1      1669 1.05349E-02-3.09633E-04-2.04184E-14
 -1      1670 1.00540E-02-4.98375E-04-2.01029E-14
 -1      1671 1.01831E-02-4.43235E-04-2.01736E-14
 -1      1672 9.84761E-03-6.08929E-04-2.00197E-14
 -1      1673 9.93009E-03-5.62149E-04-2.00370E-14
 -1      1674 9.76455E-03-7.07279E-04-2.00824E-14
 -1      1675 9.78662E-03-6.60462E-04-2.00539E-14
 -1      1676 9.81786E-03-8.25699E-04-2.02295E-14
 -1      1677 9.77569E-03-7.67769E-04-2.01475E-14
 -1      1678 1.00359E-02-9.90375E-04-2.04953E-14
 -1      1679 9.91321E-03-9.01864E-04-2.03426E-14
 -1      1680 1.03858E-02-1.25244E-03-2.09005E-14
 -1      1681 1.02086E-02-1.12778E-03-2.07171E-14
 -1      1682 1.09111E-02-1.61498E-03-2.13815E-14
 -1      1683 1.06530E-02-1.42165E-03-2.11358E-14
 -1      1684 1.14467E-02-2.05547E-03-2.19397E-14
 -1      1685 1.11972E-02-1.85872E-03-2.16892E-14
 -1      1686 1.20326E-02-2.47106E-03-2.25352E-14
 -1      1687 1.17695E-02-2.28376E-03-2.22488E-14
 -1      1688 1.25567E-02-2.72101E-03-2.31335E-14
 -1      1689 1.23203E-02-2.63528E-03-2.28653E-14
 -1      1690 1.30408E-02-2.73367E-03-2.36668E-14
 -1      1691 1.28217E-02-2.75526E-03-2.34300E-14
 -1      1692 1.35216E-02-2.54682E-03-2.42023E-14
 -1      1693 1.32968E-02-2.65527E-03-2.39635E-14
 -1      1694 1.40032E-02-2.25087E-03-2.46627E-14
 -1      1695 1.37880E-02-2.39289E-03-2.44583E-14
 -1      1696 1.44306E-02-1.97334E-03-2.50311E-14
 -1      1697 1.42475E-02-2.09746E-03-2.48670E-14
 -1      1698 1.47755E-02-1.73156E-03-2.53509E-14
 -1      1699 1.46225E-02-1.83471E-03-2.52190E-14
 -1      1700 1.50276E-02-1.55195E-03-2.55567E-14
 -1      1701 1.49261E-02-1.62788E-03-2.54772E-14
 -1      1702 1.51470E-02-1.42594E-03-2.56384E-14
 -1      1703 1.51088E-02-1.48041E-03-2.56077E-14
 -1      1704 1.51360E-02-1.32057E-03-2.56139E-14
 -1      1705 1.51568E-02-1.36715E-03-2.56407E-14
 -1      1706 1.20166E-02-2.10089E-03-2.18920E-14
 -1      1707 1.23590E-02-2.36054E-03-2.22221E-14
 -1      1708 1.25375E-02-2.62018E-03-2.26612E-14
 -1      1709 1.25037E-02-2.69138E-03-2.28553E-14
 -1      1710 1.51107E-02-1.32511E-03-2.58379E-14
 -1      1711 1.30838E-02-2.81587E-03-2.42578E-14
 -1      1712 1.32676E-02-2.64714E-03-2.47364E-14
 -1      1713 1.40623E-02-8.88051E-04-2.48460E-14
 -1      1714 1.30162E-02-2.82784E-03-2.39077E-14
 -1      1715 1.35886E-02-1.42552E-03-3.08473E-14
 -1      1716 1.35171E-02-1.35334E-03-3.04381E-14
 -1      1717 1.48847E-02-1.24567E-03-2.56601E-14
 -1      1718 1.45098E-02-1.09189E-03-2.52836E-14
 -1      1719 1.35867E-02-6.38092E-04-2.43343E-14
 -1      1720 1.30839E-02-3.73374E-04-2.37480E-14
 -1      1721 1.26409E-02-1.45966E-04-2.31151E-14
 -1      1722 1.22380E-02-2.43196E-06-2.24642E-14
 -1      1723 1.18525E-02 3.97555E-05-2.18192E-14
 -1      1724 1.14689E-02-2.46100E-05-2.12350E-14
 -1      1725 1.10699E-02-1.53661E-04-2.07585E-14
 -1      1726 1.06788E-02-3.09098E-04-2.03438E-14
 -1      1727 1.03099E-02-4.57063E-04-2.00370E-14
 -1      1728 1.00028E-02-5.71542E-04-1.98637E-14
 -1      1729 9.81185E-03-6.49178E-04-1.98323E-14
 -1      1730 9.76085E-03-7.19845E-04-1.99318E-14
 -1      1731 9.87209E-03-8.09101E-04-2.01083E-14
 -1      1732 1.01553E-02-9.67574E-04-2.04371E-14
 -1      1733 1.06044E-02-1.24548E-03-2.08895E-14
 -1      1734 1.11563E-02-1.65085E-03-2.14264E-14
 -1      1735 1.17348E-02-2.14051E-03-2.20388E-14
 -1      1736 1.22595E-02-2.57075E-03-2.26761E-14
 -1      1737 1.27069E-02-2.78079E-03-2.33066E-14
 -1      1738 1.31375E-02-2.72469E-03-2.39040E-14
 -1      1739 1.35751E-02-2.46392E-03-2.44581E-14
 -1      1740 1.40404E-02-2.13168E-03-2.49196E-14
 -1      1741 1.44649E-02-1.83987E-03-2.53096E-14
 -1      1742 1.48170E-02-1.61827E-03-2.56195E-14
 -1      1743 1.50607E-02-1.47894E-03-2.57931E-14
 -1      1744 1.51610E-02-1.39102E-03-2.58451E-14
 -1      1745 2.77627E-04-1.72083E-04-1.24141E-17
 -1      1746 1.34719E-02-2.48118E-03-2.48988E-14
 -1      1747 3.32167E-04-1.16787E-04-3.15096E-17
 -1      1748 3.36275E-04-1.32999E-04-3.06694E-17
 -1      1749 3.42239E-04-1.52010E-04-2.90566E-17
 -1      1750 3.51794E-04-1.74040E-04-2.64410E-17
 -1      1751 4.58352E-04-1.88097E-04-4.47911E-17
 -1      1752 3.24552E-04-6.53647E-05-3.12657E-17
 -1      1753 3.25705E-04-7.66580E-05-3.17400E-17
 -1      1754 3.23055E-04-4.38759E-05-2.96394E-17
 -1      1755 3.23711E-04-5.43615E-05-3.06016E-17
 -1      1756 4.36490E-04-7.92692E-05-4.58346E-17
 -1      1757 3.22265E-04-2.37685E-05-2.75116E-17
 -1      1758 3.22599E-04-3.36760E-05-2.86094E-17
 -1      1759 4.34484E-04-5.13044E-05-4.33410E-17
 -1      1760 3.21969E-04-4.34773E-06-2.53432E-17
 -1      1761 3.22067E-04-1.39930E-05-2.64816E-17
 -1      1762 4.33458E-04-2.49252E-05-4.03188E-17
 -1      1763 3.22092E-04 1.49557E-05-2.21042E-17
 -1      1764 3.21977E-04 5.30053E-06-2.38660E-17
 -1      1765 4.33158E-04 7.38333E-07-3.67816E-17
 -1      1766 3.22660E-04 3.46910E-05-1.89329E-17
 -1      1767 3.22307E-04 2.47517E-05-2.06134E-17
 -1      1768 4.33515E-04 2.64302E-05-3.24041E-17
 -1      1769 3.23794E-04 5.51170E-05-1.47858E-17
 -1      1770 3.23128E-04 4.47598E-05-1.70355E-17
 -1      1771 4.34596E-04 5.26689E-05-2.74032E-17
 -1      1772 3.25856E-04 7.77598E-05-9.92045E-18
 -1      1773 3.24656E-04 6.61829E-05-1.26310E-17
 -1      1774 4.36659E-04 8.05354E-05-2.15079E-17
 -1      1775 3.29557E-04 1.03589E-04-3.71339E-18
 -1      1776 3.27397E-04 9.02458E-05-7.11508E-18
 -1      1777 4.40312E-04 1.11500E-04-1.44199E-17
 -1      1778 3.36649E-04 1.35073E-04 4.35036E-18
 -1      1779 3.32473E-04 1.18545E-04 0.00000E+00
 -1      1780 4.46831E-04 1.47270E-04-5.17707E-18
 -1      1781 3.52285E-04 1.77521E-04 1.45690E-17
 -1      1782 3.42811E-04 1.54680E-04 9.02598E-18
 -1      1783 4.59314E-04 1.91364E-04 6.57298E-18
 -1      1784 4.07707E-04 2.33628E-04 2.40557E-17
 -1      1785 3.78096E-04 2.02611E-04 1.87431E-17
 -1      1786 4.95881E-04 2.43943E-04 1.84450E-17
 -1      1787 5.58572E-04 3.02441E-04 3.02357E-17
 -1      1788 3.32503E-04-1.87236E-04-2.00035E-17
 -1      1789 8.53682E-04 4.07018E-04 3.54263E-17
 -1      1790 7.07231E-04 3.59273E-04 3.43014E-17
 -1      1791 6.73480E-04 3.28712E-04 2.66849E-17
 -1      1792 7.92815E-04-3.69592E-04-8.91079E-17
 -1      1793 9.38292E-04-4.11488E-04-1.23775E-16
 -1      1794 1.08130E-03-4.46767E-04-1.65232E-16
 -1      1795 1.22313E-03-4.76159E-04-2.13412E-16
 -1      1796 9.89716E-04-3.94443E-04-1.48969E-16
 -1      1797 1.36364E-03-5.01065E-04-2.68096E-16
 -1      1798 1.50343E-03-5.21793E-04-3.29665E-16
 -1      1799 1.27563E-03-4.53379E-04-2.44975E-16
 -1      1800 1.64266E-03-5.39281E-04-3.98241E-16
 -1      1801 1.78156E-03-5.53770E-04-4.74271E-16
 -1      1802 1.55820E-03-4.95038E-04-3.67829E-16
 -1      1803 1.92033E-03-5.65880E-04-5.57592E-16
 -1      1804 2.05902E-03-5.75817E-04-6.47851E-16
 -1      1805 1.83893E-03-5.24114E-04-5.18723E-16
 -1      1806 2.19781E-03-5.84007E-04-7.46134E-16
 -1      1807 2.33668E-03-5.90625E-04-8.51614E-16
 -1      1808 2.11892E-03-5.44000E-04-6.98484E-16
 -1      1809 2.47575E-03-5.95971E-04-9.64493E-16
 -1      1810 2.61500E-03-6.00188E-04-1.08492E-15
 -1      1811 2.39885E-03-5.57192E-04-9.07640E-16
 -1      1812 2.75449E-03-6.03495E-04-1.21214E-15
 -1      1813 2.89420E-03-6.06005E-04-1.34610E-15
 -1      1814 2.67913E-03-5.65557E-04-1.14585E-15
 -1      1815 3.03417E-03-6.07875E-04-1.48740E-15
 -1      1816 3.17436E-03-6.09195E-04-1.63546E-15
 -1      1817 2.95999E-03-5.70494E-04-1.41257E-15
 -1      1818 3.31480E-03-6.10077E-04-1.79068E-15
 -1      1819 3.45545E-03-6.10590E-04-1.95316E-15
 -1      1820 3.24151E-03-5.73051E-04-1.70683E-15
 -1      1821 3.59632E-03-6.10813E-04-2.12406E-15
 -1      1822 3.73739E-03-6.10799E-04-2.30243E-15
 -1      1823 3.52370E-03-5.73999E-04-2.03102E-15
 -1      1824 3.87866E-03-6.10601E-04-2.48959E-15
 -1      1825 4.02009E-03-6.10258E-04-2.68556E-15
 -1      1826 3.80651E-03-5.73901E-04-2.38683E-15
 -1      1827 4.16169E-03-6.09806E-04-2.89017E-15
 -1      1828 4.30344E-03-6.09271E-04-3.10490E-15
 -1      1829 4.08990E-03-5.73154E-04-2.77649E-15
 -1      1830 4.44533E-03-6.08676E-04-3.32860E-15
 -1      1831 4.58733E-03-6.08040E-04-3.56193E-15
 -1      1832 4.37377E-03-5.72034E-04-3.20235E-15
 -1      1833 4.72946E-03-6.07375E-04-3.80623E-15
 -1      1834 4.87168E-03-6.06693E-04-4.06092E-15
 -1      1835 4.65807E-03-5.70720E-04-3.66740E-15
 -1      1836 5.01400E-03-6.05998E-04-4.32429E-15
 -1      1837 5.15641E-03-6.05298E-04-4.59741E-15
 -1      1838 4.94272E-03-5.69321E-04-4.17102E-15
 -1      1839 5.29889E-03-6.04592E-04-4.88024E-15
 -1      1840 5.44144E-03-6.03882E-04-5.16984E-15
 -1      1841 5.22768E-03-5.67891E-04-4.71343E-15
 -1      1842 5.58407E-03-6.03163E-04-5.46820E-15
 -1      1843 5.72675E-03-6.02436E-04-5.77529E-15
 -1      1844 5.51289E-03-5.66447E-04-5.28989E-15
 -1      1845 5.86950E-03-6.01690E-04-6.09109E-15
 -1      1846 6.01232E-03-6.00923E-04-6.41451E-15
 -1      1847 5.79833E-03-5.64970E-04-5.89967E-15
 -1      1848 6.15520E-03-6.00121E-04-6.74568E-15
 -1      1849 6.29814E-03-5.99281E-04-7.08587E-15
 -1      1850 6.08399E-03-5.63415E-04-6.54224E-15
 -1      1851 6.44117E-03-5.98380E-04-7.43462E-15
 -1      1852 6.58427E-03-5.97418E-04-7.79274E-15
 -1      1853 6.36988E-03-5.61711E-04-7.21889E-15
 -1      1854 6.72747E-03-5.96362E-04-8.15842E-15
 -1      1855 6.87078E-03-5.95211E-04-8.53316E-15
 -1      1856 6.65605E-03-5.59760E-04-7.93086E-15
 -1      1857 7.01422E-03-5.93924E-04-8.91842E-15
 -1      1858 7.15782E-03-5.92499E-04-9.31137E-15
 -1      1859 6.94255E-03-5.57430E-04-8.67775E-15
 -1      1860 7.30159E-03-5.90879E-04-9.71203E-15
 -1      1861 7.44561E-03-5.89067E-04-1.01194E-14
 -1      1862 7.22949E-03-5.54547E-04-9.45850E-15
 -1      1863 7.58986E-03-5.86988E-04-1.05358E-14
 -1      1864 7.73448E-03-5.84648E-04-1.09596E-14
 -1      1865 7.51702E-03-5.50892E-04-1.02718E-14
 -1      1866 7.87944E-03-5.81953E-04-1.13893E-14
 -1      1867 8.02494E-03-5.78921E-04-1.18255E-14
 -1      1868 7.80535E-03-5.46193E-04-1.11146E-14
 -1      1869 8.17092E-03-5.75439E-04-1.22680E-14
 -1      1870 8.31773E-03-5.71550E-04-1.27135E-14
 -1      1871 8.09473E-03-5.40143E-04-1.19826E-14
 -1      1872 8.46518E-03-5.67150E-04-1.31654E-14
 -1      1873 8.61387E-03-5.62318E-04-1.36227E-14
 -1      1874 8.38545E-03-5.32463E-04-1.28742E-14
 -1      1875 8.76340E-03-5.57037E-04-1.40849E-14
 -1      1876 8.91473E-03-5.51459E-04-1.45515E-14
 -1      1877 8.67779E-03-5.23078E-04-1.37850E-14
 -1      1878 9.06710E-03-5.45837E-04-1.50218E-14
 -1      1879 9.22202E-03-5.40478E-04-1.54950E-14
 -1      1880 8.97183E-03-5.12539E-04-1.47155E-14
 -1      1881 9.37815E-03-5.36308E-04-1.59721E-14
 -1      1882 9.53770E-03-5.34007E-04-1.64504E-14
 -1      1883 9.26725E-03-5.02976E-04-1.56600E-14
 -1      1884 9.69871E-03-5.35916E-04-1.69311E-14
 -1      1885 9.86413E-03-5.43746E-04-1.74132E-14
 -1      1886 9.56313E-03-5.00062E-04-1.66147E-14
 -1      1887 1.00319E-02-5.62273E-04-1.78951E-14
 -1      1888 1.02055E-02-5.96025E-04-1.83806E-14
 -1      1889 9.85865E-03-5.16871E-04-1.75762E-14
 -1      1890 1.03758E-02-6.49064E-04-1.88436E-14
 -1      1891 1.05541E-02-7.32661E-04-1.93097E-14
 -1      1892 1.01492E-02-5.77901E-04-1.85210E-14
 -1      1893 1.07350E-02-8.45775E-04-1.97568E-14
 -1      1894 1.09274E-02-1.01007E-03-2.02077E-14
 -1      1895 1.04408E-02-7.20863E-04-1.94307E-14
 -1      1896 1.47821E-02-1.26900E-03-2.57875E-14
 -1      1897 1.49435E-02-1.31677E-03-2.59554E-14
 -1      1898 1.38862E-02-9.05444E-04-2.49313E-14
 -1      1899 1.41129E-02-1.01491E-03-2.51625E-14
 -1      1900 4.51644E-04-2.33515E-04-3.42337E-17
 -1      1901 1.43996E-02-1.74281E-03-2.65047E-14
 -1      1902 1.46283E-02-1.65498E-03-2.70455E-14
 -1      1903 1.48541E-02-1.62128E-03-2.75743E-14
 -1      1904 1.50502E-02-1.64015E-03-2.81113E-14
 -1      1905 1.52369E-02-1.69228E-03-2.86500E-14
 -1      1906 1.54155E-02-1.76623E-03-2.91911E-14
 -1      1907 1.51836E-02-1.62273E-03-2.83037E-14
 -1      1908 1.55868E-02-1.85426E-03-2.97391E-14
 -1      1909 1.57535E-02-1.95122E-03-3.02949E-14
 -1      1910 1.55001E-02-1.77444E-03-2.93922E-14
 -1      1911 1.59144E-02-2.05217E-03-3.08549E-14
 -1      1912 1.60721E-02-2.15441E-03-3.14204E-14
 -1      1913 1.58055E-02-1.96837E-03-3.05020E-14
 -1      1914 1.62250E-02-2.25519E-03-3.19913E-14
 -1      1915 1.63754E-02-2.35268E-03-3.25707E-14
 -1      1916 1.61041E-02-2.17275E-03-3.16347E-14
 -1      1917 1.65285E-02-2.44998E-03-3.32020E-14
 -1      1918 1.35856E-03 5.11995E-04 1.26039E-18
 -1      1919 1.21850E-03 4.86940E-04 1.50704E-17
 -1      1920 1.63649E-03 5.50873E-04-4.13217E-17
 -1      1921 1.49778E-03 5.33211E-04-1.75641E-17
 -1      1922 1.41128E-03 4.87233E-04-3.04796E-17
 -1      1923 1.91318E-03 5.78030E-04-1.05073E-16
 -1      1924 1.77491E-03 5.65738E-04-7.03647E-17
 -1      1925 1.69197E-03 5.22760E-04-8.34429E-17
 -1      1926 2.18982E-03 5.96622E-04-1.91064E-16
 -1      1927 2.05147E-03 5.88259E-04-1.45107E-16
 -1      1928 1.97144E-03 5.47414E-04-1.57467E-16
 -1      1929 2.46706E-03 6.08976E-04-3.02587E-16
 -1      1930 2.32835E-03 6.03473E-04-2.43525E-16
 -1      1931 2.25062E-03 5.64123E-04-2.54747E-16
 -1      1932 2.74523E-03 6.16830E-04-4.42287E-16
 -1      1933 2.60603E-03 6.13384E-04-3.68764E-16
 -1      1934 2.53007E-03 5.75065E-04-3.78075E-16
 -1      1935 3.02444E-03 6.21491E-04-6.10975E-16
 -1      1936 2.88471E-03 6.19498E-04-5.22735E-16
 -1      1937 2.81011E-03 5.81871E-04-5.29362E-16
 -1      1938 3.30470E-03 6.23935E-04-8.09709E-16
 -1      1939 3.16445E-03 6.22943E-04-7.06737E-16
 -1      1940 3.09087E-03 5.85765E-04-7.10058E-16
 -1      1941 3.58594E-03 6.24881E-04-1.03955E-15
 -1      1942 3.44521E-03 6.24560E-04-9.20813E-16
 -1      1943 3.37238E-03 5.87657E-04-9.20962E-16
 -1      1944 3.86806E-03 6.24855E-04-1.30091E-15
 -1      1945 3.72691E-03 6.24964E-04-1.16624E-15
 -1      1946 3.65462E-03 5.88216E-04-1.16298E-15
 -1      1947 4.15094E-03 6.24228E-04-1.59138E-15
 -1      1948 4.00942E-03 6.24598E-04-1.44234E-15
 -1      1949 3.93751E-03 5.87924E-04-1.43597E-15
 -1      1950 4.43446E-03 6.23258E-04-1.91264E-15
 -1      1951 4.29263E-03 6.23773E-04-1.74821E-15
 -1      1952 4.22099E-03 5.87120E-04-1.73853E-15
 -1      1953 4.71852E-03 6.22116E-04-2.26814E-15
 -1      1954 4.57643E-03 6.22700E-04-2.08657E-15
 -1      1955 4.50497E-03 5.86037E-04-2.07378E-15
 -1      1956 5.00302E-03 6.20909E-04-2.65344E-15
 -1      1957 4.86072E-03 6.21515E-04-2.45637E-15
 -1      1958 4.78937E-03 5.84824E-04-2.43943E-15
 -1      1959 5.28789E-03 6.19702E-04-3.07547E-15
 -1      1960 5.14541E-03 6.20302E-04-2.86027E-15
 -1      1961 5.07412E-03 5.83576E-04-2.83851E-15
 -1      1962 5.57305E-03 6.18533E-04-3.53184E-15
 -1      1963 5.43044E-03 6.19111E-04-3.29904E-15
 -1      1964 5.35916E-03 5.82347E-04-3.27241E-15
 -1      1965 5.85848E-03 6.17422E-04-4.02533E-15
 -1      1966 5.71574E-03 6.17968E-04-3.77424E-15
 -1      1967 5.64444E-03 5.81165E-04-3.74269E-15
 -1      1968 6.14414E-03 6.16389E-04-4.55617E-15
 -1      1969 6.00128E-03 6.16894E-04-4.28554E-15
 -1      1970 5.92994E-03 5.80049E-04-4.24888E-15
 -1      1971 6.42999E-03 6.15465E-04-5.12139E-15
 -1      1972 6.28704E-03 6.15911E-04-4.83431E-15
 -1      1973 6.21563E-03 5.79019E-04-4.79175E-15
 -1      1974 6.71604E-03 6.14702E-04-5.72253E-15
 -1      1975 6.57299E-03 6.15060E-04-5.41713E-15
 -1      1976 6.50150E-03 5.78106E-04-5.36943E-15
 -1      1977 7.00225E-03 6.14188E-04-6.36286E-15
 -1      1978 6.85913E-03 6.14408E-04-6.03780E-15
 -1      1979 6.78752E-03 5.77370E-04-5.98396E-15
 -1      1980 7.28858E-03 6.14055E-04-7.03918E-15
 -1      1981 7.14540E-03 6.14066E-04-6.69618E-15
 -1      1982 7.07369E-03 5.76907E-04-6.63647E-15
 -1      1983 7.57495E-03 6.14494E-04-7.75680E-15
 -1      1984 7.43177E-03 6.14194E-04-7.39269E-15
 -1      1985 7.35997E-03 5.76865E-04-7.32652E-15
 -1      1986 7.86123E-03 6.15746E-04-8.51597E-15
 -1      1987 7.71812E-03 6.15008E-04-8.13251E-15
 -1      1988 7.64631E-03 5.77447E-04-8.05713E-15
 -1      1989 8.14718E-03 6.18086E-04-9.31514E-15
 -1      1990 8.00427E-03 6.16770E-04-8.91076E-15
 -1      1991 7.93260E-03 5.78914E-04-8.82953E-15
 -1      1992 8.43245E-03 6.21770E-04-1.01562E-14
 -1      1993 8.28995E-03 6.19755E-04-9.72996E-15
 -1      1994 8.21865E-03 5.81551E-04-9.63934E-15
 -1      1995 8.71652E-03 6.26937E-04-1.10329E-14
 -1      1996 8.57470E-03 6.24176E-04-1.05899E-14
 -1      1997 8.50421E-03 5.85618E-04-1.04889E-14
 -1      1998 8.99868E-03 6.33450E-04-1.19510E-14
 -1      1999 8.85792E-03 6.30058E-04-1.14864E-14
 -1      2000 8.78884E-03 5.91235E-04-1.13752E-14
 -1      2001 9.27801E-03 6.40657E-04-1.29105E-14
 -1      2002 9.13880E-03 6.37037E-04-1.24252E-14
 -1      2003 9.07198E-03 5.98203E-04-1.23016E-14
 -1      2004 9.55347E-03 6.47108E-04-1.39070E-14
 -1      2005 9.41634E-03 6.44102E-04-1.34042E-14
 -1      2006 9.35285E-03 6.05755E-04-1.32685E-14
 -1      2007 9.82395E-03 6.50265E-04-1.49360E-14
 -1      2008 9.68944E-03 6.49293E-04-1.44165E-14
 -1      2009 9.63052E-03 6.12251E-04-1.42710E-14
 -1      2010 1.00885E-02 6.46316E-04-1.59924E-14
 -1      2011 9.95703E-03 6.49446E-04-1.54620E-14
 -1      2012 9.90400E-03 6.14878E-04-1.53019E-14
 -1      2013 1.03465E-02 6.30233E-04-1.70727E-14
 -1      2014 1.02183E-02 6.40115E-04-1.65306E-14
 -1      2015 1.01724E-02 6.09481E-04-1.63601E-14
 -1      2016 1.05981E-02 5.96211E-04-1.81686E-14
 -1      2017 1.04730E-02 6.15806E-04-1.76190E-14
 -1      2018 1.04351E-02 5.90680E-04-1.74402E-14
 -1      2019 1.08443E-02 5.38519E-04-1.92708E-14
 -1      2020 1.07217E-02 5.70623E-04-1.87196E-14
 -1      2021 1.06923E-02 5.52404E-04-1.85323E-14
 -1      2022 1.10870E-02 4.52614E-04-2.03714E-14
 -1      2023 1.09658E-02 4.99285E-04-1.98210E-14
 -1      2024 1.09449E-02 4.88874E-04-1.96299E-14
 -1      2025 1.13287E-02 3.36178E-04-2.14718E-14
 -1      2026 1.12077E-02 3.98250E-04-2.09221E-14
 -1      2027 1.11949E-02 3.95809E-04-2.07275E-14
 -1      2028 1.15723E-02 1.89695E-04-2.25648E-14
 -1      2029 1.14500E-02 2.66565E-04-2.20193E-14
 -1      2030 1.14446E-02 2.71473E-04-2.18248E-14
 -1      2031 1.18200E-02 1.63263E-05-2.36507E-14
 -1      2032 1.16955E-02 1.06112E-04-2.31088E-14
 -1      2033 1.16965E-02 1.17126E-04-2.29156E-14
 -1      2034 1.20737E-02-1.78841E-04-2.47324E-14
 -1      2035 1.19460E-02-7.88672E-05-2.41924E-14
 -1      2036 1.19527E-02-6.33077E-05-2.40006E-14
 -1      2037 1.23339E-02-3.89844E-04-2.58087E-14
 -1      2038 1.22030E-02-2.82713E-04-2.52709E-14
 -1      2039 1.22141E-02-2.64192E-04-2.50818E-14
 -1      2040 1.26008E-02-6.10788E-04-2.68806E-14
 -1      2041 1.24666E-02-4.99396E-04-2.63452E-14
 -1      2042 1.24812E-02-4.79319E-04-2.61593E-14
 -1      2043 1.28736E-02-8.36410E-04-2.79486E-14
 -1      2044 1.27365E-02-7.23296E-04-2.74153E-14
 -1      2045 1.27536E-02-7.02829E-04-2.72312E-14
 -1      2046 1.31515E-02-1.06224E-03-2.90183E-14
 -1      2047 1.30120E-02-9.49544E-04-2.84848E-14
 -1      2048 1.30305E-02-9.29679E-04-2.83018E-14
 -1      2049 1.34043E-02-1.26418E-03-2.99957E-14
 -1      2050 1.32630E-02-1.15345E-03-2.94596E-14
 -1      2051 1.32822E-02-1.13490E-03-2.92822E-14
 -1      2052 1.35072E-02-1.31616E-03-3.01678E-14
 -1      2053 1.40534E-02-1.56187E-03-3.07134E-14
 -1      2054 1.39508E-02-1.51418E-03-3.06098E-14
 -1      2055 1.38497E-02-1.46727E-03-3.05068E-14
 -1      2056 1.37493E-02-1.42127E-03-3.04040E-14
 -1      2057 1.37749E-02-1.39337E-03-3.00909E-14
 -1      2058 1.36086E-02-1.35991E-03-3.02693E-14
 -1      2059 1.42618E-02-1.65754E-03-3.09216E-14
 -1      2060 1.41563E-02-1.60953E-03-3.08153E-14
 -1      2061 1.39773E-02-1.48738E-03-3.02961E-14
 -1      2062 1.44867E-02-1.75585E-03-3.11382E-14
 -1      2063 1.43724E-02-1.70683E-03-3.10297E-14
 -1      2064 1.41894E-02-1.58408E-03-3.05026E-14
 -1      2065 1.47270E-02-1.85252E-03-3.13505E-14
 -1      2066 1.46049E-02-1.80473E-03-3.12457E-14
 -1      2067 1.44176E-02-1.68275E-03-3.07135E-14
 -1      2068 1.49817E-02-1.94420E-03-3.15570E-14
 -1      2069 1.48528E-02-1.89936E-03-3.14530E-14
 -1      2070 1.46621E-02-1.78011E-03-3.09188E-14
 -1      2071 1.52449E-02-2.02733E-03-3.17613E-14
 -1      2072 1.51128E-02-1.98713E-03-3.16599E-14
 -1      2073 1.49212E-02-1.87279E-03-3.11217E-14
 -1      2074 1.55053E-02-2.09911E-03-3.19541E-14
 -1      2075 1.53763E-02-2.06472E-03-3.18599E-14
 -1      2076 1.51877E-02-1.95696E-03-3.13214E-14
 -1      2077 1.57445E-02-2.15798E-03-3.21433E-14
 -1      2078 1.56279E-02-2.12976E-03-3.20483E-14
 -1      2079 1.54468E-02-2.02882E-03-3.15121E-14
 -1      2080 1.59569E-02-2.20855E-03-3.23317E-14
 -1      2081 1.58553E-02-2.18384E-03-3.22381E-14
 -1      2082 1.56851E-02-2.08819E-03-3.16967E-14
 -1      2083 1.61309E-02-2.25572E-03-3.25073E-14
 -1      2084 1.60487E-02-2.23174E-03-3.24201E-14
 -1      2085 1.58900E-02-2.13833E-03-3.18739E-14
 -1      2086 1.62715E-02-2.30745E-03-3.26776E-14
 -1      2087 1.62045E-02-2.28025E-03-3.25921E-14
 -1      2088 1.60535E-02-2.18564E-03-3.20445E-14
 -1      2089 1.10813E-03 4.68531E-04 2.56549E-17
 -1      2090 9.65733E-04 4.34165E-04 3.14690E-17
 -1      2091 9.33489E-04 4.04714E-04 2.14943E-17
 -1      2092 1.15833E-03 4.47812E-04 2.69695E-18
 -1      2093 1.43641E-02-1.11653E-03-2.53869E-14
 -1      2094 1.45722E-02-1.19759E-03-2.55910E-14
 -1      2095 1.33895E-02-6.14371E-04-2.43183E-14
 -1      2096 1.36184E-02-7.51493E-04-2.46008E-14
 -1      2097 3.27211E-04-8.89637E-05-3.19433E-17
 -1      2098 3.29324E-04-1.02144E-04-3.19704E-17
 -1      2099 4.46364E-04-1.45124E-04-4.71628E-17
 -1      2100 4.40042E-04-1.09937E-04-4.72577E-17
 -1      2101 1.39377E-02-2.06486E-03-2.55306E-14
 -1      2102 1.41633E-02-1.87966E-03-2.59973E-14
 -1      2103 1.29212E-02-3.42416E-04-2.37059E-14
 -1      2104 1.31517E-02-4.76238E-04-2.40129E-14
 -1      2105 1.32232E-02-5.75538E-04-2.42767E-14
 -1      2106 1.24704E-02-8.65241E-05-2.29415E-14
 -1      2107 1.26422E-02-1.84706E-04-2.32689E-14
 -1      2108 1.21328E-02 3.51028E-05-2.22976E-14
 -1      2109 1.22969E-02-1.41777E-05-2.26203E-14
 -1      2110 1.23401E-02-4.53228E-05-2.27745E-14
 -1      2111 1.17714E-02 5.41360E-05-2.15764E-14
 -1      2112 1.19320E-02 6.33316E-05-2.18981E-14
 -1      2113 1.13870E-02-4.98627E-05-2.09401E-14
 -1      2114 1.15571E-02 9.25295E-06-2.11997E-14
 -1      2115 1.10065E-02-2.02942E-04-2.04795E-14
 -1      2116 1.11858E-02-1.25707E-04-2.06914E-14
 -1      2117 1.06390E-02-3.61845E-04-2.00815E-14
 -1      2118 1.08220E-02-2.80911E-04-2.02794E-14
 -1      2119 1.09304E-02-2.43743E-04-2.02123E-14
 -1      2120 1.02399E-02-5.17229E-04-1.97401E-14
 -1      2121 1.04108E-02-4.56444E-04-1.98465E-14
 -1      2122 9.96512E-03-6.03446E-04-1.96045E-14
 -1      2123 1.00936E-02-5.65573E-04-1.96712E-14
 -1      2124 1.01739E-02-5.44584E-04-1.94790E-14
 -1      2125 9.77585E-03-6.61432E-04-1.95959E-14
 -1      2126 9.83533E-03-6.43259E-04-1.95611E-14
 -1      2127 9.76442E-03-7.00194E-04-1.97232E-14
 -1      2128 9.75328E-03-6.82604E-04-1.96589E-14
 -1      2129 9.75718E-03-6.53149E-04-1.93869E-14
 -1      2130 9.93000E-03-7.61737E-04-1.99191E-14
 -1      2131 9.82797E-03-7.29721E-04-1.98104E-14
 -1      2132 1.02976E-02-9.51044E-04-2.03833E-14
 -1      2133 1.01120E-02-8.53320E-04-2.01683E-14
 -1      2134 1.07883E-02-1.23479E-03-2.08435E-14
 -1      2135 1.05261E-02-1.08100E-03-2.06125E-14
 -1      2136 1.14102E-02-1.71333E-03-2.14699E-14
 -1      2137 1.11411E-02-1.47294E-03-2.11682E-14
 -1      2138 1.28248E-02-2.82704E-03-2.34978E-14
 -1      2139 1.26503E-02-2.79023E-03-2.31972E-14
 -1      2140 1.42007E-02-1.92183E-03-2.54096E-14
 -1      2141 1.39990E-02-2.07417E-03-2.52076E-14
 -1      2142 1.43955E-02-1.78991E-03-2.55941E-14
 -1      2143 1.48694E-02-1.54051E-03-2.59003E-14
 -1      2144 1.47140E-02-1.61925E-03-2.57766E-14
 -1      2145 1.50993E-02-1.43509E-03-2.60624E-14
 -1      2146 1.50107E-02-1.47189E-03-2.60138E-14
 -1      2147 1.51713E-02-1.38477E-03-2.61066E-14
 -1      2148 1.51554E-02-1.40237E-03-2.61053E-14
 -1      2149 1.50866E-02-1.35577E-03-2.60978E-14
 -1      2150 1.51493E-02-1.36551E-03-2.61046E-14
 -1      2151 1.51701E-02-1.39374E-03-2.63671E-14
 -1      2152 1.31067E-02-2.77004E-03-2.40158E-14
 -1      2153 1.32738E-02-2.66094E-03-2.43151E-14
 -1      2154 1.48276E-02-1.57988E-03-2.72384E-14
 -1      2155 1.37083E-02-8.67609E-04-2.49137E-14
 -1      2156 1.42092E-02-1.11478E-03-2.54697E-14
 -1      2157 6.00628E-04-2.95438E-04-5.51317E-17
 -1      2158 6.56449E-04-2.89993E-04-7.17064E-17
 -1      2159 1.34630E-02-2.50737E-03-2.45734E-14
 -1      2160 1.37258E-02-2.26632E-03-2.50421E-14
 -1      2161 1.21591E-02-2.39232E-03-2.23383E-14
 -1      2162 1.24460E-02-2.67191E-03-2.28626E-14
 -1      2163 1.49489E-02-1.38112E-03-2.63531E-14
 -1      2164 1.50239E-02-1.36711E-03-2.62253E-14
 -1      2165 1.50865E-02-1.40158E-03-2.64939E-14
 -1      2166 1.46637E-02-1.27601E-03-2.58885E-14
 -1      2167 1.13297E-02-1.36181E-03-2.08695E-14
 -1      2168 1.15718E-02-1.66355E-03-2.13385E-14
 -1      2169 1.20468E-02-2.20139E-03-2.20505E-14
 -1      2170 1.19079E-02-2.18235E-03-2.20594E-14
 -1      2171 1.44083E-02-1.72848E-03-2.62019E-14
 -1      2172 1.64032E-02-2.37374E-03-3.28385E-14
 -1      2173 1.35353E-02-1.28571E-03-2.98564E-14
 -1      2174 1.63692E-02-2.35568E-03-3.28191E-14
 -1      2175 1.63066E-02-2.32155E-03-3.26966E-14
 -1      2176 1.61568E-02-2.22376E-03-3.21501E-14
 -1      2177 1.62200E-02-2.25450E-03-3.21883E-14
 -1      2178 1.16437E-02-1.83506E-03-2.15979E-14
 -1      2179 1.25893E-02-2.03380E-04-2.33589E-14
 -1      2180 1.27375E-02-2.67759E-04-2.35316E-14
 -1      2181 1.28280E-02-3.59855E-04-2.37963E-14
 -1      2182 1.51350E-02-1.41656E-03-2.63264E-14
 -1      2183 1.10120E-02-1.29926E-03-2.08903E-14
 -1      2184 1.04463E-02-9.53707E-04-2.03408E-14
 -1      2185 9.78923E-03-6.77496E-04-1.95352E-14
 -1      2186 9.89314E-03-6.20354E-04-1.93660E-14
 -1      2187 1.05311E-02-4.14893E-04-1.97793E-14
 -1      2188 1.12865E-02-8.51820E-05-2.06575E-14
 -1      2189 1.20125E-02 6.08269E-05-2.20543E-14
 -1      2190 1.16546E-02 4.36883E-05-2.12797E-14
 -1      2191 1.00276E-02-7.56890E-04-1.98675E-14
 -1      2192 1.49415E-02-1.48789E-03-2.61709E-14
 -1      2193 5.47744E-04-5.52961E-05-6.14336E-17
 -1      2194 5.48788E-04-7.20070E-05-6.34123E-17
 -1      2195 5.50216E-04-8.93263E-05-6.48217E-17
 -1      2196 5.52090E-04-1.07302E-04-6.61363E-17
 -1      2197 6.65251E-04-9.54822E-05-8.76035E-17
 -1      2198 5.46350E-04 8.82851E-06-5.16893E-17
 -1      2199 5.46330E-04-7.00049E-06-5.45896E-17
 -1      2200 5.47109E-04 4.08226E-05-4.56720E-17
 -1      2201 5.46606E-04 2.47565E-05-4.88162E-17
 -1      2202 6.61273E-04 1.98929E-05-6.96464E-17
 -1      2203 5.48946E-04 7.34289E-05-3.86247E-17
 -1      2204 5.47877E-04 5.69439E-05-4.23652E-17
 -1      2205 6.62607E-04 5.77298E-05-6.14878E-17
 -1      2206 5.52355E-04 1.08890E-04-3.03170E-17
 -1      2207 5.50422E-04 9.08197E-05-3.46132E-17
 -1      2208 6.65484E-04 9.71807E-05-5.19468E-17
 -1      2209 5.58248E-04 1.48223E-04-1.99764E-17
 -1      2210 5.54926E-04 1.27996E-04-2.54652E-17
 -1      2211 6.70599E-04 1.39936E-04-4.06169E-17
 -1      2212 5.68627E-04 1.93802E-04-7.12863E-18
 -1      2213 5.62723E-04 1.70106E-04-1.41082E-17
 -1      2214 6.79256E-04 1.87478E-04-2.67256E-17
 -1      2215 5.88075E-04 2.49419E-04 9.12085E-18
 -1      2216 5.76930E-04 2.20158E-04 5.69206E-19
 -1      2217 6.94272E-04 2.42401E-04-9.41901E-18
 -1      2218 6.42214E-04 3.01218E-04 2.04914E-17
 -1      2219 6.14483E-04 2.73718E-04 1.42573E-17
 -1      2220 7.31589E-04 2.97707E-04 6.20706E-18
 -1      2221 7.88672E-04 3.49596E-04 1.90142E-17
 -1      2222 9.00906E-04-3.42735E-04-1.32557E-16
 -1      2223 1.04506E-03-3.76576E-04-1.74326E-16
 -1      2224 1.18839E-03-4.05411E-04-2.22316E-16
 -1      2225 1.33127E-03-4.29681E-04-2.76905E-16
 -1      2226 1.10276E-03-3.57711E-04-2.00022E-16
 -1      2227 1.47351E-03-4.50245E-04-3.38122E-16
 -1      2228 1.61534E-03-4.67380E-04-4.05925E-16
 -1      2229 1.38916E-03-4.05226E-04-3.08781E-16
 -1      2230 1.75681E-03-4.81769E-04-4.80654E-16
 -1      2231 1.89803E-03-4.93630E-04-5.62714E-16
 -1      2232 1.67436E-03-4.39039E-04-4.43764E-16
 -1      2233 2.03909E-03-5.03467E-04-6.52026E-16
 -1      2234 2.18004E-03-5.11456E-04-7.48316E-16
 -1      2235 1.95862E-03-4.62521E-04-6.06367E-16
 -1      2236 2.32096E-03-5.17966E-04-8.52332E-16
 -1      2237 2.46187E-03-5.23141E-04-9.63300E-16
 -1      2238 2.24230E-03-4.78353E-04-7.97797E-16
 -1      2239 2.60284E-03-5.27250E-04-1.08142E-15
 -1      2240 2.74385E-03-5.30411E-04-1.20665E-15
 -1      2241 2.52575E-03-4.88604E-04-1.01812E-15
 -1      2242 2.88497E-03-5.32818E-04-1.33877E-15
 -1      2243 3.02617E-03-5.34564E-04-1.47835E-15
 -1      2244 2.80920E-03-4.94853E-04-1.26620E-15
 -1      2245 3.16749E-03-5.35791E-04-1.62446E-15
 -1      2246 3.30891E-03-5.36571E-04-1.77838E-15
 -1      2247 3.09279E-03-4.98293E-04-1.54340E-15
 -1      2248 3.45045E-03-5.37003E-04-1.93924E-15
 -1      2249 3.59210E-03-5.37143E-04-2.10816E-15
 -1      2250 3.37662E-03-4.99814E-04-1.84882E-15
 -1      2251 3.73386E-03-5.37061E-04-2.28540E-15
 -1      2252 3.87572E-03-5.36796E-04-2.47029E-15
 -1      2253 3.66070E-03-5.00067E-04-2.18486E-15
 -1      2254 4.01768E-03-5.36398E-04-2.66383E-15
 -1      2255 4.15974E-03-5.35893E-04-2.86671E-15
 -1      2256 3.94506E-03-4.99520E-04-2.55308E-15
 -1      2257 4.30189E-03-5.35313E-04-3.07825E-15
 -1      2258 4.44411E-03-5.34678E-04-3.29938E-15
 -1      2259 4.22966E-03-4.98499E-04-2.95579E-15
 -1      2260 4.58642E-03-5.34007E-04-3.53028E-15
 -1      2261 4.72879E-03-5.33311E-04-3.77121E-15
 -1      2262 4.51449E-03-4.97223E-04-3.39555E-15
 -1      2263 4.87123E-03-5.32601E-04-4.02151E-15
 -1      2264 5.01373E-03-5.31884E-04-4.28048E-15
 -1      2265 4.79952E-03-4.95829E-04-3.87364E-15
 -1      2266 5.15629E-03-5.31162E-04-4.54956E-15
 -1      2267 5.29890E-03-5.30439E-04-4.82801E-15
 -1      2268 5.08473E-03-4.94394E-04-4.38889E-15
 -1      2269 5.44156E-03-5.29711E-04-5.11345E-15
 -1      2270 5.58427E-03-5.28981E-04-5.40731E-15
 -1      2271 5.37010E-03-4.92950E-04-4.93891E-15
 -1      2272 5.72703E-03-5.28239E-04-5.71022E-15
 -1      2273 5.86983E-03-5.27486E-04-6.02146E-15
 -1      2274 5.65561E-03-4.91494E-04-5.52398E-15
 -1      2275 6.01267E-03-5.26707E-04-6.34085E-15
 -1      2276 6.15556E-03-5.25902E-04-6.66901E-15
 -1      2277 5.94126E-03-4.89995E-04-6.14160E-15
 -1      2278 6.29849E-03-5.25052E-04-7.00591E-15
 -1      2279 6.44148E-03-5.24154E-04-7.35219E-15
 -1      2280 6.22702E-03-4.88399E-04-6.79509E-15
 -1      2281 6.58451E-03-5.23184E-04-7.70614E-15
 -1      2282 6.72761E-03-5.22139E-04-8.06778E-15
 -1      2283 6.51292E-03-4.86629E-04-7.48273E-15
 -1      2284 6.87076E-03-5.20988E-04-8.43982E-15
 -1      2285 7.01399E-03-5.19725E-04-8.81986E-15
 -1      2286 6.79894E-03-4.84586E-04-8.20467E-15
 -1      2287 7.15727E-03-5.18312E-04-9.20885E-15
 -1      2288 7.30065E-03-5.16742E-04-9.60530E-15
 -1      2289 7.08507E-03-4.82144E-04-8.96048E-15
 -1      2290 7.44409E-03-5.14968E-04-1.00103E-14
 -1      2291 7.58765E-03-5.12982E-04-1.04224E-14
 -1      2292 7.37126E-03-4.79154E-04-9.74973E-15
 -1      2293 7.73125E-03-5.10732E-04-1.08411E-14
 -1      2294 7.87499E-03-5.08208E-04-1.12680E-14
 -1      2295 7.65742E-03-4.75446E-04-1.05704E-14
 -1      2296 8.01872E-03-5.05364E-04-1.17000E-14
 -1      2297 8.16259E-03-5.02185E-04-1.21386E-14
 -1      2298 7.94331E-03-4.70857E-04-1.14199E-14
 -1      2299 8.30634E-03-4.98668E-04-1.25830E-14
 -1      2300 8.45021E-03-4.94784E-04-1.30327E-14
 -1      2301 8.22845E-03-4.65291E-04-1.22932E-14
 -1      2302 8.59370E-03-4.90646E-04-1.34871E-14
 -1      2303 8.73719E-03-4.86209E-04-1.39469E-14
 -1      2304 8.51194E-03-4.58860E-04-1.31899E-14
 -1      2305 8.87983E-03-4.81854E-04-1.44106E-14
 -1      2306 9.02218E-03-4.77507E-04-1.48779E-14
 -1      2307 8.79209E-03-4.52187E-04-1.41061E-14
 -1      2308 9.16284E-03-4.74115E-04-1.53501E-14
 -1      2309 9.30266E-03-4.71583E-04-1.58235E-14
 -1      2310 9.06600E-03-4.46962E-04-1.50392E-14
 -1      2311 9.43950E-03-4.71913E-04-1.62999E-14
 -1      2312 9.57474E-03-4.75083E-04-1.67780E-14
 -1      2313 9.32894E-03-4.46933E-04-1.59852E-14
 -1      2314 9.70541E-03-4.84791E-04-1.72575E-14
 -1      2315 9.83418E-03-5.01685E-04-1.77386E-14
 -1      2316 9.57408E-03-4.59393E-04-1.69387E-14
 -1      2317 9.95153E-03-5.29858E-04-1.82007E-14
 -1      2318 1.00691E-02-5.71689E-04-1.86639E-14
 -1      2319 9.78884E-03-4.96035E-04-1.78788E-14
 -1      2320 1.10699E-02-1.12879E-03-2.04687E-14
 -1      2321 1.10893E-02-1.27431E-03-2.08067E-14
 -1      2322 5.85054E-04-2.36835E-04-6.48488E-17
 -1      2323 7.70618E-04-3.01772E-04-1.01549E-16
 -1      2324 8.30130E-04-2.90895E-04-1.21268E-16
 -1      2325 5.75519E-04-2.09094E-04-6.68953E-17
 -1      2326 1.34220E-02-1.19414E-03-2.94124E-14
 -1      2327 1.54332E-02-1.70150E-03-2.90389E-14
 -1      2328 1.55702E-02-1.79195E-03-2.95890E-14
 -1      2329 1.57073E-02-1.88835E-03-3.01448E-14
 -1      2330 1.58474E-02-1.98947E-03-3.07075E-14
 -1      2331 1.56219E-02-1.81617E-03-2.97874E-14
 -1      2332 1.59614E-02-2.07210E-03-3.11580E-14
 -1      2333 1.61037E-02-2.17357E-03-3.17291E-14
 -1      2334 1.60756E-02-2.15780E-03-3.17086E-14
 -1      2335 1.58544E-02-1.99482E-03-3.07970E-14
 -1      2336 2.03115E-03 5.15990E-04-2.12314E-16
 -1      2337 1.89042E-03 5.05963E-04-1.66994E-16
 -1      2338 1.74951E-03 4.93740E-04-1.27895E-16
 -1      2339 1.60835E-03 4.79120E-04-9.37699E-17
 -1      2340 1.80878E-03 4.64050E-04-1.74435E-16
 -1      2341 1.46685E-03 4.61506E-04-6.48217E-17
 -1      2342 1.32481E-03 4.40651E-04-4.11861E-17
 -1      2343 1.52457E-03 4.35063E-04-1.01630E-16
 -1      2344 2.31242E-03 5.30931E-04-3.20924E-16
 -1      2345 2.17181E-03 5.24259E-04-2.63637E-16
 -1      2346 2.09218E-03 4.83959E-04-2.69655E-16
 -1      2347 2.59376E-03 5.40573E-04-4.56056E-16
 -1      2348 2.45308E-03 5.36325E-04-3.84878E-16
 -1      2349 2.37521E-03 4.97202E-04-3.89567E-16
 -1      2350 2.87544E-03 5.46435E-04-6.18863E-16
 -1      2351 2.73456E-03 5.43908E-04-5.33888E-16
 -1      2352 2.65817E-03 5.05622E-04-5.35975E-16
 -1      2353 3.15757E-03 5.49654E-04-8.11485E-16
 -1      2354 3.01645E-03 5.48323E-04-7.11291E-16
 -1      2355 2.94127E-03 5.10615E-04-7.10722E-16
 -1      2356 3.44022E-03 5.51074E-04-1.03484E-15
 -1      2357 3.29884E-03 5.50550E-04-9.19485E-16
 -1      2358 3.22463E-03 5.13230E-04-9.15744E-16
 -1      2359 3.72337E-03 5.51313E-04-1.28891E-15
 -1      2360 3.58174E-03 5.51313E-04-1.15781E-15
 -1      2361 3.50829E-03 5.14240E-04-1.15112E-15
 -1      2362 4.00699E-03 5.50810E-04-1.57306E-15
 -1      2363 3.86513E-03 5.51134E-04-1.42714E-15
 -1      2364 3.79227E-03 5.14212E-04-1.41640E-15
 -1      2365 4.29104E-03 5.49875E-04-1.88789E-15
 -1      2366 4.14897E-03 5.50383E-04-1.72682E-15
 -1      2367 4.07656E-03 5.13544E-04-1.71247E-15
 -1      2368 4.57545E-03 5.48714E-04-2.23623E-15
 -1      2369 4.43320E-03 5.49313E-04-2.05780E-15
 -1      2370 4.36113E-03 5.12514E-04-2.04025E-15
 -1      2371 4.86017E-03 5.47460E-04-2.61379E-15
 -1      2372 4.71777E-03 5.48092E-04-2.42131E-15
 -1      2373 4.64594E-03 5.11306E-04-2.40000E-15
 -1      2374 5.14515E-03 5.46193E-04-3.02594E-15
 -1      2375 5.00263E-03 5.46824E-04-2.81501E-15
 -1      2376 4.93096E-03 5.10034E-04-2.79101E-15
 -1      2377 5.43036E-03 5.44957E-04-3.47195E-15
 -1      2378 5.28773E-03 5.45569E-04-3.24461E-15
 -1      2379 5.21617E-03 5.08767E-04-3.21498E-15
 -1      2380 5.71576E-03 5.43777E-04-3.95536E-15
 -1      2381 5.57304E-03 5.44359E-04-3.70923E-15
 -1      2382 5.50153E-03 5.07541E-04-3.67467E-15
 -1      2383 6.00133E-03 5.42667E-04-4.47397E-15
 -1      2384 5.85853E-03 5.43212E-04-4.20982E-15
 -1      2385 5.78703E-03 5.06373E-04-4.16981E-15
 -1      2386 6.28705E-03 5.41646E-04-5.02932E-15
 -1      2387 6.14417E-03 5.42144E-04-4.74806E-15
 -1      2388 6.07266E-03 5.05277E-04-4.70227E-15
 -1      2389 6.57292E-03 5.40749E-04-5.62007E-15
 -1      2390 6.42997E-03 5.41179E-04-5.32029E-15
 -1      2391 6.35841E-03 5.04270E-04-5.27013E-15
 -1      2392 6.85893E-03 5.40039E-04-6.24765E-15
 -1      2393 6.71591E-03 5.40366E-04-5.92838E-15
 -1      2394 6.64428E-03 5.03390E-04-5.87343E-15
 -1      2395 7.14508E-03 5.39621E-04-6.91302E-15
 -1      2396 7.00199E-03 5.39787E-04-6.57617E-15
 -1      2397 6.93028E-03 5.02701E-04-6.51349E-15
 -1      2398 7.43136E-03 5.39653E-04-7.61572E-15
 -1      2399 7.28821E-03 5.39572E-04-7.25972E-15
 -1      2400 7.21644E-03 5.02314E-04-7.19174E-15
 -1      2401 7.71776E-03 5.40350E-04-8.35898E-15
 -1      2402 7.57455E-03 5.39906E-04-7.98158E-15
 -1      2403 7.50278E-03 5.02392E-04-7.90702E-15
 -1      2404 8.00421E-03 5.41982E-04-9.14160E-15
 -1      2405 7.86099E-03 5.41035E-04-8.74549E-15
 -1      2406 7.78934E-03 5.03158E-04-8.66177E-15
 -1      2407 8.29062E-03 5.44845E-04-9.96306E-15
 -1      2408 8.14744E-03 5.43245E-04-9.54789E-15
 -1      2409 8.07613E-03 5.04888E-04-9.45584E-15
 -1      2410 8.57681E-03 5.49197E-04-1.08208E-14
 -1      2411 8.43378E-03 5.46826E-04-1.03873E-14
 -1      2412 8.36316E-03 5.07882E-04-1.02869E-14
 -1      2413 8.86250E-03 5.55137E-04-1.17165E-14
 -1      2414 8.71977E-03 5.51974E-04-1.12639E-14
 -1      2415 8.65037E-03 5.12399E-04-1.11544E-14
 -1      2416 9.14724E-03 5.62418E-04-1.26531E-14
 -1      2417 9.00506E-03 5.58644E-04-1.21796E-14
 -1      2418 8.93761E-03 5.18527E-04-1.20595E-14
 -1      2419 9.43036E-03 5.70171E-04-1.36267E-14
 -1      2420 9.28909E-03 5.66317E-04-1.31347E-14
 -1      2421 9.22455E-03 5.25982E-04-1.30032E-14
 -1      2422 9.71103E-03 5.76582E-04-1.46316E-14
 -1      2423 9.57110E-03 5.73695E-04-1.41265E-14
 -1      2424 9.51061E-03 5.33817E-04-1.39836E-14
 -1      2425 9.98823E-03 5.78576E-04-1.56668E-14
 -1      2426 9.85015E-03 5.78367E-04-1.51459E-14
 -1      2427 9.79492E-03 5.40064E-04-1.49925E-14
 -1      2428 1.02610E-02 5.71650E-04-1.67258E-14
 -1      2429 1.01252E-02 5.76552E-04-1.61929E-14
 -1      2430 1.00764E-02 5.41387E-04-1.60293E-14
 -1      2431 1.05287E-02 5.50035E-04-1.78038E-14
 -1      2432 1.03955E-02 5.63064E-04-1.72635E-14
 -1      2433 1.03539E-02 5.32904E-04-1.70897E-14
 -1      2434 1.07914E-02 5.07348E-04-1.88947E-14
 -1      2435 1.06606E-02 5.31712E-04-1.83485E-14
 -1      2436 1.06266E-02 5.08395E-04-1.81662E-14
 -1      2437 1.10501E-02 4.37724E-04-1.99869E-14
 -1      2438 1.09210E-02 4.76208E-04-1.94403E-14
 -1      2439 1.08946E-02 4.61092E-04-1.92530E-14
 -1      2440 1.13066E-02 3.37163E-04-2.10827E-14
 -1      2441 1.11784E-02 3.91453E-04-2.05335E-14
 -1      2442 1.11588E-02 3.85025E-04-2.03434E-14
 -1      2443 1.15635E-02 2.04594E-04-2.21777E-14
 -1      2444 1.14348E-02 2.74820E-04-2.16316E-14
 -1      2445 1.14215E-02 2.76538E-04-2.14369E-14
 -1      2446 1.18231E-02 4.21643E-05-2.32660E-14
 -1      2447 1.16928E-02 1.26868E-04-2.27229E-14
 -1      2448 1.16851E-02 1.35356E-04-2.25301E-14
 -1      2449 1.20870E-02-1.45355E-04-2.43503E-14
 -1      2450 1.19544E-02-4.88189E-05-2.38094E-14
 -1      2451 1.19520E-02-3.53427E-05-2.36178E-14
 -1      2452 1.23557E-02-3.51756E-04-2.54334E-14
 -1      2453 1.22207E-02-2.46589E-04-2.48928E-14
 -1      2454 1.22232E-02-2.29872E-04-2.47014E-14
 -1      2455 1.26292E-02-5.70638E-04-2.65099E-14
 -1      2456 1.24919E-02-4.60000E-04-2.59710E-14
 -1      2457 1.24989E-02-4.41476E-04-2.57838E-14
 -1      2458 1.29066E-02-7.96285E-04-2.75843E-14
 -1      2459 1.27675E-02-6.82920E-04-2.70470E-14
 -1      2460 1.27783E-02-6.63670E-04-2.68611E-14
 -1      2461 1.31872E-02-1.02398E-03-2.86562E-14
 -1      2462 1.30466E-02-9.10122E-04-2.81192E-14
 -1      2463 1.30605E-02-8.91009E-04-2.79375E-14
 -1      2464 1.41162E-02-1.51087E-03-3.00799E-14
 -1      2465 1.40066E-02-1.46139E-03-2.99758E-14
 -1      2466 1.39022E-02-1.41319E-03-2.98765E-14
 -1      2467 1.38006E-02-1.36588E-03-2.97761E-14
 -1      2468 1.38262E-02-1.33914E-03-2.94557E-14
 -1      2469 1.36995E-02-1.31853E-03-2.96720E-14
 -1      2470 1.35998E-02-1.27220E-03-2.95711E-14
 -1      2471 1.36232E-02-1.24328E-03-2.92542E-14
 -1      2472 1.43477E-02-1.61107E-03-3.02852E-14
 -1      2473 1.42298E-02-1.56101E-03-3.01823E-14
 -1      2474 1.40420E-02-1.43869E-03-2.96551E-14
 -1      2475 1.45966E-02-1.71050E-03-3.04863E-14
 -1      2476 1.44700E-02-1.66122E-03-3.03871E-14
 -1      2477 1.42769E-02-1.54156E-03-2.98555E-14
 -1      2478 1.48606E-02-1.80549E-03-3.06873E-14
 -1      2479 1.47271E-02-1.75895E-03-3.05872E-14
 -1      2480 1.45308E-02-1.64427E-03-3.00541E-14
 -1      2481 1.51313E-02-1.89142E-03-3.08813E-14
 -1      2482 1.49959E-02-1.84994E-03-3.07844E-14
 -1      2483 1.48005E-02-1.74237E-03-3.02494E-14
 -1      2484 1.53899E-02-1.96303E-03-3.10638E-14
 -1      2485 1.52626E-02-1.92893E-03-3.09726E-14
 -1      2486 1.50743E-02-1.82934E-03-3.04363E-14
 -1      2487 1.56276E-02-2.02147E-03-3.12458E-14
 -1      2488 1.55131E-02-1.99375E-03-3.11558E-14
 -1      2489 1.53377E-02-1.90081E-03-3.06171E-14
 -1      2490 1.58244E-02-2.06902E-03-3.14194E-14
 -1      2491 1.57318E-02-2.04578E-03-3.13349E-14
 -1      2492 1.55723E-02-1.95576E-03-3.07954E-14
 -1      2493 1.59756E-02-2.11454E-03-3.15883E-14
 -1      2494 1.59054E-02-2.09099E-03-3.15022E-14
 -1      2495 1.57592E-02-1.99893E-03-3.09650E-14
 -1      2496 1.40839E-02-1.11567E-03-2.55880E-14
 -1      2497 1.43146E-02-1.20808E-03-2.58116E-14
 -1      2498 1.45507E-02-1.29039E-03-2.60425E-14
 -1      2499 1.47500E-02-1.34585E-03-2.62365E-14
 -1      2500 1.44998E-02-1.70253E-03-2.58779E-14
 -1      2501 1.11716E-02-1.24448E-04-2.03189E-14
 -1      2502 1.13325E-02-4.85878E-05-2.05641E-14
 -1      2503 1.51642E-02-1.56113E-03-2.79524E-14
 -1      2504 1.52995E-02-1.62332E-03-2.84938E-14
 -1      2505 1.53838E-02-1.63820E-03-2.86865E-14
 -1      2506 1.35305E-02-8.22838E-04-2.49046E-14
 -1      2507 1.37777E-02-9.66844E-04-2.52359E-14
 -1      2508 5.46546E-04-2.29120E-05-5.70155E-17
 -1      2509 5.47007E-04-3.89450E-05-5.92516E-17
 -1      2510 6.62461E-04-5.58171E-05-8.28059E-17
 -1      2511 6.61221E-04-1.77241E-05-7.67073E-17
 -1      2512 1.34376E-02-1.17658E-03-2.92304E-14
 -1      2513 1.51670E-02-1.42029E-03-2.66287E-14
 -1      2514 1.51124E-02-1.43002E-03-2.65859E-14
 -1      2515 1.30801E-02-5.39723E-04-2.42651E-14
 -1      2516 1.32860E-02-6.75173E-04-2.45720E-14
 -1      2517 1.15431E-02 2.59049E-05-2.09698E-14
 -1      2518 1.17151E-02 6.98557E-05-2.13442E-14
 -1      2519 1.22355E-02-1.15954E-05-2.26084E-14
 -1      2520 1.23709E-02-8.30721E-05-2.29288E-14
 -1      2521 1.01499E-02-7.39579E-04-1.97587E-14
 -1      2522 9.96798E-03-6.78094E-04-1.95142E-14
 -1      2523 1.19122E-02 7.66232E-05-2.18118E-14
 -1      2524 1.20706E-02 4.76913E-05-2.22110E-14
 -1      2525 1.21185E-02 2.28245E-05-2.23651E-14
 -1      2526 1.08646E-02-2.68329E-04-1.99230E-14
 -1      2527 1.10224E-02-1.93573E-04-2.01204E-14
 -1      2528 1.10780E-02-1.44828E-04-2.00265E-14
 -1      2529 1.04374E-02-4.45049E-04-1.94381E-14
 -1      2530 1.06476E-02-3.62486E-04-1.96705E-14
 -1      2531 1.00905E-02-5.58838E-04-1.91778E-14
 -1      2532 1.02211E-02-5.19760E-04-1.92454E-14
 -1      2533 9.82877E-03-6.16375E-04-1.90884E-14
 -1      2534 9.94925E-03-5.96259E-04-1.91310E-14
 -1      2535 9.74258E-03-6.35333E-04-1.91945E-14
 -1      2536 9.75876E-03-6.31026E-04-1.91319E-14
 -1      2537 1.50068E-02-1.45975E-03-2.64642E-14
 -1      2538 1.48727E-02-1.50585E-03-2.63513E-14
 -1      2539 9.82647E-03-6.49327E-04-1.93636E-14
 -1      2540 9.76255E-03-6.43737E-04-1.92788E-14
 -1      2541 9.74313E-03-6.13954E-04-1.90235E-14
 -1      2542 1.06486E-02-9.45792E-04-2.02220E-14
 -1      2543 1.04282E-02-8.38576E-04-1.99979E-14
 -1      2544 1.16471E-02-1.93848E-03-2.17541E-14
 -1      2545 1.46786E-02-1.58735E-03-2.63831E-14
 -1      2546 1.51688E-02-1.41771E-03-2.66477E-14
 -1      2547 1.51863E-02-1.41512E-03-2.66487E-14
 -1      2548 1.03117E-02-7.38899E-04-1.96442E-14
 -1      2549 1.47886E-02-1.54887E-03-2.66773E-14
 -1      2550 6.70200E-04-1.37958E-04-9.09104E-17
 -1      2551 5.54578E-04-1.26207E-04-6.72747E-17
 -1      2552 5.57800E-04-1.46183E-04-6.77355E-17
 -1      2553 9.02703E-04 3.77834E-04 1.32544E-17
 -1      2554 8.73558E-04 3.51447E-04 5.90890E-18
 -1      2555 1.01634E-03 4.01668E-04 4.71628E-18
 -1      2556 1.48607E-02-1.39513E-03-2.65044E-14
 -1      2557 1.49562E-02-1.43158E-03-2.67746E-14
 -1      2558 1.47727E-02-1.40471E-03-2.66588E-14
 -1      2559 1.50998E-02-1.44869E-03-2.69063E-14
 -1      2560 1.51411E-02-1.43156E-03-2.67768E-14
 -1      2561 1.51836E-02-1.45600E-03-2.70586E-14
 -1      2562 1.01961E-02-6.45523E-04-1.91960E-14
 -1      2563 9.90137E-03-6.34275E-04-1.92571E-14
 -1      2564 1.39134E-02-1.06589E-03-2.55781E-14
 -1      2565 1.33623E-02-1.10030E-03-2.88125E-14
 -1      2566 1.50719E-02-1.45068E-03-2.67660E-14
 -1      2567 1.60456E-02-2.14397E-03-3.16897E-14
 -1      2568 1.44357E-02-1.28561E-03-2.61601E-14
 -1      2569 1.59036E-02-2.04578E-03-3.11501E-14
 -1      2570 1.22703E-03 4.32379E-04-2.25785E-17
 -1      2571 1.11425E-03 4.15314E-04-7.61652E-18
 -1      2572 1.08615E-03 3.89585E-04-1.62766E-17
 -1      2573 1.28335E-03 4.09607E-04-5.08626E-17
 -1      2574 1.24654E-02-1.52578E-04-2.31914E-14
 -1      2575 9.78143E-03-6.05071E-04-1.88959E-14
 -1      2576 5.62594E-04-1.64512E-04-6.80066E-17
 -1      2577 5.68027E-04-1.87534E-04-6.76000E-17
 -1      2578 6.92610E-04-2.26366E-04-9.26315E-17
 -1      2579 6.78992E-04-1.81281E-04-9.26857E-17
 -1      2580 1.51934E-02-1.43619E-03-2.69080E-14
 -1      2581 9.98664E-03-5.64296E-04-1.88980E-14
 -1      2582 1.07376E-02-3.02447E-04-1.95770E-14
 -1      2583 1.29172E-02-4.53866E-04-2.40911E-14
 -1      2584 1.17899E-02 8.41899E-05-2.14986E-14
 -1      2585 1.18473E-02 8.45879E-05-2.16547E-14
 -1      2586 1.16743E-02 8.04985E-05-2.11874E-14
 -1      2587 1.50780E-02-1.49976E-03-2.73263E-14
 -1      2588 1.51972E-02-1.49159E-03-2.75138E-14
 -1      2589 1.33853E-02-7.74730E-04-2.48932E-14
 -1      2590 1.14110E-02-1.62544E-06-2.06274E-14
 -1      2591 1.03228E-02-4.65516E-04-1.91344E-14
 -1      2592 1.17885E-02-1.88065E-03-2.16190E-14
 -1      2593 7.80134E-04 7.72679E-05-7.96211E-17
 -1      2594 7.78867E-04 5.54155E-05-8.51234E-17
 -1      2595 7.78017E-04 3.35133E-05-9.01108E-17
 -1      2596 7.77593E-04 1.18591E-05-9.49083E-17
 -1      2597 8.96416E-04 4.96236E-05-1.13286E-16
 -1      2598 7.91521E-04 1.73027E-04-5.23534E-17
 -1      2599 7.87499E-04 1.47624E-04-6.03087E-17
 -1      2600 8.03390E-04 2.28227E-04-3.44234E-17
 -1      2601 7.96786E-04 1.99829E-04-4.38831E-17
 -1      2602 9.14830E-04 2.07701E-04-6.55536E-17
 -1      2603 8.45835E-04 3.26016E-04-8.13152E-19
 -1      2604 8.19652E-04 3.01435E-04-6.97955E-18
 -1      2605 9.60019E-04 3.50288E-04-1.08420E-17
 -1      2606 1.55429E-02-1.75430E-03-2.94371E-14
 -1      2607 1.56570E-02-1.84819E-03-2.99949E-14
 -1      2608 1.01946E-03-3.11384E-04-1.78229E-16
 -1      2609 1.16271E-03-3.37880E-04-2.26110E-16
 -1      2610 1.07713E-02-1.06396E-03-2.04859E-14
 -1      2611 1.07159E-02-9.35556E-04-2.01411E-14
 -1      2612 1.30591E-03-3.60649E-04-2.80307E-16
 -1      2613 1.44915E-03-3.79941E-04-3.40751E-16
 -1      2614 1.22416E-03-3.16911E-04-2.52660E-16
 -1      2615 1.59221E-03-3.96296E-04-4.07918E-16
 -1      2616 1.73517E-03-4.09945E-04-4.81521E-16
 -1      2617 1.51071E-03-3.53824E-04-3.72749E-16
 -1      2618 1.87796E-03-4.21362E-04-5.62267E-16
 -1      2619 2.02063E-03-4.30738E-04-6.49952E-16
 -1      2620 1.79740E-03-3.80180E-04-5.19197E-16
 -1      2621 2.16320E-03-4.38452E-04-7.44671E-16
 -1      2622 2.30568E-03-4.44660E-04-8.46762E-16
 -1      2623 2.08387E-03-3.98385E-04-6.92927E-16
 -1      2624 2.44810E-03-4.49656E-04-9.56077E-16
 -1      2625 2.59048E-03-4.53562E-04-1.07200E-15
 -1      2626 2.37006E-03-4.10481E-04-8.95009E-16
 -1      2627 2.73284E-03-4.56603E-04-1.19536E-15
 -1      2628 2.87518E-03-4.58874E-04-1.32556E-15
 -1      2629 2.65602E-03-4.18111E-04-1.12563E-15
 -1      2630 3.01754E-03-4.60540E-04-1.46331E-15
 -1      2631 3.15989E-03-4.61677E-04-1.60809E-15
 -1      2632 2.94180E-03-4.22554E-04-1.38472E-15
 -1      2633 3.30228E-03-4.62405E-04-1.75986E-15
 -1      2634 3.44467E-03-4.62780E-04-1.91917E-15
 -1      2635 3.22748E-03-4.24784E-04-1.67203E-15
 -1      2636 3.58711E-03-4.62888E-04-2.08572E-15
 -1      2637 3.72956E-03-4.62772E-04-2.26064E-15
 -1      2638 3.51310E-03-4.25524E-04-1.98874E-15
 -1      2639 3.87205E-03-4.62490E-04-2.44401E-15
 -1      2640 4.01456E-03-4.62073E-04-2.63522E-15
 -1      2641 3.79868E-03-4.25303E-04-2.33589E-15
 -1      2642 4.15712E-03-4.61562E-04-2.83581E-15
 -1      2643 4.29969E-03-4.60975E-04-3.04497E-15
 -1      2644 4.08427E-03-4.24493E-04-2.71746E-15
 -1      2645 4.44230E-03-4.60341E-04-3.26315E-15
 -1      2646 4.58494E-03-4.59670E-04-3.49133E-15
 -1      2647 4.36986E-03-4.23352E-04-3.13324E-15
 -1      2648 4.72760E-03-4.58980E-04-3.72841E-15
 -1      2649 4.87029E-03-4.58276E-04-3.97464E-15
 -1      2650 4.65547E-03-4.22045E-04-3.58589E-15
 -1      2651 5.01301E-03-4.57567E-04-4.23065E-15
 -1      2652 5.15574E-03-4.56857E-04-4.49459E-15
 -1      2653 4.94111E-03-4.20674E-04-4.07454E-15
 -1      2654 5.29850E-03-4.56145E-04-4.76787E-15
 -1      2655 5.44128E-03-4.55433E-04-5.04985E-15
 -1      2656 5.22677E-03-4.19288E-04-4.59879E-15
 -1      2657 5.58409E-03-4.54717E-04-5.34002E-15
 -1      2658 5.72691E-03-4.53997E-04-5.63862E-15
 -1      2659 5.51246E-03-4.17903E-04-5.15916E-15
 -1      2660 5.86975E-03-4.53263E-04-5.94497E-15
 -1      2661 6.01261E-03-4.52514E-04-6.26037E-15
 -1      2662 5.79817E-03-4.16505E-04-5.75156E-15
 -1      2663 6.15548E-03-4.51738E-04-6.58645E-15
 -1      2664 6.29837E-03-4.50931E-04-6.92003E-15
 -1      2665 6.08389E-03-4.15060E-04-6.37924E-15
 -1      2666 6.44127E-03-4.50079E-04-7.26207E-15
 -1      2667 6.58418E-03-4.49176E-04-7.61222E-15
 -1      2668 6.36961E-03-4.13520E-04-7.04368E-15
 -1      2669 6.72709E-03-4.48206E-04-7.97134E-15
 -1      2670 6.87000E-03-4.47160E-04-8.33907E-15
 -1      2671 6.65527E-03-4.11822E-04-7.74126E-15
 -1      2672 7.01289E-03-4.46021E-04-8.71587E-15
 -1      2673 7.15576E-03-4.44780E-04-9.10048E-15
 -1      2674 6.94081E-03-4.09899E-04-8.47309E-15
 -1      2675 7.29856E-03-4.43419E-04-9.49188E-15
 -1      2676 7.44131E-03-4.41926E-04-9.89227E-15
 -1      2677 7.22608E-03-4.07684E-04-9.23713E-15
 -1      2678 7.58391E-03-4.40291E-04-1.03020E-14
 -1      2679 7.72637E-03-4.38499E-04-1.07177E-14
 -1      2680 7.51081E-03-4.05129E-04-1.00344E-14
 -1      2681 7.86855E-03-4.36564E-04-1.11400E-14
 -1      2682 8.01045E-03-4.34459E-04-1.15698E-14
 -1      2683 7.79454E-03-4.02241E-04-1.08627E-14
 -1      2684 8.15181E-03-4.32259E-04-1.20062E-14
 -1      2685 8.29263E-03-4.29918E-04-1.24478E-14
 -1      2686 8.07650E-03-3.99151E-04-1.17199E-14
 -1      2687 8.43249E-03-4.27637E-04-1.28951E-14
 -1      2688 8.57137E-03-4.25332E-04-1.33469E-14
 -1      2689 8.35536E-03-3.96250E-04-1.26008E-14
 -1      2690 8.70855E-03-4.23455E-04-1.38030E-14
 -1      2691 8.84400E-03-4.21845E-04-1.42638E-14
 -1      2692 8.62893E-03-3.94422E-04-1.35010E-14
 -1      2693 8.97659E-03-4.21427E-04-1.47294E-14
 -1      2694 9.10620E-03-4.21878E-04-1.51983E-14
 -1      2695 8.89368E-03-3.95428E-04-1.44204E-14
 -1      2696 9.23119E-03-4.24954E-04-1.56699E-14
 -1      2697 9.35133E-03-4.29990E-04-1.61440E-14
 -1      2698 9.14414E-03-4.02474E-04-1.53554E-14
 -1      2699 9.46431E-03-4.40092E-04-1.66192E-14
 -1      2700 9.56992E-03-4.53839E-04-1.70972E-14
 -1      2701 9.37213E-03-4.20840E-04-1.63006E-14
 -1      2702 9.66075E-03-4.75079E-04-1.75573E-14
 -1      2703 9.74255E-03-5.01664E-04-1.80187E-14
 -1      2704 9.56196E-03-4.56833E-04-1.72345E-14
 -1      2705 7.91518E-04-2.53266E-04-1.15481E-16
 -1      2706 9.19211E-04-2.88247E-04-1.48576E-16
 -1      2707 9.81334E-04-2.73248E-04-1.70220E-16
 -1      2708 7.83156E-04-2.27849E-04-1.15711E-16
 -1      2709 1.37478E-02-1.26496E-03-2.90289E-14
 -1      2710 1.36457E-02-1.21611E-03-2.89326E-14
 -1      2711 1.23748E-02-1.21642E-04-2.30825E-14
 -1      2712 1.25667E-02-2.41565E-04-2.35114E-14
 -1      2713 1.57998E-02-1.96616E-03-3.06956E-14
 -1      2714 1.86969E-03 4.33632E-04-2.23508E-16
 -1      2715 1.72708E-03 4.21936E-04-1.79395E-16
 -1      2716 2.15450E-03 4.51280E-04-3.29489E-16
 -1      2717 2.01215E-03 4.43355E-04-2.73382E-16
 -1      2718 1.93196E-03 4.02598E-04-2.75265E-16
 -1      2719 1.58431E-03 4.07823E-04-1.40499E-16
 -1      2720 1.44133E-03 3.91079E-04-1.07038E-16
 -1      2721 1.64564E-03 3.79855E-04-1.81997E-16
 -1      2722 2.72331E-03 4.70198E-04-6.18795E-16
 -1      2723 2.58115E-03 4.67025E-04-5.36273E-16
 -1      2724 3.00765E-03 4.74404E-04-8.05562E-16
 -1      2725 2.86548E-03 4.72629E-04-7.08133E-16
 -1      2726 2.78916E-03 4.34392E-04-7.04054E-16
 -1      2727 3.29207E-03 4.76487E-04-1.02240E-15
 -1      2728 3.14985E-03 4.75668E-04-9.10296E-16
 -1      2729 3.07457E-03 4.37878E-04-9.02924E-16
 -1      2730 3.57664E-03 4.77153E-04-1.26923E-15
 -1      2731 3.43434E-03 4.76966E-04-1.14198E-15
 -1      2732 3.35993E-03 4.39491E-04-1.13115E-15
 -1      2733 3.86136E-03 4.76913E-04-1.54629E-15
 -1      2734 3.71899E-03 4.77124E-04-1.40414E-15
 -1      2735 3.64529E-03 4.39865E-04-1.38974E-15
 -1      2736 4.14625E-03 4.76126E-04-1.85449E-15
 -1      2737 4.00379E-03 4.76572E-04-1.69663E-15
 -1      2738 3.93068E-03 4.39458E-04-1.67906E-15
 -1      2739 4.43129E-03 4.75040E-04-2.19509E-15
 -1      2740 4.28875E-03 4.75610E-04-2.02064E-15
 -1      2741 4.21610E-03 4.38590E-04-1.99908E-15
 -1      2742 4.71647E-03 4.73815E-04-2.56651E-15
 -1      2743 4.57386E-03 4.74438E-04-2.37644E-15
 -1      2744 4.50156E-03 4.37478E-04-2.35144E-15
 -1      2745 5.00177E-03 4.72550E-04-2.96989E-15
 -1      2746 4.85910E-03 4.73183E-04-2.76438E-15
 -1      2747 4.78706E-03 4.36261E-04-2.73520E-15
 -1      2748 5.28717E-03 4.71303E-04-3.40682E-15
 -1      2749 5.14446E-03 4.71922E-04-3.18399E-15
 -1      2750 5.07260E-03 4.35025E-04-3.15159E-15
 -1      2751 5.57267E-03 4.70101E-04-3.87922E-15
 -1      2752 5.42991E-03 4.70696E-04-3.63866E-15
 -1      2753 5.35818E-03 4.33813E-04-3.60089E-15
 -1      2754 5.85826E-03 4.68958E-04-4.38651E-15
 -1      2755 5.71546E-03 4.69522E-04-4.12800E-15
 -1      2756 5.64380E-03 4.32648E-04-4.08507E-15
 -1      2757 6.14394E-03 4.67883E-04-4.93213E-15
 -1      2758 6.00109E-03 4.68412E-04-4.65512E-15
 -1      2759 5.92946E-03 4.31538E-04-4.60663E-15
 -1      2760 6.42970E-03 4.66893E-04-5.51271E-15
 -1      2761 6.28681E-03 4.67376E-04-5.21816E-15
 -1      2762 6.21517E-03 4.30488E-04-5.16466E-15
 -1      2763 6.71558E-03 4.66023E-04-6.12851E-15
 -1      2764 6.57262E-03 4.66440E-04-5.81607E-15
 -1      2765 6.50095E-03 4.29512E-04-5.75749E-15
 -1      2766 7.00159E-03 4.65340E-04-6.78204E-15
 -1      2767 6.85856E-03 4.65653E-04-6.45098E-15
 -1      2768 6.78683E-03 4.28642E-04-6.38691E-15
 -1      2769 7.28779E-03 4.64954E-04-7.47265E-15
 -1      2770 7.14467E-03 4.65102E-04-7.12383E-15
 -1      2771 7.07287E-03 4.27943E-04-7.05302E-15
 -1      2772 7.57426E-03 4.65028E-04-8.19882E-15
 -1      2773 7.43099E-03 4.64922E-04-7.83043E-15
 -1      2774 7.35915E-03 4.27517E-04-7.75427E-15
 -1      2775 7.86109E-03 4.65786E-04-8.96603E-15
 -1      2776 7.71763E-03 4.65307E-04-8.57761E-15
 -1      2777 7.64581E-03 4.27523E-04-8.49354E-15
 -1      2778 8.14839E-03 4.67506E-04-9.77130E-15
 -1      2779 8.00468E-03 4.66507E-04-9.36360E-15
 -1      2780 7.93302E-03 4.28179E-04-9.27221E-15
 -1      2781 8.43628E-03 4.70491E-04-1.06122E-14
 -1      2782 8.29227E-03 4.68820E-04-1.01876E-14
 -1      2783 8.22100E-03 4.29761E-04-1.00877E-14
 -1      2784 8.72486E-03 4.75005E-04-1.14869E-14
 -1      2785 8.58050E-03 4.72542E-04-1.10447E-14
 -1      2786 8.51001E-03 4.32579E-04-1.09375E-14
 -1      2787 9.01409E-03 4.81144E-04-1.24025E-14
 -1      2788 8.86943E-03 4.77872E-04-1.19400E-14
 -1      2789 8.80029E-03 4.36915E-04-1.18217E-14
 -1      2790 9.30377E-03 4.88619E-04-1.33536E-14
 -1      2791 9.15894E-03 4.84748E-04-1.28741E-14
 -1      2792 9.09196E-03 4.42897E-04-1.27458E-14
 -1      2793 9.59336E-03 4.96445E-04-1.43395E-14
 -1      2794 9.44867E-03 4.92580E-04-1.38431E-14
 -1      2795 9.38491E-03 4.50275E-04-1.37046E-14
 -1      2796 9.88193E-03 5.02533E-04-1.53518E-14
 -1      2797 9.73789E-03 4.99886E-04-1.48416E-14
 -1      2798 9.67859E-03 4.58070E-04-1.46942E-14
 -1      2799 1.01682E-02 5.03295E-04-1.63894E-14
 -1      2800 1.00255E-02 5.03874E-04-1.58685E-14
 -1      2801 9.97191E-03 4.64105E-04-1.57095E-14
 -1      2802 1.04507E-02 4.93413E-04-1.74512E-14
 -1      2803 1.03100E-02 5.00092E-04-1.69185E-14
 -1      2804 1.02633E-02 4.64507E-04-1.67486E-14
 -1      2805 1.07285E-02 4.66103E-04-1.85259E-14
 -1      2806 1.05902E-02 4.82414E-04-1.79863E-14
 -1      2807 1.05510E-02 4.53422E-04-1.78101E-14
 -1      2808 1.10014E-02 4.14084E-04-1.96089E-14
 -1      2809 1.08654E-02 4.43633E-04-1.90668E-14
 -1      2810 1.08337E-02 4.23332E-04-1.88826E-14
 -1      2811 1.12709E-02 3.31212E-04-2.06994E-14
 -1      2812 1.11364E-02 3.76804E-04-2.01539E-14
 -1      2813 1.11114E-02 3.66301E-04-1.99655E-14
 -1      2814 1.15393E-02 2.14246E-04-2.17910E-14
 -1      2815 1.14050E-02 2.77041E-04-2.12440E-14
 -1      2816 1.13858E-02 2.76012E-04-2.10542E-14
 -1      2817 1.18094E-02 6.39097E-05-2.28816E-14
 -1      2818 1.16739E-02 1.43035E-04-2.23374E-14
 -1      2819 1.16598E-02 1.49828E-04-2.21434E-14
 -1      2820 1.20833E-02-1.15386E-04-2.39650E-14
 -1      2821 1.19458E-02-2.25205E-05-2.34244E-14
 -1      2822 1.19364E-02-1.02389E-05-2.32324E-14
 -1      2823 1.23617E-02-3.16929E-04-2.50521E-14
 -1      2824 1.22219E-02-2.13852E-04-2.45099E-14
 -1      2825 1.22175E-02-1.98335E-04-2.43166E-14
 -1      2826 1.26441E-02-5.33430E-04-2.61341E-14
 -1      2827 1.25025E-02-4.23741E-04-2.55937E-14
 -1      2828 1.25030E-02-4.06665E-04-2.54016E-14
 -1      2829 1.29291E-02-7.58468E-04-2.72142E-14
 -1      2830 1.27863E-02-6.45221E-04-2.66741E-14
 -1      2831 1.27918E-02-6.27556E-04-2.64867E-14
 -1      2832 1.32171E-02-9.86438E-04-2.82810E-14
 -1      2833 1.30737E-02-8.71944E-04-2.77424E-14
 -1      2834 1.30835E-02-8.54291E-04-2.75575E-14
 -1      2835 1.33771E-02-1.08255E-03-2.86211E-14
 -1      2836 1.42046E-02-1.47399E-03-2.94231E-14
 -1      2837 1.40828E-02-1.42057E-03-2.93258E-14
 -1      2838 1.43352E-02-1.29012E-03-2.63616E-14
 -1      2839 1.45481E-02-1.36170E-03-2.65917E-14
 -1      2840 1.39667E-02-1.36773E-03-2.92272E-14
 -1      2841 1.38548E-02-1.31579E-03-2.91268E-14
 -1      2842 1.36689E-02-1.19219E-03-2.86037E-14
 -1      2843 1.38890E-02-1.29806E-03-2.87974E-14
 -1      2844 1.35594E-02-1.17226E-03-2.88259E-14
 -1      2845 1.34604E-02-1.12469E-03-2.87261E-14
 -1      2846 1.33120E-02-1.01037E-03-2.81911E-14
 -1      2847 1.34791E-02-1.09686E-03-2.84015E-14
 -1      2848 1.44641E-02-1.58102E-03-2.96189E-14
 -1      2849 1.43318E-02-1.52788E-03-2.95230E-14
 -1      2850 1.41310E-02-1.40886E-03-2.89909E-14
 -1      2851 2.43897E-03 4.62914E-04-4.60528E-16
 -1      2852 2.29677E-03 4.57753E-04-3.91926E-16
 -1      2853 2.21794E-03 4.18071E-04-3.91831E-16
 -1      2854 2.50365E-03 4.28172E-04-5.34146E-16
 -1      2855 1.47411E-02-1.68309E-03-2.98097E-14
 -1      2856 1.46009E-02-1.63327E-03-2.97156E-14
 -1      2857 1.43973E-02-1.52110E-03-2.91839E-14
 -1      2858 1.50197E-02-1.77124E-03-2.99897E-14
 -1      2859 1.48808E-02-1.72922E-03-2.99018E-14
 -1      2860 1.46812E-02-1.62663E-03-2.93694E-14
 -1      2861 1.52895E-02-1.84175E-03-3.01717E-14
 -1      2862 1.51580E-02-1.80909E-03-3.00811E-14
 -1      2863 1.49718E-02-1.71688E-03-2.95498E-14
 -1      2864 1.55211E-02-1.89142E-03-3.03435E-14
 -1      2865 1.54119E-02-1.86857E-03-3.02559E-14
 -1      2866 1.52468E-02-1.78390E-03-2.97247E-14
 -1      2867 1.49406E-02-1.50558E-03-2.69590E-14
 -1      2868 1.47919E-02-1.57048E-03-2.69919E-14
 -1      2869 1.09611E-02-1.65966E-04-1.96778E-14
 -1      2870 1.10855E-02-1.04262E-04-1.98734E-14
 -1      2871 1.32616E-02-7.36764E-04-2.49375E-14
 -1      2872 1.34766E-02-8.71976E-04-2.52711E-14
 -1      2873 1.53409E-02-1.58730E-03-2.83370E-14
 -1      2874 1.54379E-02-1.66756E-03-2.88832E-14
 -1      2875 1.54668E-02-1.70081E-03-2.90859E-14
 -1      2876 9.89914E-03-5.57664E-04-1.86180E-14
 -1      2877 1.00196E-02-5.29727E-04-1.86632E-14
 -1      2878 1.12840E-02-2.19017E-05-2.02553E-14
 -1      2879 1.14646E-02 4.26904E-05-2.06589E-14
 -1      2880 1.52217E-02-1.46868E-03-2.73081E-14
 -1      2881 1.52826E-02-1.53775E-03-2.79365E-14
 -1      2882 1.53178E-02-1.56659E-03-2.81319E-14
 -1      2883 1.52278E-02-1.47766E-03-2.73303E-14
 -1      2884 9.73154E-03-5.82037E-04-1.86327E-14
 -1      2885 9.79050E-03-5.76180E-04-1.85893E-14
 -1      2886 1.37695E-02-1.03564E-03-2.56872E-14
 -1      2887 1.40450E-02-1.17132E-03-2.60389E-14
 -1      2888 7.84342E-04 1.23377E-04-6.72205E-17
 -1      2889 7.81945E-04 9.99493E-05-7.36851E-17
 -1      2890 8.99542E-04 9.93729E-05-9.98415E-17
 -1      2891 9.05300E-04 1.51495E-04-8.42832E-17
 -1      2892 1.20106E-02 4.96803E-05-2.21249E-14
 -1      2893 1.21496E-02-6.63051E-06-2.25218E-14
 -1      2894 1.27815E-02-3.92271E-04-2.39793E-14
 -1      2895 1.30065E-02-5.59658E-04-2.44490E-14
 -1      2896 1.26714E-02-3.41155E-04-2.38691E-14
 -1      2897 1.05935E-02-3.30149E-04-1.91767E-14
 -1      2898 1.07818E-02-2.48973E-04-1.94255E-14
 -1      2899 1.08007E-02-1.97020E-04-1.92726E-14
 -1      2900 7.81687E-04-9.79637E-05-1.13773E-16
 -1      2901 7.84010E-04-1.21314E-04-1.16213E-16
 -1      2902 9.74365E-03-5.78966E-04-1.87605E-14
 -1      2903 9.71675E-03-5.80903E-04-1.86770E-14
 -1      2904 9.98012E-03-5.81880E-04-1.88713E-14
 -1      2905 1.02004E-02-4.71369E-04-1.87524E-14
 -1      2906 1.03928E-02-4.07234E-04-1.89433E-14
 -1      2907 1.56965E-02-1.90239E-03-3.03417E-14
 -1      2908 8.95388E-04 9.74552E-07-1.24859E-16
 -1      2909 7.77563E-04-9.74834E-06-9.94078E-17
 -1      2910 7.77929E-04-3.13865E-05-1.03568E-16
 -1      2911 8.07557E-04 2.68221E-04-1.88516E-17
 -1      2912 1.00828E-02-4.77139E-04-1.84713E-14
 -1      2913 1.46777E-02-1.41391E-03-2.68603E-14
 -1      2914 1.47964E-02-1.45680E-03-2.71288E-14
 -1      2915 1.45940E-02-1.41766E-03-2.70635E-14
 -1      2916 1.11551E-02-4.06231E-05-1.99023E-14
 -1      2917 1.50444E-02-1.46652E-03-2.70599E-14
 -1      2918 1.51189E-02-1.49528E-03-2.73437E-14
 -1      2919 1.49818E-02-1.48228E-03-2.72133E-14
 -1      2920 1.22493E-02-7.05422E-05-2.28409E-14
 -1      2921 1.35908E-03 3.47509E-04-1.10467E-16
 -1      2922 1.29822E-03 3.71163E-04-7.87808E-17
 -1      2923 1.41926E-02-1.25918E-03-2.64713E-14
 -1      2924 9.69647E-03-5.54020E-04-1.83714E-14
 -1      2925 1.31191E-02-6.61321E-04-2.48245E-14
 -1      2926 9.04846E-04-1.49055E-04-1.49349E-16
 -1      2927 7.87072E-04-1.45458E-04-1.18205E-16
 -1      2928 7.90956E-04-1.70628E-04-1.19859E-16
 -1      2929 1.56972E-02-1.92970E-03-3.05199E-14
 -1      2930 1.56177E-02-1.91141E-03-3.04376E-14
 -1      2931 1.19885E-03 3.63513E-04-5.73950E-17
 -1      2932 1.52222E-02-1.49778E-03-2.74606E-14
 -1      2933 1.15386E-02 7.37272E-05-2.08113E-14
 -1      2934 1.15979E-02 9.42430E-05-2.09651E-14
 -1      2935 1.14050E-02 6.48583E-05-2.04370E-14
 -1      2936 1.36375E-02-9.87476E-04-2.57323E-14
 -1      2937 9.25362E-04 2.80205E-04-3.69442E-17
 -1      2938 9.80840E-03-5.45947E-04-1.83547E-14
 -1      2939 7.78713E-04-5.31618E-05-1.07268E-16
 -1      2940 7.79940E-04-7.53435E-05-1.10778E-16
 -1      2941 8.99269E-04-9.70984E-05-1.43210E-16
 -1      2942 8.96288E-04-4.75432E-05-1.34902E-16
 -1      2943 1.54748E-02-1.82758E-03-2.99010E-14
 -1      2944 1.04424E-02-3.48529E-04-1.87907E-14
 -1      2945 1.55717E-02-1.81671E-03-2.98185E-14
 -1      2946 9.67583E-03-5.12655E-04-1.80539E-14
 -1      2947 9.77028E-03-5.34350E-04-1.83781E-14
 -1      2948 1.49781E-02-1.55584E-03-2.75192E-14
 -1      2949 1.18942E-02 7.54136E-05-2.18109E-14
 -1      2950 1.04028E-03 2.43186E-04-7.97160E-17
 -1      2951 1.03363E-03 2.11438E-04-9.18455E-17
 -1      2952 1.05915E-03 3.64368E-04-2.40964E-17
 -1      2953 9.95101E-03-4.75217E-04-1.81183E-14
 -1      2954 1.01051E-02-4.24453E-04-1.82047E-14
 -1      2955 1.49291E-02-1.66626E-03-2.91060E-14
 -1      2956 1.47771E-02-1.62341E-03-2.90161E-14
 -1      2957 1.43028E-03-3.12133E-04-3.39003E-16
 -1      2958 1.57376E-03-3.26845E-04-4.04895E-16
 -1      2959 1.71733E-03-3.39302E-04-4.77442E-16
 -1      2960 1.86100E-03-3.49697E-04-5.56643E-16
 -1      2961 1.63799E-03-2.98962E-04-4.37001E-16
 -1      2962 2.00465E-03-3.58351E-04-6.42607E-16
 -1      2963 2.14830E-03-3.65424E-04-7.35767E-16
 -1      2964 1.92574E-03-3.18522E-04-5.94102E-16
 -1      2965 2.29190E-03-3.71195E-04-8.35879E-16
 -1      2966 2.43544E-03-3.75791E-04-9.43080E-16
 -1      2967 2.21376E-03-3.31917E-04-7.78132E-16
 -1      2968 2.57893E-03-3.79437E-04-1.05695E-15
 -1      2969 2.72237E-03-3.82235E-04-1.17811E-15
 -1      2970 2.50171E-03-3.40661E-04-9.90351E-16
 -1      2971 2.86575E-03-3.84360E-04-1.30745E-15
 -1      2972 3.00907E-03-3.85888E-04-1.44287E-15
 -1      2973 2.78946E-03-3.46006E-04-1.23117E-15
 -1      2974 3.15235E-03-3.86953E-04-1.58558E-15
 -1      2975 3.29557E-03-3.87612E-04-1.73613E-15
 -1      2976 3.07694E-03-3.48942E-04-1.50079E-15
 -1      2977 3.43876E-03-3.87964E-04-1.89243E-15
 -1      2978 3.58191E-03-3.88049E-04-2.05708E-15
 -1      2979 3.36415E-03-3.50222E-04-1.79833E-15
 -1      2980 3.72502E-03-3.87939E-04-2.23047E-15
 -1      2981 3.86810E-03-3.87664E-04-2.41152E-15
 -1      2982 3.65110E-03-3.50406E-04-2.12598E-15
 -1      2983 4.01116E-03-3.87273E-04-2.60054E-15
 -1      2984 4.15419E-03-3.86785E-04-2.79868E-15
 -1      2985 3.93781E-03-3.49899E-04-2.48597E-15
 -1      2986 4.29720E-03-3.86234E-04-3.00526E-15
 -1      2987 4.44018E-03-3.85634E-04-3.22084E-15
 -1      2988 4.22432E-03-3.48985E-04-2.87891E-15
 -1      2989 4.58316E-03-3.85005E-04-3.44576E-15
 -1      2990 4.72611E-03-3.84354E-04-3.67887E-15
 -1      2991 4.51066E-03-3.47852E-04-3.30762E-15
 -1      2992 4.86906E-03-3.83694E-04-3.92153E-15
 -1      2993 5.01199E-03-3.83029E-04-4.17284E-15
 -1      2994 4.79686E-03-3.46622E-04-3.77167E-15
 -1      2995 5.15491E-03-3.82364E-04-4.43374E-15
 -1      2996 5.29782E-03-3.81699E-04-4.70250E-15
 -1      2997 5.08293E-03-3.45362E-04-4.27040E-15
 -1      2998 5.44073E-03-3.81035E-04-4.97928E-15
 -1      2999 5.58362E-03-3.80372E-04-5.26550E-15
 -1      3000 5.36891E-03-3.44105E-04-4.80349E-15
 -1      3001 5.72651E-03-3.79705E-04-5.56102E-15
 -1      3002 5.86939E-03-3.79033E-04-5.86366E-15
 -1      3003 5.65479E-03-3.42855E-04-5.37210E-15
 -1      3004 6.01225E-03-3.78351E-04-6.17601E-15
 -1      3005 6.15510E-03-3.77654E-04-6.49865E-15
 -1      3006 5.94057E-03-3.41599E-04-5.97581E-15
 -1      3007 6.29792E-03-3.76937E-04-6.82752E-15
 -1      3008 6.44072E-03-3.76194E-04-7.16553E-15
 -1      3009 6.22624E-03-3.40314E-04-6.61465E-15
 -1      3010 6.58348E-03-3.75420E-04-7.51383E-15
 -1      3011 6.72619E-03-3.74610E-04-7.86884E-15
 -1      3012 6.51173E-03-3.38975E-04-7.28797E-15
 -1      3013 6.86883E-03-3.73761E-04-8.23228E-15
 -1      3014 7.01138E-03-3.72866E-04-8.60506E-15
 -1      3015 6.79695E-03-3.37566E-04-7.99553E-15
 -1      3016 7.15379E-03-3.71930E-04-8.98405E-15
 -1      3017 7.29606E-03-3.70946E-04-9.37108E-15
 -1      3018 7.08173E-03-3.36090E-04-8.73387E-15
 -1      3019 7.43810E-03-3.69935E-04-9.76878E-15
 -1      3020 7.57987E-03-3.68888E-04-1.01744E-14
 -1      3021 7.36577E-03-3.34603E-04-9.50550E-15
 -1      3022 7.72124E-03-3.67860E-04-1.05871E-14
 -1      3023 7.86216E-03-3.66836E-04-1.10064E-14
 -1      3024 7.64859E-03-3.33248E-04-1.03117E-14
 -1      3025 8.00242E-03-3.65936E-04-1.14345E-14
 -1      3026 8.14191E-03-3.65137E-04-1.18683E-14
 -1      3027 7.92940E-03-3.32335E-04-1.11508E-14
 -1      3028 8.28030E-03-3.64674E-04-1.23076E-14
 -1      3029 8.41743E-03-3.64504E-04-1.27521E-14
 -1      3030 8.20696E-03-3.32461E-04-1.20152E-14
 -1      3031 8.55278E-03-3.65074E-04-1.32011E-14
 -1      3032 8.68606E-03-3.66289E-04-1.36545E-14
 -1      3033 8.47935E-03-3.34700E-04-1.29013E-14
 -1      3034 8.81654E-03-3.68960E-04-1.41132E-14
 -1      3035 8.94370E-03-3.72870E-04-1.45756E-14
 -1      3036 8.74362E-03-3.40894E-04-1.38073E-14
 -1      3037 9.06656E-03-3.79428E-04-1.50420E-14
 -1      3038 9.18421E-03-3.88130E-04-1.55126E-14
 -1      3039 8.99545E-03-3.54017E-04-1.47300E-14
 -1      3040 9.29545E-03-4.01327E-04-1.59847E-14
 -1      3041 9.39873E-03-4.17781E-04-1.64589E-14
 -1      3042 9.22866E-03-3.78523E-04-1.56686E-14
 -1      3043 9.48836E-03-4.39974E-04-1.69132E-14
 -1      3044 9.56750E-03-4.65544E-04-1.73723E-14
 -1      3045 9.43007E-03-4.18964E-04-1.65949E-14
 -1      3046 3.42823E-03 4.02240E-04-1.24203E-15
 -1      3047 3.28516E-03 4.01807E-04-1.11888E-15
 -1      3048 1.42152E-03 3.22916E-04-1.44578E-16
 -1      3049 1.27827E-03 3.05011E-04-1.11876E-16
 -1      3050 1.06491E-02-2.03542E-04-1.88223E-14
 -1      3051 1.08026E-02-1.33907E-04-1.90703E-14
 -1      3052 1.40950E-02-1.24419E-03-2.66643E-14
 -1      3053 1.43536E-02-1.35189E-03-2.69881E-14
 -1      3054 1.99555E-03 3.70903E-04-3.28866E-16
 -1      3055 1.85201E-03 3.61945E-04-2.74479E-16
 -1      3056 1.70847E-03 3.51109E-04-2.25731E-16
 -1      3057 1.56493E-03 3.38218E-04-1.82471E-16
 -1      3058 1.48517E-03 2.97270E-04-1.80994E-16
 -1      3059 1.77251E-03 3.21598E-04-2.71633E-16
 -1      3060 3.14206E-03 4.01033E-04-1.00290E-15
 -1      3061 2.99892E-03 3.99868E-04-8.93735E-16
 -1      3062 3.21009E-03 3.63934E-04-1.10438E-15
 -1      3063 2.85573E-03 3.98194E-04-7.92037E-16
 -1      3064 2.71251E-03 3.95943E-04-6.97969E-16
 -1      3065 2.92299E-03 3.61676E-04-8.82771E-16
 -1      3066 3.71428E-03 4.02377E-04-1.51233E-15
 -1      3067 3.57127E-03 4.02418E-04-1.37316E-15
 -1      3068 3.49695E-03 3.64790E-04-1.35506E-15
 -1      3069 4.00023E-03 4.01850E-04-1.81321E-15
 -1      3070 3.85727E-03 4.02179E-04-1.65878E-15
 -1      3071 3.78359E-03 3.64738E-04-1.63648E-15
 -1      3072 4.28612E-03 4.00939E-04-2.14583E-15
 -1      3073 4.14318E-03 4.01431E-04-1.97576E-15
 -1      3074 4.07004E-03 3.64130E-04-1.94976E-15
 -1      3075 4.57194E-03 3.99833E-04-2.51008E-15
 -1      3076 4.42904E-03 4.00403E-04-2.32392E-15
 -1      3077 4.35632E-03 3.63208E-04-2.29429E-15
 -1      3078 4.85773E-03 3.98651E-04-2.90604E-15
 -1      3079 4.71484E-03 3.99247E-04-2.70365E-15
 -1      3080 4.64246E-03 3.62133E-04-2.67116E-15
 -1      3081 5.14348E-03 3.97462E-04-3.33469E-15
 -1      3082 5.00061E-03 3.98055E-04-3.11632E-15
 -1      3083 4.92849E-03 3.61006E-04-3.07930E-15
 -1      3084 5.42921E-03 3.96303E-04-3.79806E-15
 -1      3085 5.28635E-03 3.96878E-04-3.56192E-15
 -1      3086 5.21442E-03 3.59881E-04-3.52051E-15
 -1      3087 5.71493E-03 3.95186E-04-4.29417E-15
 -1      3088 5.57207E-03 3.95739E-04-4.04166E-15
 -1      3089 5.50027E-03 3.58786E-04-3.99577E-15
 -1      3090 6.00064E-03 3.94116E-04-4.82914E-15
 -1      3091 5.85779E-03 3.94646E-04-4.55664E-15
 -1      3092 5.78606E-03 3.57726E-04-4.50607E-15
 -1      3093 6.28638E-03 3.93092E-04-5.40064E-15
 -1      3094 6.14351E-03 3.93598E-04-5.11089E-15
 -1      3095 6.07181E-03 3.56699E-04-5.05420E-15
 -1      3096 6.57216E-03 3.92124E-04-6.00461E-15
 -1      3097 6.42926E-03 3.92601E-04-5.69812E-15
 -1      3098 6.35755E-03 3.55700E-04-5.63730E-15
 -1      3099 6.85805E-03 3.91238E-04-6.64651E-15
 -1      3100 6.71509E-03 3.91669E-04-6.32107E-15
 -1      3101 6.64333E-03 3.54729E-04-6.25433E-15
 -1      3102 7.14412E-03 3.90487E-04-7.32501E-15
 -1      3103 7.00105E-03 3.90841E-04-6.98054E-15
 -1      3104 6.92922E-03 3.53802E-04-6.90775E-15
 -1      3105 7.43051E-03 3.89965E-04-8.03761E-15
 -1      3106 7.28727E-03 3.90190E-04-7.67751E-15
 -1      3107 7.21534E-03 3.52958E-04-7.59791E-15
 -1      3108 7.71741E-03 3.89816E-04-8.78926E-15
 -1      3109 7.57389E-03 3.89832E-04-8.40850E-15
 -1      3110 7.50186E-03 3.52271E-04-8.32304E-15
 -1      3111 8.00509E-03 3.90247E-04-9.58020E-15
 -1      3112 7.86114E-03 3.89941E-04-9.18017E-15
 -1      3113 7.78906E-03 3.51865E-04-9.08784E-15
 -1      3114 8.29390E-03 3.91528E-04-1.04048E-14
 -1      3115 8.14934E-03 3.90757E-04-9.98705E-15
 -1      3116 8.07730E-03 3.51929E-04-9.88750E-15
 -1      3117 8.58424E-03 3.93979E-04-1.12625E-14
 -1      3118 8.43887E-03 3.92578E-04-1.08306E-14
 -1      3119 8.36705E-03 3.52727E-04-1.07216E-14
 -1      3120 8.87650E-03 3.97920E-04-1.21589E-14
 -1      3121 8.73013E-03 3.95735E-04-1.17062E-14
 -1      3122 8.65890E-03 3.54599E-04-1.15907E-14
 -1      3123 9.17099E-03 4.03549E-04-1.30903E-14
 -1      3124 9.02349E-03 4.00508E-04-1.26194E-14
 -1      3125 8.95343E-03 3.57929E-04-1.24944E-14
 -1      3126 9.46766E-03 4.10710E-04-1.40544E-14
 -1      3127 9.31911E-03 4.06958E-04-1.35681E-14
 -1      3128 9.25109E-03 3.63034E-04-1.34335E-14
 -1      3129 9.76594E-03 4.18497E-04-1.50467E-14
 -1      3130 9.61671E-03 4.14620E-04-1.45475E-14
 -1      3131 9.55193E-03 3.69929E-04-1.44032E-14
 -1      3132 1.00645E-02 4.24682E-04-1.60646E-14
 -1      3133 9.91536E-03 4.22002E-04-1.55528E-14
 -1      3134 9.85531E-03 3.77846E-04-1.53978E-14
 -1      3135 1.03615E-02 4.25097E-04-1.71064E-14
 -1      3136 1.02134E-02 4.25994E-04-1.65826E-14
 -1      3137 1.01596E-02 3.84549E-04-1.64187E-14
 -1      3138 1.06545E-02 4.13191E-04-1.81650E-14
 -1      3139 1.05086E-02 4.21224E-04-1.76334E-14
 -1      3140 1.04624E-02 3.85458E-04-1.74594E-14
 -1      3141 1.09420E-02 3.80497E-04-1.92373E-14
 -1      3142 1.07989E-02 4.00074E-04-1.86998E-14
 -1      3143 1.07608E-02 3.73121E-04-1.85183E-14
 -1      3144 1.12243E-02 3.18185E-04-2.03204E-14
 -1      3145 1.10836E-02 3.53582E-04-1.97783E-14
 -1      3146 1.10530E-02 3.37761E-04-1.95915E-14
 -1      3147 1.15034E-02 2.19745E-04-2.14055E-14
 -1      3148 1.13639E-02 2.73738E-04-2.08619E-14
 -1      3149 1.13396E-02 2.69483E-04-2.06725E-14
 -1      3150 1.17830E-02 8.33818E-05-2.24963E-14
 -1      3151 1.16428E-02 1.56169E-04-2.19510E-14
 -1      3152 1.16235E-02 1.61729E-04-2.17581E-14
 -1      3153 1.20664E-02-8.71664E-05-2.35818E-14
 -1      3154 1.19240E-02 1.92303E-06-2.30394E-14
 -1      3155 1.19092E-02 1.40299E-05-2.28463E-14
 -1      3156 1.23548E-02-2.84370E-04-2.46664E-14
 -1      3157 1.22099E-02-1.83052E-04-2.41228E-14
 -1      3158 1.21998E-02-1.67650E-04-2.39319E-14
 -1      3159 1.26476E-02-4.99240E-04-2.57523E-14
 -1      3160 1.25008E-02-3.90172E-04-2.52106E-14
 -1      3161 1.24960E-02-3.73902E-04-2.50159E-14
 -1      3162 1.29427E-02-7.23920E-04-2.68386E-14
 -1      3163 1.27951E-02-6.10759E-04-2.62944E-14
 -1      3164 1.27962E-02-5.94657E-04-2.61026E-14
 -1      3165 1.32020E-02-9.23931E-04-2.77803E-14
 -1      3166 1.30532E-02-8.09803E-04-2.72482E-14
 -1      3167 1.30594E-02-7.93969E-04-2.70585E-14
 -1      3168 1.32835E-02-9.66713E-04-2.78844E-14
 -1      3169 1.46258E-02-1.57450E-03-2.89273E-14
 -1      3170 1.44770E-02-1.52142E-03-2.88370E-14
 -1      3171 1.45751E-02-1.52569E-03-2.84865E-14
 -1      3172 1.10011E-02-5.08380E-05-1.94502E-14
 -1      3173 1.11726E-02 1.65119E-05-1.98285E-14
 -1      3174 1.54351E-02-1.76543E-03-2.94688E-14
 -1      3175 1.53350E-02-1.74980E-03-2.93756E-14
 -1      3176 1.52133E-02-1.72965E-03-2.92826E-14
 -1      3177 1.50783E-02-1.70237E-03-2.91991E-14
 -1      3178 1.48971E-02-1.61872E-03-2.86678E-14
 -1      3179 1.51898E-02-1.67615E-03-2.88535E-14
 -1      3180 1.17405E-02 9.93245E-05-2.13842E-14
 -1      3181 1.18858E-02 7.13241E-05-2.18523E-14
 -1      3182 1.03088E-02-3.41057E-04-1.83589E-14
 -1      3183 1.04818E-02-2.76483E-04-1.85896E-14
 -1      3184 1.04949E-02-2.06170E-04-1.83870E-14
 -1      3185 1.50602E-02-1.47922E-03-2.70793E-14
 -1      3186 1.07422E-03 3.29394E-04-4.57398E-17
 -1      3187 1.21482E-02-3.51906E-05-2.26453E-14
 -1      3188 1.23534E-02-1.50935E-04-2.32051E-14
 -1      3189 7.83271E-04-1.87088E-04-1.17812E-16
 -1      3190 7.89376E-04-2.10222E-04-1.18544E-16
 -1      3191 8.87603E-04-2.31964E-04-1.44443E-16
 -1      3192 9.01232E-04-1.94560E-04-1.49498E-16
 -1      3193 1.43300E-02-1.46385E-03-2.87465E-14
 -1      3194 1.41892E-02-1.40503E-03-2.86536E-14
 -1      3195 1.42637E-02-1.40948E-03-2.83078E-14
 -1      3196 9.72411E-03-5.19371E-04-1.80002E-14
 -1      3197 9.81388E-03-5.06056E-04-1.80279E-14
 -1      3198 1.35204E-02-9.44235E-04-2.58216E-14
 -1      3199 1.37801E-02-1.09094E-03-2.62369E-14
 -1      3200 1.52747E-02-1.55618E-03-2.79792E-14
 -1      3201 1.53327E-02-1.60631E-03-2.83809E-14
 -1      3202 1.06771E-03 2.82572E-04-6.79524E-17
 -1      3203 9.65856E-03-5.20694E-04-1.80489E-14
 -1      3204 9.67158E-03-5.23978E-04-1.80053E-14
 -1      3205 9.65460E-03-4.92933E-04-1.76793E-14
 -1      3206 9.61589E-03-4.89274E-04-1.76890E-14
 -1      3207 1.25457E-02-2.75876E-04-2.36933E-14
 -1      3208 1.27376E-02-4.14391E-04-2.41614E-14
 -1      3209 1.01647E-03 6.81384E-05-1.38886E-16
 -1      3210 1.01530E-03 4.11672E-05-1.46259E-16
 -1      3211 1.40554E-02-1.34541E-03-2.85591E-14
 -1      3212 1.39285E-02-1.28679E-03-2.84625E-14
 -1      3213 1.39782E-02-1.28406E-03-2.81249E-14
 -1      3214 1.29628E-02-5.75454E-04-2.46809E-14
 -1      3215 1.31937E-02-7.35992E-04-2.51707E-14
 -1      3216 1.14427E-03-2.74770E-04-2.26029E-16
 -1      3217 1.28710E-03-2.94843E-04-2.79277E-16
 -1      3218 1.35115E-03-2.71520E-04-3.06436E-16
 -1      3219 1.52065E-02-1.53254E-03-2.77100E-14
 -1      3220 9.83751E-03-5.45042E-04-1.85325E-14
 -1      3221 9.90815E-03-6.04091E-04-1.90646E-14
 -1      3222 9.79128E-03-5.90914E-04-1.89153E-14
 -1      3223 1.54526E-02-1.73836E-03-2.92938E-14
 -1      3224 9.74065E-03-5.56363E-04-1.85693E-14
 -1      3225 1.24267E-02-2.16604E-04-2.34962E-14
 -1      3226 9.83004E-03-4.62182E-04-1.77624E-14
 -1      3227 1.10865E-02 5.29106E-05-1.95243E-14
 -1      3228 1.12449E-02 5.64577E-05-1.99798E-14
 -1      3229 1.13063E-02 8.97407E-05-2.01303E-14
 -1      3230 9.86582E-04-2.52359E-04-1.73567E-16
 -1      3231 1.49093E-02-1.49659E-03-2.74156E-14
 -1      3232 1.38089E-02-1.22937E-03-2.83703E-14
 -1      3233 1.36953E-02-1.17377E-03-2.82745E-14
 -1      3234 1.37263E-02-1.16193E-03-2.79386E-14
 -1      3235 2.63563E-03 3.57341E-04-6.89349E-16
 -1      3236 2.56922E-03 3.92956E-04-6.10677E-16
 -1      3237 2.42589E-03 3.89143E-04-5.29999E-16
 -1      3238 9.56988E-03-4.68719E-04-1.73661E-14
 -1      3239 1.25051E-03 2.63494E-04-1.25930E-16
 -1      3240 1.18655E-03 2.84812E-04-9.73207E-17
 -1      3241 1.08372E-02-6.14761E-05-1.89943E-14
 -1      3242 1.01470E-03 1.44031E-05-1.53171E-16
 -1      3243 1.01467E-03-1.22618E-05-1.59676E-16
 -1      3244 1.13537E-03 3.01094E-05-1.84260E-16
 -1      3245 2.28249E-03 3.84298E-04-4.56517E-16
 -1      3246 2.13905E-03 3.78305E-04-3.89486E-16
 -1      3247 2.06026E-03 3.38599E-04-3.85271E-16
 -1      3248 2.34802E-03 3.50034E-04-5.23832E-16
 -1      3249 1.18400E-02 7.76377E-05-2.17870E-14
 -1      3250 1.19894E-02 3.03072E-05-2.22150E-14
 -1      3251 1.20882E-02-2.58469E-05-2.25780E-14
 -1      3252 1.35872E-02-1.11971E-03-2.81784E-14
 -1      3253 1.34836E-02-1.06764E-03-2.80833E-14
 -1      3254 1.35029E-02-1.04800E-03-2.77510E-14
 -1      3255 1.05068E-03-2.35608E-04-1.95224E-16
 -1      3256 1.02363E-03-1.49113E-04-1.84165E-16
 -1      3257 1.02770E-03-1.78350E-04-1.87188E-16
 -1      3258 1.01522E-02-3.58651E-04-1.80025E-14
 -1      3259 1.01816E-02-2.89795E-04-1.78004E-14
 -1      3260 1.00057E-02-3.64453E-04-1.76500E-14
 -1      3261 1.53633E-02-1.65656E-03-2.87349E-14
 -1      3262 1.33548E-02-8.52916E-04-2.56768E-14
 -1      3263 1.02827E-03 1.81067E-04-1.02728E-16
 -1      3264 1.02408E-03 1.51743E-04-1.12947E-16
 -1      3265 1.15302E-03 2.11696E-04-1.23111E-16
 -1      3266 1.16080E-02 1.09823E-04-2.10060E-14
 -1      3267 1.51760E-02-1.55504E-03-2.78653E-14
 -1      3268 1.39656E-02-1.20001E-03-2.67534E-14
 -1      3269 1.33665E-02-1.01043E-03-2.79881E-14
 -1      3270 1.32833E-02-9.35831E-04-2.75637E-14
 -1      3271 1.01829E-03 9.53896E-05-1.31053E-16
 -1      3272 1.13804E-03 8.84826E-05-1.66967E-16
 -1      3273 1.02077E-03 1.23152E-04-1.22461E-16
 -1      3274 1.28265E-02-4.94526E-04-2.45059E-14
 -1      3275 1.01802E-03-9.29999E-05-1.75952E-16
 -1      3276 1.02042E-03-1.20706E-04-1.80289E-16
 -1      3277 1.14323E-03-1.45910E-04-2.22112E-16
 -1      3278 1.44899E-02-1.40831E-03-2.72588E-14
 -1      3279 1.33442E-03 2.46164E-04-1.60150E-16
 -1      3280 1.24346E-03 2.29067E-04-1.40946E-16
 -1      3281 1.23773E-03 1.95589E-04-1.54567E-16
 -1      3282 1.84740E-03-2.79160E-04-5.46587E-16
 -1      3283 1.99160E-03-2.86638E-04-6.30992E-16
 -1      3284 2.13589E-03-2.92822E-04-7.22634E-16
 -1      3285 2.28022E-03-2.97840E-04-8.20809E-16
 -1      3286 2.05842E-03-2.54055E-04-6.68316E-16
 -1      3287 2.42456E-03-3.01892E-04-9.25787E-16
 -1      3288 2.56886E-03-3.05076E-04-1.03773E-15
 -1      3289 2.34759E-03-2.63237E-04-8.62564E-16
 -1      3290 2.71311E-03-3.07560E-04-1.15711E-15
 -1      3291 2.85730E-03-3.09418E-04-1.28389E-15
 -1      3292 2.63681E-03-2.69093E-04-1.08539E-15
 -1      3293 3.00141E-03-3.10785E-04-1.41712E-15
 -1      3294 3.14543E-03-3.11715E-04-1.55748E-15
 -1      3295 2.92582E-03-2.72530E-04-1.33530E-15
 -1      3296 3.28937E-03-3.12312E-04-1.70552E-15
 -1      3297 3.43323E-03-3.12616E-04-1.86022E-15
 -1      3298 3.21449E-03-2.74266E-04-1.61369E-15
 -1      3299 3.57700E-03-3.12703E-04-2.02262E-15
 -1      3300 3.72068E-03-3.12601E-04-2.19417E-15
 -1      3301 3.50276E-03-2.74848E-04-1.92160E-15
 -1      3302 3.86429E-03-3.12366E-04-2.37278E-15
 -1      3303 4.00783E-03-3.12016E-04-2.55979E-15
 -1      3304 3.79064E-03-2.74682E-04-2.26055E-15
 -1      3305 4.15129E-03-3.11591E-04-2.75474E-15
 -1      3306 4.29469E-03-3.11101E-04-2.95886E-15
 -1      3307 4.07813E-03-2.74055E-04-2.63217E-15
 -1      3308 4.43803E-03-3.10574E-04-3.17168E-15
 -1      3309 4.58131E-03-3.10015E-04-3.39306E-15
 -1      3310 4.36527E-03-2.73168E-04-3.03762E-15
 -1      3311 4.72454E-03-3.09442E-04-3.62393E-15
 -1      3312 4.86772E-03-3.08857E-04-3.86271E-15
 -1      3313 4.65211E-03-2.72151E-04-3.47817E-15
 -1      3314 5.01086E-03-3.08271E-04-4.10986E-15
 -1      3315 5.15395E-03-3.07684E-04-4.36654E-15
 -1      3316 4.93869E-03-2.71085E-04-3.95268E-15
 -1      3317 5.29701E-03-3.07101E-04-4.63118E-15
 -1      3318 5.44003E-03-3.06520E-04-4.90303E-15
 -1      3319 5.22504E-03-2.70014E-04-4.45999E-15
 -1      3320 5.58301E-03-3.05942E-04-5.18503E-15
 -1      3321 5.72595E-03-3.05367E-04-5.47687E-15
 -1      3322 5.51118E-03-2.68959E-04-5.00256E-15
 -1      3323 5.86886E-03-3.04793E-04-5.77792E-15
 -1      3324 6.01173E-03-3.04218E-04-6.08754E-15
 -1      3325 5.79712E-03-2.67922E-04-5.58126E-15
 -1      3326 6.15455E-03-3.03641E-04-6.40407E-15
 -1      3327 6.29731E-03-3.03061E-04-6.72955E-15
 -1      3328 6.08286E-03-2.66905E-04-6.19607E-15
 -1      3329 6.44002E-03-3.02478E-04-7.06503E-15
 -1      3330 6.58264E-03-3.01891E-04-7.40892E-15
 -1      3331 6.36834E-03-2.65908E-04-6.84466E-15
 -1      3332 6.72517E-03-3.01306E-04-7.76000E-15
 -1      3333 6.86759E-03-3.00723E-04-8.11912E-15
 -1      3334 6.65349E-03-2.64954E-04-7.52762E-15
 -1      3335 7.00985E-03-3.00159E-04-8.48705E-15
 -1      3336 7.15193E-03-2.99616E-04-8.86173E-15
 -1      3337 6.93814E-03-2.64096E-04-8.24189E-15
 -1      3338 7.29377E-03-2.99130E-04-9.24563E-15
 -1      3339 7.43532E-03-2.98705E-04-9.63919E-15
 -1      3340 7.22205E-03-2.63455E-04-8.98858E-15
 -1      3341 7.57648E-03-2.98411E-04-1.00409E-14
 -1      3342 7.71718E-03-2.98257E-04-1.04501E-14
 -1      3343 7.50482E-03-2.63257E-04-9.77094E-15
 -1      3344 7.85728E-03-2.98370E-04-1.08666E-14
 -1      3345 7.99663E-03-2.98762E-04-1.12915E-14
 -1      3346 7.78583E-03-2.63903E-04-1.05862E-14
 -1      3347 8.13505E-03-2.99659E-04-1.17236E-14
 -1      3348 8.27232E-03-3.01074E-04-1.21601E-14
 -1      3349 8.06414E-03-2.66072E-04-1.14320E-14
 -1      3350 8.40815E-03-3.03391E-04-1.26012E-14
 -1      3351 8.54221E-03-3.06614E-04-1.30481E-14
 -1      3352 8.33841E-03-2.70873E-04-1.23023E-14
 -1      3353 8.67415E-03-3.11374E-04-1.35009E-14
 -1      3354 8.80340E-03-3.17638E-04-1.39572E-14
 -1      3355 8.60670E-03-2.80036E-04-1.31941E-14
 -1      3356 8.92959E-03-3.26406E-04-1.44167E-14
 -1      3357 9.05180E-03-3.37526E-04-1.48821E-14
 -1      3358 8.86643E-03-2.96143E-04-1.41051E-14
 -1      3359 9.16979E-03-3.52519E-04-1.53508E-14
 -1      3360 9.28201E-03-3.70900E-04-1.58230E-14
 -1      3361 9.11433E-03-3.22789E-04-1.50339E-14
 -1      3362 9.38355E-03-3.93553E-04-1.62746E-14
 -1      3363 9.47778E-03-4.19938E-04-1.67278E-14
 -1      3364 9.34106E-03-3.63148E-04-1.59544E-14
 -1      3365 3.85325E-03 3.26954E-04-1.76381E-15
 -1      3366 3.70972E-03 3.27128E-04-1.61356E-15
 -1      3367 1.41974E-02-1.35727E-03-2.78719E-14
 -1      3368 1.40430E-02-1.29110E-03-2.77832E-14
 -1      3369 1.06632E-02-6.08734E-05-1.84849E-14
 -1      3370 1.08365E-02 6.69899E-06-1.88614E-14
 -1      3371 3.56612E-03 3.27147E-04-1.47031E-15
 -1      3372 3.42244E-03 3.26988E-04-1.33562E-15
 -1      3373 3.63570E-03 2.89361E-04-1.58833E-15
 -1      3374 2.99092E-03 3.24832E-04-9.74996E-16
 -1      3375 2.84692E-03 3.23346E-04-8.69137E-16
 -1      3376 4.14011E-03 3.26304E-04-2.08888E-15
 -1      3377 3.99671E-03 3.26675E-04-1.92184E-15
 -1      3378 3.92324E-03 2.89069E-04-1.89342E-15
 -1      3379 4.42672E-03 3.25403E-04-2.44577E-15
 -1      3380 4.28344E-03 3.25877E-04-2.26369E-15
 -1      3381 4.21043E-03 2.88410E-04-2.22982E-15
 -1      3382 4.71312E-03 3.24385E-04-2.83478E-15
 -1      3383 4.56994E-03 3.24904E-04-2.63618E-15
 -1      3384 4.49731E-03 2.87556E-04-2.59917E-15
 -1      3385 4.99934E-03 3.23332E-04-3.25434E-15
 -1      3386 4.85625E-03 3.23861E-04-3.04054E-15
 -1      3387 4.78391E-03 2.86615E-04-2.99993E-15
 -1      3388 5.28541E-03 3.22287E-04-3.70899E-15
 -1      3389 5.14239E-03 3.22808E-04-3.47744E-15
 -1      3390 5.07029E-03 2.85651E-04-3.43277E-15
 -1      3391 5.57135E-03 3.21267E-04-4.19650E-15
 -1      3392 5.42840E-03 3.21775E-04-3.94834E-15
 -1      3393 5.35646E-03 2.84697E-04-3.89863E-15
 -1      3394 5.85720E-03 3.20272E-04-4.72006E-15
 -1      3395 5.71429E-03 3.20767E-04-4.45439E-15
 -1      3396 5.64247E-03 2.83761E-04-4.39984E-15
 -1      3397 6.14297E-03 3.19291E-04-5.28086E-15
 -1      3398 6.00009E-03 3.19781E-04-4.99531E-15
 -1      3399 5.92834E-03 2.82834E-04-4.93624E-15
 -1      3400 6.42871E-03 3.18312E-04-5.87536E-15
 -1      3401 6.28584E-03 3.18802E-04-5.57434E-15
 -1      3402 6.21411E-03 2.81899E-04-5.50879E-15
 -1      3403 6.71447E-03 3.17323E-04-6.50531E-15
 -1      3404 6.57158E-03 3.17819E-04-6.18583E-15
 -1      3405 6.49983E-03 2.80931E-04-6.11651E-15
 -1      3406 7.00036E-03 3.16325E-04-7.17270E-15
 -1      3407 6.85739E-03 3.16824E-04-6.83492E-15
 -1      3408 6.78557E-03 2.79905E-04-6.76031E-15
 -1      3409 7.28652E-03 3.15335E-04-7.87319E-15
 -1      3410 7.14340E-03 3.15826E-04-7.51793E-15
 -1      3411 7.07144E-03 2.78800E-04-7.43841E-15
 -1      3412 7.57318E-03 3.14401E-04-8.61052E-15
 -1      3413 7.42977E-03 3.14854E-04-8.23729E-15
 -1      3414 7.35764E-03 2.77604E-04-8.15004E-15
 -1      3415 7.86069E-03 3.13619E-04-9.38701E-15
 -1      3416 7.71681E-03 3.13979E-04-8.99399E-15
 -1      3417 7.64443E-03 2.76332E-04-8.90070E-15
 -1      3418 8.14952E-03 3.13151E-04-1.01966E-14
 -1      3419 8.00491E-03 3.13325E-04-9.78856E-15
 -1      3420 7.93225E-03 2.75038E-04-9.68693E-15
 -1      3421 8.44029E-03 3.13254E-04-1.10406E-14
 -1      3422 8.29463E-03 3.13100E-04-1.06148E-14
 -1      3423 8.22168E-03 2.73855E-04-1.05081E-14
 -1      3424 8.73377E-03 3.14299E-04-1.19200E-14
 -1      3425 8.58666E-03 3.13615E-04-1.14756E-14
 -1      3426 8.51351E-03 2.73032E-04-1.13613E-14
 -1      3427 9.03075E-03 3.16762E-04-1.28317E-14
 -1      3428 8.88180E-03 3.15300E-04-1.23712E-14
 -1      3429 8.80871E-03 2.72985E-04-1.22488E-14
 -1      3430 9.33186E-03 3.21140E-04-1.37768E-14
 -1      3431 9.18079E-03 3.18661E-04-1.33002E-14
 -1      3432 9.10830E-03 2.74328E-04-1.31690E-14
 -1      3433 9.63727E-03 3.27701E-04-1.47503E-14
 -1      3434 9.48410E-03 3.24132E-04-1.42600E-14
 -1      3435 9.41314E-03 2.77817E-04-1.41194E-14
 -1      3436 9.94626E-03 3.35930E-04-1.57474E-14
 -1      3437 9.79148E-03 3.31695E-04-1.52463E-14
 -1      3438 9.72353E-03 2.84099E-04-1.50965E-14
 -1      3439 1.02568E-02 3.43608E-04-1.67702E-14
 -1      3440 1.01016E-02 3.40093E-04-1.62563E-14
 -1      3441 1.00386E-02 2.92992E-04-1.60949E-14
 -1      3442 1.05659E-02 3.45684E-04-1.78123E-14
 -1      3443 1.04118E-02 3.45871E-04-1.72889E-14
 -1      3444 1.03559E-02 3.02356E-04-1.71188E-14
 -1      3445 1.08698E-02 3.33514E-04-1.88708E-14
 -1      3446 1.07187E-02 3.42162E-04-1.83390E-14
 -1      3447 1.06715E-02 3.06455E-04-1.81624E-14
 -1      3448 1.11667E-02 2.95586E-04-1.99444E-14
 -1      3449 1.10191E-02 3.18660E-04-1.94064E-14
 -1      3450 1.09811E-02 2.94940E-04-1.92226E-14
 -1      3451 1.14575E-02 2.20591E-04-2.10234E-14
 -1      3452 1.13125E-02 2.63354E-04-2.04834E-14
 -1      3453 1.12824E-02 2.53958E-04-2.02951E-14
 -1      3454 1.17464E-02 1.02114E-04-2.21104E-14
 -1      3455 1.16017E-02 1.66887E-04-2.15667E-14
 -1      3456 1.15776E-02 1.70728E-04-2.13754E-14
 -1      3457 1.20387E-02-5.84171E-05-2.31961E-14
 -1      3458 1.18917E-02 2.65733E-05-2.26535E-14
 -1      3459 1.18723E-02 3.94776E-05-2.24601E-14
 -1      3460 1.23372E-02-2.52007E-04-2.42803E-14
 -1      3461 1.21870E-02-1.51824E-04-2.37378E-14
 -1      3462 1.21721E-02-1.35035E-04-2.35442E-14
 -1      3463 1.26418E-02-4.67216E-04-2.53676E-14
 -1      3464 1.24889E-02-3.57725E-04-2.48235E-14
 -1      3465 1.24798E-02-3.41218E-04-2.46313E-14
 -1      3466 1.29492E-02-6.93010E-04-2.64562E-14
 -1      3467 1.27955E-02-5.79384E-04-2.59124E-14
 -1      3468 1.27932E-02-5.64519E-04-2.57183E-14
 -1      3469 1.31682E-02-8.49183E-04-2.71495E-14
 -1      3470 1.45084E-02-1.46256E-03-2.78774E-14
 -1      3471 1.43362E-02-1.40305E-03-2.77906E-14
 -1      3472 1.47114E-02-1.51916E-03-2.79527E-14
 -1      3473 9.54052E-03-4.41996E-04-1.70436E-14
 -1      3474 9.59861E-03-4.65746E-04-1.73604E-14
 -1      3475 9.51566E-03-4.09452E-04-1.67207E-14
 -1      3476 1.03366E-02-2.02175E-04-1.79252E-14
 -1      3477 1.04804E-02-1.40646E-04-1.81541E-14
 -1      3478 1.05748E-03-2.14930E-04-1.97609E-16
 -1      3479 1.38987E-02-1.22352E-03-2.76912E-14
 -1      3480 1.37646E-02-1.15813E-03-2.75992E-14
 -1      3481 1.38175E-02-1.16409E-03-2.72574E-14
 -1      3482 1.48862E-02-1.53009E-03-2.77524E-14
 -1      3483 1.50499E-02-1.55181E-03-2.78342E-14
 -1      3484 1.52863E-02-1.64264E-03-2.85863E-14
 -1      3485 1.17695E-03-2.14626E-04-2.38646E-16
 -1      3486 1.23277E-02-1.70704E-04-2.33363E-14
 -1      3487 1.25039E-02-2.86925E-04-2.38251E-14
 -1      3488 1.31809E-02-7.54781E-04-2.55170E-14
 -1      3489 1.34802E-02-9.46331E-04-2.61685E-14
 -1      3490 1.01519E-03-3.89551E-05-1.65693E-16
 -1      3491 1.01628E-03-6.57806E-05-1.71087E-16
 -1      3492 1.13781E-03-8.59894E-05-2.11853E-16
 -1      3493 9.71707E-03-4.42026E-04-1.73839E-14
 -1      3494 9.83354E-03-4.14135E-04-1.74715E-14
 -1      3495 1.51677E-02-1.59588E-03-2.82003E-14
 -1      3496 1.28886E-03-1.90443E-04-2.78708E-16
 -1      3497 1.31917E-03-2.30176E-04-2.92735E-16
 -1      3498 1.46214E-03-2.43692E-04-3.53152E-16
 -1      3499 1.58260E-03-2.57449E-04-4.09178E-16
 -1      3500 1.72643E-03-2.67686E-04-4.81074E-16
 -1      3501 1.79293E-03-2.37689E-04-5.13356E-16
 -1      3502 1.55153E-03-2.14966E-04-3.91438E-16
 -1      3503 1.27005E-02-4.22417E-04-2.43466E-14
 -1      3504 1.29061E-02-5.68149E-04-2.48667E-14
 -1      3505 1.25896E-02-3.59698E-04-2.41855E-14
 -1      3506 3.27868E-03 3.26582E-04-1.20825E-15
 -1      3507 3.13484E-03 3.25894E-04-1.08812E-15
 -1      3508 3.05948E-03 2.87723E-04-1.06965E-15
 -1      3509 3.34778E-03 2.89032E-04-1.31430E-15
 -1      3510 9.65088E-03-4.56717E-04-1.73549E-14
 -1      3511 1.14503E-02 1.18289E-04-2.05437E-14
 -1      3512 1.15799E-02 1.26281E-04-2.09604E-14
 -1      3513 1.12932E-02 1.23432E-04-2.00845E-14
 -1      3514 1.31739E-02-8.36387E-04-2.69593E-14
 -1      3515 1.51789E-02-1.64121E-03-2.85584E-14
 -1      3516 1.09078E-02 4.84764E-05-1.90070E-14
 -1      3517 1.09714E-02 8.67964E-05-1.91540E-14
 -1      3518 1.07320E-02 5.05406E-05-1.84923E-14
 -1      3519 1.47749E-03 2.60098E-04-1.99940E-16
 -1      3520 1.36408E-02-1.09460E-03-2.75073E-14
 -1      3521 1.35246E-02-1.03416E-03-2.74143E-14
 -1      3522 1.35519E-02-1.02782E-03-2.70758E-14
 -1      3523 2.70285E-03 3.21315E-04-7.70271E-16
 -1      3524 2.55871E-03 3.18671E-04-6.78670E-16
 -1      3525 2.77081E-03 2.84940E-04-8.53498E-16
 -1      3526 1.30427E-02-6.71852E-04-2.53552E-14
 -1      3527 9.64240E-03-4.18495E-04-1.70662E-14
 -1      3528 1.25735E-03 4.77833E-05-2.18020E-16
 -1      3529 1.25661E-03 1.67295E-05-2.27574E-16
 -1      3530 1.50412E-02-1.62041E-03-2.84648E-14
 -1      3531 1.15313E-02 1.44233E-04-2.08557E-14
 -1      3532 1.16842E-02 1.16723E-04-2.13200E-14
 -1      3533 1.17816E-02 9.16453E-05-2.16815E-14
 -1      3534 1.48870E-02-1.55925E-03-2.80460E-14
 -1      3535 1.41051E-02-1.28669E-03-2.72656E-14
 -1      3536 1.01823E-02-2.22712E-04-1.75683E-14
 -1      3537 1.13529E-03-2.77221E-05-1.99412E-16
 -1      3538 1.33952E-02-9.60436E-04-2.72352E-14
 -1      3539 1.32920E-02-9.05239E-04-2.71408E-14
 -1      3540 1.30627E-02-7.46054E-04-2.64459E-14
 -1      3541 1.33040E-02-8.88714E-04-2.68050E-14
 -1      3542 9.86416E-03-3.59447E-04-1.72704E-14
 -1      3543 1.38228E-02-1.14490E-03-2.68368E-14
 -1      3544 1.21668E-02-8.06887E-05-2.29046E-14
 -1      3545 1.22433E-02-1.38800E-04-2.32331E-14
 -1      3546 1.20157E-02-5.72562E-06-2.24739E-14
 -1      3547 1.36373E-02-1.04891E-03-2.66763E-14
 -1      3548 1.83774E-03 2.91287E-04-3.19731E-16
 -1      3549 1.69375E-03 2.81893E-04-2.66781E-16
 -1      3550 1.28449E-03-1.57328E-04-2.73626E-16
 -1      3551 1.04968E-02-6.40996E-05-1.80175E-14
 -1      3552 1.14366E-03 1.48609E-04-1.46787E-16
 -1      3553 2.12606E-03 3.05661E-04-4.43967E-16
 -1      3554 1.98185E-03 2.99171E-04-3.78902E-16
 -1      3555 1.90396E-03 2.60192E-04-3.70472E-16
 -1      3556 1.26102E-03 1.10390E-04-1.97582E-16
 -1      3557 1.25881E-03 7.89205E-05-2.08113E-16
 -1      3558 1.38050E-03 6.70164E-05-2.54666E-16
 -1      3559 1.24741E-02-2.93731E-04-2.39933E-14
 -1      3560 1.26568E-02-4.18957E-04-2.45139E-14
 -1      3561 2.27098E-03-2.24841E-04-8.01605E-16
 -1      3562 2.41583E-03-2.28104E-04-9.04333E-16
 -1      3563 2.56069E-03-2.30705E-04-1.01443E-15
 -1      3564 2.70553E-03-2.32711E-04-1.13158E-15
 -1      3565 2.48486E-03-1.92485E-04-9.45980E-16
 -1      3566 2.85031E-03-2.34241E-04-1.25529E-15
 -1      3567 2.99501E-03-2.35345E-04-1.38589E-15
 -1      3568 2.77496E-03-1.95981E-04-1.17710E-15
 -1      3569 3.13961E-03-2.36119E-04-1.52394E-15
 -1      3570 3.28411E-03-2.36600E-04-1.66891E-15
 -1      3571 3.06481E-03-1.97917E-04-1.43597E-15
 -1      3572 3.42849E-03-2.36861E-04-1.82200E-15
 -1      3573 3.57276E-03-2.36926E-04-1.98202E-15
 -1      3574 3.35424E-03-1.98769E-04-1.72339E-15
 -1      3575 3.71691E-03-2.36853E-04-2.15026E-15
 -1      3576 3.86095E-03-2.36656E-04-2.32700E-15
 -1      3577 3.64317E-03-1.98898E-04-2.04177E-15
 -1      3578 4.00489E-03-2.36377E-04-2.51184E-15
 -1      3579 4.14871E-03-2.36025E-04-2.70503E-15
 -1      3580 3.93161E-03-1.98567E-04-2.39267E-15
 -1      3581 4.29244E-03-2.35630E-04-2.90623E-15
 -1      3582 4.43607E-03-2.35195E-04-3.11630E-15
 -1      3583 4.21956E-03-1.97963E-04-2.77656E-15
 -1      3584 4.57962E-03-2.34741E-04-3.33465E-15
 -1      3585 4.72308E-03-2.34269E-04-3.56156E-15
 -1      3586 4.50707E-03-1.97212E-04-3.19331E-15
 -1      3587 4.86646E-03-2.33794E-04-3.79724E-15
 -1      3588 5.00978E-03-2.33314E-04-4.04074E-15
 -1      3589 4.79419E-03-1.96396E-04-3.64318E-15
 -1      3590 5.15302E-03-2.32837E-04-4.29251E-15
 -1      3591 5.29620E-03-2.32363E-04-4.55284E-15
 -1      3592 5.08096E-03-1.95565E-04-4.12699E-15
 -1      3593 5.43932E-03-2.31896E-04-4.82305E-15
 -1      3594 5.58237E-03-2.31434E-04-5.10101E-15
 -1      3595 5.36742E-03-1.94747E-04-4.64444E-15
 -1      3596 5.72537E-03-2.30980E-04-5.38679E-15
 -1      3597 5.86830E-03-2.30534E-04-5.68455E-15
 -1      3598 5.65360E-03-1.93958E-04-5.19726E-15
 -1      3599 6.01118E-03-2.30098E-04-5.99060E-15
 -1      3600 6.15398E-03-2.29673E-04-6.30390E-15
 -1      3601 5.93950E-03-1.93213E-04-5.78579E-15
 -1      3602 6.29670E-03-2.29264E-04-6.62710E-15
 -1      3603 6.43934E-03-2.28872E-04-6.95890E-15
 -1      3604 6.22509E-03-1.92531E-04-6.41199E-15
 -1      3605 6.58188E-03-2.28509E-04-7.29656E-15
 -1      3606 6.72429E-03-2.28180E-04-7.64353E-15
 -1      3607 6.51033E-03-1.91957E-04-7.06997E-15
 -1      3608 6.86656E-03-2.27907E-04-8.00003E-15
 -1      3609 7.00867E-03-2.27698E-04-8.36275E-15
 -1      3610 6.79510E-03-1.91570E-04-7.75958E-15
 -1      3611 7.15055E-03-2.27594E-04-8.73395E-15
 -1      3612 7.29219E-03-2.27610E-04-9.11439E-15
 -1      3613 7.07922E-03-1.91521E-04-8.48186E-15
 -1      3614 7.43350E-03-2.27817E-04-9.50256E-15
 -1      3615 7.57444E-03-2.28239E-04-9.90119E-15
 -1      3616 7.36243E-03-1.92060E-04-9.23774E-15
 -1      3617 7.71490E-03-2.28992E-04-1.03075E-14
 -1      3618 7.85480E-03-2.30116E-04-1.07203E-14
 -1      3619 7.64431E-03-1.93604E-04-1.00292E-14
 -1      3620 7.99401E-03-2.31798E-04-1.11423E-14
 -1      3621 8.13237E-03-2.34094E-04-1.15711E-14
 -1      3622 7.92430E-03-1.96807E-04-1.08549E-14
 -1      3623 8.26976E-03-2.37299E-04-1.20050E-14
 -1      3624 8.40593E-03-2.41488E-04-1.24434E-14
 -1      3625 8.20162E-03-2.02669E-04-1.17078E-14
 -1      3626 8.54076E-03-2.47104E-04-1.28891E-14
 -1      3627 8.67385E-03-2.54236E-04-1.33398E-14
 -1      3628 8.47531E-03-2.12653E-04-1.25847E-14
 -1      3629 8.80520E-03-2.63518E-04-1.37947E-14
 -1      3630 8.93420E-03-2.75032E-04-1.42546E-14
 -1      3631 8.74426E-03-2.28787E-04-1.34842E-14
 -1      3632 9.06110E-03-2.89616E-04-1.47180E-14
 -1      3633 9.18498E-03-3.07286E-04-1.51863E-14
 -1      3634 9.00750E-03-2.53662E-04-1.44033E-14
 -1      3635 9.30064E-03-3.27810E-04-1.56343E-14
 -1      3636 9.41308E-03-3.51798E-04-1.60862E-14
 -1      3637 9.25839E-03-2.89065E-04-1.53145E-14
 -1      3638 4.28100E-03 2.50458E-04-2.37257E-15
 -1      3639 4.13732E-03 2.50804E-04-2.19384E-15
 -1      3640 1.54340E-03 2.33459E-04-2.38172E-16
 -1      3641 2.41451E-03 3.15258E-04-5.93696E-16
 -1      3642 2.27029E-03 3.10985E-04-5.15254E-16
 -1      3643 2.19280E-03 2.72123E-04-5.04954E-16
 -1      3644 2.48186E-03 2.80023E-04-6.65863E-16
 -1      3645 9.71263E-03-3.43561E-04-1.68056E-14
 -1      3646 9.86335E-03-2.96598E-04-1.69788E-14
 -1      3647 3.99355E-03 2.51092E-04-2.02351E-15
 -1      3648 3.84967E-03 2.51316E-04-1.86140E-15
 -1      3649 4.06416E-03 2.13062E-04-2.15619E-15
 -1      3650 4.85485E-03 2.48829E-04-3.16709E-15
 -1      3651 4.71150E-03 2.49258E-04-2.95690E-15
 -1      3652 5.14133E-03 2.47971E-04-3.61233E-15
 -1      3653 4.99812E-03 2.48401E-04-3.38489E-15
 -1      3654 4.92591E-03 2.11052E-04-3.33614E-15
 -1      3655 5.42758E-03 2.47119E-04-4.09027E-15
 -1      3656 5.28449E-03 2.47544E-04-3.84688E-15
 -1      3657 5.21247E-03 2.10309E-04-3.79335E-15
 -1      3658 5.71363E-03 2.46273E-04-4.60518E-15
 -1      3659 5.57063E-03 2.46697E-04-4.34331E-15
 -1      3660 5.49876E-03 2.09566E-04-4.28456E-15
 -1      3661 5.99951E-03 2.45418E-04-5.15386E-15
 -1      3662 5.85659E-03 2.45849E-04-4.87471E-15
 -1      3663 5.78482E-03 2.08816E-04-4.81184E-15
 -1      3664 6.28526E-03 2.44526E-04-5.74000E-15
 -1      3665 6.14240E-03 2.44979E-04-5.44290E-15
 -1      3666 6.07068E-03 2.08033E-04-5.37516E-15
 -1      3667 6.57094E-03 2.43560E-04-6.35981E-15
 -1      3668 6.42810E-03 2.44055E-04-6.04528E-15
 -1      3669 6.35639E-03 2.07181E-04-5.97329E-15
 -1      3670 6.85663E-03 2.42475E-04-7.01673E-15
 -1      3671 6.71377E-03 2.43035E-04-6.68343E-15
 -1      3672 6.64201E-03 2.06204E-04-6.60621E-15
 -1      3673 7.14246E-03 2.41224E-04-7.70479E-15
 -1      3674 6.99951E-03 2.41873E-04-7.35614E-15
 -1      3675 6.92762E-03 2.05037E-04-7.27302E-15
 -1      3676 7.42866E-03 2.39759E-04-8.42924E-15
 -1      3677 7.28550E-03 2.40519E-04-8.06226E-15
 -1      3678 7.21339E-03 2.03597E-04-7.97269E-15
 -1      3679 7.71554E-03 2.38048E-04-9.19151E-15
 -1      3680 7.57199E-03 2.38931E-04-8.80620E-15
 -1      3681 7.49954E-03 2.01792E-04-8.71015E-15
 -1      3682 8.00362E-03 2.36100E-04-9.98881E-15
 -1      3683 7.85940E-03 2.37094E-04-9.58553E-15
 -1      3684 7.78646E-03 1.99535E-04-9.48364E-15
 -1      3685 8.29360E-03 2.34004E-04-1.08190E-14
 -1      3686 8.14833E-03 2.35048E-04-1.03994E-14
 -1      3687 8.07472E-03 1.96774E-04-1.02905E-14
 -1      3688 8.58644E-03 2.32000E-04-1.16831E-14
 -1      3689 8.43961E-03 2.32949E-04-1.12471E-14
 -1      3690 8.36516E-03 1.93547E-04-1.11315E-14
 -1      3691 8.88333E-03 2.30564E-04-1.25787E-14
 -1      3692 8.73431E-03 2.31143E-04-1.21265E-14
 -1      3693 8.65891E-03 1.90084E-04-1.20050E-14
 -1      3694 9.18557E-03 2.30486E-04-1.35060E-14
 -1      3695 9.03373E-03 2.30258E-04-1.30387E-14
 -1      3696 8.95742E-03 1.86938E-04-1.29098E-14
 -1      3697 9.49432E-03 2.32862E-04-1.44611E-14
 -1      3698 9.33913E-03 2.31252E-04-1.39807E-14
 -1      3699 9.26234E-03 1.85132E-04-1.38429E-14
 -1      3700 9.81005E-03 2.38843E-04-1.54407E-14
 -1      3701 9.65140E-03 2.35310E-04-1.49489E-14
 -1      3702 9.57516E-03 1.86224E-04-1.48028E-14
 -1      3703 1.01318E-02 2.48815E-04-1.64433E-14
 -1      3704 9.97039E-03 2.43396E-04-1.59393E-14
 -1      3705 9.89661E-03 1.92128E-04-1.57845E-14
 -1      3706 1.04566E-02 2.60526E-04-1.74673E-14
 -1      3707 1.02942E-02 2.54752E-04-1.69519E-14
 -1      3708 1.02256E-02 2.03682E-04-1.67887E-14
 -1      3709 1.07794E-02 2.67842E-04-1.85114E-14
 -1      3710 1.06187E-02 2.65629E-04-1.79871E-14
 -1      3711 1.05584E-02 2.19090E-04-1.78129E-14
 -1      3712 1.10949E-02 2.57740E-04-1.95729E-14
 -1      3713 1.09383E-02 2.66157E-04-1.90400E-14
 -1      3714 1.08888E-02 2.30760E-04-1.88585E-14
 -1      3715 1.14008E-02 2.13392E-04-2.06446E-14
 -1      3716 1.12488E-02 2.41137E-04-2.01077E-14
 -1      3717 1.12102E-02 2.22625E-04-1.99202E-14
 -1      3718 1.20014E-02-2.62236E-05-2.28086E-14
 -1      3719 1.18500E-02 5.33736E-05-2.22660E-14
 -1      3720 1.24299E-02-2.91461E-04-2.42043E-14
 -1      3721 1.22700E-02-1.85106E-04-2.36618E-14
 -1      3722 1.25918E-02-4.03066E-04-2.47506E-14
 -1      3723 1.29012E-02-6.29814E-04-2.58969E-14
 -1      3724 9.49115E-03-3.73083E-04-1.64162E-14
 -1      3725 9.56731E-03-3.93390E-04-1.67316E-14
 -1      3726 9.62872E-03-3.74408E-04-1.67595E-14
 -1      3727 9.46301E-03-3.30407E-04-1.60953E-14
 -1      3728 1.25657E-03-1.41956E-05-2.36302E-16
 -1      3729 1.25722E-03-4.51806E-05-2.44203E-16
 -1      3730 1.37890E-03 1.37538E-06-2.75970E-16
 -1      3731 1.34985E-02-9.76268E-04-2.65869E-14
 -1      3732 3.70569E-03 2.51439E-04-1.70728E-15
 -1      3733 3.56160E-03 2.51448E-04-1.56053E-15
 -1      3734 3.77607E-03 2.13428E-04-1.82753E-15
 -1      3735 1.28902E-02-5.79257E-04-2.51467E-14
 -1      3736 1.31448E-02-7.51718E-04-2.57960E-14
 -1      3737 1.29565E-03-1.21489E-04-2.72948E-16
 -1      3738 1.44131E-03-1.63806E-04-3.36916E-16
 -1      3739 1.29320E-03-8.93969E-05-2.66470E-16
 -1      3740 1.33734E-02-9.07995E-04-2.64964E-14
 -1      3741 4.56808E-03 2.49674E-04-2.75389E-15
 -1      3742 4.42459E-03 2.50080E-04-2.55949E-15
 -1      3743 4.63904E-03 2.11787E-04-2.91116E-15
 -1      3744 9.99413E-03-2.34170E-04-1.70896E-14
 -1      3745 1.01267E-02-1.57483E-04-1.72080E-14
 -1      3746 1.03146E-02-6.35458E-05-1.74946E-14
 -1      3747 1.04760E-02 4.49824E-06-1.78193E-14
 -1      3748 1.98154E-03-2.15821E-04-6.15867E-16
 -1      3749 2.12619E-03-2.20776E-04-7.05517E-16
 -1      3750 2.19482E-03-1.86824E-04-7.41974E-16
 -1      3751 1.25056E-03 1.68995E-04-1.70355E-16
 -1      3752 1.24677E-03 1.36627E-04-1.82702E-16
 -1      3753 1.36789E-03 1.27914E-04-2.26503E-16
 -1      3754 1.34070E-03 1.83415E-04-1.92785E-16
 -1      3755 1.11321E-02 1.33135E-04-1.96022E-14
 -1      3756 1.12651E-02 1.58310E-04-2.00131E-14
 -1      3757 4.35181E-03 2.12479E-04-2.51711E-15
 -1      3758 2.83951E-03 2.48214E-04-9.38851E-16
 -1      3759 2.69481E-03 2.46536E-04-8.36245E-16
 -1      3760 9.94255E-03-1.00581E-04-1.65325E-14
 -1      3761 1.01261E-02-8.57243E-05-1.70105E-14
 -1      3762 1.01122E-02-1.65366E-05-1.68102E-14
 -1      3763 1.41501E-03-7.75637E-05-3.10651E-16
 -1      3764 1.65584E-03 2.10638E-04-2.94171E-16
 -1      3765 1.44014E-03 1.92224E-04-2.22302E-16
 -1      3766 1.27637E-02-5.01805E-04-2.49528E-14
 -1      3767 1.32163E-02-8.14314E-04-2.62839E-14
 -1      3768 1.14002E-02 1.74089E-04-2.04777E-14
 -1      3769 1.14971E-02 1.68586E-04-2.08361E-14
 -1      3770 1.15554E-02 1.72134E-04-2.12034E-14
 -1      3771 1.15257E-02 1.72243E-04-2.10124E-14
 -1      3772 1.16588E-02 1.30210E-04-2.13930E-14
 -1      3773 1.17052E-02 1.18356E-04-2.17438E-14
 -1      3774 1.22525E-02-1.63678E-04-2.34663E-14
 -1      3775 1.28052E-02-5.49595E-04-2.53808E-14
 -1      3776 1.18077E-02 8.02800E-05-2.18594E-14
 -1      3777 1.86041E-03-2.06794E-04-5.45408E-16
 -1      3778 1.92875E-03-1.74982E-04-5.77934E-16
 -1      3779 1.73949E-03-1.97178E-04-4.80410E-16
 -1      3780 9.62242E-03-3.22458E-04-1.64719E-14
 -1      3781 1.18825E-02 4.47222E-05-2.21841E-14
 -1      3782 3.12866E-03 2.50353E-04-1.16594E-15
 -1      3783 2.98414E-03 2.49471E-04-1.04865E-15
 -1      3784 2.90888E-03 2.11191E-04-1.02641E-15
 -1      3785 1.05471E-02 4.40816E-05-1.79612E-14
 -1      3786 1.06131E-02 8.25903E-05-1.81023E-14
 -1      3787 1.03657E-02 4.30092E-05-1.74332E-14
 -1      3788 1.50223E-03 1.86561E-05-3.18674E-16
 -1      3789 1.50219E-03-1.57775E-05-3.29801E-16
 -1      3790 1.56123E-03-1.74702E-04-3.91126E-16
 -1      3791 1.50472E-03 8.76489E-05-2.94076E-16
 -1      3792 1.50307E-03 5.30658E-05-3.06721E-16
 -1      3793 1.62645E-03 3.73416E-05-3.64414E-16
 -1      3794 1.45332E-03 1.63272E-04-2.40977E-16
 -1      3795 1.09577E-02 1.37274E-04-1.90791E-14
 -1      3796 9.82311E-03-2.32729E-04-1.66234E-14
 -1      3797 3.41740E-03 2.51292E-04-1.42188E-15
 -1      3798 3.27309E-03 2.50950E-04-1.29034E-15
 -1      3799 3.48749E-03 2.13412E-04-1.53106E-15
 -1      3800 1.97118E-03 2.28300E-04-4.23801E-16
 -1      3801 1.82678E-03 2.21907E-04-3.60592E-16
 -1      3802 1.23142E-02-1.93737E-04-2.35615E-14
 -1      3803 1.72355E-03 1.81162E-04-3.39057E-16
 -1      3804 2.69989E-03-1.57835E-04-1.10079E-15
 -1      3805 2.84508E-03-1.58916E-04-1.22192E-15
 -1      3806 2.99019E-03-1.59716E-04-1.35009E-15
 -1      3807 3.13520E-03-1.60259E-04-1.48471E-15
 -1      3808 2.91581E-03-1.21569E-04-1.26591E-15
 -1      3809 3.28009E-03-1.60611E-04-1.62748E-15
 -1      3810 3.42486E-03-1.60787E-04-1.77726E-15
 -1      3811 3.20611E-03-1.22423E-04-1.53294E-15
 -1      3812 3.56949E-03-1.60839E-04-1.93479E-15
 -1      3813 3.71399E-03-1.60776E-04-2.10068E-15
 -1      3814 3.49592E-03-1.22701E-04-1.82994E-15
 -1      3815 3.85835E-03-1.60637E-04-2.27497E-15
 -1      3816 4.00258E-03-1.60426E-04-2.45764E-15
 -1      3817 3.78517E-03-1.22602E-04-2.15886E-15
 -1      3818 4.14668E-03-1.60174E-04-2.64796E-15
 -1      3819 4.29066E-03-1.59880E-04-2.84660E-15
 -1      3820 4.07384E-03-1.22271E-04-2.52093E-15
 -1      3821 4.43451E-03-1.59566E-04-3.05334E-15
 -1      3822 4.57826E-03-1.59231E-04-3.26830E-15
 -1      3823 4.36198E-03-1.21806E-04-2.91511E-15
 -1      3824 4.72190E-03-1.58890E-04-3.49189E-15
 -1      3825 4.86544E-03-1.58541E-04-3.72354E-15
 -1      3826 4.64961E-03-1.21277E-04-3.34260E-15
 -1      3827 5.00888E-03-1.58195E-04-3.96283E-15
 -1      3828 5.15224E-03-1.57849E-04-4.21088E-15
 -1      3829 4.93681E-03-1.20725E-04-3.80101E-15
 -1      3830 5.29552E-03-1.57510E-04-4.46819E-15
 -1      3831 5.43871E-03-1.57176E-04-4.73411E-15
 -1      3832 5.22361E-03-1.20180E-04-4.29379E-15
 -1      3833 5.58183E-03-1.56854E-04-5.00861E-15
 -1      3834 5.72487E-03-1.56542E-04-5.29184E-15
 -1      3835 5.51006E-03-1.19663E-04-4.82146E-15
 -1      3836 5.86783E-03-1.56246E-04-5.58445E-15
 -1      3837 6.01071E-03-1.55967E-04-5.88687E-15
 -1      3838 5.79617E-03-1.19193E-04-5.38558E-15
 -1      3839 6.15351E-03-1.55713E-04-6.19712E-15
 -1      3840 6.29622E-03-1.55486E-04-6.51713E-15
 -1      3841 6.08195E-03-1.18801E-04-5.98520E-15
 -1      3842 6.43883E-03-1.55302E-04-6.84420E-15
 -1      3843 6.58134E-03-1.55166E-04-7.17822E-15
 -1      3844 6.36737E-03-1.18539E-04-6.61943E-15
 -1      3845 6.72371E-03-1.55101E-04-7.52196E-15
 -1      3846 6.86595E-03-1.55120E-04-7.87295E-15
 -1      3847 6.65238E-03-1.18493E-04-7.28707E-15
 -1      3848 7.00801E-03-1.55260E-04-8.23271E-15
 -1      3849 7.14988E-03-1.55543E-04-8.59982E-15
 -1      3850 6.93688E-03-1.18811E-04-7.98411E-15
 -1      3851 7.29152E-03-1.56030E-04-8.97588E-15
 -1      3852 7.43289E-03-1.56754E-04-9.36042E-15
 -1      3853 7.22070E-03-1.19734E-04-8.71571E-15
 -1      3854 7.57394E-03-1.57810E-04-9.75407E-15
 -1      3855 7.71461E-03-1.59248E-04-1.01573E-14
 -1      3856 7.50366E-03-1.21633E-04-9.48212E-15
 -1      3857 7.85486E-03-1.61212E-04-1.05684E-14
 -1      3858 7.99459E-03-1.63777E-04-1.09867E-14
 -1      3859 7.78547E-03-1.25072E-04-1.02837E-14
 -1      3860 8.13377E-03-1.67149E-04-1.14118E-14
 -1      3861 8.27225E-03-1.71433E-04-1.18426E-14
 -1      3862 8.06583E-03-1.30864E-04-1.11171E-14
 -1      3863 8.41007E-03-1.76914E-04-1.22798E-14
 -1      3864 8.54701E-03-1.83728E-04-1.27235E-14
 -1      3865 8.34448E-03-1.40137E-04-1.19764E-14
 -1      3866 8.68324E-03-1.92237E-04-1.31734E-14
 -1      3867 8.81845E-03-2.02604E-04-1.36276E-14
 -1      3868 8.62129E-03-1.54344E-04-1.28619E-14
 -1      3869 8.95307E-03-2.15209E-04-1.40871E-14
 -1      3870 9.08674E-03-2.30244E-04-1.45506E-14
 -1      3871 8.89667E-03-1.75171E-04-1.37706E-14
 -1      3872 9.21369E-03-2.46993E-04-1.49948E-14
 -1      3873 9.34015E-03-2.66321E-04-1.54444E-14
 -1      3874 9.16513E-03-2.03295E-04-1.46752E-14
 -1      3875 2.61901E-03 2.08212E-04-8.16851E-16
 -1      3876 2.55006E-03 2.44325E-04-7.40253E-16
 -1      3877 2.40527E-03 2.41518E-04-6.50860E-16
 -1      3878 1.18307E-02 6.52669E-05-2.20903E-14
 -1      3879 1.12430E-02 1.98773E-04-1.99904E-14
 -1      3880 4.13507E-03 1.74990E-04-2.29168E-15
 -1      3881 3.99100E-03 1.75193E-04-2.11712E-15
 -1      3882 5.28370E-03 1.72672E-04-3.97677E-15
 -1      3883 5.14044E-03 1.72984E-04-3.73807E-15
 -1      3884 4.99710E-03 1.73292E-04-3.50783E-15
 -1      3885 4.85368E-03 1.73601E-04-3.28531E-15
 -1      3886 5.06840E-03 1.35567E-04-3.68106E-15
 -1      3887 5.85604E-03 1.71394E-04-5.02188E-15
 -1      3888 5.71305E-03 1.71726E-04-4.74764E-15
 -1      3889 6.14187E-03 1.70686E-04-5.59798E-15
 -1      3890 5.99898E-03 1.71051E-04-5.30472E-15
 -1      3891 5.92730E-03 1.34021E-04-5.23377E-15
 -1      3892 6.42751E-03 1.69868E-04-6.20821E-15
 -1      3893 6.28471E-03 1.70295E-04-5.89899E-15
 -1      3894 6.21306E-03 1.33386E-04-5.82236E-15
 -1      3895 6.71304E-03 1.68871E-04-6.85331E-15
 -1      3896 6.57029E-03 1.69398E-04-6.52573E-15
 -1      3897 6.49862E-03 1.32600E-04-6.44549E-15
 -1      3898 6.99855E-03 1.67599E-04-7.53229E-15
 -1      3899 6.85579E-03 1.68276E-04-7.19000E-15
 -1      3900 6.78404E-03 1.31571E-04-7.10338E-15
 -1      3901 7.28420E-03 1.65930E-04-8.24425E-15
 -1      3902 7.14135E-03 1.66821E-04-7.88361E-15
 -1      3903 7.06940E-03 1.30171E-04-7.79373E-15
 -1      3904 7.57024E-03 1.63719E-04-8.99233E-15
 -1      3905 7.42715E-03 1.64899E-04-8.61323E-15
 -1      3906 7.35486E-03 1.28233E-04-8.51604E-15
 -1      3907 7.85709E-03 1.60813E-04-9.77716E-15
 -1      3908 7.71353E-03 1.62357E-04-9.38189E-15
 -1      3909 7.64070E-03 1.25549E-04-9.27672E-15
 -1      3910 8.14539E-03 1.57085E-04-1.05935E-14
 -1      3911 8.00101E-03 1.59047E-04-1.01803E-14
 -1      3912 7.92735E-03 1.21885E-04-1.00711E-14
 -1      3913 8.43609E-03 1.52510E-04-1.14459E-14
 -1      3914 8.29037E-03 1.54880E-04-1.10154E-14
 -1      3915 8.21550E-03 1.17022E-04-1.08991E-14
 -1      3916 8.73053E-03 1.47297E-04-1.23277E-14
 -1      3917 8.58275E-03 1.49928E-04-1.18828E-14
 -1      3918 8.50622E-03 1.10856E-04-1.17589E-14
 -1      3919 9.03043E-03 1.42085E-04-1.32387E-14
 -1      3920 8.87968E-03 1.44585E-04-1.27792E-14
 -1      3921 8.80105E-03 1.03565E-04-1.26500E-14
 -1      3922 9.33785E-03 1.38173E-04-1.41799E-14
 -1      3923 9.18309E-03 1.39794E-04-1.37072E-14
 -1      3924 9.10205E-03 9.58873E-05-1.35703E-14
 -1      3925 9.65475E-03 1.37687E-04-1.51406E-14
 -1      3926 9.49507E-03 1.37272E-04-1.46572E-14
 -1      3927 9.41175E-03 8.94633E-05-1.45147E-14
 -1      3928 9.98232E-03 1.43475E-04-1.61263E-14
 -1      3929 9.81732E-03 1.39529E-04-1.56315E-14
 -1      3930 9.73274E-03 8.71658E-05-1.54791E-14
 -1      3931 1.04164E-02 1.47629E-04-1.74363E-14
 -1      3932 1.02451E-02 1.38518E-04-1.69289E-14
 -1      3933 1.05887E-02 1.58939E-04-1.79491E-14
 -1      3934 1.10798E-02 2.02566E-04-1.94584E-14
 -1      3935 1.30902E-02-7.38878E-04-2.61075E-14
 -1      3936 9.44258E-03-2.83659E-04-1.58081E-14
 -1      3937 9.53206E-03-3.02628E-04-1.61392E-14
 -1      3938 9.60715E-03-2.68264E-04-1.61828E-14
 -1      3939 3.84681E-03 1.75338E-04-1.95080E-15
 -1      3940 3.70249E-03 1.75420E-04-1.79278E-15
 -1      3941 3.91788E-03 1.37210E-04-2.07618E-15
 -1      3942 1.46718E-03 1.34353E-04-2.59368E-16
 -1      3943 1.62955E-03-1.46083E-04-4.17689E-16
 -1      3944 5.57000E-03 1.72046E-04-4.48150E-15
 -1      3945 5.42688E-03 1.72362E-04-4.22432E-15
 -1      3946 5.64129E-03 1.34571E-04-4.68004E-15
 -1      3947 1.54613E-03-5.48539E-05-3.59576E-16
 -1      3948 1.58300E-03-1.04211E-04-3.88022E-16
 -1      3949 1.76057E-03-1.22856E-04-4.76927E-16
 -1      3950 1.66971E-03-3.88134E-05-4.10262E-16
 -1      3951 4.71016E-03 1.73903E-04-3.07049E-15
 -1      3952 4.56655E-03 1.74202E-04-2.86332E-15
 -1      3953 4.78144E-03 1.36045E-04-3.23182E-15
 -1      3954 2.40945E-03-1.54552E-04-8.78990E-16
 -1      3955 2.55467E-03-1.56392E-04-9.86556E-16
 -1      3956 2.62518E-03-1.19874E-04-1.02617E-15
 -1      3957 1.20346E-02-3.13621E-05-2.27072E-14
 -1      3958 2.11577E-03 2.33625E-04-4.93380E-16
 -1      3959 2.03928E-03 1.95630E-04-4.79461E-16
 -1      3960 2.26049E-03 2.37978E-04-5.69260E-16
 -1      3961 9.71801E-03-2.18979E-04-1.62874E-14
 -1      3962 9.83019E-03-1.60110E-04-1.63922E-14
 -1      3963 9.61538E-03-2.04413E-04-1.59539E-14
 -1      3964 2.11924E-03-1.49343E-04-6.84525E-16
 -1      3965 2.26429E-03-1.52219E-04-7.78538E-16
 -1      3966 2.33452E-03-1.17002E-04-8.14005E-16
 -1      3967 1.81127E-03 1.52385E-04-3.93796E-16
 -1      3968 1.64049E-03 1.43720E-04-3.23255E-16
 -1      3969 4.42284E-03 1.74484E-04-2.66420E-15
 -1      3970 4.27901E-03 1.74753E-04-2.47381E-15
 -1      3971 4.20623E-03 1.36910E-04-2.42856E-15
 -1      3972 1.09134E-02 1.98750E-04-1.89310E-14
 -1      3973 1.07662E-02 1.60354E-04-1.84866E-14
 -1      3974 9.91882E-03 2.87712E-05-1.61526E-14
 -1      3975 1.00946E-02 4.62565E-05-1.66307E-14
 -1      3976 9.40350E-03-2.34986E-04-1.54855E-14
 -1      3977 2.68871E-03 1.71693E-04-8.95795E-16
 -1      3978 2.54354E-03 1.70069E-04-7.95628E-16
 -1      3979 2.97890E-03 1.73882E-04-1.11549E-15
 -1      3980 2.83384E-03 1.72953E-04-1.00221E-15
 -1      3981 2.75908E-03 1.34821E-04-9.76243E-16
 -1      3982 2.10049E-03 1.60935E-04-5.33956E-16
 -1      3983 1.95572E-03 1.57055E-04-4.60447E-16
 -1      3984 1.87295E-03 1.19394E-04-4.40538E-16
 -1      3985 5.35501E-03 1.35078E-04-4.16225E-15
 -1      3986 1.55504E-03 1.08219E-04-3.05162E-16
 -1      3987 1.87911E-03-1.32669E-04-5.41017E-16
 -1      3988 2.00019E-03-1.39942E-04-6.10636E-16
 -1      3989 2.07024E-03-1.06359E-04-6.42403E-16
 -1      3990 1.83281E-03-8.89954E-05-5.05238E-16
 -1      3991 3.62898E-03 1.37313E-04-1.75546E-15
 -1      3992 3.55803E-03 1.75403E-04-1.64209E-15
 -1      3993 3.41344E-03 1.75280E-04-1.49942E-15
 -1      3994 3.19841E-03 2.12776E-04-1.26426E-15
 -1      3995 1.74356E-03-4.58668E-06-4.33220E-16
 -1      3996 1.78763E-03-4.63054E-05-4.68958E-16
 -1      3997 1.90596E-03-5.39782E-05-5.32465E-16
 -1      3998 4.49407E-03 1.36503E-04-2.81364E-15
 -1      3999 9.82901E-03-9.36631E-05-1.61940E-14
 -1      4000 9.38778E-03-1.78373E-04-1.52212E-14
 -1      4001 9.50035E-03-1.91526E-04-1.55844E-14
 -1      4002 9.59992E-03-1.40282E-04-1.56866E-14
 -1      4003 2.32901E-03 2.03262E-04-6.34949E-16
 -1      4004 3.13240E-03-8.42559E-05-1.44081E-15
 -1      4005 3.27754E-03-8.44283E-05-1.58039E-15
 -1      4006 3.42254E-03-8.45202E-05-1.72723E-15
 -1      4007 3.56740E-03-8.45292E-05-1.88193E-15
 -1      4008 3.34940E-03-4.63268E-05-1.62615E-15
 -1      4009 3.71212E-03-8.44881E-05-2.04466E-15
 -1      4010 3.85668E-03-8.43931E-05-2.21619E-15
 -1      4011 3.63924E-03-4.63130E-05-1.93290E-15
 -1      4012 4.00110E-03-8.42701E-05-2.39592E-15
 -1      4013 4.14537E-03-8.41136E-05-2.58361E-15
 -1      4014 3.92848E-03-4.61843E-05-2.27242E-15
 -1      4015 4.28950E-03-8.39434E-05-2.77919E-15
 -1      4016 4.43350E-03-8.37542E-05-2.98274E-15
 -1      4017 4.21712E-03-4.59847E-05-2.64480E-15
 -1      4018 4.57737E-03-8.35610E-05-3.19399E-15
 -1      4019 4.72112E-03-8.33586E-05-3.41448E-15
 -1      4020 4.50519E-03-4.57475E-05-3.04864E-15
 -1      4021 4.86476E-03-8.31583E-05-3.64265E-15
 -1      4022 5.00829E-03-8.29558E-05-3.87800E-15
 -1      4023 4.79276E-03-4.54963E-05-3.48463E-15
 -1      4024 5.15172E-03-8.27599E-05-4.12140E-15
 -1      4025 5.29506E-03-8.25672E-05-4.37495E-15
 -1      4026 5.07987E-03-4.52486E-05-3.95303E-15
 -1      4027 5.43830E-03-8.23853E-05-4.63723E-15
 -1      4028 5.58146E-03-8.22122E-05-4.90803E-15
 -1      4029 5.36658E-03-4.50205E-05-4.45484E-15
 -1      4030 5.72453E-03-8.20558E-05-5.18849E-15
 -1      4031 5.86751E-03-8.19158E-05-5.47785E-15
 -1      4032 5.65291E-03-4.48320E-05-4.99321E-15
 -1      4033 6.01041E-03-8.18023E-05-5.77613E-15
 -1      4034 6.15323E-03-8.17175E-05-6.08298E-15
 -1      4035 5.93890E-03-4.47132E-05-5.56858E-15
 -1      4036 6.29595E-03-8.16760E-05-6.39744E-15
 -1      4037 6.43857E-03-8.16836E-05-6.72115E-15
 -1      4038 6.22454E-03-4.47133E-05-6.17745E-15
 -1      4039 6.58110E-03-8.17624E-05-7.05226E-15
 -1      4040 6.72350E-03-8.19238E-05-7.39155E-15
 -1      4041 6.50983E-03-4.49128E-05-6.81960E-15
 -1      4042 6.86579E-03-8.22019E-05-7.73815E-15
 -1      4043 7.00794E-03-8.26153E-05-8.09315E-15
 -1      4044 6.79472E-03-4.54410E-05-7.49437E-15
 -1      4045 7.14994E-03-8.32161E-05-8.45820E-15
 -1      4046 7.29176E-03-8.40337E-05-8.83038E-15
 -1      4047 7.07916E-03-4.64987E-05-8.20192E-15
 -1      4048 7.43340E-03-8.51450E-05-9.21252E-15
 -1      4049 7.57483E-03-8.65939E-05-9.60229E-15
 -1      4050 7.36310E-03-4.83885E-05-8.94346E-15
 -1      4051 7.71605E-03-8.84901E-05-1.00000E-14
 -1      4052 7.85700E-03-9.08966E-05-1.04072E-14
 -1      4053 7.64647E-03-5.15492E-05-9.72006E-15
 -1      4054 7.99774E-03-9.39624E-05-1.08236E-14
 -1      4055 8.13818E-03-9.77735E-05-1.12452E-14
 -1      4056 7.92928E-03-5.65906E-05-1.05311E-14
 -1      4057 8.27844E-03-1.02517E-04-1.16746E-14
 -1      4058 8.41842E-03-1.08306E-04-1.21101E-14
 -1      4059 8.21168E-03-6.43119E-05-1.13723E-14
 -1      4060 8.55836E-03-1.15342E-04-1.25508E-14
 -1      4061 8.69817E-03-1.23767E-04-1.29998E-14
 -1      4062 8.49411E-03-7.56727E-05-1.22410E-14
 -1      4063 8.83830E-03-1.33733E-04-1.34541E-14
 -1      4064 8.97867E-03-1.45408E-04-1.39132E-14
 -1      4065 8.77757E-03-9.16566E-05-1.31369E-14
 -1      4066 9.11334E-03-1.53875E-04-1.43417E-14
 -1      4067 9.24893E-03-1.67953E-04-1.47875E-14
 -1      4068 9.33698E-03-1.22870E-04-1.48832E-14
 -1      4069 9.05697E-03-1.08077E-04-1.40195E-14
 -1      4070 5.13981E-03 9.78846E-05-3.85546E-15
 -1      4071 4.99639E-03 9.80565E-05-3.62152E-15
 -1      4072 9.79425E-03-3.13510E-05-1.59294E-14
 -1      4073 9.78083E-03 2.91137E-05-1.57480E-14
 -1      4074 9.61722E-03 3.08160E-05-1.52618E-14
 -1      4075 9.69361E-03-8.80713E-05-1.57934E-14
 -1      4076 4.56549E-03 9.85440E-05-2.96517E-15
 -1      4077 4.42163E-03 9.86971E-05-2.76213E-15
 -1      4078 2.55092E-03-8.21939E-05-9.53664E-16
 -1      4079 2.69637E-03-8.29592E-05-1.06516E-15
 -1      4080 6.28426E-03 9.61403E-05-6.04887E-15
 -1      4081 6.14145E-03 9.64403E-05-5.74341E-15
 -1      4082 5.99858E-03 9.67017E-05-5.44679E-15
 -1      4083 5.85564E-03 9.69363E-05-5.15907E-15
 -1      4084 6.06988E-03 5.94466E-05-5.66184E-15
 -1      4085 6.85498E-03 9.43161E-05-7.35298E-15
 -1      4086 6.71237E-03 9.48978E-05-7.01377E-15
 -1      4087 7.14015E-03 9.27746E-05-8.05448E-15
 -1      4088 6.99757E-03 9.36161E-05-7.70029E-15
 -1      4089 6.92587E-03 5.71247E-05-7.60407E-15
 -1      4090 7.42535E-03 9.05394E-05-8.78979E-15
 -1      4091 7.28273E-03 9.17577E-05-8.41864E-15
 -1      4092 7.21078E-03 5.54309E-05-8.31735E-15
 -1      4093 7.71086E-03 8.73306E-05-9.56219E-15
 -1      4094 7.56805E-03 8.90718E-05-9.17041E-15
 -1      4095 7.49564E-03 5.28741E-05-9.06533E-15
 -1      4096 7.99712E-03 8.28209E-05-1.03663E-14
 -1      4097 7.85386E-03 8.52510E-05-9.95958E-15
 -1      4098 7.78068E-03 4.90918E-05-9.84714E-15
 -1      4099 8.28486E-03 7.66845E-05-1.12063E-14
 -1      4100 8.14074E-03 7.99583E-05-1.07833E-14
 -1      4101 8.06633E-03 4.36470E-05-1.06660E-14
 -1      4102 8.57523E-03 6.87104E-05-1.20747E-14
 -1      4103 8.42961E-03 7.29044E-05-1.16358E-14
 -1      4104 8.35333E-03 3.60814E-05-1.15132E-14
 -1      4105 8.86997E-03 5.90227E-05-1.29739E-14
 -1      4106 8.72191E-03 6.40075E-05-1.25211E-14
 -1      4107 8.64290E-03 2.60473E-05-1.23912E-14
 -1      4108 9.17152E-03 4.84524E-05-1.39019E-14
 -1      4109 9.01970E-03 5.36835E-05-1.34345E-14
 -1      4110 8.93697E-03 1.35795E-05-1.32994E-14
 -1      4111 9.47010E-03 3.68087E-05-1.48140E-14
 -1      4112 9.31321E-03 4.12562E-05-1.43394E-14
 -1      4113 9.22586E-03-2.20582E-06-1.41977E-14
 -1      4114 9.51150E-03-1.97788E-05-1.50818E-14
 -1      4115 1.01608E-02 8.08960E-05-1.67650E-14
 -1      4116 2.46846E-03 1.32194E-04-7.73334E-16
 -1      4117 2.39837E-03 1.67985E-04-7.02766E-16
 -1      4118 2.25325E-03 1.65396E-04-6.17087E-16
 -1      4119 1.67806E-03 9.40536E-05-3.63167E-16
 -1      4120 2.26017E-03-7.99599E-05-7.50891E-16
 -1      4121 2.40550E-03-8.11940E-05-8.48713E-16
 -1      4122 2.47717E-03-4.48625E-05-8.82812E-16
 -1      4123 1.70933E-03 3.03283E-05-4.04136E-16
 -1      4124 1.82710E-03 2.49651E-05-4.62317E-16
 -1      4125 3.98926E-03 9.90572E-05-2.20317E-15
 -1      4126 3.84486E-03 9.91304E-05-2.03272E-15
 -1      4127 5.71263E-03 9.71480E-05-4.88106E-15
 -1      4128 5.56955E-03 9.73462E-05-4.61144E-15
 -1      4129 5.78401E-03 5.97874E-05-5.08300E-15
 -1      4130 6.56971E-03 9.53837E-05-6.68523E-15
 -1      4131 6.42701E-03 9.57931E-05-6.36359E-15
 -1      4132 6.64079E-03 5.82339E-05-6.92541E-15
 -1      4133 1.71046E-03 6.70956E-05-3.89676E-16
 -1      4134 4.85286E-03 9.82221E-05-3.39397E-15
 -1      4135 4.70923E-03 9.83876E-05-3.17551E-15
 -1      4136 4.92440E-03 6.04525E-05-3.55887E-15
 -1      4137 1.76082E-03 8.81019E-05-4.02944E-16
 -1      4138 2.84179E-03-8.35465E-05-1.18364E-15
 -1      4139 2.98714E-03-8.39627E-05-1.30873E-15
 -1      4140 3.05900E-03-4.61493E-05-1.35108E-15
 -1      4141 3.26871E-03 1.75003E-04-1.36473E-15
 -1      4142 3.12386E-03 1.74558E-04-1.23660E-15
 -1      4143 3.04950E-03 1.36341E-04-1.20727E-15
 -1      4144 3.33951E-03 1.37083E-04-1.46618E-15
 -1      4145 5.42638E-03 9.75316E-05-4.35002E-15
 -1      4146 5.28314E-03 9.77119E-05-4.09799E-15
 -1      4147 5.21130E-03 6.02602E-05-4.03223E-15
 -1      4148 5.49783E-03 6.00456E-05-4.54025E-15
 -1      4149 4.27764E-03 9.88340E-05-2.56789E-15
 -1      4150 4.13352E-03 9.89600E-05-2.38173E-15
 -1      4151 4.06091E-03 6.09137E-05-2.33254E-15
 -1      4152 1.93152E-03 5.24684E-05-5.03138E-16
 -1      4153 1.96552E-03 1.58071E-05-5.37209E-16
 -1      4154 1.90514E-03 9.10605E-05-4.71235E-16
 -1      4155 9.57117E-03-8.10376E-05-1.54240E-14
 -1      4156 2.83011E-03 9.76168E-05-1.05908E-15
 -1      4157 2.68471E-03 9.68772E-05-9.48962E-16
 -1      4158 2.17028E-03 1.26809E-04-5.93425E-16
 -1      4159 2.04339E-03 8.33798E-05-5.47129E-16
 -1      4160 2.76817E-03-4.57013E-05-1.10326E-15
 -1      4161 6.35547E-03 5.89607E-05-6.27737E-15
 -1      4162 4.63707E-03 6.06305E-05-3.11798E-15
 -1      4163 2.53929E-03 9.59091E-05-8.46044E-16
 -1      4164 2.39390E-03 9.46979E-05-7.49550E-16
 -1      4165 2.61078E-03 5.91855E-05-9.20623E-16
 -1      4166 2.20033E-03 5.15866E-07-6.78778E-16
 -1      4167 2.09622E-03-2.72342E-05-6.28553E-16
 -1      4168 3.77198E-03 6.09707E-05-1.98809E-15
 -1      4169 3.70031E-03 9.91556E-05-1.87112E-15
 -1      4170 3.55562E-03 9.91365E-05-1.71632E-15
 -1      4171 4.34926E-03 6.07898E-05-2.70945E-15
 -1      4172 3.27657E-03-8.16462E-06-1.52717E-15
 -1      4173 3.42167E-03-8.14104E-06-1.67092E-15
 -1      4174 9.42758E-03-7.01270E-05-1.49793E-14
 -1      4175 3.56054E-03 7.30605E-06-1.80362E-15
 -1      4176 3.70534E-03 7.34429E-06-1.96230E-15
 -1      4177 3.84998E-03 7.36806E-06-2.12925E-15
 -1      4178 3.99448E-03 7.40034E-06-2.30466E-15
 -1      4179 4.13882E-03 7.42110E-06-2.48842E-15
 -1      4180 4.28302E-03 7.44922E-06-2.67936E-15
 -1      4181 4.42708E-03 7.46812E-06-2.87864E-15
 -1      4182 4.57100E-03 7.49294E-06-3.08559E-15
 -1      4183 4.71480E-03 7.50983E-06-3.30031E-15
 -1      4184 4.85848E-03 7.53056E-06-3.52424E-15
 -1      4185 5.00205E-03 7.54335E-06-3.75635E-15
 -1      4186 5.14551E-03 7.55694E-06-3.99493E-15
 -1      4187 5.28887E-03 7.56079E-06-4.24262E-15
 -1      4188 5.43214E-03 7.56082E-06-4.50029E-15
 -1      4189 5.57532E-03 7.54671E-06-4.76644E-15
 -1      4190 5.71841E-03 7.52153E-06-5.04169E-15
 -1      4191 5.86142E-03 7.47390E-06-5.32483E-15
 -1      4192 6.00434E-03 7.40375E-06-5.61748E-15
 -1      4193 6.14718E-03 7.29700E-06-5.91945E-15
 -1      4194 6.28995E-03 7.14968E-06-6.22890E-15
 -1      4195 6.43263E-03 6.94296E-06-6.54899E-15
 -1      4196 6.57523E-03 6.66770E-06-6.87552E-15
 -1      4197 6.71775E-03 6.29778E-06-7.20852E-15
 -1      4198 6.86018E-03 5.81686E-06-7.55150E-15
 -1      4199 7.00254E-03 5.18867E-06-7.90223E-15
 -1      4200 7.14481E-03 4.38685E-06-8.26276E-15
 -1      4201 7.28701E-03 3.36217E-06-8.63003E-15
 -1      4202 7.42913E-03 2.07452E-06-9.00712E-15
 -1      4203 7.57121E-03 4.60249E-07-9.39248E-15
 -1      4204 7.71325E-03-1.53901E-06-9.78537E-15
 -1      4205 7.85530E-03-3.99894E-06-1.01872E-14
 -1      4206 7.99737E-03-7.00101E-06-1.05993E-14
 -1      4207 8.13960E-03-1.06214E-05-1.10196E-14
 -1      4208 8.28198E-03-1.49690E-05-1.14447E-14
 -1      4209 8.42475E-03-2.00905E-05-1.18772E-14
 -1      4210 8.56794E-03-2.61242E-05-1.23173E-14
 -1      4211 8.71193E-03-3.30224E-05-1.27643E-14
 -1      4212 8.85682E-03-4.09542E-05-1.32192E-14
 -1      4213 2.97544E-03 9.81826E-05-1.17605E-15
 -1      4214 2.90171E-03 6.01338E-05-1.14391E-15
 -1      4215 3.12067E-03 9.85858E-05-1.30045E-15
 -1      4216 2.19616E-03 8.64125E-05-6.32022E-16
 -1      4217 2.97989E-03 7.12351E-06-1.24634E-15
 -1      4218 3.12524E-03 7.18750E-06-1.37481E-15
 -1      4219 9.00316E-03-4.96398E-05-1.36796E-14
 -1      4220 2.02457E-03-6.17387E-05-6.00824E-16
 -1      4221 2.39791E-03 6.78351E-06-8.02784E-16
 -1      4222 2.54341E-03 6.90101E-06-9.03479E-16
 -1      4223 2.26753E-03 5.11287E-05-6.94811E-16
 -1      4224 9.14374E-03-5.42495E-05-1.41076E-14
 -1      4225 2.68893E-03 6.98273E-06-1.01079E-15
 -1      4226 2.83444E-03 7.06712E-06-1.12502E-15
 -1      4227 9.28173E-03-6.54738E-05-1.45453E-14
 -1      4228 3.48833E-03 4.54988E-05-1.69554E-15
 -1      4229 3.19818E-03 4.53060E-05-1.41305E-15
 -1      4230 3.41650E-03 8.36418E-05-1.58939E-15
 -1      4231 3.27149E-03 8.34990E-05-1.45054E-15
 -3
    1PSTEP                         2           1           1          
  100CL  101 1.000000000        4231                     0    1           1
 -4  STRESS      6    1
 -5  SXX         1    4    1    1
 -5  SYY         1    4    2    2
 -5  SZZ         1    4    3    3
 -5  SXY         1    4    1    2
 -5  SYZ         1    4    2    3
 -5  SZX         1    4    3    1
 -1         1 9.38358E+01 1.69726E+00 8.16463E+00 1.08287E-01 7.02910E-15 1.77745E-12
 -1         2-8.26424E-01-2.85323E+01-3.53239E+00-9.37647E-02-1.32502E-12-1.26028E-13
 -1         3 2.00213E+01 2.31083E-02-2.38168E-02 2.25265E-02-5.74628E-13-6.15309E-13
 -1         4 1.99141E+01-1.25173E-01 4.62061E-02 1.37048E-01-1.93984E-13 6.96238E-14
 -1         5 3.27674E+01 6.14255E+00 2.74195E+00 6.22381E+00-1.18100E-14 8.41521E-13
 -1         6 3.59417E+01 1.23483E+01 5.21925E+00-8.75697E+00-3.64153E-14 4.08437E-13
 -1         7 2.07221E+01 6.10572E+00-1.46124E-01-4.69632E+00-5.45397E-15 2.63123E-14
 -1         8 1.96733E+01 5.93686E+00 5.07374E-02-3.27196E+00-3.96905E-15-7.93766E-14
 -1         9 1.91380E+01 5.77249E+00 4.90234E-02-2.52610E+00-3.72619E-15-1.24987E-13
 -1        10 1.88963E+01 5.69246E+00 5.12620E-02-1.95085E+00-9.80119E-17-1.25161E-13
 -1        11 1.87737E+01 5.65133E+00 5.04114E-02-1.45565E+00 2.27986E-15-1.23700E-13
 -1        12 1.87096E+01 5.62945E+00 4.87710E-02-1.01485E+00 6.50825E-15-1.07789E-13
 -1        13 1.86757E+01 5.61790E+00 4.73928E-02-5.95245E-01 2.97787E-15-8.91225E-14
 -1        14 1.86614E+01 5.61301E+00 4.66595E-02-1.91353E-01 4.94431E-15-6.87059E-14
 -1        15 1.86619E+01 5.61316E+00 4.67005E-02 2.07770E-01 5.46844E-15-4.64533E-14
 -1        16 1.86772E+01 5.61837E+00 4.75274E-02 6.12476E-01 5.42893E-15-1.63413E-14
 -1        17 1.87122E+01 5.63016E+00 4.90544E-02 1.03401E+00 9.27058E-15 9.85041E-15
 -1        18 1.87774E+01 5.65230E+00 5.07978E-02 1.47789E+00 5.59101E-15 5.10831E-14
 -1        19 1.89012E+01 5.69391E+00 5.16646E-02 1.97882E+00 9.73874E-15 1.05974E-13
 -1        20 1.91439E+01 5.77481E+00 4.91629E-02 2.56271E+00 1.11178E-14 1.92533E-13
 -1        21 1.96678E+01 5.94975E+00 4.58648E-02 3.30777E+00 7.48707E-15 3.33442E-13
 -1        22 2.12022E+01 6.38164E+00 1.39546E-01 4.52212E+00-1.56819E-15 5.39443E-13
 -1        23 2.32705E+01-1.30581E+00-9.17756E-01-8.33491E-01-2.30371E-14 2.94126E-13
 -1        24 1.94319E+01-1.08872E-01-3.30075E-01 6.49529E-02-8.28157E-15 2.09111E-13
 -1        25 1.87009E+01-5.84254E-02-7.50943E-02 6.21658E-02-6.17215E-15 1.18721E-13
 -1        26 1.84840E+01-2.29318E-02-7.88796E-03 3.37121E-02-9.43256E-16 5.56846E-14
 -1        27 1.84889E+01-1.21820E-02 1.36283E-03 2.30061E-02 5.35737E-15-7.84789E-15
 -1        28 1.86007E+01-6.45238E-03 1.74529E-03 1.65782E-02-1.11152E-14-5.91402E-14
 -1        29 1.87604E+01-3.20939E-03 1.70086E-03 1.23661E-02-1.38034E-14-1.66056E-13
 -1        30 1.89359E+01-1.30312E-03 1.88700E-03 9.37576E-03 6.78744E-15-2.59790E-13
 -1        31 1.91088E+01-1.74735E-04 2.05593E-03 7.13578E-03-7.05518E-15-2.64878E-13
 -1        32 1.92691E+01 4.74895E-04 2.09746E-03 5.40737E-03 6.42117E-15-2.23469E-13
 -1        33 1.94115E+01 8.20076E-04 2.01746E-03 4.05646E-03-2.06187E-15-1.84061E-13
 -1        34 1.95343E+01 9.69425E-04 1.85421E-03 2.99808E-03 5.76790E-15-1.05885E-13
 -1        35 1.96374E+01 9.93988E-04 1.64460E-03 2.17204E-03-4.34411E-15-1.36575E-13
 -1        36 1.97221E+01 9.41384E-04 1.41634E-03 1.53192E-03 2.82591E-14-1.02574E-13
 -1        37 1.97904E+01 8.43497E-04 1.18814E-03 1.03998E-03-3.13074E-14-2.79579E-13
 -1        38 1.98445E+01 7.20984E-04 9.71340E-04 6.64669E-04-5.24949E-15-5.21888E-13
 -1        39 1.98868E+01 5.86058E-04 7.71418E-04 3.79194E-04 3.06387E-14-5.78903E-13
 -1        40 1.99196E+01 4.44150E-04 5.89014E-04 1.60651E-04-1.84246E-14-4.44851E-13
 -1        41 1.99453E+01 2.94666E-04 4.20377E-04-1.07129E-05 3.01073E-15-5.97284E-13
 -1        42 1.99660E+01 1.30798E-04 2.56954E-04-1.52071E-04 3.50590E-15-7.03257E-13
 -1        43 1.99840E+01-6.18060E-05 8.37474E-05-2.78344E-04-8.88112E-15-6.09383E-13
 -1        44 2.00020E+01-3.07963E-04-1.24277E-04-4.01931E-04 1.08893E-13-3.23930E-13
 -1        45 2.00231E+01-6.48177E-04-4.09021E-04-5.31125E-04 4.79135E-15-4.37415E-14
 -1        46 2.00520E+01-1.14733E-03-8.41636E-04-6.65693E-04-6.02239E-14-1.89601E-13
 -1        47 2.00953E+01-1.90848E-03-1.54476E-03-7.86531E-04 4.66623E-14-2.54347E-13
 -1        48 2.01636E+01-3.09409E-03-2.73282E-03-8.32977E-04-1.25853E-13-3.85024E-13
 -1        49 2.02741E+01-4.95668E-03-4.78655E-03-6.54420E-04 8.30715E-14-6.95191E-13
 -1        50 2.04553E+01-7.87886E-03-8.39330E-03 9.17577E-05-2.15053E-14-6.64456E-13
 -1        51 2.07540E+01-1.24116E-02-1.48074E-02 2.15392E-03 1.15745E-14-3.38442E-13
 -1        52 2.12480E+01-1.92665E-02-2.62816E-02 7.12723E-03-3.56288E-14-2.54263E-13
 -1        53 2.20641E+01-2.91217E-02-4.65143E-02 1.83273E-02-5.07177E-14-4.84533E-13
 -1        54 2.34048E+01-4.18611E-02-7.99467E-02 4.23511E-02 3.36632E-14-4.60333E-13
 -1        55 2.55733E+01-5.43978E-02-1.25589E-01 9.11260E-02-4.72526E-14-3.47687E-13
 -1        56 2.89605E+01-5.54599E-02-1.55226E-01 1.81495E-01 2.90133E-15-1.91284E-13
 -1        57 3.38646E+01-2.04283E-02-7.07874E-02 3.16817E-01 3.78864E-14-5.58026E-14
 -1        58 3.97874E+01 7.02901E-02 2.93011E-01 3.97203E-01-2.92815E-14 1.70350E-13
 -1        59 4.39090E+01 1.62819E-01 8.40897E-01 6.41393E-02 3.13829E-14 3.33879E-13
 -1        60 4.16609E+01 1.03917E-01 7.59189E-01-1.00069E+00 1.39801E-14 3.10613E-13
 -1        61 3.00936E+01 1.03121E-01-9.85043E-01-2.00082E+00-1.60469E-13-7.28695E-13
 -1        62 1.72306E+01-2.65726E-01-3.32488E+00-1.36391E+00-2.25375E-14-2.03998E-12
 -1        63 1.67416E+01-2.14321E-01-3.36867E+00 1.32661E+00 3.49304E-14-2.07259E-12
 -1        64 2.99686E+01-3.58471E-02-8.90873E-01 1.58233E+00 2.67668E-14-1.36557E-12
 -1        65 4.09707E+01 8.66529E-02 7.64263E-01 7.62717E-01 6.46792E-14-6.27026E-13
 -1        66 4.35098E+01 1.54698E-01 8.91875E-01-9.54686E-03-5.44564E-14-2.26721E-13
 -1        67 3.92270E+01 5.33877E-02 3.10065E-01-3.10306E-01 5.76566E-14 2.10901E-13
 -1        68 3.30217E+01-1.35285E-02-6.41737E-02-2.57950E-01-3.16370E-14-1.35988E-13
 -1        69 2.77688E+01-4.27206E-02-1.50979E-01-1.60402E-01 1.86387E-14-4.91607E-13
 -1        70 2.39634E+01-4.64511E-02-1.34564E-01-9.72155E-02-2.13458E-13-6.96554E-13
 -1        71 2.14279E+01-5.13428E-02-1.21016E-01-6.24799E-02-1.71497E-14-9.30971E-13
 -1        72 2.01163E+01-1.30804E-02-7.57208E-02 1.47053E-02 1.64839E-13-4.00235E-13
 -1        73 2.10433E+01-4.05119E-01-9.80572E-01-3.11711E-01-3.84415E-15 8.88387E-13
 -1        74 1.93334E+01-6.65850E-02-2.90775E-01-5.38828E-02 7.47536E-15 8.43414E-13
 -1        75 1.86906E+01-2.12360E-02-6.37022E-02-2.10372E-02-1.75759E-14 8.23525E-13
 -1        76 1.84895E+01-1.04807E-02-9.08043E-03-1.60776E-02 1.44796E-14 8.51872E-13
 -1        77 1.85016E+01-5.38278E-03 5.85811E-04-1.27285E-02 2.49209E-15 7.44897E-13
 -1        78 1.86160E+01-2.61972E-03 1.68556E-03-1.02147E-02 8.28114E-15 7.02005E-13
 -1        79 1.87761E+01-1.06452E-03 1.89723E-03-8.36135E-03 1.53205E-14 7.50056E-13
 -1        80 1.89509E+01-1.65810E-04 2.10572E-03-6.88177E-03 1.25785E-14 7.02115E-13
 -1        81 1.91224E+01 3.45250E-04 2.24015E-03-5.63641E-03-2.11313E-14 6.75556E-13
 -1        82 1.92811E+01 6.15035E-04 2.24187E-03-4.57017E-03 1.82864E-14 6.30990E-13
 -1        83 1.94220E+01 7.31785E-04 2.12663E-03-3.65789E-03-9.93749E-16 6.16060E-13
 -1        84 1.95432E+01 7.51866E-04 1.93305E-03-2.88387E-03 6.61706E-15 5.65532E-13
 -1        85 1.96451E+01 7.12573E-04 1.69673E-03-2.23494E-03 2.00571E-14 4.84222E-13
 -1        86 1.97289E+01 6.38940E-04 1.44407E-03-1.69827E-03-1.22516E-14 5.56422E-13
 -1        87 1.97966E+01 5.47737E-04 1.19267E-03-1.26108E-03 5.42433E-15 6.12083E-13
 -1        88 1.98507E+01 4.50079E-04 9.53084E-04-9.11041E-04 6.22108E-15 5.81634E-13
 -1        89 1.98936E+01 3.53342E-04 7.30799E-04-6.37198E-04-9.70264E-16 5.74046E-13
 -1        90 1.99276E+01 2.62737E-04 5.28075E-04-4.30835E-04 4.04951E-14 4.88968E-13
 -1        91 1.99550E+01 1.82747E-04 3.45877E-04-2.86447E-04-3.43083E-14 4.33802E-13
 -1        92 1.99780E+01 1.18544E-04 1.85990E-04-2.02625E-04 4.50409E-15 5.46370E-13
 -1        93 1.99982E+01 7.74940E-05 5.35808E-05-1.82781E-04 4.17626E-14 4.79995E-13
 -1        94 2.00171E+01 7.07342E-05-3.96098E-05-2.35446E-04-2.80172E-14 5.13270E-13
 -1        95 2.00355E+01 1.14695E-04-7.13091E-05-3.73659E-04 1.87151E-14 4.35411E-13
 -1        96 2.00537E+01 2.32204E-04-4.16562E-06-6.12558E-04-6.09421E-15 4.33494E-13
 -1        97 2.00701E+01 4.52423E-04 2.18577E-04-9.63863E-04 3.15230E-15 5.66409E-13
 -1        98 2.00817E+01 8.08360E-04 6.75227E-04-1.42554E-03-5.37790E-14 6.08035E-13
 -1        99 2.00823E+01 1.33014E-03 1.46185E-03-1.96489E-03 1.06815E-14 5.56145E-13
 -1       100 2.00621E+01 2.03197E-03 2.67654E-03-2.49449E-03 3.39968E-14 5.37049E-14
 -1       101 2.00065E+01 2.89120E-03 4.38397E-03-2.84356E-03 2.53378E-14-1.86648E-13
 -1       102 1.98955E+01 3.82066E-03 6.55351E-03-2.73396E-03-2.22555E-14-8.51715E-14
 -1       103 1.97050E+01 4.64091E-03 8.97262E-03-1.78070E-03-9.16528E-14 1.76240E-13
 -1       104 1.94087E+01 5.06801E-03 1.11565E-02 4.52511E-04 5.25462E-14-1.84258E-13
 -1       105 1.89844E+01 4.74200E-03 1.23094E-02 4.31054E-03 3.77584E-14-6.08058E-13
 -1       106 1.84223E+01 3.32050E-03 1.14194E-02 9.80845E-03 3.21913E-14-2.79452E-13
 -1       107 1.77352E+01 6.41967E-04 7.56715E-03 1.63564E-02-9.07684E-14-2.14323E-13
 -1       108 1.69682E+01-3.08926E-03 4.37963E-04 2.26030E-02 1.41763E-14-2.36538E-13
 -1       109 1.62011E+01-7.20732E-03-9.15999E-03 2.66148E-02 5.53349E-14-7.36815E-13
 -1       110 1.55392E+01-1.06988E-02-1.91401E-02 2.65092E-02 2.67170E-14-6.27423E-13
 -1       111 1.50910E+01-1.25524E-02-2.66705E-02 2.13587E-02-8.98325E-14-5.93428E-13
 -1       112 1.49386E+01-1.21992E-02-2.93235E-02 1.18638E-02 3.94047E-14-3.67268E-13
 -1       113 1.51124E+01-9.78174E-03-2.62646E-02 2.69797E-04-8.09925E-14-2.77044E-13
 -1       114 1.55816E+01-6.06625E-03-1.86866E-02-1.05634E-02 3.77917E-14 3.21145E-13
 -1       115 1.62661E+01-2.07568E-03-9.18287E-03-1.83857E-02-4.47269E-14 3.70572E-13
 -1       116 1.70634E+01 1.35554E-03-4.61091E-04-2.23722E-02 4.39472E-14 2.30850E-13
 -1       117 1.78762E+01 3.88794E-03 5.93903E-03-2.32027E-02 1.10361E-13-5.05283E-13
 -1       118 1.86303E+01 5.74011E-03 1.04432E-02-2.24371E-02-5.23714E-14-7.49422E-13
 -1       119 1.92736E+01 7.34382E-03 1.52710E-02-2.13728E-02-8.94822E-14-2.79583E-13
 -1       120 1.97557E+01 8.53835E-03 2.07502E-02-1.82385E-02 6.11413E-14-5.91284E-13
 -1       121 1.99964E+01-6.36032E-03 7.94195E-03-2.78871E-03 3.13053E-13-1.03170E-12
 -1       122 2.00012E+01-1.88369E-02 8.13554E-03 8.92818E-04-1.22200E-12 2.26585E-13
 -1       123 2.00072E+01-2.68147E-01 1.77621E-02-1.65819E-02-1.03248E-12-6.90233E-14
 -1       124 2.00003E+01-7.12789E-01 4.89394E-03-2.57949E-02-1.51617E-13 3.25537E-13
 -1       125 1.99914E+01-1.18442E+00-1.06341E-02-2.50519E-02 4.17763E-13 5.63813E-14
 -1       126 1.99837E+01-1.52527E+00-2.46741E-02-1.79185E-02-1.63264E-13-2.20448E-13
 -1       127 1.99768E+01-1.59359E+00-3.68826E-02-5.57646E-03-1.06862E-12-8.42232E-14
 -1       128 1.99744E+01-1.26953E+00-4.40808E-02 1.38053E-02-5.93727E-13 8.97444E-14
 -1       129 1.99780E+01-4.83435E-01-4.12461E-02 3.71072E-02-3.56468E-13-1.52051E-14
 -1       130 1.99897E+01 7.22316E-01-2.30661E-02 5.82672E-02-1.32463E-14 1.63972E-13
 -1       131 2.00088E+01 2.14984E+00 1.15145E-02 6.73274E-02 3.85039E-13-8.07377E-14
 -1       132 2.00295E+01 3.44073E+00 5.42529E-02 5.29809E-02-1.31611E-12-2.87544E-13
 -1       133 2.00459E+01 4.16114E+00 8.79419E-02 1.50764E-02-1.76508E-12 3.27233E-13
 -1       134 2.00449E+01 4.00423E+00 9.03919E-02-4.19997E-02-5.92559E-13 1.78263E-13
 -1       135 2.00243E+01 2.92377E+00 4.57328E-02-9.23646E-02 4.55913E-13 1.08404E-13
 -1       136 1.99994E+01 1.34851E+00-3.24951E-02-9.09679E-02 4.51476E-13-2.32454E-13
 -1       137 1.99975E+01 1.09265E-01-5.97981E-02 1.78831E-02 2.61215E-14-9.50173E-14
 -1       138-1.45125E+00-1.96557E+01-2.92575E+00-3.59923E+00-1.80445E-12-2.46275E-13
 -1       139-6.19242E-01-5.10406E+00-1.89158E+00-1.35303E+00-7.79043E-13-5.30104E-13
 -1       140 5.69206E+00 7.25973E+00-6.15414E-01 6.60474E+00 6.97442E-13 5.80869E-13
 -1       141 2.00396E+01 1.32326E+01 7.84347E-01 1.61435E+01 1.13398E-12 1.12804E-12
 -1       142 4.17979E+01 1.11622E+01 2.18219E+00 2.08657E+01 5.04735E-13 1.32933E-12
 -1       143 6.21737E+01 5.09651E+00 3.18097E+00 1.62614E+01 3.97578E-13 3.48499E-13
 -1       144 7.23181E+01 1.10069E+00 3.63545E+00 3.87912E+00-3.71266E-14-2.68327E-13
 -1       145 6.84807E+01 2.73618E+00 3.46920E+00-1.07878E+01 6.18553E-14-3.72757E-13
 -1       146 5.25903E+01 8.27763E+00 2.72420E+00-1.96961E+01 2.41918E-13-7.07823E-13
 -1       147 3.12961E+01 1.30593E+01 1.54390E+00-1.98286E+01 7.89702E-13-1.15363E-12
 -1       148 1.36441E+01 1.20011E+01 2.25969E-01-1.27337E+01 1.01741E-12-1.04816E-12
 -1       149 2.23689E+00 2.98061E+00-1.15142E+00-2.97390E+00 6.06293E-13-5.88363E-13
 -1       150-1.32498E+00-1.04285E+01-2.29114E+00 2.92862E+00-4.16334E-13 1.89265E-13
 -1       151-1.06999E+00-2.27260E+01-3.09614E+00 3.07653E+00 9.99201E-16 1.46886E-13
 -1       152-7.44671E-01-2.87517E+01-3.55554E+00-1.43364E+00-3.44655E-13-7.24663E-14
 -1       153-2.45862E+00-2.60138E+01-3.71779E+00-6.46337E+00-1.32033E-12-4.05240E-13
 -1       154-3.96053E+00-1.51985E+01-3.52342E+00-6.88247E+00-1.82115E-12-9.24150E-13
 -1       155-3.50980E-01-1.92794E+00-2.76348E+00-3.78812E-01-6.99552E-13-3.88078E-13
 -1       156 1.77206E+01 7.87727E+00-7.07970E-01 1.19778E+01-3.91909E-13-7.56284E-13
 -1       157 4.71075E+01 8.81990E+00 2.57671E+00 1.96501E+01-5.48284E-13-1.02662E-12
 -1       158 8.00531E+01 4.33516E+00 6.48116E+00 1.55990E+01-1.32186E-13 6.68354E-14
 -1       159 8.19768E+01 4.14904E+00 6.72328E+00-1.48238E+01-2.88186E-13 1.64557E-12
 -1       160 5.30455E+01 8.44257E+00 3.31585E+00-2.03178E+01-1.76525E-13 7.13429E-13
 -1       161 2.36624E+01 8.97847E+00-1.21999E-02-1.45176E+01 5.09481E-13-4.70068E-13
 -1       162 5.16232E+00 3.13757E+00-2.07324E+00-4.62383E+00 1.10445E-12-1.26410E-12
 -1       163-2.86547E+00-7.98627E+00-3.14537E+00 4.11110E+00 9.16933E-13-7.50122E-13
 -1       164-3.57735E+00-2.00902E+01-3.60274E+00 7.47067E+00 5.67935E-13-1.57471E-13
 -1       165-1.65803E+00-2.79801E+01-3.71262E+00 5.16210E+00 1.81077E-13-1.68936E-13
 -1       166 2.10125E+01 3.70179E+00-5.20768E-02-3.62286E+00-4.91360E-14-1.00718E-14
 -1       167 1.99913E+01 4.20986E+00-4.55536E-02-2.80882E+00-3.42859E-14-6.54650E-14
 -1       168 1.95110E+01 4.47654E+00-3.13205E-02-2.19601E+00-1.44294E-14-1.00557E-13
 -1       169 1.92679E+01 4.61515E+00-2.35085E-02-1.67446E+00-2.43837E-15-1.08236E-13
 -1       170 1.91367E+01 4.69693E+00-1.95417E-02-1.21883E+00 1.24756E-14-8.43093E-14
 -1       171 1.90625E+01 4.74800E+00-1.74374E-02-7.91917E-01 2.34116E-14-6.94575E-14
 -1       172 1.90250E+01 4.77592E+00-1.64221E-02-3.86925E-01 5.36397E-14-5.10902E-14
 -1       173 1.90140E+01 4.78448E+00-1.61287E-02 7.98043E-03 6.01011E-14-2.96048E-14
 -1       174 1.90266E+01 4.77467E+00-1.64610E-02 4.03219E-01 7.61879E-14-5.34729E-15
 -1       175 1.90660E+01 4.74510E+00-1.75142E-02 8.09248E-01 8.95919E-14 6.12010E-15
 -1       176 1.91409E+01 4.69266E+00-1.96803E-02 1.23060E+00 9.65641E-14 4.79573E-14
 -1       177 1.92768E+01 4.60566E+00-2.39823E-02 1.69714E+00 1.17032E-13 8.36137E-14
 -1       178 1.95246E+01 4.45975E+00-3.26156E-02 2.22456E+00 1.14139E-13 1.43725E-13
 -1       179 2.00136E+01 4.18405E+00-4.71675E-02 2.84678E+00 1.03324E-13 2.40613E-13
 -1       180 2.11361E+01 3.46344E+00-6.00531E-02 3.53528E+00 6.65214E-14 3.90313E-13
 -1       181 2.24206E+01 1.14342E+00-3.36553E-01 3.01403E+00 1.84132E-14 5.42996E-13
 -1       182 2.20366E+01 9.23626E-01-6.72177E-04-2.03461E+00-4.34409E-14 6.95242E-14
 -1       183 2.04979E+01 2.08747E-01-1.11252E-02-8.01304E-01-5.26818E-14 5.68122E-14
 -1       184 1.96996E+01 1.05625E-01 1.32178E-02-3.00550E-01-3.85109E-14 3.76088E-14
 -1       185 1.93463E+01 4.89925E-02 1.01780E-02-7.48110E-02-2.22528E-14-7.37431E-15
 -1       186 1.92096E+01 2.35195E-02 5.31738E-03 3.64110E-02-2.20858E-14-1.49926E-14
 -1       187 1.91929E+01 1.00824E-02 2.52123E-03 9.12161E-02-7.24096E-14-4.59333E-14
 -1       188 1.92403E+01 2.47301E-03 1.17438E-03 1.14911E-01-6.64619E-14-3.23886E-14
 -1       189 1.93196E+01-1.88717E-03 5.17955E-04 1.20659E-01-1.23088E-14-7.18015E-14
 -1       190 1.94115E+01-4.27465E-03 1.70893E-04 1.16060E-01-9.81425E-15-8.43563E-14
 -1       191 1.95046E+01-5.41321E-03-2.32800E-05 1.05803E-01-1.10014E-14-1.27354E-13
 -1       192 1.95921E+01-5.75487E-03-1.30538E-04 9.28743E-02 2.92429E-14-1.34611E-13
 -1       193 1.96707E+01-5.59848E-03-1.83664E-04 7.91810E-02 5.33893E-14-1.24748E-13
 -1       194 1.97388E+01-5.14662E-03-2.02036E-04 6.59114E-02-2.28080E-14-9.84396E-14
 -1       195 1.97964E+01-4.53615E-03-1.98218E-04 5.37692E-02-9.19967E-14-1.73936E-13
 -1       196 1.98441E+01-3.85657E-03-1.80489E-04 4.31339E-02-9.06859E-14-7.46759E-14
 -1       197 1.98831E+01-3.16183E-03-1.54094E-04 3.41775E-02-4.86189E-14-1.02003E-13
 -1       198 1.99146E+01-2.47809E-03-1.21925E-04 2.69536E-02 6.11904E-14-1.84928E-13
 -1       199 1.99404E+01-1.80799E-03-8.48650E-05 2.14683E-02-6.14301E-14-1.09133E-13
 -1       200 1.99620E+01-1.13145E-03-4.18152E-05 1.77442E-02-7.13321E-14-8.49818E-14
 -1       201 1.99812E+01-4.02184E-04 1.06018E-05 1.58877E-02 4.34727E-14-1.42008E-13
 -1       202 2.00002E+01 4.61977E-04 7.87832E-05 1.61709E-02 9.28936E-14-2.00115E-13
 -1       203 2.00214E+01 1.59782E-03 1.73500E-04 1.91507E-02 1.34553E-13-2.98838E-13
 -1       204 2.00483E+01 3.23009E-03 3.12144E-04 2.58509E-02 2.68921E-14-3.02107E-13
 -1       205 2.00856E+01 5.72824E-03 5.22219E-04 3.80554E-02-7.08758E-14-2.72375E-14
 -1       206 2.01404E+01 9.70129E-03 8.46338E-04 5.87823E-02-1.26972E-13-8.84436E-14
 -1       207 2.02232E+01 1.61540E-02 1.34808E-03 9.30531E-02-1.55813E-13 2.02029E-14
 -1       208 2.03503E+01 2.67382E-02 2.11445E-03 1.49123E-01-2.99163E-14-1.04473E-13
 -1       209 2.05468E+01 4.41370E-02 3.24009E-03 2.40402E-01 8.98047E-14-1.00193E-13
 -1       210 2.08501E+01 7.25855E-02 4.75412E-03 3.88289E-01-2.62533E-14-2.67396E-13
 -1       211 2.13157E+01 1.18333E-01 6.41997E-03 6.25836E-01 3.28123E-15-2.67308E-13
 -1       212 2.20212E+01 1.89130E-01 7.38471E-03 1.00074E+00 1.67939E-14-1.09047E-13
 -1       213 2.30666E+01 2.89562E-01 6.08152E-03 1.57168E+00 8.31392E-14-9.26697E-14
 -1       214 2.45605E+01 4.03076E-01 2.07741E-03 2.37926E+00-4.09265E-14 3.27360E-14
 -1       215 2.65842E+01 4.40014E-01 3.23179E-03 3.34468E+00 1.00458E-13-7.89178E-14
 -1       216 2.91325E+01 1.20847E-01 2.98021E-02 4.01438E+00 2.33306E-13 5.69596E-14
 -1       217 3.19465E+01-9.49025E-01 8.39229E-02 3.30962E+00-4.68375E-15 1.25783E-13
 -1       218 3.49771E+01-2.72149E+00 1.29628E-01 1.85014E-01-2.08999E-14-1.35993E-13
 -1       219 3.79770E+01-3.13389E+00-8.20343E-02-5.11300E+00-5.34815E-13-5.92443E-14
 -1       220 4.26939E+01 5.36290E+00 2.46327E-01-4.08817E-01-2.21267E-13-2.70450E-13
 -1       221 3.76233E+01-2.27160E+00-4.85506E-02 5.31550E+00 4.65114E-13-4.68377E-13
 -1       222 3.58143E+01-2.20340E+00 1.25796E-01 5.46976E-01 3.04666E-13-2.77403E-13
 -1       223 3.28840E+01-7.56771E-01 1.15455E-01-2.98370E+00 1.90278E-13 3.82472E-14
 -1       224 2.94939E+01 1.11314E-01 2.43982E-02-3.73702E+00-2.20017E-13-3.42535E-13
 -1       225 2.64266E+01 3.11118E-01-7.86668E-03-3.15641E+00-2.66724E-13-6.40680E-13
 -1       226 2.39251E+01 2.90726E-01-7.21308E-03-2.32027E+00-2.51891E-14-6.34507E-13
 -1       227 2.20749E+01 2.43207E-01-3.13019E-03-1.56437E+00-8.75168E-16-2.60640E-13
 -1       228 2.08313E+01 2.47646E-01-4.48109E-03-8.68550E-01 2.46529E-13-4.90966E-14
 -1       229 2.02504E+01 3.47167E-01-1.41444E-02-4.34731E-01 4.12993E-13-6.13559E-14
 -1       230 2.09660E+01 2.77979E-01-5.08057E-02 1.16463E+00 2.73497E-14 5.18469E-13
 -1       231 1.98769E+01 1.30598E-01 1.00192E-02 4.46415E-01 1.58233E-14 4.93427E-13
 -1       232 1.93726E+01 5.63672E-02 1.34205E-02 1.48265E-01 1.84909E-14 4.36035E-13
 -1       233 1.91610E+01 2.26698E-02 7.33988E-03 6.18184E-03 6.36158E-14 4.07299E-13
 -1       234 1.91095E+01 9.95079E-03 3.58752E-03-6.24888E-02 5.62495E-15 3.75687E-13
 -1       235 1.91447E+01 3.28319E-03 1.73543E-03-9.42578E-02-1.94831E-15 3.42319E-13
 -1       236 1.92242E+01-4.78809E-04 8.75248E-04-1.05551E-01 7.66046E-15 3.23512E-13
 -1       237 1.93229E+01-2.57958E-03 4.41717E-04-1.05039E-01 2.89837E-14 3.46710E-13
 -1       238 1.94258E+01-3.64565E-03 1.98362E-04-9.78930E-02 1.88512E-14 3.60273E-13
 -1       239 1.95244E+01-4.05186E-03 5.35380E-05-8.73522E-02 2.79977E-14 3.52260E-13
 -1       240 1.96140E+01-4.04010E-03-3.21585E-05-7.54836E-02 5.93515E-14 3.47069E-13
 -1       241 1.96925E+01-3.77293E-03-7.95406E-05-6.35947E-02 3.26647E-14 2.50747E-13
 -1       242 1.97594E+01-3.36090E-03-1.01629E-04-5.24844E-02-2.60102E-14 3.22448E-13
 -1       243 1.98153E+01-2.87837E-03-1.07268E-04-4.26076E-02-1.86996E-14 3.77712E-13
 -1       244 1.98612E+01-2.37378E-03-1.02674E-04-3.41884E-02 1.87608E-14 3.40711E-13
 -1       245 1.98985E+01-1.87739E-03-9.23252E-05-2.73004E-02 4.85206E-15 2.29451E-13
 -1       246 1.99288E+01-1.40771E-03-7.95719E-05-2.19207E-02 1.28123E-14 3.02968E-13
 -1       247 1.99538E+01-9.77312E-04-6.71082E-05-1.79618E-02 3.73848E-14 4.03334E-13
 -1       248 1.99747E+01-5.98809E-04-5.73527E-05-1.52841E-02-4.38498E-14 3.21988E-13
 -1       249 1.99930E+01-2.91415E-04-5.27543E-05-1.36866E-02 5.91935E-14 3.98187E-13
 -1       250 2.00096E+01-8.85685E-05-5.60025E-05-1.28756E-02-8.60772E-14 3.69279E-13
 -1       251 2.00249E+01-4.67669E-05-7.00745E-05-1.24063E-02 7.01901E-14 3.68321E-13
 -1       252 2.00388E+01-2.55042E-04-9.80111E-05-1.15968E-02 2.80992E-15 4.59334E-13
 -1       253 2.00501E+01-8.43133E-04-1.42273E-04-9.41690E-03-4.46611E-14 3.37860E-13
 -1       254 2.00561E+01-1.98408E-03-2.03535E-04-4.36213E-03-1.22865E-14 4.37165E-13
 -1       255 2.00519E+01-3.88346E-03-2.78900E-04 5.65381E-03 8.02937E-14 3.30890E-13
 -1       256 2.00301E+01-6.74348E-03-3.59796E-04 2.33288E-02 2.19096E-13 3.89132E-13
 -1       257 1.99801E+01-1.06869E-02-4.30431E-04 5.18231E-02 1.17098E-13 1.55860E-13
 -1       258 1.98881E+01-1.56287E-02-4.68317E-04 9.42925E-02-1.83075E-13 1.34863E-13
 -1       259 1.97376E+01-2.10979E-02-4.48821E-04 1.52955E-01-7.02316E-14 2.44491E-13
 -1       260 1.95116E+01-2.60513E-02-3.54650E-04 2.27612E-01 2.17352E-13 8.22963E-14
 -1       261 1.91964E+01-2.87823E-02-1.89507E-04 3.13774E-01 1.58746E-13 9.91117E-14
 -1       262 1.87870E+01-2.70909E-02 1.44881E-05 4.00934E-01-1.71241E-13 7.83731E-14
 -1       263 1.82936E+01-1.88913E-02 1.99233E-04 4.72045E-01-1.31236E-13 2.20270E-13
 -1       264 1.77475E+01-3.27541E-03 3.10701E-04 5.05551E-01 2.20382E-13 2.60172E-13
 -1       265 1.72025E+01 1.83095E-02 3.37918E-04 4.80810E-01 1.74367E-13 5.91460E-14
 -1       266 1.67290E+01 4.15386E-02 3.39177E-04 3.86110E-01-3.31343E-14-5.88609E-14
 -1       267 1.64001E+01 6.01336E-02 4.13929E-04 2.26098E-01-3.05940E-14 6.33043E-14
 -1       268 1.62728E+01 6.82790E-02 6.29674E-04 2.41326E-02 6.74267E-14-6.20960E-14
 -1       269 1.63707E+01 6.33973E-02 9.42347E-04-1.83329E-01-1.68606E-13 4.38259E-14
 -1       270 1.66773E+01 4.74937E-02 1.20139E-03-3.58748E-01-2.16815E-13 1.25926E-13
 -1       271 1.71417E+01 2.60307E-02 1.23437E-03-4.75958E-01-3.46036E-14 2.74567E-13
 -1       272 1.76953E+01 5.20082E-03 9.43535E-04-5.26718E-01 2.80475E-13-4.95251E-14
 -1       273 1.82697E+01-1.08325E-02 3.93504E-04-5.18903E-01 3.76665E-13-2.09477E-13
 -1       274 1.88095E+01-2.16212E-02-1.04548E-04-4.67969E-01-9.48251E-14-1.56306E-13
 -1       275 1.92751E+01-3.03126E-02 4.11426E-05-3.85879E-01-1.91816E-14-4.48486E-13
 -1       276 1.96386E+01-4.44898E-02 5.81414E-04-2.71987E-01 1.58217E-13-7.63185E-13
 -1       277 1.98846E+01-6.02573E-02 2.10654E-04-1.24679E-01 1.07177E-13-5.84963E-13
 -1       278 1.99288E+01-2.09770E-01-3.41121E-04-2.22150E-01-2.43817E-13 1.83082E-13
 -1       279 1.99692E+01-4.62886E-01 3.35962E-04-3.32200E-01-5.28692E-14 4.64354E-13
 -1       280 2.00172E+01-7.47546E-01 1.42141E-03-3.42940E-01-3.34624E-13 3.73641E-13
 -1       281 2.00627E+01-9.79471E-01 2.58042E-03-2.41535E-01-1.44292E-13-1.24943E-13
 -1       282 2.01042E+01-1.07540E+00 3.52273E-03-3.71435E-02-1.10669E-13-6.10515E-13
 -1       283 2.01357E+01-9.59549E-01 3.65658E-03 2.59371E-01-1.57621E-13 1.38908E-14
 -1       284 2.01427E+01-5.72824E-01 2.72550E-03 6.02553E-01-2.20154E-14 3.21698E-13
 -1       285 2.01085E+01 8.92122E-02 7.62302E-04 9.11863E-01-1.04351E-13 1.32170E-13
 -1       286 2.00223E+01 9.53103E-01-1.68213E-03 1.07381E+00-2.40520E-13 1.63841E-13
 -1       287 1.98938E+01 1.85201E+00-3.67815E-03 9.73488E-01-2.70252E-13-8.73481E-13
 -1       288 1.97663E+01 2.54051E+00-4.51413E-03 5.68062E-01-8.81717E-14-2.39282E-13
 -1       289 1.96981E+01 2.81488E+00-3.92581E-03-8.30916E-02-2.74718E-14 6.36114E-13
 -1       290 1.97525E+01 2.53943E+00-2.60785E-03-7.53414E-01 3.74110E-13 5.99498E-13
 -1       291 1.99530E+01 1.80597E+00-2.77056E-03-1.13362E+00 4.25344E-13 1.08964E-14
 -1       292 2.01613E+01 1.06646E+00 3.28317E-04-9.54578E-01 3.87372E-13-3.52390E-13
 -1       293-2.13702E-01-9.73250E+00-5.94809E-01 3.69683E+00-2.76792E-13-4.11532E-13
 -1       294 4.75416E+00-7.95693E+00-5.85437E-01 5.64311E+00-4.94438E-13 2.85792E-13
 -1       295 1.25177E+01-3.81251E+00-3.33533E-01 7.46062E+00-4.46310E-13 7.80445E-13
 -1       296 2.23853E+01 3.90503E-01 1.92720E-02 8.79712E+00 1.27148E-13 3.84054E-13
 -1       297 3.32970E+01 4.37910E+00 4.52504E-01 9.37842E+00 4.37705E-13 6.87950E-13
 -1       298 4.25045E+01 6.10034E+00 5.92789E-01 5.71483E+00 6.76466E-13-2.33202E-13
 -1       299 5.02307E+01 7.35842E+00 9.96279E-01 3.54567E+00 2.61666E-13 1.76886E-13
 -1       300 4.98638E+01 7.99366E+00 8.69448E-01-9.69555E-01 9.24816E-14 6.52187E-14
 -1       301 4.55516E+01 7.15211E+00 6.66571E-01-4.42802E+00 2.50466E-13-4.10783E-15
 -1       302 3.88053E+01 5.43931E+00 5.79024E-01-8.17413E+00 3.94317E-13-3.45890E-13
 -1       303 2.84207E+01 3.19103E+00 2.58642E-01-9.45994E+00 4.78062E-13-4.32820E-13
 -1       304 1.85384E+01-1.24275E+00-1.17100E-01-8.44087E+00 2.46803E-13-5.95107E-13
 -1       305 8.92984E+00-5.18403E+00-4.42808E-01-6.76802E+00-9.98090E-14-7.93393E-13
 -1       306 2.48665E+00-8.71092E+00-6.47039E-01-4.98762E+00-2.87104E-13 2.17340E-13
 -1       307-1.29970E+00-1.22819E+01-9.65639E-01-2.55808E+00-4.81823E-13-1.04472E-13
 -1       308-1.89768E+00-1.30457E+01-1.09788E+00-8.88264E-01-5.13783E-13-4.42535E-13
 -1       309 1.61094E+00-1.05885E+01-9.61691E-01 1.71988E+00-4.99767E-13-4.16667E-13
 -1       310 8.61451E+00-8.15972E+00-1.04287E+00 3.43144E+00-7.65665E-13 1.66867E-13
 -1       311 2.30556E+01-5.27946E+00-5.69085E-01 4.92518E+00-3.09697E-13-2.78361E-13
 -1       312 3.88311E+01-1.55132E+00 3.39340E-01 3.70475E+00-1.83492E-13-3.11473E-13
 -1       313 5.12962E+01 2.68584E+00 1.32665E+00-6.65439E-02-5.60302E-13 1.35725E-13
 -1       314 5.79195E+01 6.87298E+00 2.24898E+00-5.70913E-01-6.21225E-13 7.85760E-14
 -1       315 5.88865E+01 6.82494E+00 2.35367E+00-3.23769E-01-1.01807E-13 2.75835E-13
 -1       316 5.23118E+01 3.18383E+00 1.46971E+00 2.35698E-01 3.14540E-13 3.06366E-13
 -1       317 4.18412E+01-1.03547E+00 4.59633E-01-2.61198E+00 5.27176E-13 3.74589E-13
 -1       318 2.74011E+01-3.55189E+00-2.98663E-01-5.34609E+00 4.82780E-13 9.33142E-14
 -1       319 1.49766E+01-6.65461E+00-8.27584E-01-4.94658E+00 1.57152E-13-4.41952E-13
 -1       320 5.35014E+00-9.48549E+00-9.86835E-01-2.96730E+00-4.09950E-14-5.16399E-13
 -1       321-2.16575E-01-1.23296E+01-1.12096E+00-6.14805E-01-4.04371E-13 1.77913E-14
 -1       322-1.98626E+00-1.32241E+01-1.06193E+00 1.12085E+00-4.21893E-13-7.16927E-13
 -1       323 3.87526E+01 9.02444E-01-9.18364E-02-6.87743E+00-5.48533E-13-3.14471E-14
 -1       324 3.66252E+01 1.08531E+00-5.63835E-01 6.60714E+00 2.99594E-13-8.82686E-13
 -1       325 2.01382E+01 2.99948E+00-2.20221E-02-2.09686E+00-2.46909E-14-5.05368E-14
 -1       326 2.07547E+01 2.20745E+00-1.79369E-02-2.36452E+00-4.16884E-14-2.46313E-14
 -1       327 1.95834E+01 3.69158E+00-1.56197E-02-1.31665E+00-2.04188E-15-6.46813E-14
 -1       328 1.94596E+01 3.84879E+00-1.37166E-02-9.23252E-01 1.46419E-14-4.43517E-14
 -1       329 1.93901E+01 3.93987E+00-1.27163E-02-5.43693E-01 5.27388E-14-2.30692E-14
 -1       330 1.93593E+01 3.98131E+00-1.22909E-02-1.73371E-01 7.91330E-14-1.56038E-15
 -1       331 1.93606E+01 3.97972E+00-1.23073E-02 1.93975E-01 8.59952E-14 7.22252E-15
 -1       332 1.93942E+01 3.93480E+00-1.27547E-02 5.64661E-01 1.01396E-13 1.84150E-14
 -1       333 1.94654E+01 3.84139E+00-1.37671E-02 9.38357E-01 1.08014E-13 5.14077E-14
 -1       334 1.95928E+01 3.67880E+00-1.56826E-02 1.33241E+00 1.34715E-13 8.94380E-14
 -1       335 1.98082E+01 3.41011E+00-1.90555E-02 1.73843E+00 1.36703E-13 1.15481E-13
 -1       336 2.01761E+01 2.95107E+00-2.32773E-02 2.12261E+00 1.14456E-13 1.71999E-13
 -1       337 2.07608E+01 2.10604E+00-2.94916E-02 2.30605E+00 8.34645E-14 2.80193E-13
 -1       338 2.10945E+01 1.18618E+00-2.41254E-02 1.91370E+00 5.01509E-14 3.68676E-13
 -1       339 2.03838E+01 4.93748E-01 7.81250E-03 9.24377E-01 3.13126E-14 3.24796E-13
 -1       340 2.04804E+01 7.01943E-01 1.18529E-02-1.05997E+00-4.16477E-14-8.82519E-15
 -1       341 2.00547E+01 3.48484E-01 7.25551E-03-4.77159E-01-3.63947E-14 4.07758E-15
 -1       342 1.97945E+01 1.82527E-01 4.22627E-03-1.58854E-01-3.06938E-14 1.79219E-16
 -1       343 1.96548E+01 9.39406E-02 1.96196E-03 1.77251E-02-6.03942E-14 1.77742E-14
 -1       344 1.95969E+01 4.34721E-02 8.28021E-04 1.12183E-01-5.73719E-14 3.66033E-14
 -1       345 1.95903E+01 1.37275E-02 2.92598E-04 1.57440E-01-6.26887E-14 5.34036E-14
 -1       346 1.96139E+01-3.75183E-03 2.59297E-05 1.72851E-01-4.02057E-14-1.13572E-15
 -1       347 1.96535E+01-1.35616E-02-1.13856E-04 1.70407E-01-2.19230E-14-2.08890E-14
 -1       348 1.96997E+01-1.84450E-02-1.84839E-04 1.57810E-01 1.82521E-14-1.92592E-14
 -1       349 1.97469E+01-2.01572E-02-2.14215E-04 1.40081E-01 3.24661E-14-2.88184E-14
 -1       350 1.97916E+01-1.98698E-02-2.17559E-04 1.20484E-01 1.69290E-14-1.44711E-13
 -1       351 1.98320E+01-1.83766E-02-2.04930E-04 1.01089E-01-9.63065E-15-5.06493E-14
 -1       352 1.98672E+01-1.62106E-02-1.83003E-04 8.31627E-02-1.31089E-14-1.58079E-14
 -1       353 1.98974E+01-1.37152E-02-1.56064E-04 6.74292E-02-9.17284E-14 7.09715E-15
 -1       354 1.99229E+01-1.10900E-02-1.26587E-04 5.42733E-02 5.46475E-15 5.52169E-14
 -1       355 1.99445E+01-8.41963E-03-9.55614E-05 4.38931E-02-2.53612E-14 9.65484E-14
 -1       356 1.99631E+01-5.68659E-03-6.26110E-05 3.64270E-02-4.82318E-15 3.26944E-14
 -1       357 1.99798E+01-2.76889E-03-2.58786E-05 3.20719E-02-1.34386E-14 1.13778E-13
 -1       358 1.99960E+01 5.82911E-04 1.83891E-05 3.12121E-02-7.70526E-14 8.40116E-14
 -1       359 2.00131E+01 4.79655E-03 7.66879E-05 3.45806E-02 6.38820E-14 5.84990E-14
 -1       360 2.00330E+01 1.05706E-02 1.59759E-04 4.34889E-02 8.78670E-14 5.07508E-14
 -1       361 2.00581E+01 1.90309E-02 2.85111E-04 6.01701E-02 6.50665E-14 4.08892E-14
 -1       362 2.00915E+01 3.19852E-02 4.81094E-04 8.83036E-02-7.22924E-14 1.13682E-14
 -1       363 2.01372E+01 5.23269E-02 7.93142E-04 1.33820E-01-1.81276E-13 1.08950E-14
 -1       364 2.02002E+01 8.46561E-02 1.29217E-03 2.06106E-01-6.55853E-14 4.89582E-14
 -1       365 2.02866E+01 1.36179E-01 2.08206E-03 3.19765E-01 1.04721E-13 8.33205E-14
 -1       366 2.04025E+01 2.17860E-01 3.29347E-03 4.96977E-01-6.06779E-14 7.99236E-14
 -1       367 2.05520E+01 3.45389E-01 5.03247E-03 7.70270E-01-6.86300E-15 1.23028E-13
 -1       368 2.07326E+01 5.38289E-01 7.24432E-03 1.18451E+00 8.54022E-14 1.25987E-13
 -1       369 2.09266E+01 8.11885E-01 9.58040E-03 1.79473E+00 1.64927E-13 1.94114E-13
 -1       370 2.10951E+01 1.14814E+00 1.19519E-02 2.65177E+00 8.49225E-14 1.46465E-13
 -1       371 2.11950E+01 1.41509E+00 1.80959E-02 3.75884E+00-9.04079E-14 2.67637E-13
 -1       372 2.12722E+01 1.18589E+00 4.12978E-02 4.98586E+00 1.16093E-13 2.55589E-13
 -1       373 2.18109E+01-3.28276E-01 9.27312E-02 5.82554E+00 1.90081E-13-6.28803E-14
 -1       374 2.38527E+01-3.78690E+00 1.10828E-01 5.55544E+00 5.25552E-14 2.82066E-15
 -1       375 5.41321E+00-4.94142E+00 7.45297E-03 7.00377E+00 1.41082E-13 4.08534E-13
 -1       376 2.24032E+01-4.93860E+00-6.57305E-04 7.87964E+00-3.45945E-13 3.80189E-13
 -1       377 2.77777E+01-3.60560E+00 9.04760E-02-4.43063E+00 3.07157E-13-1.75599E-13
 -1       378 2.35996E+01-4.39103E-01 8.90729E-02-5.91084E+00-5.09447E-13-4.64118E-13
 -1       379 2.24106E+01 9.11383E-01 3.07982E-02-5.13520E+00-3.18794E-13-5.11963E-13
 -1       380 2.17461E+01 1.12851E+00 1.54590E-02-3.98153E+00-3.27091E-13-5.28620E-13
 -1       381 2.12081E+01 9.85948E-01 1.32408E-02-2.88882E+00 5.66192E-14-7.91518E-13
 -1       382 2.07043E+01 9.00924E-01 1.07631E-02-1.91912E+00 3.48359E-13-5.83488E-13
 -1       383 1.98434E+01 2.25324E-01 6.87051E-03 2.74203E-01 5.96476E-14 2.36467E-13
 -1       384 1.96497E+01 1.12769E-01 3.30357E-03 4.65675E-02 6.93519E-14 2.11144E-13
 -1       385 1.95599E+01 5.54035E-02 1.48861E-03-7.56238E-02 4.23192E-14 1.56871E-13
 -1       386 1.95379E+01 2.21435E-02 5.99968E-04-1.37501E-01-1.18167E-14 1.83181E-13
 -1       387 1.95563E+01 2.60523E-03 1.67895E-04-1.63233E-01 2.46274E-15 2.00683E-13
 -1       388 1.95967E+01-8.61319E-03-5.60505E-05-1.67268E-01 9.28680E-15 2.45941E-13
 -1       389 1.96473E+01-1.45645E-02-1.73382E-04-1.58672E-01 4.59488E-14 2.77322E-13
 -1       390 1.97005E+01-1.71278E-02-2.28903E-04-1.43298E-01 7.14047E-14 2.55888E-13
 -1       391 1.97518E+01-1.75280E-02-2.46148E-04-1.24953E-01 4.84945E-14 2.75263E-13
 -1       392 1.97987E+01-1.65898E-02-2.39593E-04-1.06086E-01 1.02794E-14 2.26012E-13
 -1       393 1.98400E+01-1.48730E-02-2.18829E-04-8.82162E-02-9.43821E-14 1.94945E-13
 -1       394 1.98755E+01-1.27547E-02-1.90329E-04-7.22355E-02 4.26643E-14 1.72352E-13
 -1       395 1.99055E+01-1.04834E-02-1.58443E-04-5.86068E-02 2.15935E-14 1.47706E-13
 -1       396 1.99305E+01-8.22088E-03-1.26133E-04-4.75084E-02-6.62307E-14 1.78681E-13
 -1       397 1.99515E+01-6.07676E-03-9.55566E-05-3.89256E-02 3.54967E-14 7.65550E-14
 -1       398 1.99692E+01-4.14033E-03-6.85937E-05-3.27011E-02 1.51763E-14 8.47204E-14
 -1       399 1.99846E+01-2.51326E-03-4.73669E-05-2.85451E-02-8.88813E-15 8.92417E-14
 -1       400 1.99981E+01-1.34510E-03-3.47687E-05-2.60042E-02-7.34811E-14 1.81967E-13
 -1       401 2.00105E+01-8.72710E-04-3.49889E-05-2.43868E-02 2.04441E-14 3.01283E-13
 -1       402 2.00217E+01-1.46232E-03-5.39692E-05-2.26412E-02-1.72433E-14 3.55146E-13
 -1       403 2.00315E+01-3.64755E-03-9.96237E-05-1.91888E-02-4.51309E-14 3.37119E-13
 -1       404 2.00386E+01-8.14836E-03-1.81531E-04-1.17255E-02-1.19028E-14 3.47194E-13
 -1       405 2.00410E+01-1.58428E-02-3.09656E-04 2.96864E-03 1.36301E-13 1.37671E-13
 -1       406 2.00351E+01-2.76473E-02-4.91566E-04 2.91369E-02 8.05219E-14 1.09913E-13
 -1       407 2.00156E+01-4.42461E-02-7.27656E-04 7.19324E-02 1.81118E-13 2.49599E-13
 -1       408 1.99755E+01-6.56121E-02-1.00441E-03 1.36886E-01-7.69851E-15 3.00748E-13
 -1       409 1.99052E+01-9.03025E-02-1.28679E-03 2.28707E-01-1.01138E-13 1.78254E-13
 -1       410 1.97940E+01-1.14631E-01-1.51256E-03 3.49210E-01 5.61808E-14 9.78745E-14
 -1       411 1.96305E+01-1.32040E-01-1.59293E-03 4.94376E-01 1.26960E-13 3.67580E-13
 -1       412 1.94055E+01-1.33302E-01-1.43119E-03 6.51076E-01-1.30283E-13 5.87193E-13
 -1       413 1.91164E+01-1.08313E-01-9.45167E-04 7.94793E-01-8.04807E-14 4.50844E-13
 -1       414 1.87718E+01-5.00039E-02-1.23717E-04 8.90510E-01 6.84870E-14 2.44991E-13
 -1       415 1.83970E+01 4.03182E-02 9.51419E-04 8.99049E-01 1.94880E-13 3.47762E-13
 -1       416 1.80350E+01 1.48741E-01 2.09387E-03 7.89477E-01 1.01274E-13 3.65894E-13
 -1       417 1.77408E+01 2.49537E-01 3.06483E-03 5.54245E-01-2.09594E-14 7.14692E-14
 -1       418 1.75684E+01 3.13233E-01 3.64681E-03 2.19453E-01 2.07770E-14-5.48326E-14
 -1       419 1.75524E+01 3.19425E-01 3.70860E-03-1.57745E-01-1.56761E-13 1.24807E-14
 -1       420 1.76957E+01 2.67115E-01 3.22670E-03-5.06646E-01-1.60226E-13 1.08001E-13
 -1       421 1.79682E+01 1.75054E-01 2.31759E-03-7.67715E-01-6.70823E-14-1.14231E-13
 -1       422 1.83187E+01 7.17293E-02 1.19016E-03-9.10739E-01 2.61435E-13-1.29762E-13
 -1       423 1.86928E+01-1.77344E-02 3.85532E-05-9.38445E-01 2.78002E-13 4.92119E-15
 -1       424 1.90467E+01-8.17613E-02-9.73771E-04-8.76052E-01 1.25533E-13 1.98654E-13
 -1       425 1.93541E+01-1.25243E-01-1.88169E-03-7.54079E-01-2.61114E-15-2.17438E-14
 -1       426 1.96095E+01-1.63898E-01-2.67747E-03-5.94785E-01 1.10734E-13 5.26398E-14
 -1       427 1.97825E+01-1.91975E-01-1.66091E-03-4.20483E-01 1.22649E-13 1.72260E-13
 -1       428 2.01586E+01-7.13504E-01 1.69374E-03-4.87180E-01-3.32296E-13 2.03346E-13
 -1       429 1.99955E+01-5.03941E-01-7.90543E-05-5.79515E-01-1.41708E-14 2.89174E-13
 -1       430 2.03228E+01-8.61799E-01 3.33296E-03-2.40142E-01-3.43013E-13-4.10245E-13
 -1       431 2.04647E+01-9.05831E-01 4.33661E-03 1.68133E-01 7.40787E-14 5.57688E-14
 -1       432 2.05425E+01-7.88769E-01 4.47980E-03 6.94946E-01 1.30502E-13 2.86078E-13
 -1       433 2.04978E+01-4.64372E-01 3.25976E-03 1.24978E+00-2.62158E-13-5.66196E-14
 -1       434 2.02744E+01 8.41174E-02 6.17419E-04 1.67973E+00-4.32385E-13-6.15281E-14
 -1       435 1.98632E+01 8.09770E-01-2.83797E-03 1.78888E+00-3.68375E-13-2.93058E-13
 -1       436 1.93651E+01 1.56023E+00-5.87901E-03 1.42426E+00-1.24331E-13-4.67274E-13
 -1       437 1.89629E+01 2.14413E+00-6.96518E-03 5.58759E-01 4.33286E-13 6.25081E-13
 -1       438 1.89051E+01 2.32800E+00-6.46066E-03-5.85748E-01 4.21635E-13 1.01638E-12
 -1       439 1.93378E+01 2.00125E+00-2.50573E-03-1.54794E+00 2.49873E-13 4.35400E-13
 -1       440 2.00422E+01 3.28941E-01 1.04983E-02 5.36088E-01 3.95651E-14 2.91445E-13
 -1       441 1.33146E+01-5.54126E+00-9.60694E-03 8.78945E+00-1.38362E-13 5.50435E-13
 -1       442 3.02539E+01-1.78455E+00 2.77658E-02 5.35931E+00-1.51899E-13 4.29934E-13
 -1       443 1.97913E+01 3.43285E+00-1.87226E-02-1.71922E+00-1.16334E-14-8.10766E-14
 -1       444 3.32087E+01-5.98529E+00-1.69648E-02-1.06480E+00 3.52052E-13-6.87089E-14
 -1       445 3.51966E+01 2.17500E+00-2.56497E-03 2.69426E+00 4.11057E-13-4.37927E-13
 -1       446 3.76541E+01 7.35286E+00-3.68157E-02 1.39834E-01 1.60469E-13 3.12653E-13
 -1       447 3.85573E+01 9.36570E+00-1.18557E-03-2.95649E-02 3.31901E-13 8.34922E-14
 -1       448 3.74110E+01 8.59327E+00-6.78409E-02 2.83627E-01 3.24046E-13-1.29979E-13
 -1       449 3.64915E+01 4.54988E+00-1.85595E-02-8.95667E-01 5.05651E-13 6.63358E-15
 -1       450 3.32702E+01 4.45530E-01 1.95601E-02-3.91707E+00 3.88495E-13-1.87073E-13
 -1       451 2.75132E+01-2.67317E+00 3.08696E-02-6.48100E+00 2.48510E-13-3.57228E-13
 -1       452 1.84067E+01-5.11309E+00-7.01728E-03-8.59293E+00-1.72279E-13-7.27170E-13
 -1       453 1.07417E+01-5.02665E+00 2.91686E-02-8.61764E+00-1.71835E-13-6.37768E-13
 -1       454 2.91488E+00-4.11355E+00 1.48639E-02-5.57619E+00-3.68844E-13 1.41387E-13
 -1       455 4.06870E-01-4.37422E+00-2.07281E-02-1.90154E+00-3.02456E-13-1.93123E-13
 -1       456 2.78934E+00-4.31255E+00-1.34877E-02 2.83391E+00-1.48999E-13-3.26045E-13
 -1       457 1.08014E+01-6.34547E+00-1.66455E-01 5.74237E+00-1.67755E-13 1.98702E-13
 -1       458 2.15643E+01-7.00451E+00-1.88442E-01 5.25551E+00-3.98764E-13-8.43492E-14
 -1       459 3.48627E+01-5.45244E+00-4.80574E-02 2.02321E-01-2.19311E-13-2.18200E-13
 -1       460 1.62354E+01-6.81164E+00-1.74679E-01-6.13269E+00-2.33952E-13-5.92084E-13
 -1       461 6.65523E+00-5.83220E+00-1.46728E-01-5.13523E+00-5.26107E-13-3.27419E-13
 -1       462 1.68239E+00-4.79287E+00-5.25776E-02-1.94937E+00-4.95715E-13 5.88696E-14
 -1       463 9.50366E-01-3.94873E+00 4.13215E-02 2.06182E+00-3.48943E-13-3.30652E-13
 -1       464 4.76549E+00-1.77015E+00 1.87527E-01 4.90958E+00 2.41335E-14 2.99955E-13
 -1       465 3.93753E+01-2.10088E+00-1.30803E-01-3.36817E+00-4.46188E-13 1.34809E-13
 -1       466 1.99548E+01 1.50532E+00 8.00945E-03-1.94922E+00 4.07248E-13-8.53996E-14
 -1       467 3.41205E+01 4.00480E+00-1.09484E-01-8.95887E-01 2.50605E-13-1.80980E-13
 -1       468 1.97317E+01 3.10452E+00-5.42271E-03-6.33437E-01 3.86902E-14-1.67325E-15
 -1       469 1.98285E+01 2.93085E+00-5.98745E-03-9.49826E-01 2.56390E-14-3.81700E-14
 -1       470 1.96635E+01 3.22746E+00-5.02444E-03 8.56914E-03 6.17825E-14 1.79829E-14
 -1       471 1.96820E+01 3.19449E+00-5.10470E-03 3.29864E-01 8.13584E-14 2.55879E-14
 -1       472 1.97361E+01 3.09764E+00-5.41728E-03 6.44952E-01 1.02168E-13 3.06671E-14
 -1       473 1.98351E+01 2.91979E+00-5.94023E-03 9.60107E-01 1.32773E-13 8.38030E-14
 -1       474 1.99919E+01 2.63350E+00-6.56234E-03 1.25485E+00 1.19793E-13 9.35205E-14
 -1       475 2.02229E+01 2.19403E+00-5.81820E-03 1.48864E+00 9.81556E-14 1.22841E-13
 -1       476 2.04794E+01 1.54607E+00-3.25669E-03 1.54110E+00 7.69675E-14 1.90862E-13
 -1       477 2.05350E+01 9.90651E-01 3.19882E-03 1.29676E+00 5.17477E-14 2.46346E-13
 -1       478 2.03521E+01 1.00175E+00 2.59101E-03-9.67769E-01-3.69860E-14-2.26047E-14
 -1       479 2.01814E+01 5.59746E-01 1.93502E-03-4.84560E-01-1.56120E-14-4.16336E-15
 -1       480 2.00321E+01 3.13199E-01 1.07898E-03-1.76193E-01-4.40881E-14 3.65612E-15
 -1       481 1.99294E+01 1.67597E-01 4.70665E-04 1.02796E-02-5.91930E-14-8.71190E-16
 -1       482 1.98690E+01 7.91795E-02 1.71617E-04 1.16273E-01-4.75400E-14-9.26295E-15
 -1       483 1.98406E+01 2.51238E-02 2.87796E-05 1.69883E-01-7.03649E-14 1.44934E-14
 -1       484 1.98338E+01-7.28522E-03-4.31658E-05 1.90017E-01-4.67861E-14 6.61444E-14
 -1       485 1.98407E+01-2.56433E-02-7.99882E-05 1.89425E-01-3.40722E-14 3.45200E-14
 -1       486 1.98553E+01-3.47857E-02-9.64455E-05 1.76735E-01-6.24315E-15-7.96784E-14
 -1       487 1.98735E+01-3.79307E-02-1.00089E-04 1.57757E-01 1.98852E-14-6.35667E-14
 -1       488 1.98929E+01-3.72704E-02-9.57218E-05 1.36344E-01 9.08408E-15-5.51503E-14
 -1       489 1.99117E+01-3.43006E-02-8.66215E-05 1.14984E-01 1.51268E-14-1.70388E-14
 -1       490 1.99292E+01-3.00207E-02-7.49688E-05 9.52306E-02-2.79795E-14 5.02172E-14
 -1       491 1.99449E+01-2.50619E-02-6.21100E-05 7.80066E-02 3.35460E-14 1.22379E-13
 -1       492 1.99589E+01-1.97701E-02-4.87168E-05 6.38469E-02 7.88298E-14 2.25389E-13
 -1       493 1.99715E+01-1.42555E-02-3.48847E-05 5.30823E-02-8.24665E-14 2.24874E-13
 -1       494 1.99830E+01-8.41015E-03-2.01347E-05 4.59978E-02 1.93721E-14 1.57080E-13
 -1       495 1.99939E+01-1.89028E-03-3.31170E-06 4.29805E-02-4.61113E-14 1.03156E-13
 -1       496 2.00049E+01 5.94504E-03 1.76636E-05 4.46813E-02-2.96480E-14-4.17152E-15
 -1       497 2.00164E+01 1.61567E-02 4.62624E-05 5.22127E-02 2.91234E-14-5.66890E-15
 -1       498 2.00289E+01 3.04362E-02 8.81541E-05 6.74171E-02 6.64195E-14-4.36071E-14
 -1       499 2.00425E+01 5.14439E-02 1.52547E-04 9.32402E-02-4.47020E-14-8.06959E-14
 -1       500 2.00563E+01 8.33318E-02 2.54343E-04 1.34255E-01-9.79897E-14-3.40721E-14
 -1       501 2.00682E+01 1.32517E-01 4.17326E-04 1.97371E-01-9.58957E-14 1.67606E-13
 -1       502 2.00725E+01 2.08761E-01 6.77837E-04 2.92736E-01-1.03610E-14 2.91317E-13
 -1       503 2.00577E+01 3.26488E-01 1.08547E-03 4.34733E-01 5.94866E-14 1.18702E-13
 -1       504 2.00012E+01 5.05932E-01 1.69102E-03 6.42761E-01 1.41125E-14 1.16745E-13
 -1       505 1.98614E+01 7.72614E-01 2.51332E-03 9.41111E-01 1.15365E-13 1.21419E-13
 -1       506 1.95655E+01 1.15107E+00 3.55243E-03 1.35682E+00 9.42421E-14 1.41640E-13
 -1       507 1.89973E+01 1.64294E+00 5.31754E-03 1.91488E+00-1.39804E-13-5.48050E-14
 -1       508 1.79930E+01 2.16851E+00 1.14539E-02 2.63437E+00 2.46571E-14-4.95212E-14
 -1       509 1.63791E+01 2.42366E+00 3.65195E-02 3.54023E+00 1.00016E-13 9.39422E-14
 -1       510 1.42333E+01 1.82964E+00 1.46893E-01 4.70500E+00-1.99910E-14 1.66651E-13
 -1       511 2.66608E+01-5.52757E+00-2.88864E-02 3.81444E+00-7.85622E-14-9.23393E-14
 -1       512 2.03904E+01 1.78348E+00-5.32811E-03-1.54012E+00-3.99982E-14-1.40039E-14
 -1       513 1.75068E+01 2.09542E+00 2.90897E-02-4.19722E+00-1.64780E-13-1.21130E-13
 -1       514 1.87245E+01 1.96920E+00 1.03542E-02-3.20229E+00-1.42633E-13 4.30539E-13
 -1       515 1.95466E+01 1.66697E+00 1.07726E-02-2.56913E+00 1.72351E-13 5.65689E-13
 -1       516 1.98551E+01 1.07702E-01 3.92422E-04-7.50462E-02 2.66262E-14 1.46622E-13
 -1       517 1.99359E+01 2.12295E-01 9.91673E-04 6.37426E-02 8.00099E-14 1.65227E-13
 -1       518 2.00686E+01 3.87688E-01 1.14416E-03 3.03489E-01 8.64350E-14 1.73078E-13
 -1       519 1.98147E+01 4.41593E-02 1.33009E-04-1.49513E-01-4.21100E-15 1.15223E-13
 -1       520 1.98024E+01 5.71582E-03 4.31321E-06-1.82837E-01 2.97007E-14 1.08882E-13
 -1       521 1.98079E+01-1.67259E-02-6.29967E-05-1.90377E-01 6.68216E-15 1.22349E-13
 -1       522 1.98238E+01-2.87385E-02-9.68979E-05-1.82434E-01-2.94426E-14 2.13340E-13
 -1       523 1.98449E+01-3.39316E-02-1.10407E-04-1.65939E-01 2.84170E-14 3.05809E-13
 -1       524 1.98677E+01-3.47332E-02-1.11045E-04-1.45516E-01 5.92350E-14 2.46102E-13
 -1       525 1.98901E+01-3.28046E-02-1.03778E-04-1.24186E-01 4.41974E-14 2.67700E-13
 -1       526 1.99109E+01-2.92827E-02-9.20018E-05-1.03856E-01 2.38670E-14 1.72303E-13
 -1       527 1.99295E+01-2.49362E-02-7.79917E-05-8.56585E-02 4.52285E-14 1.22275E-13
 -1       528 1.99459E+01-2.02776E-02-6.32836E-05-7.01965E-02-2.89943E-15 1.07783E-13
 -1       529 1.99600E+01-1.56512E-02-4.89251E-05-5.77132E-02 5.16169E-14 7.36666E-14
 -1       530 1.99722E+01-1.13096E-02-3.57302E-05-4.81979E-02 6.26033E-14 6.77418E-14
 -1       531 1.99830E+01-7.48523E-03-2.45053E-05-4.14386E-02 8.50736E-15 5.77043E-14
 -1       532 1.99926E+01-4.46551E-03-1.62870E-05-3.70232E-02-1.20410E-13 5.45414E-14
 -1       533 2.00016E+01-2.67310E-03-1.25907E-05-3.42870E-02-8.58811E-14 9.67038E-14
 -1       534 2.00104E+01-2.75295E-03-1.56597E-05-3.22032E-02-1.10130E-13 2.19899E-13
 -1       535 2.00191E+01-5.65808E-03-2.86681E-05-2.92172E-02-9.47457E-14 2.91490E-13
 -1       536 2.00281E+01-1.27132E-02-5.57845E-05-2.30268E-02 4.65995E-14 2.34739E-13
 -1       537 2.00373E+01-2.56143E-02-1.01928E-04-1.03358E-02 1.38703E-13 1.32957E-13
 -1       538 2.00464E+01-4.62907E-02-1.71975E-04 1.33656E-02 1.31293E-13 1.50506E-13
 -1       539 2.00544E+01-7.65251E-02-2.69125E-04 5.38810E-02 2.77575E-14 7.77775E-14
 -1       540 2.00593E+01-1.17202E-01-3.92183E-04 1.18062E-01 2.89443E-14 2.19384E-13
 -1       541 2.00576E+01-1.67082E-01-5.31803E-04 2.12960E-01-5.68662E-14 2.69320E-13
 -1       542 2.00434E+01-2.21148E-01-6.66411E-04 3.44037E-01 4.30985E-14 1.65994E-13
 -1       543 2.00077E+01-2.68871E-01-7.58722E-04 5.12133E-01-6.93517E-14 1.04777E-13
 -1       544 1.99384E+01-2.93344E-01-7.54204E-04 7.09218E-01-3.07161E-14 1.04013E-13
 -1       545 1.98219E+01-2.72864E-01-6.11666E-04 9.13737E-01-9.30481E-15 4.42549E-14
 -1       546 1.96478E+01-1.86621E-01-2.85712E-04 1.08776E+00 1.72993E-14-3.55437E-14
 -1       547 1.94161E+01-2.51317E-02 1.86130E-04 1.17941E+00 2.43110E-14 9.85630E-14
 -1       548 1.91463E+01 1.97490E-01 7.33649E-04 1.13447E+00 1.09303E-13 1.13899E-14
 -1       549 1.88811E+01 4.37168E-01 1.22766E-03 9.17523E-01 2.43758E-13 2.22888E-13
 -1       550 1.86790E+01 6.28511E-01 1.59220E-03 5.35069E-01 8.49542E-14 1.67760E-13
 -1       551 1.85927E+01 7.10173E-01 1.76012E-03 4.60331E-02-1.73848E-13 2.09454E-13
 -1       552 1.86456E+01 6.54993E-01 1.71320E-03-4.52286E-01-2.06605E-13 1.77029E-13
 -1       553 1.88180E+01 4.85561E-01 1.40523E-03-8.60413E-01-1.58751E-13 1.64685E-13
 -1       554 1.90592E+01 2.59895E-01 9.02898E-04-1.11448E+00 1.66458E-13 9.38930E-14
 -1       555 1.93100E+01 4.24554E-02 3.48221E-04-1.20100E+00 3.18646E-13 2.93807E-14
 -1       556 1.95250E+01-1.23425E-01-2.24916E-04-1.15040E+00 3.24320E-14 1.59349E-13
 -1       557 1.96858E+01-2.30250E-01-8.04053E-04-1.01247E+00 1.05170E-13 5.47930E-13
 -1       558 1.98058E+01-3.01549E-01-6.66718E-04-8.30175E-01-2.33253E-15 3.34322E-13
 -1       559 2.08021E+01-9.07205E-01 1.81603E-03-1.36573E-01 2.58253E-14 2.77829E-13
 -1       560 2.04899E+01-7.37694E-01 1.43712E-03-5.30101E-01-2.31911E-13-1.71260E-13
 -1       561 2.01526E+01-5.33352E-01 1.23113E-04-7.30311E-01 1.08240E-13-1.90324E-13
 -1       562 2.10468E+01-1.00935E+00 2.20266E-03 4.53265E-01 1.99439E-13-1.52049E-14
 -1       563 2.11197E+01-9.74020E-01 2.06737E-03 1.17900E+00-9.91188E-15-1.57121E-13
 -1       564 2.08909E+01-7.15249E-01 1.09707E-03 1.90881E+00-2.03994E-13-1.03300E-13
 -1       565 2.02614E+01-1.64640E-01-5.83259E-04 2.41292E+00-1.63832E-13 9.77365E-14
 -1       566 1.92959E+01 6.41570E-01-1.95306E-03 2.40399E+00-3.11435E-14-3.31733E-13
 -1       567 1.82560E+01 1.54511E+00-1.76808E-03 1.66689E+00 3.44627E-13 3.43029E-13
 -1       568 1.76585E+01 2.20177E+00-1.92231E-04 2.60064E-01 4.06772E-13 5.20034E-13
 -1       569 1.79369E+01 2.31025E+00-4.22833E-03-1.37360E+00 1.31016E-13 5.86586E-13
 -1       570 1.99535E+01-5.30196E+00 6.61524E-02 8.20512E+00-1.39957E-14 6.98921E-13
 -1       571 1.22585E+01-3.60709E+00 1.41621E-01 8.34172E+00 3.13569E-13 3.83985E-13
 -1       572 3.22305E+01 5.43278E-01-1.21900E-01 9.51154E-02 4.00041E-13 5.34017E-14
 -1       573 1.59528E+01 1.30260E+00 9.79470E-02-5.31386E+00-1.70428E-13-5.64890E-13
 -1       574 2.78528E+01-4.68938E+00 7.85727E-03 4.89324E+00-5.08968E-14 5.36911E-13
 -1       575 1.96791E+01 3.19881E+00-5.12624E-03-3.12752E-01 6.28780E-14-4.32261E-15
 -1       576 7.78682E+00-1.51037E+00 1.29955E-01-5.01950E+00-1.61669E-13-3.27460E-13
 -1       577 3.15871E+01-1.68880E+00-9.09387E-02 1.38004E+00 2.59233E-13 2.30371E-14
 -1       578 3.28001E+01 5.83385E+00-1.75284E-01 1.52687E+00 3.51427E-13-7.45723E-14
 -1       579 3.24651E+01 7.87131E+00-1.93421E-01-1.17638E+00 3.20716E-13-4.69891E-13
 -1       580 1.11769E+01-1.90673E+00 1.65685E-01 5.86456E+00 1.79495E-13 1.21667E-13
 -1       581 3.22761E+01 8.87433E+00-2.06485E-01 2.83418E-01 3.34885E-13-1.53650E-13
 -1       582 3.06050E+01-2.60235E+00-4.91552E-02-2.53130E+00 1.18308E-13-3.78517E-14
 -1       583 2.52273E+01-5.04279E+00 3.35857E-02-6.28718E+00-1.28231E-14-2.37952E-13
 -1       584 1.68353E+01-4.41983E+00 9.31656E-02-8.54487E+00-2.26506E-13-8.04176E-13
 -1       585 9.34134E+00-2.39836E+00 1.74755E-01-7.66515E+00-4.73926E-14-4.70374E-13
 -1       586 4.04485E+00-7.80069E-01 1.89538E-01-3.45053E+00-2.63709E-13-3.64014E-14
 -1       587 1.50536E+01-3.91456E+00 8.95451E-02-6.45252E+00-2.74530E-13-9.44120E-13
 -1       588 4.13939E+00-6.13463E-01 1.94594E-01 1.29602E+00-2.54657E-15-1.07456E-13
 -1       589 4.53526E+00-4.53685E-01 2.27720E-01-7.62137E-01-3.70449E-13-2.73753E-13
 -1       590 1.99785E+01 2.65323E+00-6.75120E-03-1.24294E+00 2.17990E-15-6.05455E-14
 -1       591 2.02683E+01 6.54497E-01 6.22932E-03 7.94974E-01 4.60699E-14 2.00290E-13
 -1       592 9.92832E+00-1.22175E+00 1.63628E-01 6.56064E+00 3.34188E-13 7.69405E-13
 -1       593 6.18474E+00 7.31799E-01 2.14226E-01 1.89858E+00 3.39208E-14 1.28633E-13
 -1       594 2.01411E+01 5.01227E-01 3.55355E-03 5.16426E-01 7.28044E-14 1.70026E-13
 -1       595 2.01608E+01 2.29499E+00-6.26204E-03-1.44041E+00-2.11902E-14-5.48209E-14
 -1       596 2.97639E+01 7.08125E+00-1.66931E-01 1.45119E+00 4.45886E-13 4.93217E-14
 -1       597 1.99585E+01 2.45027E+00-1.60846E-03 3.93383E-01 8.33609E-14 3.95068E-14
 -1       598 1.99265E+01 2.52521E+00-1.51638E-03 1.35390E-01 8.09811E-14 3.32795E-14
 -1       599 2.01186E+01 2.04726E+00-1.79454E-03 8.49371E-01 1.13913E-13 8.51877E-14
 -1       600 2.02406E+01 1.68350E+00-2.01189E-03 1.00047E+00 8.95375E-14 9.02323E-14
 -1       601 2.03648E+01 1.02617E+00 3.46640E-03 1.00887E+00 6.38740E-14 1.64494E-13
 -1       602 1.58097E+01 2.63708E+00 2.38615E-02-2.19032E+00 1.05363E-13 9.68929E-14
 -1       603 2.02939E+01 1.14456E+00-3.13120E-04-7.82505E-01-3.25136E-15-9.36786E-15
 -1       604 2.02441E+01 6.91205E-01 3.79595E-04-4.06886E-01-2.65690E-14-1.96824E-14
 -1       605 2.01713E+01 4.03520E-01 1.75527E-04-1.47925E-01-5.70116E-14-1.63709E-14
 -1       606 2.01052E+01 2.20082E-01 6.91038E-05 1.80198E-02-3.34745E-14-6.47527E-15
 -1       607 2.00541E+01 1.03231E-01 1.22807E-05 1.15950E-01-4.30005E-14 5.27854E-14
 -1       608 2.00183E+01 2.97821E-02-1.32505E-05 1.66769E-01-3.23950E-14 1.12279E-13
 -1       609 1.99952E+01-1.48079E-02-2.52495E-05 1.86210E-01-5.56748E-14 1.17511E-13
 -1       610 1.99816E+01-4.00366E-02-3.09895E-05 1.85742E-01-9.87234E-14 8.73099E-14
 -1       611 1.99748E+01-5.23339E-02-3.27534E-05 1.73489E-01 1.45041E-15 7.54059E-14
 -1       612 1.99726E+01-5.61412E-02-3.18331E-05 1.55078E-01 5.00176E-14 1.19668E-15
 -1       613 1.99733E+01-5.45420E-02-2.92139E-05 1.34306E-01 7.02571E-14 3.29525E-14
 -1       614 1.99759E+01-4.96517E-02-2.56257E-05 1.13662E-01 7.47709E-14 3.88839E-14
 -1       615 1.99795E+01-4.28725E-02-2.15809E-05 9.47195E-02 6.74760E-14 2.10602E-13
 -1       616 1.99836E+01-3.50655E-02-1.73654E-05 7.84392E-02 4.63722E-14 1.94612E-13
 -1       617 1.99880E+01-2.66633E-02-1.30987E-05 6.54065E-02 1.52616E-14 1.53744E-13
 -1       618 1.99925E+01-1.77333E-02-8.73153E-06 5.60156E-02-4.99474E-14 2.28361E-13
 -1       619 1.99969E+01-7.99158E-03-4.04664E-06 5.06254E-02-1.03287E-13 1.71457E-13
 -1       620 2.00011E+01 3.23723E-03 1.37599E-06 4.97002E-02-1.58178E-13 5.02869E-14
 -1       621 2.00046E+01 1.71302E-02 8.23713E-06 5.39510E-02 4.97512E-14 1.82571E-14
 -1       622 2.00066E+01 3.55676E-02 1.76587E-05 6.44896E-02 1.95086E-14 1.21366E-13
 -1       623 2.00054E+01 6.14583E-02 3.14249E-05 8.30051E-02 1.58987E-14 4.92656E-14
 -1       624 1.99978E+01 9.92319E-02 5.23861E-05 1.11954E-01-6.71123E-15 1.00538E-13
 -1       625 1.99780E+01 1.55538E-01 8.50821E-05 1.54733E-01-5.37684E-14 1.51105E-13
 -1       626 1.99357E+01 2.40169E-01 1.36414E-04 2.15737E-01 9.04167E-15 1.10540E-13
 -1       627 1.98530E+01 3.67114E-01 2.15197E-04 3.00094E-01-4.19951E-14 1.14352E-13
 -1       628 1.96998E+01 5.55369E-01 3.27255E-04 4.12694E-01-5.29644E-15 3.08464E-14
 -1       629 1.94259E+01 8.28433E-01 4.64445E-04 5.55914E-01 7.21081E-14 3.65514E-15
 -1       630 1.89509E+01 1.20997E+00 6.35775E-04 7.25425E-01 1.13233E-14-9.93001E-14
 -1       631 1.81497E+01 1.71039E+00 1.24149E-03 9.04441E-01-6.00251E-14-9.35543E-14
 -1       632 1.68359E+01 2.29455E+00 5.00887E-03 1.06066E+00-6.43992E-14-6.73184E-14
 -1       633 1.47407E+01 2.80997E+00 2.43178E-02 1.15749E+00 7.68780E-14-4.67894E-14
 -1       634 1.16885E+01 2.82676E+00 8.05948E-02 1.17290E+00-6.36717E-14-6.07153E-15
 -1       635 2.02683E+01 1.65133E+00 5.71320E-04-1.10258E+00-2.95977E-14-2.62297E-14
 -1       636 2.10144E+01-8.35594E-01 2.67413E-04-5.48023E-01 2.55540E-13 1.42836E-13
 -1       637 3.01102E+01 4.71361E+00-1.51043E-01-2.06048E+00 2.31787E-13-3.18818E-13
 -1       638 2.01118E+01 2.86050E-01 1.85793E-04 5.16596E-02 9.46654E-14 9.92665E-14
 -1       639 2.00505E+01 1.46595E-01 6.08903E-05-7.72565E-02 3.61451E-14 5.58819E-14
 -1       640 2.01903E+01 5.04717E-01 4.01628E-04 2.63477E-01 6.97634E-14 1.12322E-13
 -1       641 1.99809E+01 4.08589E-03-1.83972E-05-1.81770E-01-2.85252E-14 1.38635E-13
 -1       642 1.99658E+01-2.79071E-02-3.15771E-05-1.89586E-01-5.66921E-14 1.72628E-13
 -1       643 1.99590E+01-4.48978E-02-3.74246E-05-1.82025E-01-3.36019E-14 1.17322E-13
 -1       644 1.99577E+01-5.19453E-02-3.85566E-05-1.65865E-01 9.01018E-14 8.68344E-14
 -1       645 1.99598E+01-5.25564E-02-3.66670E-05-1.45731E-01 3.66718E-14 3.02026E-14
 -1       646 1.99638E+01-4.91683E-02-3.30168E-05-1.24683E-01-2.01124E-14 3.34465E-14
 -1       647 1.99687E+01-4.34605E-02-2.84074E-05-1.04669E-01 1.12824E-13 2.68305E-14
 -1       648 1.99739E+01-3.65741E-02-2.34398E-05-8.68555E-02 2.56070E-14 8.41096E-15
 -1       649 1.99791E+01-2.92784E-02-1.84816E-05-7.18698E-02-2.21805E-14 1.09246E-13
 -1       650 1.99840E+01-2.21084E-02-1.38072E-05-5.99670E-02 7.38149E-14 1.19011E-13
 -1       651 1.99887E+01-1.54878E-02-9.64326E-06-5.11346E-02 1.82563E-14 1.95430E-13
 -1       652 1.99933E+01-9.84863E-03-6.24718E-06-4.51405E-02 4.44536E-14 1.69998E-13
 -1       653 1.99980E+01-5.75610E-03-3.99011E-06-4.15249E-02-1.07139E-13 8.80483E-14
 -1       654 2.00033E+01-4.04344E-03-3.44569E-06-3.95356E-02-2.17789E-13 8.81040E-14
 -1       655 2.00099E+01-5.95315E-03-5.48148E-06-3.80010E-02-1.18749E-13 4.56902E-14
 -1       656 2.00189E+01-1.32668E-02-1.13365E-05-3.51373E-02 3.02752E-14 3.12369E-14
 -1       657 2.00316E+01-2.83804E-02-2.26497E-05-2.82930E-02 1.40027E-13 3.29660E-14
 -1       658 2.00500E+01-5.42433E-02-4.13749E-05-1.36494E-02 1.28933E-13 1.02520E-13
 -1       659 2.00765E+01-9.40277E-02-6.94855E-05 1.40695E-02 6.25661E-14 1.14318E-13
 -1       660 2.01135E+01-1.50337E-01-1.08338E-04 6.17592E-02-2.12747E-14 2.33303E-14
 -1       661 2.01629E+01-2.23738E-01-1.57498E-04 1.37751E-01-4.31153E-14 5.39115E-14
 -1       662 2.02246E+01-3.10469E-01-2.12929E-04 2.50913E-01 1.37770E-13-9.84254E-15
 -1       663 2.02944E+01-3.99451E-01-2.64838E-04 4.08512E-01-4.77233E-14-9.58080E-14
 -1       664 2.03615E+01-4.69395E-01-2.91505E-04 6.12221E-01-1.10967E-13-9.22005E-15
 -1       665 2.04068E+01-4.87914E-01-2.44412E-04 8.51971E-01-5.20637E-14 1.08744E-13
 -1       666 2.04045E+01-4.15954E-01-1.51264E-04 1.09862E+00-4.57558E-14 3.57836E-13
 -1       667 2.03290E+01-2.20300E-01 6.11236E-05 1.29897E+00 8.03285E-14 2.62607E-13
 -1       668 2.01693E+01 1.04619E-01 2.75088E-04 1.37919E+00 9.66021E-14 1.62576E-13
 -1       669 1.99459E+01 5.14339E-01 4.63795E-04 1.26520E+00 3.40262E-14 1.29858E-13
 -1       670 1.97177E+01 9.09112E-01 6.18042E-04 9.19060E-01 7.39988E-14 2.96211E-13
 -1       671 1.95642E+01 1.16368E+00 7.40025E-04 3.75196E-01-1.20956E-13 4.51760E-13
 -1       672 1.95446E+01 1.18654E+00 8.02225E-04-2.54442E-01-1.02054E-13 3.90379E-13
 -1       673 1.96624E+01 9.71115E-01 7.14869E-04-8.19521E-01-8.25369E-15 2.30946E-13
 -1       674 1.98584E+01 6.05582E-01 5.37593E-04-1.20259E+00 3.22231E-14-1.23451E-13
 -1       675 2.00547E+01 2.07167E-01 1.85342E-04-1.35931E+00 2.06951E-13 9.38469E-14
 -1       676 2.01843E+01-1.17901E-01 1.03473E-04-1.31935E+00 1.97852E-13 3.16917E-13
 -1       677 2.02221E+01-3.28446E-01-3.16639E-04-1.15665E+00-2.81189E-14-1.68670E-14
 -1       678 2.02167E+01-4.54664E-01-8.51273E-04-9.48129E-01 1.32097E-13-1.66065E-14
 -1       679 2.18211E+01-1.33366E+00 9.84214E-04 7.41703E-01 3.33086E-13-1.55444E-13
 -1       680 1.78966E+01-3.38687E+00 7.65499E-02 7.39634E+00 3.82923E-13 4.55087E-13
 -1       681 2.14916E+01-1.10252E+00 6.19972E-04-2.04072E-02 2.15124E-13 3.47981E-13
 -1       682 2.06194E+01-6.31980E-01 7.14732E-04-8.15129E-01 1.91186E-13-3.06945E-13
 -1       683 2.18136E+01-1.42110E+00 1.29986E-03 1.69141E+00 3.04455E-15-4.52607E-13
 -1       684 2.00079E+01 5.85027E-02 7.66755E-06-1.48867E-01 1.88059E-14 6.17052E-14
 -1       685 2.12239E+01-1.19166E+00 1.18414E-03 2.65015E+00 8.17322E-14-5.28817E-14
 -1       686 1.99460E+01-5.19658E-01 1.47877E-03 3.26500E+00-1.02269E-13-1.62523E-13
 -1       687 1.81046E+01 6.10529E-01 5.89022E-03 3.07853E+00 9.06254E-14 2.99685E-14
 -1       688 1.64196E+01 1.83358E+00 8.19068E-03 1.76893E+00 2.56136E-13 4.59114E-13
 -1       689 2.20503E+01-1.66144E+00 2.99995E-01-6.13893E+00-2.28879E-13-1.06138E-12
 -1       690 2.95862E+01-1.91873E+00-7.18879E-02-1.63052E-01 1.08087E-13 7.71119E-14
 -1       691 2.86071E+01-3.59888E+00-3.80786E-02 1.73756E+00-8.29011E-14-1.41189E-13
 -1       692 1.27958E+01 2.60319E+00 7.59564E-02-2.51160E+00-4.19478E-15-2.18481E-13
 -1       693 1.45694E+01-2.34387E+00 1.16603E-01-7.64834E+00 5.22152E-14-5.74686E-13
 -1       694 2.97684E+01 2.42836E+00-1.15258E-01 1.97846E+00 2.15779E-13 2.26052E-13
 -1       695 9.13229E+00 2.05519E+00 2.00978E-01-1.97695E+00-1.49852E-13-4.12261E-13
 -1       696 8.80581E+00 4.13345E-01 1.66653E-01-5.03371E+00 3.47812E-14-2.85119E-13
 -1       697 2.45966E+01-4.88396E+00 3.07210E-02 5.45638E+00 3.03750E-15 3.98121E-13
 -1       698 2.00225E+01 2.29573E+00-1.70543E-03 6.36882E-01 1.13361E-13 9.00355E-14
 -1       699 2.80849E+01 7.35720E+00-1.68843E-01-6.00054E-01 2.03851E-13 2.07915E-13
 -1       700 3.03149E+01 1.78553E-01-9.57099E-02-1.11077E+00 2.62498E-13-4.70651E-13
 -1       701 2.73316E+01-4.32733E+00-5.78800E-03-3.37610E+00-1.15661E-13-7.23831E-14
 -1       702 2.00181E+01 2.30525E+00-1.65775E-03-6.28644E-01 2.86350E-14-3.08762E-15
 -1       703 7.25721E+00 1.83699E+00 1.75088E-01-4.30661E-01 1.36109E-13 7.98528E-14
 -1       704 2.23011E+01-4.50905E+00 6.08161E-02-6.48832E+00-2.27054E-13-2.98999E-13
 -1       705 1.99257E+01 2.52666E+00-1.50662E-03-1.26713E-01 5.39260E-14 1.41234E-14
 -1       706 1.53628E+01-1.51530E+00 9.37011E-02 6.76182E+00 4.36488E-13 4.16632E-13
 -1       707 9.50912E+00 7.86369E-01 1.43883E-01 4.15016E+00 3.47555E-13 7.69738E-13
 -1       708 2.02748E+01 8.56092E-01 1.74405E-03 5.83645E-01 6.66286E-14 1.03584E-13
 -1       709 2.01161E+01 2.05908E+00-6.79627E-04-8.42822E-01 2.61931E-14-4.01937E-14
 -1       710 1.59731E+01 2.51134E+00 7.99981E-03-3.43930E-01 2.83408E-13 4.02767E-13
 -1       711 2.78460E+01 4.19215E+00-1.00809E-01 2.19642E+00 2.34472E-13 4.98934E-13
 -1       712 1.99557E+01 2.45566E+00-1.58647E-03-3.83748E-01 2.44563E-14 4.08026E-14
 -1       713 2.02654E+01 1.30914E+00-4.97206E-04 6.29875E-01 8.36993E-14 7.98258E-14
 -1       714 1.88868E+01-2.60732E+00 4.64710E-02-6.27406E+00-1.17010E-13-3.50968E-13
 -1       715 1.91145E+01-9.11671E-01 1.02875E-02 4.38822E+00 1.96855E-13 8.91784E-14
 -1       716 2.02888E+01 7.50991E-01 2.05809E-04-3.00851E-01-1.24133E-14 2.76280E-15
 -1       717 2.02631E+01 4.46662E-01 1.08919E-04-1.00273E-01-3.37094E-14 6.39053E-14
 -1       718 2.02229E+01 2.42987E-01-1.72760E-05 3.26902E-02-2.34135E-15 9.65615E-14
 -1       719 2.01812E+01 1.09666E-01-5.82700E-06 1.12326E-01-1.44363E-15 8.14375E-14
 -1       720 2.01431E+01 2.45360E-02-9.04078E-06 1.53575E-01-2.54124E-14 4.71351E-14
 -1       721 2.01106E+01-2.72664E-02-8.87964E-06 1.68688E-01-4.40442E-14 1.05189E-13
 -1       722 2.00839E+01-5.61774E-02-8.48447E-06 1.67003E-01-6.51502E-14 2.03816E-13
 -1       723 2.00626E+01-6.96116E-02-7.93620E-06 1.55366E-01-4.68207E-14 2.00005E-13
 -1       724 2.00460E+01-7.28389E-02-7.21609E-06 1.38613E-01 2.77568E-15 9.89669E-14
 -1       725 2.00333E+01-6.95664E-02-6.32742E-06 1.20046E-01 4.13886E-14 9.09543E-14
 -1       726 2.00239E+01-6.23383E-02-5.36977E-06 1.01846E-01 8.54670E-14 4.51451E-14
 -1       727 2.00170E+01-5.28194E-02-4.36694E-06 8.54004E-02 6.67055E-14-1.00457E-14
 -1       728 2.00121E+01-4.19942E-02-3.39257E-06 7.15635E-02 1.15093E-13 4.73233E-14
 -1       729 2.00085E+01-3.02983E-02-2.46282E-06 6.08594E-02 5.26399E-14 9.17509E-14
 -1       730 2.00059E+01-1.76888E-02-1.57277E-06 5.36340E-02-1.01978E-13 6.91263E-14
 -1       731 2.00033E+01-3.65274E-03-7.06713E-07 5.01729E-02-1.09417E-13 1.20906E-13
 -1       732 2.00000E+01 1.28532E-02 1.52784E-07 5.07877E-02-3.28103E-14 2.96504E-13
 -1       733 1.99943E+01 3.35461E-02 1.01297E-06 5.58718E-02 1.00675E-13 1.13463E-13
 -1       734 1.99838E+01 6.10609E-02 1.85595E-06 6.59128E-02 4.10779E-14 9.42910E-14
 -1       735 1.99647E+01 9.93150E-02 2.62666E-06 8.14285E-02 1.52117E-14 1.73388E-13
 -1       736 1.99305E+01 1.54003E-01 3.22945E-06 1.02757E-01-4.80450E-14 7.89319E-14
 -1       737 1.98707E+01 2.33189E-01 3.46455E-06 1.29566E-01-6.23146E-14 5.10878E-14
 -1       738 1.97683E+01 3.47878E-01 2.46806E-06 1.59842E-01-1.12989E-14 3.95634E-14
 -1       739 1.95967E+01 5.12195E-01-3.65268E-06 1.87977E-01-7.05470E-14-6.74428E-15
 -1       740 1.93147E+01 7.42390E-01-2.62571E-05 2.01412E-01-2.83938E-14 6.05440E-14
 -1       741 1.88602E+01 1.05302E+00-7.04412E-05 1.75234E-01-2.78417E-14 9.30693E-15
 -1       742 1.81420E+01 1.44738E+00 6.10747E-05 6.45022E-02-1.17296E-13-1.71008E-13
 -1       743 1.70305E+01 1.89764E+00 1.76616E-03-2.04253E-01-1.35108E-13-2.39589E-13
 -1       744 1.53438E+01 2.30579E+00 1.20040E-02-7.40299E-01 6.88445E-14-1.34174E-13
 -1       745 1.29648E+01 2.43530E+00 4.82437E-02-1.62499E+00 2.50052E-14-2.24256E-13
 -1       746 2.00585E+01-6.18125E-02-1.01519E-05-1.65438E-01 1.95032E-14 5.79912E-14
 -1       747 2.02867E+01 9.31787E-01 9.64107E-04 4.44332E-01 8.32257E-14 6.44432E-14
 -1       748 2.70755E+01-3.07438E+00-2.21472E-02-9.44538E-01-6.72782E-14-5.72112E-14
 -1       749 2.16902E+01-3.27143E+00 5.06476E-02 5.48806E+00 2.54992E-13 3.12133E-13
 -1       750 2.02271E+01 3.23591E-01 4.36028E-05 2.52434E-02 7.97705E-14 1.07274E-13
 -1       751 2.02698E+01 5.60492E-01-3.43834E-04 1.95730E-01 9.54326E-14 7.06643E-14
 -1       752 2.00804E+01-4.22118E-02-1.02513E-05-1.73122E-01 9.90010E-15 6.64515E-14
 -1       753 2.01082E+01-4.38038E-03-9.53422E-06-1.67536E-01-3.15324E-14 1.13537E-13
 -1       754 2.00416E+01-6.92311E-02-9.46911E-06-1.50360E-01 5.83661E-14 7.37908E-14
 -1       755 2.00289E+01-6.87596E-02-8.65402E-06-1.31956E-01 4.15458E-14 1.07046E-13
 -1       756 2.00194E+01-6.34126E-02-7.51804E-06-1.12940E-01 6.72313E-15 6.99407E-14
 -1       757 2.00124E+01-5.52768E-02-6.31518E-06-9.50484E-02 6.26987E-14 1.69772E-13
 -1       758 2.00074E+01-4.57734E-02-5.05944E-06-7.93255E-02-8.96792E-14 1.78398E-13
 -1       759 2.00039E+01-3.58716E-02-3.84393E-06-6.63403E-02 6.09821E-14 1.75027E-13
 -1       760 2.00014E+01-2.62704E-02-2.71799E-06-5.63365E-02 2.87530E-14 2.00598E-13
 -1       761 2.00000E+01-1.75661E-02-1.71662E-06-4.93274E-02-5.08121E-14 2.89062E-13
 -1       762 1.99995E+01-1.04201E-02-8.85522E-07-4.51412E-02-3.26048E-14 3.46452E-13
 -1       763 2.00003E+01-5.73651E-03-3.06013E-07-4.34144E-02-7.57443E-14 2.94866E-13
 -1       764 2.00031E+01-4.85390E-03-1.25336E-07-4.35303E-02-9.90129E-14 1.73301E-13
 -1       765 2.00094E+01-9.74450E-03-5.96480E-07-4.44930E-02 2.31346E-14-3.15582E-14
 -1       766 2.00211E+01-2.31892E-02-2.13028E-06-4.47225E-02-1.16264E-14-5.27105E-14
 -1       767 2.00416E+01-4.88610E-02-5.36123E-06-4.17552E-02 1.26603E-13 1.45749E-13
 -1       768 2.00754E+01-9.11877E-02-1.12273E-05-3.18408E-02 1.20418E-14 2.04828E-13
 -1       769 2.01282E+01-1.54785E-01-2.10571E-05-9.45290E-03 4.11215E-14 3.13763E-13
 -1       770 2.02068E+01-2.43157E-01-3.66091E-05 3.31977E-02-3.07906E-14 3.74751E-13
 -1       771 2.03175E+01-3.56312E-01-5.96322E-05 1.06408E-01 1.65305E-13 2.00356E-13
 -1       772 2.04635E+01-4.87025E-01-9.07336E-05 2.22473E-01-3.01997E-14 3.11871E-13
 -1       773 2.06413E+01-6.15922E-01-1.28469E-04 3.93497E-01-1.74846E-13 5.08496E-13
 -1       774 2.08355E+01-7.06648E-01-1.47468E-04 6.26140E-01-9.53280E-14 3.78229E-13
 -1       775 2.10140E+01-7.04620E-01-2.98919E-05 9.11879E-01-1.70030E-13 3.16330E-13
 -1       776 2.11303E+01-5.46361E-01-5.34126E-05 1.21395E+00 1.82530E-13 1.28770E-13
 -1       777 2.11361E+01-1.82432E-01 1.61665E-04 1.45643E+00 1.86645E-13 9.85906E-14
 -1       778 2.10081E+01 3.78239E-01 1.34938E-04 1.52962E+00 6.71771E-14 1.25415E-13
 -1       779 2.07814E+01 1.03125E+00 3.46044E-04 1.32641E+00-5.77728E-14 3.45882E-13
 -1       780 2.05553E+01 1.58002E+00 5.29443E-04 8.11903E-01-1.18842E-13 3.49186E-13
 -1       781 2.04473E+01 1.81757E+00 8.36168E-04 8.02592E-02-1.06548E-13 2.82511E-13
 -1       782 2.05110E+01 1.64736E+00 8.29545E-04-6.68546E-01-6.20043E-14 2.01804E-13
 -1       783 2.07049E+01 1.14424E+00 5.52624E-04-1.21316E+00 1.33246E-13 2.31932E-13
 -1       784 2.09013E+01 5.14416E-01-3.28350E-04-1.46480E+00 2.80812E-14 1.53249E-13
 -1       785 2.10033E+01-5.31581E-02-1.09570E-03-1.42706E+00 2.38416E-13 8.06339E-14
 -1       786 2.09492E+01-4.18096E-01-1.70888E-03-1.22106E+00 3.42948E-13 1.88358E-13
 -1       787 2.08100E+01-5.62090E-01 5.49996E-04-1.01917E+00 5.76670E-14-2.75694E-14
 -1       788 2.14803E+01-1.88263E+00 4.99195E-03 3.59370E+00 4.72729E-14-1.26419E-13
 -1       789 2.75961E+01-2.29300E-01-4.20842E-02 1.52744E+00 2.81396E-13 3.65009E-13
 -1       790 1.36466E+01 2.33619E+00 5.00429E-02 1.51732E+00 4.77414E-13 5.23116E-13
 -1       791 1.59545E+01 7.72251E-01 3.61418E-02 3.86249E+00 2.54118E-13 4.32951E-13
 -1       792 2.61255E+01 6.00323E+00-9.11907E-02 9.69370E-01 2.45793E-13 2.93919E-13
 -1       793 2.47584E+01-3.91986E+00 1.31060E-03-3.59019E+00-9.31473E-14 3.99416E-14
 -1       794 2.66400E+01 4.94055E+00-8.46563E-02-1.79942E+00 3.89237E-14-2.67534E-13
 -1       795 2.01866E+01 1.88406E+00-1.45316E-04-9.89483E-01 5.55637E-15-3.94468E-14
 -1       796 2.26427E+01-2.08786E+00 4.36985E-03 2.26798E+00 6.52332E-14-1.02909E-14
 -1       797 1.35821E+01 5.91495E-02 8.44879E-02-5.50604E+00-8.08650E-14-3.90670E-13
 -1       798 2.58319E+01-3.84600E+00-7.33410E-03 2.61124E+00 3.04324E-13 4.73727E-14
 -1       799 1.09029E+01 2.36923E+00 9.53678E-02 8.27242E-01 3.29218E-13 4.34718E-13
 -1       800 1.07341E+01 2.11981E+00 1.01432E-01-2.59485E+00 1.49534E-13-1.68334E-13
 -1       801 2.78598E+01 1.97677E+00-7.19396E-02-2.10749E+00 3.21042E-13-1.45387E-13
 -1       802 2.01368E+01 1.88985E+00-3.34824E-04 1.98512E-01 8.28272E-14 1.95646E-14
 -1       803 2.27954E+01-1.81767E+00 7.77112E-04 9.92828E-01-2.94161E-14-6.72307E-13
 -1       804 2.79234E+01-1.55767E+00-3.17556E-02-6.69644E-01 2.54745E-13 6.78606E-14
 -1       805 2.02790E+01 1.19005E+00-5.84037E-04-5.80463E-01-6.76828E-15-1.19597E-14
 -1       806 7.54622E+00 1.11727E+00 1.65276E-01 2.12197E+00 6.74671E-14 2.55490E-14
 -1       807 2.64489E+01 1.41607E+00-3.83111E-02 2.14061E+00 3.29566E-13 1.30205E-13
 -1       808 2.23796E+01-1.39098E+00-1.00410E-03 3.34807E-02 9.32502E-14 1.97494E-13
 -1       809 2.01425E+01 6.02068E-02-7.53215E-06-1.40477E-01-3.25311E-14 9.14671E-14
 -1       810 2.01250E+01 1.92816E+00-2.81541E-04 3.07402E-03 6.61100E-14 4.72458E-14
 -1       811 2.01829E+01 1.63660E-01-6.48072E-06-8.09117E-02 4.55261E-14 9.21635E-14
 -1       812 2.48986E+01 5.34222E+00-5.09379E-02-4.87207E-01-6.17215E-14 1.77416E-13
 -1       813 2.17335E+01-9.71693E-01 1.03412E-03-6.13992E-01 2.17846E-13 2.53948E-13
 -1       814 2.02137E+01 1.59614E+00 1.62194E-04-5.28875E-01 8.18237E-15-2.74782E-14
 -1       815 2.22061E+01-3.09652E+00 1.64240E-02-4.40544E+00-1.69159E-13-2.61072E-14
 -1       816 2.02151E+01 1.58483E+00-7.50302E-04 5.32053E-01 8.61435E-14 7.98579E-14
 -1       817 2.01683E+01 1.77727E+00-5.30762E-04 3.79324E-01 9.93934E-14 8.26522E-14
 -1       818 2.01699E+01 1.78131E+00 5.28786E-05-3.78072E-01 1.64452E-14 8.53362E-15
 -1       819 2.02919E+01 1.17912E+00 3.28422E-04 4.03144E-01 9.30705E-14 7.91833E-14
 -1       820 2.03292E+01 4.44950E-01 3.38480E-05-5.11196E-02 3.38340E-15 4.85171E-14
 -1       821 2.03038E+01 2.36554E-01-2.08677E-05 4.55023E-02-9.44822E-15 1.65780E-14
 -1       822 2.02675E+01 9.82938E-02-3.01238E-06 1.03046E-01-5.02896E-14 5.48826E-14
 -1       823 2.02277E+01 9.59371E-03-3.58376E-06 1.32026E-01-1.21430E-14 3.56595E-14
 -1       824 2.01890E+01-4.38926E-02-2.36808E-06 1.41372E-01 5.77145E-15 6.95271E-14
 -1       825 2.01536E+01-7.28644E-02-1.39145E-06 1.38118E-01-2.95919E-14 1.31230E-13
 -1       826 2.01226E+01-8.51789E-02-8.95708E-07 1.27500E-01-6.02076E-14 1.66022E-13
 -1       827 2.00961E+01-8.65152E-02-5.68490E-07 1.13256E-01-6.20500E-15 1.79674E-13
 -1       828 2.00742E+01-8.08919E-02-4.91319E-07 9.79473E-02 8.59700E-14 1.67614E-13
 -1       829 2.00563E+01-7.10505E-02-3.39597E-07 8.32625E-02 1.01056E-13 2.03489E-13
 -1       830 2.00418E+01-5.87531E-02-2.38217E-07 7.02678E-02 9.82406E-14 1.54473E-13
 -1       831 2.00300E+01-4.49930E-02-1.91580E-07 5.96013E-02 8.22979E-14 1.18391E-13
 -1       832 2.00202E+01-3.01386E-02-2.08697E-07 5.16170E-02 1.65537E-14 1.05104E-13
 -1       833 2.00114E+01-1.40098E-02-3.20178E-07 4.64791E-02-5.12289E-15 9.96987E-14
 -1       834 2.00023E+01 4.11086E-03-5.88973E-07 4.42083E-02-2.17349E-14 2.69606E-13
 -1       835 1.99913E+01 2.55359E-02-1.12756E-06 4.46708E-02-1.17571E-14 2.83930E-13
 -1       836 1.99760E+01 5.23045E-02-2.12297E-06 4.74897E-02 2.35328E-14 2.19273E-13
 -1       837 1.99527E+01 8.73852E-02-3.86401E-06 5.18387E-02 1.01650E-13 2.60689E-13
 -1       838 1.99159E+01 1.34933E-01-6.75479E-06 5.60418E-02-5.44988E-14 2.62624E-13
 -1       839 1.98572E+01 2.00538E-01-1.12995E-05 5.68562E-02-1.26541E-13 2.49833E-13
 -1       840 1.97640E+01 2.91315E-01-1.81275E-05 4.82360E-02-1.97442E-14 2.68987E-13
 -1       841 1.96175E+01 4.15506E-01-2.83895E-05 1.92860E-02-1.14547E-13 1.30154E-13
 -1       842 1.93911E+01 5.80948E-01-4.45156E-05-4.89798E-02-1.12655E-13 1.27298E-13
 -1       843 1.90482E+01 7.91238E-01-6.31702E-05-1.88466E-01-3.81898E-14 6.56144E-15
 -1       844 1.85411E+01 1.03767E+00-6.91437E-06-4.50595E-01-2.60128E-13-1.69528E-13
 -1       845 1.78132E+01 1.28420E+00 7.15426E-04-9.14411E-01-7.44501E-14-1.61811E-13
 -1       846 1.68056E+01 1.44142E+00 4.77599E-03-1.69519E+00-4.04688E-14-1.97933E-13
 -1       847 1.55560E+01 1.33093E+00 1.76528E-02-2.86672E+00 2.39188E-14-2.11843E-13
 -1       848 2.00999E+01-8.43036E-02-1.08825E-06-1.24705E-01-1.24647E-14 9.08612E-14
 -1       849 2.36875E+01-3.01675E+00-1.09299E-02 2.92632E+00 2.46326E-14-1.44210E-14
 -1       850 2.58660E+01-1.64986E+00-8.41743E-03 7.02252E-01 1.67929E-13 1.04062E-13
 -1       851 2.01273E+01-7.82039E-02-5.89098E-07-1.38051E-01-5.60459E-16 6.62164E-14
 -1       852 2.01955E+01-1.95302E-02-3.89054E-06-1.43590E-01 4.20181E-15 6.45213E-14
 -1       853 2.00768E+01-8.18260E-02-8.90778E-07-1.09043E-01 2.18029E-15 1.03360E-13
 -1       854 2.00579E+01-7.41093E-02-8.58154E-07-9.32119E-02 4.22645E-14 8.20860E-14
 -1       855 2.00425E+01-6.34582E-02-7.00254E-07-7.85889E-02 4.70601E-14 6.48033E-14
 -1       856 2.00300E+01-5.14443E-02-5.19133E-07-6.60148E-02-4.96102E-14-6.33448E-15
 -1       857 2.00200E+01-3.91479E-02-3.41716E-07-5.59698E-02-2.66578E-15 1.11232E-13
 -1       858 2.00120E+01-2.73750E-02-1.63401E-07-4.87041E-02-7.35588E-14 1.47643E-13
 -1       859 2.00057E+01-1.68623E-02 3.12226E-08-4.43271E-02-6.03473E-14 1.70688E-13
 -1       860 2.00013E+01-8.48761E-03 2.59893E-07-4.28593E-02-4.70560E-14 2.11562E-13
 -1       861 1.99991E+01-3.49733E-03 5.36118E-07-4.42441E-02 1.07463E-14 3.36162E-14
 -1       862 2.00004E+01-3.75696E-03 8.57086E-07-4.83117E-02-3.46186E-14 3.18696E-14
 -1       863 2.00073E+01-1.20145E-02 1.17827E-06-5.46757E-02 3.69403E-15 1.33703E-13
 -1       864 2.00232E+01-3.21388E-02 1.36031E-06-6.25257E-02-1.76310E-14 1.75756E-13
 -1       865 2.00536E+01-6.92414E-02 1.05484E-06-7.02623E-02-5.78043E-14 1.74283E-13
 -1       866 2.01059E+01-1.29509E-01-5.47972E-07-7.49042E-02-1.63242E-14 1.88561E-13
 -1       867 2.01902E+01-2.19447E-01-5.25438E-06-7.12022E-02 8.79799E-15 8.23657E-14
 -1       868 2.03183E+01-3.44063E-01-1.67784E-05-5.04637E-02 2.44405E-14 1.26447E-13
 -1       869 2.05024E+01-5.03397E-01-4.06034E-05 6.77717E-04-6.90507E-14 2.77286E-13
 -1       870 2.07506E+01-6.86809E-01-8.28850E-05 1.00824E-01-2.45281E-13 2.91000E-13
 -1       871 2.10611E+01-8.64969E-01-1.58714E-04 2.72139E-01-1.27877E-13 3.14183E-13
 -1       872 2.14118E+01-9.80894E-01-2.17402E-04 5.33320E-01-9.75205E-14 3.75200E-13
 -1       873 2.17519E+01-9.46919E-01 2.90684E-04 8.82530E-01 1.52588E-13 1.94248E-13
 -1       874 2.20001E+01-6.60019E-01-3.99222E-04 1.27633E+00 7.33348E-14 2.07066E-13
 -1       875 2.20795E+01-5.47481E-02-1.16256E-03 1.59457E+00 1.19865E-13 4.78710E-13
 -1       876 2.19446E+01 8.43206E-01-9.59032E-04 1.66416E+00-6.98213E-14 3.88281E-13
 -1       877 2.16734E+01 1.80454E+00 6.24119E-05 1.32469E+00 1.55391E-14 1.17546E-13
 -1       878 2.14442E+01 2.46120E+00 9.61009E-04 5.70885E-01-2.08207E-13 8.79609E-14
 -1       879 2.14216E+01 2.51176E+00 1.55221E-03-3.77050E-01 6.80689E-14 7.03647E-14
 -1       880 2.15930E+01 1.95929E+00-5.28950E-03-1.17465E+00 1.50937E-14-1.57919E-13
 -1       881 2.18815E+01 1.01916E+00 7.05277E-03-1.58508E+00 1.01170E-13-1.42561E-13
 -1       882 2.19631E+01 1.11610E-01-3.48509E-03-1.54712E+00 5.25055E-14-3.51620E-13
 -1       883 2.18790E+01-4.89270E-01 5.11523E-03-1.23556E+00 2.08263E-13-3.07478E-14
 -1       884 1.46022E+01 9.09206E-01 4.25508E-02-4.04968E+00 5.34989E-14-1.78289E-13
 -1       885 2.50157E+01-3.11933E+00-8.97091E-04-1.66269E+00-1.61364E-14-3.05412E-13
 -1       886 2.39991E+01-2.35301E+00 3.47938E-03 1.15935E+00 5.43697E-14-3.61698E-13
 -1       887 1.36340E+01 8.99311E-01 9.28487E-02 4.24301E+00 2.42799E-13 8.14144E-13
 -1       888 2.52993E+01 2.58309E+00-3.42824E-02-1.98911E+00 3.56644E-13 1.38411E-14
 -1       889 2.57980E+01-2.37709E+00-7.57461E-03 1.94401E-01 7.83462E-14-7.34599E-14
 -1       890 2.01374E+01 1.89165E+00-8.75624E-05-1.94167E-01 3.97669E-14 4.99791E-14
 -1       891 1.72870E+01-8.05041E-01 2.80059E-02-5.04199E+00-4.73831E-14-4.30459E-13
 -1       892 2.03129E+01 1.05539E+00-8.91721E-05-3.15133E-01 1.72112E-14-1.72961E-14
 -1       893 2.03389E+01 7.03597E-01-4.39615E-04-1.68630E-01 2.97033E-14 1.94642E-14
 -1       894 2.60311E+01 1.01210E-01-1.61610E-02-1.68937E+00 2.86301E-13-2.11567E-13
 -1       895 2.01594E+01-5.88036E-02-1.89548E-06-1.45885E-01 5.54395E-14 8.49583E-14
 -1       896 2.51454E+01 3.78185E+00-3.96505E-02 1.88306E+00 3.62577E-13 1.54895E-13
 -1       897 2.53230E+01-4.87038E-01-8.92922E-03 1.54898E+00 2.52530E-13 1.36992E-13
 -1       898 2.34836E+01-1.68396E+00 2.16621E-04-3.03792E-02-3.36230E-13-2.11820E-13
 -1       899 2.02344E+01 4.86325E-02-6.10746E-06-1.24837E-01-3.59702E-14 6.86065E-14
 -1       900 2.02726E+01 1.40734E+00-9.70829E-06 6.90174E-02 5.19475E-14 4.41589E-14
 -1       901 2.39321E+01 4.42315E+00-3.49189E-02 8.08668E-01 2.19122E-13 9.40914E-15
 -1       902 2.27663E+01-1.02672E+00 2.88674E-03-7.97476E-01-2.25915E-13-1.58742E-13
 -1       903 2.38879E+01 3.73700E+00-9.35784E-03-1.35498E+00 5.55172E-14 8.72212E-14
 -1       904 2.03283E+01 5.68206E-01 3.17800E-04 1.21152E-01 7.96480E-14 5.66416E-14
 -1       905 2.03070E+01 3.24760E-01-3.22068E-05-3.18905E-03 5.34830E-14 8.34381E-14
 -1       906 2.02842E+01 1.33747E+00 7.88042E-05 1.96046E-01 9.05784E-14 5.78610E-14
 -1       907 2.40667E+01 1.11217E+00-9.93708E-03-1.89190E+00 2.87453E-13-1.82504E-13
 -1       908 2.03575E+01 2.06091E-01 9.80205E-06 4.96309E-02 5.75435E-15 1.30504E-14
 -1       909 2.03222E+01 7.25075E-02 2.83241E-06 8.57860E-02 1.23714E-14 8.56122E-14
 -1       910 2.02801E+01-1.24957E-02 2.81560E-08 1.02816E-01 2.06994E-14 1.38784E-13
 -1       911 2.02368E+01-6.26183E-02 4.25607E-07 1.06847E-01-1.33004E-14 6.83466E-14
 -1       912 2.01955E+01-8.83729E-02 1.32491E-06 1.02655E-01-2.67220E-15 7.15341E-14
 -1       913 2.01582E+01-9.75963E-02 2.48706E-06 9.37970E-02 5.39845E-14 1.39461E-13
 -1       914 2.01255E+01-9.60002E-02 1.99344E-06 8.28281E-02 5.38084E-14 1.77384E-13
 -1       915 2.00977E+01-8.76055E-02 1.77205E-06 7.14804E-02 9.77622E-14 1.96002E-13
 -1       916 2.00743E+01-7.51333E-02 1.49099E-06 6.08793E-02 9.62329E-14 1.51252E-13
 -1       917 2.00548E+01-6.02908E-02 1.15019E-06 5.17022E-02 1.94422E-14 1.78057E-13
 -1       918 2.00383E+01-4.39923E-02 7.66925E-07 4.43010E-02 5.22111E-14 9.08234E-14
 -1       919 2.00239E+01-2.65124E-02 3.32179E-07 3.87724E-02-7.98773E-14 1.45810E-13
 -1       920 2.00102E+01-7.57702E-03-1.89805E-07 3.49750E-02 1.12476E-13 1.09434E-13
 -1       921 1.99956E+01 1.36033E-02-8.57935E-07 3.24831E-02 5.60148E-14 1.55617E-13
 -1       922 1.99782E+01 3.83492E-02-1.74909E-06 3.04544E-02 4.63267E-14 3.11090E-13
 -1       923 1.99550E+01 6.85627E-02-2.93743E-06 2.73752E-02 1.36296E-13 3.21689E-13
 -1       924 1.99221E+01 1.06778E-01-4.42760E-06 2.06219E-02 1.49605E-14 2.53558E-13
 -1       925 1.98737E+01 1.56139E-01-5.98248E-06 5.74809E-03-1.21220E-13 2.95888E-13
 -1       926 1.98021E+01 2.20155E-01-6.75633E-06-2.46332E-02-5.35984E-14 2.09271E-13
 -1       927 1.96968E+01 3.01950E-01-4.66858E-06-8.25366E-02-1.17804E-13 1.41622E-13
 -1       928 1.95445E+01 4.02512E-01 4.46782E-06-1.87035E-01-1.07577E-13 1.00184E-13
 -1       929 1.93300E+01 5.17128E-01 2.94247E-05-3.67524E-01-1.94875E-13 9.47444E-14
 -1       930 1.90395E+01 6.28830E-01 9.23857E-05-6.67583E-01-1.39072E-13 8.95922E-16
 -1       931 1.86683E+01 6.96944E-01 2.98630E-04-1.14818E+00-2.31705E-13 4.17974E-14
 -1       932 1.82395E+01 6.38027E-01 1.35157E-03-1.88999E+00-6.27051E-14 7.45169E-14
 -1       933 1.78600E+01 3.24942E-01 4.40534E-03-2.91348E+00-5.53395E-14-5.98269E-14
 -1       934 2.01058E+01-9.06745E-02 1.67413E-06-8.08474E-02 5.19883E-15 1.08793E-13
 -1       935 2.02733E+01 1.57896E-01-9.02115E-06-8.13320E-02 8.01673E-15 1.02514E-13
 -1       936 2.01016E+01-1.52482E+00 1.13242E-02-3.86293E+00-1.55363E-13 4.59194E-14
 -1       937 2.01354E+01-9.58532E-02 1.72723E-06-9.29805E-02 1.91798E-14 7.89613E-14
 -1       938 2.00598E+01-6.73208E-02 1.09756E-06-5.82503E-02 4.41124E-14 2.27491E-13
 -1       939 2.00424E+01-5.30555E-02 8.79867E-07-4.93843E-02-7.95411E-14 2.29918E-13
 -1       940 2.00280E+01-3.86729E-02 6.88863E-07-4.27573E-02-5.40295E-14 1.08756E-13
 -1       941 2.00160E+01-2.50009E-02 5.45959E-07-3.86830E-02-3.46159E-14 3.95608E-14
 -1       942 2.00062E+01-1.28433E-02 4.81384E-07-3.74717E-02-7.61723E-14-6.48782E-14
 -1       943 1.99986E+01-3.22240E-03 5.38619E-07-3.95045E-02-2.30310E-15-5.66306E-14
 -1       944 1.99938E+01 2.34943E-03 7.81752E-07-4.52886E-02-6.28488E-14 7.84007E-14
 -1       945 1.99934E+01 1.55887E-03 1.30265E-06-5.54754E-02-7.00196E-14 1.59208E-13
 -1       946 2.00003E+01-9.05534E-03 2.22103E-06-7.08089E-02-1.81095E-14 2.31636E-13
 -1       947 2.00193E+01-3.44494E-02 3.65199E-06-9.19360E-02-8.77810E-14 2.73624E-13
 -1       948 2.00580E+01-8.13245E-02 5.55383E-06-1.18965E-01-1.17106E-14 2.06515E-13
 -1       949 2.01271E+01-1.58071E-01 7.19787E-06-1.50597E-01 1.09181E-13 2.13972E-13
 -1       950 2.02417E+01-2.74006E-01 5.68985E-06-1.82623E-01-3.10555E-14 2.04454E-13
 -1       951 2.04206E+01-4.37199E-01-6.91814E-06-2.05579E-01-7.70775E-14 2.35626E-13
 -1       952 2.06844E+01-6.49781E-01-4.52813E-05-2.01719E-01-1.46131E-13 3.13724E-13
 -1       953 2.10507E+01-8.99581E-01-1.23030E-04-1.42271E-01-2.05949E-13 2.18095E-13
 -1       954 2.15234E+01-1.14680E+00-3.47609E-04 1.29595E-02-1.60381E-13 2.02718E-13
 -1       955 2.20775E+01-1.30693E+00-1.96768E-04 3.08135E-01-1.67501E-15 2.80496E-13
 -1       956 2.26236E+01-1.24719E+00 2.83511E-04 7.50458E-01-5.04863E-14 6.24649E-13
 -1       957 2.30470E+01-7.44029E-01 1.33070E-03 1.30501E+00 6.79795E-15 6.24784E-13
 -1       958 2.32039E+01 2.08694E-01-4.49791E-03 1.77000E+00 1.70572E-13 4.24183E-13
 -1       959 2.30399E+01 1.59189E+00-1.45030E-03 1.80840E+00 1.98138E-13 2.88023E-13
 -1       960 2.26782E+01 2.92595E+00-4.14559E-03 1.24073E+00 1.17085E-13 3.32412E-14
 -1       961 2.26374E+01 3.03803E+00-1.94489E-02-1.02423E+00 1.85115E-13-7.30225E-14
 -1       962 1.75513E+01-8.99267E-02 1.21622E-02-3.86362E+00 4.09232E-14-1.99548E-13
 -1       963 2.02724E+01 1.40743E+00-3.83331E-04-6.61836E-02 5.71151E-14 4.81779E-14
 -1       964 2.01697E+01-9.25625E-02 1.77643E-06-1.03846E-01-4.22742E-15 7.00174E-14
 -1       965 2.45269E+01-9.00068E-01-1.12270E-02-1.11167E+00 7.69478E-14-5.82300E-14
 -1       966 2.03166E+01 1.17802E+00-6.56384E-05-2.09935E-01 4.40510E-14 2.91581E-14
 -1       967 2.00807E+01-8.03859E-02 1.33788E-06-6.89448E-02 5.50995E-14 2.03644E-13
 -1       968 2.27985E+01-2.52682E+00 5.87919E-03-2.52300E+00-2.39807E-13-4.05633E-13
 -1       969 2.43622E+01-2.15182E+00-6.64230E-03-1.54801E-01 1.14136E-13 5.70943E-14
 -1       970 2.03781E+01 4.06055E-01-7.66468E-05-1.23863E-02-2.91780E-14 1.57297E-14
 -1       971 2.02825E+01 1.29427E+00 1.13032E-03 3.06382E-01 9.32983E-14 8.59366E-14
 -1       972 2.42738E+01 1.72351E+00-1.30629E-02 2.02045E+00 3.16590E-13 2.55324E-13
 -1       973 2.02930E+01 2.62555E-02-5.31672E-06-1.01401E-01-1.55367E-15 6.06398E-14
 -1       974 2.31253E+01-2.16607E+00 5.50013E-03-1.07668E+00-9.78013E-14-2.36703E-15
 -1       975 2.03408E+01 9.50837E-01-6.29996E-04 2.01693E-01 7.82257E-14 6.23058E-14
 -1       976 2.24679E+01 3.51990E+00-2.07294E-03 8.85876E-02 7.38715E-14-2.86456E-13
 -1       977 2.03789E+01 6.50063E-01 1.86267E-04-8.71751E-02 2.12301E-14 2.66389E-15
 -1       978 2.02503E+01-3.93572E-02 1.54403E-07-1.11867E-01 5.00028E-14 3.60808E-14
 -1       979 2.43511E+01-1.54175E+00-4.22289E-03 7.22675E-01 1.06213E-13 1.16065E-13
 -1       980 2.03644E+01 1.00106E+00-9.24107E-05 1.94546E-03 4.67682E-14 5.77818E-14
 -1       981 2.03632E+01 9.70210E-01-4.31668E-04 7.89056E-02 8.64085E-14 6.54050E-14
 -1       982 2.02084E+01-7.59709E-02-2.89504E-06-1.11208E-01 4.08723E-14 7.32766E-14
 -1       983 2.03729E+01 5.33977E-01 3.20007E-05 5.97017E-02 7.08538E-14 6.55679E-14
 -1       984 2.03498E+01 3.75205E-02-1.69563E-05 5.94563E-02 3.12094E-14 1.58143E-13
 -1       985 2.03048E+01-3.79410E-02-1.04814E-05 6.69893E-02-1.76863E-14 1.34313E-13
 -1       986 2.02581E+01-8.07167E-02 7.42774E-07 6.74832E-02-2.52553E-14 1.14692E-13
 -1       987 2.02134E+01-1.00814E-01 9.09402E-07 6.36543E-02 3.47381E-14 4.18483E-14
 -1       988 2.01728E+01-1.05627E-01 2.27010E-06 5.75113E-02 5.01025E-14 2.29324E-14
 -1       989 2.01369E+01-1.00529E-01 2.14153E-06 5.04708E-02 8.80673E-14 1.73869E-14
 -1       990 2.01061E+01-8.93278E-02 2.39927E-06 4.34767E-02 8.52560E-14 1.57325E-14
 -1       991 2.00800E+01-7.45357E-02 2.23585E-06 3.71007E-02 9.85760E-14-2.95920E-14
 -1       992 2.00578E+01-5.76950E-02 1.77720E-06 3.16322E-02 2.53256E-14 1.31771E-13
 -1       993 2.00386E+01-3.96012E-02 1.09791E-06 2.71145E-02 4.22517E-16 1.53680E-13
 -1       994 2.00212E+01-2.04696E-02 2.22097E-07 2.33394E-02-1.15821E-14 2.06858E-13
 -1       995 2.00044E+01-5.29515E-05-8.57817E-07 1.97855E-02 4.78993E-14 1.26914E-13
 -1       996 1.99864E+01 2.22744E-02-2.15504E-06 1.54791E-02 6.52862E-14 7.37204E-14
 -1       997 1.99652E+01 4.74449E-02-3.63713E-06 8.75249E-03 1.25790E-13-4.60921E-14
 -1       998 1.99384E+01 7.65981E-02-5.11098E-06-3.14502E-03 3.69338E-14-1.15237E-13
 -1       999 1.99028E+01 1.10886E-01-5.96918E-06-2.46349E-02 2.71176E-14 2.29628E-14
 -1      1000 1.98546E+01 1.51057E-01-4.65597E-06-6.26607E-02-1.30094E-13 1.61889E-13
 -1      1001 1.97897E+01 1.96607E-01 2.37832E-06-1.27855E-01-1.42737E-13 1.57499E-13
 -1      1002 1.97044E+01 2.44160E-01 2.24714E-05-2.36023E-01-1.90579E-13 7.40634E-14
 -1      1003 1.95977E+01 2.84567E-01 6.87400E-05-4.09772E-01-1.68416E-13-2.13310E-14
 -1      1004 1.94755E+01 2.98049E-01 1.57803E-04-6.79783E-01-1.77000E-13-1.88507E-13
 -1      1005 1.93594E+01 2.47021E-01 3.91275E-04-1.08502E+00-1.08876E-13-1.17312E-13
 -1      1006 1.92999E+01 6.56182E-02 2.58764E-04-1.66737E+00-1.17062E-13 6.58176E-14
 -1      1007 1.93999E+01-3.29735E-01-9.48097E-04-2.40718E+00-3.98172E-14 8.07888E-14
 -1      1008 2.03325E+01 1.32803E-01 2.31508E-06-7.40279E-02 2.32730E-14 8.20663E-14
 -1      1009 2.01513E+01-1.02876E-01 1.85022E-06-5.85598E-02-8.46191E-15 5.83064E-15
 -1      1010 2.00461E+01-5.05266E-02 1.64589E-06-3.14337E-02 3.38582E-14 1.34164E-13
 -1      1011 2.00662E+01-6.66784E-02 1.95933E-06-3.64585E-02-1.64190E-14 1.98384E-13
 -1      1012 2.00144E+01-1.89637E-02 9.76101E-07-2.74971E-02-2.48611E-14 1.20502E-13
 -1      1013 2.00017E+01-5.04130E-03 8.48880E-07-2.96646E-02-3.69893E-14 9.60025E-14
 -1      1014 1.99911E+01 6.36975E-03 1.09029E-06-3.57150E-02-1.35529E-13 1.18678E-13
 -1      1015 1.99831E+01 1.36689E-02 1.99962E-06-4.69844E-02-1.65847E-13 1.68341E-13
 -1      1016 1.99795E+01 1.43007E-02 4.06216E-06-6.53410E-02-5.88688E-14 1.90906E-13
 -1      1017 1.99834E+01 4.29329E-03 8.04404E-06-9.32355E-02-2.75494E-14 1.15307E-13
 -1      1018 2.00007E+01-2.22781E-02 1.50617E-05-1.33583E-01 5.18863E-14-9.14012E-14
 -1      1019 2.00406E+01-7.38280E-02 2.64188E-05-1.89286E-01 1.06162E-13-4.23213E-14
 -1      1020 2.01175E+01-1.61589E-01 4.25037E-05-2.62084E-01-1.35020E-13-5.54285E-15
 -1      1021 2.02521E+01-2.99252E-01 5.91765E-05-3.50260E-01-2.85879E-15 1.57876E-13
 -1      1022 2.04727E+01-5.00895E-01 6.45030E-05-4.44593E-01-1.29141E-13 1.84305E-13
 -1      1023 2.08138E+01-7.75012E-01 7.66108E-05-5.22163E-01-2.71811E-13 2.42215E-13
 -1      1024 2.13107E+01-1.11265E+00 1.20022E-04-5.39806E-01-4.21112E-14 2.13857E-13
 -1      1025 2.19850E+01-1.46566E+00 3.06908E-04-4.29549E-01-2.29062E-13 1.50884E-13
 -1      1026 2.28051E+01-1.72525E+00 4.58485E-03-1.16166E-01-1.45655E-13 2.61461E-13
 -1      1027 1.96981E+01-8.76800E-01 1.38440E-03-3.12558E+00-1.81184E-13 2.06004E-13
 -1      1028 2.01893E+01-1.03299E-01 6.74066E-06-6.61722E-02 7.42929E-15 2.29088E-14
 -1      1029 2.00290E+01-3.43755E-02 1.28425E-06-2.82952E-02-3.53083E-14 9.30074E-14
 -1      1030 2.03868E+01 8.43814E-01 1.86926E-04-6.79022E-02 1.70587E-14 6.14377E-14
 -1      1031 2.00900E+01-8.18650E-02 2.12497E-06-4.29752E-02-9.09259E-15 8.87225E-14
 -1      1032 2.03877E+01 1.58546E-01 1.18372E-05 4.14785E-02 3.51198E-14 1.70089E-13
 -1      1033 2.03626E+01 2.95186E-01-5.57784E-05-2.29023E-02 5.07568E-14 8.75789E-14
 -1      1034 2.18660E+01-1.94845E+00-1.76254E-03-2.37824E+00-2.43700E-13-4.26224E-13
 -1      1035 2.04111E+01 3.38080E-01-4.75741E-04 6.92514E-03 1.07186E-14 1.25744E-13
 -1      1036 2.03836E+01 7.96721E-01 3.87995E-04 8.71665E-02 7.96412E-14 4.97359E-14
 -1      1037 2.01182E+01-9.46524E-02 2.03563E-06-5.05415E-02-3.47096E-14 6.96859E-15
 -1      1038 2.03654E+01 9.40344E-02-1.70384E-05-5.66143E-02 2.57652E-14 8.16593E-14
 -1      1039 2.03234E+01-2.75655E-03-1.38673E-05-7.01381E-02 3.31046E-14 5.85215E-14
 -1      1040 2.04079E+01 4.79847E-01-4.27305E-05 2.03108E-02 3.30722E-14 3.48135E-14
 -1      1041 2.04103E+01 5.63974E-01 4.88377E-04-2.89448E-02 2.29581E-14 5.86135E-14
 -1      1042 2.02320E+01-9.13556E-02-9.08576E-06-7.20896E-02 7.14767E-14 1.01673E-13
 -1      1043 2.04172E+01 6.84124E-01 3.03493E-04-8.58510E-03 3.27273E-14 7.97339E-14
 -1      1044 2.10481E+01-1.32074E+00-4.75603E-04-2.09544E+00-1.41537E-13-3.35554E-13
 -1      1045 2.03052E+01-6.23175E-02-2.99467E-05 2.65367E-02-3.34692E-14 8.58097E-14
 -1      1046 2.02568E+01-9.52616E-02 2.06928E-05 2.57523E-02 3.11110E-14 1.55868E-13
 -1      1047 2.02114E+01-1.08486E-01-3.77999E-06 2.39618E-02 4.54128E-14 1.92139E-13
 -1      1048 2.01701E+01-1.08348E-01 7.91351E-07 2.15477E-02 2.42441E-14 1.68368E-13
 -1      1049 2.01338E+01-9.98227E-02-2.36104E-07 1.88879E-02 1.75390E-14 8.44187E-14
 -1      1050 2.01026E+01-8.62334E-02-5.80083E-07 1.63077E-02 6.40191E-14-2.87172E-14
 -1      1051 2.00759E+01-6.97775E-02-6.95152E-07 1.39248E-02 1.12094E-13-5.94299E-14
 -1      1052 2.00531E+01-5.17861E-02-7.58161E-07 1.16927E-02 2.15198E-14-1.74125E-13
 -1      1053 2.00331E+01-3.29557E-02-9.55018E-07 9.37227E-03 3.60814E-14-1.85568E-13
 -1      1054 2.00148E+01-1.35356E-02-1.54591E-06 6.46162E-03 4.98243E-14-3.45148E-14
 -1      1055 1.99970E+01 6.51075E-03-2.92170E-06 2.06813E-03-6.08646E-16 6.45927E-14
 -1      1056 1.99783E+01 2.73463E-02-5.67685E-06-5.29488E-03-9.25002E-15 1.76200E-14
 -1      1057 1.99575E+01 4.90659E-02-1.06918E-05-1.80121E-02-5.32513E-14-1.64452E-13
 -1      1058 1.99332E+01 7.14105E-02-1.91901E-05-3.97959E-02 6.63460E-14-4.46833E-13
 -1      1059 1.99045E+01 9.32996E-02-3.26732E-05-7.62585E-02 7.32670E-14-4.65057E-13
 -1      1060 1.98715E+01 1.12046E-01-5.24961E-05-1.35607E-01-3.86662E-14-2.26375E-13
 -1      1061 1.98364E+01 1.22061E-01-7.85743E-05-2.29366E-01-1.58691E-13-1.45492E-13
 -1      1062 1.98054E+01 1.12805E-01-1.06243E-04-3.72840E-01-1.97049E-13-1.83712E-15
 -1      1063 1.97932E+01 6.57945E-02-1.19685E-04-5.84678E-01-3.24713E-13 7.34912E-14
 -1      1064 1.98285E+01-4.92161E-02-8.24649E-05-8.84177E-01-1.62144E-13 6.95508E-15
 -1      1065 1.99644E+01-2.79599E-01-2.06473E-04-1.28401E+00 1.42502E-14-2.18422E-13
 -1      1066 2.03436E+01-6.98372E-01-2.30112E-04-1.70469E+00-2.23855E-14-1.19994E-13
 -1      1067 2.00638E+01-6.18079E-02 8.58177E-07-1.51516E-02 6.25550E-14 1.52178E-14
 -1      1068 2.21777E+01-1.76167E+00 2.82715E-05-1.23171E+00-3.02516E-13-6.74756E-14
 -1      1069 2.01173E+01-9.35598E-02 2.71256E-06-2.07908E-02-6.34160E-14 8.03899E-14
 -1      1070 2.03953E+01 1.03026E-01 1.61631E-05 1.96835E-02 2.86557E-14 1.46868E-13
 -1      1071 1.99929E+01 6.89779E-03 2.82161E-06-2.12560E-02 4.02094E-15-1.37893E-13
 -1      1072 2.00081E+01-9.30714E-03 1.33591E-06-1.59139E-02 1.79250E-14-6.89365E-14
 -1      1073 1.99657E+01 3.25102E-02 1.01651E-05-4.86427E-02-1.43287E-13-2.13403E-13
 -1      1074 1.99553E+01 3.80682E-02 1.76618E-05-7.65367E-02-8.50768E-15-1.86721E-13
 -1      1075 1.99503E+01 3.38673E-02 2.92750E-05-1.19800E-01 1.47961E-13-1.46913E-13
 -1      1076 1.99566E+01 1.32987E-02 4.62437E-05-1.84547E-01 1.23605E-14-6.13346E-14
 -1      1077 1.99844E+01-3.37975E-02 6.86954E-05-2.77889E-01-1.07367E-13-8.13646E-15
 -1      1078 2.00508E+01-1.22260E-01 9.19562E-05-4.06645E-01-9.89159E-14 7.18025E-15
 -1      1079 2.01828E+01-2.72313E-01 9.33005E-05-5.74345E-01-2.15311E-13 4.71449E-14
 -1      1080 2.04212E+01-5.08678E-01 3.47456E-05-7.75356E-01-2.27345E-13 4.71142E-14
 -1      1081 2.08214E+01-8.54357E-01-1.71667E-04-9.84526E-01-1.59869E-14-1.74277E-13
 -1      1082 2.13721E+01-1.26849E+00-4.26504E-04-1.16229E+00-1.98281E-13-2.17526E-13
 -1      1083 2.03974E+01 2.42399E-01-1.25812E-04-2.84820E-02 1.48286E-14 6.74496E-14
 -1      1084 2.04251E+01 2.58088E-01 1.54553E-04 7.96425E-03 8.14409E-14 1.14579E-13
 -1      1085 2.04005E+01 7.57361E-01 2.16040E-04 3.93000E-02 6.67692E-14 1.20641E-13
 -1      1086 2.01899E+01-1.09174E-01 5.26945E-06-2.78697E-02 1.85688E-14 9.50717E-14
 -1      1087 2.00245E+01-2.65101E-02 6.55993E-07-1.37441E-02 3.95044E-14 2.93137E-14
 -1      1088 1.99787E+01 2.13040E-02 5.54088E-06-3.13676E-02-1.06980E-13-2.18718E-13
 -1      1089 2.00884E+01-7.86565E-02 1.58896E-06-1.76225E-02-4.36689E-14-3.38339E-15
 -1      1090 2.03533E+01-6.56486E-05-4.47330E-06 2.47496E-02-7.19732E-14 1.00138E-13
 -1      1091 2.02776E+01-6.07300E-02-1.27986E-05-7.41106E-02 8.16167E-15 1.14294E-13
 -1      1092 2.00428E+01-4.41824E-02 5.35834E-07-1.37116E-02-6.06746E-14 9.83165E-14
 -1      1093 2.01510E+01-1.04668E-01 4.00613E-06-2.43368E-02-4.12726E-14 1.11028E-13
 -1      1094 2.04300E+01 4.60977E-01-3.73281E-04 4.80736E-03 2.51978E-14 1.31929E-13
 -1      1095 2.03747E+01 4.90648E-02 1.20750E-05-2.82604E-02 1.25908E-14 6.34262E-14
 -1      1096 2.04111E+01 1.78720E-01 1.67860E-04-1.90135E-02 4.16184E-14 3.78919E-14
 -1      1097 2.02337E+01-1.03010E-01-5.09240E-06-3.07380E-02 7.54408E-14 9.68558E-14
 -1      1098 2.02839E+01-8.19160E-02 2.63599E-05-1.59855E-02 4.71979E-14 1.51521E-13
 -1      1099 2.03295E+01-3.30008E-02 4.22891E-05-3.24790E-02-6.65028E-15 1.14205E-13
 -1      1100 2.79281E+01 9.07608E+00 2.32530E+00-6.71457E+00-1.02141E-14 2.11720E-13
 -1      1101 2.05414E+01 6.22477E+00 2.07777E-01-3.89638E+00-5.07927E-15-1.38986E-14
 -1      1102 1.94355E+01 5.85312E+00 7.49260E-02-2.88686E+00-3.78864E-15-1.00062E-13
 -1      1103 1.90267E+01 5.72609E+00 6.02821E-02-2.23496E+00-5.86337E-16-1.22111E-13
 -1      1104 1.88403E+01 5.66944E+00 5.78043E-02-1.70115E+00 7.14706E-16-1.19004E-13
 -1      1105 1.87456E+01 5.64036E+00 5.55457E-02-1.23389E+00 1.76768E-15-1.12974E-13
 -1      1106 1.86963E+01 5.62502E+00 5.37441E-02-8.04210E-01 8.23560E-16-9.89313E-14
 -1      1107 1.86720E+01 5.61735E+00 5.24860E-02-3.92901E-01 1.17289E-15-7.44066E-14
 -1      1108 1.86651E+01 5.61515E+00 5.20842E-02 8.18912E-03 1.78069E-15-5.33081E-14
 -1      1109 1.86730E+01 5.61769E+00 5.26000E-02 4.09680E-01 2.69316E-15-3.07124E-14
 -1      1110 1.86984E+01 5.62571E+00 5.39969E-02 8.22304E-01 3.49200E-15 1.80411E-16
 -1      1111 1.87493E+01 5.64167E+00 5.62079E-02 1.25454E+00 3.25608E-15 3.08130E-14
 -1      1112 1.88450E+01 5.67105E+00 5.84722E-02 1.72616E+00 3.59782E-15 8.32962E-14
 -1      1113 1.90324E+01 5.72793E+00 6.06917E-02 2.26721E+00 4.34375E-15 1.52030E-13
 -1      1114 1.94322E+01 5.85052E+00 6.94906E-02 2.92771E+00 4.70457E-15 2.64080E-13
 -1      1115 2.04540E+01 6.18212E+00 1.53034E-01 3.87771E+00 1.38778E-15 4.38146E-13
 -1      1116 2.52178E+01 7.99444E+00 1.43021E+00 5.84574E+00-4.21885E-15 6.93001E-13
 -1      1117 2.91187E+01 3.74624E+00 1.36944E+00-4.36854E+00-4.19387E-14 3.54605E-13
 -1      1118 2.03938E+01-1.70660E-01-6.24144E-01-1.48916E-01-1.59942E-14 2.67453E-13
 -1      1119 1.88676E+01-9.81512E-02-2.50136E-01 6.28544E-02-6.19296E-15 1.63116E-13
 -1      1120 1.85118E+01-4.96956E-02-6.41081E-02 4.13896E-02-3.13551E-15 9.68878E-14
 -1      1121 1.84478E+01-2.54189E-02-1.64116E-02 2.72868E-02 1.79631E-15 1.87975E-14
 -1      1122 1.85258E+01-1.35011E-02-5.34631E-03 1.93865E-02-5.50233E-15-3.33483E-14
 -1      1123 1.86718E+01-6.87349E-03-1.65174E-03 1.43589E-02-1.61536E-14-1.08857E-13
 -1      1124 1.88452E+01-3.00113E-03 4.49859E-04 1.08865E-02-6.60653E-15-2.25025E-13
 -1      1125 1.90227E+01-7.03776E-04 1.80743E-03 8.32701E-03-2.49404E-15-2.75438E-13
 -1      1126 1.91911E+01 6.34964E-04 2.58460E-03 6.36342E-03 3.13580E-15-2.55278E-13
 -1      1127 1.93434E+01 1.36712E-03 2.92072E-03 4.82695E-03 1.81283E-15-2.23061E-13
 -1      1128 1.94764E+01 1.70885E-03 2.95286E-03 3.61688E-03-1.13372E-15-1.24081E-13
 -1      1129 1.95893E+01 1.80050E-03 2.79232E-03 2.66528E-03-7.25949E-15-1.15573E-13
 -1      1130 1.96830E+01 1.73610E-03 2.52053E-03 1.92136E-03 1.03297E-14-1.37962E-13
 -1      1131 1.97591E+01 1.57913E-03 2.19380E-03 1.34450E-03-5.72845E-15-1.40760E-13
 -1      1132 1.98199E+01 1.37157E-03 1.84894E-03 9.00869E-04-9.69369E-15-3.93353E-13
 -1      1133 1.98677E+01 1.13957E-03 1.50782E-03 5.61814E-04 1.82925E-14-6.00273E-13
 -1      1134 1.99048E+01 8.96984E-04 1.18045E-03 3.02841E-04 8.39311E-15-5.12100E-13
 -1      1135 1.99336E+01 6.47373E-04 8.66776E-04 1.02958E-04-1.60114E-14-5.27640E-13
 -1      1136 1.99563E+01 3.84553E-04 5.56973E-04-5.58300E-05 5.30778E-15-6.88290E-13
 -1      1137 1.99752E+01 9.14543E-05 2.29706E-04-1.88798E-04 1.94023E-14-6.74042E-13
 -1      1138 1.99926E+01-2.63220E-04-1.52383E-04-3.08265E-04 1.50673E-14-5.51393E-13
 -1      1139 2.00114E+01-7.31503E-04-6.51608E-04-4.22264E-04 4.49878E-14-9.58932E-14
 -1      1140 2.00353E+01-1.39740E-03-1.37133E-03-5.30903E-04-2.48106E-14-6.78119E-14
 -1      1141 2.00696E+01-2.39530E-03-2.48398E-03-6.17977E-04-1.01624E-14-3.38846E-13
 -1      1142 2.01227E+01-3.93917E-03-4.27962E-03-6.32898E-04-2.14561E-14-2.26290E-13
 -1      1143 2.02077E+01-6.36722E-03-7.25032E-03-4.52897E-04 5.88895E-15-6.20888E-13
 -1      1144 2.03465E+01-1.02068E-02-1.22377E-02 1.95095E-04 5.41678E-15-6.72281E-13
 -1      1145 2.05749E+01-1.62583E-02-2.06876E-02 1.89483E-03-1.10608E-14-5.00601E-13
 -1      1146 2.09526E+01-2.56751E-02-3.50529E-02 5.86620E-03 6.84695E-15-2.77527E-13
 -1      1147 2.15784E+01-3.99401E-02-5.92446E-02 1.46041E-02-2.51691E-14-2.86189E-13
 -1      1148 2.26132E+01-6.04380E-02-9.83104E-02 3.30302E-02 3.05311E-16-5.47888E-13
 -1      1149 2.43092E+01-8.67947E-02-1.54166E-01 7.01359E-02-6.81660E-15-4.00679E-13
 -1      1150 2.70291E+01-1.12159E-01-2.08970E-01 1.39487E-01 1.43531E-14-2.30482E-13
 -1      1151 3.11810E+01-1.12075E-01-1.85397E-01 2.50687E-01-4.35676E-15-1.86268E-13
 -1      1152 3.68347E+01-2.57705E-02 9.08504E-02 3.59516E-01 1.22339E-14 1.06637E-13
 -1      1153 4.24817E+01 1.89956E-01 7.20457E-01 2.46093E-01 2.33980E-14 3.41005E-13
 -1      1154 4.40600E+01 5.01926E-01 1.18867E+00-4.37759E-01 2.38733E-14 4.38150E-13
 -1      1155 3.68345E+01 4.79014E-01 2.31441E-01-1.59112E+00 1.45300E-14-1.59317E-13
 -1      1156 2.26660E+01-1.77028E-01-2.44563E+00-1.67369E+00-1.50990E-13-1.51767E-12
 -1      1157 1.46740E+01-1.01693E+00-4.08503E+00-5.30030E-02 2.39808E-14-2.23613E-12
 -1      1158 2.24944E+01-2.92682E-01-2.40782E+00 1.53732E+00 4.81976E-14-1.61948E-12
 -1      1159 3.64478E+01 3.46378E-01 2.58279E-01 1.22005E+00 2.47719E-14-9.25482E-13
 -1      1160 4.33726E+01 4.65552E-01 1.17952E+00 3.40920E-01 3.51247E-14-3.68816E-13
 -1      1161 4.19675E+01 1.29951E-01 7.21057E-01-1.47940E-01-4.87388E-14 2.04420E-14
 -1      1162 3.61631E+01-3.93966E-02 1.05950E-01-2.80146E-01-7.13839E-16 2.24543E-13
 -1      1163 3.02421E+01-8.27264E-02-1.57486E-01-2.16401E-01 1.19141E-14-4.36734E-13
 -1      1164 2.56966E+01-8.08632E-02-1.89024E-01-1.41069E-01-6.13641E-14-4.93411E-13
 -1      1165 2.25417E+01-7.19529E-02-1.67062E-01-8.91969E-02-3.54933E-14-8.73301E-13
 -1      1166 2.05821E+01-6.44859E-02-1.50291E-01-4.32434E-02 1.82467E-14-6.82905E-13
 -1      1167 1.99391E+01-7.93477E-02-4.06304E-02 6.95472E-02-1.46621E-14-2.47628E-13
 -1      1168 2.77925E+01 5.25652E-01 3.76646E-01 1.96648E+00-1.23304E-14 8.69416E-13
 -1      1169 2.00867E+01-6.66465E-02-5.73632E-01 1.29473E-01-3.56312E-15 8.77659E-13
 -1      1170 1.89095E+01-4.19675E-02-1.93193E-01 1.93040E-02-2.60209E-17 8.23423E-13
 -1      1171 1.85315E+01-2.26622E-02-5.04494E-02 1.16381E-03-3.75611E-15 8.53130E-13
 -1      1172 1.84616E+01-1.37208E-02-1.37409E-02-4.39505E-03-2.43295E-15 8.24320E-13
 -1      1173 1.85381E+01-7.90995E-03-4.93217E-03-5.64696E-03 6.74048E-15 7.08628E-13
 -1      1174 1.86833E+01-4.44264E-03-2.02306E-03-5.77380E-03 6.47122E-15 7.23824E-13
 -1      1175 1.88557E+01-2.26914E-03-3.28712E-04-5.45967E-03 9.81227E-15 7.46309E-13
 -1      1176 1.90321E+01-8.98231E-04 8.25816E-04-4.95366E-03-1.32924E-14 7.01774E-13
 -1      1177 1.91994E+01-4.96724E-05 1.54492E-03-4.36001E-03 2.62257E-15 6.67245E-13
 -1      1178 1.93506E+01 4.50099E-04 1.91293E-03-3.74196E-03 5.16786E-15 6.09819E-13
 -1      1179 1.94826E+01 7.15092E-04 2.02638E-03-3.14030E-03-4.84514E-15 5.85536E-13
 -1      1180 1.95946E+01 8.23157E-04 1.96963E-03-2.58022E-03 1.73858E-14 5.21527E-13
 -1      1181 1.96877E+01 8.28370E-04 1.80690E-03-2.07584E-03-2.60805E-16 5.13497E-13
 -1      1182 1.97636E+01 7.68361E-04 1.58388E-03-1.63346E-03-1.23419E-14 5.95628E-13
 -1      1183 1.98245E+01 6.69105E-04 1.33153E-03-1.25412E-03 7.55719E-15 6.05309E-13
 -1      1184 1.98729E+01 5.48394E-04 1.06981E-03-9.35796E-04-1.09047E-15 5.88838E-13
 -1      1185 1.99112E+01 4.18677E-04 8.11069E-04-6.75338E-04 3.62778E-14 5.67725E-13
 -1      1186 1.99418E+01 2.89636E-04 5.63312E-04-4.70236E-04-4.69445E-15 4.56269E-13
 -1      1187 1.99667E+01 1.70821E-04 3.33640E-04-3.20315E-04-3.62746E-15 4.87956E-13
 -1      1188 1.99881E+01 7.45553E-05 1.32205E-04-2.29365E-04-2.18046E-15 5.48563E-13
 -1      1189 2.00075E+01 1.92907E-05-2.29494E-05-2.06623E-04 3.24024E-14 5.03299E-13
 -1      1190 2.00261E+01 3.34063E-05-9.99149E-05-2.67865E-04-6.32046E-15 5.16489E-13
 -1      1191 2.00444E+01 1.59099E-04-4.59233E-05-4.35487E-04 7.60392E-15 4.23905E-13
 -1      1192 2.00620E+01 4.55404E-04 2.19822E-04-7.36502E-04-2.78409E-14 5.51174E-13
 -1      1193 2.00766E+01 9.98368E-04 8.11182E-04-1.19676E-03 2.57849E-14 5.22730E-13
 -1      1194 2.00840E+01 1.87502E-03 1.87338E-03-1.82910E-03-5.81695E-14 6.69485E-13
 -1      1195 2.00762E+01 3.16633E-03 3.56691E-03-2.61314E-03 4.13000E-14 2.59880E-13
 -1      1196 2.00413E+01 4.91363E-03 6.02637E-03-3.46561E-03 1.11169E-15-5.02425E-14
 -1      1197 1.99621E+01 7.06505E-03 9.28359E-03-4.20444E-03 2.33050E-14-2.39492E-13
 -1      1198 1.98165E+01 9.40600E-03 1.31515E-02-4.51785E-03-5.00970E-14 8.94168E-14
 -1      1199 1.95787E+01 1.14936E-02 1.70875E-02-3.96254E-03-3.69216E-14 5.68842E-14
 -1      1200 1.92235E+01 1.26378E-02 2.00937E-02-2.02708E-03 6.47141E-14-5.01746E-13
 -1      1201 1.87332E+01 1.19928E-02 2.07599E-02 1.70564E-03-2.36224E-14-4.70245E-13
 -1      1202 1.81074E+01 8.80777E-03 1.75683E-02 7.29295E-03-2.98665E-15-2.42070E-13
 -1      1203 1.73736E+01 2.82743E-03 9.51584E-03 1.41440E-02-1.69060E-14-1.62953E-13
 -1      1204 1.65938E+01-5.31720E-03-3.10648E-03 2.08803E-02 5.89799E-14-5.74922E-13
 -1      1205 1.58621E+01-1.39958E-02-1.81953E-02 2.55604E-02 2.20702E-14-6.57002E-13
 -1      1206 1.52892E+01-2.09846E-02-3.21038E-02 2.63364E-02 2.00400E-14-6.36387E-13
 -1      1207 1.49747E+01-2.43298E-02-4.08809E-02 2.23143E-02-6.14487E-14-4.93498E-13
 -1      1208 1.49786E+01-2.32420E-02-4.20012E-02 1.41248E-02 1.34515E-14-3.97085E-13
 -1      1209 1.53016E+01-1.84358E-02-3.55665E-02 3.77332E-03-4.42211E-14 6.85597E-14
 -1      1210 1.58865E+01-1.16867E-02-2.41701E-02-6.21445E-03-1.15262E-14 3.64535E-13
 -1      1211 1.66388E+01-4.93446E-03-1.15288E-02-1.38513E-02-2.87336E-14 3.29115E-13
 -1      1212 1.74551E+01 5.86489E-04-6.67184E-04-1.83962E-02 3.72358E-14-9.45702E-14
 -1      1213 1.82481E+01 4.82719E-03 7.52952E-03-2.04207E-02 5.75706E-14-6.69628E-13
 -1      1214 1.89557E+01 8.83144E-03 1.47556E-02-2.12208E-02-5.53046E-14-5.48530E-13
 -1      1215 1.95310E+01 1.39757E-02 2.35118E-02-2.10893E-02-1.75636E-14-4.23384E-13
 -1      1216 1.99136E+01 1.70341E-02 2.77440E-02-1.57561E-02 1.34816E-13-8.35769E-13
 -1      1217 2.00164E+01-5.44522E-03-9.42924E-03 6.21613E-03 3.11326E-14-9.05357E-13
 -1      1218 1.99930E+01 1.62164E-02-9.01152E-03 4.59320E-03-9.77301E-13-5.81596E-14
 -1      1219 2.00160E+01-9.94162E-02 2.67233E-02-5.19196E-03-1.31887E-12-1.12941E-15
 -1      1220 2.00088E+01-4.72593E-01 1.66977E-02-2.11328E-02-6.26055E-13 4.69058E-14
 -1      1221 1.99928E+01-9.59918E-01-6.74237E-03-2.49696E-02 4.15227E-13 7.74423E-14
 -1      1222 1.99777E+01-1.39496E+00-3.01808E-02-2.11951E-02 1.13076E-13-1.13715E-13
 -1      1223 1.99635E+01-1.62432E+00-5.13144E-02-1.10270E-02-7.56645E-13-1.28321E-13
 -1      1224 1.99539E+01-1.51491E+00-6.65340E-02 4.48271E-03-8.59309E-13 2.34244E-14
 -1      1225 1.99525E+01-9.62059E-01-6.96946E-02 2.55872E-02-3.62193E-13-1.90600E-13
 -1      1226 1.99648E+01 5.69044E-02-5.22954E-02 4.75048E-02-2.22253E-13 9.46751E-14
 -1      1227 1.99936E+01 1.42681E+00-9.47604E-03 6.23073E-02 4.19817E-13 9.96084E-14
 -1      1228 2.00349E+01 2.86260E+00 5.31466E-02 5.98146E-02-4.47198E-13-1.94323E-13
 -1      1229 2.00760E+01 3.94002E+00 1.15036E-01 3.29288E-02-1.74747E-12 5.38502E-14
 -1      1230 2.00960E+01 4.25802E+00 1.44718E-01-1.34901E-02-1.23368E-12 1.32516E-13
 -1      1231 2.00784E+01 3.60474E+00 1.13935E-01-6.67495E-02-7.07698E-14 2.62062E-13
 -1      1232 2.00213E+01 2.16843E+00 1.99607E-02-8.99106E-02 5.07844E-13-1.81502E-13
 -1      1233 1.99813E+01 6.14363E-01-7.53072E-02-3.25484E-02 4.09173E-13-1.43586E-13
 -1      1234 1.99531E+01-6.53411E-02-2.02117E-02 7.39559E-02-1.39303E-13 1.18980E-13
 -1      1235-1.32326E+00-2.58881E+01-3.74655E+00-2.23987E+00-1.84819E-12-1.17011E-13
 -1      1236-1.49799E+00-1.35098E+01-2.84863E+00-3.28893E+00-1.37979E-12-5.75928E-13
 -1      1237 1.93405E+00 1.10486E+00-1.41329E+00 2.13684E+00-1.33449E-13 8.91509E-14
 -1      1238 1.24727E+01 1.09219E+01 1.69383E-01 1.14264E+01 1.16351E-12 1.07248E-12
 -1      1239 3.13921E+01 1.31316E+01 1.88480E+00 1.93713E+01 8.54206E-13 1.21991E-12
 -1      1240 5.34580E+01 8.81933E+00 3.27077E+00 1.93858E+01 4.55913E-13 9.43468E-13
 -1      1241 6.98779E+01 3.26426E+00 4.19938E+00 1.06776E+01 1.08434E-13-8.68194E-14
 -1      1242 7.31794E+01 2.07795E+00 4.36178E+00-3.67029E+00-3.53884E-15-3.35398E-13
 -1      1243 6.26407E+01 6.12682E+00 3.86245E+00-1.60206E+01 1.52961E-13-5.75651E-13
 -1      1244 4.30592E+01 1.15230E+01 2.69483E+00-2.07250E+01 5.61107E-13-9.65450E-13
 -1      1245 2.25034E+01 1.33897E+01 1.13801E+00-1.67567E+01 9.96980E-13-1.18505E-12
 -1      1246 7.41254E+00 7.98149E+00-4.69123E-01-7.70610E+00 8.95506E-13-9.01057E-13
 -1      1247-8.53352E-02-4.12190E+00-1.97492E+00 6.45381E-01 2.17604E-14-1.15796E-13
 -1      1248-1.53599E+00-1.77273E+01-3.09743E+00 3.58991E+00-1.64757E-13 1.13964E-13
 -1      1249-9.32761E-01-2.75106E+01-3.81851E+00 1.07802E+00-8.93730E-14-3.72445E-14
 -1      1250-1.61827E+00-2.93090E+01-4.16994E+00-4.25530E+00-7.79432E-13-2.27096E-13
 -1      1251-3.62827E+00-2.20314E+01-4.10115E+00-7.44937E+00-1.81399E-12-6.93001E-13
 -1      1252-3.01312E+00-9.36659E+00-3.58686E+00-4.68151E+00-1.35314E-12-7.63611E-13
 -1      1253 7.45531E+00 3.25013E+00-1.97231E+00 5.36928E+00-3.85247E-13-4.71623E-13
 -1      1254 3.22442E+01 9.16267E+00 1.12220E+00 1.65001E+01-6.55698E-13-1.11511E-12
 -1      1255 6.57261E+01 7.36044E+00 5.32831E+00 1.88801E+01-2.73004E-13-5.70211E-13
 -1      1256 9.14964E+01 3.36743E+00 8.67665E+00 8.62185E+00-2.70617E-14 1.00941E-12
 -1      1257 9.27700E+01 3.32121E+00 8.93395E+00-8.08870E+00-1.12722E-13 1.92868E-12
 -1      1258 6.96786E+01 7.17608E+00 5.85780E+00-1.88372E+01-2.43694E-13 1.07381E-12
 -1      1259 3.86495E+01 9.62315E+00 2.01314E+00-1.81463E+01 7.94920E-14 1.21680E-13
 -1      1260 1.33546E+01 6.48476E+00-1.20855E+00-9.44694E+00 9.62341E-13-9.37028E-13
 -1      1261 1.51787E-01-2.72417E+00-2.96551E+00 4.50566E-01 1.14841E-12-1.03029E-12
 -1      1262-3.87894E+00-1.50655E+01-3.82621E+00 6.64272E+00 6.66578E-13-4.97713E-13
 -1      1263-2.90450E+00-2.56280E+01-4.17649E+00 6.91660E+00 5.90084E-13-1.13548E-13
 -1      1264-1.31208E+00-3.03430E+01-4.22878E+00 2.72798E+00-6.49120E-13-1.51608E-13
 -1      1265 2.23369E+01 1.89173E+00-7.17612E-01-2.85179E+00-1.42386E-14 1.57041E-13
 -1      1266 2.03610E+01 4.69658E+00-4.72930E-02-3.31015E+00-2.28845E-14-4.72816E-14
 -1      1267 2.08584E+01 4.85269E+00-9.82592E-02-4.16684E+00-3.88301E-14-2.97679E-15
 -1      1268 1.95324E+01 4.99509E+00-1.94283E-02-2.65463E+00-1.95260E-14-1.05915E-13
 -1      1269 1.98319E+01 5.09312E+00 9.92003E-04-3.04457E+00-2.33216E-14-8.28435E-14
 -1      1270 2.05292E+01 3.95431E+00-2.48572E-02-3.07826E+00-3.54647E-14-2.64233E-14
 -1      1271 1.91857E+01 5.08430E+00-3.36383E-03-2.07074E+00-8.60770E-15-1.25400E-13
 -1      1272 1.93341E+01 5.13973E+00 1.05872E-02-2.36403E+00-1.37702E-14-1.21347E-13
 -1      1273 1.97558E+01 4.36738E+00-2.37784E-02-2.49105E+00-2.62360E-14-8.15875E-14
 -1      1274 1.90093E+01 5.13096E+00 3.46052E-03-1.56435E+00 2.32193E-15-1.24694E-13
 -1      1275 1.90876E+01 5.16077E+00 1.28241E-02-1.81434E+00-1.69829E-15-1.26073E-13
 -1      1276 1.93935E+01 4.55499E+00-1.94988E-02-1.93138E+00-7.57987E-15-1.06040E-13
 -1      1277 1.89151E+01 5.16060E+00 6.54917E-03-1.11684E+00 1.18482E-14-1.07856E-13
 -1      1278 1.89577E+01 5.17703E+00 1.27740E-02-1.33825E+00 6.93716E-15-1.13722E-13
 -1      1279 1.92056E+01 4.66141E+00-1.60511E-02-1.44454E+00 4.66771E-15-9.09862E-14
 -1      1280 1.88633E+01 5.18037E+00 8.17298E-03-6.93727E-01 1.62643E-14-8.73416E-14
 -1      1281 1.88864E+01 5.18928E+00 1.19977E-02-9.03861E-01 1.76916E-14-1.01254E-13
 -1      1282 1.91022E+01 4.72684E+00-1.40009E-02-1.00410E+00 1.84462E-14-8.21010E-14
 -1      1283 1.88391E+01 5.19229E+00 9.26964E-03-2.89270E-01 3.22583E-14-7.05807E-14
 -1      1284 1.88491E+01 5.19615E+00 1.10564E-02-4.91266E-01 2.84690E-14-7.76150E-14
 -1      1285 1.90461E+01 4.76586E+00-1.29261E-02-5.88743E-01 3.39863E-14-5.33046E-14
 -1      1286 1.88353E+01 5.19725E+00 1.02052E-02 1.07860E-01 3.47498E-14-4.63570E-14
 -1      1287 1.88350E+01 5.19711E+00 1.01344E-02-9.16742E-02 3.44528E-14-5.90604E-14
 -1      1288 1.90217E+01 4.78391E+00-1.24759E-02-1.89269E-01 5.77272E-14-4.03011E-14
 -1      1289 1.88507E+01 5.19579E+00 1.11490E-02 5.08027E-01 4.39987E-14-1.74218E-14
 -1      1290 1.88401E+01 5.19166E+00 9.20860E-03 3.05620E-01 4.19302E-14-3.19206E-14
 -1      1291 1.90226E+01 4.78328E+00-1.24926E-02 2.05360E-01 6.16244E-14-1.41276E-14
 -1      1292 1.88895E+01 5.18814E+00 1.20910E-02 9.22070E-01 5.49691E-14 1.30451E-15
 -1      1293 1.88656E+01 5.17907E+00 8.11835E-03 7.11000E-01 5.04588E-14-1.25906E-14
 -1      1294 1.90487E+01 4.76384E+00-1.29770E-02 6.05510E-01 7.97548E-14-2.84495E-16
 -1      1295 1.89617E+01 5.17519E+00 1.28930E-02 1.35513E+00 5.66717E-14 4.35537E-14
 -1      1296 1.89183E+01 5.15840E+00 6.44026E-03 1.13232E+00 5.68725E-14 2.13753E-14
 -1      1297 1.91064E+01 4.72339E+00-1.39989E-02 1.01864E+00 8.78559E-14 2.76688E-14
 -1      1298 1.90949E+01 5.15690E+00 1.29010E-02 1.83962E+00 7.02702E-14 8.94285E-14
 -1      1299 1.90151E+01 5.12644E+00 3.14137E-03 1.58689E+00 6.42611E-14 6.22939E-14
 -1      1300 1.92121E+01 4.65506E+00-1.61491E-02 1.46164E+00 1.00039E-13 6.90073E-14
 -1      1301 1.93449E+01 5.13341E+00 1.04521E-02 2.39658E+00 7.02251E-14 1.65413E-13
 -1      1302 1.91940E+01 5.07647E+00-4.18625E-03 2.09924E+00 6.54581E-14 1.19856E-13
 -1      1303 1.94053E+01 4.54265E+00-1.99124E-02 1.95693E+00 1.08925E-13 1.12819E-13
 -1      1304 1.98554E+01 5.09957E+00 6.04610E-03 3.08328E+00 6.09790E-14 2.84585E-13
 -1      1305 1.95443E+01 4.98465E+00-2.02476E-02 2.69602E+00 6.04933E-14 2.15876E-13
 -1      1306 1.97746E+01 4.34581E+00-2.47718E-02 2.52723E+00 1.03317E-13 1.97738E-13
 -1      1307 2.11037E+01 4.90662E+00 8.00350E-03 4.05301E+00 3.51663E-14 4.62061E-13
 -1      1308 2.03345E+01 4.73399E+00-4.80833E-02 3.41520E+00 3.95378E-14 3.58505E-13
 -1      1309 2.05637E+01 3.91592E+00-2.28528E-02 3.17788E+00 8.11851E-14 3.11820E-13
 -1      1310 2.72029E+01 3.20524E+00 9.28771E-01 4.58178E+00-4.34375E-15 6.90004E-13
 -1      1311 2.20207E+01 3.52216E+00-1.82128E-01 3.88434E+00 8.32667E-15 5.40124E-13
 -1      1312 2.21140E+01 2.56161E+00-3.25008E-02 3.45605E+00 4.92922E-14 4.69763E-13
 -1      1313 2.14276E+01 3.59554E-01-7.63654E-01 1.18339E+00 2.63678E-15 7.14540E-13
 -1      1314 2.21293E+01 1.95646E-01-4.01978E-01-1.36874E+00-3.39867E-14 1.76303E-13
 -1      1315 2.07444E+01 3.28745E-01-1.78598E-01-8.47274E-01-3.18565E-14 1.33414E-13
 -1      1316 2.01458E+01 1.61027E-01-8.04037E-02-4.20659E-01-2.45845E-14 1.25054E-13
 -1      1317 1.96519E+01 9.40552E-02-1.86781E-02-3.45846E-01-3.05103E-14 8.74786E-14
 -1      1318 2.10358E+01 4.15853E-01-1.02809E-01-1.33443E+00-4.71290E-14 5.85886E-14
 -1      1319 1.92814E+01 6.73886E-02 1.31165E-03-1.42807E-01-2.12478E-14 7.93324E-14
 -1      1320 1.91177E+01 4.27874E-02 1.26884E-02-1.24386E-01-2.09069E-14 4.27054E-14
 -1      1321 1.99595E+01 1.41364E-01-3.69033E-02-5.29357E-01-4.93112E-14 6.33053E-14
 -1      1322 1.89506E+01 3.26701E-02 1.31339E-02-3.14576E-02-1.13251E-14 1.87489E-14
 -1      1323 1.89271E+01 2.01403E-02 1.11960E-02-2.17456E-02-1.14986E-14-1.24067E-14
 -1      1324 1.94631E+01 5.78987E-02-9.17829E-03-1.80807E-01-3.01790E-14 1.16591E-14
 -1      1325 1.88676E+01 1.65953E-02 8.95154E-03 2.35289E-02-4.38126E-15-1.20633E-14
 -1      1326 1.89083E+01 9.48144E-03 6.58821E-03 2.83568E-02-1.34081E-14-4.17427E-14
 -1      1327 1.92447E+01 2.54715E-02-3.68437E-03-1.60458E-02-2.18089E-14-1.04057E-14
 -1      1328 1.89067E+01 8.19457E-03 4.80310E-03 5.04133E-02-3.66779E-14-4.00027E-14
 -1      1329 1.89768E+01 3.74108E-03 3.73320E-03 5.24269E-02-4.86034E-14-1.02158E-13
 -1      1330 1.91830E+01 1.07643E-02-2.29210E-03 6.56419E-02-4.26083E-14-2.98936E-14
 -1      1331 1.90057E+01 3.39745E-03 2.51344E-03 6.17540E-02-4.34367E-14-1.03212E-13
 -1      1332 1.90867E+01 4.75114E-04 2.26137E-03 6.20997E-02-3.13749E-14-1.47880E-13
 -1      1333 1.92070E+01 3.10689E-03-1.37461E-03 1.04185E-01-7.96391E-14-3.96588E-14
 -1      1334 1.91303E+01 5.77292E-04 1.36733E-03 6.41123E-02-9.54979E-16-1.52470E-13
 -1      1335 1.92120E+01-1.37692E-03 1.46795E-03 6.34797E-02-1.48844E-14-1.62110E-13
 -1      1336 1.92756E+01-1.10204E-03-5.97315E-04 1.18493E-01-3.40056E-14-5.10000E-14
 -1      1337 1.92610E+01-1.05589E-03 7.63280E-04 6.12966E-02-4.95268E-15-1.71373E-13
 -1      1338 1.93378E+01-2.35973E-03 9.87208E-04 6.01266E-02-1.73033E-15-1.52996E-13
 -1      1339 1.93642E+01-3.38198E-03-2.61838E-05 1.18804E-01-6.71825E-15-8.85896E-14
 -1      1340 1.93866E+01-1.93934E-03 4.15632E-04 5.56693E-02 6.90856E-15-1.76635E-13
 -1      1341 1.94555E+01-2.79114E-03 6.67781E-04 5.42498E-02 3.99699E-15-1.63996E-13
 -1      1342 1.94585E+01-4.49334E-03 3.37453E-04 1.11199E-01-2.16759E-14-1.18882E-13
 -1      1343 1.95010E+01-2.33982E-03 2.03736E-04 4.87390E-02 1.49736E-14-1.46191E-13
 -1      1344 1.95608E+01-2.87304E-03 4.46040E-04 4.72567E-02 1.96067E-14-1.36285E-13
 -1      1345 1.95498E+01-4.87404E-03 5.37829E-04 9.94860E-02 1.83966E-14-1.16268E-13
 -1      1346 1.96014E+01-2.43089E-03 7.31194E-05 4.14693E-02 2.51447E-14-1.15260E-13
 -1      1347 1.96518E+01-2.73975E-03 2.90525E-04 4.00414E-02 6.36668E-15-1.22022E-13
 -1      1348 1.96334E+01-4.80036E-03 6.23734E-04 8.60939E-02 4.14239E-14-1.49964E-13
 -1      1349 1.96869E+01-2.32959E-03-4.94164E-06 3.44599E-02-1.31182E-14-1.11040E-13
 -1      1350 1.97286E+01-2.48214E-03 1.82538E-04 3.31554E-02-3.74630E-15-1.00641E-13
 -1      1351 1.97069E+01-4.45543E-03 6.34322E-04 7.25587E-02 1.14583E-14-9.11861E-14
 -1      1352 1.97581E+01-2.11549E-03-4.77897E-05 2.80638E-02-1.98335E-14-1.56864E-13
 -1      1353 1.97918E+01-2.16094E-03 1.09653E-04 2.69191E-02-7.08598E-14-2.45703E-13
 -1      1354 1.97697E+01-3.96245E-03 5.97921E-04 5.98184E-02-6.36635E-14-1.44411E-13
 -1      1355 1.98161E+01-1.84177E-03-6.66549E-05 2.24686E-02-6.76847E-14-2.26369E-13
 -1      1356 1.98430E+01-1.81508E-03 6.32726E-05 2.14984E-02-6.27314E-14-3.00333E-13
 -1      1357 1.98222E+01-3.40291E-03 5.34077E-04 4.84088E-02-9.66721E-14-1.31166E-13
 -1      1358 1.98628E+01-1.54211E-03-6.89145E-05 1.77557E-02-1.73664E-14-3.10435E-13
 -1      1359 1.98839E+01-1.46700E-03 3.75273E-05 1.69617E-02-1.62118E-15-3.66882E-13
 -1      1360 1.98653E+01-2.82769E-03 4.55660E-04 3.86011E-02-7.03106E-14-6.19061E-14
 -1      1361 1.98999E+01-1.23514E-03-5.92423E-05 1.39453E-02 3.72254E-14-3.58722E-13
 -1      1362 1.99164E+01-1.12607E-03 2.87501E-05 1.33231E-02 2.49085E-14-3.14077E-13
 -1      1363 1.99002E+01-2.26422E-03 3.70449E-04 3.05043E-02 5.55930E-15-1.57406E-13
 -1      1364 1.99294E+01-9.27093E-04-4.02359E-05 1.10326E-02-4.13126E-14-2.59037E-13
 -1      1365 1.99424E+01-7.90359E-04 3.52896E-05 1.05772E-02-3.27008E-14-3.14321E-13
 -1      1366 1.99286E+01-1.72084E-03 2.82183E-04 2.41452E-02 3.21734E-15-1.87528E-13
 -1      1367 1.99532E+01-6.12705E-04-1.27453E-05 9.01967E-03-2.82598E-14-3.32551E-13
 -1      1368 1.99638E+01-4.46609E-04 5.75933E-05 8.73068E-03-2.94074E-14-3.72372E-13
 -1      1369 1.99519E+01-1.18845E-03 1.91160E-04 1.95353E-02-7.93631E-14-9.02522E-14
 -1      1370 1.99733E+01-2.74168E-04 2.39967E-05 7.94870E-03 9.28304E-15-4.17224E-13
 -1      1371 1.99827E+01-6.79622E-05 9.85549E-05 7.83670E-03 1.23246E-14-3.63942E-13
 -1      1372 1.99719E+01-6.39079E-04 9.43570E-05 1.67360E-02-1.41724E-14-1.18278E-13
 -1      1373 1.99921E+01 1.22670E-04 7.23652E-05 7.94236E-03 4.48877E-14-3.77979E-13
 -1      1374 2.00015E+01 3.91432E-04 1.64152E-04 8.03721E-03 1.19392E-13-2.76553E-13
 -1      1375 1.99905E+01-2.02128E-05-1.49969E-05 1.59323E-02 5.98802E-14-1.91580E-13
 -1      1376 2.00120E+01 6.36078E-04 1.36357E-04 9.26187E-03 1.30783E-13-2.59699E-13
 -1      1377 2.00232E+01 1.00654E-03 2.64392E-04 9.62543E-03 2.82252E-14-1.67315E-13
 -1      1378 2.00100E+01 7.57297E-04-1.48561E-04 1.75328E-02 1.51829E-13-2.47793E-13
 -1      1379 2.00365E+01 1.36247E-03 2.21407E-04 1.23966E-02 3.86817E-14-1.72158E-13
 -1      1380 2.00518E+01 1.89897E-03 4.14477E-04 1.31432E-02-1.85782E-14-2.23108E-13
 -1      1381 2.00333E+01 1.84142E-03-3.25005E-04 2.23187E-02 6.17078E-14-2.61261E-13
 -1      1382 2.00703E+01 2.46040E-03 3.33480E-04 1.82080E-02-5.33610E-14-1.10273E-13
 -1      1383 2.00932E+01 3.26615E-03 6.35708E-04 1.95386E-02 2.43544E-15-1.37841E-13
 -1      1384 2.00642E+01 3.47762E-03-5.73547E-04 3.16790E-02-4.81150E-14-1.76429E-13
 -1      1385 2.01204E+01 4.19076E-03 4.76063E-04 2.81649E-02-3.88335E-14-1.51214E-13
 -1      1386 2.01564E+01 5.42905E-03 9.54418E-04 3.04235E-02-1.49815E-13-2.16949E-13
 -1      1387 2.01084E+01 6.07475E-03-9.39640E-04 4.79906E-02-5.17774E-14-5.92325E-14
 -1      1388 2.01978E+01 6.98282E-03 6.41527E-04 4.47272E-02-1.54281E-13-2.14879E-13
 -1      1389 2.02558E+01 8.90848E-03 1.39370E-03 4.84952E-02-1.26704E-14-3.70863E-13
 -1      1390 2.01745E+01 1.03156E-02-1.49420E-03 7.52341E-02-1.85836E-13-6.16848E-14
 -1      1391 2.03196E+01 1.15408E-02 7.87579E-04 7.19662E-02 1.85000E-14-3.74775E-13
 -1      1392 2.04143E+01 1.45424E-02 1.94337E-03 7.82196E-02-3.61076E-14-3.98469E-13
 -1      1393 2.02753E+01 1.73397E-02-2.34946E-03 1.19985E-01-6.17130E-14-5.13579E-14
 -1      1394 2.05135E+01 1.90087E-02 7.75905E-04 1.16547E-01 4.08107E-14-3.93964E-13
 -1      1395 2.06686E+01 2.36528E-02 2.47339E-03 1.26915E-01 5.98497E-14-2.41925E-13
 -1      1396 2.04307E+01 2.90332E-02-3.68904E-03 1.92977E-01 3.63034E-15-1.49191E-13
 -1      1397 2.08228E+01 3.12007E-02 2.23952E-04 1.89215E-01-5.03330E-15-2.94892E-13
 -1      1398 2.10776E+01 3.82344E-02 2.52678E-03 2.06391E-01-5.21510E-14-3.20540E-13
 -1      1399 2.06711E+01 4.84543E-02-5.82764E-03 3.11472E-01 6.46610E-14-1.46011E-13
 -1      1400 2.13163E+01 5.08403E-02-1.80242E-03 3.06805E-01-1.05558E-14-2.86631E-13
 -1      1401 2.17337E+01 6.10021E-02 9.47046E-04 3.35141E-01-3.28158E-14-3.72133E-13
 -1      1402 2.10418E+01 8.03205E-02-9.31851E-03 5.02514E-01-1.57929E-14-2.99383E-13
 -1      1403 2.20989E+01 8.14945E-02-7.23143E-03 4.94193E-01-4.12014E-14-3.00092E-13
 -1      1404 2.27767E+01 9.46831E-02-4.39351E-03 5.40355E-01 1.96666E-14-3.22069E-13
 -1      1405 2.16088E+01 1.31077E-01-1.50613E-02 8.06370E-01-1.26114E-14-1.63925E-13
 -1      1406 2.33240E+01 1.26081E-01-1.89124E-02 7.83439E-01 4.06827E-14-2.45980E-13
 -1      1407 2.44030E+01 1.38684E-01-1.52772E-02 8.56280E-01-1.63411E-15-2.76494E-13
 -1      1408 2.24621E+01 2.06694E-01-2.40249E-02 1.27660E+00 4.98213E-14-9.13510E-14
 -1      1409 2.51951E+01 1.80559E-01-3.73834E-02 1.20110E+00-3.12250E-14-1.41984E-13
 -1      1410 2.68420E+01 1.78325E-01-2.61798E-02 1.30750E+00-2.28637E-14-1.18253E-13
 -1      1411 2.37123E+01 3.02535E-01-3.52273E-02 1.96505E+00 4.49345E-14-1.03997E-14
 -1      1412 2.79276E+01 2.14952E-01-4.87210E-02 1.71971E+00 1.57721E-14-1.53738E-13
 -1      1413 3.02339E+01 1.59043E-01-7.99561E-03 1.84575E+00 7.04714E-14-8.28781E-14
 -1      1414 2.54696E+01 3.71166E-01-3.94742E-02 2.86058E+00-2.95198E-14-8.84431E-14
 -1      1415 3.16074E+01 1.22237E-01-5.47853E-03 2.12791E+00 1.30753E-13 8.10463E-14
 -1      1416 3.42745E+01-5.31070E-02 9.74698E-02 2.17603E+00 1.30139E-14 1.13631E-13
 -1      1417 2.77949E+01 2.48777E-01-1.15215E-02 3.71945E+00 2.44048E-13 3.47222E-14
 -1      1418 3.57382E+01-2.74753E-01 1.61506E-01 1.84829E+00-9.01362E-15 1.09496E-13
 -1      1419 3.75004E+01-5.98747E-01 2.69485E-01 1.58459E+00-4.79616E-14 1.78926E-13
 -1      1420 3.05639E+01-3.93204E-01 7.29403E-02 3.77903E+00 9.21208E-14 1.26028E-13
 -1      1421 3.88694E+01-1.02106E+00 3.71487E-01 1.28469E-01 3.82749E-14 3.43059E-14
 -1      1422 3.79537E+01-1.25045E+00 2.43594E-01-6.15135E-01-1.83881E-14 8.14904E-14
 -1      1423 3.34869E+01-1.69178E+00 1.60903E-01 1.92677E+00-5.16531E-14 3.54022E-14
 -1      1424 3.89524E+01-1.36144E+00 2.22105E-01-2.90900E+00-1.73229E-13 1.04361E-14
 -1      1425 3.45898E+01-8.83637E-01-3.68428E-01-3.61668E+00-2.81594E-13-3.60489E-13
 -1      1426 3.62252E+01-2.81790E+00 7.36909E-02-2.50746E+00-1.97963E-13-1.01724E-13
 -1      1427 3.03323E+01 2.14596E+00-1.26232E+00-1.11162E+00-1.29008E-13-1.06815E-12
 -1      1428 3.00679E+01 2.25698E+00-1.26984E+00 8.06418E-01-8.32667E-15-1.22471E-12
 -1      1429 3.38658E+01-5.51926E-01-3.95342E-01 3.40293E+00 2.33882E-13-9.64895E-13
 -1      1430 3.84604E+01-1.04558E+00 2.28570E-01 2.83451E+00 2.32571E-13-6.32883E-13
 -1      1431 3.80382E+01-9.97308E-01 2.77762E-01 7.82194E-01 2.20442E-13-4.88498E-13
 -1      1432 3.91968E+01-8.14858E-01 4.37818E-01 1.56227E-01 1.78538E-13-3.04312E-13
 -1      1433 3.66273E+01-2.17798E+00 6.36743E-02 2.91667E+00 3.55892E-13-3.63461E-13
 -1      1434 3.78225E+01-4.96885E-01 3.20431E-01-1.38129E+00 7.28306E-14-1.35898E-13
 -1      1435 3.59712E+01-1.68865E-01 2.09578E-01-1.65954E+00 8.80268E-14 2.81442E-14
 -1      1436 3.44884E+01-1.36573E+00 1.99401E-01-1.38833E+00 2.75488E-13-1.21986E-13
 -1      1437 3.41603E+01-8.72315E-02 9.38292E-02-1.98183E+00-1.00914E-13-7.72160E-14
 -1      1438 3.13332E+01 1.23518E-01-2.85409E-03-1.95859E+00-1.74727E-13-1.61010E-13
 -1      1439 3.12423E+01-3.15011E-01 8.54458E-02-3.48631E+00-5.42622E-14-1.74596E-13
 -1      1440 2.96911E+01 8.73495E-02-2.59139E-02-1.70812E+00-1.04392E-13-3.92936E-13
 -1      1441 2.71979E+01 1.64688E-01-6.11806E-02-1.61191E+00-1.57615E-13-6.02074E-13
 -1      1442 2.79304E+01 1.76367E-01-8.79301E-03-3.47664E+00-2.24514E-13-4.10214E-13
 -1      1443 2.58826E+01 1.16753E-01-4.38093E-02-1.25772E+00 2.03587E-14-5.34572E-13
 -1      1444 2.40348E+01 1.38380E-01-5.33990E-02-1.16896E+00-1.24976E-13-6.46677E-13
 -1      1445 2.50926E+01 2.60010E-01-4.01843E-02-2.74241E+00-1.59858E-13-6.48009E-13
 -1      1446 2.30709E+01 1.07787E-01-3.41360E-02-8.50941E-01-1.21098E-13-3.59685E-13
 -1      1447 2.18336E+01 1.15886E-01-4.03864E-02-7.78432E-01 3.61291E-14-5.30888E-13
 -1      1448 2.29064E+01 2.29234E-01-3.95773E-02-1.94100E+00-5.51191E-14-3.63598E-13
 -1      1449 2.11890E+01 1.04310E-01-3.45601E-02-4.86227E-01 3.01582E-14-4.15064E-13
 -1      1450 2.05443E+01 1.36008E-01-1.63311E-02-4.04190E-01 2.34326E-13-2.17101E-13
 -1      1451 2.13551E+01 2.09565E-01-3.95455E-02-1.22094E+00 9.76129E-14-2.09381E-13
 -1      1452 2.02531E+01 1.52853E-01-2.89396E-02-2.14481E-01 3.15561E-13-1.11008E-13
 -1      1453 2.01144E+01 1.34460E-01 3.12419E-02-1.35137E-01 1.18422E-13 4.62607E-14
 -1      1454 2.00896E+01 2.68291E-01-3.61143E-02-2.14070E-01 2.03584E-13-1.45394E-13
 -1      1455 2.04884E+01 2.60521E-01-3.47381E-02-6.54302E-01 3.71583E-13-5.86293E-14
 -1      1456 2.02609E+01 7.58163E-02-1.51742E-01 4.83391E-01 1.80307E-14 6.80102E-13
 -1      1457 2.15312E+01 2.16080E-01-2.29245E-01 7.20864E-01 1.04777E-14 6.94972E-13
 -1      1458 2.17300E+01 8.82170E-01-8.52893E-02 2.06475E+00 2.01644E-14 5.33198E-13
 -1      1459 1.93315E+01 3.41503E-02-2.07733E-02 1.85128E-01 3.30985E-15 6.51729E-13
 -1      1460 1.97542E+01 1.14137E-01-6.19570E-02 2.38829E-01 1.71842E-14 6.61425E-13
 -1      1461 2.03049E+01 1.86254E-01-5.55032E-02 7.87814E-01 2.62151E-14 5.13405E-13
 -1      1462 1.89515E+01 1.66324E-02 6.07362E-03 5.23948E-02 2.13007E-14 6.37893E-13
 -1      1463 1.90915E+01 5.13836E-02 1.68408E-03 7.98073E-02-9.10730E-15 6.26586E-13
 -1      1464 1.95566E+01 6.68091E-02-1.53500E-02 2.96947E-01 6.74634E-15 4.65647E-13
 -1      1465 1.88422E+01 8.54690E-03 7.17684E-03-9.14983E-03 3.71187E-14 5.73614E-13
 -1      1466 1.88584E+01 2.53790E-02 1.15206E-02 5.87130E-03 3.54634E-14 6.17915E-13
 -1      1467 1.92220E+01 2.11128E-02-6.93519E-03 7.61726E-02 3.96844E-14 4.31384E-13
 -1      1468 1.88693E+01 3.78864E-03 4.81342E-03-3.95336E-02 1.23226E-14 5.36470E-13
 -1      1469 1.88258E+01 1.34970E-02 8.53071E-03-3.12806E-02 5.13240E-15 5.51522E-13
 -1      1470 1.91064E+01 6.98844E-03-4.67941E-03-2.84183E-02 3.57752E-14 3.93597E-13
 -1      1471 1.89645E+01 1.15522E-03 3.27388E-03-5.30021E-02 7.37474E-15 5.43126E-13
 -1      1472 1.88936E+01 7.14434E-03 5.29885E-03-4.85946E-02 2.68774E-16 5.18752E-13
 -1      1473 1.91100E+01 9.50968E-04-3.22741E-03-7.83374E-02 4.73992E-15 3.67104E-13
 -1      1474 1.90900E+01-3.38724E-04 2.45172E-03-5.70131E-02 1.49127E-14 5.04215E-13
 -1      1475 1.90091E+01 3.44401E-03 3.37801E-03-5.49615E-02 1.10526E-14 5.22792E-13
 -1      1476 1.91745E+01-1.97548E-03-2.09388E-03-9.98066E-02-3.91939E-16 3.40228E-13
 -1      1477 1.92241E+01-1.16436E-03 1.96124E-03-5.55846E-02 7.50334E-15 5.09670E-13
 -1      1478 1.91429E+01 1.18302E-03 2.27953E-03-5.49928E-02 2.15727E-14 5.14093E-13
 -1      1479 1.92679E+01-3.44030E-03-1.21366E-03-1.05181E-01 1.82628E-14 3.41788E-13
 -1      1480 1.93542E+01-1.57249E-03 1.60558E-03-5.11463E-02 1.52016E-14 4.90441E-13
 -1      1481 1.92782E+01-1.85826E-04 1.60297E-03-5.14386E-02 2.19321E-15 5.03523E-13
 -1      1482 1.93715E+01-4.07130E-03-5.86695E-04-1.01356E-01 2.33950E-14 3.68286E-13
 -1      1483 1.94734E+01-1.71524E-03 1.31461E-03-4.52307E-02 1.92981E-14 4.90002E-13
 -1      1484 1.94054E+01-9.74604E-04 1.14576E-03-4.60262E-02 1.77857E-14 4.90167E-13
 -1      1485 1.94740E+01-4.19567E-03-1.70920E-04-9.25240E-02 1.83773E-14 3.51510E-13
 -1      1486 1.95786E+01-1.69133E-03 1.06650E-03-3.88156E-02 3.11034E-14 4.51001E-13
 -1      1487 1.95196E+01-1.37896E-03 8.18441E-04-3.98606E-02 2.54231E-14 4.90240E-13
 -1      1488 1.95692E+01-4.01293E-03 8.74286E-05-8.13316E-02 4.45054E-14 3.65773E-13
 -1      1489 1.96686E+01-1.56702E-03 8.53885E-04-3.25159E-02 2.63451E-14 3.79767E-13
 -1      1490 1.96188E+01-1.52928E-03 5.78301E-04-3.36427E-02 9.44446E-15 4.15405E-13
 -1      1491 1.96539E+01-3.65250E-03 2.34559E-04-6.94645E-02 3.86924E-14 2.91297E-13
 -1      1492 1.97439E+01-1.38717E-03 6.72976E-04-2.67024E-02-1.03627E-14 4.42933E-13
 -1      1493 1.97027E+01-1.51508E-03 4.01177E-04-2.78026E-02 4.88867E-16 3.99208E-13
 -1      1494 1.97270E+01-3.20052E-03 3.05284E-04-5.79751E-02 5.52672E-15 2.81434E-13
 -1      1495 1.98057E+01-1.18177E-03 5.20580E-04-2.15805E-02 7.29161E-15 4.86047E-13
 -1      1496 1.97722E+01-1.39828E-03 2.71147E-04-2.25873E-02-1.43637E-14 4.61556E-13
 -1      1497 1.97885E+01-2.71391E-03 3.24663E-04-4.74898E-02-3.79615E-14 3.63200E-13
 -1      1498 1.98557E+01-9.70271E-04 3.93364E-04-1.72457E-02 2.79182E-14 4.62657E-13
 -1      1499 1.98289E+01-1.22130E-03 1.76677E-04-1.81204E-02 2.17241E-14 4.73576E-13
 -1      1500 1.98393E+01-2.22900E-03 3.10396E-04-3.83478E-02 7.89294E-15 3.78046E-13
 -1      1501 1.98958E+01-7.64807E-04 2.87775E-04-1.37222E-02-1.37768E-14 4.02018E-13
 -1      1502 1.98745E+01-1.01266E-03 1.08938E-04-1.44448E-02-1.04504E-15 4.13829E-13
 -1      1503 1.98808E+01-1.76758E-03 2.74793E-04-3.06981E-02 2.34021E-14 2.91141E-13
 -1      1504 1.99280E+01-5.72900E-04 2.00172E-04-1.09889E-02 3.54850E-14 3.93477E-13
 -1      1505 1.99111E+01-7.91381E-04 6.09183E-05-1.15518E-02 1.58275E-14 4.00062E-13
 -1      1506 1.99145E+01-1.34179E-03 2.26299E-04-2.45660E-02 3.47704E-15 2.55669E-13
 -1      1507 1.99543E+01-3.99864E-04 1.27057E-04-8.99566E-03-1.26398E-14 4.02260E-13
 -1      1508 1.99405E+01-5.70749E-04 2.68717E-05-9.39923E-03 3.25269E-14 4.12750E-13
 -1      1509 1.99420E+01-9.58511E-04 1.70763E-04-1.98968E-02 2.51930E-14 3.87199E-13
 -1      1510 1.99763E+01-2.51226E-04 6.54228E-05-7.66787E-03-1.01597E-14 4.07830E-13
 -1      1511 1.99648E+01-3.62096E-04 1.94930E-06-7.91929E-03-4.07066E-14 3.53108E-13
 -1      1512 1.99647E+01-6.23687E-04 1.12626E-04-1.65780E-02-6.35996E-15 3.42326E-13
 -1      1513 1.99956E+01-1.35321E-04 1.32274E-05-6.90162E-03 3.55956E-14 4.06503E-13
 -1      1514 1.99855E+01-1.78858E-04-1.80503E-05-7.01586E-03 2.66300E-14 4.58794E-13
 -1      1515 1.99842E+01-3.47050E-04 5.61477E-05-1.44413E-02 7.58876E-15 3.97503E-13
 -1      1516 2.00134E+01-6.62260E-05-2.98861E-05-6.54628E-03-5.82127E-14 4.45214E-13
 -1      1517 2.00040E+01-4.13042E-05-3.68038E-05-6.55063E-03-2.28928E-14 4.10068E-13
 -1      1518 2.00015E+01-1.47524E-04 6.83701E-06-1.32427E-02-9.03822E-15 3.81116E-13
 -1      1519 2.00303E+01-6.70202E-05-6.15515E-05-6.37360E-03 3.88429E-14 4.28216E-13
 -1      1520 2.00212E+01 1.78649E-05-5.74100E-05-6.31617E-03 9.92858E-15 4.51113E-13
 -1      1521 2.00174E+01-5.95099E-05-2.68128E-05-1.26183E-02 8.62614E-15 3.67191E-13
 -1      1522 2.00462E+01-1.73077E-04-7.52535E-05-6.03185E-03-1.34885E-14 4.46454E-13
 -1      1523 2.00375E+01-5.27776E-05-8.20744E-05-5.99487E-03-2.64144E-15 4.18150E-13
 -1      1524 2.00321E+01-1.39816E-04-3.12122E-05-1.20125E-02 3.49412E-14 4.18967E-13
 -1      1525 2.00599E+01-4.34528E-04-5.85997E-05-4.98591E-03-2.17410E-14 4.52589E-13
 -1      1526 2.00522E+01-3.29541E-04-1.11438E-04-5.10402E-03-3.45348E-14 3.77538E-13
 -1      1527 2.00450E+01-4.74079E-04 1.47297E-05-1.05804E-02-3.47045E-14 4.29824E-13
 -1      1528 2.00682E+01-9.16127E-04 8.29396E-06-2.44939E-03-2.27803E-14 5.01859E-13
 -1      1529 2.00633E+01-9.17489E-04-1.43512E-04-2.93205E-03 1.04500E-14 4.64445E-13
 -1      1530 2.00542E+01-1.18001E-03 1.41909E-04-7.06835E-03-2.44477E-15 3.76732E-13
 -1      1531 2.00657E+01-1.69150E-03 1.53277E-04 2.67495E-03 5.95123E-14 4.70601E-13
 -1      1532 2.00667E+01-1.94794E-03-1.72361E-04 1.52070E-03-2.03062E-14 5.04317E-13
 -1      1533 2.00560E+01-2.40245E-03 3.92261E-04 3.03922E-04-8.14024E-15 4.16298E-13
 -1      1534 2.00436E+01-2.82730E-03 4.09521E-04 1.18144E-02 1.36700E-13 2.49096E-13
 -1      1535 2.00554E+01-3.56291E-03-1.87079E-04 9.56931E-03 1.19168E-13 4.29234E-13
 -1      1536 2.00445E+01-4.29218E-03 8.17056E-04 1.39159E-02 1.70673E-13 3.41359E-13
 -1      1537 1.99893E+01-4.35207E-03 8.06699E-04 2.66510E-02 8.28111E-14-1.48455E-14
 -1      1538 2.00190E+01-5.87761E-03-1.72259E-04 2.27926E-02 6.33887E-14 1.29061E-13
 -1      1539 2.00108E+01-6.95805E-03 1.46926E-03 3.66940E-02 1.32969E-13 3.33886E-13
 -1      1540 1.98859E+01-6.20609E-03 1.35250E-03 4.88760E-02-1.10464E-13 2.03834E-14
 -1      1541 1.99432E+01-8.91200E-03-1.11889E-04 4.28348E-02-7.36724E-14-4.60328E-14
 -1      1542 1.99426E+01-1.03825E-02 2.38604E-03 7.18148E-02 3.19211E-15 7.10570E-14
 -1      1543 1.97133E+01-8.17522E-03 2.00279E-03 7.96922E-02-6.19569E-14 1.96684E-13
 -1      1544 1.98096E+01-1.24890E-02 1.15195E-06 7.09837E-02-4.38384E-14 1.13135E-13
 -1      1545 1.98247E+01-1.42995E-02 3.55796E-03 1.22019E-01-1.46174E-13 1.87608E-13
 -1      1546 1.94502E+01-9.82650E-03 2.62508E-03 1.19019E-01 1.25922E-13-4.00383E-14
 -1      1547 1.95977E+01-1.61154E-02 1.49363E-04 1.07473E-01 4.48285E-14 9.88272E-14
 -1      1548 1.96400E+01-1.80568E-02 4.88556E-03 1.88417E-01 8.95872E-14 1.65388E-13
 -1      1549 1.90792E+01-1.04876E-02 2.97267E-03 1.64476E-01 1.08438E-13-2.36671E-13
 -1      1550 1.92879E+01-1.88952E-02 2.72053E-04 1.50551E-01 1.18543E-13-7.65490E-14
 -1      1551 1.93724E+01-2.05259E-02 6.13370E-03 2.68807E-01 1.89519E-13 4.50722E-14
 -1      1552 1.85935E+01-9.33212E-03 2.70210E-03 2.10446E-01-6.93371E-14-1.17930E-13
 -1      1553 1.88671E+01-1.95643E-02 2.57526E-04 1.95552E-01-8.37433E-14-2.11123E-13
 -1      1554 1.90114E+01-2.01716E-02 6.91071E-03 3.55844E-01-3.86275E-14 1.03828E-13
 -1      1555 1.80054E+01-5.63248E-03 1.46871E-03 2.47794E-01-1.32486E-13-3.92204E-14
 -1      1556 1.83366E+01-1.67556E-02-3.81568E-05 2.34449E-01-2.17315E-14-4.53769E-14
 -1      1557 1.85585E+01-1.54005E-02 6.71562E-03 4.35843E-01-1.04173E-13 1.02295E-13
 -1      1558 1.73532E+01 8.27170E-04-8.84505E-04 2.64979E-01 1.11795E-13-1.65146E-15
 -1      1559 1.77199E+01-9.54126E-03-7.25509E-04 2.56560E-01 5.34933E-14 3.07324E-14
 -1      1560 1.80334E+01-5.25024E-03 5.08793E-03 4.89438E-01 7.28269E-15 2.53157E-13
 -1      1561 1.67032E+01 9.32273E-03-4.11093E-03 2.51030E-01 1.23728E-13-3.94762E-13
 -1      1562 1.70674E+01 1.86907E-03-1.78120E-03 2.50944E-01 1.13404E-13-1.34483E-13
 -1      1563 1.74785E+01 9.77150E-03 1.86215E-03 4.95240E-01 2.21025E-13 1.12126E-13
 -1      1564 1.61421E+01 1.80523E-02-7.45945E-03 1.99895E-01-8.16274E-15-3.58727E-13
 -1      1565 1.64545E+01 1.56493E-02-2.96567E-03 2.10291E-01-4.13211E-15-3.59813E-13
 -1      1566 1.69570E+01 2.71371E-02-2.58533E-03 4.36610E-01 3.96224E-14-1.96388E-14
 -1      1567 1.57591E+01 2.45671E-02-9.84921E-03 1.14405E-01-2.31230E-14-2.12860E-13
 -1      1568 1.59696E+01 2.85620E-02-3.84465E-03 1.34946E-01 4.54541E-15-2.20057E-13
 -1      1569 1.65430E+01 4.26157E-02-7.27764E-03 3.09573E-01-3.26848E-14-6.62205E-14
 -1      1570 1.56225E+01 2.67475E-02-1.03231E-02 7.39989E-03 3.93336E-14-2.20548E-13
 -1      1571 1.56934E+01 3.70386E-02-3.95895E-03 3.48579E-02-2.08947E-14-3.28302E-13
 -1      1572 1.63049E+01 5.16565E-02-1.09203E-02 1.27973E-01 3.73564E-14 4.90623E-15
 -1      1573 1.57587E+01 2.38413E-02-8.56474E-03-1.01493E-01-8.94050E-14-1.36059E-13
 -1      1574 1.56759E+01 3.87200E-02-3.08029E-03-7.23613E-02-3.18153E-14-1.86540E-13
 -1      1575 1.62854E+01 5.13467E-02-1.24583E-02-7.80189E-02-3.46485E-14-8.39480E-14
 -1      1576 1.61443E+01 1.68772E-02-5.11397E-03-1.92434E-01-8.49381E-14 2.52033E-13
 -1      1577 1.59220E+01 3.35571E-02-1.38416E-03-1.67031E-01-1.63648E-13-7.26676E-15
 -1      1578 1.64892E+01 4.18180E-02-1.15958E-02-2.70844E-01-2.21795E-13 1.10452E-13
 -1      1579 1.67150E+01 8.11659E-03-1.10731E-03-2.51996E-01-2.79640E-14 3.55459E-13
 -1      1580 1.63900E+01 2.37217E-02 6.04038E-04-2.34035E-01-1.93996E-14 3.05464E-13
 -1      1581 1.68813E+01 2.61997E-02-8.89903E-03-4.18126E-01-1.30326E-13 2.28269E-13
 -1      1582 1.73864E+01-4.77998E-05 2.28402E-03-2.76465E-01 1.62166E-13 1.23897E-13
 -1      1583 1.70063E+01 1.24367E-02 2.25759E-03-2.67067E-01 1.15223E-13 1.45469E-13
 -1      1584 1.73999E+01 9.11380E-03-5.43759E-03-5.02434E-01 1.16742E-13 1.10166E-13
 -1      1585 1.80764E+01-6.12413E-03 4.42700E-03-2.70611E-01 2.26379E-13-3.49575E-13
 -1      1586 1.76871E+01 2.44228E-03 3.15835E-03-2.68643E-01 2.24501E-13-2.30250E-14
 -1      1587 1.79737E+01-5.48993E-03-2.24227E-03-5.23722E-01 3.31367E-13-9.34591E-14
 -1      1588 1.87198E+01-1.00653E-02 5.59918E-03-2.42927E-01-7.27651E-15-4.29106E-13
 -1      1589 1.83576E+01-5.21266E-03 3.34429E-03-2.46312E-01 9.10381E-14-3.76555E-13
 -1      1590 1.85393E+01-1.59989E-02 2.15295E-04-4.94085E-01 1.36189E-13-1.50787E-13
 -1      1591 1.92700E+01-1.31519E-02 6.91959E-03-1.99561E-01-8.47003E-14-3.77046E-13
 -1      1592 1.89616E+01-1.15922E-02 3.42319E-03-2.06983E-01-8.66132E-14-5.64982E-13
 -1      1593 1.90487E+01-2.38676E-02 2.25786E-03-4.27747E-01-6.43955E-14-2.76240E-13
 -1      1594 1.96873E+01-1.74130E-02 8.45734E-03-1.39395E-01 9.76216E-14-6.48055E-13
 -1      1595 1.94576E+01-1.95900E-02 3.99588E-03-1.52251E-01 2.53838E-14-5.42026E-13
 -1      1596 1.94688E+01-3.29734E-02 4.42864E-03-3.31079E-01 8.54395E-14-6.81096E-13
 -1      1597 1.99280E+01-2.49420E-02 2.58742E-03-5.99511E-02 1.31071E-13-7.24671E-13
 -1      1598 1.98105E+01-2.99215E-02 3.91895E-03-7.86384E-02 1.24254E-13-6.60383E-13
 -1      1599 1.97776E+01-4.82011E-02 5.83098E-03-2.00452E-01 1.63736E-13-7.08619E-13
 -1      1600 1.99860E+01-2.21196E-02 1.74784E-03-9.19784E-03-3.82458E-13-3.60192E-13
 -1      1601 1.99734E+01-2.50093E-01 5.40996E-03-1.22440E-01-5.86698E-13 1.62396E-13
 -1      1602 1.99645E+01-1.24775E-01 1.01891E-03-1.00589E-01-7.53531E-13 1.35855E-13
 -1      1603 1.99915E+01-5.85899E-01 2.89070E-03-1.78386E-01-1.27851E-13 4.12453E-13
 -1      1604 1.99795E+01-3.82968E-01 3.51567E-03-1.68446E-01-5.15039E-13 1.44841E-13
 -1      1605 1.99602E+01-3.25148E-01 5.80596E-03-2.79221E-01-1.66175E-13 3.16468E-13
 -1      1606 2.00147E+01-9.49012E-01 8.13869E-04-1.78827E-01 1.14214E-14 1.48585E-13
 -1      1607 2.00020E+01-7.36012E-01 1.98847E-03-1.82986E-01-2.61777E-13 4.24834E-13
 -1      1608 1.99929E+01-6.07141E-01 6.87266E-04-3.44460E-01-8.20472E-14 5.79481E-13
 -1      1609 2.00356E+01-1.22316E+00-6.49524E-04-1.20704E-01-1.31051E-13-1.86952E-13
 -1      1610 2.00235E+01-1.07328E+00-8.29263E-05-1.36460E-01 4.24782E-14 2.19039E-14
 -1      1611 2.00320E+01-8.83101E-01-5.25604E-03-2.97849E-01-2.55650E-13 4.18593E-14
 -1      1612 2.00535E+01-1.29638E+00-2.07246E-03-9.10505E-03-5.30871E-13-3.12946E-13
 -1      1613 2.00444E+01-1.27639E+00-2.01563E-03-3.48946E-02-1.35583E-13-4.23089E-13
 -1      1614 2.00675E+01-1.06481E+00-1.13025E-02-1.44132E-01-1.63116E-13-4.39825E-13
 -1      1615 2.00649E+01-1.07468E+00-3.83049E-03 1.50051E-01-4.26820E-13 7.87790E-14
 -1      1616 2.00612E+01-1.23970E+00-4.39557E-03 1.15059E-01-5.62631E-13-7.21749E-14
 -1      1617 2.00971E+01-1.06981E+00-1.65332E-02 1.07336E-01-1.08000E-13-2.94235E-13
 -1      1618 2.00628E+01-4.97230E-01-5.20637E-03 3.31091E-01-1.44537E-13 3.35044E-14
 -1      1619 2.00686E+01-8.75561E-01-6.51505E-03 2.93477E-01-3.66663E-13 2.33550E-13
 -1      1620 2.01121E+01-8.24963E-01-1.99593E-02 4.30322E-01-1.96798E-13 2.84182E-13
 -1      1621 2.00399E+01 4.14172E-01-5.01327E-03 4.89616E-01-4.60777E-14 1.66039E-13
 -1      1622 2.00584E+01-1.52724E-01-7.21596E-03 4.59909E-01-2.45574E-13 9.90154E-14
 -1      1623 2.01002E+01-2.93336E-01-1.91464E-02 7.61633E-01 2.67061E-15 5.83639E-14
 -1      1624 1.99937E+01 1.52598E+00-1.93104E-03 5.64086E-01 2.60347E-14 9.76665E-14
 -1      1625 2.00242E+01 8.66168E-01-4.87949E-03 5.56296E-01-1.85546E-13 2.18452E-13
 -1      1626 2.00503E+01 4.95323E-01-1.17336E-02 1.00366E+00-1.44126E-13 1.68474E-13
 -1      1627 1.99326E+01 2.58576E+00 4.17292E-03 4.94757E-01-7.09283E-13-6.13789E-13
 -1      1628 1.99678E+01 1.99787E+00 1.22367E-03 5.21152E-01-7.19147E-14-4.10106E-13
 -1      1629 1.99631E+01 1.42014E+00 3.12061E-03 1.03978E+00-2.42768E-13-3.26142E-13
 -1      1630 1.98798E+01 3.26832E+00 1.09667E-02 2.64242E-01-8.57481E-13 1.52968E-13
 -1      1631 1.99047E+01 2.94605E+00 9.30587E-03 3.23944E-01-6.86257E-13-3.61220E-13
 -1      1632 1.98599E+01 2.26341E+00 2.22437E-02 7.86159E-01-2.05566E-13-7.34796E-13
 -1      1633 1.98626E+01 3.33625E+00 1.46348E-02-8.90042E-02-3.12080E-13 3.17992E-13
 -1      1634 1.98630E+01 3.41018E+00 1.58728E-02-7.90303E-03-8.53192E-13 4.21156E-13
 -1      1635 1.97830E+01 2.78283E+00 3.80502E-02 2.51311E-01-1.59211E-13 4.22534E-13
 -1      1636 1.99037E+01 2.70217E+00 8.43964E-03-4.35043E-01 2.50078E-13 4.02648E-13
 -1      1637 1.98715E+01 3.18492E+00 1.51495E-02-3.68010E-01-1.54765E-13 4.09771E-13
 -1      1638 1.97808E+01 2.78465E+00 4.11564E-02-4.25528E-01 1.94216E-13 6.79625E-13
 -1      1639 2.00093E+01 1.60897E+00-6.38692E-03-6.05121E-01 3.38757E-13-2.06079E-13
 -1      1640 1.99487E+01 2.30812E+00 3.80833E-03-5.96979E-01 4.17208E-13-7.20214E-15
 -1      1641 1.98774E+01 2.24176E+00 2.46329E-02-9.68949E-01 3.55473E-13 2.71521E-13
 -1      1642 2.01034E+01 6.40177E-01-1.25697E-02-4.41107E-01 1.92631E-13-1.64090E-13
 -1      1643 2.00377E+01 1.21580E+00-2.09977E-02-5.14460E-01 4.92426E-13-1.80525E-13
 -1      1644 2.00712E+01 1.44903E+00 2.72392E-03-1.06380E+00 4.43080E-13-1.83966E-13
 -1      1645 2.01980E+01 6.96838E-01-1.10066E-02-6.94575E-01 3.31204E-13-2.83966E-13
 -1      1646-1.90287E-01-1.42149E+01-1.36312E+00 4.54243E-01-1.02685E-12-1.79134E-13
 -1      1647-4.78231E-01-1.80065E+01-1.71624E+00 1.59472E+00-7.72715E-13-3.49581E-13
 -1      1648 2.79251E+00-6.35265E+00-9.16085E-01 2.22378E+00-6.45928E-13-1.21680E-13
 -1      1649 1.53007E+00-1.27395E+01-1.51531E+00 1.12817E+00-1.09479E-12-1.14908E-14
 -1      1650 9.52457E+00 1.75642E+00-2.82614E-01 6.75081E+00 8.43769E-14 6.12177E-13
 -1      1651 5.72940E+00-3.96459E+00-1.08249E+00 3.42656E+00-5.18252E-13 1.72973E-13
 -1      1652 2.11443E+01 6.85294E+00 4.53205E-01 1.19641E+01 6.19393E-13 7.35412E-13
 -1      1653 1.39324E+01 3.66280E+00-4.38297E-01 8.12109E+00 4.68958E-13 4.94271E-13
 -1      1654 3.66035E+01 7.94214E+00 1.13169E+00 1.47919E+01 4.57745E-13 9.10383E-13
 -1      1655 2.64239E+01 8.21391E+00 3.17997E-01 1.29648E+01 7.45515E-13 8.22231E-13
 -1      1656 5.10359E+01 5.71343E+00 1.55888E+00 1.09322E+01 5.48964E-13 7.79377E-14
 -1      1657 4.20435E+01 7.62359E+00 9.84057E-01 1.30971E+01 5.33795E-13 5.76650E-13
 -1      1658 6.00458E+01 4.03425E+00 1.89522E+00 4.09101E+00 7.92699E-14-2.80886E-14
 -1      1659 5.54182E+01 5.46137E+00 1.60115E+00 9.52307E+00 3.15387E-13 1.91847E-13
 -1      1660 5.81398E+01 4.65807E+00 1.62780E+00-5.30151E+00 6.02296E-14-1.45273E-13
 -1      1661 5.99783E+01 4.17470E+00 1.79908E+00 9.74173E-01 4.13003E-14-7.32747E-14
 -1      1662 4.85380E+01 6.71232E+00 1.19459E+00-1.15990E+01 2.06155E-13-3.31957E-13
 -1      1663 5.54919E+01 4.88181E+00 1.62005E+00-7.75110E+00 1.67921E-13-2.05391E-13
 -1      1664 3.48271E+01 8.40227E+00 6.91800E-01-1.40030E+01 5.08260E-13-6.94556E-13
 -1      1665 4.44601E+01 6.93406E+00 1.34492E+00-1.37279E+01 3.51386E-13-5.37570E-13
 -1      1666 2.08353E+01 7.20405E+00 1.67521E-02-1.13940E+01 6.51923E-13-7.49178E-13
 -1      1667 2.93276E+01 8.28604E+00 8.38081E-01-1.42159E+01 6.13287E-13-7.95142E-13
 -1      1668 1.03278E+01 9.25577E-01-6.99890E-01-6.19106E+00 4.07230E-13-5.83533E-13
 -1      1669 1.63053E+01 5.26366E+00 1.46880E-01-1.01220E+01 6.03961E-13-7.81264E-13
 -1      1670 3.54624E+00-7.16083E+00-1.28837E+00-2.15024E+00-2.66898E-13-3.07587E-13
 -1      1671 6.11144E+00-1.03917E+00-5.62231E-01-4.70162E+00 2.17160E-13-7.10321E-13
 -1      1672 6.22030E-01-1.47894E+01-1.65321E+00-9.87370E-01-1.59206E-13 1.87905E-13
 -1      1673 1.33739E+00-9.36530E+00-1.13428E+00-1.24063E+00-3.15303E-13 1.76914E-13
 -1      1674-8.95888E-01-1.97448E+01-1.99747E+00-1.67985E+00-3.88967E-13-1.17822E-13
 -1      1675-6.89466E-01-1.69455E+01-1.68804E+00-3.07694E-02-3.12861E-13 3.86913E-14
 -1      1676-1.56814E+00-1.88736E+01-2.02176E+00-3.27775E+00-8.22675E-13-4.12087E-13
 -1      1677-1.09542E+00-2.01057E+01-2.01666E+00-1.43256E+00-4.70166E-13-2.45803E-13
 -1      1678-2.19070E-01-1.25336E+01-1.81014E+00-2.30268E+00-1.10689E-12-5.69447E-13
 -1      1679-4.95109E-01-1.72575E+01-2.06706E+00-2.35146E+00-9.05387E-13-4.43257E-13
 -1      1680 4.94665E+00-4.76645E+00-1.52212E+00 1.40121E+00-7.81153E-13-8.16014E-14
 -1      1681 2.07490E+00-1.08404E+01-2.14174E+00-1.39534E+00-1.19771E-12-4.00069E-13
 -1      1682 2.06855E+01 1.32881E+00-4.34716E-01 7.93648E+00-3.01981E-13-4.02567E-13
 -1      1683 1.14344E+01-3.39388E+00-1.64626E+00 3.05709E+00-4.56524E-13-3.00648E-13
 -1      1684 4.14862E+01 4.01747E+00 1.19078E+00 1.15814E+01-4.24771E-13-6.53255E-13
 -1      1685 2.79893E+01 3.00660E+00-4.14268E-01 8.70602E+00-2.57128E-13-5.56000E-13
 -1      1686 6.32771E+01 3.37750E+00 3.25558E+00 7.70086E+00-3.40658E-13 3.24185E-14
 -1      1687 4.90685E+01 4.74852E+00 1.54044E+00 9.59651E+00-4.95715E-13-4.74287E-13
 -1      1688 7.36215E+01 4.03877E+00 4.46613E+00 5.02170E-01-3.14748E-13 8.29281E-13
 -1      1689 6.74715E+01 4.76568E+00 3.62390E+00 6.89909E+00-4.02789E-13 1.18128E-13
 -1      1690 6.90835E+01 4.35960E+00 3.72610E+00-6.74046E+00-1.63092E-13 1.10012E-12
 -1      1691 7.45141E+01 3.71538E+00 4.50955E+00-7.59345E-01-9.42024E-14 1.02937E-12
 -1      1692 5.19137E+01 4.82791E+00 1.78191E+00-9.74023E+00 1.41220E-13 5.38014E-13
 -1      1693 6.49048E+01 3.90600E+00 3.56156E+00-7.32715E+00 7.61197E-14 9.21929E-13
 -1      1694 3.26722E+01 3.38805E+00-4.18877E-02-9.26517E+00 4.71401E-13-6.97220E-14
 -1      1695 4.59560E+01 3.83729E+00 1.58325E+00-1.13478E+01 2.09610E-13 5.18918E-13
 -1      1696 1.58997E+01-1.03205E-01-1.33051E+00-5.54263E+00 7.19202E-13-5.38458E-13
 -1      1697 2.53837E+01 3.13514E+00-4.95443E-03-9.53450E+00 5.33129E-13-2.09832E-13
 -1      1698 6.02843E+00-6.78496E+00-1.86432E+00-8.99968E-01 5.54667E-13-6.00298E-13
 -1      1699 1.09126E+01-1.57638E+00-1.05811E+00-4.52203E+00 6.19726E-13-9.24816E-13
 -1      1700 7.70448E-01-1.39074E+01-2.09415E+00 1.97946E+00 2.59570E-13-4.33958E-13
 -1      1701 2.15812E+00-8.46141E+00-1.66119E+00 4.75292E-01 4.86722E-13-6.75515E-13
 -1      1702-9.23265E-01-1.92301E+01-2.14270E+00 2.37030E+00-1.09801E-13-1.28064E-13
 -1      1703-1.16567E+00-1.57058E+01-1.96805E+00 3.14109E+00 1.31228E-13-1.24636E-13
 -1      1704-1.06635E+00-1.99986E+01-1.92411E+00 7.88945E-01-7.99805E-13-4.39093E-13
 -1      1705-1.41238E+00-1.98807E+01-2.04280E+00 2.77031E+00-2.03254E-13-4.21496E-13
 -1      1706 3.87070E+01-1.20552E+00-3.33801E-02-6.12230E+00-5.43898E-13-1.45967E-13
 -1      1707 3.41462E+01-8.57125E-03-5.93204E-01-4.28339E+00-4.03622E-13-4.32487E-13
 -1      1708 2.87882E+01 7.99230E-01-1.40505E+00-3.82044E+00-3.27793E-13-9.36362E-13
 -1      1709 4.00319E+01 2.94559E+00-2.81676E-01-4.14152E+00-5.08704E-13-7.35523E-14
 -1      1710-1.68818E+00-1.23761E+01-1.22114E+00 2.35859E+00-4.23384E-13-7.01661E-13
 -1      1711 2.76280E+01 8.45244E-01-1.56077E+00 3.60584E+00 7.23865E-14-1.37629E-12
 -1      1712 3.34141E+01-3.67453E-02-6.25669E-01 3.84755E+00 1.55154E-13-1.10056E-12
 -1      1713 1.74282E+01-1.74384E+00-1.68879E-01 8.14187E+00-1.36779E-13 5.66991E-13
 -1      1714 3.92405E+01 3.25517E+00-1.75871E-01 3.48236E+00 4.96270E-14-7.13901E-13
 -1      1715 1.99588E+01-5.24347E-02 5.88942E-03-6.04097E-02-4.65236E-13-7.89195E-14
 -1      1716 1.99053E+01-1.29189E-01 2.64047E-03-1.70332E-01-1.49641E-13-2.42003E-13
 -1      1717 1.76317E+00-9.90290E+00-9.80753E-01 4.56108E+00-5.18030E-13 7.87148E-14
 -1      1718 8.30947E+00-6.41530E+00-6.81987E-01 6.43266E+00-4.93050E-13 5.64659E-13
 -1      1719 2.81011E+01 2.68512E+00 4.06652E-01 9.16121E+00 3.71925E-13 5.93747E-13
 -1      1720 3.91128E+01 5.80188E+00 9.77837E-01 7.98608E+00 5.02640E-13 2.36700E-13
 -1      1721 4.73704E+01 7.40775E+00 1.26171E+00 4.83061E+00 4.65405E-13-5.87308E-14
 -1      1722 5.17127E+01 8.41648E+00 1.59580E+00 1.27955E+00 1.74749E-13 1.10661E-13
 -1      1723 4.91265E+01 8.39074E+00 1.39334E+00-2.80220E+00 1.60372E-13 5.55112E-16
 -1      1724 4.35088E+01 6.97629E+00 1.17831E+00-6.51008E+00 3.67179E-13-2.15161E-13
 -1      1725 3.43595E+01 4.82340E+00 7.66740E-01-9.09316E+00 4.43645E-13-3.74922E-13
 -1      1726 2.35369E+01 1.09267E+00 1.41971E-01-8.88425E+00 3.59268E-13-5.30465E-13
 -1      1727 1.36041E+01-3.34437E+00-3.53214E-01-7.66479E+00 9.69225E-14-7.25753E-13
 -1      1728 5.32646E+00-7.62892E+00-8.22691E-01-5.70541E+00-1.66978E-13-2.60500E-13
 -1      1729 9.78473E-02-1.12439E+01-1.14911E+00-3.73485E+00-4.40536E-13 6.57807E-14
 -1      1730-2.12123E+00-1.37890E+01-1.47680E+00-1.72515E+00-4.48586E-13-2.78166E-13
 -1      1731-7.38033E-01-1.27221E+01-1.43525E+00 2.77143E-01-5.22749E-13-5.16864E-13
 -1      1732 4.51699E+00-1.02161E+01-1.36709E+00 2.32079E+00-6.42375E-13-1.52524E-13
 -1      1733 1.54475E+01-6.95616E+00-9.84411E-01 4.32440E+00-5.71432E-13-6.86673E-14
 -1      1734 3.10385E+01-3.32480E+00-3.79447E-02 4.48568E+00-1.43885E-13-3.32401E-13
 -1      1735 4.61887E+01 9.75173E-01 1.24526E+00 2.25721E+00-4.65100E-13-2.15827E-13
 -1      1736 5.57877E+01 5.35444E+00 2.24298E+00-2.60834E-01-5.90750E-13 1.87184E-13
 -1      1737 6.08823E+01 8.06080E+00 3.32497E+00-3.78935E-01-4.01679E-13 1.01544E-13
 -1      1738 5.71739E+01 5.94154E+00 2.67811E+00-2.12111E-01 1.50102E-13 3.68150E-13
 -1      1739 4.81296E+01 1.39813E+00 1.23826E+00-1.23529E+00 3.61058E-13 3.35065E-13
 -1      1740 3.51445E+01-1.83943E+00 4.24067E-01-4.64638E+00 5.26135E-13 1.55209E-13
 -1      1741 2.06327E+01-5.54418E+00-8.61507E-01-5.02045E+00 3.30624E-13-2.06613E-13
 -1      1742 9.65716E+00-8.62463E+00-1.17389E+00-3.72274E+00 1.06026E-13-4.47142E-13
 -1      1743 1.97942E+00-1.16838E+01-1.42699E+00-1.62943E+00-1.39222E-13-3.63737E-13
 -1      1744-1.67309E+00-1.38548E+01-1.54429E+00 3.73412E-01-4.85945E-13-2.31482E-13
 -1      1745 2.29238E+01 2.00772E+00-2.67484E-02-2.77946E+00-3.73312E-14 1.25511E-13
 -1      1746 3.75109E+01-9.47008E-01-3.18705E-01 6.40411E+00 4.15390E-13-6.56059E-13
 -1      1747 1.98235E+01 3.71756E+00-3.49059E-02-2.15516E+00-1.78147E-14-6.56246E-14
 -1      1748 2.00532E+01 3.56067E+00-4.25009E-02-2.44239E+00-3.32859E-14-5.12299E-14
 -1      1749 2.03677E+01 3.17996E+00-4.50222E-02-2.58577E+00-3.29257E-14-3.16969E-14
 -1      1750 2.05849E+01 2.81611E+00-1.39061E-01-2.86414E+00-4.14738E-14-6.89726E-15
 -1      1751 2.04322E+01 2.68591E+00-3.82120E-03-2.22102E+00-3.86087E-14-3.49304E-14
 -1      1752 1.93545E+01 4.18896E+00-2.02140E-02-1.27009E+00 3.91289E-15-6.27675E-14
 -1      1753 1.94282E+01 4.14921E+00-1.71850E-02-1.49453E+00-1.89562E-15-7.69732E-14
 -1      1754 1.92573E+01 4.29486E+00-1.68181E-02-8.59343E-01 1.96262E-14-4.63310E-14
 -1      1755 1.93003E+01 4.27087E+00-1.43646E-02-1.07007E+00 1.20784E-14-5.36949E-14
 -1      1756 1.95261E+01 3.78305E+00-9.30851E-03-1.11909E+00 8.95876E-16-5.38233E-14
 -1      1757 1.92054E+01 4.35542E+00-1.48119E-02-4.66691E-01 5.28319E-14-2.70339E-14
 -1      1758 1.92275E+01 4.34255E+00-1.33226E-02-6.66884E-01 3.79842E-14-3.88405E-14
 -1      1759 1.94285E+01 3.90363E+00-9.22403E-03-7.32871E-01 3.52564E-14-3.61846E-14
 -1      1760 1.91858E+01 4.38110E+00-1.36683E-02-8.38238E-02 7.26946E-14-5.63612E-15
 -1      1761 1.91923E+01 4.37717E+00-1.32158E-02-2.79137E-01 6.71429E-14-1.78694E-14
 -1      1762 1.93778E+01 3.96827E+00-9.15941E-03-3.58242E-01 6.21891E-14-8.58168E-15
 -1      1763 1.91939E+01 4.37582E+00-1.31666E-02 2.97633E-01 8.45275E-14 7.72993E-15
 -1      1764 1.91863E+01 4.38028E+00-1.37502E-02 1.02159E-01 7.15436E-14-3.11383E-15
 -1      1765 1.93629E+01 3.98774E+00-9.14322E-03 1.02880E-02 7.81124E-14 1.66880E-15
 -1      1766 1.92314E+01 4.33861E+00-1.33235E-02 6.86093E-01 9.61205E-14 2.20917E-14
 -1      1767 1.92081E+01 4.35231E+00-1.49157E-02 4.85410E-01 9.00921E-14 9.41434E-15
 -1      1768 1.93804E+01 3.96503E+00-9.18327E-03 3.79023E-01 9.31816E-14 1.16504E-14
 -1      1769 1.93054E+01 4.26517E+00-1.43942E-02 1.08354E+00 1.03913E-13 5.62536E-14
 -1      1770 1.92618E+01 4.28962E+00-1.69768E-02 8.75656E-01 9.62663E-14 3.66165E-14
 -1      1771 1.94336E+01 3.89748E+00-9.18937E-03 7.50900E-01 1.01964E-13 3.73954E-14
 -1      1772 1.94375E+01 4.13791E+00-1.74100E-02 1.51350E+00 1.28066E-13 8.98448E-14
 -1      1773 1.93608E+01 4.18042E+00-2.05088E-02 1.28401E+00 1.13526E-13 7.23623E-14
 -1      1774 1.95338E+01 3.77338E+00-9.23941E-03 1.13448E+00 1.18763E-13 7.15174E-14
 -1      1775 1.96665E+01 3.92165E+00-2.53200E-02 1.97851E+00 1.26127E-13 1.32745E-13
 -1      1776 1.95340E+01 3.99832E+00-2.69148E-02 1.72123E+00 1.23767E-13 1.02897E-13
 -1      1777 1.97075E+01 3.56606E+00-8.83810E-03 1.53435E+00 1.33444E-13 1.05561E-13
 -1      1778 2.00798E+01 3.52252E+00-4.43027E-02 2.47482E+00 1.11831E-13 2.06165E-13
 -1      1779 1.98416E+01 3.68393E+00-3.79595E-02 2.17991E+00 1.14967E-13 1.58647E-13
 -1      1780 2.00032E+01 3.22180E+00-6.25446E-03 1.93060E+00 1.23824E-13 1.43241E-13
 -1      1781 2.09201E+01 2.66953E+00-6.21112E-02 2.85427E+00 7.89932E-14 3.35065E-13
 -1      1782 2.04137E+01 3.10028E+00-4.96680E-02 2.61221E+00 9.30081E-14 2.58731E-13
 -1      1783 2.04993E+01 2.60877E+00-6.81528E-04 2.23740E+00 9.50841E-14 2.28643E-13
 -1      1784 2.17309E+01 1.21140E+00-1.23378E-01 2.32786E+00 4.26117E-14 4.52999E-13
 -1      1785 2.12785E+01 2.27243E+00 3.29842E-03 2.74065E+00 5.96294E-14 3.81389E-13
 -1      1786 2.09601E+01 1.68900E+00-1.37112E-02 2.14439E+00 7.15018E-14 3.27498E-13
 -1      1787 2.09612E+01 7.78654E-01-6.06055E-02 1.52266E+00 3.86774E-14 4.45808E-13
 -1      1788 2.18235E+01 2.49036E+00 9.18494E-02-3.08586E+00-4.49692E-14 4.03150E-14
 -1      1789 2.01218E+01 2.99566E-01-4.93449E-03 6.61998E-01 2.33806E-14 4.14332E-13
 -1      1790 2.06522E+01 4.38322E-01-1.43005E-02 1.03237E+00 3.15858E-14 4.22390E-13
 -1      1791 2.07498E+01 8.47039E-01 5.40896E-03 1.40781E+00 3.92915E-14 3.47613E-13
 -1      1792 2.05548E+01 5.24489E-01 3.09215E-02-9.59538E-01-4.95610E-14 2.89850E-14
 -1      1793 2.01153E+01 3.65801E-01 6.76588E-03-6.53984E-01-3.86982E-14 1.93214E-14
 -1      1794 1.99195E+01 2.66249E-01 2.77774E-02-4.09177E-01-3.92559E-14 2.11411E-14
 -1      1795 1.97212E+01 1.84137E-01 1.04381E-02-2.66227E-01-3.01183E-14 5.05672E-16
 -1      1796 2.02200E+01 5.01259E-01-6.17045E-03-7.48970E-01-3.97078E-14-8.98370E-16
 -1      1797 1.95964E+01 1.37228E-01 1.70896E-02-1.28686E-01-2.40103E-14 1.09027E-15
 -1      1798 1.95144E+01 9.62755E-02 7.09560E-03-5.54747E-02-2.88007E-14 2.86359E-15
 -1      1799 1.98882E+01 2.52345E-01-5.89316E-03-3.10041E-01-3.38891E-14-2.17708E-16
 -1      1800 1.94475E+01 7.08668E-02 8.95799E-03 2.03562E-02-4.91536E-14-5.82433E-16
 -1      1801 1.94310E+01 4.85277E-02 4.21212E-03 5.78490E-02-6.53930E-14-1.95577E-14
 -1      1802 1.97005E+01 1.29698E-01-4.71253E-03-6.61369E-02-4.82925E-14 4.08701E-15
 -1      1803 1.94037E+01 3.37921E-02 4.38865E-03 9.79077E-02-7.37067E-14-1.82025E-14
 -1      1804 1.94226E+01 2.09895E-02 2.49642E-03 1.15430E-01-5.80488E-14-4.63984E-15
 -1      1805 1.96106E+01 6.34231E-02-3.52010E-03 6.75704E-02-6.61744E-14 2.89387E-14
 -1      1806 1.94202E+01 1.21115E-02 1.93520E-03 1.34141E-01-5.58367E-14 1.46778E-14
 -1      1807 1.94571E+01 4.70688E-03 1.48717E-03 1.39986E-01-3.23606E-14-3.63435E-15
 -1      1808 1.95844E+01 2.54713E-02-2.38266E-03 1.36403E-01-4.92193E-14 4.49267E-14
 -1      1809 1.94692E+01-6.48696E-04 5.93340E-04 1.45806E-01-2.99591E-14-3.26928E-14
 -1      1810 1.95136E+01-4.78587E-03 8.56464E-04 1.44795E-01-1.59821E-14-3.55340E-14
 -1      1811 1.95969E+01 3.28397E-03-1.46861E-03 1.66117E-01-6.08581E-14 2.81932E-14
 -1      1812 1.95334E+01-7.89901E-03-1.52668E-04 1.42955E-01-2.38490E-14-5.20096E-14
 -1      1813 1.95791E+01-9.98292E-03 4.46843E-04 1.38080E-01-2.55220E-14-5.19578E-14
 -1      1814 1.96311E+01-9.42826E-03-8.09007E-04 1.72205E-01-2.97126E-14-2.89332E-14
 -1      1815 1.96021E+01-1.16296E-02-5.55688E-04 1.31930E-01-1.29230E-14-5.50005E-14
 -1      1816 1.96456E+01-1.24091E-02 1.81107E-04 1.25106E-01 1.87382E-14-5.63744E-14
 -1      1817 1.96757E+01-1.61816E-02-3.63547E-04 1.64424E-01 9.73695E-16-1.02619E-14
 -1      1818 1.96690E+01-1.30942E-02-7.49376E-04 1.16827E-01 2.34431E-14-7.17463E-14
 -1      1819 1.97082E+01-1.30568E-02 1.46574E-05 1.09289E-01 6.10261E-14-9.64292E-14
 -1      1820 1.97235E+01-1.91204E-02-7.81946E-05 1.49090E-01 2.25840E-14-3.15317E-14
 -1      1821 1.97303E+01-1.31225E-02-8.12443E-04 1.00291E-01 5.44763E-14-1.38488E-13
 -1      1822 1.97646E+01-1.25939E-02-8.21180E-05 9.28165E-02 4.12859E-15-1.32254E-13
 -1      1823 1.97700E+01-1.96345E-02 9.32691E-05 1.30316E-01 3.29022E-14-9.88168E-14
 -1      1824 1.97845E+01-1.22756E-02-7.95018E-04 8.39920E-02-2.38968E-14-1.12059E-13
 -1      1825 1.98135E+01-1.14738E-02-1.29928E-04 7.70540E-02-5.66271E-14-8.94584E-14
 -1      1826 1.98128E+01-1.86546E-02 1.85705E-04 1.10750E-01-6.31526E-15-1.17134E-13
 -1      1827 1.98309E+01-1.09319E-02-7.30153E-04 6.89423E-02-3.86081E-14-7.47766E-14
 -1      1828 1.98551E+01-9.99882E-03-1.43122E-04 6.28068E-02-3.57258E-14-3.43122E-14
 -1      1829 1.98507E+01-1.68075E-02 2.24276E-04 9.20474E-02 2.19627E-15-1.42632E-14
 -1      1830 1.98699E+01-9.33833E-03-6.39647E-04 5.57127E-02-8.69055E-14-1.31794E-14
 -1      1831 1.98897E+01-8.35995E-03-1.31064E-04 5.05131E-02-7.48068E-14-5.35180E-14
 -1      1832 1.98834E+01-1.45061E-02 2.26705E-04 7.51941E-02-7.05917E-14-6.67729E-15
 -1      1833 1.99023E+01-7.64395E-03-5.37448E-04 4.45942E-02-2.74078E-14-1.17161E-14
 -1      1834 1.99184E+01-6.66264E-03-9.88921E-05 4.03860E-02 4.08402E-14-4.11220E-14
 -1      1835 1.99111E+01-1.20048E-02 2.05091E-04 6.07375E-02-4.00015E-14 9.98140E-15
 -1      1836 1.99290E+01-5.92015E-03-4.31841E-04 3.57196E-02 2.64782E-14-4.43055E-14
 -1      1837 1.99422E+01-4.94200E-03-4.77646E-05 3.25254E-02-1.89332E-14-4.45955E-14
 -1      1838 1.99345E+01-9.43539E-03 1.67252E-04 4.89630E-02 1.84299E-15 9.68458E-14
 -1      1839 1.99513E+01-4.17206E-03-3.26902E-04 2.91646E-02-5.33747E-14-3.84777E-14
 -1      1840 1.99624E+01-3.16854E-03 2.54806E-05 2.70134E-02-4.31968E-14-2.15398E-14
 -1      1841 1.99543E+01-6.82620E-03 1.17663E-04 4.00336E-02-2.18971E-14 5.46851E-14
 -1      1842 1.99706E+01-2.33960E-03-2.23458E-04 2.50390E-02-3.79571E-14 4.65827E-14
 -1      1843 1.99806E+01-1.24300E-03 1.29409E-04 2.40070E-02 2.14785E-14 4.24530E-14
 -1      1844 1.99717E+01-4.10683E-03 5.81357E-05 3.41121E-02 1.68618E-14 4.75081E-14
 -1      1845 1.99885E+01-2.86642E-04-1.19677E-04 2.35849E-02 6.74798E-15-2.67588E-14
 -1      1846 1.99985E+01 1.02297E-03 2.80121E-04 2.38445E-02-3.50909E-15-6.65254E-14
 -1      1847 1.99878E+01-1.09521E-03-1.16827E-05 3.14830E-02-5.05126E-14 9.52123E-14
 -1      1848 2.00068E+01 2.22632E-03-1.13924E-05 2.52979E-02 6.22163E-14-1.32946E-13
 -1      1849 2.00180E+01 3.94637E-03 5.04923E-04 2.71879E-02 1.39531E-13-1.87100E-13
 -1      1850 2.00041E+01 2.53901E-03-9.38538E-05 3.26970E-02-2.92155E-14 3.64807E-14
 -1      1851 2.00277E+01 5.59370E-03 1.07729E-04 3.11008E-02 1.01393E-13-1.61604E-13
 -1      1852 2.00419E+01 8.04307E-03 8.48283E-04 3.52312E-02 4.11502E-14-1.64791E-13
 -1      1853 2.00221E+01 7.34541E-03-1.91488E-04 3.87646E-02 9.55122E-14 6.76471E-14
 -1      1854 2.00540E+01 1.04533E-02 2.45936E-04 4.26048E-02 5.67341E-14-1.50761E-13
 -1      1855 2.00739E+01 1.41453E-02 1.38110E-03 5.00234E-02-1.46300E-14-2.87906E-14
 -1      1856 2.00439E+01 1.42161E-02-3.07415E-04 5.14400E-02 7.29100E-14 5.06842E-14
 -1      1857 2.00899E+01 1.78324E-02 4.12557E-04 6.25169E-02-8.51041E-14-3.55244E-14
 -1      1858 2.01191E+01 2.35923E-02 2.21452E-03 7.49741E-02-6.92115E-14-2.81076E-14
 -1      1859 2.00723E+01 2.45900E-02-4.41264E-04 7.36512E-02-2.46992E-14 4.61777E-14
 -1      1860 2.01408E+01 2.93820E-02 6.15339E-04 9.52772E-02-1.51645E-13-3.73900E-14
 -1      1861 2.01850E+01 3.85325E-02 3.51889E-03 1.15647E-01-1.45441E-13 6.82075E-14
 -1      1862 2.01107E+01 4.07818E-02-5.83239E-04 1.10160E-01-1.33094E-13-3.86431E-14
 -1      1863 2.02148E+01 4.77436E-02 8.52869E-04 1.48047E-01-1.12661E-13 8.75487E-14
 -1      1864 2.02824E+01 6.23854E-02 5.54537E-03 1.80987E-01-4.76934E-14 1.41228E-15
 -1      1865 2.01634E+01 6.64969E-02-7.01757E-04 1.68559E-01-9.88359E-14 4.08667E-14
 -1      1866 2.03229E+01 7.70973E-02 1.09428E-03 2.32205E-01-2.11766E-15 3.56714E-14
 -1      1867 2.04272E+01 1.00504E-01 8.63715E-03 2.85155E-01 6.25210E-14 3.11521E-14
 -1      1868 2.02361E+01 1.07602E-01-7.21251E-04 2.60746E-01-1.15617E-14 1.83162E-14
 -1      1869 2.04808E+01 1.23908E-01 1.22814E-03 3.65509E-01-1.39207E-14 5.73094E-14
 -1      1870 2.06415E+01 1.60983E-01 1.31913E-02 4.50106E-01-2.01571E-14-4.66268E-14
 -1      1871 2.03350E+01 1.73182E-01-4.88057E-04 4.04983E-01 3.19213E-14 6.76197E-14
 -1      1872 2.07093E+01 1.97709E-01 9.48373E-04 5.74941E-01-2.77200E-14-4.84226E-14
 -1      1873 2.09549E+01 2.55202E-01 1.94870E-02 7.08693E-01-9.27557E-15 6.55075E-15
 -1      1874 2.04659E+01 2.76667E-01 2.69249E-04 6.28475E-01-4.53543E-15 7.69335E-14
 -1      1875 2.10342E+01 3.11122E-01-4.38541E-04 8.99626E-01 7.14784E-14-5.74701E-14
 -1      1876 2.14040E+01 3.96521E-01 2.72772E-02 1.10691E+00 1.19902E-13 4.27622E-14
 -1      1877 2.06309E+01 4.36030E-01 1.96319E-03 9.69825E-01 1.56472E-14 8.48371E-14
 -1      1878 2.14846E+01 4.76429E-01-4.08948E-03 1.39140E+00 7.82152E-14 1.21027E-14
 -1      1879 2.20279E+01 5.92283E-01 3.52555E-02 1.70039E+00 9.59927E-14 6.77640E-14
 -1      1880 2.08225E+01 6.69612E-01 5.14101E-03 1.47918E+00 1.31236E-13 1.94351E-13
 -1      1881 2.20899E+01 6.90960E-01-1.05383E-02 2.10580E+00 1.05868E-13 2.77606E-14
 -1      1882 2.28579E+01 8.16395E-01 4.13626E-02 2.53204E+00 4.71602E-14 1.31622E-13
 -1      1883 2.10160E+01 9.77957E-01 1.05745E-02 2.21049E+00 1.14652E-13 1.71094E-13
 -1      1884 2.28848E+01 8.92556E-01-1.44717E-02 3.06525E+00-9.87387E-14 1.36845E-13
 -1      1885 2.39144E+01 9.37438E-01 4.75841E-02 3.56046E+00-3.94129E-15 8.87346E-14
 -1      1886 2.11703E+01 1.28880E+00 1.99467E-02 3.19405E+00-8.65020E-15 2.20782E-13
 -1      1887 2.39574E+01 8.46585E-01 6.38794E-03 4.15906E+00 1.57745E-13 9.39283E-14
 -1      1888 2.52387E+01 5.66261E-01 6.28544E-02 4.49951E+00 2.25153E-13 8.13013E-14
 -1      1889 2.12720E+01 1.32942E+00 3.72894E-02 4.37041E+00 4.40654E-14 2.82022E-13
 -1      1890 2.55639E+01 1.69771E-02 8.56670E-02 4.89042E+00 2.04038E-13-5.70169E-14
 -1      1891 2.69930E+01-8.82516E-01 9.74755E-02 4.58130E+00 1.05471E-13-3.94667E-14
 -1      1892 2.15251E+01 4.41152E-01 6.03015E-02 5.44384E+00 1.22201E-13 1.31319E-13
 -1      1893 2.81252E+01-2.15765E+00 1.80644E-01 4.30513E+00 1.40721E-14 1.98626E-14
 -1      1894 2.96638E+01-3.51641E+00 7.67087E-02 2.95087E+00-8.60978E-14-6.71529E-14
 -1      1895 2.25361E+01-2.02742E+00 3.91340E-02 5.80967E+00 1.47882E-13-1.03417E-13
 -1      1896 5.18289E+00-6.42925E+00-2.14415E-01 6.51411E+00-1.69420E-13 3.55826E-13
 -1      1897 2.59026E+00-7.00634E+00-2.36541E-01 5.20183E+00-7.06657E-14 1.04416E-13
 -1      1898 2.24709E+01-2.30784E+00 8.52445E-02 8.33546E+00-9.70335E-14 4.01124E-13
 -1      1899 1.75338E+01-4.44336E+00-2.41341E-01 7.72031E+00-4.40092E-13 5.29798E-13
 -1      1900 2.15361E+01 1.76917E+00 7.84482E-02-2.36890E+00-3.60996E-14 2.30926E-14
 -1      1901 3.19789E+01-3.19090E+00 7.92700E-02-1.94228E+00 2.67869E-13-2.01512E-13
 -1      1902 3.05119E+01-1.84530E+00 2.31886E-01-3.61103E+00 2.91711E-13-1.39212E-14
 -1      1903 2.81608E+01-9.54469E-01 1.89665E-02-4.34487E+00-1.46147E-13-4.19543E-14
 -1      1904 2.66885E+01-4.22568E-03 9.88008E-02-4.68561E+00-3.54466E-13-3.15432E-13
 -1      1905 2.59795E+01 3.94508E-01 3.82222E-02-4.42278E+00-1.88620E-13-4.25139E-13
 -1      1906 2.44735E+01 6.56653E-01 5.91718E-03-4.12507E+00-2.81843E-13-5.45931E-13
 -1      1907 2.31149E+01 2.80403E-01 9.90005E-02-5.55885E+00-4.23959E-13-3.73146E-13
 -1      1908 2.41312E+01 7.12311E-01 3.81608E-02-3.57879E+00-2.38280E-13-7.21253E-13
 -1      1909 2.28703E+01 7.06601E-01-1.13168E-02-3.13551E+00-1.23946E-13-6.73302E-13
 -1      1910 2.20886E+01 1.03693E+00 2.45465E-02-4.55892E+00-3.50110E-13-4.99594E-13
 -1      1911 2.26102E+01 6.60655E-01 3.62235E-02-2.62073E+00 3.94788E-14-8.09203E-13
 -1      1912 2.16702E+01 6.12102E-01-2.91672E-03-2.20499E+00 6.66238E-14-6.07673E-13
 -1      1913 2.14698E+01 1.05375E+00 1.11562E-02-3.42814E+00-1.43149E-13-5.60954E-13
 -1      1914 2.14262E+01 5.87948E-01 2.78140E-02-1.76074E+00 1.16688E-13-5.32579E-13
 -1      1915 2.07824E+01 5.89503E-01 5.71038E-03-1.37380E+00 2.81188E-13-3.56091E-13
 -1      1916 2.09208E+01 9.17866E-01-4.03651E-03-2.39724E+00 2.14814E-13-6.71900E-13
 -1      1917 2.04879E+01 6.53332E-01 4.60000E-03-9.46710E-01 3.33324E-13-2.78283E-13
 -1      1918 1.95169E+01 1.12519E-01 9.63925E-03 1.26515E-01 5.81887E-14 3.25059E-13
 -1      1919 1.96323E+01 1.59016E-01 1.71425E-02 2.20299E-01 3.99351E-14 3.41750E-13
 -1      1920 1.93875E+01 5.76207E-02 6.11398E-03-1.46443E-02 3.15433E-14 2.94237E-13
 -1      1921 1.94231E+01 8.25446E-02 1.19748E-02 3.20631E-02 6.50734E-14 3.09910E-13
 -1      1922 1.97185E+01 1.54274E-01-4.67515E-03 1.53141E-01 6.72314E-14 2.20257E-13
 -1      1923 1.93562E+01 2.74979E-02 3.67095E-03-8.89728E-02 2.44008E-14 2.39674E-13
 -1      1924 1.93445E+01 4.14908E-02 6.23870E-03-6.58228E-02 1.91283E-14 2.56957E-13
 -1      1925 1.95849E+01 7.72818E-02-4.07371E-03-1.77798E-02 5.22653E-14 1.87917E-13
 -1      1926 1.93826E+01 9.87729E-03 2.23103E-03-1.23894E-01-2.19838E-15 2.57385E-13
 -1      1927 1.93462E+01 1.79477E-02 2.96338E-03-1.14095E-01-3.97452E-15 2.48479E-13
 -1      1928 1.95368E+01 3.46108E-02-2.89704E-03-1.08491E-01 1.98242E-14 1.72891E-13
 -1      1929 1.94397E+01-4.88542E-04 1.35722E-03-1.35426E-01 1.84070E-14 2.70649E-13
 -1      1930 1.93922E+01 4.11308E-03 1.18663E-03-1.33482E-01 4.08969E-15 2.71021E-13
 -1      1931 1.95401E+01 1.00244E-02-1.87033E-03-1.51541E-01-5.98073E-15 1.85248E-13
 -1      1932 1.95106E+01-6.37845E-03 7.94681E-04-1.33174E-01 1.07450E-14 3.09793E-13
 -1      1933 1.94600E+01-3.91590E-03 2.04296E-04-1.35786E-01 1.15460E-14 2.94002E-13
 -1      1934 1.95728E+01-4.17017E-03-1.09352E-03-1.65958E-01 9.98751E-15 2.30254E-13
 -1      1935 1.95848E+01-9.40673E-03 4.23897E-04-1.23164E-01 2.58878E-14 3.12007E-13
 -1      1936 1.95358E+01-8.29653E-03-3.38677E-04-1.28248E-01 3.36492E-14 3.18892E-13
 -1      1937 1.96204E+01-1.19938E-02-5.52971E-04-1.63376E-01 2.91134E-14 2.69553E-13
 -1      1938 1.96560E+01-1.05888E-02 1.82167E-04-1.09277E-01 6.14121E-14 2.81324E-13
 -1      1939 1.96112E+01-1.03337E-02-6.21288E-04-1.15484E-01 5.11225E-14 2.87422E-13
 -1      1940 1.96737E+01-1.57803E-02-1.97380E-04-1.51192E-01 6.03596E-14 2.83140E-13
 -1      1941 1.97209E+01-1.05960E-02 3.07992E-05-9.40130E-02 5.48845E-14 2.35834E-13
 -1      1942 1.96814E+01-1.08684E-02-7.42963E-04-1.00481E-01 7.20795E-14 2.81197E-13
 -1      1943 1.97267E+01-1.69906E-02 2.39368E-05-1.34203E-01 5.86640E-14 2.50867E-13
 -1      1944 1.97779E+01-9.88310E-03-5.67791E-05-7.89576E-02-1.63220E-14 2.29995E-13
 -1      1945 1.97441E+01-1.04633E-02-7.64547E-04-8.51447E-02 2.73265E-14 2.13872E-13
 -1      1946 1.97762E+01-1.65855E-02 1.51179E-04-1.15513E-01 3.00021E-14 2.53328E-13
 -1      1947 1.98266E+01-8.75958E-03-9.95899E-05-6.50717E-02-6.24837E-14 2.86127E-13
 -1      1948 1.97983E+01-9.50057E-03-7.25657E-04-7.06588E-02-5.63380E-14 2.68898E-13
 -1      1949 1.98205E+01-1.52120E-02 2.14055E-04-9.70927E-02-4.75598E-14 2.02304E-13
 -1      1950 1.98675E+01-7.43293E-03-1.11453E-04-5.28937E-02 1.76692E-14 2.60254E-13
 -1      1951 1.98441E+01-8.23830E-03-6.52748E-04-5.77101E-02 7.52970E-15 3.01673E-13
 -1      1952 1.98589E+01-1.33065E-02 2.33987E-04-8.01383E-02-3.31399E-14 2.05813E-13
 -1      1953 1.99013E+01-6.03951E-03-1.02599E-04-4.26788E-02 8.13515E-15 1.83454E-13
 -1      1954 1.98822E+01-6.84774E-03-5.63538E-04-4.66528E-02 5.20238E-15 2.04662E-13
 -1      1955 1.98916E+01-1.11593E-02 2.26269E-04-6.53192E-02 4.97869E-14 1.26344E-13
 -1      1956 1.99292E+01-4.66837E-03-8.10049E-05-3.44949E-02-2.74522E-14 2.43258E-13
 -1      1957 1.99136E+01-5.44035E-03-4.69813E-04-3.76201E-02-3.02166E-14 1.99865E-13
 -1      1958 1.99189E+01-8.95980E-03 2.01757E-04-5.29514E-02-4.12091E-14 1.86667E-13
 -1      1959 1.99523E+01-3.38173E-03-5.36256E-05-2.82835E-02 5.42658E-14 2.50250E-13
 -1      1960 1.99395E+01-4.08999E-03-3.79390E-04-3.05978E-02 3.13263E-14 2.20932E-13
 -1      1961 1.99418E+01-6.83258E-03 1.68206E-04-4.31136E-02-6.07361E-15 1.52211E-13
 -1      1962 1.99717E+01-2.23473E-03-2.76638E-05-2.38892E-02-2.37878E-14 2.32567E-13
 -1      1963 1.99610E+01-2.85287E-03-2.97608E-04-2.54672E-02 3.47873E-14 2.68954E-13
 -1      1964 1.99610E+01-4.86870E-03 1.31352E-04-3.57185E-02 4.11897E-14 6.96720E-14
 -1      1965 1.99886E+01-1.29584E-03-1.19506E-05-2.10590E-02 1.73907E-14 2.86752E-13
 -1      1966 1.99793E+01-1.78741E-03-2.28509E-04-2.20164E-02-4.26708E-14 2.48625E-13
 -1      1967 1.99773E+01-3.15658E-03 9.58439E-05-3.05427E-02-2.00154E-14 7.93096E-14
 -1      1968 2.00037E+01-6.69548E-04-1.84633E-05-1.94087E-02-9.57546E-14 2.75070E-13
 -1      1969 1.99953E+01-9.75669E-04-1.75810E-04-1.99210E-02-8.62052E-15 2.55327E-13
 -1      1970 1.99917E+01-1.81439E-03 6.60904E-05-2.72169E-02-2.34154E-14 1.16920E-13
 -1      1971 2.00175E+01-5.21596E-04-6.38819E-05-1.83549E-02 5.32647E-14 2.89426E-13
 -1      1972 2.00098E+01-5.47137E-04-1.43675E-04-1.86919E-02-2.33242E-14 2.98669E-13
 -1      1973 2.00046E+01-1.02603E-03 4.70869E-05-2.51729E-02-2.53872E-14 2.96595E-13
 -1      1974 2.00299E+01-1.10519E-03-1.70887E-04-1.70095E-02 1.01828E-14 3.72471E-13
 -1      1975 2.00231E+01-7.04702E-04-1.37283E-04-1.75849E-02 2.39142E-14 3.39670E-13
 -1      1976 2.00164E+01-1.08036E-03 4.52477E-05-2.35453E-02-1.30817E-14 3.32036E-13
 -1      1977 2.00400E+01-2.78306E-03-3.68580E-04-1.40380E-02-3.80794E-14 3.33163E-13
 -1      1978 2.00348E+01-1.74969E-03-1.63059E-04-1.54756E-02-6.73811E-15 3.89255E-13
 -1      1979 2.00271E+01-2.40984E-03 6.92480E-05-2.10270E-02-3.40747E-14 3.19013E-13
 -1      1980 2.00460E+01-6.03402E-03-6.90975E-04-7.49890E-03-1.20779E-14 3.75072E-13
 -1      1981 2.00437E+01-4.09829E-03-2.28433E-04-1.07040E-02-3.14804E-14 3.59475E-13
 -1      1982 2.00359E+01-5.61800E-03 1.30821E-04-1.56859E-02-1.45537E-14 3.68508E-13
 -1      1983 2.00442E+01-1.14240E-02-1.17200E-03 5.30417E-03 9.30859E-14 1.99862E-13
 -1      1984 2.00474E+01-8.27425E-03-3.40885E-04-9.16296E-04 3.97053E-14 3.00831E-13
 -1      1985 2.00413E+01-1.14749E-02 2.45344E-04-4.76787E-03 5.99179E-14 2.67455E-13
 -1      1986 2.00293E+01-1.95111E-02-1.83515E-03 2.78822E-02 1.54733E-13 2.55608E-13
 -1      1987 2.00416E+01-1.48530E-02-5.06071E-04 1.70433E-02 1.01589E-13 2.02690E-13
 -1      1988 2.00405E+01-2.08453E-02 4.31821E-04 1.54568E-02 1.13161E-13 8.27739E-14
 -1      1989 1.99932E+01-3.06461E-02-2.67634E-03 6.44145E-02 1.30285E-13 2.17985E-13
 -1      1990 2.00201E+01-2.43222E-02-7.24919E-04 4.70926E-02 2.06192E-13 3.03849E-13
 -1      1991 2.00292E+01-3.44989E-02 7.11491E-04 4.96976E-02 1.43431E-13 2.21844E-13
 -1      1992 1.99257E+01-4.46365E-02-3.64020E-03 1.19225E-01-9.95111E-14 2.38954E-13
 -1      1993 1.99738E+01-3.68207E-02-9.89765E-04 9.35735E-02 6.45680E-14 2.24399E-13
 -1      1994 2.00011E+01-5.27468E-02 1.10364E-03 1.03331E-01 9.11192E-14 2.65367E-13
 -1      1995 1.98140E+01-6.02760E-02-4.59448E-03 1.95680E-01-1.20593E-13 2.13048E-13
 -1      1996 1.98914E+01-5.17345E-02-1.27980E-03 1.60424E-01-1.93359E-13 1.98585E-13
 -1      1997 1.99480E+01-7.48679E-02 1.61636E-03 1.81549E-01-9.70112E-14 2.22900E-13
 -1      1998 1.96447E+01-7.48366E-02-5.31393E-03 2.94382E-01 1.45280E-13 1.28778E-13
 -1      1999 1.97593E+01-6.71896E-02-1.55591E-03 2.49684E-01-1.51290E-14 1.48285E-13
 -1      2000 1.98594E+01-9.83694E-02 2.22968E-03 2.87728E-01-9.50889E-15 9.17902E-14
 -1      2001 1.94058E+01-8.37715E-02-5.49448E-03 4.10742E-01 1.43758E-13 2.45046E-13
 -1      2002 1.95637E+01-7.96006E-02-1.75430E-03 3.59295E-01 1.85640E-13 2.11094E-13
 -1      2003 1.97238E+01-1.18293E-01 2.86960E-03 4.20917E-01 1.10412E-13 1.97282E-13
 -1      2004 1.90908E+01-8.10570E-02-4.81913E-03 5.32508E-01-1.58734E-13 3.22421E-13
 -1      2005 1.92937E+01-8.36192E-02-1.78166E-03 4.80539E-01 4.11288E-14 3.14441E-13
 -1      2006 1.95304E+01-1.27030E-01 3.37625E-03 5.72694E-01 1.43262E-14 4.58720E-13
 -1      2007 1.87038E+01-6.06444E-02-3.08528E-03 6.38475E-01-1.11794E-13 3.55239E-13
 -1      2008 1.89459E+01-7.29511E-02-1.50592E-03 5.96041E-01-1.26274E-13 2.78947E-13
 -1      2009 1.92724E+01-1.15324E-01 3.48644E-03 7.24301E-01-1.18936E-13 5.13684E-13
 -1      2010 1.82647E+01-1.91953E-02-3.68393E-04 7.00141E-01 1.40027E-13 2.94715E-13
 -1      2011 1.85302E+01-4.24516E-02-7.71299E-04 6.79943E-01-4.79053E-14 3.05011E-13
 -1      2012 1.89519E+01-7.50420E-02 2.86960E-03 8.45838E-01-2.75970E-14 3.62761E-13
 -1      2013 1.78118E+01 4.06146E-02 2.87492E-03 6.87831E-01 2.18642E-13 2.79290E-13
 -1      2014 1.80751E+01 8.69920E-03 5.67715E-04 7.02024E-01 2.83133E-13 3.45342E-13
 -1      2015 1.85854E+01-3.64064E-03 1.24315E-03 8.99768E-01 1.54780E-13 2.18236E-13
 -1      2016 1.74002E+01 1.08102E-01 5.87381E-03 5.81030E-01 2.64372E-15 1.80698E-13
 -1      2017 1.76282E+01 7.40073E-02 2.54376E-03 6.36499E-01 1.12443E-13 2.43375E-13
 -1      2018 1.82076E+01 9.13780E-02-1.38711E-03 8.50325E-01 1.67919E-13 3.40597E-13
 -1      2019 1.70923E+01 1.66210E-01 7.82782E-03 3.79511E-01-5.08109E-14 1.01387E-13
 -1      2020 1.72512E+01 1.39183E-01 4.94829E-03 4.73476E-01-2.53608E-14 7.57272E-14
 -1      2021 1.78692E+01 1.90992E-01-4.52856E-03 6.77557E-01 4.10132E-15 1.58371E-13
 -1      2022 1.69421E+01 1.97496E-01 8.28363E-03 1.09158E-01 6.77496E-15 3.22030E-14
 -1      2023 1.70056E+01 1.85991E-01 7.25131E-03 2.27793E-01-5.23739E-14 1.19089E-15
 -1      2024 1.76277E+01 2.69061E-01-7.21186E-03 3.90470E-01 1.85832E-14 4.03300E-14
 -1      2025 1.69790E+01 1.92063E-01 7.35005E-03-1.82708E-01-1.57274E-13 1.71011E-13
 -1      2026 1.69357E+01 1.99712E-01 8.70630E-03-6.09116E-02-1.38327E-14 6.59630E-14
 -1      2027 1.75299E+01 3.02144E-01-8.41291E-03 3.11894E-02-5.97755E-14-4.48243E-14
 -1      2028 1.71972E+01 1.52599E-01 5.57988E-03-4.42367E-01-2.02139E-13 1.01260E-13
 -1      2029 1.70539E+01 1.76337E-01 8.65425E-03-3.39433E-01-2.18756E-13 1.48525E-13
 -1      2030 1.75959E+01 2.80297E-01-7.63525E-03-3.35206E-01-1.79305E-13 9.56647E-14
 -1      2031 1.75583E+01 9.28024E-02 3.62305E-03-6.27979E-01-3.98674E-14 3.72055E-14
 -1      2032 1.73375E+01 1.24580E-01 6.91312E-03-5.59109E-01-1.27532E-13-3.31987E-14
 -1      2033 1.78111E+01 2.11795E-01-5.28333E-03-6.42419E-01-8.92962E-14 9.27914E-15
 -1      2034 1.80041E+01 3.03506E-02 1.91986E-03-7.21385E-01 3.08879E-13-1.67496E-13
 -1      2035 1.77372E+01 6.11279E-02 3.90419E-03-6.91264E-01 1.44208E-13-2.51275E-14
 -1      2036 1.81323E+01 1.18872E-01-2.30530E-03-8.45050E-01 7.17013E-14-1.06180E-13
 -1      2037 1.84738E+01-2.10405E-02 5.57475E-04-7.28567E-01 3.69506E-13-1.30174E-13
 -1      2038 1.81933E+01 2.66949E-03 4.28342E-04-7.32530E-01 3.18243E-13-6.71173E-14
 -1      2039 1.85041E+01 2.68916E-02 3.09364E-04-9.29556E-01 2.39435E-13-5.37827E-14
 -1      2040 1.89178E+01-5.68851E-02-5.65278E-04-6.69924E-01-7.52003E-14 4.20770E-14
 -1      2041 1.86514E+01-4.11710E-02-2.63319E-03-6.98982E-01 2.34057E-13-5.22876E-14
 -1      2042 1.88753E+01-4.67380E-02 1.95007E-03-9.10705E-01 2.23224E-13 1.13122E-13
 -1      2043 1.93032E+01-8.28163E-02-1.61848E-03-5.66180E-01 8.75181E-14-1.84698E-13
 -1      2044 1.90714E+01-7.11069E-02-4.56930E-03-6.13330E-01-9.69069E-14-3.85542E-14
 -1      2045 1.92106E+01-9.85477E-02 2.63057E-03-8.17141E-01 3.10613E-14 1.01204E-13
 -1      2046 1.96137E+01-1.11692E-01-2.14167E-03-4.26266E-01 1.29985E-13-3.34951E-13
 -1      2047 1.94313E+01-9.66833E-02-4.43121E-03-4.91258E-01 8.07509E-14-2.35855E-13
 -1      2048 1.94953E+01-1.38480E-01 3.53904E-03-6.76436E-01 6.94867E-14-9.17708E-14
 -1      2049 1.98254E+01-1.32971E-01-2.63677E-03-2.62619E-01 8.65265E-14-3.26013E-13
 -1      2050 1.96957E+01-1.16529E-01-2.92559E-03-3.42061E-01 1.46218E-13-3.40436E-13
 -1      2051 1.96996E+01-1.74343E-01 9.47062E-05-5.07772E-01 1.35583E-13 1.73798E-13
 -1      2052 1.98518E+01-1.98761E-01-1.45961E-03-3.18997E-01-1.04997E-13 1.48473E-13
 -1      2053 2.01311E+01-8.31313E-01 9.62929E-03-3.56639E-01-1.78654E-13 1.09209E-13
 -1      2054 2.00731E+01-7.28868E-01-4.08838E-04-4.15877E-01-3.24873E-13 3.02571E-13
 -1      2055 2.00230E+01-6.18305E-01 6.31333E-03-4.52690E-01-1.02232E-13 2.56035E-13
 -1      2056 1.99613E+01-4.86801E-01-3.43964E-03-4.53688E-01-2.26845E-14 4.98852E-13
 -1      2057 2.00720E+01-6.16950E-01-1.31041E-03-5.36523E-01-1.90674E-13 8.19736E-14
 -1      2058 1.98921E+01-3.22490E-01 1.86013E-03-3.81147E-01-3.51468E-14 3.38923E-13
 -1      2059 2.02348E+01-9.47415E-01 1.33875E-02-1.27714E-01-2.35046E-13-4.88691E-13
 -1      2060 2.01816E+01-9.12316E-01 2.77838E-03-2.45181E-01-3.04705E-13-1.40804E-13
 -1      2061 2.02333E+01-8.05164E-01-4.10356E-03-3.71212E-01-3.76478E-13-7.09294E-14
 -1      2062 2.03187E+01-9.07834E-01 1.55211E-02 2.27349E-01 2.61989E-14-3.58567E-15
 -1      2063 2.02782E+01-9.76263E-01 5.45163E-03 5.70680E-02-1.28119E-13-2.04677E-13
 -1      2064 2.03820E+01-9.11252E-01-6.73021E-03-4.30824E-02-1.53486E-13-2.12825E-13
 -1      2065 2.03514E+01-6.57708E-01 1.38658E-02 6.62412E-01 8.96262E-14 3.80630E-13
 -1      2066 2.03421E+01-8.54254E-01 7.86751E-03 4.65491E-01-2.08469E-14 2.22471E-13
 -1      2067 2.04875E+01-8.82830E-01-9.83609E-03 4.27221E-01 1.50143E-13 3.26445E-14
 -1      2068 2.02939E+01-1.73936E-01 6.89474E-03 1.09057E+00-2.00702E-13-7.65542E-14
 -1      2069 2.03368E+01-4.95894E-01 9.65925E-03 9.12424E-01-1.21993E-13 6.77644E-14
 -1      2070 2.05017E+01-6.65531E-01-1.23845E-02 9.73664E-01-4.54380E-14 1.88037E-13
 -1      2071 2.01154E+01 5.14743E-01-5.18588E-03 1.37771E+00-3.15371E-13 1.48269E-14
 -1      2072 2.02241E+01 1.07517E-01 1.02362E-02 1.28273E+00-3.46015E-13 9.00217E-14
 -1      2073 2.03689E+01-2.23660E-01-1.28101E-02 1.47486E+00-3.70839E-13-2.16962E-14
 -1      2074 1.98260E+01 1.30572E+00-1.87137E-02 1.36952E+00-2.78496E-13-6.43676E-13
 -1      2075 1.99874E+01 8.93684E-01 8.33668E-03 1.42381E+00-3.76584E-13-7.89113E-14
 -1      2076 2.00596E+01 4.31565E-01-8.72647E-03 1.75466E+00-4.67207E-13-1.28188E-13
 -1      2077 1.95101E+01 2.00769E+00-2.78428E-02 9.72720E-01-5.60194E-14-4.18684E-13
 -1      2078 1.96710E+01 1.70200E+00 2.55409E-03 1.20080E+00-2.33280E-13-5.87578E-13
 -1      2079 1.96183E+01 1.20046E+00 9.02232E-04 1.63194E+00-2.21209E-13-4.70454E-13
 -1      2080 1.92971E+01 2.43285E+00-2.68162E-02 2.09149E-01 2.39629E-13 7.22866E-13
 -1      2081 1.93847E+01 2.31874E+00-6.73221E-03 5.79998E-01 1.12731E-13 2.99819E-13
 -1      2082 1.91888E+01 1.90319E+00 1.53071E-02 1.01409E+00 9.71298E-14-2.88172E-14
 -1      2083 1.93445E+01 2.40293E+00-1.26993E-02-6.92433E-01 5.03510E-13 8.79135E-13
 -1      2084 1.92801E+01 2.52914E+00-1.85301E-02-3.06650E-01 2.68841E-13 7.50830E-13
 -1      2085 1.89718E+01 2.31018E+00 2.62039E-02-7.71156E-03 5.32526E-13 8.11056E-13
 -1      2086 1.96886E+01 1.88737E+00-3.72904E-03-1.33886E+00 4.40502E-13 2.48351E-13
 -1      2087 1.94924E+01 2.22073E+00-2.40845E-02-1.12798E+00 3.98705E-13 3.87896E-13
 -1      2088 1.91644E+01 2.23501E+00 2.75330E-02-1.09779E+00 2.59233E-13 7.60943E-13
 -1      2089 1.97280E+01 1.78656E-01 1.26244E-02 3.26190E-01 3.98275E-14 3.63822E-13
 -1      2090 1.99825E+01 2.56154E-01 1.69791E-02 5.04338E-01 2.53374E-14 3.84149E-13
 -1      2091 2.01797E+01 4.15318E-01-3.96454E-04 7.31233E-01 3.04669E-14 3.12101E-13
 -1      2092 1.99099E+01 2.63866E-01-3.77607E-03 4.02031E-01 5.32491E-14 2.76944E-13
 -1      2093 1.30893E+01-4.64689E+00-7.43323E-02 8.21856E+00-3.03535E-13 6.93820E-13
 -1      2094 8.99834E+00-6.55988E+00-3.17901E-01 7.14218E+00-1.82632E-13 3.25684E-13
 -1      2095 3.15629E+01 1.29032E+00 2.41467E-01 7.31880E+00 1.77636E-13 6.25056E-13
 -1      2096 2.62143E+01-8.92871E-01-1.23123E-01 7.03872E+00-4.67404E-14 4.32432E-13
 -1      2097 1.95233E+01 4.01558E+00-2.57048E-02-1.70047E+00-8.21912E-15-8.67847E-14
 -1      2098 1.96520E+01 3.94220E+00-2.42885E-02-1.95582E+00-1.26444E-14-7.89160E-14
 -1      2099 1.99741E+01 3.25174E+00-8.23322E-03-1.90849E+00-1.71729E-14-6.55847E-14
 -1      2100 1.96938E+01 3.58265E+00-9.33681E-03-1.51694E+00-1.11846E-15-7.48342E-14
 -1      2101 3.59891E+01-3.88329E+00 1.02164E-01 2.09920E+00 4.27602E-13-1.82673E-13
 -1      2102 3.48323E+01-4.02525E+00 1.79366E-01-6.63531E-02 2.86299E-13-8.92619E-14
 -1      2103 3.82564E+01 4.16146E+00 1.83211E-01 4.21414E+00 5.73666E-13-3.81140E-13
 -1      2104 3.44393E+01 2.85665E+00 1.11261E-01 5.74832E+00 3.50220E-13 1.61982E-13
 -1      2105 3.32115E+01 4.26268E-01 1.98316E-01 4.03882E+00 1.51656E-13-3.27516E-15
 -1      2106 4.35634E+01 7.44455E+00 4.44616E-01 2.05878E+00 2.25486E-13 2.41696E-13
 -1      2107 3.99256E+01 6.46952E+00 1.34696E-01 2.69354E+00 3.77698E-13 2.55351E-15
 -1      2108 4.35131E+01 8.46233E+00 1.81298E-01-2.14891E-01 2.31093E-13 8.39051E-14
 -1      2109 4.39319E+01 8.11939E+00 3.06856E-01 1.32327E+00 3.82361E-13 1.75304E-13
 -1      2110 3.87824E+01 8.77187E+00 2.84185E-01 3.24690E-02 3.27127E-13 2.49051E-13
 -1      2111 4.11078E+01 7.60264E+00 9.37187E-02-1.69390E+00 3.00593E-13-4.74620E-14
 -1      2112 4.30531E+01 8.24004E+00 2.49397E-01-6.59826E-01 2.05280E-13 5.22221E-14
 -1      2113 3.75716E+01 4.55648E+00 1.12501E-01-4.15310E+00 4.22079E-13-1.64535E-13
 -1      2114 4.03483E+01 5.75844E+00 1.55840E-01-2.77507E+00 3.59462E-13 7.88258E-15
 -1      2115 3.08021E+01 1.42580E+00-3.48499E-02-6.55413E+00 4.51611E-13-3.14082E-13
 -1      2116 3.55599E+01 2.91431E+00 2.11993E-01-6.01879E+00 4.12892E-13-2.26041E-13
 -1      2117 2.28866E+01-2.00128E+00-1.53767E-01-7.45130E+00 2.29428E-13-4.83835E-13
 -1      2118 2.79504E+01 2.96646E-01 1.98185E-01-7.94564E+00 4.11671E-13-4.07230E-13
 -1      2119 3.07322E+01-9.24887E-01 1.66542E-01-5.21711E+00 3.43392E-13-3.05367E-13
 -1      2120 1.37330E+01-5.12150E+00-2.74597E-01-7.74465E+00-1.00808E-13-7.28528E-13
 -1      2121 1.85530E+01-3.16615E+00 2.66907E-02-8.57330E+00 8.42659E-14-6.69687E-13
 -1      2122 6.56010E+00-6.58203E+00-2.94366E-01-6.74111E+00-1.73028E-13-2.05141E-13
 -1      2123 1.01360E+01-4.98442E+00-7.68437E-02-7.84811E+00-1.18572E-13-6.92967E-13
 -1      2124 1.45998E+01-5.20573E+00-3.60023E-02-8.63939E+00-2.19047E-13-7.05408E-13
 -1      2125 8.96396E-01-7.79898E+00-3.96736E-01-3.94501E+00-4.05176E-13 7.79377E-14
 -1      2126 2.83157E+00-6.16845E+00-1.82662E-01-5.48292E+00-3.45390E-13 1.49936E-13
 -1      2127-6.02973E-01-8.27615E+00-4.10062E-01-1.14301E+00-4.12753E-13-2.48856E-13
 -1      2128-2.88051E-01-7.88540E+00-3.39391E-01-2.45277E+00-3.27405E-13-1.53599E-13
 -1      2129 1.48490E+00-4.59351E+00-1.61370E-01-3.76217E+00-2.73948E-13-2.05391E-15
 -1      2130 2.56958E+00-7.15194E+00-2.97896E-01 2.52726E+00-3.46001E-13-3.38174E-13
 -1      2131 4.26152E-01-8.23762E+00-4.79347E-01 8.05555E-01-3.59143E-13-4.04954E-13
 -1      2132 1.02048E+01-7.22422E+00-4.29170E-01 4.71142E+00-4.94382E-13 2.40565E-13
 -1      2133 6.01641E+00-8.16611E+00-5.63130E-01 3.66084E+00-3.67262E-13-1.51934E-13
 -1      2134 2.22666E+01-6.01469E+00-3.07675E-01 5.08996E+00-4.29656E-13-1.98563E-13
 -1      2135 1.49083E+01-7.51617E+00-7.14822E-01 4.27374E+00-5.84421E-13 3.89688E-14
 -1      2136 3.61578E+01-3.91213E+00-6.58486E-02 1.52404E+00-1.46660E-13-2.13607E-13
 -1      2137 2.89374E+01-5.48525E+00-4.69871E-01 2.28586E+00-2.65399E-13-3.23852E-13
 -1      2138 5.00179E+01 5.94945E+00 1.04061E+00 1.86923E-01-1.88405E-13-1.20737E-13
 -1      2139 5.07607E+01 6.02399E+00 1.22613E+00-9.40273E-01-3.74367E-13-7.72160E-14
 -1      2140 3.07339E+01-5.43971E+00-1.93314E-01-2.72979E+00 3.94351E-13-3.07532E-14
 -1      2141 3.58269E+01-4.11352E+00-1.28235E-01-1.26595E+00 4.62519E-13 8.60423E-14
 -1      2142 2.50032E+01-6.06602E+00-2.79730E-01-3.31436E+00 2.39919E-13-1.65257E-13
 -1      2143 1.05084E+01-7.90531E+00-6.21861E-01-4.42099E+00-1.59206E-13-5.11584E-13
 -1      2144 1.56982E+01-6.67945E+00-4.29938E-01-5.59542E+00-3.26406E-14-4.56302E-13
 -1      2145 3.18250E+00-8.71916E+00-5.84727E-01-2.81480E+00-4.53193E-13-1.26898E-13
 -1      2146 6.36018E+00-7.46529E+00-3.90376E-01-4.19124E+00-3.70814E-13-2.95708E-13
 -1      2147-9.59841E-02-8.57418E+00-4.39943E-01-2.52256E-01-5.09134E-13-3.27849E-13
 -1      2148 1.05758E+00-8.26668E+00-4.14728E-01-1.55087E+00-4.89220E-13 1.93567E-13
 -1      2149 4.02746E-01-6.66312E+00-2.06650E-01 2.96342E+00-2.74392E-13-4.41647E-13
 -1      2150-4.56230E-01-8.48475E+00-4.78036E-01 1.33591E+00-3.58213E-13-5.57998E-13
 -1      2151 9.79659E-01-4.85960E+00-1.94839E-01 8.86673E-02-5.10248E-13-2.39864E-13
 -1      2152 4.61323E+01 3.66430E+00 5.52779E-01 2.87313E+00 1.65645E-13-3.32789E-13
 -1      2153 4.41432E+01 1.93703E+00 2.50338E-01 3.77181E+00 2.68396E-13-3.06755E-13
 -1      2154 2.52969E+01-1.90481E+00 5.22159E-02-5.18778E+00-3.52635E-14-1.41526E-13
 -1      2155 2.65066E+01-3.42955E+00 6.71448E-02 6.59813E+00-2.05891E-13 4.59188E-13
 -1      2156 1.79381E+01-5.34761E+00-1.33706E-02 8.44448E+00-3.86802E-13 4.71380E-13
 -1      2157 2.07511E+01 1.12030E+00-2.41408E-02-1.63516E+00-4.52034E-14 9.89139E-15
 -1      2158 2.06389E+01 1.35010E+00-1.80255E-02-1.69752E+00-4.44211E-14-1.28023E-14
 -1      2159 4.12277E+01 6.62185E-01 2.36704E-01 2.78003E+00 3.71592E-13-1.94289E-13
 -1      2160 4.01088E+01-2.47926E+00 1.56158E-01 2.30757E+00 5.15823E-13 2.66454E-14
 -1      2161 4.48497E+01 1.42269E+00 4.79565E-01-4.13524E+00-4.97880E-13 4.32987E-14
 -1      2162 4.86089E+01 5.26625E+00 1.17058E+00-9.10317E-01-4.70957E-13 5.93969E-14
 -1      2163 4.85861E+00-3.54697E+00-6.08531E-03 5.88045E+00 5.84532E-14 2.74281E-13
 -1      2164 2.47357E+00-5.43946E+00-1.34920E-01 4.41533E+00-6.75016E-14-1.21514E-13
 -1      2165 2.87027E+00-2.79581E+00 1.30219E-01 3.60324E+00-1.31228E-13 4.80727E-14
 -1      2166 9.09940E+00-5.60254E+00-1.22959E-01 7.94290E+00 6.13953E-14 4.34680E-13
 -1      2167 3.51178E+01-4.36323E+00 1.36777E-01 1.70284E-01-1.18072E-13-9.58955E-14
 -1      2168 3.70116E+01-3.93757E+00 1.79253E-01-2.35938E+00-4.24799E-13-3.30291E-14
 -1      2169 3.96171E+01-3.50628E-02 1.25780E-01-5.04528E+00-3.87163E-13-7.21645E-16
 -1      2170 4.44680E+01 8.53963E-02 4.70103E-01-1.57979E+00-4.68181E-13 1.20570E-13
 -1      2171 2.99438E+01-4.93642E+00-6.35128E-02-2.87826E+00 2.62929E-13-2.11046E-13
 -1      2172 2.03805E+01 9.50782E-01-1.39386E-02-1.43353E+00 4.23533E-13-4.85945E-13
 -1      2173 1.98891E+01-3.48907E-01-2.62588E-04-5.12193E-01 7.62641E-14 4.30789E-13
 -1      2174 2.01113E+01 1.27976E+00 4.13119E-03-1.44264E+00 4.18986E-13-3.27774E-13
 -1      2175 1.99022E+01 1.62169E+00-1.69844E-02-1.52798E+00 4.52933E-13 3.40439E-17
 -1      2176 1.96228E+01 1.78787E+00 1.15944E-02-1.76873E+00 3.34057E-13 2.52865E-13
 -1      2177 2.03571E+01 1.22039E+00 1.90623E-02-1.94560E+00 4.00478E-13-3.40737E-13
 -1      2178 3.86581E+01-2.92269E+00 1.03155E-01-1.35367E+00-4.44256E-13 2.55351E-15
 -1      2179 3.56633E+01 5.52082E+00-1.70626E-01-3.91113E-01 1.14408E-13 7.57450E-14
 -1      2180 3.78447E+01 4.91363E+00 1.46533E-01 1.95640E+00 4.90746E-13-2.30482E-13
 -1      2181 3.49184E+01 3.28766E+00 5.83195E-02 8.21084E-01 4.06508E-13-3.06977E-13
 -1      2182 3.91658E+00-5.76624E+00-2.73258E-01-3.48948E+00-4.12281E-13-2.18603E-13
 -1      2183 2.84939E+01-6.30749E+00-1.11564E-01 2.96259E+00-3.39506E-13-2.34646E-13
 -1      2184 1.59999E+01-6.86314E+00-2.73506E-01 5.45482E+00-2.77389E-13 8.98309E-14
 -1      2185 1.28075E+00-4.77440E+00-1.85062E-01 4.41480E-01-2.94972E-13-2.55018E-13
 -1      2186 6.56948E+00-4.95525E+00-8.20284E-02-7.16744E+00-2.84772E-13-2.52465E-13
 -1      2187 2.30382E+01-4.08571E+00 2.28835E-02-7.53878E+00 2.09277E-14-5.14672E-13
 -1      2188 3.55165E+01 2.78704E+00 2.42555E-01-2.50068E+00 4.71317E-13-4.21885E-15
 -1      2189 3.87178E+01 9.38616E+00 2.34869E-01 1.12313E-01 2.51021E-13-4.58800E-14
 -1      2190 3.77004E+01 6.91205E+00 2.00423E-01-3.27674E-01 4.53249E-13-9.00391E-14
 -1      2191 6.45027E+00-5.75861E+00-2.20303E-01 4.23285E+00-1.59595E-13-1.56097E-13
 -1      2192 1.10966E+01-6.52190E+00-2.47783E-01-5.58607E+00-3.91687E-13-4.43590E-13
 -1      2193 1.95586E+01 3.51658E+00-1.11468E-02-5.91207E-01 4.52098E-14-1.46905E-14
 -1      2194 1.95944E+01 3.47061E+00-1.05295E-02-7.75475E-01 2.70260E-14-2.87418E-14
 -1      2195 1.96414E+01 3.38241E+00-1.28096E-02-9.39875E-01 2.34213E-14-3.95448E-14
 -1      2196 1.97026E+01 3.30174E+00-1.28631E-02-1.12905E+00 6.96828E-15-5.09853E-14
 -1      2197 1.97858E+01 3.03371E+00 1.58143E-04-7.91711E-01 3.63633E-14-1.67808E-14
 -1      2198 1.95109E+01 3.59931E+00-9.61887E-03 9.91299E-02 7.41259E-14 1.41467E-14
 -1      2199 1.95102E+01 3.60012E+00-9.62953E-03-8.02474E-02 6.93041E-14 7.72472E-15
 -1      2200 1.95372E+01 3.55991E+00-9.72080E-03 4.44952E-01 9.33194E-14 2.00413E-14
 -1      2201 1.95197E+01 3.58249E+00-1.01384E-02 2.64222E-01 8.64464E-14 1.28352E-14
 -1      2202 1.96770E+01 3.22218E+00-8.98287E-04 1.69212E-01 7.38689E-14 1.82133E-14
 -1      2203 1.95994E+01 3.46329E+00-1.06185E-02 7.88716E-01 1.05574E-13 4.18164E-14
 -1      2204 1.95629E+01 3.51036E+00-1.12131E-02 6.07358E-01 1.04234E-13 2.35541E-14
 -1      2205 1.97140E+01 3.15865E+00-5.02777E-04 4.87398E-01 8.93603E-14 2.84065E-14
 -1      2206 1.97108E+01 3.28933E+00-1.29460E-02 1.14185E+00 1.31804E-13 8.71326E-14
 -1      2207 1.96477E+01 3.37281E+00-1.28945E-02 9.52616E-01 1.18395E-13 6.54893E-14
 -1      2208 1.97915E+01 3.02497E+00 2.73796E-04 8.02796E-01 1.14643E-13 5.90101E-14
 -1      2209 1.98909E+01 3.00337E+00-1.81446E-02 1.48873E+00 1.31486E-13 1.04868E-13
 -1      2210 1.97908E+01 3.14453E+00-1.52726E-02 1.29851E+00 1.29484E-13 9.34851E-14
 -1      2211 1.99217E+01 2.79961E+00 2.02523E-03 1.10860E+00 1.24569E-13 9.00686E-14
 -1      2212 2.01680E+01 2.53734E+00-2.87116E-02 1.78522E+00 1.07218E-13 1.51509E-13
 -1      2213 2.00149E+01 2.78367E+00-1.81033E-02 1.62077E+00 1.21062E-13 1.17862E-13
 -1      2214 2.01175E+01 2.44822E+00 5.83285E-03 1.37651E+00 1.06236E-13 1.05601E-13
 -1      2215 2.05860E+01 1.79494E+00-2.65746E-02 1.88968E+00 7.52315E-14 2.32377E-13
 -1      2216 2.03647E+01 2.22515E+00-1.08164E-02 1.85192E+00 9.47194E-14 1.81896E-13
 -1      2217 2.03889E+01 1.91192E+00 1.40441E-02 1.53106E+00 8.95833E-14 1.58876E-13
 -1      2218 2.07933E+01 1.06702E+00-1.78336E-02 1.58974E+00 4.98247E-14 3.07959E-13
 -1      2219 2.06797E+01 1.53574E+00 8.77444E-04 1.79088E+00 6.46410E-14 2.64847E-13
 -1      2220 2.05053E+01 1.27996E+00 4.48662E-04 1.41945E+00 6.28421E-14 2.21271E-13
 -1      2221 2.04510E+01 7.43475E-01-1.84685E-03 1.11055E+00 4.63362E-14 2.82994E-13
 -1      2222 2.04163E+01 8.81231E-01 1.26091E-02-1.03049E+00-3.65350E-14-1.48256E-14
 -1      2223 2.02026E+01 6.46987E-01-4.72184E-03-7.14193E-01-3.36883E-14-9.18504E-15
 -1      2224 2.01385E+01 4.83755E-01 1.63957E-02-4.93483E-01-2.21841E-14 5.61899E-15
 -1      2225 1.99940E+01 3.55128E-01-1.34260E-04-3.17040E-01-2.31208E-14-2.71354E-15
 -1      2226 2.02530E+01 7.67488E-01-2.12693E-03-7.14646E-01-2.92921E-14-1.82825E-14
 -1      2227 1.99301E+01 2.67653E-01 1.10688E-02-1.76172E-01-3.47429E-14 7.38992E-15
 -1      2228 1.98490E+01 1.94221E-01 6.68437E-04-7.60833E-02-4.20315E-14 1.56641E-14
 -1      2229 2.00888E+01 4.28997E-01-3.74244E-03-3.23650E-01-3.19961E-14 1.07835E-15
 -1      2230 1.98038E+01 1.43424E-01 6.55128E-03 8.25178E-03-5.99475E-14 1.45806E-14
 -1      2231 1.97672E+01 9.99870E-02 7.18445E-04 6.33120E-02-6.68515E-14 2.67586E-14
 -1      2232 1.99661E+01 2.34757E-01-3.68094E-03-7.87409E-02-4.89804E-14 1.83447E-16
 -1      2233 1.97406E+01 6.93136E-02 3.68444E-03 1.10514E-01-4.43314E-14 2.94215E-14
 -1      2234 1.97325E+01 4.31030E-02 6.25957E-04 1.38153E-01-5.04116E-14 1.68432E-14
 -1      2235 1.98885E+01 1.19461E-01-2.96661E-03 6.60027E-02-5.51341E-14 4.23571E-15
 -1      2236 1.97203E+01 2.43565E-02 1.92084E-03 1.61342E-01-7.42409E-14 2.09372E-14
 -1      2237 1.97290E+01 8.65879E-03 5.02513E-04 1.72115E-01-5.32424E-14 4.99466E-15
 -1      2238 1.98475E+01 4.95348E-02-2.15337E-03 1.44828E-01-5.81463E-14-6.95082E-15
 -1      2239 1.97267E+01-2.60288E-03 8.32921E-04 1.80060E-01-4.39228E-14 2.05289E-14
 -1      2240 1.97447E+01-1.16189E-02 3.81355E-04 1.80590E-01-3.42667E-14 2.05817E-14
 -1      2241 1.98325E+01 7.26552E-03-1.45720E-03 1.81053E-01-5.74743E-14 3.46122E-14
 -1      2242 1.97486E+01-1.80194E-02 1.65969E-04 1.79175E-01-3.70783E-14-3.24949E-15
 -1      2243 1.97708E+01-2.27011E-02 2.77412E-04 1.73754E-01-2.55091E-15 8.14763E-15
 -1      2244 1.98344E+01-1.74373E-02-9.27401E-04 1.90387E-01-4.21237E-14 6.12243E-14
 -1      2245 1.97781E+01-2.59058E-02-2.28779E-04 1.66947E-01 2.30952E-14-4.83027E-14
 -1      2246 1.98013E+01-2.77751E-02 1.95889E-04 1.58397E-01 1.92642E-14-3.92067E-14
 -1      2247 1.98464E+01-3.07213E-02-5.48117E-04 1.83450E-01-1.66930E-14-1.37963E-14
 -1      2248 1.98103E+01-2.88939E-02-4.44216E-04 1.48857E-01 1.92341E-14-3.94170E-14
 -1      2249 1.98326E+01-2.89727E-02 1.36335E-04 1.39025E-01 1.32793E-14-8.69751E-14
 -1      2250 1.98637E+01-3.65574E-02-2.88087E-04 1.67418E-01 5.49874E-15-9.27243E-14
 -1      2251 1.98420E+01-2.87636E-02-5.41934E-04 1.28509E-01 1.06150E-14-7.80124E-14
 -1      2252 1.98623E+01-2.77464E-02 9.60741E-05 1.18582E-01 2.90916E-15-4.69935E-14
 -1      2253 1.98830E+01-3.76074E-02-1.17506E-04 1.47093E-01 1.34279E-14-4.26896E-14
 -1      2254 1.98714E+01-2.67285E-02-5.64103E-04 1.08218E-01 1.20347E-14-2.60000E-14
 -1      2255 1.98893E+01-2.50827E-02 7.22762E-05 9.89303E-02-8.92385E-15-8.40834E-15
 -1      2256 1.99024E+01-3.56819E-02-1.21778E-05 1.25624E-01 2.57958E-14-5.57854E-14
 -1      2257 1.98977E+01-2.36041E-02-5.39909E-04 8.94132E-02-2.35824E-14-1.06935E-16
 -1      2258 1.99131E+01-2.16324E-02 6.29557E-05 8.11986E-02-4.14585E-14 3.65801E-14
 -1      2259 1.99207E+01-3.20042E-02 4.63836E-05 1.05017E-01-1.34621E-14 1.08059E-14
 -1      2260 1.99207E+01-1.99138E-02-4.89521E-04 7.29368E-02-2.99878E-14 7.57987E-14
 -1      2261 1.99338E+01-1.77945E-02 6.74327E-05 6.60355E-02 4.93423E-15 7.39208E-14
 -1      2262 1.99374E+01-2.73717E-02 7.18382E-05 8.64987E-02-5.32589E-15 6.26743E-14
 -1      2263 1.99405E+01-1.59577E-02-4.26797E-04 5.92598E-02 5.12534E-14 1.35104E-13
 -1      2264 1.99517E+01-1.37699E-02 8.66977E-05 5.38041E-02 2.33482E-14 1.34617E-13
 -1      2265 1.99522E+01-2.22608E-02 7.40430E-05 7.07899E-02 5.69722E-14 1.97776E-13
 -1      2266 1.99576E+01-1.18543E-02-3.61293E-04 4.86540E-02-8.71220E-14 1.40188E-13
 -1      2267 1.99673E+01-9.59066E-03 1.23905E-04 4.47383E-02-5.38457E-14 1.30083E-13
 -1      2268 1.99655E+01-1.68915E-02 5.99869E-05 5.83161E-02-2.17540E-15 2.24021E-13
 -1      2269 1.99727E+01-7.55955E-03-2.99881E-04 4.13357E-02 1.70949E-14 1.01869E-13
 -1      2270 1.99816E+01-5.12572E-03 1.85180E-04 3.90808E-02 1.36403E-14 8.80521E-14
 -1      2271 1.99774E+01-1.12596E-02 3.46690E-05 4.93789E-02-3.39477E-14 2.05224E-13
 -1      2272 1.99867E+01-2.85904E-03-2.48240E-04 3.75999E-02-4.69138E-14 9.14784E-14
 -1      2273 1.99953E+01-5.77796E-05 2.80916E-04 3.72214E-02-7.98701E-14 7.83498E-14
 -1      2274 1.99885E+01-5.13638E-03 2.03162E-06 4.43080E-02-9.05380E-15 1.40637E-13
 -1      2275 2.00003E+01 2.67006E-03-2.12448E-04 3.79651E-02-7.17976E-14 8.38595E-14
 -1      2276 2.00095E+01 6.17624E-03 4.27756E-04 3.98587E-02 4.09034E-15 1.02687E-13
 -1      2277 1.99992E+01 1.97193E-03-3.38462E-05 4.36149E-02-5.62490E-14 4.49933E-14
 -1      2278 2.00148E+01 9.74126E-03-2.00992E-04 4.33554E-02 6.86073E-14 1.17381E-13
 -1      2279 2.00255E+01 1.44975E-02 6.51516E-04 4.82144E-02 9.30085E-14 8.14685E-14
 -1      2280 2.00103E+01 1.09178E-02-6.69236E-05 4.81719E-02 1.29615E-14-4.28392E-14
 -1      2281 2.00310E+01 1.95037E-02-2.27661E-04 5.53492E-02 7.73304E-14 6.63003E-14
 -1      2282 2.00447E+01 2.63745E-02 9.91281E-04 6.43381E-02 7.01908E-14 3.87011E-14
 -1      2283 2.00221E+01 2.30807E-02-8.60809E-05 5.94427E-02 3.38291E-14-3.77503E-14
 -1      2284 2.00504E+01 3.37801E-02-3.16012E-04 7.65411E-02 1.50069E-14-6.40377E-15
 -1      2285 2.00687E+01 4.41272E-02 1.50472E-03 9.15556E-02-4.98614E-14 4.33293E-14
 -1      2286 2.00349E+01 4.06461E-02-6.95353E-05 7.98022E-02 2.82562E-14-9.31535E-14
 -1      2287 2.00740E+01 5.54423E-02-5.06485E-04 1.11071E-01-7.60592E-14-4.03063E-14
 -1      2288 2.00991E+01 7.13965E-02 2.27406E-03 1.35127E-01-1.48916E-13 3.52072E-14
 -1      2289 2.00486E+01 6.70425E-02 2.52523E-05 1.12982E-01-7.71856E-14-1.02430E-13
 -1      2290 2.01025E+01 8.89828E-02-8.67858E-04 1.65391E-01-1.41860E-13 6.96452E-14
 -1      2291 2.01373E+01 1.13843E-01 3.41026E-03 2.03195E-01-4.75761E-14 1.70376E-13
 -1      2292 2.00616E+01 1.07605E-01 2.79542E-04 1.64688E-01-1.03025E-13 5.43242E-14
 -1      2293 2.01356E+01 1.41344E-01-1.51568E-03 2.49337E-01-3.46330E-14 1.32519E-13
 -1      2294 2.01833E+01 1.80123E-01 5.04813E-03 3.08080E-01 7.35492E-14 1.65303E-13
 -1      2295 2.00706E+01 1.70524E-01 8.44039E-04 2.43400E-01-4.85584E-14 2.71270E-13
 -1      2296 2.01699E+01 2.23021E-01-2.64205E-03 3.77540E-01 1.10576E-13 7.98150E-14
 -1      2297 2.02342E+01 2.83066E-01 7.31527E-03 4.67908E-01 1.91947E-14 6.72343E-14
 -1      2298 2.00674E+01 2.68099E-01 1.98766E-03 3.61333E-01 1.57702E-14 1.94724E-13
 -1      2299 2.01967E+01 3.49221E-01-4.56202E-03 5.71066E-01-4.20887E-14 5.17582E-14
 -1      2300 2.02800E+01 4.40599E-01 1.02439E-02 7.08268E-01-4.01242E-15 4.88273E-14
 -1      2301 2.00365E+01 4.18048E-01 4.16543E-03 5.35345E-01 5.70668E-14 1.52824E-13
 -1      2302 2.01961E+01 5.40208E-01-7.76886E-03 8.58833E-01 5.45250E-14 6.54186E-14
 -1      2303 2.02970E+01 6.74759E-01 1.36100E-02 1.06297E+00 6.79075E-14 6.61166E-14
 -1      2304 1.99477E+01 6.43959E-01 8.09508E-03 7.87306E-01 5.57740E-14 9.84913E-14
 -1      2305 2.01288E+01 8.17987E-01-1.29007E-02 1.27767E+00 7.38897E-14 1.75100E-13
 -1      2306 2.02380E+01 1.00414E+00 1.68668E-02 1.57167E+00 1.84115E-13 2.43333E-13
 -1      2307 1.97472E+01 9.72079E-01 1.48284E-02 1.14304E+00 1.02188E-13 9.91088E-14
 -1      2308 1.99267E+01 1.19188E+00-2.01399E-02 1.86888E+00 7.40697E-14 1.10862E-13
 -1      2309 2.00240E+01 1.41807E+00 2.00603E-02 2.27038E+00 1.45023E-15 6.10997E-14
 -1      2310 1.93453E+01 1.41737E+00 2.59058E-02 1.62888E+00-1.38873E-14 5.19194E-14
 -1      2311 1.94906E+01 1.61541E+00-2.64883E-02 2.66856E+00 4.54459E-14 2.39895E-14
 -1      2312 1.95547E+01 1.80730E+00 2.81090E-02 3.17006E+00 9.81507E-15 8.39272E-14
 -1      2313 1.86058E+01 1.94308E+00 4.41114E-02 2.26689E+00-8.97346E-14-5.36433E-14
 -1      2314 1.87289E+01 1.87729E+00-1.83611E-02 3.68763E+00 5.40921E-14 1.76630E-13
 -1      2315 1.87726E+01 1.80624E+00 5.70633E-02 4.22358E+00 1.05079E-13 2.35256E-13
 -1      2316 1.73577E+01 2.36231E+00 7.58542E-02 3.07770E+00 8.89458E-14 5.42951E-14
 -1      2317 1.77319E+01 1.44275E+00 4.05132E-02 4.83674E+00 3.59435E-14 2.52340E-13
 -1      2318 1.79774E+01 6.49433E-01 1.15435E-01 5.21274E+00 1.24185E-13 2.00742E-13
 -1      2319 1.55780E+01 2.17499E+00 1.49313E-01 4.06863E+00 3.00211E-14 5.58234E-14
 -1      2320 3.12703E+01-4.14635E+00 1.56903E-01 2.02583E+00-9.06220E-14-1.10113E-13
 -1      2321 3.05864E+01-5.56207E+00-2.93930E-02 2.08477E+00-1.44607E-13-1.50407E-13
 -1      2322 2.05469E+01 1.96831E+00-1.44552E-02-1.90964E+00-3.53034E-14-2.41543E-14
 -1      2323 2.04213E+01 1.24485E+00-6.62972E-03-1.31422E+00-3.40951E-14-1.35265E-14
 -1      2324 2.03792E+01 1.40408E+00 4.22832E-03-1.25396E+00-4.02499E-14-9.55399E-15
 -1      2325 2.02878E+01 2.37832E+00-7.73064E-03-1.83360E+00-2.75101E-14-3.37716E-14
 -1      2326 1.98169E+01-3.26630E-01-1.30915E-03-6.00076E-01 3.28361E-14 2.48820E-13
 -1      2327 1.98939E+01 1.48488E+00 4.15442E-02-4.65106E+00-2.42505E-13-3.76546E-13
 -1      2328 1.95867E+01 1.59300E+00-1.28216E-02-4.12081E+00-3.01341E-13-2.67567E-13
 -1      2329 2.02119E+01 1.54945E+00 2.64337E-02-3.58850E+00-3.00034E-13-1.03294E-14
 -1      2330 1.99532E+01 1.44477E+00-1.81422E-02-3.08051E+00-1.34563E-13-6.52299E-14
 -1      2331 1.82498E+01 2.08187E+00 5.99762E-02-3.68920E+00-1.54421E-13 1.34015E-13
 -1      2332 2.03872E+01 1.34844E+00 2.34204E-02-2.72399E+00 5.93900E-14-9.59658E-14
 -1      2333 2.01739E+01 1.27606E+00 2.00873E-03-2.24734E+00 2.80477E-13-9.92578E-14
 -1      2334 1.97766E+01 1.55856E+00 6.40301E-03-2.23751E+00 3.21474E-13 2.35476E-13
 -1      2335 1.92003E+01 1.85816E+00 3.73083E-02-2.88285E+00-1.96718E-14 6.42332E-13
 -1      2336 1.97001E+01 6.09431E-02 9.79313E-04-1.07990E-01 5.88142E-15 1.62044E-13
 -1      2337 1.97171E+01 9.14864E-02 5.02330E-03-7.06781E-02 3.99477E-14 1.54024E-13
 -1      2338 1.97532E+01 1.27119E-01 1.28812E-03-8.73523E-03 6.06880E-14 1.61249E-13
 -1      2339 1.98073E+01 1.78159E-01 8.85190E-03 6.24248E-02 7.37920E-14 1.74523E-13
 -1      2340 1.98822E+01 1.55002E-01-3.44677E-03-9.08233E-03 6.02750E-14 1.59180E-13
 -1      2341 1.98656E+01 2.40025E-01 1.72248E-03 1.69764E-01 8.21665E-14 1.83601E-13
 -1      2342 1.99692E+01 3.25070E-01 1.09586E-02 2.99448E-01 7.62654E-14 1.93964E-13
 -1      2343 1.99837E+01 2.92711E-01-4.19962E-03 1.76442E-01 8.54228E-14 1.66987E-13
 -1      2344 1.96878E+01 2.10041E-02 7.30214E-04-1.57379E-01-8.94320E-15 1.45465E-13
 -1      2345 1.96824E+01 3.93293E-02 2.67827E-03-1.40598E-01-1.58897E-14 1.41011E-13
 -1      2346 1.98257E+01 7.26301E-02-2.58921E-03-1.14430E-01 6.66668E-15 1.20132E-13
 -1      2347 1.97009E+01-2.85440E-03 5.23243E-04-1.75576E-01 1.91275E-14 1.64910E-13
 -1      2348 1.96829E+01 7.88780E-03 1.25661E-03-1.71301E-01 8.54114E-15 1.57533E-13
 -1      2349 1.98025E+01 2.28322E-02-1.78528E-03-1.67537E-01 1.46188E-14 1.18880E-13
 -1      2350 1.97283E+01-1.64368E-02 3.59032E-04-1.74733E-01 2.46232E-14 1.93933E-13
 -1      2351 1.97042E+01-1.05524E-02 3.91078E-04-1.77871E-01 1.00567E-14 1.76422E-13
 -1      2352 1.98014E+01-6.75886E-03-1.15099E-03-1.87446E-01 1.83524E-14 1.08814E-13
 -1      2353 1.97624E+01-2.33270E-02 2.35798E-04-1.62878E-01 3.49316E-14 2.52870E-13
 -1      2354 1.97364E+01-2.05925E-02-1.25801E-04-1.70115E-01 3.27631E-14 2.45740E-13
 -1      2355 1.98138E+01-2.34003E-02-6.89063E-04-1.86892E-01-1.03249E-14 1.81946E-13
 -1      2356 1.97984E+01-2.58640E-02 1.48451E-04-1.45343E-01 2.25303E-14 3.36653E-13
 -1      2357 1.97729E+01-2.51565E-02-4.16980E-04-1.54508E-01 4.60567E-14 3.05416E-13
 -1      2358 1.98333E+01-3.16140E-02-3.68758E-04-1.74436E-01-4.78959E-15 2.57306E-13
 -1      2359 1.98331E+01-2.56279E-02 9.03950E-05-1.25640E-01 4.19391E-14 2.85050E-13
 -1      2360 1.98095E+01-2.61881E-02-5.60638E-04-1.35322E-01 5.02147E-14 2.97767E-13
 -1      2361 1.98560E+01-3.43645E-02-1.55874E-04-1.55820E-01 5.27039E-14 2.72053E-13
 -1      2362 1.98649E+01-2.36993E-02 5.52243E-05-1.06021E-01-4.15910E-14 2.25047E-13
 -1      2363 1.98440E+01-2.50104E-02-6.09086E-04-1.15334E-01 2.84474E-14 2.76015E-13
 -1      2364 1.98790E+01-3.36552E-02-2.13503E-05-1.34842E-01 5.29365E-14 2.51817E-13
 -1      2365 1.98930E+01-2.08151E-02 3.74495E-05-8.78698E-02 2.55272E-14 1.59626E-13
 -1      2366 1.98749E+01-2.25277E-02-5.98136E-04-9.62851E-02-4.01958E-14 1.90013E-13
 -1      2367 1.99009E+01-3.08541E-02 5.74697E-05-1.13950E-01 1.63522E-14 2.20506E-13
 -1      2368 1.99173E+01-1.74703E-02 3.25285E-05-7.19758E-02 5.85515E-14 1.37394E-13
 -1      2369 1.99020E+01-1.93526E-02-5.52343E-04-7.92074E-02 7.34281E-14 1.11461E-13
 -1      2370 1.99207E+01-2.68915E-02 9.76521E-05-9.46509E-02 4.88813E-14 1.31460E-13
 -1      2371 1.99380E+01-1.39935E-02 3.64687E-05-5.87227E-02-6.23779E-14 1.36699E-13
 -1      2372 1.99251E+01-1.58932E-02-4.88319E-04-6.46488E-02-6.01645E-15 1.47402E-13
 -1      2373 1.99382E+01-2.23914E-02 1.11787E-04-7.78039E-02 1.41663E-14 9.95106E-14
 -1      2374 1.99556E+01-1.06076E-02 4.52500E-05-4.82194E-02 4.75305E-14 3.36032E-14
 -1      2375 1.99448E+01-1.24208E-02-4.16938E-04-5.28303E-02 1.46658E-14 7.57290E-14
 -1      2376 1.99534E+01-1.77704E-02 1.09050E-04-6.38266E-02 1.74492E-14 8.84551E-14
 -1      2377 1.99706E+01-7.48406E-03 5.40579E-05-4.03769E-02 2.65083E-14 3.45655E-14
 -1      2378 1.99615E+01-9.12701E-03-3.44868E-04-4.37461E-02 1.82251E-14 3.89946E-14
 -1      2379 1.99665E+01-1.33182E-02 9.60733E-05-5.28318E-02 6.35629E-14 8.30936E-14
 -1      2380 1.99837E+01-4.79583E-03 5.63425E-05-3.49397E-02-1.14238E-14 1.04083E-14
 -1      2381 1.99758E+01-6.17677E-03-2.75637E-04-3.72168E-02 3.71418E-15 2.19882E-14
 -1      2382 1.99779E+01-9.27071E-03 7.76251E-05-4.47071E-02 3.87194E-14 6.07020E-14
 -1      2383 1.99953E+01-2.77327E-03 4.26832E-05-3.14695E-02-8.15480E-14 1.12135E-13
 -1      2384 1.99883E+01-3.76229E-03-2.10341E-04-3.28952E-02-3.30052E-14 8.21625E-14
 -1      2385 1.99880E+01-5.88271E-03 5.71401E-05-3.91415E-02-5.98088E-14 6.72964E-14
 -1      2386 2.00060E+01-1.76517E-03-4.80708E-07-2.92806E-02-4.29071E-14 2.38698E-13
 -1      2387 1.99997E+01-2.16113E-03-1.48106E-04-3.02251E-02-8.01951E-14 1.65960E-13
 -1      2388 1.99973E+01-3.50450E-03 3.71311E-05-3.55999E-02-9.46441E-14 5.75111E-14
 -1      2389 2.00158E+01-2.30386E-03-9.20680E-05-2.73247E-02-5.98969E-14 3.20473E-13
 -1      2390 2.00103E+01-1.79964E-03-8.64075E-05-2.83505E-02-3.84557E-14 2.88263E-13
 -1      2391 2.00062E+01-2.66505E-03 1.95340E-05-3.32427E-02-1.06299E-13 2.05087E-13
 -1      2392 2.00249E+01-5.16651E-03-2.57105E-04-2.40231E-02-7.97217E-14 3.10995E-13
 -1      2393 2.00203E+01-3.31761E-03-2.13936E-05-2.59715E-02-3.12562E-14 3.33153E-13
 -1      2394 2.00149E+01-4.15780E-03 6.08610E-06-3.07876E-02-8.49055E-14 2.66033E-13
 -1      2395 2.00326E+01-1.14131E-02-5.26237E-04-1.70594E-02 2.06551E-14 3.20384E-13
 -1      2396 2.00297E+01-7.62175E-03 5.15131E-05-2.11521E-02-1.69308E-14 2.90719E-13
 -1      2397 2.00239E+01-9.11478E-03-1.09429E-06-2.63167E-02-4.24387E-14 2.33377E-13
 -1      2398 2.00380E+01-2.23636E-02-9.32742E-04-3.16128E-03 1.45909E-13 1.57926E-13
 -1      2399 2.00378E+01-1.59007E-02 1.36336E-04-1.10986E-02 7.01847E-14 2.19719E-13
 -1      2400 2.00331E+01-1.90376E-02 1.54369E-06-1.70421E-02 9.16729E-14 2.08872E-13
 -1      2401 2.00389E+01-3.94535E-02-1.50530E-03 2.20587E-02 9.09708E-14 7.93583E-14
 -1      2402 2.00435E+01-2.95538E-02 2.34020E-04 8.04489E-03 1.56366E-13 1.33682E-13
 -1      2403 2.00425E+01-3.57274E-02 2.08582E-05 9.30921E-04 1.49161E-13 1.71845E-13
 -1      2404 2.00324E+01-6.38817E-02-2.25448E-03 6.40816E-02 1.00927E-13 1.55872E-13
 -1      2405 2.00444E+01-4.99595E-02 3.38059E-04 4.12876E-02 2.93634E-14 7.96725E-14
 -1      2406 2.00515E+01-6.10251E-02 6.99859E-05 3.27596E-02 5.20965E-14 1.09457E-13
 -1      2407 2.00138E+01-9.59578E-02-3.15136E-03 1.29085E-01 3.72620E-14 2.57328E-13
 -1      2408 2.00370E+01-7.79920E-02 4.28057E-04 9.46116E-02 1.13895E-13 2.14207E-13
 -1      2409 2.00585E+01-9.62436E-02 1.72164E-04 8.47911E-02 5.33023E-14 1.32250E-13
 -1      2410 1.99768E+01-1.34095E-01-4.09927E-03 2.22906E-01-4.71309E-14 2.46984E-13
 -1      2411 2.00157E+01-1.13202E-01 4.62310E-04 1.74280E-01-3.24437E-14 3.20849E-13
 -1      2412 2.00610E+01-1.41180E-01 3.63729E-04 1.64030E-01-2.46393E-14 2.65076E-13
 -1      2413 1.99133E+01-1.73534E-01-4.90473E-03 3.49101E-01 2.61222E-14 1.85883E-13
 -1      2414 1.99730E+01-1.52657E-01 3.73404E-04 2.85343E-01 1.75424E-14 2.32296E-13
 -1      2415 2.00541E+01-1.92680E-01 6.91852E-04 2.76837E-01 1.60470E-14 2.05918E-13
 -1      2416 1.98133E+01-2.05189E-01-5.26351E-03 5.05942E-01 1.21514E-14 2.80748E-13
 -1      2417 1.98987E+01-1.89652E-01 7.60020E-05 4.29103E-01 1.80064E-15 1.74094E-13
 -1      2418 2.00305E+01-2.42955E-01 1.19884E-03 4.26527E-01-1.22946E-14 9.33666E-14
 -1      2419 1.96667E+01-2.15432E-01-4.79758E-03 6.82653E-01-1.28301E-13 3.79538E-13
 -1      2420 1.97812E+01-2.12865E-01-4.98455E-04 5.99544E-01 1.30010E-14 3.05730E-13
 -1      2421 1.99795E+01-2.78325E-01 1.88281E-03 6.09722E-01-4.79071E-14 1.49773E-13
 -1      2422 1.94658E+01-1.88070E-01-3.17001E-03 8.55977E-01-4.23854E-14 3.05226E-13
 -1      2423 1.96093E+01-2.07031E-01-1.34380E-03 7.79426E-01-9.00598E-14 4.11697E-13
 -1      2424 1.98878E+01-2.79629E-01 2.62381E-03 8.11840E-01-2.46138E-14 3.05466E-14
 -1      2425 1.92100E+01-1.09556E-01-2.92681E-04 9.89260E-01 8.88822E-14 1.31011E-13
 -1      2426 1.93767E+01-1.56351E-01-2.26550E-03 9.37779E-01 3.39258E-14 2.41669E-13
 -1      2427 1.97427E+01-2.25960E-01 3.11375E-03 1.00321E+00 1.33948E-14 3.54919E-14
 -1      2428 1.89115E+01 2.27465E-02 3.42186E-03 1.03699E+00 2.04778E-14 2.52185E-13
 -1      2429 1.90886E+01-5.13661E-02-2.84896E-03 1.03157E+00 4.60808E-14 1.31218E-13
 -1      2430 1.95379E+01-1.02681E-01 2.87344E-03 1.13867E+00 2.70437E-14 4.61641E-14
 -1      2431 1.86005E+01 1.92441E-01 6.99210E-03 9.57017E-01 1.36162E-13 2.47462E-13
 -1      2432 1.87681E+01 1.02232E-01-2.48978E-03 1.01456E+00 1.00041E-13 1.96466E-13
 -1      2433 1.92824E+01 8.73342E-02 1.40920E-03 1.16440E+00 4.58841E-14 4.41764E-14
 -1      2434 1.83244E+01 3.62225E-01 9.14950E-03 7.28690E-01 1.28551E-13 1.46786E-14
 -1      2435 1.84582E+01 2.77564E-01-7.13703E-04 8.53746E-01 2.24913E-13 2.36159E-13
 -1      2436 1.90076E+01 3.14935E-01-1.32653E-03 1.03440E+00 1.87159E-13 1.55759E-13
 -1      2437 1.81376E+01 4.83778E-01 9.01839E-03 3.69298E-01 6.70492E-14-4.10327E-15
 -1      2438 1.82153E+01 4.29981E-01 2.41729E-03 5.48136E-01 2.95293E-14 1.35829E-14
 -1      2439 1.87659E+01 5.26307E-01-4.55489E-03 7.33205E-01 1.44440E-13 1.47574E-13
 -1      2440 1.80838E+01 5.17844E-01 6.68415E-03-6.26092E-02-1.69491E-13-4.59854E-14
 -1      2441 1.80910E+01 5.12682E-01 6.01415E-03 1.39156E-01-2.81810E-14-3.87017E-15
 -1      2442 1.86163E+01 6.59880E-01-6.82358E-03 2.93520E-01-2.03340E-14 2.31292E-13
 -1      2443 1.81769E+01 4.54048E-01 3.25981E-03-4.83390E-01-1.86559E-13 1.15614E-13
 -1      2444 1.81126E+01 4.98420E-01 8.64291E-03-2.97157E-01-2.12984E-13 1.99552E-14
 -1      2445 1.85993E+01 6.72908E-01-6.91481E-03-2.05263E-01-2.12366E-13 1.59074E-13
 -1      2446 1.83940E+01 3.16566E-01 1.38607E-04-8.14778E-01-1.18880E-13 1.08343E-14
 -1      2447 1.82703E+01 3.94158E-01 9.06820E-03-6.76253E-01-1.05208E-13 5.86311E-14
 -1      2448 1.87171E+01 5.63429E-01-4.69422E-03-6.62596E-01-1.41841E-13 1.25055E-13
 -1      2449 1.86859E+01 1.50196E-01-1.74125E-03-1.01070E+00 1.75752E-13 5.90088E-15
 -1      2450 1.85238E+01 2.36523E-01 7.11807E-03-9.35914E-01 2.95139E-14-1.80072E-14
 -1      2451 1.89318E+01 3.69889E-01-1.51382E-03-9.95499E-01-1.34584E-14 1.56402E-13
 -1      2452 1.89963E+01-9.86908E-04-2.23840E-03-1.06641E+00 2.17802E-13 7.35392E-14
 -1      2453 1.88196E+01 7.26202E-02 3.61872E-03-1.05346E+00 2.57990E-13-3.39138E-16
 -1      2454 1.91856E+01 1.52204E-01 1.40833E-03-1.16515E+00 2.51945E-13 5.02685E-14
 -1      2455 1.92804E+01-1.11950E-01-1.96151E-03-1.00958E+00 1.42488E-13 2.37647E-13
 -1      2456 1.91094E+01-6.08688E-02-1.40528E-04-1.04441E+00 1.24072E-13 1.36656E-13
 -1      2457 1.94237E+01-3.71664E-02 2.98121E-03-1.18089E+00 1.36687E-13 1.04423E-13
 -1      2458 1.95147E+01-1.84073E-01-1.90944E-03-8.79469E-01 1.22258E-14 2.46139E-13
 -1      2459 1.93636E+01-1.51707E-01-2.99677E-03-9.45318E-01 1.14016E-13 3.74492E-13
 -1      2460 1.96139E+01-1.72725E-01 3.16422E-03-1.08411E+00 7.17022E-14 3.38935E-13
 -1      2461 1.96993E+01-2.37187E-01-3.74874E-03-7.08168E-01 3.81070E-14 1.27743E-13
 -1      2462 1.95699E+01-2.11389E-01-4.99013E-03-7.90830E-01-6.44850E-14 1.30765E-13
 -1      2463 1.97521E+01-2.60751E-01 3.26038E-03-9.21032E-01 9.03938E-14 4.45410E-13
 -1      2464 2.06575E+01-8.89317E-01 1.43943E-02 2.38783E-02 4.23368E-14 2.22141E-13
 -1      2465 2.05447E+01-8.84073E-01-1.91133E-03-1.88623E-01-1.21118E-13-1.11122E-13
 -1      2466 2.04320E+01-7.86065E-01 1.20124E-02-3.78903E-01-3.38340E-13-3.02647E-13
 -1      2467 2.03045E+01-7.28476E-01-3.75852E-03-5.08271E-01-3.37563E-13-1.11646E-14
 -1      2468 2.06443E+01-8.30939E-01-1.56949E-03-3.42049E-01-8.85702E-14-2.33190E-15
 -1      2469 2.01809E+01-6.14591E-01 8.53989E-03-6.03772E-01-1.88985E-13-1.05928E-13
 -1      2470 2.00551E+01-5.24877E-01-5.48172E-03-6.46410E-01 4.37135E-14-1.00388E-13
 -1      2471 2.03162E+01-6.43186E-01-2.54427E-03-6.39753E-01-1.14292E-13-1.64234E-13
 -1      2472 2.08116E+01-8.80865E-01 1.44798E-02 5.82883E-01 1.65988E-13 6.33547E-14
 -1      2473 2.07449E+01-9.52375E-01 8.72561E-04 3.07425E-01 1.72664E-13 7.27743E-14
 -1      2474 2.09185E+01-9.72658E-01-4.25543E-03 1.49941E-01 9.23307E-14 1.95364E-13
 -1      2475 2.08084E+01-7.04579E-01 9.80957E-03 1.22235E+00-1.27100E-13-7.15556E-14
 -1      2476 2.08347E+01-8.68814E-01 5.71636E-03 9.29577E-01 2.74158E-14 1.04943E-13
 -1      2477 2.10737E+01-1.01447E+00-8.14218E-03 8.11462E-01 1.22942E-13-1.15596E-13
 -1      2478 2.05544E+01-3.11431E-01-1.14674E-03 1.79845E+00-2.54274E-13-5.95782E-14
 -1      2479 2.07210E+01-5.68277E-01 1.24166E-02 1.56664E+00-2.22483E-13-1.84102E-14
 -1      2480 2.09907E+01-8.76488E-01-1.32485E-02 1.54738E+00-1.08173E-13-1.47655E-13
 -1      2481 2.00025E+01 3.09838E-01-1.66911E-02 2.09742E+00-2.63612E-13-9.01189E-15
 -1      2482 2.03221E+01-1.15758E-02 1.90973E-02 2.02968E+00-2.77122E-13-8.22211E-14
 -1      2483 2.05592E+01-4.75815E-01-1.64443E-02 2.17756E+00-1.74325E-13-6.90179E-14
 -1      2484 1.92513E+01 1.06861E+00-3.09953E-02 1.90027E+00-1.06576E-13-4.42432E-13
 -1      2485 1.96519E+01 7.53766E-01 2.18362E-02 2.07986E+00-1.33736E-13-3.41568E-13
 -1      2486 1.97613E+01 2.13015E-01-1.39830E-02 2.43892E+00-6.30674E-14-5.67651E-14
 -1      2487 1.85426E+01 1.80296E+00-3.38400E-02 1.08994E+00 3.64101E-13 4.10610E-13
 -1      2488 1.88772E+01 1.56651E+00 1.55984E-02 1.53970E+00 1.16780E-13-4.18172E-14
 -1      2489 1.87762E+01 1.09633E+00 6.56758E-04 2.07422E+00 9.37884E-14-4.70691E-14
 -1      2490 1.82659E+01 2.23192E+00-2.06929E-02-1.81753E-01 4.16607E-13 7.62763E-13
 -1      2491 1.83337E+01 2.15885E+00-1.75250E-03 4.20468E-01 4.66268E-13 6.41911E-13
 -1      2492 1.79809E+01 1.91404E+00 2.13083E-02 9.88842E-01 4.21345E-13 5.44799E-13
 -1      2493 1.87157E+01 2.16285E+00 1.21804E-02-1.47143E+00 1.18804E-13 5.31306E-13
 -1      2494 1.83902E+01 2.27589E+00-2.43574E-02-9.52035E-01 2.07890E-13 9.11473E-13
 -1      2495 1.78319E+01 2.31116E+00 2.71424E-02-5.65281E-01 2.58623E-13 5.70360E-13
 -1      2496 2.08758E+01-5.22538E+00-4.80580E-02 8.12952E+00-2.22822E-13 5.68313E-13
 -1      2497 1.68215E+01-5.27581E+00 7.34172E-02 8.38910E+00-1.59817E-13 6.49640E-13
 -1      2498 1.25784E+01-4.60389E+00 4.41917E-02 8.65353E+00 5.55667E-14 3.88772E-13
 -1      2499 8.91456E+00-4.04147E+00 1.32925E-01 7.63190E+00 2.58488E-13 3.47000E-13
 -1      2500 2.52105E+01-6.50178E+00-4.50781E-02-4.17007E+00 8.65419E-14-2.62401E-13
 -1      2501 3.28152E+01 4.27950E-01-6.81740E-02-1.76152E+00 3.86198E-13-2.35367E-14
 -1      2502 3.39701E+01 2.34709E+00-1.87956E-01-4.95018E-01 5.06081E-13 5.85088E-14
 -1      2503 1.95345E+01 3.25968E-01 2.67934E-02-5.65280E+00-3.21451E-13-7.06997E-13
 -1      2504 1.90630E+01 1.15211E+00 2.32401E-02-5.21022E+00-2.54016E-13-6.07368E-13
 -1      2505 1.68744E+01 1.78638E+00 1.13100E-01-4.73901E+00-1.87718E-13-3.18162E-13
 -1      2506 2.87989E+01-3.40538E+00-5.58054E-02 5.18845E+00-9.99478E-14 5.06872E-13
 -1      2507 2.52817E+01-4.67448E+00 3.54050E-02 6.27515E+00-1.25289E-13 5.01571E-13
 -1      2508 1.95176E+01 3.58546E+00-1.01045E-02-2.45318E-01 6.93507E-14-5.03330E-15
 -1      2509 1.95338E+01 3.56473E+00-9.67899E-03-4.25915E-01 5.70100E-14-1.33027E-14
 -1      2510 1.97101E+01 3.16419E+00-6.16868E-04-4.73088E-01 5.27285E-14 1.64452E-15
 -1      2511 1.96756E+01 3.22425E+00-9.27040E-04-1.52102E-01 5.86909E-14 4.15553E-15
 -1      2512 1.99268E+01-3.96361E-01 4.36220E-03-7.07091E-01-3.30033E-14 2.91341E-13
 -1      2513 4.88946E+00-2.95671E+00 1.36431E-01-3.22957E+00-2.70228E-13 4.26326E-14
 -1      2514 7.53505E+00-3.60251E+00 1.20185E-01-5.12410E+00-3.86302E-13-2.69451E-13
 -1      2515 3.31906E+01 1.31479E-01-9.46784E-02 2.17237E+00 4.11206E-13-2.10609E-13
 -1      2516 3.10380E+01-1.71891E+00-3.57249E-02 3.21777E+00 1.12611E-13 1.85074E-13
 -1      2517 3.47677E+01 5.28071E+00-7.24916E-02 4.76146E-01 4.13863E-13-7.16927E-14
 -1      2518 3.48685E+01 7.12326E+00-1.95339E-01 7.99483E-01 3.31846E-13-1.56181E-13
 -1      2519 3.52709E+01 8.47357E+00-1.59532E-01-4.37753E-01 3.21076E-13-1.92082E-13
 -1      2520 3.51213E+01 7.52082E+00-1.23260E-01-7.16937E-01 2.63012E-13-1.01696E-13
 -1      2521 1.10793E+01-4.15783E+00 2.34802E-02 5.91227E+00 2.06501E-14 1.14353E-13
 -1      2522 6.94862E+00-2.95390E+00 9.35612E-02 4.28978E+00 8.53206E-14-1.49436E-13
 -1      2523 3.46895E+01 8.70676E+00-1.78405E-01 3.56446E-01 3.03757E-13-1.63466E-13
 -1      2524 3.53958E+01 9.07441E+00-1.13026E-01-2.97766E-02 2.71116E-13-7.03257E-14
 -1      2525 3.26488E+01 8.50158E+00-1.07598E-01-4.47923E-01 3.29903E-13-2.81393E-13
 -1      2526 2.91804E+01-2.61566E+00-2.86560E-02-4.36164E+00 2.08694E-13-1.86962E-13
 -1      2527 3.16528E+01-1.19654E+00-9.30116E-02-3.26682E+00 2.38434E-13-1.26676E-13
 -1      2528 3.16764E+01-9.28794E-01 1.32529E-02-1.24798E+00 2.49776E-13-4.55191E-15
 -1      2529 2.19689E+01-4.90899E+00 5.35868E-02-7.36129E+00-9.68114E-14-5.45161E-13
 -1      2530 2.61699E+01-4.06836E+00-3.81083E-02-6.43405E+00 9.71168E-14-3.44835E-13
 -1      2531 1.40121E+01-4.60115E+00 1.04342E-01-8.46288E+00-2.04642E-13-7.38548E-13
 -1      2532 1.74060E+01-4.82589E+00-1.60423E-02-8.65451E+00-2.34368E-13-8.27630E-13
 -1      2533 6.26415E+00-3.12694E+00 1.38872E-01-6.55727E+00-2.44943E-13-9.53126E-14
 -1      2534 9.86320E+00-3.81192E+00 5.16279E-02-8.20978E+00-1.06803E-13-5.13395E-13
 -1      2535 2.43691E+00-2.53617E+00 1.15267E-01-2.55351E+00-2.79776E-13-1.05138E-13
 -1      2536 3.39178E+00-2.40056E+00 7.94924E-02-4.56260E+00-2.78444E-13 2.33702E-14
 -1      2537 1.06490E+01-4.73368E+00-6.84622E-02-5.67024E+00-3.52551E-13-6.19838E-13
 -1      2538 1.54823E+01-5.48229E+00-1.00747E-01-6.36081E+00-3.10252E-13-8.08048E-13
 -1      2539 3.55484E+00-2.44452E+00 1.02482E-01 2.16983E+00-9.58400E-14-1.57541E-13
 -1      2540 2.25292E+00-2.44320E+00 8.90789E-02-4.11914E-01-1.94900E-13-1.72751E-13
 -1      2541 3.95025E+00-8.12147E-01 1.47485E-01-1.11003E+00-1.94646E-13-9.59788E-14
 -1      2542 2.29091E+01-5.31814E+00 6.03208E-02 5.41966E+00-1.07803E-13-5.00294E-15
 -1      2543 1.76531E+01-4.83891E+00 4.74575E-02 5.73310E+00 4.21885E-15 1.51740E-13
 -1      2544 4.01453E+01-2.00208E+00 3.07151E-01-2.93978E-01-4.11809E-13-1.09912E-13
 -1      2545 2.27759E+01-5.13973E+00 9.90816E-02-5.16881E+00-1.12688E-14-4.39824E-13
 -1      2546 2.71039E+00-2.07515E+00 1.55951E-01 7.04462E-01-3.34198E-13-3.45612E-13
 -1      2547 3.16742E+00-2.59237E+00 9.59726E-02-1.48872E+00-4.14085E-13-8.31557E-14
 -1      2548 1.75559E+01-3.00486E+00 1.46750E-01 5.90977E+00 9.95315E-14 1.23901E-13
 -1      2549 2.19763E+01-3.85175E+00 1.87249E-01-5.66877E+00-4.85723E-14-5.81660E-13
 -1      2550 1.99116E+01 2.81337E+00 1.14236E-03-1.09819E+00 7.83781E-15-4.93186E-14
 -1      2551 1.97817E+01 3.16157E+00-1.47269E-02-1.28603E+00 1.56472E-15-6.48500E-14
 -1      2552 1.98786E+01 3.02591E+00-1.69831E-02-1.47540E+00-3.51195E-15-7.52098E-14
 -1      2553 2.03336E+01 5.90021E-01 9.12582E-03 8.70413E-01 3.77927E-14 2.58514E-13
 -1      2554 2.03946E+01 8.35920E-01 6.82471E-03 1.04648E+00 4.64368E-14 2.23820E-13
 -1      2555 2.01635E+01 4.88687E-01 7.90222E-03 6.61630E-01 3.88682E-14 2.47763E-13
 -1      2556 7.89099E+00-3.03354E+00 1.06055E-01 6.85171E+00 2.59764E-13 5.47146E-13
 -1      2557 7.41285E+00-1.33779E+00 2.30293E-01 5.85403E+00 1.93581E-13 5.73763E-13
 -1      2558 1.09863E+01-2.54006E+00 9.83442E-02 7.33206E+00 3.79238E-13 5.50837E-13
 -1      2559 5.37559E+00-5.75817E-01 1.70979E-01 3.30446E+00 5.73291E-14 1.95954E-13
 -1      2560 3.83165E+00-1.47561E+00 1.78687E-01 2.03818E+00-1.55986E-13-8.40439E-14
 -1      2561 5.20021E+00 1.12710E-01 1.70678E-01 6.60184E-01-1.88422E-13-7.84373E-14
 -1      2562 1.67533E+01-9.83940E-01 1.47308E-01 5.86491E+00 1.71016E-13 1.04666E-13
 -1      2563 7.30309E+00-1.43623E+00 1.19313E-01 3.64788E+00 1.40998E-13-1.53766E-14
 -1      2564 2.41361E+01-5.12970E+00 7.49256E-02 6.65684E+00-7.66054E-14 6.52436E-13
 -1      2565 1.99805E+01-4.16381E-01-2.09680E-03-7.89043E-01 8.14782E-14 1.29285E-13
 -1      2566 1.07664E+01-2.95342E+00-7.12569E-02-5.78134E+00-2.68174E-13-6.16729E-13
 -1      2567 1.93303E+01 1.79224E+00-2.43360E-02-2.04251E+00 2.03434E-13 5.24197E-13
 -1      2568 1.60762E+01-4.56616E+00 1.04757E-01 8.41026E+00 9.99201E-14 5.21597E-13
 -1      2569 1.86451E+01 2.02474E+00-1.36344E-03-2.02349E+00 1.34119E-13 5.34624E-13
 -1      2570 2.00046E+01 3.64983E-01 8.24591E-03 3.92265E-01 6.48622E-14 1.96473E-13
 -1      2571 2.00989E+01 4.32942E-01 1.17001E-02 5.34739E-01 5.16063E-14 2.22565E-13
 -1      2572 2.01867E+01 5.65421E-01-3.11537E-03 6.52122E-01 6.09556E-14 1.82128E-13
 -1      2573 2.00863E+01 4.37051E-01-5.38395E-03 4.06932E-01 7.58495E-14 1.78365E-13
 -1      2574 3.35696E+01 6.12191E+00-9.57549E-02-9.44500E-01 1.85768E-13-3.10085E-13
 -1      2575 6.55467E+00-1.65704E+00 1.71677E-01-5.65717E+00-1.29563E-13-2.09111E-13
 -1      2576 1.99852E+01 2.84558E+00-1.51553E-02-1.58836E+00-1.22068E-14-6.87332E-14
 -1      2577 2.01314E+01 2.62027E+00-2.19132E-02-1.75503E+00-1.73991E-14-5.22533E-14
 -1      2578 2.02779E+01 2.06897E+00 1.00573E-03-1.49535E+00-3.91744E-14-3.53125E-14
 -1      2579 2.00810E+01 2.49889E+00 2.42673E-03-1.34346E+00-7.85526E-15-6.00769E-14
 -1      2580 5.93037E+00-1.19429E+00 1.17314E-01-2.73813E+00-2.92696E-13-1.28730E-13
 -1      2581 1.31471E+01-3.48022E+00 1.46756E-01-8.20667E+00-9.55902E-14-6.33382E-13
 -1      2582 2.81261E+01-3.89574E+00 2.63101E-02-4.42346E+00 4.08562E-14-1.08386E-13
 -1      2583 3.30575E+01 1.11555E+00-6.61732E-02 1.95422E-01 3.87135E-13-1.39833E-13
 -1      2584 3.33323E+01 7.71681E+00-1.27161E-01 9.22822E-01 3.55993E-13-7.34551E-14
 -1      2585 3.09932E+01 8.01468E+00-1.76413E-01 9.04235E-01 3.66845E-13-8.50500E-14
 -1      2586 3.12845E+01 6.52838E+00-1.41174E-01 1.43356E+00 4.24327E-13-4.58938E-14
 -1      2587 1.61268E+01-9.90487E-01 1.28639E-01-5.89882E+00-2.66398E-13-8.79546E-13
 -1      2588 1.25136E+01 1.97092E-01 2.51237E-01-5.19363E+00-1.16934E-13-5.11785E-13
 -1      2589 2.99655E+01-3.16884E+00 2.52504E-02 3.13104E+00 1.03563E-13 3.19106E-13
 -1      2590 3.29291E+01 3.34347E+00-4.32244E-02 8.71916E-01 4.10644E-13 7.23588E-14
 -1      2591 2.11820E+01-4.84849E+00 9.71689E-02-7.49348E+00-1.60150E-13-5.93092E-13
 -1      2592 3.83365E+01-3.54930E+00-4.43933E-01-4.31681E+00-5.70669E-13 4.04121E-14
 -1      2593 1.98435E+01 2.76587E+00-6.30165E-03 5.15472E-01 9.31383E-14 3.66911E-14
 -1      2594 1.98186E+01 2.81563E+00-5.70847E-03 3.64747E-01 8.20784E-14 3.56878E-14
 -1      2595 1.98015E+01 2.85317E+00-5.61950E-03 2.29415E-01 8.09216E-14 2.89014E-14
 -1      2596 1.97930E+01 2.87005E+00-5.43236E-03 7.49432E-02 6.79453E-14 2.65215E-14
 -1      2597 1.99479E+01 2.50197E+00 3.62951E-03 2.64686E-01 8.43293E-14 2.91946E-14
 -1      2598 2.00431E+01 2.32424E+00-1.09505E-02 1.04449E+00 1.17368E-13 8.51309E-14
 -1      2599 1.99783E+01 2.47398E+00-6.37415E-03 9.09198E-01 1.23530E-13 8.34758E-14
 -1      2600 2.02064E+01 1.91445E+00-1.65111E-02 1.23293E+00 9.36816E-14 1.05059E-13
 -1      2601 2.01246E+01 2.14709E+00-4.78329E-03 1.13074E+00 1.04765E-13 8.92546E-14
 -1      2602 2.01895E+01 1.89171E+00 7.75201E-03 9.26360E-01 1.03246E-13 8.06608E-14
 -1      2603 2.04450E+01 1.01314E+00 2.22293E-03 1.15309E+00 5.56100E-14 1.98319E-13
 -1      2604 2.04017E+01 1.27494E+00-7.16664E-03 1.26552E+00 7.25999E-14 1.71446E-13
 -1      2605 2.03151E+01 8.46535E-01 6.14527E-03 8.97748E-01 5.41190E-14 1.88255E-13
 -1      2606 1.65758E+01 2.36039E+00 1.70329E-02-3.09563E+00 1.32446E-15-7.80990E-14
 -1      2607 1.71930E+01 2.27478E+00-2.27887E-02-2.69569E+00 5.79909E-14 1.73651E-13
 -1      2608 2.03260E+01 1.08862E+00 5.72488E-03-8.79048E-01-1.63263E-14-2.05476E-14
 -1      2609 2.02333E+01 8.37206E-01-5.78251E-03-6.32792E-01-8.09292E-15-1.64739E-14
 -1      2610 2.43090E+01-6.25383E+00-7.32611E-02 4.58560E+00-2.34923E-13-7.99083E-14
 -1      2611 2.50614E+01-4.93427E+00-8.75892E-02 4.64255E+00-1.23512E-14-3.36120E-14
 -1      2612 2.02237E+01 6.44936E-01 8.60795E-03-4.52095E-01-1.49073E-14-1.46707E-14
 -1      2613 2.01381E+01 4.89019E-01-3.47847E-03-2.90050E-01-3.65723E-14-1.42034E-14
 -1      2614 2.02642E+01 9.15912E-01 1.69918E-04-5.88129E-01-1.42046E-14-1.69155E-14
 -1      2615 2.01122E+01 3.73412E-01 6.68257E-03-1.67678E-01-5.28898E-14-1.10683E-14
 -1      2616 2.00519E+01 2.76527E-01-1.82467E-03-6.74046E-02-4.99546E-14-1.64143E-14
 -1      2617 2.01994E+01 5.43568E-01-1.67604E-03-2.72773E-01-4.29793E-14-1.33210E-14
 -1      2618 2.00256E+01 2.04631E-01 4.61260E-03 9.91902E-03-4.02797E-14-3.16628E-15
 -1      2619 1.99889E+01 1.43726E-01-8.58876E-04 6.82860E-02-4.62406E-14-3.28974E-15
 -1      2620 2.01301E+01 3.08449E-01-2.09016E-03-6.14923E-02-4.33491E-14-9.11971E-15
 -1      2621 1.99676E+01 9.85694E-02 2.96618E-03 1.13100E-01-5.05524E-14 1.87475E-14
 -1      2622 1.99489E+01 6.04200E-02-3.09373E-04 1.43763E-01-5.87611E-14 2.88294E-14
 -1      2623 2.00728E+01 1.59008E-01-1.90948E-03 6.93945E-02-3.82460E-14 3.18855E-14
 -1      2624 1.99336E+01 3.22934E-02 1.78136E-03 1.66267E-01-5.54193E-14 6.25155E-14
 -1      2625 1.99273E+01 8.93930E-03-6.06535E-06 1.78987E-01-3.69559E-14 8.82438E-14
 -1      2626 2.00309E+01 6.45434E-02-1.53340E-03 1.42984E-01-4.20082E-14 7.63904E-14
 -1      2627 1.99172E+01-8.01006E-03 9.60603E-04 1.86761E-01-4.99768E-14 8.92513E-14
 -1      2628 1.99188E+01-2.15575E-02 1.52970E-04 1.88218E-01-3.53538E-14 5.65901E-14
 -1      2629 2.00028E+01 6.07786E-03-1.15091E-03 1.77542E-01-4.36309E-14 1.23401E-13
 -1      2630 1.99128E+01-3.10644E-02 4.11210E-04 1.86737E-01-5.71388E-14 3.65319E-14
 -1      2631 1.99191E+01-3.80887E-02 2.28913E-04 1.81498E-01-5.97133E-14-1.72582E-14
 -1      2632 1.99856E+01-2.83959E-02-8.25141E-04 1.86621E-01-6.98707E-14 9.42677E-14
 -1      2633 1.99160E+01-4.26470E-02 5.80643E-05 1.74620E-01-1.37768E-14-2.23189E-14
 -1      2634 1.99247E+01-4.53774E-02 2.57723E-04 1.65784E-01 2.20102E-14-1.62389E-14
 -1      2635 1.99764E+01-4.68333E-02-5.70367E-04 1.79977E-01-5.49486E-14 8.36923E-14
 -1      2636 1.99235E+01-4.66978E-02-1.56123E-04 1.56166E-01 4.54253E-14-2.23665E-14
 -1      2637 1.99331E+01-4.66717E-02 2.60569E-04 1.45807E-01 1.65687E-14-1.67663E-14
 -1      2638 1.99725E+01-5.46503E-02-3.80623E-04 1.64451E-01 4.09413E-14 2.62811E-14
 -1      2639 1.99332E+01-4.59376E-02-2.74361E-04 1.35231E-01 4.50642E-14 9.04645E-15
 -1      2640 1.99428E+01-4.42124E-02 2.50410E-04 1.24701E-01 5.29190E-14 1.93988E-14
 -1      2641 1.99722E+01-5.55901E-02-2.44469E-04 1.44731E-01 5.03826E-14 2.90002E-14
 -1      2642 1.99437E+01-4.22340E-02-3.28521E-04 1.14328E-01 2.97006E-14 3.23617E-14
 -1      2643 1.99527E+01-3.95212E-02 2.35695E-04 1.04481E-01 4.89755E-15 9.26245E-14
 -1      2644 1.99742E+01-5.22351E-02-1.50280E-04 1.23940E-01 6.28249E-14 2.35015E-14
 -1      2645 1.99541E+01-3.68345E-02-3.42031E-04 9.50357E-02 1.42392E-14 1.54187E-13
 -1      2646 1.99623E+01-3.35881E-02 2.22368E-04 8.63908E-02 6.87159E-14 1.98317E-13
 -1      2647 1.99774E+01-4.63305E-02-8.79573E-05 1.04096E-01 7.13250E-14 1.10451E-13
 -1      2648 1.99640E+01-3.05210E-02-3.32125E-04 7.83101E-02 5.79472E-14 1.73800E-13
 -1      2649 1.99714E+01-2.69956E-02 2.15100E-04 7.11756E-02 6.78016E-14 2.03597E-13
 -1      2650 1.99814E+01-3.89972E-02-4.91599E-05 8.64531E-02 4.46299E-14 2.24235E-13
 -1      2651 1.99732E+01-2.37105E-02-3.11763E-04 6.47209E-02 3.43115E-14 1.83143E-13
 -1      2652 1.99799E+01-1.99977E-02 2.18104E-04 5.92919E-02-3.22671E-14 1.99107E-13
 -1      2653 1.99857E+01-3.08737E-02-2.69883E-05 7.17774E-02 4.87945E-14 1.77444E-13
 -1      2654 1.99817E+01-1.65152E-02-2.91347E-04 5.46380E-02-4.77284E-14 2.29906E-13
 -1      2655 1.99879E+01-1.25581E-02 2.35835E-04 5.10785E-02-1.28185E-14 1.78267E-13
 -1      2656 1.99902E+01-2.22030E-02-1.53586E-05 6.05510E-02-2.03335E-14 1.91874E-13
 -1      2657 1.99897E+01-8.76024E-03-2.80402E-04 4.83894E-02-4.61063E-14 1.65260E-13
 -1      2658 1.99957E+01-4.34706E-03 2.73621E-04 4.69082E-02-5.59373E-14 1.37290E-13
 -1      2659 1.99947E+01-1.28708E-02-8.07951E-06 5.31445E-02-6.97130E-14 2.07279E-13
 -1      2660 1.99973E+01 4.11342E-05-2.89443E-04 4.64070E-02-9.08129E-14 9.96282E-14
 -1      2661 2.00034E+01 5.31162E-03 3.38259E-04 4.73383E-02-9.99291E-14 9.84268E-15
 -1      2662 1.99990E+01-2.39040E-03 2.50414E-06 4.99634E-02-1.38023E-13 1.26632E-13
 -1      2663 2.00045E+01 1.07702E-02-3.32324E-04 4.93788E-02-5.84363E-15-3.91916E-14
 -1      2664 2.00110E+01 1.75585E-02 4.38454E-04 5.32790E-02 3.56989E-15-2.10727E-14
 -1      2665 2.00029E+01 1.01739E-02 2.76310E-05 5.15891E-02-5.88635E-14-1.15786E-14
 -1      2666 2.00112E+01 2.48603E-02-4.29415E-04 5.84284E-02 1.84476E-14 6.21763E-14
 -1      2667 2.00183E+01 3.42051E-02 5.84788E-04 6.62023E-02 4.85413E-14 2.27574E-14
 -1      2668 2.00057E+01 2.63660E-02 8.55738E-05 5.89258E-02 4.97562E-14 7.92576E-14
 -1      2669 2.00167E+01 4.45589E-02-6.12139E-04 7.53402E-02 5.75078E-14 4.49161E-15
 -1      2670 2.00246E+01 5.80649E-02 7.88493E-04 8.84119E-02-2.28026E-14-2.63235E-14
 -1      2671 2.00064E+01 4.86067E-02 2.07366E-04 7.33656E-02 2.82333E-14 9.34550E-14
 -1      2672 2.00193E+01 7.33371E-02-9.29457E-04 1.02848E-01-5.15269E-14-4.12740E-14
 -1      2673 2.00276E+01 9.34542E-02 1.05755E-03 1.23392E-01-4.50238E-14-1.41789E-14
 -1      2674 2.00025E+01 8.06117E-02 4.46336E-04 9.69719E-02-2.73864E-14 5.01677E-14
 -1      2675 2.00156E+01 1.16493E-01-1.45699E-03 1.44995E-01-6.99693E-14 8.90312E-14
 -1      2676 2.00234E+01 1.46912E-01 1.38723E-03 1.76231E-01-6.41740E-14 7.64859E-14
 -1      2677 1.99898E+01 1.28001E-01 8.93790E-04 1.32664E-01-1.44875E-14 1.68079E-13
 -1      2678 1.99990E+01 1.81999E-01-2.30937E-03 2.07536E-01-4.44897E-14 1.17273E-13
 -1      2679 2.00035E+01 2.28166E-01 1.73987E-03 2.54068E-01-7.12307E-15 1.93231E-13
 -1      2680 1.99608E+01 1.99138E-01 1.70412E-03 1.84335E-01-2.19664E-14 7.99879E-14
 -1      2681 1.99574E+01 2.81571E-01-3.65637E-03 2.98287E-01-4.00413E-14 2.13520E-13
 -1      2682 1.99529E+01 3.51246E-01 2.00505E-03 3.66408E-01-5.22054E-15 1.06125E-13
 -1      2683 1.99020E+01 3.06154E-01 3.13287E-03 2.56766E-01-5.93270E-15 9.43773E-14
 -1      2684 1.98693E+01 4.31760E-01-5.74363E-03 4.27192E-01 4.45068E-14 1.12787E-13
 -1      2685 1.98440E+01 5.35353E-01 1.92984E-03 5.24935E-01 4.94665E-14 1.11192E-13
 -1      2686 1.97906E+01 4.65946E-01 5.58966E-03 3.55025E-01-1.87505E-14 8.40443E-14
 -1      2687 1.96972E+01 6.54316E-01-8.91861E-03 6.05658E-01 5.34146E-14 8.83141E-14
 -1      2688 1.96294E+01 8.04208E-01 1.02878E-03 7.42185E-01 9.83053E-14 1.04222E-13
 -1      2689 1.95884E+01 7.00425E-01 9.70387E-03 4.82883E-01 8.90000E-15-1.39814E-14
 -1      2690 1.93783E+01 9.73784E-01-1.36416E-02 8.44518E-01 6.98103E-14 5.88200E-14
 -1      2691 1.92302E+01 1.18074E+00-1.39637E-03 1.02824E+00 2.71909E-14-7.20561E-16
 -1      2692 1.92331E+01 1.03421E+00 1.64146E-02 6.39616E-01 5.52862E-14-5.02879E-14
 -1      2693 1.88114E+01 1.40744E+00-2.03389E-02 1.15025E+00-8.90374E-15-2.26033E-14
 -1      2694 1.85225E+01 1.66997E+00-5.54180E-03 1.38539E+00-1.35964E-13-1.35984E-13
 -1      2695 1.86265E+01 1.48584E+00 2.72192E-02 8.15007E-01-2.51141E-14-7.50862E-14
 -1      2696 1.78417E+01 1.93728E+00-2.84119E-02 1.52116E+00-1.47600E-13-7.01780E-14
 -1      2697 1.73273E+01 2.21555E+00-8.08748E-03 1.80495E+00-3.27819E-14-6.51692E-14
 -1      2698 1.76194E+01 2.04482E+00 4.52069E-02 9.84516E-01-7.39335E-14-7.99972E-14
 -1      2699 1.62491E+01 2.44648E+00-3.18730E-02 1.95186E+00 4.51739E-14 1.71391E-15
 -1      2700 1.54094E+01 2.59651E+00 3.86778E-03 2.28572E+00 4.00686E-14 6.04378E-14
 -1      2701 1.59943E+01 2.61953E+00 7.82576E-02 1.11218E+00 1.17326E-14-6.50816E-14
 -1      2702 1.38204E+01 2.59144E+00-1.50998E-02 2.45350E+00 2.32522E-14-2.08861E-14
 -1      2703 1.25888E+01 2.27058E+00 3.90902E-02 2.87114E+00-1.18690E-14-1.19904E-14
 -1      2704 1.35272E+01 2.92801E+00 1.42414E-01 1.16083E+00-3.82073E-15-8.58549E-14
 -1      2705 2.03145E+01 1.71328E+00-7.03632E-03-1.31001E+00-4.15774E-14-1.86669E-14
 -1      2706 2.03015E+01 1.32962E+00-2.97531E-03-1.04074E+00-3.65472E-14-2.60572E-14
 -1      2707 2.02808E+01 1.40143E+00 1.06733E-03-9.40748E-01-1.89344E-14-1.74660E-14
 -1      2708 2.02209E+01 1.97052E+00-8.45383E-04-1.27501E+00-2.59827E-14-4.01458E-14
 -1      2709 2.09323E+01-8.60303E-01 1.07496E-02-3.39956E-01 1.44575E-13 2.25646E-13
 -1      2710 2.07299E+01-7.93851E-01-5.99034E-03-5.31041E-01 8.75839E-14-1.20580E-14
 -1      2711 3.11357E+01 6.25837E+00-2.22754E-01-1.59983E+00 3.00288E-13-4.34819E-13
 -1      2712 3.21184E+01 4.44987E+00-9.96724E-02-1.52252E+00 1.98119E-13-2.35700E-13
 -1      2713 1.81952E+01 2.12171E+00-1.51892E-02-2.24415E+00 7.04367E-14 3.96092E-13
 -1      2714 1.99854E+01 1.89711E-01-1.01860E-03-1.30566E-02 5.46244E-14 1.29489E-13
 -1      2715 2.00338E+01 2.62343E-01 5.94761E-03 6.27798E-02 8.61033E-14 1.42073E-13
 -1      2716 1.99345E+01 9.07465E-02-3.88585E-04-1.14448E-01 1.43543E-14 9.32387E-14
 -1      2717 1.99602E+01 1.36164E-01 3.82974E-03-7.24747E-02 2.30919E-14 1.15770E-13
 -1      2718 2.00729E+01 2.13226E-01-2.19479E-03-1.56892E-02 6.17386E-14 7.49430E-14
 -1      2719 2.00651E+01 3.47978E-01-1.89364E-03 1.61698E-01 7.73662E-14 1.50402E-13
 -1      2720 2.01425E+01 4.61810E-01 8.01274E-03 2.88099E-01 8.15808E-14 1.50227E-13
 -1      2721 2.01412E+01 3.91496E-01-2.35549E-03 1.53095E-01 8.53189E-14 1.07893E-13
 -1      2722 1.98955E+01-8.04727E-03 1.35862E-04-1.86564E-01-4.25968E-15 1.33143E-13
 -1      2723 1.98950E+01 8.71279E-03 1.30977E-03-1.80626E-01 1.43522E-14 1.32108E-13
 -1      2724 1.98956E+01-2.92721E-02 2.18230E-04-1.86318E-01-5.75073E-14 1.91837E-13
 -1      2725 1.98889E+01-2.00218E-02 6.18597E-04-1.88922E-01-2.07151E-14 1.57375E-13
 -1      2726 1.99700E+01-1.30879E-02-9.93022E-04-1.86504E-01-4.60909E-14 1.65409E-13
 -1      2727 1.99025E+01-3.98468E-02 2.48818E-04-1.74163E-01-1.30369E-14 2.09910E-13
 -1      2728 1.98926E+01-3.55672E-02 1.69374E-04-1.81605E-01-5.54221E-14 1.64025E-13
 -1      2729 1.99602E+01-3.71786E-02-6.81955E-04-1.86290E-01-4.35001E-14 1.40722E-13
 -1      2730 1.99130E+01-4.34333E-02 2.51651E-04-1.55787E-01 6.88280E-14 1.54314E-13
 -1      2731 1.99019E+01-4.23894E-02-1.08722E-04-1.65574E-01 6.88340E-14 1.69972E-13
 -1      2732 1.99569E+01-4.89072E-02-4.48439E-04-1.74195E-01 2.56661E-14 1.14939E-13
 -1      2733 1.99252E+01-4.25604E-02 2.40401E-04-1.35001E-01 3.83788E-14 1.36120E-13
 -1      2734 1.99139E+01-4.35528E-02-2.68066E-04-1.45492E-01 4.49714E-14 1.12112E-13
 -1      2735 1.99579E+01-5.25329E-02-2.79862E-04-1.55891E-01 7.24358E-14 6.77393E-14
 -1      2736 1.99375E+01-3.89762E-02 2.23058E-04-1.14281E-01-6.06667E-15 1.52521E-13
 -1      2737 1.99269E+01-4.11786E-02-3.47071E-04-1.24429E-01 1.43833E-14 1.77933E-13
 -1      2738 1.99613E+01-5.10064E-02-1.62147E-04-1.35197E-01-5.97476E-15 1.46284E-14
 -1      2739 1.99492E+01-3.38776E-02 2.04380E-04-9.51589E-02 6.32981E-14 1.16419E-13
 -1      2740 1.99396E+01-3.67276E-02-3.73492E-04-1.04331E-01 9.11397E-14 1.09997E-13
 -1      2741 1.99660E+01-4.63689E-02-8.28409E-05-1.14603E-01 5.58514E-14 2.31909E-14
 -1      2742 1.99600E+01-2.80725E-02 1.86916E-04-7.85157E-02 3.01945E-14 6.27951E-14
 -1      2743 1.99515E+01-3.11929E-02-3.66977E-04-8.63640E-02 1.79416E-14 8.60472E-14
 -1      2744 1.99713E+01-4.00172E-02-3.18952E-05-9.56526E-02 6.26120E-14 1.96094E-14
 -1      2745 1.99696E+01-2.21057E-02 1.71533E-04-6.47820E-02 3.78221E-15 1.15802E-13
 -1      2746 1.99622E+01-2.52420E-02-3.40930E-04-7.11554E-02 1.65935E-14 1.26187E-13
 -1      2747 1.99765E+01-3.28963E-02-1.60069E-06-7.92353E-02-3.61988E-17 4.44883E-14
 -1      2748 1.99782E+01-1.63650E-02 1.57487E-04-5.40765E-02 7.67458E-14 1.28222E-13
 -1      2749 1.99717E+01-1.93319E-02-3.03835E-04-5.89619E-02 3.76650E-14 1.51751E-13
 -1      2750 1.99816E+01-2.56508E-02 1.36562E-05-6.57864E-02 3.04274E-14 1.07079E-13
 -1      2751 1.99859E+01-1.11784E-02 1.42248E-04-4.62842E-02 3.79087E-14 1.81520E-13
 -1      2752 1.99802E+01-1.38096E-02-2.60118E-04-4.97773E-02 6.90979E-14 1.68238E-13
 -1      2753 1.99865E+01-1.87549E-02 1.75663E-05-5.54238E-02 3.12060E-14 1.44978E-13
 -1      2754 1.99930E+01-6.91172E-03 1.21078E-04-4.10795E-02-5.79354E-14 8.94293E-14
 -1      2755 1.99879E+01-9.00863E-03-2.10586E-04-4.33828E-02 3.97419E-14 1.58923E-13
 -1      2756 1.99911E+01-1.26331E-02 1.19924E-05-4.80245E-02 4.68152E-14 1.95046E-13
 -1      2757 1.99998E+01-4.07154E-03 8.63952E-05-3.78970E-02-7.22602E-14 4.99414E-14
 -1      2758 1.99951E+01-5.34890E-03-1.52538E-04-3.93436E-02-1.06902E-13 4.91865E-14
 -1      2759 1.99957E+01-7.78269E-03-3.07589E-06-4.32440E-02-4.40660E-14 1.31046E-13
 -1      2760 2.00068E+01-3.41711E-03 2.69918E-05-3.58435E-02-1.82470E-13 1.39928E-13
 -1      2761 2.00024E+01-3.44386E-03-7.96453E-05-3.69502E-02-1.52240E-13 7.54760E-14
 -1      2762 2.00007E+01-4.90341E-03-2.96693E-05-4.04803E-02-1.61153E-13 7.23209E-14
 -1      2763 2.00144E+01-6.07395E-03-7.27758E-05-3.35515E-02-8.73529E-14 1.99872E-13
 -1      2764 2.00101E+01-4.21450E-03 1.82173E-05-3.51010E-02-1.05727E-13 1.55208E-13
 -1      2765 2.00065E+01-5.03591E-03-7.19607E-05-3.87783E-02-1.85825E-13 8.49325E-14
 -1      2766 2.00232E+01-1.36296E-02-2.33517E-04-2.89738E-02 1.84730E-14 9.30859E-14
 -1      2767 2.00191E+01-8.99787E-03 1.54809E-04-3.21219E-02-6.35401E-14 1.64934E-13
 -1      2768 2.00142E+01-9.69718E-03-1.36091E-04-3.66700E-02-2.92391E-14 3.53537E-14
 -1      2769 2.00340E+01-2.81672E-02-4.80504E-04-1.91320E-02 1.43453E-13 8.50340E-14
 -1      2770 2.00302E+01-1.96198E-02 3.46395E-04-2.55304E-02 1.08710E-13 1.08588E-13
 -1      2771 2.00248E+01-2.09827E-02-2.29192E-04-3.19500E-02 8.02318E-14-1.98778E-14
 -1      2772 2.00475E+01-5.21573E-02-8.41540E-04 1.42641E-04 1.26422E-13 1.09902E-13
 -1      2773 2.00442E+01-3.83722E-02 6.08624E-04-1.17636E-02 1.50090E-13 1.18032E-13
 -1      2774 2.00402E+01-4.15722E-02-3.56801E-04-2.13968E-02 1.31705E-13 1.08148E-13
 -1      2775 2.00643E+01-8.80844E-02-1.34135E-03 3.43936E-02 6.19287E-14 1.31053E-13
 -1      2776 2.00623E+01-6.77943E-02 9.49981E-04 1.40719E-02 8.47160E-14 1.60812E-13
 -1      2777 2.00623E+01-7.45291E-02-5.17563E-04-4.74814E-04 6.86034E-14 7.40778E-14
 -1      2778 2.00848E+01-1.37646E-01-1.99008E-03 9.04977E-02-2.44344E-14 1.12730E-13
 -1      2779 2.00852E+01-1.10115E-01 1.36027E-03 5.83144E-02 3.42289E-14 8.78913E-14
 -1      2780 2.00937E+01-1.22733E-01-6.94206E-04 3.68984E-02 5.81348E-14 5.89071E-14
 -1      2781 2.01080E+01-2.00361E-01-2.76295E-03 1.76147E-01-6.36199E-14 1.26050E-13
 -1      2782 2.01127E+01-1.66183E-01 1.79334E-03 1.28520E-01-4.05275E-14 1.41788E-13
 -1      2783 2.01366E+01-1.87735E-01-8.40772E-04 9.83529E-02-6.66353E-14-2.06946E-14
 -1      2784 2.01311E+01-2.71537E-01-3.56895E-03 2.98501E-01 8.29869E-14 3.39448E-14
 -1      2785 2.01429E+01-2.33765E-01 2.14616E-03 2.32578E-01 5.77093E-14 6.12833E-14
 -1      2786 2.01921E+01-2.67866E-01-8.69234E-04 1.92545E-01 7.25385E-14 5.03612E-14
 -1      2787 2.01474E+01-3.39855E-01-4.21094E-03 4.61587E-01-7.67999E-14-5.76529E-14
 -1      2788 2.01704E+01-3.05268E-01 2.24277E-03 3.76732E-01-2.90837E-17 1.94232E-15
 -1      2789 2.02583E+01-3.55581E-01-6.44905E-04 3.27667E-01 3.62714E-14-4.45770E-14
 -1      2790 2.01460E+01-3.85499E-01-4.35065E-03 6.62153E-01-4.70571E-14 6.12673E-14
 -1      2791 2.01851E+01-3.65425E-01 1.84515E-03 5.62084E-01-1.01554E-13 1.51481E-14
 -1      2792 2.03280E+01-4.34527E-01-8.78535E-06 5.08407E-01-1.04413E-13-1.32055E-13
 -1      2793 2.01109E+01-3.80679E-01-3.55452E-03 8.84223E-01-4.73809E-14 1.27371E-14
 -1      2794 2.01713E+01-3.90278E-01 7.29961E-04 7.79457E-01-8.65643E-15 2.37034E-14
 -1      2795 2.03865E+01-4.77730E-01 1.14647E-03 7.30898E-01-6.26676E-14 3.75567E-14
 -1      2796 2.00246E+01-2.95112E-01-1.44362E-03 1.09402E+00-5.19440E-14 8.58079E-14
 -1      2797 2.01091E+01-3.49818E-01-1.20717E-03 1.00353E+00 1.85409E-15 9.08362E-14
 -1      2798 2.04111E+01-4.49491E-01 2.69404E-03 9.75874E-01-6.59724E-14 2.56947E-13
 -1      2799 1.98745E+01-1.08220E-01 1.99368E-03 1.23869E+00 6.67445E-14 1.67307E-13
 -1      2800 1.99813E+01-2.16483E-01-3.63112E-03 1.18910E+00-4.18726E-14 6.14407E-14
 -1      2801 2.03750E+01-3.14179E-01 4.10233E-03 1.20234E+00 1.13019E-14 3.10163E-13
 -1      2802 1.96644E+01 1.73199E-01 5.98311E-03 1.25419E+00 6.29969E-14 4.17923E-14
 -1      2803 1.97836E+01 1.93236E-02-5.73955E-03 1.27411E+00 5.56871E-14 7.06591E-14
 -1      2804 2.02579E+01-5.32610E-02 4.48136E-03 1.34636E+00 7.90906E-14 2.26496E-13
 -1      2805 1.94244E+01 5.00962E-01 8.94580E-03 1.08627E+00 9.91682E-14 2.72310E-13
 -1      2806 1.95377E+01 3.31811E-01-6.25072E-03 1.19536E+00 7.33472E-14 8.70249E-14
 -1      2807 2.00629E+01 3.12537E-01 2.81746E-03 1.33261E+00 6.75227E-14 1.89106E-13
 -1      2808 1.92106E+01 7.89269E-01 9.22758E-03 7.20490E-01 7.01606E-14 3.63731E-13
 -1      2809 1.92952E+01 6.52423E-01-4.16789E-03 9.16565E-01 1.22105E-13 3.56476E-13
 -1      2810 1.98298E+01 7.10961E-01-7.84186E-04 1.10304E+00 6.36317E-14 1.74040E-13
 -1      2811 1.90880E+01 9.45065E-01 6.25982E-03 2.04791E-01-1.64641E-13 4.57344E-13
 -1      2812 1.91239E+01 8.86490E-01 3.33431E-04 4.57330E-01-7.67398E-16 4.05493E-13
 -1      2813 1.96312E+01 1.03115E+00-4.72024E-03 6.54488E-01-4.50312E-14 3.60971E-13
 -1      2814 1.90984E+01 9.13396E-01 1.22055E-03-3.56124E-01-1.78111E-13 3.66790E-13
 -1      2815 1.90773E+01 9.53947E-01 5.47081E-03-9.87317E-02-1.73479E-13 3.72140E-13
 -1      2816 1.95411E+01 1.16777E+00-6.49604E-03 6.09907E-02-8.85072E-14 3.81571E-13
 -1      2817 1.92366E+01 7.09474E-01-3.39191E-03-8.38594E-01-1.22444E-13 2.15248E-13
 -1      2818 1.91657E+01 8.31726E-01 8.77391E-03-6.29587E-01-1.12480E-13 2.01666E-13
 -1      2819 1.95934E+01 1.07322E+00-4.89950E-03-5.43694E-01-8.67297E-14 2.91594E-13
 -1      2820 1.94506E+01 4.09138E-01-5.87881E-03-1.15420E+00 1.23344E-13-5.91222E-14
 -1      2821 1.93488E+01 5.69566E-01 8.72095E-03-1.02636E+00-6.84982E-14 9.51727E-14
 -1      2822 1.97583E+01 7.87343E-01-9.22261E-04-1.02124E+00 1.58053E-14 9.69486E-14
 -1      2823 1.96729E+01 1.04192E-01-5.65480E-03-1.27458E+00 3.43436E-13-7.04574E-15
 -1      2824 1.95634E+01 2.55443E-01 5.86800E-03-1.23437E+00 2.07261E-13 6.87014E-14
 -1      2825 1.99628E+01 4.09751E-01 2.98310E-03-1.29153E+00 8.09058E-14-1.10724E-13
 -1      2826 1.98467E+01-1.34340E-01-3.64256E-03-1.23022E+00 7.76107E-14 1.79625E-13
 -1      2827 1.97485E+01-2.32607E-02 1.81157E-03-1.26001E+00 2.56574E-13 6.73340E-14
 -1      2828 2.01303E+01 5.02231E-02 5.12902E-03-1.34667E+00 2.34603E-13 1.83069E-13
 -1      2829 1.99484E+01-2.85695E-01-1.83967E-03-1.08154E+00 2.11193E-14 2.12559E-13
 -1      2830 1.98720E+01-2.19215E-01-1.72369E-03-1.15477E+00 5.36461E-15 9.82724E-14
 -1      2831 2.02144E+01-2.18717E-01 4.59307E-03-1.24150E+00 9.39077E-14 2.15005E-13
 -1      2832 2.00039E+01-3.82700E-01-1.41030E-03-8.88626E-01 9.45511E-14 2.23567E-13
 -1      2833 1.99497E+01-3.40904E-01-3.75028E-03-9.83820E-01 1.31814E-13 3.98415E-13
 -1      2834 2.02323E+01-3.89154E-01 3.43576E-03-1.05283E+00-1.17417E-14-4.55365E-14
 -1      2835 2.01972E+01-4.85731E-01 5.51683E-03-8.38208E-01 1.89651E-13-7.13605E-14
 -1      2836 2.14874E+01-1.13791E+00 1.35420E-02 9.66503E-01 1.75240E-13-1.78709E-13
 -1      2837 2.14170E+01-1.17281E+00-3.85599E-03 5.98631E-01 2.48623E-13-9.82187E-14
 -1      2838 1.86015E+01-4.42567E+00-1.53219E-02 7.90418E+00 1.94428E-13 5.53516E-13
 -1      2839 1.52024E+01-3.33321E+00 1.47669E-01 7.85815E+00 3.34288E-13 4.94119E-13
 -1      2840 2.12954E+01-1.04197E+00 1.36638E-02 2.21166E-01 1.60169E-13 9.88107E-14
 -1      2841 2.11227E+01-1.01272E+00-7.25543E-03-7.46981E-02 1.41504E-13 3.38559E-13
 -1      2842 2.12545E+01-9.64949E-01 1.36712E-03-2.97853E-01 2.69907E-13 2.89111E-13
 -1      2843 2.16563E+01-1.21939E+00-1.56306E-03 3.49672E-01 1.91791E-13 8.72852E-14
 -1      2844 2.05764E+01-6.78042E-01 8.60139E-03-6.69956E-01 4.62954E-14-2.16186E-13
 -1      2845 2.03668E+01-5.88726E-01-3.23841E-03-7.69090E-01 1.83205E-13-2.15299E-13
 -1      2846 2.04021E+01-5.43744E-01-4.42296E-03-8.81322E-01 1.65827E-13-2.66895E-13
 -1      2847 2.08280E+01-7.32901E-01 2.35788E-03-6.87472E-01 2.29378E-13-9.74802E-14
 -1      2848 2.13449E+01-1.05467E+00 7.66899E-03 1.80747E+00-1.03742E-13-2.29102E-13
 -1      2849 2.14698E+01-1.18602E+00 4.38685E-03 1.42944E+00 5.15463E-14-2.90402E-13
 -1      2850 2.18123E+01-1.39311E+00-7.94248E-03 1.20931E+00 1.96352E-13-3.94256E-13
 -1      2851 1.99066E+01 2.92199E-02-4.12487E-05-1.66593E-01 2.77157E-14 9.61389E-14
 -1      2852 1.99164E+01 5.73085E-02 2.33800E-03-1.46656E-01 1.37186E-14 1.05375E-13
 -1      2853 2.00228E+01 1.00160E-01-1.82464E-03-1.15056E-01 2.58563E-14 4.82141E-14
 -1      2854 1.99897E+01 2.95833E-02-1.38417E-03-1.66631E-01-1.77705E-15 9.04678E-14
 -1      2855 2.06964E+01-6.75613E-01-5.91011E-03 2.53623E+00-6.55339E-14 2.20193E-15
 -1      2856 2.10969E+01-9.23540E-01 1.78087E-02 2.26295E+00-6.91288E-14-1.19858E-13
 -1      2857 2.15027E+01-1.34460E+00-1.78654E-02 2.17587E+00 3.57744E-14-1.77579E-13
 -1      2858 1.95241E+01 4.26063E-02-2.65239E-02 2.83116E+00-5.68772E-14-1.79012E-13
 -1      2859 2.01838E+01-2.92549E-01 3.29722E-02 2.81031E+00-1.24138E-13 4.10696E-14
 -1      2860 2.05544E+01-9.07325E-01-2.48076E-02 2.98006E+00-7.25065E-14-1.51787E-13
 -1      2861 1.80657E+01 1.03394E+00-3.97742E-02 2.35638E+00 1.80851E-13 1.71727E-13
 -1      2862 1.88136E+01 6.76527E-01 4.22399E-02 2.71272E+00 1.90676E-14-9.66780E-14
 -1      2863 1.90008E+01 2.00984E-03-1.46459E-02 3.22455E+00-8.07167E-15 1.73765E-14
 -1      2864 1.69802E+01 1.97904E+00-2.58997E-02 9.84162E-01 3.42136E-13 4.30764E-13
 -1      2865 1.74335E+01 1.71067E+00 3.05167E-02 1.71009E+00 3.46290E-13 4.43133E-13
 -1      2866 1.72664E+01 1.21316E+00 1.16002E-02 2.48742E+00 1.85787E-13 3.26329E-13
 -1      2867 1.89654E+01-2.72220E+00 3.01931E-01-6.31579E+00-2.41918E-13-1.01739E-12
 -1      2868 2.42711E+01-2.89295E+00-3.55409E-02-5.37624E+00 7.04992E-14-4.69458E-13
 -1      2869 3.01629E+01-2.13380E+00-8.34111E-03-1.23454E+00 1.04351E-13-3.47500E-14
 -1      2870 3.06108E+01-8.65977E-01-1.97298E-01-1.40167E-01 2.36700E-13-3.96905E-15
 -1      2871 2.97835E+01-2.84015E+00-1.66610E-01 1.67257E+00 3.80373E-14-1.58207E-14
 -1      2872 2.83844E+01-3.96808E+00 4.17470E-02 3.14473E+00-3.50935E-14 1.75776E-13
 -1      2873 1.41415E+01 1.86481E+00 4.44685E-02-3.93140E+00-8.31626E-14-3.43309E-13
 -1      2874 1.50244E+01 2.31364E+00-1.47364E-02-3.45409E+00-5.41702E-14-6.81677E-14
 -1      2875 1.45368E+01 2.74811E+00 1.25035E-01-2.34694E+00 8.71399E-14-4.20670E-15
 -1      2876 1.22291E+01-2.24603E+00 2.23950E-01-7.54466E+00 2.65205E-14-5.85088E-13
 -1      2877 1.53533E+01-3.51890E+00-2.53057E-02-8.15280E+00-6.93889E-14-5.88460E-13
 -1      2878 3.11153E+01 1.67301E+00-7.40491E-02 1.15562E+00 2.89019E-13 8.26006E-14
 -1      2879 3.10549E+01 3.99597E+00-2.22318E-01 1.69913E+00 2.91683E-13 5.07788E-14
 -1      2880 8.10662E+00 3.75892E-01 9.38464E-02-3.30994E+00-1.31312E-13-3.05700E-13
 -1      2881 1.24921E+01 1.55743E+00 1.22001E-01-3.90872E+00-1.20584E-13-3.80321E-13
 -1      2882 1.13463E+01 2.44145E+00 2.61235E-01-2.21443E+00-9.76094E-14-3.22534E-13
 -1      2883 7.11240E+00 9.29283E-01 3.02286E-01-1.27550E+00-3.46719E-13-4.02373E-13
 -1      2884 6.54408E+00-8.17207E-02 2.09457E-01-4.20797E+00-5.54140E-14-9.88931E-14
 -1      2885 8.79147E+00-1.04745E+00 8.56842E-02-6.37184E+00-2.04559E-14-3.67512E-13
 -1      2886 2.58399E+01-5.01025E+00-1.07979E-01 5.26124E+00-2.80054E-14 4.23193E-13
 -1      2887 2.25830E+01-4.90888E+00 1.34390E-01 6.72352E+00 2.55490E-14 5.46226E-13
 -1      2888 1.99224E+01 2.59684E+00-7.87705E-03 7.93400E-01 1.29350E-13 8.60625E-14
 -1      2889 1.98784E+01 2.68893E+00-6.13727E-03 6.44618E-01 1.06110E-13 6.02079E-14
 -1      2890 1.99968E+01 2.38928E+00 4.26560E-03 5.15924E-01 9.38131E-14 6.79539E-14
 -1      2891 2.00785E+01 2.19148E+00 5.48085E-03 7.44788E-01 1.14962E-13 8.89950E-14
 -1      2892 3.01092E+01 8.01739E+00-2.17915E-01-4.74152E-02 2.83829E-13 5.36472E-14
 -1      2893 3.02148E+01 7.63439E+00-1.74874E-01-9.78275E-01 2.62124E-13-1.46196E-13
 -1      2894 3.18953E+01 1.88908E+00-1.91962E-01-8.71396E-01 2.68854E-13-3.64347E-13
 -1      2895 3.09885E+01-5.67674E-01-5.15646E-02 3.20500E-02 1.80911E-13-2.04670E-13
 -1      2896 3.03895E+01 2.44986E+00-8.15590E-02-1.63210E+00 2.09013E-13-3.79752E-13
 -1      2897 2.64327E+01-4.52011E+00 7.19047E-02-4.68503E+00-4.01554E-14-5.93553E-14
 -1      2898 2.86581E+01-3.64005E+00-1.17413E-01-3.03540E+00 5.46785E-15-5.09870E-14
 -1      2899 2.86226E+01-3.15906E+00-6.90444E-03-1.81006E+00-5.82867E-15-2.37033E-14
 -1      2900 1.98738E+01 2.69717E+00-6.13505E-03-6.34693E-01 3.28048E-14-3.87624E-15
 -1      2901 1.99171E+01 2.60739E+00-7.75231E-03-7.84022E-01 2.67121E-14-2.45923E-14
 -1      2902 5.87454E+00 7.32076E-01 2.22075E-01 4.52170E-01 4.01484E-14-1.70974E-14
 -1      2903 5.69934E+00 6.01241E-01 1.97251E-01-2.01217E+00-1.13368E-13-2.99205E-14
 -1      2904 1.29281E+01 9.40044E-02 1.64884E-01 5.29038E+00 7.84928E-14 2.09194E-13
 -1      2905 1.98579E+01-4.29797E+00 1.69134E-01-7.42994E+00-2.07223E-13-5.60260E-13
 -1      2906 2.33877E+01-4.93462E+00-6.69909E-02-6.49001E+00-1.25705E-13-2.30628E-13
 -1      2907 1.70278E+01 2.47252E+00 3.88315E-02-1.77449E+00 1.42986E-13 3.73408E-13
 -1      2908 1.99313E+01 2.53954E+00 3.46362E-03 4.42425E-03 6.76101E-14 3.20396E-14
 -1      2909 1.97923E+01 2.87084E+00-5.49438E-03-6.20349E-02 5.92386E-14 1.47536E-14
 -1      2910 1.97998E+01 2.85619E+00-5.57195E-03-2.16603E-01 5.74625E-14-1.85941E-15
 -1      2911 2.03242E+01 1.60372E+00 1.62295E-03 1.26928E+00 8.11369E-14 1.40232E-13
 -1      2912 1.85685E+01-3.46973E+00 1.24859E-01-7.19924E+00-8.67084E-14-4.23162E-13
 -1      2913 1.39993E+01-2.54648E+00 1.33239E-01 7.55849E+00 4.12531E-13 4.85834E-13
 -1      2914 1.28558E+01-1.19665E+00 2.32990E-01 6.68274E+00 3.51788E-13 6.12732E-13
 -1      2915 1.63909E+01-2.61323E+00-2.99548E-02 7.04684E+00 4.64316E-13 4.37490E-13
 -1      2916 2.99501E+01 3.12730E-01-4.05573E-02 1.00099E+00 1.95413E-13 1.96954E-13
 -1      2917 7.41033E+00-4.04509E-01 2.19722E-01 4.48740E+00 2.58363E-13 5.06289E-13
 -1      2918 7.82139E+00 8.01121E-01 1.78004E-01 3.09579E+00 2.67182E-13 4.20913E-13
 -1      2919 9.49058E+00-3.82598E-01 5.83572E-02 5.32685E+00 3.15560E-13 7.70023E-13
 -1      2920 2.92305E+01 6.23500E+00-1.31687E-01-1.35839E+00 2.55018E-13-5.83145E-14
 -1      2921 2.02197E+01 6.74258E-01-2.20802E-03 4.16919E-01 7.19951E-14 1.06362E-13
 -1      2922 2.01795E+01 6.17116E-01 1.45265E-03 4.44876E-01 7.14442E-14 1.47354E-13
 -1      2923 2.14437E+01-4.23188E+00 9.91876E-02 6.59231E+00 1.56056E-13 4.54497E-13
 -1      2924 8.00952E+00 1.12232E+00 2.02265E-01-2.82266E+00 1.19786E-13-1.27648E-13
 -1      2925 2.96578E+01-1.73229E+00-1.50957E-02 2.47579E-01 1.18058E-13-3.43600E-13
 -1      2926 2.00732E+01 2.20476E+00 6.00917E-03-7.38836E-01 2.70037E-14-2.61036E-14
 -1      2927 1.99718E+01 2.48790E+00-6.00465E-03-9.01573E-01 2.53726E-14-4.01615E-14
 -1      2928 2.00370E+01 2.34422E+00-8.73427E-03-1.03413E+00 1.47464E-14-4.09707E-14
 -1      2929 1.69415E+01 2.40020E+00-2.19612E-02-8.75881E-01 2.61813E-13 5.79051E-13
 -1      2930 1.68258E+01 2.34237E+00-3.65379E-05-3.72721E-02 3.04807E-13 3.95127E-13
 -1      2931 2.02113E+01 6.97956E-01 6.59311E-03 5.57159E-01 7.13531E-14 1.52544E-13
 -1      2932 7.52166E+00 1.29251E+00 1.59677E-01-1.12392E-01-1.14520E-13-1.41998E-13
 -1      2933 3.02236E+01 4.92755E+00-1.23982E-01 1.88232E+00 3.11251E-13 1.82868E-13
 -1      2934 2.87143E+01 5.60121E+00-1.56275E-01 1.87876E+00 3.81320E-13 3.44398E-13
 -1      2935 2.88464E+01 3.37305E+00-7.78537E-02 2.01760E+00 2.28303E-13 3.36328E-13
 -1      2936 2.68307E+01-4.34360E+00 3.24970E-02 3.63136E+00-3.23075E-14 1.85810E-13
 -1      2937 2.03174E+01 1.39062E+00 8.89434E-03 1.02253E+00 7.53299E-14 1.33814E-13
 -1      2938 1.16429E+01-9.52301E-01 1.76304E-01-6.44645E+00 1.24067E-14-4.85598E-13
 -1      2939 1.98155E+01 2.82057E+00-5.74759E-03-3.51404E-01 4.83053E-14 2.35148E-14
 -1      2940 1.98400E+01 2.77216E+00-6.23699E-03-5.04938E-01 3.23540E-14 2.23909E-14
 -1      2941 1.99933E+01 2.39666E+00 4.32274E-03-5.06948E-01 2.37504E-14 1.83208E-14
 -1      2942 1.99463E+01 2.50548E+00 3.73360E-03-2.55577E-01 3.91199E-14 2.62434E-14
 -1      2943 1.62474E+01 2.21357E+00 4.41624E-02 7.05824E-01 2.12429E-13 2.74199E-13
 -1      2944 2.49471E+01-4.52560E+00 4.68706E-02-4.98060E+00-1.92638E-13-1.36585E-13
 -1      2945 1.57978E+01 2.54040E+00-7.31879E-03-1.26797E+00 1.92649E-13 3.08049E-13
 -1      2946 9.73369E+00 2.47877E+00 2.12176E-01 4.03667E-01 6.45265E-14 1.16324E-13
 -1      2947 1.04366E+01 1.79280E+00 1.32011E-01 2.33497E+00 5.63716E-14 1.09079E-13
 -1      2948 2.29188E+01-8.57957E-01 2.65072E-01-6.06090E+00-4.03177E-13-8.47392E-13
 -1      2949 2.90454E+01 7.37788E+00-1.48930E-01 4.10256E-01 3.22825E-13 1.45407E-13
 -1      2950 2.02359E+01 1.47636E+00-9.94522E-03 8.06271E-01 9.04511E-14 8.17122E-14
 -1      2951 2.02002E+01 1.66674E+00-1.45689E-03 7.43331E-01 9.71878E-14 8.85077E-14
 -1      2952 2.02601E+01 7.55349E-01 6.69052E-03 7.54145E-01 6.84669E-14 1.78541E-13
 -1      2953 1.70078E+01-2.40322E+00 1.47328E-01-6.91468E+00-6.95971E-14-4.33417E-13
 -1      2954 2.03474E+01-3.60330E+00-8.17631E-03-6.36915E+00-1.69920E-13-3.23061E-13
 -1      2955 1.84241E+01-2.10271E-01-4.53580E-02 3.72462E+00 1.63630E-13 1.65597E-14
 -1      2956 1.96445E+01-6.27977E-01 6.30061E-02 3.78884E+00 1.04737E-13-6.06893E-15
 -1      2957 2.02718E+01 7.32164E-01 4.37833E-03-3.57676E-01-2.19690E-14 3.11482E-15
 -1      2958 2.02290E+01 5.66482E-01-3.42293E-03-2.24251E-01-4.06954E-14-1.39404E-15
 -1      2959 2.02234E+01 4.35292E-01 4.04433E-03-1.27454E-01-5.04258E-14 2.89063E-14
 -1      2960 2.01840E+01 3.25406E-01-2.26326E-03-4.04748E-02-2.87825E-14 3.15010E-14
 -1      2961 2.02738E+01 5.96450E-01 1.60187E-04-1.97460E-01-2.82302E-14 3.69838E-14
 -1      2962 2.01697E+01 2.39848E-01 3.20269E-03 2.24150E-02-1.25703E-14 3.88855E-14
 -1      2963 2.01390E+01 1.67804E-01-1.33740E-03 7.48511E-02-1.64804E-14 7.08470E-14
 -1      2964 2.02388E+01 3.42246E-01-8.87536E-04-3.10718E-02-1.58158E-14 7.80506E-14
 -1      2965 2.01221E+01 1.12529E-01 2.28733E-03 1.11878E-01-1.75748E-14 5.60152E-14
 -1      2966 2.01005E+01 6.62362E-02-6.56451E-04 1.40063E-01-6.52406E-15 9.77992E-14
 -1      2967 2.01978E+01 1.74690E-01-1.00365E-03 7.44803E-02-4.81583E-15 8.66377E-14
 -1      2968 2.00840E+01 3.13322E-02 1.50096E-03 1.58498E-01-3.77153E-14 9.68185E-14
 -1      2969 2.00699E+01 2.70452E-03-2.17557E-04 1.70355E-01-4.79463E-14 9.37349E-14
 -1      2970 2.01584E+01 6.56983E-02-9.65445E-04 1.34295E-01-1.81087E-14 7.89041E-14
 -1      2971 2.00552E+01-1.83142E-02 9.09589E-04 1.76254E-01-6.47747E-14 1.18388E-13
 -1      2972 2.00469E+01-3.48709E-02 5.13037E-05 1.77611E-01-8.66052E-14 1.16074E-13
 -1      2973 2.01237E+01-2.50689E-03-8.40480E-04 1.62018E-01-2.84795E-14 5.67164E-14
 -1      2974 2.00343E+01-4.64459E-02 4.85346E-04 1.75547E-01-7.40466E-14 1.72132E-13
 -1      2975 2.00301E+01-5.48293E-02 2.06124E-04 1.70576E-01-3.53320E-14 1.61913E-13
 -1      2976 2.00948E+01-4.26241E-02-6.94202E-04 1.68391E-01-3.95539E-14 1.49017E-13
 -1      2977 2.00197E+01-6.00634E-02 1.95143E-04 1.63878E-01-2.50837E-14 1.68568E-13
 -1      2978 2.00182E+01-6.30204E-02 2.86343E-04 1.55494E-01 5.93000E-15 9.82985E-14
 -1      2979 2.00713E+01-6.35915E-02-5.55648E-04 1.61487E-01-7.03786E-14 2.15093E-13
 -1      2980 2.00099E+01-6.40967E-02 5.94548E-06 1.46496E-01 4.06014E-14 4.28204E-14
 -1      2981 2.00102E+01-6.35591E-02 3.19191E-04 1.36682E-01 4.60325E-14 5.86458E-14
 -1      2982 2.00529E+01-7.17545E-02-4.35358E-04 1.47124E-01-4.26269E-15 1.16761E-13
 -1      2983 2.00037E+01-6.20034E-02-1.10525E-04 1.26969E-01 3.50733E-14 3.72171E-14
 -1      2984 2.00051E+01-5.93091E-02 3.23577E-04 1.17038E-01 5.85882E-14 2.64725E-14
 -1      2985 2.00386E+01-7.15989E-02-3.35649E-04 1.29352E-01 1.63484E-14 1.12900E-13
 -1      2986 2.00000E+01-5.61638E-02-1.77039E-04 1.07644E-01 1.08749E-13 1.41285E-14
 -1      2987 2.00021E+01-5.22076E-02 3.12672E-04 9.84362E-02 8.72669E-14 6.07112E-14
 -1      2988 2.00278E+01-6.62453E-02-2.55162E-04 1.10897E-01 6.19120E-14 7.67625E-14
 -1      2989 1.99982E+01-4.81510E-02-2.11423E-04 9.00151E-02 5.26788E-14 7.38497E-14
 -1      2990 2.00006E+01-4.34901E-02 2.95736E-04 8.20512E-02 4.73617E-14 6.46661E-14
 -1      2991 2.00198E+01-5.77930E-02-1.90956E-04 9.35283E-02 7.19446E-14 4.61024E-15
 -1      2992 1.99978E+01-3.89188E-02-2.27687E-04 7.49990E-02 7.84901E-14 1.44476E-13
 -1      2993 2.00003E+01-3.38445E-02 2.79213E-04 6.86020E-02 6.16522E-14 8.98609E-14
 -1      2994 2.00141E+01-4.75609E-02-1.39262E-04 7.83594E-02 1.05609E-13 4.08135E-14
 -1      2995 1.99981E+01-2.89265E-02-2.37290E-04 6.31582E-02 1.94588E-14 1.36252E-13
 -1      2996 2.00008E+01-2.35065E-02 2.67522E-04 5.85460E-02-2.57853E-15 1.59792E-13
 -1      2997 2.00100E+01-3.62534E-02-9.55396E-05 6.60717E-02 6.46791E-14 5.24727E-14
 -1      2998 1.99990E+01-1.82073E-02-2.50485E-04 5.48703E-02-8.12569E-14 1.63053E-13
 -1      2999 2.00017E+01-1.23005E-02 2.63402E-04 5.22333E-02-9.72513E-14 1.05472E-13
 -1      3000 2.00070E+01-2.40603E-02-5.39396E-05 5.70944E-02-5.49533E-15 7.20012E-14
 -1      3001 1.99999E+01-6.38221E-03-2.77829E-04 5.04650E-02-1.25323E-13 1.41471E-13
 -1      3002 2.00025E+01 3.76296E-04 2.67826E-04 5.00347E-02-1.50224E-13 1.13527E-13
 -1      3003 2.00045E+01-1.06955E-02-6.28938E-06 5.17388E-02-1.07791E-13 9.48056E-14
 -1      3004 2.00002E+01 7.38816E-03-3.31947E-04 5.03397E-02-8.19746E-14 1.63111E-13
 -1      3005 2.00025E+01 1.56393E-02 2.79241E-04 5.24540E-02 3.39705E-14 1.67749E-13
 -1      3006 2.00017E+01 4.63122E-03 5.96650E-05 5.03005E-02-6.92567E-14 1.98023E-13
 -1      3007 1.99990E+01 2.45285E-02-4.29722E-04 5.50599E-02 8.78154E-14 1.29440E-13
 -1      3008 2.00005E+01 3.52857E-02 2.91648E-04 6.02303E-02 4.14602E-14 1.00654E-13
 -1      3009 1.99975E+01 2.33182E-02 1.63106E-04 5.31301E-02 2.76213E-14 2.50771E-13
 -1      3010 1.99945E+01 4.72699E-02-5.95032E-04 6.54459E-02 1.57503E-14 1.23292E-13
 -1      3011 1.99945E+01 6.20741E-02 2.90661E-04 7.44267E-02 2.27285E-14 9.43709E-14
 -1      3012 1.99898E+01 4.75706E-02 3.34659E-04 6.06681E-02 7.49463E-14 5.46802E-14
 -1      3013 1.99839E+01 7.89952E-02-8.62123E-04 8.26343E-02-1.12677E-14 6.62092E-14
 -1      3014 1.99808E+01 1.00140E-01 2.46035E-04 9.64856E-02-3.44261E-15 1.52561E-13
 -1      3015 1.99758E+01 8.07120E-02 6.23407E-04 7.34214E-02 5.07647E-15 1.31467E-13
 -1      3016 1.99622E+01 1.24735E-01-1.27939E-03 1.08076E-01-2.08120E-14 1.25228E-13
 -1      3017 1.99530E+01 1.55570E-01 9.82291E-05 1.28194E-01-7.68840E-14 1.30421E-13
 -1      3018 1.99504E+01 1.27625E-01 1.10756E-03 9.18300E-02 8.59090E-15 1.45546E-13
 -1      3019 1.99211E+01 1.91824E-01-1.91286E-03 1.43392E-01-8.17509E-14 1.22233E-13
 -1      3020 1.99004E+01 2.37117E-01-2.64707E-04 1.71444E-01-4.41504E-14 1.19050E-13
 -1      3021 1.99055E+01 1.95312E-01 1.91005E-03 1.15924E-01-6.03872E-14 6.34428E-15
 -1      3022 1.98466E+01 2.90670E-01-2.84824E-03 1.89913E-01-4.16468E-14 1.20549E-13
 -1      3023 1.98051E+01 3.56946E-01-1.04500E-03 2.27554E-01-4.27367E-14 8.43053E-14
 -1      3024 1.98279E+01 2.93502E-01 3.22010E-03 1.44587E-01-3.01393E-14 2.85175E-14
 -1      3025 1.97161E+01 4.35408E-01-4.19027E-03 2.47627E-01-4.07498E-14 9.31908E-14
 -1      3026 1.96380E+01 5.31033E-01-2.59259E-03 2.95773E-01-3.56798E-14 2.68373E-14
 -1      3027 1.96968E+01 4.35059E-01 5.32014E-03 1.74113E-01-4.56515E-14-1.60442E-14
 -1      3028 1.94930E+01 6.43860E-01-6.06086E-03 3.13055E-01-5.59723E-14 3.04433E-14
 -1      3029 1.93519E+01 7.78304E-01-5.47800E-03 3.70380E-01 2.31103E-14 2.74085E-14
 -1      3030 1.94794E+01 6.35625E-01 8.61542E-03 1.95608E-01-5.81531E-14 3.28551E-14
 -1      3031 1.91201E+01 9.35395E-01-8.59852E-03 3.75490E-01 3.03398E-14-3.29259E-14
 -1      3032 1.88737E+01 1.11652E+00-1.05188E-02 4.35809E-01-1.93044E-14-9.94381E-14
 -1      3033 1.91259E+01 9.11250E-01 1.36711E-02 1.90641E-01-1.29512E-14 4.81986E-14
 -1      3034 1.85098E+01 1.32384E+00-1.19114E-02 4.11192E-01-1.32001E-14-1.57022E-13
 -1      3035 1.80924E+01 1.55106E+00-1.84641E-02 4.59828E-01-3.21683E-14-9.93443E-14
 -1      3036 1.85624E+01 1.27174E+00 2.13399E-02 1.24722E-01-6.58476E-14-5.26911E-14
 -1      3037 1.75315E+01 1.80020E+00-1.56696E-02 3.76511E-01-9.87741E-14-2.11627E-13
 -1      3038 1.68456E+01 2.04958E+00-2.84111E-02 3.87467E-01-1.02994E-13-1.74175E-13
 -1      3039 1.76825E+01 1.70596E+00 3.33746E-02-6.09146E-02-1.18659E-13-2.47660E-13
 -1      3040 1.59948E+01 2.29816E+00-1.63398E-02 2.04950E-01 7.37171E-15-1.63746E-13
 -1      3041 1.49040E+01 2.49110E+00-3.06730E-02 1.43696E-01 1.04228E-13-9.46361E-14
 -1      3042 1.63365E+01 2.15241E+00 5.44191E-02-4.56591E-01-4.71500E-14-1.55799E-13
 -1      3043 1.37031E+01 2.62889E+00 3.12585E-03-1.52302E-01 7.46053E-14-1.78291E-13
 -1      3044 1.21517E+01 2.56497E+00 9.40632E-03-3.11619E-01-1.52968E-14-1.43253E-13
 -1      3045 1.43742E+01 2.44344E+00 9.39847E-02-1.16262E+00 4.17149E-14-1.42778E-13
 -1      3046 2.00087E+01-5.72211E-02 2.54544E-04-1.65933E-01 4.72399E-14 8.20959E-14
 -1      3047 2.00100E+01-5.21174E-02 3.02439E-04-1.73068E-01 1.00496E-14 7.93641E-14
 -1      3048 2.02355E+01 7.05674E-01-4.10467E-03 3.50860E-01 6.60019E-14 8.92167E-14
 -1      3049 2.02788E+01 8.99388E-01 1.37983E-03 5.15823E-01 7.63716E-14 8.59515E-14
 -1      3050 2.73063E+01-3.51000E+00 4.57661E-02-2.05135E+00-8.57986E-14-5.46507E-14
 -1      3051 2.80871E+01-2.66111E+00-1.32093E-01-6.44118E-01 2.11870E-14 6.84244E-14
 -1      3052 2.27009E+01-4.23654E+00-9.77260E-02 5.55955E+00 1.37675E-13 3.84984E-13
 -1      3053 2.01772E+01-3.17462E+00 1.92560E-01 6.40452E+00 3.34878E-13 3.76399E-13
 -1      3054 2.01391E+01 2.28570E-01-1.73048E-03-2.66626E-02 6.38897E-14 8.12358E-14
 -1      3055 2.01763E+01 3.14892E-01 4.07083E-03 4.17877E-02 9.30621E-14 9.39621E-14
 -1      3056 2.01885E+01 4.17553E-01-2.78157E-03 1.23058E-01 1.01692E-13 8.73231E-14
 -1      3057 2.02384E+01 5.48112E-01 5.83801E-03 2.34511E-01 7.99664E-14 7.90109E-14
 -1      3058 2.02737E+01 7.33948E-01-3.11804E-03 3.13925E-01 8.80771E-14 6.61194E-14
 -1      3059 2.02418E+01 4.44039E-01-5.99781E-04 1.06312E-01 9.04250E-14 9.93882E-14
 -1      3060 2.00204E+01-4.44227E-02 1.50693E-04-1.77924E-01 2.72521E-16 6.76791E-14
 -1      3061 2.00250E+01-3.29101E-02 6.65270E-04-1.80358E-01-2.57860E-14 9.81541E-14
 -1      3062 2.00673E+01-5.27959E-02-6.21360E-04-1.69699E-01 1.88409E-14 5.76579E-14
 -1      3063 2.00378E+01-1.77904E-02-4.11214E-05-1.78992E-01-6.15683E-14 1.15750E-13
 -1      3064 2.00474E+01 3.27565E-03 1.18821E-03-1.73214E-01-4.69481E-14 1.20355E-13
 -1      3065 2.00915E+01-2.43235E-02-7.86090E-04-1.71042E-01-1.94223E-14 8.97091E-14
 -1      3066 2.00012E+01-6.08936E-02 3.01807E-04-1.48269E-01 6.23195E-14 6.88644E-14
 -1      3067 2.00004E+01-5.99831E-02 6.21322E-05-1.57692E-01 8.42050E-14 6.98199E-14
 -1      3068 2.00485E+01-6.61068E-02-4.78359E-04-1.58112E-01 3.72516E-14 8.05131E-14
 -1      3069 1.99968E+01-5.87511E-02 3.13712E-04-1.28496E-01 1.72110E-14 2.41791E-14
 -1      3070 1.99947E+01-6.04773E-02-8.85449E-05-1.38596E-01 5.07002E-14 5.84828E-14
 -1      3071 2.00341E+01-6.94236E-02-3.60735E-04-1.41231E-01 4.73827E-14 1.06663E-13
 -1      3072 1.99944E+01-5.31009E-02 3.04990E-04-1.08943E-01 4.77360E-14 2.98468E-14
 -1      3073 1.99918E+01-5.63831E-02-1.76048E-04-1.18684E-01 5.89887E-15 8.52004E-15
 -1      3074 2.00233E+01-6.63927E-02-2.66541E-04-1.22430E-01 3.18478E-14 6.22746E-14
 -1      3075 1.99935E+01-4.55275E-02 2.85402E-04-9.10619E-02 4.16453E-14 9.07078E-14
 -1      3076 1.99906E+01-4.96275E-02-2.20537E-04-9.98115E-02 8.22578E-14 9.07976E-14
 -1      3077 2.00153E+01-5.95589E-02-1.92831E-04-1.03920E-01 2.07214E-14 1.33349E-13
 -1      3078 1.99935E+01-3.71056E-02 2.61362E-04-7.56853E-02-7.77115E-14 1.32393E-13
 -1      3079 1.99906E+01-4.15242E-02-2.36647E-04-8.30956E-02-3.51497E-14 8.58053E-14
 -1      3080 2.00095E+01-5.06703E-02-1.36485E-04-8.70805E-02-9.17911E-15 1.57513E-13
 -1      3081 1.99942E+01-2.85741E-02 2.36641E-04-6.32246E-02 9.83887E-14 1.27995E-13
 -1      3082 1.99913E+01-3.29654E-02-2.34297E-04-6.91417E-02 2.26991E-14 1.36662E-13
 -1      3083 2.00054E+01-4.09176E-02-9.48765E-05-7.27104E-02-2.62768E-14 1.90144E-13
 -1      3084 1.99953E+01-2.04869E-02 2.12946E-04-5.37939E-02 1.52908E-14 1.73214E-13
 -1      3085 1.99926E+01-2.45823E-02-2.19339E-04-5.82048E-02 5.16735E-14 1.52963E-13
 -1      3086 2.00025E+01-3.11316E-02-6.65157E-05-6.12110E-02 4.34089E-14 1.91648E-13
 -1      3087 1.99968E+01-1.33568E-02 1.90130E-04-4.72832E-02 4.91845E-15 2.09736E-13
 -1      3088 1.99942E+01-1.68915E-02-1.93785E-04-5.02881E-02-2.57894E-15 1.97172E-13
 -1      3089 2.00006E+01-2.19586E-02-5.14410E-05-5.27079E-02 1.80074E-15 2.23112E-13
 -1      3090 1.99989E+01-7.80129E-03 1.66169E-04-4.33764E-02-7.04791E-14 2.11786E-13
 -1      3091 1.99962E+01-1.04383E-02-1.55749E-04-4.51903E-02 2.13315E-14 2.76378E-13
 -1      3092 1.99996E+01-1.40281E-02-5.17647E-05-4.71210E-02-3.92125E-14 3.60908E-13
 -1      3093 2.00019E+01-4.69934E-03 1.36867E-04-4.15162E-02-1.31770E-13 1.72935E-13
 -1      3094 1.99991E+01-5.94746E-03-9.90434E-05-4.24971E-02-9.90862E-14 1.91800E-13
 -1      3095 1.99997E+01-8.12663E-03-7.23568E-05-4.41840E-02-6.73006E-14 2.87409E-13
 -1      3096 2.00067E+01-5.35911E-03 9.52374E-05-4.08099E-02-1.38645E-13 7.66431E-14
 -1      3097 2.00033E+01-4.48574E-03-1.25428E-05-4.15185E-02-1.53099E-13 1.70205E-13
 -1      3098 2.00015E+01-5.38291E-03-1.21597E-04-4.34106E-02-8.84058E-14 2.50612E-13
 -1      3099 2.00143E+01-1.16832E-02 3.04794E-05-3.98706E-02 4.43630E-14 1.43443E-14
 -1      3100 2.00099E+01-7.63063E-03 1.20474E-04-4.11609E-02-5.58179E-14-2.67763E-14
 -1      3101 2.00058E+01-7.46460E-03-2.11966E-04-4.40012E-02-2.71113E-14 4.32037E-14
 -1      3102 2.00265E+01-2.62946E-02-7.34708E-05-3.65864E-02 4.28067E-14 2.80788E-14
 -1      3103 2.00205E+01-1.76225E-02 3.22498E-04-3.97285E-02 2.37002E-14 8.01237E-15
 -1      3104 2.00144E+01-1.67657E-02-3.59981E-04-4.46783E-02 2.17165E-15-5.79348E-14
 -1      3105 2.00460E+01-5.25473E-02-2.39682E-04-2.78198E-02 1.35850E-13 1.93571E-13
 -1      3106 2.00375E+01-3.74457E-02 6.20553E-04-3.46465E-02 1.33062E-13 1.38559E-13
 -1      3107 2.00300E+01-3.65351E-02-5.84535E-04-4.34349E-02 5.27055E-14 3.84360E-14
 -1      3108 2.00761E+01-9.42873E-02-4.99570E-04-9.05861E-03 1.60326E-14 1.46964E-13
 -1      3109 2.00642E+01-7.07370E-02 1.04196E-03-2.21127E-02 1.09483E-13 1.49547E-13
 -1      3110 2.00564E+01-7.08466E-02-9.02160E-04-3.71834E-02 1.09513E-13 1.98781E-13
 -1      3111 2.01210E+01-1.55160E-01-8.91951E-04 2.59149E-02 3.70848E-14 1.71577E-13
 -1      3112 2.01046E+01-1.21354E-01 1.60467E-03 3.28432E-03 7.66194E-14 1.85494E-13
 -1      3113 2.00987E+01-1.24238E-01-1.31708E-03-2.13083E-02 7.25266E-15 2.00315E-13
 -1      3114 2.01849E+01-2.37193E-01-1.45555E-03 8.51820E-02-6.27141E-14 1.82511E-13
 -1      3115 2.01633E+01-1.92364E-01 2.29893E-03 4.88752E-02-3.16972E-14 1.88360E-13
 -1      3116 2.01632E+01-2.00763E-01-1.80381E-03 1.08271E-02 9.78617E-15 3.65492E-13
 -1      3117 2.02707E+01-3.38400E-01-2.20757E-03 1.78368E-01 1.60688E-13 1.55154E-13
 -1      3118 2.02442E+01-2.84182E-01 3.05789E-03 1.23917E-01 7.38497E-14 1.81793E-13
 -1      3119 2.02564E+01-3.02119E-01-2.28148E-03 6.82607E-02 2.48499E-14 2.45156E-13
 -1      3120 2.03779E+01-4.49311E-01-3.09856E-03 3.15316E-01-8.60325E-15 1.78029E-13
 -1      3121 2.03487E+01-3.91647E-01 3.71791E-03 2.38856E-01 6.99779E-14 1.72504E-13
 -1      3122 2.03838E+01-4.24555E-01-2.58430E-03 1.62327E-01 8.91837E-14 2.28911E-13
 -1      3123 2.04994E+01-5.48937E-01-3.93190E-03 5.02981E-01-1.49595E-13 2.63257E-13
 -1      3124 2.04724E+01-5.00181E-01 3.97943E-03 4.03140E-01-9.39720E-14 2.05408E-13
 -1      3125 2.05457E+01-5.54505E-01-2.44379E-03 3.05361E-01-1.11185E-13 3.90200E-13
 -1      3126 2.06182E+01-6.01823E-01-4.24908E-03 7.39661E-01-7.72950E-14 2.30123E-13
 -1      3127 2.06016E+01-5.81996E-01 3.41392E-03 6.20588E-01-9.49097E-14 2.32778E-13
 -1      3128 2.07334E+01-6.63708E-01-1.51165E-03 5.07051E-01-1.16967E-13 5.00786E-13
 -1      3129 2.07061E+01-5.59919E-01-3.41176E-03 1.00629E+00-1.16871E-13 3.70186E-13
 -1      3130 2.07103E+01-5.94838E-01 1.61360E-03 8.81591E-01-9.93235E-14 3.03970E-13
 -1      3131 2.09239E+01-7.06319E-01 5.16935E-04 7.67033E-01-1.34747E-13 3.35238E-13
 -1      3132 2.07281E+01-3.74079E-01-8.11135E-04 1.25751E+00 1.72559E-13 1.83799E-13
 -1      3133 2.07622E+01-4.88212E-01-1.76287E-03 1.15313E+00 7.62264E-14 2.85136E-13
 -1      3134 2.10777E+01-6.23089E-01 3.44872E-03 1.06327E+00-7.33883E-16 1.87592E-13
 -1      3135 2.06549E+01-1.81841E-02 3.61321E-03 1.41777E+00 1.22390E-13 1.04202E-13
 -1      3136 2.07216E+01-2.20032E-01-6.00676E-03 1.37144E+00 8.98342E-14 1.47089E-13
 -1      3137 2.11453E+01-3.58845E-01 6.17867E-03 1.34000E+00 1.64124E-13 1.18056E-13
 -1      3138 2.04847E+01 4.76500E-01 8.38218E-03 1.39485E+00 2.67208E-14 7.30889E-14
 -1      3139 2.05739E+01 2.11717E-01-9.72267E-03 1.44602E+00 1.22029E-13 9.35465E-14
 -1      3140 2.10875E+01 1.05870E-01 7.34443E-03 1.50351E+00 1.41058E-13 1.00183E-13
 -1      3141 2.02612E+01 1.00117E+00 1.09154E-02 1.11730E+00 4.80773E-14 2.33390E-13
 -1      3142 2.03496E+01 7.39102E-01-1.03267E-02 1.28838E+00 2.25670E-14 1.46399E-13
 -1      3143 2.09066E+01 7.10952E-01 4.80599E-03 1.44285E+00 1.00327E-14 2.66463E-13
 -1      3144 2.00702E+01 1.39067E+00 8.73123E-03 5.87396E-01-1.42946E-13 3.75337E-13
 -1      3145 2.01290E+01 1.21920E+00-6.33496E-03 8.62490E-01-3.25711E-15 3.01333E-13
 -1      3146 2.06703E+01 1.30601E+00-6.74847E-04 1.08312E+00-5.95648E-14 3.52103E-13
 -1      3147 1.99990E+01 1.49951E+00 2.23295E-03-9.02443E-02-5.06192E-14 2.77078E-13
 -1      3148 2.00077E+01 1.48479E+00 1.12316E-03 2.30232E-01-7.21430E-14 3.30618E-13
 -1      3149 2.04945E+01 1.69370E+00-5.39801E-03 4.52304E-01-1.32899E-13 3.57428E-13
 -1      3150 2.00807E+01 1.28412E+00-5.71180E-03-7.41324E-01-1.87775E-14 2.86342E-13
 -1      3151 2.00382E+01 1.43225E+00 8.07317E-03-4.54980E-01-7.27200E-14 2.97619E-13
 -1      3152 2.04731E+01 1.72675E+00-5.31620E-03-2.98195E-01-8.48659E-14 2.27010E-13
 -1      3153 2.02662E+01 8.42796E-01-1.02211E-02-1.20151E+00 5.77494E-14 1.57641E-13
 -1      3154 2.01945E+01 1.08715E+00 1.06425E-02-1.01154E+00 7.33183E-14 2.35034E-13
 -1      3155 2.06114E+01 1.39595E+00-9.12152E-05-9.55849E-01 2.39499E-14 1.72748E-13
 -1      3156 2.04625E+01 3.29603E-01-1.04210E-02-1.40310E+00 2.88660E-14 1.65413E-13
 -1      3157 2.03881E+01 5.90144E-01 8.43202E-03-1.33184E+00 2.86181E-14 1.04001E-14
 -1      3158 2.08150E+01 8.36685E-01 4.66613E-03-1.35373E+00 1.22353E-13 1.74520E-13
 -1      3159 2.05809E+01-1.02461E-01-6.52290E-03-1.36537E+00 2.57829E-13 2.59419E-13
 -1      3160 2.05295E+01 9.99543E-02 3.03625E-03-1.39449E+00 2.08822E-13 1.10741E-13
 -1      3161 2.09695E+01 2.39577E-01 6.98800E-03-1.45913E+00 1.03898E-13 6.20215E-14
 -1      3162 2.05785E+01-3.82020E-01-2.34046E-03-1.18223E+00 2.23275E-13 1.02166E-13
 -1      3163 2.05640E+01-2.59325E-01-1.36240E-03-1.27032E+00 3.19368E-13 2.58267E-13
 -1      3164 2.09901E+01-2.27452E-01 6.42943E-03-1.32688E+00 2.61604E-13 1.63794E-13
 -1      3165 2.04976E+01-5.13209E-01-1.99401E-03-9.76831E-01 4.04810E-14-1.64167E-13
 -1      3166 2.05017E+01-4.41100E-01-3.17765E-03-1.08345E+00-6.16190E-15-2.27615E-14
 -1      3167 2.08820E+01-4.88538E-01 5.31222E-04-1.11659E+00 2.10393E-13 1.44037E-13
 -1      3168 2.07139E+01-6.06483E-01-1.90937E-03-9.12914E-01 1.22698E-13-1.70992E-13
 -1      3169 2.06252E+01-1.20069E+00-1.13984E-02 3.43788E+00-3.09175E-14-3.10046E-13
 -1      3170 2.13965E+01-1.48613E+00 2.85188E-02 3.09620E+00 1.12257E-13-1.29223E-13
 -1      3171 2.02359E+01-1.45262E+00-1.98629E-02 4.06505E+00 8.70502E-14-1.99745E-14
 -1      3172 2.86997E+01-8.82520E-01 2.84502E-04 8.05496E-01 1.89126E-13 2.58821E-13
 -1      3173 2.85085E+01 9.65012E-01-1.36435E-01 1.71179E+00 2.26028E-13 3.44502E-13
 -1      3174 1.48983E+01 2.46326E+00 4.89058E-02 5.21212E-01 3.98212E-13 3.70100E-13
 -1      3175 1.51758E+01 2.07021E+00 4.06688E-02 1.63387E+00 3.45902E-13 4.15480E-13
 -1      3176 1.60298E+01 1.23665E+00-3.85111E-02 2.79686E+00 2.71906E-13 5.12517E-13
 -1      3177 1.72280E+01 7.61112E-01 8.45112E-02 3.43220E+00 2.19207E-13 1.73779E-13
 -1      3178 1.76136E+01-1.50492E-01 1.53401E-02 4.21171E+00 2.25975E-13 2.14393E-13
 -1      3179 1.47716E+01 1.44497E+00 1.67732E-02 2.75318E+00 3.11555E-13 5.89962E-13
 -1      3180 2.79164E+01 6.49359E+00-1.44965E-01 1.24852E+00 4.01679E-13 2.29369E-13
 -1      3181 2.70747E+01 6.75979E+00-1.14347E-01 2.38863E-01 2.88825E-13 3.06958E-13
 -1      3182 2.36216E+01-4.11171E+00 4.76326E-02-4.96688E+00-1.31773E-13-9.46400E-14
 -1      3183 2.58336E+01-4.24389E+00-7.34636E-02-3.56655E+00-1.13288E-13-3.46684E-14
 -1      3184 2.60759E+01-3.57387E+00 1.33153E-02-2.31120E+00-1.08049E-13 3.15546E-15
 -1      3185 1.48129E+01-1.76298E+00 1.48344E-01-5.87377E+00-1.82354E-13-9.45716E-13
 -1      3186 2.02906E+01 9.29927E-01-7.26714E-03 7.80356E-01 6.50322E-14 1.36877E-13
 -1      3187 2.73372E+01 6.16613E+00-1.27890E-01-1.24012E+00 5.93692E-14-6.26096E-14
 -1      3188 2.83646E+01 4.91021E+00-9.86708E-02-1.96357E+00 8.21287E-14-2.88741E-13
 -1      3189 2.00833E+01 2.25666E+00-6.30311E-03-1.11933E+00 6.98687E-15-4.69490E-14
 -1      3190 2.01609E+01 2.08044E+00-8.20263E-03-1.20500E+00-1.08980E-14-4.71437E-14
 -1      3191 2.02316E+01 1.78378E+00 5.34158E-03-1.04761E+00-1.23775E-14-3.22002E-14
 -1      3192 2.01647E+01 1.98718E+00 7.84619E-03-9.16890E-01 1.41014E-14-3.29349E-14
 -1      3193 2.19196E+01-1.61895E+00 1.20552E-02 2.46894E+00 1.02533E-13 7.01902E-15
 -1      3194 2.22241E+01-1.74240E+00 4.22132E-03 1.97216E+00-1.31041E-14-2.52448E-13
 -1      3195 2.20359E+01-2.02484E+00-1.83568E-02 2.93460E+00 1.25178E-13 4.12372E-14
 -1      3196 1.13100E+01 2.87305E-01 1.40342E-01-5.22977E+00-4.33056E-14-3.77059E-13
 -1      3197 1.37738E+01-1.20670E+00 5.48883E-03-6.60280E+00 4.69069E-15-5.75345E-13
 -1      3198 2.68846E+01-3.94675E+00-1.52371E-01 2.30467E+00 6.49619E-14 3.25122E-14
 -1      3199 2.54350E+01-4.12904E+00 1.10239E-01 3.88680E+00 1.78278E-13 1.99261E-13
 -1      3200 9.79788E+00 2.13382E+00 5.78318E-02-4.88717E-01 9.44349E-14 4.62824E-14
 -1      3201 1.15179E+01 2.37448E+00-1.82218E-02-9.17477E-01 8.77232E-14-2.95042E-14
 -1      3202 2.02760E+01 1.26019E+00 3.51379E-03 7.98371E-01 7.34076E-14 9.42141E-14
 -1      3203 8.86839E+00 1.96485E+00 7.26731E-02-1.58770E+00 1.51916E-13-7.52592E-14
 -1      3204 9.75021E+00 1.27177E+00 1.10855E-01-3.80348E+00 1.18894E-13-2.78277E-13
 -1      3205 1.21486E+01 1.12360E+00 1.23462E-01-4.07540E+00 5.27807E-14-2.37650E-13
 -1      3206 1.11639E+01 2.46094E+00 9.56578E-02-6.04959E-01-2.26165E-14-2.26485E-14
 -1      3207 2.88307E+01 3.19422E+00-1.62396E-01-2.00963E+00 1.83159E-13-2.77611E-13
 -1      3208 2.91220E+01 1.28380E+00-3.66357E-02-1.67690E+00 2.83801E-13-3.08670E-13
 -1      3209 2.00430E+01 2.16160E+00-4.32083E-03 2.92024E-01 8.57466E-14 2.48926E-14
 -1      3210 2.00299E+01 2.20044E+00-3.31172E-03 1.70400E-01 8.61455E-14 2.43735E-14
 -1      3211 2.23298E+01-1.60122E+00 1.75600E-02 1.34604E+00-5.44642E-14-6.54784E-13
 -1      3212 2.22790E+01-1.58429E+00-9.15968E-03 8.73417E-01 1.77088E-13-3.78829E-13
 -1      3213 2.27257E+01-1.95966E+00-3.79481E-03 1.61329E+00-8.97806E-15-4.46772E-13
 -1      3214 2.89081E+01-9.13379E-01-1.61642E-01-7.87783E-01 3.07351E-13-1.35475E-13
 -1      3215 2.83917E+01-2.33058E+00 4.59689E-02 4.26147E-01 7.46625E-14-1.48513E-13
 -1      3216 2.02923E+01 1.18167E+00 5.31258E-03-6.83313E-01-5.51420E-15-3.79688E-15
 -1      3217 2.02576E+01 9.31723E-01-4.82815E-03-4.94770E-01-2.04964E-14-1.13945E-14
 -1      3218 2.02832E+01 9.71911E-01 1.23043E-03-4.37230E-01-1.11074E-14-2.58365E-16
 -1      3219 8.85420E+00 1.63918E+00 2.17255E-01 1.34558E+00 1.94615E-13 3.29597E-13
 -1      3220 1.10315E+01 1.63177E+00 2.23310E-01 3.54665E+00 1.09079E-14 1.11688E-13
 -1      3221 9.12381E+00-3.62524E-01 1.70219E-01 3.91630E+00 1.43108E-13 1.74583E-14
 -1      3222 5.95641E+00 3.17161E-01 2.07227E-01 1.69872E+00 6.29011E-14-4.46865E-14
 -1      3223 1.44830E+01 2.51673E+00 1.14346E-03-4.34770E-01 2.79228E-13 2.57558E-13
 -1      3224 7.23519E+00 1.28640E+00 6.63988E-02 9.62081E-01 9.78826E-14 1.08497E-13
 -1      3225 2.73464E+01 3.48294E+00-6.95016E-02-1.98517E+00 1.54793E-13-2.27714E-13
 -1      3226 1.62967E+01-1.30916E+00 1.01997E-01-6.03108E+00-1.16060E-13-3.83471E-13
 -1      3227 2.70224E+01 6.34834E-01-2.93723E-02 1.76599E+00 2.56163E-13 2.61652E-13
 -1      3228 2.80583E+01 1.86377E+00-6.37387E-02 2.06053E+00 2.41973E-13 2.50154E-13
 -1      3229 2.70804E+01 2.74995E+00-8.86245E-02 2.18632E+00 2.64809E-13 3.00752E-13
 -1      3230 2.02373E+01 1.50516E+00-5.20168E-03-8.90233E-01-3.21954E-15-2.59736E-14
 -1      3231 1.23297E+01-3.79732E-01 1.40607E-01 5.63073E+00 3.11612E-13 6.72809E-13
 -1      3232 2.21333E+01-1.34780E+00 1.49873E-02 3.90570E-01 2.58457E-13 3.50035E-14
 -1      3233 2.18995E+01-1.26341E+00-1.40544E-02 1.72296E-02 1.28837E-13 3.22726E-13
 -1      3234 2.25924E+01-1.58548E+00 2.24419E-03 4.97418E-01 1.03722E-13-2.47881E-13
 -1      3235 2.01218E+01 2.66010E-02-9.57370E-04-1.55126E-01-2.59492E-14 1.11353E-13
 -1      3236 2.00625E+01 2.93776E-02-3.67638E-04-1.61639E-01-4.06287E-14 1.07531E-13
 -1      3237 2.00791E+01 6.44969E-02 1.90777E-03-1.42665E-01-1.10938E-14 8.34732E-14
 -1      3238 1.20297E+01 2.34793E+00 1.36660E-01-2.09931E+00 8.30100E-14-1.85539E-13
 -1      3239 2.02766E+01 1.12966E+00 2.90780E-03 5.42589E-01 8.72443E-14 6.56201E-14
 -1      3240 2.02809E+01 1.09551E+00 5.32385E-03 6.14500E-01 7.99802E-14 8.93017E-14
 -1      3241 2.75325E+01-1.67916E+00-3.74719E-03 3.55827E-01 1.15144E-13 1.76349E-13
 -1      3242 2.00226E+01 2.21925E+00-3.67890E-03 6.57033E-02 7.76241E-14 4.66638E-14
 -1      3243 2.00225E+01 2.21996E+00-3.61772E-03-5.81137E-02 5.73630E-14 3.59840E-14
 -1      3244 2.01366E+01 1.92356E+00 4.99530E-03 1.01026E-01 7.44308E-14 3.50767E-14
 -1      3245 2.00961E+01 1.06739E-01-8.98622E-04-1.15478E-01 2.65547E-14 8.98134E-14
 -1      3246 2.01220E+01 1.62471E-01 2.83483E-03-7.63983E-02 4.02492E-14 7.89665E-14
 -1      3247 2.02003E+01 2.41745E-01-1.07912E-03-3.01906E-02 5.58682E-14 1.01482E-13
 -1      3248 2.01584E+01 1.10328E-01-1.09211E-03-1.12358E-01 6.13221E-15 9.03004E-14
 -1      3249 2.55368E+01 5.75497E+00-4.99090E-02 1.67177E-01 9.83449E-14 1.71687E-13
 -1      3250 2.64515E+01 6.17850E+00-1.18898E-01-5.34731E-01 4.85306E-14 8.84917E-14
 -1      3251 2.57640E+01 5.20277E+00-6.42131E-02-1.08019E+00-6.07847E-14-6.66433E-14
 -1      3252 2.16406E+01-1.02802E+00 1.21461E-02-3.10699E-01 2.36740E-13 3.32453E-13
 -1      3253 2.13372E+01-9.17244E-01-1.12736E-02-5.71718E-01 2.10141E-13 1.62883E-13
 -1      3254 2.20621E+01-1.15672E+00 7.79672E-03-2.97872E-01 1.25362E-13 2.17021E-13
 -1      3255 2.02302E+01 1.52527E+00-2.34533E-03-7.79793E-01 3.56095E-15-2.52131E-14
 -1      3256 2.01195E+01 1.94025E+00-2.55175E-03-5.83095E-01 2.63876E-14-6.53194E-15
 -1      3257 2.01561E+01 1.81252E+00-6.44155E-03-6.82177E-01 2.04954E-14-4.11678E-14
 -1      3258 2.23125E+01-3.77128E+00 4.09973E-02-5.34788E+00-2.00104E-13-1.83093E-13
 -1      3259 2.33411E+01-3.56460E+00-4.11181E-02-3.98731E+00-1.33718E-13 1.00640E-14
 -1      3260 2.06672E+01-2.77376E+00 6.88892E-02-5.32013E+00-9.62442E-14-2.20352E-13
 -1      3261 1.29845E+01 2.47541E+00 3.86575E-02-3.83360E-01 2.57806E-13 7.68136E-14
 -1      3262 2.70460E+01-2.78992E+00 1.31810E-02 9.56789E-01 1.97961E-13-8.11157E-15
 -1      3263 2.01577E+01 1.80275E+00-6.75222E-03 6.85248E-01 1.03291E-13 8.60940E-14
 -1      3264 2.01224E+01 1.93109E+00-2.64579E-03 5.88623E-01 9.85156E-14 8.45320E-14
 -1      3265 2.02470E+01 1.46057E+00 4.27900E-03 5.82895E-01 8.60712E-14 8.63662E-14
 -1      3266 2.70778E+01 5.19584E+00-8.55227E-02 1.57359E+00 2.62068E-13 4.31016E-13
 -1      3267 9.97094E+00 1.50896E+00 3.16724E-02 2.39217E+00 3.70816E-13 6.89587E-13
 -1      3268 2.39052E+01-3.66739E+00 3.69685E-02 4.11752E+00 2.92526E-13 1.63601E-13
 -1      3269 2.09400E+01-7.00360E-01 4.69047E-03-7.88221E-01 2.02753E-13 1.35077E-14
 -1      3270 2.12729E+01-7.49346E-01 2.80357E-03-8.37973E-01 1.46220E-13 7.41367E-14
 -1      3271 2.00639E+01 2.10602E+00-3.04020E-03 3.90332E-01 8.76341E-14 6.07263E-14
 -1      3272 2.01587E+01 1.84804E+00 4.91431E-03 2.89783E-01 9.01045E-14 4.91817E-14
 -1      3273 2.00892E+01 2.02624E+00-5.24262E-03 5.03994E-01 1.06655E-13 8.84895E-14
 -1      3274 2.79872E+01 2.07888E-01-3.26211E-02-1.45191E+00 3.51264E-13 5.55250E-14
 -1      3275 2.00611E+01 2.11118E+00-3.31146E-03-3.83727E-01 2.19702E-14 2.79962E-14
 -1      3276 2.00857E+01 2.03380E+00-5.37394E-03-4.97355E-01 2.33914E-14 8.61306E-15
 -1      3277 2.01991E+01 1.70477E+00 6.07554E-03-4.55817E-01 8.55436E-15-6.61355E-15
 -1      3278 1.87045E+01-2.48778E+00 7.57587E-02 6.22992E+00 3.59421E-13 2.90133E-13
 -1      3279 2.02958E+01 1.06913E+00 5.25118E-03 4.29641E-01 9.24688E-14 6.44119E-14
 -1      3280 2.02685E+01 1.24416E+00-3.72844E-03 5.12514E-01 8.91464E-14 7.74658E-14
 -1      3281 2.02510E+01 1.38467E+00-3.65411E-04 4.70738E-01 9.31222E-14 8.05697E-14
 -1      3282 2.02989E+01 4.51508E-01 1.83582E-03-7.77897E-02-1.33500E-14 5.45195E-14
 -1      3283 2.02751E+01 3.38003E-01-1.98995E-03-8.84293E-03-2.48318E-15 7.30631E-14
 -1      3284 2.02670E+01 2.45801E-01 2.11571E-03 3.71855E-02-1.30034E-14 6.53929E-14
 -1      3285 2.02423E+01 1.68853E-01-1.31667E-03 7.91401E-02-1.41756E-14 5.60977E-14
 -1      3286 2.03148E+01 3.39080E-01-5.08470E-05-5.43708E-04-6.63698E-16 3.12000E-14
 -1      3287 2.02275E+01 1.08596E-01 1.64618E-03 1.06048E-01-3.41741E-14 7.12700E-14
 -1      3288 2.02056E+01 5.85795E-02-6.85209E-04 1.28645E-01-2.84530E-14 5.12507E-14
 -1      3289 2.02831E+01 1.66440E-01-4.19087E-04 7.57430E-02-2.73202E-14 4.52689E-14
 -1      3290 2.01879E+01 2.03422E-02 1.15416E-03 1.41495E-01-9.61811E-15 3.01589E-14
 -1      3291 2.01697E+01-1.05712E-02-2.47950E-04 1.50748E-01-1.15818E-14 6.67606E-14
 -1      3292 2.02449E+01 5.29478E-02-5.73723E-04 1.18547E-01-3.74389E-14 4.35203E-14
 -1      3293 2.01517E+01-3.33803E-02 7.54774E-04 1.54024E-01-1.00580E-14 8.60095E-14
 -1      3294 2.01372E+01-5.09684E-02 3.57459E-05 1.54586E-01-3.22483E-14 1.25149E-13
 -1      3295 2.02059E+01-1.80824E-02-6.17306E-04 1.37366E-01 2.29239E-15 4.29627E-14
 -1      3296 2.01202E+01-6.31383E-02 4.52857E-04 1.51806E-01-5.71561E-14 1.52447E-13
 -1      3297 2.01089E+01-7.16158E-02 2.06424E-04 1.47120E-01-5.42723E-14 1.65898E-13
 -1      3298 2.01691E+01-5.92062E-02-5.94641E-04 1.40152E-01 1.52993E-15 9.51132E-14
 -1      3299 2.00936E+01-7.66065E-02 2.35518E-04 1.40881E-01-5.78346E-14 1.77000E-13
 -1      3300 2.00850E+01-7.90183E-02 2.98348E-04 1.33400E-01-3.73385E-14 1.44344E-13
 -1      3301 2.01362E+01-7.97304E-02-5.38822E-04 1.33029E-01-5.23543E-14 1.61384E-13
 -1      3302 2.00718E+01-7.93063E-02 8.52159E-05 1.25541E-01-2.23382E-14 1.45101E-13
 -1      3303 2.00654E+01-7.78186E-02 3.37844E-04 1.16955E-01 2.42310E-14 1.51876E-13
 -1      3304 2.01078E+01-8.64378E-02-4.68786E-04 1.20468E-01-2.26684E-14 1.60659E-13
 -1      3305 2.00542E+01-7.51434E-02-1.51847E-05 1.08724E-01 7.96524E-14 1.26725E-13
 -1      3306 2.00496E+01-7.12567E-02 3.44169E-04 1.00159E-01 8.11878E-14 1.21918E-13
 -1      3307 2.00839E+01-8.41853E-02-3.95355E-04 1.05605E-01 3.94424E-14 1.48434E-13
 -1      3308 2.00404E+01-6.67984E-02-8.06101E-05 9.23734E-02 5.85381E-14 1.17854E-13
 -1      3309 2.00371E+01-6.15041E-02 3.31177E-04 8.45550E-02 8.18468E-14 1.06712E-13
 -1      3310 2.00642E+01-7.63555E-02-3.23723E-04 9.05518E-02 8.17582E-14 1.79513E-13
 -1      3311 2.00295E+01-5.60144E-02-1.23515E-04 7.77222E-02 9.26569E-14 9.89592E-14
 -1      3312 2.00274E+01-4.99109E-02 3.08065E-04 7.11034E-02 1.26145E-13 9.88650E-14
 -1      3313 2.00483E+01-6.52001E-02-2.55742E-04 7.66777E-02 1.03279E-13 1.91812E-13
 -1      3314 2.00211E+01-4.38043E-02-1.54308E-04 6.55239E-02 9.66257E-14 7.00156E-14
 -1      3315 2.00197E+01-3.71752E-02 2.80414E-04 6.03848E-02 7.07092E-14 7.76785E-14
 -1      3316 2.00353E+01-5.20948E-02-1.90811E-04 6.48271E-02 9.75212E-14 1.24931E-13
 -1      3317 2.00143E+01-3.05890E-02-1.81947E-04 5.62237E-02 3.81304E-14 1.01018E-13
 -1      3318 2.00133E+01-2.34501E-02 2.50429E-04 5.27467E-02-3.62655E-14 6.85982E-14
 -1      3319 2.00248E+01-3.77162E-02-1.25778E-04 5.54911E-02 4.15243E-14 1.15618E-13
 -1      3320 2.00085E+01-1.62718E-02-2.14855E-04 5.00838E-02-8.18603E-14 9.66643E-14
 -1      3321 2.00076E+01-8.38599E-03 2.16682E-04 4.84089E-02-6.86889E-14 1.13738E-13
 -1      3322 2.00156E+01-2.21517E-02-5.45915E-05 4.89257E-02 3.08892E-14 6.06906E-14
 -1      3323 2.00026E+01-2.49148E-04-2.61854E-04 4.72657E-02-5.51157E-14 1.80479E-13
 -1      3324 2.00012E+01 8.89216E-03 1.73061E-04 4.75286E-02-3.87988E-14 2.63489E-13
 -1      3325 2.00069E+01-4.94205E-03 3.27063E-05 4.52224E-02-2.13872E-14 1.96169E-13
 -1      3326 1.99952E+01 1.86483E-02-3.33122E-04 4.78698E-02-3.58769E-14 2.89887E-13
 -1      3327 1.99927E+01 2.98821E-02 1.06490E-04 5.02198E-02 4.99478E-14 1.99556E-13
 -1      3328 1.99972E+01 1.49435E-02 1.51763E-04 4.43262E-02-1.16377E-14 2.62826E-13
 -1      3329 1.99845E+01 4.22946E-02-4.41044E-04 5.19207E-02 5.70893E-14 1.24199E-13
 -1      3330 1.99795E+01 5.68848E-02-7.23137E-06 5.65119E-02 4.40859E-14 1.17475E-13
 -1      3331 1.99844E+01 3.92050E-02 3.26705E-04 4.59871E-02-4.39256E-15 2.48990E-13
 -1      3332 1.99672E+01 7.34956E-02-6.00647E-04 5.92737E-02 6.27692E-14 1.37677E-13
 -1      3333 1.99577E+01 9.32752E-02-2.10537E-04 6.62076E-02 6.23362E-14 2.13461E-13
 -1      3334 1.99658E+01 7.03836E-02 5.94183E-04 4.96148E-02 5.07831E-14 2.63190E-13
 -1      3335 1.99387E+01 1.16308E-01-8.28896E-04 6.93875E-02-2.52060E-14 2.13244E-13
 -1      3336 1.99213E+01 1.43856E-01-5.75632E-04 7.85679E-02-6.52083E-14 2.05923E-13
 -1      3337 1.99369E+01 1.12097E-01 1.00890E-03 5.39796E-02 5.23987E-14 2.23115E-13
 -1      3338 1.98913E+01 1.76427E-01-1.14154E-03 8.08661E-02-8.39467E-14 1.66180E-13
 -1      3339 1.98605E+01 2.15246E-01-1.22242E-03 9.16920E-02-8.07996E-14 1.67198E-13
 -1      3340 1.98909E+01 1.69303E-01 1.65046E-03 5.66603E-02-9.19273E-14 2.14571E-13
 -1      3341 1.98133E+01 2.61556E-01-1.54531E-03 9.06043E-02-4.13634E-14 1.75788E-13
 -1      3342 1.97602E+01 3.16156E-01-2.34489E-03 1.01374E-01 1.63883E-14 1.63516E-13
 -1      3343 1.98176E+01 2.48477E-01 2.63063E-03 5.30782E-02-7.22311E-14 2.80002E-13
 -1      3344 1.96868E+01 3.81532E-01-2.02294E-03 9.22698E-02-4.93692E-14 8.16221E-14
 -1      3345 1.95971E+01 4.57212E-01-4.24684E-03 9.90950E-02-1.11079E-13 4.52317E-14
 -1      3346 1.97018E+01 3.57468E-01 4.09812E-03 3.48726E-02-7.91977E-14 1.64429E-13
 -1      3347 1.94846E+01 5.47710E-01-2.50901E-03 7.37389E-02-9.58707E-14 2.18792E-15
 -1      3348 1.93364E+01 6.49621E-01-7.38216E-03 6.86949E-02-4.37160E-14 5.64330E-14
 -1      3349 1.95215E+01 5.04542E-01 6.23527E-03-1.27225E-02-1.33240E-13 1.36483E-13
 -1      3350 1.91675E+01 7.70604E-01-2.85495E-03 1.30196E-02-1.14217E-14 3.09208E-14
 -1      3351 1.89278E+01 9.01301E-01-1.23739E-02-1.87624E-02-2.36254E-14 6.05961E-14
 -1      3352 1.92457E+01 6.95693E-01 9.24091E-03-1.14891E-01-4.61943E-14 5.97608E-14
 -1      3353 1.86800E+01 1.05394E+00-2.76397E-03-1.27724E-01-1.12493E-13-6.43781E-14
 -1      3354 1.83006E+01 1.20813E+00-1.98838E-02-2.12125E-01-2.19150E-13-1.64029E-13
 -1      3355 1.88329E+01 9.28661E-01 1.33124E-02-3.12933E-01-1.55221E-13-6.35552E-14
 -1      3356 1.79473E+01 1.38215E+00-1.52540E-03-4.09970E-01-1.69202E-13-2.14881E-13
 -1      3357 1.73601E+01 1.53695E+00-2.98027E-02-5.88591E-01-7.71683E-14-2.38474E-13
 -1      3358 1.82315E+01 1.18123E+00 1.87679E-02-6.71585E-01-2.12040E-13-1.38176E-13
 -1      3359 1.68725E+01 1.69782E+00 3.15924E-03-9.26128E-01-7.14810E-14-1.60150E-13
 -1      3360 1.59883E+01 1.79661E+00-3.65520E-02-1.26076E+00 1.39212E-16-1.39835E-13
 -1      3361 1.73837E+01 1.39148E+00 2.68057E-02-1.28686E+00 4.62716E-15-1.72256E-13
 -1      3362 1.53794E+01 1.86023E+00 1.75789E-02-1.77006E+00-3.34325E-15-1.09652E-13
 -1      3363 1.41785E+01 1.79951E+00-1.72350E-02-2.30712E+00-2.78406E-14-1.08930E-13
 -1      3364 1.62665E+01 1.42747E+00 3.94370E-02-2.25694E+00-2.97613E-14-2.32470E-13
 -1      3365 2.00650E+01-7.64259E-02 3.18791E-04-1.28636E-01 7.18478E-15 1.29977E-13
 -1      3366 2.00716E+01-7.62115E-02 1.37325E-04-1.37078E-01 1.59085E-14 7.31278E-14
 -1      3367 2.25747E+01-2.37125E+00 2.52787E-02 3.23531E+00 2.45325E-14 4.08978E-14
 -1      3368 2.31072E+01-2.54510E+00-1.48284E-02 2.61446E+00 3.37503E-14 1.70213E-14
 -1      3369 2.65892E+01-2.20553E+00 4.31563E-02-3.16041E-02 7.90635E-14 3.49026E-15
 -1      3370 2.66023E+01-1.04703E+00-7.28559E-02 1.07079E+00 2.62125E-13 2.80480E-13
 -1      3371 2.00852E+01-7.39095E-02 2.59395E-04-1.44553E-01 1.24367E-14 5.40030E-14
 -1      3372 2.00941E+01-6.89396E-02 3.25537E-04-1.51104E-01 8.21638E-15 5.23422E-14
 -1      3373 2.01119E+01-8.18871E-02-4.93093E-04-1.31533E-01-1.56640E-14 7.68841E-14
 -1      3374 2.01386E+01-3.22049E-02-8.33032E-05-1.58753E-01-2.84754E-15 9.96353E-14
 -1      3375 2.01541E+01-9.18306E-03 9.63374E-04-1.54388E-01-8.00927E-15 1.03807E-13
 -1      3376 2.00487E+01-7.23342E-02 3.37038E-04-1.11253E-01 1.01182E-14 9.40851E-14
 -1      3377 2.00534E+01-7.50905E-02 1.12903E-05-1.20189E-01 1.01799E-14 1.33883E-13
 -1      3378 2.00870E+01-8.35766E-02-4.14542E-04-1.16918E-01-9.33670E-15 9.64261E-14
 -1      3379 2.00357E+01-6.43089E-02 3.30121E-04-9.43500E-02 2.74874E-14 1.44473E-13
 -1      3380 2.00390E+01-6.87932E-02-6.95471E-05-1.02873E-01 1.09317E-14 1.14526E-13
 -1      3381 2.00663E+01-7.83726E-02-3.38707E-04-1.01100E-01 3.21197E-14 9.31227E-14
 -1      3382 2.00254E+01-5.41859E-02 3.09753E-04-7.91387E-02-1.71163E-14 1.37863E-13
 -1      3383 2.00276E+01-5.95493E-02-1.18623E-04-8.66962E-02 5.66737E-14 1.28919E-13
 -1      3384 2.00493E+01-6.90968E-02-2.69760E-04-8.58283E-02 4.71889E-14 7.18613E-14
 -1      3385 2.00173E+01-4.32157E-02 2.83979E-04-6.63258E-02-1.48494E-14 1.03537E-13
 -1      3386 2.00188E+01-4.88804E-02-1.45788E-04-7.26064E-02-5.20751E-14 1.22538E-13
 -1      3387 2.00356E+01-5.76869E-02-2.09505E-04-7.22035E-02-8.94017E-15 3.46303E-14
 -1      3388 2.00110E+01-3.22740E-02 2.58433E-04-5.62740E-02 1.46050E-14 1.80844E-13
 -1      3389 2.00119E+01-3.78296E-02-1.57786E-04-6.11331E-02 2.05494E-14 1.36087E-13
 -1      3390 2.00245E+01-4.54687E-02-1.59656E-04-6.08797E-02-2.45826E-14 2.52640E-14
 -1      3391 2.00062E+01-2.20533E-02 2.37023E-04-4.91163E-02-7.24028E-14 2.53089E-13
 -1      3392 2.00067E+01-2.71604E-02-1.58060E-04-5.25258E-02-2.98836E-14 1.86555E-13
 -1      3393 2.00157E+01-3.33860E-02-1.22371E-04-5.22174E-02-4.31108E-14 1.40239E-13
 -1      3394 2.00029E+01-1.32480E-02 2.22461E-04-4.48235E-02-5.14686E-14 2.91818E-13
 -1      3395 2.00028E+01-1.75441E-02-1.46650E-04-4.68466E-02-5.98755E-14 2.55923E-13
 -1      3396 2.00086E+01-2.22120E-02-1.01259E-04-4.63937E-02-6.96796E-14 1.28155E-13
 -1      3397 2.00010E+01-6.74883E-03 2.16520E-04-4.32275E-02-5.53101E-14 2.32713E-13
 -1      3398 2.00003E+01-9.74750E-03-1.19714E-04-4.40173E-02-3.67772E-14 2.52044E-13
 -1      3399 2.00033E+01-1.27590E-02-1.02533E-04-4.34720E-02-3.76504E-14 2.44372E-13
 -1      3400 2.00014E+01-3.85343E-03 2.19901E-04-4.39971E-02-4.86071E-14 1.43459E-13
 -1      3401 1.99997E+01-4.83480E-03-6.86394E-05-4.38218E-02-4.10807E-14 1.99028E-13
 -1      3402 1.99999E+01-6.09797E-03-1.36345E-04-4.34345E-02-2.28837E-14 1.15942E-13
 -1      3403 2.00053E+01-6.49245E-03 2.31404E-04-4.65577E-02-1.94191E-14 3.95495E-14
 -1      3404 2.00019E+01-4.38602E-03 2.12396E-05-4.58558E-02-5.22492E-14 1.10888E-13
 -1      3405 1.99993E+01-3.79991E-03-2.18207E-04-4.61705E-02-1.26550E-15 4.12718E-14
 -1      3406 2.00148E+01-1.74528E-02 2.46016E-04-4.99368E-02 2.68253E-14 6.18156E-14
 -1      3407 2.00087E+01-1.07251E-02 1.72162E-04-4.94107E-02 2.73371E-14 7.71628E-14
 -1      3408 2.00030E+01-8.19409E-03-3.70228E-04-5.14077E-02-1.92629E-14 5.44497E-14
 -1      3409 2.00332E+01-4.05435E-02 2.51327E-04-5.25104E-02 3.45782E-14 1.24674E-13
 -1      3410 2.00230E+01-2.71228E-02 4.15251E-04-5.32668E-02 6.13174E-15 4.23255E-14
 -1      3411 2.00138E+01-2.26203E-02-6.21467E-04-5.85588E-02 7.38387E-15 1.63979E-13
 -1      3412 2.00656E+01-8.05953E-02 2.21787E-04-5.16149E-02-1.37141E-14 2.45475E-13
 -1      3413 2.00491E+01-5.78965E-02 7.90559E-04-5.53611E-02 5.82924E-14 1.36616E-13
 -1      3414 2.00360E+01-5.16087E-02-1.00607E-03-6.64379E-02-4.58834E-14 1.66539E-13
 -1      3415 2.01187E+01-1.43098E-01 1.11001E-04-4.30005E-02-1.83290E-14 2.73055E-13
 -1      3416 2.00930E+01-1.08259E-01 1.34366E-03-5.22934E-02-3.12528E-14 2.23354E-13
 -1      3417 2.00759E+01-1.00853E-01-1.55691E-03-7.27853E-02-2.07484E-14 2.05527E-13
 -1      3418 2.02005E+01-2.33169E-01-1.55555E-04-2.01324E-02 1.11185E-16 2.85304E-13
 -1      3419 2.01629E+01-1.83671E-01 2.11478E-03-3.86484E-02 1.39295E-15 2.57625E-13
 -1      3420 2.01423E+01-1.76736E-01-2.29109E-03-7.35312E-02-1.70476E-14 7.91171E-14
 -1      3421 2.03201E+01-3.53417E-01-6.79622E-04 2.65358E-02 8.24930E-14 1.42181E-13
 -1      3422 2.02678E+01-2.88328E-01 3.11393E-03-6.18825E-03 1.98470E-14 2.32144E-13
 -1      3423 2.02462E+01-2.85017E-01-3.18268E-03-6.17632E-02 1.45823E-14 8.95196E-14
 -1      3424 2.04849E+01-5.00251E-01-1.56589E-03 1.09939E-01-8.39582E-14 2.86160E-13
 -1      3425 2.04167E+01-4.22319E-01 4.27492E-03 5.68451E-02 4.17821E-14 2.50778E-13
 -1      3426 2.03996E+01-4.28147E-01-4.11798E-03-2.65087E-02-1.88033E-14 1.73449E-13
 -1      3427 2.06970E+01-6.58379E-01-2.85244E-03 2.45594E-01-2.42880E-13 3.63870E-13
 -1      3428 2.06152E+01-5.77074E-01 5.38271E-03 1.65696E-01-1.50396E-13 3.09345E-13
 -1      3429 2.06136E+01-6.00605E-01-4.83783E-03 4.82035E-02-1.28223E-13 2.90796E-13
 -1      3430 2.09476E+01-7.94032E-01-4.33902E-03 4.48117E-01-7.41533E-14 3.81590E-13
 -1      3431 2.08596E+01-7.29154E-01 5.97682E-03 3.37085E-01-1.16563E-13 4.17730E-13
 -1      3432 2.08922E+01-7.81966E-01-4.88902E-03 1.82872E-01-2.00305E-13 2.83148E-13
 -1      3433 2.12100E+01-8.49572E-01-5.24466E-03 7.22760E-01-1.16295E-13 3.23827E-13
 -1      3434 2.11300E+01-8.33675E-01 5.33180E-03 5.83032E-01-7.72531E-14 3.68831E-13
 -1      3435 2.12252E+01-9.28356E-01-3.60361E-03 3.98378E-01-1.27598E-13 3.85598E-13
 -1      3436 2.14367E+01-7.47274E-01-4.51995E-03 1.04981E+00 1.37526E-13 1.43153E-13
 -1      3437 2.13839E+01-8.21772E-01 2.78230E-03 8.97874E-01-1.97767E-14 2.39757E-13
 -1      3438 2.15776E+01-9.66313E-01-1.20738E-04 7.04283E-01 3.85133E-14 2.43326E-13
 -1      3439 2.15648E+01-4.08749E-01-1.30957E-03 1.36795E+00 1.81607E-13 1.94739E-13
 -1      3440 2.15580E+01-6.12282E-01-2.86227E-03 1.24033E+00 1.41708E-13 1.41298E-13
 -1      3441 2.18840E+01-8.00056E-01 5.32060E-03 1.07922E+00 1.28342E-13 1.27560E-13
 -1      3442 2.15446E+01 1.93420E-01 4.84005E-03 1.56355E+00 1.15648E-13 3.64003E-13
 -1      3443 2.15906E+01-1.43759E-01-9.72245E-03 1.51498E+00 1.98247E-13 3.18855E-13
 -1      3444 2.20572E+01-3.51294E-01 7.35551E-03 1.44021E+00 5.09415E-14 3.31557E-13
 -1      3445 2.13723E+01 9.80256E-01 1.15751E-02 1.49344E+00-1.23181E-13 3.67703E-13
 -1      3446 2.14531E+01 5.67907E-01-1.55355E-02 1.58356E+00 6.23872E-15 2.70072E-13
 -1      3447 2.20354E+01 4.07375E-01 9.54496E-03 1.64569E+00 5.92052E-14 4.86900E-13
 -1      3448 2.11266E+01 1.72888E+00 1.30415E-02 1.06225E+00-4.15955E-14 1.99389E-13
 -1      3449 2.12066E+01 1.37147E+00-1.49485E-02 1.31552E+00-4.25029E-15 2.60084E-13
 -1      3450 2.18280E+01 1.33326E+00 5.69269E-03 1.51717E+00 6.29954E-15 2.46240E-13
 -1      3451 2.09522E+01 2.14871E+00 6.52643E-03 3.19968E-01-1.61007E-13 1.73539E-13
 -1      3452 2.09914E+01 1.99230E+00-6.42956E-03 6.88916E-01-1.91234E-13 1.76788E-13
 -1      3453 2.15653E+01 2.13345E+00-1.36153E-03 9.65241E-01-1.67771E-13 4.36441E-14
 -1      3454 2.09560E+01 2.05467E+00-5.78062E-03-5.20637E-01-3.68616E-14 1.18047E-13
 -1      3455 2.09397E+01 2.17017E+00 5.77269E-03-1.43536E-01-5.95114E-14 1.68312E-13
 -1      3456 2.14312E+01 2.48279E+00-5.14262E-03 9.70370E-02-3.21574E-14 1.68022E-13
 -1      3457 2.11235E+01 1.48115E+00-2.25554E-02-1.16848E+00 1.52020E-13 4.95734E-14
 -1      3458 2.10801E+01 1.81645E+00 1.25711E-02-9.10079E-01 2.58767E-14-6.45886E-15
 -1      3459 2.15416E+01 2.22390E+00 4.50987E-03-7.97545E-01 4.50959E-14-3.44390E-14
 -1      3460 2.13612E+01 7.18823E-01-1.55566E-02-1.50869E+00 1.02960E-13 1.72631E-14
 -1      3461 2.12932E+01 1.13239E+00 1.44751E-02-1.39288E+00 1.90844E-13 8.90906E-14
 -1      3462 2.17446E+01 1.54635E+00 1.29971E-02-1.40284E+00 6.69013E-14-1.53166E-13
 -1      3463 2.14694E+01 4.89301E-04-1.19243E-02-1.46522E+00 1.39417E-13-5.37376E-14
 -1      3464 2.14485E+01 3.48259E-01 8.44711E-03-1.48792E+00 5.13971E-14-1.44410E-14
 -1      3465 2.19641E+01 5.27546E-01 1.09818E-02-1.55984E+00 7.05247E-14-2.94703E-13
 -1      3466 2.13954E+01-4.67787E-01-5.31253E-03-1.22089E+00 2.32035E-13 1.08247E-13
 -1      3467 2.14221E+01-2.63481E-01-3.72490E-03-1.31807E+00 2.00467E-13 7.65171E-14
 -1      3468 2.19106E+01-2.25460E-01-1.52554E-02-1.39214E+00 9.07508E-14-2.13340E-13
 -1      3469 2.13639E+01-6.86880E-01 3.82418E-04-9.41398E-01 2.68648E-13 1.38289E-13
 -1      3470 2.01038E+01-2.07302E+00-2.43584E-02 4.93563E+00 2.04160E-13 2.52826E-13
 -1      3471 2.16050E+01-2.52114E+00 3.59824E-02 4.46177E+00 8.16812E-14 1.30953E-13
 -1      3472 1.75900E+01-1.09700E+00 1.16394E-01 5.42859E+00 2.47117E-13 1.84089E-13
 -1      3473 1.37166E+01 1.68388E+00 4.93135E-02-2.83985E+00-2.46764E-14-1.31756E-13
 -1      3474 1.25978E+01 1.47049E+00 3.34790E-02-3.41130E+00 7.02303E-14-1.36169E-13
 -1      3475 1.51278E+01 1.13143E+00 4.39184E-02-3.44644E+00 5.02029E-14-1.65545E-13
 -1      3476 2.50874E+01-3.39363E+00 8.04386E-02-2.55696E+00-7.98415E-14-1.48289E-13
 -1      3477 2.58211E+01-3.20852E+00-9.22690E-02-1.37350E+00-7.93484E-14-2.15333E-13
 -1      3478 2.02019E+01 1.61124E+00-2.54421E-03-7.16973E-01 1.34219E-14-2.83963E-14
 -1      3479 2.33956E+01-2.21053E+00 3.23077E-02 1.69913E+00 7.53043E-14-1.84950E-13
 -1      3480 2.33550E+01-2.11974E+00-1.75090E-02 1.09088E+00 3.14818E-14-5.24761E-13
 -1      3481 2.39571E+01-2.66168E+00 2.45917E-02 2.01262E+00 4.75973E-14-1.78024E-13
 -1      3482 1.42173E+01-3.66043E-01 3.19053E-02 5.45966E+00 2.89758E-13 5.97127E-13
 -1      3483 1.18049E+01 9.32019E-01 1.93877E-01 4.21555E+00 2.59150E-13 7.43960E-13
 -1      3484 1.25564E+01 2.51207E+00 2.01761E-01 1.23165E+00 3.84739E-13 3.96030E-13
 -1      3485 2.02465E+01 1.40594E+00 1.75912E-03-5.57453E-01-3.07244E-15-3.11215E-14
 -1      3486 2.59043E+01 3.72588E+00-7.01794E-02-1.87696E+00 2.81108E-13-6.63428E-14
 -1      3487 2.65951E+01 2.40018E+00-1.60398E-02-2.07746E+00 3.70357E-13 2.60694E-14
 -1      3488 2.66632E+01-2.17430E+00-1.12638E-01-1.40847E-01 1.21241E-13 5.28657E-15
 -1      3489 2.59536E+01-2.91125E+00 6.65646E-02 1.29639E+00 2.37694E-13-2.72681E-14
 -1      3490 2.00278E+01 2.20290E+00-3.51637E-03-1.62827E-01 4.34438E-14 3.37464E-14
 -1      3491 2.00402E+01 2.16516E+00-4.71652E-03-2.82883E-01 2.81779E-14 4.57445E-14
 -1      3492 2.01630E+01 1.85287E+00 6.95541E-03-2.87553E-01 3.11322E-14 3.17526E-14
 -1      3493 1.55470E+01-3.18732E-01 8.41381E-02-5.24366E+00-7.83089E-14-3.67890E-13
 -1      3494 1.78817E+01-1.80645E+00-3.56598E-02-5.70508E+00-7.70217E-14-4.14876E-13
 -1      3495 1.22472E+01 1.63583E+00 1.20503E-01 2.70970E+00 3.27283E-13 6.67813E-13
 -1      3496 2.02639E+01 1.31983E+00-4.39381E-04-4.20015E-01 3.42344E-15-1.85966E-14
 -1      3497 2.02936E+01 1.12713E+00-2.91879E-04-4.42683E-01-3.57939E-15-2.70023E-14
 -1      3498 2.02941E+01 9.06589E-01-2.24594E-03-3.06595E-01 3.27589E-15-2.52922E-14
 -1      3499 2.03149E+01 7.31263E-01 6.57120E-04-2.34844E-01 3.95343E-15 6.29425E-15
 -1      3500 2.02981E+01 5.72154E-01-2.46189E-03-1.34454E-01-1.74069E-15 3.82249E-14
 -1      3501 2.03330E+01 5.77732E-01 1.29828E-03-1.08801E-01 1.77679E-14 4.74229E-14
 -1      3502 2.03244E+01 8.83440E-01 9.10026E-04-2.38685E-01 2.47218E-14-6.92487E-16
 -1      3503 2.68080E+01 8.71723E-01-1.04809E-01-1.82574E+00 3.36151E-13-3.19605E-14
 -1      3504 2.70218E+01-5.01995E-01 4.05764E-02-1.24320E+00 2.86802E-13 3.24706E-14
 -1      3505 2.57278E+01 1.31767E+00-2.43039E-02-1.88432E+00 3.31334E-13-1.65758E-13
 -1      3506 2.01097E+01-6.09619E-02 1.35033E-04-1.56041E-01 3.43478E-14 7.78523E-14
 -1      3507 2.01215E+01-4.87160E-02 5.94785E-04-1.58623E-01 3.61707E-14 9.88423E-14
 -1      3508 2.01750E+01-4.00589E-02-6.25432E-04-1.45282E-01 3.19431E-14 8.95631E-14
 -1      3509 2.01413E+01-6.92621E-02-5.64997E-04-1.42284E-01 3.49193E-14 7.19054E-14
 -1      3510 1.40793E+01 4.62976E-01 4.07697E-02-4.75182E+00-2.45914E-14-2.61506E-13
 -1      3511 2.65086E+01 3.99433E+00-6.59947E-02 2.04970E+00 2.25632E-13 3.25111E-13
 -1      3512 2.56312E+01 4.91527E+00-5.85086E-02 1.46055E+00 2.21399E-13 2.47209E-13
 -1      3513 2.58700E+01 2.61118E+00-4.30374E-02 2.02567E+00 3.82368E-13 9.68323E-14
 -1      3514 2.18482E+01-7.48460E-01 1.10973E-02-9.32584E-01 2.42697E-13 1.79872E-13
 -1      3515 1.33851E+01 1.47969E+00-3.63856E-02 2.88113E+00 3.53827E-13 8.10074E-13
 -1      3516 2.64353E+01-3.61814E-01-1.09179E-02 1.52395E+00 2.71699E-13 1.69437E-13
 -1      3517 2.58413E+01 4.17724E-01-3.95829E-02 1.82900E+00 2.92100E-13 8.36553E-14
 -1      3518 2.55542E+01-1.05310E+00-1.48767E-02 1.06380E+00 1.88551E-13 1.76549E-13
 -1      3519 2.02850E+01 8.52036E-01-3.43029E-03 3.03794E-01 9.12936E-14 7.33303E-14
 -1      3520 2.31891E+01-1.74344E+00 1.52764E-02 4.79769E-01-1.57161E-13-3.97253E-13
 -1      3521 2.28849E+01-1.56818E+00-2.31270E-02 1.67366E-02-1.44277E-13 2.03830E-16
 -1      3522 2.37290E+01-2.00066E+00-2.73906E-03 5.72950E-01-1.62266E-13-2.91061E-13
 -1      3523 2.01718E+01 1.98297E-02-4.34341E-04-1.46569E-01-2.64243E-14 1.00300E-13
 -1      3524 2.01914E+01 5.84574E-02 1.43866E-03-1.31136E-01-3.96614E-14 8.72507E-14
 -1      3525 2.02122E+01 1.35485E-02-6.43481E-04-1.35072E-01-7.10934E-15 5.69842E-14
 -1      3526 2.60160E+01-1.19136E+00-1.29041E-03-7.84337E-01 1.08007E-13-1.71640E-13
 -1      3527 1.60336E+01 1.12117E-01 8.18664E-02-4.51330E+00 5.62900E-14-3.49757E-13
 -1      3528 2.02006E+01 1.64074E+00-3.29576E-03 1.29999E-01 6.40383E-14 3.09330E-14
 -1      3529 2.01965E+01 1.66035E+00-2.69480E-03 3.95265E-02 5.67343E-14 4.08917E-14
 -1      3530 1.48928E+01 8.97151E-01 1.04167E-01 3.98425E+00 2.09537E-13 6.09873E-13
 -1      3531 2.45529E+01 4.13072E+00-3.63017E-02 1.30885E+00 3.30614E-13 8.05354E-14
 -1      3532 2.50244E+01 5.09266E+00-7.79663E-02 8.83165E-01 1.71849E-13 1.54031E-13
 -1      3533 2.44283E+01 4.91754E+00-4.00043E-02 2.10566E-01 1.01738E-13 1.66765E-13
 -1      3534 1.54692E+01-3.14767E-01 2.03704E-02 5.18178E+00 3.16937E-13 3.45557E-13
 -1      3535 2.28260E+01-3.09891E+00 3.63941E-02 4.11253E+00 1.21748E-13 1.09308E-13
 -1      3536 2.37299E+01-3.16801E+00 1.02698E-02-3.02908E+00-1.18926E-13-1.48047E-13
 -1      3537 2.01367E+01 1.92673E+00 5.78312E-03-9.58898E-02 5.16284E-14 5.14688E-14
 -1      3538 2.26012E+01-1.20740E+00 1.05526E-02-3.82778E-01-1.21265E-13 9.46581E-14
 -1      3539 2.21978E+01-1.04370E+00-2.00539E-02-6.69059E-01 8.94076E-15 6.06581E-14
 -1      3540 2.23614E+01-7.27879E-01 1.74076E-02-1.03842E+00 3.77399E-14-1.99606E-13
 -1      3541 2.31108E+01-1.30666E+00 1.01315E-02-4.27524E-01-2.92071E-13-1.34998E-13
 -1      3542 1.97146E+01-1.98419E+00 3.23128E-02-4.87345E+00-1.04576E-13-2.56001E-13
 -1      3543 2.45431E+01-3.59198E+00-1.07764E-01 2.84590E+00 1.87031E-13-1.80455E-14
 -1      3544 2.52021E+01 4.23082E+00-6.33913E-02-1.56123E+00 7.39478E-14-2.08618E-14
 -1      3545 2.46187E+01 3.24481E+00 4.28866E-03-1.67604E+00 1.84849E-13 1.74663E-14
 -1      3546 2.43816E+01 4.56435E+00-1.98853E-02-9.20271E-01-6.56940E-14 2.35163E-13
 -1      3547 2.49100E+01-2.76551E+00 2.23740E-02 1.59806E+00 1.35740E-13-4.02213E-14
 -1      3548 2.02748E+01 4.38342E-01-3.45766E-03 7.33540E-02 8.83211E-14 8.58505E-14
 -1      3549 2.03054E+01 5.74530E-01 4.21500E-03 1.59220E-01 8.79143E-14 7.33967E-14
 -1      3550 2.02439E+01 1.40687E+00-2.69044E-03-3.53902E-01 1.15196E-14-4.75883E-15
 -1      3551 2.55614E+01-2.42420E+00 3.88400E-03-4.33056E-01 5.92096E-14-4.72886E-14
 -1      3552 2.01980E+01 1.69550E+00 4.49337E-03 4.56967E-01 9.41372E-14 7.95469E-14
 -1      3553 2.02444E+01 2.38985E-01-1.76511E-03-4.21086E-02 5.71431E-14 6.66814E-14
 -1      3554 2.02710E+01 3.31569E-01 2.60144E-03 1.31572E-02 6.46482E-14 8.67314E-14
 -1      3555 2.03151E+01 4.47791E-01 2.68670E-04 5.72927E-02 7.01059E-14 7.17257E-14
 -1      3556 2.02199E+01 1.55094E+00-3.53221E-03 2.83581E-01 9.43353E-14 6.23665E-14
 -1      3557 2.02096E+01 1.60824E+00-1.85078E-03 2.00967E-01 8.83907E-14 3.27850E-14
 -1      3558 2.02828E+01 1.38659E+00 4.62467E-03 1.32910E-01 7.52427E-14 5.20600E-14
 -1      3559 2.46270E+01 1.66042E+00-8.00168E-02-1.90367E+00 2.66947E-13-1.22122E-13
 -1      3560 2.51116E+01 7.44583E-01 4.21164E-02-1.80070E+00 2.66518E-13-2.66108E-13
 -1      3561 2.03329E+01 2.25421E-01 1.31624E-03 4.63102E-02 1.23804E-14-1.29432E-15
 -1      3562 2.03122E+01 1.49123E-01-1.06396E-03 7.64483E-02-6.42470E-15 3.45675E-14
 -1      3563 2.02970E+01 8.86484E-02 1.09954E-03 9.32608E-02-3.66569E-14 6.00567E-14
 -1      3564 2.02752E+01 3.90295E-02-5.43884E-04 1.09187E-01-2.69683E-14 6.15417E-14
 -1      3565 2.03382E+01 1.38751E-01-7.73751E-05 6.87059E-02 1.21855E-14 4.77300E-14
 -1      3566 2.02558E+01 9.02176E-04 8.13815E-04 1.16417E-01 1.96105E-16 8.95284E-14
 -1      3567 2.02351E+01-2.93719E-02-1.67820E-04 1.22477E-01 9.70359E-15 1.00082E-13
 -1      3568 2.02991E+01 2.92427E-02-3.55777E-04 9.49707E-02 3.32885E-15 1.25060E-13
 -1      3569 2.02145E+01-5.16354E-02 5.73590E-04 1.23275E-01 6.49035E-15 8.34695E-14
 -1      3570 2.01959E+01-6.83061E-02 7.94365E-05 1.22904E-01-1.85811E-14 9.76126E-14
 -1      3571 2.02563E+01-3.83589E-02-4.90567E-04 1.05271E-01 1.55400E-14 1.14786E-13
 -1      3572 2.01758E+01-7.95691E-02 3.81721E-04 1.19712E-01-2.14358E-14 9.83563E-14
 -1      3573 2.01598E+01-8.69206E-02 2.27790E-04 1.15495E-01-4.29457E-14 1.27529E-13
 -1      3574 2.02141E+01-7.62748E-02-5.39307E-04 1.05013E-01-9.64194E-15 4.01325E-14
 -1      3575 2.01413E+01-9.07647E-02 2.35284E-04 1.10119E-01 3.40863E-15 1.46907E-13
 -1      3576 2.01279E+01-9.19289E-02 3.05745E-04 1.03918E-01 3.48305E-14 2.02958E-13
 -1      3577 2.01750E+01-9.36910E-02-5.27219E-04 9.83597E-02 2.04146E-14 9.78482E-14
 -1      3578 2.01116E+01-9.09408E-02 1.26601E-04 9.76348E-02 2.03996E-14 1.93937E-13
 -1      3579 2.01006E+01-8.81553E-02 3.34961E-04 9.07384E-02 6.31629E-14 1.98442E-13
 -1      3580 2.01403E+01-9.74169E-02-4.85330E-04 8.83590E-02 4.64519E-14 1.49550E-13
 -1      3581 2.00865E+01-8.41469E-02 4.73810E-05 8.44087E-02 8.13223E-14 2.03120E-13
 -1      3582 2.00776E+01-7.89500E-02 3.33156E-04 7.76751E-02 1.12979E-13 1.98221E-13
 -1      3583 2.01103E+01-9.23261E-02-4.25902E-04 7.71417E-02 7.42128E-14 1.81368E-13
 -1      3584 2.00657E+01-7.31378E-02-1.04968E-05 7.18502E-02 1.15332E-13 1.88158E-13
 -1      3585 2.00586E+01-6.65305E-02 3.11896E-04 6.58280E-02 8.66084E-14 1.62704E-13
 -1      3586 2.00849E+01-8.17967E-02-3.56923E-04 6.61307E-02 9.61032E-14 1.45876E-13
 -1      3587 2.00485E+01-5.96676E-02-5.45907E-05 6.08347E-02 5.87362E-14 1.61926E-13
 -1      3588 2.00429E+01-5.22306E-02 2.78394E-04 5.58563E-02 6.53062E-14 1.47591E-13
 -1      3589 2.00637E+01-6.80465E-02-2.83540E-04 5.62206E-02 5.48711E-14 1.67740E-13
 -1      3590 2.00343E+01-4.47051E-02-9.11137E-05 5.18612E-02 7.95749E-14 1.47272E-13
 -1      3591 2.00296E+01-3.66831E-02 2.35573E-04 4.81117E-02 3.06960E-14 1.51345E-13
 -1      3592 2.00460E+01-5.23859E-02-2.06860E-04 4.79221E-02 4.46291E-14 1.14822E-13
 -1      3593 2.00221E+01-2.85817E-02-1.25395E-04 4.51600E-02-3.89909E-14 1.34187E-13
 -1      3594 2.00178E+01-1.99350E-02 1.81907E-04 4.27206E-02-1.44035E-14 9.69657E-14
 -1      3595 2.00307E+01-3.54060E-02-1.24593E-04 4.14574E-02-2.84752E-14 1.10310E-13
 -1      3596 2.00107E+01-1.10751E-02-1.62033E-04 4.07486E-02 7.18350E-14 1.09767E-13
 -1      3597 2.00063E+01-1.50019E-03 1.10562E-04 3.96145E-02 5.69842E-14 1.86602E-13
 -1      3598 2.00169E+01-1.71003E-02-3.09181E-05 3.68046E-02 2.11942E-14 1.11323E-13
 -1      3599 1.99987E+01 8.56961E-03-2.04852E-04 3.84322E-02 2.42858E-14 2.34854E-13
 -1      3600 1.99933E+01 1.96495E-02 7.53487E-06 3.85003E-02 1.98612E-14 2.62325E-13
 -1      3601 2.00031E+01 3.07384E-03 8.41850E-05 3.36833E-02 1.03842E-13 9.31787E-14
 -1      3602 1.99843E+01 3.16795E-02-2.56435E-04 3.77331E-02 7.11783E-15 2.89212E-13
 -1      3603 1.99766E+01 4.51512E-02-1.51563E-04 3.87469E-02 4.37132E-14 2.64405E-13
 -1      3604 1.99875E+01 2.61879E-02 2.36095E-04 3.14672E-02 3.21455E-14 2.35955E-13
 -1      3605 1.99648E+01 6.02498E-02-3.16753E-04 3.77205E-02 9.34153E-14 2.93240E-13
 -1      3606 1.99528E+01 7.73679E-02-4.06619E-04 3.91508E-02 1.22974E-13 3.43184E-13
 -1      3607 1.99678E+01 5.38769E-02 4.47089E-04 2.89918E-02 7.53106E-14 3.41331E-13
 -1      3608 1.99363E+01 9.70796E-02-3.80126E-04 3.66894E-02 6.25199E-14 2.87923E-13
 -1      3609 1.99171E+01 1.19526E-01-8.20562E-04 3.75116E-02-4.33768E-15 3.03167E-13
 -1      3610 1.99405E+01 8.83929E-02 7.47946E-04 2.42113E-02 8.41338E-14 2.73208E-13
 -1      3611 1.98932E+01 1.45904E-01-4.29138E-04 3.16053E-02-5.77160E-14 2.55965E-13
 -1      3612 1.98624E+01 1.75808E-01-1.48972E-03 2.99092E-02-1.11274E-13 2.52596E-13
 -1      3613 1.99010E+01 1.32621E-01 1.17879E-03 1.36277E-02-3.32720E-14 2.50989E-13
 -1      3614 1.98274E+01 2.11421E-01-4.23487E-04 1.71878E-02-9.23032E-14 2.06631E-13
 -1      3615 1.97780E+01 2.51241E-01-2.55657E-03 9.52055E-03-8.66059E-15 2.27680E-13
 -1      3616 1.98427E+01 1.89945E-01 1.78736E-03-8.61748E-03-1.26308E-13 2.53694E-13
 -1      3617 1.97271E+01 2.98994E-01-2.81012E-04-1.55536E-02-9.04713E-14 2.18608E-13
 -1      3618 1.96492E+01 3.51096E-01-4.22263E-03-3.52525E-02-1.22688E-13 1.80722E-13
 -1      3619 1.97566E+01 2.63749E-01 2.62095E-03-5.21375E-02-8.66865E-14 1.95733E-13
 -1      3620 1.95765E+01 4.13620E-01 1.51750E-04-8.15639E-02-1.05341E-13 1.23142E-13
 -1      3621 1.94557E+01 4.79222E-01-6.75437E-03-1.23613E-01-1.17690E-13 1.69306E-13
 -1      3622 1.96308E+01 3.56151E-01 3.70541E-03-1.32349E-01-1.14239E-13 9.15263E-14
 -1      3623 1.93547E+01 5.57416E-01 1.14122E-03-2.05013E-01-1.61641E-13 1.73955E-13
 -1      3624 1.91712E+01 6.34374E-01-1.04589E-02-2.86388E-01-1.12789E-13 3.23425E-14
 -1      3625 1.94513E+01 4.65305E-01 5.00031E-03-2.73315E-01-1.50133E-13 1.33372E-13
 -1      3626 1.90368E+01 7.24419E-01 3.12831E-03-4.23661E-01-9.17472E-14-2.42229E-14
 -1      3627 1.87651E+01 8.03043E-01-1.55673E-02-5.71166E-01-2.02488E-13-5.79001E-14
 -1      3628 1.92029E+01 5.80263E-01 6.31887E-03-5.11321E-01-1.48317E-13 3.69970E-14
 -1      3629 1.85970E+01 8.90797E-01 6.85469E-03-7.93836E-01-2.32947E-13-4.44084E-14
 -1      3630 1.82075E+01 9.46513E-01-2.18329E-02-1.04772E+00-1.29853E-13 1.06336E-14
 -1      3631 1.88751E+01 6.71998E-01 7.21158E-03-8.98448E-01-1.84146E-13 1.30669E-14
 -1      3632 1.80190E+01 9.97638E-01 1.37233E-02-1.39514E+00-4.28086E-14-4.15724E-14
 -1      3633 1.74853E+01 9.82263E-01-2.57575E-02-1.81299E+00-6.28219E-14-6.38764E-14
 -1      3634 1.84730E+01 6.78081E-01 6.84581E-03-1.50470E+00-1.26470E-13 1.02188E-13
 -1      3635 1.73261E+01 9.29198E-01 2.45183E-02-2.30240E+00-6.35215E-14-2.03541E-13
 -1      3636 1.66928E+01 7.70117E-01-1.69144E-02-2.91375E+00 4.38677E-14-2.24277E-13
 -1      3637 1.80509E+01 4.92080E-01 3.96095E-03-2.38478E+00-7.61166E-14-1.31741E-15
 -1      3638 2.00825E+01-8.20588E-02 3.33806E-04-8.73419E-02 5.59552E-14 7.06632E-14
 -1      3639 2.00919E+01-8.60569E-02 7.15831E-05-9.46050E-02 1.61087E-14 8.70272E-14
 -1      3640 2.03138E+01 8.57942E-01-4.71828E-06 2.56866E-01 8.01469E-14 7.72034E-14
 -1      3641 2.02080E+01 1.05464E-01-9.66932E-04-1.11216E-01-6.66638E-15 8.65696E-14
 -1      3642 2.02317E+01 1.66351E-01 1.99657E-03-7.92431E-02 3.68156E-14 7.99233E-14
 -1      3643 2.02875E+01 2.40378E-01-3.56560E-04-4.39080E-02 3.46559E-14 9.06874E-14
 -1      3644 2.02510E+01 1.02202E-01-5.81532E-04-1.04341E-01-1.91223E-14 8.97049E-14
 -1      3645 1.87998E+01-1.14028E+00 4.37891E-02-4.44258E+00-1.40161E-13-1.73707E-13
 -1      3646 2.08787E+01-2.34344E+00-5.35998E-02-4.17168E+00-1.61069E-13-4.48946E-15
 -1      3647 2.01068E+01-8.86359E-02 3.21282E-04-1.01369E-01 1.47479E-14 6.61554E-14
 -1      3648 2.01185E+01-8.96183E-02 1.67766E-04-1.08385E-01 1.31989E-14 8.15073E-14
 -1      3649 2.01192E+01-9.38190E-02-4.44787E-04-8.69313E-02 3.42962E-16 8.72007E-14
 -1      3650 2.00454E+01-5.89565E-02 3.01645E-04-6.23520E-02-4.58325E-15 9.14669E-14
 -1      3651 2.00514E+01-6.55072E-02-4.44796E-05-6.82517E-02 5.28919E-14 1.20530E-13
 -1      3652 2.00316E+01-4.56690E-02 2.77165E-04-5.28561E-02-4.77775E-14 1.53997E-13
 -1      3653 2.00364E+01-5.24525E-02-7.80799E-05-5.75937E-02-5.92546E-14 7.43004E-14
 -1      3654 2.00504E+01-6.04701E-02-2.48464E-04-5.37312E-02-2.80813E-14 2.12885E-13
 -1      3655 2.00203E+01-3.25907E-02 2.56988E-04-4.58772E-02-5.54587E-14 1.11119E-13
 -1      3656 2.00241E+01-3.91713E-02-1.01602E-04-4.93065E-02-4.11914E-14 1.20532E-13
 -1      3657 2.00347E+01-4.60744E-02-1.92295E-04-4.59707E-02-6.59086E-14 1.95796E-13
 -1      3658 2.00112E+01-2.04924E-02 2.47322E-04-4.16302E-02-5.45959E-14 1.06339E-13
 -1      3659 2.00140E+01-2.64900E-02-1.16866E-04-4.36728E-02-3.83338E-14 1.06851E-13
 -1      3660 2.00216E+01-3.19898E-02-1.48614E-04-4.06080E-02-2.78189E-14 7.40911E-14
 -1      3661 2.00041E+01-1.02056E-02 2.54418E-04-4.02853E-02-9.05744E-14 9.42230E-14
 -1      3662 2.00060E+01-1.51834E-02-1.23028E-04-4.09010E-02-9.60592E-14 6.07649E-14
 -1      3663 2.00108E+01-1.90370E-02-1.23687E-04-3.79516E-02-7.79152E-14-2.87050E-14
 -1      3664 1.99992E+01-2.85724E-03 2.85088E-04-4.20120E-02 1.16990E-14-7.81955E-15
 -1      3665 1.99999E+01-6.20050E-03-1.15723E-04-4.11874E-02-3.92385E-14 3.36656E-14
 -1      3666 2.00021E+01-8.13704E-03-1.27083E-04-3.83442E-02-3.18353E-14-8.21388E-14
 -1      3667 1.99976E+01-1.32197E-04 3.46638E-04-4.69902E-02-4.60086E-14 3.67354E-14
 -1      3668 1.99965E+01-9.11332E-04-8.56061E-05-4.47479E-02-6.38480E-15-3.16830E-15
 -1      3669 1.99958E+01-5.70980E-04-1.73652E-04-4.22281E-02-2.56739E-14 2.73932E-14
 -1      3670 2.00011E+01-4.56414E-03 4.45673E-04-5.53677E-02-3.62037E-14 1.23869E-13
 -1      3671 1.99971E+01-1.38354E-03-1.61270E-05-5.18074E-02-2.68313E-14 4.84053E-14
 -1      3672 1.99930E+01 1.72659E-03-2.85830E-04-5.01824E-02-6.18077E-14 1.17044E-13
 -1      3673 2.00129E+01-1.98358E-02 5.84862E-04-6.71314E-02-1.29591E-14 1.87615E-13
 -1      3674 2.00043E+01-1.06805E-02 1.19605E-04-6.25194E-02-3.83468E-14 1.33359E-13
 -1      3675 1.99957E+01-4.16458E-03-4.96012E-04-6.29084E-02-5.05955E-14 1.87901E-13
 -1      3676 2.00381E+01-5.10266E-02 7.56350E-04-8.18286E-02-1.02347E-13 2.00420E-13
 -1      3677 2.00223E+01-3.31437E-02 3.62711E-04-7.67649E-02-4.02165E-14 1.96194E-13
 -1      3678 2.00078E+01-2.25003E-02-8.48312E-04-8.11125E-02-3.78100E-14 2.63174E-13
 -1      3679 2.00844E+01-1.04674E-01 9.30191E-04-9.80444E-02 4.96656E-15 2.09318E-13
 -1      3680 2.00577E+01-7.45660E-02 7.72278E-04-9.37474E-02-6.56183E-14 2.10317E-13
 -1      3681 2.00352E+01-5.91721E-02-1.39814E-03-1.05197E-01-7.31203E-14 2.28403E-13
 -1      3682 2.01620E+01-1.88388E-01 1.03668E-03-1.12516E-01 5.30171E-14 1.17070E-13
 -1      3683 2.01197E+01-1.42068E-01 1.42621E-03-1.11265E-01 7.22412E-14 1.53468E-13
 -1      3684 2.00870E+01-1.21802E-01-2.20653E-03-1.34613E-01 7.26761E-14 1.98695E-13
 -1      3685 2.02843E+01-3.09581E-01 9.44355E-04-1.18771E-01-1.88516E-14 1.99546E-13
 -1      3686 2.02210E+01-2.43340E-01 2.41278E-03-1.24524E-01-2.49264E-14 1.67092E-13
 -1      3687 2.01760E+01-2.19322E-01-3.32381E-03-1.66689E-01 2.14207E-14 2.13171E-13
 -1      3688 2.04665E+01-4.72611E-01 4.47645E-04-1.05312E-01-8.34085E-14 2.86337E-13
 -1      3689 2.03769E+01-3.84690E-01 3.79997E-03-1.24413E-01-2.91102E-14 2.18598E-13
 -1      3690 2.03189E+01-3.60475E-01-4.75284E-03-1.94712E-01-4.08771E-14 1.73908E-13
 -1      3691 2.07226E+01-6.73460E-01-7.09093E-04-5.37842E-02-2.05697E-13 2.96575E-13
 -1      3692 2.06036E+01-5.67103E-01 5.56567E-03-9.54380E-02-8.68921E-14 3.01972E-13
 -1      3693 2.05357E+01-5.50310E-01-6.37526E-03-2.05228E-01-1.14171E-13 2.80720E-13
 -1      3694 2.10597E+01-8.91216E-01-2.74909E-03 6.15572E-02-2.01485E-13 2.77832E-13
 -1      3695 2.09134E+01-7.79442E-01 7.46891E-03-1.41723E-02-2.45415E-13 2.96415E-13
 -1      3696 2.08464E+01-7.83484E-01-7.83999E-03-1.75111E-01-1.71478E-13 2.79508E-13
 -1      3697 2.14681E+01-1.07624E+00-5.61246E-03 2.70523E-01-1.48482E-13 3.19305E-13
 -1      3698 2.13060E+01-9.88379E-01 8.82483E-03 1.49864E-01-1.73551E-13 2.91172E-13
 -1      3699 2.12635E+01-1.03351E+00-8.50641E-03-6.98361E-02-1.99214E-13 2.17125E-13
 -1      3700 2.19108E+01-1.13690E+00-6.89530E-03 5.95201E-01 1.29932E-13 3.36053E-13
 -1      3701 2.17550E+01-1.12592E+00 8.42686E-03 4.26379E-01-3.45686E-14 3.48600E-13
 -1      3702 2.17786E+01-1.23735E+00-7.26052E-03 1.52405E-01-7.31460E-14 2.30917E-13
 -1      3703 2.23098E+01-9.55146E-01-7.28062E-03 1.01757E+00-2.78022E-14 4.66438E-13
 -1      3704 2.21919E+01-1.08554E+00 3.83190E-03 8.17941E-01 4.57299E-14 4.40074E-13
 -1      3705 2.23397E+01-1.27501E+00-1.75152E-03 5.24327E-01-2.27184E-15 3.99431E-13
 -1      3706 2.25506E+01-3.92647E-01-6.02503E-03 1.44191E+00 4.06112E-14 4.74777E-13
 -1      3707 2.25138E+01-7.15155E-01-2.79440E-03 1.28211E+00 8.83842E-15 4.22644E-13
 -1      3708 2.28543E+01-9.99447E-01 1.03233E-02 1.03524E+00-3.43932E-14 6.58618E-13
 -1      3709 2.25727E+01 5.78203E-01 7.79307E-03 1.70129E+00 5.70158E-14 4.02765E-13
 -1      3710 2.26226E+01 4.55962E-02-1.14281E-02 1.66045E+00 1.38560E-13 4.48954E-13
 -1      3711 2.31414E+01-2.90192E-01-5.65673E-03 1.54584E+00 1.10389E-13 5.34121E-13
 -1      3712 2.23547E+01 1.76412E+00 1.40943E-02 1.56506E+00 8.11686E-14 2.44851E-13
 -1      3713 2.24562E+01 1.15282E+00-2.31729E-02 1.72146E+00 8.36562E-14 3.55044E-13
 -1      3714 2.31396E+01 8.58074E-01-3.30397E-03 1.78208E+00 1.79010E-13 3.01519E-13
 -1      3715 2.20741E+01 2.72060E+00 1.01013E-02 8.93179E-01-1.24221E-13 5.41559E-14
 -1      3716 2.21558E+01 2.29380E+00-2.15033E-02 1.25806E+00-4.78862E-14 1.13560E-13
 -1      3717 2.28857E+01 2.29586E+00 3.11275E-03 1.55185E+00 1.09659E-13 1.15851E-13
 -1      3718 2.20800E+01 2.45110E+00-3.09808E-02-1.09754E+00 4.20397E-14-7.46009E-14
 -1      3719 2.20336E+01 2.82551E+00 1.34611E-02-7.04380E-01 1.63473E-13-4.69197E-14
 -1      3720 2.28810E+01 1.05159E+00-2.16935E-02-1.68545E+00 1.98423E-13-2.74487E-13
 -1      3721 2.27952E+01 1.70095E+00 2.61199E-03-1.56124E+00 1.22718E-13-2.05663E-13
 -1      3722 2.29103E+01 4.96990E-01-3.35771E-02-1.63850E+00 2.19628E-13-3.91520E-13
 -1      3723 2.24446E+01-4.33706E-01 1.38385E-02-1.23476E+00-1.17944E-13-2.99160E-13
 -1      3724 1.65867E+01 6.50891E-01 4.24192E-02-3.37125E+00 1.43965E-14-2.74000E-13
 -1      3725 1.60860E+01 3.74293E-01 8.36751E-03-3.95337E+00 6.50712E-14-3.03001E-13
 -1      3726 1.73315E+01-4.86223E-01-2.49210E-02-4.42667E+00 1.51754E-14-3.23372E-13
 -1      3727 1.76839E+01 9.06725E-02-7.26679E-03-3.37768E+00-2.62420E-15-6.44944E-14
 -1      3728 2.01964E+01 1.66025E+00-2.81772E-03-3.40020E-02 6.00476E-14 4.55599E-14
 -1      3729 2.02005E+01 1.63846E+00-4.49178E-03-1.26488E-01 5.16309E-14 4.95960E-14
 -1      3730 2.02782E+01 1.42219E+00 5.21882E-03 1.99579E-03 5.14857E-14 5.05089E-14
 -1      3731 2.48088E+01-2.44217E+00-3.28694E-02 7.28806E-01 1.34316E-13-2.11461E-13
 -1      3732 2.01356E+01-8.84401E-02 2.70430E-04-1.14666E-01-3.78577E-15 9.52606E-14
 -1      3733 2.01496E+01-8.45339E-02 3.01387E-04-1.20346E-01 9.21614E-15 8.35826E-14
 -1      3734 2.01509E+01-9.48519E-02-5.01718E-04-9.85000E-02 7.75863E-15 8.99316E-14
 -1      3735 2.51694E+01-5.47846E-01-7.71085E-02-1.34675E+00 1.98200E-13-2.09241E-13
 -1      3736 2.52053E+01-1.50638E+00 2.43263E-02-4.88413E-01-1.74080E-14-1.25251E-13
 -1      3737 2.02380E+01 1.46772E+00-3.78646E-03-2.88993E-01 2.59605E-14 1.54351E-14
 -1      3738 2.03198E+01 1.13102E+00 4.41227E-03-2.67149E-01 3.14007E-14 1.06461E-15
 -1      3739 2.02264E+01 1.52730E+00-2.19892E-03-2.08347E-01 4.07342E-14 4.45570E-14
 -1      3740 2.45598E+01-2.03696E+00-1.75390E-02 9.26705E-02-1.26242E-13-1.59504E-13
 -1      3741 2.00622E+01-7.15230E-02 3.23441E-04-7.40318E-02 5.95647E-14 1.24631E-13
 -1      3742 2.00697E+01-7.72397E-02 3.25557E-06-8.08333E-02 7.76307E-14 1.20151E-13
 -1      3743 2.00693E+01-7.42187E-02-3.12478E-04-6.35318E-02 5.11678E-14 2.05476E-13
 -1      3744 2.26351E+01-2.70859E+00 6.47494E-02-3.38326E+00-2.16931E-13-1.21861E-13
 -1      3745 2.37844E+01-2.86145E+00-2.62815E-02-2.13669E+00-1.01224E-13-4.00388E-13
 -1      3746 2.47328E+01-2.55006E+00 1.74846E-02-8.43714E-01 3.69834E-14-6.17143E-14
 -1      3747 2.50572E+01-1.97582E+00-3.65075E-02 2.51182E-01 1.26414E-13 2.23831E-14
 -1      3748 2.03549E+01 4.28794E-01 8.37322E-04-3.27245E-02-7.67249E-15 2.09539E-14
 -1      3749 2.03398E+01 3.17152E-01-1.59763E-03 1.65850E-02-1.73292E-14 2.94311E-15
 -1      3750 2.03670E+01 3.05108E-01 2.86139E-04 2.01455E-02-1.69876E-14 1.44380E-14
 -1      3751 2.02428E+01 1.43245E+00-3.35936E-03 4.14513E-01 8.79337E-14 6.81071E-14
 -1      3752 2.02269E+01 1.52889E+00-1.00268E-03 3.44999E-01 9.88102E-14 8.14172E-14
 -1      3753 2.02851E+01 1.32479E+00 2.98644E-03 2.53843E-01 9.20747E-14 8.25754E-14
 -1      3754 2.02827E+01 1.24776E+00 1.67026E-03 3.53480E-01 9.00739E-14 7.63447E-14
 -1      3755 2.54064E+01 1.63451E+00-2.28085E-03 2.09908E+00 3.73694E-13 1.37269E-13
 -1      3756 2.46785E+01 2.73329E+00-3.17875E-02 1.94063E+00 3.89635E-13 1.78601E-13
 -1      3757 2.00921E+01-8.59880E-02-3.79834E-04-7.48622E-02 3.39154E-14 1.54261E-13
 -1      3758 2.02446E+01 1.71088E-03-3.50124E-04-1.22836E-01 3.75717E-15 5.20219E-14
 -1      3759 2.02658E+01 4.03626E-02 1.00111E-03-1.11991E-01-1.19328E-14 5.97996E-14
 -1      3760 2.29597E+01-2.30227E+00 1.27008E-02-1.77428E+00-1.58606E-13-2.39433E-13
 -1      3761 2.39834E+01-2.63643E+00-5.92449E-03-1.38653E+00-3.01339E-14-2.22669E-13
 -1      3762 2.37720E+01-2.15993E+00 1.48602E-02-5.94068E-01 2.41270E-14 3.14343E-14
 -1      3763 2.02982E+01 1.31184E+00 4.85815E-03-1.40243E-01 5.46601E-14 5.29049E-14
 -1      3764 2.03319E+01 7.51808E-01-3.03375E-03 1.62489E-01 8.20773E-14 5.02964E-14
 -1      3765 2.03160E+01 1.06878E+00 1.16188E-03 2.98374E-01 9.12553E-14 7.62756E-14
 -1      3766 2.44145E+01 6.38992E-02 1.10140E-02-1.53519E+00 2.38641E-13-1.42239E-13
 -1      3767 2.40625E+01-1.31267E+00 1.82197E-02-5.65228E-01-1.31573E-13-1.53066E-13
 -1      3768 2.38685E+01 3.34449E+00-2.00619E-02 1.55390E+00 3.77299E-13 9.71792E-14
 -1      3769 2.32782E+01 3.66412E+00-1.84925E-02 1.00398E+00 2.59081E-13-4.31334E-15
 -1      3770 2.19598E+01 2.96148E+00-5.91908E-03 3.27739E-01-6.12536E-14-4.91274E-14
 -1      3771 2.26050E+01 3.22388E+00-3.88134E-03 6.69406E-01 8.49238E-14-1.46662E-13
 -1      3772 2.31933E+01 4.00960E+00-6.16986E-04 4.46115E-01 1.45980E-13-1.65948E-13
 -1      3773 2.19411E+01 2.98845E+00-7.84258E-03-1.38030E-01 7.23736E-14-4.08438E-14
 -1      3774 2.34022E+01 2.19957E+00 1.05044E-03-1.54079E+00 2.13001E-13-3.57778E-14
 -1      3775 2.32316E+01-2.56409E-01 1.72000E-02-1.37895E+00 9.69745E-14-2.19259E-13
 -1      3776 2.36251E+01 4.33183E+00-4.32816E-02-1.92008E-01 6.12886E-14 1.40578E-15
 -1      3777 2.03518E+01 5.45651E-01-1.70004E-03-6.88872E-02 8.59051E-15 2.89964E-14
 -1      3778 2.03784E+01 5.29356E-01 9.11468E-04-4.87521E-02-7.23836E-15 1.72870E-14
 -1      3779 2.03585E+01 6.78250E-01-1.31560E-05-1.28780E-01 3.41321E-14 1.13175E-14
 -1      3780 1.89175E+01-7.64999E-01 5.49081E-02-3.86780E+00-2.54822E-14-3.65612E-14
 -1      3781 2.31619E+01 3.67108E+00-9.42276E-03-5.66485E-01 8.74752E-14-1.08253E-13
 -1      3782 2.02055E+01-4.99708E-02-3.56547E-05-1.29281E-01 5.17653E-14 4.73097E-14
 -1      3783 2.02246E+01-2.73859E-02 7.14518E-04-1.26789E-01 3.18278E-14 4.19232E-14
 -1      3784 2.02695E+01-7.35417E-03-4.59381E-04-1.07221E-01 2.08707E-14 6.07532E-14
 -1      3785 2.51193E+01-1.57583E+00 1.29608E-02 7.05687E-01 1.02951E-13 5.22223E-14
 -1      3786 2.48229E+01-1.03876E+00-1.59771E-02 1.12191E+00 1.82144E-13 1.32857E-13
 -1      3787 2.43347E+01-1.85393E+00-1.13163E-02 2.43227E-01 1.05210E-13 7.41950E-14
 -1      3788 2.03168E+01 1.19634E+00-2.33803E-03 3.23150E-02 5.00345E-14 5.01956E-14
 -1      3789 2.03144E+01 1.19415E+00-3.70586E-03-2.96718E-02 5.21953E-14 4.58168E-14
 -1      3790 2.03316E+01 9.37368E-01-9.49516E-04-1.94829E-01 3.82976E-14 4.52787E-15
 -1      3791 2.03224E+01 1.14751E+00-1.71418E-03 1.33092E-01 9.01337E-14 6.34756E-14
 -1      3792 2.03181E+01 1.18290E+00-1.56346E-03 7.75402E-02 6.95400E-14 4.88577E-14
 -1      3793 2.03680E+01 9.95276E-01 2.97594E-03 4.16378E-02 6.09378E-14 6.61083E-14
 -1      3794 2.03112E+01 1.12691E+00 1.41108E-03 2.55286E-01 8.75489E-14 9.09271E-14
 -1      3795 2.48709E+01 6.05001E-01-1.13776E-02 1.83002E+00 2.93472E-13 2.04172E-13
 -1      3796 2.15424E+01-2.07210E+00 2.41948E-02-3.25661E+00-1.97063E-13-1.07738E-13
 -1      3797 2.01686E+01-7.74514E-02 1.61775E-04-1.25038E-01 2.30605E-14 7.24503E-14
 -1      3798 2.01853E+01-6.60223E-02 4.81495E-04-1.27792E-01 3.90503E-14 5.10968E-14
 -1      3799 2.01871E+01-8.50305E-02-5.49224E-04-1.07736E-01 1.81192E-14 7.32530E-14
 -1      3800 2.03377E+01 4.23764E-01-2.58557E-03 2.84047E-02 5.90407E-14 9.14948E-14
 -1      3801 2.03527E+01 5.59283E-01 2.29056E-03 9.25276E-02 6.53905E-14 5.46955E-14
 -1      3802 2.40390E+01 2.44186E+00 5.35873E-04-1.71988E+00 1.82866E-13-8.86444E-14
 -1      3803 2.03592E+01 7.41660E-01 1.48758E-03 1.28060E-01 6.87085E-14 5.00746E-14
 -1      3804 2.03374E+01 5.70801E-02 6.42856E-04 7.17940E-02 3.81458E-14 1.18282E-13
 -1      3805 2.03153E+01 1.13788E-02-3.21730E-04 8.14477E-02 2.30845E-14 1.51851E-13
 -1      3806 2.02938E+01-2.36723E-02 5.30360E-04 8.41184E-02 7.59814E-15 1.33749E-13
 -1      3807 2.02714E+01-5.08565E-02-3.27816E-05 8.73255E-02-2.84756E-14 1.17394E-13
 -1      3808 2.03255E+01-9.00807E-04-3.25175E-04 6.35838E-02 1.06427E-15 1.44633E-13
 -1      3809 2.02487E+01-7.05622E-02 4.15989E-04 8.64615E-02-2.55295E-14 1.02477E-13
 -1      3810 2.02276E+01-8.47209E-02 1.51824E-04 8.55254E-02 2.87368E-16 1.03095E-13
 -1      3811 2.02795E+01-6.00790E-02-4.69695E-04 6.74683E-02-3.55521E-14 1.44090E-13
 -1      3812 2.02056E+01-9.38482E-02 3.16035E-04 8.25588E-02 3.78404E-14 7.65627E-14
 -1      3813 2.01867E+01-9.91226E-02 2.58502E-04 7.91740E-02 5.00382E-14 9.19276E-14
 -1      3814 2.02338E+01-9.15222E-02-5.31214E-04 6.56952E-02 1.85855E-14 5.99906E-14
 -1      3815 2.01664E+01-1.01127E-01 2.29942E-04 7.51572E-02 3.78809E-14 5.43866E-14
 -1      3816 2.01500E+01-1.00562E-01 3.06536E-04 7.05824E-02 4.99019E-14 8.48230E-14
 -1      3817 2.01913E+01-1.03941E-01-5.39688E-04 6.06504E-02 4.00919E-14 9.21521E-15
 -1      3818 2.01320E+01-9.79848E-02 1.57161E-04 6.62467E-02 7.77554E-14 9.78116E-14
 -1      3819 2.01180E+01-9.37336E-02 3.15646E-04 6.13407E-02 9.68251E-14 1.06479E-13
 -1      3820 2.01532E+01-1.03713E-01-5.04913E-04 5.40012E-02 5.30996E-14 4.82454E-14
 -1      3821 2.01025E+01-8.83344E-02 9.83325E-05 5.71630E-02 8.40003E-14 9.55989E-14
 -1      3822 2.00909E+01-8.18687E-02 2.99188E-04 5.24876E-02 8.53613E-14 9.89788E-14
 -1      3823 2.01202E+01-9.54686E-02-4.43790E-04 4.69539E-02 9.16640E-14-2.17322E-14
 -1      3824 2.00776E+01-7.48071E-02 4.95838E-05 4.87522E-02 1.10229E-13 1.02491E-13
 -1      3825 2.00679E+01-6.70621E-02 2.65572E-04 4.46520E-02 4.71784E-14 1.12511E-13
 -1      3826 2.00919E+01-8.23722E-02-3.69737E-04 4.02513E-02 9.82975E-14 1.02893E-14
 -1      3827 2.00566E+01-5.90359E-02 8.74174E-06 4.14986E-02 1.75654E-15 1.74749E-13
 -1      3828 2.00485E+01-5.05350E-02 2.18761E-04 3.81552E-02 2.96623E-14 1.16359E-13
 -1      3829 2.00680E+01-6.64556E-02-2.88737E-04 3.43223E-02 6.32166E-14 4.43038E-14
 -1      3830 2.00386E+01-4.18807E-02-2.59853E-05 3.56020E-02 2.19478E-14 9.47551E-14
 -1      3831 2.00315E+01-3.28232E-02 1.58257E-04 3.30647E-02-3.79357E-14 1.63876E-13
 -1      3832 2.00476E+01-4.88883E-02-2.02704E-04 2.93323E-02 1.20979E-14 1.44087E-13
 -1      3833 2.00226E+01-2.35858E-02-5.53344E-05 3.10096E-02-3.13905E-14 2.18790E-13
 -1      3834 2.00158E+01-1.39075E-02 7.85521E-05 2.92003E-02 5.47730E-14 2.06437E-13
 -1      3835 2.00296E+01-3.01734E-02-1.10350E-04 2.52002E-02-1.51818E-14 1.78570E-13
 -1      3836 2.00072E+01-3.88305E-03-7.82825E-05 2.73937E-02 8.42341E-14 1.62889E-13
 -1      3837 1.99999E+01 6.70816E-03-3.20525E-05 2.60789E-02 8.35473E-14 1.20540E-13
 -1      3838 2.00128E+01-1.02895E-02-7.44234E-06 2.15650E-02 1.96031E-14 1.66884E-13
 -1      3839 1.99908E+01 1.79528E-02-9.08505E-05 2.40595E-02 6.02923E-14 8.02996E-14
 -1      3840 1.99819E+01 2.99578E-02-1.93460E-04 2.27776E-02 7.15921E-14 1.65195E-13
 -1      3841 1.99957E+01 1.12081E-02 1.13088E-04 1.76871E-02 7.05716E-14 8.61732E-14
 -1      3842 1.99714E+01 4.30807E-02-8.40049E-05 1.97576E-02 1.03756E-13 1.49560E-13
 -1      3843 1.99593E+01 5.71963E-02-4.36704E-04 1.76836E-02 1.36141E-13 1.64266E-13
 -1      3844 1.99765E+01 3.51099E-02 2.60940E-04 1.22587E-02 8.70031E-14 1.46261E-14
 -1      3845 1.99462E+01 7.30770E-02-4.00238E-05 1.23620E-02 8.03403E-14 1.27188E-13
 -1      3846 1.99288E+01 9.01662E-02-8.07689E-04 8.07902E-03 1.50225E-14 8.37078E-14
 -1      3847 1.99530E+01 6.24662E-02 4.47643E-04 3.09106E-03 8.85087E-14-6.53505E-14
 -1      3848 1.99117E+01 1.09874E-01 7.36197E-05-1.64423E-03 1.08786E-14 1.42312E-13
 -1      3849 1.98859E+01 1.30878E-01-1.37111E-03-1.05113E-02-4.91455E-14 1.63818E-13
 -1      3850 1.99225E+01 9.44384E-02 6.84211E-04-1.33712E-02 2.48599E-14-5.38437E-15
 -1      3851 1.98633E+01 1.55556E-01 3.14187E-04-2.79543E-02-1.54424E-13 2.20865E-13
 -1      3852 1.98247E+01 1.81269E-01-2.21275E-03-4.53030E-02-1.00577E-13 1.94412E-13
 -1      3853 1.98814E+01 1.31989E-01 9.75477E-04-4.27665E-02-5.66225E-14 5.53470E-14
 -1      3854 1.97949E+01 2.11831E-01 7.79018E-04-7.55865E-02-9.19154E-14 1.37957E-13
 -1      3855 1.97378E+01 2.42404E-01-3.43592E-03-1.07672E-01-1.02201E-13 8.57257E-14
 -1      3856 1.98258E+01 1.75241E-01 1.30799E-03-9.38230E-02-1.21103E-13 1.46744E-13
 -1      3857 1.96997E+01 2.78865E-01 1.62765E-03-1.58482E-01-1.38994E-13 3.42416E-14
 -1      3858 1.96167E+01 3.12811E-01-5.14360E-03-2.15086E-01-1.50554E-13 4.26582E-14
 -1      3859 1.97516E+01 2.22221E-01 1.62622E-03-1.79684E-01-1.82711E-13 1.26253E-13
 -1      3860 1.95708E+01 3.52960E-01 3.11035E-03-2.97563E-01-1.49644E-13 2.97502E-14
 -1      3861 1.94536E+01 3.85325E-01-7.39110E-03-3.93506E-01-1.91756E-13-9.50688E-15
 -1      3862 1.96562E+01 2.66559E-01 1.78824E-03-3.19475E-01-1.65798E-13 2.66535E-14
 -1      3863 1.94040E+01 4.22305E-01 5.59634E-03-5.23048E-01-1.87550E-13-5.30163E-14
 -1      3864 1.92449E+01 4.41548E-01-1.00990E-02-6.79835E-01-1.75272E-13-1.05330E-13
 -1      3865 1.95411E+01 2.93547E-01 1.48514E-03-5.39785E-01-1.77010E-13-6.07560E-14
 -1      3866 1.92040E+01 4.59973E-01 9.58755E-03-8.76421E-01-1.72845E-13-6.09699E-14
 -1      3867 1.90007E+01 4.43558E-01-1.25641E-02-1.12340E+00-2.11224E-13-4.36183E-14
 -1      3868 1.94184E+01 2.73840E-01 1.05495E-04-8.75295E-01-1.37700E-13-2.00095E-13
 -1      3869 1.89944E+01 4.12580E-01 1.53311E-02-1.40843E+00-1.81565E-13 5.58911E-14
 -1      3870 1.87623E+01 3.20148E-01-1.26970E-02-1.78171E+00-6.66792E-14 1.02291E-13
 -1      3871 1.93191E+01 1.56051E-01-3.79460E-03-1.36697E+00-1.03032E-13 1.31924E-14
 -1      3872 1.88412E+01 1.92993E-01 2.29263E-02-2.15388E+00-8.81518E-14 7.08419E-14
 -1      3873 1.86421E+01-2.14197E-02-5.46097E-03-2.65263E+00-8.60865E-14 2.14804E-14
 -1      3874 1.93115E+01-1.41905E-01-1.46898E-02-2.02809E+00-8.08468E-14 6.07297E-14
 -1      3875 2.03107E+01 7.88155E-02-2.80231E-04-8.85718E-02 8.32476E-15 6.74337E-14
 -1      3876 2.02834E+01 8.80758E-02-8.09541E-04-9.96399E-02-3.92001E-15 8.10503E-14
 -1      3877 2.03054E+01 1.49288E-01 1.32533E-03-7.63847E-02 1.07936E-14 9.68988E-14
 -1      3878 2.25786E+01 3.35512E+00 7.32733E-03-4.82841E-01 1.43984E-13-1.88999E-13
 -1      3879 2.34793E+01 2.38856E+00-8.80612E-03 1.64266E+00 2.49143E-13 1.11507E-13
 -1      3880 2.01293E+01-9.64815E-02 3.14371E-04-7.00851E-02-1.76991E-14 8.12428E-14
 -1      3881 2.01441E+01-9.89875E-02 1.83302E-04-7.53277E-02-1.22278E-15 6.29160E-14
 -1      3882 2.00375E+01-4.41950E-02 2.52135E-04-3.72790E-02-2.59894E-14 1.34675E-13
 -1      3883 2.00445E+01-5.19310E-02-2.68296E-05-4.02838E-02-2.90329E-14 1.83452E-13
 -1      3884 2.00548E+01-5.94689E-02 2.73114E-04-4.31489E-02-5.71659E-14 2.10914E-13
 -1      3885 2.00633E+01-6.70540E-02 1.36404E-05-4.71647E-02-1.41547E-15 2.23117E-13
 -1      3886 2.00554E+01-5.88982E-02-2.60866E-04-3.38741E-02 1.59366E-14 1.43729E-13
 -1      3887 2.00106E+01-1.54329E-02 2.50767E-04-3.26156E-02-3.73712E-14 2.48956E-14
 -1      3888 2.00152E+01-2.22783E-02-9.88851E-05-3.30659E-02-3.75574E-14 4.30969E-14
 -1      3889 2.00005E+01-3.57001E-03 2.89738E-04-3.47198E-02-4.10371E-14 3.08432E-15
 -1      3890 2.00039E+01-9.32659E-03-1.32121E-04-3.35781E-02-4.00118E-14 1.56308E-14
 -1      3891 2.00078E+01-1.21008E-02-1.11131E-04-2.84400E-02-2.04031E-14 1.12847E-13
 -1      3892 1.99929E+01 5.07527E-03 3.71948E-04-4.06746E-02-8.91636E-14 1.04921E-13
 -1      3893 1.99948E+01 1.08726E-03-1.60796E-04-3.76370E-02-3.32436E-14 4.81611E-14
 -1      3894 1.99962E+01 5.86487E-04-1.08307E-04-3.25020E-02-9.65418E-14 1.08119E-13
 -1      3895 1.99890E+01 8.56364E-03 5.13570E-04-5.14904E-02-1.60519E-13 1.81933E-13
 -1      3896 1.99884E+01 7.40936E-03-1.77377E-04-4.61531E-02-1.38532E-13 1.69193E-13
 -1      3897 1.99868E+01 9.91782E-03-1.53484E-04-4.10933E-02-1.59642E-13 1.38225E-13
 -1      3898 1.99910E+01 3.89802E-03 7.32354E-04-6.84965E-02-5.40522E-14 2.50923E-13
 -1      3899 1.99866E+01 7.22174E-03-1.65955E-04-6.03668E-02-1.14837E-13 1.89864E-13
 -1      3900 1.99807E+01 1.37887E-02-2.74487E-04-5.58110E-02-1.12797E-13 1.35770E-13
 -1      3901 2.00031E+01-1.33934E-02 1.04331E-03-9.32728E-02-9.66769E-14 2.38046E-13
 -1      3902 1.99923E+01-3.14958E-03-9.65499E-05-8.18428E-02-5.96397E-14 2.11999E-13
 -1      3903 1.99802E+01 8.89311E-03-5.13688E-04-7.88132E-02-4.19710E-14 1.46761E-13
 -1      3904 2.00320E+01-4.96737E-02 1.44902E-03-1.27369E-01 9.03415E-15 3.96622E-14
 -1      3905 2.00110E+01-2.90561E-02 8.33322E-05-1.12310E-01-3.41539E-15 1.15450E-13
 -1      3906 1.99898E+01-9.78157E-03-9.32990E-04-1.12791E-01 2.66649E-14 1.73724E-14
 -1      3907 2.00878E+01-1.13476E-01 1.92104E-03-1.71628E-01 6.80622E-14 8.02248E-14
 -1      3908 2.00513E+01-7.78908E-02 4.59707E-04-1.53197E-01 5.11048E-14 4.48510E-14
 -1      3909 2.00166E+01-4.94987E-02-1.61812E-03-1.60681E-01 6.01834E-14-1.17627E-13
 -1      3910 2.01851E+01-2.15338E-01 2.36791E-03-2.24846E-01-2.02565E-14 1.12594E-13
 -1      3911 2.01260E+01-1.59187E-01 1.16310E-03-2.04616E-01 1.43216E-14 1.18002E-13
 -1      3912 2.00722E+01-1.20210E-01-2.67912E-03-2.24870E-01-3.31934E-14-2.34818E-14
 -1      3913 2.03436E+01-3.66600E-01 2.58533E-03-2.81430E-01-2.60416E-14 1.33982E-13
 -1      3914 2.02531E+01-2.84025E-01 2.37066E-03-2.63467E-01 4.48621E-15 1.44358E-13
 -1      3915 2.01738E+01-2.34538E-01-4.24006E-03-3.05498E-01-5.54542E-14 9.47932E-14
 -1      3916 2.05874E+01-5.76013E-01 2.20638E-03-3.27796E-01-1.40745E-13 2.24841E-13
 -1      3917 2.04564E+01-4.62922E-01 4.27646E-03-3.20275E-01-6.61833E-14 1.81440E-13
 -1      3918 2.03456E+01-4.06539E-01-6.40077E-03-3.97328E-01-6.19115E-14 1.45973E-13
 -1      3919 2.09418E+01-8.42287E-01 8.31924E-04-3.37785E-01-1.94367E-13 2.39795E-13
 -1      3920 2.07633E+01-7.00765E-01 6.98999E-03-3.54692E-01-1.78745E-13 3.22420E-13
 -1      3921 2.06189E+01-6.47658E-01-9.10241E-03-4.84634E-01-2.37914E-13 2.33014E-13
 -1      3922 2.14250E+01-1.14184E+00-2.29088E-03-2.69880E-01-1.09645E-13 1.85102E-13
 -1      3923 2.11990E+01-9.87035E-01 1.02021E-02-3.31323E-01-1.32141E-13 1.99770E-13
 -1      3924 2.10288E+01-9.56636E-01-1.19268E-02-5.34497E-01-1.54953E-13 2.48089E-13
 -1      3925 2.20339E+01-1.40489E+00-6.40870E-03-6.80500E-02-1.86911E-13 1.44857E-13
 -1      3926 2.17746E+01-1.27761E+00 1.36592E-02-1.95968E-01-2.09133E-13 8.03183E-14
 -1      3927 2.16053E+01-1.30815E+00-1.50665E-02-4.92552E-01-7.54732E-14 1.32011E-13
 -1      3928 2.27126E+01-1.49815E+00-5.08409E-03 3.14995E-01-7.84485E-14 4.59338E-13
 -1      3929 2.24644E+01-1.47977E+00 1.47000E-02 1.13061E-01-1.28486E-13 1.99616E-13
 -1      3930 2.23482E+01-1.61470E+00-1.73321E-02-2.82393E-01-2.25520E-13 2.79040E-13
 -1      3931 2.37047E+01-1.10788E+00-2.91731E-03 1.03916E+00 8.24158E-14 4.50246E-13
 -1      3932 2.34479E+01-1.38978E+00 9.33615E-04 7.10576E-01 5.41880E-14 3.75656E-13
 -1      3933 2.38540E+01-6.41342E-01-4.85474E-03 1.32708E+00 1.77851E-13 3.32293E-13
 -1      3934 2.36485E+01 1.66341E+00-6.59473E-03 1.90301E+00 2.48280E-13 2.69001E-13
 -1      3935 2.35776E+01-1.01749E+00-2.40072E-02-9.22516E-01-1.17590E-13-7.17759E-14
 -1      3936 1.88286E+01-2.39418E-01 3.35193E-02-3.03038E+00-1.41157E-13 6.73977E-14
 -1      3937 1.86592E+01-4.90547E-01 7.94834E-03-3.48934E+00-5.41613E-15-9.75522E-15
 -1      3938 1.97896E+01-1.25466E+00-4.21557E-02-3.47877E+00-1.39360E-13 8.64812E-14
 -1      3939 2.01631E+01-9.94165E-02 2.85033E-04-7.99944E-02 7.02930E-15 4.40332E-14
 -1      3940 2.01805E+01-9.72830E-02 2.84173E-04-8.44536E-02-9.37578E-15 4.55683E-14
 -1      3941 2.01686E+01-1.03775E-01-5.22360E-04-6.24014E-02 2.72868E-15 9.33227E-15
 -1      3942 2.03121E+01 1.14327E+00-1.44304E-03 2.03620E-01 7.74338E-14 6.93196E-14
 -1      3943 2.03520E+01 9.06635E-01 8.08939E-04-1.47936E-01 4.22382E-14 5.21576E-15
 -1      3944 2.00229E+01-2.92644E-02 2.41761E-04-3.36389E-02-2.33502E-14 4.94478E-14
 -1      3945 2.00286E+01-3.67414E-02-6.37986E-05-3.54563E-02-2.92357E-14 8.19252E-14
 -1      3946 2.00213E+01-2.68166E-02-1.44253E-04-2.77866E-02-2.05170E-14 9.53300E-14
 -1      3947 2.03331E+01 1.12020E+00 1.99378E-04-7.23357E-02 3.92030E-14 4.27068E-14
 -1      3948 2.03463E+01 1.00218E+00-3.49891E-03-1.32690E-01 3.96171E-14 4.23166E-14
 -1      3949 2.03829E+01 7.52192E-01 1.19112E-03-7.83087E-02 2.33717E-14 3.22105E-14
 -1      3950 2.03808E+01 9.31012E-01 3.38389E-03-3.53917E-02 3.45997E-14 5.53578E-14
 -1      3951 2.00755E+01-7.42042E-02 2.96586E-04-5.08906E-02 3.23956E-14 1.86110E-13
 -1      3952 2.00858E+01-8.10742E-02 6.01809E-05-5.56960E-02 3.19920E-14 1.55230E-13
 -1      3953 2.00771E+01-7.46582E-02-3.31753E-04-3.96608E-02-1.45391E-14 1.48561E-13
 -1      3954 2.03742E+01 1.85083E-01 8.37556E-04 4.48869E-02 1.57939E-14 8.81529E-14
 -1      3955 2.03547E+01 1.13622E-01-7.36687E-04 6.37651E-02 4.81393E-14 1.28973E-13
 -1      3956 2.03674E+01 9.75515E-02-2.79832E-05 5.09633E-02 4.00403E-14 1.70272E-13
 -1      3957 2.32458E+01 3.33800E+00-3.73647E-02-1.16368E+00 1.57117E-13-3.26811E-14
 -1      3958 2.03375E+01 3.15164E-01 1.65938E-03-1.15600E-02 4.32284E-14 7.61745E-14
 -1      3959 2.03669E+01 4.14640E-01 4.18692E-04 1.67197E-02 6.06175E-14 6.64833E-14
 -1      3960 2.03172E+01 2.22840E-01-1.46275E-03-5.20320E-02 2.07994E-14 1.08209E-13
 -1      3961 2.10817E+01-1.71039E+00 2.95515E-02-3.10900E+00-2.09946E-13-8.27634E-14
 -1      3962 2.22309E+01-2.32287E+00-4.98524E-02-2.46086E+00-2.34340E-13-4.92412E-13
 -1      3963 2.08602E+01-1.39000E+00 3.30704E-02-2.78504E+00-2.46668E-13-3.58802E-14
 -1      3964 2.03965E+01 3.75334E-01 7.61671E-04-3.14106E-03-1.35408E-14 6.49995E-14
 -1      3965 2.03825E+01 2.71271E-01-1.17302E-03 2.87103E-02-4.69025E-15 7.60726E-14
 -1      3966 2.03980E+01 2.50861E-01 7.54448E-04 2.58696E-02 1.85973E-14 1.52594E-13
 -1      3967 2.03750E+01 6.60904E-01-2.42733E-03 7.37805E-02 7.80109E-14 5.00437E-14
 -1      3968 2.03625E+01 8.76203E-01 3.79182E-04 1.43076E-01 6.93165E-14 5.47251E-14
 -1      3969 2.01001E+01-8.71588E-02 3.13881E-04-6.00739E-02-6.05821E-15 1.27604E-13
 -1      3970 2.01126E+01-9.24736E-02 1.15809E-04-6.53456E-02-1.80691E-14 9.70272E-14
 -1      3971 2.01333E+01-9.93455E-02-4.70903E-04-5.45437E-02-1.91730E-14 1.22546E-14
 -1      3972 2.36864E+01 8.98132E-01-2.36959E-02 1.86747E+00 2.19206E-13 3.37944E-13
 -1      3973 2.42866E+01-4.70053E-02 1.55901E-02 1.69503E+00 2.17668E-13 3.37492E-13
 -1      3974 2.29878E+01-1.89960E+00 1.88939E-02-5.69170E-01-1.10081E-13 1.13541E-13
 -1      3975 2.35583E+01-1.95299E+00 2.64974E-04-1.59066E-01 2.33684E-14 1.29969E-13
 -1      3976 1.94756E+01-6.39666E-01-3.10019E-02-2.76187E+00-1.22669E-13 1.81528E-13
 -1      3977 2.03293E+01 5.85083E-02-5.55825E-04-7.92103E-02 1.94493E-14 6.91601E-14
 -1      3978 2.03506E+01 1.16048E-01 8.12371E-04-6.44693E-02 2.57025E-14 6.79682E-14
 -1      3979 2.02874E+01-2.19570E-02-1.69749E-04-9.13684E-02 3.69780E-14 3.22622E-14
 -1      3980 2.03097E+01 1.36748E-02 6.23714E-04-8.49304E-02 1.72104E-14 5.80511E-14
 -1      3981 2.03428E+01 4.49856E-02-2.19271E-04-6.38386E-02 3.00047E-14 8.45167E-14
 -1      3982 2.03834E+01 3.83680E-01-1.95533E-03-1.42870E-03 4.72661E-14 5.22414E-14
 -1      3983 2.03919E+01 5.12299E-01 1.34917E-03 4.12578E-02 5.04034E-14 3.93833E-14
 -1      3984 2.03960E+01 6.36776E-01 4.06145E-04 5.21823E-02 5.22325E-14 3.65167E-14
 -1      3985 2.00370E+01-4.26657E-02-1.96568E-04-2.97762E-02-2.83488E-15 1.23121E-13
 -1      3986 2.03374E+01 1.06073E+00 8.70024E-04 1.40032E-01 8.33883E-14 5.78757E-14
 -1      3987 2.03933E+01 6.05922E-01-9.41437E-04-5.78180E-02 2.18880E-14 2.85690E-14
 -1      3988 2.03925E+01 4.82963E-01-1.46864E-03-1.97437E-02-3.75322E-15 3.66088E-14
 -1      3989 2.04109E+01 4.47339E-01-5.84499E-04-9.79413E-03 1.44212E-14 8.38572E-14
 -1      3990 2.03982E+01 7.07809E-01 1.74283E-03-4.96446E-02 2.10941E-14 6.62765E-14
 -1      3991 2.02084E+01-9.80728E-02-6.08969E-04-6.92780E-02 4.93795E-14 7.18131E-14
 -1      3992 2.02015E+01-9.19778E-02 2.03604E-04-8.82891E-02 2.54897E-14 7.53308E-14
 -1      3993 2.02213E+01-8.27101E-02 3.99451E-04-9.07480E-02 5.36465E-14 1.10097E-13
 -1      3994 2.02272E+01-5.84765E-02-5.38142E-04-1.11899E-01 5.01546E-14 4.92185E-14
 -1      3995 2.03886E+01 8.47022E-01 8.49771E-04-3.95750E-03 4.24947E-14 7.03796E-14
 -1      3996 2.03968E+01 7.61935E-01-2.80019E-03-3.43689E-02 1.70509E-14 8.48594E-14
 -1      3997 2.04158E+01 6.29933E-01 1.82590E-03-2.19492E-02 2.42033E-14 8.67019E-14
 -1      3998 2.01029E+01-8.87420E-02-4.03985E-04-4.67224E-02-3.46280E-14 2.81744E-14
 -1      3999 2.25537E+01-2.06968E+00 1.06096E-02-1.73587E+00-1.60773E-13-2.49139E-13
 -1      4000 2.02756E+01-8.06119E-01 2.36727E-02-2.28141E+00-8.32416E-14-9.48218E-14
 -1      4001 2.04372E+01-1.08885E+00 1.61401E-02-2.60244E+00-1.71129E-13-3.53135E-14
 -1      4002 2.13408E+01-1.67654E+00-4.34668E-02-2.24419E+00-1.95257E-13-4.40313E-13
 -1      4003 2.03459E+01 2.13756E-01 4.88130E-05-4.96313E-02 4.11732E-14 1.01753E-13
 -1      4004 2.03060E+01-4.92289E-02 3.75236E-04 4.58794E-02-6.75004E-15 9.24690E-14
 -1      4005 2.02822E+01-7.14740E-02 1.29309E-04 4.73896E-02-2.92674E-14 8.67268E-14
 -1      4006 2.02583E+01-8.72793E-02 3.08243E-04 4.61472E-02-1.28269E-14 1.26752E-13
 -1      4007 2.02359E+01-9.79023E-02 2.63379E-04 4.54313E-02 5.35682E-15 9.83807E-14
 -1      4008 2.02783E+01-7.95227E-02-5.98364E-04 2.62276E-02-2.65060E-16 1.29561E-13
 -1      4009 2.02131E+01-1.04060E-01 2.99300E-04 4.32016E-02 2.05008E-14 1.00883E-13
 -1      4010 2.01927E+01-1.06700E-01 3.08334E-04 4.12982E-02 6.17246E-14 9.16780E-14
 -1      4011 2.02318E+01-1.02995E-01-7.43562E-04 2.48993E-02 2.85576E-14 1.66428E-13
 -1      4012 2.01720E+01-1.06510E-01 2.59693E-04 3.89770E-02 5.76058E-14 1.00926E-13
 -1      4013 2.01541E+01-1.04014E-01 3.19012E-04 3.64783E-02 5.30159E-14 1.01754E-13
 -1      4014 2.01882E+01-1.09434E-01-8.14212E-04 2.28314E-02 5.67519E-14 1.60805E-13
 -1      4015 2.01359E+01-9.98217E-02 2.05580E-04 3.42168E-02 6.32840E-14 4.44502E-14
 -1      4016 2.01205E+01-9.41480E-02 3.00143E-04 3.15719E-02 7.01255E-14 4.42616E-14
 -1      4017 2.01497E+01-1.04996E-01-7.46018E-04 2.02581E-02 2.81762E-15 1.62294E-13
 -1      4018 2.01047E+01-8.75266E-02 1.56896E-04 2.95186E-02 8.87604E-14 5.85843E-15
 -1      4019 2.00917E+01-7.99956E-02 2.62956E-04 2.70149E-02 7.25492E-14-5.49630E-14
 -1      4020 2.01163E+01-9.37926E-02-6.42140E-04 1.76200E-02 4.67524E-14 2.54695E-15
 -1      4021 2.00783E+01-7.19803E-02 1.13579E-04 2.52234E-02 1.17044E-13-3.99149E-14
 -1      4022 2.00672E+01-6.34170E-02 2.11984E-04 2.30123E-02 9.57836E-14 9.28806E-15
 -1      4023 2.00877E+01-7.86194E-02-5.23821E-04 1.51298E-02 1.00582E-13-1.72204E-14
 -1      4024 2.00557E+01-5.46167E-02 7.73081E-05 2.14516E-02 2.07440E-14-1.80670E-14
 -1      4025 2.00461E+01-4.54749E-02 1.47588E-04 1.95619E-02 1.45988E-14-3.30848E-14
 -1      4026 2.00634E+01-6.12482E-02-4.00287E-04 1.28241E-02 5.13947E-14-9.94424E-14
 -1      4027 2.00360E+01-3.61752E-02 5.08149E-05 1.81066E-02 1.09524E-14-9.14539E-16
 -1      4028 2.00272E+01-2.66335E-02 6.56604E-05 1.64376E-02-1.94011E-14 8.52415E-16
 -1      4029 2.00423E+01-4.26959E-02-2.75938E-04 1.05624E-02 4.60239E-14-2.15941E-13
 -1      4030 2.00181E+01-1.68754E-02 3.88749E-05 1.48358E-02-7.12444E-15 8.06039E-14
 -1      4031 2.00095E+01-6.91212E-03-4.30292E-05 1.31236E-02 2.45480E-14 2.88830E-14
 -1      4032 2.00235E+01-2.34358E-02-1.52551E-04 7.97928E-03 3.81122E-14-9.38022E-14
 -1      4033 2.00007E+01 3.44717E-03 4.98871E-05 1.09358E-02 2.30993E-14 1.00636E-13
 -1      4034 1.99914E+01 1.39898E-02-1.93922E-04 8.68124E-03 3.23084E-14 7.75844E-14
 -1      4035 2.00058E+01-3.57391E-03-3.09790E-05 4.38612E-03 3.78966E-14 1.09614E-14
 -1      4036 1.99824E+01 2.52238E-02 9.82158E-05 5.18120E-03 1.25027E-15 5.96814E-14
 -1      4037 1.99711E+01 3.65738E-02-4.10068E-04 1.52686E-03 2.54639E-14-6.80355E-14
 -1      4038 1.99879E+01 1.69886E-02 8.67242E-05-1.39331E-03-1.98044E-14 9.37454E-14
 -1      4039 1.99614E+01 4.90264E-02 2.07655E-04-4.44924E-03-1.46763E-14-1.36169E-13
 -1      4040 1.99468E+01 6.13925E-02-7.23379E-04-1.09134E-02-1.24923E-14-2.36159E-13
 -1      4041 1.99685E+01 3.83760E-02 1.94031E-04-1.12750E-02-3.64340E-14-5.98813E-14
 -1      4042 1.99360E+01 7.53832E-02 4.16469E-04-2.11831E-02 7.82186E-14-3.02265E-13
 -1      4043 1.99162E+01 8.88083E-02-1.17463E-03-3.27096E-02 8.66873E-14-2.43911E-13
 -1      4044 1.99462E+01 6.04927E-02 2.74424E-04-2.82802E-02 8.95052E-15-3.05630E-13
 -1      4045 1.99040E+01 1.04458E-01 7.84464E-04-5.00375E-02 6.27389E-14-2.60440E-13
 -1      4046 1.98769E+01 1.18556E-01-1.80988E-03-7.01338E-02-3.96535E-14-1.16569E-13
 -1      4047 1.99200E+01 8.26387E-02 2.91949E-04-5.70358E-02 9.02446E-14-5.12000E-13
 -1      4048 1.98639E+01 1.35457E-01 1.40225E-03-9.85996E-02-1.03310E-13-4.44347E-15
 -1      4049 1.98268E+01 1.48945E-01-2.66870E-03-1.32579E-01-1.04193E-13 5.09479E-14
 -1      4050 1.98890E+01 1.02869E-01 1.75372E-04-1.04411E-01 7.03302E-15-3.45876E-13
 -1      4051 1.98146E+01 1.65558E-01 2.40184E-03-1.77985E-01-1.82847E-13 1.46235E-13
 -1      4052 1.97653E+01 1.75452E-01-3.75558E-03-2.33638E-01-2.09846E-13 6.77256E-14
 -1      4053 1.98542E+01 1.16929E-01-2.07262E-04-1.80232E-01-8.34435E-14-1.29003E-13
 -1      4054 1.97579E+01 1.88052E-01 3.96541E-03-3.03836E-01-2.08749E-13 1.21734E-13
 -1      4055 1.96952E+01 1.88355E-01-4.97894E-03-3.92110E-01-2.01334E-13 5.42920E-14
 -1      4056 1.98192E+01 1.16548E-01-1.08693E-03-2.97903E-01-1.83831E-13-1.08776E-13
 -1      4057 1.97007E+01 1.89306E-01 6.32383E-03-4.96975E-01-2.53153E-13 3.23237E-14
 -1      4058 1.96275E+01 1.69022E-01-6.02730E-03-6.32351E-01-2.94660E-13-1.56303E-14
 -1      4059 1.97934E+01 8.68607E-02-2.84562E-03-4.74459E-01-2.35196E-13 7.65061E-14
 -1      4060 1.96611E+01 1.44191E-01 9.73663E-03-7.82739E-01-1.75148E-13-1.10646E-13
 -1      4061 1.95892E+01 8.48037E-02-6.00318E-03-9.82766E-01-8.77413E-14-1.41058E-13
 -1      4062 1.97966E+01 2.91282E-03-6.07826E-03-7.29094E-01-2.84804E-13 1.35563E-13
 -1      4063 1.96786E+01 8.84958E-03 1.43455E-02-1.18720E+00-6.08298E-14-1.22005E-13
 -1      4064 1.96419E+01-1.14554E-01-9.49907E-04-1.47110E+00-1.21347E-13-9.30330E-14
 -1      4065 1.98666E+01-1.74390E-01-1.18053E-02-1.07786E+00-1.93494E-14-1.22672E-13
 -1      4066 1.98534E+01-2.93782E-01 1.86054E-02-1.69991E+00-1.15756E-13-1.15094E-13
 -1      4067 1.99087E+01-5.10821E-01 7.16735E-03-2.04796E+00-1.04604E-14-6.59041E-14
 -1      4068 2.06059E+01-1.03778E+00-3.16219E-02-1.90396E+00-7.83789E-14-1.50633E-13
 -1      4069 2.00978E+01-5.09998E-01-2.14837E-02-1.49255E+00-3.49750E-14-2.31371E-13
 -1      4070 2.00553E+01-5.57572E-02 2.42639E-04-2.35218E-02 6.87582E-14 9.25934E-14
 -1      4071 2.00652E+01-6.41873E-02 6.36849E-05-2.55773E-02 4.80693E-14 1.11375E-13
 -1      4072 2.25740E+01-2.01249E+00-3.29848E-02-1.16821E+00-1.80957E-13 3.66948E-15
 -1      4073 2.25254E+01-1.75909E+00 1.49652E-03-6.73778E-01-2.52430E-13 1.30351E-13
 -1      4074 2.21225E+01-1.57724E+00 2.03931E-02-8.10408E-01-3.00486E-13 1.03644E-13
 -1      4075 2.20782E+01-1.80608E+00 2.50794E-02-1.77043E+00-2.15044E-13-2.76318E-13
 -1      4076 2.01041E+01-8.72718E-02 2.99674E-04-3.22531E-02-6.12170E-14 7.75296E-14
 -1      4077 2.01182E+01-9.38319E-02 1.67565E-04-3.52707E-02-6.16818E-14 2.22584E-14
 -1      4078 2.03919E+01 1.32067E-01 3.69225E-04 2.99042E-02 2.01034E-14 1.85405E-13
 -1      4079 2.03722E+01 6.93738E-02-3.32874E-04 4.00739E-02 3.10159E-14 1.58889E-13
 -1      4080 1.99925E+01 7.35928E-03 3.47975E-04-2.85585E-02-9.21957E-14-1.09028E-14
 -1      4081 1.99972E+01 4.15683E-04-2.00622E-04-2.54581E-02-1.44563E-15 1.56636E-14
 -1      4082 2.00052E+01-6.63206E-03 2.63381E-04-2.28769E-02 1.77741E-14 3.64974E-14
 -1      4083 2.00112E+01-1.44591E-02-1.18314E-04-2.16646E-02 1.73509E-15 4.01692E-14
 -1      4084 2.00003E+01-1.24826E-03-6.71953E-05-1.83839E-02 2.86086E-14-9.00767E-14
 -1      4085 1.99736E+01 2.49222E-02 7.65855E-04-5.71388E-02-8.22375E-14-3.35248E-14
 -1      4086 1.99741E+01 2.20290E-02-4.15894E-04-4.78072E-02-1.16861E-13-8.98848E-14
 -1      4087 1.99710E+01 2.33974E-02 1.16746E-03-8.51626E-02 1.34455E-14-2.77346E-14
 -1      4088 1.99669E+01 2.47656E-02-5.39728E-04-7.08462E-02-2.37509E-14-2.25395E-15
 -1      4089 1.99602E+01 3.52794E-02-1.32612E-04-6.18758E-02-8.66475E-14-2.05308E-13
 -1      4090 1.99781E+01 8.96280E-03 1.75002E-03-1.27206E-01 9.24270E-14-6.82052E-14
 -1      4091 1.99665E+01 1.72963E-02-6.44228E-04-1.06226E-01 1.14176E-13 1.57928E-14
 -1      4092 1.99518E+01 3.57414E-02-3.97585E-04-9.71258E-02 8.15703E-14-1.43374E-13
 -1      4093 2.00025E+01-2.59064E-02 2.54324E-03-1.87835E-01 6.46340E-14-1.34300E-14
 -1      4094 1.99785E+01-6.52388E-03-6.67877E-04-1.58386E-01 3.17824E-14-6.11365E-14
 -1      4095 1.99511E+01 2.28695E-02-9.37235E-04-1.50706E-01 8.51680E-14-9.38758E-14
 -1      4096 2.00567E+01-9.20256E-02 3.53914E-03-2.71558E-01-1.78240E-13 3.56164E-14
 -1      4097 2.00130E+01-5.57263E-02-4.89824E-04-2.32216E-01 1.34520E-14 6.73585E-14
 -1      4098 1.99656E+01-1.19125E-02-1.92968E-03-2.29254E-01-6.69010E-14-1.07795E-14
 -1      4099 2.01595E+01-2.03982E-01 4.63982E-03-3.81034E-01-5.76224E-14 1.65532E-13
 -1      4100 2.00859E+01-1.42870E-01 1.04009E-04-3.31825E-01-1.55157E-13 2.29340E-14
 -1      4101 2.00082E+01-8.14051E-02-3.64385E-03-3.39821E-01-1.06630E-13 5.01864E-15
 -1      4102 2.03382E+01-3.79616E-01 5.56383E-03-5.13552E-01-1.56897E-13 3.56928E-14
 -1      4103 2.02217E+01-2.84117E-01 1.45586E-03-4.57883E-01-6.42977E-14 1.03039E-13
 -1      4104 2.01001E+01-2.03576E-01-6.45766E-03-4.87784E-01-1.28503E-13 9.51307E-14
 -1      4105 2.06300E+01-6.36743E-01 5.71805E-03-6.54801E-01-2.44179E-13 9.09148E-14
 -1      4106 2.04552E+01-4.97707E-01 4.03929E-03-6.02622E-01-1.63482E-13 1.84277E-13
 -1      4107 2.02737E+01-4.01402E-01-1.08135E-02-6.72522E-01-2.75546E-13 5.21870E-14
 -1      4108 2.10824E+01-9.82388E-01 5.32040E-03-7.67576E-01-3.50178E-14-1.32962E-14
 -1      4109 2.08330E+01-7.99281E-01 8.20377E-03-7.41118E-01-1.49751E-13-7.58389E-15
 -1      4110 2.05784E+01-6.98851E-01-1.64192E-02-8.79939E-01-1.08959E-13-5.32096E-14
 -1      4111 2.17016E+01-1.37460E+00 4.27770E-03-8.03665E-01-1.49403E-13-1.92630E-15
 -1      4112 2.13691E+01-1.16511E+00 1.38636E-02-8.35392E-01-9.54277E-14-3.12175E-14
 -1      4113 2.10378E+01-1.08801E+00-2.36447E-02-1.07679E+00-8.67659E-14-2.42786E-13
 -1      4114 2.16906E+01-1.54479E+00-3.00869E-02-1.20830E+00-2.88463E-13-1.41180E-13
 -1      4115 2.35330E+01-1.67901E+00-2.65608E-03 2.61304E-01-4.89409E-15 1.72324E-13
 -1      4116 2.03798E+01 1.69122E-01 2.22601E-04-4.34117E-02 2.11697E-14 8.43411E-14
 -1      4117 2.03639E+01 1.85788E-01-1.11405E-03-5.13184E-02 2.14325E-14 8.32506E-14
 -1      4118 2.03820E+01 2.72689E-01 1.15393E-03-2.47811E-02 3.61464E-14 7.90898E-14
 -1      4119 2.03723E+01 8.83407E-01-3.61853E-04 8.42110E-02 8.31936E-14 6.78860E-14
 -1      4120 2.04186E+01 2.99443E-01 2.54640E-04 7.62655E-03 4.71935E-14 1.45556E-13
 -1      4121 2.04044E+01 2.07255E-01-1.20530E-03 2.60364E-02 4.51566E-14 1.55004E-13
 -1      4122 2.04082E+01 1.82169E-01 2.76703E-04 1.48973E-02 5.81666E-14 1.58109E-13
 -1      4123 2.03800E+01 8.77245E-01-1.61905E-03 2.37729E-02 5.67107E-14 8.71214E-14
 -1      4124 2.04098E+01 7.29052E-01 2.26347E-03 1.69415E-02 5.72541E-14 9.88858E-14
 -1      4125 2.01712E+01-1.05633E-01 3.27244E-04-4.37379E-02 2.20937E-15 3.44652E-14
 -1      4126 2.01903E+01-1.05697E-01 2.81964E-04-4.64514E-02 2.15164E-15 4.97135E-14
 -1      4127 2.00197E+01-2.22897E-02 2.28182E-04-2.07425E-02-1.68605E-14 9.54428E-14
 -1      4128 2.00268E+01-3.06180E-02-4.96245E-05-2.09263E-02-2.08789E-14 7.00856E-14
 -1      4129 2.00159E+01-1.80527E-02-1.44591E-04-1.46983E-02 9.33896E-15-2.78101E-14
 -1      4130 1.99816E+01 1.85217E-02 5.05227E-04-3.92635E-02-1.18801E-13-4.38268E-14
 -1      4131 1.99846E+01 1.30814E-02-2.99883E-04-3.35558E-02-1.32734E-13-7.01897E-14
 -1      4132 1.99722E+01 2.69597E-02-2.99535E-05-3.95297E-02-1.16457E-13-2.25391E-13
 -1      4133 2.03799E+01 8.66436E-01-1.25851E-05 5.66733E-02 7.41437E-14 9.21357E-14
 -1      4134 2.00777E+01-7.22418E-02 2.70239E-04-2.73371E-02-2.75566E-14 1.25096E-13
 -1      4135 2.00895E+01-8.00988E-02 1.15530E-04-2.99911E-02-4.21130E-14 6.29237E-14
 -1      4136 2.00748E+01-7.07710E-02-4.64546E-04-1.63454E-02 1.93892E-14-4.59605E-14
 -1      4137 2.03931E+01 7.82079E-01 1.61663E-03 6.41151E-02 6.45456E-14 8.32939E-14
 -1      4138 2.03523E+01 1.97998E-02 3.79096E-04 4.13472E-02-1.87208E-14 1.47332E-13
 -1      4139 2.03292E+01-1.93906E-02-4.61532E-05 4.64646E-02-2.66689E-14 1.20323E-13
 -1      4140 2.03270E+01-3.21971E-02-5.56720E-04 2.59207E-02-5.20049E-14 8.16260E-14
 -1      4141 2.02437E+01-6.87763E-02 1.01914E-04-9.32889E-02 3.96940E-14 9.54822E-14
 -1      4142 2.02651E+01-4.86158E-02 4.90658E-04-9.23217E-02 3.31885E-14 6.61614E-14
 -1      4143 2.02982E+01-3.24525E-02-4.63074E-04-7.24075E-02 2.51044E-14 7.10895E-14
 -1      4144 2.02528E+01-7.71092E-02-6.41020E-04-7.32851E-02 3.63118E-14 1.25676E-13
 -1      4145 2.00362E+01-3.88680E-02 2.25405E-04-2.11736E-02-7.47674E-14 1.17335E-13
 -1      4146 2.00446E+01-4.74074E-02 9.71108E-06-2.24165E-02-1.01783E-14 1.08698E-13
 -1      4147 2.00523E+01-5.33905E-02-3.49465E-04-1.43724E-02-5.00590E-16 7.17182E-14
 -1      4148 2.00330E+01-3.56092E-02-2.41095E-04-1.36413E-02-1.07084E-15 7.34367E-14
 -1      4149 2.01352E+01-9.92233E-02 3.22078E-04-3.78860E-02-3.35705E-14 3.30910E-14
 -1      4150 2.01517E+01-1.03373E-01 2.21209E-04-4.09594E-02-1.08310E-14 3.91473E-14
 -1      4151 2.01681E+01-1.07905E-01-7.80699E-04-2.61012E-02-1.12655E-15 1.27664E-13
 -1      4152 2.04145E+01 6.08663E-01-2.08358E-05 1.84838E-02 5.06720E-14 1.36866E-13
 -1      4153 2.04213E+01 5.68628E-01-1.58760E-03-1.00196E-03 4.07042E-14 8.61959E-14
 -1      4154 2.04028E+01 6.12770E-01-1.77421E-03 3.15893E-02 4.88480E-14 8.78388E-14
 -1      4155 2.16641E+01-1.53746E+00 1.55058E-02-1.67257E+00-2.02294E-13-2.64156E-13
 -1      4156 2.03491E+01 2.24512E-02-1.60015E-04-4.97329E-02 2.33300E-14 8.24667E-14
 -1      4157 2.03706E+01 7.27601E-02 3.55451E-04-4.16324E-02 1.51120E-14 8.19196E-14
 -1      4158 2.04022E+01 3.60030E-01 1.31909E-04-6.18947E-03 2.53631E-14 4.02172E-14
 -1      4159 2.04215E+01 4.78273E-01 1.92231E-03 1.37589E-02 2.42299E-14 9.73178E-14
 -1      4160 2.03721E+01 5.06126E-02-3.10390E-04 2.24783E-02-2.03025E-14 1.14677E-13
 -1      4161 1.99858E+01 1.41296E-02-2.14491E-05-2.60011E-02-5.35726E-14-2.10119E-13
 -1      4162 2.01011E+01-8.67981E-02-5.80896E-04-1.91782E-02-4.93885E-14 5.53918E-14
 -1      4163 2.03876E+01 1.35042E-01-6.37125E-04-3.83907E-02 2.58786E-14 7.29336E-14
 -1      4164 2.04048E+01 2.12613E-01 6.50489E-04-2.31101E-02 2.97666E-14 6.31892E-14
 -1      4165 2.03910E+01 1.13425E-01-7.78304E-05-2.38655E-02 1.94621E-14 5.28777E-14
 -1      4166 2.04291E+01 3.58537E-01 5.20687E-05 4.51150E-03 6.35815E-14 8.77719E-14
 -1      4167 2.04252E+01 4.60617E-01 6.57610E-04-1.38802E-03 5.31764E-14 8.03500E-14
 -1      4168 2.02092E+01-1.07156E-01-8.04841E-04-2.93249E-02 4.75855E-14 8.36116E-14
 -1      4169 2.02122E+01-1.02948E-01 3.10723E-04-4.91105E-02 5.41680E-14 6.32748E-14
 -1      4170 2.02342E+01-9.65002E-02 4.62311E-04-5.10565E-02 8.82288E-14 7.56638E-14
 -1      4171 2.01321E+01-9.99570E-02-6.90751E-04-2.25481E-02-6.05309E-14 8.42581E-14
 -1      4172 2.02959E+01-7.19139E-02 3.62615E-04 4.91446E-03-3.63341E-15 1.52374E-13
 -1      4173 2.02718E+01-8.82322E-02 5.17293E-04 5.35270E-03 5.98117E-14 1.47437E-13
 -1      4174 2.12620E+01-1.26520E+00 1.89406E-02-1.60438E+00-1.87276E-13-2.37876E-13
 -1      4175 2.02471E+01-9.86623E-02 2.99353E-04-3.17262E-03 6.16313E-14 1.30365E-13
 -1      4176 2.02248E+01-1.05262E-01 4.55568E-04-2.82737E-03 4.38193E-14 1.59043E-13
 -1      4177 2.02030E+01-1.08378E-01 4.76749E-04-2.50227E-03 4.78661E-14 1.54258E-13
 -1      4178 2.01822E+01-1.08395E-01 4.80228E-04-2.66528E-03 2.74474E-14 1.35999E-13
 -1      4179 2.01626E+01-1.06128E-01 4.67051E-04-1.87238E-03-2.61611E-14 1.48804E-13
 -1      4180 2.01443E+01-1.01938E-01 4.39468E-04-2.29469E-03-3.03486E-14 9.35081E-14
 -1      4181 2.01273E+01-9.63806E-02 4.11500E-04-1.35462E-03-1.73808E-14 7.60549E-14
 -1      4182 2.01115E+01-8.96567E-02 3.73677E-04-1.88276E-03-1.56049E-15 2.74920E-14
 -1      4183 2.00969E+01-8.21883E-02 3.46102E-04-9.87332E-04 9.27089E-15 7.29330E-15
 -1      4184 2.00834E+01-7.40520E-02 2.96505E-04-1.56872E-03 3.25676E-14-5.78716E-14
 -1      4185 2.00710E+01-6.55691E-02 2.81229E-04-8.76617E-04 5.25130E-14-4.61849E-14
 -1      4186 2.00594E+01-5.67200E-02 2.11936E-04-1.53506E-03 2.67116E-14-5.49155E-14
 -1      4187 2.00488E+01-4.77654E-02 2.23949E-04-1.21777E-03-4.35513E-15-5.09272E-14
 -1      4188 2.00385E+01-3.86032E-02 1.19909E-04-2.07071E-03 9.63613E-15-6.62434E-14
 -1      4189 2.00293E+01-2.94788E-02 1.81371E-04-2.35721E-03 6.67930E-14-8.20931E-14
 -1      4190 2.00199E+01-2.02071E-02 1.74410E-05-3.65396E-03 6.84354E-14-2.19191E-14
 -1      4191 2.00117E+01-1.10737E-02 1.62833E-04-4.88721E-03 2.76649E-14-5.80082E-14
 -1      4192 2.00025E+01-1.79486E-03-1.00755E-04-7.07388E-03 1.05194E-14-3.34588E-14
 -1      4193 1.99951E+01 7.23159E-03 1.82398E-04-9.78587E-03-1.64620E-14-4.37268E-14
 -1      4194 1.99854E+01 1.64185E-02-2.41378E-04-1.36062E-02-7.67058E-16-4.44693E-14
 -1      4195 1.99785E+01 2.51581E-02 2.62101E-04-1.86174E-02-5.14749E-14-1.04709E-13
 -1      4196 1.99676E+01 3.40386E-02-4.10663E-04-2.52602E-02-6.58362E-14-1.10439E-13
 -1      4197 1.99616E+01 4.21073E-02 4.36269E-04-3.38059E-02-7.68636E-14-1.25001E-13
 -1      4198 1.99489E+01 5.01862E-02-6.10355E-04-4.51098E-02-7.67066E-14-2.35601E-13
 -1      4199 1.99445E+01 5.67955E-02 7.57083E-04-5.89873E-02 2.18369E-14-2.88561E-13
 -1      4200 1.99294E+01 6.30497E-02-8.29588E-04-7.77045E-02 4.98443E-14-3.17257E-13
 -1      4201 1.99283E+01 6.67055E-02 1.30113E-03-9.94174E-02 8.66257E-14-3.46064E-13
 -1      4202 1.99109E+01 6.92053E-02-1.02957E-03-1.29521E-01 5.84869E-14-2.74173E-13
 -1      4203 1.99163E+01 6.72575E-02 2.17558E-03-1.62359E-01 7.73711E-15-1.92833E-13
 -1      4204 1.98978E+01 6.25964E-02-1.11667E-03-2.09329E-01-6.37699E-14-1.79715E-13
 -1      4205 1.99150E+01 5.05896E-02 3.51987E-03-2.57260E-01-1.15161E-13-2.17031E-13
 -1      4206 1.98991E+01 3.30696E-02-8.99202E-04-3.28186E-01-1.22723E-13-1.45679E-13
 -1      4207 1.99370E+01 3.87930E-03 5.49170E-03-3.95326E-01-1.23494E-13-9.85001E-14
 -1      4208 1.99314E+01-3.55372E-02-2.79462E-05-4.98481E-01-1.72600E-13-3.44289E-14
 -1      4209 2.00040E+01-9.26748E-02 8.20730E-03-5.87771E-01-2.67259E-13 5.27578E-14
 -1      4210 2.00242E+01-1.67423E-01 2.04629E-03-7.30935E-01-2.42478E-13 6.58609E-14
 -1      4211 2.01516E+01-2.67650E-01 1.15248E-02-8.41602E-01-2.23460E-13-1.08039E-14
 -1      4212 2.02245E+01-3.96179E-01 5.72190E-03-1.02745E+00-7.65587E-14-1.22177E-13
 -1      4213 2.03272E+01-1.69547E-02 3.77554E-04-5.03956E-02 1.94740E-14 9.10484E-14
 -1      4214 2.03496E+01 7.01170E-03-4.48336E-04-3.05043E-02 1.43452E-14 8.42863E-14
 -1      4215 2.03045E+01-4.71308E-02 2.30982E-04-5.35628E-02-8.33713E-15 1.13211E-13
 -1      4216 2.04142E+01 3.47792E-01-1.35187E-03-9.09771E-03 1.36708E-14 1.00335E-13
 -1      4217 2.03437E+01-1.57542E-02 3.14701E-04-4.46427E-03-4.33151E-14 8.80733E-14
 -1      4218 2.03192E+01-4.72184E-02 1.46812E-04-2.42850E-03-2.90492E-14 1.21722E-13
 -1      4219 2.04293E+01-5.59214E-01 1.31898E-02-1.15219E+00 2.02167E-14-1.82432E-13
 -1      4220 2.04167E+01 5.06272E-01-6.39049E-04-5.95179E-03 2.62128E-14 9.67285E-14
 -1      4221 2.04190E+01 2.20546E-01 2.93781E-05-5.95822E-03 6.89378E-14 5.13717E-14
 -1      4222 2.04049E+01 1.41174E-01-2.27793E-04 5.52874E-04 4.45471E-14 7.98787E-14
 -1      4223 2.04210E+01 3.16947E-01 5.18459E-04-6.25566E-03 3.49059E-14 8.27726E-14
 -1      4224 2.06270E+01-7.65419E-01 1.20841E-02-1.33438E+00-6.19470E-15-1.00139E-13
 -1      4225 2.03871E+01 7.67896E-02 1.19786E-04-4.77253E-03 1.85905E-14 6.96686E-14
 -1      4226 2.03664E+01 2.49209E-02 1.67381E-04-1.45389E-03-3.02385E-14 6.34209E-14
 -1      4227 2.09026E+01-9.79185E-01 1.42627E-02-1.44907E+00-8.85284E-14-1.17632E-13
 -1      4228 2.02562E+01-9.34676E-02-7.53728E-04-2.32145E-02 6.60173E-14 1.13462E-13
 -1      4229 2.03043E+01-5.85336E-02-5.78275E-04-2.46058E-02 5.99397E-15 1.53359E-13
 -1      4230 2.02594E+01-8.63839E-02 1.44531E-04-4.47579E-02 6.72433E-14 1.10640E-13
 -1      4231 2.02826E+01-7.02750E-02 3.32381E-04-4.43685E-02 2.09814E-14 1.30105E-13
 -3
    1PSTEP                         3           1           1          
  100CL  101 1.000000000        4231                     0    1           1
 -4  TOSTRAIN    6    1
 -5  EXX         1    4    1    1
 -5  EYY         1    4    2    2
 -5  EZZ         1    4    3    3
 -5  EXY         1    4    1    2
 -5  EYZ         1    4    2    3
 -5  EZX         1    4    3    1
 -1         1 4.32749E-04-1.37633E-04-9.75966E-05 6.70346E-07 4.33575E-20 1.10036E-17
 -1         2 4.18714E-05-1.29641E-04 2.51201E-05-5.80448E-07-8.20214E-18-7.79906E-19
 -1         3 9.53404E-05-2.84577E-05-2.87482E-05 1.39450E-07-3.55722E-18-3.80906E-18
 -1         4 9.49419E-05-2.91108E-05-2.80499E-05 8.48391E-07-1.20086E-18 4.30999E-19
 -1         5 1.43343E-04-2.14774E-05-4.25287E-05 3.85284E-05-7.30566E-20 5.20925E-18
 -1         6 1.46054E-04 2.57153E-10-4.41322E-05-5.42098E-05-2.25734E-19 2.52892E-18
 -1         7 9.01629E-05-3.19407E-07-3.90213E-05-2.90725E-05-3.40931E-20 1.62749E-19
 -1         8 8.51287E-05 9.35493E-08-3.63443E-05-2.02550E-05-2.46698E-20-4.91357E-19
 -1         9 8.28168E-05 7.80170E-08-3.53530E-05-1.56378E-05-2.30816E-20-7.73705E-19
 -1        10 8.17773E-05 3.89318E-08-3.48828E-05-1.20767E-05-6.35275E-22-7.74832E-19
 -1        11 8.12531E-05 1.95323E-08-3.46528E-05-9.01115E-06 1.41018E-20-7.65771E-19
 -1        12 8.09815E-05 9.25425E-09-3.45378E-05-6.28243E-06 4.02903E-20-6.67263E-19
 -1        13 8.08386E-05 4.65852E-09-3.44795E-05-3.68485E-06 1.84329E-20-5.51713E-19
 -1        14 8.07786E-05 2.80931E-09-3.44556E-05-1.18456E-06 3.06084E-20-4.25331E-19
 -1        15 8.07806E-05 2.79335E-09-3.44563E-05 1.28620E-06 3.38517E-20-2.87559E-19
 -1        16 8.08448E-05 4.57091E-09-3.44816E-05 3.79152E-06 3.36067E-20-1.01161E-19
 -1        17 8.09927E-05 8.45869E-09-3.45413E-05 6.40101E-06 5.73997E-20 6.09764E-20
 -1        18 8.12690E-05 1.82567E-08-3.46577E-05 9.14885E-06 3.46125E-20 3.16236E-19
 -1        19 8.17980E-05 3.82905E-08-3.48899E-05 1.22499E-05 6.03312E-20 6.56042E-19
 -1        20 8.28414E-05 8.04632E-08-3.53640E-05 1.58644E-05 6.88214E-20 1.19189E-18
 -1        21 8.50910E-05 1.69800E-07-3.63781E-05 2.04766E-05 4.63751E-20 2.06414E-18
 -1        22 9.16470E-05-9.94882E-08-3.87410E-05 2.79941E-05-9.95264E-21 3.33946E-18
 -1        23 1.13988E-04-3.81506E-05-3.57483E-05-5.15971E-06-1.42593E-19 1.82006E-18
 -1        24 9.31601E-05-2.78068E-05-2.91762E-05 4.02089E-07-5.12521E-20 1.29452E-18
 -1        25 8.92428E-05-2.68865E-05-2.69897E-05 3.84836E-07-3.82191E-20 7.34933E-19
 -1        26 8.80631E-05-2.65037E-05-2.64105E-05 2.08694E-07-5.84403E-21 3.44716E-19
 -1        27 8.80580E-05-2.64727E-05-2.63889E-05 1.42419E-07 3.31666E-20-4.86184E-20
 -1        28 8.85814E-05-2.66056E-05-2.65549E-05 1.02627E-07-6.88082E-20-3.66097E-19
 -1        29 8.93374E-05-2.68183E-05-2.67879E-05 7.65520E-08-8.54498E-20-1.02795E-18
 -1        30 9.01700E-05-2.70601E-05-2.70404E-05 5.80404E-08 4.20176E-20-1.60823E-18
 -1        31 9.09916E-05-2.73021E-05-2.72883E-05 4.41738E-08-4.36748E-20-1.63973E-18
 -1        32 9.17538E-05-2.75280E-05-2.75179E-05 3.34742E-08 3.97502E-20-1.38338E-18
 -1        33 9.24318E-05-2.77297E-05-2.77223E-05 2.51114E-08-1.27640E-20-1.13943E-18
 -1        34 9.30164E-05-2.79042E-05-2.78987E-05 1.85596E-08 3.57059E-20-6.55481E-19
 -1        35 9.35075E-05-2.80510E-05-2.80470E-05 1.34460E-08-2.68921E-20-8.45464E-19
 -1        36 9.39113E-05-2.81719E-05-2.81690E-05 9.48330E-09 1.74937E-19-6.34985E-19
 -1        37 9.42369E-05-2.82696E-05-2.82675E-05 6.43799E-09-1.93808E-19-1.73072E-18
 -1        38 9.44950E-05-2.83472E-05-2.83456E-05 4.11462E-09-3.24969E-20-3.23073E-18
 -1        39 9.46970E-05-2.84080E-05-2.84068E-05 2.34739E-09 1.89669E-19-3.58369E-18
 -1        40 9.48538E-05-2.84553E-05-2.84544E-05 9.94506E-10-1.14057E-19-2.75384E-18
 -1        41 9.49764E-05-2.84924E-05-2.84917E-05-6.63178E-11 1.86379E-20-3.69747E-18
 -1        42 9.50754E-05-2.85225E-05-2.85218E-05-9.41392E-10 2.17032E-20-4.35349E-18
 -1        43 9.51618E-05-2.85490E-05-2.85481E-05-1.72308E-09-5.49784E-20-3.77237E-18
 -1        44 9.52481E-05-2.85755E-05-2.85744E-05-2.48814E-09 6.74099E-19-2.00528E-18
 -1        45 9.53498E-05-2.86070E-05-2.86055E-05-3.28792E-09 2.96608E-20-2.70781E-19
 -1        46 9.54885E-05-2.86500E-05-2.86481E-05-4.12096E-09-3.72814E-19-1.17372E-18
 -1        47 9.56966E-05-2.87144E-05-2.87121E-05-4.86900E-09 2.88861E-19-1.57453E-18
 -1        48 9.60253E-05-2.88159E-05-2.88137E-05-5.15652E-09-7.79091E-19-2.38348E-18
 -1        49 9.65574E-05-2.89798E-05-2.89787E-05-4.05117E-09 5.14253E-19-4.30356E-18
 -1        50 9.74294E-05-2.92474E-05-2.92506E-05 5.68024E-10-1.33127E-19-4.11330E-18
 -1        51 9.88676E-05-2.96866E-05-2.97014E-05 1.33338E-08 7.16525E-20-2.09512E-18
 -1        52 1.01246E-04-3.04084E-05-3.04518E-05 4.41210E-08-2.20568E-19-1.57402E-18
 -1        53 1.05175E-04-3.15924E-05-3.17001E-05 1.13454E-07-3.13970E-19-2.99949E-18
 -1        54 1.11626E-04-3.35206E-05-3.37564E-05 2.62174E-07 2.08387E-19-2.84971E-18
 -1        55 1.22035E-04-3.66129E-05-3.70536E-05 5.64114E-07-2.92521E-19-2.15236E-18
 -1        56 1.38208E-04-4.14145E-05-4.20321E-05 1.12354E-06 1.79498E-20-1.18410E-18
 -1        57 1.61390E-04-4.83741E-05-4.86859E-05 1.96125E-06 2.34529E-19-3.45484E-19
 -1        58 1.88945E-04-5.69230E-05-5.55443E-05 2.45887E-06-1.81265E-19 1.05466E-18
 -1        59 2.07656E-04-6.31530E-05-5.89554E-05 3.97053E-07 1.94328E-19 2.06692E-18
 -1        60 1.97152E-04-6.01052E-05-5.60488E-05-6.19473E-06 8.65959E-20 1.92213E-18
 -1        61 1.44563E-04-4.10926E-05-4.78288E-05-1.23860E-05-9.93358E-19-4.51130E-18
 -1        62 8.71801E-05-2.11307E-05-4.00683E-05-8.44323E-06-1.39019E-19-1.26293E-17
 -1        63 8.48404E-05-2.01247E-05-3.96516E-05 8.21233E-06 2.16311E-19-1.28300E-17
 -1        64 1.44032E-04-4.17103E-05-4.70033E-05 9.79540E-06 1.65747E-19-8.45381E-18
 -1        65 1.93883E-04-5.92088E-05-5.50140E-05 4.72158E-06 4.00395E-19-3.88153E-18
 -1        66 2.05694E-04-6.26943E-05-5.81308E-05-5.90996E-08-3.37040E-19-1.40337E-18
 -1        67 1.86276E-04-5.62272E-05-5.46383E-05-1.92094E-06 3.56904E-19 1.30544E-18
 -1        68 1.57357E-04-4.71467E-05-4.74602E-05-1.59684E-06-1.95858E-19-8.42057E-19
 -1        69 1.32509E-04-3.96574E-05-4.03276E-05-9.92966E-07 1.15385E-19-3.04312E-18
 -1        70 1.14370E-04-3.42625E-05-3.48079E-05-6.01811E-07-1.32140E-18-4.31198E-18
 -1        71 1.02284E-04-3.06829E-05-3.11142E-05-3.86780E-07-1.06159E-19-5.76316E-18
 -1        72 9.59187E-05-2.86917E-05-2.90794E-05 9.10326E-08 1.02043E-18-2.47766E-18
 -1        73 1.02186E-04-3.05901E-05-3.41525E-05-1.92964E-06-2.37963E-20 5.49968E-18
 -1        74 9.25745E-05-2.75209E-05-2.89087E-05-3.33560E-07 4.62725E-20 5.22115E-18
 -1        75 8.91241E-05-2.67110E-05-2.69738E-05-1.30230E-07-1.08806E-19 5.09801E-18
 -1        76 8.80734E-05-2.64506E-05-2.64419E-05-9.95281E-08 8.96399E-20 5.27348E-18
 -1        77 8.81098E-05-2.64574E-05-2.64204E-05-7.87955E-08 1.54286E-20 4.61130E-18
 -1        78 8.86489E-05-2.66091E-05-2.65825E-05-6.32336E-08 5.12643E-20 4.34575E-18
 -1        79 8.94090E-05-2.68308E-05-2.68125E-05-5.17608E-08 9.48410E-20 4.64322E-18
 -1        80 9.02394E-05-2.70765E-05-2.70624E-05-4.26015E-08 7.78669E-20 4.34643E-18
 -1        81 9.10556E-05-2.73193E-05-2.73076E-05-3.48920E-08-1.30813E-19 4.18202E-18
 -1        82 9.18108E-05-2.75447E-05-2.75347E-05-2.82915E-08 1.13202E-19 3.90613E-18
 -1        83 9.24815E-05-2.77452E-05-2.77366E-05-2.26441E-08-6.15195E-21 3.81370E-18
 -1        84 9.30592E-05-2.79181E-05-2.79108E-05-1.78525E-08 4.09626E-20 3.50091E-18
 -1        85 9.35445E-05-2.80634E-05-2.80573E-05-1.38353E-08 1.24163E-19 2.99757E-18
 -1        86 9.39440E-05-2.81831E-05-2.81781E-05-1.05131E-08-7.58434E-20 3.44451E-18
 -1        87 9.42672E-05-2.82800E-05-2.82760E-05-7.80666E-09 3.35793E-20 3.78909E-18
 -1        88 9.45252E-05-2.83574E-05-2.83543E-05-5.63978E-09 3.85114E-20 3.60059E-18
 -1        89 9.47298E-05-2.84188E-05-2.84164E-05-3.94456E-09-6.00640E-21 3.55362E-18
 -1        90 9.48922E-05-2.84675E-05-2.84659E-05-2.66707E-09 2.50684E-19 3.02694E-18
 -1        91 9.50232E-05-2.85068E-05-2.85058E-05-1.77324E-09-2.12385E-19 2.68544E-18
 -1        92 9.51327E-05-2.85396E-05-2.85392E-05-1.25435E-09 2.78825E-20 3.38229E-18
 -1        93 9.52291E-05-2.85685E-05-2.85686E-05-1.13150E-09 2.58531E-19 2.97140E-18
 -1        94 9.53193E-05-2.85954E-05-2.85961E-05-1.45752E-09-1.73440E-19 3.17739E-18
 -1        95 9.54073E-05-2.86216E-05-2.86227E-05-2.31313E-09 1.15855E-19 2.69540E-18
 -1        96 9.54933E-05-2.86470E-05-2.86484E-05-3.79203E-09-3.77261E-20 2.68353E-18
 -1        97 9.55710E-05-2.86698E-05-2.86712E-05-5.96677E-09 1.95142E-20 3.50634E-18
 -1        98 9.56250E-05-2.86853E-05-2.86861E-05-8.82475E-09-3.32918E-19 3.76403E-18
 -1        99 9.56262E-05-2.86848E-05-2.86840E-05-1.21636E-08 6.61235E-20 3.44280E-18
 -1       100 9.55273E-05-2.86543E-05-2.86504E-05-1.54421E-08 2.10457E-19 3.32459E-19
 -1       101 9.52585E-05-2.85732E-05-2.85639E-05-1.76030E-08 1.56854E-19-1.15544E-18
 -1       102 9.47257E-05-2.84133E-05-2.83964E-05-1.69245E-08-1.37773E-19-5.27251E-19
 -1       103 9.38137E-05-2.81407E-05-2.81138E-05-1.10234E-08-5.67375E-19 1.09101E-18
 -1       104 9.23992E-05-2.77185E-05-2.76808E-05 2.80126E-09 3.25287E-19-1.14063E-18
 -1       105 9.03778E-05-2.71156E-05-2.70688E-05 2.66843E-08 2.33743E-19-3.76414E-18
 -1       106 8.77040E-05-2.63180E-05-2.62679E-05 6.07190E-08 1.99280E-19-1.72991E-18
 -1       107 8.44414E-05-2.53437E-05-2.53008E-05 1.01254E-07-5.61900E-19-1.32676E-18
 -1       108 8.08048E-05-2.42556E-05-2.42338E-05 1.39923E-07 8.77583E-20-1.46430E-18
 -1       109 7.71717E-05-2.31657E-05-2.31778E-05 1.64759E-07 3.42551E-19-4.56125E-18
 -1       110 7.40388E-05-2.22225E-05-2.22747E-05 1.64105E-07 1.65393E-19-3.88404E-18
 -1       111 7.19178E-05-2.15802E-05-2.16676E-05 1.32220E-07-5.56111E-19-3.67360E-18
 -1       112 7.11956E-05-2.13571E-05-2.14631E-05 7.34428E-08 2.43935E-19-2.27356E-18
 -1       113 7.20153E-05-2.15982E-05-2.17002E-05 1.67017E-09-5.01378E-19-1.71503E-18
 -1       114 7.42332E-05-2.22616E-05-2.23397E-05-6.53927E-08 2.33947E-19 1.98805E-18
 -1       115 7.74737E-05-2.32341E-05-2.32781E-05-1.13816E-07-2.76880E-19 2.29400E-18
 -1       116 8.12530E-05-2.43692E-05-2.43804E-05-1.38494E-07 2.72054E-19 1.42907E-18
 -1       117 8.51109E-05-2.55274E-05-2.55147E-05-1.43636E-07 6.83185E-19-3.12796E-18
 -1       118 8.86925E-05-2.66023E-05-2.65732E-05-1.38896E-07-3.24204E-19-4.63930E-18
 -1       119 9.17466E-05-2.75205E-05-2.74714E-05-1.32308E-07-5.53940E-19-1.73075E-18
 -1       120 9.40331E-05-2.82115E-05-2.81359E-05-1.12905E-07 3.78493E-19-3.66033E-18
 -1       121 9.52185E-05-2.86079E-05-2.85193E-05-1.72634E-08 1.93795E-18-6.38669E-18
 -1       122 9.52589E-05-2.86744E-05-2.85074E-05 5.52697E-09-7.56479E-18 1.40267E-18
 -1       123 9.56303E-05-2.98840E-05-2.81141E-05-1.02650E-07-6.39152E-18-4.27288E-19
 -1       124 9.62510E-05-3.19732E-05-2.75303E-05-1.59683E-07-9.38579E-19 2.01523E-18
 -1       125 9.69046E-05-3.41841E-05-2.69178E-05-1.55083E-07 2.58613E-18 3.49026E-19
 -1       126 9.73748E-05-3.57761E-05-2.64867E-05-1.10924E-07-1.01068E-18-1.36468E-18
 -1       127 9.74568E-05-3.60741E-05-2.64374E-05-3.45209E-08-6.61526E-18-5.21384E-19
 -1       128 9.69926E-05-3.45172E-05-2.69311E-05 8.54614E-08-3.67547E-18 5.55564E-19
 -1       129 9.58826E-05-3.07831E-05-2.80457E-05 2.29711E-07-2.20673E-18-9.41298E-20
 -1       130 9.41900E-05-2.50841E-05-2.96984E-05 3.60702E-07-8.19240E-20 1.01507E-18
 -1       131 9.21925E-05-1.83632E-05-3.16004E-05 4.16789E-07 2.38358E-18-4.99799E-19
 -1       132 9.03859E-05-1.23067E-05-3.32706E-05 3.27977E-07-8.14733E-18-1.78003E-18
 -1       133 8.93867E-05-8.94771E-06-3.41627E-05 9.33304E-08-1.09267E-17 2.02573E-18
 -1       134 8.96022E-05-9.69686E-06-3.39254E-05-2.59998E-07-3.66821E-18 1.10354E-18
 -1       135 9.11115E-05-1.47487E-05-3.25651E-05-5.71781E-07 2.82231E-18 6.71075E-19
 -1       136 9.33552E-05-2.21026E-05-3.06518E-05-5.63135E-07 2.79473E-18-1.43900E-18
 -1       137 9.51557E-05-2.79622E-05-2.90087E-05 1.10705E-07 1.61717E-19-5.88203E-19
 -1       138 2.53485E-05-8.73458E-05 1.62207E-05-2.22809E-05-1.11711E-17-1.52450E-18
 -1       139 7.04500E-06-2.07182E-05-8.31362E-07-8.37589E-06-4.82216E-18-3.28077E-18
 -1       140 1.76132E-05 2.73178E-05-2.14331E-05 4.08865E-05 4.32114E-18 3.59735E-18
 -1       141 7.54023E-05 3.32639E-05-4.37966E-05 9.99360E-05 7.02021E-18 6.98209E-18
 -1       142 1.79974E-04-9.67520E-06-6.52660E-05 1.29169E-04 3.12576E-18 8.22808E-18
 -1       143 2.84240E-04-6.90947E-05-8.09528E-05 1.00666E-04 2.46142E-18 2.15824E-18
 -1       144 3.37606E-04-1.03264E-04-8.75724E-05 2.40136E-05-2.29652E-19-1.66087E-18
 -1       145 3.17234E-04-8.97562E-05-8.52184E-05-6.67817E-05 3.82912E-19-2.30774E-18
 -1       146 2.34713E-04-3.96035E-05-7.39818E-05-1.21928E-04 1.49724E-18-4.37874E-18
 -1       147 1.28167E-04 1.52727E-05-5.60129E-05-1.22748E-04 4.88907E-18-7.14006E-18
 -1       148 4.75049E-05 3.73335E-05-3.55600E-05-7.88275E-05 6.29642E-18-6.48954E-18
 -1       149 8.03875E-06 1.26427E-05-1.29365E-05-1.84098E-05 3.75363E-18-3.64267E-18
 -1       150 1.18615E-05-4.44937E-05 5.88052E-06 1.81296E-05-2.57752E-18 1.17145E-18
 -1       151 3.17935E-05-1.02267E-04 1.92507E-05 1.90452E-05 6.77626E-21 9.09290E-19
 -1       152 4.26071E-05-1.30770E-04 2.52065E-05-8.87491E-06-2.13378E-18-4.48689E-19
 -1       153 3.07660E-05-1.15052E-04 2.29712E-05-4.00113E-05-8.17302E-18-2.50875E-18
 -1       154 7.88589E-06-6.16823E-05 1.05918E-05-4.26058E-05-1.12753E-17-5.72107E-18
 -1       155 5.03068E-06-4.73143E-06-9.90381E-06-2.34502E-06-4.32919E-18-2.40346E-18
 -1       156 7.41422E-05 1.32070E-05-3.99397E-05 7.41485E-05-2.42887E-18-4.68070E-18
 -1       157 2.08041E-04-2.89779E-05-6.76262E-05 1.21644E-04-3.39533E-18-6.35868E-18
 -1       158 3.65753E-04-1.02977E-04-8.96919E-05 9.65654E-05-8.18181E-19 4.15046E-19
 -1       159 3.74834E-04-1.06957E-04-9.10213E-05-9.17661E-05-1.78417E-18 1.01847E-17
 -1       160 2.35800E-04-4.03136E-05-7.20504E-05-1.25777E-04-1.09267E-18 4.41728E-18
 -1       161 9.98692E-05 8.96860E-06-4.66879E-05-8.98711E-05 3.15562E-18-2.90786E-18
 -1       162 2.30620E-05 1.05278E-05-2.17295E-05-2.86237E-05 6.83810E-18-7.82658E-18
 -1       163 2.25723E-06-2.94429E-05 5.24524E-07 2.54497E-05 5.67554E-18-4.64428E-18
 -1       164 1.68120E-05-8.54102E-05 1.66548E-05 4.62470E-05 3.51603E-18-9.75464E-19
 -1       165 3.73799E-05-1.25566E-04 2.46610E-05 3.19559E-05 1.12073E-18-1.04581E-18
 -1       166 9.48456E-05-1.23159E-05-3.55541E-05-2.24273E-05-3.04230E-19-6.23628E-20
 -1       167 8.92477E-05-8.44699E-06-3.47900E-05-1.73879E-05-2.12228E-19-4.05292E-19
 -1       168 8.65593E-05-6.51129E-06-3.44171E-05-1.35943E-05-8.93090E-20-6.22516E-19
 -1       169 8.51923E-05-5.51505E-06-3.42306E-05-1.03657E-05-1.50960E-20-6.70023E-19
 -1       170 8.44453E-05-4.94393E-06-3.41411E-05-7.54512E-06 7.72305E-20-5.21911E-19
 -1       171 8.40157E-05-4.59765E-06-3.40980E-05-4.90234E-06 1.44929E-19-4.29988E-19
 -1       172 8.37957E-05-4.41256E-06-3.40795E-05-2.39525E-06 3.32056E-19-3.16261E-19
 -1       173 8.37307E-05-4.35652E-06-3.40746E-05 4.94027E-08 3.72054E-19-1.83257E-19
 -1       174 8.38054E-05-4.42082E-06-3.40802E-05 2.49612E-06 4.71638E-19-3.31071E-20
 -1       175 8.40368E-05-4.61641E-06-3.40993E-05 5.00963E-06 5.54616E-19 3.78915E-20
 -1       176 8.44714E-05-4.97000E-06-3.41417E-05 7.61799E-06 5.97778E-19 2.96892E-19
 -1       177 8.52490E-05-5.57230E-06-3.42320E-05 1.05061E-05 7.24481E-19 5.17610E-19
 -1       178 8.66499E-05-6.60880E-06-3.44187E-05 1.37711E-05 7.06584E-19 8.89702E-19
 -1       179 8.93928E-05-8.59935E-06-3.47926E-05 1.76229E-05 6.39622E-19 1.48953E-18
 -1       180 9.57859E-05-1.36160E-05-3.54281E-05 2.18851E-05 4.11764E-19 2.41629E-18
 -1       181 1.05612E-04-2.61038E-05-3.52655E-05 1.86583E-05 1.13946E-19 3.36150E-18
 -1       182 1.03618E-04-2.70817E-05-3.28036E-05-1.25952E-05-2.68827E-19 4.30478E-19
 -1       183 9.73268E-05-2.82728E-05-2.96339E-05-4.96046E-06-3.26081E-19 3.51697E-19
 -1       184 9.36377E-05-2.76582E-05-2.82302E-05-1.86055E-06-2.38397E-19 2.32822E-19
 -1       185 9.20405E-05-2.74188E-05-2.76590E-05-4.63116E-07-1.37752E-19-4.56504E-20
 -1       186 9.14331E-05-2.73379E-05-2.74506E-05 2.25401E-07-1.36723E-19-9.28146E-20
 -1       187 9.13766E-05-2.73740E-05-2.74208E-05 5.64671E-07-4.48249E-19-2.84348E-19
 -1       188 9.16154E-05-2.74761E-05-2.74841E-05 7.11353E-07-4.11430E-19-2.00502E-19
 -1       189 9.20002E-05-2.76092E-05-2.75943E-05 7.46938E-07-7.61977E-20-4.44486E-19
 -1       190 9.24418E-05-2.77514E-05-2.77238E-05 7.18466E-07-6.07548E-20-5.22207E-19
 -1       191 9.28866E-05-2.78894E-05-2.78560E-05 6.54969E-07-6.81042E-20-7.88382E-19
 -1       192 9.33041E-05-2.80159E-05-2.79811E-05 5.74936E-07 1.81027E-19-8.33303E-19
 -1       193 9.36780E-05-2.81273E-05-2.80938E-05 4.90168E-07 3.30505E-19-7.72252E-19
 -1       194 9.40020E-05-2.82225E-05-2.81919E-05 4.08023E-07-1.41192E-19-6.09387E-19
 -1       195 9.42754E-05-2.83019E-05-2.82751E-05 3.32857E-07-5.69504E-19-1.07675E-18
 -1       196 9.45016E-05-2.83669E-05-2.83441E-05 2.67019E-07-5.61389E-19-4.62279E-19
 -1       197 9.46861E-05-2.84192E-05-2.84006E-05 2.11575E-07-3.00974E-19-6.31445E-19
 -1       198 9.48354E-05-2.84611E-05-2.84465E-05 1.66856E-07 3.78798E-19-1.14479E-18
 -1       199 9.49570E-05-2.84948E-05-2.84841E-05 1.32899E-07-3.80282E-19-6.75586E-19
 -1       200 9.50588E-05-2.85225E-05-2.85157E-05 1.09845E-07-4.41580E-19-5.26078E-19
 -1       201 9.51493E-05-2.85465E-05-2.85440E-05 9.83523E-08 2.69117E-19-8.79094E-19
 -1       202 9.52383E-05-2.85696E-05-2.85720E-05 1.00106E-07 5.75055E-19-1.23880E-18
 -1       203 9.53377E-05-2.85947E-05-2.86035E-05 1.18552E-07 8.32949E-19-1.84995E-18
 -1       204 9.54632E-05-2.86255E-05-2.86436E-05 1.60029E-07 1.66475E-19-1.87019E-18
 -1       205 9.56369E-05-2.86672E-05-2.86995E-05 2.35581E-07-4.38755E-19-1.68613E-19
 -1       206 9.58915E-05-2.87270E-05-2.87818E-05 3.63891E-07-7.86020E-19-5.47508E-19
 -1       207 9.62759E-05-2.88153E-05-2.89069E-05 5.76043E-07-9.64559E-19 1.25066E-19
 -1       208 9.68652E-05-2.89476E-05-2.91001E-05 9.23141E-07-1.85197E-19-6.46739E-19
 -1       209 9.77741E-05-2.91470E-05-2.94002E-05 1.48820E-06 5.55933E-19-6.20239E-19
 -1       210 9.91756E-05-2.94470E-05-2.98669E-05 2.40370E-06-1.62521E-19-1.65531E-18
 -1       211 1.01325E-04-2.98967E-05-3.05895E-05 3.87422E-06 2.03056E-20-1.65476E-18
 -1       212 1.04582E-04-3.05688E-05-3.16939E-05 6.19508E-06 1.03963E-19-6.75046E-19
 -1       213 1.09419E-04-3.15821E-05-3.33370E-05 9.72942E-06 5.14668E-19-5.73673E-19
 -1       214 1.16376E-04-3.31700E-05-3.56524E-05 1.47287E-05-2.53342E-19 2.02643E-19
 -1       215 1.25958E-04-3.58868E-05-3.85907E-05 2.07052E-05 6.21886E-19-4.88599E-19
 -1       216 1.38511E-04-4.10850E-05-4.16486E-05 2.48509E-05 1.44426E-18 3.52591E-19
 -1       217 1.53362E-04-5.02770E-05-4.38825E-05 2.04881E-05-2.90109E-20 7.78662E-19
 -1       218 1.70260E-04-6.31119E-05-4.54622E-05 1.14532E-06-1.29384E-19-8.41848E-19
 -1       219 1.85437E-04-6.90590E-05-5.01665E-05-3.16519E-05-3.31079E-18-3.67030E-19
 -1       220 1.95291E-04-3.58056E-05-6.74796E-05-2.53077E-06-1.36965E-18-1.67411E-18
 -1       221 1.82473E-04-6.44953E-05-5.07336E-05 3.29055E-05 2.87912E-18-2.89947E-18
 -1       222 1.73512E-04-6.18354E-05-4.74166E-05 3.38604E-06 1.88597E-18-1.71726E-18
 -1       223 1.57507E-04-5.07457E-05-4.53462E-05-1.84705E-05 1.17798E-18 2.36759E-19
 -1       224 1.40253E-04-4.16389E-05-4.21769E-05-2.31339E-05-1.36201E-18-2.12049E-18
 -1       225 1.25408E-04-3.62595E-05-3.82342E-05-1.95397E-05-1.65114E-18-3.96610E-18
 -1       226 1.13524E-04-3.27840E-05-3.46284E-05-1.43636E-05-1.55933E-19-3.92791E-18
 -1       227 1.04776E-04-3.03730E-05-3.18980E-05-9.68421E-06-5.41307E-21-1.61349E-18
 -1       228 9.88495E-05-2.85734E-05-3.01342E-05-5.37674E-06 1.52613E-18-3.03929E-19
 -1       229 9.59549E-05-2.72558E-05-2.94925E-05-2.69119E-06 2.55661E-18-3.79818E-19
 -1       230 9.95133E-05-2.85551E-05-3.05904E-05 7.20959E-06 1.69287E-19 3.20959E-18
 -1       231 9.44509E-05-2.77879E-05-2.85344E-05 2.76352E-06 9.79448E-20 3.05455E-18
 -1       232 9.21507E-05-2.74259E-05-2.76917E-05 9.17828E-07 1.14469E-19 2.69925E-18
 -1       233 9.12001E-05-2.72754E-05-2.73703E-05 3.82685E-08 3.93814E-19 2.52137E-18
 -1       234 9.09782E-05-2.72570E-05-2.72964E-05-3.86836E-07 3.48210E-20 2.32568E-18
 -1       235 9.11583E-05-2.73365E-05-2.73461E-05-5.83501E-07-1.20599E-20 2.11912E-18
 -1       236 9.15435E-05-2.74667E-05-2.74584E-05-6.53413E-07 4.74215E-20 2.00269E-18
 -1       237 9.20167E-05-2.76170E-05-2.75983E-05-6.50242E-07 1.79423E-19 2.14630E-18
 -1       238 9.25086E-05-2.77687E-05-2.77450E-05-6.06004E-07 1.16698E-19 2.23026E-18
 -1       239 9.29789E-05-2.79113E-05-2.78859E-05-5.40752E-07 1.73319E-19 2.18066E-18
 -1       240 9.34057E-05-2.80392E-05-2.80144E-05-4.67279E-07 3.67414E-19 2.14852E-18
 -1       241 9.37793E-05-2.81500E-05-2.81271E-05-3.93681E-07 2.02210E-19 1.55224E-18
 -1       242 9.40975E-05-2.82436E-05-2.82234E-05-3.24904E-07-1.61016E-19 1.99610E-18
 -1       243 9.43627E-05-2.83211E-05-2.83039E-05-2.63761E-07-1.15759E-19 2.33822E-18
 -1       244 9.45805E-05-2.83842E-05-2.83702E-05-2.11642E-07 1.16138E-19 2.10917E-18
 -1       245 9.47575E-05-2.84352E-05-2.84242E-05-1.69003E-07 3.00366E-20 1.42041E-18
 -1       246 9.49014E-05-2.84764E-05-2.84682E-05-1.35700E-07 7.93140E-20 1.87551E-18
 -1       247 9.50195E-05-2.85100E-05-2.85043E-05-1.11192E-07 2.31429E-19 2.49683E-18
 -1       248 9.51188E-05-2.85381E-05-2.85348E-05-9.46157E-08-2.71451E-19 1.99326E-18
 -1       249 9.52054E-05-2.85628E-05-2.85613E-05-8.47268E-08 3.66436E-19 2.46497E-18
 -1       250 9.52839E-05-2.85855E-05-2.85852E-05-7.97063E-08-5.32859E-19 2.28601E-18
 -1       251 9.53569E-05-2.86071E-05-2.86073E-05-7.68006E-08 4.34510E-19 2.28008E-18
 -1       252 9.54236E-05-2.86280E-05-2.86270E-05-7.17898E-08 1.73948E-20 2.84350E-18
 -1       253 9.54783E-05-2.86469E-05-2.86425E-05-5.82951E-08-2.76473E-19 2.09151E-18
 -1       254 9.55083E-05-2.86607E-05-2.86497E-05-2.70037E-08-7.60593E-20 2.70626E-18
 -1       255 9.54911E-05-2.86636E-05-2.86413E-05 3.49998E-08 4.97056E-19 2.04836E-18
 -1       256 9.53915E-05-2.86460E-05-2.86065E-05 1.44416E-07 1.35631E-18 2.40891E-18
 -1       257 9.51592E-05-2.85933E-05-2.85298E-05 3.20810E-07 7.24893E-19 9.64848E-19
 -1       258 9.47281E-05-2.84853E-05-2.83914E-05 5.83716E-07-1.13332E-18 8.34863E-19
 -1       259 9.40192E-05-2.82963E-05-2.81685E-05 9.46863E-07-4.34768E-19 1.51352E-18
 -1       260 9.29502E-05-2.79973E-05-2.78382E-05 1.40903E-06 1.34552E-18 5.09452E-19
 -1       261 9.14530E-05-2.75603E-05-2.73833E-05 1.94241E-06 9.82714E-19 6.13550E-19
 -1       262 8.95005E-05-2.69676E-05-2.67998E-05 2.48197E-06-1.06007E-18 4.85168E-19
 -1       263 8.71391E-05-2.62240E-05-2.61058E-05 2.92218E-06-8.12416E-19 1.36358E-18
 -1       264 8.45164E-05-2.53697E-05-2.53475E-05 3.12960E-06 1.36427E-18 1.61059E-18
 -1       265 8.18901E-05-2.44883E-05-2.45996E-05 2.97644E-06 1.07942E-18 3.66148E-19
 -1       266 7.96019E-05-2.37012E-05-2.39563E-05 2.39020E-06-2.05116E-19-3.64375E-19
 -1       267 7.80091E-05-2.31429E-05-2.35126E-05 1.39965E-06-1.89398E-19 3.91885E-19
 -1       268 7.73909E-05-2.29226E-05-2.33414E-05 1.49392E-07 4.17412E-19-3.84404E-19
 -1       269 7.78639E-05-2.30862E-05-2.34728E-05-1.13489E-06-1.04375E-18 2.71301E-19
 -1       270 7.93460E-05-2.36002E-05-2.38868E-05-2.22082E-06-1.34220E-18 7.79545E-19
 -1       271 8.15882E-05-2.43659E-05-2.45194E-05-2.94641E-06-2.14214E-19 1.69970E-18
 -1       272 8.42547E-05-2.52556E-05-2.52820E-05-3.26063E-06 1.73627E-18-3.06583E-19
 -1       273 8.70137E-05-2.61518E-05-2.60823E-05-3.21226E-06 2.33174E-18-1.29676E-18
 -1       274 8.96001E-05-2.69735E-05-2.68403E-05-2.89695E-06-5.87012E-19-9.67609E-19
 -1       275 9.18296E-05-2.76803E-05-2.74924E-05-2.38877E-06-1.18741E-19-2.77634E-18
 -1       276 9.35797E-05-2.82678E-05-2.79888E-05-1.68373E-06 9.79441E-19-4.72448E-18
 -1       277 9.47744E-05-2.86938E-05-2.83195E-05-7.71823E-07 6.63477E-19-3.62120E-18
 -1       278 9.51991E-05-2.94681E-05-2.81716E-05-1.37521E-06-1.50934E-18 1.13336E-18
 -1       279 9.57522E-05-3.07321E-05-2.78646E-05-2.05648E-06-3.27286E-19 2.87457E-18
 -1       280 9.63858E-05-3.21578E-05-2.75213E-05-2.12296E-06-2.07147E-18 2.31302E-18
 -1       281 9.69321E-05-3.33288E-05-2.72494E-05-1.49522E-06-8.93239E-19-7.73457E-19
 -1       282 9.72655E-05-3.38463E-05-2.71672E-05-2.29936E-07-6.85094E-19-3.77938E-18
 -1       283 9.72497E-05-3.33397E-05-2.73770E-05 1.60563E-06-9.75747E-19 8.59887E-20
 -1       284 9.67322E-05-3.15069E-05-2.79440E-05 3.73009E-06-1.36285E-19 1.99148E-18
 -1       285 9.56264E-05-2.83028E-05-2.88503E-05 5.64486E-06-6.45982E-19 8.18199E-19
 -1       286 9.39851E-05-2.40623E-05-2.99729E-05 6.64741E-06-1.48893E-18 1.01425E-18
 -1       287 9.20918E-05-1.95953E-05-3.10829E-05 6.02635E-06-1.67298E-18-5.40726E-18
 -1       288 9.05025E-05-1.61335E-05-3.18884E-05 3.51658E-06-5.45815E-19-1.48127E-18
 -1       289 8.97848E-05-1.47304E-05-3.21801E-05-5.14376E-07-1.70063E-19 3.93786E-18
 -1       290 9.04354E-05-1.61216E-05-3.18580E-05-4.66399E-06 2.31593E-18 3.71117E-18
 -1       291 9.24382E-05-1.99005E-05-3.10974E-05-7.01766E-06 2.63307E-18 6.74524E-20
 -1       292 9.44821E-05-2.37239E-05-3.03238E-05-5.90929E-06 2.39803E-18-2.18146E-18
 -1       293 1.37357E-05-4.51902E-05 1.13764E-05 2.28851E-05-1.71344E-18-2.54735E-18
 -1       294 3.48422E-05-4.38455E-05 1.78760E-06 3.49335E-05-3.06118E-18 1.76921E-18
 -1       295 6.55310E-05-3.55608E-05-1.40242E-05 4.61848E-05-2.76281E-18 4.83126E-18
 -1       296 1.06012E-04-3.01471E-05-3.24452E-05 5.44584E-05 7.87317E-19 2.37804E-18
 -1       297 1.51655E-04-2.73607E-05-5.16682E-05 5.80569E-05 2.70923E-18 4.25888E-18
 -1       298 1.92841E-04-3.25184E-05-6.66127E-05 3.53775E-05 4.18763E-18-1.44377E-18
 -1       299 2.27258E-04-3.81412E-05-7.75259E-05 2.19494E-05 1.61963E-18 1.09458E-18
 -1       300 2.24785E-04-3.44110E-05-7.85133E-05-6.00200E-06 5.72383E-19 4.03717E-19
 -1       301 2.05743E-04-3.19682E-05-7.21168E-05-2.74116E-05 1.55028E-18-2.58345E-20
 -1       302 1.76190E-04-3.03618E-05-6.04493E-05-5.06018E-05 2.44088E-18-2.14172E-18
 -1       303 1.30409E-04-2.57751E-05-4.39280E-05-5.85615E-05 2.95932E-18-2.67959E-18
 -1       304 9.02205E-05-3.22340E-05-2.52656E-05-5.22530E-05 1.52868E-18-3.68417E-18
 -1       305 5.05614E-05-3.68102E-05-7.45977E-06-4.18972E-05-6.18546E-19-4.91131E-18
 -1       306 2.52097E-05-4.41086E-05 5.81068E-06-3.08757E-05-1.77750E-18 1.34541E-18
 -1       307 1.27360E-05-5.52488E-05 1.48039E-05-1.58357E-05-2.98251E-18-6.47663E-19
 -1       308 1.11686E-05-5.78432E-05 1.61198E-05-5.49878E-06-3.18058E-18-2.73983E-18
 -1       309 2.41715E-05-5.13490E-05 8.24562E-06 1.06469E-05-3.09358E-18-2.57943E-18
 -1       310 5.41680E-05-4.96724E-05-5.61576E-06 2.12422E-05-4.73978E-18 1.03317E-18
 -1       311 1.18144E-04-5.72639E-05-2.81044E-05 3.04892E-05-1.91853E-18-1.72159E-18
 -1       312 1.86641E-04-6.33450E-05-5.16409E-05 2.29342E-05-1.13502E-18-1.92869E-18
 -1       313 2.38536E-04-6.23858E-05-7.07998E-05-4.11938E-07-3.46849E-18 8.40680E-19
 -1       314 2.62776E-04-5.32265E-05-8.18513E-05-3.53423E-06-3.84511E-18 4.86409E-19
 -1       315 2.67300E-04-5.49863E-05-8.26656E-05-2.00428E-06-6.30193E-19 1.70677E-18
 -1       316 2.42456E-04-6.16697E-05-7.22809E-05 1.45908E-06 1.94701E-18 1.89693E-18
 -1       317 2.00066E-04-6.53605E-05-5.61051E-05-1.61694E-05 3.26298E-18 2.31875E-18
 -1       318 1.35982E-04-5.56316E-05-3.54926E-05-3.30948E-05 2.98812E-18 5.77676E-19
 -1       319 8.20059E-05-5.19015E-05-1.58294E-05-3.06217E-05 9.72606E-19-2.73549E-18
 -1       320 4.04373E-05-5.14023E-05 1.20843E-06-1.83690E-05-2.52628E-19-3.19679E-18
 -1       321 1.81838E-05-5.68016E-05 1.25852E-05-3.80593E-06-2.50309E-18 1.10114E-19
 -1       322 1.09503E-05-5.86176E-05 1.66724E-05 6.93862E-06-2.61165E-18-4.43877E-18
 -1       323 1.83378E-04-5.09323E-05-5.70874E-05-4.25746E-05-3.39639E-18-1.94341E-19
 -1       324 1.73661E-04-4.63481E-05-5.65571E-05 4.09013E-05 1.85521E-18-5.46424E-18
 -1       325 9.16427E-05-1.44542E-05-3.31587E-05-1.29806E-05-1.52854E-19-3.12833E-19
 -1       326 9.57042E-05-1.91123E-05-3.28885E-05-1.46375E-05-2.58070E-19-1.52492E-19
 -1       327 8.80028E-05-1.03750E-05-3.33243E-05-8.15070E-06-1.26418E-20-4.00408E-19
 -1       328 8.71859E-05-9.45221E-06-3.33630E-05-5.71537E-06 9.06396E-20-2.74554E-19
 -1       329 8.67235E-05-8.92067E-06-3.33891E-05-3.36572E-06 3.26478E-19-1.42808E-19
 -1       330 8.65171E-05-8.67996E-06-3.34022E-05-1.07325E-06 4.89871E-19-9.66809E-21
 -1       331 8.65256E-05-8.68935E-06-3.34019E-05 1.20080E-06 5.32351E-19 4.47141E-20
 -1       332 8.67503E-05-8.95061E-06-3.33878E-05 3.49552E-06 6.27689E-19 1.13989E-19
 -1       333 8.72242E-05-9.49565E-06-3.33609E-05 5.80888E-06 6.68656E-19 3.18243E-19
 -1       334 8.80661E-05-1.04492E-05-3.33199E-05 8.24824E-06 8.33953E-19 5.53662E-19
 -1       335 8.94805E-05-1.20316E-05-3.32598E-05 1.07617E-05 8.46259E-19 7.14899E-19
 -1       336 9.18943E-05-1.47371E-05-3.31497E-05 1.31399E-05 7.08533E-19 1.06475E-18
 -1       337 9.58943E-05-1.95873E-05-3.28073E-05 1.42755E-05 5.16683E-19 1.73452E-18
 -1       338 9.87901E-05-2.44521E-05-3.19445E-05 1.18467E-05 3.10451E-19 2.28227E-18
 -1       339 9.63491E-05-2.67797E-05-2.97879E-05 5.72233E-06 1.93838E-19 2.01064E-18
 -1       340 9.65062E-05-2.59321E-05-3.02041E-05-6.56172E-06-2.57832E-19-5.46353E-20
 -1       341 9.49904E-05-2.70005E-05-2.91129E-05-2.95384E-06-2.25298E-19 2.52447E-20
 -1       342 9.39927E-05-2.74147E-05-2.85185E-05-9.83384E-07-1.90010E-19 1.10759E-21
 -1       343 9.34574E-05-2.76338E-05-2.82032E-05 1.09727E-07-3.73869E-19 1.10031E-19
 -1       344 9.32553E-05-2.77897E-05-2.80537E-05 6.94464E-07-3.55160E-19 2.26592E-19
 -1       345 9.32673E-05-2.79212E-05-2.80044E-05 9.74629E-07-3.88073E-19 3.30593E-19
 -1       346 9.34049E-05-2.80378E-05-2.80144E-05 1.07003E-06-2.48892E-19-7.03016E-21
 -1       347 9.36075E-05-2.81408E-05-2.80575E-05 1.05490E-06-1.35714E-19-1.29313E-19
 -1       348 9.38349E-05-2.82301E-05-2.81170E-05 9.76919E-07 1.12989E-19-1.19224E-19
 -1       349 9.40621E-05-2.83056E-05-2.81821E-05 8.67170E-07 2.00981E-19-1.78399E-19
 -1       350 9.42745E-05-2.83681E-05-2.82464E-05 7.45851E-07 1.04799E-19-8.95828E-19
 -1       351 9.44645E-05-2.84186E-05-2.83061E-05 6.25791E-07-5.96183E-20-3.13544E-19
 -1       352 9.46293E-05-2.84587E-05-2.83595E-05 5.14817E-07-8.11506E-20-9.78584E-20
 -1       353 9.47694E-05-2.84900E-05-2.84060E-05 4.17419E-07-5.67843E-19 4.39347E-20
 -1       354 9.48870E-05-2.85139E-05-2.84461E-05 3.35978E-07 3.38295E-20 3.41819E-19
 -1       355 9.49859E-05-2.85321E-05-2.84806E-05 2.71719E-07-1.56998E-19 5.97680E-19
 -1       356 9.50705E-05-2.85457E-05-2.85109E-05 2.25500E-07-2.98578E-20 2.02394E-19
 -1       357 9.51460E-05-2.85557E-05-2.85388E-05 1.98540E-07-8.31912E-20 7.04342E-19
 -1       358 9.52180E-05-2.85629E-05-2.85664E-05 1.93217E-07-4.76993E-19 5.20072E-19
 -1       359 9.52933E-05-2.85674E-05-2.85966E-05 2.14070E-07 3.95460E-19 3.62137E-19
 -1       360 9.53799E-05-2.85685E-05-2.86329E-05 2.69217E-07 5.43938E-19 3.14172E-19
 -1       361 9.54873E-05-2.85642E-05-2.86803E-05 3.72481E-07 4.02793E-19 2.53124E-19
 -1       362 9.56276E-05-2.85506E-05-2.87456E-05 5.46641E-07-4.47524E-19 7.03745E-20
 -1       363 9.58156E-05-2.85194E-05-2.88384E-05 8.28407E-07-1.12218E-18 6.74452E-20
 -1       364 9.60687E-05-2.84562E-05-2.89722E-05 1.27590E-06-4.06004E-19 3.03075E-19
 -1       365 9.64052E-05-2.83353E-05-2.91654E-05 1.97950E-06 6.48275E-19 5.15794E-19
 -1       366 9.68386E-05-2.81136E-05-2.94419E-05 3.07653E-06-3.75624E-19 4.94766E-19
 -1       367 9.73663E-05-2.77225E-05-2.98295E-05 4.76834E-06-4.24815E-20 7.61603E-19
 -1       368 9.79474E-05-2.70651E-05-3.03525E-05 7.33266E-06 5.28681E-19 7.79916E-19
 -1       369 9.84771E-05-2.60427E-05-3.10094E-05 1.11102E-05 1.02098E-18 1.20166E-18
 -1       370 9.87955E-05-2.46856E-05-3.17191E-05 1.64157E-05 5.25720E-19 9.06685E-19
 -1       371 9.88810E-05-2.35659E-05-3.22139E-05 2.32690E-05-5.59660E-19 1.65681E-18
 -1       372 9.95433E-05-2.48008E-05-3.18864E-05 3.08649E-05 7.18668E-19 1.58222E-18
 -1       373 1.04198E-04-3.28542E-05-3.02480E-05 3.60629E-05 1.17663E-18-3.89132E-19
 -1       374 1.18836E-04-5.22665E-05-2.81377E-05 3.43908E-05 3.25525E-19 1.74701E-20
 -1       375 3.28257E-05-3.12744E-05-6.38495E-07 4.33567E-05 8.73185E-19 2.52892E-18
 -1       376 1.13738E-04-5.55207E-05-2.49525E-05 4.87787E-05-2.14172E-18 2.35359E-18
 -1       377 1.37297E-04-5.69813E-05-3.41008E-05-2.74277E-05 1.90132E-18-1.08703E-18
 -1       378 1.12879E-04-3.59319E-05-3.26623E-05-3.65909E-05-3.15382E-18-2.87314E-18
 -1       379 1.05371E-04-2.77193E-05-3.31705E-05-3.17893E-05-1.97349E-18-3.16930E-18
 -1       380 1.01919E-04-2.57141E-05-3.26044E-05-2.46476E-05-2.02485E-18-3.27241E-18
 -1       381 9.95636E-05-2.56212E-05-3.16428E-05-1.78832E-05 3.50510E-19-4.89987E-18
 -1       382 9.72895E-05-2.53028E-05-3.08134E-05-1.18803E-05 2.15653E-18-3.61207E-18
 -1       383 9.41607E-05-2.72846E-05-2.86369E-05 1.69745E-06 3.69249E-19 1.46384E-18
 -1       384 9.34044E-05-2.75388E-05-2.82164E-05 2.88275E-07 4.29320E-19 1.30708E-18
 -1       385 9.30610E-05-2.76810E-05-2.80147E-05-4.68147E-07 2.61977E-19 9.71103E-19
 -1       386 9.30051E-05-2.78067E-05-2.79401E-05-8.51196E-07-7.31509E-20 1.13398E-18
 -1       387 9.31211E-05-2.79253E-05-2.79404E-05-1.01049E-06 1.52456E-20 1.24232E-18
 -1       388 9.33299E-05-2.80362E-05-2.79832E-05-1.03547E-06 5.74898E-20 1.52249E-18
 -1       389 9.35794E-05-2.81366E-05-2.80475E-05-9.82253E-07 2.84445E-19 1.71676E-18
 -1       390 9.38366E-05-2.82248E-05-2.81202E-05-8.87080E-07 4.42029E-19 1.58407E-18
 -1       391 9.40815E-05-2.83000E-05-2.81930E-05-7.73520E-07 3.00204E-19 1.70401E-18
 -1       392 9.43035E-05-2.83625E-05-2.82613E-05-6.56720E-07 6.36345E-20 1.39912E-18
 -1       393 9.44978E-05-2.84134E-05-2.83227E-05-5.46101E-07-5.84270E-19 1.20680E-18
 -1       394 9.46637E-05-2.84540E-05-2.83762E-05-4.47172E-07 2.64112E-19 1.06694E-18
 -1       395 9.48031E-05-2.84861E-05-2.84221E-05-3.62804E-07 1.33674E-19 9.14372E-19
 -1       396 9.49192E-05-2.85111E-05-2.84610E-05-2.94099E-07-4.10000E-19 1.10612E-18
 -1       397 9.50159E-05-2.85309E-05-2.84939E-05-2.40968E-07 2.19741E-19 4.73912E-19
 -1       398 9.50976E-05-2.85471E-05-2.85219E-05-2.02436E-07 9.39484E-20 5.24459E-19
 -1       399 9.51682E-05-2.85613E-05-2.85460E-05-1.76708E-07-5.50218E-20 5.52448E-19
 -1       400 9.52313E-05-2.85751E-05-2.85670E-05-1.60978E-07-4.54883E-19 1.12647E-18
 -1       401 9.52894E-05-2.85905E-05-2.85854E-05-1.50966E-07 1.26559E-19 1.86509E-18
 -1       402 9.53438E-05-2.86094E-05-2.86007E-05-1.40160E-07-1.06744E-19 2.19852E-18
 -1       403 9.53933E-05-2.86336E-05-2.86117E-05-1.18788E-07-2.79382E-19 2.08693E-18
 -1       404 9.54338E-05-2.86651E-05-2.86158E-05-7.25866E-08-7.36838E-20 2.14930E-18
 -1       405 9.54562E-05-2.87049E-05-2.86088E-05 1.83773E-08 8.43769E-19 8.52251E-19
 -1       406 9.54452E-05-2.87525E-05-2.85843E-05 1.80371E-07 4.98469E-19 6.80412E-19
 -1       407 9.53768E-05-2.88034E-05-2.85340E-05 4.45296E-07 1.12121E-18 1.54514E-18
 -1       408 9.52164E-05-2.88474E-05-2.84474E-05 8.47389E-07-4.76568E-20 1.86177E-18
 -1       409 9.49177E-05-2.88642E-05-2.83132E-05 1.41580E-06-6.26091E-19 1.10348E-18
 -1       410 9.44231E-05-2.88209E-05-2.81206E-05 2.16177E-06 3.47786E-19 6.05890E-19
 -1       411 9.36693E-05-2.86700E-05-2.78625E-05 3.06042E-06 7.85945E-19 2.27550E-18
 -1       412 9.25996E-05-2.83549E-05-2.75385E-05 4.03047E-06-8.06513E-19 3.63500E-18
 -1       413 9.11864E-05-2.78235E-05-2.71589E-05 4.92015E-06-4.98214E-19 2.79094E-18
 -1       414 8.94612E-05-2.70548E-05-2.67460E-05 5.51268E-06 4.23967E-19 1.51661E-18
 -1       415 8.75459E-05-2.60908E-05-2.63345E-05 5.56554E-06 1.20640E-18 2.15281E-18
 -1       416 8.56653E-05-2.50589E-05-2.59667E-05 4.88724E-06 6.26935E-19 2.26506E-18
 -1       417 8.41191E-05-2.41601E-05-2.56859E-05 3.43104E-06-1.29748E-19 4.42428E-19
 -1       418 8.32061E-05-2.36113E-05-2.55278E-05 1.35852E-06 1.28620E-19-3.39440E-19
 -1       419 8.31214E-05-2.35591E-05-2.55136E-05-9.76516E-07-9.70428E-19 7.72620E-20
 -1       420 8.38792E-05-2.40123E-05-2.56459E-05-3.13638E-06-9.91869E-19 6.68574E-19
 -1       421 8.53092E-05-2.48385E-05-2.59078E-05-4.75252E-06-4.15271E-19-7.07147E-19
 -1       422 8.71279E-05-2.58297E-05-2.62664E-05-5.63791E-06 1.61840E-18-8.03291E-19
 -1       423 8.90386E-05-2.67885E-05-2.66785E-05-5.80942E-06 1.72096E-18 3.04646E-20
 -1       424 9.08166E-05-2.75975E-05-2.70974E-05-5.42318E-06 7.77107E-19 1.22977E-18
 -1       425 9.23438E-05-2.82424E-05-2.74787E-05-4.66811E-06-1.61639E-20-1.34605E-19
 -1       426 9.36167E-05-2.87903E-05-2.77922E-05-3.68200E-06 6.85497E-19 3.25865E-19
 -1       427 9.44788E-05-2.91725E-05-2.79943E-05-2.60299E-06 7.59258E-19 1.06637E-18
 -1       428 9.70101E-05-3.21980E-05-2.77706E-05-3.01587E-06-2.05707E-18 1.25881E-18
 -1       429 9.59368E-05-3.09646E-05-2.78455E-05-3.58748E-06-8.77246E-20 1.79013E-18
 -1       430 9.80015E-05-3.31411E-05-2.77855E-05-1.48659E-06-2.12341E-18-2.53961E-18
 -1       431 9.87386E-05-3.35549E-05-2.79205E-05 1.04082E-06 4.58583E-19 3.45233E-19
 -1       432 9.89418E-05-3.31089E-05-2.81983E-05 4.30205E-06 8.07871E-19 1.77096E-18
 -1       433 9.82673E-05-3.14985E-05-2.86037E-05 7.73670E-06-1.62288E-18-3.50500E-19
 -1       434 9.64238E-05-2.85638E-05-2.90807E-05 1.03983E-05-2.67666E-18-3.80890E-19
 -1       435 9.34339E-05-2.45159E-05-2.95463E-05 1.10740E-05-2.28041E-18-1.81417E-18
 -1       436 8.99941E-05-2.02263E-05-2.99213E-05 8.81685E-06-7.69668E-19-2.89265E-18
 -1       437 8.72465E-05-1.68698E-05-3.01861E-05 3.45898E-06 2.68225E-18 3.86955E-18
 -1       438 8.67079E-05-1.59124E-05-3.03638E-05-3.62606E-06 2.61012E-18 6.29187E-18
 -1       439 8.92293E-05-1.80921E-05-3.04963E-05-9.58246E-06 1.54684E-18 2.69534E-18
 -1       440 9.49543E-05-2.70804E-05-2.90517E-05 3.31864E-06 2.44922E-19 1.80419E-18
 -1       441 7.13325E-05-4.53940E-05-1.11505E-05 5.44109E-05-8.56244E-19 3.40753E-18
 -1       442 1.46576E-04-5.17574E-05-4.05383E-05 3.31767E-05-9.40207E-19 2.66159E-18
 -1       443 8.93669E-05-1.18996E-05-3.32665E-05-1.06428E-05-7.20119E-20-5.01907E-19
 -1       444 1.66711E-04-7.59181E-05-3.89713E-05-6.59161E-06 2.17910E-18-4.25052E-19
 -1       445 1.64499E-04-3.99200E-05-5.34002E-05 1.66787E-05 2.54467E-18-2.71093E-18
 -1       446 1.68854E-04-1.87254E-05-6.44710E-05 8.65641E-07 9.93570E-19 1.93558E-18
 -1       447 1.70228E-04-1.04816E-05-6.84671E-05-1.83021E-07 2.05448E-18 5.16717E-19
 -1       448 1.65968E-04-1.24270E-05-6.60434E-05 1.75579E-06 2.00588E-18-8.04840E-19
 -1       449 1.67296E-04-3.04380E-05-5.87189E-05-5.54460E-06 3.13026E-18 4.08693E-20
 -1       450 1.57765E-04-4.54352E-05-4.80722E-05-2.42485E-05 2.40491E-18-1.15832E-18
 -1       451 1.34790E-04-5.20780E-05-3.53387E-05-4.01205E-05 1.53832E-18-2.21160E-18
 -1       452 9.49656E-05-5.06334E-05-1.90243E-05-5.31943E-05-1.06620E-18-4.50145E-18
 -1       453 5.82903E-05-3.93234E-05-8.02548E-06-5.33473E-05-1.06334E-18-3.94807E-18
 -1       454 1.97357E-05-2.37737E-05 1.78316E-06-3.45193E-05-2.28328E-18 8.75303E-19
 -1       455 8.21597E-06-2.13812E-05 5.56894E-06-1.17714E-05-1.87237E-18-1.19559E-18
 -1       456 1.94626E-05-2.45015E-05 2.11179E-06 1.75432E-05-9.22366E-19-2.01880E-18
 -1       457 6.07379E-05-4.54093E-05-7.15822E-06 3.55480E-05-1.03846E-18 1.23032E-18
 -1       458 1.12963E-04-6.38917E-05-2.16970E-05 3.25341E-05-2.46783E-18-5.22196E-19
 -1       459 1.73871E-04-7.56992E-05-4.22435E-05 1.25246E-06-1.35769E-18-1.35070E-18
 -1       460 8.72918E-05-5.53803E-05-1.42943E-05-3.79643E-05-1.44821E-18-3.66524E-18
 -1       461 4.02329E-05-3.70703E-05-1.87446E-06-3.17895E-05-3.25684E-18-2.02674E-18
 -1       462 1.49335E-05-2.51515E-05 4.19316E-06-1.20675E-05-3.06864E-18 3.64542E-19
 -1       463 1.01076E-05-2.02202E-05 4.48014E-06 1.27636E-05-2.16017E-18-2.04749E-18
 -1       464 2.49537E-05-1.55050E-05-3.38608E-06 3.03926E-05 1.49290E-19 1.85670E-18
 -1       465 1.90690E-04-6.60678E-05-5.38721E-05-2.08506E-05-2.76207E-18 8.35386E-19
 -1       466 9.28611E-05-2.13502E-05-3.06192E-05-1.20666E-05 2.52107E-18-5.28664E-19
 -1       467 1.56914E-04-2.95167E-05-5.49860E-05-5.54596E-06 1.55113E-18-1.12025E-18
 -1       468 8.95330E-05-1.33969E-05-3.26489E-05-3.92128E-06 2.39511E-19-1.03588E-20
 -1       469 9.02429E-05-1.43614E-05-3.25418E-05-5.87988E-06 1.58718E-19-2.36287E-19
 -1       470 8.90321E-05-1.27146E-05-3.27253E-05 5.30470E-08 3.82463E-19 1.11322E-19
 -1       471 8.91677E-05-1.28980E-05-3.27050E-05 2.04201E-06 5.03648E-19 1.58406E-19
 -1       472 8.95638E-05-1.34360E-05-3.26454E-05 3.99256E-06 6.32466E-19 1.89848E-19
 -1       473 9.02903E-05-1.44236E-05-3.25353E-05 5.94352E-06 8.21929E-19 5.18776E-19
 -1       474 9.14470E-05-1.60101E-05-3.23533E-05 7.76812E-06 7.41577E-19 5.78935E-19
 -1       475 9.31735E-05-1.84338E-05-3.20519E-05 9.21542E-06 6.07629E-19 7.60447E-19
 -1       476 9.53168E-05-2.18893E-05-3.14804E-05 9.54017E-06 4.76461E-19 1.18153E-18
 -1       477 9.63661E-05-2.46229E-05-3.07357E-05 8.02756E-06 3.20341E-19 1.52500E-18
 -1       478 9.54801E-05-2.43079E-05-3.04932E-05-5.99095E-06-2.28961E-19-1.39933E-19
 -1       479 9.52994E-05-2.61678E-05-2.96209E-05-2.99966E-06-9.66457E-20-2.57726E-20
 -1       480 9.49422E-05-2.71275E-05-2.90596E-05-1.09072E-06-2.72927E-19 2.26340E-20
 -1       481 9.46616E-05-2.76731E-05-2.87077E-05 6.36359E-08-3.66433E-19-5.39317E-21
 -1       482 9.45011E-05-2.80075E-05-2.84966E-05 7.19788E-07-2.94295E-19-5.73418E-20
 -1       483 9.44430E-05-2.82241E-05-2.83794E-05 1.05165E-06-4.35592E-19 8.97210E-20
 -1       484 9.44572E-05-2.83687E-05-2.83238E-05 1.17629E-06-2.89628E-19 4.09465E-19
 -1       485 9.45162E-05-2.84658E-05-2.83076E-05 1.17263E-06-2.10923E-19 2.13695E-19
 -1       486 9.45987E-05-2.85302E-05-2.83154E-05 1.09407E-06-3.86481E-20-4.93248E-19
 -1       487 9.46903E-05-2.85713E-05-2.83371E-05 9.76590E-07 1.23099E-19-3.93508E-19
 -1       488 9.47814E-05-2.85958E-05-2.83656E-05 8.44031E-07 5.62348E-20-3.41407E-19
 -1       489 9.48668E-05-2.86085E-05-2.83967E-05 7.11808E-07 9.36421E-20-1.05478E-19
 -1       490 9.49438E-05-2.86131E-05-2.84277E-05 5.89523E-07-1.73207E-19 3.10868E-19
 -1       491 9.50116E-05-2.86120E-05-2.84572E-05 4.82898E-07 2.07666E-19 7.57581E-19
 -1       492 9.50708E-05-2.86068E-05-2.84847E-05 3.95243E-07 4.87994E-19 1.39526E-18
 -1       493 9.51227E-05-2.85985E-05-2.85105E-05 3.28605E-07-5.10507E-19 1.39208E-18
 -1       494 9.51691E-05-2.85871E-05-2.85352E-05 2.84748E-07 1.19922E-19 9.72397E-19
 -1       495 9.52119E-05-2.85718E-05-2.85601E-05 2.66070E-07-2.85451E-19 6.38587E-19
 -1       496 9.52529E-05-2.85502E-05-2.85868E-05 2.76598E-07-1.83535E-19-2.58237E-20
 -1       497 9.52932E-05-2.85180E-05-2.86178E-05 3.23222E-07 1.80288E-19-3.50932E-20
 -1       498 9.53322E-05-2.84679E-05-2.86558E-05 4.17344E-07 4.11169E-19-2.69949E-19
 -1       499 9.53666E-05-2.83873E-05-2.87048E-05 5.77201E-07-2.76727E-19-4.99546E-19
 -1       500 9.53869E-05-2.82554E-05-2.87697E-05 8.31102E-07-6.06603E-19-2.10922E-19
 -1       501 9.53728E-05-2.80384E-05-2.88561E-05 1.22182E-06-5.93640E-19 1.03756E-18
 -1       502 9.52841E-05-2.76819E-05-2.89700E-05 1.81218E-06-6.41393E-20 1.80339E-18
 -1       503 9.50449E-05-2.71007E-05-2.91151E-05 2.69120E-06 3.68250E-19 7.34821E-19
 -1       504 9.45188E-05-2.61664E-05-2.92879E-05 3.97899E-06 8.73635E-20 7.22704E-19
 -1       505 9.34706E-05-2.46978E-05-2.94651E-05 5.82592E-06 7.14164E-19 7.51642E-19
 -1       506 9.15197E-05-2.24745E-05-2.95782E-05 8.39938E-06 5.83404E-19 8.76816E-19
 -1       507 8.81087E-05-1.93231E-05-2.94607E-05 1.18540E-05-8.65453E-19-3.39271E-19
 -1       508 8.25668E-05-1.53945E-05-2.87476E-05 1.63080E-05 1.52633E-19-3.06571E-19
 -1       509 7.44810E-05-1.19096E-05-2.66871E-05 2.19157E-05 6.19131E-19 5.81538E-19
 -1       510 6.49538E-05-1.18305E-05-2.22475E-05 2.91262E-05-1.23759E-19 1.03171E-18
 -1       511 1.34894E-04-6.43674E-05-3.03279E-05 2.36132E-05-4.86567E-19-5.71562E-19
 -1       512 9.45567E-05-2.06287E-05-3.17023E-05-9.53409E-06-2.47608E-19-8.66869E-20
 -1       513 8.03306E-05-1.50731E-05-2.78646E-05-2.59828E-05-1.02006E-18-7.49859E-19
 -1       514 8.63363E-05-1.73869E-05-2.95131E-05-1.98237E-05-8.82971E-19 2.66524E-18
 -1       515 9.06823E-05-2.00012E-05-3.02538E-05-1.59041E-05 1.06694E-18 3.50189E-18
 -1       516 9.43935E-05-2.78521E-05-2.85164E-05-4.64572E-07 1.64829E-19 9.07663E-19
 -1       517 9.46281E-05-2.74703E-05-2.87784E-05 3.94597E-07 4.95299E-19 1.02283E-18
 -1       518 9.50094E-05-2.68250E-05-2.92179E-05 1.87874E-06 5.35073E-19 1.07143E-18
 -1       519 9.42924E-05-2.80966E-05-2.83692E-05-9.25557E-07-2.60679E-20 7.13286E-19
 -1       520 9.42887E-05-2.82619E-05-2.82972E-05-1.13185E-06 1.83862E-19 6.74029E-19
 -1       521 9.43473E-05-2.83765E-05-2.82734E-05-1.17852E-06 4.13659E-20 7.57396E-19
 -1       522 9.44402E-05-2.84564E-05-2.82791E-05-1.12935E-06-1.82264E-19 1.32068E-18
 -1       523 9.45481E-05-2.85113E-05-2.83019E-05-1.02724E-06 1.75915E-19 1.89310E-18
 -1       524 9.46579E-05-2.85477E-05-2.83333E-05-9.00811E-07 3.66693E-19 1.52349E-18
 -1       525 9.47618E-05-2.85705E-05-2.83681E-05-7.68772E-07 2.73603E-19 1.65719E-18
 -1       526 9.48559E-05-2.85835E-05-2.84028E-05-6.42919E-07 1.47748E-19 1.06664E-18
 -1       527 9.49383E-05-2.85894E-05-2.84355E-05-5.30267E-07 2.79986E-19 7.56943E-19
 -1       528 9.50094E-05-2.85906E-05-2.84654E-05-4.34550E-07-1.79488E-20 6.67229E-19
 -1       529 9.50700E-05-2.85887E-05-2.84921E-05-3.57272E-07 3.19533E-19 4.56032E-19
 -1       530 9.51221E-05-2.85856E-05-2.85158E-05-2.98368E-07 3.87544E-19 4.19354E-19
 -1       531 9.51677E-05-2.85827E-05-2.85365E-05-2.56525E-07 5.26646E-20 3.57217E-19
 -1       532 9.52094E-05-2.85821E-05-2.85546E-05-2.29191E-07-7.45393E-19 3.37637E-19
 -1       533 9.52497E-05-2.85865E-05-2.85700E-05-2.12253E-07-5.31645E-19 5.98643E-19
 -1       534 9.52913E-05-2.85993E-05-2.85824E-05-1.99353E-07-6.81760E-19 1.36128E-18
 -1       535 9.53372E-05-2.86256E-05-2.85908E-05-1.80868E-07-5.86521E-19 1.80446E-18
 -1       536 9.53902E-05-2.86720E-05-2.85937E-05-1.42547E-07 2.88473E-19 1.45315E-18
 -1       537 9.54525E-05-2.87466E-05-2.85886E-05-6.39836E-08 8.58638E-19 8.23066E-19
 -1       538 9.55253E-05-2.88579E-05-2.85724E-05 8.27397E-08 8.12763E-19 9.31707E-19
 -1       539 9.56067E-05-2.90131E-05-2.85410E-05 3.33549E-07 1.71832E-19 4.81480E-19
 -1       540 9.56885E-05-2.92137E-05-2.84906E-05 7.30859E-07 1.79179E-19 1.35809E-18
 -1       541 9.57520E-05-2.94486E-05-2.84176E-05 1.31832E-06-3.52029E-19 1.66722E-18
 -1       542 9.57618E-05-2.96856E-05-2.83207E-05 2.12975E-06 2.66800E-19 1.02758E-18
 -1       543 9.56601E-05-2.98617E-05-2.82020E-05 3.17035E-06-4.29320E-19 6.48619E-19
 -1       544 9.53650E-05-2.98792E-05-2.80680E-05 4.39039E-06-1.90147E-19 6.43889E-19
 -1       545 9.47809E-05-2.96155E-05-2.79302E-05 5.65647E-06-5.76011E-20 2.73959E-19
 -1       546 9.38280E-05-2.89566E-05-2.78031E-05 6.73377E-06 1.07091E-19-2.20033E-19
 -1       547 9.24933E-05-2.78572E-05-2.77005E-05 7.30112E-06 1.50497E-19 6.10153E-19
 -1       548 9.08897E-05-2.64125E-05-2.76305E-05 7.02293E-06 6.76636E-19 7.05089E-20
 -1       549 8.92839E-05-2.48931E-05-2.75917E-05 5.67991E-06 1.50898E-18 1.37978E-18
 -1       550 8.80473E-05-2.36936E-05-2.75745E-05 3.31233E-06 5.25908E-19 1.03852E-18
 -1       551 8.75198E-05-2.31818E-05-2.75672E-05 2.84967E-07-1.07620E-18 1.29662E-18
 -1       552 8.78503E-05-2.35200E-05-2.75641E-05-2.79987E-06-1.27899E-18 1.09589E-18
 -1       553 8.89141E-05-2.45727E-05-2.75699E-05-5.32636E-06-9.82745E-19 1.01948E-18
 -1       554 9.03857E-05-2.59912E-05-2.75944E-05-6.89919E-06 1.03045E-18 5.81243E-19
 -1       555 9.18910E-05-2.73840E-05-2.76446E-05-7.43474E-06 1.97257E-18 1.81881E-19
 -1       556 9.31530E-05-2.84803E-05-2.77177E-05-7.12155E-06 2.00769E-19 9.86443E-19
 -1       557 9.40720E-05-2.92178E-05-2.77975E-05-6.26767E-06 6.51053E-19 3.39195E-18
 -1       558 9.47450E-05-2.97290E-05-2.78664E-05-5.13918E-06-1.44393E-20 2.06961E-18
 -1       559 1.00351E-04-3.40399E-05-2.84127E-05-8.45450E-07 1.59873E-19 1.71989E-18
 -1       560 9.86228E-05-3.27862E-05-2.82106E-05-3.28158E-06-1.43564E-18-1.06018E-18
 -1       561 9.67263E-05-3.13293E-05-2.80268E-05-4.52097E-06 6.70054E-19-1.17820E-18
 -1       562 1.01662E-04-3.48765E-05-2.86145E-05 2.80593E-06 1.23462E-18-9.41265E-20
 -1       563 1.01959E-04-3.48122E-05-2.87698E-05 7.29857E-06-6.13586E-20-9.72657E-19
 -1       564 1.00500E-04-3.32516E-05-2.88171E-05 1.18165E-05-1.26282E-18-6.39476E-19
 -1       565 9.67190E-05-2.97281E-05-2.87125E-05 1.49371E-05-1.01420E-18 6.05035E-19
 -1       566 9.09713E-05-2.45076E-05-2.84913E-05 1.48819E-05-1.92797E-19-2.05359E-18
 -1       567 8.47285E-05-1.87198E-05-2.82957E-05 1.03189E-05 2.13340E-18 2.12351E-18
 -1       568 8.09428E-05-1.47415E-05-2.83727E-05 1.60992E-06 2.51811E-18 3.21926E-18
 -1       569 8.21195E-05-1.46169E-05-2.89446E-05-8.50322E-06 8.11054E-19 3.63125E-18
 -1       570 1.02496E-04-5.38468E-05-2.06157E-05 5.07936E-05-8.65562E-20 4.32661E-18
 -1       571 6.33247E-05-3.48911E-05-1.16848E-05 5.16392E-05 1.94124E-18 2.37704E-18
 -1       572 1.52877E-04-4.32824E-05-4.74002E-05 5.88809E-07 2.47643E-18 3.30502E-19
 -1       573 7.39647E-05-1.67267E-05-2.41841E-05-3.28953E-05-1.05497E-18-3.49696E-18
 -1       574 1.39320E-04-6.21313E-05-3.30532E-05 3.02915E-05-3.15123E-19 3.32376E-18
 -1       575 8.91477E-05-1.28733E-05-3.27072E-05-1.93608E-06 3.89245E-19-2.67609E-20
 -1       576 3.90521E-05-1.85019E-05-8.34752E-06-3.10731E-05-1.00066E-18-2.02716E-18
 -1       577 1.52957E-04-5.30364E-05-4.31449E-05 8.54313E-06 1.60484E-18 1.42460E-19
 -1       578 1.48107E-04-1.88266E-05-5.60261E-05 9.45204E-06 2.17576E-18-4.61580E-19
 -1       579 1.43627E-04-8.61992E-06-5.85445E-05-7.28237E-06 1.98502E-18-2.90892E-18
 -1       580 5.57103E-05-2.52833E-05-1.24541E-05 3.63044E-05 1.11104E-18 7.53224E-19
 -1       581 1.41313E-04-3.55508E-06-5.97696E-05 1.75449E-06 2.07311E-18-9.51112E-19
 -1       582 1.49526E-04-5.60434E-05-4.02379E-05-1.56699E-05 7.32353E-19-2.34469E-19
 -1       583 1.27286E-04-6.01003E-05-2.86751E-05-3.89207E-05-7.96211E-20-1.47302E-18
 -1       584 8.63488E-05-4.52303E-05-1.72927E-05-5.28968E-05-1.40221E-18-4.97817E-18
 -1       585 4.76592E-05-2.50152E-05-9.08638E-06-4.74509E-05-2.93285E-19-2.91194E-18
 -1       586 2.01048E-05-9.76374E-06-3.76141E-06-2.13604E-05-1.63250E-18-2.25311E-19
 -1       587 7.71480E-05-4.02738E-05-1.54865E-05-3.99442E-05-1.69915E-18-5.84447E-18
 -1       588 2.03098E-05-9.11266E-06-4.11040E-06 8.02299E-06-1.58025E-20-6.65556E-19
 -1       589 2.19193E-05-8.96466E-06-4.74644E-06-4.71799E-06-2.29329E-18-1.69470E-18
 -1       590 9.13549E-05-1.58966E-05-3.23632E-05-7.69441E-06 1.34944E-20-3.74806E-19
 -1       591 9.55717E-05-2.58469E-05-2.98600E-05 4.92127E-06 2.85189E-19 1.23989E-18
 -1       592 4.87893E-05-2.02349E-05-1.16588E-05 4.06135E-05 2.06877E-18 4.76292E-18
 -1       593 2.80997E-05-5.65663E-06-8.86065E-06 1.17531E-05 2.09972E-19 7.96317E-19
 -1       594 9.51888E-05-2.63913E-05-2.94721E-05 3.19692E-06 4.50694E-19 1.05254E-18
 -1       595 9.27341E-05-1.78637E-05-3.21095E-05-8.91680E-06-1.31178E-19-3.39367E-19
 -1       596 1.31855E-04-8.56117E-06-5.34309E-05 8.98353E-06 2.76022E-18 3.05329E-19
 -1       597 9.15422E-05-1.68418E-05-3.20201E-05 2.43523E-06 5.16044E-19 2.44566E-19
 -1       598 9.12827E-05-1.64394E-05-3.20811E-05 8.38128E-07 5.01311E-19 2.06016E-19
 -1       599 9.28809E-05-1.89895E-05-3.16741E-05 5.25801E-06 7.05177E-19 5.27352E-19
 -1       600 9.39817E-05-2.08956E-05-3.13297E-05 6.19338E-06 5.54278E-19 5.58580E-19
 -1       601 9.55043E-05-2.42110E-05-3.05420E-05 6.24540E-06 3.95417E-19 1.01829E-18
 -1       602 7.14828E-05-1.00618E-05-2.62389E-05-1.35591E-05 6.52252E-19 5.99800E-19
 -1       603 9.50030E-05-2.35406E-05-3.06279E-05-4.84408E-06-2.01274E-20-5.79904E-20
 -1       604 9.54123E-05-2.56292E-05-2.99057E-05-2.51882E-06-1.64474E-19-1.21844E-19
 -1       605 9.54772E-05-2.68949E-05-2.93918E-05-9.15727E-07-3.52929E-19-1.01343E-19
 -1       606 9.54247E-05-2.76739E-05-2.90358E-05 1.11551E-07-2.07223E-19-4.00850E-20
 -1       607 9.53482E-05-2.81572E-05-2.87961E-05 7.17784E-07-2.66193E-19 3.26767E-19
 -1       608 9.52826E-05-2.84557E-05-2.86402E-05 1.03238E-06-2.00540E-19 6.95060E-19
 -1       609 9.52363E-05-2.86350E-05-2.85435E-05 1.15273E-06-3.44653E-19 7.27451E-19
 -1       610 9.52077E-05-2.87358E-05-2.84881E-05 1.14983E-06-6.11145E-19 5.40490E-19
 -1       611 9.51930E-05-2.87846E-05-2.84608E-05 1.07398E-06 8.97875E-21 4.66798E-19
 -1       612 9.51879E-05-2.87996E-05-2.84522E-05 9.60006E-07 3.09633E-19 7.40798E-21
 -1       613 9.51891E-05-2.87930E-05-2.84555E-05 8.31420E-07 4.34925E-19 2.03992E-19
 -1       614 9.51942E-05-2.87734E-05-2.84661E-05 7.03625E-07 4.62867E-19 2.40710E-19
 -1       615 9.52015E-05-2.87462E-05-2.84809E-05 5.86359E-07 4.17709E-19 1.30373E-18
 -1       616 9.52101E-05-2.87149E-05-2.84980E-05 4.85576E-07 2.87066E-19 1.20474E-18
 -1       617 9.52190E-05-2.86812E-05-2.85162E-05 4.04897E-07 9.44768E-20 9.51751E-19
 -1       618 9.52276E-05-2.86451E-05-2.85354E-05 3.46763E-07-3.09198E-19 1.41366E-18
 -1       619 9.52349E-05-2.86051E-05-2.85556E-05 3.13396E-07-6.39396E-19 1.06140E-18
 -1       620 9.52387E-05-2.85576E-05-2.85776E-05 3.07668E-07-9.79198E-19 3.11300E-19
 -1       621 9.52357E-05-2.84965E-05-2.86025E-05 3.33982E-07 3.07984E-19 1.13020E-19
 -1       622 9.52189E-05-2.84116E-05-2.86316E-05 3.99222E-07 1.20767E-19 7.51313E-19
 -1       623 9.51762E-05-2.82866E-05-2.86669E-05 5.13841E-07 9.84204E-20 3.04978E-19
 -1       624 9.50860E-05-2.80959E-05-2.87099E-05 6.93048E-07-4.15458E-20 6.22379E-19
 -1       625 9.49112E-05-2.77995E-05-2.87618E-05 9.57872E-07-3.32852E-19 9.35412E-19
 -1       626 9.45887E-05-2.73361E-05-2.88220E-05 1.33551E-06 5.59720E-20 6.84294E-19
 -1       627 9.40136E-05-2.66136E-05-2.88849E-05 1.85772E-06-2.59970E-19 7.07893E-19
 -1       628 9.30147E-05-2.54984E-05-2.89344E-05 2.55477E-06-3.27868E-20 1.90954E-19
 -1       629 9.13201E-05-2.38070E-05-2.89325E-05 3.44137E-06 4.46382E-19 2.26271E-20
 -1       630 8.85128E-05-2.13118E-05-2.87982E-05 4.49073E-06 7.00990E-20-6.14716E-19
 -1       631 8.39819E-05-1.77852E-05-2.83656E-05 5.59892E-06-3.71581E-19-5.79145E-19
 -1       632 7.68858E-05-1.31320E-05-2.73054E-05 6.56598E-06-3.98658E-19-4.16734E-19
 -1       633 6.61447E-05-7.71204E-06-2.49566E-05 7.16542E-06 4.75908E-19-2.89662E-19
 -1       634 5.15061E-05-3.35222E-06-2.03523E-05 7.26083E-06-3.94135E-19-3.76400E-20
 -1       635 9.41557E-05-2.10920E-05-3.13110E-05-6.82547E-06-1.83222E-19-1.62374E-19
 -1       636 1.01262E-04-3.40000E-05-2.88256E-05-3.39253E-06 1.58191E-18 8.84221E-19
 -1       637 1.36864E-04-2.03530E-05-5.04676E-05-1.27553E-05 1.43487E-18-1.97359E-18
 -1       638 9.53615E-05-2.73692E-05-2.91389E-05 3.19798E-07 5.86024E-19 6.14507E-19
 -1       639 9.52692E-05-2.79456E-05-2.88527E-05-4.78255E-07 2.23755E-19 3.45936E-19
 -1       640 9.54227E-05-2.64404E-05-2.95624E-05 1.63105E-06 4.31869E-19 6.95324E-19
 -1       641 9.51413E-05-2.85247E-05-2.85501E-05-1.12524E-06-1.76584E-19 8.58214E-19
 -1       642 9.51151E-05-2.86554E-05-2.84828E-05-1.17362E-06-3.50951E-19 1.06865E-18
 -1       643 9.51070E-05-2.87266E-05-2.84489E-05-1.12682E-06-2.08012E-19 7.26281E-19
 -1       644 9.51108E-05-2.87583E-05-2.84369E-05-1.02679E-06 5.57773E-19 5.37546E-19
 -1       645 9.51216E-05-2.87642E-05-2.84390E-05-9.02145E-07 2.27016E-19 1.86969E-19
 -1       646 9.51358E-05-2.87537E-05-2.84496E-05-7.71847E-07-1.24505E-19 2.07050E-19
 -1       647 9.51511E-05-2.87336E-05-2.84648E-05-6.47950E-07 6.98434E-19 1.66094E-19
 -1       648 9.51662E-05-2.87083E-05-2.84820E-05-5.37677E-07 1.58520E-19 5.20678E-20
 -1       649 9.51804E-05-2.86809E-05-2.84998E-05-4.44908E-07-1.37308E-19 6.76282E-19
 -1       650 9.51936E-05-2.86539E-05-2.85171E-05-3.71224E-07 4.56950E-19 7.36736E-19
 -1       651 9.52065E-05-2.86290E-05-2.85332E-05-3.16548E-07 1.13015E-19 1.20980E-18
 -1       652 9.52201E-05-2.86087E-05-2.85478E-05-2.79441E-07 2.75189E-19 1.05237E-18
 -1       653 9.52368E-05-2.85960E-05-2.85604E-05-2.57059E-07-6.63239E-19 5.45061E-19
 -1       654 9.52596E-05-2.85954E-05-2.85704E-05-2.44744E-07-1.34822E-18 5.45406E-19
 -1       655 9.52938E-05-2.86139E-05-2.85771E-05-2.35244E-07-7.35112E-19 2.82844E-19
 -1       656 9.53469E-05-2.86615E-05-2.85795E-05-2.17516E-07 1.87418E-19 1.93371E-19
 -1       657 9.54290E-05-2.87516E-05-2.85761E-05-1.75147E-07 8.66836E-19 2.04075E-19
 -1       658 9.55537E-05-2.89011E-05-2.85655E-05-8.44965E-08 7.98156E-19 6.34648E-19
 -1       659 9.57366E-05-2.91283E-05-2.85467E-05 8.70966E-08 3.87314E-19 7.07683E-19
 -1       660 9.59934E-05-2.94493E-05-2.85193E-05 3.82319E-07-1.31701E-19 1.44426E-19
 -1       661 9.63338E-05-2.98694E-05-2.84853E-05 8.52743E-07-2.66905E-19 3.33737E-19
 -1       662 9.67516E-05-3.03705E-05-2.84498E-05 1.55327E-06 8.52861E-19-6.09301E-20
 -1       663 9.72111E-05-3.08938E-05-2.84226E-05 2.52888E-06-2.95430E-19-5.93097E-19
 -1       664 9.76305E-05-3.13226E-05-2.84187E-05 3.78994E-06-6.86940E-19-5.70764E-20
 -1       665 9.78728E-05-3.14757E-05-2.84568E-05 5.27411E-06-3.22299E-19 6.73174E-19
 -1       666 9.77590E-05-3.11299E-05-2.85559E-05 6.80097E-06-2.83250E-19 2.21518E-18
 -1       667 9.71195E-05-3.00906E-05-2.87265E-05 8.04124E-06 4.97271E-19 1.62566E-18
 -1       668 9.58942E-05-2.83154E-05-2.89614E-05 8.53785E-06 5.98013E-19 1.00642E-18
 -1       669 9.42448E-05-2.60455E-05-2.92266E-05 7.83220E-06 2.10638E-19 8.03883E-19
 -1       670 9.25943E-05-2.38399E-05-2.94640E-05 5.68942E-06 4.58087E-19 1.83369E-18
 -1       671 9.14995E-05-2.24086E-05-2.96078E-05 2.32264E-06-7.48775E-19 2.79661E-18
 -1       672 9.13734E-05-2.22718E-05-2.96121E-05-1.57512E-06-6.31766E-19 2.41663E-18
 -1       673 9.22422E-05-2.34658E-05-2.94731E-05-5.07323E-06-5.10938E-20 1.42966E-18
 -1       674 9.36982E-05-2.54863E-05-2.92318E-05-7.44463E-06 1.99477E-19-7.64220E-19
 -1       675 9.52025E-05-2.76634E-05-2.89447E-05-8.41478E-06 1.28112E-18 5.80957E-19
 -1       676 9.62841E-05-2.93963E-05-2.86658E-05-8.16743E-06 1.22480E-18 1.96186E-18
 -1       677 9.67654E-05-3.04523E-05-2.84210E-05-7.16021E-06-1.74070E-19-1.04415E-19
 -1       678 9.69205E-05-3.10448E-05-2.82355E-05-5.86937E-06 8.17744E-19-1.02802E-19
 -1       679 1.05814E-04-3.75251E-05-2.92631E-05 4.59150E-06 2.06196E-18-9.62273E-19
 -1       680 8.99508E-05-4.18038E-05-2.03636E-05 4.57868E-05 2.37050E-18 2.81714E-18
 -1       681 1.03915E-04-3.59532E-05-2.91243E-05-1.26330E-07 1.33172E-18 2.15417E-18
 -1       682 9.90895E-05-3.24668E-05-2.85501E-05-5.04604E-06 1.18353E-18-1.90014E-18
 -1       683 1.05903E-04-3.79313E-05-2.91260E-05 1.04706E-05 1.88469E-20-2.80185E-18
 -1       684 9.51920E-05-2.83041E-05-2.86662E-05-9.21558E-07 1.16417E-19 3.81985E-19
 -1       685 1.02767E-04-3.59960E-05-2.86118E-05 1.64057E-05 5.05962E-19-3.27364E-19
 -1       686 9.57212E-05-3.09710E-05-2.77449E-05 2.02119E-05-6.33095E-19-1.00609E-18
 -1       687 8.53318E-05-2.29649E-05-2.67079E-05 1.90576E-05 5.61021E-19 1.85527E-19
 -1       688 7.55574E-05-1.47369E-05-2.60369E-05 1.09505E-05 1.58561E-18 2.84213E-18
 -1       689 1.06946E-04-3.98406E-05-2.76984E-05-3.80029E-05-1.41672E-18-6.57045E-18
 -1       690 1.43730E-04-5.13001E-05-3.98673E-05-1.00937E-06 6.69123E-19 4.77224E-19
 -1       691 1.41420E-04-5.79504E-05-3.59074E-05 1.07563E-05-5.13200E-19-8.74006E-19
 -1       692 5.71049E-05-5.99204E-06-2.16368E-05-1.55480E-05-2.59809E-20-1.35258E-18
 -1       693 7.25599E-05-3.21413E-05-1.69098E-05-4.73468E-05 3.23355E-19-3.55756E-18
 -1       694 1.38450E-04-3.07980E-05-4.65442E-05 1.22476E-05 1.33577E-18 1.39935E-18
 -1       695 4.02640E-05-3.54662E-06-1.50251E-05-1.22383E-05-9.27620E-19-2.55190E-18
 -1       696 4.11038E-05-1.08495E-05-1.23766E-05-3.11611E-05 2.15292E-19-1.76522E-18
 -1       697 1.24060E-04-5.84388E-05-2.80146E-05 3.37776E-05 1.88068E-20 2.46457E-18
 -1       698 9.20682E-05-1.76691E-05-3.18914E-05 3.94261E-06 7.01757E-19 5.57362E-19
 -1       699 1.23468E-04-4.84574E-06-5.14355E-05-3.71462E-06 1.26197E-18 1.28711E-18
 -1       700 1.44238E-04-4.23200E-05-4.40178E-05-6.87620E-06 1.62506E-18-2.91350E-18
 -1       701 1.36341E-04-5.96432E-05-3.28908E-05-2.08997E-05-7.15928E-19-4.48160E-19
 -1       702 9.20336E-05-1.76176E-05-3.18984E-05-3.89161E-06 1.77264E-19-1.91132E-20
 -1       703 3.16837E-05-1.86998E-06-1.21580E-05-2.66599E-06 8.42600E-19 4.94244E-19
 -1       704 1.12550E-04-5.34173E-05-2.51276E-05-4.01658E-05-1.40555E-18-1.85093E-18
 -1       705 9.12769E-05-1.64314E-05-3.20820E-05-7.84416E-07 3.33828E-19 8.74301E-20
 -1       706 7.51872E-05-2.92965E-05-1.93360E-05 4.18589E-05 2.70201E-18 2.57914E-18
 -1       707 4.39526E-05-1.00454E-05-1.40227E-05 2.56915E-05 2.15164E-18 4.76514E-18
 -1       708 9.53210E-05-2.48898E-05-3.01786E-05 3.61304E-06 4.12462E-19 6.41233E-19
 -1       709 9.28502E-05-1.89311E-05-3.16820E-05-5.21747E-06 1.62148E-19-2.48817E-19
 -1       710 7.24631E-05-1.08713E-05-2.63682E-05-2.12909E-06 1.75443E-18 2.49332E-18
 -1       711 1.26755E-04-1.96733E-05-4.62488E-05 1.35969E-05 1.45147E-18 3.08865E-18
 -1       712 9.15212E-05-1.68122E-05-3.20237E-05-2.37558E-06 1.51396E-19 2.52588E-19
 -1       713 9.46326E-05-2.27159E-05-3.08232E-05 3.89922E-06 5.18138E-19 4.94160E-19
 -1       714 9.35955E-05-3.94633E-05-2.30351E-05-3.88394E-05-7.24322E-19-2.17267E-18
 -1       715 9.23093E-05-3.16625E-05-2.59551E-05 2.71652E-05 1.21861E-18 5.52062E-19
 -1       716 9.55403E-05-2.54082E-05-3.00559E-05-1.86241E-06-7.68439E-20 1.71028E-20
 -1       717 9.58528E-05-2.68205E-05-2.95849E-05-6.20738E-07-2.08677E-19 3.95604E-19
 -1       718 9.59524E-05-2.77327E-05-2.92371E-05 2.02368E-07-1.44941E-20 5.97761E-19
 -1       719 9.59443E-05-2.83081E-05-2.89870E-05 6.95350E-07-8.93674E-21 5.04137E-19
 -1       720 9.58844E-05-2.86590E-05-2.88109E-05 9.50705E-07-1.57315E-19 2.91789E-19
 -1       721 9.58035E-05-2.88592E-05-2.86905E-05 1.04426E-06-2.72654E-19 6.51169E-19
 -1       722 9.57178E-05-2.89588E-05-2.86111E-05 1.03383E-06-4.03311E-19 1.26172E-18
 -1       723 9.56357E-05-2.89923E-05-2.85615E-05 9.61790E-07-2.89842E-19 1.23813E-18
 -1       724 9.55613E-05-2.89840E-05-2.85331E-05 8.58079E-07 1.71828E-20 6.12652E-19
 -1       725 9.54963E-05-2.89503E-05-2.85197E-05 7.43144E-07 2.56215E-19 5.63050E-19
 -1       726 9.54409E-05-2.89024E-05-2.85165E-05 6.30478E-07 5.29081E-19 2.79470E-19
 -1       727 9.53944E-05-2.88472E-05-2.85203E-05 5.28669E-07 4.12939E-19-6.21878E-20
 -1       728 9.53555E-05-2.87886E-05-2.85287E-05 4.43012E-07 7.12483E-19 2.92954E-19
 -1       729 9.53221E-05-2.87279E-05-2.85404E-05 3.76749E-07 3.25866E-19 5.67982E-19
 -1       730 9.52913E-05-2.86640E-05-2.85546E-05 3.32020E-07-6.31293E-19 4.27925E-19
 -1       731 9.52592E-05-2.85936E-05-2.85710E-05 3.10594E-07-6.77345E-19 7.48469E-19
 -1       732 9.52195E-05-2.85102E-05-2.85897E-05 3.14400E-07-2.03111E-19 1.83550E-18
 -1       733 9.51628E-05-2.84035E-05-2.86111E-05 3.45873E-07 6.23226E-19 7.02391E-19
 -1       734 9.50738E-05-2.82576E-05-2.86355E-05 4.08031E-07 2.54292E-19 5.83706E-19
 -1       735 9.49283E-05-2.80481E-05-2.86629E-05 5.04081E-07 9.41675E-20 1.07336E-18
 -1       736 9.46872E-05-2.77388E-05-2.86922E-05 6.36115E-07-2.97421E-19 4.88626E-19
 -1       737 9.42891E-05-2.72762E-05-2.87198E-05 8.02075E-07-3.85757E-19 3.16258E-19
 -1       738 9.36377E-05-2.65839E-05-2.87374E-05 9.89495E-07-6.99457E-20 2.44916E-19
 -1       739 9.25860E-05-2.55563E-05-2.87270E-05 1.16366E-06-4.36719E-19-4.17505E-20
 -1       740 9.09144E-05-2.40573E-05-2.86532E-05 1.24684E-06-1.75771E-19 3.74797E-19
 -1       741 8.83062E-05-2.19287E-05-2.84478E-05 1.08478E-06-1.72354E-19 5.76169E-20
 -1       742 8.43228E-05-1.90250E-05-2.79846E-05 3.99299E-07-7.26119E-19-1.05862E-18
 -1       743 7.83840E-05-1.52954E-05-2.70317E-05-1.26442E-06-8.36382E-19-1.48317E-18
 -1       744 6.97544E-05-1.09569E-05-2.51565E-05-4.58280E-06 4.26175E-19-8.30607E-19
 -1       745 5.81891E-05-6.99333E-06-2.17704E-05-1.00594E-05 1.54799E-19-1.38823E-18
 -1       746 9.56050E-05-2.89493E-05-2.85667E-05-1.02414E-06 1.20734E-19 3.58993E-19
 -1       747 9.52709E-05-2.45453E-05-3.03075E-05 2.75063E-06 5.15207E-19 3.98934E-19
 -1       748 1.33355E-04-5.32876E-05-3.43928E-05-5.84714E-06-4.16484E-19-3.54159E-19
 -1       749 1.07888E-04-4.66366E-05-2.60713E-05 3.39737E-05 1.57851E-18 1.93227E-18
 -1       750 9.58571E-05-2.73550E-05-2.93579E-05 1.56268E-07 4.93818E-19 6.64080E-19
 -1       751 9.57228E-05-2.62874E-05-2.97592E-05 1.21166E-06 5.90773E-19 4.37446E-19
 -1       752 9.56811E-05-2.88872E-05-2.86260E-05-1.07171E-06 6.12862E-20 4.11367E-19
 -1       753 9.57594E-05-2.87468E-05-2.87197E-05-1.03713E-06-1.95200E-19 7.02851E-19
 -1       754 9.55353E-05-2.89606E-05-2.85321E-05-9.30801E-07 3.61314E-19 4.56800E-19
 -1       755 9.54739E-05-2.89401E-05-2.85145E-05-8.16870E-07 2.57188E-19 6.62668E-19
 -1       756 9.54211E-05-2.89011E-05-2.85086E-05-6.99154E-07 4.16194E-20 4.32966E-19
 -1       757 9.53763E-05-2.88524E-05-2.85103E-05-5.88395E-07 3.88135E-19 1.05097E-18
 -1       758 9.53388E-05-2.88000E-05-2.85167E-05-4.91063E-07-5.55157E-19 1.10437E-18
 -1       759 9.53077E-05-2.87478E-05-2.85257E-05-4.10678E-07 3.77508E-19 1.08350E-18
 -1       760 9.52824E-05-2.86986E-05-2.85360E-05-3.48749E-07 1.77995E-19 1.24180E-18
 -1       761 9.52630E-05-2.86550E-05-2.85463E-05-3.05360E-07-3.14551E-19 1.78943E-18
 -1       762 9.52504E-05-2.86203E-05-2.85558E-05-2.79445E-07-2.01839E-19 2.14470E-18
 -1       763 9.52476E-05-2.85991E-05-2.85636E-05-2.68756E-07-4.68893E-19 1.82536E-18
 -1       764 9.52599E-05-2.85990E-05-2.85690E-05-2.69473E-07-6.12937E-19 1.07282E-18
 -1       765 9.52965E-05-2.86312E-05-2.85709E-05-2.75433E-07 1.43214E-19-1.95360E-19
 -1       766 9.53717E-05-2.87120E-05-2.85685E-05-2.76853E-07-7.19730E-20-3.26303E-19
 -1       767 9.55060E-05-2.88635E-05-2.85611E-05-2.58485E-07 7.83732E-19 9.02258E-19
 -1       768 9.57273E-05-2.91133E-05-2.85489E-05-1.97110E-07 7.45442E-20 1.26798E-18
 -1       769 9.60699E-05-2.94917E-05-2.85336E-05-5.85179E-08 2.54562E-19 1.94234E-18
 -1       770 9.65705E-05-3.00248E-05-2.85197E-05 2.05510E-07-1.90609E-19 2.31989E-18
 -1       771 9.72589E-05-3.07216E-05-2.85162E-05 6.58716E-07 1.02332E-18 1.24030E-18
 -1       772 9.81410E-05-3.15526E-05-2.85382E-05 1.37721E-06-1.86950E-19 1.93063E-18
 -1       773 9.91722E-05-3.24204E-05-2.86084E-05 2.43594E-06-1.08238E-18 3.14784E-18
 -1       774 1.00226E-04-3.31298E-05-2.87562E-05 3.87611E-06-5.90125E-19 2.34141E-18
 -1       775 1.01074E-04-3.33754E-05-2.90136E-05 5.64496E-06-1.05257E-18 1.95824E-18
 -1       776 1.01401E-04-3.27878E-05-2.94059E-05 7.51495E-06 1.12995E-18 7.97150E-19
 -1       777 1.00908E-04-3.10633E-05-2.99330E-05 9.01601E-06 1.15542E-18 6.10323E-19
 -1       778 9.94981E-05-2.82107E-05-3.05513E-05 9.46909E-06 4.15858E-19 7.76376E-19
 -1       779 9.74856E-05-2.47776E-05-3.11594E-05 8.21111E-06-3.57641E-19 2.14117E-18
 -1       780 9.56246E-05-2.18416E-05-3.16194E-05 5.02607E-06-7.35687E-19 2.16163E-18
 -1       781 9.47704E-05-2.05565E-05-3.18030E-05 4.96843E-07-6.59582E-19 1.74888E-18
 -1       782 9.53170E-05-2.14581E-05-3.16509E-05-4.13862E-06-3.83836E-19 1.24926E-18
 -1       783 9.69595E-05-2.41305E-05-3.12105E-05-7.51006E-06 8.24856E-19 1.43577E-18
 -1       784 9.87957E-05-2.74090E-05-3.05955E-05-9.06780E-06 1.73836E-19 9.48687E-19
 -1       785 1.00093E-04-3.02562E-05-2.99339E-05-8.83420E-06 1.47591E-18 4.99162E-19
 -1       786 1.00358E-04-3.19160E-05-2.93383E-05-7.55895E-06 2.12301E-18 1.16602E-18
 -1       787 9.98972E-05-3.24059E-05-2.89229E-05-6.30918E-06 3.56987E-19-1.70668E-19
 -1       788 1.04969E-04-3.96582E-05-2.79729E-05 2.22467E-05 2.92638E-19-7.82595E-19
 -1       789 1.31798E-04-4.04548E-05-3.92958E-05 9.45556E-06 1.74197E-18 2.25958E-18
 -1       790 6.15748E-05-8.44188E-06-2.25942E-05 9.39291E-06 2.95542E-18 3.23833E-18
 -1       791 7.48190E-05-1.91664E-05-2.37233E-05 2.39107E-05 1.57311E-18 2.68016E-18
 -1       792 1.15961E-04-8.60511E-06-4.63325E-05 6.00086E-06 1.52167E-18 1.81950E-18
 -1       793 1.23495E-04-5.40370E-05-2.97631E-05-2.22250E-05-5.76624E-19 2.47259E-19
 -1       794 1.19920E-04-1.44098E-05-4.55182E-05-1.11392E-05 2.41007E-19-1.65617E-18
 -1       795 9.34355E-05-1.98661E-05-3.15302E-05-6.12537E-06 3.43958E-20-2.44195E-19
 -1       796 1.10799E-04-4.22951E-05-2.93432E-05 1.40399E-05 4.03821E-19-6.37057E-20
 -1       797 6.44714E-05-1.92420E-05-1.90852E-05-3.40850E-05-5.00590E-19-2.41848E-18
 -1       798 1.28514E-04-5.52065E-05-3.14434E-05 1.61648E-05 1.88391E-18 2.93255E-19
 -1       799 4.83977E-05-4.42977E-06-1.85060E-05 5.12102E-06 2.03802E-18 2.69105E-18
 -1       800 4.79417E-05-5.38501E-06-1.78798E-05-1.60634E-05 9.25675E-19-1.04212E-18
 -1       801 1.29944E-04-3.02837E-05-4.29662E-05-1.30464E-05 1.98742E-18-9.00012E-19
 -1       802 9.31901E-05-1.97671E-05-3.14682E-05 1.22888E-06 5.12740E-19 1.21114E-19
 -1       803 1.11145E-04-4.12216E-05-2.99645E-05 6.14608E-06-1.82104E-19-4.16190E-18
 -1       804 1.35239E-04-4.72627E-05-3.78166E-05-4.14542E-06 1.57697E-18 4.20122E-19
 -1       805 9.48673E-05-2.33022E-05-3.06728E-05-3.59334E-06-4.18990E-20-7.40361E-20
 -1       806 3.41022E-05-5.69609E-06-1.15894E-05 1.31360E-05 4.17634E-19 1.57919E-19
 -1       807 1.23979E-04-3.09862E-05-3.99895E-05 1.32514E-05 2.04018E-18 8.06051E-19
 -1       808 1.08558E-04-3.85932E-05-2.99886E-05 2.07261E-07 5.77263E-19 1.22258E-18
 -1       809 9.58305E-05-2.84882E-05-2.88610E-05-8.69622E-07-2.01383E-19 5.66225E-19
 -1       810 9.30793E-05-1.95679E-05-3.15059E-05 1.90297E-08 4.09252E-19 2.92474E-19
 -1       811 9.58754E-05-2.80534E-05-2.90666E-05-5.00882E-07 2.81829E-19 5.70536E-19
 -1       812 1.11006E-04-1.00575E-05-4.34437E-05-3.01604E-06-3.82078E-19 1.09828E-18
 -1       813 1.04879E-04-3.56764E-05-2.96547E-05-3.80090E-06 1.34857E-18 1.57206E-18
 -1       814 9.39752E-05-2.12763E-05-3.11561E-05-3.27399E-06 5.06527E-20-1.70103E-19
 -1       815 1.10143E-04-4.64918E-05-2.72212E-05-2.72718E-05-1.04717E-18-1.61610E-19
 -1       816 9.39996E-05-2.13309E-05-3.11464E-05 3.29366E-06 5.33269E-19 4.94358E-19
 -1       817 9.35015E-05-2.03480E-05-3.13534E-05 2.34820E-06 6.15293E-19 5.11657E-19
 -1       818 9.35024E-05-2.03318E-05-3.13586E-05-2.34044E-06 1.01803E-19 5.28268E-20
 -1       819 9.49434E-05-2.33741E-05-3.06714E-05 2.49565E-06 5.76151E-19 4.90183E-19
 -1       820 9.61700E-05-2.69230E-05-2.96772E-05-3.16455E-07 2.09449E-20 3.00344E-19
 -1       821 9.63470E-05-2.78790E-05-2.93435E-05 2.81681E-07-5.84890E-20 1.02626E-19
 -1       822 9.63713E-05-2.84855E-05-2.90940E-05 6.37907E-07-3.11317E-19 3.39749E-19
 -1       823 9.63089E-05-2.88511E-05-2.89105E-05 8.17307E-07-7.51710E-20 2.20750E-19
 -1       824 9.62010E-05-2.90505E-05-2.87788E-05 8.75163E-07 3.57281E-20 4.30406E-19
 -1       825 9.60737E-05-2.91379E-05-2.86868E-05 8.55014E-07-1.83188E-19 8.12374E-19
 -1       826 9.59434E-05-2.91521E-05-2.86248E-05 7.89286E-07-3.72714E-19 1.02775E-18
 -1       827 9.58195E-05-2.91207E-05-2.85852E-05 7.01109E-07-3.84119E-20 1.11227E-18
 -1       828 9.57069E-05-2.90626E-05-2.85619E-05 6.06340E-07 5.32195E-19 1.03761E-18
 -1       829 9.56075E-05-2.89901E-05-2.85503E-05 5.15435E-07 6.25583E-19 1.25969E-18
 -1       830 9.55210E-05-2.89109E-05-2.85472E-05 4.34991E-07 6.08156E-19 9.56264E-19
 -1       831 9.54454E-05-2.88286E-05-2.85501E-05 3.68961E-07 5.09463E-19 7.32895E-19
 -1       832 9.53775E-05-2.87439E-05-2.85573E-05 3.19534E-07 1.02475E-19 6.50647E-19
 -1       833 9.53124E-05-2.86544E-05-2.85677E-05 2.87727E-07-3.17131E-20 6.17182E-19
 -1       834 9.52432E-05-2.85552E-05-2.85806E-05 2.73671E-07-1.34549E-19 1.66899E-18
 -1       835 9.51603E-05-2.84374E-05-2.85955E-05 2.76534E-07-7.27821E-20 1.75766E-18
 -1       836 9.50490E-05-2.82881E-05-2.86119E-05 2.93984E-07 1.45679E-19 1.35740E-18
 -1       837 9.48880E-05-2.80877E-05-2.86287E-05 3.20906E-07 6.29263E-19 1.61379E-18
 -1       838 9.46450E-05-2.78088E-05-2.86441E-05 3.46926E-07-3.37373E-19 1.62576E-18
 -1       839 9.42718E-05-2.74125E-05-2.86540E-05 3.51967E-07-7.83352E-19 1.54659E-18
 -1       840 9.36981E-05-2.68470E-05-2.86505E-05 2.98604E-07-1.22226E-19 1.66516E-18
 -1       841 9.28232E-05-2.60464E-05-2.86187E-05 1.19390E-07-7.09098E-19 8.05718E-19
 -1       842 9.15089E-05-2.49352E-05-2.85318E-05-3.03208E-07-6.97391E-19 7.88035E-19
 -1       843 8.95754E-05-2.34438E-05-2.83423E-05-1.16670E-06-2.36412E-19 4.06184E-20
 -1       844 8.68085E-05-2.15460E-05-2.79697E-05-2.78940E-06-1.61031E-18-1.04946E-18
 -1       845 8.29892E-05-1.93332E-05-2.72786E-05-5.66064E-06-4.60880E-19-1.00169E-18
 -1       846 7.79609E-05-1.71510E-05-2.60445E-05-1.04941E-05-2.50523E-19-1.22529E-18
 -1       847 7.21499E-05-1.59104E-05-2.40402E-05-1.77464E-05 1.48060E-19-1.31141E-18
 -1       848 9.58341E-05-2.91155E-05-2.85937E-05-7.71981E-07-7.71622E-20 5.62474E-19
 -1       849 1.17123E-04-4.81891E-05-2.95816E-05 1.81153E-05 1.52494E-19-8.92768E-20
 -1       850 1.25540E-04-4.47959E-05-3.46346E-05 4.34728E-06 1.03955E-18 6.44173E-19
 -1       851 9.59562E-05-2.91258E-05-2.86416E-05-8.54599E-07-3.46950E-21 4.09911E-19
 -1       852 9.61968E-05-2.89437E-05-2.88228E-05-8.88890E-07 2.60111E-20 3.99417E-19
 -1       853 9.57209E-05-2.90709E-05-2.85643E-05-6.75028E-07 1.34970E-20 6.39851E-19
 -1       854 9.56196E-05-2.90070E-05-2.85482E-05-5.77026E-07 2.61637E-19 5.08152E-19
 -1       855 9.55309E-05-2.89343E-05-2.85414E-05-4.86502E-07 2.91325E-19 4.01163E-19
 -1       856 9.54544E-05-2.88593E-05-2.85408E-05-4.08663E-07-3.07111E-19-3.92134E-20
 -1       857 9.53892E-05-2.87864E-05-2.85441E-05-3.46480E-07-1.65025E-20 6.88577E-19
 -1       858 9.53343E-05-2.87189E-05-2.85494E-05-3.01501E-07-4.55364E-19 9.13981E-19
 -1       859 9.52895E-05-2.86599E-05-2.85555E-05-2.74406E-07-3.73578E-19 1.05664E-18
 -1       860 9.52564E-05-2.86137E-05-2.85611E-05-2.65320E-07-2.91299E-19 1.30967E-18
 -1       861 9.52389E-05-2.85868E-05-2.85652E-05-2.73892E-07 6.65250E-20 2.08100E-19
 -1       862 9.52454E-05-2.85899E-05-2.85666E-05-2.99072E-07-2.14306E-19 1.97288E-19
 -1       863 9.52898E-05-2.86390E-05-2.85646E-05-3.38469E-07 2.28678E-20 8.27683E-19
 -1       864 9.53945E-05-2.87576E-05-2.85587E-05-3.87064E-07-1.09145E-19 1.08801E-18
 -1       865 9.55921E-05-2.89777E-05-2.85490E-05-4.34957E-07-3.57836E-19 1.07889E-18
 -1       866 9.59275E-05-2.93394E-05-2.85377E-05-4.63693E-07-1.01054E-19 1.16728E-18
 -1       867 9.64574E-05-2.98881E-05-2.85297E-05-4.40776E-07 5.44640E-20 5.09883E-19
 -1       868 9.72456E-05-3.06646E-05-2.85348E-05-3.12394E-07 1.51298E-19 7.82770E-19
 -1       869 9.83495E-05-3.16862E-05-2.85701E-05 4.19539E-09-4.27457E-19 1.71653E-18
 -1       870 9.97938E-05-3.29141E-05-2.86630E-05 6.24151E-07-1.51840E-18 1.80143E-18
 -1       871 1.01527E-04-3.42060E-05-2.88524E-05 1.68467E-06-7.91621E-19 1.94494E-18
 -1       872 1.03362E-04-3.52589E-05-2.91880E-05 3.30150E-06-6.03698E-19 2.32267E-18
 -1       873 1.04933E-04-3.55837E-05-2.97201E-05 5.46328E-06 9.44590E-19 1.20249E-18
 -1       874 1.05706E-04-3.45711E-05-3.04877E-05 7.90106E-06 4.53976E-19 1.28184E-18
 -1       875 1.05220E-04-3.18011E-05-3.14694E-05 9.87118E-06 7.42023E-19 2.96345E-18
 -1       876 1.03295E-04-2.73328E-05-3.25585E-05 1.03019E-05-4.32227E-19 2.40364E-18
 -1       877 1.00629E-04-2.23690E-05-3.35396E-05 8.20044E-06 9.61948E-20 7.27663E-19
 -1       878 9.85977E-05-1.89159E-05-3.41459E-05 3.53405E-06-1.28890E-18 5.44520E-19
 -1       879 9.84174E-05-1.86438E-05-3.41832E-05-2.33412E-06 4.21376E-19 4.35591E-19
 -1       880 1.00032E-04-2.15096E-05-3.36713E-05-7.27165E-06 9.34379E-20-9.77596E-19
 -1       881 1.02732E-04-2.64163E-05-3.26817E-05-9.81237E-06 6.26292E-19-8.82522E-19
 -1       882 1.04432E-04-3.08394E-05-3.15519E-05-9.57743E-06 3.25034E-19-2.17669E-18
 -1       883 1.04877E-04-3.35928E-05-3.05323E-05-7.64869E-06 1.28925E-18-1.90346E-19
 -1       884 6.81747E-05-1.65915E-05-2.19565E-05-2.50695E-05 3.31173E-19-1.10370E-18
 -1       885 1.23580E-04-5.05893E-05-3.12848E-05-1.02928E-05-9.99003E-20-1.89065E-18
 -1       886 1.17638E-04-4.54942E-05-3.09064E-05 7.17693E-06 3.36580E-19-2.23908E-18
 -1       887 6.35062E-05-1.53273E-05-2.03197E-05 2.62662E-05 1.50304E-18 5.03993E-18
 -1       888 1.16832E-04-2.37925E-05-3.99953E-05-1.23136E-05 2.20782E-18 8.56827E-20
 -1       889 1.26254E-04-4.81630E-05-3.34945E-05 1.20343E-06 4.84996E-19-4.54762E-19
 -1       890 9.31900E-05-1.97597E-05-3.14704E-05-1.20198E-06 2.46176E-19 3.09395E-19
 -1       891 8.34290E-05-2.85692E-05-2.34123E-05-3.12123E-05-2.93318E-19-2.66474E-18
 -1       892 9.52204E-05-2.39926E-05-3.05265E-05-1.95082E-06 1.06545E-19-1.07071E-19
 -1       893 9.58472E-05-2.57044E-05-3.00627E-05-1.04390E-06 1.83878E-19 1.20493E-19
 -1       894 1.23836E-04-3.66822E-05-3.74088E-05-1.04580E-05 1.77233E-18-1.30971E-18
 -1       895 9.60809E-05-2.90791E-05-2.87151E-05-9.03095E-07 3.43197E-19 5.25932E-19
 -1       896 1.14394E-04-1.78565E-05-4.15135E-05 1.16570E-05 2.24450E-18 9.58868E-19
 -1       897 1.21294E-04-3.84822E-05-3.55224E-05 9.58895E-06 1.56328E-18 8.48049E-19
 -1       898 1.14232E-04-4.15671E-05-3.11413E-05-1.88062E-07-2.08142E-18-1.31127E-18
 -1       899 9.62848E-05-2.86747E-05-2.89758E-05-7.72800E-07-2.22672E-19 4.24707E-19
 -1       900 9.45258E-05-2.22592E-05-3.09714E-05 4.27251E-07 3.21580E-19 2.73365E-19
 -1       901 1.07693E-04-1.30762E-05-4.06738E-05 5.00604E-06 1.35647E-18 5.82368E-20
 -1       902 1.09874E-04-3.74166E-05-3.10428E-05-4.93675E-06-1.39852E-18-9.82691E-19
 -1       903 1.08427E-04-1.63170E-05-3.95088E-05-8.38796E-06 3.43690E-19 5.39932E-19
 -1       904 9.59892E-05-2.63351E-05-2.98506E-05 7.49990E-07 4.93059E-19 3.50639E-19
 -1       905 9.62363E-05-2.74635E-05-2.94741E-05-1.97417E-08 3.31086E-19 5.16522E-19
 -1       906 9.46805E-05-2.26086E-05-3.08877E-05 1.21362E-06 5.60723E-19 3.58188E-19
 -1       907 1.13029E-04-2.90708E-05-3.60172E-05-1.17118E-05 1.77947E-18-1.12979E-18
 -1       908 9.66461E-05-2.81008E-05-2.93765E-05 3.07239E-07 3.56220E-20 8.07880E-20
 -1       909 9.66686E-05-2.86864E-05-2.91352E-05 5.31056E-07 7.65850E-20 5.29980E-19
 -1       910 9.65897E-05-2.90311E-05-2.89537E-05 6.36482E-07 1.28139E-19 8.59137E-19
 -1       911 9.64551E-05-2.92079E-05-2.88202E-05 6.61431E-07-8.23357E-20 4.23098E-19
 -1       912 9.62955E-05-2.92716E-05-2.87245E-05 6.35480E-07-1.65422E-20 4.42830E-19
 -1       913 9.61308E-05-2.92622E-05-2.86580E-05 5.80648E-07 3.34190E-19 8.63332E-19
 -1       914 9.59730E-05-2.92079E-05-2.86136E-05 5.12745E-07 3.33100E-19 1.09809E-18
 -1       915 9.58284E-05-2.91281E-05-2.85858E-05 4.42498E-07 6.05195E-19 1.21334E-18
 -1       916 9.56993E-05-2.90354E-05-2.85703E-05 3.76872E-07 5.95727E-19 9.36324E-19
 -1       917 9.55853E-05-2.89368E-05-2.85636E-05 3.20061E-07 1.20356E-19 1.10226E-18
 -1       918 9.54835E-05-2.88357E-05-2.85634E-05 2.74244E-07 3.23211E-19 5.62240E-19
 -1       919 9.53896E-05-2.87318E-05-2.85677E-05 2.40020E-07-4.94478E-19 9.02635E-19
 -1       920 9.52973E-05-2.86220E-05-2.85751E-05 2.16512E-07 6.96283E-19 6.77450E-19
 -1       921 9.51979E-05-2.85004E-05-2.85846E-05 2.01086E-07 3.46759E-19 9.63346E-19
 -1       922 9.50795E-05-2.83577E-05-2.85951E-05 1.88527E-07 2.86785E-19 1.92579E-18
 -1       923 9.49260E-05-2.81807E-05-2.86051E-05 1.69466E-07 8.43739E-19 1.99141E-18
 -1       924 9.47145E-05-2.79516E-05-2.86127E-05 1.27660E-07 9.26125E-20 1.56965E-18
 -1       925 9.44137E-05-2.76475E-05-2.86141E-05 3.55834E-08-7.50408E-19 1.83169E-18
 -1       926 9.39813E-05-2.72404E-05-2.86033E-05-1.52491E-07-3.31800E-19 1.29549E-18
 -1       927 9.33629E-05-2.67004E-05-2.85696E-05-5.10941E-07-7.29264E-19 8.76707E-19
 -1       928 9.24938E-05-2.60039E-05-2.84956E-05-1.15783E-06-6.65953E-19 6.20187E-19
 -1       929 9.13088E-05-2.51518E-05-2.83529E-05-2.27515E-06-1.20637E-18 5.86513E-19
 -1       930 8.97660E-05-2.42050E-05-2.80972E-05-4.13266E-06-8.60921E-19 5.54576E-21
 -1       931 8.79007E-05-2.33507E-05-2.76633E-05-7.10776E-06-1.43437E-18 2.58745E-19
 -1       932 8.59412E-05-2.30201E-05-2.69614E-05-1.16999E-05-3.88175E-19 4.61296E-19
 -1       933 8.45773E-05-2.39733E-05-2.59576E-05-1.80358E-05-3.42578E-19-3.70359E-19
 -1       934 9.58713E-05-2.91543E-05-2.85930E-05-5.00484E-07 3.21832E-20 6.73480E-19
 -1       935 9.63142E-05-2.82100E-05-2.91875E-05-5.03484E-07 4.96275E-20 6.34613E-19
 -1       936 9.78840E-05-3.59938E-05-2.64843E-05-2.39134E-05-9.61763E-19 2.84269E-19
 -1       937 9.60197E-05-2.92213E-05-2.86279E-05-5.75594E-07 1.18732E-19 4.88808E-19
 -1       938 9.56190E-05-2.89774E-05-2.85607E-05-3.60597E-07 2.73076E-19 1.40828E-18
 -1       939 9.55159E-05-2.88847E-05-2.85562E-05-3.05712E-07-4.92398E-19 1.42330E-18
 -1       940 9.54267E-05-2.87956E-05-2.85562E-05-2.64688E-07-3.34468E-19 6.73254E-19
 -1       941 9.53502E-05-2.87134E-05-2.85586E-05-2.39466E-07-2.14289E-19 2.44900E-19
 -1       942 9.52860E-05-2.86415E-05-2.85619E-05-2.31967E-07-4.71543E-19-4.01627E-19
 -1       943 9.52359E-05-2.85847E-05-2.85648E-05-2.44552E-07-1.42573E-20-3.50571E-19
 -1       944 9.52052E-05-2.85514E-05-2.85659E-05-2.80358E-07-3.89064E-19 4.85338E-19
 -1       945 9.52045E-05-2.85546E-05-2.85642E-05-3.43419E-07-4.33454E-19 9.85574E-19
 -1       946 9.52526E-05-2.86150E-05-2.85589E-05-4.38341E-07-1.12106E-19 1.43393E-18
 -1       947 9.53794E-05-2.87631E-05-2.85498E-05-5.69128E-07-5.43406E-19 1.69386E-18
 -1       948 9.56303E-05-2.90415E-05-2.85380E-05-7.36447E-07-7.24938E-20 1.27843E-18
 -1       949 9.60692E-05-2.95058E-05-2.85272E-05-9.32269E-07 6.75881E-19 1.32459E-18
 -1       950 9.67806E-05-3.02216E-05-2.85253E-05-1.13053E-06-1.92248E-19 1.26566E-18
 -1       951 9.78655E-05-3.12542E-05-2.85477E-05-1.27263E-06-4.77146E-19 1.45863E-18
 -1       952 9.94255E-05-3.26433E-05-2.86211E-05-1.24874E-06-9.04619E-19 1.94210E-18
 -1       953 1.01527E-04-3.43560E-05-2.87879E-05-8.80726E-07-1.27492E-18 1.35011E-18
 -1       954 1.04131E-04-3.62081E-05-2.91110E-05 8.02256E-08-9.92832E-19 1.25492E-18
 -1       955 1.06998E-04-3.77625E-05-2.96732E-05 1.90750E-06-1.03722E-20 1.73641E-18
 -1       956 1.09513E-04-3.82588E-05-3.05363E-05 4.64569E-06-3.12532E-19 3.86688E-18
 -1       957 1.10808E-04-3.64691E-05-3.18550E-05 8.07866E-06 4.20869E-20 3.86771E-18
 -1       958 1.10203E-04-3.21483E-05-3.34680E-05 1.09571E-05 1.05592E-18 2.62589E-18
 -1       959 1.07442E-04-2.53317E-05-3.51952E-05 1.11949E-05 1.22657E-18 1.78299E-18
 -1       960 1.03817E-04-1.84583E-05-3.65970E-05 7.68070E-06 7.24816E-19 2.05779E-19
 -1       961 1.03485E-04-1.78445E-05-3.67718E-05-6.34047E-06 1.14595E-18-4.52044E-19
 -1       962 8.36888E-05-2.55189E-05-2.48869E-05-2.39176E-05 2.53334E-19-1.23529E-18
 -1       963 9.45253E-05-2.22580E-05-3.09731E-05-4.09708E-07 3.53570E-19 2.98243E-19
 -1       964 9.61786E-05-2.92547E-05-2.86817E-05-6.42856E-07-2.61697E-20 4.33441E-19
 -1       965 1.18096E-04-3.93084E-05-3.38060E-05-6.88179E-06 4.76351E-19-3.60470E-19
 -1       966 9.50630E-05-2.34140E-05-3.07069E-05-1.29960E-06 2.72697E-19 1.80502E-19
 -1       967 9.57374E-05-2.90695E-05-2.85719E-05-4.26801E-07 3.41092E-19 1.26065E-18
 -1       968 1.12166E-04-4.46102E-05-2.89316E-05-1.56186E-05-1.48452E-18-2.51106E-18
 -1       969 1.19094E-04-4.50404E-05-3.17608E-05-9.58289E-07 7.06555E-19 3.53449E-19
 -1       970 9.64584E-05-2.71778E-05-2.96920E-05-7.66771E-08-1.80626E-19 9.73744E-20
 -1       971 9.47330E-05-2.28135E-05-3.08186E-05 1.89665E-06 5.77561E-19 5.31989E-19
 -1       972 1.13146E-04-2.64510E-05-3.72012E-05 1.25075E-05 1.95985E-18 1.58058E-18
 -1       973 9.65957E-05-2.88649E-05-2.90275E-05-6.27719E-07-9.61802E-21 3.75389E-19
 -1       974 1.13207E-04-4.33586E-05-2.99156E-05-6.66518E-06-6.05439E-19-1.46510E-20
 -1       975 9.55035E-05-2.45296E-05-3.04196E-05 1.24858E-06 4.84255E-19 3.85703E-19
 -1       976 1.01965E-04-1.53326E-05-3.71353E-05 5.48399E-07 4.57294E-19-1.77330E-18
 -1       977 9.61135E-05-2.60175E-05-3.00405E-05-5.39655E-07 1.31424E-19 1.64907E-20
 -1       978 9.64861E-05-2.91164E-05-2.88727E-05-6.92507E-07 3.09541E-19 2.23358E-19
 -1       979 1.18166E-04-4.21230E-05-3.26049E-05 4.47370E-06 6.57506E-19 7.18500E-19
 -1       980 9.55432E-05-2.43248E-05-3.05225E-05 1.20433E-08 2.89517E-19 3.57697E-19
 -1       981 9.55822E-05-2.44696E-05-3.04784E-05 4.88463E-07 5.34910E-19 4.04888E-19
 -1       982 9.63390E-05-2.92309E-05-2.87606E-05-6.88433E-07 2.53019E-19 4.53617E-19
 -1       983 9.62507E-05-2.65614E-05-2.98667E-05 3.69582E-07 4.38619E-19 4.05897E-19
 -1       984 9.68503E-05-2.88925E-05-2.91248E-05 3.68063E-07 1.93201E-19 9.78982E-19
 -1       985 9.67436E-05-2.91875E-05-2.89527E-05 4.14696E-07-1.09486E-19 8.31464E-19
 -1       986 9.65826E-05-2.93245E-05-2.88249E-05 4.17753E-07-1.56342E-19 7.09998E-19
 -1       987 9.63985E-05-2.93564E-05-2.87323E-05 3.94050E-07 2.15045E-19 2.59061E-19
 -1       988 9.62117E-05-2.93212E-05-2.86673E-05 3.56022E-07 3.10158E-19 1.41963E-19
 -1       989 9.60338E-05-2.92458E-05-2.86234E-05 3.12438E-07 5.45179E-19 1.07633E-19
 -1       990 9.58711E-05-2.91484E-05-2.85954E-05 2.69141E-07 5.27775E-19 9.73918E-20
 -1       991 9.57254E-05-2.90406E-05-2.85792E-05 2.29671E-07 6.10232E-19-1.83188E-19
 -1       992 9.55956E-05-2.89287E-05-2.85715E-05 1.95818E-07 1.56777E-19 8.15724E-19
 -1       993 9.54783E-05-2.88151E-05-2.85700E-05 1.67851E-07 2.61556E-21 9.51354E-19
 -1       994 9.53684E-05-2.86992E-05-2.85725E-05 1.44482E-07-7.16987E-20 1.28055E-18
 -1       995 9.52590E-05-2.85779E-05-2.85776E-05 1.22482E-07 2.96519E-19 7.85661E-19
 -1       996 9.51415E-05-2.84459E-05-2.85838E-05 9.58232E-08 4.04153E-19 4.56364E-19
 -1       997 9.50048E-05-2.82958E-05-2.85896E-05 5.41821E-08 7.78702E-19-2.85332E-19
 -1       998 9.48354E-05-2.81187E-05-2.85929E-05-1.94692E-08 2.28638E-19-7.13375E-19
 -1       999 9.46168E-05-2.79045E-05-2.85910E-05-1.52502E-07 1.67871E-19 1.42151E-19
 -1      1000 9.43299E-05-2.76444E-05-2.85795E-05-3.87900E-07-8.05341E-19 1.00217E-18
 -1      1001 9.39557E-05-2.73347E-05-2.85518E-05-7.91486E-07-8.83609E-19 9.74991E-19
 -1      1002 9.34816E-05-2.69865E-05-2.84978E-05-1.46110E-06-1.17978E-18 4.58487E-19
 -1      1003 9.29156E-05-2.66417E-05-2.84029E-05-2.53669E-06-1.04258E-18-1.32049E-19
 -1      1004 9.23143E-05-2.64030E-05-2.82471E-05-4.20818E-06-1.09572E-18-1.16695E-18
 -1      1005 9.18343E-05-2.64806E-05-2.80074E-05-6.71676E-06-6.73996E-19-7.26215E-19
 -1      1006 9.18103E-05-2.72592E-05-2.76638E-05-1.03218E-05-7.24670E-19 4.07442E-19
 -1      1007 9.28529E-05-2.92830E-05-2.72476E-05-1.49016E-05-2.46488E-19 5.00118E-19
 -1      1008 9.66318E-05-2.84141E-05-2.92362E-05-4.58268E-07 1.44071E-19 5.08029E-19
 -1      1009 9.61054E-05-2.92774E-05-2.86405E-05-3.62513E-07-5.23832E-20 3.60945E-20
 -1      1010 9.55296E-05-2.88778E-05-2.85650E-05-1.94589E-07 2.09598E-19 8.30537E-19
 -1      1011 9.56484E-05-2.89835E-05-2.85707E-05-2.25695E-07-1.01642E-19 1.22809E-18
 -1      1012 9.53336E-05-2.86823E-05-2.85649E-05-1.70220E-07-1.53902E-19 7.45965E-19
 -1      1013 9.52536E-05-2.85979E-05-2.85667E-05-1.83638E-07-2.28982E-19 5.94301E-19
 -1      1014 9.51867E-05-2.85284E-05-2.85678E-05-2.21093E-07-8.38988E-19 7.34674E-19
 -1      1015 9.51382E-05-2.84822E-05-2.85668E-05-2.90856E-07-1.02667E-18 1.04211E-18
 -1      1016 9.51198E-05-2.84740E-05-2.85625E-05-4.04492E-07-3.64426E-19 1.18180E-18
 -1      1017 9.51529E-05-2.85273E-05-2.85538E-05-5.77172E-07-1.70544E-19 7.13805E-19
 -1      1018 9.52731E-05-2.86785E-05-2.85405E-05-8.26941E-07 3.21201E-19-5.65817E-19
 -1      1019 9.55370E-05-2.89811E-05-2.85239E-05-1.17177E-06 6.57191E-19-2.61989E-19
 -1      1020 9.60286E-05-2.95089E-05-2.85083E-05-1.62243E-06-8.35840E-19-3.43130E-20
 -1      1021 9.68662E-05-3.03567E-05-2.85038E-05-2.16828E-06-1.76976E-20 9.77330E-19
 -1      1022 9.82045E-05-3.16320E-05-2.85308E-05-2.75224E-06-7.99447E-19 1.14094E-18
 -1      1023 1.00220E-04-3.34246E-05-2.86264E-05-3.23244E-06-1.68264E-18 1.49943E-18
 -1      1024 1.03069E-04-3.57424E-05-2.88538E-05-3.34166E-06-2.60688E-19 1.32387E-18
 -1      1025 1.06784E-04-3.83870E-05-2.93119E-05-2.65911E-06-1.41800E-18 9.34047E-19
 -1      1026 1.11054E-04-4.08007E-05-3.00922E-05-7.19121E-07-9.01675E-19 1.61857E-18
 -1      1027 9.50511E-05-3.23174E-05-2.68810E-05-1.93488E-05-1.12161E-18 1.27526E-18
 -1      1028 9.62870E-05-2.93337E-05-2.86942E-05-4.09638E-07 4.59908E-20 1.41817E-19
 -1      1029 9.54253E-05-2.87766E-05-2.85638E-05-1.75161E-07-2.18575E-19 5.75760E-19
 -1      1030 9.58742E-05-2.51061E-05-3.03285E-05-4.20347E-07 1.05602E-19 3.80329E-19
 -1      1031 9.57836E-05-2.90898E-05-2.85830E-05-2.66037E-07-5.62875E-20 5.49235E-19
 -1      1032 9.68576E-05-2.83703E-05-2.93517E-05 2.56772E-07 2.17408E-19 1.05293E-18
 -1      1033 9.65433E-05-2.76838E-05-2.95114E-05-1.41776E-07 3.14209E-19 5.42155E-19
 -1      1034 1.06910E-04-4.05130E-05-2.84621E-05-1.47224E-05-1.50862E-18-2.63853E-18
 -1      1035 9.67135E-05-2.75482E-05-2.96440E-05 4.28699E-08 6.63532E-20 7.78416E-19
 -1      1036 9.59261E-05-2.53261E-05-3.02558E-05 5.39602E-07 4.93017E-19 3.07889E-19
 -1      1037 9.59362E-05-2.91910E-05-2.86051E-05-3.12876E-07-2.14869E-19 4.31389E-20
 -1      1038 9.68440E-05-2.86457E-05-2.92279E-05-3.50469E-07 1.59499E-19 5.05510E-19
 -1      1039 9.67821E-05-2.90465E-05-2.90296E-05-4.34188E-07 2.04933E-19 3.62276E-19
 -1      1040 9.64953E-05-2.68692E-05-2.98399E-05 1.25733E-07 2.04733E-19 2.15512E-19
 -1      1041 9.63855E-05-2.64727E-05-2.99609E-05-1.79182E-07 1.42122E-19 3.62846E-19
 -1      1042 9.64735E-05-2.93379E-05-2.87724E-05-4.46269E-07 4.42475E-19 6.29402E-19
 -1      1043 9.62472E-05-2.59102E-05-3.01434E-05-5.31459E-08 2.02598E-19 4.93591E-19
 -1      1044 1.02116E-04-3.63573E-05-2.81842E-05-1.29718E-05-8.76180E-19-2.07724E-18
 -1      1045 9.67804E-05-2.93041E-05-2.89185E-05 1.64275E-07-2.07190E-19 5.31203E-19
 -1      1046 9.65970E-05-2.93919E-05-2.88021E-05 1.59419E-07 1.92592E-19 9.64899E-19
 -1      1047 9.64000E-05-2.93901E-05-2.87185E-05 1.48335E-07 2.81127E-19 1.18943E-18
 -1      1048 9.62028E-05-2.93303E-05-2.86596E-05 1.33390E-07 1.50083E-19 1.04228E-18
 -1      1049 9.60178E-05-2.92379E-05-2.86199E-05 1.16925E-07 1.08575E-19 5.22592E-19
 -1      1050 9.58497E-05-2.91286E-05-2.85948E-05 1.00952E-07 3.96309E-19-1.77773E-19
 -1      1051 9.56994E-05-2.90122E-05-2.85802E-05 8.62012E-08 6.93914E-19-3.67899E-19
 -1      1052 9.55650E-05-2.88939E-05-2.85733E-05 7.23831E-08 1.33218E-19-1.07792E-18
 -1      1053 9.54428E-05-2.87757E-05-2.85716E-05 5.80188E-08 2.23361E-19-1.14875E-18
 -1      1054 9.53279E-05-2.86570E-05-2.85732E-05 4.00005E-08 3.08436E-19-2.13663E-19
 -1      1055 9.52144E-05-2.85361E-05-2.85764E-05 1.28027E-08-3.76780E-21 3.99859E-19
 -1      1056 9.50957E-05-2.84102E-05-2.85795E-05-3.27778E-08-5.72620E-20 1.09076E-19
 -1      1057 9.49654E-05-2.82770E-05-2.85808E-05-1.11503E-07-3.29651E-19-1.01804E-18
 -1      1058 9.48179E-05-2.81359E-05-2.85781E-05-2.46356E-07 4.10713E-19-2.76611E-18
 -1      1059 9.46502E-05-2.79907E-05-2.85685E-05-4.72077E-07 4.53557E-19-2.87892E-18
 -1      1060 9.44664E-05-2.78543E-05-2.85482E-05-8.39475E-07-2.39362E-19-1.40137E-18
 -1      1061 9.42846E-05-2.77563E-05-2.85124E-05-1.41989E-06-9.82373E-19-9.00667E-19
 -1      1062 9.41506E-05-2.77562E-05-2.84551E-05-2.30806E-06-1.21982E-18-1.13726E-20
 -1      1063 9.41596E-05-2.79625E-05-2.83706E-05-3.61943E-06-2.01013E-18 4.54945E-19
 -1      1064 9.44917E-05-2.85606E-05-2.82565E-05-5.47348E-06-1.00375E-18 4.30545E-20
 -1      1065 9.54682E-05-2.98517E-05-2.81221E-05-7.94862E-06 8.82151E-20-1.35214E-18
 -1      1066 9.78724E-05-3.23876E-05-2.80657E-05-1.05529E-05-1.38577E-19-7.42824E-19
 -1      1067 9.56303E-05-2.89569E-05-2.85743E-05-9.37955E-08 3.87245E-19 9.42055E-20
 -1      1068 1.08125E-04-4.00714E-05-2.91656E-05-7.62486E-06-1.87272E-18-4.17706E-19
 -1      1069 9.59301E-05-2.91845E-05-2.86053E-05-1.28705E-07-3.92575E-19 4.97652E-19
 -1      1070 9.69730E-05-2.86455E-05-2.92832E-05 1.21850E-07 1.77392E-19 9.09181E-19
 -1      1071 9.51945E-05-2.85285E-05-2.85712E-05-1.31585E-07 2.48915E-20-8.53623E-19
 -1      1072 9.52899E-05-2.86273E-05-2.85697E-05-9.85144E-08 1.10964E-19-4.26750E-19
 -1      1073 9.50285E-05-2.83677E-05-2.85689E-05-3.01121E-07-8.87015E-19-1.32107E-18
 -1      1074 9.49706E-05-2.83263E-05-2.85618E-05-4.73798E-07-5.26666E-20-1.15589E-18
 -1      1075 9.49529E-05-2.83392E-05-2.85486E-05-7.41618E-07 9.15946E-19-9.09464E-19
 -1      1076 9.50122E-05-2.84461E-05-2.85282E-05-1.14243E-06 7.65174E-20-3.79690E-19
 -1      1077 9.52119E-05-2.87102E-05-2.85005E-05-1.72026E-06-6.64654E-19-5.03685E-20
 -1      1078 9.56544E-05-2.92263E-05-2.84689E-05-2.51733E-06-6.12336E-19 4.44492E-20
 -1      1079 9.64974E-05-3.01294E-05-2.84431E-05-3.55547E-06-1.33288E-18 2.91850E-19
 -1      1080 9.79703E-05-3.15954E-05-2.84462E-05-4.79982E-06-1.40737E-18 2.91660E-19
 -1      1081 1.00370E-04-3.38130E-05-2.85252E-05-6.09469E-06-9.89673E-20-1.07886E-18
 -1      1082 1.03585E-04-3.65714E-05-2.87215E-05-7.19512E-06-1.22746E-18-1.34659E-18
 -1      1083 9.67842E-05-2.79846E-05-2.94860E-05-1.76317E-07 9.17961E-20 4.17545E-19
 -1      1084 9.68936E-05-2.79500E-05-2.95467E-05 4.93025E-08 5.04158E-19 7.09298E-19
 -1      1085 9.60631E-05-2.55374E-05-3.02245E-05 2.43286E-07 4.13333E-19 7.46827E-19
 -1      1086 9.62985E-05-2.93626E-05-2.86868E-05-1.72527E-07 1.14950E-19 5.88539E-19
 -1      1087 9.53926E-05-2.87327E-05-2.85685E-05-8.50828E-08 2.44551E-19 1.81466E-19
 -1      1088 9.51063E-05-2.84396E-05-2.85714E-05-1.94180E-07-6.62256E-19-1.35397E-18
 -1      1089 9.57713E-05-2.90722E-05-2.85853E-05-1.09092E-07-2.70332E-19-2.09448E-20
 -1      1090 9.69206E-05-2.90765E-05-2.90761E-05 1.53212E-07-4.45549E-19 6.19904E-19
 -1      1091 9.66469E-05-2.92572E-05-2.88813E-05-4.58780E-07 5.05246E-20 7.07532E-19
 -1      1092 9.55051E-05-2.88430E-05-2.85695E-05-8.48812E-08-3.75605E-19 6.08626E-19
 -1      1093 9.61068E-05-2.92856E-05-2.86376E-05-1.50656E-07-2.55497E-19 6.87318E-19
 -1      1094 9.66276E-05-2.69900E-05-2.98460E-05 2.97598E-08 1.55986E-19 8.16703E-19
 -1      1095 9.69523E-05-2.88731E-05-2.91768E-05-1.74945E-07 7.79431E-20 3.92638E-19
 -1      1096 9.69401E-05-2.83079E-05-2.94132E-05-1.17703E-07 2.57638E-19 2.34569E-19
 -1      1097 9.64983E-05-2.93959E-05-2.87582E-05-1.90283E-07 4.67014E-19 5.99584E-19
 -1      1098 9.67072E-05-2.93672E-05-2.88599E-05-9.89579E-08 2.92177E-19 9.37985E-19
 -1      1099 9.68542E-05-2.91994E-05-2.89948E-05-2.01061E-07-4.11684E-20 7.06986E-19
 -1      1100 1.16703E-04 2.57153E-10-4.17903E-05-4.15664E-05-6.31040E-20 1.31078E-18
 -1      1101 8.86269E-05 7.14921E-11-3.72480E-05-2.41205E-05-3.13402E-20-8.60797E-20
 -1      1102 8.40812E-05 4.13883E-11-3.57698E-05-1.78710E-05-2.35052E-20-6.19419E-19
 -1      1103 8.23369E-05 3.20323E-11-3.50740E-05-1.38354E-05-3.62636E-21-7.55911E-19
 -1      1104 8.15339E-05 2.73390E-11-3.47386E-05-1.05309E-05 4.39398E-21-7.36714E-19
 -1      1105 8.11280E-05 2.46023E-11-3.45727E-05-7.63835E-06 1.09453E-20-6.99365E-19
 -1      1106 8.09174E-05 2.29423E-11-3.44888E-05-4.97844E-06 5.09212E-21-6.12431E-19
 -1      1107 8.08146E-05 2.20446E-11-3.44492E-05-2.43225E-06 7.26430E-21-4.60627E-19
 -1      1108 8.07852E-05 2.17727E-11-3.44380E-05 5.06946E-08 1.10247E-20-3.29995E-19
 -1      1109 8.08187E-05 2.20877E-11-3.44505E-05 2.53611E-06 1.66693E-20-1.90116E-19
 -1      1110 8.09259E-05 2.30399E-11-3.44915E-05 5.09045E-06 2.16258E-20 1.11173E-21
 -1      1111 8.11427E-05 2.47583E-11-3.45766E-05 7.76621E-06 2.01501E-20 1.90768E-19
 -1      1112 8.15531E-05 2.76323E-11-3.47445E-05 1.06858E-05 2.22876E-20 5.15658E-19
 -1      1113 8.23609E-05 3.25098E-11-3.50829E-05 1.40351E-05 2.68404E-20 9.41153E-19
 -1      1114 8.40771E-05 4.19219E-11-3.57873E-05 1.81239E-05 2.92226E-20 1.63477E-18
 -1      1115 8.83497E-05 6.67556E-11-3.73228E-05 2.40049E-05 8.68209E-21 2.71231E-18
 -1      1116 1.06621E-04 1.63939E-10-4.06355E-05 3.61879E-05-2.62580E-20 4.29033E-18
 -1      1117 1.31352E-04-2.57152E-05-4.04287E-05-2.70433E-05-2.59721E-19 2.19509E-18
 -1      1118 9.82487E-05-2.90550E-05-3.18623E-05-9.21860E-07-9.89440E-20 1.65563E-18
 -1      1119 9.03434E-05-2.70638E-05-2.80047E-05 3.89099E-07-3.83679E-20 1.00978E-18
 -1      1120 8.83140E-05-2.65905E-05-2.66797E-05 2.56221E-07-1.94189E-20 5.99699E-19
 -1      1121 8.79066E-05-2.64516E-05-2.63959E-05 1.68919E-07 1.11190E-20 1.16388E-19
 -1      1122 8.82452E-05-2.65221E-05-2.64717E-05 1.20011E-07-3.40608E-20-2.06438E-19
 -1      1123 8.89257E-05-2.67044E-05-2.66721E-05 8.88882E-08-9.99983E-20-6.73881E-19
 -1      1124 8.97426E-05-2.69366E-05-2.69153E-05 6.73924E-08-4.08973E-20-1.39301E-18
 -1      1125 9.05827E-05-2.71812E-05-2.71657E-05 5.15482E-08-1.54393E-20-1.70509E-18
 -1      1126 9.13818E-05-2.74166E-05-2.74045E-05 3.93926E-08 1.94122E-20-1.58029E-18
 -1      1127 9.21055E-05-2.76311E-05-2.76215E-05 2.98811E-08 1.12222E-20-1.38086E-18
 -1      1128 9.27381E-05-2.78195E-05-2.78118E-05 2.23902E-08-7.01821E-21-7.68130E-19
 -1      1129 9.32759E-05-2.79801E-05-2.79740E-05 1.64993E-08-4.49399E-20-7.15458E-19
 -1      1130 9.37224E-05-2.81139E-05-2.81090E-05 1.18941E-08 6.39458E-20-8.54047E-19
 -1      1131 9.40856E-05-2.82229E-05-2.82191E-05 8.32307E-09-3.54619E-20-8.71367E-19
 -1      1132 9.43758E-05-2.83102E-05-2.83073E-05 5.57681E-09-6.00085E-20-2.43504E-18
 -1      1133 9.46041E-05-2.83791E-05-2.83768E-05 3.47789E-09 1.13239E-19-3.71597E-18
 -1      1134 9.47818E-05-2.84328E-05-2.84311E-05 1.87473E-09 5.19574E-20-3.17014E-18
 -1      1135 9.49198E-05-2.84747E-05-2.84734E-05 6.37361E-10-9.91181E-20-3.26634E-18
 -1      1136 9.50288E-05-2.85080E-05-2.85069E-05-3.45614E-10 3.28578E-20-4.26084E-18
 -1      1137 9.51195E-05-2.85359E-05-2.85350E-05-1.16875E-09 1.20109E-19-4.17264E-18
 -1      1138 9.52035E-05-2.85619E-05-2.85612E-05-1.90831E-09 9.32738E-20-3.41339E-18
 -1      1139 9.52943E-05-2.85903E-05-2.85898E-05-2.61401E-09 2.78496E-19-5.93625E-19
 -1      1140 9.54100E-05-2.86265E-05-2.86263E-05-3.28654E-09-1.53589E-19-4.19787E-19
 -1      1141 9.55765E-05-2.86787E-05-2.86793E-05-3.82557E-09-6.29098E-20-2.09762E-18
 -1      1142 9.58340E-05-2.87593E-05-2.87614E-05-3.91794E-09-1.32824E-19-1.40084E-18
 -1      1143 9.62467E-05-2.88881E-05-2.88936E-05-2.80365E-09 3.64559E-20-3.84359E-18
 -1      1144 9.69200E-05-2.90975E-05-2.91101E-05 1.20773E-09 3.35347E-20-4.16174E-18
 -1      1145 9.80283E-05-2.94405E-05-2.94680E-05 1.17299E-08-6.84724E-20-3.09896E-18
 -1      1146 9.98611E-05-3.00045E-05-3.00625E-05 3.63146E-08 4.23847E-20-1.71803E-18
 -1      1147 1.02896E-04-3.09319E-05-3.10514E-05 9.04065E-08-1.55811E-19-1.77164E-18
 -1      1148 1.07909E-04-3.24519E-05-3.26863E-05 2.04472E-07 1.88266E-21-3.39168E-18
 -1      1149 1.16102E-04-3.49205E-05-3.53375E-05 4.34175E-07-4.22061E-20-2.48043E-18
 -1      1150 1.29169E-04-3.88485E-05-3.94478E-05 8.63493E-07 8.88392E-20-1.42662E-18
 -1      1151 1.48906E-04-4.48132E-05-4.52671E-05 1.55187E-06-2.69859E-20-1.15324E-18
 -1      1152 1.75310E-04-5.28734E-05-5.21515E-05 2.22557E-06 7.57333E-20 6.60686E-19
 -1      1153 2.00993E-04-6.08128E-05-5.75288E-05 1.52343E-06 1.44869E-19 2.11123E-18
 -1      1154 2.07394E-04-6.22508E-05-5.79995E-05-2.70993E-06 1.47807E-19 2.71262E-18
 -1      1155 1.74388E-04-5.06704E-05-5.22030E-05-9.84979E-06 8.99443E-20-9.86793E-19
 -1      1156 1.11680E-04-2.97292E-05-4.37730E-05-1.03610E-05-9.34383E-19-9.39614E-18
 -1      1157 7.71646E-05-1.99696E-05-3.89626E-05-3.28114E-07 1.48443E-19-1.38424E-17
 -1      1158 1.10974E-04-3.00889E-05-4.31825E-05 9.51672E-06 2.98367E-19-1.00255E-17
 -1      1159 1.72697E-04-5.07879E-05-5.13332E-05 7.55269E-06 1.53445E-19-5.73018E-18
 -1      1160 2.04186E-04-6.14289E-05-5.70091E-05 2.11046E-06 2.17462E-19-2.28191E-18
 -1      1161 1.98629E-04-6.03648E-05-5.67056E-05-9.15817E-07-3.01716E-19 1.26526E-19
 -1      1162 1.72110E-04-5.20006E-05-5.11008E-05-1.73424E-06-4.42045E-21 1.38977E-18
 -1      1163 1.44353E-04-4.33720E-05-4.38348E-05-1.33963E-06 7.37514E-20-2.70394E-18
 -1      1164 1.22750E-04-3.68245E-05-3.74941E-05-8.73285E-07-3.79868E-19-3.05461E-18
 -1      1165 1.07683E-04-3.23064E-05-3.28952E-05-5.52171E-07-2.19719E-19-5.40608E-18
 -1      1166 9.83169E-05-2.94954E-05-3.00266E-05-2.67697E-07 1.12953E-19-4.22751E-18
 -1      1167 9.51194E-05-2.88042E-05-2.85645E-05 4.30530E-07-9.07632E-20-1.53294E-18
 -1      1168 1.31056E-04-3.77385E-05-3.86609E-05 1.21735E-05-7.62330E-20 5.38247E-18
 -1      1169 9.65657E-05-2.81932E-05-3.13317E-05 8.01502E-07-2.21023E-20 5.43340E-18
 -1      1170 9.03810E-05-2.69374E-05-2.78735E-05 1.19501E-07-1.58819E-22 5.09739E-18
 -1      1171 8.83495E-05-2.65094E-05-2.66814E-05 7.20457E-09-2.32471E-20 5.28125E-18
 -1      1172 8.79516E-05-2.64194E-05-2.64195E-05-2.72075E-08-1.50563E-20 5.10295E-18
 -1      1173 8.82951E-05-2.65137E-05-2.64952E-05-3.49574E-08 4.17263E-20 4.38676E-18
 -1      1174 8.89773E-05-2.67087E-05-2.66937E-05-3.57426E-08 4.00591E-20 4.48082E-18
 -1      1175 8.97928E-05-2.69471E-05-2.69350E-05-3.37980E-08 6.07424E-20 4.62002E-18
 -1      1176 9.06293E-05-2.71942E-05-2.71835E-05-3.06655E-08-8.22861E-20 4.34431E-18
 -1      1177 9.14237E-05-2.74302E-05-2.74203E-05-2.69905E-08 1.62352E-20 4.13058E-18
 -1      1178 9.21423E-05-2.76443E-05-2.76352E-05-2.31645E-08 3.19916E-20 3.77507E-18
 -1      1179 9.27702E-05-2.78317E-05-2.78236E-05-1.94399E-08-2.99939E-20 3.62475E-18
 -1      1180 9.33038E-05-2.79912E-05-2.79841E-05-1.59728E-08 1.07626E-19 3.22850E-18
 -1      1181 9.37474E-05-2.81240E-05-2.81179E-05-1.28504E-08-1.61424E-21 3.17879E-18
 -1      1182 9.41091E-05-2.82324E-05-2.82273E-05-1.01119E-08-7.64019E-20 3.68723E-18
 -1      1183 9.43997E-05-2.83195E-05-2.83154E-05-7.76359E-09 4.67826E-20 3.74715E-18
 -1      1184 9.46306E-05-2.83888E-05-2.83856E-05-5.79302E-09-6.75057E-21 3.64519E-18
 -1      1185 9.48135E-05-2.84438E-05-2.84413E-05-4.18067E-09 2.24577E-19 3.51449E-18
 -1      1186 9.49596E-05-2.84877E-05-2.84860E-05-2.91098E-09-2.90609E-20 2.82452E-18
 -1      1187 9.50790E-05-2.85236E-05-2.85226E-05-1.98290E-09-2.24557E-20 3.02068E-18
 -1      1188 9.51812E-05-2.85543E-05-2.85539E-05-1.41988E-09-1.34981E-20 3.39587E-18
 -1      1189 9.52738E-05-2.85820E-05-2.85823E-05-1.27910E-09 2.00586E-19 3.11566E-18
 -1      1190 9.53624E-05-2.86084E-05-2.86092E-05-1.65821E-09-3.91267E-20 3.19731E-18
 -1      1191 9.54494E-05-2.86341E-05-2.86353E-05-2.69587E-09 4.70719E-20 2.62417E-18
 -1      1192 9.55322E-05-2.86581E-05-2.86596E-05-4.55930E-09-1.72348E-19 3.41203E-18
 -1      1193 9.56005E-05-2.86773E-05-2.86785E-05-7.40851E-09 1.59621E-19 3.23595E-18
 -1      1194 9.56326E-05-2.86851E-05-2.86851E-05-1.13230E-08-3.60097E-19 4.14443E-18
 -1      1195 9.55913E-05-2.86703E-05-2.86678E-05-1.61766E-08 2.55667E-19 1.60878E-18
 -1      1196 9.54190E-05-2.86156E-05-2.86087E-05-2.14538E-08 6.88173E-21-3.11025E-19
 -1      1197 9.50342E-05-2.84969E-05-2.84832E-05-2.60275E-08 1.44268E-19-1.48256E-18
 -1      1198 9.43319E-05-2.82832E-05-2.82600E-05-2.79676E-08-3.10125E-19 5.53529E-19
 -1      1199 9.31910E-05-2.79392E-05-2.79046E-05-2.45300E-08-2.28564E-19 3.52147E-19
 -1      1200 9.14939E-05-2.74307E-05-2.73846E-05-1.25486E-08 4.00613E-19-3.10604E-18
 -1      1201 8.91591E-05-2.67343E-05-2.66800E-05 1.05587E-08-1.46233E-19-2.91103E-18
 -1      1202 8.61882E-05-2.58509E-05-2.57967E-05 4.51468E-08-1.84891E-20-1.49853E-18
 -1      1203 8.27138E-05-2.48196E-05-2.47782E-05 8.75582E-08-1.04657E-19-1.00879E-18
 -1      1204 7.90301E-05-2.37263E-05-2.37126E-05 1.29259E-07 3.65114E-19-3.55907E-18
 -1      1205 7.55800E-05-2.27008E-05-2.27268E-05 1.58231E-07 1.36628E-19-4.06716E-18
 -1      1206 7.28813E-05-2.18957E-05-2.19645E-05 1.63035E-07 1.24057E-19-3.93952E-18
 -1      1207 7.14014E-05-2.14499E-05-2.15524E-05 1.38136E-07-3.80401E-19-3.05498E-18
 -1      1208 7.14199E-05-2.14487E-05-2.15648E-05 8.74395E-08 8.32772E-20-2.45815E-18
 -1      1209 7.29417E-05-2.18964E-05-2.20024E-05 2.33586E-08-2.73745E-19 4.24416E-19
 -1      1210 7.57013E-05-2.27162E-05-2.27934E-05-3.84704E-08-7.13526E-20 2.25665E-18
 -1      1211 7.92557E-05-2.37767E-05-2.38175E-05-8.57460E-08-1.77875E-19 2.03741E-18
 -1      1212 8.31196E-05-2.49321E-05-2.49398E-05-1.13882E-07 2.30508E-19-5.85406E-19
 -1      1213 8.68782E-05-2.60565E-05-2.60398E-05-1.26414E-07 3.56390E-19-4.14533E-18
 -1      1214 9.02316E-05-2.70586E-05-2.70219E-05-1.31367E-07-3.42363E-19-3.39568E-18
 -1      1215 9.29511E-05-2.78684E-05-2.78094E-05-1.30553E-07-1.08731E-19-2.62093E-18
 -1      1216 9.47625E-05-2.84065E-05-2.83402E-05-9.75377E-08 8.34576E-19-5.17381E-18
 -1      1217 9.53374E-05-2.86073E-05-2.86320E-05 3.84808E-08 1.92726E-19-5.60459E-18
 -1      1218 9.51947E-05-2.84714E-05-2.86276E-05 2.84341E-08-6.04996E-18-3.60035E-19
 -1      1219 9.54181E-05-2.91059E-05-2.83250E-05-3.21407E-08-8.16442E-18-6.99133E-21
 -1      1220 9.59312E-05-3.08583E-05-2.78293E-05-1.30822E-07-3.87561E-18 2.90370E-19
 -1      1221 9.65845E-05-3.31225E-05-2.72219E-05-1.54574E-07 2.57048E-18 4.79406E-19
 -1      1222 9.71677E-05-3.51391E-05-2.66904E-05-1.31207E-07 6.99980E-19-7.03956E-19
 -1      1223 9.74579E-05-3.61808E-05-2.64431E-05-6.82625E-08-4.68398E-18-7.94365E-19
 -1      1224 9.72775E-05-3.56243E-05-2.66582E-05 2.77501E-08-5.31953E-18 1.45001E-19
 -1      1225 9.64857E-05-3.29852E-05-2.74610E-05 1.58397E-07-2.24215E-18-1.17990E-18
 -1      1226 9.50637E-05-2.81754E-05-2.88514E-05 2.94077E-07-1.37579E-18 5.86084E-19
 -1      1227 9.31828E-05-2.17544E-05-3.06457E-05 3.85712E-07 2.59891E-18 6.16623E-19
 -1      1228 9.12390E-05-1.50658E-05-3.24577E-05 3.70281E-07-2.76832E-18-1.20294E-18
 -1      1229 8.98071E-05-1.00823E-05-3.37608E-05 2.03845E-07-1.08176E-17 3.33360E-19
 -1      1230 8.94057E-05-8.63906E-06-3.41024E-05-8.35102E-08-7.63706E-18 8.20332E-19
 -1      1231 9.02993E-05-1.16808E-05-3.32906E-05-4.13211E-07-4.38128E-19 1.62229E-18
 -1      1232 9.22134E-05-1.83046E-05-3.16046E-05-5.56589E-07 3.14371E-18-1.12358E-18
 -1      1233 9.43791E-05-2.55116E-05-2.97810E-05-2.01490E-07 2.53289E-18-8.88865E-19
 -1      1234 9.51368E-05-2.87867E-05-2.85073E-05 4.57822E-07-8.62346E-19 7.36545E-19
 -1      1235 3.60340E-05-1.16034E-04 2.10327E-05-1.38659E-05-1.14426E-17-7.24293E-19
 -1      1236 1.62359E-05-5.81228E-05 7.87476E-06-2.03601E-05-8.53979E-18-3.56474E-18
 -1      1237 9.65037E-06 4.51729E-06-1.10712E-05 1.32280E-05-8.25010E-19 5.52265E-19
 -1      1238 4.35489E-05 3.39490E-05-3.26142E-05 7.07348E-05 7.20317E-18 6.63735E-18
 -1      1239 1.28034E-04 1.49932E-05-5.46301E-05 1.19918E-04 5.28803E-18 7.55215E-18
 -1      1240 2.37290E-04-3.90443E-05-7.33925E-05 1.20008E-04 2.82316E-18 5.83860E-18
 -1      1241 3.22090E-04-9.02806E-05-8.44918E-05 6.60991E-05 6.71485E-19-5.36595E-19
 -1      1242 3.39274E-04-1.00878E-04-8.67401E-05-2.27209E-05-2.16523E-20-2.07650E-18
 -1      1243 2.84019E-04-6.58291E-05-7.98467E-05-9.91750E-05 9.46983E-19-3.56177E-18
 -1      1244 1.84733E-04-1.04914E-05-6.51421E-05-1.28297E-04 3.47368E-18-5.97328E-18
 -1      1245 8.64052E-05 2.99871E-05-4.58568E-05-1.03732E-04 6.17233E-18-7.33531E-18
 -1      1246 2.45658E-05 2.80879E-05-2.42254E-05-4.77044E-05 5.54298E-18-5.57941E-18
 -1      1247 8.30339E-06-1.66849E-05-3.39404E-06 3.99521E-06 1.37219E-19-7.18284E-19
 -1      1248 2.24355E-05-7.77968E-05 1.27694E-05 2.22233E-05-1.02152E-18 7.05155E-19
 -1      1249 4.03141E-05-1.24215E-04 2.24500E-05 6.67349E-06-5.51418E-19-2.30446E-19
 -1      1250 4.01210E-05-1.31298E-04 2.43250E-05-2.63423E-05-4.82491E-18-1.40600E-18
 -1      1251 2.00547E-05-9.38694E-05 1.71274E-05-4.61152E-05-1.12300E-17-4.28980E-18
 -1      1252 4.15673E-06-3.51742E-05 6.05003E-07-2.89808E-05-8.37716E-18-4.72898E-18
 -1      1253 3.36760E-05 7.64395E-06-2.46854E-05 3.32384E-05-2.38355E-18-2.91718E-18
 -1      1254 1.38851E-04-4.03450E-06-5.38089E-05 1.02144E-04-4.06068E-18-6.90332E-18
 -1      1255 2.94855E-04-6.64566E-05-7.90365E-05 1.16877E-04-1.69152E-18-3.53213E-18
 -1      1256 4.18491E-04-1.27069E-04-9.42023E-05 5.33733E-05-1.67554E-19 6.24941E-18
 -1      1257 4.24254E-04-1.29476E-04-9.47305E-05-5.00729E-05-6.97585E-19 1.19406E-17
 -1      1258 3.13183E-04-7.37374E-05-8.18981E-05-1.16611E-04-1.50857E-18 6.64921E-18
 -1      1259 1.67422E-04-1.22650E-05-5.93746E-05-1.12334E-04 4.91279E-19 7.52165E-19
 -1      1260 5.60561E-05 1.35283E-05-3.40970E-05-5.84811E-05 5.95803E-18-5.80218E-18
 -1      1261 8.85091E-06-8.95262E-06-1.04467E-05 2.78922E-06 7.10830E-18-6.37985E-18
 -1      1262 8.51700E-06-6.07331E-05 8.84346E-06 4.11216E-05 4.12674E-18-3.08151E-18
 -1      1263 2.87470E-05-1.11923E-04 2.08728E-05 4.28171E-05 3.65156E-18-7.03249E-19
 -1      1264 4.31403E-05-1.36575E-04 2.50845E-05 1.68875E-05-4.01790E-18-9.38513E-19
 -1      1265 1.04689E-04-2.18764E-05-3.80295E-05-1.76539E-05-8.83032E-20 9.71547E-19
 -1      1266 9.03151E-05-6.65487E-06-3.60217E-05-2.04914E-05-1.41666E-19-2.92703E-19
 -1      1267 9.25336E-05-6.54927E-06-3.71980E-05-2.57948E-05-2.40346E-19-1.84759E-20
 -1      1268 8.59033E-05-4.08949E-06-3.51318E-05-1.64335E-05-1.20835E-19-6.55683E-19
 -1      1269 8.71604E-05-4.07979E-06-3.56025E-05-1.88473E-05-1.44366E-19-5.12826E-19
 -1      1270 9.21445E-05-1.04618E-05-3.50948E-05-1.90559E-05-2.19540E-19-1.63530E-19
 -1      1271 8.41018E-05-3.19231E-06-3.46874E-05-1.28189E-05-5.32837E-20-7.76279E-19
 -1      1272 8.47095E-05-3.16035E-06-3.49122E-05-1.46344E-05-8.52327E-20-7.51159E-19
 -1      1273 8.78703E-05-7.39160E-06-3.45750E-05-1.54208E-05-1.62392E-19-5.05070E-19
 -1      1274 8.31854E-05-2.72789E-06-3.44695E-05-9.68409E-06 1.43665E-20-7.71938E-19
 -1      1275 8.35026E-05-2.71124E-06-3.45795E-05-1.12316E-05-1.05482E-20-7.80448E-19
 -1      1276 8.58706E-05-5.98668E-06-3.43049E-05-1.19561E-05-4.69177E-20-6.56424E-19
 -1      1277 8.26901E-05-2.45661E-06-3.43626E-05-6.91378E-06 7.33511E-20-6.67674E-19
 -1      1278 8.28607E-05-2.44812E-06-3.44173E-05-8.28443E-06 4.29406E-20-7.03990E-19
 -1      1279 8.48189E-05-5.21643E-06-3.41721E-05-8.94242E-06 2.88984E-20-5.63250E-19
 -1      1280 8.24129E-05-2.29077E-06-3.43091E-05-4.29450E-06 1.00679E-19-5.40672E-19
 -1      1281 8.25048E-05-2.28683E-06-3.43367E-05-5.59533E-06 1.09519E-19-6.26804E-19
 -1      1282 8.42304E-05-4.76014E-06-3.41082E-05-6.21586E-06 1.14192E-19-5.08246E-19
 -1      1283 8.22792E-05-2.20104E-06-3.42864E-05-1.79072E-06 1.99694E-19-4.36923E-19
 -1      1284 8.23186E-05-2.19947E-06-3.42977E-05-3.04117E-06 1.76236E-19-4.80466E-19
 -1      1285 8.39059E-05-4.49572E-06-3.40787E-05-3.64460E-06 2.10391E-19-3.29986E-19
 -1      1286 8.22528E-05-2.17338E-06-3.42836E-05 6.67705E-07 2.15118E-19-2.86972E-19
 -1      1287 8.22514E-05-2.17343E-06-3.42833E-05-5.67507E-07 2.13281E-19-3.65601E-19
 -1      1288 8.37634E-05-4.37559E-06-3.40675E-05-1.17166E-06 3.57359E-19-2.49478E-19
 -1      1289 8.23269E-05-2.20370E-06-3.42991E-05 3.14493E-06 2.72372E-19-1.07851E-19
 -1      1290 8.22847E-05-2.20532E-06-3.42872E-05 1.89193E-06 2.59567E-19-1.97597E-19
 -1      1291 8.37682E-05-4.37970E-06-3.40678E-05 1.27128E-06 3.81484E-19-8.74826E-20
 -1      1292 8.25213E-05-2.29692E-06-3.43391E-05 5.70805E-06 3.40292E-19 8.04681E-21
 -1      1293 8.24261E-05-2.30029E-06-3.43109E-05 4.40143E-06 3.12367E-19-7.79535E-20
 -1      1294 8.39210E-05-4.50888E-06-3.40797E-05 3.74840E-06 4.93718E-19-1.74701E-21
 -1      1295 8.28824E-05-2.46283E-06-3.44199E-05 8.38893E-06 3.50830E-19 2.69621E-19
 -1      1296 8.27089E-05-2.47155E-06-3.43647E-05 7.00958E-06 3.52071E-19 1.32322E-19
 -1      1297 8.42550E-05-4.78246E-06-3.41092E-05 6.30589E-06 5.43868E-19 1.71259E-19
 -1      1298 8.35426E-05-2.74014E-06-3.45840E-05 1.13881E-05 4.35044E-19 5.53589E-19
 -1      1299 8.32201E-05-2.75727E-06-3.44729E-05 9.82363E-06 3.97808E-19 3.85638E-19
 -1      1300 8.48593E-05-5.25585E-06-3.41729E-05 9.04827E-06 6.19287E-19 4.27196E-19
 -1      1301 8.47701E-05-3.20569E-06-3.49192E-05 1.48359E-05 4.34740E-19 1.02401E-18
 -1      1302 8.41541E-05-3.24043E-06-3.46921E-05 1.29953E-05 4.05213E-19 7.41961E-19
 -1      1303 8.59451E-05-6.06173E-06-3.43062E-05 1.21143E-05 6.74304E-19 6.98379E-19
 -1      1304 8.72558E-05-4.08984E-06-3.56212E-05 1.90870E-05 3.77565E-19 1.76172E-18
 -1      1305 8.59761E-05-4.15508E-06-3.51378E-05 1.66896E-05 3.74521E-19 1.33638E-18
 -1      1306 8.79918E-05-7.51968E-06-3.45757E-05 1.56448E-05 6.39576E-19 1.22409E-18
 -1      1307 9.34728E-05-6.79469E-06-3.71194E-05 2.50901E-05 2.17899E-19 2.86043E-18
 -1      1308 9.01369E-05-6.43782E-06-3.60411E-05 2.11417E-05 2.44845E-19 2.21939E-18
 -1      1309 9.23610E-05-1.06969E-05-3.50797E-05 1.96726E-05 5.02555E-19 1.93039E-18
 -1      1310 1.23632E-04-2.49251E-05-3.90175E-05 2.83634E-05-2.68933E-20 4.27159E-18
 -1      1311 1.00089E-04-1.44257E-05-3.73570E-05 2.40459E-05 5.15631E-20 3.34387E-18
 -1      1312 1.01692E-04-1.93469E-05-3.54057E-05 2.13946E-05 3.05077E-19 2.90808E-18
 -1      1313 1.02613E-04-2.78077E-05-3.47609E-05 7.32573E-06 1.63848E-20 4.42299E-18
 -1      1314 1.05672E-04-3.01074E-05-3.38070E-05-8.47317E-06-2.10276E-19 1.09119E-18
 -1      1315 9.85682E-05-2.78142E-05-3.09549E-05-5.24503E-06-1.97147E-19 8.25963E-19
 -1      1316 9.58171E-05-2.78980E-05-2.93926E-05-2.60408E-06-1.52175E-19 7.74168E-19
 -1      1317 9.34727E-05-2.75996E-05-2.82974E-05-2.14095E-06-1.88862E-19 5.41519E-19
 -1      1318 9.97233E-05-2.79240E-05-3.11348E-05-8.26078E-06-2.91697E-19 3.62742E-19
 -1      1319 9.17182E-05-2.72259E-05-2.76349E-05-8.84043E-07-1.31528E-19 4.91120E-19
 -1      1320 9.09576E-05-2.71254E-05-2.73117E-05-7.70010E-07-1.29424E-19 2.64354E-19
 -1      1321 9.48960E-05-2.77877E-05-2.88912E-05-3.27697E-06-3.05249E-19 3.91898E-19
 -1      1322 9.01755E-05-2.69355E-05-2.70564E-05-1.94738E-07-7.01118E-20 1.16096E-19
 -1      1323 9.00843E-05-2.69588E-05-2.70142E-05-1.34615E-07-7.11772E-20-7.67888E-20
 -1      1324 9.26118E-05-2.75156E-05-2.79308E-05-1.11928E-06-1.86824E-19 7.21831E-20
 -1      1325 8.98092E-05-2.68875E-05-2.69348E-05 1.45655E-07-2.71216E-20-7.46845E-20
 -1      1326 9.00168E-05-2.69762E-05-2.69941E-05 1.75542E-07-8.30026E-20-2.58398E-19
 -1      1327 9.16102E-05-2.73659E-05-2.75463E-05-9.93313E-08-1.35012E-19-6.44208E-20
 -1      1328 9.00135E-05-2.69775E-05-2.69985E-05 3.12082E-07-2.27055E-19-2.47645E-19
 -1      1329 9.03549E-05-2.70972E-05-2.70972E-05 3.24547E-07-3.00878E-19-6.32403E-19
 -1      1330 9.13357E-05-2.73498E-05-2.74306E-05 4.06355E-07-2.63766E-19-1.85057E-19
 -1      1331 9.04947E-05-2.71384E-05-2.71438E-05 3.82287E-07-2.68894E-19-6.38928E-19
 -1      1332 9.08849E-05-2.72676E-05-2.72566E-05 3.84427E-07-1.94226E-19-9.15451E-19
 -1      1333 9.14596E-05-2.74219E-05-2.74496E-05 6.44958E-07-4.93003E-19-2.45507E-19
 -1      1334 9.10938E-05-2.73282E-05-2.73233E-05 3.96886E-07-5.91176E-21-9.43866E-19
 -1      1335 9.14855E-05-2.74544E-05-2.74367E-05 3.92970E-07-9.21416E-20-1.00355E-18
 -1      1336 9.17908E-05-2.75409E-05-2.75378E-05 7.33531E-07-2.10512E-19-3.15717E-19
 -1      1337 9.17194E-05-2.75218E-05-2.75105E-05 3.79455E-07-3.06593E-20-1.06089E-18
 -1      1338 9.20865E-05-2.76380E-05-2.76173E-05 3.72212E-07-1.07114E-20-9.47112E-19
 -1      1339 9.22156E-05-2.76793E-05-2.76585E-05 7.35453E-07-4.15893E-20-5.48412E-19
 -1      1340 9.23193E-05-2.77050E-05-2.76904E-05 3.44619E-07 4.27677E-20-1.09346E-18
 -1      1341 9.26482E-05-2.78078E-05-2.77864E-05 3.35832E-07 2.47432E-20-1.01521E-18
 -1      1342 9.26656E-05-2.78198E-05-2.77899E-05 6.88374E-07-1.34184E-19-7.35936E-19
 -1      1343 9.28650E-05-2.78700E-05-2.78543E-05 3.01718E-07 9.26937E-20-9.04992E-19
 -1      1344 9.31500E-05-2.79583E-05-2.79377E-05 2.92542E-07 1.21375E-19-8.43670E-19
 -1      1345 9.31006E-05-2.79523E-05-2.79188E-05 6.15866E-07 1.13884E-19-7.19753E-19
 -1      1346 9.33432E-05-2.80136E-05-2.79981E-05 2.56715E-07 1.55657E-19-7.13518E-19
 -1      1347 9.35837E-05-2.80875E-05-2.80688E-05 2.47875E-07 3.94127E-20-7.55375E-19
 -1      1348 9.34982E-05-2.80714E-05-2.80379E-05 5.32962E-07 2.56434E-19-9.28351E-19
 -1      1349 9.37504E-05-2.81352E-05-2.81208E-05 2.13323E-07-8.12082E-20-6.87392E-19
 -1      1350 9.39488E-05-2.81957E-05-2.81792E-05 2.05248E-07-2.31912E-20-6.23014E-19
 -1      1351 9.38478E-05-2.81748E-05-2.81433E-05 4.49173E-07 7.09318E-20-5.64485E-19
 -1      1352 9.40891E-05-2.82358E-05-2.82230E-05 1.73728E-07-1.22779E-19-9.71065E-19
 -1      1353 9.42496E-05-2.82845E-05-2.82704E-05 1.66642E-07-4.38656E-19-1.52102E-18
 -1      1354 9.41464E-05-2.82622E-05-2.82340E-05 3.70305E-07-3.94107E-19-8.93975E-19
 -1      1355 9.43653E-05-2.83174E-05-2.83064E-05 1.39091E-07-4.19000E-19-1.40133E-18
 -1      1356 9.44930E-05-2.83559E-05-2.83443E-05 1.33085E-07-3.88337E-19-1.85921E-18
 -1      1357 9.43956E-05-2.83344E-05-2.83100E-05 2.99674E-07-5.98446E-19-8.11979E-19
 -1      1358 9.45870E-05-2.83827E-05-2.83735E-05 1.09916E-07-1.07506E-19-1.92174E-18
 -1      1359 9.46874E-05-2.84126E-05-2.84033E-05 1.05001E-07-1.00360E-20-2.27118E-18
 -1      1360 9.45999E-05-2.83931E-05-2.83728E-05 2.38959E-07-4.35256E-19-3.83228E-19
 -1      1361 9.47632E-05-2.84342E-05-2.84269E-05 8.63280E-08 2.30443E-19-2.22066E-18
 -1      1362 9.48415E-05-2.84574E-05-2.84502E-05 8.24766E-08 1.54195E-19-1.94429E-18
 -1      1363 9.47657E-05-2.84402E-05-2.84239E-05 1.88836E-07 3.44148E-20-9.74419E-19
 -1      1364 9.49031E-05-2.84749E-05-2.84694E-05 6.82968E-08-2.55745E-19-1.60357E-18
 -1      1365 9.49647E-05-2.84929E-05-2.84878E-05 6.54776E-08-2.02433E-19-1.94580E-18
 -1      1366 9.48999E-05-2.84780E-05-2.84656E-05 1.49470E-07 1.99168E-20-1.16089E-18
 -1      1367 9.50160E-05-2.85074E-05-2.85037E-05 5.58361E-08-1.74941E-19-2.05865E-18
 -1      1368 9.50661E-05-2.85219E-05-2.85187E-05 5.40470E-08-1.82046E-19-2.30516E-18
 -1      1369 9.50103E-05-2.85086E-05-2.85001E-05 1.20933E-07-4.91295E-19-5.58704E-19
 -1      1370 9.51115E-05-2.85347E-05-2.85328E-05 4.92062E-08 5.74664E-20-2.58281E-18
 -1      1371 9.51556E-05-2.85472E-05-2.85461E-05 4.85129E-08 7.62955E-20-2.25297E-18
 -1      1372 9.51050E-05-2.85344E-05-2.85299E-05 1.03604E-07-8.77338E-20-7.32200E-19
 -1      1373 9.52001E-05-2.85596E-05-2.85599E-05 4.91670E-08 2.77876E-19-2.33987E-18
 -1      1374 9.52446E-05-2.85720E-05-2.85734E-05 4.97541E-08 7.39095E-19-1.71199E-18
 -1      1375 9.51930E-05-2.85580E-05-2.85579E-05 9.86282E-08 3.70687E-19-1.18597E-18
 -1      1376 9.52942E-05-2.85858E-05-2.85888E-05 5.73354E-08 8.09610E-19-1.60766E-18
 -1      1377 9.53468E-05-2.86002E-05-2.86048E-05 5.95860E-08 1.74727E-19-1.03576E-18
 -1      1378 9.52850E-05-2.85819E-05-2.85875E-05 1.08536E-07 9.39894E-19-1.53395E-18
 -1      1379 9.54096E-05-2.86174E-05-2.86245E-05 7.67406E-08 2.39458E-19-1.06574E-18
 -1      1380 9.54815E-05-2.86370E-05-2.86462E-05 8.13628E-08-1.15008E-19-1.38114E-18
 -1      1381 9.53943E-05-2.86097E-05-2.86231E-05 1.38163E-07 3.82001E-19-1.61733E-18
 -1      1382 9.55687E-05-2.86606E-05-2.86737E-05 1.12716E-07-3.30330E-19-6.82644E-19
 -1      1383 9.56763E-05-2.86899E-05-2.87062E-05 1.20953E-07 1.50762E-20-8.53303E-19
 -1      1384 9.55395E-05-2.86457E-05-2.86708E-05 1.96108E-07-2.97855E-19-1.09218E-18
 -1      1385 9.58047E-05-2.87241E-05-2.87471E-05 1.74354E-07-2.40398E-19-9.36088E-19
 -1      1386 9.59738E-05-2.87704E-05-2.87981E-05 1.88336E-07-9.27423E-19-1.34302E-18
 -1      1387 9.57470E-05-2.86960E-05-2.87394E-05 2.97084E-07-3.20528E-19-3.66677E-19
 -1      1388 9.61689E-05-2.88216E-05-2.88609E-05 2.76883E-07-9.55073E-19-1.33021E-18
 -1      1389 9.64416E-05-2.88965E-05-2.89430E-05 3.00208E-07-7.84349E-20-2.29582E-18
 -1      1390 9.60563E-05-2.87694E-05-2.88425E-05 4.65735E-07-1.15041E-18-3.81858E-19
 -1      1391 9.67426E-05-2.89742E-05-2.90408E-05 4.45505E-07 1.14525E-19-2.32004E-18
 -1      1392 9.71873E-05-2.90968E-05-2.91748E-05 4.84217E-07-2.23524E-19-2.46671E-18
 -1      1393 9.65275E-05-2.88788E-05-2.90006E-05 7.42765E-07-3.82033E-19-3.17930E-19
 -1      1394 9.76549E-05-2.92156E-05-2.93284E-05 7.21482E-07 2.52634E-19-2.43882E-18
 -1      1395 9.83847E-05-2.94175E-05-2.95486E-05 7.85666E-07 3.70498E-19-1.49763E-18
 -1      1396 9.72530E-05-2.90432E-05-2.92458E-05 1.19462E-06 2.24695E-20-9.23567E-19
 -1      1397 9.91115E-05-2.95987E-05-2.97904E-05 1.17133E-06-3.11549E-20-1.82552E-18
 -1      1398 1.00311E-04-2.99324E-05-3.01535E-05 1.27766E-06-3.22849E-19-1.98430E-18
 -1      1399 9.83728E-05-2.92911E-05-2.96271E-05 1.92816E-06 4.00286E-19-9.03877E-19
 -1      1400 1.01436E-04-3.02072E-05-3.05331E-05 1.89927E-06-6.53407E-20-1.77439E-18
 -1      1401 1.03405E-04-3.07590E-05-3.11308E-05 2.07468E-06-2.03142E-19-2.30366E-18
 -1      1402 1.00098E-04-2.96639E-05-3.02188E-05 3.11080E-06-9.77727E-20-1.85333E-18
 -1      1403 1.05127E-04-3.11714E-05-3.17207E-05 3.05929E-06-2.55050E-19-1.85770E-18
 -1      1404 1.08332E-04-3.20811E-05-3.26944E-05 3.34505E-06 1.21741E-19-1.99378E-18
 -1      1405 1.02733E-04-3.02240E-05-3.11286E-05 4.99181E-06-7.80726E-20-1.01477E-18
 -1      1406 1.10914E-04-3.26926E-05-3.35902E-05 4.84986E-06 2.51833E-19-1.52273E-18
 -1      1407 1.16028E-04-3.41792E-05-3.51323E-05 5.30078E-06-1.01115E-20-1.71164E-18
 -1      1408 1.06701E-04-3.10701E-05-3.24984E-05 7.90277E-06 3.08439E-19-5.65507E-19
 -1      1409 1.19772E-04-3.50799E-05-3.64290E-05 7.43537E-06-1.93296E-19-8.78956E-19
 -1      1410 1.27602E-04-3.74592E-05-3.87252E-05 8.09405E-06-1.41534E-19-7.32048E-19
 -1      1411 1.12534E-04-3.23838E-05-3.44747E-05 1.21646E-05 2.78144E-19-6.43944E-20
 -1      1412 1.32751E-04-3.88034E-05-4.04357E-05 1.06458E-05 9.76338E-20-9.51747E-19
 -1      1413 1.43755E-04-4.24225E-05-4.34566E-05 1.14261E-05 4.36248E-19-5.13090E-19
 -1      1414 1.20810E-04-3.45613E-05-3.71034E-05 1.77084E-05-1.82721E-19-5.47527E-19
 -1      1415 1.50345E-04-4.45635E-05-4.53542E-05 1.31728E-05 8.09419E-19 5.01761E-19
 -1      1416 1.63148E-04-4.93556E-05-4.84235E-05 1.34707E-05 8.05475E-20 7.03567E-19
 -1      1417 1.32018E-04-3.85059E-05-4.01173E-05 2.30251E-05 1.51076E-18 2.14988E-19
 -1      1418 1.70344E-04-5.25936E-05-4.98929E-05 1.14418E-05-5.58512E-20 6.77944E-19
 -1      1419 1.79044E-04-5.68082E-05-5.14334E-05 9.80935E-06-2.96991E-19 1.10757E-18
 -1      1420 1.46000E-04-4.56394E-05-4.27537E-05 2.33940E-05 5.70212E-19 7.80170E-19
 -1      1421 1.86020E-04-6.09205E-05-5.23000E-05 7.95285E-07 2.36957E-19 2.12394E-19
 -1      1422 1.82170E-04-6.05220E-05-5.12732E-05-3.80798E-06-1.13714E-19 5.04408E-19
 -1      1423 1.61649E-04-5.61244E-05-4.46554E-05 1.19276E-05-3.19861E-19 2.19170E-19
 -1      1424 1.87115E-04-6.24466E-05-5.26437E-05-1.80081E-05-1.07240E-18 6.39510E-20
 -1      1425 1.66502E-04-5.30955E-05-4.99061E-05-2.23889E-05-1.74330E-18-2.23193E-18
 -1      1426 1.76421E-04-6.52741E-05-4.73738E-05-1.55224E-05-1.22550E-18-6.29928E-19
 -1      1427 1.43177E-04-3.13097E-05-5.24086E-05-6.88145E-06-7.98752E-19-6.61279E-18
 -1      1428 1.41770E-04-3.03925E-05-5.22252E-05 4.99211E-06-5.08220E-20-7.58137E-18
 -1      1429 1.62619E-04-5.04431E-05-4.94738E-05 2.10658E-05 1.44790E-18-5.97370E-18
 -1      1430 1.84312E-04-6.02489E-05-5.23613E-05 1.75470E-05 1.43972E-18-3.91795E-18
 -1      1431 1.82162E-04-5.94861E-05-5.15928E-05 4.84215E-06 1.36457E-18-3.02391E-18
 -1      1432 1.87190E-04-6.05012E-05-5.27465E-05 9.67120E-07 1.10527E-18-1.88370E-18
 -1      1433 1.77436E-04-6.27870E-05-4.89101E-05 1.80556E-05 2.20321E-18-2.24995E-18
 -1      1434 1.80359E-04-5.68560E-05-5.17964E-05-8.55082E-06 4.50833E-19-8.41315E-19
 -1      1435 1.71233E-04-5.24910E-05-5.01482E-05-1.02734E-05 5.44933E-19 1.74171E-19
 -1      1436 1.65897E-04-5.60575E-05-4.63686E-05-8.59445E-06 1.70550E-18-7.55183E-19
 -1      1437 1.62659E-04-4.93499E-05-4.82290E-05-1.22685E-05-6.24687E-19-4.78362E-19
 -1      1438 1.49033E-04-4.41694E-05-4.49517E-05-1.21246E-05-1.08165E-18-9.96958E-19
 -1      1439 1.49101E-04-4.62540E-05-4.37750E-05-2.15819E-05-3.35902E-19-1.08081E-18
 -1      1440 1.41298E-04-4.19628E-05-4.26640E-05-1.05741E-05-6.46260E-19-2.43268E-18
 -1      1441 1.29366E-04-3.79825E-05-3.93807E-05-9.97852E-06-9.75703E-19-3.72684E-18
 -1      1442 1.32762E-04-3.90481E-05-4.01944E-05-2.15220E-05-1.38987E-18-2.53930E-18
 -1      1443 1.23146E-04-3.63565E-05-3.73505E-05-7.78592E-06 1.26049E-19-3.30925E-18
 -1      1444 1.14330E-04-3.36002E-05-3.47874E-05-7.23640E-06-7.73659E-19-4.00308E-18
 -1      1445 1.19174E-04-3.45510E-05-3.64093E-05-1.69769E-05-9.89573E-19-4.01150E-18
 -1      1446 1.09756E-04-3.23964E-05-3.32750E-05-5.26773E-06-7.49637E-19-2.22664E-18
 -1      1447 1.03862E-04-3.05813E-05-3.15487E-05-4.81886E-06 2.23656E-19-3.28643E-18
 -1      1448 1.08807E-04-3.15752E-05-3.32393E-05-1.20157E-05-3.41235E-19-2.25086E-18
 -1      1449 1.00800E-04-2.97239E-05-3.05836E-05-3.00998E-06 1.86691E-19-2.56945E-18
 -1      1450 9.76591E-05-2.86780E-05-2.96211E-05-2.50213E-06 1.45060E-18-1.34396E-18
 -1      1451 1.01448E-04-2.94528E-05-3.09950E-05-7.55821E-06 6.04279E-19-1.29616E-18
 -1      1452 9.62661E-05-2.81637E-05-2.92891E-05-1.32774E-06 1.95347E-18-6.87194E-19
 -1      1453 9.55460E-05-2.81392E-05-2.87781E-05-8.36562E-07 7.33087E-19 2.86383E-19
 -1      1454 9.53329E-05-2.73702E-05-2.92546E-05-1.32520E-06 1.26028E-18-9.00062E-19
 -1      1455 9.72410E-05-2.79789E-05-2.98067E-05-4.05044E-06 2.30028E-18-3.62927E-19
 -1      1456 9.65888E-05-2.83663E-05-2.97750E-05 2.99242E-06 1.11623E-19 4.21015E-18
 -1      1457 1.02548E-04-2.94024E-05-3.21592E-05 4.46249E-06 6.49039E-20 4.30229E-18
 -1      1458 1.02338E-04-2.67202E-05-3.27092E-05 1.27818E-05 1.24726E-19 3.30078E-18
 -1      1459 9.20356E-05-2.74241E-05-2.77641E-05 1.14603E-06 2.05008E-20 4.03450E-18
 -1      1460 9.39930E-05-2.75882E-05-2.86783E-05 1.47846E-06 1.06342E-19 4.09453E-18
 -1      1461 9.65031E-05-2.80408E-05-2.95373E-05 4.87694E-06 1.62207E-19 3.17824E-18
 -1      1462 9.02128E-05-2.70030E-05-2.70684E-05 3.24349E-07 1.31872E-19 3.94884E-18
 -1      1463 9.08360E-05-2.70313E-05-2.73389E-05 4.94045E-07-5.63806E-20 3.87886E-18
 -1      1464 9.30530E-05-2.75979E-05-2.81065E-05 1.83825E-06 4.17561E-20 2.88256E-18
 -1      1465 8.97021E-05-2.68869E-05-2.68954E-05-5.66418E-08 2.29784E-19 3.55095E-18
 -1      1466 8.97493E-05-2.68362E-05-2.69220E-05 3.63461E-08 2.19540E-19 3.82517E-18
 -1      1467 9.15132E-05-2.73496E-05-2.75232E-05 4.71545E-07 2.45679E-19 2.67046E-18
 -1      1468 8.98413E-05-2.69449E-05-2.69386E-05-2.44732E-07 7.62826E-20 3.32102E-18
 -1      1469 8.96153E-05-2.68419E-05-2.68727E-05-1.93642E-07 3.17704E-20 3.41420E-18
 -1      1470 9.09796E-05-2.72549E-05-2.73271E-05-1.75923E-07 2.21466E-19 2.43654E-18
 -1      1471 9.03008E-05-2.70913E-05-2.70782E-05-3.28108E-07 4.56521E-20 3.36221E-18
 -1      1472 8.99518E-05-2.69644E-05-2.69759E-05-3.00824E-07 1.66346E-21 3.21132E-18
 -1      1473 9.10030E-05-2.72908E-05-2.73167E-05-4.84946E-07 2.93451E-20 2.27255E-18
 -1      1474 9.09018E-05-2.72766E-05-2.72593E-05-3.52938E-07 9.23163E-20 3.12134E-18
 -1      1475 9.05100E-05-2.71444E-05-2.71448E-05-3.40238E-07 6.84207E-20 3.23634E-18
 -1      1476 9.13127E-05-2.73985E-05-2.73992E-05-6.17850E-07-2.42695E-21 2.10617E-18
 -1      1477 9.15420E-05-2.74713E-05-2.74519E-05-3.44095E-07 4.64493E-20 3.15510E-18
 -1      1478 9.11520E-05-2.73447E-05-2.73379E-05-3.40431E-07 1.33545E-19 3.18249E-18
 -1      1479 9.17588E-05-2.75403E-05-2.75265E-05-6.51121E-07 1.13055E-19 2.11583E-18
 -1      1480 9.21626E-05-2.76586E-05-2.76389E-05-3.16620E-07 9.41052E-20 3.03607E-18
 -1      1481 9.17989E-05-2.75435E-05-2.75324E-05-3.18429E-07 1.35768E-20 3.11705E-18
 -1      1482 9.22520E-05-2.76921E-05-2.76706E-05-6.27445E-07 1.44826E-19 2.27987E-18
 -1      1483 9.27312E-05-2.78292E-05-2.78105E-05-2.80000E-07 1.19464E-19 3.03335E-18
 -1      1484 9.24065E-05-2.77283E-05-2.77152E-05-2.84924E-07 1.10102E-19 3.03436E-18
 -1      1485 9.27398E-05-2.78398E-05-2.78149E-05-5.72767E-07 1.13764E-19 2.17601E-18
 -1      1486 9.32322E-05-2.79790E-05-2.79619E-05-2.40287E-07 1.92545E-19 2.79191E-18
 -1      1487 9.29515E-05-2.78929E-05-2.78793E-05-2.46756E-07 1.57381E-19 3.03482E-18
 -1      1488 9.31925E-05-2.79753E-05-2.79499E-05-5.03481E-07 2.75510E-19 2.26431E-18
 -1      1489 9.36610E-05-2.81067E-05-2.80917E-05-2.01289E-07 1.63089E-19 2.35094E-18
 -1      1490 9.34244E-05-2.80350E-05-2.80220E-05-2.08264E-07 5.84651E-20 2.57156E-18
 -1      1491 9.35951E-05-2.80948E-05-2.80707E-05-4.30018E-07 2.39524E-19 1.80326E-18
 -1      1492 9.40195E-05-2.82131E-05-2.82003E-05-1.65300E-07-6.41503E-20 2.74197E-18
 -1      1493 9.38242E-05-2.81546E-05-2.81427E-05-1.72112E-07 3.02665E-21 2.47129E-18
 -1      1494 9.39422E-05-2.81971E-05-2.81754E-05-3.58893E-07 3.42126E-20 1.74221E-18
 -1      1495 9.43136E-05-2.83002E-05-2.82896E-05-1.33594E-07 4.51386E-20 3.00886E-18
 -1      1496 9.41552E-05-2.82531E-05-2.82428E-05-1.39826E-07-8.89184E-20 2.85725E-18
 -1      1497 9.42343E-05-2.82827E-05-2.82638E-05-2.93984E-07-2.35000E-19 2.24838E-18
 -1      1498 9.45516E-05-2.83704E-05-2.83620E-05-1.06759E-07 1.72827E-19 2.86407E-18
 -1      1499 9.44247E-05-2.83330E-05-2.83244E-05-1.12174E-07 1.34483E-19 2.93166E-18
 -1      1500 9.44757E-05-2.83530E-05-2.83372E-05-2.37391E-07 4.88605E-20 2.34028E-18
 -1      1501 9.47426E-05-2.84266E-05-2.84201E-05-8.49468E-08-8.52847E-20 2.48868E-18
 -1      1502 9.46417E-05-2.83971E-05-2.83902E-05-8.94200E-08-6.46938E-21 2.56180E-18
 -1      1503 9.46727E-05-2.84100E-05-2.83973E-05-1.90036E-07 1.44870E-19 1.80230E-18
 -1      1504 9.48960E-05-2.84716E-05-2.84669E-05-6.80268E-08 2.19669E-19 2.43581E-18
 -1      1505 9.48156E-05-2.84482E-05-2.84429E-05-7.15109E-08 9.79800E-20 2.47658E-18
 -1      1506 9.48326E-05-2.84560E-05-2.84463E-05-1.52075E-07 2.15245E-20 1.58272E-18
 -1      1507 9.50209E-05-2.85082E-05-2.85050E-05-5.56874E-08-7.82463E-20 2.49018E-18
 -1      1508 9.49558E-05-2.84893E-05-2.84856E-05-5.81857E-08 2.01357E-19 2.55512E-18
 -1      1509 9.49629E-05-2.84933E-05-2.84863E-05-1.23171E-07 1.55956E-19 2.39694E-18
 -1      1510 9.51256E-05-2.85389E-05-2.85369E-05-4.74678E-08-6.28937E-20 2.52466E-18
 -1      1511 9.50710E-05-2.85229E-05-2.85206E-05-4.90242E-08-2.51994E-19 2.18590E-18
 -1      1512 9.50709E-05-2.85242E-05-2.85196E-05-1.02626E-07-3.93711E-20 2.11916E-18
 -1      1513 9.52174E-05-2.85658E-05-2.85649E-05-4.27243E-08 2.20354E-19 2.51645E-18
 -1      1514 9.51693E-05-2.85515E-05-2.85505E-05-4.34315E-08 1.64852E-19 2.84015E-18
 -1      1515 9.51632E-05-2.85506E-05-2.85481E-05-8.93986E-08 4.69781E-20 2.46073E-18
 -1      1516 9.53019E-05-2.85908E-05-2.85906E-05-4.05246E-08-3.60364E-19 2.75609E-18
 -1      1517 9.52571E-05-2.85773E-05-2.85772E-05-4.05515E-08-1.41717E-19 2.53851E-18
 -1      1518 9.52453E-05-2.85742E-05-2.85733E-05-8.19789E-08-5.59509E-20 2.35929E-18
 -1      1519 9.53825E-05-2.86149E-05-2.86149E-05-3.94556E-08 2.40456E-19 2.65086E-18
 -1      1520 9.53391E-05-2.86016E-05-2.86020E-05-3.91001E-08 6.14626E-20 2.79260E-18
 -1      1521 9.53209E-05-2.85965E-05-2.85963E-05-7.81131E-08 5.33999E-20 2.27308E-18
 -1      1522 9.54585E-05-2.86382E-05-2.86376E-05-3.73400E-08-8.35002E-20 2.76376E-18
 -1      1523 9.54169E-05-2.86251E-05-2.86253E-05-3.71111E-08-1.63517E-20 2.58855E-18
 -1      1524 9.53911E-05-2.86179E-05-2.86172E-05-7.43633E-08 2.16303E-19 2.59361E-18
 -1      1525 9.55239E-05-2.86589E-05-2.86566E-05-3.08651E-08-1.34587E-19 2.80174E-18
 -1      1526 9.54874E-05-2.86475E-05-2.86461E-05-3.15963E-08-2.13787E-19 2.33714E-18
 -1      1527 9.54529E-05-2.86379E-05-2.86349E-05-6.54979E-08-2.14837E-19 2.66082E-18
 -1      1528 9.55641E-05-2.86732E-05-2.86675E-05-1.51629E-08-1.41021E-19 3.10675E-18
 -1      1529 9.55412E-05-2.86661E-05-2.86613E-05-1.81508E-08 6.46903E-20 2.87514E-18
 -1      1530 9.54974E-05-2.86546E-05-2.86464E-05-4.37565E-08-1.51341E-20 2.33215E-18
 -1      1531 9.55531E-05-2.86735E-05-2.86621E-05 1.65592E-08 3.68410E-19 2.91324E-18
 -1      1532 9.55586E-05-2.86757E-05-2.86647E-05 9.41383E-09-1.25705E-19 3.12196E-18
 -1      1533 9.55076E-05-2.86634E-05-2.86461E-05 1.88142E-09-5.03918E-20 2.57708E-18
 -1      1534 9.54492E-05-2.86478E-05-2.86277E-05 7.31367E-08 8.46237E-19 1.54202E-18
 -1      1535 9.55071E-05-2.86672E-05-2.86463E-05 5.92386E-08 7.37706E-19 2.65716E-18
 -1      1536 9.54551E-05-2.86566E-05-2.86250E-05 8.61460E-08 1.05655E-18 2.11318E-18
 -1      1537 9.51922E-05-2.85780E-05-2.85461E-05 1.64982E-07 5.12640E-19-9.19009E-20
 -1      1538 9.53373E-05-2.86263E-05-2.85910E-05 1.41097E-07 3.92406E-19 7.98950E-19
 -1      1539 9.52973E-05-2.86221E-05-2.85699E-05 2.27153E-07 8.23142E-19 2.06691E-18
 -1      1540 9.47017E-05-2.84399E-05-2.83931E-05 3.02565E-07-6.83829E-19 1.26183E-19
 -1      1541 9.49804E-05-2.85325E-05-2.84781E-05 2.65168E-07-4.56068E-19-2.84964E-19
 -1      1542 9.49763E-05-2.85423E-05-2.84633E-05 4.44568E-07 1.97613E-20 4.39877E-19
 -1      1543 9.38815E-05-2.82036E-05-2.81406E-05 4.93333E-07-3.83544E-19 1.21757E-18
 -1      1544 9.43494E-05-2.83589E-05-2.82816E-05 4.39423E-07-2.71380E-19 7.00364E-19
 -1      1545 9.44187E-05-2.83942E-05-2.82836E-05 7.55356E-07-9.04886E-19 1.16138E-18
 -1      1546 9.26303E-05-2.78365E-05-2.77595E-05 7.36785E-07 7.79518E-19-2.47850E-19
 -1      1547 9.33454E-05-2.80737E-05-2.79730E-05 6.65307E-07 2.77509E-19 6.11789E-19
 -1      1548 9.35426E-05-2.81501E-05-2.80081E-05 1.16639E-06 5.54588E-19 1.02383E-18
 -1      1549 9.08641E-05-2.73102E-05-2.72269E-05 1.01819E-06 6.71287E-19-1.46511E-18
 -1      1550 9.18737E-05-2.76445E-05-2.75258E-05 9.31981E-07 7.33837E-19-4.73875E-19
 -1      1551 9.22700E-05-2.77813E-05-2.76163E-05 1.66404E-06 1.17321E-18 2.79018E-19
 -1      1552 8.85499E-05-2.66104E-05-2.65359E-05 1.30276E-06-4.29229E-19-7.30023E-19
 -1      1553 8.98708E-05-2.70465E-05-2.69238E-05 1.21056E-06-5.18411E-19-1.30695E-18
 -1      1554 9.05494E-05-2.72651E-05-2.70974E-05 2.20285E-06-2.39123E-19 6.42742E-19
 -1      1555 8.57458E-05-2.57509E-05-2.57069E-05 1.53396E-06-8.20154E-19-2.42781E-19
 -1      1556 8.73411E-05-2.62749E-05-2.61714E-05 1.45135E-06-1.34527E-19-2.80884E-19
 -1      1557 8.83860E-05-2.65950E-05-2.64581E-05 2.69808E-06-6.44877E-19 6.33250E-19
 -1      1558 8.26342E-05-2.47850E-05-2.47956E-05 1.64035E-06 6.92067E-19-1.02438E-20
 -1      1559 8.43949E-05-2.53585E-05-2.53039E-05 1.58823E-06 3.31149E-19 1.90278E-19
 -1      1560 8.58736E-05-2.57943E-05-2.57303E-05 3.02985E-06 4.50847E-20 1.56716E-18
 -1      1561 7.95316E-05-2.38114E-05-2.38946E-05 1.55399E-06 7.65935E-19-2.44377E-18
 -1      1562 8.12731E-05-2.43705E-05-2.43931E-05 1.55347E-06 7.02022E-19-8.32501E-19
 -1      1563 8.32144E-05-2.49254E-05-2.49744E-05 3.06577E-06 1.36825E-18 6.94124E-19
 -1      1564 7.68519E-05-2.29635E-05-2.31214E-05 1.23744E-06-5.05341E-20-2.22070E-18
 -1      1565 7.83368E-05-2.34277E-05-2.35429E-05 1.30180E-06-2.55797E-20-2.22741E-18
 -1      1566 8.07125E-05-2.40913E-05-2.42753E-05 2.70282E-06 2.45279E-19-1.21562E-19
 -1      1567 7.50225E-05-2.23820E-05-2.25950E-05 7.08221E-07-1.43142E-19-1.31772E-18
 -1      1568 7.60106E-05-2.26723E-05-2.28729E-05 8.35379E-07 2.81308E-20-1.36224E-18
 -1      1569 7.87259E-05-2.34196E-05-2.37285E-05 1.91640E-06-2.02335E-19-4.09937E-19
 -1      1570 7.43696E-05-2.21758E-05-2.24053E-05 4.58089E-08 2.43499E-19-1.36530E-18
 -1      1571 7.46830E-05-2.22371E-05-2.24908E-05 2.15787E-07-1.29351E-19-2.03235E-18
 -1      1572 7.75842E-05-2.30311E-05-2.34185E-05 7.92211E-07 2.31253E-19 3.03708E-20
 -1      1573 7.50196E-05-2.23867E-05-2.25873E-05-6.28287E-07-5.53460E-19-8.42262E-19
 -1      1574 7.45963E-05-2.22054E-05-2.24642E-05-4.47951E-07-1.96945E-19-1.15478E-18
 -1      1575 7.74942E-05-2.30026E-05-2.33976E-05-4.82974E-07-2.14491E-19-5.19680E-19
 -1      1576 7.68608E-05-2.29756E-05-2.31117E-05-1.19126E-06-5.25812E-19 1.56021E-18
 -1      1577 7.57730E-05-2.25839E-05-2.28002E-05-1.03400E-06-1.01306E-18-4.49854E-20
 -1      1578 7.84766E-05-2.33402E-05-2.36709E-05-1.67665E-06-1.37302E-18 6.83751E-19
 -1      1579 7.95854E-05-2.38384E-05-2.38955E-05-1.55998E-06-1.73107E-19 2.20046E-18
 -1      1580 7.80127E-05-2.33021E-05-2.34452E-05-1.44879E-06-1.20095E-19 1.89097E-18
 -1      1581 8.03626E-05-2.39787E-05-2.41960E-05-2.58840E-06-8.06786E-19 1.41308E-18
 -1      1582 8.27894E-05-2.48413E-05-2.48268E-05-1.71145E-06 1.00389E-18 7.67002E-19
 -1      1583 8.09613E-05-2.42387E-05-2.43017E-05-1.65327E-06 7.13284E-19 9.00528E-19
 -1      1584 8.28514E-05-2.48058E-05-2.48959E-05-3.11030E-06 7.22690E-19 6.81987E-19
 -1      1585 8.60804E-05-2.58589E-05-2.57936E-05-1.67521E-06 1.40139E-18-2.16402E-18
 -1      1586 8.42162E-05-2.52602E-05-2.52557E-05-1.66303E-06 1.38977E-18-1.42540E-19
 -1      1587 8.56003E-05-2.56997E-05-2.56796E-05-3.24209E-06 2.05132E-18-5.78557E-19
 -1      1588 8.91483E-05-2.67985E-05-2.67015E-05-1.50383E-06-4.50433E-20-2.65639E-18
 -1      1589 8.74200E-05-2.62548E-05-2.62018E-05-1.52479E-06 5.63568E-19-2.33106E-18
 -1      1590 8.83047E-05-2.65611E-05-2.64608E-05-3.05862E-06 8.43077E-19-9.33440E-19
 -1      1591 9.17709E-05-2.76011E-05-2.74769E-05-1.23538E-06-5.24335E-19-2.33409E-18
 -1      1592 9.03050E-05-2.71481E-05-2.70551E-05-1.28132E-06-5.36175E-19-3.49752E-18
 -1      1593 9.07392E-05-2.73294E-05-2.71677E-05-2.64796E-06-3.98641E-19-1.71005E-18
 -1      1594 9.37618E-05-2.82197E-05-2.80595E-05-8.62921E-07 6.04325E-19-4.01177E-18
 -1      1595 9.26777E-05-2.78956E-05-2.77496E-05-9.42504E-07 1.57135E-19-3.35540E-18
 -1      1596 9.27494E-05-2.79759E-05-2.77444E-05-2.04954E-06 5.28916E-19-4.21631E-18
 -1      1597 9.49270E-05-2.85910E-05-2.84206E-05-3.71126E-07 8.11390E-19-4.48606E-18
 -1      1598 9.43728E-05-2.84488E-05-2.82393E-05-4.86809E-07 7.69190E-19-4.08809E-18
 -1      1599 9.42397E-05-2.84916E-05-2.81571E-05-1.24089E-06 1.01360E-18-4.38669E-18
 -1      1600 9.52005E-05-2.86592E-05-2.85115E-05-5.69390E-08-2.36760E-18-2.22976E-18
 -1      1601 9.54612E-05-2.97321E-05-2.81505E-05-7.57965E-07-3.63193E-18 1.00531E-18
 -1      1602 9.52457E-05-2.91163E-05-2.83376E-05-6.22692E-07-4.66472E-18 8.41006E-19
 -1      1603 9.60304E-05-3.13534E-05-2.77085E-05-1.10429E-06-7.91460E-19 2.55328E-18
 -1      1604 9.56828E-05-3.03709E-05-2.79784E-05-1.04276E-06-3.18832E-18 8.96634E-19
 -1      1605 9.55047E-05-3.00712E-05-2.80224E-05-1.72851E-06-1.02870E-18 1.95909E-18
 -1      1606 9.66627E-05-3.31127E-05-2.72328E-05-1.10703E-06 7.07008E-20 9.19810E-19
 -1      1607 9.62961E-05-3.20819E-05-2.75133E-05-1.13277E-06-1.62052E-18 2.62993E-18
 -1      1608 9.60708E-05-3.14535E-05-2.76907E-05-2.13237E-06-5.07905E-19 3.58726E-18
 -1      1609 9.71559E-05-3.44459E-05-2.68780E-05-7.47215E-07-8.11266E-19-1.15732E-18
 -1      1610 9.68834E-05-3.37157E-05-2.70721E-05-8.44751E-07 2.62951E-19 1.35595E-19
 -1      1611 9.66596E-05-3.28149E-05-2.73806E-05-1.84383E-06-1.58259E-18 2.59129E-19
 -1      1612 9.73479E-05-3.48182E-05-2.68058E-05-5.63646E-08-3.28634E-18-1.93729E-18
 -1      1613 9.72760E-05-3.47101E-05-2.68211E-05-2.16014E-07-8.39317E-19-2.61912E-18
 -1      1614 9.70966E-05-3.37222E-05-2.72005E-05-8.92244E-07-1.00977E-18-2.72273E-18
 -1      1615 9.70881E-05-3.37762E-05-2.71472E-05 9.28887E-07-2.64221E-18 4.87686E-19
 -1      1616 9.73066E-05-3.45558E-05-2.69087E-05 7.12269E-07-3.48295E-18-4.46810E-19
 -1      1617 9.72524E-05-3.37809E-05-2.72606E-05 6.64460E-07-6.68570E-19-1.82146E-18
 -1      1618 9.62549E-05-3.10215E-05-2.79756E-05 2.04961E-06-8.94758E-19 2.07411E-19
 -1      1619 9.68250E-05-3.28295E-05-2.74497E-05 1.81676E-06-2.26982E-18 1.44579E-18
 -1      1620 9.69789E-05-3.26315E-05-2.76481E-05 2.66390E-06-1.21827E-18 1.75921E-18
 -1      1621 9.48437E-05-2.66491E-05-2.92440E-05 3.03096E-06-2.85212E-19 1.02785E-18
 -1      1622 9.57448E-05-2.93718E-05-2.84711E-05 2.84706E-06-1.52024E-18 6.12944E-19
 -1      1623 9.61615E-05-3.00840E-05-2.83867E-05 4.71487E-06 1.65304E-20 3.61299E-19
 -1      1624 9.30310E-05-2.12931E-05-3.07516E-05 3.49196E-06 1.61148E-19 6.04605E-19
 -1      1625 9.41231E-05-2.44745E-05-2.98667E-05 3.44374E-06-1.14863E-18 1.35232E-18
 -1      1626 9.47868E-05-2.62679E-05-2.94068E-05 6.21310E-06-8.92210E-19 1.04294E-18
 -1      1627 9.12171E-05-1.61679E-05-3.21492E-05 3.06278E-06-4.39075E-18-3.79963E-18
 -1      1628 9.22290E-05-1.90135E-05-3.13737E-05 3.22618E-06-4.45142E-19-2.53875E-18
 -1      1629 9.30289E-05-2.17605E-05-3.05326E-05 6.43676E-06-1.50283E-18-2.01898E-18
 -1      1630 8.99809E-05-1.28519E-05-3.30165E-05 1.63578E-06-5.30821E-18 9.46950E-19
 -1      1631 9.05625E-05-1.44198E-05-3.25996E-05 2.00537E-06-4.24824E-18-2.23613E-18
 -1      1632 9.13057E-05-1.76249E-05-3.14988E-05 4.86670E-06-1.27255E-18-4.54873E-18
 -1      1633 8.97967E-05-1.25091E-05-3.30715E-05-5.50979E-07-1.93190E-18 1.96854E-18
 -1      1634 8.96914E-05-1.21595E-05-3.31718E-05-4.89235E-08-5.28166E-18 2.60717E-18
 -1      1635 9.01749E-05-1.50642E-05-3.20557E-05 1.55573E-06-9.85587E-19 2.61566E-18
 -1      1636 9.09073E-05-1.55784E-05-3.22539E-05-2.69312E-06 1.54814E-18 2.49257E-18
 -1      1637 9.00546E-05-1.32432E-05-3.28656E-05-2.27816E-06-9.58100E-19 2.53667E-18
 -1      1638 9.01572E-05-1.50568E-05-3.20403E-05-2.63422E-06 1.20230E-18 4.20720E-18
 -1      1639 9.29930E-05-2.09138E-05-3.09137E-05-3.74598E-06 2.09704E-18-1.27573E-18
 -1      1640 9.16909E-05-1.75125E-05-3.17773E-05-3.69558E-06 2.58260E-18-4.45850E-20
 -1      1641 9.14164E-05-1.77564E-05-3.14814E-05-5.99825E-06 2.20054E-18 1.68084E-18
 -1      1642 9.48339E-05-2.56527E-05-2.96935E-05-2.73066E-06 1.19246E-18-1.01579E-18
 -1      1643 9.37106E-05-2.28057E-05-3.04621E-05-3.18475E-06 3.04837E-18-1.11753E-18
 -1      1644 9.35034E-05-2.17769E-05-3.07303E-05-6.58542E-06 2.74288E-18-1.13884E-18
 -1      1645 9.52014E-05-2.55203E-05-2.99022E-05-4.29975E-06 2.05032E-18-1.75788E-18
 -1      1646 2.13482E-05-6.54709E-05 1.40878E-05 2.81198E-06-6.35783E-18-1.10877E-18
 -1      1647 2.58981E-05-8.26103E-05 1.82342E-05 9.87206E-06-4.78404E-18-2.16375E-18
 -1      1648 2.36816E-05-3.29313E-05 7.23600E-07 1.37662E-05-3.99715E-18-7.52589E-19
 -1      1649 2.76501E-05-6.06856E-05 8.79779E-06 6.98391E-06-6.77796E-18-7.10978E-20
 -1      1650 4.32497E-05-4.83891E-06-1.74615E-05 4.17907E-05 5.21772E-19 3.79132E-18
 -1      1651 3.44930E-05-2.55175E-05-7.67587E-06 2.12121E-05-3.20687E-18 1.07192E-18
 -1      1652 9.02496E-05 1.77954E-06-3.78379E-05 7.40637E-05 3.83367E-18 4.55196E-18
 -1      1653 6.17385E-05-1.83544E-06-2.72232E-05 5.02734E-05 2.90448E-18 3.06202E-18
 -1      1654 1.61340E-04-1.60878E-05-5.82477E-05 9.15691E-05 2.83333E-18 5.63531E-18
 -1      1655 1.13640E-04 9.11170E-07-4.79683E-05 8.02584E-05 4.61464E-18 5.08897E-18
 -1      1656 2.32639E-04-4.79286E-05-7.36472E-05 6.76756E-05 3.39835E-18 4.82809E-19
 -1      1657 1.87910E-04-2.51651E-05-6.62670E-05 8.10771E-05 3.30491E-18 3.56940E-18
 -1      1658 2.77462E-04-6.92764E-05-8.25180E-05 2.53253E-05 4.91067E-19-1.73430E-19
 -1      1659 2.53807E-04-5.54496E-05-7.93462E-05 5.89523E-05 1.95262E-18 1.18923E-18
 -1      1660 2.67876E-04-6.32010E-05-8.19598E-05-3.28188E-05 3.72694E-19-8.99549E-19
 -1      1661 2.77077E-04-6.83739E-05-8.30802E-05 6.03060E-06 2.55804E-19-4.53533E-19
 -1      1662 2.19838E-04-3.90831E-05-7.32405E-05-7.18032E-05 1.27637E-18-2.05490E-18
 -1      1663 2.54959E-04-5.83418E-05-7.85337E-05-4.79830E-05 1.03952E-18-1.27097E-18
 -1      1664 1.52852E-04-1.07304E-05-5.84620E-05-8.66853E-05 3.14630E-18-4.29954E-18
 -1      1665 1.99888E-04-3.24164E-05-6.70159E-05-8.49819E-05 2.17455E-18-3.32545E-18
 -1      1666 8.89002E-05 4.51640E-06-3.99764E-05-7.05342E-05 4.03526E-18-4.63835E-18
 -1      1667 1.26621E-04-3.63656E-06-4.97430E-05-8.80033E-05 3.79640E-18-4.92296E-18
 -1      1668 4.88576E-05-9.34665E-06-1.94091E-05-3.83256E-05 2.52162E-18-3.61260E-18
 -1      1669 6.99147E-05 1.56202E-06-3.01133E-05-6.26602E-05 3.74050E-18-4.83741E-18
 -1      1670 2.89571E-05-3.73247E-05-9.71408E-07-1.33110E-05-1.65171E-18-1.90413E-18
 -1      1671 3.13898E-05-1.28759E-05-9.92338E-06-2.91053E-05 1.34509E-18-4.39695E-18
 -1      1672 2.64515E-05-6.89525E-05 1.23667E-05-6.11229E-06-9.85946E-19 1.16329E-18
 -1      1673 2.13680E-05-4.48868E-05 6.06708E-06-7.68011E-06-1.95326E-18 1.09500E-18
 -1      1674 2.67943E-05-8.98897E-05 1.99750E-05-1.03991E-05-2.40811E-18-7.29507E-19
 -1      1675 2.33362E-05-7.72965E-05 1.71546E-05-1.90477E-07-1.93462E-18 2.39499E-19
 -1      1676 2.23831E-05-8.47457E-05 1.95750E-05-2.02909E-05-5.09236E-18-2.55126E-18
 -1      1677 2.63871E-05-9.12956E-05 2.06842E-05-8.86823E-06-2.91083E-18-1.52169E-18
 -1      1678 1.94479E-05-5.67850E-05 9.59843E-06-1.42547E-05-6.85165E-18-3.52514E-18
 -1      1679 2.52489E-05-7.85184E-05 1.55177E-05-1.45567E-05-5.60482E-18-2.74407E-18
 -1      1680 3.25392E-05-2.75895E-05-7.50563E-06 8.67417E-06-4.83486E-18-5.04832E-19
 -1      1681 2.84264E-05-5.15254E-05 2.32337E-06-8.63783E-06-7.41408E-18-2.47630E-18
 -1      1682 9.72253E-05-2.26021E-05-3.35192E-05 4.91306E-05-1.87025E-18-2.49028E-18
 -1      1683 6.16498E-05-3.01444E-05-1.93258E-05 1.89248E-05-2.82485E-18-1.85924E-18
 -1      1684 1.90113E-04-4.18362E-05-5.93348E-05 7.16944E-05-2.63004E-18-4.04712E-18
 -1      1685 1.29579E-04-2.50757E-05-4.62525E-05 5.38944E-05-1.59242E-18-3.44065E-18
 -1      1686 2.91844E-04-7.89634E-05-7.97181E-05 4.76720E-05-2.10895E-18 1.99900E-19
 -1      1687 2.24675E-04-4.96864E-05-6.95460E-05 5.94070E-05-3.06965E-18-2.93751E-18
 -1      1688 3.38429E-04-9.23215E-05-8.96760E-05 3.10867E-06-1.94860E-18 5.13429E-18
 -1      1689 3.09308E-04-7.88711E-05-8.59393E-05 4.27087E-05-2.49282E-18 7.31836E-19
 -1      1690 3.17418E-04-8.32538E-05-8.71754E-05-4.17267E-05-1.00882E-18 6.81014E-18
 -1      1691 3.43079E-04-9.51986E-05-9.02823E-05-4.70070E-06-5.83606E-19 6.37202E-18
 -1      1692 2.37765E-04-5.37179E-05-7.25741E-05-6.02966E-05 8.74562E-19 3.33392E-18
 -1      1693 2.98402E-04-7.92090E-05-8.13413E-05-4.53586E-05 4.70950E-19 5.70223E-18
 -1      1694 1.50802E-04-3.04811E-05-5.17141E-05-5.73558E-05 2.91888E-18-4.30293E-19
 -1      1695 2.11094E-04-4.96404E-05-6.35940E-05-7.02484E-05 1.29765E-18 3.21025E-18
 -1      1696 7.77612E-05-2.13046E-05-2.89022E-05-3.43115E-05 4.45370E-18-3.33223E-18
 -1      1697 1.16403E-04-2.13261E-05-4.07648E-05-5.90231E-05 3.30004E-18-1.29935E-18
 -1      1698 4.10629E-05-3.82581E-05-7.79695E-06-5.57123E-06 3.43472E-18-3.71678E-18
 -1      1699 5.57281E-05-2.15844E-05-1.83760E-05-2.79935E-05 3.83537E-18-5.72425E-18
 -1      1700 2.65281E-05-6.43347E-05 8.79492E-06 1.22538E-05 1.60682E-18-2.68658E-18
 -1      1701 2.47376E-05-4.10023E-05 1.09426E-06 2.94228E-06 3.01544E-18-4.18223E-18
 -1      1702 2.61361E-05-8.71919E-05 1.85872E-05 1.46733E-05-6.80167E-19-7.92823E-19
 -1      1703 1.96975E-05-7.03126E-05 1.47304E-05 1.94449E-05 8.12305E-19-7.71700E-19
 -1      1704 2.62404E-05-9.09595E-05 2.09304E-05 4.88395E-06-4.95091E-18-2.71771E-18
 -1      1705 2.45937E-05-8.97342E-05 2.06911E-05 1.71495E-05-1.25816E-18-2.60907E-18
 -1      1706 1.86089E-04-6.09886E-05-5.37324E-05-3.79000E-05-3.36717E-18-9.03784E-19
 -1      1707 1.63461E-04-4.79737E-05-5.15928E-05-2.65162E-05-2.49854E-18-2.67705E-18
 -1      1708 1.37952E-04-3.53129E-05-4.89585E-05-2.36503E-05-2.02949E-18-5.79688E-18
 -1      1709 1.86823E-04-4.27594E-05-6.27378E-05-2.56380E-05-3.15012E-18-4.54857E-19
 -1      1710 1.13856E-05-5.47774E-05 1.42768E-05 1.46008E-05-2.62093E-18-4.34401E-18
 -1      1711 1.32584E-04-3.32140E-05-4.81084E-05 2.23218E-05 4.47657E-19-8.51946E-18
 -1      1712 1.60061E-04-4.70156E-05-5.06613E-05 2.38182E-05 9.60324E-19-6.81311E-18
 -1      1713 8.57241E-05-3.29602E-05-2.32105E-05 5.04020E-05-8.47033E-19 3.51053E-18
 -1      1714 1.82461E-04-4.03058E-05-6.15456E-05 2.15574E-05 3.06626E-19-4.41939E-18
 -1      1715 9.51083E-05-2.87706E-05-2.84096E-05-3.73965E-07-2.88003E-18-4.88549E-19
 -1      1716 9.49679E-05-2.90551E-05-2.82390E-05-1.05444E-06-9.26352E-19-1.49811E-18
 -1      1717 2.39441E-05-4.82744E-05 6.95793E-06 2.82352E-05-3.20687E-18 4.87044E-19
 -1      1718 4.97079E-05-4.14455E-05-5.95351E-06 3.98213E-05-3.05101E-18 3.49539E-18
 -1      1719 1.29398E-04-2.79390E-05-4.20438E-05 5.67122E-05 2.30224E-18 3.67612E-18
 -1      1720 1.76566E-04-2.96444E-05-5.95075E-05 4.94376E-05 3.11158E-18 1.46452E-18
 -1      1721 2.13189E-04-3.41995E-05-7.22464E-05 2.99038E-05 2.88097E-18-3.64224E-19
 -1      1722 2.31947E-04-3.60765E-05-7.82997E-05 7.92100E-06 1.08124E-18 6.85250E-19
 -1      1723 2.19959E-04-3.22153E-05-7.55326E-05-1.73469E-05 9.92723E-19 2.96462E-21
 -1      1724 1.95536E-04-3.06184E-05-6.65106E-05-4.03005E-05 2.27312E-18-1.33154E-18
 -1      1725 1.55631E-04-2.72117E-05-5.23244E-05-5.62910E-05 2.74608E-18-2.32087E-18
 -1      1726 1.10317E-04-2.86238E-05-3.45091E-05-5.49978E-05 2.22516E-18-3.28310E-18
 -1      1727 7.00638E-05-3.48554E-05-1.63388E-05-4.74487E-05 5.99699E-19-4.49224E-18
 -1      1728 3.74378E-05-4.27621E-05-6.28351E-07-3.53192E-05-1.03423E-18-1.61259E-18
 -1      1729 1.81703E-05-5.20408E-05 1.04510E-05-2.31205E-05-2.72702E-18 4.06576E-19
 -1      1730 1.17072E-05-6.05219E-05 1.56965E-05-1.06795E-05-2.77700E-18-1.72244E-18
 -1      1731 1.67104E-05-5.74768E-05 1.23943E-05 1.71565E-06-3.23567E-18-3.19967E-18
 -1      1732 3.80569E-05-5.31480E-05 1.63166E-06 1.43668E-05-3.97682E-18-9.44124E-19
 -1      1733 8.49031E-05-5.37861E-05-1.68181E-05 2.67701E-05-3.53721E-18-4.24364E-19
 -1      1734 1.52606E-04-6.01189E-05-3.97717E-05 2.77685E-05-8.91079E-19-2.05829E-18
 -1      1735 2.16774E-04-6.31191E-05-6.14471E-05 1.39732E-05-2.87906E-18-1.33492E-18
 -1      1736 2.54802E-04-5.74036E-05-7.66650E-05-1.61469E-06-3.65664E-18 1.15874E-18
 -1      1737 2.73651E-04-5.33400E-05-8.26570E-05-2.34579E-06-2.48689E-18 6.27863E-19
 -1      1738 2.59943E-04-5.72098E-05-7.74119E-05-1.31307E-06 9.28348E-19 2.27852E-18
 -1      1739 2.25422E-04-6.38677E-05-6.48574E-05-7.64702E-06 2.23479E-18 2.07523E-18
 -1      1740 1.69376E-04-5.95713E-05-4.55592E-05-2.87633E-05 3.25769E-18 9.60535E-19
 -1      1741 1.07402E-04-5.46455E-05-2.56575E-05-3.10790E-05 2.04643E-18-1.27733E-18
 -1      1742 5.99844E-05-5.31886E-05-7.06501E-06-2.30455E-05 6.56451E-19-2.76810E-18
 -1      1743 2.81556E-05-5.64265E-05 7.06824E-06-1.00869E-05-8.62280E-19-2.25184E-18
 -1      1744 1.40317E-05-6.13792E-05 1.48290E-05 2.31160E-06-3.00824E-18-1.43360E-18
 -1      1745 1.06331E-04-2.31495E-05-3.57438E-05-1.72062E-05-2.31108E-19 7.76517E-19
 -1      1746 1.80431E-04-5.76412E-05-5.37517E-05 3.96445E-05 2.57159E-18-4.06121E-18
 -1      1747 8.91365E-05-1.05667E-05-3.37963E-05-1.33415E-05-1.10276E-19-4.06258E-19
 -1      1748 9.04656E-05-1.16312E-05-3.39365E-05-1.51195E-05-2.06067E-19-3.17161E-19
 -1      1749 9.25107E-05-1.38898E-05-3.38540E-05-1.60072E-05-2.03829E-19-1.96247E-19
 -1      1750 9.41990E-05-1.57983E-05-3.40922E-05-1.77304E-05-2.56770E-19-4.27222E-20
 -1      1751 9.34648E-05-1.63934E-05-3.30441E-05-1.37492E-05-2.39012E-19-2.16232E-19
 -1      1752 8.62089E-05-7.67298E-06-3.37298E-05-7.86249E-06 2.42198E-20-3.88550E-19
 -1      1753 8.66121E-05-7.97182E-06-3.37638E-05-9.25188E-06-1.17327E-20-4.76522E-19
 -1      1754 8.55900E-05-7.03473E-06-3.37260E-05-5.31974E-06 1.21495E-19-2.86813E-19
 -1      1755 8.58254E-05-7.21381E-06-3.37415E-05-6.62425E-06 7.47705E-20-3.32407E-19
 -1      1756 8.75905E-05-9.86666E-06-3.33432E-05-6.92768E-06 5.54459E-21-3.33188E-19
 -1      1757 8.52533E-05-6.67502E-06-3.37288E-05-2.88904E-06 3.27056E-19-1.67355E-19
 -1      1758 8.53749E-05-6.77002E-06-3.37349E-05-4.12833E-06 2.35140E-19-2.40451E-19
 -1      1759 8.69532E-05-9.15310E-06-3.33755E-05-4.53682E-06 2.18253E-19-2.23994E-19
 -1      1760 8.51217E-05-6.52636E-06-3.37321E-05-5.18909E-07 4.50014E-19-3.48872E-20
 -1      1761 8.51576E-05-6.55500E-06-3.37336E-05-1.72799E-06 4.15647E-19-1.10617E-19
 -1      1762 8.66194E-05-8.77299E-06-3.33952E-05-2.21769E-06 3.84980E-19-5.31248E-20
 -1      1763 8.51672E-05-6.56382E-06-3.37337E-05 1.84249E-06 5.23266E-19 4.78574E-20
 -1      1764 8.51253E-05-6.53083E-06-3.37320E-05 6.32412E-07 4.42889E-19-1.92965E-20
 -1      1765 8.65206E-05-8.65899E-06-3.34016E-05 6.36875E-08 4.83553E-19 1.03232E-20
 -1      1766 8.53993E-05-6.79440E-06-3.37350E-05 4.24724E-06 5.95031E-19 1.36769E-19
 -1      1767 8.52707E-05-6.69351E-06-3.37287E-05 3.00492E-06 5.57712E-19 5.82865E-20
 -1      1768 8.66366E-05-8.79214E-06-3.33944E-05 2.34633E-06 5.76839E-19 7.21368E-20
 -1      1769 8.58580E-05-7.24829E-06-3.37408E-05 6.70761E-06 6.43270E-19 3.48236E-19
 -1      1770 8.56191E-05-7.06585E-06-3.37257E-05 5.42073E-06 5.95934E-19 2.26674E-19
 -1      1771 8.69862E-05-9.18971E-06-3.33738E-05 4.64843E-06 6.31209E-19 2.31485E-19
 -1      1772 8.66731E-05-8.03865E-06-3.37621E-05 9.36928E-06 7.92793E-19 5.56196E-19
 -1      1773 8.62517E-05-7.72228E-06-3.37280E-05 7.94862E-06 7.02781E-19 4.47961E-19
 -1      1774 8.76408E-05-9.92375E-06-3.33400E-05 7.02298E-06 7.35199E-19 4.42760E-19
 -1      1775 8.80838E-05-9.38431E-06-3.38179E-05 1.22479E-05 7.80792E-19 8.21728E-19
 -1      1776 8.73456E-05-8.82765E-06-3.37458E-05 1.06552E-05 7.66174E-19 6.36969E-19
 -1      1777 8.87634E-05-1.11597E-05-3.32900E-05 9.49834E-06 8.26085E-19 6.53473E-19
 -1      1778 9.06491E-05-1.18482E-05-3.39285E-05 1.53203E-05 6.92291E-19 1.27624E-18
 -1      1779 8.92755E-05-1.07485E-05-3.37887E-05 1.34947E-05 7.11693E-19 9.82135E-19
 -1      1780 9.06596E-05-1.32251E-05-3.32083E-05 1.19513E-05 7.66532E-19 8.86738E-19
 -1      1781 9.58947E-05-1.70851E-05-3.39952E-05 1.76693E-05 4.88993E-19 2.07417E-18
 -1      1782 9.28501E-05-1.43282E-05-3.38279E-05 1.61708E-05 5.75767E-19 1.60169E-18
 -1      1783 9.38901E-05-1.68611E-05-3.30148E-05 1.38506E-05 5.88617E-19 1.41537E-18
 -1      1784 1.01926E-04-2.50993E-05-3.33622E-05 1.44106E-05 2.63745E-19 2.80421E-18
 -1      1785 9.80752E-05-1.95815E-05-3.36285E-05 1.69659E-05 3.69114E-19 2.36100E-18
 -1      1786 9.74170E-05-2.18806E-05-3.24212E-05 1.32748E-05 4.42601E-19 2.02737E-18
 -1      1787 9.87896E-05-2.61502E-05-3.13456E-05 9.42601E-06 2.39472E-19 2.75977E-18
 -1      1788 1.00232E-04-1.94487E-05-3.42967E-05-1.91029E-05-2.78409E-19 2.49451E-19
 -1      1789 9.53972E-05-2.73119E-05-2.91969E-05 4.09808E-06 1.44724E-19 2.56490E-18
 -1      1790 9.77380E-05-2.73954E-05-3.01974E-05 6.39088E-06 1.95559E-19 2.61479E-18
 -1      1791 9.75909E-05-2.56168E-05-3.08269E-05 8.71502E-06 2.43257E-19 2.15187E-18
 -1      1792 9.70867E-05-2.69107E-05-2.99661E-05-5.94000E-06-3.06838E-19 1.79430E-19
 -1      1793 9.52549E-05-2.70039E-05-2.92265E-05-4.04847E-06-2.39565E-19 1.19617E-19
 -1      1794 9.44345E-05-2.72282E-05-2.87045E-05-2.53300E-06-2.42999E-19 1.30880E-19
 -1      1795 9.36327E-05-2.73113E-05-2.83865E-05-1.64807E-06-1.86440E-19 3.13005E-21
 -1      1796 9.55783E-05-2.64899E-05-2.96311E-05-4.63648E-06-2.45825E-19-5.55865E-21
 -1      1797 9.30957E-05-2.73658E-05-2.81095E-05-7.96628E-07-1.48628E-19 6.73987E-21
 -1      1798 9.27780E-05-2.74294E-05-2.79815E-05-3.43415E-07-1.78284E-19 1.77232E-20
 -1      1799 9.43535E-05-2.72016E-05-2.88002E-05-1.91930E-06-2.09790E-19-1.34665E-21
 -1      1800 9.24930E-05-2.74574E-05-2.78407E-05 1.26015E-07-3.04283E-19-3.60320E-21
 -1      1801 9.24534E-05-2.75336E-05-2.78079E-05 3.58113E-07-4.04812E-19-1.21070E-19
 -1      1802 9.36332E-05-2.75192E-05-2.83513E-05-4.09419E-07-2.98953E-19 2.53018E-20
 -1      1803 9.23440E-05-2.75649E-05-2.77469E-05 6.06095E-07-4.56280E-19-1.12681E-19
 -1      1804 9.24552E-05-2.76503E-05-2.77647E-05 7.14568E-07-3.59349E-19-2.87238E-20
 -1      1805 9.32984E-05-2.77081E-05-2.81225E-05 4.18293E-07-4.09650E-19 1.79145E-19
 -1      1806 9.24571E-05-2.76882E-05-2.77512E-05 8.30396E-07-3.45656E-19 9.08625E-20
 -1      1807 9.26438E-05-2.77755E-05-2.77954E-05 8.66579E-07-2.00328E-19-2.24989E-20
 -1      1808 9.32262E-05-2.78531E-05-2.80255E-05 8.44402E-07-3.04691E-19 2.78118E-19
 -1      1809 9.27106E-05-2.78171E-05-2.78094E-05 9.02608E-07-1.85461E-19-2.02384E-19
 -1      1810 9.29274E-05-2.79006E-05-2.78656E-05 8.96350E-07-9.89366E-20-2.19972E-19
 -1      1811 9.33162E-05-2.79779E-05-2.80073E-05 1.02834E-06-3.76741E-19 1.74530E-19
 -1      1812 9.30278E-05-2.79423E-05-2.78943E-05 8.84958E-07-1.47636E-19-3.21964E-19
 -1      1813 9.32475E-05-2.80183E-05-2.79538E-05 8.54778E-07-1.57994E-19-3.21643E-19
 -1      1814 9.34962E-05-2.80882E-05-2.80348E-05 1.06603E-06-1.83935E-19-1.79110E-19
 -1      1815 9.33610E-05-2.80577E-05-2.79891E-05 8.16709E-07-7.99999E-20-3.40480E-19
 -1      1816 9.35678E-05-2.81245E-05-2.80465E-05 7.74468E-07 1.15998E-19-3.48984E-19
 -1      1817 9.37175E-05-2.81847E-05-2.80868E-05 1.01787E-06 6.02746E-21-6.35259E-20
 -1      1818 9.36816E-05-2.81598E-05-2.80834E-05 7.23217E-07 1.45124E-19-4.44143E-19
 -1      1819 9.38673E-05-2.82168E-05-2.81359E-05 6.76549E-07 3.77781E-19-5.96942E-19
 -1      1820 9.39487E-05-2.82673E-05-2.81494E-05 9.22938E-07 1.39806E-19-1.95196E-19
 -1      1821 9.39739E-05-2.82475E-05-2.81713E-05 6.20849E-07 3.37234E-19-8.57308E-19
 -1      1822 9.41350E-05-2.82949E-05-2.82175E-05 5.74578E-07 2.55580E-20-8.18712E-19
 -1      1823 9.41708E-05-2.83365E-05-2.82144E-05 8.06715E-07 2.03680E-19-6.11723E-19
 -1      1824 9.42305E-05-2.83209E-05-2.82498E-05 5.19951E-07-1.47933E-19-6.93699E-19
 -1      1825 9.43667E-05-2.83595E-05-2.82893E-05 4.77001E-07-3.50549E-19-5.53790E-19
 -1      1826 9.43731E-05-2.83931E-05-2.82765E-05 6.85592E-07-3.90946E-20-7.25116E-19
 -1      1827 9.44497E-05-2.83809E-05-2.83178E-05 4.26785E-07-2.39003E-19-4.62903E-19
 -1      1828 9.45625E-05-2.84118E-05-2.83508E-05 3.88804E-07-2.21160E-19-2.12409E-19
 -1      1829 9.45509E-05-2.84385E-05-2.83331E-05 5.69817E-07 1.35959E-20-8.82963E-20
 -1      1830 9.46330E-05-2.84292E-05-2.83753E-05 3.44888E-07-5.37986E-19-8.15866E-20
 -1      1831 9.47251E-05-2.84535E-05-2.84026E-05 3.12700E-07-4.63090E-19-3.31302E-19
 -1      1832 9.47032E-05-2.84742E-05-2.83830E-05 4.65487E-07-4.36996E-19-4.13356E-20
 -1      1833 9.47844E-05-2.84675E-05-2.84235E-05 2.76059E-07-1.69668E-19-7.25281E-20
 -1      1834 9.48591E-05-2.84864E-05-2.84458E-05 2.50008E-07 2.52821E-19-2.54564E-19
 -1      1835 9.48316E-05-2.85019E-05-2.84263E-05 3.75994E-07-2.47628E-19 6.17896E-20
 -1      1836 9.49090E-05-2.84976E-05-2.84636E-05 2.21121E-07 1.63913E-19-2.74272E-19
 -1      1837 9.49699E-05-2.85123E-05-2.84820E-05 2.01348E-07-1.17205E-19-2.76067E-19
 -1      1838 9.49392E-05-2.85230E-05-2.84635E-05 3.03104E-07 1.14090E-20 5.99521E-19
 -1      1839 9.50127E-05-2.85213E-05-2.84975E-05 1.80542E-07-3.30415E-19-2.38195E-19
 -1      1840 9.50637E-05-2.85329E-05-2.85131E-05 1.67226E-07-2.67409E-19-1.33342E-19
 -1      1841 9.50301E-05-2.85388E-05-2.84959E-05 2.47827E-07-1.35553E-19 3.38527E-19
 -1      1842 9.51019E-05-2.85403E-05-2.85272E-05 1.55004E-07-2.34973E-19 2.88369E-19
 -1      1843 9.51474E-05-2.85499E-05-2.85414E-05 1.48615E-07 1.32962E-19 2.62804E-19
 -1      1844 9.51092E-05-2.85507E-05-2.85249E-05 2.11170E-07 1.04383E-19 2.94098E-19
 -1      1845 9.51840E-05-2.85562E-05-2.85552E-05 1.46002E-07 4.17732E-20-1.65650E-19
 -1      1846 9.52289E-05-2.85647E-05-2.85693E-05 1.47609E-07-2.17229E-20-4.11824E-19
 -1      1847 9.51817E-05-2.85592E-05-2.85525E-05 1.94895E-07-3.12697E-19 5.89409E-19
 -1      1848 9.52672E-05-2.85705E-05-2.85844E-05 1.56606E-07 3.85148E-19-8.22999E-19
 -1      1849 9.53174E-05-2.85791E-05-2.86004E-05 1.68306E-07 8.63763E-19-1.15824E-18
 -1      1850 9.52539E-05-2.85650E-05-2.85813E-05 2.02410E-07-1.80858E-19 2.25833E-19
 -1      1851 9.53616E-05-2.85844E-05-2.86184E-05 1.92528E-07 6.27669E-19-1.00040E-18
 -1      1852 9.54250E-05-2.85942E-05-2.86387E-05 2.18098E-07 2.54740E-19-1.02014E-18
 -1      1853 9.53330E-05-2.85677E-05-2.86144E-05 2.39971E-07 5.91266E-19 4.18768E-19
 -1      1854 9.54801E-05-2.85992E-05-2.86624E-05 2.63744E-07 3.51211E-19-9.33282E-19
 -1      1855 9.55677E-05-2.86116E-05-2.86906E-05 3.09669E-07-9.05666E-20-1.78227E-19
 -1      1856 9.54275E-05-2.85661E-05-2.86560E-05 3.18438E-07 4.51348E-19 3.13759E-19
 -1      1857 9.56402E-05-2.86155E-05-2.87234E-05 3.87009E-07-5.26835E-19-2.19913E-19
 -1      1858 9.57682E-05-2.86323E-05-2.87647E-05 4.64125E-07-4.28452E-19-1.74000E-19
 -1      1859 9.55480E-05-2.85570E-05-2.87120E-05 4.55936E-07-1.52899E-19 2.85862E-19
 -1      1860 9.58659E-05-2.86336E-05-2.88117E-05 5.89811E-07-9.38757E-19-2.31461E-19
 -1      1861 9.60587E-05-2.86572E-05-2.88739E-05 7.15910E-07-9.00353E-19 4.22237E-19
 -1      1862 9.57077E-05-2.85345E-05-2.87906E-05 6.81941E-07-8.23919E-19-2.39219E-19
 -1      1863 9.61913E-05-2.86521E-05-2.89424E-05 9.16481E-07-6.97422E-19 5.41968E-19
 -1      1864 9.64860E-05-2.86858E-05-2.90376E-05 1.12040E-06-2.95244E-19 8.74330E-21
 -1      1865 9.59223E-05-2.84872E-05-2.89032E-05 1.04346E-06-6.11841E-19 2.52984E-19
 -1      1866 9.66639E-05-2.86671E-05-2.91376E-05 1.43746E-06-1.31108E-20 2.20822E-19
 -1      1867 9.71167E-05-2.87155E-05-2.92842E-05 1.76525E-06 3.87034E-19 1.92845E-19
 -1      1868 9.62098E-05-2.83953E-05-2.90659E-05 1.61414E-06-7.15718E-20 1.13387E-19
 -1      1869 9.73488E-05-2.86700E-05-2.94294E-05 2.26268E-06-8.61724E-20 3.54772E-19
 -1      1870 9.80440E-05-2.87401E-05-2.96550E-05 2.78637E-06-1.24779E-19-2.88642E-19
 -1      1871 9.65868E-05-2.82247E-05-2.92998E-05 2.50704E-06 1.97610E-19 4.18598E-19
 -1      1872 9.83319E-05-2.86446E-05-2.98626E-05 3.55916E-06-1.71597E-19-2.99757E-19
 -1      1873 9.93926E-05-2.87481E-05-3.02073E-05 4.38715E-06-5.74328E-20 4.05500E-20
 -1      1874 9.70611E-05-2.79199E-05-2.96310E-05 3.89056E-06-2.80811E-20 4.76254E-19
 -1      1875 9.97191E-05-2.85667E-05-3.04954E-05 5.56911E-06 4.42482E-19-3.55772E-19
 -1      1876 1.01318E-04-2.87279E-05-3.10137E-05 6.85229E-06 7.42239E-19 2.64715E-19
 -1      1877 9.76166E-05-2.73992E-05-3.00863E-05 6.00368E-06 9.68595E-20 5.25182E-19
 -1      1878 1.01633E-04-2.84178E-05-3.13924E-05 8.61344E-06 4.84192E-19 7.49227E-20
 -1      1879 1.03998E-04-2.86983E-05-3.21466E-05 1.05262E-05 5.94247E-19 4.19491E-19
 -1      1880 9.81909E-05-2.65652E-05-3.06786E-05 9.15685E-06 8.12417E-19 1.20313E-18
 -1      1881 1.04218E-04-2.82516E-05-3.25942E-05 1.30359E-05 6.55379E-19 1.71855E-19
 -1      1882 1.07622E-04-2.88257E-05-3.36235E-05 1.56745E-05 2.91935E-19 8.14799E-19
 -1      1883 9.86641E-05-2.53811E-05-3.13696E-05 1.36840E-05 7.09734E-19 1.05915E-18
 -1      1884 1.07721E-04-2.84216E-05-3.40365E-05 1.89754E-05-6.11240E-19 8.47136E-19
 -1      1885 1.12471E-04-2.97674E-05-3.52761E-05 2.20409E-05-2.43787E-20 5.49301E-19
 -1      1886 9.89411E-05-2.41346E-05-3.19894E-05 1.97727E-05-5.35417E-20 1.36675E-18
 -1      1887 1.12864E-04-3.02027E-05-3.54039E-05 2.57466E-05 9.76503E-19 5.81455E-19
 -1      1888 1.19285E-04-3.34486E-05-3.65649E-05 2.78541E-05 1.39379E-18 5.03296E-19
 -1      1889 9.93426E-05-2.41112E-05-3.21101E-05 2.70549E-05 2.72791E-19 1.74585E-18
 -1      1890 1.21586E-04-3.65614E-05-3.61361E-05 3.02740E-05 1.26308E-18-3.52935E-19
 -1      1891 1.29660E-04-4.29032E-05-3.68366E-05 2.83604E-05 6.52851E-19-2.44276E-19
 -1      1892 1.01784E-04-2.87356E-05-3.10933E-05 3.37000E-05 7.56506E-19 8.12993E-19
 -1      1893 1.36754E-04-5.07115E-05-3.62363E-05 2.66508E-05 8.70326E-20 1.22972E-19
 -1      1894 1.46170E-04-5.92312E-05-3.69881E-05 1.82673E-05-5.33419E-19-4.15681E-19
 -1      1895 1.10155E-04-4.19047E-05-2.91117E-05 3.59646E-05 9.15854E-19-6.40251E-19
 -1      1896 3.41714E-05-3.77133E-05 7.59499E-07 4.03254E-05-1.04947E-18 2.20250E-18
 -1      1897 2.26815E-05-3.67260E-05 5.18231E-06 3.22018E-05-4.37916E-19 6.46710E-19
 -1      1898 1.10179E-04-4.32127E-05-2.83984E-05 5.16005E-05-6.00546E-19 2.48308E-18
 -1      1899 9.01865E-05-4.58623E-05-1.98498E-05 4.77924E-05-2.72448E-18 3.27950E-18
 -1      1900 9.99135E-05-2.24534E-05-3.29197E-05-1.46646E-05-2.23511E-19 1.42831E-19
 -1      1901 1.56725E-04-6.09921E-05-4.07482E-05-1.20236E-05 1.65786E-18-1.24747E-18
 -1      1902 1.47599E-04-5.27068E-05-3.98480E-05-2.23540E-05 1.80587E-18-8.62253E-20
 -1      1903 1.35436E-04-4.48019E-05-3.87759E-05-2.68968E-05-9.04843E-19-2.59755E-19
 -1      1904 1.26953E-04-3.82877E-05-3.76500E-05-2.90061E-05-2.19440E-18-1.95269E-18
 -1      1905 1.23094E-04-3.52896E-05-3.74952E-05-2.73791E-05-1.16765E-18-2.63184E-18
 -1      1906 1.15594E-04-3.18437E-05-3.58721E-05-2.55362E-05-1.74474E-18-3.37958E-18
 -1      1907 1.09529E-04-3.18274E-05-3.29504E-05-3.44119E-05-2.62458E-18-2.30996E-18
 -1      1908 1.13839E-04-3.11358E-05-3.53091E-05-2.21544E-05-1.47505E-18-4.46490E-18
 -1      1909 1.07913E-04-2.92909E-05-3.37352E-05-1.94103E-05-7.67266E-19-4.16806E-18
 -1      1910 1.03668E-04-2.66525E-05-3.29196E-05-2.82219E-05-2.16735E-18-3.09273E-18
 -1      1911 1.06672E-04-2.92061E-05-3.30716E-05-1.62236E-05 2.44382E-19-5.00938E-18
 -1      1912 1.02321E-04-2.80384E-05-3.18457E-05-1.36500E-05 4.12452E-19-3.76178E-18
 -1      1913 1.00716E-04-2.56692E-05-3.21234E-05-2.12218E-05-8.86169E-19-3.47257E-18
 -1      1914 1.01150E-04-2.78488E-05-3.13163E-05-1.08998E-05 7.22360E-19-3.29691E-18
 -1      1915 9.81137E-05-2.68902E-05-3.05042E-05-8.50449E-06 1.74069E-18-2.20438E-18
 -1      1916 9.83173E-05-2.55103E-05-3.12173E-05-1.48401E-05 1.32982E-18-4.15938E-18
 -1      1917 9.66213E-05-2.61638E-05-3.01798E-05-5.86058E-06 2.06343E-18-1.72270E-18
 -1      1918 9.27630E-05-2.73592E-05-2.79961E-05 7.83189E-07 3.60221E-19 2.01227E-18
 -1      1919 9.32354E-05-2.73134E-05-2.81917E-05 1.36375E-06 2.47215E-19 2.11560E-18
 -1      1920 9.22302E-05-2.74307E-05-2.77496E-05-9.06550E-08 1.95269E-19 1.82147E-18
 -1      1921 9.23558E-05-2.73713E-05-2.78081E-05 1.98486E-07 4.02834E-19 1.91849E-18
 -1      1922 9.36841E-05-2.74280E-05-2.84120E-05 9.48018E-07 4.16188E-19 1.36350E-18
 -1      1923 9.21279E-05-2.75260E-05-2.76735E-05-5.50784E-07 1.51052E-19 1.48369E-18
 -1      1924 9.20486E-05-2.74464E-05-2.76646E-05-4.07475E-07 1.18414E-19 1.59069E-18
 -1      1925 9.31567E-05-2.76045E-05-2.81082E-05-1.10065E-07 3.23547E-19 1.16330E-18
 -1      1926 9.22808E-05-2.76456E-05-2.76929E-05-7.66960E-07-1.36092E-20 1.59334E-18
 -1      1927 9.20951E-05-2.75562E-05-2.76490E-05-7.06304E-07-2.46041E-20 1.53820E-18
 -1      1928 9.29869E-05-2.77407E-05-2.79729E-05-6.71613E-07 1.22722E-19 1.07027E-18
 -1      1929 9.25688E-05-2.77753E-05-2.77639E-05-8.38350E-07 1.13948E-19 1.67544E-18
 -1      1930 9.23364E-05-2.76853E-05-2.77034E-05-8.26318E-07 2.53174E-20 1.67775E-18
 -1      1931 9.30363E-05-2.78640E-05-2.79376E-05-9.38111E-07-3.70234E-20 1.14677E-18
 -1      1932 9.29155E-05-2.79038E-05-2.78594E-05-8.24408E-07 6.65167E-20 1.91777E-18
 -1      1933 9.26721E-05-2.78190E-05-2.77935E-05-8.40582E-07 7.14750E-20 1.82001E-18
 -1      1934 9.32113E-05-2.79794E-05-2.79604E-05-1.02736E-06 6.18274E-20 1.42538E-18
 -1      1935 9.32736E-05-2.80236E-05-2.79628E-05-7.62446E-07 1.60258E-19 1.93147E-18
 -1      1936 9.30398E-05-2.79473E-05-2.78980E-05-7.93914E-07 2.08305E-19 1.97409E-18
 -1      1937 9.34485E-05-2.80855E-05-2.80147E-05-1.01138E-06 1.80226E-19 1.66866E-18
 -1      1938 9.36150E-05-2.81307E-05-2.80640E-05-6.76475E-07 3.80170E-19 1.74153E-18
 -1      1939 9.34021E-05-2.80643E-05-2.80041E-05-7.14903E-07 3.16472E-19 1.77928E-18
 -1      1940 9.37069E-05-2.81801E-05-2.80836E-05-9.35952E-07 3.73655E-19 1.75277E-18
 -1      1941 9.39242E-05-2.82232E-05-2.81575E-05-5.81985E-07 3.39761E-19 1.45992E-18
 -1      1942 9.37376E-05-2.81670E-05-2.81043E-05-6.22023E-07 4.46206E-19 1.74075E-18
 -1      1943 9.39609E-05-2.82619E-05-2.81566E-05-8.30778E-07 3.63158E-19 1.55299E-18
 -1      1944 9.41947E-05-2.83011E-05-2.82403E-05-4.88785E-07-1.01041E-19 1.42378E-18
 -1      1945 9.40355E-05-2.82546E-05-2.81945E-05-5.27087E-07 1.69164E-19 1.32397E-18
 -1      1946 9.41960E-05-2.83309E-05-2.82273E-05-7.15079E-07 1.85727E-19 1.56822E-18
 -1      1947 9.44252E-05-2.83653E-05-2.83117E-05-4.02825E-07-3.86804E-19 1.77126E-18
 -1      1948 9.42922E-05-2.83275E-05-2.82732E-05-4.37411E-07-3.48759E-19 1.66461E-18
 -1      1949 9.44048E-05-2.83877E-05-2.82923E-05-6.01050E-07-2.94418E-19 1.25236E-18
 -1      1950 9.46178E-05-2.84173E-05-2.83720E-05-3.27437E-07 1.09381E-19 1.61109E-18
 -1      1951 9.45085E-05-2.83870E-05-2.83401E-05-3.57253E-07 4.66125E-20 1.86750E-18
 -1      1952 9.45850E-05-2.84336E-05-2.83498E-05-4.96094E-07-2.05152E-19 1.27408E-18
 -1      1953 9.47768E-05-2.84590E-05-2.84223E-05-2.64202E-07 5.03606E-20 1.13567E-18
 -1      1954 9.46879E-05-2.84350E-05-2.83961E-05-2.88803E-07 3.22052E-20 1.26696E-18
 -1      1955 9.47373E-05-2.84700E-05-2.83995E-05-4.04357E-07 3.08204E-19 7.82131E-19
 -1      1956 9.49075E-05-2.84923E-05-2.84639E-05-2.13540E-07-1.69942E-19 1.50589E-18
 -1      1957 9.48352E-05-2.84733E-05-2.84425E-05-2.32886E-07-1.87055E-19 1.23726E-18
 -1      1958 9.48646E-05-2.84986E-05-2.84419E-05-3.27795E-07-2.55104E-19 1.15556E-18
 -1      1959 9.50156E-05-2.85192E-05-2.84986E-05-1.75088E-07 3.35931E-19 1.54917E-18
 -1      1960 9.49563E-05-2.85039E-05-2.84809E-05-1.89415E-07 1.93925E-19 1.36768E-18
 -1      1961 9.49704E-05-2.85210E-05-2.84777E-05-2.66894E-07-3.75985E-20 9.42256E-19
 -1      1962 9.51067E-05-2.85416E-05-2.85280E-05-1.47886E-07-1.47258E-19 1.43970E-18
 -1      1963 9.50568E-05-2.85288E-05-2.85130E-05-1.57654E-07 2.15350E-19 1.66496E-18
 -1      1964 9.50590E-05-2.85390E-05-2.85081E-05-2.21114E-07 2.54984E-19 4.31303E-19
 -1      1965 9.51856E-05-2.85613E-05-2.85533E-05-1.30365E-07 1.07657E-19 1.77513E-18
 -1      1966 9.51423E-05-2.85500E-05-2.85403E-05-1.36292E-07-2.64153E-19 1.53911E-18
 -1      1967 9.51346E-05-2.85542E-05-2.85341E-05-1.89074E-07-1.23905E-19 4.90964E-19
 -1      1968 9.52566E-05-2.85799E-05-2.85758E-05-1.20149E-07-5.92767E-19 1.70281E-18
 -1      1969 9.52174E-05-2.85691E-05-2.85642E-05-1.23321E-07-5.33652E-20 1.58060E-18
 -1      1970 9.52010E-05-2.85683E-05-2.85566E-05-1.68486E-07-1.44952E-19 7.23790E-19
 -1      1971 9.53221E-05-2.85988E-05-2.85959E-05-1.13626E-07 3.29734E-19 1.79168E-18
 -1      1972 9.52858E-05-2.85878E-05-2.85853E-05-1.15712E-07-1.44388E-19 1.84890E-18
 -1      1973 9.52614E-05-2.85830E-05-2.85763E-05-1.55832E-07-1.57159E-19 1.83607E-18
 -1      1974 9.53821E-05-2.86191E-05-2.86133E-05-1.05297E-07 6.30364E-20 2.30577E-18
 -1      1975 9.53492E-05-2.86075E-05-2.86040E-05-1.08859E-07 1.48040E-19 2.10272E-18
 -1      1976 9.53179E-05-2.86001E-05-2.85932E-05-1.45756E-07-8.09820E-20 2.05546E-18
 -1      1977 9.54332E-05-2.86413E-05-2.86264E-05-8.69022E-08-2.35729E-19 2.06244E-18
 -1      1978 9.54064E-05-2.86292E-05-2.86194E-05-9.58016E-08-4.17121E-20 2.40967E-18
 -1      1979 9.53706E-05-2.86217E-05-2.86064E-05-1.30167E-07-2.10939E-19 1.97484E-18
 -1      1980 9.54667E-05-2.86649E-05-2.86318E-05-4.64218E-08-7.47676E-20 2.32187E-18
 -1      1981 9.54524E-05-2.86531E-05-2.86291E-05-6.62630E-08-1.94879E-19 2.22532E-18
 -1      1982 9.54170E-05-2.86497E-05-2.86141E-05-9.71033E-08-9.00943E-20 2.28124E-18
 -1      1983 9.54667E-05-2.86874E-05-2.86239E-05 3.28353E-08 5.76246E-19 1.23724E-18
 -1      1984 9.54761E-05-2.86780E-05-2.86289E-05-5.67231E-09 2.45795E-19 1.86229E-18
 -1      1985 9.54509E-05-2.86854E-05-2.86129E-05-2.95154E-08 3.70920E-19 1.65567E-18
 -1      1986 9.54080E-05-2.87035E-05-2.85941E-05 1.72604E-07 9.57871E-19 1.58233E-18
 -1      1987 9.54583E-05-2.87009E-05-2.86121E-05 1.05506E-07 6.28881E-19 1.25475E-18
 -1      1988 9.54601E-05-2.87292E-05-2.85975E-05 9.56850E-08 7.00523E-19 5.12410E-19
 -1      1989 9.52535E-05-2.87039E-05-2.85307E-05 3.98757E-07 8.06528E-19 1.34943E-18
 -1      1990 9.53695E-05-2.87149E-05-2.85688E-05 2.91526E-07 1.27643E-18 1.88097E-18
 -1      1991 9.54254E-05-2.87784E-05-2.85605E-05 3.07652E-07 8.87904E-19 1.37332E-18
 -1      1992 9.49532E-05-2.86726E-05-2.84188E-05 7.38056E-07-6.16021E-19 1.47924E-18
 -1      1993 9.51675E-05-2.87080E-05-2.84862E-05 5.79265E-07 3.99707E-19 1.38914E-18
 -1      1994 9.53173E-05-2.88258E-05-2.84925E-05 6.39671E-07 5.64072E-19 1.64275E-18
 -1      1995 9.44451E-05-2.85862E-05-2.82415E-05 1.21135E-06-7.46526E-19 1.31887E-18
 -1      1996 9.47966E-05-2.86608E-05-2.83485E-05 9.93104E-07-1.19698E-18 1.22934E-18
 -1      1997 9.50951E-05-2.88560E-05-2.83825E-05 1.12388E-06-6.00545E-19 1.37986E-18
 -1      1998 9.36608E-05-2.84127E-05-2.79823E-05 1.82237E-06 8.99360E-19 7.97195E-19
 -1      1999 9.41900E-05-2.85453E-05-2.81390E-05 1.54566E-06-9.36584E-20 9.17956E-19
 -1      2000 9.47060E-05-2.88422E-05-2.82194E-05 1.78117E-06-5.88638E-20 5.68225E-19
 -1      2001 9.25362E-05-2.81137E-05-2.76291E-05 2.54269E-06 8.89929E-19 1.51695E-18
 -1      2002 9.32766E-05-2.83247E-05-2.78428E-05 2.22421E-06 1.14920E-18 1.30677E-18
 -1      2003 9.40879E-05-2.87443E-05-2.79943E-05 2.60568E-06 6.83503E-19 1.22127E-18
 -1      2004 9.10313E-05-2.76517E-05-2.71797E-05 3.29648E-06-9.82639E-19 1.99594E-18
 -1      2005 9.19966E-05-2.79580E-05-2.74514E-05 2.97476E-06 2.54605E-19 1.94654E-18
 -1      2006 9.31787E-05-2.85103E-05-2.77031E-05 3.54525E-06 8.86870E-20 2.83970E-18
 -1      2007 8.91569E-05-2.70041E-05-2.66478E-05 3.95246E-06-6.92057E-19 2.19910E-18
 -1      2008 9.03247E-05-2.74107E-05-2.69685E-05 3.68978E-06-7.81692E-19 1.72681E-18
 -1      2009 9.19330E-05-2.80861E-05-2.73506E-05 4.48377E-06-7.36268E-19 3.17995E-18
 -1      2010 8.70025E-05-2.61833E-05-2.60667E-05 4.33421E-06 8.66832E-19 1.82442E-18
 -1      2011 8.83009E-05-2.66728E-05-2.64148E-05 4.20917E-06-2.96556E-19 1.88816E-18
 -1      2012 9.03501E-05-2.74355E-05-2.69532E-05 5.23614E-06-1.70838E-19 2.24567E-18
 -1      2013 8.47560E-05-2.52561E-05-2.54898E-05 4.25800E-06 1.35350E-18 1.72895E-18
 -1      2014 8.60586E-05-2.57809E-05-2.58313E-05 4.34586E-06 1.75273E-18 2.13784E-18
 -1      2015 8.85054E-05-2.65697E-05-2.65395E-05 5.56999E-06 9.58159E-19 1.35099E-18
 -1      2016 8.26955E-05-2.43511E-05-2.49839E-05 3.59685E-06 1.63699E-20 1.11861E-18
 -1      2017 8.38346E-05-2.48344E-05-2.52768E-05 3.94023E-06 6.96081E-19 1.50661E-18
 -1      2018 8.65743E-05-2.55737E-05-2.61480E-05 5.26392E-06 1.03950E-18 2.10846E-18
 -1      2019 8.11433E-05-2.36373E-05-2.46177E-05 2.34936E-06-3.14547E-19 6.27630E-19
 -1      2020 8.19425E-05-2.39888E-05-2.48198E-05 2.93104E-06-1.56992E-19 4.68786E-19
 -1      2021 8.48253E-05-2.46115E-05-2.58219E-05 4.19440E-06 2.53911E-20 9.80394E-19
 -1      2022 8.03828E-05-2.32744E-05-2.44457E-05 6.75739E-07 4.19381E-20 1.99352E-19
 -1      2023 8.07030E-05-2.34184E-05-2.45249E-05 1.41015E-06-3.24215E-19 7.37349E-21
 -1      2024 8.35672E-05-2.38908E-05-2.56011E-05 2.41720E-06 1.15041E-19 2.49661E-19
 -1      2025 8.05675E-05-2.33516E-05-2.44951E-05-1.13105E-06-9.73598E-19 1.05864E-18
 -1      2026 8.03485E-05-2.32553E-05-2.44377E-05-3.77072E-07-8.56297E-20 4.08342E-19
 -1      2027 8.30561E-05-2.35919E-05-2.55144E-05 1.93077E-07-3.70034E-19-2.77483E-19
 -1      2028 8.16656E-05-2.38488E-05-2.47589E-05-2.73847E-06-1.25134E-18 6.26851E-19
 -1      2029 8.09449E-05-2.35354E-05-2.45734E-05-2.10125E-06-1.35420E-18 9.19439E-19
 -1      2030 8.34005E-05-2.37914E-05-2.55738E-05-2.07508E-06-1.10998E-18 5.92210E-19
 -1      2031 8.34733E-05-2.46466E-05-2.51986E-05-3.88749E-06-2.46804E-19 2.30320E-19
 -1      2032 8.23715E-05-2.41844E-05-2.49129E-05-3.46115E-06-7.89484E-19-2.05515E-19
 -1      2033 8.45196E-05-2.44283E-05-2.57721E-05-3.97688E-06-5.52792E-19 5.74427E-20
 -1      2034 8.56876E-05-2.55783E-05-2.57543E-05-4.46572E-06 1.91211E-18-1.03688E-18
 -1      2035 8.43698E-05-2.50533E-05-2.54075E-05-4.27926E-06 8.92713E-19-1.55550E-19
 -1      2036 8.61779E-05-2.53340E-05-2.60841E-05-5.23126E-06 4.43865E-19-6.57308E-19
 -1      2037 8.79996E-05-2.64921E-05-2.63584E-05-4.51018E-06 2.28742E-18-8.05839E-19
 -1      2038 8.66304E-05-2.59783E-05-2.59922E-05-4.53471E-06 1.97008E-18-4.15486E-19
 -1      2039 8.80759E-05-2.63068E-05-2.64714E-05-5.75439E-06 1.48222E-18-3.32940E-19
 -1      2040 9.01668E-05-2.72955E-05-2.69469E-05-4.14715E-06-4.65526E-19 2.60478E-19
 -1      2041 8.88786E-05-2.68371E-05-2.65985E-05-4.32703E-06 1.44892E-18-3.23679E-19
 -1      2042 8.99465E-05-2.71901E-05-2.68887E-05-5.63770E-06 1.38186E-18 7.00280E-19
 -1      2043 9.20405E-05-2.79680E-05-2.74654E-05-3.50493E-06 5.41775E-19-1.14337E-18
 -1      2044 9.09241E-05-2.75769E-05-2.71650E-05-3.79681E-06-5.99900E-19-2.38665E-19
 -1      2045 9.16158E-05-2.79167E-05-2.72903E-05-5.05849E-06 1.92286E-19 6.26498E-19
 -1      2046 9.35614E-05-2.85484E-05-2.78703E-05-2.63879E-06 8.04666E-19-2.07351E-18
 -1      2047 9.26746E-05-2.82131E-05-2.76420E-05-3.04112E-06 4.99887E-19-1.46005E-18
 -1      2048 9.30277E-05-2.85150E-05-2.76358E-05-4.18746E-06 4.30157E-19-5.68107E-19
 -1      2049 9.46002E-05-2.89514E-05-2.81445E-05-1.62574E-06 5.35641E-19-2.01817E-18
 -1      2050 9.39598E-05-2.86875E-05-2.79842E-05-2.11752E-06 9.05159E-19-2.10746E-18
 -1      2051 9.40563E-05-2.89726E-05-2.78927E-05-3.14335E-06 8.39325E-19 1.07589E-18
 -1      2052 9.48186E-05-2.93042E-05-2.80828E-05-1.97475E-06-6.49978E-19 9.19118E-19
 -1      2053 9.70361E-05-3.27311E-05-2.75252E-05-2.20776E-06-1.10596E-18 6.76060E-19
 -1      2054 9.66281E-05-3.21461E-05-2.76366E-05-2.57448E-06-2.01112E-18 1.87306E-18
 -1      2055 9.62218E-05-3.15576E-05-2.76909E-05-2.80237E-06-6.32864E-19 1.58498E-18
 -1      2056 9.57539E-05-3.08293E-05-2.78370E-05-2.80855E-06-1.40425E-19 3.08813E-18
 -1      2057 9.64642E-05-3.16103E-05-2.77992E-05-3.32133E-06-1.18037E-18 5.07455E-19
 -1      2058 9.51821E-05-2.99555E-05-2.79477E-05-2.35948E-06-2.17577E-19 2.09809E-18
 -1      2059 9.76904E-05-3.34375E-05-2.74896E-05-7.90610E-07-1.45505E-18-3.02522E-18
 -1      2060 9.74023E-05-3.31792E-05-2.75144E-05-1.51779E-06-1.88627E-18-8.71637E-19
 -1      2061 9.75051E-05-3.27330E-05-2.77740E-05-2.29798E-06-2.33058E-18-4.39084E-19
 -1      2062 9.80306E-05-3.33719E-05-2.76559E-05 1.40740E-06 1.62183E-19-2.22081E-20
 -1      2063 9.79498E-05-3.36256E-05-2.75483E-05 3.53278E-07-7.93116E-19-1.26705E-18
 -1      2064 9.83686E-05-3.34469E-05-2.78474E-05-2.66700E-07-9.50148E-19-1.31749E-18
 -1      2065 9.78311E-05-3.22252E-05-2.80678E-05 4.10065E-06 5.54831E-19 2.35629E-18
 -1      2066 9.80760E-05-3.31392E-05-2.78022E-05 2.88161E-06-1.29051E-19 1.37722E-18
 -1      2067 9.88349E-05-3.34578E-05-2.80536E-05 2.64470E-06 9.29459E-19 2.02087E-19
 -1      2068 9.68761E-05-2.98293E-05-2.87099E-05 6.75113E-06-1.24244E-18-4.73905E-19
 -1      2069 9.75367E-05-3.14278E-05-2.82982E-05 5.64834E-06-7.55189E-19 4.19500E-19
 -1      2070 9.85954E-05-3.24396E-05-2.83963E-05 6.02744E-06-2.81285E-19 1.16404E-18
 -1      2071 9.50595E-05-2.62777E-05-2.94963E-05 8.52868E-06-1.95229E-18 9.17840E-20
 -1      2072 9.61370E-05-2.83942E-05-2.89964E-05 7.94070E-06-2.14199E-18 5.57275E-19
 -1      2073 9.73328E-05-3.01452E-05-2.88400E-05 9.13008E-06-2.29567E-18-1.34308E-19
 -1      2074 9.25711E-05-2.20785E-05-3.02773E-05 8.47800E-06-1.72402E-18-3.98466E-18
 -1      2075 9.38895E-05-2.43097E-05-2.97904E-05 8.81409E-06-2.33124E-18-4.88498E-19
 -1      2076 9.49179E-05-2.65891E-05-2.93147E-05 1.08622E-05-2.89224E-18-7.93546E-19
 -1      2077 9.00770E-05-1.82714E-05-3.08723E-05 6.02160E-06-3.46791E-19-2.59185E-18
 -1      2078 9.12364E-05-2.00003E-05-3.05207E-05 7.43354E-06-1.44412E-18-3.63738E-18
 -1      2079 9.17041E-05-2.23109E-05-2.97368E-05 1.01025E-05-1.36939E-18-2.91233E-18
 -1      2080 8.84539E-05-1.59440E-05-3.11705E-05 1.29473E-06 1.48342E-18 4.47488E-18
 -1      2081 8.90053E-05-1.66412E-05-3.10370E-05 3.59046E-06 6.97856E-19 1.85603E-18
 -1      2082 8.86346E-05-1.83717E-05-3.00586E-05 6.27768E-06 6.01278E-19-1.78393E-19
 -1      2083 8.87022E-05-1.61744E-05-3.11283E-05-4.28649E-06 3.11699E-18 5.44226E-18
 -1      2084 8.82233E-05-1.54730E-05-3.12443E-05-1.89831E-06 1.66426E-18 4.64801E-18
 -1      2085 8.70045E-05-1.61392E-05-3.02781E-05-4.77382E-08 3.29659E-18 5.02081E-18
 -1      2086 9.10644E-05-1.91338E-05-3.08406E-05-8.28820E-06 2.72690E-18 1.53742E-18
 -1      2087 8.96829E-05-1.72370E-05-3.11334E-05-6.98276E-06 2.46817E-18 2.40127E-18
 -1      2088 8.80270E-05-1.67742E-05-3.04395E-05-6.79586E-06 1.60478E-18 4.71060E-18
 -1      2089 9.36698E-05-2.73502E-05-2.83780E-05 2.01927E-06 2.46546E-19 2.25224E-18
 -1      2090 9.47645E-05-2.73509E-05-2.88315E-05 3.12209E-06 1.56820E-19 2.37806E-18
 -1      2091 9.55008E-05-2.68498E-05-2.94233E-05 4.52668E-06 1.88597E-19 1.93206E-18
 -1      2092 9.44375E-05-2.71808E-05-2.88376E-05 2.48876E-06 3.29641E-19 1.71442E-18
 -1      2093 6.90746E-05-4.07208E-05-1.24145E-05 5.08768E-05-1.87914E-18 4.29509E-18
 -1      2094 5.26746E-05-4.36382E-05-4.99732E-06 4.42135E-05-1.13079E-18 2.01615E-18
 -1      2095 1.48111E-04-3.92905E-05-4.57833E-05 4.53069E-05 1.09945E-18 3.86882E-18
 -1      2096 1.26281E-04-4.15248E-05-3.67597E-05 4.35730E-05-2.88838E-19 2.67662E-18
 -1      2097 8.72681E-05-8.73183E-06-3.37493E-05-1.05267E-05-5.08815E-20-5.37204E-19
 -1      2098 8.79841E-05-9.26727E-06-3.38217E-05-1.21075E-05-7.82711E-20-4.88526E-19
 -1      2099 9.04812E-05-1.30382E-05-3.32190E-05-1.18145E-05-1.06306E-19-4.05993E-19
 -1      2100 8.86754E-05-1.10604E-05-3.32966E-05-9.39060E-06-6.92516E-21-4.63248E-19
 -1      2101 1.76778E-04-7.00508E-05-4.53790E-05 1.29950E-05 2.64698E-18-1.13037E-18
 -1      2102 1.71362E-04-6.91845E-05-4.31559E-05-4.10758E-07 1.77220E-18-5.52477E-19
 -1      2103 1.75967E-04-3.50973E-05-5.97245E-05 2.60875E-05 3.55129E-18-2.35941E-18
 -1      2104 1.59757E-04-3.57549E-05-5.27502E-05 3.55848E-05 2.16798E-18 1.00204E-18
 -1      2105 1.57258E-04-4.56984E-05-4.71096E-05 2.50022E-05 9.38671E-19-1.99053E-20
 -1      2106 1.96174E-04-2.74183E-05-7.07512E-05 1.27448E-05 1.39549E-18 1.49607E-18
 -1      2107 1.80687E-04-2.64218E-05-6.56374E-05 1.66743E-05 2.33823E-18 1.65171E-20
 -1      2108 1.94857E-04-2.21238E-05-7.33873E-05-1.33028E-06 1.42979E-18 5.19469E-19
 -1      2109 1.97162E-04-2.45345E-05-7.28977E-05 8.19169E-06 2.36661E-18 1.08505E-18
 -1      2110 1.71741E-04-1.40386E-05-6.65815E-05 2.00999E-07 2.02526E-18 1.54202E-18
 -1      2111 1.84757E-04-2.26563E-05-6.91401E-05-1.04861E-05 1.86093E-18-2.94767E-19
 -1      2112 1.92887E-04-2.26224E-05-7.20882E-05-4.08464E-06 1.27140E-18 3.23037E-19
 -1      2113 1.72243E-04-3.21370E-05-5.96473E-05-2.57097E-05 2.61278E-18-1.01940E-18
 -1      2114 1.83686E-04-3.04419E-05-6.51247E-05-1.71790E-05 2.22516E-18 4.82809E-20
 -1      2115 1.44689E-04-3.71637E-05-4.62058E-05-4.05732E-05 2.79606E-18-1.94436E-18
 -1      2116 1.64867E-04-3.72250E-05-5.39536E-05-3.72592E-05 2.55592E-18-1.39930E-18
 -1      2117 1.12062E-04-4.20053E-05-3.05683E-05-4.61271E-05 1.42047E-18-2.99511E-18
 -1      2118 1.32390E-04-3.87997E-05-3.94093E-05-4.91873E-05 2.54872E-18-2.52077E-18
 -1      2119 1.47427E-04-4.85452E-05-4.17888E-05-3.22964E-05 2.12563E-18-1.89142E-18
 -1      2120 7.31039E-05-4.36144E-05-1.36097E-05-4.79431E-05-6.24687E-19-4.50960E-18
 -1      2121 9.28325E-05-4.16193E-05-2.18541E-05-5.30728E-05 5.21772E-19-4.14559E-18
 -1      2122 4.10620E-05-4.02940E-05-1.37041E-06-4.17307E-05-1.07023E-18-1.27013E-18
 -1      2123 5.54972E-05-3.81056E-05-7.72538E-06-4.85835E-05-7.34801E-19-4.28964E-18
 -1      2124 7.70113E-05-4.55947E-05-1.35916E-05-5.34819E-05-1.35610E-18-4.36672E-18
 -1      2125 1.59767E-05-3.78518E-05 7.97161E-06-2.44215E-05-2.50764E-18 4.82809E-19
 -1      2126 2.25567E-05-3.31577E-05 3.89714E-06-3.39419E-05-2.13791E-18 9.28348E-19
 -1      2127 9.53757E-06-3.79630E-05 1.07318E-05-7.07576E-06-2.55517E-18-1.54033E-18
 -1      2128 1.03780E-05-3.66532E-05 1.00602E-05-1.51838E-05-2.02674E-18-9.50371E-19
 -1      2129 1.38636E-05-2.37646E-05 3.67245E-06-2.32896E-05-1.69576E-18-1.31290E-20
 -1      2130 2.28787E-05-3.73021E-05 5.12768E-06 1.56449E-05-2.14257E-18-2.09429E-18
 -1      2131 1.44821E-05-3.91508E-05 8.87664E-06 4.98677E-06-2.22346E-18-2.50764E-18
 -1      2132 5.95275E-05-4.83662E-05-6.30157E-06 2.91659E-05-3.06118E-18 1.48940E-18
 -1      2133 4.11199E-05-4.66766E-05 3.89426E-07 2.26623E-05-2.27428E-18-9.40842E-19
 -1      2134 1.15063E-04-6.00112E-05-2.46821E-05 3.15093E-05-2.65968E-18-1.22862E-18
 -1      2135 8.27502E-05-5.60676E-05-1.39640E-05 2.64565E-05-3.61683E-18 2.41404E-19
 -1      2136 1.77863E-04-7.01891E-05-4.63788E-05 9.43454E-06-9.07172E-19-1.32222E-18
 -1      2137 1.46305E-04-6.67882E-05-3.57406E-05 1.41506E-05-1.64409E-18-2.00366E-18
 -1      2138 2.28195E-04-4.46101E-05-7.49981E-05 1.15714E-06-1.16552E-18-7.47930E-19
 -1      2139 2.31360E-04-4.55812E-05-7.52822E-05-5.82074E-06-2.31664E-18-4.78150E-19
 -1      2140 1.54399E-04-6.95328E-05-3.70551E-05-1.68987E-05 2.44030E-18-1.89735E-19
 -1      2141 1.76664E-04-7.05863E-05-4.59155E-05-7.83684E-06 2.86255E-18 5.31937E-19
 -1      2142 1.28128E-04-6.42051E-05-2.83852E-05-2.05175E-05 1.48485E-18-1.02237E-18
 -1      2143 6.22217E-05-5.17680E-05-6.67997E-06-2.73681E-05-9.85099E-19-3.16698E-18
 -1      2144 8.49098E-05-5.36188E-05-1.49313E-05-3.46383E-05-1.99900E-19-2.82454E-18
 -1      2145 2.84460E-05-4.52309E-05 5.12510E-06-1.74250E-05-2.80580E-18-7.86047E-19
 -1      2146 4.15089E-05-4.40773E-05-2.80200E-07-2.59458E-05-2.29546E-18-1.83086E-18
 -1      2147 1.24203E-05-4.00638E-05 1.02910E-05-1.56158E-06-3.15165E-18-2.02991E-18
 -1      2148 1.74381E-05-4.02835E-05 8.32382E-06-9.60065E-06-3.02857E-18 1.19855E-18
 -1      2149 1.17318E-05-3.20093E-05 7.95934E-06 1.83450E-05-1.69872E-18-2.73338E-18
 -1      2150 1.06315E-05-3.90689E-05 1.04965E-05 8.26991E-06-2.21748E-18-3.45505E-18
 -1      2151 1.18857E-05-2.42621E-05 4.61497E-06 5.48893E-07-3.15872E-18-1.48527E-18
 -1      2152 2.13653E-04-4.92440E-05-6.85058E-05 1.77860E-05 1.02491E-18-2.05998E-18
 -1      2153 2.07081E-04-5.41954E-05-6.46369E-05 2.33493E-05 1.66188E-18-1.89735E-18
 -1      2154 1.23108E-04-4.52835E-05-3.31686E-05-3.21148E-05-2.18323E-19-8.76097E-19
 -1      2155 1.31025E-04-5.42936E-05-3.26474E-05 4.08456E-05-1.27457E-18 2.84243E-18
 -1      2156 9.30782E-05-5.10716E-05-1.80501E-05 5.22753E-05-2.39456E-18 2.91803E-18
 -1      2157 9.72489E-05-2.42752E-05-3.13598E-05-1.01224E-05-2.79812E-19 6.12511E-20
 -1      2158 9.63775E-05-2.30293E-05-3.14987E-05-1.05084E-05-2.74995E-19-7.92638E-20
 -1      2159 1.95038E-04-5.60816E-05-5.87155E-05 1.72097E-05 2.30033E-18-1.20363E-18
 -1      2160 1.94313E-04-6.93274E-05-5.30129E-05 1.42850E-05 3.19284E-18 1.64748E-19
 -1      2161 2.10852E-04-5.79813E-05-6.38197E-05-2.55991E-05-3.08193E-18 2.68509E-19
 -1      2162 2.22275E-04-4.60361E-05-7.13902E-05-5.63530E-06-2.91549E-18 3.68883E-19
 -1      2163 2.82120E-05-2.38225E-05-1.90275E-06 3.64028E-05 3.61895E-19 1.69830E-18
 -1      2164 1.97423E-05-2.92431E-05 3.59450E-06 2.73330E-05-4.18011E-19-7.52165E-19
 -1      2165 1.74759E-05-1.75998E-05 5.13720E-07 2.23058E-05-8.12516E-19 2.96885E-19
 -1      2166 5.15097E-05-3.95023E-05-5.58103E-06 4.91703E-05 3.80318E-19 2.69102E-18
 -1      2167 1.73265E-04-7.11410E-05-4.32838E-05 1.05414E-06-7.31201E-19-5.93664E-19
 -1      2168 1.81615E-04-7.18801E-05-4.63950E-05-1.46057E-05-2.62972E-18-2.04558E-19
 -1      2169 1.88523E-04-5.69425E-05-5.59468E-05-3.12327E-05-2.39668E-18-4.23516E-21
 -1      2170 2.10959E-04-6.37906E-05-6.14091E-05-9.77964E-06-2.89812E-18 7.45389E-19
 -1      2171 1.49732E-04-6.61928E-05-3.60272E-05-1.78178E-05 1.62736E-18-1.30636E-18
 -1      2172 9.57117E-05-2.45676E-05-3.05397E-05-8.87426E-06 2.62188E-18-3.00823E-18
 -1      2173 9.52088E-05-3.00741E-05-2.79158E-05-3.17072E-06 4.72110E-19 2.66679E-18
 -1      2174 9.39341E-05-2.26423E-05-3.05390E-05-8.93061E-06 2.59375E-18-2.02907E-18
 -1      2175 9.24799E-05-2.06851E-05-3.08293E-05-9.45892E-06 2.80385E-18 2.06795E-22
 -1      2176 9.08714E-05-1.95355E-05-3.05315E-05-1.09493E-05 2.06798E-18 1.56535E-18
 -1      2177 9.51682E-05-2.32975E-05-3.07343E-05-1.20442E-05 2.47917E-18-2.10932E-18
 -1      2178 1.88114E-04-6.92908E-05-5.05594E-05-8.37986E-06-2.75032E-18 1.52466E-20
 -1      2179 1.62182E-04-2.44142E-05-5.96470E-05-2.42118E-06 7.07908E-19 4.68621E-19
 -1      2180 1.72984E-04-3.08750E-05-6.03856E-05 1.21110E-05 3.03799E-18-1.42683E-18
 -1      2181 1.61498E-04-3.43112E-05-5.43023E-05 5.08290E-06 2.51632E-18-1.90074E-18
 -1      2182 2.72782E-05-3.26630E-05 1.34115E-06-2.16016E-05-2.55211E-18-1.35356E-18
 -1      2183 1.44855E-04-7.05818E-05-3.22261E-05 1.83399E-05-2.10107E-18-1.45203E-18
 -1      2184 8.63852E-05-5.51479E-05-1.43549E-05 3.37679E-05-1.71694E-18 5.55998E-19
 -1      2185 1.31837E-05-2.43005E-05 4.10969E-06 2.73297E-06-1.82599E-18-1.57887E-18
 -1      2186 3.84793E-05-3.28642E-05-2.69666E-06-4.43699E-05-1.76352E-18-1.56256E-18
 -1      2187 1.15510E-04-5.24002E-05-2.69660E-05-4.66686E-05 1.29596E-19-3.18633E-18
 -1      2188 1.64798E-04-3.78128E-05-5.35643E-05-1.54804E-05 2.91776E-18-2.62580E-20
 -1      2189 1.70626E-04-1.09507E-05-6.76015E-05 6.95271E-07 1.55388E-18-2.83915E-19
 -1      2190 1.69365E-04-2.12295E-05-6.27776E-05-2.02846E-06 2.80601E-18-5.58195E-19
 -1      2191 3.92569E-05-3.63219E-05-2.03714E-06 2.62033E-05-9.88487E-19-9.66465E-19
 -1      2192 6.25120E-05-4.65550E-05-7.71524E-06-3.45804E-05-2.42421E-18-2.74608E-18
 -1      2193 8.81286E-05-1.11794E-05-3.30177E-05-3.65985E-06 2.79870E-19-9.09435E-20
 -1      2194 8.83639E-05-1.14503E-05-3.30002E-05-4.80056E-06 1.67303E-19-1.77923E-19
 -1      2195 8.87169E-05-1.19342E-05-3.29522E-05-5.81827E-06 1.44989E-19-2.44793E-19
 -1      2196 8.91237E-05-1.24057E-05-3.29247E-05-6.98936E-06 4.31366E-20-3.15626E-19
 -1      2197 8.98841E-05-1.38195E-05-3.25986E-05-4.90107E-06 2.25107E-19-1.03877E-19
 -1      2198 8.77811E-05-1.07194E-05-3.30604E-05 6.13661E-07 4.58875E-19 8.75753E-20
 -1      2199 8.77767E-05-1.07146E-05-3.30607E-05-4.96769E-07 4.29025E-19 4.78177E-20
 -1      2200 8.79625E-05-1.09444E-05-3.30421E-05 2.75446E-06 5.77691E-19 1.24064E-19
 -1      2201 8.78474E-05-1.08113E-05-3.30513E-05 1.63566E-06 5.35144E-19 7.94623E-20
 -1      2202 8.90982E-05-1.27650E-05-3.27174E-05 1.04750E-06 4.57284E-19 1.12755E-19
 -1      2203 8.83982E-05-1.14921E-05-3.29973E-05 4.88253E-06 6.53553E-19 2.58855E-19
 -1      2204 8.81579E-05-1.12150E-05-3.30152E-05 3.75984E-06 6.45256E-19 1.45822E-19
 -1      2205 8.93646E-05-1.31210E-05-3.26776E-05 3.01723E-06 5.53183E-19 1.75852E-19
 -1      2206 8.91803E-05-1.24763E-05-3.29189E-05 7.06859E-06 8.15928E-19 5.39401E-19
 -1      2207 8.87606E-05-1.19887E-05-3.29478E-05 5.89715E-06 7.32925E-19 4.05411E-19
 -1      2208 8.99233E-05-1.38693E-05-3.25936E-05 4.96969E-06 7.09697E-19 3.65300E-19
 -1      2209 9.04542E-05-1.40880E-05-3.27926E-05 9.21597E-06 8.13961E-19 6.49191E-19
 -1      2210 8.97718E-05-1.32768E-05-3.28376E-05 8.03838E-06 8.01564E-19 5.78709E-19
 -1      2211 9.08627E-05-1.51309E-05-3.24493E-05 6.86278E-06 7.71145E-19 5.57563E-19
 -1      2212 9.24545E-05-1.66879E-05-3.25730E-05 1.10514E-05 6.63733E-19 9.37904E-19
 -1      2213 9.13583E-05-1.53113E-05-3.26556E-05 1.00333E-05 7.49432E-19 7.29626E-19
 -1      2214 9.22918E-05-1.70894E-05-3.22089E-05 8.52128E-06 6.57651E-19 6.53727E-19
 -1      2215 9.55025E-05-2.08233E-05-3.20994E-05 1.16980E-05 4.65716E-19 1.43854E-18
 -1      2216 9.38116E-05-1.84811E-05-3.23228E-05 1.14643E-05 5.86355E-19 1.12604E-18
 -1      2217 9.43388E-05-2.00427E-05-3.17915E-05 9.47801E-06 5.54562E-19 9.83511E-19
 -1      2218 9.75169E-05-2.45982E-05-3.13140E-05 9.84126E-06 3.08426E-19 1.90641E-18
 -1      2219 9.62795E-05-2.22306E-05-3.17321E-05 1.10864E-05 4.00157E-19 1.63954E-18
 -1      2220 9.58153E-05-2.31989E-05-3.11197E-05 8.78708E-06 3.89013E-19 1.36977E-18
 -1      2221 9.63260E-05-2.56727E-05-3.02866E-05 6.87484E-06 2.86853E-19 1.75186E-18
 -1      2222 9.59436E-05-2.49878E-05-3.03650E-05-6.37925E-06-2.26168E-19-9.17773E-20
 -1      2223 9.52854E-05-2.57732E-05-2.98076E-05-4.42120E-06-2.08549E-19-5.68571E-20
 -1      2224 9.51830E-05-2.64891E-05-2.93823E-05-3.05490E-06-1.37330E-19 3.47863E-20
 -1      2225 9.47023E-05-2.68716E-05-2.90708E-05-1.96263E-06-1.43130E-19-1.67959E-20
 -1      2226 9.53497E-05-2.52752E-05-3.00395E-05-4.42400E-06-1.81333E-19-1.13177E-19
 -1      2227 9.45070E-05-2.72128E-05-2.88012E-05-1.09059E-06-2.15077E-19 4.57481E-20
 -1      2228 9.42407E-05-2.74318E-05-2.86300E-05-4.70992E-07-2.60195E-19 9.69675E-20
 -1      2229 9.50535E-05-2.66501E-05-2.93290E-05-2.00355E-06-1.98070E-19 6.67535E-21
 -1      2230 9.40895E-05-2.76175E-05-2.84648E-05 5.10824E-08-3.71104E-19 9.02609E-20
 -1      2231 9.39859E-05-2.77638E-05-2.83783E-05 3.91931E-07-4.13843E-19 1.65649E-19
 -1      2232 9.47466E-05-2.73999E-05-2.88759E-05-4.87444E-07-3.03211E-19 1.13489E-21
 -1      2233 9.38987E-05-2.78761E-05-2.82824E-05 6.84136E-07-2.74432E-19 1.82133E-19
 -1      2234 9.39017E-05-2.79849E-05-2.82478E-05 8.55232E-07-3.12072E-19 1.04267E-19
 -1      2235 9.45408E-05-2.78391E-05-2.85970E-05 4.08588E-07-3.41306E-19 2.62212E-20
 -1      2236 9.38684E-05-2.80585E-05-2.81974E-05 9.98784E-07-4.59586E-19 1.29611E-19
 -1      2237 9.39346E-05-2.81438E-05-2.81943E-05 1.06547E-06-3.29596E-19 3.09195E-20
 -1      2238 9.44442E-05-2.81146E-05-2.84346E-05 8.96556E-07-3.59953E-19-4.30289E-20
 -1      2239 9.39391E-05-2.81946E-05-2.81733E-05 1.11466E-06-2.71903E-19 1.27083E-19
 -1      2240 9.40384E-05-2.82626E-05-2.81883E-05 1.11794E-06-2.12127E-19 1.27411E-19
 -1      2241 9.44320E-05-2.82954E-05-2.83494E-05 1.12080E-06-3.55793E-19 2.14266E-19
 -1      2242 9.40663E-05-2.82983E-05-2.81857E-05 1.10918E-06-2.29532E-19-2.01159E-20
 -1      2243 9.41785E-05-2.83524E-05-2.82102E-05 1.07562E-06-1.57914E-20 5.04376E-20
 -1      2244 9.44756E-05-2.84165E-05-2.83143E-05 1.17859E-06-2.60766E-19 3.79008E-19
 -1      2245 9.42189E-05-2.83775E-05-2.82186E-05 1.03348E-06 1.42970E-19-2.99016E-19
 -1      2246 9.43314E-05-2.84201E-05-2.82470E-05 9.80550E-07 1.19255E-19-2.42708E-19
 -1      2247 9.45512E-05-2.84975E-05-2.83107E-05 1.13565E-06-1.03338E-19-8.54056E-20
 -1      2248 9.43768E-05-2.84374E-05-2.82613E-05 9.21496E-07 1.19068E-19-2.44010E-19
 -1      2249 9.44822E-05-2.84705E-05-2.82903E-05 8.60631E-07 8.22051E-20-5.38417E-19
 -1      2250 9.46415E-05-2.85503E-05-2.83258E-05 1.03640E-06 3.40398E-20-5.74008E-19
 -1      2251 9.45277E-05-2.84819E-05-2.83072E-05 7.95535E-07 6.57125E-20-4.82934E-19
 -1      2252 9.46221E-05-2.85070E-05-2.83347E-05 7.34079E-07 1.80091E-20-2.90912E-19
 -1      2253 9.47349E-05-2.85832E-05-2.83512E-05 9.10573E-07 8.31250E-20-2.64269E-19
 -1      2254 9.46649E-05-2.85142E-05-2.83523E-05 6.69920E-07 7.45004E-20-1.60952E-19
 -1      2255 9.47469E-05-2.85329E-05-2.83772E-05 6.12426E-07-5.52429E-20-5.20516E-20
 -1      2256 9.48245E-05-2.86019E-05-2.83811E-05 7.77670E-07 1.59689E-19-3.45338E-19
 -1      2257 9.47855E-05-2.85369E-05-2.83942E-05 5.53510E-07-1.45987E-19-6.61990E-22
 -1      2258 9.48553E-05-2.85505E-05-2.84162E-05 5.02658E-07-2.56648E-19 2.26448E-19
 -1      2259 9.49063E-05-2.86107E-05-2.84123E-05 6.50104E-07-8.33369E-20 6.68938E-20
 -1      2260 9.48895E-05-2.85522E-05-2.84320E-05 4.51514E-07-1.85639E-19 4.69230E-19
 -1      2261 9.49482E-05-2.85617E-05-2.84511E-05 4.08791E-07 3.05452E-20 4.57605E-19
 -1      2262 9.49789E-05-2.86124E-05-2.84425E-05 5.35468E-07-3.29698E-20 3.87984E-19
 -1      2263 9.49780E-05-2.85618E-05-2.84656E-05 3.66846E-07 3.17283E-19 8.36359E-19
 -1      2264 9.50274E-05-2.85681E-05-2.84823E-05 3.33073E-07 1.44536E-19 8.33345E-19
 -1      2265 9.50424E-05-2.86093E-05-2.84710E-05 4.38223E-07 3.52685E-19 1.22433E-18
 -1      2266 9.50537E-05-2.85668E-05-2.84957E-05 3.01191E-07-5.39326E-19 8.67829E-19
 -1      2267 9.50960E-05-2.85706E-05-2.85105E-05 2.76952E-07-3.33331E-19 8.05278E-19
 -1      2268 9.50977E-05-2.86026E-05-2.84977E-05 3.61004E-07-1.34668E-20 1.38680E-18
 -1      2269 9.51196E-05-2.85681E-05-2.85231E-05 2.55888E-07 1.05825E-19 6.30619E-19
 -1      2270 9.51573E-05-2.85697E-05-2.85369E-05 2.41929E-07 8.44401E-20 5.45084E-19
 -1      2271 9.51464E-05-2.85928E-05-2.85229E-05 3.05679E-07-2.10152E-19 1.27043E-18
 -1      2272 9.51791E-05-2.85657E-05-2.85495E-05 2.32761E-07-2.90419E-19 5.66295E-19
 -1      2273 9.52152E-05-2.85653E-05-2.85632E-05 2.30418E-07-4.94434E-19 4.85022E-19
 -1      2274 9.51905E-05-2.85794E-05-2.85476E-05 2.74287E-07-5.60473E-20 8.70610E-19
 -1      2275 9.52362E-05-2.85589E-05-2.85767E-05 2.35022E-07-4.44461E-19 5.19130E-19
 -1      2276 9.52739E-05-2.85562E-05-2.85918E-05 2.46744E-07 2.53211E-20 6.35683E-19
 -1      2277 9.52317E-05-2.85609E-05-2.85733E-05 2.69997E-07-3.48208E-19 2.78530E-19
 -1      2278 9.52947E-05-2.85458E-05-2.86074E-05 2.68390E-07 4.24712E-19 7.26642E-19
 -1      2279 9.53380E-05-2.85398E-05-2.86255E-05 2.98470E-07 5.75767E-19 5.04329E-19
 -1      2280 9.52716E-05-2.85341E-05-2.86021E-05 2.98207E-07 8.02379E-20-2.65195E-19
 -1      2281 9.53584E-05-2.85226E-05-2.86447E-05 3.42638E-07 4.78712E-19 4.10430E-19
 -1      2282 9.54120E-05-2.85111E-05-2.86683E-05 3.98283E-07 4.34515E-19 2.39579E-19
 -1      2283 9.53105E-05-2.84930E-05-2.86364E-05 3.67979E-07 2.09418E-19-2.33692E-19
 -1      2284 9.54304E-05-2.84822E-05-2.86932E-05 4.73826E-07 9.28996E-20-3.96426E-20
 -1      2285 9.55001E-05-2.84616E-05-2.87254E-05 5.66773E-07-3.08666E-19 2.68229E-19
 -1      2286 9.53465E-05-2.84277E-05-2.86797E-05 4.94013E-07 1.74919E-19-5.76664E-19
 -1      2287 9.55121E-05-2.84124E-05-2.87588E-05 6.87584E-07-4.70843E-19-2.49515E-19
 -1      2288 9.56048E-05-2.83763E-05-2.88042E-05 8.36503E-07-9.21863E-19 2.17949E-19
 -1      2289 9.53736E-05-2.83216E-05-2.87365E-05 6.99415E-07-4.77816E-19-6.34093E-19
 -1      2290 9.56005E-05-2.82929E-05-2.88492E-05 1.02385E-06-8.78183E-19 4.31137E-19
 -1      2291 9.57243E-05-2.82303E-05-2.89139E-05 1.25787E-06-2.94519E-19 1.05471E-18
 -1      2292 9.53775E-05-2.81475E-05-2.88119E-05 1.01950E-06-6.37776E-19 3.36292E-19
 -1      2293 9.56838E-05-2.80898E-05-2.89742E-05 1.54351E-06-2.14394E-19 8.20359E-19
 -1      2294 9.58467E-05-2.79828E-05-2.90666E-05 1.90716E-06 4.55303E-19 1.02330E-18
 -1      2295 9.53292E-05-2.78614E-05-2.89118E-05 1.50676E-06-3.00600E-19 1.67929E-18
 -1      2296 9.57324E-05-2.77484E-05-2.91453E-05 2.33715E-06 6.84518E-19 4.94094E-19
 -1      2297 9.59387E-05-2.75686E-05-2.92756E-05 2.89657E-06 1.18826E-19 4.16213E-19
 -1      2298 9.51734E-05-2.73940E-05-2.90413E-05 2.23683E-06 9.76239E-20 1.20544E-18
 -1      2299 9.56825E-05-2.71830E-05-2.93731E-05 3.53517E-06-2.60547E-19 3.20407E-19
 -1      2300 9.59274E-05-2.68880E-05-2.95521E-05 4.38452E-06-2.48402E-20 3.02264E-19
 -1      2301 9.48086E-05-2.66388E-05-2.92009E-05 3.31404E-06 3.53270E-19 9.46056E-19
 -1      2302 9.54113E-05-2.62680E-05-2.96603E-05 5.31659E-06 3.37536E-19 4.04973E-19
 -1      2303 9.56688E-05-2.58020E-05-2.98948E-05 6.58028E-06 4.20386E-19 4.09290E-19
 -1      2304 9.40573E-05-2.54417E-05-2.93780E-05 4.87380E-06 3.45265E-19 6.09708E-19
 -1      2305 9.47014E-05-2.48419E-05-2.99854E-05 7.90940E-06 4.57414E-19 1.08394E-18
 -1      2306 9.49130E-05-2.41540E-05-3.02656E-05 9.72936E-06 1.13976E-18 1.50635E-18
 -1      2307 9.26247E-05-2.36026E-05-2.95284E-05 7.07598E-06 6.32591E-19 6.13530E-19
 -1      2308 9.32150E-05-2.27623E-05-3.02653E-05 1.15693E-05 4.58529E-19 6.86292E-19
 -1      2309 9.32978E-05-2.18816E-05-3.05360E-05 1.40547E-05 8.97326E-21 3.78232E-19
 -1      2310 9.00589E-05-2.09238E-05-2.95377E-05 1.00836E-05-8.59705E-20 3.21406E-19
 -1      2311 9.05424E-05-2.01134E-05-3.02775E-05 1.65196E-05 2.81327E-19 1.48505E-19
 -1      2312 9.04955E-05-1.93692E-05-3.03832E-05 1.96242E-05 6.07614E-20 5.19552E-19
 -1      2313 8.57602E-05-1.73900E-05-2.91455E-05 1.40332E-05-5.55503E-19-3.32083E-19
 -1      2314 8.65296E-05-1.77899E-05-2.95248E-05 2.28282E-05 3.34863E-19 1.09341E-18
 -1      2315 8.67314E-05-1.82984E-05-2.91266E-05 2.61460E-05 6.50485E-19 1.45633E-18
 -1      2316 7.91728E-05-1.36561E-05-2.78103E-05 1.90524E-05 5.50608E-19 3.36097E-19
 -1      2317 8.23187E-05-1.85189E-05-2.71994E-05 2.99417E-05 2.22505E-19 1.56219E-18
 -1      2318 8.45139E-05-2.27543E-05-2.60600E-05 3.22694E-05 7.68788E-19 1.24286E-18
 -1      2319 7.08604E-05-1.21105E-05-2.46503E-05 2.51868E-05 1.85871E-19 3.45616E-19
 -1      2320 1.54605E-04-6.46405E-05-3.80014E-05 1.25408E-05-5.61265E-19-6.81623E-19
 -1      2321 1.53637E-04-7.01390E-05-3.58890E-05 1.29057E-05-8.95102E-19-9.31101E-19
 -1      2322 9.50513E-05-1.99592E-05-3.22335E-05-1.18216E-05-2.18535E-19-1.49554E-19
 -1      2323 9.54754E-05-2.32359E-05-3.09832E-05-8.13564E-06-2.11063E-19-8.37388E-20
 -1      2324 9.50318E-05-2.24330E-05-3.10988E-05-7.76258E-06-2.49163E-19-5.91434E-20
 -1      2325 9.32222E-05-1.76462E-05-3.24170E-05-1.13508E-05-1.70307E-19-2.09032E-19
 -1      2326 9.48346E-05-2.98633E-05-2.78495E-05-3.71476E-06 2.03271E-19 1.54032E-18
 -1      2327 9.25523E-05-2.14083E-05-3.03433E-05-2.87923E-05-1.50122E-18-2.33098E-18
 -1      2328 9.10127E-05-2.03770E-05-3.03178E-05-2.55098E-05-1.86544E-18-1.65638E-18
 -1      2329 9.39959E-05-2.15335E-05-3.09618E-05-2.22145E-05-1.85736E-18-6.39460E-20
 -1      2330 9.29772E-05-2.15988E-05-3.06549E-05-1.90698E-05-8.32997E-19-4.03803E-19
 -1      2331 8.38441E-05-1.62432E-05-2.87597E-05-2.28379E-05-9.55943E-19 8.29617E-19
 -1      2332 9.51222E-05-2.27369E-05-3.09394E-05-1.68628E-05 3.67659E-19-5.94068E-19
 -1      2333 9.42403E-05-2.27462E-05-3.06332E-05-1.39121E-05 1.73629E-18-6.14451E-19
 -1      2334 9.19385E-05-2.08397E-05-3.04483E-05-1.38513E-05 1.99008E-18 1.45771E-18
 -1      2335 8.87222E-05-1.86339E-05-2.99059E-05-1.78462E-05-1.21774E-19 3.97635E-18
 -1      2336 9.37215E-05-2.78542E-05-2.82254E-05-6.68510E-07 3.64100E-20 1.00313E-18
 -1      2337 9.37530E-05-2.77388E-05-2.82740E-05-4.37531E-07 2.47295E-19 9.53485E-19
 -1      2338 9.38794E-05-2.76154E-05-2.83943E-05-5.40753E-08 3.75689E-19 9.98207E-19
 -1      2339 9.40535E-05-2.74605E-05-2.85086E-05 3.86439E-07 4.56807E-19 1.08038E-18
 -1      2340 9.44606E-05-2.76601E-05-2.86410E-05-5.62239E-08 3.73130E-19 9.85402E-19
 -1      2341 9.42528E-05-2.72389E-05-2.87141E-05 1.05092E-06 5.08652E-19 1.13657E-18
 -1      2342 9.46112E-05-2.69951E-05-2.89396E-05 1.85373E-06 4.72120E-19 1.20073E-18
 -1      2343 9.47485E-05-2.71483E-05-2.89864E-05 1.09226E-06 5.28807E-19 1.03373E-18
 -1      2344 9.37202E-05-2.80264E-05-2.81519E-05-9.74249E-07-5.53628E-20 9.00496E-19
 -1      2345 9.36655E-05-2.79342E-05-2.81611E-05-8.70367E-07-9.83650E-20 8.72925E-19
 -1      2346 9.43081E-05-2.79729E-05-2.84385E-05-7.08376E-07 4.12704E-20 7.43676E-19
 -1      2347 9.38170E-05-2.81584E-05-2.81375E-05-1.08690E-06 1.18408E-19 1.02087E-18
 -1      2348 9.37151E-05-2.80827E-05-2.81237E-05-1.06043E-06 5.28739E-20 9.75203E-19
 -1      2349 9.42677E-05-2.81781E-05-2.83305E-05-1.03713E-06 9.04972E-20 7.35922E-19
 -1      2350 9.39672E-05-2.82620E-05-2.81581E-05-1.08168E-06 1.52429E-19 1.20054E-18
 -1      2351 9.38443E-05-2.81997E-05-2.81320E-05-1.10111E-06 6.22562E-20 1.09213E-18
 -1      2352 9.43039E-05-2.83183E-05-2.82836E-05-1.16038E-06 1.13610E-19 6.73609E-19
 -1      2353 9.41398E-05-2.83435E-05-2.81976E-05-1.00829E-06 2.16243E-19 1.56538E-18
 -1      2354 9.40125E-05-2.82928E-05-2.81661E-05-1.05309E-06 2.02819E-19 1.52125E-18
 -1      2355 9.43857E-05-2.84158E-05-2.82752E-05-1.15695E-06-6.39158E-20 1.12633E-18
 -1      2356 9.43146E-05-2.84067E-05-2.82457E-05-8.99745E-07 1.39473E-19 2.08404E-18
 -1      2357 9.41931E-05-2.83662E-05-2.82130E-05-9.56476E-07 2.85113E-19 1.89067E-18
 -1      2358 9.44902E-05-2.84834E-05-2.82899E-05-1.07984E-06-2.96500E-20 1.59285E-18
 -1      2359 9.44796E-05-2.84551E-05-2.82959E-05-7.77773E-07 2.59623E-19 1.76460E-18
 -1      2360 9.43693E-05-2.84232E-05-2.82646E-05-8.37710E-07 3.10853E-19 1.84332E-18
 -1      2361 9.46017E-05-2.85291E-05-2.83174E-05-9.64600E-07 3.26262E-19 1.68414E-18
 -1      2362 9.46283E-05-2.84913E-05-2.83442E-05-6.56319E-07-2.57468E-19 1.39315E-18
 -1      2363 9.45316E-05-2.84667E-05-2.83157E-05-7.13973E-07 1.76103E-19 1.70866E-18
 -1      2364 9.47102E-05-2.85589E-05-2.83506E-05-8.34738E-07 3.27702E-19 1.55887E-18
 -1      2365 9.47582E-05-2.85177E-05-2.83886E-05-5.43956E-07 1.58025E-19 9.88162E-19
 -1      2366 9.46755E-05-2.84992E-05-2.83634E-05-5.96051E-07-2.48832E-19 1.17627E-18
 -1      2367 9.48101E-05-2.85768E-05-2.83855E-05-7.05407E-07 1.01228E-19 1.36504E-18
 -1      2368 9.48692E-05-2.85365E-05-2.84282E-05-4.45565E-07 3.62461E-19 8.50535E-19
 -1      2369 9.47997E-05-2.85227E-05-2.84064E-05-4.90331E-07 4.54555E-19 6.89995E-19
 -1      2370 9.48988E-05-2.85863E-05-2.84193E-05-5.85934E-07 3.02599E-19 8.13797E-19
 -1      2371 9.49629E-05-2.85496E-05-2.84627E-05-3.63522E-07-3.86149E-19 8.46233E-19
 -1      2372 9.49050E-05-2.85395E-05-2.84441E-05-4.00207E-07-3.72448E-20 9.12487E-19
 -1      2373 9.49756E-05-2.85899E-05-2.84506E-05-4.81643E-07 8.76960E-20 6.16018E-19
 -1      2374 9.50418E-05-2.85586E-05-2.84926E-05-2.98501E-07 2.94236E-19 2.08020E-19
 -1      2375 9.49935E-05-2.85511E-05-2.84768E-05-3.27045E-07 9.07886E-20 4.68799E-19
 -1      2376 9.50414E-05-2.85896E-05-2.84789E-05-3.95117E-07 1.08019E-19 5.47579E-19
 -1      2377 9.51089E-05-2.85652E-05-2.85185E-05-2.49952E-07 1.64099E-19 2.13977E-19
 -1      2378 9.50681E-05-2.85593E-05-2.85050E-05-2.70809E-07 1.12822E-19 2.41395E-19
 -1      2379 9.50975E-05-2.85871E-05-2.85041E-05-3.27054E-07 3.93485E-19 5.14389E-19
 -1      2380 9.51672E-05-2.85711E-05-2.85410E-05-2.16294E-07-7.07188E-20 6.44325E-20
 -1      2381 9.51319E-05-2.85658E-05-2.85293E-05-2.30390E-07 2.29925E-20 1.36118E-19
 -1      2382 9.51461E-05-2.85841E-05-2.85263E-05-2.76758E-07 2.39691E-19 3.75775E-19
 -1      2383 9.52197E-05-2.85780E-05-2.85606E-05-1.94811E-07-5.04821E-19 6.94172E-19
 -1      2384 9.51882E-05-2.85724E-05-2.85504E-05-2.03637E-07-2.04318E-19 5.08625E-19
 -1      2385 9.51895E-05-2.85824E-05-2.85457E-05-2.42304E-07-3.70245E-19 4.16597E-19
 -1      2386 9.52690E-05-2.85883E-05-2.85774E-05-1.81261E-07-2.65615E-19 1.47765E-18
 -1      2387 9.52399E-05-2.85811E-05-2.85686E-05-1.87108E-07-4.96446E-19 1.02737E-18
 -1      2388 9.52303E-05-2.85843E-05-2.85624E-05-2.20380E-07-5.85892E-19 3.56021E-19
 -1      2389 9.53169E-05-2.86049E-05-2.85912E-05-1.69153E-07-3.70790E-19 1.98388E-18
 -1      2390 9.52898E-05-2.85946E-05-2.85840E-05-1.75503E-07-2.38059E-19 1.78449E-18
 -1      2391 9.52712E-05-2.85929E-05-2.85763E-05-2.05788E-07-6.58044E-19 1.26959E-18
 -1      2392 9.53644E-05-2.86312E-05-2.86008E-05-1.48714E-07-4.93515E-19 1.92521E-18
 -1      2393 9.53396E-05-2.86162E-05-2.85958E-05-1.60776E-07-1.93491E-19 2.06238E-18
 -1      2394 9.53151E-05-2.86126E-05-2.85868E-05-1.90590E-07-5.25605E-19 1.64687E-18
 -1      2395 9.54106E-05-2.86717E-05-2.86043E-05-1.05606E-07 1.27865E-19 1.98333E-18
 -1      2396 9.53903E-05-2.86502E-05-2.86027E-05-1.30942E-07-1.04810E-19 1.79969E-18
 -1      2397 9.53648E-05-2.86489E-05-2.85925E-05-1.62913E-07-2.62716E-19 1.44471E-18
 -1      2398 9.54522E-05-2.87308E-05-2.85982E-05-1.95698E-08 9.03247E-19 9.77639E-19
 -1      2399 9.54408E-05-2.87014E-05-2.86021E-05-6.87054E-08 4.34477E-19 1.36017E-18
 -1      2400 9.54231E-05-2.87094E-05-2.85916E-05-1.05499E-07 5.67499E-19 1.29302E-18
 -1      2401 9.54819E-05-2.88127E-05-2.85778E-05 1.36554E-07 5.63153E-19 4.91266E-19
 -1      2402 9.54872E-05-2.87747E-05-2.85903E-05 4.98017E-08 9.67978E-19 8.27557E-19
 -1      2403 9.54917E-05-2.88024E-05-2.85811E-05 5.76284E-09 9.23375E-19 1.06380E-18
 -1      2404 9.54868E-05-2.89187E-05-2.85372E-05 3.96696E-07 6.24786E-19 9.64920E-19
 -1      2405 9.55206E-05-2.88733E-05-2.85619E-05 2.55590E-07 1.81774E-19 4.93211E-19
 -1      2406 9.55703E-05-2.89357E-05-2.85574E-05 2.02797E-07 3.22502E-19 6.77590E-19
 -1      2407 9.54454E-05-2.90436E-05-2.84691E-05 7.99095E-07 2.30670E-19 1.59298E-18
 -1      2408 9.55250E-05-2.89963E-05-2.85108E-05 5.85691E-07 7.05067E-19 1.32604E-18
 -1      2409 9.56540E-05-2.91136E-05-2.85167E-05 5.24897E-07 3.29966E-19 8.18690E-19
 -1      2410 9.53253E-05-2.91710E-05-2.83663E-05 1.37990E-06-2.91763E-19 1.52895E-18
 -1      2411 9.54740E-05-2.91336E-05-2.84300E-05 1.07887E-06-2.00842E-19 1.98620E-18
 -1      2412 9.57296E-05-2.93313E-05-2.84551E-05 1.01543E-06-1.52529E-19 1.64095E-18
 -1      2413 9.50801E-05-2.92669E-05-2.82230E-05 2.16110E-06 1.61709E-19 1.15071E-18
 -1      2414 9.53269E-05-2.92603E-05-2.83129E-05 1.76641E-06 1.08595E-19 1.43802E-18
 -1      2415 9.57701E-05-2.95673E-05-2.83702E-05 1.71375E-06 9.93394E-20 1.27473E-18
 -1      2416 9.46497E-05-2.92743E-05-2.80366E-05 3.13202E-06 7.52222E-20 1.73797E-18
 -1      2417 9.50264E-05-2.93299E-05-2.81554E-05 2.65635E-06 1.11463E-20 1.07773E-18
 -1      2418 9.57288E-05-2.97737E-05-2.82622E-05 2.64040E-06-7.61089E-20 5.77984E-19
 -1      2419 9.39657E-05-2.91143E-05-2.78104E-05 4.22595E-06-7.94246E-19 2.34952E-18
 -1      2420 9.45008E-05-2.92717E-05-2.79571E-05 3.71146E-06 8.04822E-20 1.89262E-18
 -1      2421 9.55353E-05-2.98702E-05-2.81355E-05 3.77447E-06-2.96567E-19 9.27165E-19
 -1      2422 9.29677E-05-2.86994E-05-2.75548E-05 5.29891E-06-2.62385E-19 1.88950E-18
 -1      2423 9.36751E-05-2.89972E-05-2.77239E-05 4.82502E-06-5.57512E-19 2.54860E-18
 -1      2424 9.50994E-05-2.97464E-05-2.79992E-05 5.02568E-06-1.52371E-19 1.89098E-19
 -1      2425 9.16332E-05-2.79641E-05-2.72878E-05 6.12399E-06 5.50223E-19 8.11018E-19
 -1      2426 9.24967E-05-2.84223E-05-2.74685E-05 5.80530E-06 2.10016E-19 1.49605E-18
 -1      2427 9.43310E-05-2.92842E-05-2.78662E-05 6.21037E-06 8.29203E-20 2.19711E-19
 -1      2428 9.00175E-05-2.69131E-05-2.70327E-05 6.41949E-06 1.26767E-19 1.56115E-18
 -1      2429 9.09757E-05-2.75100E-05-2.72097E-05 6.38592E-06 2.85262E-19 8.12302E-19
 -1      2430 9.31800E-05-2.84043E-05-2.77509E-05 7.04893E-06 1.67413E-19 2.85778E-19
 -1      2431 8.82891E-05-2.56658E-05-2.68138E-05 5.92439E-06 8.42907E-19 1.53191E-18
 -1      2432 8.92293E-05-2.63211E-05-2.69694E-05 6.28064E-06 6.19299E-19 1.21622E-18
 -1      2433 9.16941E-05-2.71324E-05-2.76643E-05 7.20818E-06 2.84045E-19 2.73473E-19
 -1      2434 8.67284E-05-2.44659E-05-2.66516E-05 4.51094E-06 7.95797E-19 9.08679E-20
 -1      2435 8.75007E-05-2.50461E-05-2.67688E-05 5.28510E-06 1.39232E-18 1.46194E-18
 -1      2436 9.00642E-05-2.56521E-05-2.76099E-05 6.40341E-06 1.15861E-18 9.64225E-19
 -1      2437 8.56656E-05-2.36200E-05-2.65590E-05 2.28613E-06 4.15061E-19-2.54011E-20
 -1      2438 8.61216E-05-2.39777E-05-2.66245E-05 3.39322E-06 1.82804E-19 8.40850E-20
 -1      2439 8.86162E-05-2.42957E-05-2.75820E-05 4.53889E-06 8.94152E-19 9.13556E-19
 -1      2440 8.53639E-05-2.33776E-05-2.65419E-05-3.87581E-07-1.04923E-18-2.84671E-19
 -1      2441 8.54068E-05-2.34116E-05-2.65481E-05 8.61440E-07-1.74452E-19-2.39585E-20
 -1      2442 8.77160E-05-2.34427E-05-2.75699E-05 1.81703E-06-1.25878E-19 1.43181E-18
 -1      2443 8.59033E-05-2.38095E-05-2.66001E-05-2.99242E-06-1.15489E-18 7.15704E-19
 -1      2444 8.55260E-05-2.35140E-05-2.65460E-05-1.83954E-06-1.31847E-18 1.23532E-19
 -1      2445 8.76167E-05-2.33562E-05-2.75647E-05-1.27068E-06-1.31464E-18 9.84743E-19
 -1      2446 8.71383E-05-2.47699E-05-2.67288E-05-5.04387E-06-7.35921E-19 6.70703E-20
 -1      2447 8.64253E-05-2.42364E-05-2.66203E-05-4.18633E-06-6.51286E-19 3.62953E-19
 -1      2448 8.83307E-05-2.40490E-05-2.75659E-05-4.10178E-06-8.78066E-19 7.74150E-19
 -1      2449 8.87686E-05-2.59765E-05-2.69171E-05-6.25669E-06 1.08798E-18 3.65283E-20
 -1      2450 8.78606E-05-2.53465E-05-2.67666E-05-5.79375E-06 1.82706E-19-1.11473E-19
 -1      2451 8.96253E-05-2.52819E-05-2.75811E-05-6.16261E-06-8.33145E-20 9.68205E-19
 -1      2452 9.04632E-05-2.71391E-05-2.71468E-05-6.60156E-06 1.34830E-18 4.55243E-19
 -1      2453 8.95080E-05-2.65444E-05-2.69716E-05-6.52144E-06 1.59708E-18-2.09980E-21
 -1      2454 9.11405E-05-2.66852E-05-2.76187E-05-7.21286E-06 1.55966E-18 3.11186E-19
 -1      2455 9.19742E-05-2.80737E-05-2.73929E-05-6.24981E-06 8.82070E-19 1.47115E-18
 -1      2456 9.10842E-05-2.75888E-05-2.72128E-05-6.46542E-06 7.68067E-19 8.45968E-19
 -1      2457 9.25426E-05-2.79294E-05-2.76808E-05-7.31027E-06 8.46158E-19 6.46430E-19
 -1      2458 9.31927E-05-2.87519E-05-2.76242E-05-5.44433E-06 7.56829E-20 1.52372E-18
 -1      2459 9.24286E-05-2.83804E-05-2.74598E-05-5.85197E-06 7.05816E-19 2.31828E-18
 -1      2460 9.36419E-05-2.88469E-05-2.77581E-05-6.71118E-06 4.43872E-19 2.09817E-18
 -1      2461 9.41505E-05-2.92660E-05-2.78209E-05-4.38390E-06 2.35902E-19 7.90788E-19
 -1      2462 9.34992E-05-2.89565E-05-2.76788E-05-4.89561E-06-3.99192E-19 8.09495E-19
 -1      2463 9.44256E-05-2.94636E-05-2.78293E-05-5.70162E-06 5.59580E-19 2.75730E-18
 -1      2464 9.96192E-05-3.37662E-05-2.81718E-05 1.47818E-07 2.62086E-19 1.37516E-18
 -1      2465 9.90978E-05-3.35568E-05-2.80958E-05-1.16767E-06-7.49775E-19-6.87898E-19
 -1      2466 9.84013E-05-3.29490E-05-2.80085E-05-2.34559E-06-2.09449E-18-1.87353E-18
 -1      2467 9.77343E-05-3.24700E-05-2.79837E-05-3.14644E-06-2.08968E-18-6.91126E-20
 -1      2468 9.94953E-05-3.34464E-05-2.83122E-05-2.11744E-06-5.48292E-19-1.44351E-20
 -1      2469 9.69653E-05-3.17687E-05-2.79112E-05-3.73764E-06-1.16991E-18-6.55747E-19
 -1      2470 9.62581E-05-3.11417E-05-2.79264E-05-4.00158E-06 2.70607E-19-6.21448E-19
 -1      2471 9.76661E-05-3.20822E-05-2.81164E-05-3.96038E-06-7.07525E-19-1.01669E-18
 -1      2472 1.00341E-04-3.39461E-05-2.84035E-05 3.60833E-06 1.02754E-18 3.92199E-19
 -1      2473 1.00144E-04-3.41719E-05-2.82708E-05 1.90311E-06 1.06887E-18 4.50506E-19
 -1      2474 1.01008E-04-3.45093E-05-2.85144E-05 9.28204E-07 5.71571E-19 1.20940E-18
 -1      2475 1.00080E-04-3.30955E-05-2.86731E-05 7.56694E-06-7.86808E-19-4.42965E-19
 -1      2476 1.00446E-04-3.39092E-05-2.84954E-05 5.75452E-06 1.69717E-19 6.49646E-19
 -1      2477 1.01812E-04-3.49245E-05-2.86948E-05 5.02334E-06 7.61071E-19-7.15596E-19
 -1      2478 9.83244E-05-3.08447E-05-2.89239E-05 1.11333E-05-1.57408E-18-3.68820E-19
 -1      2479 9.94654E-05-3.23252E-05-2.87304E-05 9.69827E-06-1.37728E-18-1.13967E-19
 -1      2480 1.01227E-04-3.41415E-05-2.87976E-05 9.57903E-06-6.69639E-19-9.14056E-19
 -1      2481 9.48313E-05-2.70758E-05-2.90971E-05 1.29840E-05-1.63189E-18-5.57884E-20
 -1      2482 9.67612E-05-2.91140E-05-2.89241E-05 1.25647E-05-1.71552E-18-5.08988E-19
 -1      2483 9.86043E-05-3.16126E-05-2.87689E-05 1.34801E-05-1.07916E-18-4.27255E-19
 -1      2484 9.01906E-05-2.23690E-05-2.91761E-05 1.17636E-05-6.59754E-19-2.73887E-18
 -1      2485 9.24724E-05-2.45159E-05-2.90469E-05 1.28753E-05-8.27892E-19-2.11447E-18
 -1      2486 9.38170E-05-2.71961E-05-2.86013E-05 1.50981E-05-3.90417E-19-3.51405E-19
 -1      2487 8.57707E-05-1.78556E-05-2.92262E-05 6.74724E-06 2.25396E-18 2.54187E-18
 -1      2488 8.76312E-05-1.95301E-05-2.91310E-05 9.53146E-06 7.22928E-19-2.58871E-19
 -1      2489 8.78434E-05-2.16035E-05-2.83862E-05 1.28404E-05 5.80594E-19-2.91378E-19
 -1      2490 8.38216E-05-1.54364E-05-2.93811E-05-1.12514E-06 2.57900E-18 4.72186E-18
 -1      2491 8.42218E-05-1.59083E-05-2.92834E-05 2.60289E-06 2.88642E-18 3.97373E-18
 -1      2492 8.28588E-05-1.66030E-05-2.83199E-05 6.12140E-06 2.60833E-18 3.37257E-18
 -1      2493 8.60152E-05-1.64548E-05-2.97685E-05-9.10887E-06 7.35453E-19 3.28904E-18
 -1      2494 8.43559E-05-1.53994E-05-2.96390E-05-5.89355E-06 1.28694E-18 5.64245E-18
 -1      2495 8.15732E-05-1.45073E-05-2.86465E-05-3.49936E-06 1.60100E-18 3.53080E-18
 -1      2496 1.06942E-04-5.46367E-05-2.25866E-05 5.03256E-05-1.37939E-18 3.51815E-18
 -1      2497 8.75345E-05-4.92586E-05-1.61443E-05 5.19325E-05-9.88699E-19 4.02155E-18
 -1      2498 6.64110E-05-3.99555E-05-1.11817E-05 5.35695E-05 3.43895E-19 2.40663E-18
 -1      2499 4.80339E-05-3.21700E-05-6.32859E-06 4.72451E-05 1.60026E-18 2.14808E-18
 -1      2500 1.29403E-04-6.69114E-05-2.69414E-05-2.58147E-05 5.35748E-19-1.62440E-18
 -1      2501 1.55749E-04-4.47437E-05-4.78149E-05-1.09047E-05 2.39072E-18-1.45054E-19
 -1      2502 1.58678E-04-3.70835E-05-5.27767E-05-3.06440E-06 3.13296E-18 3.62107E-19
 -1      2503 9.25176E-05-2.63925E-05-2.82445E-05-3.49936E-05-1.99000E-18-4.37662E-18
 -1      2504 8.90971E-05-2.17798E-05-2.87680E-05-3.22537E-05-1.57246E-18-3.75993E-18
 -1      2505 7.76407E-05-1.57612E-05-2.61197E-05-2.93367E-05-1.16205E-18-1.96956E-18
 -1      2506 1.42082E-04-5.72776E-05-3.65422E-05 3.21190E-05-6.18546E-19 3.13741E-18
 -1      2507 1.27016E-04-5.84267E-05-2.92702E-05 3.88462E-05-7.75459E-19 3.10480E-18
 -1      2508 8.78333E-05-1.07942E-05-3.30525E-05-1.51864E-06 4.29314E-19-3.11615E-20
 -1      2509 8.79393E-05-1.09167E-05-3.30440E-05-2.63661E-06 3.52919E-19-8.23475E-20
 -1      2510 8.93383E-05-1.30888E-05-3.26805E-05-2.92864E-06 3.26414E-19 1.01776E-20
 -1      2511 8.90884E-05-1.27531E-05-3.27184E-05-9.41581E-07 3.63324E-19 2.57187E-20
 -1      2512 9.54497E-05-3.03606E-05-2.78799E-05-4.37723E-06-2.04307E-19 1.80354E-18
 -1      2513 2.73121E-05-2.12594E-05-2.11140E-06-1.99926E-05-1.67278E-18 2.64274E-19
 -1      2514 4.08559E-05-2.80908E-05-5.04560E-06-3.17206E-05-2.39139E-18-1.66865E-18
 -1      2515 1.57998E-04-4.66538E-05-4.80539E-05 1.34480E-05 2.54565E-18-1.30380E-18
 -1      2516 1.50307E-04-5.24743E-05-4.20546E-05 1.99195E-05 6.97161E-19 1.14561E-18
 -1      2517 1.58120E-04-2.44183E-05-5.75572E-05 2.94757E-06 2.56227E-18-4.44057E-19
 -1      2518 1.56143E-04-1.56128E-05-6.09184E-05 4.94918E-06 2.05405E-18-9.66888E-19
 -1      2519 1.56079E-04-9.80877E-06-6.32518E-05-2.70990E-06 1.98799E-18-1.18923E-18
 -1      2520 1.56676E-04-1.41838E-05-6.15043E-05-4.43818E-06 1.62800E-18-6.29769E-19
 -1      2521 5.86649E-05-3.56603E-05-9.77603E-06 3.65998E-05 1.27478E-19 7.08543E-19
 -1      2522 3.71749E-05-2.41264E-05-5.26122E-06 2.65558E-05 5.28337E-19-9.24960E-19
 -1      2523 1.53005E-04-7.84087E-06-6.28442E-05 2.20657E-06 1.88041E-18-1.01199E-18
 -1      2524 1.55749E-04-7.19244E-06-6.40670E-05-1.84331E-07 1.67797E-18-4.35375E-19
 -1      2525 1.43479E-04-6.00370E-06-5.92986E-05-2.77286E-06 2.04220E-18-1.74203E-18
 -1      2526 1.42732E-04-5.41009E-05-3.80861E-05-2.70007E-05 1.29194E-18-1.15705E-18
 -1      2527 1.52570E-04-5.07832E-05-4.39519E-05-2.02232E-05 1.47590E-18-7.84141E-19
 -1      2528 1.52148E-04-4.96938E-05-4.38620E-05-7.72561E-06 1.54622E-18-2.79521E-20
 -1      2529 1.11550E-04-5.48369E-05-2.41162E-05-4.55699E-05-5.99488E-19-3.37469E-18
 -1      2530 1.30485E-04-5.67043E-05-3.17551E-05-3.98299E-05 6.01605E-19-2.13495E-18
 -1      2531 7.31484E-05-4.20766E-05-1.29474E-05-5.23892E-05-1.26674E-18-4.57197E-18
 -1      2532 8.98026E-05-4.78232E-05-1.80479E-05-5.35755E-05-1.45076E-18-5.12338E-18
 -1      2533 3.40980E-05-2.40373E-05-3.82044E-06-4.05926E-05-1.51661E-18-5.89958E-19
 -1      2534 5.23394E-05-3.23160E-05-8.39884E-06-5.08225E-05-6.61109E-19-3.17849E-18
 -1      2535 1.50628E-05-1.57230E-05 6.90690E-07-1.58074E-05-1.73192E-18-6.51368E-19
 -1      2536 1.94671E-05-1.63902E-05-1.03749E-06-2.82447E-05-1.72361E-18 1.44843E-19
 -1      2537 5.75696E-05-3.76564E-05-8.77642E-06-3.51015E-05-2.18238E-18-3.83685E-18
 -1      2538 8.17010E-05-4.80798E-05-1.47655E-05-3.93764E-05-1.92107E-18-5.00205E-18
 -1      2539 2.02736E-05-1.68653E-05-1.09817E-06 1.34323E-05-5.93558E-19-9.75782E-19
 -1      2540 1.40912E-05-1.49800E-05 6.96006E-07-2.54995E-06-1.20655E-18-1.06980E-18
 -1      2541 1.97602E-05-9.72127E-06-3.78069E-06-6.87159E-06-1.20502E-18-5.94194E-19
 -1      2542 1.16602E-04-5.81379E-05-2.48426E-05 3.35503E-05-6.67038E-19-3.09564E-20
 -1      2543 9.09072E-05-4.83289E-05-1.80799E-05 3.54906E-05 2.62580E-20 9.39465E-19
 -1      2544 1.93589E-04-6.73229E-05-5.30276E-05-1.81986E-06-2.54915E-18-6.80167E-19
 -1      2545 1.15657E-04-5.71534E-05-2.47226E-05-3.19974E-05-7.03037E-20-2.72275E-18
 -1      2546 1.56483E-05-1.39764E-05-1.64858E-07 4.36095E-06-2.06890E-18-2.13918E-18
 -1      2547 1.86492E-05-1.70066E-05-3.64488E-07-9.21587E-06-2.56333E-18-5.14996E-19
 -1      2548 8.76824E-05-3.95983E-05-2.00884E-05 3.65843E-05 6.16640E-19 7.66777E-19
 -1      2549 1.09884E-04-5.00039E-05-2.50005E-05-3.50924E-05-3.00697E-19-3.60063E-18
 -1      2550 9.07962E-05-1.50497E-05-3.24587E-05-6.79834E-06 4.85208E-20-3.05309E-19
 -1      2551 8.97033E-05-1.31835E-05-3.28463E-05-7.96114E-06 9.68628E-21-4.01454E-19
 -1      2552 9.03616E-05-1.39647E-05-3.28016E-05-9.13344E-06-2.17433E-20-4.65590E-19
 -1      2553 9.59705E-05-2.62513E-05-2.98474E-05 5.38827E-06 2.33927E-19 1.60032E-18
 -1      2554 9.59134E-05-2.51644E-05-3.02969E-05 6.47823E-06 2.87468E-19 1.38555E-18
 -1      2555 9.53074E-05-2.64892E-05-2.94655E-05 4.09581E-06 2.40610E-19 1.53377E-18
 -1      2556 4.17583E-05-2.58698E-05-6.43419E-06 4.24153E-05 1.60830E-18 3.38686E-18
 -1      2557 3.68814E-05-1.72892E-05-7.58202E-06 3.62392E-05 1.19834E-18 3.55161E-18
 -1      2558 5.58039E-05-2.79307E-05-1.15978E-05 4.53889E-05 2.34766E-18 3.41015E-18
 -1      2559 2.61764E-05-1.06657E-05-6.04264E-06 2.04562E-05 3.54907E-19 1.21337E-18
 -1      2560 2.00987E-05-1.27558E-05-2.51488E-06 1.26173E-05-9.65670E-19-5.20078E-19
 -1      2561 2.43581E-05-7.13599E-06-6.77714E-06 4.08685E-06-1.16644E-18-4.85350E-19
 -1      2562 8.09729E-05-2.88292E-05-2.18262E-05 3.63066E-05 1.05879E-18 6.47874E-19
 -1      2563 3.66579E-05-1.74426E-05-7.81307E-06 2.25821E-05 8.72973E-19-9.52912E-20
 -1      2564 1.22155E-04-5.90143E-05-2.67952E-05 4.12090E-05-4.74127E-19 4.03892E-18
 -1      2565 9.57431E-05-3.05234E-05-2.79587E-05-4.88455E-06 5.04390E-19 8.00339E-19
 -1      2566 5.55896E-05-2.93427E-05-1.15008E-05-3.57892E-05-1.65997E-18-3.81800E-18
 -1      2567 8.95236E-05-1.90455E-05-3.02910E-05-1.26441E-05 1.25935E-18 3.24503E-18
 -1      2568 8.29266E-05-4.48592E-05-1.59440E-05 5.20635E-05 6.18758E-19 3.22910E-18
 -1      2569 8.58956E-05-1.69923E-05-2.95348E-05-1.25264E-05 8.30262E-19 3.30959E-18
 -1      2570 9.47269E-05-2.68518E-05-2.90602E-05 2.42831E-06 4.01533E-19 1.21626E-18
 -1      2571 9.50740E-05-2.66678E-05-2.92755E-05 3.31029E-06 3.19464E-19 1.37779E-18
 -1      2572 9.53238E-05-2.61412E-05-2.96607E-05 4.03695E-06 3.77333E-19 1.12745E-18
 -1      2573 9.50323E-05-2.66058E-05-2.93447E-05 2.51910E-06 4.69544E-19 1.10416E-18
 -1      2574 1.51246E-04-1.86678E-05-5.71581E-05-5.84691E-06 1.14985E-18-1.91959E-18
 -1      2575 3.33347E-05-1.74997E-05-6.17910E-06-3.50205E-05-8.01928E-19-1.29511E-18
 -1      2576 9.11241E-05-1.49782E-05-3.26875E-05-9.83270E-06-7.55672E-20-4.25488E-19
 -1      2577 9.21520E-05-1.62504E-05-3.26068E-05-1.08645E-05-1.07708E-19-3.23461E-19
 -1      2578 9.36045E-05-1.91177E-05-3.19194E-05-9.25690E-06-2.42506E-19-2.18604E-19
 -1      2579 9.20507E-05-1.67912E-05-3.22455E-05-8.31668E-06-4.86283E-20-3.71907E-19
 -1      2580 2.97784E-05-1.43266E-05-6.20719E-06-1.69503E-05-1.81196E-18-7.97270E-19
 -1      2581 6.73675E-05-3.55637E-05-1.31110E-05-5.08032E-05-5.91653E-19-3.92102E-18
 -1      2582 1.39462E-04-5.87689E-05-3.44896E-05-2.73833E-05 2.52839E-19-6.70744E-19
 -1      2583 1.55918E-04-4.18183E-05-4.91338E-05 1.20976E-06 2.39657E-18-8.65244E-19
 -1      2584 1.47883E-04-1.06892E-05-5.92471E-05 5.71271E-06 2.20419E-18-4.54857E-19
 -1      2585 1.36389E-04-5.85881E-06-5.65656E-05 5.59765E-06 2.27068E-18-5.26484E-19
 -1      2586 1.39849E-04-1.34030E-05-5.46907E-05 8.87441E-06 2.62665E-18-2.84232E-19
 -1      2587 7.80256E-05-2.79387E-05-2.10108E-05-3.65165E-05-1.64949E-18-5.44494E-18
 -1      2588 5.89480E-05-1.72969E-05-1.69617E-05-3.21510E-05-7.23790E-19-3.16790E-18
 -1      2589 1.47184E-04-5.79337E-05-3.81608E-05 1.93826E-05 6.41098E-19 1.97528E-18
 -1      2590 1.52090E-04-3.10585E-05-5.20238E-05 5.39757E-06 2.54216E-18 4.47657E-19
 -1      2591 1.07654E-04-5.34868E-05-2.28709E-05-4.63882E-05-9.91664E-19-3.67152E-18
 -1      2592 1.88260E-04-7.10337E-05-5.18100E-05-2.67231E-05-3.53266E-18 2.50298E-19
 -1      2593 9.05508E-05-1.51681E-05-3.23292E-05 3.19102E-06 5.76570E-19 2.27136E-19
 -1      2594 9.03599E-05-1.48963E-05-3.23617E-05 2.25796E-06 5.08104E-19 2.20927E-19
 -1      2595 9.02251E-05-1.46934E-05-3.23906E-05 1.42019E-06 5.00943E-19 1.78914E-19
 -1      2596 9.01599E-05-1.46010E-05-3.24016E-05 4.63934E-07 4.20614E-19 1.64182E-19
 -1      2597 9.14106E-05-1.65881E-05-3.20539E-05 1.63853E-06 5.22039E-19 1.80730E-19
 -1      2598 9.21385E-05-1.75495E-05-3.20054E-05 6.46589E-06 7.26563E-19 5.27000E-19
 -1      2599 9.16097E-05-1.67505E-05-3.21051E-05 5.62837E-06 7.64709E-19 5.16753E-19
 -1      2600 9.35098E-05-1.97263E-05-3.16799E-05 7.63243E-06 5.79933E-19 6.50367E-19
 -1      2601 9.27710E-05-1.85184E-05-3.18395E-05 6.99982E-06 6.48544E-19 5.52527E-19
 -1      2602 9.34272E-05-1.98451E-05-3.15077E-05 5.73461E-06 6.39142E-19 4.99330E-19
 -1      2603 9.59065E-05-2.43858E-05-3.06439E-05 7.13817E-06 3.44253E-19 1.22769E-18
 -1      2604 9.53397E-05-2.30639E-05-3.10007E-05 7.83420E-06 4.49430E-19 1.06134E-18
 -1      2605 9.55206E-05-2.49993E-05-3.02017E-05 5.55749E-06 3.35028E-19 1.16538E-18
 -1      2606 7.55359E-05-1.24640E-05-2.69705E-05-1.91634E-05 8.20894E-21-4.83497E-19
 -1      2607 7.86542E-05-1.36966E-05-2.79196E-05-1.66876E-05 3.58996E-19 1.07498E-18
 -1      2608 9.52274E-05-2.38615E-05-3.05651E-05-5.44173E-06-1.01069E-19-1.27197E-19
 -1      2609 9.51611E-05-2.49097E-05-3.01282E-05-3.91729E-06-5.01007E-20-1.01980E-19
 -1      2610 1.24796E-04-6.44027E-05-2.61420E-05 2.83870E-05-1.45393E-18-4.94561E-19
 -1      2611 1.26514E-04-5.91734E-05-2.91701E-05 2.87396E-05-7.66565E-20-2.08132E-19
 -1      2612 9.53695E-05-2.58321E-05-2.97713E-05-2.79869E-06-9.22838E-20-9.08180E-20
 -1      2613 9.52023E-05-2.64352E-05-2.94839E-05-1.79555E-06-2.26399E-19-8.79250E-20
 -1      2614 9.51873E-05-2.45875E-05-3.02564E-05-3.64080E-06-8.79334E-20-1.04715E-19
 -1      2615 9.52293E-05-2.69631E-05-2.92333E-05-1.03800E-06-3.27413E-19-6.85174E-20
 -1      2616 9.50929E-05-2.73262E-05-2.90493E-05-4.17266E-07-3.09242E-19-1.01612E-19
 -1      2617 9.54136E-05-2.62655E-05-2.96408E-05-1.68860E-06-2.66062E-19-8.24633E-20
 -1      2618 9.50611E-05-2.76401E-05-2.88784E-05 6.14035E-08-2.49351E-19-1.96008E-20
 -1      2619 9.49811E-05-2.78699E-05-2.87650E-05 4.22723E-07-2.86251E-19-2.03649E-20
 -1      2620 9.54199E-05-2.72855E-05-2.92079E-05-3.80666E-07-2.68352E-19-5.64551E-20
 -1      2621 9.49387E-05-2.80600E-05-2.86518E-05 7.00142E-07-3.12944E-19 1.16056E-19
 -1      2622 9.49088E-05-2.82102E-05-2.85862E-05 8.89961E-07-3.63759E-19 1.78468E-19
 -1      2623 9.53602E-05-2.79155E-05-2.89116E-05 4.29585E-07-2.36761E-19 1.97386E-19
 -1      2624 9.48731E-05-2.83253E-05-2.85142E-05 1.02927E-06-3.43072E-19 3.87000E-19
 -1      2625 9.48790E-05-2.84249E-05-2.84803E-05 1.10801E-06-2.28775E-19 5.46271E-19
 -1      2626 9.52951E-05-2.83060E-05-2.87150E-05 8.85142E-07-2.60051E-19 4.72893E-19
 -1      2627 9.48538E-05-2.84926E-05-2.84371E-05 1.15614E-06-3.09380E-19 5.52508E-19
 -1      2628 9.48821E-05-2.85583E-05-2.84239E-05 1.16516E-06-2.18857E-19 3.50320E-19
 -1      2629 9.52445E-05-2.85449E-05-2.85896E-05 1.09907E-06-2.70096E-19 7.63910E-19
 -1      2630 9.48666E-05-2.85954E-05-2.84005E-05 1.15599E-06-3.53717E-19 2.26150E-19
 -1      2631 9.49069E-05-2.86376E-05-2.84004E-05 1.12356E-06-3.69654E-19-1.06837E-19
 -1      2632 9.52115E-05-2.86850E-05-2.85143E-05 1.15528E-06-4.32533E-19 5.83562E-19
 -1      2633 9.48988E-05-2.86545E-05-2.83902E-05 1.08098E-06-8.52850E-20-1.38165E-19
 -1      2634 9.49438E-05-2.86802E-05-2.83977E-05 1.02628E-06 1.36253E-19-1.00526E-19
 -1      2635 9.51932E-05-2.87599E-05-2.84735E-05 1.11414E-06-3.40158E-19 5.18095E-19
 -1      2636 9.49408E-05-2.86843E-05-2.83962E-05 9.66742E-07 2.81204E-19-1.38459E-19
 -1      2637 9.49858E-05-2.86985E-05-2.84079E-05 9.02614E-07 1.02568E-19-1.03791E-19
 -1      2638 9.51857E-05-2.87918E-05-2.84559E-05 1.01803E-06 2.53446E-19 1.62693E-19
 -1      2639 9.49861E-05-2.86944E-05-2.84117E-05 8.37147E-07 2.78969E-19 5.60018E-20
 -1      2640 9.50284E-05-2.87006E-05-2.84253E-05 7.71960E-07 3.27594E-19 1.20088E-19
 -1      2641 9.51855E-05-2.87961E-05-2.84535E-05 8.95951E-07 3.11892E-19 1.79525E-19
 -1      2642 9.50309E-05-2.86917E-05-2.84323E-05 7.07746E-07 1.83861E-19 2.00334E-19
 -1      2643 9.50690E-05-2.86924E-05-2.84463E-05 6.46788E-07 3.03182E-20 5.73390E-19
 -1      2644 9.51899E-05-2.87830E-05-2.84606E-05 7.67248E-07 3.88916E-19 1.45486E-19
 -1      2645 9.50727E-05-2.86808E-05-2.84549E-05 5.88316E-07 8.81478E-20 9.54489E-19
 -1      2646 9.51064E-05-2.86779E-05-2.84686E-05 5.34800E-07 4.25384E-19 1.22767E-18
 -1      2647 9.51969E-05-2.87597E-05-2.84734E-05 6.44401E-07 4.41535E-19 6.83745E-19
 -1      2648 9.51108E-05-2.86649E-05-2.84780E-05 4.84777E-07 3.58721E-19 1.07590E-18
 -1      2649 9.51402E-05-2.86594E-05-2.84910E-05 4.40611E-07 4.19724E-19 1.26036E-18
 -1      2650 9.52053E-05-2.87305E-05-2.84894E-05 5.35186E-07 2.76280E-19 1.38812E-18
 -1      2651 9.51448E-05-2.86456E-05-2.85008E-05 4.00653E-07 2.12405E-19 1.13374E-18
 -1      2652 9.51706E-05-2.86383E-05-2.85131E-05 3.67045E-07-1.99749E-19 1.23257E-18
 -1      2653 9.52143E-05-2.86980E-05-2.85071E-05 4.44336E-07 3.02061E-19 1.09846E-18
 -1      2654 9.51752E-05-2.86236E-05-2.85231E-05 3.38235E-07-2.95461E-19 1.42323E-18
 -1      2655 9.51983E-05-2.86143E-05-2.85351E-05 3.16200E-07-7.93525E-20 1.10356E-18
 -1      2656 9.52232E-05-2.86631E-05-2.85258E-05 3.74840E-07-1.25874E-19 1.18779E-18
 -1      2657 9.52021E-05-2.85981E-05-2.85456E-05 2.99554E-07-2.85420E-19 1.02304E-18
 -1      2658 9.52234E-05-2.85864E-05-2.85578E-05 2.90384E-07-3.46279E-19 8.49893E-19
 -1      2659 9.52311E-05-2.86251E-05-2.85455E-05 3.28990E-07-4.31557E-19 1.28316E-18
 -1      2660 9.52257E-05-2.85670E-05-2.85690E-05 2.87281E-07-5.62175E-19 6.16746E-19
 -1      2661 9.52460E-05-2.85514E-05-2.85822E-05 2.93047E-07-6.18608E-19 6.09309E-20
 -1      2662 9.52366E-05-2.85813E-05-2.85665E-05 3.09297E-07-8.54430E-19 7.83910E-19
 -1      2663 9.52448E-05-2.85262E-05-2.85949E-05 3.05678E-07-3.61749E-20-2.42614E-19
 -1      2664 9.52646E-05-2.85041E-05-2.86101E-05 3.29823E-07 2.20993E-20-1.30450E-19
 -1      2665 9.52371E-05-2.85271E-05-2.85899E-05 3.19361E-07-3.64393E-19-7.16770E-20
 -1      2666 9.52566E-05-2.84685E-05-2.86250E-05 3.61700E-07 1.14199E-19 3.84901E-19
 -1      2667 9.52756E-05-2.84356E-05-2.86437E-05 4.09824E-07 3.00494E-19 1.40879E-19
 -1      2668 9.52275E-05-2.84542E-05-2.86168E-05 3.64779E-07 3.08015E-19 4.90642E-19
 -1      2669 9.52548E-05-2.83822E-05-2.86618E-05 4.66392E-07 3.56000E-19 2.78052E-20
 -1      2670 9.52709E-05-2.83311E-05-2.86857E-05 5.47312E-07-1.41159E-19-1.62955E-19
 -1      2671 9.51986E-05-2.83493E-05-2.86490E-05 4.54168E-07 1.74778E-19 5.78531E-19
 -1      2672 9.52264E-05-2.82484E-05-2.87081E-05 6.36679E-07-3.18976E-19-2.55506E-19
 -1      2673 9.52347E-05-2.81674E-05-2.87394E-05 7.63855E-07-2.78719E-19-8.77742E-20
 -1      2674 9.51341E-05-2.81918E-05-2.86880E-05 6.00302E-07-1.69535E-19 3.10562E-19
 -1      2675 9.51478E-05-2.80368E-05-2.87670E-05 8.97591E-07-4.33143E-19 5.51146E-19
 -1      2676 9.51375E-05-2.79072E-05-2.88081E-05 1.09095E-06-3.97267E-19 4.73484E-19
 -1      2677 9.50056E-05-2.79487E-05-2.87355E-05 8.21251E-07-8.96847E-20 1.04049E-18
 -1      2678 9.49766E-05-2.77000E-05-2.88410E-05 1.28475E-06-2.75412E-19 7.25978E-19
 -1      2679 9.49265E-05-2.74925E-05-2.88941E-05 1.57280E-06-4.40953E-20 1.19619E-18
 -1      2680 9.47644E-05-2.75696E-05-2.87918E-05 1.14112E-06-1.35982E-19 4.95163E-19
 -1      2681 9.46384E-05-2.71646E-05-2.89303E-05 1.84654E-06-2.47875E-19 1.32179E-18
 -1      2682 9.45090E-05-2.68344E-05-2.89963E-05 2.26824E-06-3.23179E-20 6.56964E-19
 -1      2683 9.43295E-05-2.69780E-05-2.88538E-05 1.58951E-06-3.67265E-20 5.84240E-19
 -1      2684 9.40072E-05-2.63205E-05-2.90289E-05 2.64452E-06 2.75519E-19 6.98207E-19
 -1      2685 9.37276E-05-2.58020E-05-2.91042E-05 3.24959E-06 3.06221E-19 6.88330E-19
 -1      2686 9.35671E-05-2.60614E-05-2.89112E-05 2.19778E-06-1.16074E-19 5.20275E-19
 -1      2687 9.28742E-05-2.50103E-05-2.91161E-05 3.74931E-06 3.30662E-19 5.46706E-19
 -1      2688 9.23231E-05-2.42139E-05-2.91860E-05 4.59448E-06 6.08555E-19 6.45182E-19
 -1      2689 9.22634E-05-2.46619E-05-2.89378E-05 2.98928E-06 5.50958E-20-8.65520E-20
 -1      2690 9.09061E-05-2.30268E-05-2.91394E-05 5.22797E-06 4.32159E-19 3.64122E-19
 -1      2691 8.98878E-05-2.18472E-05-2.91652E-05 6.36529E-06 1.68325E-19-4.46181E-21
 -1      2692 9.00853E-05-2.25745E-05-2.88751E-05 3.95953E-06 3.42247E-19-3.11309E-19
 -1      2693 8.75966E-05-2.01423E-05-2.89809E-05 7.12058E-06-5.51175E-20-1.39927E-19
 -1      2694 8.58246E-05-1.85005E-05-2.88728E-05 8.57622E-06-8.41679E-19-8.41806E-19
 -1      2695 8.65363E-05-1.95728E-05-2.86024E-05 5.04528E-06-1.55465E-19-4.64823E-19
 -1      2696 8.22337E-05-1.62225E-05-2.83910E-05 9.41673E-06-9.13714E-19-4.34434E-19
 -1      2697 7.93573E-05-1.41915E-05-2.79568E-05 1.11735E-05-2.02937E-19-4.03436E-19
 -1      2698 8.09162E-05-1.54979E-05-2.78765E-05 6.09462E-06-4.57679E-19-4.95220E-19
 -1      2699 7.39272E-05-1.15176E-05-2.68597E-05 1.20829E-05 2.79627E-19 1.05813E-20
 -1      2700 6.96633E-05-9.65463E-06-2.57043E-05 1.41497E-05 2.48045E-19 3.74150E-19
 -1      2701 7.23092E-05-1.04868E-05-2.62185E-05 6.88494E-06 7.26347E-20-4.02883E-19
 -1      2702 6.21307E-05-7.38159E-06-2.35173E-05 1.51883E-05 1.43956E-19-1.29278E-19
 -1      2703 5.66473E-05-7.22762E-06-2.10416E-05 1.77737E-05-7.34536E-20-7.43271E-20
 -1      2704 6.00291E-05-5.58517E-06-2.28293E-05 7.18607E-06-2.36507E-20-5.31487E-19
 -1      2705 9.42982E-05-2.08522E-05-3.15018E-05-8.10958E-06-2.57382E-19-1.15555E-19
 -1      2706 9.47784E-05-2.26663E-05-3.09157E-05-6.44268E-06-2.26243E-19-1.61306E-19
 -1      2707 9.45716E-05-2.23006E-05-3.09695E-05-5.82368E-06-1.17212E-19-1.08122E-19
 -1      2708 9.34763E-05-1.95024E-05-3.17061E-05-7.89291E-06-1.60845E-19-2.48525E-19
 -1      2709 1.00891E-04-3.40153E-05-2.86231E-05-2.10449E-06 8.94992E-19 1.39686E-18
 -1      2710 9.98563E-05-3.33858E-05-2.85085E-05-3.28740E-06 5.42185E-19-7.46448E-20
 -1      2711 1.39643E-04-1.43597E-05-5.44809E-05-9.90372E-06 1.85881E-18-2.69176E-18
 -1      2712 1.46730E-04-2.45511E-05-5.27150E-05-9.42513E-06 1.22650E-18-1.45891E-18
 -1      2713 8.36347E-05-1.58681E-05-2.90965E-05-1.38923E-05 4.36037E-19 2.45201E-18
 -1      2714 9.48992E-05-2.76458E-05-2.88265E-05-8.08267E-08 3.38150E-19 8.01598E-19
 -1      2715 9.50156E-05-2.73789E-05-2.89661E-05 3.88637E-07 5.33021E-19 8.79499E-19
 -1      2716 9.47970E-05-2.80451E-05-2.86093E-05-7.08486E-07 8.88597E-20 5.77192E-19
 -1      2717 9.48484E-05-2.78716E-05-2.86908E-05-4.48653E-07 1.42950E-19 7.16672E-19
 -1      2718 9.52837E-05-2.76570E-05-2.89906E-05-9.71233E-08 3.82192E-19 4.63933E-19
 -1      2719 9.50538E-05-2.70047E-05-2.91706E-05 1.00099E-06 4.78934E-19 9.31062E-19
 -1      2720 9.52455E-05-2.65874E-05-2.93966E-05 1.78347E-06 5.05024E-19 9.29978E-19
 -1      2721 9.53547E-05-2.69055E-05-2.93437E-05 9.47731E-07 5.28165E-19 6.67908E-19
 -1      2722 9.47517E-05-2.84606E-05-2.84100E-05-1.15492E-06-2.63693E-20 8.24217E-19
 -1      2723 9.47237E-05-2.83818E-05-2.84276E-05-1.11816E-06 8.88470E-20 8.17811E-19
 -1      2724 9.47823E-05-2.85619E-05-2.83794E-05-1.15340E-06-3.55998E-19 1.18756E-18
 -1      2725 9.47369E-05-2.85090E-05-2.83812E-05-1.16952E-06-1.28236E-19 9.74228E-19
 -1      2726 9.51156E-05-2.85895E-05-2.85147E-05-1.15455E-06-2.85325E-19 1.02396E-18
 -1      2727 9.48302E-05-2.86222E-05-2.83740E-05-1.07815E-06-8.07045E-20 1.29945E-18
 -1      2728 9.47772E-05-2.85876E-05-2.83664E-05-1.12422E-06-3.43089E-19 1.01539E-18
 -1      2729 9.51025E-05-2.86906E-05-2.84647E-05-1.15323E-06-2.69286E-19 8.71138E-19
 -1      2730 9.48857E-05-2.86544E-05-2.83840E-05-9.64394E-07 4.26078E-19 9.55276E-19
 -1      2731 9.48315E-05-2.86329E-05-2.83712E-05-1.02498E-06 4.26115E-19 1.05220E-18
 -1      2732 9.51034E-05-2.87421E-05-2.84421E-05-1.07835E-06 1.58885E-19 7.11526E-19
 -1      2733 9.49422E-05-2.86675E-05-2.84026E-05-8.35721E-07 2.37583E-19 8.42648E-19
 -1      2734 9.48908E-05-2.86555E-05-2.83875E-05-9.00668E-07 2.78394E-19 6.94025E-19
 -1      2735 9.51128E-05-2.87610E-05-2.84375E-05-9.65039E-07 4.48412E-19 4.19338E-19
 -1      2736 9.49958E-05-2.86681E-05-2.84254E-05-7.07452E-07-3.75556E-20 9.44178E-19
 -1      2737 9.49492E-05-2.86626E-05-2.84098E-05-7.70272E-07 8.90398E-20 1.10149E-18
 -1      2738 9.51268E-05-2.87588E-05-2.84440E-05-8.36935E-07-3.69866E-20 9.05565E-20
 -1      2739 9.50444E-05-2.86605E-05-2.84495E-05-5.89079E-07 3.91845E-19 7.20691E-19
 -1      2740 9.50035E-05-2.86595E-05-2.84345E-05-6.45857E-07 5.64198E-19 6.80935E-19
 -1      2741 9.51426E-05-2.87436E-05-2.84570E-05-7.09445E-07 3.45747E-19 1.43563E-19
 -1      2742 9.50873E-05-2.86482E-05-2.84733E-05-4.86050E-07 1.86919E-19 3.88731E-19
 -1      2743 9.50520E-05-2.86501E-05-2.84593E-05-5.34634E-07 1.11067E-19 5.32673E-19
 -1      2744 9.51584E-05-2.87209E-05-2.84733E-05-5.92135E-07 3.87598E-19 1.21391E-19
 -1      2745 9.51247E-05-2.86335E-05-2.84956E-05-4.01031E-07 2.34137E-20 7.16872E-19
 -1      2746 9.50945E-05-2.86371E-05-2.84830E-05-4.40486E-07 1.02722E-19 7.81155E-19
 -1      2747 9.51734E-05-2.86946E-05-2.84909E-05-4.90504E-07-2.24088E-22 2.75404E-19
 -1      2748 9.51574E-05-2.86184E-05-2.85161E-05-3.34760E-07 4.75093E-19 7.93755E-19
 -1      2749 9.51315E-05-2.86226E-05-2.85048E-05-3.65002E-07 2.33164E-19 9.39412E-19
 -1      2750 9.51873E-05-2.86674E-05-2.85085E-05-4.07249E-07 1.88360E-19 6.62868E-19
 -1      2751 9.51867E-05-2.86047E-05-2.85346E-05-2.86521E-07 2.34673E-19 1.12369E-18
 -1      2752 9.51639E-05-2.86085E-05-2.85247E-05-3.08145E-07 4.27749E-19 1.04148E-18
 -1      2753 9.52004E-05-2.86414E-05-2.85252E-05-3.43100E-07 1.93180E-19 8.97484E-19
 -1      2754 9.52144E-05-2.85945E-05-2.85510E-05-2.54302E-07-3.58648E-19 5.53610E-19
 -1      2755 9.51936E-05-2.85967E-05-2.85423E-05-2.68560E-07 2.46021E-19 9.83808E-19
 -1      2756 9.52136E-05-2.86189E-05-2.85406E-05-2.97295E-07 2.89808E-19 1.20743E-18
 -1      2757 9.52430E-05-2.85907E-05-2.85650E-05-2.34601E-07-4.47325E-19 3.09161E-19
 -1      2758 9.52228E-05-2.85897E-05-2.85576E-05-2.43555E-07-6.61775E-19 3.04488E-19
 -1      2759 9.52287E-05-2.86023E-05-2.85542E-05-2.67701E-07-2.72790E-19 8.11238E-19
 -1      2760 9.52753E-05-2.85975E-05-2.85761E-05-2.21888E-07-1.12957E-18 8.66224E-19
 -1      2761 9.52544E-05-2.85911E-05-2.85703E-05-2.28740E-07-9.42440E-19 4.67233E-19
 -1      2762 9.52483E-05-2.85957E-05-2.85655E-05-2.50593E-07-9.97614E-19 4.47701E-19
 -1      2763 9.53155E-05-2.86208E-05-2.85837E-05-2.07700E-07-5.40756E-19 1.23730E-18
 -1      2764 9.52924E-05-2.86060E-05-2.85798E-05-2.17292E-07-6.54504E-19 9.60814E-19
 -1      2765 9.52765E-05-2.86046E-05-2.85739E-05-2.40056E-07-1.15034E-18 5.25772E-19
 -1      2766 9.53686E-05-2.86692E-05-2.85863E-05-1.79362E-07 1.14357E-19 5.76246E-19
 -1      2767 9.53418E-05-2.86418E-05-2.85852E-05-1.98850E-07-3.93344E-19 1.02102E-18
 -1      2768 9.53197E-05-2.86377E-05-2.85785E-05-2.27005E-07-1.81004E-19 2.18856E-19
 -1      2769 9.54410E-05-2.87535E-05-2.85821E-05-1.18436E-07 8.88043E-19 5.26401E-19
 -1      2770 9.54093E-05-2.87085E-05-2.85849E-05-1.58045E-07 6.72965E-19 6.72208E-19
 -1      2771 9.53867E-05-2.87065E-05-2.85780E-05-1.97786E-07 4.96673E-19-1.23053E-19
 -1      2772 9.55399E-05-2.88864E-05-2.85687E-05 8.83018E-10 7.82612E-19 6.80343E-19
 -1      2773 9.55027E-05-2.88182E-05-2.85769E-05-7.28223E-08 9.29127E-19 7.30677E-19
 -1      2774 9.54893E-05-2.88263E-05-2.85711E-05-1.32457E-07 8.15316E-19 6.69489E-19
 -1      2775 9.56721E-05-2.90808E-05-2.85439E-05 2.12913E-07 3.83368E-19 8.11279E-19
 -1      2776 9.56305E-05-2.89847E-05-2.85591E-05 8.71120E-08 5.24433E-19 9.95505E-19
 -1      2777 9.56420E-05-2.90146E-05-2.85564E-05-2.93932E-09 4.24688E-19 4.58577E-19
 -1      2778 9.58413E-05-2.93452E-05-2.85054E-05 5.60224E-07-1.51261E-19 6.97854E-19
 -1      2779 9.57992E-05-2.92195E-05-2.85294E-05 3.60994E-07 2.11893E-19 5.44089E-19
 -1      2780 9.58606E-05-2.92887E-05-2.85333E-05 2.28418E-07 3.59882E-19 3.64663E-19
 -1      2781 9.60427E-05-2.96759E-05-2.84527E-05 1.09044E-06-3.93837E-19 7.80310E-19
 -1      2782 9.60098E-05-2.95264E-05-2.84865E-05 7.95602E-07-2.50885E-19 8.77736E-19
 -1      2783 9.61581E-05-2.96594E-05-2.85024E-05 6.08851E-07-4.12505E-19-1.28110E-19
 -1      2784 9.62553E-05-3.00466E-05-2.83878E-05 1.84786E-06 5.13728E-19 2.10135E-19
 -1      2785 9.62495E-05-2.98918E-05-2.84314E-05 1.43977E-06 3.57248E-19 3.79372E-19
 -1      2786 9.65369E-05-3.01202E-05-2.84674E-05 1.19195E-06 4.49047E-19 3.11760E-19
 -1      2787 9.64318E-05-3.03944E-05-2.83166E-05 2.85744E-06-4.75428E-19-3.56899E-19
 -1      2788 9.64826E-05-3.02718E-05-2.83681E-05 2.33215E-06-1.80532E-22 1.20241E-20
 -1      2789 9.69770E-05-3.06328E-05-2.84355E-05 2.02841E-06 2.24537E-19-2.75953E-19
 -1      2790 9.64903E-05-3.06095E-05-2.82500E-05 4.09904E-06-2.91305E-19 3.79273E-19
 -1      2791 9.66391E-05-3.05787E-05-2.83051E-05 3.47957E-06-6.28667E-19 9.37737E-20
 -1      2792 9.74208E-05-3.11092E-05-2.84193E-05 3.14728E-06-6.46367E-19-8.17484E-19
 -1      2793 9.63153E-05-3.05376E-05-2.82030E-05 5.47376E-06-2.93310E-19 7.88488E-20
 -1      2794 9.66101E-05-3.06756E-05-2.82551E-05 4.82521E-06-5.35874E-20 1.46735E-19
 -1      2795 9.77596E-05-3.14002E-05-2.84357E-05 4.52461E-06-3.87942E-19 2.32494E-19
 -1      2796 9.57789E-05-3.00098E-05-2.81919E-05 6.77250E-06-3.21558E-19 5.31192E-19
 -1      2797 9.62592E-05-3.03914E-05-2.82333E-05 6.21234E-06 1.14778E-20 5.62319E-19
 -1      2798 9.78341E-05-3.13030E-05-2.85038E-05 6.04112E-06-4.08400E-19 1.59062E-18
 -1      2799 9.47922E-05-2.89103E-05-2.82280E-05 7.66810E-06 4.13180E-19 1.03571E-18
 -1      2800 9.54635E-05-2.95704E-05-2.82528E-05 7.36113E-06-2.59213E-19 3.80347E-19
 -1      2801 9.74667E-05-3.06091E-05-2.86388E-05 7.44305E-06 6.99641E-20 1.92005E-18
 -1      2802 9.33842E-05-2.72758E-05-2.83110E-05 7.76401E-06 3.89982E-19 2.58714E-19
 -1      2803 9.41884E-05-2.81621E-05-2.83173E-05 7.88736E-06 3.44730E-19 4.37414E-19
 -1      2804 9.65357E-05-2.91998E-05-2.88424E-05 8.33458E-06 4.89608E-19 1.40212E-18
 -1      2805 9.17685E-05-2.53763E-05-2.84221E-05 6.72450E-06 6.13897E-19 1.68573E-18
 -1      2806 9.25717E-05-2.63220E-05-2.84148E-05 7.39982E-06 4.54054E-19 5.38725E-19
 -1      2807 9.50869E-05-2.71770E-05-2.90943E-05 8.24950E-06 4.17997E-19 1.17066E-18
 -1      2808 9.03385E-05-2.36985E-05-2.85274E-05 4.46017E-06 4.34328E-19 2.25167E-18
 -1      2809 9.09557E-05-2.44518E-05-2.85164E-05 5.67398E-06 7.55886E-19 2.20676E-18
 -1      2810 9.34131E-05-2.49417E-05-2.93477E-05 6.82837E-06 3.93908E-19 1.07739E-18
 -1      2811 8.95361E-05-2.27772E-05-2.85888E-05 1.26775E-06-1.01921E-18 2.83118E-18
 -1      2812 8.97994E-05-2.30990E-05-2.85847E-05 2.83109E-06-4.75133E-21 2.51020E-18
 -1      2813 9.20155E-05-2.31276E-05-2.95401E-05 4.05159E-06-2.78765E-19 2.23458E-18
 -1      2814 8.96380E-05-2.29356E-05-2.85824E-05-2.20458E-06-1.10259E-18 2.27061E-18
 -1      2815 8.94738E-05-2.27185E-05-2.85901E-05-6.11196E-07-1.07392E-18 2.30372E-18
 -1      2816 9.13938E-05-2.23457E-05-2.96150E-05 3.77561E-07-5.47903E-19 2.36211E-18
 -1      2817 9.05943E-05-2.40976E-05-2.85106E-05-5.19129E-06-7.57987E-19 1.33248E-18
 -1      2818 9.00646E-05-2.34315E-05-2.85260E-05-3.89744E-06-6.96308E-19 1.24841E-18
 -1      2819 9.17758E-05-2.28730E-05-2.95471E-05-3.36573E-06-5.36899E-19 1.80511E-18
 -1      2820 9.20459E-05-2.58299E-05-2.83991E-05-7.14503E-06 7.63560E-19-3.65995E-19
 -1      2821 9.13110E-05-2.49414E-05-2.84133E-05-6.35364E-06-4.24037E-19 5.89164E-19
 -1      2822 9.29637E-05-2.44756E-05-2.93553E-05-6.32194E-06 9.78425E-20 6.00158E-19
 -1      2823 9.35399E-05-2.76000E-05-2.82800E-05-7.89028E-06 2.12603E-18-4.36164E-20
 -1      2824 9.27857E-05-2.67397E-05-2.82847E-05-7.64132E-06 1.28304E-18 4.25295E-19
 -1      2825 9.44712E-05-2.65713E-05-2.90894E-05-7.99517E-06 5.00847E-19-6.85432E-19
 -1      2826 9.47053E-05-2.89870E-05-2.81779E-05-7.61567E-06 4.80447E-19 1.11196E-18
 -1      2827 9.40712E-05-2.83255E-05-2.81703E-05-7.80006E-06 1.58831E-18 4.16829E-19
 -1      2828 9.57795E-05-2.85258E-05-2.88049E-05-8.33651E-06 1.45230E-18 1.13328E-18
 -1      2829 9.54030E-05-2.98555E-05-2.80983E-05-6.69526E-06 1.30739E-19 1.31584E-18
 -1      2830 9.49442E-05-2.94300E-05-2.80836E-05-7.14858E-06 3.32092E-20 6.08353E-19
 -1      2831 9.65647E-05-2.99257E-05-2.85433E-05-7.68547E-06 5.81333E-19 1.33098E-18
 -1      2832 9.58054E-05-3.03974E-05-2.80370E-05-5.50102E-06 5.85316E-19 1.38399E-18
 -1      2833 9.54909E-05-3.01176E-05-2.80304E-05-6.09031E-06 8.15990E-19 2.46638E-18
 -1      2834 9.68954E-05-3.07613E-05-2.83310E-05-6.51751E-06-7.26873E-20-2.81893E-19
 -1      2835 9.68632E-05-3.11740E-05-2.81330E-05-5.18891E-06 1.17403E-18-4.41755E-19
 -1      2836 1.03927E-04-3.61342E-05-2.90062E-05 5.98312E-06 1.08482E-18-1.10630E-18
 -1      2837 1.03667E-04-3.61750E-05-2.89386E-05 3.70581E-06 1.53909E-18-6.08020E-19
 -1      2838 9.49230E-05-4.76264E-05-2.03242E-05 4.89307E-05 1.20374E-18 3.42657E-18
 -1      2839 7.69431E-05-3.78011E-05-1.62528E-05 4.86457E-05 2.06951E-18 3.05874E-18
 -1      2840 1.02876E-04-3.54033E-05-2.88685E-05 1.36913E-06 9.91520E-19 6.11684E-19
 -1      2841 1.02041E-04-3.49873E-05-2.87630E-05-4.62417E-07 8.75979E-19 2.09584E-18
 -1      2842 1.02588E-04-3.49605E-05-2.89785E-05-1.84385E-06 1.67085E-18 1.78974E-18
 -1      2843 1.04870E-04-3.67420E-05-2.92031E-05 2.16464E-06 1.18728E-18 5.40337E-19
 -1      2844 9.89391E-05-3.26359E-05-2.83852E-05-4.14734E-06 2.86590E-19-1.33830E-18
 -1      2845 9.78306E-05-3.18943E-05-2.82699E-05-4.76104E-06 1.13413E-18-1.33281E-18
 -1      2846 9.79362E-05-3.17289E-05-2.83902E-05-5.45580E-06 1.02655E-18-1.65220E-18
 -1      2847 1.00224E-04-3.32476E-05-2.86960E-05-4.25578E-06 1.41996E-18-6.03449E-19
 -1      2848 1.03138E-04-3.55259E-05-2.89495E-05 1.11891E-05-6.42214E-19-1.41825E-18
 -1      2849 1.03925E-04-3.63251E-05-2.89560E-05 8.84892E-06 3.19097E-19-1.79773E-18
 -1      2850 1.05870E-04-3.77829E-05-2.92081E-05 7.48619E-06 1.21551E-18-2.44063E-18
 -1      2851 9.47515E-05-2.82988E-05-2.84799E-05-1.03129E-06 1.71573E-19 5.95146E-19
 -1      2852 9.47547E-05-2.81824E-05-2.85227E-05-9.07871E-07 8.49245E-20 6.52323E-19
 -1      2853 9.52061E-05-2.81244E-05-2.87558E-05-7.12252E-07 1.60063E-19 2.98468E-19
 -1      2854 9.51487E-05-2.84138E-05-2.86055E-05-1.03153E-06-1.10009E-20 5.60039E-19
 -1      2855 9.95280E-05-3.27751E-05-2.86293E-05 1.57004E-05-4.05690E-19 1.36305E-20
 -1      2856 1.01755E-04-3.45616E-05-2.87342E-05 1.40087E-05-4.27941E-19-7.41979E-19
 -1      2857 1.04340E-04-3.70955E-05-2.88824E-05 1.34696E-05 2.21461E-19-1.09930E-18
 -1      2858 9.29488E-05-2.76507E-05-2.80787E-05 1.75262E-05-3.52101E-19-1.10817E-18
 -1      2859 9.64840E-05-3.02741E-05-2.82590E-05 1.73972E-05-7.68476E-19 2.54241E-19
 -1      2860 9.92099E-05-3.36486E-05-2.81854E-05 1.84480E-05-4.48848E-19-9.39633E-19
 -1      2861 8.46067E-05-2.08277E-05-2.74745E-05 1.45871E-05 1.11955E-18 1.06307E-18
 -1      2862 8.85618E-05-2.37154E-05-2.76419E-05 1.67931E-05 1.18034E-19-5.98480E-19
 -1      2863 9.04980E-05-2.71135E-05-2.72166E-05 1.99615E-05-4.99683E-20 1.07583E-19
 -1      2864 7.80677E-05-1.47964E-05-2.72079E-05 6.09243E-06 2.11798E-18 2.66663E-18
 -1      2865 8.05295E-05-1.68026E-05-2.72036E-05 1.05863E-05 2.14370E-18 2.74321E-18
 -1      2866 8.04714E-05-1.89059E-05-2.63442E-05 1.53983E-05 1.15011E-18 2.02013E-18
 -1      2867 9.37690E-05-4.04876E-05-2.17668E-05-3.90977E-05-1.49755E-18-6.29822E-18
 -1      2868 1.19760E-04-4.83982E-05-3.07094E-05-3.32815E-05 4.36010E-19-2.90628E-18
 -1      2869 1.46693E-04-5.32389E-05-4.00813E-05-7.64236E-06 6.46008E-19-2.15146E-19
 -1      2870 1.47285E-04-4.75716E-05-4.34321E-05-8.67699E-07 1.46526E-18-2.45640E-20
 -1      2871 1.46122E-04-5.58343E-05-3.92839E-05 1.03540E-05 2.35502E-19-9.80441E-20
 -1      2872 1.40773E-04-5.95044E-05-3.46816E-05 1.94674E-05-2.17317E-19 1.08823E-18
 -1      2873 6.46127E-05-1.13856E-05-2.26543E-05-2.43372E-05-5.14784E-19-2.12542E-18
 -1      2874 6.82606E-05-1.04251E-05-2.48388E-05-2.13825E-05-3.35346E-19-4.22087E-19
 -1      2875 6.51183E-05-7.85921E-06-2.40973E-05-1.45287E-05 5.39441E-19-2.60992E-20
 -1      2876 6.11224E-05-2.84854E-05-1.31951E-05-4.67050E-05 1.64430E-19-3.62212E-18
 -1      2877 7.81742E-05-3.86538E-05-1.70268E-05-5.04697E-05-4.29657E-19-3.64277E-18
 -1      2878 1.45884E-04-3.63779E-05-4.71931E-05 7.15382E-06 1.78915E-18 5.11502E-19
 -1      2879 1.42490E-04-2.50182E-05-5.11314E-05 1.05184E-05 1.80587E-18 3.14461E-19
 -1      2880 3.79319E-05-9.92499E-06-1.16710E-05-2.04901E-05-8.12834E-19-1.89206E-18
 -1      2881 5.70868E-05-1.06038E-05-1.94897E-05-2.41968E-05-7.46342E-19-2.35422E-18
 -1      2882 5.01689E-05-4.95619E-06-1.84528E-05-1.37084E-05-6.04252E-19-1.99667E-18
 -1      2883 3.21092E-05-6.16726E-06-1.00487E-05-7.89598E-06-2.14636E-18-2.49049E-18
 -1      2884 3.09798E-05-1.00371E-05-8.23453E-06-2.60493E-05-3.43154E-19-6.12193E-19
 -1      2885 4.32381E-05-1.76695E-05-1.06549E-05-3.94447E-05-1.26420E-19-2.27513E-18
 -1      2886 1.30359E-04-6.06182E-05-3.02708E-05 3.25696E-05-1.73324E-19 2.61974E-18
 -1      2887 1.14359E-04-5.58290E-05-2.46088E-05 4.16218E-05 1.58078E-19 3.38141E-18
 -1      2888 9.11702E-05-1.60835E-05-3.22079E-05 4.91153E-06 8.00736E-19 5.32767E-19
 -1      2889 9.08265E-05-1.55845E-05-3.22683E-05 3.99049E-06 6.56869E-19 3.72714E-19
 -1      2890 9.18034E-05-1.71954E-05-3.19598E-05 3.19382E-06 5.80747E-19 4.20665E-19
 -1      2891 9.24734E-05-1.82558E-05-3.17882E-05 4.61059E-06 7.11668E-19 5.50919E-19
 -1      2892 1.32235E-04-4.52375E-06-5.55042E-05-2.93522E-07 1.75675E-18 3.32143E-19
 -1      2893 1.33224E-04-6.55998E-06-5.49030E-05-6.05599E-06 1.62249E-18-9.05002E-19
 -1      2894 1.49458E-04-3.62948E-05-4.91774E-05-5.39435E-06 1.66431E-18-2.25544E-18
 -1      2895 1.48449E-04-4.68989E-05-4.37039E-05 1.98405E-07 1.11999E-18-1.26695E-18
 -1      2896 1.41329E-04-3.16311E-05-4.73017E-05-1.01035E-05 1.29395E-18-2.35073E-18
 -1      2897 1.32225E-04-5.93881E-05-3.09613E-05-2.90025E-05-2.48657E-19-3.67401E-19
 -1      2898 1.41835E-04-5.81060E-05-3.62992E-05-1.87905E-05 3.38284E-20-3.15520E-19
 -1      2899 1.40821E-04-5.59227E-05-3.64094E-05-1.12051E-05-3.59989E-20-1.46748E-19
 -1      2900 9.07929E-05-1.55388E-05-3.22735E-05-3.92905E-06 2.03077E-19-2.39949E-20
 -1      2901 9.11297E-05-1.60258E-05-3.22148E-05-4.85347E-06 1.65360E-19-1.52233E-19
 -1      2902 2.66109E-05-5.22338E-06-8.38053E-06 2.79915E-06 2.48551E-19-1.05667E-19
 -1      2903 2.59990E-05-5.56065E-06-8.06154E-06-1.24563E-05-7.01740E-19-1.84653E-19
 -1      2904 6.11927E-05-1.82567E-05-1.78179E-05 3.27500E-05 4.85985E-19 1.29533E-18
 -1      2905 1.00460E-04-4.90765E-05-2.14230E-05-4.59949E-05-1.28294E-18-3.46830E-18
 -1      2906 1.18515E-04-5.68134E-05-2.66805E-05-4.01762E-05-7.78423E-19-1.42763E-18
 -1      2907 7.74970E-05-1.26070E-05-2.76727E-05-1.09849E-05 8.85156E-19 2.31158E-18
 -1      2908 9.12781E-05-1.63852E-05-3.20847E-05 2.73882E-08 4.18539E-19 1.98341E-19
 -1      2909 9.01558E-05-1.45963E-05-3.24021E-05-3.84025E-07 3.66715E-19 9.13340E-20
 -1      2910 9.02122E-05-1.46765E-05-3.23922E-05-1.34088E-06 3.55720E-19-1.15110E-20
 -1      2911 9.44888E-05-2.14002E-05-3.13179E-05 7.85744E-06 5.02277E-19 8.68113E-19
 -1      2912 9.32000E-05-4.32274E-05-2.09752E-05-4.45667E-05-5.36807E-19-2.61958E-18
 -1      2913 7.01109E-05-3.23155E-05-1.57267E-05 4.67907E-05 2.55402E-18 3.00760E-18
 -1      2914 6.25949E-05-2.43966E-05-1.55465E-05 4.13693E-05 2.17767E-18 3.79301E-18
 -1      2915 8.18281E-05-3.58168E-05-1.98251E-05 4.36233E-05 2.87425E-18 2.70833E-18
 -1      2916 1.42231E-04-4.12387E-05-4.34257E-05 6.19660E-06 1.20967E-18 1.21920E-18
 -1      2917 3.55513E-05-1.28263E-05-8.96202E-06 2.77791E-05 1.59946E-18 3.13402E-18
 -1      2918 3.58460E-05-7.61284E-06-1.14702E-05 1.91644E-05 1.65404E-18 2.60590E-18
 -1      2919 4.56564E-05-1.54632E-05-1.27335E-05 3.29757E-05 1.95342E-18 4.76668E-18
 -1      2920 1.30474E-04-1.18793E-05-5.12921E-05-8.40905E-06 1.57887E-18-3.61048E-19
 -1      2921 9.53242E-05-2.56714E-05-2.98590E-05 2.58093E-06 4.45683E-19 6.58432E-19
 -1      2922 9.52093E-05-2.58913E-05-2.97026E-05 2.75400E-06 4.42274E-19 9.12191E-19
 -1      2923 1.08017E-04-5.09274E-05-2.41160E-05 4.08095E-05 9.66041E-19 2.81354E-18
 -1      2924 3.62483E-05-6.38673E-06-1.20823E-05-1.74736E-05 7.41524E-19-7.90282E-19
 -1      2925 1.43724E-04-5.05956E-05-3.99654E-05 1.53263E-06 7.30857E-19-2.12701E-18
 -1      2926 9.24286E-05-1.81858E-05-3.17971E-05-4.57375E-06 1.67165E-19-1.61593E-19
 -1      2927 9.15584E-05-1.66755E-05-3.21139E-05-5.58116E-06 1.57068E-19-2.48617E-19
 -1      2928 9.20779E-05-1.74489E-05-3.20148E-05-6.40174E-06 9.12865E-20-2.53628E-19
 -1      2929 7.72765E-05-1.27413E-05-2.77356E-05-5.42212E-06 1.62075E-18 3.58460E-18
 -1      2930 7.67769E-05-1.28827E-05-2.73833E-05-2.30732E-07 1.88690E-18 2.44604E-18
 -1      2931 9.52375E-05-2.55590E-05-2.98389E-05 3.44908E-06 4.41709E-19 9.44318E-19
 -1      2932 3.37429E-05-4.81853E-06-1.18313E-05-6.95758E-07-7.08914E-19-8.79220E-19
 -1      2933 1.37060E-04-1.95349E-05-5.08063E-05 1.16524E-05 1.92679E-18 1.13206E-18
 -1      2934 1.28956E-04-1.41247E-05-4.97663E-05 1.16304E-05 2.36047E-18 2.13193E-18
 -1      2935 1.32656E-04-2.50358E-05-4.63985E-05 1.24899E-05 1.41327E-18 2.08203E-18
 -1      2936 1.33924E-04-5.90597E-05-3.19696E-05 2.24799E-05-2.00059E-19 1.15027E-18
 -1      2937 9.47503E-05-2.24156E-05-3.09691E-05 6.32995E-06 4.66326E-19 8.28370E-19
 -1      2938 5.65510E-05-2.14194E-05-1.44328E-05-3.99066E-05 7.67624E-20-3.00623E-18
 -1      2939 9.03385E-05-1.48684E-05-3.23647E-05-2.17536E-06 2.99033E-19 1.45567E-19
 -1      2940 9.05249E-05-1.51332E-05-3.23328E-05-3.12581E-06 2.00287E-19 1.38609E-19
 -1      2941 9.17762E-05-1.71554E-05-3.19651E-05-3.13825E-06 1.47026E-19 1.13415E-19
 -1      2942 9.13976E-05-1.65691E-05-3.20561E-05-1.58214E-06 2.42171E-19 1.62460E-19
 -1      2943 7.41433E-05-1.27329E-05-2.61625E-05 4.36939E-06 1.31503E-18 1.69743E-18
 -1      2944 1.25194E-04-5.72562E-05-2.89504E-05-3.08323E-05-1.19236E-18-8.45551E-19
 -1      2945 7.16091E-05-1.04607E-05-2.62323E-05-7.84933E-06 1.19259E-18 1.90696E-18
 -1      2946 4.25067E-05-2.40472E-06-1.64360E-05 2.49889E-06 3.99493E-19 7.19872E-19
 -1      2947 4.69484E-05-6.56091E-06-1.68420E-05 1.44546E-05 3.48925E-19 6.75085E-19
 -1      2948 1.09984E-04-3.72054E-05-3.02533E-05-3.75198E-05-2.49589E-18-5.24581E-18
 -1      2949 1.27984E-04-6.14790E-06-5.27425E-05 2.53968E-06 1.99815E-18 9.00171E-19
 -1      2950 9.42667E-05-2.18640E-05-3.10649E-05 4.99120E-06 5.59933E-19 5.05837E-19
 -1      2951 9.38125E-05-2.09185E-05-3.12454E-05 4.60157E-06 6.01639E-19 5.47906E-19
 -1      2952 9.53879E-05-2.53556E-05-2.99902E-05 4.66852E-06 4.23847E-19 1.10526E-18
 -1      2953 8.42123E-05-3.59513E-05-2.01622E-05-4.28052E-05-4.30769E-19-2.68298E-18
 -1      2954 1.02052E-04-4.62146E-05-2.39591E-05-3.94280E-05-1.05186E-18-1.99987E-18
 -1      2955 8.80991E-05-2.72567E-05-2.62358E-05 2.30572E-05 1.01295E-18 1.02531E-19
 -1      2956 9.43525E-05-3.11440E-05-2.68665E-05 2.34547E-05 6.48364E-19-3.75557E-20
 -1      2957 9.54802E-05-2.54795E-05-2.99848E-05-2.21418E-06-1.35998E-19 1.92820E-20
 -1      2958 9.55244E-05-2.61962E-05-2.97242E-05-1.38822E-06-2.51924E-19-8.62982E-21
 -1      2959 9.56741E-05-2.68235E-05-2.94931E-05-7.88999E-07-3.12159E-19 1.78944E-19
 -1      2960 9.56528E-05-2.72815E-05-2.93100E-05-2.50558E-07-1.78178E-19 1.95007E-19
 -1      2961 9.56897E-05-2.61226E-05-2.98139E-05-1.22237E-06-1.74759E-19 2.28947E-19
 -1      2962 9.56990E-05-2.76763E-05-2.91413E-05 1.38759E-07-7.78166E-20 2.40720E-19
 -1      2963 9.56620E-05-2.79690E-05-2.90160E-05 4.63364E-07-1.02021E-19 4.38577E-19
 -1      2964 9.58877E-05-2.72816E-05-2.94058E-05-1.92350E-07-9.79074E-20 4.83170E-19
 -1      2965 9.56555E-05-2.82133E-05-2.88957E-05 6.92576E-07-1.08796E-19 3.46761E-19
 -1      2966 9.56228E-05-2.83986E-05-2.88127E-05 8.67059E-07-4.03870E-20 6.05424E-19
 -1      2967 9.59320E-05-2.80207E-05-2.91084E-05 4.61069E-07-2.98121E-20 5.36329E-19
 -1      2968 9.55911E-05-2.85443E-05-2.87290E-05 9.81176E-07-2.33476E-19 5.99353E-19
 -1      2969 9.55675E-05-2.86581E-05-2.86762E-05 1.05458E-06-2.96810E-19 5.80264E-19
 -1      2970 9.58999E-05-2.84835E-05-2.88962E-05 8.31348E-07-1.12101E-19 4.88454E-19
 -1      2971 9.55258E-05-2.87388E-05-2.86198E-05 1.09109E-06-4.00986E-19 7.32876E-19
 -1      2972 9.55110E-05-2.88045E-05-2.85883E-05 1.09949E-06-5.36128E-19 7.18551E-19
 -1      2973 9.58321E-05-2.87589E-05-2.87486E-05 1.00297E-06-1.76301E-19 3.51102E-19
 -1      2974 9.54672E-05-2.88423E-05-2.85518E-05 1.08672E-06-4.58384E-19 1.06558E-18
 -1      2975 9.54593E-05-2.88758E-05-2.85351E-05 1.05595E-06-2.18722E-19 1.00232E-18
 -1      2976 9.57513E-05-2.89088E-05-2.86492E-05 1.04242E-06-2.44857E-19 9.22486E-19
 -1      2977 9.54176E-05-2.88859E-05-2.85129E-05 1.01448E-06-1.55280E-19 1.04352E-18
 -1      2978 9.54145E-05-2.88980E-05-2.85061E-05 9.62580E-07 3.67095E-20 6.08514E-19
 -1      2979 9.56695E-05-2.89754E-05-2.85852E-05 9.99683E-07-4.35677E-19 1.33153E-18
 -1      2980 9.53769E-05-2.88908E-05-2.84940E-05 9.06880E-07 2.51342E-19 2.65079E-19
 -1      2981 9.53771E-05-2.88891E-05-2.84937E-05 8.46129E-07 2.84963E-19 3.63045E-19
 -1      2982 9.55930E-05-2.89880E-05-2.85465E-05 9.10770E-07-2.63880E-20 7.22807E-19
 -1      2983 9.53443E-05-2.88718E-05-2.84886E-05 7.85997E-07 2.17120E-19 2.30391E-19
 -1      2984 9.53465E-05-2.88616E-05-2.84924E-05 7.24520E-07 3.62689E-19 1.63877E-19
 -1      2985 9.55247E-05-2.89670E-05-2.85259E-05 8.00752E-07 1.01204E-19 6.98905E-19
 -1      2986 9.53187E-05-2.88387E-05-2.84921E-05 6.66370E-07 6.73205E-19 8.74622E-20
 -1      2987 9.53220E-05-2.88234E-05-2.84983E-05 6.09367E-07 5.40224E-19 3.75831E-19
 -1      2988 9.54655E-05-2.89262E-05-2.85177E-05 6.86502E-07 3.83265E-19 4.75196E-19
 -1      2989 9.52988E-05-2.87979E-05-2.85011E-05 5.57236E-07 3.26107E-19 4.57165E-19
 -1      2990 9.53028E-05-2.87798E-05-2.85088E-05 5.07936E-07 2.93191E-19 4.00314E-19
 -1      2991 9.54154E-05-2.88747E-05-2.85181E-05 5.78985E-07 4.45372E-19 2.85396E-20
 -1      2992 9.52833E-05-2.87532E-05-2.85137E-05 4.64279E-07 4.85891E-19 8.94376E-19
 -1      2993 9.52876E-05-2.87335E-05-2.85222E-05 4.24679E-07 3.81657E-19 5.56282E-19
 -1      2994 9.53734E-05-2.88178E-05-2.85243E-05 4.85082E-07 6.53773E-19 2.52655E-19
 -1      2995 9.52709E-05-2.87062E-05-2.85286E-05 3.90980E-07 1.20459E-19 8.43467E-19
 -1      2996 9.52751E-05-2.86849E-05-2.85377E-05 3.62428E-07-1.59623E-20 9.89187E-19
 -1      2997 9.53377E-05-2.87582E-05-2.85344E-05 4.09015E-07 4.00394E-19 3.24831E-19
 -1      2998 9.52598E-05-2.86564E-05-2.85452E-05 3.39673E-07-5.03019E-19 1.00938E-18
 -1      2999 9.52632E-05-2.86327E-05-2.85550E-05 3.23349E-07-6.02032E-19 6.52924E-19
 -1      3000 9.53060E-05-2.86960E-05-2.85474E-05 3.53441E-07-3.40187E-20 4.45722E-19
 -1      3001 9.52472E-05-2.86013E-05-2.85635E-05 3.12402E-07-7.75812E-19 8.75773E-19
 -1      3002 9.52489E-05-2.85735E-05-2.85742E-05 3.09739E-07-9.29959E-19 7.02789E-19
 -1      3003 9.52750E-05-2.86288E-05-2.85627E-05 3.20288E-07-6.67280E-19 5.86892E-19
 -1      3004 9.52291E-05-2.85361E-05-2.85839E-05 3.11627E-07-5.07462E-19 1.00973E-18
 -1      3005 9.52272E-05-2.85009E-05-2.85960E-05 3.24715E-07 2.10294E-19 1.03845E-18
 -1      3006 9.52397E-05-2.85520E-05-2.85803E-05 3.11384E-07-4.28732E-19 1.22585E-18
 -1      3007 9.51989E-05-2.84526E-05-2.86071E-05 3.40847E-07 5.43619E-19 8.01293E-19
 -1      3008 9.51899E-05-2.84046E-05-2.86212E-05 3.72854E-07 2.56659E-19 6.23094E-19
 -1      3009 9.51924E-05-2.84570E-05-2.86003E-05 3.28901E-07 1.70989E-19 1.55239E-18
 -1      3010 9.51453E-05-2.83377E-05-2.86340E-05 4.05141E-07 9.75017E-20 7.63233E-19
 -1      3011 9.51230E-05-2.82684E-05-2.86509E-05 4.60737E-07 1.40700E-19 5.84201E-19
 -1      3012 9.51211E-05-2.83308E-05-2.86232E-05 3.75564E-07 4.63953E-19 3.38496E-19
 -1      3013 9.50499E-05-2.81711E-05-2.86654E-05 5.11546E-07-6.97523E-20 4.09867E-19
 -1      3014 9.50031E-05-2.80675E-05-2.86858E-05 5.97292E-07-2.13114E-20 9.44427E-19
 -1      3015 9.50066E-05-2.81534E-05-2.86492E-05 4.54513E-07 3.14257E-20 8.13842E-19
 -1      3016 9.48819E-05-2.79217E-05-2.87018E-05 6.69044E-07-1.28836E-19 7.75222E-19
 -1      3017 9.47917E-05-2.77636E-05-2.87260E-05 7.93584E-07-4.75949E-19 8.07366E-19
 -1      3018 9.48179E-05-2.78944E-05-2.86776E-05 5.68472E-07 5.31817E-20 9.01000E-19
 -1      3019 9.45912E-05-2.75426E-05-2.87419E-05 8.87665E-07-5.06077E-19 7.56678E-19
 -1      3020 9.44253E-05-2.72996E-05-2.87691E-05 1.06132E-06-2.73312E-19 7.36974E-19
 -1      3021 9.45062E-05-2.75091E-05-2.87063E-05 7.17626E-07-3.73825E-19 3.92740E-20
 -1      3022 9.40966E-05-2.69641E-05-2.87812E-05 1.17565E-06-2.57814E-19 7.46256E-19
 -1      3023 9.38018E-05-2.65918E-05-2.88080E-05 1.40867E-06-2.64560E-19 5.21890E-19
 -1      3024 9.39948E-05-2.69326E-05-2.87296E-05 8.95059E-07-1.86577E-19 1.76537E-19
 -1      3025 9.32701E-05-2.60865E-05-2.88078E-05 1.53293E-06-2.52261E-19 5.76896E-19
 -1      3026 9.27592E-05-2.55218E-05-2.88252E-05 1.83097E-06-2.20875E-19 1.66135E-19
 -1      3027 9.31651E-05-2.60741E-05-2.87344E-05 1.07784E-06-2.82604E-19-9.93214E-20
 -1      3028 9.19125E-05-2.47724E-05-2.87958E-05 1.93796E-06-3.46494E-19 1.88459E-19
 -1      3029 9.10480E-05-2.39316E-05-2.87835E-05 2.29283E-06 1.43064E-19 1.69672E-19
 -1      3030 9.18386E-05-2.48132E-05-2.86947E-05 1.21091E-06-3.59995E-19 2.03389E-19
 -1      3031 8.97240E-05-2.28479E-05-2.86916E-05 2.32446E-06 1.87818E-19-2.03826E-19
 -1      3032 8.82947E-05-2.16306E-05-2.86075E-05 2.69787E-06-1.19506E-19-6.15567E-19
 -1      3033 8.97544E-05-2.30030E-05-2.85594E-05 1.18016E-06-8.01737E-20 2.98374E-19
 -1      3034 8.62679E-05-2.01216E-05-2.83905E-05 2.54547E-06-8.17122E-20-9.72044E-19
 -1      3035 8.39649E-05-1.84339E-05-2.81500E-05 2.84655E-06-1.99139E-19-6.14990E-19
 -1      3036 8.65452E-05-2.04923E-05-2.82329E-05 7.72091E-07-4.07629E-19-3.26182E-19
 -1      3037 8.09339E-05-1.64502E-05-2.76913E-05 2.33078E-06-6.11460E-19-1.31007E-18
 -1      3038 7.73299E-05-1.42647E-05-2.71284E-05 2.39860E-06-6.37581E-19-1.07823E-18
 -1      3039 8.17176E-05-1.71848E-05-2.75389E-05-3.77090E-07-7.34554E-19-1.53313E-18
 -1      3040 7.29059E-05-1.18827E-05-2.62106E-05 1.26874E-06 4.56405E-20-1.01367E-18
 -1      3041 6.74567E-05-9.38529E-06-2.49963E-05 8.89547E-07 6.45214E-19-5.85829E-19
 -1      3042 7.46402E-05-1.31660E-05-2.61536E-05-2.82651E-06-2.91882E-19-9.64476E-19
 -1      3043 6.14927E-05-7.06179E-06-2.33165E-05-9.42822E-07 4.61838E-19-1.10374E-18
 -1      3044 5.41877E-05-5.15891E-06-2.09791E-05-1.92907E-06-9.46824E-20-8.86843E-19
 -1      3045 6.48239E-05-9.03349E-06-2.35777E-05-7.19714E-06 2.58226E-19-8.83866E-19
 -1      3046 9.53610E-05-2.88567E-05-2.85009E-05-1.02720E-06 2.92438E-19 5.08213E-19
 -1      3047 9.53597E-05-2.88343E-05-2.85098E-05-1.07137E-06 6.22115E-20 4.91301E-19
 -1      3048 9.53573E-05-2.55416E-05-2.99355E-05 2.17199E-06 4.08584E-19 5.52295E-19
 -1      3049 9.52788E-05-2.46889E-05-3.02480E-05 3.19319E-06 4.72777E-19 5.32081E-19
 -1      3050 1.34979E-04-5.57886E-05-3.37768E-05-1.26988E-05-5.31126E-19-3.38337E-19
 -1      3051 1.37739E-04-5.26077E-05-3.69519E-05-3.98740E-06 1.31161E-19 4.23543E-19
 -1      3052 1.14291E-04-5.24643E-05-2.68431E-05 3.44162E-05 8.52274E-19 2.38323E-18
 -1      3053 1.00342E-04-4.42169E-05-2.33725E-05 3.96471E-05 2.07303E-18 2.33008E-18
 -1      3054 9.55765E-05-2.76793E-05-2.91049E-05-1.65054E-07 3.95508E-19 5.02888E-19
 -1      3055 9.56220E-05-2.73296E-05-2.92538E-05 2.58686E-07 5.76098E-19 5.81670E-19
 -1      3056 9.55431E-05-2.68484E-05-2.94504E-05 7.61786E-07 6.29521E-19 5.40571E-19
 -1      3057 9.55820E-05-2.63103E-05-2.96672E-05 1.45174E-06 4.95030E-19 4.89115E-19
 -1      3058 9.54976E-05-2.54630E-05-3.00258E-05 1.94335E-06 5.45240E-19 4.09311E-19
 -1      3059 9.57560E-05-2.68015E-05-2.95540E-05 6.58119E-07 5.59773E-19 6.15260E-19
 -1      3060 9.53986E-05-2.88123E-05-2.85364E-05-1.10144E-06 1.68701E-21 4.18966E-19
 -1      3061 9.54032E-05-2.87648E-05-2.85570E-05-1.11650E-06-1.59628E-19 6.07621E-19
 -1      3062 9.56348E-05-2.89181E-05-2.85951E-05-1.05052E-06 1.16634E-19 3.56930E-19
 -1      3063 9.54435E-05-2.87101E-05-2.86002E-05-1.10805E-06-3.81137E-19 7.16546E-19
 -1      3064 9.54572E-05-2.86252E-05-2.86381E-05-1.07227E-06-2.90631E-19 7.45057E-19
 -1      3065 9.57095E-05-2.88168E-05-2.86711E-05-1.05883E-06-1.20233E-19 5.55342E-19
 -1      3066 9.53306E-05-2.88636E-05-2.84848E-05-9.17854E-07 3.85787E-19 4.26303E-19
 -1      3067 9.53257E-05-2.88578E-05-2.84860E-05-9.76191E-07 5.21269E-19 4.32218E-19
 -1      3068 9.55640E-05-2.89548E-05-2.85485E-05-9.78787E-07 2.30605E-19 4.98414E-19
 -1      3069 9.53062E-05-2.88470E-05-2.84814E-05-7.95449E-07 1.06544E-19 1.49680E-19
 -1      3070 9.52996E-05-2.88518E-05-2.84779E-05-8.57974E-07 3.13858E-19 3.62036E-19
 -1      3071 9.55001E-05-2.89502E-05-2.85227E-05-8.74289E-07 2.93321E-19 6.60295E-19
 -1      3072 9.52870E-05-2.88168E-05-2.84862E-05-6.74412E-07 2.95509E-19 1.84766E-19
 -1      3073 9.52797E-05-2.88279E-05-2.84799E-05-7.34709E-07 3.65168E-20 5.27430E-20
 -1      3074 9.54443E-05-2.89205E-05-2.85111E-05-7.57903E-07 1.97153E-19 3.85509E-19
 -1      3075 9.52717E-05-2.87793E-05-2.84957E-05-5.63716E-07 2.57804E-19 5.61525E-19
 -1      3076 9.52645E-05-2.87940E-05-2.84881E-05-6.17881E-07 5.09215E-19 5.62080E-19
 -1      3077 9.53965E-05-2.88767E-05-2.85092E-05-6.43316E-07 1.28275E-19 8.25494E-19
 -1      3078 9.52598E-05-2.87392E-05-2.85079E-05-4.68528E-07-4.81071E-19 8.19579E-19
 -1      3079 9.52530E-05-2.87554E-05-2.84998E-05-5.14401E-07-2.17594E-19 5.31175E-19
 -1      3080 9.53561E-05-2.88261E-05-2.85133E-05-5.39070E-07-5.68230E-20 9.75081E-19
 -1      3081 9.52508E-05-2.86995E-05-2.85211E-05-3.91390E-07 6.09073E-19 7.92351E-19
 -1      3082 9.52443E-05-2.87157E-05-2.85131E-05-4.28020E-07 1.40518E-19 8.46005E-19
 -1      3083 9.53223E-05-2.87738E-05-2.85211E-05-4.50112E-07-1.62666E-19 1.17708E-18
 -1      3084 9.52445E-05-2.86625E-05-2.85344E-05-3.33010E-07 9.46574E-20 1.07228E-18
 -1      3085 9.52382E-05-2.86776E-05-2.85267E-05-3.60315E-07 3.19884E-19 9.46913E-19
 -1      3086 9.52944E-05-2.87231E-05-2.85308E-05-3.78925E-07 2.68722E-19 1.18639E-18
 -1      3087 9.52416E-05-2.86307E-05-2.85468E-05-2.92705E-07 3.04475E-20 1.29836E-18
 -1      3088 9.52348E-05-2.86433E-05-2.85399E-05-3.11308E-07-1.59649E-20 1.22059E-18
 -1      3089 9.52723E-05-2.86767E-05-2.85411E-05-3.26287E-07 1.11474E-20 1.38117E-18
 -1      3090 9.52437E-05-2.86072E-05-2.85579E-05-2.68521E-07-4.36299E-19 1.31106E-18
 -1      3091 9.52354E-05-2.86155E-05-2.85519E-05-2.79749E-07 1.32052E-19 1.71091E-18
 -1      3092 9.52564E-05-2.86376E-05-2.85511E-05-2.91701E-07-2.42744E-19 2.23419E-18
 -1      3093 9.52538E-05-2.85968E-05-2.85668E-05-2.57005E-07-8.15718E-19 1.07055E-18
 -1      3094 9.52423E-05-2.85983E-05-2.85621E-05-2.63078E-07-6.13391E-19 1.18733E-18
 -1      3095 9.52486E-05-2.86097E-05-2.85598E-05-2.73520E-07-4.16623E-19 1.77920E-18
 -1      3096 9.52774E-05-2.86066E-05-2.85728E-05-2.52633E-07-8.58279E-19 4.74457E-19
 -1      3097 9.52601E-05-2.85974E-05-2.85697E-05-2.57019E-07-9.47753E-19 1.05365E-18
 -1      3098 9.52530E-05-2.85990E-05-2.85664E-05-2.68732E-07-5.47274E-19 1.55141E-18
 -1      3099 9.53227E-05-2.86475E-05-2.85750E-05-2.46818E-07 2.74628E-19 8.87983E-20
 -1      3100 9.52957E-05-2.86220E-05-2.85740E-05-2.54806E-07-3.45539E-19-1.65758E-19
 -1      3101 9.52767E-05-2.86150E-05-2.85701E-05-2.72389E-07-1.67832E-19 2.67451E-19
 -1      3102 9.54020E-05-2.87344E-05-2.85721E-05-2.26487E-07 2.64994E-19 1.73821E-19
 -1      3103 9.53603E-05-2.86850E-05-2.85740E-05-2.45938E-07 1.46716E-19 4.96004E-20
 -1      3104 9.53314E-05-2.86714E-05-2.85698E-05-2.76580E-07 1.34436E-20-3.58644E-19
 -1      3105 9.55325E-05-2.88870E-05-2.85632E-05-1.72218E-07 8.40978E-19 1.19830E-18
 -1      3106 9.54692E-05-2.88042E-05-2.85685E-05-2.14478E-07 8.23718E-19 8.57745E-19
 -1      3107 9.54342E-05-2.87875E-05-2.85649E-05-2.68882E-07 3.26272E-19 2.37937E-19
 -1      3108 9.57360E-05-2.91285E-05-2.85479E-05-5.60771E-08 9.92497E-20 9.09780E-19
 -1      3109 9.56431E-05-2.90014E-05-2.85571E-05-1.36888E-07 6.77752E-19 9.25765E-19
 -1      3110 9.56092E-05-2.89881E-05-2.85551E-05-2.30183E-07 6.77935E-19 1.23055E-18
 -1      3111 9.60373E-05-2.94819E-05-2.85269E-05 1.60425E-07 2.29573E-19 1.06214E-18
 -1      3112 9.59071E-05-2.93010E-05-2.85398E-05 2.03315E-08 4.74311E-19 1.14829E-18
 -1      3113 9.58874E-05-2.93021E-05-2.85412E-05-1.31909E-07 4.48972E-20 1.24004E-18
 -1      3114 9.64594E-05-2.99629E-05-2.85036E-05 5.27317E-07-3.88230E-19 1.12983E-18
 -1      3115 9.62872E-05-2.97240E-05-2.85189E-05 3.02561E-07-1.96221E-19 1.16604E-18
 -1      3116 9.63044E-05-2.97579E-05-2.85263E-05 6.70252E-08 6.05812E-20 2.26257E-18
 -1      3117 9.70135E-05-3.05663E-05-2.84852E-05 1.10418E-06 9.94737E-19 9.60479E-19
 -1      3118 9.68026E-05-3.02779E-05-2.84998E-05 7.67104E-07 4.57165E-19 1.12539E-18
 -1      3119 9.68941E-05-3.03732E-05-2.85170E-05 4.22566E-07 1.53832E-19 1.51763E-18
 -1      3120 9.76837E-05-3.12464E-05-2.84841E-05 1.95196E-06-5.32578E-20 1.10209E-18
 -1      3121 9.74528E-05-3.09399E-05-2.84924E-05 1.47864E-06 4.33197E-19 1.06788E-18
 -1      3122 9.76758E-05-3.11377E-05-2.85255E-05 1.00488E-06 5.52090E-19 1.41707E-18
 -1      3123 9.84060E-05-3.18932E-05-2.85194E-05 3.11369E-06-9.26066E-19 1.62969E-18
 -1      3124 9.81966E-05-3.16338E-05-2.85128E-05 2.49563E-06-5.81731E-19 1.27157E-18
 -1      3125 9.86322E-05-3.19880E-05-2.85705E-05 1.89033E-06-6.88290E-19 2.41552E-18
 -1      3126 9.90478E-05-3.23144E-05-2.86151E-05 4.57885E-06-4.78493E-19 1.42457E-18
 -1      3127 9.89295E-05-3.22072E-05-2.85832E-05 3.84173E-06-5.87536E-19 1.44101E-18
 -1      3128 9.96809E-05-3.27775E-05-2.86782E-05 3.13889E-06-7.24084E-19 3.10010E-18
 -1      3129 9.94053E-05-3.22416E-05-2.87965E-05 6.22940E-06-7.23485E-19 2.29163E-18
 -1      3130 9.94679E-05-3.24210E-05-2.87287E-05 5.45747E-06-6.14860E-19 1.88172E-18
 -1      3131 1.00646E-04-3.32555E-05-2.88799E-05 4.74830E-06-8.34146E-19 2.07528E-18
 -1      3132 9.92407E-05-3.13917E-05-2.90810E-05 7.78460E-06 1.06822E-18 1.13780E-18
 -1      3133 9.95678E-05-3.19827E-05-2.89713E-05 7.13842E-06 4.71878E-19 1.76513E-18
 -1      3134 1.01255E-04-3.30830E-05-2.92045E-05 6.58215E-06-4.54288E-21 1.16129E-18
 -1      3135 9.83775E-05-2.95988E-05-2.94638E-05 8.77668E-06 7.57650E-19 6.45059E-19
 -1      3136 9.89973E-05-3.06415E-05-2.93166E-05 8.48989E-06 5.56115E-19 9.10553E-19
 -1      3137 1.01195E-04-3.19251E-05-2.96654E-05 8.29525E-06 1.01601E-18 7.30823E-19
 -1      3138 9.68537E-05-2.70068E-05-2.99047E-05 8.63480E-06 1.65415E-19 4.52457E-19
 -1      3139 9.76825E-05-2.83693E-05-2.97401E-05 8.95157E-06 7.55419E-19 5.79098E-19
 -1      3140 1.00255E-04-2.96314E-05-3.02413E-05 9.30745E-06 8.73217E-19 6.20181E-19
 -1      3141 9.50361E-05-2.41927E-05-3.03229E-05 6.91662E-06 2.97620E-19 1.44480E-18
 -1      3142 9.58619E-05-2.55366E-05-3.01760E-05 7.97568E-06 1.39700E-19 9.06283E-19
 -1      3143 9.85327E-05-2.64879E-05-3.08593E-05 8.93191E-06 6.21062E-20 1.64953E-18
 -1      3144 9.35733E-05-2.20620E-05-3.06168E-05 3.63626E-06-8.84907E-19 2.32352E-18
 -1      3145 9.41196E-05-2.29409E-05-3.05276E-05 5.33923E-06-2.01629E-20 1.86539E-18
 -1      3146 9.65655E-05-2.33090E-05-3.13980E-05 6.70502E-06-3.68734E-19 2.17968E-18
 -1      3147 9.30881E-05-2.14327E-05-3.07016E-05-5.58655E-07-3.13357E-19 1.71524E-18
 -1      3148 9.31519E-05-2.15136E-05-3.06982E-05 1.42524E-06-4.46600E-19 2.04668E-18
 -1      3149 9.51809E-05-2.12049E-05-3.17231E-05 2.79998E-06-8.22706E-19 2.21265E-18
 -1      3150 9.37959E-05-2.25637E-05-3.05483E-05-4.58915E-06-1.16242E-19 1.77259E-18
 -1      3151 9.33625E-05-2.18173E-05-3.06337E-05-2.81654E-06-4.50172E-19 1.84240E-18
 -1      3152 9.50318E-05-2.10171E-05-3.17394E-05-1.84597E-06-5.25361E-19 1.40530E-18
 -1      3153 9.53164E-05-2.49238E-05-3.02044E-05-7.43790E-06 3.57495E-19 9.75874E-19
 -1      3154 9.45962E-05-2.36876E-05-3.03517E-05-6.26193E-06 4.53876E-19 1.45497E-18
 -1      3155 9.61556E-05-2.27974E-05-3.14396E-05-5.91716E-06 1.48263E-19 1.06939E-18
 -1      3156 9.69847E-05-2.76478E-05-2.97527E-05-8.68585E-06 1.78695E-19 1.02398E-18
 -1      3157 9.62313E-05-2.63278E-05-2.99288E-05-8.24472E-06 1.77159E-19 6.43824E-20
 -1      3158 9.79171E-05-2.57582E-05-3.09088E-05-8.38024E-06 7.57420E-19 1.08036E-18
 -1      3159 9.81599E-05-2.98798E-05-2.92859E-05-8.45231E-06 1.59608E-18 1.60593E-18
 -1      3160 9.76124E-05-2.88562E-05-2.94562E-05-8.63255E-06 1.29271E-18 6.85542E-19
 -1      3161 9.95026E-05-2.88256E-05-3.02654E-05-9.03270E-06 6.43176E-19 3.83943E-19
 -1      3162 9.85419E-05-3.12137E-05-2.88633E-05-7.31859E-06 1.38218E-18 6.32458E-19
 -1      3163 9.82961E-05-3.06100E-05-2.90131E-05-7.86388E-06 1.97704E-18 1.59879E-18
 -1      3164 1.00269E-04-3.10782E-05-2.96304E-05-8.21399E-06 1.61946E-18 1.01396E-18
 -1      3165 9.83434E-05-3.17232E-05-2.85586E-05-6.04705E-06 2.50596E-19-1.01627E-18
 -1      3166 9.82620E-05-3.13841E-05-2.86732E-05-6.70707E-06-3.81454E-20-1.40904E-19
 -1      3167 1.00135E-04-3.21586E-05-2.91310E-05-6.91224E-06 1.30243E-18 8.91660E-19
 -1      3168 9.95067E-05-3.24765E-05-2.87339E-05-5.65137E-06 7.59558E-19-1.05852E-18
 -1      3169 9.99467E-05-3.51658E-05-2.78035E-05 2.12821E-05-1.91388E-19-1.91933E-18
 -1      3170 1.03970E-04-3.76839E-05-2.83075E-05 1.91669E-05 6.94924E-19-7.99954E-19
 -1      3171 9.84649E-05-3.57973E-05-2.69278E-05 2.51646E-05 5.38885E-19-1.23640E-19
 -1      3172 1.37925E-04-4.52024E-05-3.97374E-05 4.98640E-06 1.17078E-18 1.60216E-18
 -1      3173 1.34571E-04-3.59362E-05-4.27547E-05 1.05968E-05 1.39914E-18 2.13272E-18
 -1      3174 6.73553E-05-9.62326E-06-2.45693E-05 3.22655E-06 2.46512E-18 2.29109E-18
 -1      3175 6.92500E-05-1.18796E-05-2.44435E-05 1.01144E-05 2.14131E-18 2.57202E-18
 -1      3176 7.46208E-05-1.69559E-05-2.48498E-05 1.73139E-05 1.68324E-18 3.17271E-18
 -1      3177 8.08300E-05-2.11078E-05-2.52963E-05 2.12469E-05 1.35700E-18 1.07577E-18
 -1      3178 8.40673E-05-2.59008E-05-2.48742E-05 2.60725E-05 1.39887E-18 1.32718E-18
 -1      3179 6.82526E-05-1.42454E-05-2.30866E-05 1.70435E-05 1.92867E-18 3.65217E-18
 -1      3180 1.23866E-04-8.75164E-06-4.98474E-05 7.72896E-06 2.48647E-18 1.41992E-18
 -1      3181 1.19433E-04-6.32527E-06-4.88795E-05 1.47868E-06 1.78819E-18 1.90022E-18
 -1      3182 1.18290E-04-5.33928E-05-2.76445E-05-3.07474E-05-8.15746E-19-5.85862E-19
 -1      3183 1.29185E-04-5.70092E-05-3.11923E-05-2.20787E-05-7.01290E-19-2.14643E-19
 -1      3184 1.29258E-04-5.42888E-05-3.20824E-05-1.43074E-05-6.68878E-19 1.95082E-20
 -1      3185 7.28444E-05-2.97684E-05-1.79364E-05-3.63614E-05-1.12909E-18-5.85406E-18
 -1      3186 9.53040E-05-2.45480E-05-3.03497E-05 4.83077E-06 4.02582E-19 8.47333E-19
 -1      3187 1.21551E-04-9.50797E-06-4.84710E-05-7.67694E-06 3.67718E-19-3.87597E-19
 -1      3188 1.28196E-04-1.69979E-05-4.80053E-05-1.21555E-05 5.08432E-19-1.78745E-18
 -1      3189 9.24198E-05-1.79354E-05-3.19442E-05-6.92921E-06 4.32520E-20-2.90635E-19
 -1      3190 9.30440E-05-1.88827E-05-3.18124E-05-7.45950E-06-6.74624E-20-2.91841E-19
 -1      3191 9.37851E-05-2.04157E-05-3.14251E-05-6.48523E-06-7.66217E-20-1.99334E-19
 -1      3192 9.31723E-05-1.93551E-05-3.16082E-05-5.67599E-06 8.72936E-20-2.03882E-19
 -1      3193 1.06675E-04-3.90403E-05-2.89436E-05 1.52839E-05 6.34727E-19 4.34510E-20
 -1      3194 1.08312E-04-4.00518E-05-2.92394E-05 1.22086E-05-8.11233E-20-1.56277E-18
 -1      3195 1.07852E-04-4.10957E-05-2.86746E-05 1.81666E-05 7.74909E-19 2.55279E-19
 -1      3196 5.32462E-05-1.49895E-05-1.58993E-05-3.23748E-05-2.68086E-19-2.33421E-18
 -1      3197 6.73058E-05-2.54310E-05-1.79269E-05-4.08745E-05 2.90638E-20-3.56167E-18
 -1      3198 1.33878E-04-5.69829E-05-3.34939E-05 1.42670E-05 4.02155E-19 2.01243E-19
 -1      3199 1.26860E-04-5.61553E-05-2.99121E-05 2.40611E-05 1.10359E-18 1.23349E-18
 -1      3200 4.35256E-05-3.91852E-06-1.67699E-05-3.02539E-06 5.84612E-19 2.86509E-19
 -1      3201 5.14809E-05-5.12101E-06-1.99330E-05-5.67962E-06 5.43041E-19-1.82747E-19
 -1      3202 9.47473E-05-2.29699E-05-3.07493E-05 4.94230E-06 4.54427E-19 5.83229E-19
 -1      3203 3.93197E-05-3.41650E-06-1.51300E-05-9.82859E-06 9.40432E-19-4.65974E-19
 -1      3204 4.44544E-05-8.03117E-06-1.52178E-05-2.35454E-05 7.35966E-19-1.72276E-18
 -1      3205 5.60691E-05-1.21811E-05-1.83724E-05-2.52287E-05 3.26730E-19-1.47124E-18
 -1      3206 4.95092E-05-4.36633E-06-1.90086E-05-3.74499E-06-1.39999E-19-1.40184E-19
 -1      3207 1.32958E-04-2.57442E-05-4.65232E-05-1.24405E-05 1.13397E-18-1.71852E-18
 -1      3208 1.36894E-04-3.54371E-05-4.36113E-05-1.03808E-05 1.75691E-18-1.91080E-18
 -1      3209 9.23612E-05-1.83334E-05-3.17415E-05 1.80777E-06 5.30812E-19 1.54098E-19
 -1      3210 9.22416E-05-1.81311E-05-3.17733E-05 1.05486E-06 5.33281E-19 1.50883E-19
 -1      3211 1.08595E-04-3.95497E-05-2.95287E-05 8.33264E-06-3.37160E-19-4.05342E-18
 -1      3212 1.08367E-04-3.93582E-05-2.96074E-05 5.40687E-06 1.09626E-18-2.34513E-18
 -1      3213 1.11023E-04-4.17916E-05-2.96839E-05 9.98704E-06-5.55791E-20-2.76573E-18
 -1      3214 1.39193E-04-4.54158E-05-4.07622E-05-4.87675E-06 1.90259E-18-8.38668E-19
 -1      3215 1.38462E-04-5.17232E-05-3.70112E-05 2.63805E-06 4.62215E-19-9.19375E-19
 -1      3216 9.49344E-05-2.33696E-05-3.06518E-05-4.23003E-06-3.41357E-20-2.35045E-20
 -1      3217 9.51406E-05-2.44957E-05-3.02934E-05-3.06286E-06-1.26883E-19-7.05377E-20
 -1      3218 9.51966E-05-2.43496E-05-3.03586E-05-2.70666E-06-6.87596E-20-1.59925E-21
 -1      3219 3.95108E-05-5.15363E-06-1.39560E-05 8.32978E-06 1.20477E-18 2.04029E-18
 -1      3220 4.98806E-05-8.30789E-06-1.70269E-05 2.19554E-05 6.75509E-20 6.91285E-19
 -1      3221 4.37214E-05-1.50035E-05-1.17056E-05 2.42438E-05 8.85785E-19 1.07997E-19
 -1      3222 2.76147E-05-7.29491E-06-7.97545E-06 1.05159E-05 3.89370E-19-2.76980E-19
 -1      3223 6.53697E-05-8.70721E-06-2.42799E-05-2.69143E-06 1.72856E-18 1.59438E-18
 -1      3224 3.25207E-05-4.30511E-06-1.18575E-05 5.95574E-06 6.05920E-19 6.71485E-19
 -1      3225 1.25345E-04-2.23816E-05-4.43729E-05-1.22891E-05 9.58312E-19-1.40973E-18
 -1      3226 7.93277E-05-2.96608E-05-2.09250E-05-3.73352E-05-7.18443E-19-2.37392E-18
 -1      3227 1.27813E-04-3.55384E-05-3.96502E-05 1.09323E-05 1.58578E-18 1.61975E-18
 -1      3228 1.31039E-04-3.11171E-05-4.30493E-05 1.27556E-05 1.49792E-18 1.54861E-18
 -1      3229 1.25153E-04-2.54647E-05-4.30368E-05 1.35344E-05 1.63933E-18 1.86183E-18
 -1      3230 9.42254E-05-2.17356E-05-3.10855E-05-5.51097E-06-1.99301E-20-1.60789E-19
 -1      3231 5.90545E-05-1.96230E-05-1.64018E-05 3.48569E-05 1.92912E-18 4.16497E-18
 -1      3232 1.07301E-04-3.80585E-05-2.96222E-05 2.41782E-06 1.59997E-18 2.16687E-19
 -1      3233 1.06108E-04-3.72812E-05-2.95471E-05 1.06659E-07 7.97562E-19 1.99783E-18
 -1      3234 1.09844E-04-3.98279E-05-2.99991E-05 3.07926E-06 6.42087E-19-1.53450E-18
 -1      3235 9.57813E-05-2.86173E-05-2.87879E-05-9.60302E-07-1.60638E-19 6.89325E-19
 -1      3236 9.54944E-05-2.85203E-05-2.87045E-05-1.00062E-06-2.51511E-19 6.65667E-19
 -1      3237 9.55200E-05-2.83801E-05-2.87675E-05-8.83162E-07-6.86760E-20 5.16739E-19
 -1      3238 5.37347E-05-6.19983E-06-1.98887E-05-1.29957E-05 5.13871E-19-1.14858E-18
 -1      3239 9.49374E-05-2.35915E-05-3.05666E-05 3.35888E-06 5.40084E-19 4.06219E-19
 -1      3240 9.50032E-05-2.37636E-05-3.05124E-05 3.80405E-06 4.95116E-19 5.52820E-19
 -1      3241 1.33511E-04-4.73228E-05-3.69512E-05 2.20274E-06 7.12818E-19 1.09169E-18
 -1      3242 9.21806E-05-1.80306E-05-3.17916E-05 4.06735E-07 4.80530E-19 2.88870E-19
 -1      3243 9.21788E-05-1.80271E-05-3.17921E-05-3.59751E-07 3.55104E-19 2.22759E-19
 -1      3244 9.31335E-05-1.96139E-05-3.14907E-05 6.25401E-07 4.60762E-19 2.17141E-19
 -1      3245 9.55447E-05-2.81992E-05-2.88655E-05-7.14866E-07 1.64386E-19 5.55987E-19
 -1      3246 9.55830E-05-2.79761E-05-2.89643E-05-4.72942E-07 2.49161E-19 4.88840E-19
 -1      3247 9.58480E-05-2.77048E-05-2.92080E-05-1.86894E-07 3.45851E-19 6.28224E-19
 -1      3248 9.58365E-05-2.82708E-05-2.89606E-05-6.95552E-07 3.79614E-20 5.59003E-19
 -1      3249 1.13454E-04-9.00528E-06-4.49403E-05 1.03490E-06 6.08858E-19 1.06283E-18
 -1      3250 1.17303E-04-8.19651E-06-4.71804E-05-3.31024E-06 3.00485E-19 5.47799E-19
 -1      3251 1.15345E-04-1.19388E-05-4.45439E-05-6.68690E-06-3.76294E-19-4.12560E-19
 -1      3252 1.04502E-04-3.58279E-05-2.93887E-05-1.92338E-06 1.46554E-18 2.05804E-18
 -1      3253 1.02932E-04-3.48335E-05-2.92251E-05-3.53920E-06 1.30087E-18 1.00832E-18
 -1      3254 1.06699E-04-3.70366E-05-2.98276E-05-1.84397E-06 7.76050E-19 1.34346E-18
 -1      3255 9.41589E-05-2.16338E-05-3.10905E-05-4.82729E-06 2.20439E-20-1.56082E-19
 -1      3256 9.30391E-05-1.94993E-05-3.15261E-05-3.60963E-06 1.63352E-19-4.04363E-20
 -1      3257 9.34013E-05-2.01542E-05-3.14144E-05-4.22300E-06 1.26877E-19-2.54849E-19
 -1      3258 1.11579E-04-4.98921E-05-2.62923E-05-3.31059E-05-1.23876E-18-1.13342E-18
 -1      3259 1.16299E-04-5.02600E-05-2.84480E-05-2.46833E-05-8.27766E-19 6.23032E-20
 -1      3260 1.02280E-04-4.28314E-05-2.52341E-05-3.29341E-05-5.95782E-19-1.36409E-18
 -1      3261 5.82396E-05-6.81691E-06-2.19015E-05-2.37318E-06 1.59596E-18 4.75450E-19
 -1      3262 1.32757E-04-5.19413E-05-3.45888E-05 5.92298E-06 1.22545E-18-5.01867E-20
 -1      3263 9.34235E-05-2.02026E-05-3.14043E-05 4.24201E-06 6.39420E-19 5.32963E-19
 -1      3264 9.30660E-05-1.95468E-05-3.15176E-05 3.64386E-06 6.09858E-19 5.23293E-19
 -1      3265 9.43218E-05-2.19754E-05-3.09905E-05 3.60840E-06 5.32821E-19 5.34648E-19
 -1      3266 1.21641E-04-1.38183E-05-4.65125E-05 9.74129E-06 1.62233E-18 2.66821E-18
 -1      3267 4.52797E-05-7.10392E-06-1.62490E-05 1.48087E-05 2.29555E-18 4.26883E-18
 -1      3268 1.19020E-04-5.16668E-05-2.87351E-05 2.54894E-05 1.81085E-18 1.01277E-18
 -1      3269 1.00708E-04-3.32560E-05-2.88914E-05-4.87946E-06 1.25513E-18 8.36180E-20
 -1      3270 1.02366E-04-3.39621E-05-2.93060E-05-5.18745E-06 9.05175E-19 4.58940E-19
 -1      3271 9.25380E-05-1.86297E-05-3.16858E-05 2.41634E-06 5.42497E-19 3.75924E-19
 -1      3272 9.33469E-05-2.00050E-05-3.14149E-05 1.79389E-06 5.57790E-19 3.04459E-19
 -1      3273 9.27759E-05-1.90426E-05-3.16185E-05 3.11996E-06 6.60245E-19 5.47793E-19
 -1      3274 1.33022E-04-3.89452E-05-4.04341E-05-8.98801E-06 2.17449E-18 3.43763E-19
 -1      3275 9.25177E-05-1.86007E-05-3.16904E-05-2.37545E-06 1.36006E-19 1.73309E-19
 -1      3276 9.27483E-05-1.90014E-05-3.16248E-05-3.07887E-06 1.44804E-19 5.33184E-20
 -1      3277 9.37421E-05-2.07466E-05-3.12623E-05-2.82172E-06 5.29557E-20-4.09413E-20
 -1      3278 9.25146E-05-3.86755E-05-2.28059E-05 3.85662E-05 2.22489E-18 1.79611E-18
 -1      3279 9.51117E-05-2.39104E-05-3.04963E-05 2.65968E-06 5.72426E-19 3.98741E-19
 -1      3280 9.47447E-05-2.30251E-05-3.07501E-05 3.17270E-06 5.51859E-19 4.79550E-19
 -1      3281 9.44557E-05-2.23358E-05-3.09098E-05 2.91409E-06 5.76470E-19 4.98764E-19
 -1      3282 9.60139E-05-2.68510E-05-2.96347E-05-4.81555E-07-8.26429E-20 3.37501E-19
 -1      3283 9.60681E-05-2.73521E-05-2.94568E-05-5.47419E-08-1.53721E-20 4.52295E-19
 -1      3284 9.61554E-05-2.77854E-05-2.92939E-05 2.30196E-07-8.04973E-20 4.04813E-19
 -1      3285 9.61528E-05-2.81117E-05-2.91651E-05 4.89915E-07-8.77533E-20 3.47271E-19
 -1      3286 9.62529E-05-2.74064E-05-2.95058E-05-3.36581E-09-4.10876E-21 1.93143E-19
 -1      3287 9.61639E-05-2.83816E-05-2.90437E-05 6.56486E-07-2.11554E-19 4.41195E-19
 -1      3288 9.61344E-05-2.85852E-05-2.89521E-05 7.96375E-07-1.76138E-19 3.17266E-19
 -1      3289 9.63489E-05-2.81826E-05-2.92156E-05 4.68886E-07-1.69125E-19 2.80236E-19
 -1      3290 9.61023E-05-2.87447E-05-2.88635E-05 8.75924E-07-5.95407E-20 1.86698E-19
 -1      3291 9.60619E-05-2.88639E-05-2.88000E-05 9.33201E-07-7.16967E-20 4.13280E-19
 -1      3292 9.63297E-05-2.86684E-05-2.89997E-05 7.33862E-07-2.31764E-19 2.69412E-19
 -1      3293 9.60071E-05-2.89482E-05-2.87369E-05 9.53481E-07-6.22639E-20 5.32440E-19
 -1      3294 9.59641E-05-2.90102E-05-2.86944E-05 9.56961E-07-1.99633E-19 7.74730E-19
 -1      3295 9.62453E-05-2.89508E-05-2.88427E-05 8.50360E-07 1.41910E-20 2.65959E-19
 -1      3296 9.58999E-05-2.90444E-05-2.86507E-05 9.39749E-07-3.53823E-19 9.43718E-19
 -1      3297 9.58585E-05-2.90683E-05-2.86237E-05 9.10744E-07-3.35972E-19 1.02699E-18
 -1      3298 9.61289E-05-2.90941E-05-2.87313E-05 8.67608E-07 9.47106E-21 5.88796E-19
 -1      3299 9.57929E-05-2.90703E-05-2.85946E-05 8.72120E-07-3.58024E-19 1.09571E-18
 -1      3300 9.57553E-05-2.90696E-05-2.85786E-05 8.25812E-07-2.31143E-19 8.93556E-19
 -1      3301 9.60014E-05-2.91449E-05-2.86547E-05 8.23512E-07-3.24098E-19 9.99046E-19
 -1      3302 9.56931E-05-2.90517E-05-2.85603E-05 7.77156E-07-1.38284E-19 8.98243E-19
 -1      3303 9.56602E-05-2.90359E-05-2.85521E-05 7.24007E-07 1.50002E-19 9.40186E-19
 -1      3304 9.58756E-05-2.91364E-05-2.86042E-05 7.45754E-07-1.40328E-19 9.94559E-19
 -1      3305 9.56037E-05-2.90067E-05-2.85416E-05 6.73055E-07 4.93087E-19 7.84486E-19
 -1      3306 9.55757E-05-2.89821E-05-2.85389E-05 6.20035E-07 5.02591E-19 7.54730E-19
 -1      3307 9.57584E-05-2.90916E-05-2.85729E-05 6.53743E-07 2.44167E-19 9.18877E-19
 -1      3308 9.55258E-05-2.89471E-05-2.85340E-05 5.71836E-07 3.62379E-19 7.29570E-19
 -1      3309 9.55023E-05-2.89178E-05-2.85350E-05 5.23436E-07 5.06671E-19 6.60597E-19
 -1      3310 9.56535E-05-2.90263E-05-2.85556E-05 5.60559E-07 5.06122E-19 1.11127E-18
 -1      3311 9.54589E-05-2.88802E-05-2.85342E-05 4.81138E-07 5.73590E-19 6.12605E-19
 -1      3312 9.54392E-05-2.88486E-05-2.85377E-05 4.40164E-07 7.80895E-19 6.12021E-19
 -1      3313 9.55614E-05-2.89505E-05-2.85484E-05 4.74671E-07 6.39348E-19 1.18741E-18
 -1      3314 9.54014E-05-2.88099E-05-2.85397E-05 4.05624E-07 5.98159E-19 4.33430E-19
 -1      3315 9.53844E-05-2.87769E-05-2.85451E-05 3.73811E-07 4.37724E-19 4.80867E-19
 -1      3316 9.54811E-05-2.88697E-05-2.85484E-05 4.01311E-07 6.03703E-19 7.73385E-19
 -1      3317 9.53504E-05-2.87373E-05-2.85491E-05 3.48052E-07 2.36045E-19 6.25351E-19
 -1      3318 9.53347E-05-2.87025E-05-2.85558E-05 3.26527E-07-2.24501E-19 4.24656E-19
 -1      3319 9.54100E-05-2.87862E-05-2.85535E-05 3.43516E-07 2.57055E-19 7.15727E-19
 -1      3320 9.53021E-05-2.86608E-05-2.85614E-05 3.10043E-07-5.06754E-19 5.98398E-19
 -1      3321 9.52858E-05-2.86225E-05-2.85692E-05 2.99674E-07-4.25217E-19 7.04095E-19
 -1      3322 9.53442E-05-2.86992E-05-2.85624E-05 3.02873E-07 1.91219E-19 3.75704E-19
 -1      3323 9.52511E-05-2.85759E-05-2.85760E-05 2.92597E-07-3.41192E-19 1.11725E-18
 -1      3324 9.52309E-05-2.85311E-05-2.85850E-05 2.94224E-07-2.40183E-19 1.63112E-18
 -1      3325 9.52779E-05-2.86049E-05-2.85741E-05 2.79948E-07-1.32397E-19 1.21438E-18
 -1      3326 9.51893E-05-2.84753E-05-2.85929E-05 2.96337E-07-2.22095E-19 1.79454E-18
 -1      3327 9.51603E-05-2.84188E-05-2.86031E-05 3.10884E-07 3.09201E-19 1.23535E-18
 -1      3328 9.52030E-05-2.84964E-05-2.85880E-05 2.74401E-07-7.20428E-20 1.62702E-18
 -1      3329 9.51044E-05-2.83472E-05-2.86118E-05 3.21414E-07 3.53410E-19 7.68853E-19
 -1      3330 9.50591E-05-2.82712E-05-2.86234E-05 3.49836E-07 2.72913E-19 7.27226E-19
 -1      3331 9.51076E-05-2.83630E-05-2.86037E-05 2.84682E-07-2.71920E-20 1.54137E-18
 -1      3332 9.49780E-05-2.81738E-05-2.86325E-05 3.66933E-07 3.88571E-19 8.52286E-19
 -1      3333 9.49039E-05-2.80666E-05-2.86453E-05 4.09857E-07 3.85891E-19 1.32143E-18
 -1      3334 9.49740E-05-2.81883E-05-2.86203E-05 3.07139E-07 3.14371E-19 1.62927E-18
 -1      3335 9.47813E-05-2.79288E-05-2.86540E-05 4.29542E-07-1.56037E-19 1.32008E-18
 -1      3336 9.46587E-05-2.77732E-05-2.86673E-05 4.86372E-07-4.03670E-19 1.27476E-18
 -1      3337 9.47760E-05-2.79489E-05-2.86366E-05 3.34159E-07 3.24373E-19 1.38119E-18
 -1      3338 9.44702E-05-2.75744E-05-2.86737E-05 5.00600E-07-5.19670E-19 1.02873E-18
 -1      3339 9.42681E-05-2.73454E-05-2.86855E-05 5.67617E-07-5.00188E-19 1.03503E-18
 -1      3340 9.44743E-05-2.76117E-05-2.86496E-05 3.50754E-07-5.69074E-19 1.32830E-18
 -1      3341 9.39778E-05-2.70571E-05-2.86858E-05 5.60884E-07-2.56059E-19 1.08821E-18
 -1      3342 9.36477E-05-2.67199E-05-2.86916E-05 6.27553E-07 1.01452E-19 1.01224E-18
 -1      3343 9.40108E-05-2.71314E-05-2.86533E-05 3.28580E-07-4.47145E-19 1.73334E-18
 -1      3344 9.32043E-05-2.63042E-05-2.86786E-05 5.71194E-07-3.05619E-19 5.05280E-19
 -1      3345 9.26722E-05-2.58125E-05-2.86692E-05 6.13445E-07-6.87634E-19 2.80006E-19
 -1      3346 9.33018E-05-2.64491E-05-2.86366E-05 2.15878E-07-4.90272E-19 1.01789E-18
 -1      3347 9.20049E-05-2.52234E-05-2.86295E-05 4.56479E-07-5.93485E-19 1.35450E-20
 -1      3348 9.11608E-05-2.45195E-05-2.85867E-05 4.25254E-07-2.70624E-19 3.49347E-19
 -1      3349 9.22299E-05-2.54942E-05-2.85790E-05-7.87582E-08-8.24817E-19 8.44896E-19
 -1      3350 9.01770E-05-2.37085E-05-2.84966E-05 8.05976E-08-7.07053E-20 1.91415E-19
 -1      3351 8.88627E-05-2.27302E-05-2.83863E-05-1.16148E-07-1.46252E-19 3.75119E-19
 -1      3352 9.06389E-05-2.41942E-05-2.84436E-05-7.11231E-07-2.85966E-19 3.69948E-19
 -1      3353 8.74509E-05-2.16631E-05-2.82045E-05-7.90674E-07-6.96384E-19-3.98529E-19
 -1      3354 8.54484E-05-2.03623E-05-2.79644E-05-1.31316E-06-1.35664E-18-1.01541E-18
 -1      3355 8.83346E-05-2.25009E-05-2.81673E-05-1.93721E-06-9.60890E-19-3.93438E-19
 -1      3356 8.34909E-05-1.90551E-05-2.76207E-05-2.53791E-06-1.04744E-18-1.33021E-18
 -1      3357 8.05138E-05-1.74387E-05-2.71376E-05-3.64366E-06-4.77707E-19-1.47627E-18
 -1      3358 8.51026E-05-2.04470E-05-2.76432E-05-4.15743E-06-1.31263E-18-8.55376E-19
 -1      3359 7.79154E-05-1.60233E-05-2.65140E-05-5.73317E-06-4.42500E-19-9.91396E-19
 -1      3360 7.36203E-05-1.42329E-05-2.55811E-05-7.80470E-06 8.60268E-22-8.65641E-19
 -1      3361 8.07532E-05-1.82460E-05-2.66940E-05-7.96626E-06 2.86440E-20-1.06634E-18
 -1      3362 7.05528E-05-1.31375E-05-2.45444E-05-1.09575E-05-2.06961E-20-6.78778E-19
 -1      3363 6.49704E-05-1.16612E-05-2.29077E-05-1.42822E-05-1.72358E-19-6.74318E-19
 -1      3364 7.53638E-05-1.64967E-05-2.50893E-05-1.39716E-05-1.84238E-19-1.43909E-18
 -1      3365 9.56565E-05-2.90287E-05-2.85536E-05-7.96316E-07 4.44772E-20 8.04621E-19
 -1      3366 9.56876E-05-2.90368E-05-2.85642E-05-8.48579E-07 9.84815E-20 4.52696E-19
 -1      3367 1.10850E-04-4.35774E-05-2.87417E-05 2.00281E-05 1.51870E-19 2.53177E-19
 -1      3368 1.13691E-04-4.51086E-05-2.94450E-05 1.61847E-05 2.08926E-19 1.05373E-19
 -1      3369 1.29704E-04-4.85487E-05-3.46282E-05-1.95644E-07 4.89426E-19 2.15993E-20
 -1      3370 1.28277E-04-4.28851E-05-3.68545E-05 6.62870E-06 1.62268E-18 1.73631E-18
 -1      3371 9.57491E-05-2.90455E-05-2.85863E-05-8.94853E-07 7.69890E-20 3.34304E-19
 -1      3372 9.57843E-05-2.90346E-05-2.86058E-05-9.35405E-07 5.08633E-20 3.24023E-19
 -1      3373 9.58888E-05-2.91206E-05-2.86167E-05-8.14249E-07-9.69677E-20 4.75949E-19
 -1      3374 9.59442E-05-2.89227E-05-2.87238E-05-9.82759E-07-1.76277E-20 6.16790E-19
 -1      3375 9.59835E-05-2.88366E-05-2.87738E-05-9.55736E-07-4.95814E-20 6.42614E-19
 -1      3376 9.55729E-05-2.89859E-05-2.85361E-05-6.88712E-07 6.26362E-20 5.82432E-19
 -1      3377 9.55997E-05-2.90053E-05-2.85404E-05-7.44024E-07 6.30185E-20 8.28798E-19
 -1      3378 9.57724E-05-2.90931E-05-2.85783E-05-7.23779E-07-5.77987E-20 5.96923E-19
 -1      3379 9.54993E-05-2.89291E-05-2.85289E-05-5.84071E-07 1.70160E-19 8.94358E-19
 -1      3380 9.55220E-05-2.89546E-05-2.85292E-05-6.36835E-07 6.76722E-20 7.08972E-19
 -1      3381 9.56662E-05-2.90389E-05-2.85558E-05-6.25859E-07 1.98836E-19 5.76474E-19
 -1      3382 9.54359E-05-2.88661E-05-2.85288E-05-4.89906E-07-1.05958E-19 8.53437E-19
 -1      3383 9.54549E-05-2.88943E-05-2.85264E-05-5.36691E-07 3.50837E-19 7.98069E-19
 -1      3384 9.55722E-05-2.89706E-05-2.85445E-05-5.31318E-07 2.92122E-19 4.44856E-19
 -1      3385 9.53818E-05-2.88023E-05-2.85330E-05-4.10588E-07-9.19250E-20 6.40940E-19
 -1      3386 9.53976E-05-2.88308E-05-2.85291E-05-4.49468E-07-3.22369E-19 7.58566E-19
 -1      3387 9.54904E-05-2.88967E-05-2.85409E-05-4.46974E-07-5.53439E-20 2.14378E-19
 -1      3388 9.53363E-05-2.87412E-05-2.85398E-05-3.48363E-07 9.04122E-20 1.11951E-18
 -1      3389 9.53491E-05-2.87684E-05-2.85352E-05-3.78443E-07 1.27210E-19 8.42444E-19
 -1      3390 9.54201E-05-2.88228E-05-2.85423E-05-3.76874E-07-1.52178E-19 1.56396E-19
 -1      3391 9.52990E-05-2.86857E-05-2.85477E-05-3.04053E-07-4.48208E-19 1.56674E-18
 -1      3392 9.53088E-05-2.87100E-05-2.85429E-05-3.25160E-07-1.84994E-19 1.15487E-18
 -1      3393 9.53605E-05-2.87526E-05-2.85467E-05-3.23251E-07-2.66876E-19 8.68144E-19
 -1      3394 9.52703E-05-2.86389E-05-2.85555E-05-2.77479E-07-3.18615E-19 1.80649E-18
 -1      3395 9.52766E-05-2.86587E-05-2.85510E-05-2.90003E-07-3.70658E-19 1.58429E-18
 -1      3396 9.53110E-05-2.86894E-05-2.85525E-05-2.87199E-07-4.31350E-19 7.93338E-19
 -1      3397 9.52524E-05-2.86054E-05-2.85622E-05-2.67599E-07-3.42396E-19 1.44060E-18
 -1      3398 9.52538E-05-2.86181E-05-2.85585E-05-2.72488E-07-2.27668E-19 1.56027E-18
 -1      3399 9.52721E-05-2.86367E-05-2.85584E-05-2.69113E-07-2.33074E-19 1.51278E-18
 -1      3400 9.52501E-05-2.85921E-05-2.85669E-05-2.72363E-07-3.00901E-19 8.88082E-19
 -1      3401 9.52438E-05-2.85940E-05-2.85645E-05-2.71278E-07-2.54309E-19 1.23208E-18
 -1      3402 9.52466E-05-2.86001E-05-2.85632E-05-2.68880E-07-1.41661E-19 7.17734E-19
 -1      3403 9.52722E-05-2.86102E-05-2.85686E-05-2.88214E-07-1.20213E-19 2.44830E-19
 -1      3404 9.52535E-05-2.85951E-05-2.85678E-05-2.83869E-07-3.23447E-19 6.86449E-19
 -1      3405 9.52404E-05-2.85882E-05-2.85660E-05-2.85817E-07-7.83401E-21 2.55492E-19
 -1      3406 9.53330E-05-2.86760E-05-2.85664E-05-3.09133E-07 1.66061E-19 3.82668E-19
 -1      3407 9.52947E-05-2.86352E-05-2.85678E-05-3.05876E-07 1.69230E-19 4.77675E-19
 -1      3408 9.52646E-05-2.86142E-05-2.85658E-05-3.18238E-07-1.19247E-19 3.37069E-19
 -1      3409 9.54539E-05-2.88123E-05-2.85598E-05-3.25064E-07 2.14055E-19 7.71793E-19
 -1      3410 9.53857E-05-2.87340E-05-2.85635E-05-3.29747E-07 3.79584E-20 2.62015E-19
 -1      3411 9.53369E-05-2.86979E-05-2.85618E-05-3.62507E-07 4.57097E-20 1.01511E-18
 -1      3412 9.56655E-05-2.90493E-05-2.85490E-05-3.19521E-07-8.48967E-20 1.51961E-18
 -1      3413 9.55533E-05-2.89183E-05-2.85550E-05-3.42712E-07 3.60858E-19 8.45717E-19
 -1      3414 9.54846E-05-2.88671E-05-2.85539E-05-4.11282E-07-2.84040E-19 1.03096E-18
 -1      3415 9.60074E-05-2.94225E-05-2.85360E-05-2.66193E-07-1.13466E-19 1.69034E-18
 -1      3416 9.58339E-05-2.92218E-05-2.85433E-05-3.23721E-07-1.93470E-19 1.38267E-18
 -1      3417 9.57460E-05-2.91579E-05-2.85432E-05-4.50576E-07-1.28442E-19 1.27231E-18
 -1      3418 9.65261E-05-2.99679E-05-2.85255E-05-1.24629E-07 6.88421E-22 1.76617E-18
 -1      3419 9.62730E-05-2.96817E-05-2.85316E-05-2.39252E-07 8.62320E-21 1.59482E-18
 -1      3420 9.61717E-05-2.96131E-05-2.85332E-05-4.55193E-07-1.05533E-19 4.89772E-19
 -1      3421 9.72681E-05-3.07106E-05-2.85270E-05 1.64269E-07 5.10671E-19 8.80166E-19
 -1      3422 9.69206E-05-3.03314E-05-2.85272E-05-3.83082E-08 1.22862E-19 1.43708E-18
 -1      3423 9.68221E-05-3.02758E-05-2.85311E-05-3.82344E-07 9.02716E-20 5.54169E-19
 -1      3424 9.82639E-05-3.16440E-05-2.85569E-05 6.80574E-07-5.19741E-19 1.77147E-18
 -1      3425 9.78197E-05-3.11839E-05-2.85431E-05 3.51898E-07 2.58652E-19 1.55244E-18
 -1      3426 9.77587E-05-3.11753E-05-2.85503E-05-1.64102E-07-1.16401E-19 1.07373E-18
 -1      3427 9.95019E-05-3.26983E-05-2.86402E-05 1.52035E-06-1.50354E-18 2.25253E-18
 -1      3428 9.89842E-05-3.22059E-05-2.86002E-05 1.02574E-06-9.31020E-19 1.91499E-18
 -1      3429 9.90247E-05-3.23010E-05-2.86130E-05 2.98403E-07-7.93763E-19 1.80016E-18
 -1      3430 1.00891E-04-3.37000E-05-2.88115E-05 2.77406E-06-4.59045E-19 2.36223E-18
 -1      3431 1.00364E-04-3.32801E-05-2.87293E-05 2.08672E-06-7.21583E-19 2.58595E-18
 -1      3432 1.00611E-04-3.35627E-05-2.87522E-05 1.13206E-06-1.23998E-18 1.75282E-18
 -1      3433 1.02221E-04-3.43382E-05-2.91114E-05 4.47423E-06-7.19923E-19 2.00464E-18
 -1      3434 1.01802E-04-3.41632E-05-2.89693E-05 3.60924E-06-4.78233E-19 2.28324E-18
 -1      3435 1.02404E-04-3.47373E-05-2.90127E-05 2.46615E-06-7.89891E-19 2.38704E-18
 -1      3436 1.03153E-04-3.41758E-05-2.95778E-05 6.49885E-06 8.51349E-19 8.86188E-19
 -1      3437 1.02998E-04-3.44657E-05-2.93613E-05 5.55827E-06-1.22427E-19 1.48421E-18
 -1      3438 1.04131E-04-3.54264E-05-2.94452E-05 4.35985E-06 2.38416E-19 1.50630E-18
 -1      3439 1.03275E-04-3.27514E-05-3.02292E-05 8.46826E-06 1.12424E-18 1.20552E-18
 -1      3440 1.03536E-04-3.37086E-05-2.99360E-05 7.67826E-06 8.77241E-19 8.74700E-19
 -1      3441 1.05345E-04-3.50802E-05-3.00945E-05 6.68087E-06 7.94499E-19 7.89660E-19
 -1      3442 1.02310E-04-2.98638E-05-3.10312E-05 9.67912E-06 7.15917E-19 2.25335E-18
 -1      3443 1.03032E-04-3.15144E-05-3.06847E-05 9.37847E-06 1.22724E-18 1.97386E-18
 -1      3444 1.05526E-04-3.31936E-05-3.09734E-05 8.91557E-06 3.15351E-19 2.05250E-18
 -1      3445 1.00356E-04-2.58804E-05-3.18770E-05 9.24513E-06-7.62551E-19 2.27626E-18
 -1      3446 1.01368E-04-2.79208E-05-3.15325E-05 9.80302E-06 3.86202E-20 1.67188E-18
 -1      3447 1.04335E-04-2.95529E-05-3.20157E-05 1.01876E-05 3.66506E-19 3.01414E-18
 -1      3448 9.81143E-05-2.19667E-05-3.25885E-05 6.57580E-06-2.57496E-19 1.23431E-18
 -1      3449 9.90460E-05-2.37430E-05-3.23256E-05 8.14368E-06-2.63110E-20 1.61004E-18
 -1      3450 1.02030E-04-2.48422E-05-3.30605E-05 9.39199E-06 3.89997E-20 1.52434E-18
 -1      3451 9.66934E-05-1.97091E-05-3.29702E-05 1.98076E-06-9.96710E-19 1.07429E-18
 -1      3452 9.71222E-05-2.04914E-05-3.28645E-05 4.26472E-06-1.18383E-18 1.09440E-18
 -1      3453 9.96461E-05-2.06463E-05-3.38619E-05 5.97530E-06-1.03858E-18 2.70177E-19
 -1      3454 9.68636E-05-2.01448E-05-3.28999E-05-3.22299E-06-2.28190E-19 7.30771E-19
 -1      3455 9.66045E-05-1.95880E-05-3.29866E-05-8.88554E-07-3.68404E-19 1.04193E-18
 -1      3456 9.85140E-05-1.87859E-05-3.41874E-05 6.00705E-07-1.99071E-19 1.04013E-18
 -1      3457 9.85042E-05-2.30911E-05-3.23997E-05-7.23344E-06 9.41078E-19 3.06886E-19
 -1      3458 9.77685E-05-2.14826E-05-3.26495E-05-5.63382E-06 1.60188E-19-3.99843E-20
 -1      3459 9.93958E-05-2.01902E-05-3.39293E-05-4.93718E-06 2.79163E-19-2.13194E-19
 -1      3460 1.00715E-04-2.70708E-05-3.16170E-05-9.33951E-06 6.37369E-19 1.06867E-19
 -1      3461 9.97578E-05-2.50472E-05-3.19676E-05-8.62258E-06 1.18142E-18 5.51516E-19
 -1      3462 1.01318E-04-2.37188E-05-3.32109E-05-8.68425E-06 4.14153E-19-9.48171E-19
 -1      3463 1.02251E-04-3.06511E-05-3.07280E-05-9.07040E-06 8.63060E-19-3.32661E-19
 -1      3464 1.01626E-04-2.89945E-05-3.10981E-05-9.21093E-06 3.18173E-19-8.93967E-20
 -1      3465 1.03822E-04-2.88809E-05-3.20787E-05-9.65615E-06 4.36576E-19-1.82436E-18
 -1      3466 1.02559E-04-3.27849E-05-2.99219E-05-7.55788E-06 1.43640E-18 6.70097E-19
 -1      3467 1.02392E-04-3.18523E-05-3.02443E-05-8.15947E-06 1.24099E-18 4.73676E-19
 -1      3468 1.04680E-04-3.23526E-05-3.10514E-05-8.61802E-06 5.61791E-19-1.32068E-18
 -1      3469 1.02714E-04-3.37913E-05-2.95368E-05-5.82770E-06 1.66306E-18 8.56077E-19
 -1      3470 9.87285E-05-3.85564E-05-2.58742E-05 3.05539E-05 1.26381E-18 1.56513E-18
 -1      3471 1.06431E-04-4.29212E-05-2.70914E-05 2.76205E-05 5.05652E-19 8.10670E-19
 -1      3472 8.51628E-05-3.05186E-05-2.30072E-05 3.36055E-05 1.52977E-18 1.13958E-18
 -1      3473 6.28410E-05-1.16471E-05-2.17658E-05-1.75800E-05-1.52744E-19-8.15640E-19
 -1      3474 5.78410E-05-1.10424E-05-1.99381E-05-2.11176E-05 4.34740E-19-8.42957E-19
 -1      3475 7.03583E-05-1.62862E-05-2.30184E-05-2.13351E-05 3.10775E-19-1.02483E-18
 -1      3476 1.24197E-04-5.21142E-05-3.06081E-05-1.58288E-05-4.94255E-19-9.17992E-19
 -1      3477 1.27673E-04-5.20342E-05-3.27431E-05-8.50260E-06-4.91210E-19-1.33301E-18
 -1      3478 9.39014E-05-2.11836E-05-3.11738E-05-4.43840E-06 8.30878E-20-1.75786E-19
 -1      3479 1.14519E-04-4.39947E-05-3.01105E-05 1.05185E-05 4.66169E-19-1.14493E-18
 -1      3480 1.14268E-04-4.34333E-05-3.04195E-05 6.75310E-06 1.94874E-19-3.24851E-18
 -1      3481 1.17849E-04-4.69342E-05-3.03049E-05 1.24591E-05 2.94655E-19-1.10206E-18
 -1      3482 6.81785E-05-2.20990E-05-1.96355E-05 3.37979E-05 1.79372E-18 3.69650E-18
 -1      3483 5.46055E-05-1.27030E-05-1.72724E-05 2.60962E-05 1.60431E-18 4.60542E-18
 -1      3484 5.59154E-05-6.26366E-06-2.05656E-05 7.62450E-06 2.38173E-18 2.45153E-18
 -1      3485 9.44007E-05-2.22311E-05-3.09236E-05-3.45090E-06-1.90196E-20-1.92657E-19
 -1      3486 1.18131E-04-1.91636E-05-4.26631E-05-1.16193E-05 1.74023E-18-4.10705E-19
 -1      3487 1.23238E-04-2.65407E-05-4.14982E-05-1.28604E-05 2.29271E-18 1.61386E-19
 -1      3488 1.30235E-04-4.82832E-05-3.55205E-05-8.71913E-07 7.50554E-19 3.27299E-20
 -1      3489 1.27653E-04-5.10348E-05-3.26007E-05 8.02527E-06 1.47143E-18-1.68811E-19
 -1      3490 9.22283E-05-1.81160E-05-3.17748E-05-1.00798E-06 2.68938E-19 2.08907E-19
 -1      3491 9.23433E-05-1.83119E-05-3.17444E-05-1.75118E-06 1.74435E-19 2.83180E-19
 -1      3492 9.33575E-05-1.99911E-05-3.14182E-05-1.78009E-06 1.92723E-19 1.96564E-19
 -1      3493 7.43685E-05-2.38480E-05-2.13540E-05-3.24607E-05-4.84768E-19-2.27738E-18
 -1      3494 8.77826E-05-3.40965E-05-2.31345E-05-3.53172E-05-4.76800E-19-2.56831E-18
 -1      3495 5.58109E-05-9.87849E-06-1.92591E-05 1.67743E-05 2.02604E-18 4.13400E-18
 -1      3496 9.46099E-05-2.26629E-05-3.08360E-05-2.60009E-06 2.11930E-20-1.15122E-19
 -1      3497 9.50265E-05-2.36232E-05-3.06024E-05-2.74042E-06-2.21581E-20-1.67157E-19
 -1      3498 9.53465E-05-2.46712E-05-3.02973E-05-1.89797E-06 2.02796E-20-1.56571E-19
 -1      3499 9.56921E-05-2.55400E-05-3.00628E-05-1.45380E-06 2.44736E-20 3.89643E-20
 -1      3500 9.58438E-05-2.62692E-05-2.98264E-05-8.32337E-07-1.07757E-20 2.36631E-19
 -1      3501 9.59968E-05-2.62980E-05-2.98664E-05-6.73531E-07 1.09992E-19 2.93571E-19
 -1      3502 9.55195E-05-2.48293E-05-3.02926E-05-1.47758E-06 1.53040E-19-4.28681E-21
 -1      3503 1.26561E-04-3.39963E-05-4.00415E-05-1.13022E-05 2.08092E-18-1.97835E-19
 -1      3504 1.29335E-04-4.10510E-05-3.76922E-05-7.69597E-06 1.77543E-18 2.01038E-19
 -1      3505 1.20666E-04-3.04446E-05-3.87521E-05-1.16648E-05 2.05114E-18-1.02611E-18
 -1      3506 9.58472E-05-2.90186E-05-2.86403E-05-9.65970E-07 2.12629E-19 4.81943E-19
 -1      3507 9.58855E-05-2.89779E-05-2.86726E-05-9.81951E-07 2.23914E-19 6.11881E-19
 -1      3508 9.61297E-05-2.90113E-05-2.87672E-05-8.99366E-07 1.97743E-19 5.54438E-19
 -1      3509 9.60108E-05-2.91023E-05-2.86771E-05-8.80805E-07 2.16167E-19 4.45128E-19
 -1      3510 6.63247E-05-1.79669E-05-2.05805E-05-2.94160E-05-1.52241E-19-1.61892E-18
 -1      3511 1.20620E-04-1.87545E-05-4.38899E-05 1.26886E-05 1.39670E-18 2.01260E-18
 -1      3512 1.15115E-04-1.31263E-05-4.39164E-05 9.04148E-06 1.37061E-18 1.53036E-18
 -1      3513 1.19522E-04-2.44614E-05-4.08923E-05 1.25399E-05 2.36703E-18 5.99435E-19
 -1      3514 1.05092E-04-3.47916E-05-3.00896E-05-5.77314E-06 1.50241E-18 1.11349E-18
 -1      3515 6.16768E-05-1.20235E-05-2.14087E-05 1.78356E-05 2.19035E-18 5.01475E-18
 -1      3516 1.26415E-04-3.94721E-05-3.72999E-05 9.43398E-06 1.68194E-18 1.04888E-18
 -1      3517 1.22514E-04-3.48704E-05-3.77014E-05 1.13224E-05 1.80823E-18 5.17868E-19
 -1      3518 1.23212E-04-4.14995E-05-3.50724E-05 6.58543E-06 1.16722E-18 1.09292E-18
 -1      3519 9.53829E-05-2.49163E-05-3.02121E-05 1.88063E-06 5.65151E-19 4.53950E-19
 -1      3520 1.12893E-04-4.14513E-05-3.05640E-05 2.97000E-06-9.72902E-19-2.45919E-18
 -1      3521 1.11249E-04-4.01272E-05-3.05626E-05 1.03608E-07-8.93144E-19 1.26062E-21
 -1      3522 1.15857E-04-4.34215E-05-3.10535E-05 3.54683E-06-1.00450E-18-1.80180E-18
 -1      3523 9.60284E-05-2.87218E-05-2.88472E-05-9.07330E-07-1.63579E-19 6.20902E-19
 -1      3524 9.60638E-05-2.85685E-05-2.89215E-05-8.11791E-07-2.45523E-19 5.40123E-19
 -1      3525 9.62304E-05-2.88092E-05-2.88971E-05-8.36159E-07-4.40104E-20 3.52760E-19
 -1      3526 1.25589E-04-4.28370E-05-3.54699E-05-4.85542E-06 6.68623E-19-1.06254E-18
 -1      3527 7.60733E-05-2.24882E-05-2.26755E-05-2.79395E-05 3.48448E-19-2.16515E-18
 -1      3528 9.38543E-05-2.10403E-05-3.12177E-05 8.04757E-07 3.96427E-19 1.91490E-19
 -1      3529 9.38056E-05-2.09418E-05-3.12369E-05 2.44688E-07 3.51213E-19 2.53139E-19
 -1      3530 6.94876E-05-1.71521E-05-2.20610E-05 2.46644E-05 1.29714E-18 3.77538E-18
 -1      3531 1.11070E-04-1.53537E-05-4.11495E-05 8.10242E-06 2.04663E-18 4.98542E-19
 -1      3532 1.12000E-04-1.13870E-05-4.33956E-05 5.46721E-06 1.06382E-18 9.53527E-19
 -1      3533 1.09357E-04-1.14235E-05-4.21131E-05 1.30351E-06 6.29795E-19 1.03233E-18
 -1      3534 7.40835E-05-2.36269E-05-2.15522E-05 3.20777E-05 1.96199E-18 2.13908E-18
 -1      3535 1.13070E-04-4.74173E-05-2.80083E-05 2.54585E-05 7.53691E-19 6.76660E-19
 -1      3536 1.17510E-04-4.90002E-05-2.93252E-05-1.87514E-05-7.36178E-19-9.16490E-19
 -1      3537 9.31285E-05-1.96001E-05-3.14917E-05-5.93604E-07 3.19604E-19 3.18617E-19
 -1      3538 1.09334E-04-3.80520E-05-3.05123E-05-2.36958E-06-7.50685E-19 5.85977E-19
 -1      3539 1.07224E-04-3.66526E-05-3.03157E-05-4.14180E-06 5.53483E-20 3.75504E-19
 -1      3540 1.07498E-04-3.54358E-05-3.08221E-05-6.42829E-06 2.33630E-19-1.23566E-18
 -1      3541 1.11903E-04-3.92520E-05-3.11005E-05-2.64658E-06-1.80806E-18-8.35697E-19
 -1      3542 9.66674E-05-3.76584E-05-2.51753E-05-3.01690E-05-6.47371E-19-1.58476E-18
 -1      3543 1.22157E-04-5.20122E-05-3.04433E-05 1.76175E-05 1.15782E-18-1.11716E-19
 -1      3544 1.14056E-04-1.57656E-05-4.23488E-05-9.66473E-06 4.57795E-19-1.29146E-19
 -1      3545 1.12591E-04-1.97243E-05-3.97847E-05-1.03755E-05 1.14437E-18 1.08114E-19
 -1      3546 1.09611E-04-1.30674E-05-4.14460E-05-5.69691E-06-4.06629E-19 1.45577E-18
 -1      3547 1.22538E-04-4.87868E-05-3.15285E-05 9.89278E-06 8.40283E-19-2.49008E-19
 -1      3548 9.59254E-05-2.68717E-05-2.96067E-05 4.54096E-07 5.46750E-19 5.31455E-19
 -1      3549 9.58657E-05-2.62779E-05-2.98084E-05 9.85648E-07 5.44231E-19 4.54361E-19
 -1      3550 9.43937E-05-2.22167E-05-3.09425E-05-2.19082E-06 7.13119E-20-2.94594E-20
 -1      3551 1.25178E-04-4.80656E-05-3.30346E-05-2.68082E-06 3.66534E-19-2.92756E-19
 -1      3552 9.37523E-05-2.07868E-05-3.12550E-05 2.82884E-06 5.82754E-19 4.92434E-19
 -1      3553 9.60629E-05-2.77800E-05-2.92704E-05-2.60672E-07 3.53743E-19 4.12790E-19
 -1      3554 9.60514E-05-2.73834E-05-2.94199E-05 8.14496E-08 4.00204E-19 5.36909E-19
 -1      3555 9.60985E-05-2.68896E-05-2.96600E-05 3.54669E-07 4.33989E-19 4.44017E-19
 -1      3556 9.40749E-05-2.14952E-05-3.11181E-05 1.75550E-06 5.83980E-19 3.86079E-19
 -1      3557 9.39413E-05-2.12099E-05-3.11771E-05 1.24408E-06 5.47180E-19 2.02955E-19
 -1      3558 9.45975E-05-2.23793E-05-3.09343E-05 8.22777E-07 4.65788E-19 3.22276E-19
 -1      3559 1.15014E-04-2.71604E-05-3.79346E-05-1.17846E-05 1.65256E-18-7.56000E-19
 -1      3560 1.18455E-04-3.23883E-05-3.67369E-05-1.11472E-05 1.64986E-18-1.64734E-18
 -1      3561 9.64996E-05-2.79755E-05-2.93628E-05 2.86682E-07 7.66404E-20-8.01269E-21
 -1      3562 9.65131E-05-2.83057E-05-2.92355E-05 4.73251E-07-3.97721E-20 2.13990E-19
 -1      3563 9.65241E-05-2.85751E-05-2.91171E-05 5.77328E-07-2.26923E-19 3.71780E-19
 -1      3564 9.64935E-05-2.87779E-05-2.90229E-05 6.75918E-07-1.66947E-19 3.80973E-19
 -1      3565 9.66502E-05-2.83937E-05-2.92531E-05 4.25322E-07 7.54337E-20 2.95471E-19
 -1      3566 9.64537E-05-2.89337E-05-2.89343E-05 7.20674E-07 1.21394E-21 5.54223E-19
 -1      3567 9.63999E-05-2.90470E-05-2.88662E-05 7.58192E-07 6.00699E-20 6.19555E-19
 -1      3568 9.66211E-05-2.88590E-05-2.90422E-05 5.87914E-07 2.06072E-20 7.74183E-19
 -1      3569 9.63322E-05-2.91245E-05-2.88013E-05 7.63132E-07 4.01783E-20 5.16716E-19
 -1      3570 9.62686E-05-2.91767E-05-2.87534E-05 7.60836E-07-1.15026E-19 6.04268E-19
 -1      3571 9.65142E-05-2.91196E-05-2.88851E-05 6.51676E-07 9.61999E-20 7.10578E-19
 -1      3572 9.61884E-05-2.92020E-05-2.87071E-05 7.41075E-07-1.32698E-19 6.08872E-19
 -1      3573 9.61231E-05-2.92140E-05-2.86745E-05 7.14971E-07-2.65854E-19 7.89466E-19
 -1      3574 9.63675E-05-2.92398E-05-2.87709E-05 6.50080E-07-5.96882E-20 2.48439E-19
 -1      3575 9.60404E-05-2.92059E-05-2.86425E-05 6.81687E-07 2.11010E-20 9.09422E-19
 -1      3576 9.59782E-05-2.91924E-05-2.86214E-05 6.43302E-07 2.15617E-19 1.25641E-18
 -1      3577 9.62061E-05-2.92669E-05-2.86901E-05 6.08893E-07 1.26376E-19 6.05727E-19
 -1      3578 9.58991E-05-2.91640E-05-2.86003E-05 6.04406E-07 1.26283E-19 1.20056E-18
 -1      3579 9.58425E-05-2.91354E-05-2.85876E-05 5.61714E-07 3.91009E-19 1.22845E-18
 -1      3580 9.60459E-05-2.92350E-05-2.86349E-05 5.46984E-07 2.87560E-19 9.25788E-19
 -1      3581 9.57700E-05-2.90957E-05-2.85745E-05 5.22530E-07 5.03424E-19 1.25741E-18
 -1      3582 9.57200E-05-2.90587E-05-2.85679E-05 4.80846E-07 6.99394E-19 1.22708E-18
 -1      3583 9.58957E-05-2.91680E-05-2.85991E-05 4.77544E-07 4.59412E-19 1.12275E-18
 -1      3584 9.56553E-05-2.90135E-05-2.85608E-05 4.44787E-07 7.13962E-19 1.16479E-18
 -1      3585 9.56117E-05-2.89724E-05-2.85586E-05 4.07507E-07 5.36147E-19 1.00721E-18
 -1      3586 9.57598E-05-2.90817E-05-2.85776E-05 4.09381E-07 5.94925E-19 9.03043E-19
 -1      3587 9.55545E-05-2.89248E-05-2.85558E-05 3.76596E-07 3.63605E-19 1.00240E-18
 -1      3588 9.55165E-05-2.88818E-05-2.85567E-05 3.45777E-07 4.04276E-19 9.13658E-19
 -1      3589 9.56391E-05-2.89861E-05-2.85666E-05 3.48032E-07 3.39678E-19 1.03839E-18
 -1      3590 9.54655E-05-2.88332E-05-2.85570E-05 3.21046E-07 4.92607E-19 9.11681E-19
 -1      3591 9.54312E-05-2.87888E-05-2.85602E-05 2.97834E-07 1.90023E-19 9.36897E-19
 -1      3592 9.55321E-05-2.88862E-05-2.85632E-05 2.96660E-07 2.76275E-19 7.10803E-19
 -1      3593 9.53842E-05-2.87389E-05-2.85627E-05 2.79562E-07-2.41372E-19 8.30684E-19
 -1      3594 9.53513E-05-2.86921E-05-2.85676E-05 2.64461E-07-8.91645E-20 6.00264E-19
 -1      3595 9.54351E-05-2.87837E-05-2.85653E-05 2.56641E-07-1.76275E-19 6.82872E-19
 -1      3596 9.53049E-05-2.86392E-05-2.85716E-05 2.52253E-07 4.44693E-19 6.79513E-19
 -1      3597 9.52700E-05-2.85877E-05-2.85777E-05 2.45233E-07 3.52759E-19 1.15515E-18
 -1      3598 9.53430E-05-2.86769E-05-2.85713E-05 2.27838E-07 1.31202E-19 6.89141E-19
 -1      3599 9.52200E-05-2.85285E-05-2.85828E-05 2.37914E-07 1.50341E-19 1.45386E-18
 -1      3600 9.51781E-05-2.84683E-05-2.85899E-05 2.38335E-07 1.22950E-19 1.62392E-18
 -1      3601 9.52482E-05-2.85613E-05-2.85798E-05 2.08516E-07 6.42831E-19 5.76821E-19
 -1      3602 9.51186E-05-2.83978E-05-2.85955E-05 2.33586E-07 4.40628E-20 1.79036E-18
 -1      3603 9.50623E-05-2.83228E-05-2.86032E-05 2.39862E-07 2.70606E-19 1.63679E-18
 -1      3604 9.51408E-05-2.84292E-05-2.85899E-05 1.94797E-07 1.98996E-19 1.46067E-18
 -1      3605 9.49849E-05-2.82338E-05-2.86087E-05 2.33508E-07 5.78285E-19 1.81530E-18
 -1      3606 9.49035E-05-2.81350E-05-2.86165E-05 2.42362E-07 7.61268E-19 2.12447E-18
 -1      3607 9.50069E-05-2.82694E-05-2.86002E-05 1.79473E-07 4.66208E-19 2.11300E-18
 -1      3608 9.47967E-05-2.80176E-05-2.86210E-05 2.27125E-07 3.87028E-19 1.78238E-18
 -1      3609 9.46740E-05-2.78827E-05-2.86277E-05 2.32214E-07-2.68522E-20 1.87675E-18
 -1      3610 9.48274E-05-2.80666E-05-2.86091E-05 1.49879E-07 5.20828E-19 1.69128E-18
 -1      3611 9.45219E-05-2.77235E-05-2.86294E-05 1.95652E-07-3.57289E-19 1.58455E-18
 -1      3612 9.43336E-05-2.75355E-05-2.86330E-05 1.85152E-07-6.88838E-19 1.56369E-18
 -1      3613 9.45755E-05-2.78002E-05-2.86138E-05 8.43622E-08-2.05969E-19 1.55374E-18
 -1      3614 9.41146E-05-2.73174E-05-2.86289E-05 1.06401E-07-5.71401E-19 1.27914E-18
 -1      3615 9.38256E-05-2.70542E-05-2.86254E-05 5.89368E-08-5.36131E-20 1.40945E-18
 -1      3616 9.42151E-05-2.74448E-05-2.86095E-05-5.33463E-08-7.81908E-19 1.57049E-18
 -1      3617 9.35120E-05-2.67574E-05-2.86101E-05-9.62839E-08-5.60061E-19 1.35329E-18
 -1      3618 9.30721E-05-2.63924E-05-2.85920E-05-2.18230E-07-7.59497E-19 1.11875E-18
 -1      3619 9.36983E-05-2.69715E-05-2.85880E-05-3.22756E-07-5.36631E-19 1.21168E-18
 -1      3620 9.26305E-05-2.59971E-05-2.85566E-05-5.04920E-07-6.52113E-19 7.62306E-19
 -1      3621 9.19710E-05-2.55021E-05-2.85106E-05-7.65223E-07-7.28554E-19 1.04808E-18
 -1      3622 9.29661E-05-2.63534E-05-2.85352E-05-8.19304E-07-7.07196E-19 5.66591E-19
 -1      3623 9.13675E-05-2.49969E-05-2.84405E-05-1.26912E-06-1.00064E-18 1.07686E-18
 -1      3624 9.04001E-05-2.43516E-05-2.83435E-05-1.77288E-06-6.98215E-19 2.00215E-19
 -1      3625 9.19532E-05-2.55789E-05-2.84284E-05-1.69195E-06-9.29393E-19 8.25637E-19
 -1      3626 8.96120E-05-2.37503E-05-2.82154E-05-2.62266E-06-5.67959E-19-1.49953E-19
 -1      3627 8.82327E-05-2.29611E-05-2.80286E-05-3.53579E-06-1.25350E-18-3.58430E-19
 -1      3628 9.06045E-05-2.46786E-05-2.82316E-05-3.16532E-06-9.18152E-19 2.29029E-19
 -1      3629 8.72750E-05-2.23351E-05-2.78071E-05-4.91422E-06-1.44205E-18-2.74911E-19
 -1      3630 8.53812E-05-2.14723E-05-2.74668E-05-6.48589E-06-8.03850E-19 6.58262E-20
 -1      3631 8.89113E-05-2.37748E-05-2.78901E-05-5.56182E-06-1.13995E-18 8.08908E-20
 -1      3632 8.43597E-05-2.10103E-05-2.71012E-05-8.63657E-06-2.65006E-19-2.57353E-19
 -1      3633 8.18971E-05-2.02648E-05-2.65050E-05-1.12233E-05-3.88899E-19-3.95425E-19
 -1      3634 8.69883E-05-2.31709E-05-2.73261E-05-9.31478E-06-7.82912E-19 6.32594E-19
 -1      3635 8.11429E-05-2.03619E-05-2.59623E-05-1.42529E-05-3.93228E-19-1.26002E-18
 -1      3636 7.84133E-05-2.01554E-05-2.50275E-05-1.80375E-05 2.71560E-19-1.38839E-18
 -1      3637 8.52480E-05-2.34494E-05-2.64711E-05-1.47629E-05-4.71198E-19-8.15517E-21
 -1      3638 9.57476E-05-2.90805E-05-2.85705E-05-5.40688E-07 3.46389E-19 4.37439E-19
 -1      3639 9.57986E-05-2.91126E-05-2.85795E-05-5.85650E-07 9.97206E-20 5.38740E-19
 -1      3640 9.55067E-05-2.49343E-05-3.02453E-05 1.59012E-06 4.96148E-19 4.77926E-19
 -1      3641 9.60795E-05-2.83650E-05-2.90239E-05-6.88483E-07-4.12680E-20 5.35907E-19
 -1      3642 9.61012E-05-2.81132E-05-2.91306E-05-4.90553E-07 2.27906E-19 4.94763E-19
 -1      3643 9.62645E-05-2.78370E-05-2.93273E-05-2.71812E-07 2.14537E-19 5.61398E-19
 -1      3644 9.62883E-05-2.84425E-05-2.90788E-05-6.45922E-07-1.18376E-19 5.55316E-19
 -1      3645 9.10893E-05-3.23493E-05-2.50194E-05-2.75017E-05-8.67646E-19-1.07530E-18
 -1      3646 1.02847E-04-4.09094E-05-2.67342E-05-2.58247E-05-9.97090E-19-2.77800E-20
 -1      3647 9.58731E-05-2.91466E-05-2.85959E-05-6.27523E-07 9.12966E-20 4.09533E-19
 -1      3648 9.59299E-05-2.91676E-05-2.86118E-05-6.70956E-07 8.17075E-20 5.04569E-19
 -1      3649 9.59402E-05-2.91878E-05-2.86097E-05-5.38146E-07 2.12311E-21 5.39814E-19
 -1      3650 9.55380E-05-2.89174E-05-2.85506E-05-3.85989E-07-2.83725E-20 5.66224E-19
 -1      3651 9.55765E-05-2.89567E-05-2.85515E-05-4.22511E-07 3.27426E-19 7.46141E-19
 -1      3652 9.54535E-05-2.88345E-05-2.85500E-05-3.27205E-07-2.95765E-19 9.53316E-19
 -1      3653 9.54864E-05-2.88731E-05-2.85488E-05-3.56533E-07-3.66814E-19 4.59955E-19
 -1      3654 9.55648E-05-2.89310E-05-2.85582E-05-3.32622E-07-1.73837E-19 1.31786E-18
 -1      3655 9.53812E-05-2.87561E-05-2.85527E-05-2.84002E-07-3.43316E-19 6.87881E-19
 -1      3656 9.54088E-05-2.87922E-05-2.85503E-05-3.05231E-07-2.54994E-19 7.46149E-19
 -1      3657 9.54693E-05-2.88401E-05-2.85561E-05-2.84580E-07-4.08005E-19 1.21207E-18
 -1      3658 9.53204E-05-2.86854E-05-2.85570E-05-2.57711E-07-3.37975E-19 6.58286E-19
 -1      3659 9.53429E-05-2.87174E-05-2.85542E-05-2.70355E-07-2.37305E-19 6.61456E-19
 -1      3660 9.53870E-05-2.87544E-05-2.85573E-05-2.51383E-07-1.72212E-19 4.58660E-19
 -1      3661 9.52717E-05-2.86262E-05-2.85615E-05-2.49385E-07-5.60699E-19 5.83286E-19
 -1      3662 9.52883E-05-2.86521E-05-2.85588E-05-2.53197E-07-5.94652E-19 3.76164E-19
 -1      3663 9.53170E-05-2.86773E-05-2.85603E-05-2.34938E-07-4.82332E-19-1.77698E-19
 -1      3664 9.52381E-05-2.85843E-05-2.85649E-05-2.60075E-07 7.24222E-20-4.84068E-20
 -1      3665 9.52467E-05-2.86007E-05-2.85630E-05-2.54970E-07-2.42905E-19 2.08406E-19
 -1      3666 9.52599E-05-2.86130E-05-2.85634E-05-2.37369E-07-1.97076E-19-5.08478E-19
 -1      3667 9.52264E-05-2.85691E-05-2.85662E-05-2.90892E-07-2.84815E-19 2.27410E-19
 -1      3668 9.52229E-05-2.85707E-05-2.85656E-05-2.77011E-07-3.95249E-20-1.96133E-20
 -1      3669 9.52192E-05-2.85679E-05-2.85654E-05-2.61412E-07-1.58933E-19 1.69577E-19
 -1      3670 9.52492E-05-2.85954E-05-2.85643E-05-3.42752E-07-2.24118E-19 7.66810E-19
 -1      3671 9.52264E-05-2.85739E-05-2.85654E-05-3.20712E-07-1.66099E-19 2.99652E-19
 -1      3672 9.52025E-05-2.85527E-05-2.85652E-05-3.10653E-07-3.82619E-19 7.24561E-19
 -1      3673 9.53270E-05-2.86851E-05-2.85587E-05-4.15576E-07-8.02231E-20 1.16143E-18
 -1      3674 9.52738E-05-2.86286E-05-2.85618E-05-3.87025E-07-2.37385E-19 8.25557E-19
 -1      3675 9.52244E-05-2.85844E-05-2.85617E-05-3.89433E-07-3.13211E-19 1.16319E-18
 -1      3676 9.54915E-05-2.88700E-05-2.85494E-05-5.06558E-07-6.33579E-19 1.24070E-18
 -1      3677 9.53913E-05-2.87617E-05-2.85543E-05-4.75212E-07-2.48959E-19 1.21453E-18
 -1      3678 9.53086E-05-2.86885E-05-2.85545E-05-5.02125E-07-2.34062E-19 1.62917E-18
 -1      3679 9.57881E-05-2.91917E-05-2.85380E-05-6.06942E-07 3.07455E-20 1.29578E-18
 -1      3680 9.56182E-05-2.90100E-05-2.85436E-05-5.80341E-07-4.06209E-19 1.30196E-18
 -1      3681 9.54924E-05-2.89015E-05-2.85439E-05-6.51217E-07-4.52650E-19 1.41392E-18
 -1      3682 9.62772E-05-2.97014E-05-2.85288E-05-6.96528E-07 3.28201E-19 7.24722E-19
 -1      3683 9.60092E-05-2.94210E-05-2.85327E-05-6.88783E-07 4.47207E-19 9.50039E-19
 -1      3684 9.58297E-05-2.92726E-05-2.85323E-05-8.33320E-07 4.49900E-19 1.23002E-18
 -1      3685 9.70329E-05-3.04532E-05-2.85309E-05-7.35252E-07-1.16700E-19 1.23529E-18
 -1      3686 9.66348E-05-3.00494E-05-2.85281E-05-7.70862E-07-1.54306E-19 1.03438E-18
 -1      3687 9.63941E-05-2.98624E-05-2.85253E-05-1.03189E-06 1.32604E-19 1.31963E-18
 -1      3688 9.81340E-05-3.14890E-05-2.85605E-05-6.51934E-07-5.16338E-19 1.77256E-18
 -1      3689 9.75770E-05-3.09471E-05-2.85422E-05-7.70175E-07-1.80206E-19 1.35323E-18
 -1      3690 9.72782E-05-3.07367E-05-2.85346E-05-1.20536E-06-2.53049E-19 1.07657E-18
 -1      3691 9.96420E-05-3.28096E-05-2.86450E-05-3.32950E-07-1.27336E-18 1.83594E-18
 -1      3692 9.89145E-05-3.21421E-05-2.85970E-05-5.90807E-07-5.37904E-19 1.86935E-18
 -1      3693 9.85844E-05-3.19481E-05-2.85809E-05-1.27046E-06-7.06771E-19 1.73779E-18
 -1      3694 1.01561E-04-3.43253E-05-2.88252E-05 3.81068E-07-1.24729E-18 1.71991E-18
 -1      3695 1.00690E-04-3.35986E-05-2.87272E-05-8.77333E-08-1.51924E-18 1.83495E-18
 -1      3696 1.00399E-04-3.35003E-05-2.86987E-05-1.08402E-06-1.06153E-18 1.73029E-18
 -1      3697 1.03775E-04-3.57856E-05-2.91579E-05 1.67466E-06-9.19174E-19 1.97665E-18
 -1      3698 1.02857E-04-3.51564E-05-2.89832E-05 9.27731E-07-1.07436E-18 1.80249E-18
 -1      3699 1.02743E-04-3.52857E-05-2.89404E-05-4.32319E-07-1.23323E-18 1.34411E-18
 -1      3700 1.05971E-04-3.67050E-05-2.97098E-05 3.68458E-06 8.04341E-19 2.08033E-18
 -1      3701 1.05192E-04-3.64522E-05-2.94300E-05 2.63949E-06-2.13996E-19 2.15800E-18
 -1      3702 1.05486E-04-3.69941E-05-2.93793E-05 9.43457E-07-4.52809E-19 1.42949E-18
 -1      3703 1.07612E-04-3.64091E-05-3.05413E-05 6.29927E-06-1.72107E-19 2.88748E-18
 -1      3704 1.07221E-04-3.68774E-05-3.01337E-05 5.06344E-06 2.83089E-19 2.72426E-18
 -1      3705 1.08203E-04-3.79828E-05-3.01008E-05 3.24583E-06-1.40670E-20 2.47267E-18
 -1      3706 1.07953E-04-3.40763E-05-3.16829E-05 8.92611E-06 2.51403E-19 2.93910E-18
 -1      3707 1.08234E-04-3.55641E-05-3.11542E-05 7.93684E-06 5.47180E-20 2.61637E-18
 -1      3708 1.10243E-04-3.74230E-05-3.11720E-05 6.40860E-06-2.12906E-19 4.07716E-18
 -1      3709 1.06652E-04-2.95045E-05-3.30357E-05 1.05318E-05 3.52954E-19 2.49331E-18
 -1      3710 1.07678E-04-3.20845E-05-3.24375E-05 1.02790E-05 8.57753E-19 2.77924E-18
 -1      3711 1.10620E-04-3.44330E-05-3.26716E-05 9.56950E-06 6.83367E-19 3.30647E-18
 -1      3712 1.03911E-04-2.35548E-05-3.43883E-05 9.68847E-06 5.02476E-19 1.51574E-18
 -1      3713 1.05320E-04-2.65575E-05-3.38375E-05 1.06567E-05 5.17875E-19 2.19789E-18
 -1      3714 1.08967E-04-2.89657E-05-3.42981E-05 1.10320E-05 1.10816E-18 1.86654E-18
 -1      3715 1.01214E-04-1.85936E-05-3.53729E-05 5.52920E-06-7.68987E-19 3.35250E-19
 -1      3716 1.02258E-04-2.06976E-05-3.50304E-05 7.78798E-06-2.96438E-19 7.02983E-19
 -1      3717 1.05695E-04-2.17656E-05-3.59588E-05 9.60672E-06 6.78844E-19 7.17159E-19
 -1      3718 1.01686E-04-1.98267E-05-3.51920E-05-6.79429E-06 2.60251E-19-4.61812E-19
 -1      3719 1.00866E-04-1.80410E-05-3.54489E-05-4.36045E-06 1.01198E-18-2.90456E-19
 -1      3720 1.07486E-04-2.76486E-05-3.42927E-05-1.04337E-05 1.22833E-18-1.69921E-18
 -1      3721 1.06115E-04-2.44685E-05-3.49820E-05-9.66483E-06 7.59689E-19-1.27316E-18
 -1      3722 1.08435E-04-3.03144E-05-3.35989E-05-1.01431E-05 1.35960E-18-2.42370E-18
 -1      3723 1.07479E-04-3.41488E-05-3.13783E-05-7.64373E-06-7.30126E-19-1.85194E-18
 -1      3724 7.79940E-05-2.06564E-05-2.44232E-05-2.08696E-05 8.91171E-20-1.69619E-18
 -1      3725 7.60534E-05-2.12096E-05-2.34749E-05-2.44733E-05 4.02817E-19-1.87574E-18
 -1      3726 8.32614E-05-2.70391E-05-2.41834E-05-2.74032E-05 9.39346E-20-2.00180E-18
 -1      3727 8.40899E-05-2.48206E-05-2.54268E-05-2.09095E-05-1.62425E-20-3.99254E-19
 -1      3728 9.38057E-05-2.09420E-05-3.12372E-05-2.10488E-07 3.71723E-19 2.82037E-19
 -1      3729 9.38588E-05-2.10493E-05-3.12199E-05-7.83022E-07 3.19620E-19 3.07023E-19
 -1      3730 9.45236E-05-2.22040E-05-3.09757E-05 1.23549E-08 3.18721E-19 3.12674E-19
 -1      3731 1.21673E-04-4.70236E-05-3.21089E-05 4.51166E-06 8.31487E-19-1.30904E-18
 -1      3732 9.60096E-05-2.91866E-05-2.86375E-05-7.09834E-07-2.34357E-20 5.89708E-19
 -1      3733 9.60709E-05-2.91881E-05-2.86630E-05-7.45001E-07 5.70524E-20 5.17416E-19
 -1      3734 9.60927E-05-2.92379E-05-2.86538E-05-6.09762E-07 4.80296E-20 5.56720E-19
 -1      3735 1.20747E-04-3.84549E-05-3.55408E-05-8.33700E-06 1.22695E-18-1.29530E-18
 -1      3736 1.22143E-04-4.32156E-05-3.37398E-05-3.02351E-06-1.07752E-19-7.75359E-19
 -1      3737 9.42802E-05-2.19169E-05-3.10262E-05-1.78901E-06 1.60707E-19 9.55508E-20
 -1      3738 9.51389E-05-2.36488E-05-3.06230E-05-1.65378E-06 1.94385E-19 6.59035E-21
 -1      3739 9.41374E-05-2.16188E-05-3.10871E-05-1.28977E-06 2.52164E-19 2.75829E-19
 -1      3740 1.19886E-04-4.47601E-05-3.22589E-05 5.73674E-07-7.81504E-19-9.87405E-19
 -1      3741 9.56358E-05-2.90013E-05-2.85565E-05-4.58292E-07 3.68734E-19 7.71527E-19
 -1      3742 9.56805E-05-2.90388E-05-2.85607E-05-5.00396E-07 4.80571E-19 7.43790E-19
 -1      3743 9.56747E-05-2.90234E-05-2.85659E-05-3.93292E-07 3.16753E-19 1.27200E-18
 -1      3744 1.11563E-04-4.53264E-05-2.81581E-05-2.09440E-05-1.34291E-18-7.54389E-19
 -1      3745 1.17384E-04-4.75661E-05-3.00151E-05-1.32271E-05-6.26616E-19-2.47859E-18
 -1      3746 1.21393E-04-4.75008E-05-3.16064E-05-5.22299E-06 2.28940E-19-3.82032E-19
 -1      3747 1.22195E-04-4.51525E-05-3.31473E-05 1.55494E-06 7.82561E-19 1.38563E-19
 -1      3748 9.63142E-05-2.70377E-05-2.96870E-05-2.02580E-07-4.74965E-20 1.29715E-19
 -1      3749 9.64056E-05-2.75444E-05-2.95176E-05 1.02669E-07-1.07276E-19 1.82192E-20
 -1      3750 9.65496E-05-2.76433E-05-2.95303E-05 1.24710E-07-1.05161E-19 8.93778E-20
 -1      3751 9.43528E-05-2.20923E-05-3.09807E-05 2.56603E-06 5.44351E-19 4.21615E-19
 -1      3752 9.41357E-05-2.16137E-05-3.10844E-05 2.13571E-06 6.11682E-19 5.04011E-19
 -1      3753 9.46989E-05-2.26744E-05-3.08570E-05 1.57141E-06 5.69987E-19 5.11181E-19
 -1      3754 9.47994E-05-2.30360E-05-3.07498E-05 2.18821E-06 5.57600E-19 4.72610E-19
 -1      3755 1.18651E-04-2.85082E-05-3.86408E-05 1.29943E-05 2.31330E-18 8.49759E-19
 -1      3756 1.13658E-04-2.21940E-05-3.93111E-05 1.20134E-05 2.41202E-18 1.10562E-18
 -1      3757 9.57999E-05-2.91119E-05-2.85819E-05-4.63433E-07 2.09953E-19 9.54949E-19
 -1      3758 9.64011E-05-2.89123E-05-2.89250E-05-7.60415E-07 2.32586E-20 3.22041E-19
 -1      3759 9.64448E-05-2.87604E-05-2.90040E-05-6.93275E-07-7.38697E-20 3.70188E-19
 -1      3760 1.12603E-04-4.37809E-05-2.94501E-05-1.09836E-05-9.81844E-19-1.48220E-18
 -1      3761 1.17982E-04-4.68080E-05-3.05239E-05-8.58328E-06-1.86533E-19-1.37843E-18
 -1      3762 1.16264E-04-4.42666E-05-3.08036E-05-3.67756E-06 1.49353E-19 1.94596E-19
 -1      3763 9.47769E-05-2.27575E-05-3.08483E-05-8.68170E-07 3.38372E-19 3.27506E-19
 -1      3764 9.57491E-05-2.54613E-05-3.01341E-05 1.00589E-06 5.08097E-19 3.11358E-19
 -1      3765 9.52146E-05-2.39352E-05-3.05442E-05 1.84708E-06 5.64914E-19 4.72182E-19
 -1      3766 1.16153E-04-3.45894E-05-3.49168E-05-9.50354E-06 1.47730E-18-8.80530E-19
 -1      3767 1.16433E-04-4.06518E-05-3.24130E-05-3.49903E-06-8.14498E-19-9.47555E-19
 -1      3768 1.08910E-04-1.81431E-05-3.89712E-05 9.61936E-06 2.33564E-18 6.01585E-19
 -1      3769 1.05640E-04-1.57799E-05-3.85770E-05 6.21513E-06 1.60383E-18-2.66993E-20
 -1      3770 1.00348E-04-1.72603E-05-3.56300E-05 2.02886E-06-3.79189E-19-3.04121E-19
 -1      3771 1.03043E-04-1.69354E-05-3.69168E-05 4.14394E-06 5.25719E-19-9.07904E-19
 -1      3772 1.04717E-04-1.40390E-05-3.88642E-05 2.76167E-06 9.03692E-19-1.02730E-18
 -1      3773 1.00223E-04-1.71025E-05-3.56510E-05-8.54469E-07 4.48027E-19-2.52843E-19
 -1      3774 1.08295E-04-2.29591E-05-3.65690E-05-9.53821E-06 1.31859E-18-2.21483E-19
 -1      3775 1.10969E-04-3.44336E-05-3.27399E-05-8.53637E-06 6.00321E-19-1.35732E-18
 -1      3776 1.06374E-04-1.30605E-05-4.01446E-05-1.18862E-06 3.79405E-19 8.68540E-21
 -1      3777 9.61363E-05-2.64732E-05-2.98616E-05-4.26445E-07 5.31793E-20 1.79502E-19
 -1      3778 9.62824E-05-2.65925E-05-2.98639E-05-3.01799E-07-4.48087E-20 1.07015E-19
 -1      3779 9.59763E-05-2.58538E-05-3.00525E-05-7.97207E-07 2.11294E-19 7.00609E-20
 -1      3780 9.10977E-05-3.07463E-05-2.56707E-05-2.39435E-05-1.57747E-19-2.26328E-19
 -1      3781 1.05064E-04-1.55937E-05-3.83778E-05-3.50681E-06 5.41506E-19-6.70149E-19
 -1      3782 9.62879E-05-2.91028E-05-2.87937E-05-8.00313E-07 3.20452E-19 2.92870E-19
 -1      3783 9.63458E-05-2.90237E-05-2.88498E-05-7.84885E-07 1.97029E-19 2.59525E-19
 -1      3784 9.65324E-05-2.89907E-05-2.89481E-05-6.63751E-07 1.29200E-19 3.76091E-19
 -1      3785 1.21848E-04-4.34071E-05-3.35718E-05 4.36854E-06 6.37315E-19 3.23281E-19
 -1      3786 1.19711E-04-4.03849E-05-3.40534E-05 6.94518E-06 1.12756E-18 8.22449E-19
 -1      3787 1.18544E-04-4.35759E-05-3.21692E-05 1.50569E-06 6.51299E-19 4.59304E-19
 -1      3788 9.50407E-05-2.33238E-05-3.07441E-05 2.00045E-07 3.09737E-19 3.10735E-19
 -1      3789 9.50346E-05-2.33288E-05-3.07442E-05-1.83683E-07 3.23114E-19 2.83628E-19
 -1      3790 9.54796E-05-2.45802E-05-3.03888E-05-1.20608E-06 2.37080E-19 2.80298E-20
 -1      3791 9.51365E-05-2.35652E-05-3.06795E-05 8.23903E-07 5.57970E-19 3.92944E-19
 -1      3792 9.50653E-05-2.33908E-05-3.07232E-05 4.80011E-07 4.30486E-19 3.02452E-19
 -1      3793 9.55642E-05-2.43619E-05-3.05047E-05 2.57758E-07 3.77234E-19 4.09242E-19
 -1      3794 9.51081E-05-2.36518E-05-3.06191E-05 1.58034E-06 5.41970E-19 5.62882E-19
 -1      3795 1.17585E-04-3.26326E-05-3.64483E-05 1.13287E-05 1.81673E-18 1.26393E-18
 -1      3796 1.05508E-04-4.06765E-05-2.76995E-05-2.01600E-05-1.21991E-18-6.66945E-19
 -1      3797 9.61515E-05-2.91814E-05-2.87009E-05-7.74047E-07 1.42756E-19 4.48502E-19
 -1      3798 9.62140E-05-2.91512E-05-2.87395E-05-7.91095E-07 2.41740E-19 3.16313E-19
 -1      3799 9.62514E-05-2.92429E-05-2.87199E-05-6.66936E-07 1.12166E-19 4.53471E-19
 -1      3800 9.62446E-05-2.70323E-05-2.96716E-05 1.75839E-07 3.65490E-19 5.66396E-19
 -1      3801 9.61154E-05-2.64153E-05-2.98634E-05 5.72790E-07 4.04798E-19 3.38591E-19
 -1      3802 1.10982E-04-2.27143E-05-3.78273E-05-1.06469E-05 1.13203E-18-5.48771E-19
 -1      3803 9.58868E-05-2.55549E-05-3.01370E-05 7.92754E-07 4.25338E-19 3.09985E-19
 -1      3804 9.67625E-05-2.87826E-05-2.91320E-05 4.44439E-07 2.36141E-19 7.32222E-19
 -1      3805 9.67237E-05-2.89672E-05-2.90396E-05 5.04200E-07 1.42904E-19 9.40031E-19
 -1      3806 9.66704E-05-2.91047E-05-2.89548E-05 5.20733E-07 4.70361E-20 8.27969E-19
 -1      3807 9.66033E-05-2.92013E-05-2.88867E-05 5.40586E-07-1.76278E-19 7.26728E-19
 -1      3808 9.67898E-05-2.90402E-05-2.90367E-05 3.93614E-07 6.58834E-21 8.95347E-19
 -1      3809 9.65226E-05-2.92633E-05-2.88239E-05 5.35238E-07-1.58039E-19 6.34383E-19
 -1      3810 9.64428E-05-2.93002E-05-2.87748E-05 5.29443E-07 1.77898E-21 6.38208E-19
 -1      3811 9.66554E-05-2.92561E-05-2.88871E-05 4.17661E-07-2.20084E-19 8.91985E-19
 -1      3812 9.63506E-05-2.93125E-05-2.87295E-05 5.11078E-07 2.34250E-19 4.73960E-19
 -1      3813 9.62682E-05-2.93105E-05-2.86952E-05 4.90125E-07 3.09760E-19 5.69076E-19
 -1      3814 9.64830E-05-2.93405E-05-2.87772E-05 4.06685E-07 1.15053E-19 3.71370E-19
 -1      3815 9.61745E-05-2.92910E-05-2.86635E-05 4.65259E-07 2.34501E-19 3.36679E-19
 -1      3816 9.60954E-05-2.92649E-05-2.86405E-05 4.36939E-07 3.08916E-19 5.25095E-19
 -1      3817 9.62983E-05-2.93389E-05-2.86988E-05 3.75455E-07 2.48188E-19 5.70465E-20
 -1      3818 9.60062E-05-2.92268E-05-2.86192E-05 4.10098E-07 4.81343E-19 6.05500E-19
 -1      3819 9.59336E-05-2.91869E-05-2.86046E-05 3.79728E-07 5.99394E-19 6.59156E-19
 -1      3820 9.61167E-05-2.92835E-05-2.86446E-05 3.34293E-07 3.28712E-19 2.98662E-19
 -1      3821 9.58521E-05-2.91386E-05-2.85911E-05 3.53866E-07 5.20002E-19 5.91803E-19
 -1      3822 9.57873E-05-2.90915E-05-2.85828E-05 3.24923E-07 5.28427E-19 6.12726E-19
 -1      3823 9.59473E-05-2.91971E-05-2.86088E-05 2.90667E-07 5.67444E-19-1.34532E-19
 -1      3824 9.57142E-05-2.90385E-05-2.85751E-05 3.01799E-07 6.82371E-19 6.34467E-19
 -1      3825 9.56569E-05-2.89882E-05-2.85714E-05 2.76417E-07 2.92057E-19 6.96495E-19
 -1      3826 9.57941E-05-2.90945E-05-2.85869E-05 2.49175E-07 6.08508E-19 6.36955E-20
 -1      3827 9.55918E-05-2.89334E-05-2.85679E-05 2.56896E-07 1.08738E-20 1.08178E-18
 -1      3828 9.55407E-05-2.88816E-05-2.85674E-05 2.36199E-07 1.83624E-19 7.20318E-19
 -1      3829 9.56573E-05-2.89846E-05-2.85750E-05 2.12471E-07 3.91341E-19 2.74261E-19
 -1      3830 9.54819E-05-2.88260E-05-2.85669E-05 2.20394E-07 1.35868E-19 5.86579E-19
 -1      3831 9.54346E-05-2.87729E-05-2.85687E-05 2.04686E-07-2.34840E-19 1.01447E-18
 -1      3832 9.55348E-05-2.88719E-05-2.85705E-05 1.81581E-07 7.48916E-20 8.91968E-19
 -1      3833 9.53795E-05-2.87159E-05-2.85703E-05 1.91964E-07-1.94322E-19 1.35441E-18
 -1      3834 9.53330E-05-2.86603E-05-2.85737E-05 1.80764E-07 3.39071E-19 1.27794E-18
 -1      3835 9.54221E-05-2.87572E-05-2.85711E-05 1.56001E-07-9.39824E-20 1.10543E-18
 -1      3836 9.52780E-05-2.86001E-05-2.85765E-05 1.69580E-07 5.21449E-19 1.00836E-18
 -1      3837 9.52280E-05-2.85393E-05-2.85810E-05 1.61441E-07 5.17198E-19 7.46199E-19
 -1      3838 9.53135E-05-2.86386E-05-2.85750E-05 1.33498E-07 1.21352E-19 1.03309E-18
 -1      3839 9.51688E-05-2.84727E-05-2.85844E-05 1.48940E-07 3.73238E-19 4.97093E-19
 -1      3840 9.51092E-05-2.84026E-05-2.85892E-05 1.41004E-07 4.43189E-19 1.02263E-18
 -1      3841 9.52013E-05-2.85120E-05-2.85807E-05 1.09491E-07 4.36872E-19 5.33453E-19
 -1      3842 9.50404E-05-2.83253E-05-2.85925E-05 1.22309E-07 6.42298E-19 9.25851E-19
 -1      3843 9.49631E-05-2.82403E-05-2.85970E-05 1.09470E-07 8.42780E-19 1.01689E-18
 -1      3844 9.50757E-05-2.83710E-05-2.85868E-05 7.58870E-08 5.38590E-19 9.05423E-20
 -1      3845 9.48776E-05-2.81465E-05-2.85992E-05 7.65267E-08 4.97345E-19 7.87356E-19
 -1      3846 9.47712E-05-2.80391E-05-2.86023E-05 5.00130E-08 9.29961E-20 5.18191E-19
 -1      3847 9.49245E-05-2.82075E-05-2.85914E-05 1.91351E-08 5.47911E-19-4.04551E-19
 -1      3848 9.46608E-05-2.79222E-05-2.86020E-05-1.01786E-08 6.73436E-20 8.80976E-19
 -1      3849 9.45096E-05-2.77832E-05-2.86019E-05-6.50702E-08-3.04234E-19 1.01411E-18
 -1      3850 9.47330E-05-2.80119E-05-2.85923E-05-8.27739E-08 1.53895E-19-3.33318E-20
 -1      3851 9.43644E-05-2.76358E-05-2.85968E-05-1.73050E-07-9.55958E-19 1.36726E-18
 -1      3852 9.41475E-05-2.74546E-05-2.85905E-05-2.80447E-07-6.22621E-19 1.20351E-18
 -1      3853 9.44832E-05-2.77748E-05-2.85859E-05-2.64745E-07-3.50520E-19 3.42625E-19
 -1      3854 9.39578E-05-2.72709E-05-2.85774E-05-4.67917E-07-5.69000E-19 8.54017E-19
 -1      3855 9.36482E-05-2.70377E-05-2.85595E-05-6.66538E-07-6.32673E-19 5.30683E-19
 -1      3856 9.41563E-05-2.74899E-05-2.85667E-05-5.80809E-07-7.49682E-19 9.08415E-19
 -1      3857 9.34075E-05-2.68168E-05-2.85331E-05-9.81081E-07-8.60437E-19 2.11971E-19
 -1      3858 9.29736E-05-2.65270E-05-2.84953E-05-1.33149E-06-9.32003E-19 2.64075E-19
 -1      3859 9.37357E-05-2.71608E-05-2.85264E-05-1.11233E-06-1.13107E-18 7.81566E-19
 -1      3860 9.26855E-05-2.62819E-05-2.84477E-05-1.84206E-06-9.26367E-19 1.84168E-19
 -1      3861 9.20962E-05-2.59454E-05-2.83765E-05-2.43599E-06-1.18706E-18-5.88523E-20
 -1      3862 9.32178E-05-2.68136E-05-2.84526E-05-1.97770E-06-1.02637E-18 1.64998E-19
 -1      3863 9.17888E-05-2.57171E-05-2.82967E-05-3.23791E-06-1.16102E-18-3.28196E-19
 -1      3864 9.10259E-05-2.53756E-05-2.81716E-05-4.20850E-06-1.08502E-18-6.52044E-19
 -1      3865 9.26316E-05-2.65202E-05-2.83282E-05-3.34152E-06-1.09578E-18-3.76109E-19
 -1      3866 9.07769E-05-2.52577E-05-2.80458E-05-5.42546E-06-1.06999E-18-3.77431E-19
 -1      3867 8.98637E-05-2.50137E-05-2.78373E-05-6.95438E-06-1.30758E-18-2.70018E-19
 -1      3868 9.20770E-05-2.64367E-05-2.81312E-05-5.41849E-06-8.52429E-19-1.23869E-18
 -1      3869 8.98382E-05-2.51921E-05-2.76512E-05-8.71887E-06-1.12398E-18 3.45994E-19
 -1      3870 8.89052E-05-2.52607E-05-2.73211E-05-1.10297E-05-4.12775E-19 6.33234E-19
 -1      3871 9.17782E-05-2.68502E-05-2.78397E-05-8.46218E-06-6.37813E-19 8.16670E-20
 -1      3872 8.94117E-05-2.60298E-05-2.70826E-05-1.33335E-05-5.45704E-19 4.38545E-19
 -1      3873 8.88101E-05-2.67257E-05-2.66269E-05-1.64210E-05-5.32918E-19 1.32971E-19
 -1      3874 9.21833E-05-2.82426E-05-2.74551E-05-1.25548E-05-5.00482E-19 3.75946E-19
 -1      3875 9.66057E-05-2.86396E-05-2.91293E-05-5.48302E-07 5.15343E-20 4.17447E-19
 -1      3876 9.64631E-05-2.85558E-05-2.91060E-05-6.16819E-07-2.42666E-20 5.01740E-19
 -1      3877 9.64771E-05-2.82987E-05-2.92146E-05-4.72857E-07 6.68173E-20 5.99850E-19
 -1      3878 1.02714E-04-1.62889E-05-3.70133E-05-2.98901E-06 8.91327E-19-1.16999E-18
 -1      3879 1.08407E-04-2.21552E-05-3.69960E-05 1.01688E-05 1.54231E-18 6.90282E-19
 -1      3880 9.59911E-05-2.92160E-05-2.86168E-05-4.33860E-07-1.09566E-19 5.02931E-19
 -1      3881 9.60655E-05-2.92489E-05-2.86350E-05-4.66314E-07-7.56953E-21 3.89480E-19
 -1      3882 9.54792E-05-2.88357E-05-2.85606E-05-2.30775E-07-1.60887E-19 8.33701E-19
 -1      3883 9.55240E-05-2.88822E-05-2.85609E-05-2.49376E-07-1.79728E-19 1.13565E-18
 -1      3884 9.55835E-05-2.89333E-05-2.85634E-05-2.67112E-07-3.53884E-19 1.30566E-18
 -1      3885 9.56353E-05-2.89812E-05-2.85660E-05-2.91972E-07-8.76241E-21 1.38120E-18
 -1      3886 9.55862E-05-2.89306E-05-2.85676E-05-2.09697E-07 9.86550E-20 8.89754E-19
 -1      3887 9.53104E-05-2.86605E-05-2.85634E-05-2.01906E-07-2.31345E-19 1.54116E-19
 -1      3888 9.53426E-05-2.86991E-05-2.85618E-05-2.04694E-07-2.32498E-19 2.66790E-19
 -1      3889 9.52453E-05-2.85896E-05-2.85657E-05-2.14932E-07-2.54039E-19 1.90934E-20
 -1      3890 9.52704E-05-2.86213E-05-2.85644E-05-2.07865E-07-2.47692E-19 9.67621E-20
 -1      3891 9.52926E-05-2.86400E-05-2.85658E-05-1.76057E-07-1.26305E-19 6.98578E-19
 -1      3892 9.51967E-05-2.85377E-05-2.85668E-05-2.51795E-07-5.51965E-19 6.49514E-19
 -1      3893 9.52120E-05-2.85586E-05-2.85663E-05-2.32991E-07-2.05794E-19 2.98140E-19
 -1      3894 9.52192E-05-2.85630E-05-2.85673E-05-2.01203E-07-5.97639E-19 6.69309E-19
 -1      3895 9.51727E-05-2.85157E-05-2.85655E-05-3.18750E-07-9.93690E-19 1.12625E-18
 -1      3896 9.51727E-05-2.85194E-05-2.85663E-05-2.85709E-07-8.57577E-19 1.04739E-18
 -1      3897 9.51612E-05-2.85051E-05-2.85674E-05-2.54387E-07-9.88259E-19 8.55679E-19
 -1      3898 9.51886E-05-2.85411E-05-2.85606E-05-4.24026E-07-3.34609E-19 1.55333E-18
 -1      3899 9.51640E-05-2.85176E-05-2.85633E-05-3.73699E-07-7.10895E-19 1.17535E-18
 -1      3900 9.51267E-05-2.84778E-05-2.85648E-05-3.45497E-07-6.98265E-19 8.40484E-19
 -1      3901 9.52705E-05-2.86411E-05-2.85518E-05-5.77403E-07-5.98476E-19 1.47362E-18
 -1      3902 9.52060E-05-2.85753E-05-2.85564E-05-5.06646E-07-3.69198E-19 1.31237E-18
 -1      3903 9.51319E-05-2.85001E-05-2.85583E-05-4.87891E-07-2.59820E-19 9.08519E-19
 -1      3904 9.54592E-05-2.88557E-05-2.85392E-05-7.88474E-07 5.59258E-20 2.45528E-19
 -1      3905 9.53319E-05-2.87256E-05-2.85453E-05-6.95254E-07-2.11429E-20 7.14687E-19
 -1      3906 9.52046E-05-2.86020E-05-2.85473E-05-6.98228E-07 1.65068E-19 1.07543E-19
 -1      3907 9.58154E-05-2.92399E-05-2.85256E-05-1.06246E-06 4.21337E-19 4.96630E-19
 -1      3908 9.55931E-05-2.90163E-05-2.85313E-05-9.48363E-07 3.16363E-19 2.77649E-19
 -1      3909 9.53902E-05-2.88285E-05-2.85321E-05-9.94690E-07 3.72564E-19-7.28167E-19
 -1      3910 9.64238E-05-2.98647E-05-2.85170E-05-1.39190E-06-1.25397E-19 6.97012E-19
 -1      3911 9.60638E-05-2.95111E-05-2.85185E-05-1.26667E-06 8.86577E-20 7.30488E-19
 -1      3912 9.57576E-05-2.92432E-05-2.85157E-05-1.39205E-06-2.05483E-19-1.45363E-19
 -1      3913 9.73944E-05-3.08117E-05-2.85263E-05-1.74219E-06-1.61210E-19 8.29412E-19
 -1      3914 9.68458E-05-3.02889E-05-2.85160E-05-1.63099E-06 2.77718E-20 8.93646E-19
 -1      3915 9.64070E-05-2.99305E-05-2.85049E-05-1.89118E-06-3.43288E-19 5.86814E-19
 -1      3916 9.88548E-05-3.21566E-05-2.85771E-05-2.02921E-06-8.71279E-19 1.39187E-18
 -1      3917 9.80666E-05-3.14339E-05-2.85417E-05-1.98266E-06-4.09705E-19 1.12320E-18
 -1      3918 9.74735E-05-3.09918E-05-2.85148E-05-2.45965E-06-3.83262E-19 9.03644E-19
 -1      3919 1.00925E-04-3.39289E-05-2.87096E-05-2.09105E-06-1.20322E-18 1.48444E-18
 -1      3920 9.98642E-05-3.30089E-05-2.86275E-05-2.19572E-06-1.10651E-18 1.99593E-18
 -1      3921 9.91237E-05-3.25267E-05-2.85738E-05-3.00012E-06-1.47280E-18 1.44247E-18
 -1      3922 1.03658E-04-3.60412E-05-2.89868E-05-1.67069E-06-6.78754E-19 1.14587E-18
 -1      3923 1.02343E-04-3.49991E-05-2.88257E-05-2.05105E-06-8.18016E-19 1.23667E-18
 -1      3924 1.01521E-04-3.45796E-05-2.87314E-05-3.30879E-06-9.59235E-19 1.53579E-18
 -1      3925 1.06939E-04-3.81578E-05-2.95005E-05-4.21262E-07-1.15707E-18 8.96732E-19
 -1      3926 1.05494E-04-3.72100E-05-2.92164E-05-1.21314E-06-1.29463E-18 4.97210E-19
 -1      3927 1.04773E-04-3.70726E-05-2.90677E-05-3.04913E-06-4.67215E-19 8.17212E-19
 -1      3928 1.10303E-04-3.95734E-05-3.03306E-05 1.94997E-06-4.85634E-19 2.84352E-18
 -1      3929 1.09066E-04-3.91596E-05-2.99081E-05 6.99900E-07-7.95392E-19 1.23572E-18
 -1      3930 1.08752E-04-3.95903E-05-2.97018E-05-1.74815E-06-1.39608E-18 1.72739E-18
 -1      3931 1.14466E-04-3.91352E-05-3.22950E-05 6.43290E-06 5.10192E-19 2.78724E-18
 -1      3932 1.13641E-04-4.01164E-05-3.15072E-05 4.39880E-06 3.35447E-19 2.32549E-18
 -1      3933 1.14514E-04-3.71242E-05-3.31841E-05 8.21525E-06 1.10098E-18 2.05705E-18
 -1      3934 1.10245E-04-2.58532E-05-3.61913E-05 1.17806E-05 1.53697E-18 1.66524E-18
 -1      3935 1.13762E-04-3.84931E-05-3.23430E-05-5.71081E-06-7.27940E-19-4.44318E-19
 -1      3936 8.99542E-05-2.80860E-05-2.63964E-05-1.87595E-05-8.73831E-19 4.17222E-19
 -1      3937 8.95427E-05-2.90033E-05-2.59173E-05-2.16007E-05-3.35289E-20-6.03925E-20
 -1      3938 9.60886E-05-3.41851E-05-2.66792E-05-2.15352E-05-8.62703E-19 5.35351E-19
 -1      3939 9.61565E-05-2.92783E-05-2.86611E-05-4.95204E-07 4.35147E-20 2.72586E-19
 -1      3940 9.62362E-05-2.92929E-05-2.86890E-05-5.22808E-07-5.80406E-20 2.82089E-19
 -1      3941 9.61897E-05-2.93056E-05-2.86665E-05-3.86295E-07 1.68919E-20 5.77712E-20
 -1      3942 9.50930E-05-2.35710E-05-3.06574E-05 1.26050E-06 4.79352E-19 4.29121E-19
 -1      3943 9.56179E-05-2.47581E-05-3.03656E-05-9.15795E-07 2.61475E-19 3.22880E-20
 -1      3944 9.53885E-05-2.87438E-05-2.85612E-05-2.08241E-07-1.44549E-19 3.06105E-19
 -1      3945 9.54269E-05-2.87872E-05-2.85601E-05-2.19491E-07-1.80983E-19 5.07156E-19
 -1      3946 9.53780E-05-2.87293E-05-2.85642E-05-1.72013E-07-1.27010E-19 5.90138E-19
 -1      3947 9.52237E-05-2.37133E-05-3.06466E-05-4.47792E-07 2.42685E-19 2.64376E-19
 -1      3948 9.54602E-05-2.42888E-05-3.05144E-05-8.21416E-07 2.45249E-19 2.61960E-19
 -1      3949 9.59851E-05-2.55382E-05-3.01873E-05-4.84768E-07 1.44682E-19 1.99398E-19
 -1      3950 9.57165E-05-2.46869E-05-3.04293E-05-2.19092E-07 2.14188E-19 3.42691E-19
 -1      3951 9.57031E-05-2.90330E-05-2.85718E-05-3.15037E-07 2.00544E-19 1.15211E-18
 -1      3952 9.57625E-05-2.90802E-05-2.85779E-05-3.44785E-07 1.98046E-19 9.60945E-19
 -1      3953 9.57123E-05-2.90366E-05-2.85765E-05-2.45519E-07-9.00037E-20 9.19665E-19
 -1      3954 9.67542E-05-2.82258E-05-2.93663E-05 2.77871E-07 9.77715E-20 5.45709E-19
 -1      3955 9.67659E-05-2.85360E-05-2.92440E-05 3.94736E-07 2.98005E-19 7.98403E-19
 -1      3956 9.68482E-05-2.86317E-05-2.92357E-05 3.15487E-07 2.47868E-19 1.05406E-18
 -1      3957 1.05979E-04-1.72597E-05-3.81548E-05-7.20376E-06 9.72619E-19-2.02313E-19
 -1      3958 9.63926E-05-2.75552E-05-2.94959E-05-7.15618E-08 2.67605E-19 4.71556E-19
 -1      3959 9.63924E-05-2.71217E-05-2.96860E-05 1.03503E-07 3.75251E-19 4.11563E-19
 -1      3960 9.64322E-05-2.79613E-05-2.93498E-05-3.22103E-07 1.28758E-19 6.69863E-19
 -1      3961 1.02790E-04-3.83037E-05-2.75326E-05-1.92462E-05-1.29966E-18-5.12356E-19
 -1      3962 1.09251E-04-4.27485E-05-2.86774E-05-1.52339E-05-1.45068E-18-3.04826E-18
 -1      3963 1.01273E-04-3.64666E-05-2.76571E-05-1.72407E-05-1.52700E-18-2.22123E-19
 -1      3964 9.65890E-05-2.73517E-05-2.96704E-05-1.94447E-08-8.38242E-20 4.02378E-19
 -1      3965 9.66736E-05-2.78244E-05-2.95109E-05 1.77730E-07-2.90349E-20 4.70926E-19
 -1      3966 9.67740E-05-2.79465E-05-2.94948E-05 1.60145E-07 1.15126E-19 9.44628E-19
 -1      3967 9.60831E-05-2.59565E-05-3.00628E-05 4.56736E-07 4.82924E-19 3.09794E-19
 -1      3968 9.57121E-05-2.49175E-05-3.03392E-05 8.85710E-07 4.29102E-19 3.38774E-19
 -1      3969 9.58390E-05-2.91300E-05-2.85885E-05-3.71886E-07-3.75032E-20 7.89927E-19
 -1      3970 9.59063E-05-2.91728E-05-2.85996E-05-4.04521E-07-1.11857E-19 6.00644E-19
 -1      3971 9.60152E-05-2.92342E-05-2.86221E-05-3.37651E-07-1.18690E-19 7.58616E-20
 -1      3972 1.11543E-04-2.95270E-05-3.52335E-05 1.15605E-05 1.35698E-18 2.09203E-18
 -1      3973 1.15695E-04-3.49412E-05-3.45537E-05 1.04930E-05 1.34748E-18 2.08924E-18
 -1      3974 1.12152E-04-4.19124E-05-3.00360E-05-3.52343E-06-6.81453E-19 7.02874E-19
 -1      3975 1.14972E-04-4.29551E-05-3.08635E-05-9.84693E-07 1.44663E-19 8.04575E-19
 -1      3976 9.36989E-05-3.08240E-05-2.70561E-05-1.70973E-05-7.59382E-19 1.12374E-18
 -1      3977 9.67233E-05-2.87624E-05-2.91281E-05-4.90349E-07 1.20400E-19 4.28134E-19
 -1      3978 9.67407E-05-2.85208E-05-2.92342E-05-3.99095E-07 1.59111E-19 4.20756E-19
 -1      3979 9.66381E-05-2.90863E-05-2.89514E-05-5.65614E-07 2.28912E-19 1.99718E-19
 -1      3980 9.66923E-05-2.89496E-05-2.90304E-05-5.25760E-07 1.06541E-19 3.59364E-19
 -1      3981 9.68064E-05-2.88466E-05-2.91264E-05-3.95191E-07 1.85743E-19 5.23199E-19
 -1      3982 9.65184E-05-2.72893E-05-2.96765E-05-8.84431E-09 2.92599E-19 3.23399E-19
 -1      3983 9.63706E-05-2.66937E-05-2.98568E-05 2.55405E-07 3.12021E-19 2.43801E-19
 -1      3984 9.62134E-05-2.61054E-05-3.00448E-05 3.23033E-07 3.23344E-19 2.26056E-19
 -1      3985 9.54754E-05-2.88271E-05-2.85642E-05-1.84329E-07-1.75492E-20 7.62180E-19
 -1      3986 9.53283E-05-2.40036E-05-3.05646E-05 8.66868E-07 5.16213E-19 3.58278E-19
 -1      3987 9.62467E-05-2.62466E-05-3.00034E-05-3.57921E-07 1.35498E-19 1.76855E-19
 -1      3988 9.64194E-05-2.68303E-05-2.98291E-05-1.22223E-07-2.32342E-20 2.26626E-19
 -1      3989 9.65568E-05-2.70275E-05-2.98003E-05-6.06304E-08 8.92744E-20 5.19116E-19
 -1      3990 9.61204E-05-2.57722E-05-3.01431E-05-3.07324E-07 1.30583E-19 4.10283E-19
 -1      3991 9.63713E-05-2.93352E-05-2.87319E-05-4.28864E-07 3.05683E-19 4.44557E-19
 -1      3992 9.63285E-05-2.92975E-05-2.87269E-05-5.46552E-07 1.57793E-19 4.66334E-19
 -1      3993 9.64096E-05-2.92820E-05-2.87675E-05-5.61773E-07 3.32097E-19 6.81552E-19
 -1      3994 9.64044E-05-2.91737E-05-2.88151E-05-6.92708E-07 3.10481E-19 3.04686E-19
 -1      3995 9.58771E-05-2.50943E-05-3.03325E-05-2.44988E-08 2.63063E-19 4.35683E-19
 -1      3996 9.60431E-05-2.55060E-05-3.02401E-05-2.12760E-07 1.05553E-19 5.25320E-19
 -1      3997 9.63158E-05-2.61684E-05-3.00567E-05-1.35876E-07 1.49830E-19 5.36726E-19
 -1      3998 9.58553E-05-2.91404E-05-2.85935E-05-2.89234E-07-2.14364E-19 1.74413E-19
 -1      3999 1.10340E-04-4.20904E-05-2.92124E-05-1.07458E-05-9.95260E-19-1.54229E-18
 -1      4000 9.76683E-05-3.28376E-05-2.77008E-05-1.41230E-05-5.15305E-19-5.86992E-19
 -1      4001 9.88525E-05-3.44041E-05-2.75637E-05-1.61104E-05-1.05937E-18-2.18610E-19
 -1      4002 1.04080E-04-3.84082E-05-2.82987E-05-1.38926E-05-1.20873E-18-2.72575E-18
 -1      4003 9.65800E-05-2.80478E-05-2.93708E-05-3.07241E-07 2.54881E-19 6.29901E-19
 -1      4004 9.67651E-05-2.92435E-05-2.89365E-05 2.84015E-07-4.17860E-20 5.72427E-19
 -1      4005 9.66838E-05-2.93151E-05-2.88718E-05 2.93364E-07-1.81179E-19 5.36880E-19
 -1      4006 9.65923E-05-2.93565E-05-2.88143E-05 2.85673E-07-7.94047E-20 7.84654E-19
 -1      4007 9.65011E-05-2.93751E-05-2.87674E-05 2.81241E-07 3.31613E-20 6.09023E-19
 -1      4008 9.66777E-05-2.93468E-05-2.88582E-05 1.62361E-07-1.64093E-21 8.02041E-19
 -1      4009 9.64013E-05-2.93719E-05-2.87258E-05 2.67438E-07 1.26910E-19 6.24511E-19
 -1      4010 9.63077E-05-2.93552E-05-2.86928E-05 2.55656E-07 3.82104E-19 5.67531E-19
 -1      4011 9.64902E-05-2.93920E-05-2.87590E-05 1.54139E-07 1.76785E-19 1.03027E-18
 -1      4012 9.62091E-05-2.93247E-05-2.86638E-05 2.41286E-07 3.56607E-19 6.24783E-19
 -1      4013 9.61198E-05-2.92873E-05-2.86414E-05 2.25818E-07 3.28194E-19 6.29907E-19
 -1      4014 9.62918E-05-2.93602E-05-2.86878E-05 1.41337E-07 3.51321E-19 9.95457E-19
 -1      4015 9.60273E-05-2.92411E-05-2.86219E-05 2.11818E-07 3.91758E-19 2.75168E-19
 -1      4016 9.59458E-05-2.91923E-05-2.86076E-05 1.95445E-07 4.34110E-19 2.74001E-19
 -1      4017 9.61020E-05-2.92842E-05-2.86388E-05 1.25407E-07 1.74424E-20 1.00468E-18
 -1      4018 9.58617E-05-2.91381E-05-2.85953E-05 1.82734E-07 5.49469E-19 3.62665E-20
 -1      4019 9.57886E-05-2.90837E-05-2.85869E-05 1.67235E-07 4.49114E-19-3.40247E-19
 -1      4020 9.59268E-05-2.91833E-05-2.86066E-05 1.09076E-07 2.89420E-19 1.57668E-20
 -1      4021 9.57134E-05-2.90262E-05-2.85799E-05 1.56145E-07 7.24556E-19-2.47092E-19
 -1      4022 9.56483E-05-2.89697E-05-2.85758E-05 1.42457E-07 5.92946E-19 5.74975E-20
 -1      4023 9.57690E-05-2.90704E-05-2.85870E-05 9.36609E-08 6.22648E-19-1.06602E-19
 -1      4024 9.55811E-05-2.89111E-05-2.85726E-05 1.32796E-07 1.28415E-19-1.11844E-19
 -1      4025 9.55222E-05-2.88540E-05-2.85716E-05 1.21097E-07 9.03734E-20-2.04811E-19
 -1      4026 9.56280E-05-2.89531E-05-2.85764E-05 7.93872E-08 3.18157E-19-6.15596E-19
 -1      4027 9.54611E-05-2.87952E-05-2.85709E-05 1.12088E-07 6.78003E-20-5.66144E-21
 -1      4028 9.54058E-05-2.87373E-05-2.85720E-05 1.01757E-07-1.20102E-19 5.27686E-21
 -1      4029 9.55011E-05-2.88348E-05-2.85722E-05 6.53861E-08 2.84910E-19-1.33678E-18
 -1      4030 9.53483E-05-2.86777E-05-2.85730E-05 9.18404E-08-4.41037E-20 4.98977E-19
 -1      4031 9.52933E-05-2.86178E-05-2.85753E-05 8.12412E-08 1.51964E-19 1.78800E-19
 -1      4032 9.53839E-05-2.87164E-05-2.85723E-05 4.93955E-08 2.35933E-19-5.80680E-19
 -1      4033 9.52365E-05-2.85561E-05-2.85771E-05 6.76976E-08 1.42996E-19 6.22984E-19
 -1      4034 9.51772E-05-2.84922E-05-2.85800E-05 5.37410E-08 2.00005E-19 4.80284E-19
 -1      4035 9.52710E-05-2.85967E-05-2.85748E-05 2.71522E-08 2.34598E-19 6.78560E-20
 -1      4036 9.51180E-05-2.84263E-05-2.85818E-05 3.20741E-08 7.73976E-21 3.69456E-19
 -1      4037 9.50489E-05-2.83554E-05-2.85844E-05 9.45202E-09 1.57634E-19-4.21172E-19
 -1      4038 9.51562E-05-2.84734E-05-2.85780E-05-8.62525E-09-1.22599E-19 5.80329E-19
 -1      4039 9.49840E-05-2.82831E-05-2.85853E-05-2.75429E-08-9.08532E-20-8.42952E-19
 -1      4040 9.48982E-05-2.82021E-05-2.85866E-05-6.75589E-08-7.73335E-20-1.46194E-18
 -1      4041 9.50330E-05-2.83440E-05-2.85803E-05-6.97975E-08-2.25544E-19-3.70693E-19
 -1      4042 9.48248E-05-2.81216E-05-2.85856E-05-1.31134E-07 4.84211E-19-1.87116E-18
 -1      4043 9.47139E-05-2.80272E-05-2.85842E-05-2.02488E-07 5.36636E-19-1.50992E-18
 -1      4044 9.48953E-05-2.82070E-05-2.85797E-05-1.75068E-07 5.54080E-20-1.89200E-18
 -1      4045 9.46308E-05-2.79380E-05-2.85798E-05-3.09756E-07 3.88384E-19-1.61225E-18
 -1      4046 9.44851E-05-2.78284E-05-2.85736E-05-4.34161E-07-2.45474E-19-7.21618E-19
 -1      4047 9.47384E-05-2.80640E-05-2.85737E-05-3.53079E-07 5.58657E-19-3.16953E-18
 -1      4048 9.43944E-05-2.77339E-05-2.85638E-05-6.10378E-07-6.39540E-19-2.75073E-20
 -1      4049 9.42045E-05-2.76110E-05-2.85495E-05-8.20727E-07-6.45002E-19 3.15391E-19
 -1      4050 9.45625E-05-2.79233E-05-2.85590E-05-6.46352E-07 4.35377E-20-2.14113E-18
 -1      4051 9.41154E-05-2.75217E-05-2.85317E-05-1.10181E-06-1.13191E-18 9.05266E-19
 -1      4052 9.38751E-05-2.73952E-05-2.85046E-05-1.44633E-06-1.29905E-18 4.19253E-19
 -1      4053 9.43772E-05-2.78061E-05-2.85312E-05-1.11572E-06-5.16555E-19-7.98588E-19
 -1      4054 9.38108E-05-2.73357E-05-2.84753E-05-1.88089E-06-1.29226E-18 7.53590E-19
 -1      4055 9.35246E-05-2.72319E-05-2.84288E-05-2.42735E-06-1.24635E-18 3.36093E-19
 -1      4056 9.42123E-05-2.77566E-05-2.84848E-05-1.84416E-06-1.13800E-18-6.73373E-19
 -1      4057 9.35333E-05-2.72514E-05-2.83842E-05-3.07651E-06-1.56714E-18 2.00099E-19
 -1      4058 9.32312E-05-2.72257E-05-2.83094E-05-3.91455E-06-1.82409E-18-9.67597E-20
 -1      4059 9.41342E-05-2.78586E-05-2.84139E-05-2.93713E-06-1.45597E-18 4.73609E-19
 -1      4060 9.34042E-05-2.74145E-05-2.82468E-05-4.84553E-06-1.08425E-18-6.84952E-19
 -1      4061 9.31693E-05-2.75722E-05-2.81343E-05-6.08379E-06-5.43160E-19-8.73220E-19
 -1      4062 9.42741E-05-2.82583E-05-2.83140E-05-4.51344E-06-1.76307E-18 8.39196E-19
 -1      4063 9.36744E-05-2.80906E-05-2.80566E-05-7.34936E-06-3.76565E-19-7.55269E-19
 -1      4064 9.36978E-05-2.86040E-05-2.79007E-05-9.10679E-06-7.51200E-19-5.75918E-19
 -1      4065 9.48687E-05-2.91944E-05-2.81879E-05-6.67246E-06-1.19781E-19-7.59399E-19
 -1      4066 9.49333E-05-2.97876E-05-2.78538E-05-1.05232E-05-7.16587E-19-7.12487E-19
 -1      4067 9.55229E-05-3.08837E-05-2.76771E-05-1.26779E-05-6.47550E-20-4.07979E-19
 -1      4068 9.96510E-05-3.43336E-05-2.81050E-05-1.17864E-05-4.85206E-19-9.32484E-19
 -1      4069 9.64631E-05-3.11090E-05-2.80849E-05-9.23959E-06-2.16511E-19-1.43229E-18
 -1      4070 9.55807E-05-2.89163E-05-2.85696E-05-1.45611E-07 4.25646E-19 5.73197E-19
 -1      4071 9.56403E-05-2.89703E-05-2.85726E-05-1.58335E-07 2.97572E-19 6.89465E-19
 -1      4072 1.10417E-04-4.17847E-05-2.95306E-05-7.23178E-06-1.12021E-18 2.27177E-20
 -1      4073 1.09775E-04-4.05579E-05-2.96590E-05-4.17101E-06-1.56266E-18 8.06938E-19
 -1      4074 1.07569E-04-3.91434E-05-2.92533E-05-5.01681E-06-1.86015E-18 6.41608E-19
 -1      4075 1.07678E-04-4.01765E-05-2.88407E-05-1.09598E-05-1.33122E-18-1.71054E-18
 -1      4076 9.58581E-05-2.91362E-05-2.85940E-05-1.99662E-07-3.78962E-19 4.79945E-19
 -1      4077 9.59345E-05-2.91873E-05-2.86054E-05-2.18342E-07-3.81840E-19 1.37790E-19
 -1      4078 9.69150E-05-2.85029E-05-2.93182E-05 1.85121E-07 1.24450E-19 1.14774E-18
 -1      4079 9.69120E-05-2.87724E-05-2.92039E-05 2.48076E-07 1.92003E-19 9.83601E-19
 -1      4080 9.51912E-05-2.85261E-05-2.85695E-05-1.76791E-07-5.70735E-19-6.74934E-20
 -1      4081 9.52243E-05-2.85651E-05-2.85689E-05-1.57598E-07-8.94911E-21 9.69652E-20
 -1      4082 9.52722E-05-2.86109E-05-2.85682E-05-1.41619E-07 1.10030E-19 2.25936E-19
 -1      4083 9.53120E-05-2.86560E-05-2.85673E-05-1.34114E-07 1.07411E-20 2.48667E-19
 -1      4084 9.52415E-05-2.85777E-05-2.85704E-05-1.13805E-07 1.77101E-19-5.57617E-19
 -1      4085 9.50758E-05-2.84162E-05-2.85657E-05-3.53717E-07-5.09089E-19-2.07535E-19
 -1      4086 9.50837E-05-2.84289E-05-2.85678E-05-2.95949E-07-7.23427E-19-5.56430E-19
 -1      4087 9.50648E-05-2.84202E-05-2.85578E-05-5.27197E-07 8.32340E-20-1.71691E-19
 -1      4088 9.50460E-05-2.84055E-05-2.85621E-05-4.38572E-07-1.47029E-19-1.39530E-20
 -1      4089 9.49984E-05-2.83464E-05-2.85656E-05-3.83041E-07-5.36389E-19-1.27095E-18
 -1      4090 9.51184E-05-2.84999E-05-2.85446E-05-7.87466E-07 5.72167E-19-4.22223E-19
 -1      4091 9.50546E-05-2.84402E-05-2.85513E-05-6.57591E-07 7.06801E-19 9.77647E-20
 -1      4092 9.49581E-05-2.83318E-05-2.85555E-05-6.01255E-07 5.04959E-19-8.87554E-19
 -1      4093 9.52836E-05-2.87021E-05-2.85259E-05-1.16279E-06 4.00115E-19-8.31380E-20
 -1      4094 9.51460E-05-2.85708E-05-2.85346E-05-9.80485E-07 1.96748E-19-3.78464E-19
 -1      4095 9.49739E-05-2.83913E-05-2.85387E-05-9.32943E-07 5.27230E-19-5.81136E-19
 -1      4096 9.56345E-05-2.90957E-05-2.85041E-05-1.68107E-06-1.10339E-18 2.20483E-19
 -1      4097 9.53803E-05-2.88547E-05-2.85127E-05-1.43753E-06 8.32744E-20 4.16981E-19
 -1      4098 9.50940E-05-2.85762E-05-2.85144E-05-1.41919E-06-4.14149E-19-6.67301E-20
 -1      4099 9.62822E-05-2.97772E-05-2.84857E-05-2.35878E-06-3.56710E-19 1.02472E-18
 -1      4100 9.58513E-05-2.93747E-05-2.84896E-05-2.05415E-06-9.60494E-19 1.41972E-19
 -1      4101 9.53987E-05-2.89656E-05-2.84842E-05-2.10365E-06-6.60092E-19 3.10677E-20
 -1      4102 9.73832E-05-3.08703E-05-2.84858E-05-3.17913E-06-9.71266E-19 2.20955E-19
 -1      4103 9.66974E-05-3.02431E-05-2.84753E-05-2.83452E-06-3.98034E-19 6.37859E-19
 -1      4104 9.60146E-05-2.96746E-05-2.84543E-05-3.01962E-06-7.95492E-19 5.88905E-19
 -1      4105 9.91397E-05-3.25118E-05-2.85346E-05-4.05353E-06-1.51158E-18 5.62806E-19
 -1      4106 9.81108E-05-3.15975E-05-2.84914E-05-3.73052E-06-1.01203E-18 1.14077E-18
 -1      4107 9.71305E-05-3.08585E-05-2.84406E-05-4.16323E-06-1.70576E-18 3.23062E-19
 -1      4108 1.01788E-04-3.48034E-05-2.86890E-05-4.75166E-06-2.16777E-19-8.23103E-20
 -1      4109 1.00335E-04-3.35792E-05-2.85805E-05-4.58787E-06-9.27028E-19-4.69470E-20
 -1      4110 9.90141E-05-3.27021E-05-2.84775E-05-5.44724E-06-6.74508E-19-3.29392E-19
 -1      4111 1.05298E-04-3.75541E-05-2.90182E-05-4.97507E-06-9.24874E-19-1.19279E-20
 -1      4112 1.03402E-04-3.60952E-05-2.87968E-05-5.17147E-06-5.90743E-19-1.93253E-19
 -1      4113 1.01768E-04-3.52012E-05-2.86122E-05-6.66583E-06-5.37125E-19-1.50296E-18
 -1      4114 1.05538E-04-3.82997E-05-2.89229E-05-7.47997E-06-1.78572E-18-8.73975E-19
 -1      4115 1.14464E-04-4.16100E-05-3.12326E-05 1.61760E-06-3.02971E-20 1.06677E-18
 -1      4116 9.68047E-05-2.83090E-05-2.93545E-05-2.68739E-07 1.31050E-19 5.22112E-19
 -1      4117 9.67071E-05-2.82050E-05-2.93620E-05-3.17685E-07 1.32677E-19 5.15361E-19
 -1      4118 9.66661E-05-2.78203E-05-2.95013E-05-1.53407E-07 2.23763E-19 4.89604E-19
 -1      4119 9.57494E-05-2.48960E-05-3.03670E-05 5.21306E-07 5.15008E-19 4.20247E-19
 -1      4120 9.68034E-05-2.77439E-05-2.95960E-05 4.72120E-08 2.92150E-19 9.01060E-19
 -1      4121 9.68695E-05-2.81605E-05-2.94510E-05 1.61178E-07 2.79541E-19 9.59546E-19
 -1      4122 9.69213E-05-2.82875E-05-2.94135E-05 9.22216E-08 3.60079E-19 9.78773E-19
 -1      4123 9.57965E-05-2.49346E-05-3.03751E-05 1.47165E-07 3.51066E-19 5.39323E-19
 -1      4124 9.61446E-05-2.56884E-05-3.01875E-05 1.04876E-07 3.54430E-19 6.12150E-19
 -1      4125 9.62037E-05-2.93195E-05-2.86635E-05-2.70758E-07 1.36771E-20 2.13356E-19
 -1      4126 9.62947E-05-2.93469E-05-2.86909E-05-2.87557E-07 1.33197E-20 3.07750E-19
 -1      4127 9.53636E-05-2.87061E-05-2.85667E-05-1.28406E-07-1.04375E-19 5.90836E-19
 -1      4128 9.54094E-05-2.87554E-05-2.85662E-05-1.29544E-07-1.29250E-19 4.33863E-19
 -1      4129 9.53398E-05-2.86799E-05-2.85690E-05-9.09897E-08 5.78126E-20-1.72158E-19
 -1      4130 9.51232E-05-2.84576E-05-2.85692E-05-2.43060E-07-7.35435E-19-2.71309E-19
 -1      4131 9.51467E-05-2.84868E-05-2.85696E-05-2.07726E-07-8.21688E-19-4.34507E-19
 -1      4132 9.50672E-05-2.84033E-05-2.85703E-05-2.44707E-07-7.20925E-19-1.39528E-18
 -1      4133 9.58095E-05-2.49883E-05-3.03520E-05 3.50835E-07 4.58985E-19 5.70364E-19
 -1      4134 9.57108E-05-2.90268E-05-2.85779E-05-1.69230E-07-1.70589E-19 7.74403E-19
 -1      4135 9.57786E-05-2.90809E-05-2.85843E-05-1.85659E-07-2.60699E-19 3.89527E-19
 -1      4136 9.56960E-05-2.90146E-05-2.85794E-05-1.01186E-07 1.20029E-19-2.84518E-19
 -1      4137 9.59904E-05-2.54111E-05-3.02425E-05 3.96903E-07 3.99568E-19 5.15629E-19
 -1      4138 9.68868E-05-2.89809E-05-2.91012E-05 2.55959E-07-1.15891E-19 9.12055E-19
 -1      4139 9.68335E-05-2.91340E-05-2.90142E-05 2.87638E-07-1.65093E-19 7.44857E-19
 -1      4140 9.68419E-05-2.91911E-05-2.89952E-05 1.60462E-07-3.21935E-19 5.05304E-19
 -1      4141 9.64967E-05-2.92472E-05-2.88208E-05-5.77502E-07 2.45725E-19 5.91080E-19
 -1      4142 9.65692E-05-2.91823E-05-2.88783E-05-5.71515E-07 2.05453E-19 4.09571E-19
 -1      4143 9.67052E-05-2.91513E-05-2.89533E-05-4.48237E-07 1.55408E-19 4.40078E-19
 -1      4144 9.65531E-05-2.92989E-05-2.88255E-05-4.53670E-07 2.24788E-19 7.77993E-19
 -1      4145 9.54658E-05-2.88086E-05-2.85666E-05-1.31075E-07-4.62846E-19 7.26357E-19
 -1      4146 9.55180E-05-2.88609E-05-2.85673E-05-1.38769E-07-6.30088E-20 6.72892E-19
 -1      4147 9.55641E-05-2.88999E-05-2.85716E-05-8.89717E-08-3.09890E-21 4.43970E-19
 -1      4148 9.54464E-05-2.87878E-05-2.85688E-05-8.44461E-08-6.62908E-21 4.54608E-19
 -1      4149 9.60230E-05-2.92375E-05-2.86212E-05-2.34532E-07-2.07817E-19 2.04849E-19
 -1      4150 9.61077E-05-2.92807E-05-2.86394E-05-2.53558E-07-6.70494E-20 2.42340E-19
 -1      4151 9.61937E-05-2.93243E-05-2.86611E-05-1.61579E-07-6.97388E-21 7.90298E-19
 -1      4152 9.63422E-05-2.62651E-05-3.00331E-05 1.14424E-07 3.13684E-19 8.47263E-19
 -1      4153 9.64342E-05-2.64632E-05-2.99932E-05-6.20259E-09 2.51978E-19 5.33593E-19
 -1      4154 9.62833E-05-2.62264E-05-3.00307E-05 1.95553E-07 3.02392E-19 5.43764E-19
 -1      4155 1.05337E-04-3.82921E-05-2.86785E-05-1.03540E-05-1.25229E-18-1.63525E-18
 -1      4156 9.68687E-05-2.89630E-05-2.91030E-05-3.07870E-07 1.44424E-19 5.10508E-19
 -1      4157 9.68985E-05-2.87549E-05-2.92031E-05-2.57725E-07 9.35506E-20 5.07121E-19
 -1      4158 9.66389E-05-2.74318E-05-2.96597E-05-3.83158E-08 1.57010E-19 2.48964E-19
 -1      4159 9.65592E-05-2.68988E-05-2.98476E-05 8.51740E-08 1.49995E-19 6.02443E-19
 -1      4160 9.69380E-05-2.88615E-05-2.91768E-05 1.39152E-07-1.25682E-19 7.09908E-19
 -1      4161 9.51502E-05-2.84838E-05-2.85714E-05-1.60959E-07-3.31640E-19-1.30073E-18
 -1      4162 9.58445E-05-2.91284E-05-2.85947E-05-1.18722E-07-3.05738E-19 3.42901E-19
 -1      4163 9.68916E-05-2.84811E-05-2.93210E-05-2.37656E-07 1.60201E-19 4.51494E-19
 -1      4164 9.68608E-05-2.81381E-05-2.94503E-05-1.43063E-07 1.84269E-19 3.91171E-19
 -1      4165 9.69382E-05-2.85898E-05-2.92924E-05-1.47739E-07 1.20480E-19 3.27338E-19
 -1      4166 9.67691E-05-2.74772E-05-2.96963E-05 2.79283E-08 3.93600E-19 5.43350E-19
 -1      4167 9.66037E-05-2.69863E-05-2.98337E-05-8.59250E-09 3.29187E-19 4.97404E-19
 -1      4168 9.63885E-05-2.93794E-05-2.87210E-05-1.81535E-07 2.94577E-19 5.17595E-19
 -1      4169 9.63952E-05-2.93653E-05-2.87260E-05-3.04017E-07 3.35326E-19 3.91701E-19
 -1      4170 9.64908E-05-2.93663E-05-2.87660E-05-3.16064E-07 5.46178E-19 4.68395E-19
 -1      4171 9.60108E-05-2.92351E-05-2.86206E-05-1.39584E-07-3.74715E-19 5.21598E-19
 -1      4172 9.67493E-05-2.93371E-05-2.88897E-05 3.04229E-08-2.24926E-20 9.43265E-19
 -1      4173 9.66577E-05-2.93806E-05-2.88312E-05 3.31357E-08 3.70263E-19 9.12708E-19
 -1      4174 1.03028E-04-3.64261E-05-2.84766E-05-9.93190E-06-1.15933E-18-1.47256E-18
 -1      4175 9.65551E-05-2.93946E-05-2.87820E-05-1.96400E-08 3.81527E-19 8.07022E-19
 -1      4176 9.64583E-05-2.93945E-05-2.87400E-05-1.75028E-08 2.71263E-19 9.84554E-19
 -1      4177 9.63587E-05-2.93781E-05-2.87043E-05-1.54902E-08 2.96314E-19 9.54931E-19
 -1      4178 9.62599E-05-2.93486E-05-2.86746E-05-1.64993E-08 1.69912E-19 8.41901E-19
 -1      4179 9.61634E-05-2.93098E-05-2.86499E-05-1.15909E-08-1.61950E-19 9.21166E-19
 -1      4180 9.60703E-05-2.92636E-05-2.86299E-05-1.42052E-08-1.87873E-19 5.78859E-19
 -1      4181 9.59812E-05-2.92128E-05-2.86136E-05-8.38572E-09-1.07596E-19 4.70816E-19
 -1      4182 9.58965E-05-2.91581E-05-2.86008E-05-1.16552E-08-9.66020E-21 1.70189E-19
 -1      4183 9.58163E-05-2.91017E-05-2.85908E-05-6.11205E-09 5.73912E-20 4.51490E-20
 -1      4184 9.57405E-05-2.90436E-05-2.85833E-05-9.71113E-09 2.01609E-19-3.58253E-19
 -1      4185 9.56693E-05-2.89854E-05-2.85778E-05-5.42667E-09 3.25080E-19-2.85907E-19
 -1      4186 9.56015E-05-2.89266E-05-2.85742E-05-9.50277E-09 1.65358E-19-3.39953E-19
 -1      4187 9.55382E-05-2.88688E-05-2.85718E-05-7.53855E-09-2.69603E-20-3.15264E-19
 -1      4188 9.54766E-05-2.88105E-05-2.85708E-05-1.28187E-08 5.96523E-20-4.10078E-19
 -1      4189 9.54196E-05-2.87540E-05-2.85703E-05-1.45923E-08 4.13481E-19-5.08195E-19
 -1      4190 9.53619E-05-2.86962E-05-2.85710E-05-2.26198E-08 4.23648E-19-1.35689E-19
 -1      4191 9.53096E-05-2.86412E-05-2.85716E-05-3.02541E-08 1.71259E-19-3.59098E-19
 -1      4192 9.52529E-05-2.85835E-05-2.85730E-05-4.37907E-08 6.51201E-20-2.07126E-19
 -1      4193 9.52040E-05-2.85302E-05-2.85738E-05-6.05792E-08-1.01907E-19-2.70690E-19
 -1      4194 9.51453E-05-2.84720E-05-2.85751E-05-8.42287E-08-4.74845E-21-2.75286E-19
 -1      4195 9.50995E-05-2.84213E-05-2.85754E-05-1.15250E-07-3.18654E-19-6.48199E-19
 -1      4196 9.50359E-05-2.83625E-05-2.85758E-05-1.56373E-07-4.07558E-19-6.83672E-19
 -1      4197 9.49946E-05-2.83167E-05-2.85747E-05-2.09275E-07-4.75822E-19-7.73815E-19
 -1      4198 9.49238E-05-2.82585E-05-2.85730E-05-2.79251E-07-4.74850E-19-1.45848E-18
 -1      4199 9.48915E-05-2.82227E-05-2.85696E-05-3.65159E-07 1.35181E-19-1.78633E-18
 -1      4200 9.48130E-05-2.81692E-05-2.85646E-05-4.81028E-07 3.08560E-19-1.96397E-18
 -1      4201 9.47995E-05-2.81532E-05-2.85581E-05-6.15441E-07 5.36254E-19-2.14230E-18
 -1      4202 9.47166E-05-2.81132E-05-2.85480E-05-8.01796E-07 3.62062E-19-1.69726E-18
 -1      4203 9.47402E-05-2.81346E-05-2.85375E-05-1.00508E-06 4.78963E-20-1.19373E-18
 -1      4204 9.46638E-05-2.81258E-05-2.85202E-05-1.29585E-06-3.94766E-19-1.11252E-18
 -1      4205 9.47562E-05-2.82142E-05-2.85055E-05-1.59256E-06-7.12904E-19-1.34352E-18
 -1      4206 9.47116E-05-2.82685E-05-2.84788E-05-2.03163E-06-7.59711E-19-9.01822E-19
 -1      4207 9.49249E-05-2.84708E-05-2.84609E-05-2.44726E-06-7.64488E-19-6.09762E-19
 -1      4208 9.49625E-05-2.86427E-05-2.84229E-05-3.08583E-06-1.06848E-18-2.13132E-19
 -1      4209 9.53779E-05-2.90302E-05-2.84057E-05-3.63858E-06-1.65446E-18 3.26595E-19
 -1      4210 9.55897E-05-2.94062E-05-2.83571E-05-4.52483E-06-1.50106E-18 4.07710E-19
 -1      4211 9.63258E-05-3.00790E-05-2.83507E-05-5.20992E-06-1.38333E-18-6.68817E-20
 -1      4212 9.68649E-05-3.07869E-05-2.82989E-05-6.36043E-06-4.73935E-19-7.56334E-19
 -1      4213 9.68198E-05-2.91201E-05-2.90128E-05-3.11973E-07 1.20554E-19 5.63633E-19
 -1      4214 9.68936E-05-2.90369E-05-2.90830E-05-1.88836E-07 8.88036E-20 5.21772E-19
 -1      4215 9.67551E-05-2.92312E-05-2.89380E-05-3.31580E-07-5.16108E-20 7.00828E-19
 -1      4216 9.67154E-05-2.75050E-05-2.96664E-05-5.63192E-08 8.46292E-20 6.21119E-19
 -1      4217 9.68968E-05-2.91379E-05-2.90384E-05-2.76359E-08-2.68141E-19 5.45215E-19
 -1      4218 9.68253E-05-2.92525E-05-2.89593E-05-1.50336E-08-1.79828E-19 7.53515E-19
 -1      4219 9.80625E-05-3.18665E-05-2.83230E-05-7.13263E-06 1.25150E-19-1.12934E-18
 -1      4220 9.65003E-05-2.67550E-05-2.98931E-05-3.68444E-08 1.62269E-19 5.98795E-19
 -1      4221 9.69183E-05-2.81198E-05-2.94849E-05-3.68842E-08 4.26758E-19 3.18015E-19
 -1      4222 9.69647E-05-2.84772E-05-2.93526E-05 3.42256E-09 2.75767E-19 4.94487E-19
 -1      4223 9.67895E-05-2.76644E-05-2.96232E-05-3.87255E-08 2.16084E-19 5.12402E-19
 -1      4224 9.93001E-05-3.31293E-05-2.83162E-05-8.26047E-06-3.83481E-20-6.19913E-19
 -1      4225 9.69717E-05-2.87590E-05-2.92336E-05-2.95442E-08 1.15084E-19 4.31282E-19
 -1      4226 9.69470E-05-2.89764E-05-2.91296E-05-9.00026E-09-1.87191E-19 3.92605E-19
 -1      4227 1.00914E-04-3.45440E-05-2.83941E-05-8.97045E-06-5.48033E-19-7.28198E-19
 -1      4228 9.65925E-05-2.93814E-05-2.88074E-05-1.43709E-07 4.08679E-19 7.02385E-19
 -1      4229 9.67718E-05-2.92841E-05-2.89253E-05-1.52321E-07 3.71054E-20 9.49366E-19
 -1      4230 9.65964E-05-2.93535E-05-2.88179E-05-2.77073E-07 4.16268E-19 6.84915E-19
 -1      4231 9.66838E-05-2.93103E-05-2.88732E-05-2.74662E-07 1.29885E-19 8.05414E-19
 -3
    1PSTEP                         4           1           1          
  100CL  101 1.000000000        4231                     0    1           1
 -4  ERROR       1    1
 -5  STR(%)      1    1    0    0
 -1         1 1.44916E+01
 -1         2 2.61378E+01
 -1         3 7.60310E-02
 -1         4 7.11963E-01
 -1         5 1.40383E+01
 -1         6 1.33795E+01
 -1         7 1.33795E+01
 -1         8 3.65757E+00
 -1         9 1.82656E+00
 -1        10 1.29106E+00
 -1        11 1.04422E+00
 -1        12 9.00201E-01
 -1        13 8.08896E-01
 -1        14 7.53676E-01
 -1        15 7.55578E-01
 -1        16 8.13041E-01
 -1        17 9.00789E-01
 -1        18 1.05297E+00
 -1        19 1.30662E+00
 -1        20 1.83156E+00
 -1        21 3.50831E+00
 -1        22 8.64090E+00
 -1        23 1.33795E+01
 -1        24 4.25921E+00
 -1        25 3.40107E+00
 -1        26 2.15593E+00
 -1        27 1.39020E+00
 -1        28 1.02781E+00
 -1        29 7.85214E-01
 -1        30 6.02935E-01
 -1        31 4.60750E-01
 -1        32 3.50734E-01
 -1        33 2.70512E-01
 -1        34 2.05674E-01
 -1        35 1.54108E-01
 -1        36 1.13771E-01
 -1        37 8.34967E-02
 -1        38 6.67975E-02
 -1        39 5.26325E-02
 -1        40 4.10233E-02
 -1        41 3.19006E-02
 -1        42 2.51872E-02
 -1        43 2.22272E-02
 -1        44 3.03192E-02
 -1        45 4.39957E-02
 -1        46 6.43221E-02
 -1        47 9.67210E-02
 -1        48 1.54743E-01
 -1        49 2.48825E-01
 -1        50 3.99464E-01
 -1        51 6.35869E-01
 -1        52 9.94118E-01
 -1        53 1.50531E+00
 -1        54 2.16443E+00
 -1        55 3.16662E+00
 -1        56 4.63513E+00
 -1        57 6.40017E+00
 -1        58 7.62033E+00
 -1        59 7.62033E+00
 -1        60 6.44407E+00
 -1        61 1.59239E+01
 -1        62 2.09552E+01
 -1        63 2.09552E+01
 -1        64 1.55531E+01
 -1        65 5.68911E+00
 -1        66 6.82863E+00
 -1        67 6.82863E+00
 -1        68 5.99962E+00
 -1        69 4.44471E+00
 -1        70 3.39844E+00
 -1        71 2.73705E+00
 -1        72 1.71720E+00
 -1        73 1.40383E+01
 -1        74 3.39565E+00
 -1        75 2.41718E+00
 -1        76 1.66698E+00
 -1        77 1.14693E+00
 -1        78 9.06823E-01
 -1        79 7.32008E-01
 -1        80 5.88383E-01
 -1        81 4.68653E-01
 -1        82 3.68894E-01
 -1        83 2.94019E-01
 -1        84 2.31686E-01
 -1        85 1.79872E-01
 -1        86 1.37687E-01
 -1        87 1.04018E-01
 -1        88 7.76931E-02
 -1        89 5.75639E-02
 -1        90 4.25509E-02
 -1        91 3.40137E-02
 -1        92 2.80434E-02
 -1        93 2.42095E-02
 -1        94 2.21843E-02
 -1        95 2.14847E-02
 -1        96 2.53803E-02
 -1        97 3.63933E-02
 -1        98 5.01797E-02
 -1        99 8.78245E-02
 -1       100 1.38753E-01
 -1       101 2.02221E-01
 -1       102 2.73295E-01
 -1       103 3.83039E-01
 -1       104 5.37652E-01
 -1       105 7.05011E-01
 -1       106 8.59363E-01
 -1       107 9.61141E-01
 -1       108 1.33764E+00
 -1       109 1.75882E+00
 -1       110 2.08897E+00
 -1       111 2.24112E+00
 -1       112 2.40134E+00
 -1       113 2.51736E+00
 -1       114 2.51736E+00
 -1       115 2.37274E+00
 -1       116 2.03526E+00
 -1       117 1.59872E+00
 -1       118 1.20503E+00
 -1       119 8.18175E-01
 -1       120 6.11403E-01
 -1       121 3.41505E-01
 -1       122 1.60979E-01
 -1       123 1.44188E-01
 -1       124 7.05977E-02
 -1       125 1.43917E-01
 -1       126 2.29352E-01
 -1       127 2.96385E-01
 -1       128 3.29443E-01
 -1       129 3.29443E-01
 -1       130 2.87273E-01
 -1       131 1.95970E-01
 -1       132 5.00166E-01
 -1       133 6.52287E-01
 -1       134 6.52287E-01
 -1       135 5.12599E-01
 -1       136 3.66941E-01
 -1       137 4.25305E-01
 -1       138 2.61378E+01
 -1       139 4.21991E+01
 -1       140 4.21991E+01
 -1       141 1.59928E+01
 -1       142 1.26467E+01
 -1       143 1.26467E+01
 -1       144 1.22393E+01
 -1       145 1.30008E+01
 -1       146 1.30008E+01
 -1       147 1.19254E+01
 -1       148 2.27980E+01
 -1       149 4.89005E+01
 -1       150 4.89005E+01
 -1       151 2.43960E+01
 -1       152 2.35849E+01
 -1       153 2.63567E+01
 -1       154 2.63567E+01
 -1       155 3.27458E+01
 -1       156 3.23403E+01
 -1       157 1.48470E+01
 -1       158 1.44916E+01
 -1       159 1.41308E+01
 -1       160 1.41308E+01
 -1       161 1.96200E+01
 -1       162 4.66483E+01
 -1       163 4.66483E+01
 -1       164 2.52987E+01
 -1       165 2.44779E+01
 -1       166 6.19546E+00
 -1       167 2.30046E+00
 -1       168 1.50606E+00
 -1       169 1.15868E+00
 -1       170 9.72354E-01
 -1       171 8.64507E-01
 -1       172 7.95964E-01
 -1       173 7.55578E-01
 -1       174 7.99277E-01
 -1       175 8.67099E-01
 -1       176 9.81099E-01
 -1       177 1.17183E+00
 -1       178 1.52747E+00
 -1       179 2.25943E+00
 -1       180 3.93305E+00
 -1       181 1.40383E+01
 -1       182 4.25921E+00
 -1       183 3.40107E+00
 -1       184 2.15593E+00
 -1       185 1.46846E+00
 -1       186 1.04155E+00
 -1       187 7.85214E-01
 -1       188 6.02935E-01
 -1       189 4.72518E-01
 -1       190 3.71102E-01
 -1       191 2.90863E-01
 -1       192 2.33087E-01
 -1       193 1.83753E-01
 -1       194 1.42697E-01
 -1       195 1.09286E-01
 -1       196 8.26667E-02
 -1       197 6.19199E-02
 -1       198 4.61448E-02
 -1       199 3.45078E-02
 -1       200 2.70484E-02
 -1       201 2.31153E-02
 -1       202 2.67090E-02
 -1       203 3.56985E-02
 -1       204 5.14114E-02
 -1       205 7.72663E-02
 -1       206 1.18706E-01
 -1       207 1.84219E-01
 -1       208 3.00890E-01
 -1       209 5.16166E-01
 -1       210 8.71055E-01
 -1       211 1.43645E+00
 -1       212 2.28926E+00
 -1       213 3.46694E+00
 -1       214 4.87430E+00
 -1       215 6.16821E+00
 -1       216 6.80225E+00
 -1       217 8.22858E+00
 -1       218 9.82162E+00
 -1       219 6.56857E+00
 -1       220 2.09552E+01
 -1       221 6.65540E+00
 -1       222 7.70276E+00
 -1       223 7.58481E+00
 -1       224 6.08952E+00
 -1       225 5.37204E+00
 -1       226 4.18107E+00
 -1       227 2.79886E+00
 -1       228 1.81944E+00
 -1       229 8.52126E-01
 -1       230 3.39565E+00
 -1       231 2.41718E+00
 -1       232 1.66698E+00
 -1       233 1.14693E+00
 -1       234 9.06823E-01
 -1       235 7.32008E-01
 -1       236 5.88383E-01
 -1       237 4.68653E-01
 -1       238 3.68894E-01
 -1       239 2.94019E-01
 -1       240 2.31686E-01
 -1       241 1.82442E-01
 -1       242 1.42232E-01
 -1       243 1.09359E-01
 -1       244 8.30393E-02
 -1       245 6.23941E-02
 -1       246 4.65339E-02
 -1       247 3.45959E-02
 -1       248 2.80434E-02
 -1       249 2.42095E-02
 -1       250 2.21843E-02
 -1       251 2.22187E-02
 -1       252 2.64874E-02
 -1       253 2.98161E-02
 -1       254 3.73459E-02
 -1       255 6.29061E-02
 -1       256 9.59153E-02
 -1       257 1.38753E-01
 -1       258 2.10467E-01
 -1       259 3.27116E-01
 -1       260 5.09071E-01
 -1       261 7.37923E-01
 -1       262 1.00323E+00
 -1       263 1.28154E+00
 -1       264 1.60441E+00
 -1       265 1.87682E+00
 -1       266 2.03323E+00
 -1       267 2.08897E+00
 -1       268 2.24112E+00
 -1       269 2.40134E+00
 -1       270 2.51736E+00
 -1       271 2.37274E+00
 -1       272 2.03526E+00
 -1       273 1.59872E+00
 -1       274 1.20503E+00
 -1       275 8.48083E-01
 -1       276 6.11403E-01
 -1       277 3.41505E-01
 -1       278 2.80039E-01
 -1       279 2.80039E-01
 -1       280 2.23764E-01
 -1       281 3.75208E-01
 -1       282 5.10906E-01
 -1       283 5.92039E-01
 -1       284 6.15783E-01
 -1       285 6.15783E-01
 -1       286 5.28388E-01
 -1       287 7.56761E-01
 -1       288 1.22829E+00
 -1       289 1.31757E+00
 -1       290 1.31757E+00
 -1       291 8.40095E-01
 -1       292 1.00242E+00
 -1       293 2.94475E+01
 -1       294 3.63495E+01
 -1       295 4.21991E+01
 -1       296 1.64095E+01
 -1       297 1.10432E+01
 -1       298 1.26467E+01
 -1       299 1.19072E+01
 -1       300 1.22393E+01
 -1       301 1.30008E+01
 -1       302 1.19254E+01
 -1       303 1.10878E+01
 -1       304 2.48745E+01
 -1       305 4.89005E+01
 -1       306 2.99300E+01
 -1       307 2.99604E+01
 -1       308 2.99604E+01
 -1       309 3.66045E+01
 -1       310 3.66045E+01
 -1       311 3.27458E+01
 -1       312 1.48470E+01
 -1       313 1.41519E+01
 -1       314 1.44916E+01
 -1       315 1.40153E+01
 -1       316 1.41308E+01
 -1       317 1.30617E+01
 -1       318 1.96341E+01
 -1       319 4.66483E+01
 -1       320 3.86856E+01
 -1       321 2.92262E+01
 -1       322 2.94475E+01
 -1       323 1.59239E+01
 -1       324 1.55531E+01
 -1       325 1.07261E+00
 -1       326 2.54006E+00
 -1       327 7.89355E-01
 -1       328 6.95334E-01
 -1       329 6.31997E-01
 -1       330 5.87571E-01
 -1       331 5.90723E-01
 -1       332 6.34497E-01
 -1       333 7.01298E-01
 -1       334 7.96604E-01
 -1       335 9.30781E-01
 -1       336 1.14503E+00
 -1       337 1.32971E+00
 -1       338 2.19614E+00
 -1       339 1.91226E+00
 -1       340 1.73799E+00
 -1       341 1.28500E+00
 -1       342 9.20214E-01
 -1       343 6.64921E-01
 -1       344 5.42930E-01
 -1       345 4.44978E-01
 -1       346 3.58400E-01
 -1       347 2.91174E-01
 -1       348 2.34934E-01
 -1       349 1.86333E-01
 -1       350 1.49707E-01
 -1       351 1.19397E-01
 -1       352 9.37761E-02
 -1       353 7.26577E-02
 -1       354 5.56256E-02
 -1       355 4.21419E-02
 -1       356 3.16033E-02
 -1       357 2.33566E-02
 -1       358 2.23382E-02
 -1       359 2.69694E-02
 -1       360 3.57755E-02
 -1       361 5.96144E-02
 -1       362 9.91915E-02
 -1       363 1.63491E-01
 -1       364 2.67727E-01
 -1       365 4.35746E-01
 -1       366 7.04191E-01
 -1       367 1.12762E+00
 -1       368 1.78349E+00
 -1       369 2.77382E+00
 -1       370 4.21705E+00
 -1       371 6.20924E+00
 -1       372 8.87069E+00
 -1       373 1.27456E+01
 -1       374 1.74794E+01
 -1       375 2.01355E+01
 -1       376 1.41731E+01
 -1       377 1.45659E+01
 -1       378 1.75980E+01
 -1       379 8.73788E+00
 -1       380 5.71401E+00
 -1       381 3.81372E+00
 -1       382 2.07958E+00
 -1       383 1.13322E+00
 -1       384 8.13466E-01
 -1       385 6.30311E-01
 -1       386 5.15869E-01
 -1       387 4.15771E-01
 -1       388 3.34019E-01
 -1       389 2.69236E-01
 -1       390 2.14024E-01
 -1       391 1.71199E-01
 -1       392 1.36916E-01
 -1       393 1.07636E-01
 -1       394 8.32257E-02
 -1       395 6.32634E-02
 -1       396 4.71784E-02
 -1       397 3.43450E-02
 -1       398 2.63111E-02
 -1       399 2.24604E-02
 -1       400 2.00043E-02
 -1       401 1.85368E-02
 -1       402 2.22187E-02
 -1       403 2.64874E-02
 -1       404 2.98161E-02
 -1       405 3.38715E-02
 -1       406 4.80826E-02
 -1       407 1.00627E-01
 -1       408 1.79500E-01
 -1       409 2.90179E-01
 -1       410 4.35662E-01
 -1       411 6.14308E-01
 -1       412 8.17729E-01
 -1       413 1.06603E+00
 -1       414 1.33448E+00
 -1       415 1.60441E+00
 -1       416 1.87682E+00
 -1       417 2.03323E+00
 -1       418 2.03842E+00
 -1       419 2.01551E+00
 -1       420 2.03711E+00
 -1       421 1.90408E+00
 -1       422 1.64225E+00
 -1       423 1.32008E+00
 -1       424 1.02791E+00
 -1       425 7.47062E-01
 -1       426 5.40082E-01
 -1       427 4.88146E-01
 -1       428 4.49480E-01
 -1       429 5.40082E-01
 -1       430 6.18142E-01
 -1       431 7.58719E-01
 -1       432 8.01232E-01
 -1       433 9.17053E-01
 -1       434 9.17053E-01
 -1       435 9.53263E-01
 -1       436 1.61076E+00
 -1       437 1.98796E+00
 -1       438 2.14859E+00
 -1       439 2.14859E+00
 -1       440 1.35742E+00
 -1       441 2.43850E+01
 -1       442 8.35898E+00
 -1       443 9.13576E-01
 -1       444 1.88584E+01
 -1       445 7.25190E+00
 -1       446 1.03030E+01
 -1       447 1.09072E+01
 -1       448 1.09361E+01
 -1       449 8.91948E+00
 -1       450 6.71199E+00
 -1       451 1.02597E+01
 -1       452 1.73920E+01
 -1       453 2.99300E+01
 -1       454 2.91428E+01
 -1       455 4.03748E+01
 -1       456 4.03748E+01
 -1       457 3.66045E+01
 -1       458 2.22927E+01
 -1       459 1.26562E+01
 -1       460 2.71267E+01
 -1       461 2.97117E+01
 -1       462 4.29739E+01
 -1       463 4.29739E+01
 -1       464 2.47220E+01
 -1       465 6.81497E+00
 -1       466 1.16435E+00
 -1       467 7.61440E+00
 -1       468 4.86791E-01
 -1       469 5.11156E-01
 -1       470 4.31476E-01
 -1       471 4.57463E-01
 -1       472 4.87180E-01
 -1       473 5.11206E-01
 -1       474 5.11206E-01
 -1       475 5.04116E-01
 -1       476 6.39333E-01
 -1       477 1.31539E+00
 -1       478 8.17103E-01
 -1       479 7.05485E-01
 -1       480 5.93074E-01
 -1       481 4.80083E-01
 -1       482 3.80307E-01
 -1       483 3.23851E-01
 -1       484 2.73277E-01
 -1       485 2.25140E-01
 -1       486 1.85480E-01
 -1       487 1.50958E-01
 -1       488 1.20685E-01
 -1       489 9.49605E-02
 -1       490 7.55332E-02
 -1       491 5.92777E-02
 -1       492 4.56744E-02
 -1       493 3.43674E-02
 -1       494 2.48506E-02
 -1       495 1.93829E-02
 -1       496 2.18130E-02
 -1       497 2.89773E-02
 -1       498 4.84333E-02
 -1       499 7.74314E-02
 -1       500 1.21284E-01
 -1       501 1.87787E-01
 -1       502 2.88274E-01
 -1       503 4.64436E-01
 -1       504 7.58516E-01
 -1       505 1.26202E+00
 -1       506 2.06361E+00
 -1       507 3.41451E+00
 -1       508 5.70614E+00
 -1       509 9.30471E+00
 -1       510 1.82515E+01
 -1       511 9.82162E+00
 -1       512 8.64479E-01
 -1       513 7.77554E+00
 -1       514 4.45842E+00
 -1       515 2.82619E+00
 -1       516 4.42627E-01
 -1       517 5.60629E-01
 -1       518 6.90535E-01
 -1       519 3.65576E-01
 -1       520 3.10382E-01
 -1       521 2.56901E-01
 -1       522 2.10844E-01
 -1       523 1.72482E-01
 -1       524 1.38409E-01
 -1       525 1.09124E-01
 -1       526 8.66389E-02
 -1       527 6.79965E-02
 -1       528 5.22641E-02
 -1       529 3.91873E-02
 -1       530 2.84235E-02
 -1       531 1.96205E-02
 -1       532 1.69783E-02
 -1       533 1.53422E-02
 -1       534 1.52012E-02
 -1       535 1.73827E-02
 -1       536 1.77013E-02
 -1       537 2.55251E-02
 -1       538 3.84400E-02
 -1       539 7.21871E-02
 -1       540 1.31001E-01
 -1       541 2.15067E-01
 -1       542 3.27922E-01
 -1       543 4.70285E-01
 -1       544 6.64157E-01
 -1       545 8.88500E-01
 -1       546 1.11150E+00
 -1       547 1.29518E+00
 -1       548 1.45387E+00
 -1       549 1.56472E+00
 -1       550 1.57662E+00
 -1       551 1.50155E+00
 -1       552 1.56040E+00
 -1       553 1.55608E+00
 -1       554 1.44884E+00
 -1       555 1.26526E+00
 -1       556 1.06439E+00
 -1       557 8.13578E-01
 -1       558 5.75523E-01
 -1       559 8.58324E-01
 -1       560 6.44336E-01
 -1       561 6.10638E-01
 -1       562 9.91192E-01
 -1       563 1.14980E+00
 -1       564 1.39328E+00
 -1       565 1.50309E+00
 -1       566 1.94883E+00
 -1       567 2.93845E+00
 -1       568 3.27304E+00
 -1       569 3.52985E+00
 -1       570 1.11334E+01
 -1       571 1.78370E+01
 -1       572 4.22100E+00
 -1       573 1.50935E+01
 -1       574 8.43813E+00
 -1       575 4.57537E-01
 -1       576 2.97117E+01
 -1       577 4.27287E+00
 -1       578 5.99371E+00
 -1       579 7.44013E+00
 -1       580 2.70094E+01
 -1       581 7.80933E+00
 -1       582 5.56709E+00
 -1       583 9.37385E+00
 -1       584 1.28033E+01
 -1       585 2.15466E+01
 -1       586 3.93730E+01
 -1       587 2.05805E+01
 -1       588 4.03748E+01
 -1       589 4.29739E+01
 -1       590 5.11156E-01
 -1       591 7.46985E-01
 -1       592 1.80653E+01
 -1       593 2.20201E+01
 -1       594 6.29439E-01
 -1       595 4.60177E-01
 -1       596 6.99147E+00
 -1       597 3.58301E-01
 -1       598 3.42590E-01
 -1       599 3.61391E-01
 -1       600 3.43861E-01
 -1       601 5.93436E-01
 -1       602 6.45273E+00
 -1       603 4.07750E-01
 -1       604 3.95610E-01
 -1       605 3.84291E-01
 -1       606 3.43969E-01
 -1       607 2.94172E-01
 -1       608 2.43995E-01
 -1       609 2.11961E-01
 -1       610 1.79084E-01
 -1       611 1.47583E-01
 -1       612 1.19082E-01
 -1       613 9.50469E-02
 -1       614 7.56261E-02
 -1       615 5.92777E-02
 -1       616 4.56744E-02
 -1       617 3.43674E-02
 -1       618 2.48506E-02
 -1       619 1.67755E-02
 -1       620 1.46597E-02
 -1       621 1.81178E-02
 -1       622 3.13541E-02
 -1       623 5.36033E-02
 -1       624 8.90639E-02
 -1       625 1.45507E-01
 -1       626 2.39528E-01
 -1       627 3.89490E-01
 -1       628 6.27948E-01
 -1       629 1.00728E+00
 -1       630 1.61587E+00
 -1       631 2.61368E+00
 -1       632 4.31254E+00
 -1       633 7.03266E+00
 -1       634 1.24523E+01
 -1       635 3.71865E-01
 -1       636 8.76992E-01
 -1       637 5.01715E+00
 -1       638 3.85737E-01
 -1       639 3.31880E-01
 -1       640 4.28312E-01
 -1       641 2.35111E-01
 -1       642 1.99877E-01
 -1       643 1.65473E-01
 -1       644 1.33989E-01
 -1       645 1.09043E-01
 -1       646 8.70785E-02
 -1       647 6.81721E-02
 -1       648 5.22641E-02
 -1       649 3.98725E-02
 -1       650 2.96949E-02
 -1       651 2.11169E-02
 -1       652 1.39910E-02
 -1       653 1.16594E-02
 -1       654 1.12515E-02
 -1       655 1.23381E-02
 -1       656 1.77013E-02
 -1       657 2.55324E-02
 -1       658 4.11330E-02
 -1       659 7.08292E-02
 -1       660 1.22922E-01
 -1       661 2.01250E-01
 -1       662 3.06667E-01
 -1       663 4.37820E-01
 -1       664 5.86323E-01
 -1       665 7.34239E-01
 -1       666 9.28410E-01
 -1       667 1.12627E+00
 -1       668 1.25742E+00
 -1       669 1.31748E+00
 -1       670 1.34586E+00
 -1       671 1.29458E+00
 -1       672 1.26795E+00
 -1       673 1.32689E+00
 -1       674 1.29785E+00
 -1       675 1.22717E+00
 -1       676 1.08737E+00
 -1       677 9.01945E-01
 -1       678 7.36561E-01
 -1       679 1.24009E+00
 -1       680 9.57303E+00
 -1       681 1.07755E+00
 -1       682 7.36561E-01
 -1       683 1.70201E+00
 -1       684 2.76163E-01
 -1       685 2.15744E+00
 -1       686 2.86028E+00
 -1       687 3.53427E+00
 -1       688 4.88860E+00
 -1       689 2.05805E+01
 -1       690 3.52068E+00
 -1       691 4.83064E+00
 -1       692 9.77224E+00
 -1       693 1.20682E+01
 -1       694 3.48187E+00
 -1       695 1.55295E+01
 -1       696 1.72405E+01
 -1       697 7.73175E+00
 -1       698 3.61391E-01
 -1       699 6.14052E+00
 -1       700 3.16204E+00
 -1       701 5.68957E+00
 -1       702 3.60489E-01
 -1       703 1.82515E+01
 -1       704 9.45378E+00
 -1       705 3.42050E-01
 -1       706 1.21873E+01
 -1       707 1.36921E+01
 -1       708 4.14720E-01
 -1       709 3.60489E-01
 -1       710 4.88860E+00
 -1       711 5.15890E+00
 -1       712 3.57532E-01
 -1       713 2.42501E-01
 -1       714 7.79704E+00
 -1       715 5.05117E+00
 -1       716 2.29653E-01
 -1       717 2.53959E-01
 -1       718 2.47878E-01
 -1       719 2.26251E-01
 -1       720 1.97782E-01
 -1       721 1.70738E-01
 -1       722 1.49361E-01
 -1       723 1.26770E-01
 -1       724 1.04939E-01
 -1       725 8.49675E-02
 -1       726 6.73584E-02
 -1       727 5.22190E-02
 -1       728 3.94030E-02
 -1       729 2.86037E-02
 -1       730 1.94155E-02
 -1       731 1.17239E-02
 -1       732 1.35168E-02
 -1       733 2.52916E-02
 -1       734 4.32254E-02
 -1       735 7.08612E-02
 -1       736 1.12306E-01
 -1       737 1.74355E-01
 -1       738 2.66651E-01
 -1       739 4.02362E-01
 -1       740 5.98928E-01
 -1       741 1.00085E+00
 -1       742 1.65342E+00
 -1       743 2.67379E+00
 -1       744 4.15687E+00
 -1       745 6.88549E+00
 -1       746 1.40915E-01
 -1       747 2.26924E-01
 -1       748 3.01905E+00
 -1       749 8.39005E+00
 -1       750 2.67758E-01
 -1       751 2.68489E-01
 -1       752 1.64557E-01
 -1       753 1.86862E-01
 -1       754 1.17509E-01
 -1       755 9.57673E-02
 -1       756 7.63963E-02
 -1       757 5.96338E-02
 -1       758 4.54083E-02
 -1       759 3.34670E-02
 -1       760 2.34582E-02
 -1       761 1.49919E-02
 -1       762 8.25467E-03
 -1       763 7.40598E-03
 -1       764 9.89833E-03
 -1       765 1.49505E-02
 -1       766 2.55324E-02
 -1       767 4.11330E-02
 -1       768 6.41348E-02
 -1       769 1.00961E-01
 -1       770 1.72723E-01
 -1       771 2.73608E-01
 -1       772 4.05543E-01
 -1       773 5.63891E-01
 -1       774 7.34004E-01
 -1       775 8.86064E-01
 -1       776 1.03587E+00
 -1       777 1.16283E+00
 -1       778 1.27856E+00
 -1       779 1.42504E+00
 -1       780 1.46641E+00
 -1       781 1.30807E+00
 -1       782 1.50299E+00
 -1       783 1.42095E+00
 -1       784 1.29165E+00
 -1       785 1.14522E+00
 -1       786 1.09877E+00
 -1       787 1.02743E+00
 -1       788 3.66455E+00
 -1       789 2.63418E+00
 -1       790 7.45784E+00
 -1       791 5.68052E+00
 -1       792 4.78226E+00
 -1       793 4.18128E+00
 -1       794 4.31739E+00
 -1       795 2.63855E-01
 -1       796 2.43227E+00
 -1       797 1.00789E+01
 -1       798 4.94901E+00
 -1       799 1.14129E+01
 -1       800 1.24523E+01
 -1       801 3.05431E+00
 -1       802 2.88402E-01
 -1       803 1.57458E+00
 -1       804 3.01571E+00
 -1       805 2.51969E-01
 -1       806 1.85487E+01
 -1       807 3.31117E+00
 -1       808 1.32444E+00
 -1       809 2.19129E-01
 -1       810 2.81391E-01
 -1       811 2.48275E-01
 -1       812 3.62660E+00
 -1       813 1.19173E+00
 -1       814 2.82085E-01
 -1       815 5.70084E+00
 -1       816 2.79293E-01
 -1       817 2.88402E-01
 -1       818 2.90116E-01
 -1       819 1.33822E-01
 -1       820 1.72251E-01
 -1       821 1.81428E-01
 -1       822 1.74363E-01
 -1       823 1.58687E-01
 -1       824 1.38894E-01
 -1       825 1.22209E-01
 -1       826 1.05591E-01
 -1       827 8.87180E-02
 -1       828 7.27389E-02
 -1       829 5.82653E-02
 -1       830 4.55448E-02
 -1       831 3.45783E-02
 -1       832 2.52151E-02
 -1       833 1.72245E-02
 -1       834 1.71687E-02
 -1       835 1.98215E-02
 -1       836 3.14735E-02
 -1       837 4.88259E-02
 -1       838 7.23867E-02
 -1       839 1.13962E-01
 -1       840 1.84952E-01
 -1       841 2.95648E-01
 -1       842 4.63827E-01
 -1       843 7.09598E-01
 -1       844 1.10452E+00
 -1       845 1.92613E+00
 -1       846 3.07162E+00
 -1       847 4.74896E+00
 -1       848 9.94464E-02
 -1       849 2.96295E+00
 -1       850 2.29484E+00
 -1       851 1.17094E-01
 -1       852 1.53182E-01
 -1       853 8.23384E-02
 -1       854 6.66305E-02
 -1       855 5.26972E-02
 -1       856 4.06187E-02
 -1       857 3.02714E-02
 -1       858 2.14005E-02
 -1       859 1.36696E-02
 -1       860 9.91784E-03
 -1       861 8.76141E-03
 -1       862 1.41996E-02
 -1       863 2.20553E-02
 -1       864 3.50126E-02
 -1       865 6.05295E-02
 -1       866 1.00397E-01
 -1       867 1.56286E-01
 -1       868 2.29314E-01
 -1       869 3.21175E-01
 -1       870 4.74370E-01
 -1       871 6.66238E-01
 -1       872 8.71469E-01
 -1       873 1.03587E+00
 -1       874 1.24243E+00
 -1       875 1.34143E+00
 -1       876 1.42504E+00
 -1       877 1.68218E+00
 -1       878 1.69825E+00
 -1       879 1.69254E+00
 -1       880 2.97502E+00
 -1       881 2.31697E+00
 -1       882 2.92905E+00
 -1       883 1.11446E+00
 -1       884 7.27252E+00
 -1       885 3.64409E+00
 -1       886 2.49547E+00
 -1       887 9.26433E+00
 -1       888 3.05431E+00
 -1       889 2.57391E+00
 -1       890 2.90116E-01
 -1       891 6.34040E+00
 -1       892 2.21713E-01
 -1       893 1.39463E-01
 -1       894 2.14635E+00
 -1       895 1.33815E-01
 -1       896 3.32639E+00
 -1       897 2.24032E+00
 -1       898 2.49547E+00
 -1       899 1.72983E-01
 -1       900 2.16343E-01
 -1       901 3.01353E+00
 -1       902 2.17146E+00
 -1       903 3.30316E+00
 -1       904 1.72195E-01
 -1       905 1.89238E-01
 -1       906 2.16343E-01
 -1       907 2.97502E+00
 -1       908 1.34875E-01
 -1       909 1.34452E-01
 -1       910 1.25757E-01
 -1       911 1.12451E-01
 -1       912 9.72088E-02
 -1       913 8.46382E-02
 -1       914 7.15710E-02
 -1       915 5.89809E-02
 -1       916 4.74500E-02
 -1       917 3.72464E-02
 -1       918 2.84440E-02
 -1       919 2.10129E-02
 -1       920 1.96765E-02
 -1       921 2.01377E-02
 -1       922 2.68710E-02
 -1       923 3.95423E-02
 -1       924 5.98847E-02
 -1       925 9.12824E-02
 -1       926 1.38117E-01
 -1       927 2.05281E-01
 -1       928 3.21370E-01
 -1       929 5.43083E-01
 -1       930 8.80837E-01
 -1       931 1.35143E+00
 -1       932 1.92613E+00
 -1       933 3.07162E+00
 -1       934 6.74612E-02
 -1       935 1.86999E-01
 -1       936 4.28647E+00
 -1       937 8.07863E-02
 -1       938 4.38355E-02
 -1       939 3.40432E-02
 -1       940 2.55419E-02
 -1       941 1.80911E-02
 -1       942 1.53737E-02
 -1       943 1.37392E-02
 -1       944 1.54985E-02
 -1       945 2.19351E-02
 -1       946 3.58839E-02
 -1       947 5.40881E-02
 -1       948 8.03263E-02
 -1       949 1.33617E-01
 -1       950 2.13650E-01
 -1       951 3.21175E-01
 -1       952 4.53204E-01
 -1       953 6.00050E-01
 -1       954 8.20629E-01
 -1       955 1.02506E+00
 -1       956 1.85155E+00
 -1       957 1.62529E+00
 -1       958 2.20320E+00
 -1       959 1.68218E+00
 -1       960 3.01353E+00
 -1       961 2.97502E+00
 -1       962 3.90774E+00
 -1       963 2.55397E-01
 -1       964 9.43683E-02
 -1       965 2.92905E+00
 -1       966 2.55397E-01
 -1       967 5.50119E-02
 -1       968 3.31046E+00
 -1       969 1.87757E+00
 -1       970 1.21119E-01
 -1       971 1.83299E-01
 -1       972 2.47595E+00
 -1       973 1.35797E-01
 -1       974 2.50716E+00
 -1       975 1.39071E-01
 -1       976 2.99443E+00
 -1       977 1.10552E-01
 -1       978 1.23405E-01
 -1       979 2.01416E+00
 -1       980 1.91917E-01
 -1       981 1.51834E-01
 -1       982 1.08020E-01
 -1       983 1.15564E-01
 -1       984 1.02526E-01
 -1       985 9.72785E-02
 -1       986 8.79305E-02
 -1       987 7.66492E-02
 -1       988 6.48452E-02
 -1       989 5.41908E-02
 -1       990 4.46637E-02
 -1       991 3.59926E-02
 -1       992 2.84017E-02
 -1       993 2.39509E-02
 -1       994 2.11887E-02
 -1       995 2.09205E-02
 -1       996 2.51793E-02
 -1       997 3.32202E-02
 -1       998 4.57607E-02
 -1       999 6.40320E-02
 -1      1000 9.70134E-02
 -1      1001 1.60853E-01
 -1      1002 2.59132E-01
 -1      1003 4.02714E-01
 -1      1004 5.97425E-01
 -1      1005 8.80837E-01
 -1      1006 1.45780E+00
 -1      1007 2.07609E+00
 -1      1008 1.41996E-01
 -1      1009 6.22319E-02
 -1      1010 2.67087E-02
 -1      1011 3.41189E-02
 -1      1012 2.00227E-02
 -1      1013 1.87342E-02
 -1      1014 1.89863E-02
 -1      1015 2.38099E-02
 -1      1016 3.42765E-02
 -1      1017 5.38408E-02
 -1      1018 8.62373E-02
 -1      1019 1.34838E-01
 -1      1020 2.00037E-01
 -1      1021 2.79917E-01
 -1      1022 4.08453E-01
 -1      1023 6.00050E-01
 -1      1024 8.20629E-01
 -1      1025 1.02506E+00
 -1      1026 1.87757E+00
 -1      1027 2.73930E+00
 -1      1028 7.34546E-02
 -1      1029 2.24181E-02
 -1      1030 1.91917E-01
 -1      1031 4.25741E-02
 -1      1032 1.00745E-01
 -1      1033 1.37562E-01
 -1      1034 2.53453E+00
 -1      1035 8.86669E-02
 -1      1036 1.43546E-01
 -1      1037 5.20257E-02
 -1      1038 1.07592E-01
 -1      1039 1.04938E-01
 -1      1040 8.32074E-02
 -1      1041 6.83281E-02
 -1      1042 8.57765E-02
 -1      1043 9.64273E-02
 -1      1044 1.99192E+00
 -1      1045 7.16713E-02
 -1      1046 7.05385E-02
 -1      1047 6.09972E-02
 -1      1048 5.36622E-02
 -1      1049 4.64560E-02
 -1      1050 3.94619E-02
 -1      1051 3.32030E-02
 -1      1052 2.79791E-02
 -1      1053 2.39848E-02
 -1      1054 2.16335E-02
 -1      1055 2.20333E-02
 -1      1056 2.56401E-02
 -1      1057 3.83462E-02
 -1      1058 6.17204E-02
 -1      1059 9.90671E-02
 -1      1060 1.56077E-01
 -1      1061 2.38838E-01
 -1      1062 3.51291E-01
 -1      1063 5.31099E-01
 -1      1064 7.97208E-01
 -1      1065 1.13955E+00
 -1      1066 1.51155E+00
 -1      1067 3.06196E-02
 -1      1068 1.47560E+00
 -1      1069 4.30824E-02
 -1      1070 7.35695E-02
 -1      1071 2.20333E-02
 -1      1072 2.07908E-02
 -1      1073 3.90648E-02
 -1      1074 6.17204E-02
 -1      1075 9.90671E-02
 -1      1076 1.56771E-01
 -1      1077 2.52019E-01
 -1      1078 3.85674E-01
 -1      1079 5.58973E-01
 -1      1080 7.97208E-01
 -1      1081 1.13955E+00
 -1      1082 1.36876E+00
 -1      1083 1.01648E-01
 -1      1084 6.33799E-02
 -1      1085 9.64273E-02
 -1      1086 5.74927E-02
 -1      1087 2.24181E-02
 -1      1088 2.61555E-02
 -1      1089 3.64013E-02
 -1      1090 7.54217E-02
 -1      1091 9.68339E-02
 -1      1092 2.59364E-02
 -1      1093 5.02839E-02
 -1      1094 6.77021E-02
 -1      1095 7.97354E-02
 -1      1096 7.42381E-02
 -1      1097 7.05385E-02
 -1      1098 7.93288E-02
 -1      1099 7.88631E-02
 -1      1100 1.33795E+01
 -1      1101 8.51855E+00
 -1      1102 2.74207E+00
 -1      1103 1.55881E+00
 -1      1104 1.16764E+00
 -1      1105 9.72211E-01
 -1      1106 8.54549E-01
 -1      1107 7.81286E-01
 -1      1108 7.54627E-01
 -1      1109 7.84309E-01
 -1      1110 8.56915E-01
 -1      1111 9.76880E-01
 -1      1112 1.17980E+00
 -1      1113 1.56909E+00
 -1      1114 2.66994E+00
 -1      1115 6.07460E+00
 -1      1116 1.13396E+01
 -1      1117 1.33795E+01
 -1      1118 8.81937E+00
 -1      1119 3.83014E+00
 -1      1120 2.77850E+00
 -1      1121 1.77307E+00
 -1      1122 1.20901E+00
 -1      1123 9.06512E-01
 -1      1124 6.94075E-01
 -1      1125 5.31842E-01
 -1      1126 4.05742E-01
 -1      1127 3.10623E-01
 -1      1128 2.38093E-01
 -1      1129 1.79891E-01
 -1      1130 1.33939E-01
 -1      1131 9.86336E-02
 -1      1132 7.51471E-02
 -1      1133 5.97150E-02
 -1      1134 4.68279E-02
 -1      1135 3.64620E-02
 -1      1136 2.85439E-02
 -1      1137 2.37072E-02
 -1      1138 2.62732E-02
 -1      1139 3.71575E-02
 -1      1140 5.41589E-02
 -1      1141 8.05216E-02
 -1      1142 1.25732E-01
 -1      1143 2.01784E-01
 -1      1144 3.24144E-01
 -1      1145 5.17666E-01
 -1      1146 8.14993E-01
 -1      1147 1.24971E+00
 -1      1148 1.83487E+00
 -1      1149 2.66552E+00
 -1      1150 3.90087E+00
 -1      1151 5.51765E+00
 -1      1152 7.01025E+00
 -1      1153 7.62033E+00
 -1      1154 7.03220E+00
 -1      1155 1.11840E+01
 -1      1156 1.84396E+01
 -1      1157 2.09552E+01
 -1      1158 1.82542E+01
 -1      1159 1.06211E+01
 -1      1160 6.25887E+00
 -1      1161 6.82863E+00
 -1      1162 6.41413E+00
 -1      1163 5.22216E+00
 -1      1164 3.92157E+00
 -1      1165 3.06774E+00
 -1      1166 2.22712E+00
 -1      1167 1.21458E+00
 -1      1168 1.40383E+01
 -1      1169 8.71699E+00
 -1      1170 2.90642E+00
 -1      1171 2.04208E+00
 -1      1172 1.40696E+00
 -1      1173 1.02688E+00
 -1      1174 8.19415E-01
 -1      1175 6.60195E-01
 -1      1176 5.28518E-01
 -1      1177 4.18773E-01
 -1      1178 3.31456E-01
 -1      1179 2.62852E-01
 -1      1180 2.05779E-01
 -1      1181 1.58780E-01
 -1      1182 1.20852E-01
 -1      1183 9.08556E-02
 -1      1184 6.76285E-02
 -1      1185 5.00574E-02
 -1      1186 3.82823E-02
 -1      1187 3.10286E-02
 -1      1188 2.61265E-02
 -1      1189 2.31969E-02
 -1      1190 2.18345E-02
 -1      1191 2.34325E-02
 -1      1192 3.08868E-02
 -1      1193 4.32865E-02
 -1      1194 6.90021E-02
 -1      1195 1.13289E-01
 -1      1196 1.70487E-01
 -1      1197 2.37758E-01
 -1      1198 3.28167E-01
 -1      1199 4.60346E-01
 -1      1200 6.21332E-01
 -1      1201 7.82187E-01
 -1      1202 9.10252E-01
 -1      1203 1.14939E+00
 -1      1204 1.54823E+00
 -1      1205 1.92390E+00
 -1      1206 2.16505E+00
 -1      1207 2.32123E+00
 -1      1208 2.45935E+00
 -1      1209 2.51736E+00
 -1      1210 2.44505E+00
 -1      1211 2.20400E+00
 -1      1212 1.81699E+00
 -1      1213 1.40188E+00
 -1      1214 1.01160E+00
 -1      1215 7.14789E-01
 -1      1216 4.76454E-01
 -1      1217 2.08768E-01
 -1      1218 1.18505E-01
 -1      1219 1.52583E-01
 -1      1220 1.07393E-01
 -1      1221 1.07257E-01
 -1      1222 1.86635E-01
 -1      1223 2.62869E-01
 -1      1224 3.12914E-01
 -1      1225 3.29443E-01
 -1      1226 3.08358E-01
 -1      1227 2.41621E-01
 -1      1228 3.48068E-01
 -1      1229 5.76226E-01
 -1      1230 6.52287E-01
 -1      1231 5.82443E-01
 -1      1232 4.39770E-01
 -1      1233 3.96123E-01
 -1      1234 5.68634E-01
 -1      1235 2.61378E+01
 -1      1236 3.41685E+01
 -1      1237 4.21991E+01
 -1      1238 2.90960E+01
 -1      1239 1.43198E+01
 -1      1240 1.26467E+01
 -1      1241 1.24430E+01
 -1      1242 1.26200E+01
 -1      1243 1.30008E+01
 -1      1244 1.24631E+01
 -1      1245 1.73617E+01
 -1      1246 3.58492E+01
 -1      1247 4.89005E+01
 -1      1248 3.66482E+01
 -1      1249 2.39905E+01
 -1      1250 2.49708E+01
 -1      1251 2.63567E+01
 -1      1252 2.95512E+01
 -1      1253 3.25430E+01
 -1      1254 2.35937E+01
 -1      1255 1.46693E+01
 -1      1256 1.44916E+01
 -1      1257 1.43112E+01
 -1      1258 1.41308E+01
 -1      1259 1.68754E+01
 -1      1260 3.31341E+01
 -1      1261 4.66483E+01
 -1      1262 3.59735E+01
 -1      1263 2.48883E+01
 -1      1264 2.53079E+01
 -1      1265 1.33795E+01
 -1      1266 4.92651E+00
 -1      1267 9.78749E+00
 -1      1268 2.06351E+00
 -1      1269 2.97901E+00
 -1      1270 4.24796E+00
 -1      1271 1.39856E+00
 -1      1272 1.66631E+00
 -1      1273 1.90326E+00
 -1      1274 1.10145E+00
 -1      1275 1.22487E+00
 -1      1276 1.33237E+00
 -1      1277 9.36278E-01
 -1      1278 1.00829E+00
 -1      1279 1.06552E+00
 -1      1280 8.36702E-01
 -1      1281 8.82354E-01
 -1      1282 9.18431E-01
 -1      1283 7.74820E-01
 -1      1284 8.02430E-01
 -1      1285 8.30235E-01
 -1      1286 7.55578E-01
 -1      1287 7.54627E-01
 -1      1288 7.75771E-01
 -1      1289 8.06159E-01
 -1      1290 7.77428E-01
 -1      1291 7.77428E-01
 -1      1292 8.83944E-01
 -1      1293 8.40070E-01
 -1      1294 8.33188E-01
 -1      1295 1.01704E+00
 -1      1296 9.40944E-01
 -1      1297 9.24099E-01
 -1      1298 1.23923E+00
 -1      1299 1.11240E+00
 -1      1300 1.07646E+00
 -1      1301 1.67952E+00
 -1      1302 1.41705E+00
 -1      1303 1.34965E+00
 -1      1304 2.88387E+00
 -1      1305 2.04550E+00
 -1      1306 1.89345E+00
 -1      1307 6.28698E+00
 -1      1308 3.72068E+00
 -1      1309 3.09624E+00
 -1      1310 1.40383E+01
 -1      1311 1.13396E+01
 -1      1312 8.98570E+00
 -1      1313 1.40383E+01
 -1      1314 8.81937E+00
 -1      1315 4.25921E+00
 -1      1316 3.83014E+00
 -1      1317 3.40107E+00
 -1      1318 3.83014E+00
 -1      1319 2.77850E+00
 -1      1320 2.15593E+00
 -1      1321 2.77850E+00
 -1      1322 1.81220E+00
 -1      1323 1.42933E+00
 -1      1324 1.81220E+00
 -1      1325 1.21588E+00
 -1      1326 1.03468E+00
 -1      1327 1.25500E+00
 -1      1328 9.06512E-01
 -1      1329 7.85214E-01
 -1      1330 9.13381E-01
 -1      1331 6.94075E-01
 -1      1332 6.02935E-01
 -1      1333 6.94075E-01
 -1      1334 5.37726E-01
 -1      1335 4.66634E-01
 -1      1336 5.37726E-01
 -1      1337 4.15926E-01
 -1      1338 3.60918E-01
 -1      1339 4.21810E-01
 -1      1340 3.20798E-01
 -1      1341 2.80687E-01
 -1      1342 3.30983E-01
 -1      1343 2.51799E-01
 -1      1344 2.19381E-01
 -1      1345 2.61975E-01
 -1      1346 1.94713E-01
 -1      1347 1.68930E-01
 -1      1348 2.08420E-01
 -1      1349 1.48403E-01
 -1      1350 1.28234E-01
 -1      1351 1.63225E-01
 -1      1352 1.11528E-01
 -1      1353 9.63912E-02
 -1      1354 1.25991E-01
 -1      1355 8.30817E-02
 -1      1356 7.47321E-02
 -1      1357 9.59762E-02
 -1      1358 6.43587E-02
 -1      1359 5.72762E-02
 -1      1360 7.22933E-02
 -1      1361 4.93886E-02
 -1      1362 4.35840E-02
 -1      1363 5.40324E-02
 -1      1364 3.77656E-02
 -1      1365 3.32042E-02
 -1      1366 4.03263E-02
 -1      1367 2.94745E-02
 -1      1368 2.61178E-02
 -1      1369 3.07781E-02
 -1      1370 2.41513E-02
 -1      1371 2.26713E-02
 -1      1372 2.50819E-02
 -1      1373 2.44681E-02
 -1      1374 2.85141E-02
 -1      1375 2.49122E-02
 -1      1376 3.30089E-02
 -1      1377 3.98471E-02
 -1      1378 3.12038E-02
 -1      1379 4.77036E-02
 -1      1380 5.78668E-02
 -1      1381 4.35549E-02
 -1      1382 7.07942E-02
 -1      1383 8.69937E-02
 -1      1384 6.43388E-02
 -1      1385 1.07714E-01
 -1      1386 1.36725E-01
 -1      1387 9.79864E-02
 -1      1388 1.69481E-01
 -1      1389 2.16522E-01
 -1      1390 1.51463E-01
 -1      1391 2.74857E-01
 -1      1392 3.50177E-01
 -1      1393 2.42554E-01
 -1      1394 4.57815E-01
 -1      1395 5.76017E-01
 -1      1396 4.08528E-01
 -1      1397 7.53462E-01
 -1      1398 9.32586E-01
 -1      1399 6.93611E-01
 -1      1400 1.21528E+00
 -1      1401 1.47088E+00
 -1      1402 1.15375E+00
 -1      1403 1.89728E+00
 -1      1404 2.22685E+00
 -1      1405 1.86285E+00
 -1      1406 2.81569E+00
 -1      1407 3.31678E+00
 -1      1408 2.87810E+00
 -1      1409 4.02046E+00
 -1      1410 4.75471E+00
 -1      1411 4.17062E+00
 -1      1412 5.40167E+00
 -1      1413 6.28419E+00
 -1      1414 5.52126E+00
 -1      1415 6.60121E+00
 -1      1416 7.21129E+00
 -1      1417 6.48523E+00
 -1      1418 7.92445E+00
 -1      1419 7.92445E+00
 -1      1420 7.51542E+00
 -1      1421 8.72097E+00
 -1      1422 8.13284E+00
 -1      1423 9.02510E+00
 -1      1424 6.50632E+00
 -1      1425 1.12462E+01
 -1      1426 8.19509E+00
 -1      1427 2.09552E+01
 -1      1428 2.09552E+01
 -1      1429 1.11043E+01
 -1      1430 6.17225E+00
 -1      1431 6.69593E+00
 -1      1432 7.26569E+00
 -1      1433 7.17908E+00
 -1      1434 7.20672E+00
 -1      1435 7.20672E+00
 -1      1436 7.64379E+00
 -1      1437 6.45908E+00
 -1      1438 6.04457E+00
 -1      1439 6.83717E+00
 -1      1440 5.68583E+00
 -1      1441 4.90837E+00
 -1      1442 5.73078E+00
 -1      1443 4.31289E+00
 -1      1444 3.78975E+00
 -1      1445 4.77655E+00
 -1      1446 3.09865E+00
 -1      1447 2.76796E+00
 -1      1448 3.48997E+00
 -1      1449 2.27825E+00
 -1      1450 1.76832E+00
 -1      1451 2.30915E+00
 -1      1452 1.28466E+00
 -1      1453 7.82045E-01
 -1      1454 6.38715E-01
 -1      1455 1.33578E+00
 -1      1456 3.39565E+00
 -1      1457 8.71699E+00
 -1      1458 8.71699E+00
 -1      1459 2.41718E+00
 -1      1460 2.90642E+00
 -1      1461 2.90642E+00
 -1      1462 1.66698E+00
 -1      1463 2.04208E+00
 -1      1464 2.04208E+00
 -1      1465 1.14693E+00
 -1      1466 1.40696E+00
 -1      1467 1.40696E+00
 -1      1468 9.06823E-01
 -1      1469 1.02688E+00
 -1      1470 1.02688E+00
 -1      1471 7.32008E-01
 -1      1472 8.19415E-01
 -1      1473 8.19415E-01
 -1      1474 5.88383E-01
 -1      1475 6.60195E-01
 -1      1476 6.60195E-01
 -1      1477 4.68653E-01
 -1      1478 5.28518E-01
 -1      1479 5.28518E-01
 -1      1480 3.68894E-01
 -1      1481 4.18773E-01
 -1      1482 4.18773E-01
 -1      1483 2.94019E-01
 -1      1484 3.31456E-01
 -1      1485 3.31456E-01
 -1      1486 2.31686E-01
 -1      1487 2.62852E-01
 -1      1488 2.62852E-01
 -1      1489 1.81157E-01
 -1      1490 2.07064E-01
 -1      1491 2.07064E-01
 -1      1492 1.39959E-01
 -1      1493 1.61052E-01
 -1      1494 1.62337E-01
 -1      1495 1.06689E-01
 -1      1496 1.23523E-01
 -1      1497 1.25796E-01
 -1      1498 8.03662E-02
 -1      1499 9.35287E-02
 -1      1500 9.61994E-02
 -1      1501 5.99790E-02
 -1      1502 7.00436E-02
 -1      1503 7.27167E-02
 -1      1504 4.45424E-02
 -1      1505 5.20489E-02
 -1      1506 5.44640E-02
 -1      1507 3.43048E-02
 -1      1508 3.85734E-02
 -1      1509 4.05649E-02
 -1      1510 2.80434E-02
 -1      1511 3.10286E-02
 -1      1512 3.13197E-02
 -1      1513 2.42095E-02
 -1      1514 2.61265E-02
 -1      1515 2.61265E-02
 -1      1516 2.21843E-02
 -1      1517 2.31969E-02
 -1      1518 2.31969E-02
 -1      1519 2.18517E-02
 -1      1520 2.22015E-02
 -1      1521 2.22015E-02
 -1      1522 2.59339E-02
 -1      1523 2.39860E-02
 -1      1524 2.43531E-02
 -1      1525 3.31047E-02
 -1      1526 2.75982E-02
 -1      1527 2.81517E-02
 -1      1528 4.37628E-02
 -1      1529 3.68696E-02
 -1      1530 3.35810E-02
 -1      1531 7.53653E-02
 -1      1532 5.65429E-02
 -1      1533 5.01260E-02
 -1      1534 1.17334E-01
 -1      1535 9.18699E-02
 -1      1536 7.94107E-02
 -1      1537 1.70487E-01
 -1      1538 1.38753E-01
 -1      1539 1.17334E-01
 -1      1540 2.41881E-01
 -1      1541 2.06344E-01
 -1      1542 1.74610E-01
 -1      1543 3.55078E-01
 -1      1544 3.00205E-01
 -1      1545 2.68791E-01
 -1      1546 5.23362E-01
 -1      1547 4.46055E-01
 -1      1548 4.18094E-01
 -1      1549 7.21467E-01
 -1      1550 6.37787E-01
 -1      1551 6.23497E-01
 -1      1552 9.31294E-01
 -1      1553 8.54118E-01
 -1      1554 8.70574E-01
 -1      1555 1.12134E+00
 -1      1556 1.07045E+00
 -1      1557 1.14238E+00
 -1      1558 1.47103E+00
 -1      1559 1.28278E+00
 -1      1560 1.44298E+00
 -1      1561 1.81782E+00
 -1      1562 1.60723E+00
 -1      1563 1.74062E+00
 -1      1564 2.06110E+00
 -1      1565 1.89603E+00
 -1      1566 1.95502E+00
 -1      1567 2.16505E+00
 -1      1568 2.08897E+00
 -1      1569 2.06110E+00
 -1      1570 2.32123E+00
 -1      1571 2.24112E+00
 -1      1572 2.16505E+00
 -1      1573 2.45935E+00
 -1      1574 2.40134E+00
 -1      1575 2.32123E+00
 -1      1576 2.51736E+00
 -1      1577 2.51736E+00
 -1      1578 2.45935E+00
 -1      1579 2.37274E+00
 -1      1580 2.44505E+00
 -1      1581 2.44505E+00
 -1      1582 2.03526E+00
 -1      1583 2.20400E+00
 -1      1584 2.20400E+00
 -1      1585 1.59872E+00
 -1      1586 1.81699E+00
 -1      1587 1.81699E+00
 -1      1588 1.20503E+00
 -1      1589 1.40188E+00
 -1      1590 1.40188E+00
 -1      1591 8.33129E-01
 -1      1592 1.02656E+00
 -1      1593 1.02656E+00
 -1      1594 6.11403E-01
 -1      1595 7.14789E-01
 -1      1596 7.29743E-01
 -1      1597 3.41505E-01
 -1      1598 4.76454E-01
 -1      1599 4.76454E-01
 -1      1600 2.51242E-01
 -1      1601 2.12113E-01
 -1      1602 2.20509E-01
 -1      1603 1.75318E-01
 -1      1604 2.12113E-01
 -1      1605 2.80039E-01
 -1      1606 1.83841E-01
 -1      1607 1.47181E-01
 -1      1608 2.51902E-01
 -1      1609 3.02280E-01
 -1      1610 2.59562E-01
 -1      1611 2.99486E-01
 -1      1612 4.03646E-01
 -1      1613 3.70129E-01
 -1      1614 4.43057E-01
 -1      1615 4.60741E-01
 -1      1616 4.44212E-01
 -1      1617 5.51472E-01
 -1      1618 4.72613E-01
 -1      1619 4.72613E-01
 -1      1620 6.03911E-01
 -1      1621 4.51528E-01
 -1      1622 4.72613E-01
 -1      1623 6.15783E-01
 -1      1624 3.62179E-01
 -1      1625 4.07831E-01
 -1      1626 5.72086E-01
 -1      1627 6.28463E-01
 -1      1628 4.76365E-01
 -1      1629 6.42575E-01
 -1      1630 9.40288E-01
 -1      1631 8.64227E-01
 -1      1632 9.92525E-01
 -1      1633 9.84928E-01
 -1      1634 9.84928E-01
 -1      1635 1.27293E+00
 -1      1636 9.15084E-01
 -1      1637 9.84928E-01
 -1      1638 1.31757E+00
 -1      1639 6.03518E-01
 -1      1640 6.76347E-01
 -1      1641 1.07883E+00
 -1      1642 7.13860E-01
 -1      1643 6.84678E-01
 -1      1644 9.21255E-01
 -1      1645 9.27271E-01
 -1      1646 2.77927E+01
 -1      1647 2.77927E+01
 -1      1648 3.92743E+01
 -1      1649 3.12437E+01
 -1      1650 4.21991E+01
 -1      1651 4.21991E+01
 -1      1652 1.62012E+01
 -1      1653 2.93043E+01
 -1      1654 1.18449E+01
 -1      1655 1.35180E+01
 -1      1656 1.26467E+01
 -1      1657 1.26467E+01
 -1      1658 1.20732E+01
 -1      1659 1.22769E+01
 -1      1660 1.26200E+01
 -1      1661 1.22393E+01
 -1      1662 1.30008E+01
 -1      1663 1.30008E+01
 -1      1664 1.19254E+01
 -1      1665 1.24631E+01
 -1      1666 1.69429E+01
 -1      1667 1.15066E+01
 -1      1668 3.68875E+01
 -1      1669 2.38362E+01
 -1      1670 4.89005E+01
 -1      1671 4.89005E+01
 -1      1672 2.71630E+01
 -1      1673 3.94152E+01
 -1      1674 2.67726E+01
 -1      1675 2.71782E+01
 -1      1676 2.81585E+01
 -1      1677 2.67726E+01
 -1      1678 3.14806E+01
 -1      1679 3.14806E+01
 -1      1680 3.46751E+01
 -1      1681 3.14806E+01
 -1      1682 3.25430E+01
 -1      1683 3.27458E+01
 -1      1684 1.48470E+01
 -1      1685 2.35937E+01
 -1      1686 1.43217E+01
 -1      1687 1.44995E+01
 -1      1688 1.44916E+01
 -1      1689 1.44916E+01
 -1      1690 1.40730E+01
 -1      1691 1.42534E+01
 -1      1692 1.41308E+01
 -1      1693 1.41308E+01
 -1      1694 1.63409E+01
 -1      1695 1.35963E+01
 -1      1696 3.31412E+01
 -1      1697 1.96271E+01
 -1      1698 4.66483E+01
 -1      1699 4.66483E+01
 -1      1700 3.19921E+01
 -1      1701 4.26669E+01
 -1      1702 2.68521E+01
 -1      1703 2.72625E+01
 -1      1704 2.77927E+01
 -1      1705 2.69627E+01
 -1      1706 1.12462E+01
 -1      1707 1.59239E+01
 -1      1708 1.84396E+01
 -1      1709 1.84396E+01
 -1      1710 2.94475E+01
 -1      1711 1.82542E+01
 -1      1712 1.55531E+01
 -1      1713 2.93043E+01
 -1      1714 1.82542E+01
 -1      1715 2.51242E-01
 -1      1716 3.10772E-01
 -1      1717 3.28985E+01
 -1      1718 3.92743E+01
 -1      1719 1.37263E+01
 -1      1720 1.18449E+01
 -1      1721 1.22769E+01
 -1      1722 1.20732E+01
 -1      1723 1.26200E+01
 -1      1724 1.24631E+01
 -1      1725 1.15066E+01
 -1      1726 1.79812E+01
 -1      1727 3.68875E+01
 -1      1728 3.94152E+01
 -1      1729 2.99452E+01
 -1      1730 2.99604E+01
 -1      1731 3.32824E+01
 -1      1732 3.66045E+01
 -1      1733 3.46751E+01
 -1      1734 2.37964E+01
 -1      1735 1.44995E+01
 -1      1736 1.43217E+01
 -1      1737 1.42534E+01
 -1      1738 1.40730E+01
 -1      1739 1.35963E+01
 -1      1740 1.63479E+01
 -1      1741 3.31412E+01
 -1      1742 4.26669E+01
 -1      1743 3.39559E+01
 -1      1744 2.93369E+01
 -1      1745 9.78749E+00
 -1      1746 1.11043E+01
 -1      1747 1.28934E+00
 -1      1748 1.68653E+00
 -1      1749 2.42026E+00
 -1      1750 4.36776E+00
 -1      1751 1.80633E+00
 -1      1752 8.80854E-01
 -1      1753 9.74016E-01
 -1      1754 7.79921E-01
 -1      1755 8.33844E-01
 -1      1756 7.42344E-01
 -1      1757 7.13980E-01
 -1      1758 7.48252E-01
 -1      1759 6.63665E-01
 -1      1760 6.71574E-01
 -1      1761 6.91767E-01
 -1      1762 6.09784E-01
 -1      1763 6.95000E-01
 -1      1764 6.73150E-01
 -1      1765 5.89147E-01
 -1      1766 7.50798E-01
 -1      1767 7.16887E-01
 -1      1768 6.12610E-01
 -1      1769 8.41199E-01
 -1      1770 7.84199E-01
 -1      1771 6.67898E-01
 -1      1772 9.84217E-01
 -1      1773 8.88852E-01
 -1      1774 7.48951E-01
 -1      1775 1.22913E+00
 -1      1776 1.05131E+00
 -1      1777 8.63692E-01
 -1      1778 1.70223E+00
 -1      1779 1.33625E+00
 -1      1780 1.03791E+00
 -1      1781 2.63138E+00
 -1      1782 1.79457E+00
 -1      1783 1.23737E+00
 -1      1784 8.11724E+00
 -1      1785 3.06460E+00
 -1      1786 1.76292E+00
 -1      1787 2.79590E+00
 -1      1788 5.22733E+00
 -1      1789 2.16472E+00
 -1      1790 2.65396E+00
 -1      1791 2.05420E+00
 -1      1792 2.56953E+00
 -1      1793 1.94696E+00
 -1      1794 1.72047E+00
 -1      1795 1.37673E+00
 -1      1796 1.51150E+00
 -1      1797 1.19434E+00
 -1      1798 9.80880E-01
 -1      1799 1.10261E+00
 -1      1800 8.53234E-01
 -1      1801 7.25068E-01
 -1      1802 7.92567E-01
 -1      1803 6.64072E-01
 -1      1804 5.72933E-01
 -1      1805 6.03926E-01
 -1      1806 5.23957E-01
 -1      1807 4.58748E-01
 -1      1808 4.93954E-01
 -1      1809 4.15459E-01
 -1      1810 3.64751E-01
 -1      1811 4.01689E-01
 -1      1812 3.31138E-01
 -1      1813 2.91018E-01
 -1      1814 3.24787E-01
 -1      1815 2.62898E-01
 -1      1816 2.34010E-01
 -1      1817 2.63054E-01
 -1      1818 2.09710E-01
 -1      1819 1.85043E-01
 -1      1820 2.10633E-01
 -1      1821 1.66730E-01
 -1      1822 1.46202E-01
 -1      1823 1.68020E-01
 -1      1824 1.31047E-01
 -1      1825 1.14341E-01
 -1      1826 1.34552E-01
 -1      1827 1.01531E-01
 -1      1828 8.82214E-02
 -1      1829 1.06587E-01
 -1      1830 7.76622E-02
 -1      1831 6.72888E-02
 -1      1832 8.32169E-02
 -1      1833 5.87728E-02
 -1      1834 5.08852E-02
 -1      1835 6.41417E-02
 -1      1836 4.41433E-02
 -1      1837 3.83249E-02
 -1      1838 4.88838E-02
 -1      1839 3.30556E-02
 -1      1840 2.93259E-02
 -1      1841 3.68726E-02
 -1      1842 2.52025E-02
 -1      1843 2.32360E-02
 -1      1844 2.74800E-02
 -1      1845 2.27268E-02
 -1      1846 2.45236E-02
 -1      1847 2.28474E-02
 -1      1848 2.68392E-02
 -1      1849 3.13340E-02
 -1      1850 2.46538E-02
 -1      1851 3.57370E-02
 -1      1852 4.35934E-02
 -1      1853 3.13725E-02
 -1      1854 5.55129E-02
 -1      1855 6.84403E-02
 -1      1856 4.76949E-02
 -1      1857 8.82289E-02
 -1      1858 1.08949E-01
 -1      1859 7.94029E-02
 -1      1860 1.41099E-01
 -1      1861 1.73855E-01
 -1      1862 1.31341E-01
 -1      1863 2.25973E-01
 -1      1864 2.84309E-01
 -1      1865 2.15609E-01
 -1      1866 3.68318E-01
 -1      1867 4.75956E-01
 -1      1868 3.51737E-01
 -1      1869 6.10178E-01
 -1      1870 7.87623E-01
 -1      1871 5.69969E-01
 -1      1872 9.99339E-01
 -1      1873 1.28203E+00
 -1      1874 9.15907E-01
 -1      1875 1.60997E+00
 -1      1876 2.03638E+00
 -1      1877 1.45556E+00
 -1      1878 2.53154E+00
 -1      1879 3.12038E+00
 -1      1880 2.27865E+00
 -1      1881 3.84200E+00
 -1      1882 4.54567E+00
 -1      1883 3.49543E+00
 -1      1884 5.54177E+00
 -1      1885 6.18873E+00
 -1      1886 5.21314E+00
 -1      1887 7.51945E+00
 -1      1888 7.83647E+00
 -1      1889 7.53997E+00
 -1      1890 9.77394E+00
 -1      1891 1.04871E+01
 -1      1892 1.08082E+01
 -1      1893 1.28540E+01
 -1      1894 1.36505E+01
 -1      1895 1.51125E+01
 -1      1896 2.82425E+01
 -1      1897 2.47915E+01
 -1      1898 1.52913E+01
 -1      1899 2.81861E+01
 -1      1900 3.39963E+00
 -1      1901 1.11343E+01
 -1      1902 1.10753E+01
 -1      1903 1.25914E+01
 -1      1904 1.18438E+01
 -1      1905 7.41370E+00
 -1      1906 7.05496E+00
 -1      1907 1.31680E+01
 -1      1908 5.54303E+00
 -1      1909 4.94754E+00
 -1      1910 7.22595E+00
 -1      1911 3.99739E+00
 -1      1912 3.30629E+00
 -1      1913 4.76387E+00
 -1      1914 2.43922E+00
 -1      1915 1.94951E+00
 -1      1916 2.94665E+00
 -1      1917 1.41093E+00
 -1      1918 1.14007E+00
 -1      1919 1.40010E+00
 -1      1920 8.60144E-01
 -1      1921 9.80196E-01
 -1      1922 9.73343E-01
 -1      1923 6.81159E-01
 -1      1924 7.68567E-01
 -1      1925 7.21889E-01
 -1      1926 5.52126E-01
 -1      1927 6.23938E-01
 -1      1928 5.73090E-01
 -1      1929 4.42212E-01
 -1      1930 5.02077E-01
 -1      1931 4.65820E-01
 -1      1932 3.51456E-01
 -1      1933 4.01336E-01
 -1      1934 3.74895E-01
 -1      1935 2.81627E-01
 -1      1936 3.19065E-01
 -1      1937 3.01627E-01
 -1      1938 2.22855E-01
 -1      1939 2.54021E-01
 -1      1940 2.41630E-01
 -1      1941 1.76820E-01
 -1      1942 2.01443E-01
 -1      1943 1.92612E-01
 -1      1944 1.39574E-01
 -1      1945 1.59679E-01
 -1      1946 1.54058E-01
 -1      1947 1.08498E-01
 -1      1948 1.24934E-01
 -1      1949 1.22276E-01
 -1      1950 8.31325E-02
 -1      1951 9.62926E-02
 -1      1952 9.54307E-02
 -1      1953 6.28288E-02
 -1      1954 7.31514E-02
 -1      1955 7.32446E-02
 -1      1956 4.68562E-02
 -1      1957 5.47863E-02
 -1      1958 5.52209E-02
 -1      1959 3.44705E-02
 -1      1960 4.04394E-02
 -1      1961 4.07617E-02
 -1      1962 2.71773E-02
 -1      1963 3.04535E-02
 -1      1964 3.03280E-02
 -1      1965 2.33349E-02
 -1      1966 2.52519E-02
 -1      1967 2.43857E-02
 -1      1968 2.10943E-02
 -1      1969 2.21069E-02
 -1      1970 2.12323E-02
 -1      1971 2.03778E-02
 -1      1972 2.03605E-02
 -1      1973 1.92706E-02
 -1      1974 2.43531E-02
 -1      1975 2.22187E-02
 -1      1976 2.03778E-02
 -1      1977 2.81517E-02
 -1      1978 2.64874E-02
 -1      1979 2.43531E-02
 -1      1980 3.35810E-02
 -1      1981 2.98161E-02
 -1      1982 2.81517E-02
 -1      1983 4.83888E-02
 -1      1984 3.56087E-02
 -1      1985 3.18438E-02
 -1      1986 7.19989E-02
 -1      1987 5.54944E-02
 -1      1988 4.09771E-02
 -1      1989 1.19690E-01
 -1      1990 9.82712E-02
 -1      1991 7.43549E-02
 -1      1992 1.94984E-01
 -1      1993 1.59127E-01
 -1      1994 1.40064E-01
 -1      1995 3.08648E-01
 -1      1996 2.50323E-01
 -1      1997 2.34840E-01
 -1      1998 4.72367E-01
 -1      1999 3.81389E-01
 -1      2000 3.62921E-01
 -1      2001 6.76116E-01
 -1      2002 5.61690E-01
 -1      2003 5.24985E-01
 -1      2004 9.10477E-01
 -1      2005 7.77826E-01
 -1      2006 7.16018E-01
 -1      2007 1.17378E+00
 -1      2008 1.03463E+00
 -1      2009 9.41877E-01
 -1      2010 1.46945E+00
 -1      2011 1.30801E+00
 -1      2012 1.20025E+00
 -1      2013 1.74062E+00
 -1      2014 1.60441E+00
 -1      2015 1.46945E+00
 -1      2016 1.95502E+00
 -1      2017 1.87682E+00
 -1      2018 1.74062E+00
 -1      2019 2.06110E+00
 -1      2020 2.03323E+00
 -1      2021 1.95502E+00
 -1      2022 2.13977E+00
 -1      2023 2.06370E+00
 -1      2024 2.03582E+00
 -1      2025 2.20843E+00
 -1      2026 2.12832E+00
 -1      2027 2.02697E+00
 -1      2028 2.27724E+00
 -1      2029 2.21923E+00
 -1      2030 2.02631E+00
 -1      2031 2.13841E+00
 -1      2032 2.21072E+00
 -1      2033 1.97059E+00
 -1      2034 1.83876E+00
 -1      2035 2.00749E+00
 -1      2036 1.77316E+00
 -1      2037 1.45940E+00
 -1      2038 1.67767E+00
 -1      2039 1.48116E+00
 -1      2040 1.11647E+00
 -1      2041 1.31332E+00
 -1      2042 1.17399E+00
 -1      2043 7.97573E-01
 -1      2044 9.76045E-01
 -1      2045 8.87484E-01
 -1      2046 5.75742E-01
 -1      2047 6.94083E-01
 -1      2048 6.43572E-01
 -1      2049 4.14826E-01
 -1      2050 5.49774E-01
 -1      2051 5.14114E-01
 -1      2052 3.84093E-01
 -1      2053 4.12344E-01
 -1      2054 3.36622E-01
 -1      2055 3.81923E-01
 -1      2056 4.10061E-01
 -1      2057 4.94781E-01
 -1      2058 3.84093E-01
 -1      2059 5.64524E-01
 -1      2060 4.96675E-01
 -1      2061 5.33811E-01
 -1      2062 6.75379E-01
 -1      2063 6.34813E-01
 -1      2064 6.88430E-01
 -1      2065 7.08508E-01
 -1      2066 6.96635E-01
 -1      2067 7.79976E-01
 -1      2068 7.66418E-01
 -1      2069 7.66418E-01
 -1      2070 8.59142E-01
 -1      2071 7.22721E-01
 -1      2072 7.66418E-01
 -1      2073 9.17053E-01
 -1      2074 8.55012E-01
 -1      2075 7.40826E-01
 -1      2076 9.35158E-01
 -1      2077 1.41952E+00
 -1      2078 1.18376E+00
 -1      2079 1.28201E+00
 -1      2080 1.65277E+00
 -1      2081 1.60813E+00
 -1      2082 1.79936E+00
 -1      2083 1.73308E+00
 -1      2084 1.73308E+00
 -1      2085 2.06828E+00
 -1      2086 1.49434E+00
 -1      2087 1.73308E+00
 -1      2088 2.14859E+00
 -1      2089 1.51220E+00
 -1      2090 1.88730E+00
 -1      2091 1.63484E+00
 -1      2092 1.24532E+00
 -1      2093 3.32921E+01
 -1      2094 3.03672E+01
 -1      2095 9.70109E+00
 -1      2096 1.23842E+01
 -1      2097 1.03613E+00
 -1      2098 1.20982E+00
 -1      2099 9.93093E-01
 -1      2100 8.51465E-01
 -1      2101 1.27569E+01
 -1      2102 1.32806E+01
 -1      2103 9.94929E+00
 -1      2104 9.14755E+00
 -1      2105 7.80544E+00
 -1      2106 1.11051E+01
 -1      2107 1.14749E+01
 -1      2108 1.15733E+01
 -1      2109 1.14072E+01
 -1      2110 1.06051E+01
 -1      2111 1.19684E+01
 -1      2112 1.15877E+01
 -1      2113 1.04224E+01
 -1      2114 1.09601E+01
 -1      2115 8.89991E+00
 -1      2116 9.31867E+00
 -1      2117 1.75671E+01
 -1      2118 1.06738E+01
 -1      2119 8.48584E+00
 -1      2120 3.31463E+01
 -1      2121 2.11333E+01
 -1      2122 2.99300E+01
 -1      2123 3.94152E+01
 -1      2124 2.36610E+01
 -1      2125 2.95516E+01
 -1      2126 2.95364E+01
 -1      2127 3.51676E+01
 -1      2128 3.51676E+01
 -1      2129 3.47588E+01
 -1      2130 3.84896E+01
 -1      2131 3.51676E+01
 -1      2132 3.66045E+01
 -1      2133 3.66045E+01
 -1      2134 2.75192E+01
 -1      2135 2.94486E+01
 -1      2136 1.37516E+01
 -1      2137 2.27010E+01
 -1      2138 1.74852E+01
 -1      2139 1.77234E+01
 -1      2140 1.92463E+01
 -1      2141 1.59601E+01
 -1      2142 3.27534E+01
 -1      2143 3.29062E+01
 -1      2144 3.68875E+01
 -1      2145 2.94690E+01
 -1      2146 3.41986E+01
 -1      2147 3.62107E+01
 -1      2148 3.61001E+01
 -1      2149 3.62107E+01
 -1      2150 3.62107E+01
 -1      2151 4.29739E+01
 -1      2152 1.47842E+01
 -1      2153 1.48420E+01
 -1      2154 1.60819E+01
 -1      2155 1.12660E+01
 -1      2156 1.92790E+01
 -1      2157 2.97056E+00
 -1      2158 2.13902E+00
 -1      2159 1.43074E+01
 -1      2160 9.85857E+00
 -1      2161 1.50379E+01
 -1      2162 1.75536E+01
 -1      2163 2.24288E+01
 -1      2164 2.70848E+01
 -1      2165 3.38480E+01
 -1      2166 2.22602E+01
 -1      2167 1.12389E+01
 -1      2168 9.61238E+00
 -1      2169 1.13694E+01
 -1      2170 1.04834E+01
 -1      2171 1.67122E+01
 -1      2172 1.54100E+00
 -1      2173 5.14114E-01
 -1      2174 1.08338E+00
 -1      2175 1.00222E+00
 -1      2176 1.65647E+00
 -1      2177 1.62196E+00
 -1      2178 1.07078E+01
 -1      2179 8.95872E+00
 -1      2180 1.01305E+01
 -1      2181 7.43315E+00
 -1      2182 3.63428E+01
 -1      2183 1.74744E+01
 -1      2184 2.94486E+01
 -1      2185 4.03748E+01
 -1      2186 2.95364E+01
 -1      2187 1.38259E+01
 -1      2188 7.81574E+00
 -1      2189 1.09216E+01
 -1      2190 9.92777E+00
 -1      2191 3.84896E+01
 -1      2192 2.84192E+01
 -1      2193 5.59394E-01
 -1      2194 5.91063E-01
 -1      2195 6.03245E-01
 -1      2196 6.50255E-01
 -1      2197 4.98973E-01
 -1      2198 5.11100E-01
 -1      2199 5.09524E-01
 -1      2200 5.45980E-01
 -1      2201 5.24093E-01
 -1      2202 4.44470E-01
 -1      2203 5.94239E-01
 -1      2204 5.60838E-01
 -1      2205 4.72322E-01
 -1      2206 6.53905E-01
 -1      2207 6.06252E-01
 -1      2208 4.99193E-01
 -1      2209 7.20993E-01
 -1      2210 6.53905E-01
 -1      2211 5.11206E-01
 -1      2212 8.24574E-01
 -1      2213 7.17448E-01
 -1      2214 5.07661E-01
 -1      2215 9.84519E-01
 -1      2216 8.92182E-01
 -1      2217 5.71724E-01
 -1      2218 1.75577E+00
 -1      2219 1.32255E+00
 -1      2220 9.77363E-01
 -1      2221 1.61383E+00
 -1      2222 1.27755E+00
 -1      2223 1.05105E+00
 -1      2224 9.95244E-01
 -1      2225 8.12849E-01
 -1      2226 7.61294E-01
 -1      2227 7.56644E-01
 -1      2228 6.28998E-01
 -1      2229 6.49280E-01
 -1      2230 5.72502E-01
 -1      2231 5.11507E-01
 -1      2232 5.36579E-01
 -1      2233 4.61618E-01
 -1      2234 4.12642E-01
 -1      2235 4.30195E-01
 -1      2236 3.84414E-01
 -1      2237 3.41125E-01
 -1      2238 3.52079E-01
 -1      2239 3.15839E-01
 -1      2240 2.82225E-01
 -1      2241 2.98564E-01
 -1      2242 2.58157E-01
 -1      2243 2.30037E-01
 -1      2244 2.49209E-01
 -1      2245 2.10207E-01
 -1      2246 1.85907E-01
 -1      2247 2.05310E-01
 -1      2248 1.68646E-01
 -1      2249 1.50333E-01
 -1      2250 1.68219E-01
 -1      2251 1.35196E-01
 -1      2252 1.20041E-01
 -1      2253 1.35821E-01
 -1      2254 1.07179E-01
 -1      2255 9.43683E-02
 -1      2256 1.07823E-01
 -1      2257 8.46546E-02
 -1      2258 7.40954E-02
 -1      2259 8.52468E-02
 -1      2260 6.59677E-02
 -1      2261 5.74517E-02
 -1      2262 6.74055E-02
 -1      2263 5.06500E-02
 -1      2264 4.39082E-02
 -1      2265 5.24761E-02
 -1      2266 3.82546E-02
 -1      2267 3.29854E-02
 -1      2268 4.00209E-02
 -1      2269 2.82270E-02
 -1      2270 2.41036E-02
 -1      2271 2.96090E-02
 -1      2272 2.13698E-02
 -1      2273 2.08606E-02
 -1      2274 2.21168E-02
 -1      2275 2.20756E-02
 -1      2276 2.43912E-02
 -1      2277 2.05980E-02
 -1      2278 2.79734E-02
 -1      2279 3.23764E-02
 -1      2280 2.53951E-02
 -1      2281 4.21044E-02
 -1      2282 5.40238E-02
 -1      2283 3.87053E-02
 -1      2284 6.85229E-02
 -1      2285 8.83114E-02
 -1      2286 6.29323E-02
 -1      2287 1.10238E-01
 -1      2288 1.42388E-01
 -1      2289 9.93575E-02
 -1      2290 1.75639E-01
 -1      2291 2.27757E-01
 -1      2292 1.54535E-01
 -1      2293 2.78001E-01
 -1      2294 3.62010E-01
 -1      2295 2.38031E-01
 -1      2296 4.50091E-01
 -1      2297 5.84313E-01
 -1      2298 3.76355E-01
 -1      2299 7.31353E-01
 -1      2300 9.43070E-01
 -1      2301 6.11476E-01
 -1      2302 1.19482E+00
 -1      2303 1.52276E+00
 -1      2304 1.01027E+00
 -1      2305 1.92355E+00
 -1      2306 2.41871E+00
 -1      2307 1.66282E+00
 -1      2308 3.09417E+00
 -1      2309 3.81578E+00
 -1      2310 2.73906E+00
 -1      2311 4.96159E+00
 -1      2312 5.95769E+00
 -1      2313 4.56033E+00
 -1      2314 7.75698E+00
 -1      2315 9.08770E+00
 -1      2316 7.50542E+00
 -1      2317 1.35611E+01
 -1      2318 1.54986E+01
 -1      2319 1.37781E+01
 -1      2320 9.82162E+00
 -1      2321 1.12389E+01
 -1      2322 1.70227E+00
 -1      2323 1.30123E+00
 -1      2324 8.40791E-01
 -1      2325 9.68545E-01
 -1      2326 5.40082E-01
 -1      2327 8.25671E+00
 -1      2328 6.74478E+00
 -1      2329 5.08622E+00
 -1      2330 4.13607E+00
 -1      2331 6.11698E+00
 -1      2332 3.31995E+00
 -1      2333 2.45289E+00
 -1      2334 1.99527E+00
 -1      2335 3.64230E+00
 -1      2336 4.79248E-01
 -1      2337 5.36469E-01
 -1      2338 5.95470E-01
 -1      2339 6.87047E-01
 -1      2340 5.01628E-01
 -1      2341 7.52000E-01
 -1      2342 9.11877E-01
 -1      2343 6.25582E-01
 -1      2344 3.90674E-01
 -1      2345 4.40722E-01
 -1      2346 4.04101E-01
 -1      2347 3.22201E-01
 -1      2348 3.63077E-01
 -1      2349 3.37979E-01
 -1      2350 2.63068E-01
 -1      2351 2.95460E-01
 -1      2352 2.83642E-01
 -1      2353 2.12434E-01
 -1      2354 2.40040E-01
 -1      2355 2.33873E-01
 -1      2356 1.71840E-01
 -1      2357 1.93253E-01
 -1      2358 1.91663E-01
 -1      2359 1.37662E-01
 -1      2360 1.54804E-01
 -1      2361 1.55445E-01
 -1      2362 1.08380E-01
 -1      2363 1.23020E-01
 -1      2364 1.23767E-01
 -1      2365 8.49323E-02
 -1      2366 9.71373E-02
 -1      2367 9.78816E-02
 -1      2368 6.56300E-02
 -1      2369 7.56111E-02
 -1      2370 7.73177E-02
 -1      2371 4.97213E-02
 -1      2372 5.77638E-02
 -1      2373 6.01303E-02
 -1      2374 3.67662E-02
 -1      2375 4.31829E-02
 -1      2376 4.57257E-02
 -1      2377 2.73673E-02
 -1      2378 3.13843E-02
 -1      2379 3.38054E-02
 -1      2380 2.10404E-02
 -1      2381 2.29658E-02
 -1      2382 2.40220E-02
 -1      2383 1.84913E-02
 -1      2384 1.97193E-02
 -1      2385 1.82994E-02
 -1      2386 1.69395E-02
 -1      2387 1.76732E-02
 -1      2388 1.61602E-02
 -1      2389 1.87100E-02
 -1      2390 1.68690E-02
 -1      2391 1.52717E-02
 -1      2392 2.19351E-02
 -1      2393 1.98007E-02
 -1      2394 1.62920E-02
 -1      2395 2.37587E-02
 -1      2396 2.20944E-02
 -1      2397 1.75420E-02
 -1      2398 2.96983E-02
 -1      2399 2.76706E-02
 -1      2400 2.16132E-02
 -1      2401 4.32613E-02
 -1      2402 3.61557E-02
 -1      2403 3.19825E-02
 -1      2404 8.64071E-02
 -1      2405 6.01349E-02
 -1      2406 5.53135E-02
 -1      2407 1.55251E-01
 -1      2408 1.15814E-01
 -1      2409 1.01594E-01
 -1      2410 2.52623E-01
 -1      2411 1.97284E-01
 -1      2412 1.73034E-01
 -1      2413 3.81792E-01
 -1      2414 3.09051E-01
 -1      2415 2.71494E-01
 -1      2416 5.42297E-01
 -1      2417 4.52974E-01
 -1      2418 3.99104E-01
 -1      2419 7.40943E-01
 -1      2420 6.39233E-01
 -1      2421 5.67221E-01
 -1      2422 9.77263E-01
 -1      2423 8.53114E-01
 -1      2424 7.76329E-01
 -1      2425 1.22299E+00
 -1      2426 1.08876E+00
 -1      2427 1.00000E+00
 -1      2428 1.44980E+00
 -1      2429 1.31483E+00
 -1      2430 1.20334E+00
 -1      2431 1.66534E+00
 -1      2432 1.52914E+00
 -1      2433 1.37452E+00
 -1      2434 1.79897E+00
 -1      2435 1.72077E+00
 -1      2436 1.50929E+00
 -1      2437 1.80752E+00
 -1      2438 1.80492E+00
 -1      2439 1.57067E+00
 -1      2440 1.75853E+00
 -1      2441 1.76999E+00
 -1      2442 1.53908E+00
 -1      2443 1.79875E+00
 -1      2444 1.78796E+00
 -1      2445 1.53097E+00
 -1      2446 1.73008E+00
 -1      2447 1.79660E+00
 -1      2448 1.55824E+00
 -1      2449 1.54554E+00
 -1      2450 1.67646E+00
 -1      2451 1.50246E+00
 -1      2452 1.29267E+00
 -1      2453 1.45376E+00
 -1      2454 1.35705E+00
 -1      2455 1.04615E+00
 -1      2456 1.19223E+00
 -1      2457 1.16483E+00
 -1      2458 7.80320E-01
 -1      2459 9.20742E-01
 -1      2460 9.38986E-01
 -1      2461 5.57803E-01
 -1      2462 6.61292E-01
 -1      2463 6.94551E-01
 -1      2464 8.08522E-01
 -1      2465 7.38233E-01
 -1      2466 6.31239E-01
 -1      2467 5.46908E-01
 -1      2468 7.51330E-01
 -1      2469 5.30059E-01
 -1      2470 5.75360E-01
 -1      2471 6.27487E-01
 -1      2472 8.96212E-01
 -1      2473 8.74956E-01
 -1      2474 9.24758E-01
 -1      2475 1.03342E+00
 -1      2476 9.75514E-01
 -1      2477 1.07049E+00
 -1      2478 1.15516E+00
 -1      2479 1.15516E+00
 -1      2480 1.27154E+00
 -1      2481 1.22818E+00
 -1      2482 1.21007E+00
 -1      2483 1.44818E+00
 -1      2484 1.77979E+00
 -1      2485 1.45105E+00
 -1      2486 1.72596E+00
 -1      2487 2.46320E+00
 -1      2488 2.27460E+00
 -1      2489 2.44364E+00
 -1      2490 2.71081E+00
 -1      2491 2.63050E+00
 -1      2492 3.10574E+00
 -1      2493 2.83922E+00
 -1      2494 2.83922E+00
 -1      2495 3.40145E+00
 -1      2496 1.26533E+01
 -1      2497 1.77592E+01
 -1      2498 2.11110E+01
 -1      2499 1.89863E+01
 -1      2500 2.29926E+01
 -1      2501 5.46649E+00
 -1      2502 6.57024E+00
 -1      2503 1.63458E+01
 -1      2504 1.19157E+01
 -1      2505 1.14345E+01
 -1      2506 8.39856E+00
 -1      2507 1.13056E+01
 -1      2508 5.22554E-01
 -1      2509 5.44767E-01
 -1      2510 4.72164E-01
 -1      2511 4.44507E-01
 -1      2512 5.57803E-01
 -1      2513 3.63428E+01
 -1      2514 2.97117E+01
 -1      2515 5.76239E+00
 -1      2516 6.31593E+00
 -1      2517 7.45660E+00
 -1      2518 8.46489E+00
 -1      2519 9.17368E+00
 -1      2520 8.87158E+00
 -1      2521 3.18069E+01
 -1      2522 3.36921E+01
 -1      2523 9.37270E+00
 -1      2524 9.35828E+00
 -1      2525 7.62473E+00
 -1      2526 7.91339E+00
 -1      2527 6.13954E+00
 -1      2528 4.89404E+00
 -1      2529 1.33829E+01
 -1      2530 9.81677E+00
 -1      2531 2.13667E+01
 -1      2532 1.50977E+01
 -1      2533 2.53447E+01
 -1      2534 2.57383E+01
 -1      2535 3.98739E+01
 -1      2536 3.42579E+01
 -1      2537 2.51461E+01
 -1      2538 2.38536E+01
 -1      2539 4.03748E+01
 -1      2540 4.03748E+01
 -1      2541 3.98739E+01
 -1      2542 1.98860E+01
 -1      2543 2.70419E+01
 -1      2544 1.08310E+01
 -1      2545 2.08463E+01
 -1      2546 4.29739E+01
 -1      2547 4.29739E+01
 -1      2548 2.22444E+01
 -1      2549 1.75732E+01
 -1      2550 5.11156E-01
 -1      2551 6.50255E-01
 -1      2552 7.12366E-01
 -1      2553 1.32962E+00
 -1      2554 1.03119E+00
 -1      2555 1.05220E+00
 -1      2556 1.91004E+01
 -1      2557 2.13937E+01
 -1      2558 1.79512E+01
 -1      2559 2.33711E+01
 -1      2560 3.24970E+01
 -1      2561 3.24970E+01
 -1      2562 1.98775E+01
 -1      2563 3.36921E+01
 -1      2564 9.78579E+00
 -1      2565 5.93080E-01
 -1      2566 2.51461E+01
 -1      2567 2.48739E+00
 -1      2568 1.44852E+01
 -1      2569 3.17802E+00
 -1      2570 8.81329E-01
 -1      2571 9.93431E-01
 -1      2572 6.88212E-01
 -1      2573 6.59987E-01
 -1      2574 7.52727E+00
 -1      2575 3.04598E+01
 -1      2576 6.86876E-01
 -1      2577 7.66394E-01
 -1      2578 6.62328E-01
 -1      2579 4.85666E-01
 -1      2580 3.63428E+01
 -1      2581 1.71749E+01
 -1      2582 7.47047E+00
 -1      2583 5.94364E+00
 -1      2584 8.96377E+00
 -1      2585 7.40040E+00
 -1      2586 6.49259E+00
 -1      2587 2.36548E+01
 -1      2588 2.24026E+01
 -1      2589 6.35550E+00
 -1      2590 5.10735E+00
 -1      2591 1.10886E+01
 -1      2592 6.69177E+00
 -1      2593 4.22741E-01
 -1      2594 4.07882E-01
 -1      2595 4.00027E-01
 -1      2596 3.87033E-01
 -1      2597 3.50445E-01
 -1      2598 4.36298E-01
 -1      2599 4.36298E-01
 -1      2600 4.23988E-01
 -1      2601 4.27533E-01
 -1      2602 3.52626E-01
 -1      2603 9.54414E-01
 -1      2604 6.16384E-01
 -1      2605 6.70210E-01
 -1      2606 7.11413E+00
 -1      2607 5.45557E+00
 -1      2608 6.12426E-01
 -1      2609 5.56617E-01
 -1      2610 1.60571E+01
 -1      2611 1.36505E+01
 -1      2612 5.50547E-01
 -1      2613 4.94342E-01
 -1      2614 4.01680E-01
 -1      2615 4.88683E-01
 -1      2616 4.32187E-01
 -1      2617 3.89950E-01
 -1      2618 4.12026E-01
 -1      2619 3.62138E-01
 -1      2620 3.64130E-01
 -1      2621 3.37239E-01
 -1      2622 3.09011E-01
 -1      2623 3.19071E-01
 -1      2624 2.83923E-01
 -1      2625 2.58636E-01
 -1      2626 2.69084E-01
 -1      2627 2.42619E-01
 -1      2628 2.18551E-01
 -1      2629 2.27978E-01
 -1      2630 2.02112E-01
 -1      2631 1.82282E-01
 -1      2632 1.95523E-01
 -1      2633 1.66532E-01
 -1      2634 1.49271E-01
 -1      2635 1.63334E-01
 -1      2636 1.35020E-01
 -1      2637 1.19883E-01
 -1      2638 1.33333E-01
 -1      2639 1.07866E-01
 -1      2640 9.50037E-02
 -1      2641 1.07065E-01
 -1      2642 8.52933E-02
 -1      2643 7.55797E-02
 -1      2644 8.53365E-02
 -1      2645 6.74055E-02
 -1      2646 5.92777E-02
 -1      2647 6.74519E-02
 -1      2648 5.24761E-02
 -1      2649 4.56744E-02
 -1      2650 5.24761E-02
 -1      2651 4.00209E-02
 -1      2652 3.43674E-02
 -1      2653 4.00209E-02
 -1      2654 2.96090E-02
 -1      2655 2.48506E-02
 -1      2656 2.96090E-02
 -1      2657 2.08131E-02
 -1      2658 1.80792E-02
 -1      2659 2.08131E-02
 -1      2660 1.70213E-02
 -1      2661 1.82363E-02
 -1      2662 1.57176E-02
 -1      2663 1.99654E-02
 -1      2664 2.35475E-02
 -1      2665 1.63887E-02
 -1      2666 3.01657E-02
 -1      2667 3.98937E-02
 -1      2668 2.47359E-02
 -1      2669 5.10183E-02
 -1      2670 6.55173E-02
 -1      2671 4.24787E-02
 -1      2672 8.32477E-02
 -1      2673 1.05174E-01
 -1      2674 7.13336E-02
 -1      2675 1.33395E-01
 -1      2676 1.66647E-01
 -1      2677 1.17286E-01
 -1      2678 2.13657E-01
 -1      2679 2.63901E-01
 -1      2680 1.92517E-01
 -1      2681 3.38882E-01
 -1      2682 4.26963E-01
 -1      2683 3.14509E-01
 -1      2684 5.46192E-01
 -1      2685 6.93232E-01
 -1      2686 5.08719E-01
 -1      2687 8.82898E-01
 -1      2688 1.13465E+00
 -1      2689 8.17614E-01
 -1      2690 1.43895E+00
 -1      2691 1.83974E+00
 -1      2692 1.31157E+00
 -1      2693 2.33864E+00
 -1      2694 3.01410E+00
 -1      2695 2.11477E+00
 -1      2696 3.86352E+00
 -1      2697 5.00934E+00
 -1      2698 3.46311E+00
 -1      2699 6.36940E+00
 -1      2700 8.16869E+00
 -1      2701 5.67260E+00
 -1      2702 1.08785E+01
 -1      2703 1.53519E+01
 -1      2704 9.74251E+00
 -1      2705 6.18172E-01
 -1      2706 5.94484E-01
 -1      2707 3.89807E-01
 -1      2708 4.16021E-01
 -1      2709 8.67658E-01
 -1      2710 7.60664E-01
 -1      2711 6.22864E+00
 -1      2712 6.31578E+00
 -1      2713 3.99414E+00
 -1      2714 4.14182E-01
 -1      2715 4.73183E-01
 -1      2716 3.48728E-01
 -1      2717 3.87253E-01
 -1      2718 3.58808E-01
 -1      2719 4.94471E-01
 -1      2720 5.59424E-01
 -1      2721 4.07025E-01
 -1      2722 2.46006E-01
 -1      2723 2.72747E-01
 -1      2724 2.05361E-01
 -1      2725 2.28389E-01
 -1      2726 2.17494E-01
 -1      2727 1.68977E-01
 -1      2728 1.88159E-01
 -1      2729 1.82675E-01
 -1      2730 1.36199E-01
 -1      2731 1.53235E-01
 -1      2732 1.49731E-01
 -1      2733 1.09084E-01
 -1      2734 1.23726E-01
 -1      2735 1.21516E-01
 -1      2736 8.68587E-02
 -1      2737 9.81013E-02
 -1      2738 9.80606E-02
 -1      2739 6.80843E-02
 -1      2740 7.74055E-02
 -1      2741 7.76253E-02
 -1      2742 5.22641E-02
 -1      2743 6.01303E-02
 -1      2744 6.02181E-02
 -1      2745 3.95299E-02
 -1      2746 4.60683E-02
 -1      2747 4.60683E-02
 -1      2748 2.90592E-02
 -1      2749 3.44411E-02
 -1      2750 3.47837E-02
 -1      2751 2.03687E-02
 -1      2752 2.47702E-02
 -1      2753 2.54059E-02
 -1      2754 1.54846E-02
 -1      2755 1.68057E-02
 -1      2756 1.75539E-02
 -1      2757 1.35008E-02
 -1      2758 1.43188E-02
 -1      2759 1.28252E-02
 -1      2760 1.32263E-02
 -1      2761 1.32968E-02
 -1      2762 1.14554E-02
 -1      2763 1.48604E-02
 -1      2764 1.37696E-02
 -1      2765 1.17948E-02
 -1      2766 1.77013E-02
 -1      2767 1.75420E-02
 -1      2768 1.50197E-02
 -1      2769 2.55287E-02
 -1      2770 2.16169E-02
 -1      2771 2.16169E-02
 -1      2772 3.97865E-02
 -1      2773 3.33291E-02
 -1      2774 3.33327E-02
 -1      2775 7.15082E-02
 -1      2776 5.46346E-02
 -1      2777 5.59811E-02
 -1      2778 1.26961E-01
 -1      2779 9.75545E-02
 -1      2780 9.68756E-02
 -1      2781 2.08159E-01
 -1      2782 1.66126E-01
 -1      2783 1.62086E-01
 -1      2784 3.17294E-01
 -1      2785 2.60867E-01
 -1      2786 2.53958E-01
 -1      2787 4.54053E-01
 -1      2788 3.82871E-01
 -1      2789 3.72243E-01
 -1      2790 6.25240E-01
 -1      2791 5.28304E-01
 -1      2792 5.12071E-01
 -1      2793 8.11370E-01
 -1      2794 6.99198E-01
 -1      2795 6.60281E-01
 -1      2796 1.01995E+00
 -1      2797 9.08455E-01
 -1      2798 8.31324E-01
 -1      2799 1.21072E+00
 -1      2800 1.11888E+00
 -1      2801 1.02734E+00
 -1      2802 1.35564E+00
 -1      2803 1.27630E+00
 -1      2804 1.19184E+00
 -1      2805 1.44110E+00
 -1      2806 1.38568E+00
 -1      2807 1.28745E+00
 -1      2808 1.46124E+00
 -1      2809 1.45529E+00
 -1      2810 1.33167E+00
 -1      2811 1.39807E+00
 -1      2812 1.43560E+00
 -1      2813 1.32022E+00
 -1      2814 1.41417E+00
 -1      2815 1.38475E+00
 -1      2816 1.28126E+00
 -1      2817 1.44148E+00
 -1      2818 1.44364E+00
 -1      2819 1.29742E+00
 -1      2820 1.37334E+00
 -1      2821 1.42696E+00
 -1      2822 1.31237E+00
 -1      2823 1.24621E+00
 -1      2824 1.33800E+00
 -1      2825 1.26251E+00
 -1      2826 1.07588E+00
 -1      2827 1.17632E+00
 -1      2828 1.15727E+00
 -1      2829 8.57762E-01
 -1      2830 9.83169E-01
 -1      2831 9.94658E-01
 -1      2832 6.56042E-01
 -1      2833 7.75070E-01
 -1      2834 8.19253E-01
 -1      2835 6.73599E-01
 -1      2836 1.19494E+00
 -1      2837 1.11564E+00
 -1      2838 1.03532E+01
 -1      2839 1.37050E+01
 -1      2840 1.03437E+00
 -1      2841 9.67939E-01
 -1      2842 9.77273E-01
 -1      2843 1.15882E+00
 -1      2844 6.90449E-01
 -1      2845 6.73599E-01
 -1      2846 7.36561E-01
 -1      2847 8.06776E-01
 -1      2848 1.54764E+00
 -1      2849 1.42590E+00
 -1      2850 1.47105E+00
 -1      2851 2.93272E-01
 -1      2852 3.20869E-01
 -1      2853 3.04021E-01
 -1      2854 2.55637E-01
 -1      2855 1.83026E+00
 -1      2856 1.77536E+00
 -1      2857 1.92973E+00
 -1      2858 2.40456E+00
 -1      2859 2.18168E+00
 -1      2860 2.50886E+00
 -1      2861 3.23636E+00
 -1      2862 2.74155E+00
 -1      2863 3.19727E+00
 -1      2864 4.08082E+00
 -1      2865 3.91352E+00
 -1      2866 4.21143E+00
 -1      2867 2.05805E+01
 -1      2868 1.75732E+01
 -1      2869 4.54388E+00
 -1      2870 3.87084E+00
 -1      2871 4.55176E+00
 -1      2872 6.63438E+00
 -1      2873 1.24329E+01
 -1      2874 8.77389E+00
 -1      2875 8.11248E+00
 -1      2876 1.68074E+01
 -1      2877 1.24358E+01
 -1      2878 3.85143E+00
 -1      2879 4.73779E+00
 -1      2880 2.26206E+01
 -1      2881 1.53115E+01
 -1      2882 1.26509E+01
 -1      2883 2.92517E+01
 -1      2884 2.83067E+01
 -1      2885 1.93935E+01
 -1      2886 8.08494E+00
 -1      2887 9.43260E+00
 -1      2888 4.36298E-01
 -1      2889 4.24285E-01
 -1      2890 3.59846E-01
 -1      2891 3.61391E-01
 -1      2892 6.97492E+00
 -1      2893 6.79033E+00
 -1      2894 5.38822E+00
 -1      2895 3.71745E+00
 -1      2896 4.08960E+00
 -1      2897 7.53171E+00
 -1      2898 5.62833E+00
 -1      2899 4.60513E+00
 -1      2900 4.23640E-01
 -1      2901 4.35822E-01
 -1      2902 2.93131E+01
 -1      2903 2.88122E+01
 -1      2904 2.26304E+01
 -1      2905 1.11286E+01
 -1      2906 9.41381E+00
 -1      2907 4.99129E+00
 -1      2908 3.42320E-01
 -1      2909 3.86763E-01
 -1      2910 3.99793E-01
 -1      2911 5.48776E-01
 -1      2912 1.07610E+01
 -1      2913 1.50122E+01
 -1      2914 1.51263E+01
 -1      2915 1.08802E+01
 -1      2916 3.50127E+00
 -1      2917 1.92071E+01
 -1      2918 1.78561E+01
 -1      2919 1.58787E+01
 -1      2920 5.57884E+00
 -1      2921 4.21516E-01
 -1      2922 5.52627E-01
 -1      2923 8.65239E+00
 -1      2924 1.77460E+01
 -1      2925 3.99634E+00
 -1      2926 3.60489E-01
 -1      2927 4.35822E-01
 -1      2928 4.35822E-01
 -1      2929 4.20923E+00
 -1      2930 4.08082E+00
 -1      2931 5.22080E-01
 -1      2932 1.87748E+01
 -1      2933 5.57630E+00
 -1      2934 6.07518E+00
 -1      2935 4.32038E+00
 -1      2936 6.28119E+00
 -1      2937 4.68648E-01
 -1      2938 1.46543E+01
 -1      2939 4.07534E-01
 -1      2940 4.22161E-01
 -1      2941 3.59010E-01
 -1      2942 3.49791E-01
 -1      2943 4.88860E+00
 -1      2944 7.57168E+00
 -1      2945 5.67066E+00
 -1      2946 1.53519E+01
 -1      2947 1.82515E+01
 -1      2948 1.90892E+01
 -1      2949 6.56599E+00
 -1      2950 2.93181E-01
 -1      2951 3.01946E-01
 -1      2952 6.11437E-01
 -1      2953 9.93262E+00
 -1      2954 8.62541E+00
 -1      2955 4.29272E+00
 -1      2956 3.95572E+00
 -1      2957 3.12632E-01
 -1      2958 3.06972E-01
 -1      2959 3.19125E-01
 -1      2960 2.98964E-01
 -1      2961 2.41806E-01
 -1      2962 2.95924E-01
 -1      2963 2.71025E-01
 -1      2964 2.50919E-01
 -1      2965 2.60212E-01
 -1      2966 2.35123E-01
 -1      2967 2.37064E-01
 -1      2968 2.20889E-01
 -1      2969 2.04872E-01
 -1      2970 2.12017E-01
 -1      2971 1.91350E-01
 -1      2972 1.74911E-01
 -1      2973 1.84260E-01
 -1      2974 1.64223E-01
 -1      2975 1.48472E-01
 -1      2976 1.60050E-01
 -1      2977 1.37177E-01
 -1      2978 1.22926E-01
 -1      2979 1.38065E-01
 -1      2980 1.12011E-01
 -1      2981 9.99931E-02
 -1      2982 1.15855E-01
 -1      2983 9.00072E-02
 -1      2984 8.02968E-02
 -1      2985 9.49534E-02
 -1      2986 7.14923E-02
 -1      2987 6.33181E-02
 -1      2988 7.61630E-02
 -1      2989 5.57484E-02
 -1      2990 4.89467E-02
 -1      2991 5.97887E-02
 -1      2992 4.25387E-02
 -1      2993 3.68852E-02
 -1      2994 4.58110E-02
 -1      2995 3.14856E-02
 -1      2996 2.67272E-02
 -1      2997 3.40033E-02
 -1      2998 2.21330E-02
 -1      2999 1.80955E-02
 -1      3000 2.40096E-02
 -1      3001 1.42497E-02
 -1      3002 1.31918E-02
 -1      3003 1.55697E-02
 -1      3004 1.40882E-02
 -1      3005 1.58173E-02
 -1      3006 1.26204E-02
 -1      3007 2.17047E-02
 -1      3008 2.83229E-02
 -1      3009 1.94042E-02
 -1      3010 3.72898E-02
 -1      3011 4.84143E-02
 -1      3012 3.42585E-02
 -1      3013 6.22322E-02
 -1      3014 7.99625E-02
 -1      3015 5.70433E-02
 -1      3016 1.00685E-01
 -1      3017 1.28907E-01
 -1      3018 9.15836E-02
 -1      3019 1.59931E-01
 -1      3020 2.06941E-01
 -1      3021 1.43331E-01
 -1      3022 2.53089E-01
 -1      3023 3.28070E-01
 -1      3024 2.20503E-01
 -1      3025 3.95926E-01
 -1      3026 5.15155E-01
 -1      3027 3.34506E-01
 -1      3028 6.13438E-01
 -1      3029 8.03104E-01
 -1      3030 5.00645E-01
 -1      3031 1.00407E+00
 -1      3032 1.30836E+00
 -1      3033 7.99891E-01
 -1      3034 1.63464E+00
 -1      3035 2.13355E+00
 -1      3036 1.32714E+00
 -1      3037 2.64373E+00
 -1      3038 3.49316E+00
 -1      3039 2.16360E+00
 -1      3040 4.23470E+00
 -1      3041 5.59477E+00
 -1      3042 3.41533E+00
 -1      3043 6.95908E+00
 -1      3044 9.66892E+00
 -1      3045 5.52118E+00
 -1      3046 1.37452E-01
 -1      3047 1.53194E-01
 -1      3048 3.27618E-01
 -1      3049 3.20822E-01
 -1      3050 4.35431E+00
 -1      3051 3.26986E+00
 -1      3052 8.06090E+00
 -1      3053 8.98154E+00
 -1      3054 2.99819E-01
 -1      3055 3.26747E-01
 -1      3056 3.27113E-01
 -1      3057 3.48401E-01
 -1      3058 2.47707E-01
 -1      3059 2.68124E-01
 -1      3060 1.65015E-01
 -1      3061 1.82217E-01
 -1      3062 1.52736E-01
 -1      3063 1.93370E-01
 -1      3064 2.10986E-01
 -1      3065 1.75710E-01
 -1      3066 1.13276E-01
 -1      3067 1.25749E-01
 -1      3068 1.29212E-01
 -1      3069 9.14229E-02
 -1      3070 1.02405E-01
 -1      3071 1.06638E-01
 -1      3072 7.22842E-02
 -1      3073 8.17374E-02
 -1      3074 8.60818E-02
 -1      3075 5.59490E-02
 -1      3076 6.39030E-02
 -1      3077 6.80151E-02
 -1      3078 4.26404E-02
 -1      3079 4.88362E-02
 -1      3080 5.25211E-02
 -1      3081 3.15809E-02
 -1      3082 3.66697E-02
 -1      3083 3.94377E-02
 -1      3084 2.22876E-02
 -1      3085 2.65765E-02
 -1      3086 2.84626E-02
 -1      3087 1.44914E-02
 -1      3088 1.80544E-02
 -1      3089 1.92251E-02
 -1      3090 9.95701E-03
 -1      3091 1.11228E-02
 -1      3092 1.16233E-02
 -1      3093 9.32874E-03
 -1      3094 9.53266E-03
 -1      3095 7.83032E-03
 -1      3096 1.11182E-02
 -1      3097 1.05749E-02
 -1      3098 8.65215E-03
 -1      3099 1.63259E-02
 -1      3100 1.36443E-02
 -1      3101 1.24244E-02
 -1      3102 2.55324E-02
 -1      3103 2.16169E-02
 -1      3104 2.02415E-02
 -1      3105 4.11330E-02
 -1      3106 3.33327E-02
 -1      3107 3.33327E-02
 -1      3108 6.74820E-02
 -1      3109 5.26339E-02
 -1      3110 5.26339E-02
 -1      3111 1.11941E-01
 -1      3112 8.58950E-02
 -1      3113 8.25478E-02
 -1      3114 1.86987E-01
 -1      3115 1.47823E-01
 -1      3116 1.36842E-01
 -1      3117 2.90137E-01
 -1      3118 2.37429E-01
 -1      3119 2.23165E-01
 -1      3120 4.21682E-01
 -1      3121 3.56105E-01
 -1      3122 3.39576E-01
 -1      3123 5.75107E-01
 -1      3124 5.00855E-01
 -1      3125 4.84717E-01
 -1      3126 7.34121E-01
 -1      3127 6.60164E-01
 -1      3128 6.48947E-01
 -1      3129 9.07237E-01
 -1      3130 8.10151E-01
 -1      3131 8.10034E-01
 -1      3132 1.08107E+00
 -1      3133 9.82141E-01
 -1      3134 9.60968E-01
 -1      3135 1.21013E+00
 -1      3136 1.14455E+00
 -1      3137 1.09935E+00
 -1      3138 1.29802E+00
 -1      3139 1.26799E+00
 -1      3140 1.22070E+00
 -1      3141 1.38545E+00
 -1      3142 1.37126E+00
 -1      3143 1.35180E+00
 -1      3144 1.38050E+00
 -1      3145 1.40614E+00
 -1      3146 1.44573E+00
 -1      3147 1.28801E+00
 -1      3148 1.30133E+00
 -1      3149 1.38724E+00
 -1      3150 1.41494E+00
 -1      3151 1.38547E+00
 -1      3152 1.40553E+00
 -1      3153 1.35940E+00
 -1      3154 1.37392E+00
 -1      3155 1.46197E+00
 -1      3156 1.25941E+00
 -1      3157 1.29475E+00
 -1      3158 1.35630E+00
 -1      3159 1.11630E+00
 -1      3160 1.18619E+00
 -1      3161 1.21844E+00
 -1      3162 1.00036E+00
 -1      3163 1.09307E+00
 -1      3164 1.12199E+00
 -1      3165 8.81993E-01
 -1      3166 9.64686E-01
 -1      3167 1.06310E+00
 -1      3168 8.81993E-01
 -1      3169 3.26241E+00
 -1      3170 2.91099E+00
 -1      3171 4.35786E+00
 -1      3172 3.07743E+00
 -1      3173 3.05803E+00
 -1      3174 6.17322E+00
 -1      3175 6.17322E+00
 -1      3176 5.28456E+00
 -1      3177 4.60739E+00
 -1      3178 5.36585E+00
 -1      3179 6.56918E+00
 -1      3180 5.88686E+00
 -1      3181 5.46139E+00
 -1      3182 6.81753E+00
 -1      3183 4.93542E+00
 -1      3184 3.60016E+00
 -1      3185 2.51461E+01
 -1      3186 5.04078E-01
 -1      3187 5.22896E+00
 -1      3188 4.66727E+00
 -1      3189 3.87506E-01
 -1      3190 3.62016E-01
 -1      3191 3.17860E-01
 -1      3192 3.12172E-01
 -1      3193 2.29486E+00
 -1      3194 2.06714E+00
 -1      3195 3.04841E+00
 -1      3196 1.36597E+01
 -1      3197 1.10736E+01
 -1      3198 4.88983E+00
 -1      3199 6.34038E+00
 -1      3200 1.34712E+01
 -1      3201 1.05926E+01
 -1      3202 3.79290E-01
 -1      3203 1.53519E+01
 -1      3204 1.48464E+01
 -1      3205 1.12656E+01
 -1      3206 1.24523E+01
 -1      3207 4.03573E+00
 -1      3208 3.10818E+00
 -1      3209 3.23352E-01
 -1      3210 3.15496E-01
 -1      3211 1.63829E+00
 -1      3212 1.40734E+00
 -1      3213 2.00342E+00
 -1      3214 3.08887E+00
 -1      3215 3.92318E+00
 -1      3216 3.29859E-01
 -1      3217 3.23789E-01
 -1      3218 2.40811E-01
 -1      3219 1.67165E+01
 -1      3220 1.84001E+01
 -1      3221 2.27791E+01
 -1      3222 2.94618E+01
 -1      3223 6.95528E+00
 -1      3224 1.84001E+01
 -1      3225 3.68585E+00
 -1      3226 8.93798E+00
 -1      3227 2.97268E+00
 -1      3228 3.39652E+00
 -1      3229 4.23503E+00
 -1      3230 3.35803E-01
 -1      3231 1.29397E+01
 -1      3232 1.28227E+00
 -1      3233 1.20100E+00
 -1      3234 1.44951E+00
 -1      3235 2.02995E-01
 -1      3236 2.27120E-01
 -1      3237 2.47646E-01
 -1      3238 9.66892E+00
 -1      3239 2.34713E-01
 -1      3240 3.28611E-01
 -1      3241 2.82662E+00
 -1      3242 3.11990E-01
 -1      3243 3.11720E-01
 -1      3244 2.84896E-01
 -1      3245 2.62219E-01
 -1      3246 2.90077E-01
 -1      3247 2.58016E-01
 -1      3248 2.33702E-01
 -1      3249 4.20443E+00
 -1      3250 4.88356E+00
 -1      3251 3.97200E+00
 -1      3252 1.13464E+00
 -1      3253 1.03436E+00
 -1      3254 1.25809E+00
 -1      3255 2.57912E-01
 -1      3256 3.21287E-01
 -1      3257 3.21287E-01
 -1      3258 7.57731E+00
 -1      3259 4.94106E+00
 -1      3260 6.74894E+00
 -1      3261 8.61504E+00
 -1      3262 3.98236E+00
 -1      3263 3.20342E-01
 -1      3264 3.20342E-01
 -1      3265 2.60897E-01
 -1      3266 4.97058E+00
 -1      3267 1.25525E+01
 -1      3268 6.66953E+00
 -1      3269 9.52209E-01
 -1      3270 1.10958E+00
 -1      3271 3.23352E-01
 -1      3272 2.88402E-01
 -1      3273 3.24896E-01
 -1      3274 3.03501E+00
 -1      3275 3.23824E-01
 -1      3276 3.25303E-01
 -1      3277 2.86101E-01
 -1      3278 1.02887E+01
 -1      3279 1.80373E-01
 -1      3280 1.88162E-01
 -1      3281 2.06558E-01
 -1      3282 2.13105E-01
 -1      3283 2.10064E-01
 -1      3284 2.14653E-01
 -1      3285 2.03840E-01
 -1      3286 1.76840E-01
 -1      3287 2.00307E-01
 -1      3288 1.86072E-01
 -1      3289 1.77895E-01
 -1      3290 1.78235E-01
 -1      3291 1.64713E-01
 -1      3292 1.66525E-01
 -1      3293 1.54816E-01
 -1      3294 1.44128E-01
 -1      3295 1.48791E-01
 -1      3296 1.35785E-01
 -1      3297 1.24489E-01
 -1      3298 1.30552E-01
 -1      3299 1.16180E-01
 -1      3300 1.05265E-01
 -1      3301 1.13900E-01
 -1      3302 9.68286E-02
 -1      3303 8.68428E-02
 -1      3304 9.71544E-02
 -1      3305 7.88532E-02
 -1      3306 7.00486E-02
 -1      3307 8.07284E-02
 -1      3308 6.28119E-02
 -1      3309 5.52422E-02
 -1      3310 6.55021E-02
 -1      3311 4.88819E-02
 -1      3312 4.24739E-02
 -1      3313 5.19051E-02
 -1      3314 3.69906E-02
 -1      3315 3.15910E-02
 -1      3316 4.00616E-02
 -1      3317 2.69094E-02
 -1      3318 2.23153E-02
 -1      3319 2.98967E-02
 -1      3320 1.83200E-02
 -1      3321 1.44742E-02
 -1      3322 2.12198E-02
 -1      3323 1.44463E-02
 -1      3324 1.53427E-02
 -1      3325 1.71966E-02
 -1      3326 1.66692E-02
 -1      3327 2.25566E-02
 -1      3328 1.84951E-02
 -1      3329 2.83826E-02
 -1      3330 3.73495E-02
 -1      3331 2.56475E-02
 -1      3332 4.60257E-02
 -1      3333 5.98435E-02
 -1      3334 4.01497E-02
 -1      3335 7.16239E-02
 -1      3336 9.23464E-02
 -1      3337 6.06063E-02
 -1      3338 1.13134E-01
 -1      3339 1.44159E-01
 -1      3340 9.31744E-02
 -1      3341 1.79654E-01
 -1      3342 2.25801E-01
 -1      3343 1.49457E-01
 -1      3344 2.81149E-01
 -1      3345 3.49005E-01
 -1      3346 2.40300E-01
 -1      3347 4.33094E-01
 -1      3348 5.31377E-01
 -1      3349 3.79737E-01
 -1      3350 6.54263E-01
 -1      3351 8.55226E-01
 -1      3352 5.86712E-01
 -1      3353 1.05269E+00
 -1      3354 1.37897E+00
 -1      3355 9.07057E-01
 -1      3356 1.78978E+00
 -1      3357 2.29996E+00
 -1      3358 1.51532E+00
 -1      3359 2.87270E+00
 -1      3360 3.61424E+00
 -1      3361 2.49887E+00
 -1      3362 4.45292E+00
 -1      3363 5.81723E+00
 -1      3364 3.91029E+00
 -1      3365 9.76068E-02
 -1      3366 1.08478E-01
 -1      3367 3.31375E+00
 -1      3368 2.69761E+00
 -1      3369 2.65695E+00
 -1      3370 2.46451E+00
 -1      3371 1.17302E-01
 -1      3372 1.29004E-01
 -1      3373 1.08270E-01
 -1      3374 1.58869E-01
 -1      3375 1.70022E-01
 -1      3376 7.93673E-02
 -1      3377 8.90528E-02
 -1      3378 9.08924E-02
 -1      3379 6.31322E-02
 -1      3380 7.15134E-02
 -1      3381 7.44844E-02
 -1      3382 4.90528E-02
 -1      3383 5.61655E-02
 -1      3384 5.96639E-02
 -1      3385 3.70428E-02
 -1      3386 4.30135E-02
 -1      3387 4.66580E-02
 -1      3388 2.68648E-02
 -1      3389 3.18692E-02
 -1      3390 3.54450E-02
 -1      3391 1.81962E-02
 -1      3392 2.24293E-02
 -1      3393 2.58360E-02
 -1      3394 1.09622E-02
 -1      3395 1.43308E-02
 -1      3396 1.75351E-02
 -1      3397 8.66191E-03
 -1      3398 9.08626E-03
 -1      3399 1.17937E-02
 -1      3400 9.32987E-03
 -1      3401 8.08369E-03
 -1      3402 9.33962E-03
 -1      3403 1.45750E-02
 -1      3404 1.20490E-02
 -1      3405 1.14805E-02
 -1      3406 2.37938E-02
 -1      3407 1.85029E-02
 -1      3408 1.81274E-02
 -1      3409 3.80728E-02
 -1      3410 3.02725E-02
 -1      3411 2.85340E-02
 -1      3412 6.23321E-02
 -1      3413 5.08313E-02
 -1      3414 4.77711E-02
 -1      3415 1.00679E-01
 -1      3416 8.22659E-02
 -1      3417 8.04633E-02
 -1      3418 1.64504E-01
 -1      3419 1.28623E-01
 -1      3420 1.28341E-01
 -1      3421 2.51461E-01
 -1      3422 2.01018E-01
 -1      3423 1.92800E-01
 -1      3424 3.63359E-01
 -1      3425 2.97391E-01
 -1      3426 2.75244E-01
 -1      3427 5.19130E-01
 -1      3428 4.39956E-01
 -1      3429 3.97772E-01
 -1      3430 7.00121E-01
 -1      3431 6.15064E-01
 -1      3432 5.70304E-01
 -1      3433 8.78767E-01
 -1      3434 8.02737E-01
 -1      3435 7.68854E-01
 -1      3436 1.03587E+00
 -1      3437 9.60968E-01
 -1      3438 9.53671E-01
 -1      3439 1.20263E+00
 -1      3440 1.13915E+00
 -1      3441 1.13915E+00
 -1      3442 1.31000E+00
 -1      3443 1.25213E+00
 -1      3444 1.29193E+00
 -1      3445 1.42504E+00
 -1      3446 1.35180E+00
 -1      3447 1.38324E+00
 -1      3448 1.57430E+00
 -1      3449 1.55361E+00
 -1      3450 1.55361E+00
 -1      3451 1.50316E+00
 -1      3452 1.58233E+00
 -1      3453 1.69021E+00
 -1      3454 1.59777E+00
 -1      3455 1.50030E+00
 -1      3456 1.69539E+00
 -1      3457 2.19799E+00
 -1      3458 2.23901E+00
 -1      3459 2.33378E+00
 -1      3460 1.80431E+00
 -1      3461 1.86896E+00
 -1      3462 2.64600E+00
 -1      3463 2.03714E+00
 -1      3464 2.11035E+00
 -1      3465 2.62301E+00
 -1      3466 1.10661E+00
 -1      3467 1.12984E+00
 -1      3468 2.02176E+00
 -1      3469 1.14525E+00
 -1      3470 6.72061E+00
 -1      3471 6.02730E+00
 -1      3472 8.61924E+00
 -1      3473 7.07900E+00
 -1      3474 9.86243E+00
 -1      3475 6.01074E+00
 -1      3476 3.91268E+00
 -1      3477 3.33157E+00
 -1      3478 3.06229E-01
 -1      3479 2.46387E+00
 -1      3480 2.03502E+00
 -1      3481 2.72921E+00
 -1      3482 1.07258E+01
 -1      3483 1.14782E+01
 -1      3484 9.43536E+00
 -1      3485 2.67027E-01
 -1      3486 3.68585E+00
 -1      3487 3.05431E+00
 -1      3488 2.79481E+00
 -1      3489 3.76146E+00
 -1      3490 3.16083E-01
 -1      3491 3.23824E-01
 -1      3492 2.90116E-01
 -1      3493 8.20966E+00
 -1      3494 7.06872E+00
 -1      3495 1.03386E+01
 -1      3496 2.51899E-01
 -1      3497 2.36841E-01
 -1      3498 2.25683E-01
 -1      3499 1.84558E-01
 -1      3500 1.96711E-01
 -1      3501 1.55857E-01
 -1      3502 1.80588E-01
 -1      3503 2.60033E+00
 -1      3504 2.58103E+00
 -1      3505 2.60033E+00
 -1      3506 1.37365E-01
 -1      3507 1.49186E-01
 -1      3508 1.43499E-01
 -1      3509 1.25455E-01
 -1      3510 8.67572E+00
 -1      3511 4.24264E+00
 -1      3512 4.05432E+00
 -1      3513 3.31878E+00
 -1      3514 1.15309E+00
 -1      3515 8.36108E+00
 -1      3516 2.43725E+00
 -1      3517 2.77575E+00
 -1      3518 2.26758E+00
 -1      3519 2.01156E-01
 -1      3520 2.03502E+00
 -1      3521 1.90996E+00
 -1      3522 2.49547E+00
 -1      3523 1.79923E-01
 -1      3524 1.96056E-01
 -1      3525 1.63082E-01
 -1      3526 2.36013E+00
 -1      3527 6.80646E+00
 -1      3528 2.52373E-01
 -1      3529 2.48867E-01
 -1      3530 7.47242E+00
 -1      3531 3.16996E+00
 -1      3532 3.89789E+00
 -1      3533 3.32007E+00
 -1      3534 8.93392E+00
 -1      3535 5.67650E+00
 -1      3536 4.67247E+00
 -1      3537 2.85754E-01
 -1      3538 1.74795E+00
 -1      3539 1.68160E+00
 -1      3540 1.64296E+00
 -1      3541 2.33347E+00
 -1      3542 6.02062E+00
 -1      3543 3.95598E+00
 -1      3544 3.81028E+00
 -1      3545 3.17874E+00
 -1      3546 3.46488E+00
 -1      3547 2.76843E+00
 -1      3548 2.19976E-01
 -1      3549 2.20342E-01
 -1      3550 2.55915E-01
 -1      3551 2.96947E+00
 -1      3552 2.83847E-01
 -1      3553 2.18756E-01
 -1      3554 2.28498E-01
 -1      3555 1.80716E-01
 -1      3556 2.52373E-01
 -1      3557 2.52373E-01
 -1      3558 2.16343E-01
 -1      3559 3.01467E+00
 -1      3560 2.56069E+00
 -1      3561 1.58152E-01
 -1      3562 1.54619E-01
 -1      3563 1.54407E-01
 -1      3564 1.46570E-01
 -1      3565 1.34664E-01
 -1      3566 1.42222E-01
 -1      3567 1.32326E-01
 -1      3568 1.30104E-01
 -1      3569 1.25673E-01
 -1      3570 1.17330E-01
 -1      3571 1.19104E-01
 -1      3572 1.09709E-01
 -1      3573 1.01400E-01
 -1      3574 1.04830E-01
 -1      3575 9.51145E-02
 -1      3576 8.66781E-02
 -1      3577 9.09235E-02
 -1      3578 8.01445E-02
 -1      3579 7.21549E-02
 -1      3580 7.81046E-02
 -1      3581 6.58599E-02
 -1      3582 5.86231E-02
 -1      3583 6.52760E-02
 -1      3584 5.28577E-02
 -1      3585 4.64974E-02
 -1      3586 5.32155E-02
 -1      3587 4.13956E-02
 -1      3588 3.59123E-02
 -1      3589 4.23482E-02
 -1      3590 3.15111E-02
 -1      3591 2.68295E-02
 -1      3592 3.28452E-02
 -1      3593 2.31140E-02
 -1      3594 1.91187E-02
 -1      3595 2.47284E-02
 -1      3596 1.84505E-02
 -1      3597 1.84226E-02
 -1      3598 2.03447E-02
 -1      3599 1.86532E-02
 -1      3600 1.99796E-02
 -1      3601 1.99071E-02
 -1      3602 2.33462E-02
 -1      3603 2.91722E-02
 -1      3604 2.35043E-02
 -1      3605 3.55079E-02
 -1      3606 4.41841E-02
 -1      3607 3.32067E-02
 -1      3608 5.43553E-02
 -1      3609 6.61357E-02
 -1      3610 4.97135E-02
 -1      3611 8.18346E-02
 -1      3612 1.02622E-01
 -1      3613 7.55836E-02
 -1      3614 1.26039E-01
 -1      3615 1.61534E-01
 -1      3616 1.14699E-01
 -1      3617 1.95117E-01
 -1      3618 2.50465E-01
 -1      3619 1.71699E-01
 -1      3620 3.08509E-01
 -1      3621 3.92598E-01
 -1      3622 2.63326E-01
 -1      3623 5.03455E-01
 -1      3624 6.26341E-01
 -1      3625 4.32226E-01
 -1      3626 7.95217E-01
 -1      3627 9.92677E-01
 -1      3628 7.11960E-01
 -1      3629 1.22797E+00
 -1      3630 1.63878E+00
 -1      3631 1.11613E+00
 -1      3632 1.92613E+00
 -1      3633 2.49887E+00
 -1      3634 1.63878E+00
 -1      3635 3.07162E+00
 -1      3636 3.91029E+00
 -1      3637 2.49887E+00
 -1      3638 6.70458E-02
 -1      3639 7.48998E-02
 -1      3640 1.53009E-01
 -1      3641 2.03064E-01
 -1      3642 2.17637E-01
 -1      3643 1.88118E-01
 -1      3644 1.79991E-01
 -1      3645 5.31344E+00
 -1      3646 4.99366E+00
 -1      3647 8.15624E-02
 -1      3648 9.01164E-02
 -1      3649 7.41238E-02
 -1      3650 4.22271E-02
 -1      3651 4.82664E-02
 -1      3652 3.21573E-02
 -1      3653 3.73309E-02
 -1      3654 3.89393E-02
 -1      3655 2.34712E-02
 -1      3656 2.79066E-02
 -1      3657 2.97925E-02
 -1      3658 1.58804E-02
 -1      3659 1.97458E-02
 -1      3660 2.18165E-02
 -1      3661 1.26458E-02
 -1      3662 1.45217E-02
 -1      3663 1.67324E-02
 -1      3664 1.12503E-02
 -1      3665 1.18285E-02
 -1      3666 1.45565E-02
 -1      3667 1.48490E-02
 -1      3668 1.21299E-02
 -1      3669 1.46188E-02
 -1      3670 2.19952E-02
 -1      3671 1.80673E-02
 -1      3672 1.87168E-02
 -1      3673 3.54483E-02
 -1      3674 2.89696E-02
 -1      3675 2.89095E-02
 -1      3676 5.73088E-02
 -1      3677 4.45504E-02
 -1      3678 4.49860E-02
 -1      3679 9.03617E-02
 -1      3680 7.04279E-02
 -1      3681 6.72072E-02
 -1      3682 1.44951E-01
 -1      3683 1.17007E-01
 -1      3684 1.06971E-01
 -1      3685 2.21482E-01
 -1      3686 1.84968E-01
 -1      3687 1.73633E-01
 -1      3688 3.21175E-01
 -1      3689 2.75244E-01
 -1      3690 2.67412E-01
 -1      3691 4.63787E-01
 -1      3692 3.87190E-01
 -1      3693 3.87190E-01
 -1      3694 6.33144E-01
 -1      3695 5.37210E-01
 -1      3696 5.26627E-01
 -1      3697 8.46049E-01
 -1      3698 7.43434E-01
 -1      3699 7.10340E-01
 -1      3700 1.03047E+00
 -1      3701 9.48265E-01
 -1      3702 9.22845E-01
 -1      3703 1.54699E+00
 -1      3704 1.44371E+00
 -1      3705 1.43831E+00
 -1      3706 1.48336E+00
 -1      3707 1.43386E+00
 -1      3708 1.73842E+00
 -1      3709 1.81412E+00
 -1      3710 1.77232E+00
 -1      3711 1.91425E+00
 -1      3712 1.68218E+00
 -1      3713 1.55361E+00
 -1      3714 1.94269E+00
 -1      3715 2.35589E+00
 -1      3716 2.34786E+00
 -1      3717 2.34786E+00
 -1      3718 2.97502E+00
 -1      3719 2.33378E+00
 -1      3720 2.64600E+00
 -1      3721 2.97502E+00
 -1      3722 2.95204E+00
 -1      3723 2.55026E+00
 -1      3724 4.32835E+00
 -1      3725 5.59013E+00
 -1      3726 5.12407E+00
 -1      3727 3.48968E+00
 -1      3728 2.68394E-01
 -1      3729 2.72757E-01
 -1      3730 2.35870E-01
 -1      3731 2.53469E+00
 -1      3732 9.69073E-02
 -1      3733 1.05731E-01
 -1      3734 8.75773E-02
 -1      3735 2.53770E+00
 -1      3736 2.75148E+00
 -1      3737 2.72757E-01
 -1      3738 2.38555E-01
 -1      3739 2.72757E-01
 -1      3740 2.53469E+00
 -1      3741 5.38546E-02
 -1      3742 6.08212E-02
 -1      3743 4.94237E-02
 -1      3744 4.50565E+00
 -1      3745 3.47728E+00
 -1      3746 2.76083E+00
 -1      3747 2.08621E+00
 -1      3748 1.46685E-01
 -1      3749 1.51274E-01
 -1      3750 1.27997E-01
 -1      3751 2.31296E-01
 -1      3752 2.35850E-01
 -1      3753 1.99821E-01
 -1      3754 1.58561E-01
 -1      3755 2.89356E+00
 -1      3756 2.90117E+00
 -1      3757 6.12366E-02
 -1      3758 1.44489E-01
 -1      3759 1.54390E-01
 -1      3760 2.90881E+00
 -1      3761 3.07562E+00
 -1      3762 2.19236E+00
 -1      3763 2.55397E-01
 -1      3764 1.55633E-01
 -1      3765 1.36447E-01
 -1      3766 2.95204E+00
 -1      3767 2.71226E+00
 -1      3768 3.16996E+00
 -1      3769 3.01353E+00
 -1      3770 2.34634E+00
 -1      3771 3.00398E+00
 -1      3772 3.00398E+00
 -1      3773 2.34348E+00
 -1      3774 2.97502E+00
 -1      3775 2.92905E+00
 -1      3776 3.31051E+00
 -1      3777 1.41401E-01
 -1      3778 1.15835E-01
 -1      3779 1.25007E-01
 -1      3780 4.09711E+00
 -1      3781 3.14880E+00
 -1      3782 1.28610E-01
 -1      3783 1.38294E-01
 -1      3784 1.29601E-01
 -1      3785 2.15450E+00
 -1      3786 2.12724E+00
 -1      3787 1.94587E+00
 -1      3788 2.04130E-01
 -1      3789 2.23657E-01
 -1      3790 1.97430E-01
 -1      3791 1.84089E-01
 -1      3792 1.84089E-01
 -1      3793 1.71876E-01
 -1      3794 1.61185E-01
 -1      3795 2.35814E+00
 -1      3796 3.79847E+00
 -1      3797 1.12557E-01
 -1      3798 1.20918E-01
 -1      3799 1.01194E-01
 -1      3800 1.52401E-01
 -1      3801 1.43879E-01
 -1      3802 3.13909E+00
 -1      3803 1.27317E-01
 -1      3804 1.18489E-01
 -1      3805 1.14141E-01
 -1      3806 1.11518E-01
 -1      3807 1.04865E-01
 -1      3808 9.99021E-02
 -1      3809 1.00191E-01
 -1      3810 9.25696E-02
 -1      3811 9.26045E-02
 -1      3812 8.69290E-02
 -1      3813 8.06437E-02
 -1      3814 8.22899E-02
 -1      3815 7.47417E-02
 -1      3816 6.82081E-02
 -1      3817 7.07472E-02
 -1      3818 6.28809E-02
 -1      3819 5.65859E-02
 -1      3820 5.95180E-02
 -1      3821 5.18223E-02
 -1      3822 4.60569E-02
 -1      3823 4.94273E-02
 -1      3824 4.17213E-02
 -1      3825 3.66195E-02
 -1      3826 4.03281E-02
 -1      3827 3.28241E-02
 -1      3828 2.84229E-02
 -1      3829 3.21972E-02
 -1      3830 2.61974E-02
 -1      3831 2.24819E-02
 -1      3832 2.61763E-02
 -1      3833 2.11008E-02
 -1      3834 2.04326E-02
 -1      3835 2.25698E-02
 -1      3836 2.02985E-02
 -1      3837 2.05291E-02
 -1      3838 2.10546E-02
 -1      3839 2.26585E-02
 -1      3840 2.60251E-02
 -1      3841 2.30499E-02
 -1      3842 3.00456E-02
 -1      3843 3.63813E-02
 -1      3844 2.91997E-02
 -1      3845 4.26515E-02
 -1      3846 5.28227E-02
 -1      3847 3.94904E-02
 -1      3848 6.19584E-02
 -1      3849 7.76572E-02
 -1      3850 5.48964E-02
 -1      3851 9.41479E-02
 -1      3852 1.17565E-01
 -1      3853 8.05227E-02
 -1      3854 1.49485E-01
 -1      3855 1.83067E-01
 -1      3856 1.28933E-01
 -1      3857 2.32207E-01
 -1      3858 2.90251E-01
 -1      3859 2.09993E-01
 -1      3860 3.62042E-01
 -1      3861 4.72898E-01
 -1      3862 3.30923E-01
 -1      3863 5.70254E-01
 -1      3864 7.39131E-01
 -1      3865 5.00069E-01
 -1      3866 8.80837E-01
 -1      3867 1.11613E+00
 -1      3868 7.39131E-01
 -1      3869 1.40462E+00
 -1      3870 1.69197E+00
 -1      3871 1.16932E+00
 -1      3872 2.00111E+00
 -1      3873 2.57386E+00
 -1      3874 1.76695E+00
 -1      3875 1.38896E-01
 -1      3876 1.57489E-01
 -1      3877 1.64497E-01
 -1      3878 2.98473E+00
 -1      3879 2.74474E+00
 -1      3880 6.48466E-02
 -1      3881 7.15091E-02
 -1      3882 2.61253E-02
 -1      3883 3.03759E-02
 -1      3884 3.40810E-02
 -1      3885 3.89772E-02
 -1      3886 3.04138E-02
 -1      3887 1.76982E-02
 -1      3888 1.90569E-02
 -1      3889 1.62367E-02
 -1      3890 1.70539E-02
 -1      3891 1.93784E-02
 -1      3892 1.72424E-02
 -1      3893 1.63628E-02
 -1      3894 1.88603E-02
 -1      3895 2.28725E-02
 -1      3896 1.96542E-02
 -1      3897 2.13981E-02
 -1      3898 3.50803E-02
 -1      3899 2.81058E-02
 -1      3900 2.90432E-02
 -1      3901 5.39645E-02
 -1      3902 4.48624E-02
 -1      3903 4.40587E-02
 -1      3904 8.32818E-02
 -1      3905 7.01627E-02
 -1      3906 7.00390E-02
 -1      3907 1.34227E-01
 -1      3908 1.07582E-01
 -1      3909 1.10538E-01
 -1      3910 2.06844E-01
 -1      3911 1.66827E-01
 -1      3912 1.67438E-01
 -1      3913 3.00546E-01
 -1      3914 2.46784E-01
 -1      3915 2.39977E-01
 -1      3916 4.30828E-01
 -1      3917 3.64814E-01
 -1      3918 3.44185E-01
 -1      3919 6.00050E-01
 -1      3920 5.26627E-01
 -1      3921 5.04251E-01
 -1      3922 8.20629E-01
 -1      3923 7.10340E-01
 -1      3924 7.10340E-01
 -1      3925 1.02506E+00
 -1      3926 9.22845E-01
 -1      3927 9.22845E-01
 -1      3928 1.86456E+00
 -1      3929 1.45132E+00
 -1      3930 1.45132E+00
 -1      3931 1.81973E+00
 -1      3932 1.93286E+00
 -1      3933 2.10868E+00
 -1      3934 2.07907E+00
 -1      3935 2.55026E+00
 -1      3936 2.90546E+00
 -1      3937 3.32352E+00
 -1      3938 3.51289E+00
 -1      3939 7.71205E-02
 -1      3940 8.39114E-02
 -1      3941 6.78433E-02
 -1      3942 1.77707E-01
 -1      3943 1.82974E-01
 -1      3944 2.02546E-02
 -1      3945 2.39800E-02
 -1      3946 2.12204E-02
 -1      3947 2.23657E-01
 -1      3948 2.23657E-01
 -1      3949 1.51235E-01
 -1      3950 1.91917E-01
 -1      3951 4.32048E-02
 -1      3952 4.87930E-02
 -1      3953 3.83465E-02
 -1      3954 1.17810E-01
 -1      3955 1.17599E-01
 -1      3956 1.01636E-01
 -1      3957 3.13909E+00
 -1      3958 1.63400E-01
 -1      3959 1.26563E-01
 -1      3960 1.62281E-01
 -1      3961 3.41050E+00
 -1      3962 2.92250E+00
 -1      3963 2.63691E+00
 -1      3964 1.04893E-01
 -1      3965 1.11771E-01
 -1      3966 9.47062E-02
 -1      3967 1.29555E-01
 -1      3968 1.41308E-01
 -1      3969 5.35188E-02
 -1      3970 5.97435E-02
 -1      3971 5.71288E-02
 -1      3972 2.33958E+00
 -1      3973 2.22176E+00
 -1      3974 2.19236E+00
 -1      3975 1.87757E+00
 -1      3976 2.40770E+00
 -1      3977 1.21694E-01
 -1      3978 1.24794E-01
 -1      3979 1.14172E-01
 -1      3980 1.20367E-01
 -1      3981 1.06265E-01
 -1      3982 1.10385E-01
 -1      3983 9.93855E-02
 -1      3984 1.13377E-01
 -1      3985 2.45634E-02
 -1      3986 1.79944E-01
 -1      3987 8.94399E-02
 -1      3988 9.47236E-02
 -1      3989 7.84975E-02
 -1      3990 1.30123E-01
 -1      3991 7.96155E-02
 -1      3992 9.00724E-02
 -1      3993 9.68983E-02
 -1      3994 1.15713E-01
 -1      3995 1.44172E-01
 -1      3996 1.44172E-01
 -1      3997 8.23777E-02
 -1      3998 4.72999E-02
 -1      3999 2.52084E+00
 -1      4000 2.03400E+00
 -1      4001 2.36561E+00
 -1      4002 2.26322E+00
 -1      4003 1.39779E-01
 -1      4004 8.44749E-02
 -1      4005 7.98009E-02
 -1      4006 7.92345E-02
 -1      4007 7.35939E-02
 -1      4008 7.11049E-02
 -1      4009 6.88232E-02
 -1      4010 6.29212E-02
 -1      4011 6.57678E-02
 -1      4012 5.92537E-02
 -1      4013 5.39265E-02
 -1      4014 5.73297E-02
 -1      4015 5.03234E-02
 -1      4016 4.55598E-02
 -1      4017 5.00591E-02
 -1      4018 4.20628E-02
 -1      4019 3.77273E-02
 -1      4020 4.29589E-02
 -1      4021 3.45978E-02
 -1      4022 3.08024E-02
 -1      4023 3.63324E-02
 -1      4024 2.81904E-02
 -1      4025 2.59650E-02
 -1      4026 3.05910E-02
 -1      4027 2.39679E-02
 -1      4028 2.25868E-02
 -1      4029 2.59819E-02
 -1      4030 2.14111E-02
 -1      4031 2.12770E-02
 -1      4032 2.28092E-02
 -1      4033 2.14769E-02
 -1      4034 2.36063E-02
 -1      4035 2.18334E-02
 -1      4036 2.54097E-02
 -1      4037 2.94301E-02
 -1      4038 2.38367E-02
 -1      4039 3.57832E-02
 -1      4040 4.20534E-02
 -1      4041 3.19931E-02
 -1      4042 5.37406E-02
 -1      4043 6.28762E-02
 -1      4044 5.00333E-02
 -1      4045 8.15496E-02
 -1      4046 9.80402E-02
 -1      4047 8.03938E-02
 -1      4048 1.26545E-01
 -1      4049 1.58465E-01
 -1      4050 1.27572E-01
 -1      4051 1.99846E-01
 -1      4052 2.48985E-01
 -1      4053 1.97458E-01
 -1      4054 3.05212E-01
 -1      4055 3.77002E-01
 -1      4056 2.95065E-01
 -1      4057 4.66906E-01
 -1      4058 5.64262E-01
 -1      4059 4.41195E-01
 -1      4060 6.97316E-01
 -1      4061 8.39022E-01
 -1      4062 6.64153E-01
 -1      4063 1.01020E+00
 -1      4064 1.29868E+00
 -1      4065 9.68381E-01
 -1      4066 1.48468E+00
 -1      4067 1.79382E+00
 -1      4068 1.75173E+00
 -1      4069 1.32555E+00
 -1      4070 2.86641E-02
 -1      4071 3.23692E-02
 -1      4072 1.99138E+00
 -1      4073 1.67659E+00
 -1      4074 1.25033E+00
 -1      4075 2.00506E+00
 -1      4076 4.28283E-02
 -1      4077 4.75541E-02
 -1      4078 8.71575E-02
 -1      4079 8.80475E-02
 -1      4080 2.05098E-02
 -1      4081 2.03837E-02
 -1      4082 1.97625E-02
 -1      4083 2.04067E-02
 -1      4084 2.14120E-02
 -1      4085 3.66707E-02
 -1      4086 3.14374E-02
 -1      4087 5.77806E-02
 -1      4088 4.79985E-02
 -1      4089 5.03926E-02
 -1      4090 9.26522E-02
 -1      4091 7.64540E-02
 -1      4092 8.03938E-02
 -1      4093 1.45805E-01
 -1      4094 1.21504E-01
 -1      4095 1.27919E-01
 -1      4096 2.26028E-01
 -1      4097 1.93429E-01
 -1      4098 2.04395E-01
 -1      4099 3.32796E-01
 -1      4100 2.92856E-01
 -1      4101 3.18847E-01
 -1      4102 4.83713E-01
 -1      4103 4.19445E-01
 -1      4104 4.72324E-01
 -1      4105 6.98629E-01
 -1      4106 6.02830E-01
 -1      4107 6.78090E-01
 -1      4108 9.80092E-01
 -1      4109 8.69802E-01
 -1      4110 9.68381E-01
 -1      4111 1.19691E+00
 -1      4112 1.09469E+00
 -1      4113 1.25416E+00
 -1      4114 1.42218E+00
 -1      4115 1.94587E+00
 -1      4116 1.04620E-01
 -1      4117 1.21822E-01
 -1      4118 1.19605E-01
 -1      4119 1.47690E-01
 -1      4120 7.60234E-02
 -1      4121 8.20627E-02
 -1      4122 6.84747E-02
 -1      4123 1.44172E-01
 -1      4124 9.64273E-02
 -1      4125 5.98623E-02
 -1      4126 6.54736E-02
 -1      4127 2.12204E-02
 -1      4128 2.24181E-02
 -1      4129 2.16044E-02
 -1      4130 2.49827E-02
 -1      4131 2.25709E-02
 -1      4132 3.26102E-02
 -1      4133 1.24131E-01
 -1      4134 3.52601E-02
 -1      4135 3.94877E-02
 -1      4136 3.35104E-02
 -1      4137 1.19986E-01
 -1      4138 8.89736E-02
 -1      4139 8.63501E-02
 -1      4140 7.35465E-02
 -1      4141 1.02427E-01
 -1      4142 1.10120E-01
 -1      4143 1.00886E-01
 -1      4144 9.13052E-02
 -1      4145 2.41772E-02
 -1      4146 2.63225E-02
 -1      4147 2.82780E-02
 -1      4148 2.41772E-02
 -1      4149 5.11548E-02
 -1      4150 5.62579E-02
 -1      4151 5.38883E-02
 -1      4152 8.20647E-02
 -1      4153 8.20647E-02
 -1      4154 8.98174E-02
 -1      4155 1.73376E+00
 -1      4156 9.23366E-02
 -1      4157 9.36639E-02
 -1      4158 9.24275E-02
 -1      4159 7.54548E-02
 -1      4160 7.44956E-02
 -1      4161 2.40944E-02
 -1      4162 3.97418E-02
 -1      4163 9.09152E-02
 -1      4164 8.79428E-02
 -1      4165 7.69868E-02
 -1      4166 6.55410E-02
 -1      4167 7.99036E-02
 -1      4168 6.40156E-02
 -1      4169 7.19966E-02
 -1      4170 7.81575E-02
 -1      4171 4.66832E-02
 -1      4172 7.55001E-02
 -1      4173 7.49336E-02
 -1      4174 1.68034E+00
 -1      4175 7.05385E-02
 -1      4176 6.57678E-02
 -1      4177 5.92449E-02
 -1      4178 5.55774E-02
 -1      4179 5.19730E-02
 -1      4180 4.83699E-02
 -1      4181 4.47692E-02
 -1      4182 4.12722E-02
 -1      4183 3.79316E-02
 -1      4184 3.48021E-02
 -1      4185 3.19113E-02
 -1      4186 2.92993E-02
 -1      4187 2.69577E-02
 -1      4188 2.49606E-02
 -1      4189 2.32015E-02
 -1      4190 2.20258E-02
 -1      4191 2.12121E-02
 -1      4192 2.14120E-02
 -1      4193 2.20333E-02
 -1      4194 2.38367E-02
 -1      4195 2.58978E-02
 -1      4196 3.22509E-02
 -1      4197 3.87055E-02
 -1      4198 5.03926E-02
 -1      4199 6.17204E-02
 -1      4200 8.03938E-02
 -1      4201 9.90671E-02
 -1      4202 1.27572E-01
 -1      4203 1.56424E-01
 -1      4204 1.97805E-01
 -1      4205 2.45429E-01
 -1      4206 3.01655E-01
 -1      4207 3.68483E-01
 -1      4208 4.58387E-01
 -1      4209 5.45036E-01
 -1      4210 6.78090E-01
 -1      4211 7.97208E-01
 -1      4212 9.68381E-01
 -1      4213 9.19005E-02
 -1      4214 7.92993E-02
 -1      4215 8.78485E-02
 -1      4216 8.46749E-02
 -1      4217 7.71424E-02
 -1      4218 7.52672E-02
 -1      4219 1.13955E+00
 -1      4220 9.25471E-02
 -1      4221 6.88090E-02
 -1      4222 7.39038E-02
 -1      4223 7.09701E-02
 -1      4224 1.32555E+00
 -1      4225 7.66525E-02
 -1      4226 7.75786E-02
 -1      4227 1.44015E+00
 -1      4228 7.49336E-02
 -1      4229 7.90960E-02
 -1      4230 8.25526E-02
 -1      4231 8.80813E-02
 -3
 9999
